# vtk DataFile Version 2.0
data file: MKS_results generated by Noah H. Paulson on Thu Feb 26 13:23:27 2015
ASCII
DATASET RECTILINEAR_GRID
DIMENSIONS 22 22 22
X_COORDINATES 22 float
 0.0000  0.0200  0.0400  0.0600  0.0800  0.1000  0.1200  0.1400  0.1600  0.1800  0.2000  0.2200  0.2400  0.2600  0.2800  0.3000  0.3200  0.3400  0.3600  0.3800  0.4000  0.4200 
Y_COORDINATES 22 float
 0.0000  0.0200  0.0400  0.0600  0.0800  0.1000  0.1200  0.1400  0.1600  0.1800  0.2000  0.2200  0.2400  0.2600  0.2800  0.3000  0.3200  0.3400  0.3600  0.3800  0.4000  0.4200 
Z_COORDINATES 22 float
 0.0000  0.0200  0.0400  0.0600  0.0800  0.1000  0.1200  0.1400  0.1600  0.1800  0.2000  0.2200  0.2400  0.2600  0.2800  0.3000  0.3200  0.3400  0.3600  0.3800  0.4000  0.4200 
CELL_DATA 9261
SCALARS GrainID int 1
LOOKUP_TABLE default
   39    39    39   110     4    50    50    50    50    50    50    50   210   210   210   210   210    65    65    65     7 
   39    39    39     4     4   207   207    50    50    50    50    50   210   210   210   210   210    65    65    65    65 
   39    39    39     4     4   207   207   207    50    50    50   210   210   210   210   210   210   152   152   152   152 
   39    39    39     4     4   207   207   207   207    50    50   210   210   210   210   210   210   152   152   152   152 
   39    39    39     4     4   127   127   207   207   207   210   210   210   210   210    45    45   152   152   152   152 
   16    16    16    16   216   216   216   216   216   216   216   210   210   210   210    45    45   152   152   152   152 
   16    16    16    16    43    43   216   216   216   216   216   210   210   210   210    45    45   152   152   152    16 
   16    16    16    16    43    43   216   216   216   216   216   216   210   210   218   218    78    78    78    78    16 
   16    16    16    16    43   216   216   216   216   197   197   197   178   178   178   178   218    78   196   196    16 
   16    16    16    16    41    41   216   216   197   197   197   197   178   178   178   178   178    78   196   196    16 
   16    16   147   147   147   147   147   216   197   197   197   197   178   178   178   178   178   178    98    98    98 
   98   177   147   147   147   147   147   147   197   197   197   197   178   178   178   178   178    98    98    98    98 
   98   177   147   147   147   147   147   147    97    97   217   217   217   217   217    47    47    47    98    98    98 
  177   177   177   147   147   147   147   147    97    97   217   217   217   217   217    47    47    47    98    98    98 
   98   177   147   147   147   147   147   147    97    97   217   217   217   217   217   217   217   217    98    98    98 
   19    19    19   147   147   147   147   147    97   217   217   217   217   217   217   217   217   217    59    59    59 
  125   125   125   220   220   147   147   147    97   217   217   217   217   217   217   217   217    73    59    59    59 
  125   125   125   220   220   147   147   147    97   217   217   217   217   217   217    81    81    73    59    59    59 
  125   125   125   220   220   147   147   147   109   217   217   217   172   172   217    81    81    73    59    59    59 
  125   125   125   220   220   147   147   109    50    50   172   172   172   172   172    81    81    73    59    59    59 
  125   125   125   220   220   147    50    50    50    50    50   172   172   172   172   172   172    73    59    59    59 
   39    39    39   110     4     4    50    50    50    50    50    50   172   172   210   210   210    65    65    65     7 
   39    39    39     4     4     4   207    50    50    50    50   210   210   210   210   210   210    65    65    65    65 
   39    39    39     4     4     4   207   207    50    50    50   210   210   210   210   210   210    65    65    65    65 
   39    39    39     4     4     4   207   207   207    50    50   210   210   210   210   210   210   152   152   152   152 
   39    39    39     4     4     4   207   207   207    50   210   210   210   210   210   210    45   152   152   152   152 
   16    16    16    16    16   216   216   114   216   216   210   210   210   210   210    45    45    45   152   152    16 
   16    16    16    16    16   216   216   216   216   216   216   210   210   210   210   218   196    78   196   196    16 
   16    16    16    16    16   216   216   216   216   216   216   210   210   210   218   218    78    78    78    78    16 
   16    16    16    16    16   216   216   216   216   216   197   197   218   218   218   218   218    78   196   196    16 
   16    16    16    16   147   216   216   216   216   216   197   197   178   178   178   218   218   218   196   196    16 
   16    16    16   147   147   147   147   147   197   197   197   197   178   178   178   178   218   218    98    98    98 
   98   177   147   147   147   147   147   147   147   197   197   217   217   178   178   178    47    98    98    98    98 
   98   177   177   147   147   147   147   147   147   147   217   217   217   217    47    47    47    98    98    98    98 
  177   177   177   147   147   147   147   147   147   147   217   217   217   217    47    47    47    98    98    98    98 
   98   177   177   147   147   147   147   147   147   217   217   217   217   217   217    47    47    98    98    98    98 
   19    19    19   147   147   147   147   147   147   217   217   217   217    77   217   217   217    98    98    98    98 
  125   125   125   147   147   147   147   147   147   217   217   217   217   217   217   217   217    73    59    59    59 
  125   125   125   220   220   147   147   147   109   217   217   217   217   217   217    81    81    73    59    59    59 
  125   125   125   220   220   147   147   109   109    60    60   217   172   172   172    81    81    73    59    59    59 
  125   125   125   220   220   147   109   109    50    50    50   172   172   172   172    81    81    73    59    59    59 
  125   125   125   220   220   147    50    50    50    50    50   172   172   172   172   172    81    73    59    59    59 
    7   158   110   110     4     4     4    50    50    50    50   134   134   210   210   210   210    65    65     7     7 
  158    39   110     4     4     4     4     4    50    50    50   134   134   210   210   210   210    65    65    65     7 
   39    39     4     4     4     4     4   207    50    50    50   134   210   210   210   210   210    65    65   206   206 
   39    39    39     4     4     4     4   207   207    50    50   210   210   210   210   210   210   210   152   152    16 
   16    16    16     4     4     4     4   207   207   207   210   210   210   210   210   210   210   152   152   152    16 
   16    16    16    16    16   216   216   216   216   216   210   210   210   210   210   210   196   196   196   196    16 
   16    16    16    16    16   216   216   216   216   216   216   210   210   210   210   218   196   196   196   196    16 
   16    16    16    16    16   216   216   216   216   216   216   210   210   218   218   218   196   196   196   196    16 
   16    16    16    16    16   216   216   216   216   216   216   216   218   218   218   218   218   196   196   196    16 
   16    16    16    16    16   216   216   216   216   216   216   216   218   218   218   218   218   218   196   196    16 
   16    16    16    16   147   147   147   216   216   216   197    26   218   218   218   218   218   218    98    98    98 
   98    16   147   147   147   147   147   147   147   147    26   217   217   217   218   218   218    98    98    98    98 
   98   177   147   147   147   147   147   147   147   147   217   217   217   217   217    47    47    98    98    98    98 
   98   177   177   147   147   147   147   147   147   147   217   217   217   217   217    47    47    98    98    98    98 
   98   177   147   147   147   147   147   147   147   217   217   217   217   217   217   217   217    98    98    98    98 
   98    19    19   147   147    44   147   147   147   217   217   217   217   217   217   217   217    98    98    98    98 
  125   125   125   147   147    44    44   147   147   217   217   217   217   217   217   217   217    73    59    59    59 
  125   125   125   125    44    44    44   109   109    60    60   217   217   217   217    81    81    73    59    59    59 
  125   125   125   125   125    44   109   109   109    83    60    60   172   172   172    81    81    73     8    59    59 
  125   125   125   125   125   109   109   109    83    83    83    60   172   172   172    81    81     8     8     8    59 
  125   125   125   125   125   109   109   109   109    83   109   172   172   172   172   172   172     8     8     7     7 
    7   158   110   110     4     4     4    52   109   109   134   134   134   210   210   210   210    65     7     7     7 
  158   110   110   110     4     4     4    52    50    50   134   134   134   210   210   210   210    65   206     7     7 
  158   158   110     4     4     4     4     4    50    50   134   134   134   210   210   210   210   210   206   206   206 
   16    39     4     4     4     4     4     4   180   180   180   210   210   210   210   210   210   210   206   206   206 
   16    16    16     4     4     4     4   180   180   180   180   210   210   210   210   210   210   210   196   196    16 
   16    16    16    16     4     4     4   180   180   180   180   180   210   210   210   210   196   196   196   196    16 
   16    16    16    16    16   216   216   216   180   180   180   180   210   210   218   218   196   196   196   196    16 
   16    16    16    16    16   216   216   128   128   180   180   180   218   218   218   218   196   196   196   196    16 
   16    16    16    16    16   216   216   216   216   216   216   218   218   218   218   218   218   196   196   196    16 
   16    16    16    16    16    67    67    67    67    67    67   218   218   218   218   146   218   218   196   196    16 
   16    16    16    16   147   147    67    67    67    67    26    26    26   218   218   218   218   218    98    98    98 
   98    98    16   147   147   147   147   147   147    26    26    26    26    26   218   218   132   132    98    98    98 
   98    98    98   147   147   147   147   147   147    26    26    26    26    26   217    10    10   132    98    98    98 
   98    98    98   147   147   147   147   147   147   147   217   217   217   217   217    68    10    10    98    98    98 
   98    98   147   147   147    44   147   147   147   217   217   217   204   204   204    10    10    10    98    98    98 
   98    19    19   147    44    44    44   147   147    60    60   217   204   204   204   217    10    10    98    98    98 
  125   125   125    44    44    44    44    44    60    60    60    60   204   204   204   217   217    10    98    98    98 
  125   125   125   125    44    44    44   109   109    60    60    60    60   217   217   217    81     8     8     8     8 
  125   125   125   125    44    44   109   109   109    83    60    60    60    60   172    81     8     8     8     8     8 
    7   125   125   125    44   109   109   109    83    83    83    60    60    60   172    81     8     8     8     8     8 
    7     7   125    91   168   109   109   109   109    83   109   109    60   172   172   172     8     8     8     7     7 
    7   158   158   110     4     4     4   109   109   109   109   134   134   209   209   210   210     7     7     7     7 
  158   158   158     4     4     4     4     4   109    50   134   134   134   209   209   210   210   206   206   206     7 
  158   158   158     4     4     4     4     4     4   134   134   134   210   210   210   210   210   206   206   206   206 
   91   158     4     4     4     4     4     4   180   180   180   210   210   210   210   210   210   210   206   206   206 
   16    16    16     4     4     4     4   180   180   180   180   180   210   210   210   210   210   210   196    16    16 
   16    16    16    16    16     4   124   180   180   180   180   180   210   210   210   218   218   130   196    16    16 
   16    16    16    16    16   124   124   180   180   180   180   180   210   218   218   218   218   196   196    16    16 
   16    16    16    16    16    16   124   128   180   180   180   180   218   218   218   218   218   196   196    16    16 
   16    16    16    16    16    16    67    67    67   180   180   180    36   218   218   218   218   218   196    16    16 
   16    16    16    16    16    67    67    67    67    67    67    36    36    36   218   218   218     1     1     1    16 
   16    16    16    16    16    67    67    67    67    67    26    26    26    26   218   218   218     1     1    98    98 
   98    16    16   147   147    28   191   191   191    26    26    26    26    26    26   170   132   132   132    98    98 
   98    98    74    74    28    28    28    28    28    26    26    26    26    26    26    10   211   132   132    98    98 
   98    98    74    74    28    28    28    28    28    26    26    26    26    26    26    10    10    10   132    98    98 
   98    98    74    74    28    28    28    28    28    60    60    60   204   204   204    10    10    10    10    98    98 
   98    98    74    44    44    44    44    44    60    60    60    60   204   204   204    10    10    10    10    98    98 
   98    98   125    44    44    44    44    44    60    60    60    60    60   204   204    10    10    10    10    98    98 
  125   125   125    44    44    44    44   109   109    60    60    60    60    60    60   217    10     8     8     8     8 
    7     7   125   125    44    44   109   109   109   109    60    60    60    60   198   198     8     8     8     8     8 
    7     7     7   168   184   184   109   109   109   109   109    60    60    60   198   198     8     8     8     8     7 
    7     7     7    91   168   184   109   109   109   109   109   109    60   198   198   198     8     8     7     7     7 
    7   158    91    91    91     4   109   109   109   109   109   109   209   209   209   198   198   206   206     7     7 
  158   104   158    91     4     4     4   109   109   109   134   134   209   209   209   210   206   206   206   206   206 
   91   158    91    91     4     4     4     4   180   180   134   134   209   209   209   210   210   206   206   206   206 
   91    91    91    91     4     4   124   124   180   180   180   163   163   210   210   210   210   206   206   206   206 
   91    16    91     4     4   124   124   124   180   180   180   180   210   210   210   210   210   130   206   206   206 
   16    16    16    16   190   167   124   124   180   180   180   180   210   210   210   218   130   130   130   130    16 
   16    16    16    16    16   124   124   124   180   180   180   180   180   218   218   218   218   218   196    16    16 
   16    16    16    16    16   124   124   124   180   180   180   180   180   218   218    76   218   218   218    16    16 
   16    16    16    16    16    67    67    67    67    67   180   180    36    36   218   218   218     1     1     1    16 
   16    16    16    16    67    67    67    67    67    67    67    36    36    36    96    96     1     1     1     1    16 
   16    16    16    16    67    67    67    67    67    67    26    26    26    36    96    96     1     1     1     1     1 
   98    16    74    74    28    28   191   191   191   191    26    26    26    26    26   170   132   132   132   132    98 
   98    98    74    74    28    28    28   191   191    26    26    26    26    26    26   132   132   132   132   132    98 
   98    98    74    74    28    28    28    28    28    26    26    26    26    26    26   132   132    10   132   132    98 
   98    98    74    74    28    28    28    28    28    60    60    72    26    26   132   132   132   132   132   132    98 
   98    98    74    74    28    28    28    28    60    60    60    72    60    60   132   132   132   132   132   132    98 
   98    98    74    44    44    44    44    60    60    60    60    60    60    60    60   132   132   132   132   132    98 
    7     7    64    64   168   168   145   109   109    60    60    60    60    60   198   198   132     8     8     8     8 
    7     7    64   168   168   145   145   109   109   109    60    60    60    60   198   198   198     8     8     8     8 
    7     7    91   168   184   184   145   109   109   109   109    60    60   198   198   198   198     8     8     7     7 
    7    91    91    91   168   184   145   109   109   109   109   109   198   198   198   198   198     8     7     7     7 
   91    91    91    91    91     9   145   145   109   109   109   198   198   198   198   198   206   206   206   206   206 
   91    91    91    91    91     9     9   120   120   109   109   198   209   209   209   198   206   206   206   206   206 
   91    91    91    91    91     9   124   124   124   124   180   209   209   209   209   210   206   206   206   206   206 
   91    91    91    91   190   124   124   124   124   180   180   180   163   221   221   210   206   206   206    86   206 
   91    91    91   190   190   190   124   124   124   180   180   180   221   221   221   221   221   206    86    86    86 
   16    16    16   190   190   190   124   124   124   180   180   180   221   221   221   221   130   130   130    86    86 
   16    16    16   190   190   190   124   124   124   180   180   180   221   221   221   218   218   218   196   112   112 
   16    16    16    16   190   124   124   124   124   180   180   180   221   221   218   218   218   218   218   112   112 
   88    88    88    16    16   124    67    67    67   180   180   180   175   175   218   218   218     1     1     1    16 
   88    88    88    88    67    67    67    67    67    67    26   175   175   175    96    96     1     1     1     1     1 
   88    88    88    88    67    67    67    67    67    67    26    26    26    26    25    96     1     1     1     1     1 
  123   123    88    74    28    28   191   191   191    26    26    26    26    26    26   170    10    10    10    10    10 
   98    98    74    74    28    28    28   191   191    26    26    26    26    26    26    10    10    10    10    10    10 
   98    98    74    74    28    28    28    28    28    26    26    26    26    26    26   132   132    10    10    10    10 
   98    98    74    74    28    28    28   111   111    93    93    93    93    26   132   132   132   132   132    10    10 
   98   155   155   155    28    28   111   111   111    60    93    93    93    60   132   132   132   132   132   132    98 
   98    64    64    64   168   168   111   111    60    60    60    60    60    60   198   132   132   132   132   132    98 
   64    64    64    64   168   168   145   145   109    60    60    60    60   198   198   198   198     8     8     8     8 
   91    91    64   168   168   168   145   145   109   109    60    60    60   198   198   198   198     8     8     8     8 
   91    91    91   168   168   168   145   145   109   109   109    60   198   198   198   198   198     8     8     7     7 
   91    91    91    91   168   168   145   145   109   109   109   198   198   198   198   198   198   206   206     7     7 
   91    91    91    91    91     9   145   120   145   109   109   198   198   198   198   198   206   206   206   206   206 
   91    91    91    91     9     9   120   120   120   109   109   198   198   198   198   198   206   206   206   202   206 
   91    91    91    91    91     9   124   120   124   124   180   209   209   221   221   206   206   206   206   206   206 
   91    91    91    91   190   124   124   124   124   124   180   221   221   221   221   221   221   206    86    86    86 
   91    91    91   190   190   190   124   124   124    24   180   221     3   221   221   221   221   206    86    86    86 
   91    91    91   190   190   190   124   124   124    24    24   221   221   221   221   221   221    61    86    86    86 
   16    16    16   190   190   190   124   124   124    24   180   221   221   221   221   221   221   218   196   112   112 
   88    88    88   190   190   124   124   124   124   124   180   221   221   221   221   221   218   218   218   112   112 
   88    88    88    88   190   124   124   124   124   124   180   221   175   175   175   218   218     1     1     1   112 
   88    88    88    88   190    67    67    67    67    67   219   175   175   175   175   218     1     1     1     1     1 
   88    88    88    88    67    67    67    67    67   219    26    26    26    25    25    96     1     1     1    10   123 
  123   123    35    35    35    28   191   191   219    26    26    26    25    25    25    10    10    10    10    10   123 
  123   123    35    35    35    28    28   219   219    26    26    26    26    25    25    10    10    10    10    10   123 
  123   123    35    35    35   153    28   111   111    93    93    26    26    26    26   132   132    10    10    10   123 
  123   123    35    35    35    28   111   111   111    93    93    93    93    93   132   132   132   132    10    10   123 
  123   155   155   155   155   155   111   111   111    93    93    93    93    93    93   132   132   132   132   132   123 
  155   155   155   155   155   111   111   111   111    60    93    93    93   198   198   198   132   132   132   132   123 
   64    64    64    64    64   168   145   179   145    60    60    60    60   198   198   198   198   198     8     8   206 
   91    91    64    64   168   168   145   145   145   109    60    60   198   198   198   198   198   198     8     8   206 
   91    91    91    21   168   168   145   145   145   109   109   198   198   198   198   198   198   206   206   206   206 
   91    91    91    91   168   168   145   145   145   109   109   198   198   198   198   198   198   206   206   206   206 
   91    91    91    91    91     9   145   145   145   109   109   198   198   198   198   198   206   206   206   206   206 
   91    91    91    91    91     9     9   120   120   109   109   198   198   198   198   198   206   206   206   206   206 
   91    91    91    91    91     9   124   124   124   124    55   221   221   221   221   221   206   206   206   206   206 
   91    91    91    91    91   124   124   124   124    55    55   221     3   221   221   221   221   206   206    86   206 
   91    91    91   190   190   190   124   124   124    55    55   221     3     3   221   221   221   206    86    86    86 
   79    91    91   190   190   190   124   124   124    55    55   221     3   221   221   221   221    61    79    79    79 
   79    88    88   190   190   190   124   124   124    55    55   221   221   221   221   221   221   221    79    79    79 
   88    88    88   190   190   124   124   124   124    55    55   221   221   221   221   221   221   221    79    79   112 
   88    88    88    88   190   124   124   124   124   219   219   221   221   221   221   221   221     1     1    79   112 
   88    88    63    63    63    67    67   219   219   219   219   219   175   175   175   218     1     1     1   123   123 
  123    88    63   161   161   219   219   219   219   219   219    26    25    25    25    25     1     1   123   123   123 
  123   123   161   161   161   161   219   219   219   219   219    26    25    25    25    25    10    10   123   123   123 
  123   123   123    35    35    28   219   219   219   219   219    80    25    25    25    10   122   122   123   123   123 
  123   123    35    35    35   153   117   219   219   219    80    80    80    26    26   132   122   122   122   123   123 
  123   123   155   155   155   155   111   111   111    93    93    93    93    93    93   132   122   122   122   123   123 
  123   155   155   155   155   155   111   111   111    93    93    93    93    93    93   132   132   132   132   123   123 
  155   155   155   155   155   155   111   111   111   160   160   160   160   198   198   198   132   132   132   123   123 
   91   155   108   108   108   168   145   145   145   160   160   160   160   198   198   198   198   198   182   182   182 
   91    91    91   108   168   168   145   145   145   145   160   160   198   198   198   198   198   198   182   182   182 
   91    91    91    91   168   168   145   145   145   145   198   198   198   198   198   198   198   198   182   182   182 
   91    91    91    91   168   168   145   145   145   145   198   198   198   198   198   198   198   206   206   206   206 
   91    91    91    91    91     9   115   115   115   115   198   198   198   198   198   198   206   206   206   206   206 
   91    91    91    91    91     9     9   120   115   115   198   198   198   198   198   221   206   206   206     6   206 
   91    91    91    91    91     9   124   124   124    55    55   221   221   221   221   221   221   206   206   206   206 
   91    91    91    91   124   124   124   124    55    55    55   221     3   221   221   221   221   206   206   206   206 
   79    91    91    91   124   124   124   124    55    55    55   221     3     3   221   221   221    79    79    79    79 
   79    79    91   124   124   124   124   124    55    55    55   221     3     3   221   221   221    79    79    79    79 
   79    79    63   124   124   124   124   124    55    55    55   221   221   221   221   221   221    79    79    79    79 
   63    63    63    63    12    12   124   124   124    55    55   221   221   221   221   221   221    79    79    79    79 
   63    63    63    63    12    12    12    57   124   219   219   221   221   221   221   221   221    79    79    79    79 
   63    63    63    63    63    12    57    57   219   219   219   219   219   175   175   221   221     1   123   123   123 
  123    63    63   161   161   161   219   219   219   219   219   219   219    25    25   142   142   123   123   123   123 
  123   123   161   161   161   161   219   219   219   219   219   219   219    25    25   142   142   123   123   123   123 
  123   123   161   161   161   117   219   219   219   219   219    80    80    25    25   142   122   122   122   123   123 
  123   123   155   155   117   117   117   219   219   219    80    80    80   118   118   122   122   122   122   123   123 
  123   123   155   155   155   117   117   219   219   219    80    80    80    93    93   122   122   122   122   123   123 
  123   155   155    30   155   155   111   111   111   160   160    33    93    93    93   122   122   122   122   123   123 
  155   155   155   155   155   155   155   111   160   160   160   160   160   160   198   181   181   181   122   123   123 
  203   155   108    87   108   155   145   145   145   160   160   160   160   160   198   198   181   182   182   182   182 
  203   203   108   108   108   168   145    85   115   160   160   160   160   198   198   198   198   182   182   182   182 
   91    91    91   108   168   168    85    85    85   115   160   198   198   198   198   198   198   182   182   182   182 
   91    91    91    91   168   168   115    85   115   115   198   198   198   198   198   198   198   206   182   182   206 
   91    91    91    91   162   162   115   115   115   115   115   198   198   198   198   129   129   206   206   206   206 
   91    91    91    91   162   162   162   115   115   115   115   198   198   221   221   129   129   129   206     6   206 
   91    91    91    91   162   162   162    55    55    55    55   221   221   221   221   221   129   129   206   206   206 
   79    91    91   215   215   124   124    55    55    55    55   221   221   221   221   221   221    79    79    79    79 
   79    79   215   215    29    29   124    55    55    55    55   221     3     3   221   221   221    79    79    79    79 
   79    79   215    29    29    29   124    55    55    55    55   221   221     3   221   221   221    79    79    79    79 
   79    79    63    12    12    12    12   124    55    55    55   221   221   221   221   221   221    79    79    79    79 
   63    63    63    63    12    12    12    12    55    55    55   221   221   221   221   221   221    79    79    79    79 
   63    63    63    63    12    12    12    57    57   219   219   219   221   221   221   221   221    79    79   164    79 
   63    63    63    63    12    12    57    57   219   219   219   219   219   221   221   221   221   164   164   164   164 
  123    63    63    63    12    57    57    57   219   219   219   219   219   219    25   142   122   123   123   123   123 
  123   123   161   161   161   117   219   219   219   219   219   219   219   219    25   142   122   123   123   123   123 
  123   123   195   161   117   117   117   219   219   219   219   219    32    32    32   122   122   122   102   123   123 
  123   123   195   117   117   117   117   219   219   219   219    80    32    32    32   122   122   122   102   102   123 
  123   195   155   155   117   117   117   219   219   219   219    80    80    32    32   122   122   122   102   102   123 
  123   155   155   155   155   194   194   219   219   219   137   137   137   160   181   181   122   122   102   102   102 
  203   203   155   155   155   194   194   194   193   193   137   137   160   160   181   181   181   181   102   102   102 
  203   203   203   108   108   115   115   115   193   193   137   137   160   160   181   181   181   181    31    31    31 
  203   203   203   108   115   115   115   115   115   193   137   137   137   198   181   181   181   181    31    31    31 
  203   203   203   108   115   115   115   115   115   115   137   137   198   198   198   198   181    31    31    31    31 
   91    91    91    91   115   115   115   115   115   115   137   198   198   198   198   198   129    31    31    31    31 
   46    46    46    46    46   162   115   115   115   115   115   198   198   198   129   129   129   129   129   129   206 
   46    46    46    46   162   162   162   115   115   115   115    54    54    54   129   129   129   129   129   129   129 
   79   215    46    46    46   162   162   162    66    66    55    54    54    54    54   129   129   129   129   176   176 
   79   215   215   215   215   215   162    66    66    66    55   139    54    54    54   221   129   129    79   176    79 
   79   215   215   215   215    29    29    66    66    55    55   221   221     3   221   221   221    79    79    79    79 
   79    79   215   215    29    29    29    55    55    55    55   221   221   138   221   221    79    79    79    79    79 
   79    79   215    12    12    12    12    12   113   113   113   221   221   221   221   221   221    79    79    79    79 
   79    63    63    12    12    12    12    12   113   113   113   113   221   221   221   221   221    79    79    79    79 
   63    63    63    37    12    12    12    57    57   113   113   219   221   221   221   221   221    79   164   164   164 
   63    63    63    37    37    12    57    57    57   219   219   219   219   221   221   221   164   164   164   164   164 
   63    63    63    37    37    57    57    57   219   219   219   219   219   157   157   157   164   164   164   164   123 
  123   195   195   195   117   117   219   219   219   219   219   219   219   157   157   157   122   102   102   123   123 
  123   195   195   195   117   117   117   219   219   219   219   219    32    32    32    32   122   102   102   102   123 
  195   195   195   117   117   117   117   219   219    89   219   219    32    32    32    32   122   102   102   102   102 
  195   195   195   117   117   117   117   219   219   219   219   219    32    32    32    32   122   102   102   102   102 
  195   195   116   116   194   194   194   219   219   105   105   137   137   137   141   141   141   102   102   102   102 
  203   203   203   155   194   194   194   194   193   193   105   137   137   137   181   181   181   181   189   189   102 
  203   203   203   108   194   194   115   115   193   193   137   137   137   137   181   181   181   181   189   189   189 
  203   203   203   203   115   115   115   115   115   193   137   137   137   137   181   181   181   181    31    31    31 
  203   203   203   203   115   115   115    69   115   115   137   137   137   137   198   181   181    31    31    31    31 
   91    46    46    46   115   115   115   115   115   115   137   137   198   198   198   129   129   129    31    31    31 
   46    46    46    46    46    46   115   115   115   115   115    53    54   129   129   129   129   129   129   129   129 
   46    46    46    46    46   162   162   115   115   115    53    54    54   129   129   129   129   129   129   129   129 
  215   215   215    46    46    46   162   162    66    66    54    54    54    54   129   129   129   129   129   129   129 
   79   215   215   215   215   215   215    66    66    66    55   139    54    54    54   129   129   129   129    79    79 
   79   215   215   215   215   215    29    66    66    55   113   221    54    54   156   156   129    79    79    79    79 
   79    79   215   187   215    29    29   113   113   113   113   113   221   126   221   221    79    79    79    79    79 
   79    79   215    12    12    12    12   113   113   113   113   113   221   221   221   221    79    79    79    79    79 
   79    63    63    12    12    12    12   113   113   113   113   113   221   221   221   221    79    79    79    79    79 
   63    63    63    12    12    12    12    57   113   113   113   113   113   221   221   188   188    79    79   164    79 
   63    63    63    37    12    12    57    57    57   219   219   219   219   157   157   188   188   164   164   164   164 
  195   195   195    37    12    57    57    57   219   219   219   219   157   157   157   157   188   102   102   164   123 
  195   195   195   195   195   117   219   219   219   219   219   219   157   157   157   157   102   102   102   102   195 
  195   195   195   195   117   117   117   219   219   219   219   219   157   157   157   157   102   102   102   102   102 
  195   195   195   195   117   117   117   219   219   219   219    84    38    38    38    38   102   102   102   102   102 
  195   195   195   195   117   117   117   219   219   219   219    84    38    38    38    38   102   102   102   102   102 
  195   195   195   116   194   194   194   219   219   105   105   137   137   137   141   141   141   102   102   102   195 
  195   203   195   155   194   194   194   194   193   193   105   137   137   137   181   181   181   181   189   189   195 
  203   203   203   203   194   115   115   115   193   193   137   137   137   137   181   181   181   181   189   189   189 
  203   203   203   203   115   115   115   115   115   193   137   137   137   137   181   181   181   181   189    31    31 
   82   203    46    46   115   115   115   115   115   115   137   137   137   137   181   181   129   129    31    51    31 
   82    46    46    46    46   115   115   115   115   115   115   137   137   137   129   129   129   129    51    51    51 
   46    46    46    46    46    46   115   115   115   115    53    53    53   129   129   129   129   129   129   129   129 
   46    46    46    46    46    46   162   115   115    53    53    53    53   129   129   129   129   129   129   129   129 
  215   215   215    46    46    46    46    46    66   201    53    53    54   156   156   129   129   129   129   129   129 
   79   215   215   192   215   215   215    66    66    66    56    56   156   156   156   156   129   129   129   129    79 
   79   215   215   215   215   215   215   113    66   113   113   156   156   156   156   156   156   129    79    79    79 
   79   215   187   187   187   215    29   113   113   113   113   113   126   126   156   156   156    79    79    79    79 
   79    79   187   187    12    12    12   113   113   113   113   113   126   126   156   156   156    79    79    79    79 
   79    79   187    12    12    12   113   113   113   113   113   113   113   126   188   188    94    94    79    79    79 
   63    63    63    12    12    12    12   113   113   113   113   113   113   188   188   188   188    94    79    79    79 
  195   195    63    37    12    12    57    57   113   113   113   219   219   157   188   188   188   188    90   164   164 
  195   195   195   195    12   200   200   219   219   219   219   219   157   157   157   188   188    90    90   164   195 
  195   195   195   195   195   200   200   200   219   219   219   219   157   157   157   157   157   102   102   102   195 
  195   195   195   195   195   200   200   200   219   219   219    84   157   157   157   157   157   102   102   102   195 
  195   195   195   195   195   117   200   200   200   219    84    84    38    38    38     2     2   102   102   102   195 
  195   195   195   195   195   166   200   200   200   219    84    84    38    38    38     2    23    23   102   102   195 
  195   195   195   195   166   166   166   200   200   105   105   137   137    38    38    23    23    23    23   102   195 
  195    27   195   195   166   166   166   133   133   193   105   137   137   137   181   181    23    23    23   189   195 
   27    27    27    27   115   115   115   115   115   193   137   137   137   137   181   181   181    23   189   189   189 
   82    82    82    82   115   115   115   115   115   193   137   137   137   137   181   199   181   129   189    51    51 
   82    82    82    82   115   115   115   115   115   115    62   137   137   199   199   199   129   129    51    51    51 
   82    82    46    46    46   115   115   115   115   115    62   214   137   199   129   129   129   129    51    51    51 
   82    82    46    46    46    46    46   201   201   201    53    53    53    53   129   129   129   129   129   129   129 
   82    46    46    46    46    46    46   201   201    53    53    53    53    53   129   129   129   129   129   129   129 
  215   215   215   215   215   215   215   201   201   201    53    53    53   156   156   129   129   129   129   171   129 
  215   215   215   215   215   215   215   215   201   201    56    56   156   156   156   156   156   129   171   171    79 
   79   215   215   215   215   215   215   113   113   113   113    56   156   156   156   156   156   129    79    79    79 
   79   136   136   136   136   215   113   113   113   113   113   113   156   156   156   156   156    79    79    79    79 
   79   136   136   136   136    12   113   113   113   113   113   113   156   156   156   156    94    94    94    79    79 
  100   136   136   136    12    12   113   113   113   113   113   113   113   188   188   188    94    94    94   100   100 
   99    99    99    12    12    12   113   113   113   113   113   113   113   188   188   188   188    94    94   100   100 
   99    99    99    99    12    12   113   113   113   113   113   113   113   188   188   188   188    90    90   121   121 
  195   205   195   195   200   200   200   200   200   219   219   219   157   157   188   188   188    90    90   121   195 
  195   205   195   195   200   200   200   200   200   219   219   219   157   157   157   188   188    90    90   195   195 
  195   195   195   195   200   200   200   200   200   200   219    84     2     2     2     2     2    23   102   102   195 
  195   195   195   195   200   165   200   200   200   200    84    84     2     2     2     2    23    23    23   102   195 
  195   195   195   195   200   200   200   200   200   200    84    84     2     2     2     2    23    23    23    23   195 
  195   195   195   195   166   166   200    42   200   200    84    84     2     2     2    23    23    23    23    23   195 
  195   195   195   195   166   166   200    42   133   200   105   214   119   119   119    23    23    23    23    23   195 
   82    27    82    82    82   115   115   115   115   193   214   214   119   119   119   107    23    23    23   189    82 
   82    82    82    82    82   115   115   115    62    62    62   214   214   119   199   199   199   199    18    51    82 
   82    82    82    82    82   115   115   115    62    62    62   214   214   199   199   199   199   199    51    51    82 
   82    82    82    46    46    46   115   115    62    62    62   214   214   199   199   199   129   129   129   129    82 
   82    82    82    46    46    46    46   201   201   201   214    53    53    53   199   199   129   129   129   129    82 
   82    46    46    46    46    46    46   201   201   201    53    53    53   156   156   129   129   129   129   129   129 
  215   215   215   215   215   215   215   201   201   201    53    53    53   156   156   156   129   129   129   171   171 
  215   215   215   215   215   215   215   201   201   201    56    56   156   156   156   156   156   129   171   171   171 
  100   136   136   136   136   215   215   113   113    75    75    75   156   156   156   156   156   156   171   171   100 
  100   136   136   136   136   136   113   113   113   186    75    75   156    92   156   156   156    17   100   100   100 
  100   100   136   136   136   136   113   113   186   186   186    75    75   156   156   156    94    17    94   100   100 
  100   100   136   136   136   136   113   113   186   186   186   113    75   188   188   188    94    17    94   100   100 
   99    99    99    99    12    12   113   113   186   186   186   113    75   188   188   188   188    17    94   100   100 
   99    99    99    99    99    14    14   113   113   186   113   113   188   188   188   188   188    90    90   121   121 
  205   205   205   205    14    14    14    14    14    14   219   219   157   188   188   188   188    90   121   121   121 
  205   205   205   195   200   200   200   200   200   200   200     2     2     2     2   188   188    90   121   121   195 
  195   205   195   195   200   200   200   200   200   200   200     2     2     2     2     2   188    23    23   195   195 
  195   131   195   195   165   165   200   200   200   200   200     2     2     2     2     2    23    23    23    23   195 
  195   195   195   195   200   200   200   200   200   200   200     2     2     2     2     2    23    23    23    23   195 
  195   195   195   195   200   200   200    42   200   200   200     2     2     2     2    23    23    23    23    23   195 
  195   195   195    82   200   200   200    42    42   200   214   214   119   119   119    23    23    23    23    18    18 
   82    82    82    82    82   200   200    42    42   214   214   214   119   119   119   107    23    23    18    18    18 
   82    82    82    82    82   115   115    62    62    62   214   214   214   119   199   199   199   199    18    18    82 
   82    82    82    82    82   115   115    62    62    62    62   214   214   199   199   199   199   199    71    71    82 
   82    82    82    82    46    46   115    62    62    62   214   214   214   199   199   199   199   129   129   129    82 
   82    82    82    46    46    46   201   201   201   201   201   214   214   214   199   199    71    71    71   129    82 
  174   174   174    46    46    46   201   201   201   201   201   183    53   214   156   129   129   129   129   129   129 
  174   174   215   215   215   215   201   201   201   201   201   183    53   156   156   156   156   129   129   171   171 
  100   215   215   215   215   215   215   201    95    95    95    75    75   156   156   156   156   129   171   171   171 
  100   136   136   136   136   136   136   201    95    95    75    75    75   156   156   156   156   156   100   100   100 
  100   100   136   136   136   136   150   113   113    75    75    75    75   156   156   156   156   100   100   100   100 
  100   100   136   136   136   136   150   113   186   186    75    75    75   156   156   156    94    94   100   100   100 
  100   100   136   136   136    43   150   113   186   186   186    75    75     5     5     5    94    94   100   100   100 
  100    99    99    70    70    43    14   113   186   186   186   140    75     5     5     5     5    94   100   100   100 
   99    99    99    70    70    14    14    14    14   186   140   140   140     5     5     5     5    90   100   121   100 
  205   205   205    70    14    14    14    14    14    14   140   140   140     5     5     5     5     5   121   121   100 
  205   205   205   205    14    14    14    14    14    14   140     2     2     2     5     5     5     5     5   121   195 
  154   154   154   154   200   200   200    14   200   200   200     2     2     2     2     2     5     5     5   195   195 
  195   131   154   154   200   200   200   200   200   200   200     2     2     2     2     2    23    23    23    15   195 
  195   195   195   195   200   200   200   200   200   200   200     2     2     2     2     2    23    23    23    15    15 
  195   195   195   195   200   200   200   200   200   200   200     2     2     2     2    23    23    23    23    15    15 
   82    82    82   220   220   200   200   200   200   200   214   214   214   119   119    23    23    23    18    18    18 
   82    82    82    82   220   200   200   200   200   214   214   214   214   119   119   107    23    18    18    18    18 
   82    82    82    82    82    82   200    62    62   214   214   214   214   214   199   199   199    71    18    18    18 
   82    82    82    82    82    82    62    62    62    62   214   214   214   214   199   199   199    71    71    71    82 
   82    82    82    82    82    82    62    62    62   214   214   214   214   214   199   199    71    71    71    71    82 
  213   213   213   213    46   201   201   201   201   201   201   214   214   214   214    71    71    71    71    71    82 
  174   174   174   174    46   159   159   159   201   106   201   201   214   214   151   151    71   129    71    71    49 
  174   174   174   174   127   127   159   201   201   201   201   201   214   156   151   151   151   151   152   152    49 
  174   174   174   215   127   127   103   103    95    34    95    75    75   156   151   151   151   152   152   152   152 
  100   101   136   136   136   127   127   103    95    95    75    75    75    75   156   151   151   152   152    20    20 
  100   100   136   136   136    43   150   150    95    75    75    75    75    75   156   156   156   152   152    20   100 
  100   100   136   136    43    43   150   150   150    75    75    75    75    75   156   156   156   100   100   100   100 
  100   100   100    43    43    43   150   150   150   186    75    75    75     5     5     5     5   100   100    48   100 
  100   100    70    70    43    43   150   150   197   197   197   140   140     5     5     5     5   100   100   100   100 
  100    99    70    70    70    41    14    14    14   197   140   140   140     5     5     5     5     5   100   100   100 
  154   154   154    70    70    14    14    14    14   197   140   140   140     5     5     5     5     5   100   100   100 
  154   154   154   154   154    14    14    14    14    14   140   140     2     5     5     5     5     5     5   154   154 
  154   154   154   154   200    14    14    14    14    14    14     2     2     2     2     5     5     5     5   154   154 
  154   212   154   154   200   200   200   200   200   200   200     2     2     2     2     2     2    23    15    15   154 
  154   154   154   154   200   200   200   200   200   200   200     2     2     2     2     2    23    23    15    15    15 
   18   154   154   220   200   200   200   200   200   200   214   214     2     2     2    23    23    23    15    15    15 
   18    18   220   220   220   200   200   200   200   214   214   214   214   214   214    23    23    18    18    18    18 
   18   213   220   220   220   220    40   169   214   214   214   214   214   214   214    71    71    71    18    18    18 
  213   213   213   220   220    40    40   214   214   214   214   214   214   214   214    71    71    71    71    18    18 
  213   149   213   213   213   173   173   214   214   214   214   214   214   214   214    71    71    71    71    71   213 
  213   213   213   213   213   173   173   201   201   214   214   214   214   214   214    71    71    71    71    71   213 
  213   213   213   213   213   201   201   201   201   201   214   214   214   214   208   208    71    71    71    71    49 
  174   174   174   174   127   127   127   201   201   201   201   201   214   214   208   208   208    71   152    49    49 
  174   174   174   127   127   127   127   103   201   201   201   201   214   148   148   208   208   152   152    49    49 
  101   101   101   101   127   127   127   103   103    95    75    75    75   148   148   151   151   152   152    49    49 
  101   101   101   101   127   127   127   103   103    95    75    75    75    75   156   151   152   152   152    49    49 
  101   101   101   101    43    43   150   150   150    75    75    75    75    75   156   156   152   152   152    20   100 
  100   101   101    43    43    43   150   150   150    75    75    75    75    75   156   156   152   152   100   100   100 
  100   100   100    43    43    43   150   150   150   185    75    75    75     5     5     5     5   100   100   100   100 
  100   100   100    43    43    43   150   150   197   197   197   197    75     5     5     5     5   100   100   100   100 
  100   100    70    70    41    41    41    14   197   197   197   140   140     5     5     5     5     5   100   100   100 
  154   154   154    70    41    41    14    14   197   197   197   140   140     5     5     5     5     5   100   100   100 
  154   154   154   154    41    14    14    14    14   197   197   140   140     5     5     5     5     5     5   154   154 
  154   154   154   154   154    14    14    97    97    97   197     2     2     2     2     5     5     5   154   154   154 
  154   154   154   154   154    97    97    97    97    97    97     2     2     2     2     2     2    23    15   154   154 
   11    11   154   154    97    97    97    97    97    97    97     2     2     2     2     2    23    23    15    15    15 
   11    11    11   220   220    97    97    97    97    97   214   214   214     2   217    23    23    23    15    15    15 
   11    11   220   220   220    40    40   169    97   214   214   214   214   214   214   214    23    18    18    18    18 
   18   220   220   220   220    40    40   169   169   214   214   214   214   214   214   214    71    71    18    18    18 
  149   149   220   220   220    40    40   169   214   214   214   214   214   214   214    71    71    71    71    18    18 
  149   149   213   213   173   173   173   169   214   214   214   214   214   214   214    71    71    71    71    18    18 
  213   213   213   213   173   173   173   173   214   214   214   214   214   214   214    71    71    71    71    71   213 
  213   213   213   213   213   127   127   201   201   201   214   214   214   214   208   208   208    71    71    49    49 
  174   174   174   174   127   127   127   143   201   201   201   214   214   214   208   208   208   208    49    49    49 
  101   174   101   127   127   127   127   103   103   201   201   201   214   148   148   208   208   152    49    49    49 
  101   101   101   101   127   127   127   103   103   103    75    75    75   148   148   151   152   152   152    49    49 
  101   101   101   101   127   127   127   103   103   103    75    75    75    75   210   151   152   152   152    49    49 
  101    58   101    43    43    43   150   150   150    75    75    75    75    75   210   152   152   152   152   152   100 
  101   101   101    43    43    43   150   150   150   185    75    75    75    75     5   152   152   152   152   100   100 
  100   100   101    43    43    43   150   150   150   185   185    75    75     5     5     5     5   152   100   100   100 
  100   100    43    43    43    43    43   150   150   197   197   197   197     5     5     5     5   100   100   100   100 
  100   154    41    41    41    41    41   197   197   197   197   197   197   178     5     5     5     5   100   100   100 
  154   154   154    41    41    41    41    14   197   197   197   197   197   178   178     5     5     5   100   100   100 
  154   154   154   154    41    41    14   144   197   197   197   197   178   178   178   178     5     5   100   154   154 
  154   154   154   154   147    97    97    97    97    97   197   197   217   217   178   178     5     5   154   154   154 
  154    13   154   154   147    97    97    97    97    97    97   217   217   217   217   217   217    23   154   154   154 
   11    11    11   154   147    97    97    97    97    97    97   217   217   217   217   217   217    23    15    15    15 
   11    11    11   220   220    97    97    97    97    97    97   217   217   217   217   217   217    23   135   135    15 
   11    11   220   220   220    40    40   169   169   214   214   214   217   217   217   217   217    18    18    18    18 
   18   220   220   220   220    40    40   169   169   214   214   214   214   214   214   217    71    71    18    18    18 
  149   220   220   220   220    40    40   169   169    22    22   214   214   214   214    71    71    71    18    18    18 
  149   149   220   220   173   173   173   169   214    22    22   214   214   214   214    71    71    71    71    18    18 
  213   213   213   213   173   173   173   173   214    22    22   214   214   214   214    71    71    71    71    71   213 
  213   213   213   213   127   127   127   103   201   201   214   214   214   214   208   208   208   208   152    49    49 
  174   174   174   127   127   127   127   103   103    50   201   214   214   208   208   208   208   208   152    49    49 
  101   101   101   127   127   127   127   103   103   201   201   201   210   210   210   208   208   152   152    49    49 
  101   101   101   101   127   127   127   103   103   103    75    75   210   210   210   210   152   152   152    49    49 
  101   101   101   101   127   127   127   127   103   103    75    75   210   210   210   210   152   152   152   152    49 
  101   101   101   101    43    43   127   150   150    75    75    75    75   210   210   152   152   152   152   152   100 
  101   101   101    43    43    43   150   150   150   185    75    75    75    75     5   152   152   152   152   152   100 
  100   101   101    43    43    43    43   150   150   185   197   197    75     5     5     5   152   152   152   100   100 
  100   100    43    43    43    43    43   150   197   197   197   197   197   178   178   178     5   100   100   100   100 
  100   154    41    41    41    41    41   197   197   197   197   197   197   178   178   178     5     5   100   100   100 
  154   154   154    41    41    41    41   197   197   197   197   197   197   178   178   178     5     5   100   100   100 
  154   154   154   154   147   147   147    97   197   197   197   197   178   178   178   178   178   178   100   154   154 
  154   154   154   147   147   147    97    97    97    97   197   217   217   217   178   178   178   178   154   154   154 
  154   154   154   147   147   147    97    97    97    97    97   217   217   217   217   217   217   217   217   154   154 
   11    11    11   147   147   147    97    97    97    97    97   217   217   217   217   217   217   217    15    15    15 
   11    11    11   220   147   147    97    97    97    97   217   217   217   217   217   217   217   217   135   135    15 
   11    11   220   220   220    40    40   169    97    97   217   217   217   217   217   217   217   217    18    18    18 
   11   220   220   220   220    40    40   169   169    22   214   217   217   217   217   217   217    71    18    18    18 
  220   220   220   220   220    40    40   169    22    22    22   214   214   214   214   217   217    71    18    18    18 
  149   149   220   220   173   173   173   173    22    22    22   214   214   214   214    71    71    71    71    18    18 
  213   213   213   173   173   173   173   173    22    22    22   214   214   214   214    71    71    71    71    71   213 
VECTORS Euler_phi1Phi0phi2 float 
 +4.523970E+00 +2.179550E+00 +2.367365E-02     +4.523970E+00 +2.179550E+00 +2.367365E-02     +4.523970E+00 +2.179550E+00 +2.367365E-02     +3.930640E+00 +1.465029E+00 +3.238450E+00     +4.602379E+00 +5.372560E-01 +2.793579E+00     +5.525491E+00 +1.605509E+00 +1.080820E+00     +5.525491E+00 +1.605509E+00 +1.080820E+00     +5.525491E+00 +1.605509E+00 +1.080820E+00     +5.525491E+00 +1.605509E+00 +1.080820E+00     +5.525491E+00 +1.605509E+00 +1.080820E+00     +5.525491E+00 +1.605509E+00 +1.080820E+00     +5.525491E+00 +1.605509E+00 +1.080820E+00     +4.957660E-01 +1.701850E+00 +2.498352E-01     +4.957660E-01 +1.701850E+00 +2.498352E-01     +4.957660E-01 +1.701850E+00 +2.498352E-01     +4.957660E-01 +1.701850E+00 +2.498352E-01     +4.957660E-01 +1.701850E+00 +2.498352E-01     +1.386111E+00 +2.577029E+00 +3.175319E+00     +1.386111E+00 +2.577029E+00 +3.175319E+00     +1.386111E+00 +2.577029E+00 +3.175319E+00     +3.158290E+00 +9.270875E-01 +4.146730E+00    
 +4.523970E+00 +2.179550E+00 +2.367365E-02     +4.523970E+00 +2.179550E+00 +2.367365E-02     +4.523970E+00 +2.179550E+00 +2.367365E-02     +4.602379E+00 +5.372560E-01 +2.793579E+00     +4.602379E+00 +5.372560E-01 +2.793579E+00     +5.685649E+00 +1.890691E+00 +5.557690E+00     +5.685649E+00 +1.890691E+00 +5.557690E+00     +5.525491E+00 +1.605509E+00 +1.080820E+00     +5.525491E+00 +1.605509E+00 +1.080820E+00     +5.525491E+00 +1.605509E+00 +1.080820E+00     +5.525491E+00 +1.605509E+00 +1.080820E+00     +5.525491E+00 +1.605509E+00 +1.080820E+00     +4.957660E-01 +1.701850E+00 +2.498352E-01     +4.957660E-01 +1.701850E+00 +2.498352E-01     +4.957660E-01 +1.701850E+00 +2.498352E-01     +4.957660E-01 +1.701850E+00 +2.498352E-01     +4.957660E-01 +1.701850E+00 +2.498352E-01     +1.386111E+00 +2.577029E+00 +3.175319E+00     +1.386111E+00 +2.577029E+00 +3.175319E+00     +1.386111E+00 +2.577029E+00 +3.175319E+00     +1.386111E+00 +2.577029E+00 +3.175319E+00    
 +4.523970E+00 +2.179550E+00 +2.367365E-02     +4.523970E+00 +2.179550E+00 +2.367365E-02     +4.523970E+00 +2.179550E+00 +2.367365E-02     +4.602379E+00 +5.372560E-01 +2.793579E+00     +4.602379E+00 +5.372560E-01 +2.793579E+00     +5.685649E+00 +1.890691E+00 +5.557690E+00     +5.685649E+00 +1.890691E+00 +5.557690E+00     +5.685649E+00 +1.890691E+00 +5.557690E+00     +5.525491E+00 +1.605509E+00 +1.080820E+00     +5.525491E+00 +1.605509E+00 +1.080820E+00     +5.525491E+00 +1.605509E+00 +1.080820E+00     +4.957660E-01 +1.701850E+00 +2.498352E-01     +4.957660E-01 +1.701850E+00 +2.498352E-01     +4.957660E-01 +1.701850E+00 +2.498352E-01     +4.957660E-01 +1.701850E+00 +2.498352E-01     +4.957660E-01 +1.701850E+00 +2.498352E-01     +4.957660E-01 +1.701850E+00 +2.498352E-01     +2.070980E+00 +9.549901E-01 +5.551800E+00     +2.070980E+00 +9.549901E-01 +5.551800E+00     +2.070980E+00 +9.549901E-01 +5.551800E+00     +2.070980E+00 +9.549901E-01 +5.551800E+00    
 +4.523970E+00 +2.179550E+00 +2.367365E-02     +4.523970E+00 +2.179550E+00 +2.367365E-02     +4.523970E+00 +2.179550E+00 +2.367365E-02     +4.602379E+00 +5.372560E-01 +2.793579E+00     +4.602379E+00 +5.372560E-01 +2.793579E+00     +5.685649E+00 +1.890691E+00 +5.557690E+00     +5.685649E+00 +1.890691E+00 +5.557690E+00     +5.685649E+00 +1.890691E+00 +5.557690E+00     +5.685649E+00 +1.890691E+00 +5.557690E+00     +5.525491E+00 +1.605509E+00 +1.080820E+00     +5.525491E+00 +1.605509E+00 +1.080820E+00     +4.957660E-01 +1.701850E+00 +2.498352E-01     +4.957660E-01 +1.701850E+00 +2.498352E-01     +4.957660E-01 +1.701850E+00 +2.498352E-01     +4.957660E-01 +1.701850E+00 +2.498352E-01     +4.957660E-01 +1.701850E+00 +2.498352E-01     +4.957660E-01 +1.701850E+00 +2.498352E-01     +2.070980E+00 +9.549901E-01 +5.551800E+00     +2.070980E+00 +9.549901E-01 +5.551800E+00     +2.070980E+00 +9.549901E-01 +5.551800E+00     +2.070980E+00 +9.549901E-01 +5.551800E+00    
 +4.523970E+00 +2.179550E+00 +2.367365E-02     +4.523970E+00 +2.179550E+00 +2.367365E-02     +4.523970E+00 +2.179550E+00 +2.367365E-02     +4.602379E+00 +5.372560E-01 +2.793579E+00     +4.602379E+00 +5.372560E-01 +2.793579E+00     +4.549539E+00 +1.545980E+00 +3.262760E+00     +4.549539E+00 +1.545980E+00 +3.262760E+00     +5.685649E+00 +1.890691E+00 +5.557690E+00     +5.685649E+00 +1.890691E+00 +5.557690E+00     +5.685649E+00 +1.890691E+00 +5.557690E+00     +4.957660E-01 +1.701850E+00 +2.498352E-01     +4.957660E-01 +1.701850E+00 +2.498352E-01     +4.957660E-01 +1.701850E+00 +2.498352E-01     +4.957660E-01 +1.701850E+00 +2.498352E-01     +4.957660E-01 +1.701850E+00 +2.498352E-01     +1.846120E+00 +2.636760E+00 +4.365350E+00     +1.846120E+00 +2.636760E+00 +4.365350E+00     +2.070980E+00 +9.549901E-01 +5.551800E+00     +2.070980E+00 +9.549901E-01 +5.551800E+00     +2.070980E+00 +9.549901E-01 +5.551800E+00     +2.070980E+00 +9.549901E-01 +5.551800E+00    
 +5.138010E+00 +1.343350E+00 +1.951891E+00     +5.138010E+00 +1.343350E+00 +1.951891E+00     +5.138010E+00 +1.343350E+00 +1.951891E+00     +5.138010E+00 +1.343350E+00 +1.951891E+00     +4.840150E+00 +1.948020E+00 +4.511090E+00     +4.840150E+00 +1.948020E+00 +4.511090E+00     +4.840150E+00 +1.948020E+00 +4.511090E+00     +4.840150E+00 +1.948020E+00 +4.511090E+00     +4.840150E+00 +1.948020E+00 +4.511090E+00     +4.840150E+00 +1.948020E+00 +4.511090E+00     +4.840150E+00 +1.948020E+00 +4.511090E+00     +4.957660E-01 +1.701850E+00 +2.498352E-01     +4.957660E-01 +1.701850E+00 +2.498352E-01     +4.957660E-01 +1.701850E+00 +2.498352E-01     +4.957660E-01 +1.701850E+00 +2.498352E-01     +1.846120E+00 +2.636760E+00 +4.365350E+00     +1.846120E+00 +2.636760E+00 +4.365350E+00     +2.070980E+00 +9.549901E-01 +5.551800E+00     +2.070980E+00 +9.549901E-01 +5.551800E+00     +2.070980E+00 +9.549901E-01 +5.551800E+00     +2.070980E+00 +9.549901E-01 +5.551800E+00    
 +5.138010E+00 +1.343350E+00 +1.951891E+00     +5.138010E+00 +1.343350E+00 +1.951891E+00     +5.138010E+00 +1.343350E+00 +1.951891E+00     +5.138010E+00 +1.343350E+00 +1.951891E+00     +2.906589E+00 +1.952840E+00 +5.279670E+00     +2.906589E+00 +1.952840E+00 +5.279670E+00     +4.840150E+00 +1.948020E+00 +4.511090E+00     +4.840150E+00 +1.948020E+00 +4.511090E+00     +4.840150E+00 +1.948020E+00 +4.511090E+00     +4.840150E+00 +1.948020E+00 +4.511090E+00     +4.840150E+00 +1.948020E+00 +4.511090E+00     +4.957660E-01 +1.701850E+00 +2.498352E-01     +4.957660E-01 +1.701850E+00 +2.498352E-01     +4.957660E-01 +1.701850E+00 +2.498352E-01     +4.957660E-01 +1.701850E+00 +2.498352E-01     +1.846120E+00 +2.636760E+00 +4.365350E+00     +1.846120E+00 +2.636760E+00 +4.365350E+00     +2.070980E+00 +9.549901E-01 +5.551800E+00     +2.070980E+00 +9.549901E-01 +5.551800E+00     +2.070980E+00 +9.549901E-01 +5.551800E+00     +5.138010E+00 +1.343350E+00 +1.951891E+00    
 +5.138010E+00 +1.343350E+00 +1.951891E+00     +5.138010E+00 +1.343350E+00 +1.951891E+00     +5.138010E+00 +1.343350E+00 +1.951891E+00     +5.138010E+00 +1.343350E+00 +1.951891E+00     +2.906589E+00 +1.952840E+00 +5.279670E+00     +2.906589E+00 +1.952840E+00 +5.279670E+00     +4.840150E+00 +1.948020E+00 +4.511090E+00     +4.840150E+00 +1.948020E+00 +4.511090E+00     +4.840150E+00 +1.948020E+00 +4.511090E+00     +4.840150E+00 +1.948020E+00 +4.511090E+00     +4.840150E+00 +1.948020E+00 +4.511090E+00     +4.840150E+00 +1.948020E+00 +4.511090E+00     +4.957660E-01 +1.701850E+00 +2.498352E-01     +4.957660E-01 +1.701850E+00 +2.498352E-01     +4.487301E+00 +1.771249E+00 +4.998571E+00     +4.487301E+00 +1.771249E+00 +4.998571E+00     +5.598119E+00 +2.061890E+00 +1.272050E+00     +5.598119E+00 +2.061890E+00 +1.272050E+00     +5.598119E+00 +2.061890E+00 +1.272050E+00     +5.598119E+00 +2.061890E+00 +1.272050E+00     +5.138010E+00 +1.343350E+00 +1.951891E+00    
 +5.138010E+00 +1.343350E+00 +1.951891E+00     +5.138010E+00 +1.343350E+00 +1.951891E+00     +5.138010E+00 +1.343350E+00 +1.951891E+00     +5.138010E+00 +1.343350E+00 +1.951891E+00     +2.906589E+00 +1.952840E+00 +5.279670E+00     +4.840150E+00 +1.948020E+00 +4.511090E+00     +4.840150E+00 +1.948020E+00 +4.511090E+00     +4.840150E+00 +1.948020E+00 +4.511090E+00     +4.840150E+00 +1.948020E+00 +4.511090E+00     +5.254021E+00 +2.600570E+00 +4.963440E+00     +5.254021E+00 +2.600570E+00 +4.963440E+00     +5.254021E+00 +2.600570E+00 +4.963440E+00     +3.183899E+00 +1.106230E+00 +6.516117E-01     +3.183899E+00 +1.106230E+00 +6.516117E-01     +3.183899E+00 +1.106230E+00 +6.516117E-01     +3.183899E+00 +1.106230E+00 +6.516117E-01     +4.487301E+00 +1.771249E+00 +4.998571E+00     +5.598119E+00 +2.061890E+00 +1.272050E+00     +3.868631E+00 +2.330819E+00 +3.753090E+00     +3.868631E+00 +2.330819E+00 +3.753090E+00     +5.138010E+00 +1.343350E+00 +1.951891E+00    
 +5.138010E+00 +1.343350E+00 +1.951891E+00     +5.138010E+00 +1.343350E+00 +1.951891E+00     +5.138010E+00 +1.343350E+00 +1.951891E+00     +5.138010E+00 +1.343350E+00 +1.951891E+00     +4.350031E+00 +2.797740E+00 +6.246621E+00     +4.350031E+00 +2.797740E+00 +6.246621E+00     +4.840150E+00 +1.948020E+00 +4.511090E+00     +4.840150E+00 +1.948020E+00 +4.511090E+00     +5.254021E+00 +2.600570E+00 +4.963440E+00     +5.254021E+00 +2.600570E+00 +4.963440E+00     +5.254021E+00 +2.600570E+00 +4.963440E+00     +5.254021E+00 +2.600570E+00 +4.963440E+00     +3.183899E+00 +1.106230E+00 +6.516117E-01     +3.183899E+00 +1.106230E+00 +6.516117E-01     +3.183899E+00 +1.106230E+00 +6.516117E-01     +3.183899E+00 +1.106230E+00 +6.516117E-01     +3.183899E+00 +1.106230E+00 +6.516117E-01     +5.598119E+00 +2.061890E+00 +1.272050E+00     +3.868631E+00 +2.330819E+00 +3.753090E+00     +3.868631E+00 +2.330819E+00 +3.753090E+00     +5.138010E+00 +1.343350E+00 +1.951891E+00    
 +5.138010E+00 +1.343350E+00 +1.951891E+00     +5.138010E+00 +1.343350E+00 +1.951891E+00     +3.156707E-01 +1.393139E+00 +1.170060E+00     +3.156707E-01 +1.393139E+00 +1.170060E+00     +3.156707E-01 +1.393139E+00 +1.170060E+00     +3.156707E-01 +1.393139E+00 +1.170060E+00     +3.156707E-01 +1.393139E+00 +1.170060E+00     +4.840150E+00 +1.948020E+00 +4.511090E+00     +5.254021E+00 +2.600570E+00 +4.963440E+00     +5.254021E+00 +2.600570E+00 +4.963440E+00     +5.254021E+00 +2.600570E+00 +4.963440E+00     +5.254021E+00 +2.600570E+00 +4.963440E+00     +3.183899E+00 +1.106230E+00 +6.516117E-01     +3.183899E+00 +1.106230E+00 +6.516117E-01     +3.183899E+00 +1.106230E+00 +6.516117E-01     +3.183899E+00 +1.106230E+00 +6.516117E-01     +3.183899E+00 +1.106230E+00 +6.516117E-01     +3.183899E+00 +1.106230E+00 +6.516117E-01     +4.225140E+00 +1.382261E+00 +3.163409E+00     +4.225140E+00 +1.382261E+00 +3.163409E+00     +4.225140E+00 +1.382261E+00 +3.163409E+00    
 +4.225140E+00 +1.382261E+00 +3.163409E+00     +5.404499E+00 +4.255567E-01 +5.017801E+00     +3.156707E-01 +1.393139E+00 +1.170060E+00     +3.156707E-01 +1.393139E+00 +1.170060E+00     +3.156707E-01 +1.393139E+00 +1.170060E+00     +3.156707E-01 +1.393139E+00 +1.170060E+00     +3.156707E-01 +1.393139E+00 +1.170060E+00     +3.156707E-01 +1.393139E+00 +1.170060E+00     +5.254021E+00 +2.600570E+00 +4.963440E+00     +5.254021E+00 +2.600570E+00 +4.963440E+00     +5.254021E+00 +2.600570E+00 +4.963440E+00     +5.254021E+00 +2.600570E+00 +4.963440E+00     +3.183899E+00 +1.106230E+00 +6.516117E-01     +3.183899E+00 +1.106230E+00 +6.516117E-01     +3.183899E+00 +1.106230E+00 +6.516117E-01     +3.183899E+00 +1.106230E+00 +6.516117E-01     +3.183899E+00 +1.106230E+00 +6.516117E-01     +4.225140E+00 +1.382261E+00 +3.163409E+00     +4.225140E+00 +1.382261E+00 +3.163409E+00     +4.225140E+00 +1.382261E+00 +3.163409E+00     +4.225140E+00 +1.382261E+00 +3.163409E+00    
 +4.225140E+00 +1.382261E+00 +3.163409E+00     +5.404499E+00 +4.255567E-01 +5.017801E+00     +3.156707E-01 +1.393139E+00 +1.170060E+00     +3.156707E-01 +1.393139E+00 +1.170060E+00     +3.156707E-01 +1.393139E+00 +1.170060E+00     +3.156707E-01 +1.393139E+00 +1.170060E+00     +3.156707E-01 +1.393139E+00 +1.170060E+00     +3.156707E-01 +1.393139E+00 +1.170060E+00     +2.630241E+00 +1.160670E+00 +4.955601E+00     +2.630241E+00 +1.160670E+00 +4.955601E+00     +5.858500E+00 +2.491110E+00 +6.200010E+00     +5.858500E+00 +2.491110E+00 +6.200010E+00     +5.858500E+00 +2.491110E+00 +6.200010E+00     +5.858500E+00 +2.491110E+00 +6.200010E+00     +5.858500E+00 +2.491110E+00 +6.200010E+00     +2.135199E+00 +1.930481E+00 +3.795630E+00     +2.135199E+00 +1.930481E+00 +3.795630E+00     +2.135199E+00 +1.930481E+00 +3.795630E+00     +4.225140E+00 +1.382261E+00 +3.163409E+00     +4.225140E+00 +1.382261E+00 +3.163409E+00     +4.225140E+00 +1.382261E+00 +3.163409E+00    
 +5.404499E+00 +4.255567E-01 +5.017801E+00     +5.404499E+00 +4.255567E-01 +5.017801E+00     +5.404499E+00 +4.255567E-01 +5.017801E+00     +3.156707E-01 +1.393139E+00 +1.170060E+00     +3.156707E-01 +1.393139E+00 +1.170060E+00     +3.156707E-01 +1.393139E+00 +1.170060E+00     +3.156707E-01 +1.393139E+00 +1.170060E+00     +3.156707E-01 +1.393139E+00 +1.170060E+00     +2.630241E+00 +1.160670E+00 +4.955601E+00     +2.630241E+00 +1.160670E+00 +4.955601E+00     +5.858500E+00 +2.491110E+00 +6.200010E+00     +5.858500E+00 +2.491110E+00 +6.200010E+00     +5.858500E+00 +2.491110E+00 +6.200010E+00     +5.858500E+00 +2.491110E+00 +6.200010E+00     +5.858500E+00 +2.491110E+00 +6.200010E+00     +2.135199E+00 +1.930481E+00 +3.795630E+00     +2.135199E+00 +1.930481E+00 +3.795630E+00     +2.135199E+00 +1.930481E+00 +3.795630E+00     +4.225140E+00 +1.382261E+00 +3.163409E+00     +4.225140E+00 +1.382261E+00 +3.163409E+00     +4.225140E+00 +1.382261E+00 +3.163409E+00    
 +4.225140E+00 +1.382261E+00 +3.163409E+00     +5.404499E+00 +4.255567E-01 +5.017801E+00     +3.156707E-01 +1.393139E+00 +1.170060E+00     +3.156707E-01 +1.393139E+00 +1.170060E+00     +3.156707E-01 +1.393139E+00 +1.170060E+00     +3.156707E-01 +1.393139E+00 +1.170060E+00     +3.156707E-01 +1.393139E+00 +1.170060E+00     +3.156707E-01 +1.393139E+00 +1.170060E+00     +2.630241E+00 +1.160670E+00 +4.955601E+00     +2.630241E+00 +1.160670E+00 +4.955601E+00     +5.858500E+00 +2.491110E+00 +6.200010E+00     +5.858500E+00 +2.491110E+00 +6.200010E+00     +5.858500E+00 +2.491110E+00 +6.200010E+00     +5.858500E+00 +2.491110E+00 +6.200010E+00     +5.858500E+00 +2.491110E+00 +6.200010E+00     +5.858500E+00 +2.491110E+00 +6.200010E+00     +5.858500E+00 +2.491110E+00 +6.200010E+00     +5.858500E+00 +2.491110E+00 +6.200010E+00     +4.225140E+00 +1.382261E+00 +3.163409E+00     +4.225140E+00 +1.382261E+00 +3.163409E+00     +4.225140E+00 +1.382261E+00 +3.163409E+00    
 +4.621510E+00 +6.203145E-01 +2.231161E+00     +4.621510E+00 +6.203145E-01 +2.231161E+00     +4.621510E+00 +6.203145E-01 +2.231161E+00     +3.156707E-01 +1.393139E+00 +1.170060E+00     +3.156707E-01 +1.393139E+00 +1.170060E+00     +3.156707E-01 +1.393139E+00 +1.170060E+00     +3.156707E-01 +1.393139E+00 +1.170060E+00     +3.156707E-01 +1.393139E+00 +1.170060E+00     +2.630241E+00 +1.160670E+00 +4.955601E+00     +5.858500E+00 +2.491110E+00 +6.200010E+00     +5.858500E+00 +2.491110E+00 +6.200010E+00     +5.858500E+00 +2.491110E+00 +6.200010E+00     +5.858500E+00 +2.491110E+00 +6.200010E+00     +5.858500E+00 +2.491110E+00 +6.200010E+00     +5.858500E+00 +2.491110E+00 +6.200010E+00     +5.858500E+00 +2.491110E+00 +6.200010E+00     +5.858500E+00 +2.491110E+00 +6.200010E+00     +5.858500E+00 +2.491110E+00 +6.200010E+00     +4.092329E+00 +1.967230E+00 +5.843849E+00     +4.092329E+00 +1.967230E+00 +5.843849E+00     +4.092329E+00 +1.967230E+00 +5.843849E+00    
 +2.061770E+00 +1.152230E+00 +5.173899E+00     +2.061770E+00 +1.152230E+00 +5.173899E+00     +2.061770E+00 +1.152230E+00 +5.173899E+00     +8.284624E-01 +9.850813E-01 +5.831145E-02     +8.284624E-01 +9.850813E-01 +5.831145E-02     +3.156707E-01 +1.393139E+00 +1.170060E+00     +3.156707E-01 +1.393139E+00 +1.170060E+00     +3.156707E-01 +1.393139E+00 +1.170060E+00     +2.630241E+00 +1.160670E+00 +4.955601E+00     +5.858500E+00 +2.491110E+00 +6.200010E+00     +5.858500E+00 +2.491110E+00 +6.200010E+00     +5.858500E+00 +2.491110E+00 +6.200010E+00     +5.858500E+00 +2.491110E+00 +6.200010E+00     +5.858500E+00 +2.491110E+00 +6.200010E+00     +5.858500E+00 +2.491110E+00 +6.200010E+00     +5.858500E+00 +2.491110E+00 +6.200010E+00     +5.858500E+00 +2.491110E+00 +6.200010E+00     +3.076860E+00 +1.928310E+00 +4.824630E+00     +4.092329E+00 +1.967230E+00 +5.843849E+00     +4.092329E+00 +1.967230E+00 +5.843849E+00     +4.092329E+00 +1.967230E+00 +5.843849E+00    
 +2.061770E+00 +1.152230E+00 +5.173899E+00     +2.061770E+00 +1.152230E+00 +5.173899E+00     +2.061770E+00 +1.152230E+00 +5.173899E+00     +8.284624E-01 +9.850813E-01 +5.831145E-02     +8.284624E-01 +9.850813E-01 +5.831145E-02     +3.156707E-01 +1.393139E+00 +1.170060E+00     +3.156707E-01 +1.393139E+00 +1.170060E+00     +3.156707E-01 +1.393139E+00 +1.170060E+00     +2.630241E+00 +1.160670E+00 +4.955601E+00     +5.858500E+00 +2.491110E+00 +6.200010E+00     +5.858500E+00 +2.491110E+00 +6.200010E+00     +5.858500E+00 +2.491110E+00 +6.200010E+00     +5.858500E+00 +2.491110E+00 +6.200010E+00     +5.858500E+00 +2.491110E+00 +6.200010E+00     +5.858500E+00 +2.491110E+00 +6.200010E+00     +3.911690E+00 +2.064901E+00 +5.572710E+00     +3.911690E+00 +2.064901E+00 +5.572710E+00     +3.076860E+00 +1.928310E+00 +4.824630E+00     +4.092329E+00 +1.967230E+00 +5.843849E+00     +4.092329E+00 +1.967230E+00 +5.843849E+00     +4.092329E+00 +1.967230E+00 +5.843849E+00    
 +2.061770E+00 +1.152230E+00 +5.173899E+00     +2.061770E+00 +1.152230E+00 +5.173899E+00     +2.061770E+00 +1.152230E+00 +5.173899E+00     +8.284624E-01 +9.850813E-01 +5.831145E-02     +8.284624E-01 +9.850813E-01 +5.831145E-02     +3.156707E-01 +1.393139E+00 +1.170060E+00     +3.156707E-01 +1.393139E+00 +1.170060E+00     +3.156707E-01 +1.393139E+00 +1.170060E+00     +5.400150E+00 +1.024931E+00 +1.593920E+00     +5.858500E+00 +2.491110E+00 +6.200010E+00     +5.858500E+00 +2.491110E+00 +6.200010E+00     +5.858500E+00 +2.491110E+00 +6.200010E+00     +3.008780E+00 +6.545491E-01 +1.219811E+00     +3.008780E+00 +6.545491E-01 +1.219811E+00     +5.858500E+00 +2.491110E+00 +6.200010E+00     +3.911690E+00 +2.064901E+00 +5.572710E+00     +3.911690E+00 +2.064901E+00 +5.572710E+00     +3.076860E+00 +1.928310E+00 +4.824630E+00     +4.092329E+00 +1.967230E+00 +5.843849E+00     +4.092329E+00 +1.967230E+00 +5.843849E+00     +4.092329E+00 +1.967230E+00 +5.843849E+00    
 +2.061770E+00 +1.152230E+00 +5.173899E+00     +2.061770E+00 +1.152230E+00 +5.173899E+00     +2.061770E+00 +1.152230E+00 +5.173899E+00     +8.284624E-01 +9.850813E-01 +5.831145E-02     +8.284624E-01 +9.850813E-01 +5.831145E-02     +3.156707E-01 +1.393139E+00 +1.170060E+00     +3.156707E-01 +1.393139E+00 +1.170060E+00     +5.400150E+00 +1.024931E+00 +1.593920E+00     +5.525491E+00 +1.605509E+00 +1.080820E+00     +5.525491E+00 +1.605509E+00 +1.080820E+00     +3.008780E+00 +6.545491E-01 +1.219811E+00     +3.008780E+00 +6.545491E-01 +1.219811E+00     +3.008780E+00 +6.545491E-01 +1.219811E+00     +3.008780E+00 +6.545491E-01 +1.219811E+00     +3.008780E+00 +6.545491E-01 +1.219811E+00     +3.911690E+00 +2.064901E+00 +5.572710E+00     +3.911690E+00 +2.064901E+00 +5.572710E+00     +3.076860E+00 +1.928310E+00 +4.824630E+00     +4.092329E+00 +1.967230E+00 +5.843849E+00     +4.092329E+00 +1.967230E+00 +5.843849E+00     +4.092329E+00 +1.967230E+00 +5.843849E+00    
 +2.061770E+00 +1.152230E+00 +5.173899E+00     +2.061770E+00 +1.152230E+00 +5.173899E+00     +2.061770E+00 +1.152230E+00 +5.173899E+00     +8.284624E-01 +9.850813E-01 +5.831145E-02     +8.284624E-01 +9.850813E-01 +5.831145E-02     +3.156707E-01 +1.393139E+00 +1.170060E+00     +5.525491E+00 +1.605509E+00 +1.080820E+00     +5.525491E+00 +1.605509E+00 +1.080820E+00     +5.525491E+00 +1.605509E+00 +1.080820E+00     +5.525491E+00 +1.605509E+00 +1.080820E+00     +5.525491E+00 +1.605509E+00 +1.080820E+00     +3.008780E+00 +6.545491E-01 +1.219811E+00     +3.008780E+00 +6.545491E-01 +1.219811E+00     +3.008780E+00 +6.545491E-01 +1.219811E+00     +3.008780E+00 +6.545491E-01 +1.219811E+00     +3.008780E+00 +6.545491E-01 +1.219811E+00     +3.008780E+00 +6.545491E-01 +1.219811E+00     +3.076860E+00 +1.928310E+00 +4.824630E+00     +4.092329E+00 +1.967230E+00 +5.843849E+00     +4.092329E+00 +1.967230E+00 +5.843849E+00     +4.092329E+00 +1.967230E+00 +5.843849E+00    
 +4.523970E+00 +2.179550E+00 +2.367365E-02     +4.523970E+00 +2.179550E+00 +2.367365E-02     +4.523970E+00 +2.179550E+00 +2.367365E-02     +3.930640E+00 +1.465029E+00 +3.238450E+00     +4.602379E+00 +5.372560E-01 +2.793579E+00     +4.602379E+00 +5.372560E-01 +2.793579E+00     +5.525491E+00 +1.605509E+00 +1.080820E+00     +5.525491E+00 +1.605509E+00 +1.080820E+00     +5.525491E+00 +1.605509E+00 +1.080820E+00     +5.525491E+00 +1.605509E+00 +1.080820E+00     +5.525491E+00 +1.605509E+00 +1.080820E+00     +5.525491E+00 +1.605509E+00 +1.080820E+00     +3.008780E+00 +6.545491E-01 +1.219811E+00     +3.008780E+00 +6.545491E-01 +1.219811E+00     +4.957660E-01 +1.701850E+00 +2.498352E-01     +4.957660E-01 +1.701850E+00 +2.498352E-01     +4.957660E-01 +1.701850E+00 +2.498352E-01     +1.386111E+00 +2.577029E+00 +3.175319E+00     +1.386111E+00 +2.577029E+00 +3.175319E+00     +1.386111E+00 +2.577029E+00 +3.175319E+00     +3.158290E+00 +9.270875E-01 +4.146730E+00    
 +4.523970E+00 +2.179550E+00 +2.367365E-02     +4.523970E+00 +2.179550E+00 +2.367365E-02     +4.523970E+00 +2.179550E+00 +2.367365E-02     +4.602379E+00 +5.372560E-01 +2.793579E+00     +4.602379E+00 +5.372560E-01 +2.793579E+00     +4.602379E+00 +5.372560E-01 +2.793579E+00     +5.685649E+00 +1.890691E+00 +5.557690E+00     +5.525491E+00 +1.605509E+00 +1.080820E+00     +5.525491E+00 +1.605509E+00 +1.080820E+00     +5.525491E+00 +1.605509E+00 +1.080820E+00     +5.525491E+00 +1.605509E+00 +1.080820E+00     +4.957660E-01 +1.701850E+00 +2.498352E-01     +4.957660E-01 +1.701850E+00 +2.498352E-01     +4.957660E-01 +1.701850E+00 +2.498352E-01     +4.957660E-01 +1.701850E+00 +2.498352E-01     +4.957660E-01 +1.701850E+00 +2.498352E-01     +4.957660E-01 +1.701850E+00 +2.498352E-01     +1.386111E+00 +2.577029E+00 +3.175319E+00     +1.386111E+00 +2.577029E+00 +3.175319E+00     +1.386111E+00 +2.577029E+00 +3.175319E+00     +1.386111E+00 +2.577029E+00 +3.175319E+00    
 +4.523970E+00 +2.179550E+00 +2.367365E-02     +4.523970E+00 +2.179550E+00 +2.367365E-02     +4.523970E+00 +2.179550E+00 +2.367365E-02     +4.602379E+00 +5.372560E-01 +2.793579E+00     +4.602379E+00 +5.372560E-01 +2.793579E+00     +4.602379E+00 +5.372560E-01 +2.793579E+00     +5.685649E+00 +1.890691E+00 +5.557690E+00     +5.685649E+00 +1.890691E+00 +5.557690E+00     +5.525491E+00 +1.605509E+00 +1.080820E+00     +5.525491E+00 +1.605509E+00 +1.080820E+00     +5.525491E+00 +1.605509E+00 +1.080820E+00     +4.957660E-01 +1.701850E+00 +2.498352E-01     +4.957660E-01 +1.701850E+00 +2.498352E-01     +4.957660E-01 +1.701850E+00 +2.498352E-01     +4.957660E-01 +1.701850E+00 +2.498352E-01     +4.957660E-01 +1.701850E+00 +2.498352E-01     +4.957660E-01 +1.701850E+00 +2.498352E-01     +1.386111E+00 +2.577029E+00 +3.175319E+00     +1.386111E+00 +2.577029E+00 +3.175319E+00     +1.386111E+00 +2.577029E+00 +3.175319E+00     +1.386111E+00 +2.577029E+00 +3.175319E+00    
 +4.523970E+00 +2.179550E+00 +2.367365E-02     +4.523970E+00 +2.179550E+00 +2.367365E-02     +4.523970E+00 +2.179550E+00 +2.367365E-02     +4.602379E+00 +5.372560E-01 +2.793579E+00     +4.602379E+00 +5.372560E-01 +2.793579E+00     +4.602379E+00 +5.372560E-01 +2.793579E+00     +5.685649E+00 +1.890691E+00 +5.557690E+00     +5.685649E+00 +1.890691E+00 +5.557690E+00     +5.685649E+00 +1.890691E+00 +5.557690E+00     +5.525491E+00 +1.605509E+00 +1.080820E+00     +5.525491E+00 +1.605509E+00 +1.080820E+00     +4.957660E-01 +1.701850E+00 +2.498352E-01     +4.957660E-01 +1.701850E+00 +2.498352E-01     +4.957660E-01 +1.701850E+00 +2.498352E-01     +4.957660E-01 +1.701850E+00 +2.498352E-01     +4.957660E-01 +1.701850E+00 +2.498352E-01     +4.957660E-01 +1.701850E+00 +2.498352E-01     +2.070980E+00 +9.549901E-01 +5.551800E+00     +2.070980E+00 +9.549901E-01 +5.551800E+00     +2.070980E+00 +9.549901E-01 +5.551800E+00     +2.070980E+00 +9.549901E-01 +5.551800E+00    
 +4.523970E+00 +2.179550E+00 +2.367365E-02     +4.523970E+00 +2.179550E+00 +2.367365E-02     +4.523970E+00 +2.179550E+00 +2.367365E-02     +4.602379E+00 +5.372560E-01 +2.793579E+00     +4.602379E+00 +5.372560E-01 +2.793579E+00     +4.602379E+00 +5.372560E-01 +2.793579E+00     +5.685649E+00 +1.890691E+00 +5.557690E+00     +5.685649E+00 +1.890691E+00 +5.557690E+00     +5.685649E+00 +1.890691E+00 +5.557690E+00     +5.525491E+00 +1.605509E+00 +1.080820E+00     +4.957660E-01 +1.701850E+00 +2.498352E-01     +4.957660E-01 +1.701850E+00 +2.498352E-01     +4.957660E-01 +1.701850E+00 +2.498352E-01     +4.957660E-01 +1.701850E+00 +2.498352E-01     +4.957660E-01 +1.701850E+00 +2.498352E-01     +4.957660E-01 +1.701850E+00 +2.498352E-01     +1.846120E+00 +2.636760E+00 +4.365350E+00     +2.070980E+00 +9.549901E-01 +5.551800E+00     +2.070980E+00 +9.549901E-01 +5.551800E+00     +2.070980E+00 +9.549901E-01 +5.551800E+00     +2.070980E+00 +9.549901E-01 +5.551800E+00    
 +5.138010E+00 +1.343350E+00 +1.951891E+00     +5.138010E+00 +1.343350E+00 +1.951891E+00     +5.138010E+00 +1.343350E+00 +1.951891E+00     +5.138010E+00 +1.343350E+00 +1.951891E+00     +5.138010E+00 +1.343350E+00 +1.951891E+00     +4.840150E+00 +1.948020E+00 +4.511090E+00     +4.840150E+00 +1.948020E+00 +4.511090E+00     +4.348160E+00 +2.792329E+00 +3.762061E+00     +4.840150E+00 +1.948020E+00 +4.511090E+00     +4.840150E+00 +1.948020E+00 +4.511090E+00     +4.957660E-01 +1.701850E+00 +2.498352E-01     +4.957660E-01 +1.701850E+00 +2.498352E-01     +4.957660E-01 +1.701850E+00 +2.498352E-01     +4.957660E-01 +1.701850E+00 +2.498352E-01     +4.957660E-01 +1.701850E+00 +2.498352E-01     +1.846120E+00 +2.636760E+00 +4.365350E+00     +1.846120E+00 +2.636760E+00 +4.365350E+00     +1.846120E+00 +2.636760E+00 +4.365350E+00     +2.070980E+00 +9.549901E-01 +5.551800E+00     +2.070980E+00 +9.549901E-01 +5.551800E+00     +5.138010E+00 +1.343350E+00 +1.951891E+00    
 +5.138010E+00 +1.343350E+00 +1.951891E+00     +5.138010E+00 +1.343350E+00 +1.951891E+00     +5.138010E+00 +1.343350E+00 +1.951891E+00     +5.138010E+00 +1.343350E+00 +1.951891E+00     +5.138010E+00 +1.343350E+00 +1.951891E+00     +4.840150E+00 +1.948020E+00 +4.511090E+00     +4.840150E+00 +1.948020E+00 +4.511090E+00     +4.840150E+00 +1.948020E+00 +4.511090E+00     +4.840150E+00 +1.948020E+00 +4.511090E+00     +4.840150E+00 +1.948020E+00 +4.511090E+00     +4.840150E+00 +1.948020E+00 +4.511090E+00     +4.957660E-01 +1.701850E+00 +2.498352E-01     +4.957660E-01 +1.701850E+00 +2.498352E-01     +4.957660E-01 +1.701850E+00 +2.498352E-01     +4.957660E-01 +1.701850E+00 +2.498352E-01     +4.487301E+00 +1.771249E+00 +4.998571E+00     +3.868631E+00 +2.330819E+00 +3.753090E+00     +5.598119E+00 +2.061890E+00 +1.272050E+00     +3.868631E+00 +2.330819E+00 +3.753090E+00     +3.868631E+00 +2.330819E+00 +3.753090E+00     +5.138010E+00 +1.343350E+00 +1.951891E+00    
 +5.138010E+00 +1.343350E+00 +1.951891E+00     +5.138010E+00 +1.343350E+00 +1.951891E+00     +5.138010E+00 +1.343350E+00 +1.951891E+00     +5.138010E+00 +1.343350E+00 +1.951891E+00     +5.138010E+00 +1.343350E+00 +1.951891E+00     +4.840150E+00 +1.948020E+00 +4.511090E+00     +4.840150E+00 +1.948020E+00 +4.511090E+00     +4.840150E+00 +1.948020E+00 +4.511090E+00     +4.840150E+00 +1.948020E+00 +4.511090E+00     +4.840150E+00 +1.948020E+00 +4.511090E+00     +4.840150E+00 +1.948020E+00 +4.511090E+00     +4.957660E-01 +1.701850E+00 +2.498352E-01     +4.957660E-01 +1.701850E+00 +2.498352E-01     +4.957660E-01 +1.701850E+00 +2.498352E-01     +4.487301E+00 +1.771249E+00 +4.998571E+00     +4.487301E+00 +1.771249E+00 +4.998571E+00     +5.598119E+00 +2.061890E+00 +1.272050E+00     +5.598119E+00 +2.061890E+00 +1.272050E+00     +5.598119E+00 +2.061890E+00 +1.272050E+00     +5.598119E+00 +2.061890E+00 +1.272050E+00     +5.138010E+00 +1.343350E+00 +1.951891E+00    
 +5.138010E+00 +1.343350E+00 +1.951891E+00     +5.138010E+00 +1.343350E+00 +1.951891E+00     +5.138010E+00 +1.343350E+00 +1.951891E+00     +5.138010E+00 +1.343350E+00 +1.951891E+00     +5.138010E+00 +1.343350E+00 +1.951891E+00     +4.840150E+00 +1.948020E+00 +4.511090E+00     +4.840150E+00 +1.948020E+00 +4.511090E+00     +4.840150E+00 +1.948020E+00 +4.511090E+00     +4.840150E+00 +1.948020E+00 +4.511090E+00     +4.840150E+00 +1.948020E+00 +4.511090E+00     +5.254021E+00 +2.600570E+00 +4.963440E+00     +5.254021E+00 +2.600570E+00 +4.963440E+00     +4.487301E+00 +1.771249E+00 +4.998571E+00     +4.487301E+00 +1.771249E+00 +4.998571E+00     +4.487301E+00 +1.771249E+00 +4.998571E+00     +4.487301E+00 +1.771249E+00 +4.998571E+00     +4.487301E+00 +1.771249E+00 +4.998571E+00     +5.598119E+00 +2.061890E+00 +1.272050E+00     +3.868631E+00 +2.330819E+00 +3.753090E+00     +3.868631E+00 +2.330819E+00 +3.753090E+00     +5.138010E+00 +1.343350E+00 +1.951891E+00    
 +5.138010E+00 +1.343350E+00 +1.951891E+00     +5.138010E+00 +1.343350E+00 +1.951891E+00     +5.138010E+00 +1.343350E+00 +1.951891E+00     +5.138010E+00 +1.343350E+00 +1.951891E+00     +3.156707E-01 +1.393139E+00 +1.170060E+00     +4.840150E+00 +1.948020E+00 +4.511090E+00     +4.840150E+00 +1.948020E+00 +4.511090E+00     +4.840150E+00 +1.948020E+00 +4.511090E+00     +4.840150E+00 +1.948020E+00 +4.511090E+00     +4.840150E+00 +1.948020E+00 +4.511090E+00     +5.254021E+00 +2.600570E+00 +4.963440E+00     +5.254021E+00 +2.600570E+00 +4.963440E+00     +3.183899E+00 +1.106230E+00 +6.516117E-01     +3.183899E+00 +1.106230E+00 +6.516117E-01     +3.183899E+00 +1.106230E+00 +6.516117E-01     +4.487301E+00 +1.771249E+00 +4.998571E+00     +4.487301E+00 +1.771249E+00 +4.998571E+00     +4.487301E+00 +1.771249E+00 +4.998571E+00     +3.868631E+00 +2.330819E+00 +3.753090E+00     +3.868631E+00 +2.330819E+00 +3.753090E+00     +5.138010E+00 +1.343350E+00 +1.951891E+00    
 +5.138010E+00 +1.343350E+00 +1.951891E+00     +5.138010E+00 +1.343350E+00 +1.951891E+00     +5.138010E+00 +1.343350E+00 +1.951891E+00     +3.156707E-01 +1.393139E+00 +1.170060E+00     +3.156707E-01 +1.393139E+00 +1.170060E+00     +3.156707E-01 +1.393139E+00 +1.170060E+00     +3.156707E-01 +1.393139E+00 +1.170060E+00     +3.156707E-01 +1.393139E+00 +1.170060E+00     +5.254021E+00 +2.600570E+00 +4.963440E+00     +5.254021E+00 +2.600570E+00 +4.963440E+00     +5.254021E+00 +2.600570E+00 +4.963440E+00     +5.254021E+00 +2.600570E+00 +4.963440E+00     +3.183899E+00 +1.106230E+00 +6.516117E-01     +3.183899E+00 +1.106230E+00 +6.516117E-01     +3.183899E+00 +1.106230E+00 +6.516117E-01     +3.183899E+00 +1.106230E+00 +6.516117E-01     +4.487301E+00 +1.771249E+00 +4.998571E+00     +4.487301E+00 +1.771249E+00 +4.998571E+00     +4.225140E+00 +1.382261E+00 +3.163409E+00     +4.225140E+00 +1.382261E+00 +3.163409E+00     +4.225140E+00 +1.382261E+00 +3.163409E+00    
 +4.225140E+00 +1.382261E+00 +3.163409E+00     +5.404499E+00 +4.255567E-01 +5.017801E+00     +3.156707E-01 +1.393139E+00 +1.170060E+00     +3.156707E-01 +1.393139E+00 +1.170060E+00     +3.156707E-01 +1.393139E+00 +1.170060E+00     +3.156707E-01 +1.393139E+00 +1.170060E+00     +3.156707E-01 +1.393139E+00 +1.170060E+00     +3.156707E-01 +1.393139E+00 +1.170060E+00     +3.156707E-01 +1.393139E+00 +1.170060E+00     +5.254021E+00 +2.600570E+00 +4.963440E+00     +5.254021E+00 +2.600570E+00 +4.963440E+00     +5.858500E+00 +2.491110E+00 +6.200010E+00     +5.858500E+00 +2.491110E+00 +6.200010E+00     +3.183899E+00 +1.106230E+00 +6.516117E-01     +3.183899E+00 +1.106230E+00 +6.516117E-01     +3.183899E+00 +1.106230E+00 +6.516117E-01     +2.135199E+00 +1.930481E+00 +3.795630E+00     +4.225140E+00 +1.382261E+00 +3.163409E+00     +4.225140E+00 +1.382261E+00 +3.163409E+00     +4.225140E+00 +1.382261E+00 +3.163409E+00     +4.225140E+00 +1.382261E+00 +3.163409E+00    
 +4.225140E+00 +1.382261E+00 +3.163409E+00     +5.404499E+00 +4.255567E-01 +5.017801E+00     +5.404499E+00 +4.255567E-01 +5.017801E+00     +3.156707E-01 +1.393139E+00 +1.170060E+00     +3.156707E-01 +1.393139E+00 +1.170060E+00     +3.156707E-01 +1.393139E+00 +1.170060E+00     +3.156707E-01 +1.393139E+00 +1.170060E+00     +3.156707E-01 +1.393139E+00 +1.170060E+00     +3.156707E-01 +1.393139E+00 +1.170060E+00     +3.156707E-01 +1.393139E+00 +1.170060E+00     +5.858500E+00 +2.491110E+00 +6.200010E+00     +5.858500E+00 +2.491110E+00 +6.200010E+00     +5.858500E+00 +2.491110E+00 +6.200010E+00     +5.858500E+00 +2.491110E+00 +6.200010E+00     +2.135199E+00 +1.930481E+00 +3.795630E+00     +2.135199E+00 +1.930481E+00 +3.795630E+00     +2.135199E+00 +1.930481E+00 +3.795630E+00     +4.225140E+00 +1.382261E+00 +3.163409E+00     +4.225140E+00 +1.382261E+00 +3.163409E+00     +4.225140E+00 +1.382261E+00 +3.163409E+00     +4.225140E+00 +1.382261E+00 +3.163409E+00    
 +5.404499E+00 +4.255567E-01 +5.017801E+00     +5.404499E+00 +4.255567E-01 +5.017801E+00     +5.404499E+00 +4.255567E-01 +5.017801E+00     +3.156707E-01 +1.393139E+00 +1.170060E+00     +3.156707E-01 +1.393139E+00 +1.170060E+00     +3.156707E-01 +1.393139E+00 +1.170060E+00     +3.156707E-01 +1.393139E+00 +1.170060E+00     +3.156707E-01 +1.393139E+00 +1.170060E+00     +3.156707E-01 +1.393139E+00 +1.170060E+00     +3.156707E-01 +1.393139E+00 +1.170060E+00     +5.858500E+00 +2.491110E+00 +6.200010E+00     +5.858500E+00 +2.491110E+00 +6.200010E+00     +5.858500E+00 +2.491110E+00 +6.200010E+00     +5.858500E+00 +2.491110E+00 +6.200010E+00     +2.135199E+00 +1.930481E+00 +3.795630E+00     +2.135199E+00 +1.930481E+00 +3.795630E+00     +2.135199E+00 +1.930481E+00 +3.795630E+00     +4.225140E+00 +1.382261E+00 +3.163409E+00     +4.225140E+00 +1.382261E+00 +3.163409E+00     +4.225140E+00 +1.382261E+00 +3.163409E+00     +4.225140E+00 +1.382261E+00 +3.163409E+00    
 +4.225140E+00 +1.382261E+00 +3.163409E+00     +5.404499E+00 +4.255567E-01 +5.017801E+00     +5.404499E+00 +4.255567E-01 +5.017801E+00     +3.156707E-01 +1.393139E+00 +1.170060E+00     +3.156707E-01 +1.393139E+00 +1.170060E+00     +3.156707E-01 +1.393139E+00 +1.170060E+00     +3.156707E-01 +1.393139E+00 +1.170060E+00     +3.156707E-01 +1.393139E+00 +1.170060E+00     +3.156707E-01 +1.393139E+00 +1.170060E+00     +5.858500E+00 +2.491110E+00 +6.200010E+00     +5.858500E+00 +2.491110E+00 +6.200010E+00     +5.858500E+00 +2.491110E+00 +6.200010E+00     +5.858500E+00 +2.491110E+00 +6.200010E+00     +5.858500E+00 +2.491110E+00 +6.200010E+00     +5.858500E+00 +2.491110E+00 +6.200010E+00     +2.135199E+00 +1.930481E+00 +3.795630E+00     +2.135199E+00 +1.930481E+00 +3.795630E+00     +4.225140E+00 +1.382261E+00 +3.163409E+00     +4.225140E+00 +1.382261E+00 +3.163409E+00     +4.225140E+00 +1.382261E+00 +3.163409E+00     +4.225140E+00 +1.382261E+00 +3.163409E+00    
 +4.621510E+00 +6.203145E-01 +2.231161E+00     +4.621510E+00 +6.203145E-01 +2.231161E+00     +4.621510E+00 +6.203145E-01 +2.231161E+00     +3.156707E-01 +1.393139E+00 +1.170060E+00     +3.156707E-01 +1.393139E+00 +1.170060E+00     +3.156707E-01 +1.393139E+00 +1.170060E+00     +3.156707E-01 +1.393139E+00 +1.170060E+00     +3.156707E-01 +1.393139E+00 +1.170060E+00     +3.156707E-01 +1.393139E+00 +1.170060E+00     +5.858500E+00 +2.491110E+00 +6.200010E+00     +5.858500E+00 +2.491110E+00 +6.200010E+00     +5.858500E+00 +2.491110E+00 +6.200010E+00     +5.858500E+00 +2.491110E+00 +6.200010E+00     +2.311610E+00 +2.385520E+00 +3.626490E+00     +5.858500E+00 +2.491110E+00 +6.200010E+00     +5.858500E+00 +2.491110E+00 +6.200010E+00     +5.858500E+00 +2.491110E+00 +6.200010E+00     +4.225140E+00 +1.382261E+00 +3.163409E+00     +4.225140E+00 +1.382261E+00 +3.163409E+00     +4.225140E+00 +1.382261E+00 +3.163409E+00     +4.225140E+00 +1.382261E+00 +3.163409E+00    
 +2.061770E+00 +1.152230E+00 +5.173899E+00     +2.061770E+00 +1.152230E+00 +5.173899E+00     +2.061770E+00 +1.152230E+00 +5.173899E+00     +3.156707E-01 +1.393139E+00 +1.170060E+00     +3.156707E-01 +1.393139E+00 +1.170060E+00     +3.156707E-01 +1.393139E+00 +1.170060E+00     +3.156707E-01 +1.393139E+00 +1.170060E+00     +3.156707E-01 +1.393139E+00 +1.170060E+00     +3.156707E-01 +1.393139E+00 +1.170060E+00     +5.858500E+00 +2.491110E+00 +6.200010E+00     +5.858500E+00 +2.491110E+00 +6.200010E+00     +5.858500E+00 +2.491110E+00 +6.200010E+00     +5.858500E+00 +2.491110E+00 +6.200010E+00     +5.858500E+00 +2.491110E+00 +6.200010E+00     +5.858500E+00 +2.491110E+00 +6.200010E+00     +5.858500E+00 +2.491110E+00 +6.200010E+00     +5.858500E+00 +2.491110E+00 +6.200010E+00     +3.076860E+00 +1.928310E+00 +4.824630E+00     +4.092329E+00 +1.967230E+00 +5.843849E+00     +4.092329E+00 +1.967230E+00 +5.843849E+00     +4.092329E+00 +1.967230E+00 +5.843849E+00    
 +2.061770E+00 +1.152230E+00 +5.173899E+00     +2.061770E+00 +1.152230E+00 +5.173899E+00     +2.061770E+00 +1.152230E+00 +5.173899E+00     +8.284624E-01 +9.850813E-01 +5.831145E-02     +8.284624E-01 +9.850813E-01 +5.831145E-02     +3.156707E-01 +1.393139E+00 +1.170060E+00     +3.156707E-01 +1.393139E+00 +1.170060E+00     +3.156707E-01 +1.393139E+00 +1.170060E+00     +5.400150E+00 +1.024931E+00 +1.593920E+00     +5.858500E+00 +2.491110E+00 +6.200010E+00     +5.858500E+00 +2.491110E+00 +6.200010E+00     +5.858500E+00 +2.491110E+00 +6.200010E+00     +5.858500E+00 +2.491110E+00 +6.200010E+00     +5.858500E+00 +2.491110E+00 +6.200010E+00     +5.858500E+00 +2.491110E+00 +6.200010E+00     +3.911690E+00 +2.064901E+00 +5.572710E+00     +3.911690E+00 +2.064901E+00 +5.572710E+00     +3.076860E+00 +1.928310E+00 +4.824630E+00     +4.092329E+00 +1.967230E+00 +5.843849E+00     +4.092329E+00 +1.967230E+00 +5.843849E+00     +4.092329E+00 +1.967230E+00 +5.843849E+00    
 +2.061770E+00 +1.152230E+00 +5.173899E+00     +2.061770E+00 +1.152230E+00 +5.173899E+00     +2.061770E+00 +1.152230E+00 +5.173899E+00     +8.284624E-01 +9.850813E-01 +5.831145E-02     +8.284624E-01 +9.850813E-01 +5.831145E-02     +3.156707E-01 +1.393139E+00 +1.170060E+00     +3.156707E-01 +1.393139E+00 +1.170060E+00     +5.400150E+00 +1.024931E+00 +1.593920E+00     +5.400150E+00 +1.024931E+00 +1.593920E+00     +3.382630E+00 +2.983171E+00 +5.703999E+00     +3.382630E+00 +2.983171E+00 +5.703999E+00     +5.858500E+00 +2.491110E+00 +6.200010E+00     +3.008780E+00 +6.545491E-01 +1.219811E+00     +3.008780E+00 +6.545491E-01 +1.219811E+00     +3.008780E+00 +6.545491E-01 +1.219811E+00     +3.911690E+00 +2.064901E+00 +5.572710E+00     +3.911690E+00 +2.064901E+00 +5.572710E+00     +3.076860E+00 +1.928310E+00 +4.824630E+00     +4.092329E+00 +1.967230E+00 +5.843849E+00     +4.092329E+00 +1.967230E+00 +5.843849E+00     +4.092329E+00 +1.967230E+00 +5.843849E+00    
 +2.061770E+00 +1.152230E+00 +5.173899E+00     +2.061770E+00 +1.152230E+00 +5.173899E+00     +2.061770E+00 +1.152230E+00 +5.173899E+00     +8.284624E-01 +9.850813E-01 +5.831145E-02     +8.284624E-01 +9.850813E-01 +5.831145E-02     +3.156707E-01 +1.393139E+00 +1.170060E+00     +5.400150E+00 +1.024931E+00 +1.593920E+00     +5.400150E+00 +1.024931E+00 +1.593920E+00     +5.525491E+00 +1.605509E+00 +1.080820E+00     +5.525491E+00 +1.605509E+00 +1.080820E+00     +5.525491E+00 +1.605509E+00 +1.080820E+00     +3.008780E+00 +6.545491E-01 +1.219811E+00     +3.008780E+00 +6.545491E-01 +1.219811E+00     +3.008780E+00 +6.545491E-01 +1.219811E+00     +3.008780E+00 +6.545491E-01 +1.219811E+00     +3.911690E+00 +2.064901E+00 +5.572710E+00     +3.911690E+00 +2.064901E+00 +5.572710E+00     +3.076860E+00 +1.928310E+00 +4.824630E+00     +4.092329E+00 +1.967230E+00 +5.843849E+00     +4.092329E+00 +1.967230E+00 +5.843849E+00     +4.092329E+00 +1.967230E+00 +5.843849E+00    
 +2.061770E+00 +1.152230E+00 +5.173899E+00     +2.061770E+00 +1.152230E+00 +5.173899E+00     +2.061770E+00 +1.152230E+00 +5.173899E+00     +8.284624E-01 +9.850813E-01 +5.831145E-02     +8.284624E-01 +9.850813E-01 +5.831145E-02     +3.156707E-01 +1.393139E+00 +1.170060E+00     +5.525491E+00 +1.605509E+00 +1.080820E+00     +5.525491E+00 +1.605509E+00 +1.080820E+00     +5.525491E+00 +1.605509E+00 +1.080820E+00     +5.525491E+00 +1.605509E+00 +1.080820E+00     +5.525491E+00 +1.605509E+00 +1.080820E+00     +3.008780E+00 +6.545491E-01 +1.219811E+00     +3.008780E+00 +6.545491E-01 +1.219811E+00     +3.008780E+00 +6.545491E-01 +1.219811E+00     +3.008780E+00 +6.545491E-01 +1.219811E+00     +3.008780E+00 +6.545491E-01 +1.219811E+00     +3.911690E+00 +2.064901E+00 +5.572710E+00     +3.076860E+00 +1.928310E+00 +4.824630E+00     +4.092329E+00 +1.967230E+00 +5.843849E+00     +4.092329E+00 +1.967230E+00 +5.843849E+00     +4.092329E+00 +1.967230E+00 +5.843849E+00    
 +3.158290E+00 +9.270875E-01 +4.146730E+00     +7.546524E-01 +1.219079E+00 +3.888690E+00     +3.930640E+00 +1.465029E+00 +3.238450E+00     +3.930640E+00 +1.465029E+00 +3.238450E+00     +4.602379E+00 +5.372560E-01 +2.793579E+00     +4.602379E+00 +5.372560E-01 +2.793579E+00     +4.602379E+00 +5.372560E-01 +2.793579E+00     +5.525491E+00 +1.605509E+00 +1.080820E+00     +5.525491E+00 +1.605509E+00 +1.080820E+00     +5.525491E+00 +1.605509E+00 +1.080820E+00     +5.525491E+00 +1.605509E+00 +1.080820E+00     +1.603130E+00 +9.864147E-01 +5.636260E+00     +1.603130E+00 +9.864147E-01 +5.636260E+00     +4.957660E-01 +1.701850E+00 +2.498352E-01     +4.957660E-01 +1.701850E+00 +2.498352E-01     +4.957660E-01 +1.701850E+00 +2.498352E-01     +4.957660E-01 +1.701850E+00 +2.498352E-01     +1.386111E+00 +2.577029E+00 +3.175319E+00     +1.386111E+00 +2.577029E+00 +3.175319E+00     +3.158290E+00 +9.270875E-01 +4.146730E+00     +3.158290E+00 +9.270875E-01 +4.146730E+00    
 +7.546524E-01 +1.219079E+00 +3.888690E+00     +4.523970E+00 +2.179550E+00 +2.367365E-02     +3.930640E+00 +1.465029E+00 +3.238450E+00     +4.602379E+00 +5.372560E-01 +2.793579E+00     +4.602379E+00 +5.372560E-01 +2.793579E+00     +4.602379E+00 +5.372560E-01 +2.793579E+00     +4.602379E+00 +5.372560E-01 +2.793579E+00     +4.602379E+00 +5.372560E-01 +2.793579E+00     +5.525491E+00 +1.605509E+00 +1.080820E+00     +5.525491E+00 +1.605509E+00 +1.080820E+00     +5.525491E+00 +1.605509E+00 +1.080820E+00     +1.603130E+00 +9.864147E-01 +5.636260E+00     +1.603130E+00 +9.864147E-01 +5.636260E+00     +4.957660E-01 +1.701850E+00 +2.498352E-01     +4.957660E-01 +1.701850E+00 +2.498352E-01     +4.957660E-01 +1.701850E+00 +2.498352E-01     +4.957660E-01 +1.701850E+00 +2.498352E-01     +1.386111E+00 +2.577029E+00 +3.175319E+00     +1.386111E+00 +2.577029E+00 +3.175319E+00     +1.386111E+00 +2.577029E+00 +3.175319E+00     +3.158290E+00 +9.270875E-01 +4.146730E+00    
 +4.523970E+00 +2.179550E+00 +2.367365E-02     +4.523970E+00 +2.179550E+00 +2.367365E-02     +4.602379E+00 +5.372560E-01 +2.793579E+00     +4.602379E+00 +5.372560E-01 +2.793579E+00     +4.602379E+00 +5.372560E-01 +2.793579E+00     +4.602379E+00 +5.372560E-01 +2.793579E+00     +4.602379E+00 +5.372560E-01 +2.793579E+00     +5.685649E+00 +1.890691E+00 +5.557690E+00     +5.525491E+00 +1.605509E+00 +1.080820E+00     +5.525491E+00 +1.605509E+00 +1.080820E+00     +5.525491E+00 +1.605509E+00 +1.080820E+00     +1.603130E+00 +9.864147E-01 +5.636260E+00     +4.957660E-01 +1.701850E+00 +2.498352E-01     +4.957660E-01 +1.701850E+00 +2.498352E-01     +4.957660E-01 +1.701850E+00 +2.498352E-01     +4.957660E-01 +1.701850E+00 +2.498352E-01     +4.957660E-01 +1.701850E+00 +2.498352E-01     +1.386111E+00 +2.577029E+00 +3.175319E+00     +1.386111E+00 +2.577029E+00 +3.175319E+00     +1.965630E+00 +2.237580E+00 +1.848070E+00     +1.965630E+00 +2.237580E+00 +1.848070E+00    
 +4.523970E+00 +2.179550E+00 +2.367365E-02     +4.523970E+00 +2.179550E+00 +2.367365E-02     +4.523970E+00 +2.179550E+00 +2.367365E-02     +4.602379E+00 +5.372560E-01 +2.793579E+00     +4.602379E+00 +5.372560E-01 +2.793579E+00     +4.602379E+00 +5.372560E-01 +2.793579E+00     +4.602379E+00 +5.372560E-01 +2.793579E+00     +5.685649E+00 +1.890691E+00 +5.557690E+00     +5.685649E+00 +1.890691E+00 +5.557690E+00     +5.525491E+00 +1.605509E+00 +1.080820E+00     +5.525491E+00 +1.605509E+00 +1.080820E+00     +4.957660E-01 +1.701850E+00 +2.498352E-01     +4.957660E-01 +1.701850E+00 +2.498352E-01     +4.957660E-01 +1.701850E+00 +2.498352E-01     +4.957660E-01 +1.701850E+00 +2.498352E-01     +4.957660E-01 +1.701850E+00 +2.498352E-01     +4.957660E-01 +1.701850E+00 +2.498352E-01     +4.957660E-01 +1.701850E+00 +2.498352E-01     +2.070980E+00 +9.549901E-01 +5.551800E+00     +2.070980E+00 +9.549901E-01 +5.551800E+00     +5.138010E+00 +1.343350E+00 +1.951891E+00    
 +5.138010E+00 +1.343350E+00 +1.951891E+00     +5.138010E+00 +1.343350E+00 +1.951891E+00     +5.138010E+00 +1.343350E+00 +1.951891E+00     +4.602379E+00 +5.372560E-01 +2.793579E+00     +4.602379E+00 +5.372560E-01 +2.793579E+00     +4.602379E+00 +5.372560E-01 +2.793579E+00     +4.602379E+00 +5.372560E-01 +2.793579E+00     +5.685649E+00 +1.890691E+00 +5.557690E+00     +5.685649E+00 +1.890691E+00 +5.557690E+00     +5.685649E+00 +1.890691E+00 +5.557690E+00     +4.957660E-01 +1.701850E+00 +2.498352E-01     +4.957660E-01 +1.701850E+00 +2.498352E-01     +4.957660E-01 +1.701850E+00 +2.498352E-01     +4.957660E-01 +1.701850E+00 +2.498352E-01     +4.957660E-01 +1.701850E+00 +2.498352E-01     +4.957660E-01 +1.701850E+00 +2.498352E-01     +4.957660E-01 +1.701850E+00 +2.498352E-01     +2.070980E+00 +9.549901E-01 +5.551800E+00     +2.070980E+00 +9.549901E-01 +5.551800E+00     +2.070980E+00 +9.549901E-01 +5.551800E+00     +5.138010E+00 +1.343350E+00 +1.951891E+00    
 +5.138010E+00 +1.343350E+00 +1.951891E+00     +5.138010E+00 +1.343350E+00 +1.951891E+00     +5.138010E+00 +1.343350E+00 +1.951891E+00     +5.138010E+00 +1.343350E+00 +1.951891E+00     +5.138010E+00 +1.343350E+00 +1.951891E+00     +4.840150E+00 +1.948020E+00 +4.511090E+00     +4.840150E+00 +1.948020E+00 +4.511090E+00     +4.840150E+00 +1.948020E+00 +4.511090E+00     +4.840150E+00 +1.948020E+00 +4.511090E+00     +4.840150E+00 +1.948020E+00 +4.511090E+00     +4.957660E-01 +1.701850E+00 +2.498352E-01     +4.957660E-01 +1.701850E+00 +2.498352E-01     +4.957660E-01 +1.701850E+00 +2.498352E-01     +4.957660E-01 +1.701850E+00 +2.498352E-01     +4.957660E-01 +1.701850E+00 +2.498352E-01     +4.957660E-01 +1.701850E+00 +2.498352E-01     +3.868631E+00 +2.330819E+00 +3.753090E+00     +3.868631E+00 +2.330819E+00 +3.753090E+00     +3.868631E+00 +2.330819E+00 +3.753090E+00     +3.868631E+00 +2.330819E+00 +3.753090E+00     +5.138010E+00 +1.343350E+00 +1.951891E+00    
 +5.138010E+00 +1.343350E+00 +1.951891E+00     +5.138010E+00 +1.343350E+00 +1.951891E+00     +5.138010E+00 +1.343350E+00 +1.951891E+00     +5.138010E+00 +1.343350E+00 +1.951891E+00     +5.138010E+00 +1.343350E+00 +1.951891E+00     +4.840150E+00 +1.948020E+00 +4.511090E+00     +4.840150E+00 +1.948020E+00 +4.511090E+00     +4.840150E+00 +1.948020E+00 +4.511090E+00     +4.840150E+00 +1.948020E+00 +4.511090E+00     +4.840150E+00 +1.948020E+00 +4.511090E+00     +4.840150E+00 +1.948020E+00 +4.511090E+00     +4.957660E-01 +1.701850E+00 +2.498352E-01     +4.957660E-01 +1.701850E+00 +2.498352E-01     +4.957660E-01 +1.701850E+00 +2.498352E-01     +4.957660E-01 +1.701850E+00 +2.498352E-01     +4.487301E+00 +1.771249E+00 +4.998571E+00     +3.868631E+00 +2.330819E+00 +3.753090E+00     +3.868631E+00 +2.330819E+00 +3.753090E+00     +3.868631E+00 +2.330819E+00 +3.753090E+00     +3.868631E+00 +2.330819E+00 +3.753090E+00     +5.138010E+00 +1.343350E+00 +1.951891E+00    
 +5.138010E+00 +1.343350E+00 +1.951891E+00     +5.138010E+00 +1.343350E+00 +1.951891E+00     +5.138010E+00 +1.343350E+00 +1.951891E+00     +5.138010E+00 +1.343350E+00 +1.951891E+00     +5.138010E+00 +1.343350E+00 +1.951891E+00     +4.840150E+00 +1.948020E+00 +4.511090E+00     +4.840150E+00 +1.948020E+00 +4.511090E+00     +4.840150E+00 +1.948020E+00 +4.511090E+00     +4.840150E+00 +1.948020E+00 +4.511090E+00     +4.840150E+00 +1.948020E+00 +4.511090E+00     +4.840150E+00 +1.948020E+00 +4.511090E+00     +4.957660E-01 +1.701850E+00 +2.498352E-01     +4.957660E-01 +1.701850E+00 +2.498352E-01     +4.487301E+00 +1.771249E+00 +4.998571E+00     +4.487301E+00 +1.771249E+00 +4.998571E+00     +4.487301E+00 +1.771249E+00 +4.998571E+00     +3.868631E+00 +2.330819E+00 +3.753090E+00     +3.868631E+00 +2.330819E+00 +3.753090E+00     +3.868631E+00 +2.330819E+00 +3.753090E+00     +3.868631E+00 +2.330819E+00 +3.753090E+00     +5.138010E+00 +1.343350E+00 +1.951891E+00    
 +5.138010E+00 +1.343350E+00 +1.951891E+00     +5.138010E+00 +1.343350E+00 +1.951891E+00     +5.138010E+00 +1.343350E+00 +1.951891E+00     +5.138010E+00 +1.343350E+00 +1.951891E+00     +5.138010E+00 +1.343350E+00 +1.951891E+00     +4.840150E+00 +1.948020E+00 +4.511090E+00     +4.840150E+00 +1.948020E+00 +4.511090E+00     +4.840150E+00 +1.948020E+00 +4.511090E+00     +4.840150E+00 +1.948020E+00 +4.511090E+00     +4.840150E+00 +1.948020E+00 +4.511090E+00     +4.840150E+00 +1.948020E+00 +4.511090E+00     +4.840150E+00 +1.948020E+00 +4.511090E+00     +4.487301E+00 +1.771249E+00 +4.998571E+00     +4.487301E+00 +1.771249E+00 +4.998571E+00     +4.487301E+00 +1.771249E+00 +4.998571E+00     +4.487301E+00 +1.771249E+00 +4.998571E+00     +4.487301E+00 +1.771249E+00 +4.998571E+00     +3.868631E+00 +2.330819E+00 +3.753090E+00     +3.868631E+00 +2.330819E+00 +3.753090E+00     +3.868631E+00 +2.330819E+00 +3.753090E+00     +5.138010E+00 +1.343350E+00 +1.951891E+00    
 +5.138010E+00 +1.343350E+00 +1.951891E+00     +5.138010E+00 +1.343350E+00 +1.951891E+00     +5.138010E+00 +1.343350E+00 +1.951891E+00     +5.138010E+00 +1.343350E+00 +1.951891E+00     +5.138010E+00 +1.343350E+00 +1.951891E+00     +4.840150E+00 +1.948020E+00 +4.511090E+00     +4.840150E+00 +1.948020E+00 +4.511090E+00     +4.840150E+00 +1.948020E+00 +4.511090E+00     +4.840150E+00 +1.948020E+00 +4.511090E+00     +4.840150E+00 +1.948020E+00 +4.511090E+00     +4.840150E+00 +1.948020E+00 +4.511090E+00     +4.840150E+00 +1.948020E+00 +4.511090E+00     +4.487301E+00 +1.771249E+00 +4.998571E+00     +4.487301E+00 +1.771249E+00 +4.998571E+00     +4.487301E+00 +1.771249E+00 +4.998571E+00     +4.487301E+00 +1.771249E+00 +4.998571E+00     +4.487301E+00 +1.771249E+00 +4.998571E+00     +4.487301E+00 +1.771249E+00 +4.998571E+00     +3.868631E+00 +2.330819E+00 +3.753090E+00     +3.868631E+00 +2.330819E+00 +3.753090E+00     +5.138010E+00 +1.343350E+00 +1.951891E+00    
 +5.138010E+00 +1.343350E+00 +1.951891E+00     +5.138010E+00 +1.343350E+00 +1.951891E+00     +5.138010E+00 +1.343350E+00 +1.951891E+00     +5.138010E+00 +1.343350E+00 +1.951891E+00     +3.156707E-01 +1.393139E+00 +1.170060E+00     +3.156707E-01 +1.393139E+00 +1.170060E+00     +3.156707E-01 +1.393139E+00 +1.170060E+00     +4.840150E+00 +1.948020E+00 +4.511090E+00     +4.840150E+00 +1.948020E+00 +4.511090E+00     +4.840150E+00 +1.948020E+00 +4.511090E+00     +5.254021E+00 +2.600570E+00 +4.963440E+00     +3.479920E+00 +1.666229E+00 +5.212799E+00     +4.487301E+00 +1.771249E+00 +4.998571E+00     +4.487301E+00 +1.771249E+00 +4.998571E+00     +4.487301E+00 +1.771249E+00 +4.998571E+00     +4.487301E+00 +1.771249E+00 +4.998571E+00     +4.487301E+00 +1.771249E+00 +4.998571E+00     +4.487301E+00 +1.771249E+00 +4.998571E+00     +4.225140E+00 +1.382261E+00 +3.163409E+00     +4.225140E+00 +1.382261E+00 +3.163409E+00     +4.225140E+00 +1.382261E+00 +3.163409E+00    
 +4.225140E+00 +1.382261E+00 +3.163409E+00     +5.138010E+00 +1.343350E+00 +1.951891E+00     +3.156707E-01 +1.393139E+00 +1.170060E+00     +3.156707E-01 +1.393139E+00 +1.170060E+00     +3.156707E-01 +1.393139E+00 +1.170060E+00     +3.156707E-01 +1.393139E+00 +1.170060E+00     +3.156707E-01 +1.393139E+00 +1.170060E+00     +3.156707E-01 +1.393139E+00 +1.170060E+00     +3.156707E-01 +1.393139E+00 +1.170060E+00     +3.156707E-01 +1.393139E+00 +1.170060E+00     +3.479920E+00 +1.666229E+00 +5.212799E+00     +5.858500E+00 +2.491110E+00 +6.200010E+00     +5.858500E+00 +2.491110E+00 +6.200010E+00     +5.858500E+00 +2.491110E+00 +6.200010E+00     +4.487301E+00 +1.771249E+00 +4.998571E+00     +4.487301E+00 +1.771249E+00 +4.998571E+00     +4.487301E+00 +1.771249E+00 +4.998571E+00     +4.225140E+00 +1.382261E+00 +3.163409E+00     +4.225140E+00 +1.382261E+00 +3.163409E+00     +4.225140E+00 +1.382261E+00 +3.163409E+00     +4.225140E+00 +1.382261E+00 +3.163409E+00    
 +4.225140E+00 +1.382261E+00 +3.163409E+00     +5.404499E+00 +4.255567E-01 +5.017801E+00     +3.156707E-01 +1.393139E+00 +1.170060E+00     +3.156707E-01 +1.393139E+00 +1.170060E+00     +3.156707E-01 +1.393139E+00 +1.170060E+00     +3.156707E-01 +1.393139E+00 +1.170060E+00     +3.156707E-01 +1.393139E+00 +1.170060E+00     +3.156707E-01 +1.393139E+00 +1.170060E+00     +3.156707E-01 +1.393139E+00 +1.170060E+00     +3.156707E-01 +1.393139E+00 +1.170060E+00     +5.858500E+00 +2.491110E+00 +6.200010E+00     +5.858500E+00 +2.491110E+00 +6.200010E+00     +5.858500E+00 +2.491110E+00 +6.200010E+00     +5.858500E+00 +2.491110E+00 +6.200010E+00     +5.858500E+00 +2.491110E+00 +6.200010E+00     +2.135199E+00 +1.930481E+00 +3.795630E+00     +2.135199E+00 +1.930481E+00 +3.795630E+00     +4.225140E+00 +1.382261E+00 +3.163409E+00     +4.225140E+00 +1.382261E+00 +3.163409E+00     +4.225140E+00 +1.382261E+00 +3.163409E+00     +4.225140E+00 +1.382261E+00 +3.163409E+00    
 +4.225140E+00 +1.382261E+00 +3.163409E+00     +5.404499E+00 +4.255567E-01 +5.017801E+00     +5.404499E+00 +4.255567E-01 +5.017801E+00     +3.156707E-01 +1.393139E+00 +1.170060E+00     +3.156707E-01 +1.393139E+00 +1.170060E+00     +3.156707E-01 +1.393139E+00 +1.170060E+00     +3.156707E-01 +1.393139E+00 +1.170060E+00     +3.156707E-01 +1.393139E+00 +1.170060E+00     +3.156707E-01 +1.393139E+00 +1.170060E+00     +3.156707E-01 +1.393139E+00 +1.170060E+00     +5.858500E+00 +2.491110E+00 +6.200010E+00     +5.858500E+00 +2.491110E+00 +6.200010E+00     +5.858500E+00 +2.491110E+00 +6.200010E+00     +5.858500E+00 +2.491110E+00 +6.200010E+00     +5.858500E+00 +2.491110E+00 +6.200010E+00     +2.135199E+00 +1.930481E+00 +3.795630E+00     +2.135199E+00 +1.930481E+00 +3.795630E+00     +4.225140E+00 +1.382261E+00 +3.163409E+00     +4.225140E+00 +1.382261E+00 +3.163409E+00     +4.225140E+00 +1.382261E+00 +3.163409E+00     +4.225140E+00 +1.382261E+00 +3.163409E+00    
 +4.225140E+00 +1.382261E+00 +3.163409E+00     +5.404499E+00 +4.255567E-01 +5.017801E+00     +3.156707E-01 +1.393139E+00 +1.170060E+00     +3.156707E-01 +1.393139E+00 +1.170060E+00     +3.156707E-01 +1.393139E+00 +1.170060E+00     +3.156707E-01 +1.393139E+00 +1.170060E+00     +3.156707E-01 +1.393139E+00 +1.170060E+00     +3.156707E-01 +1.393139E+00 +1.170060E+00     +3.156707E-01 +1.393139E+00 +1.170060E+00     +5.858500E+00 +2.491110E+00 +6.200010E+00     +5.858500E+00 +2.491110E+00 +6.200010E+00     +5.858500E+00 +2.491110E+00 +6.200010E+00     +5.858500E+00 +2.491110E+00 +6.200010E+00     +5.858500E+00 +2.491110E+00 +6.200010E+00     +5.858500E+00 +2.491110E+00 +6.200010E+00     +5.858500E+00 +2.491110E+00 +6.200010E+00     +5.858500E+00 +2.491110E+00 +6.200010E+00     +4.225140E+00 +1.382261E+00 +3.163409E+00     +4.225140E+00 +1.382261E+00 +3.163409E+00     +4.225140E+00 +1.382261E+00 +3.163409E+00     +4.225140E+00 +1.382261E+00 +3.163409E+00    
 +4.225140E+00 +1.382261E+00 +3.163409E+00     +4.621510E+00 +6.203145E-01 +2.231161E+00     +4.621510E+00 +6.203145E-01 +2.231161E+00     +3.156707E-01 +1.393139E+00 +1.170060E+00     +3.156707E-01 +1.393139E+00 +1.170060E+00     +6.023323E-01 +1.946630E+00 +2.772860E+00     +3.156707E-01 +1.393139E+00 +1.170060E+00     +3.156707E-01 +1.393139E+00 +1.170060E+00     +3.156707E-01 +1.393139E+00 +1.170060E+00     +5.858500E+00 +2.491110E+00 +6.200010E+00     +5.858500E+00 +2.491110E+00 +6.200010E+00     +5.858500E+00 +2.491110E+00 +6.200010E+00     +5.858500E+00 +2.491110E+00 +6.200010E+00     +5.858500E+00 +2.491110E+00 +6.200010E+00     +5.858500E+00 +2.491110E+00 +6.200010E+00     +5.858500E+00 +2.491110E+00 +6.200010E+00     +5.858500E+00 +2.491110E+00 +6.200010E+00     +4.225140E+00 +1.382261E+00 +3.163409E+00     +4.225140E+00 +1.382261E+00 +3.163409E+00     +4.225140E+00 +1.382261E+00 +3.163409E+00     +4.225140E+00 +1.382261E+00 +3.163409E+00    
 +2.061770E+00 +1.152230E+00 +5.173899E+00     +2.061770E+00 +1.152230E+00 +5.173899E+00     +2.061770E+00 +1.152230E+00 +5.173899E+00     +3.156707E-01 +1.393139E+00 +1.170060E+00     +3.156707E-01 +1.393139E+00 +1.170060E+00     +6.023323E-01 +1.946630E+00 +2.772860E+00     +6.023323E-01 +1.946630E+00 +2.772860E+00     +3.156707E-01 +1.393139E+00 +1.170060E+00     +3.156707E-01 +1.393139E+00 +1.170060E+00     +5.858500E+00 +2.491110E+00 +6.200010E+00     +5.858500E+00 +2.491110E+00 +6.200010E+00     +5.858500E+00 +2.491110E+00 +6.200010E+00     +5.858500E+00 +2.491110E+00 +6.200010E+00     +5.858500E+00 +2.491110E+00 +6.200010E+00     +5.858500E+00 +2.491110E+00 +6.200010E+00     +5.858500E+00 +2.491110E+00 +6.200010E+00     +5.858500E+00 +2.491110E+00 +6.200010E+00     +3.076860E+00 +1.928310E+00 +4.824630E+00     +4.092329E+00 +1.967230E+00 +5.843849E+00     +4.092329E+00 +1.967230E+00 +5.843849E+00     +4.092329E+00 +1.967230E+00 +5.843849E+00    
 +2.061770E+00 +1.152230E+00 +5.173899E+00     +2.061770E+00 +1.152230E+00 +5.173899E+00     +2.061770E+00 +1.152230E+00 +5.173899E+00     +2.061770E+00 +1.152230E+00 +5.173899E+00     +6.023323E-01 +1.946630E+00 +2.772860E+00     +6.023323E-01 +1.946630E+00 +2.772860E+00     +6.023323E-01 +1.946630E+00 +2.772860E+00     +5.400150E+00 +1.024931E+00 +1.593920E+00     +5.400150E+00 +1.024931E+00 +1.593920E+00     +3.382630E+00 +2.983171E+00 +5.703999E+00     +3.382630E+00 +2.983171E+00 +5.703999E+00     +5.858500E+00 +2.491110E+00 +6.200010E+00     +5.858500E+00 +2.491110E+00 +6.200010E+00     +5.858500E+00 +2.491110E+00 +6.200010E+00     +5.858500E+00 +2.491110E+00 +6.200010E+00     +3.911690E+00 +2.064901E+00 +5.572710E+00     +3.911690E+00 +2.064901E+00 +5.572710E+00     +3.076860E+00 +1.928310E+00 +4.824630E+00     +4.092329E+00 +1.967230E+00 +5.843849E+00     +4.092329E+00 +1.967230E+00 +5.843849E+00     +4.092329E+00 +1.967230E+00 +5.843849E+00    
 +2.061770E+00 +1.152230E+00 +5.173899E+00     +2.061770E+00 +1.152230E+00 +5.173899E+00     +2.061770E+00 +1.152230E+00 +5.173899E+00     +2.061770E+00 +1.152230E+00 +5.173899E+00     +2.061770E+00 +1.152230E+00 +5.173899E+00     +6.023323E-01 +1.946630E+00 +2.772860E+00     +5.400150E+00 +1.024931E+00 +1.593920E+00     +5.400150E+00 +1.024931E+00 +1.593920E+00     +5.400150E+00 +1.024931E+00 +1.593920E+00     +5.174140E+00 +1.968820E+00 +8.447324E-01     +3.382630E+00 +2.983171E+00 +5.703999E+00     +3.382630E+00 +2.983171E+00 +5.703999E+00     +3.008780E+00 +6.545491E-01 +1.219811E+00     +3.008780E+00 +6.545491E-01 +1.219811E+00     +3.008780E+00 +6.545491E-01 +1.219811E+00     +3.911690E+00 +2.064901E+00 +5.572710E+00     +3.911690E+00 +2.064901E+00 +5.572710E+00     +3.076860E+00 +1.928310E+00 +4.824630E+00     +4.284520E+00 +1.543060E+00 +3.243520E+00     +4.092329E+00 +1.967230E+00 +5.843849E+00     +4.092329E+00 +1.967230E+00 +5.843849E+00    
 +2.061770E+00 +1.152230E+00 +5.173899E+00     +2.061770E+00 +1.152230E+00 +5.173899E+00     +2.061770E+00 +1.152230E+00 +5.173899E+00     +2.061770E+00 +1.152230E+00 +5.173899E+00     +2.061770E+00 +1.152230E+00 +5.173899E+00     +5.400150E+00 +1.024931E+00 +1.593920E+00     +5.400150E+00 +1.024931E+00 +1.593920E+00     +5.400150E+00 +1.024931E+00 +1.593920E+00     +5.174140E+00 +1.968820E+00 +8.447324E-01     +5.174140E+00 +1.968820E+00 +8.447324E-01     +5.174140E+00 +1.968820E+00 +8.447324E-01     +3.382630E+00 +2.983171E+00 +5.703999E+00     +3.008780E+00 +6.545491E-01 +1.219811E+00     +3.008780E+00 +6.545491E-01 +1.219811E+00     +3.008780E+00 +6.545491E-01 +1.219811E+00     +3.911690E+00 +2.064901E+00 +5.572710E+00     +3.911690E+00 +2.064901E+00 +5.572710E+00     +4.284520E+00 +1.543060E+00 +3.243520E+00     +4.284520E+00 +1.543060E+00 +3.243520E+00     +4.284520E+00 +1.543060E+00 +3.243520E+00     +4.092329E+00 +1.967230E+00 +5.843849E+00    
 +2.061770E+00 +1.152230E+00 +5.173899E+00     +2.061770E+00 +1.152230E+00 +5.173899E+00     +2.061770E+00 +1.152230E+00 +5.173899E+00     +2.061770E+00 +1.152230E+00 +5.173899E+00     +2.061770E+00 +1.152230E+00 +5.173899E+00     +5.400150E+00 +1.024931E+00 +1.593920E+00     +5.400150E+00 +1.024931E+00 +1.593920E+00     +5.400150E+00 +1.024931E+00 +1.593920E+00     +5.400150E+00 +1.024931E+00 +1.593920E+00     +5.174140E+00 +1.968820E+00 +8.447324E-01     +5.400150E+00 +1.024931E+00 +1.593920E+00     +3.008780E+00 +6.545491E-01 +1.219811E+00     +3.008780E+00 +6.545491E-01 +1.219811E+00     +3.008780E+00 +6.545491E-01 +1.219811E+00     +3.008780E+00 +6.545491E-01 +1.219811E+00     +3.008780E+00 +6.545491E-01 +1.219811E+00     +3.008780E+00 +6.545491E-01 +1.219811E+00     +4.284520E+00 +1.543060E+00 +3.243520E+00     +4.284520E+00 +1.543060E+00 +3.243520E+00     +3.158290E+00 +9.270875E-01 +4.146730E+00     +3.158290E+00 +9.270875E-01 +4.146730E+00    
 +3.158290E+00 +9.270875E-01 +4.146730E+00     +7.546524E-01 +1.219079E+00 +3.888690E+00     +3.930640E+00 +1.465029E+00 +3.238450E+00     +3.930640E+00 +1.465029E+00 +3.238450E+00     +4.602379E+00 +5.372560E-01 +2.793579E+00     +4.602379E+00 +5.372560E-01 +2.793579E+00     +4.602379E+00 +5.372560E-01 +2.793579E+00     +1.105329E+00 +2.658210E+00 +3.355570E+00     +5.400150E+00 +1.024931E+00 +1.593920E+00     +5.400150E+00 +1.024931E+00 +1.593920E+00     +1.603130E+00 +9.864147E-01 +5.636260E+00     +1.603130E+00 +9.864147E-01 +5.636260E+00     +1.603130E+00 +9.864147E-01 +5.636260E+00     +4.957660E-01 +1.701850E+00 +2.498352E-01     +4.957660E-01 +1.701850E+00 +2.498352E-01     +4.957660E-01 +1.701850E+00 +2.498352E-01     +4.957660E-01 +1.701850E+00 +2.498352E-01     +1.386111E+00 +2.577029E+00 +3.175319E+00     +3.158290E+00 +9.270875E-01 +4.146730E+00     +3.158290E+00 +9.270875E-01 +4.146730E+00     +3.158290E+00 +9.270875E-01 +4.146730E+00    
 +7.546524E-01 +1.219079E+00 +3.888690E+00     +3.930640E+00 +1.465029E+00 +3.238450E+00     +3.930640E+00 +1.465029E+00 +3.238450E+00     +3.930640E+00 +1.465029E+00 +3.238450E+00     +4.602379E+00 +5.372560E-01 +2.793579E+00     +4.602379E+00 +5.372560E-01 +2.793579E+00     +4.602379E+00 +5.372560E-01 +2.793579E+00     +1.105329E+00 +2.658210E+00 +3.355570E+00     +5.525491E+00 +1.605509E+00 +1.080820E+00     +5.525491E+00 +1.605509E+00 +1.080820E+00     +1.603130E+00 +9.864147E-01 +5.636260E+00     +1.603130E+00 +9.864147E-01 +5.636260E+00     +1.603130E+00 +9.864147E-01 +5.636260E+00     +4.957660E-01 +1.701850E+00 +2.498352E-01     +4.957660E-01 +1.701850E+00 +2.498352E-01     +4.957660E-01 +1.701850E+00 +2.498352E-01     +4.957660E-01 +1.701850E+00 +2.498352E-01     +1.386111E+00 +2.577029E+00 +3.175319E+00     +1.965630E+00 +2.237580E+00 +1.848070E+00     +3.158290E+00 +9.270875E-01 +4.146730E+00     +3.158290E+00 +9.270875E-01 +4.146730E+00    
 +7.546524E-01 +1.219079E+00 +3.888690E+00     +7.546524E-01 +1.219079E+00 +3.888690E+00     +3.930640E+00 +1.465029E+00 +3.238450E+00     +4.602379E+00 +5.372560E-01 +2.793579E+00     +4.602379E+00 +5.372560E-01 +2.793579E+00     +4.602379E+00 +5.372560E-01 +2.793579E+00     +4.602379E+00 +5.372560E-01 +2.793579E+00     +4.602379E+00 +5.372560E-01 +2.793579E+00     +5.525491E+00 +1.605509E+00 +1.080820E+00     +5.525491E+00 +1.605509E+00 +1.080820E+00     +1.603130E+00 +9.864147E-01 +5.636260E+00     +1.603130E+00 +9.864147E-01 +5.636260E+00     +1.603130E+00 +9.864147E-01 +5.636260E+00     +4.957660E-01 +1.701850E+00 +2.498352E-01     +4.957660E-01 +1.701850E+00 +2.498352E-01     +4.957660E-01 +1.701850E+00 +2.498352E-01     +4.957660E-01 +1.701850E+00 +2.498352E-01     +4.957660E-01 +1.701850E+00 +2.498352E-01     +1.965630E+00 +2.237580E+00 +1.848070E+00     +1.965630E+00 +2.237580E+00 +1.848070E+00     +1.965630E+00 +2.237580E+00 +1.848070E+00    
 +5.138010E+00 +1.343350E+00 +1.951891E+00     +4.523970E+00 +2.179550E+00 +2.367365E-02     +4.602379E+00 +5.372560E-01 +2.793579E+00     +4.602379E+00 +5.372560E-01 +2.793579E+00     +4.602379E+00 +5.372560E-01 +2.793579E+00     +4.602379E+00 +5.372560E-01 +2.793579E+00     +4.602379E+00 +5.372560E-01 +2.793579E+00     +4.602379E+00 +5.372560E-01 +2.793579E+00     +3.410539E+00 +9.633903E-01 +6.286885E-01     +3.410539E+00 +9.633903E-01 +6.286885E-01     +3.410539E+00 +9.633903E-01 +6.286885E-01     +4.957660E-01 +1.701850E+00 +2.498352E-01     +4.957660E-01 +1.701850E+00 +2.498352E-01     +4.957660E-01 +1.701850E+00 +2.498352E-01     +4.957660E-01 +1.701850E+00 +2.498352E-01     +4.957660E-01 +1.701850E+00 +2.498352E-01     +4.957660E-01 +1.701850E+00 +2.498352E-01     +4.957660E-01 +1.701850E+00 +2.498352E-01     +1.965630E+00 +2.237580E+00 +1.848070E+00     +1.965630E+00 +2.237580E+00 +1.848070E+00     +1.965630E+00 +2.237580E+00 +1.848070E+00    
 +5.138010E+00 +1.343350E+00 +1.951891E+00     +5.138010E+00 +1.343350E+00 +1.951891E+00     +5.138010E+00 +1.343350E+00 +1.951891E+00     +4.602379E+00 +5.372560E-01 +2.793579E+00     +4.602379E+00 +5.372560E-01 +2.793579E+00     +4.602379E+00 +5.372560E-01 +2.793579E+00     +4.602379E+00 +5.372560E-01 +2.793579E+00     +3.410539E+00 +9.633903E-01 +6.286885E-01     +3.410539E+00 +9.633903E-01 +6.286885E-01     +3.410539E+00 +9.633903E-01 +6.286885E-01     +3.410539E+00 +9.633903E-01 +6.286885E-01     +4.957660E-01 +1.701850E+00 +2.498352E-01     +4.957660E-01 +1.701850E+00 +2.498352E-01     +4.957660E-01 +1.701850E+00 +2.498352E-01     +4.957660E-01 +1.701850E+00 +2.498352E-01     +4.957660E-01 +1.701850E+00 +2.498352E-01     +4.957660E-01 +1.701850E+00 +2.498352E-01     +4.957660E-01 +1.701850E+00 +2.498352E-01     +3.868631E+00 +2.330819E+00 +3.753090E+00     +3.868631E+00 +2.330819E+00 +3.753090E+00     +5.138010E+00 +1.343350E+00 +1.951891E+00    
 +5.138010E+00 +1.343350E+00 +1.951891E+00     +5.138010E+00 +1.343350E+00 +1.951891E+00     +5.138010E+00 +1.343350E+00 +1.951891E+00     +5.138010E+00 +1.343350E+00 +1.951891E+00     +4.602379E+00 +5.372560E-01 +2.793579E+00     +4.602379E+00 +5.372560E-01 +2.793579E+00     +4.602379E+00 +5.372560E-01 +2.793579E+00     +3.410539E+00 +9.633903E-01 +6.286885E-01     +3.410539E+00 +9.633903E-01 +6.286885E-01     +3.410539E+00 +9.633903E-01 +6.286885E-01     +3.410539E+00 +9.633903E-01 +6.286885E-01     +3.410539E+00 +9.633903E-01 +6.286885E-01     +4.957660E-01 +1.701850E+00 +2.498352E-01     +4.957660E-01 +1.701850E+00 +2.498352E-01     +4.957660E-01 +1.701850E+00 +2.498352E-01     +4.957660E-01 +1.701850E+00 +2.498352E-01     +3.868631E+00 +2.330819E+00 +3.753090E+00     +3.868631E+00 +2.330819E+00 +3.753090E+00     +3.868631E+00 +2.330819E+00 +3.753090E+00     +3.868631E+00 +2.330819E+00 +3.753090E+00     +5.138010E+00 +1.343350E+00 +1.951891E+00    
 +5.138010E+00 +1.343350E+00 +1.951891E+00     +5.138010E+00 +1.343350E+00 +1.951891E+00     +5.138010E+00 +1.343350E+00 +1.951891E+00     +5.138010E+00 +1.343350E+00 +1.951891E+00     +5.138010E+00 +1.343350E+00 +1.951891E+00     +4.840150E+00 +1.948020E+00 +4.511090E+00     +4.840150E+00 +1.948020E+00 +4.511090E+00     +4.840150E+00 +1.948020E+00 +4.511090E+00     +3.410539E+00 +9.633903E-01 +6.286885E-01     +3.410539E+00 +9.633903E-01 +6.286885E-01     +3.410539E+00 +9.633903E-01 +6.286885E-01     +3.410539E+00 +9.633903E-01 +6.286885E-01     +4.957660E-01 +1.701850E+00 +2.498352E-01     +4.957660E-01 +1.701850E+00 +2.498352E-01     +4.487301E+00 +1.771249E+00 +4.998571E+00     +4.487301E+00 +1.771249E+00 +4.998571E+00     +3.868631E+00 +2.330819E+00 +3.753090E+00     +3.868631E+00 +2.330819E+00 +3.753090E+00     +3.868631E+00 +2.330819E+00 +3.753090E+00     +3.868631E+00 +2.330819E+00 +3.753090E+00     +5.138010E+00 +1.343350E+00 +1.951891E+00    
 +5.138010E+00 +1.343350E+00 +1.951891E+00     +5.138010E+00 +1.343350E+00 +1.951891E+00     +5.138010E+00 +1.343350E+00 +1.951891E+00     +5.138010E+00 +1.343350E+00 +1.951891E+00     +5.138010E+00 +1.343350E+00 +1.951891E+00     +4.840150E+00 +1.948020E+00 +4.511090E+00     +4.840150E+00 +1.948020E+00 +4.511090E+00     +5.042152E-01 +1.365830E+00 +4.160519E+00     +5.042152E-01 +1.365830E+00 +4.160519E+00     +3.410539E+00 +9.633903E-01 +6.286885E-01     +3.410539E+00 +9.633903E-01 +6.286885E-01     +3.410539E+00 +9.633903E-01 +6.286885E-01     +4.487301E+00 +1.771249E+00 +4.998571E+00     +4.487301E+00 +1.771249E+00 +4.998571E+00     +4.487301E+00 +1.771249E+00 +4.998571E+00     +4.487301E+00 +1.771249E+00 +4.998571E+00     +3.868631E+00 +2.330819E+00 +3.753090E+00     +3.868631E+00 +2.330819E+00 +3.753090E+00     +3.868631E+00 +2.330819E+00 +3.753090E+00     +3.868631E+00 +2.330819E+00 +3.753090E+00     +5.138010E+00 +1.343350E+00 +1.951891E+00    
 +5.138010E+00 +1.343350E+00 +1.951891E+00     +5.138010E+00 +1.343350E+00 +1.951891E+00     +5.138010E+00 +1.343350E+00 +1.951891E+00     +5.138010E+00 +1.343350E+00 +1.951891E+00     +5.138010E+00 +1.343350E+00 +1.951891E+00     +4.840150E+00 +1.948020E+00 +4.511090E+00     +4.840150E+00 +1.948020E+00 +4.511090E+00     +4.840150E+00 +1.948020E+00 +4.511090E+00     +4.840150E+00 +1.948020E+00 +4.511090E+00     +4.840150E+00 +1.948020E+00 +4.511090E+00     +4.840150E+00 +1.948020E+00 +4.511090E+00     +4.487301E+00 +1.771249E+00 +4.998571E+00     +4.487301E+00 +1.771249E+00 +4.998571E+00     +4.487301E+00 +1.771249E+00 +4.998571E+00     +4.487301E+00 +1.771249E+00 +4.998571E+00     +4.487301E+00 +1.771249E+00 +4.998571E+00     +4.487301E+00 +1.771249E+00 +4.998571E+00     +3.868631E+00 +2.330819E+00 +3.753090E+00     +3.868631E+00 +2.330819E+00 +3.753090E+00     +3.868631E+00 +2.330819E+00 +3.753090E+00     +5.138010E+00 +1.343350E+00 +1.951891E+00    
 +5.138010E+00 +1.343350E+00 +1.951891E+00     +5.138010E+00 +1.343350E+00 +1.951891E+00     +5.138010E+00 +1.343350E+00 +1.951891E+00     +5.138010E+00 +1.343350E+00 +1.951891E+00     +5.138010E+00 +1.343350E+00 +1.951891E+00     +1.585410E+00 +1.724919E+00 +3.745440E+00     +1.585410E+00 +1.724919E+00 +3.745440E+00     +1.585410E+00 +1.724919E+00 +3.745440E+00     +1.585410E+00 +1.724919E+00 +3.745440E+00     +1.585410E+00 +1.724919E+00 +3.745440E+00     +1.585410E+00 +1.724919E+00 +3.745440E+00     +4.487301E+00 +1.771249E+00 +4.998571E+00     +4.487301E+00 +1.771249E+00 +4.998571E+00     +4.487301E+00 +1.771249E+00 +4.998571E+00     +4.487301E+00 +1.771249E+00 +4.998571E+00     +3.029000E+00 +2.128930E+00 +4.462269E+00     +4.487301E+00 +1.771249E+00 +4.998571E+00     +4.487301E+00 +1.771249E+00 +4.998571E+00     +3.868631E+00 +2.330819E+00 +3.753090E+00     +3.868631E+00 +2.330819E+00 +3.753090E+00     +5.138010E+00 +1.343350E+00 +1.951891E+00    
 +5.138010E+00 +1.343350E+00 +1.951891E+00     +5.138010E+00 +1.343350E+00 +1.951891E+00     +5.138010E+00 +1.343350E+00 +1.951891E+00     +5.138010E+00 +1.343350E+00 +1.951891E+00     +3.156707E-01 +1.393139E+00 +1.170060E+00     +3.156707E-01 +1.393139E+00 +1.170060E+00     +1.585410E+00 +1.724919E+00 +3.745440E+00     +1.585410E+00 +1.724919E+00 +3.745440E+00     +1.585410E+00 +1.724919E+00 +3.745440E+00     +1.585410E+00 +1.724919E+00 +3.745440E+00     +3.479920E+00 +1.666229E+00 +5.212799E+00     +3.479920E+00 +1.666229E+00 +5.212799E+00     +3.479920E+00 +1.666229E+00 +5.212799E+00     +4.487301E+00 +1.771249E+00 +4.998571E+00     +4.487301E+00 +1.771249E+00 +4.998571E+00     +4.487301E+00 +1.771249E+00 +4.998571E+00     +4.487301E+00 +1.771249E+00 +4.998571E+00     +4.487301E+00 +1.771249E+00 +4.998571E+00     +4.225140E+00 +1.382261E+00 +3.163409E+00     +4.225140E+00 +1.382261E+00 +3.163409E+00     +4.225140E+00 +1.382261E+00 +3.163409E+00    
 +4.225140E+00 +1.382261E+00 +3.163409E+00     +4.225140E+00 +1.382261E+00 +3.163409E+00     +5.138010E+00 +1.343350E+00 +1.951891E+00     +3.156707E-01 +1.393139E+00 +1.170060E+00     +3.156707E-01 +1.393139E+00 +1.170060E+00     +3.156707E-01 +1.393139E+00 +1.170060E+00     +3.156707E-01 +1.393139E+00 +1.170060E+00     +3.156707E-01 +1.393139E+00 +1.170060E+00     +3.156707E-01 +1.393139E+00 +1.170060E+00     +3.479920E+00 +1.666229E+00 +5.212799E+00     +3.479920E+00 +1.666229E+00 +5.212799E+00     +3.479920E+00 +1.666229E+00 +5.212799E+00     +3.479920E+00 +1.666229E+00 +5.212799E+00     +3.479920E+00 +1.666229E+00 +5.212799E+00     +4.487301E+00 +1.771249E+00 +4.998571E+00     +4.487301E+00 +1.771249E+00 +4.998571E+00     +6.061860E+00 +1.336090E+00 +1.274289E+00     +6.061860E+00 +1.336090E+00 +1.274289E+00     +4.225140E+00 +1.382261E+00 +3.163409E+00     +4.225140E+00 +1.382261E+00 +3.163409E+00     +4.225140E+00 +1.382261E+00 +3.163409E+00    
 +4.225140E+00 +1.382261E+00 +3.163409E+00     +4.225140E+00 +1.382261E+00 +3.163409E+00     +4.225140E+00 +1.382261E+00 +3.163409E+00     +3.156707E-01 +1.393139E+00 +1.170060E+00     +3.156707E-01 +1.393139E+00 +1.170060E+00     +3.156707E-01 +1.393139E+00 +1.170060E+00     +3.156707E-01 +1.393139E+00 +1.170060E+00     +3.156707E-01 +1.393139E+00 +1.170060E+00     +3.156707E-01 +1.393139E+00 +1.170060E+00     +3.479920E+00 +1.666229E+00 +5.212799E+00     +3.479920E+00 +1.666229E+00 +5.212799E+00     +3.479920E+00 +1.666229E+00 +5.212799E+00     +3.479920E+00 +1.666229E+00 +5.212799E+00     +3.479920E+00 +1.666229E+00 +5.212799E+00     +5.858500E+00 +2.491110E+00 +6.200010E+00     +4.465460E+00 +1.407840E+00 +3.380230E+00     +4.465460E+00 +1.407840E+00 +3.380230E+00     +6.061860E+00 +1.336090E+00 +1.274289E+00     +4.225140E+00 +1.382261E+00 +3.163409E+00     +4.225140E+00 +1.382261E+00 +3.163409E+00     +4.225140E+00 +1.382261E+00 +3.163409E+00    
 +4.225140E+00 +1.382261E+00 +3.163409E+00     +4.225140E+00 +1.382261E+00 +3.163409E+00     +4.225140E+00 +1.382261E+00 +3.163409E+00     +3.156707E-01 +1.393139E+00 +1.170060E+00     +3.156707E-01 +1.393139E+00 +1.170060E+00     +3.156707E-01 +1.393139E+00 +1.170060E+00     +3.156707E-01 +1.393139E+00 +1.170060E+00     +3.156707E-01 +1.393139E+00 +1.170060E+00     +3.156707E-01 +1.393139E+00 +1.170060E+00     +3.156707E-01 +1.393139E+00 +1.170060E+00     +5.858500E+00 +2.491110E+00 +6.200010E+00     +5.858500E+00 +2.491110E+00 +6.200010E+00     +5.858500E+00 +2.491110E+00 +6.200010E+00     +5.858500E+00 +2.491110E+00 +6.200010E+00     +5.858500E+00 +2.491110E+00 +6.200010E+00     +3.846859E+00 +1.844750E+00 +1.032779E+00     +4.465460E+00 +1.407840E+00 +3.380230E+00     +4.465460E+00 +1.407840E+00 +3.380230E+00     +4.225140E+00 +1.382261E+00 +3.163409E+00     +4.225140E+00 +1.382261E+00 +3.163409E+00     +4.225140E+00 +1.382261E+00 +3.163409E+00    
 +4.225140E+00 +1.382261E+00 +3.163409E+00     +4.225140E+00 +1.382261E+00 +3.163409E+00     +3.156707E-01 +1.393139E+00 +1.170060E+00     +3.156707E-01 +1.393139E+00 +1.170060E+00     +3.156707E-01 +1.393139E+00 +1.170060E+00     +6.023323E-01 +1.946630E+00 +2.772860E+00     +3.156707E-01 +1.393139E+00 +1.170060E+00     +3.156707E-01 +1.393139E+00 +1.170060E+00     +3.156707E-01 +1.393139E+00 +1.170060E+00     +5.858500E+00 +2.491110E+00 +6.200010E+00     +5.858500E+00 +2.491110E+00 +6.200010E+00     +5.858500E+00 +2.491110E+00 +6.200010E+00     +4.054313E-01 +1.877370E+00 +2.888710E+00     +4.054313E-01 +1.877370E+00 +2.888710E+00     +4.054313E-01 +1.877370E+00 +2.888710E+00     +4.465460E+00 +1.407840E+00 +3.380230E+00     +4.465460E+00 +1.407840E+00 +3.380230E+00     +4.465460E+00 +1.407840E+00 +3.380230E+00     +4.225140E+00 +1.382261E+00 +3.163409E+00     +4.225140E+00 +1.382261E+00 +3.163409E+00     +4.225140E+00 +1.382261E+00 +3.163409E+00    
 +4.225140E+00 +1.382261E+00 +3.163409E+00     +4.621510E+00 +6.203145E-01 +2.231161E+00     +4.621510E+00 +6.203145E-01 +2.231161E+00     +3.156707E-01 +1.393139E+00 +1.170060E+00     +6.023323E-01 +1.946630E+00 +2.772860E+00     +6.023323E-01 +1.946630E+00 +2.772860E+00     +6.023323E-01 +1.946630E+00 +2.772860E+00     +3.156707E-01 +1.393139E+00 +1.170060E+00     +3.156707E-01 +1.393139E+00 +1.170060E+00     +3.382630E+00 +2.983171E+00 +5.703999E+00     +3.382630E+00 +2.983171E+00 +5.703999E+00     +5.858500E+00 +2.491110E+00 +6.200010E+00     +4.054313E-01 +1.877370E+00 +2.888710E+00     +4.054313E-01 +1.877370E+00 +2.888710E+00     +4.054313E-01 +1.877370E+00 +2.888710E+00     +5.858500E+00 +2.491110E+00 +6.200010E+00     +4.465460E+00 +1.407840E+00 +3.380230E+00     +4.465460E+00 +1.407840E+00 +3.380230E+00     +4.225140E+00 +1.382261E+00 +3.163409E+00     +4.225140E+00 +1.382261E+00 +3.163409E+00     +4.225140E+00 +1.382261E+00 +3.163409E+00    
 +2.061770E+00 +1.152230E+00 +5.173899E+00     +2.061770E+00 +1.152230E+00 +5.173899E+00     +2.061770E+00 +1.152230E+00 +5.173899E+00     +6.023323E-01 +1.946630E+00 +2.772860E+00     +6.023323E-01 +1.946630E+00 +2.772860E+00     +6.023323E-01 +1.946630E+00 +2.772860E+00     +6.023323E-01 +1.946630E+00 +2.772860E+00     +6.023323E-01 +1.946630E+00 +2.772860E+00     +3.382630E+00 +2.983171E+00 +5.703999E+00     +3.382630E+00 +2.983171E+00 +5.703999E+00     +3.382630E+00 +2.983171E+00 +5.703999E+00     +3.382630E+00 +2.983171E+00 +5.703999E+00     +4.054313E-01 +1.877370E+00 +2.888710E+00     +4.054313E-01 +1.877370E+00 +2.888710E+00     +4.054313E-01 +1.877370E+00 +2.888710E+00     +5.858500E+00 +2.491110E+00 +6.200010E+00     +5.858500E+00 +2.491110E+00 +6.200010E+00     +4.465460E+00 +1.407840E+00 +3.380230E+00     +4.225140E+00 +1.382261E+00 +3.163409E+00     +4.225140E+00 +1.382261E+00 +3.163409E+00     +4.225140E+00 +1.382261E+00 +3.163409E+00    
 +2.061770E+00 +1.152230E+00 +5.173899E+00     +2.061770E+00 +1.152230E+00 +5.173899E+00     +2.061770E+00 +1.152230E+00 +5.173899E+00     +2.061770E+00 +1.152230E+00 +5.173899E+00     +6.023323E-01 +1.946630E+00 +2.772860E+00     +6.023323E-01 +1.946630E+00 +2.772860E+00     +6.023323E-01 +1.946630E+00 +2.772860E+00     +5.400150E+00 +1.024931E+00 +1.593920E+00     +5.400150E+00 +1.024931E+00 +1.593920E+00     +3.382630E+00 +2.983171E+00 +5.703999E+00     +3.382630E+00 +2.983171E+00 +5.703999E+00     +3.382630E+00 +2.983171E+00 +5.703999E+00     +3.382630E+00 +2.983171E+00 +5.703999E+00     +5.858500E+00 +2.491110E+00 +6.200010E+00     +5.858500E+00 +2.491110E+00 +6.200010E+00     +5.858500E+00 +2.491110E+00 +6.200010E+00     +3.911690E+00 +2.064901E+00 +5.572710E+00     +4.284520E+00 +1.543060E+00 +3.243520E+00     +4.284520E+00 +1.543060E+00 +3.243520E+00     +4.284520E+00 +1.543060E+00 +3.243520E+00     +4.284520E+00 +1.543060E+00 +3.243520E+00    
 +2.061770E+00 +1.152230E+00 +5.173899E+00     +2.061770E+00 +1.152230E+00 +5.173899E+00     +2.061770E+00 +1.152230E+00 +5.173899E+00     +2.061770E+00 +1.152230E+00 +5.173899E+00     +6.023323E-01 +1.946630E+00 +2.772860E+00     +6.023323E-01 +1.946630E+00 +2.772860E+00     +5.400150E+00 +1.024931E+00 +1.593920E+00     +5.400150E+00 +1.024931E+00 +1.593920E+00     +5.400150E+00 +1.024931E+00 +1.593920E+00     +5.174140E+00 +1.968820E+00 +8.447324E-01     +3.382630E+00 +2.983171E+00 +5.703999E+00     +3.382630E+00 +2.983171E+00 +5.703999E+00     +3.382630E+00 +2.983171E+00 +5.703999E+00     +3.382630E+00 +2.983171E+00 +5.703999E+00     +3.008780E+00 +6.545491E-01 +1.219811E+00     +3.911690E+00 +2.064901E+00 +5.572710E+00     +4.284520E+00 +1.543060E+00 +3.243520E+00     +4.284520E+00 +1.543060E+00 +3.243520E+00     +4.284520E+00 +1.543060E+00 +3.243520E+00     +4.284520E+00 +1.543060E+00 +3.243520E+00     +4.284520E+00 +1.543060E+00 +3.243520E+00    
 +3.158290E+00 +9.270875E-01 +4.146730E+00     +2.061770E+00 +1.152230E+00 +5.173899E+00     +2.061770E+00 +1.152230E+00 +5.173899E+00     +2.061770E+00 +1.152230E+00 +5.173899E+00     +6.023323E-01 +1.946630E+00 +2.772860E+00     +5.400150E+00 +1.024931E+00 +1.593920E+00     +5.400150E+00 +1.024931E+00 +1.593920E+00     +5.400150E+00 +1.024931E+00 +1.593920E+00     +5.174140E+00 +1.968820E+00 +8.447324E-01     +5.174140E+00 +1.968820E+00 +8.447324E-01     +5.174140E+00 +1.968820E+00 +8.447324E-01     +3.382630E+00 +2.983171E+00 +5.703999E+00     +3.382630E+00 +2.983171E+00 +5.703999E+00     +3.382630E+00 +2.983171E+00 +5.703999E+00     +3.008780E+00 +6.545491E-01 +1.219811E+00     +3.911690E+00 +2.064901E+00 +5.572710E+00     +4.284520E+00 +1.543060E+00 +3.243520E+00     +4.284520E+00 +1.543060E+00 +3.243520E+00     +4.284520E+00 +1.543060E+00 +3.243520E+00     +4.284520E+00 +1.543060E+00 +3.243520E+00     +4.284520E+00 +1.543060E+00 +3.243520E+00    
 +3.158290E+00 +9.270875E-01 +4.146730E+00     +3.158290E+00 +9.270875E-01 +4.146730E+00     +2.061770E+00 +1.152230E+00 +5.173899E+00     +2.322279E+00 +1.183578E-01 +5.142279E+00     +2.287620E-01 +8.959333E-01 +4.001450E+00     +5.400150E+00 +1.024931E+00 +1.593920E+00     +5.400150E+00 +1.024931E+00 +1.593920E+00     +5.400150E+00 +1.024931E+00 +1.593920E+00     +5.400150E+00 +1.024931E+00 +1.593920E+00     +5.174140E+00 +1.968820E+00 +8.447324E-01     +5.400150E+00 +1.024931E+00 +1.593920E+00     +5.400150E+00 +1.024931E+00 +1.593920E+00     +3.382630E+00 +2.983171E+00 +5.703999E+00     +3.008780E+00 +6.545491E-01 +1.219811E+00     +3.008780E+00 +6.545491E-01 +1.219811E+00     +3.008780E+00 +6.545491E-01 +1.219811E+00     +4.284520E+00 +1.543060E+00 +3.243520E+00     +4.284520E+00 +1.543060E+00 +3.243520E+00     +4.284520E+00 +1.543060E+00 +3.243520E+00     +3.158290E+00 +9.270875E-01 +4.146730E+00     +3.158290E+00 +9.270875E-01 +4.146730E+00    
 +3.158290E+00 +9.270875E-01 +4.146730E+00     +7.546524E-01 +1.219079E+00 +3.888690E+00     +7.546524E-01 +1.219079E+00 +3.888690E+00     +3.930640E+00 +1.465029E+00 +3.238450E+00     +4.602379E+00 +5.372560E-01 +2.793579E+00     +4.602379E+00 +5.372560E-01 +2.793579E+00     +4.602379E+00 +5.372560E-01 +2.793579E+00     +5.400150E+00 +1.024931E+00 +1.593920E+00     +5.400150E+00 +1.024931E+00 +1.593920E+00     +5.400150E+00 +1.024931E+00 +1.593920E+00     +5.400150E+00 +1.024931E+00 +1.593920E+00     +1.603130E+00 +9.864147E-01 +5.636260E+00     +1.603130E+00 +9.864147E-01 +5.636260E+00     +4.683410E+00 +1.912020E+00 +4.247760E+00     +4.683410E+00 +1.912020E+00 +4.247760E+00     +4.957660E-01 +1.701850E+00 +2.498352E-01     +4.957660E-01 +1.701850E+00 +2.498352E-01     +3.158290E+00 +9.270875E-01 +4.146730E+00     +3.158290E+00 +9.270875E-01 +4.146730E+00     +3.158290E+00 +9.270875E-01 +4.146730E+00     +3.158290E+00 +9.270875E-01 +4.146730E+00    
 +7.546524E-01 +1.219079E+00 +3.888690E+00     +7.546524E-01 +1.219079E+00 +3.888690E+00     +7.546524E-01 +1.219079E+00 +3.888690E+00     +4.602379E+00 +5.372560E-01 +2.793579E+00     +4.602379E+00 +5.372560E-01 +2.793579E+00     +4.602379E+00 +5.372560E-01 +2.793579E+00     +4.602379E+00 +5.372560E-01 +2.793579E+00     +4.602379E+00 +5.372560E-01 +2.793579E+00     +5.400150E+00 +1.024931E+00 +1.593920E+00     +5.525491E+00 +1.605509E+00 +1.080820E+00     +1.603130E+00 +9.864147E-01 +5.636260E+00     +1.603130E+00 +9.864147E-01 +5.636260E+00     +1.603130E+00 +9.864147E-01 +5.636260E+00     +4.683410E+00 +1.912020E+00 +4.247760E+00     +4.683410E+00 +1.912020E+00 +4.247760E+00     +4.957660E-01 +1.701850E+00 +2.498352E-01     +4.957660E-01 +1.701850E+00 +2.498352E-01     +1.965630E+00 +2.237580E+00 +1.848070E+00     +1.965630E+00 +2.237580E+00 +1.848070E+00     +1.965630E+00 +2.237580E+00 +1.848070E+00     +3.158290E+00 +9.270875E-01 +4.146730E+00    
 +7.546524E-01 +1.219079E+00 +3.888690E+00     +7.546524E-01 +1.219079E+00 +3.888690E+00     +7.546524E-01 +1.219079E+00 +3.888690E+00     +4.602379E+00 +5.372560E-01 +2.793579E+00     +4.602379E+00 +5.372560E-01 +2.793579E+00     +4.602379E+00 +5.372560E-01 +2.793579E+00     +4.602379E+00 +5.372560E-01 +2.793579E+00     +4.602379E+00 +5.372560E-01 +2.793579E+00     +4.602379E+00 +5.372560E-01 +2.793579E+00     +1.603130E+00 +9.864147E-01 +5.636260E+00     +1.603130E+00 +9.864147E-01 +5.636260E+00     +1.603130E+00 +9.864147E-01 +5.636260E+00     +4.957660E-01 +1.701850E+00 +2.498352E-01     +4.957660E-01 +1.701850E+00 +2.498352E-01     +4.957660E-01 +1.701850E+00 +2.498352E-01     +4.957660E-01 +1.701850E+00 +2.498352E-01     +4.957660E-01 +1.701850E+00 +2.498352E-01     +1.965630E+00 +2.237580E+00 +1.848070E+00     +1.965630E+00 +2.237580E+00 +1.848070E+00     +1.965630E+00 +2.237580E+00 +1.848070E+00     +1.965630E+00 +2.237580E+00 +1.848070E+00    
 +2.322279E+00 +1.183578E-01 +5.142279E+00     +7.546524E-01 +1.219079E+00 +3.888690E+00     +4.602379E+00 +5.372560E-01 +2.793579E+00     +4.602379E+00 +5.372560E-01 +2.793579E+00     +4.602379E+00 +5.372560E-01 +2.793579E+00     +4.602379E+00 +5.372560E-01 +2.793579E+00     +4.602379E+00 +5.372560E-01 +2.793579E+00     +4.602379E+00 +5.372560E-01 +2.793579E+00     +3.410539E+00 +9.633903E-01 +6.286885E-01     +3.410539E+00 +9.633903E-01 +6.286885E-01     +3.410539E+00 +9.633903E-01 +6.286885E-01     +4.957660E-01 +1.701850E+00 +2.498352E-01     +4.957660E-01 +1.701850E+00 +2.498352E-01     +4.957660E-01 +1.701850E+00 +2.498352E-01     +4.957660E-01 +1.701850E+00 +2.498352E-01     +4.957660E-01 +1.701850E+00 +2.498352E-01     +4.957660E-01 +1.701850E+00 +2.498352E-01     +4.957660E-01 +1.701850E+00 +2.498352E-01     +1.965630E+00 +2.237580E+00 +1.848070E+00     +1.965630E+00 +2.237580E+00 +1.848070E+00     +1.965630E+00 +2.237580E+00 +1.848070E+00    
 +5.138010E+00 +1.343350E+00 +1.951891E+00     +5.138010E+00 +1.343350E+00 +1.951891E+00     +5.138010E+00 +1.343350E+00 +1.951891E+00     +4.602379E+00 +5.372560E-01 +2.793579E+00     +4.602379E+00 +5.372560E-01 +2.793579E+00     +4.602379E+00 +5.372560E-01 +2.793579E+00     +4.602379E+00 +5.372560E-01 +2.793579E+00     +3.410539E+00 +9.633903E-01 +6.286885E-01     +3.410539E+00 +9.633903E-01 +6.286885E-01     +3.410539E+00 +9.633903E-01 +6.286885E-01     +3.410539E+00 +9.633903E-01 +6.286885E-01     +3.410539E+00 +9.633903E-01 +6.286885E-01     +4.957660E-01 +1.701850E+00 +2.498352E-01     +4.957660E-01 +1.701850E+00 +2.498352E-01     +4.957660E-01 +1.701850E+00 +2.498352E-01     +4.957660E-01 +1.701850E+00 +2.498352E-01     +4.957660E-01 +1.701850E+00 +2.498352E-01     +4.957660E-01 +1.701850E+00 +2.498352E-01     +3.868631E+00 +2.330819E+00 +3.753090E+00     +5.138010E+00 +1.343350E+00 +1.951891E+00     +5.138010E+00 +1.343350E+00 +1.951891E+00    
 +5.138010E+00 +1.343350E+00 +1.951891E+00     +5.138010E+00 +1.343350E+00 +1.951891E+00     +5.138010E+00 +1.343350E+00 +1.951891E+00     +5.138010E+00 +1.343350E+00 +1.951891E+00     +5.138010E+00 +1.343350E+00 +1.951891E+00     +4.602379E+00 +5.372560E-01 +2.793579E+00     +4.299280E+00 +9.850045E-01 +2.890799E+00     +3.410539E+00 +9.633903E-01 +6.286885E-01     +3.410539E+00 +9.633903E-01 +6.286885E-01     +3.410539E+00 +9.633903E-01 +6.286885E-01     +3.410539E+00 +9.633903E-01 +6.286885E-01     +3.410539E+00 +9.633903E-01 +6.286885E-01     +4.957660E-01 +1.701850E+00 +2.498352E-01     +4.957660E-01 +1.701850E+00 +2.498352E-01     +4.957660E-01 +1.701850E+00 +2.498352E-01     +4.487301E+00 +1.771249E+00 +4.998571E+00     +4.487301E+00 +1.771249E+00 +4.998571E+00     +3.297869E+00 +2.277210E+00 +1.561359E+00     +3.868631E+00 +2.330819E+00 +3.753090E+00     +5.138010E+00 +1.343350E+00 +1.951891E+00     +5.138010E+00 +1.343350E+00 +1.951891E+00    
 +5.138010E+00 +1.343350E+00 +1.951891E+00     +5.138010E+00 +1.343350E+00 +1.951891E+00     +5.138010E+00 +1.343350E+00 +1.951891E+00     +5.138010E+00 +1.343350E+00 +1.951891E+00     +5.138010E+00 +1.343350E+00 +1.951891E+00     +4.299280E+00 +9.850045E-01 +2.890799E+00     +4.299280E+00 +9.850045E-01 +2.890799E+00     +3.410539E+00 +9.633903E-01 +6.286885E-01     +3.410539E+00 +9.633903E-01 +6.286885E-01     +3.410539E+00 +9.633903E-01 +6.286885E-01     +3.410539E+00 +9.633903E-01 +6.286885E-01     +3.410539E+00 +9.633903E-01 +6.286885E-01     +4.957660E-01 +1.701850E+00 +2.498352E-01     +4.487301E+00 +1.771249E+00 +4.998571E+00     +4.487301E+00 +1.771249E+00 +4.998571E+00     +4.487301E+00 +1.771249E+00 +4.998571E+00     +4.487301E+00 +1.771249E+00 +4.998571E+00     +3.868631E+00 +2.330819E+00 +3.753090E+00     +3.868631E+00 +2.330819E+00 +3.753090E+00     +5.138010E+00 +1.343350E+00 +1.951891E+00     +5.138010E+00 +1.343350E+00 +1.951891E+00    
 +5.138010E+00 +1.343350E+00 +1.951891E+00     +5.138010E+00 +1.343350E+00 +1.951891E+00     +5.138010E+00 +1.343350E+00 +1.951891E+00     +5.138010E+00 +1.343350E+00 +1.951891E+00     +5.138010E+00 +1.343350E+00 +1.951891E+00     +5.138010E+00 +1.343350E+00 +1.951891E+00     +4.299280E+00 +9.850045E-01 +2.890799E+00     +5.042152E-01 +1.365830E+00 +4.160519E+00     +3.410539E+00 +9.633903E-01 +6.286885E-01     +3.410539E+00 +9.633903E-01 +6.286885E-01     +3.410539E+00 +9.633903E-01 +6.286885E-01     +3.410539E+00 +9.633903E-01 +6.286885E-01     +4.487301E+00 +1.771249E+00 +4.998571E+00     +4.487301E+00 +1.771249E+00 +4.998571E+00     +4.487301E+00 +1.771249E+00 +4.998571E+00     +4.487301E+00 +1.771249E+00 +4.998571E+00     +4.487301E+00 +1.771249E+00 +4.998571E+00     +3.868631E+00 +2.330819E+00 +3.753090E+00     +3.868631E+00 +2.330819E+00 +3.753090E+00     +5.138010E+00 +1.343350E+00 +1.951891E+00     +5.138010E+00 +1.343350E+00 +1.951891E+00    
 +5.138010E+00 +1.343350E+00 +1.951891E+00     +5.138010E+00 +1.343350E+00 +1.951891E+00     +5.138010E+00 +1.343350E+00 +1.951891E+00     +5.138010E+00 +1.343350E+00 +1.951891E+00     +5.138010E+00 +1.343350E+00 +1.951891E+00     +5.138010E+00 +1.343350E+00 +1.951891E+00     +1.585410E+00 +1.724919E+00 +3.745440E+00     +1.585410E+00 +1.724919E+00 +3.745440E+00     +1.585410E+00 +1.724919E+00 +3.745440E+00     +3.410539E+00 +9.633903E-01 +6.286885E-01     +3.410539E+00 +9.633903E-01 +6.286885E-01     +3.410539E+00 +9.633903E-01 +6.286885E-01     +5.889300E+00 +8.985828E-01 +3.240590E+00     +4.487301E+00 +1.771249E+00 +4.998571E+00     +4.487301E+00 +1.771249E+00 +4.998571E+00     +4.487301E+00 +1.771249E+00 +4.998571E+00     +4.487301E+00 +1.771249E+00 +4.998571E+00     +4.487301E+00 +1.771249E+00 +4.998571E+00     +3.868631E+00 +2.330819E+00 +3.753090E+00     +5.138010E+00 +1.343350E+00 +1.951891E+00     +5.138010E+00 +1.343350E+00 +1.951891E+00    
 +5.138010E+00 +1.343350E+00 +1.951891E+00     +5.138010E+00 +1.343350E+00 +1.951891E+00     +5.138010E+00 +1.343350E+00 +1.951891E+00     +5.138010E+00 +1.343350E+00 +1.951891E+00     +5.138010E+00 +1.343350E+00 +1.951891E+00     +1.585410E+00 +1.724919E+00 +3.745440E+00     +1.585410E+00 +1.724919E+00 +3.745440E+00     +1.585410E+00 +1.724919E+00 +3.745440E+00     +1.585410E+00 +1.724919E+00 +3.745440E+00     +1.585410E+00 +1.724919E+00 +3.745440E+00     +1.585410E+00 +1.724919E+00 +3.745440E+00     +5.889300E+00 +8.985828E-01 +3.240590E+00     +5.889300E+00 +8.985828E-01 +3.240590E+00     +5.889300E+00 +8.985828E-01 +3.240590E+00     +4.487301E+00 +1.771249E+00 +4.998571E+00     +4.487301E+00 +1.771249E+00 +4.998571E+00     +4.487301E+00 +1.771249E+00 +4.998571E+00     +2.075921E+00 +5.109731E-01 +4.872919E+00     +2.075921E+00 +5.109731E-01 +4.872919E+00     +2.075921E+00 +5.109731E-01 +4.872919E+00     +5.138010E+00 +1.343350E+00 +1.951891E+00    
 +5.138010E+00 +1.343350E+00 +1.951891E+00     +5.138010E+00 +1.343350E+00 +1.951891E+00     +5.138010E+00 +1.343350E+00 +1.951891E+00     +5.138010E+00 +1.343350E+00 +1.951891E+00     +5.138010E+00 +1.343350E+00 +1.951891E+00     +1.585410E+00 +1.724919E+00 +3.745440E+00     +1.585410E+00 +1.724919E+00 +3.745440E+00     +1.585410E+00 +1.724919E+00 +3.745440E+00     +1.585410E+00 +1.724919E+00 +3.745440E+00     +1.585410E+00 +1.724919E+00 +3.745440E+00     +3.479920E+00 +1.666229E+00 +5.212799E+00     +3.479920E+00 +1.666229E+00 +5.212799E+00     +3.479920E+00 +1.666229E+00 +5.212799E+00     +3.479920E+00 +1.666229E+00 +5.212799E+00     +4.487301E+00 +1.771249E+00 +4.998571E+00     +4.487301E+00 +1.771249E+00 +4.998571E+00     +4.487301E+00 +1.771249E+00 +4.998571E+00     +2.075921E+00 +5.109731E-01 +4.872919E+00     +2.075921E+00 +5.109731E-01 +4.872919E+00     +4.225140E+00 +1.382261E+00 +3.163409E+00     +4.225140E+00 +1.382261E+00 +3.163409E+00    
 +4.225140E+00 +1.382261E+00 +3.163409E+00     +5.138010E+00 +1.343350E+00 +1.951891E+00     +5.138010E+00 +1.343350E+00 +1.951891E+00     +3.156707E-01 +1.393139E+00 +1.170060E+00     +3.156707E-01 +1.393139E+00 +1.170060E+00     +3.045771E+00 +1.771399E+00 +5.542501E+00     +4.112849E+00 +1.965209E+00 +3.785350E+00     +4.112849E+00 +1.965209E+00 +3.785350E+00     +4.112849E+00 +1.965209E+00 +3.785350E+00     +3.479920E+00 +1.666229E+00 +5.212799E+00     +3.479920E+00 +1.666229E+00 +5.212799E+00     +3.479920E+00 +1.666229E+00 +5.212799E+00     +3.479920E+00 +1.666229E+00 +5.212799E+00     +3.479920E+00 +1.666229E+00 +5.212799E+00     +3.479920E+00 +1.666229E+00 +5.212799E+00     +3.511650E+00 +8.393515E-01 +1.924440E+00     +6.061860E+00 +1.336090E+00 +1.274289E+00     +6.061860E+00 +1.336090E+00 +1.274289E+00     +6.061860E+00 +1.336090E+00 +1.274289E+00     +4.225140E+00 +1.382261E+00 +3.163409E+00     +4.225140E+00 +1.382261E+00 +3.163409E+00    
 +4.225140E+00 +1.382261E+00 +3.163409E+00     +4.225140E+00 +1.382261E+00 +3.163409E+00     +2.387970E+00 +2.171881E+00 +4.348490E+00     +2.387970E+00 +2.171881E+00 +4.348490E+00     +3.045771E+00 +1.771399E+00 +5.542501E+00     +3.045771E+00 +1.771399E+00 +5.542501E+00     +3.045771E+00 +1.771399E+00 +5.542501E+00     +3.045771E+00 +1.771399E+00 +5.542501E+00     +3.045771E+00 +1.771399E+00 +5.542501E+00     +3.479920E+00 +1.666229E+00 +5.212799E+00     +3.479920E+00 +1.666229E+00 +5.212799E+00     +3.479920E+00 +1.666229E+00 +5.212799E+00     +3.479920E+00 +1.666229E+00 +5.212799E+00     +3.479920E+00 +1.666229E+00 +5.212799E+00     +3.479920E+00 +1.666229E+00 +5.212799E+00     +4.465460E+00 +1.407840E+00 +3.380230E+00     +4.405359E+00 +1.497121E+00 +2.885329E+00     +6.061860E+00 +1.336090E+00 +1.274289E+00     +6.061860E+00 +1.336090E+00 +1.274289E+00     +4.225140E+00 +1.382261E+00 +3.163409E+00     +4.225140E+00 +1.382261E+00 +3.163409E+00    
 +4.225140E+00 +1.382261E+00 +3.163409E+00     +4.225140E+00 +1.382261E+00 +3.163409E+00     +2.387970E+00 +2.171881E+00 +4.348490E+00     +2.387970E+00 +2.171881E+00 +4.348490E+00     +3.045771E+00 +1.771399E+00 +5.542501E+00     +3.045771E+00 +1.771399E+00 +5.542501E+00     +3.045771E+00 +1.771399E+00 +5.542501E+00     +3.045771E+00 +1.771399E+00 +5.542501E+00     +3.045771E+00 +1.771399E+00 +5.542501E+00     +3.479920E+00 +1.666229E+00 +5.212799E+00     +3.479920E+00 +1.666229E+00 +5.212799E+00     +3.479920E+00 +1.666229E+00 +5.212799E+00     +3.479920E+00 +1.666229E+00 +5.212799E+00     +3.479920E+00 +1.666229E+00 +5.212799E+00     +3.479920E+00 +1.666229E+00 +5.212799E+00     +4.465460E+00 +1.407840E+00 +3.380230E+00     +4.465460E+00 +1.407840E+00 +3.380230E+00     +4.465460E+00 +1.407840E+00 +3.380230E+00     +6.061860E+00 +1.336090E+00 +1.274289E+00     +4.225140E+00 +1.382261E+00 +3.163409E+00     +4.225140E+00 +1.382261E+00 +3.163409E+00    
 +4.225140E+00 +1.382261E+00 +3.163409E+00     +4.225140E+00 +1.382261E+00 +3.163409E+00     +2.387970E+00 +2.171881E+00 +4.348490E+00     +2.387970E+00 +2.171881E+00 +4.348490E+00     +3.045771E+00 +1.771399E+00 +5.542501E+00     +3.045771E+00 +1.771399E+00 +5.542501E+00     +3.045771E+00 +1.771399E+00 +5.542501E+00     +3.045771E+00 +1.771399E+00 +5.542501E+00     +3.045771E+00 +1.771399E+00 +5.542501E+00     +3.382630E+00 +2.983171E+00 +5.703999E+00     +3.382630E+00 +2.983171E+00 +5.703999E+00     +3.382630E+00 +2.983171E+00 +5.703999E+00     +4.054313E-01 +1.877370E+00 +2.888710E+00     +4.054313E-01 +1.877370E+00 +2.888710E+00     +4.054313E-01 +1.877370E+00 +2.888710E+00     +4.465460E+00 +1.407840E+00 +3.380230E+00     +4.465460E+00 +1.407840E+00 +3.380230E+00     +4.465460E+00 +1.407840E+00 +3.380230E+00     +4.465460E+00 +1.407840E+00 +3.380230E+00     +4.225140E+00 +1.382261E+00 +3.163409E+00     +4.225140E+00 +1.382261E+00 +3.163409E+00    
 +4.225140E+00 +1.382261E+00 +3.163409E+00     +4.225140E+00 +1.382261E+00 +3.163409E+00     +2.387970E+00 +2.171881E+00 +4.348490E+00     +6.023323E-01 +1.946630E+00 +2.772860E+00     +6.023323E-01 +1.946630E+00 +2.772860E+00     +6.023323E-01 +1.946630E+00 +2.772860E+00     +6.023323E-01 +1.946630E+00 +2.772860E+00     +6.023323E-01 +1.946630E+00 +2.772860E+00     +3.382630E+00 +2.983171E+00 +5.703999E+00     +3.382630E+00 +2.983171E+00 +5.703999E+00     +3.382630E+00 +2.983171E+00 +5.703999E+00     +3.382630E+00 +2.983171E+00 +5.703999E+00     +4.054313E-01 +1.877370E+00 +2.888710E+00     +4.054313E-01 +1.877370E+00 +2.888710E+00     +4.054313E-01 +1.877370E+00 +2.888710E+00     +4.465460E+00 +1.407840E+00 +3.380230E+00     +4.465460E+00 +1.407840E+00 +3.380230E+00     +4.465460E+00 +1.407840E+00 +3.380230E+00     +4.465460E+00 +1.407840E+00 +3.380230E+00     +4.225140E+00 +1.382261E+00 +3.163409E+00     +4.225140E+00 +1.382261E+00 +3.163409E+00    
 +4.225140E+00 +1.382261E+00 +3.163409E+00     +4.225140E+00 +1.382261E+00 +3.163409E+00     +2.061770E+00 +1.152230E+00 +5.173899E+00     +6.023323E-01 +1.946630E+00 +2.772860E+00     +6.023323E-01 +1.946630E+00 +2.772860E+00     +6.023323E-01 +1.946630E+00 +2.772860E+00     +6.023323E-01 +1.946630E+00 +2.772860E+00     +6.023323E-01 +1.946630E+00 +2.772860E+00     +3.382630E+00 +2.983171E+00 +5.703999E+00     +3.382630E+00 +2.983171E+00 +5.703999E+00     +3.382630E+00 +2.983171E+00 +5.703999E+00     +3.382630E+00 +2.983171E+00 +5.703999E+00     +3.382630E+00 +2.983171E+00 +5.703999E+00     +4.054313E-01 +1.877370E+00 +2.888710E+00     +4.054313E-01 +1.877370E+00 +2.888710E+00     +4.465460E+00 +1.407840E+00 +3.380230E+00     +4.465460E+00 +1.407840E+00 +3.380230E+00     +4.465460E+00 +1.407840E+00 +3.380230E+00     +4.465460E+00 +1.407840E+00 +3.380230E+00     +4.225140E+00 +1.382261E+00 +3.163409E+00     +4.225140E+00 +1.382261E+00 +3.163409E+00    
 +2.061770E+00 +1.152230E+00 +5.173899E+00     +2.061770E+00 +1.152230E+00 +5.173899E+00     +2.061770E+00 +1.152230E+00 +5.173899E+00     +6.023323E-01 +1.946630E+00 +2.772860E+00     +6.023323E-01 +1.946630E+00 +2.772860E+00     +6.023323E-01 +1.946630E+00 +2.772860E+00     +6.023323E-01 +1.946630E+00 +2.772860E+00     +5.400150E+00 +1.024931E+00 +1.593920E+00     +5.400150E+00 +1.024931E+00 +1.593920E+00     +3.382630E+00 +2.983171E+00 +5.703999E+00     +3.382630E+00 +2.983171E+00 +5.703999E+00     +3.382630E+00 +2.983171E+00 +5.703999E+00     +3.382630E+00 +2.983171E+00 +5.703999E+00     +3.382630E+00 +2.983171E+00 +5.703999E+00     +3.382630E+00 +2.983171E+00 +5.703999E+00     +5.858500E+00 +2.491110E+00 +6.200010E+00     +4.465460E+00 +1.407840E+00 +3.380230E+00     +4.284520E+00 +1.543060E+00 +3.243520E+00     +4.284520E+00 +1.543060E+00 +3.243520E+00     +4.284520E+00 +1.543060E+00 +3.243520E+00     +4.284520E+00 +1.543060E+00 +3.243520E+00    
 +3.158290E+00 +9.270875E-01 +4.146730E+00     +3.158290E+00 +9.270875E-01 +4.146730E+00     +2.061770E+00 +1.152230E+00 +5.173899E+00     +2.061770E+00 +1.152230E+00 +5.173899E+00     +6.023323E-01 +1.946630E+00 +2.772860E+00     +6.023323E-01 +1.946630E+00 +2.772860E+00     +5.400150E+00 +1.024931E+00 +1.593920E+00     +5.400150E+00 +1.024931E+00 +1.593920E+00     +5.400150E+00 +1.024931E+00 +1.593920E+00     +5.400150E+00 +1.024931E+00 +1.593920E+00     +3.382630E+00 +2.983171E+00 +5.703999E+00     +3.382630E+00 +2.983171E+00 +5.703999E+00     +3.382630E+00 +2.983171E+00 +5.703999E+00     +3.382630E+00 +2.983171E+00 +5.703999E+00     +1.257470E+00 +2.196211E+00 +1.616730E+00     +1.257470E+00 +2.196211E+00 +1.616730E+00     +4.284520E+00 +1.543060E+00 +3.243520E+00     +4.284520E+00 +1.543060E+00 +3.243520E+00     +4.284520E+00 +1.543060E+00 +3.243520E+00     +4.284520E+00 +1.543060E+00 +3.243520E+00     +4.284520E+00 +1.543060E+00 +3.243520E+00    
 +3.158290E+00 +9.270875E-01 +4.146730E+00     +3.158290E+00 +9.270875E-01 +4.146730E+00     +3.158290E+00 +9.270875E-01 +4.146730E+00     +2.287620E-01 +8.959333E-01 +4.001450E+00     +2.981560E+00 +3.227219E-01 +1.509530E+00     +2.981560E+00 +3.227219E-01 +1.509530E+00     +5.400150E+00 +1.024931E+00 +1.593920E+00     +5.400150E+00 +1.024931E+00 +1.593920E+00     +5.400150E+00 +1.024931E+00 +1.593920E+00     +5.400150E+00 +1.024931E+00 +1.593920E+00     +5.400150E+00 +1.024931E+00 +1.593920E+00     +3.382630E+00 +2.983171E+00 +5.703999E+00     +3.382630E+00 +2.983171E+00 +5.703999E+00     +3.382630E+00 +2.983171E+00 +5.703999E+00     +1.257470E+00 +2.196211E+00 +1.616730E+00     +1.257470E+00 +2.196211E+00 +1.616730E+00     +4.284520E+00 +1.543060E+00 +3.243520E+00     +4.284520E+00 +1.543060E+00 +3.243520E+00     +4.284520E+00 +1.543060E+00 +3.243520E+00     +4.284520E+00 +1.543060E+00 +3.243520E+00     +3.158290E+00 +9.270875E-01 +4.146730E+00    
 +3.158290E+00 +9.270875E-01 +4.146730E+00     +3.158290E+00 +9.270875E-01 +4.146730E+00     +3.158290E+00 +9.270875E-01 +4.146730E+00     +2.322279E+00 +1.183578E-01 +5.142279E+00     +2.287620E-01 +8.959333E-01 +4.001450E+00     +2.981560E+00 +3.227219E-01 +1.509530E+00     +5.400150E+00 +1.024931E+00 +1.593920E+00     +5.400150E+00 +1.024931E+00 +1.593920E+00     +5.400150E+00 +1.024931E+00 +1.593920E+00     +5.400150E+00 +1.024931E+00 +1.593920E+00     +5.400150E+00 +1.024931E+00 +1.593920E+00     +5.400150E+00 +1.024931E+00 +1.593920E+00     +3.382630E+00 +2.983171E+00 +5.703999E+00     +1.257470E+00 +2.196211E+00 +1.616730E+00     +1.257470E+00 +2.196211E+00 +1.616730E+00     +1.257470E+00 +2.196211E+00 +1.616730E+00     +4.284520E+00 +1.543060E+00 +3.243520E+00     +4.284520E+00 +1.543060E+00 +3.243520E+00     +3.158290E+00 +9.270875E-01 +4.146730E+00     +3.158290E+00 +9.270875E-01 +4.146730E+00     +3.158290E+00 +9.270875E-01 +4.146730E+00    
 +3.158290E+00 +9.270875E-01 +4.146730E+00     +7.546524E-01 +1.219079E+00 +3.888690E+00     +2.322279E+00 +1.183578E-01 +5.142279E+00     +2.322279E+00 +1.183578E-01 +5.142279E+00     +2.322279E+00 +1.183578E-01 +5.142279E+00     +4.602379E+00 +5.372560E-01 +2.793579E+00     +5.400150E+00 +1.024931E+00 +1.593920E+00     +5.400150E+00 +1.024931E+00 +1.593920E+00     +5.400150E+00 +1.024931E+00 +1.593920E+00     +5.400150E+00 +1.024931E+00 +1.593920E+00     +5.400150E+00 +1.024931E+00 +1.593920E+00     +5.400150E+00 +1.024931E+00 +1.593920E+00     +4.683410E+00 +1.912020E+00 +4.247760E+00     +4.683410E+00 +1.912020E+00 +4.247760E+00     +4.683410E+00 +1.912020E+00 +4.247760E+00     +1.257470E+00 +2.196211E+00 +1.616730E+00     +1.257470E+00 +2.196211E+00 +1.616730E+00     +1.965630E+00 +2.237580E+00 +1.848070E+00     +1.965630E+00 +2.237580E+00 +1.848070E+00     +3.158290E+00 +9.270875E-01 +4.146730E+00     +3.158290E+00 +9.270875E-01 +4.146730E+00    
 +7.546524E-01 +1.219079E+00 +3.888690E+00     +3.392670E+00 +2.230330E+00 +1.066941E+00     +7.546524E-01 +1.219079E+00 +3.888690E+00     +2.322279E+00 +1.183578E-01 +5.142279E+00     +4.602379E+00 +5.372560E-01 +2.793579E+00     +4.602379E+00 +5.372560E-01 +2.793579E+00     +4.602379E+00 +5.372560E-01 +2.793579E+00     +5.400150E+00 +1.024931E+00 +1.593920E+00     +5.400150E+00 +1.024931E+00 +1.593920E+00     +5.400150E+00 +1.024931E+00 +1.593920E+00     +1.603130E+00 +9.864147E-01 +5.636260E+00     +1.603130E+00 +9.864147E-01 +5.636260E+00     +4.683410E+00 +1.912020E+00 +4.247760E+00     +4.683410E+00 +1.912020E+00 +4.247760E+00     +4.683410E+00 +1.912020E+00 +4.247760E+00     +4.957660E-01 +1.701850E+00 +2.498352E-01     +1.965630E+00 +2.237580E+00 +1.848070E+00     +1.965630E+00 +2.237580E+00 +1.848070E+00     +1.965630E+00 +2.237580E+00 +1.848070E+00     +1.965630E+00 +2.237580E+00 +1.848070E+00     +1.965630E+00 +2.237580E+00 +1.848070E+00    
 +2.322279E+00 +1.183578E-01 +5.142279E+00     +7.546524E-01 +1.219079E+00 +3.888690E+00     +2.322279E+00 +1.183578E-01 +5.142279E+00     +2.322279E+00 +1.183578E-01 +5.142279E+00     +4.602379E+00 +5.372560E-01 +2.793579E+00     +4.602379E+00 +5.372560E-01 +2.793579E+00     +4.602379E+00 +5.372560E-01 +2.793579E+00     +4.602379E+00 +5.372560E-01 +2.793579E+00     +3.410539E+00 +9.633903E-01 +6.286885E-01     +3.410539E+00 +9.633903E-01 +6.286885E-01     +1.603130E+00 +9.864147E-01 +5.636260E+00     +1.603130E+00 +9.864147E-01 +5.636260E+00     +4.683410E+00 +1.912020E+00 +4.247760E+00     +4.683410E+00 +1.912020E+00 +4.247760E+00     +4.683410E+00 +1.912020E+00 +4.247760E+00     +4.957660E-01 +1.701850E+00 +2.498352E-01     +4.957660E-01 +1.701850E+00 +2.498352E-01     +1.965630E+00 +2.237580E+00 +1.848070E+00     +1.965630E+00 +2.237580E+00 +1.848070E+00     +1.965630E+00 +2.237580E+00 +1.848070E+00     +1.965630E+00 +2.237580E+00 +1.848070E+00    
 +2.322279E+00 +1.183578E-01 +5.142279E+00     +2.322279E+00 +1.183578E-01 +5.142279E+00     +2.322279E+00 +1.183578E-01 +5.142279E+00     +2.322279E+00 +1.183578E-01 +5.142279E+00     +4.602379E+00 +5.372560E-01 +2.793579E+00     +4.602379E+00 +5.372560E-01 +2.793579E+00     +4.299280E+00 +9.850045E-01 +2.890799E+00     +4.299280E+00 +9.850045E-01 +2.890799E+00     +3.410539E+00 +9.633903E-01 +6.286885E-01     +3.410539E+00 +9.633903E-01 +6.286885E-01     +3.410539E+00 +9.633903E-01 +6.286885E-01     +3.334225E-01 +1.138300E+00 +5.195147E-01     +3.334225E-01 +1.138300E+00 +5.195147E-01     +4.957660E-01 +1.701850E+00 +2.498352E-01     +4.957660E-01 +1.701850E+00 +2.498352E-01     +4.957660E-01 +1.701850E+00 +2.498352E-01     +4.957660E-01 +1.701850E+00 +2.498352E-01     +1.965630E+00 +2.237580E+00 +1.848070E+00     +1.965630E+00 +2.237580E+00 +1.848070E+00     +1.965630E+00 +2.237580E+00 +1.848070E+00     +1.965630E+00 +2.237580E+00 +1.848070E+00    
 +2.322279E+00 +1.183578E-01 +5.142279E+00     +5.138010E+00 +1.343350E+00 +1.951891E+00     +2.322279E+00 +1.183578E-01 +5.142279E+00     +4.602379E+00 +5.372560E-01 +2.793579E+00     +4.602379E+00 +5.372560E-01 +2.793579E+00     +4.299280E+00 +9.850045E-01 +2.890799E+00     +4.299280E+00 +9.850045E-01 +2.890799E+00     +4.299280E+00 +9.850045E-01 +2.890799E+00     +3.410539E+00 +9.633903E-01 +6.286885E-01     +3.410539E+00 +9.633903E-01 +6.286885E-01     +3.410539E+00 +9.633903E-01 +6.286885E-01     +3.410539E+00 +9.633903E-01 +6.286885E-01     +4.957660E-01 +1.701850E+00 +2.498352E-01     +4.957660E-01 +1.701850E+00 +2.498352E-01     +4.957660E-01 +1.701850E+00 +2.498352E-01     +4.957660E-01 +1.701850E+00 +2.498352E-01     +4.957660E-01 +1.701850E+00 +2.498352E-01     +3.297869E+00 +2.277210E+00 +1.561359E+00     +1.965630E+00 +2.237580E+00 +1.848070E+00     +1.965630E+00 +2.237580E+00 +1.848070E+00     +1.965630E+00 +2.237580E+00 +1.848070E+00    
 +5.138010E+00 +1.343350E+00 +1.951891E+00     +5.138010E+00 +1.343350E+00 +1.951891E+00     +5.138010E+00 +1.343350E+00 +1.951891E+00     +5.138010E+00 +1.343350E+00 +1.951891E+00     +4.881440E+00 +2.973851E+00 +5.034610E+00     +2.924950E+00 +3.077681E+00 +5.975121E+00     +4.299280E+00 +9.850045E-01 +2.890799E+00     +4.299280E+00 +9.850045E-01 +2.890799E+00     +3.410539E+00 +9.633903E-01 +6.286885E-01     +3.410539E+00 +9.633903E-01 +6.286885E-01     +3.410539E+00 +9.633903E-01 +6.286885E-01     +3.410539E+00 +9.633903E-01 +6.286885E-01     +4.957660E-01 +1.701850E+00 +2.498352E-01     +4.957660E-01 +1.701850E+00 +2.498352E-01     +4.957660E-01 +1.701850E+00 +2.498352E-01     +4.487301E+00 +1.771249E+00 +4.998571E+00     +3.297869E+00 +2.277210E+00 +1.561359E+00     +3.297869E+00 +2.277210E+00 +1.561359E+00     +3.297869E+00 +2.277210E+00 +1.561359E+00     +3.297869E+00 +2.277210E+00 +1.561359E+00     +5.138010E+00 +1.343350E+00 +1.951891E+00    
 +5.138010E+00 +1.343350E+00 +1.951891E+00     +5.138010E+00 +1.343350E+00 +1.951891E+00     +5.138010E+00 +1.343350E+00 +1.951891E+00     +5.138010E+00 +1.343350E+00 +1.951891E+00     +5.138010E+00 +1.343350E+00 +1.951891E+00     +4.299280E+00 +9.850045E-01 +2.890799E+00     +4.299280E+00 +9.850045E-01 +2.890799E+00     +4.299280E+00 +9.850045E-01 +2.890799E+00     +3.410539E+00 +9.633903E-01 +6.286885E-01     +3.410539E+00 +9.633903E-01 +6.286885E-01     +3.410539E+00 +9.633903E-01 +6.286885E-01     +3.410539E+00 +9.633903E-01 +6.286885E-01     +3.410539E+00 +9.633903E-01 +6.286885E-01     +4.487301E+00 +1.771249E+00 +4.998571E+00     +4.487301E+00 +1.771249E+00 +4.998571E+00     +4.487301E+00 +1.771249E+00 +4.998571E+00     +4.487301E+00 +1.771249E+00 +4.998571E+00     +4.487301E+00 +1.771249E+00 +4.998571E+00     +3.868631E+00 +2.330819E+00 +3.753090E+00     +5.138010E+00 +1.343350E+00 +1.951891E+00     +5.138010E+00 +1.343350E+00 +1.951891E+00    
 +5.138010E+00 +1.343350E+00 +1.951891E+00     +5.138010E+00 +1.343350E+00 +1.951891E+00     +5.138010E+00 +1.343350E+00 +1.951891E+00     +5.138010E+00 +1.343350E+00 +1.951891E+00     +5.138010E+00 +1.343350E+00 +1.951891E+00     +4.299280E+00 +9.850045E-01 +2.890799E+00     +4.299280E+00 +9.850045E-01 +2.890799E+00     +4.299280E+00 +9.850045E-01 +2.890799E+00     +3.410539E+00 +9.633903E-01 +6.286885E-01     +3.410539E+00 +9.633903E-01 +6.286885E-01     +3.410539E+00 +9.633903E-01 +6.286885E-01     +3.410539E+00 +9.633903E-01 +6.286885E-01     +3.410539E+00 +9.633903E-01 +6.286885E-01     +4.487301E+00 +1.771249E+00 +4.998571E+00     +4.487301E+00 +1.771249E+00 +4.998571E+00     +4.245705E-01 +9.192335E-01 +4.622510E+00     +4.487301E+00 +1.771249E+00 +4.998571E+00     +4.487301E+00 +1.771249E+00 +4.998571E+00     +4.487301E+00 +1.771249E+00 +4.998571E+00     +5.138010E+00 +1.343350E+00 +1.951891E+00     +5.138010E+00 +1.343350E+00 +1.951891E+00    
 +5.138010E+00 +1.343350E+00 +1.951891E+00     +5.138010E+00 +1.343350E+00 +1.951891E+00     +5.138010E+00 +1.343350E+00 +1.951891E+00     +5.138010E+00 +1.343350E+00 +1.951891E+00     +5.138010E+00 +1.343350E+00 +1.951891E+00     +1.585410E+00 +1.724919E+00 +3.745440E+00     +1.585410E+00 +1.724919E+00 +3.745440E+00     +1.585410E+00 +1.724919E+00 +3.745440E+00     +1.585410E+00 +1.724919E+00 +3.745440E+00     +1.585410E+00 +1.724919E+00 +3.745440E+00     +3.410539E+00 +9.633903E-01 +6.286885E-01     +3.410539E+00 +9.633903E-01 +6.286885E-01     +5.889300E+00 +8.985828E-01 +3.240590E+00     +5.889300E+00 +8.985828E-01 +3.240590E+00     +4.487301E+00 +1.771249E+00 +4.998571E+00     +4.487301E+00 +1.771249E+00 +4.998571E+00     +4.487301E+00 +1.771249E+00 +4.998571E+00     +2.075921E+00 +5.109731E-01 +4.872919E+00     +2.075921E+00 +5.109731E-01 +4.872919E+00     +2.075921E+00 +5.109731E-01 +4.872919E+00     +5.138010E+00 +1.343350E+00 +1.951891E+00    
 +5.138010E+00 +1.343350E+00 +1.951891E+00     +5.138010E+00 +1.343350E+00 +1.951891E+00     +5.138010E+00 +1.343350E+00 +1.951891E+00     +5.138010E+00 +1.343350E+00 +1.951891E+00     +1.585410E+00 +1.724919E+00 +3.745440E+00     +1.585410E+00 +1.724919E+00 +3.745440E+00     +1.585410E+00 +1.724919E+00 +3.745440E+00     +1.585410E+00 +1.724919E+00 +3.745440E+00     +1.585410E+00 +1.724919E+00 +3.745440E+00     +1.585410E+00 +1.724919E+00 +3.745440E+00     +1.585410E+00 +1.724919E+00 +3.745440E+00     +5.889300E+00 +8.985828E-01 +3.240590E+00     +5.889300E+00 +8.985828E-01 +3.240590E+00     +5.889300E+00 +8.985828E-01 +3.240590E+00     +3.210339E+00 +2.023261E+00 +5.578230E+00     +3.210339E+00 +2.023261E+00 +5.578230E+00     +2.075921E+00 +5.109731E-01 +4.872919E+00     +2.075921E+00 +5.109731E-01 +4.872919E+00     +2.075921E+00 +5.109731E-01 +4.872919E+00     +2.075921E+00 +5.109731E-01 +4.872919E+00     +5.138010E+00 +1.343350E+00 +1.951891E+00    
 +5.138010E+00 +1.343350E+00 +1.951891E+00     +5.138010E+00 +1.343350E+00 +1.951891E+00     +5.138010E+00 +1.343350E+00 +1.951891E+00     +5.138010E+00 +1.343350E+00 +1.951891E+00     +1.585410E+00 +1.724919E+00 +3.745440E+00     +1.585410E+00 +1.724919E+00 +3.745440E+00     +1.585410E+00 +1.724919E+00 +3.745440E+00     +1.585410E+00 +1.724919E+00 +3.745440E+00     +1.585410E+00 +1.724919E+00 +3.745440E+00     +1.585410E+00 +1.724919E+00 +3.745440E+00     +3.479920E+00 +1.666229E+00 +5.212799E+00     +3.479920E+00 +1.666229E+00 +5.212799E+00     +3.479920E+00 +1.666229E+00 +5.212799E+00     +5.889300E+00 +8.985828E-01 +3.240590E+00     +3.210339E+00 +2.023261E+00 +5.578230E+00     +3.210339E+00 +2.023261E+00 +5.578230E+00     +2.075921E+00 +5.109731E-01 +4.872919E+00     +2.075921E+00 +5.109731E-01 +4.872919E+00     +2.075921E+00 +5.109731E-01 +4.872919E+00     +2.075921E+00 +5.109731E-01 +4.872919E+00     +2.075921E+00 +5.109731E-01 +4.872919E+00    
 +4.225140E+00 +1.382261E+00 +3.163409E+00     +5.138010E+00 +1.343350E+00 +1.951891E+00     +2.387970E+00 +2.171881E+00 +4.348490E+00     +2.387970E+00 +2.171881E+00 +4.348490E+00     +3.045771E+00 +1.771399E+00 +5.542501E+00     +3.045771E+00 +1.771399E+00 +5.542501E+00     +4.112849E+00 +1.965209E+00 +3.785350E+00     +4.112849E+00 +1.965209E+00 +3.785350E+00     +4.112849E+00 +1.965209E+00 +3.785350E+00     +4.112849E+00 +1.965209E+00 +3.785350E+00     +3.479920E+00 +1.666229E+00 +5.212799E+00     +3.479920E+00 +1.666229E+00 +5.212799E+00     +3.479920E+00 +1.666229E+00 +5.212799E+00     +3.479920E+00 +1.666229E+00 +5.212799E+00     +3.479920E+00 +1.666229E+00 +5.212799E+00     +3.511650E+00 +8.393515E-01 +1.924440E+00     +6.061860E+00 +1.336090E+00 +1.274289E+00     +6.061860E+00 +1.336090E+00 +1.274289E+00     +6.061860E+00 +1.336090E+00 +1.274289E+00     +6.061860E+00 +1.336090E+00 +1.274289E+00     +4.225140E+00 +1.382261E+00 +3.163409E+00    
 +4.225140E+00 +1.382261E+00 +3.163409E+00     +4.225140E+00 +1.382261E+00 +3.163409E+00     +2.387970E+00 +2.171881E+00 +4.348490E+00     +2.387970E+00 +2.171881E+00 +4.348490E+00     +3.045771E+00 +1.771399E+00 +5.542501E+00     +3.045771E+00 +1.771399E+00 +5.542501E+00     +3.045771E+00 +1.771399E+00 +5.542501E+00     +4.112849E+00 +1.965209E+00 +3.785350E+00     +4.112849E+00 +1.965209E+00 +3.785350E+00     +3.479920E+00 +1.666229E+00 +5.212799E+00     +3.479920E+00 +1.666229E+00 +5.212799E+00     +3.479920E+00 +1.666229E+00 +5.212799E+00     +3.479920E+00 +1.666229E+00 +5.212799E+00     +3.479920E+00 +1.666229E+00 +5.212799E+00     +3.479920E+00 +1.666229E+00 +5.212799E+00     +6.061860E+00 +1.336090E+00 +1.274289E+00     +6.061860E+00 +1.336090E+00 +1.274289E+00     +6.061860E+00 +1.336090E+00 +1.274289E+00     +6.061860E+00 +1.336090E+00 +1.274289E+00     +6.061860E+00 +1.336090E+00 +1.274289E+00     +4.225140E+00 +1.382261E+00 +3.163409E+00    
 +4.225140E+00 +1.382261E+00 +3.163409E+00     +4.225140E+00 +1.382261E+00 +3.163409E+00     +2.387970E+00 +2.171881E+00 +4.348490E+00     +2.387970E+00 +2.171881E+00 +4.348490E+00     +3.045771E+00 +1.771399E+00 +5.542501E+00     +3.045771E+00 +1.771399E+00 +5.542501E+00     +3.045771E+00 +1.771399E+00 +5.542501E+00     +3.045771E+00 +1.771399E+00 +5.542501E+00     +3.045771E+00 +1.771399E+00 +5.542501E+00     +3.479920E+00 +1.666229E+00 +5.212799E+00     +3.479920E+00 +1.666229E+00 +5.212799E+00     +3.479920E+00 +1.666229E+00 +5.212799E+00     +3.479920E+00 +1.666229E+00 +5.212799E+00     +3.479920E+00 +1.666229E+00 +5.212799E+00     +3.479920E+00 +1.666229E+00 +5.212799E+00     +6.061860E+00 +1.336090E+00 +1.274289E+00     +6.061860E+00 +1.336090E+00 +1.274289E+00     +4.465460E+00 +1.407840E+00 +3.380230E+00     +6.061860E+00 +1.336090E+00 +1.274289E+00     +6.061860E+00 +1.336090E+00 +1.274289E+00     +4.225140E+00 +1.382261E+00 +3.163409E+00    
 +4.225140E+00 +1.382261E+00 +3.163409E+00     +4.225140E+00 +1.382261E+00 +3.163409E+00     +2.387970E+00 +2.171881E+00 +4.348490E+00     +2.387970E+00 +2.171881E+00 +4.348490E+00     +3.045771E+00 +1.771399E+00 +5.542501E+00     +3.045771E+00 +1.771399E+00 +5.542501E+00     +3.045771E+00 +1.771399E+00 +5.542501E+00     +3.045771E+00 +1.771399E+00 +5.542501E+00     +3.045771E+00 +1.771399E+00 +5.542501E+00     +3.382630E+00 +2.983171E+00 +5.703999E+00     +3.382630E+00 +2.983171E+00 +5.703999E+00     +4.631842E-01 +3.036829E+00 +2.060729E+00     +3.479920E+00 +1.666229E+00 +5.212799E+00     +3.479920E+00 +1.666229E+00 +5.212799E+00     +6.061860E+00 +1.336090E+00 +1.274289E+00     +6.061860E+00 +1.336090E+00 +1.274289E+00     +6.061860E+00 +1.336090E+00 +1.274289E+00     +6.061860E+00 +1.336090E+00 +1.274289E+00     +6.061860E+00 +1.336090E+00 +1.274289E+00     +6.061860E+00 +1.336090E+00 +1.274289E+00     +4.225140E+00 +1.382261E+00 +3.163409E+00    
 +4.225140E+00 +1.382261E+00 +3.163409E+00     +4.225140E+00 +1.382261E+00 +3.163409E+00     +2.387970E+00 +2.171881E+00 +4.348490E+00     +2.387970E+00 +2.171881E+00 +4.348490E+00     +3.045771E+00 +1.771399E+00 +5.542501E+00     +3.045771E+00 +1.771399E+00 +5.542501E+00     +3.045771E+00 +1.771399E+00 +5.542501E+00     +3.045771E+00 +1.771399E+00 +5.542501E+00     +3.382630E+00 +2.983171E+00 +5.703999E+00     +3.382630E+00 +2.983171E+00 +5.703999E+00     +3.382630E+00 +2.983171E+00 +5.703999E+00     +4.631842E-01 +3.036829E+00 +2.060729E+00     +3.382630E+00 +2.983171E+00 +5.703999E+00     +3.382630E+00 +2.983171E+00 +5.703999E+00     +6.061860E+00 +1.336090E+00 +1.274289E+00     +6.061860E+00 +1.336090E+00 +1.274289E+00     +6.061860E+00 +1.336090E+00 +1.274289E+00     +6.061860E+00 +1.336090E+00 +1.274289E+00     +6.061860E+00 +1.336090E+00 +1.274289E+00     +6.061860E+00 +1.336090E+00 +1.274289E+00     +4.225140E+00 +1.382261E+00 +3.163409E+00    
 +4.225140E+00 +1.382261E+00 +3.163409E+00     +4.225140E+00 +1.382261E+00 +3.163409E+00     +2.387970E+00 +2.171881E+00 +4.348490E+00     +6.023323E-01 +1.946630E+00 +2.772860E+00     +6.023323E-01 +1.946630E+00 +2.772860E+00     +6.023323E-01 +1.946630E+00 +2.772860E+00     +6.023323E-01 +1.946630E+00 +2.772860E+00     +3.382630E+00 +2.983171E+00 +5.703999E+00     +3.382630E+00 +2.983171E+00 +5.703999E+00     +3.382630E+00 +2.983171E+00 +5.703999E+00     +3.382630E+00 +2.983171E+00 +5.703999E+00     +3.382630E+00 +2.983171E+00 +5.703999E+00     +3.382630E+00 +2.983171E+00 +5.703999E+00     +3.382630E+00 +2.983171E+00 +5.703999E+00     +3.382630E+00 +2.983171E+00 +5.703999E+00     +6.061860E+00 +1.336090E+00 +1.274289E+00     +6.061860E+00 +1.336090E+00 +1.274289E+00     +6.061860E+00 +1.336090E+00 +1.274289E+00     +6.061860E+00 +1.336090E+00 +1.274289E+00     +6.061860E+00 +1.336090E+00 +1.274289E+00     +4.225140E+00 +1.382261E+00 +3.163409E+00    
 +3.158290E+00 +9.270875E-01 +4.146730E+00     +3.158290E+00 +9.270875E-01 +4.146730E+00     +5.938350E+00 +3.025460E+00 +1.453730E+00     +5.938350E+00 +3.025460E+00 +1.453730E+00     +2.287620E-01 +8.959333E-01 +4.001450E+00     +2.287620E-01 +8.959333E-01 +4.001450E+00     +1.242140E+00 +6.487214E-01 +2.650963E-01     +5.400150E+00 +1.024931E+00 +1.593920E+00     +5.400150E+00 +1.024931E+00 +1.593920E+00     +3.382630E+00 +2.983171E+00 +5.703999E+00     +3.382630E+00 +2.983171E+00 +5.703999E+00     +3.382630E+00 +2.983171E+00 +5.703999E+00     +3.382630E+00 +2.983171E+00 +5.703999E+00     +3.382630E+00 +2.983171E+00 +5.703999E+00     +1.257470E+00 +2.196211E+00 +1.616730E+00     +1.257470E+00 +2.196211E+00 +1.616730E+00     +6.061860E+00 +1.336090E+00 +1.274289E+00     +4.284520E+00 +1.543060E+00 +3.243520E+00     +4.284520E+00 +1.543060E+00 +3.243520E+00     +4.284520E+00 +1.543060E+00 +3.243520E+00     +4.284520E+00 +1.543060E+00 +3.243520E+00    
 +3.158290E+00 +9.270875E-01 +4.146730E+00     +3.158290E+00 +9.270875E-01 +4.146730E+00     +5.938350E+00 +3.025460E+00 +1.453730E+00     +2.287620E-01 +8.959333E-01 +4.001450E+00     +2.287620E-01 +8.959333E-01 +4.001450E+00     +1.242140E+00 +6.487214E-01 +2.650963E-01     +1.242140E+00 +6.487214E-01 +2.650963E-01     +5.400150E+00 +1.024931E+00 +1.593920E+00     +5.400150E+00 +1.024931E+00 +1.593920E+00     +5.400150E+00 +1.024931E+00 +1.593920E+00     +3.382630E+00 +2.983171E+00 +5.703999E+00     +3.382630E+00 +2.983171E+00 +5.703999E+00     +3.382630E+00 +2.983171E+00 +5.703999E+00     +3.382630E+00 +2.983171E+00 +5.703999E+00     +1.257470E+00 +2.196211E+00 +1.616730E+00     +1.257470E+00 +2.196211E+00 +1.616730E+00     +1.257470E+00 +2.196211E+00 +1.616730E+00     +4.284520E+00 +1.543060E+00 +3.243520E+00     +4.284520E+00 +1.543060E+00 +3.243520E+00     +4.284520E+00 +1.543060E+00 +3.243520E+00     +4.284520E+00 +1.543060E+00 +3.243520E+00    
 +3.158290E+00 +9.270875E-01 +4.146730E+00     +3.158290E+00 +9.270875E-01 +4.146730E+00     +2.322279E+00 +1.183578E-01 +5.142279E+00     +2.287620E-01 +8.959333E-01 +4.001450E+00     +2.981560E+00 +3.227219E-01 +1.509530E+00     +2.981560E+00 +3.227219E-01 +1.509530E+00     +1.242140E+00 +6.487214E-01 +2.650963E-01     +5.400150E+00 +1.024931E+00 +1.593920E+00     +5.400150E+00 +1.024931E+00 +1.593920E+00     +5.400150E+00 +1.024931E+00 +1.593920E+00     +5.400150E+00 +1.024931E+00 +1.593920E+00     +3.382630E+00 +2.983171E+00 +5.703999E+00     +3.382630E+00 +2.983171E+00 +5.703999E+00     +1.257470E+00 +2.196211E+00 +1.616730E+00     +1.257470E+00 +2.196211E+00 +1.616730E+00     +1.257470E+00 +2.196211E+00 +1.616730E+00     +1.257470E+00 +2.196211E+00 +1.616730E+00     +4.284520E+00 +1.543060E+00 +3.243520E+00     +4.284520E+00 +1.543060E+00 +3.243520E+00     +3.158290E+00 +9.270875E-01 +4.146730E+00     +3.158290E+00 +9.270875E-01 +4.146730E+00    
 +3.158290E+00 +9.270875E-01 +4.146730E+00     +2.322279E+00 +1.183578E-01 +5.142279E+00     +2.322279E+00 +1.183578E-01 +5.142279E+00     +2.322279E+00 +1.183578E-01 +5.142279E+00     +2.287620E-01 +8.959333E-01 +4.001450E+00     +2.981560E+00 +3.227219E-01 +1.509530E+00     +1.242140E+00 +6.487214E-01 +2.650963E-01     +5.400150E+00 +1.024931E+00 +1.593920E+00     +5.400150E+00 +1.024931E+00 +1.593920E+00     +5.400150E+00 +1.024931E+00 +1.593920E+00     +5.400150E+00 +1.024931E+00 +1.593920E+00     +5.400150E+00 +1.024931E+00 +1.593920E+00     +1.257470E+00 +2.196211E+00 +1.616730E+00     +1.257470E+00 +2.196211E+00 +1.616730E+00     +1.257470E+00 +2.196211E+00 +1.616730E+00     +1.257470E+00 +2.196211E+00 +1.616730E+00     +1.257470E+00 +2.196211E+00 +1.616730E+00     +4.284520E+00 +1.543060E+00 +3.243520E+00     +3.158290E+00 +9.270875E-01 +4.146730E+00     +3.158290E+00 +9.270875E-01 +4.146730E+00     +3.158290E+00 +9.270875E-01 +4.146730E+00    
 +2.322279E+00 +1.183578E-01 +5.142279E+00     +2.322279E+00 +1.183578E-01 +5.142279E+00     +2.322279E+00 +1.183578E-01 +5.142279E+00     +2.322279E+00 +1.183578E-01 +5.142279E+00     +2.322279E+00 +1.183578E-01 +5.142279E+00     +4.449281E+00 +3.704584E-01 +2.769490E+00     +1.242140E+00 +6.487214E-01 +2.650963E-01     +1.242140E+00 +6.487214E-01 +2.650963E-01     +5.400150E+00 +1.024931E+00 +1.593920E+00     +5.400150E+00 +1.024931E+00 +1.593920E+00     +5.400150E+00 +1.024931E+00 +1.593920E+00     +1.257470E+00 +2.196211E+00 +1.616730E+00     +1.257470E+00 +2.196211E+00 +1.616730E+00     +1.257470E+00 +2.196211E+00 +1.616730E+00     +1.257470E+00 +2.196211E+00 +1.616730E+00     +1.257470E+00 +2.196211E+00 +1.616730E+00     +1.965630E+00 +2.237580E+00 +1.848070E+00     +1.965630E+00 +2.237580E+00 +1.848070E+00     +1.965630E+00 +2.237580E+00 +1.848070E+00     +1.965630E+00 +2.237580E+00 +1.848070E+00     +1.965630E+00 +2.237580E+00 +1.848070E+00    
 +2.322279E+00 +1.183578E-01 +5.142279E+00     +2.322279E+00 +1.183578E-01 +5.142279E+00     +2.322279E+00 +1.183578E-01 +5.142279E+00     +2.322279E+00 +1.183578E-01 +5.142279E+00     +2.322279E+00 +1.183578E-01 +5.142279E+00     +4.449281E+00 +3.704584E-01 +2.769490E+00     +4.449281E+00 +3.704584E-01 +2.769490E+00     +5.804571E+00 +9.694606E-01 +1.866090E+00     +5.804571E+00 +9.694606E-01 +1.866090E+00     +5.400150E+00 +1.024931E+00 +1.593920E+00     +5.400150E+00 +1.024931E+00 +1.593920E+00     +1.257470E+00 +2.196211E+00 +1.616730E+00     +4.683410E+00 +1.912020E+00 +4.247760E+00     +4.683410E+00 +1.912020E+00 +4.247760E+00     +4.683410E+00 +1.912020E+00 +4.247760E+00     +1.257470E+00 +2.196211E+00 +1.616730E+00     +1.965630E+00 +2.237580E+00 +1.848070E+00     +1.965630E+00 +2.237580E+00 +1.848070E+00     +1.965630E+00 +2.237580E+00 +1.848070E+00     +1.965630E+00 +2.237580E+00 +1.848070E+00     +1.965630E+00 +2.237580E+00 +1.848070E+00    
 +2.322279E+00 +1.183578E-01 +5.142279E+00     +2.322279E+00 +1.183578E-01 +5.142279E+00     +2.322279E+00 +1.183578E-01 +5.142279E+00     +2.322279E+00 +1.183578E-01 +5.142279E+00     +2.322279E+00 +1.183578E-01 +5.142279E+00     +4.449281E+00 +3.704584E-01 +2.769490E+00     +4.299280E+00 +9.850045E-01 +2.890799E+00     +4.299280E+00 +9.850045E-01 +2.890799E+00     +4.299280E+00 +9.850045E-01 +2.890799E+00     +4.299280E+00 +9.850045E-01 +2.890799E+00     +3.410539E+00 +9.633903E-01 +6.286885E-01     +4.683410E+00 +1.912020E+00 +4.247760E+00     +4.683410E+00 +1.912020E+00 +4.247760E+00     +4.683410E+00 +1.912020E+00 +4.247760E+00     +4.683410E+00 +1.912020E+00 +4.247760E+00     +4.957660E-01 +1.701850E+00 +2.498352E-01     +1.965630E+00 +2.237580E+00 +1.848070E+00     +1.965630E+00 +2.237580E+00 +1.848070E+00     +1.965630E+00 +2.237580E+00 +1.848070E+00     +1.965630E+00 +2.237580E+00 +1.848070E+00     +1.965630E+00 +2.237580E+00 +1.848070E+00    
 +2.322279E+00 +1.183578E-01 +5.142279E+00     +2.322279E+00 +1.183578E-01 +5.142279E+00     +2.322279E+00 +1.183578E-01 +5.142279E+00     +2.322279E+00 +1.183578E-01 +5.142279E+00     +4.881440E+00 +2.973851E+00 +5.034610E+00     +4.299280E+00 +9.850045E-01 +2.890799E+00     +4.299280E+00 +9.850045E-01 +2.890799E+00     +4.299280E+00 +9.850045E-01 +2.890799E+00     +4.299280E+00 +9.850045E-01 +2.890799E+00     +3.410539E+00 +9.633903E-01 +6.286885E-01     +3.410539E+00 +9.633903E-01 +6.286885E-01     +3.410539E+00 +9.633903E-01 +6.286885E-01     +3.334225E-01 +1.138300E+00 +5.195147E-01     +2.105790E+00 +6.473322E-01 +5.527269E+00     +2.105790E+00 +6.473322E-01 +5.527269E+00     +4.957660E-01 +1.701850E+00 +2.498352E-01     +1.965630E+00 +2.237580E+00 +1.848070E+00     +1.965630E+00 +2.237580E+00 +1.848070E+00     +1.965630E+00 +2.237580E+00 +1.848070E+00     +2.593263E-01 +1.744610E+00 +1.877301E+00     +1.965630E+00 +2.237580E+00 +1.848070E+00    
 +2.322279E+00 +1.183578E-01 +5.142279E+00     +2.322279E+00 +1.183578E-01 +5.142279E+00     +2.322279E+00 +1.183578E-01 +5.142279E+00     +4.881440E+00 +2.973851E+00 +5.034610E+00     +4.881440E+00 +2.973851E+00 +5.034610E+00     +4.881440E+00 +2.973851E+00 +5.034610E+00     +4.299280E+00 +9.850045E-01 +2.890799E+00     +4.299280E+00 +9.850045E-01 +2.890799E+00     +4.299280E+00 +9.850045E-01 +2.890799E+00     +3.410539E+00 +9.633903E-01 +6.286885E-01     +3.410539E+00 +9.633903E-01 +6.286885E-01     +3.410539E+00 +9.633903E-01 +6.286885E-01     +2.105790E+00 +6.473322E-01 +5.527269E+00     +2.105790E+00 +6.473322E-01 +5.527269E+00     +2.105790E+00 +6.473322E-01 +5.527269E+00     +2.105790E+00 +6.473322E-01 +5.527269E+00     +2.105790E+00 +6.473322E-01 +5.527269E+00     +1.965630E+00 +2.237580E+00 +1.848070E+00     +2.593263E-01 +1.744610E+00 +1.877301E+00     +2.593263E-01 +1.744610E+00 +1.877301E+00     +2.593263E-01 +1.744610E+00 +1.877301E+00    
 +5.138010E+00 +1.343350E+00 +1.951891E+00     +5.138010E+00 +1.343350E+00 +1.951891E+00     +5.138010E+00 +1.343350E+00 +1.951891E+00     +4.881440E+00 +2.973851E+00 +5.034610E+00     +4.881440E+00 +2.973851E+00 +5.034610E+00     +4.881440E+00 +2.973851E+00 +5.034610E+00     +4.299280E+00 +9.850045E-01 +2.890799E+00     +4.299280E+00 +9.850045E-01 +2.890799E+00     +4.299280E+00 +9.850045E-01 +2.890799E+00     +3.410539E+00 +9.633903E-01 +6.286885E-01     +3.410539E+00 +9.633903E-01 +6.286885E-01     +3.410539E+00 +9.633903E-01 +6.286885E-01     +2.105790E+00 +6.473322E-01 +5.527269E+00     +2.105790E+00 +6.473322E-01 +5.527269E+00     +2.105790E+00 +6.473322E-01 +5.527269E+00     +2.105790E+00 +6.473322E-01 +5.527269E+00     +3.297869E+00 +2.277210E+00 +1.561359E+00     +3.297869E+00 +2.277210E+00 +1.561359E+00     +3.297869E+00 +2.277210E+00 +1.561359E+00     +2.593263E-01 +1.744610E+00 +1.877301E+00     +2.593263E-01 +1.744610E+00 +1.877301E+00    
 +5.138010E+00 +1.343350E+00 +1.951891E+00     +5.138010E+00 +1.343350E+00 +1.951891E+00     +5.138010E+00 +1.343350E+00 +1.951891E+00     +4.881440E+00 +2.973851E+00 +5.034610E+00     +4.881440E+00 +2.973851E+00 +5.034610E+00     +4.881440E+00 +2.973851E+00 +5.034610E+00     +4.299280E+00 +9.850045E-01 +2.890799E+00     +4.299280E+00 +9.850045E-01 +2.890799E+00     +4.299280E+00 +9.850045E-01 +2.890799E+00     +3.410539E+00 +9.633903E-01 +6.286885E-01     +3.410539E+00 +9.633903E-01 +6.286885E-01     +3.410539E+00 +9.633903E-01 +6.286885E-01     +2.105790E+00 +6.473322E-01 +5.527269E+00     +2.105790E+00 +6.473322E-01 +5.527269E+00     +2.105790E+00 +6.473322E-01 +5.527269E+00     +4.487301E+00 +1.771249E+00 +4.998571E+00     +4.487301E+00 +1.771249E+00 +4.998571E+00     +4.487301E+00 +1.771249E+00 +4.998571E+00     +3.868631E+00 +2.330819E+00 +3.753090E+00     +2.177860E+00 +9.589939E-01 +4.821070E+00     +2.177860E+00 +9.589939E-01 +4.821070E+00    
 +5.138010E+00 +1.343350E+00 +1.951891E+00     +5.138010E+00 +1.343350E+00 +1.951891E+00     +5.138010E+00 +1.343350E+00 +1.951891E+00     +5.138010E+00 +1.343350E+00 +1.951891E+00     +4.881440E+00 +2.973851E+00 +5.034610E+00     +4.299280E+00 +9.850045E-01 +2.890799E+00     +4.299280E+00 +9.850045E-01 +2.890799E+00     +4.299280E+00 +9.850045E-01 +2.890799E+00     +4.299280E+00 +9.850045E-01 +2.890799E+00     +3.410539E+00 +9.633903E-01 +6.286885E-01     +3.410539E+00 +9.633903E-01 +6.286885E-01     +3.410539E+00 +9.633903E-01 +6.286885E-01     +2.105790E+00 +6.473322E-01 +5.527269E+00     +2.105790E+00 +6.473322E-01 +5.527269E+00     +4.487301E+00 +1.771249E+00 +4.998571E+00     +4.487301E+00 +1.771249E+00 +4.998571E+00     +4.487301E+00 +1.771249E+00 +4.998571E+00     +4.487301E+00 +1.771249E+00 +4.998571E+00     +4.487301E+00 +1.771249E+00 +4.998571E+00     +2.177860E+00 +9.589939E-01 +4.821070E+00     +2.177860E+00 +9.589939E-01 +4.821070E+00    
 +3.436520E+00 +1.891780E+00 +5.593100E+00     +3.436520E+00 +1.891780E+00 +5.593100E+00     +3.436520E+00 +1.891780E+00 +5.593100E+00     +5.138010E+00 +1.343350E+00 +1.951891E+00     +5.138010E+00 +1.343350E+00 +1.951891E+00     +4.299280E+00 +9.850045E-01 +2.890799E+00     +1.585410E+00 +1.724919E+00 +3.745440E+00     +1.585410E+00 +1.724919E+00 +3.745440E+00     +1.585410E+00 +1.724919E+00 +3.745440E+00     +3.410539E+00 +9.633903E-01 +6.286885E-01     +3.410539E+00 +9.633903E-01 +6.286885E-01     +3.410539E+00 +9.633903E-01 +6.286885E-01     +6.194441E+00 +4.528937E-01 +4.405160E+00     +6.194441E+00 +4.528937E-01 +4.405160E+00     +4.487301E+00 +1.771249E+00 +4.998571E+00     +4.487301E+00 +1.771249E+00 +4.998571E+00     +4.487301E+00 +1.771249E+00 +4.998571E+00     +2.075921E+00 +5.109731E-01 +4.872919E+00     +2.075921E+00 +5.109731E-01 +4.872919E+00     +2.075921E+00 +5.109731E-01 +4.872919E+00     +5.138010E+00 +1.343350E+00 +1.951891E+00    
 +3.436520E+00 +1.891780E+00 +5.593100E+00     +3.436520E+00 +1.891780E+00 +5.593100E+00     +3.436520E+00 +1.891780E+00 +5.593100E+00     +3.436520E+00 +1.891780E+00 +5.593100E+00     +1.585410E+00 +1.724919E+00 +3.745440E+00     +1.585410E+00 +1.724919E+00 +3.745440E+00     +1.585410E+00 +1.724919E+00 +3.745440E+00     +1.585410E+00 +1.724919E+00 +3.745440E+00     +1.585410E+00 +1.724919E+00 +3.745440E+00     +1.585410E+00 +1.724919E+00 +3.745440E+00     +3.479920E+00 +1.666229E+00 +5.212799E+00     +6.194441E+00 +4.528937E-01 +4.405160E+00     +6.194441E+00 +4.528937E-01 +4.405160E+00     +6.194441E+00 +4.528937E-01 +4.405160E+00     +3.210339E+00 +2.023261E+00 +5.578230E+00     +3.210339E+00 +2.023261E+00 +5.578230E+00     +2.075921E+00 +5.109731E-01 +4.872919E+00     +2.075921E+00 +5.109731E-01 +4.872919E+00     +2.075921E+00 +5.109731E-01 +4.872919E+00     +2.075921E+00 +5.109731E-01 +4.872919E+00     +2.075921E+00 +5.109731E-01 +4.872919E+00    
 +3.436520E+00 +1.891780E+00 +5.593100E+00     +3.436520E+00 +1.891780E+00 +5.593100E+00     +3.436520E+00 +1.891780E+00 +5.593100E+00     +3.436520E+00 +1.891780E+00 +5.593100E+00     +1.585410E+00 +1.724919E+00 +3.745440E+00     +1.585410E+00 +1.724919E+00 +3.745440E+00     +1.585410E+00 +1.724919E+00 +3.745440E+00     +1.585410E+00 +1.724919E+00 +3.745440E+00     +1.585410E+00 +1.724919E+00 +3.745440E+00     +1.585410E+00 +1.724919E+00 +3.745440E+00     +3.479920E+00 +1.666229E+00 +5.212799E+00     +3.479920E+00 +1.666229E+00 +5.212799E+00     +3.479920E+00 +1.666229E+00 +5.212799E+00     +3.479920E+00 +1.666229E+00 +5.212799E+00     +1.447506E-01 +7.757657E-01 +9.525362E-01     +3.210339E+00 +2.023261E+00 +5.578230E+00     +2.075921E+00 +5.109731E-01 +4.872919E+00     +2.075921E+00 +5.109731E-01 +4.872919E+00     +2.075921E+00 +5.109731E-01 +4.872919E+00     +2.075921E+00 +5.109731E-01 +4.872919E+00     +2.075921E+00 +5.109731E-01 +4.872919E+00    
 +5.835107E-01 +6.701733E-01 +2.399269E-01     +5.835107E-01 +6.701733E-01 +2.399269E-01     +3.436520E+00 +1.891780E+00 +5.593100E+00     +2.387970E+00 +2.171881E+00 +4.348490E+00     +3.045771E+00 +1.771399E+00 +5.542501E+00     +3.045771E+00 +1.771399E+00 +5.542501E+00     +4.112849E+00 +1.965209E+00 +3.785350E+00     +4.112849E+00 +1.965209E+00 +3.785350E+00     +4.112849E+00 +1.965209E+00 +3.785350E+00     +3.479920E+00 +1.666229E+00 +5.212799E+00     +3.479920E+00 +1.666229E+00 +5.212799E+00     +3.479920E+00 +1.666229E+00 +5.212799E+00     +3.479920E+00 +1.666229E+00 +5.212799E+00     +3.479920E+00 +1.666229E+00 +5.212799E+00     +3.479920E+00 +1.666229E+00 +5.212799E+00     +3.511650E+00 +8.393515E-01 +1.924440E+00     +4.465460E+00 +1.407840E+00 +3.380230E+00     +4.465460E+00 +1.407840E+00 +3.380230E+00     +4.465460E+00 +1.407840E+00 +3.380230E+00     +4.465460E+00 +1.407840E+00 +3.380230E+00     +4.465460E+00 +1.407840E+00 +3.380230E+00    
 +4.225140E+00 +1.382261E+00 +3.163409E+00     +4.225140E+00 +1.382261E+00 +3.163409E+00     +2.387970E+00 +2.171881E+00 +4.348490E+00     +2.387970E+00 +2.171881E+00 +4.348490E+00     +3.045771E+00 +1.771399E+00 +5.542501E+00     +3.045771E+00 +1.771399E+00 +5.542501E+00     +3.045771E+00 +1.771399E+00 +5.542501E+00     +4.112849E+00 +1.965209E+00 +3.785350E+00     +4.112849E+00 +1.965209E+00 +3.785350E+00     +3.479920E+00 +1.666229E+00 +5.212799E+00     +3.479920E+00 +1.666229E+00 +5.212799E+00     +3.479920E+00 +1.666229E+00 +5.212799E+00     +3.479920E+00 +1.666229E+00 +5.212799E+00     +3.479920E+00 +1.666229E+00 +5.212799E+00     +3.479920E+00 +1.666229E+00 +5.212799E+00     +4.465460E+00 +1.407840E+00 +3.380230E+00     +4.465460E+00 +1.407840E+00 +3.380230E+00     +4.465460E+00 +1.407840E+00 +3.380230E+00     +4.465460E+00 +1.407840E+00 +3.380230E+00     +4.465460E+00 +1.407840E+00 +3.380230E+00     +4.465460E+00 +1.407840E+00 +3.380230E+00    
 +4.225140E+00 +1.382261E+00 +3.163409E+00     +4.225140E+00 +1.382261E+00 +3.163409E+00     +2.387970E+00 +2.171881E+00 +4.348490E+00     +2.387970E+00 +2.171881E+00 +4.348490E+00     +3.045771E+00 +1.771399E+00 +5.542501E+00     +3.045771E+00 +1.771399E+00 +5.542501E+00     +3.045771E+00 +1.771399E+00 +5.542501E+00     +3.045771E+00 +1.771399E+00 +5.542501E+00     +3.045771E+00 +1.771399E+00 +5.542501E+00     +3.479920E+00 +1.666229E+00 +5.212799E+00     +3.479920E+00 +1.666229E+00 +5.212799E+00     +3.479920E+00 +1.666229E+00 +5.212799E+00     +3.479920E+00 +1.666229E+00 +5.212799E+00     +3.479920E+00 +1.666229E+00 +5.212799E+00     +3.479920E+00 +1.666229E+00 +5.212799E+00     +6.061860E+00 +1.336090E+00 +1.274289E+00     +6.061860E+00 +1.336090E+00 +1.274289E+00     +4.465460E+00 +1.407840E+00 +3.380230E+00     +4.465460E+00 +1.407840E+00 +3.380230E+00     +4.465460E+00 +1.407840E+00 +3.380230E+00     +4.465460E+00 +1.407840E+00 +3.380230E+00    
 +4.225140E+00 +1.382261E+00 +3.163409E+00     +4.225140E+00 +1.382261E+00 +3.163409E+00     +2.387970E+00 +2.171881E+00 +4.348490E+00     +2.387970E+00 +2.171881E+00 +4.348490E+00     +3.045771E+00 +1.771399E+00 +5.542501E+00     +3.045771E+00 +1.771399E+00 +5.542501E+00     +3.045771E+00 +1.771399E+00 +5.542501E+00     +7.809755E-01 +1.321310E+00 +6.078340E+00     +7.809755E-01 +1.321310E+00 +6.078340E+00     +5.354831E+00 +7.510396E-01 +2.302220E+00     +5.354831E+00 +7.510396E-01 +2.302220E+00     +5.354831E+00 +7.510396E-01 +2.302220E+00     +5.354831E+00 +7.510396E-01 +2.302220E+00     +3.479920E+00 +1.666229E+00 +5.212799E+00     +6.061860E+00 +1.336090E+00 +1.274289E+00     +6.061860E+00 +1.336090E+00 +1.274289E+00     +6.061860E+00 +1.336090E+00 +1.274289E+00     +6.061860E+00 +1.336090E+00 +1.274289E+00     +6.061860E+00 +1.336090E+00 +1.274289E+00     +4.465460E+00 +1.407840E+00 +3.380230E+00     +4.465460E+00 +1.407840E+00 +3.380230E+00    
 +4.225140E+00 +1.382261E+00 +3.163409E+00     +3.215650E+00 +1.546719E+00 +1.366820E+00     +3.215650E+00 +1.546719E+00 +1.366820E+00     +3.215650E+00 +1.546719E+00 +1.366820E+00     +3.045771E+00 +1.771399E+00 +5.542501E+00     +3.045771E+00 +1.771399E+00 +5.542501E+00     +7.809755E-01 +1.321310E+00 +6.078340E+00     +7.809755E-01 +1.321310E+00 +6.078340E+00     +7.809755E-01 +1.321310E+00 +6.078340E+00     +3.382630E+00 +2.983171E+00 +5.703999E+00     +5.354831E+00 +7.510396E-01 +2.302220E+00     +5.354831E+00 +7.510396E-01 +2.302220E+00     +5.354831E+00 +7.510396E-01 +2.302220E+00     +3.382630E+00 +2.983171E+00 +5.703999E+00     +6.061860E+00 +1.336090E+00 +1.274289E+00     +6.061860E+00 +1.336090E+00 +1.274289E+00     +6.061860E+00 +1.336090E+00 +1.274289E+00     +6.061860E+00 +1.336090E+00 +1.274289E+00     +6.061860E+00 +1.336090E+00 +1.274289E+00     +6.061860E+00 +1.336090E+00 +1.274289E+00     +4.225140E+00 +1.382261E+00 +3.163409E+00    
 +4.225140E+00 +1.382261E+00 +3.163409E+00     +5.938350E+00 +3.025460E+00 +1.453730E+00     +5.938350E+00 +3.025460E+00 +1.453730E+00     +5.938350E+00 +3.025460E+00 +1.453730E+00     +2.287620E-01 +8.959333E-01 +4.001450E+00     +2.287620E-01 +8.959333E-01 +4.001450E+00     +7.809755E-01 +1.321310E+00 +6.078340E+00     +7.809755E-01 +1.321310E+00 +6.078340E+00     +3.382630E+00 +2.983171E+00 +5.703999E+00     +3.382630E+00 +2.983171E+00 +5.703999E+00     +3.382630E+00 +2.983171E+00 +5.703999E+00     +3.382630E+00 +2.983171E+00 +5.703999E+00     +3.382630E+00 +2.983171E+00 +5.703999E+00     +3.382630E+00 +2.983171E+00 +5.703999E+00     +1.257470E+00 +2.196211E+00 +1.616730E+00     +6.061860E+00 +1.336090E+00 +1.274289E+00     +6.061860E+00 +1.336090E+00 +1.274289E+00     +6.061860E+00 +1.336090E+00 +1.274289E+00     +6.061860E+00 +1.336090E+00 +1.274289E+00     +6.061860E+00 +1.336090E+00 +1.274289E+00     +4.225140E+00 +1.382261E+00 +3.163409E+00    
 +5.938350E+00 +3.025460E+00 +1.453730E+00     +5.938350E+00 +3.025460E+00 +1.453730E+00     +5.938350E+00 +3.025460E+00 +1.453730E+00     +5.938350E+00 +3.025460E+00 +1.453730E+00     +2.287620E-01 +8.959333E-01 +4.001450E+00     +2.287620E-01 +8.959333E-01 +4.001450E+00     +1.242140E+00 +6.487214E-01 +2.650963E-01     +1.242140E+00 +6.487214E-01 +2.650963E-01     +5.400150E+00 +1.024931E+00 +1.593920E+00     +3.382630E+00 +2.983171E+00 +5.703999E+00     +3.382630E+00 +2.983171E+00 +5.703999E+00     +3.382630E+00 +2.983171E+00 +5.703999E+00     +3.382630E+00 +2.983171E+00 +5.703999E+00     +1.257470E+00 +2.196211E+00 +1.616730E+00     +1.257470E+00 +2.196211E+00 +1.616730E+00     +1.257470E+00 +2.196211E+00 +1.616730E+00     +1.257470E+00 +2.196211E+00 +1.616730E+00     +4.284520E+00 +1.543060E+00 +3.243520E+00     +4.284520E+00 +1.543060E+00 +3.243520E+00     +4.284520E+00 +1.543060E+00 +3.243520E+00     +4.284520E+00 +1.543060E+00 +3.243520E+00    
 +2.322279E+00 +1.183578E-01 +5.142279E+00     +2.322279E+00 +1.183578E-01 +5.142279E+00     +5.938350E+00 +3.025460E+00 +1.453730E+00     +2.287620E-01 +8.959333E-01 +4.001450E+00     +2.287620E-01 +8.959333E-01 +4.001450E+00     +2.287620E-01 +8.959333E-01 +4.001450E+00     +1.242140E+00 +6.487214E-01 +2.650963E-01     +1.242140E+00 +6.487214E-01 +2.650963E-01     +5.400150E+00 +1.024931E+00 +1.593920E+00     +5.400150E+00 +1.024931E+00 +1.593920E+00     +3.382630E+00 +2.983171E+00 +5.703999E+00     +3.382630E+00 +2.983171E+00 +5.703999E+00     +3.382630E+00 +2.983171E+00 +5.703999E+00     +1.257470E+00 +2.196211E+00 +1.616730E+00     +1.257470E+00 +2.196211E+00 +1.616730E+00     +1.257470E+00 +2.196211E+00 +1.616730E+00     +1.257470E+00 +2.196211E+00 +1.616730E+00     +4.284520E+00 +1.543060E+00 +3.243520E+00     +4.284520E+00 +1.543060E+00 +3.243520E+00     +4.284520E+00 +1.543060E+00 +3.243520E+00     +4.284520E+00 +1.543060E+00 +3.243520E+00    
 +2.322279E+00 +1.183578E-01 +5.142279E+00     +2.322279E+00 +1.183578E-01 +5.142279E+00     +2.322279E+00 +1.183578E-01 +5.142279E+00     +2.287620E-01 +8.959333E-01 +4.001450E+00     +2.287620E-01 +8.959333E-01 +4.001450E+00     +2.287620E-01 +8.959333E-01 +4.001450E+00     +1.242140E+00 +6.487214E-01 +2.650963E-01     +1.242140E+00 +6.487214E-01 +2.650963E-01     +5.400150E+00 +1.024931E+00 +1.593920E+00     +5.400150E+00 +1.024931E+00 +1.593920E+00     +5.400150E+00 +1.024931E+00 +1.593920E+00     +3.382630E+00 +2.983171E+00 +5.703999E+00     +1.257470E+00 +2.196211E+00 +1.616730E+00     +1.257470E+00 +2.196211E+00 +1.616730E+00     +1.257470E+00 +2.196211E+00 +1.616730E+00     +1.257470E+00 +2.196211E+00 +1.616730E+00     +1.257470E+00 +2.196211E+00 +1.616730E+00     +4.284520E+00 +1.543060E+00 +3.243520E+00     +4.284520E+00 +1.543060E+00 +3.243520E+00     +3.158290E+00 +9.270875E-01 +4.146730E+00     +3.158290E+00 +9.270875E-01 +4.146730E+00    
 +2.322279E+00 +1.183578E-01 +5.142279E+00     +2.322279E+00 +1.183578E-01 +5.142279E+00     +2.322279E+00 +1.183578E-01 +5.142279E+00     +2.322279E+00 +1.183578E-01 +5.142279E+00     +2.287620E-01 +8.959333E-01 +4.001450E+00     +2.287620E-01 +8.959333E-01 +4.001450E+00     +1.242140E+00 +6.487214E-01 +2.650963E-01     +1.242140E+00 +6.487214E-01 +2.650963E-01     +5.400150E+00 +1.024931E+00 +1.593920E+00     +5.400150E+00 +1.024931E+00 +1.593920E+00     +5.400150E+00 +1.024931E+00 +1.593920E+00     +1.257470E+00 +2.196211E+00 +1.616730E+00     +1.257470E+00 +2.196211E+00 +1.616730E+00     +1.257470E+00 +2.196211E+00 +1.616730E+00     +1.257470E+00 +2.196211E+00 +1.616730E+00     +1.257470E+00 +2.196211E+00 +1.616730E+00     +1.257470E+00 +2.196211E+00 +1.616730E+00     +1.965630E+00 +2.237580E+00 +1.848070E+00     +1.965630E+00 +2.237580E+00 +1.848070E+00     +3.158290E+00 +9.270875E-01 +4.146730E+00     +3.158290E+00 +9.270875E-01 +4.146730E+00    
 +2.322279E+00 +1.183578E-01 +5.142279E+00     +2.322279E+00 +1.183578E-01 +5.142279E+00     +2.322279E+00 +1.183578E-01 +5.142279E+00     +2.322279E+00 +1.183578E-01 +5.142279E+00     +2.322279E+00 +1.183578E-01 +5.142279E+00     +4.449281E+00 +3.704584E-01 +2.769490E+00     +1.242140E+00 +6.487214E-01 +2.650963E-01     +5.804571E+00 +9.694606E-01 +1.866090E+00     +1.242140E+00 +6.487214E-01 +2.650963E-01     +5.400150E+00 +1.024931E+00 +1.593920E+00     +5.400150E+00 +1.024931E+00 +1.593920E+00     +1.257470E+00 +2.196211E+00 +1.616730E+00     +1.257470E+00 +2.196211E+00 +1.616730E+00     +1.257470E+00 +2.196211E+00 +1.616730E+00     +1.257470E+00 +2.196211E+00 +1.616730E+00     +1.257470E+00 +2.196211E+00 +1.616730E+00     +1.965630E+00 +2.237580E+00 +1.848070E+00     +1.965630E+00 +2.237580E+00 +1.848070E+00     +1.965630E+00 +2.237580E+00 +1.848070E+00     +1.965630E+00 +2.237580E+00 +1.848070E+00     +1.965630E+00 +2.237580E+00 +1.848070E+00    
 +2.322279E+00 +1.183578E-01 +5.142279E+00     +2.322279E+00 +1.183578E-01 +5.142279E+00     +2.322279E+00 +1.183578E-01 +5.142279E+00     +2.322279E+00 +1.183578E-01 +5.142279E+00     +4.449281E+00 +3.704584E-01 +2.769490E+00     +4.449281E+00 +3.704584E-01 +2.769490E+00     +5.804571E+00 +9.694606E-01 +1.866090E+00     +5.804571E+00 +9.694606E-01 +1.866090E+00     +5.804571E+00 +9.694606E-01 +1.866090E+00     +5.400150E+00 +1.024931E+00 +1.593920E+00     +5.400150E+00 +1.024931E+00 +1.593920E+00     +1.257470E+00 +2.196211E+00 +1.616730E+00     +1.257470E+00 +2.196211E+00 +1.616730E+00     +1.257470E+00 +2.196211E+00 +1.616730E+00     +1.257470E+00 +2.196211E+00 +1.616730E+00     +1.257470E+00 +2.196211E+00 +1.616730E+00     +1.965630E+00 +2.237580E+00 +1.848070E+00     +1.965630E+00 +2.237580E+00 +1.848070E+00     +1.965630E+00 +2.237580E+00 +1.848070E+00     +5.831260E+00 +1.723621E+00 +3.931590E+00     +1.965630E+00 +2.237580E+00 +1.848070E+00    
 +2.322279E+00 +1.183578E-01 +5.142279E+00     +2.322279E+00 +1.183578E-01 +5.142279E+00     +2.322279E+00 +1.183578E-01 +5.142279E+00     +2.322279E+00 +1.183578E-01 +5.142279E+00     +2.322279E+00 +1.183578E-01 +5.142279E+00     +4.449281E+00 +3.704584E-01 +2.769490E+00     +4.299280E+00 +9.850045E-01 +2.890799E+00     +5.804571E+00 +9.694606E-01 +1.866090E+00     +4.299280E+00 +9.850045E-01 +2.890799E+00     +4.299280E+00 +9.850045E-01 +2.890799E+00     +3.410539E+00 +9.633903E-01 +6.286885E-01     +4.683410E+00 +1.912020E+00 +4.247760E+00     +4.683410E+00 +1.912020E+00 +4.247760E+00     +2.105790E+00 +6.473322E-01 +5.527269E+00     +2.105790E+00 +6.473322E-01 +5.527269E+00     +1.965630E+00 +2.237580E+00 +1.848070E+00     +1.965630E+00 +2.237580E+00 +1.848070E+00     +1.965630E+00 +2.237580E+00 +1.848070E+00     +1.965630E+00 +2.237580E+00 +1.848070E+00     +1.965630E+00 +2.237580E+00 +1.848070E+00     +1.965630E+00 +2.237580E+00 +1.848070E+00    
 +2.322279E+00 +1.183578E-01 +5.142279E+00     +2.322279E+00 +1.183578E-01 +5.142279E+00     +2.322279E+00 +1.183578E-01 +5.142279E+00     +2.322279E+00 +1.183578E-01 +5.142279E+00     +4.881440E+00 +2.973851E+00 +5.034610E+00     +4.299280E+00 +9.850045E-01 +2.890799E+00     +4.299280E+00 +9.850045E-01 +2.890799E+00     +4.299280E+00 +9.850045E-01 +2.890799E+00     +4.299280E+00 +9.850045E-01 +2.890799E+00     +4.299280E+00 +9.850045E-01 +2.890799E+00     +3.410539E+00 +9.633903E-01 +6.286885E-01     +2.105790E+00 +6.473322E-01 +5.527269E+00     +2.105790E+00 +6.473322E-01 +5.527269E+00     +2.105790E+00 +6.473322E-01 +5.527269E+00     +2.105790E+00 +6.473322E-01 +5.527269E+00     +2.105790E+00 +6.473322E-01 +5.527269E+00     +2.105790E+00 +6.473322E-01 +5.527269E+00     +1.965630E+00 +2.237580E+00 +1.848070E+00     +2.593263E-01 +1.744610E+00 +1.877301E+00     +2.593263E-01 +1.744610E+00 +1.877301E+00     +2.593263E-01 +1.744610E+00 +1.877301E+00    
 +2.322279E+00 +1.183578E-01 +5.142279E+00     +2.322279E+00 +1.183578E-01 +5.142279E+00     +2.322279E+00 +1.183578E-01 +5.142279E+00     +4.881440E+00 +2.973851E+00 +5.034610E+00     +4.881440E+00 +2.973851E+00 +5.034610E+00     +4.881440E+00 +2.973851E+00 +5.034610E+00     +4.299280E+00 +9.850045E-01 +2.890799E+00     +4.299280E+00 +9.850045E-01 +2.890799E+00     +4.299280E+00 +9.850045E-01 +2.890799E+00     +9.651758E-01 +1.219830E+00 +2.566240E+00     +3.410539E+00 +9.633903E-01 +6.286885E-01     +2.105790E+00 +6.473322E-01 +5.527269E+00     +1.930961E+00 +1.529690E+00 +2.736430E+00     +2.105790E+00 +6.473322E-01 +5.527269E+00     +2.105790E+00 +6.473322E-01 +5.527269E+00     +2.105790E+00 +6.473322E-01 +5.527269E+00     +2.105790E+00 +6.473322E-01 +5.527269E+00     +1.965630E+00 +2.237580E+00 +1.848070E+00     +2.593263E-01 +1.744610E+00 +1.877301E+00     +2.593263E-01 +1.744610E+00 +1.877301E+00     +2.593263E-01 +1.744610E+00 +1.877301E+00    
 +2.322279E+00 +1.183578E-01 +5.142279E+00     +2.322279E+00 +1.183578E-01 +5.142279E+00     +2.322279E+00 +1.183578E-01 +5.142279E+00     +4.881440E+00 +2.973851E+00 +5.034610E+00     +4.881440E+00 +2.973851E+00 +5.034610E+00     +4.881440E+00 +2.973851E+00 +5.034610E+00     +4.299280E+00 +9.850045E-01 +2.890799E+00     +4.299280E+00 +9.850045E-01 +2.890799E+00     +4.299280E+00 +9.850045E-01 +2.890799E+00     +9.651758E-01 +1.219830E+00 +2.566240E+00     +9.651758E-01 +1.219830E+00 +2.566240E+00     +2.105790E+00 +6.473322E-01 +5.527269E+00     +2.105790E+00 +6.473322E-01 +5.527269E+00     +2.105790E+00 +6.473322E-01 +5.527269E+00     +2.105790E+00 +6.473322E-01 +5.527269E+00     +2.105790E+00 +6.473322E-01 +5.527269E+00     +2.105790E+00 +6.473322E-01 +5.527269E+00     +3.310951E+00 +5.815804E-01 +4.265421E+00     +2.593263E-01 +1.744610E+00 +1.877301E+00     +2.593263E-01 +1.744610E+00 +1.877301E+00     +2.593263E-01 +1.744610E+00 +1.877301E+00    
 +5.138010E+00 +1.343350E+00 +1.951891E+00     +5.138010E+00 +1.343350E+00 +1.951891E+00     +5.138010E+00 +1.343350E+00 +1.951891E+00     +4.881440E+00 +2.973851E+00 +5.034610E+00     +4.881440E+00 +2.973851E+00 +5.034610E+00     +4.881440E+00 +2.973851E+00 +5.034610E+00     +4.299280E+00 +9.850045E-01 +2.890799E+00     +4.299280E+00 +9.850045E-01 +2.890799E+00     +4.299280E+00 +9.850045E-01 +2.890799E+00     +9.651758E-01 +1.219830E+00 +2.566240E+00     +3.410539E+00 +9.633903E-01 +6.286885E-01     +2.105790E+00 +6.473322E-01 +5.527269E+00     +2.105790E+00 +6.473322E-01 +5.527269E+00     +2.105790E+00 +6.473322E-01 +5.527269E+00     +2.105790E+00 +6.473322E-01 +5.527269E+00     +2.105790E+00 +6.473322E-01 +5.527269E+00     +2.105790E+00 +6.473322E-01 +5.527269E+00     +4.487301E+00 +1.771249E+00 +4.998571E+00     +3.868631E+00 +2.330819E+00 +3.753090E+00     +2.177860E+00 +9.589939E-01 +4.821070E+00     +2.177860E+00 +9.589939E-01 +4.821070E+00    
 +3.436520E+00 +1.891780E+00 +5.593100E+00     +3.436520E+00 +1.891780E+00 +5.593100E+00     +3.436520E+00 +1.891780E+00 +5.593100E+00     +4.881440E+00 +2.973851E+00 +5.034610E+00     +4.881440E+00 +2.973851E+00 +5.034610E+00     +4.299280E+00 +9.850045E-01 +2.890799E+00     +4.299280E+00 +9.850045E-01 +2.890799E+00     +4.299280E+00 +9.850045E-01 +2.890799E+00     +4.299280E+00 +9.850045E-01 +2.890799E+00     +4.299280E+00 +9.850045E-01 +2.890799E+00     +3.410539E+00 +9.633903E-01 +6.286885E-01     +2.105790E+00 +6.473322E-01 +5.527269E+00     +2.105790E+00 +6.473322E-01 +5.527269E+00     +2.105790E+00 +6.473322E-01 +5.527269E+00     +2.105790E+00 +6.473322E-01 +5.527269E+00     +2.105790E+00 +6.473322E-01 +5.527269E+00     +4.487301E+00 +1.771249E+00 +4.998571E+00     +4.487301E+00 +1.771249E+00 +4.998571E+00     +4.487301E+00 +1.771249E+00 +4.998571E+00     +2.177860E+00 +9.589939E-01 +4.821070E+00     +2.177860E+00 +9.589939E-01 +4.821070E+00    
 +3.436520E+00 +1.891780E+00 +5.593100E+00     +3.436520E+00 +1.891780E+00 +5.593100E+00     +3.436520E+00 +1.891780E+00 +5.593100E+00     +3.436520E+00 +1.891780E+00 +5.593100E+00     +4.881440E+00 +2.973851E+00 +5.034610E+00     +4.299280E+00 +9.850045E-01 +2.890799E+00     +4.299280E+00 +9.850045E-01 +2.890799E+00     +4.299280E+00 +9.850045E-01 +2.890799E+00     +4.299280E+00 +9.850045E-01 +2.890799E+00     +4.299280E+00 +9.850045E-01 +2.890799E+00     +3.410539E+00 +9.633903E-01 +6.286885E-01     +2.105790E+00 +6.473322E-01 +5.527269E+00     +6.194441E+00 +4.528937E-01 +4.405160E+00     +6.194441E+00 +4.528937E-01 +4.405160E+00     +6.194441E+00 +4.528937E-01 +4.405160E+00     +4.487301E+00 +1.771249E+00 +4.998571E+00     +4.487301E+00 +1.771249E+00 +4.998571E+00     +2.075921E+00 +5.109731E-01 +4.872919E+00     +2.075921E+00 +5.109731E-01 +4.872919E+00     +2.075921E+00 +5.109731E-01 +4.872919E+00     +2.177860E+00 +9.589939E-01 +4.821070E+00    
 +3.436520E+00 +1.891780E+00 +5.593100E+00     +3.436520E+00 +1.891780E+00 +5.593100E+00     +3.436520E+00 +1.891780E+00 +5.593100E+00     +3.436520E+00 +1.891780E+00 +5.593100E+00     +4.881440E+00 +2.973851E+00 +5.034610E+00     +1.585410E+00 +1.724919E+00 +3.745440E+00     +1.585410E+00 +1.724919E+00 +3.745440E+00     +1.585410E+00 +1.724919E+00 +3.745440E+00     +1.585410E+00 +1.724919E+00 +3.745440E+00     +1.585410E+00 +1.724919E+00 +3.745440E+00     +3.758950E+00 +1.131211E+00 +3.495980E+00     +6.194441E+00 +4.528937E-01 +4.405160E+00     +6.194441E+00 +4.528937E-01 +4.405160E+00     +6.194441E+00 +4.528937E-01 +4.405160E+00     +6.194441E+00 +4.528937E-01 +4.405160E+00     +4.487301E+00 +1.771249E+00 +4.998571E+00     +2.075921E+00 +5.109731E-01 +4.872919E+00     +2.075921E+00 +5.109731E-01 +4.872919E+00     +2.075921E+00 +5.109731E-01 +4.872919E+00     +2.075921E+00 +5.109731E-01 +4.872919E+00     +2.075921E+00 +5.109731E-01 +4.872919E+00    
 +3.436520E+00 +1.891780E+00 +5.593100E+00     +3.436520E+00 +1.891780E+00 +5.593100E+00     +3.436520E+00 +1.891780E+00 +5.593100E+00     +3.436520E+00 +1.891780E+00 +5.593100E+00     +1.585410E+00 +1.724919E+00 +3.745440E+00     +1.585410E+00 +1.724919E+00 +3.745440E+00     +1.585410E+00 +1.724919E+00 +3.745440E+00     +1.585410E+00 +1.724919E+00 +3.745440E+00     +1.585410E+00 +1.724919E+00 +3.745440E+00     +3.758950E+00 +1.131211E+00 +3.495980E+00     +3.479920E+00 +1.666229E+00 +5.212799E+00     +3.479920E+00 +1.666229E+00 +5.212799E+00     +3.479920E+00 +1.666229E+00 +5.212799E+00     +1.447506E-01 +7.757657E-01 +9.525362E-01     +1.447506E-01 +7.757657E-01 +9.525362E-01     +3.210339E+00 +2.023261E+00 +5.578230E+00     +2.075921E+00 +5.109731E-01 +4.872919E+00     +2.075921E+00 +5.109731E-01 +4.872919E+00     +2.075921E+00 +5.109731E-01 +4.872919E+00     +4.465460E+00 +1.407840E+00 +3.380230E+00     +5.835107E-01 +6.701733E-01 +2.399269E-01    
 +5.835107E-01 +6.701733E-01 +2.399269E-01     +5.835107E-01 +6.701733E-01 +2.399269E-01     +2.283500E+00 +1.905899E+00 +4.867119E+00     +2.283500E+00 +1.905899E+00 +4.867119E+00     +2.283500E+00 +1.905899E+00 +4.867119E+00     +3.045771E+00 +1.771399E+00 +5.542501E+00     +4.112849E+00 +1.965209E+00 +3.785350E+00     +4.112849E+00 +1.965209E+00 +3.785350E+00     +3.758950E+00 +1.131211E+00 +3.495980E+00     +3.479920E+00 +1.666229E+00 +5.212799E+00     +3.479920E+00 +1.666229E+00 +5.212799E+00     +3.479920E+00 +1.666229E+00 +5.212799E+00     +1.447506E-01 +7.757657E-01 +9.525362E-01     +1.447506E-01 +7.757657E-01 +9.525362E-01     +1.447506E-01 +7.757657E-01 +9.525362E-01     +4.465460E+00 +1.407840E+00 +3.380230E+00     +4.465460E+00 +1.407840E+00 +3.380230E+00     +4.465460E+00 +1.407840E+00 +3.380230E+00     +4.465460E+00 +1.407840E+00 +3.380230E+00     +4.465460E+00 +1.407840E+00 +3.380230E+00     +5.835107E-01 +6.701733E-01 +2.399269E-01    
 +5.835107E-01 +6.701733E-01 +2.399269E-01     +5.835107E-01 +6.701733E-01 +2.399269E-01     +2.283500E+00 +1.905899E+00 +4.867119E+00     +2.283500E+00 +1.905899E+00 +4.867119E+00     +2.283500E+00 +1.905899E+00 +4.867119E+00     +3.045771E+00 +1.771399E+00 +5.542501E+00     +3.045771E+00 +1.771399E+00 +5.542501E+00     +3.758950E+00 +1.131211E+00 +3.495980E+00     +3.758950E+00 +1.131211E+00 +3.495980E+00     +3.479920E+00 +1.666229E+00 +5.212799E+00     +3.479920E+00 +1.666229E+00 +5.212799E+00     +3.479920E+00 +1.666229E+00 +5.212799E+00     +3.479920E+00 +1.666229E+00 +5.212799E+00     +1.447506E-01 +7.757657E-01 +9.525362E-01     +1.447506E-01 +7.757657E-01 +9.525362E-01     +4.465460E+00 +1.407840E+00 +3.380230E+00     +4.465460E+00 +1.407840E+00 +3.380230E+00     +4.465460E+00 +1.407840E+00 +3.380230E+00     +4.465460E+00 +1.407840E+00 +3.380230E+00     +4.465460E+00 +1.407840E+00 +3.380230E+00     +5.835107E-01 +6.701733E-01 +2.399269E-01    
 +5.835107E-01 +6.701733E-01 +2.399269E-01     +5.835107E-01 +6.701733E-01 +2.399269E-01     +2.283500E+00 +1.905899E+00 +4.867119E+00     +2.283500E+00 +1.905899E+00 +4.867119E+00     +2.283500E+00 +1.905899E+00 +4.867119E+00     +4.604489E+00 +1.104820E+00 +5.910870E+00     +3.045771E+00 +1.771399E+00 +5.542501E+00     +7.809755E-01 +1.321310E+00 +6.078340E+00     +7.809755E-01 +1.321310E+00 +6.078340E+00     +5.354831E+00 +7.510396E-01 +2.302220E+00     +5.354831E+00 +7.510396E-01 +2.302220E+00     +3.479920E+00 +1.666229E+00 +5.212799E+00     +3.479920E+00 +1.666229E+00 +5.212799E+00     +3.479920E+00 +1.666229E+00 +5.212799E+00     +3.479920E+00 +1.666229E+00 +5.212799E+00     +6.061860E+00 +1.336090E+00 +1.274289E+00     +6.061860E+00 +1.336090E+00 +1.274289E+00     +4.465460E+00 +1.407840E+00 +3.380230E+00     +4.465460E+00 +1.407840E+00 +3.380230E+00     +4.465460E+00 +1.407840E+00 +3.380230E+00     +5.835107E-01 +6.701733E-01 +2.399269E-01    
 +5.835107E-01 +6.701733E-01 +2.399269E-01     +5.835107E-01 +6.701733E-01 +2.399269E-01     +2.283500E+00 +1.905899E+00 +4.867119E+00     +2.283500E+00 +1.905899E+00 +4.867119E+00     +2.283500E+00 +1.905899E+00 +4.867119E+00     +3.045771E+00 +1.771399E+00 +5.542501E+00     +7.809755E-01 +1.321310E+00 +6.078340E+00     +7.809755E-01 +1.321310E+00 +6.078340E+00     +7.809755E-01 +1.321310E+00 +6.078340E+00     +5.354831E+00 +7.510396E-01 +2.302220E+00     +5.354831E+00 +7.510396E-01 +2.302220E+00     +5.354831E+00 +7.510396E-01 +2.302220E+00     +5.354831E+00 +7.510396E-01 +2.302220E+00     +5.354831E+00 +7.510396E-01 +2.302220E+00     +6.061860E+00 +1.336090E+00 +1.274289E+00     +6.061860E+00 +1.336090E+00 +1.274289E+00     +6.061860E+00 +1.336090E+00 +1.274289E+00     +6.061860E+00 +1.336090E+00 +1.274289E+00     +4.465460E+00 +1.407840E+00 +3.380230E+00     +4.465460E+00 +1.407840E+00 +3.380230E+00     +5.835107E-01 +6.701733E-01 +2.399269E-01    
 +5.835107E-01 +6.701733E-01 +2.399269E-01     +3.215650E+00 +1.546719E+00 +1.366820E+00     +3.215650E+00 +1.546719E+00 +1.366820E+00     +3.215650E+00 +1.546719E+00 +1.366820E+00     +3.215650E+00 +1.546719E+00 +1.366820E+00     +3.215650E+00 +1.546719E+00 +1.366820E+00     +7.809755E-01 +1.321310E+00 +6.078340E+00     +7.809755E-01 +1.321310E+00 +6.078340E+00     +7.809755E-01 +1.321310E+00 +6.078340E+00     +5.354831E+00 +7.510396E-01 +2.302220E+00     +5.354831E+00 +7.510396E-01 +2.302220E+00     +5.354831E+00 +7.510396E-01 +2.302220E+00     +5.354831E+00 +7.510396E-01 +2.302220E+00     +5.354831E+00 +7.510396E-01 +2.302220E+00     +5.354831E+00 +7.510396E-01 +2.302220E+00     +6.061860E+00 +1.336090E+00 +1.274289E+00     +6.061860E+00 +1.336090E+00 +1.274289E+00     +6.061860E+00 +1.336090E+00 +1.274289E+00     +6.061860E+00 +1.336090E+00 +1.274289E+00     +6.061860E+00 +1.336090E+00 +1.274289E+00     +5.835107E-01 +6.701733E-01 +2.399269E-01    
 +3.215650E+00 +1.546719E+00 +1.366820E+00     +3.215650E+00 +1.546719E+00 +1.366820E+00     +3.215650E+00 +1.546719E+00 +1.366820E+00     +3.215650E+00 +1.546719E+00 +1.366820E+00     +3.215650E+00 +1.546719E+00 +1.366820E+00     +7.809755E-01 +1.321310E+00 +6.078340E+00     +7.809755E-01 +1.321310E+00 +6.078340E+00     +7.809755E-01 +1.321310E+00 +6.078340E+00     +7.809755E-01 +1.321310E+00 +6.078340E+00     +3.382630E+00 +2.983171E+00 +5.703999E+00     +5.354831E+00 +7.510396E-01 +2.302220E+00     +5.354831E+00 +7.510396E-01 +2.302220E+00     +5.354831E+00 +7.510396E-01 +2.302220E+00     +1.257470E+00 +2.196211E+00 +1.616730E+00     +1.257470E+00 +2.196211E+00 +1.616730E+00     +1.257470E+00 +2.196211E+00 +1.616730E+00     +6.061860E+00 +1.336090E+00 +1.274289E+00     +6.061860E+00 +1.336090E+00 +1.274289E+00     +6.061860E+00 +1.336090E+00 +1.274289E+00     +6.061860E+00 +1.336090E+00 +1.274289E+00     +5.835107E-01 +6.701733E-01 +2.399269E-01    
 +5.938350E+00 +3.025460E+00 +1.453730E+00     +5.938350E+00 +3.025460E+00 +1.453730E+00     +5.938350E+00 +3.025460E+00 +1.453730E+00     +5.938350E+00 +3.025460E+00 +1.453730E+00     +5.938350E+00 +3.025460E+00 +1.453730E+00     +2.287620E-01 +8.959333E-01 +4.001450E+00     +1.242140E+00 +6.487214E-01 +2.650963E-01     +4.328380E+00 +7.867718E-01 +3.099659E+00     +1.242140E+00 +6.487214E-01 +2.650963E-01     +3.382630E+00 +2.983171E+00 +5.703999E+00     +3.382630E+00 +2.983171E+00 +5.703999E+00     +3.382630E+00 +2.983171E+00 +5.703999E+00     +3.382630E+00 +2.983171E+00 +5.703999E+00     +1.257470E+00 +2.196211E+00 +1.616730E+00     +1.257470E+00 +2.196211E+00 +1.616730E+00     +1.257470E+00 +2.196211E+00 +1.616730E+00     +1.257470E+00 +2.196211E+00 +1.616730E+00     +1.257470E+00 +2.196211E+00 +1.616730E+00     +4.284520E+00 +1.543060E+00 +3.243520E+00     +4.284520E+00 +1.543060E+00 +3.243520E+00     +1.965630E+00 +2.237580E+00 +1.848070E+00    
 +2.322279E+00 +1.183578E-01 +5.142279E+00     +2.322279E+00 +1.183578E-01 +5.142279E+00     +5.938350E+00 +3.025460E+00 +1.453730E+00     +5.938350E+00 +3.025460E+00 +1.453730E+00     +2.287620E-01 +8.959333E-01 +4.001450E+00     +2.287620E-01 +8.959333E-01 +4.001450E+00     +1.242140E+00 +6.487214E-01 +2.650963E-01     +1.242140E+00 +6.487214E-01 +2.650963E-01     +1.242140E+00 +6.487214E-01 +2.650963E-01     +5.400150E+00 +1.024931E+00 +1.593920E+00     +3.382630E+00 +2.983171E+00 +5.703999E+00     +3.382630E+00 +2.983171E+00 +5.703999E+00     +1.257470E+00 +2.196211E+00 +1.616730E+00     +1.257470E+00 +2.196211E+00 +1.616730E+00     +1.257470E+00 +2.196211E+00 +1.616730E+00     +1.257470E+00 +2.196211E+00 +1.616730E+00     +1.257470E+00 +2.196211E+00 +1.616730E+00     +1.257470E+00 +2.196211E+00 +1.616730E+00     +4.284520E+00 +1.543060E+00 +3.243520E+00     +4.284520E+00 +1.543060E+00 +3.243520E+00     +1.965630E+00 +2.237580E+00 +1.848070E+00    
 +2.322279E+00 +1.183578E-01 +5.142279E+00     +2.322279E+00 +1.183578E-01 +5.142279E+00     +2.322279E+00 +1.183578E-01 +5.142279E+00     +1.351901E+00 +7.177108E-01 +1.413870E+00     +2.287620E-01 +8.959333E-01 +4.001450E+00     +2.287620E-01 +8.959333E-01 +4.001450E+00     +1.242140E+00 +6.487214E-01 +2.650963E-01     +1.242140E+00 +6.487214E-01 +2.650963E-01     +1.242140E+00 +6.487214E-01 +2.650963E-01     +5.400150E+00 +1.024931E+00 +1.593920E+00     +5.400150E+00 +1.024931E+00 +1.593920E+00     +1.257470E+00 +2.196211E+00 +1.616730E+00     +1.257470E+00 +2.196211E+00 +1.616730E+00     +1.257470E+00 +2.196211E+00 +1.616730E+00     +1.257470E+00 +2.196211E+00 +1.616730E+00     +1.257470E+00 +2.196211E+00 +1.616730E+00     +1.257470E+00 +2.196211E+00 +1.616730E+00     +1.965630E+00 +2.237580E+00 +1.848070E+00     +1.965630E+00 +2.237580E+00 +1.848070E+00     +1.965630E+00 +2.237580E+00 +1.848070E+00     +1.965630E+00 +2.237580E+00 +1.848070E+00    
 +2.322279E+00 +1.183578E-01 +5.142279E+00     +2.322279E+00 +1.183578E-01 +5.142279E+00     +2.322279E+00 +1.183578E-01 +5.142279E+00     +2.322279E+00 +1.183578E-01 +5.142279E+00     +2.287620E-01 +8.959333E-01 +4.001450E+00     +2.287620E-01 +8.959333E-01 +4.001450E+00     +1.242140E+00 +6.487214E-01 +2.650963E-01     +1.242140E+00 +6.487214E-01 +2.650963E-01     +1.242140E+00 +6.487214E-01 +2.650963E-01     +5.400150E+00 +1.024931E+00 +1.593920E+00     +5.400150E+00 +1.024931E+00 +1.593920E+00     +1.257470E+00 +2.196211E+00 +1.616730E+00     +1.257470E+00 +2.196211E+00 +1.616730E+00     +1.257470E+00 +2.196211E+00 +1.616730E+00     +1.257470E+00 +2.196211E+00 +1.616730E+00     +1.257470E+00 +2.196211E+00 +1.616730E+00     +1.257470E+00 +2.196211E+00 +1.616730E+00     +1.965630E+00 +2.237580E+00 +1.848070E+00     +1.965630E+00 +2.237580E+00 +1.848070E+00     +1.965630E+00 +2.237580E+00 +1.848070E+00     +1.965630E+00 +2.237580E+00 +1.848070E+00    
 +2.322279E+00 +1.183578E-01 +5.142279E+00     +2.322279E+00 +1.183578E-01 +5.142279E+00     +2.322279E+00 +1.183578E-01 +5.142279E+00     +2.322279E+00 +1.183578E-01 +5.142279E+00     +2.322279E+00 +1.183578E-01 +5.142279E+00     +4.449281E+00 +3.704584E-01 +2.769490E+00     +1.242140E+00 +6.487214E-01 +2.650963E-01     +1.242140E+00 +6.487214E-01 +2.650963E-01     +1.242140E+00 +6.487214E-01 +2.650963E-01     +5.400150E+00 +1.024931E+00 +1.593920E+00     +5.400150E+00 +1.024931E+00 +1.593920E+00     +1.257470E+00 +2.196211E+00 +1.616730E+00     +1.257470E+00 +2.196211E+00 +1.616730E+00     +1.257470E+00 +2.196211E+00 +1.616730E+00     +1.257470E+00 +2.196211E+00 +1.616730E+00     +1.257470E+00 +2.196211E+00 +1.616730E+00     +1.965630E+00 +2.237580E+00 +1.848070E+00     +1.965630E+00 +2.237580E+00 +1.848070E+00     +1.965630E+00 +2.237580E+00 +1.848070E+00     +1.965630E+00 +2.237580E+00 +1.848070E+00     +1.965630E+00 +2.237580E+00 +1.848070E+00    
 +2.322279E+00 +1.183578E-01 +5.142279E+00     +2.322279E+00 +1.183578E-01 +5.142279E+00     +2.322279E+00 +1.183578E-01 +5.142279E+00     +2.322279E+00 +1.183578E-01 +5.142279E+00     +2.322279E+00 +1.183578E-01 +5.142279E+00     +4.449281E+00 +3.704584E-01 +2.769490E+00     +4.449281E+00 +3.704584E-01 +2.769490E+00     +5.804571E+00 +9.694606E-01 +1.866090E+00     +5.804571E+00 +9.694606E-01 +1.866090E+00     +5.400150E+00 +1.024931E+00 +1.593920E+00     +5.400150E+00 +1.024931E+00 +1.593920E+00     +1.257470E+00 +2.196211E+00 +1.616730E+00     +1.257470E+00 +2.196211E+00 +1.616730E+00     +1.257470E+00 +2.196211E+00 +1.616730E+00     +1.257470E+00 +2.196211E+00 +1.616730E+00     +1.257470E+00 +2.196211E+00 +1.616730E+00     +1.965630E+00 +2.237580E+00 +1.848070E+00     +1.965630E+00 +2.237580E+00 +1.848070E+00     +1.965630E+00 +2.237580E+00 +1.848070E+00     +1.965630E+00 +2.237580E+00 +1.848070E+00     +1.965630E+00 +2.237580E+00 +1.848070E+00    
 +2.322279E+00 +1.183578E-01 +5.142279E+00     +2.322279E+00 +1.183578E-01 +5.142279E+00     +2.322279E+00 +1.183578E-01 +5.142279E+00     +2.322279E+00 +1.183578E-01 +5.142279E+00     +2.322279E+00 +1.183578E-01 +5.142279E+00     +4.449281E+00 +3.704584E-01 +2.769490E+00     +4.299280E+00 +9.850045E-01 +2.890799E+00     +4.299280E+00 +9.850045E-01 +2.890799E+00     +4.299280E+00 +9.850045E-01 +2.890799E+00     +4.299280E+00 +9.850045E-01 +2.890799E+00     +6.060300E+00 +2.163990E+00 +1.847630E+00     +2.105790E+00 +6.473322E-01 +5.527269E+00     +2.105790E+00 +6.473322E-01 +5.527269E+00     +2.105790E+00 +6.473322E-01 +5.527269E+00     +2.105790E+00 +6.473322E-01 +5.527269E+00     +2.105790E+00 +6.473322E-01 +5.527269E+00     +1.965630E+00 +2.237580E+00 +1.848070E+00     +1.965630E+00 +2.237580E+00 +1.848070E+00     +1.965630E+00 +2.237580E+00 +1.848070E+00     +1.965630E+00 +2.237580E+00 +1.848070E+00     +1.965630E+00 +2.237580E+00 +1.848070E+00    
 +2.322279E+00 +1.183578E-01 +5.142279E+00     +2.322279E+00 +1.183578E-01 +5.142279E+00     +2.322279E+00 +1.183578E-01 +5.142279E+00     +2.322279E+00 +1.183578E-01 +5.142279E+00     +2.322279E+00 +1.183578E-01 +5.142279E+00     +4.299280E+00 +9.850045E-01 +2.890799E+00     +4.299280E+00 +9.850045E-01 +2.890799E+00     +4.299280E+00 +9.850045E-01 +2.890799E+00     +4.299280E+00 +9.850045E-01 +2.890799E+00     +6.060300E+00 +2.163990E+00 +1.847630E+00     +6.060300E+00 +2.163990E+00 +1.847630E+00     +2.105790E+00 +6.473322E-01 +5.527269E+00     +1.930961E+00 +1.529690E+00 +2.736430E+00     +2.105790E+00 +6.473322E-01 +5.527269E+00     +2.105790E+00 +6.473322E-01 +5.527269E+00     +2.105790E+00 +6.473322E-01 +5.527269E+00     +2.105790E+00 +6.473322E-01 +5.527269E+00     +1.965630E+00 +2.237580E+00 +1.848070E+00     +1.965630E+00 +2.237580E+00 +1.848070E+00     +2.593263E-01 +1.744610E+00 +1.877301E+00     +1.965630E+00 +2.237580E+00 +1.848070E+00    
 +2.322279E+00 +1.183578E-01 +5.142279E+00     +2.322279E+00 +1.183578E-01 +5.142279E+00     +2.322279E+00 +1.183578E-01 +5.142279E+00     +4.881440E+00 +2.973851E+00 +5.034610E+00     +4.881440E+00 +2.973851E+00 +5.034610E+00     +4.881440E+00 +2.973851E+00 +5.034610E+00     +4.299280E+00 +9.850045E-01 +2.890799E+00     +4.299280E+00 +9.850045E-01 +2.890799E+00     +4.299280E+00 +9.850045E-01 +2.890799E+00     +6.060300E+00 +2.163990E+00 +1.847630E+00     +6.060300E+00 +2.163990E+00 +1.847630E+00     +2.105790E+00 +6.473322E-01 +5.527269E+00     +1.930961E+00 +1.529690E+00 +2.736430E+00     +1.930961E+00 +1.529690E+00 +2.736430E+00     +2.105790E+00 +6.473322E-01 +5.527269E+00     +2.105790E+00 +6.473322E-01 +5.527269E+00     +2.105790E+00 +6.473322E-01 +5.527269E+00     +1.965630E+00 +2.237580E+00 +1.848070E+00     +2.593263E-01 +1.744610E+00 +1.877301E+00     +2.593263E-01 +1.744610E+00 +1.877301E+00     +2.593263E-01 +1.744610E+00 +1.877301E+00    
 +5.041506E-01 +2.354709E+00 +2.561890E+00     +2.322279E+00 +1.183578E-01 +5.142279E+00     +2.322279E+00 +1.183578E-01 +5.142279E+00     +4.881440E+00 +2.973851E+00 +5.034610E+00     +4.881440E+00 +2.973851E+00 +5.034610E+00     +4.881440E+00 +2.973851E+00 +5.034610E+00     +4.299280E+00 +9.850045E-01 +2.890799E+00     +4.299280E+00 +9.850045E-01 +2.890799E+00     +4.299280E+00 +9.850045E-01 +2.890799E+00     +6.060300E+00 +2.163990E+00 +1.847630E+00     +6.060300E+00 +2.163990E+00 +1.847630E+00     +2.105790E+00 +6.473322E-01 +5.527269E+00     +1.930961E+00 +1.529690E+00 +2.736430E+00     +2.105790E+00 +6.473322E-01 +5.527269E+00     +2.105790E+00 +6.473322E-01 +5.527269E+00     +2.105790E+00 +6.473322E-01 +5.527269E+00     +2.105790E+00 +6.473322E-01 +5.527269E+00     +3.310951E+00 +5.815804E-01 +4.265421E+00     +5.041506E-01 +2.354709E+00 +2.561890E+00     +5.041506E-01 +2.354709E+00 +2.561890E+00     +5.041506E-01 +2.354709E+00 +2.561890E+00    
 +5.041506E-01 +2.354709E+00 +2.561890E+00     +3.436520E+00 +1.891780E+00 +5.593100E+00     +3.436520E+00 +1.891780E+00 +5.593100E+00     +4.881440E+00 +2.973851E+00 +5.034610E+00     +4.881440E+00 +2.973851E+00 +5.034610E+00     +4.881440E+00 +2.973851E+00 +5.034610E+00     +4.299280E+00 +9.850045E-01 +2.890799E+00     +4.299280E+00 +9.850045E-01 +2.890799E+00     +4.299280E+00 +9.850045E-01 +2.890799E+00     +6.060300E+00 +2.163990E+00 +1.847630E+00     +6.060300E+00 +2.163990E+00 +1.847630E+00     +2.105790E+00 +6.473322E-01 +5.527269E+00     +2.105790E+00 +6.473322E-01 +5.527269E+00     +2.105790E+00 +6.473322E-01 +5.527269E+00     +2.105790E+00 +6.473322E-01 +5.527269E+00     +2.105790E+00 +6.473322E-01 +5.527269E+00     +2.105790E+00 +6.473322E-01 +5.527269E+00     +2.105790E+00 +6.473322E-01 +5.527269E+00     +5.041506E-01 +2.354709E+00 +2.561890E+00     +5.041506E-01 +2.354709E+00 +2.561890E+00     +5.041506E-01 +2.354709E+00 +2.561890E+00    
 +3.436520E+00 +1.891780E+00 +5.593100E+00     +3.436520E+00 +1.891780E+00 +5.593100E+00     +3.436520E+00 +1.891780E+00 +5.593100E+00     +4.881440E+00 +2.973851E+00 +5.034610E+00     +4.881440E+00 +2.973851E+00 +5.034610E+00     +4.299280E+00 +9.850045E-01 +2.890799E+00     +4.299280E+00 +9.850045E-01 +2.890799E+00     +4.299280E+00 +9.850045E-01 +2.890799E+00     +4.299280E+00 +9.850045E-01 +2.890799E+00     +6.060300E+00 +2.163990E+00 +1.847630E+00     +6.060300E+00 +2.163990E+00 +1.847630E+00     +2.105790E+00 +6.473322E-01 +5.527269E+00     +2.105790E+00 +6.473322E-01 +5.527269E+00     +2.105790E+00 +6.473322E-01 +5.527269E+00     +2.105790E+00 +6.473322E-01 +5.527269E+00     +2.105790E+00 +6.473322E-01 +5.527269E+00     +2.105790E+00 +6.473322E-01 +5.527269E+00     +2.105790E+00 +6.473322E-01 +5.527269E+00     +5.041506E-01 +2.354709E+00 +2.561890E+00     +5.041506E-01 +2.354709E+00 +2.561890E+00     +2.177860E+00 +9.589939E-01 +4.821070E+00    
 +3.436520E+00 +1.891780E+00 +5.593100E+00     +3.436520E+00 +1.891780E+00 +5.593100E+00     +3.436520E+00 +1.891780E+00 +5.593100E+00     +3.436520E+00 +1.891780E+00 +5.593100E+00     +4.881440E+00 +2.973851E+00 +5.034610E+00     +4.299280E+00 +9.850045E-01 +2.890799E+00     +4.299280E+00 +9.850045E-01 +2.890799E+00     +4.299280E+00 +9.850045E-01 +2.890799E+00     +4.299280E+00 +9.850045E-01 +2.890799E+00     +3.758950E+00 +1.131211E+00 +3.495980E+00     +3.758950E+00 +1.131211E+00 +3.495980E+00     +2.105790E+00 +6.473322E-01 +5.527269E+00     +2.105790E+00 +6.473322E-01 +5.527269E+00     +2.105790E+00 +6.473322E-01 +5.527269E+00     +2.105790E+00 +6.473322E-01 +5.527269E+00     +2.105790E+00 +6.473322E-01 +5.527269E+00     +2.105790E+00 +6.473322E-01 +5.527269E+00     +2.075921E+00 +5.109731E-01 +4.872919E+00     +2.075921E+00 +5.109731E-01 +4.872919E+00     +5.041506E-01 +2.354709E+00 +2.561890E+00     +2.177860E+00 +9.589939E-01 +4.821070E+00    
 +3.436520E+00 +1.891780E+00 +5.593100E+00     +3.436520E+00 +1.891780E+00 +5.593100E+00     +7.364801E-01 +2.806779E+00 +3.325250E+00     +7.364801E-01 +2.806779E+00 +3.325250E+00     +7.364801E-01 +2.806779E+00 +3.325250E+00     +1.585410E+00 +1.724919E+00 +3.745440E+00     +1.585410E+00 +1.724919E+00 +3.745440E+00     +3.758950E+00 +1.131211E+00 +3.495980E+00     +3.758950E+00 +1.131211E+00 +3.495980E+00     +3.758950E+00 +1.131211E+00 +3.495980E+00     +3.758950E+00 +1.131211E+00 +3.495980E+00     +3.758950E+00 +1.131211E+00 +3.495980E+00     +6.194441E+00 +4.528937E-01 +4.405160E+00     +6.194441E+00 +4.528937E-01 +4.405160E+00     +6.194441E+00 +4.528937E-01 +4.405160E+00     +4.487301E+00 +1.771249E+00 +4.998571E+00     +2.075921E+00 +5.109731E-01 +4.872919E+00     +2.075921E+00 +5.109731E-01 +4.872919E+00     +2.075921E+00 +5.109731E-01 +4.872919E+00     +5.835107E-01 +6.701733E-01 +2.399269E-01     +5.835107E-01 +6.701733E-01 +2.399269E-01    
 +5.835107E-01 +6.701733E-01 +2.399269E-01     +3.436520E+00 +1.891780E+00 +5.593100E+00     +7.364801E-01 +2.806779E+00 +3.325250E+00     +1.458450E+00 +1.405009E+00 +2.669589E+00     +1.458450E+00 +1.405009E+00 +2.669589E+00     +3.758950E+00 +1.131211E+00 +3.495980E+00     +3.758950E+00 +1.131211E+00 +3.495980E+00     +3.758950E+00 +1.131211E+00 +3.495980E+00     +3.758950E+00 +1.131211E+00 +3.495980E+00     +3.758950E+00 +1.131211E+00 +3.495980E+00     +3.758950E+00 +1.131211E+00 +3.495980E+00     +3.479920E+00 +1.666229E+00 +5.212799E+00     +1.447506E-01 +7.757657E-01 +9.525362E-01     +1.447506E-01 +7.757657E-01 +9.525362E-01     +1.447506E-01 +7.757657E-01 +9.525362E-01     +1.447506E-01 +7.757657E-01 +9.525362E-01     +2.075921E+00 +5.109731E-01 +4.872919E+00     +2.075921E+00 +5.109731E-01 +4.872919E+00     +5.835107E-01 +6.701733E-01 +2.399269E-01     +5.835107E-01 +6.701733E-01 +2.399269E-01     +5.835107E-01 +6.701733E-01 +2.399269E-01    
 +5.835107E-01 +6.701733E-01 +2.399269E-01     +5.835107E-01 +6.701733E-01 +2.399269E-01     +1.458450E+00 +1.405009E+00 +2.669589E+00     +1.458450E+00 +1.405009E+00 +2.669589E+00     +1.458450E+00 +1.405009E+00 +2.669589E+00     +1.458450E+00 +1.405009E+00 +2.669589E+00     +3.758950E+00 +1.131211E+00 +3.495980E+00     +3.758950E+00 +1.131211E+00 +3.495980E+00     +3.758950E+00 +1.131211E+00 +3.495980E+00     +3.758950E+00 +1.131211E+00 +3.495980E+00     +3.758950E+00 +1.131211E+00 +3.495980E+00     +3.479920E+00 +1.666229E+00 +5.212799E+00     +1.447506E-01 +7.757657E-01 +9.525362E-01     +1.447506E-01 +7.757657E-01 +9.525362E-01     +1.447506E-01 +7.757657E-01 +9.525362E-01     +1.447506E-01 +7.757657E-01 +9.525362E-01     +4.465460E+00 +1.407840E+00 +3.380230E+00     +4.465460E+00 +1.407840E+00 +3.380230E+00     +5.835107E-01 +6.701733E-01 +2.399269E-01     +5.835107E-01 +6.701733E-01 +2.399269E-01     +5.835107E-01 +6.701733E-01 +2.399269E-01    
 +5.835107E-01 +6.701733E-01 +2.399269E-01     +5.835107E-01 +6.701733E-01 +2.399269E-01     +5.835107E-01 +6.701733E-01 +2.399269E-01     +2.283500E+00 +1.905899E+00 +4.867119E+00     +2.283500E+00 +1.905899E+00 +4.867119E+00     +3.045771E+00 +1.771399E+00 +5.542501E+00     +3.758950E+00 +1.131211E+00 +3.495980E+00     +3.758950E+00 +1.131211E+00 +3.495980E+00     +3.758950E+00 +1.131211E+00 +3.495980E+00     +3.758950E+00 +1.131211E+00 +3.495980E+00     +3.758950E+00 +1.131211E+00 +3.495980E+00     +5.053200E+00 +2.278360E+00 +8.272494E-01     +1.447506E-01 +7.757657E-01 +9.525362E-01     +1.447506E-01 +7.757657E-01 +9.525362E-01     +1.447506E-01 +7.757657E-01 +9.525362E-01     +4.465460E+00 +1.407840E+00 +3.380230E+00     +4.440599E+00 +1.314250E+00 +3.000511E+00     +4.440599E+00 +1.314250E+00 +3.000511E+00     +5.835107E-01 +6.701733E-01 +2.399269E-01     +5.835107E-01 +6.701733E-01 +2.399269E-01     +5.835107E-01 +6.701733E-01 +2.399269E-01    
 +5.835107E-01 +6.701733E-01 +2.399269E-01     +5.835107E-01 +6.701733E-01 +2.399269E-01     +2.283500E+00 +1.905899E+00 +4.867119E+00     +2.283500E+00 +1.905899E+00 +4.867119E+00     +2.283500E+00 +1.905899E+00 +4.867119E+00     +4.604489E+00 +1.104820E+00 +5.910870E+00     +6.950512E-01 +1.125559E+00 +6.052470E-01     +3.758950E+00 +1.131211E+00 +3.495980E+00     +3.758950E+00 +1.131211E+00 +3.495980E+00     +3.758950E+00 +1.131211E+00 +3.495980E+00     +5.053200E+00 +2.278360E+00 +8.272494E-01     +5.053200E+00 +2.278360E+00 +8.272494E-01     +5.053200E+00 +2.278360E+00 +8.272494E-01     +3.479920E+00 +1.666229E+00 +5.212799E+00     +3.479920E+00 +1.666229E+00 +5.212799E+00     +6.061860E+00 +1.336090E+00 +1.274289E+00     +4.440599E+00 +1.314250E+00 +3.000511E+00     +4.440599E+00 +1.314250E+00 +3.000511E+00     +4.440599E+00 +1.314250E+00 +3.000511E+00     +5.835107E-01 +6.701733E-01 +2.399269E-01     +5.835107E-01 +6.701733E-01 +2.399269E-01    
 +5.835107E-01 +6.701733E-01 +2.399269E-01     +5.835107E-01 +6.701733E-01 +2.399269E-01     +3.215650E+00 +1.546719E+00 +1.366820E+00     +3.215650E+00 +1.546719E+00 +1.366820E+00     +3.215650E+00 +1.546719E+00 +1.366820E+00     +3.215650E+00 +1.546719E+00 +1.366820E+00     +7.809755E-01 +1.321310E+00 +6.078340E+00     +7.809755E-01 +1.321310E+00 +6.078340E+00     +7.809755E-01 +1.321310E+00 +6.078340E+00     +5.354831E+00 +7.510396E-01 +2.302220E+00     +5.354831E+00 +7.510396E-01 +2.302220E+00     +5.354831E+00 +7.510396E-01 +2.302220E+00     +5.354831E+00 +7.510396E-01 +2.302220E+00     +5.354831E+00 +7.510396E-01 +2.302220E+00     +5.354831E+00 +7.510396E-01 +2.302220E+00     +6.061860E+00 +1.336090E+00 +1.274289E+00     +4.440599E+00 +1.314250E+00 +3.000511E+00     +4.440599E+00 +1.314250E+00 +3.000511E+00     +4.440599E+00 +1.314250E+00 +3.000511E+00     +5.835107E-01 +6.701733E-01 +2.399269E-01     +5.835107E-01 +6.701733E-01 +2.399269E-01    
 +5.835107E-01 +6.701733E-01 +2.399269E-01     +3.215650E+00 +1.546719E+00 +1.366820E+00     +3.215650E+00 +1.546719E+00 +1.366820E+00     +3.215650E+00 +1.546719E+00 +1.366820E+00     +3.215650E+00 +1.546719E+00 +1.366820E+00     +3.215650E+00 +1.546719E+00 +1.366820E+00     +7.809755E-01 +1.321310E+00 +6.078340E+00     +7.809755E-01 +1.321310E+00 +6.078340E+00     +7.809755E-01 +1.321310E+00 +6.078340E+00     +5.354831E+00 +7.510396E-01 +2.302220E+00     +5.354831E+00 +7.510396E-01 +2.302220E+00     +5.354831E+00 +7.510396E-01 +2.302220E+00     +5.354831E+00 +7.510396E-01 +2.302220E+00     +5.354831E+00 +7.510396E-01 +2.302220E+00     +5.354831E+00 +7.510396E-01 +2.302220E+00     +6.061860E+00 +1.336090E+00 +1.274289E+00     +6.061860E+00 +1.336090E+00 +1.274289E+00     +6.061860E+00 +1.336090E+00 +1.274289E+00     +6.061860E+00 +1.336090E+00 +1.274289E+00     +5.835107E-01 +6.701733E-01 +2.399269E-01     +5.835107E-01 +6.701733E-01 +2.399269E-01    
 +3.215650E+00 +1.546719E+00 +1.366820E+00     +3.215650E+00 +1.546719E+00 +1.366820E+00     +3.215650E+00 +1.546719E+00 +1.366820E+00     +3.215650E+00 +1.546719E+00 +1.366820E+00     +3.215650E+00 +1.546719E+00 +1.366820E+00     +3.215650E+00 +1.546719E+00 +1.366820E+00     +7.809755E-01 +1.321310E+00 +6.078340E+00     +7.809755E-01 +1.321310E+00 +6.078340E+00     +7.809755E-01 +1.321310E+00 +6.078340E+00     +5.560235E-01 +9.892072E-01 +3.192029E+00     +5.560235E-01 +9.892072E-01 +3.192029E+00     +5.560235E-01 +9.892072E-01 +3.192029E+00     +5.560235E-01 +9.892072E-01 +3.192029E+00     +1.257470E+00 +2.196211E+00 +1.616730E+00     +1.257470E+00 +2.196211E+00 +1.616730E+00     +1.257470E+00 +2.196211E+00 +1.616730E+00     +6.061860E+00 +1.336090E+00 +1.274289E+00     +6.061860E+00 +1.336090E+00 +1.274289E+00     +6.061860E+00 +1.336090E+00 +1.274289E+00     +5.835107E-01 +6.701733E-01 +2.399269E-01     +5.835107E-01 +6.701733E-01 +2.399269E-01    
 +2.322279E+00 +1.183578E-01 +5.142279E+00     +3.215650E+00 +1.546719E+00 +1.366820E+00     +4.152540E+00 +3.637894E-01 +2.961279E+00     +4.152540E+00 +3.637894E-01 +2.961279E+00     +4.152540E+00 +3.637894E-01 +2.961279E+00     +2.287620E-01 +8.959333E-01 +4.001450E+00     +1.242140E+00 +6.487214E-01 +2.650963E-01     +1.242140E+00 +6.487214E-01 +2.650963E-01     +1.242140E+00 +6.487214E-01 +2.650963E-01     +5.560235E-01 +9.892072E-01 +3.192029E+00     +5.560235E-01 +9.892072E-01 +3.192029E+00     +5.560235E-01 +9.892072E-01 +3.192029E+00     +5.560235E-01 +9.892072E-01 +3.192029E+00     +1.257470E+00 +2.196211E+00 +1.616730E+00     +1.257470E+00 +2.196211E+00 +1.616730E+00     +1.257470E+00 +2.196211E+00 +1.616730E+00     +1.257470E+00 +2.196211E+00 +1.616730E+00     +1.257470E+00 +2.196211E+00 +1.616730E+00     +2.278807E-01 +1.351590E+00 +4.007510E+00     +2.278807E-01 +1.351590E+00 +4.007510E+00     +2.278807E-01 +1.351590E+00 +4.007510E+00    
 +2.322279E+00 +1.183578E-01 +5.142279E+00     +2.322279E+00 +1.183578E-01 +5.142279E+00     +2.322279E+00 +1.183578E-01 +5.142279E+00     +4.152540E+00 +3.637894E-01 +2.961279E+00     +2.287620E-01 +8.959333E-01 +4.001450E+00     +2.287620E-01 +8.959333E-01 +4.001450E+00     +1.242140E+00 +6.487214E-01 +2.650963E-01     +1.242140E+00 +6.487214E-01 +2.650963E-01     +1.242140E+00 +6.487214E-01 +2.650963E-01     +1.242140E+00 +6.487214E-01 +2.650963E-01     +5.560235E-01 +9.892072E-01 +3.192029E+00     +5.560235E-01 +9.892072E-01 +3.192029E+00     +1.257470E+00 +2.196211E+00 +1.616730E+00     +1.257470E+00 +2.196211E+00 +1.616730E+00     +1.257470E+00 +2.196211E+00 +1.616730E+00     +1.257470E+00 +2.196211E+00 +1.616730E+00     +1.257470E+00 +2.196211E+00 +1.616730E+00     +1.257470E+00 +2.196211E+00 +1.616730E+00     +2.278807E-01 +1.351590E+00 +4.007510E+00     +2.278807E-01 +1.351590E+00 +4.007510E+00     +2.278807E-01 +1.351590E+00 +4.007510E+00    
 +2.322279E+00 +1.183578E-01 +5.142279E+00     +2.322279E+00 +1.183578E-01 +5.142279E+00     +2.322279E+00 +1.183578E-01 +5.142279E+00     +2.322279E+00 +1.183578E-01 +5.142279E+00     +2.287620E-01 +8.959333E-01 +4.001450E+00     +2.287620E-01 +8.959333E-01 +4.001450E+00     +1.242140E+00 +6.487214E-01 +2.650963E-01     +1.242140E+00 +6.487214E-01 +2.650963E-01     +1.242140E+00 +6.487214E-01 +2.650963E-01     +1.242140E+00 +6.487214E-01 +2.650963E-01     +1.257470E+00 +2.196211E+00 +1.616730E+00     +1.257470E+00 +2.196211E+00 +1.616730E+00     +1.257470E+00 +2.196211E+00 +1.616730E+00     +1.257470E+00 +2.196211E+00 +1.616730E+00     +1.257470E+00 +2.196211E+00 +1.616730E+00     +1.257470E+00 +2.196211E+00 +1.616730E+00     +1.257470E+00 +2.196211E+00 +1.616730E+00     +1.257470E+00 +2.196211E+00 +1.616730E+00     +2.278807E-01 +1.351590E+00 +4.007510E+00     +2.278807E-01 +1.351590E+00 +4.007510E+00     +2.278807E-01 +1.351590E+00 +4.007510E+00    
 +2.322279E+00 +1.183578E-01 +5.142279E+00     +2.322279E+00 +1.183578E-01 +5.142279E+00     +2.322279E+00 +1.183578E-01 +5.142279E+00     +2.322279E+00 +1.183578E-01 +5.142279E+00     +2.287620E-01 +8.959333E-01 +4.001450E+00     +2.287620E-01 +8.959333E-01 +4.001450E+00     +1.242140E+00 +6.487214E-01 +2.650963E-01     +1.242140E+00 +6.487214E-01 +2.650963E-01     +1.242140E+00 +6.487214E-01 +2.650963E-01     +1.242140E+00 +6.487214E-01 +2.650963E-01     +1.257470E+00 +2.196211E+00 +1.616730E+00     +1.257470E+00 +2.196211E+00 +1.616730E+00     +1.257470E+00 +2.196211E+00 +1.616730E+00     +1.257470E+00 +2.196211E+00 +1.616730E+00     +1.257470E+00 +2.196211E+00 +1.616730E+00     +1.257470E+00 +2.196211E+00 +1.616730E+00     +1.257470E+00 +2.196211E+00 +1.616730E+00     +1.965630E+00 +2.237580E+00 +1.848070E+00     +1.965630E+00 +2.237580E+00 +1.848070E+00     +1.965630E+00 +2.237580E+00 +1.848070E+00     +1.965630E+00 +2.237580E+00 +1.848070E+00    
 +2.322279E+00 +1.183578E-01 +5.142279E+00     +2.322279E+00 +1.183578E-01 +5.142279E+00     +2.322279E+00 +1.183578E-01 +5.142279E+00     +2.322279E+00 +1.183578E-01 +5.142279E+00     +2.322279E+00 +1.183578E-01 +5.142279E+00     +4.449281E+00 +3.704584E-01 +2.769490E+00     +1.114019E+00 +9.085102E-01 +5.696470E+00     +1.114019E+00 +9.085102E-01 +5.696470E+00     +1.114019E+00 +9.085102E-01 +5.696470E+00     +1.114019E+00 +9.085102E-01 +5.696470E+00     +1.257470E+00 +2.196211E+00 +1.616730E+00     +1.257470E+00 +2.196211E+00 +1.616730E+00     +1.257470E+00 +2.196211E+00 +1.616730E+00     +1.257470E+00 +2.196211E+00 +1.616730E+00     +1.257470E+00 +2.196211E+00 +1.616730E+00     +1.257470E+00 +2.196211E+00 +1.616730E+00     +1.965630E+00 +2.237580E+00 +1.848070E+00     +1.965630E+00 +2.237580E+00 +1.848070E+00     +1.965630E+00 +2.237580E+00 +1.848070E+00     +1.965630E+00 +2.237580E+00 +1.848070E+00     +1.965630E+00 +2.237580E+00 +1.848070E+00    
 +2.322279E+00 +1.183578E-01 +5.142279E+00     +2.322279E+00 +1.183578E-01 +5.142279E+00     +2.322279E+00 +1.183578E-01 +5.142279E+00     +2.322279E+00 +1.183578E-01 +5.142279E+00     +2.322279E+00 +1.183578E-01 +5.142279E+00     +4.449281E+00 +3.704584E-01 +2.769490E+00     +4.449281E+00 +3.704584E-01 +2.769490E+00     +5.804571E+00 +9.694606E-01 +1.866090E+00     +1.114019E+00 +9.085102E-01 +5.696470E+00     +1.114019E+00 +9.085102E-01 +5.696470E+00     +1.257470E+00 +2.196211E+00 +1.616730E+00     +1.257470E+00 +2.196211E+00 +1.616730E+00     +1.257470E+00 +2.196211E+00 +1.616730E+00     +1.257470E+00 +2.196211E+00 +1.616730E+00     +1.257470E+00 +2.196211E+00 +1.616730E+00     +2.105790E+00 +6.473322E-01 +5.527269E+00     +1.965630E+00 +2.237580E+00 +1.848070E+00     +1.965630E+00 +2.237580E+00 +1.848070E+00     +1.965630E+00 +2.237580E+00 +1.848070E+00     +2.538630E+00 +2.996119E-01 +4.839250E+00     +1.965630E+00 +2.237580E+00 +1.848070E+00    
 +2.322279E+00 +1.183578E-01 +5.142279E+00     +2.322279E+00 +1.183578E-01 +5.142279E+00     +2.322279E+00 +1.183578E-01 +5.142279E+00     +2.322279E+00 +1.183578E-01 +5.142279E+00     +2.322279E+00 +1.183578E-01 +5.142279E+00     +4.449281E+00 +3.704584E-01 +2.769490E+00     +4.299280E+00 +9.850045E-01 +2.890799E+00     +4.299280E+00 +9.850045E-01 +2.890799E+00     +4.299280E+00 +9.850045E-01 +2.890799E+00     +6.060300E+00 +2.163990E+00 +1.847630E+00     +6.060300E+00 +2.163990E+00 +1.847630E+00     +2.105790E+00 +6.473322E-01 +5.527269E+00     +2.105790E+00 +6.473322E-01 +5.527269E+00     +2.105790E+00 +6.473322E-01 +5.527269E+00     +2.105790E+00 +6.473322E-01 +5.527269E+00     +2.105790E+00 +6.473322E-01 +5.527269E+00     +2.105790E+00 +6.473322E-01 +5.527269E+00     +1.965630E+00 +2.237580E+00 +1.848070E+00     +1.965630E+00 +2.237580E+00 +1.848070E+00     +1.965630E+00 +2.237580E+00 +1.848070E+00     +1.965630E+00 +2.237580E+00 +1.848070E+00    
 +2.322279E+00 +1.183578E-01 +5.142279E+00     +2.322279E+00 +1.183578E-01 +5.142279E+00     +2.322279E+00 +1.183578E-01 +5.142279E+00     +2.322279E+00 +1.183578E-01 +5.142279E+00     +4.299280E+00 +9.850045E-01 +2.890799E+00     +4.299280E+00 +9.850045E-01 +2.890799E+00     +4.299280E+00 +9.850045E-01 +2.890799E+00     +4.299280E+00 +9.850045E-01 +2.890799E+00     +6.060300E+00 +2.163990E+00 +1.847630E+00     +6.060300E+00 +2.163990E+00 +1.847630E+00     +6.060300E+00 +2.163990E+00 +1.847630E+00     +2.105790E+00 +6.473322E-01 +5.527269E+00     +1.930961E+00 +1.529690E+00 +2.736430E+00     +2.105790E+00 +6.473322E-01 +5.527269E+00     +2.105790E+00 +6.473322E-01 +5.527269E+00     +2.105790E+00 +6.473322E-01 +5.527269E+00     +2.105790E+00 +6.473322E-01 +5.527269E+00     +1.965630E+00 +2.237580E+00 +1.848070E+00     +1.965630E+00 +2.237580E+00 +1.848070E+00     +1.965630E+00 +2.237580E+00 +1.848070E+00     +1.965630E+00 +2.237580E+00 +1.848070E+00    
 +5.041506E-01 +2.354709E+00 +2.561890E+00     +2.322279E+00 +1.183578E-01 +5.142279E+00     +2.322279E+00 +1.183578E-01 +5.142279E+00     +2.322279E+00 +1.183578E-01 +5.142279E+00     +4.299280E+00 +9.850045E-01 +2.890799E+00     +4.299280E+00 +9.850045E-01 +2.890799E+00     +4.299280E+00 +9.850045E-01 +2.890799E+00     +4.299280E+00 +9.850045E-01 +2.890799E+00     +6.060300E+00 +2.163990E+00 +1.847630E+00     +6.060300E+00 +2.163990E+00 +1.847630E+00     +6.060300E+00 +2.163990E+00 +1.847630E+00     +2.105790E+00 +6.473322E-01 +5.527269E+00     +1.930961E+00 +1.529690E+00 +2.736430E+00     +1.930961E+00 +1.529690E+00 +2.736430E+00     +2.105790E+00 +6.473322E-01 +5.527269E+00     +2.105790E+00 +6.473322E-01 +5.527269E+00     +2.105790E+00 +6.473322E-01 +5.527269E+00     +5.041506E-01 +2.354709E+00 +2.561890E+00     +5.041506E-01 +2.354709E+00 +2.561890E+00     +5.041506E-01 +2.354709E+00 +2.561890E+00     +5.041506E-01 +2.354709E+00 +2.561890E+00    
 +5.041506E-01 +2.354709E+00 +2.561890E+00     +5.041506E-01 +2.354709E+00 +2.561890E+00     +2.322279E+00 +1.183578E-01 +5.142279E+00     +4.299280E+00 +9.850045E-01 +2.890799E+00     +4.299280E+00 +9.850045E-01 +2.890799E+00     +4.299280E+00 +9.850045E-01 +2.890799E+00     +4.299280E+00 +9.850045E-01 +2.890799E+00     +4.299280E+00 +9.850045E-01 +2.890799E+00     +6.060300E+00 +2.163990E+00 +1.847630E+00     +6.060300E+00 +2.163990E+00 +1.847630E+00     +6.060300E+00 +2.163990E+00 +1.847630E+00     +2.105790E+00 +6.473322E-01 +5.527269E+00     +1.930961E+00 +1.529690E+00 +2.736430E+00     +1.930961E+00 +1.529690E+00 +2.736430E+00     +2.105790E+00 +6.473322E-01 +5.527269E+00     +2.105790E+00 +6.473322E-01 +5.527269E+00     +2.105790E+00 +6.473322E-01 +5.527269E+00     +5.041506E-01 +2.354709E+00 +2.561890E+00     +5.041506E-01 +2.354709E+00 +2.561890E+00     +5.041506E-01 +2.354709E+00 +2.561890E+00     +5.041506E-01 +2.354709E+00 +2.561890E+00    
 +5.041506E-01 +2.354709E+00 +2.561890E+00     +5.041506E-01 +2.354709E+00 +2.561890E+00     +7.364801E-01 +2.806779E+00 +3.325250E+00     +4.299280E+00 +9.850045E-01 +2.890799E+00     +4.299280E+00 +9.850045E-01 +2.890799E+00     +4.299280E+00 +9.850045E-01 +2.890799E+00     +4.299280E+00 +9.850045E-01 +2.890799E+00     +4.299280E+00 +9.850045E-01 +2.890799E+00     +6.060300E+00 +2.163990E+00 +1.847630E+00     +6.060300E+00 +2.163990E+00 +1.847630E+00     +6.060300E+00 +2.163990E+00 +1.847630E+00     +2.105790E+00 +6.473322E-01 +5.527269E+00     +2.105790E+00 +6.473322E-01 +5.527269E+00     +2.105790E+00 +6.473322E-01 +5.527269E+00     +2.105790E+00 +6.473322E-01 +5.527269E+00     +2.105790E+00 +6.473322E-01 +5.527269E+00     +2.105790E+00 +6.473322E-01 +5.527269E+00     +5.041506E-01 +2.354709E+00 +2.561890E+00     +5.041506E-01 +2.354709E+00 +2.561890E+00     +5.041506E-01 +2.354709E+00 +2.561890E+00     +5.041506E-01 +2.354709E+00 +2.561890E+00    
 +7.364801E-01 +2.806779E+00 +3.325250E+00     +7.364801E-01 +2.806779E+00 +3.325250E+00     +7.364801E-01 +2.806779E+00 +3.325250E+00     +7.364801E-01 +2.806779E+00 +3.325250E+00     +1.914110E+00 +1.422990E+00 +5.496099E+00     +1.914110E+00 +1.422990E+00 +5.496099E+00     +4.299280E+00 +9.850045E-01 +2.890799E+00     +4.299280E+00 +9.850045E-01 +2.890799E+00     +4.299280E+00 +9.850045E-01 +2.890799E+00     +6.060300E+00 +2.163990E+00 +1.847630E+00     +6.060300E+00 +2.163990E+00 +1.847630E+00     +2.105790E+00 +6.473322E-01 +5.527269E+00     +2.105790E+00 +6.473322E-01 +5.527269E+00     +2.105790E+00 +6.473322E-01 +5.527269E+00     +2.105790E+00 +6.473322E-01 +5.527269E+00     +2.105790E+00 +6.473322E-01 +5.527269E+00     +2.105790E+00 +6.473322E-01 +5.527269E+00     +5.041506E-01 +2.354709E+00 +2.561890E+00     +5.041506E-01 +2.354709E+00 +2.561890E+00     +5.041506E-01 +2.354709E+00 +2.561890E+00     +5.041506E-01 +2.354709E+00 +2.561890E+00    
 +7.364801E-01 +2.806779E+00 +3.325250E+00     +7.364801E-01 +2.806779E+00 +3.325250E+00     +7.364801E-01 +2.806779E+00 +3.325250E+00     +7.364801E-01 +2.806779E+00 +3.325250E+00     +1.914110E+00 +1.422990E+00 +5.496099E+00     +1.914110E+00 +1.422990E+00 +5.496099E+00     +1.914110E+00 +1.422990E+00 +5.496099E+00     +5.157350E+00 +1.765779E+00 +1.156281E+00     +4.299280E+00 +9.850045E-01 +2.890799E+00     +3.758950E+00 +1.131211E+00 +3.495980E+00     +3.758950E+00 +1.131211E+00 +3.495980E+00     +2.105790E+00 +6.473322E-01 +5.527269E+00     +2.105790E+00 +6.473322E-01 +5.527269E+00     +2.105790E+00 +6.473322E-01 +5.527269E+00     +2.105790E+00 +6.473322E-01 +5.527269E+00     +2.105790E+00 +6.473322E-01 +5.527269E+00     +2.105790E+00 +6.473322E-01 +5.527269E+00     +5.041506E-01 +2.354709E+00 +2.561890E+00     +5.041506E-01 +2.354709E+00 +2.561890E+00     +5.041506E-01 +2.354709E+00 +2.561890E+00     +5.041506E-01 +2.354709E+00 +2.561890E+00    
 +7.364801E-01 +2.806779E+00 +3.325250E+00     +7.364801E-01 +2.806779E+00 +3.325250E+00     +7.364801E-01 +2.806779E+00 +3.325250E+00     +7.364801E-01 +2.806779E+00 +3.325250E+00     +7.364801E-01 +2.806779E+00 +3.325250E+00     +1.914110E+00 +1.422990E+00 +5.496099E+00     +5.157350E+00 +1.765779E+00 +1.156281E+00     +5.157350E+00 +1.765779E+00 +1.156281E+00     +3.758950E+00 +1.131211E+00 +3.495980E+00     +3.758950E+00 +1.131211E+00 +3.495980E+00     +3.758950E+00 +1.131211E+00 +3.495980E+00     +3.758950E+00 +1.131211E+00 +3.495980E+00     +3.758950E+00 +1.131211E+00 +3.495980E+00     +6.194441E+00 +4.528937E-01 +4.405160E+00     +6.194441E+00 +4.528937E-01 +4.405160E+00     +2.105790E+00 +6.473322E-01 +5.527269E+00     +2.105790E+00 +6.473322E-01 +5.527269E+00     +2.075921E+00 +5.109731E-01 +4.872919E+00     +5.835107E-01 +6.701733E-01 +2.399269E-01     +5.835107E-01 +6.701733E-01 +2.399269E-01     +5.835107E-01 +6.701733E-01 +2.399269E-01    
 +5.835107E-01 +6.701733E-01 +2.399269E-01     +7.364801E-01 +2.806779E+00 +3.325250E+00     +7.364801E-01 +2.806779E+00 +3.325250E+00     +1.458450E+00 +1.405009E+00 +2.669589E+00     +1.458450E+00 +1.405009E+00 +2.669589E+00     +1.458450E+00 +1.405009E+00 +2.669589E+00     +3.758950E+00 +1.131211E+00 +3.495980E+00     +3.758950E+00 +1.131211E+00 +3.495980E+00     +3.758950E+00 +1.131211E+00 +3.495980E+00     +3.758950E+00 +1.131211E+00 +3.495980E+00     +3.758950E+00 +1.131211E+00 +3.495980E+00     +3.758950E+00 +1.131211E+00 +3.495980E+00     +3.758950E+00 +1.131211E+00 +3.495980E+00     +1.447506E-01 +7.757657E-01 +9.525362E-01     +1.447506E-01 +7.757657E-01 +9.525362E-01     +2.045610E+00 +1.109190E+00 +5.290170E+00     +2.045610E+00 +1.109190E+00 +5.290170E+00     +5.835107E-01 +6.701733E-01 +2.399269E-01     +5.835107E-01 +6.701733E-01 +2.399269E-01     +5.835107E-01 +6.701733E-01 +2.399269E-01     +5.835107E-01 +6.701733E-01 +2.399269E-01    
 +5.835107E-01 +6.701733E-01 +2.399269E-01     +5.835107E-01 +6.701733E-01 +2.399269E-01     +1.458450E+00 +1.405009E+00 +2.669589E+00     +1.458450E+00 +1.405009E+00 +2.669589E+00     +1.458450E+00 +1.405009E+00 +2.669589E+00     +1.458450E+00 +1.405009E+00 +2.669589E+00     +3.758950E+00 +1.131211E+00 +3.495980E+00     +3.758950E+00 +1.131211E+00 +3.495980E+00     +3.758950E+00 +1.131211E+00 +3.495980E+00     +3.758950E+00 +1.131211E+00 +3.495980E+00     +3.758950E+00 +1.131211E+00 +3.495980E+00     +3.758950E+00 +1.131211E+00 +3.495980E+00     +3.758950E+00 +1.131211E+00 +3.495980E+00     +1.447506E-01 +7.757657E-01 +9.525362E-01     +1.447506E-01 +7.757657E-01 +9.525362E-01     +2.045610E+00 +1.109190E+00 +5.290170E+00     +2.045610E+00 +1.109190E+00 +5.290170E+00     +5.835107E-01 +6.701733E-01 +2.399269E-01     +5.835107E-01 +6.701733E-01 +2.399269E-01     +5.835107E-01 +6.701733E-01 +2.399269E-01     +5.835107E-01 +6.701733E-01 +2.399269E-01    
 +5.835107E-01 +6.701733E-01 +2.399269E-01     +5.835107E-01 +6.701733E-01 +2.399269E-01     +1.458450E+00 +1.405009E+00 +2.669589E+00     +1.458450E+00 +1.405009E+00 +2.669589E+00     +1.458450E+00 +1.405009E+00 +2.669589E+00     +6.950512E-01 +1.125559E+00 +6.052470E-01     +3.758950E+00 +1.131211E+00 +3.495980E+00     +3.758950E+00 +1.131211E+00 +3.495980E+00     +3.758950E+00 +1.131211E+00 +3.495980E+00     +3.758950E+00 +1.131211E+00 +3.495980E+00     +3.758950E+00 +1.131211E+00 +3.495980E+00     +5.053200E+00 +2.278360E+00 +8.272494E-01     +5.053200E+00 +2.278360E+00 +8.272494E-01     +1.447506E-01 +7.757657E-01 +9.525362E-01     +1.447506E-01 +7.757657E-01 +9.525362E-01     +2.045610E+00 +1.109190E+00 +5.290170E+00     +4.440599E+00 +1.314250E+00 +3.000511E+00     +4.440599E+00 +1.314250E+00 +3.000511E+00     +4.440599E+00 +1.314250E+00 +3.000511E+00     +5.835107E-01 +6.701733E-01 +2.399269E-01     +5.835107E-01 +6.701733E-01 +2.399269E-01    
 +5.835107E-01 +6.701733E-01 +2.399269E-01     +5.835107E-01 +6.701733E-01 +2.399269E-01     +3.215650E+00 +1.546719E+00 +1.366820E+00     +3.215650E+00 +1.546719E+00 +1.366820E+00     +6.950512E-01 +1.125559E+00 +6.052470E-01     +6.950512E-01 +1.125559E+00 +6.052470E-01     +6.950512E-01 +1.125559E+00 +6.052470E-01     +3.758950E+00 +1.131211E+00 +3.495980E+00     +3.758950E+00 +1.131211E+00 +3.495980E+00     +3.758950E+00 +1.131211E+00 +3.495980E+00     +5.053200E+00 +2.278360E+00 +8.272494E-01     +5.053200E+00 +2.278360E+00 +8.272494E-01     +5.053200E+00 +2.278360E+00 +8.272494E-01     +1.211759E+00 +3.141589E+00 +1.492600E+00     +1.211759E+00 +3.141589E+00 +1.492600E+00     +4.440599E+00 +1.314250E+00 +3.000511E+00     +4.440599E+00 +1.314250E+00 +3.000511E+00     +4.440599E+00 +1.314250E+00 +3.000511E+00     +4.440599E+00 +1.314250E+00 +3.000511E+00     +5.835107E-01 +6.701733E-01 +2.399269E-01     +5.835107E-01 +6.701733E-01 +2.399269E-01    
 +5.835107E-01 +6.701733E-01 +2.399269E-01     +5.835107E-01 +6.701733E-01 +2.399269E-01     +3.215650E+00 +1.546719E+00 +1.366820E+00     +3.215650E+00 +1.546719E+00 +1.366820E+00     +3.215650E+00 +1.546719E+00 +1.366820E+00     +6.950512E-01 +1.125559E+00 +6.052470E-01     +6.950512E-01 +1.125559E+00 +6.052470E-01     +3.758950E+00 +1.131211E+00 +3.495980E+00     +3.758950E+00 +1.131211E+00 +3.495980E+00     +3.758950E+00 +1.131211E+00 +3.495980E+00     +5.053200E+00 +2.278360E+00 +8.272494E-01     +5.053200E+00 +2.278360E+00 +8.272494E-01     +5.053200E+00 +2.278360E+00 +8.272494E-01     +5.354831E+00 +7.510396E-01 +2.302220E+00     +5.354831E+00 +7.510396E-01 +2.302220E+00     +4.440599E+00 +1.314250E+00 +3.000511E+00     +4.440599E+00 +1.314250E+00 +3.000511E+00     +4.440599E+00 +1.314250E+00 +3.000511E+00     +4.440599E+00 +1.314250E+00 +3.000511E+00     +5.835107E-01 +6.701733E-01 +2.399269E-01     +5.835107E-01 +6.701733E-01 +2.399269E-01    
 +5.835107E-01 +6.701733E-01 +2.399269E-01     +3.215650E+00 +1.546719E+00 +1.366820E+00     +3.215650E+00 +1.546719E+00 +1.366820E+00     +3.281540E+00 +1.465940E+00 +4.276310E+00     +3.215650E+00 +1.546719E+00 +1.366820E+00     +3.215650E+00 +1.546719E+00 +1.366820E+00     +7.809755E-01 +1.321310E+00 +6.078340E+00     +7.809755E-01 +1.321310E+00 +6.078340E+00     +7.809755E-01 +1.321310E+00 +6.078340E+00     +5.560235E-01 +9.892072E-01 +3.192029E+00     +5.560235E-01 +9.892072E-01 +3.192029E+00     +7.390335E-01 +1.618220E+00 +1.758470E+00     +5.354831E+00 +7.510396E-01 +2.302220E+00     +5.354831E+00 +7.510396E-01 +2.302220E+00     +5.354831E+00 +7.510396E-01 +2.302220E+00     +4.440599E+00 +1.314250E+00 +3.000511E+00     +4.440599E+00 +1.314250E+00 +3.000511E+00     +4.440599E+00 +1.314250E+00 +3.000511E+00     +4.440599E+00 +1.314250E+00 +3.000511E+00     +5.835107E-01 +6.701733E-01 +2.399269E-01     +5.835107E-01 +6.701733E-01 +2.399269E-01    
 +3.215650E+00 +1.546719E+00 +1.366820E+00     +3.215650E+00 +1.546719E+00 +1.366820E+00     +3.215650E+00 +1.546719E+00 +1.366820E+00     +3.215650E+00 +1.546719E+00 +1.366820E+00     +3.215650E+00 +1.546719E+00 +1.366820E+00     +3.215650E+00 +1.546719E+00 +1.366820E+00     +3.215650E+00 +1.546719E+00 +1.366820E+00     +7.809755E-01 +1.321310E+00 +6.078340E+00     +5.560235E-01 +9.892072E-01 +3.192029E+00     +5.560235E-01 +9.892072E-01 +3.192029E+00     +5.560235E-01 +9.892072E-01 +3.192029E+00     +5.560235E-01 +9.892072E-01 +3.192029E+00     +5.560235E-01 +9.892072E-01 +3.192029E+00     +5.560235E-01 +9.892072E-01 +3.192029E+00     +1.257470E+00 +2.196211E+00 +1.616730E+00     +1.224610E+00 +1.377710E+00 +3.225890E+00     +1.224610E+00 +1.377710E+00 +3.225890E+00     +1.224610E+00 +1.377710E+00 +3.225890E+00     +4.440599E+00 +1.314250E+00 +3.000511E+00     +5.835107E-01 +6.701733E-01 +2.399269E-01     +5.835107E-01 +6.701733E-01 +2.399269E-01    
 +2.072921E+00 +2.692690E+00 +2.495990E+00     +3.215650E+00 +1.546719E+00 +1.366820E+00     +4.152540E+00 +3.637894E-01 +2.961279E+00     +4.506899E+00 +1.473110E+00 +3.913939E+00     +4.152540E+00 +3.637894E-01 +2.961279E+00     +3.215650E+00 +1.546719E+00 +1.366820E+00     +1.242140E+00 +6.487214E-01 +2.650963E-01     +1.242140E+00 +6.487214E-01 +2.650963E-01     +1.242140E+00 +6.487214E-01 +2.650963E-01     +5.560235E-01 +9.892072E-01 +3.192029E+00     +5.560235E-01 +9.892072E-01 +3.192029E+00     +5.560235E-01 +9.892072E-01 +3.192029E+00     +5.560235E-01 +9.892072E-01 +3.192029E+00     +5.560235E-01 +9.892072E-01 +3.192029E+00     +1.257470E+00 +2.196211E+00 +1.616730E+00     +1.257470E+00 +2.196211E+00 +1.616730E+00     +1.224610E+00 +1.377710E+00 +3.225890E+00     +2.278807E-01 +1.351590E+00 +4.007510E+00     +2.278807E-01 +1.351590E+00 +4.007510E+00     +2.278807E-01 +1.351590E+00 +4.007510E+00     +2.278807E-01 +1.351590E+00 +4.007510E+00    
 +2.072921E+00 +2.692690E+00 +2.495990E+00     +2.072921E+00 +2.692690E+00 +2.495990E+00     +4.152540E+00 +3.637894E-01 +2.961279E+00     +4.152540E+00 +3.637894E-01 +2.961279E+00     +4.152540E+00 +3.637894E-01 +2.961279E+00     +2.287620E-01 +8.959333E-01 +4.001450E+00     +1.242140E+00 +6.487214E-01 +2.650963E-01     +6.031421E-01 +1.663569E+00 +2.653550E+00     +1.114019E+00 +9.085102E-01 +5.696470E+00     +5.560235E-01 +9.892072E-01 +3.192029E+00     +5.560235E-01 +9.892072E-01 +3.192029E+00     +5.560235E-01 +9.892072E-01 +3.192029E+00     +5.560235E-01 +9.892072E-01 +3.192029E+00     +1.257470E+00 +2.196211E+00 +1.616730E+00     +1.257470E+00 +2.196211E+00 +1.616730E+00     +1.257470E+00 +2.196211E+00 +1.616730E+00     +1.257470E+00 +2.196211E+00 +1.616730E+00     +2.278807E-01 +1.351590E+00 +4.007510E+00     +2.278807E-01 +1.351590E+00 +4.007510E+00     +2.278807E-01 +1.351590E+00 +4.007510E+00     +2.278807E-01 +1.351590E+00 +4.007510E+00    
 +2.322279E+00 +1.183578E-01 +5.142279E+00     +2.322279E+00 +1.183578E-01 +5.142279E+00     +2.322279E+00 +1.183578E-01 +5.142279E+00     +4.152540E+00 +3.637894E-01 +2.961279E+00     +2.287620E-01 +8.959333E-01 +4.001450E+00     +2.287620E-01 +8.959333E-01 +4.001450E+00     +6.031421E-01 +1.663569E+00 +2.653550E+00     +6.031421E-01 +1.663569E+00 +2.653550E+00     +6.031421E-01 +1.663569E+00 +2.653550E+00     +1.114019E+00 +9.085102E-01 +5.696470E+00     +5.560235E-01 +9.892072E-01 +3.192029E+00     +1.257470E+00 +2.196211E+00 +1.616730E+00     +1.257470E+00 +2.196211E+00 +1.616730E+00     +1.257470E+00 +2.196211E+00 +1.616730E+00     +1.257470E+00 +2.196211E+00 +1.616730E+00     +1.257470E+00 +2.196211E+00 +1.616730E+00     +1.257470E+00 +2.196211E+00 +1.616730E+00     +2.278807E-01 +1.351590E+00 +4.007510E+00     +2.278807E-01 +1.351590E+00 +4.007510E+00     +2.278807E-01 +1.351590E+00 +4.007510E+00     +2.278807E-01 +1.351590E+00 +4.007510E+00    
 +2.322279E+00 +1.183578E-01 +5.142279E+00     +2.322279E+00 +1.183578E-01 +5.142279E+00     +2.322279E+00 +1.183578E-01 +5.142279E+00     +2.322279E+00 +1.183578E-01 +5.142279E+00     +2.287620E-01 +8.959333E-01 +4.001450E+00     +2.287620E-01 +8.959333E-01 +4.001450E+00     +1.114019E+00 +9.085102E-01 +5.696470E+00     +6.031421E-01 +1.663569E+00 +2.653550E+00     +1.114019E+00 +9.085102E-01 +5.696470E+00     +1.114019E+00 +9.085102E-01 +5.696470E+00     +1.257470E+00 +2.196211E+00 +1.616730E+00     +1.257470E+00 +2.196211E+00 +1.616730E+00     +1.257470E+00 +2.196211E+00 +1.616730E+00     +1.257470E+00 +2.196211E+00 +1.616730E+00     +1.257470E+00 +2.196211E+00 +1.616730E+00     +1.257470E+00 +2.196211E+00 +1.616730E+00     +1.257470E+00 +2.196211E+00 +1.616730E+00     +1.965630E+00 +2.237580E+00 +1.848070E+00     +2.278807E-01 +1.351590E+00 +4.007510E+00     +2.278807E-01 +1.351590E+00 +4.007510E+00     +1.965630E+00 +2.237580E+00 +1.848070E+00    
 +2.322279E+00 +1.183578E-01 +5.142279E+00     +2.322279E+00 +1.183578E-01 +5.142279E+00     +2.322279E+00 +1.183578E-01 +5.142279E+00     +2.322279E+00 +1.183578E-01 +5.142279E+00     +1.865129E-01 +4.469998E-01 +4.307549E+00     +1.865129E-01 +4.469998E-01 +4.307549E+00     +1.114019E+00 +9.085102E-01 +5.696470E+00     +1.114019E+00 +9.085102E-01 +5.696470E+00     +1.114019E+00 +9.085102E-01 +5.696470E+00     +1.114019E+00 +9.085102E-01 +5.696470E+00     +1.114019E+00 +9.085102E-01 +5.696470E+00     +1.257470E+00 +2.196211E+00 +1.616730E+00     +1.257470E+00 +2.196211E+00 +1.616730E+00     +1.257470E+00 +2.196211E+00 +1.616730E+00     +1.257470E+00 +2.196211E+00 +1.616730E+00     +3.881970E+00 +6.810327E-01 +3.088199E+00     +3.881970E+00 +6.810327E-01 +3.088199E+00     +1.965630E+00 +2.237580E+00 +1.848070E+00     +1.965630E+00 +2.237580E+00 +1.848070E+00     +1.965630E+00 +2.237580E+00 +1.848070E+00     +1.965630E+00 +2.237580E+00 +1.848070E+00    
 +2.322279E+00 +1.183578E-01 +5.142279E+00     +2.322279E+00 +1.183578E-01 +5.142279E+00     +2.322279E+00 +1.183578E-01 +5.142279E+00     +2.322279E+00 +1.183578E-01 +5.142279E+00     +1.865129E-01 +4.469998E-01 +4.307549E+00     +1.865129E-01 +4.469998E-01 +4.307549E+00     +1.865129E-01 +4.469998E-01 +4.307549E+00     +1.114019E+00 +9.085102E-01 +5.696470E+00     +1.114019E+00 +9.085102E-01 +5.696470E+00     +1.114019E+00 +9.085102E-01 +5.696470E+00     +1.114019E+00 +9.085102E-01 +5.696470E+00     +1.257470E+00 +2.196211E+00 +1.616730E+00     +1.257470E+00 +2.196211E+00 +1.616730E+00     +2.105790E+00 +6.473322E-01 +5.527269E+00     +2.105790E+00 +6.473322E-01 +5.527269E+00     +3.881970E+00 +6.810327E-01 +3.088199E+00     +3.881970E+00 +6.810327E-01 +3.088199E+00     +3.881970E+00 +6.810327E-01 +3.088199E+00     +1.965630E+00 +2.237580E+00 +1.848070E+00     +2.538630E+00 +2.996119E-01 +4.839250E+00     +1.965630E+00 +2.237580E+00 +1.848070E+00    
 +2.322279E+00 +1.183578E-01 +5.142279E+00     +2.322279E+00 +1.183578E-01 +5.142279E+00     +2.322279E+00 +1.183578E-01 +5.142279E+00     +2.322279E+00 +1.183578E-01 +5.142279E+00     +1.865129E-01 +4.469998E-01 +4.307549E+00     +1.865129E-01 +4.469998E-01 +4.307549E+00     +1.865129E-01 +4.469998E-01 +4.307549E+00     +6.060300E+00 +2.163990E+00 +1.847630E+00     +6.060300E+00 +2.163990E+00 +1.847630E+00     +6.060300E+00 +2.163990E+00 +1.847630E+00     +6.060300E+00 +2.163990E+00 +1.847630E+00     +2.105790E+00 +6.473322E-01 +5.527269E+00     +2.105790E+00 +6.473322E-01 +5.527269E+00     +2.105790E+00 +6.473322E-01 +5.527269E+00     +2.105790E+00 +6.473322E-01 +5.527269E+00     +2.105790E+00 +6.473322E-01 +5.527269E+00     +3.881970E+00 +6.810327E-01 +3.088199E+00     +3.881970E+00 +6.810327E-01 +3.088199E+00     +1.965630E+00 +2.237580E+00 +1.848070E+00     +1.965630E+00 +2.237580E+00 +1.848070E+00     +1.965630E+00 +2.237580E+00 +1.848070E+00    
 +5.041506E-01 +2.354709E+00 +2.561890E+00     +2.322279E+00 +1.183578E-01 +5.142279E+00     +2.322279E+00 +1.183578E-01 +5.142279E+00     +1.198790E+00 +2.438080E+00 +8.100614E-01     +1.198790E+00 +2.438080E+00 +8.100614E-01     +4.299280E+00 +9.850045E-01 +2.890799E+00     +4.299280E+00 +9.850045E-01 +2.890799E+00     +6.060300E+00 +2.163990E+00 +1.847630E+00     +6.060300E+00 +2.163990E+00 +1.847630E+00     +6.060300E+00 +2.163990E+00 +1.847630E+00     +6.060300E+00 +2.163990E+00 +1.847630E+00     +2.105790E+00 +6.473322E-01 +5.527269E+00     +2.105790E+00 +6.473322E-01 +5.527269E+00     +2.105790E+00 +6.473322E-01 +5.527269E+00     +2.105790E+00 +6.473322E-01 +5.527269E+00     +2.105790E+00 +6.473322E-01 +5.527269E+00     +2.105790E+00 +6.473322E-01 +5.527269E+00     +5.041506E-01 +2.354709E+00 +2.561890E+00     +5.041506E-01 +2.354709E+00 +2.561890E+00     +5.041506E-01 +2.354709E+00 +2.561890E+00     +5.041506E-01 +2.354709E+00 +2.561890E+00    
 +5.041506E-01 +2.354709E+00 +2.561890E+00     +5.041506E-01 +2.354709E+00 +2.561890E+00     +1.198790E+00 +2.438080E+00 +8.100614E-01     +1.198790E+00 +2.438080E+00 +8.100614E-01     +6.237170E+00 +1.034020E+00 +5.949609E+00     +6.237170E+00 +1.034020E+00 +5.949609E+00     +4.299280E+00 +9.850045E-01 +2.890799E+00     +6.060300E+00 +2.163990E+00 +1.847630E+00     +6.060300E+00 +2.163990E+00 +1.847630E+00     +6.060300E+00 +2.163990E+00 +1.847630E+00     +6.060300E+00 +2.163990E+00 +1.847630E+00     +2.105790E+00 +6.473322E-01 +5.527269E+00     +1.930961E+00 +1.529690E+00 +2.736430E+00     +1.930961E+00 +1.529690E+00 +2.736430E+00     +2.105790E+00 +6.473322E-01 +5.527269E+00     +2.105790E+00 +6.473322E-01 +5.527269E+00     +2.105790E+00 +6.473322E-01 +5.527269E+00     +5.041506E-01 +2.354709E+00 +2.561890E+00     +5.041506E-01 +2.354709E+00 +2.561890E+00     +5.041506E-01 +2.354709E+00 +2.561890E+00     +5.041506E-01 +2.354709E+00 +2.561890E+00    
 +5.041506E-01 +2.354709E+00 +2.561890E+00     +5.041506E-01 +2.354709E+00 +2.561890E+00     +1.198790E+00 +2.438080E+00 +8.100614E-01     +6.237170E+00 +1.034020E+00 +5.949609E+00     +6.237170E+00 +1.034020E+00 +5.949609E+00     +6.237170E+00 +1.034020E+00 +5.949609E+00     +4.299280E+00 +9.850045E-01 +2.890799E+00     +6.060300E+00 +2.163990E+00 +1.847630E+00     +6.060300E+00 +2.163990E+00 +1.847630E+00     +6.060300E+00 +2.163990E+00 +1.847630E+00     +6.060300E+00 +2.163990E+00 +1.847630E+00     +2.105790E+00 +6.473322E-01 +5.527269E+00     +2.105790E+00 +6.473322E-01 +5.527269E+00     +1.930961E+00 +1.529690E+00 +2.736430E+00     +2.105790E+00 +6.473322E-01 +5.527269E+00     +2.105790E+00 +6.473322E-01 +5.527269E+00     +2.105790E+00 +6.473322E-01 +5.527269E+00     +5.041506E-01 +2.354709E+00 +2.561890E+00     +5.041506E-01 +2.354709E+00 +2.561890E+00     +5.041506E-01 +2.354709E+00 +2.561890E+00     +5.041506E-01 +2.354709E+00 +2.561890E+00    
 +5.041506E-01 +2.354709E+00 +2.561890E+00     +5.041506E-01 +2.354709E+00 +2.561890E+00     +7.364801E-01 +2.806779E+00 +3.325250E+00     +1.914110E+00 +1.422990E+00 +5.496099E+00     +1.914110E+00 +1.422990E+00 +5.496099E+00     +1.914110E+00 +1.422990E+00 +5.496099E+00     +1.914110E+00 +1.422990E+00 +5.496099E+00     +4.299280E+00 +9.850045E-01 +2.890799E+00     +6.060300E+00 +2.163990E+00 +1.847630E+00     +6.060300E+00 +2.163990E+00 +1.847630E+00     +6.060300E+00 +2.163990E+00 +1.847630E+00     +2.105790E+00 +6.473322E-01 +5.527269E+00     +2.105790E+00 +6.473322E-01 +5.527269E+00     +2.105790E+00 +6.473322E-01 +5.527269E+00     +2.105790E+00 +6.473322E-01 +5.527269E+00     +2.105790E+00 +6.473322E-01 +5.527269E+00     +2.105790E+00 +6.473322E-01 +5.527269E+00     +5.041506E-01 +2.354709E+00 +2.561890E+00     +5.041506E-01 +2.354709E+00 +2.561890E+00     +5.041506E-01 +2.354709E+00 +2.561890E+00     +5.041506E-01 +2.354709E+00 +2.561890E+00    
 +7.364801E-01 +2.806779E+00 +3.325250E+00     +7.364801E-01 +2.806779E+00 +3.325250E+00     +7.364801E-01 +2.806779E+00 +3.325250E+00     +7.364801E-01 +2.806779E+00 +3.325250E+00     +1.914110E+00 +1.422990E+00 +5.496099E+00     +1.914110E+00 +1.422990E+00 +5.496099E+00     +1.914110E+00 +1.422990E+00 +5.496099E+00     +1.914110E+00 +1.422990E+00 +5.496099E+00     +6.060300E+00 +2.163990E+00 +1.847630E+00     +6.060300E+00 +2.163990E+00 +1.847630E+00     +6.060300E+00 +2.163990E+00 +1.847630E+00     +2.105790E+00 +6.473322E-01 +5.527269E+00     +2.105790E+00 +6.473322E-01 +5.527269E+00     +2.105790E+00 +6.473322E-01 +5.527269E+00     +2.105790E+00 +6.473322E-01 +5.527269E+00     +2.105790E+00 +6.473322E-01 +5.527269E+00     +2.105790E+00 +6.473322E-01 +5.527269E+00     +5.041506E-01 +2.354709E+00 +2.561890E+00     +5.041506E-01 +2.354709E+00 +2.561890E+00     +5.041506E-01 +2.354709E+00 +2.561890E+00     +5.041506E-01 +2.354709E+00 +2.561890E+00    
 +7.364801E-01 +2.806779E+00 +3.325250E+00     +7.364801E-01 +2.806779E+00 +3.325250E+00     +7.364801E-01 +2.806779E+00 +3.325250E+00     +7.364801E-01 +2.806779E+00 +3.325250E+00     +1.914110E+00 +1.422990E+00 +5.496099E+00     +1.914110E+00 +1.422990E+00 +5.496099E+00     +1.914110E+00 +1.422990E+00 +5.496099E+00     +5.157350E+00 +1.765779E+00 +1.156281E+00     +5.157350E+00 +1.765779E+00 +1.156281E+00     +3.758950E+00 +1.131211E+00 +3.495980E+00     +3.758950E+00 +1.131211E+00 +3.495980E+00     +3.758950E+00 +1.131211E+00 +3.495980E+00     +2.105790E+00 +6.473322E-01 +5.527269E+00     +2.105790E+00 +6.473322E-01 +5.527269E+00     +2.105790E+00 +6.473322E-01 +5.527269E+00     +2.105790E+00 +6.473322E-01 +5.527269E+00     +2.105790E+00 +6.473322E-01 +5.527269E+00     +5.041506E-01 +2.354709E+00 +2.561890E+00     +5.041506E-01 +2.354709E+00 +2.561890E+00     +4.824010E+00 +8.755496E-01 +5.217430E+00     +5.041506E-01 +2.354709E+00 +2.561890E+00    
 +7.364801E-01 +2.806779E+00 +3.325250E+00     +7.364801E-01 +2.806779E+00 +3.325250E+00     +7.364801E-01 +2.806779E+00 +3.325250E+00     +7.364801E-01 +2.806779E+00 +3.325250E+00     +1.914110E+00 +1.422990E+00 +5.496099E+00     +1.914110E+00 +1.422990E+00 +5.496099E+00     +5.157350E+00 +1.765779E+00 +1.156281E+00     +5.157350E+00 +1.765779E+00 +1.156281E+00     +3.758950E+00 +1.131211E+00 +3.495980E+00     +3.758950E+00 +1.131211E+00 +3.495980E+00     +3.758950E+00 +1.131211E+00 +3.495980E+00     +3.758950E+00 +1.131211E+00 +3.495980E+00     +3.758950E+00 +1.131211E+00 +3.495980E+00     +2.105790E+00 +6.473322E-01 +5.527269E+00     +2.105790E+00 +6.473322E-01 +5.527269E+00     +2.105790E+00 +6.473322E-01 +5.527269E+00     +2.105790E+00 +6.473322E-01 +5.527269E+00     +4.824010E+00 +8.755496E-01 +5.217430E+00     +4.824010E+00 +8.755496E-01 +5.217430E+00     +4.824010E+00 +8.755496E-01 +5.217430E+00     +4.824010E+00 +8.755496E-01 +5.217430E+00    
 +5.835107E-01 +6.701733E-01 +2.399269E-01     +7.364801E-01 +2.806779E+00 +3.325250E+00     +7.364801E-01 +2.806779E+00 +3.325250E+00     +7.364801E-01 +2.806779E+00 +3.325250E+00     +1.914110E+00 +1.422990E+00 +5.496099E+00     +5.157350E+00 +1.765779E+00 +1.156281E+00     +5.157350E+00 +1.765779E+00 +1.156281E+00     +5.157350E+00 +1.765779E+00 +1.156281E+00     +3.758950E+00 +1.131211E+00 +3.495980E+00     +3.758950E+00 +1.131211E+00 +3.495980E+00     +3.758950E+00 +1.131211E+00 +3.495980E+00     +3.758950E+00 +1.131211E+00 +3.495980E+00     +3.758950E+00 +1.131211E+00 +3.495980E+00     +3.758950E+00 +1.131211E+00 +3.495980E+00     +1.447506E-01 +7.757657E-01 +9.525362E-01     +2.045610E+00 +1.109190E+00 +5.290170E+00     +4.440599E+00 +1.314250E+00 +3.000511E+00     +5.835107E-01 +6.701733E-01 +2.399269E-01     +5.835107E-01 +6.701733E-01 +2.399269E-01     +5.835107E-01 +6.701733E-01 +2.399269E-01     +5.835107E-01 +6.701733E-01 +2.399269E-01    
 +5.835107E-01 +6.701733E-01 +2.399269E-01     +5.835107E-01 +6.701733E-01 +2.399269E-01     +1.458450E+00 +1.405009E+00 +2.669589E+00     +1.458450E+00 +1.405009E+00 +2.669589E+00     +1.458450E+00 +1.405009E+00 +2.669589E+00     +6.950512E-01 +1.125559E+00 +6.052470E-01     +3.758950E+00 +1.131211E+00 +3.495980E+00     +3.758950E+00 +1.131211E+00 +3.495980E+00     +3.758950E+00 +1.131211E+00 +3.495980E+00     +3.758950E+00 +1.131211E+00 +3.495980E+00     +3.758950E+00 +1.131211E+00 +3.495980E+00     +3.758950E+00 +1.131211E+00 +3.495980E+00     +3.758950E+00 +1.131211E+00 +3.495980E+00     +3.758950E+00 +1.131211E+00 +3.495980E+00     +1.447506E-01 +7.757657E-01 +9.525362E-01     +2.045610E+00 +1.109190E+00 +5.290170E+00     +4.440599E+00 +1.314250E+00 +3.000511E+00     +5.835107E-01 +6.701733E-01 +2.399269E-01     +5.835107E-01 +6.701733E-01 +2.399269E-01     +5.835107E-01 +6.701733E-01 +2.399269E-01     +5.835107E-01 +6.701733E-01 +2.399269E-01    
 +5.835107E-01 +6.701733E-01 +2.399269E-01     +5.835107E-01 +6.701733E-01 +2.399269E-01     +5.433811E+00 +1.679949E+00 +5.185890E+00     +1.458450E+00 +1.405009E+00 +2.669589E+00     +6.950512E-01 +1.125559E+00 +6.052470E-01     +6.950512E-01 +1.125559E+00 +6.052470E-01     +6.950512E-01 +1.125559E+00 +6.052470E-01     +3.758950E+00 +1.131211E+00 +3.495980E+00     +3.758950E+00 +1.131211E+00 +3.495980E+00     +3.758950E+00 +1.131211E+00 +3.495980E+00     +3.758950E+00 +1.131211E+00 +3.495980E+00     +3.758950E+00 +1.131211E+00 +3.495980E+00     +1.521451E+00 +2.460431E+00 +1.499360E+00     +1.521451E+00 +2.460431E+00 +1.499360E+00     +1.521451E+00 +2.460431E+00 +1.499360E+00     +4.440599E+00 +1.314250E+00 +3.000511E+00     +4.440599E+00 +1.314250E+00 +3.000511E+00     +4.440599E+00 +1.314250E+00 +3.000511E+00     +2.013930E+00 +1.089689E+00 +4.875490E+00     +5.835107E-01 +6.701733E-01 +2.399269E-01     +5.835107E-01 +6.701733E-01 +2.399269E-01    
 +5.835107E-01 +6.701733E-01 +2.399269E-01     +5.835107E-01 +6.701733E-01 +2.399269E-01     +5.433811E+00 +1.679949E+00 +5.185890E+00     +6.950512E-01 +1.125559E+00 +6.052470E-01     +6.950512E-01 +1.125559E+00 +6.052470E-01     +6.950512E-01 +1.125559E+00 +6.052470E-01     +6.950512E-01 +1.125559E+00 +6.052470E-01     +3.758950E+00 +1.131211E+00 +3.495980E+00     +3.758950E+00 +1.131211E+00 +3.495980E+00     +3.758950E+00 +1.131211E+00 +3.495980E+00     +3.758950E+00 +1.131211E+00 +3.495980E+00     +5.053200E+00 +2.278360E+00 +8.272494E-01     +1.521451E+00 +2.460431E+00 +1.499360E+00     +1.521451E+00 +2.460431E+00 +1.499360E+00     +1.521451E+00 +2.460431E+00 +1.499360E+00     +4.440599E+00 +1.314250E+00 +3.000511E+00     +4.440599E+00 +1.314250E+00 +3.000511E+00     +4.440599E+00 +1.314250E+00 +3.000511E+00     +2.013930E+00 +1.089689E+00 +4.875490E+00     +2.013930E+00 +1.089689E+00 +4.875490E+00     +5.835107E-01 +6.701733E-01 +2.399269E-01    
 +5.835107E-01 +6.701733E-01 +2.399269E-01     +5.433811E+00 +1.679949E+00 +5.185890E+00     +3.215650E+00 +1.546719E+00 +1.366820E+00     +3.215650E+00 +1.546719E+00 +1.366820E+00     +6.950512E-01 +1.125559E+00 +6.052470E-01     +6.950512E-01 +1.125559E+00 +6.052470E-01     +6.950512E-01 +1.125559E+00 +6.052470E-01     +3.758950E+00 +1.131211E+00 +3.495980E+00     +3.758950E+00 +1.131211E+00 +3.495980E+00     +3.758950E+00 +1.131211E+00 +3.495980E+00     +3.758950E+00 +1.131211E+00 +3.495980E+00     +5.053200E+00 +2.278360E+00 +8.272494E-01     +5.053200E+00 +2.278360E+00 +8.272494E-01     +1.521451E+00 +2.460431E+00 +1.499360E+00     +1.521451E+00 +2.460431E+00 +1.499360E+00     +4.440599E+00 +1.314250E+00 +3.000511E+00     +4.440599E+00 +1.314250E+00 +3.000511E+00     +4.440599E+00 +1.314250E+00 +3.000511E+00     +2.013930E+00 +1.089689E+00 +4.875490E+00     +2.013930E+00 +1.089689E+00 +4.875490E+00     +5.835107E-01 +6.701733E-01 +2.399269E-01    
 +5.835107E-01 +6.701733E-01 +2.399269E-01     +3.215650E+00 +1.546719E+00 +1.366820E+00     +3.215650E+00 +1.546719E+00 +1.366820E+00     +3.215650E+00 +1.546719E+00 +1.366820E+00     +3.215650E+00 +1.546719E+00 +1.366820E+00     +2.543310E+00 +1.935980E+00 +2.518671E+00     +2.543310E+00 +1.935980E+00 +2.518671E+00     +3.758950E+00 +1.131211E+00 +3.495980E+00     +3.758950E+00 +1.131211E+00 +3.495980E+00     +3.758950E+00 +1.131211E+00 +3.495980E+00     +6.054039E+00 +8.540367E-01 +9.057613E-01     +6.054039E+00 +8.540367E-01 +9.057613E-01     +6.054039E+00 +8.540367E-01 +9.057613E-01     +5.560235E-01 +9.892072E-01 +3.192029E+00     +1.224610E+00 +1.377710E+00 +3.225890E+00     +1.224610E+00 +1.377710E+00 +3.225890E+00     +4.440599E+00 +1.314250E+00 +3.000511E+00     +4.440599E+00 +1.314250E+00 +3.000511E+00     +2.013930E+00 +1.089689E+00 +4.875490E+00     +2.013930E+00 +1.089689E+00 +4.875490E+00     +2.013930E+00 +1.089689E+00 +4.875490E+00    
 +2.072921E+00 +2.692690E+00 +2.495990E+00     +2.072921E+00 +2.692690E+00 +2.495990E+00     +3.215650E+00 +1.546719E+00 +1.366820E+00     +3.215650E+00 +1.546719E+00 +1.366820E+00     +3.215650E+00 +1.546719E+00 +1.366820E+00     +2.543310E+00 +1.935980E+00 +2.518671E+00     +2.543310E+00 +1.935980E+00 +2.518671E+00     +2.543310E+00 +1.935980E+00 +2.518671E+00     +3.612540E+00 +1.265290E+00 +3.981019E+00     +3.612540E+00 +1.265290E+00 +3.981019E+00     +6.054039E+00 +8.540367E-01 +9.057613E-01     +6.054039E+00 +8.540367E-01 +9.057613E-01     +5.560235E-01 +9.892072E-01 +3.192029E+00     +5.560235E-01 +9.892072E-01 +3.192029E+00     +1.224610E+00 +1.377710E+00 +3.225890E+00     +1.224610E+00 +1.377710E+00 +3.225890E+00     +1.224610E+00 +1.377710E+00 +3.225890E+00     +1.224610E+00 +1.377710E+00 +3.225890E+00     +2.013930E+00 +1.089689E+00 +4.875490E+00     +2.013930E+00 +1.089689E+00 +4.875490E+00     +2.013930E+00 +1.089689E+00 +4.875490E+00    
 +2.072921E+00 +2.692690E+00 +2.495990E+00     +2.072921E+00 +2.692690E+00 +2.495990E+00     +2.072921E+00 +2.692690E+00 +2.495990E+00     +4.152540E+00 +3.637894E-01 +2.961279E+00     +4.152540E+00 +3.637894E-01 +2.961279E+00     +1.114019E+00 +9.085102E-01 +5.696470E+00     +1.114019E+00 +9.085102E-01 +5.696470E+00     +1.114019E+00 +9.085102E-01 +5.696470E+00     +3.612540E+00 +1.265290E+00 +3.981019E+00     +3.612540E+00 +1.265290E+00 +3.981019E+00     +6.054039E+00 +8.540367E-01 +9.057613E-01     +6.054039E+00 +8.540367E-01 +9.057613E-01     +5.560235E-01 +9.892072E-01 +3.192029E+00     +5.560235E-01 +9.892072E-01 +3.192029E+00     +1.224610E+00 +1.377710E+00 +3.225890E+00     +1.224610E+00 +1.377710E+00 +3.225890E+00     +1.224610E+00 +1.377710E+00 +3.225890E+00     +1.224610E+00 +1.377710E+00 +3.225890E+00     +3.656170E+00 +2.634601E+00 +5.280831E+00     +3.656170E+00 +2.634601E+00 +5.280831E+00     +3.656170E+00 +2.634601E+00 +5.280831E+00    
 +2.072921E+00 +2.692690E+00 +2.495990E+00     +2.072921E+00 +2.692690E+00 +2.495990E+00     +2.072921E+00 +2.692690E+00 +2.495990E+00     +4.152540E+00 +3.637894E-01 +2.961279E+00     +1.114019E+00 +9.085102E-01 +5.696470E+00     +1.114019E+00 +9.085102E-01 +5.696470E+00     +1.114019E+00 +9.085102E-01 +5.696470E+00     +1.114019E+00 +9.085102E-01 +5.696470E+00     +1.114019E+00 +9.085102E-01 +5.696470E+00     +3.612540E+00 +1.265290E+00 +3.981019E+00     +6.054039E+00 +8.540367E-01 +9.057613E-01     +6.054039E+00 +8.540367E-01 +9.057613E-01     +6.054039E+00 +8.540367E-01 +9.057613E-01     +1.257470E+00 +2.196211E+00 +1.616730E+00     +1.224610E+00 +1.377710E+00 +3.225890E+00     +1.224610E+00 +1.377710E+00 +3.225890E+00     +1.224610E+00 +1.377710E+00 +3.225890E+00     +1.224610E+00 +1.377710E+00 +3.225890E+00     +3.656170E+00 +2.634601E+00 +5.280831E+00     +3.656170E+00 +2.634601E+00 +5.280831E+00     +3.656170E+00 +2.634601E+00 +5.280831E+00    
 +2.072921E+00 +2.692690E+00 +2.495990E+00     +2.072921E+00 +2.692690E+00 +2.495990E+00     +2.072921E+00 +2.692690E+00 +2.495990E+00     +4.152540E+00 +3.637894E-01 +2.961279E+00     +1.114019E+00 +9.085102E-01 +5.696470E+00     +1.114019E+00 +9.085102E-01 +5.696470E+00     +1.114019E+00 +9.085102E-01 +5.696470E+00     +1.114019E+00 +9.085102E-01 +5.696470E+00     +1.114019E+00 +9.085102E-01 +5.696470E+00     +1.114019E+00 +9.085102E-01 +5.696470E+00     +6.054039E+00 +8.540367E-01 +9.057613E-01     +6.054039E+00 +8.540367E-01 +9.057613E-01     +1.257470E+00 +2.196211E+00 +1.616730E+00     +1.257470E+00 +2.196211E+00 +1.616730E+00     +1.257470E+00 +2.196211E+00 +1.616730E+00     +1.257470E+00 +2.196211E+00 +1.616730E+00     +1.224610E+00 +1.377710E+00 +3.225890E+00     +3.656170E+00 +2.634601E+00 +5.280831E+00     +3.656170E+00 +2.634601E+00 +5.280831E+00     +3.656170E+00 +2.634601E+00 +5.280831E+00     +3.656170E+00 +2.634601E+00 +5.280831E+00    
 +2.322279E+00 +1.183578E-01 +5.142279E+00     +2.322279E+00 +1.183578E-01 +5.142279E+00     +2.322279E+00 +1.183578E-01 +5.142279E+00     +2.322279E+00 +1.183578E-01 +5.142279E+00     +1.114019E+00 +9.085102E-01 +5.696470E+00     +1.114019E+00 +9.085102E-01 +5.696470E+00     +1.114019E+00 +9.085102E-01 +5.696470E+00     +1.114019E+00 +9.085102E-01 +5.696470E+00     +1.114019E+00 +9.085102E-01 +5.696470E+00     +1.114019E+00 +9.085102E-01 +5.696470E+00     +6.054039E+00 +8.540367E-01 +9.057613E-01     +1.257470E+00 +2.196211E+00 +1.616730E+00     +1.257470E+00 +2.196211E+00 +1.616730E+00     +1.257470E+00 +2.196211E+00 +1.616730E+00     +1.257470E+00 +2.196211E+00 +1.616730E+00     +1.257470E+00 +2.196211E+00 +1.616730E+00     +3.881970E+00 +6.810327E-01 +3.088199E+00     +3.656170E+00 +2.634601E+00 +5.280831E+00     +3.656170E+00 +2.634601E+00 +5.280831E+00     +3.656170E+00 +2.634601E+00 +5.280831E+00     +3.656170E+00 +2.634601E+00 +5.280831E+00    
 +4.046370E+00 +2.683341E+00 +1.019586E-01     +4.046370E+00 +2.683341E+00 +1.019586E-01     +4.046370E+00 +2.683341E+00 +1.019586E-01     +4.046370E+00 +2.683341E+00 +1.019586E-01     +4.046370E+00 +2.683341E+00 +1.019586E-01     +1.865129E-01 +4.469998E-01 +4.307549E+00     +1.114019E+00 +9.085102E-01 +5.696470E+00     +1.114019E+00 +9.085102E-01 +5.696470E+00     +1.114019E+00 +9.085102E-01 +5.696470E+00     +1.114019E+00 +9.085102E-01 +5.696470E+00     +1.114019E+00 +9.085102E-01 +5.696470E+00     +1.257470E+00 +2.196211E+00 +1.616730E+00     +1.257470E+00 +2.196211E+00 +1.616730E+00     +1.257470E+00 +2.196211E+00 +1.616730E+00     +3.881970E+00 +6.810327E-01 +3.088199E+00     +3.881970E+00 +6.810327E-01 +3.088199E+00     +3.881970E+00 +6.810327E-01 +3.088199E+00     +3.881970E+00 +6.810327E-01 +3.088199E+00     +3.881970E+00 +6.810327E-01 +3.088199E+00     +3.881970E+00 +6.810327E-01 +3.088199E+00     +1.965630E+00 +2.237580E+00 +1.848070E+00    
 +4.046370E+00 +2.683341E+00 +1.019586E-01     +4.046370E+00 +2.683341E+00 +1.019586E-01     +4.046370E+00 +2.683341E+00 +1.019586E-01     +4.046370E+00 +2.683341E+00 +1.019586E-01     +1.865129E-01 +4.469998E-01 +4.307549E+00     +1.865129E-01 +4.469998E-01 +4.307549E+00     +1.865129E-01 +4.469998E-01 +4.307549E+00     +1.114019E+00 +9.085102E-01 +5.696470E+00     +1.114019E+00 +9.085102E-01 +5.696470E+00     +1.114019E+00 +9.085102E-01 +5.696470E+00     +1.114019E+00 +9.085102E-01 +5.696470E+00     +2.593730E+00 +2.615301E+00 +5.023920E+00     +2.593730E+00 +2.615301E+00 +5.023920E+00     +2.593730E+00 +2.615301E+00 +5.023920E+00     +3.881970E+00 +6.810327E-01 +3.088199E+00     +3.881970E+00 +6.810327E-01 +3.088199E+00     +3.881970E+00 +6.810327E-01 +3.088199E+00     +3.881970E+00 +6.810327E-01 +3.088199E+00     +3.881970E+00 +6.810327E-01 +3.088199E+00     +3.881970E+00 +6.810327E-01 +3.088199E+00     +3.881970E+00 +6.810327E-01 +3.088199E+00    
 +5.041506E-01 +2.354709E+00 +2.561890E+00     +1.198790E+00 +2.438080E+00 +8.100614E-01     +4.046370E+00 +2.683341E+00 +1.019586E-01     +4.046370E+00 +2.683341E+00 +1.019586E-01     +4.046370E+00 +2.683341E+00 +1.019586E-01     +1.865129E-01 +4.469998E-01 +4.307549E+00     +1.865129E-01 +4.469998E-01 +4.307549E+00     +1.865129E-01 +4.469998E-01 +4.307549E+00     +1.070719E+00 +3.908229E-01 +4.967207E-01     +1.070719E+00 +3.908229E-01 +4.967207E-01     +6.060300E+00 +2.163990E+00 +1.847630E+00     +2.593730E+00 +2.615301E+00 +5.023920E+00     +2.593730E+00 +2.615301E+00 +5.023920E+00     +2.593730E+00 +2.615301E+00 +5.023920E+00     +2.593730E+00 +2.615301E+00 +5.023920E+00     +3.881970E+00 +6.810327E-01 +3.088199E+00     +3.881970E+00 +6.810327E-01 +3.088199E+00     +3.881970E+00 +6.810327E-01 +3.088199E+00     +3.881970E+00 +6.810327E-01 +3.088199E+00     +2.247513E-01 +6.254876E-01 +4.094131E+00     +2.247513E-01 +6.254876E-01 +4.094131E+00    
 +5.041506E-01 +2.354709E+00 +2.561890E+00     +1.198790E+00 +2.438080E+00 +8.100614E-01     +1.198790E+00 +2.438080E+00 +8.100614E-01     +1.198790E+00 +2.438080E+00 +8.100614E-01     +1.198790E+00 +2.438080E+00 +8.100614E-01     +1.198790E+00 +2.438080E+00 +8.100614E-01     +1.865129E-01 +4.469998E-01 +4.307549E+00     +1.070719E+00 +3.908229E-01 +4.967207E-01     +1.070719E+00 +3.908229E-01 +4.967207E-01     +1.070719E+00 +3.908229E-01 +4.967207E-01     +6.060300E+00 +2.163990E+00 +1.847630E+00     +3.729481E+00 +8.935056E-01 +5.063010E+00     +2.593730E+00 +2.615301E+00 +5.023920E+00     +2.593730E+00 +2.615301E+00 +5.023920E+00     +2.593730E+00 +2.615301E+00 +5.023920E+00     +2.105790E+00 +6.473322E-01 +5.527269E+00     +3.881970E+00 +6.810327E-01 +3.088199E+00     +3.881970E+00 +6.810327E-01 +3.088199E+00     +5.041506E-01 +2.354709E+00 +2.561890E+00     +2.247513E-01 +6.254876E-01 +4.094131E+00     +5.041506E-01 +2.354709E+00 +2.561890E+00    
 +5.041506E-01 +2.354709E+00 +2.561890E+00     +1.198790E+00 +2.438080E+00 +8.100614E-01     +1.198790E+00 +2.438080E+00 +8.100614E-01     +1.198790E+00 +2.438080E+00 +8.100614E-01     +1.198790E+00 +2.438080E+00 +8.100614E-01     +6.237170E+00 +1.034020E+00 +5.949609E+00     +6.237170E+00 +1.034020E+00 +5.949609E+00     +1.070719E+00 +3.908229E-01 +4.967207E-01     +1.070719E+00 +3.908229E-01 +4.967207E-01     +6.060300E+00 +2.163990E+00 +1.847630E+00     +6.060300E+00 +2.163990E+00 +1.847630E+00     +2.105790E+00 +6.473322E-01 +5.527269E+00     +2.105790E+00 +6.473322E-01 +5.527269E+00     +1.930961E+00 +1.529690E+00 +2.736430E+00     +2.105790E+00 +6.473322E-01 +5.527269E+00     +2.105790E+00 +6.473322E-01 +5.527269E+00     +2.105790E+00 +6.473322E-01 +5.527269E+00     +5.041506E-01 +2.354709E+00 +2.561890E+00     +5.041506E-01 +2.354709E+00 +2.561890E+00     +5.041506E-01 +2.354709E+00 +2.561890E+00     +5.041506E-01 +2.354709E+00 +2.561890E+00    
 +5.041506E-01 +2.354709E+00 +2.561890E+00     +5.041506E-01 +2.354709E+00 +2.561890E+00     +1.198790E+00 +2.438080E+00 +8.100614E-01     +1.198790E+00 +2.438080E+00 +8.100614E-01     +6.237170E+00 +1.034020E+00 +5.949609E+00     +6.237170E+00 +1.034020E+00 +5.949609E+00     +6.237170E+00 +1.034020E+00 +5.949609E+00     +6.060300E+00 +2.163990E+00 +1.847630E+00     +6.060300E+00 +2.163990E+00 +1.847630E+00     +6.060300E+00 +2.163990E+00 +1.847630E+00     +6.060300E+00 +2.163990E+00 +1.847630E+00     +2.105790E+00 +6.473322E-01 +5.527269E+00     +2.105790E+00 +6.473322E-01 +5.527269E+00     +5.180809E+00 +1.031750E+00 +4.464411E+00     +2.105790E+00 +6.473322E-01 +5.527269E+00     +2.105790E+00 +6.473322E-01 +5.527269E+00     +5.041506E-01 +2.354709E+00 +2.561890E+00     +5.041506E-01 +2.354709E+00 +2.561890E+00     +5.041506E-01 +2.354709E+00 +2.561890E+00     +5.041506E-01 +2.354709E+00 +2.561890E+00     +5.041506E-01 +2.354709E+00 +2.561890E+00    
 +5.041506E-01 +2.354709E+00 +2.561890E+00     +5.041506E-01 +2.354709E+00 +2.561890E+00     +1.198790E+00 +2.438080E+00 +8.100614E-01     +1.914110E+00 +1.422990E+00 +5.496099E+00     +1.914110E+00 +1.422990E+00 +5.496099E+00     +1.914110E+00 +1.422990E+00 +5.496099E+00     +1.914110E+00 +1.422990E+00 +5.496099E+00     +1.914110E+00 +1.422990E+00 +5.496099E+00     +3.956649E+00 +1.065070E-01 +3.420859E+00     +3.956649E+00 +1.065070E-01 +3.420859E+00     +3.956649E+00 +1.065070E-01 +3.420859E+00     +2.105790E+00 +6.473322E-01 +5.527269E+00     +2.105790E+00 +6.473322E-01 +5.527269E+00     +2.105790E+00 +6.473322E-01 +5.527269E+00     +2.105790E+00 +6.473322E-01 +5.527269E+00     +2.105790E+00 +6.473322E-01 +5.527269E+00     +2.105790E+00 +6.473322E-01 +5.527269E+00     +5.041506E-01 +2.354709E+00 +2.561890E+00     +5.041506E-01 +2.354709E+00 +2.561890E+00     +5.041506E-01 +2.354709E+00 +2.561890E+00     +5.041506E-01 +2.354709E+00 +2.561890E+00    
 +5.041506E-01 +2.354709E+00 +2.561890E+00     +7.364801E-01 +2.806779E+00 +3.325250E+00     +7.364801E-01 +2.806779E+00 +3.325250E+00     +1.914110E+00 +1.422990E+00 +5.496099E+00     +1.914110E+00 +1.422990E+00 +5.496099E+00     +1.914110E+00 +1.422990E+00 +5.496099E+00     +1.914110E+00 +1.422990E+00 +5.496099E+00     +1.914110E+00 +1.422990E+00 +5.496099E+00     +3.956649E+00 +1.065070E-01 +3.420859E+00     +3.956649E+00 +1.065070E-01 +3.420859E+00     +3.956649E+00 +1.065070E-01 +3.420859E+00     +3.956649E+00 +1.065070E-01 +3.420859E+00     +2.105790E+00 +6.473322E-01 +5.527269E+00     +2.105790E+00 +6.473322E-01 +5.527269E+00     +2.105790E+00 +6.473322E-01 +5.527269E+00     +2.105790E+00 +6.473322E-01 +5.527269E+00     +2.105790E+00 +6.473322E-01 +5.527269E+00     +5.041506E-01 +2.354709E+00 +2.561890E+00     +5.041506E-01 +2.354709E+00 +2.561890E+00     +5.041506E-01 +2.354709E+00 +2.561890E+00     +5.041506E-01 +2.354709E+00 +2.561890E+00    
 +7.364801E-01 +2.806779E+00 +3.325250E+00     +7.364801E-01 +2.806779E+00 +3.325250E+00     +7.364801E-01 +2.806779E+00 +3.325250E+00     +3.869140E+00 +2.180499E+00 +5.555709E+00     +1.914110E+00 +1.422990E+00 +5.496099E+00     +1.914110E+00 +1.422990E+00 +5.496099E+00     +1.914110E+00 +1.422990E+00 +5.496099E+00     +5.157350E+00 +1.765779E+00 +1.156281E+00     +5.157350E+00 +1.765779E+00 +1.156281E+00     +3.956649E+00 +1.065070E-01 +3.420859E+00     +3.956649E+00 +1.065070E-01 +3.420859E+00     +3.758950E+00 +1.131211E+00 +3.495980E+00     +2.105790E+00 +6.473322E-01 +5.527269E+00     +2.105790E+00 +6.473322E-01 +5.527269E+00     +2.105790E+00 +6.473322E-01 +5.527269E+00     +2.105790E+00 +6.473322E-01 +5.527269E+00     +2.105790E+00 +6.473322E-01 +5.527269E+00     +5.041506E-01 +2.354709E+00 +2.561890E+00     +4.824010E+00 +8.755496E-01 +5.217430E+00     +4.824010E+00 +8.755496E-01 +5.217430E+00     +4.824010E+00 +8.755496E-01 +5.217430E+00    
 +7.364801E-01 +2.806779E+00 +3.325250E+00     +7.364801E-01 +2.806779E+00 +3.325250E+00     +7.364801E-01 +2.806779E+00 +3.325250E+00     +3.869140E+00 +2.180499E+00 +5.555709E+00     +3.869140E+00 +2.180499E+00 +5.555709E+00     +1.914110E+00 +1.422990E+00 +5.496099E+00     +5.157350E+00 +1.765779E+00 +1.156281E+00     +5.157350E+00 +1.765779E+00 +1.156281E+00     +5.157350E+00 +1.765779E+00 +1.156281E+00     +3.758950E+00 +1.131211E+00 +3.495980E+00     +3.758950E+00 +1.131211E+00 +3.495980E+00     +3.758950E+00 +1.131211E+00 +3.495980E+00     +3.758950E+00 +1.131211E+00 +3.495980E+00     +2.105790E+00 +6.473322E-01 +5.527269E+00     +2.105790E+00 +6.473322E-01 +5.527269E+00     +2.105790E+00 +6.473322E-01 +5.527269E+00     +4.824010E+00 +8.755496E-01 +5.217430E+00     +4.824010E+00 +8.755496E-01 +5.217430E+00     +4.824010E+00 +8.755496E-01 +5.217430E+00     +4.824010E+00 +8.755496E-01 +5.217430E+00     +4.824010E+00 +8.755496E-01 +5.217430E+00    
 +7.364801E-01 +2.806779E+00 +3.325250E+00     +7.364801E-01 +2.806779E+00 +3.325250E+00     +7.364801E-01 +2.806779E+00 +3.325250E+00     +3.869140E+00 +2.180499E+00 +5.555709E+00     +3.869140E+00 +2.180499E+00 +5.555709E+00     +5.157350E+00 +1.765779E+00 +1.156281E+00     +5.157350E+00 +1.765779E+00 +1.156281E+00     +5.157350E+00 +1.765779E+00 +1.156281E+00     +3.758950E+00 +1.131211E+00 +3.495980E+00     +3.758950E+00 +1.131211E+00 +3.495980E+00     +3.758950E+00 +1.131211E+00 +3.495980E+00     +3.758950E+00 +1.131211E+00 +3.495980E+00     +3.758950E+00 +1.131211E+00 +3.495980E+00     +1.374796E-01 +1.228949E+00 +4.301060E+00     +1.374796E-01 +1.228949E+00 +4.301060E+00     +1.374796E-01 +1.228949E+00 +4.301060E+00     +4.824010E+00 +8.755496E-01 +5.217430E+00     +4.824010E+00 +8.755496E-01 +5.217430E+00     +4.824010E+00 +8.755496E-01 +5.217430E+00     +4.824010E+00 +8.755496E-01 +5.217430E+00     +5.835107E-01 +6.701733E-01 +2.399269E-01    
 +5.835107E-01 +6.701733E-01 +2.399269E-01     +5.433811E+00 +1.679949E+00 +5.185890E+00     +5.433811E+00 +1.679949E+00 +5.185890E+00     +5.433811E+00 +1.679949E+00 +5.185890E+00     +6.950512E-01 +1.125559E+00 +6.052470E-01     +6.950512E-01 +1.125559E+00 +6.052470E-01     +3.758950E+00 +1.131211E+00 +3.495980E+00     +3.758950E+00 +1.131211E+00 +3.495980E+00     +3.758950E+00 +1.131211E+00 +3.495980E+00     +3.758950E+00 +1.131211E+00 +3.495980E+00     +3.758950E+00 +1.131211E+00 +3.495980E+00     +3.758950E+00 +1.131211E+00 +3.495980E+00     +3.758950E+00 +1.131211E+00 +3.495980E+00     +1.374796E-01 +1.228949E+00 +4.301060E+00     +1.374796E-01 +1.228949E+00 +4.301060E+00     +1.374796E-01 +1.228949E+00 +4.301060E+00     +4.440599E+00 +1.314250E+00 +3.000511E+00     +2.013930E+00 +1.089689E+00 +4.875490E+00     +2.013930E+00 +1.089689E+00 +4.875490E+00     +5.835107E-01 +6.701733E-01 +2.399269E-01     +5.835107E-01 +6.701733E-01 +2.399269E-01    
 +5.835107E-01 +6.701733E-01 +2.399269E-01     +5.433811E+00 +1.679949E+00 +5.185890E+00     +5.433811E+00 +1.679949E+00 +5.185890E+00     +5.433811E+00 +1.679949E+00 +5.185890E+00     +6.950512E-01 +1.125559E+00 +6.052470E-01     +6.950512E-01 +1.125559E+00 +6.052470E-01     +6.950512E-01 +1.125559E+00 +6.052470E-01     +3.758950E+00 +1.131211E+00 +3.495980E+00     +3.758950E+00 +1.131211E+00 +3.495980E+00     +3.758950E+00 +1.131211E+00 +3.495980E+00     +3.758950E+00 +1.131211E+00 +3.495980E+00     +3.758950E+00 +1.131211E+00 +3.495980E+00     +1.521451E+00 +2.460431E+00 +1.499360E+00     +1.521451E+00 +2.460431E+00 +1.499360E+00     +1.521451E+00 +2.460431E+00 +1.499360E+00     +1.521451E+00 +2.460431E+00 +1.499360E+00     +4.440599E+00 +1.314250E+00 +3.000511E+00     +2.013930E+00 +1.089689E+00 +4.875490E+00     +2.013930E+00 +1.089689E+00 +4.875490E+00     +2.013930E+00 +1.089689E+00 +4.875490E+00     +5.835107E-01 +6.701733E-01 +2.399269E-01    
 +5.433811E+00 +1.679949E+00 +5.185890E+00     +5.433811E+00 +1.679949E+00 +5.185890E+00     +5.433811E+00 +1.679949E+00 +5.185890E+00     +6.950512E-01 +1.125559E+00 +6.052470E-01     +6.950512E-01 +1.125559E+00 +6.052470E-01     +6.950512E-01 +1.125559E+00 +6.052470E-01     +6.950512E-01 +1.125559E+00 +6.052470E-01     +3.758950E+00 +1.131211E+00 +3.495980E+00     +3.758950E+00 +1.131211E+00 +3.495980E+00     +5.460111E+00 +2.305899E+00 +1.140930E+00     +3.758950E+00 +1.131211E+00 +3.495980E+00     +3.758950E+00 +1.131211E+00 +3.495980E+00     +1.521451E+00 +2.460431E+00 +1.499360E+00     +1.521451E+00 +2.460431E+00 +1.499360E+00     +1.521451E+00 +2.460431E+00 +1.499360E+00     +1.521451E+00 +2.460431E+00 +1.499360E+00     +4.440599E+00 +1.314250E+00 +3.000511E+00     +2.013930E+00 +1.089689E+00 +4.875490E+00     +2.013930E+00 +1.089689E+00 +4.875490E+00     +2.013930E+00 +1.089689E+00 +4.875490E+00     +2.013930E+00 +1.089689E+00 +4.875490E+00    
 +5.433811E+00 +1.679949E+00 +5.185890E+00     +5.433811E+00 +1.679949E+00 +5.185890E+00     +5.433811E+00 +1.679949E+00 +5.185890E+00     +6.950512E-01 +1.125559E+00 +6.052470E-01     +6.950512E-01 +1.125559E+00 +6.052470E-01     +6.950512E-01 +1.125559E+00 +6.052470E-01     +6.950512E-01 +1.125559E+00 +6.052470E-01     +3.758950E+00 +1.131211E+00 +3.495980E+00     +3.758950E+00 +1.131211E+00 +3.495980E+00     +3.758950E+00 +1.131211E+00 +3.495980E+00     +3.758950E+00 +1.131211E+00 +3.495980E+00     +3.758950E+00 +1.131211E+00 +3.495980E+00     +1.521451E+00 +2.460431E+00 +1.499360E+00     +1.521451E+00 +2.460431E+00 +1.499360E+00     +1.521451E+00 +2.460431E+00 +1.499360E+00     +1.521451E+00 +2.460431E+00 +1.499360E+00     +4.440599E+00 +1.314250E+00 +3.000511E+00     +2.013930E+00 +1.089689E+00 +4.875490E+00     +2.013930E+00 +1.089689E+00 +4.875490E+00     +2.013930E+00 +1.089689E+00 +4.875490E+00     +2.013930E+00 +1.089689E+00 +4.875490E+00    
 +5.433811E+00 +1.679949E+00 +5.185890E+00     +5.433811E+00 +1.679949E+00 +5.185890E+00     +1.513420E+00 +1.589400E+00 +4.202107E-01     +1.513420E+00 +1.589400E+00 +4.202107E-01     +2.543310E+00 +1.935980E+00 +2.518671E+00     +2.543310E+00 +1.935980E+00 +2.518671E+00     +2.543310E+00 +1.935980E+00 +2.518671E+00     +3.758950E+00 +1.131211E+00 +3.495980E+00     +3.758950E+00 +1.131211E+00 +3.495980E+00     +3.890700E+00 +2.090150E+00 +6.044089E+00     +3.890700E+00 +2.090150E+00 +6.044089E+00     +6.054039E+00 +8.540367E-01 +9.057613E-01     +6.054039E+00 +8.540367E-01 +9.057613E-01     +6.054039E+00 +8.540367E-01 +9.057613E-01     +4.214370E+00 +2.327639E+00 +6.006060E+00     +4.214370E+00 +2.327639E+00 +6.006060E+00     +4.214370E+00 +2.327639E+00 +6.006060E+00     +2.013930E+00 +1.089689E+00 +4.875490E+00     +2.013930E+00 +1.089689E+00 +4.875490E+00     +2.013930E+00 +1.089689E+00 +4.875490E+00     +2.013930E+00 +1.089689E+00 +4.875490E+00    
 +2.072921E+00 +2.692690E+00 +2.495990E+00     +2.072921E+00 +2.692690E+00 +2.495990E+00     +2.072921E+00 +2.692690E+00 +2.495990E+00     +3.215650E+00 +1.546719E+00 +1.366820E+00     +2.543310E+00 +1.935980E+00 +2.518671E+00     +2.543310E+00 +1.935980E+00 +2.518671E+00     +2.543310E+00 +1.935980E+00 +2.518671E+00     +2.543310E+00 +1.935980E+00 +2.518671E+00     +3.612540E+00 +1.265290E+00 +3.981019E+00     +3.612540E+00 +1.265290E+00 +3.981019E+00     +3.890700E+00 +2.090150E+00 +6.044089E+00     +6.054039E+00 +8.540367E-01 +9.057613E-01     +6.054039E+00 +8.540367E-01 +9.057613E-01     +6.054039E+00 +8.540367E-01 +9.057613E-01     +1.224610E+00 +1.377710E+00 +3.225890E+00     +1.224610E+00 +1.377710E+00 +3.225890E+00     +1.224610E+00 +1.377710E+00 +3.225890E+00     +1.224610E+00 +1.377710E+00 +3.225890E+00     +2.563601E+00 +1.783100E+00 +2.644291E+00     +2.563601E+00 +1.783100E+00 +2.644291E+00     +2.013930E+00 +1.089689E+00 +4.875490E+00    
 +2.072921E+00 +2.692690E+00 +2.495990E+00     +2.072921E+00 +2.692690E+00 +2.495990E+00     +2.072921E+00 +2.692690E+00 +2.495990E+00     +4.152540E+00 +3.637894E-01 +2.961279E+00     +2.543310E+00 +1.935980E+00 +2.518671E+00     +2.543310E+00 +1.935980E+00 +2.518671E+00     +1.114019E+00 +9.085102E-01 +5.696470E+00     +1.114019E+00 +9.085102E-01 +5.696470E+00     +3.612540E+00 +1.265290E+00 +3.981019E+00     +3.612540E+00 +1.265290E+00 +3.981019E+00     +6.054039E+00 +8.540367E-01 +9.057613E-01     +6.054039E+00 +8.540367E-01 +9.057613E-01     +6.054039E+00 +8.540367E-01 +9.057613E-01     +6.054039E+00 +8.540367E-01 +9.057613E-01     +1.224610E+00 +1.377710E+00 +3.225890E+00     +1.224610E+00 +1.377710E+00 +3.225890E+00     +1.224610E+00 +1.377710E+00 +3.225890E+00     +1.224610E+00 +1.377710E+00 +3.225890E+00     +2.563601E+00 +1.783100E+00 +2.644291E+00     +2.563601E+00 +1.783100E+00 +2.644291E+00     +2.563601E+00 +1.783100E+00 +2.644291E+00    
 +2.072921E+00 +2.692690E+00 +2.495990E+00     +2.072921E+00 +2.692690E+00 +2.495990E+00     +2.072921E+00 +2.692690E+00 +2.495990E+00     +2.072921E+00 +2.692690E+00 +2.495990E+00     +1.114019E+00 +9.085102E-01 +5.696470E+00     +1.114019E+00 +9.085102E-01 +5.696470E+00     +1.114019E+00 +9.085102E-01 +5.696470E+00     +1.114019E+00 +9.085102E-01 +5.696470E+00     +1.114019E+00 +9.085102E-01 +5.696470E+00     +3.612540E+00 +1.265290E+00 +3.981019E+00     +6.054039E+00 +8.540367E-01 +9.057613E-01     +6.054039E+00 +8.540367E-01 +9.057613E-01     +6.054039E+00 +8.540367E-01 +9.057613E-01     +6.054039E+00 +8.540367E-01 +9.057613E-01     +1.224610E+00 +1.377710E+00 +3.225890E+00     +1.224610E+00 +1.377710E+00 +3.225890E+00     +1.224610E+00 +1.377710E+00 +3.225890E+00     +1.224610E+00 +1.377710E+00 +3.225890E+00     +3.656170E+00 +2.634601E+00 +5.280831E+00     +3.656170E+00 +2.634601E+00 +5.280831E+00     +3.656170E+00 +2.634601E+00 +5.280831E+00    
 +2.072921E+00 +2.692690E+00 +2.495990E+00     +2.072921E+00 +2.692690E+00 +2.495990E+00     +2.072921E+00 +2.692690E+00 +2.495990E+00     +2.072921E+00 +2.692690E+00 +2.495990E+00     +1.114019E+00 +9.085102E-01 +5.696470E+00     +1.114019E+00 +9.085102E-01 +5.696470E+00     +1.114019E+00 +9.085102E-01 +5.696470E+00     +3.598139E+00 +9.297299E-01 +5.294648E-01     +1.114019E+00 +9.085102E-01 +5.696470E+00     +1.114019E+00 +9.085102E-01 +5.696470E+00     +6.054039E+00 +8.540367E-01 +9.057613E-01     +6.054039E+00 +8.540367E-01 +9.057613E-01     +6.054039E+00 +8.540367E-01 +9.057613E-01     +6.054039E+00 +8.540367E-01 +9.057613E-01     +1.257470E+00 +2.196211E+00 +1.616730E+00     +1.224610E+00 +1.377710E+00 +3.225890E+00     +1.224610E+00 +1.377710E+00 +3.225890E+00     +3.656170E+00 +2.634601E+00 +5.280831E+00     +3.656170E+00 +2.634601E+00 +5.280831E+00     +3.656170E+00 +2.634601E+00 +5.280831E+00     +3.656170E+00 +2.634601E+00 +5.280831E+00    
 +2.322279E+00 +1.183578E-01 +5.142279E+00     +4.046370E+00 +2.683341E+00 +1.019586E-01     +4.046370E+00 +2.683341E+00 +1.019586E-01     +4.046370E+00 +2.683341E+00 +1.019586E-01     +1.114019E+00 +9.085102E-01 +5.696470E+00     +1.114019E+00 +9.085102E-01 +5.696470E+00     +1.114019E+00 +9.085102E-01 +5.696470E+00     +1.114019E+00 +9.085102E-01 +5.696470E+00     +1.114019E+00 +9.085102E-01 +5.696470E+00     +1.114019E+00 +9.085102E-01 +5.696470E+00     +6.054039E+00 +8.540367E-01 +9.057613E-01     +6.054039E+00 +8.540367E-01 +9.057613E-01     +1.257470E+00 +2.196211E+00 +1.616730E+00     +1.257470E+00 +2.196211E+00 +1.616730E+00     +1.257470E+00 +2.196211E+00 +1.616730E+00     +3.881970E+00 +6.810327E-01 +3.088199E+00     +3.881970E+00 +6.810327E-01 +3.088199E+00     +3.881970E+00 +6.810327E-01 +3.088199E+00     +3.656170E+00 +2.634601E+00 +5.280831E+00     +3.656170E+00 +2.634601E+00 +5.280831E+00     +3.656170E+00 +2.634601E+00 +5.280831E+00    
 +4.046370E+00 +2.683341E+00 +1.019586E-01     +4.046370E+00 +2.683341E+00 +1.019586E-01     +4.046370E+00 +2.683341E+00 +1.019586E-01     +4.046370E+00 +2.683341E+00 +1.019586E-01     +4.046370E+00 +2.683341E+00 +1.019586E-01     +4.046370E+00 +2.683341E+00 +1.019586E-01     +1.114019E+00 +9.085102E-01 +5.696470E+00     +1.114019E+00 +9.085102E-01 +5.696470E+00     +1.114019E+00 +9.085102E-01 +5.696470E+00     +1.114019E+00 +9.085102E-01 +5.696470E+00     +1.114019E+00 +9.085102E-01 +5.696470E+00     +4.813019E+00 +2.408141E+00 +2.331376E-01     +2.593730E+00 +2.615301E+00 +5.023920E+00     +3.881970E+00 +6.810327E-01 +3.088199E+00     +3.881970E+00 +6.810327E-01 +3.088199E+00     +3.881970E+00 +6.810327E-01 +3.088199E+00     +3.881970E+00 +6.810327E-01 +3.088199E+00     +3.881970E+00 +6.810327E-01 +3.088199E+00     +3.881970E+00 +6.810327E-01 +3.088199E+00     +3.881970E+00 +6.810327E-01 +3.088199E+00     +3.881970E+00 +6.810327E-01 +3.088199E+00    
 +4.046370E+00 +2.683341E+00 +1.019586E-01     +4.046370E+00 +2.683341E+00 +1.019586E-01     +4.046370E+00 +2.683341E+00 +1.019586E-01     +4.046370E+00 +2.683341E+00 +1.019586E-01     +4.046370E+00 +2.683341E+00 +1.019586E-01     +1.865129E-01 +4.469998E-01 +4.307549E+00     +1.865129E-01 +4.469998E-01 +4.307549E+00     +1.114019E+00 +9.085102E-01 +5.696470E+00     +1.114019E+00 +9.085102E-01 +5.696470E+00     +1.114019E+00 +9.085102E-01 +5.696470E+00     +4.813019E+00 +2.408141E+00 +2.331376E-01     +2.593730E+00 +2.615301E+00 +5.023920E+00     +2.593730E+00 +2.615301E+00 +5.023920E+00     +3.881970E+00 +6.810327E-01 +3.088199E+00     +3.881970E+00 +6.810327E-01 +3.088199E+00     +3.881970E+00 +6.810327E-01 +3.088199E+00     +3.881970E+00 +6.810327E-01 +3.088199E+00     +3.881970E+00 +6.810327E-01 +3.088199E+00     +3.881970E+00 +6.810327E-01 +3.088199E+00     +3.881970E+00 +6.810327E-01 +3.088199E+00     +3.881970E+00 +6.810327E-01 +3.088199E+00    
 +1.198790E+00 +2.438080E+00 +8.100614E-01     +1.198790E+00 +2.438080E+00 +8.100614E-01     +1.198790E+00 +2.438080E+00 +8.100614E-01     +4.046370E+00 +2.683341E+00 +1.019586E-01     +4.046370E+00 +2.683341E+00 +1.019586E-01     +4.046370E+00 +2.683341E+00 +1.019586E-01     +1.865129E-01 +4.469998E-01 +4.307549E+00     +1.865129E-01 +4.469998E-01 +4.307549E+00     +1.070719E+00 +3.908229E-01 +4.967207E-01     +1.070719E+00 +3.908229E-01 +4.967207E-01     +2.593730E+00 +2.615301E+00 +5.023920E+00     +2.593730E+00 +2.615301E+00 +5.023920E+00     +2.593730E+00 +2.615301E+00 +5.023920E+00     +2.593730E+00 +2.615301E+00 +5.023920E+00     +3.881970E+00 +6.810327E-01 +3.088199E+00     +3.881970E+00 +6.810327E-01 +3.088199E+00     +3.881970E+00 +6.810327E-01 +3.088199E+00     +3.881970E+00 +6.810327E-01 +3.088199E+00     +3.881970E+00 +6.810327E-01 +3.088199E+00     +3.881970E+00 +6.810327E-01 +3.088199E+00     +3.881970E+00 +6.810327E-01 +3.088199E+00    
 +5.041506E-01 +2.354709E+00 +2.561890E+00     +1.198790E+00 +2.438080E+00 +8.100614E-01     +1.198790E+00 +2.438080E+00 +8.100614E-01     +1.198790E+00 +2.438080E+00 +8.100614E-01     +1.198790E+00 +2.438080E+00 +8.100614E-01     +1.198790E+00 +2.438080E+00 +8.100614E-01     +1.198790E+00 +2.438080E+00 +8.100614E-01     +1.070719E+00 +3.908229E-01 +4.967207E-01     +1.070719E+00 +3.908229E-01 +4.967207E-01     +1.070719E+00 +3.908229E-01 +4.967207E-01     +6.060300E+00 +2.163990E+00 +1.847630E+00     +3.729481E+00 +8.935056E-01 +5.063010E+00     +2.593730E+00 +2.615301E+00 +5.023920E+00     +2.593730E+00 +2.615301E+00 +5.023920E+00     +2.593730E+00 +2.615301E+00 +5.023920E+00     +3.881970E+00 +6.810327E-01 +3.088199E+00     +3.881970E+00 +6.810327E-01 +3.088199E+00     +3.881970E+00 +6.810327E-01 +3.088199E+00     +3.881970E+00 +6.810327E-01 +3.088199E+00     +5.041506E-01 +2.354709E+00 +2.561890E+00     +5.041506E-01 +2.354709E+00 +2.561890E+00    
 +5.041506E-01 +2.354709E+00 +2.561890E+00     +1.198790E+00 +2.438080E+00 +8.100614E-01     +1.198790E+00 +2.438080E+00 +8.100614E-01     +1.198790E+00 +2.438080E+00 +8.100614E-01     +1.198790E+00 +2.438080E+00 +8.100614E-01     +1.198790E+00 +2.438080E+00 +8.100614E-01     +6.237170E+00 +1.034020E+00 +5.949609E+00     +1.070719E+00 +3.908229E-01 +4.967207E-01     +1.070719E+00 +3.908229E-01 +4.967207E-01     +6.060300E+00 +2.163990E+00 +1.847630E+00     +3.956649E+00 +1.065070E-01 +3.420859E+00     +2.105790E+00 +6.473322E-01 +5.527269E+00     +2.593730E+00 +2.615301E+00 +5.023920E+00     +2.593730E+00 +2.615301E+00 +5.023920E+00     +5.915940E+00 +1.370550E+00 +4.709919E+00     +5.915940E+00 +1.370550E+00 +4.709919E+00     +3.881970E+00 +6.810327E-01 +3.088199E+00     +5.041506E-01 +2.354709E+00 +2.561890E+00     +5.041506E-01 +2.354709E+00 +2.561890E+00     +5.041506E-01 +2.354709E+00 +2.561890E+00     +5.041506E-01 +2.354709E+00 +2.561890E+00    
 +5.041506E-01 +2.354709E+00 +2.561890E+00     +5.041506E-01 +2.354709E+00 +2.561890E+00     +1.198790E+00 +2.438080E+00 +8.100614E-01     +3.622480E+00 +2.571390E+00 +3.240610E+00     +1.198790E+00 +2.438080E+00 +8.100614E-01     +6.237170E+00 +1.034020E+00 +5.949609E+00     +6.237170E+00 +1.034020E+00 +5.949609E+00     +3.956649E+00 +1.065070E-01 +3.420859E+00     +3.956649E+00 +1.065070E-01 +3.420859E+00     +3.956649E+00 +1.065070E-01 +3.420859E+00     +3.956649E+00 +1.065070E-01 +3.420859E+00     +3.956649E+00 +1.065070E-01 +3.420859E+00     +2.105790E+00 +6.473322E-01 +5.527269E+00     +3.115390E+00 +1.210260E+00 +4.526370E+00     +2.105790E+00 +6.473322E-01 +5.527269E+00     +2.105790E+00 +6.473322E-01 +5.527269E+00     +5.041506E-01 +2.354709E+00 +2.561890E+00     +5.041506E-01 +2.354709E+00 +2.561890E+00     +5.041506E-01 +2.354709E+00 +2.561890E+00     +5.041506E-01 +2.354709E+00 +2.561890E+00     +5.041506E-01 +2.354709E+00 +2.561890E+00    
 +5.041506E-01 +2.354709E+00 +2.561890E+00     +5.041506E-01 +2.354709E+00 +2.561890E+00     +1.198790E+00 +2.438080E+00 +8.100614E-01     +1.914110E+00 +1.422990E+00 +5.496099E+00     +1.914110E+00 +1.422990E+00 +5.496099E+00     +1.914110E+00 +1.422990E+00 +5.496099E+00     +1.914110E+00 +1.422990E+00 +5.496099E+00     +3.956649E+00 +1.065070E-01 +3.420859E+00     +3.956649E+00 +1.065070E-01 +3.420859E+00     +3.956649E+00 +1.065070E-01 +3.420859E+00     +3.956649E+00 +1.065070E-01 +3.420859E+00     +3.956649E+00 +1.065070E-01 +3.420859E+00     +2.105790E+00 +6.473322E-01 +5.527269E+00     +2.105790E+00 +6.473322E-01 +5.527269E+00     +2.105790E+00 +6.473322E-01 +5.527269E+00     +2.105790E+00 +6.473322E-01 +5.527269E+00     +5.041506E-01 +2.354709E+00 +2.561890E+00     +5.041506E-01 +2.354709E+00 +2.561890E+00     +5.041506E-01 +2.354709E+00 +2.561890E+00     +5.041506E-01 +2.354709E+00 +2.561890E+00     +5.041506E-01 +2.354709E+00 +2.561890E+00    
 +5.041506E-01 +2.354709E+00 +2.561890E+00     +7.364801E-01 +2.806779E+00 +3.325250E+00     +7.364801E-01 +2.806779E+00 +3.325250E+00     +1.914110E+00 +1.422990E+00 +5.496099E+00     +1.914110E+00 +1.422990E+00 +5.496099E+00     +1.914110E+00 +1.422990E+00 +5.496099E+00     +1.914110E+00 +1.422990E+00 +5.496099E+00     +3.956649E+00 +1.065070E-01 +3.420859E+00     +3.956649E+00 +1.065070E-01 +3.420859E+00     +3.956649E+00 +1.065070E-01 +3.420859E+00     +3.956649E+00 +1.065070E-01 +3.420859E+00     +3.956649E+00 +1.065070E-01 +3.420859E+00     +2.105790E+00 +6.473322E-01 +5.527269E+00     +2.105790E+00 +6.473322E-01 +5.527269E+00     +2.105790E+00 +6.473322E-01 +5.527269E+00     +2.105790E+00 +6.473322E-01 +5.527269E+00     +5.041506E-01 +2.354709E+00 +2.561890E+00     +5.041506E-01 +2.354709E+00 +2.561890E+00     +5.041506E-01 +2.354709E+00 +2.561890E+00     +5.041506E-01 +2.354709E+00 +2.561890E+00     +5.041506E-01 +2.354709E+00 +2.561890E+00    
 +7.364801E-01 +2.806779E+00 +3.325250E+00     +7.364801E-01 +2.806779E+00 +3.325250E+00     +7.364801E-01 +2.806779E+00 +3.325250E+00     +1.914110E+00 +1.422990E+00 +5.496099E+00     +1.914110E+00 +1.422990E+00 +5.496099E+00     +1.914110E+00 +1.422990E+00 +5.496099E+00     +1.914110E+00 +1.422990E+00 +5.496099E+00     +5.157350E+00 +1.765779E+00 +1.156281E+00     +3.956649E+00 +1.065070E-01 +3.420859E+00     +3.956649E+00 +1.065070E-01 +3.420859E+00     +3.956649E+00 +1.065070E-01 +3.420859E+00     +3.956649E+00 +1.065070E-01 +3.420859E+00     +3.956649E+00 +1.065070E-01 +3.420859E+00     +2.105790E+00 +6.473322E-01 +5.527269E+00     +2.105790E+00 +6.473322E-01 +5.527269E+00     +2.091821E+00 +2.086600E+00 +2.558670E+00     +2.091821E+00 +2.086600E+00 +2.558670E+00     +5.041506E-01 +2.354709E+00 +2.561890E+00     +5.041506E-01 +2.354709E+00 +2.561890E+00     +4.824010E+00 +8.755496E-01 +5.217430E+00     +5.041506E-01 +2.354709E+00 +2.561890E+00    
 +7.364801E-01 +2.806779E+00 +3.325250E+00     +7.364801E-01 +2.806779E+00 +3.325250E+00     +7.364801E-01 +2.806779E+00 +3.325250E+00     +3.869140E+00 +2.180499E+00 +5.555709E+00     +1.914110E+00 +1.422990E+00 +5.496099E+00     +1.914110E+00 +1.422990E+00 +5.496099E+00     +5.157350E+00 +1.765779E+00 +1.156281E+00     +5.157350E+00 +1.765779E+00 +1.156281E+00     +5.157350E+00 +1.765779E+00 +1.156281E+00     +3.758950E+00 +1.131211E+00 +3.495980E+00     +3.758950E+00 +1.131211E+00 +3.495980E+00     +3.758950E+00 +1.131211E+00 +3.495980E+00     +3.758950E+00 +1.131211E+00 +3.495980E+00     +1.374796E-01 +1.228949E+00 +4.301060E+00     +1.374796E-01 +1.228949E+00 +4.301060E+00     +2.091821E+00 +2.086600E+00 +2.558670E+00     +2.091821E+00 +2.086600E+00 +2.558670E+00     +4.824010E+00 +8.755496E-01 +5.217430E+00     +4.824010E+00 +8.755496E-01 +5.217430E+00     +4.824010E+00 +8.755496E-01 +5.217430E+00     +4.824010E+00 +8.755496E-01 +5.217430E+00    
 +5.433811E+00 +1.679949E+00 +5.185890E+00     +5.433811E+00 +1.679949E+00 +5.185890E+00     +5.433811E+00 +1.679949E+00 +5.185890E+00     +3.869140E+00 +2.180499E+00 +5.555709E+00     +1.914110E+00 +1.422990E+00 +5.496099E+00     +5.157350E+00 +1.765779E+00 +1.156281E+00     +5.157350E+00 +1.765779E+00 +1.156281E+00     +5.157350E+00 +1.765779E+00 +1.156281E+00     +3.758950E+00 +1.131211E+00 +3.495980E+00     +3.758950E+00 +1.131211E+00 +3.495980E+00     +3.758950E+00 +1.131211E+00 +3.495980E+00     +3.758950E+00 +1.131211E+00 +3.495980E+00     +1.374796E-01 +1.228949E+00 +4.301060E+00     +1.374796E-01 +1.228949E+00 +4.301060E+00     +1.374796E-01 +1.228949E+00 +4.301060E+00     +1.374796E-01 +1.228949E+00 +4.301060E+00     +2.091821E+00 +2.086600E+00 +2.558670E+00     +2.013930E+00 +1.089689E+00 +4.875490E+00     +2.013930E+00 +1.089689E+00 +4.875490E+00     +4.824010E+00 +8.755496E-01 +5.217430E+00     +5.835107E-01 +6.701733E-01 +2.399269E-01    
 +5.433811E+00 +1.679949E+00 +5.185890E+00     +5.433811E+00 +1.679949E+00 +5.185890E+00     +5.433811E+00 +1.679949E+00 +5.185890E+00     +5.433811E+00 +1.679949E+00 +5.185890E+00     +5.433811E+00 +1.679949E+00 +5.185890E+00     +6.950512E-01 +1.125559E+00 +6.052470E-01     +3.758950E+00 +1.131211E+00 +3.495980E+00     +3.758950E+00 +1.131211E+00 +3.495980E+00     +3.758950E+00 +1.131211E+00 +3.495980E+00     +3.758950E+00 +1.131211E+00 +3.495980E+00     +3.758950E+00 +1.131211E+00 +3.495980E+00     +3.758950E+00 +1.131211E+00 +3.495980E+00     +1.374796E-01 +1.228949E+00 +4.301060E+00     +1.374796E-01 +1.228949E+00 +4.301060E+00     +1.374796E-01 +1.228949E+00 +4.301060E+00     +1.374796E-01 +1.228949E+00 +4.301060E+00     +2.013930E+00 +1.089689E+00 +4.875490E+00     +2.013930E+00 +1.089689E+00 +4.875490E+00     +2.013930E+00 +1.089689E+00 +4.875490E+00     +2.013930E+00 +1.089689E+00 +4.875490E+00     +5.433811E+00 +1.679949E+00 +5.185890E+00    
 +5.433811E+00 +1.679949E+00 +5.185890E+00     +5.433811E+00 +1.679949E+00 +5.185890E+00     +5.433811E+00 +1.679949E+00 +5.185890E+00     +5.433811E+00 +1.679949E+00 +5.185890E+00     +6.950512E-01 +1.125559E+00 +6.052470E-01     +6.950512E-01 +1.125559E+00 +6.052470E-01     +6.950512E-01 +1.125559E+00 +6.052470E-01     +3.758950E+00 +1.131211E+00 +3.495980E+00     +3.758950E+00 +1.131211E+00 +3.495980E+00     +3.758950E+00 +1.131211E+00 +3.495980E+00     +3.758950E+00 +1.131211E+00 +3.495980E+00     +3.758950E+00 +1.131211E+00 +3.495980E+00     +1.374796E-01 +1.228949E+00 +4.301060E+00     +1.374796E-01 +1.228949E+00 +4.301060E+00     +1.374796E-01 +1.228949E+00 +4.301060E+00     +1.374796E-01 +1.228949E+00 +4.301060E+00     +2.013930E+00 +1.089689E+00 +4.875490E+00     +2.013930E+00 +1.089689E+00 +4.875490E+00     +2.013930E+00 +1.089689E+00 +4.875490E+00     +2.013930E+00 +1.089689E+00 +4.875490E+00     +2.013930E+00 +1.089689E+00 +4.875490E+00    
 +5.433811E+00 +1.679949E+00 +5.185890E+00     +5.433811E+00 +1.679949E+00 +5.185890E+00     +5.433811E+00 +1.679949E+00 +5.185890E+00     +5.433811E+00 +1.679949E+00 +5.185890E+00     +6.950512E-01 +1.125559E+00 +6.052470E-01     +6.950512E-01 +1.125559E+00 +6.052470E-01     +6.950512E-01 +1.125559E+00 +6.052470E-01     +3.758950E+00 +1.131211E+00 +3.495980E+00     +3.758950E+00 +1.131211E+00 +3.495980E+00     +3.758950E+00 +1.131211E+00 +3.495980E+00     +3.758950E+00 +1.131211E+00 +3.495980E+00     +7.389550E-01 +1.758239E+00 +3.113430E+00     +9.909788E-01 +2.469810E+00 +3.427329E+00     +9.909788E-01 +2.469810E+00 +3.427329E+00     +9.909788E-01 +2.469810E+00 +3.427329E+00     +9.909788E-01 +2.469810E+00 +3.427329E+00     +2.013930E+00 +1.089689E+00 +4.875490E+00     +2.013930E+00 +1.089689E+00 +4.875490E+00     +2.013930E+00 +1.089689E+00 +4.875490E+00     +2.013930E+00 +1.089689E+00 +4.875490E+00     +2.013930E+00 +1.089689E+00 +4.875490E+00    
 +5.433811E+00 +1.679949E+00 +5.185890E+00     +5.433811E+00 +1.679949E+00 +5.185890E+00     +5.433811E+00 +1.679949E+00 +5.185890E+00     +5.433811E+00 +1.679949E+00 +5.185890E+00     +6.950512E-01 +1.125559E+00 +6.052470E-01     +6.950512E-01 +1.125559E+00 +6.052470E-01     +6.950512E-01 +1.125559E+00 +6.052470E-01     +3.758950E+00 +1.131211E+00 +3.495980E+00     +3.758950E+00 +1.131211E+00 +3.495980E+00     +3.758950E+00 +1.131211E+00 +3.495980E+00     +3.758950E+00 +1.131211E+00 +3.495980E+00     +7.389550E-01 +1.758239E+00 +3.113430E+00     +9.909788E-01 +2.469810E+00 +3.427329E+00     +9.909788E-01 +2.469810E+00 +3.427329E+00     +9.909788E-01 +2.469810E+00 +3.427329E+00     +9.909788E-01 +2.469810E+00 +3.427329E+00     +2.013930E+00 +1.089689E+00 +4.875490E+00     +2.013930E+00 +1.089689E+00 +4.875490E+00     +2.013930E+00 +1.089689E+00 +4.875490E+00     +2.013930E+00 +1.089689E+00 +4.875490E+00     +2.013930E+00 +1.089689E+00 +4.875490E+00    
 +5.433811E+00 +1.679949E+00 +5.185890E+00     +5.433811E+00 +1.679949E+00 +5.185890E+00     +5.433811E+00 +1.679949E+00 +5.185890E+00     +1.513420E+00 +1.589400E+00 +4.202107E-01     +2.543310E+00 +1.935980E+00 +2.518671E+00     +2.543310E+00 +1.935980E+00 +2.518671E+00     +2.543310E+00 +1.935980E+00 +2.518671E+00     +3.758950E+00 +1.131211E+00 +3.495980E+00     +3.758950E+00 +1.131211E+00 +3.495980E+00     +3.890700E+00 +2.090150E+00 +6.044089E+00     +3.890700E+00 +2.090150E+00 +6.044089E+00     +6.054039E+00 +8.540367E-01 +9.057613E-01     +6.054039E+00 +8.540367E-01 +9.057613E-01     +6.054039E+00 +8.540367E-01 +9.057613E-01     +4.214370E+00 +2.327639E+00 +6.006060E+00     +4.214370E+00 +2.327639E+00 +6.006060E+00     +4.214370E+00 +2.327639E+00 +6.006060E+00     +2.013930E+00 +1.089689E+00 +4.875490E+00     +2.013930E+00 +1.089689E+00 +4.875490E+00     +2.013930E+00 +1.089689E+00 +4.875490E+00     +5.433811E+00 +1.679949E+00 +5.185890E+00    
 +5.433811E+00 +1.679949E+00 +5.185890E+00     +2.072921E+00 +2.692690E+00 +2.495990E+00     +5.433811E+00 +1.679949E+00 +5.185890E+00     +3.215650E+00 +1.546719E+00 +1.366820E+00     +2.543310E+00 +1.935980E+00 +2.518671E+00     +2.543310E+00 +1.935980E+00 +2.518671E+00     +2.543310E+00 +1.935980E+00 +2.518671E+00     +2.543310E+00 +1.935980E+00 +2.518671E+00     +3.612540E+00 +1.265290E+00 +3.981019E+00     +3.612540E+00 +1.265290E+00 +3.981019E+00     +3.890700E+00 +2.090150E+00 +6.044089E+00     +6.054039E+00 +8.540367E-01 +9.057613E-01     +6.054039E+00 +8.540367E-01 +9.057613E-01     +6.054039E+00 +8.540367E-01 +9.057613E-01     +1.224610E+00 +1.377710E+00 +3.225890E+00     +1.224610E+00 +1.377710E+00 +3.225890E+00     +1.224610E+00 +1.377710E+00 +3.225890E+00     +1.224610E+00 +1.377710E+00 +3.225890E+00     +2.563601E+00 +1.783100E+00 +2.644291E+00     +2.563601E+00 +1.783100E+00 +2.644291E+00     +5.433811E+00 +1.679949E+00 +5.185890E+00    
 +2.072921E+00 +2.692690E+00 +2.495990E+00     +2.072921E+00 +2.692690E+00 +2.495990E+00     +2.072921E+00 +2.692690E+00 +2.495990E+00     +2.072921E+00 +2.692690E+00 +2.495990E+00     +2.543310E+00 +1.935980E+00 +2.518671E+00     +1.114019E+00 +9.085102E-01 +5.696470E+00     +1.114019E+00 +9.085102E-01 +5.696470E+00     +1.114019E+00 +9.085102E-01 +5.696470E+00     +3.612540E+00 +1.265290E+00 +3.981019E+00     +3.612540E+00 +1.265290E+00 +3.981019E+00     +6.054039E+00 +8.540367E-01 +9.057613E-01     +6.054039E+00 +8.540367E-01 +9.057613E-01     +6.054039E+00 +8.540367E-01 +9.057613E-01     +6.054039E+00 +8.540367E-01 +9.057613E-01     +1.224610E+00 +1.377710E+00 +3.225890E+00     +1.224610E+00 +1.377710E+00 +3.225890E+00     +1.224610E+00 +1.377710E+00 +3.225890E+00     +1.224610E+00 +1.377710E+00 +3.225890E+00     +2.563601E+00 +1.783100E+00 +2.644291E+00     +2.563601E+00 +1.783100E+00 +2.644291E+00     +2.563601E+00 +1.783100E+00 +2.644291E+00    
 +2.072921E+00 +2.692690E+00 +2.495990E+00     +2.072921E+00 +2.692690E+00 +2.495990E+00     +2.072921E+00 +2.692690E+00 +2.495990E+00     +2.072921E+00 +2.692690E+00 +2.495990E+00     +1.114019E+00 +9.085102E-01 +5.696470E+00     +1.114019E+00 +9.085102E-01 +5.696470E+00     +1.114019E+00 +9.085102E-01 +5.696470E+00     +1.114019E+00 +9.085102E-01 +5.696470E+00     +1.114019E+00 +9.085102E-01 +5.696470E+00     +3.612540E+00 +1.265290E+00 +3.981019E+00     +6.054039E+00 +8.540367E-01 +9.057613E-01     +6.054039E+00 +8.540367E-01 +9.057613E-01     +6.054039E+00 +8.540367E-01 +9.057613E-01     +6.054039E+00 +8.540367E-01 +9.057613E-01     +1.224610E+00 +1.377710E+00 +3.225890E+00     +1.224610E+00 +1.377710E+00 +3.225890E+00     +1.224610E+00 +1.377710E+00 +3.225890E+00     +1.224610E+00 +1.377710E+00 +3.225890E+00     +2.563601E+00 +1.783100E+00 +2.644291E+00     +3.656170E+00 +2.634601E+00 +5.280831E+00     +3.656170E+00 +2.634601E+00 +5.280831E+00    
 +2.615599E+00 +1.628670E+00 +4.890741E+00     +2.072921E+00 +2.692690E+00 +2.495990E+00     +4.046370E+00 +2.683341E+00 +1.019586E-01     +4.046370E+00 +2.683341E+00 +1.019586E-01     +1.114019E+00 +9.085102E-01 +5.696470E+00     +1.114019E+00 +9.085102E-01 +5.696470E+00     +1.114019E+00 +9.085102E-01 +5.696470E+00     +1.114019E+00 +9.085102E-01 +5.696470E+00     +1.114019E+00 +9.085102E-01 +5.696470E+00     +1.114019E+00 +9.085102E-01 +5.696470E+00     +6.054039E+00 +8.540367E-01 +9.057613E-01     +6.054039E+00 +8.540367E-01 +9.057613E-01     +6.054039E+00 +8.540367E-01 +9.057613E-01     +6.054039E+00 +8.540367E-01 +9.057613E-01     +1.224610E+00 +1.377710E+00 +3.225890E+00     +1.224610E+00 +1.377710E+00 +3.225890E+00     +3.881970E+00 +6.810327E-01 +3.088199E+00     +3.881970E+00 +6.810327E-01 +3.088199E+00     +3.656170E+00 +2.634601E+00 +5.280831E+00     +2.053430E+00 +2.508590E+00 +3.670989E+00     +3.656170E+00 +2.634601E+00 +5.280831E+00    
 +2.615599E+00 +1.628670E+00 +4.890741E+00     +4.046370E+00 +2.683341E+00 +1.019586E-01     +4.046370E+00 +2.683341E+00 +1.019586E-01     +4.046370E+00 +2.683341E+00 +1.019586E-01     +4.046370E+00 +2.683341E+00 +1.019586E-01     +1.114019E+00 +9.085102E-01 +5.696470E+00     +1.114019E+00 +9.085102E-01 +5.696470E+00     +1.114019E+00 +9.085102E-01 +5.696470E+00     +1.114019E+00 +9.085102E-01 +5.696470E+00     +1.114019E+00 +9.085102E-01 +5.696470E+00     +1.114019E+00 +9.085102E-01 +5.696470E+00     +6.054039E+00 +8.540367E-01 +9.057613E-01     +6.054039E+00 +8.540367E-01 +9.057613E-01     +6.054039E+00 +8.540367E-01 +9.057613E-01     +3.881970E+00 +6.810327E-01 +3.088199E+00     +3.881970E+00 +6.810327E-01 +3.088199E+00     +3.881970E+00 +6.810327E-01 +3.088199E+00     +3.881970E+00 +6.810327E-01 +3.088199E+00     +2.053430E+00 +2.508590E+00 +3.670989E+00     +2.053430E+00 +2.508590E+00 +3.670989E+00     +2.053430E+00 +2.508590E+00 +3.670989E+00    
 +4.046370E+00 +2.683341E+00 +1.019586E-01     +4.046370E+00 +2.683341E+00 +1.019586E-01     +4.046370E+00 +2.683341E+00 +1.019586E-01     +4.046370E+00 +2.683341E+00 +1.019586E-01     +4.046370E+00 +2.683341E+00 +1.019586E-01     +4.046370E+00 +2.683341E+00 +1.019586E-01     +1.114019E+00 +9.085102E-01 +5.696470E+00     +1.114019E+00 +9.085102E-01 +5.696470E+00     +1.114019E+00 +9.085102E-01 +5.696470E+00     +1.114019E+00 +9.085102E-01 +5.696470E+00     +4.813019E+00 +2.408141E+00 +2.331376E-01     +4.813019E+00 +2.408141E+00 +2.331376E-01     +4.813019E+00 +2.408141E+00 +2.331376E-01     +3.881970E+00 +6.810327E-01 +3.088199E+00     +3.881970E+00 +6.810327E-01 +3.088199E+00     +3.881970E+00 +6.810327E-01 +3.088199E+00     +3.881970E+00 +6.810327E-01 +3.088199E+00     +3.881970E+00 +6.810327E-01 +3.088199E+00     +3.881970E+00 +6.810327E-01 +3.088199E+00     +3.881970E+00 +6.810327E-01 +3.088199E+00     +3.881970E+00 +6.810327E-01 +3.088199E+00    
 +4.046370E+00 +2.683341E+00 +1.019586E-01     +4.046370E+00 +2.683341E+00 +1.019586E-01     +4.046370E+00 +2.683341E+00 +1.019586E-01     +4.046370E+00 +2.683341E+00 +1.019586E-01     +4.046370E+00 +2.683341E+00 +1.019586E-01     +4.046370E+00 +2.683341E+00 +1.019586E-01     +1.865129E-01 +4.469998E-01 +4.307549E+00     +1.114019E+00 +9.085102E-01 +5.696470E+00     +1.114019E+00 +9.085102E-01 +5.696470E+00     +4.813019E+00 +2.408141E+00 +2.331376E-01     +4.813019E+00 +2.408141E+00 +2.331376E-01     +4.813019E+00 +2.408141E+00 +2.331376E-01     +4.813019E+00 +2.408141E+00 +2.331376E-01     +3.881970E+00 +6.810327E-01 +3.088199E+00     +3.881970E+00 +6.810327E-01 +3.088199E+00     +3.881970E+00 +6.810327E-01 +3.088199E+00     +3.881970E+00 +6.810327E-01 +3.088199E+00     +3.881970E+00 +6.810327E-01 +3.088199E+00     +3.881970E+00 +6.810327E-01 +3.088199E+00     +3.881970E+00 +6.810327E-01 +3.088199E+00     +3.881970E+00 +6.810327E-01 +3.088199E+00    
 +1.198790E+00 +2.438080E+00 +8.100614E-01     +1.198790E+00 +2.438080E+00 +8.100614E-01     +1.198790E+00 +2.438080E+00 +8.100614E-01     +4.046370E+00 +2.683341E+00 +1.019586E-01     +4.046370E+00 +2.683341E+00 +1.019586E-01     +4.046370E+00 +2.683341E+00 +1.019586E-01     +4.046370E+00 +2.683341E+00 +1.019586E-01     +4.046370E+00 +2.683341E+00 +1.019586E-01     +1.070719E+00 +3.908229E-01 +4.967207E-01     +1.666920E+00 +2.348550E+00 +2.015970E+00     +4.813019E+00 +2.408141E+00 +2.331376E-01     +4.813019E+00 +2.408141E+00 +2.331376E-01     +2.593730E+00 +2.615301E+00 +5.023920E+00     +5.915940E+00 +1.370550E+00 +4.709919E+00     +5.915940E+00 +1.370550E+00 +4.709919E+00     +3.881970E+00 +6.810327E-01 +3.088199E+00     +3.881970E+00 +6.810327E-01 +3.088199E+00     +3.881970E+00 +6.810327E-01 +3.088199E+00     +3.881970E+00 +6.810327E-01 +3.088199E+00     +3.881970E+00 +6.810327E-01 +3.088199E+00     +3.881970E+00 +6.810327E-01 +3.088199E+00    
 +5.041506E-01 +2.354709E+00 +2.561890E+00     +1.198790E+00 +2.438080E+00 +8.100614E-01     +1.198790E+00 +2.438080E+00 +8.100614E-01     +3.071980E+00 +9.047298E-01 +7.368065E-01     +1.198790E+00 +2.438080E+00 +8.100614E-01     +1.198790E+00 +2.438080E+00 +8.100614E-01     +1.198790E+00 +2.438080E+00 +8.100614E-01     +1.070719E+00 +3.908229E-01 +4.967207E-01     +1.070719E+00 +3.908229E-01 +4.967207E-01     +1.070719E+00 +3.908229E-01 +4.967207E-01     +3.084890E+00 +2.202740E+00 +4.869291E+00     +3.084890E+00 +2.202740E+00 +4.869291E+00     +5.915940E+00 +1.370550E+00 +4.709919E+00     +5.915940E+00 +1.370550E+00 +4.709919E+00     +5.915940E+00 +1.370550E+00 +4.709919E+00     +5.915940E+00 +1.370550E+00 +4.709919E+00     +3.881970E+00 +6.810327E-01 +3.088199E+00     +3.881970E+00 +6.810327E-01 +3.088199E+00     +3.881970E+00 +6.810327E-01 +3.088199E+00     +3.881970E+00 +6.810327E-01 +3.088199E+00     +5.041506E-01 +2.354709E+00 +2.561890E+00    
 +5.041506E-01 +2.354709E+00 +2.561890E+00     +1.198790E+00 +2.438080E+00 +8.100614E-01     +1.198790E+00 +2.438080E+00 +8.100614E-01     +1.198790E+00 +2.438080E+00 +8.100614E-01     +1.198790E+00 +2.438080E+00 +8.100614E-01     +1.198790E+00 +2.438080E+00 +8.100614E-01     +1.198790E+00 +2.438080E+00 +8.100614E-01     +3.956649E+00 +1.065070E-01 +3.420859E+00     +1.070719E+00 +3.908229E-01 +4.967207E-01     +3.956649E+00 +1.065070E-01 +3.420859E+00     +3.956649E+00 +1.065070E-01 +3.420859E+00     +5.915940E+00 +1.370550E+00 +4.709919E+00     +5.915940E+00 +1.370550E+00 +4.709919E+00     +5.915940E+00 +1.370550E+00 +4.709919E+00     +5.915940E+00 +1.370550E+00 +4.709919E+00     +5.915940E+00 +1.370550E+00 +4.709919E+00     +5.915940E+00 +1.370550E+00 +4.709919E+00     +3.881970E+00 +6.810327E-01 +3.088199E+00     +5.041506E-01 +2.354709E+00 +2.561890E+00     +5.041506E-01 +2.354709E+00 +2.561890E+00     +5.041506E-01 +2.354709E+00 +2.561890E+00    
 +5.041506E-01 +2.354709E+00 +2.561890E+00     +1.198790E+00 +2.438080E+00 +8.100614E-01     +3.622480E+00 +2.571390E+00 +3.240610E+00     +3.622480E+00 +2.571390E+00 +3.240610E+00     +3.622480E+00 +2.571390E+00 +3.240610E+00     +1.198790E+00 +2.438080E+00 +8.100614E-01     +6.237170E+00 +1.034020E+00 +5.949609E+00     +3.956649E+00 +1.065070E-01 +3.420859E+00     +3.956649E+00 +1.065070E-01 +3.420859E+00     +3.956649E+00 +1.065070E-01 +3.420859E+00     +3.956649E+00 +1.065070E-01 +3.420859E+00     +3.956649E+00 +1.065070E-01 +3.420859E+00     +3.115390E+00 +1.210260E+00 +4.526370E+00     +3.115390E+00 +1.210260E+00 +4.526370E+00     +5.915940E+00 +1.370550E+00 +4.709919E+00     +5.915940E+00 +1.370550E+00 +4.709919E+00     +5.915940E+00 +1.370550E+00 +4.709919E+00     +5.041506E-01 +2.354709E+00 +2.561890E+00     +5.041506E-01 +2.354709E+00 +2.561890E+00     +5.041506E-01 +2.354709E+00 +2.561890E+00     +5.041506E-01 +2.354709E+00 +2.561890E+00    
 +5.041506E-01 +2.354709E+00 +2.561890E+00     +5.041506E-01 +2.354709E+00 +2.561890E+00     +3.622480E+00 +2.571390E+00 +3.240610E+00     +3.622480E+00 +2.571390E+00 +3.240610E+00     +1.914110E+00 +1.422990E+00 +5.496099E+00     +1.914110E+00 +1.422990E+00 +5.496099E+00     +1.914110E+00 +1.422990E+00 +5.496099E+00     +3.956649E+00 +1.065070E-01 +3.420859E+00     +3.956649E+00 +1.065070E-01 +3.420859E+00     +3.956649E+00 +1.065070E-01 +3.420859E+00     +3.956649E+00 +1.065070E-01 +3.420859E+00     +3.956649E+00 +1.065070E-01 +3.420859E+00     +3.115390E+00 +1.210260E+00 +4.526370E+00     +3.115390E+00 +1.210260E+00 +4.526370E+00     +5.915940E+00 +1.370550E+00 +4.709919E+00     +5.915940E+00 +1.370550E+00 +4.709919E+00     +5.915940E+00 +1.370550E+00 +4.709919E+00     +5.041506E-01 +2.354709E+00 +2.561890E+00     +5.041506E-01 +2.354709E+00 +2.561890E+00     +5.041506E-01 +2.354709E+00 +2.561890E+00     +5.041506E-01 +2.354709E+00 +2.561890E+00    
 +5.041506E-01 +2.354709E+00 +2.561890E+00     +5.041506E-01 +2.354709E+00 +2.561890E+00     +3.622480E+00 +2.571390E+00 +3.240610E+00     +1.914110E+00 +1.422990E+00 +5.496099E+00     +1.914110E+00 +1.422990E+00 +5.496099E+00     +1.914110E+00 +1.422990E+00 +5.496099E+00     +3.956649E+00 +1.065070E-01 +3.420859E+00     +3.956649E+00 +1.065070E-01 +3.420859E+00     +3.956649E+00 +1.065070E-01 +3.420859E+00     +3.956649E+00 +1.065070E-01 +3.420859E+00     +3.956649E+00 +1.065070E-01 +3.420859E+00     +3.956649E+00 +1.065070E-01 +3.420859E+00     +3.956649E+00 +1.065070E-01 +3.420859E+00     +3.115390E+00 +1.210260E+00 +4.526370E+00     +2.091821E+00 +2.086600E+00 +2.558670E+00     +2.091821E+00 +2.086600E+00 +2.558670E+00     +5.570089E+00 +1.761910E+00 +5.651350E+00     +5.570089E+00 +1.761910E+00 +5.651350E+00     +5.041506E-01 +2.354709E+00 +2.561890E+00     +5.041506E-01 +2.354709E+00 +2.561890E+00     +5.041506E-01 +2.354709E+00 +2.561890E+00    
 +7.364801E-01 +2.806779E+00 +3.325250E+00     +7.364801E-01 +2.806779E+00 +3.325250E+00     +7.364801E-01 +2.806779E+00 +3.325250E+00     +1.914110E+00 +1.422990E+00 +5.496099E+00     +1.914110E+00 +1.422990E+00 +5.496099E+00     +1.914110E+00 +1.422990E+00 +5.496099E+00     +1.914110E+00 +1.422990E+00 +5.496099E+00     +3.956649E+00 +1.065070E-01 +3.420859E+00     +3.956649E+00 +1.065070E-01 +3.420859E+00     +3.956649E+00 +1.065070E-01 +3.420859E+00     +3.956649E+00 +1.065070E-01 +3.420859E+00     +3.956649E+00 +1.065070E-01 +3.420859E+00     +3.956649E+00 +1.065070E-01 +3.420859E+00     +2.091821E+00 +2.086600E+00 +2.558670E+00     +2.091821E+00 +2.086600E+00 +2.558670E+00     +2.091821E+00 +2.086600E+00 +2.558670E+00     +2.091821E+00 +2.086600E+00 +2.558670E+00     +5.570089E+00 +1.761910E+00 +5.651350E+00     +5.041506E-01 +2.354709E+00 +2.561890E+00     +5.041506E-01 +2.354709E+00 +2.561890E+00     +5.041506E-01 +2.354709E+00 +2.561890E+00    
 +5.433811E+00 +1.679949E+00 +5.185890E+00     +5.433811E+00 +1.679949E+00 +5.185890E+00     +7.364801E-01 +2.806779E+00 +3.325250E+00     +3.869140E+00 +2.180499E+00 +5.555709E+00     +1.914110E+00 +1.422990E+00 +5.496099E+00     +1.914110E+00 +1.422990E+00 +5.496099E+00     +5.157350E+00 +1.765779E+00 +1.156281E+00     +5.157350E+00 +1.765779E+00 +1.156281E+00     +3.956649E+00 +1.065070E-01 +3.420859E+00     +3.956649E+00 +1.065070E-01 +3.420859E+00     +3.956649E+00 +1.065070E-01 +3.420859E+00     +3.758950E+00 +1.131211E+00 +3.495980E+00     +3.758950E+00 +1.131211E+00 +3.495980E+00     +1.374796E-01 +1.228949E+00 +4.301060E+00     +2.091821E+00 +2.086600E+00 +2.558670E+00     +2.091821E+00 +2.086600E+00 +2.558670E+00     +2.091821E+00 +2.086600E+00 +2.558670E+00     +2.091821E+00 +2.086600E+00 +2.558670E+00     +1.615070E+00 +1.144740E+00 +5.368900E+00     +4.824010E+00 +8.755496E-01 +5.217430E+00     +4.824010E+00 +8.755496E-01 +5.217430E+00    
 +5.433811E+00 +1.679949E+00 +5.185890E+00     +5.433811E+00 +1.679949E+00 +5.185890E+00     +5.433811E+00 +1.679949E+00 +5.185890E+00     +5.433811E+00 +1.679949E+00 +5.185890E+00     +1.914110E+00 +1.422990E+00 +5.496099E+00     +3.680027E-01 +1.781810E+00 +2.174680E-02     +3.680027E-01 +1.781810E+00 +2.174680E-02     +3.758950E+00 +1.131211E+00 +3.495980E+00     +3.758950E+00 +1.131211E+00 +3.495980E+00     +3.758950E+00 +1.131211E+00 +3.495980E+00     +3.758950E+00 +1.131211E+00 +3.495980E+00     +3.758950E+00 +1.131211E+00 +3.495980E+00     +1.374796E-01 +1.228949E+00 +4.301060E+00     +1.374796E-01 +1.228949E+00 +4.301060E+00     +1.374796E-01 +1.228949E+00 +4.301060E+00     +2.091821E+00 +2.086600E+00 +2.558670E+00     +2.091821E+00 +2.086600E+00 +2.558670E+00     +1.615070E+00 +1.144740E+00 +5.368900E+00     +1.615070E+00 +1.144740E+00 +5.368900E+00     +4.824010E+00 +8.755496E-01 +5.217430E+00     +5.433811E+00 +1.679949E+00 +5.185890E+00    
 +5.433811E+00 +1.679949E+00 +5.185890E+00     +5.433811E+00 +1.679949E+00 +5.185890E+00     +5.433811E+00 +1.679949E+00 +5.185890E+00     +5.433811E+00 +1.679949E+00 +5.185890E+00     +5.433811E+00 +1.679949E+00 +5.185890E+00     +3.680027E-01 +1.781810E+00 +2.174680E-02     +3.680027E-01 +1.781810E+00 +2.174680E-02     +3.680027E-01 +1.781810E+00 +2.174680E-02     +3.758950E+00 +1.131211E+00 +3.495980E+00     +3.758950E+00 +1.131211E+00 +3.495980E+00     +3.758950E+00 +1.131211E+00 +3.495980E+00     +3.758950E+00 +1.131211E+00 +3.495980E+00     +1.374796E-01 +1.228949E+00 +4.301060E+00     +1.374796E-01 +1.228949E+00 +4.301060E+00     +1.374796E-01 +1.228949E+00 +4.301060E+00     +1.374796E-01 +1.228949E+00 +4.301060E+00     +1.374796E-01 +1.228949E+00 +4.301060E+00     +2.013930E+00 +1.089689E+00 +4.875490E+00     +2.013930E+00 +1.089689E+00 +4.875490E+00     +2.013930E+00 +1.089689E+00 +4.875490E+00     +5.433811E+00 +1.679949E+00 +5.185890E+00    
 +5.433811E+00 +1.679949E+00 +5.185890E+00     +5.433811E+00 +1.679949E+00 +5.185890E+00     +5.433811E+00 +1.679949E+00 +5.185890E+00     +5.433811E+00 +1.679949E+00 +5.185890E+00     +5.433811E+00 +1.679949E+00 +5.185890E+00     +3.680027E-01 +1.781810E+00 +2.174680E-02     +3.680027E-01 +1.781810E+00 +2.174680E-02     +3.680027E-01 +1.781810E+00 +2.174680E-02     +3.758950E+00 +1.131211E+00 +3.495980E+00     +3.758950E+00 +1.131211E+00 +3.495980E+00     +3.758950E+00 +1.131211E+00 +3.495980E+00     +7.389550E-01 +1.758239E+00 +3.113430E+00     +1.374796E-01 +1.228949E+00 +4.301060E+00     +1.374796E-01 +1.228949E+00 +4.301060E+00     +1.374796E-01 +1.228949E+00 +4.301060E+00     +1.374796E-01 +1.228949E+00 +4.301060E+00     +1.374796E-01 +1.228949E+00 +4.301060E+00     +2.013930E+00 +1.089689E+00 +4.875490E+00     +2.013930E+00 +1.089689E+00 +4.875490E+00     +2.013930E+00 +1.089689E+00 +4.875490E+00     +5.433811E+00 +1.679949E+00 +5.185890E+00    
 +5.433811E+00 +1.679949E+00 +5.185890E+00     +5.433811E+00 +1.679949E+00 +5.185890E+00     +5.433811E+00 +1.679949E+00 +5.185890E+00     +5.433811E+00 +1.679949E+00 +5.185890E+00     +5.433811E+00 +1.679949E+00 +5.185890E+00     +6.950512E-01 +1.125559E+00 +6.052470E-01     +3.680027E-01 +1.781810E+00 +2.174680E-02     +3.680027E-01 +1.781810E+00 +2.174680E-02     +3.680027E-01 +1.781810E+00 +2.174680E-02     +3.758950E+00 +1.131211E+00 +3.495980E+00     +7.389550E-01 +1.758239E+00 +3.113430E+00     +7.389550E-01 +1.758239E+00 +3.113430E+00     +9.909788E-01 +2.469810E+00 +3.427329E+00     +9.909788E-01 +2.469810E+00 +3.427329E+00     +9.909788E-01 +2.469810E+00 +3.427329E+00     +9.478342E-01 +1.460731E+00 +2.908085E-01     +9.478342E-01 +1.460731E+00 +2.908085E-01     +2.013930E+00 +1.089689E+00 +4.875490E+00     +2.013930E+00 +1.089689E+00 +4.875490E+00     +2.013930E+00 +1.089689E+00 +4.875490E+00     +5.433811E+00 +1.679949E+00 +5.185890E+00    
 +5.433811E+00 +1.679949E+00 +5.185890E+00     +5.433811E+00 +1.679949E+00 +5.185890E+00     +5.433811E+00 +1.679949E+00 +5.185890E+00     +5.433811E+00 +1.679949E+00 +5.185890E+00     +5.433811E+00 +1.679949E+00 +5.185890E+00     +2.764511E+00 +1.413471E+00 +1.580460E+00     +3.680027E-01 +1.781810E+00 +2.174680E-02     +3.680027E-01 +1.781810E+00 +2.174680E-02     +3.680027E-01 +1.781810E+00 +2.174680E-02     +3.758950E+00 +1.131211E+00 +3.495980E+00     +7.389550E-01 +1.758239E+00 +3.113430E+00     +7.389550E-01 +1.758239E+00 +3.113430E+00     +9.909788E-01 +2.469810E+00 +3.427329E+00     +9.909788E-01 +2.469810E+00 +3.427329E+00     +9.909788E-01 +2.469810E+00 +3.427329E+00     +9.478342E-01 +1.460731E+00 +2.908085E-01     +3.433651E+00 +1.387669E+00 +4.191160E+00     +3.433651E+00 +1.387669E+00 +4.191160E+00     +2.013930E+00 +1.089689E+00 +4.875490E+00     +2.013930E+00 +1.089689E+00 +4.875490E+00     +5.433811E+00 +1.679949E+00 +5.185890E+00    
 +5.433811E+00 +1.679949E+00 +5.185890E+00     +5.433811E+00 +1.679949E+00 +5.185890E+00     +5.433811E+00 +1.679949E+00 +5.185890E+00     +5.433811E+00 +1.679949E+00 +5.185890E+00     +2.764511E+00 +1.413471E+00 +1.580460E+00     +2.764511E+00 +1.413471E+00 +1.580460E+00     +2.764511E+00 +1.413471E+00 +1.580460E+00     +3.680027E-01 +1.781810E+00 +2.174680E-02     +3.680027E-01 +1.781810E+00 +2.174680E-02     +3.890700E+00 +2.090150E+00 +6.044089E+00     +3.890700E+00 +2.090150E+00 +6.044089E+00     +6.054039E+00 +8.540367E-01 +9.057613E-01     +6.054039E+00 +8.540367E-01 +9.057613E-01     +9.909788E-01 +2.469810E+00 +3.427329E+00     +9.909788E-01 +2.469810E+00 +3.427329E+00     +3.433651E+00 +1.387669E+00 +4.191160E+00     +3.433651E+00 +1.387669E+00 +4.191160E+00     +3.433651E+00 +1.387669E+00 +4.191160E+00     +3.433651E+00 +1.387669E+00 +4.191160E+00     +2.013930E+00 +1.089689E+00 +4.875490E+00     +5.433811E+00 +1.679949E+00 +5.185890E+00    
 +5.433811E+00 +1.679949E+00 +5.185890E+00     +2.381050E+00 +2.283360E+00 +4.075920E+00     +5.433811E+00 +1.679949E+00 +5.185890E+00     +5.433811E+00 +1.679949E+00 +5.185890E+00     +2.764511E+00 +1.413471E+00 +1.580460E+00     +2.764511E+00 +1.413471E+00 +1.580460E+00     +2.764511E+00 +1.413471E+00 +1.580460E+00     +1.044690E+00 +1.064689E+00 +5.803421E+00     +1.044690E+00 +1.064689E+00 +5.803421E+00     +3.612540E+00 +1.265290E+00 +3.981019E+00     +3.890700E+00 +2.090150E+00 +6.044089E+00     +6.054039E+00 +8.540367E-01 +9.057613E-01     +6.054039E+00 +8.540367E-01 +9.057613E-01     +6.054039E+00 +8.540367E-01 +9.057613E-01     +1.224610E+00 +1.377710E+00 +3.225890E+00     +1.224610E+00 +1.377710E+00 +3.225890E+00     +3.433651E+00 +1.387669E+00 +4.191160E+00     +3.433651E+00 +1.387669E+00 +4.191160E+00     +3.433651E+00 +1.387669E+00 +4.191160E+00     +2.563601E+00 +1.783100E+00 +2.644291E+00     +5.433811E+00 +1.679949E+00 +5.185890E+00    
 +2.381050E+00 +2.283360E+00 +4.075920E+00     +2.381050E+00 +2.283360E+00 +4.075920E+00     +2.381050E+00 +2.283360E+00 +4.075920E+00     +2.381050E+00 +2.283360E+00 +4.075920E+00     +1.114019E+00 +9.085102E-01 +5.696470E+00     +1.114019E+00 +9.085102E-01 +5.696470E+00     +1.114019E+00 +9.085102E-01 +5.696470E+00     +1.114019E+00 +9.085102E-01 +5.696470E+00     +1.114019E+00 +9.085102E-01 +5.696470E+00     +3.612540E+00 +1.265290E+00 +3.981019E+00     +6.054039E+00 +8.540367E-01 +9.057613E-01     +6.054039E+00 +8.540367E-01 +9.057613E-01     +6.054039E+00 +8.540367E-01 +9.057613E-01     +6.054039E+00 +8.540367E-01 +9.057613E-01     +1.224610E+00 +1.377710E+00 +3.225890E+00     +1.224610E+00 +1.377710E+00 +3.225890E+00     +1.224610E+00 +1.377710E+00 +3.225890E+00     +3.433651E+00 +1.387669E+00 +4.191160E+00     +2.563601E+00 +1.783100E+00 +2.644291E+00     +2.563601E+00 +1.783100E+00 +2.644291E+00     +2.563601E+00 +1.783100E+00 +2.644291E+00    
 +2.615599E+00 +1.628670E+00 +4.890741E+00     +2.615599E+00 +1.628670E+00 +4.890741E+00     +2.615599E+00 +1.628670E+00 +4.890741E+00     +2.615599E+00 +1.628670E+00 +4.890741E+00     +1.114019E+00 +9.085102E-01 +5.696470E+00     +1.114019E+00 +9.085102E-01 +5.696470E+00     +1.114019E+00 +9.085102E-01 +5.696470E+00     +1.114019E+00 +9.085102E-01 +5.696470E+00     +1.114019E+00 +9.085102E-01 +5.696470E+00     +3.612540E+00 +1.265290E+00 +3.981019E+00     +6.054039E+00 +8.540367E-01 +9.057613E-01     +6.054039E+00 +8.540367E-01 +9.057613E-01     +6.054039E+00 +8.540367E-01 +9.057613E-01     +6.054039E+00 +8.540367E-01 +9.057613E-01     +1.224610E+00 +1.377710E+00 +3.225890E+00     +5.858500E+00 +2.491110E+00 +6.200010E+00     +1.224610E+00 +1.377710E+00 +3.225890E+00     +3.881970E+00 +6.810327E-01 +3.088199E+00     +2.563601E+00 +1.783100E+00 +2.644291E+00     +2.053430E+00 +2.508590E+00 +3.670989E+00     +2.053430E+00 +2.508590E+00 +3.670989E+00    
 +2.615599E+00 +1.628670E+00 +4.890741E+00     +2.615599E+00 +1.628670E+00 +4.890741E+00     +2.615599E+00 +1.628670E+00 +4.890741E+00     +2.615599E+00 +1.628670E+00 +4.890741E+00     +1.114019E+00 +9.085102E-01 +5.696470E+00     +1.114019E+00 +9.085102E-01 +5.696470E+00     +1.114019E+00 +9.085102E-01 +5.696470E+00     +1.114019E+00 +9.085102E-01 +5.696470E+00     +1.114019E+00 +9.085102E-01 +5.696470E+00     +1.114019E+00 +9.085102E-01 +5.696470E+00     +9.955812E-01 +2.258920E+00 +2.958440E+00     +6.054039E+00 +8.540367E-01 +9.057613E-01     +6.054039E+00 +8.540367E-01 +9.057613E-01     +5.858500E+00 +2.491110E+00 +6.200010E+00     +5.858500E+00 +2.491110E+00 +6.200010E+00     +5.858500E+00 +2.491110E+00 +6.200010E+00     +3.881970E+00 +6.810327E-01 +3.088199E+00     +3.881970E+00 +6.810327E-01 +3.088199E+00     +2.053430E+00 +2.508590E+00 +3.670989E+00     +2.053430E+00 +2.508590E+00 +3.670989E+00     +2.053430E+00 +2.508590E+00 +3.670989E+00    
 +2.615599E+00 +1.628670E+00 +4.890741E+00     +2.615599E+00 +1.628670E+00 +4.890741E+00     +4.046370E+00 +2.683341E+00 +1.019586E-01     +4.046370E+00 +2.683341E+00 +1.019586E-01     +4.046370E+00 +2.683341E+00 +1.019586E-01     +1.114019E+00 +9.085102E-01 +5.696470E+00     +1.114019E+00 +9.085102E-01 +5.696470E+00     +1.114019E+00 +9.085102E-01 +5.696470E+00     +1.114019E+00 +9.085102E-01 +5.696470E+00     +1.114019E+00 +9.085102E-01 +5.696470E+00     +9.955812E-01 +2.258920E+00 +2.958440E+00     +1.275359E+00 +2.170849E+00 +8.672960E-01     +6.054039E+00 +8.540367E-01 +9.057613E-01     +5.858500E+00 +2.491110E+00 +6.200010E+00     +3.881970E+00 +6.810327E-01 +3.088199E+00     +3.881970E+00 +6.810327E-01 +3.088199E+00     +3.881970E+00 +6.810327E-01 +3.088199E+00     +3.881970E+00 +6.810327E-01 +3.088199E+00     +2.053430E+00 +2.508590E+00 +3.670989E+00     +2.053430E+00 +2.508590E+00 +3.670989E+00     +2.053430E+00 +2.508590E+00 +3.670989E+00    
 +2.615599E+00 +1.628670E+00 +4.890741E+00     +2.615599E+00 +1.628670E+00 +4.890741E+00     +4.046370E+00 +2.683341E+00 +1.019586E-01     +4.046370E+00 +2.683341E+00 +1.019586E-01     +4.046370E+00 +2.683341E+00 +1.019586E-01     +4.046370E+00 +2.683341E+00 +1.019586E-01     +4.046370E+00 +2.683341E+00 +1.019586E-01     +1.666920E+00 +2.348550E+00 +2.015970E+00     +1.666920E+00 +2.348550E+00 +2.015970E+00     +1.666920E+00 +2.348550E+00 +2.015970E+00     +4.813019E+00 +2.408141E+00 +2.331376E-01     +4.813019E+00 +2.408141E+00 +2.331376E-01     +4.813019E+00 +2.408141E+00 +2.331376E-01     +4.813019E+00 +2.408141E+00 +2.331376E-01     +3.881970E+00 +6.810327E-01 +3.088199E+00     +3.881970E+00 +6.810327E-01 +3.088199E+00     +3.881970E+00 +6.810327E-01 +3.088199E+00     +3.881970E+00 +6.810327E-01 +3.088199E+00     +3.881970E+00 +6.810327E-01 +3.088199E+00     +3.881970E+00 +6.810327E-01 +3.088199E+00     +3.881970E+00 +6.810327E-01 +3.088199E+00    
 +2.615599E+00 +1.628670E+00 +4.890741E+00     +4.046370E+00 +2.683341E+00 +1.019586E-01     +4.046370E+00 +2.683341E+00 +1.019586E-01     +4.046370E+00 +2.683341E+00 +1.019586E-01     +4.046370E+00 +2.683341E+00 +1.019586E-01     +4.046370E+00 +2.683341E+00 +1.019586E-01     +4.046370E+00 +2.683341E+00 +1.019586E-01     +1.666920E+00 +2.348550E+00 +2.015970E+00     +1.666920E+00 +2.348550E+00 +2.015970E+00     +4.813019E+00 +2.408141E+00 +2.331376E-01     +4.813019E+00 +2.408141E+00 +2.331376E-01     +4.813019E+00 +2.408141E+00 +2.331376E-01     +4.813019E+00 +2.408141E+00 +2.331376E-01     +4.813019E+00 +2.408141E+00 +2.331376E-01     +3.881970E+00 +6.810327E-01 +3.088199E+00     +3.881970E+00 +6.810327E-01 +3.088199E+00     +3.881970E+00 +6.810327E-01 +3.088199E+00     +3.881970E+00 +6.810327E-01 +3.088199E+00     +3.881970E+00 +6.810327E-01 +3.088199E+00     +3.881970E+00 +6.810327E-01 +3.088199E+00     +3.881970E+00 +6.810327E-01 +3.088199E+00    
 +1.198790E+00 +2.438080E+00 +8.100614E-01     +1.198790E+00 +2.438080E+00 +8.100614E-01     +1.198790E+00 +2.438080E+00 +8.100614E-01     +1.198790E+00 +2.438080E+00 +8.100614E-01     +1.198790E+00 +2.438080E+00 +8.100614E-01     +1.198790E+00 +2.438080E+00 +8.100614E-01     +1.198790E+00 +2.438080E+00 +8.100614E-01     +1.666920E+00 +2.348550E+00 +2.015970E+00     +1.666920E+00 +2.348550E+00 +2.015970E+00     +1.666920E+00 +2.348550E+00 +2.015970E+00     +4.813019E+00 +2.408141E+00 +2.331376E-01     +4.813019E+00 +2.408141E+00 +2.331376E-01     +4.813019E+00 +2.408141E+00 +2.331376E-01     +5.915940E+00 +1.370550E+00 +4.709919E+00     +5.915940E+00 +1.370550E+00 +4.709919E+00     +3.881970E+00 +6.810327E-01 +3.088199E+00     +3.881970E+00 +6.810327E-01 +3.088199E+00     +3.881970E+00 +6.810327E-01 +3.088199E+00     +3.881970E+00 +6.810327E-01 +3.088199E+00     +4.051160E+00 +6.849475E-01 +3.600789E-01     +3.881970E+00 +6.810327E-01 +3.088199E+00    
 +1.198790E+00 +2.438080E+00 +8.100614E-01     +1.198790E+00 +2.438080E+00 +8.100614E-01     +1.198790E+00 +2.438080E+00 +8.100614E-01     +1.198790E+00 +2.438080E+00 +8.100614E-01     +1.198790E+00 +2.438080E+00 +8.100614E-01     +1.198790E+00 +2.438080E+00 +8.100614E-01     +1.198790E+00 +2.438080E+00 +8.100614E-01     +1.198790E+00 +2.438080E+00 +8.100614E-01     +1.666920E+00 +2.348550E+00 +2.015970E+00     +1.666920E+00 +2.348550E+00 +2.015970E+00     +3.084890E+00 +2.202740E+00 +4.869291E+00     +3.084890E+00 +2.202740E+00 +4.869291E+00     +5.915940E+00 +1.370550E+00 +4.709919E+00     +5.915940E+00 +1.370550E+00 +4.709919E+00     +5.915940E+00 +1.370550E+00 +4.709919E+00     +5.915940E+00 +1.370550E+00 +4.709919E+00     +5.915940E+00 +1.370550E+00 +4.709919E+00     +3.881970E+00 +6.810327E-01 +3.088199E+00     +4.051160E+00 +6.849475E-01 +3.600789E-01     +4.051160E+00 +6.849475E-01 +3.600789E-01     +5.041506E-01 +2.354709E+00 +2.561890E+00    
 +5.041506E-01 +2.354709E+00 +2.561890E+00     +1.198790E+00 +2.438080E+00 +8.100614E-01     +1.198790E+00 +2.438080E+00 +8.100614E-01     +1.198790E+00 +2.438080E+00 +8.100614E-01     +1.198790E+00 +2.438080E+00 +8.100614E-01     +1.198790E+00 +2.438080E+00 +8.100614E-01     +1.198790E+00 +2.438080E+00 +8.100614E-01     +3.956649E+00 +1.065070E-01 +3.420859E+00     +3.956649E+00 +1.065070E-01 +3.420859E+00     +3.956649E+00 +1.065070E-01 +3.420859E+00     +3.956649E+00 +1.065070E-01 +3.420859E+00     +3.084890E+00 +2.202740E+00 +4.869291E+00     +5.915940E+00 +1.370550E+00 +4.709919E+00     +5.915940E+00 +1.370550E+00 +4.709919E+00     +5.915940E+00 +1.370550E+00 +4.709919E+00     +5.915940E+00 +1.370550E+00 +4.709919E+00     +5.915940E+00 +1.370550E+00 +4.709919E+00     +3.881970E+00 +6.810327E-01 +3.088199E+00     +5.041506E-01 +2.354709E+00 +2.561890E+00     +5.041506E-01 +2.354709E+00 +2.561890E+00     +5.041506E-01 +2.354709E+00 +2.561890E+00    
 +5.041506E-01 +2.354709E+00 +2.561890E+00     +3.539840E+00 +9.509950E-01 +4.313920E+00     +3.539840E+00 +9.509950E-01 +4.313920E+00     +3.539840E+00 +9.509950E-01 +4.313920E+00     +3.539840E+00 +9.509950E-01 +4.313920E+00     +1.198790E+00 +2.438080E+00 +8.100614E-01     +3.956649E+00 +1.065070E-01 +3.420859E+00     +3.956649E+00 +1.065070E-01 +3.420859E+00     +3.956649E+00 +1.065070E-01 +3.420859E+00     +3.956649E+00 +1.065070E-01 +3.420859E+00     +3.956649E+00 +1.065070E-01 +3.420859E+00     +3.956649E+00 +1.065070E-01 +3.420859E+00     +5.915940E+00 +1.370550E+00 +4.709919E+00     +5.915940E+00 +1.370550E+00 +4.709919E+00     +5.915940E+00 +1.370550E+00 +4.709919E+00     +5.915940E+00 +1.370550E+00 +4.709919E+00     +5.915940E+00 +1.370550E+00 +4.709919E+00     +5.041506E-01 +2.354709E+00 +2.561890E+00     +5.041506E-01 +2.354709E+00 +2.561890E+00     +5.041506E-01 +2.354709E+00 +2.561890E+00     +5.041506E-01 +2.354709E+00 +2.561890E+00    
 +5.041506E-01 +2.354709E+00 +2.561890E+00     +3.539840E+00 +9.509950E-01 +4.313920E+00     +3.539840E+00 +9.509950E-01 +4.313920E+00     +3.539840E+00 +9.509950E-01 +4.313920E+00     +3.539840E+00 +9.509950E-01 +4.313920E+00     +1.914110E+00 +1.422990E+00 +5.496099E+00     +3.956649E+00 +1.065070E-01 +3.420859E+00     +3.956649E+00 +1.065070E-01 +3.420859E+00     +3.956649E+00 +1.065070E-01 +3.420859E+00     +3.956649E+00 +1.065070E-01 +3.420859E+00     +3.956649E+00 +1.065070E-01 +3.420859E+00     +3.956649E+00 +1.065070E-01 +3.420859E+00     +5.915940E+00 +1.370550E+00 +4.709919E+00     +5.915940E+00 +1.370550E+00 +4.709919E+00     +5.915940E+00 +1.370550E+00 +4.709919E+00     +5.915940E+00 +1.370550E+00 +4.709919E+00     +5.570089E+00 +1.761910E+00 +5.651350E+00     +5.570089E+00 +1.761910E+00 +5.651350E+00     +5.570089E+00 +1.761910E+00 +5.651350E+00     +5.041506E-01 +2.354709E+00 +2.561890E+00     +5.041506E-01 +2.354709E+00 +2.561890E+00    
 +2.099771E+00 +3.043278E-01 +5.190450E+00     +3.539840E+00 +9.509950E-01 +4.313920E+00     +3.539840E+00 +9.509950E-01 +4.313920E+00     +3.539840E+00 +9.509950E-01 +4.313920E+00     +1.914110E+00 +1.422990E+00 +5.496099E+00     +1.914110E+00 +1.422990E+00 +5.496099E+00     +3.956649E+00 +1.065070E-01 +3.420859E+00     +3.956649E+00 +1.065070E-01 +3.420859E+00     +3.956649E+00 +1.065070E-01 +3.420859E+00     +3.956649E+00 +1.065070E-01 +3.420859E+00     +3.956649E+00 +1.065070E-01 +3.420859E+00     +3.956649E+00 +1.065070E-01 +3.420859E+00     +3.956649E+00 +1.065070E-01 +3.420859E+00     +2.091821E+00 +2.086600E+00 +2.558670E+00     +2.091821E+00 +2.086600E+00 +2.558670E+00     +2.091821E+00 +2.086600E+00 +2.558670E+00     +5.570089E+00 +1.761910E+00 +5.651350E+00     +5.570089E+00 +1.761910E+00 +5.651350E+00     +5.570089E+00 +1.761910E+00 +5.651350E+00     +2.099771E+00 +3.043278E-01 +5.190450E+00     +2.099771E+00 +3.043278E-01 +5.190450E+00    
 +3.310211E+00 +1.307440E+00 +3.972190E+00     +3.310211E+00 +1.307440E+00 +3.972190E+00     +3.310211E+00 +1.307440E+00 +3.972190E+00     +1.914110E+00 +1.422990E+00 +5.496099E+00     +1.914110E+00 +1.422990E+00 +5.496099E+00     +1.914110E+00 +1.422990E+00 +5.496099E+00     +3.956649E+00 +1.065070E-01 +3.420859E+00     +3.956649E+00 +1.065070E-01 +3.420859E+00     +3.956649E+00 +1.065070E-01 +3.420859E+00     +3.956649E+00 +1.065070E-01 +3.420859E+00     +3.956649E+00 +1.065070E-01 +3.420859E+00     +3.956649E+00 +1.065070E-01 +3.420859E+00     +3.956649E+00 +1.065070E-01 +3.420859E+00     +2.091821E+00 +2.086600E+00 +2.558670E+00     +2.091821E+00 +2.086600E+00 +2.558670E+00     +2.091821E+00 +2.086600E+00 +2.558670E+00     +2.091821E+00 +2.086600E+00 +2.558670E+00     +5.570089E+00 +1.761910E+00 +5.651350E+00     +5.570089E+00 +1.761910E+00 +5.651350E+00     +2.099771E+00 +3.043278E-01 +5.190450E+00     +2.099771E+00 +3.043278E-01 +5.190450E+00    
 +3.310211E+00 +1.307440E+00 +3.972190E+00     +3.310211E+00 +1.307440E+00 +3.972190E+00     +3.310211E+00 +1.307440E+00 +3.972190E+00     +3.310211E+00 +1.307440E+00 +3.972190E+00     +1.914110E+00 +1.422990E+00 +5.496099E+00     +1.914110E+00 +1.422990E+00 +5.496099E+00     +3.956649E+00 +1.065070E-01 +3.420859E+00     +3.956649E+00 +1.065070E-01 +3.420859E+00     +3.956649E+00 +1.065070E-01 +3.420859E+00     +3.956649E+00 +1.065070E-01 +3.420859E+00     +3.956649E+00 +1.065070E-01 +3.420859E+00     +3.956649E+00 +1.065070E-01 +3.420859E+00     +3.956649E+00 +1.065070E-01 +3.420859E+00     +2.091821E+00 +2.086600E+00 +2.558670E+00     +2.091821E+00 +2.086600E+00 +2.558670E+00     +2.091821E+00 +2.086600E+00 +2.558670E+00     +2.091821E+00 +2.086600E+00 +2.558670E+00     +1.615070E+00 +1.144740E+00 +5.368900E+00     +1.615070E+00 +1.144740E+00 +5.368900E+00     +1.488501E+00 +1.369720E+00 +4.647463E-02     +1.488501E+00 +1.369720E+00 +4.647463E-02    
 +5.433811E+00 +1.679949E+00 +5.185890E+00     +3.289830E+00 +2.250270E+00 +2.792970E+00     +5.433811E+00 +1.679949E+00 +5.185890E+00     +5.433811E+00 +1.679949E+00 +5.185890E+00     +3.680027E-01 +1.781810E+00 +2.174680E-02     +3.680027E-01 +1.781810E+00 +2.174680E-02     +3.680027E-01 +1.781810E+00 +2.174680E-02     +3.680027E-01 +1.781810E+00 +2.174680E-02     +3.680027E-01 +1.781810E+00 +2.174680E-02     +3.758950E+00 +1.131211E+00 +3.495980E+00     +3.758950E+00 +1.131211E+00 +3.495980E+00     +3.758950E+00 +1.131211E+00 +3.495980E+00     +1.374796E-01 +1.228949E+00 +4.301060E+00     +1.374796E-01 +1.228949E+00 +4.301060E+00     +2.091821E+00 +2.086600E+00 +2.558670E+00     +2.091821E+00 +2.086600E+00 +2.558670E+00     +2.091821E+00 +2.086600E+00 +2.558670E+00     +1.615070E+00 +1.144740E+00 +5.368900E+00     +1.615070E+00 +1.144740E+00 +5.368900E+00     +1.488501E+00 +1.369720E+00 +4.647463E-02     +5.433811E+00 +1.679949E+00 +5.185890E+00    
 +5.433811E+00 +1.679949E+00 +5.185890E+00     +3.289830E+00 +2.250270E+00 +2.792970E+00     +5.433811E+00 +1.679949E+00 +5.185890E+00     +5.433811E+00 +1.679949E+00 +5.185890E+00     +3.680027E-01 +1.781810E+00 +2.174680E-02     +3.680027E-01 +1.781810E+00 +2.174680E-02     +3.680027E-01 +1.781810E+00 +2.174680E-02     +3.680027E-01 +1.781810E+00 +2.174680E-02     +3.680027E-01 +1.781810E+00 +2.174680E-02     +3.758950E+00 +1.131211E+00 +3.495980E+00     +3.758950E+00 +1.131211E+00 +3.495980E+00     +3.758950E+00 +1.131211E+00 +3.495980E+00     +1.374796E-01 +1.228949E+00 +4.301060E+00     +1.374796E-01 +1.228949E+00 +4.301060E+00     +1.374796E-01 +1.228949E+00 +4.301060E+00     +2.091821E+00 +2.086600E+00 +2.558670E+00     +2.091821E+00 +2.086600E+00 +2.558670E+00     +1.615070E+00 +1.144740E+00 +5.368900E+00     +1.615070E+00 +1.144740E+00 +5.368900E+00     +5.433811E+00 +1.679949E+00 +5.185890E+00     +5.433811E+00 +1.679949E+00 +5.185890E+00    
 +5.433811E+00 +1.679949E+00 +5.185890E+00     +5.433811E+00 +1.679949E+00 +5.185890E+00     +5.433811E+00 +1.679949E+00 +5.185890E+00     +5.433811E+00 +1.679949E+00 +5.185890E+00     +3.680027E-01 +1.781810E+00 +2.174680E-02     +3.680027E-01 +1.781810E+00 +2.174680E-02     +3.680027E-01 +1.781810E+00 +2.174680E-02     +3.680027E-01 +1.781810E+00 +2.174680E-02     +3.680027E-01 +1.781810E+00 +2.174680E-02     +3.680027E-01 +1.781810E+00 +2.174680E-02     +3.758950E+00 +1.131211E+00 +3.495980E+00     +7.389550E-01 +1.758239E+00 +3.113430E+00     +9.478342E-01 +1.460731E+00 +2.908085E-01     +9.478342E-01 +1.460731E+00 +2.908085E-01     +9.478342E-01 +1.460731E+00 +2.908085E-01     +9.478342E-01 +1.460731E+00 +2.908085E-01     +9.478342E-01 +1.460731E+00 +2.908085E-01     +3.433651E+00 +1.387669E+00 +4.191160E+00     +2.013930E+00 +1.089689E+00 +4.875490E+00     +2.013930E+00 +1.089689E+00 +4.875490E+00     +5.433811E+00 +1.679949E+00 +5.185890E+00    
 +5.433811E+00 +1.679949E+00 +5.185890E+00     +5.433811E+00 +1.679949E+00 +5.185890E+00     +5.433811E+00 +1.679949E+00 +5.185890E+00     +5.433811E+00 +1.679949E+00 +5.185890E+00     +3.680027E-01 +1.781810E+00 +2.174680E-02     +1.730440E+00 +1.973601E+00 +5.111280E+00     +3.680027E-01 +1.781810E+00 +2.174680E-02     +3.680027E-01 +1.781810E+00 +2.174680E-02     +3.680027E-01 +1.781810E+00 +2.174680E-02     +3.680027E-01 +1.781810E+00 +2.174680E-02     +7.389550E-01 +1.758239E+00 +3.113430E+00     +7.389550E-01 +1.758239E+00 +3.113430E+00     +9.478342E-01 +1.460731E+00 +2.908085E-01     +9.478342E-01 +1.460731E+00 +2.908085E-01     +9.478342E-01 +1.460731E+00 +2.908085E-01     +9.478342E-01 +1.460731E+00 +2.908085E-01     +3.433651E+00 +1.387669E+00 +4.191160E+00     +3.433651E+00 +1.387669E+00 +4.191160E+00     +3.433651E+00 +1.387669E+00 +4.191160E+00     +2.013930E+00 +1.089689E+00 +4.875490E+00     +5.433811E+00 +1.679949E+00 +5.185890E+00    
 +5.433811E+00 +1.679949E+00 +5.185890E+00     +5.433811E+00 +1.679949E+00 +5.185890E+00     +5.433811E+00 +1.679949E+00 +5.185890E+00     +5.433811E+00 +1.679949E+00 +5.185890E+00     +3.680027E-01 +1.781810E+00 +2.174680E-02     +3.680027E-01 +1.781810E+00 +2.174680E-02     +3.680027E-01 +1.781810E+00 +2.174680E-02     +3.680027E-01 +1.781810E+00 +2.174680E-02     +3.680027E-01 +1.781810E+00 +2.174680E-02     +3.680027E-01 +1.781810E+00 +2.174680E-02     +7.389550E-01 +1.758239E+00 +3.113430E+00     +7.389550E-01 +1.758239E+00 +3.113430E+00     +9.478342E-01 +1.460731E+00 +2.908085E-01     +9.478342E-01 +1.460731E+00 +2.908085E-01     +9.478342E-01 +1.460731E+00 +2.908085E-01     +9.478342E-01 +1.460731E+00 +2.908085E-01     +3.433651E+00 +1.387669E+00 +4.191160E+00     +3.433651E+00 +1.387669E+00 +4.191160E+00     +3.433651E+00 +1.387669E+00 +4.191160E+00     +3.433651E+00 +1.387669E+00 +4.191160E+00     +5.433811E+00 +1.679949E+00 +5.185890E+00    
 +5.433811E+00 +1.679949E+00 +5.185890E+00     +5.433811E+00 +1.679949E+00 +5.185890E+00     +5.433811E+00 +1.679949E+00 +5.185890E+00     +5.433811E+00 +1.679949E+00 +5.185890E+00     +2.764511E+00 +1.413471E+00 +1.580460E+00     +2.764511E+00 +1.413471E+00 +1.580460E+00     +3.680027E-01 +1.781810E+00 +2.174680E-02     +5.872230E+00 +7.271635E-01 +1.324391E+00     +3.680027E-01 +1.781810E+00 +2.174680E-02     +3.680027E-01 +1.781810E+00 +2.174680E-02     +7.389550E-01 +1.758239E+00 +3.113430E+00     +7.389550E-01 +1.758239E+00 +3.113430E+00     +9.478342E-01 +1.460731E+00 +2.908085E-01     +9.478342E-01 +1.460731E+00 +2.908085E-01     +9.478342E-01 +1.460731E+00 +2.908085E-01     +3.433651E+00 +1.387669E+00 +4.191160E+00     +3.433651E+00 +1.387669E+00 +4.191160E+00     +3.433651E+00 +1.387669E+00 +4.191160E+00     +3.433651E+00 +1.387669E+00 +4.191160E+00     +3.433651E+00 +1.387669E+00 +4.191160E+00     +5.433811E+00 +1.679949E+00 +5.185890E+00    
 +5.433811E+00 +1.679949E+00 +5.185890E+00     +5.433811E+00 +1.679949E+00 +5.185890E+00     +5.433811E+00 +1.679949E+00 +5.185890E+00     +5.433811E+00 +1.679949E+00 +5.185890E+00     +2.764511E+00 +1.413471E+00 +1.580460E+00     +2.764511E+00 +1.413471E+00 +1.580460E+00     +3.680027E-01 +1.781810E+00 +2.174680E-02     +5.872230E+00 +7.271635E-01 +1.324391E+00     +1.044690E+00 +1.064689E+00 +5.803421E+00     +3.680027E-01 +1.781810E+00 +2.174680E-02     +3.890700E+00 +2.090150E+00 +6.044089E+00     +1.275359E+00 +2.170849E+00 +8.672960E-01     +5.176631E+00 +1.026130E+00 +2.206360E+00     +5.176631E+00 +1.026130E+00 +2.206360E+00     +5.176631E+00 +1.026130E+00 +2.206360E+00     +3.433651E+00 +1.387669E+00 +4.191160E+00     +3.433651E+00 +1.387669E+00 +4.191160E+00     +3.433651E+00 +1.387669E+00 +4.191160E+00     +3.433651E+00 +1.387669E+00 +4.191160E+00     +3.433651E+00 +1.387669E+00 +4.191160E+00     +5.433811E+00 +1.679949E+00 +5.185890E+00    
 +2.615599E+00 +1.628670E+00 +4.890741E+00     +2.381050E+00 +2.283360E+00 +4.075920E+00     +2.615599E+00 +1.628670E+00 +4.890741E+00     +2.615599E+00 +1.628670E+00 +4.890741E+00     +2.615599E+00 +1.628670E+00 +4.890741E+00     +1.114019E+00 +9.085102E-01 +5.696470E+00     +1.114019E+00 +9.085102E-01 +5.696470E+00     +1.114019E+00 +9.085102E-01 +5.696470E+00     +1.114019E+00 +9.085102E-01 +5.696470E+00     +3.612540E+00 +1.265290E+00 +3.981019E+00     +1.275359E+00 +2.170849E+00 +8.672960E-01     +1.275359E+00 +2.170849E+00 +8.672960E-01     +5.176631E+00 +1.026130E+00 +2.206360E+00     +5.176631E+00 +1.026130E+00 +2.206360E+00     +5.176631E+00 +1.026130E+00 +2.206360E+00     +5.804021E+00 +1.837120E+00 +1.865720E+00     +3.433651E+00 +1.387669E+00 +4.191160E+00     +3.433651E+00 +1.387669E+00 +4.191160E+00     +3.433651E+00 +1.387669E+00 +4.191160E+00     +2.563601E+00 +1.783100E+00 +2.644291E+00     +2.615599E+00 +1.628670E+00 +4.890741E+00    
 +2.615599E+00 +1.628670E+00 +4.890741E+00     +2.615599E+00 +1.628670E+00 +4.890741E+00     +2.615599E+00 +1.628670E+00 +4.890741E+00     +2.615599E+00 +1.628670E+00 +4.890741E+00     +2.615599E+00 +1.628670E+00 +4.890741E+00     +1.114019E+00 +9.085102E-01 +5.696470E+00     +1.114019E+00 +9.085102E-01 +5.696470E+00     +1.114019E+00 +9.085102E-01 +5.696470E+00     +9.955812E-01 +2.258920E+00 +2.958440E+00     +9.955812E-01 +2.258920E+00 +2.958440E+00     +9.955812E-01 +2.258920E+00 +2.958440E+00     +1.275359E+00 +2.170849E+00 +8.672960E-01     +1.275359E+00 +2.170849E+00 +8.672960E-01     +5.176631E+00 +1.026130E+00 +2.206360E+00     +5.858500E+00 +2.491110E+00 +6.200010E+00     +5.858500E+00 +2.491110E+00 +6.200010E+00     +5.858500E+00 +2.491110E+00 +6.200010E+00     +5.858500E+00 +2.491110E+00 +6.200010E+00     +2.765171E+00 +1.135571E+00 +5.039141E+00     +2.053430E+00 +2.508590E+00 +3.670989E+00     +2.615599E+00 +1.628670E+00 +4.890741E+00    
 +2.615599E+00 +1.628670E+00 +4.890741E+00     +2.615599E+00 +1.628670E+00 +4.890741E+00     +2.615599E+00 +1.628670E+00 +4.890741E+00     +2.615599E+00 +1.628670E+00 +4.890741E+00     +2.615599E+00 +1.628670E+00 +4.890741E+00     +1.114019E+00 +9.085102E-01 +5.696470E+00     +1.114019E+00 +9.085102E-01 +5.696470E+00     +1.114019E+00 +9.085102E-01 +5.696470E+00     +9.955812E-01 +2.258920E+00 +2.958440E+00     +9.955812E-01 +2.258920E+00 +2.958440E+00     +9.955812E-01 +2.258920E+00 +2.958440E+00     +1.275359E+00 +2.170849E+00 +8.672960E-01     +1.275359E+00 +2.170849E+00 +8.672960E-01     +5.858500E+00 +2.491110E+00 +6.200010E+00     +5.858500E+00 +2.491110E+00 +6.200010E+00     +5.858500E+00 +2.491110E+00 +6.200010E+00     +5.858500E+00 +2.491110E+00 +6.200010E+00     +5.858500E+00 +2.491110E+00 +6.200010E+00     +2.053430E+00 +2.508590E+00 +3.670989E+00     +2.053430E+00 +2.508590E+00 +3.670989E+00     +2.615599E+00 +1.628670E+00 +4.890741E+00    
 +2.615599E+00 +1.628670E+00 +4.890741E+00     +2.615599E+00 +1.628670E+00 +4.890741E+00     +2.615599E+00 +1.628670E+00 +4.890741E+00     +4.046370E+00 +2.683341E+00 +1.019586E-01     +4.046370E+00 +2.683341E+00 +1.019586E-01     +4.046370E+00 +2.683341E+00 +1.019586E-01     +1.114019E+00 +9.085102E-01 +5.696470E+00     +1.114019E+00 +9.085102E-01 +5.696470E+00     +9.955812E-01 +2.258920E+00 +2.958440E+00     +9.955812E-01 +2.258920E+00 +2.958440E+00     +9.955812E-01 +2.258920E+00 +2.958440E+00     +1.275359E+00 +2.170849E+00 +8.672960E-01     +1.275359E+00 +2.170849E+00 +8.672960E-01     +5.858500E+00 +2.491110E+00 +6.200010E+00     +5.858500E+00 +2.491110E+00 +6.200010E+00     +5.858500E+00 +2.491110E+00 +6.200010E+00     +3.881970E+00 +6.810327E-01 +3.088199E+00     +3.881970E+00 +6.810327E-01 +3.088199E+00     +3.881970E+00 +6.810327E-01 +3.088199E+00     +3.881970E+00 +6.810327E-01 +3.088199E+00     +2.615599E+00 +1.628670E+00 +4.890741E+00    
 +2.615599E+00 +1.628670E+00 +4.890741E+00     +2.615599E+00 +1.628670E+00 +4.890741E+00     +2.615599E+00 +1.628670E+00 +4.890741E+00     +4.046370E+00 +2.683341E+00 +1.019586E-01     +4.046370E+00 +2.683341E+00 +1.019586E-01     +4.046370E+00 +2.683341E+00 +1.019586E-01     +4.046370E+00 +2.683341E+00 +1.019586E-01     +1.666920E+00 +2.348550E+00 +2.015970E+00     +1.666920E+00 +2.348550E+00 +2.015970E+00     +1.666920E+00 +2.348550E+00 +2.015970E+00     +1.275359E+00 +2.170849E+00 +8.672960E-01     +4.813019E+00 +2.408141E+00 +2.331376E-01     +4.813019E+00 +2.408141E+00 +2.331376E-01     +4.813019E+00 +2.408141E+00 +2.331376E-01     +5.858500E+00 +2.491110E+00 +6.200010E+00     +5.858500E+00 +2.491110E+00 +6.200010E+00     +3.881970E+00 +6.810327E-01 +3.088199E+00     +3.881970E+00 +6.810327E-01 +3.088199E+00     +3.881970E+00 +6.810327E-01 +3.088199E+00     +3.881970E+00 +6.810327E-01 +3.088199E+00     +2.615599E+00 +1.628670E+00 +4.890741E+00    
 +2.615599E+00 +1.628670E+00 +4.890741E+00     +4.046370E+00 +2.683341E+00 +1.019586E-01     +4.046370E+00 +2.683341E+00 +1.019586E-01     +4.046370E+00 +2.683341E+00 +1.019586E-01     +4.046370E+00 +2.683341E+00 +1.019586E-01     +4.046370E+00 +2.683341E+00 +1.019586E-01     +4.046370E+00 +2.683341E+00 +1.019586E-01     +1.666920E+00 +2.348550E+00 +2.015970E+00     +1.666920E+00 +2.348550E+00 +2.015970E+00     +1.666920E+00 +2.348550E+00 +2.015970E+00     +4.813019E+00 +2.408141E+00 +2.331376E-01     +4.813019E+00 +2.408141E+00 +2.331376E-01     +4.813019E+00 +2.408141E+00 +2.331376E-01     +5.915940E+00 +1.370550E+00 +4.709919E+00     +5.915940E+00 +1.370550E+00 +4.709919E+00     +3.881970E+00 +6.810327E-01 +3.088199E+00     +3.881970E+00 +6.810327E-01 +3.088199E+00     +3.881970E+00 +6.810327E-01 +3.088199E+00     +3.881970E+00 +6.810327E-01 +3.088199E+00     +3.881970E+00 +6.810327E-01 +3.088199E+00     +3.881970E+00 +6.810327E-01 +3.088199E+00    
 +1.198790E+00 +2.438080E+00 +8.100614E-01     +1.198790E+00 +2.438080E+00 +8.100614E-01     +1.198790E+00 +2.438080E+00 +8.100614E-01     +1.198790E+00 +2.438080E+00 +8.100614E-01     +1.198790E+00 +2.438080E+00 +8.100614E-01     +1.198790E+00 +2.438080E+00 +8.100614E-01     +1.198790E+00 +2.438080E+00 +8.100614E-01     +1.666920E+00 +2.348550E+00 +2.015970E+00     +1.666920E+00 +2.348550E+00 +2.015970E+00     +1.666920E+00 +2.348550E+00 +2.015970E+00     +4.813019E+00 +2.408141E+00 +2.331376E-01     +4.813019E+00 +2.408141E+00 +2.331376E-01     +4.813019E+00 +2.408141E+00 +2.331376E-01     +5.915940E+00 +1.370550E+00 +4.709919E+00     +5.915940E+00 +1.370550E+00 +4.709919E+00     +5.915940E+00 +1.370550E+00 +4.709919E+00     +3.881970E+00 +6.810327E-01 +3.088199E+00     +3.881970E+00 +6.810327E-01 +3.088199E+00     +3.881970E+00 +6.810327E-01 +3.088199E+00     +4.051160E+00 +6.849475E-01 +3.600789E-01     +4.051160E+00 +6.849475E-01 +3.600789E-01    
 +1.198790E+00 +2.438080E+00 +8.100614E-01     +1.198790E+00 +2.438080E+00 +8.100614E-01     +1.198790E+00 +2.438080E+00 +8.100614E-01     +1.198790E+00 +2.438080E+00 +8.100614E-01     +1.198790E+00 +2.438080E+00 +8.100614E-01     +1.198790E+00 +2.438080E+00 +8.100614E-01     +1.198790E+00 +2.438080E+00 +8.100614E-01     +1.666920E+00 +2.348550E+00 +2.015970E+00     +1.666920E+00 +2.348550E+00 +2.015970E+00     +1.666920E+00 +2.348550E+00 +2.015970E+00     +3.084890E+00 +2.202740E+00 +4.869291E+00     +3.084890E+00 +2.202740E+00 +4.869291E+00     +5.915940E+00 +1.370550E+00 +4.709919E+00     +5.915940E+00 +1.370550E+00 +4.709919E+00     +5.915940E+00 +1.370550E+00 +4.709919E+00     +5.915940E+00 +1.370550E+00 +4.709919E+00     +5.915940E+00 +1.370550E+00 +4.709919E+00     +3.881970E+00 +6.810327E-01 +3.088199E+00     +4.051160E+00 +6.849475E-01 +3.600789E-01     +4.051160E+00 +6.849475E-01 +3.600789E-01     +4.051160E+00 +6.849475E-01 +3.600789E-01    
 +2.099771E+00 +3.043278E-01 +5.190450E+00     +3.539840E+00 +9.509950E-01 +4.313920E+00     +3.539840E+00 +9.509950E-01 +4.313920E+00     +3.539840E+00 +9.509950E-01 +4.313920E+00     +3.539840E+00 +9.509950E-01 +4.313920E+00     +1.198790E+00 +2.438080E+00 +8.100614E-01     +1.198790E+00 +2.438080E+00 +8.100614E-01     +3.956649E+00 +1.065070E-01 +3.420859E+00     +3.956649E+00 +1.065070E-01 +3.420859E+00     +3.483319E+00 +1.686590E+00 +5.091201E+00     +3.483319E+00 +1.686590E+00 +5.091201E+00     +3.483319E+00 +1.686590E+00 +5.091201E+00     +5.915940E+00 +1.370550E+00 +4.709919E+00     +5.915940E+00 +1.370550E+00 +4.709919E+00     +5.915940E+00 +1.370550E+00 +4.709919E+00     +5.915940E+00 +1.370550E+00 +4.709919E+00     +5.915940E+00 +1.370550E+00 +4.709919E+00     +5.915940E+00 +1.370550E+00 +4.709919E+00     +4.051160E+00 +6.849475E-01 +3.600789E-01     +4.051160E+00 +6.849475E-01 +3.600789E-01     +2.099771E+00 +3.043278E-01 +5.190450E+00    
 +2.099771E+00 +3.043278E-01 +5.190450E+00     +3.539840E+00 +9.509950E-01 +4.313920E+00     +3.539840E+00 +9.509950E-01 +4.313920E+00     +3.539840E+00 +9.509950E-01 +4.313920E+00     +3.539840E+00 +9.509950E-01 +4.313920E+00     +3.539840E+00 +9.509950E-01 +4.313920E+00     +3.956649E+00 +1.065070E-01 +3.420859E+00     +3.956649E+00 +1.065070E-01 +3.420859E+00     +3.956649E+00 +1.065070E-01 +3.420859E+00     +5.646151E+00 +1.008350E+00 +4.577880E+00     +3.483319E+00 +1.686590E+00 +5.091201E+00     +3.483319E+00 +1.686590E+00 +5.091201E+00     +5.915940E+00 +1.370550E+00 +4.709919E+00     +1.751171E+00 +1.449180E+00 +5.219191E+00     +5.915940E+00 +1.370550E+00 +4.709919E+00     +5.915940E+00 +1.370550E+00 +4.709919E+00     +5.915940E+00 +1.370550E+00 +4.709919E+00     +2.748290E+00 +1.006291E+00 +4.587360E+00     +2.099771E+00 +3.043278E-01 +5.190450E+00     +2.099771E+00 +3.043278E-01 +5.190450E+00     +2.099771E+00 +3.043278E-01 +5.190450E+00    
 +2.099771E+00 +3.043278E-01 +5.190450E+00     +2.099771E+00 +3.043278E-01 +5.190450E+00     +3.539840E+00 +9.509950E-01 +4.313920E+00     +3.539840E+00 +9.509950E-01 +4.313920E+00     +3.539840E+00 +9.509950E-01 +4.313920E+00     +3.539840E+00 +9.509950E-01 +4.313920E+00     +3.956649E+00 +1.065070E-01 +3.420859E+00     +3.956649E+00 +1.065070E-01 +3.420859E+00     +5.646151E+00 +1.008350E+00 +4.577880E+00     +5.646151E+00 +1.008350E+00 +4.577880E+00     +5.646151E+00 +1.008350E+00 +4.577880E+00     +3.483319E+00 +1.686590E+00 +5.091201E+00     +3.483319E+00 +1.686590E+00 +5.091201E+00     +5.915940E+00 +1.370550E+00 +4.709919E+00     +5.915940E+00 +1.370550E+00 +4.709919E+00     +5.915940E+00 +1.370550E+00 +4.709919E+00     +5.570089E+00 +1.761910E+00 +5.651350E+00     +2.748290E+00 +1.006291E+00 +4.587360E+00     +5.570089E+00 +1.761910E+00 +5.651350E+00     +2.099771E+00 +3.043278E-01 +5.190450E+00     +2.099771E+00 +3.043278E-01 +5.190450E+00    
 +2.099771E+00 +3.043278E-01 +5.190450E+00     +2.099771E+00 +3.043278E-01 +5.190450E+00     +3.539840E+00 +9.509950E-01 +4.313920E+00     +3.539840E+00 +9.509950E-01 +4.313920E+00     +3.539840E+00 +9.509950E-01 +4.313920E+00     +3.539840E+00 +9.509950E-01 +4.313920E+00     +3.956649E+00 +1.065070E-01 +3.420859E+00     +3.956649E+00 +1.065070E-01 +3.420859E+00     +5.646151E+00 +1.008350E+00 +4.577880E+00     +5.646151E+00 +1.008350E+00 +4.577880E+00     +5.646151E+00 +1.008350E+00 +4.577880E+00     +3.956649E+00 +1.065070E-01 +3.420859E+00     +3.483319E+00 +1.686590E+00 +5.091201E+00     +2.091821E+00 +2.086600E+00 +2.558670E+00     +2.091821E+00 +2.086600E+00 +2.558670E+00     +2.091821E+00 +2.086600E+00 +2.558670E+00     +5.570089E+00 +1.761910E+00 +5.651350E+00     +2.748290E+00 +1.006291E+00 +4.587360E+00     +5.570089E+00 +1.761910E+00 +5.651350E+00     +2.099771E+00 +3.043278E-01 +5.190450E+00     +2.099771E+00 +3.043278E-01 +5.190450E+00    
 +3.310211E+00 +1.307440E+00 +3.972190E+00     +3.310211E+00 +1.307440E+00 +3.972190E+00     +3.310211E+00 +1.307440E+00 +3.972190E+00     +3.310211E+00 +1.307440E+00 +3.972190E+00     +1.914110E+00 +1.422990E+00 +5.496099E+00     +1.914110E+00 +1.422990E+00 +5.496099E+00     +3.956649E+00 +1.065070E-01 +3.420859E+00     +3.956649E+00 +1.065070E-01 +3.420859E+00     +5.646151E+00 +1.008350E+00 +4.577880E+00     +5.646151E+00 +1.008350E+00 +4.577880E+00     +5.646151E+00 +1.008350E+00 +4.577880E+00     +3.956649E+00 +1.065070E-01 +3.420859E+00     +3.483319E+00 +1.686590E+00 +5.091201E+00     +2.091821E+00 +2.086600E+00 +2.558670E+00     +2.091821E+00 +2.086600E+00 +2.558670E+00     +2.091821E+00 +2.086600E+00 +2.558670E+00     +2.091821E+00 +2.086600E+00 +2.558670E+00     +2.748290E+00 +1.006291E+00 +4.587360E+00     +5.570089E+00 +1.761910E+00 +5.651350E+00     +2.099771E+00 +3.043278E-01 +5.190450E+00     +2.099771E+00 +3.043278E-01 +5.190450E+00    
 +3.310211E+00 +1.307440E+00 +3.972190E+00     +3.310211E+00 +1.307440E+00 +3.972190E+00     +3.310211E+00 +1.307440E+00 +3.972190E+00     +3.310211E+00 +1.307440E+00 +3.972190E+00     +3.310211E+00 +1.307440E+00 +3.972190E+00     +4.558015E-01 +1.537501E+00 +1.064860E+00     +4.558015E-01 +1.537501E+00 +1.064860E+00     +3.956649E+00 +1.065070E-01 +3.420859E+00     +3.956649E+00 +1.065070E-01 +3.420859E+00     +5.646151E+00 +1.008350E+00 +4.577880E+00     +3.956649E+00 +1.065070E-01 +3.420859E+00     +3.956649E+00 +1.065070E-01 +3.420859E+00     +2.091821E+00 +2.086600E+00 +2.558670E+00     +2.091821E+00 +2.086600E+00 +2.558670E+00     +2.091821E+00 +2.086600E+00 +2.558670E+00     +2.091821E+00 +2.086600E+00 +2.558670E+00     +2.091821E+00 +2.086600E+00 +2.558670E+00     +1.615070E+00 +1.144740E+00 +5.368900E+00     +1.615070E+00 +1.144740E+00 +5.368900E+00     +1.488501E+00 +1.369720E+00 +4.647463E-02     +1.488501E+00 +1.369720E+00 +4.647463E-02    
 +3.289830E+00 +2.250270E+00 +2.792970E+00     +3.289830E+00 +2.250270E+00 +2.792970E+00     +3.289830E+00 +2.250270E+00 +2.792970E+00     +3.289830E+00 +2.250270E+00 +2.792970E+00     +4.558015E-01 +1.537501E+00 +1.064860E+00     +4.558015E-01 +1.537501E+00 +1.064860E+00     +4.558015E-01 +1.537501E+00 +1.064860E+00     +4.558015E-01 +1.537501E+00 +1.064860E+00     +4.558015E-01 +1.537501E+00 +1.064860E+00     +4.558015E-01 +1.537501E+00 +1.064860E+00     +3.758950E+00 +1.131211E+00 +3.495980E+00     +3.758950E+00 +1.131211E+00 +3.495980E+00     +1.374796E-01 +1.228949E+00 +4.301060E+00     +2.091821E+00 +2.086600E+00 +2.558670E+00     +2.091821E+00 +2.086600E+00 +2.558670E+00     +2.091821E+00 +2.086600E+00 +2.558670E+00     +2.091821E+00 +2.086600E+00 +2.558670E+00     +1.615070E+00 +1.144740E+00 +5.368900E+00     +1.488501E+00 +1.369720E+00 +4.647463E-02     +1.488501E+00 +1.369720E+00 +4.647463E-02     +1.488501E+00 +1.369720E+00 +4.647463E-02    
 +3.289830E+00 +2.250270E+00 +2.792970E+00     +3.289830E+00 +2.250270E+00 +2.792970E+00     +3.289830E+00 +2.250270E+00 +2.792970E+00     +5.433811E+00 +1.679949E+00 +5.185890E+00     +3.680027E-01 +1.781810E+00 +2.174680E-02     +3.680027E-01 +1.781810E+00 +2.174680E-02     +3.680027E-01 +1.781810E+00 +2.174680E-02     +3.680027E-01 +1.781810E+00 +2.174680E-02     +3.680027E-01 +1.781810E+00 +2.174680E-02     +3.680027E-01 +1.781810E+00 +2.174680E-02     +3.680027E-01 +1.781810E+00 +2.174680E-02     +9.478342E-01 +1.460731E+00 +2.908085E-01     +9.478342E-01 +1.460731E+00 +2.908085E-01     +9.478342E-01 +1.460731E+00 +2.908085E-01     +9.478342E-01 +1.460731E+00 +2.908085E-01     +2.091821E+00 +2.086600E+00 +2.558670E+00     +2.091821E+00 +2.086600E+00 +2.558670E+00     +1.615070E+00 +1.144740E+00 +5.368900E+00     +1.488501E+00 +1.369720E+00 +4.647463E-02     +1.488501E+00 +1.369720E+00 +4.647463E-02     +5.433811E+00 +1.679949E+00 +5.185890E+00    
 +5.433811E+00 +1.679949E+00 +5.185890E+00     +3.289830E+00 +2.250270E+00 +2.792970E+00     +5.433811E+00 +1.679949E+00 +5.185890E+00     +5.433811E+00 +1.679949E+00 +5.185890E+00     +3.680027E-01 +1.781810E+00 +2.174680E-02     +3.680027E-01 +1.781810E+00 +2.174680E-02     +3.680027E-01 +1.781810E+00 +2.174680E-02     +3.680027E-01 +1.781810E+00 +2.174680E-02     +3.680027E-01 +1.781810E+00 +2.174680E-02     +3.680027E-01 +1.781810E+00 +2.174680E-02     +3.680027E-01 +1.781810E+00 +2.174680E-02     +9.478342E-01 +1.460731E+00 +2.908085E-01     +9.478342E-01 +1.460731E+00 +2.908085E-01     +9.478342E-01 +1.460731E+00 +2.908085E-01     +9.478342E-01 +1.460731E+00 +2.908085E-01     +9.478342E-01 +1.460731E+00 +2.908085E-01     +2.091821E+00 +2.086600E+00 +2.558670E+00     +3.433651E+00 +1.387669E+00 +4.191160E+00     +3.433651E+00 +1.387669E+00 +4.191160E+00     +5.433811E+00 +1.679949E+00 +5.185890E+00     +5.433811E+00 +1.679949E+00 +5.185890E+00    
 +5.433811E+00 +1.679949E+00 +5.185890E+00     +3.594226E-01 +2.151391E+00 +5.300430E+00     +5.433811E+00 +1.679949E+00 +5.185890E+00     +5.433811E+00 +1.679949E+00 +5.185890E+00     +1.730440E+00 +1.973601E+00 +5.111280E+00     +1.730440E+00 +1.973601E+00 +5.111280E+00     +3.680027E-01 +1.781810E+00 +2.174680E-02     +3.680027E-01 +1.781810E+00 +2.174680E-02     +3.680027E-01 +1.781810E+00 +2.174680E-02     +3.680027E-01 +1.781810E+00 +2.174680E-02     +3.680027E-01 +1.781810E+00 +2.174680E-02     +9.478342E-01 +1.460731E+00 +2.908085E-01     +9.478342E-01 +1.460731E+00 +2.908085E-01     +9.478342E-01 +1.460731E+00 +2.908085E-01     +9.478342E-01 +1.460731E+00 +2.908085E-01     +9.478342E-01 +1.460731E+00 +2.908085E-01     +3.433651E+00 +1.387669E+00 +4.191160E+00     +3.433651E+00 +1.387669E+00 +4.191160E+00     +3.433651E+00 +1.387669E+00 +4.191160E+00     +3.433651E+00 +1.387669E+00 +4.191160E+00     +5.433811E+00 +1.679949E+00 +5.185890E+00    
 +5.433811E+00 +1.679949E+00 +5.185890E+00     +5.433811E+00 +1.679949E+00 +5.185890E+00     +5.433811E+00 +1.679949E+00 +5.185890E+00     +5.433811E+00 +1.679949E+00 +5.185890E+00     +3.680027E-01 +1.781810E+00 +2.174680E-02     +3.680027E-01 +1.781810E+00 +2.174680E-02     +3.680027E-01 +1.781810E+00 +2.174680E-02     +3.680027E-01 +1.781810E+00 +2.174680E-02     +3.680027E-01 +1.781810E+00 +2.174680E-02     +3.680027E-01 +1.781810E+00 +2.174680E-02     +3.680027E-01 +1.781810E+00 +2.174680E-02     +9.478342E-01 +1.460731E+00 +2.908085E-01     +9.478342E-01 +1.460731E+00 +2.908085E-01     +9.478342E-01 +1.460731E+00 +2.908085E-01     +9.478342E-01 +1.460731E+00 +2.908085E-01     +9.478342E-01 +1.460731E+00 +2.908085E-01     +3.433651E+00 +1.387669E+00 +4.191160E+00     +3.433651E+00 +1.387669E+00 +4.191160E+00     +3.433651E+00 +1.387669E+00 +4.191160E+00     +3.433651E+00 +1.387669E+00 +4.191160E+00     +5.433811E+00 +1.679949E+00 +5.185890E+00    
 +5.433811E+00 +1.679949E+00 +5.185890E+00     +5.433811E+00 +1.679949E+00 +5.185890E+00     +5.433811E+00 +1.679949E+00 +5.185890E+00     +5.433811E+00 +1.679949E+00 +5.185890E+00     +3.680027E-01 +1.781810E+00 +2.174680E-02     +3.680027E-01 +1.781810E+00 +2.174680E-02     +3.680027E-01 +1.781810E+00 +2.174680E-02     +5.872230E+00 +7.271635E-01 +1.324391E+00     +3.680027E-01 +1.781810E+00 +2.174680E-02     +3.680027E-01 +1.781810E+00 +2.174680E-02     +3.680027E-01 +1.781810E+00 +2.174680E-02     +9.478342E-01 +1.460731E+00 +2.908085E-01     +9.478342E-01 +1.460731E+00 +2.908085E-01     +9.478342E-01 +1.460731E+00 +2.908085E-01     +9.478342E-01 +1.460731E+00 +2.908085E-01     +3.433651E+00 +1.387669E+00 +4.191160E+00     +3.433651E+00 +1.387669E+00 +4.191160E+00     +3.433651E+00 +1.387669E+00 +4.191160E+00     +3.433651E+00 +1.387669E+00 +4.191160E+00     +3.433651E+00 +1.387669E+00 +4.191160E+00     +5.433811E+00 +1.679949E+00 +5.185890E+00    
 +5.433811E+00 +1.679949E+00 +5.185890E+00     +5.433811E+00 +1.679949E+00 +5.185890E+00     +5.433811E+00 +1.679949E+00 +5.185890E+00     +2.615599E+00 +1.628670E+00 +4.890741E+00     +3.680027E-01 +1.781810E+00 +2.174680E-02     +3.680027E-01 +1.781810E+00 +2.174680E-02     +3.680027E-01 +1.781810E+00 +2.174680E-02     +5.872230E+00 +7.271635E-01 +1.324391E+00     +5.872230E+00 +7.271635E-01 +1.324391E+00     +3.680027E-01 +1.781810E+00 +2.174680E-02     +1.275359E+00 +2.170849E+00 +8.672960E-01     +1.275359E+00 +2.170849E+00 +8.672960E-01     +5.176631E+00 +1.026130E+00 +2.206360E+00     +5.176631E+00 +1.026130E+00 +2.206360E+00     +5.176631E+00 +1.026130E+00 +2.206360E+00     +3.433651E+00 +1.387669E+00 +4.191160E+00     +3.433651E+00 +1.387669E+00 +4.191160E+00     +3.433651E+00 +1.387669E+00 +4.191160E+00     +3.433651E+00 +1.387669E+00 +4.191160E+00     +2.765171E+00 +1.135571E+00 +5.039141E+00     +2.765171E+00 +1.135571E+00 +5.039141E+00    
 +2.615599E+00 +1.628670E+00 +4.890741E+00     +2.615599E+00 +1.628670E+00 +4.890741E+00     +2.615599E+00 +1.628670E+00 +4.890741E+00     +2.615599E+00 +1.628670E+00 +4.890741E+00     +2.615599E+00 +1.628670E+00 +4.890741E+00     +3.680027E-01 +1.781810E+00 +2.174680E-02     +3.680027E-01 +1.781810E+00 +2.174680E-02     +5.872230E+00 +7.271635E-01 +1.324391E+00     +5.872230E+00 +7.271635E-01 +1.324391E+00     +1.275359E+00 +2.170849E+00 +8.672960E-01     +1.275359E+00 +2.170849E+00 +8.672960E-01     +1.275359E+00 +2.170849E+00 +8.672960E-01     +5.176631E+00 +1.026130E+00 +2.206360E+00     +5.176631E+00 +1.026130E+00 +2.206360E+00     +5.176631E+00 +1.026130E+00 +2.206360E+00     +5.804021E+00 +1.837120E+00 +1.865720E+00     +3.433651E+00 +1.387669E+00 +4.191160E+00     +3.433651E+00 +1.387669E+00 +4.191160E+00     +2.765171E+00 +1.135571E+00 +5.039141E+00     +2.765171E+00 +1.135571E+00 +5.039141E+00     +2.765171E+00 +1.135571E+00 +5.039141E+00    
 +2.615599E+00 +1.628670E+00 +4.890741E+00     +2.615599E+00 +1.628670E+00 +4.890741E+00     +2.615599E+00 +1.628670E+00 +4.890741E+00     +2.615599E+00 +1.628670E+00 +4.890741E+00     +2.615599E+00 +1.628670E+00 +4.890741E+00     +1.114019E+00 +9.085102E-01 +5.696470E+00     +1.114019E+00 +9.085102E-01 +5.696470E+00     +9.955812E-01 +2.258920E+00 +2.958440E+00     +9.955812E-01 +2.258920E+00 +2.958440E+00     +9.955812E-01 +2.258920E+00 +2.958440E+00     +1.275359E+00 +2.170849E+00 +8.672960E-01     +1.275359E+00 +2.170849E+00 +8.672960E-01     +1.275359E+00 +2.170849E+00 +8.672960E-01     +5.176631E+00 +1.026130E+00 +2.206360E+00     +5.858500E+00 +2.491110E+00 +6.200010E+00     +5.858500E+00 +2.491110E+00 +6.200010E+00     +5.858500E+00 +2.491110E+00 +6.200010E+00     +5.858500E+00 +2.491110E+00 +6.200010E+00     +2.765171E+00 +1.135571E+00 +5.039141E+00     +2.765171E+00 +1.135571E+00 +5.039141E+00     +2.615599E+00 +1.628670E+00 +4.890741E+00    
 +2.615599E+00 +1.628670E+00 +4.890741E+00     +2.615599E+00 +1.628670E+00 +4.890741E+00     +2.615599E+00 +1.628670E+00 +4.890741E+00     +2.615599E+00 +1.628670E+00 +4.890741E+00     +2.615599E+00 +1.628670E+00 +4.890741E+00     +1.114019E+00 +9.085102E-01 +5.696470E+00     +1.114019E+00 +9.085102E-01 +5.696470E+00     +9.955812E-01 +2.258920E+00 +2.958440E+00     +9.955812E-01 +2.258920E+00 +2.958440E+00     +9.955812E-01 +2.258920E+00 +2.958440E+00     +9.955812E-01 +2.258920E+00 +2.958440E+00     +1.275359E+00 +2.170849E+00 +8.672960E-01     +1.275359E+00 +2.170849E+00 +8.672960E-01     +5.858500E+00 +2.491110E+00 +6.200010E+00     +5.858500E+00 +2.491110E+00 +6.200010E+00     +5.858500E+00 +2.491110E+00 +6.200010E+00     +5.858500E+00 +2.491110E+00 +6.200010E+00     +5.858500E+00 +2.491110E+00 +6.200010E+00     +3.230280E+00 +1.770179E+00 +4.852461E+00     +3.230280E+00 +1.770179E+00 +4.852461E+00     +2.615599E+00 +1.628670E+00 +4.890741E+00    
 +2.615599E+00 +1.628670E+00 +4.890741E+00     +2.615599E+00 +1.628670E+00 +4.890741E+00     +2.615599E+00 +1.628670E+00 +4.890741E+00     +2.615599E+00 +1.628670E+00 +4.890741E+00     +4.046370E+00 +2.683341E+00 +1.019586E-01     +4.046370E+00 +2.683341E+00 +1.019586E-01     +1.114019E+00 +9.085102E-01 +5.696470E+00     +9.955812E-01 +2.258920E+00 +2.958440E+00     +9.955812E-01 +2.258920E+00 +2.958440E+00     +9.955812E-01 +2.258920E+00 +2.958440E+00     +1.275359E+00 +2.170849E+00 +8.672960E-01     +1.275359E+00 +2.170849E+00 +8.672960E-01     +1.275359E+00 +2.170849E+00 +8.672960E-01     +5.858500E+00 +2.491110E+00 +6.200010E+00     +5.858500E+00 +2.491110E+00 +6.200010E+00     +5.858500E+00 +2.491110E+00 +6.200010E+00     +5.858500E+00 +2.491110E+00 +6.200010E+00     +3.881970E+00 +6.810327E-01 +3.088199E+00     +3.881970E+00 +6.810327E-01 +3.088199E+00     +3.881970E+00 +6.810327E-01 +3.088199E+00     +2.615599E+00 +1.628670E+00 +4.890741E+00    
 +2.615599E+00 +1.628670E+00 +4.890741E+00     +2.615599E+00 +1.628670E+00 +4.890741E+00     +2.615599E+00 +1.628670E+00 +4.890741E+00     +4.046370E+00 +2.683341E+00 +1.019586E-01     +4.046370E+00 +2.683341E+00 +1.019586E-01     +4.046370E+00 +2.683341E+00 +1.019586E-01     +1.666920E+00 +2.348550E+00 +2.015970E+00     +1.666920E+00 +2.348550E+00 +2.015970E+00     +1.666920E+00 +2.348550E+00 +2.015970E+00     +1.666920E+00 +2.348550E+00 +2.015970E+00     +1.666920E+00 +2.348550E+00 +2.015970E+00     +1.275359E+00 +2.170849E+00 +8.672960E-01     +1.275359E+00 +2.170849E+00 +8.672960E-01     +1.275359E+00 +2.170849E+00 +8.672960E-01     +5.858500E+00 +2.491110E+00 +6.200010E+00     +5.858500E+00 +2.491110E+00 +6.200010E+00     +3.230280E+00 +1.770179E+00 +4.852461E+00     +3.230280E+00 +1.770179E+00 +4.852461E+00     +3.230280E+00 +1.770179E+00 +4.852461E+00     +3.881970E+00 +6.810327E-01 +3.088199E+00     +2.615599E+00 +1.628670E+00 +4.890741E+00    
 +4.305530E+00 +9.631216E-01 +1.169598E-01     +4.305530E+00 +9.631216E-01 +1.169598E-01     +4.305530E+00 +9.631216E-01 +1.169598E-01     +4.046370E+00 +2.683341E+00 +1.019586E-01     +4.046370E+00 +2.683341E+00 +1.019586E-01     +4.046370E+00 +2.683341E+00 +1.019586E-01     +1.666920E+00 +2.348550E+00 +2.015970E+00     +1.666920E+00 +2.348550E+00 +2.015970E+00     +1.666920E+00 +2.348550E+00 +2.015970E+00     +1.666920E+00 +2.348550E+00 +2.015970E+00     +1.666920E+00 +2.348550E+00 +2.015970E+00     +2.403409E+00 +1.538571E+00 +4.591139E+00     +4.813019E+00 +2.408141E+00 +2.331376E-01     +1.275359E+00 +2.170849E+00 +8.672960E-01     +5.915940E+00 +1.370550E+00 +4.709919E+00     +3.881970E+00 +6.810327E-01 +3.088199E+00     +3.881970E+00 +6.810327E-01 +3.088199E+00     +3.881970E+00 +6.810327E-01 +3.088199E+00     +3.881970E+00 +6.810327E-01 +3.088199E+00     +3.881970E+00 +6.810327E-01 +3.088199E+00     +3.881970E+00 +6.810327E-01 +3.088199E+00    
 +4.305530E+00 +9.631216E-01 +1.169598E-01     +4.305530E+00 +9.631216E-01 +1.169598E-01     +1.198790E+00 +2.438080E+00 +8.100614E-01     +1.198790E+00 +2.438080E+00 +8.100614E-01     +1.198790E+00 +2.438080E+00 +8.100614E-01     +1.198790E+00 +2.438080E+00 +8.100614E-01     +1.666920E+00 +2.348550E+00 +2.015970E+00     +1.666920E+00 +2.348550E+00 +2.015970E+00     +1.666920E+00 +2.348550E+00 +2.015970E+00     +1.666920E+00 +2.348550E+00 +2.015970E+00     +1.666920E+00 +2.348550E+00 +2.015970E+00     +2.403409E+00 +1.538571E+00 +4.591139E+00     +4.813019E+00 +2.408141E+00 +2.331376E-01     +5.915940E+00 +1.370550E+00 +4.709919E+00     +5.915940E+00 +1.370550E+00 +4.709919E+00     +5.915940E+00 +1.370550E+00 +4.709919E+00     +5.915940E+00 +1.370550E+00 +4.709919E+00     +3.881970E+00 +6.810327E-01 +3.088199E+00     +3.881970E+00 +6.810327E-01 +3.088199E+00     +4.051160E+00 +6.849475E-01 +3.600789E-01     +4.051160E+00 +6.849475E-01 +3.600789E-01    
 +2.099771E+00 +3.043278E-01 +5.190450E+00     +1.198790E+00 +2.438080E+00 +8.100614E-01     +1.198790E+00 +2.438080E+00 +8.100614E-01     +1.198790E+00 +2.438080E+00 +8.100614E-01     +1.198790E+00 +2.438080E+00 +8.100614E-01     +1.198790E+00 +2.438080E+00 +8.100614E-01     +1.198790E+00 +2.438080E+00 +8.100614E-01     +1.666920E+00 +2.348550E+00 +2.015970E+00     +5.032650E+00 +1.049700E+00 +2.761570E+00     +5.032650E+00 +1.049700E+00 +2.761570E+00     +5.032650E+00 +1.049700E+00 +2.761570E+00     +3.483319E+00 +1.686590E+00 +5.091201E+00     +3.483319E+00 +1.686590E+00 +5.091201E+00     +5.915940E+00 +1.370550E+00 +4.709919E+00     +5.915940E+00 +1.370550E+00 +4.709919E+00     +5.915940E+00 +1.370550E+00 +4.709919E+00     +5.915940E+00 +1.370550E+00 +4.709919E+00     +3.881970E+00 +6.810327E-01 +3.088199E+00     +4.051160E+00 +6.849475E-01 +3.600789E-01     +4.051160E+00 +6.849475E-01 +3.600789E-01     +4.051160E+00 +6.849475E-01 +3.600789E-01    
 +2.099771E+00 +3.043278E-01 +5.190450E+00     +3.539840E+00 +9.509950E-01 +4.313920E+00     +3.539840E+00 +9.509950E-01 +4.313920E+00     +3.539840E+00 +9.509950E-01 +4.313920E+00     +3.539840E+00 +9.509950E-01 +4.313920E+00     +3.539840E+00 +9.509950E-01 +4.313920E+00     +3.539840E+00 +9.509950E-01 +4.313920E+00     +1.666920E+00 +2.348550E+00 +2.015970E+00     +5.032650E+00 +1.049700E+00 +2.761570E+00     +5.032650E+00 +1.049700E+00 +2.761570E+00     +3.483319E+00 +1.686590E+00 +5.091201E+00     +3.483319E+00 +1.686590E+00 +5.091201E+00     +3.483319E+00 +1.686590E+00 +5.091201E+00     +5.915940E+00 +1.370550E+00 +4.709919E+00     +5.915940E+00 +1.370550E+00 +4.709919E+00     +5.915940E+00 +1.370550E+00 +4.709919E+00     +5.915940E+00 +1.370550E+00 +4.709919E+00     +5.915940E+00 +1.370550E+00 +4.709919E+00     +2.099771E+00 +3.043278E-01 +5.190450E+00     +2.099771E+00 +3.043278E-01 +5.190450E+00     +2.099771E+00 +3.043278E-01 +5.190450E+00    
 +2.099771E+00 +3.043278E-01 +5.190450E+00     +2.099771E+00 +3.043278E-01 +5.190450E+00     +3.539840E+00 +9.509950E-01 +4.313920E+00     +3.539840E+00 +9.509950E-01 +4.313920E+00     +3.539840E+00 +9.509950E-01 +4.313920E+00     +3.539840E+00 +9.509950E-01 +4.313920E+00     +7.410406E-01 +1.347391E+00 +6.309173E-01     +3.956649E+00 +1.065070E-01 +3.420859E+00     +3.956649E+00 +1.065070E-01 +3.420859E+00     +3.483319E+00 +1.686590E+00 +5.091201E+00     +3.483319E+00 +1.686590E+00 +5.091201E+00     +3.483319E+00 +1.686590E+00 +5.091201E+00     +3.483319E+00 +1.686590E+00 +5.091201E+00     +5.915940E+00 +1.370550E+00 +4.709919E+00     +5.915940E+00 +1.370550E+00 +4.709919E+00     +5.915940E+00 +1.370550E+00 +4.709919E+00     +5.915940E+00 +1.370550E+00 +4.709919E+00     +2.099771E+00 +3.043278E-01 +5.190450E+00     +2.099771E+00 +3.043278E-01 +5.190450E+00     +2.099771E+00 +3.043278E-01 +5.190450E+00     +2.099771E+00 +3.043278E-01 +5.190450E+00    
 +2.099771E+00 +3.043278E-01 +5.190450E+00     +2.099771E+00 +3.043278E-01 +5.190450E+00     +3.539840E+00 +9.509950E-01 +4.313920E+00     +3.539840E+00 +9.509950E-01 +4.313920E+00     +3.539840E+00 +9.509950E-01 +4.313920E+00     +3.539840E+00 +9.509950E-01 +4.313920E+00     +7.410406E-01 +1.347391E+00 +6.309173E-01     +3.956649E+00 +1.065070E-01 +3.420859E+00     +5.646151E+00 +1.008350E+00 +4.577880E+00     +5.646151E+00 +1.008350E+00 +4.577880E+00     +3.483319E+00 +1.686590E+00 +5.091201E+00     +3.483319E+00 +1.686590E+00 +5.091201E+00     +3.483319E+00 +1.686590E+00 +5.091201E+00     +5.915940E+00 +1.370550E+00 +4.709919E+00     +5.915940E+00 +1.370550E+00 +4.709919E+00     +5.915940E+00 +1.370550E+00 +4.709919E+00     +5.570089E+00 +1.761910E+00 +5.651350E+00     +5.570089E+00 +1.761910E+00 +5.651350E+00     +2.099771E+00 +3.043278E-01 +5.190450E+00     +2.099771E+00 +3.043278E-01 +5.190450E+00     +2.099771E+00 +3.043278E-01 +5.190450E+00    
 +2.099771E+00 +3.043278E-01 +5.190450E+00     +2.099771E+00 +3.043278E-01 +5.190450E+00     +3.539840E+00 +9.509950E-01 +4.313920E+00     +3.539840E+00 +9.509950E-01 +4.313920E+00     +3.539840E+00 +9.509950E-01 +4.313920E+00     +2.906589E+00 +1.952840E+00 +5.279670E+00     +7.410406E-01 +1.347391E+00 +6.309173E-01     +3.956649E+00 +1.065070E-01 +3.420859E+00     +5.646151E+00 +1.008350E+00 +4.577880E+00     +5.646151E+00 +1.008350E+00 +4.577880E+00     +5.646151E+00 +1.008350E+00 +4.577880E+00     +3.483319E+00 +1.686590E+00 +5.091201E+00     +3.483319E+00 +1.686590E+00 +5.091201E+00     +6.149331E+00 +1.068421E+00 +1.449381E+00     +6.149331E+00 +1.068421E+00 +1.449381E+00     +6.149331E+00 +1.068421E+00 +1.449381E+00     +5.570089E+00 +1.761910E+00 +5.651350E+00     +5.570089E+00 +1.761910E+00 +5.651350E+00     +2.099771E+00 +3.043278E-01 +5.190450E+00     +2.099771E+00 +3.043278E-01 +5.190450E+00     +2.099771E+00 +3.043278E-01 +5.190450E+00    
 +2.099771E+00 +3.043278E-01 +5.190450E+00     +3.310211E+00 +1.307440E+00 +3.972190E+00     +3.310211E+00 +1.307440E+00 +3.972190E+00     +8.389483E-01 +7.921194E-01 +1.657923E-01     +8.389483E-01 +7.921194E-01 +1.657923E-01     +2.906589E+00 +1.952840E+00 +5.279670E+00     +4.558015E-01 +1.537501E+00 +1.064860E+00     +3.956649E+00 +1.065070E-01 +3.420859E+00     +5.646151E+00 +1.008350E+00 +4.577880E+00     +5.646151E+00 +1.008350E+00 +4.577880E+00     +5.646151E+00 +1.008350E+00 +4.577880E+00     +2.488949E+00 +9.638284E-01 +4.558980E+00     +3.483319E+00 +1.686590E+00 +5.091201E+00     +6.149331E+00 +1.068421E+00 +1.449381E+00     +6.149331E+00 +1.068421E+00 +1.449381E+00     +6.149331E+00 +1.068421E+00 +1.449381E+00     +6.149331E+00 +1.068421E+00 +1.449381E+00     +5.570089E+00 +1.761910E+00 +5.651350E+00     +2.099771E+00 +3.043278E-01 +5.190450E+00     +2.099771E+00 +3.043278E-01 +5.190450E+00     +2.099771E+00 +3.043278E-01 +5.190450E+00    
 +3.310211E+00 +1.307440E+00 +3.972190E+00     +3.310211E+00 +1.307440E+00 +3.972190E+00     +3.310211E+00 +1.307440E+00 +3.972190E+00     +8.389483E-01 +7.921194E-01 +1.657923E-01     +8.389483E-01 +7.921194E-01 +1.657923E-01     +4.558015E-01 +1.537501E+00 +1.064860E+00     +4.558015E-01 +1.537501E+00 +1.064860E+00     +4.558015E-01 +1.537501E+00 +1.064860E+00     +4.558015E-01 +1.537501E+00 +1.064860E+00     +5.646151E+00 +1.008350E+00 +4.577880E+00     +2.488949E+00 +9.638284E-01 +4.558980E+00     +2.488949E+00 +9.638284E-01 +4.558980E+00     +2.488949E+00 +9.638284E-01 +4.558980E+00     +6.149331E+00 +1.068421E+00 +1.449381E+00     +6.149331E+00 +1.068421E+00 +1.449381E+00     +6.149331E+00 +1.068421E+00 +1.449381E+00     +6.149331E+00 +1.068421E+00 +1.449381E+00     +1.615070E+00 +1.144740E+00 +5.368900E+00     +2.099771E+00 +3.043278E-01 +5.190450E+00     +1.488501E+00 +1.369720E+00 +4.647463E-02     +2.099771E+00 +3.043278E-01 +5.190450E+00    
 +3.289830E+00 +2.250270E+00 +2.792970E+00     +3.289830E+00 +2.250270E+00 +2.792970E+00     +3.289830E+00 +2.250270E+00 +2.792970E+00     +8.389483E-01 +7.921194E-01 +1.657923E-01     +4.558015E-01 +1.537501E+00 +1.064860E+00     +4.558015E-01 +1.537501E+00 +1.064860E+00     +4.558015E-01 +1.537501E+00 +1.064860E+00     +4.558015E-01 +1.537501E+00 +1.064860E+00     +4.558015E-01 +1.537501E+00 +1.064860E+00     +4.558015E-01 +1.537501E+00 +1.064860E+00     +2.488949E+00 +9.638284E-01 +4.558980E+00     +2.488949E+00 +9.638284E-01 +4.558980E+00     +2.488949E+00 +9.638284E-01 +4.558980E+00     +6.149331E+00 +1.068421E+00 +1.449381E+00     +6.149331E+00 +1.068421E+00 +1.449381E+00     +6.149331E+00 +1.068421E+00 +1.449381E+00     +6.149331E+00 +1.068421E+00 +1.449381E+00     +6.149331E+00 +1.068421E+00 +1.449381E+00     +1.488501E+00 +1.369720E+00 +4.647463E-02     +1.488501E+00 +1.369720E+00 +4.647463E-02     +2.099771E+00 +3.043278E-01 +5.190450E+00    
 +3.289830E+00 +2.250270E+00 +2.792970E+00     +3.289830E+00 +2.250270E+00 +2.792970E+00     +3.289830E+00 +2.250270E+00 +2.792970E+00     +3.289830E+00 +2.250270E+00 +2.792970E+00     +4.558015E-01 +1.537501E+00 +1.064860E+00     +4.558015E-01 +1.537501E+00 +1.064860E+00     +4.558015E-01 +1.537501E+00 +1.064860E+00     +4.558015E-01 +1.537501E+00 +1.064860E+00     +4.558015E-01 +1.537501E+00 +1.064860E+00     +4.558015E-01 +1.537501E+00 +1.064860E+00     +2.488949E+00 +9.638284E-01 +4.558980E+00     +9.478342E-01 +1.460731E+00 +2.908085E-01     +9.478342E-01 +1.460731E+00 +2.908085E-01     +9.478342E-01 +1.460731E+00 +2.908085E-01     +6.149331E+00 +1.068421E+00 +1.449381E+00     +6.149331E+00 +1.068421E+00 +1.449381E+00     +6.149331E+00 +1.068421E+00 +1.449381E+00     +6.149331E+00 +1.068421E+00 +1.449381E+00     +6.149331E+00 +1.068421E+00 +1.449381E+00     +1.488501E+00 +1.369720E+00 +4.647463E-02     +5.433811E+00 +1.679949E+00 +5.185890E+00    
 +6.098370E+00 +7.690217E-01 +9.597182E-01     +6.098370E+00 +7.690217E-01 +9.597182E-01     +6.098370E+00 +7.690217E-01 +9.597182E-01     +6.098370E+00 +7.690217E-01 +9.597182E-01     +3.680027E-01 +1.781810E+00 +2.174680E-02     +3.680027E-01 +1.781810E+00 +2.174680E-02     +3.680027E-01 +1.781810E+00 +2.174680E-02     +4.558015E-01 +1.537501E+00 +1.064860E+00     +3.680027E-01 +1.781810E+00 +2.174680E-02     +3.680027E-01 +1.781810E+00 +2.174680E-02     +3.680027E-01 +1.781810E+00 +2.174680E-02     +9.478342E-01 +1.460731E+00 +2.908085E-01     +9.478342E-01 +1.460731E+00 +2.908085E-01     +9.478342E-01 +1.460731E+00 +2.908085E-01     +9.478342E-01 +1.460731E+00 +2.908085E-01     +9.478342E-01 +1.460731E+00 +2.908085E-01     +6.149331E+00 +1.068421E+00 +1.449381E+00     +6.149331E+00 +1.068421E+00 +1.449381E+00     +6.149331E+00 +1.068421E+00 +1.449381E+00     +5.433811E+00 +1.679949E+00 +5.185890E+00     +5.433811E+00 +1.679949E+00 +5.185890E+00    
 +5.433811E+00 +1.679949E+00 +5.185890E+00     +3.594226E-01 +2.151391E+00 +5.300430E+00     +6.098370E+00 +7.690217E-01 +9.597182E-01     +6.098370E+00 +7.690217E-01 +9.597182E-01     +3.680027E-01 +1.781810E+00 +2.174680E-02     +3.680027E-01 +1.781810E+00 +2.174680E-02     +3.680027E-01 +1.781810E+00 +2.174680E-02     +3.680027E-01 +1.781810E+00 +2.174680E-02     +3.680027E-01 +1.781810E+00 +2.174680E-02     +3.680027E-01 +1.781810E+00 +2.174680E-02     +3.680027E-01 +1.781810E+00 +2.174680E-02     +9.478342E-01 +1.460731E+00 +2.908085E-01     +9.478342E-01 +1.460731E+00 +2.908085E-01     +9.478342E-01 +1.460731E+00 +2.908085E-01     +9.478342E-01 +1.460731E+00 +2.908085E-01     +9.478342E-01 +1.460731E+00 +2.908085E-01     +3.433651E+00 +1.387669E+00 +4.191160E+00     +3.433651E+00 +1.387669E+00 +4.191160E+00     +3.433651E+00 +1.387669E+00 +4.191160E+00     +5.490879E+00 +1.331950E+00 +1.387240E+00     +5.433811E+00 +1.679949E+00 +5.185890E+00    
 +5.433811E+00 +1.679949E+00 +5.185890E+00     +5.433811E+00 +1.679949E+00 +5.185890E+00     +5.433811E+00 +1.679949E+00 +5.185890E+00     +5.433811E+00 +1.679949E+00 +5.185890E+00     +3.680027E-01 +1.781810E+00 +2.174680E-02     +3.680027E-01 +1.781810E+00 +2.174680E-02     +3.680027E-01 +1.781810E+00 +2.174680E-02     +3.680027E-01 +1.781810E+00 +2.174680E-02     +3.680027E-01 +1.781810E+00 +2.174680E-02     +3.680027E-01 +1.781810E+00 +2.174680E-02     +3.680027E-01 +1.781810E+00 +2.174680E-02     +9.478342E-01 +1.460731E+00 +2.908085E-01     +9.478342E-01 +1.460731E+00 +2.908085E-01     +9.478342E-01 +1.460731E+00 +2.908085E-01     +9.478342E-01 +1.460731E+00 +2.908085E-01     +9.478342E-01 +1.460731E+00 +2.908085E-01     +3.433651E+00 +1.387669E+00 +4.191160E+00     +3.433651E+00 +1.387669E+00 +4.191160E+00     +3.433651E+00 +1.387669E+00 +4.191160E+00     +5.490879E+00 +1.331950E+00 +1.387240E+00     +5.490879E+00 +1.331950E+00 +1.387240E+00    
 +5.433811E+00 +1.679949E+00 +5.185890E+00     +5.433811E+00 +1.679949E+00 +5.185890E+00     +5.433811E+00 +1.679949E+00 +5.185890E+00     +5.433811E+00 +1.679949E+00 +5.185890E+00     +3.680027E-01 +1.781810E+00 +2.174680E-02     +3.680027E-01 +1.781810E+00 +2.174680E-02     +3.680027E-01 +1.781810E+00 +2.174680E-02     +3.680027E-01 +1.781810E+00 +2.174680E-02     +3.680027E-01 +1.781810E+00 +2.174680E-02     +3.680027E-01 +1.781810E+00 +2.174680E-02     +3.680027E-01 +1.781810E+00 +2.174680E-02     +9.478342E-01 +1.460731E+00 +2.908085E-01     +9.478342E-01 +1.460731E+00 +2.908085E-01     +9.478342E-01 +1.460731E+00 +2.908085E-01     +9.478342E-01 +1.460731E+00 +2.908085E-01     +3.433651E+00 +1.387669E+00 +4.191160E+00     +3.433651E+00 +1.387669E+00 +4.191160E+00     +3.433651E+00 +1.387669E+00 +4.191160E+00     +3.433651E+00 +1.387669E+00 +4.191160E+00     +5.490879E+00 +1.331950E+00 +1.387240E+00     +5.490879E+00 +1.331950E+00 +1.387240E+00    
 +2.615599E+00 +1.628670E+00 +4.890741E+00     +2.615599E+00 +1.628670E+00 +4.890741E+00     +2.615599E+00 +1.628670E+00 +4.890741E+00     +8.284624E-01 +9.850813E-01 +5.831145E-02     +8.284624E-01 +9.850813E-01 +5.831145E-02     +3.680027E-01 +1.781810E+00 +2.174680E-02     +3.680027E-01 +1.781810E+00 +2.174680E-02     +3.680027E-01 +1.781810E+00 +2.174680E-02     +3.680027E-01 +1.781810E+00 +2.174680E-02     +3.680027E-01 +1.781810E+00 +2.174680E-02     +1.275359E+00 +2.170849E+00 +8.672960E-01     +1.275359E+00 +2.170849E+00 +8.672960E-01     +1.275359E+00 +2.170849E+00 +8.672960E-01     +5.176631E+00 +1.026130E+00 +2.206360E+00     +5.176631E+00 +1.026130E+00 +2.206360E+00     +3.433651E+00 +1.387669E+00 +4.191160E+00     +3.433651E+00 +1.387669E+00 +4.191160E+00     +3.433651E+00 +1.387669E+00 +4.191160E+00     +2.765171E+00 +1.135571E+00 +5.039141E+00     +2.765171E+00 +1.135571E+00 +5.039141E+00     +2.765171E+00 +1.135571E+00 +5.039141E+00    
 +2.615599E+00 +1.628670E+00 +4.890741E+00     +2.615599E+00 +1.628670E+00 +4.890741E+00     +2.615599E+00 +1.628670E+00 +4.890741E+00     +2.615599E+00 +1.628670E+00 +4.890741E+00     +8.284624E-01 +9.850813E-01 +5.831145E-02     +3.680027E-01 +1.781810E+00 +2.174680E-02     +3.680027E-01 +1.781810E+00 +2.174680E-02     +3.680027E-01 +1.781810E+00 +2.174680E-02     +3.680027E-01 +1.781810E+00 +2.174680E-02     +1.275359E+00 +2.170849E+00 +8.672960E-01     +1.275359E+00 +2.170849E+00 +8.672960E-01     +1.275359E+00 +2.170849E+00 +8.672960E-01     +1.275359E+00 +2.170849E+00 +8.672960E-01     +5.176631E+00 +1.026130E+00 +2.206360E+00     +5.176631E+00 +1.026130E+00 +2.206360E+00     +5.804021E+00 +1.837120E+00 +1.865720E+00     +3.433651E+00 +1.387669E+00 +4.191160E+00     +2.765171E+00 +1.135571E+00 +5.039141E+00     +2.765171E+00 +1.135571E+00 +5.039141E+00     +2.765171E+00 +1.135571E+00 +5.039141E+00     +2.765171E+00 +1.135571E+00 +5.039141E+00    
 +2.615599E+00 +1.628670E+00 +4.890741E+00     +2.615599E+00 +1.628670E+00 +4.890741E+00     +2.615599E+00 +1.628670E+00 +4.890741E+00     +2.615599E+00 +1.628670E+00 +4.890741E+00     +2.615599E+00 +1.628670E+00 +4.890741E+00     +2.615599E+00 +1.628670E+00 +4.890741E+00     +3.680027E-01 +1.781810E+00 +2.174680E-02     +9.955812E-01 +2.258920E+00 +2.958440E+00     +9.955812E-01 +2.258920E+00 +2.958440E+00     +1.275359E+00 +2.170849E+00 +8.672960E-01     +1.275359E+00 +2.170849E+00 +8.672960E-01     +1.275359E+00 +2.170849E+00 +8.672960E-01     +1.275359E+00 +2.170849E+00 +8.672960E-01     +1.275359E+00 +2.170849E+00 +8.672960E-01     +5.858500E+00 +2.491110E+00 +6.200010E+00     +5.858500E+00 +2.491110E+00 +6.200010E+00     +5.858500E+00 +2.491110E+00 +6.200010E+00     +3.230280E+00 +1.770179E+00 +4.852461E+00     +2.765171E+00 +1.135571E+00 +5.039141E+00     +2.765171E+00 +1.135571E+00 +5.039141E+00     +2.765171E+00 +1.135571E+00 +5.039141E+00    
 +2.615599E+00 +1.628670E+00 +4.890741E+00     +2.615599E+00 +1.628670E+00 +4.890741E+00     +2.615599E+00 +1.628670E+00 +4.890741E+00     +2.615599E+00 +1.628670E+00 +4.890741E+00     +2.615599E+00 +1.628670E+00 +4.890741E+00     +2.615599E+00 +1.628670E+00 +4.890741E+00     +9.955812E-01 +2.258920E+00 +2.958440E+00     +9.955812E-01 +2.258920E+00 +2.958440E+00     +9.955812E-01 +2.258920E+00 +2.958440E+00     +9.955812E-01 +2.258920E+00 +2.958440E+00     +1.275359E+00 +2.170849E+00 +8.672960E-01     +1.275359E+00 +2.170849E+00 +8.672960E-01     +1.275359E+00 +2.170849E+00 +8.672960E-01     +1.275359E+00 +2.170849E+00 +8.672960E-01     +5.858500E+00 +2.491110E+00 +6.200010E+00     +5.858500E+00 +2.491110E+00 +6.200010E+00     +5.858500E+00 +2.491110E+00 +6.200010E+00     +3.230280E+00 +1.770179E+00 +4.852461E+00     +3.230280E+00 +1.770179E+00 +4.852461E+00     +3.230280E+00 +1.770179E+00 +4.852461E+00     +2.615599E+00 +1.628670E+00 +4.890741E+00    
 +2.615599E+00 +1.628670E+00 +4.890741E+00     +2.615599E+00 +1.628670E+00 +4.890741E+00     +2.615599E+00 +1.628670E+00 +4.890741E+00     +2.615599E+00 +1.628670E+00 +4.890741E+00     +2.615599E+00 +1.628670E+00 +4.890741E+00     +2.615599E+00 +1.628670E+00 +4.890741E+00     +9.955812E-01 +2.258920E+00 +2.958440E+00     +9.955812E-01 +2.258920E+00 +2.958440E+00     +9.955812E-01 +2.258920E+00 +2.958440E+00     +1.275359E+00 +2.170849E+00 +8.672960E-01     +1.275359E+00 +2.170849E+00 +8.672960E-01     +1.275359E+00 +2.170849E+00 +8.672960E-01     +1.275359E+00 +2.170849E+00 +8.672960E-01     +1.275359E+00 +2.170849E+00 +8.672960E-01     +5.858500E+00 +2.491110E+00 +6.200010E+00     +5.858500E+00 +2.491110E+00 +6.200010E+00     +3.230280E+00 +1.770179E+00 +4.852461E+00     +3.230280E+00 +1.770179E+00 +4.852461E+00     +3.230280E+00 +1.770179E+00 +4.852461E+00     +3.230280E+00 +1.770179E+00 +4.852461E+00     +2.615599E+00 +1.628670E+00 +4.890741E+00    
 +4.812670E+00 +2.299791E+00 +4.509041E+00     +4.812670E+00 +2.299791E+00 +4.509041E+00     +4.812670E+00 +2.299791E+00 +4.509041E+00     +4.812670E+00 +2.299791E+00 +4.509041E+00     +4.046370E+00 +2.683341E+00 +1.019586E-01     +1.666920E+00 +2.348550E+00 +2.015970E+00     +1.666920E+00 +2.348550E+00 +2.015970E+00     +1.666920E+00 +2.348550E+00 +2.015970E+00     +1.666920E+00 +2.348550E+00 +2.015970E+00     +1.666920E+00 +2.348550E+00 +2.015970E+00     +1.666920E+00 +2.348550E+00 +2.015970E+00     +1.275359E+00 +2.170849E+00 +8.672960E-01     +1.275359E+00 +2.170849E+00 +8.672960E-01     +1.275359E+00 +2.170849E+00 +8.672960E-01     +1.275359E+00 +2.170849E+00 +8.672960E-01     +3.230280E+00 +1.770179E+00 +4.852461E+00     +3.230280E+00 +1.770179E+00 +4.852461E+00     +3.230280E+00 +1.770179E+00 +4.852461E+00     +3.230280E+00 +1.770179E+00 +4.852461E+00     +3.230280E+00 +1.770179E+00 +4.852461E+00     +2.615599E+00 +1.628670E+00 +4.890741E+00    
 +4.305530E+00 +9.631216E-01 +1.169598E-01     +4.305530E+00 +9.631216E-01 +1.169598E-01     +4.305530E+00 +9.631216E-01 +1.169598E-01     +4.305530E+00 +9.631216E-01 +1.169598E-01     +4.046370E+00 +2.683341E+00 +1.019586E-01     +5.204900E+00 +1.079929E+00 +3.982901E+00     +5.204900E+00 +1.079929E+00 +3.982901E+00     +5.204900E+00 +1.079929E+00 +3.982901E+00     +1.666920E+00 +2.348550E+00 +2.015970E+00     +5.203431E+00 +1.491560E+00 +1.852030E+00     +1.666920E+00 +2.348550E+00 +2.015970E+00     +1.666920E+00 +2.348550E+00 +2.015970E+00     +1.275359E+00 +2.170849E+00 +8.672960E-01     +1.275359E+00 +2.170849E+00 +8.672960E-01     +4.742130E+00 +1.957270E+00 +8.167478E-01     +4.742130E+00 +1.957270E+00 +8.167478E-01     +3.230280E+00 +1.770179E+00 +4.852461E+00     +3.881970E+00 +6.810327E-01 +3.088199E+00     +3.230280E+00 +1.770179E+00 +4.852461E+00     +3.230280E+00 +1.770179E+00 +4.852461E+00     +2.421060E+00 +1.825970E+00 +4.804870E+00    
 +4.305530E+00 +9.631216E-01 +1.169598E-01     +4.305530E+00 +9.631216E-01 +1.169598E-01     +4.305530E+00 +9.631216E-01 +1.169598E-01     +4.305530E+00 +9.631216E-01 +1.169598E-01     +4.549539E+00 +1.545980E+00 +3.262760E+00     +4.549539E+00 +1.545980E+00 +3.262760E+00     +5.204900E+00 +1.079929E+00 +3.982901E+00     +1.666920E+00 +2.348550E+00 +2.015970E+00     +1.666920E+00 +2.348550E+00 +2.015970E+00     +1.666920E+00 +2.348550E+00 +2.015970E+00     +1.666920E+00 +2.348550E+00 +2.015970E+00     +1.666920E+00 +2.348550E+00 +2.015970E+00     +1.275359E+00 +2.170849E+00 +8.672960E-01     +5.915940E+00 +1.370550E+00 +4.709919E+00     +4.742130E+00 +1.957270E+00 +8.167478E-01     +4.742130E+00 +1.957270E+00 +8.167478E-01     +4.742130E+00 +1.957270E+00 +8.167478E-01     +4.742130E+00 +1.957270E+00 +8.167478E-01     +2.070980E+00 +9.549901E-01 +5.551800E+00     +2.070980E+00 +9.549901E-01 +5.551800E+00     +2.421060E+00 +1.825970E+00 +4.804870E+00    
 +4.305530E+00 +9.631216E-01 +1.169598E-01     +4.305530E+00 +9.631216E-01 +1.169598E-01     +4.305530E+00 +9.631216E-01 +1.169598E-01     +1.198790E+00 +2.438080E+00 +8.100614E-01     +4.549539E+00 +1.545980E+00 +3.262760E+00     +4.549539E+00 +1.545980E+00 +3.262760E+00     +5.848241E+00 +2.706412E-01 +1.179061E+00     +5.848241E+00 +2.706412E-01 +1.179061E+00     +5.032650E+00 +1.049700E+00 +2.761570E+00     +4.778410E+00 +1.572580E+00 +5.564960E+00     +5.032650E+00 +1.049700E+00 +2.761570E+00     +3.483319E+00 +1.686590E+00 +5.091201E+00     +3.483319E+00 +1.686590E+00 +5.091201E+00     +5.915940E+00 +1.370550E+00 +4.709919E+00     +4.742130E+00 +1.957270E+00 +8.167478E-01     +4.742130E+00 +1.957270E+00 +8.167478E-01     +4.742130E+00 +1.957270E+00 +8.167478E-01     +2.070980E+00 +9.549901E-01 +5.551800E+00     +2.070980E+00 +9.549901E-01 +5.551800E+00     +2.070980E+00 +9.549901E-01 +5.551800E+00     +2.070980E+00 +9.549901E-01 +5.551800E+00    
 +2.099771E+00 +3.043278E-01 +5.190450E+00     +5.381670E-01 +6.205536E-01 +1.011910E+00     +3.539840E+00 +9.509950E-01 +4.313920E+00     +3.539840E+00 +9.509950E-01 +4.313920E+00     +3.539840E+00 +9.509950E-01 +4.313920E+00     +4.549539E+00 +1.545980E+00 +3.262760E+00     +4.549539E+00 +1.545980E+00 +3.262760E+00     +5.848241E+00 +2.706412E-01 +1.179061E+00     +5.032650E+00 +1.049700E+00 +2.761570E+00     +5.032650E+00 +1.049700E+00 +2.761570E+00     +3.483319E+00 +1.686590E+00 +5.091201E+00     +3.483319E+00 +1.686590E+00 +5.091201E+00     +3.483319E+00 +1.686590E+00 +5.091201E+00     +3.483319E+00 +1.686590E+00 +5.091201E+00     +5.915940E+00 +1.370550E+00 +4.709919E+00     +4.742130E+00 +1.957270E+00 +8.167478E-01     +4.742130E+00 +1.957270E+00 +8.167478E-01     +2.070980E+00 +9.549901E-01 +5.551800E+00     +2.070980E+00 +9.549901E-01 +5.551800E+00     +2.518821E+00 +1.471250E+00 +4.781989E+00     +2.518821E+00 +1.471250E+00 +4.781989E+00    
 +2.099771E+00 +3.043278E-01 +5.190450E+00     +2.099771E+00 +3.043278E-01 +5.190450E+00     +3.539840E+00 +9.509950E-01 +4.313920E+00     +3.539840E+00 +9.509950E-01 +4.313920E+00     +3.539840E+00 +9.509950E-01 +4.313920E+00     +2.906589E+00 +1.952840E+00 +5.279670E+00     +7.410406E-01 +1.347391E+00 +6.309173E-01     +7.410406E-01 +1.347391E+00 +6.309173E-01     +5.032650E+00 +1.049700E+00 +2.761570E+00     +3.483319E+00 +1.686590E+00 +5.091201E+00     +3.483319E+00 +1.686590E+00 +5.091201E+00     +3.483319E+00 +1.686590E+00 +5.091201E+00     +3.483319E+00 +1.686590E+00 +5.091201E+00     +3.483319E+00 +1.686590E+00 +5.091201E+00     +5.915940E+00 +1.370550E+00 +4.709919E+00     +5.915940E+00 +1.370550E+00 +4.709919E+00     +5.915940E+00 +1.370550E+00 +4.709919E+00     +2.070980E+00 +9.549901E-01 +5.551800E+00     +2.070980E+00 +9.549901E-01 +5.551800E+00     +2.518821E+00 +1.471250E+00 +4.781989E+00     +2.099771E+00 +3.043278E-01 +5.190450E+00    
 +2.099771E+00 +3.043278E-01 +5.190450E+00     +2.099771E+00 +3.043278E-01 +5.190450E+00     +3.539840E+00 +9.509950E-01 +4.313920E+00     +3.539840E+00 +9.509950E-01 +4.313920E+00     +2.906589E+00 +1.952840E+00 +5.279670E+00     +2.906589E+00 +1.952840E+00 +5.279670E+00     +7.410406E-01 +1.347391E+00 +6.309173E-01     +7.410406E-01 +1.347391E+00 +6.309173E-01     +7.410406E-01 +1.347391E+00 +6.309173E-01     +3.483319E+00 +1.686590E+00 +5.091201E+00     +3.483319E+00 +1.686590E+00 +5.091201E+00     +3.483319E+00 +1.686590E+00 +5.091201E+00     +3.483319E+00 +1.686590E+00 +5.091201E+00     +3.483319E+00 +1.686590E+00 +5.091201E+00     +5.915940E+00 +1.370550E+00 +4.709919E+00     +5.915940E+00 +1.370550E+00 +4.709919E+00     +5.915940E+00 +1.370550E+00 +4.709919E+00     +2.099771E+00 +3.043278E-01 +5.190450E+00     +2.099771E+00 +3.043278E-01 +5.190450E+00     +2.099771E+00 +3.043278E-01 +5.190450E+00     +2.099771E+00 +3.043278E-01 +5.190450E+00    
 +2.099771E+00 +3.043278E-01 +5.190450E+00     +2.099771E+00 +3.043278E-01 +5.190450E+00     +2.099771E+00 +3.043278E-01 +5.190450E+00     +2.906589E+00 +1.952840E+00 +5.279670E+00     +2.906589E+00 +1.952840E+00 +5.279670E+00     +2.906589E+00 +1.952840E+00 +5.279670E+00     +7.410406E-01 +1.347391E+00 +6.309173E-01     +7.410406E-01 +1.347391E+00 +6.309173E-01     +7.410406E-01 +1.347391E+00 +6.309173E-01     +5.646151E+00 +1.008350E+00 +4.577880E+00     +3.483319E+00 +1.686590E+00 +5.091201E+00     +3.483319E+00 +1.686590E+00 +5.091201E+00     +3.483319E+00 +1.686590E+00 +5.091201E+00     +6.149331E+00 +1.068421E+00 +1.449381E+00     +6.149331E+00 +1.068421E+00 +1.449381E+00     +6.149331E+00 +1.068421E+00 +1.449381E+00     +6.149331E+00 +1.068421E+00 +1.449381E+00     +2.099771E+00 +3.043278E-01 +5.190450E+00     +2.099771E+00 +3.043278E-01 +5.190450E+00     +1.458401E+00 +1.573229E+00 +1.711899E+00     +2.099771E+00 +3.043278E-01 +5.190450E+00    
 +2.099771E+00 +3.043278E-01 +5.190450E+00     +2.099771E+00 +3.043278E-01 +5.190450E+00     +8.389483E-01 +7.921194E-01 +1.657923E-01     +8.389483E-01 +7.921194E-01 +1.657923E-01     +2.906589E+00 +1.952840E+00 +5.279670E+00     +2.906589E+00 +1.952840E+00 +5.279670E+00     +7.410406E-01 +1.347391E+00 +6.309173E-01     +7.410406E-01 +1.347391E+00 +6.309173E-01     +5.254021E+00 +2.600570E+00 +4.963440E+00     +5.254021E+00 +2.600570E+00 +4.963440E+00     +5.254021E+00 +2.600570E+00 +4.963440E+00     +2.488949E+00 +9.638284E-01 +4.558980E+00     +2.488949E+00 +9.638284E-01 +4.558980E+00     +6.149331E+00 +1.068421E+00 +1.449381E+00     +6.149331E+00 +1.068421E+00 +1.449381E+00     +6.149331E+00 +1.068421E+00 +1.449381E+00     +6.149331E+00 +1.068421E+00 +1.449381E+00     +2.099771E+00 +3.043278E-01 +5.190450E+00     +2.099771E+00 +3.043278E-01 +5.190450E+00     +2.099771E+00 +3.043278E-01 +5.190450E+00     +2.099771E+00 +3.043278E-01 +5.190450E+00    
 +2.099771E+00 +3.043278E-01 +5.190450E+00     +3.310211E+00 +1.307440E+00 +3.972190E+00     +8.389483E-01 +7.921194E-01 +1.657923E-01     +8.389483E-01 +7.921194E-01 +1.657923E-01     +8.389483E-01 +7.921194E-01 +1.657923E-01     +4.350031E+00 +2.797740E+00 +6.246621E+00     +4.558015E-01 +1.537501E+00 +1.064860E+00     +4.558015E-01 +1.537501E+00 +1.064860E+00     +4.558015E-01 +1.537501E+00 +1.064860E+00     +5.254021E+00 +2.600570E+00 +4.963440E+00     +2.488949E+00 +9.638284E-01 +4.558980E+00     +2.488949E+00 +9.638284E-01 +4.558980E+00     +2.488949E+00 +9.638284E-01 +4.558980E+00     +6.149331E+00 +1.068421E+00 +1.449381E+00     +6.149331E+00 +1.068421E+00 +1.449381E+00     +6.149331E+00 +1.068421E+00 +1.449381E+00     +6.149331E+00 +1.068421E+00 +1.449381E+00     +6.149331E+00 +1.068421E+00 +1.449381E+00     +2.099771E+00 +3.043278E-01 +5.190450E+00     +2.099771E+00 +3.043278E-01 +5.190450E+00     +2.099771E+00 +3.043278E-01 +5.190450E+00    
 +6.098370E+00 +7.690217E-01 +9.597182E-01     +6.098370E+00 +7.690217E-01 +9.597182E-01     +6.098370E+00 +7.690217E-01 +9.597182E-01     +8.389483E-01 +7.921194E-01 +1.657923E-01     +8.389483E-01 +7.921194E-01 +1.657923E-01     +4.558015E-01 +1.537501E+00 +1.064860E+00     +4.558015E-01 +1.537501E+00 +1.064860E+00     +4.558015E-01 +1.537501E+00 +1.064860E+00     +4.558015E-01 +1.537501E+00 +1.064860E+00     +5.254021E+00 +2.600570E+00 +4.963440E+00     +2.488949E+00 +9.638284E-01 +4.558980E+00     +2.488949E+00 +9.638284E-01 +4.558980E+00     +2.488949E+00 +9.638284E-01 +4.558980E+00     +6.149331E+00 +1.068421E+00 +1.449381E+00     +6.149331E+00 +1.068421E+00 +1.449381E+00     +6.149331E+00 +1.068421E+00 +1.449381E+00     +6.149331E+00 +1.068421E+00 +1.449381E+00     +6.149331E+00 +1.068421E+00 +1.449381E+00     +2.099771E+00 +3.043278E-01 +5.190450E+00     +2.099771E+00 +3.043278E-01 +5.190450E+00     +2.099771E+00 +3.043278E-01 +5.190450E+00    
 +6.098370E+00 +7.690217E-01 +9.597182E-01     +6.098370E+00 +7.690217E-01 +9.597182E-01     +6.098370E+00 +7.690217E-01 +9.597182E-01     +6.098370E+00 +7.690217E-01 +9.597182E-01     +6.098370E+00 +7.690217E-01 +9.597182E-01     +4.558015E-01 +1.537501E+00 +1.064860E+00     +4.558015E-01 +1.537501E+00 +1.064860E+00     +4.558015E-01 +1.537501E+00 +1.064860E+00     +4.558015E-01 +1.537501E+00 +1.064860E+00     +4.558015E-01 +1.537501E+00 +1.064860E+00     +2.488949E+00 +9.638284E-01 +4.558980E+00     +2.488949E+00 +9.638284E-01 +4.558980E+00     +9.478342E-01 +1.460731E+00 +2.908085E-01     +6.149331E+00 +1.068421E+00 +1.449381E+00     +6.149331E+00 +1.068421E+00 +1.449381E+00     +6.149331E+00 +1.068421E+00 +1.449381E+00     +6.149331E+00 +1.068421E+00 +1.449381E+00     +6.149331E+00 +1.068421E+00 +1.449381E+00     +6.149331E+00 +1.068421E+00 +1.449381E+00     +6.098370E+00 +7.690217E-01 +9.597182E-01     +6.098370E+00 +7.690217E-01 +9.597182E-01    
 +6.098370E+00 +7.690217E-01 +9.597182E-01     +6.098370E+00 +7.690217E-01 +9.597182E-01     +6.098370E+00 +7.690217E-01 +9.597182E-01     +6.098370E+00 +7.690217E-01 +9.597182E-01     +3.680027E-01 +1.781810E+00 +2.174680E-02     +4.558015E-01 +1.537501E+00 +1.064860E+00     +4.558015E-01 +1.537501E+00 +1.064860E+00     +4.558015E-01 +1.537501E+00 +1.064860E+00     +4.558015E-01 +1.537501E+00 +1.064860E+00     +4.558015E-01 +1.537501E+00 +1.064860E+00     +4.558015E-01 +1.537501E+00 +1.064860E+00     +9.478342E-01 +1.460731E+00 +2.908085E-01     +9.478342E-01 +1.460731E+00 +2.908085E-01     +9.478342E-01 +1.460731E+00 +2.908085E-01     +9.478342E-01 +1.460731E+00 +2.908085E-01     +6.149331E+00 +1.068421E+00 +1.449381E+00     +6.149331E+00 +1.068421E+00 +1.449381E+00     +6.149331E+00 +1.068421E+00 +1.449381E+00     +6.149331E+00 +1.068421E+00 +1.449381E+00     +6.098370E+00 +7.690217E-01 +9.597182E-01     +6.098370E+00 +7.690217E-01 +9.597182E-01    
 +6.098370E+00 +7.690217E-01 +9.597182E-01     +1.085890E+00 +1.555420E+00 +7.832235E-01     +6.098370E+00 +7.690217E-01 +9.597182E-01     +6.098370E+00 +7.690217E-01 +9.597182E-01     +3.680027E-01 +1.781810E+00 +2.174680E-02     +3.680027E-01 +1.781810E+00 +2.174680E-02     +3.680027E-01 +1.781810E+00 +2.174680E-02     +3.680027E-01 +1.781810E+00 +2.174680E-02     +3.680027E-01 +1.781810E+00 +2.174680E-02     +3.680027E-01 +1.781810E+00 +2.174680E-02     +3.680027E-01 +1.781810E+00 +2.174680E-02     +9.478342E-01 +1.460731E+00 +2.908085E-01     +9.478342E-01 +1.460731E+00 +2.908085E-01     +9.478342E-01 +1.460731E+00 +2.908085E-01     +9.478342E-01 +1.460731E+00 +2.908085E-01     +9.478342E-01 +1.460731E+00 +2.908085E-01     +9.478342E-01 +1.460731E+00 +2.908085E-01     +3.433651E+00 +1.387669E+00 +4.191160E+00     +5.490879E+00 +1.331950E+00 +1.387240E+00     +5.490879E+00 +1.331950E+00 +1.387240E+00     +6.098370E+00 +7.690217E-01 +9.597182E-01    
 +6.098370E+00 +7.690217E-01 +9.597182E-01     +6.098370E+00 +7.690217E-01 +9.597182E-01     +6.098370E+00 +7.690217E-01 +9.597182E-01     +6.098370E+00 +7.690217E-01 +9.597182E-01     +3.680027E-01 +1.781810E+00 +2.174680E-02     +3.680027E-01 +1.781810E+00 +2.174680E-02     +3.680027E-01 +1.781810E+00 +2.174680E-02     +3.680027E-01 +1.781810E+00 +2.174680E-02     +3.680027E-01 +1.781810E+00 +2.174680E-02     +3.680027E-01 +1.781810E+00 +2.174680E-02     +3.680027E-01 +1.781810E+00 +2.174680E-02     +9.478342E-01 +1.460731E+00 +2.908085E-01     +9.478342E-01 +1.460731E+00 +2.908085E-01     +9.478342E-01 +1.460731E+00 +2.908085E-01     +9.478342E-01 +1.460731E+00 +2.908085E-01     +9.478342E-01 +1.460731E+00 +2.908085E-01     +3.433651E+00 +1.387669E+00 +4.191160E+00     +3.433651E+00 +1.387669E+00 +4.191160E+00     +5.490879E+00 +1.331950E+00 +1.387240E+00     +5.490879E+00 +1.331950E+00 +1.387240E+00     +5.490879E+00 +1.331950E+00 +1.387240E+00    
 +2.765171E+00 +1.135571E+00 +5.039141E+00     +6.098370E+00 +7.690217E-01 +9.597182E-01     +6.098370E+00 +7.690217E-01 +9.597182E-01     +8.284624E-01 +9.850813E-01 +5.831145E-02     +3.680027E-01 +1.781810E+00 +2.174680E-02     +3.680027E-01 +1.781810E+00 +2.174680E-02     +3.680027E-01 +1.781810E+00 +2.174680E-02     +3.680027E-01 +1.781810E+00 +2.174680E-02     +3.680027E-01 +1.781810E+00 +2.174680E-02     +3.680027E-01 +1.781810E+00 +2.174680E-02     +1.275359E+00 +2.170849E+00 +8.672960E-01     +1.275359E+00 +2.170849E+00 +8.672960E-01     +9.478342E-01 +1.460731E+00 +2.908085E-01     +9.478342E-01 +1.460731E+00 +2.908085E-01     +9.478342E-01 +1.460731E+00 +2.908085E-01     +3.433651E+00 +1.387669E+00 +4.191160E+00     +3.433651E+00 +1.387669E+00 +4.191160E+00     +3.433651E+00 +1.387669E+00 +4.191160E+00     +5.490879E+00 +1.331950E+00 +1.387240E+00     +5.490879E+00 +1.331950E+00 +1.387240E+00     +5.490879E+00 +1.331950E+00 +1.387240E+00    
 +2.765171E+00 +1.135571E+00 +5.039141E+00     +2.765171E+00 +1.135571E+00 +5.039141E+00     +8.284624E-01 +9.850813E-01 +5.831145E-02     +8.284624E-01 +9.850813E-01 +5.831145E-02     +8.284624E-01 +9.850813E-01 +5.831145E-02     +3.680027E-01 +1.781810E+00 +2.174680E-02     +3.680027E-01 +1.781810E+00 +2.174680E-02     +3.680027E-01 +1.781810E+00 +2.174680E-02     +3.680027E-01 +1.781810E+00 +2.174680E-02     +1.275359E+00 +2.170849E+00 +8.672960E-01     +1.275359E+00 +2.170849E+00 +8.672960E-01     +1.275359E+00 +2.170849E+00 +8.672960E-01     +1.275359E+00 +2.170849E+00 +8.672960E-01     +1.275359E+00 +2.170849E+00 +8.672960E-01     +1.275359E+00 +2.170849E+00 +8.672960E-01     +3.433651E+00 +1.387669E+00 +4.191160E+00     +3.433651E+00 +1.387669E+00 +4.191160E+00     +2.765171E+00 +1.135571E+00 +5.039141E+00     +2.765171E+00 +1.135571E+00 +5.039141E+00     +2.765171E+00 +1.135571E+00 +5.039141E+00     +2.765171E+00 +1.135571E+00 +5.039141E+00    
 +2.765171E+00 +1.135571E+00 +5.039141E+00     +4.812670E+00 +2.299791E+00 +4.509041E+00     +8.284624E-01 +9.850813E-01 +5.831145E-02     +8.284624E-01 +9.850813E-01 +5.831145E-02     +8.284624E-01 +9.850813E-01 +5.831145E-02     +8.284624E-01 +9.850813E-01 +5.831145E-02     +3.530731E-01 +1.680461E+00 +2.640961E+00     +8.182453E-02 +9.136572E-01 +3.673201E+00     +1.275359E+00 +2.170849E+00 +8.672960E-01     +1.275359E+00 +2.170849E+00 +8.672960E-01     +1.275359E+00 +2.170849E+00 +8.672960E-01     +1.275359E+00 +2.170849E+00 +8.672960E-01     +1.275359E+00 +2.170849E+00 +8.672960E-01     +1.275359E+00 +2.170849E+00 +8.672960E-01     +1.275359E+00 +2.170849E+00 +8.672960E-01     +3.230280E+00 +1.770179E+00 +4.852461E+00     +3.230280E+00 +1.770179E+00 +4.852461E+00     +3.230280E+00 +1.770179E+00 +4.852461E+00     +2.765171E+00 +1.135571E+00 +5.039141E+00     +2.765171E+00 +1.135571E+00 +5.039141E+00     +2.765171E+00 +1.135571E+00 +5.039141E+00    
 +4.812670E+00 +2.299791E+00 +4.509041E+00     +4.812670E+00 +2.299791E+00 +4.509041E+00     +4.812670E+00 +2.299791E+00 +4.509041E+00     +8.284624E-01 +9.850813E-01 +5.831145E-02     +8.284624E-01 +9.850813E-01 +5.831145E-02     +3.530731E-01 +1.680461E+00 +2.640961E+00     +3.530731E-01 +1.680461E+00 +2.640961E+00     +1.275359E+00 +2.170849E+00 +8.672960E-01     +1.275359E+00 +2.170849E+00 +8.672960E-01     +1.275359E+00 +2.170849E+00 +8.672960E-01     +1.275359E+00 +2.170849E+00 +8.672960E-01     +1.275359E+00 +2.170849E+00 +8.672960E-01     +1.275359E+00 +2.170849E+00 +8.672960E-01     +1.275359E+00 +2.170849E+00 +8.672960E-01     +1.275359E+00 +2.170849E+00 +8.672960E-01     +3.230280E+00 +1.770179E+00 +4.852461E+00     +3.230280E+00 +1.770179E+00 +4.852461E+00     +3.230280E+00 +1.770179E+00 +4.852461E+00     +3.230280E+00 +1.770179E+00 +4.852461E+00     +2.765171E+00 +1.135571E+00 +5.039141E+00     +2.765171E+00 +1.135571E+00 +5.039141E+00    
 +4.812670E+00 +2.299791E+00 +4.509041E+00     +6.725365E-01 +1.552629E+00 +5.500213E-01     +4.812670E+00 +2.299791E+00 +4.509041E+00     +4.812670E+00 +2.299791E+00 +4.509041E+00     +4.812670E+00 +2.299791E+00 +4.509041E+00     +8.433344E-01 +1.392911E+00 +3.825851E+00     +8.433344E-01 +1.392911E+00 +3.825851E+00     +1.275359E+00 +2.170849E+00 +8.672960E-01     +1.275359E+00 +2.170849E+00 +8.672960E-01     +1.275359E+00 +2.170849E+00 +8.672960E-01     +1.275359E+00 +2.170849E+00 +8.672960E-01     +1.275359E+00 +2.170849E+00 +8.672960E-01     +1.275359E+00 +2.170849E+00 +8.672960E-01     +1.275359E+00 +2.170849E+00 +8.672960E-01     +1.275359E+00 +2.170849E+00 +8.672960E-01     +3.230280E+00 +1.770179E+00 +4.852461E+00     +3.230280E+00 +1.770179E+00 +4.852461E+00     +3.230280E+00 +1.770179E+00 +4.852461E+00     +3.230280E+00 +1.770179E+00 +4.852461E+00     +3.230280E+00 +1.770179E+00 +4.852461E+00     +4.812670E+00 +2.299791E+00 +4.509041E+00    
 +4.812670E+00 +2.299791E+00 +4.509041E+00     +4.812670E+00 +2.299791E+00 +4.509041E+00     +4.812670E+00 +2.299791E+00 +4.509041E+00     +4.812670E+00 +2.299791E+00 +4.509041E+00     +4.812670E+00 +2.299791E+00 +4.509041E+00     +8.433344E-01 +1.392911E+00 +3.825851E+00     +8.433344E-01 +1.392911E+00 +3.825851E+00     +1.666920E+00 +2.348550E+00 +2.015970E+00     +1.666920E+00 +2.348550E+00 +2.015970E+00     +1.275359E+00 +2.170849E+00 +8.672960E-01     +1.275359E+00 +2.170849E+00 +8.672960E-01     +1.275359E+00 +2.170849E+00 +8.672960E-01     +1.275359E+00 +2.170849E+00 +8.672960E-01     +1.275359E+00 +2.170849E+00 +8.672960E-01     +1.275359E+00 +2.170849E+00 +8.672960E-01     +3.230280E+00 +1.770179E+00 +4.852461E+00     +3.230280E+00 +1.770179E+00 +4.852461E+00     +3.230280E+00 +1.770179E+00 +4.852461E+00     +3.230280E+00 +1.770179E+00 +4.852461E+00     +3.230280E+00 +1.770179E+00 +4.852461E+00     +4.812670E+00 +2.299791E+00 +4.509041E+00    
 +4.812670E+00 +2.299791E+00 +4.509041E+00     +4.812670E+00 +2.299791E+00 +4.509041E+00     +4.812670E+00 +2.299791E+00 +4.509041E+00     +4.812670E+00 +2.299791E+00 +4.509041E+00     +4.812670E+00 +2.299791E+00 +4.509041E+00     +1.666920E+00 +2.348550E+00 +2.015970E+00     +1.666920E+00 +2.348550E+00 +2.015970E+00     +1.666920E+00 +2.348550E+00 +2.015970E+00     +1.666920E+00 +2.348550E+00 +2.015970E+00     +1.666920E+00 +2.348550E+00 +2.015970E+00     +1.275359E+00 +2.170849E+00 +8.672960E-01     +1.275359E+00 +2.170849E+00 +8.672960E-01     +1.275359E+00 +2.170849E+00 +8.672960E-01     +1.275359E+00 +2.170849E+00 +8.672960E-01     +5.959910E+00 +1.790221E+00 +5.827860E+00     +5.959910E+00 +1.790221E+00 +5.827860E+00     +3.230280E+00 +1.770179E+00 +4.852461E+00     +3.230280E+00 +1.770179E+00 +4.852461E+00     +3.230280E+00 +1.770179E+00 +4.852461E+00     +3.230280E+00 +1.770179E+00 +4.852461E+00     +2.421060E+00 +1.825970E+00 +4.804870E+00    
 +4.305530E+00 +9.631216E-01 +1.169598E-01     +4.305530E+00 +9.631216E-01 +1.169598E-01     +4.305530E+00 +9.631216E-01 +1.169598E-01     +4.305530E+00 +9.631216E-01 +1.169598E-01     +4.549539E+00 +1.545980E+00 +3.262760E+00     +4.549539E+00 +1.545980E+00 +3.262760E+00     +4.549539E+00 +1.545980E+00 +3.262760E+00     +1.666920E+00 +2.348550E+00 +2.015970E+00     +1.666920E+00 +2.348550E+00 +2.015970E+00     +1.666920E+00 +2.348550E+00 +2.015970E+00     +1.666920E+00 +2.348550E+00 +2.015970E+00     +1.666920E+00 +2.348550E+00 +2.015970E+00     +1.275359E+00 +2.170849E+00 +8.672960E-01     +1.275359E+00 +2.170849E+00 +8.672960E-01     +5.959910E+00 +1.790221E+00 +5.827860E+00     +5.959910E+00 +1.790221E+00 +5.827860E+00     +5.959910E+00 +1.790221E+00 +5.827860E+00     +3.230280E+00 +1.770179E+00 +4.852461E+00     +2.070980E+00 +9.549901E-01 +5.551800E+00     +2.421060E+00 +1.825970E+00 +4.804870E+00     +2.421060E+00 +1.825970E+00 +4.804870E+00    
 +4.305530E+00 +9.631216E-01 +1.169598E-01     +4.305530E+00 +9.631216E-01 +1.169598E-01     +4.305530E+00 +9.631216E-01 +1.169598E-01     +4.549539E+00 +1.545980E+00 +3.262760E+00     +4.549539E+00 +1.545980E+00 +3.262760E+00     +4.549539E+00 +1.545980E+00 +3.262760E+00     +4.549539E+00 +1.545980E+00 +3.262760E+00     +5.848241E+00 +2.706412E-01 +1.179061E+00     +1.666920E+00 +2.348550E+00 +2.015970E+00     +1.666920E+00 +2.348550E+00 +2.015970E+00     +1.666920E+00 +2.348550E+00 +2.015970E+00     +1.666920E+00 +2.348550E+00 +2.015970E+00     +1.275359E+00 +2.170849E+00 +8.672960E-01     +2.143180E+00 +2.393351E+00 +5.831759E+00     +2.143180E+00 +2.393351E+00 +5.831759E+00     +5.959910E+00 +1.790221E+00 +5.827860E+00     +5.959910E+00 +1.790221E+00 +5.827860E+00     +2.070980E+00 +9.549901E-01 +5.551800E+00     +2.070980E+00 +9.549901E-01 +5.551800E+00     +2.421060E+00 +1.825970E+00 +4.804870E+00     +2.421060E+00 +1.825970E+00 +4.804870E+00    
 +5.381670E-01 +6.205536E-01 +1.011910E+00     +5.381670E-01 +6.205536E-01 +1.011910E+00     +5.381670E-01 +6.205536E-01 +1.011910E+00     +5.381670E-01 +6.205536E-01 +1.011910E+00     +4.549539E+00 +1.545980E+00 +3.262760E+00     +4.549539E+00 +1.545980E+00 +3.262760E+00     +4.549539E+00 +1.545980E+00 +3.262760E+00     +5.848241E+00 +2.706412E-01 +1.179061E+00     +5.848241E+00 +2.706412E-01 +1.179061E+00     +5.032650E+00 +1.049700E+00 +2.761570E+00     +3.483319E+00 +1.686590E+00 +5.091201E+00     +3.483319E+00 +1.686590E+00 +5.091201E+00     +3.483319E+00 +1.686590E+00 +5.091201E+00     +2.143180E+00 +2.393351E+00 +5.831759E+00     +2.143180E+00 +2.393351E+00 +5.831759E+00     +4.742130E+00 +1.957270E+00 +8.167478E-01     +4.742130E+00 +1.957270E+00 +8.167478E-01     +2.070980E+00 +9.549901E-01 +5.551800E+00     +2.070980E+00 +9.549901E-01 +5.551800E+00     +2.421060E+00 +1.825970E+00 +4.804870E+00     +2.421060E+00 +1.825970E+00 +4.804870E+00    
 +5.381670E-01 +6.205536E-01 +1.011910E+00     +5.381670E-01 +6.205536E-01 +1.011910E+00     +5.381670E-01 +6.205536E-01 +1.011910E+00     +5.381670E-01 +6.205536E-01 +1.011910E+00     +4.549539E+00 +1.545980E+00 +3.262760E+00     +4.549539E+00 +1.545980E+00 +3.262760E+00     +4.549539E+00 +1.545980E+00 +3.262760E+00     +5.848241E+00 +2.706412E-01 +1.179061E+00     +5.848241E+00 +2.706412E-01 +1.179061E+00     +5.032650E+00 +1.049700E+00 +2.761570E+00     +3.483319E+00 +1.686590E+00 +5.091201E+00     +3.483319E+00 +1.686590E+00 +5.091201E+00     +3.483319E+00 +1.686590E+00 +5.091201E+00     +3.483319E+00 +1.686590E+00 +5.091201E+00     +5.915940E+00 +1.370550E+00 +4.709919E+00     +4.742130E+00 +1.957270E+00 +8.167478E-01     +2.070980E+00 +9.549901E-01 +5.551800E+00     +2.070980E+00 +9.549901E-01 +5.551800E+00     +2.070980E+00 +9.549901E-01 +5.551800E+00     +2.421060E+00 +1.825970E+00 +4.804870E+00     +2.421060E+00 +1.825970E+00 +4.804870E+00    
 +5.381670E-01 +6.205536E-01 +1.011910E+00     +5.381670E-01 +6.205536E-01 +1.011910E+00     +5.381670E-01 +6.205536E-01 +1.011910E+00     +5.381670E-01 +6.205536E-01 +1.011910E+00     +2.906589E+00 +1.952840E+00 +5.279670E+00     +2.906589E+00 +1.952840E+00 +5.279670E+00     +7.410406E-01 +1.347391E+00 +6.309173E-01     +7.410406E-01 +1.347391E+00 +6.309173E-01     +7.410406E-01 +1.347391E+00 +6.309173E-01     +3.483319E+00 +1.686590E+00 +5.091201E+00     +3.483319E+00 +1.686590E+00 +5.091201E+00     +3.483319E+00 +1.686590E+00 +5.091201E+00     +3.483319E+00 +1.686590E+00 +5.091201E+00     +3.483319E+00 +1.686590E+00 +5.091201E+00     +5.915940E+00 +1.370550E+00 +4.709919E+00     +5.915940E+00 +1.370550E+00 +4.709919E+00     +2.070980E+00 +9.549901E-01 +5.551800E+00     +2.070980E+00 +9.549901E-01 +5.551800E+00     +2.070980E+00 +9.549901E-01 +5.551800E+00     +2.518821E+00 +1.471250E+00 +4.781989E+00     +2.099771E+00 +3.043278E-01 +5.190450E+00    
 +2.099771E+00 +3.043278E-01 +5.190450E+00     +5.381670E-01 +6.205536E-01 +1.011910E+00     +5.381670E-01 +6.205536E-01 +1.011910E+00     +2.906589E+00 +1.952840E+00 +5.279670E+00     +2.906589E+00 +1.952840E+00 +5.279670E+00     +2.906589E+00 +1.952840E+00 +5.279670E+00     +7.410406E-01 +1.347391E+00 +6.309173E-01     +7.410406E-01 +1.347391E+00 +6.309173E-01     +7.410406E-01 +1.347391E+00 +6.309173E-01     +3.483319E+00 +1.686590E+00 +5.091201E+00     +3.483319E+00 +1.686590E+00 +5.091201E+00     +3.483319E+00 +1.686590E+00 +5.091201E+00     +3.483319E+00 +1.686590E+00 +5.091201E+00     +3.483319E+00 +1.686590E+00 +5.091201E+00     +5.915940E+00 +1.370550E+00 +4.709919E+00     +5.915940E+00 +1.370550E+00 +4.709919E+00     +2.070980E+00 +9.549901E-01 +5.551800E+00     +2.070980E+00 +9.549901E-01 +5.551800E+00     +2.099771E+00 +3.043278E-01 +5.190450E+00     +2.099771E+00 +3.043278E-01 +5.190450E+00     +2.099771E+00 +3.043278E-01 +5.190450E+00    
 +2.099771E+00 +3.043278E-01 +5.190450E+00     +2.099771E+00 +3.043278E-01 +5.190450E+00     +2.099771E+00 +3.043278E-01 +5.190450E+00     +2.906589E+00 +1.952840E+00 +5.279670E+00     +2.906589E+00 +1.952840E+00 +5.279670E+00     +2.906589E+00 +1.952840E+00 +5.279670E+00     +7.410406E-01 +1.347391E+00 +6.309173E-01     +7.410406E-01 +1.347391E+00 +6.309173E-01     +7.410406E-01 +1.347391E+00 +6.309173E-01     +3.233345E-01 +1.087000E+00 +4.007190E+00     +3.483319E+00 +1.686590E+00 +5.091201E+00     +3.483319E+00 +1.686590E+00 +5.091201E+00     +3.483319E+00 +1.686590E+00 +5.091201E+00     +6.149331E+00 +1.068421E+00 +1.449381E+00     +6.149331E+00 +1.068421E+00 +1.449381E+00     +6.149331E+00 +1.068421E+00 +1.449381E+00     +6.149331E+00 +1.068421E+00 +1.449381E+00     +2.099771E+00 +3.043278E-01 +5.190450E+00     +2.099771E+00 +3.043278E-01 +5.190450E+00     +2.099771E+00 +3.043278E-01 +5.190450E+00     +2.099771E+00 +3.043278E-01 +5.190450E+00    
 +2.099771E+00 +3.043278E-01 +5.190450E+00     +2.099771E+00 +3.043278E-01 +5.190450E+00     +2.099771E+00 +3.043278E-01 +5.190450E+00     +2.906589E+00 +1.952840E+00 +5.279670E+00     +2.906589E+00 +1.952840E+00 +5.279670E+00     +2.906589E+00 +1.952840E+00 +5.279670E+00     +7.410406E-01 +1.347391E+00 +6.309173E-01     +7.410406E-01 +1.347391E+00 +6.309173E-01     +5.254021E+00 +2.600570E+00 +4.963440E+00     +5.254021E+00 +2.600570E+00 +4.963440E+00     +5.254021E+00 +2.600570E+00 +4.963440E+00     +5.254021E+00 +2.600570E+00 +4.963440E+00     +3.483319E+00 +1.686590E+00 +5.091201E+00     +6.149331E+00 +1.068421E+00 +1.449381E+00     +6.149331E+00 +1.068421E+00 +1.449381E+00     +6.149331E+00 +1.068421E+00 +1.449381E+00     +6.149331E+00 +1.068421E+00 +1.449381E+00     +2.099771E+00 +3.043278E-01 +5.190450E+00     +2.099771E+00 +3.043278E-01 +5.190450E+00     +2.099771E+00 +3.043278E-01 +5.190450E+00     +2.099771E+00 +3.043278E-01 +5.190450E+00    
 +2.099771E+00 +3.043278E-01 +5.190450E+00     +2.099771E+00 +3.043278E-01 +5.190450E+00     +8.389483E-01 +7.921194E-01 +1.657923E-01     +8.389483E-01 +7.921194E-01 +1.657923E-01     +4.350031E+00 +2.797740E+00 +6.246621E+00     +4.350031E+00 +2.797740E+00 +6.246621E+00     +4.350031E+00 +2.797740E+00 +6.246621E+00     +4.558015E-01 +1.537501E+00 +1.064860E+00     +5.254021E+00 +2.600570E+00 +4.963440E+00     +5.254021E+00 +2.600570E+00 +4.963440E+00     +5.254021E+00 +2.600570E+00 +4.963440E+00     +2.488949E+00 +9.638284E-01 +4.558980E+00     +2.488949E+00 +9.638284E-01 +4.558980E+00     +6.149331E+00 +1.068421E+00 +1.449381E+00     +6.149331E+00 +1.068421E+00 +1.449381E+00     +6.149331E+00 +1.068421E+00 +1.449381E+00     +6.149331E+00 +1.068421E+00 +1.449381E+00     +6.149331E+00 +1.068421E+00 +1.449381E+00     +2.099771E+00 +3.043278E-01 +5.190450E+00     +2.099771E+00 +3.043278E-01 +5.190450E+00     +2.099771E+00 +3.043278E-01 +5.190450E+00    
 +6.098370E+00 +7.690217E-01 +9.597182E-01     +6.098370E+00 +7.690217E-01 +9.597182E-01     +6.098370E+00 +7.690217E-01 +9.597182E-01     +8.389483E-01 +7.921194E-01 +1.657923E-01     +4.350031E+00 +2.797740E+00 +6.246621E+00     +4.350031E+00 +2.797740E+00 +6.246621E+00     +4.558015E-01 +1.537501E+00 +1.064860E+00     +4.558015E-01 +1.537501E+00 +1.064860E+00     +5.254021E+00 +2.600570E+00 +4.963440E+00     +5.254021E+00 +2.600570E+00 +4.963440E+00     +5.254021E+00 +2.600570E+00 +4.963440E+00     +2.488949E+00 +9.638284E-01 +4.558980E+00     +2.488949E+00 +9.638284E-01 +4.558980E+00     +6.149331E+00 +1.068421E+00 +1.449381E+00     +6.149331E+00 +1.068421E+00 +1.449381E+00     +6.149331E+00 +1.068421E+00 +1.449381E+00     +6.149331E+00 +1.068421E+00 +1.449381E+00     +6.149331E+00 +1.068421E+00 +1.449381E+00     +2.099771E+00 +3.043278E-01 +5.190450E+00     +2.099771E+00 +3.043278E-01 +5.190450E+00     +2.099771E+00 +3.043278E-01 +5.190450E+00    
 +6.098370E+00 +7.690217E-01 +9.597182E-01     +6.098370E+00 +7.690217E-01 +9.597182E-01     +6.098370E+00 +7.690217E-01 +9.597182E-01     +6.098370E+00 +7.690217E-01 +9.597182E-01     +4.350031E+00 +2.797740E+00 +6.246621E+00     +4.558015E-01 +1.537501E+00 +1.064860E+00     +4.558015E-01 +1.537501E+00 +1.064860E+00     +4.558015E-01 +1.537501E+00 +1.064860E+00     +4.558015E-01 +1.537501E+00 +1.064860E+00     +5.254021E+00 +2.600570E+00 +4.963440E+00     +5.254021E+00 +2.600570E+00 +4.963440E+00     +2.488949E+00 +9.638284E-01 +4.558980E+00     +2.488949E+00 +9.638284E-01 +4.558980E+00     +6.149331E+00 +1.068421E+00 +1.449381E+00     +6.149331E+00 +1.068421E+00 +1.449381E+00     +6.149331E+00 +1.068421E+00 +1.449381E+00     +6.149331E+00 +1.068421E+00 +1.449381E+00     +6.149331E+00 +1.068421E+00 +1.449381E+00     +6.149331E+00 +1.068421E+00 +1.449381E+00     +6.098370E+00 +7.690217E-01 +9.597182E-01     +6.098370E+00 +7.690217E-01 +9.597182E-01    
 +6.098370E+00 +7.690217E-01 +9.597182E-01     +6.098370E+00 +7.690217E-01 +9.597182E-01     +6.098370E+00 +7.690217E-01 +9.597182E-01     +6.098370E+00 +7.690217E-01 +9.597182E-01     +6.098370E+00 +7.690217E-01 +9.597182E-01     +4.558015E-01 +1.537501E+00 +1.064860E+00     +4.558015E-01 +1.537501E+00 +1.064860E+00     +2.630241E+00 +1.160670E+00 +4.955601E+00     +2.630241E+00 +1.160670E+00 +4.955601E+00     +2.630241E+00 +1.160670E+00 +4.955601E+00     +5.254021E+00 +2.600570E+00 +4.963440E+00     +9.478342E-01 +1.460731E+00 +2.908085E-01     +9.478342E-01 +1.460731E+00 +2.908085E-01     +9.478342E-01 +1.460731E+00 +2.908085E-01     +9.478342E-01 +1.460731E+00 +2.908085E-01     +6.149331E+00 +1.068421E+00 +1.449381E+00     +6.149331E+00 +1.068421E+00 +1.449381E+00     +6.149331E+00 +1.068421E+00 +1.449381E+00     +6.098370E+00 +7.690217E-01 +9.597182E-01     +6.098370E+00 +7.690217E-01 +9.597182E-01     +6.098370E+00 +7.690217E-01 +9.597182E-01    
 +6.098370E+00 +7.690217E-01 +9.597182E-01     +6.098370E+00 +7.690217E-01 +9.597182E-01     +6.098370E+00 +7.690217E-01 +9.597182E-01     +6.098370E+00 +7.690217E-01 +9.597182E-01     +6.098370E+00 +7.690217E-01 +9.597182E-01     +2.630241E+00 +1.160670E+00 +4.955601E+00     +2.630241E+00 +1.160670E+00 +4.955601E+00     +2.630241E+00 +1.160670E+00 +4.955601E+00     +2.630241E+00 +1.160670E+00 +4.955601E+00     +2.630241E+00 +1.160670E+00 +4.955601E+00     +2.630241E+00 +1.160670E+00 +4.955601E+00     +9.478342E-01 +1.460731E+00 +2.908085E-01     +9.478342E-01 +1.460731E+00 +2.908085E-01     +9.478342E-01 +1.460731E+00 +2.908085E-01     +9.478342E-01 +1.460731E+00 +2.908085E-01     +9.478342E-01 +1.460731E+00 +2.908085E-01     +9.478342E-01 +1.460731E+00 +2.908085E-01     +3.433651E+00 +1.387669E+00 +4.191160E+00     +5.490879E+00 +1.331950E+00 +1.387240E+00     +6.098370E+00 +7.690217E-01 +9.597182E-01     +6.098370E+00 +7.690217E-01 +9.597182E-01    
 +1.306745E-01 +1.489879E+00 +4.005723E-01     +1.306745E-01 +1.489879E+00 +4.005723E-01     +6.098370E+00 +7.690217E-01 +9.597182E-01     +6.098370E+00 +7.690217E-01 +9.597182E-01     +2.630241E+00 +1.160670E+00 +4.955601E+00     +2.630241E+00 +1.160670E+00 +4.955601E+00     +2.630241E+00 +1.160670E+00 +4.955601E+00     +2.630241E+00 +1.160670E+00 +4.955601E+00     +2.630241E+00 +1.160670E+00 +4.955601E+00     +2.630241E+00 +1.160670E+00 +4.955601E+00     +2.630241E+00 +1.160670E+00 +4.955601E+00     +9.478342E-01 +1.460731E+00 +2.908085E-01     +9.478342E-01 +1.460731E+00 +2.908085E-01     +9.478342E-01 +1.460731E+00 +2.908085E-01     +9.478342E-01 +1.460731E+00 +2.908085E-01     +9.478342E-01 +1.460731E+00 +2.908085E-01     +3.433651E+00 +1.387669E+00 +4.191160E+00     +3.433651E+00 +1.387669E+00 +4.191160E+00     +5.490879E+00 +1.331950E+00 +1.387240E+00     +5.490879E+00 +1.331950E+00 +1.387240E+00     +5.490879E+00 +1.331950E+00 +1.387240E+00    
 +1.306745E-01 +1.489879E+00 +4.005723E-01     +1.306745E-01 +1.489879E+00 +4.005723E-01     +1.306745E-01 +1.489879E+00 +4.005723E-01     +8.284624E-01 +9.850813E-01 +5.831145E-02     +8.284624E-01 +9.850813E-01 +5.831145E-02     +2.630241E+00 +1.160670E+00 +4.955601E+00     +2.630241E+00 +1.160670E+00 +4.955601E+00     +2.630241E+00 +1.160670E+00 +4.955601E+00     +2.630241E+00 +1.160670E+00 +4.955601E+00     +2.630241E+00 +1.160670E+00 +4.955601E+00     +1.275359E+00 +2.170849E+00 +8.672960E-01     +1.275359E+00 +2.170849E+00 +8.672960E-01     +1.275359E+00 +2.170849E+00 +8.672960E-01     +9.478342E-01 +1.460731E+00 +2.908085E-01     +5.858500E+00 +2.491110E+00 +6.200010E+00     +3.433651E+00 +1.387669E+00 +4.191160E+00     +3.433651E+00 +1.387669E+00 +4.191160E+00     +3.433651E+00 +1.387669E+00 +4.191160E+00     +5.490879E+00 +1.331950E+00 +1.387240E+00     +5.490879E+00 +1.331950E+00 +1.387240E+00     +5.490879E+00 +1.331950E+00 +1.387240E+00    
 +1.306745E-01 +1.489879E+00 +4.005723E-01     +1.306745E-01 +1.489879E+00 +4.005723E-01     +8.284624E-01 +9.850813E-01 +5.831145E-02     +8.284624E-01 +9.850813E-01 +5.831145E-02     +8.284624E-01 +9.850813E-01 +5.831145E-02     +3.530731E-01 +1.680461E+00 +2.640961E+00     +3.530731E-01 +1.680461E+00 +2.640961E+00     +8.182453E-02 +9.136572E-01 +3.673201E+00     +2.630241E+00 +1.160670E+00 +4.955601E+00     +1.275359E+00 +2.170849E+00 +8.672960E-01     +1.275359E+00 +2.170849E+00 +8.672960E-01     +1.275359E+00 +2.170849E+00 +8.672960E-01     +1.275359E+00 +2.170849E+00 +8.672960E-01     +1.275359E+00 +2.170849E+00 +8.672960E-01     +1.275359E+00 +2.170849E+00 +8.672960E-01     +1.275359E+00 +2.170849E+00 +8.672960E-01     +3.433651E+00 +1.387669E+00 +4.191160E+00     +2.765171E+00 +1.135571E+00 +5.039141E+00     +2.765171E+00 +1.135571E+00 +5.039141E+00     +2.765171E+00 +1.135571E+00 +5.039141E+00     +2.765171E+00 +1.135571E+00 +5.039141E+00    
 +2.765171E+00 +1.135571E+00 +5.039141E+00     +8.284624E-01 +9.850813E-01 +5.831145E-02     +8.284624E-01 +9.850813E-01 +5.831145E-02     +8.284624E-01 +9.850813E-01 +5.831145E-02     +8.284624E-01 +9.850813E-01 +5.831145E-02     +3.530731E-01 +1.680461E+00 +2.640961E+00     +3.530731E-01 +1.680461E+00 +2.640961E+00     +8.182453E-02 +9.136572E-01 +3.673201E+00     +8.182453E-02 +9.136572E-01 +3.673201E+00     +1.275359E+00 +2.170849E+00 +8.672960E-01     +1.275359E+00 +2.170849E+00 +8.672960E-01     +1.275359E+00 +2.170849E+00 +8.672960E-01     +1.275359E+00 +2.170849E+00 +8.672960E-01     +1.275359E+00 +2.170849E+00 +8.672960E-01     +1.275359E+00 +2.170849E+00 +8.672960E-01     +1.275359E+00 +2.170849E+00 +8.672960E-01     +3.230280E+00 +1.770179E+00 +4.852461E+00     +3.230280E+00 +1.770179E+00 +4.852461E+00     +2.765171E+00 +1.135571E+00 +5.039141E+00     +2.765171E+00 +1.135571E+00 +5.039141E+00     +2.765171E+00 +1.135571E+00 +5.039141E+00    
 +6.725365E-01 +1.552629E+00 +5.500213E-01     +6.725365E-01 +1.552629E+00 +5.500213E-01     +8.284624E-01 +9.850813E-01 +5.831145E-02     +8.284624E-01 +9.850813E-01 +5.831145E-02     +8.284624E-01 +9.850813E-01 +5.831145E-02     +3.530731E-01 +1.680461E+00 +2.640961E+00     +3.530731E-01 +1.680461E+00 +2.640961E+00     +8.182453E-02 +9.136572E-01 +3.673201E+00     +1.275359E+00 +2.170849E+00 +8.672960E-01     +1.275359E+00 +2.170849E+00 +8.672960E-01     +1.275359E+00 +2.170849E+00 +8.672960E-01     +1.275359E+00 +2.170849E+00 +8.672960E-01     +1.275359E+00 +2.170849E+00 +8.672960E-01     +1.275359E+00 +2.170849E+00 +8.672960E-01     +1.275359E+00 +2.170849E+00 +8.672960E-01     +3.230280E+00 +1.770179E+00 +4.852461E+00     +3.230280E+00 +1.770179E+00 +4.852461E+00     +3.230280E+00 +1.770179E+00 +4.852461E+00     +3.230280E+00 +1.770179E+00 +4.852461E+00     +2.765171E+00 +1.135571E+00 +5.039141E+00     +2.765171E+00 +1.135571E+00 +5.039141E+00    
 +6.725365E-01 +1.552629E+00 +5.500213E-01     +6.725365E-01 +1.552629E+00 +5.500213E-01     +4.812670E+00 +2.299791E+00 +4.509041E+00     +4.812670E+00 +2.299791E+00 +4.509041E+00     +8.433344E-01 +1.392911E+00 +3.825851E+00     +8.433344E-01 +1.392911E+00 +3.825851E+00     +8.433344E-01 +1.392911E+00 +3.825851E+00     +8.182453E-02 +9.136572E-01 +3.673201E+00     +1.275359E+00 +2.170849E+00 +8.672960E-01     +1.275359E+00 +2.170849E+00 +8.672960E-01     +1.275359E+00 +2.170849E+00 +8.672960E-01     +1.275359E+00 +2.170849E+00 +8.672960E-01     +1.275359E+00 +2.170849E+00 +8.672960E-01     +1.275359E+00 +2.170849E+00 +8.672960E-01     +1.275359E+00 +2.170849E+00 +8.672960E-01     +3.230280E+00 +1.770179E+00 +4.852461E+00     +3.230280E+00 +1.770179E+00 +4.852461E+00     +3.230280E+00 +1.770179E+00 +4.852461E+00     +3.230280E+00 +1.770179E+00 +4.852461E+00     +2.765171E+00 +1.135571E+00 +5.039141E+00     +2.765171E+00 +1.135571E+00 +5.039141E+00    
 +4.812670E+00 +2.299791E+00 +4.509041E+00     +4.812670E+00 +2.299791E+00 +4.509041E+00     +4.812670E+00 +2.299791E+00 +4.509041E+00     +4.812670E+00 +2.299791E+00 +4.509041E+00     +8.433344E-01 +1.392911E+00 +3.825851E+00     +8.433344E-01 +1.392911E+00 +3.825851E+00     +8.433344E-01 +1.392911E+00 +3.825851E+00     +8.433344E-01 +1.392911E+00 +3.825851E+00     +1.275359E+00 +2.170849E+00 +8.672960E-01     +1.275359E+00 +2.170849E+00 +8.672960E-01     +1.275359E+00 +2.170849E+00 +8.672960E-01     +1.275359E+00 +2.170849E+00 +8.672960E-01     +1.275359E+00 +2.170849E+00 +8.672960E-01     +1.275359E+00 +2.170849E+00 +8.672960E-01     +1.275359E+00 +2.170849E+00 +8.672960E-01     +3.230280E+00 +1.770179E+00 +4.852461E+00     +3.230280E+00 +1.770179E+00 +4.852461E+00     +3.230280E+00 +1.770179E+00 +4.852461E+00     +3.230280E+00 +1.770179E+00 +4.852461E+00     +3.230280E+00 +1.770179E+00 +4.852461E+00     +4.812670E+00 +2.299791E+00 +4.509041E+00    
 +4.812670E+00 +2.299791E+00 +4.509041E+00     +4.812670E+00 +2.299791E+00 +4.509041E+00     +4.812670E+00 +2.299791E+00 +4.509041E+00     +4.812670E+00 +2.299791E+00 +4.509041E+00     +4.812670E+00 +2.299791E+00 +4.509041E+00     +4.549539E+00 +1.545980E+00 +3.262760E+00     +4.549539E+00 +1.545980E+00 +3.262760E+00     +1.666920E+00 +2.348550E+00 +2.015970E+00     +1.666920E+00 +2.348550E+00 +2.015970E+00     +1.666920E+00 +2.348550E+00 +2.015970E+00     +1.275359E+00 +2.170849E+00 +8.672960E-01     +1.275359E+00 +2.170849E+00 +8.672960E-01     +1.275359E+00 +2.170849E+00 +8.672960E-01     +1.275359E+00 +2.170849E+00 +8.672960E-01     +5.959910E+00 +1.790221E+00 +5.827860E+00     +5.959910E+00 +1.790221E+00 +5.827860E+00     +5.959910E+00 +1.790221E+00 +5.827860E+00     +3.230280E+00 +1.770179E+00 +4.852461E+00     +3.230280E+00 +1.770179E+00 +4.852461E+00     +2.421060E+00 +1.825970E+00 +4.804870E+00     +2.421060E+00 +1.825970E+00 +4.804870E+00    
 +4.305530E+00 +9.631216E-01 +1.169598E-01     +4.305530E+00 +9.631216E-01 +1.169598E-01     +4.305530E+00 +9.631216E-01 +1.169598E-01     +4.305530E+00 +9.631216E-01 +1.169598E-01     +4.549539E+00 +1.545980E+00 +3.262760E+00     +4.549539E+00 +1.545980E+00 +3.262760E+00     +4.549539E+00 +1.545980E+00 +3.262760E+00     +5.813969E+00 +4.335014E-01 +4.874060E+00     +1.666920E+00 +2.348550E+00 +2.015970E+00     +1.666920E+00 +2.348550E+00 +2.015970E+00     +1.666920E+00 +2.348550E+00 +2.015970E+00     +1.275359E+00 +2.170849E+00 +8.672960E-01     +1.275359E+00 +2.170849E+00 +8.672960E-01     +1.275359E+00 +2.170849E+00 +8.672960E-01     +5.959910E+00 +1.790221E+00 +5.827860E+00     +5.959910E+00 +1.790221E+00 +5.827860E+00     +5.959910E+00 +1.790221E+00 +5.827860E+00     +5.959910E+00 +1.790221E+00 +5.827860E+00     +2.421060E+00 +1.825970E+00 +4.804870E+00     +2.421060E+00 +1.825970E+00 +4.804870E+00     +2.421060E+00 +1.825970E+00 +4.804870E+00    
 +5.381670E-01 +6.205536E-01 +1.011910E+00     +4.305530E+00 +9.631216E-01 +1.169598E-01     +5.381670E-01 +6.205536E-01 +1.011910E+00     +4.549539E+00 +1.545980E+00 +3.262760E+00     +4.549539E+00 +1.545980E+00 +3.262760E+00     +4.549539E+00 +1.545980E+00 +3.262760E+00     +4.549539E+00 +1.545980E+00 +3.262760E+00     +5.848241E+00 +2.706412E-01 +1.179061E+00     +5.848241E+00 +2.706412E-01 +1.179061E+00     +1.666920E+00 +2.348550E+00 +2.015970E+00     +1.666920E+00 +2.348550E+00 +2.015970E+00     +1.666920E+00 +2.348550E+00 +2.015970E+00     +1.275359E+00 +2.170849E+00 +8.672960E-01     +2.143180E+00 +2.393351E+00 +5.831759E+00     +2.143180E+00 +2.393351E+00 +5.831759E+00     +5.959910E+00 +1.790221E+00 +5.827860E+00     +5.959910E+00 +1.790221E+00 +5.827860E+00     +2.070980E+00 +9.549901E-01 +5.551800E+00     +2.421060E+00 +1.825970E+00 +4.804870E+00     +2.421060E+00 +1.825970E+00 +4.804870E+00     +2.421060E+00 +1.825970E+00 +4.804870E+00    
 +5.381670E-01 +6.205536E-01 +1.011910E+00     +5.381670E-01 +6.205536E-01 +1.011910E+00     +5.381670E-01 +6.205536E-01 +1.011910E+00     +5.381670E-01 +6.205536E-01 +1.011910E+00     +4.549539E+00 +1.545980E+00 +3.262760E+00     +4.549539E+00 +1.545980E+00 +3.262760E+00     +4.549539E+00 +1.545980E+00 +3.262760E+00     +5.848241E+00 +2.706412E-01 +1.179061E+00     +5.848241E+00 +2.706412E-01 +1.179061E+00     +5.848241E+00 +2.706412E-01 +1.179061E+00     +3.483319E+00 +1.686590E+00 +5.091201E+00     +3.483319E+00 +1.686590E+00 +5.091201E+00     +3.483319E+00 +1.686590E+00 +5.091201E+00     +2.143180E+00 +2.393351E+00 +5.831759E+00     +2.143180E+00 +2.393351E+00 +5.831759E+00     +4.742130E+00 +1.957270E+00 +8.167478E-01     +2.070980E+00 +9.549901E-01 +5.551800E+00     +2.070980E+00 +9.549901E-01 +5.551800E+00     +2.070980E+00 +9.549901E-01 +5.551800E+00     +2.421060E+00 +1.825970E+00 +4.804870E+00     +2.421060E+00 +1.825970E+00 +4.804870E+00    
 +5.381670E-01 +6.205536E-01 +1.011910E+00     +5.381670E-01 +6.205536E-01 +1.011910E+00     +5.381670E-01 +6.205536E-01 +1.011910E+00     +5.381670E-01 +6.205536E-01 +1.011910E+00     +4.549539E+00 +1.545980E+00 +3.262760E+00     +4.549539E+00 +1.545980E+00 +3.262760E+00     +4.549539E+00 +1.545980E+00 +3.262760E+00     +5.848241E+00 +2.706412E-01 +1.179061E+00     +5.848241E+00 +2.706412E-01 +1.179061E+00     +5.848241E+00 +2.706412E-01 +1.179061E+00     +3.483319E+00 +1.686590E+00 +5.091201E+00     +3.483319E+00 +1.686590E+00 +5.091201E+00     +3.483319E+00 +1.686590E+00 +5.091201E+00     +3.483319E+00 +1.686590E+00 +5.091201E+00     +4.957660E-01 +1.701850E+00 +2.498352E-01     +4.742130E+00 +1.957270E+00 +8.167478E-01     +2.070980E+00 +9.549901E-01 +5.551800E+00     +2.070980E+00 +9.549901E-01 +5.551800E+00     +2.070980E+00 +9.549901E-01 +5.551800E+00     +2.421060E+00 +1.825970E+00 +4.804870E+00     +2.421060E+00 +1.825970E+00 +4.804870E+00    
 +5.381670E-01 +6.205536E-01 +1.011910E+00     +4.882719E+00 +1.721999E+00 +4.721451E+00     +5.381670E-01 +6.205536E-01 +1.011910E+00     +2.906589E+00 +1.952840E+00 +5.279670E+00     +2.906589E+00 +1.952840E+00 +5.279670E+00     +2.906589E+00 +1.952840E+00 +5.279670E+00     +7.410406E-01 +1.347391E+00 +6.309173E-01     +7.410406E-01 +1.347391E+00 +6.309173E-01     +7.410406E-01 +1.347391E+00 +6.309173E-01     +3.483319E+00 +1.686590E+00 +5.091201E+00     +3.483319E+00 +1.686590E+00 +5.091201E+00     +3.483319E+00 +1.686590E+00 +5.091201E+00     +3.483319E+00 +1.686590E+00 +5.091201E+00     +3.483319E+00 +1.686590E+00 +5.091201E+00     +4.957660E-01 +1.701850E+00 +2.498352E-01     +2.070980E+00 +9.549901E-01 +5.551800E+00     +2.070980E+00 +9.549901E-01 +5.551800E+00     +2.070980E+00 +9.549901E-01 +5.551800E+00     +2.070980E+00 +9.549901E-01 +5.551800E+00     +2.070980E+00 +9.549901E-01 +5.551800E+00     +2.099771E+00 +3.043278E-01 +5.190450E+00    
 +5.381670E-01 +6.205536E-01 +1.011910E+00     +5.381670E-01 +6.205536E-01 +1.011910E+00     +5.381670E-01 +6.205536E-01 +1.011910E+00     +2.906589E+00 +1.952840E+00 +5.279670E+00     +2.906589E+00 +1.952840E+00 +5.279670E+00     +2.906589E+00 +1.952840E+00 +5.279670E+00     +7.410406E-01 +1.347391E+00 +6.309173E-01     +7.410406E-01 +1.347391E+00 +6.309173E-01     +7.410406E-01 +1.347391E+00 +6.309173E-01     +3.233345E-01 +1.087000E+00 +4.007190E+00     +3.483319E+00 +1.686590E+00 +5.091201E+00     +3.483319E+00 +1.686590E+00 +5.091201E+00     +3.483319E+00 +1.686590E+00 +5.091201E+00     +3.483319E+00 +1.686590E+00 +5.091201E+00     +6.149331E+00 +1.068421E+00 +1.449381E+00     +2.070980E+00 +9.549901E-01 +5.551800E+00     +2.070980E+00 +9.549901E-01 +5.551800E+00     +2.070980E+00 +9.549901E-01 +5.551800E+00     +2.070980E+00 +9.549901E-01 +5.551800E+00     +2.099771E+00 +3.043278E-01 +5.190450E+00     +2.099771E+00 +3.043278E-01 +5.190450E+00    
 +2.099771E+00 +3.043278E-01 +5.190450E+00     +2.099771E+00 +3.043278E-01 +5.190450E+00     +5.381670E-01 +6.205536E-01 +1.011910E+00     +2.906589E+00 +1.952840E+00 +5.279670E+00     +2.906589E+00 +1.952840E+00 +5.279670E+00     +2.906589E+00 +1.952840E+00 +5.279670E+00     +7.410406E-01 +1.347391E+00 +6.309173E-01     +7.410406E-01 +1.347391E+00 +6.309173E-01     +7.410406E-01 +1.347391E+00 +6.309173E-01     +3.233345E-01 +1.087000E+00 +4.007190E+00     +3.233345E-01 +1.087000E+00 +4.007190E+00     +3.483319E+00 +1.686590E+00 +5.091201E+00     +3.483319E+00 +1.686590E+00 +5.091201E+00     +6.149331E+00 +1.068421E+00 +1.449381E+00     +6.149331E+00 +1.068421E+00 +1.449381E+00     +6.149331E+00 +1.068421E+00 +1.449381E+00     +6.149331E+00 +1.068421E+00 +1.449381E+00     +2.070980E+00 +9.549901E-01 +5.551800E+00     +2.099771E+00 +3.043278E-01 +5.190450E+00     +2.099771E+00 +3.043278E-01 +5.190450E+00     +2.099771E+00 +3.043278E-01 +5.190450E+00    
 +2.099771E+00 +3.043278E-01 +5.190450E+00     +2.099771E+00 +3.043278E-01 +5.190450E+00     +2.906589E+00 +1.952840E+00 +5.279670E+00     +2.906589E+00 +1.952840E+00 +5.279670E+00     +2.906589E+00 +1.952840E+00 +5.279670E+00     +2.906589E+00 +1.952840E+00 +5.279670E+00     +2.906589E+00 +1.952840E+00 +5.279670E+00     +7.410406E-01 +1.347391E+00 +6.309173E-01     +7.410406E-01 +1.347391E+00 +6.309173E-01     +5.254021E+00 +2.600570E+00 +4.963440E+00     +5.254021E+00 +2.600570E+00 +4.963440E+00     +5.254021E+00 +2.600570E+00 +4.963440E+00     +5.254021E+00 +2.600570E+00 +4.963440E+00     +6.149331E+00 +1.068421E+00 +1.449381E+00     +6.149331E+00 +1.068421E+00 +1.449381E+00     +6.149331E+00 +1.068421E+00 +1.449381E+00     +6.149331E+00 +1.068421E+00 +1.449381E+00     +2.099771E+00 +3.043278E-01 +5.190450E+00     +2.099771E+00 +3.043278E-01 +5.190450E+00     +2.099771E+00 +3.043278E-01 +5.190450E+00     +2.099771E+00 +3.043278E-01 +5.190450E+00    
 +2.099771E+00 +3.043278E-01 +5.190450E+00     +6.098370E+00 +7.690217E-01 +9.597182E-01     +4.350031E+00 +2.797740E+00 +6.246621E+00     +4.350031E+00 +2.797740E+00 +6.246621E+00     +4.350031E+00 +2.797740E+00 +6.246621E+00     +4.350031E+00 +2.797740E+00 +6.246621E+00     +4.350031E+00 +2.797740E+00 +6.246621E+00     +5.254021E+00 +2.600570E+00 +4.963440E+00     +5.254021E+00 +2.600570E+00 +4.963440E+00     +5.254021E+00 +2.600570E+00 +4.963440E+00     +5.254021E+00 +2.600570E+00 +4.963440E+00     +5.254021E+00 +2.600570E+00 +4.963440E+00     +5.254021E+00 +2.600570E+00 +4.963440E+00     +3.183899E+00 +1.106230E+00 +6.516117E-01     +6.149331E+00 +1.068421E+00 +1.449381E+00     +6.149331E+00 +1.068421E+00 +1.449381E+00     +6.149331E+00 +1.068421E+00 +1.449381E+00     +6.149331E+00 +1.068421E+00 +1.449381E+00     +2.099771E+00 +3.043278E-01 +5.190450E+00     +2.099771E+00 +3.043278E-01 +5.190450E+00     +2.099771E+00 +3.043278E-01 +5.190450E+00    
 +6.098370E+00 +7.690217E-01 +9.597182E-01     +6.098370E+00 +7.690217E-01 +9.597182E-01     +6.098370E+00 +7.690217E-01 +9.597182E-01     +4.350031E+00 +2.797740E+00 +6.246621E+00     +4.350031E+00 +2.797740E+00 +6.246621E+00     +4.350031E+00 +2.797740E+00 +6.246621E+00     +4.350031E+00 +2.797740E+00 +6.246621E+00     +4.558015E-01 +1.537501E+00 +1.064860E+00     +5.254021E+00 +2.600570E+00 +4.963440E+00     +5.254021E+00 +2.600570E+00 +4.963440E+00     +5.254021E+00 +2.600570E+00 +4.963440E+00     +5.254021E+00 +2.600570E+00 +4.963440E+00     +5.254021E+00 +2.600570E+00 +4.963440E+00     +3.183899E+00 +1.106230E+00 +6.516117E-01     +3.183899E+00 +1.106230E+00 +6.516117E-01     +6.149331E+00 +1.068421E+00 +1.449381E+00     +6.149331E+00 +1.068421E+00 +1.449381E+00     +6.149331E+00 +1.068421E+00 +1.449381E+00     +2.099771E+00 +3.043278E-01 +5.190450E+00     +2.099771E+00 +3.043278E-01 +5.190450E+00     +2.099771E+00 +3.043278E-01 +5.190450E+00    
 +6.098370E+00 +7.690217E-01 +9.597182E-01     +6.098370E+00 +7.690217E-01 +9.597182E-01     +6.098370E+00 +7.690217E-01 +9.597182E-01     +6.098370E+00 +7.690217E-01 +9.597182E-01     +4.350031E+00 +2.797740E+00 +6.246621E+00     +4.350031E+00 +2.797740E+00 +6.246621E+00     +4.558015E-01 +1.537501E+00 +1.064860E+00     +2.166599E+00 +1.639630E+00 +5.043501E+00     +5.254021E+00 +2.600570E+00 +4.963440E+00     +5.254021E+00 +2.600570E+00 +4.963440E+00     +5.254021E+00 +2.600570E+00 +4.963440E+00     +5.254021E+00 +2.600570E+00 +4.963440E+00     +3.183899E+00 +1.106230E+00 +6.516117E-01     +3.183899E+00 +1.106230E+00 +6.516117E-01     +3.183899E+00 +1.106230E+00 +6.516117E-01     +3.183899E+00 +1.106230E+00 +6.516117E-01     +6.149331E+00 +1.068421E+00 +1.449381E+00     +6.149331E+00 +1.068421E+00 +1.449381E+00     +2.099771E+00 +3.043278E-01 +5.190450E+00     +6.098370E+00 +7.690217E-01 +9.597182E-01     +6.098370E+00 +7.690217E-01 +9.597182E-01    
 +6.098370E+00 +7.690217E-01 +9.597182E-01     +6.098370E+00 +7.690217E-01 +9.597182E-01     +6.098370E+00 +7.690217E-01 +9.597182E-01     +6.098370E+00 +7.690217E-01 +9.597182E-01     +3.156707E-01 +1.393139E+00 +1.170060E+00     +2.630241E+00 +1.160670E+00 +4.955601E+00     +2.630241E+00 +1.160670E+00 +4.955601E+00     +2.630241E+00 +1.160670E+00 +4.955601E+00     +2.630241E+00 +1.160670E+00 +4.955601E+00     +2.630241E+00 +1.160670E+00 +4.955601E+00     +5.254021E+00 +2.600570E+00 +4.963440E+00     +5.254021E+00 +2.600570E+00 +4.963440E+00     +5.858500E+00 +2.491110E+00 +6.200010E+00     +5.858500E+00 +2.491110E+00 +6.200010E+00     +3.183899E+00 +1.106230E+00 +6.516117E-01     +3.183899E+00 +1.106230E+00 +6.516117E-01     +6.149331E+00 +1.068421E+00 +1.449381E+00     +6.149331E+00 +1.068421E+00 +1.449381E+00     +6.098370E+00 +7.690217E-01 +9.597182E-01     +6.098370E+00 +7.690217E-01 +9.597182E-01     +6.098370E+00 +7.690217E-01 +9.597182E-01    
 +6.098370E+00 +7.690217E-01 +9.597182E-01     +1.084471E+00 +1.785859E+00 +2.017539E+00     +6.098370E+00 +7.690217E-01 +9.597182E-01     +6.098370E+00 +7.690217E-01 +9.597182E-01     +3.156707E-01 +1.393139E+00 +1.170060E+00     +2.630241E+00 +1.160670E+00 +4.955601E+00     +2.630241E+00 +1.160670E+00 +4.955601E+00     +2.630241E+00 +1.160670E+00 +4.955601E+00     +2.630241E+00 +1.160670E+00 +4.955601E+00     +2.630241E+00 +1.160670E+00 +4.955601E+00     +2.630241E+00 +1.160670E+00 +4.955601E+00     +5.858500E+00 +2.491110E+00 +6.200010E+00     +5.858500E+00 +2.491110E+00 +6.200010E+00     +5.858500E+00 +2.491110E+00 +6.200010E+00     +5.858500E+00 +2.491110E+00 +6.200010E+00     +5.858500E+00 +2.491110E+00 +6.200010E+00     +5.858500E+00 +2.491110E+00 +6.200010E+00     +3.433651E+00 +1.387669E+00 +4.191160E+00     +6.098370E+00 +7.690217E-01 +9.597182E-01     +6.098370E+00 +7.690217E-01 +9.597182E-01     +6.098370E+00 +7.690217E-01 +9.597182E-01    
 +1.306745E-01 +1.489879E+00 +4.005723E-01     +1.306745E-01 +1.489879E+00 +4.005723E-01     +1.306745E-01 +1.489879E+00 +4.005723E-01     +6.098370E+00 +7.690217E-01 +9.597182E-01     +3.156707E-01 +1.393139E+00 +1.170060E+00     +2.630241E+00 +1.160670E+00 +4.955601E+00     +2.630241E+00 +1.160670E+00 +4.955601E+00     +2.630241E+00 +1.160670E+00 +4.955601E+00     +2.630241E+00 +1.160670E+00 +4.955601E+00     +2.630241E+00 +1.160670E+00 +4.955601E+00     +2.630241E+00 +1.160670E+00 +4.955601E+00     +5.858500E+00 +2.491110E+00 +6.200010E+00     +5.858500E+00 +2.491110E+00 +6.200010E+00     +5.858500E+00 +2.491110E+00 +6.200010E+00     +5.858500E+00 +2.491110E+00 +6.200010E+00     +5.858500E+00 +2.491110E+00 +6.200010E+00     +5.858500E+00 +2.491110E+00 +6.200010E+00     +3.433651E+00 +1.387669E+00 +4.191160E+00     +5.490879E+00 +1.331950E+00 +1.387240E+00     +5.490879E+00 +1.331950E+00 +1.387240E+00     +5.490879E+00 +1.331950E+00 +1.387240E+00    
 +1.306745E-01 +1.489879E+00 +4.005723E-01     +1.306745E-01 +1.489879E+00 +4.005723E-01     +1.306745E-01 +1.489879E+00 +4.005723E-01     +8.284624E-01 +9.850813E-01 +5.831145E-02     +8.284624E-01 +9.850813E-01 +5.831145E-02     +2.630241E+00 +1.160670E+00 +4.955601E+00     +2.630241E+00 +1.160670E+00 +4.955601E+00     +2.630241E+00 +1.160670E+00 +4.955601E+00     +2.630241E+00 +1.160670E+00 +4.955601E+00     +2.630241E+00 +1.160670E+00 +4.955601E+00     +2.630241E+00 +1.160670E+00 +4.955601E+00     +5.858500E+00 +2.491110E+00 +6.200010E+00     +5.858500E+00 +2.491110E+00 +6.200010E+00     +5.858500E+00 +2.491110E+00 +6.200010E+00     +5.858500E+00 +2.491110E+00 +6.200010E+00     +5.858500E+00 +2.491110E+00 +6.200010E+00     +5.858500E+00 +2.491110E+00 +6.200010E+00     +3.433651E+00 +1.387669E+00 +4.191160E+00     +3.508040E+00 +9.477399E-01 +4.114291E+00     +3.508040E+00 +9.477399E-01 +4.114291E+00     +5.490879E+00 +1.331950E+00 +1.387240E+00    
 +1.306745E-01 +1.489879E+00 +4.005723E-01     +1.306745E-01 +1.489879E+00 +4.005723E-01     +8.284624E-01 +9.850813E-01 +5.831145E-02     +8.284624E-01 +9.850813E-01 +5.831145E-02     +8.284624E-01 +9.850813E-01 +5.831145E-02     +3.530731E-01 +1.680461E+00 +2.640961E+00     +3.530731E-01 +1.680461E+00 +2.640961E+00     +8.182453E-02 +9.136572E-01 +3.673201E+00     +8.182453E-02 +9.136572E-01 +3.673201E+00     +1.275359E+00 +2.170849E+00 +8.672960E-01     +1.275359E+00 +2.170849E+00 +8.672960E-01     +1.275359E+00 +2.170849E+00 +8.672960E-01     +5.858500E+00 +2.491110E+00 +6.200010E+00     +5.858500E+00 +2.491110E+00 +6.200010E+00     +5.858500E+00 +2.491110E+00 +6.200010E+00     +5.858500E+00 +2.491110E+00 +6.200010E+00     +5.858500E+00 +2.491110E+00 +6.200010E+00     +2.765171E+00 +1.135571E+00 +5.039141E+00     +2.765171E+00 +1.135571E+00 +5.039141E+00     +2.765171E+00 +1.135571E+00 +5.039141E+00     +2.765171E+00 +1.135571E+00 +5.039141E+00    
 +2.765171E+00 +1.135571E+00 +5.039141E+00     +8.284624E-01 +9.850813E-01 +5.831145E-02     +8.284624E-01 +9.850813E-01 +5.831145E-02     +8.284624E-01 +9.850813E-01 +5.831145E-02     +8.284624E-01 +9.850813E-01 +5.831145E-02     +3.530731E-01 +1.680461E+00 +2.640961E+00     +3.530731E-01 +1.680461E+00 +2.640961E+00     +8.182453E-02 +9.136572E-01 +3.673201E+00     +8.182453E-02 +9.136572E-01 +3.673201E+00     +1.275359E+00 +2.170849E+00 +8.672960E-01     +1.275359E+00 +2.170849E+00 +8.672960E-01     +1.275359E+00 +2.170849E+00 +8.672960E-01     +1.275359E+00 +2.170849E+00 +8.672960E-01     +1.275359E+00 +2.170849E+00 +8.672960E-01     +1.275359E+00 +2.170849E+00 +8.672960E-01     +5.858500E+00 +2.491110E+00 +6.200010E+00     +3.230280E+00 +1.770179E+00 +4.852461E+00     +3.230280E+00 +1.770179E+00 +4.852461E+00     +2.765171E+00 +1.135571E+00 +5.039141E+00     +2.765171E+00 +1.135571E+00 +5.039141E+00     +2.765171E+00 +1.135571E+00 +5.039141E+00    
 +6.725365E-01 +1.552629E+00 +5.500213E-01     +8.284624E-01 +9.850813E-01 +5.831145E-02     +8.284624E-01 +9.850813E-01 +5.831145E-02     +8.284624E-01 +9.850813E-01 +5.831145E-02     +8.284624E-01 +9.850813E-01 +5.831145E-02     +3.530731E-01 +1.680461E+00 +2.640961E+00     +3.530731E-01 +1.680461E+00 +2.640961E+00     +8.182453E-02 +9.136572E-01 +3.673201E+00     +8.182453E-02 +9.136572E-01 +3.673201E+00     +1.088562E-01 +3.478947E-01 +8.269126E-01     +1.088562E-01 +3.478947E-01 +8.269126E-01     +1.275359E+00 +2.170849E+00 +8.672960E-01     +1.275359E+00 +2.170849E+00 +8.672960E-01     +1.275359E+00 +2.170849E+00 +8.672960E-01     +1.275359E+00 +2.170849E+00 +8.672960E-01     +3.230280E+00 +1.770179E+00 +4.852461E+00     +3.230280E+00 +1.770179E+00 +4.852461E+00     +3.230280E+00 +1.770179E+00 +4.852461E+00     +2.765171E+00 +1.135571E+00 +5.039141E+00     +2.765171E+00 +1.135571E+00 +5.039141E+00     +2.765171E+00 +1.135571E+00 +5.039141E+00    
 +6.725365E-01 +1.552629E+00 +5.500213E-01     +6.725365E-01 +1.552629E+00 +5.500213E-01     +8.284624E-01 +9.850813E-01 +5.831145E-02     +8.284624E-01 +9.850813E-01 +5.831145E-02     +8.433344E-01 +1.392911E+00 +3.825851E+00     +8.433344E-01 +1.392911E+00 +3.825851E+00     +8.433344E-01 +1.392911E+00 +3.825851E+00     +8.182453E-02 +9.136572E-01 +3.673201E+00     +1.275359E+00 +2.170849E+00 +8.672960E-01     +1.088562E-01 +3.478947E-01 +8.269126E-01     +1.088562E-01 +3.478947E-01 +8.269126E-01     +1.275359E+00 +2.170849E+00 +8.672960E-01     +1.275359E+00 +2.170849E+00 +8.672960E-01     +1.275359E+00 +2.170849E+00 +8.672960E-01     +1.275359E+00 +2.170849E+00 +8.672960E-01     +3.230280E+00 +1.770179E+00 +4.852461E+00     +3.230280E+00 +1.770179E+00 +4.852461E+00     +3.230280E+00 +1.770179E+00 +4.852461E+00     +3.230280E+00 +1.770179E+00 +4.852461E+00     +2.765171E+00 +1.135571E+00 +5.039141E+00     +2.765171E+00 +1.135571E+00 +5.039141E+00    
 +4.812670E+00 +2.299791E+00 +4.509041E+00     +4.812670E+00 +2.299791E+00 +4.509041E+00     +4.812670E+00 +2.299791E+00 +4.509041E+00     +4.812670E+00 +2.299791E+00 +4.509041E+00     +8.433344E-01 +1.392911E+00 +3.825851E+00     +8.433344E-01 +1.392911E+00 +3.825851E+00     +8.433344E-01 +1.392911E+00 +3.825851E+00     +8.433344E-01 +1.392911E+00 +3.825851E+00     +1.275359E+00 +2.170849E+00 +8.672960E-01     +1.088562E-01 +3.478947E-01 +8.269126E-01     +1.088562E-01 +3.478947E-01 +8.269126E-01     +1.275359E+00 +2.170849E+00 +8.672960E-01     +1.275359E+00 +2.170849E+00 +8.672960E-01     +1.275359E+00 +2.170849E+00 +8.672960E-01     +1.275359E+00 +2.170849E+00 +8.672960E-01     +3.230280E+00 +1.770179E+00 +4.852461E+00     +3.230280E+00 +1.770179E+00 +4.852461E+00     +3.230280E+00 +1.770179E+00 +4.852461E+00     +3.230280E+00 +1.770179E+00 +4.852461E+00     +3.230280E+00 +1.770179E+00 +4.852461E+00     +4.812670E+00 +2.299791E+00 +4.509041E+00    
 +4.812670E+00 +2.299791E+00 +4.509041E+00     +4.812670E+00 +2.299791E+00 +4.509041E+00     +4.812670E+00 +2.299791E+00 +4.509041E+00     +4.812670E+00 +2.299791E+00 +4.509041E+00     +4.549539E+00 +1.545980E+00 +3.262760E+00     +4.549539E+00 +1.545980E+00 +3.262760E+00     +4.549539E+00 +1.545980E+00 +3.262760E+00     +5.848241E+00 +2.706412E-01 +1.179061E+00     +1.666920E+00 +2.348550E+00 +2.015970E+00     +1.666920E+00 +2.348550E+00 +2.015970E+00     +1.275359E+00 +2.170849E+00 +8.672960E-01     +1.275359E+00 +2.170849E+00 +8.672960E-01     +1.275359E+00 +2.170849E+00 +8.672960E-01     +1.275359E+00 +2.170849E+00 +8.672960E-01     +5.959910E+00 +1.790221E+00 +5.827860E+00     +5.959910E+00 +1.790221E+00 +5.827860E+00     +5.959910E+00 +1.790221E+00 +5.827860E+00     +5.959910E+00 +1.790221E+00 +5.827860E+00     +2.070980E+00 +9.549901E-01 +5.551800E+00     +2.421060E+00 +1.825970E+00 +4.804870E+00     +2.421060E+00 +1.825970E+00 +4.804870E+00    
 +4.305530E+00 +9.631216E-01 +1.169598E-01     +4.305530E+00 +9.631216E-01 +1.169598E-01     +4.305530E+00 +9.631216E-01 +1.169598E-01     +4.549539E+00 +1.545980E+00 +3.262760E+00     +4.549539E+00 +1.545980E+00 +3.262760E+00     +4.549539E+00 +1.545980E+00 +3.262760E+00     +4.549539E+00 +1.545980E+00 +3.262760E+00     +5.848241E+00 +2.706412E-01 +1.179061E+00     +5.848241E+00 +2.706412E-01 +1.179061E+00     +5.525491E+00 +1.605509E+00 +1.080820E+00     +1.666920E+00 +2.348550E+00 +2.015970E+00     +1.275359E+00 +2.170849E+00 +8.672960E-01     +1.275359E+00 +2.170849E+00 +8.672960E-01     +5.959910E+00 +1.790221E+00 +5.827860E+00     +5.959910E+00 +1.790221E+00 +5.827860E+00     +5.959910E+00 +1.790221E+00 +5.827860E+00     +5.959910E+00 +1.790221E+00 +5.827860E+00     +5.959910E+00 +1.790221E+00 +5.827860E+00     +2.070980E+00 +9.549901E-01 +5.551800E+00     +2.421060E+00 +1.825970E+00 +4.804870E+00     +2.421060E+00 +1.825970E+00 +4.804870E+00    
 +5.381670E-01 +6.205536E-01 +1.011910E+00     +5.381670E-01 +6.205536E-01 +1.011910E+00     +5.381670E-01 +6.205536E-01 +1.011910E+00     +4.549539E+00 +1.545980E+00 +3.262760E+00     +4.549539E+00 +1.545980E+00 +3.262760E+00     +4.549539E+00 +1.545980E+00 +3.262760E+00     +4.549539E+00 +1.545980E+00 +3.262760E+00     +5.848241E+00 +2.706412E-01 +1.179061E+00     +5.848241E+00 +2.706412E-01 +1.179061E+00     +1.666920E+00 +2.348550E+00 +2.015970E+00     +1.666920E+00 +2.348550E+00 +2.015970E+00     +1.666920E+00 +2.348550E+00 +2.015970E+00     +4.957660E-01 +1.701850E+00 +2.498352E-01     +4.957660E-01 +1.701850E+00 +2.498352E-01     +4.957660E-01 +1.701850E+00 +2.498352E-01     +5.959910E+00 +1.790221E+00 +5.827860E+00     +5.959910E+00 +1.790221E+00 +5.827860E+00     +2.070980E+00 +9.549901E-01 +5.551800E+00     +2.070980E+00 +9.549901E-01 +5.551800E+00     +2.421060E+00 +1.825970E+00 +4.804870E+00     +2.421060E+00 +1.825970E+00 +4.804870E+00    
 +5.381670E-01 +6.205536E-01 +1.011910E+00     +5.381670E-01 +6.205536E-01 +1.011910E+00     +5.381670E-01 +6.205536E-01 +1.011910E+00     +5.381670E-01 +6.205536E-01 +1.011910E+00     +4.549539E+00 +1.545980E+00 +3.262760E+00     +4.549539E+00 +1.545980E+00 +3.262760E+00     +4.549539E+00 +1.545980E+00 +3.262760E+00     +5.848241E+00 +2.706412E-01 +1.179061E+00     +5.848241E+00 +2.706412E-01 +1.179061E+00     +5.848241E+00 +2.706412E-01 +1.179061E+00     +3.483319E+00 +1.686590E+00 +5.091201E+00     +3.483319E+00 +1.686590E+00 +5.091201E+00     +4.957660E-01 +1.701850E+00 +2.498352E-01     +4.957660E-01 +1.701850E+00 +2.498352E-01     +4.957660E-01 +1.701850E+00 +2.498352E-01     +4.957660E-01 +1.701850E+00 +2.498352E-01     +2.070980E+00 +9.549901E-01 +5.551800E+00     +2.070980E+00 +9.549901E-01 +5.551800E+00     +2.070980E+00 +9.549901E-01 +5.551800E+00     +2.421060E+00 +1.825970E+00 +4.804870E+00     +2.421060E+00 +1.825970E+00 +4.804870E+00    
 +5.381670E-01 +6.205536E-01 +1.011910E+00     +5.381670E-01 +6.205536E-01 +1.011910E+00     +5.381670E-01 +6.205536E-01 +1.011910E+00     +5.381670E-01 +6.205536E-01 +1.011910E+00     +4.549539E+00 +1.545980E+00 +3.262760E+00     +4.549539E+00 +1.545980E+00 +3.262760E+00     +4.549539E+00 +1.545980E+00 +3.262760E+00     +4.549539E+00 +1.545980E+00 +3.262760E+00     +5.848241E+00 +2.706412E-01 +1.179061E+00     +5.848241E+00 +2.706412E-01 +1.179061E+00     +3.483319E+00 +1.686590E+00 +5.091201E+00     +3.483319E+00 +1.686590E+00 +5.091201E+00     +4.957660E-01 +1.701850E+00 +2.498352E-01     +4.957660E-01 +1.701850E+00 +2.498352E-01     +4.957660E-01 +1.701850E+00 +2.498352E-01     +4.957660E-01 +1.701850E+00 +2.498352E-01     +2.070980E+00 +9.549901E-01 +5.551800E+00     +2.070980E+00 +9.549901E-01 +5.551800E+00     +2.070980E+00 +9.549901E-01 +5.551800E+00     +2.070980E+00 +9.549901E-01 +5.551800E+00     +2.421060E+00 +1.825970E+00 +4.804870E+00    
 +5.381670E-01 +6.205536E-01 +1.011910E+00     +5.381670E-01 +6.205536E-01 +1.011910E+00     +5.381670E-01 +6.205536E-01 +1.011910E+00     +5.381670E-01 +6.205536E-01 +1.011910E+00     +2.906589E+00 +1.952840E+00 +5.279670E+00     +2.906589E+00 +1.952840E+00 +5.279670E+00     +4.549539E+00 +1.545980E+00 +3.262760E+00     +7.410406E-01 +1.347391E+00 +6.309173E-01     +7.410406E-01 +1.347391E+00 +6.309173E-01     +3.483319E+00 +1.686590E+00 +5.091201E+00     +3.483319E+00 +1.686590E+00 +5.091201E+00     +3.483319E+00 +1.686590E+00 +5.091201E+00     +3.483319E+00 +1.686590E+00 +5.091201E+00     +4.957660E-01 +1.701850E+00 +2.498352E-01     +4.957660E-01 +1.701850E+00 +2.498352E-01     +2.070980E+00 +9.549901E-01 +5.551800E+00     +2.070980E+00 +9.549901E-01 +5.551800E+00     +2.070980E+00 +9.549901E-01 +5.551800E+00     +2.070980E+00 +9.549901E-01 +5.551800E+00     +2.070980E+00 +9.549901E-01 +5.551800E+00     +2.099771E+00 +3.043278E-01 +5.190450E+00    
 +5.381670E-01 +6.205536E-01 +1.011910E+00     +5.381670E-01 +6.205536E-01 +1.011910E+00     +5.381670E-01 +6.205536E-01 +1.011910E+00     +2.906589E+00 +1.952840E+00 +5.279670E+00     +2.906589E+00 +1.952840E+00 +5.279670E+00     +2.906589E+00 +1.952840E+00 +5.279670E+00     +7.410406E-01 +1.347391E+00 +6.309173E-01     +7.410406E-01 +1.347391E+00 +6.309173E-01     +7.410406E-01 +1.347391E+00 +6.309173E-01     +3.233345E-01 +1.087000E+00 +4.007190E+00     +3.483319E+00 +1.686590E+00 +5.091201E+00     +3.483319E+00 +1.686590E+00 +5.091201E+00     +3.483319E+00 +1.686590E+00 +5.091201E+00     +3.483319E+00 +1.686590E+00 +5.091201E+00     +6.149331E+00 +1.068421E+00 +1.449381E+00     +2.070980E+00 +9.549901E-01 +5.551800E+00     +2.070980E+00 +9.549901E-01 +5.551800E+00     +2.070980E+00 +9.549901E-01 +5.551800E+00     +2.070980E+00 +9.549901E-01 +5.551800E+00     +2.070980E+00 +9.549901E-01 +5.551800E+00     +2.099771E+00 +3.043278E-01 +5.190450E+00    
 +2.099771E+00 +3.043278E-01 +5.190450E+00     +5.381670E-01 +6.205536E-01 +1.011910E+00     +5.381670E-01 +6.205536E-01 +1.011910E+00     +2.906589E+00 +1.952840E+00 +5.279670E+00     +2.906589E+00 +1.952840E+00 +5.279670E+00     +2.906589E+00 +1.952840E+00 +5.279670E+00     +2.906589E+00 +1.952840E+00 +5.279670E+00     +7.410406E-01 +1.347391E+00 +6.309173E-01     +7.410406E-01 +1.347391E+00 +6.309173E-01     +3.233345E-01 +1.087000E+00 +4.007190E+00     +5.254021E+00 +2.600570E+00 +4.963440E+00     +5.254021E+00 +2.600570E+00 +4.963440E+00     +3.483319E+00 +1.686590E+00 +5.091201E+00     +6.149331E+00 +1.068421E+00 +1.449381E+00     +6.149331E+00 +1.068421E+00 +1.449381E+00     +6.149331E+00 +1.068421E+00 +1.449381E+00     +2.070980E+00 +9.549901E-01 +5.551800E+00     +2.070980E+00 +9.549901E-01 +5.551800E+00     +2.070980E+00 +9.549901E-01 +5.551800E+00     +2.099771E+00 +3.043278E-01 +5.190450E+00     +2.099771E+00 +3.043278E-01 +5.190450E+00    
 +2.099771E+00 +3.043278E-01 +5.190450E+00     +2.099771E+00 +3.043278E-01 +5.190450E+00     +2.906589E+00 +1.952840E+00 +5.279670E+00     +2.906589E+00 +1.952840E+00 +5.279670E+00     +2.906589E+00 +1.952840E+00 +5.279670E+00     +2.906589E+00 +1.952840E+00 +5.279670E+00     +2.906589E+00 +1.952840E+00 +5.279670E+00     +7.410406E-01 +1.347391E+00 +6.309173E-01     +5.254021E+00 +2.600570E+00 +4.963440E+00     +5.254021E+00 +2.600570E+00 +4.963440E+00     +5.254021E+00 +2.600570E+00 +4.963440E+00     +5.254021E+00 +2.600570E+00 +4.963440E+00     +5.254021E+00 +2.600570E+00 +4.963440E+00     +3.183899E+00 +1.106230E+00 +6.516117E-01     +3.183899E+00 +1.106230E+00 +6.516117E-01     +3.183899E+00 +1.106230E+00 +6.516117E-01     +6.149331E+00 +1.068421E+00 +1.449381E+00     +2.099771E+00 +3.043278E-01 +5.190450E+00     +2.099771E+00 +3.043278E-01 +5.190450E+00     +2.099771E+00 +3.043278E-01 +5.190450E+00     +2.099771E+00 +3.043278E-01 +5.190450E+00    
 +2.099771E+00 +3.043278E-01 +5.190450E+00     +6.098370E+00 +7.690217E-01 +9.597182E-01     +4.350031E+00 +2.797740E+00 +6.246621E+00     +4.350031E+00 +2.797740E+00 +6.246621E+00     +4.350031E+00 +2.797740E+00 +6.246621E+00     +4.350031E+00 +2.797740E+00 +6.246621E+00     +4.350031E+00 +2.797740E+00 +6.246621E+00     +5.254021E+00 +2.600570E+00 +4.963440E+00     +5.254021E+00 +2.600570E+00 +4.963440E+00     +5.254021E+00 +2.600570E+00 +4.963440E+00     +5.254021E+00 +2.600570E+00 +4.963440E+00     +5.254021E+00 +2.600570E+00 +4.963440E+00     +5.254021E+00 +2.600570E+00 +4.963440E+00     +3.183899E+00 +1.106230E+00 +6.516117E-01     +3.183899E+00 +1.106230E+00 +6.516117E-01     +3.183899E+00 +1.106230E+00 +6.516117E-01     +6.149331E+00 +1.068421E+00 +1.449381E+00     +6.149331E+00 +1.068421E+00 +1.449381E+00     +2.099771E+00 +3.043278E-01 +5.190450E+00     +2.099771E+00 +3.043278E-01 +5.190450E+00     +2.099771E+00 +3.043278E-01 +5.190450E+00    
 +6.098370E+00 +7.690217E-01 +9.597182E-01     +6.098370E+00 +7.690217E-01 +9.597182E-01     +6.098370E+00 +7.690217E-01 +9.597182E-01     +4.350031E+00 +2.797740E+00 +6.246621E+00     +4.350031E+00 +2.797740E+00 +6.246621E+00     +4.350031E+00 +2.797740E+00 +6.246621E+00     +4.350031E+00 +2.797740E+00 +6.246621E+00     +5.254021E+00 +2.600570E+00 +4.963440E+00     +5.254021E+00 +2.600570E+00 +4.963440E+00     +5.254021E+00 +2.600570E+00 +4.963440E+00     +5.254021E+00 +2.600570E+00 +4.963440E+00     +5.254021E+00 +2.600570E+00 +4.963440E+00     +5.254021E+00 +2.600570E+00 +4.963440E+00     +3.183899E+00 +1.106230E+00 +6.516117E-01     +3.183899E+00 +1.106230E+00 +6.516117E-01     +3.183899E+00 +1.106230E+00 +6.516117E-01     +6.149331E+00 +1.068421E+00 +1.449381E+00     +6.149331E+00 +1.068421E+00 +1.449381E+00     +2.099771E+00 +3.043278E-01 +5.190450E+00     +2.099771E+00 +3.043278E-01 +5.190450E+00     +2.099771E+00 +3.043278E-01 +5.190450E+00    
 +6.098370E+00 +7.690217E-01 +9.597182E-01     +6.098370E+00 +7.690217E-01 +9.597182E-01     +6.098370E+00 +7.690217E-01 +9.597182E-01     +6.098370E+00 +7.690217E-01 +9.597182E-01     +3.156707E-01 +1.393139E+00 +1.170060E+00     +3.156707E-01 +1.393139E+00 +1.170060E+00     +3.156707E-01 +1.393139E+00 +1.170060E+00     +2.630241E+00 +1.160670E+00 +4.955601E+00     +5.254021E+00 +2.600570E+00 +4.963440E+00     +5.254021E+00 +2.600570E+00 +4.963440E+00     +5.254021E+00 +2.600570E+00 +4.963440E+00     +5.254021E+00 +2.600570E+00 +4.963440E+00     +3.183899E+00 +1.106230E+00 +6.516117E-01     +3.183899E+00 +1.106230E+00 +6.516117E-01     +3.183899E+00 +1.106230E+00 +6.516117E-01     +3.183899E+00 +1.106230E+00 +6.516117E-01     +3.183899E+00 +1.106230E+00 +6.516117E-01     +3.183899E+00 +1.106230E+00 +6.516117E-01     +2.099771E+00 +3.043278E-01 +5.190450E+00     +6.098370E+00 +7.690217E-01 +9.597182E-01     +6.098370E+00 +7.690217E-01 +9.597182E-01    
 +6.098370E+00 +7.690217E-01 +9.597182E-01     +6.098370E+00 +7.690217E-01 +9.597182E-01     +6.098370E+00 +7.690217E-01 +9.597182E-01     +3.156707E-01 +1.393139E+00 +1.170060E+00     +3.156707E-01 +1.393139E+00 +1.170060E+00     +3.156707E-01 +1.393139E+00 +1.170060E+00     +2.630241E+00 +1.160670E+00 +4.955601E+00     +2.630241E+00 +1.160670E+00 +4.955601E+00     +2.630241E+00 +1.160670E+00 +4.955601E+00     +2.630241E+00 +1.160670E+00 +4.955601E+00     +5.254021E+00 +2.600570E+00 +4.963440E+00     +5.858500E+00 +2.491110E+00 +6.200010E+00     +5.858500E+00 +2.491110E+00 +6.200010E+00     +5.858500E+00 +2.491110E+00 +6.200010E+00     +3.183899E+00 +1.106230E+00 +6.516117E-01     +3.183899E+00 +1.106230E+00 +6.516117E-01     +3.183899E+00 +1.106230E+00 +6.516117E-01     +3.183899E+00 +1.106230E+00 +6.516117E-01     +6.098370E+00 +7.690217E-01 +9.597182E-01     +6.098370E+00 +7.690217E-01 +9.597182E-01     +6.098370E+00 +7.690217E-01 +9.597182E-01    
 +6.098370E+00 +7.690217E-01 +9.597182E-01     +6.098370E+00 +7.690217E-01 +9.597182E-01     +6.098370E+00 +7.690217E-01 +9.597182E-01     +3.156707E-01 +1.393139E+00 +1.170060E+00     +3.156707E-01 +1.393139E+00 +1.170060E+00     +3.156707E-01 +1.393139E+00 +1.170060E+00     +2.630241E+00 +1.160670E+00 +4.955601E+00     +2.630241E+00 +1.160670E+00 +4.955601E+00     +2.630241E+00 +1.160670E+00 +4.955601E+00     +2.630241E+00 +1.160670E+00 +4.955601E+00     +2.630241E+00 +1.160670E+00 +4.955601E+00     +5.858500E+00 +2.491110E+00 +6.200010E+00     +5.858500E+00 +2.491110E+00 +6.200010E+00     +5.858500E+00 +2.491110E+00 +6.200010E+00     +5.858500E+00 +2.491110E+00 +6.200010E+00     +5.858500E+00 +2.491110E+00 +6.200010E+00     +5.858500E+00 +2.491110E+00 +6.200010E+00     +5.858500E+00 +2.491110E+00 +6.200010E+00     +5.858500E+00 +2.491110E+00 +6.200010E+00     +6.098370E+00 +7.690217E-01 +9.597182E-01     +6.098370E+00 +7.690217E-01 +9.597182E-01    
 +1.306745E-01 +1.489879E+00 +4.005723E-01     +1.306745E-01 +1.489879E+00 +4.005723E-01     +1.306745E-01 +1.489879E+00 +4.005723E-01     +3.156707E-01 +1.393139E+00 +1.170060E+00     +3.156707E-01 +1.393139E+00 +1.170060E+00     +3.156707E-01 +1.393139E+00 +1.170060E+00     +2.630241E+00 +1.160670E+00 +4.955601E+00     +2.630241E+00 +1.160670E+00 +4.955601E+00     +2.630241E+00 +1.160670E+00 +4.955601E+00     +2.630241E+00 +1.160670E+00 +4.955601E+00     +2.630241E+00 +1.160670E+00 +4.955601E+00     +5.858500E+00 +2.491110E+00 +6.200010E+00     +5.858500E+00 +2.491110E+00 +6.200010E+00     +5.858500E+00 +2.491110E+00 +6.200010E+00     +5.858500E+00 +2.491110E+00 +6.200010E+00     +5.858500E+00 +2.491110E+00 +6.200010E+00     +5.858500E+00 +2.491110E+00 +6.200010E+00     +5.858500E+00 +2.491110E+00 +6.200010E+00     +5.490879E+00 +1.331950E+00 +1.387240E+00     +5.490879E+00 +1.331950E+00 +1.387240E+00     +5.490879E+00 +1.331950E+00 +1.387240E+00    
 +1.306745E-01 +1.489879E+00 +4.005723E-01     +1.306745E-01 +1.489879E+00 +4.005723E-01     +1.306745E-01 +1.489879E+00 +4.005723E-01     +8.284624E-01 +9.850813E-01 +5.831145E-02     +3.156707E-01 +1.393139E+00 +1.170060E+00     +3.156707E-01 +1.393139E+00 +1.170060E+00     +2.630241E+00 +1.160670E+00 +4.955601E+00     +2.630241E+00 +1.160670E+00 +4.955601E+00     +2.630241E+00 +1.160670E+00 +4.955601E+00     +2.630241E+00 +1.160670E+00 +4.955601E+00     +5.858500E+00 +2.491110E+00 +6.200010E+00     +5.858500E+00 +2.491110E+00 +6.200010E+00     +5.858500E+00 +2.491110E+00 +6.200010E+00     +5.858500E+00 +2.491110E+00 +6.200010E+00     +5.858500E+00 +2.491110E+00 +6.200010E+00     +5.858500E+00 +2.491110E+00 +6.200010E+00     +5.858500E+00 +2.491110E+00 +6.200010E+00     +5.858500E+00 +2.491110E+00 +6.200010E+00     +3.508040E+00 +9.477399E-01 +4.114291E+00     +3.508040E+00 +9.477399E-01 +4.114291E+00     +5.490879E+00 +1.331950E+00 +1.387240E+00    
 +1.306745E-01 +1.489879E+00 +4.005723E-01     +1.306745E-01 +1.489879E+00 +4.005723E-01     +8.284624E-01 +9.850813E-01 +5.831145E-02     +8.284624E-01 +9.850813E-01 +5.831145E-02     +8.284624E-01 +9.850813E-01 +5.831145E-02     +3.530731E-01 +1.680461E+00 +2.640961E+00     +3.530731E-01 +1.680461E+00 +2.640961E+00     +8.182453E-02 +9.136572E-01 +3.673201E+00     +2.630241E+00 +1.160670E+00 +4.955601E+00     +2.630241E+00 +1.160670E+00 +4.955601E+00     +5.858500E+00 +2.491110E+00 +6.200010E+00     +5.858500E+00 +2.491110E+00 +6.200010E+00     +5.858500E+00 +2.491110E+00 +6.200010E+00     +5.858500E+00 +2.491110E+00 +6.200010E+00     +5.858500E+00 +2.491110E+00 +6.200010E+00     +5.858500E+00 +2.491110E+00 +6.200010E+00     +5.858500E+00 +2.491110E+00 +6.200010E+00     +5.858500E+00 +2.491110E+00 +6.200010E+00     +2.765171E+00 +1.135571E+00 +5.039141E+00     +2.765171E+00 +1.135571E+00 +5.039141E+00     +2.765171E+00 +1.135571E+00 +5.039141E+00    
 +1.306745E-01 +1.489879E+00 +4.005723E-01     +8.284624E-01 +9.850813E-01 +5.831145E-02     +8.284624E-01 +9.850813E-01 +5.831145E-02     +8.284624E-01 +9.850813E-01 +5.831145E-02     +8.284624E-01 +9.850813E-01 +5.831145E-02     +3.530731E-01 +1.680461E+00 +2.640961E+00     +3.530731E-01 +1.680461E+00 +2.640961E+00     +8.182453E-02 +9.136572E-01 +3.673201E+00     +8.182453E-02 +9.136572E-01 +3.673201E+00     +1.088562E-01 +3.478947E-01 +8.269126E-01     +1.275359E+00 +2.170849E+00 +8.672960E-01     +5.858500E+00 +2.491110E+00 +6.200010E+00     +5.858500E+00 +2.491110E+00 +6.200010E+00     +5.858500E+00 +2.491110E+00 +6.200010E+00     +5.858500E+00 +2.491110E+00 +6.200010E+00     +5.858500E+00 +2.491110E+00 +6.200010E+00     +5.858500E+00 +2.491110E+00 +6.200010E+00     +3.230280E+00 +1.770179E+00 +4.852461E+00     +2.765171E+00 +1.135571E+00 +5.039141E+00     +2.765171E+00 +1.135571E+00 +5.039141E+00     +2.765171E+00 +1.135571E+00 +5.039141E+00    
 +8.284624E-01 +9.850813E-01 +5.831145E-02     +8.284624E-01 +9.850813E-01 +5.831145E-02     +8.284624E-01 +9.850813E-01 +5.831145E-02     +8.284624E-01 +9.850813E-01 +5.831145E-02     +8.284624E-01 +9.850813E-01 +5.831145E-02     +3.530731E-01 +1.680461E+00 +2.640961E+00     +3.530731E-01 +1.680461E+00 +2.640961E+00     +8.182453E-02 +9.136572E-01 +3.673201E+00     +1.088562E-01 +3.478947E-01 +8.269126E-01     +1.088562E-01 +3.478947E-01 +8.269126E-01     +1.088562E-01 +3.478947E-01 +8.269126E-01     +1.275359E+00 +2.170849E+00 +8.672960E-01     +1.275359E+00 +2.170849E+00 +8.672960E-01     +1.275359E+00 +2.170849E+00 +8.672960E-01     +1.275359E+00 +2.170849E+00 +8.672960E-01     +5.858500E+00 +2.491110E+00 +6.200010E+00     +5.858500E+00 +2.491110E+00 +6.200010E+00     +3.230280E+00 +1.770179E+00 +4.852461E+00     +2.765171E+00 +1.135571E+00 +5.039141E+00     +2.765171E+00 +1.135571E+00 +5.039141E+00     +2.765171E+00 +1.135571E+00 +5.039141E+00    
 +6.725365E-01 +1.552629E+00 +5.500213E-01     +6.725365E-01 +1.552629E+00 +5.500213E-01     +8.284624E-01 +9.850813E-01 +5.831145E-02     +8.284624E-01 +9.850813E-01 +5.831145E-02     +8.433344E-01 +1.392911E+00 +3.825851E+00     +8.433344E-01 +1.392911E+00 +3.825851E+00     +8.433344E-01 +1.392911E+00 +3.825851E+00     +8.433344E-01 +1.392911E+00 +3.825851E+00     +1.088562E-01 +3.478947E-01 +8.269126E-01     +1.088562E-01 +3.478947E-01 +8.269126E-01     +1.088562E-01 +3.478947E-01 +8.269126E-01     +1.275359E+00 +2.170849E+00 +8.672960E-01     +1.275359E+00 +2.170849E+00 +8.672960E-01     +1.275359E+00 +2.170849E+00 +8.672960E-01     +1.275359E+00 +2.170849E+00 +8.672960E-01     +3.230280E+00 +1.770179E+00 +4.852461E+00     +3.230280E+00 +1.770179E+00 +4.852461E+00     +3.230280E+00 +1.770179E+00 +4.852461E+00     +3.230280E+00 +1.770179E+00 +4.852461E+00     +2.765171E+00 +1.135571E+00 +5.039141E+00     +2.765171E+00 +1.135571E+00 +5.039141E+00    
 +4.812670E+00 +2.299791E+00 +4.509041E+00     +4.812670E+00 +2.299791E+00 +4.509041E+00     +4.812670E+00 +2.299791E+00 +4.509041E+00     +8.433344E-01 +1.392911E+00 +3.825851E+00     +8.433344E-01 +1.392911E+00 +3.825851E+00     +8.433344E-01 +1.392911E+00 +3.825851E+00     +8.433344E-01 +1.392911E+00 +3.825851E+00     +8.433344E-01 +1.392911E+00 +3.825851E+00     +1.088562E-01 +3.478947E-01 +8.269126E-01     +1.088562E-01 +3.478947E-01 +8.269126E-01     +1.088562E-01 +3.478947E-01 +8.269126E-01     +1.275359E+00 +2.170849E+00 +8.672960E-01     +1.275359E+00 +2.170849E+00 +8.672960E-01     +1.275359E+00 +2.170849E+00 +8.672960E-01     +1.275359E+00 +2.170849E+00 +8.672960E-01     +3.230280E+00 +1.770179E+00 +4.852461E+00     +3.230280E+00 +1.770179E+00 +4.852461E+00     +3.230280E+00 +1.770179E+00 +4.852461E+00     +3.230280E+00 +1.770179E+00 +4.852461E+00     +3.230280E+00 +1.770179E+00 +4.852461E+00     +4.812670E+00 +2.299791E+00 +4.509041E+00    
TENSORS Stress float 
 +4.914252E+02 -6.388253E+00 +3.268287E+01 -6.388253E+00 +8.580698E+02 +9.394476E+00 +3.268287E+01 +9.394476E+00 +3.178058E+02 
 +5.020973E+02 -3.940843E+00 +3.589707E+01 -3.940843E+00 +8.782112E+02 +1.562447E+01 +3.589707E+01 +1.562447E+01 +3.242902E+02 
 +5.109374E+02 -6.316006E+00 +4.378986E+01 -6.316006E+00 +8.859205E+02 +6.896832E+00 +4.378986E+01 +6.896832E+00 +3.480287E+02 
 +5.165600E+02 +6.341048E-01 +1.300993E+01 +6.341048E-01 +8.921686E+02 -6.905549E+00 +1.300993E+01 -6.905549E+00 +3.703318E+02 
 +4.762075E+02 -8.612771E+00 -2.862958E+00 -8.612771E+00 +8.924389E+02 -2.312700E+01 -2.862958E+00 -2.312700E+01 +3.698066E+02 
 +4.911063E+02 -6.255723E+00 +8.431052E+00 -6.255723E+00 +9.109422E+02 -2.428400E+01 +8.431052E+00 -2.428400E+01 +3.754914E+02 
 +4.796484E+02 -8.273494E+00 +1.482933E+01 -8.273494E+00 +8.883200E+02 -1.147179E+01 +1.482933E+01 -1.147179E+01 +3.565474E+02 
 +4.553164E+02 -8.818961E+00 +1.218613E+01 -8.818961E+00 +8.606691E+02 -4.796418E+00 +1.218613E+01 -4.796418E+00 +3.380768E+02 
 +4.525794E+02 -8.918193E+00 +8.287437E+00 -8.918193E+00 +8.518754E+02 -9.968273E+00 +8.287437E+00 -9.968273E+00 +3.535056E+02 
 +4.589734E+02 -9.400761E+00 +1.841508E+01 -9.400761E+00 +8.538875E+02 -1.815249E+01 +1.841508E+01 -1.815249E+01 +3.784880E+02 
 +4.721268E+02 -6.733284E+00 +1.748738E+01 -6.733284E+00 +8.570946E+02 -2.055730E+01 +1.748738E+01 -2.055730E+01 +3.845084E+02 
 +4.723746E+02 -4.369479E+00 +2.190015E+01 -4.369479E+00 +8.557580E+02 -1.342543E+01 +2.190015E+01 -1.342543E+01 +4.033196E+02 
 +4.765820E+02 +9.649874E+00 +2.195948E+01 +9.649874E+00 +8.621989E+02 -6.920959E+00 +2.195948E+01 -6.920959E+00 +4.285145E+02 
 +5.032357E+02 +4.809953E+00 +1.746356E+01 +4.809953E+00 +8.699317E+02 -7.446265E+00 +1.746356E+01 -7.446265E+00 +4.370167E+02 
 +5.245220E+02 +6.118127E+00 +1.823038E+01 +6.118127E+00 +8.615940E+02 -3.020505E+00 +1.823038E+01 -3.020505E+00 +4.133076E+02 
 +5.287862E+02 +9.379528E+00 +1.978813E+01 +9.379528E+00 +8.553429E+02 +5.147428E-01 +1.978813E+01 +5.147428E-01 +3.834898E+02 
 +5.506762E+02 +8.284600E+00 +1.761294E+01 +8.284600E+00 +8.794581E+02 +1.193120E+00 +1.761294E+01 +1.193120E+00 +3.887295E+02 
 +5.227312E+02 +6.756818E-01 -3.248239E+01 +6.756818E-01 +8.850315E+02 +1.119110E+00 -3.248239E+01 +1.119110E+00 +3.782508E+02 
 +5.034707E+02 +1.182240E+01 -3.335721E+01 +1.182240E+01 +8.801056E+02 +1.595930E+00 -3.335721E+01 +1.595930E+00 +3.486400E+02 
 +4.784844E+02 +2.590759E+00 -4.566256E+01 +2.590759E+00 +8.580837E+02 +1.758508E+00 -4.566256E+01 +1.758508E+00 +3.288903E+02 
 +4.826270E+02 -5.570373E+00 -1.956094E+01 -5.570373E+00 +8.467464E+02 -2.990336E-01 -1.956094E+01 -2.990336E-01 +3.257988E+02 
 +4.901648E+02 +1.875295E+00 +5.511728E+01 +1.875295E+00 +8.690681E+02 +2.317973E+01 +5.511728E+01 +2.317973E+01 +3.051785E+02 
 +4.991633E+02 -1.921401E+00 +5.402509E+01 -1.921401E+00 +8.731453E+02 +1.850379E+01 +5.402509E+01 +1.850379E+01 +3.274237E+02 
 +5.259882E+02 -7.600003E+00 +5.798563E+01 -7.600003E+00 +8.984761E+02 +9.926898E+00 +5.798563E+01 +9.926898E+00 +3.747302E+02 
 +5.134272E+02 -8.179095E+00 -1.811250E+00 -8.179095E+00 +9.029789E+02 -8.334340E+00 -1.811250E+00 -8.334340E+00 +4.010047E+02 
 +4.642622E+02 -6.280881E+00 -4.796403E+00 -6.280881E+00 +8.812396E+02 -1.907240E+01 -4.796403E+00 -1.907240E+01 +3.802329E+02 
 +4.779044E+02 -6.919969E+00 +1.452249E+01 -6.919969E+00 +8.898111E+02 -1.880336E+01 +1.452249E+01 -1.880336E+01 +3.766185E+02 
 +4.786215E+02 -6.051576E+00 +2.591956E+01 -6.051576E+00 +8.826179E+02 -1.729768E+01 +2.591956E+01 -1.729768E+01 +3.623751E+02 
 +4.525419E+02 -6.878737E+00 +1.922178E+01 -6.878737E+00 +8.606407E+02 -1.074712E+01 +1.922178E+01 -1.074712E+01 +3.370638E+02 
 +4.481018E+02 -5.008167E+00 +1.027119E+01 -5.008167E+00 +8.487166E+02 -6.772928E+00 +1.027119E+01 -6.772928E+00 +3.430045E+02 
 +4.637479E+02 -5.551669E+00 +1.597579E+01 -5.551669E+00 +8.525445E+02 -1.125928E+01 +1.597579E+01 -1.125928E+01 +3.749196E+02 
 +4.658664E+02 -1.839980E+00 +1.680234E+01 -1.839980E+00 +8.481003E+02 -1.965842E+01 +1.680234E+01 -1.965842E+01 +3.872907E+02 
 +4.938712E+02 +3.420533E+00 +2.435547E+01 +3.420533E+00 +8.644608E+02 -2.085417E+01 +2.435547E+01 -2.085417E+01 +4.188278E+02 
 +5.073746E+02 +1.180068E+01 +2.135558E+01 +1.180068E+01 +8.635247E+02 -1.525146E+01 +2.135558E+01 -1.525146E+01 +4.391518E+02 
 +5.169867E+02 +3.923764E+00 +1.622281E+01 +3.923764E+00 +8.515270E+02 -1.275577E+01 +1.622281E+01 -1.275577E+01 +4.317398E+02 
 +5.305108E+02 +3.943440E+00 +1.394232E+01 +3.943440E+00 +8.590057E+02 -1.348506E+01 +1.394232E+01 -1.348506E+01 +4.123158E+02 
 +5.427294E+02 -3.919855E-01 +2.079515E+01 -3.919855E-01 +8.659673E+02 -1.014233E+01 +2.079515E+01 -1.014233E+01 +3.965112E+02 
 +5.524050E+02 -1.335313E+00 +2.262739E+01 -1.335313E+00 +8.777175E+02 -4.333353E+00 +2.262739E+01 -4.333353E+00 +3.935527E+02 
 +5.017713E+02 -7.200043E+00 -1.220120E+01 -7.200043E+00 +8.681973E+02 +3.635168E+00 -1.220120E+01 +3.635168E+00 +3.712598E+02 
 +4.823731E+02 +8.299856E+00 -1.076822E+01 +8.299856E+00 +8.671254E+02 +9.686304E+00 -1.076822E+01 +9.686304E+00 +3.406949E+02 
 +4.713099E+02 +4.854784E+00 -2.164970E+01 +4.854784E+00 +8.662639E+02 +1.499145E+01 -2.164970E+01 +1.499145E+01 +3.264991E+02 
 +4.682413E+02 -1.425884E-01 -8.170124E+00 -1.425884E-01 +8.633131E+02 +2.338686E+01 -8.170124E+00 +2.338686E+01 +3.051989E+02 
 +4.856968E+02 +4.478575E+00 +5.325443E+01 +4.478575E+00 +8.660201E+02 +2.621855E+01 +5.325443E+01 +2.621855E+01 +3.052450E+02 
 +4.926651E+02 +3.890202E+00 +5.095273E+01 +3.890202E+00 +8.708224E+02 +1.708589E+01 +5.095273E+01 +1.708589E+01 +3.240340E+02 
 +5.138751E+02 +6.997093E-01 +5.440552E+01 +6.997093E-01 +8.945619E+02 +1.202227E+01 +5.440552E+01 +1.202227E+01 +3.701328E+02 
 +4.875240E+02 -1.303062E+00 -1.607978E+01 -1.303062E+00 +8.910458E+02 +4.998340E+00 -1.607978E+01 +4.998340E+00 +3.960196E+02 
 +4.651316E+02 -6.152179E-01 -6.418985E+00 -6.152179E-01 +8.761757E+02 -7.579875E+00 -6.418985E+00 -7.579875E+00 +3.915091E+02 
 +4.767763E+02 -6.945291E+00 +1.484563E+01 -6.945291E+00 +8.778066E+02 -1.540019E+01 +1.484563E+01 -1.540019E+01 +3.856738E+02 
 +4.767088E+02 -4.713135E+00 +2.913401E+01 -4.713135E+00 +8.722625E+02 -1.765542E+01 +2.913401E+01 -1.765542E+01 +3.643480E+02 
 +4.503994E+02 -3.981061E+00 +2.477693E+01 -3.981061E+00 +8.531240E+02 -1.832415E+01 +2.477693E+01 -1.832415E+01 +3.356314E+02 
 +4.466881E+02 -6.130756E+00 +1.371312E+01 -6.130756E+00 +8.455149E+02 -1.162471E+01 +1.371312E+01 -1.162471E+01 +3.344247E+02 
 +4.655954E+02 -5.497135E-01 +1.323633E+01 -5.497135E-01 +8.513332E+02 -1.100753E+01 +1.323633E+01 -1.100753E+01 +3.640872E+02 
 +4.815986E+02 +2.837602E+00 +2.227910E+01 +2.837602E+00 +8.524752E+02 -2.258087E+01 +2.227910E+01 -2.258087E+01 +3.868360E+02 
 +5.046476E+02 +1.845570E+01 +2.386415E+01 +1.845570E+01 +8.598882E+02 -2.458032E+01 +2.386415E+01 -2.458032E+01 +4.126496E+02 
 +5.235381E+02 +1.794159E+01 +2.124109E+01 +1.794159E+01 +8.624215E+02 -1.819460E+01 +2.124109E+01 -1.819460E+01 +4.241123E+02 
 +5.272164E+02 +1.468924E+01 +1.041837E+01 +1.468924E+01 +8.610916E+02 -1.690626E+01 +1.041837E+01 -1.690626E+01 +4.169914E+02 
 +5.264885E+02 +9.947507E+00 +9.396098E+00 +9.947507E+00 +8.663588E+02 -1.947913E+01 +9.396098E+00 -1.947913E+01 +4.137521E+02 
 +5.337554E+02 -1.903817E+00 +1.650971E+01 -1.903817E+00 +8.671339E+02 -2.124909E+01 +1.650971E+01 -2.124909E+01 +4.110738E+02 
 +5.416225E+02 -7.289911E-01 +1.936605E+01 -7.289911E-01 +8.733670E+02 -1.492531E+01 +1.936605E+01 -1.492531E+01 +4.061569E+02 
 +4.937414E+02 -7.690108E+00 +2.806685E+01 -7.690108E+00 +8.608909E+02 -1.000318E+00 +2.806685E+01 -1.000318E+00 +3.677699E+02 
 +4.722364E+02 -1.655057E+00 +3.336984E+01 -1.655057E+00 +8.562533E+02 +9.028961E+00 +3.336984E+01 +9.028961E+00 +3.275113E+02 
 +4.697163E+02 -4.805536E+00 +2.053029E+01 -4.805536E+00 +8.582425E+02 +1.295587E+01 +2.053029E+01 +1.295587E+01 +3.241142E+02 
 +4.657550E+02 -4.638590E+00 +1.734669E+01 -4.638590E+00 +8.576911E+02 +2.412320E+01 +1.734669E+01 +2.412320E+01 +3.089585E+02 
 +4.895262E+02 -1.498016E+00 +4.297440E+01 -1.498016E+00 +8.653444E+02 +1.985719E+01 +4.297440E+01 +1.985719E+01 +3.219340E+02 
 +4.909105E+02 -1.545345E+00 +4.117576E+01 -1.545345E+00 +8.709618E+02 +9.372679E+00 +4.117576E+01 +9.372679E+00 +3.188984E+02 
 +5.059557E+02 +1.573622E+00 +4.610911E+01 +1.573622E+00 +8.896775E+02 +5.792109E+00 +4.610911E+01 +5.792109E+00 +3.595069E+02 
 +4.672067E+02 +1.590883E+00 -2.512243E+01 +1.590883E+00 +8.810857E+02 +3.928900E+00 -2.512243E+01 +3.928900E+00 +3.775252E+02 
 +4.502627E+02 -1.966332E+00 -1.541398E+01 -1.966332E+00 +8.716179E+02 -5.702729E+00 -1.541398E+01 -5.702729E+00 +3.844571E+02 
 +4.655711E+02 -8.481113E+00 +1.403725E+01 -8.481113E+00 +8.648240E+02 -1.236597E+01 +1.403725E+01 -1.236597E+01 +3.696874E+02 
 +4.751778E+02 -6.342191E+00 +2.703772E+01 -6.342191E+00 +8.609195E+02 -1.622823E+01 +2.703772E+01 -1.622823E+01 +3.466738E+02 
 +4.593537E+02 -3.035212E+00 +2.607110E+01 -3.035212E+00 +8.492696E+02 -2.418508E+01 +2.607110E+01 -2.418508E+01 +3.377595E+02 
 +4.480227E+02 -3.029786E+00 +1.865146E+01 -3.029786E+00 +8.397430E+02 -2.332090E+01 +1.865146E+01 -2.332090E+01 +3.345334E+02 
 +4.581738E+02 -2.976438E+00 +1.438555E+01 -2.976438E+00 +8.348505E+02 -1.733747E+01 +1.438555E+01 -1.733747E+01 +3.517968E+02 
 +5.004261E+02 +3.237246E+00 +1.968599E+01 +3.237246E+00 +8.512350E+02 -2.264078E+01 +1.968599E+01 -2.264078E+01 +3.781904E+02 
 +5.230686E+02 +1.845231E+01 +1.393032E+01 +1.845231E+01 +8.622342E+02 -2.379313E+01 +1.393032E+01 -2.379313E+01 +3.899695E+02 
 +5.245875E+02 +1.852418E+01 +9.392262E+00 +1.852418E+01 +8.610353E+02 -1.746456E+01 +9.392262E+00 -1.746456E+01 +3.870394E+02 
 +5.311916E+02 +1.901154E+01 -4.696703E-01 +1.901154E+01 +8.729092E+02 -1.744576E+01 -4.696703E-01 -1.744576E+01 +3.926956E+02 
 +5.260927E+02 +1.535151E+01 -2.690783E+00 +1.535151E+01 +8.733722E+02 -1.609064E+01 -2.690783E+00 -1.609064E+01 +4.022220E+02 
 +5.184489E+02 +7.692102E+00 -3.595355E+00 +7.692102E+00 +8.696546E+02 -1.736311E+01 -3.595355E+00 -1.736311E+01 +4.189943E+02 
 +5.015045E+02 +8.617210E+00 +3.230727E+00 +8.617210E+00 +8.626744E+02 -1.558161E+01 +3.230727E+00 -1.558161E+01 +3.976645E+02 
 +4.753348E+02 -2.043693E+00 +4.192583E+01 -2.043693E+00 +8.584625E+02 -4.885242E+00 +4.192583E+01 -4.885242E+00 +3.522918E+02 
 +4.746698E+02 -4.435032E+00 +4.344188E+01 -4.435032E+00 +8.609570E+02 +3.470625E+00 +4.344188E+01 +3.470625E+00 +3.328281E+02 
 +4.700000E+02 -5.643795E+00 +3.326767E+01 -5.643795E+00 +8.515269E+02 +1.358375E+01 +3.326767E+01 +1.358375E+01 +3.268031E+02 
 +4.842373E+02 -7.075516E+00 +2.532147E+01 -7.075516E+00 +8.594105E+02 +2.399380E+01 +2.532147E+01 +2.399380E+01 +3.349709E+02 
 +4.939553E+02 +5.325524E+00 +2.581108E+01 +5.325524E+00 +8.687743E+02 +2.028780E+01 +2.581108E+01 +2.028780E+01 +3.332271E+02 
 +4.898459E+02 +2.355209E+00 +2.883462E+01 +2.355209E+00 +8.689619E+02 +6.505898E+00 +2.883462E+01 +6.505898E+00 +3.209843E+02 
 +4.969509E+02 +2.504883E+00 +3.354517E+01 +2.504883E+00 +8.828688E+02 -2.755096E+00 +3.354517E+01 -2.755096E+00 +3.482232E+02 
 +4.559919E+02 +3.571297E+00 -2.187704E+01 +3.571297E+00 +8.741845E+02 -6.308199E+00 -2.187704E+01 -6.308199E+00 +3.539251E+02 
 +4.433182E+02 +4.225142E-01 -8.633475E+00 +4.225142E-01 +8.746853E+02 +8.498346E-01 -8.633475E+00 +8.498346E-01 +3.519525E+02 
 +4.618223E+02 -1.934625E+00 +1.762652E+01 -1.934625E+00 +8.769073E+02 +9.246399E+00 +1.762652E+01 +9.246399E+00 +3.302203E+02 
 +4.695305E+02 -2.151395E+00 +2.343545E+01 -2.151395E+00 +8.648857E+02 +1.371814E+00 +2.343545E+01 +1.371814E+00 +3.179860E+02 
 +4.612466E+02 -6.926842E+00 +2.566436E+01 -6.926842E+00 +8.468607E+02 -1.792652E+01 +2.566436E+01 -1.792652E+01 +3.261890E+02 
 +4.516660E+02 -8.675213E+00 +2.365704E+01 -8.675213E+00 +8.339824E+02 -2.481078E+01 +2.365704E+01 -2.481078E+01 +3.222091E+02 
 +4.704349E+02 -7.866299E+00 +1.975286E+01 -7.866299E+00 +8.298180E+02 -2.362614E+01 +1.975286E+01 -2.362614E+01 +3.357921E+02 
 +5.056451E+02 +1.384581E+01 +1.701970E+01 +1.384581E+01 +8.362781E+02 -2.219258E+01 +1.701970E+01 -2.219258E+01 +3.503912E+02 
 +5.191435E+02 +2.174108E+01 +9.815787E+00 +2.174108E+01 +8.505640E+02 -2.251123E+01 +9.815787E+00 -2.251123E+01 +3.575704E+02 
 +5.254790E+02 +1.868095E+01 +3.288406E+00 +1.868095E+01 +8.639254E+02 -2.195835E+01 +3.288406E+00 -2.195835E+01 +3.638604E+02 
 +5.352658E+02 +1.855001E+01 -5.013939E+00 +1.855001E+01 +8.759158E+02 -2.008532E+01 -5.013939E+00 -2.008532E+01 +3.721665E+02 
 +5.444054E+02 +1.501035E+01 -1.010050E+01 +1.501035E+01 +8.952422E+02 -1.565726E+01 -1.010050E+01 -1.565726E+01 +3.950862E+02 
 +5.071693E+02 +4.823691E+00 -2.343699E+01 +4.823691E+00 +8.967250E+02 -1.045270E+01 -2.343699E+01 -1.045270E+01 +4.148263E+02 
 +4.686879E+02 +8.751310E+00 -1.791065E+01 +8.751310E+00 +8.814223E+02 -7.961238E+00 -1.791065E+01 -7.961238E+00 +3.818724E+02 
 +4.707709E+02 +3.858168E+00 +3.307360E+01 +3.858168E+00 +8.687508E+02 -7.862720E+00 +3.307360E+01 -7.862720E+00 +3.390973E+02 
 +4.800412E+02 +1.683429E+00 +3.358407E+01 +1.683429E+00 +8.641921E+02 -5.753447E+00 +3.358407E+01 -5.753447E+00 +3.383662E+02 
 +4.797797E+02 +1.298033E+00 +3.277076E+01 +1.298033E+00 +8.602852E+02 +7.731893E+00 +3.277076E+01 +7.731893E+00 +3.407239E+02 
 +4.850665E+02 -2.563602E-01 +2.244692E+01 -2.563602E-01 +8.623398E+02 +2.429012E+01 +2.244692E+01 +2.429012E+01 +3.433616E+02 
 +4.897639E+02 +3.138445E+00 +1.278411E+00 +3.138445E+00 +8.680722E+02 +1.296784E+01 +1.278411E+00 +1.296784E+01 +3.284608E+02 
 +4.768205E+02 -3.879177E-01 +8.806349E+00 -3.879177E-01 +8.604153E+02 +5.548409E+00 +8.806349E+00 +5.548409E+00 +3.177198E+02 
 +4.742592E+02 -3.327131E-01 +1.119125E+01 -3.327131E-01 +8.692887E+02 -3.578295E+00 +1.119125E+01 -3.578295E+00 +3.220314E+02 
 +4.568756E+02 +2.383469E+00 -9.365744E+00 +2.383469E+00 +8.695276E+02 -5.808911E+00 -9.365744E+00 -5.808911E+00 +3.259539E+02 
 +4.516044E+02 +9.702947E-01 +8.167257E+00 +9.702947E-01 +8.709141E+02 +5.169195E+00 +8.167257E+00 +5.169195E+00 +3.230844E+02 
 +4.576334E+02 -2.371646E+00 +2.225800E+01 -2.371646E+00 +8.693376E+02 +1.283587E+01 +2.225800E+01 +1.283587E+01 +3.192285E+02 
 +4.688126E+02 -1.244476E+00 +2.637807E+01 -1.244476E+00 +8.673921E+02 +1.226409E+01 +2.637807E+01 +1.226409E+01 +3.220496E+02 
 +4.605541E+02 +1.948568E+00 +2.888252E+01 +1.948568E+00 +8.576153E+02 +2.228249E+00 +2.888252E+01 +2.228249E+00 +3.075974E+02 
 +4.763559E+02 +2.089511E+00 +2.778402E+01 +2.089511E+00 +8.564499E+02 -1.015604E+01 +2.778402E+01 -1.015604E+01 +3.089226E+02 
 +4.967726E+02 -5.006886E+00 +2.534893E+01 -5.006886E+00 +8.611093E+02 -1.333607E+01 +2.534893E+01 -1.333607E+01 +3.167737E+02 
 +5.099381E+02 +3.466281E+00 +2.351546E+01 +3.466281E+00 +8.538328E+02 -7.219898E+00 +2.351546E+01 -7.219898E+00 +3.213535E+02 
 +5.146747E+02 +1.752301E+01 +6.708253E+00 +1.752301E+01 +8.450124E+02 -9.444290E+00 +6.708253E+00 -9.444290E+00 +3.408162E+02 
 +5.221225E+02 +1.681948E+01 +1.377811E+00 +1.681948E+01 +8.574416E+02 -1.837668E+01 +1.377811E+00 -1.837668E+01 +3.563932E+02 
 +5.314014E+02 +1.306632E+01 -9.691645E+00 +1.306632E+01 +8.710641E+02 -2.217322E+01 -9.691645E+00 -2.217322E+01 +3.627677E+02 
 +5.527997E+02 +9.593229E+00 -1.569835E+01 +9.593229E+00 +9.069369E+02 -2.092199E+01 -1.569835E+01 -2.092199E+01 +4.062574E+02 
 +4.817692E+02 -2.356560E+00 -3.378211E+01 -2.356560E+00 +8.948501E+02 -1.406501E+01 -3.378211E+01 -1.406501E+01 +4.089354E+02 
 +4.609928E+02 +4.340162E+00 -2.965719E+01 +4.340162E+00 +8.850854E+02 -6.279193E+00 -2.965719E+01 -6.279193E+00 +3.787310E+02 
 +4.769912E+02 -1.841102E-01 +2.380069E+01 -1.841102E-01 +8.764066E+02 -5.410963E+00 +2.380069E+01 -5.410963E+00 +3.403884E+02 
 +4.766607E+02 -1.364305E+00 +2.876809E+01 -1.364305E+00 +8.626986E+02 -7.629434E+00 +2.876809E+01 -7.629434E+00 +3.307144E+02 
 +4.867703E+02 -2.211970E+00 +3.338317E+01 -2.211970E+00 +8.674748E+02 +3.417914E+00 +3.338317E+01 +3.417914E+00 +3.492475E+02 
 +4.806139E+02 -6.108683E-01 +1.455309E+01 -6.108683E-01 +8.661325E+02 +1.601936E+01 +1.455309E+01 +1.601936E+01 +3.394281E+02 
 +4.781723E+02 -2.569315E+00 -1.302285E+01 -2.569315E+00 +8.645033E+02 +3.516121E+00 -1.302285E+01 +3.516121E+00 +3.186858E+02 
 +4.719560E+02 -5.854257E-01 -5.346793E+00 -5.854257E-01 +8.629752E+02 +3.773188E+00 -5.346793E+00 +3.773188E+00 +3.176181E+02 
 +4.584913E+02 +2.265527E+00 +1.053369E+00 +2.265527E+00 +8.569503E+02 -2.323525E+00 +1.053369E+00 -2.323525E+00 +3.057897E+02 
 +4.590810E+02 +2.040931E+00 -2.675287E+00 +2.040931E+00 +8.500114E+02 -1.046277E+00 -2.675287E+00 -1.046277E+00 +3.181568E+02 
 +4.559906E+02 -7.478310E-01 +6.719210E+00 -7.478310E-01 +8.380260E+02 +9.148925E+00 +6.719210E+00 +9.148925E+00 +3.428305E+02 
 +4.610169E+02 -2.765037E+00 +1.296854E+01 -2.765037E+00 +8.428256E+02 +1.258863E+01 +1.296854E+01 +1.258863E+01 +3.554179E+02 
 +4.716256E+02 +1.856881E+00 +2.727938E+01 +1.856881E+00 +8.581432E+02 +8.508868E+00 +2.727938E+01 +8.508868E+00 +3.412104E+02 
 +4.707017E+02 +3.070944E+00 +2.715760E+01 +3.070944E+00 +8.570278E+02 +2.540252E+00 +2.715760E+01 +2.540252E+00 +3.113717E+02 
 +4.857002E+02 -1.038431E+00 +2.776832E+01 -1.038431E+00 +8.611383E+02 -6.376834E+00 +2.776832E+01 -6.376834E+00 +3.068342E+02 
 +4.940882E+02 -5.344905E+00 +2.547822E+01 -5.344905E+00 +8.629469E+02 -8.472005E+00 +2.547822E+01 -8.472005E+00 +2.980014E+02 
 +4.976045E+02 -2.932503E+00 +2.208956E+01 -2.932503E+00 +8.531394E+02 -3.311818E+00 +2.208956E+01 -3.311818E+00 +3.008173E+02 
 +5.006921E+02 +1.426278E+01 +2.209317E+00 +1.426278E+01 +8.368990E+02 -1.176271E+00 +2.209317E+00 -1.176271E+00 +3.157137E+02 
 +5.077837E+02 +1.477696E+01 -1.133390E-01 +1.477696E+01 +8.476504E+02 -9.464293E+00 -1.133390E-01 -9.464293E+00 +3.380047E+02 
 +5.187818E+02 +4.179185E+00 -8.331264E+00 +4.179185E+00 +8.708685E+02 -1.910816E+01 -8.331264E+00 -1.910816E+01 +3.556104E+02 
 +5.211320E+02 +4.155294E-01 -1.322904E+01 +4.155294E-01 +8.817666E+02 -1.782271E+01 -1.322904E+01 -1.782271E+01 +3.794568E+02 
 +4.839606E+02 -3.687221E+00 -3.181040E+01 -3.687221E+00 +8.883034E+02 -1.396701E+01 -3.181040E+01 -1.396701E+01 +4.032596E+02 
 +4.719753E+02 -2.010352E+00 -2.870917E+01 -2.010352E+00 +8.882020E+02 -7.655311E+00 -2.870917E+01 -7.655311E+00 +3.952607E+02 
 +4.860938E+02 -5.791165E+00 +1.420675E+01 -5.791165E+00 +8.747852E+02 -4.658243E+00 +1.420675E+01 -4.658243E+00 +3.647705E+02 
 +4.819193E+02 -1.407531E+00 +2.303869E+01 -1.407531E+00 +8.664235E+02 -4.049630E+00 +2.303869E+01 -4.049630E+00 +3.483618E+02 
 +4.800189E+02 -1.323303E+00 +2.878137E+01 -1.323303E+00 +8.695521E+02 +2.446361E+00 +2.878137E+01 +2.446361E+00 +3.537422E+02 
 +4.781049E+02 -3.070030E+00 -6.586529E+00 -3.070030E+00 +8.683430E+02 +3.105496E+00 -6.586529E+00 +3.105496E+00 +3.365945E+02 
 +4.728018E+02 -2.463568E+00 -1.532553E+01 -2.463568E+00 +8.606646E+02 -3.439072E-01 -1.532553E+01 -3.439072E-01 +3.164960E+02 
 +4.679550E+02 +2.818467E+00 -7.916975E+00 +2.818467E+00 +8.600468E+02 -1.750332E+00 -7.916975E+00 -1.750332E+00 +3.139456E+02 
 +4.611195E+02 +3.809073E+00 +5.498228E-01 +3.809073E+00 +8.501628E+02 -6.887171E+00 +5.498228E-01 -6.887171E+00 +3.068821E+02 
 +4.681391E+02 +2.186232E+00 -8.795078E-01 +2.186232E+00 +8.456664E+02 +9.313441E-01 -8.795078E-01 +9.313441E-01 +3.320568E+02 
 +4.677368E+02 -2.119628E+00 +2.314863E+00 -2.119628E+00 +8.405038E+02 +1.640850E+01 +2.314863E+00 +1.640850E+01 +3.673369E+02 
 +4.684943E+02 +1.717888E-01 +1.285644E+01 +1.717888E-01 +8.414074E+02 +2.265323E+01 +1.285644E+01 +2.265323E+01 +3.608858E+02 
 +4.762276E+02 +3.004222E+00 +2.133525E+01 +3.004222E+00 +8.521476E+02 +1.661020E+01 +2.133525E+01 +1.661020E+01 +3.362675E+02 
 +4.896571E+02 +2.542525E+00 +1.975457E+01 +2.542525E+00 +8.619029E+02 +5.778899E+00 +1.975457E+01 +5.778899E+00 +3.254619E+02 
 +4.941251E+02 +1.243347E+00 +2.248669E+01 +1.243347E+00 +8.612544E+02 +2.300403E+00 +2.248669E+01 +2.300403E+00 +3.150790E+02 
 +4.928945E+02 -2.165296E+00 +1.841873E+01 -2.165296E+00 +8.602030E+02 +2.322082E-01 +1.841873E+01 +2.322082E-01 +3.110032E+02 
 +4.961441E+02 -8.924688E+00 +1.556938E+01 -8.924688E+00 +8.739488E+02 -5.810926E+00 +1.556938E+01 -5.810926E+00 +3.202288E+02 
 +4.918998E+02 -2.277220E+00 +1.373593E+01 -2.277220E+00 +8.693600E+02 -1.018148E+00 +1.373593E+01 -1.018148E+00 +3.172394E+02 
 +5.076180E+02 +5.693477E+00 +4.444987E+00 +5.693477E+00 +8.639957E+02 +3.503749E+00 +4.444987E+00 +3.503749E+00 +3.389065E+02 
 +4.998714E+02 -8.637930E-01 -1.234349E+00 -8.637930E-01 +8.672434E+02 -2.833013E+00 -1.234349E+00 -2.833013E+00 +3.512158E+02 
 +5.012481E+02 -6.853136E+00 -2.505415E+00 -6.853136E+00 +8.813886E+02 -5.938721E+00 -2.505415E+00 -5.938721E+00 +3.556455E+02 
 +5.012717E+02 -6.501739E+00 -2.493431E+01 -6.501739E+00 +8.833152E+02 -1.335264E+01 -2.493431E+01 -1.335264E+01 +3.779339E+02 
 +4.823598E+02 -9.062790E+00 -1.934654E+01 -9.062790E+00 +8.740603E+02 -1.810167E+01 -1.934654E+01 -1.810167E+01 +3.846048E+02 
 +4.771679E+02 -1.348465E+01 +3.685332E+00 -1.348465E+01 +8.634541E+02 -1.897702E+01 +3.685332E+00 -1.897702E+01 +3.743477E+02 
 +4.733846E+02 -1.198107E+01 +1.308888E+01 -1.198107E+01 +8.519906E+02 -1.833695E+01 +1.308888E+01 -1.833695E+01 +3.607871E+02 
 +4.643083E+02 -9.192523E+00 +2.118245E+01 -9.192523E+00 +8.532744E+02 -1.224763E+01 +2.118245E+01 -1.224763E+01 +3.521374E+02 
 +4.832582E+02 -6.086114E+00 -1.652306E+01 -6.086114E+00 +8.685051E+02 -5.220229E+00 -1.652306E+01 -5.220229E+00 +3.417883E+02 
 +4.744029E+02 +6.187201E-01 -1.706547E+01 +6.187201E-01 +8.578607E+02 -7.589096E+00 -1.706547E+01 -7.589096E+00 +3.228309E+02 
 +4.687472E+02 +4.848597E+00 -9.180229E+00 +4.848597E+00 +8.538981E+02 -1.241500E+01 -9.180229E+00 -1.241500E+01 +3.178263E+02 
 +4.713036E+02 +4.922739E+00 -1.497007E+00 +4.922739E+00 +8.451392E+02 -9.606747E+00 -1.497007E+00 -9.606747E+00 +3.114968E+02 
 +4.704376E+02 +3.401957E+00 -3.971773E+00 +3.401957E+00 +8.405002E+02 +3.752613E+00 -3.971773E+00 +3.752613E+00 +3.272413E+02 
 +4.612957E+02 +1.375912E+00 +7.451976E+00 +1.375912E+00 +8.451117E+02 +1.822181E+01 +7.451976E+00 +1.822181E+01 +3.486815E+02 
 +4.725026E+02 +4.487860E+00 +2.634725E+01 +4.487860E+00 +8.609096E+02 +2.326120E+01 +2.634725E+01 +2.326120E+01 +3.406556E+02 
 +4.978757E+02 +3.334811E+00 +1.907254E+01 +3.334811E+00 +8.695974E+02 +2.139619E+01 +1.907254E+01 +2.139619E+01 +3.317104E+02 
 +5.112647E+02 +3.042389E+00 +1.292610E+01 +3.042389E+00 +8.703734E+02 +1.539050E+01 +1.292610E+01 +1.539050E+01 +3.392921E+02 
 +5.058844E+02 -3.535886E+00 +1.607806E+01 -3.535886E+00 +8.681145E+02 +8.064104E+00 +1.607806E+01 +8.064104E+00 +3.496245E+02 
 +4.906991E+02 -9.336874E+00 +1.440953E+01 -9.336874E+00 +8.664073E+02 +2.942801E+00 +1.440953E+01 +2.942801E+00 +3.581093E+02 
 +4.768085E+02 -1.338237E+01 +1.401787E+01 -1.338237E+01 +8.655721E+02 -5.264509E+00 +1.401787E+01 -5.264509E+00 +3.519291E+02 
 +4.718532E+02 -1.077388E+01 +2.273427E+01 -1.077388E+01 +8.675427E+02 -7.754230E+00 +2.273427E+01 -7.754230E+00 +3.533256E+02 
 +5.198010E+02 -4.799864E+00 +4.716120E+00 -4.799864E+00 +8.908748E+02 -9.367462E+00 +4.716120E+00 -9.367462E+00 +3.843106E+02 
 +5.048261E+02 -1.420146E+00 -2.263191E+00 -1.420146E+00 +8.683041E+02 -1.799966E+01 -2.263191E+00 -1.799966E+01 +3.823643E+02 
 +4.931954E+02 -1.190908E+00 -4.705555E+00 -1.190908E+00 +8.500488E+02 -2.792040E+01 -4.705555E+00 -2.792040E+01 +3.858885E+02 
 +4.987250E+02 +6.214535E-01 -1.909091E+01 +6.214535E-01 +8.518927E+02 -2.718003E+01 -1.909091E+01 -2.718003E+01 +3.887285E+02 
 +5.069214E+02 -3.157735E+00 -1.745242E+01 -3.157735E+00 +8.743571E+02 -2.099933E+01 -1.745242E+01 -2.099933E+01 +3.899130E+02 
 +4.803319E+02 -1.455416E+01 -5.039664E+00 -1.455416E+01 +8.687559E+02 -1.951734E+01 -5.039664E+00 -1.951734E+01 +3.765409E+02 
 +4.624268E+02 -1.825451E+00 +9.191843E+00 -1.825451E+00 +8.538992E+02 -1.080809E+01 +9.191843E+00 -1.080809E+01 +3.615534E+02 
 +4.673574E+02 +1.289526E+00 +1.772924E+01 +1.289526E+00 +8.589887E+02 -2.732344E+00 +1.772924E+01 -2.732344E+00 +3.616482E+02 
 +4.913185E+02 -2.553856E+00 -1.858114E+01 -2.553856E+00 +8.687129E+02 -3.883374E+00 -1.858114E+01 -3.883374E+00 +3.528633E+02 
 +4.737147E+02 -8.802288E-01 -1.697250E+01 -8.802288E-01 +8.550867E+02 -1.222708E+01 -1.697250E+01 -1.222708E+01 +3.276708E+02 
 +4.812037E+02 +1.510892E+00 -1.548469E+01 +1.510892E+00 +8.483010E+02 -1.680066E+01 -1.548469E+01 -1.680066E+01 +3.424301E+02 
 +4.860244E+02 +3.252665E+00 -9.328088E+00 +3.252665E+00 +8.554151E+02 -1.404520E+01 -9.328088E+00 -1.404520E+01 +3.541558E+02 
 +4.973467E+02 -2.493748E+00 -1.309872E+01 -2.493748E+00 +8.719172E+02 -5.108131E+00 -1.309872E+01 -5.108131E+00 +3.574103E+02 
 +4.760927E+02 +3.537900E+00 +6.664048E+00 +3.537900E+00 +8.717046E+02 +6.332478E+00 +6.664048E+00 +6.332478E+00 +3.618855E+02 
 +4.890714E+02 +7.048584E+00 +1.987645E+01 +7.048584E+00 +8.807825E+02 +9.456106E+00 +1.987645E+01 +9.456106E+00 +3.648107E+02 
 +5.267089E+02 +4.965649E+00 +1.313895E+01 +4.965649E+00 +8.910873E+02 +6.271545E+00 +1.313895E+01 +6.271545E+00 +3.505462E+02 
 +5.250623E+02 +1.724814E+00 +1.650476E+01 +1.724814E+00 +8.809933E+02 +6.106408E+00 +1.650476E+01 +6.106408E+00 +3.496858E+02 
 +4.879886E+02 -6.722136E+00 +1.862739E+01 -6.722136E+00 +8.611412E+02 +2.799453E+00 +1.862739E+01 +2.799453E+00 +3.766659E+02 
 +4.870268E+02 -1.103104E+01 +1.329696E+01 -1.103104E+01 +8.670825E+02 -1.299413E+00 +1.329696E+01 -1.299413E+00 +3.931744E+02 
 +4.670243E+02 -1.136987E+01 +1.256028E+01 -1.136987E+01 +8.583528E+02 -4.394299E+00 +1.256028E+01 -4.394299E+00 +3.695896E+02 
 +4.580059E+02 -5.390944E+00 +1.950699E+01 -5.390944E+00 +8.543190E+02 -1.273769E+01 +1.950699E+01 -1.273769E+01 +3.732374E+02 
 +5.044735E+02 +3.594829E+00 -6.923914E-02 +3.594829E+00 +8.708934E+02 -2.225855E+01 -6.923914E-02 -2.225855E+01 +3.881741E+02 
 +5.032052E+02 +4.976412E+00 -2.563916E+00 +4.976412E+00 +8.555604E+02 -2.437084E+01 -2.563916E+00 -2.437084E+01 +3.827226E+02 
 +5.028698E+02 +3.536717E+00 -5.834860E+00 +3.536717E+00 +8.530245E+02 -2.156284E+01 -5.834860E+00 -2.156284E+01 +4.049884E+02 
 +5.025852E+02 +3.650017E+00 -1.147363E+01 +3.650017E+00 +8.534352E+02 -2.533042E+01 -1.147363E+01 -2.533042E+01 +4.174442E+02 
 +5.067414E+02 +1.523300E-01 -1.863748E+01 +1.523300E-01 +8.518082E+02 -3.098223E+01 -1.863748E+01 -3.098223E+01 +4.193264E+02 
 +4.998126E+02 -1.522067E+01 -9.454963E+00 -1.522067E+01 +8.608920E+02 -2.138623E+01 -9.454963E+00 -2.138623E+01 +4.083015E+02 
 +4.681176E+02 -6.650481E-01 +2.043351E+00 -6.650481E-01 +8.573047E+02 -5.636943E+00 +2.043351E+00 -5.636943E+00 +3.740256E+02 
 +4.591803E+02 +6.688820E+00 +8.658047E+00 +6.688820E+00 +8.532948E+02 -4.693028E+00 +8.658047E+00 -4.693028E+00 +3.579780E+02 
 +4.823826E+02 +1.747186E+00 -1.814454E+01 +1.747186E+00 +8.683278E+02 -8.969505E+00 -1.814454E+01 -8.969505E+00 +3.520505E+02 
 +4.720905E+02 -1.558568E+00 -1.361573E+01 -1.558568E+00 +8.541810E+02 -1.417667E+01 -1.361573E+01 -1.417667E+01 +3.385119E+02 
 +4.647040E+02 -7.533874E+00 -2.316247E+01 -7.533874E+00 +8.298660E+02 -1.495057E+01 -2.316247E+01 -1.495057E+01 +3.572922E+02 
 +4.830587E+02 -1.187435E+00 -1.379367E+01 -1.187435E+00 +8.279423E+02 -8.768866E+00 -1.379367E+01 -8.768866E+00 +3.881437E+02 
 +4.831665E+02 -3.553332E+00 -8.752077E+00 -3.553332E+00 +8.314820E+02 +1.308453E+00 -8.752077E+00 +1.308453E+00 +3.830596E+02 
 +4.777278E+02 +2.506483E+00 +6.043363E+00 +2.506483E+00 +8.348600E+02 +6.275261E+00 +6.043363E+00 +6.275261E+00 +3.715899E+02 
 +4.874844E+02 +7.183748E+00 +1.030760E+01 +7.183748E+00 +8.367036E+02 +7.951250E+00 +1.030760E+01 +7.951250E+00 +3.694272E+02 
 +5.145620E+02 +1.054877E+01 +6.919713E+00 +1.054877E+01 +8.495085E+02 +5.342782E+00 +6.919713E+00 +5.342782E+00 +3.561758E+02 
 +5.211603E+02 +3.837713E+00 +1.782342E+01 +3.837713E+00 +8.686924E+02 +4.765805E-01 +1.782342E+01 +4.765805E-01 +3.528617E+02 
 +4.681305E+02 -5.187931E-02 +2.414353E+01 -5.187931E-02 +8.568767E+02 -3.879375E+00 +2.414353E+01 -3.879375E+00 +3.638722E+02 
 +4.700888E+02 -1.798344E+00 +1.393115E+01 -1.798344E+00 +8.616685E+02 -6.932064E+00 +1.393115E+01 -6.932064E+00 +3.771412E+02 
 +4.631864E+02 -2.790357E+00 +1.231533E+01 -2.790357E+00 +8.576115E+02 -5.363916E+00 +1.231533E+01 -5.363916E+00 +3.637576E+02 
 +4.488082E+02 -1.733297E+00 +2.129379E+01 -1.733297E+00 +8.479449E+02 -1.199562E+01 +2.129379E+01 -1.199562E+01 +3.583718E+02 
 +4.905038E+02 +2.262116E+00 +9.567454E-01 +2.262116E+00 +8.556284E+02 -2.269529E+01 +9.567454E-01 -2.269529E+01 +3.647504E+02 
 +4.894459E+02 +4.313652E+00 +1.865674E+00 +4.313652E+00 +8.436448E+02 -2.031892E+01 +1.865674E+00 -2.031892E+01 +3.664553E+02 
 +4.886248E+02 +5.583727E+00 -5.155681E-01 +5.583727E+00 +8.416754E+02 -1.515671E+01 -5.155681E-01 -1.515671E+01 +3.826218E+02 
 +4.928802E+02 +5.325382E+00 -3.757002E+00 +5.325382E+00 +8.434666E+02 -1.914914E+01 -3.757002E+00 -1.914914E+01 +3.991888E+02 
 +4.969693E+02 +1.953404E+00 -1.203989E+01 +1.953404E+00 +8.372575E+02 -2.596541E+01 -1.203989E+01 -2.596541E+01 +4.133086E+02 
 +4.976209E+02 -1.375371E+00 -1.532890E+01 -1.375371E+00 +8.414231E+02 -2.255486E+01 -1.532890E+01 -2.255486E+01 +4.035846E+02 
 +4.733819E+02 +4.992671E+00 -1.182047E+01 +4.992671E+00 +8.525121E+02 -1.153155E+01 -1.182047E+01 -1.153155E+01 +3.606149E+02 
 +4.629072E+02 +6.919009E+00 -6.189474E+00 +6.919009E+00 +8.598337E+02 -1.335909E+01 -6.189474E+00 -1.335909E+01 +3.416613E+02 
 +4.672575E+02 +6.817798E+00 -7.468863E+00 +6.817798E+00 +8.620720E+02 -1.652747E+01 -7.468863E+00 -1.652747E+01 +3.415346E+02 
 +4.818882E+02 +1.540361E+00 -7.930628E+00 +1.540361E+00 +8.568106E+02 -1.147024E+01 -7.930628E+00 -1.147024E+01 +3.542606E+02 
 +4.221454E+02 -9.091755E+00 -2.438106E+01 -9.091755E+00 +8.172801E+02 -1.143435E+01 -2.438106E+01 -1.143435E+01 +3.548945E+02 
 +4.894886E+02 -1.848941E+00 -2.128494E+00 -1.848941E+00 +8.359725E+02 -7.262094E+00 -2.128494E+00 -7.262094E+00 +3.887337E+02 
 +4.864016E+02 +1.427530E+00 +5.479000E+00 +1.427530E+00 +8.303217E+02 +1.082232E+00 +5.479000E+00 +1.082232E+00 +3.848075E+02 
 +4.961419E+02 +3.782902E+00 +1.063003E+01 +3.782902E+00 +8.331010E+02 +4.496819E+00 +1.063003E+01 +4.496819E+00 +3.767935E+02 
 +5.041126E+02 +3.220795E+00 +1.028869E+01 +3.220795E+00 +8.336035E+02 +6.377831E+00 +1.028869E+01 +6.377831E+00 +3.657611E+02 
 +5.044520E+02 +3.178278E+00 +3.036369E+00 +3.178278E+00 +8.290934E+02 +1.042924E+01 +3.036369E+00 +1.042924E+01 +3.590191E+02 
 +5.088948E+02 +3.542579E+00 +4.478122E+00 +3.542579E+00 +8.367010E+02 +1.196530E+01 +4.478122E+00 +1.196530E+01 +3.627552E+02 
 +4.714217E+02 +2.395338E+00 +1.911144E+01 +2.395338E+00 +8.441910E+02 +5.985215E+00 +1.911144E+01 +5.985215E+00 +3.515417E+02 
 +4.664765E+02 +5.665561E+00 +1.277630E+01 +5.665561E+00 +8.605217E+02 -1.521394E+00 +1.277630E+01 -1.521394E+00 +3.564454E+02 
 +4.545911E+02 +8.907846E+00 +1.408076E+01 +8.907846E+00 +8.565158E+02 -3.644245E+00 +1.408076E+01 -3.644245E+00 +3.590956E+02 
 +4.429394E+02 +6.166289E+00 +1.914841E+01 +6.166289E+00 +8.449641E+02 -1.280312E+01 +1.914841E+01 -1.280312E+01 +3.479471E+02 
 +4.721794E+02 +5.300151E+00 +2.263172E+00 +5.300151E+00 +8.483122E+02 -2.487687E+01 +2.263172E+00 -2.487687E+01 +3.562623E+02 
 +4.751868E+02 +6.101938E+00 +7.279481E+00 +6.101938E+00 +8.396422E+02 -2.147958E+01 +7.279481E+00 -2.147958E+01 +3.687606E+02 
 +4.751334E+02 +4.307073E+00 +6.566385E+00 +4.307073E+00 +8.338072E+02 -1.338125E+01 +6.566385E+00 -1.338125E+01 +3.710032E+02 
 +4.845038E+02 +3.575415E+00 +1.154843E+00 +3.575415E+00 +8.307274E+02 -1.414830E+01 +1.154843E+00 -1.414830E+01 +3.713098E+02 
 +4.871438E+02 +1.261903E+00 -7.220184E+00 +1.261903E+00 +8.336517E+02 -1.725024E+01 -7.220184E+00 -1.725024E+01 +3.693660E+02 
 +4.900533E+02 +7.088378E+00 -1.873427E+01 +7.088378E+00 +8.531359E+02 -1.317537E+01 -1.873427E+01 -1.317537E+01 +3.607972E+02 
 +4.724890E+02 +7.552508E+00 -1.160565E+01 +7.552508E+00 +8.556525E+02 -9.958100E+00 -1.160565E+01 -9.958100E+00 +3.353932E+02 
 +4.691846E+02 +2.679334E+00 -7.231482E+00 +2.679334E+00 +8.577074E+02 -1.080726E+01 -7.231482E+00 -1.080726E+01 +3.291366E+02 
 +4.668431E+02 +2.955515E+00 +5.570962E-01 +2.955515E+00 +8.509682E+02 -1.186908E+01 +5.570962E-01 -1.186908E+01 +3.316927E+02 
 +4.749060E+02 -1.938052E+00 -7.284135E+00 -1.938052E+00 +8.492882E+02 -1.136301E+01 -7.284135E+00 -1.136301E+01 +3.614441E+02 
 +4.208762E+02 -1.213452E+01 -1.669131E+01 -1.213452E+01 +8.243547E+02 -9.467553E+00 -1.669131E+01 -9.467553E+00 +3.658611E+02 
 +4.616031E+02 -2.213022E+00 +2.152757E+00 -2.213022E+00 +8.300440E+02 -6.559482E+00 +2.152757E+00 -6.559482E+00 +3.690269E+02 
 +4.980822E+02 +7.758292E+00 +9.454515E+00 +7.758292E+00 +8.318693E+02 -7.735557E-01 +9.454515E+00 -7.735557E-01 +3.695863E+02 
 +5.054133E+02 +6.298376E+00 +8.880689E+00 +6.298376E+00 +8.360163E+02 +6.397425E+00 +8.880689E+00 +6.397425E+00 +3.714835E+02 
 +5.088375E+02 +6.596113E+00 +7.484904E+00 +6.596113E+00 +8.392010E+02 +4.195164E+00 +7.484904E+00 +4.195164E+00 +3.673186E+02 
 +5.059819E+02 -1.670912E+00 +3.206440E+00 -1.670912E+00 +8.400848E+02 +8.874510E+00 +3.206440E+00 +8.874510E+00 +3.669093E+02 
 +5.063653E+02 +2.336261E+00 +1.525593E+00 +2.336261E+00 +8.449825E+02 +1.289367E+01 +1.525593E+00 +1.289367E+01 +3.708446E+02 
 +4.794163E+02 -6.248736E+00 +1.154942E+01 -6.248736E+00 +8.238763E+02 +2.109820E+00 +1.154942E+01 +2.109820E+00 +3.486862E+02 
 +4.731928E+02 -1.397489E+00 +7.799427E+00 -1.397489E+00 +8.233026E+02 -5.652489E+00 +7.799427E+00 -5.652489E+00 +3.467723E+02 
 +4.344136E+02 +6.794913E+00 +1.407899E+01 +6.794913E+00 +8.243349E+02 -8.733338E+00 +1.407899E+01 -8.733338E+00 +3.464278E+02 
 +4.459697E+02 +5.593613E+00 +8.444604E+00 +5.593613E+00 +8.461806E+02 -1.165892E+01 +8.444604E+00 -1.165892E+01 +3.545925E+02 
 +4.650916E+02 +3.540474E+00 +2.356950E+00 +3.540474E+00 +8.714423E+02 -9.968391E+00 +2.356950E+00 -9.968391E+00 +3.652478E+02 
 +4.805869E+02 +2.456895E+00 +1.502561E+01 +2.456895E+00 +8.864194E+02 -6.389640E+00 +1.502561E+01 -6.389640E+00 +3.846865E+02 
 +4.897478E+02 +5.266981E-01 +1.564925E+01 +5.266981E-01 +8.816137E+02 +1.219903E-01 +1.564925E+01 +1.219903E-01 +3.845854E+02 
 +5.035847E+02 -2.434201E+00 -4.473975E+00 -2.434201E+00 +8.788201E+02 +6.280008E+00 -4.473975E+00 +6.280008E+00 +3.623463E+02 
 +4.959795E+02 -3.839705E+00 -1.208688E+01 -3.839705E+00 +8.719590E+02 +7.757223E+00 -1.208688E+01 +7.757223E+00 +3.433778E+02 
 +4.837473E+02 +2.011198E+00 -1.584232E+01 +2.011198E+00 +8.609398E+02 +6.641967E+00 -1.584232E+01 +6.641967E+00 +3.316467E+02 
 +4.729018E+02 +5.036253E+00 -6.093531E+00 +5.036253E+00 +8.508648E+02 -7.210247E-01 -6.093531E+00 -7.210247E-01 +3.178403E+02 
 +4.796207E+02 +1.604512E+00 -2.482047E+00 +1.604512E+00 +8.521846E+02 -7.064850E+00 -2.482047E+00 -7.064850E+00 +3.206091E+02 
 +4.895989E+02 +1.944725E+00 +2.304793E+00 +1.944725E+00 +8.544453E+02 -7.937887E+00 +2.304793E+00 -7.937887E+00 +3.366848E+02 
 +4.636736E+02 -9.182655E+00 -6.540790E+00 -9.182655E+00 +8.393490E+02 -3.920227E+00 -6.540790E+00 -3.920227E+00 +3.587472E+02 
 +4.395731E+02 -1.383810E+01 -1.335201E+01 -1.383810E+01 +8.327903E+02 -6.652484E+00 -1.335201E+01 -6.652484E+00 +3.706083E+02 
 +4.577377E+02 -9.141914E+00 -2.902137E+00 -9.141914E+00 +8.392258E+02 -4.755675E+00 -2.902137E+00 -4.755675E+00 +3.639279E+02 
 +5.153099E+02 +9.215900E+00 +8.006108E+00 +9.215900E+00 +8.468762E+02 +4.309092E+00 +8.006108E+00 +4.309092E+00 +3.726033E+02 
 +5.032460E+02 +1.126631E+01 +4.162079E+00 +1.126631E+01 +8.303835E+02 +8.867338E+00 +4.162079E+00 +8.867338E+00 +3.690605E+02 
 +5.064074E+02 +9.402273E+00 +5.156746E+00 +9.402273E+00 +8.415066E+02 +7.349519E+00 +5.156746E+00 +7.349519E+00 +3.732859E+02 
 +5.017386E+02 +1.008909E+00 +6.971253E+00 +1.008909E+00 +8.453501E+02 +1.193902E+01 +6.971253E+00 +1.193902E+01 +3.731823E+02 
 +4.987310E+02 +8.641344E+00 +8.282409E+00 +8.641344E+00 +8.457025E+02 +1.202705E+01 +8.282409E+00 +1.202705E+01 +3.672111E+02 
 +4.885681E+02 -5.047953E+00 +1.278359E+01 -5.047953E+00 +8.336468E+02 -7.449558E-01 +1.278359E+01 -7.449558E-01 +3.549257E+02 
 +4.916806E+02 -2.388464E+00 +9.074791E+00 -2.388464E+00 +8.337426E+02 -5.542387E+00 +9.074791E+00 -5.542387E+00 +3.598485E+02 
 +4.451202E+02 +5.962420E-01 +1.077252E+01 +5.962420E-01 +8.220027E+02 -5.363225E+00 +1.077252E+01 -5.363225E+00 +3.542863E+02 
 +4.478966E+02 -1.625803E+00 +3.347091E+00 -1.625803E+00 +8.455593E+02 -5.185423E+00 +3.347091E+00 -5.185423E+00 +3.663310E+02 
 +4.526949E+02 -1.302944E+00 +2.071606E+00 -1.302944E+00 +8.629289E+02 -3.787848E+00 +2.071606E+00 -3.787848E+00 +3.685162E+02 
 +4.683065E+02 -1.419155E+00 +1.319210E+01 -1.419155E+00 +8.798517E+02 -5.839831E+00 +1.319210E+01 -5.839831E+00 +3.858947E+02 
 +4.859627E+02 +2.573924E-01 +1.728524E+01 +2.573924E-01 +8.909283E+02 -4.539858E+00 +1.728524E+01 -4.539858E+00 +3.966473E+02 
 +5.005421E+02 -5.097986E-01 -9.997910E-01 -5.097986E-01 +8.926291E+02 +4.903877E+00 -9.997910E-01 +4.903877E+00 +3.692463E+02 
 +4.916048E+02 -3.110115E+00 -4.603475E+00 -3.110115E+00 +8.842808E+02 +1.097545E+01 -4.603475E+00 +1.097545E+01 +3.462801E+02 
 +4.848944E+02 -3.500241E+00 -5.144780E+00 -3.500241E+00 +8.740976E+02 +9.906358E+00 -5.144780E+00 +9.906358E+00 +3.410881E+02 
 +4.960526E+02 -1.021661E+00 -4.492102E+00 -1.021661E+00 +8.636540E+02 +1.462358E-01 -4.492102E+00 +1.462358E-01 +3.281923E+02 
 +4.943545E+02 -5.737333E+00 +6.213423E-01 -5.737333E+00 +8.490461E+02 -7.620501E+00 +6.213423E-01 -7.620501E+00 +3.190066E+02 
 +5.030294E+02 -6.728731E+00 +5.422903E+00 -6.728731E+00 +8.549956E+02 -5.204538E+00 +5.422903E+00 -5.204538E+00 +3.411276E+02 
 +4.805089E+02 -4.176494E+00 -1.613792E+00 -4.176494E+00 +8.334790E+02 -2.653825E-02 -1.613792E+00 -2.653825E-02 +3.551698E+02 
 +4.309090E+02 -5.048306E+00 -1.626367E+01 -5.048306E+00 +8.058236E+02 -8.318861E-01 -1.626367E+01 -8.318861E-01 +3.443448E+02 
 +4.517477E+02 -1.572321E+00 -1.181719E+01 -1.572321E+00 +8.038797E+02 +1.403543E+00 -1.181719E+01 +1.403543E+00 +3.433221E+02 
 +4.935892E+02 +1.121402E+01 +6.762583E+00 +1.121402E+01 +8.250896E+02 +7.047580E+00 +6.762583E+00 +7.047580E+00 +3.610800E+02 
 +4.997886E+02 +1.488717E+01 +5.554566E+00 +1.488717E+01 +8.332024E+02 +1.231814E+01 +5.554566E+00 +1.231814E+01 +3.749266E+02 
 +5.021911E+02 +1.345532E+01 +5.852248E+00 +1.345532E+01 +8.412200E+02 +9.661572E+00 +5.852248E+00 +9.661572E+00 +3.796047E+02 
 +4.982149E+02 +4.140198E+00 +7.872663E+00 +4.140198E+00 +8.492654E+02 +1.104642E+01 +7.872663E+00 +1.104642E+01 +3.798647E+02 
 +5.016316E+02 +7.499244E+00 +1.120820E+01 +7.499244E+00 +8.524244E+02 +8.320249E+00 +1.120820E+01 +8.320249E+00 +3.754432E+02 
 +4.910949E+02 -7.472436E+00 +1.642231E+01 -7.472436E+00 +8.443506E+02 -4.686131E+00 +1.642231E+01 -4.686131E+00 +3.612596E+02 
 +4.796560E+02 -3.768907E+00 +1.243166E+01 -3.768907E+00 +8.394424E+02 -7.833555E+00 +1.243166E+01 -7.833555E+00 +3.607646E+02 
 +4.584077E+02 +4.034573E-01 +8.074084E+00 +4.034573E-01 +8.358296E+02 -2.909238E+00 +8.074084E+00 -2.909238E+00 +3.688025E+02 
 +4.532834E+02 -2.435014E+00 +5.299552E+00 -2.435014E+00 +8.475265E+02 -3.962366E+00 +5.299552E+00 -3.962366E+00 +3.750547E+02 
 +4.567922E+02 -3.865955E+00 +5.452599E+00 -3.865955E+00 +8.601085E+02 -4.360160E+00 +5.452599E+00 -4.360160E+00 +3.807739E+02 
 +4.636876E+02 -3.410616E+00 +7.762986E+00 -3.410616E+00 +8.693511E+02 -5.593444E+00 +7.762986E+00 -5.593444E+00 +3.816670E+02 
 +4.732346E+02 -2.032241E+00 +1.806331E+01 -2.032241E+00 +8.811248E+02 -9.815939E+00 +1.806331E+01 -9.815939E+00 +3.872191E+02 
 +4.930866E+02 -2.311057E+00 +1.260881E+01 -2.311057E+00 +8.933519E+02 -8.390191E+00 +1.260881E+01 -8.390191E+00 +3.905625E+02 
 +4.907749E+02 -4.234193E+00 +1.582177E+01 -4.234193E+00 +8.907957E+02 -5.667400E+00 +1.582177E+01 -5.667400E+00 +3.852607E+02 
 +4.748166E+02 -8.599535E+00 +1.659429E+01 -8.599535E+00 +8.720349E+02 -5.409255E-01 +1.659429E+01 -5.409255E-01 +3.674041E+02 
 +5.138267E+02 -9.207407E+00 +7.623638E+00 -9.207407E+00 +8.680297E+02 +1.857832E+00 +7.623638E+00 +1.857832E+00 +3.452110E+02 
 +5.116782E+02 -1.113882E+01 +1.477035E+01 -1.113882E+01 +8.515763E+02 -3.121559E+00 +1.477035E+01 -3.121559E+00 +3.308672E+02 
 +5.089257E+02 -9.184791E+00 +1.891167E+01 -9.184791E+00 +8.463271E+02 -1.486341E+00 +1.891167E+01 -1.486341E+00 +3.469908E+02 
 +4.921738E+02 -9.559494E+00 +2.018633E+00 -9.559494E+00 +8.339946E+02 +3.877977E+00 +2.018633E+00 +3.877977E+00 +3.470593E+02 
 +4.719702E+02 -1.160757E+01 -1.182980E+01 -1.160757E+01 +8.282134E+02 +3.350200E+00 -1.182980E+01 +3.350200E+00 +3.425982E+02 
 +4.723108E+02 -9.719559E+00 -1.846483E+01 -9.719559E+00 +8.340320E+02 +6.322500E+00 -1.846483E+01 +6.322500E+00 +3.500850E+02 
 +4.840117E+02 +4.645600E+00 +1.124748E+01 +4.645600E+00 +8.304061E+02 +7.329906E+00 +1.124748E+01 +7.329906E+00 +3.587622E+02 
 +4.808067E+02 +1.194919E+01 +1.808519E+01 +1.194919E+01 +8.211764E+02 +1.411834E+01 +1.808519E+01 +1.411834E+01 +3.608378E+02 
 +4.932975E+02 +1.455433E+01 +1.094893E+01 +1.455433E+01 +8.369948E+02 +1.467682E+01 +1.094893E+01 +1.467682E+01 +3.744206E+02 
 +4.989312E+02 +4.565096E+00 +9.890356E+00 +4.565096E+00 +8.555264E+02 +1.104197E+01 +9.890356E+00 +1.104197E+01 +3.889543E+02 
 +5.032185E+02 +5.471142E+00 +1.397501E+01 +5.471142E+00 +8.614149E+02 +3.896644E+00 +1.397501E+01 +3.896644E+00 +3.853110E+02 
 +4.961725E+02 -7.435592E+00 +1.731544E+01 -7.435592E+00 +8.526182E+02 -4.599105E+00 +1.731544E+01 -4.599105E+00 +3.653033E+02 
 +4.691324E+02 +9.129970E-01 +1.350459E+01 +9.129970E-01 +8.453844E+02 -3.597272E+00 +1.350459E+01 -3.597272E+00 +3.612470E+02 
 +4.576453E+02 +4.475577E+00 +9.294555E+00 +4.475577E+00 +8.508966E+02 -3.170639E+00 +9.294555E+00 -3.170639E+00 +3.763640E+02 
 +4.581107E+02 -1.525035E+00 +9.362966E+00 -1.525035E+00 +8.546684E+02 -6.347790E+00 +9.362966E+00 -6.347790E+00 +3.831178E+02 
 +4.660490E+02 -6.767243E+00 +1.464978E+01 -6.767243E+00 +8.664027E+02 -6.698986E+00 +1.464978E+01 -6.698986E+00 +3.966111E+02 
 +4.670525E+02 -7.380048E+00 +9.255145E+00 -7.380048E+00 +8.725364E+02 -5.192432E+00 +9.255145E+00 -5.192432E+00 +3.888389E+02 
 +4.683376E+02 -6.615896E+00 +1.789864E+01 -6.615896E+00 +8.763109E+02 -7.909810E+00 +1.789864E+01 -7.909810E+00 +3.814396E+02 
 +4.800404E+02 -6.799573E+00 +1.777755E+01 -6.799573E+00 +8.846442E+02 -1.197825E+01 +1.777755E+01 -1.197825E+01 +3.880595E+02 
 +4.870831E+02 -6.042987E+00 +1.988010E+01 -6.042987E+00 +8.925259E+02 -1.419436E+01 +1.988010E+01 -1.419436E+01 +3.980680E+02 
 +4.916384E+02 -8.905828E+00 +2.137348E+01 -8.905828E+00 +8.846869E+02 -1.617110E+01 +2.137348E+01 -1.617110E+01 +3.855254E+02 
 +5.177336E+02 -5.909165E+00 +2.577007E+01 -5.909165E+00 +8.666357E+02 -7.395044E+00 +2.577007E+01 -7.395044E+00 +3.492681E+02 
 +5.121136E+02 -6.259620E+00 +2.689412E+01 -6.259620E+00 +8.430901E+02 +3.147659E+00 +2.689412E+01 +3.147659E+00 +3.327815E+02 
 +5.193194E+02 -8.823317E+00 +3.077318E+01 -8.823317E+00 +8.479753E+02 +6.602420E+00 +3.077318E+01 +6.602420E+00 +3.510739E+02 
 +4.977078E+02 -1.318359E+01 +7.732432E+00 -1.318359E+01 +8.351521E+02 +2.939336E+00 +7.732432E+00 +2.939336E+00 +3.295803E+02 
 +4.987081E+02 -1.284010E+01 +1.237686E+00 -1.284010E+01 +8.368531E+02 +3.042022E+00 +1.237686E+00 +3.042022E+00 +3.399764E+02 
 +4.882048E+02 -1.517068E+01 +2.038681E+00 -1.517068E+01 +8.457398E+02 +7.517097E+00 +2.038681E+00 +7.517097E+00 +3.525537E+02 
 +4.914531E+02 -1.409912E+00 +2.105291E+01 -1.409912E+00 +8.606042E+02 +8.670349E+00 +2.105291E+01 +8.670349E+00 +3.619589E+02 
 +4.827774E+02 +4.091157E+00 +3.359661E+01 +4.091157E+00 +8.526875E+02 +1.294138E+01 +3.359661E+01 +1.294138E+01 +3.545346E+02 
 +5.032068E+02 +1.213970E+01 +1.521868E+01 +1.213970E+01 +8.538276E+02 +1.644536E+01 +1.521868E+01 +1.644536E+01 +3.704264E+02 
 +5.026164E+02 +1.049782E+01 +1.334520E+01 +1.049782E+01 +8.556622E+02 +1.302243E+01 +1.334520E+01 +1.302243E+01 +3.847772E+02 
 +5.034871E+02 +1.063191E+01 +1.603969E+01 +1.063191E+01 +8.654266E+02 +5.868489E+00 +1.603969E+01 +5.868489E+00 +3.876007E+02 
 +4.958953E+02 -5.928797E+00 +1.808165E+01 -5.928797E+00 +8.613668E+02 -7.047955E-01 +1.808165E+01 -7.047955E-01 +3.747460E+02 
 +4.495665E+02 +8.875805E-01 +1.930678E+01 +8.875805E-01 +8.418038E+02 +1.540597E+00 +1.930678E+01 +1.540597E+00 +3.608531E+02 
 +4.537164E+02 -2.468433E-01 +1.416754E+01 -2.468433E-01 +8.552377E+02 -2.403518E+00 +1.416754E+01 -2.403518E+00 +3.864444E+02 
 +4.591889E+02 -2.829481E+00 +1.787238E+01 -2.829481E+00 +8.596659E+02 -6.247787E+00 +1.787238E+01 -6.247787E+00 +3.943838E+02 
 +4.648133E+02 -5.625667E+00 +1.765501E+01 -5.625667E+00 +8.673952E+02 -6.291320E+00 +1.765501E+01 -6.291320E+00 +3.971476E+02 
 +4.675074E+02 -8.459442E+00 +1.125634E+01 -8.459442E+00 +8.759853E+02 -8.146589E+00 +1.125634E+01 -8.146589E+00 +3.976461E+02 
 +4.640879E+02 -1.189678E+01 +1.316175E+01 -1.189678E+01 +8.729934E+02 -8.063036E+00 +1.316175E+01 -8.063036E+00 +3.859614E+02 
 +4.749186E+02 -1.106165E+01 +1.789468E+01 -1.106165E+01 +8.759084E+02 -7.009558E+00 +1.789468E+01 -7.009558E+00 +3.791426E+02 
 +4.789452E+02 -6.881619E+00 +1.858253E+01 -6.881619E+00 +8.719953E+02 -2.847841E+00 +1.858253E+01 -2.847841E+00 +3.827994E+02 
 +5.119956E+02 -1.245078E+01 +1.023820E+01 -1.245078E+01 +8.723850E+02 -3.642684E+00 +1.023820E+01 -3.642684E+00 +3.835564E+02 
 +5.089897E+02 -1.025540E+01 +3.028581E+01 -1.025540E+01 +8.538448E+02 -1.064543E+00 +3.028581E+01 -1.064543E+00 +3.485357E+02 
 +5.074365E+02 -9.272908E+00 +2.253278E+01 -9.272908E+00 +8.438084E+02 +5.335571E+00 +2.253278E+01 +5.335571E+00 +3.337082E+02 
 +5.058683E+02 -9.832090E+00 +2.253910E+01 -9.832090E+00 +8.407395E+02 +5.343733E+00 +2.253910E+01 +5.343733E+00 +3.307726E+02 
 +5.092474E+02 -4.639379E+00 +8.442218E+00 -4.639379E+00 +8.427526E+02 +7.593289E+00 +8.442218E+00 +7.593289E+00 +3.319114E+02 
 +5.049304E+02 -6.428229E+00 +1.341464E+01 -6.428229E+00 +8.500153E+02 +1.986531E+00 +1.341464E+01 +1.986531E+00 +3.439811E+02 
 +5.053567E+02 -1.334634E+01 +2.484258E+01 -1.334634E+01 +8.598282E+02 -4.859743E-01 +2.484258E+01 -4.859743E-01 +3.561610E+02 
 +4.848360E+02 -1.935166E+00 +2.812417E+01 -1.935166E+00 +8.595616E+02 +9.560682E-01 +2.812417E+01 +9.560682E-01 +3.587930E+02 
 +4.806464E+02 +1.670254E+00 +3.605957E+01 +1.670254E+00 +8.588822E+02 +9.932842E+00 +3.605957E+01 +9.932842E+00 +3.553255E+02 
 +5.162354E+02 +9.083568E+00 +1.161835E+01 +9.083568E+00 +8.680654E+02 +1.554751E+01 +1.161835E+01 +1.554751E+01 +3.685286E+02 
 +5.130089E+02 +1.160134E+01 +1.690054E+01 +1.160134E+01 +8.612621E+02 +1.053638E+01 +1.690054E+01 +1.053638E+01 +3.767321E+02 
 +5.045446E+02 +1.333354E+01 +1.929794E+01 +1.333354E+01 +8.597807E+02 +3.766485E+00 +1.929794E+01 +3.766485E+00 +3.825629E+02 
 +4.752764E+02 +6.980433E-01 +9.568118E+00 +6.980433E-01 +8.591124E+02 +1.887143E+00 +9.568118E+00 +1.887143E+00 +3.671548E+02 
 +4.239307E+02 +5.266555E+00 +2.346601E+01 +5.266555E+00 +8.476189E+02 +5.334472E+00 +2.346601E+01 +5.334472E+00 +3.508869E+02 
 +4.529866E+02 -2.515310E+00 +1.841450E+01 -2.515310E+00 +8.650554E+02 +6.654090E+00 +1.841450E+01 +6.654090E+00 +3.885024E+02 
 +4.638741E+02 -4.442948E+00 +2.666441E+01 -4.442948E+00 +8.689341E+02 +3.543442E-01 +2.666441E+01 +3.543442E-01 +4.032292E+02 
 +4.664798E+02 -5.393684E+00 +2.089793E+01 -5.393684E+00 +8.740857E+02 -3.735837E+00 +2.089793E+01 -3.735837E+00 +4.024951E+02 
 +4.705062E+02 -7.280949E+00 +1.614906E+01 -7.280949E+00 +8.808315E+02 -7.162290E+00 +1.614906E+01 -7.162290E+00 +4.079652E+02 
 +4.673728E+02 -1.070596E+01 +1.669667E+01 -1.070596E+01 +8.745432E+02 -6.953433E+00 +1.669667E+01 -6.953433E+00 +3.998916E+02 
 +4.894662E+02 -3.399084E+00 +2.741394E+01 -3.399084E+00 +8.757920E+02 +5.956243E+00 +2.741394E+01 +5.956243E+00 +3.861471E+02 
 +4.898273E+02 -1.415781E+00 +2.701262E+01 -1.415781E+00 +8.674010E+02 +1.655723E+01 +2.701262E+01 +1.655723E+01 +3.787603E+02 
 +5.288396E+02 -1.033163E+01 +4.745866E+00 -1.033163E+01 +8.770831E+02 +8.982976E+00 +4.745866E+00 +8.982976E+00 +3.875089E+02 
 +5.068204E+02 -6.980979E+00 +2.368597E+01 -6.980979E+00 +8.537836E+02 +5.441461E+00 +2.368597E+01 +5.441461E+00 +3.537657E+02 
 +5.078675E+02 -6.045706E+00 +1.399589E+01 -6.045706E+00 +8.505182E+02 +9.625108E+00 +1.399589E+01 +9.625108E+00 +3.404469E+02 
 +5.035963E+02 -9.359431E-01 +9.887220E+00 -9.359431E-01 +8.407562E+02 +1.169575E+01 +9.887220E+00 +1.169575E+01 +3.272270E+02 
 +5.091984E+02 -4.382859E+00 +1.095425E+01 -4.382859E+00 +8.540293E+02 +1.463602E+01 +1.095425E+01 +1.463602E+01 +3.363261E+02 
 +5.078566E+02 -5.143383E+00 +2.117959E+01 -5.143383E+00 +8.584718E+02 +4.397924E+00 +2.117959E+01 +4.397924E+00 +3.401450E+02 
 +5.033880E+02 -9.838082E+00 +2.982736E+01 -9.838082E+00 +8.629678E+02 -1.341961E+00 +2.982736E+01 -1.341961E+00 +3.457211E+02 
 +4.854002E+02 +2.441511E+00 +3.082106E+01 +2.441511E+00 +8.605933E+02 -3.454229E-01 +3.082106E+01 -3.454229E-01 +3.518419E+02 
 +4.855187E+02 +1.871564E+00 +3.142081E+01 +1.871564E+00 +8.623683E+02 +3.785215E+00 +3.142081E+01 +3.785215E+00 +3.605279E+02 
 +5.228679E+02 +7.314991E+00 +9.794050E+00 +7.314991E+00 +8.776511E+02 +9.353909E+00 +9.794050E+00 +9.353909E+00 +3.789774E+02 
 +5.224864E+02 +1.016082E+01 +2.035273E+01 +1.016082E+01 +8.707977E+02 +7.430665E+00 +2.035273E+01 +7.430665E+00 +3.841166E+02 
 +5.011450E+02 +9.924301E+00 +1.345436E+01 +9.924301E+00 +8.631084E+02 -2.130749E+00 +1.345436E+01 -2.130749E+00 +3.735808E+02 
 +4.643046E+02 +3.013840E+00 +2.287090E-01 +3.013840E+00 +8.647608E+02 -6.796581E-02 +2.287090E-01 -6.796581E-02 +3.547150E+02 
 +4.258563E+02 +6.805537E+00 +2.228106E+01 +6.805537E+00 +8.575372E+02 +6.607480E+00 +2.228106E+01 +6.607480E+00 +3.558085E+02 
 +4.305948E+02 +3.589341E+00 +2.124479E+01 +3.589341E+00 +8.575616E+02 +9.767988E+00 +2.124479E+01 +9.767988E+00 +3.736306E+02 
 +4.627066E+02 +2.019692E+00 +2.554524E+01 +2.019692E+00 +8.761812E+02 +3.663968E+00 +2.554524E+01 +3.663968E+00 +4.016680E+02 
 +4.730805E+02 +1.358876E+00 +2.966091E+01 +1.358876E+00 +8.837068E+02 -4.453111E+00 +2.966091E+01 -4.453111E+00 +4.175552E+02 
 +4.800633E+02 -8.420475E-01 +2.709533E+01 -8.420475E-01 +8.887291E+02 -2.576181E+00 +2.709533E+01 -2.576181E+00 +4.211621E+02 
 +4.839190E+02 -7.341066E+00 +2.755133E+01 -7.341066E+00 +8.889741E+02 -1.813280E+00 +2.755133E+01 -1.813280E+00 +4.189261E+02 
 +5.146592E+02 -2.926755E+00 +4.198910E+01 -2.926755E+00 +8.947707E+02 +2.559666E+00 +4.198910E+01 +2.559666E+00 +4.040673E+02 
 +5.107816E+02 -4.522637E+00 +3.231608E+01 -4.522637E+00 +8.763316E+02 +1.177947E+01 +3.231608E+01 +1.177947E+01 +3.873821E+02 
 +5.317288E+02 -1.237211E+01 +1.095315E+00 -1.237211E+01 +8.730460E+02 +1.069163E+01 +1.095315E+00 +1.069163E+01 +3.917200E+02 
 +5.106822E+02 -3.101146E+00 +1.430905E+01 -3.101146E+00 +8.550436E+02 +5.603349E+00 +1.430905E+01 +5.603349E+00 +3.659287E+02 
 +5.079601E+02 -2.884649E+00 +7.371627E+00 -2.884649E+00 +8.507362E+02 +9.157355E+00 +7.371627E+00 +9.157355E+00 +3.473222E+02 
 +5.109658E+02 +3.744036E-01 +5.113295E+00 +3.744036E-01 +8.496024E+02 +1.659869E+01 +5.113295E+00 +1.659869E+01 +3.347900E+02 
 +5.030714E+02 +2.940751E+00 +1.413452E+01 +2.940751E+00 +8.521914E+02 +1.181992E+01 +1.413452E+01 +1.181992E+01 +3.270344E+02 
 +5.032784E+02 +3.242833E+00 +2.100820E+01 +3.242833E+00 +8.567257E+02 +4.219700E+00 +2.100820E+01 +4.219700E+00 +3.291046E+02 
 +4.980737E+02 -3.027801E+00 +3.016291E+01 -3.027801E+00 +8.662943E+02 +2.616989E+00 +3.016291E+01 +2.616989E+00 +3.321731E+02 
 +4.808417E+02 +2.367161E+00 +2.982051E+01 +2.367161E+00 +8.657488E+02 +2.737414E+00 +2.982051E+01 +2.737414E+00 +3.367637E+02 
 +4.904268E+02 -3.394011E+00 +2.560602E+01 -3.394011E+00 +8.678463E+02 +2.116446E+00 +2.560602E+01 +2.116446E+00 +3.620579E+02 
 +5.324387E+02 +4.146918E+00 +9.004242E+00 +4.146918E+00 +8.933232E+02 +5.376083E+00 +9.004242E+00 +5.376083E+00 +3.978561E+02 
 +5.222570E+02 +2.765816E+00 +1.704389E+01 +2.765816E+00 +8.944979E+02 +4.858096E+00 +1.704389E+01 +4.858096E+00 +3.942959E+02 
 +4.870759E+02 +1.523624E+00 -1.497702E+00 +1.523624E+00 +8.752843E+02 -4.465521E+00 -1.497702E+00 -4.465521E+00 +3.634754E+02 
 +4.526623E+02 -6.563747E+00 +1.781840E+00 -6.563747E+00 +8.509306E+02 -3.271997E+00 +1.781840E+00 -3.271997E+00 +3.479573E+02 
 +4.442824E+02 -5.602215E+00 +1.612335E+01 -5.602215E+00 +8.479495E+02 +3.410413E-01 +1.612335E+01 +3.410413E-01 +3.682955E+02 
 +4.290608E+02 +7.281921E-01 +2.099285E+01 +7.281921E-01 +8.470359E+02 -5.320824E+00 +2.099285E+01 -5.320824E+00 +3.717645E+02 
 +4.505428E+02 +7.345887E+00 +2.004874E+01 +7.345887E+00 +8.662112E+02 -8.690500E+00 +2.004874E+01 -8.690500E+00 +3.961040E+02 
 +4.743326E+02 +7.246853E+00 +3.294417E+01 +7.246853E+00 +8.855735E+02 -7.012589E+00 +3.294417E+01 -7.012589E+00 +4.213925E+02 
 +4.875763E+02 +5.370344E+00 +3.249978E+01 +5.370344E+00 +8.935879E+02 -2.824256E+00 +3.249978E+01 -2.824256E+00 +4.236576E+02 
 +4.966171E+02 -8.017222E-01 +3.593873E+01 -8.017222E-01 +8.962985E+02 +2.507146E+00 +3.593873E+01 +2.507146E+00 +4.262287E+02 
 +5.226827E+02 +1.350905E+00 +4.770366E+01 +1.350905E+00 +8.921269E+02 +7.308465E+00 +4.770366E+01 +7.308465E+00 +4.077559E+02 
 +5.123744E+02 -3.389807E+00 +2.377823E+01 -3.389807E+00 +8.644468E+02 +1.233238E+01 +2.377823E+01 +1.233238E+01 +3.884315E+02 
 +5.290636E+02 -1.212532E+01 -6.257799E+00 -1.212532E+01 +8.594902E+02 +1.213290E+01 -6.257799E+00 +1.213290E+01 +3.899654E+02 
 +5.081075E+02 +3.517056E+00 +4.060775E+00 +3.517056E+00 +8.418900E+02 +6.636806E+00 +4.060775E+00 +6.636806E+00 +3.595013E+02 
 +5.098877E+02 +3.580188E+00 -6.304838E+00 +3.580188E+00 +8.503646E+02 +5.128324E+00 -6.304838E+00 +5.128324E+00 +3.518370E+02 
 +5.050796E+02 +7.238930E+00 +1.359850E+00 +7.238930E+00 +8.530257E+02 +1.189178E+01 +1.359850E+00 +1.189178E+01 +3.372413E+02 
 +5.015970E+02 +3.837869E-01 +1.262176E+01 +3.837869E-01 +8.600696E+02 +7.795589E+00 +1.262176E+01 +7.795589E+00 +3.301936E+02 
 +4.983834E+02 +1.527240E+00 +1.985651E+01 +1.527240E+00 +8.640565E+02 +5.486232E+00 +1.985651E+01 +5.486232E+00 +3.238708E+02 
 +4.941286E+02 -3.962475E+00 +3.188546E+01 -3.962475E+00 +8.724578E+02 +5.244585E+00 +3.188546E+01 +5.244585E+00 +3.272406E+02 
 +4.964983E+02 +4.728977E+00 +2.411946E+01 +4.728977E+00 +8.808881E+02 +7.541467E+00 +2.411946E+01 +7.541467E+00 +3.422647E+02 
 +4.893069E+02 -1.992469E+00 +1.136583E+01 -1.992469E+00 +8.784332E+02 -3.748222E+00 +1.136583E+01 -3.748222E+00 +3.642347E+02 
 +5.085481E+02 +4.751696E+00 +4.502162E+00 +4.751696E+00 +8.927029E+02 -1.177923E+01 +4.502162E+00 -1.177923E+01 +3.813031E+02 
 +4.878673E+02 -6.060057E+00 +9.997819E+00 -6.060057E+00 +8.843243E+02 -6.239711E+00 +9.997819E+00 -6.239711E+00 +3.662861E+02 
 +4.643963E+02 -6.230801E+00 +1.025555E-03 -6.230801E+00 +8.596602E+02 -1.815548E+00 +1.025555E-03 -1.815548E+00 +3.475835E+02 
 +4.480988E+02 -1.084912E+01 +5.192719E+00 -1.084912E+01 +8.454072E+02 -6.605339E+00 +5.192719E+00 -6.605339E+00 +3.504371E+02 
 +4.540189E+02 -1.194105E+01 +1.471348E+01 -1.194105E+01 +8.499830E+02 -1.648183E+01 +1.471348E+01 -1.648183E+01 +3.714851E+02 
 +4.615519E+02 -9.036931E+00 +1.894520E+01 -9.036931E+00 +8.547135E+02 -1.947274E+01 +1.894520E+01 -1.947274E+01 +3.783058E+02 
 +4.538741E+02 +1.587216E+00 +2.039559E+01 +1.587216E+00 +8.602337E+02 -1.474591E+01 +2.039559E+01 -1.474591E+01 +3.960904E+02 
 +4.728584E+02 +5.612742E+00 +3.072769E+01 +5.612742E+00 +8.832132E+02 -8.940839E+00 +3.072769E+01 -8.940839E+00 +4.252827E+02 
 +4.980378E+02 -2.284074E-01 +2.697068E+01 -2.284074E-01 +8.983467E+02 -9.136760E+00 +2.697068E+01 -9.136760E+00 +4.346752E+02 
 +5.214571E+02 -3.493055E+00 +3.163380E+01 -3.493055E+00 +9.003732E+02 -4.345074E+00 +3.163380E+01 -4.345074E+00 +4.307461E+02 
 +5.355477E+02 +1.039056E+00 +3.428705E+01 +1.039056E+00 +8.940702E+02 -2.018889E+00 +3.428705E+01 -2.018889E+00 +4.031244E+02 
 +5.294403E+02 +4.470611E-01 +1.368942E+01 +4.470611E-01 +8.747958E+02 +2.652410E+00 +1.368942E+01 +2.652410E+00 +3.897905E+02 
 +5.251296E+02 -1.867819E+00 -2.092132E+01 -1.867819E+00 +8.559591E+02 +9.436669E+00 -2.092132E+01 +9.436669E+00 +3.768850E+02 
 +4.970355E+02 +1.514512E+01 -1.567485E+01 +1.514512E+01 +8.346745E+02 +6.480246E+00 -1.567485E+01 +6.480246E+00 +3.353317E+02 
 +4.997374E+02 +1.071461E+01 -2.989209E+01 +1.071461E+01 +8.504757E+02 +3.779240E+00 -2.989209E+01 +3.779240E+00 +3.409784E+02 
 +5.057764E+02 +7.589211E+00 -1.043345E+01 +7.589211E+00 +8.646615E+02 +5.820782E+00 -1.043345E+01 +5.820782E+00 +3.487728E+02 
 +5.007054E+02 -1.683571E+00 +2.991502E+01 -1.683571E+00 +8.390768E+02 +4.899445E+00 +2.991502E+01 +4.899445E+00 +3.107171E+02 
 +5.024775E+02 +4.189042E+00 +3.990879E+01 +4.189042E+00 +8.610527E+02 +1.361017E+01 +3.990879E+01 +1.361017E+01 +3.140717E+02 
 +4.971209E+02 +5.673043E+00 +4.396040E+01 +5.673043E+00 +8.646079E+02 +1.671426E+01 +4.396040E+01 +1.671426E+01 +3.295518E+02 
 +4.934272E+02 +1.044159E+01 +1.186201E+01 +1.044159E+01 +8.634479E+02 +4.824998E+00 +1.186201E+01 +4.824998E+00 +3.459124E+02 
 +4.585482E+02 -6.010002E+00 -3.864560E+00 -6.010002E+00 +8.712169E+02 -1.685323E+01 -3.864560E+00 -1.685323E+01 +3.779585E+02 
 +4.677292E+02 -4.383504E+00 +5.524212E-01 -4.383504E+00 +8.917960E+02 -2.259093E+01 +5.524212E-01 -2.259093E+01 +3.958943E+02 
 +4.687113E+02 -1.112181E+01 +2.136668E+01 -1.112181E+01 +8.729583E+02 -1.551219E+01 +2.136668E+01 -1.551219E+01 +3.644660E+02 
 +4.718536E+02 -1.181082E+01 +1.777430E+01 -1.181082E+01 +8.618460E+02 -1.072263E+01 +1.777430E+01 -1.072263E+01 +3.489342E+02 
 +4.675247E+02 -1.212477E+01 +6.786237E+00 -1.212477E+01 +8.538002E+02 -9.006985E+00 +6.786237E+00 -9.006985E+00 +3.524328E+02 
 +4.716791E+02 -1.509854E+01 +7.040843E+00 -1.509854E+01 +8.549153E+02 -1.269015E+01 +7.040843E+00 -1.269015E+01 +3.702457E+02 
 +4.719189E+02 -1.710549E+01 +1.204396E+00 -1.710549E+01 +8.530700E+02 -1.759173E+01 +1.204396E+00 -1.759173E+01 +3.830269E+02 
 +4.669281E+02 -1.027940E+01 +9.311462E+00 -1.027940E+01 +8.547894E+02 -1.048775E+01 +9.311462E+00 -1.048775E+01 +4.094727E+02 
 +4.735807E+02 -3.198344E+00 +1.098108E+01 -3.198344E+00 +8.687801E+02 -7.513723E+00 +1.098108E+01 -7.513723E+00 +4.536824E+02 
 +4.908632E+02 -1.603563E-01 +1.096888E+01 -1.603563E-01 +8.667823E+02 -7.349661E+00 +1.096888E+01 -7.349661E+00 +4.476617E+02 
 +5.184292E+02 +1.062252E+01 +1.892321E+01 +1.062252E+01 +8.622082E+02 -3.652278E+00 +1.892321E+01 -3.652278E+00 +4.203228E+02 
 +5.249275E+02 +1.773627E+01 +2.135205E+01 +1.773627E+01 +8.576777E+02 -1.361579E+00 +2.135205E+01 -1.361579E+00 +3.950811E+02 
 +5.464023E+02 +1.671173E+01 +2.167188E+01 +1.671173E+01 +8.817126E+02 +1.841543E+00 +2.167188E+01 +1.841543E+00 +3.866322E+02 
 +5.047836E+02 -1.159790E+00 -2.279881E+01 -1.159790E+00 +8.822819E+02 +3.406916E+00 -2.279881E+01 +3.406916E+00 +3.672289E+02 
 +4.948073E+02 +3.477208E+00 -2.611332E+01 +3.477208E+00 +8.722142E+02 +5.264581E+00 -2.611332E+01 +5.264581E+00 +3.432931E+02 
 +4.775396E+02 -3.005324E+00 -2.935938E+01 -3.005324E+00 +8.362076E+02 +5.854119E+00 -2.935938E+01 +5.854119E+00 +3.201997E+02 
 +4.953394E+02 -3.094778E+00 -1.374601E+01 -3.094778E+00 +8.288602E+02 +6.904254E-01 -1.374601E+01 +6.904254E-01 +3.293236E+02 
 +5.221317E+02 +5.294897E+00 +4.629386E+01 +5.294897E+00 +8.614751E+02 +1.810715E+01 +4.629386E+01 +1.810715E+01 +3.190795E+02 
 +5.135947E+02 +1.741253E+00 +4.886862E+01 +1.741253E+00 +8.633880E+02 +1.801113E+01 +4.886862E+01 +1.801113E+01 +3.264076E+02 
 +5.089635E+02 +2.520253E-01 +5.032719E+01 +2.520253E-01 +8.759554E+02 +1.298096E+01 +5.032719E+01 +1.298096E+01 +3.498607E+02 
 +4.554908E+02 -2.834097E+00 -2.498950E+00 -2.834097E+00 +8.586523E+02 -3.264137E-01 -2.498950E+00 -3.264137E-01 +3.523625E+02 
 +4.504279E+02 -6.212723E+00 -6.582814E+00 -6.212723E+00 +8.691117E+02 -1.307525E+01 -6.582814E+00 -1.307525E+01 +3.982397E+02 
 +4.505993E+02 -3.880487E+00 +3.571572E+00 -3.880487E+00 +8.698174E+02 -1.469026E+01 +3.571572E+00 -1.469026E+01 +3.983743E+02 
 +4.645692E+02 -6.014306E+00 +3.120161E+01 -6.014306E+00 +8.684825E+02 -1.383977E+01 +3.120161E+01 -1.383977E+01 +3.650421E+02 
 +4.659518E+02 -7.022818E+00 +2.113696E+01 -7.022818E+00 +8.633343E+02 -8.349976E+00 +2.113696E+01 -8.349976E+00 +3.368406E+02 
 +4.702667E+02 -9.295939E+00 +7.500797E+00 -9.295939E+00 +8.584031E+02 -6.848645E+00 +7.500797E+00 -6.848645E+00 +3.480178E+02 
 +4.678924E+02 -8.432176E+00 +7.218911E-01 -8.432176E+00 +8.531442E+02 -1.001493E+01 +7.218911E-01 -1.001493E+01 +3.686101E+02 
 +4.634136E+02 -8.686490E+00 +3.771923E+00 -8.686490E+00 +8.413517E+02 -1.403732E+01 +3.771923E+00 -1.403732E+01 +3.810984E+02 
 +4.766205E+02 +9.414052E+00 +9.886436E+00 +9.414052E+00 +8.473233E+02 -1.241197E+01 +9.886436E+00 -1.241197E+01 +4.252297E+02 
 +5.003895E+02 +1.092834E+01 +2.672409E+00 +1.092834E+01 +8.602188E+02 -1.224373E+01 +2.672409E+00 -1.224373E+01 +4.637825E+02 
 +5.158478E+02 +1.105886E+01 +1.020703E+00 +1.105886E+01 +8.561374E+02 -1.458387E+01 +1.020703E+00 -1.458387E+01 +4.440937E+02 
 +5.309384E+02 +1.266209E+01 +9.456385E+00 +1.266209E+01 +8.578320E+02 -1.161910E+01 +9.456385E+00 -1.161910E+01 +4.182404E+02 
 +5.399024E+02 +1.016656E+01 +1.256060E+01 +1.016656E+01 +8.594802E+02 -1.059782E+01 +1.256060E+01 -1.059782E+01 +4.035268E+02 
 +5.540110E+02 +1.203995E+01 +1.366343E+01 +1.203995E+01 +8.822638E+02 -7.898004E+00 +1.366343E+01 -7.898004E+00 +4.065539E+02 
 +4.753785E+02 +1.085986E+00 -2.496087E+01 +1.085986E+00 +8.588950E+02 +1.100830E+00 -2.496087E+01 +1.100830E+00 +3.720899E+02 
 +4.815949E+02 +1.191910E+01 -2.680372E+01 +1.191910E+01 +8.642548E+02 +1.250186E+01 -2.680372E+01 +1.250186E+01 +3.542083E+02 
 +4.820105E+02 +1.171594E+01 -3.632039E+01 +1.171594E+01 +8.578158E+02 +2.047814E+01 -3.632039E+01 +2.047814E+01 +3.345638E+02 
 +4.931518E+02 +7.134862E+00 -2.842487E+01 +7.134862E+00 +8.549259E+02 +1.938615E+01 -2.842487E+01 +1.938615E+01 +3.308084E+02 
 +5.095341E+02 +6.556241E+00 +4.516378E+01 +6.556241E+00 +8.733394E+02 +2.179819E+01 +4.516378E+01 +2.179819E+01 +3.136334E+02 
 +5.221804E+02 -3.800805E-01 +4.573480E+01 -3.800805E-01 +8.817814E+02 +1.316890E+01 +4.573480E+01 +1.316890E+01 +3.379548E+02 
 +5.014266E+02 -4.349436E+00 +4.703322E+01 -4.349436E+00 +8.799258E+02 +9.674822E+00 +4.703322E+01 +9.674822E+00 +3.466965E+02 
 +4.351972E+02 -2.301086E+00 -1.676568E+01 -2.301086E+00 +8.521655E+02 +4.593482E+00 -1.676568E+01 +4.593482E+00 +3.483871E+02 
 +4.520331E+02 +5.007692E-02 -6.194629E+00 +5.007692E-02 +8.682082E+02 -4.534838E+00 -6.194629E+00 -4.534838E+00 +4.045664E+02 
 +4.495888E+02 -3.761804E+00 +3.605016E+00 -3.761804E+00 +8.642237E+02 -9.444463E+00 +3.605016E+00 -9.444463E+00 +4.047963E+02 
 +4.555762E+02 -6.484039E+00 +2.950271E+01 -6.484039E+00 +8.586629E+02 -1.268952E+01 +2.950271E+01 -1.268952E+01 +3.667455E+02 
 +4.627204E+02 -7.373364E+00 +2.888245E+01 -7.373364E+00 +8.529273E+02 -1.061593E+01 +2.888245E+01 -1.061593E+01 +3.388030E+02 
 +4.696413E+02 -9.638768E+00 +1.043444E+01 -9.638768E+00 +8.522350E+02 -6.428497E+00 +1.043444E+01 -6.428497E+00 +3.459357E+02 
 +4.722104E+02 -3.945635E+00 -3.022103E-01 -3.945635E+00 +8.473767E+02 -8.558100E+00 -3.022103E-01 -8.558100E+00 +3.635403E+02 
 +4.731838E+02 -5.394810E+00 +2.833658E+00 -5.394810E+00 +8.400875E+02 -9.785158E+00 +2.833658E+00 -9.785158E+00 +3.782395E+02 
 +4.889569E+02 +1.950722E+01 +7.662367E+00 +1.950722E+01 +8.491489E+02 -1.229422E+01 +7.662367E+00 -1.229422E+01 +4.142061E+02 
 +5.165300E+02 +1.549436E+01 -8.085927E-01 +1.549436E+01 +8.604887E+02 -1.853025E+01 -8.085927E-01 -1.853025E+01 +4.371991E+02 
 +5.210437E+02 +1.470025E+01 +1.391358E-02 +1.470025E+01 +8.563583E+02 -2.072960E+01 +1.391358E-02 -2.072960E+01 +4.209198E+02 
 +5.253886E+02 +1.089954E+01 +1.880931E+00 +1.089954E+01 +8.590675E+02 -1.809932E+01 +1.880931E+00 -1.809932E+01 +4.143292E+02 
 +5.287723E+02 +6.468931E+00 +5.266690E+00 +6.468931E+00 +8.565662E+02 -1.526326E+01 +5.266690E+00 -1.526326E+01 +4.050505E+02 
 +5.491498E+02 +1.071308E+01 +7.306218E+00 +1.071308E+01 +8.719231E+02 -1.632470E+01 +7.306218E+00 -1.632470E+01 +4.206403E+02 
 +4.862940E+02 -2.875989E+00 -9.811795E+00 -2.875989E+00 +8.503307E+02 -6.970089E+00 -9.811795E+00 -6.970089E+00 +3.905749E+02 
 +4.836862E+02 +1.834914E+00 -1.286820E+01 +1.834914E+00 +8.564832E+02 +9.591169E+00 -1.286820E+01 +9.591169E+00 +3.631257E+02 
 +4.899756E+02 +4.650779E+00 -2.097146E+01 +4.650779E+00 +8.669137E+02 +1.935504E+01 -2.097146E+01 +1.935504E+01 +3.540339E+02 
 +4.791504E+02 +4.475994E+00 -2.529171E+01 +4.475994E+00 +8.639399E+02 +2.558668E+01 -2.529171E+01 +2.558668E+01 +3.248455E+02 
 +4.983212E+02 +2.229978E+00 +3.979720E+01 +2.229978E+00 +8.723490E+02 +2.243851E+01 +3.979720E+01 +2.243851E+01 +3.141661E+02 
 +5.073641E+02 +1.950272E+00 +3.973651E+01 +1.950272E+00 +8.819735E+02 +1.050746E+01 +3.973651E+01 +1.050746E+01 +3.295803E+02 
 +4.954073E+02 +1.461747E+00 +4.617809E+01 +1.461747E+00 +8.807356E+02 +8.574301E+00 +4.617809E+01 +8.574301E+00 +3.391732E+02 
 +4.401192E+02 +5.026441E-01 -2.473187E+01 +5.026441E-01 +8.586409E+02 +6.542278E+00 -2.473187E+01 +6.542278E+00 +3.442818E+02 
 +4.411189E+02 -2.174507E+00 -7.626970E+00 -2.174507E+00 +8.640700E+02 +1.460138E-01 -7.626970E+00 +1.460138E-01 +3.925065E+02 
 +4.459222E+02 -2.308613E+00 +3.729952E+00 -2.308613E+00 +8.612139E+02 -7.553743E+00 +3.729952E+00 -7.553743E+00 +4.080839E+02 
 +4.533835E+02 -3.497798E+00 +2.859861E+01 -3.497798E+00 +8.512425E+02 -1.313186E+01 +2.859861E+01 -1.313186E+01 +3.696924E+02 
 +4.631763E+02 -3.969771E+00 +3.250515E+01 -3.969771E+00 +8.426513E+02 -1.534651E+01 +3.250515E+01 -1.534651E+01 +3.429026E+02 
 +4.637901E+02 -6.179327E+00 +1.635598E+01 -6.179327E+00 +8.378468E+02 -1.441929E+01 +1.635598E+01 -1.441929E+01 +3.406322E+02 
 +4.693010E+02 -8.133542E+00 +2.012344E+00 -8.133542E+00 +8.337262E+02 -8.752691E+00 +2.012344E+00 -8.752691E+00 +3.447413E+02 
 +4.869870E+02 -4.357690E+00 +2.217635E+00 -4.357690E+00 +8.473269E+02 -5.800142E+00 +2.217635E+00 -5.800142E+00 +3.638794E+02 
 +5.131288E+02 +1.726866E+01 +3.725901E+00 +1.726866E+01 +8.624722E+02 -1.190329E+01 +3.725901E+00 -1.190329E+01 +3.884376E+02 
 +5.181830E+02 +1.718853E+01 -5.137273E-01 +1.718853E+01 +8.584064E+02 -1.869474E+01 -5.137273E-01 -1.869474E+01 +3.957352E+02 
 +5.196150E+02 +1.735284E+01 -2.422314E+00 +1.735284E+01 +8.639913E+02 -2.019912E+01 -2.422314E+00 -2.019912E+01 +3.985295E+02 
 +5.207188E+02 +1.272457E+01 -4.998700E+00 +1.272457E+01 +8.664074E+02 -1.934380E+01 -4.998700E+00 -1.934380E+01 +4.040263E+02 
 +5.168573E+02 +6.519772E+00 -3.021871E+00 +6.519772E+00 +8.597115E+02 -1.250579E+01 -3.021871E+00 -1.250579E+01 +4.061344E+02 
 +5.065937E+02 +8.077459E+00 -7.080615E+00 +8.077459E+00 +8.468069E+02 -1.660893E+01 -7.080615E+00 -1.660893E+01 +4.073465E+02 
 +4.822278E+02 -7.149290E+00 +2.362996E+01 -7.149290E+00 +8.398159E+02 -1.263705E+01 +2.362996E+01 -1.263705E+01 +3.746097E+02 
 +4.814391E+02 -1.015064E+01 +1.637014E+01 -1.015064E+01 +8.532288E+02 +2.490710E+00 +1.637014E+01 +2.490710E+00 +3.444844E+02 
 +4.980726E+02 -8.025081E+00 +1.191450E+01 -8.025081E+00 +8.700525E+02 +1.092270E+01 +1.191450E+01 +1.092270E+01 +3.587730E+02 
 +4.936307E+02 -4.996576E+00 +2.476592E+00 -4.996576E+00 +8.688456E+02 +2.389070E+01 +2.476592E+00 +2.389070E+01 +3.390427E+02 
 +5.033441E+02 -6.142997E+00 +2.555057E+01 -6.142997E+00 +8.739396E+02 +1.904111E+01 +2.555057E+01 +1.904111E+01 +3.217700E+02 
 +4.980519E+02 -4.996288E+00 +3.097699E+01 -4.996288E+00 +8.760742E+02 +9.429266E+00 +3.097699E+01 +9.429266E+00 +3.249732E+02 
 +4.909176E+02 -2.540374E+00 +3.731879E+01 -2.540374E+00 +8.789835E+02 -3.045950E+00 +3.731879E+01 -3.045950E+00 +3.305354E+02 
 +4.455206E+02 -1.670116E+00 -2.204724E+01 -1.670116E+00 +8.629872E+02 -5.358099E+00 -2.204724E+01 -5.358099E+00 +3.342489E+02 
 +4.445350E+02 -1.375038E+00 -1.044410E+01 -1.375038E+00 +8.679921E+02 +5.664482E-01 -1.044410E+01 +5.664482E-01 +3.719346E+02 
 +4.465237E+02 +3.820300E+00 +6.782705E+00 +3.820300E+00 +8.651079E+02 +2.680084E+00 +6.782705E+00 +2.680084E+00 +3.875728E+02 
 +4.616646E+02 +1.817910E+00 +2.867313E+01 +1.817910E+00 +8.587281E+02 -4.558007E-01 +2.867313E+01 -4.558007E-01 +3.727908E+02 
 +4.458620E+02 -4.476185E+00 +3.233577E+01 -4.476185E+00 +8.334935E+02 -1.087455E+01 +3.233577E+01 -1.087455E+01 +3.433163E+02 
 +4.681302E+02 -6.996477E+00 +2.139187E+01 -6.996477E+00 +8.350947E+02 -1.525316E+01 +2.139187E+01 -1.525316E+01 +3.287914E+02 
 +4.744410E+02 -6.602569E+00 +9.574039E+00 -6.602569E+00 +8.228728E+02 -1.080898E+01 +9.574039E+00 -1.080898E+01 +3.217706E+02 
 +4.952564E+02 +1.521409E+01 +7.401030E-01 +1.521409E+01 +8.349463E+02 -6.804523E+00 +7.401030E-01 -6.804523E+00 +3.470755E+02 
 +5.108538E+02 +1.999315E+01 +2.984738E+00 +1.999315E+01 +8.522833E+02 -9.013331E+00 +2.984738E+00 -9.013331E+00 +3.621472E+02 
 +5.135612E+02 +1.798420E+01 -1.361417E+00 +1.798420E+01 +8.545656E+02 -1.326622E+01 -1.361417E+00 -1.326622E+01 +3.698166E+02 
 +5.197604E+02 +1.642377E+01 -8.187061E+00 +1.642377E+01 +8.643921E+02 -1.710722E+01 -8.187061E+00 -1.710722E+01 +3.846742E+02 
 +5.182521E+02 +1.359144E+01 -1.030748E+01 +1.359144E+01 +8.707447E+02 -1.592385E+01 -1.030748E+01 -1.592385E+01 +3.954139E+02 
 +4.955782E+02 +3.708951E+00 -1.459436E+01 +3.708951E+00 +8.685316E+02 -1.229124E+01 -1.459436E+01 -1.229124E+01 +3.983622E+02 
 +4.721773E+02 +2.500797E+00 -2.108431E+01 +2.500797E+00 +8.637435E+02 -1.000634E+01 -2.108431E+01 -1.000634E+01 +3.975471E+02 
 +4.901928E+02 -6.480467E+00 +2.642884E+01 -6.480467E+00 +8.667704E+02 -1.083945E+01 +2.642884E+01 -1.083945E+01 +3.759644E+02 
 +4.896621E+02 -1.059719E+01 +2.778273E+01 -1.059719E+01 +8.577260E+02 -7.048021E+00 +2.778273E+01 -7.048021E+00 +3.366959E+02 
 +4.967209E+02 -8.847160E+00 +3.048405E+01 -8.847160E+00 +8.660020E+02 +7.330279E+00 +3.048405E+01 +7.330279E+00 +3.442346E+02 
 +5.048837E+02 -9.160789E+00 +1.332741E+01 -9.160789E+00 +8.740398E+02 +2.022718E+01 +1.332741E+01 +2.022718E+01 +3.418308E+02 
 +4.971383E+02 -1.281291E+01 +5.592281E-01 -1.281291E+01 +8.710918E+02 +1.197167E+01 +5.592281E-01 +1.197167E+01 +3.131146E+02 
 +4.941159E+02 -1.374461E+01 +1.217703E+01 -1.374461E+01 +8.729293E+02 +6.521740E+00 +1.217703E+01 +6.521740E+00 +3.177418E+02 
 +4.818696E+02 -1.158116E+01 +1.322234E+01 -1.158116E+01 +8.687691E+02 -2.799478E+00 +1.322234E+01 -2.799478E+00 +3.161872E+02 
 +4.674754E+02 -8.157696E+00 -1.252352E+01 -8.157696E+00 +8.665395E+02 -2.242936E+00 -1.252352E+01 -2.242936E+00 +3.296601E+02 
 +4.596464E+02 -5.325071E+00 -1.415798E+01 -5.325071E+00 +8.727305E+02 +3.265983E+00 -1.415798E+01 +3.265983E+00 +3.374838E+02 
 +4.545938E+02 +1.243629E+00 +1.482394E+01 +1.243629E+00 +8.719056E+02 +8.772000E+00 +1.482394E+01 +8.772000E+00 +3.350392E+02 
 +4.779864E+02 +3.630241E+00 +2.246854E+01 +3.630241E+00 +8.843720E+02 +1.413324E+01 +2.246854E+01 +1.413324E+01 +3.589824E+02 
 +4.547971E+02 +6.111580E+00 +2.581462E+01 +6.111580E+00 +8.709406E+02 +6.356363E+00 +2.581462E+01 +6.356363E+00 +3.496119E+02 
 +5.013930E+02 +6.506384E+00 +2.213287E+01 +6.506384E+00 +8.805702E+02 -1.414710E+00 +2.213287E+01 -1.414710E+00 +3.287875E+02 
 +5.102292E+02 -2.805450E+00 +1.692895E+01 -2.805450E+00 +8.722768E+02 -5.844877E+00 +1.692895E+01 -5.844877E+00 +3.191932E+02 
 +5.019728E+02 +9.566570E+00 +7.499509E+00 +9.566570E+00 +8.502665E+02 -1.686595E+00 +7.499509E+00 -1.686595E+00 +3.316196E+02 
 +4.922778E+02 +1.612475E+01 +2.270386E+00 +1.612475E+01 +8.363118E+02 -6.530301E-01 +2.270386E+00 -6.530301E-01 +3.338428E+02 
 +5.067591E+02 +1.358916E+01 -3.449840E+00 +1.358916E+01 +8.532741E+02 -8.927035E+00 -3.449840E+00 -8.927035E+00 +3.547154E+02 
 +5.110292E+02 +1.057825E+01 -9.683898E+00 +1.057825E+01 +8.552393E+02 -1.235263E+01 -9.683898E+00 -1.235263E+01 +3.716598E+02 
 +5.135766E+02 +8.848994E+00 -7.961140E+00 +8.848994E+00 +8.724728E+02 -1.335090E+01 -7.961140E+00 -1.335090E+01 +3.881016E+02 
 +4.636655E+02 -1.019924E+00 -1.840412E+01 -1.019924E+00 +8.634664E+02 -1.380769E+01 -1.840412E+01 -1.380769E+01 +3.760991E+02 
 +4.641602E+02 +6.205113E+00 -1.668789E+01 +6.205113E+00 +8.704827E+02 -7.680672E+00 -1.668789E+01 -7.680672E+00 +3.974850E+02 
 +4.919606E+02 +1.899993E+00 +2.686187E+00 +1.899993E+00 +8.743310E+02 -4.664920E+00 +2.686187E+00 -4.664920E+00 +3.958947E+02 
 +4.886770E+02 -2.507970E+00 +2.021066E+01 -2.507970E+00 +8.578671E+02 -4.663184E+00 +2.021066E+01 -4.663184E+00 +3.527990E+02 
 +4.838624E+02 -8.841146E+00 +3.183002E+01 -8.841146E+00 +8.619186E+02 +7.099853E+00 +3.183002E+01 +7.099853E+00 +3.436228E+02 
 +5.036733E+02 -1.393774E+01 -1.818333E+00 -1.393774E+01 +8.770899E+02 +1.520202E+01 -1.818333E+00 +1.520202E+01 +3.340659E+02 
 +4.943667E+02 -7.022766E+00 -1.053155E+01 -7.022766E+00 +8.724541E+02 +3.787458E+00 -1.053155E+01 +3.787458E+00 +3.138332E+02 
 +4.886032E+02 -4.582735E+00 -1.916113E+00 -4.582735E+00 +8.695097E+02 +3.540188E+00 -1.916113E+00 +3.540188E+00 +3.091209E+02 
 +4.846436E+02 -2.463758E+00 -9.111147E-01 -2.463758E+00 +8.684808E+02 +1.999149E+00 -9.111147E-01 +1.999149E+00 +3.115118E+02 
 +4.782593E+02 -1.613349E+00 -3.846999E+00 -1.613349E+00 +8.676200E+02 +2.745616E+00 -3.846999E+00 +2.745616E+00 +3.210539E+02 
 +4.605658E+02 -4.650990E+00 -7.865802E+00 -4.650990E+00 +8.548467E+02 +4.093781E+00 -7.865802E+00 +4.093781E+00 +2.951864E+02 
 +4.581627E+02 -4.837839E+00 +2.118327E+01 -4.837839E+00 +8.550259E+02 +6.745872E+00 +2.118327E+01 +6.745872E+00 +2.951185E+02 
 +4.742693E+02 -3.316424E+00 +1.986455E+01 -3.316424E+00 +8.731020E+02 +8.650088E+00 +1.986455E+01 +8.650088E+00 +3.321387E+02 
 +4.699821E+02 +8.298466E-01 +1.963259E+01 +8.298466E-01 +8.712166E+02 +5.163440E+00 +1.963259E+01 +5.163440E+00 +3.232196E+02 
 +4.931012E+02 -4.388424E-01 +1.940402E+01 -4.388424E-01 +8.764500E+02 -1.505765E-01 +1.940402E+01 -1.505765E-01 +3.033977E+02 
 +5.022576E+02 -8.375500E+00 +1.875384E+01 -8.375500E+00 +8.835342E+02 -5.282923E+00 +1.875384E+01 -5.282923E+00 +2.953650E+02 
 +5.019436E+02 -7.666179E+00 +1.869169E+01 -7.666179E+00 +8.778756E+02 -4.145327E+00 +1.869169E+01 -4.145327E+00 +3.086009E+02 
 +4.985259E+02 +1.040373E+01 -2.458126E+00 +1.040373E+01 +8.539476E+02 -1.345904E+00 -2.458126E+00 -1.345904E+00 +3.230278E+02 
 +4.948574E+02 +7.472546E+00 -1.526882E-01 +7.472546E+00 +8.466713E+02 -4.310916E+00 -1.526882E-01 -4.310916E+00 +3.417346E+02 
 +5.048767E+02 +3.250946E+00 -6.720919E+00 +3.250946E+00 +8.570189E+02 -8.192360E+00 -6.720919E+00 -8.192360E+00 +3.698647E+02 
 +4.894279E+02 +8.237085E+00 -3.039349E+00 +8.237085E+00 +8.497467E+02 -1.362958E+01 -3.039349E+00 -1.362958E+01 +3.700045E+02 
 +4.643951E+02 +6.034120E+00 -6.210545E+00 +6.034120E+00 +8.535819E+02 -1.271313E+01 -6.210545E+00 -1.271313E+01 +3.630205E+02 
 +4.598348E+02 +6.978298E+00 -3.541497E+00 +6.978298E+00 +8.624591E+02 -1.012908E+01 -3.541497E+00 -1.012908E+01 +3.890456E+02 
 +4.845442E+02 -4.594726E-01 +3.309003E+00 -4.594726E-01 +8.631010E+02 -6.340329E+00 +3.309003E+00 -6.340329E+00 +3.973366E+02 
 +4.747819E+02 +3.758840E+00 +1.454769E+01 +3.758840E+00 +8.558566E+02 +2.311658E+00 +1.454769E+01 +2.311658E+00 +3.698589E+02 
 +4.646399E+02 +9.046502E-01 +2.704121E+01 +9.046502E-01 +8.562902E+02 +7.810044E+00 +2.704121E+01 +7.810044E+00 +3.509495E+02 
 +4.962590E+02 -6.270872E+00 -1.410108E+01 -6.270872E+00 +8.743640E+02 +6.056214E+00 -1.410108E+01 +6.056214E+00 +3.346163E+02 
 +4.960671E+02 -3.434881E+00 -1.087682E+01 -3.434881E+00 +8.706792E+02 -8.110928E-01 -1.087682E+01 -8.110928E-01 +3.204615E+02 
 +4.886825E+02 -1.448316E-01 -5.311705E+00 -1.448316E-01 +8.661398E+02 -1.719433E+00 -5.311705E+00 -1.719433E+00 +3.083696E+02 
 +4.874552E+02 +1.533677E+00 -2.803078E+00 +1.533677E+00 +8.665919E+02 -2.074424E+00 -2.803078E+00 -2.074424E+00 +3.109342E+02 
 +4.784926E+02 +4.254302E+00 +3.771615E-01 +4.254302E+00 +8.641042E+02 -1.975873E+00 +3.771615E-01 -1.975873E+00 +3.122898E+02 
 +4.641869E+02 +5.637948E-01 -3.445051E+00 +5.637948E-01 +8.507631E+02 -1.314277E+00 -3.445051E+00 -1.314277E+00 +2.834584E+02 
 +4.681549E+02 -3.300982E-01 +2.299465E+01 -3.300982E-01 +8.550569E+02 +5.763958E+00 +2.299465E+01 +5.763958E+00 +2.936481E+02 
 +4.792477E+02 +5.959928E-01 +1.704767E+01 +5.959928E-01 +8.729455E+02 +1.007167E+01 +1.704767E+01 +1.007167E+01 +3.272974E+02 
 +4.877369E+02 -1.830859E+00 +1.453250E+01 -1.830859E+00 +8.771663E+02 +6.291854E+00 +1.453250E+01 +6.291854E+00 +3.196471E+02 
 +4.951371E+02 -5.110576E+00 +1.470158E+01 -5.110576E+00 +8.784029E+02 +5.287489E+00 +1.470158E+01 +5.287489E+00 +3.047297E+02 
 +4.955656E+02 -5.337284E+00 +1.485803E+01 -5.337284E+00 +8.776599E+02 +7.159782E+00 +1.485803E+01 +7.159782E+00 +2.913227E+02 
 +4.919396E+02 -1.153314E+01 +1.788578E+01 -1.153314E+01 +8.766914E+02 +1.250099E+00 +1.788578E+01 +1.250099E+00 +3.105692E+02 
 +4.880879E+02 -2.171079E+00 +5.332824E+00 -2.171079E+00 +8.618754E+02 +9.266567E-01 +5.332824E+00 +9.266567E-01 +3.222516E+02 
 +4.818876E+02 -5.988200E-01 +8.681860E+00 -5.988200E-01 +8.444125E+02 +4.026640E+00 +8.681860E+00 +4.026640E+00 +3.133548E+02 
 +4.908642E+02 -3.064411E+00 +9.436701E-01 -3.064411E+00 +8.652598E+02 -1.077934E+00 +9.436701E-01 -1.077934E+00 +3.377669E+02 
 +4.952961E+02 -2.282316E+00 +5.540537E-01 -2.282316E+00 +8.777271E+02 -3.577553E+00 +5.540537E-01 -3.577553E+00 +3.483936E+02 
 +4.874067E+02 -1.843339E+00 -3.872790E+00 -1.843339E+00 +8.652505E+02 -1.289539E+01 -3.872790E+00 -1.289539E+01 +3.567051E+02 
 +4.595721E+02 -4.086943E+00 -2.287979E+00 -4.086943E+00 +8.493295E+02 -2.138762E+01 -2.287979E+00 -2.138762E+01 +3.736181E+02 
 +4.647585E+02 -7.347513E+00 +7.722038E+00 -7.347513E+00 +8.534762E+02 -2.041124E+01 +7.722038E+00 -2.041124E+01 +3.809764E+02 
 +4.569353E+02 -3.794846E+00 +1.287380E+01 -3.794846E+00 +8.464719E+02 -1.793378E+01 +1.287380E+01 -1.793378E+01 +3.696759E+02 
 +4.577727E+02 -3.168584E+00 +2.567095E+01 -3.168584E+00 +8.489808E+02 -1.077820E+01 +2.567095E+01 -1.077820E+01 +3.547537E+02 
 +4.943502E+02 -4.681971E+00 -1.534370E+01 -4.681971E+00 +8.715054E+02 -2.902090E+00 -1.534370E+01 -2.902090E+00 +3.425452E+02 
 +4.948928E+02 +2.565708E-01 -1.186248E+01 +2.565708E-01 +8.643831E+02 -6.909051E+00 -1.186248E+01 -6.909051E+00 +3.243727E+02 
 +4.915311E+02 +2.515283E+00 -8.451532E+00 +2.515283E+00 +8.629052E+02 -8.768293E+00 -8.451532E+00 -8.768293E+00 +3.168347E+02 
 +4.922512E+02 +4.633328E+00 -5.872838E+00 +4.633328E+00 +8.658254E+02 -1.073743E+01 -5.872838E+00 -1.073743E+01 +3.201483E+02 
 +4.883244E+02 +6.727923E+00 -1.824122E+00 +6.727923E+00 +8.665705E+02 -8.764830E+00 -1.824122E+00 -8.764830E+00 +3.262190E+02 
 +4.839031E+02 +3.341726E+00 -4.060029E+00 +3.341726E+00 +8.700020E+02 +1.569288E+00 -4.060029E+00 +1.569288E+00 +3.143533E+02 
 +4.881365E+02 +2.132295E-01 +2.351153E+01 +2.132295E-01 +8.807417E+02 +1.022150E+01 +2.351153E+01 +1.022150E+01 +3.179222E+02 
 +4.976789E+02 +6.004413E-01 +1.492777E+01 +6.004413E-01 +8.893471E+02 +8.425729E+00 +1.492777E+01 +8.425729E+00 +3.389491E+02 
 +4.951337E+02 -4.298029E+00 +1.214398E+01 -4.298029E+00 +8.822076E+02 +8.578661E+00 +1.214398E+01 +8.578661E+00 +3.326790E+02 
 +4.996157E+02 -6.246965E+00 +1.091949E+01 -6.246965E+00 +8.727230E+02 +1.248163E+01 +1.091949E+01 +1.248163E+01 +3.141244E+02 
 +4.931899E+02 -8.981721E+00 +9.408620E+00 -8.981721E+00 +8.660712E+02 +1.235403E+01 +9.408620E+00 +1.235403E+01 +3.070111E+02 
 +4.715296E+02 -1.789081E+01 +1.376026E+01 -1.789081E+01 +8.718529E+02 +6.798368E+00 +1.376026E+01 +6.798368E+00 +3.398136E+02 
 +4.697809E+02 -1.885339E+01 +2.354987E+01 -1.885339E+01 +8.811052E+02 +6.361690E+00 +2.354987E+01 +6.361690E+00 +3.429934E+02 
 +5.093306E+02 -1.319196E+01 +1.044509E+01 -1.319196E+01 +8.971411E+02 +4.566608E+00 +1.044509E+01 +4.566608E+00 +3.247997E+02 
 +4.953084E+02 -6.609634E+00 +7.432314E+00 -6.609634E+00 +8.844739E+02 -4.673971E+00 +7.432314E+00 -4.673971E+00 +3.215977E+02 
 +4.856449E+02 -6.502556E+00 +2.304109E+00 -6.502556E+00 +8.667898E+02 -1.147073E+01 +2.304109E+00 -1.147073E+01 +3.196160E+02 
 +4.847182E+02 -7.161707E+00 -5.042482E+00 -7.161707E+00 +8.549273E+02 -1.194116E+01 -5.042482E+00 -1.194116E+01 +3.260540E+02 
 +4.839245E+02 -5.337697E+00 -4.230276E+00 -5.337697E+00 +8.602281E+02 -1.192159E+01 -4.230276E+00 -1.192159E+01 +3.568765E+02 
 +4.650981E+02 -5.054340E+00 +1.651535E+00 -5.054340E+00 +8.568448E+02 -1.158289E+01 +1.651535E+00 -1.158289E+01 +3.682980E+02 
 +4.497522E+02 +1.028553E+01 +1.236606E+01 +1.028553E+01 +8.521233E+02 -5.638549E+00 +1.236606E+01 -5.638549E+00 +3.637915E+02 
 +4.574066E+02 +9.238305E+00 +2.663040E+01 +9.238305E+00 +8.585475E+02 -1.970121E+00 +2.663040E+01 -1.970121E+00 +3.554395E+02 
 +4.978909E+02 -4.227950E-01 -1.595205E+01 -4.227950E-01 +8.723355E+02 -3.910474E+00 -1.595205E+01 -3.910474E+00 +3.469759E+02 
 +4.914936E+02 +4.808110E-01 -1.306801E+01 +4.808110E-01 +8.612006E+02 -9.918805E+00 -1.306801E+01 -9.918805E+00 +3.323373E+02 
 +4.904829E+02 +2.718022E+00 -1.049643E+01 +2.718022E+00 +8.526834E+02 -1.095368E+01 -1.049643E+01 -1.095368E+01 +3.300979E+02 
 +4.876586E+02 +4.420202E+00 -8.014901E+00 +4.420202E+00 +8.569709E+02 -1.254606E+01 -8.014901E+00 -1.254606E+01 +3.367795E+02 
 +4.996772E+02 -4.581148E-01 -6.057229E+00 -4.581148E-01 +8.687235E+02 -1.156283E+01 -6.057229E+00 -1.156283E+01 +3.643011E+02 
 +4.933489E+02 +1.880591E+00 +1.399357E+00 +1.880591E+00 +8.641579E+02 -2.380775E+00 +1.399357E+00 -2.380775E+00 +3.592054E+02 
 +4.923764E+02 -2.101854E+00 +1.944974E+01 -2.101854E+00 +8.724456E+02 +6.600530E-01 +1.944974E+01 +6.600530E-01 +3.455995E+02 
 +5.230324E+02 -1.627918E+00 +1.020404E+01 -1.627918E+00 +8.993945E+02 -3.321591E+00 +1.020404E+01 -3.321591E+00 +3.738770E+02 
 +5.253287E+02 -3.348086E+00 +9.379598E+00 -3.348086E+00 +9.001516E+02 +5.021148E-01 +9.379598E+00 +5.021148E-01 +3.782387E+02 
 +4.916734E+02 -8.414618E+00 +9.815680E+00 -8.414618E+00 +8.719284E+02 +7.638082E+00 +9.815680E+00 +7.638082E+00 +3.421644E+02 
 +4.911877E+02 -1.377933E+01 +4.472104E+00 -1.377933E+01 +8.696005E+02 +5.870216E+00 +4.472104E+00 +5.870216E+00 +3.406617E+02 
 +4.505665E+02 -1.657270E+01 +9.821129E+00 -1.657270E+01 +8.602103E+02 -2.413256E+00 +9.821129E+00 -2.413256E+00 +3.554192E+02 
 +4.444956E+02 -1.149064E+01 +2.675755E+01 -1.149064E+01 +8.544662E+02 -8.381982E+00 +2.675755E+01 -8.381982E+00 +3.480651E+02 
 +5.005962E+02 -1.033407E+00 +6.067380E+00 -1.033407E+00 +8.652082E+02 -1.527916E+01 +6.067380E+00 -1.527916E+01 +3.518458E+02 
 +4.865128E+02 +2.243823E+00 +5.536263E+00 +2.243823E+00 +8.461948E+02 -2.144424E+01 +5.536263E+00 -2.144424E+01 +3.573926E+02 
 +4.795744E+02 -9.959805E-01 +1.177494E-01 -9.959805E-01 +8.473887E+02 -2.011139E+01 +1.177494E-01 -2.011139E+01 +3.548463E+02 
 +4.847302E+02 -6.915784E+00 +9.492914E-01 -6.915784E+00 +8.536159E+02 -1.232374E+01 +9.492914E-01 -1.232374E+01 +3.325764E+02 
 +4.816561E+02 -8.558357E+00 +2.806662E-01 -8.558357E+00 +8.452766E+02 -6.031744E+00 +2.806662E-01 -6.031744E+00 +3.211482E+02 
 +4.762494E+02 -8.032900E+00 +2.757141E+00 -8.032900E+00 +8.522837E+02 +2.158622E+00 +2.757141E+00 +2.158622E+00 +3.393479E+02 
 +4.503641E+02 +6.060401E+00 +5.742077E+00 +6.060401E+00 +8.528077E+02 +2.459236E+00 +5.742077E+00 +2.459236E+00 +3.466924E+02 
 +4.451833E+02 +8.876263E+00 +1.697387E+01 +8.876263E+00 +8.461171E+02 -9.107854E+00 +1.697387E+01 -9.107854E+00 +3.407758E+02 
 +4.878660E+02 +3.560069E+00 -1.596969E+01 +3.560069E+00 +8.663113E+02 -1.171588E+01 -1.596969E+01 -1.171588E+01 +3.430970E+02 
 +4.806422E+02 +7.806261E-01 -1.174963E+01 +7.806261E-01 +8.576712E+02 -7.965649E+00 -1.174963E+01 -7.965649E+00 +3.416105E+02 
 +4.697347E+02 -2.935770E+00 -1.653623E+01 -2.935770E+00 +8.378041E+02 -6.962652E+00 -1.653623E+01 -6.962652E+00 +3.488126E+02 
 +4.841606E+02 +1.815356E+00 -8.340899E+00 +1.815356E+00 +8.357589E+02 -8.598068E+00 -8.340899E+00 -8.598068E+00 +3.593156E+02 
 +4.922546E+02 -1.068411E+00 -6.529641E+00 -1.068411E+00 +8.372622E+02 -3.765084E+00 -6.529641E+00 -3.765084E+00 +3.754597E+02 
 +4.838192E+02 +6.186983E+00 +3.503356E+00 +6.186983E+00 +8.243514E+02 -9.020761E-01 +3.503356E+00 -9.020761E-01 +3.713047E+02 
 +4.768388E+02 +7.270992E+00 +1.149431E+01 +7.270992E+00 +8.091647E+02 -1.352234E+00 +1.149431E+01 -1.352234E+00 +3.549782E+02 
 +4.956865E+02 +6.874408E+00 +1.238840E+00 +6.874408E+00 +8.224004E+02 -4.327815E-02 +1.238840E+00 -4.327815E-02 +3.766825E+02 
 +5.241306E+02 +2.986711E+00 -1.944330E+00 +2.986711E+00 +8.658211E+02 -1.944643E+00 -1.944330E+00 -1.944643E+00 +4.090522E+02 
 +4.925321E+02 -4.617357E+00 +3.592187E+00 -4.617357E+00 +8.746251E+02 -6.826813E+00 +3.592187E+00 -6.826813E+00 +3.883456E+02 
 +4.788581E+02 -6.144692E+00 +3.720975E+00 -6.144692E+00 +8.698365E+02 -5.336908E+00 +3.720975E+00 -5.336908E+00 +3.670041E+02 
 +4.534060E+02 -3.790416E+00 +1.050932E+01 -3.790416E+00 +8.532933E+02 -3.798629E+00 +1.050932E+01 -3.798629E+00 +3.532553E+02 
 +4.412793E+02 -1.832453E+00 +2.420256E+01 -1.832453E+00 +8.392481E+02 -9.146758E+00 +2.420256E+01 -9.146758E+00 +3.346845E+02 
 +4.790602E+02 +1.679062E+00 +9.450037E+00 +1.679062E+00 +8.520905E+02 -1.508261E+01 +9.450037E+00 -1.508261E+01 +3.546640E+02 
 +4.866389E+02 +3.237464E+00 +4.448826E+00 +3.237464E+00 +8.563585E+02 -1.649487E+01 +4.448826E+00 -1.649487E+01 +3.831812E+02 
 +4.834699E+02 +2.999734E+00 -1.979473E-01 +2.999734E+00 +8.506877E+02 -1.279597E+01 -1.979473E-01 -1.279597E+01 +3.936896E+02 
 +4.792464E+02 -6.760304E-01 -4.288218E+00 -6.760304E-01 +8.427286E+02 -6.141727E+00 -4.288218E+00 -6.141727E+00 +3.641798E+02 
 +4.787664E+02 -6.607572E+00 -4.749617E+00 -6.607572E+00 +8.387695E+02 -1.919507E+00 -4.749617E+00 -1.919507E+00 +3.162112E+02 
 +4.743566E+02 -2.346975E+00 +1.673171E+00 -2.346975E+00 +8.454087E+02 -3.655453E+00 +1.673171E+00 -3.655453E+00 +3.140522E+02 
 +4.652510E+02 +5.849106E+00 -2.021201E+00 +5.849106E+00 +8.546604E+02 -8.316602E+00 -2.021201E+00 -8.316602E+00 +3.320182E+02 
 +4.619739E+02 +9.769252E+00 +5.242558E+00 +9.769252E+00 +8.518949E+02 -1.563087E+01 +5.242558E+00 -1.563087E+01 +3.340085E+02 
 +4.744998E+02 +1.049855E+01 -8.258881E+00 +1.049855E+01 +8.570088E+02 -1.659580E+01 -8.258881E+00 -1.659580E+01 +3.338301E+02 
 +4.872605E+02 +6.845094E+00 -6.630451E+00 +6.845094E+00 +8.604142E+02 -8.100393E+00 -6.630451E+00 -8.100393E+00 +3.550010E+02 
 +4.193770E+02 -2.477663E+00 -2.526814E+01 -2.477663E+00 +8.081096E+02 -4.503086E+00 -2.526814E+01 -4.503086E+00 +3.569818E+02 
 +4.773714E+02 +5.181335E+00 -9.771718E+00 +5.181335E+00 +8.067307E+02 -2.601068E+00 -9.771718E+00 -2.601068E+00 +3.752480E+02 
 +4.877303E+02 +4.690260E+00 -3.735226E+00 +4.690260E+00 +8.152978E+02 -5.179657E-01 -3.735226E+00 -5.179657E-01 +3.671453E+02 
 +4.938867E+02 +4.555050E+00 +3.216456E+00 +4.555050E+00 +8.281268E+02 +1.228568E-01 +3.216456E+00 +1.228568E-01 +3.697981E+02 
 +4.989464E+02 +3.073122E+00 +6.026034E+00 +3.073122E+00 +8.277521E+02 +4.755383E-01 +6.026034E+00 +4.755383E-01 +3.717940E+02 
 +5.001957E+02 +2.477046E+00 -1.406448E+00 +2.477046E+00 +8.327154E+02 +3.020267E+00 -1.406448E+00 +3.020267E+00 +3.760100E+02 
 +5.049418E+02 +2.888207E+00 -8.753257E+00 +2.888207E+00 +8.360538E+02 +4.483071E+00 -8.753257E+00 +4.483071E+00 +3.852949E+02 
 +4.907624E+02 +9.692105E-01 -5.280628E+00 +9.692105E-01 +8.390793E+02 +1.360502E+00 -5.280628E+00 +1.360502E+00 +3.783686E+02 
 +4.651195E+02 +2.153536E+00 +6.527595E+00 +2.153536E+00 +8.447842E+02 -6.532931E-01 +6.527595E+00 -6.532931E-01 +3.594228E+02 
 +4.514122E+02 +4.613582E+00 +1.680310E+01 +4.613582E+00 +8.396999E+02 -2.752892E+00 +1.680310E+01 -2.752892E+00 +3.464987E+02 
 +4.388841E+02 +3.474309E+00 +1.789997E+01 +3.474309E+00 +8.396945E+02 -8.140629E+00 +1.789997E+01 -8.140629E+00 +3.321239E+02 
 +4.514998E+02 +1.707387E+00 +9.208308E+00 +1.707387E+00 +8.559679E+02 -1.030654E+01 +9.208308E+00 -1.030654E+01 +3.401640E+02 
 +4.673207E+02 +3.109069E+00 +5.456442E+00 +3.109069E+00 +8.540350E+02 -1.012159E+01 +5.456442E+00 -1.012159E+01 +3.550527E+02 
 +4.775326E+02 +3.251521E+00 -1.098330E+00 +3.251521E+00 +8.518550E+02 -1.011183E+01 -1.098330E+00 -1.011183E+01 +3.744218E+02 
 +4.793199E+02 +4.377688E+00 -1.101860E+01 +4.377688E+00 +8.516735E+02 -5.619207E+00 -1.101860E+01 -5.619207E+00 +3.685323E+02 
 +4.836510E+02 -1.957038E+00 -1.572993E+01 -1.957038E+00 +8.543805E+02 -6.059232E-01 -1.572993E+01 -6.059232E-01 +3.296188E+02 
 +4.850475E+02 +4.511786E+00 -5.586221E+00 +4.511786E+00 +8.619764E+02 -2.374720E+00 -5.586221E+00 -2.374720E+00 +3.148209E+02 
 +4.823249E+02 +6.513784E+00 -7.884996E-01 +6.513784E+00 +8.614945E+02 -4.840157E+00 -7.884996E-01 -4.840157E+00 +3.195048E+02 
 +4.777606E+02 +6.080647E+00 -5.722285E-01 +6.080647E+00 +8.579755E+02 -6.494727E+00 -5.722285E-01 -6.494727E+00 +3.233986E+02 
 +4.746186E+02 +7.200807E+00 -3.927349E+00 +7.200807E+00 +8.517763E+02 -1.019787E+01 -3.927349E+00 -1.019787E+01 +3.267467E+02 
 +4.831586E+02 +1.791056E+00 -5.304869E+00 +1.791056E+00 +8.497172E+02 -3.114989E+00 -5.304869E+00 -3.114989E+00 +3.611818E+02 
 +4.158049E+02 -1.064781E+01 -2.198454E+01 -1.064781E+01 +8.149547E+02 -2.336928E+00 -2.198454E+01 -2.336928E+00 +3.673041E+02 
 +4.601269E+02 +3.716724E-01 -1.476632E+01 +3.716724E-01 +8.263197E+02 -7.478720E-01 -1.476632E+01 -7.478720E-01 +3.803504E+02 
 +5.089783E+02 +7.431995E+00 +3.748328E-01 +7.431995E+00 +8.346550E+02 +1.265429E+00 +3.748328E-01 +1.265429E+00 +3.753787E+02 
 +5.056294E+02 +3.745565E+00 +3.806375E+00 +3.745565E+00 +8.330548E+02 +3.873582E+00 +3.806375E+00 +3.873582E+00 +3.658167E+02 
 +5.004656E+02 +6.130476E+00 +4.412480E+00 +6.130476E+00 +8.337942E+02 +3.505245E+00 +4.412480E+00 +3.505245E+00 +3.661965E+02 
 +5.004774E+02 +5.667582E+00 +2.056249E+00 +5.667582E+00 +8.361818E+02 +5.050651E+00 +2.056249E+00 +5.050651E+00 +3.655083E+02 
 +4.998848E+02 +3.021080E+00 -3.064572E+00 +3.021080E+00 +8.383970E+02 +5.073155E+00 -3.064572E+00 +5.073155E+00 +3.682027E+02 
 +4.911617E+02 -3.658543E+00 -3.625318E+00 -3.658543E+00 +8.252003E+02 +7.207798E+00 -3.625318E+00 +7.207798E+00 +3.670310E+02 
 +4.817295E+02 +2.162118E-01 +3.491784E+00 +2.162118E-01 +8.229083E+02 +4.260076E+00 +3.491784E+00 +4.260076E+00 +3.646526E+02 
 +4.341898E+02 -4.127791E-01 +1.416904E+01 -4.127791E-01 +8.204456E+02 -6.900059E+00 +1.416904E+01 -6.900059E+00 +3.507399E+02 
 +4.382586E+02 +2.859853E+00 +6.921212E+00 +2.859853E+00 +8.390116E+02 -7.137458E+00 +6.921212E+00 -7.137458E+00 +3.521464E+02 
 +4.443464E+02 +1.160561E+00 +2.790816E+00 +1.160561E+00 +8.573671E+02 +5.866729E-01 +2.790816E+00 +5.866729E-01 +3.584228E+02 
 +4.545948E+02 +4.107407E-01 +3.356776E+00 +4.107407E-01 +8.725753E+02 +8.132924E+00 +3.356776E+00 +8.132924E+00 +3.516800E+02 
 +4.833947E+02 -1.906284E+00 -4.589212E+00 -1.906284E+00 +8.879929E+02 +1.323346E+01 -4.589212E+00 +1.323346E+01 +3.465369E+02 
 +4.911317E+02 -1.549441E+00 -1.099840E+01 -1.549441E+00 +8.861136E+02 +1.200432E+01 -1.099840E+01 +1.200432E+01 +3.552592E+02 
 +4.876765E+02 -4.557808E+00 -1.048184E+01 -4.557808E+00 +8.716313E+02 +8.172326E+00 -1.048184E+01 +8.172326E+00 +3.394219E+02 
 +4.924004E+02 +1.855563E+00 -2.368515E+00 +1.855563E+00 +8.658509E+02 +7.068763E+00 -2.368515E+00 +7.068763E+00 +3.182694E+02 
 +4.915253E+02 +1.048669E+00 +1.992472E+00 +1.048669E+00 +8.632693E+02 +2.404042E+00 +1.992472E+00 +2.404042E+00 +3.140818E+02 
 +4.897663E+02 +3.173808E+00 -1.344924E+00 +3.173808E+00 +8.579463E+02 -4.975760E+00 -1.344924E+00 -4.975760E+00 +3.157581E+02 
 +4.961202E+02 +4.546105E+00 -3.096719E+00 +4.546105E+00 +8.580054E+02 -4.085344E+00 -3.096719E+00 -4.085344E+00 +3.321622E+02 
 +4.747559E+02 -7.296239E+00 -3.844837E+00 -7.296239E+00 +8.446693E+02 -9.976679E-01 -3.844837E+00 -9.976679E-01 +3.608678E+02 
 +4.287088E+02 -1.412617E+01 -1.784642E+01 -1.412617E+01 +8.230967E+02 -1.892940E+00 -1.784642E+01 -1.892940E+00 +3.655845E+02 
 +4.424946E+02 -5.537215E+00 -1.751975E+01 -5.537215E+00 +8.276148E+02 -3.098426E+00 -1.751975E+01 -3.098426E+00 +3.650580E+02 
 +5.251753E+02 +1.294075E+01 +4.567115E+00 +1.294075E+01 +8.514989E+02 +3.583876E+00 +4.567115E+00 +3.583876E+00 +3.776259E+02 
 +5.117175E+02 +1.074072E+01 +4.019299E+00 +1.074072E+01 +8.340199E+02 +8.572595E+00 +4.019299E+00 +8.572595E+00 +3.633254E+02 
 +5.031291E+02 +9.490331E+00 +4.083738E+00 +9.490331E+00 +8.366639E+02 +8.960267E+00 +4.083738E+00 +8.960267E+00 +3.679283E+02 
 +5.019652E+02 +8.350935E+00 +4.553659E+00 +8.350935E+00 +8.398828E+02 +8.149059E+00 +4.553659E+00 +8.149059E+00 +3.706461E+02 
 +5.027817E+02 +6.987761E+00 +2.523062E+00 +6.987761E+00 +8.442999E+02 +5.789595E+00 +2.523062E+00 +5.789595E+00 +3.744667E+02 
 +5.012880E+02 -1.489096E+00 +3.896754E+00 -1.489096E+00 +8.404142E+02 +5.750769E+00 +3.896754E+00 +5.750769E+00 +3.797605E+02 
 +4.883537E+02 +3.136434E+00 +1.746587E+00 +3.136434E+00 +8.271762E+02 +5.726593E+00 +1.746587E+00 +5.726593E+00 +3.790195E+02 
 +4.276186E+02 +2.922881E-01 +7.075282E+00 +2.922881E-01 +8.105200E+02 -3.023208E+00 +7.075282E+00 -3.023208E+00 +3.601423E+02 
 +4.417460E+02 -6.636986E-01 +4.164265E+00 -6.636986E-01 +8.398324E+02 -7.303199E+00 +4.164265E+00 -7.303199E+00 +3.709525E+02 
 +4.438476E+02 -1.580321E-01 +9.845305E-01 -1.580321E-01 +8.518967E+02 -2.167920E+00 +9.845305E-01 -2.167920E+00 +3.777291E+02 
 +4.368052E+02 +1.845348E+00 +4.262400E+00 +1.845348E+00 +8.560661E+02 +4.291419E+00 +4.262400E+00 +4.291419E+00 +3.595353E+02 
 +4.602460E+02 +1.667511E+00 -1.231264E+00 +1.667511E+00 +8.665839E+02 +1.170905E+01 -1.231264E+00 +1.170905E+01 +3.366339E+02 
 +4.813803E+02 -1.463386E+00 -1.138265E+01 -1.463386E+00 +8.758799E+02 +1.446388E+01 -1.138265E+01 +1.446388E+01 +3.421784E+02 
 +4.803323E+02 -4.669545E+00 -5.454768E+00 -4.669545E+00 +8.689421E+02 +1.332865E+01 -5.454768E+00 +1.332865E+01 +3.356403E+02 
 +4.925175E+02 +1.848787E+00 -5.147809E-04 +1.848787E+00 +8.654775E+02 +1.225128E+01 -5.147809E-04 +1.225128E+01 +3.194589E+02 
 +5.007397E+02 -4.977884E-01 +7.519146E-02 -4.977884E-01 +8.643435E+02 +3.606596E+00 +7.519146E-02 +3.606596E+00 +3.169584E+02 
 +5.032772E+02 -3.013444E+00 +1.390234E+00 -3.013444E+00 +8.586805E+02 -4.912997E+00 +1.390234E+00 -4.912997E+00 +3.173974E+02 
 +5.118516E+02 -3.611658E+00 +2.395081E+00 -3.611658E+00 +8.617696E+02 -4.443069E+00 +2.395081E+00 -4.443069E+00 +3.375772E+02 
 +4.851862E+02 -4.851954E+00 -3.319904E+00 -4.851954E+00 +8.488297E+02 -1.088640E+00 -3.319904E+00 -1.088640E+00 +3.525838E+02 
 +4.266513E+02 -9.220956E+00 -1.882736E+01 -9.220956E+00 +8.180185E+02 -6.378421E-01 -1.882736E+01 -6.378421E-01 +3.478801E+02 
 +4.478716E+02 -2.447235E+00 -1.695062E+01 -2.447235E+00 +8.144664E+02 +5.034002E-02 -1.695062E+01 +5.034002E-02 +3.467849E+02 
 +5.177690E+02 +1.498264E+01 +1.125658E+01 +1.498264E+01 +8.446631E+02 +6.448974E+00 +1.125658E+01 +6.448974E+00 +3.649616E+02 
 +5.116971E+02 +1.576987E+01 +8.514165E+00 +1.576987E+01 +8.396995E+02 +1.418638E+01 +8.514165E+00 +1.418638E+01 +3.667900E+02 
 +5.015131E+02 +1.372523E+01 +4.651371E+00 +1.372523E+01 +8.371352E+02 +1.384270E+01 +4.651371E+00 +1.384270E+01 +3.746712E+02 
 +5.014247E+02 +1.062628E+01 +5.167056E+00 +1.062628E+01 +8.434851E+02 +9.269877E+00 +5.167056E+00 +9.269877E+00 +3.775427E+02 
 +5.074060E+02 +6.464700E+00 +5.106613E+00 +6.464700E+00 +8.468576E+02 +4.178471E+00 +5.106613E+00 +4.178471E+00 +3.815812E+02 
 +5.121728E+02 -2.918324E+00 +4.839640E+00 -2.918324E+00 +8.596751E+02 +1.993621E+00 +4.839640E+00 +1.993621E+00 +3.884121E+02 
 +4.668676E+02 -3.789313E+00 +6.584886E+00 -3.789313E+00 +8.454099E+02 -1.483427E+00 +6.584886E+00 -1.483427E+00 +3.771708E+02 
 +4.469690E+02 +1.102379E+00 +5.455048E+00 +1.102379E+00 +8.341609E+02 -7.676309E+00 +5.455048E+00 -7.676309E+00 +3.740797E+02 
 +4.446618E+02 -1.723226E+00 +5.325409E+00 -1.723226E+00 +8.418429E+02 -9.836787E+00 +5.325409E+00 -9.836787E+00 +3.786718E+02 
 +4.465847E+02 -3.677851E-02 +1.466391E+00 -3.677851E-02 +8.532472E+02 -4.516655E+00 +1.466391E+00 -4.516655E+00 +3.837759E+02 
 +4.505520E+02 +2.958454E+00 -3.721353E+00 +2.958454E+00 +8.578716E+02 -3.485948E+00 -3.721353E+00 -3.485948E+00 +3.797687E+02 
 +4.529924E+02 +3.672410E+00 +8.482370E+00 +3.672410E+00 +8.578594E+02 -3.873363E+00 +8.482370E+00 -3.873363E+00 +3.642764E+02 
 +4.733752E+02 +1.359669E+00 -6.146712E+00 +1.359669E+00 +8.680452E+02 +2.120009E+00 -6.146712E+00 +2.120009E+00 +3.525291E+02 
 +4.718724E+02 -3.716033E+00 -1.501895E+00 -3.716033E+00 +8.695652E+02 +6.301323E+00 -1.501895E+00 +6.301323E+00 +3.367292E+02 
 +4.993918E+02 +1.508684E-01 -5.531270E+00 +1.508684E-01 +8.796365E+02 +6.772840E+00 -5.531270E+00 +6.772840E+00 +3.244835E+02 
 +5.131648E+02 -1.942329E+00 -2.859901E+00 -1.942329E+00 +8.724942E+02 +1.010722E+00 -2.859901E+00 +1.010722E+00 +3.192306E+02 
 +5.141976E+02 -2.923270E+00 +3.693250E+00 -2.923270E+00 +8.625536E+02 -3.113541E+00 +3.693250E+00 -3.113541E+00 +3.240010E+02 
 +5.102502E+02 -2.763224E+00 +7.178771E+00 -2.763224E+00 +8.558616E+02 -1.958068E+00 +7.178771E+00 -1.958068E+00 +3.302951E+02 
 +4.871027E+02 -9.146494E+00 -3.879278E+00 -9.146494E+00 +8.467431E+02 -5.205127E+00 -3.879278E+00 -5.205127E+00 +3.382868E+02 
 +4.640059E+02 -9.142466E+00 -1.050277E+01 -9.142466E+00 +8.380697E+02 -2.772033E+00 -1.050277E+01 -2.772033E+00 +3.479405E+02 
 +4.646854E+02 -5.660932E+00 -1.135192E+01 -5.660932E+00 +8.352958E+02 +4.029719E+00 -1.135192E+01 +4.029719E+00 +3.477655E+02 
 +5.123593E+02 +1.251355E+01 +1.361505E+01 +1.251355E+01 +8.436798E+02 +9.291454E+00 +1.361505E+01 +9.291454E+00 +3.659332E+02 
 +5.080480E+02 +1.688197E+01 +1.577823E+01 +1.688197E+01 +8.400054E+02 +1.248496E+01 +1.577823E+01 +1.248496E+01 +3.703513E+02 
 +5.028682E+02 +1.728869E+01 +1.016006E+01 +1.728869E+01 +8.499799E+02 +1.410905E+01 +1.016006E+01 +1.410905E+01 +3.823381E+02 
 +5.007233E+02 +1.096732E+01 +6.833026E+00 +1.096732E+01 +8.508795E+02 +1.041475E+01 +6.833026E+00 +1.041475E+01 +3.850118E+02 
 +5.051717E+02 +4.047385E+00 +3.573335E+00 +4.047385E+00 +8.507384E+02 +2.617141E+00 +3.573335E+00 +2.617141E+00 +3.897355E+02 
 +5.095198E+02 +8.000700E-01 +1.273398E+00 +8.000700E-01 +8.586681E+02 +3.477001E+00 +1.273398E+00 +3.477001E+00 +3.941573E+02 
 +4.424937E+02 +1.127356E+00 +9.404002E+00 +1.127356E+00 +8.327484E+02 +2.830915E+00 +9.404002E+00 +2.830915E+00 +3.704656E+02 
 +4.484460E+02 +5.515738E+00 +7.216853E+00 +5.515738E+00 +8.432114E+02 -6.042546E+00 +7.216853E+00 -6.042546E+00 +3.794023E+02 
 +4.480757E+02 +1.401347E+00 +6.843785E+00 +1.401347E+00 +8.468238E+02 -9.579992E+00 +6.843785E+00 -9.579992E+00 +3.855386E+02 
 +4.476405E+02 -2.918729E-01 +5.764128E+00 -2.918729E-01 +8.517580E+02 -5.176353E+00 +5.764128E+00 -5.176353E+00 +3.869054E+02 
 +4.588488E+02 -1.302094E+00 -1.040572E+01 -1.302094E+00 +8.597909E+02 +1.587948E+00 -1.040572E+01 +1.587948E+00 +3.858440E+02 
 +4.600821E+02 -8.679022E-01 +1.220005E+01 -8.679022E-01 +8.612149E+02 -3.352248E+00 +1.220005E+01 -3.352248E+00 +3.797886E+02 
 +4.697707E+02 -4.919632E-01 +9.758913E+00 -4.919632E-01 +8.675276E+02 -7.604914E+00 +9.758913E+00 -7.604914E+00 +3.739244E+02 
 +4.682216E+02 -2.004635E+00 +1.438032E+01 -2.004635E+00 +8.747974E+02 -7.675546E+00 +1.438032E+01 -7.675546E+00 +3.627791E+02 
 +5.238859E+02 -3.747020E+00 -4.407493E+00 -3.747020E+00 +9.000592E+02 -1.097864E+01 -4.407493E+00 -1.097864E+01 +3.572872E+02 
 +5.210522E+02 -7.147736E+00 +5.093988E+00 -7.147736E+00 +8.734462E+02 -7.006783E+00 +5.093988E+00 -7.006783E+00 +3.302785E+02 
 +5.153467E+02 -5.857708E+00 +5.151091E+00 -5.857708E+00 +8.574595E+02 -1.798245E+00 +5.151091E+00 -1.798245E+00 +3.232741E+02 
 +5.138815E+02 -4.575009E+00 +9.285513E+00 -4.575009E+00 +8.591632E+02 -3.475734E+00 +9.285513E+00 -3.475734E+00 +3.236542E+02 
 +4.956522E+02 -1.498785E+01 +3.178254E+00 -1.498785E+01 +8.474294E+02 -1.106363E+01 +3.178254E+00 -1.106363E+01 +3.289239E+02 
 +4.933560E+02 -1.041002E+01 +2.623714E+00 -1.041002E+01 +8.442781E+02 -6.336572E+00 +2.623714E+00 -6.336572E+00 +3.402238E+02 
 +4.855053E+02 -1.248234E+01 +5.874768E+00 -1.248234E+01 +8.424687E+02 +5.409309E+00 +5.874768E+00 +5.409309E+00 +3.505780E+02 
 +5.031769E+02 +8.123655E+00 +1.357989E+01 +8.123655E+00 +8.494593E+02 +1.255837E+01 +1.357989E+01 +1.255837E+01 +3.723684E+02 
 +4.991871E+02 +1.524792E+01 +2.398208E+01 +1.524792E+01 +8.451292E+02 +1.346125E+01 +2.398208E+01 +1.346125E+01 +3.674322E+02 
 +5.061793E+02 +1.508140E+01 +1.874181E+01 +1.508140E+01 +8.582131E+02 +1.479632E+01 +1.874181E+01 +1.479632E+01 +3.744662E+02 
 +5.058913E+02 +8.108955E+00 +1.441715E+01 +8.108955E+00 +8.622566E+02 +1.041820E+01 +1.441715E+01 +1.041820E+01 +3.875537E+02 
 +5.086894E+02 +7.054021E+00 +7.165669E+00 +7.054021E+00 +8.569467E+02 +5.449826E+00 +7.165669E+00 +5.449826E+00 +3.939968E+02 
 +4.906401E+02 +8.397138E+00 -2.504741E+00 +8.397138E+00 +8.428794E+02 +6.769630E+00 -2.504741E+00 +6.769630E+00 +3.824973E+02 
 +4.245460E+02 +7.521845E+00 +1.048228E+01 +7.521845E+00 +8.223801E+02 +3.476583E+00 +1.048228E+01 +3.476583E+00 +3.599291E+02 
 +4.370433E+02 +3.464834E+00 +8.343499E+00 +3.464834E+00 +8.447020E+02 -5.093330E+00 +8.343499E+00 -5.093330E+00 +3.792753E+02 
 +4.488135E+02 +1.754811E+00 +1.025172E+01 +1.754811E+00 +8.531401E+02 -8.071668E+00 +1.025172E+01 -8.071668E+00 +3.924223E+02 
 +4.526832E+02 -1.346328E-01 +1.102339E+01 -1.346328E-01 +8.590428E+02 -1.116819E+01 +1.102339E+01 -1.116819E+01 +3.970240E+02 
 +4.562873E+02 -3.101485E+00 +2.658008E+00 -3.101485E+00 +8.634227E+02 -7.945315E+00 +2.658008E+00 -7.945315E+00 +3.945759E+02 
 +4.589543E+02 -8.851869E+00 +1.037787E+01 -8.851869E+00 +8.633953E+02 -6.095861E+00 +1.037787E+01 -6.095861E+00 +3.866172E+02 
 +4.770264E+02 -8.015813E+00 +1.937428E+01 -8.015813E+00 +8.762781E+02 -1.001031E+01 +1.937428E+01 -1.001031E+01 +3.859526E+02 
 +4.761895E+02 -3.921615E+00 +2.998647E+01 -3.921615E+00 +8.709127E+02 -6.539356E+00 +2.998647E+01 -6.539356E+00 +3.787760E+02 
 +5.261823E+02 -9.283798E+00 +2.787650E+00 -9.283798E+00 +8.709479E+02 -8.094923E-01 +2.787650E+00 -8.094923E-01 +3.771588E+02 
 +5.124312E+02 -6.884534E+00 +1.840937E+01 -6.884534E+00 +8.518797E+02 +1.676666E+00 +1.840937E+01 +1.676666E+00 +3.459709E+02 
 +5.144354E+02 -7.290982E+00 +1.122765E+01 -7.290982E+00 +8.569933E+02 +2.688149E+00 +1.122765E+01 +2.688149E+00 +3.318310E+02 
 +5.107158E+02 -5.892356E+00 +9.071616E+00 -5.892356E+00 +8.554540E+02 -4.884352E+00 +9.071616E+00 -4.884352E+00 +3.238208E+02 
 +5.079166E+02 -1.233705E+01 +9.376262E+00 -1.233705E+01 +8.521128E+02 -1.176125E+00 +9.376262E+00 -1.176125E+00 +3.288481E+02 
 +5.021347E+02 -1.118527E+01 +1.189703E+01 -1.118527E+01 +8.473183E+02 -1.771142E+00 +1.189703E+01 -1.771142E+00 +3.303660E+02 
 +5.121319E+02 -1.641119E+01 +2.090202E+01 -1.641119E+01 +8.650332E+02 -1.179384E-01 +2.090202E+01 -1.179384E-01 +3.490583E+02 
 +5.064747E+02 -1.846257E+00 +2.330761E+01 -1.846257E+00 +8.845554E+02 +2.549178E+00 +2.330761E+01 +2.549178E+00 +3.674340E+02 
 +5.025286E+02 +7.379990E+00 +3.141035E+01 +7.379990E+00 +8.789004E+02 +8.633792E+00 +3.141035E+01 +8.633792E+00 +3.608257E+02 
 +5.184084E+02 +1.112006E+01 +2.107953E+01 +1.112006E+01 +8.719323E+02 +1.168454E+01 +2.107953E+01 +1.168454E+01 +3.659136E+02 
 +5.142359E+02 +3.439049E+00 +2.414176E+01 +3.439049E+00 +8.641853E+02 +9.496880E+00 +2.414176E+01 +9.496880E+00 +3.817552E+02 
 +5.091098E+02 +2.883839E+00 +1.137448E+01 +2.883839E+00 +8.694252E+02 +4.800656E+00 +1.137448E+01 +4.800656E+00 +3.830704E+02 
 +4.842853E+02 +6.441257E-01 -1.179904E+01 +6.441257E-01 +8.721418E+02 +5.625672E+00 -1.179904E+01 +5.625672E+00 +3.717143E+02 
 +4.327534E+02 +4.359164E+00 +1.302408E+01 +4.359164E+00 +8.494913E+02 +1.044241E+01 +1.302408E+01 +1.044241E+01 +3.665717E+02 
 +4.303134E+02 -2.787773E-01 +4.755356E+00 -2.787773E-01 +8.460047E+02 +3.148212E+00 +4.755356E+00 +3.148212E+00 +3.809879E+02 
 +4.490265E+02 +1.314901E+00 +1.357678E+01 +1.314901E+00 +8.543562E+02 -6.044763E+00 +1.357678E+01 -6.044763E+00 +3.937648E+02 
 +4.561021E+02 +2.242536E+00 +1.361302E+01 +2.242536E+00 +8.634240E+02 -8.564375E+00 +1.361302E+01 -8.564375E+00 +4.053266E+02 
 +4.555034E+02 -8.054844E-01 +1.403649E+01 -8.054844E-01 +8.703464E+02 -9.760678E+00 +1.403649E+01 -9.760678E+00 +4.103268E+02 
 +4.533068E+02 -6.047070E+00 +1.324147E+01 -6.047070E+00 +8.639747E+02 -6.005800E+00 +1.324147E+01 -6.005800E+00 +3.977146E+02 
 +4.917469E+02 +2.792556E+00 +2.558621E+01 +2.792556E+00 +8.747047E+02 +4.866221E+00 +2.558621E+01 +4.866221E+00 +3.909425E+02 
 +4.979781E+02 +2.634934E+00 +3.396821E+01 +2.634934E+00 +8.705575E+02 +9.796201E+00 +3.396821E+01 +9.796201E+00 +3.814418E+02 
 +5.336402E+02 -9.136251E+00 +4.694590E+00 -9.136251E+00 +8.787722E+02 +7.530459E+00 +4.694590E+00 +7.530459E+00 +3.896283E+02 
 +5.175144E+02 +9.666014E-01 +2.185693E+01 +9.666014E-01 +8.598058E+02 +5.428232E+00 +2.185693E+01 +5.428232E+00 +3.654642E+02 
 +5.112806E+02 -1.935915E+00 +1.359848E+01 -1.935915E+00 +8.553190E+02 +3.273306E+00 +1.359848E+01 +3.273306E+00 +3.428883E+02 
 +5.077102E+02 +1.982701E+00 +5.986064E+00 +1.982701E+00 +8.531333E+02 +1.109299E+00 +5.986064E+00 +1.109299E+00 +3.310984E+02 
 +5.060778E+02 -1.059376E+01 +9.888092E+00 -1.059376E+01 +8.506353E+02 +2.005321E+00 +9.888092E+00 +2.005321E+00 +3.273917E+02 
 +5.059116E+02 -9.759179E+00 +1.726389E+01 -9.759179E+00 +8.551799E+02 +1.012884E+00 +1.726389E+01 +1.012884E+00 +3.256949E+02 
 +5.071403E+02 -1.265200E+01 +2.565134E+01 -1.265200E+01 +8.691648E+02 +2.378104E+00 +2.565134E+01 +2.378104E+00 +3.334841E+02 
 +4.951399E+02 -2.282874E-01 +2.876834E+01 -2.282874E-01 +8.748430E+02 +2.080182E+00 +2.876834E+01 +2.080182E+00 +3.426880E+02 
 +4.978012E+02 +2.486492E+00 +3.351915E+01 +2.486492E+00 +8.752801E+02 +2.844759E+00 +3.351915E+01 +2.844759E+00 +3.508547E+02 
 +5.265307E+02 +7.504584E+00 +1.728122E+01 +7.504584E+00 +8.804397E+02 +7.101924E+00 +1.728122E+01 +7.101924E+00 +3.679100E+02 
 +5.064727E+02 -3.219686E+00 +2.001837E+01 -3.219686E+00 +8.690498E+02 +4.883622E+00 +2.001837E+01 +4.883622E+00 +3.683547E+02 
 +4.789551E+02 -6.103084E+00 -1.316526E+00 -6.103084E+00 +8.651993E+02 -3.644115E+00 -1.316526E+00 -3.644115E+00 +3.522447E+02 
 +4.884871E+02 -7.110608E+00 -1.257837E+01 -7.110608E+00 +8.839968E+02 +5.068557E+00 -1.257837E+01 +5.068557E+00 +3.668041E+02 
 +4.642293E+02 +2.895389E-01 +8.998012E+00 +2.895389E-01 +8.785124E+02 +1.930926E+01 +8.998012E+00 +1.930926E+01 +3.906147E+02 
 +4.469548E+02 +1.579172E+00 -1.469452E+00 +1.579172E+00 +8.638006E+02 +1.504143E+01 -1.469452E+00 +1.504143E+01 +3.927914E+02 
 +4.469472E+02 +6.332500E+00 +1.042791E+01 +6.332500E+00 +8.566237E+02 +4.640020E-01 +1.042791E+01 +4.640020E-01 +3.916608E+02 
 +4.551980E+02 +8.078750E+00 +1.541620E+01 +8.078750E+00 +8.640460E+02 -9.093524E+00 +1.541620E+01 -9.093524E+00 +4.094496E+02 
 +4.589445E+02 +4.808421E+00 +1.710712E+01 +4.808421E+00 +8.715045E+02 -8.251347E+00 +1.710712E+01 -8.251347E+00 +4.224806E+02 
 +4.582997E+02 -2.212024E+00 +1.958139E+01 -2.212024E+00 +8.674892E+02 -3.476922E+00 +1.958139E+01 -3.476922E+00 +4.117114E+02 
 +5.074578E+02 +2.550713E+00 +3.524256E+01 +2.550713E+00 +8.803492E+02 +4.620130E+00 +3.524256E+01 +4.620130E+00 +4.071407E+02 
 +5.114232E+02 -2.192097E+00 +3.261969E+01 -2.192097E+00 +8.683112E+02 +1.001208E+01 +3.261969E+01 +1.001208E+01 +3.898786E+02 
 +5.366963E+02 -1.340573E+01 +4.712661E-01 -1.340573E+01 +8.779938E+02 +1.211037E+01 +4.712661E-01 +1.211037E+01 +3.959580E+02 
 +5.249638E+02 +3.891285E+00 +1.685545E+01 +3.891285E+00 +8.673412E+02 +1.114296E+01 +1.685545E+01 +1.114296E+01 +3.761579E+02 
 +5.104856E+02 +3.950183E+00 +8.965101E+00 +3.950183E+00 +8.564041E+02 +6.714014E+00 +8.965101E+00 +6.714014E+00 +3.497637E+02 
 +5.048767E+02 +5.090497E+00 +2.830342E+00 +5.090497E+00 +8.525500E+02 +3.576204E+00 +2.830342E+00 +3.576204E+00 +3.364944E+02 
 +5.061907E+02 -1.011263E+01 +1.105919E+01 -1.011263E+01 +8.587290E+02 +1.666481E+00 +1.105919E+01 +1.666481E+00 +3.254302E+02 
 +5.032264E+02 -7.201134E+00 +2.046419E+01 -7.201134E+00 +8.604710E+02 +2.815313E+00 +2.046419E+01 +2.815313E+00 +3.168735E+02 
 +5.049842E+02 -7.165769E+00 +2.602949E+01 -7.165769E+00 +8.727921E+02 +5.301308E+00 +2.602949E+01 +5.301308E+00 +3.245495E+02 
 +4.904648E+02 +2.018362E+00 +2.365831E+01 +2.018362E+00 +8.746291E+02 +4.563126E+00 +2.365831E+01 +4.563126E+00 +3.352023E+02 
 +4.972132E+02 -4.196616E+00 +3.174829E+01 -4.196616E+00 +8.753181E+02 +1.588021E+00 +3.174829E+01 +1.588021E+00 +3.598458E+02 
 +5.288053E+02 +1.107090E+00 +1.082559E+01 +1.107090E+00 +8.932202E+02 +8.473081E-01 +1.082559E+01 +8.473081E-01 +3.823895E+02 
 +4.891733E+02 -7.073419E+00 +8.316487E+00 -7.073419E+00 +8.793459E+02 -1.482204E+00 +8.316487E+00 -1.482204E+00 +3.615260E+02 
 +4.581794E+02 -5.844932E+00 -6.699176E+00 -5.844932E+00 +8.623259E+02 -4.043435E+00 -6.699176E+00 -4.043435E+00 +3.447014E+02 
 +4.812398E+02 -1.167825E+01 +2.082607E+00 -1.167825E+01 +8.684685E+02 -2.699868E+00 +2.082607E+00 -2.699868E+00 +3.587933E+02 
 +4.749316E+02 -9.365396E+00 +4.276613E+00 -9.365396E+00 +8.623099E+02 +6.410683E-01 +4.276613E+00 +6.410683E-01 +3.789703E+02 
 +4.723600E+02 -5.175313E+00 -4.557779E+00 -5.175313E+00 +8.627871E+02 -4.742657E-01 -4.557779E+00 -4.742657E-01 +3.914453E+02 
 +4.371362E+02 +6.451266E+00 +5.728892E+00 +6.451266E+00 +8.517040E+02 -5.571463E+00 +5.728892E+00 -5.571463E+00 +3.872233E+02 
 +4.585377E+02 +7.880144E+00 +1.644320E+01 +7.880144E+00 +8.710954E+02 -7.579297E+00 +1.644320E+01 -7.579297E+00 +4.165978E+02 
 +4.676015E+02 +6.664582E+00 +2.219842E+01 +6.664582E+00 +8.763850E+02 -4.625052E+00 +2.219842E+01 -4.625052E+00 +4.293868E+02 
 +4.765043E+02 +1.168803E+00 +2.711862E+01 +1.168803E+00 +8.822491E+02 +4.293126E+00 +2.711862E+01 +4.293126E+00 +4.245166E+02 
 +5.110590E+02 +3.692848E+00 +3.736844E+01 +3.692848E+00 +8.900997E+02 +1.330639E+01 +3.736844E+01 +1.330639E+01 +4.099995E+02 
 +5.149456E+02 -1.739492E+00 +3.106570E+01 -1.739492E+00 +8.755037E+02 +1.435231E+01 +3.106570E+01 +1.435231E+01 +3.892947E+02 
 +5.552714E+02 -1.397702E+01 -6.006355E+00 -1.397702E+01 +8.880311E+02 +1.373253E+01 -6.006355E+00 +1.373253E+01 +4.066283E+02 
 +5.327131E+02 +5.607687E+00 +6.224699E+00 +5.607687E+00 +8.672922E+02 +1.253446E+01 +6.224699E+00 +1.253446E+01 +3.816585E+02 
 +5.100862E+02 +8.988841E+00 +1.591706E+00 +8.988841E+00 +8.574660E+02 +8.200771E+00 +1.591706E+00 +8.200771E+00 +3.522496E+02 
 +4.960967E+02 +6.894679E+00 -1.258897E-02 +6.894679E+00 +8.545220E+02 +3.373061E+00 -1.258897E-02 +3.373061E+00 +3.363613E+02 
 +4.961837E+02 -7.788325E+00 +1.489093E+01 -7.788325E+00 +8.514420E+02 +3.271804E+00 +1.489093E+01 +3.271804E+00 +3.166015E+02 
 +5.014854E+02 -4.027960E+00 +2.731958E+01 -4.027960E+00 +8.635410E+02 +3.794384E+00 +2.731958E+01 +3.794384E+00 +3.137380E+02 
 +4.979323E+02 -5.676615E+00 +3.169815E+01 -5.676615E+00 +8.704858E+02 +9.620126E+00 +3.169815E+01 +9.620126E+00 +3.189048E+02 
 +5.040585E+02 +4.424525E+00 +1.944016E+01 +4.424525E+00 +8.832582E+02 +1.142273E+01 +1.944016E+01 +1.142273E+01 +3.394763E+02 
 +4.841827E+02 -4.469950E+00 +1.574981E+01 -4.469950E+00 +8.739357E+02 -1.466856E+00 +1.574981E+01 -1.466856E+00 +3.655257E+02 
 +4.896302E+02 +1.054168E+00 +2.166879E+00 +1.054168E+00 +8.745626E+02 -1.441898E+01 +2.166879E+00 -1.441898E+01 +3.834523E+02 
 +4.688290E+02 -1.280093E+01 +1.011255E+01 -1.280093E+01 +8.642626E+02 -1.411821E+01 +1.011255E+01 -1.411821E+01 +3.614315E+02 
 +4.646515E+02 -9.677298E+00 +9.516724E+00 -9.677298E+00 +8.595782E+02 -4.341643E+00 +9.516724E+00 -4.341643E+00 +3.552373E+02 
 +4.690442E+02 -7.887652E+00 +8.643269E+00 -7.887652E+00 +8.588021E+02 -3.511928E+00 +8.643269E+00 -3.511928E+00 +3.535935E+02 
 +4.814731E+02 -9.218220E+00 +9.393689E+00 -9.218220E+00 +8.628130E+02 -1.167494E+01 +9.393689E+00 -1.167494E+01 +3.717928E+02 
 +4.921810E+02 -1.166506E+01 -3.097588E+00 -1.166506E+01 +8.696055E+02 -1.724291E+01 -3.097588E+00 -1.724291E+01 +3.922974E+02 
 +4.456200E+02 -1.543014E+00 +7.469223E+00 -1.543014E+00 +8.520145E+02 -1.514030E+01 +7.469223E+00 -1.514030E+01 +3.903079E+02 
 +4.568187E+02 +5.890975E-01 +1.687545E+01 +5.890975E-01 +8.691169E+02 -9.233877E+00 +1.687545E+01 -9.233877E+00 +4.270822E+02 
 +4.738670E+02 -3.528717E+00 +2.161180E+01 -3.528717E+00 +8.789684E+02 -6.092874E+00 +2.161180E+01 -6.092874E+00 +4.372985E+02 
 +5.044831E+02 -5.407401E+00 +2.778056E+01 -5.407401E+00 +8.929378E+02 -4.044485E+00 +2.778056E+01 -4.044485E+00 +4.324209E+02 
 +5.250571E+02 -1.163660E+00 +3.161828E+01 -1.163660E+00 +9.019978E+02 -2.365414E+00 +3.161828E+01 -2.365414E+00 +4.088808E+02 
 +5.307126E+02 -7.429341E-02 +2.890194E+01 -7.429341E-02 +8.871587E+02 +6.501424E+00 +2.890194E+01 +6.501424E+00 +3.826426E+02 
 +5.407472E+02 -9.168179E+00 -1.448245E+01 -9.168179E+00 +8.749391E+02 +1.286610E+01 -1.448245E+01 +1.286610E+01 +3.842580E+02 
 +5.153107E+02 +5.146087E+00 -1.278099E+01 +5.146087E+00 +8.567732E+02 +7.840767E+00 -1.278099E+01 +7.840767E+00 +3.583281E+02 
 +4.970910E+02 +2.685111E+00 -1.273563E+01 +2.685111E+00 +8.474809E+02 +4.921333E+00 -1.273563E+01 +4.921333E+00 +3.351495E+02 
 +4.927024E+02 +2.275144E+00 -4.044068E+00 +2.275144E+00 +8.452441E+02 +5.144406E+00 -4.044068E+00 +5.144406E+00 +3.294967E+02 
 +4.992337E+02 -3.112805E+00 +3.314843E+00 -3.112805E+00 +8.276214E+02 -8.656465E+00 +3.314843E+00 -8.656465E+00 +3.478691E+02 
 +4.930379E+02 +3.288526E+00 +2.430010E+01 +3.288526E+00 +8.377402E+02 +1.140994E+01 +2.430010E+01 +1.140994E+01 +3.310188E+02 
 +4.912929E+02 +7.715037E+00 +1.730168E+01 +7.715037E+00 +8.467166E+02 +2.199015E+01 +1.730168E+01 +2.199015E+01 +3.265390E+02 
 +4.804637E+02 +8.590257E+00 +4.793098E+00 +8.590257E+00 +8.537458E+02 +1.244960E+01 +4.793098E+00 +1.244960E+01 +3.381751E+02 
 +4.462342E+02 -7.314188E-01 -1.005755E+01 -7.314188E-01 +8.554570E+02 -7.275695E+00 -1.005755E+01 -7.275695E+00 +3.561485E+02 
 +4.571139E+02 -2.528485E+00 -1.009490E+01 -2.528485E+00 +8.731951E+02 -1.913481E+01 -1.009490E+01 -1.913481E+01 +3.845359E+02 
 +4.662135E+02 -1.003451E+01 -3.935568E+00 -1.003451E+01 +8.686339E+02 -1.757493E+01 -3.935568E+00 -1.757493E+01 +3.842325E+02 
 +4.736321E+02 -1.472861E+01 +9.886876E-01 -1.472861E+01 +8.613251E+02 -1.609866E+01 +9.886876E-01 -1.609866E+01 +3.671604E+02 
 +4.842061E+02 -1.821020E+01 -9.554980E-01 -1.821020E+01 +8.625978E+02 -9.310091E+00 -9.554980E-01 -9.310091E+00 +3.674938E+02 
 +4.771489E+02 -1.972451E+01 +1.409874E+00 -1.972451E+01 +8.537080E+02 -1.118959E+01 +1.409874E+00 -1.118959E+01 +3.621666E+02 
 +4.721321E+02 -2.189127E+01 -2.741533E+00 -2.189127E+01 +8.515988E+02 -1.225387E+01 -2.741533E+00 -1.225387E+01 +3.756662E+02 
 +4.740918E+02 -1.235408E+01 +2.251636E+01 -1.235408E+01 +8.609145E+02 -2.692513E+00 +2.251636E+01 -2.692513E+00 +3.892210E+02 
 +4.652138E+02 -8.649377E+00 +3.311327E+01 -8.649377E+00 +8.583834E+02 -2.105464E-01 +3.311327E+01 -2.105464E-01 +4.030767E+02 
 +4.855147E+02 +6.783070E+00 +9.420227E+00 +6.783070E+00 +8.591172E+02 -5.022217E-01 +9.420227E+00 -5.022217E-01 +4.326469E+02 
 +5.028377E+02 +1.168165E+01 +1.230133E+01 +1.168165E+01 +8.566591E+02 -1.562834E+00 +1.230133E+01 -1.562834E+00 +4.262915E+02 
 +5.186032E+02 +1.894722E+01 +1.172276E+01 +1.894722E+01 +8.581540E+02 -2.006640E+00 +1.172276E+01 -2.006640E+00 +4.067381E+02 
 +5.419812E+02 +1.894151E+01 +1.681875E+01 +1.894151E+01 +8.804164E+02 -4.129541E-01 +1.681875E+01 -4.129541E-01 +3.916223E+02 
 +4.902772E+02 -1.140888E+00 -2.658979E+01 -1.140888E+00 +8.667705E+02 +4.505856E+00 -2.658979E+01 +4.505856E+00 +3.474278E+02 
 +4.842933E+02 -3.957607E+00 -2.742885E+01 -3.957607E+00 +8.539902E+02 +4.051493E+00 -2.742885E+01 +4.051493E+00 +3.383350E+02 
 +4.946362E+02 -8.903437E+00 -1.477505E+01 -8.903437E+00 +8.393158E+02 -5.301663E+00 -1.477505E+01 -5.301663E+00 +3.521995E+02 
 +5.039599E+02 -5.507771E+00 -1.225498E+01 -5.507771E+00 +8.302760E+02 -1.436960E+01 -1.225498E+01 -1.436960E+01 +3.641290E+02 
 +5.257063E+02 +9.819994E+00 +2.298014E+01 +9.819994E+00 +8.527851E+02 +2.693263E+00 +2.298014E+01 +2.693263E+00 +3.535779E+02 
 +5.119251E+02 +6.440859E+00 +3.358714E+01 +6.440859E+00 +8.580730E+02 +1.234414E+01 +3.358714E+01 +1.234414E+01 +3.425969E+02 
 +4.937531E+02 +6.114755E+00 +7.149580E+00 +6.114755E+00 +8.580316E+02 +1.218462E+01 +7.149580E+00 +1.218462E+01 +3.417514E+02 
 +4.593763E+02 -4.175237E-01 -1.465342E+01 -4.175237E-01 +8.525623E+02 +2.261632E+00 -1.465342E+01 +2.261632E+00 +3.559791E+02 
 +4.387884E+02 -4.054286E+00 -1.653380E+01 -4.054286E+00 +8.553906E+02 -7.574260E+00 -1.653380E+01 -7.574260E+00 +3.819599E+02 
 +4.445042E+02 -2.602689E+00 -3.530925E+00 -2.602689E+00 +8.640519E+02 -1.007356E+01 -3.530925E+00 -1.007356E+01 +3.990596E+02 
 +4.653954E+02 -4.382314E+00 +2.400100E+00 -4.382314E+00 +8.748987E+02 -1.023059E+01 +2.400100E+00 -1.023059E+01 +3.963455E+02 
 +4.588261E+02 -5.519257E+00 -3.016982E+00 -5.519257E+00 +8.652819E+02 -7.965387E+00 -3.016982E+00 -7.965387E+00 +3.576286E+02 
 +4.917760E+02 -1.361576E+01 +4.812169E+00 -1.361576E+01 +8.718645E+02 -9.383804E+00 +4.812169E+00 -9.383804E+00 +3.663821E+02 
 +4.743629E+02 -1.337798E+01 -6.254357E+00 -1.337798E+01 +8.557116E+02 -8.778943E+00 -6.254357E+00 -8.778943E+00 +3.626906E+02 
 +4.706256E+02 -1.164451E+01 +3.698001E+00 -1.164451E+01 +8.526227E+02 -1.871926E+00 +3.698001E+00 -1.871926E+00 +3.685114E+02 
 +4.711109E+02 +3.869823E+00 +2.699738E+01 +3.869823E+00 +8.498118E+02 +8.985086E-01 +2.699738E+01 +8.985086E-01 +3.744636E+02 
 +4.948356E+02 -7.691464E-01 +2.540291E+01 -7.691464E-01 +8.623075E+02 -1.150483E+01 +2.540291E+01 -1.150483E+01 +4.067049E+02 
 +5.216072E+02 +7.979792E+00 +2.346320E-01 +7.979792E+00 +8.657471E+02 -1.752220E+01 +2.346320E-01 -1.752220E+01 +4.372060E+02 
 +5.185415E+02 +1.179855E+01 +6.979762E+00 +1.179855E+01 +8.500046E+02 -1.143554E+01 +6.979762E+00 -1.143554E+01 +4.243276E+02 
 +5.311757E+02 +1.277478E+01 +3.896975E+00 +1.277478E+01 +8.552477E+02 -9.140072E+00 +3.896975E+00 -9.140072E+00 +4.150209E+02 
 +5.399058E+02 +1.528590E+01 +1.086652E+01 +1.528590E+01 +8.727317E+02 -3.882039E+00 +1.086652E+01 -3.882039E+00 +4.026424E+02 
 +4.681211E+02 -8.643466E-01 -2.527941E+01 -8.643466E-01 +8.549000E+02 +9.504320E+00 -2.527941E+01 +9.504320E+00 +3.708230E+02 
 +4.774349E+02 +1.008925E-01 -2.798294E+01 +1.008925E-01 +8.600022E+02 +1.738877E+01 -2.798294E+01 +1.738877E+01 +3.603225E+02 
 +4.904936E+02 +2.443036E+00 -2.385229E+01 +2.443036E+00 +8.480191E+02 +1.127485E+01 -2.385229E+01 +1.127485E+01 +3.416095E+02 
 +5.101622E+02 +2.102972E+00 -1.579752E+01 +2.102972E+00 +8.429125E+02 -2.846561E-02 -1.579752E+01 -2.846561E-02 +3.531114E+02 
 +5.224492E+02 +1.264383E+01 +3.742426E+01 +1.264383E+01 +8.768086E+02 +1.330804E+01 +3.742426E+01 +1.330804E+01 +3.213333E+02 
 +5.137456E+02 +6.346410E+00 +4.171535E+01 +6.346410E+00 +8.745365E+02 +9.438640E+00 +4.171535E+01 +9.438640E+00 +3.326811E+02 
 +4.836785E+02 +3.433882E+00 +1.180212E+01 +3.433882E+00 +8.704497E+02 +6.338838E+00 +1.180212E+01 +6.338838E+00 +3.402655E+02 
 +4.408528E+02 +1.340210E+00 -2.383265E+01 +1.340210E+00 +8.520455E+02 +1.044506E+00 -2.383265E+01 +1.044506E+00 +3.431553E+02 
 +4.377975E+02 +8.975518E-01 -1.348260E+01 +8.975518E-01 +8.564037E+02 -4.057182E+00 -1.348260E+01 -4.057182E+00 +3.813906E+02 
 +4.420404E+02 -2.899570E+00 -3.077257E+00 -2.899570E+00 +8.609148E+02 -7.209261E+00 -3.077257E+00 -7.209261E+00 +4.058852E+02 
 +4.565765E+02 -3.938964E+00 +4.494255E+00 -3.938964E+00 +8.657584E+02 -1.195505E+01 +4.494255E+00 -1.195505E+01 +3.993136E+02 
 +4.540769E+02 -5.856446E+00 +8.273079E+00 -5.856446E+00 +8.503457E+02 -7.946240E+00 +8.273079E+00 -7.946240E+00 +3.516525E+02 
 +4.745222E+02 -8.603145E+00 +4.239455E+00 -8.603145E+00 +8.565991E+02 -1.466652E+00 +4.239455E+00 -1.466652E+00 +3.487858E+02 
 +4.788936E+02 -6.046199E+00 -7.532688E+00 -6.046199E+00 +8.571642E+02 -3.052297E+00 -7.532688E+00 -3.052297E+00 +3.609099E+02 
 +4.766611E+02 -4.359846E+00 -2.801352E+00 -4.359846E+00 +8.527310E+02 +9.656292E-01 -2.801352E+00 +9.656292E-01 +3.683070E+02 
 +4.851314E+02 +1.169505E+01 +1.398851E+01 +1.169505E+01 +8.538464E+02 -1.383977E+00 +1.398851E+01 -1.383977E+00 +3.810600E+02 
 +5.166302E+02 +7.517931E+00 +9.375083E-02 +7.517931E+00 +8.630531E+02 -1.779992E+01 +9.375083E-02 -1.779992E+01 +4.118492E+02 
 +5.286197E+02 +1.143396E+01 -6.918166E+00 +1.143396E+01 +8.643305E+02 -2.269902E+01 -6.918166E+00 -2.269902E+01 +4.223802E+02 
 +5.220099E+02 +1.143530E+01 +8.511601E-01 +1.143530E+01 +8.563854E+02 -1.793746E+01 +8.511601E-01 -1.793746E+01 +4.107457E+02 
 +5.252444E+02 +1.009135E+01 -9.395117E-01 +1.009135E+01 +8.552635E+02 -1.521220E+01 -9.395117E-01 -1.521220E+01 +4.128708E+02 
 +5.243788E+02 +1.545034E+01 +2.179957E+00 +1.545034E+01 +8.532750E+02 -1.569460E+01 +2.179957E+00 -1.569460E+01 +4.063790E+02 
 +4.897556E+02 +4.598476E+00 -1.356837E+01 +4.598476E+00 +8.476933E+02 -8.389997E+00 -1.356837E+01 -8.389997E+00 +4.002940E+02 
 +4.882922E+02 +2.117700E+00 -9.593116E+00 +2.117700E+00 +8.564088E+02 +4.236858E+00 -9.593116E+00 +4.236858E+00 +3.858482E+02 
 +4.906901E+02 +9.328888E+00 -1.281582E+01 +9.328888E+00 +8.573141E+02 +1.700740E+01 -1.281582E+01 +1.700740E+01 +3.372530E+02 
 +5.090905E+02 +7.032686E+00 -2.320626E+01 +7.032686E+00 +8.758106E+02 +2.073441E+01 -2.320626E+01 +2.073441E+01 +3.262273E+02 
 +5.101913E+02 +1.606159E+00 +1.940588E+01 +1.606159E+00 +8.847746E+02 +2.352964E+01 +1.940588E+01 +2.352964E+01 +3.005295E+02 
 +5.083702E+02 +2.568548E+00 +3.226102E+01 +2.568548E+00 +8.868542E+02 +7.662761E+00 +3.226102E+01 +7.662761E+00 +3.258488E+02 
 +4.836526E+02 +3.904071E+00 +2.092861E+01 +3.904071E+00 +8.759427E+02 +3.504261E+00 +2.092861E+01 +3.504261E+00 +3.227560E+02 
 +4.319097E+02 +3.943739E+00 -2.550579E+01 +3.943739E+00 +8.534320E+02 +2.546778E+00 -2.550579E+01 +2.546778E+00 +3.207620E+02 
 +4.359617E+02 +8.781536E-01 -1.299860E+01 +8.781536E-01 +8.618538E+02 -7.906404E-01 -1.299860E+01 -7.906404E-01 +3.765944E+02 
 +4.393424E+02 -1.709353E-01 -5.542719E+00 -1.709353E-01 +8.604907E+02 -5.206563E+00 -5.542719E+00 -5.206563E+00 +4.087148E+02 
 +4.480197E+02 +5.393807E-01 +3.838084E+00 +5.393807E-01 +8.547991E+02 -7.667298E+00 +3.838084E+00 -7.667298E+00 +4.023614E+02 
 +4.713892E+02 -1.570629E+00 +2.202207E+01 -1.570629E+00 +8.525019E+02 -5.431589E+00 +2.202207E+01 -5.431589E+00 +3.660702E+02 
 +4.674243E+02 -1.284041E+00 +1.144618E+01 -1.284041E+00 +8.450549E+02 -5.060114E+00 +1.144618E+01 -5.060114E+00 +3.455278E+02 
 +4.716355E+02 -2.810188E+00 -1.134308E+00 -2.810188E+00 +8.444180E+02 -1.789337E+00 -1.134308E+00 -1.789337E+00 +3.471375E+02 
 +4.786370E+02 +2.003056E+00 -2.976352E+00 +2.003056E+00 +8.418807E+02 +1.435302E+00 -2.976352E+00 +1.435302E+00 +3.538392E+02 
 +4.990408E+02 +1.717803E+01 +7.806018E-01 +1.717803E+01 +8.432574E+02 -6.684089E+00 +7.806018E-01 -6.684089E+00 +3.723393E+02 
 +5.142005E+02 +1.465041E+01 -6.000374E+00 +1.465041E+01 +8.504599E+02 -1.594742E+01 -6.000374E+00 -1.594742E+01 +3.914648E+02 
 +5.157638E+02 +1.404975E+01 -5.624353E+00 +1.404975E+01 +8.580401E+02 -1.697905E+01 -5.624353E+00 -1.697905E+01 +3.976984E+02 
 +5.138864E+02 +1.107529E+01 -2.373818E+00 +1.107529E+01 +8.571920E+02 -1.599931E+01 -2.373818E+00 -1.599931E+01 +3.993123E+02 
 +5.147009E+02 +9.145522E+00 -3.486605E+00 +9.145522E+00 +8.555485E+02 -1.231666E+01 -3.486605E+00 -1.231666E+01 +4.019891E+02 
 +5.142266E+02 +1.291274E+01 -8.991408E+00 +1.291274E+01 +8.446421E+02 -2.010131E+01 -8.991408E+00 -2.010131E+01 +4.098912E+02 
 +4.986035E+02 +6.817286E+00 +7.615505E+00 +6.817286E+00 +8.319887E+02 -2.290647E+01 +7.615505E+00 -2.290647E+01 +4.016868E+02 
 +4.791184E+02 -4.520797E+00 +1.912548E+01 -4.520797E+00 +8.404742E+02 -9.824291E+00 +1.912548E+01 -9.824291E+00 +3.684263E+02 
 +4.870241E+02 -4.008610E+00 +1.385932E+01 -4.008610E+00 +8.619249E+02 +6.305567E+00 +1.385932E+01 +6.305567E+00 +3.383006E+02 
 +5.072293E+02 -4.812863E+00 -2.607987E+01 -4.812863E+00 +8.801592E+02 +2.490292E+01 -2.607987E+01 +2.490292E+01 +3.141004E+02 
 +5.078872E+02 -1.571916E+01 -6.663060E+00 -1.571916E+01 +8.795334E+02 +2.070546E+01 -6.663060E+00 +2.070546E+01 +3.008711E+02 
 +4.981064E+02 -1.126134E+01 +4.627333E+00 -1.126134E+01 +8.777802E+02 +9.741812E+00 +4.627333E+00 +9.741812E+00 +3.103585E+02 
 +4.940231E+02 -6.947382E+00 +1.033923E+01 -6.947382E+00 +8.777960E+02 -2.723760E+00 +1.033923E+01 -2.723760E+00 +3.111058E+02 
 +4.446947E+02 -2.546940E+00 -2.116404E+01 -2.546940E+00 +8.589093E+02 -5.157901E+00 -2.116404E+01 -5.157901E+00 +3.176513E+02 
 +4.455262E+02 +8.724239E-01 -1.047116E+01 +8.724239E-01 +8.644521E+02 -4.755472E+00 -1.047116E+01 -4.755472E+00 +3.657494E+02 
 +4.415712E+02 +6.239327E+00 +3.627075E+00 +6.239327E+00 +8.587542E+02 -6.997639E+00 +3.627075E+00 -6.997639E+00 +3.919557E+02 
 +4.371460E+02 +8.979140E+00 +9.406599E+00 +8.979140E+00 +8.427749E+02 -2.598605E+00 +9.406599E+00 -2.598605E+00 +3.753917E+02 
 +4.590216E+02 +4.879329E+00 +2.782428E+01 +4.879329E+00 +8.390862E+02 -2.425657E+00 +2.782428E+01 -2.425657E+00 +3.454094E+02 
 +4.641477E+02 +2.415702E+00 +2.111580E+01 +2.415702E+00 +8.373617E+02 -7.737428E+00 +2.111580E+01 -7.737428E+00 +3.351907E+02 
 +4.659187E+02 -6.090158E-01 +1.864580E+01 -6.090158E-01 +8.265411E+02 -1.108056E+00 +1.864580E+01 -1.108056E+00 +3.282930E+02 
 +4.870959E+02 +1.154391E+01 +2.172320E+00 +1.154391E+01 +8.358344E+02 +5.249966E+00 +2.172320E+00 +5.249966E+00 +3.425711E+02 
 +5.056014E+02 +1.389376E+01 -2.538576E+00 +1.389376E+01 +8.479578E+02 -4.699734E-01 -2.538576E+00 -4.699734E-01 +3.628151E+02 
 +5.035234E+02 +1.332674E+01 -4.269799E+00 +1.332674E+01 +8.454557E+02 -5.794250E+00 -4.269799E+00 -5.794250E+00 +3.692451E+02 
 +5.063519E+02 +1.176261E+01 -5.892611E+00 +1.176261E+01 +8.532069E+02 -1.090579E+01 -5.892611E+00 -1.090579E+01 +3.801726E+02 
 +5.055784E+02 +1.095007E+01 -3.612327E+00 +1.095007E+01 +8.555698E+02 -9.590628E+00 -3.612327E+00 -9.590628E+00 +3.879534E+02 
 +5.011057E+02 +8.533034E+00 -4.589683E+00 +8.533034E+00 +8.519235E+02 -8.605954E+00 -4.589683E+00 -8.605954E+00 +3.887544E+02 
 +4.877014E+02 +2.720427E+00 -3.810867E+00 +2.720427E+00 +8.457803E+02 -1.154568E+01 -3.810867E+00 -1.154568E+01 +4.005443E+02 
 +4.920293E+02 -8.093928E+00 +2.866092E+01 -8.093928E+00 +8.526388E+02 -1.150298E+01 +2.866092E+01 -1.150298E+01 +3.955628E+02 
 +4.833146E+02 -1.850570E+01 +3.445901E+01 -1.850570E+01 +8.535022E+02 -5.373482E+00 +3.445901E+01 -5.373482E+00 +3.605719E+02 
 +4.796865E+02 -1.751561E+01 +2.461937E+01 -1.751561E+01 +8.605833E+02 +1.025780E+01 +2.461937E+01 +1.025780E+01 +3.406643E+02 
 +5.190582E+02 -1.959400E+01 -2.384301E+01 -1.959400E+01 +8.852219E+02 +2.328590E+01 -2.384301E+01 +2.328590E+01 +3.245423E+02 
 +5.083678E+02 -1.619330E+01 -1.066425E+01 -1.619330E+01 +8.765000E+02 +1.203347E+01 -1.066425E+01 +1.203347E+01 +3.082959E+02 
 +4.981062E+02 -1.508536E+01 -5.766219E+00 -1.508536E+01 +8.740224E+02 +5.915687E+00 -5.766219E+00 +5.915687E+00 +3.078742E+02 
 +4.952603E+02 -1.254937E+01 -2.106103E+00 -1.254937E+01 +8.731128E+02 -2.759283E+00 -2.106103E+00 -2.759283E+00 +3.136077E+02 
 +4.789905E+02 -1.095376E+01 -7.065938E+00 -1.095376E+01 +8.640211E+02 -2.128070E+00 -7.065938E+00 -2.128070E+00 +3.257918E+02 
 +4.603966E+02 -8.119671E+00 -9.072386E+00 -8.119671E+00 +8.578579E+02 +1.435734E+00 -9.072386E+00 +1.435734E+00 +3.414817E+02 
 +4.562969E+02 +1.130220E+00 +2.224111E+01 +1.130220E+00 +8.625251E+02 +4.505059E+00 +2.224111E+01 +4.505059E+00 +3.546955E+02 
 +4.482858E+02 +7.747361E+00 +1.827041E+01 +7.747361E+00 +8.577835E+02 +1.003015E+01 +1.827041E+01 +1.003015E+01 +3.344482E+02 
 +4.560070E+02 +1.211027E+01 +2.986215E+01 +1.211027E+01 +8.564253E+02 +6.892285E+00 +2.986215E+01 +6.892285E+00 +3.141072E+02 
 +4.792001E+02 +1.278427E+01 +2.431257E+01 +1.278427E+01 +8.637899E+02 +2.732091E+00 +2.431257E+01 +2.732091E+00 +3.207294E+02 
 +4.827814E+02 +3.133250E+00 +2.923794E+01 +3.133250E+00 +8.549136E+02 +4.547307E+00 +2.923794E+01 +4.547307E+00 +3.174621E+02 
 +4.814963E+02 +1.076556E+01 +9.855859E+00 +1.076556E+01 +8.379053E+02 +7.290922E+00 +9.855859E+00 +7.290922E+00 +3.237683E+02 
 +4.852645E+02 +1.054429E+01 -2.603612E+00 +1.054429E+01 +8.377224E+02 +1.644552E+00 -2.603612E+00 +1.644552E+00 +3.400986E+02 
 +4.980215E+02 +9.790685E+00 -7.073693E+00 +9.790685E+00 +8.476765E+02 -5.081533E+00 -7.073693E+00 -5.081533E+00 +3.570961E+02 
 +5.016277E+02 +8.838522E+00 -5.876338E+00 +8.838522E+00 +8.477584E+02 -5.436365E+00 -5.876338E+00 -5.436365E+00 +3.721545E+02 
 +5.042422E+02 +9.210461E+00 -1.065186E+00 +9.210461E+00 +8.546884E+02 -7.098665E+00 -1.065186E+00 -7.098665E+00 +3.801792E+02 
 +4.939751E+02 +7.569399E+00 -1.771525E+00 +7.569399E+00 +8.593919E+02 -7.282315E+00 -1.771525E+00 -7.282315E+00 +3.853820E+02 
 +4.514450E+02 +5.608895E+00 +1.273041E+01 +5.608895E+00 +8.481664E+02 +1.300037E+00 +1.273041E+01 +1.300037E+00 +3.878761E+02 
 +4.745678E+02 +5.434187E-01 +2.418522E+01 +5.434187E-01 +8.574430E+02 +9.375331E+00 +2.418522E+01 +9.375331E+00 +3.990105E+02 
 +4.874861E+02 -5.175791E+00 +3.279310E+01 -5.175791E+00 +8.580370E+02 +1.234584E+01 +3.279310E+01 +1.234584E+01 +3.845320E+02 
 +4.724228E+02 -8.339164E+00 +2.786453E+01 -8.339164E+00 +8.568891E+02 +1.685171E+01 +2.786453E+01 +1.685171E+01 +3.517088E+02 
 +5.184962E+02 -1.697502E+01 -1.991714E+01 -1.697502E+01 +8.842485E+02 +1.697839E+01 -1.991714E+01 +1.697839E+01 +3.332764E+02 
 +5.044032E+02 -7.969343E+00 -7.979322E+00 -7.969343E+00 +8.749260E+02 +6.410695E+00 -7.979322E+00 +6.410695E+00 +3.123143E+02 
 +4.991385E+02 -6.376367E+00 -4.087889E+00 -6.376367E+00 +8.728380E+02 +4.067710E+00 -4.087889E+00 +4.067710E+00 +3.089271E+02 
 +4.959788E+02 -4.268690E+00 -2.104700E+00 -4.268690E+00 +8.713623E+02 +1.673528E+00 -2.104700E+00 +1.673528E+00 +3.126408E+02 
 +4.937742E+02 -6.279279E+00 +1.672039E+00 -6.279279E+00 +8.717281E+02 +2.263748E+00 +1.672039E+00 +2.263748E+00 +3.203183E+02 
 +4.850504E+02 -8.917998E+00 -1.034606E+01 -8.917998E+00 +8.732874E+02 +7.380879E+00 -1.034606E+01 +7.380879E+00 +3.259101E+02 
 +4.752412E+02 -4.591346E+00 +2.557727E+01 -4.591346E+00 +8.752483E+02 +1.141563E+01 +2.557727E+01 +1.141563E+01 +3.293672E+02 
 +4.715649E+02 -4.309559E+00 +1.421165E+01 -4.309559E+00 +8.744283E+02 +7.877974E+00 +1.421165E+01 +7.877974E+00 +3.240312E+02 
 +4.745640E+02 -7.390227E-01 +1.930816E+01 -7.390227E-01 +8.699206E+02 +6.393744E-01 +1.930816E+01 +6.393744E-01 +3.114068E+02 
 +4.799184E+02 +1.566244E+00 +2.100061E+01 +1.566244E+00 +8.624322E+02 +2.652323E+00 +2.100061E+01 +2.652323E+00 +2.975376E+02 
 +4.773223E+02 -5.470920E+00 +2.648180E+01 -5.470920E+00 +8.627693E+02 +6.276607E+00 +2.648180E+01 +6.276607E+00 +2.928685E+02 
 +4.715455E+02 -4.987238E+00 +2.437406E+01 -4.987238E+00 +8.551897E+02 +9.953188E+00 +2.437406E+01 +9.953188E+00 +2.982609E+02 
 +4.768553E+02 +5.089986E+00 +1.568313E+00 +5.089986E+00 +8.421678E+02 +7.443677E+00 +1.568313E+00 +7.443677E+00 +3.182578E+02 
 +4.910019E+02 +3.715041E+00 -1.459241E+00 +3.715041E+00 +8.426576E+02 -5.758933E-01 -1.459241E+00 -5.758933E-01 +3.399828E+02 
 +4.892117E+02 +6.343852E+00 -1.475419E+00 +6.343852E+00 +8.378770E+02 -1.323365E+00 -1.475419E+00 -1.323365E+00 +3.482086E+02 
 +4.956812E+02 +8.312451E+00 +5.627474E-01 +8.312451E+00 +8.550095E+02 -7.047212E+00 +5.627474E-01 -7.047212E+00 +3.694592E+02 
 +5.030501E+02 +4.890743E+00 -2.934883E-01 +4.890743E+00 +8.790346E+02 -7.249877E+00 -2.934883E-01 -7.249877E+00 +3.890743E+02 
 +4.384922E+02 +6.474982E+00 +8.535692E+00 +6.474982E+00 +8.457598E+02 -8.958293E-01 +8.535692E+00 -8.958293E-01 +3.787555E+02 
 +4.651544E+02 +3.800118E+00 +9.957428E+00 +3.800118E+00 +8.536367E+02 +8.982062E+00 +9.957428E+00 +8.982062E+00 +3.982427E+02 
 +4.692915E+02 +4.474513E+00 +2.344766E+01 +4.474513E+00 +8.541602E+02 +1.616106E+01 +2.344766E+01 +1.616106E+01 +3.842558E+02 
 +4.606903E+02 +2.315560E+00 +2.500055E+01 +2.315560E+00 +8.519624E+02 +1.416566E+01 +2.500055E+01 +1.416566E+01 +3.499564E+02 
 +5.094192E+02 -8.340593E+00 -1.995889E+01 -8.340593E+00 +8.787008E+02 +1.043024E+01 -1.995889E+01 +1.043024E+01 +3.345233E+02 
 +5.014481E+02 -4.074137E+00 -1.036253E+01 -4.074137E+00 +8.698958E+02 +6.804078E-01 -1.036253E+01 +6.804078E-01 +3.160306E+02 
 +4.998612E+02 -1.910955E+00 -6.393975E+00 -1.910955E+00 +8.690134E+02 -6.065000E-01 -6.393975E+00 -6.065000E-01 +3.109915E+02 
 +4.987485E+02 -3.742733E-01 -2.959369E+00 -3.742733E-01 +8.707593E+02 -1.721325E+00 -2.959369E+00 -1.721325E+00 +3.122516E+02 
 +4.959573E+02 +4.827026E-01 +1.658854E+00 +4.827026E-01 +8.751014E+02 -2.386270E+00 +1.658854E+00 -2.386270E+00 +3.143446E+02 
 +4.967887E+02 -1.485685E+00 -1.133757E+01 -1.485685E+00 +8.831546E+02 -2.280334E+00 -1.133757E+01 -2.280334E+00 +3.187906E+02 
 +4.881224E+02 +1.165811E-01 +2.310721E+01 +1.165811E-01 +8.844058E+02 -1.712458E-01 +2.310721E+01 -1.712458E-01 +3.246300E+02 
 +4.878113E+02 -2.527870E+00 +1.002283E+01 -2.527870E+00 +8.829982E+02 +1.441292E+00 +1.002283E+01 +1.441292E+00 +3.310113E+02 
 +4.875138E+02 -3.439664E+00 +1.351291E+01 -3.439664E+00 +8.735031E+02 +2.344013E+00 +1.351291E+01 +2.344013E+00 +3.187314E+02 
 +4.795606E+02 -6.354647E+00 +1.880434E+01 -6.354647E+00 +8.620938E+02 +6.660222E+00 +1.880434E+01 +6.660222E+00 +2.959609E+02 
 +4.739283E+02 -9.105393E+00 +1.941114E+01 -9.105393E+00 +8.583685E+02 +1.190059E+01 +1.941114E+01 +1.190059E+01 +2.824078E+02 
 +4.585471E+02 -1.329557E+01 +2.704749E+01 -1.329557E+01 +8.456389E+02 +1.417508E+01 +2.704749E+01 +1.417508E+01 +2.691962E+02 
 +4.628845E+02 -1.737575E+00 +6.926863E+00 -1.737575E+00 +8.371867E+02 +9.781115E+00 +6.926863E+00 +9.781115E+00 +2.876608E+02 
 +4.823022E+02 -6.045309E-02 +5.423339E+00 -6.045309E-02 +8.513607E+02 +1.478097E+00 +5.423339E+00 +1.478097E+00 +3.164337E+02 
 +4.932274E+02 -2.673605E+00 +2.722144E+00 -2.673605E+00 +8.746106E+02 -1.328312E+00 +2.722144E+00 -1.328312E+00 +3.270469E+02 
 +4.963960E+02 +4.591102E-01 +2.277765E+00 +4.591102E-01 +8.791724E+02 -1.939779E+00 +2.277765E+00 -1.939779E+00 +3.457767E+02 
 +4.997829E+02 -1.682367E+00 +1.645380E+00 -1.682367E+00 +8.752628E+02 -4.102328E+00 +1.645380E+00 -4.102328E+00 +3.682175E+02 
 +4.544145E+02 -9.077729E-01 +1.020391E+00 -9.077729E-01 +8.505430E+02 -2.671476E+00 +1.020391E+00 -2.671476E+00 +3.712521E+02 
 +4.509314E+02 -7.315913E-02 +8.309152E+00 -7.315913E-02 +8.515291E+02 +3.746484E+00 +8.309152E+00 +3.746484E+00 +3.826764E+02 
 +4.538020E+02 +3.596420E+00 +1.857245E+01 +3.596420E+00 +8.511302E+02 +4.593779E+00 +1.857245E+01 +4.593779E+00 +3.747451E+02 
 +4.528143E+02 +4.754449E+00 +2.321981E+01 +4.754449E+00 +8.470482E+02 +2.739902E+00 +2.321981E+01 +2.739902E+00 +3.515870E+02 
 +5.046000E+02 -5.407025E+00 -2.156261E+01 -5.407025E+00 +8.739475E+02 +2.691946E+00 -2.156261E+01 +2.691946E+00 +3.396622E+02 
 +4.994946E+02 -1.114223E+00 -1.218555E+01 -1.114223E+00 +8.648758E+02 -3.367190E+00 -1.218555E+01 -3.367190E+00 +3.215963E+02 
 +5.002923E+02 +3.704193E-02 -8.515308E+00 +3.704193E-02 +8.644598E+02 -4.339642E+00 -8.515308E+00 -4.339642E+00 +3.174095E+02 
 +4.993945E+02 +2.005256E+00 -5.081119E+00 +2.005256E+00 +8.648302E+02 -6.268706E+00 -5.081119E+00 -6.268706E+00 +3.207743E+02 
 +5.004457E+02 +3.799475E+00 +2.064387E+00 +3.799475E+00 +8.711349E+02 -7.258975E+00 +2.064387E+00 -7.258975E+00 +3.253314E+02 
 +5.066420E+02 +2.546048E+00 -7.184724E+00 +2.546048E+00 +8.861259E+02 -4.262469E+00 -7.184724E+00 -4.262469E+00 +3.294387E+02 
 +5.036284E+02 +1.811137E+00 +2.489142E+01 +1.811137E+00 +8.913899E+02 -8.001563E-01 +2.489142E+01 -8.001563E-01 +3.362417E+02 
 +4.994310E+02 -2.977791E+00 +1.413131E+01 -2.977791E+00 +8.917831E+02 -2.358282E+00 +1.413131E+01 -2.358282E+00 +3.440920E+02 
 +4.969461E+02 -7.472883E+00 +1.748045E+01 -7.472883E+00 +8.907830E+02 -1.722160E+00 +1.748045E+01 -1.722160E+00 +3.410336E+02 
 +4.935894E+02 -8.656095E+00 +1.658852E+01 -8.656095E+00 +8.829847E+02 +5.036990E+00 +1.658852E+01 +5.036990E+00 +3.269441E+02 
 +4.882496E+02 -1.041411E+01 +1.318309E+01 -1.041411E+01 +8.742756E+02 +1.427769E+01 +1.318309E+01 +1.427769E+01 +3.050584E+02 
 +4.653250E+02 -1.719073E+01 +1.670091E+01 -1.719073E+01 +8.681466E+02 +1.982010E+01 +1.670091E+01 +1.982010E+01 +2.739248E+02 
 +4.633193E+02 -1.638580E+01 +1.489132E+01 -1.638580E+01 +8.798591E+02 +2.147024E+01 +1.489132E+01 +2.147024E+01 +2.678252E+02 
 +4.872270E+02 -1.092528E+01 +9.769920E+00 -1.092528E+01 +8.912004E+02 +1.511370E+01 +9.769920E+00 +1.511370E+01 +2.867208E+02 
 +4.867031E+02 -6.420069E+00 +1.241511E+01 -6.420069E+00 +8.791304E+02 +6.844677E+00 +1.241511E+01 +6.844677E+00 +2.917850E+02 
 +4.887014E+02 -2.810628E+00 +6.311639E+00 -2.810628E+00 +8.741512E+02 +2.468884E+00 +6.311639E+00 +2.468884E+00 +3.053191E+02 
 +4.867148E+02 -4.614152E+00 +3.563925E+00 -4.614152E+00 +8.707993E+02 -4.360676E+00 +3.563925E+00 -4.360676E+00 +3.292211E+02 
 +4.772373E+02 -4.873046E+00 +4.616793E+00 -4.873046E+00 +8.647563E+02 -2.826592E+00 +4.616793E+00 -2.826592E+00 +3.529767E+02 
 +4.511139E+02 +1.224816E+00 +6.462206E+00 +1.224816E+00 +8.526532E+02 +2.885947E+00 +6.462206E+00 +2.885947E+00 +3.627029E+02 
 +4.445419E+02 +9.365424E+00 +1.576864E+01 +9.365424E+00 +8.511086E+02 +2.902251E+00 +1.576864E+01 +2.902251E+00 +3.637826E+02 
 +4.476996E+02 +1.013139E+01 +2.322023E+01 +1.013139E+01 +8.499371E+02 +1.601269E+00 +2.322023E+01 +1.601269E+00 +3.503285E+02 
 +5.020299E+02 -1.510827E+00 -2.196175E+01 -1.510827E+00 +8.716182E+02 -7.160411E-01 -2.196175E+01 -7.160411E-01 +3.428303E+02 
 +4.962738E+02 -4.086580E-01 -1.317863E+01 -4.086580E-01 +8.617417E+02 -5.087018E+00 -1.317863E+01 -5.087018E+00 +3.304259E+02 
 +4.973896E+02 +1.195133E+00 -1.011144E+01 +1.195133E+00 +8.568211E+02 -4.809227E+00 -1.011144E+01 -4.809227E+00 +3.265083E+02 
 +4.968091E+02 +2.070592E+00 -6.835237E+00 +2.070592E+00 +8.592885E+02 -5.717254E+00 -6.835237E+00 -5.717254E+00 +3.310868E+02 
 +4.914988E+02 +1.235247E+00 +5.210852E-01 +1.235247E+00 +8.574097E+02 -7.534533E+00 +5.210852E-01 -7.534533E+00 +3.328685E+02 
 +5.085782E+02 +3.003874E-01 -2.058318E+00 +3.003874E-01 +8.737871E+02 -3.051915E+00 -2.058318E+00 -3.051915E+00 +3.440151E+02 
 +5.243311E+02 -5.546446E+00 +2.030798E+01 -5.546446E+00 +8.972078E+02 +1.123479E+00 +2.030798E+01 +1.123479E+00 +3.708962E+02 
 +5.206075E+02 -6.510409E+00 +1.590811E+01 -6.510409E+00 +9.031542E+02 -4.479516E+00 +1.590811E+01 -4.479516E+00 +3.830038E+02 
 +5.102303E+02 -6.452003E+00 +2.168199E+01 -6.452003E+00 +8.978766E+02 -6.830822E+00 +2.168199E+01 -6.830822E+00 +3.683288E+02 
 +4.981819E+02 -5.644209E+00 +1.891113E+01 -5.644209E+00 +8.874480E+02 +2.569267E+00 +1.891113E+01 +2.569267E+00 +3.424668E+02 
 +4.882366E+02 -8.116499E+00 +1.088826E+01 -8.116499E+00 +8.800070E+02 +8.715489E+00 +1.088826E+01 +8.715489E+00 +3.223583E+02 
 +4.419545E+02 -1.351563E+01 +1.166770E+01 -1.351563E+01 +8.604918E+02 +8.760259E+00 +1.166770E+01 +8.760259E+00 +2.899107E+02 
 +4.502124E+02 -1.471927E+01 +1.854326E+01 -1.471927E+01 +8.667888E+02 +1.153045E+01 +1.854326E+01 +1.153045E+01 +2.651220E+02 
 +4.661388E+02 -1.018634E+01 +1.565620E+01 -1.018634E+01 +8.582508E+02 +1.286717E+01 +1.565620E+01 +1.286717E+01 +2.496499E+02 
 +4.644759E+02 -4.752778E+00 +2.275771E+01 -4.752778E+00 +8.445598E+02 +9.520218E+00 +2.275771E+01 +9.520218E+00 +2.583225E+02 
 +4.669974E+02 -5.201225E+00 +1.307135E+01 -5.201225E+00 +8.459211E+02 +5.488817E+00 +1.307135E+01 +5.488817E+00 +2.796798E+02 
 +4.680462E+02 -7.080999E+00 +4.453225E+00 -7.080999E+00 +8.498663E+02 +3.715263E+00 +4.453225E+00 +3.715263E+00 +2.977203E+02 
 +4.764368E+02 -7.926309E+00 +2.646381E+00 -7.926309E+00 +8.645934E+02 +3.179131E+00 +2.646381E+00 +3.179131E+00 +3.227895E+02 
 +4.779753E+02 -4.810614E+00 +2.801054E+00 -4.810614E+00 +8.724533E+02 +6.663785E+00 +2.801054E+00 +6.663785E+00 +3.394705E+02 
 +4.379131E+02 +6.705624E+00 +8.387254E+00 +6.705624E+00 +8.513080E+02 +3.779399E+00 +8.387254E+00 +3.779399E+00 +3.311687E+02 
 +4.418948E+02 +9.727928E+00 +1.448465E+01 +9.727928E+00 +8.458344E+02 -7.390639E+00 +1.448465E+01 -7.390639E+00 +3.320127E+02 
 +4.901919E+02 +1.922330E+00 -2.064580E+01 +1.922330E+00 +8.643226E+02 -9.169627E+00 -2.064580E+01 -9.169627E+00 +3.380241E+02 
 +4.808591E+02 -5.494841E-01 -1.009500E+01 -5.494841E-01 +8.543053E+02 -4.275965E+00 -1.009500E+01 -4.275965E+00 +3.308147E+02 
 +4.862092E+02 -1.149150E+00 -1.037540E+01 -1.149150E+00 +8.490752E+02 +3.786524E-01 -1.037540E+01 +3.786524E-01 +3.345788E+02 
 +4.950329E+02 +1.511533E+00 -6.508264E+00 +1.511533E+00 +8.576967E+02 -3.851304E+00 -6.508264E+00 -3.851304E+00 +3.467157E+02 
 +4.930093E+02 -1.180089E+00 -3.917377E+00 -1.180089E+00 +8.499758E+02 -7.370693E+00 -3.917377E+00 -7.370693E+00 +3.418978E+02 
 +4.882058E+02 +5.515972E+00 +1.507349E+00 +5.515972E+00 +8.245060E+02 -4.388293E+00 +1.507349E+00 -4.388293E+00 +3.436478E+02 
 +4.929195E+02 +2.141647E+00 +1.070550E+01 +2.141647E+00 +8.233288E+02 -1.496544E+00 +1.070550E+01 -1.496544E+00 +3.708614E+02 
 +5.012712E+02 -2.319605E+00 +6.605020E+00 -2.319605E+00 +8.454080E+02 -2.860979E+00 +6.605020E+00 -2.860979E+00 +3.879468E+02 
 +5.038892E+02 -7.645012E+00 +1.147569E+01 -7.645012E+00 +8.708339E+02 -7.588140E+00 +1.147569E+01 -7.588140E+00 +3.766119E+02 
 +5.016721E+02 -1.211160E+01 +9.391945E+00 -1.211160E+01 +8.866645E+02 -9.034416E+00 +9.391945E+00 -9.034416E+00 +3.580065E+02 
 +4.872121E+02 -1.365328E+01 +3.157928E-01 -1.365328E+01 +8.793574E+02 -4.314303E+00 +3.157928E-01 -4.314303E+00 +3.425588E+02 
 +4.379421E+02 -7.160009E+00 +6.357179E+00 -7.160009E+00 +8.357067E+02 +8.792702E-01 +6.357179E+00 +8.792702E-01 +3.207202E+02 
 +4.392416E+02 +1.403598E+00 +1.048383E+01 +1.403598E+00 +8.128580E+02 +6.556299E+00 +1.048383E+01 +6.556299E+00 +2.949495E+02 
 +4.346468E+02 +2.346055E+00 +1.737436E+01 +2.346055E+00 +8.145673E+02 +1.200779E+01 +1.737436E+01 +1.200779E+01 +2.632055E+02 
 +4.466650E+02 -2.361472E+00 +2.503727E+01 -2.361472E+00 +8.375871E+02 +1.124755E+01 +2.503727E+01 +1.124755E+01 +2.728319E+02 
 +4.583326E+02 -6.025760E+00 +2.084174E+01 -6.025760E+00 +8.410465E+02 +6.253555E+00 +2.084174E+01 +6.253555E+00 +2.791698E+02 
 +4.591380E+02 -3.911291E+00 +7.493290E+00 -3.911291E+00 +8.438153E+02 +2.729109E+00 +7.493290E+00 +2.729109E+00 +2.812957E+02 
 +4.695991E+02 -4.522778E+00 -5.765776E-01 -4.522778E+00 +8.576936E+02 -7.202636E-02 -5.765776E-01 -7.202636E-02 +2.950525E+02 
 +4.780659E+02 -5.226979E+00 +5.576841E+00 -5.226979E+00 +8.661933E+02 -2.482456E+00 +5.576841E+00 -2.482456E+00 +3.063633E+02 
 +4.536964E+02 +3.519932E+00 +2.173023E+00 +3.519932E+00 +8.532851E+02 -8.152866E+00 +2.173023E+00 -8.152866E+00 +3.143091E+02 
 +4.551713E+02 +9.291434E+00 +5.155447E+00 +9.291434E+00 +8.475871E+02 -1.696187E+01 +5.155447E+00 -1.696187E+01 +3.263787E+02 
 +4.740906E+02 +8.586662E+00 -1.126174E+01 +8.586662E+00 +8.546500E+02 -1.584658E+01 -1.126174E+01 -1.584658E+01 +3.332375E+02 
 +4.741122E+02 +6.874343E+00 -4.069789E+00 +6.874343E+00 +8.492374E+02 -5.609163E+00 -4.069789E+00 -5.609163E+00 +3.339824E+02 
 +4.496693E+02 +1.215429E+00 -1.217790E+01 +1.215429E+00 +8.226433E+02 +3.999768E+00 -1.217790E+01 +3.999768E+00 +3.377533E+02 
 +4.775223E+02 +8.263493E+00 -6.558591E+00 +8.263493E+00 +8.122527E+02 +4.846205E+00 -6.558591E+00 +4.846205E+00 +3.608012E+02 
 +4.867828E+02 +5.416668E+00 -2.996899E+00 +5.416668E+00 +8.149746E+02 -2.119440E+00 -2.996899E+00 -2.119440E+00 +3.525306E+02 
 +4.936208E+02 +3.757816E+00 +3.521113E+00 +3.757816E+00 +8.275715E+02 -6.976321E+00 +3.521113E+00 -6.976321E+00 +3.585833E+02 
 +4.939314E+02 +4.700941E+00 +3.135284E+00 +4.700941E+00 +8.272184E+02 -7.942464E+00 +3.135284E+00 -7.942464E+00 +3.722125E+02 
 +4.872832E+02 +4.387188E+00 -2.590085E+00 +4.387188E+00 +8.220014E+02 -3.806026E+00 -2.590085E+00 -3.806026E+00 +3.759503E+02 
 +4.740272E+02 +2.125417E+00 -2.684393E+00 +2.125417E+00 +8.101254E+02 -1.877832E+00 -2.684393E+00 -1.877832E+00 +3.675119E+02 
 +4.796524E+02 +1.426908E+00 -7.881229E+00 +1.426908E+00 +8.184473E+02 -5.835592E+00 -7.881229E+00 -5.835592E+00 +3.654376E+02 
 +4.706424E+02 -1.978508E+00 -9.851691E+00 -1.978508E+00 +8.210981E+02 -5.580113E+00 -9.851691E+00 -5.580113E+00 +3.577699E+02 
 +4.528907E+02 -4.829670E-01 -2.112452E-01 -4.829670E-01 +8.118329E+02 -4.622563E+00 -2.112452E-01 -4.622563E+00 +3.451073E+02 
 +4.386335E+02 +4.178684E+00 +4.488345E+00 +4.178684E+00 +8.183893E+02 -5.510005E+00 +4.488345E+00 -5.510005E+00 +3.347095E+02 
 +4.307700E+02 +4.699234E+00 +1.402828E+01 +4.699234E+00 +8.240286E+02 +1.128356E+00 +1.402828E+01 +1.128356E+00 +3.225726E+02 
 +4.292629E+02 +2.690570E+00 +2.288820E+01 +2.690570E+00 +8.248409E+02 +6.911057E+00 +2.288820E+01 +6.911057E+00 +3.093900E+02 
 +4.579814E+02 -1.203294E+00 +2.436107E+01 -1.203294E+00 +8.514080E+02 +7.085691E+00 +2.436107E+01 +7.085691E+00 +3.087363E+02 
 +4.657659E+02 -1.892861E+00 +6.052314E+00 -1.892861E+00 +8.575204E+02 +5.547119E+00 +6.052314E+00 +5.547119E+00 +3.020803E+02 
 +4.604203E+02 -7.076366E+00 -3.012163E+00 -7.076366E+00 +8.396480E+02 +2.694495E+00 -3.012163E+00 +2.694495E+00 +2.847918E+02 
 +4.650442E+02 -3.053974E+00 +4.819367E+00 -3.053974E+00 +8.364616E+02 -5.441835E+00 +4.819367E+00 -5.441835E+00 +2.852774E+02 
 +4.699891E+02 +3.493313E+00 +3.780517E+00 +3.493313E+00 +8.469036E+02 -9.130845E+00 +3.780517E+00 -9.130845E+00 +3.091946E+02 
 +4.713453E+02 +4.429188E+00 +1.568747E+00 +4.429188E+00 +8.505294E+02 -8.292475E+00 +1.568747E+00 -8.292475E+00 +3.244330E+02 
 +4.722722E+02 +7.236176E+00 -4.491137E+00 +7.236176E+00 +8.485928E+02 -1.046398E+01 -4.491137E+00 -1.046398E+01 +3.316035E+02 
 +4.831811E+02 +5.040482E+00 -1.508632E+00 +5.040482E+00 +8.464263E+02 -2.341861E+00 -1.508632E+00 -2.341861E+00 +3.398829E+02 
 +4.354804E+02 -2.906686E+00 -1.378968E+01 -2.906686E+00 +8.201437E+02 +4.810200E+00 -1.378968E+01 +4.810200E+00 +3.570285E+02 
 +4.742721E+02 +2.431959E+00 -1.006478E+01 +2.431959E+00 +8.273094E+02 +7.372588E+00 -1.006478E+01 +7.372588E+00 +3.874360E+02 
 +5.018438E+02 +5.809875E+00 +3.466101E+00 +5.809875E+00 +8.279645E+02 +8.070221E-01 +3.466101E+00 +8.070221E-01 +3.721848E+02 
 +4.979802E+02 +3.468851E+00 +4.135244E+00 +3.468851E+00 +8.281503E+02 -1.586105E+00 +4.135244E+00 -1.586105E+00 +3.591419E+02 
 +4.951342E+02 +7.371887E+00 +1.656784E+00 +7.371887E+00 +8.285671E+02 -1.214618E-01 +1.656784E+00 -1.214618E-01 +3.615732E+02 
 +4.933556E+02 +8.468726E+00 -4.756291E-01 +8.468726E+00 +8.296213E+02 +1.768168E+00 -4.756291E-01 +1.768168E+00 +3.683175E+02 
 +4.895682E+02 +6.163408E+00 -2.675127E+00 +6.163408E+00 +8.306267E+02 +2.333709E+00 -2.675127E+00 +2.333709E+00 +3.755177E+02 
 +4.893509E+02 +2.658362E+00 -5.998567E+00 +2.658362E+00 +8.240457E+02 +8.122985E-01 -5.998567E+00 +8.122985E-01 +3.758309E+02 
 +4.980632E+02 +2.242260E-01 -6.791295E+00 +2.242260E-01 +8.318853E+02 -7.445752E+00 -6.791295E+00 -7.445752E+00 +3.792342E+02 
 +4.486025E+02 -4.544989E+00 +2.381424E+00 -4.544989E+00 +8.198332E+02 -1.430940E+01 +2.381424E+00 -1.430940E+01 +3.576196E+02 
 +4.327384E+02 +3.682453E+00 +5.032862E+00 +3.682453E+00 +8.230390E+02 -1.276575E+01 +5.032862E+00 -1.276575E+01 +3.524773E+02 
 +4.347372E+02 +4.241126E+00 +1.210709E+01 +4.241126E+00 +8.360335E+02 -5.602171E+00 +1.210709E+01 -5.602171E+00 +3.594166E+02 
 +4.314621E+02 +4.742937E+00 +1.953505E+01 +4.742937E+00 +8.425946E+02 +5.441238E+00 +1.953505E+01 +5.441238E+00 +3.494668E+02 
 +4.455105E+02 -3.288096E+00 +2.127562E+01 -3.288096E+00 +8.538734E+02 +1.014788E+01 +2.127562E+01 +1.014788E+01 +3.463065E+02 
 +4.838931E+02 -7.308135E+00 +7.529815E-01 -7.308135E+00 +8.682548E+02 +1.162509E+01 +7.529815E-01 +1.162509E+01 +3.502560E+02 
 +4.734694E+02 -1.046041E+01 -8.158953E+00 -1.046041E+01 +8.478218E+02 +1.114686E+01 -8.158953E+00 +1.114686E+01 +3.206164E+02 
 +4.813720E+02 -2.850613E-01 -1.511014E-01 -2.850613E-01 +8.450207E+02 +3.729189E+00 -1.511014E-01 +3.729189E+00 +3.075853E+02 
 +4.835651E+02 +2.838781E+00 +4.107851E+00 +2.838781E+00 +8.500308E+02 -2.773426E+00 +4.107851E+00 -2.773426E+00 +3.116716E+02 
 +4.836537E+02 +2.474511E+00 +1.130526E+00 +2.474511E+00 +8.526677E+02 -6.485515E+00 +1.130526E+00 -6.485515E+00 +3.232999E+02 
 +4.836750E+02 +3.651764E+00 -2.093973E+00 +3.651764E+00 +8.493660E+02 -5.946926E+00 -2.093973E+00 -5.946926E+00 +3.283494E+02 
 +4.868772E+02 -1.502139E+00 +3.179515E-02 -1.502139E+00 +8.472602E+02 -3.930043E+00 +3.179515E-02 -3.930043E+00 +3.357141E+02 
 +4.363227E+02 -1.038032E+01 -1.640597E+01 -1.038032E+01 +8.273126E+02 -9.248696E-01 -1.640597E+01 -9.248696E-01 +3.628056E+02 
 +4.717132E+02 -3.967921E+00 -1.251278E+01 -3.967921E+00 +8.476534E+02 +3.569614E+00 -1.251278E+01 +3.569614E+00 +3.890165E+02 
 +5.197581E+02 +9.969693E+00 +9.563502E+00 +9.969693E+00 +8.491975E+02 +5.189562E+00 +9.563502E+00 +5.189562E+00 +3.766954E+02 
 +5.049016E+02 +1.011721E+01 +8.193956E+00 +1.011721E+01 +8.284048E+02 +5.344292E+00 +8.193956E+00 +5.344292E+00 +3.599448E+02 
 +5.007580E+02 +1.078558E+01 +2.885241E+00 +1.078558E+01 +8.315352E+02 +6.624981E+00 +2.885241E+00 +6.624981E+00 +3.656888E+02 
 +4.979491E+02 +1.094132E+01 +9.637459E-01 +1.094132E+01 +8.325206E+02 +5.796601E+00 +9.637459E-01 +5.796601E+00 +3.675710E+02 
 +4.985873E+02 +9.495022E+00 +5.087694E-01 +9.495022E+00 +8.378850E+02 +4.610071E+00 +5.087694E-01 +4.610071E+00 +3.738794E+02 
 +4.971368E+02 +3.891316E+00 +1.332188E+00 +3.891316E+00 +8.350087E+02 +1.868610E+00 +1.332188E+00 +1.868610E+00 +3.764238E+02 
 +4.839054E+02 +1.501288E+00 -5.365224E-01 +1.501288E+00 +8.229456E+02 -3.551812E+00 -5.365224E-01 -3.551812E+00 +3.748002E+02 
 +4.296802E+02 -4.257281E+00 +3.669700E+00 -4.257281E+00 +8.152581E+02 -1.303213E+01 +3.669700E+00 -1.303213E+01 +3.623555E+02 
 +4.444301E+02 -1.880367E+00 +3.026363E+00 -1.880367E+00 +8.463191E+02 -1.498502E+01 +3.026363E+00 -1.498502E+01 +3.753899E+02 
 +4.456918E+02 -4.864662E-01 +5.448903E+00 -4.864662E-01 +8.564812E+02 -7.631835E+00 +5.448903E+00 -7.631835E+00 +3.788690E+02 
 +4.378327E+02 +3.597656E+00 +1.180179E+01 +3.597656E+00 +8.594371E+02 +1.675960E+00 +1.180179E+01 +1.675960E+00 +3.677322E+02 
 +4.435028E+02 +1.930342E+00 +1.722573E+01 +1.930342E+00 +8.554970E+02 +7.985466E+00 +1.722573E+01 +7.985466E+00 +3.585874E+02 
 +4.877107E+02 -2.714466E-01 +5.847970E+00 -2.714466E-01 +8.697765E+02 +9.151140E+00 +5.847970E+00 +9.151140E+00 +3.709256E+02 
 +4.892245E+02 -7.422400E+00 +7.903629E-01 -7.422400E+00 +8.669106E+02 +1.022633E+01 +7.903629E-01 +1.022633E+01 +3.543450E+02 
 +5.046816E+02 +2.041923E+00 +9.820086E-01 +2.041923E+00 +8.746381E+02 +3.203537E+00 +9.820086E-01 +3.203537E+00 +3.330295E+02 
 +4.971933E+02 +3.140074E+00 +7.976889E-01 +3.140074E+00 +8.634440E+02 -4.802556E+00 +7.976889E-01 -4.802556E+00 +3.164397E+02 
 +4.946501E+02 -1.923324E-01 +1.182556E+00 -1.923324E-01 +8.557457E+02 -5.839775E+00 +1.182556E+00 -5.839775E+00 +3.235041E+02 
 +4.932933E+02 +3.193930E-01 +1.958202E+00 +3.193930E-01 +8.520698E+02 -6.183562E+00 +1.958202E+00 -6.183562E+00 +3.224592E+02 
 +4.973841E+02 +5.519343E-02 +5.163609E+00 +5.519343E-02 +8.567396E+02 -4.743869E+00 +5.163609E+00 -4.743869E+00 +3.338930E+02 
 +4.251352E+02 -7.133841E+00 -1.596386E+01 -7.133841E+00 +8.113653E+02 -4.235047E+00 -1.596386E+01 -4.235047E+00 +3.412219E+02 
 +4.566388E+02 +1.333763E+00 -9.440944E+00 +1.333763E+00 +8.069680E+02 -1.026205E+00 -9.440944E+00 -1.026205E+00 +3.561724E+02 
 +5.107623E+02 +1.560911E+01 +1.744494E+01 +1.560911E+01 +8.356610E+02 +5.730552E+00 +1.744494E+01 +5.730552E+00 +3.654547E+02 
 +5.128590E+02 +1.541836E+01 +1.405444E+01 +1.541836E+01 +8.418380E+02 +1.020514E+01 +1.405444E+01 +1.020514E+01 +3.686267E+02 
 +5.015582E+02 +1.478253E+01 +3.217874E+00 +1.478253E+01 +8.350099E+02 +1.041015E+01 +3.217874E+00 +1.041015E+01 +3.717317E+02 
 +5.029290E+02 +1.308437E+01 +1.239757E+00 +1.308437E+01 +8.393661E+02 +8.976029E+00 +1.239757E+00 +8.976029E+00 +3.783897E+02 
 +5.044841E+02 +8.430813E+00 +7.021582E-01 +8.430813E+00 +8.388248E+02 +6.500354E+00 +7.021582E-01 +6.500354E+00 +3.828643E+02 
 +5.172764E+02 +2.987652E+00 -2.946814E-01 +2.987652E+00 +8.602128E+02 -2.506430E+00 -2.946814E-01 -2.506430E+00 +3.963358E+02 
 +4.529560E+02 -5.819275E+00 +4.382632E+00 -5.819275E+00 +8.389339E+02 -1.170698E+01 +4.382632E+00 -1.170698E+01 +3.796619E+02 
 +4.337717E+02 -1.744741E+00 -9.150474E-01 -1.744741E+00 +8.280121E+02 -1.417233E+01 -9.150474E-01 -1.417233E+01 +3.726559E+02 
 +4.379366E+02 -1.884638E+00 -3.116051E-01 -1.884638E+00 +8.370864E+02 -1.289859E+01 -3.116051E-01 -1.289859E+01 +3.802230E+02 
 +4.457699E+02 +5.565705E+00 -3.066117E-01 +5.565705E+00 +8.464776E+02 -7.742672E+00 -3.066117E-01 -7.742672E+00 +3.842420E+02 
 +4.476671E+02 +9.145416E+00 +7.123855E+00 +9.145416E+00 +8.471027E+02 -5.500364E+00 +7.123855E+00 -5.500364E+00 +3.772377E+02 
 +4.550828E+02 +8.331748E+00 +2.300514E+01 +8.331748E+00 +8.531518E+02 -6.354571E+00 +2.300514E+01 -6.354571E+00 +3.707799E+02 
 +4.761388E+02 +3.389353E+00 +2.163090E+01 +3.389353E+00 +8.715112E+02 -5.955162E+00 +2.163090E+01 -5.955162E+00 +3.838879E+02 
 +4.869452E+02 -1.988800E+00 +1.790919E+01 -1.988800E+00 +8.804627E+02 -1.550665E+00 +1.790919E+01 -1.550665E+00 +3.710238E+02 
 +5.162901E+02 +2.039489E+00 +2.536220E+00 +2.039489E+00 +8.907081E+02 -3.499108E+00 +2.536220E+00 -3.499108E+00 +3.350966E+02 
 +5.055974E+02 -1.092608E+00 +3.181264E+00 -1.092608E+00 +8.719537E+02 -8.491537E+00 +3.181264E+00 -8.491537E+00 +3.152868E+02 
 +5.037795E+02 -1.024250E+00 +3.673468E+00 -1.024250E+00 +8.624643E+02 -6.606470E+00 +3.673468E+00 -6.606470E+00 +3.221452E+02 
 +5.004090E+02 -4.603547E-01 +6.331036E+00 -4.603547E-01 +8.545873E+02 -5.713574E+00 +6.331036E+00 -5.713574E+00 +3.166599E+02 
 +5.011153E+02 -1.805023E+00 +1.209140E+01 -1.805023E+00 +8.564872E+02 -1.120075E+01 +1.209140E+01 -1.120075E+01 +3.238198E+02 
 +4.578528E+02 -8.041132E+00 -7.177797E+00 -8.041132E+00 +8.389598E+02 -1.089336E+01 -7.177797E+00 -1.089336E+01 +3.368164E+02 
 +4.712108E+02 -5.115645E+00 -2.714770E+00 -5.115645E+00 +8.439004E+02 -5.098744E-01 -2.714770E+00 -5.098744E-01 +3.524588E+02 
 +5.175283E+02 +1.381587E+01 +1.974814E+01 +1.381587E+01 +8.493185E+02 +8.123467E+00 +1.974814E+01 +8.123467E+00 +3.714200E+02 
 +5.164715E+02 +1.634717E+01 +1.588140E+01 +1.634717E+01 +8.478479E+02 +4.946101E+00 +1.588140E+01 +4.946101E+00 +3.698835E+02 
 +4.991868E+02 +1.661335E+01 +4.084088E+00 +1.661335E+01 +8.451881E+02 +1.939353E+00 +4.084088E+00 +1.939353E+00 +3.650473E+02 
 +5.023747E+02 +1.249328E+01 +3.392732E+00 +1.249328E+01 +8.463843E+02 +4.668046E+00 +3.392732E+00 +4.668046E+00 +3.815817E+02 
 +5.073961E+02 +6.076862E+00 +5.597018E-01 +6.076862E+00 +8.462874E+02 +4.768139E+00 +5.597018E-01 +4.768139E+00 +3.955702E+02 
 +5.081234E+02 +7.265687E+00 -1.762652E+00 +7.265687E+00 +8.524510E+02 -1.030062E+00 -1.762652E+00 -1.030062E+00 +3.997576E+02 
 +4.262233E+02 -9.120083E-01 +6.741818E+00 -9.120083E-01 +8.240600E+02 -5.479690E+00 +6.741818E+00 -5.479690E+00 +3.726079E+02 
 +4.291391E+02 +5.612816E+00 -1.608724E+00 +5.612816E+00 +8.350294E+02 -9.085724E+00 -1.608724E+00 -9.085724E+00 +3.756795E+02 
 +4.401031E+02 +1.090612E+00 -6.953366E-01 +1.090612E+00 +8.414143E+02 -1.468728E+01 -6.953366E-01 -1.468728E+01 +3.871172E+02 
 +4.535648E+02 +5.376199E+00 +2.802374E+00 +5.376199E+00 +8.482109E+02 -1.292310E+01 +2.802374E+00 -1.292310E+01 +3.897271E+02 
 +4.624852E+02 +4.371524E+00 +8.784311E+00 +4.371524E+00 +8.504255E+02 -7.869835E+00 +8.784311E+00 -7.869835E+00 +3.899742E+02 
 +4.656877E+02 +4.047743E+00 +2.394354E+01 +4.047743E+00 +8.542712E+02 -8.580440E+00 +2.394354E+01 -8.580440E+00 +3.844859E+02 
 +4.580837E+02 -1.077403E-01 +2.717829E+01 -1.077403E-01 +8.598504E+02 -1.203505E+01 +2.717829E+01 -1.203505E+01 +3.796818E+02 
 +4.812021E+02 +1.381745E+00 +2.174613E+01 +1.381745E+00 +8.849254E+02 -1.067086E+01 +2.174613E+01 -1.067086E+01 +3.781552E+02 
 +5.361263E+02 +1.511596E+00 +7.394911E-01 +1.511596E+00 +9.092903E+02 -9.321921E+00 +7.394911E-01 -9.321921E+00 +3.591376E+02 
 +5.188685E+02 -1.984717E+00 +1.204846E+01 -1.984717E+00 +8.799945E+02 -8.198266E+00 +1.204846E+01 -8.198266E+00 +3.307145E+02 
 +5.121104E+02 +1.977515E+00 +1.147203E+01 +1.977515E+00 +8.675234E+02 -4.874275E+00 +1.147203E+01 -4.874275E+00 +3.258827E+02 
 +5.092912E+02 +2.022577E+00 +1.233383E+01 +2.022577E+00 +8.657183E+02 -7.298894E+00 +1.233383E+01 -7.298894E+00 +3.172107E+02 
 +4.939171E+02 -1.214527E+01 +1.352119E+01 -1.214527E+01 +8.533744E+02 -1.562651E+01 +1.352119E+01 -1.562651E+01 +3.192074E+02 
 +4.857669E+02 -1.262832E+01 +2.348152E+00 -1.262832E+01 +8.461606E+02 -1.315276E+01 +2.348152E+00 -1.315276E+01 +3.299304E+02 
 +4.802732E+02 -1.138607E+01 +1.041546E+01 -1.138607E+01 +8.446055E+02 +2.832438E-01 +1.041546E+01 +2.832438E-01 +3.369048E+02 
 +5.026759E+02 +1.108555E+01 +1.619688E+01 +1.108555E+01 +8.434133E+02 +9.874255E+00 +1.619688E+01 +9.874255E+00 +3.545638E+02 
 +5.028976E+02 +1.876057E+01 +1.112026E+01 +1.876057E+01 +8.387036E+02 +5.812343E+00 +1.112026E+01 +5.812343E+00 +3.533869E+02 
 +4.972546E+02 +1.393422E+01 +4.931117E+00 +1.393422E+01 +8.498354E+02 -3.599252E+00 +4.931117E+00 -3.599252E+00 +3.505142E+02 
 +5.085571E+02 +9.530505E+00 +5.202783E+00 +9.530505E+00 +8.619627E+02 -3.790270E+00 +5.202783E+00 -3.790270E+00 +3.728964E+02 
 +5.088243E+02 +7.234956E+00 +1.860301E-01 +7.234956E+00 +8.571258E+02 +3.207240E+00 +1.860301E-01 +3.207240E+00 +3.847103E+02 
 +4.874871E+02 +1.368512E+01 -7.228493E+00 +1.368512E+01 +8.479038E+02 +1.177000E+00 -7.228493E+00 +1.177000E+00 +3.854366E+02 
 +4.208451E+02 +2.946602E+00 +4.251207E+00 +2.946602E+00 +8.281534E+02 -3.990093E+00 +4.251207E+00 -3.990093E+00 +3.754216E+02 
 +4.283559E+02 +2.281228E+00 -6.349121E-01 +2.281228E+00 +8.416147E+02 -5.719722E+00 -6.349121E-01 -5.719722E+00 +3.828761E+02 
 +4.394705E+02 +3.468599E+00 +1.804609E+00 +3.468599E+00 +8.456213E+02 -1.367869E+01 +1.804609E+00 -1.367869E+01 +3.886050E+02 
 +4.545219E+02 +7.149795E+00 +6.023981E+00 +7.149795E+00 +8.487009E+02 -1.924445E+01 +6.023981E+00 -1.924445E+01 +3.924212E+02 
 +4.571048E+02 +3.513277E+00 +1.154783E+01 +3.513277E+00 +8.491997E+02 -1.379367E+01 +1.154783E+01 -1.379367E+01 +3.931208E+02 
 +4.606547E+02 -1.074735E+00 +1.609653E+01 -1.074735E+00 +8.539377E+02 -7.151901E+00 +1.609653E+01 -7.151901E+00 +3.903237E+02 
 +4.573162E+02 -5.857297E+00 +2.179510E+01 -5.857297E+00 +8.588489E+02 -1.299856E+01 +2.179510E+01 -1.299856E+01 +3.782232E+02 
 +4.808705E+02 -2.673803E+00 +2.559977E+01 -2.673803E+00 +8.714338E+02 -1.288909E+01 +2.559977E+01 -1.288909E+01 +3.772308E+02 
 +5.463590E+02 -5.523855E+00 +1.718976E+00 -5.523855E+00 +8.871388E+02 -1.031627E-01 +1.718976E+00 -1.031627E-01 +3.851981E+02 
 +5.229033E+02 -1.238104E+00 +2.024771E+01 -1.238104E+00 +8.655613E+02 +4.743645E+00 +2.024771E+01 +4.743645E+00 +3.518504E+02 
 +5.160986E+02 +2.031124E+00 +1.977868E+01 +2.031124E+00 +8.667256E+02 +3.478838E+00 +1.977868E+01 +3.478838E+00 +3.376418E+02 
 +5.054056E+02 +1.820506E+00 +1.357049E+01 +1.820506E+00 +8.628664E+02 -5.139547E+00 +1.357049E+01 -5.139547E+00 +3.250787E+02 
 +4.917921E+02 -1.188546E+01 +1.087430E+01 -1.188546E+01 +8.503563E+02 -6.191079E+00 +1.087430E+01 -6.191079E+00 +3.216647E+02 
 +4.985453E+02 -1.104035E+01 +8.821492E+00 -1.104035E+01 +8.504170E+02 -6.522037E+00 +8.821492E+00 -6.522037E+00 +3.247161E+02 
 +5.056786E+02 -1.550127E+01 +1.806041E+01 -1.550127E+01 +8.650827E+02 -5.208036E+00 +1.806041E+01 -5.208036E+00 +3.290725E+02 
 +5.089249E+02 -5.380714E+00 +1.886925E+01 -5.380714E+00 +8.819168E+02 -4.661244E+00 +1.886925E+01 -4.661244E+00 +3.406778E+02 
 +5.035919E+02 +1.168100E+01 +1.036100E+01 +1.168100E+01 +8.669043E+02 -4.077136E+00 +1.036100E+01 -4.077136E+00 +3.387305E+02 
 +5.009519E+02 +1.165395E+01 +7.115941E+00 +1.165395E+01 +8.546251E+02 -6.311252E+00 +7.115941E+00 -6.311252E+00 +3.398186E+02 
 +5.035827E+02 +1.832537E+00 +3.269511E+00 +1.832537E+00 +8.595886E+02 -3.730966E+00 +3.269511E+00 -3.730966E+00 +3.550137E+02 
 +4.944433E+02 -5.679443E+00 -7.385407E+00 -5.679443E+00 +8.678048E+02 +6.256591E+00 -7.385407E+00 +6.256591E+00 +3.613443E+02 
 +4.905579E+02 -2.345665E+00 -2.049195E+01 -2.345665E+00 +8.795934E+02 +8.649210E+00 -2.049195E+01 +8.649210E+00 +3.777233E+02 
 +4.464886E+02 +1.327110E+00 +1.104868E+01 +1.327110E+00 +8.600245E+02 +9.699477E+00 +1.104868E+01 +9.699477E+00 +3.814953E+02 
 +4.312321E+02 +1.716863E+00 -3.031046E-01 +1.716863E+00 +8.509828E+02 +5.152731E+00 -3.031046E-01 +5.152731E+00 +3.891279E+02 
 +4.486720E+02 +9.226032E-01 +8.591820E+00 +9.226032E-01 +8.553120E+02 -8.585353E+00 +8.591820E+00 -8.585353E+00 +3.970913E+02 
 +4.524313E+02 +4.048612E+00 +8.793097E+00 +4.048612E+00 +8.583450E+02 -1.513589E+01 +8.793097E+00 -1.513589E+01 +3.993716E+02 
 +4.538828E+02 +6.946147E-01 +1.203228E+01 +6.946147E-01 +8.635854E+02 -1.331300E+01 +1.203228E+01 -1.331300E+01 +4.074022E+02 
 +4.551431E+02 -3.803165E+00 +8.546121E+00 -3.803165E+00 +8.603391E+02 -4.783290E+00 +8.546121E+00 -4.783290E+00 +4.015969E+02 
 +4.802123E+02 +1.349751E+00 +1.965999E+01 +1.349751E+00 +8.634826E+02 +4.044091E+00 +1.965999E+01 +4.044091E+00 +3.877214E+02 
 +4.996554E+02 +5.066352E+00 +3.072303E+01 +5.066352E+00 +8.661802E+02 +5.935151E+00 +3.072303E+01 +5.935151E+00 +3.823795E+02 
 +5.519802E+02 -4.102631E+00 +2.481718E+00 -4.102631E+00 +8.870618E+02 +7.564572E+00 +2.481718E+00 +7.564572E+00 +3.998550E+02 
 +5.301893E+02 +1.582824E+00 +1.636032E+01 +1.582824E+00 +8.679555E+02 +6.462184E+00 +1.636032E+01 +6.462184E+00 +3.672153E+02 
 +5.143183E+02 +5.854176E-01 +1.954452E+01 +5.854176E-01 +8.625887E+02 +2.568684E+00 +1.954452E+01 +2.568684E+00 +3.481264E+02 
 +5.014783E+02 +1.989863E+00 +7.962339E+00 +1.989863E+00 +8.583622E+02 -1.129581E+00 +7.962339E+00 -1.129581E+00 +3.367000E+02 
 +4.958777E+02 -1.096513E+01 +9.768902E+00 -1.096513E+01 +8.552708E+02 -2.377890E+00 +9.768902E+00 -2.377890E+00 +3.202265E+02 
 +5.013894E+02 -1.304231E+01 +1.396489E+01 -1.304231E+01 +8.605539E+02 -3.206261E+00 +1.396489E+01 -3.206261E+00 +3.188136E+02 
 +4.973481E+02 -1.300095E+01 +1.891282E+01 -1.300095E+01 +8.633648E+02 -2.054607E+00 +1.891282E+01 -2.054607E+00 +3.158868E+02 
 +5.021456E+02 -7.406926E+00 +2.461311E+01 -7.406926E+00 +8.756025E+02 -7.312874E+00 +2.461311E+01 -7.312874E+00 +3.212497E+02 
 +5.024709E+02 +2.634321E+00 +2.028745E+01 +2.634321E+00 +8.741347E+02 -8.007695E+00 +2.028745E+01 -8.007695E+00 +3.183485E+02 
 +4.970032E+02 +5.497189E+00 +6.459872E+00 +5.497189E+00 +8.624278E+02 -3.962378E+00 +6.459872E+00 -3.962378E+00 +3.272544E+02 
 +4.800343E+02 -8.542252E+00 -1.537557E+00 -8.542252E+00 +8.586129E+02 -1.805971E+00 -1.537557E+00 -1.805971E+00 +3.449880E+02 
 +4.726004E+02 -1.339764E+01 -1.437332E+01 -1.339764E+01 +8.652873E+02 -1.550122E+00 -1.437332E+01 -1.550122E+00 +3.565147E+02 
 +4.839758E+02 -1.194568E+01 -1.302459E+01 -1.194568E+01 +8.721697E+02 +6.571010E+00 -1.302459E+01 +6.571010E+00 +3.658244E+02 
 +4.862428E+02 -5.419436E+00 +1.672135E+01 -5.419436E+00 +8.740132E+02 +1.341702E+01 +1.672135E+01 +1.341702E+01 +3.699215E+02 
 +4.494822E+02 -3.392284E-01 +2.809527E+00 -3.392284E-01 +8.612274E+02 +9.370658E+00 +2.809527E+00 +9.370658E+00 +3.826574E+02 
 +4.406477E+02 +4.714034E+00 +8.372383E+00 +4.714034E+00 +8.565872E+02 +1.197995E+00 +8.372383E+00 +1.197995E+00 +3.972909E+02 
 +4.538393E+02 +8.817175E+00 +1.231213E+01 +8.817175E+00 +8.634459E+02 -1.122571E+01 +1.231213E+01 -1.122571E+01 +4.058101E+02 
 +4.484107E+02 +1.026916E+01 +1.386929E+01 +1.026916E+01 +8.653672E+02 -1.188015E+01 +1.386929E+01 -1.188015E+01 +4.162146E+02 
 +4.549571E+02 +3.369721E+00 +5.489983E+00 +3.369721E+00 +8.629118E+02 -3.515133E+00 +5.489983E+00 -3.515133E+00 +4.105695E+02 
 +5.091791E+02 +5.722440E+00 +2.362591E+01 +5.722440E+00 +8.807035E+02 +4.821491E+00 +2.362591E+01 +4.821491E+00 +4.030146E+02 
 +5.174258E+02 -5.718617E-01 +3.018423E+01 -5.718617E-01 +8.730337E+02 +6.822988E+00 +3.018423E+01 +6.822988E+00 +3.825797E+02 
 +5.353715E+02 -8.026616E+00 +2.784405E-01 -8.026616E+00 +8.745560E+02 +8.624538E+00 +2.784405E-01 +8.624538E+00 +3.763604E+02 
 +5.312544E+02 +4.051586E+00 +2.614269E+00 +4.051586E+00 +8.714699E+02 +7.605949E+00 +2.614269E+00 +7.605949E+00 +3.584404E+02 
 +5.129588E+02 +4.694514E+00 +9.097685E+00 +4.694514E+00 +8.622875E+02 +1.530421E+00 +9.097685E+00 +1.530421E+00 +3.466766E+02 
 +5.009363E+02 +5.974238E+00 +2.741569E+00 +5.974238E+00 +8.579221E+02 -6.283177E-01 +2.741569E+00 -6.283177E-01 +3.394219E+02 
 +4.895975E+02 -1.044802E+01 +9.531781E+00 -1.044802E+01 +8.476776E+02 -1.289335E+00 +9.531781E+00 -1.289335E+00 +3.121334E+02 
 +4.931849E+02 -1.075089E+01 +2.091604E+01 -1.075089E+01 +8.563967E+02 +1.841861E+00 +2.091604E+01 +1.841861E+00 +3.056653E+02 
 +4.968694E+02 -9.344941E+00 +2.395180E+01 -9.344941E+00 +8.700341E+02 +3.768673E-01 +2.395180E+01 +3.768673E-01 +3.140050E+02 
 +4.854281E+02 -6.707956E+00 +2.348094E+01 -6.707956E+00 +8.673660E+02 -1.053815E+01 +2.348094E+01 -1.053815E+01 +3.041890E+02 
 +4.940179E+02 -6.224699E+00 +2.776564E+01 -6.224699E+00 +8.709987E+02 -9.676985E+00 +2.776564E+01 -9.676985E+00 +3.050014E+02 
 +4.838415E+02 -5.383943E+00 -3.580012E+00 -5.383943E+00 +8.671125E+02 -3.456275E+00 -3.580012E+00 -3.456275E+00 +3.232603E+02 
 +4.670892E+02 -9.199533E+00 -6.093279E+00 -9.199533E+00 +8.642609E+02 -4.994326E+00 -6.093279E+00 -4.994326E+00 +3.497154E+02 
 +4.706896E+02 -9.104869E+00 -1.624645E+01 -9.104869E+00 +8.697419E+02 -2.979070E+00 -1.624645E+01 -2.979070E+00 +3.620731E+02 
 +4.778954E+02 -1.042025E+01 +6.015085E-01 -1.042025E+01 +8.673937E+02 -3.331254E+00 +6.015085E-01 -3.331254E+00 +3.551631E+02 
 +4.956766E+02 -8.975776E+00 +1.583663E+01 -8.975776E+00 +8.670287E+02 -2.209352E+00 +1.583663E+01 -2.209352E+00 +3.576803E+02 
 +4.909665E+02 -9.255901E+00 +3.207253E+00 -9.255901E+00 +8.664268E+02 -4.327697E-01 +3.207253E+00 -4.327697E-01 +3.827121E+02 
 +4.311749E+02 +1.719657E+00 +7.653879E+00 +1.719657E+00 +8.458663E+02 -3.382468E+00 +7.653879E+00 -3.382468E+00 +3.875427E+02 
 +4.556713E+02 +9.186723E+00 +1.676495E+01 +9.186723E+00 +8.666323E+02 -8.482356E+00 +1.676495E+01 -8.482356E+00 +4.122797E+02 
 +4.568093E+02 +1.103494E+01 +1.937569E+01 +1.103494E+01 +8.720109E+02 -7.500297E+00 +1.937569E+01 -7.500297E+00 +4.293373E+02 
 +4.705362E+02 +6.135381E+00 +1.113945E+01 +6.135381E+00 +8.804720E+02 +9.716350E-01 +1.113945E+01 +9.716350E-01 +4.232143E+02 
 +5.186803E+02 +9.316697E+00 +2.630750E+01 +9.316697E+00 +8.987160E+02 +7.793645E+00 +2.630750E+01 +7.793645E+00 +4.151879E+02 
 +5.198732E+02 -2.247505E+00 +2.501105E+01 -2.247505E+00 +8.860052E+02 +5.529713E+00 +2.501105E+01 +5.529713E+00 +3.776343E+02 
 +5.413830E+02 -9.712721E+00 -4.887544E+00 -9.712721E+00 +8.849489E+02 +3.030529E+00 -4.887544E+00 +3.030529E+00 +3.500697E+02 
 +5.342280E+02 +5.590286E+00 -8.583937E+00 +5.590286E+00 +8.741612E+02 +3.692594E+00 -8.583937E+00 +3.692594E+00 +3.438758E+02 
 +5.168171E+02 +7.064992E+00 -6.138431E+00 +7.064992E+00 +8.714605E+02 -7.160633E-01 -6.138431E+00 -7.160633E-01 +3.534596E+02 
 +5.014936E+02 +4.267491E+00 -5.212216E+00 +4.267491E+00 +8.628721E+02 -3.990149E+00 -5.212216E+00 -3.990149E+00 +3.475986E+02 
 +4.866353E+02 -1.232914E+01 +4.299548E+00 -1.232914E+01 +8.380395E+02 -4.121945E+00 +4.299548E+00 -4.121945E+00 +3.204217E+02 
 +4.867087E+02 -1.116510E+01 +2.163003E+01 -1.116510E+01 +8.467244E+02 +4.895228E+00 +2.163003E+01 +4.895228E+00 +3.059688E+02 
 +4.953143E+02 -9.139881E+00 +2.593692E+01 -9.139881E+00 +8.656987E+02 +9.701623E+00 +2.593692E+01 +9.701623E+00 +3.158802E+02 
 +4.844652E+02 -3.862093E+00 +1.765470E+01 -3.862093E+00 +8.697242E+02 +6.320944E+00 +1.765470E+01 +6.320944E+00 +3.096940E+02 
 +4.706065E+02 -5.594587E+00 +1.423341E+01 -5.594587E+00 +8.599194E+02 -2.820046E+00 +1.423341E+01 -2.820046E+00 +3.152798E+02 
 +4.620997E+02 -6.537417E+00 -1.322189E+01 -6.537417E+00 +8.544667E+02 -1.116317E+01 -1.322189E+01 -1.116317E+01 +3.421877E+02 
 +4.674913E+02 -1.172980E+01 -8.541219E+00 -1.172980E+01 +8.633783E+02 -1.513983E+01 -8.541219E+00 -1.513983E+01 +3.650781E+02 
 +4.811484E+02 -1.010399E+01 -6.601948E+00 -1.010399E+01 +8.711837E+02 -4.464490E+00 -6.601948E+00 -4.464490E+00 +3.702145E+02 
 +4.748084E+02 -8.726186E+00 -4.526299E+00 -8.726186E+00 +8.641018E+02 -5.548826E-02 -4.526299E+00 -5.548826E-02 +3.561856E+02 
 +4.909743E+02 -1.040109E+01 +1.409669E+01 -1.040109E+01 +8.641401E+02 -8.023588E+00 +1.409669E+01 -8.023588E+00 +3.627678E+02 
 +4.967560E+02 -1.664348E+01 -6.541802E+00 -1.664348E+01 +8.626237E+02 -1.084847E+01 -6.541802E+00 -1.084847E+01 +3.883375E+02 
 +4.519407E+02 -1.150250E+01 +1.286836E+01 -1.150250E+01 +8.457584E+02 -1.038036E+01 +1.286836E+01 -1.038036E+01 +3.901396E+02 
 +4.460856E+02 -4.063662E+00 +2.282357E+01 -4.063662E+00 +8.542843E+02 -3.763102E+00 +2.282357E+01 -3.763102E+00 +4.060494E+02 
 +4.693682E+02 +9.907348E-01 +1.688150E+01 +9.907348E-01 +8.766834E+02 -1.114264E+00 +1.688150E+01 -1.114264E+00 +4.360469E+02 
 +4.971322E+02 -2.376643E+00 +1.453655E+01 -2.376643E+00 +8.952336E+02 -4.914020E+00 +1.453655E+01 -4.914020E+00 +4.327655E+02 
 +5.267301E+02 +2.202734E+00 +2.134520E+01 +2.202734E+00 +9.082882E+02 -7.621775E+00 +2.134520E+01 -7.621775E+00 +4.207258E+02 
 +5.345593E+02 -3.284773E-01 +1.928938E+01 -3.284773E-01 +8.980445E+02 -5.463927E+00 +1.928938E+01 -5.463927E+00 +3.861714E+02 
 +5.267564E+02 -8.797632E+00 -1.631778E+01 -8.797632E+00 +8.718426E+02 +2.146530E+00 -1.631778E+01 +2.146530E+00 +3.359328E+02 
 +5.143295E+02 -1.117487E+00 -1.841775E+01 -1.117487E+00 +8.576606E+02 -8.669790E-01 -1.841775E+01 -8.669790E-01 +3.356751E+02 
 +5.033143E+02 -3.832309E+00 -1.290208E+01 -3.832309E+00 +8.485297E+02 -1.232274E+01 -1.290208E+01 -1.232274E+01 +3.565039E+02 
 +4.948167E+02 -3.638199E+00 -1.149743E+01 -3.638199E+00 +8.399882E+02 -1.335703E+01 -1.149743E+01 -1.335703E+01 +3.527585E+02 
 +4.788870E+02 -7.112640E+00 -1.373963E+00 -7.112640E+00 +8.243517E+02 -1.455511E+01 -1.373963E+00 -1.455511E+01 +3.600132E+02 
 +4.848817E+02 -9.424396E-01 +1.691036E+01 -9.424396E-01 +8.356995E+02 +4.228037E+00 +1.691036E+01 +4.228037E+00 +3.392592E+02 
 +4.928581E+02 +1.043686E+00 +1.374350E+01 +1.043686E+00 +8.459617E+02 +1.414712E+01 +1.374350E+01 +1.414712E+01 +3.263935E+02 
 +4.833106E+02 +5.323896E+00 +1.085624E+01 +5.323896E+00 +8.621777E+02 +8.762297E+00 +1.085624E+01 +8.762297E+00 +3.481001E+02 
 +4.425073E+02 +6.226956E+00 -1.706914E+01 +6.226956E+00 +8.583789E+02 -1.968364E+00 -1.706914E+01 -1.968364E+00 +3.571818E+02 
 +4.520259E+02 +2.302060E+00 -2.054600E+01 +2.302060E+00 +8.633660E+02 -9.695080E+00 -2.054600E+01 -9.695080E+00 +3.678065E+02 
 +4.644515E+02 -7.093008E+00 -1.493849E+01 -7.093008E+00 +8.684872E+02 -1.334363E+01 -1.493849E+01 -1.334363E+01 +3.853280E+02 
 +4.883497E+02 -1.151676E+01 -8.342671E+00 -1.151676E+01 +8.786682E+02 -1.877230E+01 -8.342671E+00 -1.877230E+01 +3.956199E+02 
 +5.172973E+02 -1.802830E+01 -1.178066E+01 -1.802830E+01 +8.866563E+02 -8.709494E+00 -1.178066E+01 -8.709494E+00 +3.895058E+02 
 +4.989817E+02 -1.956633E+01 -2.718633E+00 -1.956633E+01 +8.663022E+02 -8.734414E+00 -2.718633E+00 -8.734414E+00 +3.675994E+02 
 +4.801612E+02 -1.588361E+01 +9.140494E+00 -1.588361E+01 +8.549147E+02 -1.184535E+01 +9.140494E+00 -1.184535E+01 +3.604617E+02 
 +4.856012E+02 -1.144752E+01 +1.577320E+01 -1.144752E+01 +8.702952E+02 -1.899292E-01 +1.577320E+01 -1.899292E-01 +3.825533E+02 
 +4.630808E+02 -9.688019E+00 +2.768302E+01 -9.688019E+00 +8.588394E+02 +3.879809E+00 +2.768302E+01 +3.879809E+00 +3.924723E+02 
 +4.982005E+02 +4.332744E+00 +2.897676E+00 +4.332744E+00 +8.728378E+02 -1.234088E+00 +2.897676E+00 -1.234088E+00 +4.271703E+02 
 +5.095652E+02 +6.537406E+00 +8.632502E+00 +6.537406E+00 +8.723519E+02 -4.678445E+00 +8.632502E+00 -4.678445E+00 +4.394450E+02 
 +5.131946E+02 +1.718358E+01 +7.388255E+00 +1.718358E+01 +8.591548E+02 -9.853138E-01 +7.388255E+00 -9.853138E-01 +4.060303E+02 
 +5.318022E+02 +1.689818E+01 +1.554018E+01 +1.689818E+01 +8.729183E+02 +5.541318E+00 +1.554018E+01 +5.541318E+00 +3.725916E+02 
 +4.763747E+02 -3.740117E+00 -1.919920E+01 -3.740117E+00 +8.472227E+02 +5.901033E+00 -1.919920E+01 +5.901033E+00 +3.379698E+02 
 +4.941882E+02 -7.642082E+00 -5.629692E+00 -7.642082E+00 +8.409226E+02 -3.758663E+00 -5.629692E+00 -3.758663E+00 +3.514153E+02 
 +4.912329E+02 -8.435365E+00 -6.675378E-01 -8.435365E+00 +8.327477E+02 -1.133362E+01 -6.675378E-01 -1.133362E+01 +3.642264E+02 
 +4.847838E+02 -6.624702E+00 -6.720093E+00 -6.624702E+00 +8.270138E+02 -1.731316E+01 -6.720093E+00 -1.731316E+01 +3.666496E+02 
 +4.988201E+02 +9.989768E+00 +7.692764E+00 +9.989768E+00 +8.479671E+02 -8.007691E-01 +7.692764E+00 -8.007691E-01 +3.644397E+02 
 +4.916877E+02 +6.948016E+00 +1.581168E+01 +6.948016E+00 +8.518123E+02 +7.150743E+00 +1.581168E+01 +7.150743E+00 +3.370197E+02 
 +4.972949E+02 +7.327473E+00 +8.007558E+00 +7.327473E+00 +8.572503E+02 +9.555283E+00 +8.007558E+00 +9.555283E+00 +3.244633E+02 
 +4.761325E+02 +3.626372E+00 -2.939253E-01 +3.626372E+00 +8.579830E+02 +1.974722E+00 -2.939253E-01 +1.974722E+00 +3.403268E+02 
 +4.231724E+02 -2.178950E+00 -1.971338E+01 -2.178950E+00 +8.434310E+02 -6.408471E+00 -1.971338E+01 -6.408471E+00 +3.551740E+02 
 +4.456349E+02 -1.508661E+00 -1.802533E+01 -1.508661E+00 +8.640103E+02 -5.820610E+00 -1.802533E+01 -5.820610E+00 +3.893059E+02 
 +4.551249E+02 -4.035683E+00 -1.091929E+01 -4.035683E+00 +8.689664E+02 -8.999325E+00 -1.091929E+01 -8.999325E+00 +3.956195E+02 
 +4.666952E+02 -4.984688E+00 -5.931499E+00 -4.984688E+00 +8.729330E+02 -1.444974E+01 -5.931499E+00 -1.444974E+01 +3.942870E+02 
 +5.053018E+02 -1.575623E+01 -8.471611E-02 -1.575623E+01 +8.773543E+02 -1.656537E+01 -8.471611E-02 -1.656537E+01 +3.779982E+02 
 +4.886579E+02 -1.988371E+01 -8.906395E+00 -1.988371E+01 +8.590784E+02 -1.082559E+01 -8.906395E+00 -1.082559E+01 +3.500091E+02 
 +4.903890E+02 -1.203589E+01 +1.554028E+01 -1.203589E+01 +8.680989E+02 -1.539748E+00 +1.554028E+01 -1.539748E+00 +3.604347E+02 
 +4.865603E+02 -4.976386E+00 +2.189571E+01 -4.976386E+00 +8.695255E+02 +1.608332E+00 +2.189571E+01 +1.608332E+00 +3.698248E+02 
 +4.871618E+02 -5.836766E+00 +2.442652E+01 -5.836766E+00 +8.664811E+02 -3.386097E+00 +2.442652E+01 -3.386097E+00 +3.772423E+02 
 +5.173970E+02 +5.149535E+00 -6.107814E+00 +5.149535E+00 +8.764019E+02 -8.745929E+00 -6.107814E+00 -8.745929E+00 +4.194460E+02 
 +5.296927E+02 +6.775797E+00 -2.175499E+00 +6.775797E+00 +8.712133E+02 -1.108660E+01 -2.175499E+00 -1.108660E+01 +4.426203E+02 
 +5.325157E+02 +1.086976E+01 -2.907373E+00 +1.086976E+01 +8.603085E+02 -7.816734E+00 -2.907373E+00 -7.816734E+00 +4.185758E+02 
 +5.341107E+02 +1.463312E+01 +1.448458E+01 +1.463312E+01 +8.668761E+02 -1.565864E+00 +1.448458E+01 -1.565864E+00 +3.988888E+02 
 +4.770487E+02 -3.048569E+00 -1.465189E+01 -3.048569E+00 +8.583787E+02 +6.677774E+00 -1.465189E+01 +6.677774E+00 +3.679115E+02 
 +4.997037E+02 -6.703544E+00 -9.494934E+00 -6.703544E+00 +8.707713E+02 +9.322757E+00 -9.494934E+00 +9.322757E+00 +3.712563E+02 
 +4.967996E+02 -1.666999E+00 -6.280013E+00 -1.666999E+00 +8.493588E+02 -8.232084E-02 -6.280013E+00 -8.232084E-02 +3.742609E+02 
 +4.850433E+02 -2.045597E-01 -1.490031E+01 -2.045597E-01 +8.301026E+02 -7.214704E+00 -1.490031E+01 -7.214704E+00 +3.627696E+02 
 +5.118527E+02 +1.340024E+01 +4.954812E+00 +1.340024E+01 +8.715924E+02 +6.806861E+00 +4.954812E+00 +6.806861E+00 +3.481262E+02 
 +4.891533E+02 +1.302789E+01 +1.759158E+01 +1.302789E+01 +8.580312E+02 +1.020313E+01 +1.759158E+01 +1.020313E+01 +3.209013E+02 
 +4.860782E+02 +1.095210E+01 +1.031522E+00 +1.095210E+01 +8.673375E+02 +8.374948E+00 +1.031522E+00 +8.374948E+00 +3.204509E+02 
 +4.484860E+02 +2.807819E+00 -1.569123E+01 +2.807819E+00 +8.548177E+02 -1.232250E+00 -1.569123E+01 -1.232250E+00 +3.369787E+02 
 +4.357729E+02 -3.113805E-01 -1.928099E+01 -3.113805E-01 +8.534577E+02 -3.012684E+00 -1.928099E+01 -3.012684E+00 +3.711301E+02 
 +4.445488E+02 -2.092778E+00 -1.597672E+01 -2.092778E+00 +8.605174E+02 -3.802162E+00 -1.597672E+01 -3.802162E+00 +3.961432E+02 
 +4.528296E+02 -1.005201E+00 -1.005173E+01 -1.005201E+00 +8.672922E+02 -7.987867E+00 -1.005173E+01 -7.987867E+00 +4.056911E+02 
 +4.566445E+02 -3.285314E+00 -8.188150E+00 -3.285314E+00 +8.641892E+02 -9.386865E+00 -8.188150E+00 -9.386865E+00 +3.866132E+02 
 +4.859065E+02 -8.960357E+00 -2.924927E+00 -8.960357E+00 +8.741061E+02 -4.146229E+00 -2.924927E+00 -4.146229E+00 +3.598965E+02 
 +4.980608E+02 -9.626782E+00 -8.855710E+00 -9.626782E+00 +8.805640E+02 -1.013031E+00 -8.855710E+00 -1.013031E+00 +3.589776E+02 
 +4.991407E+02 -3.298014E+00 +3.992580E+00 -3.298014E+00 +8.771186E+02 -7.240897E-01 +3.992580E+00 -7.240897E-01 +3.721410E+02 
 +5.024717E+02 +8.535679E-01 +1.628864E+01 +8.535679E-01 +8.699948E+02 -5.085089E+00 +1.628864E+01 -5.085089E+00 +3.690956E+02 
 +5.031776E+02 +9.351590E-01 +1.417151E+01 +9.351590E-01 +8.575336E+02 -1.340876E+01 +1.417151E+01 -1.340876E+01 +3.660464E+02 
 +5.164624E+02 +9.320963E+00 -2.559826E+00 +9.320963E+00 +8.545263E+02 -1.591102E+01 -2.559826E+00 -1.591102E+01 +3.971379E+02 
 +5.185488E+02 +9.496556E+00 -1.635127E+00 +9.496556E+00 +8.523114E+02 -1.522095E+01 -1.635127E+00 -1.522095E+01 +4.159322E+02 
 +5.233031E+02 +1.003608E+01 -2.070758E+00 +1.003608E+01 +8.549098E+02 -1.391620E+01 -2.070758E+00 -1.391620E+01 +4.128657E+02 
 +5.206141E+02 +1.421454E+01 +1.107506E+01 +1.421454E+01 +8.495141E+02 -1.543361E+01 +1.107506E+01 -1.543361E+01 +4.067693E+02 
 +5.051444E+02 +3.627139E+00 +3.288896E-01 +3.627139E+00 +8.520325E+02 -1.248491E+01 +3.288896E-01 -1.248491E+01 +3.958430E+02 
 +4.921951E+02 -6.609906E+00 -1.778880E+01 -6.609906E+00 +8.607335E+02 -1.051129E-02 -1.778880E+01 -1.051129E-02 +3.709042E+02 
 +4.975870E+02 +2.842768E+00 -2.142624E+01 +2.842768E+00 +8.702571E+02 +1.347060E+01 -2.142624E+01 +1.347060E+01 +3.591648E+02 
 +5.032682E+02 +2.599634E+00 -3.782845E+01 +2.599634E+00 +8.764123E+02 +1.562149E+01 -3.782845E+01 +1.562149E+01 +3.559948E+02 
 +5.110600E+02 -3.325134E+00 -7.078916E+00 -3.325134E+00 +8.900552E+02 +1.985377E+01 -7.078916E+00 +1.985377E+01 +3.089269E+02 
 +5.101254E+02 +2.817041E+00 +1.908091E+01 +2.817041E+00 +8.894578E+02 +5.291088E+00 +1.908091E+01 +5.291088E+00 +3.161148E+02 
 +4.828480E+02 +4.782865E+00 -1.090155E+01 +4.782865E+00 +8.812370E+02 -2.600203E+00 -1.090155E+01 -2.600203E+00 +3.190247E+02 
 +4.371794E+02 +4.756739E+00 -2.416266E+01 +4.756739E+00 +8.571268E+02 -3.816476E+00 -2.416266E+01 -3.816476E+00 +3.218853E+02 
 +4.393741E+02 +2.481552E+00 -2.039942E+01 +2.481552E+00 +8.604080E+02 -5.554720E+00 -2.039942E+01 -5.554720E+00 +3.679467E+02 
 +4.435657E+02 +5.407944E-01 -1.167124E+01 +5.407944E-01 +8.592051E+02 -5.140415E+00 -1.167124E+01 -5.140415E+00 +3.934223E+02 
 +4.452937E+02 +2.008183E+00 -1.046910E+01 +2.008183E+00 +8.599456E+02 -5.708265E+00 -1.046910E+01 -5.708265E+00 +4.093950E+02 
 +4.699923E+02 +7.626319E-01 -7.909539E+00 +7.626319E-01 +8.677617E+02 -4.688260E+00 -7.909539E+00 -4.688260E+00 +3.936392E+02 
 +4.843568E+02 +3.183278E+00 -7.566430E+00 +3.183278E+00 +8.617466E+02 -5.841776E+00 -7.566430E+00 -5.841776E+00 +3.586246E+02 
 +4.831231E+02 +6.050486E+00 -8.760121E+00 +6.050486E+00 +8.567031E+02 -9.176925E+00 -8.760121E+00 -9.176925E+00 +3.590763E+02 
 +4.807020E+02 +8.167747E+00 -3.980397E+00 +8.167747E+00 +8.431883E+02 -8.221544E+00 -3.980397E+00 -8.221544E+00 +3.622298E+02 
 +4.966131E+02 +1.416687E+01 +4.466327E+00 +1.416687E+01 +8.325117E+02 -1.216054E+01 +4.466327E+00 -1.216054E+01 +3.623985E+02 
 +5.040673E+02 +9.200886E+00 +8.309393E-01 +9.200886E+00 +8.359275E+02 -1.511364E+01 +8.309393E-01 -1.511364E+01 +3.686403E+02 
 +5.101431E+02 +7.937407E+00 -2.096135E+00 +7.937407E+00 +8.485005E+02 -1.265414E+01 -2.096135E+00 -1.265414E+01 +3.860217E+02 
 +5.098046E+02 +8.065948E+00 -1.901080E+00 +8.065948E+00 +8.509045E+02 -1.188603E+01 -1.901080E+00 -1.188603E+01 +3.949977E+02 
 +5.088369E+02 +9.308681E+00 -2.452561E+00 +9.308681E+00 +8.476346E+02 -1.396050E+01 -2.452561E+00 -1.396050E+01 +3.980303E+02 
 +5.084276E+02 +1.265762E+01 -2.043536E+00 +1.265762E+01 +8.355904E+02 -1.969496E+01 -2.043536E+00 -1.969496E+01 +4.014283E+02 
 +5.148290E+02 +1.080500E+01 -3.859496E+00 +1.080500E+01 +8.374095E+02 -2.245790E+01 -3.859496E+00 -2.245790E+01 +4.070305E+02 
 +4.817856E+02 -8.728719E+00 -1.454668E+01 -8.728719E+00 +8.448982E+02 -8.879121E+00 -1.454668E+01 -8.879121E+00 +3.801929E+02 
 +4.844465E+02 -8.077098E+00 -1.848464E+01 -8.077098E+00 +8.682459E+02 +1.105201E+01 -1.848464E+01 +1.105201E+01 +3.466107E+02 
 +5.012105E+02 -9.331838E+00 -4.558842E+01 -9.331838E+00 +8.868718E+02 +2.328763E+01 -4.558842E+01 +2.328763E+01 +3.256663E+02 
 +5.042578E+02 -1.433151E+01 -8.338135E+00 -1.433151E+01 +8.852139E+02 +2.557851E+01 -8.338135E+00 +2.557851E+01 +3.002188E+02 
 +5.027259E+02 -1.004568E+01 +4.362912E+00 -1.004568E+01 +8.839457E+02 +1.010615E+01 +4.362912E+00 +1.010615E+01 +3.064107E+02 
 +5.027992E+02 -7.296475E+00 -8.224210E+00 -7.296475E+00 +8.819177E+02 -3.082702E+00 -8.224210E+00 -3.082702E+00 +3.132416E+02 
 +4.557001E+02 +3.785532E-01 -2.284509E+01 +3.785532E-01 +8.631550E+02 -6.217528E+00 -2.284509E+01 -6.217528E+00 +3.167350E+02 
 +4.534604E+02 +5.698963E+00 -2.312187E+01 +5.698963E+00 +8.689848E+02 -1.071958E+01 -2.312187E+01 -1.071958E+01 +3.688490E+02 
 +4.483273E+02 +8.175619E+00 -1.283373E+01 +8.175619E+00 +8.664011E+02 -1.080539E+01 -1.283373E+01 -1.080539E+01 +4.005862E+02 
 +4.382873E+02 +1.124717E+01 -1.920954E+01 +1.124717E+01 +8.504273E+02 -1.090847E+01 -1.920954E+01 -1.090847E+01 +4.061556E+02 
 +4.856094E+02 +1.228980E+01 -6.108435E+00 +1.228980E+01 +8.608204E+02 -1.208812E+01 -6.108435E+00 -1.208812E+01 +4.027022E+02 
 +4.878692E+02 +1.002309E+01 -9.632491E+00 +1.002309E+01 +8.586670E+02 -1.369543E+01 -9.632491E+00 -1.369543E+01 +3.764101E+02 
 +4.779245E+02 +6.588307E+00 -3.258221E+00 +6.588307E+00 +8.490619E+02 -9.853428E+00 -3.258221E+00 -9.853428E+00 +3.599431E+02 
 +4.819347E+02 +6.963819E+00 -4.891220E+00 +6.963819E+00 +8.425554E+02 -2.107697E+00 -4.891220E+00 -2.107697E+00 +3.532686E+02 
 +4.987190E+02 +9.141802E+00 -5.684359E+00 +9.141802E+00 +8.417048E+02 -2.645844E+00 -5.684359E+00 -2.645844E+00 +3.619702E+02 
 +5.002358E+02 +8.204898E+00 -7.970679E+00 +8.204898E+00 +8.393314E+02 -5.333250E+00 -7.970679E+00 -5.333250E+00 +3.675806E+02 
 +5.036105E+02 +6.989739E+00 -6.728565E+00 +6.989739E+00 +8.461778E+02 -7.814246E+00 -6.728565E+00 -7.814246E+00 +3.749749E+02 
 +5.069053E+02 +9.290878E+00 -2.805023E+00 +9.290878E+00 +8.497672E+02 -8.606455E+00 -2.805023E+00 -8.606455E+00 +3.824439E+02 
 +5.093420E+02 +1.112030E+01 -5.554807E+00 +1.112030E+01 +8.501910E+02 -8.595235E+00 -5.554807E+00 -8.595235E+00 +3.935177E+02 
 +5.025864E+02 +1.019294E+01 -9.362859E+00 +1.019294E+01 +8.408871E+02 -1.030647E+01 -9.362859E+00 -1.030647E+01 +4.039852E+02 
 +4.887093E+02 +6.679503E+00 -5.907779E+00 +6.679503E+00 +8.331644E+02 -1.048280E+01 -5.907779E+00 -1.048280E+01 +3.963392E+02 
 +4.647617E+02 -1.092945E+01 +1.287924E+01 -1.092945E+01 +8.407296E+02 +1.468001E+00 +1.287924E+01 +1.468001E+00 +3.857008E+02 
 +4.799338E+02 -1.614536E+01 +4.971182E+00 -1.614536E+01 +8.680283E+02 +1.605276E+01 +4.971182E+00 +1.605276E+01 +3.592601E+02 
 +5.017051E+02 -1.770941E+01 -2.728864E+01 -1.770941E+01 +8.808536E+02 +2.402803E+01 -2.728864E+01 +2.402803E+01 +3.153658E+02 
 +5.003077E+02 -1.096556E+01 -6.056272E+00 -1.096556E+01 +8.753767E+02 +1.384401E+01 -6.056272E+00 +1.384401E+01 +3.119497E+02 
 +4.965768E+02 -7.912161E+00 -6.239166E+00 -7.912161E+00 +8.744017E+02 +8.682846E+00 -6.239166E+00 +8.682846E+00 +3.079504E+02 
 +5.052811E+02 -7.253557E+00 -6.678618E+00 -7.253557E+00 +8.753809E+02 -5.503755E-02 -6.678618E+00 -5.503755E-02 +3.088511E+02 
 +4.967570E+02 -6.644244E+00 -1.569247E+01 -6.644244E+00 +8.721370E+02 -4.833420E+00 -1.569247E+01 -4.833420E+00 +3.249359E+02 
 +4.838818E+02 -1.360744E+00 -2.427519E+01 -1.360744E+00 +8.776617E+02 -7.295755E+00 -2.427519E+01 -7.295755E+00 +3.755848E+02 
 +4.666178E+02 +6.899917E+00 -6.340189E+00 +6.899917E+00 +8.742935E+02 -8.660423E+00 -6.340189E+00 -8.660423E+00 +4.042469E+02 
 +4.554418E+02 +1.398213E+01 -1.830488E+01 +1.398213E+01 +8.596559E+02 -6.417550E+00 -1.830488E+01 -6.417550E+00 +3.927076E+02 
 +4.898753E+02 +1.954107E+01 -4.940335E+00 +1.954107E+01 +8.711541E+02 -8.958640E+00 -4.940335E+00 -8.958640E+00 +3.931106E+02 
 +4.842206E+02 +1.569402E+01 -1.392379E+01 +1.569402E+01 +8.690842E+02 -1.370567E+01 -1.392379E+01 -1.370567E+01 +3.878763E+02 
 +4.864185E+02 +7.302112E+00 -5.334461E+00 +7.302112E+00 +8.656196E+02 -1.125622E+01 -5.334461E+00 -1.125622E+01 +3.772271E+02 
 +4.834290E+02 +5.261053E+00 -6.280455E+00 +5.261053E+00 +8.524270E+02 -3.912990E+00 -6.280455E+00 -3.912990E+00 +3.535034E+02 
 +4.815449E+02 +2.251632E+00 -1.149382E+01 +2.251632E+00 +8.426315E+02 -3.058411E+00 -1.149382E+01 -3.058411E+00 +3.455559E+02 
 +4.998728E+02 +7.316052E+00 -8.986473E+00 +7.316052E+00 +8.453872E+02 -2.302562E+00 -8.986473E+00 -2.302562E+00 +3.558393E+02 
 +5.028701E+02 +6.535310E+00 -5.982612E+00 +6.535310E+00 +8.435251E+02 -1.016928E-01 -5.982612E+00 -1.016928E-01 +3.592962E+02 
 +5.002649E+02 +9.499113E+00 -3.112015E+00 +9.499113E+00 +8.402299E+02 -1.971280E+00 -3.112015E+00 -1.971280E+00 +3.604082E+02 
 +5.102764E+02 +1.023471E+01 -5.465857E+00 +1.023471E+01 +8.605630E+02 +6.404650E-01 -5.465857E+00 +6.404650E-01 +3.934095E+02 
 +4.914351E+02 +1.578765E+00 -2.164956E+00 +1.578765E+00 +8.733481E+02 +1.032760E+01 -2.164956E+00 +1.032760E+01 +4.139369E+02 
 +4.707176E+02 -2.233074E+00 +5.270066E-01 -2.233074E+00 +8.595920E+02 +1.756777E+01 +5.270066E-01 +1.756777E+01 +3.891563E+02 
 +4.650997E+02 -5.197219E+00 +2.747653E+01 -5.197219E+00 +8.539531E+02 +2.022925E+01 +2.747653E+01 +2.022925E+01 +3.840151E+02 
 +4.783121E+02 -8.474199E+00 +1.973962E+01 -8.474199E+00 +8.648101E+02 +1.919147E+01 +1.973962E+01 +1.919147E+01 +3.604370E+02 
 +5.021357E+02 -1.407690E+01 -1.568828E+01 -1.407690E+01 +8.743574E+02 +1.647601E+01 -1.568828E+01 +1.647601E+01 +3.190006E+02 
 +4.971825E+02 -7.676265E+00 -8.832994E+00 -7.676265E+00 +8.685794E+02 +8.309317E+00 -8.832994E+00 +8.309317E+00 +3.144792E+02 
 +4.995039E+02 -5.969352E+00 -8.340949E+00 -5.969352E+00 +8.702084E+02 +4.735522E+00 -8.340949E+00 +4.735522E+00 +3.128932E+02 
 +5.000016E+02 -3.578557E+00 -8.773751E+00 -3.578557E+00 +8.698107E+02 +1.868241E+00 -8.773751E+00 +1.868241E+00 +3.090327E+02 
 +5.113316E+02 -4.562363E+00 -8.927983E+00 -4.562363E+00 +8.761373E+02 +3.763533E-01 -8.927983E+00 +3.763533E-01 +3.200325E+02 
 +5.060530E+02 -7.213939E+00 -1.539355E+01 -7.213939E+00 +8.814532E+02 -5.647079E-01 -1.539355E+01 -5.647079E-01 +3.557387E+02 
 +4.882171E+02 -2.445355E+00 +1.947206E+01 -2.445355E+00 +8.797088E+02 -2.673115E-01 +1.947206E+01 -2.673115E-01 +3.723612E+02 
 +4.686493E+02 +4.480445E-01 +3.730409E+00 +4.480445E-01 +8.701822E+02 -1.492324E+00 +3.730409E+00 -1.492324E+00 +3.494754E+02 
 +4.825587E+02 +5.165989E+00 -2.006070E+00 +5.165989E+00 +8.802199E+02 -5.558414E+00 -2.006070E+00 -5.558414E+00 +3.585343E+02 
 +4.900872E+02 +5.606481E+00 -1.510031E+01 +5.606481E+00 +8.785264E+02 -9.089478E+00 -1.510031E+01 -9.089478E+00 +3.835350E+02 
 +4.855996E+02 +2.694583E+00 -1.097387E+01 +2.694583E+00 +8.681975E+02 -8.107753E+00 -1.097387E+01 -8.107753E+00 +3.855860E+02 
 +4.772806E+02 +1.588394E+00 -4.979746E+00 +1.588394E+00 +8.584036E+02 -2.971398E-01 -4.979746E+00 -2.971398E-01 +3.603129E+02 
 +4.703224E+02 -5.505763E-01 -1.137177E+01 -5.505763E-01 +8.425886E+02 +2.283575E+00 -1.137177E+01 +2.283575E+00 +3.261684E+02 
 +4.962028E+02 +5.983891E+00 -5.340553E+00 +5.983891E+00 +8.450367E+02 +5.208521E-01 -5.340553E+00 +5.208521E-01 +3.296763E+02 
 +4.949998E+02 +7.889555E+00 -3.860057E+00 +7.889555E+00 +8.484914E+02 +1.883561E+00 -3.860057E+00 +1.883561E+00 +3.397196E+02 
 +5.049456E+02 +3.138848E+00 -6.249939E+00 +3.138848E+00 +8.731361E+02 +2.339691E+00 -6.249939E+00 +2.339691E+00 +3.477522E+02 
 +5.154033E+02 +2.523764E+00 -2.046955E+00 +2.523764E+00 +8.921494E+02 +4.441559E+00 -2.046955E+00 +4.441559E+00 +3.835344E+02 
 +4.671735E+02 +1.857679E+00 +6.275808E+00 +1.857679E+00 +8.687155E+02 +5.745442E+00 +6.275808E+00 +5.745442E+00 +3.978295E+02 
 +4.551773E+02 +8.899577E-01 +1.829037E+00 +8.899577E-01 +8.560718E+02 +8.688643E+00 +1.829037E+00 +8.688643E+00 +3.831073E+02 
 +4.641977E+02 +2.356258E+00 +2.024111E+01 +2.356258E+00 +8.557011E+02 +1.580739E+01 +2.024111E+01 +1.580739E+01 +3.826922E+02 
 +4.708859E+02 -2.257150E+00 +1.749180E+01 -2.257150E+00 +8.563715E+02 +1.568951E+01 +1.749180E+01 +1.568951E+01 +3.550477E+02 
 +4.999725E+02 -1.112218E+01 -1.758008E+01 -1.112218E+01 +8.695843E+02 +1.069618E+01 -1.758008E+01 +1.069618E+01 +3.224826E+02 
 +4.988866E+02 -5.942394E+00 -1.228205E+01 -5.942394E+00 +8.678175E+02 +2.318709E+00 -1.228205E+01 +2.318709E+00 +3.173783E+02 
 +5.008167E+02 -3.259228E+00 -1.039621E+01 -3.259228E+00 +8.670685E+02 +5.551074E-01 -1.039621E+01 +5.551074E-01 +3.129981E+02 
 +5.060092E+02 -1.377487E+00 -7.732785E+00 -1.377487E+00 +8.699567E+02 -5.346048E-02 -7.732785E+00 -5.346048E-02 +3.118387E+02 
 +5.099194E+02 -1.711378E+00 -5.745201E+00 -1.711378E+00 +8.752387E+02 -6.682175E-02 -5.745201E+00 -6.682175E-02 +3.169608E+02 
 +5.137806E+02 -4.515386E+00 -8.726943E+00 -4.515386E+00 +8.850680E+02 -1.062841E-01 -8.726943E+00 -1.062841E-01 +3.428159E+02 
 +5.073472E+02 -4.263666E+00 +3.345489E+01 -4.263666E+00 +8.904138E+02 -1.130019E+00 +3.345489E+01 -1.130019E+00 +3.548794E+02 
 +4.810797E+02 -5.189446E+00 +1.836658E+01 -5.189446E+00 +8.719835E+02 -2.309532E-01 +1.836658E+01 -2.309532E-01 +3.355388E+02 
 +4.772235E+02 +2.726613E+00 +5.436451E+00 +2.726613E+00 +8.575264E+02 +5.176925E+00 +5.436451E+00 +5.176925E+00 +3.466868E+02 
 +4.825957E+02 +3.503335E+00 -4.304649E+00 +3.503335E+00 +8.593642E+02 +5.995824E+00 -4.304649E+00 +5.995824E+00 +3.626158E+02 
 +4.714229E+02 +6.018487E-01 -5.053251E+00 +6.018487E-01 +8.596100E+02 +3.595385E-01 -5.053251E+00 +3.595385E-01 +3.544305E+02 
 +4.676584E+02 -1.362575E+00 +2.488397E+00 -1.362575E+00 +8.551582E+02 +1.610490E+00 +2.488397E+00 +1.610490E+00 +3.324182E+02 
 +4.644822E+02 +1.847804E-01 -6.391795E+00 +1.847804E-01 +8.516685E+02 +6.186321E+00 -6.391795E+00 +6.186321E+00 +2.914054E+02 
 +4.912634E+02 -6.526225E-01 -1.050581E+00 -6.526225E-01 +8.760475E+02 +4.113510E+00 -1.050581E+00 +4.113510E+00 +2.919539E+02 
 +4.973149E+02 +1.236376E+00 +1.379557E-01 +1.236376E+00 +8.854360E+02 +3.356207E+00 +1.379557E-01 +3.356207E+00 +3.186792E+02 
 +4.935531E+02 +1.842874E+00 -2.880523E+00 +1.842874E+00 +8.801584E+02 +4.414398E+00 -2.880523E+00 +4.414398E+00 +3.298489E+02 
 +5.033292E+02 -1.264667E-01 +1.706008E+00 -1.264667E-01 +8.848152E+02 +3.661986E+00 +1.706008E+00 +3.661986E+00 +3.538722E+02 
 +4.689465E+02 +1.381251E+00 +5.531336E+00 +1.381251E+00 +8.677937E+02 +2.287457E+00 +5.531336E+00 +2.287457E+00 +3.774557E+02 
 +4.476172E+02 +2.919692E+00 +2.498694E+00 +2.919692E+00 +8.529512E+02 +2.496529E+00 +2.498694E+00 +2.496529E+00 +3.761322E+02 
 +4.553638E+02 +5.656979E+00 +1.765302E+01 +5.656979E+00 +8.548491E+02 +5.419677E+00 +1.765302E+01 +5.419677E+00 +3.795011E+02 
 +4.646380E+02 +3.896542E+00 +1.492533E+01 +3.896542E+00 +8.552192E+02 +4.671616E+00 +1.492533E+01 +4.671616E+00 +3.556837E+02 
 +4.948796E+02 -7.250056E+00 -2.064116E+01 -7.250056E+00 +8.669070E+02 +2.956975E+00 -2.064116E+01 +2.956975E+00 +3.250299E+02 
 +4.992186E+02 -4.566774E+00 -1.678549E+01 -4.566774E+00 +8.636811E+02 -5.925525E-01 -1.678549E+01 -5.925525E-01 +3.188994E+02 
 +5.033123E+02 -1.936617E+00 -1.204091E+01 -1.936617E+00 +8.637494E+02 -1.519751E+00 -1.204091E+01 -1.519751E+00 +3.144416E+02 
 +5.055125E+02 +9.785825E-02 -6.850215E+00 +9.785825E-02 +8.652641E+02 -7.491222E-01 -6.850215E+00 -7.491222E-01 +3.147322E+02 
 +5.126944E+02 -3.146457E-01 -4.750433E+00 -3.146457E-01 +8.738582E+02 -1.697033E-01 -4.750433E+00 -1.697033E-01 +3.220750E+02 
 +5.153731E+02 -3.564129E+00 -1.075935E+01 -3.564129E+00 +8.874608E+02 +2.812013E-01 -1.075935E+01 +2.812013E-01 +3.450777E+02 
 +5.136129E+02 -5.190228E+00 +1.965138E+01 -5.190228E+00 +8.937337E+02 -2.721757E+00 +1.965138E+01 -2.721757E+00 +3.561218E+02 
 +5.100849E+02 -1.330495E+01 +1.036666E+01 -1.330495E+01 +8.959228E+02 -5.955708E+00 +1.036666E+01 -5.955708E+00 +3.556018E+02 
 +5.077643E+02 -1.269732E+01 +5.278489E+00 -1.269732E+01 +9.009547E+02 -1.976099E+00 +5.278489E+00 -1.976099E+00 +3.664331E+02 
 +4.943856E+02 -1.019407E+01 -2.089964E-01 -1.019407E+01 +8.890133E+02 +4.938556E+00 -2.089964E-01 +4.938556E+00 +3.496744E+02 
 +4.704714E+02 -8.616969E+00 +1.344005E+00 -8.616969E+00 +8.700987E+02 +1.282640E+01 +1.344005E+00 +1.282640E+01 +3.118852E+02 
 +4.750891E+02 -6.718174E+00 +4.220715E+00 -6.718174E+00 +8.777868E+02 +1.683388E+01 +4.220715E+00 +1.683388E+01 +2.859815E+02 
 +4.646902E+02 -3.373768E+00 +2.992816E+00 -3.373768E+00 +8.761758E+02 +1.982352E+01 +2.992816E+00 +1.982352E+01 +2.521691E+02 
 +4.612193E+02 -4.410527E+00 +6.834516E+00 -4.410527E+00 +8.712960E+02 +1.821210E+01 +6.834516E+00 +1.821210E+01 +2.452168E+02 
 +4.781408E+02 -3.027898E+00 +8.835486E+00 -3.027898E+00 +8.740312E+02 +1.180284E+01 +8.835486E+00 +1.180284E+01 +2.747039E+02 
 +4.896187E+02 +4.263639E-01 +3.466063E+00 +4.263639E-01 +8.785233E+02 +1.069145E+01 +3.466063E+00 +1.069145E+01 +3.128745E+02 
 +4.882695E+02 -2.594585E+00 -1.914432E+00 -2.594585E+00 +8.807997E+02 +4.529790E+00 -1.914432E+00 +4.529790E+00 +3.421347E+02 
 +4.829960E+02 -3.919456E+00 +2.797631E+00 -3.919456E+00 +8.776051E+02 -3.515148E+00 +2.797631E+00 -3.515148E+00 +3.575627E+02 
 +4.492144E+02 +1.306908E+00 +3.295816E+00 +1.306908E+00 +8.588818E+02 -3.914502E+00 +3.295816E+00 -3.914502E+00 +3.533590E+02 
 +4.408188E+02 +4.490484E+00 +1.365678E+01 +4.490484E+00 +8.542847E+02 -1.859402E+00 +1.365678E+01 -1.859402E+00 +3.588687E+02 
 +4.531668E+02 +2.101305E+00 +1.281486E+01 +2.101305E+00 +8.528804E+02 -1.335720E+00 +1.281486E+01 -1.335720E+00 +3.438581E+02 
 +4.925355E+02 -7.799426E+00 -2.567423E+01 -7.799426E+00 +8.644833E+02 -4.372171E-01 -2.567423E+01 -4.372171E-01 +3.272865E+02 
 +4.993828E+02 -2.444528E+00 -1.822452E+01 -2.444528E+00 +8.616691E+02 -8.184890E-01 -1.822452E+01 -8.184890E-01 +3.237667E+02 
 +5.015552E+02 -5.529946E-01 -1.323766E+01 -5.529946E-01 +8.587219E+02 -4.728706E-01 -1.323766E+01 -4.728706E-01 +3.191751E+02 
 +5.041661E+02 +4.033052E-01 -5.705111E+00 +4.033052E-01 +8.604519E+02 -1.123582E+00 -5.705111E+00 -1.123582E+00 +3.231454E+02 
 +5.054681E+02 -2.340018E-01 -1.264648E+00 -2.340018E-01 +8.674566E+02 -1.949820E-01 -1.264648E+00 -1.949820E-01 +3.329344E+02 
 +5.194751E+02 -4.292781E+00 -3.573962E+00 -4.292781E+00 +8.946066E+02 +4.721722E+00 -3.573962E+00 +4.721722E+00 +3.653979E+02 
 +5.299538E+02 -1.054027E+01 +3.356661E+00 -1.054027E+01 +9.088120E+02 +3.695988E+00 +3.356661E+00 +3.695988E+00 +3.747444E+02 
 +5.170031E+02 -1.392998E+01 -1.052870E+01 -1.392998E+01 +8.961687E+02 -5.490644E+00 -1.052870E+01 -5.490644E+00 +3.521959E+02 
 +5.000598E+02 -1.116515E+01 -1.148369E+01 -1.116515E+01 +8.901701E+02 -7.890056E+00 -1.148369E+01 -7.890056E+00 +3.433613E+02 
 +4.911998E+02 -1.004596E+01 -1.357987E+01 -1.004596E+01 +8.896131E+02 -2.589491E+00 -1.357987E+01 -2.589491E+00 +3.338029E+02 
 +4.770004E+02 -1.098965E+01 -1.273239E+01 -1.098965E+01 +8.812654E+02 +5.826314E+00 -1.273239E+01 +5.826314E+00 +3.131726E+02 
 +4.721213E+02 -1.270206E+01 -6.681788E+00 -1.270206E+01 +8.804339E+02 +1.659890E+01 -6.681788E+00 +1.659890E+01 +2.871200E+02 
 +4.749903E+02 -1.587195E+01 +4.729772E+00 -1.587195E+01 +8.840529E+02 +2.245156E+01 +4.729772E+00 +2.245156E+01 +2.722201E+02 
 +4.719946E+02 -1.308323E+01 +6.800332E+00 -1.308323E+01 +8.790869E+02 +2.274354E+01 +6.800332E+00 +2.274354E+01 +2.693662E+02 
 +4.725170E+02 -8.274527E+00 +1.085718E+01 -8.274527E+00 +8.723253E+02 +2.087764E+01 +1.085718E+01 +2.087764E+01 +2.617625E+02 
 +4.822829E+02 -4.414723E+00 +8.245774E+00 -4.414723E+00 +8.730729E+02 +2.102128E+01 +8.245774E+00 +2.102128E+01 +2.950511E+02 
 +4.745996E+02 -3.203504E+00 -6.284347E+00 -3.203504E+00 +8.690562E+02 +2.199376E+01 -6.284347E+00 +2.199376E+01 +3.341772E+02 
 +4.786815E+02 -2.020128E+00 -3.997259E-01 -2.020128E+00 +8.774761E+02 +1.238933E+01 -3.997259E-01 +1.238933E+01 +3.288544E+02 
 +4.478906E+02 -6.067731E+00 +4.504847E+00 -6.067731E+00 +8.639756E+02 +5.022296E+00 +4.504847E+00 +5.022296E+00 +3.121043E+02 
 +4.290702E+02 -2.267265E+00 +2.510415E+00 -2.267265E+00 +8.498226E+02 +3.808615E+00 +2.510415E+00 +3.808615E+00 +3.238701E+02 
 +4.478448E+02 +5.315169E-01 +1.197796E+00 +5.315169E-01 +8.469920E+02 -4.808988E+00 +1.197796E+00 -4.808988E+00 +3.272119E+02 
 +4.935354E+02 -3.061008E+00 -2.685708E+01 -3.061008E+00 +8.618005E+02 -6.683129E+00 -2.685708E+01 -6.683129E+00 +3.295651E+02 
 +4.860109E+02 -1.813488E-01 -1.176438E+01 -1.813488E-01 +8.537336E+02 -9.693060E-01 -1.176438E+01 -9.693060E-01 +3.270803E+02 
 +4.964913E+02 -6.009662E-01 -1.149915E+01 -6.009662E-01 +8.531806E+02 +4.691592E+00 -1.149915E+01 +4.691592E+00 +3.277690E+02 
 +4.932833E+02 +4.490478E-01 -9.683367E+00 +4.490478E-01 +8.514209E+02 -9.539927E-01 -9.683367E+00 -9.539927E-01 +3.269145E+02 
 +5.004114E+02 +4.458232E-01 -2.628401E-02 +4.458232E-01 +8.579840E+02 -3.980552E+00 -2.628401E-02 -3.980552E+00 +3.461040E+02 
 +5.055833E+02 +3.087742E+00 +6.965491E+00 +3.087742E+00 +8.536489E+02 +1.467389E+00 +6.965491E+00 +1.467389E+00 +3.740433E+02 
 +5.021961E+02 -4.385363E-01 -5.421869E-01 -4.385363E-01 +8.518497E+02 -4.194103E-01 -5.421869E-01 -4.194103E-01 +3.686514E+02 
 +5.054670E+02 -8.609649E+00 -1.723490E+01 -8.609649E+00 +8.747545E+02 -6.045790E+00 -1.723490E+01 -6.045790E+00 +3.554202E+02 
 +5.051122E+02 -1.439375E+01 -2.190202E+01 -1.439375E+01 +8.942011E+02 -6.359872E+00 -2.190202E+01 -6.359872E+00 +3.619350E+02 
 +4.990227E+02 -1.610211E+01 -2.364312E+01 -1.610211E+01 +8.969994E+02 -5.245592E+00 -2.364312E+01 -5.245592E+00 +3.626164E+02 
 +4.910975E+02 -1.615271E+01 -2.589947E+01 -1.615271E+01 +8.832093E+02 -4.816164E+00 -2.589947E+01 -4.816164E+00 +3.512249E+02 
 +4.589083E+02 -7.454239E+00 -1.087117E+01 -7.454239E+00 +8.338097E+02 +3.846368E+00 -1.087117E+01 +3.846368E+00 +3.178423E+02 
 +4.555937E+02 -7.832313E-01 -4.963966E+00 -7.832313E-01 +8.112540E+02 +1.350811E+01 -4.963966E+00 +1.350811E+01 +3.110068E+02 
 +4.556794E+02 +2.953618E+00 -2.064773E+00 +2.953618E+00 +8.258697E+02 +1.652714E+01 -2.064773E+00 +1.652714E+01 +3.112477E+02 
 +4.583679E+02 -1.638720E+00 +8.499819E+00 -1.638720E+00 +8.491851E+02 +1.753238E+01 +8.499819E+00 +1.753238E+01 +2.853901E+02 
 +4.740032E+02 -6.080705E+00 +1.315739E+01 -6.080705E+00 +8.662545E+02 +1.310881E+01 +1.315739E+01 +1.310881E+01 +2.922958E+02 
 +4.787496E+02 -5.498099E-02 -3.913774E-03 -5.498099E-02 +8.782518E+02 +1.097266E+01 -3.913774E-03 +1.097266E+01 +3.242008E+02 
 +4.775691E+02 +3.284820E+00 -2.126241E+00 +3.284820E+00 +8.837970E+02 +1.349644E+01 -2.126241E+00 +1.349644E+01 +3.307125E+02 
 +4.425315E+02 -3.351716E+00 +5.532514E+00 -3.351716E+00 +8.571409E+02 +1.178182E+01 +5.532514E+00 +1.178182E+01 +3.067480E+02 
 +4.359933E+02 +1.125046E+00 -4.525612E+00 +1.125046E+00 +8.410076E+02 +2.387818E-01 -4.525612E+00 +2.387818E-01 +3.084958E+02 
 +4.611282E+02 +8.061099E+00 -8.640525E+00 +8.061099E+00 +8.435402E+02 -1.450011E+01 -8.640525E+00 -1.450011E+01 +3.236462E+02 
 +4.780081E+02 +7.609622E+00 -1.423719E+01 +7.609622E+00 +8.506276E+02 -1.315911E+01 -1.423719E+01 -1.315911E+01 +3.258598E+02 
 +4.724250E+02 +5.584915E+00 -1.712082E+00 +5.584915E+00 +8.431637E+02 -2.529492E+00 -1.712082E+00 -2.529492E+00 +3.274749E+02 
 +4.811942E+02 +5.187637E+00 -5.648156E+00 +5.187637E+00 +8.435860E+02 +5.972676E+00 -5.648156E+00 +5.972676E+00 +3.263525E+02 
 +4.768601E+02 +7.098788E+00 -1.342804E+01 +7.098788E+00 +8.219927E+02 +1.596641E+00 -1.342804E+01 +1.596641E+00 +3.182367E+02 
 +4.784996E+02 +1.220343E+01 -3.370674E+00 +1.220343E+01 +8.118515E+02 -3.497163E+00 -3.370674E+00 -3.497163E+00 +3.357985E+02 
 +4.903746E+02 +8.276848E+00 +4.989012E+00 +8.276848E+00 +8.261959E+02 -2.596850E+00 +4.989012E+00 -2.596850E+00 +3.624976E+02 
 +4.852228E+02 +6.373250E+00 +1.077353E+00 +6.373250E+00 +8.253977E+02 -6.069282E+00 +1.077353E+00 -6.069282E+00 +3.592552E+02 
 +4.782013E+02 +6.673573E+00 -4.420232E+00 +6.673573E+00 +8.243760E+02 -5.071148E+00 -4.420232E+00 -5.071148E+00 +3.610343E+02 
 +4.776848E+02 +2.617382E+00 -1.242651E+01 +2.617382E+00 +8.321424E+02 -1.285653E+00 -1.242651E+01 -1.285653E+00 +3.742945E+02 
 +4.714388E+02 +9.163174E-01 -1.758613E+01 +9.163174E-01 +8.242054E+02 -3.032570E+00 -1.758613E+01 -3.032570E+00 +3.740991E+02 
 +4.681897E+02 -2.506347E+00 -2.083305E+01 -2.506347E+00 +8.107107E+02 -3.685383E+00 -2.083305E+01 -3.685383E+00 +3.601714E+02 
 +4.656557E+02 -1.713889E+00 -1.318750E+01 -1.713889E+00 +8.069301E+02 -3.263926E-01 -1.318750E+01 -3.263926E-01 +3.481188E+02 
 +4.569203E+02 +3.894403E+00 -1.161299E+01 +3.894403E+00 +8.107798E+02 +5.111777E+00 -1.161299E+01 +5.111777E+00 +3.485219E+02 
 +4.459199E+02 +8.306002E+00 -3.447863E+00 +8.306002E+00 +8.114684E+02 +1.053249E+01 -3.447863E+00 +1.053249E+01 +3.448444E+02 
 +4.410038E+02 +7.611300E+00 +6.196813E+00 +7.611300E+00 +8.140271E+02 +1.176815E+01 +6.196813E+00 +1.176815E+01 +3.262618E+02 
 +4.417014E+02 -2.329372E+00 +1.763996E+01 -2.329372E+00 +8.289450E+02 +1.153485E+01 +1.763996E+01 +1.153485E+01 +3.033081E+02 
 +4.450766E+02 -7.135085E+00 +5.526736E+00 -7.135085E+00 +8.311403E+02 +1.045437E+01 +5.526736E+00 +1.045437E+01 +3.005094E+02 
 +4.463030E+02 -8.876522E+00 -1.283810E+00 -8.876522E+00 +8.168872E+02 +1.419585E+01 -1.283810E+00 +1.419585E+01 +3.316672E+02 
 +4.407005E+02 -6.120168E+00 +2.162804E+00 -6.120168E+00 +8.090395E+02 +1.341714E+01 +2.162804E+00 +1.341714E+01 +3.374861E+02 
 +4.491534E+02 +2.124396E+00 -7.319349E-02 +2.124396E+00 +8.208243E+02 -1.128474E+00 -7.319349E-02 -1.128474E+00 +3.197997E+02 
 +4.695472E+02 +6.490070E+00 -3.704618E+00 +6.490070E+00 +8.423008E+02 -8.883246E+00 -3.704618E+00 -8.883246E+00 +3.261925E+02 
 +4.711181E+02 +6.214445E+00 -3.011437E+00 +6.214445E+00 +8.451088E+02 -8.050795E+00 -3.011437E+00 -8.050795E+00 +3.291549E+02 
 +4.777440E+02 +4.585368E+00 +4.060608E+00 +4.585368E+00 +8.424574E+02 -3.634662E+00 +4.060608E+00 -3.634662E+00 +3.274309E+02 
 +4.633701E+02 +5.500456E+00 -2.457620E+00 +5.500456E+00 +8.251593E+02 +3.389809E+00 -2.457620E+00 +3.389809E+00 +3.083929E+02 
 +4.701659E+02 +2.418190E+00 -1.129038E+01 +2.418190E+00 +8.183081E+02 +6.302342E-01 -1.129038E+01 +6.302342E-01 +3.182496E+02 
 +4.794988E+02 +5.763561E+00 -2.414435E+00 +5.763561E+00 +8.205008E+02 -5.906867E+00 -2.414435E+00 -5.906867E+00 +3.511616E+02 
 +4.842689E+02 +5.437864E+00 +9.837818E-01 +5.437864E+00 +8.173073E+02 -1.460018E+00 +9.837818E-01 -1.460018E+00 +3.629892E+02 
 +4.862006E+02 +8.320252E+00 +6.220466E-01 +8.320252E+00 +8.146863E+02 +2.538076E+00 +6.220466E-01 +2.538076E+00 +3.618880E+02 
 +4.838844E+02 +1.106375E+01 +1.467577E+00 +1.106375E+01 +8.157495E+02 +1.940265E+00 +1.467577E+00 +1.940265E+00 +3.695508E+02 
 +4.767701E+02 +8.045994E+00 -2.468631E+00 +8.045994E+00 +8.140039E+02 +1.797547E-01 -2.468631E+00 +1.797547E-01 +3.753916E+02 
 +4.733485E+02 +1.677756E+00 -8.186480E+00 +1.677756E+00 +8.114175E+02 -5.602387E+00 -8.186480E+00 -5.602387E+00 +3.781900E+02 
 +4.825093E+02 +2.689885E+00 -1.463196E+01 +2.689885E+00 +8.166692E+02 -9.519259E+00 -1.463196E+01 -9.519259E+00 +3.803198E+02 
 +4.568760E+02 +1.536132E+00 -1.318806E+01 +1.536132E+00 +8.031618E+02 -4.053484E+00 -1.318806E+01 -4.053484E+00 +3.632472E+02 
 +4.405271E+02 +9.085460E+00 -9.256205E+00 +9.085460E+00 +8.021490E+02 +6.885541E-01 -9.256205E+00 +6.885541E-01 +3.535381E+02 
 +4.369617E+02 +1.007261E+01 +1.078745E+00 +1.007261E+01 +8.121008E+02 +2.570766E+00 +1.078745E+00 +2.570766E+00 +3.531781E+02 
 +4.397162E+02 +8.282516E+00 +4.678367E+00 +8.282516E+00 +8.216383E+02 +3.821165E+00 +4.678367E+00 +3.821165E+00 +3.547085E+02 
 +4.079831E+02 -4.103885E+00 +2.081177E+01 -4.103885E+00 +8.108521E+02 +4.232166E+00 +2.081177E+01 +4.232166E+00 +3.283185E+02 
 +4.614505E+02 -1.091118E+01 +1.010782E+01 -1.091118E+01 +8.467803E+02 +5.463684E+00 +1.010782E+01 +5.463684E+00 +3.332572E+02 
 +4.715946E+02 -1.181222E+01 +3.958932E+00 -1.181222E+01 +8.458781E+02 +6.699456E+00 +3.958932E+00 +6.699456E+00 +3.523267E+02 
 +4.663844E+02 -3.699520E+00 -1.288692E+00 -3.699520E+00 +8.240563E+02 +4.668780E+00 -1.288692E+00 +4.668780E+00 +3.549325E+02 
 +4.678333E+02 +3.595073E+00 +9.169996E-01 +3.595073E+00 +8.243665E+02 -5.784367E+00 +9.169996E-01 -5.784367E+00 +3.282904E+02 
 +4.728527E+02 +5.088037E+00 +2.420026E+00 +5.088037E+00 +8.386056E+02 -9.601989E+00 +2.420026E+00 -9.601989E+00 +3.257461E+02 
 +4.767211E+02 +3.591912E+00 -1.029385E-01 +3.591912E+00 +8.435589E+02 -6.426394E+00 -1.029385E-01 -6.426394E+00 +3.344231E+02 
 +4.804604E+02 +1.581577E+00 +5.928674E+00 +1.581577E+00 +8.418432E+02 -7.522415E+00 +5.928674E+00 -7.522415E+00 +3.207922E+02 
 +4.639987E+02 -1.963731E+00 -2.331109E+00 -1.963731E+00 +8.273280E+02 -4.945147E+00 -2.331109E+00 -4.945147E+00 +3.061265E+02 
 +4.751991E+02 -2.888591E+00 -5.219488E+00 -2.888591E+00 +8.358882E+02 -2.966146E+00 -5.219488E+00 -2.966146E+00 +3.384297E+02 
 +4.811190E+02 +4.686432E+00 +1.894441E+00 +4.686432E+00 +8.276175E+02 -4.104969E+00 +1.894441E+00 -4.104969E+00 +3.652421E+02 
 +4.888533E+02 +7.786126E+00 +2.832606E+00 +7.786126E+00 +8.144823E+02 -2.490372E+00 +2.832606E+00 -2.490372E+00 +3.638380E+02 
 +4.877141E+02 +1.128956E+01 -3.258126E+00 +1.128956E+01 +8.089862E+02 +6.411381E-01 -3.258126E+00 +6.411381E-01 +3.595966E+02 
 +4.913987E+02 +1.359256E+01 -2.082794E+00 +1.359256E+01 +8.156788E+02 +2.932260E+00 -2.082794E+00 +2.932260E+00 +3.653744E+02 
 +4.934711E+02 +1.087593E+01 -7.039884E-01 +1.087593E+01 +8.259738E+02 +2.932398E+00 -7.039884E-01 +2.932398E+00 +3.743399E+02 
 +4.900828E+02 +3.936444E+00 -1.051849E+00 +3.936444E+00 +8.257425E+02 -1.664104E+00 -1.051849E+00 -1.664104E+00 +3.776825E+02 
 +4.753331E+02 +3.266031E+00 -4.086055E+00 +3.266031E+00 +8.187444E+02 -5.458939E+00 -4.086055E+00 -5.458939E+00 +3.760147E+02 
 +4.357021E+02 -3.148255E+00 -4.948585E+00 -3.148255E+00 +8.177056E+02 -1.148509E+01 -4.948585E+00 -1.148509E+01 +3.653532E+02 
 +4.414520E+02 -3.423908E+00 -2.979916E+00 -3.423908E+00 +8.384983E+02 -1.365691E+01 -2.979916E+00 -1.365691E+01 +3.682977E+02 
 +4.542183E+02 -2.596603E+00 -3.550032E-01 -2.596603E+00 +8.574919E+02 -8.904257E+00 -3.550032E-01 -8.904257E+00 +3.724180E+02 
 +4.552256E+02 -2.461705E+00 +1.513031E+00 -2.461705E+00 +8.664364E+02 -6.427165E+00 +1.513031E+00 -6.427165E+00 +3.719735E+02 
 +4.307240E+02 -1.643213E+00 +1.494759E+01 -1.643213E+00 +8.400342E+02 -2.810823E+00 +1.494759E+01 -2.810823E+00 +3.518305E+02 
 +4.707389E+02 +6.839260E-01 +1.101400E+01 +6.839260E-01 +8.410953E+02 +3.368740E+00 +1.101400E+01 +3.368740E+00 +3.395040E+02 
 +4.702848E+02 -4.939161E+00 +6.535187E+00 -4.939161E+00 +8.409713E+02 +3.421729E+00 +6.535187E+00 +3.421729E+00 +3.237084E+02 
 +4.782989E+02 +5.115913E-01 -1.331888E+00 +5.115913E-01 +8.585199E+02 -6.379686E+00 -1.331888E+00 -6.379686E+00 +3.290811E+02 
 +4.830474E+02 +7.555147E+00 -4.457045E-01 +7.555147E+00 +8.517846E+02 -1.592134E+01 -4.457045E-01 -1.592134E+01 +3.235566E+02 
 +4.848446E+02 +6.084560E+00 +3.465802E+00 +6.084560E+00 +8.457326E+02 -1.430766E+01 +3.465802E+00 -1.430766E+01 +3.251578E+02 
 +4.845282E+02 +2.857122E+00 +2.385663E+00 +2.857122E+00 +8.496141E+02 -9.191816E+00 +2.385663E+00 -9.191816E+00 +3.322441E+02 
 +4.905417E+02 +3.745877E+00 +6.449370E+00 +3.745877E+00 +8.545114E+02 -9.887764E+00 +6.449370E+00 -9.887764E+00 +3.184710E+02 
 +4.568635E+02 -3.115376E+00 -6.449024E+00 -3.115376E+00 +8.187531E+02 -5.372704E+00 -6.449024E+00 -5.372704E+00 +3.117614E+02 
 +4.606235E+02 -2.576928E+00 -7.631569E+00 -2.576928E+00 +8.018079E+02 -2.116715E+00 -7.631569E+00 -2.116715E+00 +3.452403E+02 
 +4.823590E+02 +5.863364E+00 +4.969116E+00 +5.863364E+00 +8.195934E+02 +1.253940E+00 +4.969116E+00 +1.253940E+00 +3.671480E+02 
 +4.944003E+02 +8.085119E+00 +1.924908E+00 +8.085119E+00 +8.275911E+02 +9.439252E-01 +1.924908E+00 +9.439252E-01 +3.582408E+02 
 +4.898932E+02 +1.304040E+01 -8.700552E+00 +1.304040E+01 +8.191472E+02 -2.250967E+00 -8.700552E+00 -2.250967E+00 +3.508245E+02 
 +5.036594E+02 +1.507896E+01 -4.719993E+00 +1.507896E+01 +8.289165E+02 +3.033350E+00 -4.719993E+00 +3.033350E+00 +3.697871E+02 
 +5.061177E+02 +9.775068E+00 -3.660231E+00 +9.775068E+00 +8.313301E+02 +4.485530E+00 -3.660231E+00 +4.485530E+00 +3.832836E+02 
 +5.165068E+02 +2.158654E+00 -1.311915E+00 +2.158654E+00 +8.538974E+02 -5.299667E+00 -1.311915E+00 -5.299667E+00 +3.996317E+02 
 +4.480189E+02 -5.278064E+00 +2.819009E+00 -5.278064E+00 +8.397860E+02 -1.162016E+01 +2.819009E+00 -1.162016E+01 +3.853065E+02 
 +4.262167E+02 -7.690317E+00 -4.421066E+00 -7.690317E+00 +8.386496E+02 -1.410662E+01 -4.421066E+00 -1.410662E+01 +3.803420E+02 
 +4.243323E+02 -8.103611E+00 -4.232315E+00 -8.103611E+00 +8.352471E+02 -1.653598E+01 -4.232315E+00 -1.653598E+01 +3.736060E+02 
 +4.620057E+02 +6.589652E+00 -1.385974E+01 +6.589652E+00 +8.489479E+02 -1.418829E+01 -1.385974E+01 -1.418829E+01 +3.811010E+02 
 +4.532005E+02 +9.140012E+00 -8.825629E+00 +9.140012E+00 +8.414021E+02 -1.388602E+01 -8.825629E+00 -1.388602E+01 +3.681176E+02 
 +4.591103E+02 +8.870415E+00 +1.053913E+00 +8.870415E+00 +8.500325E+02 -1.022956E+01 +1.053913E+00 -1.022956E+01 +3.576619E+02 
 +4.647521E+02 -2.302928E+00 +3.308804E+00 -2.302928E+00 +8.516627E+02 -2.200927E+00 +3.308804E+00 -2.200927E+00 +3.269644E+02 
 +4.692860E+02 -2.223241E+00 -3.617661E+00 -2.223241E+00 +8.503766E+02 -1.905149E+00 -3.617661E+00 -1.905149E+00 +2.932786E+02 
 +4.818101E+02 +1.201499E-01 -2.358705E+00 +1.201499E-01 +8.662984E+02 -1.214884E+01 -2.358705E+00 -1.214884E+01 +3.025928E+02 
 +4.937851E+02 +4.205321E+00 +4.314092E+00 +4.205321E+00 +8.726973E+02 -2.004526E+01 +4.314092E+00 -2.004526E+01 +3.208690E+02 
 +4.956515E+02 +7.809007E+00 +5.487875E+00 +7.809007E+00 +8.631244E+02 -1.716757E+01 +5.487875E+00 -1.716757E+01 +3.212117E+02 
 +4.917000E+02 +4.599210E+00 +4.778962E+00 +4.599210E+00 +8.552967E+02 -1.174340E+01 +4.778962E+00 -1.174340E+01 +3.230611E+02 
 +5.002529E+02 +6.460071E+00 +8.630683E+00 +6.460071E+00 +8.585229E+02 -1.534600E+01 +8.630683E+00 -1.534600E+01 +3.222674E+02 
 +4.671426E+02 -4.489289E+00 -1.043316E+01 -4.489289E+00 +8.431270E+02 -1.318481E+01 -1.043316E+01 -1.318481E+01 +3.252757E+02 
 +4.687513E+02 -9.221501E+00 -7.657396E+00 -9.221501E+00 +8.367659E+02 -1.453809E+00 -7.657396E+00 -1.453809E+00 +3.487445E+02 
 +5.016544E+02 +1.023695E+01 +6.328641E+00 +1.023695E+01 +8.359330E+02 +2.215793E+00 +6.328641E+00 +2.215793E+00 +3.605904E+02 
 +4.983719E+02 +1.297986E+01 -2.016492E+00 +1.297986E+01 +8.391155E+02 -7.746802E+00 -2.016492E+00 -7.746802E+00 +3.490147E+02 
 +5.012869E+02 +1.735611E+01 -7.209773E+00 +1.735611E+01 +8.480500E+02 -1.075598E+01 -7.209773E+00 -1.075598E+01 +3.524891E+02 
 +5.140898E+02 +1.717506E+01 -2.108217E+00 +1.717506E+01 +8.536587E+02 -4.507865E+00 -2.108217E+00 -4.507865E+00 +3.710983E+02 
 +5.262510E+02 +1.173230E+01 -4.820921E+00 +1.173230E+01 +8.596592E+02 +7.500764E-01 -4.820921E+00 +7.500764E-01 +3.900563E+02 
 +4.954043E+02 +4.902753E+00 -7.241460E+00 +4.902753E+00 +8.525770E+02 -3.515006E-01 -7.241460E+00 -3.515006E-01 +3.999259E+02 
 +4.291360E+02 -1.094483E+00 -5.185813E+00 -1.094483E+00 +8.393674E+02 -8.351357E-01 -5.185813E+00 -8.351357E-01 +3.962085E+02 
 +4.268097E+02 +1.042689E+00 -1.090479E+01 +1.042689E+00 +8.503980E+02 -2.270062E+00 -1.090479E+01 -2.270062E+00 +3.992047E+02 
 +4.238901E+02 -3.598185E+00 -8.864349E+00 -3.598185E+00 +8.380032E+02 -1.367397E+01 -8.864349E+00 -1.367397E+01 +3.841832E+02 
 +4.738132E+02 +7.845415E+00 -2.203956E+01 +7.845415E+00 +8.503146E+02 -1.784397E+01 -2.203956E+01 -1.784397E+01 +3.905996E+02 
 +4.676661E+02 +7.049558E+00 -1.844945E+01 +7.049558E+00 +8.410443E+02 -1.182803E+01 -1.844945E+01 -1.182803E+01 +3.791027E+02 
 +4.745105E+02 +8.854458E+00 -8.028985E+00 +8.854458E+00 +8.532602E+02 -8.925127E+00 -8.028985E+00 -8.925127E+00 +3.805892E+02 
 +4.503547E+02 -3.321621E+00 +5.366576E+00 -3.321621E+00 +8.489473E+02 -8.192484E+00 +5.366576E+00 -8.192484E+00 +3.501930E+02 
 +4.761565E+02 -1.476185E+00 -5.686929E+00 -1.476185E+00 +8.638367E+02 -6.044153E+00 -5.686929E+00 -6.044153E+00 +3.066048E+02 
 +5.009602E+02 -1.923616E+00 -6.575283E+00 -1.923616E+00 +8.764657E+02 -1.004096E+01 -6.575283E+00 -1.004096E+01 +3.014651E+02 
 +5.051731E+02 +2.465596E+00 +4.142238E+00 +2.465596E+00 +8.757572E+02 -1.415625E+01 +4.142238E+00 -1.415625E+01 +3.179304E+02 
 +5.017152E+02 +8.608192E+00 +4.776443E+00 +8.608192E+00 +8.675587E+02 -1.171668E+01 +4.776443E+00 -1.171668E+01 +3.163210E+02 
 +5.021168E+02 +9.191597E+00 +2.433388E+00 +9.191597E+00 +8.658450E+02 -1.205822E+01 +2.433388E+00 -1.205822E+01 +3.204306E+02 
 +4.966884E+02 -5.356758E+00 +1.129197E+01 -5.356758E+00 +8.612576E+02 -1.703419E+01 +1.129197E+01 -1.703419E+01 +3.257477E+02 
 +4.742261E+02 -8.616680E+00 -1.920149E+00 -8.616680E+00 +8.449289E+02 -1.640438E+01 -1.920149E+00 -1.640438E+01 +3.188798E+02 
 +4.766134E+02 -1.073927E+01 +8.296338E+00 -1.073927E+01 +8.483550E+02 -7.770062E+00 +8.296338E+00 -7.770062E+00 +3.226295E+02 
 +4.949284E+02 +1.013783E+01 +6.288810E+00 +1.013783E+01 +8.451194E+02 -2.566674E+00 +6.288810E+00 -2.566674E+00 +3.249517E+02 
 +4.861380E+02 +1.295514E+01 -1.049009E+00 +1.295514E+01 +8.330307E+02 -6.103691E+00 -1.049009E+00 -6.103691E+00 +3.202081E+02 
 +4.987171E+02 +1.054223E+01 -2.969691E+00 +1.054223E+01 +8.505429E+02 -8.012347E+00 -2.969691E+00 -8.012347E+00 +3.446447E+02 
 +5.164268E+02 +1.097828E+01 +1.772004E-01 +1.097828E+01 +8.627082E+02 -5.094841E+00 +1.772004E-01 -5.094841E+00 +3.629186E+02 
 +5.290641E+02 +7.342944E+00 -9.938425E+00 +7.342944E+00 +8.769139E+02 -9.275295E-01 -9.938425E+00 -9.275295E-01 +3.786006E+02 
 +4.737117E+02 +6.116036E+00 -1.389736E+01 +6.116036E+00 +8.659073E+02 -1.237880E+00 -1.389736E+01 -1.237880E+00 +3.870048E+02 
 +4.360317E+02 +1.611808E+00 -9.601888E+00 +1.611808E+00 +8.545628E+02 -1.068823E+00 -9.601888E+00 -1.068823E+00 +3.990160E+02 
 +4.386420E+02 +2.401758E+00 -1.064826E+01 +2.401758E+00 +8.545027E+02 +2.204042E+00 -1.064826E+01 +2.204042E+00 +4.067640E+02 
 +4.338153E+02 +2.725114E+00 -8.178243E+00 +2.725114E+00 +8.515508E+02 -4.720152E+00 -8.178243E+00 -4.720152E+00 +3.985380E+02 
 +4.685604E+02 +1.005537E+01 -1.506075E+01 +1.005537E+01 +8.573520E+02 -1.491540E+01 -1.506075E+01 -1.491540E+01 +3.969068E+02 
 +4.682477E+02 +1.056635E+01 -1.304094E+01 +1.056635E+01 +8.409353E+02 -1.479027E+01 -1.304094E+01 -1.479027E+01 +3.859535E+02 
 +4.655997E+02 +8.687058E+00 -6.447066E+00 +8.687058E+00 +8.420443E+02 -1.121533E+01 -6.447066E+00 -1.121533E+01 +3.911438E+02 
 +4.552866E+02 -4.775484E+00 +8.866971E+00 -4.775484E+00 +8.523372E+02 -1.670844E+01 +8.866971E+00 -1.670844E+01 +3.949278E+02 
 +4.863317E+02 -3.045273E+00 +8.769357E+00 -3.045273E+00 +8.669116E+02 -1.624249E+01 +8.769357E+00 -1.624249E+01 +3.526710E+02 
 +5.231278E+02 -3.201427E+00 -6.546644E+00 -3.201427E+00 +8.725869E+02 -6.600525E+00 -6.546644E+00 -6.600525E+00 +3.141797E+02 
 +5.135164E+02 +2.087698E+00 -2.671388E+00 +2.087698E+00 +8.677312E+02 -2.045856E+00 -2.671388E+00 -2.045856E+00 +3.165758E+02 
 +5.081233E+02 +6.590628E+00 -2.584071E+00 +6.590628E+00 +8.669957E+02 -2.678346E+00 -2.584071E+00 -2.678346E+00 +3.190938E+02 
 +5.059376E+02 +6.841141E+00 -6.605616E+00 +6.841141E+00 +8.677156E+02 -9.183819E+00 -6.605616E+00 -9.183819E+00 +3.199093E+02 
 +4.881891E+02 -8.322862E+00 +7.618027E+00 -8.322862E+00 +8.601237E+02 -1.003108E+01 +7.618027E+00 -1.003108E+01 +3.204533E+02 
 +4.883532E+02 -1.206131E+01 +5.649568E+00 -1.206131E+01 +8.548168E+02 -7.179750E+00 +5.649568E+00 -7.179750E+00 +3.152641E+02 
 +4.978715E+02 -1.782533E+01 +1.549505E+01 -1.782533E+01 +8.636260E+02 -9.659696E+00 +1.549505E+01 -9.659696E+00 +3.168761E+02 
 +4.872403E+02 -7.435998E+00 +1.379667E+01 -7.435998E+00 +8.591905E+02 -7.570460E+00 +1.379667E+01 -7.570460E+00 +3.159213E+02 
 +4.858431E+02 +8.110369E+00 -2.061001E+00 +8.110369E+00 +8.477467E+02 -4.387948E+00 -2.061001E+00 -4.387948E+00 +3.201929E+02 
 +5.036287E+02 +7.883921E+00 -2.907996E+00 +7.883921E+00 +8.606561E+02 -6.633538E+00 -2.907996E+00 -6.633538E+00 +3.435639E+02 
 +5.097757E+02 +2.937267E+00 -3.739555E+00 +2.937267E+00 +8.726528E+02 -2.587128E+00 -3.739555E+00 -2.587128E+00 +3.610644E+02 
 +5.021328E+02 -8.076095E+00 -1.541129E+01 -8.076095E+00 +8.763610E+02 +8.585369E+00 -1.541129E+01 +8.585369E+00 +3.715356E+02 
 +4.955577E+02 -6.296257E+00 -2.344734E+01 -6.296257E+00 +8.790782E+02 +1.032926E+01 -2.344734E+01 +1.032926E+01 +3.885827E+02 
 +4.556961E+02 +3.268927E+00 +2.634559E+00 +3.268927E+00 +8.628315E+02 +5.525653E+00 +2.634559E+00 +5.525653E+00 +3.859311E+02 
 +4.395010E+02 +5.177936E+00 -4.811807E+00 +5.177936E+00 +8.550752E+02 +5.688366E+00 -4.811807E+00 +5.688366E+00 +3.930538E+02 
 +4.508175E+02 +2.769803E+00 -1.995950E+00 +2.769803E+00 +8.639436E+02 +2.565024E+00 -1.995950E+00 +2.565024E+00 +4.116661E+02 
 +4.614755E+02 +5.355892E+00 -2.969992E+00 +5.355892E+00 +8.749683E+02 -3.008426E+00 -2.969992E+00 -3.008426E+00 +4.105452E+02 
 +4.774864E+02 +3.382737E+00 +3.958485E+00 +3.382737E+00 +8.827855E+02 -6.428767E+00 +3.958485E+00 -6.428767E+00 +4.137701E+02 
 +4.660505E+02 +1.698589E+00 -3.297623E+00 +1.698589E+00 +8.670134E+02 -7.339881E+00 -3.297623E+00 -7.339881E+00 +4.077202E+02 
 +4.767908E+02 -1.009413E+00 +7.112779E+00 -1.009413E+00 +8.616666E+02 -1.042063E+01 +7.112779E+00 -1.042063E+01 +4.016243E+02 
 +5.046467E+02 +5.403294E+00 +1.869684E+01 +5.403294E+00 +8.635273E+02 -8.948875E+00 +1.869684E+01 -8.948875E+00 +3.586319E+02 
 +5.224345E+02 +2.349226E+00 -2.308010E+00 +2.349226E+00 +8.611587E+02 -2.944270E+00 -2.308010E+00 -2.944270E+00 +3.189927E+02 
 +5.158463E+02 +2.284132E+00 -5.438416E+00 +2.284132E+00 +8.598425E+02 -8.142366E-01 -5.438416E+00 -8.142366E-01 +3.261688E+02 
 +5.092471E+02 +2.838154E+00 -6.424792E+00 +2.838154E+00 +8.615915E+02 -3.384799E+00 -6.424792E+00 -3.384799E+00 +3.286010E+02 
 +5.043741E+02 +4.306372E+00 -1.528357E+01 +4.306372E+00 +8.638097E+02 -7.491390E+00 -1.528357E+01 -7.491390E+00 +3.220647E+02 
 +4.853813E+02 -5.836456E+00 +8.361502E-02 -5.836456E+00 +8.516977E+02 -8.427275E+00 +8.361502E-02 -8.427275E+00 +3.182716E+02 
 +4.839559E+02 -1.122711E+01 +9.981638E+00 -1.122711E+01 +8.532468E+02 -4.341346E+00 +9.981638E+00 -4.341346E+00 +3.065366E+02 
 +4.892673E+02 -1.562861E+01 +1.717973E+01 -1.562861E+01 +8.610931E+02 -2.930875E+00 +1.717973E+01 -2.930875E+00 +3.066848E+02 
 +4.940657E+02 -1.410342E+01 +2.094102E+01 -1.410342E+01 +8.681552E+02 -6.860809E+00 +2.094102E+01 -6.860809E+00 +3.261280E+02 
 +4.855311E+02 +2.052160E+00 -8.188624E+00 +2.052160E+00 +8.615403E+02 -7.500781E+00 -8.188624E+00 -7.500781E+00 +3.275497E+02 
 +4.930817E+02 -6.385754E-01 -7.163654E+00 -6.385754E-01 +8.675441E+02 -4.655935E+00 -7.163654E+00 -4.655935E+00 +3.360427E+02 
 +4.884566E+02 -9.483716E+00 -9.225065E+00 -9.483716E+00 +8.725574E+02 -3.347610E-01 -9.225065E+00 -3.347610E-01 +3.575788E+02 
 +4.890062E+02 -1.060500E+01 -1.701072E+01 -1.060500E+01 +8.734951E+02 +7.609003E-01 -1.701072E+01 +7.609003E-01 +3.748920E+02 
 +5.102891E+02 -9.261099E+00 -1.603167E+01 -9.261099E+00 +8.789785E+02 +7.103985E+00 -1.603167E+01 +7.103985E+00 +3.879636E+02 
 +5.021080E+02 -3.632856E+00 +1.308011E+01 -3.632856E+00 +8.729945E+02 +9.020370E+00 +1.308011E+01 +9.020370E+00 +3.773452E+02 
 +4.434492E+02 +3.670608E+00 +2.865085E+00 +3.670608E+00 +8.522053E+02 +5.146165E+00 +2.865085E+00 +5.146165E+00 +3.676721E+02 
 +4.382254E+02 +5.142964E+00 +4.039371E+00 +5.142964E+00 +8.584531E+02 +6.219152E+00 +4.039371E+00 +6.219152E+00 +3.995769E+02 
 +4.550586E+02 +6.849429E+00 +6.268193E+00 +6.849429E+00 +8.704378E+02 +3.023608E+00 +6.268193E+00 +3.023608E+00 +4.177557E+02 
 +4.578941E+02 +1.004584E+01 +1.504407E+01 +1.004584E+01 +8.766051E+02 -1.878797E+00 +1.504407E+01 -1.878797E+00 +4.281871E+02 
 +4.825901E+02 +9.734369E+00 +2.090919E+00 +9.734369E+00 +8.802365E+02 -3.499366E+00 +2.090919E+00 -3.499366E+00 +4.336244E+02 
 +4.963508E+02 +1.302785E+01 +1.555907E+01 +1.302785E+01 +8.725270E+02 -4.426562E+00 +1.555907E+01 -4.426562E+00 +3.881585E+02 
 +5.129582E+02 +6.331740E+00 +1.876485E+01 +6.331740E+00 +8.677974E+02 -7.333779E+00 +1.876485E+01 -7.333779E+00 +3.323499E+02 
 +5.115555E+02 +5.451342E-01 +3.511639E-01 +5.451342E-01 +8.591601E+02 -4.105661E+00 +3.511639E-01 -4.105661E+00 +3.156143E+02 
 +5.190062E+02 +2.788419E+00 -4.648357E+00 +2.788419E+00 +8.672258E+02 -2.599764E+00 -4.648357E+00 -2.599764E+00 +3.405211E+02 
 +5.153342E+02 +4.584529E+00 -7.538991E+00 +4.584529E+00 +8.656549E+02 -9.865172E+00 -7.538991E+00 -9.865172E+00 +3.402848E+02 
 +5.060742E+02 +7.483984E+00 -1.688365E+01 +7.483984E+00 +8.614272E+02 -1.123314E+01 -1.688365E+01 -1.123314E+01 +3.285319E+02 
 +4.812593E+02 -9.512268E+00 -6.935610E+00 -9.512268E+00 +8.343973E+02 -1.247229E+01 -6.935610E+00 -1.247229E+01 +3.411046E+02 
 +4.880033E+02 -1.081589E+01 +1.158486E+01 -1.081589E+01 +8.480535E+02 -3.030148E+00 +1.158486E+01 -3.030148E+00 +3.254338E+02 
 +4.865602E+02 -1.215979E+01 +2.366895E+01 -1.215979E+01 +8.558076E+02 +3.894249E-01 +2.366895E+01 +3.894249E-01 +3.077563E+02 
 +4.643304E+02 -1.484644E+01 +1.733484E+01 -1.484644E+01 +8.552717E+02 -9.209427E+00 +1.733484E+01 -9.209427E+00 +3.245447E+02 
 +4.785319E+02 -7.266365E+00 -9.184051E+00 -7.266365E+00 +8.747925E+02 -8.157566E+00 -9.184051E+00 -8.157566E+00 +3.290103E+02 
 +4.726335E+02 -1.181766E+01 -1.802841E+01 -1.181766E+01 +8.679522E+02 -1.605091E+00 -1.802841E+01 -1.605091E+00 +3.241485E+02 
 +4.872989E+02 -1.086683E+01 -1.487823E+01 -1.086683E+01 +8.708191E+02 -4.017354E+00 -1.487823E+01 -4.017354E+00 +3.601290E+02 
 +4.962824E+02 -1.138387E+01 -1.976128E+01 -1.138387E+01 +8.775553E+02 -4.257366E+00 -1.976128E+01 -4.257366E+00 +3.795729E+02 
 +5.114346E+02 -1.166422E+01 -1.423890E+00 -1.166422E+01 +8.837494E+02 -3.039045E+00 -1.423890E+00 -3.039045E+00 +3.850923E+02 
 +5.144582E+02 -1.151089E+01 +1.765428E+01 -1.151089E+01 +8.760884E+02 +1.819543E+00 +1.765428E+01 +1.819543E+00 +3.732243E+02 
 +4.851796E+02 -1.075585E+01 +4.484697E+00 -1.075585E+01 +8.609093E+02 +3.289411E+00 +4.484697E+00 +3.289411E+00 +3.704266E+02 
 +4.327152E+02 -2.116996E+00 +3.934842E+00 -2.116996E+00 +8.442079E+02 +3.330661E-01 +3.934842E+00 +3.330661E-01 +3.804057E+02 
 +4.478518E+02 +7.717480E+00 +1.301404E+01 +7.717480E+00 +8.622496E+02 +3.362875E+00 +1.301404E+01 +3.362875E+00 +4.160084E+02 
 +4.659468E+02 +1.233302E+01 +1.720534E+01 +1.233302E+01 +8.785543E+02 -1.614761E+00 +1.720534E+01 -1.614761E+00 +4.379802E+02 
 +5.029846E+02 +1.245024E+01 +1.209754E+01 +1.245024E+01 +9.010202E+02 -5.417176E+00 +1.209754E+01 -5.417176E+00 +4.421609E+02 
 +4.962844E+02 +1.352523E+01 +2.441763E+01 +1.352523E+01 +8.856585E+02 +2.429380E-02 +2.441763E+01 +2.429380E-02 +3.757375E+02 
 +5.088917E+02 +9.710200E-01 +1.629626E+01 +9.710200E-01 +8.771025E+02 +9.592560E-02 +1.629626E+01 +9.592560E-02 +3.186900E+02 
 +5.224868E+02 -1.604539E+00 +1.376927E+00 -1.604539E+00 +8.781365E+02 -1.662603E+00 +1.376927E+00 -1.662603E+00 +3.236592E+02 
 +5.222111E+02 +3.228812E+00 -2.461289E+00 +3.228812E+00 +8.769866E+02 -2.193415E+00 -2.461289E+00 -2.193415E+00 +3.433778E+02 
 +5.168579E+02 +4.057499E+00 -8.358375E+00 +4.057499E+00 +8.716401E+02 -4.825982E+00 -8.358375E+00 -4.825982E+00 +3.431770E+02 
 +5.018566E+02 +7.871972E-01 -1.691112E+01 +7.871972E-01 +8.508097E+02 -1.139992E+01 -1.691112E+01 -1.139992E+01 +3.385483E+02 
 +4.784668E+02 -1.420262E+01 -8.506423E+00 -1.420262E+01 +8.245910E+02 -1.835930E+01 -8.506423E+00 -1.835930E+01 +3.649935E+02 
 +4.787184E+02 -1.499173E+01 +1.020401E+01 -1.499173E+01 +8.253949E+02 -1.026268E+01 +1.020401E+01 -1.026268E+01 +3.389505E+02 
 +4.985874E+02 -1.927812E+01 +2.513734E+01 -1.927812E+01 +8.569355E+02 +1.052089E+00 +2.513734E+01 +1.052089E+00 +3.267702E+02 
 +4.618448E+02 -1.479566E+01 +1.375215E+01 -1.479566E+01 +8.694751E+02 +8.603842E+00 +1.375215E+01 +8.603842E+00 +3.473444E+02 
 +4.655394E+02 -7.845815E-01 -9.422164E+00 -7.845815E-01 +8.661873E+02 +1.002863E+01 -9.422164E+00 +1.002863E+01 +3.465298E+02 
 +4.528645E+02 -4.985850E+00 -2.350329E+01 -4.985850E+00 +8.491254E+02 +1.952000E+00 -2.350329E+01 +1.952000E+00 +3.291940E+02 
 +4.846747E+02 -1.135093E+01 -1.742636E+01 -1.135093E+01 +8.721435E+02 -8.851028E+00 -1.742636E+01 -8.851028E+00 +3.706112E+02 
 +4.970492E+02 -1.339254E+01 -1.567874E+01 -1.339254E+01 +8.772018E+02 -5.827652E+00 -1.567874E+01 -5.827652E+00 +3.829522E+02 
 +5.130115E+02 -1.604577E+01 -1.164657E+01 -1.604577E+01 +8.859062E+02 -6.788614E-01 -1.164657E+01 -6.788614E-01 +3.853008E+02 
 +5.035024E+02 -1.740307E+01 +1.356287E+01 -1.740307E+01 +8.706394E+02 -6.537014E+00 +1.356287E+01 -6.537014E+00 +3.715031E+02 
 +4.887201E+02 -1.953882E+01 -7.467547E-01 -1.953882E+01 +8.516031E+02 -6.930234E+00 -7.467547E-01 -6.930234E+00 +3.687864E+02 
 +4.647905E+02 -1.822428E+01 +6.136779E+00 -1.822428E+01 +8.460872E+02 -1.409969E+00 +6.136779E+00 -1.409969E+00 +3.800130E+02 
 +4.376859E+02 -8.161778E+00 +2.290487E+01 -8.161778E+00 +8.490021E+02 +2.524723E+00 +2.290487E+01 +2.524723E+00 +4.009253E+02 
 +4.930812E+02 +8.738141E-01 +1.537013E+01 +8.738141E-01 +8.910236E+02 -5.160475E+00 +1.537013E+01 -5.160475E+00 +4.417601E+02 
 +5.094105E+02 +9.895003E-01 +1.802392E+01 +9.895003E-01 +9.071055E+02 -1.059040E+01 +1.802392E+01 -1.059040E+01 +4.395266E+02 
 +5.063536E+02 +4.859925E+00 +2.182783E+01 +4.859925E+00 +9.001052E+02 -4.958365E+00 +2.182783E+01 -4.958365E+00 +3.906106E+02 
 +5.316629E+02 -1.235818E+00 +1.606447E+01 -1.235818E+00 +9.008974E+02 +3.375866E+00 +1.606447E+01 +3.375866E+00 +3.467730E+02 
 +5.211306E+02 -6.641188E+00 -6.187225E+00 -6.641188E+00 +8.821674E+02 +7.000454E+00 -6.187225E+00 +7.000454E+00 +3.365876E+02 
 +5.137885E+02 -3.923277E+00 -3.091899E+00 -3.923277E+00 +8.647529E+02 -2.637814E+00 -3.091899E+00 -2.637814E+00 +3.436775E+02 
 +4.921167E+02 -6.051342E+00 -5.703354E+00 -6.051342E+00 +8.352276E+02 -1.318099E+01 -5.703354E+00 -1.318099E+01 +3.407643E+02 
 +4.854534E+02 -7.631365E+00 -1.251560E+01 -7.631365E+00 +8.236659E+02 -1.780635E+01 -1.251560E+01 -1.780635E+01 +3.524628E+02 
 +4.721957E+02 -8.903477E+00 +3.166638E+00 -8.903477E+00 +8.335213E+02 -1.333320E+01 +3.166638E+00 -1.333320E+01 +3.544523E+02 
 +4.839577E+02 -3.062431E+00 +2.316412E+01 -3.062431E+00 +8.545657E+02 +5.981377E+00 +2.316412E+01 +5.981377E+00 +3.475013E+02 
 +4.761486E+02 -2.332866E+00 +1.890008E+01 -2.332866E+00 +8.590133E+02 +1.418621E+01 +1.890008E+01 +1.418621E+01 +3.397366E+02 
 +4.539405E+02 +3.151072E+00 +2.315086E+00 +3.151072E+00 +8.561737E+02 +2.871165E+00 +2.315086E+00 +2.871165E+00 +3.373790E+02 
 +4.437211E+02 +6.336456E+00 -2.696351E+01 +6.336456E+00 +8.625797E+02 -5.198541E+00 -2.696351E+01 -5.198541E+00 +3.579602E+02 
 +4.494036E+02 +4.011376E+00 -3.668908E+01 +4.011376E+00 +8.627800E+02 -2.550095E+00 -3.668908E+01 -2.550095E+00 +3.661852E+02 
 +4.779675E+02 -4.360546E+00 -2.356981E+01 -4.360546E+00 +8.711676E+02 -3.349974E+00 -2.356981E+01 -3.349974E+00 +3.678647E+02 
 +5.039720E+02 -8.595298E+00 -1.489917E+01 -8.595298E+00 +8.827859E+02 -7.348177E+00 -1.489917E+01 -7.348177E+00 +3.815406E+02 
 +5.223887E+02 -1.173469E+01 -1.219289E+01 -1.173469E+01 +8.903810E+02 -5.169517E+00 -1.219289E+01 -5.169517E+00 +3.897096E+02 
 +5.263489E+02 -1.442149E+01 -1.626324E+01 -1.442149E+01 +8.857168E+02 -6.818543E+00 -1.626324E+01 -6.818543E+00 +3.960415E+02 
 +5.012301E+02 -1.132173E+01 -9.279284E+00 -1.132173E+01 +8.655673E+02 -1.033058E+01 -9.279284E+00 -1.033058E+01 +3.862351E+02 
 +4.924371E+02 -1.085221E+01 +1.149697E+01 -1.085221E+01 +8.686671E+02 -7.720264E+00 +1.149697E+01 -7.720264E+00 +3.802588E+02 
 +4.685948E+02 -8.809488E+00 +3.213199E+01 -8.809488E+00 +8.605405E+02 -4.601575E+00 +3.213199E+01 -4.601575E+00 +3.532995E+02 
 +4.939659E+02 -2.500215E+00 +1.334597E+01 -2.500215E+00 +8.709100E+02 -2.905592E-01 +1.334597E+01 -2.905592E-01 +3.345350E+02 
 +5.060604E+02 +2.932009E+00 +2.712352E+01 +2.932009E+00 +8.710898E+02 +2.141198E+00 +2.712352E+01 +2.141198E+00 +3.536394E+02 
 +5.159221E+02 +1.426436E+01 +1.071600E+01 +1.426436E+01 +8.716572E+02 +4.493676E+00 +1.071600E+01 +4.493676E+00 +3.817725E+02 
 +5.220255E+02 +7.556334E+00 +2.097334E+01 +7.556334E+00 +8.726615E+02 +2.030674E+00 +2.097334E+01 +2.030674E+00 +3.649003E+02 
 +4.952614E+02 -8.280919E+00 +5.316850E+00 -8.280919E+00 +8.545185E+02 -5.992131E+00 +5.316850E+00 -5.992131E+00 +3.609054E+02 
 +4.903302E+02 -5.689890E+00 +2.006143E+00 -5.689890E+00 +8.436617E+02 -9.530772E+00 +2.006143E+00 -9.530772E+00 +3.768210E+02 
 +4.744309E+02 -3.792630E+00 -1.124727E+00 -3.792630E+00 +8.272540E+02 -1.163979E+01 -1.124727E+00 -1.163979E+01 +3.651280E+02 
 +4.706300E+02 -7.581589E+00 -8.251178E+00 -7.581589E+00 +8.250190E+02 -1.803306E+01 -8.251178E+00 -1.803306E+01 +3.631215E+02 
 +4.804707E+02 +3.690763E+00 +1.684669E+01 +3.690763E+00 +8.528867E+02 +4.744024E-01 +1.684669E+01 +4.744024E-01 +3.546732E+02 
 +4.838945E+02 +2.212162E+00 +2.676853E+01 +2.212162E+00 +8.566258E+02 +1.291925E+01 +2.676853E+01 +1.291925E+01 +3.327642E+02 
 +4.879290E+02 +3.813007E+00 +1.911636E+01 +3.813007E+00 +8.621934E+02 +1.658486E+01 +1.911636E+01 +1.658486E+01 +3.307623E+02 
 +4.510838E+02 +8.404045E-01 -1.734321E+01 +8.404045E-01 +8.572208E+02 +8.327556E+00 -1.734321E+01 +8.327556E+00 +3.386573E+02 
 +4.352963E+02 +1.076164E+00 -3.539596E+01 +1.076164E+00 +8.586533E+02 -3.729560E+00 -3.539596E+01 -3.729560E+00 +3.624437E+02 
 +4.545194E+02 +3.609505E+00 -3.402304E+01 +3.609505E+00 +8.686229E+02 -3.219385E+00 -3.402304E+01 -3.219385E+00 +3.799729E+02 
 +4.648595E+02 -2.205565E+00 -2.459566E+01 -2.205565E+00 +8.702259E+02 -3.365401E+00 -2.459566E+01 -3.365401E+00 +3.801020E+02 
 +4.822930E+02 -5.509916E+00 -1.729464E+01 -5.509916E+00 +8.783397E+02 -8.452612E+00 -1.729464E+01 -8.452612E+00 +3.916365E+02 
 +5.153351E+02 -1.280344E+01 -1.099881E+01 -1.280344E+01 +8.864025E+02 -1.215266E+01 -1.099881E+01 -1.215266E+01 +3.921300E+02 
 +5.221518E+02 -2.062371E+01 -1.120842E+01 -2.062371E+01 +8.815140E+02 -1.013925E+01 -1.120842E+01 -1.013925E+01 +3.766811E+02 
 +5.024616E+02 -1.141339E+01 +7.484781E+00 -1.141339E+01 +8.770081E+02 -6.130505E+00 +7.484781E+00 -6.130505E+00 +3.729370E+02 
 +4.907894E+02 -7.138117E+00 +1.409211E+01 -7.138117E+00 +8.764450E+02 -2.312017E+00 +1.409211E+01 -2.312017E+00 +3.740957E+02 
 +4.956524E+02 -5.299080E+00 +2.177435E+01 -5.299080E+00 +8.755873E+02 -6.758638E-01 +2.177435E+01 -6.758638E-01 +3.606949E+02 
 +5.096582E+02 -3.466605E+00 +1.411885E+01 -3.466605E+00 +8.757783E+02 -1.174078E+00 +1.411885E+01 -1.174078E+00 +3.484005E+02 
 +5.258023E+02 -5.094078E+00 +2.089563E+01 -5.094078E+00 +8.737575E+02 -5.262763E+00 +2.089563E+01 -5.262763E+00 +3.752093E+02 
 +5.371868E+02 +4.664297E+00 +6.583648E+00 +4.664297E+00 +8.701870E+02 -3.020082E+00 +6.583648E+00 -3.020082E+00 +4.042744E+02 
 +5.302480E+02 +1.977791E+00 +1.664210E+01 +1.977791E+00 +8.740296E+02 +1.278183E+00 +1.664210E+01 +1.278183E+00 +3.863219E+02 
 +4.966815E+02 -1.322291E+01 -1.026857E+01 -1.322291E+01 +8.724770E+02 +2.156317E-01 -1.026857E+01 +2.156317E-01 +3.600529E+02 
 +5.070291E+02 -9.876097E+00 -1.113165E+01 -9.876097E+00 +8.791503E+02 +6.655558E+00 -1.113165E+01 +6.655558E+00 +3.780237E+02 
 +4.926285E+02 -4.886599E+00 -1.413576E+01 -4.886599E+00 +8.616941E+02 +7.294187E+00 -1.413576E+01 +7.294187E+00 +3.821675E+02 
 +4.718563E+02 -3.373946E+00 -1.864799E+01 -3.373946E+00 +8.433177E+02 -4.622729E+00 -1.864799E+01 -4.622729E+00 +3.714118E+02 
 +4.786037E+02 +7.290401E+00 +1.758547E+01 +7.290401E+00 +8.610743E+02 +5.792468E+00 +1.758547E+01 +5.792468E+00 +3.570352E+02 
 +4.915712E+02 +6.569462E+00 +2.076218E+01 +6.569462E+00 +8.658357E+02 +1.244936E+01 +2.076218E+01 +1.244936E+01 +3.359426E+02 
 +4.712439E+02 +2.489543E+00 -4.273752E-01 +2.489543E+00 +8.600106E+02 +1.278403E+01 -4.273752E-01 +1.278403E+01 +3.146678E+02 
 +4.345180E+02 -3.482375E+00 -2.792372E+01 -3.482375E+00 +8.483705E+02 +4.032389E-01 -2.792372E+01 +4.032389E-01 +3.333413E+02 
 +4.553262E+02 -1.245537E+00 -3.318656E+01 -1.245537E+00 +8.651120E+02 -3.673944E+00 -3.318656E+01 -3.673944E+00 +3.757422E+02 
 +4.499213E+02 -1.332147E-01 -2.683317E+01 -1.332147E-01 +8.605365E+02 -2.825177E+00 -2.683317E+01 -2.825177E+00 +3.830960E+02 
 +4.635435E+02 -1.323677E+00 -2.154774E+01 -1.323677E+00 +8.706682E+02 -2.957887E-01 -2.154774E+01 -2.957887E-01 +3.969260E+02 
 +4.645102E+02 -3.353880E+00 -2.110413E+01 -3.353880E+00 +8.700603E+02 -7.079701E+00 -2.110413E+01 -7.079701E+00 +3.976089E+02 
 +5.031334E+02 -6.317850E+00 -8.046634E+00 -6.317850E+00 +8.836733E+02 -7.210481E+00 -8.046634E+00 -7.210481E+00 +3.871552E+02 
 +5.194084E+02 -9.613539E+00 +3.665974E+00 -9.613539E+00 +8.907172E+02 +4.265123E+00 +3.665974E+00 +4.265123E+00 +3.626972E+02 
 +4.973432E+02 -5.273398E+00 +1.290017E+01 -5.273398E+00 +8.792248E+02 +5.289578E-01 +1.290017E+01 +5.289578E-01 +3.543024E+02 
 +5.001702E+02 -3.206313E+00 +8.654380E+00 -3.206313E+00 +8.713694E+02 -1.254049E+01 +8.654380E+00 -1.254049E+01 +3.704874E+02 
 +5.061552E+02 +2.428643E+00 +7.234304E-01 +2.428643E+00 +8.581660E+02 -1.587832E+01 +7.234304E-01 -1.587832E+01 +3.777091E+02 
 +5.101581E+02 +5.020551E+00 -2.401116E+00 +5.020551E+00 +8.473162E+02 -1.256350E+01 -2.401116E+00 -1.256350E+01 +3.814563E+02 
 +5.250587E+02 +1.332041E-01 +1.638671E+00 +1.332041E-01 +8.572447E+02 -1.159241E+01 +1.638671E+00 -1.159241E+01 +4.035232E+02 
 +5.267327E+02 +5.097929E+00 -1.719932E+00 +5.097929E+00 +8.562982E+02 -7.971268E+00 -1.719932E+00 -7.971268E+00 +4.041366E+02 
 +5.268523E+02 +8.312871E+00 +1.090256E+01 +8.312871E+00 +8.558869E+02 -4.248749E+00 +1.090256E+01 -4.248749E+00 +3.943619E+02 
 +5.004987E+02 -7.738895E+00 -1.524731E+01 -7.738895E+00 +8.585961E+02 -4.409470E+00 -1.524731E+01 -4.409470E+00 +3.642269E+02 
 +4.950271E+02 -1.355207E+01 -2.487457E+01 -1.355207E+01 +8.687874E+02 +2.780306E+00 -2.487457E+01 +2.780306E+00 +3.583835E+02 
 +5.011437E+02 -6.938665E+00 -2.207153E+01 -6.938665E+00 +8.777403E+02 +1.363952E+01 -2.207153E+01 +1.363952E+01 +3.802898E+02 
 +4.963451E+02 -2.989528E+00 -3.160670E+01 -2.989528E+00 +8.790254E+02 +1.427272E+01 -3.160670E+01 +1.427272E+01 +3.797358E+02 
 +4.737550E+02 -1.565336E+00 +4.579092E+00 -1.565336E+00 +8.716940E+02 +1.941037E+01 +4.579092E+00 +1.941037E+01 +3.480356E+02 
 +5.068701E+02 +3.951369E+00 +1.280167E+01 +3.951369E+00 +8.870935E+02 +9.242163E+00 +1.280167E+01 +9.242163E+00 +3.326497E+02 
 +4.490894E+02 +2.933867E+00 -2.094304E+01 +2.933867E+00 +8.561380E+02 -9.837596E-02 -2.094304E+01 -9.837596E-02 +2.901808E+02 
 +4.474496E+02 +2.795956E+00 -2.881772E+01 +2.795956E+00 +8.587292E+02 -6.499788E+00 -2.881772E+01 -6.499788E+00 +3.350576E+02 
 +4.571112E+02 +2.134409E+00 -3.086470E+01 +2.134409E+00 +8.635331E+02 -9.550350E+00 -3.086470E+01 -9.550350E+00 +3.743394E+02 
 +4.561029E+02 +3.196802E+00 -2.251032E+01 +3.196802E+00 +8.636015E+02 -6.201153E+00 -2.251032E+01 -6.201153E+00 +3.952237E+02 
 +4.649297E+02 +1.933539E+00 -1.976232E+01 +1.933539E+00 +8.718692E+02 -5.926663E+00 -1.976232E+01 -5.926663E+00 +4.159408E+02 
 +4.705313E+02 +1.456588E+00 -1.798917E+01 +1.456588E+00 +8.699151E+02 -1.137259E+01 -1.798917E+01 -1.137259E+01 +4.041915E+02 
 +4.962106E+02 +4.559864E+00 -4.795100E-01 +4.559864E+00 +8.673098E+02 -1.125805E+01 -4.795100E-01 -1.125805E+01 +3.747843E+02 
 +4.900240E+02 +7.832865E+00 +3.415196E+00 +7.832865E+00 +8.557633E+02 -7.792675E+00 +3.415196E+00 -7.792675E+00 +3.501899E+02 
 +4.757361E+02 +7.296181E+00 +3.603690E+00 +7.296181E+00 +8.382539E+02 -7.245778E+00 +3.603690E+00 -7.245778E+00 +3.461602E+02 
 +4.879143E+02 +9.376421E+00 +1.210096E+00 +9.376421E+00 +8.304977E+02 -1.185172E+01 +1.210096E+00 -1.185172E+01 +3.559104E+02 
 +5.025938E+02 +9.525456E+00 -8.374933E+00 +9.525456E+00 +8.379008E+02 -1.401603E+01 -8.374933E+00 -1.401603E+01 +3.684284E+02 
 +5.098541E+02 +7.199032E+00 -9.019923E+00 +7.199032E+00 +8.440463E+02 -1.019034E+01 -9.019923E+00 -1.019034E+01 +3.815621E+02 
 +5.135697E+02 +4.067488E+00 -4.506814E+00 +4.067488E+00 +8.474871E+02 -1.012272E+01 -4.506814E+00 -1.012272E+01 +3.968542E+02 
 +5.113863E+02 +5.701329E+00 -4.402228E+00 +5.701329E+00 +8.449557E+02 -9.983375E+00 -4.402228E+00 -9.983375E+00 +4.023905E+02 
 +5.146320E+02 +9.403463E+00 +1.223362E+00 +9.403463E+00 +8.357281E+02 -9.546100E+00 +1.223362E+00 -9.546100E+00 +4.078222E+02 
 +5.020874E+02 +1.682878E+00 -8.240361E+00 +1.682878E+00 +8.336031E+02 -1.415628E+01 -8.240361E+00 -1.415628E+01 +3.941823E+02 
 +4.799668E+02 -1.186249E+01 -1.750649E+01 -1.186249E+01 +8.482665E+02 -5.497290E+00 -1.750649E+01 -5.497290E+00 +3.643547E+02 
 +4.947759E+02 -8.385165E+00 -1.726840E+01 -8.385165E+00 +8.712057E+02 +1.045903E+01 -1.726840E+01 +1.045903E+01 +3.544092E+02 
 +4.963338E+02 -5.475778E+00 -3.496323E+01 -5.475778E+00 +8.786383E+02 +1.905949E+01 -3.496323E+01 +1.905949E+01 +3.475561E+02 
 +4.744236E+02 -7.824801E+00 -4.699210E+00 -7.824801E+00 +8.749166E+02 +2.981777E+01 -4.699210E+00 +2.981777E+01 +3.172088E+02 
 +4.995526E+02 -1.041483E+00 -3.076971E+00 -1.041483E+00 +8.837691E+02 +1.444396E+01 -3.076971E+00 +1.444396E+01 +3.156502E+02 
 +4.759753E+02 +1.631435E+00 -1.507024E+01 +1.631435E+00 +8.641892E+02 -2.559891E+00 -1.507024E+01 -2.559891E+00 +2.996918E+02 
 +4.587759E+02 +5.661902E+00 -2.786195E+01 +5.661902E+00 +8.632413E+02 -1.209408E+01 -2.786195E+01 -1.209408E+01 +3.213456E+02 
 +4.500872E+02 +6.888159E+00 -2.490598E+01 +6.888159E+00 +8.622997E+02 -1.823167E+01 -2.490598E+01 -1.823167E+01 +3.497477E+02 
 +4.505630E+02 +5.848906E+00 -1.977038E+01 +5.848906E+00 +8.640479E+02 -1.322322E+01 -1.977038E+01 -1.322322E+01 +3.903857E+02 
 +4.680798E+02 +5.239988E+00 -2.160836E+01 +5.239988E+00 +8.660956E+02 -1.486437E+01 -2.160836E+01 -1.486437E+01 +4.192606E+02 
 +4.876658E+02 +9.254439E+00 -1.173871E+01 +9.254439E+00 +8.626821E+02 -1.896230E+01 -1.173871E+01 -1.896230E+01 +4.077072E+02 
 +4.910464E+02 +1.088498E+01 -4.788262E+00 +1.088498E+01 +8.630470E+02 -1.713078E+01 -4.788262E+00 -1.713078E+01 +3.775135E+02 
 +4.895124E+02 +9.833041E+00 -4.184760E+00 +9.833041E+00 +8.607445E+02 -1.254719E+01 -4.184760E+00 -1.254719E+01 +3.630456E+02 
 +4.865712E+02 +5.448750E+00 -1.451929E+00 +5.448750E+00 +8.519523E+02 -6.528984E+00 -1.451929E+00 -6.528984E+00 +3.585288E+02 
 +4.889425E+02 +4.138271E+00 -5.731132E+00 +4.138271E+00 +8.435058E+02 -7.482760E+00 -5.731132E+00 -7.482760E+00 +3.582840E+02 
 +5.028949E+02 +7.438389E+00 -8.923966E+00 +7.438389E+00 +8.426579E+02 -7.296478E+00 -8.923966E+00 -7.296478E+00 +3.624681E+02 
 +5.029078E+02 +4.266866E+00 -8.330378E+00 +4.266866E+00 +8.411988E+02 -2.791607E+00 -8.330378E+00 -2.791607E+00 +3.676182E+02 
 +5.065667E+02 +4.530179E+00 -6.224206E+00 +4.530179E+00 +8.420124E+02 -3.695786E+00 -6.224206E+00 -3.695786E+00 +3.722814E+02 
 +5.012907E+02 +7.849702E+00 -5.595020E+00 +7.849702E+00 +8.341615E+02 -8.412251E+00 -5.595020E+00 -8.412251E+00 +3.763738E+02 
 +4.875639E+02 +1.239868E+01 -9.719247E+00 +1.239868E+01 +8.198283E+02 -9.561818E+00 -9.719247E+00 -9.561818E+00 +3.804114E+02 
 +4.848131E+02 +8.236568E+00 -1.034752E+01 +8.236568E+00 +8.251362E+02 -1.007049E+01 -1.034752E+01 -1.007049E+01 +3.957038E+02 
 +4.603477E+02 -7.362593E+00 -9.035236E-02 -7.362593E+00 +8.323085E+02 -2.948136E+00 -9.035236E-02 -2.948136E+00 +3.611611E+02 
 +4.824370E+02 -1.518167E+01 -1.369483E+01 -1.518167E+01 +8.606798E+02 +8.443919E+00 -1.369483E+01 +8.443919E+00 +3.165200E+02 
 +4.837131E+02 -1.303220E+01 -2.764330E+01 -1.303220E+01 +8.694997E+02 +2.011514E+01 -2.764330E+01 +2.011514E+01 +3.044473E+02 
 +4.843235E+02 -7.204648E+00 -9.568970E+00 -7.204648E+00 +8.690871E+02 +2.113667E+01 -9.568970E+00 +2.113667E+01 +3.144559E+02 
 +4.909490E+02 -3.972191E+00 -1.075135E+01 -3.972191E+00 +8.715939E+02 +1.466919E+01 -1.075135E+01 +1.466919E+01 +3.131559E+02 
 +4.961788E+02 -3.662761E+00 -1.167916E+01 -3.662761E+00 +8.719719E+02 +2.771918E+00 -1.167916E+01 +2.771918E+00 +3.153483E+02 
 +4.834727E+02 -2.071682E+00 -2.341672E+01 -2.071682E+00 +8.658305E+02 -9.358043E+00 -2.341672E+01 -9.358043E+00 +3.054573E+02 
 +4.595608E+02 +4.690376E+00 -1.822097E+01 +4.690376E+00 +8.619470E+02 -1.395254E+01 -1.822097E+01 -1.395254E+01 +3.241922E+02 
 +4.456077E+02 +1.141165E+01 -2.205666E+01 +1.141165E+01 +8.585573E+02 -1.586362E+01 -2.205666E+01 -1.586362E+01 +3.733170E+02 
 +4.886227E+02 +1.293227E+01 -3.016323E+01 +1.293227E+01 +8.752950E+02 -1.609445E+01 -3.016323E+01 -1.609445E+01 +4.179527E+02 
 +4.924509E+02 +1.549151E+01 -1.576139E+01 +1.549151E+01 +8.714121E+02 -1.665416E+01 -1.576139E+01 -1.665416E+01 +4.111301E+02 
 +4.783849E+02 +1.314803E+01 -1.206487E+01 +1.314803E+01 +8.603601E+02 -1.525976E+01 -1.206487E+01 -1.525976E+01 +3.789297E+02 
 +4.859226E+02 +8.357377E+00 -5.187696E+00 +8.357377E+00 +8.602638E+02 -1.078681E+01 -5.187696E+00 -1.078681E+01 +3.676361E+02 
 +4.846522E+02 +4.879068E+00 -2.596497E+00 +4.879068E+00 +8.560603E+02 -4.569064E+00 -2.596497E+00 -4.569064E+00 +3.562334E+02 
 +4.803193E+02 +1.053163E+00 -7.733781E+00 +1.053163E+00 +8.486334E+02 +1.275548E+00 -7.733781E+00 +1.275548E+00 +3.462935E+02 
 +5.058981E+02 +7.392126E+00 -7.365603E+00 +7.392126E+00 +8.526975E+02 +1.570813E+00 -7.365603E+00 +1.570813E+00 +3.486403E+02 
 +4.983098E+02 +4.765204E+00 -8.427751E+00 +4.765204E+00 +8.373116E+02 -7.997426E-01 -8.427751E+00 -7.997426E-01 +3.435856E+02 
 +4.990473E+02 +9.601305E+00 -1.041607E+01 +9.601305E+00 +8.431890E+02 +4.950411E-01 -1.041607E+01 +4.950411E-01 +3.488782E+02 
 +5.078076E+02 +1.920612E+00 -5.570961E+00 +1.920612E+00 +8.691944E+02 +4.400086E+00 -5.570961E+00 +4.400086E+00 +3.573573E+02 
 +4.935459E+02 -9.632459E-01 -1.035988E+01 -9.632459E-01 +8.700807E+02 +1.370075E+01 -1.035988E+01 +1.370075E+01 +3.644252E+02 
 +4.685559E+02 -1.201293E+00 -1.358793E+01 -1.201293E+00 +8.518000E+02 +2.105784E+01 -1.358793E+01 +2.105784E+01 +3.838394E+02 
 +4.502566E+02 -5.746845E+00 +4.427699E+00 -5.746845E+00 +8.351111E+02 +1.674997E+01 +4.427699E+00 +1.674997E+01 +3.518748E+02 
 +4.728044E+02 -1.462217E+01 -1.641573E+01 -1.462217E+01 +8.470238E+02 +1.275145E+01 -1.641573E+01 +1.275145E+01 +2.982869E+02 
 +4.836609E+02 -1.202805E+01 -2.319749E+01 -1.202805E+01 +8.618554E+02 +1.865793E+01 -2.319749E+01 +1.865793E+01 +2.988134E+02 
 +4.900223E+02 -7.703955E+00 -1.455067E+01 -7.703955E+00 +8.633071E+02 +9.111471E+00 -1.455067E+01 +9.111471E+00 +3.273588E+02 
 +4.952383E+02 -5.356160E+00 -1.291632E+01 -5.356160E+00 +8.662855E+02 +6.528730E+00 -1.291632E+01 +6.528730E+00 +3.209261E+02 
 +4.969288E+02 -1.363013E+00 -1.596662E+01 -1.363013E+00 +8.680159E+02 +3.611103E+00 -1.596662E+01 +3.611103E+00 +3.162804E+02 
 +5.050833E+02 -1.183132E+00 -1.851415E+01 -1.183132E+00 +8.710708E+02 +1.657814E+00 -1.851415E+01 +1.657814E+00 +3.114647E+02 
 +5.027393E+02 -4.709605E-01 -1.645621E+01 -4.709605E-01 +8.759309E+02 -4.414284E+00 -1.645621E+01 -4.414284E+00 +3.437901E+02 
 +4.778814E+02 +7.697114E+00 -2.097836E+01 +7.697114E+00 +8.701914E+02 -9.695298E+00 -2.097836E+01 -9.695298E+00 +3.789571E+02 
 +4.852454E+02 +7.875936E+00 -3.567569E+01 +7.875936E+00 +8.787038E+02 -1.139120E+01 -3.567569E+01 -1.139120E+01 +4.046891E+02 
 +4.893752E+02 +1.058633E+01 -2.176766E+01 +1.058633E+01 +8.846869E+02 -1.368500E+01 -2.176766E+01 -1.368500E+01 +4.116780E+02 
 +4.797153E+02 +9.831157E+00 -1.568667E+01 +9.831157E+00 +8.686564E+02 -1.227191E+01 -1.568667E+01 -1.227191E+01 +3.855110E+02 
 +4.795900E+02 +8.833657E+00 -6.944987E+00 +8.833657E+00 +8.566818E+02 -6.210444E+00 -6.944987E+00 -6.210444E+00 +3.664681E+02 
 +4.795402E+02 +8.021300E+00 -1.720078E+00 +8.021300E+00 +8.571479E+02 +6.390427E-01 -1.720078E+00 +6.390427E-01 +3.499249E+02 
 +4.800548E+02 +2.259753E+00 -1.011422E+01 +2.259753E+00 +8.589446E+02 +3.241456E+00 -1.011422E+01 +3.241456E+00 +3.347003E+02 
 +4.992615E+02 +6.136759E+00 -7.228902E+00 +6.136759E+00 +8.634907E+02 +3.602963E+00 -7.228902E+00 +3.602963E+00 +3.178312E+02 
 +5.061111E+02 +1.179547E+00 -5.265693E+00 +1.179547E+00 +8.765348E+02 +5.136136E+00 -5.265693E+00 +5.136136E+00 +3.210581E+02 
 +5.099707E+02 +2.464200E+00 -1.258327E+01 +2.464200E+00 +8.905637E+02 +7.480186E+00 -1.258327E+01 +7.480186E+00 +3.451292E+02 
 +4.958524E+02 -4.437596E-01 -3.788594E+00 -4.437596E-01 +8.788457E+02 +6.578401E+00 -3.788594E+00 +6.578401E+00 +3.412916E+02 
 +4.899095E+02 -2.674310E+00 -2.248178E+00 -2.674310E+00 +8.788925E+02 +6.779587E+00 -2.248178E+00 +6.779587E+00 +3.583846E+02 
 +4.598191E+02 -3.963697E-01 -7.475392E+00 -3.963697E-01 +8.653131E+02 +1.194490E+01 -7.475392E+00 +1.194490E+01 +3.841249E+02 
 +4.565439E+02 +2.585632E+00 +4.825796E+00 +2.585632E+00 +8.540432E+02 +1.369775E+01 +4.825796E+00 +1.369775E+01 +3.683935E+02 
 +4.817189E+02 -5.677134E+00 -2.003924E+01 -5.677134E+00 +8.552386E+02 +8.820876E+00 -2.003924E+01 +8.820876E+00 +3.175083E+02 
 +4.850838E+02 -8.136010E+00 -2.388532E+01 -8.136010E+00 +8.568495E+02 +7.387099E+00 -2.388532E+01 +7.387099E+00 +3.091287E+02 
 +4.927650E+02 -8.294818E+00 -2.119665E+01 -8.294818E+00 +8.618516E+02 -6.335368E-01 -2.119665E+01 -6.335368E-01 +3.214074E+02 
 +4.992478E+02 -3.803351E+00 -1.587264E+01 -3.803351E+00 +8.608916E+02 -1.183726E+00 -1.587264E+01 -1.183726E+00 +3.139282E+02 
 +5.024610E+02 -8.479005E-01 -1.389106E+01 -8.479005E-01 +8.631990E+02 +1.662540E+00 -1.389106E+01 +1.662540E+00 +3.128634E+02 
 +5.076988E+02 -1.552592E+00 -1.510577E+01 -1.552592E+00 +8.683191E+02 +4.725774E+00 -1.510577E+01 +4.725774E+00 +3.182755E+02 
 +5.227510E+02 -6.964587E+00 -1.737677E+01 -6.964587E+00 +8.840587E+02 +3.030598E+00 -1.737677E+01 +3.030598E+00 +3.567680E+02 
 +5.089427E+02 -9.021088E+00 -1.485243E+01 -9.021088E+00 +8.862164E+02 -1.355303E+00 -1.485243E+01 -1.355303E+00 +3.779950E+02 
 +4.818852E+02 -6.767828E+00 -2.953955E+01 -6.767828E+00 +8.748580E+02 +7.417223E-01 -2.953955E+01 +7.417223E-01 +3.738751E+02 
 +4.819566E+02 +6.165769E+00 -2.456271E+01 +6.165769E+00 +8.652059E+02 +1.709093E+00 -2.456271E+01 +1.709093E+00 +3.731833E+02 
 +4.712606E+02 +9.008669E+00 -2.563827E+01 +9.008669E+00 +8.513599E+02 -4.634654E+00 -2.563827E+01 -4.634654E+00 +3.606845E+02 
 +4.759098E+02 +1.263320E+01 -1.499357E+01 +1.263320E+01 +8.591440E+02 -6.765865E+00 -1.499357E+01 -6.765865E+00 +3.634807E+02 
 +4.771508E+02 +1.174253E+01 -6.077587E+00 +1.174253E+01 +8.634845E+02 -3.419505E+00 -6.077587E+00 -3.419505E+00 +3.518017E+02 
 +4.860970E+02 +7.488475E+00 -1.624331E+01 +7.488475E+00 +8.811778E+02 +3.518249E+00 -1.624331E+01 +3.518249E+00 +3.335891E+02 
 +4.946378E+02 +2.021913E+00 -9.216595E+00 +2.021913E+00 +8.901954E+02 +8.449781E+00 -9.216595E+00 +8.449781E+00 +3.023610E+02 
 +4.910199E+02 +3.036252E+00 +4.093187E+00 +3.036252E+00 +8.805687E+02 +7.127625E+00 +4.093187E+00 +7.127625E+00 +2.980201E+02 
 +4.962437E+02 +2.582627E+00 -5.185471E+00 +2.582627E+00 +8.837665E+02 +9.347702E+00 -5.185471E+00 +9.347702E+00 +3.336919E+02 
 +4.885060E+02 +1.005515E+00 -2.680041E+00 +1.005515E+00 +8.767298E+02 +8.832896E+00 -2.680041E+00 +8.832896E+00 +3.397346E+02 
 +4.842043E+02 -1.218236E+00 +1.301726E+00 -1.218236E+00 +8.748766E+02 +4.356293E-01 +1.301726E+00 +4.356293E-01 +3.462926E+02 
 +4.505057E+02 +2.681008E-01 -2.187142E+00 +2.681008E-01 +8.612914E+02 -2.848044E+00 -2.187142E+00 -2.848044E+00 +3.617110E+02 
 +4.421191E+02 +2.977711E+00 +4.476819E+00 +2.977711E+00 +8.525476E+02 -1.883183E+00 +4.476819E+00 -1.883183E+00 +3.551952E+02 
 +4.757644E+02 -6.081651E+00 -2.368718E+01 -6.081651E+00 +8.581051E+02 -2.517968E+00 -2.368718E+01 -2.517968E+00 +3.144819E+02 
 +4.816935E+02 -1.025522E+01 -2.986473E+01 -1.025522E+01 +8.573172E+02 -9.656127E-01 -2.986473E+01 -9.656127E-01 +3.042111E+02 
 +4.990474E+02 -7.622393E+00 -2.587080E+01 -7.622393E+00 +8.635520E+02 -3.514098E+00 -2.587080E+01 -3.514098E+00 +3.133026E+02 
 +5.049684E+02 -3.192609E+00 -1.733569E+01 -3.192609E+00 +8.636656E+02 -2.015185E+00 -1.733569E+01 -2.015185E+00 +3.062429E+02 
 +5.073941E+02 -7.264886E-01 -1.146602E+01 -7.264886E-01 +8.639533E+02 +4.983659E-01 -1.146602E+01 +4.983659E-01 +3.091507E+02 
 +5.089951E+02 -2.145921E+00 -1.038135E+01 -2.145921E+00 +8.685266E+02 +3.916083E+00 -1.038135E+01 +3.916083E+00 +3.229893E+02 
 +5.110499E+02 -9.565391E+00 -1.617503E+01 -9.565391E+00 +8.816217E+02 +6.333032E+00 -1.617503E+01 +6.333032E+00 +3.559082E+02 
 +5.134620E+02 -1.458525E+01 -1.264901E+01 -1.458525E+01 +8.905876E+02 +2.590703E+00 -1.264901E+01 +2.590703E+00 +3.711704E+02 
 +5.074495E+02 -1.807032E+01 -2.060226E+01 -1.807032E+01 +8.916880E+02 -7.652290E-01 -2.060226E+01 -7.652290E-01 +3.605480E+02 
 +5.017640E+02 -1.469840E+01 -2.630819E+01 -1.469840E+01 +8.926982E+02 +6.483568E-01 -2.630819E+01 +6.483568E-01 +3.526519E+02 
 +4.977461E+02 -1.147077E+01 -3.052356E+01 -1.147077E+01 +8.889687E+02 +1.150994E+00 -3.052356E+01 +1.150994E+00 +3.545249E+02 
 +4.938403E+02 -3.209653E+00 -2.294007E+01 -3.209653E+00 +8.835157E+02 -8.238863E-02 -2.294007E+01 -8.238863E-02 +3.616677E+02 
 +4.896883E+02 +6.050435E+00 -1.619473E+01 +6.050435E+00 +8.819115E+02 -2.484048E+00 -1.619473E+01 -2.484048E+00 +3.505480E+02 
 +4.828981E+02 +9.072511E+00 -1.293672E+01 +9.072511E+00 +8.839205E+02 +7.496287E+00 -1.293672E+01 +7.496287E+00 +3.402073E+02 
 +4.762957E+02 -1.510430E+00 -1.109910E+01 -1.510430E+00 +8.815465E+02 +2.199341E+01 -1.109910E+01 +2.199341E+01 +3.197607E+02 
 +4.832870E+02 -3.996530E+00 +1.305780E+00 -3.996530E+00 +8.792538E+02 +1.582993E+01 +1.305780E+00 +1.582993E+01 +3.000035E+02 
 +4.899117E+02 -1.532335E+00 +6.789503E+00 -1.532335E+00 +8.812247E+02 +6.794033E+00 +6.789503E+00 +6.794033E+00 +3.129475E+02 
 +4.881468E+02 +1.009632E+00 -1.551368E-01 +1.009632E+00 +8.833094E+02 +1.346987E+00 -1.551368E-01 +1.346987E+00 +3.298085E+02 
 +4.791074E+02 +1.741874E+00 +2.701760E+00 +1.741874E+00 +8.788739E+02 -8.629398E+00 +2.701760E+00 -8.629398E+00 +3.305157E+02 
 +4.416058E+02 +5.868176E-01 +2.863150E+00 +5.868176E-01 +8.626357E+02 -9.201009E+00 +2.863150E+00 -9.201009E+00 +3.300076E+02 
 +4.211506E+02 +3.854987E-01 +1.585545E+00 +3.854987E-01 +8.472299E+02 -8.192480E+00 +1.585545E+00 -8.192480E+00 +3.239025E+02 
 +4.527184E+02 -8.316802E+00 -1.767248E+01 -8.316802E+00 +8.500190E+02 -5.871154E+00 -1.767248E+01 -5.871154E+00 +3.048629E+02 
 +4.937092E+02 -1.239489E+01 -3.845271E+01 -1.239489E+01 +8.643957E+02 -2.605799E+00 -3.845271E+01 -2.605799E+00 +3.111575E+02 
 +5.034838E+02 -4.828280E+00 -2.689902E+01 -4.828280E+00 +8.598090E+02 -6.941560E-01 -2.689902E+01 -6.941560E-01 +3.126955E+02 
 +5.031219E+02 -1.139690E+00 -1.769103E+01 -1.139690E+00 +8.561263E+02 +3.512081E+00 -1.769103E+01 +3.512081E+00 +3.068550E+02 
 +5.077734E+02 +3.102262E-01 -1.052181E+01 +3.102262E-01 +8.600828E+02 +5.489880E+00 -1.052181E+01 +5.489880E+00 +3.119687E+02 
 +5.072096E+02 -5.285117E-01 -5.234637E+00 -5.285117E-01 +8.696645E+02 +6.740031E+00 -5.234637E+00 +6.740031E+00 +3.302472E+02 
 +5.007140E+02 -5.196303E+00 -6.828141E+00 -5.196303E+00 +8.812376E+02 +1.012197E+01 -6.828141E+00 +1.012197E+01 +3.512682E+02 
 +5.117606E+02 -1.101754E+01 -1.105245E+01 -1.101754E+01 +8.933474E+02 +8.512080E+00 -1.105245E+01 +8.512080E+00 +3.581269E+02 
 +5.096995E+02 -1.490453E+01 -1.672160E+01 -1.490453E+01 +8.902722E+02 +7.756315E-01 -1.672160E+01 +7.756315E-01 +3.540365E+02 
 +5.002296E+02 -1.452904E+01 -1.926280E+01 -1.452904E+01 +8.880249E+02 -2.786073E+00 -1.926280E+01 -2.786073E+00 +3.517049E+02 
 +5.000086E+02 -1.671787E+01 -2.028764E+01 -1.671787E+01 +8.931465E+02 -1.445420E+00 -2.028764E+01 -1.445420E+00 +3.490524E+02 
 +4.979601E+02 -1.599098E+01 -1.776780E+01 -1.599098E+01 +8.966616E+02 +3.011035E+00 -1.776780E+01 +3.011035E+00 +3.385277E+02 
 +5.103007E+02 -1.251636E+01 -1.353841E+01 -1.251636E+01 +9.083316E+02 +1.651795E+01 -1.353841E+01 +1.651795E+01 +3.408043E+02 
 +4.917459E+02 -1.379283E+01 -8.096466E+00 -1.379283E+01 +8.906585E+02 +3.007379E+01 -8.096466E+00 +3.007379E+01 +3.479871E+02 
 +4.915999E+02 -8.483683E+00 -1.198107E+01 -8.483683E+00 +8.880697E+02 +3.308783E+01 -1.198107E+01 +3.308783E+01 +3.608868E+02 
 +4.873172E+02 -7.315774E+00 -1.147218E+01 -7.315774E+00 +8.835319E+02 +2.528082E+01 -1.147218E+01 +2.528082E+01 +3.350126E+02 
 +4.825935E+02 -7.528840E-01 +1.152758E+01 -7.528840E-01 +8.665555E+02 +1.351203E+01 +1.152758E+01 +1.351203E+01 +2.864654E+02 
 +4.712027E+02 +3.263642E+00 +3.745540E+00 +3.263642E+00 +8.616818E+02 +6.754958E+00 +3.745540E+00 +6.754958E+00 +2.719575E+02 
 +4.710940E+02 +4.835673E+00 +6.607493E+00 +4.835673E+00 +8.813730E+02 +2.993207E+00 +6.607493E+00 +2.993207E+00 +3.142535E+02 
 +4.340477E+02 -2.649154E+00 +1.384155E+01 -2.649154E+00 +8.721657E+02 +2.549586E+00 +1.384155E+01 +2.549586E+00 +3.472838E+02 
 +4.237262E+02 -7.284699E+00 +6.262705E+00 -7.284699E+00 +8.549264E+02 -4.547600E-01 +6.262705E+00 -4.547600E-01 +3.391750E+02 
 +4.442954E+02 -8.939571E+00 -8.793598E+00 -8.939571E+00 +8.452199E+02 -1.062068E+01 -8.793598E+00 -1.062068E+01 +3.127084E+02 
 +5.030729E+02 -8.429205E+00 -3.663184E+01 -8.429205E+00 +8.649886E+02 -1.006229E+01 -3.663184E+01 -1.006229E+01 +3.197464E+02 
 +5.042070E+02 +2.748029E+00 -2.138805E+01 +2.748029E+00 +8.602319E+02 +9.277690E-02 -2.138805E+01 +9.277690E-02 +3.226977E+02 
 +5.008088E+02 +2.199009E+00 -1.273797E+01 +2.199009E+00 +8.540459E+02 +7.856438E+00 -1.273797E+01 +7.856438E+00 +3.151338E+02 
 +4.949870E+02 +1.759164E+00 -9.012415E+00 +1.759164E+00 +8.476011E+02 +7.892698E+00 -9.012415E+00 +7.892698E+00 +3.220042E+02 
 +5.006787E+02 +2.610917E+00 -1.175244E+00 +2.610917E+00 +8.598861E+02 +5.157538E+00 -1.175244E+00 +5.157538E+00 +3.425866E+02 
 +5.051044E+02 +2.291307E+00 +2.893186E-01 +2.291307E+00 +8.772435E+02 +4.279342E+00 +2.893186E-01 +4.279342E+00 +3.451177E+02 
 +5.058301E+02 -3.325158E+00 -9.293872E+00 -3.325158E+00 +8.830583E+02 +1.892455E-01 -9.293872E+00 +1.892455E-01 +3.352287E+02 
 +4.932372E+02 -7.729715E+00 -1.024005E+01 -7.729715E+00 +8.804711E+02 -3.231918E+00 -1.024005E+01 -3.231918E+00 +3.394618E+02 
 +4.918016E+02 -1.071838E+01 -1.039147E+01 -1.071838E+01 +8.834090E+02 -3.314505E+00 -1.039147E+01 -3.314505E+00 +3.474354E+02 
 +4.877270E+02 -1.289079E+01 -9.840139E+00 -1.289079E+01 +8.834973E+02 -1.664410E+00 -9.840139E+00 -1.664410E+00 +3.445684E+02 
 +4.873440E+02 -1.176939E+01 -1.315610E+01 -1.176939E+01 +8.717548E+02 +4.191454E+00 -1.315610E+01 +4.191454E+00 +3.383057E+02 
 +4.823513E+02 -3.238912E+00 -6.636013E+00 -3.238912E+00 +8.399628E+02 +1.233527E+01 -6.636013E+00 +1.233527E+01 +3.273108E+02 
 +4.682734E+02 -7.587791E-01 -6.659268E+00 -7.587791E-01 +8.220579E+02 +1.853235E+01 -6.659268E+00 +1.853235E+01 +3.247805E+02 
 +4.762994E+02 +6.578823E+00 -7.445954E+00 +6.578823E+00 +8.371289E+02 +2.089019E+01 -7.445954E+00 +2.089019E+01 +3.487793E+02 
 +4.813987E+02 +4.445736E+00 -9.682106E+00 +4.445736E+00 +8.607725E+02 +2.073475E+01 -9.682106E+00 +2.073475E+01 +3.558515E+02 
 +4.910858E+02 +1.845140E+00 +1.013472E+01 +1.845140E+00 +8.755502E+02 +1.699311E+01 +1.013472E+01 +1.699311E+01 +3.352050E+02 
 +4.735008E+02 +3.373105E+00 +1.899685E+00 +3.373105E+00 +8.666322E+02 +1.728233E+01 +1.899685E+00 +1.728233E+01 +3.125686E+02 
 +4.825326E+02 +2.720539E+00 +4.044154E+00 +2.720539E+00 +8.886231E+02 +2.031232E+01 +4.044154E+00 +2.031232E+01 +3.486804E+02 
 +4.431851E+02 -1.674281E-01 +1.499540E+01 -1.674281E-01 +8.788378E+02 +1.491470E+01 +1.499540E+01 +1.491470E+01 +3.843117E+02 
 +4.374120E+02 +5.759662E-01 +8.920713E+00 +5.759662E-01 +8.594741E+02 +3.848585E+00 +8.920713E+00 +3.848585E+00 +3.707369E+02 
 +4.587472E+02 +4.322213E+00 -1.105514E+01 +4.322213E+00 +8.437803E+02 -1.053768E+01 -1.105514E+01 -1.053768E+01 +3.249973E+02 
 +4.802504E+02 +5.703829E+00 -2.158381E+01 +5.703829E+00 +8.465929E+02 -1.258452E+01 -2.158381E+01 -1.258452E+01 +3.133512E+02 
 +4.888766E+02 +1.054402E+01 -6.977018E+00 +1.054402E+01 +8.501158E+02 -1.194003E+00 -6.977018E+00 -1.194003E+00 +3.248679E+02 
 +4.961970E+02 +8.496115E+00 -5.036892E+00 +8.496115E+00 +8.542917E+02 +8.759686E+00 -5.036892E+00 +8.759686E+00 +3.238264E+02 
 +4.806687E+02 +4.098514E+00 -1.056882E+01 +4.098514E+00 +8.331718E+02 +1.127162E+01 -1.056882E+01 +1.127162E+01 +3.338868E+02 
 +4.739061E+02 +1.459838E+01 -6.578688E+00 +1.459838E+01 +8.092005E+02 +7.065325E+00 -6.578688E+00 +7.065325E+00 +3.427778E+02 
 +4.785420E+02 +1.344684E+01 -5.168873E+00 +1.344684E+01 +8.086803E+02 +3.270541E+00 -5.168873E+00 +3.270541E+00 +3.441352E+02 
 +4.844345E+02 +3.787633E+00 -7.015246E+00 +3.787633E+00 +8.240639E+02 -2.903217E-01 -7.015246E+00 -2.903217E-01 +3.397323E+02 
 +4.761910E+02 +6.949881E+00 +6.278261E-01 +6.949881E+00 +8.457885E+02 -2.762713E+00 +6.278261E-01 -2.762713E+00 +3.364582E+02 
 +4.778985E+02 +4.706790E+00 -3.702550E+00 +4.706790E+00 +8.647501E+02 -1.724833E-01 -3.702550E+00 -1.724833E-01 +3.481303E+02 
 +4.716681E+02 +1.483625E+00 -8.459665E+00 +1.483625E+00 +8.481066E+02 +2.609120E+00 -8.459665E+00 +2.609120E+00 +3.540950E+02 
 +4.794365E+02 -1.337093E+00 -1.702835E+01 -1.337093E+00 +8.333103E+02 +5.083890E+00 -1.702835E+01 +5.083890E+00 +3.621849E+02 
 +4.822776E+02 +9.491031E-01 -9.420015E+00 +9.491031E-01 +8.233097E+02 +7.012740E+00 -9.420015E+00 +7.012740E+00 +3.522554E+02 
 +4.689775E+02 +4.044408E+00 -4.787076E+00 +4.044408E+00 +8.129408E+02 +9.491687E+00 -4.787076E+00 +9.491687E+00 +3.382148E+02 
 +4.628639E+02 +6.620618E+00 -2.711722E+00 +6.620618E+00 +8.181963E+02 +1.304514E+01 -2.711722E+00 +1.304514E+01 +3.429885E+02 
 +4.652302E+02 +7.296463E+00 -2.096840E+00 +7.296463E+00 +8.262607E+02 +1.567165E+01 -2.096840E+00 +1.567165E+01 +3.543970E+02 
 +4.694670E+02 +2.786751E+00 +4.810344E+00 +2.786751E+00 +8.452672E+02 +1.540700E+01 +4.810344E+00 +1.540700E+01 +3.742212E+02 
 +4.383353E+02 -3.094384E+00 -1.251717E+00 -3.094384E+00 +8.246329E+02 +1.345196E+01 -1.251717E+00 +1.345196E+01 +3.611347E+02 
 +4.452767E+02 -5.739483E+00 +6.842356E+00 -5.739483E+00 +8.013222E+02 +1.891971E+01 +6.842356E+00 +1.891971E+01 +3.593166E+02 
 +4.322808E+02 -3.620661E+00 +5.501875E+00 -3.620661E+00 +7.953551E+02 +2.380941E+01 +5.501875E+00 +2.380941E+01 +3.794998E+02 
 +4.342466E+02 -6.130809E-01 +1.526114E-01 -6.130809E-01 +8.067140E+02 +1.425970E+01 +1.526114E-01 +1.425970E+01 +3.754794E+02 
 +4.576623E+02 +6.493762E+00 -7.115885E+00 +6.493762E+00 +8.232567E+02 +1.520977E+00 -7.115885E+00 +1.520977E+00 +3.371248E+02 
 +4.687856E+02 +9.423884E+00 -6.361091E+00 +9.423884E+00 +8.371742E+02 -5.318916E+00 -6.361091E+00 -5.318916E+00 +3.208689E+02 
 +4.848844E+02 +5.784478E+00 +4.501855E+00 +5.784478E+00 +8.458911E+02 -3.036027E+00 +4.501855E+00 -3.036027E+00 +3.251400E+02 
 +4.935694E+02 +9.830467E+00 -1.468882E-01 +9.830467E+00 +8.474957E+02 +3.066487E+00 -1.468882E-01 +3.066487E+00 +3.339554E+02 
 +4.774812E+02 -6.823029E-01 -1.623899E+01 -6.823029E-01 +8.392953E+02 +6.181239E+00 -1.623899E+01 +6.181239E+00 +3.562980E+02 
 +4.738093E+02 +4.818248E+00 -1.856847E+01 +4.818248E+00 +8.244916E+02 +3.434119E+00 -1.856847E+01 +3.434119E+00 +3.603053E+02 
 +4.879780E+02 +6.588459E+00 -1.085963E+01 +6.588459E+00 +8.131929E+02 +3.483122E+00 -1.085963E+01 +3.483122E+00 +3.696075E+02 
 +4.878365E+02 +5.757117E+00 -8.191202E+00 +5.757117E+00 +8.082463E+02 +6.454276E+00 -8.191202E+00 +6.454276E+00 +3.725304E+02 
 +4.771258E+02 +9.648574E+00 -1.159308E+00 +9.648574E+00 +8.054397E+02 +3.394631E+00 -1.159308E+00 +3.394631E+00 +3.586803E+02 
 +4.668604E+02 +7.816201E+00 -1.599050E+00 +7.816201E+00 +8.121505E+02 +1.014692E+00 -1.599050E+00 +1.014692E+00 +3.671607E+02 
 +4.643777E+02 -1.533461E+00 -1.110038E+01 -1.533461E+00 +8.139494E+02 -7.754357E-01 -1.110038E+01 -7.754357E-01 +3.787765E+02 
 +4.705365E+02 +3.337274E+00 -1.706881E+01 +3.337274E+00 +8.093783E+02 -1.492921E+00 -1.706881E+01 -1.492921E+00 +3.744199E+02 
 +4.605973E+02 +4.768291E+00 -1.209261E+01 +4.768291E+00 +8.011180E+02 +4.478320E+00 -1.209261E+01 +4.478320E+00 +3.580812E+02 
 +4.545518E+02 +1.011439E+01 -9.338907E+00 +1.011439E+01 +8.017939E+02 +8.428271E+00 -9.338907E+00 +8.428271E+00 +3.526927E+02 
 +4.489305E+02 +1.038415E+01 -5.675822E+00 +1.038415E+01 +8.089859E+02 +8.355225E+00 -5.675822E+00 +8.355225E+00 +3.501068E+02 
 +4.537497E+02 +3.915078E+00 -1.125466E+00 +3.915078E+00 +8.246099E+02 +7.781941E+00 -1.125466E+00 +7.781941E+00 +3.600585E+02 
 +4.444932E+02 -1.820247E+00 +3.220055E+00 -1.820247E+00 +8.296374E+02 +1.176246E+01 +3.220055E+00 +1.176246E+01 +3.574187E+02 
 +4.371808E+02 -8.095560E+00 -2.715299E+00 -8.095560E+00 +8.247805E+02 +9.229595E+00 -2.715299E+00 +9.229595E+00 +3.364625E+02 
 +4.505691E+02 -2.898853E+00 +1.309252E+01 -2.898853E+00 +8.189735E+02 +1.696773E+00 +1.309252E+01 +1.696773E+00 +3.517481E+02 
 +4.588276E+02 +1.103490E+00 +2.849816E+00 +1.103490E+00 +8.105210E+02 +7.076945E+00 +2.849816E+00 +7.076945E+00 +3.928216E+02 
 +4.661880E+02 -1.924207E+00 -5.351789E+00 -1.924207E+00 +8.213457E+02 +6.660553E+00 -5.351789E+00 +6.660553E+00 +3.976487E+02 
 +4.681156E+02 +3.338314E+00 -5.811050E-01 +3.338314E+00 +8.314033E+02 -6.214764E+00 -5.811050E-01 -6.214764E+00 +3.549800E+02 
 +4.776385E+02 +5.687275E+00 -7.332371E-02 +5.687275E+00 +8.411900E+02 -9.512739E+00 -7.332371E-02 -9.512739E+00 +3.328724E+02 
 +4.877036E+02 +2.122608E+00 +6.500531E+00 +2.122608E+00 +8.456536E+02 -7.569222E+00 +6.500531E+00 -7.569222E+00 +3.236914E+02 
 +4.971398E+02 +2.993047E+00 +7.546378E-01 +2.993047E+00 +8.469031E+02 -3.022175E+00 +7.546378E-01 -3.022175E+00 +3.388556E+02 
 +4.659207E+02 -4.441136E+00 -1.915722E+01 -4.441136E+00 +8.285517E+02 +4.574128E-02 -1.915722E+01 +4.574128E-02 +3.581702E+02 
 +4.546450E+02 +2.822019E+00 -2.463285E+01 +2.822019E+00 +8.096377E+02 -1.205641E+00 -2.463285E+01 -1.205641E+00 +3.565448E+02 
 +4.920527E+02 +7.184574E+00 -9.380234E+00 +7.184574E+00 +8.127844E+02 +1.712657E+00 -9.380234E+00 +1.712657E+00 +3.724969E+02 
 +4.922687E+02 +1.112681E+01 -1.058337E+01 +1.112681E+01 +8.053296E+02 +6.137145E+00 -1.058337E+01 +6.137145E+00 +3.795274E+02 
 +4.953526E+02 +1.518481E+01 -8.354349E+00 +1.518481E+01 +8.098528E+02 +7.054618E+00 -8.354349E+00 +7.054618E+00 +3.813347E+02 
 +4.927151E+02 +1.276106E+01 -4.738287E+00 +1.276106E+01 +8.151080E+02 +8.045320E+00 -4.738287E+00 +8.045320E+00 +3.898822E+02 
 +4.912810E+02 +2.697692E+00 -6.484809E+00 +2.697692E+00 +8.191883E+02 +5.604496E+00 -6.484809E+00 +5.604496E+00 +3.981159E+02 
 +4.556488E+02 +9.828254E+00 -8.814743E+00 +9.828254E+00 +8.034002E+02 +5.508207E+00 -8.814743E+00 +5.508207E+00 +3.808458E+02 
 +4.352497E+02 +2.921504E+00 -1.134770E+01 +2.921504E+00 +8.027693E+02 +8.403864E+00 -1.134770E+01 +8.403864E+00 +3.707109E+02 
 +4.277164E+02 -1.961738E+00 -1.112422E+01 -1.961738E+00 +8.054685E+02 +6.780172E+00 -1.112422E+01 +6.780172E+00 +3.633606E+02 
 +4.512520E+02 -2.036314E+00 -8.123894E+00 -2.036314E+00 +8.259329E+02 +3.066952E+00 -8.123894E+00 +3.066952E+00 +3.659644E+02 
 +4.524250E+02 -2.608954E+00 +8.400858E-01 -2.608954E+00 +8.369856E+02 -6.726360E-01 +8.400858E-01 -6.726360E-01 +3.681559E+02 
 +4.401504E+02 +4.500421E-01 +5.259679E+00 +4.500421E-01 +8.266115E+02 -1.661544E+00 +5.259679E+00 -1.661544E+00 +3.414286E+02 
 +4.502607E+02 -7.535415E+00 -5.467090E+00 -7.535415E+00 +8.220625E+02 -2.840616E+00 -5.467090E+00 -2.840616E+00 +3.035824E+02 
 +4.595084E+02 -5.246743E+00 +4.081818E+00 -5.246743E+00 +8.361853E+02 -6.552592E+00 +4.081818E+00 -6.552592E+00 +3.159365E+02 
 +4.731400E+02 +3.355102E-01 +4.623703E-01 +3.355102E-01 +8.553050E+02 -6.408899E+00 +4.623703E-01 -6.408899E+00 +3.659968E+02 
 +4.744985E+02 +2.051250E+00 -2.147082E+00 +2.051250E+00 +8.417022E+02 -7.420455E+00 -2.147082E+00 -7.420455E+00 +3.700139E+02 
 +4.763009E+02 +7.806852E+00 +5.897237E-01 +7.806852E+00 +8.372444E+02 -1.423417E+01 +5.897237E-01 -1.423417E+01 +3.428021E+02 
 +4.827285E+02 +6.296415E+00 +1.908254E+00 +6.296415E+00 +8.473204E+02 -1.349343E+01 +1.908254E+00 -1.349343E+01 +3.320273E+02 
 +4.873275E+02 +2.104525E+00 +4.025808E+00 +2.104525E+00 +8.509719E+02 -1.279535E+01 +4.025808E+00 -1.279535E+01 +3.158378E+02 
 +4.875656E+02 -6.368570E-01 -1.014751E-01 -6.368570E-01 +8.402990E+02 -6.310015E+00 -1.014751E-01 -6.310015E+00 +3.186731E+02 
 +4.526455E+02 -9.609366E+00 -1.683185E+01 -9.609366E+00 +8.104775E+02 -3.371745E+00 -1.683185E+01 -3.371745E+00 +3.345669E+02 
 +4.516624E+02 -2.671351E+00 -1.940699E+01 -2.671351E+00 +8.020439E+02 -3.689312E+00 -1.940699E+01 -3.689312E+00 +3.419389E+02 
 +4.840316E+02 +2.480415E+00 -9.930034E+00 +2.480415E+00 +8.100694E+02 +2.478658E-01 -9.930034E+00 +2.478658E-01 +3.515251E+02 
 +4.920850E+02 +9.830923E+00 -9.805106E+00 +9.830923E+00 +8.080246E+02 +3.779645E+00 -9.805106E+00 +3.779645E+00 +3.611368E+02 
 +5.033018E+02 +1.448506E+01 -6.149269E+00 +1.448506E+01 +8.139262E+02 +7.887442E+00 -6.149269E+00 +7.887442E+00 +3.695331E+02 
 +5.088324E+02 +9.938604E+00 -5.861677E+00 +9.938604E+00 +8.134772E+02 +8.024569E+00 -5.861677E+00 +8.024569E+00 +3.833172E+02 
 +5.069061E+02 -5.490897E-01 -4.598125E+00 -5.490897E-01 +8.331892E+02 +3.455875E+00 -4.598125E+00 +3.455875E+00 +4.081579E+02 
 +4.491563E+02 -2.833673E+00 -4.889050E+00 -2.833673E+00 +8.463552E+02 +2.763772E+00 -4.889050E+00 +2.763772E+00 +4.028956E+02 
 +4.480692E+02 -1.021075E+01 -6.852132E+00 -1.021075E+01 +8.719257E+02 +4.583286E+00 -6.852132E+00 +4.583286E+00 +4.118743E+02 
 +4.176679E+02 -1.421400E+01 -5.545450E+00 -1.421400E+01 +8.432905E+02 +6.325696E-01 -5.545450E+00 +6.325696E-01 +3.850928E+02 
 +4.720474E+02 -1.320233E+00 -9.429852E+00 -1.320233E+00 +8.484053E+02 -1.028476E+01 -9.429852E+00 -1.028476E+01 +3.797412E+02 
 +4.547889E+02 +1.300282E+00 -3.347128E+00 +1.300282E+00 +8.335164E+02 -1.756531E+01 -3.347128E+00 -1.756531E+01 +3.672007E+02 
 +4.548738E+02 +6.929626E-01 -3.585091E+00 +6.929626E-01 +8.343255E+02 -1.384386E+01 -3.585091E+00 -1.384386E+01 +3.465182E+02 
 +4.562198E+02 -1.027321E+01 -9.754720E+00 -1.027321E+01 +8.284928E+02 -7.942583E+00 -9.754720E+00 -7.942583E+00 +2.981496E+02 
 +4.664104E+02 -6.723258E+00 -1.074590E+01 -6.723258E+00 +8.357486E+02 -8.368763E+00 -1.074590E+01 -8.368763E+00 +2.905149E+02 
 +4.674202E+02 -3.987425E+00 -8.090633E+00 -3.987425E+00 +8.452380E+02 -1.127765E+01 -8.090633E+00 -1.127765E+01 +3.082817E+02 
 +4.760643E+02 +1.532348E+00 -2.964558E+00 +1.532348E+00 +8.565673E+02 -1.494958E+01 -2.964558E+00 -1.494958E+01 +3.153383E+02 
 +4.837102E+02 +1.147224E+01 +2.438270E+00 +1.147224E+01 +8.557090E+02 -2.013689E+01 +2.438270E+00 -2.013689E+01 +3.217138E+02 
 +4.854392E+02 +9.322116E+00 +2.068610E+00 +9.322116E+00 +8.519070E+02 -1.726220E+01 +2.068610E+00 -1.726220E+01 +3.268632E+02 
 +4.910193E+02 +7.066623E+00 -3.229480E+00 +7.066623E+00 +8.583661E+02 -1.370701E+01 -3.229480E+00 -1.370701E+01 +3.115819E+02 
 +4.834509E+02 +1.624201E+00 -6.446797E+00 +1.624201E+00 +8.497639E+02 -1.212825E+01 -6.446797E+00 -1.212825E+01 +3.041347E+02 
 +4.497829E+02 -1.076207E+01 -5.285884E+00 -1.076207E+01 +8.176042E+02 -6.863618E+00 -5.285884E+00 -6.863618E+00 +3.168126E+02 
 +4.665242E+02 +5.249436E+00 -8.768178E+00 +5.249436E+00 +8.170783E+02 -5.385642E+00 -8.768178E+00 -5.385642E+00 +3.301722E+02 
 +4.908625E+02 +8.284435E+00 -1.349185E+01 +8.284435E+00 +8.368504E+02 -9.665647E+00 -1.349185E+01 -9.665647E+00 +3.389862E+02 
 +5.116064E+02 +1.668777E+01 -1.134999E+01 +1.668777E+01 +8.508948E+02 -9.800131E+00 -1.134999E+01 -9.800131E+00 +3.572097E+02 
 +5.246150E+02 +1.905696E+01 -6.781620E+00 +1.905696E+01 +8.514586E+02 -1.012159E+01 -6.781620E+00 -1.012159E+01 +3.640190E+02 
 +5.412660E+02 +1.270094E+01 -9.290860E+00 +1.270094E+01 +8.714807E+02 -1.227413E+01 -9.290860E+00 -1.227413E+01 +3.879117E+02 
 +4.843299E+02 -2.448688E-01 -1.128056E+01 -2.448688E-01 +8.705304E+02 -6.620412E+00 -1.128056E+01 -6.620412E+00 +4.027856E+02 
 +4.522852E+02 -3.624655E+00 -1.042068E+01 -3.624655E+00 +8.668352E+02 +4.707756E-01 -1.042068E+01 +4.707756E-01 +4.049109E+02 
 +4.393060E+02 -3.460907E+00 -4.032335E+00 -3.460907E+00 +8.644471E+02 +1.473417E+00 -4.032335E+00 +1.473417E+00 +4.068480E+02 
 +4.227034E+02 -5.750774E+00 -3.559442E-01 -5.750774E+00 +8.509839E+02 -1.621103E+00 -3.559442E-01 -1.621103E+00 +3.935586E+02 
 +4.686082E+02 +4.806183E+00 -7.397110E+00 +4.806183E+00 +8.587195E+02 -8.640311E+00 -7.397110E+00 -8.640311E+00 +3.865661E+02 
 +4.641302E+02 +4.269897E+00 -1.316989E+01 +4.269897E+00 +8.453896E+02 -1.251256E+01 -1.316989E+01 -1.251256E+01 +3.775790E+02 
 +4.637848E+02 +3.006430E+00 -2.180441E+01 +3.006430E+00 +8.377777E+02 -1.279231E+01 -2.180441E+01 -1.279231E+01 +3.558525E+02 
 +4.575285E+02 -4.938372E+00 -2.232642E+01 -4.938372E+00 +8.264373E+02 -8.702329E+00 -2.232642E+01 -8.702329E+00 +2.933052E+02 
 +4.656480E+02 -3.242851E+00 -2.132103E+01 -3.242851E+00 +8.322248E+02 -6.159171E+00 -2.132103E+01 -6.159171E+00 +2.723162E+02 
 +4.744913E+02 -3.207087E+00 -1.575047E+01 -3.207087E+00 +8.411802E+02 -1.079760E+01 -1.575047E+01 -1.079760E+01 +2.849763E+02 
 +4.781514E+02 +8.203047E-01 -7.642416E+00 +8.203047E-01 +8.458687E+02 -1.413125E+01 -7.642416E+00 -1.413125E+01 +2.827230E+02 
 +4.872627E+02 +9.242695E+00 +1.932646E+00 +9.242695E+00 +8.562309E+02 -1.697007E+01 +1.932646E+00 -1.697007E+01 +3.014702E+02 
 +4.945929E+02 +1.381824E+01 -2.116048E+00 +1.381824E+01 +8.641583E+02 -1.624641E+01 -2.116048E+00 -1.624641E+01 +3.258600E+02 
 +4.995860E+02 +8.108585E+00 -5.087335E+00 +8.108585E+00 +8.656076E+02 -1.447636E+01 -5.087335E+00 -1.447636E+01 +3.188196E+02 
 +4.812878E+02 +2.638615E+00 -7.853316E+00 +2.638615E+00 +8.484013E+02 -1.410305E+01 -7.853316E+00 -1.410305E+01 +3.054880E+02 
 +4.518268E+02 -1.210002E+01 +8.929063E+00 -1.210002E+01 +8.279697E+02 -1.113356E+01 +8.929063E+00 -1.113356E+01 +3.097197E+02 
 +4.704282E+02 +5.428812E+00 -7.033076E+00 +5.428812E+00 +8.330714E+02 -9.548158E+00 -7.033076E+00 -9.548158E+00 +3.245541E+02 
 +4.880159E+02 +5.694174E+00 -1.271057E+01 +5.694174E+00 +8.423691E+02 -1.436991E+01 -1.271057E+01 -1.436991E+01 +3.323453E+02 
 +5.079140E+02 +9.926242E+00 -1.251356E+01 +9.926242E+00 +8.555793E+02 -1.962174E+01 -1.251356E+01 -1.962174E+01 +3.418049E+02 
 +5.312620E+02 +1.092335E+01 -7.985324E+00 +1.092335E+01 +8.755707E+02 -1.637384E+01 -7.985324E+00 -1.637384E+01 +3.612042E+02 
 +5.354954E+02 +7.123386E+00 -2.132618E+01 +7.123386E+00 +8.973166E+02 -8.684811E+00 -2.132618E+01 -8.684811E+00 +3.868899E+02 
 +4.688237E+02 +3.652146E+00 -1.929622E+01 +3.652146E+00 +8.779770E+02 -5.860513E+00 -1.929622E+01 -5.860513E+00 +3.858426E+02 
 +4.543183E+02 +1.785754E+00 -1.006446E+01 +1.785754E+00 +8.708984E+02 -3.070570E+00 -1.006446E+01 -3.070570E+00 +3.918583E+02 
 +4.502936E+02 +8.445659E-01 -5.984113E+00 +8.445659E-01 +8.621389E+02 +7.808810E-02 -5.984113E+00 +7.808810E-02 +3.974825E+02 
 +4.450591E+02 -2.585102E-01 -1.137330E+00 -2.585102E-01 +8.677809E+02 +4.125696E+00 -1.137330E+00 +4.125696E+00 +4.023898E+02 
 +4.573703E+02 +6.881924E+00 -3.582983E+00 +6.881924E+00 +8.705236E+02 +5.323037E+00 -3.582983E+00 +5.323037E+00 +4.009816E+02 
 +4.789462E+02 +1.464971E+01 -1.203430E+01 +1.464971E+01 +8.600672E+02 +9.416914E-01 -1.203430E+01 +9.416914E-01 +4.036412E+02 
 +4.627085E+02 +1.383478E+01 -2.468718E+01 +1.383478E+01 +8.418616E+02 -7.305658E+00 -2.468718E+01 -7.305658E+00 +3.834920E+02 
 +4.642122E+02 +3.562846E-01 -2.684319E+01 +3.562846E-01 +8.368494E+02 -1.279053E+01 -2.684319E+01 -1.279053E+01 +3.203019E+02 
 +4.730617E+02 -2.229350E+00 -2.189383E+01 -2.229350E+00 +8.358907E+02 -1.301695E+01 -2.189383E+01 -1.301695E+01 +2.746823E+02 
 +4.880956E+02 +2.806045E-01 -1.489615E+01 +2.806045E-01 +8.475507E+02 -9.170790E+00 -1.489615E+01 -9.170790E+00 +2.918621E+02 
 +4.957733E+02 +3.093792E+00 -1.025527E+01 +3.093792E+00 +8.543418E+02 -5.454458E+00 -1.025527E+01 -5.454458E+00 +2.996432E+02 
 +5.028969E+02 +8.513600E+00 -4.205825E+00 +8.513600E+00 +8.602617E+02 -7.895398E+00 -4.205825E+00 -7.895398E+00 +3.085189E+02 
 +5.109237E+02 +1.476470E+01 -1.079504E+01 +1.476470E+01 +8.718724E+02 -1.261489E+01 -1.079504E+01 -1.261489E+01 +3.316205E+02 
 +5.009697E+02 -3.839963E-01 -1.628288E+00 -3.839963E-01 +8.647772E+02 -1.395614E+01 -1.628288E+00 -1.395614E+01 +3.313843E+02 
 +4.851985E+02 -1.120711E+01 +4.537922E-01 -1.120711E+01 +8.512471E+02 -1.303262E+01 +4.537922E-01 -1.303262E+01 +3.177265E+02 
 +4.614850E+02 -2.032439E+01 +1.290007E+01 -2.032439E+01 +8.434422E+02 -1.572751E+01 +1.290007E+01 -1.572751E+01 +3.097250E+02 
 +4.563227E+02 -8.186032E+00 -2.454091E+00 -8.186032E+00 +8.399467E+02 -1.120526E+01 -2.454091E+00 -1.120526E+01 +3.120626E+02 
 +4.776895E+02 -2.763737E+00 -1.513433E+01 -2.763737E+00 +8.419000E+02 -1.011747E+01 -1.513433E+01 -1.011747E+01 +3.244498E+02 
 +4.987125E+02 -6.445881E-01 -2.000868E+01 -6.445881E-01 +8.597283E+02 -1.669303E+01 -2.000868E+01 -1.669303E+01 +3.320836E+02 
 +5.188137E+02 -1.130572E+00 -1.464475E+01 -1.130572E+00 +8.865250E+02 -7.355700E+00 -1.464475E+01 -7.355700E+00 +3.613016E+02 
 +5.182921E+02 -7.267268E+00 -2.989110E+01 -7.267268E+00 +8.924706E+02 +7.042973E+00 -2.989110E+01 +7.042973E+00 +3.879726E+02 
 +5.075465E+02 -4.174120E+00 -2.919647E+01 -4.174120E+00 +8.864725E+02 +7.979372E+00 -2.919647E+01 +7.979372E+00 +3.970769E+02 
 +4.676268E+02 +2.193595E+00 -1.051419E+01 +2.193595E+00 +8.708732E+02 +2.569248E+00 -1.051419E+01 +2.569248E+00 +3.877345E+02 
 +4.499559E+02 +3.361150E+00 -7.022960E+00 +3.361150E+00 +8.617885E+02 +3.920307E+00 -7.022960E+00 +3.920307E+00 +3.845677E+02 
 +4.550117E+02 +3.052395E+00 -5.979800E+00 +3.052395E+00 +8.660232E+02 +8.474320E+00 -5.979800E+00 +8.474320E+00 +4.014353E+02 
 +4.596741E+02 +4.591999E+00 -4.097854E+00 +4.591999E+00 +8.764979E+02 +1.143870E+01 -4.097854E+00 +1.143870E+01 +4.126982E+02 
 +4.837664E+02 +4.657912E+00 -2.487033E+00 +4.657912E+00 +8.922139E+02 +1.394282E+01 -2.487033E+00 +1.394282E+01 +4.289645E+02 
 +4.935636E+02 +8.173378E+00 -1.931852E+01 +8.173378E+00 +8.879796E+02 +3.016182E+00 -1.931852E+01 +3.016182E+00 +4.263971E+02 
 +4.754897E+02 +5.344352E+00 -1.583218E+01 +5.344352E+00 +8.567941E+02 -1.666874E+01 -1.583218E+01 -1.666874E+01 +3.618492E+02 
 +4.987283E+02 +5.753456E+00 -1.019306E+01 +5.753456E+00 +8.532033E+02 -2.072067E+01 -1.019306E+01 -2.072067E+01 +3.062279E+02 
 +5.089866E+02 +9.498320E+00 -5.737188E+00 +9.498320E+00 +8.641907E+02 -1.217555E+01 -5.737188E+00 -1.217555E+01 +3.143484E+02 
 +5.160113E+02 +9.736899E+00 -7.651107E+00 +9.736899E+00 +8.773696E+02 -6.468457E+00 -7.651107E+00 -6.468457E+00 +3.367795E+02 
 +5.195333E+02 +9.968020E+00 -7.884702E+00 +9.968020E+00 +8.783425E+02 -7.880848E+00 -7.884702E+00 -7.880848E+00 +3.368588E+02 
 +5.230121E+02 +1.180617E+01 -1.851799E+01 +1.180617E+01 +8.780388E+02 -1.159346E+01 -1.851799E+01 -1.159346E+01 +3.428593E+02 
 +4.927656E+02 -2.982264E+00 -8.434252E+00 -2.982264E+00 +8.444331E+02 -1.788732E+01 -8.434252E+00 -1.788732E+01 +3.583632E+02 
 +4.829883E+02 -1.031525E+01 -6.132551E-01 -1.031525E+01 +8.419294E+02 -1.900776E+01 -6.132551E-01 -1.900776E+01 +3.480675E+02 
 +4.629910E+02 -1.897927E+01 +8.301523E+00 -1.897927E+01 +8.463908E+02 -1.262772E+01 +8.301523E+00 -1.262772E+01 +3.296221E+02 
 +4.740885E+02 -1.478476E+01 +9.484328E+00 -1.478476E+01 +8.589086E+02 -5.819596E+00 +9.484328E+00 -5.819596E+00 +3.327951E+02 
 +4.617897E+02 -2.242460E+00 -1.663670E+01 -2.242460E+00 +8.530777E+02 -1.123866E+01 -1.663670E+01 -1.123866E+01 +3.381779E+02 
 +4.817197E+02 -3.868728E+00 -2.514188E+01 -3.868728E+00 +8.716884E+02 -1.380435E+01 -2.514188E+01 -1.380435E+01 +3.425142E+02 
 +5.096336E+02 -7.939233E+00 -2.447675E+01 -7.939233E+00 +8.911697E+02 -2.927689E+00 -2.447675E+01 -2.927689E+00 +3.616992E+02 
 +5.241192E+02 -8.858932E+00 -3.338082E+01 -8.858932E+00 +8.935447E+02 +1.906350E+00 -3.338082E+01 +1.906350E+00 +3.894932E+02 
 +5.255654E+02 -7.752869E+00 -3.463188E+01 -7.752869E+00 +8.863102E+02 +9.162918E+00 -3.463188E+01 +9.162918E+00 +4.039741E+02 
 +5.130311E+02 -4.937561E+00 -2.376096E+01 -4.937561E+00 +8.796538E+02 +1.339679E+01 -2.376096E+01 +1.339679E+01 +4.003739E+02 
 +4.584503E+02 +1.735194E+00 -1.255596E+01 +1.735194E+00 +8.600472E+02 +7.916684E+00 -1.255596E+01 +7.916684E+00 +3.766555E+02 
 +4.481122E+02 +3.735207E+00 -6.729205E+00 +3.735207E+00 +8.611454E+02 +7.627657E+00 -6.729205E+00 +7.627657E+00 +3.919894E+02 
 +4.563028E+02 +2.954770E+00 -3.044373E+00 +2.954770E+00 +8.714541E+02 +1.048718E+01 -3.044373E+00 +1.048718E+01 +4.172170E+02 
 +4.572308E+02 +5.468499E+00 +3.504569E+00 +5.468499E+00 +8.749826E+02 +7.710687E+00 +3.504569E+00 +7.710687E+00 +4.187462E+02 
 +5.119972E+02 +1.205293E+01 -2.328450E+01 +1.205293E+01 +8.931695E+02 -6.377801E-01 -2.328450E+01 -6.377801E-01 +4.108832E+02 
 +4.900264E+02 +1.433178E+01 -1.262289E+01 +1.433178E+01 +8.721406E+02 -1.159130E+01 -1.262289E+01 -1.159130E+01 +3.587171E+02 
 +5.165078E+02 +1.232105E+01 +1.340661E+00 +1.232105E+01 +8.828804E+02 -1.812791E+01 +1.340661E+00 -1.812791E+01 +3.248709E+02 
 +5.192624E+02 +1.024143E+01 +3.437927E+00 +1.024143E+01 +8.806243E+02 -1.567352E+01 +3.437927E+00 -1.567352E+01 +3.239656E+02 
 +5.166413E+02 +8.032095E+00 -3.536709E+00 +8.032095E+00 +8.782590E+02 -1.273618E+01 -3.536709E+00 -1.273618E+01 +3.418521E+02 
 +5.196200E+02 +8.955879E+00 -4.596003E+00 +8.955879E+00 +8.796223E+02 -1.446728E+01 -4.596003E+00 -1.446728E+01 +3.499478E+02 
 +5.180499E+02 +7.591269E+00 -1.494645E+01 +7.591269E+00 +8.718142E+02 -1.478497E+01 -1.494645E+01 -1.478497E+01 +3.620435E+02 
 +4.877761E+02 -8.679295E+00 -8.675856E+00 -8.679295E+00 +8.329548E+02 -2.064357E+01 -8.675856E+00 -2.064357E+01 +3.699423E+02 
 +4.825390E+02 -8.575813E+00 -3.500452E+00 -8.575813E+00 +8.379672E+02 -2.087529E+01 -3.500452E+00 -2.087529E+01 +3.684754E+02 
 +4.672247E+02 -1.337043E+01 +3.784914E+00 -1.337043E+01 +8.387919E+02 -1.181343E+01 +3.784914E+00 -1.181343E+01 +3.662066E+02 
 +4.642916E+02 -1.566200E+01 +7.354741E+00 -1.566200E+01 +8.541181E+02 -5.792375E-01 +7.354741E+00 -5.792375E-01 +3.673934E+02 
 +4.676461E+02 -9.175192E+00 -9.765279E+00 -9.175192E+00 +8.842807E+02 -3.049227E+00 -9.765279E+00 -3.049227E+00 +3.737083E+02 
 +4.559927E+02 -8.026190E+00 -1.750357E+01 -8.026190E+00 +8.723871E+02 -6.533608E+00 -1.750357E+01 -6.533608E+00 +3.470772E+02 
 +5.128929E+02 -8.507377E+00 -2.405912E+01 -8.507377E+00 +8.846525E+02 -1.708108E+00 -2.405912E+01 -1.708108E+00 +3.620744E+02 
 +5.335756E+02 -1.054736E+01 -3.651356E+01 -1.054736E+01 +8.935934E+02 +2.026911E+00 -3.651356E+01 +2.026911E+00 +3.967003E+02 
 +5.260376E+02 -1.046120E+01 -3.297123E+01 -1.046120E+01 +8.874017E+02 +4.961621E+00 -3.297123E+01 +4.961621E+00 +4.116603E+02 
 +5.243979E+02 -1.194508E+01 -2.791620E+01 -1.194508E+01 +8.799992E+02 +1.237300E+01 -2.791620E+01 +1.237300E+01 +4.064867E+02 
 +4.969901E+02 -1.170561E+01 -2.162356E+01 -1.170561E+01 +8.650865E+02 +1.203921E+01 -2.162356E+01 +1.203921E+01 +3.846224E+02 
 +4.545709E+02 -4.448699E+00 -6.625467E+00 -4.448699E+00 +8.552319E+02 +4.654031E+00 -6.625467E+00 +4.654031E+00 +3.905983E+02 
 +4.488732E+02 +4.629335E+00 +4.841850E+00 +4.629335E+00 +8.606856E+02 +5.062813E+00 +4.841850E+00 +5.062813E+00 +4.186944E+02 
 +4.722018E+02 +1.165016E+01 -3.302347E+00 +1.165016E+01 +8.734082E+02 -8.230594E-01 -3.302347E+00 -8.230594E-01 +4.101678E+02 
 +5.065293E+02 +1.706017E+01 -2.130604E+01 +1.706017E+01 +8.892919E+02 -5.355045E+00 -2.130604E+01 -5.355045E+00 +3.758749E+02 
 +4.905637E+02 +1.504425E+01 -1.375925E+01 +1.504425E+01 +8.788703E+02 -4.219969E+00 -1.375925E+01 -4.219969E+00 +3.347885E+02 
 +5.102340E+02 +7.661611E+00 +4.844342E+00 +7.661611E+00 +8.854497E+02 -8.726560E+00 +4.844342E+00 -8.726560E+00 +3.142859E+02 
 +5.201551E+02 +6.980746E+00 +8.329508E+00 +6.980746E+00 +8.864725E+02 -1.112792E+01 +8.329508E+00 -1.112792E+01 +3.297361E+02 
 +5.165989E+02 +5.683436E+00 -7.163514E-01 +5.683436E+00 +8.809126E+02 -9.890591E+00 -7.163514E-01 -9.890591E+00 +3.507832E+02 
 +5.100429E+02 +3.229353E+00 -2.753278E+00 +3.229353E+00 +8.656275E+02 -1.162511E+01 -2.753278E+00 -1.162511E+01 +3.503542E+02 
 +4.926461E+02 -2.717457E+00 -7.257536E+00 -2.717457E+00 +8.414032E+02 -1.802579E+01 -7.257536E+00 -1.802579E+01 +3.605515E+02 
 +4.779240E+02 -1.181083E+01 -2.630607E+00 -1.181083E+01 +8.306445E+02 -1.650462E+01 -2.630607E+00 -1.650462E+01 +3.589803E+02 
 +4.744249E+02 -1.129789E+01 +5.963667E+00 -1.129789E+01 +8.328507E+02 -1.585648E+01 +5.963667E+00 -1.585648E+01 +3.584773E+02 
 +4.843732E+02 -1.815618E+01 +1.024775E+01 -1.815618E+01 +8.619571E+02 -1.144993E+01 +1.024775E+01 -1.144993E+01 +3.753102E+02 
 +4.433664E+02 -1.524001E+01 +6.403733E+00 -1.524001E+01 +8.590499E+02 +1.174254E+00 +6.403733E+00 +1.174254E+00 +3.614488E+02 
 +4.620793E+02 -2.215736E+00 -1.161617E+01 -2.215736E+00 +8.641084E+02 +1.156803E+01 -1.161617E+01 +1.156803E+01 +3.704376E+02 
 +4.325344E+02 -9.719285E-01 -2.367752E+01 -9.719285E-01 +8.430915E+02 +5.442538E+00 -2.367752E+01 +5.442538E+00 +3.430656E+02 
 +5.036949E+02 -6.525253E+00 -2.163137E+01 -6.525253E+00 +8.792078E+02 -8.693671E-01 -2.163137E+01 -8.693671E-01 +3.655607E+02 
 +5.233364E+02 -1.195678E+01 -2.643783E+01 -1.195678E+01 +8.851121E+02 +8.703316E-01 -2.643783E+01 +8.703316E-01 +3.887795E+02 
 +5.226623E+02 -1.542212E+01 -2.494640E+01 -1.542212E+01 +8.879795E+02 +2.932170E+00 -2.494640E+01 +2.932170E+00 +4.038407E+02 
 +5.216241E+02 -1.546679E+01 -1.863186E+01 -1.546679E+01 +8.821910E+02 +2.262144E+00 -1.863186E+01 +2.262144E+00 +4.048475E+02 
 +5.069532E+02 -1.500588E+01 -1.990374E+01 -1.500588E+01 +8.624543E+02 -2.705947E-01 -1.990374E+01 -2.705947E-01 +3.868531E+02 
 +4.855777E+02 -1.504016E+01 +1.766411E-01 -1.504016E+01 +8.553221E+02 -3.067402E+00 +1.766411E-01 -3.067402E+00 +3.952991E+02 
 +4.461945E+02 -5.901805E+00 +2.056805E+01 -5.901805E+00 +8.481246E+02 -4.257676E+00 +2.056805E+01 -4.257676E+00 +3.922180E+02 
 +4.919607E+02 +3.007441E+00 -2.349240E+00 +3.007441E+00 +8.758705E+02 -6.052388E+00 -2.349240E+00 -6.052388E+00 +3.792648E+02 
 +5.001509E+02 +9.113319E+00 +3.060162E+00 +9.113319E+00 +8.846638E+02 -1.995250E+00 +3.060162E+00 -1.995250E+00 +3.609323E+02 
 +4.993814E+02 +1.206979E+01 -7.087381E-01 +1.206979E+01 +8.916746E+02 +2.051046E+00 -7.087381E-01 +2.051046E+00 +3.504945E+02 
 +5.266693E+02 +4.844438E+00 +1.399318E+01 +4.844438E+00 +9.008992E+02 +1.147390E+00 +1.399318E+01 +1.147390E+00 +3.367794E+02 
 +5.191620E+02 -2.361027E-01 +1.037023E+01 -2.361027E-01 +8.802886E+02 -3.333387E+00 +1.037023E+01 -3.333387E+00 +3.511812E+02 
 +4.945610E+02 +2.933798E-01 +3.673803E+00 +2.933798E-01 +8.479360E+02 -1.288553E+01 +3.673803E+00 -1.288553E+01 +3.636999E+02 
 +4.848585E+02 -4.543562E+00 +9.781335E-02 -4.543562E+00 +8.319337E+02 -1.394198E+01 +9.781335E-02 -1.394198E+01 +3.542194E+02 
 +4.805974E+02 -8.859510E+00 -4.972624E+00 -8.859510E+00 +8.301690E+02 -1.318938E+01 -4.972624E+00 -1.318938E+01 +3.590034E+02 
 +4.697046E+02 -4.953356E+00 +5.062194E+00 -4.953356E+00 +8.494173E+02 -9.501859E+00 +5.062194E+00 -9.501859E+00 +3.485398E+02 
 +4.736711E+02 -2.076527E+00 +1.573863E+01 -2.076527E+00 +8.665628E+02 +5.621166E+00 +1.573863E+01 +5.621166E+00 +3.704129E+02 
 +4.556998E+02 -5.712170E+00 +1.713746E+01 -5.712170E+00 +8.687580E+02 +1.076545E+01 +1.713746E+01 +1.076545E+01 +3.801047E+02 
 +4.424153E+02 -4.266748E+00 +1.396634E+01 -4.266748E+00 +8.670829E+02 +5.499513E+00 +1.396634E+01 +5.499513E+00 +3.753998E+02 
 +4.578514E+02 -1.566381E+00 -4.573955E+00 -1.566381E+00 +8.810687E+02 -4.193721E+00 -4.573955E+00 -4.193721E+00 +3.841351E+02 
 +4.483100E+02 +1.929828E-01 -3.749806E+01 +1.929828E-01 +8.675227E+02 -3.099553E+00 -3.749806E+01 -3.099553E+00 +3.600237E+02 
 +4.702278E+02 -2.853864E+00 -1.739515E+01 -2.853864E+00 +8.602705E+02 +1.361568E+00 -1.739515E+01 +1.361568E+00 +3.415901E+02 
 +5.206926E+02 -6.956846E+00 -2.021629E+01 -6.956846E+00 +8.815260E+02 -1.037579E+00 -2.021629E+01 -1.037579E+00 +3.757249E+02 
 +5.341928E+02 -6.628430E+00 -2.076819E+01 -6.628430E+00 +8.894788E+02 -5.586613E+00 -2.076819E+01 -5.586613E+00 +3.962471E+02 
 +5.208278E+02 -6.404238E+00 -1.097288E+01 -6.404238E+00 +8.783443E+02 -1.098535E+01 -1.097288E+01 -1.098535E+01 +3.942703E+02 
 +5.221805E+02 -5.200758E+00 -3.714835E+00 -5.200758E+00 +8.748560E+02 -9.261220E+00 -3.714835E+00 -9.261220E+00 +4.084437E+02 
 +5.121279E+02 -2.718226E+00 -3.304707E+00 -2.718226E+00 +8.691103E+02 -7.682258E+00 -3.304707E+00 -7.682258E+00 +3.859809E+02 
 +4.990210E+02 -1.435017E+00 +1.595481E+01 -1.435017E+00 +8.629139E+02 -1.028841E+01 +1.595481E+01 -1.028841E+01 +3.332722E+02 
 +5.026832E+02 -1.510851E-01 +1.176896E+01 -1.510851E-01 +8.700719E+02 -7.779264E+00 +1.176896E+01 -7.779264E+00 +3.273024E+02 
 +5.074669E+02 +5.732453E+00 +2.722865E+01 +5.732453E+00 +8.761189E+02 +2.107865E+00 +2.722865E+01 +2.107865E+00 +3.366099E+02 
 +5.032610E+02 +1.148278E+01 -9.041464E+00 +1.148278E+01 +8.805615E+02 +8.095885E+00 -9.041464E+00 +8.095885E+00 +3.363740E+02 
 +5.085060E+02 +2.606511E-01 -1.419003E+01 +2.606511E-01 +8.799105E+02 +7.575594E+00 -1.419003E+01 +7.575594E+00 +3.332252E+02 
 +5.073063E+02 -8.011249E+00 -1.237882E+01 -8.011249E+00 +8.711681E+02 +7.512719E+00 -1.237882E+01 +7.512719E+00 +3.368386E+02 
 +4.939875E+02 -8.361051E+00 -1.333694E+01 -8.361051E+00 +8.653188E+02 +2.190328E+00 -1.333694E+01 +2.190328E+00 +3.584491E+02 
 +4.922612E+02 -6.420147E+00 +3.066813E+00 -6.420147E+00 +8.601975E+02 -7.390474E+00 +3.066813E+00 -7.390474E+00 +3.799136E+02 
 +4.768391E+02 -8.918843E+00 -8.173897E+00 -8.918843E+00 +8.468321E+02 -1.577939E+01 -8.173897E+00 -1.577939E+01 +3.621641E+02 
 +4.711105E+02 +1.327446E-01 +1.339653E+01 +1.327446E-01 +8.614055E+02 +1.203362E+01 +1.339653E+01 +1.203362E+01 +3.534134E+02 
 +4.770377E+02 -1.609808E+00 +1.694672E+01 -1.609808E+00 +8.617353E+02 +1.902788E+01 +1.694672E+01 +1.902788E+01 +3.590323E+02 
 +4.541403E+02 -3.722087E+00 +1.807536E+01 -3.722087E+00 +8.537870E+02 +1.440214E+01 +1.807536E+01 +1.440214E+01 +3.545326E+02 
 +4.191931E+02 -6.734239E+00 +5.901394E+00 -6.734239E+00 +8.516385E+02 +6.853613E+00 +5.901394E+00 +6.853613E+00 +3.557667E+02 
 +4.460563E+02 +5.045714E-01 -1.995977E+01 +5.045714E-01 +8.729522E+02 -2.559082E+00 -1.995977E+01 -2.559082E+00 +3.745812E+02 
 +4.626799E+02 +6.648716E+00 -3.781717E+01 +6.648716E+00 +8.732982E+02 -1.110424E+00 -3.781717E+01 -1.110424E+00 +3.698860E+02 
 +4.666067E+02 +2.338565E+00 -2.872092E+01 +2.338565E+00 +8.636610E+02 +6.810201E+00 -2.872092E+01 +6.810201E+00 +3.593530E+02 
 +5.052266E+02 -5.139709E+00 -1.674441E+01 -5.139709E+00 +8.730445E+02 +1.963349E+00 -1.674441E+01 +1.963349E+00 +3.712866E+02 
 +5.312922E+02 -7.333611E+00 -1.020194E+01 -7.333611E+00 +8.857121E+02 -7.222100E+00 -1.020194E+01 -7.222100E+00 +3.984309E+02 
 +5.371351E+02 -9.650577E+00 -1.104092E+01 -9.650577E+00 +8.912712E+02 -1.309452E+01 -1.104092E+01 -1.309452E+01 +4.071486E+02 
 +5.233137E+02 -5.414799E+00 +1.771142E+01 -5.414799E+00 +8.881753E+02 -1.163899E+01 +1.771142E+01 -1.163899E+01 +3.925668E+02 
 +4.919082E+02 -5.070338E+00 +1.937987E+01 -5.070338E+00 +8.727998E+02 -1.275534E+00 +1.937987E+01 -1.275534E+00 +3.551450E+02 
 +5.018511E+02 -9.969876E+00 +2.323298E+01 -9.969876E+00 +8.707050E+02 -6.474450E-01 +2.323298E+01 -6.474450E-01 +3.249772E+02 
 +5.146732E+02 -1.415934E+01 +1.853607E+01 -1.415934E+01 +8.725203E+02 -5.301600E+00 +1.853607E+01 -5.301600E+00 +3.212456E+02 
 +5.176567E+02 -1.141298E+01 +3.401919E+01 -1.141298E+01 +8.675196E+02 -3.227422E+00 +3.401919E+01 -3.227422E+00 +3.412584E+02 
 +5.158491E+02 +1.529769E+00 +8.490589E-01 +1.529769E+00 +8.685083E+02 +1.459503E+00 +8.490589E-01 +1.459503E+00 +3.626835E+02 
 +5.096507E+02 -1.081326E+01 -1.011580E+01 -1.081326E+01 +8.779096E+02 +5.393364E+00 -1.011580E+01 +5.393364E+00 +3.511470E+02 
 +5.026015E+02 -1.547012E+01 -2.406293E+01 -1.547012E+01 +8.768944E+02 +6.272257E+00 -2.406293E+01 +6.272257E+00 +3.484133E+02 
 +5.081263E+02 -1.088526E+01 -1.867929E+01 -1.088526E+01 +8.828971E+02 +1.013080E+01 -1.867929E+01 +1.013080E+01 +3.706260E+02 
 +5.102660E+02 -9.540768E+00 -1.218980E+01 -9.540768E+00 +8.957501E+02 +1.044396E+01 -1.218980E+01 +1.044396E+01 +3.905132E+02 
 +4.943758E+02 -7.913922E+00 -2.393527E+01 -7.913922E+00 +8.832169E+02 +6.330643E+00 -2.393527E+01 +6.330643E+00 +3.768009E+02 
 +4.584796E+02 +9.182863E-01 +1.611107E+01 +9.182863E-01 +8.594208E+02 +1.655224E+01 +1.611107E+01 +1.655224E+01 +3.652247E+02 
 +4.855335E+02 -2.348831E-01 +1.814216E+01 -2.348831E-01 +8.730489E+02 +1.449480E+01 +1.814216E+01 +1.449480E+01 +3.672678E+02 
 +4.474968E+02 -6.820961E+00 +1.264130E+01 -6.820961E+00 +8.585210E+02 +6.795759E+00 +1.264130E+01 +6.795759E+00 +3.534173E+02 
 +4.191852E+02 -7.812921E+00 +1.149753E+00 -7.812921E+00 +8.478197E+02 -3.462659E+00 +1.149753E+00 -3.462659E+00 +3.526370E+02 
 +4.585635E+02 -1.644482E+00 -2.784219E+01 -1.644482E+00 +8.695395E+02 -3.039317E+00 -2.784219E+01 -3.039317E+00 +3.783145E+02 
 +4.671108E+02 +4.537808E-01 -3.349586E+01 +4.537808E-01 +8.688013E+02 +1.620215E+00 -3.349586E+01 +1.620215E+00 +3.855917E+02 
 +4.826335E+02 +3.735005E-01 -2.591155E+01 +3.735005E-01 +8.736981E+02 +2.410181E+00 -2.591155E+01 +2.410181E+00 +3.863168E+02 
 +4.954025E+02 -6.237589E-01 -1.545106E+01 -6.237589E-01 +8.751046E+02 -9.200572E+00 -1.545106E+01 -9.200572E+00 +3.858824E+02 
 +5.254920E+02 +1.765137E+00 -5.646774E-01 +1.765137E+00 +8.846650E+02 -2.150292E+01 -5.646774E-01 -2.150292E+01 +4.143686E+02 
 +5.297079E+02 -1.590551E+00 -3.730902E+00 -1.590551E+00 +8.886571E+02 -1.194706E+01 -3.730902E+00 -1.194706E+01 +4.046484E+02 
 +5.039624E+02 -4.508061E+00 +2.049682E+01 -4.508061E+00 +8.830264E+02 -2.217348E+00 +2.049682E+01 -2.217348E+00 +3.629829E+02 
 +4.856988E+02 -5.205600E+00 +2.847153E+01 -5.205600E+00 +8.711277E+02 -4.563927E+00 +2.847153E+01 -4.563927E+00 +3.452535E+02 
 +4.957829E+02 -3.260807E+00 +1.742991E+01 -3.260807E+00 +8.618075E+02 -8.641360E+00 +1.742991E+01 -8.641360E+00 +3.295038E+02 
 +5.086503E+02 -6.402786E+00 +1.496345E+01 -6.402786E+00 +8.583246E+02 -1.156870E+01 +1.496345E+01 -1.156870E+01 +3.226217E+02 
 +5.225576E+02 -1.334727E+01 +1.804593E+01 -1.334727E+01 +8.625518E+02 -1.135072E+01 +1.804593E+01 -1.135072E+01 +3.510923E+02 
 +5.301090E+02 +5.379207E-01 +4.346166E+00 +5.379207E-01 +8.580905E+02 -4.858328E+00 +4.346166E+00 -4.858328E+00 +3.896665E+02 
 +5.109368E+02 -1.997585E+00 +3.394128E+00 -1.997585E+00 +8.520955E+02 -6.117927E-01 +3.394128E+00 -6.117927E-01 +3.761183E+02 
 +4.906893E+02 -1.432511E+01 -2.493863E+01 -1.432511E+01 +8.605709E+02 +1.277973E+00 -2.493863E+01 +1.277973E+00 +3.532197E+02 
 +5.010175E+02 -1.146345E+01 -2.542306E+01 -1.146345E+01 +8.735064E+02 +9.241281E+00 -2.542306E+01 +9.241281E+00 +3.622008E+02 
 +5.077063E+02 -7.592191E+00 -2.328895E+01 -7.592191E+00 +8.823809E+02 +1.860713E+01 -2.328895E+01 +1.860713E+01 +3.754794E+02 
 +5.128427E+02 -6.969978E+00 -3.557277E+01 -6.969978E+00 +8.935733E+02 +2.190990E+01 -3.557277E+01 +2.190990E+01 +3.898098E+02 
 +4.501777E+02 -4.563883E+00 +1.087890E+01 -4.563883E+00 +8.607249E+02 +1.922895E+01 +1.087890E+01 +1.922895E+01 +3.682261E+02 
 +4.875530E+02 -1.306539E-01 +1.345328E+01 -1.306539E-01 +8.799864E+02 +4.449648E+00 +1.345328E+01 +4.449648E+00 +3.690997E+02 
 +4.385427E+02 -1.183365E+00 +8.437960E+00 -1.183365E+00 +8.557444E+02 -4.100877E+00 +8.437960E+00 -4.100877E+00 +3.521706E+02 
 +4.374982E+02 -1.847316E+00 -7.706066E+00 -1.847316E+00 +8.562111E+02 -7.219213E+00 -7.706066E+00 -7.219213E+00 +3.588621E+02 
 +4.542204E+02 -2.283607E+00 -2.852072E+01 -2.283607E+00 +8.608040E+02 -1.062718E+01 -2.852072E+01 -1.062718E+01 +3.699012E+02 
 +4.723866E+02 +1.788697E+00 -3.050978E+01 +1.788697E+00 +8.684134E+02 -7.182771E+00 -3.050978E+01 -7.182771E+00 +3.855195E+02 
 +4.923465E+02 +1.137661E+00 -2.533566E+01 +1.137661E+00 +8.752959E+02 -6.978847E+00 -2.533566E+01 -6.978847E+00 +3.775050E+02 
 +4.967957E+02 -2.700216E+00 -1.865575E+01 -2.700216E+00 +8.737479E+02 -1.434111E+01 -1.865575E+01 -1.434111E+01 +3.753939E+02 
 +5.069009E+02 +2.550550E+00 -2.068567E-01 +2.550550E+00 +8.771084E+02 -1.995012E+01 -2.068567E-01 -1.995012E+01 +3.877997E+02 
 +4.945842E+02 +7.331039E+00 +2.427091E+00 +7.331039E+00 +8.659574E+02 -1.452425E+01 +2.427091E+00 -1.452425E+01 +3.646986E+02 
 +4.802341E+02 +6.859103E+00 +1.038906E+01 +6.859103E+00 +8.464731E+02 -1.330934E+00 +1.038906E+01 -1.330934E+00 +3.424593E+02 
 +4.756962E+02 +6.760287E+00 +1.626348E+01 +6.760287E+00 +8.285354E+02 +6.149101E+00 +1.626348E+01 +6.149101E+00 +3.456985E+02 
 +4.789840E+02 +7.549408E+00 +6.047524E+00 +7.549408E+00 +8.232453E+02 +2.494345E+00 +6.047524E+00 +2.494345E+00 +3.472160E+02 
 +4.923867E+02 +3.421101E+00 -1.342167E+00 +3.421101E+00 +8.304538E+02 -6.223723E+00 -1.342167E+00 -6.223723E+00 +3.483671E+02 
 +5.074770E+02 -6.147316E+00 -2.408121E+00 -6.147316E+00 +8.399943E+02 -1.318733E+01 -2.408121E+00 -1.318733E+01 +3.639524E+02 
 +5.275979E+02 -8.984498E-01 -1.371588E+00 -8.984498E-01 +8.506613E+02 -7.300398E+00 -1.371588E+00 -7.300398E+00 +3.951206E+02 
 +5.160150E+02 +5.591832E-01 +1.451678E+00 +5.591832E-01 +8.458478E+02 -1.865666E+00 +1.451678E+00 -1.865666E+00 +4.008402E+02 
 +4.846348E+02 -1.132765E+01 -3.002592E+01 -1.132765E+01 +8.442190E+02 -1.464980E+00 -3.002592E+01 -1.464980E+00 +3.714165E+02 
 +4.862787E+02 -1.311448E+01 -4.225609E+01 -1.311448E+01 +8.560975E+02 +7.539379E+00 -4.225609E+01 +7.539379E+00 +3.454026E+02 
 +5.086715E+02 -8.260651E+00 -3.234797E+01 -8.260651E+00 +8.706657E+02 +1.860810E+01 -3.234797E+01 +1.860810E+01 +3.554940E+02 
 +5.190228E+02 -8.407319E+00 -4.042055E+01 -8.407319E+00 +8.897075E+02 +2.394089E+01 -4.042055E+01 +2.394089E+01 +3.867541E+02 
 +4.521980E+02 -6.985828E+00 +4.173974E+00 -6.985828E+00 +8.570596E+02 +2.370622E+01 +4.173974E+00 +2.370622E+01 +3.429579E+02 
 +4.944540E+02 +2.273029E+00 +1.740358E+00 +2.273029E+00 +8.822931E+02 +9.079961E+00 +1.740358E+00 +9.079961E+00 +3.535406E+02 
 +4.522760E+02 +8.120532E+00 +4.777546E+00 +8.120532E+00 +8.583850E+02 -5.370580E+00 +4.777546E+00 -5.370580E+00 +3.392020E+02 
 +4.508709E+02 +1.074962E+01 -2.000164E+01 +1.074962E+01 +8.622728E+02 -1.728178E+01 -2.000164E+01 -1.728178E+01 +3.505084E+02 
 +4.415348E+02 +9.988859E+00 -2.237705E+01 +9.988859E+00 +8.577046E+02 -1.929233E+01 -2.237705E+01 -1.929233E+01 +3.582223E+02 
 +4.665543E+02 +6.677281E+00 -2.240812E+01 +6.677281E+00 +8.682028E+02 -1.266895E+01 -2.240812E+01 -1.266895E+01 +3.786005E+02 
 +4.994429E+02 +3.141955E+00 -3.214853E+01 +3.141955E+00 +8.771954E+02 -1.078697E+01 -3.214853E+01 -1.078697E+01 +3.791149E+02 
 +5.042385E+02 -2.957607E-01 -2.583511E+01 -2.957607E-01 +8.741975E+02 -1.361985E+01 -2.583511E+01 -1.361985E+01 +3.685898E+02 
 +4.947456E+02 +7.132956E+00 -8.220961E+00 +7.132956E+00 +8.710598E+02 -1.620252E+01 -8.220961E+00 -1.620252E+01 +3.623939E+02 
 +4.862486E+02 +1.322467E+01 -5.588526E-01 +1.322467E+01 +8.624555E+02 -1.307437E+01 -5.588526E-01 -1.307437E+01 +3.526006E+02 
 +4.893810E+02 +8.806612E+00 +4.451151E+00 +8.806612E+00 +8.555028E+02 -5.358949E+00 +4.451151E+00 -5.358949E+00 +3.554032E+02 
 +4.819265E+02 +1.999781E+00 +3.043111E+00 +1.999781E+00 +8.436492E+02 -3.959244E+00 +3.043111E+00 -3.959244E+00 +3.551461E+02 
 +4.850744E+02 +4.192979E+00 -1.302384E+00 +4.192979E+00 +8.402692E+02 -4.301144E+00 -1.302384E+00 -4.301144E+00 +3.656856E+02 
 +4.996806E+02 +1.778789E+00 -1.664237E+01 +1.778789E+00 +8.434101E+02 +2.658765E-01 -1.664237E+01 +2.658765E-01 +3.754719E+02 
 +5.117145E+02 -1.699010E+00 -1.954366E+01 -1.699010E+00 +8.506348E+02 -3.797660E+00 -1.954366E+01 -3.797660E+00 +3.751841E+02 
 +5.136287E+02 +1.327903E+00 -1.516348E+01 +1.327903E+00 +8.492234E+02 -8.898156E+00 -1.516348E+01 -8.898156E+00 +3.822268E+02 
 +5.022672E+02 +6.878128E+00 -1.534930E+01 +6.878128E+00 +8.379932E+02 -3.442672E+00 -1.534930E+01 -3.442672E+00 +4.066227E+02 
 +4.780155E+02 -3.752107E+00 -3.233282E+01 -3.752107E+00 +8.259448E+02 +2.286003E-01 -3.233282E+01 +2.286003E-01 +3.927705E+02 
 +4.696658E+02 -9.952000E+00 -3.978513E+01 -9.952000E+00 +8.279040E+02 +4.197603E+00 -3.978513E+01 +4.197603E+00 +3.388626E+02 
 +4.937125E+02 -1.181293E+01 -3.365989E+01 -1.181293E+01 +8.529928E+02 +1.360056E+01 -3.365989E+01 +1.360056E+01 +3.324991E+02 
 +5.097011E+02 -1.196874E+01 -3.285758E+01 -1.196874E+01 +8.751935E+02 +2.491688E+01 -3.285758E+01 +2.491688E+01 +3.574442E+02 
 +4.793571E+02 -6.236564E+00 -8.292575E+00 -6.236564E+00 +8.625442E+02 +2.438105E+01 -8.292575E+00 +2.438105E+01 +3.233078E+02 
 +4.943795E+02 -2.257513E+00 -4.633945E+00 -2.257513E+00 +8.760818E+02 +1.749129E+01 -4.633945E+00 +1.749129E+01 +3.342347E+02 
 +4.751090E+02 +1.866577E+00 -6.001875E+00 +1.866577E+00 +8.632679E+02 +1.721353E+00 -6.001875E+00 +1.721353E+00 +3.202241E+02 
 +4.641357E+02 +5.326162E+00 -1.888717E+01 +5.326162E+00 +8.602352E+02 -1.479562E+01 -1.888717E+01 -1.479562E+01 +3.280370E+02 
 +4.423655E+02 +8.387021E+00 -9.599176E+00 +8.387021E+00 +8.595009E+02 -1.571129E+01 -9.599176E+00 -1.571129E+01 +3.567276E+02 
 +4.515523E+02 +9.349404E+00 -1.735245E+01 +9.349404E+00 +8.647901E+02 -1.457855E+01 -1.735245E+01 -1.457855E+01 +3.859413E+02 
 +5.154182E+02 +6.236769E+00 -3.997425E+01 +6.236769E+00 +8.869925E+02 -1.102509E+01 -3.997425E+01 -1.102509E+01 +4.050047E+02 
 +5.055287E+02 +3.990931E+00 -3.243560E+01 +3.990931E+00 +8.746349E+02 -8.163352E+00 -3.243560E+01 -8.163352E+00 +3.749534E+02 
 +4.963097E+02 +9.241921E+00 -1.400394E+01 +9.241921E+00 +8.713384E+02 -1.086237E+01 -1.400394E+01 -1.086237E+01 +3.623392E+02 
 +4.863663E+02 +1.153605E+01 -3.018787E+00 +1.153605E+01 +8.620542E+02 -8.108227E+00 -3.018787E+00 -8.108227E+00 +3.550314E+02 
 +4.843167E+02 +8.340405E+00 -4.204063E-01 +8.340405E+00 +8.575033E+02 -3.583753E+00 -4.204063E-01 -3.583753E+00 +3.550485E+02 
 +4.788764E+02 +4.618348E+00 -5.028598E+00 +4.618348E+00 +8.529485E+02 -4.936161E-01 -5.028598E+00 -4.936161E-01 +3.470681E+02 
 +4.855794E+02 +7.428000E+00 -6.852474E+00 +7.428000E+00 +8.514555E+02 -2.341272E+00 -6.852474E+00 -2.341272E+00 +3.517781E+02 
 +4.959761E+02 +5.124924E+00 -2.131527E+01 +5.124924E+00 +8.467531E+02 -4.664624E+00 -2.131527E+01 -4.664624E+00 +3.577188E+02 
 +5.000646E+02 +5.843629E+00 -2.756443E+01 +5.843629E+00 +8.540204E+02 -8.820883E-01 -2.756443E+01 -8.820883E-01 +3.478695E+02 
 +5.170766E+02 -3.417030E+00 -1.743907E+01 -3.417030E+00 +8.798439E+02 +7.624975E+00 -1.743907E+01 +7.624975E+00 +3.666153E+02 
 +4.999564E+02 +1.615277E-01 -1.518483E+01 +1.615277E-01 +8.633258E+02 +1.919683E+01 -1.518483E+01 +1.919683E+01 +3.909202E+02 
 +4.745491E+02 -1.074196E+00 -1.993876E+01 -1.074196E+00 +8.332730E+02 +2.064796E+01 -1.993876E+01 +2.064796E+01 +3.853308E+02 
 +4.547109E+02 -5.229576E+00 -1.668078E+01 -5.229576E+00 +8.191127E+02 +1.820436E+01 -1.668078E+01 +1.820436E+01 +3.470583E+02 
 +4.787107E+02 -1.212135E+01 -2.479381E+01 -1.212135E+01 +8.369728E+02 +1.886756E+01 -2.479381E+01 +1.886756E+01 +3.283624E+02 
 +4.920764E+02 -9.611328E+00 -2.150107E+01 -9.611328E+00 +8.570698E+02 +2.385233E+01 -2.150107E+01 +2.385233E+01 +3.261675E+02 
 +5.024990E+02 -8.358689E+00 -2.321939E+01 -8.358689E+00 +8.672943E+02 +1.168825E+01 -2.321939E+01 +1.168825E+01 +3.283098E+02 
 +4.952812E+02 -5.376178E+00 -1.009457E+01 -5.376178E+00 +8.658895E+02 +8.451918E+00 -1.009457E+01 +8.451918E+00 +3.252235E+02 
 +4.925093E+02 -2.201663E+00 -1.302143E+01 -2.201663E+00 +8.666393E+02 +5.393230E+00 -1.302143E+01 +5.393230E+00 +3.173965E+02 
 +4.735359E+02 -2.083262E+00 -1.572103E+01 -2.083262E+00 +8.580778E+02 +8.504387E-01 -1.572103E+01 +8.504387E-01 +3.092027E+02 
 +4.604724E+02 +3.456610E-01 -8.315831E+00 +3.456610E-01 +8.562746E+02 -6.491475E+00 -8.315831E+00 -6.491475E+00 +3.401556E+02 
 +4.617690E+02 +7.089940E+00 -2.477552E+01 +7.089940E+00 +8.623636E+02 -1.132207E+01 -2.477552E+01 -1.132207E+01 +3.843514E+02 
 +5.068723E+02 +7.728093E+00 -4.153089E+01 +7.728093E+00 +8.847318E+02 -7.749757E+00 -4.153089E+01 -7.749757E+00 +4.046423E+02 
 +5.045290E+02 +7.531805E+00 -3.331171E+01 +7.531805E+00 +8.764044E+02 -3.453595E+00 -3.331171E+01 -3.453595E+00 +3.783207E+02 
 +4.935950E+02 +1.038113E+01 -1.683632E+01 +1.038113E+01 +8.669327E+02 -4.676759E+00 -1.683632E+01 -4.676759E+00 +3.652261E+02 
 +4.842344E+02 +1.201326E+01 -7.810360E+00 +1.201326E+01 +8.601966E+02 -4.475472E+00 -7.810360E+00 -4.475472E+00 +3.575409E+02 
 +4.864750E+02 +1.115122E+01 -5.874273E+00 +1.115122E+01 +8.648225E+02 -3.976189E+00 -5.874273E+00 -3.976189E+00 +3.521016E+02 
 +4.833930E+02 +7.860816E+00 -1.258178E+01 +7.860816E+00 +8.694652E+02 -5.524838E+00 -1.258178E+01 -5.524838E+00 +3.475992E+02 
 +4.847013E+02 +2.622163E+00 -1.675508E+01 +2.622163E+00 +8.753416E+02 -9.064502E+00 -1.675508E+01 -9.064502E+00 +3.502790E+02 
 +5.096524E+02 -2.232899E+00 -1.983653E+01 -2.232899E+00 +8.919432E+02 -1.716689E+00 -1.983653E+01 -1.716689E+00 +3.434875E+02 
 +5.052574E+02 +3.119804E+00 -2.108752E+01 +3.119804E+00 +8.871435E+02 +1.009273E+01 -2.108752E+01 +1.009273E+01 +3.351244E+02 
 +5.123912E+02 -2.583787E+00 -7.627238E+00 -2.583787E+00 +8.945043E+02 +9.786892E+00 -7.627238E+00 +9.786892E+00 +3.625104E+02 
 +5.083033E+02 -6.317788E+00 -4.673822E-01 -6.317788E+00 +8.948104E+02 +7.180458E+00 -4.673822E-01 +7.180458E+00 +3.662329E+02 
 +4.825263E+02 -2.691845E+00 -5.097282E+00 -2.691845E+00 +8.717501E+02 +7.166035E+00 -5.097282E+00 +7.166035E+00 +3.537624E+02 
 +4.457350E+02 -8.946478E-01 -1.685863E+00 -8.946478E-01 +8.459179E+02 +6.077702E+00 -1.685863E+00 +6.077702E+00 +3.300064E+02 
 +4.794825E+02 -8.950359E+00 -2.889209E+01 -8.950359E+00 +8.611467E+02 +3.547383E+00 -2.889209E+01 +3.547383E+00 +3.194636E+02 
 +4.883989E+02 -7.345034E+00 -2.318824E+01 -7.345034E+00 +8.614387E+02 +7.003678E+00 -2.318824E+01 +7.003678E+00 +3.190768E+02 
 +5.019729E+02 -7.545796E+00 -3.193887E+01 -7.545796E+00 +8.649166E+02 -1.904008E+00 -3.193887E+01 -1.904008E+00 +3.199429E+02 
 +5.035611E+02 -7.320790E+00 -1.953503E+01 -7.320790E+00 +8.647690E+02 +1.166661E+00 -1.953503E+01 +1.166661E+00 +3.129250E+02 
 +5.020517E+02 -5.694418E+00 -1.372851E+01 -5.694418E+00 +8.675130E+02 +5.785699E+00 -1.372851E+01 +5.785699E+00 +3.170808E+02 
 +4.963351E+02 -3.479382E+00 -1.652857E+01 -3.479382E+00 +8.654276E+02 +9.328942E+00 -1.652857E+01 +9.328942E+00 +3.183545E+02 
 +4.802053E+02 -3.185920E+00 -8.945237E+00 -3.185920E+00 +8.598092E+02 +3.703164E+00 -8.945237E+00 +3.703164E+00 +3.399421E+02 
 +4.837938E+02 -1.638915E+00 -2.452435E+01 -1.638915E+00 +8.695846E+02 -4.042991E+00 -2.452435E+01 -4.042991E+00 +3.781848E+02 
 +4.972440E+02 -6.548398E-01 -3.345167E+01 -6.548398E-01 +8.809559E+02 -2.714900E+00 -3.345167E+01 -2.714900E+00 +3.806076E+02 
 +5.067328E+02 +2.907014E+00 -3.166341E+01 +2.907014E+00 +8.827065E+02 -5.348295E-01 -3.166341E+01 -5.348295E-01 +3.697029E+02 
 +4.888120E+02 +6.177068E+00 -2.319095E+01 +6.177068E+00 +8.631074E+02 -3.792615E+00 -2.319095E+01 -3.792615E+00 +3.522801E+02 
 +4.803974E+02 +1.377616E+01 -1.346081E+01 +1.377616E+01 +8.561076E+02 -3.573908E+00 -1.346081E+01 -3.573908E+00 +3.421078E+02 
 +4.836734E+02 +1.334039E+01 -9.533312E+00 +1.334039E+01 +8.656191E+02 -9.342941E-01 -9.533312E+00 -9.342941E-01 +3.454539E+02 
 +4.885192E+02 +1.112916E+01 -1.940439E+01 +1.112916E+01 +8.817274E+02 -1.273509E+00 -1.940439E+01 -1.273509E+00 +3.597957E+02 
 +4.752108E+02 +6.663910E+00 -2.218886E+01 +6.663910E+00 +8.826485E+02 -4.121395E+00 -2.218886E+01 -4.121395E+00 +3.602206E+02 
 +4.953186E+02 +4.758694E+00 -1.327723E+01 +4.758694E+00 +8.894058E+02 +3.927463E-01 -1.327723E+01 +3.927463E-01 +3.357699E+02 
 +5.155760E+02 +4.243109E+00 -7.070020E+00 +4.243109E+00 +8.979106E+02 +1.323196E+01 -7.070020E+00 +1.323196E+01 +3.389259E+02 
 +5.003950E+02 +3.731962E+00 -2.474797E+00 +3.731962E+00 +8.900979E+02 +1.739349E+01 -2.474797E+00 +1.739349E+01 +3.627090E+02 
 +5.061849E+02 -7.575990E-01 +3.577678E+00 -7.575990E-01 +8.915643E+02 +3.436439E+00 +3.577678E+00 +3.436439E+00 +3.561487E+02 
 +4.610590E+02 -1.828303E+00 +6.088997E+00 -1.828303E+00 +8.689292E+02 -1.001471E+01 +6.088997E+00 -1.001471E+01 +3.317210E+02 
 +4.321908E+02 -2.070926E+00 +3.225705E+00 -2.070926E+00 +8.491881E+02 -1.216922E+01 +3.225705E+00 -1.216922E+01 +3.085016E+02 
 +4.578696E+02 -9.979714E+00 -2.512881E+01 -9.979714E+00 +8.544410E+02 -4.241474E+00 -2.512881E+01 -4.241474E+00 +3.048350E+02 
 +4.925160E+02 -8.820653E+00 -3.068626E+01 -8.820653E+00 +8.665909E+02 -2.490648E-01 -3.068626E+01 -2.490648E-01 +3.229942E+02 
 +4.887921E+02 -4.899011E+00 -3.306097E+01 -4.899011E+00 +8.448439E+02 -3.363937E+00 -3.306097E+01 -3.363937E+00 +2.975467E+02 
 +4.919192E+02 -3.231587E+00 -2.536180E+01 -3.231587E+00 +8.413541E+02 +3.548186E+00 -2.536180E+01 +3.548186E+00 +2.940569E+02 
 +4.970347E+02 -1.194592E+00 -1.650148E+01 -1.194592E+00 +8.477706E+02 +6.280265E+00 -1.650148E+01 +6.280265E+00 +3.018690E+02 
 +5.050043E+02 -6.772123E+00 -1.326014E+01 -6.772123E+00 +8.650056E+02 +1.169457E+01 -1.326014E+01 +1.169457E+01 +3.233476E+02 
 +5.005764E+02 -1.176272E+01 -5.289646E+00 -1.176272E+01 +8.743443E+02 +1.097342E+01 -5.289646E+00 +1.097342E+01 +3.490752E+02 
 +4.906371E+02 -9.070809E+00 -1.327923E+01 -9.070809E+00 +8.768242E+02 +4.096915E+00 -1.327923E+01 +4.096915E+00 +3.625982E+02 
 +5.024555E+02 -1.002836E+01 -2.095548E+01 -1.002836E+01 +8.860581E+02 +2.547907E+00 -2.095548E+01 +2.547907E+00 +3.621126E+02 
 +5.105975E+02 -9.717132E+00 -2.594557E+01 -9.717132E+00 +8.926905E+02 +3.190266E+00 -2.594557E+01 +3.190266E+00 +3.603276E+02 
 +5.041723E+02 -7.184654E+00 -2.506748E+01 -7.184654E+00 +8.878666E+02 +6.408310E+00 -2.506748E+01 +6.408310E+00 +3.442404E+02 
 +4.894194E+02 +2.274501E+00 -2.162569E+01 +2.274501E+00 +8.678171E+02 +5.874805E+00 -2.162569E+01 +5.874805E+00 +3.193127E+02 
 +4.848748E+02 +1.048218E+01 -1.405074E+01 +1.048218E+01 +8.646164E+02 -1.504585E+00 -1.405074E+01 -1.504585E+00 +3.339583E+02 
 +4.789946E+02 +1.048683E+01 -9.777084E+00 +1.048683E+01 +8.741989E+02 +3.855663E+00 -9.777084E+00 +3.855663E+00 +3.586632E+02 
 +4.667242E+02 +1.718126E+00 -1.602353E+01 +1.718126E+00 +8.760552E+02 +2.000751E+01 -1.602353E+01 +2.000751E+01 +3.634814E+02 
 +4.847718E+02 -3.532698E-02 -1.799976E+01 -3.532698E-02 +8.828279E+02 +1.836244E+01 -1.799976E+01 +1.836244E+01 +3.544392E+02 
 +5.329027E+02 +3.186053E+00 -9.003767E-03 +3.186053E+00 +9.113068E+02 +8.902739E+00 -9.003767E-03 +8.902739E+00 +3.564852E+02 
 +5.127402E+02 +3.964361E+00 +1.198016E+00 +3.964361E+00 +9.044824E+02 +2.402051E+00 +1.198016E+00 +2.402051E+00 +3.599558E+02 
 +4.976181E+02 +3.299255E+00 +6.005754E+00 +3.299255E+00 +8.931387E+02 -8.181667E+00 +6.005754E+00 -8.181667E+00 +3.676462E+02 
 +4.436707E+02 +9.874393E-01 +1.463058E+01 +9.874393E-01 +8.674744E+02 -1.445841E+01 +1.463058E+01 -1.445841E+01 +3.539257E+02 
 +4.312427E+02 -2.616813E+00 +9.920104E+00 -2.616813E+00 +8.548661E+02 -1.493006E+01 +9.920104E+00 -1.493006E+01 +3.323188E+02 
 +4.409925E+02 -1.061887E+01 -2.992700E+00 -1.061887E+01 +8.478935E+02 -5.653544E+00 -2.992700E+00 -5.653544E+00 +3.186340E+02 
 +4.970591E+02 -1.118899E+01 -3.663908E+01 -1.118899E+01 +8.641323E+02 -2.941078E+00 -3.663908E+01 -2.941078E+00 +3.224934E+02 
 +5.005274E+02 -3.507193E+00 -2.975029E+01 -3.507193E+00 +8.459666E+02 -4.366554E+00 -2.975029E+01 -4.366554E+00 +3.099656E+02 
 +4.947352E+02 +1.903056E+00 -2.150320E+01 +1.903056E+00 +8.403151E+02 +1.853653E+00 -2.150320E+01 +1.853653E+00 +3.012081E+02 
 +4.916638E+02 +3.387549E+00 -1.869981E+01 +3.387549E+00 +8.418391E+02 +8.636210E+00 -1.869981E+01 +8.636210E+00 +3.009568E+02 
 +4.969450E+02 +7.932777E-01 -9.317092E+00 +7.932777E-01 +8.546092E+02 +1.416170E+01 -9.317092E+00 +1.416170E+01 +3.142898E+02 
 +5.086930E+02 -5.297425E+00 -4.118482E+00 -5.297425E+00 +8.825090E+02 +1.563411E+01 -4.118482E+00 +1.563411E+01 +3.420156E+02 
 +4.973437E+02 -8.926982E+00 -9.513424E+00 -8.926982E+00 +8.857205E+02 +1.210624E+01 -9.513424E+00 +1.210624E+01 +3.521741E+02 
 +5.046314E+02 -1.039301E+01 -1.530396E+01 -1.039301E+01 +8.860119E+02 +7.349527E+00 -1.530396E+01 +7.349527E+00 +3.580066E+02 
 +5.029893E+02 -9.358453E+00 -1.763721E+01 -9.358453E+00 +8.831487E+02 +5.279572E+00 -1.763721E+01 +5.279572E+00 +3.539798E+02 
 +5.018010E+02 -1.076731E+01 -1.768890E+01 -1.076731E+01 +8.828658E+02 +9.465737E+00 -1.768890E+01 +9.465737E+00 +3.471898E+02 
 +4.974315E+02 -1.004657E+01 -2.277917E+01 -1.004657E+01 +8.790019E+02 +1.422278E+01 -2.277917E+01 +1.422278E+01 +3.324400E+02 
 +5.013871E+02 -3.973786E+00 -8.361336E+00 -3.973786E+00 +8.880501E+02 +2.353383E+01 -8.361336E+00 +2.353383E+01 +3.405670E+02 
 +4.771805E+02 -8.214061E+00 +1.528510E+00 -8.214061E+00 +8.755462E+02 +3.151634E+01 +1.528510E+00 +3.151634E+01 +3.511355E+02 
 +4.816412E+02 -2.300203E+00 -8.514992E+00 -2.300203E+00 +8.757180E+02 +3.264630E+01 -8.514992E+00 +3.264630E+01 +3.588755E+02 
 +4.843567E+02 +7.697578E-02 -2.286795E+01 +7.697578E-02 +8.736556E+02 +3.134828E+01 -2.286795E+01 +3.134828E+01 +3.599059E+02 
 +5.182451E+02 +7.051131E+00 -1.776479E+00 +7.051131E+00 +8.741556E+02 +2.504921E+01 -1.776479E+00 +2.504921E+01 +3.710341E+02 
 +5.177009E+02 +6.361276E+00 -3.418312E+00 +6.361276E+00 +8.802040E+02 +9.906173E+00 -3.418312E+00 +9.906173E+00 +3.748671E+02 
 +4.677745E+02 +2.775706E+00 +1.197150E+01 +2.775706E+00 +8.814449E+02 -4.074529E+00 +1.197150E+01 -4.074529E+00 +3.756003E+02 
 +4.422131E+02 -7.686956E-01 +1.661094E+01 -7.686956E-01 +8.752130E+02 -5.890873E+00 +1.661094E+01 -5.890873E+00 +3.680068E+02 
 +4.326536E+02 -2.858111E+00 +1.522681E+01 -2.858111E+00 +8.598199E+02 -6.772562E+00 +1.522681E+01 -6.772562E+00 +3.449558E+02 
 +4.321947E+02 -6.242430E+00 +8.409834E+00 -6.242430E+00 +8.446209E+02 -1.403567E+01 +8.409834E+00 -1.403567E+01 +3.251245E+02 
 +4.866290E+02 -1.051424E+01 -2.502609E+01 -1.051424E+01 +8.547189E+02 -1.284727E+01 -2.502609E+01 -1.284727E+01 +3.237680E+02 
 +5.021564E+02 +7.097496E+00 -1.931356E+01 +7.097496E+00 +8.524032E+02 -1.325190E+01 -1.931356E+01 -1.325190E+01 +3.172814E+02 
 +4.947173E+02 +7.964911E+00 -1.627977E+01 +7.964911E+00 +8.455806E+02 -1.725991E+00 -1.627977E+01 -1.725991E+00 +3.112818E+02 
 +4.927571E+02 +6.538356E+00 -1.617146E+01 +6.538356E+00 +8.455885E+02 +1.097617E+01 -1.617146E+01 +1.097617E+01 +3.266850E+02 
 +4.978493E+02 +6.956071E+00 -8.787778E+00 +6.956071E+00 +8.539993E+02 +1.329634E+01 -8.787778E+00 +1.329634E+01 +3.344542E+02 
 +5.206548E+02 +5.252660E+00 -4.265105E+00 +5.252660E+00 +8.920113E+02 +9.213562E+00 -4.265105E+00 +9.213562E+00 +3.536449E+02 
 +5.162948E+02 -6.097321E+00 -1.125407E+01 -6.097321E+00 +9.015244E+02 +3.180670E+00 -1.125407E+01 +3.180670E+00 +3.611339E+02 
 +4.956206E+02 -6.659294E+00 -9.735969E+00 -6.659294E+00 +8.811718E+02 +1.103435E+00 -9.735969E+00 +1.103435E+00 +3.534712E+02 
 +4.930457E+02 -8.602920E+00 -1.239592E+01 -8.602920E+00 +8.768131E+02 +3.753143E+00 -1.239592E+01 +3.753143E+00 +3.531921E+02 
 +4.906620E+02 -9.595131E+00 -8.499037E+00 -9.595131E+00 +8.753008E+02 +6.294846E+00 -8.499037E+00 +6.294846E+00 +3.469646E+02 
 +4.903355E+02 -9.287111E+00 -9.380385E+00 -9.287111E+00 +8.680151E+02 +1.261814E+01 -9.380385E+00 +1.261814E+01 +3.372855E+02 
 +4.793622E+02 +2.536944E+00 +2.046408E+00 +2.536944E+00 +8.394189E+02 +1.991165E+01 +2.046408E+00 +1.991165E+01 +3.321472E+02 
 +4.656901E+02 +5.312895E+00 -8.905512E-01 +5.312895E+00 +8.197849E+02 +2.373159E+01 -8.905512E-01 +2.373159E+01 +3.368555E+02 
 +4.745705E+02 +1.304549E+01 -6.734740E+00 +1.304549E+01 +8.284612E+02 +2.630602E+01 -6.734740E+00 +2.630602E+01 +3.421047E+02 
 +4.793639E+02 +7.085286E+00 -1.472808E+01 +7.085286E+00 +8.506637E+02 +3.130014E+01 -1.472808E+01 +3.130014E+01 +3.557500E+02 
 +5.130451E+02 +3.231004E+00 +3.511532E+00 +3.231004E+00 +8.875262E+02 +3.469806E+01 +3.511532E+00 +3.469806E+01 +3.951457E+02 
 +5.107428E+02 +2.208938E+00 -8.401471E+00 +2.208938E+00 +8.909147E+02 +3.244799E+01 -8.401471E+00 +3.244799E+01 +4.026581E+02 
 +4.772290E+02 +3.030821E-01 +6.770485E+00 +3.030821E-01 +8.886361E+02 +1.992723E+01 +6.770485E+00 +1.992723E+01 +3.978321E+02 
 +4.635648E+02 +2.134485E+00 +1.159019E+01 +2.134485E+00 +8.886943E+02 +3.778373E+00 +1.159019E+01 +3.778373E+00 +3.898270E+02 
 +4.503293E+02 +3.115876E+00 +1.255218E+01 +3.115876E+00 +8.714075E+02 -4.835012E+00 +1.255218E+01 -4.835012E+00 +3.719900E+02 
 +4.538294E+02 +1.301823E+00 +6.730851E+00 +1.301823E+00 +8.568673E+02 -1.107092E+01 +6.730851E+00 -1.107092E+01 +3.636845E+02 
 +4.704801E+02 +1.992902E+00 -1.007704E+00 +1.992902E+00 +8.472009E+02 -1.603428E+01 -1.007704E+00 -1.603428E+01 +3.396311E+02 
 +4.811667E+02 +1.412530E+01 -3.151475E+00 +1.412530E+01 +8.541495E+02 -1.301819E+01 -3.151475E+00 -1.301819E+01 +3.101037E+02 
 +4.974325E+02 +1.248213E+01 -9.156617E+00 +1.248213E+01 +8.623622E+02 +4.114652E-01 -9.156617E+00 +4.114652E-01 +3.349047E+02 
 +4.920721E+02 +7.428422E+00 -1.421191E+01 +7.428422E+00 +8.492069E+02 +1.251124E+01 -1.421191E+01 +1.251124E+01 +3.650084E+02 
 +4.760205E+02 +9.635429E+00 -1.799559E+01 +9.635429E+00 +8.236114E+02 +1.325777E+01 -1.799559E+01 +1.325777E+01 +3.585657E+02 
 +4.948394E+02 +9.775251E+00 -9.564682E+00 +9.775251E+00 +8.181298E+02 +9.899726E+00 -9.564682E+00 +9.899726E+00 +3.515244E+02 
 +5.009322E+02 -5.209037E-02 -1.582529E+01 -5.209037E-02 +8.355564E+02 +7.920893E+00 -1.582529E+01 +7.920893E+00 +3.528668E+02 
 +4.891993E+02 +5.127933E+00 -3.639199E+00 +5.127933E+00 +8.641333E+02 +1.799339E+00 -3.639199E+00 +1.799339E+00 +3.491832E+02 
 +4.758881E+02 +3.232491E+00 -3.090656E+00 +3.232491E+00 +8.679942E+02 +1.752619E+00 -3.090656E+00 +1.752619E+00 +3.448438E+02 
 +4.722153E+02 +1.805464E+00 -2.502217E+00 +1.805464E+00 +8.537974E+02 +9.192600E+00 -2.502217E+00 +9.192600E+00 +3.323399E+02 
 +4.796781E+02 -8.231795E-01 -3.204122E+00 -8.231795E-01 +8.421670E+02 +1.341185E+01 -3.204122E+00 +1.341185E+01 +3.257455E+02 
 +4.807087E+02 +3.330965E+00 +8.894839E-01 +3.330965E+00 +8.271417E+02 +1.359182E+01 +8.894839E-01 +1.359182E+01 +3.401786E+02 
 +4.738610E+02 +7.186828E+00 -2.625159E+00 +7.186828E+00 +8.154962E+02 +1.604776E+01 -2.625159E+00 +1.604776E+01 +3.498164E+02 
 +4.683727E+02 +8.075050E+00 -4.881459E+00 +8.075050E+00 +8.159153E+02 +1.932573E+01 -4.881459E+00 +1.932573E+01 +3.490391E+02 
 +4.683460E+02 +7.071673E+00 -4.088146E+00 +7.071673E+00 +8.231122E+02 +2.330761E+01 -4.088146E+00 +2.330761E+01 +3.533000E+02 
 +4.874386E+02 +8.652651E+00 +8.663802E+00 +8.652651E+00 +8.658401E+02 +2.078432E+01 +8.663802E+00 +2.078432E+01 +3.818755E+02 
 +4.611374E+02 +3.875923E+00 +2.305019E-01 +3.875923E+00 +8.683020E+02 +1.865740E+01 +2.305019E-01 +1.865740E+01 +4.007732E+02 
 +4.812413E+02 -7.417235E-01 +8.094579E+00 -7.417235E-01 +8.552515E+02 +2.528293E+01 +8.094579E+00 +2.528293E+01 +4.185817E+02 
 +4.634592E+02 -6.135047E-01 +6.358449E+00 -6.135047E-01 +8.344958E+02 +1.963643E+01 +6.358449E+00 +1.963643E+01 +4.039633E+02 
 +4.511945E+02 -1.124652E+00 +1.664801E+00 -1.124652E+00 +8.304764E+02 +8.975348E+00 +1.664801E+00 +8.975348E+00 +3.980992E+02 
 +4.629019E+02 -1.522001E+00 -1.600159E-01 -1.522001E+00 +8.364873E+02 +3.941436E+00 -1.600159E-01 +3.941436E+00 +3.939978E+02 
 +4.729008E+02 +6.804161E+00 +2.687152E+00 +6.804161E+00 +8.455191E+02 -8.972868E+00 +2.687152E+00 -8.972868E+00 +3.465615E+02 
 +4.798090E+02 +7.435422E+00 +4.761045E+00 +7.435422E+00 +8.514598E+02 -8.478543E+00 +4.761045E+00 -8.478543E+00 +3.134355E+02 
 +4.951001E+02 +1.241854E+01 +1.295778E+00 +1.241854E+01 +8.651519E+02 -3.928390E+00 +1.295778E+00 -3.928390E+00 +3.484215E+02 
 +4.749401E+02 +2.017484E+00 -1.400313E+01 +2.017484E+00 +8.507282E+02 +3.529910E+00 -1.400313E+01 +3.529910E+00 +3.727071E+02 
 +4.705657E+02 +5.017298E+00 -2.337517E+01 +5.017298E+00 +8.263384E+02 +7.087681E+00 -2.337517E+01 +7.087681E+00 +3.757144E+02 
 +5.081764E+02 +6.773528E+00 -8.898923E+00 +6.773528E+00 +8.270487E+02 +5.775742E+00 -8.898923E+00 +5.775742E+00 +3.803378E+02 
 +5.015372E+02 +2.179716E+00 -1.595865E+01 +2.179716E+00 +8.158261E+02 +7.308995E+00 -1.595865E+01 +7.308995E+00 +3.707939E+02 
 +4.876848E+02 +4.291791E+00 -5.600871E+00 +4.291791E+00 +8.159074E+02 +3.875083E+00 -5.600871E+00 +3.875083E+00 +3.512271E+02 
 +4.716442E+02 +8.979720E+00 +6.061781E+00 +8.979720E+00 +8.377671E+02 -2.002778E+00 +6.061781E+00 -2.002778E+00 +3.389297E+02 
 +4.622106E+02 +5.781399E-01 +1.622137E+00 +5.781399E-01 +8.348735E+02 +1.847834E+00 +1.622137E+00 +1.847834E+00 +3.413327E+02 
 +4.663812E+02 +1.803440E+00 -6.627934E+00 +1.803440E+00 +8.124650E+02 +7.393824E+00 -6.627934E+00 +7.393824E+00 +3.466004E+02 
 +4.639402E+02 +2.253916E+00 -3.373813E+00 +2.253916E+00 +8.087904E+02 +9.162500E+00 -3.373813E+00 +9.162500E+00 +3.514253E+02 
 +4.622770E+02 +7.336002E+00 -2.843420E+00 +7.336002E+00 +8.105442E+02 +8.275775E+00 -2.843420E+00 +8.275775E+00 +3.552655E+02 
 +4.608853E+02 +8.788456E+00 -3.471312E+00 +8.788456E+00 +8.155567E+02 +7.995894E+00 -3.471312E+00 +7.995894E+00 +3.578633E+02 
 +4.645314E+02 +3.348704E+00 +2.183258E+00 +3.348704E+00 +8.281874E+02 +9.521902E+00 +2.183258E+00 +9.521902E+00 +3.580648E+02 
 +4.737523E+02 +5.822808E+00 +6.631962E+00 +5.822808E+00 +8.478501E+02 +1.267977E+01 +6.631962E+00 +1.267977E+01 +3.782395E+02 
 +4.612355E+02 -2.599140E+00 +3.879069E+00 -2.599140E+00 +8.522885E+02 +1.419857E+01 +3.879069E+00 +1.419857E+01 +4.190633E+02 
 +4.783346E+02 +1.239896E+00 +1.733408E+01 +1.239896E+00 +8.526405E+02 +1.111075E+01 +1.733408E+01 +1.111075E+01 +4.343878E+02 
 +4.765344E+02 +3.684807E+00 +9.091880E+00 +3.684807E+00 +8.392200E+02 +7.777096E+00 +9.091880E+00 +7.777096E+00 +4.096426E+02 
 +4.760465E+02 -4.293038E+00 -3.705353E+00 -4.293038E+00 +8.467004E+02 +8.873451E+00 -3.705353E+00 +8.873451E+00 +4.148018E+02 
 +4.822347E+02 -7.289296E+00 -5.708681E+00 -7.289296E+00 +8.566016E+02 +3.672662E+00 -5.708681E+00 +3.672662E+00 +4.039179E+02 
 +4.851426E+02 +1.496476E+00 -1.490262E+00 +1.496476E+00 +8.549466E+02 -6.546168E+00 -1.490262E+00 -6.546168E+00 +3.430957E+02 
 +4.889023E+02 +2.465387E+00 +5.329185E+00 +2.465387E+00 +8.520649E+02 -6.639977E+00 +5.329185E+00 -6.639977E+00 +3.189553E+02 
 +4.900166E+02 +4.334043E+00 +5.749010E+00 +4.334043E+00 +8.562613E+02 -1.162609E+00 +5.749010E+00 -1.162609E+00 +3.468572E+02 
 +4.565508E+02 -5.946376E+00 -1.228726E+01 -5.946376E+00 +8.345528E+02 +3.908391E+00 -1.228726E+01 +3.908391E+00 +3.602054E+02 
 +4.644283E+02 +7.808940E-01 -2.111581E+01 +7.808940E-01 +8.232262E+02 +6.723897E+00 -2.111581E+01 +6.723897E+00 +3.731980E+02 
 +5.082964E+02 +6.270131E+00 -4.694834E+00 +6.270131E+00 +8.274742E+02 +5.888761E+00 -4.694834E+00 +5.888761E+00 +3.852338E+02 
 +5.015017E+02 +8.823138E+00 -1.281789E+01 +8.823138E+00 +8.142607E+02 +2.832613E+00 -1.281789E+01 +2.832613E+00 +3.768632E+02 
 +4.963737E+02 +1.174995E+01 -9.465396E+00 +1.174995E+01 +8.082543E+02 +2.184366E+00 -9.465396E+00 +2.184366E+00 +3.689113E+02 
 +4.789029E+02 +1.094814E+01 +5.435203E-01 +1.094814E+01 +7.922149E+02 +5.002520E+00 +5.435203E-01 +5.002520E+00 +3.603596E+02 
 +4.776979E+02 -2.026718E+00 -2.099039E+00 -2.026718E+00 +7.985162E+02 +9.746835E+00 -2.099039E+00 +9.746835E+00 +3.774455E+02 
 +4.503549E+02 +1.047688E+01 -7.311963E+00 +1.047688E+01 +7.974396E+02 +1.253558E+01 -7.311963E+00 +1.253558E+01 +3.740118E+02 
 +4.364736E+02 +8.894858E+00 -9.858485E-01 +8.894858E+00 +7.978824E+02 +1.279579E+01 -9.858485E-01 +1.279579E+01 +3.615218E+02 
 +4.269141E+02 +3.049708E+00 +8.207609E-01 +3.049708E+00 +7.954560E+02 +1.123411E+01 +8.207609E-01 +1.123411E+01 +3.561250E+02 
 +4.452340E+02 +1.892578E+00 -5.558171E-01 +1.892578E+00 +8.070226E+02 +5.425854E+00 -5.558171E-01 +5.425854E+00 +3.600712E+02 
 +4.625946E+02 +4.819031E+00 +4.257847E+00 +4.819031E+00 +8.282912E+02 +4.084932E+00 +4.257847E+00 +4.084932E+00 +3.605064E+02 
 +4.586196E+02 +8.852125E+00 +2.949900E+00 +8.852125E+00 +8.310240E+02 +5.713592E+00 +2.949900E+00 +5.713592E+00 +3.663608E+02 
 +4.703532E+02 -6.617699E+00 -1.456369E+00 -6.617699E+00 +8.374802E+02 +7.749646E+00 -1.456369E+00 +7.749646E+00 +4.022207E+02 
 +4.824821E+02 -2.581114E+00 +1.208429E+01 -2.581114E+00 +8.579325E+02 +6.337561E+00 +1.208429E+01 +6.337561E+00 +4.164232E+02 
 +4.911791E+02 +5.212373E+00 +1.013823E+01 +5.212373E+00 +8.721370E+02 +1.094260E+00 +1.013823E+01 +1.094260E+00 +4.057716E+02 
 +4.864071E+02 -3.405533E+00 +5.309723E+00 -3.405533E+00 +8.625201E+02 +6.432517E+00 +5.309723E+00 +6.432517E+00 +4.139319E+02 
 +4.863934E+02 -4.365172E+00 -2.795744E+00 -4.365172E+00 +8.591170E+02 +7.196753E+00 -2.795744E+00 +7.196753E+00 +4.029767E+02 
 +4.882577E+02 +3.056964E+00 -1.347020E+00 +3.056964E+00 +8.564523E+02 -3.804765E+00 -1.347020E+00 -3.804765E+00 +3.434290E+02 
 +4.806329E+02 +1.961509E+00 +1.076592E+00 +1.961509E+00 +8.481959E+02 -8.769727E+00 +1.076592E+00 -8.769727E+00 +3.175157E+02 
 +4.823210E+02 +1.089098E+00 +7.224740E-01 +1.089098E+00 +8.448886E+02 -6.980941E+00 +7.224740E-01 -6.980941E+00 +3.361836E+02 
 +4.540951E+02 -1.146866E+01 -1.254287E+01 -1.146866E+01 +8.218932E+02 -1.997235E+00 -1.254287E+01 -1.997235E+00 +3.468227E+02 
 +4.579599E+02 -5.644542E+00 -1.951462E+01 -5.644542E+00 +8.123599E+02 +3.659777E+00 -1.951462E+01 +3.659777E+00 +3.558896E+02 
 +5.023602E+02 +2.837119E+00 -2.980526E+00 +2.837119E+00 +8.216479E+02 +2.891480E+00 -2.980526E+00 +2.891480E+00 +3.689628E+02 
 +5.012537E+02 +9.027261E+00 -6.971368E+00 +9.027261E+00 +8.118959E+02 +5.498495E-01 -6.971368E+00 +5.498495E-01 +3.671180E+02 
 +5.020457E+02 +1.385675E+01 -4.556057E+00 +1.385675E+01 +8.152918E+02 +2.768012E+00 -4.556057E+00 +2.768012E+00 +3.743508E+02 
 +5.170012E+02 +1.133062E+01 -5.721227E+00 +1.133062E+01 +8.221750E+02 +8.712528E+00 -5.721227E+00 +8.712528E+00 +3.977313E+02 
 +5.201416E+02 -7.055709E-02 -8.336720E+00 -7.055709E-02 +8.435344E+02 +1.419989E+01 -8.336720E+00 +1.419989E+01 +4.212572E+02 
 +4.655982E+02 -2.652487E+00 -6.682958E+00 -2.652487E+00 +8.602625E+02 +1.138013E+01 -6.682958E+00 +1.138013E+01 +4.050476E+02 
 +4.675255E+02 -7.931936E+00 +5.772956E+00 -7.931936E+00 +8.851571E+02 +7.846728E+00 +5.772956E+00 +7.846728E+00 +4.016359E+02 
 +4.366148E+02 -9.300376E+00 +1.153388E+01 -9.300376E+00 +8.584563E+02 +8.902777E+00 +1.153388E+01 +8.902777E+00 +3.879245E+02 
 +4.582314E+02 -3.287854E+00 +5.771356E+00 -3.287854E+00 +8.388848E+02 +4.988599E+00 +5.771356E+00 +4.988599E+00 +3.833361E+02 
 +4.439467E+02 +1.929428E+00 +4.417397E+00 +1.929428E+00 +8.147931E+02 +4.819149E+00 +4.417397E+00 +4.819149E+00 +3.625702E+02 
 +4.684499E+02 -7.567039E+00 -3.373324E+00 -7.567039E+00 +8.301030E+02 +9.465583E+00 -3.373324E+00 +9.465583E+00 +3.696372E+02 
 +4.755570E+02 -1.155515E+01 -4.906449E+00 -1.155515E+01 +8.380297E+02 +9.857530E+00 -4.906449E+00 +9.857530E+00 +3.854079E+02 
 +4.865215E+02 -5.403448E+00 +4.402619E-01 -5.403448E+00 +8.470475E+02 +9.518214E+00 +4.402619E-01 +9.518214E+00 +4.022914E+02 
 +4.812915E+02 -2.849202E+00 +1.593145E+00 -2.849202E+00 +8.353075E+02 +8.119176E+00 +1.593145E+00 +8.119176E+00 +3.973732E+02 
 +4.844963E+02 -4.899060E+00 +7.533126E+00 -4.899060E+00 +8.468734E+02 +6.062555E+00 +7.533126E+00 +6.062555E+00 +4.093448E+02 
 +4.916772E+02 +6.558935E-01 +3.957393E+00 +6.558935E-01 +8.624594E+02 +4.277976E-01 +3.957393E+00 +4.277976E-01 +3.976614E+02 
 +4.878766E+02 +6.104947E+00 -9.785977E-01 +6.104947E+00 +8.552741E+02 -6.383357E+00 -9.785977E-01 -6.383357E+00 +3.417807E+02 
 +4.759946E+02 +6.763266E+00 -4.523791E+00 +6.763266E+00 +8.451074E+02 -1.329165E+01 -4.523791E+00 -1.329165E+01 +3.117641E+02 
 +4.641357E+02 +5.207851E+00 -6.345876E+00 +5.207851E+00 +8.245574E+02 -1.940331E+01 -6.345876E+00 -1.940331E+01 +3.072933E+02 
 +4.354175E+02 -8.947763E+00 -1.432367E+01 -8.947763E+00 +7.959070E+02 -1.310264E+01 -1.432367E+01 -1.310264E+01 +3.111140E+02 
 +4.511242E+02 -2.718561E+00 -1.897264E+01 -2.718561E+00 +8.018505E+02 -1.449616E+00 -1.897264E+01 -1.449616E+00 +3.260809E+02 
 +4.932575E+02 +1.744406E-01 -7.298225E+00 +1.744406E-01 +8.244321E+02 -3.556791E-02 -7.298225E+00 -3.556791E-02 +3.463510E+02 
 +5.056107E+02 +6.928080E+00 -5.117664E+00 +6.928080E+00 +8.275802E+02 -8.728625E-01 -5.117664E+00 -8.728625E-01 +3.578397E+02 
 +5.303036E+02 +1.511911E+01 -5.396095E+00 +1.511911E+01 +8.434269E+02 +1.126987E+00 -5.396095E+00 +1.126987E+00 +3.841411E+02 
 +5.474966E+02 +1.089597E+01 -7.757024E+00 +1.089597E+01 +8.754894E+02 +1.777169E+00 -7.757024E+00 +1.777169E+00 +4.178022E+02 
 +4.956191E+02 -3.303716E-01 -6.956613E+00 -3.303716E-01 +8.829403E+02 +1.302992E+00 -6.956613E+00 +1.302992E+00 +4.100122E+02 
 +4.705801E+02 -7.884772E+00 -5.403739E+00 -7.884772E+00 +8.809205E+02 +2.628018E+00 -5.403739E+00 +2.628018E+00 +3.996387E+02 
 +4.632231E+02 -8.859515E+00 +3.257372E+00 -8.859515E+00 +8.761286E+02 +1.731182E+00 +3.257372E+00 +1.731182E+00 +3.973180E+02 
 +4.520855E+02 -8.551798E+00 +9.388312E+00 -8.551798E+00 +8.739767E+02 +4.090563E+00 +9.388312E+00 +4.090563E+00 +3.972099E+02 
 +4.693902E+02 -3.884939E+00 +7.650814E+00 -3.884939E+00 +8.876077E+02 +8.652334E+00 +7.650814E+00 +8.652334E+00 +4.053995E+02 
 +4.391381E+02 -4.943156E-01 +5.657019E+00 -4.943156E-01 +8.493596E+02 +1.165795E+01 +5.657019E+00 +1.165795E+01 +3.886426E+02 
 +4.821794E+02 -7.933033E+00 -1.079548E+01 -7.933033E+00 +8.390970E+02 +1.215022E+01 -1.079548E+01 +1.215022E+01 +3.932467E+02 
 +5.024414E+02 -9.262833E+00 -1.182049E+01 -9.262833E+00 +8.471360E+02 +7.321816E+00 -1.182049E+01 +7.321816E+00 +3.936973E+02 
 +4.954054E+02 -6.246937E+00 -8.199600E+00 -6.246937E+00 +8.470774E+02 +4.648663E+00 -8.199600E+00 +4.648663E+00 +3.974928E+02 
 +4.975897E+02 -2.170289E+00 -7.344142E+00 -2.170289E+00 +8.457900E+02 +3.442469E+00 -7.344142E+00 +3.442469E+00 +4.036071E+02 
 +4.992831E+02 +1.325179E+00 -1.946812E+00 +1.325179E+00 +8.510351E+02 +3.220891E+00 -1.946812E+00 +3.220891E+00 +4.041037E+02 
 +4.963500E+02 +5.026713E+00 +4.571658E+00 +5.026713E+00 +8.545247E+02 -3.918028E-01 +4.571658E+00 -3.918028E-01 +3.768572E+02 
 +4.877583E+02 +1.353867E+01 +5.438429E-01 +1.353867E+01 +8.548509E+02 -7.217122E+00 +5.438429E-01 -7.217122E+00 +3.374267E+02 
 +4.924270E+02 +1.392665E+01 -4.788073E+00 +1.392665E+01 +8.567461E+02 -1.856188E+01 -4.788073E+00 -1.856188E+01 +3.322753E+02 
 +4.746627E+02 +1.019337E+01 -9.334105E+00 +1.019337E+01 +8.449872E+02 -2.034025E+01 -9.334105E+00 -2.034025E+01 +3.340632E+02 
 +4.418068E+02 -5.565452E+00 -1.216449E+01 -5.565452E+00 +8.203779E+02 -1.020515E+01 -1.216449E+01 -1.020515E+01 +3.316460E+02 
 +4.556362E+02 +7.724422E-01 -1.868619E+01 +7.724422E-01 +8.254776E+02 -3.652854E+00 -1.868619E+01 -3.652854E+00 +3.298165E+02 
 +5.051160E+02 +1.460271E+00 -1.374444E+01 +1.460271E+00 +8.596682E+02 -6.689674E+00 -1.374444E+01 -6.689674E+00 +3.480169E+02 
 +5.219522E+02 +8.409140E+00 -1.018148E+01 +8.409140E+00 +8.676279E+02 -1.143218E+01 -1.018148E+01 -1.143218E+01 +3.558520E+02 
 +5.429945E+02 +1.248712E+01 -4.813747E+00 +1.248712E+01 +8.840508E+02 -6.948694E+00 -4.813747E+00 -6.948694E+00 +3.825972E+02 
 +5.394792E+02 +6.086720E+00 -1.517073E+01 +6.086720E+00 +9.097389E+02 +2.304277E+00 -1.517073E+01 +2.304277E+00 +4.152782E+02 
 +4.926713E+02 +2.207722E+00 -1.469947E+01 +2.207722E+00 +8.964894E+02 -1.222405E+00 -1.469947E+01 -1.222405E+00 +3.985202E+02 
 +4.652900E+02 -2.023893E+00 -4.150156E+00 -2.023893E+00 +8.762838E+02 -5.475908E-01 -4.150156E+00 -5.475908E-01 +3.818435E+02 
 +4.664382E+02 -6.180870E+00 -5.380407E+00 -6.180870E+00 +8.729879E+02 +2.590991E+00 -5.380407E+00 +2.590991E+00 +3.894359E+02 
 +4.633046E+02 -7.526015E+00 -3.491060E+00 -7.526015E+00 +8.765394E+02 +5.219600E+00 -3.491060E+00 +5.219600E+00 +3.940187E+02 
 +4.528745E+02 -1.848584E+00 +1.316968E+00 -1.848584E+00 +8.744223E+02 +1.644252E+01 +1.316968E+00 +1.644252E+01 +4.007727E+02 
 +4.633099E+02 +6.702751E+00 +3.670717E+00 +6.702751E+00 +8.740538E+02 +1.971073E+01 +3.670717E+00 +1.971073E+01 +4.164186E+02 
 +4.814393E+02 +8.150464E+00 -1.734782E+01 +8.150464E+00 +8.680588E+02 +1.022932E+01 -1.734782E+01 +1.022932E+01 +4.001409E+02 
 +5.107401E+02 +2.777819E+00 -1.969966E+01 +2.777819E+00 +8.613833E+02 +4.249019E+00 -1.969966E+01 +4.249019E+00 +3.834556E+02 
 +5.054833E+02 -2.409139E+00 -1.398980E+01 -2.409139E+00 +8.514382E+02 +1.325823E+00 -1.398980E+01 +1.325823E+00 +3.854402E+02 
 +4.982360E+02 -3.530949E-01 -9.797639E+00 -3.530949E-01 +8.463936E+02 +1.602987E+00 -9.797639E+00 +1.602987E+00 +3.802009E+02 
 +5.022988E+02 +4.169903E+00 -6.901051E+00 +4.169903E+00 +8.459049E+02 +6.883306E+00 -6.901051E+00 +6.883306E+00 +3.763275E+02 
 +5.094095E+02 +9.706337E+00 -2.201105E+00 +9.706337E+00 +8.543152E+02 +4.494622E+00 -2.201105E+00 +4.494622E+00 +3.648309E+02 
 +5.101212E+02 +2.099537E+01 -5.568168E+00 +2.099537E+01 +8.631853E+02 -8.307973E+00 -5.568168E+00 -8.307973E+00 +3.489327E+02 
 +4.841850E+02 +3.495669E+00 -1.640313E+00 +3.495669E+00 +8.347139E+02 -2.589244E+01 -1.640313E+00 -2.589244E+01 +3.506599E+02 
 +4.760626E+02 -2.913753E+00 -8.438875E+00 -2.913753E+00 +8.322389E+02 -2.736393E+01 -8.438875E+00 -2.736393E+01 +3.744753E+02 
 +4.426853E+02 -1.073576E+01 -1.055506E+01 -1.073576E+01 +8.351636E+02 -1.569416E+01 -1.055506E+01 -1.569416E+01 +3.791649E+02 
 +4.609740E+02 -8.473063E+00 -1.174179E+01 -8.473063E+00 +8.535849E+02 +1.781357E+00 -1.174179E+01 +1.781357E+00 +3.604726E+02 
 +5.090340E+02 -8.074286E+00 -7.107825E+00 -8.074286E+00 +8.652030E+02 +1.059406E+01 -7.107825E+00 +1.059406E+01 +3.548336E+02 
 +5.064819E+02 -3.429961E+00 -3.906606E+00 -3.429961E+00 +8.682233E+02 +6.197559E+00 -3.906606E+00 +6.197559E+00 +3.484726E+02 
 +4.996866E+02 -3.239623E+00 +8.423065E+00 -3.239623E+00 +8.845630E+02 +2.786096E+00 +8.423065E+00 +2.786096E+00 +3.553477E+02 
 +5.219875E+02 -7.096908E+00 -2.386654E+01 -7.096908E+00 +9.001182E+02 +7.912373E+00 -2.386654E+01 +7.912373E+00 +3.894801E+02 
 +5.335175E+02 -5.486079E+00 -3.036748E+01 -5.486079E+00 +9.023740E+02 +9.342178E+00 -3.036748E+01 +9.342178E+00 +4.044187E+02 
 +4.757926E+02 -2.086604E+00 -1.052206E+01 -2.086604E+00 +8.768465E+02 +2.971111E+00 -1.052206E+01 +2.971111E+00 +3.827836E+02 
 +4.631564E+02 -3.002163E+00 -7.291849E+00 -3.002163E+00 +8.733143E+02 +4.540545E+00 -7.291849E+00 +4.540545E+00 +3.861052E+02 
 +4.634779E+02 -1.968651E+00 -1.021966E+01 -1.968651E+00 +8.694637E+02 +1.072213E+01 -1.021966E+01 +1.072213E+01 +3.885869E+02 
 +4.621750E+02 -2.909023E-02 -3.177891E+00 -2.909023E-02 +8.714308E+02 +1.655993E+01 -3.177891E+00 +1.655993E+01 +4.135641E+02 
 +4.748644E+02 +1.831032E+00 -1.453049E+00 +1.831032E+00 +8.783368E+02 +1.967452E+01 -1.453049E+00 +1.967452E+01 +4.230136E+02 
 +4.957205E+02 +7.575050E+00 -2.212410E+01 +7.575050E+00 +8.842001E+02 +6.058922E+00 -2.212410E+01 +6.058922E+00 +3.806180E+02 
 +5.027736E+02 +9.876194E+00 -2.017456E+01 +9.876194E+00 +8.840225E+02 -7.465328E+00 -2.017456E+01 -7.465328E+00 +3.642850E+02 
 +5.177016E+02 +6.821119E+00 -1.734761E+01 +6.821119E+00 +8.836496E+02 -1.123576E+01 -1.734761E+01 -1.123576E+01 +3.744707E+02 
 +5.264673E+02 +1.326693E+01 -5.691228E+00 +1.326693E+01 +8.908410E+02 -1.080346E+01 -5.691228E+00 -1.080346E+01 +3.585044E+02 
 +5.321863E+02 +1.630310E+01 -5.417800E+00 +1.630310E+01 +9.018081E+02 -6.800427E+00 -5.417800E+00 -6.800427E+00 +3.556114E+02 
 +5.305964E+02 +1.872942E+01 -6.097549E+00 +1.872942E+01 +8.944333E+02 -6.764592E+00 -6.097549E+00 -6.764592E+00 +3.580760E+02 
 +5.311471E+02 +1.739603E+01 -1.072889E+01 +1.739603E+01 +8.765990E+02 -1.457176E+01 -1.072889E+01 -1.457176E+01 +3.621732E+02 
 +4.713159E+02 -5.322242E+00 -5.468278E-01 -5.322242E+00 +8.299651E+02 -1.941212E+01 -5.468278E-01 -1.941212E+01 +3.516913E+02 
 +4.774660E+02 -8.009764E+00 -5.473491E+00 -8.009764E+00 +8.390785E+02 -2.325440E+01 -5.473491E+00 -2.325440E+01 +3.862051E+02 
 +4.292048E+02 -1.283603E+01 -9.503712E+00 -1.283603E+01 +8.278521E+02 -1.016725E+01 -9.503712E+00 -1.016725E+01 +3.896209E+02 
 +4.864378E+02 -8.592401E+00 -3.166001E+00 -8.592401E+00 +8.619171E+02 +9.028538E+00 -3.166001E+00 +9.028538E+00 +3.872042E+02 
 +4.841286E+02 -6.284994E+00 -4.280675E+00 -6.284994E+00 +8.648830E+02 +1.320060E+01 -4.280675E+00 +1.320060E+01 +3.634684E+02 
 +4.783456E+02 -4.596195E+00 +2.322872E+00 -4.596195E+00 +8.740089E+02 +4.811155E+00 +2.322872E+00 +4.811155E+00 +3.531627E+02 
 +4.771813E+02 -1.965607E+00 +1.611310E+01 -1.965607E+00 +8.768761E+02 -4.316864E-01 +1.611310E+01 -4.316864E-01 +3.468233E+02 
 +5.282466E+02 -5.234264E+00 -2.560277E+01 -5.234264E+00 +8.990466E+02 +3.696106E+00 -2.560277E+01 +3.696106E+00 +3.880135E+02 
 +5.409523E+02 -1.036439E+01 -3.337430E+01 -1.036439E+01 +8.956488E+02 +1.270328E+01 -3.337430E+01 +1.270328E+01 +4.085774E+02 
 +5.170371E+02 -1.024236E+01 -2.193378E+01 -1.024236E+01 +8.811811E+02 +1.359799E+01 -2.193378E+01 +1.359799E+01 +4.008398E+02 
 +4.771652E+02 -4.355217E+00 -1.028489E+01 -4.355217E+00 +8.701604E+02 +6.078081E+00 -1.028489E+01 +6.078081E+00 +3.899102E+02 
 +4.597683E+02 -1.381278E+00 -6.731131E+00 -1.381278E+00 +8.652462E+02 +8.818503E+00 -6.731131E+00 +8.818503E+00 +3.934023E+02 
 +4.666027E+02 -1.421551E+00 -4.027201E+00 -1.421551E+00 +8.719576E+02 +1.547257E+01 -4.027201E+00 +1.547257E+01 +4.187596E+02 
 +4.723621E+02 +4.985638E+00 -8.321940E+00 +4.985638E+00 +8.720585E+02 +8.557180E+00 -8.321940E+00 +8.557180E+00 +3.963438E+02 
 +5.095440E+02 +1.006714E+01 -2.367954E+01 +1.006714E+01 +8.835165E+02 -1.537947E+00 -2.367954E+01 -1.537947E+00 +3.611976E+02 
 +5.044353E+02 +8.007899E+00 -1.819324E+01 +8.007899E+00 +8.867460E+02 -7.331482E+00 -1.819324E+01 -7.331482E+00 +3.577663E+02 
 +5.147011E+02 +9.699181E+00 -2.184533E+01 +9.699181E+00 +8.997726E+02 -1.273498E+01 -2.184533E+01 -1.273498E+01 +3.517762E+02 
 +5.327094E+02 +1.389941E+01 -4.834536E-01 +1.389941E+01 +8.983774E+02 -1.388531E+01 -4.834536E-01 -1.388531E+01 +3.298052E+02 
 +5.326529E+02 +1.381068E+01 -3.397645E-01 +1.381068E+01 +8.934968E+02 -1.242986E+01 -3.397645E-01 -1.242986E+01 +3.381271E+02 
 +5.243124E+02 +1.440514E+01 +1.363837E+00 +1.440514E+01 +8.920515E+02 -1.022816E+01 +1.363837E+00 -1.022816E+01 +3.601866E+02 
 +5.212772E+02 +5.917675E+00 -5.960191E+00 +5.917675E+00 +8.767053E+02 -9.625357E+00 -5.960191E+00 -9.625357E+00 +3.687287E+02 
 +4.733444E+02 -7.127996E+00 -1.139717E+00 -7.127996E+00 +8.347496E+02 -1.913883E+01 -1.139717E+00 -1.913883E+01 +3.528711E+02 
 +4.580651E+02 -3.837044E+00 -8.153933E-01 -3.837044E+00 +8.403369E+02 -1.506587E+01 -8.153933E-01 -1.506587E+01 +3.742893E+02 
 +4.297257E+02 -9.650308E+00 +1.362942E+00 -9.650308E+00 +8.288197E+02 +5.297665E-01 +1.362942E+00 +5.297665E-01 +3.777669E+02 
 +4.876816E+02 -1.281512E+01 -2.474680E+00 -1.281512E+01 +8.645813E+02 +7.133075E+00 -2.474680E+00 +7.133075E+00 +3.882608E+02 
 +4.713454E+02 -1.279106E+01 -1.075461E+01 -1.279106E+01 +8.763698E+02 +3.170742E+00 -1.075461E+01 +3.170742E+00 +3.783809E+02 
 +4.515355E+02 -3.752024E+00 -3.204470E+00 -3.752024E+00 +8.672742E+02 -4.849833E-01 -3.204470E+00 -4.849833E-01 +3.562820E+02 
 +4.785089E+02 -6.251509E-01 +1.714787E+01 -6.251509E-01 +8.687334E+02 +5.640655E-01 +1.714787E+01 +5.640655E-01 +3.492255E+02 
 +5.273026E+02 -8.220691E+00 -2.195459E+01 -8.220691E+00 +8.934530E+02 +6.661855E+00 -2.195459E+01 +6.661855E+00 +3.911818E+02 
 +5.318588E+02 -9.569093E+00 -2.849656E+01 -9.569093E+00 +8.892713E+02 +8.291679E+00 -2.849656E+01 +8.291679E+00 +4.113076E+02 
 +5.285558E+02 -1.117683E+01 -2.261181E+01 -1.117683E+01 +8.788119E+02 +1.134721E+01 -2.261181E+01 +1.134721E+01 +4.086156E+02 
 +5.164666E+02 -1.215430E+01 -1.825055E+01 -1.215430E+01 +8.735116E+02 +1.077609E+01 -1.825055E+01 +1.077609E+01 +4.015384E+02 
 +4.652660E+02 -6.249101E+00 -2.027742E+00 -6.249101E+00 +8.593489E+02 +6.917326E+00 -2.027742E+00 +6.917326E+00 +3.985423E+02 
 +4.667981E+02 +2.153925E+00 -6.928684E+00 +2.153925E+00 +8.660508E+02 +5.532315E+00 -6.928684E+00 +5.532315E+00 +3.968982E+02 
 +4.845799E+02 +1.037841E+01 -1.861663E+01 +1.037841E+01 +8.707283E+02 -1.888116E+00 -1.861663E+01 -1.888116E+00 +3.614131E+02 
 +5.011433E+02 +1.377305E+01 -1.935753E+01 +1.377305E+01 +8.785791E+02 -3.683411E+00 -1.935753E+01 -3.683411E+00 +3.491402E+02 
 +5.159459E+02 +1.287547E+01 -1.793363E+01 +1.287547E+01 +8.914786E+02 -1.880216E+00 -1.793363E+01 -1.880216E+00 +3.644899E+02 
 +5.089775E+02 +1.147995E+01 -2.196940E+01 +1.147995E+01 +8.873266E+02 -4.592522E+00 -2.196940E+01 -4.592522E+00 +3.448413E+02 
 +5.312658E+02 +1.333895E+01 +8.384963E+00 +1.333895E+01 +8.909755E+02 -5.438071E+00 +8.384963E+00 -5.438071E+00 +3.347950E+02 
 +5.254198E+02 +1.230455E+01 +4.580213E+00 +1.230455E+01 +8.789737E+02 -7.374913E+00 +4.580213E+00 -7.374913E+00 +3.530694E+02 
 +4.981662E+02 +4.467028E+00 +4.623824E+00 +4.467028E+00 +8.533182E+02 -1.369961E+01 +4.623824E+00 -1.369961E+01 +3.680423E+02 
 +4.899676E+02 -4.108184E+00 -6.239470E-01 -4.108184E+00 +8.404898E+02 -1.744926E+01 -6.239470E-01 -1.744926E+01 +3.631342E+02 
 +4.772999E+02 -6.586346E+00 +8.661130E-02 -6.586346E+00 +8.480864E+02 -1.303001E+01 +8.661130E-02 -1.303001E+01 +3.570068E+02 
 +4.624211E+02 -3.907923E+00 +7.529704E+00 -3.907923E+00 +8.609992E+02 -3.163996E+00 +7.529704E+00 -3.163996E+00 +3.770586E+02 
 +4.543955E+02 -1.046583E+01 +1.250512E+01 -1.046583E+01 +8.684759E+02 +1.489718E+00 +1.250512E+01 +1.489718E+00 +3.908457E+02 
 +4.549322E+02 -1.189487E+01 +7.148482E+00 -1.189487E+01 +8.663233E+02 +9.993684E-01 +7.148482E+00 +9.993684E-01 +3.790252E+02 
 +4.706581E+02 -7.528219E+00 -5.836484E+00 -7.528219E+00 +8.687101E+02 +6.007012E+00 -5.836484E+00 +6.007012E+00 +3.828999E+02 
 +4.350567E+02 -3.173135E+00 -2.099330E+01 -3.173135E+00 +8.509644E+02 +3.235341E+00 -2.099330E+01 +3.235341E+00 +3.537271E+02 
 +4.794932E+02 -1.768008E+00 +5.938271E+00 -1.768008E+00 +8.694192E+02 -3.423236E-01 +5.938271E+00 -3.423236E-01 +3.505565E+02 
 +5.255113E+02 -7.818013E+00 -2.170023E+01 -7.818013E+00 +8.872377E+02 +4.642982E+00 -2.170023E+01 +4.642982E+00 +3.907796E+02 
 +5.349732E+02 -9.409177E+00 -2.635036E+01 -9.409177E+00 +8.910958E+02 +4.238911E+00 -2.635036E+01 +4.238911E+00 +4.127539E+02 
 +5.197114E+02 -7.764634E+00 -1.475167E+01 -7.764634E+00 +8.763938E+02 +6.589649E-01 -1.475167E+01 +6.589649E-01 +4.041376E+02 
 +5.293878E+02 -1.047925E+01 -1.839456E+01 -1.047925E+01 +8.769092E+02 +1.645080E+00 -1.839456E+01 +1.645080E+00 +4.121395E+02 
 +4.989533E+02 -7.591591E+00 -6.904776E+00 -7.591591E+00 +8.622145E+02 -3.543822E+00 -6.904776E+00 -3.543822E+00 +3.990377E+02 
 +4.776942E+02 +4.896289E+00 -8.313674E-01 +4.896289E+00 +8.570017E+02 -1.111067E+01 -8.313674E-01 -1.111067E+01 +3.550856E+02 
 +4.920012E+02 +1.316995E+01 -9.348853E+00 +1.316995E+01 +8.687378E+02 -9.567263E+00 -9.348853E+00 -9.567263E+00 +3.360576E+02 
 +4.988754E+02 +1.625533E+01 +2.361289E-01 +1.625533E+01 +8.760176E+02 +2.287189E-02 +2.361289E-01 +2.287189E-02 +3.382661E+02 
 +5.049793E+02 +1.569732E+01 -1.547952E+01 +1.569732E+01 +8.848484E+02 +4.272031E+00 -1.547952E+01 +4.272031E+00 +3.458559E+02 
 +5.162921E+02 +1.014849E+01 -1.456464E+01 +1.014849E+01 +8.877538E+02 +5.259451E+00 -1.456464E+01 +5.259451E+00 +3.457747E+02 
 +5.227793E+02 +5.531894E+00 +6.933038E+00 +5.531894E+00 +8.750510E+02 +3.199328E+00 +6.933038E+00 +3.199328E+00 +3.392965E+02 
 +4.875874E+02 +2.679117E+00 +9.603124E-01 +2.679117E+00 +8.416773E+02 -7.342169E+00 +9.603124E-01 -7.342169E+00 +3.442133E+02 
 +4.805812E+02 -1.096402E+00 +5.361447E+00 -1.096402E+00 +8.365608E+02 -1.010592E+01 +5.361447E+00 -1.010592E+01 +3.641769E+02 
 +4.836569E+02 -4.724429E+00 +1.257116E-01 -4.724429E+00 +8.398660E+02 -1.180559E+01 +1.257116E-01 -1.180559E+01 +3.628590E+02 
 +4.559958E+02 -3.967284E+00 +6.562941E+00 -3.967284E+00 +8.638134E+02 -2.130594E+00 +6.562941E+00 -2.130594E+00 +3.734980E+02 
 +4.554514E+02 -4.347742E+00 +8.749114E+00 -4.347742E+00 +8.671792E+02 -1.375853E+00 +8.749114E+00 -1.375853E+00 +4.022747E+02 
 +4.486042E+02 -8.242574E+00 +1.202698E+01 -8.242574E+00 +8.633689E+02 +1.862301E+00 +1.202698E+01 +1.862301E+00 +3.894345E+02 
 +4.456398E+02 -7.435360E+00 +1.549579E+01 -7.435360E+00 +8.674509E+02 +7.683509E+00 +1.549579E+01 +7.683509E+00 +3.772778E+02 
 +4.591720E+02 -4.422537E+00 +1.187155E+01 -4.422537E+00 +8.840442E+02 +1.624293E+00 +1.187155E+01 +1.624293E+00 +3.813459E+02 
 +4.615739E+02 -2.166650E+00 -2.687028E+01 -2.166650E+00 +8.774122E+02 -1.942937E+00 -2.687028E+01 -1.942937E+00 +3.677929E+02 
 +4.850993E+02 -2.824926E+00 +2.081298E+01 -2.824926E+00 +8.715744E+02 -1.413840E+00 +2.081298E+01 -1.413840E+00 +3.760858E+02 
 +5.027943E+02 -3.660069E+00 +1.294309E+01 -3.660069E+00 +8.681674E+02 -6.277138E+00 +1.294309E+01 -6.277138E+00 +3.835481E+02 
 +5.203559E+02 -1.352887E+00 -2.887933E+00 -1.352887E+00 +8.745890E+02 -7.164366E+00 -2.887933E+00 -7.164366E+00 +4.003070E+02 
 +5.363483E+02 -1.020275E+00 -1.880389E+01 -1.020275E+00 +8.861006E+02 -9.228718E+00 -1.880389E+01 -9.228718E+00 +4.233632E+02 
 +5.227318E+02 +6.673284E-01 -1.072826E+01 +6.673284E-01 +8.758664E+02 -1.125437E+01 -1.072826E+01 -1.125437E+01 +4.026399E+02 
 +5.199250E+02 +7.513381E+00 -2.644621E+01 +7.513381E+00 +8.689967E+02 -1.170984E+01 -2.644621E+01 -1.170984E+01 +3.829287E+02 
 +5.282450E+02 +5.112328E+00 -1.434837E+01 +5.112328E+00 +8.713302E+02 -1.177707E+01 -1.434837E+01 -1.177707E+01 +3.644014E+02 
 +5.120218E+02 +6.787472E+00 -1.748743E+01 +6.787472E+00 +8.674837E+02 -8.496902E+00 -1.748743E+01 -8.496902E+00 +3.494209E+02 
 +5.017715E+02 +9.234134E+00 -7.971167E+00 +9.234134E+00 +8.694326E+02 +1.445370E+00 -7.971167E+00 +1.445370E+00 +3.339152E+02 
 +4.966981E+02 +8.801786E+00 -2.315825E+01 +8.801786E+00 +8.765974E+02 +9.708822E+00 -2.315825E+01 +9.708822E+00 +3.267435E+02 
 +5.079809E+02 -7.405176E-01 -1.964914E+01 -7.405176E-01 +8.854594E+02 +1.245750E+01 -1.964914E+01 +1.245750E+01 +3.455572E+02 
 +5.167496E+02 -5.116043E+00 -1.346271E+01 -5.116043E+00 +8.855200E+02 +1.196005E+01 -1.346271E+01 +1.196005E+01 +3.506565E+02 
 +5.201897E+02 -8.409917E+00 -1.971930E+01 -8.409917E+00 +8.924037E+02 +7.942245E+00 -1.971930E+01 +7.942245E+00 +3.564947E+02 
 +5.195929E+02 -1.123598E+01 -1.174871E+01 -1.123598E+01 +8.992720E+02 +5.693143E+00 -1.174871E+01 +5.693143E+00 +3.660593E+02 
 +5.083103E+02 -9.649406E+00 -2.805711E+01 -9.649406E+00 +8.920863E+02 -2.468381E-01 -2.805711E+01 -2.468381E-01 +3.643844E+02 
 +4.630511E+02 -5.289103E+00 +1.519478E+01 -5.289103E+00 +8.705174E+02 +1.203778E+01 +1.519478E+01 +1.203778E+01 +3.835796E+02 
 +4.620902E+02 -4.874546E+00 +1.323749E+01 -4.874546E+00 +8.663666E+02 +8.947610E+00 +1.323749E+01 +8.947610E+00 +4.001104E+02 
 +4.526066E+02 -7.470868E+00 +1.304002E+01 -7.470868E+00 +8.627549E+02 +6.902014E+00 +1.304002E+01 +6.902014E+00 +3.873020E+02 
 +4.400069E+02 -9.026041E+00 +1.597788E+01 -9.026041E+00 +8.639670E+02 +5.556130E+00 +1.597788E+01 +5.556130E+00 +3.731300E+02 
 +4.406969E+02 -3.669744E+00 +8.983717E+00 -3.669744E+00 +8.739754E+02 -1.940998E+00 +8.983717E+00 -1.940998E+00 +3.833763E+02 
 +4.525231E+02 +1.114247E+00 -1.859972E+01 +1.114247E+00 +8.723830E+02 +1.721252E+00 -1.859972E+01 +1.721252E+00 +3.775829E+02 
 +4.849105E+02 -1.576874E+00 -4.331431E+00 -1.576874E+00 +8.659161E+02 +6.509515E+00 -4.331431E+00 +6.509515E+00 +3.711896E+02 
 +5.131235E+02 -6.758529E+00 +6.576508E-01 -6.758529E+00 +8.580924E+02 +3.383821E+00 +6.576508E-01 +3.383821E+00 +3.803999E+02 
 +5.124775E+02 -4.151470E+00 -1.905637E+00 -4.151470E+00 +8.525514E+02 +2.479157E+00 -1.905637E+00 +2.479157E+00 +3.857992E+02 
 +5.264552E+02 -1.099136E+00 -2.350250E+01 -1.099136E+00 +8.744616E+02 -7.556240E+00 -2.350250E+01 -7.556240E+00 +4.122620E+02 
 +5.324984E+02 -2.159292E+00 -1.238792E+01 -2.159292E+00 +8.894918E+02 -1.594338E+01 -1.238792E+01 -1.594338E+01 +4.097661E+02 
 +5.198920E+02 -2.997940E-02 -1.884212E+01 -2.997940E-02 +8.800724E+02 -8.948005E+00 -1.884212E+01 -8.948005E+00 +3.667509E+02 
 +5.249781E+02 -4.162313E+00 +5.616619E+00 -4.162313E+00 +8.763392E+02 -3.296885E+00 +5.616619E+00 -3.296885E+00 +3.382398E+02 
 +5.083072E+02 -8.934704E+00 +6.066476E+00 -8.934704E+00 +8.654548E+02 -6.623323E+00 +6.066476E+00 -6.623323E+00 +3.241717E+02 
 +5.034144E+02 -5.759897E+00 +2.156756E+01 -5.759897E+00 +8.617928E+02 -2.204224E+00 +2.156756E+01 -2.204224E+00 +3.226436E+02 
 +4.941650E+02 +2.115991E+00 -1.411939E+01 +2.115991E+00 +8.671140E+02 +3.916054E+00 -1.411939E+01 +3.916054E+00 +3.261178E+02 
 +4.973843E+02 -9.282736E+00 -2.008966E+01 -9.282736E+00 +8.760157E+02 +7.123979E+00 -2.008966E+01 +7.123979E+00 +3.395011E+02 
 +5.079876E+02 -7.265266E+00 -1.962898E+01 -7.265266E+00 +8.794931E+02 +1.000967E+01 -1.962898E+01 +1.000967E+01 +3.521833E+02 
 +5.090247E+02 -6.693969E+00 -2.630045E+01 -6.693969E+00 +8.851190E+02 +1.366902E+01 -2.630045E+01 +1.366902E+01 +3.549549E+02 
 +5.144658E+02 -1.035642E+01 -1.999627E+01 -1.035642E+01 +8.979043E+02 +1.361611E+01 -1.999627E+01 +1.361611E+01 +3.642726E+02 
 +5.202774E+02 -1.028988E+01 -3.479101E+01 -1.028988E+01 +9.065439E+02 +1.144117E+01 -3.479101E+01 +1.144117E+01 +3.839697E+02 
 +4.605847E+02 -5.630872E+00 +1.630420E+01 -5.630872E+00 +8.669637E+02 +1.820238E+01 +1.630420E+01 +1.820238E+01 +3.795500E+02 
 +4.624085E+02 -2.341924E+00 +1.497897E+01 -2.341924E+00 +8.682750E+02 +1.076256E+01 +1.497897E+01 +1.076256E+01 +3.874409E+02 
 +4.480136E+02 -6.218402E+00 +1.359939E+01 -6.218402E+00 +8.657708E+02 +5.256963E+00 +1.359939E+01 +5.256963E+00 +3.772701E+02 
 +4.302503E+02 -7.996225E+00 +1.307572E+01 -7.996225E+00 +8.600202E+02 -2.516703E+00 +1.307572E+01 -2.516703E+00 +3.632035E+02 
 +4.380872E+02 -5.730151E+00 +9.190671E+00 -5.730151E+00 +8.646282E+02 -1.690360E+00 +9.190671E+00 -1.690360E+00 +3.813979E+02 
 +4.674921E+02 -9.596531E-01 -1.612394E+01 -9.596531E-01 +8.740046E+02 +1.256177E+00 -1.612394E+01 +1.256177E+00 +3.877785E+02 
 +4.956406E+02 +2.581332E+00 -2.057734E+01 +2.581332E+00 +8.760720E+02 -3.965258E+00 -2.057734E+01 -3.965258E+00 +3.599811E+02 
 +5.132099E+02 -1.580948E-01 -1.413443E+01 -1.580948E-01 +8.759811E+02 -8.293917E+00 -1.413443E+01 -8.293917E+00 +3.637363E+02 
 +5.208134E+02 +4.455485E+00 -1.079858E+01 +4.455485E+00 +8.737900E+02 -1.134081E+01 -1.079858E+01 -1.134081E+01 +3.735110E+02 
 +5.118118E+02 +5.597695E+00 -2.458623E+01 +5.597695E+00 +8.704181E+02 -1.169451E+01 -2.458623E+01 -1.169451E+01 +3.805124E+02 
 +5.086855E+02 +2.695080E+00 -7.569870E+00 +2.695080E+00 +8.775383E+02 -1.461821E+01 -7.569870E+00 -1.461821E+01 +3.784997E+02 
 +5.140977E+02 -3.319132E+00 +3.565013E+00 -3.319132E+00 +8.864179E+02 -1.118957E+01 +3.565013E+00 -1.118957E+01 +3.537406E+02 
 +5.225969E+02 -8.794870E+00 +9.600490E+00 -8.794870E+00 +8.901145E+02 -5.397757E+00 +9.600490E+00 -5.397757E+00 +3.397039E+02 
 +5.025946E+02 -1.522296E+01 +1.650536E+01 -1.522296E+01 +8.680653E+02 -5.405537E+00 +1.650536E+01 -5.405537E+00 +3.162120E+02 
 +5.016725E+02 -1.752625E+01 +3.014393E+01 -1.752625E+01 +8.530750E+02 -6.725116E+00 +3.014393E+01 -6.725116E+00 +3.286123E+02 
 +5.107925E+02 -5.288576E+00 -4.035142E+00 -5.288576E+00 +8.510570E+02 -6.086568E+00 -4.035142E+00 -6.086568E+00 +3.544309E+02 
 +4.887072E+02 -1.492488E+01 -2.324601E+01 -1.492488E+01 +8.488118E+02 +1.220787E+00 -2.324601E+01 +1.220787E+00 +3.466912E+02 
 +4.964744E+02 -1.434550E+01 -3.548112E+01 -1.434550E+01 +8.668476E+02 +8.668709E+00 -3.548112E+01 +8.668709E+00 +3.536198E+02 
 +5.082471E+02 -9.869061E+00 -3.062237E+01 -9.869061E+00 +8.833846E+02 +1.502390E+01 -3.062237E+01 +1.502390E+01 +3.628035E+02 
 +5.338371E+02 -8.051755E+00 -2.185694E+01 -8.051755E+00 +9.132643E+02 +1.939902E+01 -2.185694E+01 +1.939902E+01 +3.850590E+02 
 +5.327071E+02 -1.065298E+01 -3.688694E+01 -1.065298E+01 +9.150573E+02 +2.142361E+01 -3.688694E+01 +2.142361E+01 +3.983134E+02 
 +4.610403E+02 -5.395591E+00 +1.615642E+01 -5.395591E+00 +8.669956E+02 +1.826798E+01 +1.615642E+01 +1.826798E+01 +3.857794E+02 
 +4.620268E+02 -9.811769E-02 +1.483914E+01 -9.811769E-02 +8.715017E+02 +5.527603E+00 +1.483914E+01 +5.527603E+00 +3.929036E+02 
 +4.435745E+02 -1.643058E+00 +1.812648E+01 -1.643058E+00 +8.656016E+02 -1.749368E+00 +1.812648E+01 -1.749368E+00 +3.786505E+02 
 +4.317154E+02 -3.243722E+00 +1.239043E+01 -3.243722E+00 +8.599717E+02 -6.549506E+00 +1.239043E+01 -6.549506E+00 +3.646880E+02 
 +4.366937E+02 -3.132453E+00 +1.550062E+01 -3.132453E+00 +8.603852E+02 -1.273636E+01 +1.550062E+01 -1.273636E+01 +3.819560E+02 
 +4.849301E+02 +1.800234E+00 -9.291090E+00 +1.800234E+00 +8.762471E+02 -8.783614E+00 -9.291090E+00 -8.783614E+00 +3.909959E+02 
 +5.111619E+02 +4.788450E-01 -2.212082E+01 +4.788450E-01 +8.838228E+02 -7.122411E+00 -2.212082E+01 -7.122411E+00 +3.646152E+02 
 +5.116930E+02 -4.544981E+00 -2.360817E+01 -4.544981E+00 +8.855482E+02 -1.104635E+01 -2.360817E+01 -1.104635E+01 +3.548386E+02 
 +5.094245E+02 -6.212671E-02 -1.974781E+01 -6.212671E-02 +8.776481E+02 -1.304013E+01 -1.974781E+01 -1.304013E+01 +3.494127E+02 
 +4.984724E+02 +5.881600E+00 -8.334061E+00 +5.881600E+00 +8.677565E+02 -9.850742E+00 -8.334061E+00 -9.850742E+00 +3.505282E+02 
 +4.873368E+02 +9.452304E+00 +2.323077E+00 +9.452304E+00 +8.583097E+02 -7.323366E+00 +2.323077E+00 -7.323366E+00 +3.411327E+02 
 +4.856112E+02 +7.186324E+00 +1.770251E+01 +7.186324E+00 +8.435238E+02 -8.702969E+00 +1.770251E+01 -8.702969E+00 +3.385754E+02 
 +4.944952E+02 +5.120890E+00 +9.191388E+00 +5.120890E+00 +8.402832E+02 -9.718511E-01 +9.191388E+00 -9.718511E-01 +3.510635E+02 
 +4.818012E+02 -1.781579E+00 +1.686987E+01 -1.781579E+00 +8.372014E+02 +3.177131E-02 +1.686987E+01 +3.177131E-02 +3.341235E+02 
 +4.926480E+02 -9.902607E+00 +2.300424E+01 -9.902607E+00 +8.466087E+02 -8.994720E+00 +2.300424E+01 -8.994720E+00 +3.448080E+02 
 +5.169591E+02 -1.829835E+00 +2.151199E+00 -1.829835E+00 +8.521972E+02 -9.867704E+00 +2.151199E+00 -9.867704E+00 +3.654812E+02 
 +4.896563E+02 -1.055124E+01 -1.404988E+01 -1.055124E+01 +8.456649E+02 -1.527288E+00 -1.404988E+01 -1.527288E+00 +3.673191E+02 
 +4.891013E+02 -1.682185E+01 -5.087269E+01 -1.682185E+01 +8.591399E+02 +2.968321E+00 -5.087269E+01 +2.968321E+00 +3.604263E+02 
 +5.072220E+02 -1.181530E+01 -3.096515E+01 -1.181530E+01 +8.628306E+02 +5.066938E+00 -3.096515E+01 +5.066938E+00 +3.618648E+02 
 +5.340048E+02 -5.754870E+00 -1.381781E+01 -5.754870E+00 +8.745151E+02 +9.742676E+00 -1.381781E+01 +9.742676E+00 +3.902412E+02 
 +5.305528E+02 -7.345115E+00 -2.715223E+01 -7.345115E+00 +8.905503E+02 +1.821205E+01 -2.715223E+01 +1.821205E+01 +4.013547E+02 
 +4.483203E+02 -6.451538E+00 +1.348475E+01 -6.451538E+00 +8.458376E+02 +1.036501E+01 +1.348475E+01 +1.036501E+01 +3.695919E+02 
 +4.676256E+02 +2.078748E+00 +9.296799E+00 +2.078748E+00 +8.714228E+02 -6.819611E-01 +9.296799E+00 -6.819611E-01 +3.798009E+02 
 +4.522387E+02 +6.754132E+00 +1.460270E+01 +6.754132E+00 +8.647159E+02 -1.113216E+01 +1.460270E+01 -1.113216E+01 +3.722470E+02 
 +4.404818E+02 +9.010427E+00 +1.198240E+01 +9.010427E+00 +8.602875E+02 -1.765923E+01 +1.198240E+01 -1.765923E+01 +3.777978E+02 
 +4.428474E+02 +7.532842E+00 +1.549076E+01 +7.532842E+00 +8.640652E+02 -1.654546E+01 +1.549076E+01 -1.654546E+01 +3.939831E+02 
 +4.710489E+02 +4.404481E+00 +6.385623E+00 +4.404481E+00 +8.738155E+02 -8.830024E+00 +6.385623E+00 -8.830024E+00 +3.939471E+02 
 +5.222992E+02 +6.138395E-01 -3.034517E+01 +6.138395E-01 +8.936734E+02 -4.133753E+00 -3.034517E+01 -4.133753E+00 +3.851588E+02 
 +5.142647E+02 -4.892180E+00 -2.893431E+01 -4.892180E+00 +8.859546E+02 -5.477785E+00 -2.893431E+01 -5.477785E+00 +3.541031E+02 
 +4.994272E+02 -6.639383E-01 -2.656550E+01 -6.639383E-01 +8.739477E+02 -6.463202E+00 -2.656550E+01 -6.463202E+00 +3.283923E+02 
 +4.955132E+02 +8.956049E+00 -1.026101E+00 +8.956049E+00 +8.679431E+02 -9.884494E+00 -1.026101E+00 -9.884494E+00 +3.369962E+02 
 +4.915032E+02 +9.710609E+00 +2.601501E-01 +9.710609E+00 +8.557018E+02 -9.808680E+00 +2.601501E-01 -9.808680E+00 +3.390377E+02 
 +4.921886E+02 +5.457134E+00 +1.573143E+01 +5.457134E+00 +8.518388E+02 -1.302221E+01 +1.573143E+01 -1.302221E+01 +3.512891E+02 
 +4.934653E+02 +3.955613E+00 +2.081091E+01 +3.955613E+00 +8.540959E+02 -1.058298E+01 +2.081091E+01 -1.058298E+01 +3.749237E+02 
 +4.847174E+02 +1.064878E+00 +1.832121E+01 +1.064878E+00 +8.436501E+02 -3.094163E+00 +1.832121E+01 -3.094163E+00 +3.555635E+02 
 +4.991059E+02 -3.606339E+00 +1.612693E+01 -3.606339E+00 +8.594149E+02 -4.827156E+00 +1.612693E+01 -4.827156E+00 +3.617421E+02 
 +5.059958E+02 +3.043482E-03 +1.075794E+01 +3.043482E-03 +8.660674E+02 -5.017776E+00 +1.075794E+01 -5.017776E+00 +3.761783E+02 
 +5.000531E+02 -2.174028E-02 +5.760761E+00 -2.174028E-02 +8.603496E+02 -5.415966E+00 +5.760761E+00 -5.415966E+00 +3.993935E+02 
 +4.853957E+02 -9.026321E+00 -4.316696E+01 -9.026321E+00 +8.403416E+02 -5.514781E+00 -4.316696E+01 -5.514781E+00 +3.772599E+02 
 +5.064135E+02 -6.234093E+00 -2.216262E+01 -6.234093E+00 +8.377170E+02 +3.022595E+00 -2.216262E+01 +3.022595E+00 +3.684347E+02 
 +5.226128E+02 -3.043519E+00 -6.122228E+00 -3.043519E+00 +8.485047E+02 +5.761135E+00 -6.122228E+00 +5.761135E+00 +3.967812E+02 
 +5.288348E+02 -3.359236E+00 -7.913789E+00 -3.359236E+00 +8.661497E+02 +1.092355E+01 -7.913789E+00 +1.092355E+01 +4.058484E+02 
 +4.650495E+02 -6.843689E+00 +1.109706E+00 -6.843689E+00 +8.488014E+02 +1.484007E+01 +1.109706E+00 +1.484007E+01 +3.435152E+02 
 +4.782001E+02 -9.899616E-01 +2.207502E+00 -9.899616E-01 +8.674164E+02 +1.165028E+01 +2.207502E+00 +1.165028E+01 +3.352980E+02 
 +4.831252E+02 +6.728517E+00 +9.372623E-01 +6.728517E+00 +8.727529E+02 -2.796733E+00 +9.372623E-01 -2.796733E+00 +3.572968E+02 
 +4.455195E+02 +9.213496E+00 +1.183003E+01 +9.213496E+00 +8.600240E+02 -1.667016E+01 +1.183003E+01 -1.667016E+01 +3.918458E+02 
 +4.474015E+02 +6.865580E+00 +1.135340E+01 +6.865580E+00 +8.681120E+02 -1.366705E+01 +1.135340E+01 -1.366705E+01 +4.076840E+02 
 +4.482555E+02 +4.774809E+00 +1.091527E+01 +4.774809E+00 +8.666995E+02 -8.665710E+00 +1.091527E+01 -8.665710E+00 +3.920980E+02 
 +5.250982E+02 +4.859651E+00 -3.822367E+01 +4.859651E+00 +8.967630E+02 -5.524008E+00 -3.822367E+01 -5.524008E+00 +3.976293E+02 
 +5.159596E+02 +1.006114E+00 -3.284454E+01 +1.006114E+00 +8.819128E+02 -4.900068E-01 -3.284454E+01 -4.900068E-01 +3.567911E+02 
 +4.979644E+02 +2.961615E+00 -3.155624E+01 +2.961615E+00 +8.689145E+02 +2.798869E-01 -3.155624E+01 +2.798869E-01 +3.212370E+02 
 +4.969440E+02 +1.109828E+01 -4.407236E+00 +1.109828E+01 +8.692536E+02 -5.159068E+00 -4.407236E+00 -5.159068E+00 +3.351887E+02 
 +5.016665E+02 +1.036634E+01 -6.404283E+00 +1.036634E+01 +8.717848E+02 -6.320117E+00 -6.404283E+00 -6.320117E+00 +3.550204E+02 
 +4.964670E+02 +6.179253E+00 +5.187129E+00 +6.179253E+00 +8.655960E+02 -8.944978E+00 +5.187129E+00 -8.944978E+00 +3.563884E+02 
 +4.822023E+02 +5.189596E+00 +2.125248E+01 +5.189596E+00 +8.581506E+02 -1.112805E+01 +2.125248E+01 -1.112805E+01 +3.705656E+02 
 +4.956740E+02 +3.356643E+00 +1.407940E+01 +3.356643E+00 +8.622170E+02 -7.057930E+00 +1.407940E+01 -7.057930E+00 +3.712232E+02 
 +4.968904E+02 -2.425566E+00 +9.173963E+00 -2.425566E+00 +8.662422E+02 -2.521420E+00 +9.173963E+00 -2.521420E+00 +3.768487E+02 
 +5.001746E+02 -5.452117E+00 +1.163478E+01 -5.452117E+00 +8.686056E+02 +3.721505E+00 +1.163478E+01 +3.721505E+00 +3.846396E+02 
 +4.949234E+02 -9.002251E-01 +9.966045E+00 -9.002251E-01 +8.480551E+02 +5.851264E+00 +9.966045E+00 +5.851264E+00 +3.852271E+02 
 +4.921831E+02 -4.698047E+00 -1.666824E+01 -4.698047E+00 +8.326283E+02 +9.308978E+00 -1.666824E+01 +9.308978E+00 +3.703280E+02 
 +4.885963E+02 -4.297969E+00 -8.011476E+00 -4.297969E+00 +8.301816E+02 +1.155201E+01 -8.011476E+00 +1.155201E+01 +3.522307E+02 
 +4.960190E+02 -6.009594E+00 -4.684183E+00 -6.009594E+00 +8.333343E+02 +1.968199E+00 -4.684183E+00 +1.968199E+00 +3.676359E+02 
 +4.962621E+02 -2.303100E+00 +3.601010E+00 -2.303100E+00 +8.440633E+02 +6.363909E+00 +3.601010E+00 +6.363909E+00 +3.756249E+02 
 +5.026197E+02 -6.609275E+00 -1.577431E+01 -6.609275E+00 +8.739342E+02 +1.084442E+01 -1.577431E+01 +1.084442E+01 +3.314589E+02 
 +4.958088E+02 -7.201831E+00 -4.433884E+00 -7.201831E+00 +8.686969E+02 +1.007816E+01 -4.433884E+00 +1.007816E+01 +3.091126E+02 
 +5.101500E+02 -6.316687E+00 -6.668834E+00 -6.316687E+00 +8.850094E+02 +5.326654E+00 -6.668834E+00 +5.326654E+00 +3.401743E+02 
 +4.566023E+02 -3.569039E+00 +9.710480E+00 -3.569039E+00 +8.668955E+02 -5.338326E+00 +9.710480E+00 -5.338326E+00 +3.815689E+02 
 +4.482522E+02 -1.000010E-01 +1.605031E+01 -1.000010E-01 +8.653851E+02 -7.660118E+00 +1.605031E+01 -7.660118E+00 +4.162448E+02 
 +4.668564E+02 +3.030169E+00 +7.881417E-02 +3.030169E+00 +8.712132E+02 -7.273726E+00 +7.881417E-02 -7.273726E+00 +4.112147E+02 
 +5.192217E+02 +7.404455E+00 -3.755841E+01 +7.404455E+00 +8.920472E+02 -6.267097E+00 -3.755841E+01 -6.267097E+00 +4.011475E+02 
 +5.160200E+02 +6.592447E+00 -3.410063E+01 +6.592447E+00 +8.814437E+02 +4.661313E+00 -3.410063E+01 +4.661313E+00 +3.637751E+02 
 +5.030459E+02 +6.526539E+00 -3.167096E+01 +6.526539E+00 +8.705704E+02 +8.232963E+00 -3.167096E+01 +8.232963E+00 +3.279449E+02 
 +4.982240E+02 +1.331250E+01 -8.266978E+00 +1.331250E+01 +8.699001E+02 -1.483462E-01 -8.266978E+00 -1.483462E-01 +3.360371E+02 
 +4.957735E+02 +1.272575E+01 -1.126425E+01 +1.272575E+01 +8.720394E+02 -8.181543E+00 -1.126425E+01 -8.181543E+00 +3.503811E+02 
 +4.893205E+02 +7.275842E+00 -3.516966E+00 +7.275842E+00 +8.718140E+02 -8.632204E+00 -3.516966E+00 -8.632204E+00 +3.481651E+02 
 +4.791725E+02 +3.196289E+00 +1.146452E+01 +3.196289E+00 +8.713668E+02 -7.854453E+00 +1.146452E+01 -7.854453E+00 +3.731787E+02 
 +4.999090E+02 -4.499851E-01 +8.578431E+00 -4.499851E-01 +8.846887E+02 -5.503381E+00 +8.578431E+00 -5.503381E+00 +3.972021E+02 
 +4.973709E+02 -2.870912E+00 +6.313922E+00 -2.870912E+00 +8.806100E+02 +9.439615E-01 +6.313922E+00 +9.439615E-01 +3.794458E+02 
 +5.066937E+02 -3.400679E+00 +3.814002E+00 -3.400679E+00 +8.822040E+02 +3.408126E+00 +3.814002E+00 +3.408126E+00 +3.563309E+02 
 +5.037214E+02 -5.887049E+00 +7.840951E+00 -5.887049E+00 +8.760925E+02 +1.164145E+00 +7.840951E+00 +1.164145E+00 +3.514338E+02 
 +5.194359E+02 -7.401166E+00 +6.078221E+00 -7.401166E+00 +8.780962E+02 +1.473685E+00 +6.078221E+00 +1.473685E+00 +3.599240E+02 
 +4.757894E+02 -5.386825E+00 +4.228204E+00 -5.386825E+00 +8.590848E+02 -1.949368E+00 +4.228204E+00 -1.949368E+00 +3.298504E+02 
 +4.931950E+02 -1.301144E+01 -8.288097E-01 -1.301144E+01 +8.841678E+02 -8.793646E+00 -8.288097E-01 -8.793646E+00 +3.491241E+02 
 +4.870112E+02 -7.151269E+00 +1.104575E+01 -7.151269E+00 +8.786161E+02 -1.229718E+00 +1.104575E+01 -1.229718E+00 +3.570033E+02 
 +5.060992E+02 -5.982000E-01 -2.013553E+01 -5.982000E-01 +8.690517E+02 -9.742331E-01 -2.013553E+01 -9.742331E-01 +3.321353E+02 
 +5.085892E+02 -9.042489E+00 -8.194208E+00 -9.042489E+00 +8.683810E+02 +5.158133E+00 -8.194208E+00 +5.158133E+00 +3.241587E+02 
 +5.074638E+02 -1.181717E+01 -3.623632E+00 -1.181717E+01 +8.745142E+02 +6.615398E+00 -3.623632E+00 +6.615398E+00 +3.270749E+02 
 +4.858583E+02 -1.101078E+01 -2.483242E-01 -1.101078E+01 +8.721299E+02 +5.052472E+00 -2.483242E-01 +5.052472E+00 +3.446490E+02 
 +4.525557E+02 -2.406877E+00 +1.779977E+01 -2.406877E+00 +8.589946E+02 +9.032765E-02 +1.779977E+01 +9.032765E-02 +3.910900E+02 
 +4.956628E+02 +5.245405E+00 -1.872364E+01 +5.245405E+00 +8.807605E+02 -4.853612E+00 -1.872364E+01 -4.853612E+00 +4.178958E+02 
 +5.109461E+02 +5.971082E+00 -3.018435E+01 +5.971082E+00 +8.844606E+02 -6.521466E+00 -3.018435E+01 -6.521466E+00 +3.880967E+02 
 +5.113794E+02 +7.089917E+00 -3.089181E+01 +7.089917E+00 +8.790844E+02 +2.747402E+00 -3.089181E+01 +2.747402E+00 +3.602983E+02 
 +5.130470E+02 +8.184224E+00 -2.592216E+01 +8.184224E+00 +8.763543E+02 +5.139713E+00 -2.592216E+01 +5.139713E+00 +3.466517E+02 
 +4.997465E+02 +1.404285E+01 -1.153239E+01 +1.404285E+01 +8.742793E+02 -1.320903E+00 -1.153239E+01 -1.320903E+00 +3.500599E+02 
 +4.853591E+02 +1.229357E+01 -1.199488E+01 +1.229357E+01 +8.705440E+02 -1.403845E+00 -1.199488E+01 -1.403845E+00 +3.408315E+02 
 +4.885315E+02 +7.989633E+00 -9.347673E+00 +7.989633E+00 +8.766735E+02 +1.187940E+00 -9.347673E+00 +1.187940E+00 +3.548645E+02 
 +4.744195E+02 +5.694837E+00 +5.417984E-01 +5.694837E+00 +8.779080E+02 -1.485804E+00 +5.417984E-01 -1.485804E+00 +3.910371E+02 
 +4.844427E+02 +4.020069E+00 +3.611298E+00 +4.020069E+00 +8.852744E+02 -4.057591E+00 +3.611298E+00 -4.057591E+00 +3.958994E+02 
 +5.073882E+02 +4.684761E+00 +5.662936E+00 +4.684761E+00 +8.902221E+02 -2.772115E+00 +5.662936E+00 -2.772115E+00 +3.498383E+02 
 +4.998049E+02 +3.783036E+00 +3.403632E+00 +3.783036E+00 +8.803965E+02 +3.300147E+00 +3.403632E+00 +3.300147E+00 +3.169669E+02 
 +5.165233E+02 +4.409655E-01 +6.597187E+00 +4.409655E-01 +8.902302E+02 +8.970264E-01 +6.597187E+00 +8.970264E-01 +3.474374E+02 
 +4.928876E+02 -2.907921E+00 +1.845284E+01 -2.907921E+00 +8.815083E+02 -5.689627E+00 +1.845284E+01 -5.689627E+00 +3.489110E+02 
 +4.664590E+02 -5.849484E+00 +9.071760E+00 -5.849484E+00 +8.694191E+02 -7.770650E+00 +9.071760E+00 -7.770650E+00 +3.302636E+02 
 +4.492974E+02 -1.161334E+01 +3.965304E+00 -1.161334E+01 +8.587919E+02 -2.985029E+00 +3.965304E+00 -2.985029E+00 +3.229129E+02 
 +4.802406E+02 -5.049931E+00 +8.822368E-01 -5.049931E+00 +8.675155E+02 -3.204132E+00 +8.822368E-01 -3.204132E+00 +3.397232E+02 
 +5.027871E+02 +4.259653E+00 -8.679218E+00 +4.259653E+00 +8.481016E+02 +7.762605E+00 -8.679218E+00 +7.762605E+00 +3.665602E+02 
 +5.038020E+02 +2.422596E-01 -2.580331E+00 +2.422596E-01 +8.448845E+02 +1.527940E+01 -2.580331E+00 +1.527940E+01 +3.666321E+02 
 +5.011822E+02 +1.231420E+00 +2.411651E+00 +1.231420E+00 +8.517030E+02 +1.532498E+01 +2.411651E+00 +1.532498E+01 +3.586175E+02 
 +4.986371E+02 -8.670234E+00 -3.582911E+00 -8.670234E+00 +8.665226E+02 +1.463025E+01 -3.582911E+00 +1.463025E+01 +3.358336E+02 
 +4.779651E+02 -1.298249E+01 +8.695720E+00 -1.298249E+01 +8.676978E+02 +3.410072E+00 +8.695720E+00 +3.410072E+00 +3.523403E+02 
 +4.991507E+02 -3.034627E+00 -2.424760E+01 -3.034627E+00 +8.823748E+02 -3.248362E+00 -2.424760E+01 -3.248362E+00 +3.908100E+02 
 +5.089439E+02 -3.418966E+00 -2.236140E+01 -3.418966E+00 +8.828534E+02 +2.094574E+00 -2.236140E+01 +2.094574E+00 +3.735172E+02 
 +5.087970E+02 -2.166013E+00 -2.316191E+01 -2.166013E+00 +8.771710E+02 +7.008667E+00 -2.316191E+01 +7.008667E+00 +3.497687E+02 
 +5.164386E+02 -1.571556E+00 -1.906654E+01 -1.571556E+00 +8.804126E+02 +8.654438E+00 -1.906654E+01 +8.654438E+00 +3.556914E+02 
 +5.060479E+02 +6.350887E+00 -1.358516E+01 +6.350887E+00 +8.773048E+02 +2.845824E+00 -1.358516E+01 +2.845824E+00 +3.738460E+02 
 +4.978383E+02 +1.284263E+01 -8.213912E+00 +1.284263E+01 +8.786541E+02 +9.230516E-01 -8.213912E+00 +9.230516E-01 +3.703768E+02 
 +4.879053E+02 +6.488472E+00 -4.823414E+00 +6.488472E+00 +8.800282E+02 +5.512181E+00 -4.823414E+00 +5.512181E+00 +3.757255E+02 
 +4.683331E+02 +4.898034E+00 -4.886931E+00 +4.898034E+00 +8.756475E+02 +1.138622E+01 -4.886931E+00 +1.138622E+01 +3.910091E+02 
 +4.693294E+02 +5.065728E+00 -6.785250E+00 +5.065728E+00 +8.733588E+02 +8.056035E+00 -6.785250E+00 +8.056035E+00 +3.782375E+02 
 +5.296058E+02 +1.103429E+01 +4.339390E+00 +1.103429E+01 +9.042991E+02 -1.164564E+00 +4.339390E+00 -1.164564E+00 +3.642286E+02 
 +5.271084E+02 +5.489834E+00 +6.573944E+00 +5.489834E+00 +9.040487E+02 -7.135886E+00 +6.573944E+00 -7.135886E+00 +3.610601E+02 
 +5.168386E+02 -5.449094E-01 +8.076031E+00 -5.449094E-01 +8.943053E+02 -9.416009E+00 +8.076031E+00 -9.416009E+00 +3.757574E+02 
 +4.492715E+02 -8.615384E-01 +2.276585E+01 -8.615384E-01 +8.611223E+02 -1.136019E+01 +2.276585E+01 -1.136019E+01 +3.465557E+02 
 +4.525034E+02 -3.883463E+00 +1.098731E+01 -3.883463E+00 +8.656235E+02 -1.020052E+01 +1.098731E+01 -1.020052E+01 +3.417075E+02 
 +4.287154E+02 -9.103609E+00 +7.189092E+00 -9.103609E+00 +8.418769E+02 -2.688830E+00 +7.189092E+00 -2.688830E+00 +3.129087E+02 
 +4.829581E+02 -8.723727E+00 -1.226230E+01 -8.723727E+00 +8.538578E+02 +8.284777E-01 -1.226230E+01 +8.284777E-01 +3.428573E+02 
 +5.231781E+02 +3.506640E+00 -2.694480E+00 +3.506640E+00 +8.639030E+02 +6.156094E+00 -2.694480E+00 +6.156094E+00 +4.013016E+02 
 +5.123101E+02 +4.220746E+00 +3.158482E+00 +4.220746E+00 +8.551837E+02 +1.126571E+01 +3.158482E+00 +1.126571E+01 +3.964880E+02 
 +5.052535E+02 +6.310437E+00 +5.271415E+00 +6.310437E+00 +8.537941E+02 +1.585419E+01 +5.271415E+00 +1.585419E+01 +3.933224E+02 
 +5.011793E+02 +4.602482E+00 +4.898665E+00 +4.602482E+00 +8.564077E+02 +2.155035E+01 +4.898665E+00 +2.155035E+01 +3.665954E+02 
 +4.958576E+02 -7.129833E+00 -4.236061E-01 -7.129833E+00 +8.755368E+02 +1.588734E+01 -4.236061E-01 +1.588734E+01 +3.482156E+02 
 +5.033275E+02 -7.618160E+00 -1.497799E+01 -7.618160E+00 +8.906236E+02 +5.056057E+00 -1.497799E+01 +5.056057E+00 +3.678679E+02 
 +5.097879E+02 -7.526516E+00 -1.857878E+01 -7.526516E+00 +8.853406E+02 +5.501531E+00 -1.857878E+01 +5.501531E+00 +3.658128E+02 
 +5.080450E+02 -6.762664E+00 -1.716588E+01 -6.762664E+00 +8.788391E+02 +9.181498E+00 -1.716588E+01 +9.181498E+00 +3.485620E+02 
 +5.102142E+02 -7.535843E+00 -1.448988E+01 -7.535843E+00 +8.823631E+02 +1.423719E+01 -1.448988E+01 +1.423719E+01 +3.474068E+02 
 +5.052759E+02 -5.240118E+00 -1.437260E+01 -5.240118E+00 +8.769340E+02 +1.933096E+01 -1.437260E+01 +1.933096E+01 +3.648616E+02 
 +5.110748E+02 +3.983666E+00 +1.545177E+00 +3.983666E+00 +8.823785E+02 +2.744610E+01 +1.545177E+00 +2.744610E+01 +3.894894E+02 
 +4.794446E+02 -5.396594E+00 +5.896651E+00 -5.396594E+00 +8.773988E+02 +2.657055E+01 +5.896651E+00 +2.657055E+01 +3.796310E+02 
 +4.899466E+02 +7.295964E-01 -3.050384E+00 +7.295964E-01 +8.872597E+02 +1.627701E+01 -3.050384E+00 +1.627701E+01 +3.805895E+02 
 +4.774674E+02 +5.019320E+00 -9.554089E+00 +5.019320E+00 +8.684885E+02 +1.543346E+01 -9.554089E+00 +1.543346E+01 +3.724711E+02 
 +5.029252E+02 +1.214638E+01 +2.205057E+00 +1.214638E+01 +8.556837E+02 +1.719616E+01 +2.205057E+00 +1.719616E+01 +3.745890E+02 
 +5.318587E+02 +5.490061E+00 -3.014716E+00 +5.490061E+00 +8.736308E+02 +4.969088E+00 -3.014716E+00 +4.969088E+00 +3.976294E+02 
 +4.677876E+02 -4.005920E+00 +1.508663E+01 -4.005920E+00 +8.653427E+02 -6.143109E+00 +1.508663E+01 -6.143109E+00 +3.823031E+02 
 +4.499835E+02 -3.645661E+00 +1.866486E+01 -3.645661E+00 +8.641466E+02 -1.153039E+01 +1.866486E+01 -1.153039E+01 +3.642593E+02 
 +4.517776E+02 -1.078460E+00 +1.495637E+01 -1.078460E+00 +8.615756E+02 -1.325295E+01 +1.495637E+01 -1.325295E+01 +3.589710E+02 
 +4.454318E+02 +1.554305E+00 +9.188007E+00 +1.554305E+00 +8.460148E+02 -1.222508E+01 +9.188007E+00 -1.222508E+01 +3.400064E+02 
 +4.617170E+02 -5.744285E+00 +2.965089E+00 -5.744285E+00 +8.411763E+02 -5.102513E+00 +2.965089E+00 -5.102513E+00 +3.533093E+02 
 +5.004442E+02 +1.036150E+01 +4.026812E+00 +1.036150E+01 +8.550081E+02 -2.151817E+00 +4.026812E+00 -2.151817E+00 +3.864147E+02 
 +4.989571E+02 +1.104825E+01 +1.035306E+01 +1.104825E+01 +8.507977E+02 +1.492057E+01 +1.035306E+01 +1.492057E+01 +3.957356E+02 
 +5.168649E+02 +7.951652E+00 +8.573141E+00 +7.951652E+00 +8.654933E+02 +2.621053E+01 +8.573141E+00 +2.621053E+01 +4.045280E+02 
 +5.077076E+02 +1.054203E+01 +6.051155E+00 +1.054203E+01 +8.587643E+02 +2.682867E+01 +6.051155E+00 +2.682867E+01 +3.951298E+02 
 +5.160657E+02 +7.548363E+00 -5.394272E+00 +7.548363E+00 +8.832919E+02 +1.633854E+01 -5.394272E+00 +1.633854E+01 +3.828307E+02 
 +5.172453E+02 -3.691576E+00 -1.370569E+01 -3.691576E+00 +9.020585E+02 +2.441757E+00 -1.370569E+01 +2.441757E+00 +3.746410E+02 
 +5.011940E+02 -4.524049E+00 -1.134018E+01 -4.524049E+00 +8.850514E+02 +7.207903E-01 -1.134018E+01 +7.207903E-01 +3.603806E+02 
 +5.042694E+02 -4.981662E+00 -9.860428E+00 -4.981662E+00 +8.801528E+02 +9.221962E+00 -9.860428E+00 +9.221962E+00 +3.549647E+02 
 +5.012669E+02 -4.144182E+00 -1.000432E+01 -4.144182E+00 +8.761542E+02 +1.444502E+01 -1.000432E+01 +1.444502E+01 +3.485790E+02 
 +4.944364E+02 -6.753783E+00 -7.963207E+00 -6.753783E+00 +8.691732E+02 +2.174995E+01 -7.963207E+00 +2.174995E+01 +3.475532E+02 
 +4.892483E+02 +3.904722E+00 +8.623179E+00 +3.904722E+00 +8.464187E+02 +2.759089E+01 +8.623179E+00 +2.759089E+01 +3.599712E+02 
 +4.623146E+02 +8.168407E+00 +4.311937E+00 +8.168407E+00 +8.137477E+02 +2.416857E+01 +4.311937E+00 +2.416857E+01 +3.488000E+02 
 +4.680605E+02 +1.332095E+01 -3.506672E-01 +1.332095E+01 +8.180955E+02 +1.771568E+01 -3.506672E-01 +1.771568E+01 +3.446682E+02 
 +4.722025E+02 +1.019978E+01 -3.986869E+00 +1.019978E+01 +8.402154E+02 +1.812145E+01 -3.986869E+00 +1.812145E+01 +3.560803E+02 
 +4.837202E+02 +4.280400E+00 +5.263521E+00 +4.280400E+00 +8.598520E+02 +2.552324E+01 +5.263521E+00 +2.552324E+01 +3.706703E+02 
 +5.105506E+02 +7.717802E-01 -1.010141E+01 +7.717802E-01 +8.728214E+02 +2.524147E+01 -1.010141E+01 +2.524147E+01 +3.892083E+02 
 +4.520622E+02 -3.177743E+00 +1.084780E+01 -3.177743E+00 +8.575096E+02 +9.431675E+00 +1.084780E+01 +9.431675E+00 +3.708675E+02 
 +4.605980E+02 -1.601214E+00 +7.932897E+00 -1.601214E+00 +8.685241E+02 -6.968936E+00 +7.932897E+00 -6.968936E+00 +3.589064E+02 
 +4.656137E+02 +1.768277E+00 +9.222996E+00 +1.768277E+00 +8.611311E+02 -1.550865E+01 +9.222996E+00 -1.550865E+01 +3.560377E+02 
 +4.695898E+02 +1.540819E+00 +2.544953E+00 +1.540819E+00 +8.553832E+02 -1.713859E+01 +2.544953E+00 -1.713859E+01 +3.536702E+02 
 +4.417578E+02 -1.332825E-02 +1.406213E+01 -1.332825E-02 +8.316069E+02 -1.349780E+01 +1.406213E+01 -1.349780E+01 +3.398452E+02 
 +4.777736E+02 +4.061214E+00 +8.677749E+00 +4.061214E+00 +8.743344E+02 -7.471706E+00 +8.677749E+00 -7.471706E+00 +3.630364E+02 
 +5.013871E+02 +9.267221E+00 +1.208958E+01 +9.267221E+00 +8.846037E+02 +1.064736E+01 +1.208958E+01 +1.064736E+01 +3.928001E+02 
 +5.224686E+02 +5.148084E+00 +3.055894E+00 +5.148084E+00 +8.811884E+02 +2.292284E+01 +3.055894E+00 +2.292284E+01 +4.022417E+02 
 +4.944543E+02 +2.773084E+00 -5.585753E+00 +2.773084E+00 +8.542233E+02 +1.971866E+01 -5.585753E+00 +1.971866E+01 +3.923801E+02 
 +5.116763E+02 +2.467606E+00 -6.440337E+00 +2.467606E+00 +8.366948E+02 +1.343524E+01 -6.440337E+00 +1.343524E+01 +3.858323E+02 
 +5.038093E+02 -8.362568E-01 -1.853820E+01 -8.362568E-01 +8.323344E+02 +1.017929E+01 -1.853820E+01 +1.017929E+01 +3.627411E+02 
 +4.966730E+02 +6.716275E+00 -5.272425E+00 +6.716275E+00 +8.621619E+02 +7.362543E+00 -5.272425E+00 +7.362543E+00 +3.601973E+02 
 +4.873508E+02 +7.619283E+00 +1.827883E+00 +7.619283E+00 +8.654120E+02 +1.068213E+01 +1.827883E+00 +1.068213E+01 +3.519791E+02 
 +4.721655E+02 +4.575557E+00 -1.321788E-01 +4.575557E+00 +8.438743E+02 +1.845523E+01 -1.321788E-01 +1.845523E+01 +3.374796E+02 
 +4.754924E+02 +1.706428E-01 -2.012354E+00 +1.706428E-01 +8.325547E+02 +2.182933E+01 -2.012354E+00 +2.182933E+01 +3.425511E+02 
 +4.780055E+02 +5.627481E+00 +4.383026E+00 +5.627481E+00 +8.229683E+02 +1.874863E+01 +4.383026E+00 +1.874863E+01 +3.530697E+02 
 +4.799724E+02 +1.016353E+01 +1.532892E+00 +1.016353E+01 +8.204116E+02 +1.927481E+01 +1.532892E+00 +1.927481E+01 +3.588758E+02 
 +4.717589E+02 +5.986529E+00 +3.814082E-01 +5.986529E+00 +8.245478E+02 +2.003898E+01 +3.814082E-01 +2.003898E+01 +3.582678E+02 
 +4.707002E+02 +6.303279E+00 -4.520208E+00 +6.303279E+00 +8.304908E+02 +1.713915E+01 -4.520208E+00 +1.713915E+01 +3.555803E+02 
 +4.783232E+02 +6.758486E+00 +3.405458E+00 +6.758486E+00 +8.638854E+02 +1.270552E+01 +3.405458E+00 +1.270552E+01 +3.702618E+02 
 +4.768488E+02 +4.222807E+00 -6.576420E+00 +4.222807E+00 +8.897142E+02 +9.948582E+00 -6.576420E+00 +9.948582E+00 +3.768544E+02 
 +4.694114E+02 +1.009745E+00 +8.562633E-01 +1.009745E+00 +8.704319E+02 +9.124871E+00 +8.562633E-01 +9.124871E+00 +3.484931E+02 
 +4.564305E+02 -2.079118E+00 -3.999167E+00 -2.079118E+00 +8.488962E+02 +3.995456E-01 -3.999167E+00 +3.995456E-01 +3.140771E+02 
 +4.628166E+02 -1.418945E-01 -4.219268E+00 -1.418945E-01 +8.503246E+02 -1.275644E+01 -4.219268E+00 -1.275644E+01 +3.127982E+02 
 +4.559961E+02 -4.623871E+00 -9.796353E+00 -4.623871E+00 +8.373364E+02 -1.729573E+01 -9.796353E+00 -1.729573E+01 +3.042065E+02 
 +4.531667E+02 -4.453708E+00 -2.107852E-01 -4.453708E+00 +8.409850E+02 -1.514383E+01 -2.107852E-01 -1.514383E+01 +3.145841E+02 
 +4.567654E+02 +1.398148E+00 -2.740381E+00 +1.398148E+00 +8.540700E+02 -5.888350E+00 -2.740381E+00 -5.888350E+00 +3.227492E+02 
 +4.904343E+02 +1.001468E+01 +2.786784E-01 +1.001468E+01 +8.803860E+02 +1.322749E+00 +2.786784E-01 +1.322749E+00 +3.542400E+02 
 +4.995972E+02 +2.908340E+00 -1.260535E+01 +2.908340E+00 +8.772777E+02 +9.814479E+00 -1.260535E+01 +9.814479E+00 +3.764888E+02 
 +4.902484E+02 +4.194282E+00 -1.580714E+01 +4.194282E+00 +8.477186E+02 +1.103525E+01 -1.580714E+01 +1.103525E+01 +3.820842E+02 
 +5.260763E+02 +3.168813E+00 -1.780059E+00 +3.168813E+00 +8.506630E+02 +8.632516E+00 -1.780059E+00 +8.632516E+00 +3.981450E+02 
 +5.149047E+02 +1.450625E+00 -1.494913E+01 +1.450625E+00 +8.287984E+02 +8.480417E+00 -1.494913E+01 +8.480417E+00 +3.751523E+02 
 +5.030409E+02 +1.357103E+00 -8.762379E+00 +1.357103E+00 +8.234479E+02 +6.435465E+00 -8.762379E+00 +6.435465E+00 +3.614831E+02 
 +4.887275E+02 +8.433561E+00 +4.572966E+00 +8.433561E+00 +8.493871E+02 +3.505776E+00 +4.572966E+00 +3.505776E+00 +3.577213E+02 
 +4.722405E+02 +1.179475E+00 +8.084664E+00 +1.179475E+00 +8.492443E+02 +8.408872E+00 +8.084664E+00 +8.408872E+00 +3.481849E+02 
 +4.691417E+02 +1.815963E+00 +9.362011E-01 +1.815963E+00 +8.226346E+02 +1.004428E+01 +9.362011E-01 +1.004428E+01 +3.516136E+02 
 +4.606277E+02 +4.988603E+00 +1.850159E-01 +4.988603E+00 +8.084096E+02 +9.474073E+00 +1.850159E-01 +9.474073E+00 +3.551049E+02 
 +4.584156E+02 +8.637409E+00 +8.668976E-02 +8.637409E+00 +8.062199E+02 +1.420217E+01 +8.668976E-02 +1.420217E+01 +3.601007E+02 
 +4.645430E+02 +8.461852E+00 -4.965016E+00 +8.461852E+00 +8.145848E+02 +1.673719E+01 -4.965016E+00 +1.673719E+01 +3.679201E+02 
 +4.678134E+02 +5.231616E+00 -7.957707E+00 +5.231616E+00 +8.301322E+02 +1.456513E+01 -7.957707E+00 +1.456513E+01 +3.657489E+02 
 +4.818574E+02 +1.130526E+01 -2.937194E+00 +1.130526E+01 +8.628201E+02 +7.006570E+00 -2.937194E+00 +7.006570E+00 +3.743695E+02 
 +4.749912E+02 +7.652137E+00 -5.615641E+00 +7.652137E+00 +8.796103E+02 -2.089386E+00 -5.615641E+00 -2.089386E+00 +3.702867E+02 
 +4.678295E+02 +6.576623E+00 +1.488869E+00 +6.576623E+00 +8.703403E+02 -4.047929E+00 +1.488869E+00 -4.047929E+00 +3.478446E+02 
 +4.605765E+02 +1.621104E+00 -6.034095E+00 +1.621104E+00 +8.543566E+02 -7.171593E+00 -6.034095E+00 -7.171593E+00 +3.145466E+02 
 +4.628899E+02 -4.856291E+00 -8.689458E+00 -4.856291E+00 +8.512281E+02 -1.291241E+01 -8.689458E+00 -1.291241E+01 +2.943867E+02 
 +4.544841E+02 -1.119929E+01 -1.586019E+01 -1.119929E+01 +8.400221E+02 -1.191823E+01 -1.586019E+01 -1.191823E+01 +2.818385E+02 
 +4.486478E+02 -7.103654E+00 -1.038843E+01 -7.103654E+00 +8.401912E+02 -7.568479E+00 -1.038843E+01 -7.568479E+00 +2.966290E+02 
 +4.590793E+02 +3.158463E+00 -9.734591E+00 +3.158463E+00 +8.482473E+02 -4.845438E+00 -9.734591E+00 -4.845438E+00 +3.164739E+02 
 +4.795755E+02 +7.675773E+00 -6.871932E+00 +7.675773E+00 +8.624736E+02 +1.632189E+00 -6.871932E+00 +1.632189E+00 +3.363035E+02 
 +4.824007E+02 -3.948583E+00 -2.156427E+01 -3.948583E+00 +8.574925E+02 +7.881188E+00 -2.156427E+01 +7.881188E+00 +3.575147E+02 
 +4.925447E+02 -2.317106E-01 -1.799215E+01 -2.317106E-01 +8.448529E+02 +9.642279E+00 -1.799215E+01 +9.642279E+00 +3.730730E+02 
 +5.254127E+02 +1.663226E+00 +3.860873E+00 +1.663226E+00 +8.519382E+02 +6.139407E+00 +3.860873E+00 +6.139407E+00 +3.969877E+02 
 +5.134207E+02 +3.201071E+00 -8.224178E+00 +3.201071E+00 +8.381661E+02 +6.384182E-01 -8.224178E+00 +6.384182E-01 +3.838752E+02 
 +5.033000E+02 +2.191015E+00 -8.604251E+00 +2.191015E+00 +8.194429E+02 +3.174270E-05 -8.604251E+00 +3.174270E-05 +3.675960E+02 
 +4.792704E+02 +5.719151E+00 -4.833922E-01 +5.719151E+00 +7.948035E+02 +5.165074E+00 -4.833922E-01 +5.165074E+00 +3.513369E+02 
 +4.812937E+02 -6.219900E+00 +1.870556E+00 -6.219900E+00 +8.093455E+02 +1.432829E+01 +1.870556E+00 +1.432829E+01 +3.557298E+02 
 +4.660075E+02 +5.840064E-01 -1.135552E+01 +5.840064E-01 +8.238802E+02 +1.513649E+01 -1.135552E+01 +1.513649E+01 +3.546232E+02 
 +4.422159E+02 +6.522294E+00 -6.899741E+00 +6.522294E+00 +8.146939E+02 +1.175075E+01 -6.899741E+00 +1.175075E+01 +3.410304E+02 
 +4.364258E+02 +7.328016E+00 -3.810017E+00 +7.328016E+00 +8.040242E+02 +1.310303E+01 -3.810017E+00 +1.310303E+01 +3.478265E+02 
 +4.408153E+02 +6.378772E+00 -7.987355E+00 +6.378772E+00 +7.985934E+02 +9.475000E+00 -7.987355E+00 +9.475000E+00 +3.601625E+02 
 +4.643758E+02 +1.132446E+01 -8.917115E+00 +1.132446E+01 +8.253894E+02 +3.995485E+00 -8.917115E+00 +3.995485E+00 +3.674172E+02 
 +4.675701E+02 +1.637854E+01 -5.903003E+00 +1.637854E+01 +8.337876E+02 -8.621645E-01 -5.903003E+00 -8.621645E-01 +3.661142E+02 
 +4.591052E+02 +2.271749E+00 -3.352088E+00 +2.271749E+00 +8.151035E+02 -6.858152E-01 -3.352088E+00 -6.858152E-01 +3.709966E+02 
 +4.586604E+02 +7.511452E-01 +2.114446E+00 +7.511452E-01 +8.276130E+02 +5.756297E-01 +2.114446E+00 +5.756297E-01 +3.833037E+02 
 +4.790138E+02 +6.597578E+00 -2.122482E+00 +6.597578E+00 +8.673684E+02 -4.600246E+00 -2.122482E+00 -4.600246E+00 +3.815494E+02 
 +4.764046E+02 -4.238612E+00 -1.643979E+00 -4.238612E+00 +8.662608E+02 -6.718472E+00 -1.643979E+00 -6.718472E+00 +3.449584E+02 
 +4.582660E+02 -1.211532E+01 -1.597892E+01 -1.211532E+01 +8.429631E+02 -4.591461E+00 -1.597892E+01 -4.591461E+00 +2.999065E+02 
 +4.415488E+02 -4.939171E+00 -1.024549E+01 -4.939171E+00 +8.343014E+02 -5.401379E+00 -1.024549E+01 -5.401379E+00 +2.949125E+02 
 +4.528111E+02 +4.223344E+00 -1.033624E+01 +4.223344E+00 +8.431782E+02 -3.954068E+00 -1.033624E+01 -3.954068E+00 +3.320928E+02 
 +4.864255E+02 +3.972353E+00 -8.633084E+00 +3.972353E+00 +8.608463E+02 -3.260465E+00 -8.633084E+00 -3.260465E+00 +3.618722E+02 
 +4.905677E+02 -8.788846E+00 -1.888804E+01 -8.788846E+00 +8.543200E+02 -9.861140E-01 -1.888804E+01 -9.861140E-01 +3.705213E+02 
 +5.006451E+02 -5.202773E+00 -1.576544E+01 -5.202773E+00 +8.532012E+02 +4.912483E+00 -1.576544E+01 +4.912483E+00 +3.771550E+02 
 +5.223693E+02 -5.980202E-01 +1.210791E+00 -5.980202E-01 +8.515760E+02 +4.890331E+00 +1.210791E+00 +4.890331E+00 +3.855128E+02 
 +5.080496E+02 +2.335075E+00 -4.903273E+00 +2.335075E+00 +8.263995E+02 -5.658013E-01 -4.903273E+00 -5.658013E-01 +3.670979E+02 
 +4.980831E+02 +1.097636E+01 -2.094642E+00 +1.097636E+01 +8.261092E+02 -4.755024E+00 -2.094642E+00 -4.755024E+00 +3.609407E+02 
 +5.075133E+02 +1.575447E+01 -3.742820E+00 +1.575447E+01 +8.386719E+02 -2.706415E+00 -3.742820E+00 -2.706415E+00 +3.557862E+02 
 +5.258097E+02 +5.238935E+00 -4.536055E+00 +5.238935E+00 +8.649574E+02 +1.012010E+01 -4.536055E+00 +1.012010E+01 +3.707461E+02 
 +4.691823E+02 -7.920397E+00 -2.567846E+01 -7.920397E+00 +8.639052E+02 +1.749237E+01 -2.567846E+01 +1.749237E+01 +3.584207E+02 
 +4.621789E+02 -1.098916E+01 -1.733669E+01 -1.098916E+01 +8.727802E+02 +1.387070E+01 -1.733669E+01 +1.387070E+01 +3.430913E+02 
 +4.579957E+02 -7.748340E+00 -1.182453E+01 -7.748340E+00 +8.716406E+02 +9.898905E+00 -1.182453E+01 +9.898905E+00 +3.480053E+02 
 +4.518824E+02 -4.956856E+00 -1.237437E+01 -4.956856E+00 +8.509226E+02 +7.588865E+00 -1.237437E+01 +7.588865E+00 +3.648269E+02 
 +4.493328E+02 +4.537090E+00 -4.765771E+00 +4.537090E+00 +8.236505E+02 +6.466397E+00 -4.765771E+00 +6.466397E+00 +3.657569E+02 
 +4.704747E+02 -6.056723E+00 -9.772046E+00 -6.056723E+00 +8.200849E+02 +3.996333E+00 -9.772046E+00 +3.996333E+00 +3.716562E+02 
 +4.696305E+02 -8.968209E+00 -4.112795E+00 -8.968209E+00 +8.198855E+02 +1.835031E+00 -4.112795E+00 +1.835031E+00 +3.915579E+02 
 +4.730127E+02 -3.256851E+00 -2.321490E+00 -3.256851E+00 +8.228098E+02 +1.662286E+00 -2.321490E+00 +1.662286E+00 +4.111406E+02 
 +4.709118E+02 +3.733531E-01 -1.903624E+00 +3.733531E-01 +8.119611E+02 +1.777181E+00 -1.903624E+00 +1.777181E+00 +4.084585E+02 
 +4.713699E+02 -3.784742E+00 +1.354850E+00 -3.784742E+00 +8.273286E+02 -1.216281E+00 +1.354850E+00 -1.216281E+00 +3.886535E+02 
 +4.649529E+02 -8.236758E+00 -1.002810E+01 -8.236758E+00 +8.423368E+02 -3.498843E+00 -1.002810E+01 -3.498843E+00 +3.351193E+02 
 +4.427864E+02 -3.009553E+00 -6.588390E+00 -3.009553E+00 +8.314269E+02 -3.743914E+00 -6.588390E+00 -3.743914E+00 +3.077681E+02 
 +4.620236E+02 +1.058356E+01 -1.542160E+01 +1.058356E+01 +8.324837E+02 -9.622803E+00 -1.542160E+01 -9.622803E+00 +3.550330E+02 
 +4.574528E+02 +1.163007E+01 -5.833829E+00 +1.163007E+01 +7.975148E+02 -1.534223E+01 -5.833829E+00 -1.534223E+01 +3.750952E+02 
 +4.483916E+02 +2.565062E+00 -3.753417E+00 +2.565062E+00 +7.742501E+02 -1.405709E+01 -3.753417E+00 -1.405709E+01 +3.636636E+02 
 +4.626043E+02 +1.284271E+00 -3.009906E+00 +1.284271E+00 +7.862782E+02 -1.274200E+00 -3.009906E+00 -1.274200E+00 +3.532841E+02 
 +4.880528E+02 -8.129915E-01 +3.818143E+00 -8.129915E-01 +8.072728E+02 +7.091186E+00 +3.818143E+00 +7.091186E+00 +3.497946E+02 
 +4.981144E+02 -4.221731E-02 +4.591716E+00 -4.221731E-02 +8.207749E+02 +3.584679E+00 +4.591716E+00 +3.584679E+00 +3.423346E+02 
 +5.110881E+02 +1.233689E+01 +1.870036E+00 +1.233689E+01 +8.418260E+02 -4.353999E-02 +1.870036E+00 -4.353999E-02 +3.452270E+02 
 +5.176729E+02 +1.159377E+01 -5.414216E+00 +1.159377E+01 +8.573122E+02 +4.602224E+00 -5.414216E+00 +4.602224E+00 +3.468579E+02 
 +4.988189E+02 +5.336098E+00 -4.420747E+00 +5.336098E+00 +8.667294E+02 +7.807067E+00 -4.420747E+00 +7.807067E+00 +3.642382E+02 
 +4.498121E+02 -9.350817E+00 -1.464078E+01 -9.350817E+00 +8.608827E+02 +8.240918E+00 -1.464078E+01 +8.240918E+00 +3.626523E+02 
 +4.661293E+02 -1.201711E+01 -1.782273E+01 -1.201711E+01 +8.743027E+02 +1.015515E+01 -1.782273E+01 +1.015515E+01 +3.526297E+02 
 +4.604897E+02 -9.764813E+00 -1.461584E+01 -9.764813E+00 +8.686349E+02 +1.030709E+01 -1.461584E+01 +1.030709E+01 +3.464794E+02 
 +4.652231E+02 -7.020308E+00 -1.094263E+01 -7.020308E+00 +8.824649E+02 +1.350650E+01 -1.094263E+01 +1.350650E+01 +3.777033E+02 
 +4.334323E+02 -2.118257E+00 +7.166753E+00 -2.118257E+00 +8.514874E+02 +1.618343E+01 +7.166753E+00 +1.618343E+01 +3.776351E+02 
 +4.866331E+02 -8.657986E+00 -1.315037E+01 -8.657986E+00 +8.408003E+02 +1.245275E+01 -1.315037E+01 +1.245275E+01 +3.804364E+02 
 +4.885821E+02 -7.958556E+00 -1.134584E+01 -7.958556E+00 +8.299211E+02 +3.026846E+00 -1.134584E+01 +3.026846E+00 +3.860384E+02 
 +4.823845E+02 -6.272042E+00 -8.735318E+00 -6.272042E+00 +8.257635E+02 -1.752623E+00 -8.735318E+00 -1.752623E+00 +4.025728E+02 
 +4.850417E+02 -1.039832E+00 -6.868499E+00 -1.039832E+00 +8.192629E+02 -1.318292E+00 -6.868499E+00 -1.318292E+00 +4.080539E+02 
 +4.807132E+02 +3.172278E+00 -3.626152E+00 +3.172278E+00 +8.130295E+02 +2.490153E+00 -3.626152E+00 +2.490153E+00 +3.993773E+02 
 +4.634914E+02 -4.347431E+00 -3.759154E+00 -4.347431E+00 +8.070298E+02 +4.033650E+00 -3.759154E+00 +4.033650E+00 +3.572070E+02 
 +4.409082E+02 +5.208085E+00 -7.292521E+00 +5.208085E+00 +8.167301E+02 -2.095330E+00 -7.292521E+00 -2.095330E+00 +3.253071E+02 
 +4.780406E+02 +1.579319E+01 -9.091948E+00 +1.579319E+01 +8.248811E+02 -1.233311E+01 -9.091948E+00 -1.233311E+01 +3.640724E+02 
 +4.588465E+02 +1.300317E+01 +1.807910E+00 +1.300317E+01 +8.226092E+02 -1.575936E+01 +1.807910E+00 -1.575936E+01 +3.936714E+02 
 +4.692156E+02 +5.806754E+00 +4.063586E+00 +5.806754E+00 +8.328398E+02 -1.255349E+01 +4.063586E+00 -1.255349E+01 +3.938065E+02 
 +4.681083E+02 +2.681248E+00 +2.025114E+00 +2.681248E+00 +8.293733E+02 -2.070183E+00 +2.025114E+00 -2.070183E+00 +3.661560E+02 
 +5.109415E+02 +1.505747E+00 +5.271218E+00 +1.505747E+00 +8.596063E+02 +6.044875E+00 +5.271218E+00 +6.044875E+00 +3.638127E+02 
 +5.222480E+02 +3.774253E+00 +5.639052E+00 +3.774253E+00 +8.724380E+02 +6.695716E+00 +5.639052E+00 +6.695716E+00 +3.622298E+02 
 +5.218774E+02 +1.219033E+01 +1.115735E+01 +1.219033E+01 +8.645047E+02 +8.873765E+00 +1.115735E+01 +8.873765E+00 +3.609485E+02 
 +5.150396E+02 +8.562078E+00 -1.126650E+00 +8.562078E+00 +8.727625E+02 +7.744018E+00 -1.126650E+00 +7.744018E+00 +3.659701E+02 
 +4.920106E+02 +6.029663E-01 -8.757176E+00 +6.029663E-01 +8.856422E+02 -1.162719E-01 -8.757176E+00 -1.162719E-01 +3.866472E+02 
 +4.588565E+02 -9.384368E+00 -5.840033E+00 -9.384368E+00 +8.717518E+02 +7.927157E-01 -5.840033E+00 +7.927157E-01 +3.854644E+02 
 +4.771814E+02 -1.303211E+01 -1.334615E+01 -1.303211E+01 +8.784285E+02 +5.860204E+00 -1.334615E+01 +5.860204E+00 +3.798205E+02 
 +4.699566E+02 -1.317855E+01 -8.521933E+00 -1.317855E+01 +8.752182E+02 +8.773865E+00 -8.521933E+00 +8.773865E+00 +3.749351E+02 
 +4.588710E+02 -1.112711E+01 -1.917672E+00 -1.112711E+01 +8.721725E+02 +1.574261E+01 -1.917672E+00 +1.574261E+01 +3.891302E+02 
 +4.524791E+02 -3.427153E+00 -1.135439E-02 -3.427153E+00 +8.645791E+02 +1.675783E+01 -1.135439E-02 +1.675783E+01 +3.801965E+02 
 +4.906590E+02 +9.374753E-01 -1.873703E+01 +9.374753E-01 +8.709318E+02 +1.150057E+01 -1.873703E+01 +1.150057E+01 +3.673246E+02 
 +4.957362E+02 -5.861633E-01 -1.279228E+01 -5.861633E-01 +8.492166E+02 +8.070718E+00 -1.279228E+01 +8.070718E+00 +3.728194E+02 
 +4.825745E+02 -3.662734E+00 -1.657780E+01 -3.662734E+00 +8.238716E+02 +3.297634E+00 -1.657780E+01 +3.297634E+00 +3.770759E+02 
 +4.804872E+02 -1.482882E+00 -1.284115E+01 -1.482882E+00 +8.143586E+02 +2.636189E+00 -1.284115E+01 +2.636189E+00 +3.703447E+02 
 +4.837830E+02 +3.912858E+00 -4.460622E+00 +3.912858E+00 +8.084280E+02 +7.407256E+00 -4.460622E+00 +7.407256E+00 +3.679251E+02 
 +4.922747E+02 +7.382495E+00 -3.515229E+00 +7.382495E+00 +8.238841E+02 +7.680806E+00 -3.515229E+00 +7.680806E+00 +3.644400E+02 
 +4.746330E+02 +2.120960E+01 -1.017700E+01 +2.120960E+01 +8.249830E+02 -3.215624E+00 -1.017700E+01 -3.215624E+00 +3.424282E+02 
 +4.595694E+02 +6.002623E+00 +9.364354E+00 +6.002623E+00 +8.236386E+02 -1.229118E+01 +9.364354E+00 -1.229118E+01 +3.637228E+02 
 +4.526284E+02 +1.461337E+00 +3.250794E+00 +1.461337E+00 +8.296547E+02 -1.403700E+01 +3.250794E+00 -1.403700E+01 +3.993105E+02 
 +4.538756E+02 -9.113580E-01 -3.520866E+00 -9.113580E-01 +8.421003E+02 -1.496445E+01 -3.520866E+00 -1.496445E+01 +3.961390E+02 
 +4.723709E+02 -4.004221E+00 -3.310496E+00 -4.004221E+00 +8.639744E+02 -5.827896E+00 -3.310496E+00 -5.827896E+00 +3.787514E+02 
 +5.220744E+02 -4.958471E+00 -2.488814E+00 -4.958471E+00 +8.815143E+02 +1.088660E+01 -2.488814E+00 +1.088660E+01 +3.726725E+02 
 +5.212648E+02 -2.181159E+00 -8.319372E+00 -2.181159E+00 +8.770356E+02 +1.817028E+01 -8.319372E+00 +1.817028E+01 +3.664877E+02 
 +4.995113E+02 -3.500837E+00 +2.435950E+01 -3.500837E+00 +8.808179E+02 +1.247358E+01 +2.435950E+01 +1.247358E+01 +3.728757E+02 
 +4.954022E+02 -6.325728E+00 +5.419306E+00 -6.325728E+00 +8.807027E+02 +6.200976E+00 +5.419306E+00 +6.200976E+00 +3.740611E+02 
 +5.141080E+02 -9.656127E+00 -1.685833E+01 -9.656127E+00 +8.902340E+02 +7.186900E+00 -1.685833E+01 +7.186900E+00 +3.955848E+02 
 +4.873479E+02 -6.702250E+00 -1.697914E+01 -6.702250E+00 +8.815830E+02 +5.623690E+00 -1.697914E+01 +5.623690E+00 +3.993153E+02 
 +4.686247E+02 -9.224367E+00 -1.088143E+01 -9.224367E+00 +8.717265E+02 +5.467569E+00 -1.088143E+01 +5.467569E+00 +3.822710E+02 
 +4.705600E+02 -1.002667E+01 -8.851601E+00 -1.002667E+01 +8.738540E+02 +1.287555E+01 -8.851601E+00 +1.287555E+01 +3.906975E+02 
 +4.578923E+02 -7.035068E+00 -2.058935E+00 -7.035068E+00 +8.644697E+02 +1.733676E+01 -2.058935E+00 +1.733676E+01 +3.895928E+02 
 +4.858635E+02 -3.514691E-03 -2.283860E+01 -3.514691E-03 +8.685307E+02 +1.226170E+01 -2.283860E+01 +1.226170E+01 +3.612110E+02 
 +4.907899E+02 +4.586294E+00 -2.657891E+01 +4.586294E+00 +8.715349E+02 +5.078471E+00 -2.657891E+01 +5.078471E+00 +3.416230E+02 
 +5.079292E+02 +6.138051E+00 -1.474623E+01 +6.138051E+00 +8.906947E+02 +1.510275E+00 -1.474623E+01 +1.510275E+00 +3.664851E+02 
 +5.066157E+02 +6.985123E+00 -2.245590E+01 +6.985123E+00 +8.860225E+02 -7.098742E+00 -2.245590E+01 -7.098742E+00 +3.640838E+02 
 +5.196795E+02 +1.285528E+01 -1.259726E+01 +1.285528E+01 +8.879429E+02 -1.286002E+01 -1.259726E+01 -1.286002E+01 +3.531716E+02 
 +5.317555E+02 +1.705563E+01 -2.350342E+00 +1.705563E+01 +8.934101E+02 -1.104029E+01 -2.350342E+00 -1.104029E+01 +3.535310E+02 
 +5.419395E+02 +2.280395E+01 +4.775358E-01 +2.280395E+01 +8.929186E+02 -5.753924E+00 +4.775358E-01 -5.753924E+00 +3.680382E+02 
 +5.262535E+02 +2.039066E+01 -1.730504E+00 +2.039066E+01 +8.655416E+02 -7.611640E+00 -1.730504E+00 -7.611640E+00 +3.609934E+02 
 +4.406251E+02 -2.549824E+00 +1.585537E+01 -2.549824E+00 +8.299756E+02 -4.657039E+00 +1.585537E+01 -4.657039E+00 +3.614644E+02 
 +4.530812E+02 -3.624700E+00 +2.684522E+00 -3.624700E+00 +8.471357E+02 -7.550946E+00 +2.684522E+00 -7.550946E+00 +4.077732E+02 
 +4.227706E+02 -6.758654E+00 -7.591850E+00 -6.758654E+00 +8.298194E+02 -7.736935E+00 -7.591850E+00 -7.736935E+00 +3.861502E+02 
 +4.793502E+02 -6.536083E+00 -3.364111E+00 -6.536083E+00 +8.525052E+02 +6.510544E+00 -3.364111E+00 +6.510544E+00 +3.784599E+02 
 +5.018730E+02 -7.098726E+00 -8.440084E+00 -7.098726E+00 +8.649165E+02 +2.023536E+01 -8.440084E+00 +2.023536E+01 +3.658935E+02 
 +5.011642E+02 -4.369895E+00 -1.315382E+01 -4.369895E+00 +8.765271E+02 +1.931503E+01 -1.315382E+01 +1.931503E+01 +3.619928E+02 
 +4.613642E+02 -3.334055E+00 +2.659708E+01 -3.334055E+00 +8.655514E+02 +6.878287E+00 +2.659708E+01 +6.878287E+00 +3.543358E+02 
 +4.753694E+02 -3.331481E+00 +8.012899E+00 -3.331481E+00 +8.711133E+02 +4.202982E+00 +8.012899E+00 +4.202982E+00 +3.669568E+02 
 +5.305982E+02 -1.084745E+01 -2.080119E+01 -1.084745E+01 +8.908791E+02 +1.491586E+01 -2.080119E+01 +1.491586E+01 +4.047065E+02 
 +5.327861E+02 -1.169831E+01 -2.892876E+01 -1.169831E+01 +8.892779E+02 +1.466993E+01 -2.892876E+01 +1.466993E+01 +4.154805E+02 
 +4.771209E+02 -6.296887E+00 -1.136478E+01 -6.296887E+00 +8.670951E+02 +8.275630E+00 -1.136478E+01 +8.275630E+00 +3.940657E+02 
 +4.674104E+02 -3.458560E+00 -5.490264E+00 -3.458560E+00 +8.672660E+02 +1.406074E+01 -5.490264E+00 +1.406074E+01 +4.025172E+02 
 +4.704241E+02 +8.967492E-01 -1.062637E+01 +8.967492E-01 +8.640120E+02 +1.312125E+01 -1.062637E+01 +1.312125E+01 +3.796498E+02 
 +4.967069E+02 +7.087872E+00 -3.036408E+01 +7.087872E+00 +8.711291E+02 +3.742069E+00 -3.036408E+01 +3.742069E+00 +3.398109E+02 
 +5.017065E+02 +7.383013E+00 -2.991649E+01 +7.383013E+00 +8.744258E+02 +2.089183E+00 -2.991649E+01 +2.089183E+00 +3.383430E+02 
 +5.046552E+02 +5.706883E+00 -2.096858E+01 +5.706883E+00 +8.842297E+02 -1.090518E-02 -2.096858E+01 -1.090518E-02 +3.569698E+02 
 +5.049236E+02 +6.605986E+00 -2.531187E+01 +6.605986E+00 +8.895945E+02 -3.705468E+00 -2.531187E+01 -3.705468E+00 +3.516767E+02 
 +5.319925E+02 +1.258348E+01 -2.465374E+00 +1.258348E+01 +8.964490E+02 -5.380495E+00 -2.465374E+00 -5.380495E+00 +3.331202E+02 
 +5.343972E+02 +1.774255E+01 +5.605341E+00 +1.774255E+01 +8.884985E+02 -4.025221E+00 +5.605341E+00 -4.025221E+00 +3.236030E+02 
 +5.339947E+02 +1.842806E+01 +1.118829E+01 +1.842806E+01 +8.848085E+02 +7.027180E-02 +1.118829E+01 +7.027180E-02 +3.511728E+02 
 +5.247796E+02 +6.444232E+00 +3.364103E+00 +6.444232E+00 +8.734239E+02 -2.728961E-01 +3.364103E+00 -2.728961E-01 +3.605167E+02 
 +4.410810E+02 -4.420786E+00 +8.334210E+00 -4.420786E+00 +8.356167E+02 -3.908906E+00 +8.334210E+00 -3.908906E+00 +3.624188E+02 
 +4.409779E+02 -2.480349E+00 +3.011194E+00 -2.480349E+00 +8.574519E+02 -2.911687E+00 +3.011194E+00 -2.911687E+00 +3.964387E+02 
 +4.192474E+02 -5.146550E+00 -1.473860E+00 -5.146550E+00 +8.418353E+02 +1.826020E+00 -1.473860E+00 +1.826020E+00 +3.765801E+02 
 +4.791901E+02 -1.004696E+01 -1.369635E+00 -1.004696E+01 +8.582401E+02 +1.269924E+01 -1.369635E+00 +1.269924E+01 +3.818796E+02 
 +4.908777E+02 -1.220733E+01 -9.832216E+00 -1.220733E+01 +8.652767E+02 +1.727234E+01 -9.832216E+00 +1.727234E+01 +3.744861E+02 
 +4.874360E+02 -3.376011E+00 -1.015688E+01 -3.376011E+00 +8.730738E+02 +1.566107E+01 -1.015688E+01 +1.566107E+01 +3.664428E+02 
 +4.527923E+02 +1.295597E+00 +2.484286E+01 +1.295597E+00 +8.588622E+02 +7.300735E+00 +2.484286E+01 +7.300735E+00 +3.539079E+02 
 +4.709404E+02 -2.813101E+00 +9.663564E+00 -2.813101E+00 +8.675033E+02 +3.973866E+00 +9.663564E+00 +3.973866E+00 +3.697999E+02 
 +5.295390E+02 -8.021441E+00 -1.825249E+01 -8.021441E+00 +8.920704E+02 +9.293605E+00 -1.825249E+01 +9.293605E+00 +4.118301E+02 
 +5.439865E+02 -1.149840E+01 -2.769394E+01 -1.149840E+01 +8.891724E+02 +1.297666E+01 -2.769394E+01 +1.297666E+01 +4.188819E+02 
 +5.161367E+02 -1.261798E+01 -1.636761E+01 -1.261798E+01 +8.728255E+02 +9.756195E+00 -1.636761E+01 +9.756195E+00 +4.183439E+02 
 +4.708797E+02 -4.558705E+00 -3.377596E+00 -4.558705E+00 +8.600310E+02 +1.599561E+00 -3.377596E+00 +1.599561E+00 +3.982144E+02 
 +4.886464E+02 +2.534383E+00 -1.869295E+01 +2.534383E+00 +8.712219E+02 -4.290678E+00 -1.869295E+01 -4.290678E+00 +3.552372E+02 
 +4.999738E+02 +6.897692E+00 -2.612433E+01 +6.897692E+00 +8.720283E+02 -4.542801E+00 -2.612433E+01 -4.542801E+00 +3.324353E+02 
 +5.043842E+02 +7.736254E+00 -2.627621E+01 +7.736254E+00 +8.746318E+02 +5.759816E-01 -2.627621E+01 +5.759816E-01 +3.444807E+02 
 +5.061748E+02 +8.850953E+00 -2.259958E+01 +8.850953E+00 +8.780848E+02 +3.029108E+00 -2.259958E+01 +3.029108E+00 +3.532815E+02 
 +5.099188E+02 +1.069953E+01 -2.521601E+01 +1.069953E+01 +8.836909E+02 +5.690675E+00 -2.521601E+01 +5.690675E+00 +3.563482E+02 
 +5.379040E+02 +1.265785E+01 +3.215421E+00 +1.265785E+01 +8.911392E+02 +9.876875E+00 +3.215421E+00 +9.876875E+00 +3.393537E+02 
 +5.268299E+02 +1.118577E+01 +6.755812E+00 +1.118577E+01 +8.725197E+02 +5.341966E+00 +6.755812E+00 +5.341966E+00 +3.231475E+02 
 +5.069218E+02 +4.730440E+00 +1.474835E+01 +4.730440E+00 +8.566239E+02 -5.885724E+00 +1.474835E+01 -5.885724E+00 +3.533843E+02 
 +5.023855E+02 -1.175723E+00 +2.483617E-01 -1.175723E+00 +8.544911E+02 -9.061845E+00 +2.483617E-01 -9.061845E+00 +3.673270E+02 
 +4.455044E+02 -2.474104E+00 +2.638466E+00 -2.474104E+00 +8.479386E+02 -4.005309E+00 +2.638466E+00 -4.005309E+00 +3.649586E+02 
 +4.440361E+02 -1.684959E+00 +4.101885E+00 -1.684959E+00 +8.650516E+02 -1.235704E+00 +4.101885E+00 -1.235704E+00 +3.944378E+02 
 +4.384592E+02 -5.794059E+00 +6.891976E+00 -5.794059E+00 +8.622327E+02 +1.932285E+00 +6.891976E+00 +1.932285E+00 +3.821557E+02 
 +4.515523E+02 -8.929630E+00 +7.506252E+00 -8.929630E+00 +8.642821E+02 +7.982056E+00 +7.506252E+00 +7.982056E+00 +3.763184E+02 
 +4.796260E+02 -6.804657E+00 +2.059024E+00 -6.804657E+00 +8.682519E+02 +1.686186E+01 +2.059024E+00 +1.686186E+01 +3.764410E+02 
 +4.716499E+02 -2.655456E+00 -1.978459E+01 -2.655456E+00 +8.623226E+02 +1.358363E+01 -1.978459E+01 +1.358363E+01 +3.628080E+02 
 +4.650997E+02 -1.611368E-01 +2.750307E+01 -1.611368E-01 +8.649724E+02 +1.186835E+00 +2.750307E+01 +1.186835E+00 +3.637375E+02 
 +4.763928E+02 -2.961374E+00 +1.411243E+01 -2.961374E+00 +8.650817E+02 -4.927464E-01 +1.411243E+01 -4.927464E-01 +3.703934E+02 
 +5.268403E+02 -6.113998E+00 -1.205239E+01 -6.113998E+00 +8.870789E+02 +3.186420E+00 -1.205239E+01 +3.186420E+00 +4.074390E+02 
 +5.357179E+02 -6.830196E+00 -2.235873E+01 -6.830196E+00 +8.863810E+02 +3.272922E+00 -2.235873E+01 +3.272922E+00 +4.181488E+02 
 +5.259739E+02 -8.053371E+00 -1.584703E+01 -8.053371E+00 +8.766617E+02 -1.531476E+00 -1.584703E+01 -1.531476E+00 +4.123602E+02 
 +5.026967E+02 +3.663004E-01 -1.547937E+01 +3.663004E-01 +8.660093E+02 -1.063793E+01 -1.547937E+01 -1.063793E+01 +3.880467E+02 
 +5.082053E+02 +6.422122E+00 -2.350447E+01 +6.422122E+00 +8.709439E+02 -1.488381E+01 -2.350447E+01 -1.488381E+01 +3.531580E+02 
 +5.068174E+02 +1.031353E+01 -2.689896E+01 +1.031353E+01 +8.721132E+02 -8.072501E+00 -2.689896E+01 -8.072501E+00 +3.435808E+02 
 +5.046130E+02 +1.065857E+01 -2.379654E+01 +1.065857E+01 +8.727745E+02 +8.614320E-01 -2.379654E+01 +8.614320E-01 +3.447192E+02 
 +5.045811E+02 +1.104119E+01 -2.303950E+01 +1.104119E+01 +8.750255E+02 +7.116294E+00 -2.303950E+01 +7.116294E+00 +3.436057E+02 
 +5.148627E+02 +8.562464E+00 -2.179036E+01 +8.562464E+00 +8.828753E+02 +1.281831E+01 -2.179036E+01 +1.281831E+01 +3.548317E+02 
 +5.295879E+02 +2.933763E+00 -5.326421E+00 +2.933763E+00 +8.861370E+02 +1.555737E+01 -5.326421E+00 +1.555737E+01 +3.486839E+02 
 +5.170159E+02 -2.826164E+00 -7.684957E+00 -2.826164E+00 +8.719079E+02 +7.772655E+00 -7.684957E+00 +7.772655E+00 +3.397861E+02 
 +5.028911E+02 -5.299493E+00 +2.603295E+00 -5.299493E+00 +8.625318E+02 -3.795538E+00 +2.603295E+00 -3.795538E+00 +3.618673E+02 
 +4.997097E+02 -3.343696E+00 -1.078862E+01 -3.343696E+00 +8.616496E+02 -8.452386E+00 -1.078862E+01 -8.452386E+00 +3.672119E+02 
 +4.441381E+02 -3.955368E+00 +1.016933E+01 -3.955368E+00 +8.607955E+02 -3.707589E+00 +1.016933E+01 -3.707589E+00 +3.738488E+02 
 +4.403680E+02 -6.152489E+00 +1.028265E+01 -6.152489E+00 +8.588729E+02 +7.855214E-01 +1.028265E+01 +7.855214E-01 +3.901646E+02 
 +4.454892E+02 -6.802534E+00 +1.257692E+01 -6.802534E+00 +8.605378E+02 +4.554581E+00 +1.257692E+01 +4.554581E+00 +3.863904E+02 
 +4.497841E+02 -9.166592E+00 +1.246098E+01 -9.166592E+00 +8.663709E+02 +7.091744E+00 +1.246098E+01 +7.091744E+00 +3.758784E+02 
 +4.685047E+02 -7.750188E+00 +7.351649E+00 -7.750188E+00 +8.826741E+02 +4.400719E+00 +7.351649E+00 +4.400719E+00 +3.769715E+02 
 +4.787898E+02 -2.767203E+00 -3.567849E+01 -2.767203E+00 +8.838374E+02 +7.206132E-01 -3.567849E+01 +7.206132E-01 +3.782134E+02 
 +4.852238E+02 -1.025200E+00 +1.328498E+01 -1.025200E+00 +8.733835E+02 -2.020159E+00 +1.328498E+01 -2.020159E+00 +3.833438E+02 
 +4.933530E+02 -3.419018E+00 -7.821189E+00 -3.419018E+00 +8.632368E+02 -7.308036E+00 -7.821189E+00 -7.308036E+00 +3.818525E+02 
 +4.976842E+02 +3.163855E+00 +1.978009E+01 +3.163855E+00 +8.607734E+02 -7.102763E+00 +1.978009E+01 -7.102763E+00 +3.991330E+02 
 +5.246010E+02 +1.392795E+00 -9.412768E+00 +1.392795E+00 +8.773221E+02 -5.249509E+00 -9.412768E+00 -5.249509E+00 +4.280432E+02 
 +5.195566E+02 +7.955890E-01 -1.029110E+01 +7.955890E-01 +8.741957E+02 -6.379809E+00 -1.029110E+01 -6.379809E+00 +4.055261E+02 
 +5.260837E+02 +7.928243E+00 -2.755123E+01 +7.928243E+00 +8.751592E+02 -1.058830E+01 -2.755123E+01 -1.058830E+01 +3.879686E+02 
 +5.203492E+02 +5.115673E+00 -2.099030E+01 +5.115673E+00 +8.692920E+02 -1.257012E+01 -2.099030E+01 -1.257012E+01 +3.701487E+02 
 +5.123417E+02 +5.886771E+00 -2.186760E+01 +5.886771E+00 +8.660460E+02 -7.445351E+00 -2.186760E+01 -7.445351E+00 +3.516436E+02 
 +5.104550E+02 +5.890395E+00 -1.924515E+01 +5.890395E+00 +8.672170E+02 +1.163938E+00 -1.924515E+01 +1.163938E+00 +3.359571E+02 
 +5.097540E+02 +6.149198E+00 -2.235171E+01 +6.149198E+00 +8.725228E+02 +1.017978E+01 -2.235171E+01 +1.017978E+01 +3.350580E+02 
 +5.063404E+02 -4.107547E-01 -2.152415E+01 -4.107547E-01 +8.765860E+02 +1.520787E+01 -2.152415E+01 +1.520787E+01 +3.452232E+02 
 +5.141489E+02 -2.979698E+00 -1.799241E+01 -2.979698E+00 +8.819309E+02 +1.335327E+01 -1.799241E+01 +1.335327E+01 +3.488164E+02 
 +5.251760E+02 -1.771597E+00 -1.524499E+01 -1.771597E+00 +8.988149E+02 +5.076653E+00 -1.524499E+01 +5.076653E+00 +3.574253E+02 
 +5.347956E+02 -5.447731E+00 -1.108610E+01 -5.447731E+00 +9.168306E+02 +1.253467E+00 -1.108610E+01 +1.253467E+00 +3.734836E+02 
 +5.213478E+02 -4.338706E+00 -3.579306E+01 -4.338706E+00 +9.080721E+02 -1.975843E+00 -3.579306E+01 -1.975843E+00 +3.815012E+02 
 +4.510841E+02 -6.167184E+00 +1.768660E+01 -6.167184E+00 +8.666296E+02 +5.121318E+00 +1.768660E+01 +5.121318E+00 +3.799641E+02 
 +4.467825E+02 -5.153968E+00 +1.507758E+01 -5.153968E+00 +8.619501E+02 +6.611763E+00 +1.507758E+01 +6.611763E+00 +3.919749E+02 
 +4.459376E+02 -6.662675E+00 +1.631018E+01 -6.662675E+00 +8.631232E+02 +6.940768E+00 +1.631018E+01 +6.940768E+00 +3.851141E+02 
 +4.500536E+02 -9.651429E+00 +1.204027E+01 -9.651429E+00 +8.691298E+02 +5.344587E+00 +1.204027E+01 +5.344587E+00 +3.734100E+02 
 +4.474218E+02 -6.715813E+00 -1.683690E+00 -6.715813E+00 +8.748212E+02 +6.629959E-01 -1.683690E+00 +6.629959E-01 +3.698058E+02 
 +4.474718E+02 -2.102430E+00 -2.835972E+01 -2.102430E+00 +8.672010E+02 +8.628962E+00 -2.835972E+01 +8.628962E+00 +3.643951E+02 
 +4.927831E+02 -2.120611E+00 +3.738818E-02 -2.120611E+00 +8.679084E+02 +9.880985E+00 +3.738818E-02 +9.880985E+00 +3.732723E+02 
 +5.045023E+02 -5.961568E+00 -1.932736E+00 -5.961568E+00 +8.527102E+02 +5.616813E+00 -1.932736E+00 +5.616813E+00 +3.765233E+02 
 +5.031560E+02 -3.407838E+00 +6.689459E+00 -3.407838E+00 +8.452981E+02 +2.238068E+00 +6.689459E+00 +2.238068E+00 +3.876185E+02 
 +5.088925E+02 -1.366128E+00 -1.065584E+01 -1.366128E+00 +8.620712E+02 -7.536407E+00 -1.065584E+01 -7.536407E+00 +4.052303E+02 
 +5.193038E+02 -2.409627E+00 -8.498484E+00 -2.409627E+00 +8.788879E+02 -1.382190E+01 -8.498484E+00 -1.382190E+01 +3.990444E+02 
 +5.392046E+02 +3.604332E+00 -2.323722E+01 +3.604332E+00 +8.838314E+02 -1.702154E+01 -2.323722E+01 -1.702154E+01 +3.845560E+02 
 +5.326766E+02 +4.246453E+00 -1.610505E+01 +4.246453E+00 +8.773587E+02 -1.296881E+01 -1.610505E+01 -1.296881E+01 +3.704250E+02 
 +5.088017E+02 +3.421285E-01 -1.884447E+01 +3.421285E-01 +8.688235E+02 -9.909365E+00 -1.884447E+01 -9.909365E+00 +3.617740E+02 
 +5.021965E+02 -3.101483E+00 -9.421691E+00 -3.101483E+00 +8.658506E+02 -6.550968E-01 -9.421691E+00 -6.550968E-01 +3.370351E+02 
 +5.039600E+02 -2.615694E+00 -2.162999E+01 -2.615694E+00 +8.703667E+02 +1.044028E+01 -2.162999E+01 +1.044028E+01 +3.254175E+02 
 +5.052686E+02 -7.365280E+00 -2.355688E+01 -7.365280E+00 +8.744018E+02 +1.436272E+01 -2.355688E+01 +1.436272E+01 +3.437171E+02 
 +5.146572E+02 -5.556677E+00 -2.348357E+01 -5.556677E+00 +8.849690E+02 +1.401422E+01 -2.348357E+01 +1.401422E+01 +3.501743E+02 
 +5.168117E+02 -3.424942E+00 -2.132716E+01 -3.424942E+00 +8.927797E+02 +7.748013E+00 -2.132716E+01 +7.748013E+00 +3.559630E+02 
 +5.286319E+02 -8.716251E+00 -4.965942E+00 -8.716251E+00 +9.025729E+02 +1.218649E+00 -4.965942E+00 +1.218649E+00 +3.755062E+02 
 +5.153806E+02 -7.527887E+00 -3.121203E+01 -7.527887E+00 +9.020842E+02 +1.935178E+00 -3.121203E+01 +1.935178E+00 +3.862186E+02 
 +4.576033E+02 -5.317053E+00 +2.120050E+01 -5.317053E+00 +8.698869E+02 +1.188200E+01 +2.120050E+01 +1.188200E+01 +3.885768E+02 
 +4.473792E+02 -2.272022E+00 +1.781214E+01 -2.272022E+00 +8.645558E+02 +7.877668E+00 +1.781214E+01 +7.877668E+00 +3.917006E+02 
 +4.469112E+02 -3.322400E+00 +1.811727E+01 -3.322400E+00 +8.680432E+02 +4.671674E+00 +1.811727E+01 +4.671674E+00 +3.848778E+02 
 +4.446880E+02 -5.140933E+00 +1.194864E+01 -5.140933E+00 +8.707009E+02 -1.276785E+00 +1.194864E+01 -1.276785E+00 +3.756460E+02 
 +4.355563E+02 -6.344634E+00 +8.150285E+00 -6.344634E+00 +8.653707E+02 -1.216942E+00 +8.150285E+00 -1.216942E+00 +3.711118E+02 
 +4.580450E+02 -5.217374E-01 -2.242337E+01 -5.217374E-01 +8.691721E+02 -1.542969E+00 -2.242337E+01 -1.542969E+00 +3.663821E+02 
 +5.071255E+02 +5.553603E+00 -1.127952E+01 +5.553603E+00 +8.823382E+02 -2.679602E+00 -1.127952E+01 -2.679602E+00 +3.717729E+02 
 +5.113309E+02 +7.078885E-01 +2.141023E+00 +7.078885E-01 +8.737550E+02 -3.457058E+00 +2.141023E+00 -3.457058E+00 +3.735354E+02 
 +5.192893E+02 +5.716975E+00 -8.077433E+00 +5.716975E+00 +8.805482E+02 -1.107424E+01 -8.077433E+00 -1.107424E+01 +3.728772E+02 
 +5.106387E+02 +6.144412E+00 -1.417092E+01 +6.144412E+00 +8.760682E+02 -1.408271E+01 -1.417092E+01 -1.408271E+01 +3.704843E+02 
 +5.077881E+02 +4.965172E+00 -6.712161E+00 +4.965172E+00 +8.669171E+02 -1.720518E+01 -6.712161E+00 -1.720518E+01 +3.641748E+02 
 +5.259452E+02 +3.495459E+00 +5.899491E+00 +3.495459E+00 +8.753885E+02 -7.994143E+00 +5.899491E+00 -7.994143E+00 +3.524137E+02 
 +5.308893E+02 -6.971378E-01 -1.078947E-01 -6.971378E-01 +8.823003E+02 +2.520998E-01 -1.078947E-01 +2.520998E-01 +3.546679E+02 
 +4.975602E+02 -7.378603E+00 +5.872043E-01 -7.378603E+00 +8.666191E+02 -3.099064E+00 +5.872043E-01 -3.099064E+00 +3.606340E+02 
 +4.841934E+02 -7.458836E+00 +1.180349E+01 -7.458836E+00 +8.514164E+02 -1.009226E+00 +1.180349E+01 -1.009226E+00 +3.383784E+02 
 +4.965969E+02 -7.607301E+00 -9.946476E+00 -7.607301E+00 +8.540728E+02 -3.193798E-01 -9.946476E+00 -3.193798E-01 +3.258614E+02 
 +5.048718E+02 -1.547304E+01 -1.616971E+01 -1.547304E+01 +8.668016E+02 +8.608366E+00 -1.616971E+01 +8.608366E+00 +3.524395E+02 
 +5.138420E+02 -1.112534E+01 -2.640652E+01 -1.112534E+01 +8.792551E+02 +1.254214E+01 -2.640652E+01 +1.254214E+01 +3.640904E+02 
 +5.299691E+02 -6.446683E+00 -1.984044E+01 -6.446683E+00 +9.020115E+02 +9.560804E+00 -1.984044E+01 +9.560804E+00 +3.736801E+02 
 +5.553245E+02 -6.923603E+00 -5.661887E+00 -6.923603E+00 +9.374511E+02 +1.246239E+01 -5.661887E+00 +1.246239E+01 +4.007593E+02 
 +5.421005E+02 -8.114355E+00 -2.581530E+01 -8.114355E+00 +9.296496E+02 +1.342097E+01 -2.581530E+01 +1.342097E+01 +4.117925E+02 
 +4.486947E+02 -5.109277E-01 +1.827496E+01 -5.109277E-01 +8.607449E+02 +1.298914E+01 +1.827496E+01 +1.298914E+01 +3.941219E+02 
 +4.431410E+02 +2.477346E+00 +1.574916E+01 +2.477346E+00 +8.647278E+02 +4.850577E+00 +1.574916E+01 +4.850577E+00 +3.889052E+02 
 +4.489151E+02 +6.384863E-01 +1.735003E+01 +6.384863E-01 +8.727734E+02 -3.154905E+00 +1.735003E+01 -3.154905E+00 +3.835751E+02 
 +4.469459E+02 -1.021369E-01 +1.405655E+01 -1.021369E-01 +8.738712E+02 -6.454790E+00 +1.405655E+01 -6.454790E+00 +3.827410E+02 
 +4.265985E+02 -3.349317E-01 +1.627095E+01 -3.349317E-01 +8.580546E+02 -1.141543E+01 +1.627095E+01 -1.141543E+01 +3.763127E+02 
 +4.797687E+02 +3.014497E+00 -1.744255E+01 +3.014497E+00 +8.736731E+02 -7.796154E+00 -1.744255E+01 -7.796154E+00 +3.757118E+02 
 +5.066155E+02 +2.467818E+00 -1.964534E+01 +2.467818E+00 +8.833698E+02 -3.767971E+00 -1.964534E+01 -3.767971E+00 +3.625429E+02 
 +5.111689E+02 -2.191271E-01 -1.084871E+01 -2.191271E-01 +8.898612E+02 -9.156083E+00 -1.084871E+01 -9.156083E+00 +3.558217E+02 
 +5.077252E+02 +5.899942E+00 -1.611316E+01 +5.899942E+00 +8.797376E+02 -1.008626E+01 -1.611316E+01 -1.008626E+01 +3.358823E+02 
 +5.028240E+02 +4.193865E+00 -2.782016E+00 +4.193865E+00 +8.674699E+02 -2.825063E-01 -2.782016E+00 -2.825063E-01 +3.256296E+02 
 +5.063908E+02 +5.938221E+00 -2.179136E+00 +5.938221E+00 +8.696696E+02 +2.142451E+00 -2.179136E+00 +2.142451E+00 +3.351552E+02 
 +4.996216E+02 +6.315626E+00 +3.434088E+01 +6.315626E+00 +8.622287E+02 +9.638606E-01 +3.434088E+01 +9.638606E-01 +3.345217E+02 
 +5.294941E+02 +6.803861E+00 +9.791617E+00 +6.803861E+00 +8.767082E+02 +5.119740E+00 +9.791617E+00 +5.119740E+00 +3.529408E+02 
 +4.906764E+02 +4.461379E+00 +1.278859E+01 +4.461379E+00 +8.609120E+02 +2.549945E+00 +1.278859E+01 +2.549945E+00 +3.475961E+02 
 +4.769151E+02 +3.807430E+00 +2.218431E+01 +3.807430E+00 +8.532371E+02 -3.404503E+00 +2.218431E+01 -3.404503E+00 +3.409063E+02 
 +4.895817E+02 +3.127734E+00 +1.297105E+01 +3.127734E+00 +8.541750E+02 -1.167975E+01 +1.297105E+01 -1.167975E+01 +3.435250E+02 
 +4.891523E+02 -9.606081E+00 +1.554712E+01 -9.606081E+00 +8.584900E+02 -1.491372E+00 +1.554712E+01 -1.491372E+00 +3.643672E+02 
 +5.108852E+02 -1.232330E+01 -3.357407E+01 -1.232330E+01 +8.672115E+02 +4.200787E+00 -3.357407E+01 +4.200787E+00 +3.804286E+02 
 +5.266657E+02 -5.316448E+00 -9.932817E+00 -5.316448E+00 +8.599637E+02 -9.038160E-01 -9.932817E+00 -9.038160E-01 +3.825888E+02 
 +5.355358E+02 +1.902354E-01 -2.960263E+00 +1.902354E-01 +8.591056E+02 +3.671084E+00 -2.960263E+00 +3.671084E+00 +3.967696E+02 
 +5.354399E+02 +1.858548E+00 -1.478804E+01 +1.858548E+00 +8.844074E+02 +1.074010E+01 -1.478804E+01 +1.074010E+01 +4.191743E+02 
 +4.406180E+02 +3.945166E-01 +9.844019E+00 +3.945166E-01 +8.455527E+02 +6.795047E+00 +9.844019E+00 +6.795047E+00 +4.004496E+02 
 +4.507850E+02 +4.238782E+00 +1.314663E+01 +4.238782E+00 +8.723331E+02 -4.086577E+00 +1.314663E+01 -4.086577E+00 +4.066255E+02 
 +4.603420E+02 +3.043111E+00 +1.453051E+01 +3.043111E+00 +8.781636E+02 -1.288987E+01 +1.453051E+01 -1.288987E+01 +4.023772E+02 
 +4.522541E+02 +3.204478E+00 +1.703687E+01 +3.204478E+00 +8.703026E+02 -1.345152E+01 +1.703687E+01 -1.345152E+01 +3.998860E+02 
 +4.386943E+02 +3.558080E+00 +9.671186E+00 +3.558080E+00 +8.605466E+02 -1.473315E+01 +9.671186E+00 -1.473315E+01 +3.922219E+02 
 +4.569409E+02 +1.655366E+00 +1.703981E+00 +1.655366E+00 +8.659089E+02 -6.705451E+00 +1.703981E+00 -6.705451E+00 +3.768097E+02 
 +5.134967E+02 +5.249153E-01 -3.218118E+01 +5.249153E-01 +8.900690E+02 +2.213258E-01 -3.218118E+01 +2.213258E-01 +3.648982E+02 
 +5.089311E+02 -3.338742E-01 -1.839935E+01 -3.338742E-01 +8.846045E+02 -4.015172E+00 -1.839935E+01 -4.015172E+00 +3.429719E+02 
 +5.015412E+02 +4.101453E+00 -1.867799E+01 +4.101453E+00 +8.727873E+02 +2.688095E+00 -1.867799E+01 +2.688095E+00 +3.184823E+02 
 +5.009459E+02 +5.843619E+00 +2.070772E+01 +5.843619E+00 +8.638706E+02 +8.830823E+00 +2.070772E+01 +8.830823E+00 +3.041236E+02 
 +5.030507E+02 +7.391630E+00 +4.981041E+00 +7.391630E+00 +8.642004E+02 +1.939451E+00 +4.981041E+00 +1.939451E+00 +3.139209E+02 
 +4.923489E+02 +7.778887E+00 +3.886721E+01 +7.778887E+00 +8.617394E+02 -7.010653E+00 +3.886721E+01 -7.010653E+00 +3.378559E+02 
 +5.346372E+02 +7.033350E+00 +1.079013E+01 +7.033350E+00 +8.835140E+02 -7.803381E+00 +1.079013E+01 -7.803381E+00 +3.708920E+02 
 +4.885027E+02 +3.621833E+00 +1.307574E+01 +3.621833E+00 +8.578318E+02 -7.457598E+00 +1.307574E+01 -7.457598E+00 +3.502201E+02 
 +4.815829E+02 -2.425947E-01 +1.914431E+01 -2.425947E-01 +8.621822E+02 -6.312828E+00 +1.914431E+01 -6.312828E+00 +3.573375E+02 
 +4.827293E+02 +5.176380E-01 +2.505648E+01 +5.176380E-01 +8.627412E+02 -5.542693E+00 +2.505648E+01 -5.542693E+00 +3.630701E+02 
 +4.857295E+02 -2.219029E+00 +3.788417E+01 -2.219029E+00 +8.650471E+02 -8.863709E+00 +3.788417E+01 -8.863709E+00 +3.763741E+02 
 +5.043875E+02 -8.732195E+00 -3.283136E+01 -8.732195E+00 +8.630926E+02 -4.521281E+00 -3.283136E+01 -4.521281E+00 +3.831081E+02 
 +5.379752E+02 -4.144822E+00 -4.435909E+00 -4.144822E+00 +8.548154E+02 +5.402332E+00 -4.435909E+00 +5.402332E+00 +3.870262E+02 
 +5.314380E+02 -1.612342E+00 -2.824481E+00 -1.612342E+00 +8.387481E+02 +5.659885E+00 -2.824481E+00 +5.659885E+00 +3.915706E+02 
 +5.334815E+02 +5.843438E+00 -5.806753E+00 +5.843438E+00 +8.584815E+02 +7.049806E+00 -5.806753E+00 +7.049806E+00 +4.156378E+02 
 +4.507470E+02 -1.858880E+00 -8.097071E-01 -1.858880E+00 +8.454336E+02 +4.644997E+00 -8.097071E-01 +4.644997E+00 +3.849360E+02 
 +4.709490E+02 -9.360920E-01 +8.049859E+00 -9.360920E-01 +8.766555E+02 -4.232910E+00 +8.049859E+00 -4.232910E+00 +3.949809E+02 
 +4.887065E+02 +4.118055E+00 +7.419924E+00 +4.118055E+00 +8.880575E+02 -1.163647E+01 +7.419924E+00 -1.163647E+01 +4.086663E+02 
 +4.450323E+02 +4.391874E+00 +2.047029E+01 +4.391874E+00 +8.609472E+02 -1.618246E+01 +2.047029E+01 -1.618246E+01 +4.070671E+02 
 +4.466842E+02 +3.591242E+00 +7.605253E+00 +3.591242E+00 +8.654689E+02 -1.274216E+01 +7.605253E+00 -1.274216E+01 +4.083996E+02 
 +4.383163E+02 +1.557999E+00 +1.357378E+01 +1.557999E+00 +8.625046E+02 -6.538427E+00 +1.357378E+01 -6.538427E+00 +3.819123E+02 
 +5.213640E+02 +3.885905E+00 -4.014331E+01 +3.885905E+00 +8.963604E+02 -1.020466E+00 -4.014331E+01 -1.020466E+00 +3.767248E+02 
 +5.125409E+02 +2.350621E+00 -2.170426E+01 +2.350621E+00 +8.816347E+02 +1.120366E+00 -2.170426E+01 +1.120366E+00 +3.471966E+02 
 +5.041466E+02 +3.708562E+00 -2.026165E+01 +3.708562E+00 +8.708271E+02 +8.002053E+00 -2.026165E+01 +8.002053E+00 +3.187468E+02 
 +5.058102E+02 +6.748207E+00 +3.067303E+01 +6.748207E+00 +8.693986E+02 +1.580857E+01 +3.067303E+01 +1.580857E+01 +3.005033E+02 
 +5.079063E+02 +7.776365E+00 +7.973793E+00 +7.776365E+00 +8.738104E+02 +1.134503E+01 +7.973793E+00 +1.134503E+01 +3.063820E+02 
 +4.956332E+02 +5.795821E+00 +3.189161E+01 +5.795821E+00 +8.684393E+02 -6.084511E+00 +3.189161E+01 -6.084511E+00 +3.455135E+02 
 +5.147224E+02 +4.185941E+00 +1.661983E+01 +4.185941E+00 +8.794945E+02 -1.638207E+01 +1.661983E+01 -1.638207E+01 +3.843137E+02 
 +4.902238E+02 +7.495235E-02 +1.316600E+01 +7.495235E-02 +8.653010E+02 -1.215468E+01 +1.316600E+01 -1.215468E+01 +3.702839E+02 
 +4.847186E+02 -5.339942E+00 +1.772643E+01 -5.339942E+00 +8.647777E+02 -6.526175E+00 +1.772643E+01 -6.526175E+00 +3.759517E+02 
 +4.835155E+02 -5.949757E+00 +3.006628E+01 -5.949757E+00 +8.632231E+02 -5.858649E+00 +3.006628E+01 -5.858649E+00 +3.794115E+02 
 +4.921423E+02 -5.154358E+00 +3.707539E+01 -5.154358E+00 +8.579051E+02 -1.583240E+01 +3.707539E+01 -1.583240E+01 +3.798685E+02 
 +5.102155E+02 -8.293744E+00 -1.091477E+01 -8.293744E+00 +8.590632E+02 -9.915806E+00 -1.091477E+01 -9.915806E+00 +3.729773E+02 
 +5.350306E+02 -2.351621E+00 -1.522782E+00 -2.351621E+00 +8.678467E+02 +5.566789E+00 -1.522782E+00 +5.566789E+00 +3.711306E+02 
 +5.184686E+02 -2.276047E+00 -7.292952E-01 -2.276047E+00 +8.507902E+02 +6.684896E+00 -7.292952E-01 +6.684896E+00 +3.685197E+02 
 +5.066844E+02 +6.652311E+00 +2.173713E+00 +6.652311E+00 +8.499479E+02 +8.463200E+00 +2.173713E+00 +8.463200E+00 +3.856187E+02 
 +4.752476E+02 -4.393379E+00 -1.121026E+01 -4.393379E+00 +8.667012E+02 +4.904675E+00 -1.121026E+01 +4.904675E+00 +3.535528E+02 
 +4.962310E+02 -8.447822E+00 +3.236910E+00 -8.447822E+00 +8.743949E+02 +1.142612E+00 +3.236910E+00 +1.142612E+00 +3.596393E+02 
 +5.251599E+02 -3.614984E+00 +4.624280E+00 -3.614984E+00 +8.985532E+02 -4.067982E+00 +4.624280E+00 -4.067982E+00 +3.947941E+02 
 +4.370554E+02 -4.098245E+00 +2.471135E+01 -4.098245E+00 +8.628351E+02 -1.402072E+01 +2.471135E+01 -1.402072E+01 +4.040000E+02 
 +4.400848E+02 -9.585249E-01 +1.528015E+01 -9.585249E-01 +8.626042E+02 -8.283954E+00 +1.528015E+01 -8.283954E+00 +4.148761E+02 
 +4.574426E+02 +1.247676E+00 +2.766312E+00 +1.247676E+00 +8.662921E+02 -5.102137E+00 +2.766312E+00 -5.102137E+00 +3.963559E+02 
 +5.179291E+02 +5.296444E+00 -3.827114E+01 +5.296444E+00 +8.918533E+02 -4.369803E+00 -3.827114E+01 -4.369803E+00 +3.844027E+02 
 +5.132189E+02 +5.630980E+00 -2.581341E+01 +5.630980E+00 +8.819049E+02 +4.159280E+00 -2.581341E+01 +4.159280E+00 +3.546984E+02 
 +5.068926E+02 +4.441048E+00 -2.652728E+01 +4.441048E+00 +8.731542E+02 +1.312393E+01 -2.652728E+01 +1.312393E+01 +3.226551E+02 
 +5.064438E+02 +7.405105E+00 +1.551680E+01 +7.405105E+00 +8.662420E+02 +1.477550E+01 +1.551680E+01 +1.477550E+01 +3.049090E+02 
 +5.027191E+02 +6.381457E+00 -2.473151E+00 +6.381457E+00 +8.645202E+02 +3.317438E+00 -2.473151E+00 +3.317438E+00 +3.155837E+02 
 +4.941899E+02 +8.756153E-01 +2.111154E+01 +8.756153E-01 +8.711542E+02 -6.716391E+00 +2.111154E+01 -6.716391E+00 +3.527546E+02 
 +4.957138E+02 +2.320518E+00 +1.746241E+01 +2.320518E+00 +8.786285E+02 -1.211239E+01 +1.746241E+01 -1.211239E+01 +3.849216E+02 
 +4.849871E+02 +5.118388E-01 +1.314581E+01 +5.118388E-01 +8.688316E+02 -1.008630E+01 +1.314581E+01 -1.008630E+01 +3.830242E+02 
 +4.874841E+02 -4.152163E+00 +2.149928E+01 -4.152163E+00 +8.695840E+02 -7.114216E+00 +2.149928E+01 -7.114216E+00 +3.923314E+02 
 +4.979220E+02 -6.326148E+00 +3.160367E+01 -6.326148E+00 +8.742467E+02 -7.258490E+00 +3.160367E+01 -7.258490E+00 +4.017960E+02 
 +5.035148E+02 -9.165745E+00 +2.798528E+01 -9.165745E+00 +8.668031E+02 -1.095767E+01 +2.798528E+01 -1.095767E+01 +3.812538E+02 
 +5.373356E+02 -1.129155E+01 +1.130817E+01 -1.129155E+01 +8.795795E+02 -6.022550E+00 +1.130817E+01 -6.022550E+00 +3.648834E+02 
 +5.246997E+02 -5.239174E+00 +3.076523E+00 -5.239174E+00 +8.854899E+02 +3.639034E+00 +3.076523E+00 +3.639034E+00 +3.493605E+02 
 +5.084181E+02 -1.054509E+01 +7.746342E+00 -1.054509E+01 +8.928990E+02 +6.246658E+00 +7.746342E+00 +6.246658E+00 +3.504413E+02 
 +4.725568E+02 -3.628652E+00 +1.319345E+01 -3.628652E+00 +8.720238E+02 +7.522208E+00 +1.319345E+01 +7.522208E+00 +3.487633E+02 
 +4.900035E+02 +7.336612E+00 -7.314086E+00 +7.336612E+00 +8.530965E+02 +7.147873E+00 -7.314086E+00 +7.147873E+00 +3.676518E+02 
 +5.030635E+02 -4.156435E+00 +8.042861E+00 -4.156435E+00 +8.551651E+02 +7.056127E+00 +8.042861E+00 +7.056127E+00 +3.730105E+02 
 +5.248828E+02 -6.424440E+00 +9.003298E+00 -6.424440E+00 +8.814833E+02 +2.099655E+00 +9.003298E+00 +2.099655E+00 +3.973461E+02 
 +4.673439E+02 -1.180230E+01 +2.196147E+01 -1.180230E+01 +8.775879E+02 -8.208105E+00 +2.196147E+01 -8.208105E+00 +4.161637E+02 
 +4.352741E+02 -6.297826E+00 +3.019893E+01 -6.297826E+00 +8.575574E+02 -1.143941E+01 +3.019893E+01 -1.143941E+01 +4.165390E+02 
 +4.931383E+02 +3.652259E+00 -1.959501E+01 +3.652259E+00 +8.743773E+02 -1.026088E+01 -1.959501E+01 -1.026088E+01 +4.135625E+02 
 +5.156675E+02 +5.920251E+00 -3.080963E+01 +5.920251E+00 +8.847531E+02 -7.226289E+00 -3.080963E+01 -7.226289E+00 +3.959333E+02 
 +5.138341E+02 +8.154750E+00 -3.122962E+01 +8.154750E+00 +8.813975E+02 +4.137304E+00 -3.122962E+01 +4.137304E+00 +3.775339E+02 
 +5.085949E+02 +5.961135E+00 -3.579243E+01 +5.961135E+00 +8.723045E+02 +1.390605E+01 -3.579243E+01 +1.390605E+01 +3.447473E+02 
 +5.054756E+02 +6.039398E+00 -1.673565E+01 +6.039398E+00 +8.665399E+02 +1.220602E+01 -1.673565E+01 +1.220602E+01 +3.233661E+02 
 +5.070023E+02 +6.747863E+00 -1.350149E+01 +6.747863E+00 +8.742463E+02 +2.977248E+00 -1.350149E+01 +2.977248E+00 +3.363622E+02 
 +4.902232E+02 +1.165002E+00 +1.579108E+01 +1.165002E+00 +8.756025E+02 +4.901258E+00 +1.579108E+01 +4.901258E+00 +3.584752E+02 
 +4.858973E+02 -3.464934E-01 +6.302209E+00 -3.464934E-01 +8.779106E+02 +2.958424E+00 +6.302209E+00 +2.958424E+00 +3.859583E+02 
 +4.816422E+02 -2.003872E+00 +5.961506E+00 -2.003872E+00 +8.728718E+02 -4.712623E+00 +5.961506E+00 -4.712623E+00 +4.005765E+02 
 +4.997102E+02 -2.316690E+00 +1.605621E+01 -2.316690E+00 +8.822613E+02 -1.099919E+01 +1.605621E+01 -1.099919E+01 +4.162705E+02 
 +5.114432E+02 -3.606956E+00 +2.690589E+01 -3.606956E+00 +8.846715E+02 -9.073827E+00 +2.690589E+01 -9.073827E+00 +3.997698E+02 
 +5.230547E+02 -1.708889E+00 +1.807476E+01 -1.708889E+00 +8.806125E+02 -2.940339E+00 +1.807476E+01 -2.940339E+00 +3.706779E+02 
 +5.129480E+02 -4.925291E+00 +1.906020E+01 -4.925291E+00 +8.737797E+02 -1.505318E-01 +1.906020E+01 -1.505318E-01 +3.511311E+02 
 +5.015253E+02 -8.715953E+00 +9.749174E+00 -8.715953E+00 +8.745330E+02 +4.323265E+00 +9.749174E+00 +4.323265E+00 +3.409524E+02 
 +4.595592E+02 -1.424533E+01 +1.385158E+01 -1.424533E+01 +8.608324E+02 +8.273899E+00 +1.385158E+01 +8.273899E+00 +3.202730E+02 
 +4.535954E+02 -6.214448E+00 +1.875329E+01 -6.214448E+00 +8.504118E+02 +5.891385E+00 +1.875329E+01 +5.891385E+00 +3.354531E+02 
 +5.091230E+02 +7.309738E+00 +3.054831E-01 +7.309738E+00 +8.570771E+02 +7.712957E+00 +3.054831E-01 +7.712957E+00 +3.893406E+02 
 +5.043822E+02 +4.923224E-02 +1.044748E+01 +4.923224E-02 +8.557633E+02 +9.914434E+00 +1.044748E+01 +9.914434E+00 +3.848867E+02 
 +4.972737E+02 +2.633838E+00 +1.073161E+01 +2.633838E+00 +8.534510E+02 +8.712730E+00 +1.073161E+01 +8.712730E+00 +3.857538E+02 
 +4.926475E+02 -3.270619E-01 +1.415398E+01 -3.270619E-01 +8.642454E+02 +4.361707E+00 +1.415398E+01 +4.361707E+00 +4.103219E+02 
 +4.324685E+02 -9.205110E+00 +3.326419E+01 -9.205110E+00 +8.503378E+02 -1.125599E+01 +3.326419E+01 -1.125599E+01 +4.104192E+02 
 +5.197172E+02 -1.038390E+00 -2.296435E+01 -1.038390E+00 +8.920055E+02 -1.201699E+01 -2.296435E+01 -1.201699E+01 +4.236331E+02 
 +5.193969E+02 +7.952842E-01 -2.555500E+01 +7.952842E-01 +8.822598E+02 -4.103983E-01 -2.555500E+01 -4.103983E-01 +3.998190E+02 
 +5.145051E+02 +3.999448E+00 -3.289892E+01 +3.999448E+00 +8.792691E+02 +6.028330E+00 -3.289892E+01 +6.028330E+00 +3.925745E+02 
 +5.119714E+02 +3.065402E+00 -3.886234E+01 +3.065402E+00 +8.711792E+02 +1.336615E+01 -3.886234E+01 +1.336615E+01 +3.671243E+02 
 +5.060934E+02 +7.846696E+00 -2.987869E+01 +7.846696E+00 +8.633337E+02 +1.244355E+01 -2.987869E+01 +1.244355E+01 +3.458624E+02 
 +5.113258E+02 +1.498498E+01 -1.406379E+01 +1.498498E+01 +8.791993E+02 +1.006450E+01 -1.406379E+01 +1.006450E+01 +3.600027E+02 
 +4.871487E+02 +4.718406E+00 +1.261437E+01 +4.718406E+00 +8.796046E+02 +1.482463E+01 +1.261437E+01 +1.482463E+01 +3.741992E+02 
 +4.740679E+02 +1.697618E+00 -3.125833E+00 +1.697618E+00 +8.716769E+02 +1.326418E+01 -3.125833E+00 +1.326418E+01 +3.852824E+02 
 +4.813791E+02 +1.415616E+00 -5.196844E+00 +1.415616E+00 +8.712944E+02 +5.626053E+00 -5.196844E+00 +5.626053E+00 +4.050901E+02 
 +4.987921E+02 +6.122283E+00 +3.164903E+00 +6.122283E+00 +8.775208E+02 -1.207607E+00 +3.164903E+00 -1.207607E+00 +4.101375E+02 
 +5.335299E+02 +5.914637E+00 +1.925794E+01 +5.914637E+00 +8.893618E+02 -4.769810E+00 +1.925794E+01 -4.769810E+00 +3.817838E+02 
 +5.182603E+02 +1.088535E+00 +1.632304E+01 +1.088535E+00 +8.786385E+02 -2.904181E+00 +1.632304E+01 -2.904181E+00 +3.647227E+02 
 +4.731348E+02 -3.266827E+00 +1.973347E+01 -3.266827E+00 +8.630319E+02 -2.666217E+00 +1.973347E+01 -2.666217E+00 +3.574908E+02 
 +4.803661E+02 -5.973351E+00 +1.498105E+01 -5.973351E+00 +8.727461E+02 -1.583750E+00 +1.498105E+01 -1.583750E+00 +3.585968E+02 
 +4.496248E+02 -7.928869E+00 +1.430107E+01 -7.928869E+00 +8.476732E+02 +4.128485E+00 +1.430107E+01 +4.128485E+00 +3.299088E+02 
 +4.648757E+02 -1.028258E+01 +1.919613E+01 -1.028258E+01 +8.430299E+02 +5.653240E+00 +1.919613E+01 +5.653240E+00 +3.491749E+02 
 +5.070414E+02 +3.854495E+00 -3.125561E+00 +3.854495E+00 +8.559146E+02 +1.042870E+01 -3.125561E+00 +1.042870E+01 +3.808776E+02 
 +5.080684E+02 +3.116880E+00 +6.284203E+00 +3.116880E+00 +8.540857E+02 +1.146640E+01 +6.284203E+00 +1.146640E+01 +3.838503E+02 
 +4.875876E+02 +7.225655E-01 +1.048793E+01 +7.225655E-01 +8.535735E+02 +1.026991E+01 +1.048793E+01 +1.026991E+01 +3.762621E+02 
 +5.026738E+02 -9.735047E-01 +7.239584E+00 -9.735047E-01 +8.724528E+02 +1.209326E+01 +7.239584E+00 +1.209326E+01 +3.983485E+02 
 +4.554623E+02 -9.505374E+00 +9.301178E+00 -9.505374E+00 +8.621290E+02 +3.994958E+00 +9.301178E+00 +3.994958E+00 +3.955010E+02 
 +5.201488E+02 -3.087585E+00 -1.188587E+01 -3.087585E+00 +8.996126E+02 -4.423537E+00 -1.188587E+01 -4.423537E+00 +3.989040E+02 
 +5.190840E+02 -3.259746E+00 -2.066061E+01 -3.259746E+00 +8.869063E+02 +8.667843E-01 -2.066061E+01 +8.667843E-01 +3.772868E+02 
 +5.068040E+02 -4.814925E-01 -2.521732E+01 -4.814925E-01 +8.699921E+02 +7.244832E+00 -2.521732E+01 +7.244832E+00 +3.638106E+02 
 +5.087744E+02 -6.471495E-01 -2.564894E+01 -6.471495E-01 +8.692740E+02 +1.488717E+01 -2.564894E+01 +1.488717E+01 +3.557217E+02 
 +5.111999E+02 -3.966734E-01 -1.818629E+01 -3.966734E-01 +8.743771E+02 +1.808409E+01 -1.818629E+01 +1.808409E+01 +3.663947E+02 
 +5.151783E+02 +8.193742E+00 -5.015021E+00 +8.193742E+00 +8.798101E+02 +2.217488E+01 -5.015021E+00 +2.217488E+01 +3.813730E+02 
 +4.859823E+02 +2.680920E-01 +7.229678E+00 +2.680920E-01 +8.729419E+02 +2.415186E+01 +7.229678E+00 +2.415186E+01 +3.788078E+02 
 +4.845026E+02 +1.692153E+00 +7.985018E-02 +1.692153E+00 +8.749417E+02 +1.386712E+01 +7.985018E-02 +1.386712E+01 +3.800369E+02 
 +4.778710E+02 +6.742179E+00 -3.302518E+00 +6.742179E+00 +8.644510E+02 +8.263907E+00 -3.302518E+00 +8.263907E+00 +3.812823E+02 
 +4.806591E+02 +1.245338E+01 +2.855445E+00 +1.245338E+01 +8.550564E+02 +9.725382E+00 +2.855445E+00 +9.725382E+00 +3.718373E+02 
 +5.489176E+02 +8.396243E+00 +1.086818E+01 +8.396243E+00 +8.899323E+02 +2.579066E+00 +1.086818E+01 +2.579066E+00 +3.844530E+02 
 +4.739552E+02 -3.623962E+00 +2.077634E+01 -3.623962E+00 +8.607180E+02 -3.230913E+00 +2.077634E+01 -3.230913E+00 +3.705384E+02 
 +4.633822E+02 -5.410652E+00 +1.560521E+01 -5.410652E+00 +8.626476E+02 -7.260646E+00 +1.560521E+01 -7.260646E+00 +3.754847E+02 
 +4.612129E+02 -3.943139E+00 +1.447637E+01 -3.943139E+00 +8.564780E+02 -1.116223E+01 +1.447637E+01 -1.116223E+01 +3.570543E+02 
 +4.692192E+02 +1.184416E+00 +3.063592E+00 +1.184416E+00 +8.512743E+02 -5.432446E+00 +3.063592E+00 -5.432446E+00 +3.391735E+02 
 +4.473928E+02 -5.543477E+00 +1.431866E+01 -5.543477E+00 +8.340147E+02 +4.584395E+00 +1.431866E+01 +4.584395E+00 +3.391144E+02 
 +4.852632E+02 +3.700468E+00 -5.488260E+00 +3.700468E+00 +8.536775E+02 +9.913583E+00 -5.488260E+00 +9.913583E+00 +3.811557E+02 
 +4.920658E+02 +6.333239E+00 +2.058147E+00 +6.333239E+00 +8.462722E+02 +2.490215E+01 +2.058147E+00 +2.490215E+01 +3.802416E+02 
 +4.849842E+02 -1.220263E+00 +1.701787E-01 -1.220263E+00 +8.494862E+02 +3.510853E+01 +1.701787E-01 +3.510853E+01 +3.722084E+02 
 +4.890164E+02 -2.223227E-01 -6.455332E+00 -2.223227E-01 +8.528071E+02 +3.025329E+01 -6.455332E+00 +3.025329E+01 +3.792352E+02 
 +5.025960E+02 +1.500664E+00 -1.650751E+01 +1.500664E+00 +8.721581E+02 +1.593091E+01 -1.650751E+01 +1.593091E+01 +3.892713E+02 
 +5.181005E+02 +3.101574E+00 -1.320036E+01 +3.101574E+00 +8.934603E+02 +3.969184E+00 -1.320036E+01 +3.969184E+00 +3.807873E+02 
 +5.045593E+02 +1.891551E+00 -1.134686E+01 +1.891551E+00 +8.799134E+02 +1.727279E+00 -1.134686E+01 +1.727279E+00 +3.558659E+02 
 +5.000480E+02 +1.708937E+00 -7.814409E+00 +1.708937E+00 +8.687789E+02 +1.018017E+01 -7.814409E+00 +1.018017E+01 +3.422053E+02 
 +5.007206E+02 +1.203187E+00 -1.110151E+01 +1.203187E+00 +8.663700E+02 +1.647591E+01 -1.110151E+01 +1.647591E+01 +3.530836E+02 
 +5.007017E+02 -1.053029E-01 -4.409231E+00 -1.053029E-01 +8.674951E+02 +2.044082E+01 -4.409231E+00 +2.044082E+01 +3.801726E+02 
 +4.973540E+02 +5.086712E+00 +6.188147E+00 +5.086712E+00 +8.445887E+02 +2.454378E+01 +6.188147E+00 +2.454378E+01 +3.764660E+02 
 +4.770965E+02 +9.238469E+00 +4.379433E+00 +9.238469E+00 +8.143696E+02 +2.214867E+01 +4.379433E+00 +2.214867E+01 +3.541250E+02 
 +4.612109E+02 +8.595909E+00 +3.083625E+00 +8.595909E+00 +8.137733E+02 +1.894869E+01 +3.083625E+00 +1.894869E+01 +3.491093E+02 
 +4.568755E+02 +9.689250E+00 -1.958390E-02 +9.689250E+00 +8.328472E+02 +1.804250E+01 -1.958390E-02 +1.804250E+01 +3.529341E+02 
 +4.599399E+02 +3.858897E+00 +7.270852E+00 +3.858897E+00 +8.373228E+02 +2.061593E+01 +7.270852E+00 +2.061593E+01 +3.426546E+02 
 +5.002963E+02 -1.916408E+00 +2.568978E+00 -1.916408E+00 +8.529754E+02 +1.863941E+01 +2.568978E+00 +1.863941E+01 +3.537168E+02 
 +4.530913E+02 -6.927558E+00 +1.496355E+01 -6.927558E+00 +8.489170E+02 +6.292152E+00 +1.496355E+01 +6.292152E+00 +3.571883E+02 
 +4.656221E+02 -5.552580E+00 +7.407649E+00 -5.552580E+00 +8.661460E+02 -7.391574E+00 +7.407649E+00 -7.391574E+00 +3.655162E+02 
 +4.549853E+02 -1.614884E+00 +8.482206E+00 -1.614884E+00 +8.449209E+02 -1.457833E+01 +8.482206E+00 -1.457833E+01 +3.276650E+02 
 +4.853339E+02 +1.700927E+00 -1.170743E+01 +1.700927E+00 +8.557419E+02 -1.267890E+01 -1.170743E+01 -1.267890E+01 +3.256654E+02 
 +4.450919E+02 -1.291910E+00 +6.472123E+00 -1.291910E+00 +8.398900E+02 -2.756527E+00 +6.472123E+00 -2.756527E+00 +3.417414E+02 
 +4.766842E+02 -3.931881E+00 +1.353962E+00 -3.931881E+00 +8.827197E+02 +6.791026E+00 +1.353962E+00 +6.791026E+00 +3.912304E+02 
 +4.786658E+02 +2.501706E+00 +5.308700E+00 +2.501706E+00 +8.817602E+02 +1.927834E+01 +5.308700E+00 +1.927834E+01 +3.743559E+02 
 +5.107047E+02 -4.437151E+00 -1.257019E+01 -4.437151E+00 +8.846128E+02 +3.062834E+01 -1.257019E+01 +3.062834E+01 +3.748286E+02 
 +5.036733E+02 -5.522792E+00 -1.796253E+01 -5.522792E+00 +8.656211E+02 +2.325465E+01 -1.796253E+01 +2.325465E+01 +3.723769E+02 
 +5.135068E+02 -3.867059E+00 -1.889908E+01 -3.867059E+00 +8.464983E+02 +1.028624E+01 -1.889908E+01 +1.028624E+01 +3.732568E+02 
 +5.255319E+02 -1.057646E-01 -1.525273E+01 -1.057646E-01 +8.511487E+02 +8.962844E+00 -1.525273E+01 +8.962844E+00 +3.850128E+02 
 +5.046116E+02 +8.233707E+00 -7.892288E+00 +8.233707E+00 +8.621091E+02 +1.090636E+01 -7.892288E+00 +1.090636E+01 +3.741692E+02 
 +4.911118E+02 +7.814344E+00 -1.283408E+00 +7.814344E+00 +8.618711E+02 +9.321618E+00 -1.283408E+00 +9.321618E+00 +3.597553E+02 
 +4.785314E+02 +4.144925E+00 -7.874248E+00 +4.144925E+00 +8.455771E+02 +1.152642E+01 -7.874248E+00 +1.152642E+01 +3.640053E+02 
 +4.855345E+02 +3.369045E+00 +3.308230E+00 +3.369045E+00 +8.369837E+02 +2.197609E+01 +3.308230E+00 +2.197609E+01 +3.769258E+02 
 +4.846710E+02 +6.509825E+00 +5.557493E+00 +6.509825E+00 +8.247807E+02 +2.309051E+01 +5.557493E+00 +2.309051E+01 +3.693170E+02 
 +4.913301E+02 +9.528278E+00 +6.168375E+00 +9.528278E+00 +8.283121E+02 +2.053938E+01 +6.168375E+00 +2.053938E+01 +3.635803E+02 
 +4.708000E+02 +2.314686E+00 -9.507056E-01 +2.314686E+00 +8.360252E+02 +2.450968E+01 -9.507056E-01 +2.450968E+01 +3.576091E+02 
 +4.638981E+02 +2.963844E+00 -4.247344E+00 +2.963844E+00 +8.433628E+02 +2.212088E+01 -4.247344E+00 +2.212088E+01 +3.529677E+02 
 +4.570632E+02 -6.540876E-01 +3.412958E+00 -6.540876E-01 +8.533093E+02 +1.476454E+01 +3.412958E+00 +1.476454E+01 +3.366094E+02 
 +4.813218E+02 -1.542500E+00 -4.422487E+00 -1.542500E+00 +8.843421E+02 +1.046869E+01 -4.422487E+00 +1.046869E+01 +3.329543E+02 
 +4.819150E+02 -2.749636E-02 +4.326900E+00 -2.749636E-02 +8.834814E+02 +4.841592E+00 +4.326900E+00 +4.841592E+00 +3.443488E+02 
 +4.737842E+02 -2.761056E+00 -9.694547E-01 -2.761056E+00 +8.734601E+02 -6.080246E+00 -9.694547E-01 -6.080246E+00 +3.324716E+02 
 +4.584486E+02 +4.238443E-01 -1.149913E+00 +4.238443E-01 +8.559250E+02 -1.541880E+01 -1.149913E+00 -1.541880E+01 +2.936374E+02 
 +4.861621E+02 +2.263904E-01 -1.475543E+01 +2.263904E-01 +8.630324E+02 -1.336622E+01 -1.475543E+01 -1.336622E+01 +3.157148E+02 
 +4.643420E+02 -4.176510E+00 +3.914367E+00 -4.176510E+00 +8.590758E+02 -2.403609E+00 +3.914367E+00 -2.403609E+00 +3.622932E+02 
 +4.617150E+02 -2.257660E+00 +8.427117E+00 -2.257660E+00 +8.718555E+02 +1.046331E+01 +8.427117E+00 +1.046331E+01 +3.961966E+02 
 +4.685449E+02 +8.147462E+00 +1.508906E+01 +8.147462E+00 +8.731455E+02 +1.481037E+01 +1.508906E+01 +1.481037E+01 +3.761615E+02 
 +5.041473E+02 +2.085680E+00 -1.123112E+01 +2.085680E+00 +8.746856E+02 +1.789605E+01 -1.123112E+01 +1.789605E+01 +3.645276E+02 
 +5.121638E+02 -6.359421E-02 -1.638133E+01 -6.359421E-02 +8.605636E+02 +1.396038E+01 -1.638133E+01 +1.396038E+01 +3.570083E+02 
 +5.092227E+02 -5.434706E+00 -9.632805E+00 -5.434706E+00 +8.403778E+02 +8.916211E+00 -9.632805E+00 +8.916211E+00 +3.481004E+02 
 +5.167608E+02 -2.309399E+00 -1.547478E+01 -2.309399E+00 +8.263149E+02 +3.981048E+00 -1.547478E+01 +3.981048E+00 +3.574140E+02 
 +5.068791E+02 -8.909867E-01 -1.014291E+01 -8.909867E-01 +8.245376E+02 +3.523774E+00 -1.014291E+01 +3.523774E+00 +3.723168E+02 
 +4.854809E+02 +2.731859E+00 -8.420855E+00 +2.731859E+00 +8.361936E+02 +6.767077E-01 -8.420855E+00 +6.767077E-01 +3.664645E+02 
 +4.750054E+02 +2.020106E+00 -5.495293E+00 +2.020106E+00 +8.437298E+02 +5.126302E+00 -5.495293E+00 +5.126302E+00 +3.561643E+02 
 +4.706760E+02 +1.924060E+00 -6.196850E+00 +1.924060E+00 +8.270808E+02 +1.632994E+01 -6.196850E+00 +1.632994E+01 +3.480617E+02 
 +4.546834E+02 +1.586146E+00 -8.428481E+00 +1.586146E+00 +8.112679E+02 +1.813734E+01 -8.428481E+00 +1.813734E+01 +3.407755E+02 
 +4.662150E+02 +1.294524E+00 +1.645040E+00 +1.294524E+00 +8.216694E+02 +2.057354E+01 +1.645040E+00 +2.057354E+01 +3.645585E+02 
 +4.695889E+02 +1.375583E+00 -1.299033E+01 +1.375583E+00 +8.241333E+02 +2.326574E+01 -1.299033E+01 +2.326574E+01 +3.765306E+02 
 +4.668442E+02 +1.014879E+00 -1.524543E+01 +1.014879E+00 +8.369439E+02 +2.288037E+01 -1.524543E+01 +2.288037E+01 +3.626342E+02 
 +4.795679E+02 +8.790180E+00 -4.837326E+00 +8.790180E+00 +8.740250E+02 +1.290503E+01 -4.837326E+00 +1.290503E+01 +3.546361E+02 
 +5.063652E+02 +1.018504E+01 -5.656852E+00 +1.018504E+01 +9.106025E+02 -1.344175E-01 -5.656852E+00 -1.344175E-01 +3.611288E+02 
 +4.955304E+02 +8.972402E+00 +1.053166E+00 +8.972402E+00 +9.030590E+02 -6.320732E+00 +1.053166E+00 -6.320732E+00 +3.562058E+02 
 +4.761492E+02 +1.643338E+00 -6.242623E+00 +1.643338E+00 +8.802701E+02 -8.796048E+00 -6.242623E+00 -8.796048E+00 +3.250278E+02 
 +4.614086E+02 -3.095044E+00 -5.756651E+00 -3.095044E+00 +8.598878E+02 -1.109112E+01 -5.756651E+00 -1.109112E+01 +2.886531E+02 
 +4.813222E+02 -3.756039E+00 -1.121584E+01 -3.756039E+00 +8.655328E+02 -8.261826E+00 -1.121584E+01 -8.261826E+00 +3.173537E+02 
 +4.561525E+02 -4.325010E+00 +7.862914E+00 -4.325010E+00 +8.600425E+02 +2.665624E+00 +7.862914E+00 +2.665624E+00 +3.694559E+02 
 +4.610496E+02 +3.528951E+00 +9.548242E+00 +3.528951E+00 +8.677004E+02 +1.004657E+01 +9.548242E+00 +1.004657E+01 +4.065584E+02 
 +4.687784E+02 +8.532083E+00 +1.773113E+01 +8.532083E+00 +8.673682E+02 +1.174193E+01 +1.773113E+01 +1.174193E+01 +3.871321E+02 
 +5.108902E+02 -4.278933E+00 -1.353028E+01 -4.278933E+00 +8.768654E+02 +9.800948E+00 -1.353028E+01 +9.800948E+00 +3.661624E+02 
 +5.154615E+02 -2.317606E+00 -1.367528E+01 -2.317606E+00 +8.589891E+02 +6.996266E+00 -1.367528E+01 +6.996266E+00 +3.444985E+02 
 +5.234397E+02 -4.361012E+00 -4.416586E+00 -4.361012E+00 +8.658614E+02 +4.350263E+00 -4.416586E+00 +4.350263E+00 +3.433873E+02 
 +5.179788E+02 -2.678446E+00 -1.578205E+01 -2.678446E+00 +8.651055E+02 +1.235571E-01 -1.578205E+01 +1.235571E-01 +3.405493E+02 
 +5.111480E+02 -1.772526E+00 -3.620339E+00 -1.772526E+00 +8.391337E+02 +4.143603E+00 -3.620339E+00 +4.143603E+00 +3.539420E+02 
 +4.898574E+02 +5.622040E+00 -5.987736E+00 +5.622040E+00 +8.212140E+02 +8.317980E+00 -5.987736E+00 +8.317980E+00 +3.397383E+02 
 +4.847178E+02 -1.507929E+00 +1.248024E+00 -1.507929E+00 +8.395883E+02 +1.304242E+01 +1.248024E+00 +1.304242E+01 +3.247640E+02 
 +4.601991E+02 -6.721584E+00 -2.675772E+01 -6.721584E+00 +8.468798E+02 +1.672143E+01 -2.675772E+01 +1.672143E+01 +3.204901E+02 
 +4.456106E+02 -2.051468E+00 -2.207396E+01 -2.051468E+00 +8.372581E+02 +1.779348E+01 -2.207396E+01 +1.779348E+01 +3.251277E+02 
 +4.618980E+02 +3.367172E+00 -1.166789E+01 +3.367172E+00 +8.325491E+02 +1.816681E+01 -1.166789E+01 +1.816681E+01 +3.590731E+02 
 +4.554271E+02 +4.036527E+00 -2.196509E+01 +4.036527E+00 +8.111067E+02 +1.310641E+01 -2.196509E+01 +1.310641E+01 +3.747782E+02 
 +4.572182E+02 +1.175044E+01 -2.547583E+01 +1.175044E+01 +8.034623E+02 +6.017645E+00 -2.547583E+01 +6.017645E+00 +3.648713E+02 
 +4.683198E+02 +1.992521E+01 -8.421545E+00 +1.992521E+01 +8.165723E+02 -1.637458E-01 -8.421545E+00 -1.637458E-01 +3.552831E+02 
 +4.734034E+02 +5.236122E+00 +1.761486E+00 +5.236122E+00 +8.272350E+02 +9.048536E-01 +1.761486E+00 +9.048536E-01 +3.700855E+02 
 +4.819495E+02 +3.622955E+00 -1.369265E+00 +3.622955E+00 +8.539711E+02 +8.048753E-01 -1.369265E+00 +8.048753E-01 +3.863606E+02 
 +4.832430E+02 +3.158710E+00 -6.600563E+00 +3.158710E+00 +8.798212E+02 -3.424699E+00 -6.600563E+00 -3.424699E+00 +3.697731E+02 
 +4.710055E+02 -3.828921E+00 -8.555399E+00 -3.828921E+00 +8.692615E+02 -8.039498E+00 -8.555399E+00 -8.039498E+00 +3.158866E+02 
 +4.726000E+02 -5.982414E+00 -9.270725E+00 -5.982414E+00 +8.638673E+02 -8.189209E+00 -9.270725E+00 -8.189209E+00 +3.167937E+02 
 +4.441021E+02 -3.226953E+00 +1.362097E+01 -3.226953E+00 +8.554094E+02 +1.641465E+00 +1.362097E+01 +1.641465E+00 +3.721687E+02 
 +4.498933E+02 +3.983670E+00 +1.128454E+01 +3.983670E+00 +8.608265E+02 +1.026429E+01 +1.128454E+01 +1.026429E+01 +4.134840E+02 
 +4.792288E+02 +6.448330E+00 +1.043528E+01 +6.448330E+00 +8.644491E+02 +7.202941E+00 +1.043528E+01 +7.202941E+00 +3.999542E+02 
 +5.073859E+02 -1.246700E+00 -1.582694E+01 -1.246700E+00 +8.490099E+02 +2.224978E+00 -1.582694E+01 +2.224978E+00 +3.630115E+02 
 +5.053329E+02 +1.232435E+00 -1.065335E+01 +1.232435E+00 +8.387144E+02 +4.638069E+00 -1.065335E+01 +4.638069E+00 +3.381450E+02 
 +5.057808E+02 +1.637361E-01 -1.537643E+00 +1.637361E-01 +8.352082E+02 +3.616128E+00 -1.537643E+00 +3.616128E+00 +3.392797E+02 
 +5.040522E+02 -2.785516E+00 -4.124154E+00 -2.785516E+00 +8.243436E+02 +2.781954E+00 -4.124154E+00 +2.781954E+00 +3.377145E+02 
 +4.920293E+02 +8.157949E+00 +3.824873E+00 +8.157949E+00 +8.336491E+02 +1.873295E+00 +3.824873E+00 +1.873295E+00 +3.390662E+02 
 +5.024116E+02 +1.401801E+01 -4.436357E+00 +1.401801E+01 +8.505725E+02 +2.919893E-01 -4.436357E+00 +2.919893E-01 +3.391055E+02 
 +5.022481E+02 +5.595878E+00 +2.600815E+00 +5.595878E+00 +8.591817E+02 +7.542362E+00 +2.600815E+00 +7.542362E+00 +3.359314E+02 
 +4.494962E+02 -8.762921E+00 -3.407679E+01 -8.762921E+00 +8.467949E+02 +1.709685E+01 -3.407679E+01 +1.709685E+01 +3.173106E+02 
 +4.538460E+02 -7.468480E+00 -2.063255E+01 -7.468480E+00 +8.581154E+02 +1.789554E+01 -2.063255E+01 +1.789554E+01 +3.292476E+02 
 +4.734029E+02 -7.358634E+00 -1.468954E+01 -7.358634E+00 +8.745659E+02 +1.251925E+01 -1.468954E+01 +1.251925E+01 +3.574222E+02 
 +4.714308E+02 -8.301106E+00 -1.895766E+01 -8.301106E+00 +8.692189E+02 +8.623335E+00 -1.895766E+01 +8.623335E+00 +3.690999E+02 
 +4.723219E+02 -2.504223E+00 -2.094549E+01 -2.504223E+00 +8.500564E+02 +7.561555E+00 -2.094549E+01 +7.561555E+00 +3.654523E+02 
 +4.696039E+02 -3.761738E+00 -1.621279E+01 -3.761738E+00 +8.173494E+02 +2.903703E+00 -1.621279E+01 +2.903703E+00 +3.543656E+02 
 +4.808685E+02 -6.624777E+00 +2.261049E+00 -6.624777E+00 +8.228381E+02 -2.642900E+00 +2.261049E+00 -2.642900E+00 +3.849786E+02 
 +4.941824E+02 +6.022185E-01 -1.692562E+00 +6.022185E-01 +8.437328E+02 +1.747957E-01 -1.692562E+00 +1.747957E-01 +4.172123E+02 
 +4.862243E+02 -3.787312E-01 -1.777097E+00 -3.787312E-01 +8.437659E+02 +2.781502E+00 -1.777097E+00 +2.781502E+00 +3.972316E+02 
 +4.764528E+02 -3.790799E+00 -1.128975E+01 -3.790799E+00 +8.538044E+02 -2.755651E+00 -1.128975E+01 -2.755651E+00 +3.402261E+02 
 +4.717215E+02 -7.793226E+00 -7.713115E+00 -7.793226E+00 +8.639302E+02 -3.079286E+00 -7.713115E+00 -3.079286E+00 +3.392821E+02 
 +4.402390E+02 -3.151263E+00 +1.464520E+01 -3.151263E+00 +8.493468E+02 +3.762198E+00 +1.464520E+01 +3.762198E+00 +3.872270E+02 
 +4.591639E+02 +7.736976E+00 +5.486501E+00 +7.736976E+00 +8.433464E+02 +5.643432E+00 +5.486501E+00 +5.643432E+00 +4.313234E+02 
 +4.716720E+02 +1.299265E+01 +3.919662E-01 +1.299265E+01 +7.960270E+02 -2.507668E+00 +3.919662E-01 -2.507668E+00 +3.979850E+02 
 +4.646116E+02 +1.287688E+01 -7.696570E+00 +1.287688E+01 +7.669741E+02 -6.931203E+00 -7.696570E+00 -6.931203E+00 +3.581150E+02 
 +4.711967E+02 +1.408836E+01 -4.825444E+00 +1.408836E+01 +7.793330E+02 -5.509152E+00 -4.825444E+00 -5.509152E+00 +3.519232E+02 
 +4.831995E+02 +7.932884E+00 +8.704063E-01 +7.932884E+00 +7.970206E+02 -6.444081E+00 +8.704063E-01 -6.444081E+00 +3.529817E+02 
 +4.992410E+02 +1.419271E+00 +6.653783E+00 +1.419271E+00 +8.250806E+02 -6.486684E+00 +6.653783E+00 -6.486684E+00 +3.523959E+02 
 +4.935984E+02 +9.980606E+00 +5.944561E+00 +9.980606E+00 +8.439105E+02 -3.815422E+00 +5.944561E+00 -3.815422E+00 +3.483101E+02 
 +5.006872E+02 +9.509896E+00 -4.707461E+00 +9.509896E+00 +8.587724E+02 +1.794745E+00 -4.707461E+00 +1.794745E+00 +3.509059E+02 
 +4.958342E+02 +9.078465E+00 -5.374853E+00 +9.078465E+00 +8.626582E+02 +5.459586E+00 -5.374853E+00 +5.459586E+00 +3.527173E+02 
 +4.335458E+02 -1.211649E+01 -3.059079E+01 -1.211649E+01 +8.414071E+02 +1.074214E+01 -3.059079E+01 +1.074214E+01 +3.270215E+02 
 +4.525416E+02 -1.712298E+01 -2.665345E+01 -1.712298E+01 +8.612045E+02 +1.442361E+01 -2.665345E+01 +1.442361E+01 +3.326205E+02 
 +4.578122E+02 -1.651837E+01 -2.334811E+01 -1.651837E+01 +8.621230E+02 +1.056875E+01 -2.334811E+01 +1.056875E+01 +3.376480E+02 
 +4.675541E+02 -1.129998E+01 -2.174547E+01 -1.129998E+01 +8.673364E+02 +1.440362E+01 -2.174547E+01 +1.440362E+01 +3.470245E+02 
 +4.573017E+02 -4.438636E+00 -1.807642E+01 -4.438636E+00 +8.576280E+02 +1.779902E+01 -1.807642E+01 +1.779902E+01 +3.352316E+02 
 +4.684169E+02 -6.691312E+00 -2.681613E+01 -6.691312E+00 +8.406991E+02 +1.033598E+01 -2.681613E+01 +1.033598E+01 +3.386621E+02 
 +4.890501E+02 -7.177535E+00 -1.247439E+01 -7.177535E+00 +8.265796E+02 +1.222971E+00 -1.247439E+01 +1.222971E+00 +3.718433E+02 
 +4.874108E+02 -5.192277E+00 -6.959810E+00 -5.192277E+00 +8.161109E+02 +2.584157E+00 -6.959810E+00 +2.584157E+00 +3.944769E+02 
 +4.842362E+02 -3.161978E+00 -2.408837E+00 -3.161978E+00 +8.093401E+02 +7.294227E+00 -2.408837E+00 +7.294227E+00 +3.981918E+02 
 +4.735731E+02 -2.605278E+00 -6.771076E+00 -2.605278E+00 +8.012887E+02 +7.294062E+00 -6.771076E+00 +7.294062E+00 +3.698048E+02 
 +4.613905E+02 -1.018502E+01 -5.752375E+00 -1.018502E+01 +8.139194E+02 +9.574565E+00 -5.752375E+00 +9.574565E+00 +3.694948E+02 
 +4.323110E+02 -1.720747E+00 +7.149264E+00 -1.720747E+00 +8.337475E+02 +9.871953E+00 +7.149264E+00 +9.871953E+00 +4.049608E+02 
 +4.670694E+02 +1.352776E+01 -5.124735E+00 +1.352776E+01 +8.000637E+02 -2.531864E+00 -5.124735E+00 -2.531864E+00 +4.198939E+02 
 +4.718141E+02 +1.445457E+01 -1.325602E+00 +1.445457E+01 +7.935842E+02 -3.631257E+00 -1.325602E+00 -3.631257E+00 +3.999151E+02 
 +4.694970E+02 +1.240138E+01 +1.280838E+00 +1.240138E+01 +7.993867E+02 -7.248073E+00 +1.280838E+00 -7.248073E+00 +3.824503E+02 
 +4.645508E+02 +9.450365E+00 +2.829157E+00 +9.450365E+00 +7.995195E+02 -1.150289E+01 +2.829157E+00 -1.150289E+01 +3.793188E+02 
 +4.864725E+02 +2.995382E+00 +6.331890E-01 +2.995382E+00 +8.248713E+02 -1.359201E+01 +6.331890E-01 -1.359201E+01 +3.740209E+02 
 +5.011897E+02 +1.678997E+00 +6.516636E+00 +1.678997E+00 +8.549026E+02 -9.401778E+00 +6.516636E+00 -9.401778E+00 +3.559658E+02 
 +4.953676E+02 +6.643038E+00 +1.322378E+01 +6.643038E+00 +8.553413E+02 +6.639667E+00 +1.322378E+01 +6.639667E+00 +3.557588E+02 
 +4.911707E+02 +6.755551E+00 -1.423542E+01 +6.755551E+00 +8.512449E+02 +8.907006E+00 -1.423542E+01 +8.907006E+00 +3.542232E+02 
 +4.785611E+02 +3.418497E+00 -1.011521E+01 +3.418497E+00 +8.584349E+02 +6.285065E-01 -1.011521E+01 +6.285065E-01 +3.621817E+02 
 +4.257212E+02 -1.128601E+01 -2.317380E+01 -1.128601E+01 +8.400856E+02 +2.822684E+00 -2.317380E+01 +2.822684E+00 +3.534368E+02 
 +4.559869E+02 -1.535886E+01 -3.579299E+01 -1.535886E+01 +8.571069E+02 +8.940838E+00 -3.579299E+01 +8.940838E+00 +3.473646E+02 
 +4.565551E+02 -1.319650E+01 -3.427842E+01 -1.319650E+01 +8.553632E+02 +1.272568E+01 -3.427842E+01 +1.272568E+01 +3.343391E+02 
 +4.626869E+02 -1.024243E+01 -1.845177E+01 -1.024243E+01 +8.621798E+02 +1.892010E+01 -1.845177E+01 +1.892010E+01 +3.376791E+02 
 +4.759252E+02 -3.363459E+00 -2.589139E+01 -3.363459E+00 +8.646169E+02 +1.589351E+01 -2.589139E+01 +1.589351E+01 +3.277125E+02 
 +4.811416E+02 -3.153435E-01 -2.725341E+01 -3.153435E-01 +8.656009E+02 +5.912991E+00 -2.725341E+01 +5.912991E+00 +3.351135E+02 
 +4.848892E+02 +2.542520E-01 -2.208370E+01 +2.542520E-01 +8.557915E+02 +2.390835E+00 -2.208370E+01 +2.390835E+00 +3.557872E+02 
 +4.861016E+02 -3.236642E+00 -1.498883E+01 -3.236642E+00 +8.228835E+02 +7.934107E-01 -1.498883E+01 +7.934107E-01 +3.708615E+02 
 +4.795754E+02 -2.576509E+00 -1.606946E+01 -2.576509E+00 +8.002391E+02 -1.501659E+00 -1.606946E+01 -1.501659E+00 +3.827714E+02 
 +4.885327E+02 -3.986839E-01 -6.907063E+00 -3.986839E-01 +8.032360E+02 -8.391221E-01 -6.907063E+00 -8.391221E-01 +3.714508E+02 
 +4.950440E+02 +3.029794E+00 -6.590940E+00 +3.029794E+00 +8.312902E+02 +8.492716E+00 -6.590940E+00 +8.492716E+00 +3.816180E+02 
 +4.501386E+02 +1.214630E+01 -7.027835E+00 +1.214630E+01 +8.185871E+02 +6.380494E+00 -7.027835E+00 +6.380494E+00 +4.011142E+02 
 +4.679719E+02 +6.246424E+00 +1.493505E-01 +6.246424E+00 +8.419063E+02 -3.211311E+00 +1.493505E-01 -3.211311E+00 +4.031418E+02 
 +4.829546E+02 +2.812245E+00 +3.441041E+00 +2.812245E+00 +8.565427E+02 -6.010630E+00 +3.441041E+00 -6.010630E+00 +4.053126E+02 
 +4.825935E+02 -1.838157E-01 +8.671965E+00 -1.838157E-01 +8.634890E+02 -9.131077E+00 +8.671965E+00 -9.131077E+00 +4.010807E+02 
 +4.781085E+02 -2.230016E+00 +2.671733E+00 -2.230016E+00 +8.731319E+02 -1.302912E+01 +2.671733E+00 -1.302912E+01 +4.002019E+02 
 +5.028412E+02 -4.131082E+00 +6.927243E-02 -4.131082E+00 +8.833342E+02 -6.607836E+00 +6.927243E-02 -6.607836E+00 +3.870903E+02 
 +5.209870E+02 -2.891885E+00 +2.743812E-01 -2.891885E+00 +8.817149E+02 +5.197797E+00 +2.743812E-01 +5.197797E+00 +3.713679E+02 
 +4.901070E+02 -5.717541E+00 +1.957689E+01 -5.717541E+00 +8.675046E+02 +1.071689E+01 +1.957689E+01 +1.071689E+01 +3.683390E+02 
 +4.825657E+02 -5.457044E+00 -2.228383E+01 -5.457044E+00 +8.672338E+02 +8.480043E+00 -2.228383E+01 +8.480043E+00 +3.675116E+02 
 +4.839603E+02 -8.516068E+00 -4.419590E+00 -8.516068E+00 +8.697450E+02 +2.349893E+00 -4.419590E+00 +2.349893E+00 +3.895169E+02 
 +4.714449E+02 -1.007928E+01 -2.263827E+01 -1.007928E+01 +8.658352E+02 -3.019834E+00 -2.263827E+01 -3.019834E+00 +4.037778E+02 
 +4.677046E+02 -9.752831E+00 -2.483463E+01 -9.752831E+00 +8.632251E+02 +3.412168E-01 -2.483463E+01 +3.412168E-01 +3.800057E+02 
 +4.683317E+02 -8.880000E+00 -1.901167E+01 -8.880000E+00 +8.652100E+02 +1.376909E+01 -1.901167E+01 +1.376909E+01 +3.648502E+02 
 +4.676766E+02 -2.735629E+00 -8.518904E+00 -2.735629E+00 +8.606308E+02 +1.567394E+01 -8.518904E+00 +1.567394E+01 +3.432974E+02 
 +5.020351E+02 +2.705492E+00 -3.190209E+01 +2.705492E+00 +8.723719E+02 +7.818097E+00 -3.190209E+01 +7.818097E+00 +3.355573E+02 
 +4.941019E+02 +2.727660E+00 -2.756747E+01 +2.727660E+00 +8.681505E+02 +4.381597E+00 -2.756747E+01 +4.381597E+00 +3.405050E+02 
 +4.917907E+02 +2.975328E+00 -2.567286E+01 +2.975328E+00 +8.721525E+02 +1.933032E+00 -2.567286E+01 +1.933032E+00 +3.505415E+02 
 +5.106828E+02 +6.058761E+00 -2.456562E+01 +6.058761E+00 +8.916863E+02 -1.013263E+01 -2.456562E+01 -1.013263E+01 +3.803556E+02 
 +5.139409E+02 +1.073850E+01 -3.224870E+01 +1.073850E+01 +8.840314E+02 -2.183336E+01 -3.224870E+01 -2.183336E+01 +3.791294E+02 
 +5.253124E+02 +1.496558E+01 -1.020140E+01 +1.496558E+01 +8.676891E+02 -1.502247E+01 -1.020140E+01 -1.502247E+01 +3.472031E+02 
 +5.304499E+02 +2.114662E+01 -5.120564E+00 +2.114662E+01 +8.598418E+02 +2.127500E+00 -5.120564E+00 +2.127500E+00 +3.582981E+02 
 +5.086677E+02 +1.681641E+01 -1.875142E+01 +1.681641E+01 +8.504715E+02 +4.099422E+00 -1.875142E+01 +4.099422E+00 +3.925588E+02 
 +4.381778E+02 -3.648037E-01 +7.436399E+00 -3.648037E-01 +8.351806E+02 -4.137525E+00 +7.436399E+00 -4.137525E+00 +3.759196E+02 
 +4.510675E+02 -4.037596E+00 +6.569350E+00 -4.037596E+00 +8.582874E+02 -1.258541E+01 +6.569350E+00 -1.258541E+01 +3.919669E+02 
 +4.561163E+02 -1.007080E+01 +7.761153E+00 -1.007080E+01 +8.623613E+02 -1.308002E+01 +7.761153E+00 -1.308002E+01 +3.913203E+02 
 +4.625717E+02 -9.305724E+00 +3.305712E+00 -9.305724E+00 +8.578420E+02 -4.800776E+00 +3.305712E+00 -4.800776E+00 +3.785692E+02 
 +4.996838E+02 -2.227120E+00 +7.935170E-01 -2.227120E+00 +8.691318E+02 +1.031669E+01 +7.935170E-01 +1.031669E+01 +3.723589E+02 
 +5.116576E+02 +4.658436E-01 -5.156447E+00 +4.658436E-01 +8.794221E+02 +1.525364E+01 -5.156447E+00 +1.525364E+01 +3.780191E+02 
 +4.773859E+02 -2.361300E+00 +2.200928E+01 -2.361300E+00 +8.686829E+02 +8.730300E+00 +2.200928E+01 +8.730300E+00 +3.763056E+02 
 +4.644101E+02 -1.181223E+00 -6.259363E-02 -1.181223E+00 +8.620607E+02 +6.451536E+00 -6.259363E-02 +6.451536E+00 +3.719312E+02 
 +4.795674E+02 -5.237851E+00 +3.410530E+00 -5.237851E+00 +8.654316E+02 +5.630332E+00 +3.410530E+00 +5.630332E+00 +3.870911E+02 
 +5.212727E+02 -1.112288E+01 -2.573449E+01 -1.112288E+01 +8.887383E+02 +3.401705E+00 -2.573449E+01 +3.401705E+00 +4.225532E+02 
 +4.890209E+02 -7.849084E+00 -1.758784E+01 -7.849084E+00 +8.740185E+02 +6.385480E+00 -1.758784E+01 +6.385480E+00 +4.036429E+02 
 +4.752599E+02 -2.403726E+00 -6.433457E+00 -2.403726E+00 +8.662448E+02 +9.505210E+00 -6.433457E+00 +9.505210E+00 +3.729485E+02 
 +4.899842E+02 +4.565180E+00 -1.827255E+01 +4.565180E+00 +8.689370E+02 +3.076351E+00 -1.827255E+01 +3.076351E+00 +3.385566E+02 
 +5.031409E+02 +7.026398E+00 -3.033979E+01 +7.026398E+00 +8.720842E+02 -2.012157E-01 -3.033979E+01 -2.012157E-01 +3.313236E+02 
 +5.013188E+02 +5.289079E+00 -2.897951E+01 +5.289079E+00 +8.708834E+02 +4.465951E+00 -2.897951E+01 +4.465951E+00 +3.455188E+02 
 +5.026149E+02 +4.185138E+00 -2.961958E+01 +4.185138E+00 +8.741480E+02 +3.215187E+00 -2.961958E+01 +3.215187E+00 +3.499796E+02 
 +5.093710E+02 +6.697534E+00 -3.547487E+01 +6.697534E+00 +8.857103E+02 -6.188855E-01 -3.547487E+01 -6.188855E-01 +3.696706E+02 
 +5.077756E+02 +9.043120E+00 -3.901379E+01 +9.043120E+00 +8.783887E+02 -2.761051E+00 -3.901379E+01 -2.761051E+00 +3.552614E+02 
 +5.220909E+02 +1.483182E+01 -1.310628E+01 +1.483182E+01 +8.636308E+02 +1.935371E+00 -1.310628E+01 +1.935371E+00 +3.220670E+02 
 +5.282030E+02 +1.396489E+01 -9.848057E+00 +1.396489E+01 +8.514237E+02 +7.625380E+00 -9.848057E+00 +7.625380E+00 +3.290369E+02 
 +5.200226E+02 +6.060171E+00 -2.622323E+01 +6.060171E+00 +8.544781E+02 +7.010049E+00 -2.622323E+01 +7.010049E+00 +3.669631E+02 
 +4.352511E+02 -1.673733E+00 +2.042529E+00 -1.673733E+00 +8.416751E+02 -5.430909E+00 +2.042529E+00 -5.430909E+00 +3.653902E+02 
 +4.316819E+02 -5.801040E+00 +6.736435E+00 -5.801040E+00 +8.598965E+02 -8.850145E+00 +6.736435E+00 -8.850145E+00 +3.895106E+02 
 +4.332647E+02 -5.851769E+00 +5.967601E+00 -5.851769E+00 +8.576903E+02 -4.351792E+00 +5.967601E+00 -4.351792E+00 +3.757008E+02 
 +4.561011E+02 -9.462264E+00 +1.375636E+01 -9.462264E+00 +8.516915E+02 +6.273333E+00 +1.375636E+01 +6.273333E+00 +3.570512E+02 
 +5.044055E+02 -7.491432E+00 -1.338788E+00 -7.491432E+00 +8.685680E+02 +1.327534E+01 -1.338788E+00 +1.327534E+01 +3.690452E+02 
 +5.006256E+02 -6.656370E-01 -6.959069E+00 -6.656370E-01 +8.727379E+02 +1.131798E+01 -6.959069E+00 +1.131798E+01 +3.772790E+02 
 +4.668637E+02 +4.718505E-01 +2.279536E+01 +4.718505E-01 +8.655665E+02 +6.064237E+00 +2.279536E+01 +6.064237E+00 +3.759432E+02 
 +4.609000E+02 -3.001163E-01 +1.846657E+01 -3.001163E-01 +8.650315E+02 +1.006945E+00 +1.846657E+01 +1.006945E+00 +3.744957E+02 
 +4.769905E+02 -2.778377E+00 +9.064524E+00 -2.778377E+00 +8.676290E+02 +2.480332E+00 +9.064524E+00 +2.480332E+00 +3.781237E+02 
 +5.298956E+02 -9.040570E+00 -1.570902E+01 -9.040570E+00 +8.935125E+02 +1.063221E+01 -1.570902E+01 +1.063221E+01 +4.225053E+02 
 +5.217913E+02 -1.006366E+01 -1.931502E+01 -1.006366E+01 +8.842745E+02 +9.500421E+00 -1.931502E+01 +9.500421E+00 +4.171894E+02 
 +4.867472E+02 +3.810815E-03 -1.426392E+01 +3.810815E-03 +8.625898E+02 -4.599070E+00 -1.426392E+01 -4.599070E+00 +3.589913E+02 
 +5.034030E+02 +3.585051E+00 -2.695993E+01 +3.585051E+00 +8.721367E+02 -9.977096E+00 -2.695993E+01 -9.977096E+00 +3.366718E+02 
 +5.031444E+02 +3.495054E+00 -2.609507E+01 +3.495054E+00 +8.701337E+02 -3.780964E+00 -2.609507E+01 -3.780964E+00 +3.362665E+02 
 +5.060654E+02 +4.857617E+00 -2.721365E+01 +4.857617E+00 +8.721867E+02 +1.880741E+00 -2.721365E+01 +1.880741E+00 +3.451641E+02 
 +5.055165E+02 +6.111549E+00 -2.926705E+01 +6.111549E+00 +8.728863E+02 +5.342258E+00 -2.926705E+01 +5.342258E+00 +3.465080E+02 
 +5.153371E+02 +8.625067E+00 -3.507550E+01 +8.625067E+00 +8.831719E+02 +9.474231E+00 -3.507550E+01 +9.474231E+00 +3.624530E+02 
 +5.156727E+02 +5.995434E+00 -3.229721E+01 +5.995434E+00 +8.811256E+02 +1.256011E+01 -3.229721E+01 +1.256011E+01 +3.548343E+02 
 +5.229409E+02 +7.773320E+00 -1.695115E+01 +7.773320E+00 +8.716845E+02 +9.209739E+00 -1.695115E+01 +9.209739E+00 +3.308260E+02 
 +5.185787E+02 +6.096355E+00 -1.883859E+01 +6.096355E+00 +8.575791E+02 +5.952109E+00 -1.883859E+01 +5.952109E+00 +3.201001E+02 
 +5.091305E+02 +3.804091E+00 -3.512250E+01 +3.804091E+00 +8.581700E+02 +2.374222E+00 -3.512250E+01 +2.374222E+00 +3.420569E+02 
 +4.358946E+02 -2.715692E+00 +1.758547E+00 -2.715692E+00 +8.523368E+02 -8.553562E+00 +1.758547E+00 -8.553562E+00 +3.621444E+02 
 +4.337444E+02 -5.761905E+00 +7.149984E+00 -5.761905E+00 +8.587084E+02 -4.846231E+00 +7.149984E+00 -4.846231E+00 +3.881820E+02 
 +4.376580E+02 -4.815338E+00 +8.607676E+00 -4.815338E+00 +8.608409E+02 +2.549322E+00 +8.607676E+00 +2.549322E+00 +3.798749E+02 
 +4.446185E+02 -8.169145E+00 +1.532653E+01 -8.169145E+00 +8.551924E+02 +1.029345E+01 +1.532653E+01 +1.029345E+01 +3.629895E+02 
 +4.877802E+02 -6.868134E+00 +5.963639E+00 -6.868134E+00 +8.635978E+02 +1.969234E+01 +5.963639E+00 +1.969234E+01 +3.721226E+02 
 +4.867933E+02 -1.571216E+00 -2.076285E+01 -1.571216E+00 +8.599888E+02 +1.275953E+01 -2.076285E+01 +1.275953E+01 +3.740324E+02 
 +4.701912E+02 +7.156285E-02 +1.959612E+01 +7.156285E-02 +8.664620E+02 -4.949516E-01 +1.959612E+01 -4.949516E-01 +3.808727E+02 
 +4.717386E+02 -1.179520E+00 +8.506651E+00 -1.179520E+00 +8.702153E+02 -4.354424E+00 +8.506651E+00 -4.354424E+00 +3.792430E+02 
 +4.851855E+02 -6.060612E-01 +1.709773E+01 -6.060612E-01 +8.683902E+02 +1.306090E-01 +1.709773E+01 +1.306090E-01 +3.877227E+02 
 +5.285703E+02 -3.930282E+00 -8.895293E+00 -3.930282E+00 +8.885868E+02 +6.064369E+00 -8.895293E+00 +6.064369E+00 +4.280688E+02 
 +5.284091E+02 -3.384052E+00 -1.629630E+01 -3.384052E+00 +8.803867E+02 +5.200967E-01 -1.629630E+01 +5.200967E-01 +4.132641E+02 
 +5.094021E+02 +4.000353E+00 -2.286115E+01 +4.000353E+00 +8.668689E+02 -7.724785E+00 -2.286115E+01 -7.724785E+00 +3.686755E+02 
 +5.077330E+02 +1.466216E+00 -2.233373E+01 +1.466216E+00 +8.681364E+02 -1.165676E+01 -2.233373E+01 -1.165676E+01 +3.521514E+02 
 +5.096874E+02 +1.225658E+00 -2.106141E+01 +1.225658E+00 +8.681796E+02 -5.667903E+00 -2.106141E+01 -5.667903E+00 +3.473955E+02 
 +5.091998E+02 +3.312456E+00 -2.231643E+01 +3.312456E+00 +8.670986E+02 +1.674112E+00 -2.231643E+01 +1.674112E+00 +3.416054E+02 
 +5.133747E+02 +6.946832E+00 -2.574046E+01 +6.946832E+00 +8.745957E+02 +7.920421E+00 -2.574046E+01 +7.920421E+00 +3.456118E+02 
 +5.127823E+02 +6.567593E+00 -2.787304E+01 +6.567593E+00 +8.783613E+02 +1.390528E+01 -2.787304E+01 +1.390528E+01 +3.520858E+02 
 +5.165936E+02 +1.634304E+00 -1.999396E+01 +1.634304E+00 +8.832942E+02 +1.563208E+01 -1.999396E+01 +1.563208E+01 +3.505472E+02 
 +5.319511E+02 +1.442064E-01 -1.493100E+01 +1.442064E-01 +8.980117E+02 +7.895756E+00 -1.493100E+01 +7.895756E+00 +3.511978E+02 
 +5.259987E+02 -2.366348E+00 -1.943528E+01 -2.366348E+00 +8.953710E+02 -8.180628E-01 -1.943528E+01 -8.180628E-01 +3.460961E+02 
 +5.181381E+02 -2.235067E+00 -3.913801E+01 -2.235067E+00 +8.906469E+02 -7.175971E+00 -3.913801E+01 -7.175971E+00 +3.555502E+02 
 +4.511910E+02 -1.671890E+00 +1.784732E+01 -1.671890E+00 +8.658653E+02 -1.774014E+00 +1.784732E+01 -1.774014E+00 +3.743713E+02 
 +4.451469E+02 -4.717514E+00 +1.055598E+01 -4.717514E+00 +8.629229E+02 +9.200146E-01 +1.055598E+01 +9.200146E-01 +3.843429E+02 
 +4.430450E+02 -5.651097E+00 +9.092702E+00 -5.651097E+00 +8.602455E+02 +5.987631E+00 +9.092702E+00 +5.987631E+00 +3.817726E+02 
 +4.490173E+02 -9.494946E+00 +1.192384E+01 -9.494946E+00 +8.637374E+02 +7.844671E+00 +1.192384E+01 +7.844671E+00 +3.729445E+02 
 +4.737008E+02 -1.107091E+01 +1.002742E+01 -1.107091E+01 +8.823060E+02 +5.563557E+00 +1.002742E+01 +5.563557E+00 +3.770490E+02 
 +4.856401E+02 -5.058554E+00 -3.488441E+01 -5.058554E+00 +8.865982E+02 -1.000014E+00 -3.488441E+01 -1.000014E+00 +3.871404E+02 
 +4.893889E+02 -1.645113E+00 +1.844900E+01 -1.645113E+00 +8.803810E+02 -1.505852E+01 +1.844900E+01 -1.505852E+01 +3.853585E+02 
 +5.080215E+02 -4.801424E+00 +4.226166E+00 -4.801424E+00 +8.846230E+02 -1.962073E+01 +4.226166E+00 -1.962073E+01 +3.950077E+02 
 +4.911673E+02 -4.390012E-01 +1.978403E+01 -4.390012E-01 +8.671390E+02 -1.167458E+01 +1.978403E+01 -1.167458E+01 +3.833234E+02 
 +5.185376E+02 -1.281784E+00 -5.696844E+00 -1.281784E+00 +8.813546E+02 -7.099058E+00 -5.696844E+00 -7.099058E+00 +4.104519E+02 
 +5.265568E+02 -1.479037E+00 -1.758989E+01 -1.479037E+00 +8.837522E+02 -4.261169E+00 -1.758989E+01 -4.261169E+00 +4.150860E+02 
 +5.125581E+02 +3.321470E+00 -2.400550E+01 +3.321470E+00 +8.694783E+02 -8.593332E+00 -2.400550E+01 -8.593332E+00 +3.794686E+02 
 +5.160188E+02 +1.732510E+00 -2.049489E+01 +1.732510E+00 +8.687126E+02 -1.299988E+01 -2.049489E+01 -1.299988E+01 +3.681862E+02 
 +5.116656E+02 +1.207314E-01 -1.315013E+01 +1.207314E-01 +8.641175E+02 -7.148599E+00 -1.315013E+01 -7.148599E+00 +3.528015E+02 
 +5.081674E+02 -5.736484E-01 -1.721327E+01 -5.736484E-01 +8.613471E+02 -2.181479E-01 -1.721327E+01 -2.181479E-01 +3.406845E+02 
 +5.130647E+02 +7.884082E-01 -1.934787E+01 +7.884082E-01 +8.687122E+02 +9.449822E+00 -1.934787E+01 +9.449822E+00 +3.394978E+02 
 +5.155544E+02 -2.196500E+00 -2.176052E+01 -2.196500E+00 +8.773462E+02 +1.631162E+01 -2.176052E+01 +1.631162E+01 +3.448294E+02 
 +5.137663E+02 -3.304559E+00 -1.987529E+01 -3.304559E+00 +8.857866E+02 +1.288356E+01 -1.987529E+01 +1.288356E+01 +3.459742E+02 
 +5.218691E+02 +7.634545E-01 -2.280656E+01 +7.634545E-01 +9.040594E+02 +4.759738E-01 -2.280656E+01 +4.759738E-01 +3.511771E+02 
 +5.277461E+02 +3.095294E+00 -1.834308E+01 +3.095294E+00 +9.119683E+02 -4.435371E+00 -1.834308E+01 -4.435371E+00 +3.619092E+02 
 +5.194568E+02 +3.545504E-01 -3.443192E+01 +3.545504E-01 +9.055263E+02 -9.328413E-01 -3.443192E+01 -9.328413E-01 +3.813749E+02 
 +4.541095E+02 -1.653999E+00 +2.154982E+01 -1.653999E+00 +8.682598E+02 +3.978223E+00 +2.154982E+01 +3.978223E+00 +3.859214E+02 
 +4.462894E+02 -2.761216E+00 +1.574013E+01 -2.761216E+00 +8.626538E+02 +5.490902E+00 +1.574013E+01 +5.490902E+00 +3.875505E+02 
 +4.467971E+02 -5.411035E+00 +1.275151E+01 -5.411035E+00 +8.639879E+02 +5.875271E+00 +1.275151E+01 +5.875271E+00 +3.881033E+02 
 +4.441446E+02 -9.444211E+00 +1.415866E+01 -9.444211E+00 +8.654730E+02 +5.420138E+00 +1.415866E+01 +5.420138E+00 +3.745721E+02 
 +4.495877E+02 -8.664836E+00 +1.243757E+01 -8.664836E+00 +8.726333E+02 +3.783289E+00 +1.243757E+01 +3.783289E+00 +3.697162E+02 
 +4.680526E+02 -2.525179E+00 -2.730595E+01 -2.525179E+00 +8.788388E+02 +4.941278E+00 -2.730595E+01 +4.941278E+00 +3.751418E+02 
 +4.847546E+02 +1.773921E+00 -2.575341E+00 +1.773921E+00 +8.695642E+02 -3.604476E+00 -2.575341E+00 -3.604476E+00 +3.684226E+02 
 +4.996351E+02 -1.188676E+00 -1.664201E+00 -1.188676E+00 +8.576254E+02 -6.599422E+00 -1.664201E+00 -6.599422E+00 +3.699706E+02 
 +4.922984E+02 +3.996485E+00 -5.589878E-01 +3.996485E+00 +8.476064E+02 -5.050378E+00 -5.589878E-01 -5.050378E+00 +3.658245E+02 
 +5.239285E+02 +1.912051E+00 -1.281519E+01 +1.912051E+00 +8.793985E+02 -1.023052E+01 -1.281519E+01 -1.023052E+01 +3.971994E+02 
 +5.398291E+02 -1.264460E+00 -1.409788E+01 -1.264460E+00 +8.929782E+02 -1.353585E+01 -1.409788E+01 -1.353585E+01 +4.127637E+02 
 +5.201690E+02 +6.279784E+00 -1.807644E+01 +6.279784E+00 +8.722297E+02 -1.897374E+01 -1.807644E+01 -1.897374E+01 +3.921678E+02 
 +5.161149E+02 +6.404224E+00 -1.152797E+01 +6.404224E+00 +8.687892E+02 -1.535551E+01 -1.152797E+01 -1.535551E+01 +3.789169E+02 
 +5.110821E+02 +2.527607E+00 -2.017365E+00 +2.527607E+00 +8.675361E+02 -5.408034E+00 -2.017365E+00 -5.408034E+00 +3.603014E+02 
 +4.910006E+02 -8.099007E-01 -5.483355E+00 -8.099007E-01 +8.555034E+02 +5.265630E+00 -5.483355E+00 +5.265630E+00 +3.282225E+02 
 +4.992230E+02 -4.836585E+00 -6.003494E+00 -4.836585E+00 +8.606151E+02 +1.473745E+01 -6.003494E+00 +1.473745E+01 +3.297535E+02 
 +5.234035E+02 -9.184316E+00 -2.629654E+01 -9.184316E+00 +8.774531E+02 +1.787769E+01 -2.629654E+01 +1.787769E+01 +3.509390E+02 
 +5.242443E+02 -7.115885E+00 -2.221210E+01 -7.115885E+00 +8.871204E+02 +1.266142E+01 -2.221210E+01 +1.266142E+01 +3.510546E+02 
 +5.212278E+02 -2.603570E+00 -2.667087E+01 -2.603570E+00 +8.968887E+02 +3.885783E+00 -2.667087E+01 +3.885783E+00 +3.518552E+02 
 +5.155155E+02 -2.269892E+00 -1.897794E+01 -2.269892E+00 +8.993871E+02 +8.238378E-01 -1.897794E+01 +8.238378E-01 +3.571758E+02 
 +5.195271E+02 -2.590362E+00 -3.683246E+01 -2.590362E+00 +9.051909E+02 +2.542713E+00 -3.683246E+01 +2.542713E+00 +3.912099E+02 
 +4.483456E+02 +1.769031E+00 +2.139726E+01 +1.769031E+00 +8.621362E+02 +9.480575E+00 +2.139726E+01 +9.480575E+00 +3.857446E+02 
 +4.483104E+02 -4.206933E-01 +1.632154E+01 -4.206933E-01 +8.656677E+02 +7.842873E+00 +1.632154E+01 +7.842873E+00 +3.955120E+02 
 +4.455622E+02 -2.312175E+00 +1.405763E+01 -2.312175E+00 +8.670772E+02 +2.868090E+00 +1.405763E+01 +2.868090E+00 +3.907342E+02 
 +4.407457E+02 -4.136757E+00 +1.498351E+01 -4.136757E+00 +8.676428E+02 +3.448270E-01 +1.498351E+01 +3.448270E-01 +3.840865E+02 
 +4.428764E+02 -4.378649E+00 +1.410290E+01 -4.378649E+00 +8.678102E+02 +5.919328E-02 +1.410290E+01 +5.919328E-02 +3.710562E+02 
 +4.624531E+02 +2.023801E+00 -2.393570E+01 +2.023801E+00 +8.690678E+02 -4.888406E+00 -2.393570E+01 -4.888406E+00 +3.581899E+02 
 +4.975790E+02 +1.013088E+01 -1.590506E+01 +1.013088E+01 +8.743585E+02 -1.158946E+01 -1.590506E+01 -1.158946E+01 +3.601056E+02 
 +5.032283E+02 +1.081460E+01 -5.993822E+00 +1.081460E+01 +8.732165E+02 -1.554255E+01 -5.993822E+00 -1.554255E+01 +3.517145E+02 
 +5.077533E+02 +1.533345E+01 -1.192917E+01 +1.533345E+01 +8.805490E+02 -1.714082E+01 -1.192917E+01 -1.714082E+01 +3.518174E+02 
 +5.217645E+02 +7.260784E+00 -3.428565E+00 +7.260784E+00 +8.819012E+02 -2.022456E+01 -3.428565E+00 -2.022456E+01 +3.737596E+02 
 +5.364485E+02 -7.428089E-01 -5.513693E+00 -7.428089E-01 +8.787676E+02 -2.615632E+01 -5.513693E+00 -2.615632E+01 +3.891161E+02 
 +5.158725E+02 +5.689056E+00 +3.991610E+00 +5.689056E+00 +8.683943E+02 -1.410183E+01 +3.991610E+00 -1.410183E+01 +3.817531E+02 
 +5.258884E+02 +8.574286E+00 -4.998319E+00 +8.574286E+00 +8.776808E+02 -1.135361E+00 -4.998319E+00 -1.135361E+00 +3.768795E+02 
 +4.936255E+02 +4.968811E+00 +9.468330E+00 +4.968811E+00 +8.607149E+02 -1.820176E+00 +9.468330E+00 -1.820176E+00 +3.523403E+02 
 +4.818861E+02 +3.034801E+00 +1.392579E+01 +3.034801E+00 +8.553791E+02 +2.891833E+00 +1.392579E+01 +2.891833E+00 +3.336865E+02 
 +4.837887E+02 -8.207831E-02 +1.079857E+01 -8.207831E-02 +8.547220E+02 +5.826268E+00 +1.079857E+01 +5.826268E+00 +3.286519E+02 
 +5.161532E+02 -4.926975E+00 -1.350896E+01 -4.926975E+00 +8.726577E+02 +1.604959E+01 -1.350896E+01 +1.604959E+01 +3.532926E+02 
 +5.280826E+02 -6.113228E+00 -3.263115E+01 -6.113228E+00 +8.824309E+02 +1.806277E+01 -3.263115E+01 +1.806277E+01 +3.559668E+02 
 +5.242795E+02 -2.731007E+00 -2.247704E+01 -2.731007E+00 +8.893157E+02 +1.114701E+01 -2.247704E+01 +1.114701E+01 +3.535342E+02 
 +5.380189E+02 -1.699967E-01 -1.062321E+01 -1.699967E-01 +9.114786E+02 +1.220387E+01 -1.062321E+01 +1.220387E+01 +3.764557E+02 
 +5.253602E+02 -2.390196E-01 -2.943561E+01 -2.390196E-01 +9.077403E+02 +1.000640E+01 -2.943561E+01 +1.000640E+01 +3.964784E+02 
 +4.427310E+02 +4.622758E+00 +1.098441E+01 +4.622758E+00 +8.627530E+02 +1.365899E+01 +1.098441E+01 +1.365899E+01 +3.894722E+02 
 +4.471783E+02 +2.874749E+00 +1.293809E+01 +2.874749E+00 +8.691207E+02 +2.683544E+00 +1.293809E+01 +2.683544E+00 +4.043608E+02 
 +4.443000E+02 +2.390735E-01 +1.108442E+01 +2.390735E-01 +8.682355E+02 -7.057692E+00 +1.108442E+01 -7.057692E+00 +3.945462E+02 
 +4.451712E+02 -5.542821E-01 +1.622296E+01 -5.542821E-01 +8.706393E+02 -1.062332E+01 +1.622296E+01 -1.062332E+01 +3.957296E+02 
 +4.501489E+02 +2.443730E+00 +1.555907E+01 +2.443730E+00 +8.684833E+02 -1.242715E+01 +1.555907E+01 -1.242715E+01 +3.805608E+02 
 +4.698139E+02 +8.217908E+00 -1.422361E+01 +8.217908E+00 +8.666167E+02 -8.417875E+00 -1.422361E+01 -8.417875E+00 +3.524300E+02 
 +4.957565E+02 +9.451583E+00 -1.784379E+01 +9.451583E+00 +8.762585E+02 -7.620807E+00 -1.784379E+01 -7.620807E+00 +3.499624E+02 
 +4.962544E+02 +8.858442E+00 -1.480225E+01 +8.858442E+00 +8.746842E+02 -1.286911E+01 -1.480225E+01 -1.286911E+01 +3.324013E+02 
 +5.007026E+02 +1.111737E+01 -1.237146E+01 +1.111737E+01 +8.726964E+02 -1.445044E+01 -1.237146E+01 -1.445044E+01 +3.373871E+02 
 +5.183718E+02 +1.833346E+00 +1.048913E+01 +1.833346E+00 +8.758715E+02 -1.233543E+01 +1.048913E+01 -1.233543E+01 +3.664002E+02 
 +5.326194E+02 -6.982922E-01 -2.745266E-01 -6.982922E-01 +8.818733E+02 -9.374988E+00 -2.745266E-01 -9.374988E+00 +3.700032E+02 
 +4.970845E+02 +4.009535E+00 +2.560481E+01 +4.009535E+00 +8.646970E+02 -1.905781E+00 +2.560481E+01 -1.905781E+00 +3.490187E+02 
 +5.415351E+02 +4.756439E+00 -6.546489E+00 +4.756439E+00 +8.886790E+02 +6.548770E+00 -6.546489E+00 +6.548770E+00 +3.547155E+02 
 +4.910283E+02 +8.111239E+00 +1.109139E+01 +8.111239E+00 +8.614841E+02 +3.205693E-02 +1.109139E+01 +3.205693E-02 +3.325108E+02 
 +4.770519E+02 +1.073910E+01 +2.112741E+01 +1.073910E+01 +8.561230E+02 -8.401237E+00 +2.112741E+01 -8.401237E+00 +3.405234E+02 
 +4.801426E+02 +5.296895E+00 +1.929847E+01 +5.296895E+00 +8.594973E+02 -9.276595E+00 +1.929847E+01 -9.276595E+00 +3.443599E+02 
 +4.881825E+02 -1.821215E+00 +1.782293E+01 -1.821215E+00 +8.637280E+02 +4.648845E+00 +1.782293E+01 +4.648845E+00 +3.477158E+02 
 +5.189780E+02 -6.012875E+00 -4.007198E+01 -6.012875E+00 +8.767340E+02 +1.227824E+01 -4.007198E+01 +1.227824E+01 +3.625109E+02 
 +5.292227E+02 -5.641299E+00 -1.300163E+01 -5.641299E+00 +8.712589E+02 +7.261273E+00 -1.300163E+01 +7.261273E+00 +3.687386E+02 
 +5.434024E+02 +4.625751E-01 -5.130457E+00 +4.625751E-01 +8.723760E+02 +7.065061E+00 -5.130457E+00 +7.065061E+00 +3.859429E+02 
 +5.274352E+02 +3.944879E+00 -2.552604E+01 +3.944879E+00 +8.870441E+02 +1.333558E+01 -2.552604E+01 +1.333558E+01 +4.002884E+02 
 +4.509102E+02 +5.714156E+00 -3.947728E+00 +5.714156E+00 +8.515251E+02 +5.566560E+00 -3.947728E+00 +5.566560E+00 +3.936108E+02 
 +4.428255E+02 +4.777610E+00 +5.666535E+00 +4.777610E+00 +8.729736E+02 -6.483971E+00 +5.666535E+00 -6.483971E+00 +4.050166E+02 
 +4.434492E+02 +2.768265E-01 +9.046902E+00 +2.768265E-01 +8.722926E+02 -1.456543E+01 +9.046902E+00 -1.456543E+01 +3.995759E+02 
 +4.620021E+02 +1.810641E+00 +1.825045E+01 +1.810641E+00 +8.780250E+02 -1.637947E+01 +1.825045E+01 -1.637947E+01 +4.021605E+02 
 +4.699116E+02 +6.009896E+00 +1.807791E+01 +6.009896E+00 +8.795809E+02 -1.536496E+01 +1.807791E+01 -1.536496E+01 +3.961238E+02 
 +4.559478E+02 +4.353611E+00 +1.022704E+01 +4.353611E+00 +8.666227E+02 -3.910453E+00 +1.022704E+01 -3.910453E+00 +3.561786E+02 
 +4.926533E+02 +4.744447E+00 -2.335386E+01 +4.744447E+00 +8.817313E+02 +2.696407E-01 -2.335386E+01 +2.696407E-01 +3.474505E+02 
 +4.946461E+02 +8.086721E+00 -2.094326E+01 +8.086721E+00 +8.727367E+02 -2.496600E+00 -2.094326E+01 -2.496600E+00 +3.258868E+02 
 +5.057786E+02 +9.986418E+00 -1.564664E+01 +9.986418E+00 +8.716363E+02 -4.830952E+00 -1.564664E+01 -4.830952E+00 +3.393598E+02 
 +5.275634E+02 +3.134203E+00 +1.598487E+01 +3.134203E+00 +8.854361E+02 -1.350322E+01 +1.598487E+01 -1.350322E+01 +3.726979E+02 
 +5.278289E+02 +3.718595E+00 -3.235758E+00 +3.718595E+00 +8.881503E+02 -1.562292E+01 -3.235758E+00 -1.562292E+01 +3.617854E+02 
 +4.796980E+02 +6.603132E+00 +3.302409E+01 +6.603132E+00 +8.588441E+02 -1.170452E+01 +3.302409E+01 -1.170452E+01 +3.322739E+02 
 +5.470272E+02 +5.846386E+00 -3.960935E+00 +5.846386E+00 +8.889195E+02 -3.877794E+00 -3.960935E+00 -3.877794E+00 +3.516871E+02 
 +5.061033E+02 +5.583965E+00 +6.847941E+00 +5.583965E+00 +8.679256E+02 -2.382341E+00 +6.847941E+00 -2.382341E+00 +3.366838E+02 
 +4.677451E+02 +3.683933E+00 +2.035165E+01 +3.683933E+00 +8.560714E+02 -7.693283E+00 +2.035165E+01 -7.693283E+00 +3.415327E+02 
 +4.792446E+02 +2.295276E-02 +2.389196E+01 +2.295276E-02 +8.655289E+02 -8.401930E+00 +2.389196E+01 -8.401930E+00 +3.611045E+02 
 +4.783006E+02 -2.227004E+00 +3.513651E+01 -2.227004E+00 +8.628591E+02 -5.260136E+00 +3.513651E+01 -5.260136E+00 +3.543824E+02 
 +4.980168E+02 -4.625595E+00 -3.436796E+01 -4.625595E+00 +8.576131E+02 +4.691657E+00 -3.436796E+01 +4.691657E+00 +3.593390E+02 
 +5.310009E+02 -3.665387E+00 -6.152550E+00 -3.665387E+00 +8.537957E+02 +1.049413E+01 -6.152550E+00 +1.049413E+01 +3.722836E+02 
 +5.269682E+02 -1.723052E+00 -8.190940E+00 -1.723052E+00 +8.421120E+02 +4.760091E+00 -8.190940E+00 +4.760091E+00 +3.739067E+02 
 +5.195964E+02 +5.002767E+00 -2.002933E+01 +5.002767E+00 +8.509264E+02 +5.882539E+00 -2.002933E+01 +5.882539E+00 +3.930824E+02 
 +4.732591E+02 +1.619093E+00 -1.897048E+01 +1.619093E+00 +8.565715E+02 -1.268507E+01 -1.897048E+01 -1.268507E+01 +3.948201E+02 
 +4.610324E+02 -1.212647E+00 -1.520243E+00 -1.212647E+00 +8.766423E+02 -2.256457E+01 -1.520243E+00 -2.256457E+01 +4.128575E+02 
 +4.686170E+02 -9.924289E-01 +1.522603E+01 -9.924289E-01 +8.908545E+02 -2.396767E+01 +1.522603E+01 -2.396767E+01 +4.244416E+02 
 +4.792432E+02 +1.601470E+00 +2.583176E+01 +1.601470E+00 +8.836302E+02 -1.652119E+01 +2.583176E+01 -1.652119E+01 +4.234001E+02 
 +4.668500E+02 +3.994548E+00 +2.392392E+01 +3.994548E+00 +8.746398E+02 -7.297273E+00 +2.392392E+01 -7.297273E+00 +4.093052E+02 
 +4.400786E+02 +1.437918E+00 +2.255301E+01 +1.437918E+00 +8.615442E+02 -1.649463E+00 +2.255301E+01 -1.649463E+00 +3.694187E+02 
 +4.967878E+02 +2.632249E+00 -2.826618E+01 +2.632249E+00 +8.832758E+02 +1.311239E+00 -2.826618E+01 +1.311239E+00 +3.590167E+02 
 +4.979144E+02 +3.685534E+00 -2.524714E+01 +3.685534E+00 +8.699200E+02 +2.140129E+00 -2.524714E+01 +2.140129E+00 +3.303741E+02 
 +5.117587E+02 +4.678743E+00 -2.107576E+01 +4.678743E+00 +8.723195E+02 -1.955850E+00 -2.107576E+01 -1.955850E+00 +3.410433E+02 
 +5.302902E+02 +1.876873E+00 +1.287633E+01 +1.876873E+00 +8.876306E+02 -1.080174E+01 +1.287633E+01 -1.080174E+01 +3.680363E+02 
 +5.281895E+02 +4.888318E+00 -7.907920E+00 +4.888318E+00 +8.907491E+02 -1.376868E+01 -7.907920E+00 -1.376868E+01 +3.568461E+02 
 +4.804060E+02 +7.133197E+00 +2.765544E+01 +7.133197E+00 +8.617587E+02 -1.464496E+01 +2.765544E+01 -1.464496E+01 +3.367256E+02 
 +5.336027E+02 +5.181817E+00 +3.751202E+00 +5.181817E+00 +8.863394E+02 -1.341146E+01 +3.751202E+00 -1.341146E+01 +3.636282E+02 
 +5.002015E+02 +5.986211E-01 +1.121441E+01 +5.986211E-01 +8.697940E+02 -9.158511E+00 +1.121441E+01 -9.158511E+00 +3.608143E+02 
 +4.782030E+02 -3.879571E+00 +1.984065E+01 -3.879571E+00 +8.626111E+02 -7.425372E+00 +1.984065E+01 -7.425372E+00 +3.631447E+02 
 +4.854416E+02 -2.655422E+00 +2.719274E+01 -2.655422E+00 +8.677480E+02 -8.581044E+00 +2.719274E+01 -8.581044E+00 +3.729471E+02 
 +4.920845E+02 -2.237656E+00 +3.450413E+01 -2.237656E+00 +8.655186E+02 -1.480984E+01 +3.450413E+01 -1.480984E+01 +3.762026E+02 
 +5.081387E+02 -5.117340E+00 -1.254609E+01 -5.117340E+00 +8.683549E+02 -5.761298E+00 -1.254609E+01 -5.761298E+00 +3.760943E+02 
 +5.376060E+02 -1.871228E+00 -1.009062E+01 -1.871228E+00 +8.823128E+02 +7.185484E+00 -1.009062E+01 +7.185484E+00 +3.745134E+02 
 +5.232773E+02 -2.656607E+00 -1.636929E+01 -2.656607E+00 +8.739416E+02 +7.014893E+00 -1.636929E+01 +7.014893E+00 +3.686513E+02 
 +5.129347E+02 +2.688332E+00 -2.081085E+01 +2.688332E+00 +8.677995E+02 +1.925245E+00 -2.081085E+01 +1.925245E+00 +3.814403E+02 
 +4.798541E+02 +3.421052E+00 -1.636941E+01 +3.421052E+00 +8.640074E+02 -1.191217E+01 -1.636941E+01 -1.191217E+01 +3.921514E+02 
 +4.871328E+02 -7.404186E-01 +2.923594E+00 -7.404186E-01 +8.615243E+02 -1.253476E+01 +2.923594E+00 -1.253476E+01 +4.194663E+02 
 +4.969281E+02 -2.705595E-01 +1.584923E+01 -2.705595E-01 +8.760186E+02 -1.519132E+01 +1.584923E+01 -1.519132E+01 +4.380942E+02 
 +4.474026E+02 -7.123266E+00 +3.155507E+01 -7.123266E+00 +8.635021E+02 -2.020831E+01 +3.155507E+01 -2.020831E+01 +4.267800E+02 
 +4.530601E+02 -7.151584E+00 +2.755973E+01 -7.151584E+00 +8.642904E+02 -9.287860E+00 +2.755973E+01 -9.287860E+00 +4.179292E+02 
 +4.597598E+02 -3.656926E+00 +1.103461E+01 -3.656926E+00 +8.621752E+02 -5.895516E+00 +1.103461E+01 -5.895516E+00 +3.932659E+02 
 +4.988138E+02 +1.879423E+00 -2.987768E+01 +1.879423E+00 +8.788304E+02 -4.187287E+00 -2.987768E+01 -4.187287E+00 +3.793918E+02 
 +4.993819E+02 +1.924804E+00 -2.948567E+01 +1.924804E+00 +8.683053E+02 +4.277710E+00 -2.948567E+01 +4.277710E+00 +3.460417E+02 
 +5.112101E+02 +2.077598E+00 -2.664579E+01 +2.077598E+00 +8.687426E+02 +1.823274E+00 -2.664579E+01 +1.823274E+00 +3.435326E+02 
 +5.277284E+02 +9.584413E-01 +1.288099E+01 +9.584413E-01 +8.808657E+02 -8.294319E+00 +1.288099E+01 -8.294319E+00 +3.605100E+02 
 +5.279991E+02 +2.521866E+00 -7.376868E+00 +2.521866E+00 +8.830085E+02 -1.216946E+01 -7.376868E+00 -1.216946E+01 +3.533864E+02 
 +4.891555E+02 +1.868842E+00 +2.055628E+01 +1.868842E+00 +8.660312E+02 -1.271822E+01 +2.055628E+01 -1.271822E+01 +3.480851E+02 
 +5.031037E+02 -3.525577E-01 +1.229250E+01 -3.525577E-01 +8.783501E+02 -1.289013E+01 +1.229250E+01 -1.289013E+01 +3.697009E+02 
 +4.950079E+02 -3.993254E-01 +1.411139E+01 -3.993254E-01 +8.728878E+02 -1.150794E+01 +1.411139E+01 -1.150794E+01 +3.796124E+02 
 +4.931216E+02 -1.954901E+00 +1.678176E+01 -1.954901E+00 +8.687319E+02 -1.019517E+01 +1.678176E+01 -1.019517E+01 +3.870097E+02 
 +4.931714E+02 -5.214305E+00 +2.747465E+01 -5.214305E+00 +8.656864E+02 -1.081886E+01 +2.747465E+01 -1.081886E+01 +3.871726E+02 
 +5.089933E+02 -8.916518E+00 +3.358812E+01 -8.916518E+00 +8.733305E+02 -1.536605E+01 +3.358812E+01 -1.536605E+01 +4.047321E+02 
 +5.311970E+02 -1.013201E+01 +1.173607E+01 -1.013201E+01 +8.855599E+02 -7.639040E+00 +1.173607E+01 -7.639040E+00 +4.084187E+02 
 +5.302270E+02 -3.899865E+00 -1.792488E+01 -3.899865E+00 +8.872417E+02 +2.857069E+00 -1.792488E+01 +2.857069E+00 +3.833162E+02 
 +5.104533E+02 -3.145442E+00 -1.965020E+01 -3.145442E+00 +8.820949E+02 +3.656634E+00 -1.965020E+01 +3.656634E+00 +3.717873E+02 
 +4.880186E+02 +1.718206E+00 -1.246806E+01 +1.718206E+00 +8.704336E+02 -7.696780E-01 -1.246806E+01 -7.696780E-01 +3.677669E+02 
 +4.707364E+02 +9.765721E+00 -8.678340E-01 +9.765721E+00 +8.446288E+02 +1.103831E+01 -8.678340E-01 +1.103831E+01 +3.666106E+02 
 +4.853970E+02 -3.441474E-01 +5.912596E+00 -3.441474E-01 +8.492662E+02 +9.212605E+00 +5.912596E+00 +9.212605E+00 +3.951979E+02 
 +4.994561E+02 -4.101821E+00 +2.962340E+00 -4.101821E+00 +8.669347E+02 -6.667753E-01 +2.962340E+00 -6.667753E-01 +4.173468E+02 
 +4.361058E+02 -1.192965E+01 +1.904890E+01 -1.192965E+01 +8.605741E+02 -1.990967E+01 +1.904890E+01 -1.990967E+01 +4.192602E+02 
 +4.397570E+02 -1.113990E+01 +2.657493E+01 -1.113990E+01 +8.594491E+02 -1.772009E+01 +2.657493E+01 -1.772009E+01 +4.187670E+02 
 +4.954021E+02 -4.566277E+00 -1.829461E+01 -4.566277E+00 +8.727238E+02 -1.427705E+01 -1.829461E+01 -1.427705E+01 +4.159905E+02 
 +5.073676E+02 -1.339860E+00 -3.042978E+01 -1.339860E+00 +8.762978E+02 -1.129961E+01 -3.042978E+01 -1.129961E+01 +3.973088E+02 
 +5.096206E+02 +1.317137E+00 -2.702852E+01 +1.317137E+00 +8.753948E+02 +4.775387E+00 -2.702852E+01 +4.775387E+00 +3.745544E+02 
 +5.065337E+02 +7.345768E-01 -3.024585E+01 +7.345768E-01 +8.709341E+02 +7.362417E+00 -3.024585E+01 +7.362417E+00 +3.563394E+02 
 +5.214377E+02 -3.002555E+00 +4.964938E+00 -3.002555E+00 +8.741770E+02 -1.858532E+00 +4.964938E+00 -1.858532E+00 +3.591377E+02 
 +5.409124E+02 +1.636198E+00 -9.292059E+00 +1.636198E+00 +8.892156E+02 -7.214279E+00 -9.292059E+00 -7.214279E+00 +3.688788E+02 
 +4.908667E+02 -1.349708E+00 +2.149096E+01 -1.349708E+00 +8.713652E+02 -1.587538E+00 +2.149096E+01 -1.587538E+00 +3.558417E+02 
 +4.860483E+02 -2.759218E+00 +1.568221E+01 -2.759218E+00 +8.731372E+02 +2.062291E-02 +1.568221E+01 +2.062291E-02 +3.710542E+02 
 +4.954307E+02 -2.534521E+00 +1.479452E+01 -2.534521E+00 +8.723075E+02 -5.681675E+00 +1.479452E+01 -5.681675E+00 +3.881349E+02 
 +4.964718E+02 -3.090250E+00 +1.853925E+01 -3.090250E+00 +8.668723E+02 -9.853994E+00 +1.853925E+01 -9.853994E+00 +4.033725E+02 
 +5.029424E+02 -5.777447E+00 +3.082798E+01 -5.777447E+00 +8.685971E+02 -1.274062E+01 +3.082798E+01 -1.274062E+01 +4.124097E+02 
 +5.292978E+02 -6.374997E+00 +3.754586E+01 -6.374997E+00 +8.822713E+02 -7.602752E+00 +3.754586E+01 -7.602752E+00 +4.321233E+02 
 +5.301100E+02 -5.360837E+00 +2.365285E+01 -5.360837E+00 +8.827144E+02 +1.007898E+00 +2.365285E+01 +1.007898E+00 +4.184398E+02 
 +5.141656E+02 -4.288866E+00 -4.666107E+00 -4.288866E+00 +8.756563E+02 +7.364391E+00 -4.666107E+00 +7.364391E+00 +3.849272E+02 
 +4.928760E+02 -3.541484E+00 -1.243388E+01 -3.541484E+00 +8.737309E+02 +8.275220E+00 -1.243388E+01 +8.275220E+00 +3.694546E+02 
 +4.752755E+02 -1.232472E+00 +1.467433E+01 -1.232472E+00 +8.583361E+02 +9.621295E+00 +1.467433E+01 +9.621295E+00 +3.522873E+02 
 +4.884243E+02 +2.123519E+00 +4.643604E+00 +2.123519E+00 +8.571510E+02 +1.532207E+01 +4.643604E+00 +1.532207E+01 +3.613752E+02 
 +4.814355E+02 -4.612068E+00 +4.563267E+00 -4.612068E+00 +8.553307E+02 +1.391159E+01 +4.563267E+00 +1.391159E+01 +3.755102E+02 
 +4.668645E+02 -1.658790E+00 -6.826942E+00 -1.658790E+00 +8.367506E+02 +1.065737E+01 -6.826942E+00 +1.065737E+01 +3.792865E+02 
 +4.459800E+02 +1.089009E+00 -3.724383E+00 +1.089009E+00 +8.294446E+02 -2.717254E+00 -3.724383E+00 -2.717254E+00 +3.999048E+02 
 +4.092307E+02 -6.697667E+00 +9.186442E+00 -6.697667E+00 +8.311200E+02 -2.073502E+01 +9.186442E+00 -2.073502E+01 +3.949820E+02 
 +5.123091E+02 -1.943075E+00 -3.384887E+01 -1.943075E+00 +8.860664E+02 -2.190661E+01 -3.384887E+01 -2.190661E+01 +4.114069E+02 
 +5.164628E+02 -4.091121E-01 -2.937100E+01 -4.091121E-01 +8.786591E+02 -1.019716E+01 -2.937100E+01 -1.019716E+01 +3.985015E+02 
 +5.234275E+02 +1.684591E+00 -2.493078E+01 +1.684591E+00 +8.852420E+02 -1.195468E+00 -2.493078E+01 -1.195468E+00 +4.085768E+02 
 +5.186221E+02 +2.022434E+00 -3.213318E+01 +2.022434E+00 +8.807129E+02 +3.846636E+00 -3.213318E+01 +3.846636E+00 +3.954399E+02 
 +5.289696E+02 +4.737498E+00 -7.420261E+00 +4.737498E+00 +8.797594E+02 +5.131838E+00 -7.420261E+00 +5.131838E+00 +3.829889E+02 
 +5.380286E+02 +1.238276E+01 -1.299053E+01 +1.238276E+01 +8.902800E+02 +8.726150E+00 -1.299053E+01 +8.726150E+00 +3.815099E+02 
 +4.946279E+02 +4.275333E+00 +1.690941E+01 +4.275333E+00 +8.802227E+02 +1.059612E+01 +1.690941E+01 +1.059612E+01 +3.606869E+02 
 +4.883243E+02 -7.289676E-01 +1.119420E+01 -7.289676E-01 +8.777999E+02 +5.413464E+00 +1.119420E+01 +5.413464E+00 +3.714563E+02 
 +4.862653E+02 -1.584541E+00 +1.689077E+01 -1.584541E+00 +8.645812E+02 -2.645487E-01 +1.689077E+01 -2.645487E-01 +3.834800E+02 
 +4.855659E+02 -3.617623E-01 +1.718365E+01 -3.617623E-01 +8.574247E+02 -7.070103E+00 +1.718365E+01 -7.070103E+00 +3.951137E+02 
 +5.285959E+02 +2.518445E-01 +3.212672E+01 +2.518445E-01 +8.806742E+02 -7.864011E+00 +3.212672E+01 -7.864011E+00 +4.199759E+02 
 +5.278703E+02 -1.980890E+00 +3.770984E+01 -1.980890E+00 +8.817746E+02 -9.637978E-01 +3.770984E+01 -9.637978E-01 +4.272613E+02 
 +5.082234E+02 -3.628168E+00 +2.361945E+01 -3.628168E+00 +8.743367E+02 +4.021574E+00 +2.361945E+01 +4.021574E+00 +4.020361E+02 
 +4.914290E+02 -5.315923E+00 +1.551759E+01 -5.315923E+00 +8.690587E+02 +5.549478E+00 +1.551759E+01 +5.549478E+00 +3.679651E+02 
 +4.747099E+02 -3.088217E+00 -3.761425E+00 -3.088217E+00 +8.577815E+02 +6.710344E+00 -3.761425E+00 +6.710344E+00 +3.508190E+02 
 +4.692612E+02 -9.461821E+00 +2.700513E+01 -9.461821E+00 +8.482964E+02 +1.235873E+01 +2.700513E+01 +1.235873E+01 +3.411968E+02 
 +4.880527E+02 -3.083727E+00 +5.685251E+00 -3.083727E+00 +8.503768E+02 +2.480267E+01 +5.685251E+00 +2.480267E+01 +3.609760E+02 
 +4.959198E+02 -3.411742E+00 +2.972913E+00 -3.411742E+00 +8.598151E+02 +2.207880E+01 +2.972913E+00 +2.207880E+01 +3.781596E+02 
 +4.522237E+02 -1.100926E+01 -1.495892E+01 -1.100926E+01 +8.507874E+02 +8.724469E+00 -1.495892E+01 +8.724469E+00 +3.642929E+02 
 +4.839008E+02 -8.818866E+00 -1.377493E+01 -8.818866E+00 +8.681058E+02 -2.818359E-01 -1.377493E+01 -2.818359E-01 +3.826160E+02 
 +4.288840E+02 -7.202112E+00 -1.110892E+01 -7.202112E+00 +8.368587E+02 -1.246294E+01 -1.110892E+01 -1.246294E+01 +3.710916E+02 
 +5.129678E+02 +1.861461E+00 -2.476617E+01 +1.861461E+00 +8.858136E+02 -1.441368E+01 -2.476617E+01 -1.441368E+01 +4.045041E+02 
 +5.293935E+02 +2.865032E+00 -2.321731E+01 +2.865032E+00 +8.905430E+02 -6.934095E+00 -2.321731E+01 -6.934095E+00 +4.110186E+02 
 +5.256142E+02 +5.271898E+00 -2.321273E+01 +5.271898E+00 +8.803888E+02 -8.191690E+00 -2.321273E+01 -8.191690E+00 +4.290778E+02 
 +5.263712E+02 +5.043175E+00 -2.614394E+01 +5.043175E+00 +8.731034E+02 -3.479076E+00 -2.614394E+01 -3.479076E+00 +4.260227E+02 
 +5.232838E+02 +2.572940E+00 -1.026266E+01 +2.572940E+00 +8.732639E+02 +5.821715E+00 -1.026266E+01 +5.821715E+00 +4.011672E+02 
 +5.166909E+02 +1.095331E+01 -7.220113E+00 +1.095331E+01 +8.719542E+02 +1.133530E+01 -7.220113E+00 +1.133530E+01 +3.808496E+02 
 +5.067466E+02 +1.110432E+01 +7.399021E+00 +1.110432E+01 +8.690096E+02 +1.241512E+01 +7.399021E+00 +1.241512E+01 +3.672377E+02 
 +4.829340E+02 +3.596234E+00 +5.689883E+00 +3.596234E+00 +8.615085E+02 +1.086888E+01 +5.689883E+00 +1.086888E+01 +3.677829E+02 
 +4.742806E+02 +3.406244E+00 +1.079460E+01 +3.406244E+00 +8.562540E+02 +7.713691E+00 +1.079460E+01 +7.713691E+00 +3.734759E+02 
 +4.734936E+02 +7.235976E+00 +8.472241E+00 +7.235976E+00 +8.537548E+02 +6.006128E+00 +8.472241E+00 +6.006128E+00 +3.683869E+02 
 +5.476246E+02 +4.896591E+00 +2.373118E+01 +4.896591E+00 +8.968349E+02 +7.376717E+00 +2.373118E+01 +7.376717E+00 +4.040802E+02 
 +4.966387E+02 -3.360526E+00 +3.053921E+01 -3.360526E+00 +8.744520E+02 +2.000179E+00 +3.053921E+01 +2.000179E+00 +3.977794E+02 
 +4.838291E+02 -4.669881E+00 +1.965107E+01 -4.669881E+00 +8.688073E+02 -3.168383E+00 +1.965107E+01 -3.168383E+00 +3.807307E+02 
 +4.776586E+02 -5.300503E+00 +1.905474E+01 -5.300503E+00 +8.643823E+02 -3.730908E+00 +1.905474E+01 -3.730908E+00 +3.572178E+02 
 +4.778138E+02 -3.415665E+00 +4.650728E+00 -3.415665E+00 +8.647092E+02 +3.524411E+00 +4.650728E+00 +3.524411E+00 +3.566204E+02 
 +4.660455E+02 -9.607226E+00 +2.129782E+01 -9.607226E+00 +8.520859E+02 +1.562529E+01 +2.129782E+01 +1.562529E+01 +3.521104E+02 
 +4.753488E+02 -6.277081E+00 +5.793107E+00 -6.277081E+00 +8.586254E+02 +1.780227E+01 +5.793107E+00 +1.780227E+01 +3.639204E+02 
 +4.857551E+02 -5.454025E+00 -1.084751E+00 -5.454025E+00 +8.572428E+02 +2.622732E+01 -1.084751E+00 +2.622732E+01 +3.686331E+02 
 +4.343242E+02 -1.290108E+01 -1.812551E+01 -1.290108E+01 +8.361876E+02 +2.209942E+01 -1.812551E+01 +2.209942E+01 +3.243346E+02 
 +4.909673E+02 -8.474696E+00 -7.449051E+00 -8.474696E+00 +8.646435E+02 +1.394737E+01 -7.449051E+00 +1.394737E+01 +3.265918E+02 
 +4.889809E+02 -1.163735E+00 -1.074359E+01 -1.163735E+00 +8.566577E+02 +1.831479E+00 -1.074359E+01 +1.831479E+00 +3.465431E+02 
 +5.121392E+02 +9.876831E+00 -1.353119E+01 +9.876831E+00 +8.701465E+02 -7.732568E+00 -1.353119E+01 -7.732568E+00 +3.962982E+02 
 +5.172190E+02 +1.121584E+01 -1.836846E+01 +1.121584E+01 +8.733333E+02 -9.423613E+00 -1.836846E+01 -9.423613E+00 +4.143494E+02 
 +5.150179E+02 +6.002731E+00 -1.314521E+01 +6.002731E+00 +8.733296E+02 -3.718306E+00 -1.314521E+01 -3.718306E+00 +4.183070E+02 
 +5.149655E+02 +4.724375E+00 -1.430428E+01 +4.724375E+00 +8.702483E+02 +5.386833E+00 -1.430428E+01 +5.386833E+00 +4.107342E+02 
 +5.052991E+02 +6.367368E+00 -5.238837E+00 +6.367368E+00 +8.618925E+02 +1.136061E+01 -5.238837E+00 +1.136061E+01 +3.860648E+02 
 +4.989274E+02 +1.127335E+01 -1.538829E-01 +1.127335E+01 +8.447811E+02 +1.338958E+01 -1.538829E-01 +1.338958E+01 +3.655027E+02 
 +5.132544E+02 +1.463433E+01 +3.081420E+00 +1.463433E+01 +8.409125E+02 +1.841901E+01 +3.081420E+00 +1.841901E+01 +3.693137E+02 
 +4.655524E+02 +4.955915E+00 +3.977941E-01 +4.955915E+00 +8.258102E+02 +2.297282E+01 +3.977941E-01 +2.297282E+01 +3.574330E+02 
 +4.514598E+02 +1.864301E+00 +3.756406E+00 +1.864301E+00 +8.341621E+02 +1.871683E+01 +3.756406E+00 +1.871683E+01 +3.515665E+02 
 +4.657610E+02 +3.573163E+00 +7.032245E+00 +3.573163E+00 +8.439473E+02 +1.956476E+01 +7.032245E+00 +1.956476E+01 +3.504624E+02 
 +5.058037E+02 -3.720180E+00 +1.333572E+01 -3.720180E+00 +8.713514E+02 +1.848909E+01 +1.333572E+01 +1.848909E+01 +3.817431E+02 
 +4.877338E+02 -1.074009E+01 +1.529738E+01 -1.074009E+01 +8.750269E+02 -1.744233E+00 +1.529738E+01 -1.744233E+00 +3.801509E+02 
 +4.817336E+02 -3.485781E+00 +1.214392E+01 -3.485781E+00 +8.752185E+02 -1.684241E+01 +1.214392E+01 -1.684241E+01 +3.584922E+02 
 +4.741679E+02 +9.577689E-01 +1.808419E+01 +9.577689E-01 +8.685210E+02 -1.358944E+01 +1.808419E+01 -1.358944E+01 +3.567515E+02 
 +4.885984E+02 +2.669026E-01 +8.495576E+00 +2.669026E-01 +8.758865E+02 -7.007503E+00 +8.495576E+00 -7.007503E+00 +3.820746E+02 
 +4.731755E+02 -3.745772E+00 +1.478602E+01 -3.745772E+00 +8.669889E+02 +1.715745E+00 +1.478602E+01 +1.715745E+00 +3.728779E+02 
 +4.633277E+02 -4.169082E+00 +2.295016E+00 -4.169082E+00 +8.683255E+02 +1.085939E+01 +2.295016E+00 +1.085939E+01 +3.765645E+02 
 +4.610255E+02 +4.582826E-01 +6.074822E+00 +4.582826E-01 +8.708120E+02 +1.968072E+01 +6.074822E+00 +1.968072E+01 +3.668105E+02 
 +4.840194E+02 -4.385796E+00 -2.391665E+00 -4.385796E+00 +8.740114E+02 +2.602617E+01 -2.391665E+00 +2.602617E+01 +3.471447E+02 
 +5.111582E+02 -9.695650E+00 -3.850017E+00 -9.695650E+00 +8.740098E+02 +1.869016E+01 -3.850017E+00 +1.869016E+01 +3.310471E+02 
 +5.213655E+02 -1.062443E+01 -5.875839E+00 -1.062443E+01 +8.678667E+02 +4.615415E+00 -5.875839E+00 +4.615415E+00 +3.329131E+02 
 +5.367112E+02 -5.317689E+00 -5.027377E+00 -5.317689E+00 +8.802076E+02 -8.034725E-01 -5.027377E+00 -8.034725E-01 +3.722636E+02 
 +5.069630E+02 +4.559581E+00 -2.160932E+01 +4.559581E+00 +8.683095E+02 -1.306097E+00 -2.160932E+01 -1.306097E+00 +3.868069E+02 
 +4.919830E+02 +3.850623E+00 -8.383521E+00 +3.850623E+00 +8.595971E+02 +2.187747E+00 -8.383521E+00 +2.187747E+00 +3.777355E+02 
 +4.929295E+02 +5.197851E+00 -8.397995E+00 +5.197851E+00 +8.579103E+02 +7.693287E+00 -8.397995E+00 +7.693287E+00 +3.681584E+02 
 +4.966119E+02 +8.001396E+00 -7.232708E-01 +8.001396E+00 +8.525663E+02 +1.235473E+01 -7.232708E-01 +1.235473E+01 +3.590955E+02 
 +4.898732E+02 +8.786155E+00 -3.463050E+00 +8.786155E+00 +8.337227E+02 +1.250360E+01 -3.463050E+00 +1.250360E+01 +3.433439E+02 
 +4.952300E+02 +1.107809E+01 +1.051633E+01 +1.107809E+01 +8.273000E+02 +1.902974E+01 +1.051633E+01 +1.902974E+01 +3.553696E+02 
 +4.609833E+02 +3.813421E+00 -2.845553E+00 +3.813421E+00 +8.232400E+02 +2.580457E+01 -2.845553E+00 +2.580457E+01 +3.570848E+02 
 +4.532947E+02 -1.573078E+00 -1.490379E+00 -1.573078E+00 +8.387218E+02 +1.668149E+01 -1.490379E+00 +1.668149E+01 +3.471889E+02 
 +4.593031E+02 -2.697311E+00 +4.809161E+00 -2.697311E+00 +8.553731E+02 +8.884259E+00 +4.809161E+00 +8.884259E+00 +3.408399E+02 
 +4.824050E+02 -6.732910E+00 +5.739949E+00 -6.732910E+00 +8.793771E+02 +4.411395E+00 +5.739949E+00 +4.411395E+00 +3.679257E+02 
 +5.042875E+02 -4.202862E+00 -2.542244E+00 -4.202862E+00 +8.872138E+02 -8.099374E+00 -2.542244E+00 -8.099374E+00 +3.623813E+02 
 +5.015477E+02 +1.633488E+00 +2.485405E+00 +1.633488E+00 +8.844447E+02 -1.455205E+01 +2.485405E+00 -1.455205E+01 +3.442817E+02 
 +4.735442E+02 +4.972805E+00 +1.996858E+01 +4.972805E+00 +8.737515E+02 -9.731869E+00 +1.996858E+01 -9.731869E+00 +3.684946E+02 
 +4.896244E+02 +3.042128E+00 +9.140960E+00 +3.042128E+00 +8.799420E+02 -3.403548E+00 +9.140960E+00 -3.403548E+00 +4.020230E+02 
 +4.685825E+02 -4.167482E-01 +1.029139E+01 -4.167482E-01 +8.636934E+02 +3.025925E+00 +1.029139E+01 +3.025925E+00 +3.854412E+02 
 +4.525395E+02 +5.314093E-01 +1.529813E+00 +5.314093E-01 +8.604728E+02 +9.997408E+00 +1.529813E+00 +9.997408E+00 +3.877137E+02 
 +4.515546E+02 +1.044747E+01 +1.447059E+01 +1.044747E+01 +8.599292E+02 +1.543913E+01 +1.447059E+01 +1.543913E+01 +3.760227E+02 
 +5.020207E+02 +5.777332E+00 +3.021118E+00 +5.777332E+00 +8.794128E+02 +1.832351E+01 +3.021118E+00 +1.832351E+01 +3.759403E+02 
 +5.234525E+02 -7.738765E+00 -1.048359E+01 -7.738765E+00 +8.800471E+02 +1.373412E+01 -1.048359E+01 +1.373412E+01 +3.583719E+02 
 +5.085134E+02 -1.514253E+01 -8.582085E+00 -1.514253E+01 +8.479547E+02 +1.006304E+01 -8.582085E+00 +1.006304E+01 +3.272765E+02 
 +5.191654E+02 -1.190553E+01 -7.469440E+00 -1.190553E+01 +8.350444E+02 +5.480242E-01 -7.469440E+00 +5.480242E-01 +3.334701E+02 
 +5.006267E+02 -2.508802E+00 -1.288012E+01 -2.508802E+00 +8.383053E+02 -4.570646E+00 -1.288012E+01 -4.570646E+00 +3.452456E+02 
 +4.905633E+02 +1.761079E+00 -1.356372E+01 +1.761079E+00 +8.521339E+02 -3.051318E-01 -1.356372E+01 -3.051318E-01 +3.549840E+02 
 +4.879981E+02 +5.317760E+00 -7.119047E+00 +5.317760E+00 +8.563211E+02 +3.021889E+00 -7.119047E+00 +3.021889E+00 +3.514772E+02 
 +4.851842E+02 +3.722947E+00 -3.557005E+00 +3.722947E+00 +8.453381E+02 +5.271178E+00 -3.557005E+00 +5.271178E+00 +3.350483E+02 
 +4.719756E+02 -3.956447E-01 +4.025778E+00 -3.956447E-01 +8.337423E+02 +8.587616E+00 +4.025778E+00 +8.587616E+00 +3.187219E+02 
 +4.660872E+02 -3.694986E+00 +3.027511E+01 -3.694986E+00 +8.353081E+02 +1.916758E+01 +3.027511E+01 +1.916758E+01 +3.296802E+02 
 +4.632150E+02 -4.213439E+00 +4.878647E+00 -4.213439E+00 +8.299259E+02 +2.638349E+01 +4.878647E+00 +2.638349E+01 +3.558900E+02 
 +4.631401E+02 -4.660917E+00 -1.060810E+01 -4.660917E+00 +8.371938E+02 +1.862285E+01 -1.060810E+01 +1.862285E+01 +3.577495E+02 
 +4.643547E+02 +2.648056E+00 -4.396278E+00 +2.648056E+00 +8.617570E+02 +5.527715E+00 -4.396278E+00 +5.527715E+00 +3.434958E+02 
 +5.031826E+02 +2.528043E+00 -4.567372E+00 +2.528043E+00 +8.965899E+02 -1.482661E+00 -4.567372E+00 -1.482661E+00 +3.637953E+02 
 +5.052948E+02 +5.957279E+00 -1.387172E+01 +5.957279E+00 +8.900505E+02 -7.693092E+00 -1.387172E+01 -7.693092E+00 +3.456901E+02 
 +5.103394E+02 +4.550120E+00 -4.207089E+00 +4.550120E+00 +8.893587E+02 -4.547528E+00 -4.207089E+00 -4.547528E+00 +3.466086E+02 
 +4.842535E+02 +2.995971E+00 +1.260281E+01 +2.995971E+00 +8.803262E+02 -1.670561E+00 +1.260281E+01 -1.670561E+00 +3.787455E+02 
 +4.743941E+02 +2.810409E+00 +1.218046E+01 +2.810409E+00 +8.750625E+02 +2.144786E-03 +1.218046E+01 +2.144786E-03 +4.037704E+02 
 +4.621438E+02 +9.111812E-01 +8.713917E+00 +9.111812E-01 +8.655178E+02 +5.321148E+00 +8.713917E+00 +5.321148E+00 +4.001957E+02 
 +4.499440E+02 +4.243007E+00 +4.382327E+00 +4.243007E+00 +8.548497E+02 +7.377058E+00 +4.382327E+00 +7.377058E+00 +3.978268E+02 
 +4.421212E+02 +6.982051E+00 +1.512592E+01 +6.982051E+00 +8.442202E+02 +8.515478E+00 +1.512592E+01 +8.515478E+00 +3.842451E+02 
 +5.065491E+02 -1.876535E+00 -8.577459E+00 -1.876535E+00 +8.619837E+02 +6.505284E+00 -8.577459E+00 +6.505284E+00 +3.813114E+02 
 +5.204752E+02 -1.185873E+00 -5.899912E+00 -1.185873E+00 +8.567608E+02 +6.048857E+00 -5.899912E+00 +6.048857E+00 +3.635796E+02 
 +5.255959E+02 -5.321613E+00 -1.937678E+00 -5.321613E+00 +8.759593E+02 +6.125788E+00 -1.937678E+00 +6.125788E+00 +3.572062E+02 
 +5.391958E+02 -4.890799E+00 -1.017353E+01 -4.890799E+00 +8.897009E+02 +2.074018E+00 -1.017353E+01 +2.074018E+00 +3.589555E+02 
 +5.215168E+02 +2.989767E+00 +5.403246E+00 +2.989767E+00 +8.581783E+02 +3.158676E+00 +5.403246E+00 +3.158676E+00 +3.494422E+02 
 +5.032682E+02 +7.400054E+00 -1.412821E+01 +7.400054E+00 +8.517545E+02 +1.613452E+00 -1.412821E+01 +1.613452E+00 +3.509883E+02 
 +4.912280E+02 +5.172153E+00 -2.025296E+00 +5.172153E+00 +8.623482E+02 +9.458751E-01 -2.025296E+00 +9.458751E-01 +3.443278E+02 
 +4.656047E+02 -3.280996E+00 -1.499407E+01 -3.280996E+00 +8.559216E+02 +5.940380E+00 -1.499407E+01 +5.940380E+00 +3.213274E+02 
 +4.554589E+02 -1.031189E+01 +1.311265E+01 -1.031189E+01 +8.506692E+02 +1.287676E+01 +1.311265E+01 +1.287676E+01 +3.204040E+02 
 +4.631386E+02 -8.445008E+00 +2.137682E+01 -8.445008E+00 +8.463959E+02 +1.254694E+01 +2.137682E+01 +1.254694E+01 +3.317380E+02 
 +4.674515E+02 -7.609513E+00 +7.012580E+00 -7.609513E+00 +8.353129E+02 +6.865033E+00 +7.012580E+00 +6.865033E+00 +3.540552E+02 
 +4.612371E+02 +2.125701E+00 -2.227429E+01 +2.125701E+00 +8.123447E+02 +2.097252E+00 -2.227429E+01 +2.097252E+00 +3.513889E+02 
 +4.548033E+02 +1.358298E+01 -1.093026E+01 +1.358298E+01 +8.102459E+02 -4.236044E+00 -1.093026E+01 -4.236044E+00 +3.361947E+02 
 +4.897646E+02 +1.030794E+00 -8.271913E+00 +1.030794E+00 +8.511388E+02 -1.989136E+00 -8.271913E+00 -1.989136E+00 +3.497985E+02 
 +4.897524E+02 +1.910978E+00 -2.200756E+01 +1.910978E+00 +8.702052E+02 -3.809301E+00 -2.200756E+01 -3.809301E+00 +3.195923E+02 
 +4.985276E+02 +5.245922E-02 -1.417561E+01 +5.245922E-02 +8.876276E+02 -5.964581E+00 -1.417561E+01 -5.964581E+00 +3.198615E+02 
 +4.977842E+02 -2.479948E+00 -7.986221E+00 -2.479948E+00 +8.888846E+02 -5.048295E+00 -7.986221E+00 -5.048295E+00 +3.570028E+02 
 +4.581713E+02 -9.729606E-01 +1.394903E+01 -9.729606E-01 +8.690574E+02 -1.225388E+00 +1.394903E+01 -1.225388E+00 +3.941967E+02 
 +4.551411E+02 +6.795723E-01 +1.003371E+01 +6.795723E-01 +8.642042E+02 +5.133593E+00 +1.003371E+01 +5.133593E+00 +4.106833E+02 
 +4.410109E+02 +2.686452E+00 +8.638202E+00 +2.686452E+00 +8.530209E+02 +7.960823E+00 +8.638202E+00 +7.960823E+00 +4.036011E+02 
 +4.551971E+02 +5.062404E+00 +1.233420E+01 +5.062404E+00 +8.394740E+02 +3.086056E+00 +1.233420E+01 +3.086056E+00 +3.961005E+02 
 +5.112621E+02 +4.245311E+00 -6.302256E+00 +4.245311E+00 +8.259348E+02 -1.969372E+00 -6.302256E+00 -1.969372E+00 +3.911556E+02 
 +5.054867E+02 +9.094189E+00 +5.424366E+00 +9.094189E+00 +8.094419E+02 +1.183871E+00 +5.424366E+00 +1.183871E+00 +3.785687E+02 
 +5.032608E+02 +7.489457E+00 +9.999046E+00 +7.489457E+00 +8.195503E+02 -1.467461E-01 +9.999046E+00 -1.467461E-01 +3.705257E+02 
 +5.099933E+02 +3.173643E+00 +1.958063E-01 +3.173643E+00 +8.372739E+02 +2.313565E+00 +1.958063E-01 +2.313565E+00 +3.609718E+02 
 +5.033816E+02 +9.643686E+00 +5.520618E+00 +9.643686E+00 +8.519108E+02 +1.152067E+00 +5.520618E+00 +1.152067E+00 +3.540306E+02 
 +4.996840E+02 +9.137972E+00 -5.047032E+00 +9.137972E+00 +8.555232E+02 -8.275163E-01 -5.047032E+00 -8.275163E-01 +3.468816E+02 
 +4.798544E+02 +2.881133E+00 +8.226436E+00 +2.881133E+00 +8.538085E+02 +4.766956E+00 +8.226436E+00 +4.766956E+00 +3.285547E+02 
 +4.335054E+02 -7.562432E+00 -2.826725E+01 -7.562432E+00 +8.396738E+02 +1.335447E+01 -2.826725E+01 +1.335447E+01 +3.073127E+02 
 +4.434428E+02 -9.980885E+00 -1.042661E+01 -9.980885E+00 +8.481253E+02 +1.679960E+01 -1.042661E+01 +1.679960E+01 +3.268825E+02 
 +4.743304E+02 -1.013546E+01 -1.212153E+01 -1.013546E+01 +8.618075E+02 +1.272548E+01 -1.212153E+01 +1.272548E+01 +3.497929E+02 
 +4.805395E+02 -1.346126E+01 -7.231581E+00 -1.346126E+01 +8.619074E+02 +5.230394E+00 -7.231581E+00 +5.230394E+00 +3.612236E+02 
 +4.821948E+02 -1.014296E+01 -2.222173E+01 -1.014296E+01 +8.605637E+02 +4.929995E+00 -2.222173E+01 +4.929995E+00 +3.553856E+02 
 +4.732660E+02 -4.795399E+00 -1.289158E+01 -4.795399E+00 +8.380620E+02 +4.103836E+00 -1.289158E+01 +4.103836E+00 +3.436468E+02 
 +5.100053E+02 -4.748190E+00 -1.397036E+00 -4.748190E+00 +8.589935E+02 -3.255403E+00 -1.397036E+00 -3.255403E+00 +3.657177E+02 
 +5.007308E+02 +3.190166E+00 -2.036415E+01 +3.190166E+00 +8.682398E+02 -4.424653E+00 -2.036415E+01 -4.424653E+00 +3.315527E+02 
 +5.036224E+02 +1.693488E-02 -1.659812E+01 +1.693488E-02 +8.820988E+02 -3.191463E+00 -1.659812E+01 -3.191463E+00 +3.190936E+02 
 +5.106880E+02 -5.040654E+00 -1.876830E+01 -5.040654E+00 +8.962966E+02 +5.441544E-01 -1.876830E+01 +5.441544E-01 +3.572197E+02 
 +4.537636E+02 -4.533920E+00 +1.175379E+01 -4.533920E+00 +8.654416E+02 +4.679790E+00 +1.175379E+01 +4.679790E+00 +3.941630E+02 
 +4.475215E+02 +4.235868E-01 +7.389827E+00 +4.235868E-01 +8.572230E+02 +5.967656E+00 +7.389827E+00 +5.967656E+00 +4.150820E+02 
 +4.501899E+02 +1.824993E+00 +6.675491E+00 +1.824993E+00 +8.396091E+02 +5.425024E+00 +6.675491E+00 +5.425024E+00 +4.096787E+02 
 +4.785781E+02 +4.324178E+00 +5.011731E+00 +4.324178E+00 +8.049033E+02 -8.088400E+00 +5.011731E+00 -8.088400E+00 +3.946218E+02 
 +4.920840E+02 +8.023614E+00 +1.629900E+00 +8.023614E+00 +7.934863E+02 -1.487857E+01 +1.629900E+00 -1.487857E+01 +3.822534E+02 
 +4.922088E+02 +1.400707E+01 +2.873962E+00 +1.400707E+01 +7.986705E+02 -1.355920E+01 +2.873962E+00 -1.355920E+01 +3.799829E+02 
 +4.962609E+02 +1.174558E+01 +4.529428E+00 +1.174558E+01 +8.062693E+02 -1.158942E+01 +4.529428E+00 -1.158942E+01 +3.819666E+02 
 +5.002043E+02 +5.360875E+00 +2.792671E+00 +5.360875E+00 +8.318721E+02 -6.608651E+00 +2.792671E+00 -6.608651E+00 +3.799771E+02 
 +4.849020E+02 +6.510830E+00 +5.800843E+00 +6.510830E+00 +8.454158E+02 -1.569033E+00 +5.800843E+00 -1.569033E+00 +3.606638E+02 
 +4.819015E+02 +5.292552E+00 +4.405528E+00 +5.292552E+00 +8.505492E+02 +3.092685E+00 +4.405528E+00 +3.092685E+00 +3.488452E+02 
 +4.672613E+02 +6.474688E+00 +9.936664E+00 +6.474688E+00 +8.469580E+02 +3.339298E+00 +9.936664E+00 +3.339298E+00 +3.328808E+02 
 +4.235973E+02 -9.239355E+00 -2.326421E+01 -9.239355E+00 +8.320560E+02 +1.097881E+01 -2.326421E+01 +1.097881E+01 +3.150941E+02 
 +4.431860E+02 -1.220226E+01 -2.239652E+01 -1.220226E+01 +8.485263E+02 +1.712977E+01 -2.239652E+01 +1.712977E+01 +3.337507E+02 
 +4.671781E+02 -1.339699E+01 -1.412251E+01 -1.339699E+01 +8.618749E+02 +1.169574E+01 -1.412251E+01 +1.169574E+01 +3.468280E+02 
 +4.710054E+02 -1.383207E+01 -7.439768E+00 -1.383207E+01 +8.636030E+02 +9.155546E+00 -7.439768E+00 +9.155546E+00 +3.403075E+02 
 +4.733451E+02 -7.744296E+00 -1.563673E+01 -7.744296E+00 +8.633978E+02 +1.028127E+01 -1.563673E+01 +1.028127E+01 +3.317358E+02 
 +4.641386E+02 -8.302178E+00 -1.945491E+01 -8.302178E+00 +8.407270E+02 +1.151523E+01 -1.945491E+01 +1.151523E+01 +3.316980E+02 
 +5.080642E+02 -7.526815E+00 -3.346965E+00 -7.526815E+00 +8.414747E+02 +6.579759E+00 -3.346965E+00 +6.579759E+00 +3.704283E+02 
 +5.076025E+02 -5.174257E+00 -9.676179E+00 -5.174257E+00 +8.322915E+02 +6.682560E+00 -9.676179E+00 +6.682560E+00 +3.745296E+02 
 +5.093409E+02 -7.054258E+00 -6.615412E+00 -7.054258E+00 +8.366597E+02 +1.313385E+01 -6.615412E+00 +1.313385E+01 +3.714944E+02 
 +5.066898E+02 -9.906875E+00 -1.270246E+01 -9.906875E+00 +8.515546E+02 +1.361454E+01 -1.270246E+01 +1.361454E+01 +3.737184E+02 
 +4.439505E+02 -7.961100E+00 +7.421299E+00 -7.961100E+00 +8.414983E+02 +1.025505E+01 +7.421299E+00 +1.025505E+01 +3.779144E+02 
 +4.341003E+02 -3.632987E+00 +4.396994E+00 -3.632987E+00 +8.528330E+02 +9.884969E+00 +4.396994E+00 +9.884969E+00 +4.100459E+02 
 +4.481277E+02 +6.009310E+00 +8.981477E-01 +6.009310E+00 +7.827131E+02 -4.000054E+00 +8.981477E-01 -4.000054E+00 +4.005246E+02 
 +4.892941E+02 +9.525027E+00 +1.277293E+00 +9.525027E+00 +7.913919E+02 -5.741760E+00 +1.277293E+00 -5.741760E+00 +3.901841E+02 
 +4.607636E+02 +8.713796E+00 -3.665101E+00 +8.713796E+00 +7.819363E+02 -1.011054E+01 -3.665101E+00 -1.011054E+01 +3.679626E+02 
 +4.663217E+02 +9.907706E+00 -6.622917E+00 +9.907706E+00 +7.850874E+02 -1.272965E+01 -6.622917E+00 -1.272965E+01 +3.659785E+02 
 +4.715375E+02 +5.892199E+00 -1.347131E+01 +5.892199E+00 +8.068632E+02 -1.216231E+01 -1.347131E+01 -1.216231E+01 +3.729825E+02 
 +4.983824E+02 +3.158385E+00 -4.929962E-01 +3.158385E+00 +8.459838E+02 -7.876075E+00 -4.929962E-01 -7.876075E+00 +3.879487E+02 
 +4.760153E+02 +1.847840E+00 +2.149935E+01 +1.847840E+00 +8.397186E+02 +6.366843E+00 +2.149935E+01 +6.366843E+00 +3.597352E+02 
 +4.716226E+02 +2.684557E+00 +7.555438E+00 +2.684557E+00 +8.438847E+02 +1.192450E+01 +7.555438E+00 +1.192450E+01 +3.576527E+02 
 +4.625454E+02 +3.220563E+00 +8.245953E+00 +3.220563E+00 +8.435953E+02 +8.876497E+00 +8.245953E+00 +8.876497E+00 +3.577167E+02 
 +4.262449E+02 -4.388967E+00 -7.459578E+00 -4.388967E+00 +8.252299E+02 +1.224946E+01 -7.459578E+00 +1.224946E+01 +3.320762E+02 
 +4.423348E+02 -8.709427E+00 -4.622499E+00 -8.709427E+00 +8.411217E+02 +1.720982E+01 -4.622499E+00 +1.720982E+01 +3.404038E+02 
 +4.524814E+02 -7.658084E+00 +3.542173E+00 -7.658084E+00 +8.444020E+02 +2.011247E+01 +3.542173E+00 +2.011247E+01 +3.360201E+02 
 +4.538296E+02 -4.602372E+00 +6.243340E+00 -4.602372E+00 +8.444268E+02 +2.159970E+01 +6.243340E+00 +2.159970E+01 +3.083299E+02 
 +4.778557E+02 +9.357676E-01 -2.132713E+01 +9.357676E-01 +8.588541E+02 +1.357543E+01 -2.132713E+01 +1.357543E+01 +3.180462E+02 
 +4.761428E+02 +1.172051E+00 -2.972726E+01 +1.172051E+00 +8.616216E+02 +5.268302E+00 -2.972726E+01 +5.268302E+00 +3.367999E+02 
 +4.912487E+02 +1.515237E+00 -1.969620E+01 +1.515237E+00 +8.622216E+02 +2.498132E+00 -1.969620E+01 +2.498132E+00 +3.638941E+02 
 +5.129274E+02 -3.347906E+00 -1.054930E+01 -3.347906E+00 +8.418604E+02 +5.450111E+00 -1.054930E+01 +5.450111E+00 +3.906655E+02 
 +5.136049E+02 -6.356732E+00 -1.483681E+01 -6.356732E+00 +8.281087E+02 +5.412357E+00 -1.483681E+01 +5.412357E+00 +3.957604E+02 
 +5.309064E+02 -1.013296E+01 -7.407397E+00 -1.013296E+01 +8.555638E+02 +2.077576E+00 -7.407397E+00 +2.077576E+00 +3.970128E+02 
 +4.851610E+02 -3.206208E+00 +8.118132E+00 -3.206208E+00 +8.631830E+02 +5.138882E+00 +8.118132E+00 +5.138882E+00 +3.908047E+02 
 +4.471599E+02 +2.131456E+00 +8.684181E+00 +2.131456E+00 +8.371535E+02 +2.510506E+00 +8.684181E+00 +2.510506E+00 +4.123045E+02 
 +4.575798E+02 +1.194671E+00 +1.061308E+01 +1.194671E+00 +8.304278E+02 +2.501212E+00 +1.061308E+01 +2.501212E+00 +4.148836E+02 
 +5.116211E+02 +6.529291E+00 +5.793817E+00 +6.529291E+00 +8.530220E+02 -1.107523E+00 +5.793817E+00 -1.107523E+00 +4.013951E+02 
 +4.621924E+02 +5.242181E-01 -5.477603E+00 +5.242181E-01 +8.478286E+02 -3.688217E+00 -5.477603E+00 -3.688217E+00 +3.808237E+02 
 +5.008543E+02 -1.122586E+00 -1.432015E+01 -1.122586E+00 +8.944156E+02 -7.583879E+00 -1.432015E+01 -7.583879E+00 +4.043143E+02 
 +4.910709E+02 -1.755064E+00 -1.639710E+01 -1.755064E+00 +8.869894E+02 -5.383590E+00 -1.639710E+01 -5.383590E+00 +3.896318E+02 
 +5.266051E+02 -2.135832E+00 +2.175162E+00 -2.135832E+00 +8.945995E+02 +2.768916E+00 +2.175162E+00 +2.768916E+00 +3.976221E+02 
 +4.784222E+02 -6.057846E+00 +3.228325E+01 -6.057846E+00 +8.636932E+02 +9.336724E+00 +3.228325E+01 +9.336724E+00 +3.734890E+02 
 +4.924723E+02 -4.752990E+00 +5.001476E+00 -4.752990E+00 +8.771680E+02 +1.438680E+01 +5.001476E+00 +1.438680E+01 +3.888876E+02 
 +4.740625E+02 -7.342490E+00 +1.534229E+01 -7.342490E+00 +8.601793E+02 +1.022755E+01 +1.534229E+01 +1.022755E+01 +3.868487E+02 
 +4.557330E+02 -6.859661E+00 -4.301781E+00 -6.859661E+00 +8.395133E+02 +4.742620E+00 -4.301781E+00 +4.742620E+00 +3.632868E+02 
 +4.533364E+02 -8.184590E+00 +4.761529E+00 -8.184590E+00 +8.432239E+02 +9.578226E+00 +4.761529E+00 +9.578226E+00 +3.504639E+02 
 +4.548312E+02 -5.217062E+00 +1.022968E+01 -5.217062E+00 +8.478908E+02 +2.042024E+01 +1.022968E+01 +2.042024E+01 +3.251560E+02 
 +4.644477E+02 +2.645254E+00 +3.592919E-01 +2.645254E+00 +8.483349E+02 +1.661931E+01 +3.592919E-01 +1.661931E+01 +3.028825E+02 
 +4.864766E+02 +6.345189E+00 -2.958771E+01 +6.345189E+00 +8.612398E+02 +5.479614E+00 -2.958771E+01 +5.479614E+00 +3.235198E+02 
 +4.906188E+02 +6.915346E+00 -3.103932E+01 +6.915346E+00 +8.657399E+02 +3.527634E+00 -3.103932E+01 +3.527634E+00 +3.442340E+02 
 +4.806922E+02 +7.116988E+00 -3.120290E+01 +7.116988E+00 +8.610448E+02 +3.377977E+00 -3.120290E+01 +3.377977E+00 +3.516547E+02 
 +5.020367E+02 +7.271498E+00 -2.758529E+01 +7.271498E+00 +8.696066E+02 -2.476853E+00 -2.758529E+01 -2.476853E+00 +3.762729E+02 
 +5.132005E+02 +9.683012E+00 -3.584181E+01 +9.683012E+00 +8.574789E+02 -6.750402E+00 -3.584181E+01 -6.750402E+00 +3.892599E+02 
 +5.439900E+02 +9.169481E+00 -3.407824E+00 +9.169481E+00 +8.592636E+02 +3.420105E+00 -3.407824E+00 +3.420105E+00 +4.124499E+02 
 +5.160934E+02 +1.263284E+01 +1.064577E+01 +1.263284E+01 +8.317856E+02 +1.252706E+01 +1.064577E+01 +1.252706E+01 +4.038919E+02 
 +5.128902E+02 +9.718854E+00 +1.523809E+01 +9.718854E+00 +8.464207E+02 +7.912407E+00 +1.523809E+01 +7.912407E+00 +4.376924E+02 
 +4.536906E+02 -8.589967E+00 +2.035765E+01 -8.589967E+00 +8.470856E+02 +3.194812E+00 +2.035765E+01 +3.194812E+00 +4.071082E+02 
 +4.813486E+02 -5.260031E+00 +8.098303E+00 -5.260031E+00 +8.859682E+02 -4.335945E+00 +8.098303E+00 -4.335945E+00 +3.927676E+02 
 +4.575159E+02 -9.205156E+00 +6.411686E-01 -9.205156E+00 +8.721672E+02 -5.325669E+00 +6.411686E-01 -5.325669E+00 +3.797565E+02 
 +4.618051E+02 -7.595476E+00 -1.228566E+01 -7.595476E+00 +8.666687E+02 -1.270313E+00 -1.228566E+01 -1.270313E+00 +3.735749E+02 
 +4.891518E+02 -1.207860E+00 -3.002979E+00 -1.207860E+00 +8.729983E+02 +9.948766E+00 -3.002979E+00 +9.948766E+00 +3.698320E+02 
 +5.104771E+02 -1.314316E-01 -1.568452E+00 -1.314316E-01 +8.838777E+02 +1.349062E+01 -1.568452E+00 +1.349062E+01 +3.908711E+02 
 +4.834650E+02 +2.382953E+00 +2.653984E+01 +2.382953E+00 +8.698371E+02 +6.516555E+00 +2.653984E+01 +6.516555E+00 +3.930370E+02 
 +4.928359E+02 +6.065632E+00 +8.382722E+00 +6.065632E+00 +8.727600E+02 +1.073622E+01 +8.382722E+00 +1.073622E+01 +3.948488E+02 
 +4.706278E+02 +8.687843E-01 +2.187184E+01 +8.687843E-01 +8.613909E+02 +6.198831E+00 +2.187184E+01 +6.198831E+00 +3.860846E+02 
 +4.734364E+02 -6.860115E+00 +5.478833E+00 -6.860115E+00 +8.603146E+02 +2.275088E-01 +5.478833E+00 +2.275088E-01 +3.887885E+02 
 +4.801647E+02 -7.196215E+00 +3.366784E+00 -7.196215E+00 +8.581719E+02 +1.065904E+01 +3.366784E+00 +1.065904E+01 +3.690915E+02 
 +4.728277E+02 -3.227422E+00 +5.272963E+00 -3.227422E+00 +8.540271E+02 +1.113253E+01 +5.272963E+00 +1.113253E+01 +3.232899E+02 
 +4.886326E+02 +3.830715E+00 -1.716214E+01 +3.830715E+00 +8.656924E+02 +3.556486E-01 -1.716214E+01 +3.556486E-01 +3.211512E+02 
 +4.988083E+02 +5.781349E+00 -2.897599E+01 +5.781349E+00 +8.709304E+02 -2.862890E+00 -2.897599E+01 -2.862890E+00 +3.378505E+02 
 +4.966994E+02 +6.503833E+00 -2.743175E+01 +6.503833E+00 +8.656971E+02 +1.973838E+00 -2.743175E+01 +1.973838E+00 +3.448339E+02 
 +4.951651E+02 +5.809123E+00 -3.052457E+01 +5.809123E+00 +8.655543E+02 +3.744651E+00 -3.052457E+01 +3.744651E+00 +3.601608E+02 
 +4.837634E+02 +5.132211E+00 -4.084367E+01 +5.132211E+00 +8.570272E+02 -1.554304E+00 -4.084367E+01 -1.554304E+00 +3.601224E+02 
 +4.979644E+02 +7.395156E+00 -4.059688E+01 +7.395156E+00 +8.521885E+02 +2.226768E+00 -4.059688E+01 +2.226768E+00 +3.760005E+02 
 +5.485642E+02 +1.245897E+01 +1.374835E+00 +1.245897E+01 +8.655929E+02 +1.709119E+01 +1.374835E+00 +1.709119E+01 +4.211830E+02 
 +5.469687E+02 +7.302050E+00 +1.018101E+01 +7.302050E+00 +8.525817E+02 +1.840615E+01 +1.018101E+01 +1.840615E+01 +4.166657E+02 
 +5.524734E+02 +2.144410E+00 +1.462653E+01 +2.144410E+00 +8.667567E+02 +1.186220E+01 +1.462653E+01 +1.186220E+01 +4.397357E+02 
 +4.485218E+02 -7.157379E+00 +1.662379E+01 -7.157379E+00 +8.485508E+02 -6.107303E+00 +1.662379E+01 -6.107303E+00 +3.866594E+02 
 +4.406879E+02 -1.092491E+01 +4.652604E+00 -1.092491E+01 +8.658801E+02 -4.024096E+00 +4.652604E+00 -4.024096E+00 +3.769777E+02 
 +4.517623E+02 -9.345559E+00 +1.311154E+00 -9.345559E+00 +8.735325E+02 +1.864266E-01 +1.311154E+00 +1.864266E-01 +3.859031E+02 
 +4.478158E+02 -1.163119E+01 -2.187615E+00 -1.163119E+01 +8.561706E+02 +1.157279E+01 -2.187615E+00 +1.157279E+01 +3.673318E+02 
 +5.005041E+02 -7.770729E+00 +9.474248E-01 -7.770729E+00 +8.674652E+02 +1.867743E+01 +9.474248E-01 +1.867743E+01 +3.717767E+02 
 +5.019784E+02 -1.226770E+00 -8.423233E+00 -1.226770E+00 +8.683902E+02 +1.021026E+01 -8.423233E+00 +1.021026E+01 +3.956779E+02 
 +4.865121E+02 +4.099259E+00 +2.067392E+01 +4.099259E+00 +8.663440E+02 +1.523012E+00 +2.067392E+01 +1.523012E+00 +3.983504E+02 
 +4.868811E+02 +3.054096E+00 +1.761722E+01 +3.054096E+00 +8.691043E+02 -8.856818E-01 +1.761722E+01 -8.856818E-01 +3.860356E+02 
 +4.634393E+02 -4.782908E-02 +2.675210E+01 -4.782908E-02 +8.575111E+02 -2.457677E+00 +2.675210E+01 -2.457677E+00 +3.717062E+02 
 +4.694446E+02 -5.487773E+00 +2.507391E+01 -5.487773E+00 +8.672764E+02 +1.814571E+00 +2.507391E+01 +1.814571E+00 +3.924167E+02 
 +5.125545E+02 -3.708924E+00 -8.037303E+00 -3.708924E+00 +8.872079E+02 +3.905344E+00 -8.037303E+00 +3.905344E+00 +3.940487E+02 
 +5.079078E+02 -1.520494E-01 -1.036233E+01 -1.520494E-01 +8.752314E+02 -5.696956E+00 -1.036233E+01 -5.696956E+00 +3.511628E+02 
 +5.026189E+02 +2.166739E+00 -2.243646E+01 +2.166739E+00 +8.705066E+02 -7.833300E+00 -2.243646E+01 -7.833300E+00 +3.431047E+02 
 +5.047937E+02 +3.074447E+00 -2.479466E+01 +3.074447E+00 +8.687345E+02 -1.450718E+00 -2.479466E+01 -1.450718E+00 +3.438288E+02 
 +5.030752E+02 +4.063749E+00 -2.554837E+01 +4.063749E+00 +8.667432E+02 +2.547265E+00 -2.554837E+01 +2.547265E+00 +3.434072E+02 
 +5.028642E+02 +5.339006E+00 -2.847375E+01 +5.339006E+00 +8.690967E+02 +4.312274E+00 -2.847375E+01 +4.312274E+00 +3.571786E+02 
 +4.945237E+02 +5.732069E+00 -3.814504E+01 +5.732069E+00 +8.659286E+02 +2.835545E+00 -3.814504E+01 +2.835545E+00 +3.551079E+02 
 +4.948730E+02 +4.780044E+00 -3.387560E+01 +4.780044E+00 +8.579680E+02 +5.259107E+00 -3.387560E+01 +5.259107E+00 +3.555466E+02 
 +5.282430E+02 +1.002375E+01 -1.949859E+00 +1.002375E+01 +8.625823E+02 +1.312387E+01 -1.949859E+00 +1.312387E+01 +3.796228E+02 
 +5.395639E+02 +6.037809E+00 +5.231044E+00 +6.037809E+00 +8.610862E+02 +1.365039E+01 +5.231044E+00 +1.365039E+01 +3.851739E+02 
 +5.417032E+02 +3.433981E+00 +1.313798E+00 +3.433981E+00 +8.716258E+02 +2.375451E+00 +1.313798E+00 +2.375451E+00 +4.069937E+02 
 +4.468892E+02 -3.205512E+00 +1.472674E+01 -3.205512E+00 +8.621869E+02 -8.599282E+00 +1.472674E+01 -8.599282E+00 +3.733871E+02 
 +4.430260E+02 -7.046075E+00 +4.745704E+00 -7.046075E+00 +8.624176E+02 -2.005423E+00 +4.745704E+00 -2.005423E+00 +3.805384E+02 
 +4.418608E+02 -7.092516E+00 +3.310549E+00 -7.092516E+00 +8.649677E+02 +5.046276E+00 +3.310549E+00 +5.046276E+00 +3.818310E+02 
 +4.444367E+02 -9.891927E+00 +6.825668E+00 -9.891927E+00 +8.558047E+02 +1.433189E+01 +6.825668E+00 +1.433189E+01 +3.691979E+02 
 +4.904758E+02 -7.739577E+00 +3.004521E+00 -7.739577E+00 +8.621772E+02 +2.173258E+01 +3.004521E+00 +2.173258E+01 +3.740533E+02 
 +4.913712E+02 -4.193789E+00 -2.279047E+01 -4.193789E+00 +8.620299E+02 +8.631411E+00 -2.279047E+01 +8.631411E+00 +3.865279E+02 
 +4.872350E+02 -3.694969E+00 +2.362156E+01 -3.694969E+00 +8.727946E+02 -8.633448E+00 +2.362156E+01 -8.633448E+00 +3.933980E+02 
 +4.941195E+02 -4.144924E+00 +1.445882E+01 -4.144924E+00 +8.800117E+02 -1.116346E+01 +1.445882E+01 -1.116346E+01 +3.915961E+02 
 +4.740454E+02 -4.176328E+00 +2.923424E+01 -4.176328E+00 +8.654675E+02 -5.370747E+00 +2.923424E+01 -5.370747E+00 +3.731279E+02 
 +4.933437E+02 -2.958433E+00 +1.979563E+01 -2.958433E+00 +8.794654E+02 -2.678795E+00 +1.979563E+01 -2.678795E+00 +4.022194E+02 
 +5.230522E+02 +1.256436E+00 -1.713643E+01 +1.256436E+00 +8.894581E+02 -4.934741E+00 -1.713643E+01 -4.934741E+00 +4.080613E+02 
 +5.140294E+02 +2.797659E+00 -2.118954E+01 +2.797659E+00 +8.718976E+02 -5.443175E+00 -2.118954E+01 -5.443175E+00 +3.673862E+02 
 +5.104318E+02 -1.100134E-01 -2.145986E+01 -1.100134E-01 +8.682201E+02 -8.362684E+00 -2.145986E+01 -8.362684E+00 +3.579012E+02 
 +5.090537E+02 +9.531015E-01 -2.060969E+01 +9.531015E-01 +8.648671E+02 -4.511739E+00 -2.060969E+01 -4.511739E+00 +3.478199E+02 
 +5.098585E+02 +2.548600E+00 -2.146814E+01 +2.548600E+00 +8.645506E+02 +2.563194E+00 -2.146814E+01 +2.563194E+00 +3.463426E+02 
 +5.095596E+02 +5.575339E+00 -2.558164E+01 +5.575339E+00 +8.690500E+02 +7.215317E+00 -2.558164E+01 +7.215317E+00 +3.470893E+02 
 +5.096004E+02 +5.695619E+00 -2.663649E+01 +5.695619E+00 +8.767757E+02 +9.846490E+00 -2.663649E+01 +9.846490E+00 +3.500155E+02 
 +5.078914E+02 +1.434508E+00 -2.649189E+01 +1.434508E+00 +8.847275E+02 +1.022044E+01 -2.649189E+01 +1.022044E+01 +3.487145E+02 
 +5.242580E+02 +6.027160E+00 -1.390430E+01 +6.027160E+00 +8.953741E+02 +5.351306E+00 -1.390430E+01 +5.351306E+00 +3.518701E+02 
 +5.457016E+02 +5.011919E+00 -7.095882E+00 +5.011919E+00 +9.108434E+02 -1.990614E+00 -7.095882E+00 -1.990614E+00 +3.724457E+02 
 +5.405562E+02 -5.902167E-01 -1.822606E+01 -5.902167E-01 +9.154848E+02 -9.189573E+00 -1.822606E+01 -9.189573E+00 +3.939556E+02 
 +4.577175E+02 +8.618781E-01 +2.243782E+01 +8.618781E-01 +8.686185E+02 +2.500514E+00 +2.243782E+01 +2.500514E+00 +3.791461E+02 
 +4.495388E+02 -3.039936E+00 +1.146506E+01 -3.039936E+00 +8.641168E+02 +3.726251E+00 +1.146506E+01 +3.726251E+00 +3.855528E+02 
 +4.468802E+02 -4.115597E+00 +6.910538E+00 -4.115597E+00 +8.596862E+02 +7.638675E+00 +6.910538E+00 +7.638675E+00 +3.837098E+02 
 +4.494192E+02 -6.066740E+00 +7.207487E+00 -6.066740E+00 +8.597008E+02 +1.096206E+01 +7.207487E+00 +1.096206E+01 +3.790537E+02 
 +4.668313E+02 -7.476119E+00 +3.026073E+00 -7.476119E+00 +8.714898E+02 +1.075193E+01 +3.026073E+00 +1.075193E+01 +3.753560E+02 
 +4.753363E+02 -5.345135E+00 -3.470512E+01 -5.345135E+00 +8.708723E+02 +5.925017E+00 -3.470512E+01 +5.925017E+00 +3.758780E+02 
 +5.056187E+02 -3.771970E+00 +5.060173E+00 -3.771970E+00 +8.877870E+02 -7.354187E+00 +5.060173E+00 -7.354187E+00 +3.850844E+02 
 +5.116734E+02 -3.350144E+00 +1.184034E+00 -3.350144E+00 +8.946946E+02 -1.483567E+01 +1.184034E+00 -1.483567E+01 +3.790978E+02 
 +4.921308E+02 -1.557689E+00 +2.185909E+01 -1.557689E+00 +8.785153E+02 -1.405204E+01 +2.185909E+01 -1.405204E+01 +3.583676E+02 
 +4.984234E+02 -2.069249E+00 +1.830786E+01 -2.069249E+00 +8.803781E+02 -1.880035E+01 +1.830786E+01 -1.880035E+01 +3.574238E+02 
 +5.163657E+02 -3.497406E+00 -2.476710E+01 -3.497406E+00 +8.885427E+02 -1.583808E+01 -2.476710E+01 -1.583808E+01 +3.888955E+02 
 +5.271180E+02 +6.907235E-01 -2.879063E+01 +6.907235E-01 +8.829208E+02 -1.080064E+01 -2.879063E+01 -1.080064E+01 +3.912938E+02 
 +5.133563E+02 +1.977988E+00 -1.879065E+01 +1.977988E+00 +8.653323E+02 -1.381949E+01 -1.879065E+01 -1.381949E+01 +3.617573E+02 
 +5.073529E+02 +7.332586E-01 -1.038968E+01 +7.332586E-01 +8.603569E+02 -8.589955E+00 -1.038968E+01 -8.589955E+00 +3.503068E+02 
 +5.136063E+02 +9.723296E-02 -1.203476E+01 +9.723296E-02 +8.632618E+02 +3.796426E-01 -1.203476E+01 +3.796426E-01 +3.503874E+02 
 +5.065232E+02 +2.255665E-01 -5.116625E+00 +2.255665E-01 +8.617730E+02 +1.123405E+01 -5.116625E+00 +1.123405E+01 +3.442277E+02 
 +5.043429E+02 -1.122703E+00 -1.863855E+01 -1.122703E+00 +8.655511E+02 +1.876931E+01 -1.863855E+01 +1.876931E+01 +3.399036E+02 
 +5.135165E+02 -1.339251E+00 -1.887490E+01 -1.339251E+00 +8.851898E+02 +1.924560E+01 -1.887490E+01 +1.924560E+01 +3.526543E+02 
 +5.313840E+02 +2.176992E+00 -1.449783E+01 +2.176992E+00 +9.115293E+02 +1.248684E+01 -1.449783E+01 +1.248684E+01 +3.761933E+02 
 +5.223717E+02 +4.544368E+00 -1.579389E+00 +4.544368E+00 +9.092040E+02 +7.833013E+00 -1.579389E+00 +7.833013E+00 +3.857269E+02 
 +5.259403E+02 +1.099469E+00 -2.559702E+01 +1.099469E+00 +9.082895E+02 +7.257473E+00 -2.559702E+01 +7.257473E+00 +3.971104E+02 
 +4.504772E+02 +1.540349E+00 +2.643315E+01 +1.540349E+00 +8.629344E+02 +9.812788E+00 +2.643315E+01 +9.812788E+00 +3.825235E+02 
 +4.507177E+02 -1.939318E+00 +1.434907E+01 -1.939318E+00 +8.652298E+02 +6.705556E+00 +1.434907E+01 +6.705556E+00 +3.952447E+02 
 +4.509467E+02 -3.205162E+00 +1.166420E+01 -3.205162E+00 +8.623933E+02 +4.214300E+00 +1.166420E+01 +4.214300E+00 +3.878198E+02 
 +4.508281E+02 -6.897066E+00 +1.064959E+01 -6.897066E+00 +8.650183E+02 +4.695668E+00 +1.064959E+01 +4.695668E+00 +3.847681E+02 
 +4.458727E+02 -6.854966E+00 +6.766077E+00 -6.854966E+00 +8.643799E+02 +5.090724E+00 +6.766077E+00 +5.090724E+00 +3.718371E+02 
 +4.567130E+02 -3.679777E+00 -3.117738E+01 -3.679777E+00 +8.683043E+02 +4.931538E+00 -3.117738E+01 +4.931538E+00 +3.648482E+02 
 +4.800190E+02 +7.968389E-01 -1.034183E+01 +7.968389E-01 +8.713279E+02 -1.650345E+00 -1.034183E+01 -1.650345E+00 +3.661936E+02 
 +5.137577E+02 -3.246047E-01 +2.042815E+00 -3.246047E-01 +8.769088E+02 -7.717216E+00 +2.042815E+00 -7.717216E+00 +3.659689E+02 
 +5.107640E+02 +8.061616E+00 +1.731215E+01 +8.061616E+00 +8.769043E+02 -1.537438E+01 +1.731215E+01 -1.537438E+01 +3.553377E+02 
 +5.246551E+02 +7.252178E+00 +2.171693E+01 +7.252178E+00 +8.931665E+02 -2.413020E+01 +2.171693E+01 -2.413020E+01 +3.740185E+02 
 +5.360742E+02 +4.076157E+00 -1.380486E+01 +4.076157E+00 +8.947913E+02 -2.509819E+01 -1.380486E+01 -2.509819E+01 +4.028013E+02 
 +5.283702E+02 +9.468940E+00 -2.108949E+01 +9.468940E+00 +8.799789E+02 -2.066012E+01 -2.108949E+01 -2.066012E+01 +3.956663E+02 
 +5.049899E+02 +9.683801E+00 -1.198842E+01 +9.683801E+00 +8.645616E+02 -1.100401E+01 -1.198842E+01 -1.100401E+01 +3.589073E+02 
 +4.982577E+02 +4.858358E+00 -9.627539E-01 +4.858358E+00 +8.584098E+02 -2.681843E+00 -9.627539E-01 -2.681843E+00 +3.376301E+02 
 +5.140427E+02 +3.328766E+00 -2.623243E+00 +3.328766E+00 +8.653574E+02 +5.689336E+00 -2.623243E+00 +5.689336E+00 +3.515983E+02 
 +4.986815E+02 +1.526387E+00 +2.431646E+01 +1.526387E+00 +8.563170E+02 +1.653362E+01 +2.431646E+01 +1.653362E+01 +3.484927E+02 
 +5.061999E+02 -1.690327E+00 -6.577918E+00 -1.690327E+00 +8.624219E+02 +2.179977E+01 -6.577918E+00 +2.179977E+01 +3.436192E+02 
 +5.153663E+02 -4.380731E+00 -1.608813E+01 -4.380731E+00 +8.780058E+02 +1.631909E+01 -1.608813E+01 +1.631909E+01 +3.500699E+02 
 +5.217240E+02 -2.650644E+00 -2.559324E+01 -2.650644E+00 +8.959901E+02 +8.303419E+00 -2.559324E+01 +8.303419E+00 +3.589198E+02 
 +5.001833E+02 +3.776109E+00 +4.287870E+00 +3.776109E+00 +8.933360E+02 +4.180765E+00 +4.287870E+00 +4.180765E+00 +3.730187E+02 
 +5.401065E+02 +2.336177E+00 -2.312023E+01 +2.336177E+00 +9.137949E+02 +7.356881E+00 -2.312023E+01 +7.356881E+00 +4.087785E+02 
 +4.553620E+02 +4.337318E+00 +2.440455E+01 +4.337318E+00 +8.670064E+02 +1.487927E+01 +2.440455E+01 +1.487927E+01 +4.001208E+02 
 +4.520252E+02 +2.999137E-02 +1.233296E+01 +2.999137E-02 +8.669822E+02 +6.197431E+00 +1.233296E+01 +6.197431E+00 +3.991652E+02 
 +4.505472E+02 -1.584585E+00 +1.477933E+01 -1.584585E+00 +8.667710E+02 +1.502481E+00 +1.477933E+01 +1.502481E+00 +3.944129E+02 
 +4.446302E+02 -3.807263E+00 +1.612953E+01 -3.807263E+00 +8.644200E+02 +2.658324E+00 +1.612953E+01 +2.658324E+00 +3.877988E+02 
 +4.444502E+02 -1.392808E+00 +7.092530E+00 -1.392808E+00 +8.629998E+02 -7.372613E-01 +7.092530E+00 -7.372613E-01 +3.662440E+02 
 +4.503967E+02 +4.635587E+00 -2.636602E+01 +4.635587E+00 +8.628305E+02 -7.057451E+00 -2.636602E+01 -7.057451E+00 +3.538319E+02 
 +4.781340E+02 +1.693435E+01 -2.410226E+01 +1.693435E+01 +8.669759E+02 -1.242951E+01 -2.410226E+01 -1.242951E+01 +3.487737E+02 
 +5.117798E+02 +2.136530E+01 -9.702197E+00 +2.136530E+01 +8.807784E+02 -1.928983E+01 -9.702197E+00 -1.928983E+01 +3.450223E+02 
 +5.241548E+02 +1.834438E+01 +3.113633E+00 +1.834438E+01 +8.843358E+02 -2.778218E+01 +3.113633E+00 -2.778218E+01 +3.609864E+02 
 +5.301778E+02 +6.559404E+00 +1.847893E+01 +6.559404E+00 +8.722670E+02 -3.568572E+01 +1.847893E+01 -3.568572E+01 +3.883364E+02 
 +5.309430E+02 -1.373700E-01 -2.921427E+00 -1.373700E-01 +8.658134E+02 -3.478622E+01 -2.921427E+00 -3.478622E+01 +4.001339E+02 
 +5.023851E+02 +5.507911E+00 +4.809202E+00 +5.507911E+00 +8.569193E+02 -2.016136E+01 +4.809202E+00 -2.016136E+01 +3.749785E+02 
 +5.134827E+02 +9.939096E+00 -1.897637E+00 +9.939096E+00 +8.698940E+02 -7.432366E+00 -1.897637E+00 -7.432366E+00 +3.614033E+02 
 +4.962748E+02 +8.141874E+00 +1.391403E+01 +8.141874E+00 +8.604979E+02 -2.100106E+00 +1.391403E+01 -2.100106E+00 +3.427826E+02 
 +5.022592E+02 +6.040358E+00 +1.289988E+01 +6.040358E+00 +8.645087E+02 +3.898202E+00 +1.289988E+01 +3.898202E+00 +3.468040E+02 
 +4.905182E+02 +3.203978E+00 +3.315383E+01 +3.203978E+00 +8.584173E+02 +4.911657E+00 +3.315383E+01 +4.911657E+00 +3.471538E+02 
 +4.917543E+02 -7.659342E-01 +1.457925E+01 -7.659342E-01 +8.593234E+02 +1.708841E+01 +1.457925E+01 +1.708841E+01 +3.408425E+02 
 +5.099992E+02 -3.935808E+00 -2.322505E+01 -3.935808E+00 +8.740518E+02 +2.255983E+01 -2.322505E+01 +2.255983E+01 +3.437995E+02 
 +5.186861E+02 -5.302454E+00 -2.492881E+01 -5.302454E+00 +8.850887E+02 +1.659408E+01 -2.492881E+01 +1.659408E+01 +3.560911E+02 
 +5.187076E+02 +3.006371E-01 -8.396292E+00 +3.006371E-01 +8.886897E+02 +1.348011E+01 -8.396292E+00 +1.348011E+01 +3.696772E+02 
 +5.302544E+02 +3.186428E+00 -2.274142E+01 +3.186428E+00 +9.018779E+02 +1.296626E+01 -2.274142E+01 +1.296626E+01 +4.041301E+02 
 +4.721202E+02 +5.592658E+00 +9.638154E+00 +5.592658E+00 +8.740161E+02 +1.109542E+01 +9.638154E+00 +1.109542E+01 +4.091078E+02 
 +4.490129E+02 +3.387666E+00 +1.103123E+01 +3.387666E+00 +8.659293E+02 +2.394525E+00 +1.103123E+01 +2.394525E+00 +4.017366E+02 
 +4.529434E+02 +1.190224E+00 +1.669483E+01 +1.190224E+00 +8.715067E+02 -4.218314E+00 +1.669483E+01 -4.218314E+00 +4.158065E+02 
 +4.356213E+02 -8.889308E-01 +1.738321E+01 -8.889308E-01 +8.597401E+02 -1.083979E+01 +1.738321E+01 -1.083979E+01 +3.907723E+02 
 +4.505792E+02 +2.690652E+00 -4.807875E+00 +2.690652E+00 +8.586023E+02 -1.628961E+01 -4.807875E+00 -1.628961E+01 +3.386401E+02 
 +4.584696E+02 +1.159257E+01 -2.122095E+01 +1.159257E+01 +8.570414E+02 -1.362003E+01 -2.122095E+01 -1.362003E+01 +3.281457E+02 
 +4.795203E+02 +1.943627E+01 -2.863788E+01 +1.943627E+01 +8.665420E+02 -8.726902E+00 -2.863788E+01 -8.726902E+00 +3.344017E+02 
 +4.912187E+02 +1.993380E+01 -1.710203E+01 +1.993380E+01 +8.677628E+02 -1.719467E+01 -1.710203E+01 -1.719467E+01 +3.341163E+02 
 +5.162473E+02 +1.168062E+01 +4.205312E+00 +1.168062E+01 +8.717986E+02 -2.594468E+01 +4.205312E+00 -2.594468E+01 +3.781871E+02 
 +5.292761E+02 +9.641499E-01 +1.378631E+01 +9.641499E-01 +8.688300E+02 -2.468182E+01 +1.378631E+01 -2.468182E+01 +3.973642E+02 
 +5.269712E+02 -3.772244E+00 +8.672185E-01 -3.772244E+00 +8.712304E+02 -1.889585E+01 +8.672185E-01 -1.889585E+01 +3.924656E+02 
 +4.828309E+02 +1.995632E+00 +2.600959E+01 +1.995632E+00 +8.499274E+02 -8.642021E+00 +2.600959E+01 -8.642021E+00 +3.522216E+02 
 +5.407568E+02 +5.207139E+00 -5.121111E-01 +5.207139E+00 +8.828554E+02 -1.370323E+00 -5.121111E-01 -1.370323E+00 +3.580356E+02 
 +5.044837E+02 +5.822084E+00 +1.784394E+01 +5.822084E+00 +8.680270E+02 -6.487477E+00 +1.784394E+01 -6.487477E+00 +3.478456E+02 
 +4.891174E+02 +5.944496E+00 +2.279670E+01 +5.944496E+00 +8.639451E+02 -8.900894E+00 +2.279670E+01 -8.900894E+00 +3.436577E+02 
 +4.800291E+02 +2.690621E+00 +2.638658E+01 +2.690621E+00 +8.626833E+02 -5.352970E+00 +2.638658E+01 -5.352970E+00 +3.459615E+02 
 +4.756314E+02 -1.593177E+00 +2.860372E+01 -1.593177E+00 +8.577674E+02 +6.473975E+00 +2.860372E+01 +6.473975E+00 +3.406806E+02 
 +5.053780E+02 -2.050078E+00 -3.267057E+01 -2.050078E+00 +8.713049E+02 +1.545081E+01 -3.267057E+01 +1.545081E+01 +3.464687E+02 
 +5.138681E+02 -4.934248E+00 -1.773127E+01 -4.934248E+00 +8.725041E+02 +1.383468E+01 -1.773127E+01 +1.383468E+01 +3.529120E+02 
 +5.248280E+02 -1.863592E+00 -1.938664E+01 -1.863592E+00 +8.710064E+02 +1.287426E+01 -1.938664E+01 +1.287426E+01 +3.529761E+02 
 +5.188193E+02 +2.199283E-01 -2.698118E+01 +2.199283E-01 +8.813866E+02 +1.474168E+01 -2.698118E+01 +1.474168E+01 +3.864219E+02 
 +4.827025E+02 +3.657191E+00 -1.199037E+01 +3.657191E+00 +8.626821E+02 -9.639781E+00 -1.199037E+01 -9.639781E+00 +3.925521E+02 
 +4.541229E+02 +6.241168E-02 +4.582393E+00 +6.241168E-02 +8.681411E+02 -1.525567E+01 +4.582393E+00 -1.525567E+01 +4.094038E+02 
 +4.444800E+02 -3.978889E+00 +1.128254E+01 -3.978889E+00 +8.698195E+02 -1.997874E+01 +1.128254E+01 -1.997874E+01 +4.205916E+02 
 +4.298647E+02 -2.610698E+00 +5.101557E+00 -2.610698E+00 +8.518763E+02 -2.500527E+01 +5.101557E+00 -2.500527E+01 +3.681851E+02 
 +4.543668E+02 +1.278351E+00 -1.800904E+01 +1.278351E+00 +8.469338E+02 -2.010480E+01 -1.800904E+01 -2.010480E+01 +3.064766E+02 
 +4.551933E+02 +5.024472E+00 -1.813015E+01 +5.024472E+00 +8.465218E+02 -7.426796E+00 -1.813015E+01 -7.426796E+00 +2.964298E+02 
 +4.679859E+02 +1.083493E+01 -3.386201E+01 +1.083493E+01 +8.605962E+02 -2.640489E+00 -3.386201E+01 -2.640489E+00 +3.163604E+02 
 +4.884032E+02 +1.171073E+01 -1.882650E+01 +1.171073E+01 +8.648569E+02 -1.088640E+01 -1.882650E+01 -1.088640E+01 +3.386618E+02 
 +5.166321E+02 +4.795147E+00 +9.655341E+00 +4.795147E+00 +8.753605E+02 -2.401108E+01 +9.655341E+00 -2.401108E+01 +3.913231E+02 
 +5.274684E+02 +1.894260E-01 +1.444426E+01 +1.894260E-01 +8.790066E+02 -2.691972E+01 +1.444426E+01 -2.691972E+01 +3.972833E+02 
 +5.194875E+02 +1.328802E+00 +9.605453E-01 +1.328802E+00 +8.782063E+02 -2.065543E+01 +9.605453E-01 -2.065543E+01 +3.758973E+02 
 +4.762480E+02 +5.837344E+00 +3.310954E+01 +5.837344E+00 +8.549020E+02 -1.367461E+01 +3.310954E+01 -1.367461E+01 +3.384428E+02 
 +5.444567E+02 +2.633974E+00 +1.845550E-01 +2.633974E+00 +8.864746E+02 -2.112448E+00 +1.845550E-01 -2.112448E+00 +3.493705E+02 
 +5.280505E+02 +2.631502E+00 +4.380866E+00 +2.631502E+00 +8.786241E+02 -1.061284E+00 +4.380866E+00 -1.061284E+00 +3.473904E+02 
 +4.736258E+02 +4.070823E+00 +2.338334E+01 +4.070823E+00 +8.586779E+02 -8.067064E+00 +2.338334E+01 -8.067064E+00 +3.398977E+02 
 +4.742574E+02 +9.035895E-01 +2.439363E+01 +9.035895E-01 +8.652067E+02 -7.775504E+00 +2.439363E+01 -7.775504E+00 +3.564364E+02 
 +4.752691E+02 -1.494279E+00 +3.206555E+01 -1.494279E+00 +8.596933E+02 -6.966265E+00 +3.206555E+01 -6.966265E+00 +3.510721E+02 
 +4.998106E+02 +2.093098E+00 -2.976334E+01 +2.093098E+00 +8.586475E+02 -1.117875E+00 -2.976334E+01 -1.117875E+00 +3.553769E+02 
 +5.069922E+02 -8.934879E-01 -1.293675E+01 -8.934879E-01 +8.506627E+02 +6.351447E+00 -1.293675E+01 +6.351447E+00 +3.569574E+02 
 +5.055336E+02 -5.345043E-01 -1.701666E+01 -5.345043E-01 +8.468747E+02 +3.843984E+00 -1.701666E+01 +3.843984E+00 +3.545802E+02 
 +5.006309E+02 +9.119284E-01 -2.357036E+01 +9.119284E-01 +8.510823E+02 -2.580764E+00 -2.357036E+01 -2.580764E+00 +3.723484E+02 
 +4.901563E+02 +1.737974E-02 -1.934838E+01 +1.737974E-02 +8.594951E+02 -2.334564E+01 -1.934838E+01 -2.334564E+01 +3.903190E+02 
 +4.711314E+02 -2.602208E+00 -9.340439E+00 -2.602208E+00 +8.691191E+02 -3.927074E+01 -9.340439E+00 -3.927074E+01 +4.218814E+02 
 +4.209266E+02 -1.017719E+01 -1.637846E+00 -1.017719E+01 +8.517272E+02 -3.609145E+01 -1.637846E+00 -3.609145E+01 +4.031672E+02 
 +4.522557E+02 -6.035624E+00 -1.236528E+01 -6.035624E+00 +8.524081E+02 -1.873473E+01 -1.236528E+01 -1.873473E+01 +3.609420E+02 
 +4.557029E+02 -1.060959E+00 -2.327501E+01 -1.060959E+00 +8.479209E+02 -8.180089E+00 -2.327501E+01 -8.180089E+00 +3.196230E+02 
 +4.572897E+02 +9.538342E-01 -2.339438E+01 +9.538342E-01 +8.527804E+02 -5.045220E+00 -2.339438E+01 -5.045220E+00 +3.123345E+02 
 +4.770333E+02 +4.230533E+00 -3.940992E+01 +4.230533E+00 +8.600371E+02 +1.498321E+00 -3.940992E+01 +1.498321E+00 +3.284095E+02 
 +4.919289E+02 +3.991389E+00 -2.589239E+01 +3.991389E+00 +8.623444E+02 -4.118541E+00 -2.589239E+01 -4.118541E+00 +3.461643E+02 
 +5.180064E+02 +5.242521E-01 +7.850434E+00 +5.242521E-01 +8.789951E+02 -1.930125E+01 +7.850434E+00 -1.930125E+01 +3.865359E+02 
 +5.261590E+02 +1.778869E+00 +1.382870E+01 +1.778869E+00 +8.850519E+02 -2.108095E+01 +1.382870E+01 -2.108095E+01 +3.886726E+02 
 +5.221407E+02 +6.487272E+00 +2.297824E+00 +6.487272E+00 +8.848281E+02 -1.697927E+01 +2.297824E+00 -1.697927E+01 +3.659702E+02 
 +4.760776E+02 +1.038772E+01 +3.201951E+01 +1.038772E+01 +8.593303E+02 -1.614400E+01 +3.201951E+01 -1.614400E+01 +3.346832E+02 
 +5.242409E+02 +4.779586E+00 +4.649814E+00 +4.779586E+00 +8.801939E+02 -1.123559E+01 +4.649814E+00 -1.123559E+01 +3.474594E+02 
 +5.298766E+02 -3.613843E-01 -1.625673E+00 -3.613843E-01 +8.826236E+02 -3.445434E+00 -1.625673E+00 -3.445434E+00 +3.531575E+02 
 +4.764594E+02 -3.685103E+00 +1.869089E+01 -3.685103E+00 +8.604446E+02 -4.796208E+00 +1.869089E+01 -4.796208E+00 +3.485006E+02 
 +4.806986E+02 -3.202815E+00 +2.232574E+01 -3.202815E+00 +8.657300E+02 -1.069645E+01 +2.232574E+01 -1.069645E+01 +3.698745E+02 
 +4.890615E+02 -3.501066E+00 +2.698569E+01 -3.501066E+00 +8.638702E+02 -1.604848E+01 +2.698569E+01 -1.604848E+01 +3.724292E+02 
 +5.062926E+02 -2.236102E+00 -2.619423E+01 -2.236102E+00 +8.667163E+02 -9.389567E+00 -2.619423E+01 -9.389567E+00 +3.733138E+02 
 +5.090097E+02 -4.765797E+00 -1.549769E+01 -4.765797E+00 +8.662171E+02 +9.905121E-01 -1.549769E+01 +9.905121E-01 +3.711898E+02 
 +5.074525E+02 -4.798333E+00 -1.310171E+01 -4.798333E+00 +8.691218E+02 +6.637329E-01 -1.310171E+01 +6.637329E-01 +3.763114E+02 
 +4.972367E+02 -3.248497E+00 -1.540685E+01 -3.248497E+00 +8.640318E+02 -7.009003E+00 -1.540685E+01 -7.009003E+00 +3.781334E+02 
 +4.787800E+02 +6.100957E+00 -1.886348E+01 +6.100957E+00 +8.537373E+02 -2.110278E+01 -1.886348E+01 -2.110278E+01 +3.886910E+02 
 +4.684671E+02 +4.020042E+00 -1.850316E+01 +4.020042E+00 +8.479864E+02 -3.413840E+01 -1.850316E+01 -3.413840E+01 +4.116404E+02 
 +4.194245E+02 -3.822343E+00 -1.564526E+01 -3.822343E+00 +8.320636E+02 -3.524829E+01 -1.564526E+01 -3.524829E+01 +3.974601E+02 
 +4.549195E+02 -7.972568E+00 -1.726420E+01 -7.972568E+00 +8.571104E+02 -2.483566E+01 -1.726420E+01 -2.483566E+01 +3.811003E+02 
 +4.663151E+02 -8.338704E+00 -1.617326E+01 -8.338704E+00 +8.606686E+02 -1.417240E+01 -1.617326E+01 -1.417240E+01 +3.523925E+02 
 +4.736668E+02 -3.787837E+00 -2.427714E+01 -3.787837E+00 +8.603684E+02 -1.233433E+01 -2.427714E+01 -1.233433E+01 +3.443331E+02 
 +4.935449E+02 -4.871938E-01 -3.595010E+01 -4.871938E-01 +8.672361E+02 -6.241953E+00 -3.595010E+01 -6.241953E+00 +3.683392E+02 
 +4.975288E+02 -1.987928E+00 -3.410432E+01 -1.987928E+00 +8.617985E+02 -3.022339E-01 -3.410432E+01 -3.022339E-01 +3.691156E+02 
 +5.167014E+02 -3.407317E+00 -2.742533E+00 -3.407317E+00 +8.699620E+02 -1.040655E+01 -2.742533E+00 -1.040655E+01 +3.764806E+02 
 +5.279754E+02 +1.967178E+00 +1.332219E+01 +1.967178E+00 +8.826190E+02 -1.508684E+01 +1.332219E+01 -1.508684E+01 +3.788733E+02 
 +5.260724E+02 +7.152101E+00 +1.961084E-02 +7.152101E+00 +8.871883E+02 -1.018825E+01 +1.961084E-02 -1.018825E+01 +3.634650E+02 
 +4.870894E+02 +8.242142E+00 +2.730454E+01 +8.242142E+00 +8.667200E+02 -9.573226E+00 +2.730454E+01 -9.573226E+00 +3.478154E+02 
 +5.054671E+02 +2.946826E+00 +1.191900E+01 +2.946826E+00 +8.766491E+02 -8.126196E+00 +1.191900E+01 -8.126196E+00 +3.604756E+02 
 +5.060026E+02 +5.678860E-01 +7.685499E+00 +5.678860E-01 +8.754800E+02 -6.889867E+00 +7.685499E+00 -6.889867E+00 +3.695092E+02 
 +4.929180E+02 -3.212680E+00 +1.437014E+01 -3.212680E+00 +8.647785E+02 -7.313403E+00 +1.437014E+01 -7.313403E+00 +3.756179E+02 
 +4.945875E+02 -4.706946E+00 +1.735847E+01 -4.706946E+00 +8.640074E+02 -1.127505E+01 +1.735847E+01 -1.127505E+01 +3.848549E+02 
 +5.032109E+02 -6.630840E+00 +1.871700E+01 -6.630840E+00 +8.695801E+02 -1.636522E+01 +1.871700E+01 -1.636522E+01 +4.007019E+02 
 +5.051002E+02 -5.515061E+00 -2.307964E+01 -5.515061E+00 +8.682411E+02 -9.507994E+00 -2.307964E+01 -9.507994E+00 +3.893454E+02 
 +5.006806E+02 -4.754823E+00 -1.819370E+01 -4.754823E+00 +8.632430E+02 +9.707124E-01 -1.819370E+01 +9.707124E-01 +3.684802E+02 
 +5.027651E+02 +7.390165E-01 -1.198372E+01 +7.390165E-01 +8.690982E+02 -4.340724E-01 -1.198372E+01 -4.340724E-01 +3.772395E+02 
 +4.958248E+02 +4.684663E+00 -1.291596E+01 +4.684663E+00 +8.674947E+02 -6.749157E+00 -1.291596E+01 -6.749157E+00 +3.789974E+02 
 +4.636396E+02 +4.460744E+00 -2.041570E+01 +4.460744E+00 +8.593452E+02 -5.346274E+00 -2.041570E+01 -5.346274E+00 +3.739517E+02 
 +4.612619E+02 +1.233183E+00 -2.319140E+01 +1.233183E+00 +8.545795E+02 -1.202009E+01 -2.319140E+01 -1.202009E+01 +3.936188E+02 
 +4.473825E+02 -4.515516E+00 -2.227069E+01 -4.515516E+00 +8.464872E+02 -1.856677E+01 -2.227069E+01 -1.856677E+01 +4.039585E+02 
 +4.201810E+02 -9.091455E+00 -1.381754E+01 -9.091455E+00 +8.389073E+02 -2.576262E+01 -1.381754E+01 -2.576262E+01 +3.767516E+02 
 +4.717830E+02 -9.168537E+00 +3.579357E+00 -9.168537E+00 +8.589063E+02 -1.992420E+01 +3.579357E+00 -1.992420E+01 +3.460067E+02 
 +4.866774E+02 -5.730654E+00 -1.206048E+01 -5.730654E+00 +8.611886E+02 -1.757433E+01 -1.206048E+01 -1.757433E+01 +3.463479E+02 
 +5.027242E+02 -3.709582E+00 -2.099774E+01 -3.709582E+00 +8.734716E+02 -1.878015E+01 -2.099774E+01 -1.878015E+01 +3.836626E+02 
 +5.090683E+02 -2.376987E+00 -2.420416E+01 -2.376987E+00 +8.723897E+02 -3.423944E+00 -2.420416E+01 -3.423944E+00 +3.814007E+02 
 +5.122973E+02 -3.408952E+00 -2.261136E+01 -3.408952E+00 +8.717916E+02 +2.562634E+00 -2.261136E+01 +2.562634E+00 +3.727637E+02 
 +5.250578E+02 -3.670957E+00 +6.503298E+00 -3.670957E+00 +8.770247E+02 -5.293276E+00 +6.503298E+00 -5.293276E+00 +3.742438E+02 
 +5.357374E+02 +2.251506E+00 -4.143126E+00 +2.251506E+00 +8.865517E+02 -5.762258E+00 -4.143126E+00 -5.762258E+00 +3.751561E+02 
 +5.018813E+02 +2.663753E+00 +2.579600E+01 +2.663753E+00 +8.768075E+02 -2.800673E+00 +2.579600E+01 -2.800673E+00 +3.652244E+02 
 +4.957257E+02 -1.257233E+00 +1.754231E+01 -1.257233E+00 +8.745866E+02 -2.125138E+00 +1.754231E+01 -2.125138E+00 +3.680004E+02 
 +4.962066E+02 +8.039472E-01 +1.434529E+01 +8.039472E-01 +8.695101E+02 -4.305274E+00 +1.434529E+01 -4.305274E+00 +3.827707E+02 
 +4.998488E+02 +1.689734E+00 +1.322292E+01 +1.689734E+00 +8.661852E+02 -6.729443E+00 +1.322292E+01 -6.729443E+00 +3.937523E+02 
 +5.028075E+02 -2.722858E+00 +1.369496E+01 -2.722858E+00 +8.666507E+02 -9.489184E+00 +1.369496E+01 -9.489184E+00 +3.995019E+02 
 +5.081170E+02 -7.790014E+00 +1.953902E+01 -7.790014E+00 +8.699633E+02 -9.242358E+00 +1.953902E+01 -9.242358E+00 +4.166435E+02 
 +5.098286E+02 -2.225656E+00 -1.977735E+01 -2.225656E+00 +8.693271E+02 -3.744010E+00 -1.977735E+01 -3.744010E+00 +4.004719E+02 
 +4.999711E+02 -6.122884E-02 -1.364434E+01 -6.122884E-02 +8.633619E+02 +6.779396E+00 -1.364434E+01 +6.779396E+00 +3.663708E+02 
 +5.023796E+02 +4.839089E+00 -1.558025E+01 +4.839089E+00 +8.701502E+02 +5.603327E+00 -1.558025E+01 +5.603327E+00 +3.763074E+02 
 +5.010054E+02 +5.794183E+00 -9.008147E+00 +5.794183E+00 +8.748076E+02 -4.110910E-01 -9.008147E+00 -4.110910E-01 +3.789713E+02 
 +4.528118E+02 +7.381424E-01 -1.571659E+01 +7.381424E-01 +8.550122E+02 +5.032762E-01 -1.571659E+01 +5.032762E-01 +3.599469E+02 
 +4.511673E+02 -3.501337E+00 -2.337823E+01 -3.501337E+00 +8.531447E+02 -1.709470E+00 -2.337823E+01 -1.709470E+00 +3.761828E+02 
 +4.465351E+02 -4.263644E+00 -2.368322E+01 -4.263644E+00 +8.433409E+02 -1.145594E+00 -2.368322E+01 -1.145594E+00 +3.857792E+02 
 +4.111316E+02 -3.578966E+00 -1.497465E+01 -3.578966E+00 +8.225334E+02 -8.702407E+00 -1.497465E+01 -8.702407E+00 +3.633138E+02 
 +4.670700E+02 -7.957386E+00 +4.616929E+00 -7.957386E+00 +8.507142E+02 -1.799586E+01 +4.616929E+00 -1.799586E+01 +3.489765E+02 
 +5.058443E+02 -5.783087E+00 -5.745038E+00 -5.783087E+00 +8.711468E+02 -2.363694E+01 -5.745038E+00 -2.363694E+01 +3.637053E+02 
 +5.097640E+02 -2.999285E+00 +6.268926E-01 -2.999285E+00 +8.737922E+02 -1.753263E+01 +6.268926E-01 -1.753263E+01 +3.770736E+02 
 +5.132434E+02 -1.311613E+00 +2.657886E+00 -1.311613E+00 +8.743400E+02 -4.526923E+00 +2.657886E+00 -4.526923E+00 +3.763616E+02 
 +5.128796E+02 +4.870821E-01 -2.551144E+01 +4.870821E-01 +8.769682E+02 +6.885654E+00 -2.551144E+01 +6.885654E+00 +3.887123E+02 
 +5.286141E+02 +3.568442E+00 -5.348295E+00 +3.568442E+00 +8.821316E+02 +9.466124E+00 -5.348295E+00 +9.466124E+00 +3.901797E+02 
 +5.349498E+02 +1.065284E+01 -4.683562E+00 +1.065284E+01 +8.844117E+02 +9.249506E+00 -4.683562E+00 +9.249506E+00 +3.873520E+02 
 +5.069904E+02 +4.768387E+00 +2.059877E+01 +4.768387E+00 +8.764137E+02 +8.872487E+00 +2.059877E+01 +8.872487E+00 +3.709541E+02 
 +5.010484E+02 -1.499797E+00 +1.214976E+01 -1.499797E+00 +8.779770E+02 +2.698274E+00 +1.214976E+01 +2.698274E+00 +3.654394E+02 
 +4.915600E+02 -3.047791E+00 +1.065266E+01 -3.047791E+00 +8.684017E+02 -1.363686E+00 +1.065266E+01 -1.363686E+00 +3.820447E+02 
 +5.017903E+02 -1.184218E+00 +6.905177E+00 -1.184218E+00 +8.676710E+02 -7.115484E+00 +6.905177E+00 -7.115484E+00 +4.060330E+02 
 +5.112457E+02 -2.949358E+00 +1.667543E+01 -2.949358E+00 +8.706921E+02 -9.686269E+00 +1.667543E+01 -9.686269E+00 +4.173415E+02 
 +5.157860E+02 -4.280958E+00 +2.913990E+01 -4.280958E+00 +8.723616E+02 -4.722894E+00 +2.913990E+01 -4.722894E+00 +4.213861E+02 
 +5.192300E+02 +5.235720E+00 -8.378037E+00 +5.235720E+00 +8.734803E+02 +2.668098E-01 -8.378037E+00 +2.668098E-01 +4.013713E+02 
 +4.965462E+02 +6.571894E+00 +3.850221E+00 +6.571894E+00 +8.667284E+02 +6.215903E+00 +3.850221E+00 +6.215903E+00 +3.662086E+02 
 +4.962346E+02 +5.405371E+00 -5.112673E+00 +5.405371E+00 +8.765858E+02 +6.647122E+00 -5.112673E+00 +6.647122E+00 +3.782617E+02 
 +4.907131E+02 +2.876351E+00 +6.503064E+00 +2.876351E+00 +8.735403E+02 +5.207925E+00 +6.503064E+00 +5.207925E+00 +3.735139E+02 
 +4.566937E+02 -5.553249E+00 -3.981578E+00 -5.553249E+00 +8.527813E+02 +1.433730E+01 -3.981578E+00 +1.433730E+01 +3.596648E+02 
 +4.543024E+02 -7.155857E+00 -1.961949E+01 -7.155857E+00 +8.543021E+02 +1.159794E+01 -1.961949E+01 +1.159794E+01 +3.693463E+02 
 +4.330250E+02 -9.654115E+00 -2.606030E+01 -9.654115E+00 +8.445521E+02 +2.280401E+00 -2.606030E+01 +2.280401E+00 +3.575946E+02 
 +4.449893E+02 -5.676106E+00 -1.055666E+01 -5.676106E+00 +8.442538E+02 -1.056781E+01 -1.055666E+01 -1.056781E+01 +3.557115E+02 
 +4.690041E+02 -2.981854E+00 -2.171176E+00 -2.981854E+00 +8.481029E+02 -1.953654E+01 -2.171176E+00 -1.953654E+01 +3.586366E+02 
 +5.138705E+02 +1.174194E+00 -3.016435E+00 +1.174194E+00 +8.675158E+02 -1.307631E+01 -3.016435E+00 -1.307631E+01 +3.807851E+02 
 +5.117463E+02 +1.067445E+00 +4.675532E+00 +1.067445E+00 +8.677672E+02 -2.260394E+00 +4.675532E+00 -2.260394E+00 +3.849421E+02 
 +5.186250E+02 -1.623039E+00 +7.484727E+00 -1.623039E+00 +8.697239E+02 -3.169803E+00 +7.484727E+00 -3.169803E+00 +3.939067E+02 
 +5.126217E+02 +4.426833E+00 -1.621816E+01 +4.426833E+00 +8.633334E+02 -1.112171E+00 -1.621816E+01 -1.112171E+00 +3.981589E+02 
 +5.168681E+02 +3.560773E+00 -7.315213E+00 +3.560773E+00 +8.695620E+02 +8.706498E+00 -7.315213E+00 +8.706498E+00 +3.914168E+02 
 +5.112330E+02 +9.210127E+00 -3.695947E+00 +9.210127E+00 +8.634245E+02 +1.223167E+01 -3.695947E+00 +1.223167E+01 +3.783255E+02 
 +5.038798E+02 +1.070902E+01 +3.377529E+00 +1.070902E+01 +8.537640E+02 +5.650370E+00 +3.377529E+00 +5.650370E+00 +3.649342E+02 
 +4.955559E+02 +5.795840E+00 -3.798776E+00 +5.795840E+00 +8.562959E+02 +2.098639E+00 -3.798776E+00 +2.098639E+00 +3.562938E+02 
 +4.739401E+02 -1.786598E+00 +2.833563E+00 -1.786598E+00 +8.547710E+02 +3.950316E+00 +2.833563E+00 +3.950316E+00 +3.673449E+02 
 +4.944099E+02 +8.155370E-02 -9.517340E-01 +8.155370E-02 +8.634371E+02 -9.609903E-01 -9.517340E-01 -9.609903E-01 +3.979126E+02 
 +5.234316E+02 +5.259518E-01 +2.615111E+01 +5.259518E-01 +8.745138E+02 -1.124088E+00 +2.615111E+01 -1.124088E+00 +4.157903E+02 
 +5.215796E+02 +8.159107E-01 +3.321052E+01 +8.159107E-01 +8.797603E+02 -2.306240E+00 +3.321052E+01 -2.306240E+00 +4.080177E+02 
 +5.090110E+02 +2.774886E+00 +1.443093E+01 +2.774886E+00 +8.822000E+02 -2.002106E+00 +1.443093E+01 -2.002106E+00 +3.873565E+02 
 +4.950449E+02 -1.197125E+00 +1.883162E+01 -1.197125E+00 +8.813695E+02 +3.231011E+00 +1.883162E+01 +3.231011E+00 +3.743264E+02 
 +4.866281E+02 -5.814539E+00 +1.277563E+01 -5.814539E+00 +8.822624E+02 +7.169138E+00 +1.277563E+01 +7.169138E+00 +3.803535E+02 
 +4.785411E+02 -6.936103E+00 +1.616790E+01 -6.936103E+00 +8.724193E+02 +1.245028E+01 +1.616790E+01 +1.245028E+01 +3.693789E+02 
 +4.645504E+02 -9.363763E+00 +6.091591E+00 -9.363763E+00 +8.576602E+02 +1.598942E+01 +6.091591E+00 +1.598942E+01 +3.702862E+02 
 +4.501034E+02 -1.106711E+01 -1.330105E+01 -1.106711E+01 +8.524702E+02 +1.557640E+01 -1.330105E+01 +1.557640E+01 +3.646930E+02 
 +4.436544E+02 -1.180291E+01 -2.098695E+01 -1.180291E+01 +8.511545E+02 +8.764742E+00 -2.098695E+01 +8.764742E+00 +3.438814E+02 
 +4.874777E+02 -3.611719E+00 -2.855876E+00 -3.611719E+00 +8.650299E+02 +4.400702E-01 -2.855876E+00 +4.400702E-01 +3.385601E+02 
 +4.904989E+02 +2.887384E+00 -9.237004E-01 +2.887384E+00 +8.549806E+02 -9.639093E+00 -9.237004E-01 -9.639093E+00 +3.325599E+02 
 +4.987642E+02 +8.379194E+00 +1.672117E-02 +8.379194E+00 +8.531881E+02 -6.849724E+00 +1.672117E-02 -6.849724E+00 +3.540118E+02 
 +4.976243E+02 +1.085502E+01 -8.656739E+00 +1.085502E+01 +8.512199E+02 -6.162271E-01 -8.656739E+00 -6.162271E-01 +3.843969E+02 
 +5.179962E+02 +2.391880E+00 -6.962584E+00 +2.391880E+00 +8.681077E+02 -7.471811E-01 -6.962584E+00 -7.471811E-01 +4.080285E+02 
 +5.128378E+02 +5.194137E+00 -1.183303E+01 +5.194137E+00 +8.669373E+02 +5.173174E+00 -1.183303E+01 +5.173174E+00 +3.918557E+02 
 +5.052550E+02 +7.180016E+00 -3.187710E+00 +7.180016E+00 +8.632819E+02 +1.364882E+01 -3.187710E+00 +1.364882E+01 +3.735826E+02 
 +5.027263E+02 +1.190315E+01 -1.913282E+00 +1.190315E+01 +8.583056E+02 +1.477198E+01 -1.913282E+00 +1.477198E+01 +3.638163E+02 
 +5.070095E+02 +1.276941E+01 -8.500990E+00 +1.276941E+01 +8.506339E+02 +7.256698E+00 -8.500990E+00 +7.256698E+00 +3.559651E+02 
 +4.883240E+02 +8.855243E+00 -1.602564E+01 +8.855243E+00 +8.388796E+02 +6.151548E+00 -1.602564E+01 +6.151548E+00 +3.478606E+02 
 +4.595977E+02 +1.259329E+00 -2.245423E+00 +1.259329E+00 +8.323890E+02 +1.205132E+01 -2.245423E+00 +1.205132E+01 +3.485416E+02 
 +4.658357E+02 +1.501822E+00 +5.757895E-01 +1.501822E+00 +8.432113E+02 +9.072495E+00 +5.757895E-01 +9.072495E+00 +3.488144E+02 
 +5.112680E+02 -2.688250E+00 +3.222519E+01 -2.688250E+00 +8.739669E+02 +1.799469E+00 +3.222519E+01 +1.799469E+00 +3.719842E+02 
 +5.199563E+02 -3.087468E+00 +2.579057E+01 -3.087468E+00 +8.853858E+02 -1.075729E+01 +2.579057E+01 -1.075729E+01 +3.794121E+02 
 +4.790838E+02 +1.371119E+00 +2.551693E+01 +1.371119E+00 +8.719717E+02 -1.538978E+01 +2.551693E+01 -1.538978E+01 +3.669054E+02 
 +4.824710E+02 -2.748354E+00 +1.644174E+01 -2.748354E+00 +8.788044E+02 -7.347069E+00 +1.644174E+01 -7.347069E+00 +3.831497E+02 
 +4.731208E+02 -7.652942E+00 +1.099839E+01 -7.652942E+00 +8.702414E+02 -1.801431E+00 +1.099839E+01 -1.801431E+00 +3.797055E+02 
 +4.699255E+02 -8.980823E+00 +1.079380E+01 -8.980823E+00 +8.645576E+02 +5.171254E+00 +1.079380E+01 +5.171254E+00 +3.718653E+02 
 +4.612438E+02 -4.649375E+00 +7.946446E+00 -4.649375E+00 +8.588386E+02 +1.176510E+01 +7.946446E+00 +1.176510E+01 +3.834554E+02 
 +4.425790E+02 -2.093014E+00 -1.348759E+00 -2.093014E+00 +8.502728E+02 +1.449940E+01 -1.348759E+00 +1.449940E+01 +3.611099E+02 
 +4.868314E+02 -3.755101E+00 -7.450097E+00 -3.755101E+00 +8.713742E+02 +1.477697E+01 -7.450097E+00 +1.477697E+01 +3.384687E+02 
 +5.010432E+02 -5.367781E+00 -3.991929E-01 -5.367781E+00 +8.696045E+02 +8.844998E+00 -3.991929E-01 +8.844998E+00 +3.137082E+02 
 +5.107225E+02 -7.597677E+00 -6.339065E-01 -7.597677E+00 +8.694943E+02 -7.810024E-01 -6.339065E-01 -7.810024E-01 +3.138169E+02 
 +5.035050E+02 -5.343609E+00 +4.209134E+00 -5.343609E+00 +8.655077E+02 -2.302356E+00 +4.209134E+00 -2.302356E+00 +3.295618E+02 
 +4.977267E+02 +3.583460E+00 -1.346379E+01 +3.583460E+00 +8.605900E+02 +1.910716E+00 -1.346379E+01 +1.910716E+00 +3.615755E+02 
 +5.065058E+02 +5.679958E+00 -8.967829E+00 +5.679958E+00 +8.681977E+02 +3.099963E+00 -8.967829E+00 +3.099963E+00 +3.781762E+02 
 +5.070312E+02 +8.801722E+00 -6.860610E+00 +8.801722E+00 +8.713150E+02 +7.686686E+00 -6.860610E+00 +7.686686E+00 +3.665390E+02 
 +5.027179E+02 +1.046189E+01 -1.876368E-01 +1.046189E+01 +8.641087E+02 +1.395071E+01 -1.876368E-01 +1.395071E+01 +3.515463E+02 
 +5.082252E+02 +1.348286E+01 -1.512890E+00 +1.348286E+01 +8.608634E+02 +1.353422E+01 -1.512890E+00 +1.353422E+01 +3.507574E+02 
 +4.950455E+02 +1.609778E+01 +5.801300E+00 +1.609778E+01 +8.398749E+02 +9.999625E+00 +5.801300E+00 +9.999625E+00 +3.373331E+02 
 +4.688330E+02 +1.448021E+01 -3.778184E+00 +1.448021E+01 +8.195955E+02 +1.107997E+01 -3.778184E+00 +1.107997E+01 +3.302937E+02 
 +4.519322E+02 +3.457391E+00 +1.701356E+00 +3.457391E+00 +8.252318E+02 +1.404046E+01 +1.701356E+00 +1.404046E+01 +3.465481E+02 
 +4.454452E+02 -1.311556E+00 +3.712252E+00 -1.311556E+00 +8.354586E+02 +5.794415E+00 +3.712252E+00 +5.794415E+00 +3.341482E+02 
 +4.830254E+02 -8.272227E+00 +3.048953E+01 -8.272227E+00 +8.624498E+02 -9.980378E+00 +3.048953E+01 -9.980378E+00 +3.426132E+02 
 +5.160283E+02 -7.712955E+00 +1.326358E+01 -7.712955E+00 +8.856024E+02 -1.438745E+01 +1.326358E+01 -1.438745E+01 +3.645592E+02 
 +4.898505E+02 +1.279759E+00 +1.671364E+01 +1.279759E+00 +8.772218E+02 -1.032073E+01 +1.671364E+01 -1.032073E+01 +3.695115E+02 
 +4.762046E+02 +4.309385E+00 +7.481557E+00 +4.309385E+00 +8.726234E+02 -5.710210E+00 +7.481557E+00 -5.710210E+00 +3.857195E+02 
 +4.610181E+02 +1.885868E+00 +2.471505E+00 +1.885868E+00 +8.629012E+02 +3.531656E-01 +2.471505E+00 +3.531656E-01 +3.881505E+02 
 +4.659844E+02 -2.564702E+00 +7.949818E+00 -2.564702E+00 +8.630376E+02 +7.750854E+00 +7.949818E+00 +7.750854E+00 +3.895928E+02 
 +4.529109E+02 +5.227530E-01 +8.195473E+00 +5.227530E-01 +8.533981E+02 +1.014909E+01 +8.195473E+00 +1.014909E+01 +3.912653E+02 
 +4.487170E+02 +8.352340E+00 +7.477462E+00 +8.352340E+00 +8.500850E+02 +1.228834E+01 +7.477462E+00 +1.228834E+01 +3.684264E+02 
 +5.105192E+02 +4.318701E-01 -9.945797E-01 +4.318701E-01 +8.850762E+02 +3.861959E+00 -9.945797E-01 +3.861959E+00 +3.514802E+02 
 +5.123889E+02 -1.036199E+01 +3.336220E+00 -1.036199E+01 +8.817719E+02 -5.816512E+00 +3.336220E+00 -5.816512E+00 +3.277378E+02 
 +5.095923E+02 -1.317724E+01 +1.121123E+01 -1.317724E+01 +8.636246E+02 -7.863988E-01 +1.121123E+01 -7.863988E-01 +3.198046E+02 
 +5.066207E+02 -9.658709E+00 +1.232994E+01 -9.658709E+00 +8.527663E+02 +6.371597E-01 +1.232994E+01 +6.371597E-01 +3.291839E+02 
 +5.056085E+02 -6.514852E-01 -1.624141E+00 -6.514852E-01 +8.618102E+02 +1.149852E+00 -1.624141E+00 +1.149852E+00 +3.521853E+02 
 +5.041319E+02 +4.894950E+00 -7.048053E+00 +4.894950E+00 +8.671839E+02 +4.931685E+00 -7.048053E+00 +4.931685E+00 +3.522787E+02 
 +5.015809E+02 +7.174109E+00 -2.479833E+00 +7.174109E+00 +8.664470E+02 +6.215199E+00 -2.479833E+00 +6.215199E+00 +3.428197E+02 
 +5.073964E+02 +1.060980E+01 -4.665127E-01 +1.060980E+01 +8.688570E+02 +5.890276E+00 -4.665127E-01 +5.890276E+00 +3.420384E+02 
 +5.096194E+02 +9.421567E+00 +4.557394E+00 +9.421567E+00 +8.665832E+02 +8.540870E+00 +4.557394E+00 +8.540870E+00 +3.457170E+02 
 +4.918141E+02 +4.238432E+00 +3.692320E+01 +4.238432E+00 +8.565919E+02 +1.574064E+01 +3.692320E+01 +1.574064E+01 +3.379327E+02 
 +4.669142E+02 +1.608170E+00 +2.754999E+01 +1.608170E+00 +8.398574E+02 +1.823460E+01 +2.754999E+01 +1.823460E+01 +3.285989E+02 
 +4.409560E+02 -1.867465E+00 +1.051381E+01 -1.867465E+00 +8.263305E+02 +1.394812E+01 +1.051381E+01 +1.394812E+01 +3.461684E+02 
 +4.350019E+02 -3.159303E+00 +1.222019E+00 -3.159303E+00 +8.321847E+02 +2.917775E+00 +1.222019E+00 +2.917775E+00 +3.463766E+02 
 +4.824595E+02 -7.109023E+00 +1.320397E+01 -7.109023E+00 +8.655850E+02 -8.068222E+00 +1.320397E+01 -8.068222E+00 +3.374807E+02 
 +5.041880E+02 -2.264381E+00 -6.457343E+00 -2.264381E+00 +8.826622E+02 -6.786256E+00 -6.457343E+00 -6.786256E+00 +3.405975E+02 
 +5.037524E+02 +1.331852E+00 -7.249430E+00 +1.331852E+00 +8.833581E+02 -3.857000E+00 -7.249430E+00 -3.857000E+00 +3.438788E+02 
 +4.875026E+02 +1.263268E+00 -6.480164E+00 +1.263268E+00 +8.778280E+02 -8.125880E+00 -6.480164E+00 -8.125880E+00 +3.681472E+02 
 +4.511123E+02 +1.912539E+00 +3.988908E+00 +1.912539E+00 +8.603884E+02 -8.726970E-01 +3.988908E+00 -8.726970E-01 +3.972771E+02 
 +4.601559E+02 +4.255899E-01 +8.320115E+00 +4.255899E-01 +8.615926E+02 +8.515402E+00 +8.320115E+00 +8.515402E+00 +4.060187E+02 
 +4.545242E+02 +4.746162E+00 +1.275093E+01 +4.746162E+00 +8.528589E+02 +7.399004E+00 +1.275093E+01 +7.399004E+00 +4.001413E+02 
 +4.448122E+02 +7.893509E+00 +1.448117E+01 +7.893509E+00 +8.368970E+02 +7.951431E+00 +1.448117E+01 +7.951431E+00 +3.830912E+02 
 +5.106506E+02 +1.663991E+00 +6.948803E-02 +1.663991E+00 +8.475596E+02 -1.310212E+00 +6.948803E-02 -1.310212E+00 +3.899725E+02 
 +5.178682E+02 +1.745613E+00 +9.588613E+00 +1.745613E+00 +8.448366E+02 -3.308716E+00 +9.588613E+00 -3.308716E+00 +3.789233E+02 
 +5.113069E+02 -1.059927E+00 +1.797769E+01 -1.059927E+00 +8.559938E+02 +3.750592E+00 +1.797769E+01 +3.750592E+00 +3.591583E+02 
 +5.167378E+02 -1.526125E+00 +1.170554E+01 -1.526125E+00 +8.662313E+02 +4.287528E+00 +1.170554E+01 +4.287528E+00 +3.617074E+02 
 +5.161315E+02 +5.756680E+00 +1.391593E+01 +5.756680E+00 +8.642472E+02 +2.280826E+00 +1.391593E+01 +2.280826E+00 +3.686896E+02 
 +5.028028E+02 +9.218519E+00 -1.106216E+01 +9.218519E+00 +8.612845E+02 -4.915509E-01 -1.106216E+01 -4.915509E-01 +3.560971E+02 
 +4.973961E+02 +6.833015E+00 +1.816345E-01 +6.833015E+00 +8.624914E+02 +2.023114E+00 +1.816345E-01 +2.023114E+00 +3.404310E+02 
 +5.050333E+02 +3.357268E+00 -2.634713E+00 +3.357268E+00 +8.734865E+02 +6.546800E+00 -2.634713E+00 +6.546800E+00 +3.446148E+02 
 +4.822570E+02 -8.635002E+00 +2.633956E+01 -8.635002E+00 +8.662846E+02 +1.212474E+01 +2.633956E+01 +1.212474E+01 +3.349220E+02 
 +4.736746E+02 -1.632754E+01 +4.993827E+01 -1.632754E+01 +8.580218E+02 +6.946071E+00 +4.993827E+01 +6.946071E+00 +3.363941E+02 
 +4.814817E+02 -1.736060E+01 +4.397870E+01 -1.736060E+01 +8.572202E+02 +7.429850E-02 +4.397870E+01 +7.429850E-02 +3.505567E+02 
 +4.470540E+02 -1.150164E+01 +3.365718E+00 -1.150164E+01 +8.392151E+02 -3.504064E+00 +3.365718E+00 -3.504064E+00 +3.516795E+02 
 +4.283677E+02 -4.830629E+00 -4.724972E+00 -4.830629E+00 +8.302771E+02 -1.281013E+01 -4.724972E+00 -1.281013E+01 +3.308051E+02 
 +4.912548E+02 -5.626325E+00 -1.016839E+01 -5.626325E+00 +8.665083E+02 -1.047755E+01 -1.016839E+01 -1.047755E+01 +3.043357E+02 
 +4.948452E+02 -1.150806E+00 -2.366760E+01 -1.150806E+00 +8.786481E+02 -4.383605E+00 -2.366760E+01 -4.383605E+00 +3.038786E+02 
 +4.979110E+02 +6.892507E-01 -2.477826E+01 +6.892507E-01 +8.808408E+02 -2.998645E+00 -2.477826E+01 -2.998645E+00 +3.119723E+02 
 +5.012535E+02 -2.694703E+00 -1.858254E+01 -2.694703E+00 +8.846303E+02 -5.139446E+00 -1.858254E+01 -5.139446E+00 +3.599810E+02 
 +4.588097E+02 -2.625281E+00 +9.224155E+00 -2.625281E+00 +8.666939E+02 -1.033743E+00 +9.224155E+00 -1.033743E+00 +4.120547E+02 
 +4.533490E+02 +6.570754E-02 +7.368293E+00 +6.570754E-02 +8.557741E+02 +4.455225E+00 +7.368293E+00 +4.455225E+00 +4.110434E+02 
 +4.432888E+02 +2.662360E+00 +1.590955E+01 +2.662360E+00 +8.465310E+02 +3.129746E+00 +1.590955E+01 +3.129746E+00 +3.972474E+02 
 +4.727999E+02 +1.759289E+00 +1.532351E+01 +1.759289E+00 +8.388034E+02 -1.387227E+00 +1.532351E+01 -1.387227E+00 +3.997631E+02 
 +5.137290E+02 +3.592864E+00 +4.300098E+00 +3.592864E+00 +8.211728E+02 -3.727481E+00 +4.300098E+00 -3.727481E+00 +4.049010E+02 
 +5.082227E+02 +9.223434E+00 +1.003397E+01 +9.223434E+00 +8.066286E+02 +1.091549E+00 +1.003397E+01 +1.091549E+00 +3.968825E+02 
 +5.082355E+02 +9.243469E+00 +9.876716E+00 +9.243469E+00 +8.270864E+02 +4.892361E+00 +9.876716E+00 +4.892361E+00 +3.835886E+02 
 +5.063433E+02 +7.658441E+00 +6.680400E+00 +7.658441E+00 +8.496566E+02 +7.984203E+00 +6.680400E+00 +7.984203E+00 +3.687408E+02 
 +4.993852E+02 +1.143209E+01 +1.548204E+01 +1.143209E+01 +8.555744E+02 -8.506051E-01 +1.548204E+01 -8.506051E-01 +3.613027E+02 
 +4.938482E+02 +1.253852E+01 -4.782742E+00 +1.253852E+01 +8.584408E+02 -5.815738E+00 -4.782742E+00 -5.815738E+00 +3.558731E+02 
 +4.886355E+02 +7.317545E+00 +9.723071E+00 +7.317545E+00 +8.681496E+02 +2.337953E+00 +9.723071E+00 +2.337953E+00 +3.378603E+02 
 +4.722359E+02 -1.737981E+00 +6.777526E+00 -1.737981E+00 +8.694752E+02 +1.136257E+01 +6.777526E+00 +1.136257E+01 +3.326727E+02 
 +4.480098E+02 -1.575750E+01 +4.075081E+01 -1.575750E+01 +8.538646E+02 +1.154063E+01 +4.075081E+01 +1.154063E+01 +3.222713E+02 
 +4.620325E+02 -1.999993E+01 +4.167304E+01 -1.999993E+01 +8.566013E+02 -8.684639E-01 +4.167304E+01 -8.684639E-01 +3.283957E+02 
 +4.768228E+02 -2.419188E+01 +3.028358E+01 -2.419188E+01 +8.590405E+02 -1.079842E+01 +3.028358E+01 -1.079842E+01 +3.502079E+02 
 +4.563434E+02 -1.961664E+01 -1.222182E+01 -1.961664E+01 +8.481092E+02 -5.952341E+00 -1.222182E+01 -5.952341E+00 +3.463094E+02 
 +4.448690E+02 -1.249036E+01 -1.237107E+01 -1.249036E+01 +8.390824E+02 -4.607291E+00 -1.237107E+01 -4.607291E+00 +3.171052E+02 
 +5.042914E+02 -5.362731E+00 -1.477832E+01 -5.362731E+00 +8.647032E+02 -7.618141E+00 -1.477832E+01 -7.618141E+00 +2.907357E+02 
 +5.025966E+02 -6.016951E-01 -2.882810E+01 -6.016951E-01 +8.746557E+02 -3.808931E+00 -2.882810E+01 -3.808931E+00 +2.908052E+02 
 +5.018267E+02 +1.516530E+00 -3.079963E+01 +1.516530E+00 +8.813874E+02 -1.170801E+00 -3.079963E+01 -1.170801E+00 +3.035942E+02 
 +5.035992E+02 -2.339754E+00 -2.612977E+01 -2.339754E+00 +8.838182E+02 +2.647234E+00 -2.612977E+01 +2.647234E+00 +3.499840E+02 
 +4.621478E+02 -2.323489E+00 +9.342367E+00 -2.323489E+00 +8.664638E+02 +4.833384E+00 +9.342367E+00 +4.833384E+00 +4.050468E+02 
 +4.520647E+02 -1.449695E+00 +7.206202E+00 -1.449695E+00 +8.575004E+02 +3.415930E+00 +7.206202E+00 +3.415930E+00 +4.083997E+02 
 +4.507514E+02 +3.162443E+00 +1.737931E+01 +3.162443E+00 +8.351749E+02 -3.230381E+00 +1.737931E+01 -3.230381E+00 +3.940774E+02 
 +4.755234E+02 -4.898420E-01 +6.179969E+00 -4.898420E-01 +7.960087E+02 -1.610919E+01 +6.179969E+00 -1.610919E+01 +3.817681E+02 
 +4.916824E+02 +6.115742E-01 +4.895426E+00 +6.115742E-01 +7.929030E+02 -1.370756E+01 +4.895426E+00 -1.370756E+01 +3.847032E+02 
 +4.915798E+02 +8.785142E+00 +1.594827E-01 +8.785142E+00 +8.001594E+02 -7.898334E+00 +1.594827E-01 -7.898334E+00 +3.872286E+02 
 +5.065848E+02 +1.030950E+01 +1.754577E+00 +1.030950E+01 +8.147344E+02 -5.546337E+00 +1.754577E+00 -5.546337E+00 +3.879103E+02 
 +4.969410E+02 +3.059647E+00 +1.922232E+00 +3.059647E+00 +8.337276E+02 -4.302093E+00 +1.922232E+00 -4.302093E+00 +3.782235E+02 
 +4.884317E+02 +2.741224E+00 +1.107467E+01 +2.741224E+00 +8.528882E+02 -5.643007E+00 +1.107467E+01 -5.643007E+00 +3.659441E+02 
 +4.812175E+02 +8.104633E+00 +1.258020E+01 +8.104633E+00 +8.552600E+02 +1.608101E+00 +1.258020E+01 +1.608101E+00 +3.489486E+02 
 +4.698594E+02 +8.777440E+00 +2.472348E+01 +8.777440E+00 +8.573572E+02 +1.097397E+01 +2.472348E+01 +1.097397E+01 +3.332254E+02 
 +4.495506E+02 -2.418822E-01 +2.160258E+01 -2.418822E-01 +8.559735E+02 +2.048991E+01 +2.160258E+01 +2.048991E+01 +3.332395E+02 
 +4.359319E+02 -7.323282E+00 +2.991899E+01 -7.323282E+00 +8.389367E+02 +1.915595E+01 +2.991899E+01 +1.915595E+01 +3.333935E+02 
 +4.473484E+02 -6.181085E+00 +2.430269E+01 -6.181085E+00 +8.381656E+02 +5.169706E+00 +2.430269E+01 +5.169706E+00 +3.309754E+02 
 +4.425519E+02 -1.218666E+01 +7.250863E+00 -1.218666E+01 +8.421256E+02 -4.057031E+00 +7.250863E+00 -4.057031E+00 +3.243830E+02 
 +4.542244E+02 -7.725075E+00 -9.574797E+00 -7.725075E+00 +8.507434E+02 +2.543599E+00 -9.574797E+00 +2.543599E+00 +3.307477E+02 
 +4.635165E+02 -9.387898E+00 -1.812762E+01 -9.387898E+00 +8.440302E+02 +7.475560E+00 -1.812762E+01 +7.475560E+00 +3.226629E+02 
 +5.085919E+02 -3.921412E+00 -3.406536E+00 -3.921412E+00 +8.543952E+02 -2.262480E-01 -3.406536E+00 -2.262480E-01 +3.048155E+02 
 +5.049751E+02 -2.531520E+00 -1.549767E+01 -2.531520E+00 +8.516999E+02 -1.805822E+00 -1.549767E+01 -1.805822E+00 +2.864129E+02 
 +4.945248E+02 -3.219297E+00 -2.571835E+01 -3.219297E+00 +8.518972E+02 +2.560060E+00 -2.571835E+01 +2.560060E+00 +2.724790E+02 
 +5.016679E+02 -6.092529E+00 -3.519696E+01 -6.092529E+00 +8.726087E+02 +3.423574E+00 -3.519696E+01 +3.423574E+00 +3.145067E+02 
 +4.600072E+02 -3.259642E+00 +5.412821E+00 -3.259642E+00 +8.693255E+02 +9.287932E-01 +5.412821E+00 +9.287932E-01 +3.794448E+02 
 +4.582071E+02 -3.417675E+00 +1.734318E+01 -3.417675E+00 +8.723885E+02 +3.529849E+00 +1.734318E+01 +3.529849E+00 +4.096703E+02 
 +4.629078E+02 -1.701028E-02 +1.005618E+01 -1.701028E-02 +8.099868E+02 -1.205029E+01 +1.005618E+01 -1.205029E+01 +3.928802E+02 
 +4.797911E+02 +6.828885E-01 +4.229331E+00 +6.828885E-01 +8.078514E+02 -1.410807E+01 +4.229331E+00 -1.410807E+01 +3.824158E+02 
 +4.625420E+02 +9.680994E-02 -4.640144E+00 +9.680994E-02 +7.938657E+02 -1.356384E+01 -4.640144E+00 -1.356384E+01 +3.633139E+02 
 +4.715298E+02 +5.660777E+00 -5.435164E+00 +5.660777E+00 +7.918174E+02 -1.462735E+01 -5.435164E+00 -1.462735E+01 +3.560323E+02 
 +4.679801E+02 +6.020252E+00 -9.229063E+00 +6.020252E+00 +8.055739E+02 -1.484575E+01 -9.229063E+00 -1.484575E+01 +3.685675E+02 
 +5.003320E+02 -5.086212E+00 -2.432161E+00 -5.086212E+00 +8.420988E+02 -1.242830E+01 -2.432161E+00 -1.242830E+01 +4.037523E+02 
 +4.924022E+02 -7.094714E+00 +9.187028E+00 -7.094714E+00 +8.418211E+02 -1.763372E+00 +9.187028E+00 -1.763372E+00 +3.869239E+02 
 +4.704889E+02 +5.814479E-01 +1.745281E+01 +5.814479E-01 +8.384529E+02 +1.237512E+01 +1.745281E+01 +1.237512E+01 +3.592795E+02 
 +4.597387E+02 +2.752169E+00 +2.587287E+01 +2.752169E+00 +8.402226E+02 +2.236681E+01 +2.587287E+01 +2.236681E+01 +3.493514E+02 
 +4.599174E+02 -2.063828E+00 +2.206809E+01 -2.063828E+00 +8.431717E+02 +2.192190E+01 +2.206809E+01 +2.192190E+01 +3.478169E+02 
 +4.456472E+02 -8.772332E+00 +1.529027E+01 -8.772332E+00 +8.431005E+02 +1.469408E+01 +1.529027E+01 +1.469408E+01 +3.485638E+02 
 +4.404074E+02 -3.288790E+00 +9.640658E+00 -3.288790E+00 +8.374673E+02 +9.013954E+00 +9.640658E+00 +9.013954E+00 +3.410535E+02 
 +4.307547E+02 -3.187897E-02 +1.575760E+00 -3.187897E-02 +8.298066E+02 +1.090507E+01 +1.575760E+00 +1.090507E+01 +3.168693E+02 
 +4.474360E+02 +6.125003E+00 -1.027284E+00 +6.125003E+00 +8.409648E+02 +1.249490E+01 -1.027284E+00 +1.249490E+01 +3.248544E+02 
 +4.728107E+02 +3.913046E+00 -2.248537E+01 +3.913046E+00 +8.529327E+02 +7.697079E+00 -2.248537E+01 +7.697079E+00 +3.397233E+02 
 +4.973515E+02 +3.187437E+00 +8.225026E-02 +3.187437E+00 +8.536009E+02 -1.081344E-02 +8.225026E-02 -1.081344E-02 +3.263507E+02 
 +5.078717E+02 +1.306537E+00 +8.336357E+00 +1.306537E+00 +8.461349E+02 -1.517167E+00 +8.336357E+00 -1.517167E+00 +3.125904E+02 
 +5.087776E+02 -1.547048E+00 -9.193080E+00 -1.547048E+00 +8.520076E+02 -4.736514E+00 -9.193080E+00 -4.736514E+00 +3.078051E+02 
 +5.192856E+02 -9.556912E+00 -2.591805E+01 -9.556912E+00 +8.767018E+02 -1.113990E+01 -2.591805E+01 -1.113990E+01 +3.380852E+02 
 +4.892596E+02 -3.629235E+00 +8.043406E+00 -3.629235E+00 +8.841374E+02 -1.346113E+01 +8.043406E+00 -1.346113E+01 +3.823909E+02 
 +4.743118E+02 -1.535078E+00 +2.719139E+01 -1.535078E+00 +8.621680E+02 -1.088834E+01 +2.719139E+01 -1.088834E+01 +4.093285E+02 
 +4.586064E+02 -7.688190E+00 -1.081167E+01 -7.688190E+00 +8.306369E+02 -1.682179E+00 -1.081167E+01 -1.682179E+00 +3.941441E+02 
 +4.974013E+02 -1.294181E+00 +5.162597E-01 -1.294181E+00 +8.484462E+02 +8.456897E-01 +5.162597E-01 +8.456897E-01 +3.902139E+02 
 +4.442458E+02 -3.465253E+00 -1.590006E+01 -3.465253E+00 +8.419307E+02 -5.013074E+00 -1.590006E+01 -5.013074E+00 +3.484686E+02 
 +5.030452E+02 -2.636863E+00 -1.047853E+01 -2.636863E+00 +8.932016E+02 -1.091774E+01 -1.047853E+01 -1.091774E+01 +3.582563E+02 
 +4.624630E+02 -3.599158E+00 -2.009119E+01 -3.599158E+00 +8.673167E+02 -1.120185E+01 -2.009119E+01 -1.120185E+01 +3.711328E+02 
 +5.399846E+02 -6.562718E+00 -5.032576E+00 -6.562718E+00 +9.024278E+02 -5.157163E+00 -5.032576E+00 -5.157163E+00 +4.316735E+02 
 +5.100669E+02 -9.258728E+00 +1.399253E+01 -9.258728E+00 +8.869062E+02 +4.325976E+00 +1.399253E+01 +4.325976E+00 +4.075890E+02 
 +5.057772E+02 -5.379384E+00 +6.352627E+00 -5.379384E+00 +8.864880E+02 +6.258995E+00 +6.352627E+00 +6.258995E+00 +3.963401E+02 
 +4.758373E+02 -5.956719E+00 +2.008732E+01 -5.956719E+00 +8.518398E+02 +1.158607E+01 +2.008732E+01 +1.158607E+01 +3.722548E+02 
 +4.779530E+02 -3.807449E+00 +1.235514E+01 -3.807449E+00 +8.427635E+02 +2.000443E+01 +1.235514E+01 +2.000443E+01 +3.570045E+02 
 +4.535600E+02 -1.262383E+01 +1.225593E+01 -1.262383E+01 +8.401749E+02 +1.241937E+01 +1.225593E+01 +1.241937E+01 +3.468556E+02 
 +4.458163E+02 -5.570479E+00 +1.033522E+01 -5.570479E+00 +8.424897E+02 +6.859172E+00 +1.033522E+01 +6.859172E+00 +3.317149E+02 
 +4.472141E+02 +2.351438E+00 +7.884765E+00 +2.351438E+00 +8.402065E+02 +9.089035E+00 +7.884765E+00 +9.089035E+00 +3.170604E+02 
 +4.527671E+02 +6.903974E+00 -8.412443E+00 +6.903974E+00 +8.418424E+02 +5.473605E+00 -8.412443E+00 +5.473605E+00 +3.261738E+02 
 +4.747287E+02 +7.116982E+00 -2.693050E+01 +7.116982E+00 +8.557740E+02 +3.862662E+00 -2.693050E+01 +3.862662E+00 +3.487775E+02 
 +4.901941E+02 +6.580487E+00 -1.925632E+01 +6.580487E+00 +8.585512E+02 +6.643809E+00 -1.925632E+01 +6.643809E+00 +3.526292E+02 
 +5.128662E+02 +8.086059E+00 +4.097292E+00 +8.086059E+00 +8.547124E+02 +5.064495E+00 +4.097292E+00 +5.064495E+00 +3.664512E+02 
 +5.240732E+02 +9.273280E+00 -1.729462E+00 +9.273280E+00 +8.451564E+02 +2.154404E+00 -1.729462E+00 +2.154404E+00 +3.988209E+02 
 +5.103455E+02 +3.439542E+00 +8.442320E-01 +3.439542E+00 +8.313323E+02 -4.934487E-03 +8.442320E-01 -4.934487E-03 +3.943463E+02 
 +4.977225E+02 +5.736016E+00 +1.130594E+01 +5.736016E+00 +8.209196E+02 -4.629319E+00 +1.130594E+01 -4.629319E+00 +3.845686E+02 
 +5.106483E+02 +2.512263E+00 +1.732489E+01 +2.512263E+00 +8.482467E+02 -8.027233E+00 +1.732489E+01 -8.027233E+00 +4.179064E+02 
 +4.564918E+02 -1.276107E+01 -1.826066E+01 -1.276107E+01 +8.421703E+02 +4.836149E+00 -1.826066E+01 +4.836149E+00 +3.939046E+02 
 +4.835858E+02 -6.826931E+00 -6.770696E+00 -6.826931E+00 +8.840813E+02 +7.743302E+00 -6.770696E+00 +7.743302E+00 +3.899293E+02 
 +4.412892E+02 -8.293008E+00 -1.136425E+01 -8.293008E+00 +8.626196E+02 +4.679883E+00 -1.136425E+01 +4.679883E+00 +3.563587E+02 
 +4.559545E+02 -7.174974E+00 -2.285746E+01 -7.174974E+00 +8.677097E+02 +3.502229E-01 -2.285746E+01 +3.502229E-01 +3.473337E+02 
 +4.769699E+02 -4.989481E+00 -1.516315E+01 -4.989481E+00 +8.812562E+02 +5.837620E+00 -1.516315E+01 +5.837620E+00 +3.796020E+02 
 +5.307884E+02 -4.958268E+00 -9.664855E+00 -4.958268E+00 +9.085313E+02 +1.601741E+01 -9.664855E+00 +1.601741E+01 +4.254522E+02 
 +5.009642E+02 -4.360428E+00 +7.747101E+00 -4.360428E+00 +8.806089E+02 +6.641471E+00 +7.747101E+00 +6.641471E+00 +4.032797E+02 
 +5.079120E+02 +1.578669E+00 -1.015174E+01 +1.578669E+00 +8.754840E+02 -2.373906E+00 -1.015174E+01 -2.373906E+00 +3.931650E+02 
 +4.938945E+02 -2.743827E+00 +8.600878E+00 -2.743827E+00 +8.657658E+02 -2.669331E-01 +8.600878E+00 -2.669331E-01 +3.850991E+02 
 +4.788517E+02 -3.526227E+00 +8.939531E+00 -3.526227E+00 +8.469715E+02 +1.306445E+01 +8.939531E+00 +1.306445E+01 +3.691769E+02 
 +4.622005E+02 -9.841727E+00 +1.000470E+01 -9.841727E+00 +8.370074E+02 +1.573701E+01 +1.000470E+01 +1.573701E+01 +3.492088E+02 
 +4.633650E+02 -8.518050E+00 +7.261483E+00 -8.518050E+00 +8.452430E+02 +5.661720E+00 +7.261483E+00 +5.661720E+00 +3.291739E+02 
 +4.676829E+02 +2.829206E-01 +1.267910E+00 +2.829206E-01 +8.526318E+02 +1.302824E+00 +1.267910E+00 +1.302824E+00 +3.272758E+02 
 +4.759593E+02 +5.645492E+00 -2.301663E+01 +5.645492E+00 +8.619648E+02 -2.377023E+00 -2.301663E+01 -2.377023E+00 +3.353510E+02 
 +4.835665E+02 +8.394487E+00 -2.597087E+01 +8.394487E+00 +8.616765E+02 -2.364110E+00 -2.597087E+01 -2.364110E+00 +3.459563E+02 
 +4.921275E+02 +9.716525E+00 -3.216823E+01 +9.716525E+00 +8.603254E+02 +2.594996E+00 -3.216823E+01 +2.594996E+00 +3.624512E+02 
 +5.064982E+02 +6.429511E+00 -2.072565E+01 +6.429511E+00 +8.571937E+02 +5.311218E+00 -2.072565E+01 +5.311218E+00 +3.901978E+02 
 +5.394235E+02 +8.041008E+00 -2.494406E+00 +8.041008E+00 +8.634602E+02 +1.098264E+01 -2.494406E+00 +1.098264E+01 +4.440073E+02 
 +5.239143E+02 +8.453297E+00 +1.184374E+01 +8.453297E+00 +8.419483E+02 +1.479603E+01 +1.184374E+01 +1.479603E+01 +4.246224E+02 
 +5.256547E+02 +3.205271E+00 +6.033881E+00 +3.205271E+00 +8.367838E+02 +9.546081E+00 +6.033881E+00 +9.546081E+00 +4.033958E+02 
 +5.400528E+02 -8.643834E-01 +5.508794E+00 -8.643834E-01 +8.577503E+02 +2.410888E+00 +5.508794E+00 +2.410888E+00 +4.306497E+02 
 +4.595989E+02 -1.208243E+01 -3.703797E+00 -1.208243E+01 +8.472785E+02 -5.319343E+00 -3.703797E+00 -5.319343E+00 +3.950157E+02 
 +4.517484E+02 -1.302834E+01 +1.520580E-02 -1.302834E+01 +8.687274E+02 +2.360715E+00 +1.520580E-02 +2.360715E+00 +3.824007E+02 
 +4.435907E+02 -1.088043E+01 -1.615362E-01 -1.088043E+01 +8.678979E+02 +6.043792E+00 -1.615362E-01 +6.043792E+00 +3.747214E+02 
 +4.278393E+02 -1.057789E+01 -2.022195E+01 -1.057789E+01 +8.471438E+02 +1.406163E+01 -2.022195E+01 +1.406163E+01 +3.523023E+02 
 +4.967773E+02 -6.356961E+00 -2.984366E+00 -6.356961E+00 +8.742321E+02 +2.157218E+01 -2.984366E+00 +2.157218E+01 +3.877391E+02 
 +5.025942E+02 -2.025302E+00 -1.647477E+01 -2.025302E+00 +8.738476E+02 +1.402694E+01 -1.647477E+01 +1.402694E+01 +4.123922E+02 
 +4.979523E+02 +4.739367E+00 -7.707794E+00 +4.739367E+00 +8.672282E+02 -2.289675E-01 -7.707794E+00 -2.289675E-01 +4.035824E+02 
 +5.048593E+02 +6.689727E+00 -1.961548E+01 +6.689727E+00 +8.696966E+02 -8.474723E+00 -1.961548E+01 -8.474723E+00 +3.900258E+02 
 +4.960567E+02 +7.584285E-01 -3.632680E+00 +7.584285E-01 +8.676622E+02 -1.036750E+01 -3.632680E+00 -1.036750E+01 +3.847252E+02 
 +4.680994E+02 -4.575774E+00 +1.718330E+01 -4.575774E+00 +8.555564E+02 +3.452095E+00 +1.718330E+01 +3.452095E+00 +3.676270E+02 
 +4.792174E+02 -6.259563E+00 -5.190928E+00 -6.259563E+00 +8.585699E+02 +7.860848E+00 -5.190928E+00 +7.860848E+00 +3.595654E+02 
 +4.933731E+02 -6.684656E+00 -6.856878E+00 -6.684656E+00 +8.678131E+02 -5.555463E+00 -6.856878E+00 -5.555463E+00 +3.522602E+02 
 +4.983511E+02 +1.957150E-01 -1.470459E+01 +1.957150E-01 +8.729298E+02 -7.841876E+00 -1.470459E+01 -7.841876E+00 +3.487338E+02 
 +4.954850E+02 +4.420661E+00 -2.438438E+01 +4.420661E+00 +8.638908E+02 -1.824723E-01 -2.438438E+01 -1.824723E-01 +3.425447E+02 
 +4.972751E+02 +6.984149E+00 -2.142068E+01 +6.984149E+00 +8.617325E+02 +3.656850E+00 -2.142068E+01 +3.656850E+00 +3.458900E+02 
 +4.964822E+02 +9.884202E+00 -2.611437E+01 +9.884202E+00 +8.624283E+02 +7.811206E-01 -2.611437E+01 +7.811206E-01 +3.559690E+02 
 +4.971174E+02 +5.841451E+00 -2.822262E+01 +5.841451E+00 +8.603229E+02 +4.818555E+00 -2.822262E+01 +4.818555E+00 +3.710994E+02 
 +5.136622E+02 +5.422381E+00 -9.615218E+00 +5.422381E+00 +8.575316E+02 +1.495025E+01 -9.615218E+00 +1.495025E+01 +4.020091E+02 
 +5.272803E+02 +7.903158E+00 +5.665223E+00 +7.903158E+00 +8.543556E+02 +2.114103E+01 +5.665223E+00 +2.114103E+01 +4.062773E+02 
 +5.302071E+02 +6.503676E-01 -5.569341E-01 +6.503676E-01 +8.527061E+02 +1.912502E+01 -5.569341E-01 +1.912502E+01 +3.983165E+02 
 +5.309381E+02 -1.843028E+00 -6.946863E+00 -1.843028E+00 +8.581951E+02 +3.182347E+00 -6.946863E+00 +3.182347E+00 +4.167686E+02 
 +4.610775E+02 -5.925523E+00 +1.222930E+01 -5.925523E+00 +8.666207E+02 -7.761855E+00 +1.222930E+01 -7.761855E+00 +3.874292E+02 
 +4.523227E+02 -1.020871E+01 +7.912575E+00 -1.020871E+01 +8.645897E+02 +1.652754E-01 +7.912575E+00 +1.652754E-01 +3.836084E+02 
 +4.405147E+02 -8.756850E+00 +3.661484E+00 -8.756850E+00 +8.629643E+02 +6.754922E+00 +3.661484E+00 +6.754922E+00 +3.801394E+02 
 +4.334149E+02 -8.120975E+00 -2.250141E+00 -8.120975E+00 +8.492337E+02 +1.893576E+01 -2.250141E+00 +1.893576E+01 +3.629483E+02 
 +4.855842E+02 -5.761110E+00 +9.145889E-01 -5.761110E+00 +8.596708E+02 +2.811594E+01 +9.145889E-01 +2.811594E+01 +3.787754E+02 
 +4.937832E+02 -4.739067E+00 -2.743502E+01 -4.739067E+00 +8.656842E+02 +1.128878E+01 -2.743502E+01 +1.128878E+01 +3.954622E+02 
 +5.049022E+02 -1.679233E+00 +4.692396E-01 -1.679233E+00 +8.809179E+02 -6.059274E+00 +4.692396E-01 -6.059274E+00 +3.942858E+02 
 +5.030392E+02 +3.040224E+00 -1.200316E+01 +3.040224E+00 +8.803013E+02 -9.427759E+00 -1.200316E+01 -9.427759E+00 +3.798960E+02 
 +4.912194E+02 -3.610093E+00 +6.899800E+00 -3.610093E+00 +8.778797E+02 -8.811153E+00 +6.899800E+00 -8.811153E+00 +3.703277E+02 
 +4.785956E+02 -5.816823E+00 +2.087096E+01 -5.816823E+00 +8.721315E+02 -8.726685E+00 +2.087096E+01 -8.726685E+00 +3.604680E+02 
 +4.991245E+02 -2.939962E+00 -2.376911E+01 -2.939962E+00 +8.804763E+02 -8.752031E+00 -2.376911E+01 -8.752031E+00 +3.764183E+02 
 +5.142803E+02 +5.046315E-01 -2.058331E+01 +5.046315E-01 +8.798669E+02 -5.997974E+00 -2.058331E+01 -5.997974E+00 +3.771750E+02 
 +5.105101E+02 +1.085693E+00 -1.974374E+01 +1.085693E+00 +8.665392E+02 -4.713710E+00 -1.974374E+01 -4.713710E+00 +3.586149E+02 
 +5.088470E+02 +2.824476E+00 -1.678282E+01 +2.824476E+00 +8.607684E+02 -1.142055E+00 -1.678282E+01 -1.142055E+00 +3.532926E+02 
 +5.066677E+02 +3.825869E+00 -1.705576E+01 +3.825869E+00 +8.611579E+02 +3.109673E+00 -1.705576E+01 +3.109673E+00 +3.491399E+02 
 +5.047651E+02 +5.402559E+00 -2.140720E+01 +5.402559E+00 +8.635008E+02 +5.336979E+00 -2.140720E+01 +5.336979E+00 +3.466359E+02 
 +5.005070E+02 +3.752035E+00 -2.317100E+01 +3.752035E+00 +8.716327E+02 +1.031573E+01 -2.317100E+01 +1.031573E+01 +3.476230E+02 
 +5.067874E+02 +1.838490E+00 -1.860319E+01 +1.838490E+00 +8.821186E+02 +2.016443E+01 -1.860319E+01 +2.016443E+01 +3.650979E+02 
 +5.284170E+02 +8.158391E+00 -1.947158E+00 +8.158391E+00 +8.787780E+02 +2.528006E+01 -1.947158E+00 +2.528006E+01 +3.906533E+02 
 +5.344284E+02 +4.812790E+00 -4.958085E+00 +4.812790E+00 +8.813941E+02 +1.857519E+01 -4.958085E+00 +1.857519E+01 +3.950030E+02 
 +5.241300E+02 -1.639473E+00 -2.122325E+01 -1.639473E+00 +8.965669E+02 +9.483111E-02 -2.122325E+01 +9.483111E-02 +4.030205E+02 
 +4.535660E+02 -8.684693E-01 +2.469853E+01 -8.684693E-01 +8.633259E+02 +2.650181E+00 +2.469853E+01 +2.650181E+00 +3.885581E+02 
 +4.567655E+02 -3.536931E+00 +9.434872E+00 -3.536931E+00 +8.639406E+02 +5.111260E+00 +9.434872E+00 +5.111260E+00 +3.926139E+02 
 +4.571384E+02 -2.847491E+00 +4.793674E+00 -2.847491E+00 +8.606769E+02 +5.061713E+00 +4.793674E+00 +5.061713E+00 +3.919154E+02 
 +4.553503E+02 -1.323153E+00 +7.628744E+00 -1.323153E+00 +8.581784E+02 +1.067611E+01 +7.628744E+00 +1.067611E+01 +3.791093E+02 
 +4.761346E+02 -1.673590E+00 +1.304315E+01 -1.673590E+00 +8.679753E+02 +1.566076E+01 +1.304315E+01 +1.566076E+01 +3.664286E+02 
 +4.754755E+02 -3.612288E+00 -2.676055E+00 -3.612288E+00 +8.658834E+02 +1.157476E+01 -2.676055E+00 +1.157476E+01 +3.718653E+02 
 +5.019393E+02 -2.524951E+00 +1.999656E+01 -2.524951E+00 +8.825479E+02 -2.571037E+00 +1.999656E+01 -2.571037E+00 +3.860272E+02 
 +5.126846E+02 -4.574455E-01 +1.831061E+01 -4.574455E-01 +8.910250E+02 -1.317888E+01 +1.831061E+01 -1.317888E+01 +3.772101E+02 
 +5.101407E+02 +2.702275E+00 +1.990540E+01 +2.702275E+00 +8.905970E+02 -1.644562E+01 +1.990540E+01 -1.644562E+01 +3.697696E+02 
 +4.952148E+02 +3.246105E+00 +2.817391E+01 +3.246105E+00 +8.825767E+02 -2.217446E+01 +2.817391E+01 -2.217446E+01 +3.459370E+02 
 +5.069890E+02 +1.161303E+00 +1.859114E+01 +1.161303E+00 +8.919249E+02 -1.749332E+01 +1.859114E+01 -1.749332E+01 +3.729030E+02 
 +5.255916E+02 +4.760378E+00 -2.126816E+01 +4.760378E+00 +8.892573E+02 -1.223442E+01 -2.126816E+01 -1.223442E+01 +3.866583E+02 
 +5.183459E+02 +7.654959E+00 -1.031429E+01 +7.654959E+00 +8.698503E+02 -1.392326E+01 -1.031429E+01 -1.392326E+01 +3.621968E+02 
 +5.109843E+02 +7.624500E+00 +2.352152E+00 +7.624500E+00 +8.637455E+02 -6.702205E+00 +2.352152E+00 -6.702205E+00 +3.588991E+02 
 +5.132590E+02 +6.038044E+00 -3.808603E-01 +6.038044E+00 +8.624128E+02 +4.109617E+00 -3.808603E-01 +4.109617E+00 +3.622453E+02 
 +5.054646E+02 +1.988719E+00 -4.363071E+00 +1.988719E+00 +8.596048E+02 +1.069873E+01 -4.363071E+00 +1.069873E+01 +3.689707E+02 
 +5.003856E+02 +1.114351E+00 -8.433994E+00 +1.114351E+00 +8.609350E+02 +1.571769E+01 -8.433994E+00 +1.571769E+01 +3.764496E+02 
 +5.134780E+02 -2.461477E-01 -6.663260E+00 -2.461477E-01 +8.740658E+02 +2.158363E+01 -6.663260E+00 +2.158363E+01 +3.822403E+02 
 +5.159588E+02 +1.599408E+00 -7.990029E+00 +1.599408E+00 +8.822944E+02 +1.701622E+01 -7.990029E+00 +1.701622E+01 +3.865543E+02 
 +5.019539E+02 +3.884186E+00 -1.424289E+00 +3.884186E+00 +8.788368E+02 +1.405912E+01 -1.424289E+00 +1.405912E+01 +3.904608E+02 
 +5.116182E+02 -1.038308E-01 -1.975582E+01 -1.038308E-01 +8.905993E+02 +9.036711E+00 -1.975582E+01 +9.036711E+00 +4.035103E+02 
 +4.619431E+02 +2.097265E+00 +3.046930E+01 +2.097265E+00 +8.707297E+02 +1.538497E+01 +3.046930E+01 +1.538497E+01 +3.999937E+02 
 +4.591961E+02 -2.564322E-01 +1.072420E+01 -2.564322E-01 +8.680345E+02 +6.348542E+00 +1.072420E+01 +6.348542E+00 +4.017035E+02 
 +4.562764E+02 +4.609924E-01 +9.880035E+00 +4.609924E-01 +8.606158E+02 +4.680215E-03 +9.880035E+00 +4.680215E-03 +3.895675E+02 
 +4.589377E+02 -1.318256E+00 +1.265653E+01 -1.318256E+00 +8.635491E+02 +4.678114E+00 +1.265653E+01 +4.678114E+00 +3.868653E+02 
 +4.647957E+02 -1.067344E+00 +1.318763E+01 -1.067344E+00 +8.677929E+02 +1.146703E+01 +1.318763E+01 +1.146703E+01 +3.722833E+02 
 +4.651298E+02 +6.548302E-02 +1.659663E+00 +6.548302E-02 +8.698195E+02 +1.404247E+01 +1.659663E+00 +1.404247E+01 +3.752314E+02 
 +4.824976E+02 +2.971136E+00 +1.604278E+01 +2.971136E+00 +8.755490E+02 +7.873783E-01 +1.604278E+01 +7.873783E-01 +3.815647E+02 
 +5.248578E+02 +2.995974E+00 +2.570774E+01 +2.995974E+00 +8.918363E+02 -1.882820E+01 +2.570774E+01 -1.882820E+01 +3.786359E+02 
 +5.274193E+02 +6.573757E+00 +2.060202E+01 +6.573757E+00 +8.929548E+02 -2.965389E+01 +2.060202E+01 -2.965389E+01 +3.760268E+02 
 +5.176618E+02 +9.627176E+00 +2.585125E+01 +9.627176E+00 +8.882969E+02 -2.660964E+01 +2.585125E+01 -2.660964E+01 +3.595929E+02 
 +5.273658E+02 +8.808594E+00 +2.114136E+01 +8.808594E+00 +8.937850E+02 -2.235232E+01 +2.114136E+01 -2.235232E+01 +3.785176E+02 
 +5.222102E+02 +1.193280E+01 -1.086631E+01 +1.193280E+01 +8.801023E+02 -1.896406E+01 -1.086631E+01 -1.896406E+01 +3.760468E+02 
 +5.142988E+02 +1.577056E+01 +1.394263E+00 +1.577056E+01 +8.661092E+02 -9.825203E+00 +1.394263E+00 -9.825203E+00 +3.555460E+02 
 +5.049470E+02 +1.103090E+01 +3.003053E+01 +1.103090E+01 +8.589400E+02 -3.239989E+00 +3.003053E+01 -3.239989E+00 +3.625090E+02 
 +5.146238E+02 +8.230945E+00 +2.554881E+01 +8.230945E+00 +8.633191E+02 +5.204927E+00 +2.554881E+01 +5.204927E+00 +3.780552E+02 
 +4.957573E+02 +7.221346E+00 +9.927588E+00 +7.221346E+00 +8.544517E+02 +1.377928E+01 +9.927588E+00 +1.377928E+01 +3.654486E+02 
 +4.872633E+02 +6.936328E+00 -1.320099E+01 +6.936328E+00 +8.527195E+02 +1.513340E+01 -1.320099E+01 +1.513340E+01 +3.596407E+02 
 +4.974302E+02 +3.934387E+00 -1.664833E+01 +3.934387E+00 +8.638842E+02 +1.350972E+01 -1.664833E+01 +1.350972E+01 +3.701281E+02 
 +5.198122E+02 -7.625152E-01 -2.584779E+01 -7.625152E-01 +8.831176E+02 +1.353710E+01 -2.584779E+01 +1.353710E+01 +3.827234E+02 
 +4.841276E+02 +2.066382E+00 +2.411113E+00 +2.066382E+00 +8.669735E+02 +9.930915E+00 +2.411113E+00 +9.930915E+00 +3.702996E+02 
 +5.177711E+02 +2.479096E+00 -2.485987E+01 +2.479096E+00 +8.914149E+02 +1.256980E+01 -2.485987E+01 +1.256980E+01 +3.931459E+02 
 +4.873190E+02 +4.598970E+00 +2.534814E+01 +4.598970E+00 +8.770528E+02 +1.539523E+01 +2.534814E+01 +1.539523E+01 +4.230900E+02 
 +4.610654E+02 +2.519081E+00 +1.452700E+01 +2.519081E+00 +8.679280E+02 +3.836329E+00 +1.452700E+01 +3.836329E+00 +4.073813E+02 
 +4.469542E+02 +3.314239E+00 +2.028373E+01 +3.314239E+00 +8.613685E+02 +2.759774E+00 +2.028373E+01 +2.759774E+00 +3.892507E+02 
 +4.548341E+02 +2.997422E+00 +1.369650E+01 +2.997422E+00 +8.660511E+02 +4.613621E+00 +1.369650E+01 +4.613621E+00 +3.800424E+02 
 +4.610314E+02 +4.234049E+00 +1.284942E+01 +4.234049E+00 +8.694742E+02 +3.107305E+00 +1.284942E+01 +3.107305E+00 +3.656926E+02 
 +4.622981E+02 +4.663356E+00 +5.501829E-01 +4.663356E+00 +8.706069E+02 -4.307432E-01 +5.501829E-01 -4.307432E-01 +3.678666E+02 
 +4.716053E+02 +1.200317E+01 +4.322047E+00 +1.200317E+01 +8.668199E+02 -1.463889E+01 +4.322047E+00 -1.463889E+01 +3.747582E+02 
 +5.165831E+02 +1.359891E+01 +1.771880E+01 +1.359891E+01 +8.773308E+02 -3.557886E+01 +1.771880E+01 -3.557886E+01 +3.877922E+02 
 +5.185889E+02 +9.747669E+00 +1.687644E+01 +9.747669E+00 +8.674640E+02 -4.536376E+01 +1.687644E+01 -4.536376E+01 +3.855270E+02 
 +5.200273E+02 +5.548056E+00 +1.636785E+01 +5.548056E+00 +8.550953E+02 -4.149230E+01 +1.636785E+01 -4.149230E+01 +3.801072E+02 
 +5.410690E+02 +1.581534E+00 +4.925557E+00 +1.581534E+00 +8.631037E+02 -3.278116E+01 +4.925557E+00 -3.278116E+01 +3.950008E+02 
 +5.192905E+02 +8.225217E+00 +1.375571E+01 +8.225217E+00 +8.636223E+02 -1.945297E+01 +1.375571E+01 -1.945297E+01 +3.807921E+02 
 +5.124530E+02 +1.266414E+01 +2.071175E+01 +1.266414E+01 +8.698068E+02 -9.210218E+00 +2.071175E+01 -9.210218E+00 +3.669530E+02 
 +5.012951E+02 +7.867731E+00 +3.848850E+01 +7.867731E+00 +8.645187E+02 -5.083474E+00 +3.848850E+01 -5.083474E+00 +3.638924E+02 
 +5.002021E+02 +5.117488E+00 +3.396457E+01 +5.117488E+00 +8.624181E+02 -1.121909E+00 +3.396457E+01 -1.121909E+00 +3.580705E+02 
 +4.936473E+02 +3.244973E+00 +2.910476E+01 +3.244973E+00 +8.590321E+02 +4.197203E+00 +2.910476E+01 +4.197203E+00 +3.545278E+02 
 +4.775543E+02 +2.599861E+00 -2.251505E+00 +2.599861E+00 +8.519797E+02 +1.255182E+01 -2.251505E+00 +1.255182E+01 +3.450757E+02 
 +4.795749E+02 +2.373434E+00 -1.627054E+01 +2.373434E+00 +8.597315E+02 +1.278746E+01 -1.627054E+01 +1.278746E+01 +3.601960E+02 
 +5.034352E+02 -5.603290E+00 -2.118825E+01 -5.603290E+00 +8.763323E+02 +1.343193E+01 -2.118825E+01 +1.343193E+01 +3.783661E+02 
 +4.946304E+02 -4.906547E+00 -7.630873E+00 -4.906547E+00 +8.653330E+02 +1.144665E+01 -7.630873E+00 +1.144665E+01 +3.699065E+02 
 +5.247677E+02 +1.573008E+00 -1.774352E+01 +1.573008E+00 +8.857267E+02 +1.430421E+01 -1.774352E+01 +1.430421E+01 +4.086254E+02 
 +5.003059E+02 +2.285136E+00 +9.938362E+00 +2.285136E+00 +8.713988E+02 -2.260215E+00 +9.938362E+00 -2.260215E+00 +4.159768E+02 
 +4.642734E+02 -1.525437E+00 +1.271367E+01 -1.525437E+00 +8.663697E+02 -3.489394E+00 +1.271367E+01 -3.489394E+00 +4.073995E+02 
 +4.444558E+02 +6.539314E-01 +1.752635E+01 +6.539314E-01 +8.605767E+02 -2.246968E+00 +1.752635E+01 -2.246968E+00 +3.877364E+02 
 +4.447728E+02 +4.117444E+00 +7.816369E+00 +4.117444E+00 +8.611483E+02 -6.046428E+00 +7.816369E+00 -6.046428E+00 +3.624551E+02 
 +4.636777E+02 +4.435806E+00 +6.197720E+00 +4.435806E+00 +8.771661E+02 -1.167782E+01 +6.197720E+00 -1.167782E+01 +3.636039E+02 
 +4.754069E+02 +5.423268E+00 -2.583329E+00 +5.423268E+00 +8.759393E+02 -1.236845E+01 -2.583329E+00 -1.236845E+01 +3.568804E+02 
 +4.747554E+02 +1.482002E+01 -1.415451E+01 +1.482002E+01 +8.646259E+02 -1.890937E+01 -1.415451E+01 -1.890937E+01 +3.485068E+02 
 +5.008560E+02 +1.634724E+01 +6.662505E+00 +1.634724E+01 +8.757303E+02 -3.511562E+01 +6.662505E+00 -3.511562E+01 +3.864675E+02 
 +5.145044E+02 +1.326165E+01 +1.144455E+01 +1.326165E+01 +8.708880E+02 -3.491402E+01 +1.144455E+01 -3.491402E+01 +3.996537E+02 
 +5.282623E+02 +7.097489E+00 +3.868136E+00 +7.097489E+00 +8.664826E+02 -2.755612E+01 +3.868136E+00 -2.755612E+01 +3.965932E+02 
 +5.513148E+02 -2.139585E+00 +1.330788E+00 -2.139585E+00 +8.759650E+02 -2.466309E+01 +1.330788E+00 -2.466309E+01 +4.055304E+02 
 +5.075850E+02 -1.988659E+00 +3.121279E+01 -1.988659E+00 +8.547222E+02 -1.666949E+01 +3.121279E+01 -1.666949E+01 +3.718698E+02 
 +5.206860E+02 -3.293503E+00 +2.274897E+01 -3.293503E+00 +8.738956E+02 -1.087236E+01 +2.274897E+01 -1.087236E+01 +3.719408E+02 
 +5.142672E+02 -2.796936E+00 +2.841915E+01 -2.796936E+00 +8.778956E+02 -1.241824E+01 +2.841915E+01 -1.241824E+01 +3.693133E+02 
 +4.845482E+02 -1.511120E+00 +2.968642E+01 -1.511120E+00 +8.599259E+02 -7.976481E+00 +2.968642E+01 -7.976481E+00 +3.406124E+02 
 +4.851245E+02 -3.256826E+00 +3.433029E+01 -3.256826E+00 +8.637770E+02 -3.505427E+00 +3.433029E+01 -3.505427E+00 +3.496130E+02 
 +4.778868E+02 -6.183037E+00 +2.239322E+01 -6.183037E+00 +8.575926E+02 +3.318348E+00 +2.239322E+01 +3.318348E+00 +3.423587E+02 
 +4.770796E+02 -4.006131E-01 -1.601602E+01 -4.006131E-01 +8.534808E+02 +7.268659E+00 -1.601602E+01 +7.268659E+00 +3.489655E+02 
 +4.861685E+02 +1.251885E-01 -9.333992E+00 +1.251885E-01 +8.578099E+02 +4.783740E+00 -9.333992E+00 +4.783740E+00 +3.707398E+02 
 +5.026369E+02 +2.047755E-01 -7.508137E+00 +2.047755E-01 +8.640406E+02 +4.862096E+00 -7.508137E+00 +4.862096E+00 +3.832336E+02 
 +5.182548E+02 +1.868844E+00 -9.867848E+00 +1.868844E+00 +8.734652E+02 +3.455683E+00 -9.867848E+00 +3.455683E+00 +4.098701E+02 
 +4.941229E+02 -1.044995E+00 -3.136695E+00 -1.044995E+00 +8.669642E+02 -1.557972E+01 -3.136695E+00 -1.557972E+01 +3.999481E+02 
 +4.652481E+02 -6.739886E+00 +1.714719E-01 -6.739886E+00 +8.577048E+02 -2.075975E+01 +1.714719E-01 -2.075975E+01 +4.007072E+02 
 +4.441557E+02 -7.160550E+00 -4.474237E+00 -7.160550E+00 +8.536090E+02 -2.160583E+01 -4.474237E+00 -2.160583E+01 +3.796095E+02 
 +4.367179E+02 -3.632252E+00 +4.778109E+00 -3.632252E+00 +8.514298E+02 -1.728301E+01 +4.778109E+00 -1.728301E+01 +3.604064E+02 
 +4.615598E+02 -4.748766E+00 +1.092648E+01 -4.748766E+00 +8.517240E+02 -2.570517E-01 +1.092648E+01 -2.570517E-01 +3.648698E+02 
 +4.768332E+02 -1.881087E+00 +4.945285E+00 -1.881087E+00 +8.467204E+02 +7.437488E+00 +4.945285E+00 +7.437488E+00 +3.485039E+02 
 +4.768072E+02 +9.742034E+00 -2.355132E+01 +9.742034E+00 +8.526346E+02 -6.620164E+00 -2.355132E+01 -6.620164E+00 +3.327175E+02 
 +4.971457E+02 +1.000171E+01 +5.616029E+00 +1.000171E+01 +8.755445E+02 -2.378069E+01 +5.616029E+00 -2.378069E+01 +3.830553E+02 
 +5.122425E+02 +9.272510E+00 +1.008726E+01 +9.272510E+00 +8.767227E+02 -2.781216E+01 +1.008726E+01 -2.781216E+01 +4.094722E+02 
 +5.213547E+02 +7.425091E+00 +2.059870E+00 +7.425091E+00 +8.692247E+02 -2.574674E+01 +2.059870E+00 -2.574674E+01 +3.934174E+02 
 +5.311734E+02 +2.340826E+00 +3.829910E+00 +2.340826E+00 +8.796256E+02 -2.431914E+01 +3.829910E+00 -2.431914E+01 +3.886336E+02 
 +4.808115E+02 +2.088581E+00 +3.301209E+01 +2.088581E+00 +8.552222E+02 -1.696234E+01 +3.301209E+01 -1.696234E+01 +3.471285E+02 
 +5.212749E+02 -5.498414E+00 +1.391651E+01 -5.498414E+00 +8.758313E+02 -3.720217E+00 +1.391651E+01 -3.720217E+00 +3.608277E+02 
 +5.450213E+02 -6.141455E+00 +5.988878E+00 -6.141455E+00 +8.904310E+02 -6.767095E+00 +5.988878E+00 -6.767095E+00 +3.716607E+02 
 +4.783634E+02 -1.595802E+00 +3.093087E+01 -1.595802E+00 +8.606335E+02 -1.003253E+01 +3.093087E+01 -1.003253E+01 +3.413086E+02 
 +4.800437E+02 -2.894030E+00 +2.746026E+01 -2.894030E+00 +8.682597E+02 -4.040419E+00 +2.746026E+01 -4.040419E+00 +3.589994E+02 
 +4.825408E+02 -5.958587E+00 +2.943177E+01 -5.958587E+00 +8.604069E+02 -4.529591E+00 +2.943177E+01 -4.529591E+00 +3.497189E+02 
 +4.894930E+02 -4.722717E-01 -1.895183E+01 -4.722717E-01 +8.555452E+02 -3.289662E+00 -1.895183E+01 -3.289662E+00 +3.492857E+02 
 +4.896737E+02 -1.493604E+00 -8.173272E+00 -1.493604E+00 +8.568175E+02 -2.412391E+00 -8.173272E+00 -2.412391E+00 +3.668878E+02 
 +4.967212E+02 -1.488668E+00 -5.636342E+00 -1.488668E+00 +8.650112E+02 -4.475553E+00 -5.636342E+00 -4.475553E+00 +3.784238E+02 
 +4.987661E+02 -9.305112E-01 -8.120388E+00 -9.305112E-01 +8.676160E+02 -7.661187E+00 -8.120388E+00 -7.661187E+00 +3.857556E+02 
 +4.796044E+02 -2.266112E+00 -1.122034E+01 -2.266112E+00 +8.577360E+02 -2.001715E+01 -1.122034E+01 -2.001715E+01 +3.919756E+02 
 +4.666910E+02 -4.382316E+00 -8.238216E+00 -4.382316E+00 +8.531891E+02 -2.828777E+01 -8.238216E+00 -2.828777E+01 +4.031843E+02 
 +4.200713E+02 -1.120909E+01 -1.033746E+01 -1.120909E+01 +8.288588E+02 -2.329524E+01 -1.033746E+01 -2.329524E+01 +3.712265E+02 
 +4.468822E+02 -1.144166E+01 +1.738629E+01 -1.144166E+01 +8.338865E+02 -2.097697E+00 +1.738629E+01 -2.097697E+00 +3.607704E+02 
 +4.663192E+02 -9.219681E+00 +2.381074E+01 -9.219681E+00 +8.396902E+02 +1.525721E+01 +2.381074E+01 +1.525721E+01 +3.615520E+02 
 +4.928098E+02 -3.127497E+00 +1.039039E+01 -3.127497E+00 +8.582589E+02 +1.043293E+01 +1.039039E+01 +1.043293E+01 +3.556571E+02 
 +4.903344E+02 +4.646228E+00 -2.160791E+01 +4.646228E+00 +8.543440E+02 -3.809450E-02 -2.160791E+01 -3.809450E-02 +3.438756E+02 
 +4.986558E+02 +3.672800E+00 -6.651715E+00 +3.672800E+00 +8.589549E+02 -1.465856E+01 -6.651715E+00 -1.465856E+01 +3.777109E+02 
 +5.046417E+02 +5.327537E+00 +1.323743E+01 +5.327537E+00 +8.636236E+02 -2.699694E+01 +1.323743E+01 -2.699694E+01 +3.941904E+02 
 +5.044802E+02 +7.993414E+00 +7.469425E+00 +7.993414E+00 +8.626635E+02 -2.561074E+01 +7.469425E+00 -2.561074E+01 +3.785981E+02 
 +5.107747E+02 +7.212754E+00 +2.455744E+00 +7.212754E+00 +8.739312E+02 -2.208589E+01 +2.455744E+00 -2.208589E+01 +3.734626E+02 
 +4.797651E+02 +1.048177E+01 +2.989137E+01 +1.048177E+01 +8.624803E+02 -1.537872E+01 +2.989137E+01 -1.537872E+01 +3.493756E+02 
 +5.087385E+02 +5.078913E+00 +1.892225E+01 +5.078913E+00 +8.768639E+02 -6.482276E+00 +1.892225E+01 -6.482276E+00 +3.662590E+02 
 +5.491337E+02 -2.961797E+00 -2.401911E+00 -2.961797E+00 +8.949001E+02 +1.431645E+00 -2.401911E+00 +1.431645E+00 +3.728381E+02 
 +4.829505E+02 -5.548618E+00 +2.768944E+01 -5.548618E+00 +8.607213E+02 -1.844924E+00 +2.768944E+01 -1.844924E+00 +3.471581E+02 
 +4.834696E+02 -6.007174E+00 +2.215578E+01 -6.007174E+00 +8.635415E+02 -9.819973E+00 +2.215578E+01 -9.819973E+00 +3.755138E+02 
 +4.840462E+02 -8.089514E+00 +2.463140E+01 -8.089514E+00 +8.562411E+02 -1.116909E+01 +2.463140E+01 -1.116909E+01 +3.619634E+02 
 +4.941555E+02 -3.742643E+00 -2.047229E+01 -3.742643E+00 +8.577008E+02 -8.411044E+00 -2.047229E+01 -8.411044E+00 +3.545567E+02 
 +4.916305E+02 -4.562030E+00 -1.249667E+01 -4.562030E+00 +8.575893E+02 -6.136050E+00 -1.249667E+01 -6.136050E+00 +3.664086E+02 
 +4.893955E+02 -3.369476E+00 -1.088734E+01 -3.369476E+00 +8.596253E+02 -7.075952E+00 -1.088734E+01 -7.075952E+00 +3.726711E+02 
 +4.846851E+02 -3.105974E+00 -1.043580E+01 -3.105974E+00 +8.615792E+02 -1.145110E+01 -1.043580E+01 -1.145110E+01 +3.791142E+02 
 +4.680816E+02 +9.417209E-01 -1.625103E+01 +9.417209E-01 +8.513100E+02 -1.507731E+01 -1.625103E+01 -1.507731E+01 +3.874823E+02 
 +4.546143E+02 +9.000987E-01 -1.114380E+01 +9.000987E-01 +8.481173E+02 -2.466796E+01 -1.114380E+01 -2.466796E+01 +4.023924E+02 
 +4.072548E+02 -6.540430E+00 -3.336902E+00 -6.540430E+00 +8.266300E+02 -2.242180E+01 -3.336902E+00 -2.242180E+01 +3.726925E+02 
 +4.772892E+02 -1.169301E+01 +2.297599E+01 -1.169301E+01 +8.670468E+02 -9.874745E+00 +2.297599E+01 -9.874745E+00 +3.703016E+02 
 +5.039924E+02 -1.079821E+01 +2.356726E+01 -1.079821E+01 +8.868600E+02 -8.401774E+00 +2.356726E+01 -8.401774E+00 +3.596452E+02 
 +5.101035E+02 -4.252484E+00 +1.064965E+01 -4.252484E+00 +8.867483E+02 -9.834362E+00 +1.064965E+01 -9.834362E+00 +3.432330E+02 
 +5.074265E+02 -1.275429E-01 -6.455296E+00 -1.275429E-01 +8.747370E+02 -4.218131E+00 -6.455296E+00 -4.218131E+00 +3.437432E+02 
 +5.237816E+02 +7.430796E-01 -1.342432E+01 +7.430796E-01 +8.803286E+02 -3.104884E+00 -1.342432E+01 -3.104884E+00 +3.789077E+02 
 +5.062860E+02 +2.321626E-01 +1.655332E+01 +2.321626E-01 +8.691284E+02 -1.473569E+01 +1.655332E+01 -1.473569E+01 +3.878663E+02 
 +5.026887E+02 +5.602202E+00 +1.598391E+01 +5.602202E+00 +8.680833E+02 -1.972989E+01 +1.598391E+01 -1.972989E+01 +3.807087E+02 
 +5.077927E+02 +1.189406E+01 -4.052408E-01 +1.189406E+01 +8.776311E+02 -1.478224E+01 -4.052408E-01 -1.478224E+01 +3.753831E+02 
 +4.876954E+02 +1.034500E+01 +2.487892E+01 +1.034500E+01 +8.687121E+02 -9.290844E+00 +2.487892E+01 -9.290844E+00 +3.568134E+02 
 +5.028538E+02 +2.428988E+00 +2.036061E+01 +2.428988E+00 +8.769994E+02 -5.468233E+00 +2.036061E+01 -5.468233E+00 +3.693748E+02 
 +5.141434E+02 +4.149140E-01 +7.792645E+00 +4.149140E-01 +8.808653E+02 +1.212415E+00 +7.792645E+00 +1.212415E+00 +3.753765E+02 
 +5.000442E+02 -4.336165E+00 +1.626824E+01 -4.336165E+00 +8.697586E+02 -5.585839E-01 +1.626824E+01 -5.585839E-01 +3.737894E+02 
 +4.915161E+02 -8.474629E+00 +1.487182E+01 -8.474629E+00 +8.649973E+02 -1.234382E+01 +1.487182E+01 -1.234382E+01 +3.878954E+02 
 +4.856401E+02 -1.117937E+01 +2.277263E+01 -1.117937E+01 +8.568598E+02 -1.245155E+01 +2.277263E+01 -1.245155E+01 +3.757926E+02 
 +5.007289E+02 -4.578151E+00 -2.286395E+01 -4.578151E+00 +8.618784E+02 -6.872796E+00 -2.286395E+01 -6.872796E+00 +3.652156E+02 
 +4.961746E+02 -4.328648E+00 -1.400645E+01 -4.328648E+00 +8.616268E+02 -4.436194E+00 -1.400645E+01 -4.436194E+00 +3.670815E+02 
 +4.901235E+02 -6.466399E-01 -1.410853E+01 -6.466399E-01 +8.610665E+02 -4.888821E+00 -1.410853E+01 -4.888821E+00 +3.742840E+02 
 +4.853600E+02 +1.882776E+00 -1.369550E+01 +1.882776E+00 +8.618309E+02 -9.157969E+00 -1.369550E+01 -9.157969E+00 +3.828109E+02 
 +4.544980E+02 +1.466622E+00 -1.521258E+01 +1.466622E+00 +8.574903E+02 -4.385512E+00 -1.521258E+01 -4.385512E+00 +3.809505E+02 
 +4.372055E+02 +2.309221E-01 -1.588270E+01 +2.309221E-01 +8.513566E+02 -9.101783E+00 -1.588270E+01 -9.101783E+00 +3.863640E+02 
 +4.181889E+02 -3.999766E+00 -6.991355E+00 -3.999766E+00 +8.332199E+02 -1.321978E+01 -6.991355E+00 -1.321978E+01 +3.716898E+02 
 +4.527224E+02 -6.598292E+00 +7.137782E+00 -6.598292E+00 +8.492113E+02 -1.381901E+01 +7.137782E+00 -1.381901E+01 +3.691369E+02 
 +5.314001E+02 -8.028692E+00 +1.340088E+01 -8.028692E+00 +8.909170E+02 -1.658214E+01 +1.340088E+01 -1.658214E+01 +3.667976E+02 
 +5.116532E+02 -4.183775E+00 +5.717716E+00 -4.183775E+00 +8.768054E+02 -1.721047E+01 +5.717716E+00 -1.721047E+01 +3.316584E+02 
 +5.085478E+02 -3.121163E+00 +1.831598E+00 -3.121163E+00 +8.746244E+02 -1.633826E+01 +1.831598E+00 -1.633826E+01 +3.408185E+02 
 +5.254261E+02 -6.162279E+00 +2.397626E+00 -6.162279E+00 +8.808655E+02 -6.044546E+00 +2.397626E+00 -6.044546E+00 +3.667120E+02 
 +5.002222E+02 -6.755129E+00 +1.607691E+01 -6.755129E+00 +8.680723E+02 -1.034279E+00 +1.607691E+01 -1.034279E+00 +3.815372E+02 
 +4.982133E+02 -1.654794E+00 +1.939403E+01 -1.654794E+00 +8.680328E+02 -9.327005E+00 +1.939403E+01 -9.327005E+00 +3.854801E+02 
 +5.136693E+02 +3.393800E+00 -3.172835E-01 +3.393800E+00 +8.791528E+02 -5.999747E+00 -3.172835E-01 -5.999747E+00 +3.872177E+02 
 +5.045490E+02 +6.767159E+00 +1.185612E+01 +6.767159E+00 +8.795847E+02 -1.557743E+00 +1.185612E+01 -1.557743E+00 +3.715672E+02 
 +5.006728E+02 -1.580446E+00 +1.801792E+01 -1.580446E+00 +8.760083E+02 -2.416722E+00 +1.801792E+01 -2.416722E+00 +3.662197E+02 
 +5.008185E+02 +1.553601E+00 +1.188979E+01 +1.553601E+00 +8.718094E+02 -2.550144E+00 +1.188979E+01 -2.550144E+00 +3.843709E+02 
 +5.033182E+02 +1.203967E+00 +1.073638E+01 +1.203967E+00 +8.717989E+02 -5.249517E+00 +1.073638E+01 -5.249517E+00 +3.958696E+02 
 +4.942597E+02 -3.919737E+00 +8.776094E+00 -3.919737E+00 +8.677066E+02 -8.551274E+00 +8.776094E+00 -8.551274E+00 +3.968593E+02 
 +4.903953E+02 -8.039782E+00 +2.107509E+01 -8.039782E+00 +8.625554E+02 -1.067658E+01 +2.107509E+01 -1.067658E+01 +3.838353E+02 
 +5.104922E+02 +8.004768E-01 -2.221824E+01 +8.004768E-01 +8.682232E+02 -6.374597E+00 -2.221824E+01 -6.374597E+00 +3.747346E+02 
 +5.015672E+02 +1.590093E+00 -1.147271E+01 +1.590093E+00 +8.635795E+02 +3.138992E-01 -1.147271E+01 +3.138992E-01 +3.632472E+02 
 +4.893658E+02 +5.221087E+00 -1.778554E+01 +5.221087E+00 +8.593925E+02 -2.751027E-01 -1.778554E+01 -2.751027E-01 +3.628749E+02 
 +4.860541E+02 +7.266938E+00 -1.275648E+01 +7.266938E+00 +8.638647E+02 -4.206923E+00 -1.275648E+01 -4.206923E+00 +3.762301E+02 
 +4.300042E+02 +1.807114E+00 -1.218631E+01 +1.807114E+00 +8.541038E+02 +8.249241E-01 -1.218631E+01 +8.249241E-01 +3.603526E+02 
 +4.309056E+02 -7.408211E-01 -1.825466E+01 -7.408211E-01 +8.542317E+02 +1.753518E+00 -1.825466E+01 +1.753518E+00 +3.712811E+02 
 +4.298076E+02 -3.654098E+00 -1.394972E+01 -3.654098E+00 +8.444635E+02 -6.363238E+00 -1.394972E+01 -6.363238E+00 +3.638191E+02 
 +4.357414E+02 -2.920025E+00 -3.609145E+00 -2.920025E+00 +8.404360E+02 -1.359069E+01 -3.609145E+00 -1.359069E+01 +3.552485E+02 
 +5.339982E+02 -7.033997E+00 +7.172037E+00 -7.033997E+00 +8.835179E+02 -1.384299E+01 +7.172037E+00 -1.384299E+01 +3.645083E+02 
 +5.247421E+02 -7.754985E+00 +4.900258E-01 -7.754985E+00 +8.732258E+02 -1.642148E+01 +4.900258E-01 -1.642148E+01 +3.468414E+02 
 +5.135238E+02 -5.879428E+00 +1.294559E-01 -5.879428E+00 +8.716327E+02 -1.348665E+01 +1.294559E-01 -1.348665E+01 +3.597970E+02 
 +5.080737E+02 -8.444815E+00 +1.221540E+01 -8.444815E+00 +8.709462E+02 +2.012452E+00 +1.221540E+01 +2.012452E+00 +3.569353E+02 
 +5.081472E+02 -7.471560E+00 +7.890704E+00 -7.471560E+00 +8.802938E+02 +1.558452E+01 +7.890704E+00 +1.558452E+01 +3.751264E+02 
 +5.014510E+02 +9.734371E-01 +4.757874E+00 +9.734371E-01 +8.810916E+02 +1.531808E+01 +4.757874E+00 +1.531808E+01 +3.856657E+02 
 +5.101111E+02 +6.011359E+00 -3.109423E+00 +6.011359E+00 +8.745572E+02 +1.074948E+01 -3.109423E+00 +1.074948E+01 +3.898324E+02 
 +5.140953E+02 +7.716619E+00 -3.621455E+00 +7.716619E+00 +8.660065E+02 +9.088075E+00 -3.621455E+00 +9.088075E+00 +3.819792E+02 
 +5.003033E+02 -1.329693E+00 +1.267012E+01 -1.329693E+00 +8.664101E+02 +9.346061E-01 +1.267012E+01 +9.346061E-01 +3.674720E+02 
 +5.014160E+02 -1.750139E+00 +1.600792E+01 -1.750139E+00 +8.719633E+02 -4.879952E+00 +1.600792E+01 -4.879952E+00 +3.872132E+02 
 +5.001639E+02 +1.600823E-01 +1.230322E+01 +1.600823E-01 +8.662034E+02 -5.031693E+00 +1.230322E+01 -5.031693E+00 +4.036133E+02 
 +5.034318E+02 -2.033106E-02 +1.267191E+01 -2.033106E-02 +8.700502E+02 -4.693249E+00 +1.267191E+01 -4.693249E+00 +4.157126E+02 
 +5.035951E+02 -1.295324E-01 +1.942250E+01 -1.295324E-01 +8.677679E+02 -4.034601E+00 +1.942250E+01 -4.034601E+00 +3.918805E+02 
 +5.126017E+02 +1.035512E+01 -2.130523E+01 +1.035512E+01 +8.712257E+02 -3.181492E+00 -2.130523E+01 -3.181492E+00 +3.696298E+02 
 +5.023757E+02 +9.921864E+00 -1.372744E+01 +9.921864E+00 +8.732117E+02 +3.016337E+00 -1.372744E+01 +3.016337E+00 +3.606222E+02 
 +4.950126E+02 +5.076727E+00 -2.618505E+01 +5.076727E+00 +8.774257E+02 +8.091578E+00 -2.618505E+01 +8.091578E+00 +3.604801E+02 
 +4.842692E+02 +7.113617E+00 -1.616427E+01 +7.113617E+00 +8.758614E+02 +4.392595E+00 -1.616427E+01 +4.392595E+00 +3.658214E+02 
 +4.337694E+02 -2.070278E+00 -6.109659E+00 -2.070278E+00 +8.600474E+02 +1.133292E+01 -6.109659E+00 +1.133292E+01 +3.560911E+02 
 +4.339597E+02 -2.495602E+00 -1.633426E+01 -2.495602E+00 +8.564370E+02 +1.076465E+01 -1.633426E+01 +1.076465E+01 +3.648156E+02 
 +4.347937E+02 -3.024456E+00 -2.000519E+01 -3.024456E+00 +8.513688E+02 -4.384448E+00 -2.000519E+01 -4.384448E+00 +3.638308E+02 
 +4.460018E+02 -1.934418E+00 -8.354697E+00 -1.934418E+00 +8.457276E+02 -2.081997E+01 -8.354697E+00 -2.081997E+01 +3.543351E+02 
 +5.150996E+02 -1.197533E+00 +6.434614E+00 -1.197533E+00 +8.674768E+02 -1.972981E+01 +6.434614E+00 -1.972981E+01 +3.485540E+02 
 +5.249498E+02 -2.952476E+00 +4.273266E+00 -2.952476E+00 +8.675625E+02 -8.353013E+00 +4.273266E+00 -8.353013E+00 +3.494991E+02 
 +5.093135E+02 -5.181628E+00 +5.331194E+00 -5.181628E+00 +8.649006E+02 +1.273215E+00 +5.331194E+00 +1.273215E+00 +3.571827E+02 
 +5.048869E+02 -8.181631E+00 +1.276777E+01 -8.181631E+00 +8.645514E+02 +6.535523E+00 +1.276777E+01 +6.535523E+00 +3.582961E+02 
 +5.042651E+02 -3.284250E-01 -6.361611E+00 -3.284250E-01 +8.685151E+02 +6.955142E+00 -6.361611E+00 +6.955142E+00 +3.773644E+02 
 +5.034290E+02 +2.035589E+00 -8.873129E+00 +2.035589E+00 +8.721703E+02 +1.254584E+01 -8.873129E+00 +1.254584E+01 +3.835683E+02 
 +4.989101E+02 +5.070443E+00 -4.449681E+00 +5.070443E+00 +8.640266E+02 +1.411234E+01 -4.449681E+00 +1.411234E+01 +3.773971E+02 
 +4.999785E+02 +6.541211E+00 -5.714209E+00 +6.541211E+00 +8.484411E+02 +8.717675E+00 -5.714209E+00 +8.717675E+00 +3.733899E+02 
 +4.988584E+02 +4.448659E+00 -4.599707E+00 +4.448659E+00 +8.437974E+02 +2.180706E+00 -4.599707E+00 +2.180706E+00 +3.594887E+02 
 +4.852984E+02 -3.399943E+00 +1.279173E+01 -3.399943E+00 +8.547763E+02 -5.284365E+00 +1.279173E+01 -5.284365E+00 +3.640605E+02 
 +5.025422E+02 -1.865863E+00 +6.783235E+00 -1.865863E+00 +8.669758E+02 -8.811702E+00 +6.783235E+00 -8.811702E+00 +3.940765E+02 
 +5.160344E+02 +1.708732E+00 +2.322151E+01 +1.708732E+00 +8.667857E+02 -6.051808E+00 +2.322151E+01 -6.051808E+00 +4.111920E+02 
 +5.204809E+02 +7.924857E+00 +1.261287E+01 +7.924857E+00 +8.753678E+02 -6.366639E+00 +1.261287E+01 -6.366639E+00 +3.911826E+02 
 +5.065735E+02 +1.218405E+01 -1.221722E+01 +1.218405E+01 +8.842104E+02 -2.410133E+00 -1.221722E+01 -2.410133E+00 +3.639682E+02 
 +4.921390E+02 +6.308969E+00 -1.189320E+01 +6.308969E+00 +8.861565E+02 +6.590598E+00 -1.189320E+01 +6.590598E+00 +3.646736E+02 
 +4.867288E+02 -3.352268E+00 -2.351108E+01 -3.352268E+00 +8.851940E+02 +7.512558E+00 -2.351108E+01 +7.512558E+00 +3.621898E+02 
 +4.797946E+02 -2.467019E+00 -1.691431E+01 -2.467019E+00 +8.836877E+02 +9.007965E+00 -1.691431E+01 +9.007965E+00 +3.583256E+02 
 +4.534080E+02 -6.859534E+00 +3.896743E+00 -6.859534E+00 +8.574902E+02 +1.495664E+01 +3.896743E+00 +1.495664E+01 +3.712782E+02 
 +4.400700E+02 -6.910186E+00 -1.059137E+01 -6.910186E+00 +8.545437E+02 +1.146247E+01 -1.059137E+01 +1.146247E+01 +3.612897E+02 
 +4.587137E+02 -3.025856E+00 -1.594664E+01 -3.025856E+00 +8.606852E+02 -7.207594E-02 -1.594664E+01 -7.207594E-02 +3.695098E+02 
 +4.678192E+02 +2.221864E+00 -8.553567E+00 +2.221864E+00 +8.515475E+02 -1.503022E+01 -8.553567E+00 -1.503022E+01 +3.650397E+02 
 +5.058359E+02 +6.879777E+00 +3.585091E+00 +6.879777E+00 +8.621640E+02 -1.990429E+01 +3.585091E+00 -1.990429E+01 +3.520109E+02 
 +5.073075E+02 +2.128546E+00 +1.069575E+01 +2.128546E+00 +8.655038E+02 -6.236026E+00 +1.069575E+01 -6.236026E+00 +3.472196E+02 
 +5.024077E+02 +1.379917E-01 +4.471164E+00 +1.379917E-01 +8.630442E+02 +6.353425E+00 +4.471164E+00 +6.353425E+00 +3.465354E+02 
 +5.155874E+02 -5.499670E+00 +6.071249E+00 -5.499670E+00 +8.711159E+02 +4.194206E+00 +6.071249E+00 +4.194206E+00 +3.602398E+02 
 +5.069184E+02 +3.785987E+00 -1.082692E+01 +3.785987E+00 +8.696867E+02 +3.572726E+00 -1.082692E+01 +3.572726E+00 +3.741522E+02 
 +5.021678E+02 +6.674982E+00 -6.124638E+00 +6.674982E+00 +8.667292E+02 +9.808212E+00 -6.124638E+00 +9.808212E+00 +3.711860E+02 
 +4.952000E+02 +7.494741E+00 -3.006962E+00 +7.494741E+00 +8.622818E+02 +1.207014E+01 -3.006962E+00 +1.207014E+01 +3.625246E+02 
 +4.896592E+02 +4.735803E+00 -4.213147E+00 +4.735803E+00 +8.526686E+02 +9.308388E+00 -4.213147E+00 +9.308388E+00 +3.571692E+02 
 +4.922416E+02 +6.316378E+00 -1.612962E+01 +6.316378E+00 +8.354687E+02 +5.072805E+00 -1.612962E+01 +5.072805E+00 +3.479405E+02 
 +4.707891E+02 +2.014073E+00 -8.399272E+00 +2.014073E+00 +8.146804E+02 -8.158193E-01 -8.399272E+00 -8.158193E-01 +3.399949E+02 
 +4.691020E+02 -8.958234E-01 -7.129634E+00 -8.958234E-01 +8.228257E+02 -2.664702E+00 -7.129634E+00 -2.664702E+00 +3.539858E+02 
 +5.087822E+02 -1.750680E+00 +2.296695E+01 -1.750680E+00 +8.534966E+02 -2.152942E+00 +2.296695E+01 -2.152942E+00 +3.675149E+02 
 +5.214666E+02 +6.307532E+00 -7.113053E+00 +6.307532E+00 +8.764649E+02 -7.717828E+00 -7.113053E+00 -7.717828E+00 +3.634778E+02 
 +4.790075E+02 +4.350840E+00 +9.724029E+00 +4.350840E+00 +8.727068E+02 -3.593626E+00 +9.724029E+00 -3.593626E+00 +3.661631E+02 
 +4.775917E+02 -4.466511E+00 +4.767751E+00 -4.466511E+00 +8.782564E+02 +6.033924E+00 +4.767751E+00 +6.033924E+00 +3.893128E+02 
 +4.690588E+02 -8.938079E+00 -5.341241E+00 -8.938079E+00 +8.694911E+02 +6.297938E+00 -5.341241E+00 +6.297938E+00 +3.723795E+02 
 +4.644610E+02 -8.410495E+00 -9.998990E-01 -8.410495E+00 +8.623458E+02 +1.000238E+01 -9.998990E-01 +1.000238E+01 +3.645378E+02 
 +4.583698E+02 -4.561653E+00 +7.120677E+00 -4.561653E+00 +8.523456E+02 +1.067186E+01 +7.120677E+00 +1.067186E+01 +3.848662E+02 
 +4.568300E+02 -6.261525E+00 -2.971500E+00 -6.261525E+00 +8.505422E+02 +1.027439E+01 -2.971500E+00 +1.027439E+01 +3.701141E+02 
 +4.929175E+02 -6.223473E+00 -6.130341E+00 -6.223473E+00 +8.671293E+02 +2.926190E+00 -6.130341E+00 +2.926190E+00 +3.626945E+02 
 +4.878094E+02 +3.829135E-01 +2.440616E-01 +3.829135E-01 +8.591231E+02 -6.134912E+00 +2.440616E-01 -6.134912E+00 +3.433746E+02 
 +4.953679E+02 +7.397309E+00 +5.216184E+00 +7.397309E+00 +8.630300E+02 -6.349560E+00 +5.216184E+00 -6.349560E+00 +3.452762E+02 
 +4.931412E+02 +6.578512E+00 +1.513858E+01 +6.578512E+00 +8.566724E+02 -7.076627E-01 +1.513858E+01 -7.076627E-01 +3.489182E+02 
 +4.982386E+02 +8.232675E+00 +1.474873E+00 +8.232675E+00 +8.511067E+02 +1.172862E+00 +1.474873E+00 +1.172862E+00 +3.466620E+02 
 +5.057059E+02 +6.347319E+00 -1.001355E+00 +6.347319E+00 +8.607015E+02 +8.526250E-01 -1.001355E+00 +8.526250E-01 +3.534474E+02 
 +5.060855E+02 +8.850826E+00 -4.788235E+00 +8.850826E+00 +8.690454E+02 +4.346861E+00 -4.788235E+00 +4.346861E+00 +3.578490E+02 
 +5.026104E+02 +1.128161E+01 -2.545196E+00 +1.128161E+01 +8.675818E+02 +8.687553E+00 -2.545196E+00 +8.687553E+00 +3.538924E+02 
 +4.998256E+02 +1.311798E+01 -5.436231E+00 +1.311798E+01 +8.680044E+02 +7.868362E+00 -5.436231E+00 +7.868362E+00 +3.554983E+02 
 +4.988381E+02 +1.280860E+01 -7.280275E+00 +1.280860E+01 +8.636317E+02 +1.077034E+01 -7.280275E+00 +1.077034E+01 +3.539358E+02 
 +4.789858E+02 +1.279424E+01 -2.112861E+01 +1.279424E+01 +8.343641E+02 +6.561643E+00 -2.112861E+01 +6.561643E+00 +3.353130E+02 
 +4.627441E+02 +8.119459E+00 -2.328880E+01 +8.119459E+00 +8.158264E+02 -2.413703E+00 -2.328880E+01 -2.413703E+00 +3.360337E+02 
 +4.495980E+02 -1.711369E+00 -2.438238E+01 -1.711369E+00 +8.197374E+02 -2.939878E+00 -2.438238E+01 -2.939878E+00 +3.412552E+02 
 +4.904758E+02 -5.822499E+00 +1.466827E+00 -5.822499E+00 +8.546119E+02 -5.504808E+00 +1.466827E+00 -5.504808E+00 +3.363630E+02 
 +5.041445E+02 -3.502666E+00 -2.621652E+01 -3.502666E+00 +8.723585E+02 -2.506082E+00 -2.621652E+01 -2.506082E+00 +3.346296E+02 
 +4.674421E+02 -7.740957E+00 +7.587319E+00 -7.740957E+00 +8.628534E+02 -2.492741E+00 +7.587319E+00 -2.492741E+00 +3.621923E+02 
 +4.846239E+02 -8.603447E+00 +1.112299E+01 -8.603447E+00 +8.766242E+02 -3.942789E+00 +1.112299E+01 -3.942789E+00 +4.050710E+02 
 +4.689069E+02 -4.778509E+00 +4.488496E+00 -4.778509E+00 +8.651865E+02 +5.178465E+00 +4.488496E+00 +5.178465E+00 +3.958390E+02 
 +4.603252E+02 -5.214082E+00 +5.448320E+00 -5.214082E+00 +8.571973E+02 +9.107753E+00 +5.448320E+00 +9.107753E+00 +3.858694E+02 
 +4.587424E+02 +3.141646E+00 +9.253845E+00 +3.141646E+00 +8.527079E+02 +1.218610E+01 +9.253845E+00 +1.218610E+01 +3.951969E+02 
 +4.674125E+02 +2.840898E+00 +8.079757E+00 +2.840898E+00 +8.494324E+02 +7.537940E+00 +8.079757E+00 +7.537940E+00 +3.785967E+02 
 +5.073536E+02 -8.203723E+00 -2.020798E+00 -8.203723E+00 +8.642527E+02 -1.876411E+00 -2.020798E+00 -1.876411E+00 +3.556267E+02 
 +5.036170E+02 -5.041787E+00 +5.048173E+00 -5.041787E+00 +8.635498E+02 -6.175125E+00 +5.048173E+00 -6.175125E+00 +3.373637E+02 
 +5.005545E+02 -5.232637E-01 +9.378620E+00 -5.232637E-01 +8.657402E+02 +7.608798E-01 +9.378620E+00 +7.608798E-01 +3.550078E+02 
 +4.980574E+02 +2.137073E+00 +1.417038E+01 +2.137073E+00 +8.587421E+02 +5.775384E+00 +1.417038E+01 +5.775384E+00 +3.572247E+02 
 +5.013816E+02 +3.298712E+00 +1.004079E+01 +3.298712E+00 +8.578802E+02 +1.015086E+01 +1.004079E+01 +1.015086E+01 +3.537592E+02 
 +5.039866E+02 +6.198891E+00 -3.528395E+00 +6.198891E+00 +8.619196E+02 +1.113639E+01 -3.528395E+00 +1.113639E+01 +3.553021E+02 
 +5.031830E+02 +9.193905E+00 -3.131826E+00 +9.193905E+00 +8.654960E+02 +5.124712E+00 -3.131826E+00 +5.124712E+00 +3.450229E+02 
 +5.060748E+02 +1.182776E+01 -3.824776E+00 +1.182776E+01 +8.694901E+02 +4.024987E+00 -3.824776E+00 +4.024987E+00 +3.503045E+02 
 +5.118175E+02 +1.350173E+01 -9.102914E+00 +1.350173E+01 +8.726709E+02 +4.399697E+00 -9.102914E+00 +4.399697E+00 +3.621192E+02 
 +5.112190E+02 +9.178677E+00 +4.568034E+00 +9.178677E+00 +8.751007E+02 +1.415952E+01 +4.568034E+00 +1.415952E+01 +3.646377E+02 
 +4.733819E+02 +1.332334E+00 -2.681375E+01 +1.332334E+00 +8.591231E+02 +1.520054E+01 -2.681375E+01 +1.520054E+01 +3.388289E+02 
 +4.494385E+02 -7.299825E-01 -3.020802E+01 -7.299825E-01 +8.480174E+02 +1.484282E+00 -3.020802E+01 +1.484282E+00 +3.284539E+02 
 +4.385417E+02 -4.618405E+00 -4.122168E+01 -4.618405E+00 +8.430578E+02 -5.914255E+00 -4.122168E+01 -5.914255E+00 +3.265307E+02 
 +4.779296E+02 -6.408819E+00 -2.326669E+01 -6.408819E+00 +8.664678E+02 -1.020222E+01 -2.326669E+01 -1.020222E+01 +3.157361E+02 
 +4.856290E+02 -3.365914E+00 -3.006610E+01 -3.365914E+00 +8.699645E+02 -4.522953E+00 -3.006610E+01 -4.522953E+00 +3.136908E+02 
 +4.809847E+02 -4.714363E+00 -1.309714E+01 -4.714363E+00 +8.685244E+02 -6.266193E+00 -1.309714E+01 -6.266193E+00 +3.458368E+02 
 +5.004177E+02 -6.491194E+00 +1.178752E+01 -6.491194E+00 +8.839546E+02 -1.248192E+01 +1.178752E+01 -1.248192E+01 +3.926298E+02 
 +4.797734E+02 -2.331299E+00 +1.189227E+01 -2.331299E+00 +8.703991E+02 -1.817717E+00 +1.189227E+01 -1.817717E+00 +4.022945E+02 
 +4.611347E+02 +1.402964E+00 +5.069299E+00 +1.402964E+00 +8.575959E+02 +9.061195E+00 +5.069299E+00 +9.061195E+00 +3.968198E+02 
 +4.672853E+02 +1.602543E+00 +1.248452E+01 +1.602543E+00 +8.541655E+02 +7.740881E+00 +1.248452E+01 +7.740881E+00 +4.046863E+02 
 +4.611820E+02 +3.576374E+00 +1.856596E+01 +3.576374E+00 +8.361669E+02 +1.667878E+00 +1.856596E+01 +1.667878E+00 +3.646429E+02 
 +5.054156E+02 -3.290185E+00 +5.597825E+00 -3.290185E+00 +8.467466E+02 -2.782701E+00 +5.597825E+00 -2.782701E+00 +3.525189E+02 
 +5.084166E+02 +4.941024E+00 +5.363244E+00 +4.941024E+00 +8.488825E+02 +1.187300E+00 +5.363244E+00 +1.187300E+00 +3.495800E+02 
 +5.004403E+02 +3.595382E+00 +3.604605E+00 +3.595382E+00 +8.523948E+02 +5.563710E+00 +3.604605E+00 +5.563710E+00 +3.578142E+02 
 +4.948383E+02 +3.706399E+00 +6.282447E+00 +3.706399E+00 +8.515251E+02 +4.101578E+00 +6.282447E+00 +4.101578E+00 +3.573298E+02 
 +4.965546E+02 +5.872563E+00 +1.576114E+01 +5.872563E+00 +8.531209E+02 +4.953824E+00 +1.576114E+01 +4.953824E+00 +3.575293E+02 
 +4.981828E+02 +9.859444E+00 -7.689660E+00 +9.859444E+00 +8.580243E+02 +4.895189E+00 -7.689660E+00 +4.895189E+00 +3.537407E+02 
 +4.971259E+02 +8.460725E+00 -4.306474E+00 +8.460725E+00 +8.611646E+02 +5.164854E+00 -4.306474E+00 +5.164854E+00 +3.352189E+02 
 +5.095446E+02 +4.791508E+00 -6.201973E+00 +4.791508E+00 +8.751193E+02 +4.427306E+00 -6.201973E+00 +4.427306E+00 +3.555656E+02 
 +5.214532E+02 +4.197055E+00 -7.299131E+00 +4.197055E+00 +8.876686E+02 +6.166819E+00 -7.299131E+00 +6.166819E+00 +3.715380E+02 
 +4.965486E+02 -6.031605E+00 +2.966670E+01 -6.031605E+00 +8.755432E+02 +8.988221E+00 +2.966670E+01 +8.988221E+00 +3.587152E+02 
 +4.576034E+02 -1.023490E+01 -8.890337E+00 -1.023490E+01 +8.547693E+02 +4.862472E+00 -8.890337E+00 +4.862472E+00 +3.368929E+02 
 +4.302345E+02 -9.104932E+00 -3.148765E+01 -9.104932E+00 +8.454577E+02 -6.775163E+00 -3.148765E+01 -6.775163E+00 +3.208090E+02 
 +4.221257E+02 -8.975267E+00 -3.943915E+01 -8.975267E+00 +8.424252E+02 -1.425042E+01 -3.943915E+01 -1.425042E+01 +3.108975E+02 
 +4.787944E+02 -4.278316E+00 -2.655639E+01 -4.278316E+00 +8.668911E+02 -9.927441E+00 -2.655639E+01 -9.927441E+00 +3.021280E+02 
 +4.845006E+02 +1.969147E+00 -2.580954E+01 +1.969147E+00 +8.671214E+02 -2.910559E+00 -2.580954E+01 -2.910559E+00 +2.998809E+02 
 +4.901189E+02 +1.434464E+00 -2.404743E+01 +1.434464E+00 +8.718896E+02 +3.012559E-01 -2.404743E+01 +3.012559E-01 +3.338509E+02 
 +4.998040E+02 -4.411618E+00 +1.230469E+01 -4.411618E+00 +8.806707E+02 -5.350106E+00 +1.230469E+01 -5.350106E+00 +3.755438E+02 
 +4.893935E+02 -4.350670E+00 +2.042115E+01 -4.350670E+00 +8.736265E+02 -5.880277E+00 +2.042115E+01 -5.880277E+00 +3.869718E+02 
 +4.615376E+02 -2.058577E-04 +1.001985E+01 -2.058577E-04 +8.550949E+02 +3.753936E+00 +1.001985E+01 +3.753936E+00 +3.984282E+02 
 +4.501493E+02 -4.125111E-01 +1.677172E+01 -4.125111E-01 +8.381011E+02 -1.621338E-01 +1.677172E+01 -1.621338E-01 +3.916024E+02 
 +4.809760E+02 -5.715370E+00 +1.802816E+01 -5.715370E+00 +8.297153E+02 -7.771574E+00 +1.802816E+01 -7.771574E+00 +3.712694E+02 
 +5.057634E+02 -3.286412E+00 +1.082536E+01 -3.286412E+00 +8.230846E+02 -5.816467E+00 +1.082536E+01 -5.816467E+00 +3.789409E+02 
 +5.114065E+02 +7.643479E+00 +5.198663E+00 +7.643479E+00 +8.315728E+02 +3.461044E+00 +5.198663E+00 +3.461044E+00 +3.820382E+02 
 +5.081719E+02 +9.124972E+00 -1.591091E+00 +9.124972E+00 +8.464947E+02 +6.270572E+00 -1.591091E+00 +6.270572E+00 +3.637907E+02 
 +5.011909E+02 +1.010210E+01 -1.893998E+00 +1.010210E+01 +8.549457E+02 +3.450463E+00 -1.893998E+00 +3.450463E+00 +3.586882E+02 
 +4.845893E+02 +1.157924E+01 +1.000428E+01 +1.157924E+01 +8.473500E+02 -3.410719E+00 +1.000428E+01 -3.410719E+00 +3.573794E+02 
 +4.835956E+02 +1.499530E+01 -7.613276E+00 +1.499530E+01 +8.537766E+02 -5.214720E+00 -7.613276E+00 -5.214720E+00 +3.548409E+02 
 +4.901119E+02 +1.075628E+01 -2.603764E+00 +1.075628E+01 +8.642020E+02 +2.001692E+00 -2.603764E+00 +2.001692E+00 +3.394424E+02 
 +5.004209E+02 +4.679977E+00 -4.871420E+00 +4.679977E+00 +8.793332E+02 +2.787799E+00 -4.871420E+00 +2.787799E+00 +3.511080E+02 
 +4.976284E+02 -4.234002E+00 +1.383945E+00 -4.234002E+00 +8.817329E+02 +5.004777E+00 +1.383945E+00 +5.004777E+00 +3.620006E+02 
 +4.741605E+02 -1.624966E+01 +3.352028E+01 -1.624966E+01 +8.672577E+02 +6.682626E-01 +3.352028E+01 +6.682626E-01 +3.517365E+02 
 +4.485003E+02 -2.162623E+01 +2.090833E+01 -2.162623E+01 +8.542400E+02 -1.303584E+01 +2.090833E+01 -1.303584E+01 +3.381785E+02 
 +4.247935E+02 -1.828834E+01 -1.053580E+01 -1.828834E+01 +8.415865E+02 -2.046448E+01 -1.053580E+01 -2.046448E+01 +3.208937E+02 
 +4.319698E+02 -1.305877E+01 -1.511537E+01 -1.305877E+01 +8.441862E+02 -1.737622E+01 -1.511537E+01 -1.737622E+01 +3.076121E+02 
 +4.845126E+02 -4.509131E+00 -1.346958E+01 -4.509131E+00 +8.648158E+02 -6.502518E+00 -1.346958E+01 -6.502518E+00 +2.953257E+02 
 +4.920539E+02 -1.083356E+00 -2.247647E+01 -1.083356E+00 +8.641764E+02 +1.325500E+00 -2.247647E+01 +1.325500E+00 +2.878701E+02 
 +4.951244E+02 +7.675949E-01 -2.731509E+01 +7.675949E-01 +8.695512E+02 +3.891455E+00 -2.731509E+01 +3.891455E+00 +3.189162E+02 
 +4.975650E+02 -1.204340E+00 +8.154792E+00 -1.204340E+00 +8.770960E+02 -2.030289E-01 +8.154792E+00 -2.030289E-01 +3.606264E+02 
 +4.904475E+02 -1.582192E+00 +2.250895E+01 -1.582192E+00 +8.721405E+02 -3.814974E+00 +2.250895E+01 -3.814974E+00 +3.670438E+02 
 +4.595291E+02 -5.029244E-01 +1.511675E+01 -5.029244E-01 +8.515067E+02 -1.355326E-01 +1.511675E+01 -1.355326E-01 +3.840208E+02 
 +4.288481E+02 +4.416184E+00 +1.503075E+01 +4.416184E+00 +8.113888E+02 -7.005921E+00 +1.503075E+01 -7.005921E+00 +3.663668E+02 
 +4.695382E+02 -4.371811E+00 +7.121193E+00 -4.371811E+00 +7.964145E+02 -1.632492E+01 +7.121193E+00 -1.632492E+01 +3.727966E+02 
 +5.022574E+02 -3.522186E+00 +5.554051E+00 -3.522186E+00 +8.187349E+02 -1.216949E+01 +5.554051E+00 -1.216949E+01 +3.995872E+02 
 +5.119399E+02 +2.230363E+00 -3.442056E-01 +2.230363E+00 +8.310123E+02 -2.144713E+00 -3.442056E-01 -2.144713E+00 +4.056816E+02 
 +5.063450E+02 +2.233264E+00 -5.152734E+00 +2.233264E+00 +8.235853E+02 +1.634263E-01 -5.152734E+00 +1.634263E-01 +3.775982E+02 
 +4.844683E+02 -6.227305E+00 -9.381679E+00 -6.227305E+00 +8.252437E+02 +1.259473E-01 -9.381679E+00 +1.259473E-01 +3.521252E+02 
 +4.840879E+02 -5.030239E+00 -3.560693E+00 -5.030239E+00 +8.445195E+02 -4.159895E+00 -3.560693E+00 -4.159895E+00 +3.588747E+02 
 +4.780735E+02 +1.018237E+01 -4.483211E+00 +1.018237E+01 +8.505383E+02 -5.060507E+00 -4.483211E+00 -5.060507E+00 +3.581817E+02 
 +4.811054E+02 +1.062136E+01 +1.960258E+00 +1.062136E+01 +8.669286E+02 +4.574232E+00 +1.960258E+00 +4.574232E+00 +3.484541E+02 
 +4.880436E+02 +4.053252E-01 -2.530192E+00 +4.053252E-01 +8.855253E+02 +1.301136E+01 -2.530192E+00 +1.301136E+01 +3.525026E+02 
 +4.681653E+02 -1.260229E+01 +1.331798E+00 -1.260229E+01 +8.666289E+02 +2.199731E+01 +1.331798E+00 +2.199731E+01 +3.637065E+02 
 +4.519540E+02 -1.620466E+01 +9.395947E+00 -1.620466E+01 +8.430168E+02 +1.869874E+01 +9.395947E+00 +1.869874E+01 +3.585787E+02 
 +4.323237E+02 -1.682942E+01 +1.840836E+01 -1.682942E+01 +8.311279E+02 +2.596290E+00 +1.840836E+01 +2.596290E+00 +3.392984E+02 
 +4.276249E+02 -8.582072E+00 +1.452287E+01 -8.582072E+00 +8.295825E+02 -3.372187E+00 +1.452287E+01 -3.372187E+00 +3.111827E+02 
 +4.518836E+02 -4.216380E+00 +7.782243E+00 -4.216380E+00 +8.424514E+02 -1.099866E+00 +7.782243E+00 -1.099866E+00 +2.972851E+02 
 +4.876097E+02 +3.495691E+00 +1.457577E+00 +3.495691E+00 +8.624454E+02 +5.258961E-01 +1.457577E+00 +5.258961E-01 +2.978135E+02 
 +5.011623E+02 +5.609208E+00 -1.628171E+01 +5.609208E+00 +8.679594E+02 +2.444206E+00 -1.628171E+01 +2.444206E+00 +2.883433E+02 
 +5.128956E+02 +6.619128E+00 -2.155878E+01 +6.619128E+00 +8.793604E+02 +3.936562E+00 -2.155878E+01 +3.936562E+00 +3.109664E+02 
 +5.056839E+02 +3.778409E+00 +8.288885E+00 +3.778409E+00 +8.826438E+02 -4.347003E+00 +8.288885E+00 -4.347003E+00 +3.449982E+02 
 +4.826820E+02 +3.124507E+00 +2.865945E+01 +3.124507E+00 +8.675029E+02 -1.565174E+01 +2.865945E+01 -1.565174E+01 +3.404420E+02 
 +4.661572E+02 +2.267716E+00 +3.258015E+01 +2.267716E+00 +8.574215E+02 -9.299611E+00 +3.258015E+01 -9.299611E+00 +3.584000E+02 
 +4.480983E+02 -2.125003E+00 +3.358154E+00 -2.125003E+00 +8.274512E+02 -1.292141E+01 +3.358154E+00 -1.292141E+01 +3.654771E+02 
 +4.621613E+02 -5.097781E+00 -4.874486E+00 -5.097781E+00 +8.304826E+02 -9.295053E+00 -4.874486E+00 -9.295053E+00 +3.688306E+02 
 +4.746808E+02 -3.367499E+00 -1.104015E+01 -3.367499E+00 +8.159482E+02 -9.220637E+00 -1.104015E+01 -9.220637E+00 +3.672571E+02 
 +4.786244E+02 -5.957246E-01 -1.007158E+01 -5.957246E-01 +8.029755E+02 -1.029964E+01 -1.007158E+01 -1.029964E+01 +3.733905E+02 
 +4.806275E+02 -1.115851E+00 -1.065216E+01 -1.115851E+00 +8.153387E+02 -8.607081E+00 -1.065216E+01 -8.607081E+00 +3.738978E+02 
 +4.788770E+02 -1.203915E+01 -2.719371E+00 -1.203915E+01 +8.259138E+02 -5.924750E+00 -2.719371E+00 -5.924750E+00 +3.561426E+02 
 +4.847005E+02 -1.607372E+01 -1.345687E+00 -1.607372E+01 +8.393525E+02 +5.304636E+00 -1.345687E+00 +5.304636E+00 +3.585501E+02 
 +4.797394E+02 -1.001754E+01 -4.353531E-01 -1.001754E+01 +8.426352E+02 +1.418310E+01 -4.353531E-01 +1.418310E+01 +3.619094E+02 
 +4.810087E+02 +3.357258E+00 -1.830781E+00 +3.357258E+00 +8.477649E+02 +1.052309E+01 -1.830781E+00 +1.052309E+01 +3.539536E+02 
 +4.765716E+02 +1.841354E+00 -2.785902E+00 +1.841354E+00 +8.568408E+02 +5.129536E+00 -2.785902E+00 +5.129536E+00 +3.525207E+02 
 +4.573438E+02 -8.777428E+00 -2.400443E+00 -8.777428E+00 +8.555833E+02 +8.881675E+00 -2.400443E+00 +8.881675E+00 +3.677314E+02 
 +4.492762E+02 -5.569520E+00 -6.829003E+00 -5.569520E+00 +8.458035E+02 +9.202007E+00 -6.829003E+00 +9.202007E+00 +3.638377E+02 
 +4.432150E+02 +1.744994E+00 +5.899872E+00 +1.744994E+00 +8.377220E+02 +6.944740E+00 +5.899872E+00 +6.944740E+00 +3.450459E+02 
 +4.338418E+02 +6.231735E+00 +1.670324E+01 +6.231735E+00 +8.284615E+02 +6.343252E+00 +1.670324E+01 +6.343252E+00 +3.094846E+02 
 +4.635928E+02 +5.457150E+00 +1.117314E+01 +5.457150E+00 +8.419783E+02 +4.878513E+00 +1.117314E+01 +4.878513E+00 +3.067652E+02 
 +4.961140E+02 +8.595747E+00 +1.037443E+01 +8.595747E+00 +8.608375E+02 +6.364281E-01 +1.037443E+01 +6.364281E-01 +3.259582E+02 
 +5.116081E+02 +1.221760E+01 +2.050424E+00 +1.221760E+01 +8.672440E+02 -4.030023E+00 +2.050424E+00 -4.030023E+00 +3.135911E+02 
 +5.193542E+02 +1.124159E+01 -3.670720E+00 +1.124159E+01 +8.761314E+02 -3.570218E+00 -3.670720E+00 -3.570218E+00 +3.223622E+02 
 +5.011494E+02 +8.740207E-01 +1.098815E+01 +8.740207E-01 +8.672276E+02 -1.037085E+01 +1.098815E+01 -1.037085E+01 +3.428909E+02 
 +4.815081E+02 +2.967498E+00 +3.741904E+01 +2.967498E+00 +8.551344E+02 -2.076936E+01 +3.741904E+01 -2.076936E+01 +3.360657E+02 
 +4.767049E+02 +7.483991E-01 +5.177732E+01 +7.483991E-01 +8.494854E+02 -1.799458E+01 +5.177732E+01 -1.799458E+01 +3.489751E+02 
 +4.617159E+02 -1.371428E+01 -9.316912E+00 -1.371428E+01 +8.378369E+02 -3.970561E+00 -9.316912E+00 -3.970561E+00 +3.766239E+02 
 +4.649902E+02 -1.100983E+01 -8.529191E+00 -1.100983E+01 +8.457223E+02 +6.625010E+00 -8.529191E+00 +6.625010E+00 +3.652079E+02 
 +4.721121E+02 -8.910062E+00 -2.314857E+01 -8.910062E+00 +8.648953E+02 +5.817513E+00 -2.314857E+01 +5.817513E+00 +3.666869E+02 
 +4.895734E+02 -6.565830E+00 -1.849764E+01 -6.565830E+00 +8.832147E+02 -2.244104E+00 -1.849764E+01 -2.244104E+00 +3.833654E+02 
 +4.823955E+02 -7.383322E+00 -4.399687E+00 -7.383322E+00 +8.668969E+02 -4.556191E+00 -4.399687E+00 -4.556191E+00 +3.763108E+02 
 +5.147582E+02 -9.458380E+00 +1.486602E+01 -9.458380E+00 +8.747939E+02 -3.148123E-01 +1.486602E+01 -3.148123E-01 +3.827104E+02 
 +4.952117E+02 -6.997045E+00 +2.128378E+01 -6.997045E+00 +8.718847E+02 +6.155280E+00 +2.128378E+01 +6.155280E+00 +3.698859E+02 
 +5.031268E+02 -5.731638E+00 +1.067575E+01 -5.731638E+00 +8.786607E+02 +1.608715E+00 +1.067575E+01 +1.608715E+00 +3.821486E+02 
 +5.008765E+02 +1.230665E+00 +4.671420E-01 +1.230665E+00 +8.550198E+02 -2.977017E+00 +4.671420E-01 -2.977017E+00 +3.740553E+02 
 +4.912429E+02 +1.404899E+00 -5.183598E+00 +1.404899E+00 +8.469707E+02 +5.868749E+00 -5.183598E+00 +5.868749E+00 +3.627760E+02 
 +4.589590E+02 -1.366962E+01 -3.324347E+00 -1.366962E+01 +8.442444E+02 +9.344455E+00 -3.324347E+00 +9.344455E+00 +3.606486E+02 
 +4.537283E+02 -6.894755E+00 -8.962707E+00 -6.894755E+00 +8.473882E+02 +7.739571E+00 -8.962707E+00 +7.739571E+00 +3.552646E+02 
 +4.504356E+02 +1.971063E-01 +1.531029E+00 +1.971063E-01 +8.445534E+02 +5.920150E+00 +1.531029E+00 +5.920150E+00 +3.370657E+02 
 +4.294326E+02 +3.206115E+00 -2.817124E+00 +3.206115E+00 +8.234735E+02 -2.036145E+00 -2.817124E+00 -2.036145E+00 +3.007675E+02 
 +4.676443E+02 +3.508711E+00 +1.086569E+01 +3.508711E+00 +8.444408E+02 -1.089632E+00 +1.086569E+01 -1.089632E+00 +3.130785E+02 
 +5.015356E+02 +4.389062E+00 +1.324817E+01 +4.389062E+00 +8.625678E+02 +5.849239E+00 +1.324817E+01 +5.849239E+00 +3.416116E+02 
 +5.160739E+02 +6.956524E+00 +1.799370E+01 +6.956524E+00 +8.586242E+02 -1.337958E+00 +1.799370E+01 -1.337958E+00 +3.357818E+02 
 +5.191478E+02 +7.554351E+00 +1.257228E+01 +7.554351E+00 +8.504695E+02 -7.590481E+00 +1.257228E+01 -7.590481E+00 +3.414980E+02 
 +4.771006E+02 -5.119540E-01 +1.273078E+01 -5.119540E-01 +8.302448E+02 -9.553566E+00 +1.273078E+01 -9.553566E+00 +3.562318E+02 
 +4.887751E+02 -3.735522E-01 +3.033491E+01 -3.735522E-01 +8.369046E+02 -1.332720E+01 +3.033491E+01 -1.332720E+01 +3.693300E+02 
 +4.873180E+02 -7.666953E+00 +4.240626E+01 -7.666953E+00 +8.408053E+02 -1.441005E+01 +4.240626E+01 -1.441005E+01 +3.739413E+02 
 +4.705366E+02 -1.132913E+01 -2.229908E+01 -1.132913E+01 +8.453928E+02 +5.602338E-01 -2.229908E+01 +5.602338E-01 +3.861601E+02 
 +4.678348E+02 -1.144151E+01 -1.310549E+01 -1.144151E+01 +8.572136E+02 +8.528449E+00 -1.310549E+01 +8.528449E+00 +3.721021E+02 
 +4.543149E+02 -1.166798E+01 -1.686953E+01 -1.166798E+01 +8.630375E+02 +1.039495E+01 -1.686953E+01 +1.039495E+01 +3.626252E+02 
 +4.451963E+02 -7.047281E+00 -2.176585E+01 -7.047281E+00 +8.614771E+02 +5.844080E+00 -2.176585E+01 +5.844080E+00 +3.507619E+02 
 +4.855749E+02 -3.160592E+00 +1.956637E+01 -3.160592E+00 +8.796966E+02 +5.398126E+00 +1.956637E+01 +5.398126E+00 +3.661123E+02 
 +5.186279E+02 -4.878638E+00 +2.553904E+01 -4.878638E+00 +8.932650E+02 +1.455818E+01 +2.553904E+01 +1.455818E+01 +3.894750E+02 
 +5.009709E+02 -4.842549E+00 +3.706744E+01 -4.842549E+00 +8.750818E+02 +1.306977E+01 +3.706744E+01 +1.306977E+01 +3.723415E+02 
 +5.070765E+02 -3.819814E+00 +2.300803E+01 -3.819814E+00 +8.811007E+02 -3.690505E-01 +2.300803E+01 -3.690505E-01 +3.763043E+02 
 +5.039734E+02 -4.142214E+00 +2.083510E+01 -4.142214E+00 +8.731017E+02 -1.043320E+01 +2.083510E+01 -1.043320E+01 +3.791284E+02 
 +5.024905E+02 +3.411288E+00 -1.222024E+00 +3.411288E+00 +8.517565E+02 +2.019837E+00 -1.222024E+00 +2.019837E+00 +3.724595E+02 
 +4.643467E+02 -1.290765E+01 -8.882305E+00 -1.290765E+01 +8.379182E+02 +1.191052E+01 -8.882305E+00 +1.191052E+01 +3.583838E+02 
 +4.601325E+02 -1.293409E+01 -1.245779E+01 -1.293409E+01 +8.486608E+02 +8.904755E+00 -1.245779E+01 +8.904755E+00 +3.556489E+02 
 +4.532179E+02 -7.064179E+00 -1.277488E+01 -7.064179E+00 +8.428873E+02 -7.130489E-01 -1.277488E+01 -7.130489E-01 +3.269263E+02 
 +4.518100E+02 +1.014690E+00 -2.410654E+01 +1.014690E+00 +8.425289E+02 -9.488457E+00 -2.410654E+01 -9.488457E+00 +3.067749E+02 
 +4.825188E+02 +5.606969E+00 +6.777642E+00 +5.606969E+00 +8.562364E+02 -4.801320E+00 +6.777642E+00 -4.801320E+00 +3.252595E+02 
 +4.988140E+02 +6.202377E+00 +6.289372E+00 +6.202377E+00 +8.589507E+02 +3.940244E+00 +6.289372E+00 +3.940244E+00 +3.401490E+02 
 +5.269439E+02 +7.937568E+00 +1.766915E+01 +7.937568E+00 +8.618904E+02 +3.818404E+00 +1.766915E+01 +3.818404E+00 +3.536924E+02 
 +5.242357E+02 +6.608751E+00 +2.082498E+01 +6.608751E+00 +8.506947E+02 -3.583338E+00 +2.082498E+01 -3.583338E+00 +3.654010E+02 
 +4.763966E+02 +9.592963E-02 +1.591945E+01 +9.592963E-02 +8.308163E+02 -7.016736E+00 +1.591945E+01 -7.016736E+00 +3.744060E+02 
 +5.005587E+02 -2.597388E+00 +1.812854E+01 -2.597388E+00 +8.481577E+02 -9.223430E+00 +1.812854E+01 -9.223430E+00 +3.942839E+02 
 +4.984185E+02 -4.963077E+00 +2.353161E+01 -4.963077E+00 +8.489584E+02 -1.048721E+01 +2.353161E+01 -1.048721E+01 +3.955981E+02 
 +4.691561E+02 -1.106832E+01 -1.906857E+01 -1.106832E+01 +8.513429E+02 -7.927217E+00 -1.906857E+01 -7.927217E+00 +3.878126E+02 
 +4.577959E+02 -1.221424E+01 -1.400961E+01 -1.221424E+01 +8.594872E+02 +4.187283E+00 -1.400961E+01 +4.187283E+00 +3.682176E+02 
 +4.462970E+02 -1.182892E+01 -8.036888E+00 -1.182892E+01 +8.628811E+02 +1.020359E+01 -8.036888E+00 +1.020359E+01 +3.624156E+02 
 +4.311590E+02 -1.016842E+01 -1.484919E+01 -1.016842E+01 +8.503394E+02 +1.482912E+01 -1.484919E+01 +1.482912E+01 +3.417438E+02 
 +4.928519E+02 -4.369500E+00 +3.261214E+01 -4.369500E+00 +8.767000E+02 +1.389734E+01 +3.261214E+01 +1.389734E+01 +3.594427E+02 
 +4.962682E+02 -2.821233E-01 +2.486583E+01 -2.821233E-01 +8.749371E+02 +8.859970E+00 +2.486583E+01 +8.859970E+00 +3.697692E+02 
 +4.994631E+02 +3.102585E+00 +3.498759E+01 +3.102585E+00 +8.720556E+02 +5.197026E+00 +3.498759E+01 +5.197026E+00 +3.734277E+02 
 +5.007523E+02 +3.194155E+00 +2.473467E+01 +3.194155E+00 +8.690858E+02 -1.039059E+00 +2.473467E+01 -1.039059E+00 +3.635390E+02 
 +4.958321E+02 -2.082147E+00 +2.936595E+01 -2.082147E+00 +8.726906E+02 -1.085001E+01 +2.936595E+01 -1.085001E+01 +3.661765E+02 
 +5.043210E+02 +2.471162E-02 +1.627664E+01 +2.471162E-02 +8.774328E+02 -1.460282E+00 +1.627664E+01 -1.460282E+00 +3.794362E+02 
 +4.748185E+02 -1.048481E+01 -1.677064E+01 -1.048481E+01 +8.508029E+02 +9.128947E+00 -1.677064E+01 +9.128947E+00 +3.617170E+02 
 +4.682518E+02 -1.124212E+01 -1.504573E+01 -1.124212E+01 +8.516475E+02 +8.121991E-01 -1.504573E+01 +8.121991E-01 +3.557970E+02 
 +4.826812E+02 -1.073977E+00 -2.353908E+01 -1.073977E+00 +8.627253E+02 -8.126065E+00 -2.353908E+01 -8.126065E+00 +3.398805E+02 
 +4.896306E+02 +6.196311E+00 -2.372540E+01 +6.196311E+00 +8.604926E+02 -4.598423E+00 -2.372540E+01 -4.598423E+00 +3.325974E+02 
 +4.976333E+02 +9.774826E+00 -1.177460E+01 +9.774826E+00 +8.612245E+02 +1.473828E+00 -1.177460E+01 +1.473828E+00 +3.436137E+02 
 +5.028072E+02 +1.045390E+01 -9.208106E+00 +1.045390E+01 +8.589967E+02 +6.587063E-01 -9.208106E+00 +6.587063E-01 +3.457836E+02 
 +5.383262E+02 +8.105599E+00 +8.502141E+00 +8.105599E+00 +8.744224E+02 +6.641529E+00 +8.502141E+00 +6.641529E+00 +3.778265E+02 
 +5.047609E+02 +3.246428E+00 +2.271940E+01 +3.246428E+00 +8.511455E+02 +9.896106E+00 +2.271940E+01 +9.896106E+00 +3.848516E+02 
 +4.938492E+02 +3.505191E-01 +2.055626E+01 +3.505191E-01 +8.452175E+02 +7.741749E+00 +2.055626E+01 +7.741749E+00 +3.925980E+02 
 +5.008921E+02 -2.957072E+00 +1.104112E+01 -2.957072E+00 +8.531851E+02 +3.649034E+00 +1.104112E+01 +3.649034E+00 +3.928152E+02 
 +5.045152E+02 -5.059165E+00 +1.221796E+01 -5.059165E+00 +8.599788E+02 -7.138977E+00 +1.221796E+01 -7.138977E+00 +4.034818E+02 
 +4.614522E+02 -6.975147E+00 +5.702753E+00 -6.975147E+00 +8.591308E+02 -9.360477E+00 +5.702753E+00 -9.360477E+00 +3.914958E+02 
 +4.567868E+02 -1.041528E+01 -7.617511E-01 -1.041528E+01 +8.609702E+02 +1.896187E+00 -7.617511E-01 +1.896187E+00 +3.779092E+02 
 +4.478456E+02 -9.750245E+00 -1.468006E+00 -9.750245E+00 +8.610874E+02 +7.573905E+00 -1.468006E+00 +7.573905E+00 +3.780867E+02 
 +4.408720E+02 -7.544764E+00 -1.959295E+00 -7.544764E+00 +8.531327E+02 +1.740185E+01 -1.959295E+00 +1.740185E+01 +3.610420E+02 
 +4.898176E+02 -3.192769E+00 +2.234571E+01 -3.192769E+00 +8.681032E+02 +2.028790E+01 +2.234571E+01 +2.028790E+01 +3.578963E+02 
 +4.899588E+02 -2.919561E+00 +8.743241E+00 -2.919561E+00 +8.668553E+02 +5.591593E+00 +8.743241E+00 +5.591593E+00 +3.670119E+02 
 +5.020533E+02 -4.880825E-01 +2.664791E+01 -4.880825E-01 +8.794697E+02 -2.192078E+00 +2.664791E+01 -2.192078E+00 +3.815995E+02 
 +5.049676E+02 +2.294950E+00 +1.785752E+01 +2.294950E+00 +8.821672E+02 -2.073743E+00 +1.785752E+01 -2.073743E+00 +3.711411E+02 
 +4.989504E+02 -1.277633E+00 +2.324819E+01 -1.277633E+00 +8.840718E+02 -6.554294E+00 +2.324819E+01 -6.554294E+00 +3.686132E+02 
 +4.898733E+02 -2.179056E+00 +2.882929E+01 -2.179056E+00 +8.755040E+02 -9.740168E+00 +2.882929E+01 -9.740168E+00 +3.631182E+02 
 +4.880345E+02 -5.488476E+00 -7.882814E+00 -5.488476E+00 +8.671029E+02 -2.958683E+00 -7.882814E+00 -2.958683E+00 +3.691265E+02 
 +5.010939E+02 +7.251128E-01 -1.926620E+01 +7.251128E-01 +8.750021E+02 -2.396165E+00 -1.926620E+01 -2.396165E+00 +3.763219E+02 
 +5.130170E+02 +5.930342E+00 -1.892505E+01 +5.930342E+00 +8.768697E+02 -4.351873E+00 -1.892505E+01 -4.351873E+00 +3.630804E+02 
 +5.124573E+02 +7.108810E+00 -1.557341E+01 +7.108810E+00 +8.705757E+02 -1.325972E+00 -1.557341E+01 -1.325972E+00 +3.548612E+02 
 +5.070505E+02 +8.107635E+00 -1.866339E+01 +8.107635E+00 +8.637928E+02 -6.289056E-02 -1.866339E+01 -6.289056E-02 +3.486380E+02 
 +5.106995E+02 +6.339353E+00 -1.270362E+01 +6.339353E+00 +8.624163E+02 +3.964978E+00 -1.270362E+01 +3.964978E+00 +3.570960E+02 
 +5.226882E+02 +2.310292E+00 -1.651172E+00 +2.310292E+00 +8.743447E+02 +1.029958E+01 -1.651172E+00 +1.029958E+01 +3.866283E+02 
 +5.066767E+02 -8.189580E-02 +1.241819E+01 -8.189580E-02 +8.680785E+02 +1.887411E+01 +1.241819E+01 +1.887411E+01 +3.941984E+02 
 +5.013582E+02 +3.092266E+00 +1.465060E+01 +3.092266E+00 +8.565926E+02 +1.883264E+01 +1.465060E+01 +1.883264E+01 +3.914942E+02 
 +5.021819E+02 +1.589137E+00 -1.657643E+00 +1.589137E+00 +8.585291E+02 +1.168422E+01 -1.657643E+00 +1.168422E+01 +3.895636E+02 
 +5.050465E+02 -2.646933E+00 -3.394171E+00 -2.646933E+00 +8.756784E+02 -4.551440E+00 -3.394171E+00 -4.551440E+00 +4.091374E+02 
 +4.567410E+02 -7.464092E+00 +3.704857E+01 -7.464092E+00 +8.564872E+02 -3.789264E+00 +3.704857E+01 -3.789264E+00 +3.806276E+02 
 +4.624309E+02 -3.643195E+00 +3.034496E+01 -3.643195E+00 +8.597640E+02 +3.442470E+00 +3.034496E+01 +3.442470E+00 +3.805125E+02 
 +4.657634E+02 -3.785310E+00 +2.620318E+01 -3.785310E+00 +8.579645E+02 +5.986167E+00 +2.620318E+01 +5.986167E+00 +3.725478E+02 
 +4.684632E+02 -7.124003E-01 +2.589775E+01 -7.124003E-01 +8.639197E+02 +1.109464E+01 +2.589775E+01 +1.109464E+01 +3.640541E+02 
 +4.858510E+02 +1.955011E+00 +2.092209E+01 +1.955011E+00 +8.787349E+02 +1.525141E+01 +2.092209E+01 +1.525141E+01 +3.685194E+02 
 +4.839092E+02 -4.257579E-01 +5.164227E+00 -4.257579E-01 +8.771360E+02 +9.164392E+00 +5.164227E+00 +9.164392E+00 +3.798904E+02 
 +5.041112E+02 -1.376293E+00 +1.372970E+01 -1.376293E+00 +8.837031E+02 -4.918507E+00 +1.372970E+01 -4.918507E+00 +3.948977E+02 
 +5.065569E+02 -6.094279E-01 +1.997569E+01 -6.094279E-01 +8.846535E+02 -1.476074E+01 +1.997569E+01 -1.476074E+01 +3.885815E+02 
 +5.051564E+02 +3.062155E+00 +1.975952E+01 +3.062155E+00 +8.846210E+02 -1.840929E+01 +1.975952E+01 -1.840929E+01 +3.733088E+02 
 +5.070385E+02 +7.234501E+00 +2.079482E+01 +7.234501E+00 +8.854781E+02 -2.595605E+01 +2.079482E+01 -2.595605E+01 +3.554765E+02 
 +4.970069E+02 +8.300541E+00 +1.782681E+01 +8.300541E+00 +8.838435E+02 -2.019453E+01 +1.782681E+01 -2.019453E+01 +3.431415E+02 
 +5.069224E+02 +1.022398E+01 -2.444828E+01 +1.022398E+01 +8.888346E+02 -9.946773E+00 -2.444828E+01 -9.946773E+00 +3.709863E+02 
 +5.165313E+02 +1.331853E+01 -1.811867E+01 +1.331853E+01 +8.834504E+02 -6.326244E+00 -1.811867E+01 -6.326244E+00 +3.856456E+02 
 +5.189886E+02 +1.141733E+01 -1.690260E+01 +1.141733E+01 +8.747586E+02 +3.247487E+00 -1.690260E+01 +3.247487E+00 +3.776679E+02 
 +5.106726E+02 +5.749219E+00 -1.394832E+01 +5.749219E+00 +8.631209E+02 +1.266396E+01 -1.394832E+01 +1.266396E+01 +3.767241E+02 
 +5.041992E+02 -4.424999E-01 -1.081478E+01 -4.424999E-01 +8.566045E+02 +1.701456E+01 -1.081478E+01 +1.701456E+01 +3.749902E+02 
 +5.042618E+02 +7.123527E-01 -1.210197E+01 +7.123527E-01 +8.564688E+02 +1.557623E+01 -1.210197E+01 +1.557623E+01 +3.811354E+02 
 +5.067773E+02 +1.203869E-01 -1.129887E+01 +1.203869E-01 +8.584774E+02 +9.693644E+00 -1.129887E+01 +9.693644E+00 +3.971526E+02 
 +4.993947E+02 -2.179820E+00 -2.674142E+00 -2.179820E+00 +8.616798E+02 +5.948580E-01 -2.674142E+00 +5.948580E-01 +4.104421E+02 
 +4.914010E+02 -3.635858E-01 -2.093934E+00 -3.635858E-01 +8.618161E+02 +9.183173E-01 -2.093934E+00 +9.183173E-01 +4.014776E+02 
 +4.967003E+02 -5.050103E+00 -1.598737E+01 -5.050103E+00 +8.692169E+02 -1.387922E+00 -1.598737E+01 -1.387922E+00 +3.936721E+02 
 +4.735934E+02 -3.834974E-01 +4.101571E+01 -3.834974E-01 +8.678216E+02 +1.316414E+01 +4.101571E+01 +1.316414E+01 +3.968752E+02 
 +4.693333E+02 +1.864197E+00 +2.192225E+01 +1.864197E+00 +8.653070E+02 +3.757792E+00 +2.192225E+01 +3.757792E+00 +3.840537E+02 
 +4.637899E+02 +4.312758E+00 +2.822081E+01 +4.312758E+00 +8.596377E+02 +8.018811E-01 +2.822081E+01 +8.018811E-01 +3.741224E+02 
 +4.643602E+02 +4.605190E+00 +3.129665E+01 +4.605190E+00 +8.622724E+02 +4.876070E+00 +3.129665E+01 +4.876070E+00 +3.641046E+02 
 +4.794553E+02 +4.698864E+00 +1.872690E+01 +4.698864E+00 +8.758971E+02 +8.378327E+00 +1.872690E+01 +8.378327E+00 +3.747932E+02 
 +4.818933E+02 +3.832246E+00 +1.593160E+00 +3.832246E+00 +8.806417E+02 +9.294423E+00 +1.593160E+00 +9.294423E+00 +3.862935E+02 
 +4.867502E+02 +4.135096E+00 +1.675133E+00 +4.135096E+00 +8.788590E+02 +1.004101E-01 +1.675133E+00 +1.004101E-01 +3.903776E+02 
 +5.134095E+02 +5.853858E+00 +1.775309E+01 +5.853858E+00 +8.839542E+02 -1.545553E+01 +1.775309E+01 -1.545553E+01 +3.951490E+02 
 +5.032798E+02 +6.263348E+00 +1.895523E+01 +6.263348E+00 +8.705483E+02 -2.183938E+01 +1.895523E+01 -2.183938E+01 +3.756702E+02 
 +5.183206E+02 +9.937609E+00 +1.587122E+01 +9.937609E+00 +8.796978E+02 -1.880947E+01 +1.587122E+01 -1.880947E+01 +3.587721E+02 
 +5.276425E+02 +1.059649E+01 +1.766839E+01 +1.059649E+01 +8.878930E+02 -1.812417E+01 +1.766839E+01 -1.812417E+01 +3.525273E+02 
 +5.004000E+02 +1.102482E+01 -2.233506E+01 +1.102482E+01 +8.708158E+02 -1.194630E+01 -2.233506E+01 -1.194630E+01 +3.723860E+02 
 +5.201395E+02 +1.451357E+01 -1.564434E+01 +1.451357E+01 +8.764478E+02 -1.607379E-01 -1.564434E+01 -1.607379E-01 +4.112090E+02 
 +5.187919E+02 +1.186409E+01 -1.879664E+01 +1.186409E+01 +8.701328E+02 +6.273317E+00 -1.879664E+01 +6.273317E+00 +4.040017E+02 
 +4.975686E+02 +7.224091E+00 -1.613861E+01 +7.224091E+00 +8.582398E+02 +1.137951E+01 -1.613861E+01 +1.137951E+01 +3.774513E+02 
 +4.911834E+02 +3.698925E+00 -1.327934E+01 +3.698925E+00 +8.548865E+02 +1.501269E+01 -1.327934E+01 +1.501269E+01 +3.636442E+02 
 +4.946848E+02 +3.966098E+00 -1.255943E+01 +3.966098E+00 +8.548522E+02 +1.573166E+01 -1.255943E+01 +1.573166E+01 +3.661501E+02 
 +4.939416E+02 +6.489285E+00 -1.503858E+01 +6.489285E+00 +8.551196E+02 +1.209407E+01 -1.503858E+01 +1.209407E+01 +3.813546E+02 
 +5.039368E+02 +5.878940E+00 -1.378558E+01 +5.878940E+00 +8.662908E+02 +6.411383E+00 -1.378558E+01 +6.411383E+00 +4.109579E+02 
 +4.958166E+02 +5.170954E+00 +1.681205E+00 +5.170954E+00 +8.643092E+02 +2.978338E+00 +1.681205E+00 +2.978338E+00 +4.064113E+02 
 +5.011707E+02 +1.900482E+00 -7.463761E+00 +1.900482E+00 +8.737802E+02 +1.064428E+01 -7.463761E+00 +1.064428E+01 +4.072001E+02 
 +4.931905E+02 +1.232636E+00 +2.414894E+01 +1.232636E+00 +8.673608E+02 +9.621151E+00 +2.414894E+01 +9.621151E+00 +4.118610E+02 
 +4.737417E+02 +1.124585E+00 +3.003197E+00 +1.124585E+00 +8.635943E+02 +8.892152E-01 +3.003197E+00 +8.892152E-01 +3.843758E+02 
 +4.551205E+02 +4.391650E+00 +2.378510E+01 +4.391650E+00 +8.584213E+02 +4.235890E+00 +2.378510E+01 +4.235890E+00 +3.612395E+02 
 +4.577825E+02 +7.212457E+00 +2.727569E+01 +7.212457E+00 +8.640386E+02 +2.471115E+00 +2.727569E+01 +2.471115E+00 +3.543508E+02 
 +4.776365E+02 +7.438898E+00 +1.741358E+01 +7.438898E+00 +8.794816E+02 -1.220411E+00 +1.741358E+01 -1.220411E+00 +3.717752E+02 
 +4.890850E+02 +6.279297E+00 +1.795886E+00 +6.279297E+00 +8.886875E+02 -5.163265E+00 +1.795886E+00 -5.163265E+00 +3.890030E+02 
 +4.823119E+02 +5.583072E+00 +1.184358E+00 +5.583072E+00 +8.783427E+02 -1.187315E+01 +1.184358E+00 -1.187315E+01 +3.943964E+02 
 +4.996349E+02 +7.302782E+00 +1.792176E+01 +7.302782E+00 +8.692096E+02 -1.773107E+01 +1.792176E+01 -1.773107E+01 +3.959003E+02 
 +4.937435E+02 +8.738252E+00 +2.160865E+01 +8.738252E+00 +8.569639E+02 -2.210036E+01 +2.160865E+01 -2.210036E+01 +3.833978E+02 
 +5.055484E+02 +6.779309E+00 +1.773486E+01 +6.779309E+00 +8.567856E+02 -2.287187E+01 +1.773486E+01 -2.287187E+01 +3.693414E+02 
 +5.584093E+02 -1.614908E+00 +9.200977E-01 -1.614908E+00 +8.745703E+02 -2.265319E+01 +9.200977E-01 -2.265319E+01 +3.868226E+02 
 +5.149615E+02 +5.318665E+00 -2.239125E+01 +5.318665E+00 +8.614306E+02 -1.171284E+01 -2.239125E+01 -1.171284E+01 +3.877836E+02 
 +5.120640E+02 +8.407319E+00 -2.357417E+01 +8.407319E+00 +8.744335E+02 +1.011625E+00 -2.357417E+01 +1.011625E+00 +4.013542E+02 
 +5.099112E+02 +7.308987E+00 -1.973618E+01 +7.308987E+00 +8.730210E+02 +4.975493E+00 -1.973618E+01 +4.975493E+00 +3.966979E+02 
 +5.005212E+02 +3.808950E+00 -1.670080E+01 +3.808950E+00 +8.667379E+02 +5.424512E+00 -1.670080E+01 +5.424512E+00 +3.801066E+02 
 +4.872251E+02 +2.364889E+00 -3.557282E+00 +2.364889E+00 +8.555459E+02 +8.958563E+00 -3.557282E+00 +8.958563E+00 +3.564049E+02 
 +4.851599E+02 +3.980967E+00 -1.547463E+01 +3.980967E+00 +8.523621E+02 +1.345087E+01 -1.547463E+01 +1.345087E+01 +3.498514E+02 
 +4.824784E+02 +5.547629E+00 -1.507411E+01 +5.547629E+00 +8.526956E+02 +1.062438E+01 -1.507411E+01 +1.062438E+01 +3.655117E+02 
 +4.917836E+02 +3.015177E+00 -1.142299E+01 +3.015177E+00 +8.615711E+02 +1.178481E+01 -1.142299E+01 +1.178481E+01 +3.959187E+02 
 +4.961526E+02 -4.929037E-01 +1.589739E+01 -4.929037E-01 +8.626239E+02 +1.791174E+01 +1.589739E+01 +1.791174E+01 +4.132068E+02 
 +5.002801E+02 -8.526942E-01 +1.319607E+01 -8.526942E-01 +8.652435E+02 +2.081048E+01 +1.319607E+01 +2.081048E+01 +4.240989E+02 
 +4.964646E+02 -1.906395E+00 +1.087971E+01 -1.906395E+00 +8.646282E+02 -6.457873E+00 +1.087971E+01 -6.457873E+00 +4.084609E+02 
 +4.701034E+02 -7.472178E+00 -8.353934E+00 -7.472178E+00 +8.578740E+02 -5.050609E+00 -8.353934E+00 -5.050609E+00 +3.802536E+02 
 +4.552285E+02 -4.280064E+00 +6.645224E+00 -4.280064E+00 +8.553745E+02 -3.236352E+00 +6.645224E+00 -3.236352E+00 +3.493265E+02 
 +4.693444E+02 +3.120271E+00 +9.172065E+00 +3.120271E+00 +8.702406E+02 -8.752346E+00 +9.172065E+00 -8.752346E+00 +3.572989E+02 
 +4.812494E+02 +6.414723E+00 +7.785225E+00 +6.414723E+00 +8.854231E+02 -1.782331E+01 +7.785225E+00 -1.782331E+01 +3.782078E+02 
 +5.039119E+02 +5.635718E+00 +2.414538E-01 +5.635718E+00 +8.991458E+02 -1.823905E+01 +2.414538E-01 -1.823905E+01 +3.990260E+02 
 +5.002645E+02 +5.350536E+00 +5.477203E+00 +5.350536E+00 +8.897628E+02 -1.811560E+01 +5.477203E+00 -1.811560E+01 +4.051477E+02 
 +4.821342E+02 +7.544339E+00 +2.755793E+01 +7.544339E+00 +8.674907E+02 -1.769108E+01 +2.755793E+01 -1.769108E+01 +3.975954E+02 
 +4.906498E+02 +1.439730E+01 +2.374134E+01 +1.439730E+01 +8.651834E+02 -9.935445E+00 +2.374134E+01 -9.935445E+00 +3.996274E+02 
 +5.156875E+02 +1.062621E+01 +1.097217E+01 +1.062621E+01 +8.670229E+02 -1.357007E+01 +1.097217E+01 -1.357007E+01 +3.966342E+02 
 +5.539896E+02 -9.912502E-02 -9.341030E+00 -9.912502E-02 +8.688565E+02 -2.511376E+01 -9.341030E+00 -2.511376E+01 +3.951599E+02 
 +5.240113E+02 +3.501447E+00 -7.090032E+00 +3.501447E+00 +8.563813E+02 -1.757525E+01 -7.090032E+00 -1.757525E+01 +3.854677E+02 
 +4.996363E+02 -3.242666E+00 -1.561032E+01 -3.242666E+00 +8.650734E+02 -4.344739E+00 -1.561032E+01 -4.344739E+00 +3.833354E+02 
 +5.105031E+02 -2.432918E+00 -1.248589E+01 -2.432918E+00 +8.781062E+02 -2.543289E+00 -1.248589E+01 -2.543289E+00 +3.822385E+02 
 +5.036703E+02 -2.459498E+00 -3.075673E+00 -2.459498E+00 +8.684204E+02 +1.936936E+00 -3.075673E+00 +1.936936E+00 +3.717467E+02 
 +4.939369E+02 -1.267374E+00 +2.079902E+01 -1.267374E+00 +8.599326E+02 +6.098104E-01 +2.079902E+01 +6.098104E-01 +3.566439E+02 
 +4.728467E+02 -6.086876E-01 +1.235462E+00 -6.086876E-01 +8.487958E+02 +3.767022E+00 +1.235462E+00 +3.767022E+00 +3.356825E+02 
 +4.720674E+02 +1.097520E+00 -1.537201E+01 +1.097520E+00 +8.510720E+02 +6.596445E+00 -1.537201E+01 +6.596445E+00 +3.489773E+02 
 +4.819624E+02 +1.020928E+00 -8.710156E+00 +1.020928E+00 +8.563123E+02 +7.747802E+00 -8.710156E+00 +7.747802E+00 +3.797304E+02 
 +4.843254E+02 -6.699137E-01 +1.243148E+01 -6.699137E-01 +8.547762E+02 +1.291314E+01 +1.243148E+01 +1.291314E+01 +3.963377E+02 
 +4.937479E+02 -6.195766E-01 +7.698430E+00 -6.195766E-01 +8.594280E+02 +3.344738E+00 +7.698430E+00 +3.344738E+00 +4.083137E+02 
 +4.821497E+02 -3.577673E+00 +5.960128E+00 -3.577673E+00 +8.629602E+02 -9.676751E+00 +5.960128E+00 -9.676751E+00 +3.979174E+02 
 +4.666330E+02 -8.106052E+00 -5.675053E+00 -8.106052E+00 +8.560980E+02 -1.330941E+01 -5.675053E+00 -1.330941E+01 +3.812842E+02 
 +4.647220E+02 -7.346337E+00 -1.071951E+01 -7.346337E+00 +8.535885E+02 -1.977664E+01 -1.071951E+01 -1.977664E+01 +3.549283E+02 
 +4.777726E+02 -2.386955E+00 -2.560842E+00 -2.386955E+00 +8.666986E+02 -2.326362E+01 -2.560842E+00 -2.326362E+01 +3.668551E+02 
 +4.866235E+02 -2.748250E+00 -2.072811E+00 -2.748250E+00 +8.708353E+02 -1.314307E+01 -2.072811E+00 -1.314307E+01 +3.813241E+02 
 +4.896565E+02 -4.231715E+00 +2.351152E+00 -4.231715E+00 +8.528879E+02 +4.258725E+00 +2.351152E+00 +4.258725E+00 +3.729143E+02 
 +5.019475E+02 +1.893929E+00 -1.227012E-01 +1.893929E+00 +8.595319E+02 +9.620366E+00 -1.227012E-01 +9.620366E+00 +3.915923E+02 
 +4.756874E+02 +8.875946E+00 +2.945258E+01 +8.875946E+00 +8.639006E+02 -1.274625E+00 +2.945258E+01 -1.274625E+00 +3.970177E+02 
 +4.780814E+02 +1.628533E+01 +1.891147E+01 +1.628533E+01 +8.572534E+02 -1.066160E+01 +1.891147E+01 -1.066160E+01 +3.956768E+02 
 +5.156125E+02 +1.121698E+01 +2.767410E+00 +1.121698E+01 +8.548708E+02 -1.847619E+01 +2.767410E+00 -1.847619E+01 +3.965611E+02 
 +5.194977E+02 +5.815717E+00 -7.403850E+00 +5.815717E+00 +8.639618E+02 -2.082615E+01 -7.403850E+00 -2.082615E+01 +3.782831E+02 
 +5.034126E+02 +2.815607E+00 +1.735058E+01 +2.815607E+00 +8.672305E+02 -1.305973E+01 +1.735058E+01 -1.305973E+01 +3.771871E+02 
 +4.982132E+02 -7.767830E+00 +7.335129E+00 -7.767830E+00 +8.647786E+02 +1.337645E+00 +7.335129E+00 +1.337645E+00 +3.814964E+02 
 +5.321936E+02 -1.066485E+01 -1.484765E+01 -1.066485E+01 +8.838552E+02 -1.177236E+00 -1.484765E+01 -1.177236E+00 +3.830045E+02 
 +4.921303E+02 -1.208199E+01 +1.918778E+01 -1.208199E+01 +8.535226E+02 -7.047139E+00 +1.918778E+01 -7.047139E+00 +3.552784E+02 
 +4.921671E+02 -1.089202E+01 +3.019707E+01 -1.089202E+01 +8.551375E+02 -3.270804E+00 +3.019707E+01 -3.270804E+00 +3.592712E+02 
 +4.747309E+02 -9.148415E+00 +1.517875E+01 -9.148415E+00 +8.511638E+02 -3.171214E+00 +1.517875E+01 -3.171214E+00 +3.396735E+02 
 +4.752495E+02 -5.544372E+00 -1.623007E+01 -5.544372E+00 +8.516702E+02 -2.718610E+00 -1.623007E+01 -2.718610E+00 +3.433774E+02 
 +4.792653E+02 -3.853868E+00 -1.098188E+01 -3.853868E+00 +8.551630E+02 -2.280001E+00 -1.098188E+01 -2.280001E+00 +3.709175E+02 
 +4.812055E+02 -3.956801E+00 -3.802028E+00 -3.956801E+00 +8.587998E+02 -2.775753E+00 -3.802028E+00 -2.775753E+00 +3.803923E+02 
 +4.846309E+02 -3.209769E+00 -3.358013E+00 -3.209769E+00 +8.622362E+02 -5.202250E+00 -3.358013E+00 -5.202250E+00 +3.888419E+02 
 +4.663447E+02 -3.368022E+00 -3.400250E+00 -3.368022E+00 +8.551816E+02 -1.647544E+01 -3.400250E+00 -1.647544E+01 +3.885317E+02 
 +4.615602E+02 -4.262962E+00 -4.630827E-01 -4.262962E+00 +8.486122E+02 -1.916142E+01 -4.630827E-01 -1.916142E+01 +3.826487E+02 
 +4.583012E+02 -6.322907E+00 -2.172302E+01 -6.322907E+00 +8.452719E+02 -2.232956E+01 -2.172302E+01 -2.232956E+01 +3.522382E+02 
 +4.739915E+02 -5.242240E+00 +5.008795E+00 -5.242240E+00 +8.480320E+02 -1.620716E+01 +5.008795E+00 -1.620716E+01 +3.534442E+02 
 +4.841035E+02 -7.316841E+00 +1.313056E+00 -7.316841E+00 +8.377333E+02 +4.183920E+00 +1.313056E+00 +4.183920E+00 +3.573900E+02 
 +4.899138E+02 -6.712449E+00 +5.781213E+00 -6.712449E+00 +8.361844E+02 +1.369372E+01 +5.781213E+00 +1.369372E+01 +3.497528E+02 
 +5.080600E+02 +1.283403E+00 -4.245231E+00 +1.283403E+00 +8.561645E+02 +1.115742E+01 -4.245231E+00 +1.115742E+01 +3.770812E+02 
 +4.797857E+02 +6.609543E+00 +1.400112E+01 +6.609543E+00 +8.427924E+02 -4.128376E+00 +1.400112E+01 -4.128376E+00 +3.816243E+02 
 +4.666504E+02 +1.102342E+01 +1.396194E+01 +1.102342E+01 +8.340270E+02 -1.750143E+01 +1.396194E+01 -1.750143E+01 +3.847108E+02 
 +4.952693E+02 +8.045074E+00 +2.257698E+00 +8.045074E+00 +8.539852E+02 -1.665950E+01 +2.257698E+00 -1.665950E+01 +3.950448E+02 
 +4.995333E+02 +6.332719E+00 -5.364708E+00 +6.332719E+00 +8.655963E+02 -1.253619E+01 -5.364708E+00 -1.253619E+01 +3.850344E+02 
 +4.848759E+02 +6.513390E+00 +2.107036E+01 +6.513390E+00 +8.657184E+02 -1.093190E+01 +2.107036E+01 -1.093190E+01 +3.673606E+02 
 +4.889762E+02 +1.904063E+00 +1.552621E+01 +1.904063E+00 +8.620218E+02 -3.782136E+00 +1.552621E+01 -3.782136E+00 +3.643646E+02 
 +5.333166E+02 -6.844173E+00 -2.104978E+01 -6.844173E+00 +8.775604E+02 +5.443519E+00 -2.104978E+01 +5.443519E+00 +3.796917E+02 
 +4.959175E+02 -1.130812E+01 +2.574421E+01 -1.130812E+01 +8.659358E+02 -4.545257E+00 +2.574421E+01 -4.545257E+00 +3.608524E+02 
 +5.003950E+02 -1.014801E+01 +2.339037E+01 -1.014801E+01 +8.731675E+02 -1.580788E+01 +2.339037E+01 -1.580788E+01 +3.753920E+02 
 +4.864396E+02 -7.247855E+00 +6.533849E+00 -7.247855E+00 +8.520394E+02 -1.200605E+01 +6.533849E+00 -1.200605E+01 +3.531158E+02 
 +4.780548E+02 -5.775368E+00 -1.653021E+01 -5.775368E+00 +8.471576E+02 -8.169671E+00 -1.653021E+01 -8.169671E+00 +3.436842E+02 
 +4.793878E+02 -4.764898E+00 -1.315417E+01 -4.764898E+00 +8.568663E+02 -7.683819E+00 -1.315417E+01 -7.683819E+00 +3.664603E+02 
 +4.808547E+02 -4.148325E+00 -1.045528E+01 -4.148325E+00 +8.607447E+02 -7.694179E+00 -1.045528E+01 -7.694179E+00 +3.728426E+02 
 +4.777417E+02 -3.953758E+00 -6.085609E+00 -3.953758E+00 +8.626592E+02 -9.760584E+00 -6.085609E+00 -9.760584E+00 +3.815650E+02 
 +4.638033E+02 +8.116666E-02 -1.178708E+01 +8.116666E-02 +8.543077E+02 -1.277047E+01 -1.178708E+01 -1.277047E+01 +3.848478E+02 
 +4.461906E+02 -2.798195E-01 -3.445091E+00 -2.798195E-01 +8.423178E+02 -2.038117E+01 -3.445091E+00 -2.038117E+01 +3.782625E+02 
 +4.323979E+02 -5.682583E+00 -1.999815E+01 -5.682583E+00 +8.317153E+02 -1.830563E+01 -1.999815E+01 -1.830563E+01 +3.389350E+02 
 +4.990092E+02 -1.155268E+01 +1.573734E+01 -1.155268E+01 +8.675285E+02 -1.122952E+01 +1.573734E+01 -1.122952E+01 +3.468126E+02 
 +5.162930E+02 -1.181567E+01 +9.315570E+00 -1.181567E+01 +8.806405E+02 -1.197856E+01 +9.315570E+00 -1.197856E+01 +3.561726E+02 
 +5.312620E+02 -9.659356E+00 +9.381661E+00 -9.659356E+00 +8.942744E+02 -1.159695E+01 +9.381661E+00 -1.159695E+01 +3.588342E+02 
 +5.327279E+02 -7.417488E-01 +6.747057E-01 -7.417488E-01 +8.928787E+02 -5.297873E+00 +6.747057E-01 -5.297873E+00 +3.531095E+02 
 +5.160324E+02 +5.970924E+00 +3.910637E+00 +5.970924E+00 +8.796483E+02 +3.169256E+00 +3.910637E+00 +3.169256E+00 +3.595077E+02 
 +4.735099E+02 +5.217004E+00 +1.086965E+01 +5.217004E+00 +8.605150E+02 +6.448295E+00 +1.086965E+01 +6.448295E+00 +3.899000E+02 
 +4.899836E+02 +5.921167E+00 -4.463462E-01 +5.921167E+00 +8.743720E+02 +6.254295E+00 -4.463462E-01 +6.254295E+00 +4.125698E+02 
 +4.990192E+02 +1.130493E+01 -1.216129E+01 +1.130493E+01 +8.822866E+02 +4.372660E+00 -1.216129E+01 +4.372660E+00 +4.080646E+02 
 +4.901449E+02 +7.712211E+00 +7.346709E+00 +7.712211E+00 +8.735096E+02 -1.463893E+00 +7.346709E+00 -1.463893E+00 +3.754269E+02 
 +5.025898E+02 -9.651820E-01 +1.608367E+01 -9.651820E-01 +8.758202E+02 -5.769349E+00 +1.608367E+01 -5.769349E+00 +3.652577E+02 
 +5.187560E+02 -2.296669E+00 -2.990167E+00 -2.296669E+00 +8.859748E+02 +3.707757E+00 -2.990167E+00 +3.707757E+00 +3.822846E+02 
 +5.043835E+02 -5.421857E+00 +1.462121E+01 -5.421857E+00 +8.767039E+02 +2.572804E+00 +1.462121E+01 +2.572804E+00 +3.705962E+02 
 +5.033104E+02 -9.772294E+00 +1.916403E+01 -9.772294E+00 +8.765421E+02 -1.372551E+01 +1.916403E+01 -1.372551E+01 +3.801388E+02 
 +4.941588E+02 -8.394795E+00 +1.169095E+01 -8.394795E+00 +8.618213E+02 -1.191522E+01 +1.169095E+01 -1.191522E+01 +3.605352E+02 
 +4.828742E+02 -3.953377E+00 -1.828418E+01 -3.953377E+00 +8.505092E+02 -7.186705E+00 -1.828418E+01 -7.186705E+00 +3.483900E+02 
 +4.814381E+02 -3.544166E+00 -1.499399E+01 -3.544166E+00 +8.567818E+02 -8.655887E+00 -1.499399E+01 -8.655887E+00 +3.670926E+02 
 +4.810961E+02 -2.217092E+00 -1.357779E+01 -2.217092E+00 +8.596348E+02 -7.361325E+00 -1.357779E+01 -7.361325E+00 +3.699036E+02 
 +4.751431E+02 -6.441878E-01 -1.108957E+01 -6.441878E-01 +8.601987E+02 -9.019868E+00 -1.108957E+01 -9.019868E+00 +3.783667E+02 
 +4.564004E+02 +2.011350E+00 -1.417989E+01 +2.011350E+00 +8.565174E+02 -6.725845E+00 -1.417989E+01 -6.725845E+00 +3.718767E+02 
 +4.280835E+02 -1.005273E+00 -1.029469E+01 -1.005273E+00 +8.484693E+02 -1.052621E+01 -1.029469E+01 -1.052621E+01 +3.731330E+02 
 +4.207458E+02 -4.163827E+00 -8.992403E+00 -4.163827E+00 +8.317080E+02 -9.568700E+00 -8.992403E+00 -9.568700E+00 +3.382138E+02 
 +5.033542E+02 -9.024263E+00 +1.927314E+01 -9.024263E+00 +8.679358E+02 -5.526864E+00 +1.927314E+01 -5.526864E+00 +3.430145E+02 
 +5.297636E+02 -1.188182E+01 +1.353475E+01 -1.188182E+01 +8.855083E+02 -1.018733E+01 +1.353475E+01 -1.018733E+01 +3.513923E+02 
 +5.332539E+02 -9.824522E+00 +1.271788E+01 -9.824522E+00 +8.881190E+02 -1.202096E+01 +1.271788E+01 -1.202096E+01 +3.454733E+02 
 +5.401996E+02 -8.261674E+00 +5.200885E+00 -8.261674E+00 +8.906034E+02 -6.835788E+00 +5.200885E+00 -6.835788E+00 +3.367078E+02 
 +5.269146E+02 -8.270647E+00 +5.396742E+00 -8.270647E+00 +8.828390E+02 +3.950169E+00 +5.396742E+00 +3.950169E+00 +3.431403E+02 
 +4.675369E+02 -2.664906E+00 +7.849188E+00 -2.664906E+00 +8.568254E+02 +1.251014E+01 +7.849188E+00 +1.251014E+01 +3.725699E+02 
 +4.707884E+02 +3.034768E+00 -7.910332E-01 +3.034768E+00 +8.647130E+02 +1.288971E+01 -7.910332E-01 +1.288971E+01 +4.111163E+02 
 +4.858348E+02 +3.939858E+00 -8.194364E+00 +3.939858E+00 +8.729788E+02 +1.327356E+01 -8.194364E+00 +1.327356E+01 +4.175607E+02 
 +5.075066E+02 +7.256932E+00 -7.690719E+00 +7.256932E+00 +8.810372E+02 +5.914213E+00 -7.690719E+00 +5.914213E+00 +3.962245E+02 
 +5.169366E+02 -7.284526E-01 +1.898404E+01 -7.284526E-01 +8.829298E+02 -4.744464E-01 +1.898404E+01 -4.744464E-01 +3.800070E+02 
 +5.076410E+02 +7.803517E-02 +1.238296E+01 +7.803517E-02 +8.803083E+02 +2.497078E+00 +1.238296E+01 +2.497078E+00 +3.883350E+02 
 +5.099477E+02 -1.354067E+00 +7.613032E+00 -1.354067E+00 +8.811679E+02 +1.680128E+00 +7.613032E+00 +1.680128E+00 +3.941080E+02 
 +5.084130E+02 -5.106827E+00 +1.374593E+01 -5.106827E+00 +8.767006E+02 -7.236760E+00 +1.374593E+01 -7.236760E+00 +3.916784E+02 
 +4.890219E+02 -4.968853E+00 +2.398983E+01 -4.968853E+00 +8.592351E+02 -1.400361E+01 +2.398983E+01 -1.400361E+01 +3.582770E+02 
 +4.819666E+02 +2.013563E+00 -1.907062E+01 +2.013563E+00 +8.533355E+02 -8.351198E+00 -1.907062E+01 -8.351198E+00 +3.444378E+02 
 +4.840150E+02 +4.525409E-01 -2.156803E+01 +4.525409E-01 +8.593024E+02 -2.951817E+00 -2.156803E+01 -2.951817E+00 +3.578883E+02 
 +4.837004E+02 +2.520696E+00 -2.347175E+01 +2.520696E+00 +8.612303E+02 -4.139529E+00 -2.347175E+01 -4.139529E+00 +3.587538E+02 
 +4.747269E+02 +3.985433E+00 -1.753878E+01 +3.985433E+00 +8.593575E+02 -7.172881E+00 -1.753878E+01 -7.172881E+00 +3.633375E+02 
 +4.378221E+02 +1.155034E+00 -9.895940E+00 +1.155034E+00 +8.595518E+02 +3.662897E-02 -9.895940E+00 +3.662897E-02 +3.535464E+02 
 +4.253428E+02 -6.276036E-01 -1.502394E+01 -6.276036E-01 +8.535969E+02 -1.708954E+00 -1.502394E+01 -1.708954E+00 +3.663604E+02 
 +4.246122E+02 -1.793303E+00 -7.996180E+00 -1.793303E+00 +8.355370E+02 -7.995307E+00 -7.996180E+00 -7.995307E+00 +3.375788E+02 
 +4.923253E+02 -1.034554E-01 +2.184003E+01 -1.034554E-01 +8.619206E+02 -1.099321E+01 +2.184003E+01 -1.099321E+01 +3.481383E+02 
 +5.354373E+02 -7.759114E+00 +1.575142E+01 -7.759114E+00 +8.853267E+02 -1.053225E+01 +1.575142E+01 -1.053225E+01 +3.661504E+02 
 +5.361220E+02 -9.665250E+00 +1.296310E+01 -9.665250E+00 +8.818149E+02 -9.991932E+00 +1.296310E+01 -9.991932E+00 +3.516520E+02 
 +5.269174E+02 -1.154585E+01 +7.010437E+00 -1.154585E+01 +8.761804E+02 -1.929283E+00 +7.010437E+00 -1.929283E+00 +3.474635E+02 
 +5.194218E+02 -1.772842E+01 +9.318852E+00 -1.772842E+01 +8.749470E+02 +1.321642E+01 +9.318852E+00 +1.321642E+01 +3.466634E+02 
 +4.916708E+02 -1.540105E+01 +1.251504E+01 -1.540105E+01 +8.690946E+02 +2.512728E+01 +1.251504E+01 +2.512728E+01 +3.564806E+02 
 +4.600107E+02 -3.237394E+00 -9.851029E-01 -3.237394E+00 +8.697968E+02 +2.716601E+01 -9.851029E-01 +2.716601E+01 +3.957069E+02 
 +4.831806E+02 -1.303820E+00 -9.814033E-01 -1.303820E+00 +8.727402E+02 +2.143715E+01 -9.814033E-01 +2.143715E+01 +4.146800E+02 
 +5.255489E+02 +7.740000E+00 -1.068583E+01 +7.740000E+00 +8.709721E+02 +1.524196E+01 -1.068583E+01 +1.524196E+01 +4.026691E+02 
 +5.142690E+02 +2.590731E+00 +9.596242E+00 +2.590731E+00 +8.694830E+02 +3.738662E+00 +9.596242E+00 +3.738662E+00 +3.862633E+02 
 +5.084282E+02 +2.419001E+00 +1.284715E+01 +2.419001E+00 +8.734198E+02 -2.588293E+00 +1.284715E+01 -2.588293E+00 +3.877350E+02 
 +5.117233E+02 +3.309362E+00 +1.263190E+01 +3.309362E+00 +8.790753E+02 -8.375259E-01 +1.263190E+01 -8.375259E-01 +4.067062E+02 
 +5.107660E+02 -1.401031E+00 +1.143055E+01 -1.401031E+00 +8.834750E+02 -1.841266E+00 +1.143055E+01 -1.841266E+00 +4.039632E+02 
 +4.917277E+02 -3.754716E+00 +1.127834E+01 -3.754716E+00 +8.677116E+02 -8.106313E+00 +1.127834E+01 -8.106313E+00 +3.561358E+02 
 +4.805484E+02 +5.359471E+00 -2.107904E+01 +5.359471E+00 +8.615474E+02 -7.370908E+00 -2.107904E+01 -7.370908E+00 +3.364953E+02 
 +4.844923E+02 +2.709243E+00 -2.358862E+01 +2.709243E+00 +8.720476E+02 +4.410987E+00 -2.358862E+01 +4.410987E+00 +3.487736E+02 
 +4.927647E+02 -1.313110E+00 -3.233155E+01 -1.313110E+00 +8.802752E+02 +1.102893E+01 -3.233155E+01 +1.102893E+01 +3.531793E+02 
 +4.908855E+02 +1.012961E+00 -2.576960E+01 +1.012961E+00 +8.806364E+02 +5.752381E+00 -2.576960E+01 +5.752381E+00 +3.550697E+02 
 +4.448141E+02 -1.127162E+00 -9.282243E+00 -1.127162E+00 +8.663944E+02 +1.049137E+01 -9.282243E+00 +1.049137E+01 +3.610636E+02 
 +4.401385E+02 +1.691213E+00 -1.825757E+01 +1.691213E+00 +8.608510E+02 +4.682393E+00 -1.825757E+01 +4.682393E+00 +3.694032E+02 
 +4.351304E+02 -1.416319E+00 -1.284636E+01 -1.416319E+00 +8.447203E+02 -2.110394E+00 -1.284636E+01 -2.110394E+00 +3.402973E+02 
 +4.864806E+02 +3.060831E+00 +2.398635E+01 +3.060831E+00 +8.598063E+02 -7.337243E+00 +2.398635E+01 -7.337243E+00 +3.556479E+02 
 +5.262665E+02 -9.869334E-01 +1.994348E+01 -9.869334E-01 +8.788386E+02 -6.807246E+00 +1.994348E+01 -6.807246E+00 +3.851945E+02 
 +5.335452E+02 -5.764161E+00 +1.219949E+01 -5.764161E+00 +8.785437E+02 -6.587535E+00 +1.219949E+01 -6.587535E+00 +3.604434E+02 
 +5.118955E+02 -6.421194E+00 +9.886572E+00 -6.421194E+00 +8.689106E+02 -2.017538E+00 +9.886572E+00 -2.017538E+00 +3.449796E+02 
 +5.007474E+02 -1.084484E+01 +1.207783E+01 -1.084484E+01 +8.662423E+02 +1.275555E+01 +1.207783E+01 +1.275555E+01 +3.421430E+02 
 +4.963788E+02 -1.099828E+01 +5.430292E+00 -1.099828E+01 +8.686932E+02 +2.003896E+01 +5.430292E+00 +2.003896E+01 +3.500072E+02 
 +4.733925E+02 -1.588072E+00 -7.245499E+00 -1.588072E+00 +8.580689E+02 +1.700736E+01 -7.245499E+00 +1.700736E+01 +3.753890E+02 
 +4.806649E+02 +2.915409E+00 -2.600414E+00 +2.915409E+00 +8.561264E+02 +1.499693E+01 -2.600414E+00 +1.499693E+01 +3.880449E+02 
 +5.046424E+02 +5.932879E+00 -7.827046E+00 +5.932879E+00 +8.535259E+02 +1.165258E+01 -7.827046E+00 +1.165258E+01 +3.824318E+02 
 +5.076013E+02 +3.060368E+00 -8.276836E+00 +3.060368E+00 +8.457400E+02 +4.058812E+00 -8.276836E+00 +4.058812E+00 +3.779965E+02 
 +5.042914E+02 -2.683251E+00 +1.199743E+01 -2.683251E+00 +8.558720E+02 -3.070525E+00 +1.199743E+01 -3.070525E+00 +3.837415E+02 
 +5.117094E+02 -1.609590E-02 +9.767243E+00 -1.609590E-02 +8.750829E+02 -6.663652E+00 +9.767243E+00 -6.663652E+00 +4.087694E+02 
 +5.095418E+02 -3.875763E+00 +9.819427E+00 -3.875763E+00 +8.839325E+02 -4.520749E+00 +9.819427E+00 -4.520749E+00 +4.088721E+02 
 +4.950260E+02 -3.590174E+00 -2.302073E+01 -3.590174E+00 +8.768576E+02 -7.025966E+00 -2.302073E+01 -7.025966E+00 +3.575246E+02 
 +4.882202E+02 +3.807043E+00 -2.837695E+01 +3.807043E+00 +8.783959E+02 -2.908622E+00 -2.837695E+01 -2.908622E+00 +3.420511E+02 
 +4.877251E+02 +2.946402E+00 -2.532413E+01 +2.946402E+00 +8.834794E+02 +1.180886E+01 -2.532413E+01 +1.180886E+01 +3.641345E+02 
 +4.890518E+02 -7.385285E-01 -4.060893E+01 -7.385285E-01 +8.815290E+02 +9.666560E+00 -4.060893E+01 +9.666560E+00 +3.580662E+02 
 +4.930928E+02 -9.573140E-01 -2.333753E+01 -9.573140E-01 +8.883731E+02 +9.759862E+00 -2.333753E+01 +9.759862E+00 +3.604360E+02 
 +4.630282E+02 -4.252006E+00 -1.403225E+01 -4.252006E+00 +8.667037E+02 +9.844154E+00 -1.403225E+01 +9.844154E+00 +3.743965E+02 
 +4.650805E+02 -9.563644E-01 -1.953081E+01 -9.563644E-01 +8.654045E+02 -1.011281E+00 -1.953081E+01 -1.011281E+00 +3.737803E+02 
 +4.631462E+02 +2.999194E+00 -1.229670E+01 +2.999194E+00 +8.564116E+02 -5.348164E+00 -1.229670E+01 -5.348164E+00 +3.620716E+02 
 +4.860325E+02 +9.473185E+00 +1.871109E+01 +9.473185E+00 +8.600474E+02 -5.784763E+00 +1.871109E+01 -5.784763E+00 +3.749201E+02 
 +5.021608E+02 +7.895521E+00 +1.889250E+01 +7.895521E+00 +8.660149E+02 -7.716079E+00 +1.889250E+01 -7.716079E+00 +3.917142E+02 
 +5.103822E+02 -2.141981E+00 +1.799897E+01 -2.141981E+00 +8.722430E+02 -3.827461E+00 +1.799897E+01 -3.827461E+00 +3.585921E+02 
 +5.131758E+02 -5.920778E+00 +9.551924E+00 -5.920778E+00 +8.776418E+02 +4.533996E+00 +9.551924E+00 +4.533996E+00 +3.412354E+02 
 +5.082026E+02 -7.548993E+00 +9.366850E+00 -7.548993E+00 +8.729753E+02 +6.430600E+00 +9.366850E+00 +6.430600E+00 +3.484286E+02 
 +4.953424E+02 +2.860231E+00 -7.063670E+00 +2.860231E+00 +8.630036E+02 +4.973102E+00 -7.063670E+00 +4.973102E+00 +3.565229E+02 
 +4.913548E+02 +3.898717E+00 -6.447262E+00 +3.898717E+00 +8.613815E+02 +7.658945E+00 -6.447262E+00 +7.658945E+00 +3.683826E+02 
 +4.853426E+02 +1.807485E+00 -4.408940E+00 +1.807485E+00 +8.589747E+02 +1.004508E+01 -4.408940E+00 +1.004508E+01 +3.710932E+02 
 +4.810235E+02 -4.591660E-01 -9.814405E+00 -4.591660E-01 +8.501304E+02 +5.952721E+00 -9.814405E+00 +5.952721E+00 +3.617510E+02 
 +4.864863E+02 -1.311904E+00 -1.182648E+01 -1.311904E+00 +8.287376E+02 +1.018370E+01 -1.182648E+01 +1.018370E+01 +3.602184E+02 
 +4.940973E+02 -3.786817E+00 +2.340988E+00 -3.786817E+00 +8.211977E+02 +1.354203E+01 +2.340988E+00 +1.354203E+01 +3.820411E+02 
 +4.870642E+02 -9.566247E-01 -1.017851E+01 -9.566247E-01 +8.251744E+02 +9.970280E+00 -1.017851E+01 +9.970280E+00 +4.031379E+02 
 +4.884866E+02 -8.471345E-01 -4.807896E+00 -8.471345E-01 +8.391218E+02 +6.919457E+00 -4.807896E+00 +6.919457E+00 +3.955568E+02 
 +4.863484E+02 +3.842680E-01 -4.415897E+01 +3.842680E-01 +8.620934E+02 -3.825824E+00 -4.415897E+01 -3.825824E+00 +3.565350E+02 
 +4.854305E+02 +1.613877E+00 -2.414576E+01 +1.613877E+00 +8.759614E+02 -4.728021E+00 -2.414576E+01 -4.728021E+00 +3.404239E+02 
 +4.892446E+02 -8.629891E-01 -2.807051E+01 -8.629891E-01 +8.798525E+02 +3.575244E+00 -2.807051E+01 +3.575244E+00 +3.683599E+02 
 +4.833157E+02 -1.287220E+00 -4.240942E+01 -1.287220E+00 +8.779509E+02 +8.887853E+00 -4.240942E+01 +8.887853E+00 +3.725300E+02 
 +4.728561E+02 -1.877267E+00 -9.603546E+00 -1.877267E+00 +8.723046E+02 +1.561929E+01 -9.603546E+00 +1.561929E+01 +3.690479E+02 
 +4.624300E+02 -2.256627E+00 -5.853008E+00 -2.256627E+00 +8.536684E+02 +4.006949E+00 -5.853008E+00 +4.006949E+00 +3.730606E+02 
 +4.838738E+02 -5.908156E+00 -1.389148E+01 -5.908156E+00 +8.543980E+02 -4.109776E+00 -1.389148E+01 -4.109776E+00 +3.593946E+02 
 +4.869046E+02 -3.554207E+00 -1.053698E+01 -3.554207E+00 +8.532706E+02 -8.195849E+00 -1.053698E+01 -8.195849E+00 +3.712606E+02 
 +4.892755E+02 -3.945266E-01 +3.278491E+00 -3.945266E-01 +8.560017E+02 -7.233978E+00 +3.278491E+00 -7.233978E+00 +3.903754E+02 
 +4.801747E+02 +1.176654E+01 +1.267829E+01 +1.176654E+01 +8.505907E+02 -1.550360E+00 +1.267829E+01 -1.550360E+00 +3.812847E+02 
 +4.858534E+02 +1.180763E+01 +1.908610E+01 +1.180763E+01 +8.496414E+02 +1.310000E+00 +1.908610E+01 +1.310000E+00 +3.519875E+02 
 +4.957517E+02 +1.122067E+01 +7.177845E+00 +1.122067E+01 +8.453337E+02 +7.426019E-01 +7.177845E+00 +7.426019E-01 +3.353363E+02 
 +5.018240E+02 +6.056887E+00 +3.504850E+00 +6.056887E+00 +8.551873E+02 +1.087662E+00 +3.504850E+00 +1.087662E+00 +3.461416E+02 
 +4.966020E+02 +6.889128E+00 -5.755109E+00 +6.889128E+00 +8.618953E+02 +3.965890E+00 -5.755109E+00 +3.965890E+00 +3.564555E+02 
 +4.917955E+02 +8.040209E+00 -5.008043E+00 +8.040209E+00 +8.618183E+02 +6.269287E+00 -5.008043E+00 +6.269287E+00 +3.619620E+02 
 +4.852271E+02 +8.697764E+00 -5.302638E+00 +8.697764E+00 +8.626362E+02 +5.444742E+00 -5.302638E+00 +5.444742E+00 +3.644364E+02 
 +4.796186E+02 +3.449088E+00 -1.124170E+01 +3.449088E+00 +8.563485E+02 +6.974265E+00 -1.124170E+01 +6.974265E+00 +3.545960E+02 
 +4.688488E+02 -2.366237E+00 -1.587105E+01 -2.366237E+00 +8.323098E+02 +8.981490E+00 -1.587105E+01 +8.981490E+00 +3.468109E+02 
 +4.797416E+02 +4.233525E-01 -1.436706E+01 +4.233525E-01 +8.207902E+02 +1.294313E+01 -1.436706E+01 +1.294313E+01 +3.622039E+02 
 +4.708536E+02 -3.054306E+00 -3.141927E+01 -3.054306E+00 +8.182792E+02 +1.301485E+01 -3.141927E+01 +1.301485E+01 +3.774070E+02 
 +4.747834E+02 -1.292594E+00 -2.838323E+01 -1.292594E+00 +8.365581E+02 +7.345995E+00 -2.838323E+01 +7.345995E+00 +3.677566E+02 
 +4.931607E+02 +1.760801E-01 -3.891842E+01 +1.760801E-01 +8.666675E+02 +1.919247E+00 -3.891842E+01 +1.919247E+00 +3.471322E+02 
 +4.895384E+02 -5.257910E+00 -3.828267E+00 -5.257910E+00 +8.743019E+02 -8.731752E+00 -3.828267E+00 -8.731752E+00 +3.418859E+02 
 +4.881470E+02 -7.512745E+00 -6.739572E+00 -7.512745E+00 +8.735201E+02 -1.463722E+01 -6.739572E+00 -1.463722E+01 +3.592530E+02 
 +4.754940E+02 -4.408624E+00 -1.559089E+01 -4.408624E+00 +8.666804E+02 +3.368359E+00 -1.559089E+01 +3.368359E+00 +3.785084E+02 
 +4.668757E+02 -3.081924E+00 -3.456775E+00 -3.081924E+00 +8.609460E+02 +1.312689E+01 -3.456775E+00 +1.312689E+01 +3.886051E+02 
 +4.657616E+02 +2.585571E+00 +1.563786E+00 +2.585571E+00 +8.476029E+02 +5.760049E+00 +1.563786E+00 +5.760049E+00 +3.686811E+02 
 +4.832873E+02 -3.453781E+00 -3.352487E+00 -3.453781E+00 +8.432203E+02 -2.615484E+00 -3.352487E+00 -2.615484E+00 +3.421009E+02 
 +4.888238E+02 -6.139830E+00 -7.733139E+00 -6.139830E+00 +8.437171E+02 -5.676707E-02 -7.733139E+00 -5.676707E-02 +3.588667E+02 
 +4.946887E+02 -3.472711E+00 -7.694993E-01 -3.472711E+00 +8.535125E+02 +4.283941E+00 -7.694993E-01 +4.283941E+00 +3.825402E+02 
 +4.853962E+02 +9.455947E+00 +1.016294E+01 +9.455947E+00 +8.527026E+02 +7.055643E+00 +1.016294E+01 +7.055643E+00 +3.701018E+02 
 +4.897404E+02 +7.436716E+00 +9.164480E+00 +7.436716E+00 +8.493311E+02 +7.663972E+00 +9.164480E+00 +7.663972E+00 +3.570960E+02 
 +4.954669E+02 +5.727613E+00 +1.037568E+01 +5.727613E+00 +8.486210E+02 +1.144782E+01 +1.037568E+01 +1.144782E+01 +3.479323E+02 
 +4.948597E+02 +6.910746E+00 -5.439949E+00 +6.910746E+00 +8.503950E+02 +1.191690E+01 -5.439949E+00 +1.191690E+01 +3.460161E+02 
 +4.969228E+02 +1.089993E+01 -3.316557E+00 +1.089993E+01 +8.597168E+02 +3.368394E+00 -3.316557E+00 +3.368394E+00 +3.524143E+02 
 +4.900545E+02 +1.124603E+01 +1.498091E+00 +1.124603E+01 +8.595807E+02 +3.325705E+00 +1.498091E+00 +3.325705E+00 +3.553302E+02 
 +4.907301E+02 +1.340749E+01 -6.228276E+00 +1.340749E+01 +8.655207E+02 +3.916134E+00 -6.228276E+00 +3.916134E+00 +3.662718E+02 
 +4.854737E+02 +6.604954E+00 -1.501286E+00 +6.604954E+00 +8.692492E+02 +1.050483E+01 -1.501286E+00 +1.050483E+01 +3.574936E+02 
 +4.618849E+02 -5.408540E+00 -2.418526E+01 -5.408540E+00 +8.595804E+02 +1.462854E+01 -2.418526E+01 +1.462854E+01 +3.408289E+02 
 +4.765112E+02 -1.686605E+00 -2.474748E+01 -1.686605E+00 +8.711866E+02 +5.926782E+00 -2.474748E+01 +5.926782E+00 +3.483399E+02 
 +4.757746E+02 -8.800491E-01 -4.269896E+01 -8.800491E-01 +8.733134E+02 -7.361330E-01 -4.269896E+01 -7.361330E-01 +3.604915E+02 
 +4.748527E+02 +4.039234E+00 -4.578949E+01 +4.039234E+00 +8.689899E+02 -1.471138E+00 -4.578949E+01 -1.471138E+00 +3.545058E+02 
 +5.061816E+02 +3.220701E+00 -2.917089E+01 +3.220701E+00 +8.755831E+02 +2.270131E+00 -2.917089E+01 +2.270131E+00 +3.424954E+02 
 +5.040556E+02 -5.897201E+00 +3.451990E+00 -5.897201E+00 +8.753627E+02 -6.480422E+00 +3.451990E+00 -6.480422E+00 +3.628911E+02 
 +4.941052E+02 -8.574963E+00 +1.521292E+01 -8.574963E+00 +8.739989E+02 -1.444062E+01 +1.521292E+01 -1.444062E+01 +3.703362E+02 
 +4.792653E+02 -4.707993E+00 +1.166162E+01 -4.707993E+00 +8.624682E+02 -7.213619E+00 +1.166162E+01 -7.213619E+00 +3.661982E+02 
 +4.694681E+02 +2.251445E+00 +3.938793E+00 +2.251445E+00 +8.579907E+02 +5.115941E+00 +3.938793E+00 +5.115941E+00 +3.843993E+02 
 +4.702125E+02 -4.795685E+00 +1.256671E-01 -4.795685E+00 +8.388495E+02 -3.494989E+00 +1.256671E-01 -3.494989E+00 +3.523239E+02 
 +4.759553E+02 -4.400692E+00 +5.168548E+00 -4.400692E+00 +8.311045E+02 -7.451624E+00 +5.168548E+00 -7.451624E+00 +3.341413E+02 
 +4.963342E+02 -5.288025E+00 +1.075765E+00 -5.288025E+00 +8.444929E+02 +2.652512E+00 +1.075765E+00 +2.652512E+00 +3.503398E+02 
 +4.985019E+02 +6.229506E+00 +5.212944E+00 +6.229506E+00 +8.553889E+02 +8.990398E+00 +5.212944E+00 +8.990398E+00 +3.659437E+02 
 +4.887755E+02 +1.085870E+01 +4.794140E+00 +1.085870E+01 +8.543925E+02 +6.386169E+00 +4.794140E+00 +6.386169E+00 +3.626645E+02 
 +4.886830E+02 +6.434473E+00 +1.970669E+00 +6.434473E+00 +8.492324E+02 +6.799896E+00 +1.970669E+00 +6.799896E+00 +3.577568E+02 
 +4.913762E+02 +5.939173E+00 +1.187540E+01 +5.939173E+00 +8.468815E+02 +5.448203E+00 +1.187540E+01 +5.448203E+00 +3.496052E+02 
 +4.935895E+02 +9.215187E+00 -1.244690E+01 +9.215187E+00 +8.492140E+02 +3.927439E+00 -1.244690E+01 +3.927439E+00 +3.445586E+02 
 +4.957802E+02 +1.018154E+01 -3.864635E+00 +1.018154E+01 +8.607400E+02 +4.008410E+00 -3.864635E+00 +4.008410E+00 +3.495780E+02 
 +4.892124E+02 +3.215946E+00 +1.155684E+01 +3.215946E+00 +8.648178E+02 +5.467345E+00 +1.155684E+01 +5.467345E+00 +3.520603E+02 
 +5.069929E+02 +9.155775E+00 -7.343066E+00 +9.155775E+00 +8.783263E+02 +3.230274E+00 -7.343066E+00 +3.230274E+00 +3.770332E+02 
 +4.981273E+02 +5.898276E+00 +1.037467E+01 +5.898276E+00 +8.823710E+02 +2.557728E+00 +1.037467E+01 +2.557728E+00 +3.757844E+02 
 +4.465901E+02 -2.106822E+00 -2.251533E+01 -2.106822E+00 +8.656342E+02 +1.295000E+00 -2.251533E+01 +1.295000E+00 +3.370921E+02 
 +4.559807E+02 +1.793066E+00 -2.512265E+01 +1.793066E+00 +8.750649E+02 -6.557613E+00 -2.512265E+01 -6.557613E+00 +3.343690E+02 
 +4.647815E+02 +4.198083E+00 -4.008336E+01 +4.198083E+00 +8.793343E+02 -1.235332E+01 -4.008336E+01 -1.235332E+01 +3.558916E+02 
 +4.617557E+02 +8.743912E+00 -4.695308E+01 +8.743912E+00 +8.652632E+02 -9.050851E+00 -4.695308E+01 -9.050851E+00 +3.492684E+02 
 +5.088249E+02 +8.201089E+00 -2.579704E+01 +8.201089E+00 +8.726060E+02 -2.656176E+00 -2.579704E+01 -2.656176E+00 +3.403207E+02 
 +5.119504E+02 +1.068860E+00 +4.737765E-01 +1.068860E+00 +8.761489E+02 -3.120986E+00 +4.737765E-01 -3.120986E+00 +3.678765E+02 
 +4.992601E+02 -2.665114E+00 +2.039487E+01 -2.665114E+00 +8.742200E+02 -5.322935E+00 +2.039487E+01 -5.322935E+00 +3.763839E+02 
 +4.837350E+02 -4.435980E+00 +2.144354E+01 -4.435980E+00 +8.638006E+02 -5.225651E+00 +2.144354E+01 -5.225651E+00 +3.553252E+02 
 +4.646653E+02 -1.236426E+00 +1.714526E+01 -1.236426E+00 +8.495889E+02 -1.963061E+00 +1.714526E+01 -1.963061E+00 +3.545816E+02 
 +4.597928E+02 -6.369604E+00 +7.729688E+00 -6.369604E+00 +8.273902E+02 -6.573621E+00 +7.729688E+00 -6.573621E+00 +3.345273E+02 
 +4.695534E+02 -9.879641E+00 +1.157794E+01 -9.879641E+00 +8.177261E+02 -7.231888E+00 +1.157794E+01 -7.231888E+00 +3.239971E+02 
 +4.903417E+02 -8.913574E+00 +8.468783E+00 -8.913574E+00 +8.244222E+02 +1.234046E+00 +8.468783E+00 +1.234046E+00 +3.184390E+02 
 +4.978229E+02 +5.766840E+00 +1.489328E+00 +5.766840E+00 +8.437506E+02 +7.711707E+00 +1.489328E+00 +7.711707E+00 +3.310888E+02 
 +4.959602E+02 +1.044503E+01 -7.036253E+00 +1.044503E+01 +8.529035E+02 +5.204271E+00 -7.036253E+00 +5.204271E+00 +3.513566E+02 
 +4.903137E+02 +1.271576E+01 -5.319655E+00 +1.271576E+01 +8.508190E+02 +2.774648E+00 -5.319655E+00 +2.774648E+00 +3.560452E+02 
 +4.788675E+02 +9.599399E+00 +4.838787E+00 +9.599399E+00 +8.406301E+02 -1.087508E+00 +4.838787E+00 -1.087508E+00 +3.460895E+02 
 +4.801101E+02 +1.266089E+01 -1.007220E+01 +1.266089E+01 +8.457217E+02 -8.930650E-01 -1.007220E+01 -8.930650E-01 +3.424475E+02 
 +4.837705E+02 +1.048019E+01 -3.977539E+00 +1.048019E+01 +8.551829E+02 +3.443601E+00 -3.977539E+00 +3.443601E+00 +3.429290E+02 
 +4.833868E+02 +4.683317E+00 +1.191291E+01 +4.683317E+00 +8.600010E+02 +3.635021E+00 +1.191291E+01 +3.635021E+00 +3.424642E+02 
 +5.049276E+02 +3.489966E+00 +1.927899E+00 +3.489966E+00 +8.816161E+02 +3.507834E+00 +1.927899E+00 +3.507834E+00 +3.717759E+02 
 +4.969557E+02 -2.158205E+00 +9.221762E+00 -2.158205E+00 +8.818138E+02 -6.487844E+00 +9.221762E+00 -6.487844E+00 +3.814579E+02 
 +4.469834E+02 -8.503536E+00 -1.217834E+01 -8.503536E+00 +8.641468E+02 -1.666199E+01 -1.217834E+01 -1.666199E+01 +3.428085E+02 
 +4.430402E+02 -5.709723E+00 -1.939442E+01 -5.709723E+00 +8.673366E+02 -2.311938E+01 -1.939442E+01 -2.311938E+01 +3.269579E+02 
 +4.564613E+02 +6.913035E-01 -1.986407E+01 +6.913035E-01 +8.715185E+02 -2.341337E+01 -1.986407E+01 -2.341337E+01 +3.490103E+02 
 +4.574626E+02 +7.403465E+00 -2.762139E+01 +7.403465E+00 +8.607671E+02 -1.072697E+01 -2.762139E+01 -1.072697E+01 +3.391149E+02 
 +5.060783E+02 +1.069667E+01 -1.376630E+01 +1.069667E+01 +8.753826E+02 -3.700199E+00 -1.376630E+01 -3.700199E+00 +3.316296E+02 
 +5.205616E+02 +6.083678E+00 +4.537483E+00 +6.083678E+00 +8.862698E+02 -4.567135E+00 +4.537483E+00 -4.567135E+00 +3.563661E+02 
 +5.029317E+02 +2.469852E+00 +2.412635E+01 +2.469852E+00 +8.794793E+02 -4.199408E+00 +2.412635E+01 -4.199408E+00 +3.630760E+02 
 +4.829622E+02 +1.088009E+00 +2.752039E+01 +1.088009E+00 +8.648357E+02 -1.704350E+00 +2.752039E+01 -1.704350E+00 +3.515100E+02 
 +4.617604E+02 +1.497301E+00 +2.556377E+01 +1.497301E+00 +8.419739E+02 -2.939132E+00 +2.556377E+01 -2.939132E+00 +3.414865E+02 
 +4.361853E+02 -2.785170E+00 +9.089967E+00 -2.785170E+00 +8.124075E+02 -4.701976E+00 +9.089967E+00 -4.701976E+00 +3.267516E+02 
 +4.485959E+02 -1.096231E+01 +4.000946E+00 -1.096231E+01 +8.079230E+02 -6.298754E+00 +4.000946E+00 -6.298754E+00 +3.191573E+02 
 +4.828066E+02 -1.094335E+01 +6.413839E-01 -1.094335E+01 +8.308301E+02 -4.023580E+00 +6.413839E-01 -4.023580E+00 +3.113066E+02 
 +5.215384E+02 -5.260257E+00 -5.485560E+00 -5.260257E+00 +8.621392E+02 +2.029201E+00 -5.485560E+00 +2.029201E+00 +3.317706E+02 
 +4.923280E+02 -1.202151E+01 -1.585464E+01 -1.202151E+01 +8.395327E+02 +2.486172E+00 -1.585464E+01 +2.486172E+00 +3.342538E+02 
 +4.793079E+02 -1.166733E+01 -1.113862E+01 -1.166733E+01 +8.311730E+02 +2.225521E-01 -1.113862E+01 +2.225521E-01 +3.405677E+02 
 +4.821732E+02 -1.156191E+01 -2.912468E+00 -1.156191E+01 +8.418004E+02 -1.153712E+00 -2.912468E+00 -1.153712E+00 +3.490891E+02 
 +4.744296E+02 +6.339058E+00 -2.312866E+00 +6.339058E+00 +8.412607E+02 -4.528708E-01 -2.312866E+00 -4.528708E-01 +3.467595E+02 
 +4.785174E+02 +9.064475E+00 +4.420744E+00 +9.064475E+00 +8.593508E+02 +1.470387E+01 +4.420744E+00 +1.470387E+01 +3.476536E+02 
 +4.908541E+02 -8.833158E-01 +1.282083E+01 -8.833158E-01 +8.833882E+02 +2.483056E+01 +1.282083E+01 +2.483056E+01 +3.502964E+02 
 +4.912567E+02 -6.937588E+00 +1.695164E+01 -6.937588E+00 +8.847088E+02 +2.583939E+01 +1.695164E+01 +2.583939E+01 +3.613026E+02 
 +4.728374E+02 -1.374603E+01 +1.937974E+00 -1.374603E+01 +8.629858E+02 +1.785099E+01 +1.937974E+00 +1.785099E+01 +3.644225E+02 
 +4.472538E+02 -1.319848E+01 -1.322387E+00 -1.319848E+01 +8.376994E+02 +4.936546E+00 -1.322387E+00 +4.936546E+00 +3.469606E+02 
 +4.392518E+02 -1.005491E+01 -1.379532E+01 -1.005491E+01 +8.354373E+02 -4.441455E+00 -1.379532E+01 -4.441455E+00 +3.263899E+02 
 +4.599085E+02 +2.360756E+00 +6.388846E-01 +2.360756E+00 +8.576151E+02 -6.477871E+00 +6.388846E-01 -6.477871E+00 +3.362179E+02 
 +4.721458E+02 +1.066872E+01 -4.098675E+00 +1.066872E+01 +8.667760E+02 -4.046919E-01 -4.098675E+00 -4.046919E-01 +3.367409E+02 
 +4.946933E+02 +1.553512E+01 +1.743618E+00 +1.553512E+01 +8.679979E+02 +7.762096E-01 +1.743618E+00 +7.762096E-01 +3.250844E+02 
 +5.284730E+02 +1.533052E+01 +5.844376E+00 +1.533052E+01 +8.882639E+02 -4.628938E-01 +5.844376E+00 -4.628938E-01 +3.494881E+02 
 +5.113997E+02 +1.053564E+01 +1.921386E+01 +1.053564E+01 +8.855221E+02 -3.322618E+00 +1.921386E+01 -3.322618E+00 +3.569327E+02 
 +4.864162E+02 +7.693041E+00 +2.716842E+01 +7.693041E+00 +8.662374E+02 -9.780029E+00 +2.716842E+01 -9.780029E+00 +3.522600E+02 
 +4.607875E+02 +4.795609E+00 +3.650898E+01 +4.795609E+00 +8.401403E+02 -7.676887E+00 +3.650898E+01 -7.676887E+00 +3.411737E+02 
 +4.342046E+02 +5.074539E-01 -2.409125E-01 +5.074539E-01 +8.301751E+02 -8.861372E+00 -2.409125E-01 -8.861372E+00 +3.460150E+02 
 +4.482041E+02 -4.222130E+00 -9.366929E+00 -4.222130E+00 +8.443244E+02 -3.317932E+00 -9.366929E+00 -3.317932E+00 +3.578599E+02 
 +4.624321E+02 -8.752815E+00 -1.433778E+01 -8.752815E+00 +8.219981E+02 -2.219851E+00 -1.433778E+01 -2.219851E+00 +3.444622E+02 
 +4.840221E+02 -4.544002E+00 -1.140012E+01 -4.544002E+00 +8.036161E+02 -3.041854E+00 -1.140012E+01 -3.041854E+00 +3.397574E+02 
 +4.794608E+02 -1.328185E+01 -1.490807E+01 -1.328185E+01 +8.194114E+02 -2.606891E+00 -1.490807E+01 -2.606891E+00 +3.364315E+02 
 +4.812288E+02 -1.401298E+01 -7.878812E+00 -1.401298E+01 +8.384053E+02 -3.660711E+00 -7.878812E+00 -3.660711E+00 +3.502963E+02 
 +4.857840E+02 -1.900764E+01 +3.233418E+00 -1.900764E+01 +8.467838E+02 +7.697285E+00 +3.233418E+00 +7.697285E+00 +3.577814E+02 
 +4.817746E+02 -1.712137E+01 +1.103495E+01 -1.712137E+01 +8.421240E+02 +2.208239E+01 +1.103495E+01 +2.208239E+01 +3.555644E+02 
 +4.889092E+02 +4.201452E+00 +7.825514E+00 +4.201452E+00 +8.443180E+02 +2.346549E+01 +7.825514E+00 +2.346549E+01 +3.592226E+02 
 +4.897221E+02 +5.974198E+00 +9.301007E+00 +5.974198E+00 +8.637377E+02 +1.257768E+01 +9.301007E+00 +1.257768E+01 +3.565638E+02 
 +4.696541E+02 -6.821066E-01 +1.859434E+01 -6.821066E-01 +8.617671E+02 +5.492131E+00 +1.859434E+01 +5.492131E+00 +3.527632E+02 
 +4.596648E+02 -6.161082E+00 -2.343845E+00 -6.161082E+00 +8.516718E+02 +6.871457E+00 -2.343845E+00 +6.871457E+00 +3.616739E+02 
 +4.576456E+02 -2.587691E+00 -1.455122E+00 -2.587691E+00 +8.465369E+02 +6.668491E+00 -1.455122E+00 +6.668491E+00 +3.599210E+02 
 +4.522467E+02 -3.642724E+00 -1.246419E+01 -3.642724E+00 +8.415607E+02 +3.043100E+00 -1.246419E+01 +3.043100E+00 +3.313736E+02 
 +4.807550E+02 +4.245546E+00 +3.200815E+00 +4.245546E+00 +8.598170E+02 +5.142195E-01 +3.200815E+00 +5.142195E-01 +3.276906E+02 
 +4.831095E+02 +8.741337E+00 +1.403465E+00 +8.741337E+00 +8.637695E+02 -2.101937E+00 +1.403465E+00 -2.101937E+00 +3.296077E+02 
 +4.996318E+02 +1.436336E+01 +4.466057E+00 +1.436336E+01 +8.688215E+02 -2.108427E+00 +4.466057E+00 -2.108427E+00 +3.242840E+02 
 +5.170694E+02 +1.705523E+01 +3.632434E+00 +1.705523E+01 +8.736544E+02 +7.081915E+00 +3.632434E+00 +7.081915E+00 +3.393045E+02 
 +4.954299E+02 +1.882658E+00 +2.263894E+00 +1.882658E+00 +8.495449E+02 +1.070518E+01 +2.263894E+00 +1.070518E+01 +3.513084E+02 
 +4.803262E+02 +2.956832E+00 +1.643380E+01 +2.956832E+00 +8.381627E+02 +1.600848E+00 +1.643380E+01 +1.600848E+00 +3.525518E+02 
 +4.725941E+02 +4.062913E+00 +4.244482E+01 +4.062913E+00 +8.432387E+02 -5.679255E+00 +4.244482E+01 -5.679255E+00 +3.470664E+02 
 +4.390157E+02 -1.007220E+01 -8.137413E+00 -1.007220E+01 +8.284815E+02 -6.629062E+00 -8.137413E+00 -6.629062E+00 +3.572801E+02 
 +4.509555E+02 -8.027035E+00 -1.094328E+01 -8.027035E+00 +8.417775E+02 +1.828467E+00 -1.094328E+01 +1.828467E+00 +3.747374E+02 
 +4.717185E+02 -8.192847E+00 -1.668102E+01 -8.192847E+00 +8.575579E+02 +6.884063E+00 -1.668102E+01 +6.884063E+00 +3.831565E+02 
 +4.694151E+02 -2.549427E+00 -1.738717E+01 -2.549427E+00 +8.545138E+02 -1.124115E+00 -1.738717E+01 -1.124115E+00 +3.692681E+02 
 +5.051738E+02 -9.100102E+00 -4.990766E-01 -9.100102E+00 +8.558132E+02 -1.525386E+00 -4.990766E-01 -1.525386E+00 +3.694231E+02 
 +5.000289E+02 -8.546009E+00 +3.787503E+00 -8.546009E+00 +8.573932E+02 +4.431045E+00 +3.787503E+00 +4.431045E+00 +3.764125E+02 
 +5.000149E+02 -8.374002E-01 +1.762190E+01 -8.374002E-01 +8.750529E+02 +4.139588E+00 +1.762190E+01 +4.139588E+00 +3.757774E+02 
 +4.975417E+02 -3.276692E+00 +2.394382E+01 -3.276692E+00 +8.751722E+02 +3.068704E+00 +2.394382E+01 +3.068704E+00 +3.704306E+02 
 +5.069008E+02 +7.496054E+00 +9.741242E+00 +7.496054E+00 +8.564424E+02 +7.687706E+00 +9.741242E+00 +7.687706E+00 +3.728132E+02 
 +5.019941E+02 +8.706738E+00 +2.154451E+00 +8.706738E+00 +8.516509E+02 +1.149496E+01 +2.154451E+00 +1.149496E+01 +3.684112E+02 
 +4.648781E+02 -9.488725E+00 +6.632781E+00 -9.488725E+00 +8.452327E+02 +7.930495E+00 +6.632781E+00 +7.930495E+00 +3.564226E+02 
 +4.600855E+02 -9.181294E+00 -3.505579E+00 -9.181294E+00 +8.488479E+02 +8.194822E+00 -3.505579E+00 +8.194822E+00 +3.646046E+02 
 +4.563455E+02 -4.486993E+00 -5.566940E+00 -4.486993E+00 +8.518424E+02 +9.460460E+00 -5.566940E+00 +9.460460E+00 +3.550596E+02 
 +4.535221E+02 -2.091823E+00 -1.560455E+01 -2.091823E+00 +8.443104E+02 +3.758092E-01 -1.560455E+01 +3.758092E-01 +3.245031E+02 
 +4.979940E+02 +4.408014E+00 +1.969502E+00 +4.408014E+00 +8.666575E+02 -5.338909E+00 +1.969502E+00 -5.338909E+00 +3.268812E+02 
 +4.963035E+02 +6.602801E+00 -1.555241E+00 +6.602801E+00 +8.655081E+02 -2.934618E+00 -1.555241E+00 -2.934618E+00 +3.265208E+02 
 +5.044174E+02 +7.599365E+00 +2.434182E+00 +7.599365E+00 +8.672782E+02 -1.121074E+00 +2.434182E+00 -1.121074E+00 +3.283918E+02 
 +5.181281E+02 +9.590944E+00 +5.588083E+00 +9.590944E+00 +8.674177E+02 +4.425110E+00 +5.588083E+00 +4.425110E+00 +3.449020E+02 
 +4.760500E+02 -3.883512E+00 -3.732369E+00 -3.883512E+00 +8.371274E+02 +5.957243E+00 -3.732369E+00 +5.957243E+00 +3.490462E+02 
 +4.705346E+02 -5.191362E+00 +1.002854E+01 -5.191362E+00 +8.273040E+02 +3.286807E+00 +1.002854E+01 +3.286807E+00 +3.532846E+02 
 +4.824981E+02 -1.137612E+01 +3.225996E+01 -1.137612E+01 +8.341527E+02 -1.717597E+00 +3.225996E+01 -1.717597E+00 +3.573715E+02 
 +4.703317E+02 -1.115016E+01 -1.249667E+01 -1.115016E+01 +8.500195E+02 -2.600035E-01 -1.249667E+01 -2.600035E-01 +3.744233E+02 
 +4.587103E+02 -1.592526E+01 -9.207464E+00 -1.592526E+01 +8.426270E+02 +1.809035E+00 -9.207464E+00 +1.809035E+00 +3.716220E+02 
 +4.577077E+02 -1.447693E+01 -1.142509E+01 -1.447693E+01 +8.555320E+02 +5.971788E+00 -1.142509E+01 +5.971788E+00 +3.688713E+02 
 +4.515596E+02 -5.717973E+00 -2.564458E+01 -5.717973E+00 +8.558003E+02 +6.441828E+00 -2.564458E+01 +6.441828E+00 +3.597947E+02 
 +5.210260E+02 +1.553786E+00 +2.170650E+01 +1.553786E+00 +8.887477E+02 +6.930632E+00 +2.170650E+01 +6.930632E+00 +3.816477E+02 
 +5.133336E+02 +2.388843E+00 +1.895991E+01 +2.388843E+00 +8.833481E+02 +1.311202E+01 +1.895991E+01 +1.311202E+01 +3.806377E+02 
 +5.100542E+02 +1.650124E+00 +2.623917E+01 +1.650124E+00 +8.808827E+02 +1.241948E+01 +2.623917E+01 +1.241948E+01 +3.784426E+02 
 +5.066858E+02 -3.657144E+00 +1.646469E+01 -3.657144E+00 +8.908838E+02 +2.746681E-01 +1.646469E+01 +2.746681E-01 +3.807031E+02 
 +5.058374E+02 -2.019489E+00 +2.170209E+01 -2.019489E+00 +8.852923E+02 -4.777234E+00 +2.170209E+01 -4.777234E+00 +3.802332E+02 
 +5.066830E+02 +1.262360E+01 +7.150215E+00 +1.262360E+01 +8.584632E+02 +5.076891E+00 +7.150215E+00 +5.076891E+00 +3.742421E+02 
 +4.686605E+02 -8.210398E+00 -1.267399E+00 -8.210398E+00 +8.406651E+02 +8.645725E+00 -1.267399E+00 +8.645725E+00 +3.591302E+02 
 +4.632596E+02 -1.025406E+01 -2.856079E+00 -1.025406E+01 +8.518481E+02 +8.172246E+00 -2.856079E+00 +8.172246E+00 +3.587080E+02 
 +4.585654E+02 -6.921355E+00 -5.140720E+00 -6.921355E+00 +8.503878E+02 +5.165322E+00 -5.140720E+00 +5.165322E+00 +3.500855E+02 
 +4.662373E+02 -4.036605E+00 -1.243079E+01 -4.036605E+00 +8.539617E+02 +1.175205E+00 -1.243079E+01 +1.175205E+00 +3.420847E+02 
 +5.067957E+02 +1.140445E+00 +6.701533E-01 +1.140445E+00 +8.702842E+02 -1.540779E+00 +6.701533E-01 -1.540779E+00 +3.368592E+02 
 +5.227441E+02 +4.143760E+00 +2.770324E+00 +4.143760E+00 +8.748316E+02 -2.391652E+00 +2.770324E+00 -2.391652E+00 +3.350329E+02 
 +5.194831E+02 +1.107620E+01 +6.438408E+00 +1.107620E+01 +8.697471E+02 -9.556285E-01 +6.438408E+00 -9.556285E-01 +3.456723E+02 
 +5.166787E+02 +9.432985E+00 +9.495323E+00 +9.432985E+00 +8.623730E+02 -1.352378E+00 +9.495323E+00 -1.352378E+00 +3.611039E+02 
 +4.747769E+02 -1.558885E+00 +8.195088E+00 -1.558885E+00 +8.471013E+02 -3.057758E+00 +8.195088E+00 -3.057758E+00 +3.678623E+02 
 +4.716497E+02 -7.893891E-01 +9.431422E+00 -7.893891E-01 +8.525976E+02 -9.484894E+00 +9.431422E+00 -9.484894E+00 +3.733696E+02 
 +4.860648E+02 -4.466603E+00 +2.535674E+01 -4.466603E+00 +8.608071E+02 -9.107620E+00 +2.535674E+01 -9.107620E+00 +3.746643E+02 
 +4.746242E+02 -1.068186E+01 -5.692727E+00 -1.068186E+01 +8.512017E+02 -7.002744E+00 -5.692727E+00 -7.002744E+00 +3.816534E+02 
 +4.522337E+02 -1.097230E+01 -9.271138E-02 -1.097230E+01 +8.448880E+02 +8.456556E-01 -9.271138E-02 +8.456556E-01 +3.661986E+02 
 +4.520232E+02 -9.508940E+00 -6.071365E-01 -9.508940E+00 +8.551983E+02 +9.828051E+00 -6.071365E-01 +9.828051E+00 +3.565051E+02 
 +4.656229E+02 -7.960879E+00 -1.796967E+01 -7.960879E+00 +8.626850E+02 +1.907508E+01 -1.796967E+01 +1.907508E+01 +3.634870E+02 
 +5.146489E+02 -3.307217E+00 +2.975997E+01 -3.307217E+00 +8.866916E+02 +1.743008E+01 +2.975997E+01 +1.743008E+01 +3.721665E+02 
 +5.063902E+02 +2.386407E+00 +2.696772E+01 +2.386407E+00 +8.835680E+02 +1.016418E+01 +2.696772E+01 +1.016418E+01 +3.658443E+02 
 +5.053379E+02 +2.244841E+00 +2.507367E+01 +2.244841E+00 +8.838934E+02 +2.163627E+00 +2.507367E+01 +2.163627E+00 +3.790898E+02 
 +5.036491E+02 +2.537859E-01 +3.546284E+00 +2.537859E-01 +8.801300E+02 -8.764231E+00 +3.546284E+00 -8.764231E+00 +3.852357E+02 
 +5.015795E+02 -4.021662E+00 +2.526133E+01 -4.021662E+00 +8.875961E+02 -1.192858E+01 +2.526133E+01 -1.192858E+01 +3.804630E+02 
 +5.020700E+02 +3.440678E+00 +2.369047E+01 +3.440678E+00 +8.827911E+02 -1.703953E+00 +2.369047E+01 -1.703953E+00 +3.738496E+02 
 +4.835088E+02 -7.361238E+00 -6.564384E+00 -7.361238E+00 +8.575134E+02 +7.261317E+00 -6.564384E+00 +7.261317E+00 +3.688173E+02 
 +4.694836E+02 -9.679143E+00 -4.665010E+00 -9.679143E+00 +8.499641E+02 +4.516093E+00 -4.665010E+00 +4.516093E+00 +3.592477E+02 
 +4.698659E+02 -3.793398E+00 -7.897512E+00 -3.793398E+00 +8.521053E+02 +2.910850E+00 -7.897512E+00 +2.910850E+00 +3.517995E+02 
 +4.835951E+02 +2.102386E+00 -7.013329E+00 +2.102386E+00 +8.615778E+02 +6.171333E+00 -7.013329E+00 +6.171333E+00 +3.522586E+02 
 +5.107777E+02 +7.497265E+00 -1.100617E+01 +7.497265E+00 +8.722075E+02 +5.563055E+00 -1.100617E+01 +5.563055E+00 +3.433707E+02 
 +5.396392E+02 +4.078552E+00 +4.930291E+00 +4.078552E+00 +8.762782E+02 +2.548897E+00 +4.930291E+00 +2.548897E+00 +3.528928E+02 
 +5.405404E+02 +4.358233E+00 +6.595663E+00 +4.358233E+00 +8.722557E+02 +4.759855E+00 +6.595663E+00 +4.759855E+00 +3.706790E+02 
 +4.964511E+02 +8.863947E-01 +7.279585E+00 +8.863947E-01 +8.527833E+02 +3.282598E+00 +7.279585E+00 +3.282598E+00 +3.699215E+02 
 +4.872458E+02 -3.458506E+00 +1.869632E+01 -3.458506E+00 +8.554853E+02 +2.408862E-01 +1.869632E+01 +2.408862E-01 +3.936352E+02 
 +4.776107E+02 -1.336518E+00 +6.785707E+00 -1.336518E+00 +8.585680E+02 -3.239581E+00 +6.785707E+00 -3.239581E+00 +3.921309E+02 
 +4.644529E+02 -5.216254E-01 +2.278364E+01 -5.216254E-01 +8.513897E+02 -7.896704E+00 +2.278364E+01 -7.896704E+00 +3.709756E+02 
 +4.597365E+02 -9.080451E+00 +1.504360E+01 -9.080451E+00 +8.477273E+02 -1.335661E+01 +1.504360E+01 -1.335661E+01 +3.787283E+02 
 +4.549867E+02 -4.350608E+00 +1.956668E+01 -4.350608E+00 +8.520818E+02 +2.261783E+00 +1.956668E+01 +2.261783E+00 +3.712668E+02 
 +4.591930E+02 -4.664583E+00 +1.726139E+01 -4.664583E+00 +8.566356E+02 +1.169785E+01 +1.726139E+01 +1.169785E+01 +3.619051E+02 
 +4.639654E+02 -2.267775E+00 +9.124710E+00 -2.267775E+00 +8.627951E+02 +1.764576E+01 +9.124710E+00 +1.764576E+01 +3.607168E+02 
 +5.029990E+02 +6.807538E-01 +2.528429E+01 +6.807538E-01 +8.851961E+02 +1.881177E+01 +2.528429E+01 +1.881177E+01 +3.661690E+02 
 +4.981900E+02 -1.245063E+00 +1.840074E+01 -1.245063E+00 +8.793844E+02 +6.954010E+00 +1.840074E+01 +6.954010E+00 +3.690628E+02 
 +5.075025E+02 -2.649424E+00 +2.024063E+01 -2.649424E+00 +8.861039E+02 -4.465458E+00 +2.024063E+01 -4.465458E+00 +3.882637E+02 
 +5.054003E+02 -1.763997E+00 +1.116432E+01 -1.763997E+00 +8.884615E+02 -7.797580E+00 +1.116432E+01 -7.797580E+00 +3.873272E+02 
 +5.004753E+02 -1.569264E+00 +2.300922E+01 -1.569264E+00 +8.876274E+02 -1.067072E+01 +2.300922E+01 -1.067072E+01 +3.749618E+02 
 +4.888461E+02 +1.798466E+00 +3.086021E+01 +1.798466E+00 +8.762436E+02 -1.805110E+01 +3.086021E+01 -1.805110E+01 +3.576351E+02 
 +4.855368E+02 -1.628102E+00 -1.035351E+00 -1.628102E+00 +8.638505E+02 -6.446235E+00 -1.035351E+00 -6.446235E+00 +3.591391E+02 
 +4.894758E+02 -1.468628E+00 -1.633904E+01 -1.468628E+00 +8.652175E+02 +4.325696E+00 -1.633904E+01 +4.325696E+00 +3.678850E+02 
 +4.964656E+02 +3.501570E+00 -1.720035E+01 +3.501570E+00 +8.741448E+02 +1.269438E+00 -1.720035E+01 +1.269438E+00 +3.598733E+02 
 +5.078312E+02 +7.304657E+00 -1.216827E+01 +7.304657E+00 +8.783294E+02 +1.950968E+00 -1.216827E+01 +1.950968E+00 +3.538378E+02 
 +5.180476E+02 +9.193360E+00 -1.641888E+01 +9.193360E+00 +8.728177E+02 +5.517886E+00 -1.641888E+01 +5.517886E+00 +3.599894E+02 
 +5.252224E+02 +1.575102E+00 -3.227559E+00 +1.575102E+00 +8.657270E+02 +9.993118E+00 -3.227559E+00 +9.993118E+00 +3.715369E+02 
 +5.257275E+02 -3.331138E+00 -5.221791E+00 -3.331138E+00 +8.619577E+02 +8.843441E+00 -5.221791E+00 +8.843441E+00 +3.851463E+02 
 +5.024122E+02 -5.672889E+00 -2.347583E+00 -5.672889E+00 +8.537728E+02 +5.047933E+00 -2.347583E+00 +5.047933E+00 +3.900701E+02 
 +4.938676E+02 -6.688812E+00 +1.380928E+01 -6.688812E+00 +8.606501E+02 +9.430439E-01 +1.380928E+01 +9.430439E-01 +4.045826E+02 
 +4.896568E+02 -4.007581E+00 +3.100783E+00 -4.007581E+00 +8.654658E+02 +1.665809E+00 +3.100783E+00 +1.665809E+00 +4.041775E+02 
 +4.766918E+02 -4.145640E+00 +4.727743E+00 -4.145640E+00 +8.552450E+02 -7.995302E+00 +4.727743E+00 -7.995302E+00 +3.854340E+02 
 +4.898173E+02 -7.565884E+00 +2.987828E+01 -7.565884E+00 +8.670621E+02 -1.011782E+01 +2.987828E+01 -1.011782E+01 +3.942526E+02 
 +4.897321E+02 -2.728387E+00 +2.273297E+01 -2.728387E+00 +8.747629E+02 -4.072421E+00 +2.273297E+01 -4.072421E+00 +3.819409E+02 
 +4.833952E+02 -4.213026E+00 +2.253465E+01 -4.213026E+00 +8.698956E+02 +1.537391E+00 +2.253465E+01 +1.537391E+00 +3.699736E+02 
 +4.831318E+02 -1.607750E+00 +1.890172E+01 -1.607750E+00 +8.781795E+02 +8.818711E+00 +1.890172E+01 +8.818711E+00 +3.743294E+02 
 +4.810926E+02 +3.643887E+00 +1.857226E+01 +3.643887E+00 +8.833897E+02 +1.288450E+01 +1.857226E+01 +1.288450E+01 +3.763534E+02 
 +4.922381E+02 +3.183488E+00 +1.595772E+01 +3.183488E+00 +8.865567E+02 +8.423506E+00 +1.595772E+01 +8.423506E+00 +3.879778E+02 
 +5.125674E+02 -6.846853E-01 +1.958295E+01 -6.846853E-01 +8.904257E+02 -3.839237E+00 +1.958295E+01 -3.839237E+00 +4.062311E+02 
 +5.062974E+02 -2.490749E+00 +2.124856E+01 -2.490749E+00 +8.854919E+02 -1.134167E+01 +2.124856E+01 -1.134167E+01 +3.984430E+02 
 +5.051339E+02 +1.457145E+00 +1.571794E+01 +1.457145E+00 +8.831154E+02 -1.595572E+01 +1.571794E+01 -1.595572E+01 +3.722855E+02 
 +5.031353E+02 +5.473186E+00 +2.592108E+01 +5.473186E+00 +8.778893E+02 -2.403809E+01 +2.592108E+01 -2.403809E+01 +3.427292E+02 
 +4.886924E+02 +4.328167E+00 +3.475225E+01 +4.328167E+00 +8.709916E+02 -1.974554E+01 +3.475225E+01 -1.974554E+01 +3.234013E+02 
 +4.797714E+02 +1.267846E+00 +6.064247E+00 +1.267846E+00 +8.753990E+02 -5.286788E+00 +6.064247E+00 -5.286788E+00 +3.527931E+02 
 +5.027298E+02 +3.078618E+00 -7.142113E+00 +3.078618E+00 +8.914519E+02 +1.066378E+01 -7.142113E+00 +1.066378E+01 +4.176250E+02 
 +5.255466E+02 +2.227730E+00 -9.924973E+00 +2.227730E+00 +8.910829E+02 +1.943958E+01 -9.924973E+00 +1.943958E+01 +4.227371E+02 
 +5.127920E+02 -4.039762E+00 -9.880630E+00 -4.039762E+00 +8.711207E+02 +1.913290E+01 -9.880630E+00 +1.913290E+01 +3.868350E+02 
 +5.061688E+02 -3.607866E+00 -1.197307E+01 -3.607866E+00 +8.620413E+02 +1.795600E+01 -1.197307E+01 +1.795600E+01 +3.756434E+02 
 +5.018134E+02 -5.518178E-02 -1.379715E+01 -5.518178E-02 +8.571788E+02 +1.306959E+01 -1.379715E+01 +1.306959E+01 +3.780086E+02 
 +4.966613E+02 +2.470257E+00 -1.703228E+01 +2.470257E+00 +8.529494E+02 +6.044810E+00 -1.703228E+01 +6.044810E+00 +3.892926E+02 
 +4.885687E+02 +1.948327E+00 -1.785193E+01 +1.948327E+00 +8.499889E+02 -1.082274E+00 -1.785193E+01 -1.082274E+00 +3.920107E+02 
 +4.830439E+02 +2.896941E+00 -1.539651E+01 +2.896941E+00 +8.467266E+02 -5.890804E+00 -1.539651E+01 -5.890804E+00 +3.906430E+02 
 +4.915276E+02 -9.681133E-01 -2.131194E+01 -9.681133E-01 +8.524383E+02 -1.114888E+01 -2.131194E+01 -1.114888E+01 +3.971067E+02 
 +4.783056E+02 -4.089294E+00 +3.210751E+01 -4.089294E+00 +8.613211E+02 +8.785301E+00 +3.210751E+01 +8.785301E+00 +3.915809E+02 
 +4.893623E+02 +1.115078E+00 +1.546965E+01 +1.115078E+00 +8.729305E+02 -2.215763E-01 +1.546965E+01 -2.215763E-01 +3.846911E+02 
 +4.889269E+02 +4.819630E+00 +1.295060E+01 +4.819630E+00 +8.747068E+02 -2.740096E+00 +1.295060E+01 -2.740096E+00 +3.748424E+02 
 +4.772594E+02 +5.379374E+00 +2.247219E+01 +5.379374E+00 +8.749450E+02 +6.450543E-01 +2.247219E+01 +6.450543E-01 +3.658552E+02 
 +4.801274E+02 +5.137337E+00 +1.821039E+01 +5.137337E+00 +8.818728E+02 +4.198875E+00 +1.821039E+01 +4.198875E+00 +3.724730E+02 
 +4.883463E+02 +4.254519E+00 +1.060105E+01 +4.254519E+00 +8.874331E+02 +3.489561E+00 +1.060105E+01 +3.489561E+00 +3.912682E+02 
 +4.946820E+02 +3.180215E+00 +5.429452E+00 +3.180215E+00 +8.860892E+02 -2.025392E+00 +5.429452E+00 -2.025392E+00 +4.095745E+02 
 +5.109762E+02 +4.117778E+00 +1.532406E+01 +4.117778E+00 +8.852012E+02 -1.249000E+01 +1.532406E+01 -1.249000E+01 +4.082155E+02 
 +5.084955E+02 +5.078797E+00 +1.418178E+01 +5.078797E+00 +8.775851E+02 -1.268516E+01 +1.418178E+01 -1.268516E+01 +3.826416E+02 
 +5.023023E+02 +7.745209E+00 +1.182931E+01 +7.745209E+00 +8.712379E+02 -1.120254E+01 +1.182931E+01 -1.120254E+01 +3.507771E+02 
 +4.898764E+02 +6.413213E+00 +1.568519E+01 +6.413213E+00 +8.649072E+02 -1.099946E+01 +1.568519E+01 -1.099946E+01 +3.361129E+02 
 +4.873943E+02 +3.904980E+00 -1.910994E+01 +3.904980E+00 +8.669893E+02 -8.275365E-01 -1.910994E+01 -8.275365E-01 +3.706879E+02 
 +5.072389E+02 +3.857004E+00 -1.842164E+01 +3.857004E+00 +8.793104E+02 +6.128543E+00 -1.842164E+01 +6.128543E+00 +4.198400E+02 
 +5.173470E+02 +3.474152E+00 -1.718722E+01 +3.474152E+00 +8.784354E+02 +9.582274E+00 -1.718722E+01 +9.582274E+00 +4.096576E+02 
 +5.101498E+02 -2.389518E-01 -6.266637E+00 -2.389518E-01 +8.686845E+02 +1.366757E+01 -6.266637E+00 +1.366757E+01 +3.780016E+02 
 +5.057042E+02 -1.237141E+00 -9.236318E+00 -1.237141E+00 +8.638192E+02 +1.453960E+01 -9.236318E+00 +1.453960E+01 +3.695818E+02 
 +4.976142E+02 +8.578490E-01 -1.216136E+01 +8.578490E-01 +8.558265E+02 +1.416892E+01 -1.216136E+01 +1.416892E+01 +3.701534E+02 
 +4.935992E+02 +5.360435E+00 -1.709517E+01 +5.360435E+00 +8.518473E+02 +1.114892E+01 -1.709517E+01 +1.114892E+01 +3.828466E+02 
 +4.891316E+02 +8.493581E+00 -1.528098E+01 +8.493581E+00 +8.499089E+02 +4.504823E+00 -1.528098E+01 +4.504823E+00 +3.970860E+02 
 +4.948948E+02 +7.091087E+00 -8.980191E+00 +7.091087E+00 +8.537631E+02 -7.821184E-01 -8.980191E+00 -7.821184E-01 +4.076310E+02 
 +4.987180E+02 +1.987425E-01 -7.615120E+00 +1.987425E-01 +8.617602E+02 +7.639156E+00 -7.615120E+00 +7.639156E+00 +4.099988E+02 
 +4.835653E+02 -3.573107E+00 +1.368925E+01 -3.573107E+00 +8.629652E+02 +1.028737E+01 +1.368925E+01 +1.028737E+01 +3.920389E+02 
 +4.933432E+02 -3.451396E+00 +2.326523E+00 -3.451396E+00 +8.729462E+02 +1.812594E-01 +2.326523E+00 +1.812594E-01 +3.888007E+02 
 +4.880557E+02 +9.912600E-01 -2.374605E+00 +9.912600E-01 +8.743537E+02 -2.839992E+00 -2.374605E+00 -2.839992E+00 +3.672793E+02 
 +4.761526E+02 +2.928182E+00 +1.831098E+01 +2.928182E+00 +8.756758E+02 -8.530609E-01 +1.831098E+01 -8.530609E-01 +3.618119E+02 
 +4.885587E+02 +5.284955E+00 +8.224737E+00 +5.284955E+00 +8.861173E+02 -5.758085E+00 +8.224737E+00 -5.758085E+00 +3.809981E+02 
 +4.960594E+02 +7.284481E+00 +4.362773E+00 +7.284481E+00 +8.934012E+02 -1.395493E+01 +4.362773E+00 -1.395493E+01 +3.920686E+02 
 +4.916472E+02 +6.110885E+00 -7.015728E+00 +6.110885E+00 +8.893968E+02 -1.760299E+01 -7.015728E+00 -1.760299E+01 +4.049356E+02 
 +4.980262E+02 +8.790024E+00 +8.868793E+00 +8.790024E+00 +8.778060E+02 -1.654623E+01 +8.868793E+00 -1.654623E+01 +4.068772E+02 
 +5.001698E+02 +8.814222E+00 +1.463403E+01 +8.814222E+00 +8.716880E+02 -1.398413E+01 +1.463403E+01 -1.398413E+01 +4.030805E+02 
 +4.868315E+02 +4.052200E+00 +6.533941E+00 +4.052200E+00 +8.591313E+02 -1.078544E+01 +6.533941E+00 -1.078544E+01 +3.649038E+02 
 +5.011888E+02 -7.022928E-01 -1.707006E+00 -7.022928E-01 +8.529625E+02 -9.801898E+00 -1.707006E+00 -9.801898E+00 +3.482788E+02 
 +4.997873E+02 +5.159913E+00 -2.549617E+01 +5.159913E+00 +8.566361E+02 -6.107086E+00 -2.549617E+01 -6.107086E+00 +3.797182E+02 
 +5.011658E+02 +2.364324E+00 -2.536757E+01 +2.364324E+00 +8.678182E+02 +2.200269E+00 -2.536757E+01 +2.200269E+00 +4.000172E+02 
 +5.064096E+02 +1.729270E+00 -1.569026E+01 +1.729270E+00 +8.656023E+02 +4.560328E+00 -1.569026E+01 +4.560328E+00 +3.859421E+02 
 +5.107165E+02 -1.265800E+00 -7.024365E+00 -1.265800E+00 +8.669346E+02 +3.335883E+00 -7.024365E+00 +3.335883E+00 +3.744804E+02 
 +5.033473E+02 -2.708736E+00 -1.064802E+00 -2.708736E+00 +8.619918E+02 +8.491923E+00 -1.064802E+00 +8.491923E+00 +3.601502E+02 
 +4.926765E+02 +4.334031E-01 -8.944886E+00 +4.334031E-01 +8.528545E+02 +1.308262E+01 -8.944886E+00 +1.308262E+01 +3.572953E+02 
 +4.893179E+02 +3.641857E+00 -1.511108E+01 +3.641857E+00 +8.512594E+02 +1.030349E+01 -1.511108E+01 +1.030349E+01 +3.730643E+02 
 +4.897007E+02 +5.435878E+00 -1.775181E+01 +5.435878E+00 +8.539729E+02 +5.916401E+00 -1.775181E+01 +5.916401E+00 +3.941801E+02 
 +4.917152E+02 +1.947117E+00 -8.169665E+00 +1.947117E+00 +8.577330E+02 +3.975458E+00 -8.169665E+00 +3.975458E+00 +4.044548E+02 
 +4.829683E+02 -1.945934E+00 +5.039333E-01 -1.945934E+00 +8.568953E+02 +1.091513E+01 +5.039333E-01 +1.091513E+01 +3.992377E+02 
 +4.810744E+02 -3.420892E+00 +1.021195E+01 -3.420892E+00 +8.586423E+02 -7.340288E+00 +1.021195E+01 -7.340288E+00 +3.936515E+02 
 +4.838193E+02 -6.972651E+00 -4.881721E+00 -6.972651E+00 +8.683438E+02 -4.565971E+00 -4.881721E+00 -4.565971E+00 +3.844522E+02 
 +4.846487E+02 -4.068826E+00 -7.533478E+00 -4.068826E+00 +8.692573E+02 -3.036575E+00 -7.533478E+00 -3.036575E+00 +3.618221E+02 
 +4.859578E+02 -2.508493E+00 +4.069509E+00 -2.508493E+00 +8.703254E+02 -7.306154E+00 +4.069509E+00 -7.306154E+00 +3.642750E+02 
 +4.994649E+02 +1.272292E+00 -3.176960E+00 +1.272292E+00 +8.838145E+02 -1.676838E+01 -3.176960E+00 -1.676838E+01 +3.863514E+02 
 +5.129700E+02 +6.757442E+00 -8.283190E+00 +6.757442E+00 +8.983470E+02 -2.409372E+01 -8.283190E+00 -2.409372E+01 +3.990355E+02 
 +5.128866E+02 +5.641465E+00 -1.568076E+01 +5.641465E+00 +9.003004E+02 -2.927890E+01 -1.568076E+01 -2.927890E+01 +4.092622E+02 
 +4.697603E+02 +7.300791E+00 +1.597771E+01 +7.300791E+00 +8.638480E+02 -2.277406E+01 +1.597771E+01 -2.277406E+01 +3.961113E+02 
 +4.756239E+02 +1.410830E+01 +1.490862E+01 +1.410830E+01 +8.611721E+02 -1.389103E+01 +1.490862E+01 -1.389103E+01 +4.027273E+02 
 +4.815664E+02 +9.110472E+00 -4.178740E-01 +9.110472E+00 +8.487516E+02 -1.403266E+01 -4.178740E-01 -1.403266E+01 +3.821772E+02 
 +5.001368E+02 +3.514755E+00 -1.655278E+01 +3.514755E+00 +8.330987E+02 -1.770423E+01 -1.655278E+01 -1.770423E+01 +3.682598E+02 
 +5.029516E+02 +1.189288E+01 -1.210795E+01 +1.189288E+01 +8.386721E+02 -9.418725E+00 -1.210795E+01 -9.418725E+00 +3.755888E+02 
 +4.889816E+02 +3.142213E+00 -2.496191E+01 +3.142213E+00 +8.503306E+02 +2.658180E+00 -2.496191E+01 +2.658180E+00 +3.816779E+02 
 +5.011713E+02 -9.746329E-01 -1.840869E+01 -9.746329E-01 +8.671664E+02 -7.504027E-02 -1.840869E+01 -7.504027E-02 +3.868097E+02 
 +5.265977E+02 -4.836847E+00 -1.219986E+01 -4.836847E+00 +8.783397E+02 -2.111433E+00 -1.219986E+01 -2.111433E+00 +3.902523E+02 
 +5.171696E+02 -2.283224E+00 -3.155049E-01 -2.283224E+00 +8.629026E+02 +3.223587E+00 -3.155049E-01 +3.223587E+00 +3.669204E+02 
 +4.758596E+02 +2.156154E+00 -7.718118E+00 +2.156154E+00 +8.425515E+02 +6.788133E+00 -7.718118E+00 +6.788133E+00 +3.441251E+02 
 +4.778077E+02 +6.482956E-01 -1.291497E+01 +6.482956E-01 +8.520776E+02 +5.972653E+00 -1.291497E+01 +5.972653E+00 +3.612114E+02 
 +4.817592E+02 -7.420761E-01 -1.575716E+01 -7.420761E-01 +8.563544E+02 +2.507267E+00 -1.575716E+01 +2.507267E+00 +3.823325E+02 
 +4.773060E+02 -3.408201E+00 -5.878752E+00 -3.408201E+00 +8.511223E+02 -2.974190E+00 -5.878752E+00 -2.974190E+00 +3.849303E+02 
 +4.750566E+02 -3.981223E+00 +4.840779E-01 -3.981223E+00 +8.491260E+02 -8.975376E+00 +4.840779E-01 -8.975376E+00 +3.878036E+02 
 +4.772329E+02 -3.550476E+00 +1.310695E+01 -3.550476E+00 +8.612923E+02 -1.189211E+01 +1.310695E+01 -1.189211E+01 +3.907719E+02 
 +4.727312E+02 -5.563595E+00 -5.388476E+00 -5.563595E+00 +8.611167E+02 -1.332065E+01 -5.388476E+00 -1.332065E+01 +3.744575E+02 
 +4.791925E+02 -4.902411E+00 -1.049490E+01 -4.902411E+00 +8.610250E+02 -1.504020E+01 -1.049490E+01 -1.504020E+01 +3.622413E+02 
 +4.901466E+02 -5.707909E+00 -1.601220E-01 -5.707909E+00 +8.668495E+02 -1.586334E+01 -1.601220E-01 -1.586334E+01 +3.710350E+02 
 +5.107710E+02 -4.994305E+00 -9.933970E+00 -4.994305E+00 +8.827604E+02 -1.502914E+01 -9.933970E+00 -1.502914E+01 +3.858409E+02 
 +5.264350E+02 -1.654824E+00 -1.626882E+01 -1.654824E+00 +8.828176E+02 -1.121355E+01 -1.626882E+01 -1.121355E+01 +3.888488E+02 
 +5.220355E+02 -6.957645E-01 -1.277137E+01 -6.957645E-01 +8.726383E+02 -9.881456E-01 -1.277137E+01 -9.881456E-01 +3.931693E+02 
 +4.478516E+02 +6.038335E+00 +1.534791E+01 +6.038335E+00 +8.454408E+02 -2.535629E+00 +1.534791E+01 -2.535629E+00 +3.827962E+02 
 +4.522439E+02 +1.478998E+01 +1.177438E+01 +1.478998E+01 +8.421704E+02 -1.163185E+01 +1.177438E+01 -1.163185E+01 +3.885441E+02 
 +4.920627E+02 +9.960659E+00 -1.205594E+01 +9.960659E+00 +8.436700E+02 -1.395672E+01 -1.205594E+01 -1.395672E+01 +3.960554E+02 
 +4.881425E+02 +5.895321E+00 -2.632541E+01 +5.895321E+00 +8.522070E+02 -8.856340E+00 -2.632541E+01 -8.856340E+00 +3.955365E+02 
 +5.091279E+02 +2.926108E+00 -6.859699E+00 +2.926108E+00 +8.646236E+02 -2.119093E+00 -6.859699E+00 -2.119093E+00 +3.971694E+02 
 +4.944248E+02 -4.956273E+00 -1.719558E+01 -4.956273E+00 +8.562742E+02 +6.197016E+00 -1.719558E+01 +6.197016E+00 +3.879378E+02 
 +5.174929E+02 -9.726507E+00 -2.620923E+01 -9.726507E+00 +8.751358E+02 +3.744543E+00 -2.620923E+01 +3.744543E+00 +4.148830E+02 
 +5.163629E+02 -1.600503E+01 -4.928522E-01 -1.600503E+01 +8.482489E+02 -9.462382E-01 -4.928522E-01 -9.462382E-01 +3.954293E+02 
 +4.991142E+02 -1.351538E+01 +6.294246E+00 -1.351538E+01 +8.288982E+02 +3.928062E+00 +6.294246E+00 +3.928062E+00 +3.560715E+02 
 +4.688320E+02 -7.969609E+00 -7.455587E+00 -7.969609E+00 +8.303354E+02 -5.292574E-01 -7.455587E+00 -5.292574E-01 +3.413755E+02 
 +4.689709E+02 -4.531826E+00 -1.368078E+01 -4.531826E+00 +8.449344E+02 -5.171138E+00 -1.368078E+01 -5.171138E+00 +3.536070E+02 
 +4.695721E+02 -3.347600E+00 -1.305666E+01 -3.347600E+00 +8.503966E+02 -6.355727E+00 -1.305666E+01 -6.355727E+00 +3.690410E+02 
 +4.730381E+02 -4.206088E+00 -7.686126E+00 -4.206088E+00 +8.523879E+02 -9.991733E+00 -7.686126E+00 -9.991733E+00 +3.768916E+02 
 +4.756005E+02 -4.810693E+00 -1.872157E+00 -4.810693E+00 +8.557326E+02 -1.103161E+01 -1.872157E+00 -1.103161E+01 +3.842260E+02 
 +4.684484E+02 -3.438507E+00 +6.305405E+00 -3.438507E+00 +8.594401E+02 -1.636920E+01 +6.305405E+00 -1.636920E+01 +3.843804E+02 
 +4.634863E+02 -6.247397E+00 -5.055886E+00 -6.247397E+00 +8.506343E+02 -1.730921E+01 -5.055886E+00 -1.730921E+01 +3.655995E+02 
 +4.660351E+02 -8.573309E+00 -2.326935E+01 -8.573309E+00 +8.508710E+02 -1.971458E+01 -2.326935E+01 -1.971458E+01 +3.519530E+02 
 +4.925550E+02 -6.435371E+00 +8.330686E+00 -6.435371E+00 +8.670141E+02 -1.975239E+01 +8.330686E+00 -1.975239E+01 +3.629205E+02 
 +5.170158E+02 -3.526265E+00 -8.708225E+00 -3.526265E+00 +8.679345E+02 -9.209429E+00 -8.708225E+00 -9.209429E+00 +3.614888E+02 
 +5.215398E+02 -3.512004E+00 -1.206504E+01 -3.512004E+00 +8.510046E+02 +4.694845E+00 -1.206504E+01 +4.694845E+00 +3.502999E+02 
 +5.283435E+02 -1.673226E-01 -8.632162E+00 -1.673226E-01 +8.590329E+02 +9.618623E+00 -8.632162E+00 +9.618623E+00 +3.743287E+02 
 +4.494966E+02 +8.090070E+00 -1.810403E+00 +8.090070E+00 +8.353258E+02 +1.538404E+00 -1.810403E+00 +1.538404E+00 +3.866839E+02 
 +4.576014E+02 +8.001965E+00 -7.042334E-01 +8.001965E+00 +8.452086E+02 -2.301015E+00 -7.042334E-01 -2.301015E+00 +4.036789E+02 
 +4.903015E+02 +4.295256E+00 -1.665248E+01 +4.295256E+00 +8.656916E+02 +3.899664E+00 -1.665248E+01 +3.899664E+00 +4.146141E+02 
 +4.844278E+02 +4.518389E+00 -2.562232E+01 +4.518389E+00 +8.673787E+02 +6.772154E+00 -2.562232E+01 +6.772154E+00 +4.146451E+02 
 +4.918006E+02 +4.194750E+00 -1.521176E+01 +4.194750E+00 +8.725413E+02 -5.050142E+00 -1.521176E+01 -5.050142E+00 +4.059625E+02 
 +5.047564E+02 +7.649907E-01 +8.209241E-01 +7.649907E-01 +8.621078E+02 -8.420527E+00 +8.209241E-01 -8.420527E+00 +3.843031E+02 
 +5.282011E+02 -6.081375E+00 -1.674697E+01 -6.081375E+00 +8.626862E+02 -1.552817E+00 -1.674697E+01 -1.552817E+00 +4.039220E+02 
 +5.132883E+02 -1.198855E+01 +1.933220E+01 -1.198855E+01 +8.691229E+02 -7.131053E+00 +1.933220E+01 -7.131053E+00 +3.897338E+02 
 +4.995565E+02 -1.006758E+01 +2.377463E+01 -1.006758E+01 +8.637181E+02 -1.499696E+01 +2.377463E+01 -1.499696E+01 +3.525211E+02 
 +4.860832E+02 -5.386250E+00 -4.914444E+00 -5.386250E+00 +8.467836E+02 -1.779005E+01 -4.914444E+00 -1.779005E+01 +3.481488E+02 
 +4.728374E+02 -3.689218E+00 -1.489305E+01 -3.689218E+00 +8.445293E+02 -1.295506E+01 -1.489305E+01 -1.295506E+01 +3.545174E+02 
 +4.700326E+02 -5.362225E+00 -1.494011E+01 -5.362225E+00 +8.520978E+02 -8.381347E+00 -1.494011E+01 -8.381347E+00 +3.645123E+02 
 +4.718607E+02 -4.818234E+00 -1.105881E+01 -4.818234E+00 +8.565002E+02 -1.092299E+01 -1.105881E+01 -1.092299E+01 +3.717880E+02 
 +4.717925E+02 -4.161427E+00 -4.281273E+00 -4.161427E+00 +8.598085E+02 -1.259645E+01 -4.281273E+00 -1.259645E+01 +3.753657E+02 
 +4.672547E+02 -1.429592E+00 -4.158123E+00 -1.429592E+00 +8.606888E+02 -1.061592E+01 -4.158123E+00 -1.061592E+01 +3.814257E+02 
 +4.491901E+02 -3.427402E+00 -8.241513E+00 -3.427402E+00 +8.444469E+02 -1.286550E+01 -8.241513E+00 -1.286550E+01 +3.661353E+02 
 +4.494572E+02 -5.940106E+00 -2.879992E+01 -5.940106E+00 +8.422206E+02 -1.372227E+01 -2.879992E+01 -1.372227E+01 +3.457235E+02 
 +5.188612E+02 -4.881957E+00 +7.618472E+00 -4.881957E+00 +8.767239E+02 -1.631162E+01 +7.618472E+00 -1.631162E+01 +3.525418E+02 
 +5.364432E+02 -3.276427E+00 +9.926375E-01 -3.276427E+00 +8.801935E+02 -1.668640E+01 +9.926375E-01 -1.668640E+01 +3.450720E+02 
 +5.449409E+02 -4.734647E+00 -1.062173E+00 -4.734647E+00 +8.886586E+02 -1.249668E+01 -1.062173E+00 -1.249668E+01 +3.467923E+02 
 +5.562820E+02 +3.899489E-02 -6.504306E+00 +3.899489E-02 +9.034179E+02 -9.737749E+00 -6.504306E+00 -9.737749E+00 +3.794008E+02 
 +4.752348E+02 +4.922481E+00 -9.820712E+00 +4.922481E+00 +8.641173E+02 +1.680832E+00 -9.820712E+00 +1.680832E+00 +4.041863E+02 
 +4.636778E+02 +1.403829E+00 -7.747641E+00 +1.403829E+00 +8.591295E+02 +1.388379E+01 -7.747641E+00 +1.388379E+01 +4.164241E+02 
 +4.725698E+02 +3.446330E+00 -1.541416E+01 +3.446330E+00 +8.649935E+02 +1.711707E+01 -1.541416E+01 +1.711707E+01 +4.150609E+02 
 +4.891764E+02 +6.234398E+00 -1.994766E+01 +6.234398E+00 +8.769732E+02 +1.415034E+01 -1.994766E+01 +1.415034E+01 +4.258597E+02 
 +4.858915E+02 +5.850433E+00 -1.751811E+01 +5.850433E+00 +8.686002E+02 +2.281601E+00 -1.751811E+01 +2.281601E+00 +4.054941E+02 
 +5.214535E+02 +1.571009E+00 +1.365291E+01 +1.571009E+00 +8.770889E+02 -5.678481E+00 +1.365291E+01 -5.678481E+00 +3.799752E+02 
 +5.315112E+02 -5.004281E+00 +6.718099E+00 -5.004281E+00 +8.878699E+02 +5.063099E+00 +6.718099E+00 +5.063099E+00 +3.827041E+02 
 +5.090809E+02 -1.087847E+01 +1.925073E+01 -1.087847E+01 +8.779616E+02 +6.648632E-01 +1.925073E+01 +6.648632E-01 +3.763785E+02 
 +4.885494E+02 -1.052876E+01 +2.396142E+01 -1.052876E+01 +8.616191E+02 -1.938839E+01 +2.396142E+01 -1.938839E+01 +3.522259E+02 
 +4.919769E+02 -5.335586E+00 -5.603333E+00 -5.335586E+00 +8.601256E+02 -2.070287E+01 -5.603333E+00 -2.070287E+01 +3.502237E+02 
 +4.774122E+02 -5.760712E-01 -1.796191E+01 -5.760712E-01 +8.501576E+02 -1.294925E+01 -1.796191E+01 -1.294925E+01 +3.528343E+02 
 +4.712003E+02 -2.865870E+00 -1.924253E+01 -2.865870E+00 +8.530244E+02 -1.023151E+01 -1.924253E+01 -1.023151E+01 +3.610898E+02 
 +4.719396E+02 -3.222383E+00 -1.463686E+01 -3.222383E+00 +8.608684E+02 -1.103573E+01 -1.463686E+01 -1.103573E+01 +3.636508E+02 
 +4.698054E+02 -2.664323E+00 -9.384793E+00 -2.664323E+00 +8.623162E+02 -1.054051E+01 -9.384793E+00 -1.054051E+01 +3.661125E+02 
 +4.657470E+02 +5.538822E-03 -8.801246E+00 +5.538822E-03 +8.604131E+02 -9.261737E+00 -8.801246E+00 -9.261737E+00 +3.766495E+02 
 +4.318376E+02 -1.507458E+00 -1.218301E+01 -1.507458E+00 +8.408742E+02 -1.091049E+01 -1.218301E+01 -1.091049E+01 +3.621484E+02 
 +4.405861E+02 -1.258790E+00 -2.053929E+01 -1.258790E+00 +8.384591E+02 -1.130717E+01 -2.053929E+01 -1.130717E+01 +3.472065E+02 
 +5.435395E+02 -2.883926E+00 +6.357817E+00 -2.883926E+00 +8.850405E+02 -7.881889E+00 +6.357817E+00 -7.881889E+00 +3.553047E+02 
 +5.394911E+02 -6.395006E+00 +8.137518E+00 -6.395006E+00 +8.807518E+02 -7.724655E+00 +8.137518E+00 -7.724655E+00 +3.433283E+02 
 +5.426261E+02 -8.845252E+00 +8.573495E+00 -8.845252E+00 +8.840849E+02 -5.589221E+00 +8.573495E+00 -5.589221E+00 +3.442773E+02 
 +5.478856E+02 -7.214798E+00 +1.444277E+00 -7.214798E+00 +8.928917E+02 +2.154456E-01 +1.444277E+00 +2.154456E-01 +3.543631E+02 
 +4.873642E+02 -2.978258E+00 -2.446633E+00 -2.978258E+00 +8.695046E+02 +6.423127E+00 -2.446633E+00 +6.423127E+00 +3.833112E+02 
 +4.578880E+02 +8.743252E-01 -7.672143E+00 +8.743252E-01 +8.565375E+02 +1.093070E+01 -7.672143E+00 +1.093070E+01 +4.087892E+02 
 +4.647321E+02 +2.521042E+00 -1.447192E+01 +2.521042E+00 +8.601014E+02 +1.415033E+01 -1.447192E+01 +1.415033E+01 +4.152796E+02 
 +4.759951E+02 +5.173469E+00 -1.333850E+01 +5.173469E+00 +8.644151E+02 +1.546861E+01 -1.333850E+01 +1.546861E+01 +4.150932E+02 
 +5.007595E+02 +5.713552E+00 -1.314146E+01 +5.713552E+00 +8.757899E+02 +7.758696E+00 -1.314146E+01 +7.758696E+00 +4.150077E+02 
 +5.286286E+02 +4.791025E-01 +1.316945E+01 +4.791025E-01 +8.889582E+02 +6.436870E-02 +1.316945E+01 +6.436870E-02 +3.989937E+02 
 +5.269466E+02 -3.245448E+00 +1.784047E+01 -3.245448E+00 +8.908576E+02 +1.658786E-01 +1.784047E+01 +1.658786E-01 +3.866199E+02 
 +5.150680E+02 -7.837790E+00 +1.222021E+01 -7.837790E+00 +8.925928E+02 -1.605280E+00 +1.222021E+01 -1.605280E+00 +3.866839E+02 
 +5.016228E+02 -9.664640E+00 +3.436941E-01 -9.664640E+00 +8.848106E+02 -1.496916E+01 +3.436941E-01 -1.496916E+01 +3.663316E+02 
 +4.851946E+02 -5.986628E+00 -1.739433E+01 -5.986628E+00 +8.650140E+02 -2.358598E+01 -1.739433E+01 -2.358598E+01 +3.366984E+02 
 +4.783159E+02 -1.217143E+00 -2.228214E+01 -1.217143E+00 +8.572417E+02 -1.750760E+01 -2.228214E+01 -1.750760E+01 +3.464523E+02 
 +4.749803E+02 -1.163155E+00 -2.506045E+01 -1.163155E+00 +8.617865E+02 -1.134750E+01 -2.506045E+01 -1.134750E+01 +3.628092E+02 
 +4.787334E+02 -2.358242E+00 -2.241478E+01 -2.358242E+00 +8.680997E+02 -1.159370E+01 -2.241478E+01 -1.159370E+01 +3.588165E+02 
 +4.782439E+02 -7.707692E-01 -1.204434E+01 -7.707692E-01 +8.682472E+02 -1.212281E+01 -1.204434E+01 -1.212281E+01 +3.680854E+02 
 +4.590385E+02 -2.481918E+00 -6.123079E+00 -2.481918E+00 +8.674728E+02 -4.698163E+00 -6.123079E+00 -4.698163E+00 +3.716201E+02 
 +4.467220E+02 +2.628159E-01 -1.204332E+01 +2.628159E-01 +8.574516E+02 -7.575733E+00 -1.204332E+01 -7.575733E+00 +3.633337E+02 
 +4.362644E+02 +3.527489E+00 -1.708750E+01 +3.527489E+00 +8.364799E+02 -1.732326E+01 -1.708750E+01 -1.732326E+01 +3.364586E+02 
 +5.319438E+02 +1.545769E+00 +1.466630E+01 +1.545769E+00 +8.768333E+02 -1.732686E+01 +1.466630E+01 -1.732686E+01 +3.440473E+02 
 +5.334366E+02 -7.295510E+00 +1.079456E+01 -7.295510E+00 +8.772677E+02 -1.030754E+01 +1.079456E+01 -1.030754E+01 +3.465063E+02 
 +5.354091E+02 -1.066159E+01 +1.203671E+01 -1.066159E+01 +8.824844E+02 -3.066666E+00 +1.203671E+01 -3.066666E+00 +3.564971E+02 
 +5.364584E+02 -1.386298E+01 +8.010914E+00 -1.386298E+01 +8.851363E+02 +9.542115E+00 +8.010914E+00 +9.542115E+00 +3.492874E+02 
 +5.071267E+02 -1.376145E+01 +6.831111E+00 -1.376145E+01 +8.731991E+02 +1.593122E+01 +6.831111E+00 +1.593122E+01 +3.629583E+02 
 +4.577313E+02 -8.318228E+00 +3.166990E-01 -8.318228E+00 +8.541894E+02 +1.514478E+01 +3.166990E-01 +1.514478E+01 +3.874276E+02 
 +4.505391E+02 -3.855412E+00 -1.178152E+01 -3.855412E+00 +8.573658E+02 +1.417880E+01 -1.178152E+01 +1.417880E+01 +4.002873E+02 
 +4.751277E+02 -5.071155E+00 -1.067559E+01 -5.071155E+00 +8.643499E+02 +1.368876E+01 -1.067559E+01 +1.368876E+01 +4.055541E+02 
 +5.164565E+02 +8.527009E-03 -1.334915E+01 +8.527009E-03 +8.788789E+02 +1.655713E+01 -1.334915E+01 +1.655713E+01 +4.229559E+02 
 +5.310588E+02 +1.355894E+00 -4.872582E+00 +1.355894E+00 +8.935137E+02 +9.088997E+00 -4.872582E+00 +9.088997E+00 +4.224317E+02 
 +5.529224E+02 -8.102452E-01 +1.000379E+01 -8.102452E-01 +9.176266E+02 -2.046739E+00 +1.000379E+01 -2.046739E+00 +4.259378E+02 
 +5.225541E+02 -4.308471E+00 +3.777601E+00 -4.308471E+00 +9.086224E+02 -2.409576E+00 +3.777601E+00 -2.409576E+00 +4.034904E+02 
 +4.971500E+02 -9.791043E+00 -2.529748E+01 -9.791043E+00 +8.905663E+02 -2.847034E+00 -2.529748E+01 -2.847034E+00 +3.514312E+02 
 +4.828740E+02 -8.616762E+00 -2.973302E+01 -8.616762E+00 +8.737941E+02 -9.516367E+00 -2.973302E+01 -9.516367E+00 +3.158899E+02 
 +4.741294E+02 -1.700737E+00 -2.670719E+01 -1.700737E+00 +8.675965E+02 -1.897162E+01 -2.670719E+01 -1.897162E+01 +3.334293E+02 
 +4.801206E+02 +1.725381E+00 -2.523805E+01 +1.725381E+00 +8.756887E+02 -8.047089E+00 -2.523805E+01 -8.047089E+00 +3.610189E+02 
 +4.925323E+02 -3.585520E+00 -3.220414E+01 -3.585520E+00 +8.804686E+02 +5.612226E+00 -3.220414E+01 +5.612226E+00 +3.610760E+02 
 +4.954834E+02 -1.601742E+00 -1.819304E+01 -1.601742E+00 +8.821878E+02 -1.370483E+00 -1.819304E+01 -1.370483E+00 +3.724382E+02 
 +4.657729E+02 -4.309762E+00 -8.380675E+00 -4.309762E+00 +8.697591E+02 +5.203223E+00 -8.380675E+00 +5.203223E+00 +3.568044E+02 
 +4.726961E+02 +4.855678E+00 -8.548161E+00 +4.855678E+00 +8.674944E+02 -5.867302E+00 -8.548161E+00 -5.867302E+00 +3.528343E+02 
 +4.521884E+02 +8.315107E+00 -1.267458E+01 +8.315107E+00 +8.474033E+02 -6.808927E+00 -1.267458E+01 -6.808927E+00 +3.333036E+02 
 +4.993527E+02 +1.146064E+01 +2.234862E+01 +1.146064E+01 +8.613164E+02 -8.747358E+00 +2.234862E+01 -8.747358E+00 +3.405134E+02 
 +5.129115E+02 -6.376854E-01 +1.101344E+01 -6.376854E-01 +8.643475E+02 -1.196848E+01 +1.101344E+01 -1.196848E+01 +3.439674E+02 
 +5.151488E+02 -2.855053E+00 +9.126910E+00 -2.855053E+00 +8.714441E+02 -6.418048E+00 +9.126910E+00 -6.418048E+00 +3.517010E+02 
 +5.172559E+02 -8.755908E+00 +1.162209E+01 -8.755908E+00 +8.778829E+02 +5.104556E+00 +1.162209E+01 +5.104556E+00 +3.505008E+02 
 +5.071524E+02 -1.717015E+01 +1.376183E+01 -1.717015E+01 +8.748329E+02 +1.796851E+01 +1.376183E+01 +1.796851E+01 +3.507396E+02 
 +4.672174E+02 -1.576336E+01 +5.975966E+00 -1.576336E+01 +8.582998E+02 +2.006939E+01 +5.975966E+00 +2.006939E+01 +3.570116E+02 
 +4.537071E+02 -4.265788E+00 -1.096124E+01 -4.265788E+00 +8.484933E+02 +9.790963E+00 -1.096124E+01 +9.790963E+00 +3.736883E+02 
 +4.679005E+02 -5.944422E-01 -1.386783E+01 -5.944422E-01 +8.461003E+02 +7.228257E+00 -1.386783E+01 +7.228257E+00 +3.874215E+02 
 +5.036280E+02 +5.485711E+00 -1.775904E+01 +5.485711E+00 +8.573302E+02 +1.001013E+01 -1.775904E+01 +1.001013E+01 +3.974806E+02 
 +5.157104E+02 +5.483676E+00 -1.555127E+01 +5.483676E+00 +8.584712E+02 +6.330447E+00 -1.555127E+01 +6.330447E+00 +4.048319E+02 
 +5.220161E+02 +2.010030E+00 +1.656920E+00 +2.010030E+00 +8.625340E+02 +5.876420E+00 +1.656920E+00 +5.876420E+00 +4.219396E+02 
 +5.154078E+02 +3.357015E+00 -7.375524E+00 +3.357015E+00 +8.800075E+02 +5.283384E+00 -7.375524E+00 +5.283384E+00 +4.206847E+02 
 +4.917202E+02 -5.775744E+00 -2.401385E+01 -5.775744E+00 +8.887396E+02 +4.122752E+00 -2.401385E+01 +4.122752E+00 +3.654052E+02 
 +4.835650E+02 -1.159386E+01 -3.189447E+01 -1.159386E+01 +8.859350E+02 -2.065397E+00 -3.189447E+01 -2.065397E+00 +3.258486E+02 
 +4.782742E+02 -5.934280E+00 -1.446525E+01 -5.934280E+00 +8.832249E+02 -5.713371E+00 -1.446525E+01 -5.713371E+00 +3.305077E+02 
 +4.962151E+02 +4.094232E-01 -7.094465E+00 +4.094232E-01 +8.895213E+02 +1.053735E+01 -7.094465E+00 +1.053735E+01 +3.670943E+02 
 +5.015562E+02 -7.441780E-01 -4.260936E+01 -7.441780E-01 +8.870374E+02 +1.346503E+01 -4.260936E+01 +1.346503E+01 +3.807735E+02 
 +4.899538E+02 -2.751435E+00 -1.843081E+01 -2.751435E+00 +8.847087E+02 +9.622988E+00 -1.843081E+01 +9.622988E+00 +3.669002E+02 
 +4.715457E+02 -2.191017E+00 -1.315509E+01 -2.191017E+00 +8.579696E+02 +3.120632E+00 -1.315509E+01 +3.120632E+00 +3.336376E+02 
 +4.778286E+02 +1.422513E+00 -6.112561E+00 +1.422513E+00 +8.529150E+02 -1.036674E+01 -6.112561E+00 -1.036674E+01 +3.261784E+02 
 +4.764879E+02 +2.350721E+00 -5.924356E+00 +2.350721E+00 +8.487872E+02 -4.319922E+00 -5.924356E+00 -4.319922E+00 +3.396424E+02 
 +4.823510E+02 +1.120140E+01 +1.534393E+01 +1.120140E+01 +8.532509E+02 -2.100215E+00 +1.534393E+01 -2.100215E+00 +3.548975E+02 
 +4.853494E+02 +4.634345E+00 +7.115460E+00 +4.634345E+00 +8.522483E+02 -1.242545E+01 +7.115460E+00 -1.242545E+01 +3.457606E+02 
 +4.848773E+02 +2.924256E+00 +1.326059E+01 +2.924256E+00 +8.521980E+02 -3.322449E+00 +1.326059E+01 -3.322449E+00 +3.344386E+02 
 +4.948081E+02 -3.708044E+00 +1.511263E+01 -3.708044E+00 +8.624241E+02 +1.029359E+01 +1.511263E+01 +1.029359E+01 +3.348372E+02 
 +4.941589E+02 -7.015478E+00 +1.552758E+01 -7.015478E+00 +8.621384E+02 +1.114569E+01 +1.552758E+01 +1.114569E+01 +3.395078E+02 
 +4.781783E+02 -1.653502E+00 -1.606676E-01 -1.653502E+00 +8.516716E+02 +7.917303E+00 -1.606676E-01 +7.917303E+00 +3.506204E+02 
 +4.741345E+02 +1.386498E+00 -9.434692E+00 +1.386498E+00 +8.510078E+02 +5.905850E+00 -9.434692E+00 +5.905850E+00 +3.722561E+02 
 +4.762238E+02 +1.270307E+00 -1.088787E+01 +1.270307E+00 +8.533894E+02 +6.741485E+00 -1.088787E+01 +6.741485E+00 +3.811593E+02 
 +4.818446E+02 +2.515123E+00 -1.539513E+01 +2.515123E+00 +8.474870E+02 +1.343111E+01 -1.539513E+01 +1.343111E+01 +3.742835E+02 
 +5.007948E+02 -1.515998E+00 -3.510285E+00 -1.515998E+00 +8.417627E+02 +2.341617E+01 -3.510285E+00 +2.341617E+01 +3.859430E+02 
 +5.013284E+02 -1.738093E+00 +1.346050E+00 -1.738093E+00 +8.387046E+02 +2.051297E+01 +1.346050E+00 +2.051297E+01 +4.015157E+02 
 +4.956687E+02 +6.041179E+00 -8.828680E+00 +6.041179E+00 +8.396362E+02 +1.683549E+01 -8.828680E+00 +1.683549E+01 +4.090636E+02 
 +4.812732E+02 +3.467440E+00 -1.570166E+01 +3.467440E+00 +8.480716E+02 +1.090387E+01 -1.570166E+01 +1.090387E+01 +3.803389E+02 
 +4.689360E+02 -3.283797E+00 -2.696531E+01 -3.283797E+00 +8.680260E+02 -1.440316E+00 -2.696531E+01 -1.440316E+00 +3.398881E+02 
 +4.843889E+02 +1.080708E+00 +1.543217E+01 +1.080708E+00 +8.836954E+02 -2.732043E+00 +1.543217E+01 -2.732043E+00 +3.410073E+02 
 +5.042975E+02 +1.218502E+00 +1.512133E+01 +1.218502E+00 +8.896675E+02 +2.018505E-01 +1.512133E+01 +2.018505E-01 +3.702100E+02 
 +4.982745E+02 +3.177775E+00 -3.775922E+01 +3.177775E+00 +8.883251E+02 +9.259167E+00 -3.775922E+01 +9.259167E+00 +3.852289E+02 
 +4.715126E+02 +1.674591E+00 -7.034713E+00 +1.674591E+00 +8.685715E+02 +1.639934E+01 -7.034713E+00 +1.639934E+01 +3.566283E+02 
 +4.691950E+02 -7.154809E-02 -9.646784E+00 -7.154809E-02 +8.485273E+02 -4.237366E+00 -9.646784E+00 -4.237366E+00 +3.241016E+02 
 +4.853603E+02 -1.401401E+00 -8.423439E+00 -1.401401E+00 +8.497431E+02 -7.005380E+00 -8.423439E+00 -7.005380E+00 +3.306578E+02 
 +4.863016E+02 -1.870534E+00 -6.286110E+00 -1.870534E+00 +8.486279E+02 -5.639770E+00 -6.286110E+00 -5.639770E+00 +3.515304E+02 
 +4.758253E+02 -8.055891E-01 +3.942304E-02 -8.055891E-01 +8.398231E+02 -3.398966E+00 +3.942304E-02 -3.398966E+00 +3.637182E+02 
 +4.717775E+02 +2.707511E+00 +5.652169E+00 +2.707511E+00 +8.339950E+02 -3.026473E+00 +5.652169E+00 -3.026473E+00 +3.577343E+02 
 +4.734998E+02 +1.155830E+01 +1.708937E+01 +1.155830E+01 +8.384691E+02 +3.410447E+00 +1.708937E+01 +3.410447E+00 +3.412012E+02 
 +4.761161E+02 +8.603820E+00 +1.223047E+01 +8.603820E+00 +8.335079E+02 +9.389039E+00 +1.223047E+01 +9.389039E+00 +3.307834E+02 
 +4.873512E+02 +4.929626E+00 +6.173560E+00 +4.929626E+00 +8.423173E+02 +7.224489E+00 +6.173560E+00 +7.224489E+00 +3.432245E+02 
 +4.832077E+02 +4.126850E+00 -4.752096E+00 +4.126850E+00 +8.507308E+02 +4.811243E+00 -4.752096E+00 +4.811243E+00 +3.586633E+02 
 +4.801489E+02 +4.283793E+00 -5.972720E+00 +4.283793E+00 +8.535666E+02 +3.720301E+00 -5.972720E+00 +3.720301E+00 +3.685027E+02 
 +4.771453E+02 +4.831512E+00 -5.509322E+00 +4.831512E+00 +8.560296E+02 +3.552738E+00 -5.509322E+00 +3.552738E+00 +3.698354E+02 
 +4.707185E+02 +1.849639E+00 -8.198752E+00 +1.849639E+00 +8.504825E+02 +1.212575E+01 -8.198752E+00 +1.212575E+01 +3.668647E+02 
 +4.897525E+02 -3.674383E+00 +4.592127E+00 -3.674383E+00 +8.477847E+02 +2.180362E+01 +4.592127E+00 +2.180362E+01 +3.844537E+02 
 +4.878022E+02 -2.221881E-01 +1.530577E+00 -2.221881E-01 +8.337559E+02 +2.130638E+01 +1.530577E+00 +2.130638E+01 +3.889767E+02 
 +4.836291E+02 +3.908172E+00 -7.257045E+00 +3.908172E+00 +8.282500E+02 +1.910913E+01 -7.257045E+00 +1.910913E+01 +3.912369E+02 
 +4.821380E+02 +7.954020E+00 -1.738598E+01 +7.954020E+00 +8.328348E+02 +8.714174E+00 -1.738598E+01 +8.714174E+00 +3.817277E+02 
 +4.746970E+02 +2.585314E+00 -9.022061E+00 +2.585314E+00 +8.489286E+02 -9.122759E-01 -9.022061E+00 -9.122759E-01 +3.539863E+02 
 +4.888687E+02 +5.466678E-01 +2.668218E+01 +5.466678E-01 +8.761363E+02 -4.259709E+00 +2.668218E+01 -4.259709E+00 +3.552235E+02 
 +4.937414E+02 -1.344345E+00 +1.664217E+01 -1.344345E+00 +8.838163E+02 -1.159974E+01 +1.664217E+01 -1.159974E+01 +3.579337E+02 
 +4.796329E+02 +8.524751E-01 -7.030950E+00 +8.524751E-01 +8.725421E+02 +2.272106E+00 -7.030950E+00 +2.272106E+00 +3.541218E+02 
 +4.695005E+02 -4.617205E-01 -4.441551E+00 -4.617205E-01 +8.560338E+02 +8.494750E+00 -4.441551E+00 +8.494750E+00 +3.416929E+02 
 +4.730527E+02 -2.853342E+00 -4.853257E+00 -2.853342E+00 +8.445664E+02 -4.403508E+00 -4.853257E+00 -4.403508E+00 +3.239098E+02 
 +4.885555E+02 -4.772393E+00 -8.337786E+00 -4.772393E+00 +8.474616E+02 -3.034578E+00 -8.337786E+00 -3.034578E+00 +3.398593E+02 
 +4.863549E+02 -7.535416E-01 -7.033724E+00 -7.535416E-01 +8.469131E+02 +1.807942E+00 -7.033724E+00 +1.807942E+00 +3.559592E+02 
 +4.858103E+02 +1.343444E+00 -2.368923E+00 +1.343444E+00 +8.459280E+02 +6.949411E+00 -2.368923E+00 +6.949411E+00 +3.718225E+02 
 +4.828732E+02 +1.138958E+01 +8.676408E+00 +1.138958E+01 +8.465359E+02 +7.213362E+00 +8.676408E+00 +7.213362E+00 +3.720265E+02 
 +4.815428E+02 +1.187018E+01 +9.592077E+00 +1.187018E+01 +8.438778E+02 +5.899310E+00 +9.592077E+00 +5.899310E+00 +3.555869E+02 
 +4.797787E+02 +5.619169E+00 +9.495261E+00 +5.619169E+00 +8.380258E+02 +1.223808E+01 +9.495261E+00 +1.223808E+01 +3.417976E+02 
 +4.847534E+02 +7.696721E+00 -7.637311E+00 +7.696721E+00 +8.420292E+02 +9.723792E+00 -7.637311E+00 +9.723792E+00 +3.464502E+02 
 +4.878803E+02 +9.914708E+00 -1.000522E+01 +9.914708E+00 +8.532095E+02 +2.419154E+00 -1.000522E+01 +2.419154E+00 +3.613631E+02 
 +4.809257E+02 +9.060798E+00 -7.980543E+00 +9.060798E+00 +8.555385E+02 +2.323874E+00 -7.980543E+00 +2.323874E+00 +3.614145E+02 
 +4.761981E+02 +1.032656E+01 -5.491047E+00 +1.032656E+01 +8.575646E+02 +3.027105E+00 -5.491047E+00 +3.027105E+00 +3.602952E+02 
 +4.778467E+02 +5.663099E+00 +3.938300E+00 +5.663099E+00 +8.624513E+02 +1.180024E+01 +3.938300E+00 +1.180024E+01 +3.626875E+02 
 +4.714602E+02 -2.484385E+00 +4.661971E+00 -2.484385E+00 +8.503784E+02 +2.146006E+01 +4.661971E+00 +2.146006E+01 +3.714029E+02 
 +4.711608E+02 +4.119352E+00 -9.181966E-01 +4.119352E+00 +8.419972E+02 +1.799349E+01 -9.181966E-01 +1.799349E+01 +3.873223E+02 
 +4.746674E+02 +3.909419E+00 -9.739336E+00 +3.909419E+00 +8.392248E+02 +1.359139E+01 -9.739336E+00 +1.359139E+01 +3.930879E+02 
 +4.833168E+02 +8.813432E+00 -1.800137E+01 +8.813432E+00 +8.431015E+02 +8.255633E+00 -1.800137E+01 +8.255633E+00 +3.913324E+02 
 +5.080583E+02 +4.475973E+00 +5.271018E+00 +4.475973E+00 +8.677436E+02 +1.524751E+00 +5.271018E+00 +1.524751E+00 +3.846257E+02 
 +4.986819E+02 -4.748275E+00 +2.187000E+01 -4.748275E+00 +8.749686E+02 -3.837922E+00 +2.187000E+01 -3.837922E+00 +3.667797E+02 
 +4.888964E+02 -4.460376E+00 +1.546900E+01 -4.460376E+00 +8.738940E+02 -7.258972E+00 +1.546900E+01 -7.258972E+00 +3.562068E+02 
 +4.799359E+02 -1.014002E+00 +1.952654E+01 -1.014002E+00 +8.650750E+02 -6.598262E+00 +1.952654E+01 -6.598262E+00 +3.495909E+02 
 +4.725908E+02 -2.999324E-01 +5.916391E+00 -2.999324E-01 +8.542585E+02 -3.172614E+00 +5.916391E+00 -3.172614E+00 +3.353273E+02 
 +4.778587E+02 -8.528035E+00 +9.394905E-01 -8.528035E+00 +8.409807E+02 -6.030613E+00 +9.394905E-01 -6.030613E+00 +3.259696E+02 
 +4.856373E+02 -6.537707E+00 -2.979856E+00 -6.537707E+00 +8.408507E+02 -4.584619E-01 -2.979856E+00 -4.584619E-01 +3.349293E+02 
 +4.916803E+02 -2.413434E+00 -6.122944E+00 -2.413434E+00 +8.436612E+02 +7.612365E+00 -6.122944E+00 +7.612365E+00 +3.443860E+02 
 +4.951088E+02 +2.311986E+00 -1.667907E+00 +2.311986E+00 +8.534361E+02 +1.234865E+01 -1.667907E+00 +1.234865E+01 +3.593508E+02 
 +4.877999E+02 +1.265183E+01 +6.295913E+00 +1.265183E+01 +8.606057E+02 +9.857799E+00 +6.295913E+00 +9.857799E+00 +3.666688E+02 
 +4.820740E+02 +9.460784E+00 +4.799138E+00 +9.460784E+00 +8.519093E+02 +8.492841E+00 +4.799138E+00 +8.492841E+00 +3.601616E+02 
 +4.792468E+02 +5.834134E+00 +9.034447E+00 +5.834134E+00 +8.379975E+02 +8.520224E+00 +9.034447E+00 +8.520224E+00 +3.394880E+02 
 +4.786797E+02 +8.195122E+00 -1.547001E+01 +8.195122E+00 +8.354751E+02 +4.133045E+00 -1.547001E+01 +4.133045E+00 +3.332500E+02 
 +4.876603E+02 +1.178834E+01 -1.246485E+01 +1.178834E+01 +8.495466E+02 +2.150871E+00 -1.246485E+01 +2.150871E+00 +3.560204E+02 
 +4.822479E+02 +7.370092E+00 -6.201754E+00 +7.370092E+00 +8.581153E+02 +3.219932E+00 -6.201754E+00 +3.219932E+00 +3.590220E+02 
 +4.775755E+02 +9.686184E+00 -3.118381E+00 +9.686184E+00 +8.592296E+02 +3.564056E+00 -3.118381E+00 +3.564056E+00 +3.559834E+02 
 +5.016572E+02 +9.138213E+00 +1.843857E+01 +9.138213E+00 +8.854269E+02 +3.962800E+00 +1.843857E+01 +3.962800E+00 +3.663482E+02 
 +4.730861E+02 -2.141423E+00 -1.199579E+00 -2.141423E+00 +8.945706E+02 -2.419784E+00 -1.199579E+00 -2.419784E+00 +3.615489E+02 
 +4.806023E+02 +4.087333E+00 -8.991063E+00 +4.087333E+00 +9.065202E+02 -9.833955E+00 -8.991063E+00 -9.833955E+00 +3.814098E+02 
 +4.827796E+02 +6.235467E+00 -1.951923E+01 +6.235467E+00 +8.976032E+02 -1.173649E+01 -1.951923E+01 -1.173649E+01 +3.898126E+02 
 +4.953811E+02 +1.381296E+01 -2.429106E+01 +1.381296E+01 +8.908257E+02 -1.037089E+01 -2.429106E+01 -1.037089E+01 +4.008853E+02 
 +5.413999E+02 +1.334724E+01 +5.724817E+00 +1.334724E+01 +9.009849E+02 -2.673448E+00 +5.724817E+00 -2.673448E+00 +4.056118E+02 
 +5.113305E+02 +4.890135E+00 +2.015524E+01 +4.890135E+00 +8.793694E+02 +5.353950E-01 +2.015524E+01 +5.353950E-01 +3.687525E+02 
 +4.924958E+02 -1.580690E-01 +2.409675E+01 -1.580690E-01 +8.708421E+02 -2.425149E+00 +2.409675E+01 -2.425149E+00 +3.579246E+02 
 +4.857560E+02 -2.124277E+00 +3.021300E+01 -2.124277E+00 +8.655956E+02 -3.531310E+00 +3.021300E+01 -3.531310E+00 +3.579523E+02 
 +4.703908E+02 -3.898592E+00 +2.534302E+01 -3.898592E+00 +8.488632E+02 -5.336435E+00 +2.534302E+01 -5.336435E+00 +3.353918E+02 
 +4.739806E+02 -1.016123E+01 +8.309204E+00 -1.016123E+01 +8.376389E+02 -2.389042E+00 +8.309204E+00 -2.389042E+00 +3.256459E+02 
 +4.827175E+02 -8.928436E+00 +1.800177E+00 -8.928436E+00 +8.388752E+02 +3.026298E+00 +1.800177E+00 +3.026298E+00 +3.326244E+02 
 +4.927472E+02 -8.400813E+00 -4.780852E+00 -8.400813E+00 +8.470616E+02 +5.413121E+00 -4.780852E+00 +5.413121E+00 +3.330237E+02 
 +5.030911E+02 -1.689854E+00 -5.980045E+00 -1.689854E+00 +8.644527E+02 +5.986228E+00 -5.980045E+00 +5.986228E+00 +3.369917E+02 
 +4.983263E+02 +6.141465E+00 -5.880464E+00 +6.141465E+00 +8.668864E+02 +6.530821E+00 -5.880464E+00 +6.530821E+00 +3.505231E+02 
 +4.889130E+02 +6.664089E+00 -4.573144E+00 +6.664089E+00 +8.553191E+02 +4.842285E+00 -4.573144E+00 +4.842285E+00 +3.570988E+02 
 +4.705141E+02 +5.118814E+00 +1.712109E+00 +5.118814E+00 +8.330516E+02 +5.230542E-01 +1.712109E+00 +5.230542E-01 +3.361796E+02 
 +4.715852E+02 +9.746332E+00 -1.435235E+01 +9.746332E+00 +8.317770E+02 -3.512218E-01 -1.435235E+01 -3.512218E-01 +3.284510E+02 
 +4.853778E+02 +1.314952E+01 -9.809483E+00 +1.314952E+01 +8.510490E+02 -2.823637E+00 -9.809483E+00 -2.823637E+00 +3.447430E+02 
 +4.810232E+02 +9.944088E+00 +2.913043E+00 +9.944088E+00 +8.572981E+02 -3.961380E+00 +2.913043E+00 -3.961380E+00 +3.514599E+02 
 +4.874799E+02 +8.940037E+00 +6.510697E+00 +8.940037E+00 +8.710574E+02 +2.145988E+00 +6.510697E+00 +2.145988E+00 +3.604276E+02 
 +4.993886E+02 +8.205400E+00 +1.677192E+01 +8.205400E+00 +8.842966E+02 -3.074668E+00 +1.677192E+01 -3.074668E+00 +3.633147E+02 
 +4.612582E+02 -9.570002E-01 -1.194097E+00 -9.570002E-01 +8.791158E+02 -1.310338E+01 -1.194097E+00 -1.310338E+01 +3.491621E+02 
 +4.701990E+02 +3.095863E+00 -1.176766E+01 +3.095863E+00 +8.944336E+02 -1.822387E+01 -1.176766E+01 -1.822387E+01 +3.656788E+02 
 +4.603726E+02 +1.225674E+01 -1.632321E+01 +1.225674E+01 +8.780162E+02 -2.148953E+01 -1.632321E+01 -2.148953E+01 +3.605712E+02 
 +4.782485E+02 +2.330519E+01 -1.882845E+01 +2.330519E+01 +8.720983E+02 -1.094927E+01 -1.882845E+01 -1.094927E+01 +3.693868E+02 
 +5.254996E+02 +2.461051E+01 +9.556447E+00 +2.461051E+01 +8.783644E+02 +1.331378E+00 +9.556447E+00 +1.331378E+00 +3.807225E+02 
 +5.032138E+02 +1.756988E+01 +2.198685E+01 +1.756988E+01 +8.627845E+02 +4.870630E+00 +2.198685E+01 +4.870630E+00 +3.523621E+02 
 +4.849018E+02 +6.631032E+00 +2.998946E+01 +6.631032E+00 +8.672229E+02 +1.848821E+00 +2.998946E+01 +1.848821E+00 +3.468016E+02 
 +4.832747E+02 +1.373245E-01 +3.617455E+01 +1.373245E-01 +8.702692E+02 -4.627299E-01 +3.617455E+01 -4.627299E-01 +3.556214E+02 
 +4.754483E+02 -3.650133E+00 +3.037389E+01 -3.650133E+00 +8.521854E+02 -2.859934E+00 +3.037389E+01 -2.859934E+00 +3.392646E+02 
 +4.637542E+02 -9.389074E+00 +1.357561E+01 -9.389074E+00 +8.335532E+02 +3.975512E-01 +1.357561E+01 +3.975512E-01 +3.235987E+02 
 +4.546820E+02 -1.176312E+01 -1.198156E+00 -1.176312E+01 +8.321554E+02 +7.110187E-01 -1.198156E+00 +7.110187E-01 +3.281662E+02 
 +4.891960E+02 -1.635492E+01 +2.935051E+00 -1.635492E+01 +8.559260E+02 +3.447112E-01 +2.935051E+00 +3.447112E-01 +3.384855E+02 
 +5.226166E+02 -7.649830E+00 -5.163222E+00 -7.649830E+00 +8.806503E+02 +1.703309E+00 -5.163222E+00 +1.703309E+00 +3.444813E+02 
 +4.937505E+02 -1.581553E+01 -1.633324E+01 -1.581553E+01 +8.524670E+02 +2.217060E+00 -1.633324E+01 +2.217060E+00 +3.335340E+02 
 +4.846148E+02 -1.378511E+01 -1.017903E+01 -1.378511E+01 +8.367217E+02 +4.123295E+00 -1.017903E+01 +4.123295E+00 +3.404158E+02 
 +4.761937E+02 -1.639246E+01 -5.968535E+00 -1.639246E+01 +8.344258E+02 -1.513157E+00 -5.968535E+00 -1.513157E+00 +3.392218E+02 
 +4.738922E+02 +1.762450E+00 -6.677381E+00 +1.762450E+00 +8.314553E+02 -3.679628E+00 -6.677381E+00 -3.679628E+00 +3.354575E+02 
 +4.870369E+02 +1.088062E+01 -1.208406E+00 +1.088062E+01 +8.559093E+02 +9.521141E+00 -1.208406E+00 +9.521141E+00 +3.455576E+02 
 +4.962706E+02 +4.453633E+00 +8.315728E+00 +4.453633E+00 +8.829622E+02 +2.127279E+01 +8.315728E+00 +2.127279E+01 +3.566972E+02 
 +4.976002E+02 +1.846768E+00 +1.792847E+01 +1.846768E+00 +8.905538E+02 +2.659320E+01 +1.792847E+01 +2.659320E+01 +3.638030E+02 
 +4.768324E+02 -4.246330E+00 +3.828253E+00 -4.246330E+00 +8.696231E+02 +2.067276E+01 +3.828253E+00 +2.067276E+01 +3.590368E+02 
 +4.624636E+02 -5.921077E+00 +3.727914E+00 -5.921077E+00 +8.520481E+02 +7.501691E+00 +3.727914E+00 +7.501691E+00 +3.558960E+02 
 +4.640140E+02 -7.588664E+00 -1.291593E+01 -7.588664E+00 +8.591975E+02 -2.542601E+00 -1.291593E+01 -2.542601E+00 +3.616940E+02 
 +4.630918E+02 +4.132787E+00 -6.387590E-01 +4.132787E+00 +8.596062E+02 -1.204306E+01 -6.387590E-01 -1.204306E+01 +3.454544E+02 
 +4.769078E+02 +1.647956E+01 -1.513400E+00 +1.647956E+01 +8.567874E+02 -9.326454E+00 -1.513400E+00 -9.326454E+00 +3.360299E+02 
 +4.898200E+02 +2.179202E+01 +1.082870E+01 +2.179202E+01 +8.554898E+02 -1.315620E+00 +1.082870E+01 -1.315620E+00 +3.391895E+02 
 +4.932356E+02 +1.923930E+01 +2.091912E+01 +1.923930E+01 +8.569046E+02 +3.638293E+00 +2.091912E+01 +3.638293E+00 +3.403449E+02 
 +4.853719E+02 +1.252121E+01 +2.519635E+01 +1.252121E+01 +8.612127E+02 +4.606643E+00 +2.519635E+01 +4.606643E+00 +3.463954E+02 
 +4.763585E+02 +2.953801E+00 +3.333697E+01 +2.953801E+00 +8.595463E+02 -2.992275E+00 +3.333697E+01 -2.992275E+00 +3.584917E+02 
 +4.650576E+02 -3.195511E+00 +2.812039E+01 -3.195511E+00 +8.407854E+02 -5.876797E+00 +2.812039E+01 -5.876797E+00 +3.393224E+02 
 +4.533353E+02 -3.085975E+00 +1.106662E+01 -3.085975E+00 +8.367714E+02 -2.506229E+00 +1.106662E+01 -2.506229E+00 +3.336717E+02 
 +4.320662E+02 -3.545031E+00 -9.850293E+00 -3.545031E+00 +8.394149E+02 -1.211657E+00 -9.850293E+00 -1.211657E+00 +3.392556E+02 
 +4.689517E+02 -1.403606E+01 +7.336893E+00 -1.403606E+01 +8.383738E+02 +2.277436E-01 +7.336893E+00 +2.277436E-01 +3.473235E+02 
 +4.849175E+02 -4.951862E+00 -5.424136E+00 -4.951862E+00 +8.175249E+02 -6.718464E+00 -5.424136E+00 -6.718464E+00 +3.433124E+02 
 +4.788603E+02 -1.827388E+01 -1.379844E+01 -1.827388E+01 +8.225799E+02 -1.106068E+01 -1.379844E+01 -1.106068E+01 +3.336910E+02 
 +4.830012E+02 -1.406554E+01 +1.004422E+00 -1.406554E+01 +8.339581E+02 -3.366661E+00 +1.004422E+00 -3.366661E+00 +3.424260E+02 
 +4.846670E+02 -1.832459E+01 +4.284184E+00 -1.832459E+01 +8.426756E+02 +6.333382E+00 +4.284184E+00 +6.333382E+00 +3.456258E+02 
 +4.885322E+02 -1.396188E+01 +1.144167E+01 -1.396188E+01 +8.516912E+02 +1.833698E+01 +1.144167E+01 +1.833698E+01 +3.484122E+02 
 +5.024925E+02 +4.597971E+00 +5.967006E+00 +4.597971E+00 +8.544713E+02 +2.047178E+01 +5.967006E+00 +2.047178E+01 +3.637079E+02 
 +5.079547E+02 +9.391898E+00 +2.141035E+00 +9.391898E+00 +8.709133E+02 +1.395620E+01 +2.141035E+00 +1.395620E+01 +3.671513E+02 
 +4.839838E+02 +3.992297E+00 +2.143084E+01 +3.992297E+00 +8.699605E+02 +1.081856E+01 +2.143084E+01 +1.081856E+01 +3.585711E+02 
 +4.617613E+02 -3.322325E+00 -4.624240E-01 -3.322325E+00 +8.566526E+02 +9.510909E+00 -4.624240E-01 +9.510909E+00 +3.614907E+02 
 +4.641728E+02 -4.040240E+00 +3.579756E-01 -4.040240E+00 +8.549797E+02 +5.860199E+00 +3.579756E-01 +5.860199E+00 +3.632679E+02 
 +4.577684E+02 -1.014296E+01 -1.637364E+01 -1.014296E+01 +8.485717E+02 +3.942921E-01 -1.637364E+01 +3.942921E-01 +3.460285E+02 
 +4.885838E+02 -3.432347E+00 +2.610744E+00 -3.432347E+00 +8.686735E+02 -5.477904E+00 +2.610744E+00 -5.477904E+00 +3.358445E+02 
 +4.934309E+02 +1.127266E+00 +2.124970E+00 +1.127266E+00 +8.714209E+02 -1.276816E+01 +2.124970E+00 -1.276816E+01 +3.233587E+02 
 +4.813799E+02 +1.047657E+01 +5.063914E+00 +1.047657E+01 +8.549658E+02 -1.151527E+01 +5.063914E+00 -1.151527E+01 +3.158492E+02 
 +4.802030E+02 +1.560076E+01 +1.956458E+01 +1.560076E+01 +8.489069E+02 -9.442926E-01 +1.956458E+01 -9.442926E-01 +3.261163E+02 
 +4.695091E+02 +5.890252E-01 +1.554845E+01 +5.890252E-01 +8.267274E+02 +1.057438E+01 +1.554845E+01 +1.057438E+01 +3.403261E+02 
 +4.673762E+02 -4.123272E+00 +1.633777E+01 -4.123272E+00 +8.199749E+02 +5.426412E+00 +1.633777E+01 +5.426412E+00 +3.576376E+02 
 +4.652722E+02 -1.601762E+00 +2.613936E+01 -1.601762E+00 +8.313430E+02 -3.442663E+00 +2.613936E+01 -3.442663E+00 +3.424303E+02 
 +4.475214E+02 -8.682227E+00 -3.160792E+00 -8.682227E+00 +8.422516E+02 -1.422400E+00 -3.160792E+00 -1.422400E+00 +3.475790E+02 
 +4.547265E+02 -6.514721E+00 -1.195131E+01 -6.514721E+00 +8.488651E+02 +2.712552E-01 -1.195131E+01 +2.712552E-01 +3.657512E+02 
 +4.739682E+02 -6.809451E+00 -2.544139E+00 -6.809451E+00 +8.594692E+02 +5.589963E+00 -2.544139E+00 +5.589963E+00 +3.753349E+02 
 +4.783915E+02 -2.591122E-01 -1.192393E+01 -2.591122E-01 +8.575739E+02 -7.581074E+00 -1.192393E+01 -7.581074E+00 +3.728052E+02 
 +5.036230E+02 -6.090409E+00 +1.066526E+01 -6.090409E+00 +8.498566E+02 -1.183649E+01 +1.066526E+01 -1.183649E+01 +3.632179E+02 
 +5.047320E+02 -1.333187E+00 +2.161255E+01 -1.333187E+00 +8.607526E+02 -1.533301E+00 +2.161255E+01 -1.533301E+00 +3.642215E+02 
 +5.052188E+02 +4.536639E+00 +2.526833E+01 +4.536639E+00 +8.817590E+02 +4.187301E+00 +2.526833E+01 +4.187301E+00 +3.695947E+02 
 +4.993872E+02 +2.231590E+00 +2.747937E+01 +2.231590E+00 +8.818756E+02 +7.293158E+00 +2.747937E+01 +7.293158E+00 +3.625208E+02 
 +5.146718E+02 +8.634249E+00 +1.326312E+01 +8.634249E+00 +8.707517E+02 +8.642584E+00 +1.326312E+01 +8.642584E+00 +3.762562E+02 
 +5.220627E+02 +1.420106E+01 -6.055642E-01 +1.420106E+01 +8.676369E+02 +1.202380E+01 -6.055642E-01 +1.202380E+01 +3.793531E+02 
 +4.752381E+02 -4.577586E+00 +1.465207E+01 -4.577586E+00 +8.486761E+02 +9.608188E+00 +1.465207E+01 +9.608188E+00 +3.594664E+02 
 +4.609084E+02 -5.432513E+00 +2.953321E+00 -5.432513E+00 +8.488470E+02 +5.866589E+00 +2.953321E+00 +5.866589E+00 +3.662000E+02 
 +4.597824E+02 -3.743965E+00 -3.147694E+00 -3.743965E+00 +8.572772E+02 +4.710474E+00 -3.147694E+00 +4.710474E+00 +3.628348E+02 
 +4.594579E+02 -4.104762E+00 -1.672790E+01 -4.104762E+00 +8.547395E+02 -9.589432E-01 -1.672790E+01 -9.589432E-01 +3.428722E+02 
 +5.055071E+02 +4.432597E+00 +6.716854E-01 +4.432597E+00 +8.791368E+02 -6.899299E+00 +6.716854E-01 -6.899299E+00 +3.366701E+02 
 +4.992682E+02 +2.336757E+00 -5.809550E-02 +2.336757E+00 +8.781624E+02 -1.100439E+01 -5.809550E-02 -1.100439E+01 +3.220937E+02 
 +4.992402E+02 +3.956931E+00 +2.280244E+00 +3.956931E+00 +8.729119E+02 -8.815917E+00 +2.280244E+00 -8.815917E+00 +3.274646E+02 
 +4.815549E+02 +1.260621E+01 +1.452618E+01 +1.260621E+01 +8.490184E+02 -2.500796E+00 +1.452618E+01 -2.500796E+00 +3.251404E+02 
 +4.669952E+02 -5.158256E+00 +9.167925E+00 -5.158256E+00 +8.275314E+02 +3.326901E+00 +9.167925E+00 +3.326901E+00 +3.425796E+02 
 +4.608938E+02 -2.777219E+00 +9.987533E+00 -2.777219E+00 +8.137384E+02 +7.765976E+00 +9.987533E+00 +7.765976E+00 +3.575219E+02 
 +4.767674E+02 -8.137123E+00 +2.357677E+01 -8.137123E+00 +8.302261E+02 +6.772819E+00 +2.357677E+01 +6.772819E+00 +3.481146E+02 
 +4.686696E+02 -9.568145E+00 -8.889437E+00 -9.568145E+00 +8.541526E+02 +1.918103E+00 -8.889437E+00 +1.918103E+00 +3.570535E+02 
 +4.677416E+02 -1.469349E+01 -1.135756E+01 -1.469349E+01 +8.408932E+02 +1.987469E+00 -1.135756E+01 +1.987469E+00 +3.734689E+02 
 +4.702352E+02 -1.060795E+01 +2.246812E+00 -1.060795E+01 +8.468821E+02 +3.169563E+00 +2.246812E+00 +3.169563E+00 +3.776777E+02 
 +4.664413E+02 -3.776469E+00 -5.888083E+00 -3.776469E+00 +8.468247E+02 +1.220656E+00 -5.888083E+00 +1.220656E+00 +3.742328E+02 
 +5.180323E+02 +6.224807E+00 +3.903196E+01 +6.224807E+00 +8.781081E+02 +5.045243E-01 +3.903196E+01 +5.045243E-01 +3.818015E+02 
 +5.158847E+02 +6.249960E+00 +3.465805E+01 +6.249960E+00 +8.846021E+02 +6.172122E+00 +3.465805E+01 +6.172122E+00 +3.752135E+02 
 +5.050978E+02 +3.431114E+00 +3.768657E+01 +3.431114E+00 +8.803702E+02 +1.015382E+01 +3.768657E+01 +1.015382E+01 +3.724655E+02 
 +5.029083E+02 -4.319346E-01 +3.003587E+01 -4.319346E-01 +8.879531E+02 +7.735525E+00 +3.003587E+01 +7.735525E+00 +3.728117E+02 
 +5.086033E+02 -4.769564E-01 +2.798756E+01 -4.769564E-01 +8.887912E+02 +2.630702E-02 +2.798756E+01 +2.630702E-02 +3.757833E+02 
 +5.187717E+02 +1.689995E+01 +1.394354E+01 +1.689995E+01 +8.700554E+02 +3.116091E+00 +1.394354E+01 +3.116091E+00 +3.739108E+02 
 +4.755290E+02 -2.435407E-01 +7.979683E+00 -2.435407E-01 +8.463372E+02 +6.376306E+00 +7.979683E+00 +6.376306E+00 +3.614531E+02 
 +4.699484E+02 -2.884762E+00 +3.754962E+00 -2.884762E+00 +8.559607E+02 +3.970904E+00 +3.754962E+00 +3.970904E+00 +3.666480E+02 
 +4.651664E+02 -2.034428E+00 -4.503336E+00 -2.034428E+00 +8.575609E+02 +2.504071E+00 -4.503336E+00 +2.504071E+00 +3.619611E+02 
 +4.611171E+02 -4.733143E+00 -1.336142E+01 -4.733143E+00 +8.584141E+02 +2.821270E+00 -1.336142E+01 +2.821270E+00 +3.423891E+02 
 +5.087913E+02 +1.808422E+00 -2.392082E-01 +1.808422E+00 +8.799157E+02 -6.407479E-01 -2.392082E-01 -6.407479E-01 +3.299557E+02 
 +5.069684E+02 +1.523742E+00 +3.780901E+00 +1.523742E+00 +8.731516E+02 -5.409796E+00 +3.780901E+00 -5.409796E+00 +3.243733E+02 
 +5.105902E+02 +5.415007E+00 -3.602921E+00 +5.415007E+00 +8.765873E+02 -5.826521E+00 -3.602921E+00 -5.826521E+00 +3.547478E+02 
 +4.902947E+02 +8.646525E+00 -2.542588E+00 +8.646525E+00 +8.529656E+02 -4.453107E+00 -2.542588E+00 -4.453107E+00 +3.497880E+02 
 +4.830161E+02 -6.343896E+00 +3.245015E+00 -6.343896E+00 +8.450968E+02 +4.220642E-01 +3.245015E+00 +4.220642E-01 +3.584641E+02 
 +4.691152E+02 +3.233370E+00 +2.970246E+00 +3.233370E+00 +8.533769E+02 -2.076047E+00 +2.970246E+00 -2.076047E+00 +3.732381E+02 
 +4.746812E+02 +1.396114E+00 +2.159204E+01 +1.396114E+00 +8.656223E+02 -3.851040E+00 +2.159204E+01 -3.851040E+00 +3.581745E+02 
 +4.925024E+02 -1.208951E+01 -4.431309E-01 -1.208951E+01 +8.478595E+02 -4.098518E+00 -4.431309E-01 -4.098518E+00 +3.611639E+02 
 +4.568029E+02 -4.566619E+00 -1.501651E+00 -4.566619E+00 +8.302114E+02 -1.441438E+00 -1.501651E+00 -1.441438E+00 +3.673732E+02 
 +4.678420E+02 -3.147581E+00 +2.331838E+01 -3.147581E+00 +8.451427E+02 +1.092546E+00 +2.331838E+01 +1.092546E+00 +3.703942E+02 
 +4.815233E+02 -4.637197E+00 +1.200510E+01 -4.637197E+00 +8.599667E+02 +9.298733E+00 +1.200510E+01 +9.298733E+00 +3.807375E+02 
 +5.058876E+02 +7.338738E-01 +3.910495E+01 +7.338738E-01 +8.804171E+02 +1.257942E+01 +3.910495E+01 +1.257942E+01 +3.852820E+02 
 +5.124080E+02 +2.448950E+00 +3.417110E+01 +2.448950E+00 +8.867875E+02 +9.086080E+00 +3.417110E+01 +9.086080E+00 +3.769379E+02 
 +5.010065E+02 +2.002618E+00 +3.897522E+01 +2.002618E+00 +8.827984E+02 +7.013230E+00 +3.897522E+01 +7.013230E+00 +3.713486E+02 
 +5.019608E+02 +2.167290E-01 +2.843228E+01 +2.167290E-01 +8.823047E+02 +2.514231E+00 +2.843228E+01 +2.514231E+00 +3.810180E+02 
 +5.088515E+02 -2.920063E+00 +3.086763E+01 -2.920063E+00 +8.927015E+02 -5.501651E+00 +3.086763E+01 -5.501651E+00 +3.793284E+02 
 +5.171202E+02 +5.681427E+00 +3.772190E+01 +5.681427E+00 +8.915136E+02 -3.149357E+00 +3.772190E+01 -3.149357E+00 +3.672275E+02 
 +4.907618E+02 +1.889222E+00 +1.503944E+01 +1.889222E+00 +8.645253E+02 +6.500876E+00 +1.503944E+01 +6.500876E+00 +3.613583E+02 
 +4.705270E+02 -1.857730E+00 +5.049885E+00 -1.857730E+00 +8.550064E+02 +5.067551E+00 +5.049885E+00 +5.067551E+00 +3.597874E+02 
 +4.664646E+02 -2.662749E-01 -3.909050E+00 -2.662749E-01 +8.574858E+02 +2.552729E+00 -3.909050E+00 +2.552729E+00 +3.577065E+02 
 +4.665725E+02 -3.078947E+00 -2.633732E+00 -3.078947E+00 +8.624058E+02 +8.927477E+00 -2.633732E+00 +8.927477E+00 +3.422842E+02 
 +5.071317E+02 -1.839413E-01 -4.283073E+00 -1.839413E-01 +8.748866E+02 +1.245758E+01 -4.283073E+00 +1.245758E+01 +3.354897E+02 
 +5.241744E+02 -4.040140E+00 +3.487150E+00 -4.040140E+00 +8.713796E+02 +7.504127E+00 +3.487150E+00 +7.504127E+00 +3.516295E+02 
 +5.075856E+02 -2.258927E+00 -1.646676E+01 -2.258927E+00 +8.610087E+02 +7.496936E-01 -1.646676E+01 +7.496936E-01 +3.747501E+02 
 +5.007391E+02 -1.756923E+00 -1.690079E+01 -1.756923E+00 +8.569028E+02 -2.917956E+00 -1.690079E+01 -2.917956E+00 +3.788241E+02 
 +4.902097E+02 -7.499420E+00 -6.537508E+00 -7.499420E+00 +8.612643E+02 -6.187971E+00 -6.537508E+00 -6.187971E+00 +3.766137E+02 
 +4.763483E+02 -3.679076E+00 -2.165697E+01 -3.679076E+00 +8.655812E+02 -7.779878E+00 -2.165697E+01 -7.779878E+00 +3.780716E+02 
 +4.382496E+02 +4.006392E-01 +6.834790E+00 +4.006392E-01 +8.348360E+02 -6.432155E+00 +6.834790E+00 -6.432155E+00 +3.414923E+02 
 +4.972393E+02 -1.616554E+01 +1.095889E+01 -1.616554E+01 +8.462804E+02 -1.435045E+01 +1.095889E+01 -1.435045E+01 +3.751329E+02 
 +4.717623E+02 -4.700984E+00 +1.680787E+01 -4.700984E+00 +8.462125E+02 -4.434242E+00 +1.680787E+01 -4.434242E+00 +3.725657E+02 
 +4.753242E+02 -2.903497E+00 +2.778456E+01 -2.903497E+00 +8.634409E+02 +1.961402E+00 +2.778456E+01 +1.961402E+00 +3.687525E+02 
 +4.841200E+02 -3.643405E-01 +1.840390E+01 -3.643405E-01 +8.785269E+02 +9.617484E+00 +1.840390E+01 +9.617484E+00 +3.803721E+02 
 +4.890208E+02 +2.714810E+00 +2.388241E+01 +2.714810E+00 +8.816234E+02 +1.523972E+01 +2.388241E+01 +1.523972E+01 +3.836516E+02 
 +5.076832E+02 +7.747021E-01 +2.717735E+01 +7.747021E-01 +8.861276E+02 +8.377455E+00 +2.717735E+01 +8.377455E+00 +3.835278E+02 
 +5.113722E+02 -1.087040E+00 +3.107851E+01 -1.087040E+00 +8.888628E+02 +7.313687E-01 +3.107851E+01 +7.313687E-01 +3.896715E+02 
 +5.059748E+02 -1.324232E+00 +2.378646E+01 -1.324232E+00 +8.899055E+02 -2.805422E+00 +2.378646E+01 -2.805422E+00 +3.942831E+02 
 +5.051163E+02 -2.154489E-01 +2.408296E+01 -2.154489E-01 +8.890415E+02 -9.182627E+00 +2.408296E+01 -9.182627E+00 +3.778136E+02 
 +5.041766E+02 +2.916858E+00 +4.308950E+01 +2.916858E+00 +8.835624E+02 -2.021507E+01 +4.308950E+01 -2.021507E+01 +3.475480E+02 
 +4.927877E+02 +1.925719E+00 +3.301384E+01 +1.925719E+00 +8.705112E+02 -1.481079E+01 +3.301384E+01 -1.481079E+01 +3.354628E+02 
 +4.713985E+02 -3.250515E+00 +1.339423E+01 -3.250515E+00 +8.592897E+02 +3.400627E+00 +1.339423E+01 +3.400627E+00 +3.501635E+02 
 +4.726280E+02 -6.273799E-01 -2.926247E+00 -6.273799E-01 +8.641470E+02 +1.463208E+01 -2.926247E+00 +1.463208E+01 +3.742801E+02 
 +4.974920E+02 -6.850996E-01 +1.432644E+00 -6.850996E-01 +8.747146E+02 +1.997520E+01 +1.432644E+00 +1.997520E+01 +3.797797E+02 
 +5.111509E+02 -1.383738E+00 -8.546318E+00 -1.383738E+00 +8.717053E+02 +2.025433E+01 -8.546318E+00 +2.025433E+01 +3.701411E+02 
 +5.155902E+02 -6.558126E+00 -5.051256E+00 -6.558126E+00 +8.648777E+02 +1.463797E+01 -5.051256E+00 +1.463797E+01 +3.739022E+02 
 +5.034220E+02 -7.171927E+00 -1.752715E+01 -7.171927E+00 +8.542023E+02 +6.747187E+00 -1.752715E+01 +6.747187E+00 +3.799840E+02 
 +5.047196E+02 -6.190927E+00 -1.854763E+01 -6.190927E+00 +8.577020E+02 +2.360777E+00 -1.854763E+01 +2.360777E+00 +3.915502E+02 
 +4.873411E+02 -7.566319E+00 -1.812419E+01 -7.566319E+00 +8.560612E+02 -3.813887E+00 -1.812419E+01 -3.813887E+00 +3.844768E+02 
 +4.777254E+02 -2.563169E+00 -2.913000E+01 -2.563169E+00 +8.587939E+02 -3.838241E+00 -2.913000E+01 -3.838241E+00 +3.799034E+02 
 +4.562534E+02 -2.357242E+00 -1.800244E+01 -2.357242E+00 +8.349877E+02 -9.442688E+00 -1.800244E+01 -9.442688E+00 +3.626212E+02 
 +5.205165E+02 -3.285016E+00 +2.285003E+01 -3.285016E+00 +8.711142E+02 -6.381697E+00 +2.285003E+01 -6.381697E+00 +4.036063E+02 
 +5.206757E+02 -3.618515E+00 +1.892583E+01 -3.618515E+00 +8.830179E+02 -6.099173E+00 +1.892583E+01 -6.099173E+00 +3.818562E+02 
 +4.927716E+02 -3.809665E+00 +2.249031E+01 -3.809665E+00 +8.833130E+02 -4.254237E+00 +2.249031E+01 -4.254237E+00 +3.676120E+02 
 +4.901332E+02 -2.819555E+00 +1.822186E+01 -2.819555E+00 +8.906596E+02 +2.338335E+00 +1.822186E+01 +2.338335E+00 +3.750924E+02 
 +4.898351E+02 +2.765366E+00 +1.585580E+01 +2.765366E+00 +8.918321E+02 +6.368617E+00 +1.585580E+01 +6.368617E+00 +3.818296E+02 
 +4.992371E+02 +4.331924E+00 +1.548862E+01 +4.331924E+00 +8.902668E+02 +6.500685E+00 +1.548862E+01 +6.500685E+00 +3.866902E+02 
 +5.273390E+02 +2.041383E+00 +2.578083E+01 +2.041383E+00 +8.973168E+02 -9.640460E-01 +2.578083E+01 -9.640460E-01 +4.122749E+02 
 +5.324619E+02 -1.434388E-01 +2.658296E+01 -1.434388E-01 +8.971838E+02 -8.501430E+00 +2.658296E+01 -8.501430E+00 +4.127014E+02 
 +5.107290E+02 +8.394215E-01 +3.027111E+01 +8.394215E-01 +8.811531E+02 -1.419362E+01 +3.027111E+01 -1.419362E+01 +3.714153E+02 
 +4.815351E+02 +3.235745E-01 +3.521480E+01 +3.235745E-01 +8.627979E+02 -1.829736E+01 +3.521480E+01 -1.829736E+01 +3.374566E+02 
 +4.679846E+02 -1.844420E+00 +2.670780E+01 -1.844420E+00 +8.589857E+02 -1.592180E+01 +2.670780E+01 -1.592180E+01 +3.291248E+02 
 +4.626587E+02 -4.223567E+00 +1.379005E+01 -4.223567E+00 +8.628693E+02 -8.060630E+00 +1.379005E+01 -8.060630E+00 +3.329233E+02 
 +4.636418E+02 -6.573923E+00 +1.345869E+01 -6.573923E+00 +8.651578E+02 +9.682348E+00 +1.345869E+01 +9.682348E+00 +3.487414E+02 
 +4.860421E+02 -7.430798E+00 -8.674996E+00 -7.430798E+00 +8.761599E+02 +1.938336E+01 -8.674996E+00 +1.938336E+01 +3.847527E+02 
 +5.027540E+02 -8.863104E+00 -1.825103E+01 -8.863104E+00 +8.782345E+02 +1.670354E+01 -1.825103E+01 +1.670354E+01 +3.838355E+02 
 +5.014711E+02 -4.573781E+00 -8.744643E+00 -4.573781E+00 +8.673557E+02 +1.365543E+01 -8.744643E+00 +1.365543E+01 +3.709419E+02 
 +4.948415E+02 +2.875005E-01 -1.178424E+01 +2.875005E-01 +8.605690E+02 +8.834620E+00 -1.178424E+01 +8.834620E+00 +3.815573E+02 
 +4.829630E+02 +4.655063E+00 -1.434401E+01 +4.655063E+00 +8.508837E+02 +3.242901E+00 -1.434401E+01 +3.242901E+00 +3.825383E+02 
 +4.815031E+02 +9.412990E+00 -1.808187E+01 +9.412990E+00 +8.453133E+02 -2.248530E+00 -1.808187E+01 -2.248530E+00 +3.827962E+02 
 +4.846615E+02 +1.071681E+01 -1.769888E+01 +1.071681E+01 +8.408288E+02 -6.585541E+00 -1.769888E+01 -6.585541E+00 +3.810019E+02 
 +4.973849E+02 +8.625251E+00 -2.181777E+01 +8.625251E+00 +8.490336E+02 -9.491182E+00 -2.181777E+01 -9.491182E+00 +3.957873E+02 
 +5.013215E+02 -1.028990E+01 +2.217647E+01 -1.028990E+01 +8.676344E+02 +4.393845E+00 +2.217647E+01 +4.393845E+00 +3.964333E+02 
 +5.008382E+02 -1.609616E+00 +1.764547E+01 -1.609616E+00 +8.815052E+02 -4.824333E+00 +1.764547E+01 -4.824333E+00 +3.786547E+02 
 +5.051444E+02 +3.897085E+00 +1.156575E+01 +3.897085E+00 +8.910766E+02 -5.735170E+00 +1.156575E+01 -5.735170E+00 +3.791663E+02 
 +5.014187E+02 +5.073501E+00 +1.980131E+01 +5.073501E+00 +8.942364E+02 -3.384048E+00 +1.980131E+01 -3.384048E+00 +3.796098E+02 
 +4.979405E+02 +7.232429E+00 +1.820630E+01 +7.232429E+00 +8.959580E+02 +4.312780E-01 +1.820630E+01 +4.312780E-01 +3.804515E+02 
 +4.957029E+02 +8.638605E+00 +1.553342E+01 +8.638605E+00 +8.933369E+02 -3.595919E-01 +1.553342E+01 -3.595919E-01 +3.889851E+02 
 +5.131905E+02 +6.385837E+00 +1.790891E+01 +6.385837E+00 +8.979155E+02 -3.761961E+00 +1.790891E+01 -3.761961E+00 +4.198653E+02 
 +5.316243E+02 +2.657693E+00 +2.495362E+01 +2.657693E+00 +8.989906E+02 -9.600826E+00 +2.495362E+01 -9.600826E+00 +4.264776E+02 
 +4.931191E+02 -5.395473E-01 +2.298064E+01 -5.395473E-01 +8.698408E+02 -6.114090E+00 +2.298064E+01 -6.114090E+00 +3.707963E+02 
 +4.718242E+02 -4.835217E-01 +1.366070E+01 -4.835217E-01 +8.558016E+02 -7.967473E+00 +1.366070E+01 -7.967473E+00 +3.355397E+02 
 +4.644988E+02 +9.429241E-02 +3.330566E+01 +9.429241E-02 +8.550433E+02 -9.699057E+00 +3.330566E+01 -9.699057E+00 +3.282028E+02 
 +4.679056E+02 -1.735960E+00 +2.373238E+01 -1.735960E+00 +8.606460E+02 +7.387984E-01 +2.373238E+01 +7.387984E-01 +3.410081E+02 
 +4.819583E+02 -2.900287E+00 +1.172051E+01 -2.900287E+00 +8.730820E+02 +6.082294E+00 +1.172051E+01 +6.082294E+00 +3.692078E+02 
 +5.286228E+02 -1.814049E+00 -1.335573E+01 -1.814049E+00 +9.024620E+02 +9.474405E+00 -1.335573E+01 +9.474405E+00 +4.083333E+02 
 +5.281735E+02 -2.105861E+00 -5.355133E+00 -2.105861E+00 +8.902385E+02 +1.469505E+01 -5.355133E+00 +1.469505E+01 +3.946921E+02 
 +4.947109E+02 -1.789184E+00 -7.362849E-01 -1.789184E+00 +8.627378E+02 +1.525766E+01 -7.362849E-01 +1.525766E+01 +3.677188E+02 
 +4.912830E+02 -1.187665E-01 -6.760130E+00 -1.187665E-01 +8.591172E+02 +1.220387E+01 -6.760130E+00 +1.220387E+01 +3.778839E+02 
 +4.876877E+02 +4.784108E+00 -1.341867E+01 +4.784108E+00 +8.507774E+02 +7.813212E+00 -1.341867E+01 +7.813212E+00 +3.860399E+02 
 +4.859295E+02 +6.920345E+00 -1.446914E+01 +6.920345E+00 +8.443551E+02 +2.870856E+00 -1.446914E+01 +2.870856E+00 +3.929316E+02 
 +4.896894E+02 +3.610088E+00 -1.235396E+01 +3.610088E+00 +8.431238E+02 +7.092107E-01 -1.235396E+01 +7.092107E-01 +3.961539E+02 
 +4.995941E+02 -2.317901E+00 -1.233055E+01 -2.317901E+00 +8.529698E+02 +8.163741E+00 -1.233055E+01 +8.163741E+00 +4.036859E+02 
 +5.002913E+02 -5.997001E+00 +8.343436E+00 -5.997001E+00 +8.776702E+02 +3.633792E+00 +8.343436E+00 +3.633792E+00 +3.932573E+02 
 +4.978542E+02 -2.394807E+00 +3.605564E+00 -2.394807E+00 +8.794603E+02 -4.372135E+00 +3.605564E+00 -4.372135E+00 +3.790221E+02 
 +5.151075E+02 +7.441382E-01 -5.340409E-01 +7.441382E-01 +8.928004E+02 -7.138268E+00 -5.340409E-01 -7.138268E+00 +3.909883E+02 
 +5.156470E+02 +3.348925E-01 +3.111155E+01 +3.348925E-01 +9.003251E+02 -5.537113E+00 +3.111155E+01 -5.537113E+00 +3.934701E+02 
 +5.038584E+02 +1.491570E+00 +1.351127E+01 +1.491570E+00 +8.954116E+02 -7.982194E+00 +1.351127E+01 -7.982194E+00 +3.863276E+02 
 +5.016708E+02 +2.585832E+00 +1.322342E+01 +2.585832E+00 +8.966400E+02 -1.713555E+01 +1.322342E+01 -1.713555E+01 +3.934526E+02 
 +5.052803E+02 +2.171073E+00 +9.485275E+00 +2.171073E+00 +8.986141E+02 -2.281835E+01 +9.485275E+00 -2.281835E+01 +4.142437E+02 
 +5.135259E+02 +4.646906E+00 +2.672881E+01 +4.646906E+00 +8.946152E+02 -1.683689E+01 +2.672881E+01 -1.683689E+01 +4.304661E+02 
 +4.792354E+02 +4.800421E+00 +2.158943E+01 +4.800421E+00 +8.641849E+02 -3.444603E+00 +2.158943E+01 -3.444603E+00 +3.954102E+02 
 +4.615219E+02 +3.217664E+00 -7.300466E+00 +3.217664E+00 +8.471885E+02 -1.434317E+00 -7.300466E+00 -1.434317E+00 +3.402746E+02 
 +4.659890E+02 +3.455417E+00 +2.634277E+01 +3.455417E+00 +8.454675E+02 -6.098149E+00 +2.634277E+01 -6.098149E+00 +3.197112E+02 
 +4.819453E+02 +5.584350E+00 +1.871001E+01 +5.584350E+00 +8.622635E+02 -3.149793E+00 +1.871001E+01 -3.149793E+00 +3.539992E+02 
 +4.909281E+02 -2.738680E-01 -5.696251E+00 -2.738680E-01 +8.672132E+02 +4.677956E+00 -5.696251E+00 +4.677956E+00 +3.852509E+02 
 +5.221500E+02 -8.017935E+00 -7.748186E+00 -8.017935E+00 +8.611367E+02 +1.050879E+01 -7.748186E+00 +1.050879E+01 +3.934307E+02 
 +5.227282E+02 -8.716480E+00 +9.054685E+00 -8.716480E+00 +8.607197E+02 +1.275461E+01 +9.054685E+00 +1.275461E+01 +3.819188E+02 
 +4.960520E+02 -4.156477E+00 +9.074834E+00 -4.156477E+00 +8.627233E+02 +1.295292E+01 +9.074834E+00 +1.295292E+01 +3.714998E+02 
 +4.879893E+02 -2.729105E+00 +2.235995E-01 -2.729105E+00 +8.544312E+02 +1.213839E+01 +2.235995E-01 +1.213839E+01 +3.704671E+02 
 +4.830140E+02 +2.884609E+00 -9.917174E+00 +2.884609E+00 +8.462433E+02 +7.886417E+00 -9.917174E+00 +7.886417E+00 +3.813139E+02 
 +4.798381E+02 +2.943074E+00 -1.091862E+01 +2.943074E+00 +8.456253E+02 +3.648788E+00 -1.091862E+01 +3.648788E+00 +3.940449E+02 
 +4.822518E+02 -1.606397E-01 -7.750572E+00 -1.606397E-01 +8.483303E+02 +2.280791E+00 -7.750572E+00 +2.280791E+00 +3.948120E+02 
 +4.931851E+02 -2.214805E+00 +4.117690E+00 -2.214805E+00 +8.617597E+02 +6.736365E+00 +4.117690E+00 +6.736365E+00 +3.960472E+02 
 +4.889579E+02 -2.578362E+00 +5.681779E+00 -2.578362E+00 +8.682439E+02 -1.204267E+01 +5.681779E+00 -1.204267E+01 +3.847536E+02 
 +4.922078E+02 -3.652185E+00 -8.515324E+00 -3.652185E+00 +8.796072E+02 -5.668097E+00 -8.515324E+00 -5.668097E+00 +3.765717E+02 
 +5.008211E+02 -4.715675E+00 -6.818176E+00 -4.715675E+00 +8.839479E+02 -5.496059E+00 -6.818176E+00 -5.496059E+00 +3.797106E+02 
 +5.150484E+02 -8.007976E+00 +2.050061E+01 -8.007976E+00 +8.872231E+02 -1.408489E+01 +2.050061E+01 -1.408489E+01 +3.859061E+02 
 +5.063622E+02 -7.374366E+00 -3.961407E+00 -7.374366E+00 +8.875981E+02 -1.999973E+01 -3.961407E+00 -1.999973E+01 +3.843454E+02 
 +5.100657E+02 -5.554363E+00 -7.659634E+00 -5.554363E+00 +8.943351E+02 -2.299817E+01 -7.659634E+00 -2.299817E+01 +3.937253E+02 
 +5.220079E+02 -4.452883E+00 -1.395417E+01 -4.452883E+00 +9.008424E+02 -2.949266E+01 -1.395417E+01 -2.949266E+01 +4.163175E+02 
 +4.890915E+02 -1.243826E-01 +2.038826E+01 -1.243826E-01 +8.769525E+02 -2.246873E+01 +2.038826E+01 -2.246873E+01 +4.141851E+02 
 +4.727080E+02 +7.875659E+00 +1.773142E+01 +7.875659E+00 +8.639971E+02 -1.320640E+01 +1.773142E+01 -1.320640E+01 +4.048997E+02 
 +4.452604E+02 +5.258617E+00 -7.261506E+00 +5.258617E+00 +8.293009E+02 -9.897690E-01 -7.261506E+00 -9.897690E-01 +3.614490E+02 
 +4.567861E+02 +1.919964E+00 -3.658406E+00 +1.919964E+00 +8.110145E+02 +8.815904E+00 -3.658406E+00 +8.815904E+00 +3.502717E+02 
 +4.814228E+02 +5.829327E+00 -4.933025E-01 +5.829327E+00 +8.243004E+02 +8.192505E+00 -4.933025E-01 +8.192505E+00 +3.718544E+02 
 +4.861220E+02 -3.186288E+00 -1.010691E+01 -3.186288E+00 +8.324015E+02 +8.279683E+00 -1.010691E+01 +8.279683E+00 +3.783317E+02 
 +5.078870E+02 -9.848814E+00 -1.184668E+00 -9.848814E+00 +8.555539E+02 +3.966776E+00 -1.184668E+00 +3.966776E+00 +3.922791E+02 
 +5.233725E+02 -1.393340E+01 +1.115335E+01 -1.393340E+01 +8.644233E+02 +3.596459E+00 +1.115335E+01 +3.596459E+00 +3.920224E+02 
 +5.132536E+02 -1.282451E+01 +1.173844E+01 -1.282451E+01 +8.482557E+02 +1.263904E+01 +1.173844E+01 +1.263904E+01 +3.747052E+02 
 +4.871223E+02 -7.623360E+00 +4.428635E+00 -7.623360E+00 +8.410614E+02 +1.283010E+01 +4.428635E+00 +1.283010E+01 +3.649697E+02 
 +4.706335E+02 -4.013895E-01 -7.639160E+00 -4.013895E-01 +8.444448E+02 +4.506337E+00 -7.639160E+00 +4.506337E+00 +3.744364E+02 
 +4.711467E+02 -2.240095E+00 -9.149831E+00 -2.240095E+00 +8.519104E+02 +6.303083E-01 -9.149831E+00 +6.303083E-01 +3.866732E+02 
 +4.766100E+02 -4.050101E+00 -8.467292E+00 -4.050101E+00 +8.551729E+02 -3.942928E+00 -8.467292E+00 -3.942928E+00 +3.857342E+02 
 +4.850416E+02 -2.867697E+00 +6.362787E+00 -2.867697E+00 +8.582078E+02 -1.259201E+01 +6.362787E+00 -1.259201E+01 +3.850602E+02 
 +4.824219E+02 -3.642341E+00 +5.967071E+00 -3.642341E+00 +8.676350E+02 -1.537104E+01 +5.967071E+00 -1.537104E+01 +3.767273E+02 
 +4.856356E+02 -4.378709E+00 -1.680516E+01 -4.378709E+00 +8.763072E+02 -1.008463E+01 -1.680516E+01 -1.008463E+01 +3.697830E+02 
 +5.019390E+02 -3.442017E+00 -9.493941E+00 -3.442017E+00 +8.927727E+02 -7.379393E+00 -9.493941E+00 -7.379393E+00 +3.775603E+02 
 +5.196736E+02 -4.220723E+00 +2.993196E+00 -4.220723E+00 +9.031237E+02 -8.258216E+00 +2.993196E+00 -8.258216E+00 +3.832557E+02 
 +5.187874E+02 -4.899671E+00 -6.553079E+00 -4.899671E+00 +8.940193E+02 -8.228533E+00 -6.553079E+00 -8.228533E+00 +3.858171E+02 
 +5.266138E+02 -2.339874E+00 -2.532691E+01 -2.339874E+00 +8.906960E+02 -1.606391E+01 -2.532691E+01 -1.606391E+01 +3.949731E+02 
 +5.331425E+02 -1.275680E+00 -2.746019E+01 -1.275680E+00 +8.933217E+02 -1.506603E+01 -2.746019E+01 -1.506603E+01 +4.046386E+02 
 +4.650482E+02 +8.823464E-01 -3.821583E+00 +8.823464E-01 +8.596170E+02 -6.585121E+00 -3.821583E+00 -6.585121E+00 +3.904562E+02 
 +4.616049E+02 +6.540937E+00 +1.802772E+00 +6.540937E+00 +8.539647E+02 -7.051884E+00 +1.802772E+00 -7.051884E+00 +3.922037E+02 
 +4.607495E+02 +2.697398E+00 -1.642438E+01 +2.697398E+00 +8.470656E+02 -5.317578E+00 -1.642438E+01 -5.317578E+00 +3.949978E+02 
 +4.559258E+02 -6.374151E-01 -2.678649E+01 -6.374151E-01 +8.373064E+02 -1.759871E+00 -2.678649E+01 -1.759871E+00 +4.046101E+02 
 +4.926647E+02 -2.664918E+00 -1.288293E+01 -2.664918E+00 +8.337318E+02 +4.546521E+00 -1.288293E+01 +4.546521E+00 +4.037867E+02 
 +5.073600E+02 -1.102068E+01 -7.222202E+00 -1.102068E+01 +8.401879E+02 +8.058494E+00 -7.222202E+00 +8.058494E+00 +3.864970E+02 
 +5.090068E+02 -1.428477E+01 -3.866574E+00 -1.428477E+01 +8.537416E+02 +5.143789E+00 -3.866574E+00 +5.143789E+00 +3.939552E+02 
 +5.092100E+02 -1.435961E+01 +6.103010E+00 -1.435961E+01 +8.443067E+02 +5.273111E+00 +6.103010E+00 +5.273111E+00 +3.896217E+02 
 +5.110062E+02 -1.230260E+01 +9.989489E+00 -1.230260E+01 +8.363538E+02 +1.197685E+01 +9.989489E+00 +1.197685E+01 +3.646508E+02 
 +4.988869E+02 -1.163092E+01 +4.793275E+00 -1.163092E+01 +8.379227E+02 +8.795743E+00 +4.793275E+00 +8.795743E+00 +3.636830E+02 
 +4.552777E+02 -2.570714E+00 -1.021161E+01 -2.570714E+00 +8.352049E+02 -8.674135E-01 -1.021161E+01 -8.674135E-01 +3.649301E+02 
 +4.632371E+02 -4.485531E+00 -1.198393E+01 -4.485531E+00 +8.501645E+02 -7.586863E+00 -1.198393E+01 -7.586863E+00 +3.725223E+02 
 +4.686464E+02 -4.741829E+00 -1.171245E+01 -4.741829E+00 +8.527543E+02 -1.226483E+01 -1.171245E+01 -1.226483E+01 +3.736272E+02 
 +4.763058E+02 -4.726686E+00 -2.622696E+00 -4.726686E+00 +8.598701E+02 -1.637299E+01 -2.622696E+00 -1.637299E+01 +3.762187E+02 
 +4.706987E+02 -1.116852E+00 -6.980736E-01 -1.116852E+00 +8.625975E+02 -1.507609E+01 -6.980736E-01 -1.507609E+01 +3.672784E+02 
 +4.819378E+02 -1.544683E+00 -1.833743E+01 -1.544683E+00 +8.660309E+02 -8.548078E+00 -1.833743E+01 -8.548078E+00 +3.601659E+02 
 +5.019491E+02 -2.572994E+00 -5.450007E+00 -2.572994E+00 +8.794442E+02 -4.131758E+00 -5.450007E+00 -4.131758E+00 +3.862155E+02 
 +5.075567E+02 -4.054462E+00 +7.590190E+00 -4.054462E+00 +8.796029E+02 -7.061895E+00 +7.590190E+00 -7.061895E+00 +3.813767E+02 
 +5.279690E+02 -2.759593E+00 +6.465038E+00 -2.759593E+00 +8.846605E+02 -9.012672E+00 +6.465038E+00 -9.012672E+00 +3.705577E+02 
 +5.267058E+02 +4.769854E-01 -2.078193E+01 +4.769854E-01 +8.703088E+02 -8.201096E+00 -2.078193E+01 -8.201096E+00 +3.618125E+02 
 +5.183560E+02 +3.596543E+00 -1.692544E+01 +3.596543E+00 +8.609562E+02 -1.192565E+00 -1.692544E+01 -1.192565E+00 +3.613988E+02 
 +4.394510E+02 +7.575896E+00 -1.787810E+01 +7.575896E+00 +8.388802E+02 +2.341426E+00 -1.787810E+01 +2.341426E+00 +3.748408E+02 
 +4.604251E+02 +5.069464E+00 -1.429987E+01 +5.069464E+00 +8.569767E+02 +1.455025E+00 -1.429987E+01 +1.455025E+00 +4.052021E+02 
 +4.674124E+02 +3.061298E+00 -2.676462E+01 +3.061298E+00 +8.535814E+02 +5.921660E+00 -2.676462E+01 +5.921660E+00 +4.110245E+02 
 +4.578448E+02 +3.363300E+00 -2.668072E+01 +3.363300E+00 +8.500681E+02 +5.617128E+00 -2.668072E+01 +5.617128E+00 +4.117251E+02 
 +4.761497E+02 +3.544635E+00 -1.912875E+01 +3.544635E+00 +8.556430E+02 -7.725738E+00 -1.912875E+01 -7.725738E+00 +4.102526E+02 
 +5.423979E+02 -1.732072E+00 -7.198098E+00 -1.732072E+00 +8.667708E+02 -1.888776E+01 -7.198098E+00 -1.888776E+01 +4.113545E+02 
 +5.157590E+02 -5.408178E+00 -1.573219E+01 -5.408178E+00 +8.407800E+02 -1.427716E+01 -1.573219E+01 -1.427716E+01 +3.947619E+02 
 +5.122992E+02 -1.210338E+01 -5.409316E+00 -1.210338E+01 +8.517435E+02 -1.850822E+00 -5.409316E+00 -1.850822E+00 +3.964115E+02 
 +5.040554E+02 -1.059437E+01 +9.169371E+00 -1.059437E+01 +8.481306E+02 +5.181234E+00 +9.169371E+00 +5.181234E+00 +3.620302E+02 
 +5.041358E+02 -1.007796E+01 +3.753291E+00 -1.007796E+01 +8.530543E+02 -1.606723E-01 +3.753291E+00 -1.606723E-01 +3.623333E+02 
 +4.615476E+02 -8.630116E-01 -1.227390E+01 -8.630116E-01 +8.410653E+02 -6.202699E+00 -1.227390E+01 -6.202699E+00 +3.630720E+02 
 +4.645845E+02 -6.650579E+00 -1.356871E+01 -6.650579E+00 +8.488080E+02 -8.691007E+00 -1.356871E+01 -8.691007E+00 +3.661147E+02 
 +4.640197E+02 -3.682030E+00 -1.238712E+01 -3.682030E+00 +8.528206E+02 -1.340883E+01 -1.238712E+01 -1.340883E+01 +3.683561E+02 
 +4.647633E+02 -3.310850E+00 -6.223308E+00 -3.310850E+00 +8.584632E+02 -1.502764E+01 -6.223308E+00 -1.502764E+01 +3.694805E+02 
 +4.652662E+02 -2.591487E+00 -6.672577E+00 -2.591487E+00 +8.588608E+02 -1.355497E+01 -6.672577E+00 -1.355497E+01 +3.680005E+02 
 +4.836962E+02 -1.519603E+00 -1.370924E+01 -1.519603E+00 +8.597554E+02 -3.456184E+00 -1.370924E+01 -3.456184E+00 +3.668227E+02 
 +4.899862E+02 -4.239234E+00 -1.502433E+00 -4.239234E+00 +8.622595E+02 +2.048992E+00 -1.502433E+00 +2.048992E+00 +3.878283E+02 
 +5.154871E+02 -4.612459E+00 +8.692823E+00 -4.612459E+00 +8.705531E+02 -7.469332E+00 +8.692823E+00 -7.469332E+00 +3.808376E+02 
 +5.402244E+02 -1.680698E+00 +1.084781E+01 -1.680698E+00 +8.732744E+02 -1.557429E+01 +1.084781E+01 -1.557429E+01 +3.427427E+02 
 +5.455394E+02 +1.396361E+00 -6.597006E+00 +1.396361E+00 +8.825510E+02 -1.070623E+01 -6.597006E+00 -1.070623E+01 +3.495925E+02 
 +5.157143E+02 +3.417476E+00 -1.012677E+01 +3.417476E+00 +8.794673E+02 -6.531190E+00 -1.012677E+01 -6.531190E+00 +3.687214E+02 
 +4.402183E+02 +3.405604E+00 -1.200656E+01 +3.405604E+00 +8.434536E+02 -1.688147E+00 -1.200656E+01 -1.688147E+00 +3.851328E+02 
 +4.608213E+02 +7.888015E-01 -1.633953E+01 +7.888015E-01 +8.541835E+02 +7.419519E+00 -1.633953E+01 +7.419519E+00 +4.186541E+02 
 +4.664283E+02 +3.234839E+00 -2.287645E+01 +3.234839E+00 +8.530489E+02 +1.132805E+01 -2.287645E+01 +1.132805E+01 +4.199165E+02 
 +4.711200E+02 +5.380465E+00 -2.456562E+01 +5.380465E+00 +8.568837E+02 +9.701182E+00 -2.456562E+01 +9.701182E+00 +4.170451E+02 
 +4.625479E+02 +4.379732E+00 -2.707384E+01 +4.379732E+00 +8.459823E+02 -6.742430E-01 -2.707384E+01 -6.742430E-01 +4.077148E+02 
 +5.401870E+02 -2.179909E+00 -1.212503E+01 -2.179909E+00 +8.768214E+02 -1.428586E+01 -1.212503E+01 -1.428586E+01 +4.278463E+02 
 +5.367478E+02 -7.746674E+00 -1.956368E+01 -7.746674E+00 +8.764357E+02 -6.863393E+00 -1.956368E+01 -6.863393E+00 +4.100310E+02 
 +5.078466E+02 -1.724683E+01 -2.075081E+01 -1.724683E+01 +8.589876E+02 +4.705174E+00 -2.075081E+01 +4.705174E+00 +3.837006E+02 
 +4.870584E+02 -1.367812E+01 -3.877398E+00 -1.367812E+01 +8.436710E+02 +9.489123E-01 -3.877398E+00 +9.489123E-01 +3.432395E+02 
 +4.986612E+02 -1.143580E+01 -2.338201E+00 -1.143580E+01 +8.621517E+02 -3.963563E+00 -2.338201E+00 -3.963563E+00 +3.458022E+02 
 +4.784990E+02 -2.699921E+00 -1.203077E+01 -2.699921E+00 +8.553036E+02 -6.556845E+00 -1.203077E+01 -6.556845E+00 +3.580406E+02 
 +4.668623E+02 -6.819613E+00 -1.703063E+01 -6.819613E+00 +8.488642E+02 -1.287462E+01 -1.703063E+01 -1.287462E+01 +3.632929E+02 
 +4.598052E+02 -3.980692E+00 -1.561598E+01 -3.980692E+00 +8.530305E+02 -1.888559E+01 -1.561598E+01 -1.888559E+01 +3.626340E+02 
 +4.580243E+02 -4.102369E+00 -8.951871E+00 -4.102369E+00 +8.573727E+02 -1.767964E+01 -8.951871E+00 -1.767964E+01 +3.623832E+02 
 +4.710426E+02 -2.942132E+00 -1.658090E+01 -2.942132E+00 +8.641394E+02 -9.838712E+00 -1.658090E+01 -9.838712E+00 +3.764287E+02 
 +4.850331E+02 -2.712065E+00 -1.534219E+01 -2.712065E+00 +8.607743E+02 -6.142000E+00 -1.534219E+01 -6.142000E+00 +3.781310E+02 
 +4.736039E+02 -3.015132E+00 -5.720209E+00 -3.015132E+00 +8.459767E+02 -3.958628E+00 -5.720209E+00 -3.958628E+00 +3.667384E+02 
 +5.306454E+02 -1.892368E+00 +4.133450E+00 -1.892368E+00 +8.681767E+02 -4.292329E+00 +4.133450E+00 -4.292329E+00 +3.607307E+02 
 +5.450452E+02 -1.965234E+00 +1.139707E+01 -1.965234E+00 +8.699743E+02 -1.584493E+00 +1.139707E+01 -1.584493E+00 +3.377892E+02 
 +5.613910E+02 -4.446408E+00 +5.181625E-01 -4.446408E+00 +8.899133E+02 +1.290493E+00 +5.181625E-01 +1.290493E+00 +3.699494E+02 
 +5.061679E+02 -6.495995E-01 -9.119201E+00 -6.495995E-01 +8.758414E+02 +2.400469E+00 -9.119201E+00 +2.400469E+00 +3.891571E+02 
 +4.536294E+02 +3.893605E-01 -4.912196E+00 +3.893605E-01 +8.539489E+02 +5.252210E+00 -4.912196E+00 +5.252210E+00 +4.035148E+02 
 +4.606716E+02 -1.347826E+00 -1.112839E+01 -1.347826E+00 +8.546932E+02 +1.119458E+01 -1.112839E+01 +1.119458E+01 +4.201733E+02 
 +4.701388E+02 -5.203245E-01 -1.874204E+01 -5.203245E-01 +8.584283E+02 +1.450984E+01 -1.874204E+01 +1.450984E+01 +4.206452E+02 
 +4.766918E+02 +4.711829E+00 -2.420084E+01 +4.711829E+00 +8.579110E+02 +1.226923E+01 -2.420084E+01 +1.226923E+01 +4.158789E+02 
 +4.937193E+02 +3.314435E+00 -2.463461E+01 +3.314435E+00 +8.726302E+02 +8.134253E+00 -2.463461E+01 +8.134253E+00 +4.224640E+02 
 +5.139083E+02 -1.858427E+00 -1.407535E+01 -1.858427E+00 +8.972039E+02 -1.287644E+00 -1.407535E+01 -1.287644E+00 +4.311152E+02 
 +5.596377E+02 -4.929998E+00 -2.120913E+01 -4.929998E+00 +9.169123E+02 -7.933605E+00 -2.120913E+01 -7.933605E+00 +4.155492E+02 
 +5.186283E+02 -1.034157E+01 -2.991538E+01 -1.034157E+01 +8.981230E+02 -4.356251E+00 -2.991538E+01 -4.356251E+00 +3.635747E+02 
 +4.905305E+02 -1.093103E+01 -2.475859E+01 -1.093103E+01 +8.871326E+02 -7.094886E+00 -2.475859E+01 -7.094886E+00 +3.283712E+02 
 +4.941446E+02 -1.103203E+01 -1.230106E+01 -1.103203E+01 +8.754983E+02 -1.590141E+01 -1.230106E+01 -1.590141E+01 +3.187633E+02 
 +4.973798E+02 -7.731458E+00 -3.633700E+00 -7.731458E+00 +8.673965E+02 -1.320467E+01 -3.633700E+00 -1.320467E+01 +3.405619E+02 
 +4.639521E+02 -3.170349E+00 -2.349123E+01 -3.170349E+00 +8.546303E+02 -1.588403E+01 -2.349123E+01 -1.588403E+01 +3.527040E+02 
 +4.600546E+02 -4.724014E+00 -2.154273E+01 -4.724014E+00 +8.623448E+02 -2.332231E+01 -2.154273E+01 -2.332231E+01 +3.594912E+02 
 +4.661294E+02 -3.761194E+00 -1.552144E+01 -3.761194E+00 +8.651482E+02 -1.633910E+01 -1.552144E+01 -1.633910E+01 +3.647853E+02 
 +4.807210E+02 +3.015861E-01 -1.870969E+01 +3.015861E-01 +8.657769E+02 -1.018693E+01 -1.870969E+01 -1.018693E+01 +3.633600E+02 
 +4.797696E+02 +5.214822E+00 -1.241409E+01 +5.214822E+00 +8.542428E+02 -1.132230E+01 -1.241409E+01 -1.132230E+01 +3.523354E+02 
 +4.529244E+02 +7.337802E+00 -1.525691E+01 +7.337802E+00 +8.320791E+02 -1.375181E+01 -1.525691E+01 -1.375181E+01 +3.435390E+02 
 +5.361985E+02 -2.237184E-01 +1.204456E+01 -2.237184E-01 +8.738017E+02 -8.885558E+00 +1.204456E+01 -8.885558E+00 +3.572939E+02 
 +5.446419E+02 -4.661268E+00 +1.506998E+01 -4.661268E+00 +8.739687E+02 -3.071827E+00 +1.506998E+01 -3.071827E+00 +3.488911E+02 
 +5.415839E+02 -5.860710E+00 +5.677282E+00 -5.860710E+00 +8.806838E+02 +9.847831E-01 +5.677282E+00 +9.847831E-01 +3.620586E+02 
 +5.104509E+02 -7.420138E+00 -1.973929E+00 -7.420138E+00 +8.762365E+02 +7.409109E+00 -1.973929E+00 +7.409109E+00 +3.684681E+02 
 +4.740272E+02 -5.487171E+00 -3.204942E-01 -5.487171E+00 +8.649011E+02 +8.934943E+00 -3.204942E-01 +8.934943E+00 +3.966094E+02 
 +4.532677E+02 -3.586051E+00 -6.698272E+00 -3.586051E+00 +8.575975E+02 +9.440502E+00 -6.698272E+00 +9.440502E+00 +4.144987E+02 
 +4.656046E+02 -5.033421E+00 -1.367527E+01 -5.033421E+00 +8.609977E+02 +1.021673E+01 -1.367527E+01 +1.021673E+01 +4.156925E+02 
 +4.786665E+02 -6.375669E+00 -1.977785E+01 -6.375669E+00 +8.618279E+02 +9.326426E+00 -1.977785E+01 +9.326426E+00 +4.109515E+02 
 +5.019945E+02 -5.359500E+00 -1.694451E+01 -5.359500E+00 +8.769306E+02 +1.031708E+01 -1.694451E+01 +1.031708E+01 +4.119717E+02 
 +5.036507E+02 -2.395441E+00 -1.337779E+01 -2.395441E+00 +8.959420E+02 +7.083299E+00 -1.337779E+01 +7.083299E+00 +4.193927E+02 
 +5.763813E+02 -3.970167E+00 -2.286565E+01 -3.970167E+00 +9.488685E+02 -1.919251E+00 -2.286565E+01 -1.919251E+00 +4.253727E+02 
 +5.166723E+02 -7.558765E+00 -2.854448E+01 -7.558765E+00 +9.083296E+02 -6.955527E+00 -2.854448E+01 -6.955527E+00 +3.486726E+02 
 +4.872878E+02 -9.096702E+00 -3.156310E+01 -9.096702E+00 +8.887577E+02 -6.234439E+00 -3.156310E+01 -6.234439E+00 +3.238437E+02 
 +4.857898E+02 -7.903715E+00 -2.414541E+01 -7.903715E+00 +8.821108E+02 -6.781884E+00 -2.414541E+01 -6.781884E+00 +3.126710E+02 
 +4.956870E+02 -1.288657E+01 -3.388030E+00 -1.288657E+01 +8.786302E+02 -1.503226E+01 -3.388030E+00 -1.503226E+01 +3.232642E+02 
 +4.741618E+02 -4.631183E+00 -1.320986E+01 -4.631183E+00 +8.704262E+02 -1.258936E+01 -1.320986E+01 -1.258936E+01 +3.476031E+02 
 +4.709583E+02 -4.061439E+00 -2.914060E+01 -4.061439E+00 +8.725269E+02 -4.188350E+00 -2.914060E+01 -4.188350E+00 +3.646209E+02 
 +4.814311E+02 -1.378692E+00 -2.513880E+01 -1.378692E+00 +8.746676E+02 -7.133490E+00 -2.513880E+01 -7.133490E+00 +3.760802E+02 
 +4.852384E+02 +1.542567E-01 -1.017456E+01 +1.542567E-01 +8.540832E+02 -9.358989E+00 -1.017456E+01 -9.358989E+00 +3.234242E+02 
 +4.786759E+02 +9.154673E+00 -4.684681E+00 +9.154673E+00 +8.412937E+02 -2.082035E+01 -4.684681E+00 -2.082035E+01 +3.065585E+02 
 +4.512611E+02 +1.694175E+01 -1.534668E+01 +1.694175E+01 +8.312260E+02 -1.345158E+01 -1.534668E+01 -1.345158E+01 +3.292869E+02 
 +4.934722E+02 +1.426784E+01 +1.497109E+01 +1.426784E+01 +8.464291E+02 -4.721298E+00 +1.497109E+01 -4.721298E+00 +3.398838E+02 
 +5.202832E+02 +1.110596E+00 +1.309778E+01 +1.110596E+00 +8.670437E+02 -4.074590E+00 +1.309778E+01 -4.074590E+00 +3.454740E+02 
 +5.234702E+02 -2.357861E+00 +4.953304E+00 -2.357861E+00 +8.878882E+02 +1.780915E+00 +4.953304E+00 +1.780915E+00 +3.730462E+02 
 +5.077960E+02 -1.393150E+01 -3.836199E-01 -1.393150E+01 +8.832679E+02 +1.126510E+01 -3.836199E-01 +1.126510E+01 +3.660418E+02 
 +4.968106E+02 -2.008312E+01 +1.527793E+00 -2.008312E+01 +8.774927E+02 +1.662638E+01 +1.527793E+00 +1.662638E+01 +3.793529E+02 
 +4.604106E+02 -1.448721E+01 -4.197692E+00 -1.448721E+01 +8.634330E+02 +1.389412E+01 -4.197692E+00 +1.389412E+01 +4.013615E+02 
 +4.699000E+02 -8.265786E+00 -1.194950E+01 -8.265786E+00 +8.679964E+02 +9.306100E+00 -1.194950E+01 +9.306100E+00 +4.151947E+02 
 +4.729285E+02 -4.976737E+00 -1.689191E+01 -4.976737E+00 +8.568686E+02 +7.363495E+00 -1.689191E+01 +7.363495E+00 +4.040397E+02 
 +5.028468E+02 +5.567346E+00 -2.004992E+01 +5.567346E+00 +8.644390E+02 +1.996552E+00 -2.004992E+01 +1.996552E+00 +3.999026E+02 
 +5.012591E+02 +8.959407E+00 -1.186187E+01 +8.959407E+00 +8.630607E+02 +4.753239E-01 -1.186187E+01 +4.753239E-01 +4.067309E+02 
 +5.362726E+02 +8.377479E+00 -8.359971E+00 +8.377479E+00 +8.856239E+02 +7.961049E+00 -8.359971E+00 +7.961049E+00 +4.162899E+02 
 +5.105472E+02 +6.251736E+00 -2.109669E+01 +6.251736E+00 +8.866317E+02 +5.219656E+00 -2.109669E+01 +5.219656E+00 +3.635692E+02 
 +4.922204E+02 +3.323439E-01 -3.094350E+01 +3.323439E-01 +8.916069E+02 -1.927808E+00 -3.094350E+01 -1.927808E+00 +3.335974E+02 
 +4.791936E+02 -3.027573E+00 -3.419789E+01 -3.027573E+00 +8.860855E+02 -4.460932E+00 -3.419789E+01 -4.460932E+00 +3.134589E+02 
 +4.864788E+02 -3.331939E+00 -4.189333E+00 -3.331939E+00 +8.967097E+02 -3.240634E+00 -4.189333E+00 -3.240634E+00 +3.198738E+02 
 +4.963349E+02 +2.776646E+00 +1.069689E+01 +2.776646E+00 +8.998519E+02 +1.039325E+01 +1.069689E+01 +1.039325E+01 +3.475537E+02 
 +4.918165E+02 +2.531143E+00 -4.142164E+01 +2.531143E+00 +8.932758E+02 +1.682399E+01 -4.142164E+01 +1.682399E+01 +3.739307E+02 
 +4.964914E+02 +4.133654E-02 -2.458483E+01 +4.133654E-02 +8.899156E+02 +6.410823E+00 -2.458483E+01 +6.410823E+00 +3.789779E+02 
 +4.906364E+02 -2.299879E+00 -9.387645E+00 -2.299879E+00 +8.594651E+02 -5.979516E+00 -9.387645E+00 -5.979516E+00 +3.150426E+02 
 +4.805655E+02 +2.603138E+00 -6.233191E+00 +2.603138E+00 +8.474627E+02 -1.565030E+01 -6.233191E+00 -1.565030E+01 +3.049681E+02 
 +4.774291E+02 -5.251033E-01 -7.867474E+00 -5.251033E-01 +8.467863E+02 -8.045297E+00 -7.867474E+00 -8.045297E+00 +3.336983E+02 
 +4.714515E+02 +4.299758E+00 +8.788735E-01 +4.299758E+00 +8.394941E+02 -5.186319E+00 +8.788735E-01 -5.186319E+00 +3.336914E+02 
 +4.838225E+02 +5.909836E+00 +2.807186E+00 +5.909836E+00 +8.394190E+02 -6.284664E+00 +2.807186E+00 -6.284664E+00 +3.405577E+02 
 +4.795657E+02 +9.170422E+00 +1.379597E+00 +9.170422E+00 +8.377053E+02 -6.565759E-01 +1.379597E+00 -6.565759E-01 +3.766491E+02 
 +4.815438E+02 +1.227103E+00 -1.799566E+00 +1.227103E+00 +8.429663E+02 +6.219749E+00 -1.799566E+00 +6.219749E+00 +3.847163E+02 
 +4.841984E+02 -4.698192E+00 -1.204875E+00 -4.698192E+00 +8.494034E+02 +1.020390E+01 -1.204875E+00 +1.020390E+01 +3.718604E+02 
 +4.694109E+02 -3.701990E+00 -5.260141E+00 -3.701990E+00 +8.447781E+02 +6.241999E+00 -5.260141E+00 +6.241999E+00 +3.741625E+02 
 +4.652582E+02 +1.921867E+00 -1.131360E+01 +1.921867E+00 +8.443052E+02 +1.503898E+00 -1.131360E+01 +1.503898E+00 +3.868187E+02 
 +4.733144E+02 +4.871638E+00 -1.373906E+01 +4.871638E+00 +8.492580E+02 +1.955243E+00 -1.373906E+01 +1.955243E+00 +3.874189E+02 
 +4.895165E+02 +1.039569E+01 -1.881751E+01 +1.039569E+01 +8.517866E+02 +8.561592E+00 -1.881751E+01 +8.561592E+00 +3.889476E+02 
 +4.966516E+02 +3.651306E+00 -3.397189E+00 +3.651306E+00 +8.416394E+02 +1.616410E+01 -3.397189E+00 +1.616410E+01 +3.943497E+02 
 +5.056090E+02 +8.644930E+00 +1.521151E+00 +8.644930E+00 +8.420096E+02 +1.632048E+01 +1.521151E+00 +1.632048E+01 +4.010259E+02 
 +5.047442E+02 +1.445960E+01 -8.814266E+00 +1.445960E+01 +8.554103E+02 +1.091212E+01 -8.814266E+00 +1.091212E+01 +3.835800E+02 
 +4.914800E+02 +8.908221E+00 -3.070710E+01 +8.908221E+00 +8.777511E+02 +3.612538E+00 -3.070710E+01 +3.612538E+00 +3.526080E+02 
 +4.880819E+02 +4.016674E+00 -3.750242E+01 +4.016674E+00 +8.975715E+02 -2.044604E+00 -3.750242E+01 -2.044604E+00 +3.367214E+02 
 +4.868678E+02 +5.467204E+00 +1.344697E+01 +5.467204E+00 +8.971167E+02 +4.178463E+00 +1.344697E+01 +4.178463E+00 +3.351824E+02 
 +4.928049E+02 +7.749403E+00 +1.912872E+01 +7.749403E+00 +8.958482E+02 +7.202663E+00 +1.912872E+01 +7.202663E+00 +3.463155E+02 
 +4.872757E+02 +8.660514E+00 -3.396106E+01 +8.660514E+00 +8.865483E+02 +8.616525E+00 -3.396106E+01 +8.616525E+00 +3.624678E+02 
 +4.883889E+02 +1.868441E+00 -9.632779E+00 +1.868441E+00 +8.729865E+02 +8.739349E+00 -9.632779E+00 +8.739349E+00 +3.531578E+02 
 +4.918046E+02 -4.871554E+00 -8.877145E+00 -4.871554E+00 +8.651658E+02 -4.844009E+00 -8.877145E+00 -4.844009E+00 +3.262986E+02 
 +4.802084E+02 +2.048236E+00 -9.325203E+00 +2.048236E+00 +8.540803E+02 -6.343910E+00 -9.325203E+00 -6.343910E+00 +3.254099E+02 
 +4.858076E+02 +5.733738E-01 -5.494310E+00 +5.733738E-01 +8.528995E+02 -5.815033E+00 -5.494310E+00 -5.815033E+00 +3.456714E+02 
 +4.779536E+02 +3.407890E-01 -6.716806E+00 +3.407890E-01 +8.426860E+02 -9.944742E+00 -6.716806E+00 -9.944742E+00 +3.505906E+02 
 +4.783531E+02 +1.038691E+00 -3.628685E+00 +1.038691E+00 +8.363106E+02 -7.790045E+00 -3.628685E+00 -7.790045E+00 +3.542069E+02 
 +4.764469E+02 +1.118947E+01 +4.011579E-01 +1.118947E+01 +8.383363E+02 -4.086969E+00 +4.011579E-01 -4.086969E+00 +3.757835E+02 
 +4.777840E+02 +8.362155E+00 -3.049716E-01 +8.362155E+00 +8.381241E+02 -9.708623E-01 -3.049716E-01 -9.708623E-01 +3.861337E+02 
 +4.774128E+02 +6.142351E+00 -3.230809E+00 +6.142351E+00 +8.356880E+02 +4.016632E+00 -3.230809E+00 +4.016632E+00 +3.735425E+02 
 +4.737253E+02 +3.714389E+00 -9.443468E+00 +3.714389E+00 +8.413636E+02 +2.818484E+00 -9.443468E+00 +2.818484E+00 +3.636693E+02 
 +4.751970E+02 +2.790021E+00 -9.277073E+00 +2.790021E+00 +8.506792E+02 +1.488563E+00 -9.277073E+00 +1.488563E+00 +3.681403E+02 
 +4.746550E+02 +2.369721E+00 -7.566983E+00 +2.369721E+00 +8.529546E+02 +2.571287E+00 -7.566983E+00 +2.571287E+00 +3.684548E+02 
 +4.719889E+02 +4.860761E+00 -5.200783E+00 +4.860761E+00 +8.453876E+02 +7.246483E+00 -5.200783E+00 +7.246483E+00 +3.729757E+02 
 +4.944977E+02 -5.241221E-01 +6.804359E+00 -5.241221E-01 +8.464995E+02 +1.371597E+01 +6.804359E+00 +1.371597E+01 +3.942712E+02 
 +4.952296E+02 +6.439273E+00 -3.254349E+00 +6.439273E+00 +8.378951E+02 +1.636354E+01 -3.254349E+00 +1.636354E+01 +3.989749E+02 
 +5.011562E+02 +1.467106E+01 -5.169009E+00 +1.467106E+01 +8.373022E+02 +1.444010E+01 -5.169009E+00 +1.444010E+01 +3.991012E+02 
 +4.973662E+02 +1.373870E+01 -2.896970E+01 +1.373870E+01 +8.468382E+02 +9.416022E+00 -2.896970E+01 +9.416022E+00 +4.038991E+02 
 +4.915865E+02 +6.372105E+00 -3.191326E+01 +6.372105E+00 +8.704622E+02 +1.269690E+01 -3.191326E+01 +1.269690E+01 +3.932633E+02 
 +4.869326E+02 +4.982882E-01 +1.834180E+01 +4.982882E-01 +8.858942E+02 +9.575839E+00 +1.834180E+01 +9.575839E+00 +3.650578E+02 
 +4.875712E+02 -7.551836E-01 +1.862110E+01 -7.551836E-01 +8.863426E+02 -3.266780E+00 +1.862110E+01 -3.266780E+00 +3.589459E+02 
 +4.810097E+02 +3.127242E-01 +4.334104E-01 +3.127242E-01 +8.748213E+02 +3.205013E+00 +4.334104E-01 +3.205013E+00 +3.506856E+02 
 +4.867497E+02 -4.330874E+00 -5.799132E-01 -4.330874E+00 +8.679920E+02 +6.016580E+00 -5.799132E-01 +6.016580E+00 +3.343029E+02 
 +4.891501E+02 -8.071670E+00 -5.527370E+00 -8.071670E+00 +8.627789E+02 -2.953554E+00 -5.527370E+00 -2.953554E+00 +3.287205E+02 
 +4.874014E+02 -3.297782E+00 -8.881529E+00 -3.297782E+00 +8.569425E+02 -3.821607E+00 -8.881529E+00 -3.821607E+00 +3.343721E+02 
 +4.858615E+02 -3.498086E-01 -5.521662E+00 -3.498086E-01 +8.518325E+02 -2.843911E+00 -5.521662E+00 -2.843911E+00 +3.456637E+02 
 +4.879358E+02 +3.109659E+00 -4.898256E+00 +3.109659E+00 +8.518632E+02 -3.666561E+00 -4.898256E+00 -3.666561E+00 +3.570455E+02 
 +4.840865E+02 +8.628040E+00 -2.788781E+00 +8.628040E+00 +8.509618E+02 -3.663096E+00 -2.788781E+00 -3.663096E+00 +3.599280E+02 
 +4.778019E+02 +1.517041E+01 -1.242971E+00 +1.517041E+01 +8.449699E+02 -6.875997E+00 -1.242971E+00 -6.875997E+00 +3.672591E+02 
 +4.756830E+02 +1.012457E+01 -1.600258E+00 +1.012457E+01 +8.400284E+02 -4.905128E+00 -1.600258E+00 -4.905128E+00 +3.698784E+02 
 +4.821861E+02 +9.718182E+00 -8.210652E+00 +9.718182E+00 +8.452639E+02 +5.510585E-01 -8.210652E+00 +5.510585E-01 +3.725680E+02 
 +4.748039E+02 +8.443732E+00 -1.296158E+01 +8.443732E+00 +8.446009E+02 +7.909545E-01 -1.296158E+01 +7.909545E-01 +3.663962E+02 
 +4.756579E+02 +5.964791E+00 -8.645813E+00 +5.964791E+00 +8.480273E+02 +1.701142E+00 -8.645813E+00 +1.701142E+00 +3.593099E+02 
 +4.749523E+02 +6.573572E+00 -3.873488E+00 +6.573572E+00 +8.525614E+02 +2.269459E+00 -3.873488E+00 +2.269459E+00 +3.553259E+02 
 +4.786557E+02 +6.380804E+00 +4.476070E+00 +6.380804E+00 +8.567864E+02 +8.564834E+00 +4.476070E+00 +8.564834E+00 +3.628838E+02 
 +4.782124E+02 -3.230184E-01 +4.343116E+00 -3.230184E-01 +8.487347E+02 +1.405874E+01 +4.343116E+00 +1.405874E+01 +3.817559E+02 
 +4.802389E+02 +6.393645E+00 -1.089991E+01 +6.393645E+00 +8.420528E+02 +1.306075E+01 -1.089991E+01 +1.306075E+01 +3.935462E+02 
 +4.875663E+02 +8.969541E+00 -1.490769E+01 +8.969541E+00 +8.349856E+02 +1.080179E+01 -1.490769E+01 +1.080179E+01 +3.930171E+02 
 +5.084927E+02 +1.169977E+01 -2.729995E+01 +1.169977E+01 +8.483181E+02 +1.024468E+01 -2.729995E+01 +1.024468E+01 +4.212059E+02 
 +5.042937E+02 +9.400250E+00 -2.199259E+01 +9.400250E+00 +8.663726E+02 +1.098936E+01 -2.199259E+01 +1.098936E+01 +4.194861E+02 
 +4.855393E+02 +1.810178E+00 +1.598414E+01 +1.810178E+00 +8.714482E+02 +6.343409E+00 +1.598414E+01 +6.343409E+00 +3.672701E+02 
 +4.856175E+02 -1.116264E+00 +2.560705E+01 -1.116264E+00 +8.799461E+02 +1.439279E-01 +2.560705E+01 +1.439279E-01 +3.529848E+02 
 +4.849805E+02 -1.045077E+00 +2.460422E+01 -1.045077E+00 +8.769566E+02 -6.591073E-01 +2.460422E+01 -6.591073E-01 +3.548261E+02 
 +4.910136E+02 -7.577152E+00 +2.024856E+00 -7.577152E+00 +8.699444E+02 -1.240157E-01 +2.024856E+00 -1.240157E-01 +3.392320E+02 
 +4.838660E+02 -9.145880E+00 -2.485904E+00 -9.145880E+00 +8.546715E+02 -4.028104E+00 -2.485904E+00 -4.028104E+00 +3.278989E+02 
 +4.894496E+02 -6.169203E+00 -7.551205E+00 -6.169203E+00 +8.554583E+02 -8.155098E-01 -7.551205E+00 -8.155098E-01 +3.334140E+02 
 +4.947403E+02 -2.772233E+00 -5.201801E+00 -2.772233E+00 +8.580171E+02 +4.285914E-01 -5.201801E+00 +4.285914E-01 +3.416878E+02 
 +4.946931E+02 -1.062105E+00 -6.384880E+00 -1.062105E+00 +8.573950E+02 -8.868436E-01 -6.384880E+00 -8.868436E-01 +3.469353E+02 
 +4.968936E+02 +9.622704E+00 -2.055419E+00 +9.622704E+00 +8.709822E+02 +2.287829E-01 -2.055419E+00 +2.287829E-01 +3.575897E+02 
 +4.854638E+02 +8.597599E+00 -2.510619E+00 +8.597599E+00 +8.705114E+02 +3.045625E-01 -2.510619E+00 +3.045625E-01 +3.720410E+02 
 +4.787134E+02 +7.606153E+00 -6.743132E+00 +7.606153E+00 +8.467346E+02 -3.487155E+00 -6.743132E+00 -3.487155E+00 +3.650839E+02 
 +4.767026E+02 +1.041523E+01 -1.271679E+01 +1.041523E+01 +8.348911E+02 -2.718055E+00 -1.271679E+01 -2.718055E+00 +3.629782E+02 
 +4.755813E+02 +1.478594E+01 -9.995118E+00 +1.478594E+01 +8.383329E+02 +7.014860E-01 -9.995118E+00 +7.014860E-01 +3.672477E+02 
 +4.718873E+02 +1.137684E+01 -7.316873E+00 +1.137684E+01 +8.453555E+02 +2.533998E+00 -7.316873E+00 +2.533998E+00 +3.531809E+02 
 +4.832524E+02 +1.124423E+01 -6.426913E-01 +1.124423E+01 +8.600108E+02 +3.096894E+00 -6.426913E-01 +3.096894E+00 +3.491419E+02 
 +4.931956E+02 +9.486816E+00 +5.560438E+00 +9.486816E+00 +8.798600E+02 +1.869068E+00 +5.560438E+00 +1.869068E+00 +3.534257E+02 
 +4.700436E+02 -1.688484E+00 -1.363213E+01 -1.688484E+00 +8.859341E+02 -4.283312E+00 -1.363213E+01 -4.283312E+00 +3.629892E+02 
 +4.880397E+02 +3.172996E+00 -2.007923E+01 +3.172996E+00 +8.981220E+02 -8.733714E+00 -2.007923E+01 -8.733714E+00 +3.907369E+02 
 +4.926201E+02 +5.685692E+00 -2.174055E+01 +5.685692E+00 +8.846475E+02 -7.193037E+00 -2.174055E+01 -7.193037E+00 +3.825544E+02 
 +5.281741E+02 +1.493599E+01 -1.748811E+01 +1.493599E+01 +8.934158E+02 -3.121897E+00 -1.748811E+01 -3.121897E+00 +4.037869E+02 
 +5.270481E+02 +1.676517E+01 -9.850674E+00 +1.676517E+01 +8.903542E+02 +2.625346E+00 -9.850674E+00 +2.625346E+00 +4.145258E+02 
 +5.013140E+02 +7.883867E+00 +1.589415E+01 +7.883867E+00 +8.732341E+02 +4.817165E+00 +1.589415E+01 +4.817165E+00 +3.767045E+02 
 +4.808151E+02 +1.728476E+00 +3.024957E+01 +1.728476E+00 +8.624830E+02 +4.288966E+00 +3.024957E+01 +4.288966E+00 +3.434554E+02 
 +4.778326E+02 -1.521488E+00 +3.333007E+01 -1.521488E+00 +8.668232E+02 +2.137114E+00 +3.333007E+01 +2.137114E+00 +3.492946E+02 
 +4.877803E+02 -1.036543E+01 +9.613567E+00 -1.036543E+01 +8.666534E+02 -3.394045E+00 +9.613567E+00 -3.394045E+00 +3.460109E+02 
 +4.787472E+02 -1.064179E+01 +3.014265E+00 -1.064179E+01 +8.498660E+02 -2.195681E+00 +3.014265E+00 -2.195681E+00 +3.317003E+02 
 +4.891633E+02 -7.972578E+00 -4.188770E+00 -7.972578E+00 +8.544924E+02 +2.769365E+00 -4.188770E+00 +2.769365E+00 +3.315361E+02 
 +4.913205E+02 -7.238528E+00 -5.695853E+00 -7.238528E+00 +8.570799E+02 +1.617596E+00 -5.695853E+00 +1.617596E+00 +3.374320E+02 
 +5.046571E+02 -6.460031E+00 -4.170173E+00 -6.460031E+00 +8.735037E+02 -4.344475E+00 -4.170173E+00 -4.344475E+00 +3.516467E+02 
 +5.055060E+02 +4.089164E+00 -1.778604E+00 +4.089164E+00 +8.759263E+02 -8.893545E+00 -1.778604E+00 -8.893545E+00 +3.551490E+02 
 +4.897006E+02 +3.083618E-01 -3.382988E+00 +3.083618E-01 +8.561064E+02 -1.238366E+01 -3.382988E+00 -1.238366E+01 +3.637995E+02 
 +4.720936E+02 +5.391906E+00 -5.974186E+00 +5.391906E+00 +8.348039E+02 -1.026186E+01 -5.974186E+00 -1.026186E+01 +3.606877E+02 
 +4.726552E+02 +1.008202E+01 -1.053024E+01 +1.008202E+01 +8.270506E+02 -6.373125E+00 -1.053024E+01 -6.373125E+00 +3.581705E+02 
 +4.867250E+02 +1.955668E+01 -7.824456E+00 +1.955668E+01 +8.440798E+02 -6.590949E+00 -7.824456E+00 -6.590949E+00 +3.707385E+02 
 +4.767588E+02 +1.807173E+01 +4.624673E-01 +1.807173E+01 +8.530478E+02 -2.670845E+00 +4.624673E-01 -2.670845E+00 +3.574884E+02 
 +4.897974E+02 +1.641430E+01 +6.365028E+00 +1.641430E+01 +8.719377E+02 +3.573025E+00 +6.365028E+00 +3.573025E+00 +3.530712E+02 
 +4.908980E+02 +1.235998E+01 +9.224577E-01 +1.235998E+01 +8.837968E+02 -1.628709E+00 +9.224577E-01 -1.628709E+00 +3.536038E+02 
 +4.601807E+02 +3.019583E+00 -2.048363E+01 +3.019583E+00 +8.805162E+02 -9.131030E+00 -2.048363E+01 -9.131030E+00 +3.575133E+02 
 +4.749958E+02 +8.161298E+00 -3.083220E+01 +8.161298E+00 +8.909033E+02 -1.234288E+01 -3.083220E+01 -1.234288E+01 +3.832167E+02 
 +4.809740E+02 +1.524914E+01 -2.938832E+01 +1.524914E+01 +8.799237E+02 -1.105947E+01 -2.938832E+01 -1.105947E+01 +3.775779E+02 
 +5.270226E+02 +2.420257E+01 -1.492584E+01 +2.420257E+01 +8.900201E+02 -3.283999E+00 -1.492584E+01 -3.283999E+00 +4.018137E+02 
 +5.135924E+02 +2.338153E+01 -7.446502E+00 +2.338153E+01 +8.580752E+02 -7.487250E-01 -7.446502E+00 -7.487250E-01 +4.147849E+02 
 +4.976214E+02 +1.952442E+01 +5.718119E+00 +1.952442E+01 +8.472230E+02 -1.635004E+00 +5.718119E+00 -1.635004E+00 +4.042573E+02 
 +4.831480E+02 +7.005398E+00 +2.304011E+01 +7.005398E+00 +8.580730E+02 +2.969076E-01 +2.304011E+01 +2.969076E-01 +3.712140E+02 
 +4.701961E+02 -1.964882E+00 +3.846492E+01 -1.964882E+00 +8.539910E+02 +3.309941E+00 +3.846492E+01 +3.309941E+00 +3.438784E+02 
 +4.764895E+02 -1.232554E+01 +1.888325E+01 -1.232554E+01 +8.533424E+02 -6.572136E-01 +1.888325E+01 -6.572136E-01 +3.395908E+02 
 +4.737019E+02 -1.118815E+01 +8.206457E+00 -1.118815E+01 +8.467458E+02 +4.432596E+00 +8.206457E+00 +4.432596E+00 +3.347527E+02 
 +4.721801E+02 -1.037609E+01 -6.874817E+00 -1.037609E+01 +8.482168E+02 +7.047015E+00 -6.874817E+00 +7.047015E+00 +3.314380E+02 
 +4.903723E+02 -1.501886E+01 +3.489975E-01 -1.501886E+01 +8.613458E+02 +4.488625E+00 +3.489975E-01 +4.488625E+00 +3.448114E+02 
 +4.988139E+02 -9.652036E+00 +3.028709E-01 -9.652036E+00 +8.651645E+02 +2.190352E-01 +3.028709E-01 +2.190352E-01 +3.531520E+02 
 +4.992347E+02 -1.046322E+01 -1.503062E+00 -1.046322E+01 +8.513219E+02 -8.905132E+00 -1.503062E+00 -8.905132E+00 +3.562499E+02 
 +4.994546E+02 -1.285967E+01 +5.181868E+00 -1.285967E+01 +8.433954E+02 -1.300046E+01 +5.181868E+00 -1.300046E+01 +3.661604E+02 
 +4.889743E+02 -9.298107E+00 +7.622435E+00 -9.298107E+00 +8.417845E+02 -9.887422E+00 +7.622435E+00 -9.887422E+00 +3.692454E+02 
 +4.655632E+02 +6.646954E-01 +3.476957E+00 +6.646954E-01 +8.224038E+02 -6.986866E+00 +3.476957E+00 -6.986866E+00 +3.441653E+02 
 +4.866347E+02 +1.732155E+01 +6.803601E+00 +1.732155E+01 +8.411165E+02 +4.825849E+00 +6.803601E+00 +4.825849E+00 +3.510629E+02 
 +4.907046E+02 +1.539305E+01 +7.691557E+00 +1.539305E+01 +8.676859E+02 +1.722244E+01 +7.691557E+00 +1.722244E+01 +3.553214E+02 
 +4.942687E+02 +1.105895E+01 +2.143602E+01 +1.105895E+01 +8.845164E+02 +2.170963E+01 +2.143602E+01 +2.170963E+01 +3.549980E+02 
 +4.791628E+02 +6.197462E+00 +1.427811E+00 +6.197462E+00 +8.722073E+02 +2.023855E+01 +1.427811E+00 +2.023855E+01 +3.573676E+02 
 +4.708078E+02 +3.693398E+00 -7.258851E+00 +3.693398E+00 +8.678906E+02 +5.106174E+00 -7.258851E+00 +5.106174E+00 +3.644656E+02 
 +4.710172E+02 +5.446614E+00 -3.183584E+01 +5.446614E+00 +8.777412E+02 -1.239724E+01 -3.183584E+01 -1.239724E+01 +3.784384E+02 
 +4.742816E+02 +1.143244E+01 -2.985869E+01 +1.143244E+01 +8.637934E+02 -2.233543E+01 -2.985869E+01 -2.233543E+01 +3.690967E+02 
 +4.981921E+02 +2.031576E+01 -1.478444E+01 +2.031576E+01 +8.505305E+02 -1.899063E+01 -1.478444E+01 -1.899063E+01 +3.763377E+02 
 +4.990589E+02 +2.057275E+01 -9.028500E+00 +2.057275E+01 +8.540482E+02 -1.338814E+01 -9.028500E+00 -1.338814E+01 +4.108576E+02 
 +4.932087E+02 +1.873240E+01 +6.608370E-01 +1.873240E+01 +8.512625E+02 -9.492515E+00 +6.608370E-01 -9.492515E+00 +4.239506E+02 
 +4.844519E+02 +1.254939E+01 +9.244570E+00 +1.254939E+01 +8.451730E+02 -5.070669E+00 +9.244570E+00 -5.070669E+00 +4.014660E+02 
 +4.660607E+02 -1.481612E+00 +3.161911E+01 -1.481612E+00 +8.421377E+02 -7.993186E-01 +3.161911E+01 -7.993186E-01 +3.576703E+02 
 +4.683882E+02 -1.286278E+01 +2.251473E+01 -1.286278E+01 +8.436462E+02 -4.832608E-01 +2.251473E+01 -4.832608E-01 +3.395693E+02 
 +4.681444E+02 -8.841914E+00 +8.500131E+00 -8.841914E+00 +8.518904E+02 +6.980199E+00 +8.500131E+00 +6.980199E+00 +3.318296E+02 
 +4.522499E+02 -8.108709E+00 -1.428056E+01 -8.108709E+00 +8.501696E+02 +7.220173E+00 -1.428056E+01 +7.220173E+00 +3.275402E+02 
 +4.915238E+02 -1.454509E+01 +7.099698E+00 -1.454509E+01 +8.656845E+02 +7.557505E+00 +7.099698E+00 +7.557505E+00 +3.446859E+02 
 +4.817962E+02 -9.779956E+00 +2.930083E+00 -9.779956E+00 +8.431472E+02 -3.418461E+00 +2.930083E+00 -3.418461E+00 +3.344436E+02 
 +4.912781E+02 -1.414711E+01 +8.150973E+00 -1.414711E+01 +8.341809E+02 -1.976151E+01 +8.150973E+00 -1.976151E+01 +3.484028E+02 
 +4.903671E+02 -9.521068E+00 +2.182629E+01 -9.521068E+00 +8.272665E+02 -2.193961E+01 +2.182629E+01 -2.193961E+01 +3.556678E+02 
 +4.981387E+02 -7.437523E+00 +2.442844E+01 -7.437523E+00 +8.497929E+02 -7.934200E+00 +2.442844E+01 -7.934200E+00 +3.595988E+02 
 +4.832142E+02 -6.227187E+00 +3.030011E+01 -6.227187E+00 +8.653600E+02 +1.273312E+01 +3.030011E+01 +1.273312E+01 +3.304586E+02 
 +4.983430E+02 +5.794789E+00 +3.139515E+01 +5.794789E+00 +8.686186E+02 +2.097274E+01 +3.139515E+01 +2.097274E+01 +3.345226E+02 
 +5.138409E+02 +1.723878E+01 +3.816291E+00 +1.723878E+01 +8.728374E+02 +1.772225E+01 +3.816291E+00 +1.772225E+01 +3.601746E+02 
 +4.902980E+02 +1.032877E+01 +2.853097E+01 +1.032877E+01 +8.704973E+02 +1.328064E+01 +2.853097E+01 +1.328064E+01 +3.612304E+02 
 +4.785235E+02 +4.121149E+00 +4.134023E+00 +4.121149E+00 +8.695171E+02 +1.348281E+01 +4.134023E+00 +1.348281E+01 +3.659508E+02 
 +4.773293E+02 +6.606823E-01 +3.028859E+00 +6.606823E-01 +8.708525E+02 +8.302172E+00 +3.028859E+00 +8.302172E+00 +3.673604E+02 
 +4.671972E+02 -4.552716E+00 -1.691449E+01 -4.552716E+00 +8.633661E+02 -2.455869E+00 -1.691449E+01 -2.455869E+00 +3.668186E+02 
 +4.849304E+02 -1.986289E+00 -1.071645E+01 -1.986289E+00 +8.731369E+02 -1.238636E+01 -1.071645E+01 -1.238636E+01 +3.455350E+02 
 +4.891208E+02 +2.397463E+00 -5.578172E-01 +2.397463E+00 +8.691687E+02 -1.923205E+01 -5.578172E-01 -1.923205E+01 +3.351006E+02 
 +4.791995E+02 +1.053454E+01 -1.516218E+00 +1.053454E+01 +8.500282E+02 -2.012920E+01 -1.516218E+00 -2.012920E+01 +3.755505E+02 
 +4.867389E+02 +1.387887E+01 +6.778254E+00 +1.387887E+01 +8.541574E+02 -1.710629E+01 +6.778254E+00 -1.710629E+01 +4.075539E+02 
 +4.742067E+02 +7.456909E+00 +6.443480E+00 +7.456909E+00 +8.349115E+02 -6.376235E+00 +6.443480E+00 -6.376235E+00 +3.903020E+02 
 +4.590134E+02 -3.430061E+00 +1.622001E+01 -3.430061E+00 +8.128549E+02 +1.380965E+00 +1.622001E+01 +1.380965E+00 +3.595723E+02 
 +4.667812E+02 -7.438857E+00 +1.922363E+01 -7.438857E+00 +8.339146E+02 +2.713814E+00 +1.922363E+01 +2.713814E+00 +3.457785E+02 
 +4.735700E+02 -1.037318E+01 +2.977634E+00 -1.037318E+01 +8.581967E+02 +7.265376E+00 +2.977634E+00 +7.265376E+00 +3.337960E+02 
 +4.693731E+02 -5.604831E+00 -7.369973E+00 -5.604831E+00 +8.608645E+02 +7.325506E+00 -7.369973E+00 +7.325506E+00 +3.381089E+02 
 +4.890992E+02 -4.758168E+00 +6.523895E+00 -4.758168E+00 +8.644407E+02 +1.264078E+01 +6.523895E+00 +1.264078E+01 +3.472374E+02 
 +4.943067E+02 -2.813594E+00 +4.918552E+00 -2.813594E+00 +8.579786E+02 +2.153820E-01 +4.918552E+00 +2.153820E-01 +3.549986E+02 
 +5.096861E+02 -3.915906E-01 +3.014658E+01 -3.915906E-01 +8.624977E+02 -1.270982E+01 +3.014658E+01 -1.270982E+01 +3.603354E+02 
 +5.114292E+02 +7.478443E+00 +3.815342E+01 +7.478443E+00 +8.834377E+02 -9.761130E+00 +3.815342E+01 -9.761130E+00 +3.642644E+02 
 +5.124250E+02 +9.057162E+00 +3.336238E+01 +9.057162E+00 +8.996855E+02 +3.177270E+00 +3.336238E+01 +3.177270E+00 +3.670759E+02 
 +4.999061E+02 +6.699808E+00 +4.205996E+01 +6.699808E+00 +8.895823E+02 +1.720139E+01 +4.205996E+01 +1.720139E+01 +3.428842E+02 
 +5.008374E+02 +6.050163E+00 +4.178165E+01 +6.050163E+00 +8.737503E+02 +1.532249E+01 +4.178165E+01 +1.532249E+01 +3.404413E+02 
 +5.299418E+02 +2.105019E+01 +8.381709E+00 +2.105019E+01 +8.797204E+02 +9.514374E+00 +8.381709E+00 +9.514374E+00 +3.758970E+02 
 +4.903669E+02 +6.539236E+00 +2.129876E+01 +6.539236E+00 +8.625200E+02 +8.714466E+00 +2.129876E+01 +8.714466E+00 +3.764968E+02 
 +4.790733E+02 +7.833546E-01 +5.739643E+00 +7.833546E-01 +8.652631E+02 +9.140897E+00 +5.739643E+00 +9.140897E+00 +3.719555E+02 
 +4.745896E+02 -3.151539E+00 +3.498279E+00 -3.151539E+00 +8.690607E+02 +9.024397E+00 +3.498279E+00 +9.024397E+00 +3.713596E+02 
 +4.696456E+02 -6.739041E+00 -1.095029E+01 -6.739041E+00 +8.666603E+02 +8.706028E-01 -1.095029E+01 +8.706028E-01 +3.625179E+02 
 +4.896971E+02 -2.361777E+00 +1.997940E+00 -2.361777E+00 +8.771542E+02 -7.334253E+00 +1.997940E+00 -7.334253E+00 +3.363758E+02 
 +4.746968E+02 -8.641700E+00 +5.273724E+00 -8.641700E+00 +8.703521E+02 -1.429616E+01 +5.273724E+00 -1.429616E+01 +3.205871E+02 
 +4.874568E+02 -2.950588E+00 +2.692111E+00 -2.950588E+00 +8.701750E+02 -1.622688E+01 +2.692111E+00 -1.622688E+01 +3.592900E+02 
 +4.746445E+02 +8.496238E+00 +1.084173E+00 +8.496238E+00 +8.520097E+02 -1.649318E+01 +1.084173E+00 -1.649318E+01 +3.766723E+02 
 +4.734169E+02 -5.731208E+00 +4.194930E+00 -5.731208E+00 +8.359274E+02 -6.252318E+00 +4.194930E+00 -6.252318E+00 +3.720156E+02 
 +4.522581E+02 -6.082726E+00 -4.334224E+00 -6.082726E+00 +8.070447E+02 +7.716122E+00 -4.334224E+00 +7.716122E+00 +3.497395E+02 
 +4.656523E+02 -8.510864E+00 +5.246639E+00 -8.510864E+00 +8.262176E+02 +1.112529E+01 +5.246639E+00 +1.112529E+01 +3.360745E+02 
 +4.888556E+02 -1.129621E+01 -1.107867E+00 -1.129621E+01 +8.498465E+02 -3.258277E+00 -1.107867E+00 -3.258277E+00 +3.404163E+02 
 +4.785041E+02 -1.286104E+01 +1.852106E+00 -1.286104E+01 +8.299800E+02 +1.988223E+00 +1.852106E+00 +1.988223E+00 +3.500580E+02 
 +4.848306E+02 -7.980209E+00 +8.505002E+00 -7.980209E+00 +8.308949E+02 +2.893324E+00 +8.505002E+00 +2.893324E+00 +3.617567E+02 
 +4.978503E+02 -4.310839E+00 +4.404374E+00 -4.310839E+00 +8.416868E+02 +5.482494E-01 +4.404374E+00 +5.482494E-01 +3.812148E+02 
 +4.996651E+02 +4.879056E+00 +4.077615E+01 +4.879056E+00 +8.583641E+02 -2.628772E+00 +4.077615E+01 -2.628772E+00 +3.747003E+02 
 +4.967962E+02 +7.479519E+00 +4.682642E+01 +7.479519E+00 +8.769368E+02 +2.670686E-01 +4.682642E+01 +2.670686E-01 +3.655756E+02 
 +5.030403E+02 +7.749767E+00 +3.534031E+01 +7.749767E+00 +8.873706E+02 +8.239913E+00 +3.534031E+01 +8.239913E+00 +3.722122E+02 
 +5.181369E+02 +8.010311E+00 +3.786057E+01 +8.010311E+00 +8.968749E+02 +1.261350E+01 +3.786057E+01 +1.261350E+01 +3.784222E+02 
 +5.123610E+02 +3.622224E+00 +3.950960E+01 +3.622224E+00 +8.922773E+02 +5.169735E+00 +3.950960E+01 +5.169735E+00 +3.674531E+02 
 +5.079355E+02 +1.793632E+01 +2.858774E+01 +1.793632E+01 +8.738717E+02 +3.804552E-02 +2.858774E+01 +3.804552E-02 +3.571347E+02 
 +4.806688E+02 +9.116523E+00 +1.212278E+01 +9.116523E+00 +8.542620E+02 +5.918719E+00 +1.212278E+01 +5.918719E+00 +3.617584E+02 
 +4.834426E+02 +2.938881E+00 +6.532033E+00 +2.938881E+00 +8.656071E+02 +9.538864E+00 +6.532033E+00 +9.538864E+00 +3.744102E+02 
 +4.735980E+02 -2.678389E+00 +1.672421E+00 -2.678389E+00 +8.649731E+02 +6.063063E+00 +1.672421E+00 +6.063063E+00 +3.695331E+02 
 +4.661271E+02 -6.838398E+00 -1.084814E+01 -6.838398E+00 +8.637978E+02 +1.940696E+00 -1.084814E+01 +1.940696E+00 +3.513321E+02 
 +4.938573E+02 -3.206300E+00 -6.118400E-01 -3.206300E+00 +8.816861E+02 -3.741548E+00 -6.118400E-01 -3.741548E+00 +3.605197E+02 
 +4.664896E+02 -1.207656E+01 +1.937481E+00 -1.207656E+01 +8.649762E+02 -8.992165E+00 +1.937481E+00 -8.992165E+00 +3.556519E+02 
 +4.942310E+02 -1.040345E+01 -8.987379E+00 -1.040345E+01 +8.822608E+02 -8.669590E+00 -8.987379E+00 -8.669590E+00 +3.661043E+02 
 +4.695772E+02 -2.463446E+00 -2.153293E+01 -2.463446E+00 +8.562958E+02 -1.085622E+01 -2.153293E+01 -1.085622E+01 +3.631787E+02 
 +4.990027E+02 -1.183577E+01 -1.343191E+01 -1.183577E+01 +8.517976E+02 -6.364334E+00 -1.343191E+01 -6.364334E+00 +3.721482E+02 
 +4.591001E+02 +8.157301E-01 -3.029315E+01 +8.157301E-01 +8.393917E+02 -1.381012E+00 -3.029315E+01 -1.381012E+00 +3.458605E+02 
 +4.698936E+02 -7.556828E-02 -1.322785E+01 -7.556828E-02 +8.553106E+02 -4.029330E+00 -1.322785E+01 -4.029330E+00 +3.377213E+02 
 +5.164015E+02 -1.039212E+01 -1.782716E-01 -1.039212E+01 +8.526006E+02 -9.878001E+00 -1.782716E-01 -9.878001E+00 +3.597653E+02 
 +4.964231E+02 -5.272202E+00 -1.392784E+00 -5.272202E+00 +8.344716E+02 -1.644333E+00 -1.392784E+00 -1.644333E+00 +3.673139E+02 
 +4.877240E+02 -5.164065E+00 +1.117656E+01 -5.164065E+00 +8.298463E+02 -2.319996E+00 +1.117656E+01 -2.319996E+00 +3.741046E+02 
 +4.906711E+02 -8.496988E+00 +6.518334E+00 -8.496988E+00 +8.473904E+02 +1.932829E+00 +6.518334E+00 +1.932829E+00 +3.818044E+02 
 +4.865201E+02 -1.140511E+00 +3.108733E+01 -1.140511E+00 +8.659167E+02 +5.822098E+00 +3.108733E+01 +5.822098E+00 +3.786981E+02 
 +5.012505E+02 +2.587843E+00 +4.337538E+01 +2.587843E+00 +8.814193E+02 +4.759826E+00 +4.337538E+01 +4.759826E+00 +3.770175E+02 
 +5.102022E+02 +2.962288E+00 +3.399887E+01 +2.962288E+00 +8.896054E+02 +5.999354E+00 +3.399887E+01 +5.999354E+00 +3.827146E+02 
 +5.260485E+02 +8.832334E-01 +3.379850E+01 +8.832334E-01 +8.987418E+02 +4.210171E+00 +3.379850E+01 +4.210171E+00 +3.936519E+02 
 +5.222357E+02 -7.533107E-01 +3.154148E+01 -7.533107E-01 +9.018089E+02 -4.536745E-01 +3.154148E+01 -4.536745E-01 +3.783424E+02 
 +4.985590E+02 +7.423495E+00 +4.630948E+01 +7.423495E+00 +8.856131E+02 -1.914748E+00 +4.630948E+01 -1.914748E+00 +3.420740E+02 
 +4.768246E+02 +9.148334E+00 +5.110926E+00 +9.148334E+00 +8.596901E+02 +8.652997E-01 +5.110926E+00 +8.652997E-01 +3.361394E+02 
 +4.779659E+02 +3.525127E+00 +1.406965E+00 +3.525127E+00 +8.579222E+02 +5.054713E+00 +1.406965E+00 +5.054713E+00 +3.605021E+02 
 +4.737657E+02 +9.665386E-01 -4.898115E+00 +9.665386E-01 +8.654631E+02 -5.365819E-01 -4.898115E+00 -5.365819E-01 +3.627654E+02 
 +4.595074E+02 -8.103193E+00 +9.095367E-01 -8.103193E+00 +8.650282E+02 -2.128110E+00 +9.095367E-01 -2.128110E+00 +3.493842E+02 
 +4.817275E+02 -1.208052E+01 -8.944426E+00 -1.208052E+01 +8.733649E+02 +4.227592E+00 -8.944426E+00 +4.227592E+00 +3.777811E+02 
 +4.792852E+02 -1.556687E+01 -2.273120E+00 -1.556687E+01 +8.673439E+02 +2.362556E+00 -2.273120E+00 +2.362556E+00 +3.837249E+02 
 +4.826221E+02 -6.011845E+00 -2.469715E+01 -6.011845E+00 +8.636922E+02 -1.933621E+00 -2.469715E+01 -1.933621E+00 +3.697834E+02 
 +4.882938E+02 -3.272724E-01 -2.904262E+01 -3.272724E-01 +8.598250E+02 -3.421245E+00 -2.904262E+01 -3.421245E+00 +3.744196E+02 
 +4.978784E+02 -5.655128E+00 -2.903133E+01 -5.655128E+00 +8.706832E+02 -3.707682E+00 -2.903133E+01 -3.707682E+00 +3.724639E+02 
 +4.694492E+02 -2.734332E+00 -3.946993E+01 -2.734332E+00 +8.553335E+02 -2.517494E+00 -3.946993E+01 -2.517494E+00 +3.480509E+02 
 +4.637353E+02 -3.186049E+00 -1.861294E+01 -3.186049E+00 +8.390047E+02 -7.822392E+00 -1.861294E+01 -7.822392E+00 +3.451226E+02 
 +5.254811E+02 -1.314979E+01 +8.535586E+00 -1.314979E+01 +8.466352E+02 -1.049454E+01 +8.535586E+00 -1.049454E+01 +3.833714E+02 
 +5.146480E+02 -8.689896E+00 +5.265355E+00 -8.689896E+00 +8.473172E+02 -3.991537E+00 +5.265355E+00 -3.991537E+00 +3.738740E+02 
 +4.890630E+02 -4.457945E+00 +1.773322E+01 -4.457945E+00 +8.625638E+02 -5.389210E+00 +1.773322E+01 -5.389210E+00 +3.703912E+02 
 +4.904921E+02 -2.617587E+00 +1.655533E+01 -2.617587E+00 +8.896314E+02 +1.963878E+00 +1.655533E+01 +1.963878E+00 +3.815290E+02 
 +4.887073E+02 +8.570109E-01 +1.982940E+01 +8.570109E-01 +8.880884E+02 +9.562120E+00 +1.982940E+01 +9.562120E+00 +3.841879E+02 
 +5.075163E+02 +2.137534E+00 +2.949963E+01 +2.137534E+00 +8.863946E+02 +5.984955E+00 +2.949963E+01 +5.984955E+00 +3.845625E+02 
 +5.192260E+02 +2.473134E+00 +3.143208E+01 +2.473134E+00 +8.913031E+02 +1.708881E+00 +3.143208E+01 +1.708881E+00 +3.925813E+02 
 +5.286885E+02 +1.016183E+00 +2.854688E+01 +1.016183E+00 +8.990314E+02 -2.550896E+00 +2.854688E+01 -2.550896E+00 +4.025429E+02 
 +5.197862E+02 +2.462008E+00 +3.103145E+01 +2.462008E+00 +8.912436E+02 -5.304356E+00 +3.103145E+01 -5.304356E+00 +3.776189E+02 
 +4.903810E+02 +5.464785E+00 +4.574714E+01 +5.464785E+00 +8.713685E+02 -1.591802E+01 +4.574714E+01 -1.591802E+01 +3.351675E+02 
 +4.695413E+02 +5.467351E+00 +1.236920E+01 +5.467351E+00 +8.586952E+02 -2.104673E+01 +1.236920E+01 -2.104673E+01 +3.207824E+02 
 +4.685747E+02 +3.246120E-01 +1.622370E+00 +3.246120E-01 +8.597998E+02 -5.294276E+00 +1.622370E+00 -5.294276E+00 +3.377778E+02 
 +4.595703E+02 -4.037375E+00 -3.712709E+00 -4.037375E+00 +8.544858E+02 +1.138074E+01 -3.712709E+00 +1.138074E+01 +3.473148E+02 
 +4.569105E+02 -1.278896E+01 +3.688759E+00 -1.278896E+01 +8.560847E+02 +1.577480E+01 +3.688759E+00 +1.577480E+01 +3.554286E+02 
 +4.780607E+02 -1.220267E+01 -1.687627E+01 -1.220267E+01 +8.692624E+02 +1.474339E+01 -1.687627E+01 +1.474339E+01 +3.730647E+02 
 +4.952693E+02 -8.689222E+00 -9.471976E+00 -8.689222E+00 +8.704601E+02 +1.032678E+01 -9.471976E+00 +1.032678E+01 +3.803141E+02 
 +4.914655E+02 -1.514909E+00 -2.224584E+01 -1.514909E+00 +8.603232E+02 +4.758503E+00 -2.224584E+01 +4.758503E+00 +3.786031E+02 
 +4.915734E+02 +1.173433E+00 -1.882021E+01 +1.173433E+00 +8.584660E+02 +1.669866E+00 -1.882021E+01 +1.669866E+00 +3.822548E+02 
 +4.743865E+02 +8.337292E-01 -2.658414E+01 +8.337292E-01 +8.516800E+02 -2.452216E+00 -2.658414E+01 -2.452216E+00 +3.713754E+02 
 +4.726025E+02 +5.130138E+00 -2.850573E+01 +5.130138E+00 +8.464195E+02 -1.132375E+00 -2.850573E+01 -1.132375E+00 +3.614234E+02 
 +4.780864E+02 +1.306114E+00 -1.983741E+01 +1.306114E+00 +8.346426E+02 -9.306096E+00 -1.983741E+01 -9.306096E+00 +3.689093E+02 
 +5.435773E+02 -4.205447E+00 +3.953357E+00 -4.205447E+00 +8.678353E+02 -4.450520E+00 +3.953357E+00 -4.450520E+00 +3.992949E+02 
 +5.291150E+02 -5.630848E+00 +3.174403E+00 -5.630848E+00 +8.635317E+02 -3.055627E-01 +3.174403E+00 -3.055627E-01 +3.781741E+02 
 +5.109578E+02 -5.986667E+00 +1.012007E+01 -5.986667E+00 +8.895791E+02 -3.398606E+00 +1.012007E+01 -3.398606E+00 +3.775979E+02 
 +4.986816E+02 -5.612814E+00 +1.720431E+01 -5.612814E+00 +9.021134E+02 -4.987516E+00 +1.720431E+01 -4.987516E+00 +3.755855E+02 
 +4.948912E+02 -8.341806E-01 +1.680312E+01 -8.341806E-01 +8.996437E+02 -1.516552E-01 +1.680312E+01 -1.516552E-01 +3.915461E+02 
 +5.018145E+02 +2.968341E+00 +6.391329E+00 +2.968341E+00 +8.956250E+02 +2.702065E+00 +6.391329E+00 +2.702065E+00 +4.097582E+02 
 +5.256655E+02 +1.949181E+00 +7.419552E+00 +1.949181E+00 +9.001732E+02 +9.208432E-01 +7.419552E+00 +9.208432E-01 +4.294381E+02 
 +5.500343E+02 -1.068848E+00 -3.756086E+01 -1.068848E+00 +9.032343E+02 -5.560651E+00 -3.756086E+01 -5.560651E+00 +4.112067E+02 
 +5.168206E+02 +2.080402E+00 -3.217842E+01 +2.080402E+00 +8.795557E+02 -1.280777E+01 -3.217842E+01 -1.280777E+01 +3.680439E+02 
 +4.881449E+02 +4.803748E+00 -1.209601E+01 +4.803748E+00 +8.673050E+02 -1.579260E+01 -1.209601E+01 -1.579260E+01 +3.554675E+02 
 +4.663891E+02 +3.681787E+00 +1.710013E+01 +3.681787E+00 +8.590290E+02 -1.352781E+01 +1.710013E+01 -1.352781E+01 +3.309264E+02 
 +4.697595E+02 +6.840730E-01 +1.807315E+01 +6.840730E-01 +8.679976E+02 -6.623792E+00 +1.807315E+01 -6.623792E+00 +3.377385E+02 
 +4.676947E+02 -1.885716E+00 +1.126556E+01 -1.885716E+00 +8.743214E+02 +8.822308E+00 +1.126556E+01 +8.822308E+00 +3.376612E+02 
 +4.598295E+02 -8.218546E+00 +1.383893E+01 -8.218546E+00 +8.777470E+02 +1.965488E+01 +1.383893E+01 +1.965488E+01 +3.404460E+02 
 +4.763192E+02 -9.544589E+00 -9.432115E+00 -9.544589E+00 +8.808000E+02 +1.547675E+01 -9.432115E+00 +1.547675E+01 +3.638716E+02 
 +4.855245E+02 -4.932219E+00 +1.610436E+00 -4.932219E+00 +8.708915E+02 +1.022245E+01 +1.610436E+00 +1.022245E+01 +3.741408E+02 
 +4.875168E+02 +1.543733E+00 -1.016388E+01 +1.543733E+00 +8.653333E+02 +6.298836E+00 -1.016388E+01 +6.298836E+00 +3.824075E+02 
 +4.843381E+02 +4.665957E+00 -1.000458E+01 +4.665957E+00 +8.585831E+02 +1.366303E+00 -1.000458E+01 +1.366303E+00 +3.793042E+02 
 +4.766904E+02 +9.141143E+00 -1.159165E+01 +9.141143E+00 +8.495559E+02 -3.884486E+00 -1.159165E+01 -3.884486E+00 +3.781544E+02 
 +4.740938E+02 +1.056345E+01 -1.810845E+01 +1.056345E+01 +8.361241E+02 -4.856229E+00 -1.810845E+01 -4.856229E+00 +3.716996E+02 
 +5.064352E+02 +7.609518E+00 -1.741249E+01 +7.609518E+00 +8.531449E+02 -6.197226E+00 -1.741249E+01 -6.197226E+00 +3.924238E+02 
 +5.371058E+02 -1.237321E+01 -8.753979E-01 -1.237321E+01 +8.725518E+02 +3.407044E+00 -8.753979E-01 +3.407044E+00 +4.006048E+02 
 +5.126108E+02 -2.283916E+00 +3.175675E+00 -2.283916E+00 +8.872726E+02 -2.057238E+00 +3.175675E+00 -2.057238E+00 +3.796612E+02 
 +5.152579E+02 -1.673514E-01 +1.224107E+00 -1.673514E-01 +9.077688E+02 -7.399047E+00 +1.224107E+00 -7.399047E+00 +3.839982E+02 
 +5.108507E+02 +1.076649E+00 +4.951025E+00 +1.076649E+00 +9.045464E+02 -8.207119E+00 +4.951025E+00 -8.207119E+00 +3.793869E+02 
 +5.059346E+02 +3.168094E+00 +1.494325E+00 +3.168094E+00 +9.032265E+02 -4.832754E+00 +1.494325E+00 -4.832754E+00 +3.863495E+02 
 +5.004568E+02 +5.257909E+00 -8.236124E+00 +5.257909E+00 +8.995496E+02 -5.242304E+00 -8.236124E+00 -5.242304E+00 +3.957497E+02 
 +5.055843E+02 +5.752573E+00 -1.371494E+01 +5.752573E+00 +8.967845E+02 -1.072850E+01 -1.371494E+01 -1.072850E+01 +4.134388E+02 
 +5.406187E+02 +2.340927E+00 -5.205209E+01 +2.340927E+00 +9.004997E+02 -9.814505E+00 -5.205209E+01 -9.814505E+00 +4.093202E+02 
 +5.093287E+02 -2.045000E+00 -3.341653E+01 -2.045000E+00 +8.726257E+02 -2.122685E+00 -3.341653E+01 -2.122685E+00 +3.670863E+02 
 +4.822174E+02 -2.983014E+00 -1.025592E+01 -2.983014E+00 +8.620154E+02 -7.742610E+00 -1.025592E+01 -7.742610E+00 +3.486026E+02 
 +4.686281E+02 -2.673193E+00 +2.798988E+01 -2.673193E+00 +8.631524E+02 -8.574815E+00 +2.798988E+01 -8.574815E+00 +3.331084E+02 
 +4.729043E+02 -4.548859E+00 +2.070696E+01 -4.548859E+00 +8.736402E+02 -5.117805E-01 +2.070696E+01 -5.117805E-01 +3.402924E+02 
 +4.720227E+02 -3.603892E+00 +2.277077E+01 -3.603892E+00 +8.759615E+02 +3.808211E+00 +2.277077E+01 +3.808211E+00 +3.480094E+02 
 +5.050516E+02 -7.597480E+00 +8.432209E+00 -7.597480E+00 +8.899322E+02 +1.839694E+00 +8.432209E+00 +1.839694E+00 +3.687288E+02 
 +5.077065E+02 -5.902663E+00 -2.485721E+00 -5.902663E+00 +8.818409E+02 +5.804347E+00 -2.485721E+00 +5.804347E+00 +3.729536E+02 
 +4.827001E+02 -1.421363E+00 +4.266219E+00 -1.421363E+00 +8.655872E+02 +1.253546E+01 +4.266219E+00 +1.253546E+01 +3.727960E+02 
 +4.798107E+02 -4.723560E-01 -2.725887E+00 -4.723560E-01 +8.609207E+02 +8.725961E+00 -2.725887E+00 +8.725961E+00 +3.829292E+02 
 +4.814874E+02 +2.597783E+00 -8.359610E+00 +2.597783E+00 +8.522040E+02 +4.927497E+00 -8.359610E+00 +4.927497E+00 +3.883303E+02 
 +4.795877E+02 +6.993577E+00 -1.277487E+01 +6.993577E+00 +8.426665E+02 +3.009560E+00 -1.277487E+01 +3.009560E+00 +3.912742E+02 
 +4.868625E+02 +5.197048E+00 -1.741696E+01 +5.197048E+00 +8.453872E+02 +2.009299E+00 -1.741696E+01 +2.009299E+00 +3.929755E+02 
 +4.884107E+02 +1.918117E+00 -1.949341E+01 +1.918117E+00 +8.429377E+02 +4.335733E+00 -1.949341E+01 +4.335733E+00 +3.944188E+02 
 +5.166812E+02 -6.760263E+00 -3.446239E+00 -6.760263E+00 +8.912122E+02 +3.338350E-01 -3.446239E+00 +3.338350E-01 +3.899074E+02 
 +5.084870E+02 +5.529533E-01 -4.632622E+00 +5.529533E-01 +8.978315E+02 -5.484151E+00 -4.632622E+00 -5.484151E+00 +3.787009E+02 
 +5.222247E+02 -5.941865E-01 -1.345733E+01 -5.941865E-01 +9.056411E+02 -7.576889E+00 -1.345733E+01 -7.576889E+00 +3.875307E+02 
 +5.197212E+02 -1.232253E+00 -7.642175E+00 -1.232253E+00 +9.059516E+02 -6.715179E+00 -7.642175E+00 -6.715179E+00 +3.772405E+02 
 +5.051473E+02 -2.493427E+00 -2.038130E+01 -2.493427E+00 +9.005504E+02 -1.000322E+01 -2.038130E+01 -1.000322E+01 +3.711737E+02 
 +5.029743E+02 -1.933593E+00 -2.830265E+01 -1.933593E+00 +9.022210E+02 -1.909881E+01 -2.830265E+01 -1.909881E+01 +3.867749E+02 
 +5.027885E+02 -5.744457E-01 -3.672417E+01 -5.744457E-01 +8.982846E+02 -2.457249E+01 -3.672417E+01 -2.457249E+01 +3.988130E+02 
 +5.128045E+02 -8.145470E-01 -4.453147E+01 -8.145470E-01 +8.936999E+02 -1.606793E+01 -4.453147E+01 -1.606793E+01 +3.921919E+02 
 +4.845166E+02 -2.197676E+00 -2.971738E+01 -2.197676E+00 +8.658365E+02 +1.661311E+00 -2.971738E+01 +1.661311E+00 +3.544406E+02 
 +4.704060E+02 -1.075793E+00 -3.422773E+01 -1.075793E+00 +8.552238E+02 +3.339056E+00 -3.422773E+01 +3.339056E+00 +3.408293E+02 
 +4.834594E+02 +2.027911E-01 +1.858280E+01 +2.027911E-01 +8.688769E+02 -5.204083E+00 +1.858280E+01 -5.204083E+00 +3.518784E+02 
 +4.831185E+02 -2.391437E-01 +1.399812E+01 -2.391437E-01 +8.800390E+02 -6.832024E+00 +1.399812E+01 -6.832024E+00 +3.507343E+02 
 +4.836684E+02 -6.770942E+00 +1.858170E+01 -6.770942E+00 +8.705248E+02 -4.337647E+00 +1.858170E+01 -4.337647E+00 +3.614744E+02 
 +5.179186E+02 -1.664887E+01 -1.532364E+00 -1.664887E+01 +8.551920E+02 +8.297047E-02 -1.532364E+00 +8.297047E-02 +3.863472E+02 
 +5.169934E+02 -1.524225E+01 +1.651605E+00 -1.524225E+01 +8.508643E+02 +5.221935E+00 +1.651605E+00 +5.221935E+00 +3.794695E+02 
 +4.923336E+02 -6.257352E+00 +3.722872E+00 -6.257352E+00 +8.648551E+02 +7.530965E+00 +3.722872E+00 +7.530965E+00 +3.803211E+02 
 +4.846550E+02 -3.921433E+00 +6.220355E+00 -3.921433E+00 +8.661285E+02 +9.107901E+00 +6.220355E+00 +9.107901E+00 +3.902718E+02 
 +4.744785E+02 +1.511915E+00 -5.035570E+00 +1.511915E+00 +8.492486E+02 +7.046962E+00 -5.035570E+00 +7.046962E+00 +3.918316E+02 
 +4.761958E+02 +3.024331E+00 -1.111514E+01 +3.024331E+00 +8.465785E+02 +2.434780E+00 -1.111514E+01 +2.434780E+00 +3.951462E+02 
 +4.805905E+02 -1.011763E-01 -1.377516E+01 -1.011763E-01 +8.479579E+02 +6.938097E-01 -1.377516E+01 +6.938097E-01 +3.954734E+02 
 +4.938480E+02 -2.745192E+00 -3.027664E+00 -2.745192E+00 +8.592172E+02 +2.421921E+00 -3.027664E+00 +2.421921E+00 +3.926700E+02 
 +4.891567E+02 -6.812023E+00 -9.998897E+00 -6.812023E+00 +8.776640E+02 -1.094737E+01 -9.998897E+00 -1.094737E+01 +3.695497E+02 
 +5.012115E+02 -4.109719E+00 -2.216554E+01 -4.109719E+00 +8.961195E+02 -4.159206E+00 -2.216554E+01 -4.159206E+00 +3.700291E+02 
 +5.203703E+02 -8.668841E+00 -2.352915E+01 -8.668841E+00 +9.075771E+02 -3.094176E+00 -2.352915E+01 -3.094176E+00 +3.830898E+02 
 +5.192147E+02 -1.188449E+01 -1.500886E+01 -1.188449E+01 +9.030492E+02 -6.718600E+00 -1.500886E+01 -6.718600E+00 +3.729731E+02 
 +5.107308E+02 -1.193053E+01 -2.853727E+01 -1.193053E+01 +8.995742E+02 -1.457753E+01 -2.853727E+01 -1.457753E+01 +3.730900E+02 
 +5.126512E+02 -1.132712E+01 -3.267209E+01 -1.132712E+01 +8.984175E+02 -2.092980E+01 -3.267209E+01 -2.092980E+01 +3.926289E+02 
 +5.092586E+02 -7.543382E+00 -4.095348E+01 -7.543382E+00 +8.910298E+02 -2.402407E+01 -4.095348E+01 -2.402407E+01 +4.057829E+02 
 +4.896634E+02 -5.187870E+00 -2.984360E+01 -5.187870E+00 +8.762534E+02 -1.975309E+01 -2.984360E+01 -1.975309E+01 +3.968705E+02 
 +4.692066E+02 -2.476390E+00 -3.382986E+01 -2.476390E+00 +8.607852E+02 -1.315442E+01 -3.382986E+01 -1.315442E+01 +3.662619E+02 
 +4.504538E+02 -3.625384E+00 -4.630779E+01 -3.625384E+00 +8.364560E+02 +8.408106E+00 -4.630779E+01 +8.408106E+00 +3.469162E+02 
 +4.620276E+02 -5.216427E+00 -4.727676E+00 -5.216427E+00 +8.225590E+02 +2.140775E+01 -4.727676E+00 +2.140775E+01 +3.567727E+02 
 +4.750333E+02 -1.286176E+00 +7.632087E-01 -1.286176E+00 +8.230948E+02 +1.127595E+01 +7.632087E-01 +1.127595E+01 +3.618932E+02 
 +4.908869E+02 -1.374583E+01 +4.533623E+00 -1.374583E+01 +8.260216E+02 +2.186354E+00 +4.533623E+00 +2.186354E+00 +3.672142E+02 
 +5.055367E+02 -1.645218E+01 -5.516895E-01 -1.645218E+01 +8.386322E+02 +9.488773E-01 -5.516895E-01 +9.488773E-01 +3.814305E+02 
 +5.133771E+02 -1.694808E+01 +4.635738E+00 -1.694808E+01 +8.496483E+02 +5.675143E+00 +4.635738E+00 +5.675143E+00 +3.841056E+02 
 +5.002445E+02 -1.704678E+01 +4.105063E+00 -1.704678E+01 +8.365708E+02 +8.898260E+00 +4.105063E+00 +8.898260E+00 +3.783840E+02 
 +4.891027E+02 -1.748766E+01 +7.043060E+00 -1.748766E+01 +8.354522E+02 +1.197015E+01 +7.043060E+00 +1.197015E+01 +3.821823E+02 
 +4.568461E+02 -3.993250E+00 -4.953977E+00 -3.993250E+00 +8.340098E+02 +5.818665E+00 -4.953977E+00 +5.818665E+00 +3.797250E+02 
 +4.676167E+02 -1.197477E+00 -6.410615E+00 -1.197477E+00 +8.514705E+02 -1.598129E+00 -6.410615E+00 -1.598129E+00 +3.902151E+02 
 +4.659057E+02 -4.914769E+00 -1.247324E+01 -4.914769E+00 +8.496524E+02 -7.105299E+00 -1.247324E+01 -7.105299E+00 +3.857588E+02 
 +4.845610E+02 -8.478918E+00 +2.396109E-01 -8.478918E+00 +8.617807E+02 -1.411922E+01 +2.396109E-01 -1.411922E+01 +3.810456E+02 
 +4.777804E+02 -5.527534E+00 -1.509799E+01 -5.527534E+00 +8.672054E+02 -1.905663E+01 -1.509799E+01 -1.905663E+01 +3.654110E+02 
 +5.038556E+02 -1.638747E+00 -3.526405E+01 -1.638747E+00 +8.904091E+02 -1.433575E+01 -3.526405E+01 -1.433575E+01 +3.728607E+02 
 +5.161269E+02 -2.742242E+00 -2.825546E+01 -2.742242E+00 +9.047694E+02 -9.134998E+00 -2.825546E+01 -9.134998E+00 +3.793432E+02 
 +5.234739E+02 -2.704295E+00 -2.338422E+01 -2.704295E+00 +9.067886E+02 -1.006556E+01 -2.338422E+01 -1.006556E+01 +3.767664E+02 
 +5.267382E+02 -2.462909E+00 -2.280045E+01 -2.462909E+00 +9.024135E+02 -1.073377E+01 -2.280045E+01 -1.073377E+01 +3.784002E+02 
 +5.238041E+02 -3.873365E+00 -3.479367E+01 -3.873365E+00 +8.970396E+02 -1.442048E+01 -3.479367E+01 -1.442048E+01 +3.952253E+02 
 +5.135936E+02 -2.444184E+00 -2.959230E+01 -2.444184E+00 +8.888638E+02 -1.552815E+01 -2.959230E+01 -1.552815E+01 +4.121283E+02 
 +4.744524E+02 -6.248772E-01 -1.993875E+01 -6.248772E-01 +8.660608E+02 -8.511306E+00 -1.993875E+01 -8.511306E+00 +4.018705E+02 
 +4.597337E+02 +5.917018E-01 -3.367243E+01 +5.917018E-01 +8.512657E+02 -8.846119E+00 -3.367243E+01 -8.846119E+00 +3.864058E+02 
 +4.520161E+02 -1.516330E+00 -3.645334E+01 -1.516330E+00 +8.331401E+02 -9.405671E+00 -3.645334E+01 -9.405671E+00 +3.771306E+02 
 +4.496580E+02 +1.009628E+00 -1.525862E+01 +1.009628E+00 +8.147668E+02 -3.534236E+00 -1.525862E+01 -3.534236E+00 +3.810593E+02 
 +4.832684E+02 +3.288935E+00 -2.379039E+00 +3.288935E+00 +8.126066E+02 +9.068214E+00 -2.379039E+00 +9.068214E+00 +3.863322E+02 
 +5.113360E+02 -1.911218E+01 +5.463571E-01 -1.911218E+01 +8.272155E+02 +1.304925E+01 +5.463571E-01 +1.304925E+01 +3.811084E+02 
 +5.086860E+02 -1.932617E+01 +1.497074E+00 -1.932617E+01 +8.415236E+02 +1.115957E+01 +1.497074E+00 +1.115957E+01 +3.806175E+02 
 +5.069531E+02 -1.681891E+01 +4.598216E+00 -1.681891E+01 +8.478484E+02 +9.581717E+00 +4.598216E+00 +9.581717E+00 +3.814848E+02 
 +5.120884E+02 -1.462561E+01 +8.964146E+00 -1.462561E+01 +8.480582E+02 +4.733701E+00 +8.964146E+00 +4.733701E+00 +3.760041E+02 
 +5.112561E+02 -1.761433E+01 +4.089433E+00 -1.761433E+01 +8.507241E+02 +3.456377E+00 +4.089433E+00 +3.456377E+00 +3.752592E+02 
 +4.538012E+02 -6.816292E+00 -1.190657E+01 -6.816292E+00 +8.344193E+02 -1.766568E+00 -1.190657E+01 -1.766568E+00 +3.663507E+02 
 +4.569452E+02 -8.033401E+00 -6.611734E+00 -8.033401E+00 +8.465518E+02 -1.184038E+01 -6.611734E+00 -1.184038E+01 +3.812201E+02 
 +4.525377E+02 -8.936550E+00 -1.386973E+01 -8.936550E+00 +8.465767E+02 -1.533578E+01 -1.386973E+01 -1.533578E+01 +3.742441E+02 
 +4.571146E+02 -8.172265E+00 -1.173215E+01 -8.172265E+00 +8.528823E+02 -1.812703E+01 -1.173215E+01 -1.812703E+01 +3.670175E+02 
 +4.680930E+02 +1.942145E+00 -1.888106E+01 +1.942145E+00 +8.599168E+02 -2.236384E+01 -1.888106E+01 -2.236384E+01 +3.624194E+02 
 +5.089397E+02 +7.065694E+00 -3.285315E+01 +7.065694E+00 +8.743663E+02 -2.523684E+01 -3.285315E+01 -2.523684E+01 +3.785388E+02 
 +5.110082E+02 +4.951546E+00 -2.762975E+01 +4.951546E+00 +8.760887E+02 -1.945371E+01 -2.762975E+01 -1.945371E+01 +3.788488E+02 
 +5.135960E+02 +3.571473E+00 -2.971573E+01 +3.571473E+00 +8.762997E+02 -2.171532E+01 -2.971573E+01 -2.171532E+01 +3.724461E+02 
 +5.267835E+02 +4.167456E+00 -2.120071E+01 +4.167456E+00 +8.805660E+02 -2.477242E+01 -2.120071E+01 -2.477242E+01 +3.672133E+02 
 +5.302774E+02 +3.186747E+00 -3.221938E+01 +3.186747E+00 +8.854853E+02 -1.741053E+01 -3.221938E+01 -1.741053E+01 +3.842026E+02 
 +4.883170E+02 +3.993057E+00 -1.637615E+01 +3.993057E+00 +8.675891E+02 -5.466800E+00 -1.637615E+01 -5.466800E+00 +3.995840E+02 
 +4.602216E+02 +6.596848E+00 -2.354705E+01 +6.596848E+00 +8.580055E+02 +3.031126E+00 -2.354705E+01 +3.031126E+00 +3.931496E+02 
 +4.641268E+02 +5.234455E+00 -2.737452E+01 +5.234455E+00 +8.598507E+02 +2.016471E+00 -2.737452E+01 +2.016471E+00 +3.993156E+02 
 +4.690678E+02 +2.542124E+00 -2.923771E+01 +2.542124E+00 +8.500472E+02 -5.998232E+00 -2.923771E+01 -5.998232E+00 +4.055372E+02 
 +4.585456E+02 +5.857532E+00 -1.768291E+01 +5.857532E+00 +8.318225E+02 -6.692967E+00 -1.768291E+01 -6.692967E+00 +4.018526E+02 
 +4.615516E+02 +6.413477E+00 -1.858531E+00 +6.413477E+00 +8.207755E+02 +3.364458E+00 -1.858531E+00 +3.364458E+00 +3.935035E+02 
 +5.304156E+02 -1.127097E+01 +4.584735E+00 -1.127097E+01 +8.495318E+02 +8.676759E+00 +4.584735E+00 +8.676759E+00 +4.026981E+02 
 +5.191083E+02 -1.261876E+01 +9.383538E-01 -1.261876E+01 +8.467678E+02 +5.538338E+00 +9.383538E-01 +5.538338E+00 +3.938178E+02 
 +5.128037E+02 -1.722185E+01 +1.007915E+00 -1.722185E+01 +8.440128E+02 +2.951113E+00 +1.007915E+00 +2.951113E+00 +3.821871E+02 
 +5.085927E+02 -1.414078E+01 +1.138013E+01 -1.414078E+01 +8.417963E+02 +2.391327E+00 +1.138013E+01 +2.391327E+00 +3.613622E+02 
 +5.054050E+02 -1.340723E+01 +5.476409E+00 -1.340723E+01 +8.532742E+02 +1.553910E-01 +5.476409E+00 +1.553910E-01 +3.548841E+02 
 +4.649787E+02 -1.645381E+00 -1.176537E+01 -1.645381E+00 +8.510970E+02 -6.636661E+00 -1.176537E+01 -6.636661E+00 +3.533192E+02 
 +4.572972E+02 -7.428444E+00 -8.425770E+00 -7.428444E+00 +8.529712E+02 -1.101942E+01 -8.425770E+00 -1.101942E+01 +3.681587E+02 
 +4.426675E+02 -3.402254E+00 -1.648197E+01 -3.402254E+00 +8.438233E+02 -1.325441E+01 -1.648197E+01 -1.325441E+01 +3.670217E+02 
 +4.470130E+02 -2.233408E+00 -1.965735E+01 -2.233408E+00 +8.534007E+02 -1.503678E+01 -1.965735E+01 -1.503678E+01 +3.680778E+02 
 +4.615863E+02 +7.593899E-01 -1.142521E+01 +7.593899E-01 +8.617461E+02 -1.706681E+01 -1.142521E+01 -1.706681E+01 +3.625344E+02 
 +5.138963E+02 +1.583989E+00 -2.615212E+01 +1.583989E+00 +8.815029E+02 -1.790820E+01 -2.615212E+01 -1.790820E+01 +3.843179E+02 
 +5.235418E+02 +2.149397E-01 -3.290624E+01 +2.149397E-01 +8.758771E+02 -2.069801E+01 -3.290624E+01 -2.069801E+01 +3.937973E+02 
 +5.195103E+02 -2.389697E+00 -3.430771E+01 -2.389697E+00 +8.658742E+02 -2.907337E+01 -3.430771E+01 -2.907337E+01 +3.852517E+02 
 +5.361791E+02 +2.466379E+00 -1.959566E+01 +2.466379E+00 +8.674525E+02 -3.173494E+01 -1.959566E+01 -3.173494E+01 +3.680667E+02 
 +5.438010E+02 +4.111962E+00 -1.129086E+01 +4.111962E+00 +8.797095E+02 -1.323066E+01 -1.129086E+01 -1.323066E+01 +3.757123E+02 
 +4.573755E+02 +4.552504E+00 -1.156142E+01 +4.552504E+00 +8.545001E+02 -1.307965E+00 -1.156142E+01 -1.307965E+00 +3.909492E+02 
 +4.591857E+02 +5.408389E+00 -2.121477E+01 +5.408389E+00 +8.608585E+02 +1.818838E+00 -2.121477E+01 +1.818838E+00 +4.045180E+02 
 +4.716630E+02 +8.415913E-01 -2.424824E+01 +8.415913E-01 +8.592707E+02 +7.641102E+00 -2.424824E+01 +7.641102E+00 +4.090152E+02 
 +4.783100E+02 +1.550469E+00 -2.149083E+01 +1.550469E+00 +8.597043E+02 +4.086237E+00 -2.149083E+01 +4.086237E+00 +4.171938E+02 
 +4.720009E+02 +4.430715E+00 -2.072835E+01 +4.430715E+00 +8.545831E+02 -3.478273E+00 -2.072835E+01 -3.478273E+00 +4.135561E+02 
 +4.443414E+02 +6.537016E+00 -1.177157E+01 +6.537016E+00 +8.216073E+02 +8.856011E-01 -1.177157E+01 +8.856011E-01 +3.998406E+02 
 +5.099004E+02 -4.868806E+00 -3.358870E-01 -4.868806E+00 +8.423421E+02 +1.820533E+01 -3.358870E-01 +1.820533E+01 +4.099498E+02 
 +5.118971E+02 -1.423844E+01 -3.444758E+00 -1.423844E+01 +8.382610E+02 +1.714247E+01 -3.444758E+00 +1.714247E+01 +3.806622E+02 
 +4.986056E+02 -2.096160E+01 -1.036107E+00 -2.096160E+01 +8.287626E+02 +6.309149E+00 -1.036107E+00 +6.309149E+00 +3.536982E+02 
 +5.071404E+02 -1.598334E+01 +4.463566E+00 -1.598334E+01 +8.456947E+02 -3.440470E+00 +4.463566E+00 -3.440470E+00 +3.440684E+02 
 +5.074238E+02 -1.454958E+01 +7.382184E+00 -1.454958E+01 +8.685008E+02 -9.875105E+00 +7.382184E+00 -9.875105E+00 +3.390071E+02 
 +4.759725E+02 -7.133966E+00 -4.001066E+00 -7.133966E+00 +8.581739E+02 -3.386515E+00 -4.001066E+00 -3.386515E+00 +3.351666E+02 
 +4.704890E+02 -1.179311E+01 -2.168342E+00 -1.179311E+01 +8.516936E+02 -6.715252E+00 -2.168342E+00 -6.715252E+00 +3.513367E+02 
 +4.300945E+02 +2.738483E+00 -7.291693E+00 +2.738483E+00 +8.377842E+02 -1.689935E+01 -7.291693E+00 -1.689935E+01 +3.601651E+02 
 +4.470317E+02 +3.771358E+00 -8.910745E+00 +3.771358E+00 +8.569186E+02 -1.768028E+01 -8.910745E+00 -1.768028E+01 +3.768492E+02 
 +4.826032E+02 -3.110890E+00 +1.140766E-01 -3.110890E+00 +8.860589E+02 -3.987657E+00 +1.140766E-01 -3.987657E+00 +3.857836E+02 
 +5.213958E+02 -8.637771E-01 -1.923549E+01 -8.637771E-01 +8.909415E+02 -1.205493E+01 -1.923549E+01 -1.205493E+01 +3.925521E+02 
 +5.268551E+02 +2.774047E+00 -3.370664E+01 +2.774047E+00 +8.742021E+02 -2.503693E+01 -3.370664E+01 -2.503693E+01 +3.929416E+02 
 +5.253482E+02 +5.232646E-01 -2.761865E+01 +5.232646E-01 +8.643566E+02 -2.536010E+01 -2.761865E+01 -2.536010E+01 +3.774549E+02 
 +5.448433E+02 +1.343210E+00 -5.462355E+00 +1.343210E+00 +8.686639E+02 -8.747382E+00 -5.462355E+00 -8.747382E+00 +3.581188E+02 
 +5.531670E+02 +2.282860E+00 +5.867080E-01 +2.282860E+00 +8.843373E+02 +3.712013E+00 +5.867080E-01 +3.712013E+00 +3.777478E+02 
 +4.422705E+02 +2.035988E+00 -1.392743E+01 +2.035988E+00 +8.475844E+02 +3.553718E+00 -1.392743E+01 +3.553718E+00 +3.905410E+02 
 +4.578181E+02 +3.262053E-01 -1.354227E+01 +3.262053E-01 +8.599509E+02 +4.538912E+00 -1.354227E+01 +4.538912E+00 +4.148995E+02 
 +4.828446E+02 -4.395387E+00 -1.836500E+01 -4.395387E+00 +8.648763E+02 +6.499923E+00 -1.836500E+01 +6.499923E+00 +4.210372E+02 
 +4.842862E+02 -2.158028E+00 -1.675247E+01 -2.158028E+00 +8.632546E+02 +5.576722E+00 -1.675247E+01 +5.576722E+00 +4.229394E+02 
 +4.816768E+02 +1.856215E+00 -1.800877E+01 +1.856215E+00 +8.613652E+02 +8.611991E-01 -1.800877E+01 +8.611991E-01 +4.197794E+02 
 +4.627665E+02 +3.299641E+00 -1.838479E+01 +3.299641E+00 +8.552658E+02 +1.288396E+00 -1.838479E+01 +1.288396E+00 +4.117142E+02 
 +4.958499E+02 -2.852018E-01 -6.060223E+00 -2.852018E-01 +8.811863E+02 +1.507026E+01 -6.060223E+00 +1.507026E+01 +4.160854E+02 
 +5.462868E+02 -8.158022E+00 -1.103348E+01 -8.158022E+00 +9.050269E+02 +1.339080E+01 -1.103348E+01 +1.339080E+01 +3.914248E+02 
 +5.265524E+02 -9.726646E+00 -5.573624E+00 -9.726646E+00 +8.971413E+02 -3.749614E-02 -5.573624E+00 -3.749614E-02 +3.508537E+02 
 +5.165520E+02 -9.102491E+00 -1.030553E+01 -9.102491E+00 +8.929009E+02 -6.163501E+00 -1.030553E+01 -6.163501E+00 +3.402442E+02 
 +5.066973E+02 -1.081621E+01 +2.059034E+00 -1.081621E+01 +8.746590E+02 -1.551389E+01 +2.059034E+00 -1.551389E+01 +3.312019E+02 
 +4.900492E+02 -9.066256E+00 +7.268132E+00 -9.066256E+00 +8.584564E+02 -1.037097E+01 +7.268132E+00 -1.037097E+01 +3.257877E+02 
 +4.950428E+02 -1.140204E+01 +1.937323E+00 -1.140204E+01 +8.688304E+02 -7.482487E+00 +1.937323E+00 -7.482487E+00 +3.464884E+02 
 +4.288039E+02 -1.329251E+00 +1.115275E+01 -1.329251E+00 +8.481773E+02 -1.306431E+01 +1.115275E+01 -1.306431E+01 +3.618881E+02 
 +4.480958E+02 -2.295370E+00 +9.790346E+00 -2.295370E+00 +8.675985E+02 -6.991332E+00 +9.790346E+00 -6.991332E+00 +3.894236E+02 
 +4.967313E+02 +7.272349E+00 -1.160854E+00 +7.272349E+00 +8.560967E+02 -1.805954E+01 -1.160854E+00 -1.805954E+01 +3.896342E+02 
 +4.925046E+02 +7.037696E+00 -9.694976E+00 +7.037696E+00 +8.386243E+02 -2.231875E+01 -9.694976E+00 -2.231875E+01 +3.742416E+02 
 +4.941920E+02 +9.092696E+00 -2.331045E+01 +9.092696E+00 +8.391023E+02 -2.160456E+01 -2.331045E+01 -2.160456E+01 +3.740995E+02 
 +5.230056E+02 +3.142266E+00 -9.570242E+00 +3.142266E+00 +8.620890E+02 -1.015540E+01 -9.570242E+00 -1.015540E+01 +3.728290E+02 
 +5.353401E+02 -3.539283E+00 +3.018192E+00 -3.539283E+00 +8.694950E+02 +9.445650E-01 +3.018192E+00 +9.445650E-01 +3.548913E+02 
 +5.499746E+02 -2.015730E+00 -5.823845E+00 -2.015730E+00 +8.878835E+02 +3.305562E+00 -5.823845E+00 +3.305562E+00 +3.936480E+02 
 +4.683468E+02 -6.414023E-01 -1.967682E+01 -6.414023E-01 +8.639083E+02 +3.077862E+00 -1.967682E+01 +3.077862E+00 +4.184401E+02 
 +4.632385E+02 -3.665524E+00 -1.196682E+01 -3.665524E+00 +8.638491E+02 +1.465848E+00 -1.196682E+01 +1.465848E+00 +4.225806E+02 
 +4.802780E+02 -7.081542E+00 -1.328147E+01 -7.081542E+00 +8.691818E+02 +2.630125E+00 -1.328147E+01 +2.630125E+00 +4.195400E+02 
 +4.904439E+02 -8.212741E+00 -1.486853E+01 -8.212741E+00 +8.724023E+02 +2.290971E+00 -1.486853E+01 +2.290971E+00 +4.233195E+02 
 +4.865264E+02 -5.891821E+00 -1.356775E+01 -5.891821E+00 +8.666652E+02 +1.567547E+00 -1.356775E+01 +1.567547E+00 +4.161611E+02 
 +4.731012E+02 -2.907723E+00 -1.443675E+01 -2.907723E+00 +8.655643E+02 +3.894804E+00 -1.443675E+01 +3.894804E+00 +4.147537E+02 
 +4.884979E+02 +1.689753E+00 -9.130688E+00 +1.689753E+00 +8.814681E+02 +6.289796E+00 -9.130688E+00 +6.289796E+00 +4.149989E+02 
 +5.453862E+02 -3.971396E+00 -1.816822E+01 -3.971396E+00 +9.114254E+02 +5.713275E+00 -1.816822E+01 +5.713275E+00 +3.888652E+02 
 +5.244475E+02 -3.527104E+00 -1.062599E+01 -3.527104E+00 +8.952619E+02 +9.707900E-01 -1.062599E+01 +9.707900E-01 +3.417662E+02 
 +5.043631E+02 -2.504634E+00 -1.544819E+01 -2.504634E+00 +8.873292E+02 +5.771047E-01 -1.544819E+01 +5.771047E-01 +3.327089E+02 
 +4.922537E+02 -5.089385E+00 -1.419993E+01 -5.089385E+00 +8.795074E+02 -6.695999E+00 -1.419993E+01 -6.695999E+00 +3.248097E+02 
 +4.932012E+02 -1.372818E+01 +1.805652E+01 -1.372818E+01 +8.678465E+02 -1.302265E+01 +1.805652E+01 -1.302265E+01 +3.205001E+02 
 +4.983393E+02 -1.571810E+01 +1.132810E+01 -1.571810E+01 +8.755775E+02 -4.108360E+00 +1.132810E+01 -4.108360E+00 +3.369261E+02 
 +4.404163E+02 -5.011558E+00 +1.370987E+01 -5.011558E+00 +8.611962E+02 -7.384925E-02 +1.370987E+01 -7.384925E-02 +3.505353E+02 
 +4.461286E+02 -3.843700E-01 +1.456315E+01 -3.843700E-01 +8.553242E+02 -7.758353E+00 +1.456315E+01 -7.758353E+00 +3.777104E+02 
 +4.963896E+02 +8.716159E+00 -4.277647E+00 +8.716159E+00 +8.472506E+02 -2.213569E+01 -4.277647E+00 -2.213569E+01 +3.672672E+02 
 +4.762320E+02 +1.082874E+01 -6.142101E+00 +1.082874E+01 +8.263699E+02 -3.085495E+01 -6.142101E+00 -3.085495E+01 +3.524867E+02 
 +4.666183E+02 +1.192800E+01 -1.520976E+01 +1.192800E+01 +8.174263E+02 -2.908189E+01 -1.520976E+01 -2.908189E+01 +3.494474E+02 
 +4.770126E+02 +1.249217E+01 -6.253598E+00 +1.249217E+01 +8.104368E+02 -1.876847E+01 -6.253598E+00 -1.876847E+01 +3.523212E+02 
 +4.928542E+02 +2.449740E+00 -9.164209E-01 +2.449740E+00 +8.366244E+02 -6.831298E+00 -9.164209E-01 -6.831298E+00 +3.555596E+02 
 +5.243115E+02 -5.172568E+00 -7.007940E+00 -5.172568E+00 +8.773579E+02 +1.253581E+00 -7.007940E+00 +1.253581E+00 +3.957208E+02 
 +4.898956E+02 -8.467201E+00 -1.766146E+01 -8.467201E+00 +8.693423E+02 +9.047592E+00 -1.766146E+01 +9.047592E+00 +4.291496E+02 
 +4.813198E+02 -1.366924E+01 -9.880187E+00 -1.366924E+01 +8.756200E+02 +8.578589E+00 -9.880187E+00 +8.578589E+00 +4.291146E+02 
 +4.792268E+02 -1.370932E+01 -1.000254E+01 -1.370932E+01 +8.768310E+02 +1.273392E+00 -1.000254E+01 +1.273392E+00 +4.090247E+02 
 +4.958161E+02 -1.293414E+01 -1.339427E+01 -1.293414E+01 +8.824858E+02 -1.500806E+00 -1.339427E+01 -1.500806E+00 +4.125709E+02 
 +4.827826E+02 -7.738805E+00 -1.159932E+01 -7.738805E+00 +8.698010E+02 +1.110023E+00 -1.159932E+01 +1.110023E+00 +4.030314E+02 
 +4.950429E+02 +6.400794E-02 -1.273738E+01 +6.400794E-02 +8.775615E+02 -5.413837E-01 -1.273738E+01 -5.413837E-01 +4.235806E+02 
 +5.122007E+02 +7.765568E+00 -7.045333E+00 +7.765568E+00 +8.894445E+02 -5.295614E+00 -7.045333E+00 -5.295614E+00 +4.301187E+02 
 +5.391564E+02 +8.817627E+00 -1.492930E+01 +8.817627E+00 +9.009488E+02 +1.042157E+00 -1.492930E+01 +1.042157E+00 +3.847820E+02 
 +5.165120E+02 +6.605955E+00 -2.067164E+01 +6.605955E+00 +8.893058E+02 +2.918562E+00 -2.067164E+01 +2.918562E+00 +3.345597E+02 
 +5.018315E+02 +4.573204E+00 -2.060159E+01 +4.573204E+00 +8.883959E+02 -3.715628E+00 -2.060159E+01 -3.715628E+00 +3.343697E+02 
 +4.787320E+02 +9.588302E-01 -2.710978E+01 +9.588302E-01 +8.791735E+02 -8.200172E+00 -2.710978E+01 -8.200172E+00 +3.169355E+02 
 +4.973682E+02 -8.257459E-02 +2.552201E+01 -8.257459E-02 +8.986368E+02 -4.743955E+00 +2.552201E+01 -4.743955E+00 +3.279202E+02 
 +4.995794E+02 +5.093288E-02 +2.792979E+01 +5.093288E-02 +9.049495E+02 +6.958856E+00 +2.792979E+01 +6.958856E+00 +3.292474E+02 
 +4.717981E+02 +4.291842E+00 +7.028416E+00 +4.291842E+00 +8.840092E+02 +1.203159E+01 +7.028416E+00 +1.203159E+01 +3.230622E+02 
 +4.880014E+02 +2.977508E+00 +9.859298E+00 +2.977508E+00 +8.764038E+02 -2.226391E+00 +9.859298E+00 -2.226391E+00 +3.611177E+02 
 +4.917339E+02 -6.376540E+00 -2.507333E+00 -6.376540E+00 +8.679614E+02 -2.517300E+00 -2.507333E+00 -2.517300E+00 +3.412666E+02 
 +4.775415E+02 +4.570210E+00 -6.226784E+00 +4.570210E+00 +8.580954E+02 -5.781844E+00 -6.226784E+00 -5.781844E+00 +3.476100E+02 
 +4.853937E+02 -4.034261E+00 -9.537864E+00 -4.034261E+00 +8.585245E+02 -1.218148E+01 -9.537864E+00 -1.218148E+01 +3.456181E+02 
 +4.802915E+02 +1.886437E-01 -8.520667E+00 +1.886437E-01 +8.415324E+02 -1.221993E+01 -8.520667E+00 -1.221993E+01 +3.574526E+02 
 +4.770540E+02 +1.270660E+01 -5.206123E+00 +1.270660E+01 +8.280471E+02 -5.622125E+00 -5.206123E+00 -5.622125E+00 +3.819606E+02 
 +4.781349E+02 +7.675024E+00 -4.924187E+00 +7.675024E+00 +8.296313E+02 -2.780180E+00 -4.924187E+00 -2.780180E+00 +3.891895E+02 
 +4.699020E+02 +6.577367E+00 -1.094355E+01 +6.577367E+00 +8.267125E+02 +1.483898E+00 -1.094355E+01 +1.483898E+00 +3.988777E+02 
 +4.662725E+02 +3.743122E+00 -8.938632E+00 +3.743122E+00 +8.273309E+02 +6.650546E+00 -8.938632E+00 +6.650546E+00 +3.992211E+02 
 +4.675978E+02 +2.426361E+00 -6.855967E+00 +2.426361E+00 +8.356155E+02 +3.667730E-02 -6.855967E+00 +3.667730E-02 +3.866593E+02 
 +4.691067E+02 +3.039673E+00 -1.297156E+01 +3.039673E+00 +8.456697E+02 -8.134220E+00 -1.297156E+01 -8.134220E+00 +3.786936E+02 
 +4.736393E+02 +4.364184E+00 -1.234821E+01 +4.364184E+00 +8.497528E+02 -5.230323E+00 -1.234821E+01 -5.230323E+00 +3.786950E+02 
 +4.773008E+02 +8.642918E+00 -1.348756E+01 +8.642918E+00 +8.424024E+02 +1.053984E+00 -1.348756E+01 +1.053984E+00 +3.939073E+02 
 +5.012334E+02 +1.036867E+01 +1.788501E-03 +1.036867E+01 +8.418304E+02 +7.057973E+00 +1.788501E-03 +7.057973E+00 +4.145151E+02 
 +5.133486E+02 +1.334604E+01 -8.003267E+00 +1.334604E+01 +8.503628E+02 +7.558391E+00 -8.003267E+00 +7.558391E+00 +3.904786E+02 
 +5.102420E+02 +1.165514E+01 -2.494442E+01 +1.165514E+01 +8.727819E+02 +2.404505E+00 -2.494442E+01 +2.404505E+00 +3.508283E+02 
 +5.001598E+02 +1.057775E+01 -3.310750E+01 +1.057775E+01 +8.883745E+02 -3.001686E+00 -3.310750E+01 -3.001686E+00 +3.420923E+02 
 +4.876865E+02 +9.662675E+00 -3.761476E+01 +9.662675E+00 +8.925336E+02 -7.568014E+00 -3.761476E+01 -7.568014E+00 +3.306295E+02 
 +4.986444E+02 +7.539063E+00 +2.814695E+01 +7.539063E+00 +9.096925E+02 +7.763540E-01 +2.814695E+01 +7.763540E-01 +3.336285E+02 
 +4.928330E+02 +8.814647E+00 +3.019227E+01 +8.814647E+00 +9.068787E+02 +7.991100E+00 +3.019227E+01 +7.991100E+00 +3.191935E+02 
 +4.925746E+02 +9.214483E+00 +6.013540E+00 +9.214483E+00 +8.918095E+02 +7.875381E+00 +6.013540E+00 +7.875381E+00 +3.200665E+02 
 +5.067683E+02 -6.112927E+00 +4.968814E+00 -6.112927E+00 +8.837975E+02 +3.172752E+00 +4.968814E+00 +3.172752E+00 +3.448573E+02 
 +4.932066E+02 -1.085255E+01 +8.248120E-01 -1.085255E+01 +8.743630E+02 -6.549830E-01 +8.248120E-01 -6.549830E-01 +3.346738E+02 
 +4.689762E+02 +4.595418E+00 -4.976840E+00 +4.595418E+00 +8.574792E+02 -2.001282E+00 -4.976840E+00 -2.001282E+00 +3.418520E+02 
 +4.813882E+02 +1.472386E+00 -7.169392E+00 +1.472386E+00 +8.582431E+02 -6.979434E+00 -7.169392E+00 -6.979434E+00 +3.422000E+02 
 +4.873809E+02 -2.750074E+00 -7.454916E+00 -2.750074E+00 +8.570286E+02 -1.642114E+01 -7.454916E+00 -1.642114E+01 +3.594767E+02 
 +4.852355E+02 +1.186815E+01 -8.282060E+00 +1.186815E+01 +8.479191E+02 -1.536707E+01 -8.282060E+00 -1.536707E+01 +3.918834E+02 
 +4.789999E+02 +1.190874E+01 -4.438777E+00 +1.190874E+01 +8.374122E+02 -7.529354E+00 -4.438777E+00 -7.529354E+00 +3.951700E+02 
 +4.763407E+02 +1.371811E+01 -8.395101E+00 +1.371811E+01 +8.350333E+02 -3.948445E+00 -8.395101E+00 -3.948445E+00 +3.909169E+02 
 +4.747360E+02 +1.087445E+01 -9.911167E+00 +1.087445E+01 +8.351097E+02 -6.386324E-02 -9.911167E+00 -6.386324E-02 +3.881648E+02 
 +4.779881E+02 +6.606210E+00 -9.699856E+00 +6.606210E+00 +8.445342E+02 -1.555742E-01 -9.699856E+00 -1.555742E-01 +3.867620E+02 
 +4.708223E+02 +4.046975E+00 -1.188550E+01 +4.046975E+00 +8.479910E+02 -1.159652E+00 -1.188550E+01 -1.159652E+00 +3.713575E+02 
 +4.724739E+02 +2.209995E+00 -9.484854E+00 +2.209995E+00 +8.478301E+02 +2.619483E-01 -9.484854E+00 +2.619483E-01 +3.648360E+02 
 +4.739651E+02 +3.144880E+00 -1.869009E+00 +3.144880E+00 +8.440496E+02 +2.824563E+00 -1.869009E+00 +2.824563E+00 +3.776179E+02 
 +4.965050E+02 +3.681309E+00 +7.929750E+00 +3.681309E+00 +8.468096E+02 +8.593979E+00 +7.929750E+00 +8.593979E+00 +3.944628E+02 
 +4.922349E+02 +1.243102E+01 -5.860865E+00 +1.243102E+01 +8.284469E+02 +1.098820E+01 -5.860865E+00 +1.098820E+01 +3.801836E+02 
 +4.973349E+02 +1.757690E+01 -1.642391E+01 +1.757690E+01 +8.327011E+02 +6.636380E+00 -1.642391E+01 +6.636380E+00 +3.621123E+02 
 +4.880869E+02 +1.319892E+01 -3.376270E+01 +1.319892E+01 +8.551548E+02 +1.370684E+00 -3.376270E+01 +1.370684E+00 +3.457197E+02 
 +4.850951E+02 +1.149569E+01 -4.196469E+01 +1.149569E+01 +8.830648E+02 +4.704219E+00 -4.196469E+01 +4.704219E+00 +3.410355E+02 
 +5.053897E+02 +9.336320E+00 +1.352472E+01 +9.336320E+00 +9.151449E+02 +7.862861E+00 +1.352472E+01 +7.862861E+00 +3.524043E+02 
 +5.040953E+02 +2.911292E+00 +2.272405E+01 +2.911292E+00 +9.087414E+02 +4.121460E+00 +2.272405E+01 +4.121460E+00 +3.438879E+02 
 +4.934724E+02 -3.440820E+00 +1.243371E+01 -3.440820E+00 +8.825138E+02 +5.828928E+00 +1.243371E+01 +5.828928E+00 +3.370787E+02 
 +4.974657E+02 -1.306203E+01 +2.986633E+00 -1.306203E+01 +8.779216E+02 +4.231020E+00 +2.986633E+00 +4.231020E+00 +3.370547E+02 
 +4.962368E+02 -1.574055E+01 +1.708263E+00 -1.574055E+01 +8.765947E+02 -3.405944E+00 +1.708263E+00 -3.405944E+00 +3.412560E+02 
 +4.800327E+02 -2.661922E+00 -6.692778E+00 -2.661922E+00 +8.670703E+02 -5.249451E+00 -6.692778E+00 -5.249451E+00 +3.380611E+02 
 +4.856261E+02 -2.052595E+00 -8.810633E+00 -2.052595E+00 +8.628700E+02 -5.836306E+00 -8.810633E+00 -5.836306E+00 +3.394800E+02 
 +4.933319E+02 -2.705753E+00 -6.187809E+00 -2.705753E+00 +8.651988E+02 -1.212742E+01 -6.187809E+00 -1.212742E+01 +3.572012E+02 
 +4.886656E+02 +1.517977E+01 -7.502342E+00 +1.517977E+01 +8.608889E+02 -9.954468E+00 -7.502342E+00 -9.954468E+00 +3.747565E+02 
 +4.682279E+02 +1.585089E+01 -6.648661E+00 +1.585089E+01 +8.368671E+02 -6.225901E+00 -6.648661E+00 -6.225901E+00 +3.638078E+02 
 +4.724400E+02 +1.648391E+01 -5.268169E+00 +1.648391E+01 +8.361426E+02 -4.764758E+00 -5.268169E+00 -4.764758E+00 +3.690902E+02 
 +4.781924E+02 +1.137918E+01 -1.094505E+01 +1.137918E+01 +8.431104E+02 -9.697907E-01 -1.094505E+01 -9.697907E-01 +3.784824E+02 
 +4.737828E+02 +1.132157E+01 -1.307055E+01 +1.132157E+01 +8.402037E+02 -7.043025E-01 -1.307055E+01 -7.043025E-01 +3.775407E+02 
 +4.747727E+02 +9.097710E+00 -9.787241E+00 +9.097710E+00 +8.426251E+02 +7.112546E-01 -9.787241E+00 +7.112546E-01 +3.697027E+02 
 +4.695718E+02 +5.429037E+00 -5.245444E+00 +5.429037E+00 +8.460482E+02 -3.814675E-01 -5.245444E+00 -3.814675E-01 +3.577823E+02 
 +4.801872E+02 +4.957572E+00 +7.376529E+00 +4.957572E+00 +8.589110E+02 -1.300104E+00 +7.376529E+00 -1.300104E+00 +3.628990E+02 
 +4.846874E+02 +4.385861E+00 +1.099215E+01 +4.385861E+00 +8.604338E+02 +4.303143E-01 +1.099215E+01 +4.303143E-01 +3.495407E+02 
 +4.896975E+02 +1.171664E+01 +1.782904E+00 +1.171664E+01 +8.589005E+02 +1.178120E+00 +1.782904E+00 +1.178120E+00 +3.389004E+02 
 +4.967963E+02 +1.683221E+01 -7.036855E+00 +1.683221E+01 +8.522647E+02 -5.032156E+00 -7.036855E+00 -5.032156E+00 +3.491147E+02 
 +4.937369E+02 +1.835787E+01 -1.684928E+01 +1.835787E+01 +8.520784E+02 -8.459934E+00 -1.684928E+01 -8.459934E+00 +3.629538E+02 
 +4.926997E+02 +1.494208E+01 -3.064242E+01 +1.494208E+01 +8.665246E+02 -4.876584E+00 -3.064242E+01 -4.876584E+00 +3.846428E+02 
 +4.982500E+02 +1.244241E+01 -4.712025E+00 +1.244241E+01 +8.736303E+02 -2.489407E+00 -4.712025E+00 -2.489407E+00 +3.939912E+02 
 +4.937973E+02 +1.683465E+00 +1.724339E+01 +1.683465E+00 +8.799261E+02 -3.262536E-01 +1.724339E+01 -3.262536E-01 +3.709088E+02 
 +4.883671E+02 -9.801244E+00 +2.631819E+01 -9.801244E+00 +8.817775E+02 +2.318612E+00 +2.631819E+01 +2.318612E+00 +3.427582E+02 
 +4.967702E+02 -1.801726E+01 +5.652639E+00 -1.801726E+01 +8.782353E+02 +1.589156E+00 +5.652639E+00 +1.589156E+00 +3.375868E+02 
 +4.922780E+02 -1.238030E+01 +1.486689E+00 -1.238030E+01 +8.683981E+02 -5.645797E+00 +1.486689E+00 -5.645797E+00 +3.402368E+02 
 +4.836645E+02 -3.076073E+00 -7.540293E+00 -3.076073E+00 +8.630768E+02 -3.855785E+00 -7.540293E+00 -3.855785E+00 +3.288932E+02 
 +4.891434E+02 -4.322800E+00 -7.234692E+00 -4.322800E+00 +8.622778E+02 -2.325405E+00 -7.234692E+00 -2.325405E+00 +3.305918E+02 
 +4.979886E+02 -7.130820E+00 -4.583859E+00 -7.130820E+00 +8.708000E+02 -9.947665E+00 -4.583859E+00 -9.947665E+00 +3.594458E+02 
 +5.113012E+02 +9.706390E+00 -8.270603E+00 +9.706390E+00 +8.985927E+02 -7.167835E+00 -8.270603E+00 -7.167835E+00 +3.900234E+02 
 +4.903878E+02 +2.798245E+00 -1.622529E+01 +2.798245E+00 +8.892981E+02 +1.931701E+00 -1.622529E+01 +1.931701E+00 +3.650378E+02 
 +4.807863E+02 +9.399057E+00 -9.724596E+00 +9.399057E+00 +8.535110E+02 +1.279024E+00 -9.724596E+00 +1.279024E+00 +3.578032E+02 
 +4.813429E+02 +1.329550E+01 -1.261205E+01 +1.329550E+01 +8.366239E+02 -1.762211E+00 -1.261205E+01 -1.762211E+00 +3.733442E+02 
 +4.752533E+02 +1.671754E+01 -1.282675E+01 +1.671754E+01 +8.375255E+02 -1.992689E+00 -1.282675E+01 -1.992689E+00 +3.728935E+02 
 +4.757906E+02 +1.387837E+01 -1.013154E+01 +1.387837E+01 +8.459505E+02 +1.539471E-01 -1.013154E+01 +1.539471E-01 +3.676828E+02 
 +4.759237E+02 +1.042280E+01 -3.089931E+00 +1.042280E+01 +8.542444E+02 +4.649075E-01 -3.089931E+00 +4.649075E-01 +3.561393E+02 
 +4.759207E+02 +7.813449E+00 +7.471589E+00 +7.813449E+00 +8.624814E+02 -3.158986E+00 +7.471589E+00 -3.158986E+00 +3.441418E+02 
 +4.706703E+02 +3.402680E+00 +1.029968E+01 +3.402680E+00 +8.624770E+02 -5.465788E+00 +1.029968E+01 -5.465788E+00 +3.279579E+02 
 +4.786230E+02 +7.799086E+00 +1.095766E+01 +7.799086E+00 +8.616792E+02 -5.960545E+00 +1.095766E+01 -5.960545E+00 +3.260184E+02 
 +4.938280E+02 +1.304372E+01 -4.546117E-03 +1.304372E+01 +8.649047E+02 -8.916159E+00 -4.546117E-03 -8.916159E+00 +3.530237E+02 
 +5.028857E+02 +1.773557E+01 -1.732487E+00 +1.773557E+01 +8.604545E+02 -1.192954E+01 -1.732487E+00 -1.192954E+01 +3.942076E+02 
 +5.055670E+02 +1.331539E+01 -1.437871E+01 +1.331539E+01 +8.563331E+02 -1.332593E+01 -1.437871E+01 -1.332593E+01 +4.280758E+02 
 +5.037979E+02 +9.307576E+00 -4.968678E+00 +9.307576E+00 +8.584631E+02 -1.071021E+01 -4.968678E+00 -1.071021E+01 +4.398977E+02 
 +4.880492E+02 +7.467137E+00 +7.325741E+00 +7.467137E+00 +8.546167E+02 -3.876890E+00 +7.325741E+00 -3.876890E+00 +4.090000E+02 
 +4.785339E+02 -5.482238E+00 +2.766255E+01 -5.482238E+00 +8.643100E+02 -6.918985E-01 +2.766255E+01 -6.918985E-01 +3.590614E+02 
 +4.937176E+02 -2.089988E+01 +1.001901E+01 -2.089988E+01 +8.745635E+02 -2.371483E+00 +1.001901E+01 -2.371483E+00 +3.432583E+02 
 +4.895683E+02 -1.289592E+01 +1.030410E+00 -1.289592E+01 +8.664003E+02 -2.421052E+00 +1.030410E+00 -2.421052E+00 +3.403436E+02 
 +4.870215E+02 -8.250382E+00 -6.224766E+00 -8.250382E+00 +8.619234E+02 +1.659516E+00 -6.224766E+00 +1.659516E+00 +3.298578E+02 
 +4.901517E+02 -9.527581E+00 -6.552975E+00 -9.527581E+00 +8.622932E+02 +1.479687E+00 -6.552975E+00 +1.479687E+00 +3.320918E+02 
 +4.981052E+02 -9.592998E+00 -6.193440E+00 -9.592998E+00 +8.749223E+02 -7.849776E+00 -6.193440E+00 -7.849776E+00 +3.564365E+02 
 +5.003051E+02 +1.285781E+01 -9.156021E+00 +1.285781E+01 +8.707148E+02 -1.262221E+01 -9.156021E+00 -1.262221E+01 +3.715778E+02 
 +4.809563E+02 +7.184111E+00 -1.092799E+01 +7.184111E+00 +8.440897E+02 -4.808995E+00 -1.092799E+01 -4.808995E+00 +3.520078E+02 
 +4.792663E+02 +1.200262E+01 -1.232690E+01 +1.200262E+01 +8.414510E+02 +2.004854E+00 -1.232690E+01 +2.004854E+00 +3.533865E+02 
 +4.676270E+02 +1.181316E+01 -1.424268E+01 +1.181316E+01 +8.224642E+02 -1.112970E+00 -1.424268E+01 -1.112970E+00 +3.562575E+02 
 +4.786611E+02 +2.176714E+01 -1.333658E+01 +2.176714E+01 +8.311617E+02 -3.727787E+00 -1.333658E+01 -3.727787E+00 +3.709349E+02 
 +4.785999E+02 +1.920558E+01 -1.263149E+01 +1.920558E+01 +8.504217E+02 -1.800906E+00 -1.263149E+01 -1.800906E+00 +3.723898E+02 
 +4.768046E+02 +1.585535E+01 -4.923124E+00 +1.585535E+01 +8.565916E+02 -1.115999E+00 -4.923124E+00 -1.115999E+00 +3.531008E+02 
 +4.730829E+02 +1.268037E+01 +2.071717E+00 +1.268037E+01 +8.636058E+02 -6.340818E+00 +2.071717E+00 -6.340818E+00 +3.426727E+02 
 +4.663018E+02 +8.403557E+00 +5.667548E+00 +8.403557E+00 +8.656592E+02 -7.795395E+00 +5.667548E+00 -7.795395E+00 +3.351231E+02 
 +4.692594E+02 +8.650697E+00 +9.288597E+00 +8.650697E+00 +8.606574E+02 -5.912372E+00 +9.288597E+00 -5.912372E+00 +3.342752E+02 
 +4.901742E+02 +1.350854E+01 +5.487235E+00 +1.350854E+01 +8.657701E+02 -4.184456E+00 +5.487235E+00 -4.184456E+00 +3.678177E+02 
 +5.102490E+02 +1.516079E+01 +4.228790E+00 +1.516079E+01 +8.720227E+02 -4.018977E+00 +4.228790E+00 -4.018977E+00 +4.096536E+02 
 +5.008890E+02 +1.338004E+01 -3.840006E+00 +1.338004E+01 +8.491873E+02 -8.541971E+00 -3.840006E+00 -8.541971E+00 +4.216455E+02 
 +4.986582E+02 +1.353009E+01 +9.343015E-01 +1.353009E+01 +8.462169E+02 -1.338117E+01 +9.343015E-01 -1.338117E+01 +4.352179E+02 
 +4.927683E+02 +1.030601E+01 +2.746870E+00 +1.030601E+01 +8.525164E+02 -1.351444E+01 +2.746870E+00 -1.351444E+01 +4.380411E+02 
 +4.786791E+02 +2.555927E+00 +1.635190E+01 +2.555927E+00 +8.466355E+02 -6.858768E+00 +1.635190E+01 -6.858768E+00 +3.938525E+02 
 +4.813354E+02 -2.120097E+01 +1.168778E+01 -2.120097E+01 +8.566559E+02 -3.138154E+00 +1.168778E+01 -3.138154E+00 +3.521725E+02 
 +4.817594E+02 -1.305003E+01 +1.663384E+00 -1.305003E+01 +8.624139E+02 +7.445572E-01 +1.663384E+00 +7.445572E-01 +3.347563E+02 
 +4.903917E+02 -1.012311E+01 -4.968205E+00 -1.012311E+01 +8.680162E+02 +1.463687E+00 -4.968205E+00 +1.463687E+00 +3.312195E+02 
 +4.948332E+02 -1.107508E+01 -3.758467E+00 -1.107508E+01 +8.728176E+02 +3.818489E-01 -3.758467E+00 +3.818489E-01 +3.362983E+02 
 +4.944924E+02 -1.296444E+01 -7.473573E-02 -1.296444E+01 +8.705175E+02 -3.336448E+00 -7.473573E-02 -3.336448E+00 +3.424939E+02 
 +5.021283E+02 -2.397359E+00 -1.911389E+00 -2.397359E+00 +8.592245E+02 -2.549103E+00 -1.911389E+00 -2.549103E+00 +3.586900E+02 
 +4.994279E+02 -5.713059E+00 +1.491431E-01 -5.713059E+00 +8.410907E+02 +2.911243E+00 +1.491431E-01 +2.911243E+00 +3.638291E+02 
 +5.037351E+02 +8.318111E+00 -5.968050E+00 +8.318111E+00 +8.564643E+02 +1.029433E+01 -5.968050E+00 +1.029433E+01 +3.733897E+02 
 +4.593443E+02 +2.466964E-01 -1.620624E+01 +2.466964E-01 +8.363127E+02 +8.736322E+00 -1.620624E+01 +8.736322E+00 +3.544565E+02 
 +4.844133E+02 +2.152843E+01 -3.908348E+00 +2.152843E+01 +8.342311E+02 +3.131837E+00 -3.908348E+00 +3.131837E+00 +3.599168E+02 
 +4.876637E+02 +2.368434E+01 -8.806401E+00 +2.368434E+01 +8.499452E+02 +4.443973E+00 -8.806401E+00 +4.443973E+00 +3.690880E+02 
 +4.792772E+02 +1.915842E+01 +3.649188E+00 +1.915842E+01 +8.609736E+02 +5.125906E+00 +3.649188E+00 +5.125906E+00 +3.500259E+02 
 +4.683694E+02 +1.857062E+01 -4.908247E+00 +1.857062E+01 +8.574232E+02 +2.316977E-01 -4.908247E+00 +2.316977E-01 +3.277026E+02 
 +4.651302E+02 +1.446138E+01 -3.602441E+00 +1.446138E+01 +8.620048E+02 -7.416496E+00 -3.602441E+00 -7.416496E+00 +3.245846E+02 
 +4.630551E+02 +1.393137E+01 -7.159620E+00 +1.393137E+01 +8.642769E+02 -1.147405E+01 -7.159620E+00 -1.147405E+01 +3.315294E+02 
 +4.679534E+02 +1.419520E+01 -5.548537E+00 +1.419520E+01 +8.512649E+02 -1.727325E+01 -5.548537E+00 -1.727325E+01 +3.607567E+02 
 +4.877121E+02 +1.536901E+01 +3.093427E+00 +1.536901E+01 +8.397934E+02 -1.751393E+01 +3.093427E+00 -1.751393E+01 +3.899060E+02 
 +4.872053E+02 +1.302016E+01 +1.430365E+00 +1.302016E+01 +8.410319E+02 -1.371074E+01 +1.430365E+00 -1.371074E+01 +4.051204E+02 
 +4.841543E+02 +1.447237E+01 +5.832466E+00 +1.447237E+01 +8.411055E+02 -1.188534E+01 +5.832466E+00 -1.188534E+01 +4.140657E+02 
 +4.875024E+02 +1.103247E+01 +6.489777E+00 +1.103247E+01 +8.449284E+02 -1.422917E+01 +6.489777E+00 -1.422917E+01 +4.248363E+02 
 +4.848520E+02 +6.005747E+00 +9.986157E+00 +6.005747E+00 +8.502797E+02 -1.113424E+01 +9.986157E+00 -1.113424E+01 +4.079512E+02 
 +4.742813E+02 -1.673949E+01 +1.008454E+01 -1.673949E+01 +8.512261E+02 -3.463236E+00 +1.008454E+01 -3.463236E+00 +3.605134E+02 
 +4.822781E+02 -1.244114E+01 +4.279848E+00 -1.244114E+01 +8.682768E+02 +1.170853E+00 +4.279848E+00 +1.170853E+00 +3.336482E+02 
 +4.864695E+02 -1.016322E+01 -3.679541E+00 -1.016322E+01 +8.712652E+02 -2.645291E-01 -3.679541E+00 -2.645291E-01 +3.290130E+02 
 +5.063985E+02 -1.098401E+01 +5.950771E+00 -1.098401E+01 +8.832569E+02 -7.673230E-01 +5.950771E+00 -7.673230E-01 +3.446096E+02 
 +5.065172E+02 -1.156679E+01 +7.653662E+00 -1.156679E+01 +8.757588E+02 -6.668834E+00 +7.653662E+00 -6.668834E+00 +3.534604E+02 
 +5.006380E+02 -4.271421E+00 +8.262042E+00 -4.271421E+00 +8.502822E+02 -1.287326E+01 +8.262042E+00 -1.287326E+01 +3.636955E+02 
 +4.988347E+02 -2.832254E-01 +1.140011E+01 -2.832254E-01 +8.366358E+02 -7.182629E+00 +1.140011E+01 -7.182629E+00 +3.604697E+02 
 +5.146682E+02 +1.287024E+01 +1.002255E+01 +1.287024E+01 +8.579854E+02 +6.762464E+00 +1.002255E+01 +6.762464E+00 +3.708627E+02 
 +4.743495E+02 +2.422020E-01 +1.466448E+00 +2.422020E-01 +8.629212E+02 +1.552483E+01 +1.466448E+00 +1.552483E+01 +3.560373E+02 
 +4.899552E+02 +1.082399E+01 +2.391676E+01 +1.082399E+01 +8.708071E+02 +1.551023E+01 +2.391676E+01 +1.551023E+01 +3.427969E+02 
 +5.083873E+02 +2.262511E+01 +1.619114E+00 +2.262511E+01 +8.673263E+02 +1.310516E+01 +1.619114E+00 +1.310516E+01 +3.620774E+02 
 +4.823395E+02 +1.396800E+01 +9.915192E+00 +1.396800E+01 +8.643205E+02 +4.778966E+00 +9.915192E+00 +4.778966E+00 +3.480847E+02 
 +4.699123E+02 +9.799554E+00 -1.740751E+01 +9.799554E+00 +8.650458E+02 -3.010887E+00 -1.740751E+01 -3.010887E+00 +3.152963E+02 
 +4.706913E+02 +2.577072E+00 -1.770080E+01 +2.577072E+00 +8.676319E+02 -7.538065E+00 -1.770080E+01 -7.538065E+00 +3.163481E+02 
 +4.674864E+02 +4.807730E-01 -2.896120E+01 +4.807730E-01 +8.659457E+02 -9.687851E+00 -2.896120E+01 -9.687851E+00 +3.349438E+02 
 +4.743225E+02 +5.096467E-02 -3.265491E+01 +5.096467E-02 +8.695857E+02 -1.557525E+01 -3.265491E+01 -1.557525E+01 +3.695655E+02 
 +4.861243E+02 +4.656472E+00 -1.705017E+00 +4.656472E+00 +8.605727E+02 -1.814708E+01 -1.705017E+00 -1.814708E+01 +3.976712E+02 
 +4.731115E+02 +8.968130E+00 +3.834257E+00 +8.968130E+00 +8.378614E+02 -1.445298E+01 +3.834257E+00 -1.445298E+01 +4.028238E+02 
 +4.791471E+02 +9.755347E+00 +9.030159E+00 +9.755347E+00 +8.432896E+02 -1.331044E+01 +9.030159E+00 -1.331044E+01 +4.051714E+02 
 +4.816321E+02 +9.692050E+00 +8.416244E+00 +9.692050E+00 +8.463938E+02 -1.334231E+01 +8.416244E+00 -1.334231E+01 +4.055417E+02 
 +4.757401E+02 +3.087262E+00 +5.890172E+00 +3.087262E+00 +8.381309E+02 -1.024569E+01 +5.890172E+00 -1.024569E+01 +3.872757E+02 
 +4.714627E+02 -8.848856E+00 +6.209944E+00 -8.848856E+00 +8.480746E+02 -3.202145E+00 +6.209944E+00 -3.202145E+00 +3.563931E+02 
 +4.917186E+02 -1.310341E+01 +7.385867E+00 -1.310341E+01 +8.548637E+02 -1.335103E+00 +7.385867E+00 -1.335103E+00 +3.396731E+02 
 +4.826674E+02 -5.604661E+00 -4.967256E+00 -5.604661E+00 +8.556463E+02 +1.402952E+00 -4.967256E+00 +1.402952E+00 +3.371675E+02 
 +5.053987E+02 -6.848982E+00 +6.754694E+00 -6.848982E+00 +8.576864E+02 +3.190046E+00 +6.754694E+00 +3.190046E+00 +3.529483E+02 
 +5.167735E+02 -7.020092E+00 +7.833103E-01 -7.020092E+00 +8.626961E+02 -4.813135E-01 +7.833103E-01 -4.813135E-01 +3.801164E+02 
 +5.198624E+02 -5.438532E+00 +3.640974E+00 -5.438532E+00 +8.707406E+02 -5.969626E+00 +3.640974E+00 -5.969626E+00 +3.926161E+02 
 +5.074451E+02 +1.059760E+01 +2.507774E+01 +1.059760E+01 +8.765311E+02 -1.733079E+00 +2.507774E+01 -1.733079E+00 +3.666406E+02 
 +5.209681E+02 +1.334754E+01 +3.110401E+01 +1.334754E+01 +8.967761E+02 +1.301125E+01 +3.110401E+01 +1.301125E+01 +3.661998E+02 
 +4.969779E+02 +5.038365E+00 +2.984123E+01 +5.038365E+00 +8.867667E+02 +2.048886E+01 +2.984123E+01 +2.048886E+01 +3.528270E+02 
 +4.846339E+02 +1.771244E+00 +3.262208E+01 +1.771244E+00 +8.789035E+02 +1.280517E+01 +3.262208E+01 +1.280517E+01 +3.365073E+02 
 +5.079101E+02 +1.779611E+01 +1.347263E+00 +1.779611E+01 +8.824558E+02 +2.567486E+00 +1.347263E+00 +2.567486E+00 +3.563537E+02 
 +4.808581E+02 +1.086441E+01 -7.638650E+00 +1.086441E+01 +8.647077E+02 -5.583652E+00 -7.638650E+00 -5.583652E+00 +3.384878E+02 
 +4.699510E+02 +4.794184E+00 -2.644280E+01 +4.794184E+00 +8.602700E+02 -7.993698E+00 -2.644280E+01 -7.993698E+00 +3.124932E+02 
 +4.698388E+02 -1.988870E+00 -2.739396E+01 -1.988870E+00 +8.615853E+02 -5.514423E+00 -2.739396E+01 -5.514423E+00 +3.130183E+02 
 +4.744720E+02 -5.787807E+00 -4.254932E+01 -5.787807E+00 +8.675877E+02 -1.094355E+01 -4.254932E+01 -1.094355E+01 +3.385453E+02 
 +4.717828E+02 -1.027354E+01 -3.479256E+01 -1.027354E+01 +8.716478E+02 -9.474630E+00 -3.479256E+01 -9.474630E+00 +3.703220E+02 
 +4.773714E+02 -1.748633E+01 -6.156996E+00 -1.748633E+01 +8.706701E+02 -1.039348E+01 -6.156996E+00 -1.039348E+01 +3.996801E+02 
 +4.711140E+02 -3.643293E+00 +2.050779E+00 -3.643293E+00 +8.469568E+02 -1.382551E+01 +2.050779E+00 -1.382551E+01 +4.033222E+02 
 +4.641664E+02 +2.424897E+00 +8.568218E+00 +2.424897E+00 +8.349575E+02 -1.319596E+01 +8.568218E+00 -1.319596E+01 +3.909839E+02 
 +4.732436E+02 -3.397162E+00 +1.003666E+01 -3.397162E+00 +8.405456E+02 -6.223702E+00 +1.003666E+01 -6.223702E+00 +3.870431E+02 
 +4.579675E+02 -9.812166E+00 -3.724375E+00 -9.812166E+00 +8.247617E+02 +4.108388E+00 -3.724375E+00 +4.108388E+00 +3.595547E+02 
 +4.779679E+02 -1.281817E+01 +5.828049E+00 -1.281817E+01 +8.365389E+02 +2.569335E+00 +5.828049E+00 +2.569335E+00 +3.471795E+02 
 +5.108062E+02 -1.183496E+01 +1.302088E+01 -1.183496E+01 +8.489706E+02 -1.175257E+01 +1.302088E+01 -1.175257E+01 +3.555267E+02 
 +4.930513E+02 -1.076983E+01 +5.149256E-01 -1.076983E+01 +8.332371E+02 -6.159636E+00 +5.149256E-01 -6.159636E+00 +3.502740E+02 
 +5.014035E+02 -1.152079E+01 +5.028480E-01 -1.152079E+01 +8.358049E+02 -6.203318E-01 +5.028480E-01 -6.203318E-01 +3.633774E+02 
 +5.219970E+02 -8.703641E+00 -9.793864E+00 -8.703641E+00 +8.541819E+02 +2.444367E+00 -9.793864E+00 +2.444367E+00 +3.988298E+02 
 +5.178875E+02 -6.019634E+00 -4.869193E+00 -6.019634E+00 +8.704272E+02 +1.322724E-01 -4.869193E+00 +1.322724E-01 +4.040054E+02 
 +4.946387E+02 +1.040196E+01 +3.031238E+01 +1.040196E+01 +8.790944E+02 +1.841223E+00 +3.031238E+01 +1.841223E+00 +3.705688E+02 
 +5.152882E+02 +7.287987E+00 +3.444860E+01 +7.287987E+00 +8.996718E+02 +1.145954E+01 +3.444860E+01 +1.145954E+01 +3.776796E+02 
 +5.153691E+02 +5.855797E+00 +3.143043E+01 +5.855797E+00 +8.960918E+02 +1.028053E+01 +3.143043E+01 +1.028053E+01 +3.710839E+02 
 +4.924296E+02 +1.300997E+00 +5.074426E+00 +1.300997E+00 +8.883149E+02 -6.707991E-01 +5.074426E+00 -6.707991E-01 +3.499906E+02 
 +4.861427E+02 +1.191322E+01 -6.556515E+00 +1.191322E+01 +8.821389E+02 -6.202808E+00 -6.556515E+00 -6.202808E+00 +3.406580E+02 
 +4.777864E+02 +1.277460E+01 -1.965195E+01 +1.277460E+01 +8.620282E+02 -4.392303E+00 -1.965195E+01 -4.392303E+00 +3.237843E+02 
 +4.800840E+02 +6.499212E+00 -2.617837E+01 +6.499212E+00 +8.602623E+02 -5.338290E+00 -2.617837E+01 -5.338290E+00 +3.177534E+02 
 +4.711643E+02 +2.407873E-01 -3.239433E+01 +2.407873E-01 +8.583441E+02 -8.950773E+00 -3.239433E+01 -8.950773E+00 +3.158327E+02 
 +4.692463E+02 -8.385269E+00 -3.792491E+01 -8.385269E+00 +8.626757E+02 -6.855831E+00 -3.792491E+01 -6.855831E+00 +3.406854E+02 
 +4.586335E+02 -1.113493E+01 -1.610020E+01 -1.113493E+01 +8.636138E+02 -2.415286E+00 -1.610020E+01 -2.415286E+00 +3.713684E+02 
 +4.649646E+02 -1.876969E+01 -3.133912E+00 -1.876969E+01 +8.786990E+02 -5.286365E+00 -3.133912E+00 -5.286365E+00 +3.909335E+02 
 +4.832512E+02 -1.355486E+01 +1.282106E+00 -1.355486E+01 +8.962306E+02 -8.472125E+00 +1.282106E+00 -8.472125E+00 +4.015314E+02 
 +4.576757E+02 -1.139964E+01 +2.413086E+00 -1.139964E+01 +8.619811E+02 -1.103112E+01 +2.413086E+00 -1.103112E+01 +3.806609E+02 
 +4.858901E+02 -1.248398E+01 -3.065281E+00 -1.248398E+01 +8.461935E+02 -1.216752E+01 -3.065281E+00 -1.216752E+01 +3.664927E+02 
 +4.560922E+02 -2.630326E+00 -1.276465E+01 -2.630326E+00 +8.286759E+02 -6.894192E+00 -1.276465E+01 -6.894192E+00 +3.376888E+02 
 +5.060123E+02 -9.014439E+00 +1.129628E+01 -9.014439E+00 +8.586284E+02 -6.498816E+00 +1.129628E+01 -6.498816E+00 +3.591245E+02 
 +5.233474E+02 -6.577720E+00 +1.657958E+01 -6.577720E+00 +8.538941E+02 -1.197665E+01 +1.657958E+01 -1.197665E+01 +3.712781E+02 
 +5.165453E+02 -9.369424E+00 +6.014019E+00 -9.369424E+00 +8.433048E+02 -6.394572E+00 +6.014019E+00 -6.394572E+00 +3.675765E+02 
 +5.073667E+02 -1.054429E+01 -5.692272E-01 -1.054429E+01 +8.363846E+02 -3.044274E-01 -5.692272E-01 -3.044274E-01 +3.748635E+02 
 +5.021947E+02 -9.663892E+00 -2.302885E+00 -9.663892E+00 +8.434265E+02 +4.695577E+00 -2.302885E+00 +4.695577E+00 +3.909126E+02 
 +5.021489E+02 -5.717058E+00 +2.911281E+00 -5.717058E+00 +8.699927E+02 +4.798268E+00 +2.911281E+00 +4.798268E+00 +4.011778E+02 
 +4.931739E+02 +5.780852E+00 +2.661496E+01 +5.780852E+00 +8.813000E+02 +2.187914E+00 +2.661496E+01 +2.187914E+00 +3.881427E+02 
 +5.283672E+02 +2.458465E+00 +2.707905E+01 +2.458465E+00 +9.021328E+02 +2.718012E+00 +2.707905E+01 +2.718012E+00 +4.019795E+02 
 +5.267801E+02 +2.288654E+00 +2.013947E+01 +2.288654E+00 +8.996273E+02 +6.418782E-01 +2.013947E+01 +6.418782E-01 +3.857138E+02 
 +4.988144E+02 +3.282363E+00 -1.766153E+01 +3.282363E+00 +8.893234E+02 -4.577997E+00 -1.766153E+01 -4.577997E+00 +3.596731E+02 
 +4.761995E+02 +8.068528E+00 -7.459031E+00 +8.068528E+00 +8.773102E+02 -4.302920E+00 -7.459031E+00 -4.302920E+00 +3.361747E+02 
 +4.746659E+02 +1.034476E+01 -1.652056E+01 +1.034476E+01 +8.625921E+02 -4.341132E+00 -1.652056E+01 -4.341132E+00 +3.221570E+02 
 +4.882285E+02 +5.473516E+00 -1.858757E+01 +5.473516E+00 +8.603956E+02 -6.597989E+00 -1.858757E+01 -6.597989E+00 +3.263313E+02 
 +4.745120E+02 +2.407400E-01 -3.647995E+01 +2.407400E-01 +8.562029E+02 -9.436986E+00 -3.647995E+01 -9.436986E+00 +3.229328E+02 
 +4.451463E+02 -1.221336E+01 -1.450672E+01 -1.221336E+01 +8.505130E+02 -1.105195E+00 -1.450672E+01 -1.105195E+00 +3.384206E+02 
 +4.527933E+02 -1.754559E+01 -5.762903E+00 -1.754559E+01 +8.642938E+02 +5.210389E+00 -5.762903E+00 +5.210389E+00 +3.703918E+02 
 +4.515641E+02 -2.045818E+01 +6.930960E+00 -2.045818E+01 +8.690865E+02 -4.940658E-01 +6.930960E+00 -4.940658E-01 +3.719280E+02 
 +4.607216E+02 -9.102301E+00 -2.475942E+00 -9.102301E+00 +8.708350E+02 -3.706798E+00 -2.475942E+00 -3.706798E+00 +3.734341E+02 
 +4.593746E+02 +1.734943E-01 -4.820967E+00 +1.734943E-01 +8.543701E+02 -6.124684E+00 -4.820967E+00 -6.124684E+00 +3.678761E+02 
 +4.863557E+02 +2.770359E+00 -1.977239E+01 +2.770359E+00 +8.526825E+02 -5.564877E+00 -1.977239E+01 -5.564877E+00 +3.593605E+02 
 +4.677543E+02 +8.584209E+00 -1.385977E+01 +8.584209E+00 +8.318825E+02 -4.750893E+00 -1.385977E+01 -4.750893E+00 +3.410336E+02 
 +5.137062E+02 -5.633616E+00 +1.334237E+01 -5.633616E+00 +8.539141E+02 -8.559053E+00 +1.334237E+01 -8.559053E+00 +3.674674E+02 
 +5.293525E+02 -7.094286E+00 +1.283811E+01 -7.094286E+00 +8.525215E+02 -7.773677E+00 +1.283811E+01 -7.773677E+00 +3.819514E+02 
 +5.337893E+02 -7.786745E+00 +3.547155E+00 -7.786745E+00 +8.507869E+02 -2.017518E+00 +3.547155E+00 -2.017518E+00 +3.767659E+02 
 +5.127583E+02 -4.120370E+00 +4.182706E+00 -4.120370E+00 +8.561554E+02 -1.087413E+00 +4.182706E+00 -1.087413E+00 +3.776379E+02 
 +4.955539E+02 -1.163297E+00 +1.371594E+01 -1.163297E+00 +8.827623E+02 +8.273265E-01 +1.371594E+01 +8.273265E-01 +3.830841E+02 
 +5.026918E+02 +2.034700E+00 +1.537993E+01 +2.034700E+00 +9.063393E+02 +6.226244E+00 +1.537993E+01 +6.226244E+00 +4.037735E+02 
 +5.033622E+02 +4.137060E+00 +1.452153E+01 +4.137060E+00 +8.954797E+02 +5.191699E+00 +1.452153E+01 +5.191699E+00 +4.083929E+02 
 +5.375336E+02 +1.324780E+00 +1.922230E+01 +1.324780E+00 +9.040742E+02 +2.675972E+00 +1.922230E+01 +2.675972E+00 +4.173376E+02 
 +5.366728E+02 +1.118703E+00 -2.042342E+00 +1.118703E+00 +9.017779E+02 -2.949482E+00 -2.042342E+00 -2.949482E+00 +3.924490E+02 
 +5.064501E+02 +4.844603E+00 -2.496612E+01 +4.844603E+00 +8.832339E+02 -9.109895E+00 -2.496612E+01 -9.109895E+00 +3.623743E+02 
 +4.806514E+02 +9.738148E+00 -1.234766E+01 +9.738148E+00 +8.691565E+02 -1.525369E+01 -1.234766E+01 -1.525369E+01 +3.460277E+02 
 +4.696066E+02 +1.183270E+01 -3.067447E+00 +1.183270E+01 +8.595209E+02 -1.707573E+01 -3.067447E+00 -1.707573E+01 +3.288132E+02 
 +4.821440E+02 +6.626531E+00 +7.782566E-01 +6.626531E+00 +8.649798E+02 -8.869857E+00 +7.782566E-01 -8.869857E+00 +3.343688E+02 
 +4.702054E+02 -4.350093E+00 -1.921172E+01 -4.350093E+00 +8.614423E+02 +6.006816E+00 -1.921172E+01 +6.006816E+00 +3.295967E+02 
 +4.377255E+02 -1.628163E+01 +5.398617E+00 -1.628163E+01 +8.560698E+02 +1.688159E+01 +5.398617E+00 +1.688159E+01 +3.371263E+02 
 +4.558917E+02 -1.617194E+01 -6.828708E+00 -1.617194E+01 +8.735848E+02 +1.098658E+01 -6.828708E+00 +1.098658E+01 +3.672618E+02 
 +4.676085E+02 -1.380516E+01 +6.426470E+00 -1.380516E+01 +8.716829E+02 +4.710574E+00 +6.426470E+00 +4.710574E+00 +3.704299E+02 
 +4.778833E+02 -2.240720E+00 -9.985742E+00 -2.240720E+00 +8.664592E+02 +2.593433E+00 -9.985742E+00 +2.593433E+00 +3.756255E+02 
 +4.827241E+02 +5.077069E+00 -8.632761E+00 +5.077069E+00 +8.617416E+02 -5.055005E+00 -8.632761E+00 -5.055005E+00 +3.742015E+02 
 +4.769409E+02 +9.682807E+00 -1.502377E+01 +9.682807E+00 +8.575600E+02 -1.205503E+01 -1.502377E+01 -1.205503E+01 +3.691360E+02 
 +4.714787E+02 +1.253492E+01 -1.408176E+01 +1.253492E+01 +8.390990E+02 -9.067063E+00 -1.408176E+01 -9.067063E+00 +3.590631E+02 
 +5.123106E+02 -1.565171E+00 +2.659603E+00 -1.565171E+00 +8.461468E+02 -9.130365E+00 +2.659603E+00 -9.130365E+00 +3.755716E+02 
 +5.403132E+02 -6.383383E+00 +5.734640E+00 -6.383383E+00 +8.597753E+02 -3.509449E+00 +5.734640E+00 -3.509449E+00 +3.933171E+02 
 +5.234890E+02 -3.226477E+00 +2.589961E+00 -3.226477E+00 +8.489936E+02 +2.435474E+00 +2.589961E+00 +2.435474E+00 +3.846431E+02 
 +5.287528E+02 -4.985253E+00 -6.065974E+00 -4.985253E+00 +8.800873E+02 +1.403056E+00 -6.065974E+00 +1.403056E+00 +3.861381E+02 
 +5.008022E+02 -2.396449E+00 +6.511360E+00 -2.396449E+00 +9.013576E+02 -3.818652E+00 +6.511360E+00 -3.818652E+00 +3.849393E+02 
 +5.036691E+02 -1.914578E+00 +5.894463E+00 -1.914578E+00 +9.123135E+02 -3.966860E+00 +5.894463E+00 -3.966860E+00 +4.019419E+02 
 +5.123537E+02 -5.462390E-03 +7.566853E+00 -5.462390E-03 +9.123757E+02 -1.081650E+00 +7.566853E+00 -1.081650E+00 +4.291091E+02 
 +5.130140E+02 +2.055628E-01 +5.304075E+00 +2.055628E-01 +9.001444E+02 +3.493247E+00 +5.304075E+00 +3.493247E+00 +4.111217E+02 
 +5.123572E+02 -2.027978E+00 -3.616761E+01 -2.027978E+00 +8.826199E+02 -3.153718E+00 -3.616761E+01 -3.153718E+00 +3.666438E+02 
 +5.153920E+02 +4.196226E+00 -2.551109E+01 +4.196226E+00 +8.825853E+02 -1.081085E+01 -2.551109E+01 -1.081085E+01 +3.653710E+02 
 +5.172133E+02 +1.126282E+01 -2.445337E+01 +1.126282E+01 +8.842561E+02 -1.324223E+01 -2.445337E+01 -1.324223E+01 +3.614618E+02 
 +5.141038E+02 +1.227234E+01 -8.980373E+00 +1.227234E+01 +8.851969E+02 -9.999611E+00 -8.980373E+00 -9.999611E+00 +3.463918E+02 
 +4.894409E+02 +4.360982E+00 +1.747973E+01 +4.360982E+00 +8.766149E+02 -3.689255E+00 +1.747973E+01 -3.689255E+00 +3.324377E+02 
 +4.917169E+02 +1.361083E+00 +1.723123E+01 +1.361083E+00 +8.962665E+02 +6.216611E+00 +1.723123E+01 +6.216611E+00 +3.620413E+02 
 +4.739500E+02 -3.884197E+00 +1.144360E+01 -3.884197E+00 +9.047514E+02 +1.267609E+01 +1.144360E+01 +1.267609E+01 +3.523816E+02 
 +4.480959E+02 -1.115088E+01 +5.592129E+00 -1.115088E+01 +8.839761E+02 +9.524090E+00 +5.592129E+00 +9.524090E+00 +3.477277E+02 
 +4.508763E+02 -1.068778E+01 +1.172277E+01 -1.068778E+01 +8.669330E+02 +4.434140E+00 +1.172277E+01 +4.434140E+00 +3.754418E+02 
 +4.750250E+02 -3.966406E+00 -6.823946E+00 -3.966406E+00 +8.636267E+02 -3.349583E+00 -6.823946E+00 -3.349583E+00 +3.764612E+02 
 +4.783928E+02 +1.677638E+00 -9.587045E+00 +1.677638E+00 +8.535503E+02 -7.186990E+00 -9.587045E+00 -7.186990E+00 +3.690321E+02 
 +4.810597E+02 +7.761049E+00 -5.661826E+00 +7.761049E+00 +8.562597E+02 -8.719599E+00 -5.661826E+00 -8.719599E+00 +3.742747E+02 
 +4.660814E+02 +1.114773E+01 -1.191462E+01 +1.114773E+01 +8.385896E+02 -2.493574E+00 -1.191462E+01 -2.493574E+00 +3.675380E+02 
 +5.144480E+02 -1.379196E+00 +2.227227E+00 -1.379196E+00 +8.523275E+02 +3.716949E-01 +2.227227E+00 +3.716949E-01 +3.841131E+02 
 +5.637148E+02 -6.900860E+00 -1.034410E+00 -6.900860E+00 +8.893625E+02 +9.297666E+00 -1.034410E+00 +9.297666E+00 +4.106349E+02 
 +5.345824E+02 +1.658688E-01 +7.525036E+00 +1.658688E-01 +9.004087E+02 +6.543248E+00 +7.525036E+00 +6.543248E+00 +3.965522E+02 
 +5.279713E+02 -4.757371E+00 +9.638027E-01 -4.757371E+00 +9.228472E+02 -1.997444E+00 +9.638027E-01 -1.997444E+00 +3.870952E+02 
 +4.976003E+02 -4.528204E+00 +1.114192E+01 -4.528204E+00 +9.073599E+02 -5.760503E+00 +1.114192E+01 -5.760503E+00 +3.721498E+02 
 +5.056691E+02 -5.305788E+00 +2.845288E+00 -5.305788E+00 +9.112671E+02 -5.822550E+00 +2.845288E+00 -5.822550E+00 +3.902316E+02 
 +5.061554E+02 -4.593461E+00 -1.977623E+00 -4.593461E+00 +9.122076E+02 -7.930988E+00 -1.977623E+00 -7.930988E+00 +4.181763E+02 
 +5.019085E+02 -2.777162E+00 -9.050245E+00 -2.777162E+00 +8.982390E+02 -1.376383E+01 -9.050245E+00 -1.376383E+01 +4.038351E+02 
 +5.143436E+02 -2.243441E+00 -3.972915E+01 -2.243441E+00 +8.841608E+02 -9.790290E+00 -3.972915E+01 -9.790290E+00 +3.663290E+02 
 +5.327712E+02 +3.806651E-01 -2.961148E+01 +3.806651E-01 +8.839096E+02 -2.304757E+00 -2.961148E+01 -2.304757E+00 +3.705588E+02 
 +5.285818E+02 +3.581094E+00 -3.162522E+01 +3.581094E+00 +8.852034E+02 -8.045897E+00 -3.162522E+01 -8.045897E+00 +3.718734E+02 
 +4.999432E+02 +1.236288E+00 +1.370319E+01 +1.236288E+00 +8.803940E+02 -6.093398E+00 +1.370319E+01 -6.093398E+00 +3.524562E+02 
 +4.813133E+02 -1.002302E+01 +2.565568E+01 -1.002302E+01 +8.783624E+02 -3.163588E+00 +2.565568E+01 -3.163588E+00 +3.327769E+02 
 +4.728341E+02 -9.625367E+00 +2.883110E+01 -9.625367E+00 +8.842514E+02 +1.016444E-01 +2.883110E+01 +1.016444E-01 +3.573903E+02 
 +4.974096E+02 -1.841094E+01 -1.089060E+01 -1.841094E+01 +8.826425E+02 +8.285796E+00 -1.089060E+01 +8.285796E+00 +3.670973E+02 
 +4.810229E+02 -1.750717E+01 +5.502210E+00 -1.750717E+01 +8.607945E+02 +1.101476E+01 +5.502210E+00 +1.101476E+01 +3.594158E+02 
 +4.688029E+02 -4.817615E+00 +1.062688E+01 -4.817615E+00 +8.739579E+02 +9.150365E+00 +1.062688E+01 +9.150365E+00 +3.853221E+02 
 +4.756884E+02 -3.222554E+00 -2.627287E+00 -3.222554E+00 +8.788046E+02 +8.794259E-01 -2.627287E+00 +8.794259E-01 +3.882841E+02 
 +4.866717E+02 +1.539252E+00 -7.312355E+00 +1.539252E+00 +8.729135E+02 -3.280965E+00 -7.312355E+00 -3.280965E+00 +3.901926E+02 
 +4.850013E+02 +7.571997E+00 -9.029375E+00 +7.571997E+00 +8.640529E+02 -2.104596E+00 -9.029375E+00 -2.104596E+00 +3.906423E+02 
 +4.814468E+02 +6.895917E+00 -1.448804E+01 +6.895917E+00 +8.537464E+02 +4.194068E+00 -1.448804E+01 +4.194068E+00 +3.886277E+02 
 +4.953423E+02 +2.806520E+00 -7.356098E+00 +2.806520E+00 +8.526501E+02 +7.198779E+00 -7.356098E+00 +7.198779E+00 +3.912110E+02 
 +5.328913E+02 -1.083020E+01 -1.269862E+01 -1.083020E+01 +8.999305E+02 +6.002134E+00 -1.269862E+01 +6.002134E+00 +3.904913E+02 
 +5.288295E+02 -6.089419E+00 -5.358724E+00 -6.089419E+00 +9.152412E+02 +2.833113E-01 -5.358724E+00 +2.833113E-01 +3.839126E+02 
 +5.074747E+02 -8.709850E+00 -4.285647E+00 -8.709850E+00 +9.091437E+02 -6.288634E+00 -4.285647E+00 -6.288634E+00 +3.675160E+02 
 +5.112539E+02 -7.436049E+00 +8.457647E-01 -7.436049E+00 +9.145164E+02 -6.928614E+00 +8.457647E-01 -6.928614E+00 +3.716395E+02 
 +5.085605E+02 -8.332988E+00 -4.768830E+00 -8.332988E+00 +9.133716E+02 -1.036848E+01 -4.768830E+00 -1.036848E+01 +3.850592E+02 
 +5.000672E+02 -7.353391E+00 -1.873290E+01 -7.353391E+00 +9.088939E+02 -1.730087E+01 -1.873290E+01 -1.730087E+01 +4.033689E+02 
 +4.997678E+02 -6.640257E+00 -2.845504E+01 -6.640257E+00 +8.982527E+02 -2.286524E+01 -2.845504E+01 -2.286524E+01 +3.946737E+02 
 +5.087179E+02 -8.704246E+00 -3.547385E+01 -8.704246E+00 +8.862411E+02 -1.358828E+01 -3.547385E+01 -1.358828E+01 +3.647623E+02 
 +5.227202E+02 -8.036097E+00 -2.662391E+01 -8.036097E+00 +8.824541E+02 +1.815245E+00 -2.662391E+01 +1.815245E+00 +3.554156E+02 
 +5.204613E+02 -6.395754E+00 -3.356181E+01 -6.395754E+00 +8.843734E+02 +4.022333E+00 -3.356181E+01 +4.022333E+00 +3.757963E+02 
 +4.972837E+02 -6.516914E+00 +1.924127E+01 -6.516914E+00 +8.790484E+02 -1.950537E+00 +1.924127E+01 -1.950537E+00 +3.719372E+02 
 +4.895276E+02 -9.330760E+00 +1.451632E+01 -9.330760E+00 +8.865253E+02 -5.700070E+00 +1.451632E+01 -5.700070E+00 +3.506469E+02 
 +4.791376E+02 -9.536136E+00 +1.979414E+01 -9.536136E+00 +8.774265E+02 -4.969790E+00 +1.979414E+01 -4.969790E+00 +3.580247E+02 
 +5.146017E+02 -2.287720E+01 -1.754074E+01 -2.287720E+01 +8.646908E+02 +3.089567E+00 -1.754074E+01 +3.089567E+00 +3.753480E+02 
 +5.067322E+02 -2.342759E+01 +1.640356E+00 -2.342759E+01 +8.507630E+02 +9.443286E+00 +1.640356E+00 +9.443286E+00 +3.767803E+02 
 +4.923009E+02 -1.595454E+01 +2.038502E+00 -1.595454E+01 +8.599096E+02 +8.923362E+00 +2.038502E+00 +8.923362E+00 +3.899624E+02 
 +4.790300E+02 -1.039507E+01 +2.380127E+00 -1.039507E+01 +8.663310E+02 +6.598025E+00 +2.380127E+00 +6.598025E+00 +3.946908E+02 
 +4.664150E+02 -3.762727E-01 -8.047825E+00 -3.762727E-01 +8.597929E+02 +4.761707E+00 -8.047825E+00 +4.761707E+00 +3.926967E+02 
 +4.765315E+02 +2.816620E+00 -1.132668E+01 +2.816620E+00 +8.559915E+02 +4.398885E+00 -1.132668E+01 +4.398885E+00 +3.961299E+02 
 +4.827280E+02 +3.255025E-01 -1.363816E+01 +3.255025E-01 +8.541540E+02 +4.734169E+00 -1.363816E+01 +4.734169E+00 +4.020238E+02 
 +4.876073E+02 -5.129921E+00 -1.358039E+01 -5.129921E+00 +8.576216E+02 +5.012445E+00 -1.358039E+01 +5.012445E+00 +3.888237E+02 
 +4.839309E+02 -9.570881E+00 -1.300482E+01 -9.570881E+00 +8.766762E+02 -5.580862E+00 -1.300482E+01 -5.580862E+00 +3.658075E+02 
 +5.249714E+02 -4.235580E+00 -2.175120E+01 -4.235580E+00 +9.134695E+02 -2.501122E+00 -2.175120E+01 -2.501122E+00 +3.857477E+02 
 +5.166522E+02 -8.382441E+00 -1.272610E+01 -8.382441E+00 +9.125848E+02 -4.310355E+00 -1.272610E+01 -4.310355E+00 +3.788211E+02 
 +5.218052E+02 -1.061623E+01 -7.597026E+00 -1.061623E+01 +9.167469E+02 -8.443171E+00 -7.597026E+00 -8.443171E+00 +3.850145E+02 
 +5.204442E+02 -1.060465E+01 -1.236850E+01 -1.060465E+01 +9.153485E+02 -1.314473E+01 -1.236850E+01 -1.314473E+01 +3.952990E+02 
 +5.028585E+02 -7.594708E+00 -3.370738E+01 -7.594708E+00 +9.016382E+02 -1.658583E+01 -3.370738E+01 -1.658583E+01 +4.012229E+02 
 +5.068124E+02 -2.784499E+00 -3.903285E+01 -2.784499E+00 +8.983610E+02 -1.607287E+01 -3.903285E+01 -1.607287E+01 +4.016319E+02 
 +4.971408E+02 -4.156694E+00 -2.628262E+01 -4.156694E+00 +8.827206E+02 -7.940672E+00 -2.628262E+01 -7.940672E+00 +3.802469E+02 
 +4.920969E+02 -6.857947E+00 -1.825907E+01 -6.857947E+00 +8.735783E+02 -2.463979E-02 -1.825907E+01 -2.463979E-02 +3.640266E+02 
 +5.015704E+02 -8.605477E+00 -2.524442E+01 -8.605477E+00 +8.759263E+02 +1.391956E+01 -2.524442E+01 +1.391956E+01 +3.795297E+02 
 +4.926888E+02 -8.734441E+00 +4.082357E+00 -8.734441E+00 +8.541799E+02 +2.319598E+01 +4.082357E+00 +2.319598E+01 +3.732001E+02 
 +4.818041E+02 -3.561330E+00 +2.704581E+00 -3.561330E+00 +8.351882E+02 +1.459658E+01 +2.704581E+00 +1.459658E+01 +3.550134E+02 
 +4.913178E+02 -1.313390E+01 +5.966050E+00 -1.313390E+01 +8.307761E+02 +7.067423E+00 +5.966050E+00 +7.067423E+00 +3.611789E+02 
 +5.031671E+02 -2.090820E+01 -4.347918E+00 -2.090820E+01 +8.374930E+02 +7.521234E+00 -4.347918E+00 +7.521234E+00 +3.717713E+02 
 +5.049066E+02 -1.757463E+01 +2.972006E+00 -1.757463E+01 +8.504964E+02 +8.811253E+00 +2.972006E+00 +8.811253E+00 +3.802737E+02 
 +5.044848E+02 -1.774061E+01 +3.064851E+00 -1.774061E+01 +8.509939E+02 +5.444457E+00 +3.064851E+00 +5.444457E+00 +3.888357E+02 
 +5.034108E+02 -1.851725E+01 +2.443207E+00 -1.851725E+01 +8.567018E+02 +4.302093E+00 +2.443207E+00 +4.302093E+00 +3.975735E+02 
 +4.616225E+02 -5.454542E+00 -9.490144E+00 -5.454542E+00 +8.484076E+02 +4.178096E+00 -9.490144E+00 +4.178096E+00 +3.871794E+02 
 +4.587318E+02 -1.256965E+00 -1.136663E+01 -1.256965E+00 +8.516137E+02 -2.847561E-01 -1.136663E+01 -2.847561E-01 +3.903262E+02 
 +4.696491E+02 -4.487702E+00 -1.727248E+01 -4.487702E+00 +8.569186E+02 -5.620587E+00 -1.727248E+01 -5.620587E+00 +4.004032E+02 
 +4.713289E+02 -1.004042E+01 -1.419658E+01 -1.004042E+01 +8.591005E+02 -8.557707E+00 -1.419658E+01 -8.557707E+00 +3.784724E+02 
 +4.643109E+02 -4.686863E+00 +2.175447E+00 -4.686863E+00 +8.640924E+02 -1.282468E+01 +2.175447E+00 -1.282468E+01 +3.701812E+02 
 +5.112951E+02 +2.085491E+00 -2.054514E+01 +2.085491E+00 +8.821618E+02 -1.913092E+01 -2.054514E+01 -1.913092E+01 +3.823929E+02 
 +5.064544E+02 +7.548303E-02 -1.466426E+01 +7.548303E-02 +8.799999E+02 -1.754397E+01 -1.466426E+01 -1.754397E+01 +3.807274E+02 
 +5.123380E+02 -2.147086E+00 -1.264654E+01 -2.147086E+00 +8.828900E+02 -2.090721E+01 -1.264654E+01 -2.090721E+01 +3.827030E+02 
 +5.191934E+02 -1.339295E+00 -1.507136E+01 -1.339295E+00 +8.890925E+02 -2.622296E+01 -1.507136E+01 -2.622296E+01 +3.867727E+02 
 +5.059022E+02 -3.887850E-01 -3.797187E+01 -3.887850E-01 +8.851560E+02 -2.315899E+01 -3.797187E+01 -2.315899E+01 +3.921063E+02 
 +5.089661E+02 +3.035182E+00 -3.232223E+01 +3.035182E+00 +8.828145E+02 -1.108380E+01 -3.232223E+01 -1.108380E+01 +4.099324E+02 
 +4.785509E+02 +2.180399E+00 -1.578639E+01 +2.180399E+00 +8.702807E+02 -3.097152E+00 -1.578639E+01 -3.097152E+00 +4.030726E+02 
 +4.520987E+02 -1.470286E+00 -1.804702E+01 -1.470286E+00 +8.520702E+02 -2.157038E+00 -1.804702E+01 -2.157038E+00 +3.813624E+02 
 +4.846626E+02 -1.321699E+00 -2.165740E+01 -1.321699E+00 +8.410026E+02 +3.580496E+00 -2.165740E+01 +3.580496E+00 +3.728011E+02 
 +4.739417E+02 +6.769708E+00 -2.327469E+00 +6.769708E+00 +8.124816E+02 +7.978225E+00 -2.327469E+00 +7.978225E+00 +3.562040E+02 
 +4.878600E+02 +1.184061E+01 +2.584309E+00 +1.184061E+01 +8.178197E+02 +5.471940E+00 +2.584309E+00 +5.471940E+00 +3.696080E+02 
 +4.997062E+02 -1.327158E+01 +2.578280E+00 -1.327158E+01 +8.235995E+02 +8.979321E+00 +2.578280E+00 +8.979321E+00 +3.708309E+02 
 +4.984727E+02 -2.008143E+01 +6.089965E+00 -2.008143E+01 +8.295515E+02 +1.296049E+01 +6.089965E+00 +1.296049E+01 +3.616268E+02 
 +5.052813E+02 -1.737650E+01 +5.842548E+00 -1.737650E+01 +8.457428E+02 +8.726141E+00 +5.842548E+00 +8.726141E+00 +3.700577E+02 
 +5.045733E+02 -1.582798E+01 +8.738738E+00 -1.582798E+01 +8.511468E+02 +3.836076E+00 +8.738738E+00 +3.836076E+00 +3.787068E+02 
 +5.031123E+02 -1.714591E+01 +7.248105E+00 -1.714591E+01 +8.496207E+02 +6.169713E-01 +7.248105E+00 +6.169713E-01 +3.748093E+02 
 +4.688002E+02 -1.059947E+01 -7.803299E-01 -1.059947E+01 +8.347998E+02 -3.883301E-01 -7.803299E-01 -3.883301E-01 +3.685674E+02 
 +4.312229E+02 -6.314132E+00 -7.719867E+00 -6.314132E+00 +8.324574E+02 -3.183270E+00 -7.719867E+00 -3.183270E+00 +3.734858E+02 
 +4.608503E+02 -7.764426E+00 -1.596679E+01 -7.764426E+00 +8.618389E+02 -5.504089E+00 -1.596679E+01 -5.504089E+00 +3.951740E+02 
 +4.557653E+02 -6.234578E+00 -1.594763E+00 -6.234578E+00 +8.624071E+02 -5.804900E+00 -1.594763E+00 -5.804900E+00 +3.828064E+02 
 +4.619639E+02 +8.811094E-01 +7.991037E+00 +8.811094E-01 +8.647878E+02 -1.252209E+01 +7.991037E+00 -1.252209E+01 +3.804671E+02 
 +4.982266E+02 +6.205622E+00 -1.218724E+01 +6.205622E+00 +8.696331E+02 -2.009540E+01 -1.218724E+01 -2.009540E+01 +3.848507E+02 
 +5.130827E+02 +5.540358E+00 -2.306220E+01 +5.540358E+00 +8.708387E+02 -1.838142E+01 -2.306220E+01 -1.838142E+01 +3.862917E+02 
 +5.186941E+02 +2.527209E+00 -2.309934E+01 +2.527209E+00 +8.736258E+02 -2.101101E+01 -2.309934E+01 -2.101101E+01 +3.777659E+02 
 +5.192522E+02 +7.165866E+00 -2.446747E+01 +7.165866E+00 +8.728720E+02 -3.110854E+01 -2.446747E+01 -3.110854E+01 +3.745838E+02 
 +5.226798E+02 +5.812196E+00 -3.184578E+01 +5.812196E+00 +8.797838E+02 -2.840060E+01 -3.184578E+01 -2.840060E+01 +3.950686E+02 
 +4.871262E+02 +4.817077E+00 -1.559957E+01 +4.817077E+00 +8.686560E+02 -5.219029E+00 -1.559957E+01 -5.219029E+00 +4.098128E+02 
 +4.623968E+02 +5.386368E+00 -1.548024E+01 +5.386368E+00 +8.643286E+02 +4.805077E+00 -1.548024E+01 +4.805077E+00 +4.038576E+02 
 +4.533016E+02 +2.521403E+00 -2.428554E+01 +2.521403E+00 +8.564734E+02 +2.842547E+00 -2.428554E+01 +2.842547E+00 +3.771099E+02 
 +4.872918E+02 -6.073122E-01 -2.816380E+01 -6.073122E-01 +8.472604E+02 +3.415164E+00 -2.816380E+01 +3.415164E+00 +3.658607E+02 
 +4.697312E+02 +7.162339E+00 -5.444319E+00 +7.162339E+00 +8.098555E+02 +3.958456E+00 -5.444319E+00 +3.958456E+00 +3.597730E+02 
 +4.747185E+02 +9.852335E+00 +7.594375E+00 +9.852335E+00 +8.054815E+02 +5.251354E+00 +7.594375E+00 +5.251354E+00 +3.812388E+02 
 +4.994690E+02 -8.427162E+00 +7.772425E+00 -8.427162E+00 +8.330763E+02 +9.810929E+00 +7.772425E+00 +9.810929E+00 +3.801441E+02 
 +5.125229E+02 -1.586853E+01 +1.247318E+01 -1.586853E+01 +8.505924E+02 +1.120023E+01 +1.247318E+01 +1.120023E+01 +3.574028E+02 
 +5.097328E+02 -1.621402E+01 +7.471223E+00 -1.621402E+01 +8.451166E+02 +8.930735E+00 +7.471223E+00 +8.930735E+00 +3.590900E+02 
 +5.091471E+02 -1.426878E+01 +1.026158E+01 -1.426878E+01 +8.489854E+02 +7.303006E+00 +1.026158E+01 +7.303006E+00 +3.669833E+02 
 +5.046534E+02 -1.167873E+01 +1.045584E+01 -1.167873E+01 +8.585228E+02 -1.817724E+00 +1.045584E+01 -1.817724E+00 +3.547846E+02 
 +4.920783E+02 -1.248721E+00 +8.432478E+00 -1.248721E+00 +8.757282E+02 -1.348213E+01 +8.432478E+00 -1.348213E+01 +3.653536E+02 
 +4.508301E+02 -7.512531E-01 +5.949307E+00 -7.512531E-01 +8.608560E+02 -1.010050E+01 +5.949307E+00 -1.010050E+01 +3.805406E+02 
 +4.431539E+02 -3.496623E-02 +2.034482E+00 -3.496623E-02 +8.538079E+02 +1.702143E-01 +2.034482E+00 +1.702143E-01 +3.922879E+02 
 +4.525818E+02 +1.911330E+00 +9.565545E+00 +1.911330E+00 +8.652031E+02 -5.602363E-01 +9.565545E+00 -5.602363E-01 +3.930909E+02 
 +4.652011E+02 +3.972802E+00 +7.890962E+00 +3.972802E+00 +8.759800E+02 -6.116108E+00 +7.890962E+00 -6.116108E+00 +3.871431E+02 
 +4.857795E+02 +7.339508E-01 -1.516401E-01 +7.339508E-01 +8.826058E+02 -9.976721E+00 -1.516401E-01 -9.976721E+00 +3.931403E+02 
 +5.359595E+02 +3.537250E+00 -3.081247E+01 +3.537250E+00 +8.881895E+02 -1.718240E+01 -3.081247E+01 -1.718240E+01 +3.981831E+02 
 +5.327717E+02 +2.118638E+00 -3.390508E+01 +2.118638E+00 +8.709509E+02 -2.490947E+01 -3.390508E+01 -2.490947E+01 +3.826408E+02 
 +5.326329E+02 +7.173366E+00 -3.723247E+01 +7.173366E+00 +8.703780E+02 -3.138524E+01 -3.723247E+01 -3.138524E+01 +3.963037E+02 
 +5.367539E+02 +4.832625E+00 -2.270918E+01 +4.832625E+00 +8.803140E+02 -2.560680E+01 -2.270918E+01 -2.560680E+01 +4.152211E+02 
 +4.644075E+02 +6.798036E+00 -7.560670E+00 +6.798036E+00 +8.591870E+02 -6.938605E+00 -7.560670E+00 -6.938605E+00 +4.083052E+02 
 +4.416759E+02 +7.956920E+00 -1.805861E+01 +7.956920E+00 +8.525907E+02 +1.021537E+01 -1.805861E+01 +1.021537E+01 +3.951310E+02 
 +4.803111E+02 -1.255784E+00 -2.608123E+01 -1.255784E+00 +8.569848E+02 +1.666424E+01 -2.608123E+01 +1.666424E+01 +3.771360E+02 
 +4.826277E+02 -2.145696E+00 -2.873738E+01 -2.145696E+00 +8.539943E+02 +1.245828E+01 -2.873738E+01 +1.245828E+01 +3.619722E+02 
 +4.735047E+02 +2.733312E+00 -1.419429E+01 +2.733312E+00 +8.384218E+02 +6.400868E+00 -1.419429E+01 +6.400868E+00 +3.678635E+02 
 +4.585892E+02 +1.189263E+01 +5.389390E+00 +1.189263E+01 +8.067235E+02 +6.658618E+00 +5.389390E+00 +6.658618E+00 +3.823422E+02 
 +4.875234E+02 +3.035493E+00 +1.000475E+01 +3.035493E+00 +8.209374E+02 +1.754799E+01 +1.000475E+01 +1.754799E+01 +3.866318E+02 
 +4.911769E+02 -2.302963E+01 +6.536135E+00 -2.302963E+01 +8.188227E+02 +1.581582E+01 +6.536135E+00 +1.581582E+01 +3.562807E+02 
 +4.957705E+02 -2.341861E+01 +6.130332E+00 -2.341861E+01 +8.195674E+02 +6.657137E+00 +6.130332E+00 +6.657137E+00 +3.442124E+02 
 +5.114212E+02 -1.773570E+01 +4.369038E+00 -1.773570E+01 +8.496183E+02 -2.158100E-01 +4.369038E+00 -2.158100E-01 +3.502719E+02 
 +5.206007E+02 -1.766156E+01 +1.533121E+01 -1.766156E+01 +8.816943E+02 -8.332745E+00 +1.533121E+01 -8.332745E+00 +3.568910E+02 
 +4.997551E+02 -1.023601E+01 +1.218968E+01 -1.023601E+01 +8.785342E+02 -1.352721E+01 +1.218968E+01 -1.352721E+01 +3.532765E+02 
 +4.721481E+02 -9.432476E+00 +1.407715E+01 -9.432476E+00 +8.618736E+02 -1.238796E+01 +1.407715E+01 -1.238796E+01 +3.645893E+02 
 +4.266334E+02 +4.437570E+00 +1.141168E+01 +4.437570E+00 +8.463929E+02 -4.748257E+00 +1.141168E+01 -4.748257E+00 +3.834133E+02 
 +4.528535E+02 +7.698764E+00 +8.761858E+00 +7.698764E+00 +8.671429E+02 -4.057777E+00 +8.761858E+00 -4.057777E+00 +3.994722E+02 
 +4.735667E+02 -1.835558E+00 +6.082938E+00 -1.835558E+00 +8.860072E+02 -1.851236E+00 +6.082938E+00 -1.851236E+00 +3.924730E+02 
 +4.998454E+02 -1.596827E+00 -2.168929E+00 -1.596827E+00 +8.945565E+02 -5.750054E+00 -2.168929E+00 -5.750054E+00 +4.008316E+02 
 +5.485146E+02 +7.292205E+00 -3.430808E+01 +7.292205E+00 +8.950702E+02 -1.991755E+01 -3.430808E+01 -1.991755E+01 +4.102557E+02 
 +5.333026E+02 +4.947030E+00 -3.801914E+01 +4.947030E+00 +8.680274E+02 -3.033833E+01 -3.801914E+01 -3.033833E+01 +4.004067E+02 
 +5.332520E+02 +3.431951E+00 -3.556711E+01 +3.431951E+00 +8.626110E+02 -2.479972E+01 -3.556711E+01 -2.479972E+01 +4.038284E+02 
 +5.329445E+02 +5.663797E+00 -1.616050E+01 +5.663797E+00 +8.717147E+02 -1.426106E+01 -1.616050E+01 -1.426106E+01 +4.061495E+02 
 +4.557539E+02 +9.435390E+00 -8.915722E+00 +9.435390E+00 +8.570751E+02 -3.053272E+00 -8.915722E+00 -3.053272E+00 +4.075259E+02 
 +4.380622E+02 +2.624310E+00 -1.511564E+01 +2.624310E+00 +8.505701E+02 +8.779818E+00 -1.511564E+01 +8.779818E+00 +4.020496E+02 
 +5.008275E+02 -6.612057E+00 -2.399373E+01 -6.612057E+00 +8.678249E+02 +1.266311E+01 -2.399373E+01 +1.266311E+01 +3.904153E+02 
 +4.879711E+02 -4.897791E+00 -2.413786E+01 -4.897791E+00 +8.571022E+02 +1.269667E+01 -2.413786E+01 +1.269667E+01 +3.688951E+02 
 +4.885348E+02 -3.892428E+00 -1.969838E+01 -3.892428E+00 +8.642738E+02 +7.654803E+00 -1.969838E+01 +7.654803E+00 +3.827388E+02 
 +4.473779E+02 +3.654708E+00 -2.679692E+00 +3.654708E+00 +8.373958E+02 +7.130068E+00 -2.679692E+00 +7.130068E+00 +3.941985E+02 
 +5.085859E+02 +5.268286E+00 +5.064259E+00 +5.268286E+00 +8.587654E+02 +1.638950E+01 +5.064259E+00 +1.638950E+01 +4.082117E+02 
 +5.048845E+02 -1.438660E+01 -7.891934E+00 -1.438660E+01 +8.581130E+02 +1.274868E+01 -7.891934E+00 +1.274868E+01 +3.721934E+02 
 +5.178854E+02 -1.091299E+01 -5.829913E-01 -1.091299E+01 +8.742259E+02 +2.725932E+00 -5.829913E-01 +2.725932E+00 +3.571681E+02 
 +5.141768E+02 -1.036891E+01 -7.532126E+00 -1.036891E+01 +8.730243E+02 +1.263710E-01 -7.532126E+00 +1.263710E-01 +3.439390E+02 
 +5.183458E+02 -1.302327E+01 +1.360247E+01 -1.302327E+01 +8.757222E+02 -9.350310E+00 +1.360247E+01 -9.350310E+00 +3.542288E+02 
 +5.122502E+02 -1.119374E+01 +1.879017E+01 -1.119374E+01 +8.728685E+02 -1.796473E+01 +1.879017E+01 -1.796473E+01 +3.511934E+02 
 +5.034875E+02 -1.212529E+01 +1.217964E+01 -1.212529E+01 +8.757826E+02 -1.186980E+01 +1.217964E+01 -1.186980E+01 +3.615026E+02 
 +4.200431E+02 -5.798829E-01 +1.047283E+01 -5.798829E-01 +8.456312E+02 -4.307034E+00 +1.047283E+01 -4.307034E+00 +3.732729E+02 
 +4.423758E+02 -2.280964E+00 +7.092238E+00 -2.280964E+00 +8.649661E+02 -3.619373E+00 +7.092238E+00 -3.619373E+00 +3.954284E+02 
 +4.695421E+02 +6.739775E+00 -1.586752E+00 +6.739775E+00 +8.376309E+02 -1.205955E+01 -1.586752E+00 -1.205955E+01 +3.840484E+02 
 +4.886040E+02 +4.396812E+00 -1.260977E+01 +4.396812E+00 +8.278734E+02 -1.371511E+01 -1.260977E+01 -1.371511E+01 +3.873975E+02 
 +5.046918E+02 +5.715189E+00 -2.828285E+01 +5.715189E+00 +8.338804E+02 -1.660054E+01 -2.828285E+01 -1.660054E+01 +3.935912E+02 
 +5.054870E+02 +4.694843E+00 -3.208351E+01 +4.694843E+00 +8.475716E+02 -1.515928E+01 -3.208351E+01 -1.515928E+01 +4.113347E+02 
 +5.245423E+02 -2.494076E+00 -3.131278E+01 -2.494076E+00 +8.749227E+02 -5.893291E+00 -3.131278E+01 -5.893291E+00 +4.170992E+02 
 +5.461979E+02 -3.324207E+00 -2.103054E+01 -3.324207E+00 +8.957204E+02 -4.258183E+00 -2.103054E+01 -4.258183E+00 +4.190502E+02 
 +4.724836E+02 +5.806022E+00 -1.521246E+01 +5.806022E+00 +8.650445E+02 -2.930227E+00 -1.521246E+01 -2.930227E+00 +4.172169E+02 
 +4.451362E+02 -3.452593E+00 -1.444859E+01 -3.452593E+00 +8.483857E+02 +5.804725E+00 -1.444859E+01 +5.804725E+00 +4.097877E+02 
 +4.968215E+02 -9.680069E+00 -1.893024E+01 -9.680069E+00 +8.705994E+02 +1.072369E+01 -1.893024E+01 +1.072369E+01 +3.936386E+02 
 +5.013193E+02 -1.139858E+01 -1.981594E+01 -1.139858E+01 +8.675571E+02 +1.037585E+01 -1.981594E+01 +1.037585E+01 +3.747881E+02 
 +4.888898E+02 -9.368701E+00 -1.779575E+01 -9.368701E+00 +8.672873E+02 +6.607020E+00 -1.779575E+01 +6.607020E+00 +3.937070E+02 
 +4.461705E+02 -5.425310E+00 -1.048797E+01 -5.425310E+00 +8.515465E+02 +5.284807E+00 -1.048797E+01 +5.284807E+00 +4.053058E+02 
 +5.128727E+02 +4.676661E+00 -7.171587E+00 +4.676661E+00 +8.654057E+02 +6.612716E+00 -7.171587E+00 +6.612716E+00 +4.024096E+02 
 +5.010447E+02 -8.449805E+00 -1.801783E+01 -8.449805E+00 +8.512232E+02 +7.157776E+00 -1.801783E+01 +7.157776E+00 +3.613522E+02 
 +5.116800E+02 -4.780149E+00 -7.860481E+00 -4.780149E+00 +8.702503E+02 +4.395687E+00 -7.860481E+00 +4.395687E+00 +3.541992E+02 
 +5.044964E+02 -2.182213E-01 -1.334329E+01 -2.182213E-01 +8.694581E+02 +5.710615E+00 -1.334329E+01 +5.710615E+00 +3.359776E+02 
 +5.093802E+02 -3.439545E+00 -6.712357E+00 -3.439545E+00 +8.758501E+02 -4.376078E+00 -6.712357E+00 -4.376078E+00 +3.477929E+02 
 +5.116401E+02 -1.090473E+01 +2.687410E+01 -1.090473E+01 +8.739810E+02 -1.670504E+01 +2.687410E+01 -1.670504E+01 +3.496968E+02 
 +4.993832E+02 -1.585287E+01 +1.880388E+01 -1.585287E+01 +8.749594E+02 -8.249381E+00 +1.880388E+01 -8.249381E+00 +3.436995E+02 
 +4.425857E+02 -5.364497E+00 +1.293290E+01 -5.364497E+00 +8.628456E+02 -7.342401E+00 +1.293290E+01 -7.342401E+00 +3.570999E+02 
 +4.230827E+02 -1.134263E+00 +1.139799E+01 -1.134263E+00 +8.432371E+02 -1.280125E+01 +1.139799E+01 -1.280125E+01 +3.681256E+02 
 +4.730323E+02 +1.162594E+01 -9.471626E+00 +1.162594E+01 +8.319561E+02 -1.405738E+01 -9.471626E+00 -1.405738E+01 +3.727611E+02 
 +4.788631E+02 +7.954904E+00 -1.183324E+01 +7.954904E+00 +8.252656E+02 -2.102685E+01 -1.183324E+01 -2.102685E+01 +3.815407E+02 
 +4.788845E+02 +1.893023E+00 -1.634961E+01 +1.893023E+00 +8.268312E+02 -2.367479E+01 -1.634961E+01 -2.367479E+01 +3.783699E+02 
 +4.672006E+02 +5.997504E+00 -1.795699E+01 +5.997504E+00 +8.200184E+02 -1.721460E+01 -1.795699E+01 -1.721460E+01 +3.991895E+02 
 +4.965692E+02 +6.332420E+00 -2.583488E+01 +6.332420E+00 +8.429697E+02 -8.346395E+00 -2.583488E+01 -8.346395E+00 +4.272214E+02 
 +5.144342E+02 +4.794798E+00 -2.090014E+01 +4.794798E+00 +8.559738E+02 -3.703493E+00 -2.090014E+01 -3.703493E+00 +4.219694E+02 
 +4.799549E+02 +9.062455E+00 -1.621349E+01 +9.062455E+00 +8.396044E+02 -2.853378E-01 -1.621349E+01 -2.853378E-01 +4.101126E+02 
 +4.538683E+02 -4.656191E-01 -1.310219E+01 -4.656191E-01 +8.424249E+02 +1.237519E+00 -1.310219E+01 +1.237519E+00 +4.064412E+02 
 +4.848036E+02 -5.151172E+00 -7.766487E+00 -5.151172E+00 +8.709560E+02 +2.383622E+00 -7.766487E+00 +2.383622E+00 +3.946847E+02 
 +5.145296E+02 -1.340559E+01 -1.401200E+01 -1.340559E+01 +8.891383E+02 +4.289711E+00 -1.401200E+01 +4.289711E+00 +3.822334E+02 
 +4.767856E+02 -1.063202E+01 -1.230378E+01 -1.063202E+01 +8.700539E+02 +7.274195E-01 -1.230378E+01 +7.274195E-01 +3.892633E+02 
 +4.789526E+02 -6.165600E+00 -1.556907E+01 -6.165600E+00 +8.758208E+02 -7.096073E+00 -1.556907E+01 -7.096073E+00 +4.119282E+02 
 +5.249399E+02 -4.449453E-01 -1.422192E+01 -4.449453E-01 +8.942932E+02 -9.833908E+00 -1.422192E+01 -9.833908E+00 +4.022668E+02 
 +5.182328E+02 -5.152253E-02 -2.384808E+01 -5.152253E-02 +8.707021E+02 -3.180664E+00 -2.384808E+01 -3.180664E+00 +3.636825E+02 
 +5.095182E+02 +4.667499E+00 -1.773345E+01 +4.667499E+00 +8.636283E+02 +1.317232E-02 -1.773345E+01 +1.317232E-02 +3.468338E+02 
 +5.061804E+02 +6.580663E+00 -1.778277E+01 +6.580663E+00 +8.709614E+02 -2.490343E+00 -1.778277E+01 -2.490343E+00 +3.388762E+02 
 +5.039438E+02 +4.875374E+00 -2.642794E+01 +4.875374E+00 +8.827535E+02 -5.298863E+00 -2.642794E+01 -5.298863E+00 +3.475963E+02 
 +5.123116E+02 +2.399217E+00 +3.041436E+01 +2.399217E+00 +9.023759E+02 -1.990168E+00 +3.041436E+01 -1.990168E+00 +3.462475E+02 
 +4.941370E+02 +1.672609E-01 +2.730511E+01 +1.672609E-01 +8.985547E+02 +5.324866E+00 +2.730511E+01 +5.324866E+00 +3.218933E+02 
 +4.856638E+02 +5.209297E+00 +1.323588E+01 +5.209297E+00 +8.881676E+02 +2.169614E-01 +1.323588E+01 +2.169614E-01 +3.298169E+02 
 +4.423854E+02 +4.833776E+00 +7.610089E+00 +4.833776E+00 +8.428453E+02 -9.565532E+00 +7.610089E+00 -9.565532E+00 +3.322146E+02 
 +4.768247E+02 -3.472690E+00 -5.525794E+00 -3.472690E+00 +8.639508E+02 +1.318941E+01 -5.525794E+00 +1.318941E+01 +3.699933E+02 
 +4.802634E+02 +2.346670E+00 -8.711518E+00 +2.346670E+00 +8.665889E+02 +1.077627E+01 -8.711518E+00 +1.077627E+01 +3.861261E+02 
 +4.872502E+02 -2.512093E+00 -1.347977E+01 -2.512093E+00 +8.698336E+02 +6.445677E+00 -1.347977E+01 +6.445677E+00 +3.847315E+02 
 +4.734749E+02 +1.425134E+00 -5.666264E+00 +1.425134E+00 +8.466145E+02 +7.388801E+00 -5.666264E+00 +7.388801E+00 +3.877602E+02 
 +4.941834E+02 +1.783040E+01 -1.279883E+01 +1.783040E+01 +8.471261E+02 +3.488793E+00 -1.279883E+01 +3.488793E+00 +4.037997E+02 
 +4.905907E+02 +1.329163E+01 -9.985792E+00 +1.329163E+01 +8.503269E+02 -2.238928E-02 -9.985792E+00 -2.238928E-02 +4.011488E+02 
 +4.785749E+02 +1.431409E+01 -1.080125E+01 +1.431409E+01 +8.342477E+02 +2.415074E-01 -1.080125E+01 +2.415074E-01 +3.962917E+02 
 +4.584761E+02 +1.092418E+01 -1.113539E+01 +1.092418E+01 +8.164073E+02 +1.253127E+00 -1.113539E+01 +1.253127E+00 +3.872837E+02 
 +4.600602E+02 +9.499518E+00 -6.092676E+00 +9.499518E+00 +8.230313E+02 +6.654827E-01 -6.092676E+00 +6.654827E-01 +3.737876E+02 
 +4.785583E+02 +6.739320E+00 -8.254639E+00 +6.739320E+00 +8.492814E+02 -2.264383E-01 -8.254639E+00 -2.264383E-01 +3.696328E+02 
 +4.599067E+02 -5.301352E-01 -8.113912E+00 -5.301352E-01 +8.482921E+02 -6.603534E+00 -8.113912E+00 -6.603534E+00 +3.720673E+02 
 +4.681473E+02 +5.891615E+00 -1.138982E+01 +5.891615E+00 +8.358688E+02 -9.673973E+00 -1.138982E+01 -9.673973E+00 +3.789116E+02 
 +4.914348E+02 +8.644153E+00 -3.427642E+00 +8.644153E+00 +8.326413E+02 -2.728211E+00 -3.427642E+00 -2.728211E+00 +3.676766E+02 
 +5.018268E+02 +9.303891E+00 -2.351973E+01 +9.303891E+00 +8.465487E+02 -1.802655E+00 -2.351973E+01 -1.802655E+00 +3.387963E+02 
 +5.080568E+02 +1.125165E+01 -2.431241E+01 +1.125165E+01 +8.672011E+02 -2.284133E+00 -2.431241E+01 -2.284133E+00 +3.265895E+02 
 +5.014595E+02 +1.151301E+01 -2.684547E+01 +1.151301E+01 +8.708233E+02 -3.006974E+00 -2.684547E+01 -3.006974E+00 +3.321855E+02 
 +5.015664E+02 +1.117421E+01 -3.410967E+01 +1.117421E+01 +8.822750E+02 -3.259219E+00 -3.410967E+01 -3.259219E+00 +3.496628E+02 
 +4.980496E+02 +1.041735E+01 +2.837019E+01 +1.041735E+01 +8.955964E+02 +1.592822E+00 +2.837019E+01 +1.592822E+00 +3.297086E+02 
 +4.907868E+02 +6.042613E+00 +2.719074E+01 +6.042613E+00 +8.967189E+02 +4.218742E+00 +2.719074E+01 +4.218742E+00 +2.954359E+02 
 +5.048314E+02 +5.252131E+00 +1.588791E+01 +5.252131E+00 +8.957343E+02 +7.356536E+00 +1.588791E+01 +7.356536E+00 +3.032299E+02 
 +4.798592E+02 -7.929735E+00 +3.858251E+00 -7.929735E+00 +8.673942E+02 +1.034997E+01 +3.858251E+00 +1.034997E+01 +3.218484E+02 
 +4.744982E+02 -8.260571E+00 +3.589726E+00 -8.260571E+00 +8.620403E+02 +8.124127E+00 +3.589726E+00 +8.124127E+00 +3.614945E+02 
 +4.665019E+02 +4.214434E+00 -5.102245E+00 +4.214434E+00 +8.613728E+02 +6.832383E+00 -5.102245E+00 +6.832383E+00 +3.714429E+02 
 +4.725206E+02 +9.461107E-01 -1.302784E+01 +9.461107E-01 +8.601574E+02 +3.632104E+00 -1.302784E+01 +3.632104E+00 +3.676753E+02 
 +4.741679E+02 -2.698083E+00 -2.240978E+00 -2.698083E+00 +8.474830E+02 -9.885316E-01 -2.240978E+00 -9.885316E-01 +3.614127E+02 
 +4.857289E+02 +2.065044E+01 -3.522706E+00 +2.065044E+01 +8.487170E+02 -4.925320E+00 -3.522706E+00 -4.925320E+00 +3.779163E+02 
 +4.822750E+02 +1.601528E+01 -4.685503E+00 +1.601528E+01 +8.473202E+02 -3.935877E+00 -4.685503E+00 -3.935877E+00 +3.882791E+02 
 +4.781791E+02 +1.703132E+01 -9.568166E+00 +1.703132E+01 +8.409093E+02 -3.584936E+00 -9.568166E+00 -3.584936E+00 +3.878771E+02 
 +4.776642E+02 +1.403913E+01 -1.128922E+01 +1.403913E+01 +8.352671E+02 -3.241011E+00 -1.128922E+01 -3.241011E+00 +3.868115E+02 
 +4.775359E+02 +8.832551E+00 -1.172070E+01 +8.832551E+00 +8.387261E+02 -2.472055E+00 -1.172070E+01 -2.472055E+00 +3.826075E+02 
 +4.682450E+02 +8.068723E+00 -9.783453E+00 +8.068723E+00 +8.416707E+02 +2.337934E-01 -9.783453E+00 +2.337934E-01 +3.758924E+02 
 +4.656813E+02 +1.668033E+00 -3.501297E+00 +1.668033E+00 +8.434725E+02 +1.203548E+00 -3.501297E+00 +1.203548E+00 +3.701119E+02 
 +4.807655E+02 +5.582642E+00 +5.210164E+00 +5.582642E+00 +8.501310E+02 +1.673882E+00 +5.210164E+00 +1.673882E+00 +3.624613E+02 
 +4.922534E+02 +1.117189E+01 +1.128426E+01 +1.117189E+01 +8.517501E+02 -2.277055E+00 +1.128426E+01 -2.277055E+00 +3.476491E+02 
 +4.909111E+02 +1.652988E+01 -7.157976E+00 +1.652988E+01 +8.452653E+02 -8.384681E+00 -7.157976E+00 -8.384681E+00 +3.232585E+02 
 +4.917349E+02 +1.771976E+01 -1.523823E+01 +1.771976E+01 +8.492491E+02 -7.727930E+00 -1.523823E+01 -7.727930E+00 +3.107649E+02 
 +4.967242E+02 +1.425104E+01 -3.047021E+01 +1.425104E+01 +8.737591E+02 -3.800424E+00 -3.047021E+01 -3.800424E+00 +3.302333E+02 
 +5.000484E+02 +1.242132E+01 -3.544460E+01 +1.242132E+01 +8.944954E+02 +2.332693E+00 -3.544460E+01 +2.332693E+00 +3.591163E+02 
 +5.097227E+02 +1.521812E+01 +1.629950E+01 +1.521812E+01 +9.084850E+02 +1.771152E+00 +1.629950E+01 +1.771152E+00 +3.565000E+02 
 +5.091220E+02 +3.982701E+00 +1.675053E+01 +3.982701E+00 +9.068618E+02 -2.751668E-01 +1.675053E+01 -2.751668E-01 +3.207906E+02 
 +5.051648E+02 -8.098628E+00 +1.827195E+01 -8.098628E+00 +8.890043E+02 +5.921723E+00 +1.827195E+01 +5.921723E+00 +3.086762E+02 
 +4.959799E+02 -2.135916E+01 +5.867794E+00 -2.135916E+01 +8.726494E+02 +8.827075E+00 +5.867794E+00 +8.827075E+00 +3.347216E+02 
 +4.911255E+02 -1.777209E+01 +7.726406E+00 -1.777209E+01 +8.754706E+02 +1.727511E+00 +7.726406E+00 +1.727511E+00 +3.582372E+02 
 +4.681342E+02 -1.641588E+00 -5.744218E+00 -1.641588E+00 +8.666371E+02 +2.405970E+00 -5.744218E+00 +2.405970E+00 +3.675915E+02 
 +4.783293E+02 -7.131595E+00 -1.317471E+01 -7.131595E+00 +8.647150E+02 -6.516151E+00 -1.317471E+01 -6.516151E+00 +3.540783E+02 
 +4.727888E+02 -5.100007E+00 -4.460409E+00 -5.100007E+00 +8.505768E+02 -7.006552E+00 -4.460409E+00 -7.006552E+00 +3.356883E+02 
 +4.769020E+02 +2.051209E+01 -9.846747E+00 +2.051209E+01 +8.493654E+02 -4.254679E+00 -9.846747E+00 -4.254679E+00 +3.519212E+02 
 +4.729828E+02 +1.534604E+01 -9.454894E+00 +1.534604E+01 +8.412312E+02 -6.690263E+00 -9.454894E+00 -6.690263E+00 +3.677778E+02 
 +4.795048E+02 +1.536181E+01 -4.948425E+00 +1.536181E+01 +8.456649E+02 -4.882991E+00 -4.948425E+00 -4.882991E+00 +3.785539E+02 
 +4.827640E+02 +1.252339E+01 -1.129910E+01 +1.252339E+01 +8.466359E+02 -1.627246E+00 -1.129910E+01 -1.627246E+00 +3.818684E+02 
 +4.791608E+02 +1.351075E+01 -1.262821E+01 +1.351075E+01 +8.411629E+02 -8.630072E-01 -1.262821E+01 -8.630072E-01 +3.782319E+02 
 +4.724710E+02 +1.282941E+01 -1.206362E+01 +1.282941E+01 +8.370893E+02 +9.847988E-01 -1.206362E+01 +9.847988E-01 +3.720044E+02 
 +4.735622E+02 +6.967974E+00 -3.513331E-01 +6.967974E+00 +8.431184E+02 +1.240192E+00 -3.513331E-01 +1.240192E+00 +3.646003E+02 
 +4.827490E+02 +5.447383E+00 +1.637524E+01 +5.447383E+00 +8.550450E+02 -2.670977E+00 +1.637524E+01 -2.670977E+00 +3.500756E+02 
 +4.910126E+02 +1.078788E+01 +1.393026E+01 +1.078788E+01 +8.613093E+02 -6.482318E+00 +1.393026E+01 -6.482318E+00 +3.363067E+02 
 +4.976684E+02 +1.561109E+01 +5.438202E+00 +1.561109E+01 +8.659906E+02 -1.088281E+01 +5.438202E+00 -1.088281E+01 +3.345304E+02 
 +4.946107E+02 +1.854173E+01 -4.402875E+00 +1.854173E+01 +8.640763E+02 -1.909002E+01 -4.402875E+00 -1.909002E+01 +3.399812E+02 
 +4.988511E+02 +2.112530E+01 -1.602614E+01 +2.112530E+01 +8.790229E+02 -1.600204E+01 -1.602614E+01 -1.600204E+01 +3.641688E+02 
 +4.932649E+02 +1.260782E+01 -2.766720E+01 +1.260782E+01 +8.851046E+02 -1.696056E+00 -2.766720E+01 -1.696056E+00 +3.878762E+02 
 +5.050986E+02 +1.465913E+01 -2.863601E+00 +1.465913E+01 +8.745896E+02 -2.225126E+00 -2.863601E+00 -2.225126E+00 +4.074267E+02 
 +5.043857E+02 +6.794637E+00 -7.271181E-01 +6.794637E+00 +8.720402E+02 -5.948227E+00 -7.271181E-01 -5.948227E+00 +3.964508E+02 
 +5.057959E+02 -1.542916E+01 +8.817042E+00 -1.542916E+01 +8.802465E+02 -2.536988E+00 +8.817042E+00 -2.536988E+00 +3.610439E+02 
 +5.081290E+02 -2.797067E+01 +5.472296E+00 -2.797067E+01 +8.818155E+02 -2.528257E+00 +5.472296E+00 -2.528257E+00 +3.455532E+02 
 +4.996569E+02 -1.778357E+01 +4.769769E+00 -1.778357E+01 +8.783547E+02 -9.205258E+00 +4.769769E+00 -9.205258E+00 +3.535252E+02 
 +4.742136E+02 +5.914647E-01 -8.654062E+00 +5.914647E-01 +8.631910E+02 -1.222414E+01 -8.654062E+00 -1.222414E+01 +3.556870E+02 
 +4.786299E+02 -7.296951E+00 -8.643583E+00 -7.296951E+00 +8.605909E+02 -9.280286E+00 -8.643583E+00 -9.280286E+00 +3.427694E+02 
 +4.766887E+02 -7.768645E+00 -4.052875E+00 -7.768645E+00 +8.648149E+02 -2.305269E+00 -4.052875E+00 -2.305269E+00 +3.315033E+02 
 +4.834246E+02 +1.296102E+01 -1.702477E+01 +1.296102E+01 +8.815657E+02 +3.751681E+00 -1.702477E+01 +3.751681E+00 +3.327315E+02 
 +4.935000E+02 +4.080435E+00 -1.546024E+01 +4.080435E+00 +8.871169E+02 +5.816611E+00 -1.546024E+01 +5.816611E+00 +3.531845E+02 
 +4.924087E+02 +9.502340E+00 -1.774841E+00 +9.502340E+00 +8.617325E+02 +3.530570E+00 -1.774841E+00 +3.530570E+00 +3.696039E+02 
 +4.860332E+02 +1.282297E+01 -1.193250E+01 +1.282297E+01 +8.428107E+02 +6.270384E-01 -1.193250E+01 +6.270384E-01 +3.710557E+02 
 +4.800445E+02 +1.592087E+01 -1.390384E+01 +1.592087E+01 +8.396748E+02 +9.462121E-01 -1.390384E+01 +9.462121E-01 +3.702198E+02 
 +4.790290E+02 +1.406063E+01 -1.186251E+01 +1.406063E+01 +8.417454E+02 +1.413857E-01 -1.186251E+01 +1.413857E-01 +3.712064E+02 
 +4.761188E+02 +9.685098E+00 -1.124870E+00 +9.685098E+00 +8.461154E+02 +9.794763E-02 -1.124870E+00 +9.794763E-02 +3.617526E+02 
 +4.801047E+02 +6.471894E+00 +1.560794E+01 +6.471894E+00 +8.542364E+02 -2.032285E+00 +1.560794E+01 -2.032285E+00 +3.432044E+02 
 +4.897790E+02 +9.434274E+00 +1.139714E+01 +9.434274E+00 +8.631416E+02 -6.456534E+00 +1.139714E+01 -6.456534E+00 +3.361240E+02 
 +4.915046E+02 +1.293050E+01 +3.790082E+00 +1.293050E+01 +8.641970E+02 -9.873936E+00 +3.790082E+00 -9.873936E+00 +3.391340E+02 
 +4.928733E+02 +1.625915E+01 -1.902974E+00 +1.625915E+01 +8.674275E+02 -1.355705E+01 -1.902974E+00 -1.355705E+01 +3.613362E+02 
 +4.824054E+02 +1.761932E+01 +4.134286E-02 +1.761932E+01 +8.520793E+02 -1.728500E+01 +4.134286E-02 -1.728500E+01 +3.857825E+02 
 +4.850148E+02 +1.208801E+01 -1.155732E+01 +1.208801E+01 +8.449644E+02 -1.659314E+01 -1.155732E+01 -1.659314E+01 +4.124899E+02 
 +4.950349E+02 +1.298668E+01 -5.804538E+00 +1.298668E+01 +8.545230E+02 -1.359969E+01 -5.804538E+00 -1.359969E+01 +4.355835E+02 
 +5.005588E+02 +1.421909E+01 -1.558877E+00 +1.421909E+01 +8.558629E+02 -1.040143E+01 -1.558877E+00 -1.040143E+01 +4.413446E+02 
 +4.995842E+02 -5.322458E+00 +2.508988E+00 -5.322458E+00 +8.628340E+02 -1.095413E+01 +2.508988E+00 -1.095413E+01 +4.035179E+02 
 +4.998297E+02 -2.307317E+01 +3.508952E+00 -2.307317E+01 +8.726659E+02 -9.861404E+00 +3.508952E+00 -9.861404E+00 +3.521408E+02 
 +4.935544E+02 -1.731650E+01 -1.255949E+00 -1.731650E+01 +8.767042E+02 -5.072700E+00 -1.255949E+00 -5.072700E+00 +3.431883E+02 
 +4.888012E+02 -1.194308E+01 -9.554301E+00 -1.194308E+01 +8.755837E+02 -3.451245E+00 -9.554301E+00 -3.451245E+00 +3.411539E+02 
 +4.850763E+02 -1.293539E+01 -6.845469E+00 -1.293539E+01 +8.702275E+02 -3.671243E+00 -6.845469E+00 -3.671243E+00 +3.375100E+02 
 +4.799863E+02 -1.018429E+01 -3.442976E+00 -1.018429E+01 +8.654492E+02 -5.719020E+00 -3.442976E+00 -5.719020E+00 +3.419230E+02 
 +4.737907E+02 +2.025421E+01 -1.327879E+01 +2.025421E+01 +8.456461E+02 -4.968521E+00 -1.327879E+01 -4.968521E+00 +3.398649E+02 
 +4.838256E+02 +1.406386E+01 -1.413285E+01 +1.406386E+01 +8.459935E+02 +1.819223E+00 -1.413285E+01 +1.819223E+00 +3.474170E+02 
 +4.942627E+02 +1.520220E+01 -1.212880E+01 +1.520220E+01 +8.588055E+02 +5.214644E+00 -1.212880E+01 +5.214644E+00 +3.618122E+02 
 +4.760198E+02 +1.135595E+01 -1.566625E+01 +1.135595E+01 +8.380763E+02 +3.259864E+00 -1.566625E+01 +3.259864E+00 +3.602323E+02 
 +4.834257E+02 +1.681544E+01 -1.070455E+01 +1.681544E+01 +8.368628E+02 +3.954268E+00 -1.070455E+01 +3.954268E+00 +3.666712E+02 
 +4.798571E+02 +1.453464E+01 -1.146393E+01 +1.453464E+01 +8.440201E+02 +2.304842E+00 -1.146393E+01 +2.304842E+00 +3.724747E+02 
 +4.779406E+02 +1.253874E+01 -2.334573E+00 +1.253874E+01 +8.466112E+02 +8.740306E-01 -2.334573E+00 +8.740306E-01 +3.628300E+02 
 +4.799676E+02 +1.043767E+01 +1.095618E+01 +1.043767E+01 +8.529235E+02 -7.690388E-01 +1.095618E+01 -7.690388E-01 +3.373471E+02 
 +4.818386E+02 +1.196703E+01 +5.845854E+00 +1.196703E+01 +8.614879E+02 -5.376901E+00 +5.845854E+00 -5.376901E+00 +3.270529E+02 
 +4.821062E+02 +9.832348E+00 -6.184567E-01 +9.832348E+00 +8.618960E+02 -9.612802E+00 -6.184567E-01 -9.612802E+00 +3.362253E+02 
 +4.847081E+02 +1.404191E+01 -6.712820E-01 +1.404191E+01 +8.615019E+02 -9.897193E+00 -6.712820E-01 -9.897193E+00 +3.647246E+02 
 +4.862794E+02 +1.178623E+01 +2.366143E+00 +1.178623E+01 +8.619978E+02 -9.953767E+00 +2.366143E+00 -9.953767E+00 +3.971175E+02 
 +4.993967E+02 +8.567467E+00 -6.914636E-02 +8.567467E+00 +8.603424E+02 -1.085826E+01 -6.914636E-02 -1.085826E+01 +4.216934E+02 
 +4.890438E+02 +1.096039E+01 +2.862317E+00 +1.096039E+01 +8.499267E+02 -9.700818E+00 +2.862317E+00 -9.700818E+00 +4.244254E+02 
 +4.911577E+02 +1.195124E+01 +9.157845E+00 +1.195124E+01 +8.516010E+02 -7.957148E+00 +9.157845E+00 -7.957148E+00 +4.308567E+02 
 +4.958529E+02 +2.108938E+00 +4.577135E+00 +2.108938E+00 +8.576487E+02 -1.335313E+01 +4.577135E+00 -1.335313E+01 +4.149332E+02 
 +4.876482E+02 -1.890137E+01 +1.697113E+00 -1.890137E+01 +8.613545E+02 -1.249386E+01 +1.697113E+00 -1.249386E+01 +3.620399E+02 
 +4.881519E+02 -1.335263E+01 -3.875755E+00 -1.335263E+01 +8.737349E+02 -6.205601E+00 -3.875755E+00 -6.205601E+00 +3.406332E+02 
 +4.928918E+02 -8.400450E+00 -8.474622E+00 -8.400450E+00 +8.750353E+02 -5.579811E+00 -8.474622E+00 -5.579811E+00 +3.297151E+02 
 +4.909354E+02 -8.032195E+00 -8.649362E+00 -8.032195E+00 +8.761086E+02 -6.076312E+00 -8.649362E+00 -6.076312E+00 +3.323519E+02 
 +4.893943E+02 -1.582964E+01 -3.276787E+00 -1.582964E+01 +8.726846E+02 -9.435838E+00 -3.276787E+00 -9.435838E+00 +3.499063E+02 
 +4.999095E+02 +5.839850E+00 -1.018660E+01 +5.839850E+00 +8.627270E+02 -7.070802E+00 -1.018660E+01 -7.070802E+00 +3.676048E+02 
 +4.987690E+02 +4.502501E+00 -1.418820E+01 +4.502501E+00 +8.480563E+02 +1.700095E+00 -1.418820E+01 +1.700095E+00 +3.615654E+02 
 +5.050280E+02 +1.380446E+01 -1.844679E+01 +1.380446E+01 +8.664865E+02 +7.556951E+00 -1.844679E+01 +7.556951E+00 +3.615488E+02 
 +4.715620E+02 +1.636211E+00 -2.185251E+01 +1.636211E+00 +8.558650E+02 +1.203827E+01 -2.185251E+01 +1.203827E+01 +3.612964E+02 
 +4.914870E+02 +1.459759E+01 -5.613516E+00 +1.459759E+01 +8.450990E+02 +1.124344E+01 -5.613516E+00 +1.124344E+01 +3.709589E+02 
 +4.891271E+02 +1.904442E+01 -6.937011E+00 +1.904442E+01 +8.409690E+02 +7.679538E+00 -6.937011E+00 +7.679538E+00 +3.721455E+02 
 +4.749265E+02 +2.024721E+01 -7.732942E+00 +2.024721E+01 +8.398652E+02 +7.597970E+00 -7.732942E+00 +7.597970E+00 +3.517958E+02 
 +4.740575E+02 +2.117943E+01 -1.193676E+00 +2.117943E+01 +8.506648E+02 +4.472987E+00 -1.193676E+00 +4.472987E+00 +3.238954E+02 
 +4.794416E+02 +1.504221E+01 -5.627557E+00 +1.504221E+01 +8.671539E+02 -1.064360E+00 -5.627557E+00 -1.064360E+00 +3.247630E+02 
 +4.741166E+02 +1.095349E+01 -1.102459E+01 +1.095349E+01 +8.639409E+02 -7.009244E+00 -1.102459E+01 -7.009244E+00 +3.372976E+02 
 +4.606127E+02 +8.593876E+00 -8.987179E+00 +8.593876E+00 +8.421798E+02 -1.629664E+01 -8.987179E+00 -1.629664E+01 +3.587956E+02 
 +4.729417E+02 +7.800075E+00 +2.062354E+00 +7.800075E+00 +8.335115E+02 -1.973781E+01 +2.062354E+00 -1.973781E+01 +3.857705E+02 
 +4.848596E+02 +6.475978E+00 +5.308579E+00 +6.475978E+00 +8.432181E+02 -1.351556E+01 +5.308579E+00 -1.351556E+01 +4.033340E+02 
 +4.872061E+02 +1.109349E+01 +7.051442E+00 +1.109349E+01 +8.502401E+02 -9.266206E+00 +7.051442E+00 -9.266206E+00 +4.129480E+02 
 +4.884789E+02 +1.008061E+01 +1.306448E+01 +1.008061E+01 +8.530428E+02 -8.698893E+00 +1.306448E+01 -8.698893E+00 +4.219028E+02 
 +4.874149E+02 +6.672260E+00 +6.244199E+00 +6.672260E+00 +8.541542E+02 -1.363736E+01 +6.244199E+00 -1.363736E+01 +4.147790E+02 
 +4.839371E+02 -1.315031E+01 -6.050279E-01 -1.315031E+01 +8.635281E+02 -1.241806E+01 -6.050279E-01 -1.241806E+01 +3.759034E+02 
 +4.959447E+02 -1.389845E+01 -4.658083E+00 -1.389845E+01 +8.691103E+02 -1.026349E+01 -4.658083E+00 -1.026349E+01 +3.451154E+02 
 +4.968240E+02 -9.073673E+00 -4.189029E+00 -9.073673E+00 +8.703074E+02 -4.351159E+00 -4.189029E+00 -4.351159E+00 +3.328769E+02 
 +4.996734E+02 -7.762222E+00 -2.404758E+00 -7.762222E+00 +8.731841E+02 -3.148103E+00 -2.404758E+00 -3.148103E+00 +3.469335E+02 
 +4.995749E+02 -1.056402E+01 -3.853405E+00 -1.056402E+01 +8.754789E+02 -8.026167E+00 -3.853405E+00 -8.026167E+00 +3.667655E+02 
 +5.022508E+02 +4.929820E+00 -1.166912E+01 +4.929820E+00 +8.655329E+02 -9.967645E+00 -1.166912E+01 -9.967645E+00 +3.851581E+02 
 +5.134459E+02 +1.009946E+01 -2.071616E+01 +1.009946E+01 +8.591430E+02 +4.080226E-01 -2.071616E+01 +4.080226E-01 +3.863928E+02 
 +5.138347E+02 +1.917490E+01 -1.769705E+01 +1.917490E+01 +8.597985E+02 +5.141303E+00 -1.769705E+01 +5.141303E+00 +3.731901E+02 
 +4.765856E+02 +4.040660E+00 -2.284157E+01 +4.040660E+00 +8.556593E+02 +1.482930E+01 -2.284157E+01 +1.482930E+01 +3.704741E+02 
 +4.920134E+02 +7.450085E+00 -2.522635E+00 +7.450085E+00 +8.653111E+02 +2.737937E+01 -2.522635E+00 +2.737937E+01 +3.721586E+02 
 +5.047268E+02 +1.775186E+01 -5.810535E+00 +1.775186E+01 +8.609393E+02 +1.784345E+01 -5.810535E+00 +1.784345E+01 +3.584737E+02 
 +4.774034E+02 +1.307230E+01 -1.722259E+01 +1.307230E+01 +8.647945E+02 +7.256567E+00 -1.722259E+01 +7.256567E+00 +3.319772E+02 
 +4.807286E+02 +1.052300E+01 -1.858920E+01 +1.052300E+01 +8.780553E+02 +4.010624E+00 -1.858920E+01 +4.010624E+00 +3.185108E+02 
 +4.837707E+02 +8.331745E-01 -1.724272E+01 +8.331745E-01 +8.786915E+02 +6.247872E-01 -1.724272E+01 +6.247872E-01 +3.264404E+02 
 +4.729416E+02 -3.881529E+00 -2.346030E+01 -3.881529E+00 +8.713427E+02 -3.430550E+00 -2.346030E+01 -3.430550E+00 +3.400806E+02 
 +4.640711E+02 -7.259036E+00 -2.807662E+01 -7.259036E+00 +8.565544E+02 -1.406395E+01 -2.807662E+01 -1.406395E+01 +3.660783E+02 
 +4.737079E+02 -1.029821E+00 +6.637818E+00 -1.029821E+00 +8.356405E+02 -1.562657E+01 +6.637818E+00 -1.562657E+01 +3.873602E+02 
 +4.718902E+02 +6.305717E+00 +8.588094E+00 +6.305717E+00 +8.282151E+02 -9.517023E+00 +8.588094E+00 -9.517023E+00 +3.941817E+02 
 +4.820341E+02 +6.811293E+00 +1.173541E+01 +6.811293E+00 +8.463849E+02 -7.905762E+00 +1.173541E+01 -7.905762E+00 +4.023270E+02 
 +4.793858E+02 +4.508129E+00 +1.121400E+01 +4.508129E+00 +8.497062E+02 -1.073553E+01 +1.121400E+01 -1.073553E+01 +4.028151E+02 
 +4.744737E+02 -5.114783E-01 +3.773047E+00 -5.114783E-01 +8.488014E+02 -2.048029E+01 +3.773047E+00 -2.048029E+01 +3.985971E+02 
 +4.779674E+02 -8.796303E+00 -1.597608E+00 -8.796303E+00 +8.547242E+02 -2.075807E+01 -1.597608E+00 -2.075807E+01 +3.757752E+02 
 +4.980182E+02 -1.487832E+01 +1.066101E+00 -1.487832E+01 +8.510027E+02 -1.010666E+01 +1.066101E+00 -1.010666E+01 +3.501448E+02 
 +4.941865E+02 -1.085046E+01 -9.896288E-01 -1.085046E+01 +8.480372E+02 -2.131005E+00 -9.896288E-01 -2.131005E+00 +3.486197E+02 
 +5.062139E+02 -1.254707E+01 -1.502473E+00 -1.254707E+01 +8.522821E+02 +1.413174E+00 -1.502473E+00 +1.413174E+00 +3.682170E+02 
 +5.114552E+02 -1.035927E+01 -8.239184E+00 -1.035927E+01 +8.656254E+02 +1.261753E+00 -8.239184E+00 +1.261753E+00 +3.809945E+02 
 +5.192701E+02 -3.354008E+00 -1.557889E+01 -3.354008E+00 +8.762122E+02 -1.810624E+00 -1.557889E+01 -1.810624E+00 +4.066964E+02 
 +5.154497E+02 +1.670070E+01 -1.583925E+01 +1.670070E+01 +8.635449E+02 -8.320809E-01 -1.583925E+01 -8.320809E-01 +4.023586E+02 
 +5.096208E+02 +2.113426E+01 -6.043265E+00 +2.113426E+01 +8.609918E+02 +9.034152E+00 -6.043265E+00 +9.034152E+00 +3.858821E+02 
 +4.768972E+02 +5.540398E+00 -1.500254E+01 +5.540398E+00 +8.527179E+02 +2.111163E+01 -1.500254E+01 +2.111163E+01 +3.720306E+02 
 +4.806885E+02 +1.293379E-01 -3.285205E+00 +1.293379E-01 +8.728992E+02 +2.312851E+01 -3.285205E+00 +2.312851E+01 +3.563473E+02 
 +4.979454E+02 +9.576746E+00 -1.382925E+01 +9.576746E+00 +8.917115E+02 +1.107835E+01 -1.382925E+01 +1.107835E+01 +3.374964E+02 
 +4.784083E+02 +8.841980E+00 -2.117928E+01 +8.841980E+00 +8.752585E+02 -7.329421E-01 -2.117928E+01 -7.329421E-01 +3.118266E+02 
 +4.803537E+02 +6.571311E+00 -2.393081E+01 +6.571311E+00 +8.732838E+02 -9.610327E-01 -2.393081E+01 -9.610327E-01 +3.123738E+02 
 +4.831930E+02 +5.641732E-01 -2.448202E+01 +5.641732E-01 +8.749409E+02 +1.105594E+00 -2.448202E+01 +1.105594E+00 +3.236485E+02 
 +4.774062E+02 -3.961088E+00 -3.404202E+01 -3.961088E+00 +8.712037E+02 -3.719602E+00 -3.404202E+01 -3.719602E+00 +3.447485E+02 
 +4.633342E+02 -1.173553E+01 -2.999912E+01 -1.173553E+01 +8.622329E+02 -6.089863E-01 -2.999912E+01 -6.089863E-01 +3.684428E+02 
 +4.704506E+02 -2.024441E+01 +4.295427E+00 -2.024441E+01 +8.512274E+02 +1.460059E+00 +4.295427E+00 +1.460059E+00 +3.857529E+02 
 +4.607661E+02 -8.708701E-01 +3.576307E+00 -8.708701E-01 +8.248369E+02 -3.488466E+00 +3.576307E+00 -3.488466E+00 +3.825106E+02 
 +4.661229E+02 -7.350675E-01 +1.027297E+01 -7.350675E-01 +8.320095E+02 -2.195602E+00 +1.027297E+01 -2.195602E+00 +3.817249E+02 
 +4.660700E+02 -4.794840E+00 +1.171379E+01 -4.794840E+00 +8.416941E+02 -5.034157E+00 +1.171379E+01 -5.034157E+00 +3.737389E+02 
 +4.690650E+02 -6.814953E+00 +2.854229E+00 -6.814953E+00 +8.468341E+02 -1.450215E+01 +2.854229E+00 -1.450215E+01 +3.713750E+02 
 +4.872447E+02 -1.067955E+01 +4.535584E+00 -1.067955E+01 +8.531506E+02 -1.855473E+01 +4.535584E+00 -1.855473E+01 +3.687349E+02 
 +5.023326E+02 -1.060005E+01 +8.815079E+00 -1.060005E+01 +8.452963E+02 -1.252555E+01 +8.815079E+00 -1.252555E+01 +3.610296E+02 
 +5.050276E+02 -1.029733E+01 +1.474809E+00 -1.029733E+01 +8.473853E+02 -1.015931E+01 +1.474809E+00 -1.015931E+01 +3.653631E+02 
 +5.127031E+02 -1.123565E+01 -6.598886E+00 -1.123565E+01 +8.531768E+02 -1.919158E+00 -6.598886E+00 -1.919158E+00 +3.765472E+02 
 +5.161439E+02 -8.479133E+00 -1.133020E+01 -8.479133E+00 +8.583457E+02 +6.569024E+00 -1.133020E+01 +6.569024E+00 +3.861653E+02 
 +5.373685E+02 -9.336546E+00 -1.815972E+01 -9.336546E+00 +8.836459E+02 +1.196467E+01 -1.815972E+01 +1.196467E+01 +4.087472E+02 
 +5.211351E+02 +8.858063E+00 +7.397256E+00 +8.858063E+00 +8.929327E+02 +1.125995E+01 +7.397256E+00 +1.125995E+01 +3.955942E+02 
 +5.117961E+02 +1.177741E+01 +1.560843E+01 +1.177741E+01 +8.924928E+02 +1.105447E+01 +1.560843E+01 +1.105447E+01 +3.855019E+02 
 +4.828810E+02 +3.297170E+00 -1.124177E+01 +3.297170E+00 +8.788928E+02 +8.223429E+00 -1.124177E+01 +8.223429E+00 +3.659248E+02 
 +4.781338E+02 +2.032510E+00 -1.338260E+01 +2.032510E+00 +8.864056E+02 -9.792419E-01 -1.338260E+01 -9.792419E-01 +3.479474E+02 
 +4.853776E+02 +8.567773E+00 -1.408678E+01 +8.567773E+00 +8.913241E+02 -2.100109E+00 -1.408678E+01 -2.100109E+00 +3.358145E+02 
 +4.908343E+02 +1.067576E+01 -1.811629E+01 +1.067576E+01 +8.815072E+02 +8.060802E-01 -1.811629E+01 +8.060802E-01 +3.169517E+02 
 +4.907829E+02 +7.970057E+00 -2.277315E+01 +7.970057E+00 +8.734183E+02 -6.821075E-01 -2.277315E+01 -6.821075E-01 +3.148538E+02 
 +4.914820E+02 +4.534291E+00 -2.708102E+01 +4.534291E+00 +8.750717E+02 -3.033278E+00 -2.708102E+01 -3.033278E+00 +3.321919E+02 
 +4.814524E+02 -4.486752E+00 -3.224875E+01 -4.486752E+00 +8.720368E+02 -1.027094E+00 -3.224875E+01 -1.027094E+00 +3.534161E+02 
 +4.465144E+02 -1.034864E+01 -1.316539E+01 -1.034864E+01 +8.539670E+02 +5.574438E+00 -1.316539E+01 +5.574438E+00 +3.594238E+02 
 +4.689007E+02 -1.573115E+01 -3.300782E+00 -1.573115E+01 +8.838244E+02 +6.298819E+00 -3.300782E+00 +6.298819E+00 +3.858129E+02 
 +4.686174E+02 -8.518797E+00 -9.673901E-01 -8.518797E+00 +8.831909E+02 +4.158218E+00 -9.673901E-01 +4.158218E+00 +3.912065E+02 
 +4.559342E+02 -8.309671E+00 +4.873545E+00 -8.309671E+00 +8.464671E+02 +4.303020E+00 +4.873545E+00 +4.303020E+00 +3.739517E+02 
 +4.752071E+02 -1.059833E+01 +1.142470E+01 -1.059833E+01 +8.412613E+02 -7.253361E+00 +1.142470E+01 -7.253361E+00 +3.650437E+02 
 +4.856249E+02 -4.488824E+00 +1.222225E+01 -4.488824E+00 +8.493236E+02 -1.925605E+01 +1.222225E+01 -1.925605E+01 +3.675673E+02 
 +5.060243E+02 -1.099805E+01 +1.626950E+01 -1.099805E+01 +8.548352E+02 -1.591836E+01 +1.626950E+01 -1.591836E+01 +3.706715E+02 
 +5.069323E+02 -6.902259E+00 +1.076506E+01 -6.902259E+00 +8.456909E+02 -1.068224E+01 +1.076506E+01 -1.068224E+01 +3.716873E+02 
 +5.132336E+02 -9.074863E+00 +2.584524E+00 -9.074863E+00 +8.518848E+02 -1.051255E+01 +2.584524E+00 -1.051255E+01 +3.746479E+02 
 +5.214034E+02 -9.613573E+00 -8.214235E+00 -9.613573E+00 +8.577859E+02 -2.698753E+00 -8.214235E+00 -2.698753E+00 +3.802053E+02 
 +5.152684E+02 -6.889874E+00 -1.042790E+01 -6.889874E+00 +8.537540E+02 +6.596313E+00 -1.042790E+01 +6.596313E+00 +3.918612E+02 
 +5.183306E+02 -4.112074E+00 -8.757880E+00 -4.112074E+00 +8.717108E+02 +1.728294E+01 -8.757880E+00 +1.728294E+01 +4.059000E+02 
 +5.133769E+02 +4.709276E+00 +2.184919E+01 +4.709276E+00 +8.910993E+02 +1.351792E+01 +2.184919E+01 +1.351792E+01 +4.005761E+02 
 +5.149163E+02 +5.212631E+00 +2.046871E+01 +5.212631E+00 +8.983413E+02 -5.653679E-01 +2.046871E+01 -5.653679E-01 +3.935713E+02 
 +4.854306E+02 +3.932635E+00 -1.847014E+01 +3.932635E+00 +8.824210E+02 -5.240628E+00 -1.847014E+01 -5.240628E+00 +3.620488E+02 
 +4.751789E+02 +6.463682E+00 -2.327645E+01 +6.463682E+00 +8.789996E+02 -6.431664E+00 -2.327645E+01 -6.431664E+00 +3.434590E+02 
 +4.882485E+02 +1.112612E+01 -1.006899E+01 +1.112612E+01 +8.847827E+02 -5.245724E+00 -1.006899E+01 -5.245724E+00 +3.409768E+02 
 +4.925042E+02 +1.173772E+01 -1.399335E+01 +1.173772E+01 +8.788781E+02 -4.378666E+00 -1.399335E+01 -4.378666E+00 +3.219020E+02 
 +4.979078E+02 +8.068514E+00 -2.221345E+01 +8.068514E+00 +8.749158E+02 -2.874443E+00 -2.221345E+01 -2.874443E+00 +3.177994E+02 
 +5.043430E+02 +3.365413E+00 -2.632547E+01 +3.365413E+00 +8.800866E+02 -4.673212E+00 -2.632547E+01 -4.673212E+00 +3.509595E+02 
 +4.671266E+02 -7.916731E+00 -1.193207E+01 -7.916731E+00 +8.650138E+02 +1.942613E+00 -1.193207E+01 +1.942613E+00 +3.600934E+02 
 +4.431529E+02 -1.539532E+01 -4.093725E+00 -1.539532E+01 +8.601075E+02 +6.662523E+00 -4.093725E+00 +6.662523E+00 +3.567936E+02 
 +4.451592E+02 -1.716004E+01 -2.368349E+00 -1.716004E+01 +8.697527E+02 +3.496304E+00 -2.368349E+00 +3.496304E+00 +3.687068E+02 
 +4.463716E+02 -1.165987E+01 +2.420479E+00 -1.165987E+01 +8.672527E+02 +1.676776E+00 +2.420479E+00 +1.676776E+00 +3.750538E+02 
 +4.473886E+02 -1.413746E+00 +3.674211E+00 -1.413746E+00 +8.400222E+02 +9.609913E-01 +3.674211E+00 +9.609913E-01 +3.686800E+02 
 +4.680215E+02 +3.631405E+00 +5.065690E+00 +3.631405E+00 +8.131230E+02 +6.943387E+00 +5.065690E+00 +6.943387E+00 +3.583567E+02 
 +4.827683E+02 +1.067706E+01 +1.251531E+01 +1.067706E+01 +8.148732E+02 +2.668401E+00 +1.251531E+01 +2.668401E+00 +3.634131E+02 
 +5.126790E+02 -7.734102E+00 +2.005041E+01 -7.734102E+00 +8.438045E+02 -6.907268E+00 +2.005041E+01 -6.907268E+00 +3.740532E+02 
 +5.154137E+02 -7.102482E+00 +9.445754E+00 -7.102482E+00 +8.491538E+02 -9.348061E+00 +9.445754E+00 -9.348061E+00 +3.781417E+02 
 +5.246623E+02 -5.236782E+00 +2.937657E-01 -5.236782E+00 +8.541313E+02 -6.078507E+00 +2.937657E-01 -6.078507E+00 +3.824945E+02 
 +5.239208E+02 -5.143633E+00 -9.696823E+00 -5.143633E+00 +8.542851E+02 -7.987223E-01 -9.696823E+00 -7.987223E-01 +3.827782E+02 
 +5.088427E+02 -3.953416E+00 -5.771456E+00 -3.953416E+00 +8.672212E+02 +2.300250E+00 -5.771456E+00 +2.300250E+00 +3.917079E+02 
 +5.038870E+02 +2.303026E-02 +4.215341E+00 +2.303026E-02 +8.953331E+02 +8.364586E+00 +4.215341E+00 +8.364586E+00 +4.088448E+02 
 +5.152470E+02 -1.616149E-01 +1.626356E+01 -1.616149E-01 +9.048992E+02 +7.527678E+00 +1.626356E+01 +7.527678E+00 +4.237736E+02 
 +5.206807E+02 -2.118216E-01 +1.307990E+01 -2.118216E-01 +8.968813E+02 +1.983096E+00 +1.307990E+01 +1.983096E+00 +4.089318E+02 
 +4.971665E+02 +1.497736E+00 -2.770121E+01 +1.497736E+00 +8.799655E+02 -6.578498E+00 -2.770121E+01 -6.578498E+00 +3.646561E+02 
 +4.879044E+02 +6.553064E+00 -2.429461E+01 +6.553064E+00 +8.767261E+02 -1.264846E+01 -2.429461E+01 -1.264846E+01 +3.490989E+02 
 +4.987778E+02 +1.198385E+01 -1.485117E+01 +1.198385E+01 +8.841083E+02 -1.178596E+01 -1.485117E+01 -1.178596E+01 +3.474634E+02 
 +5.051068E+02 +1.588418E+01 -1.522561E+01 +1.588418E+01 +8.827397E+02 -1.276446E+01 -1.522561E+01 -1.276446E+01 +3.325185E+02 
 +4.971174E+02 +1.363112E+01 -6.827246E+00 +1.363112E+01 +8.757544E+02 -5.431389E+00 -6.827246E+00 -5.431389E+00 +3.257397E+02 
 +5.025973E+02 +5.672790E+00 -1.056789E+01 +5.672790E+00 +8.884650E+02 +4.119004E+00 -1.056789E+01 +4.119004E+00 +3.595744E+02 
 +4.558562E+02 -6.432585E+00 +1.090353E+01 -6.432585E+00 +8.749239E+02 +7.332838E+00 +1.090353E+01 +7.332838E+00 +3.527727E+02 
 +4.342757E+02 -1.540086E+01 -4.757396E-01 -1.540086E+01 +8.691515E+02 +5.046583E+00 -4.757396E-01 +5.046583E+00 +3.496484E+02 
 +4.405491E+02 -1.926258E+01 +4.470402E+00 -1.926258E+01 +8.618513E+02 +2.200180E+00 +4.470402E+00 +2.200180E+00 +3.643355E+02 
 +4.545700E+02 -1.034512E+01 +4.648682E-01 -1.034512E+01 +8.500890E+02 -2.311348E+00 +4.648682E-01 -2.311348E+00 +3.642404E+02 
 +4.667066E+02 +1.993886E-01 -2.605031E+00 +1.993886E-01 +8.489546E+02 -1.074457E+01 -2.605031E+00 -1.074457E+01 +3.648200E+02 
 +4.831429E+02 +6.836052E+00 -1.007672E+00 +6.836052E+00 +8.538691E+02 -1.155334E+01 -1.007672E+00 -1.155334E+01 +3.689650E+02 
 +4.823523E+02 +1.269435E+01 -1.842875E+00 +1.269435E+01 +8.388990E+02 -7.941218E+00 -1.842875E+00 -7.941218E+00 +3.682484E+02 
 +5.224324E+02 -7.094659E+00 +1.417863E+01 -7.094659E+00 +8.510856E+02 -7.409783E+00 +1.417863E+01 -7.409783E+00 +3.800648E+02 
 +5.019181E+02 -4.524212E+00 -1.246312E+00 -4.524212E+00 +8.425837E+02 -2.893449E-01 -1.246312E+00 -2.893449E-01 +3.766204E+02 
 +5.106704E+02 +1.699467E+00 -1.318428E+01 +1.699467E+00 +8.517179E+02 +1.755527E+00 -1.318428E+01 +1.755527E+00 +3.767012E+02 
 +5.382427E+02 +2.437179E+00 -2.306593E+01 +2.437179E+00 +8.787650E+02 +5.418314E+00 -2.306593E+01 +5.418314E+00 +3.915470E+02 
 +5.121999E+02 +7.301352E+00 -2.281003E+00 +7.301352E+00 +8.980125E+02 +5.227978E+00 -2.281003E+00 +5.227978E+00 +3.977358E+02 
 +5.153197E+02 +4.326709E+00 +5.043382E+00 +4.326709E+00 +9.212800E+02 +3.300946E+00 +5.043382E+00 +3.300946E+00 +4.182698E+02 
 +5.202790E+02 +1.565396E+00 -2.213229E+00 +1.565396E+00 +9.260605E+02 +4.511714E+00 -2.213229E+00 +4.511714E+00 +4.148898E+02 
 +5.088747E+02 +2.412135E+00 -3.203412E+01 +2.412135E+00 +9.016338E+02 +1.478950E+00 -3.203412E+01 +1.478950E+00 +3.594622E+02 
 +4.976043E+02 +1.314736E+00 -4.190579E+01 +1.314736E+00 +8.808981E+02 -7.167595E+00 -4.190579E+01 -7.167595E+00 +3.464509E+02 
 +5.036739E+02 +6.657663E+00 -3.250340E+01 +6.657663E+00 +8.821089E+02 -1.153366E+01 -3.250340E+01 -1.153366E+01 +3.578986E+02 
 +5.145154E+02 +1.037925E+01 -2.664551E+01 +1.037925E+01 +8.851735E+02 -1.125432E+01 -2.664551E+01 -1.125432E+01 +3.572489E+02 
 +5.235861E+02 +1.344962E+01 -2.915633E+01 +1.344962E+01 +8.954347E+02 -8.060696E+00 -2.915633E+01 -8.060696E+00 +3.628969E+02 
 +5.204004E+02 +8.518476E+00 -2.450425E+01 +8.518476E+00 +8.989125E+02 -3.604680E+00 -2.450425E+01 -3.604680E+00 +3.517649E+02 
 +4.845038E+02 +2.913485E+00 -3.152989E+01 +2.913485E+00 +8.856287E+02 +6.253362E+00 -3.152989E+01 +6.253362E+00 +3.339363E+02 
 +4.826572E+02 -4.448613E+00 -4.363529E+01 -4.448613E+00 +9.024067E+02 +2.695024E-01 -4.363529E+01 +2.695024E-01 +3.406564E+02 
 +4.581376E+02 -2.033568E+01 -8.040434E+00 -2.033568E+01 +8.895643E+02 -9.194967E+00 -8.040434E+00 -9.194967E+00 +3.507681E+02 
 +4.289823E+02 -1.823170E+01 +4.802204E+00 -1.823170E+01 +8.491937E+02 -2.997386E+00 +4.802204E+00 -2.997386E+00 +3.571749E+02 
 +4.702033E+02 -9.515553E+00 +5.269620E+00 -9.515553E+00 +8.478270E+02 +3.110275E+00 +5.269620E+00 +3.110275E+00 +3.820446E+02 
 +4.664894E+02 -3.901646E+00 +8.250510E+00 -3.901646E+00 +8.283979E+02 +7.157175E+00 +8.250510E+00 +7.157175E+00 +3.841346E+02 
 +4.822689E+02 +2.764320E+00 +1.262681E+01 +2.764320E+00 +8.428529E+02 +7.877531E+00 +1.262681E+01 +7.877531E+00 +3.887393E+02 
 +4.655158E+02 +8.116288E+00 +1.788490E+00 +8.116288E+00 +8.352388E+02 +8.982272E+00 +1.788490E+00 +8.982272E+00 +3.756677E+02 
 +5.016877E+02 -9.734073E+00 +8.930104E+00 -9.734073E+00 +8.390106E+02 +5.918532E+00 +8.930104E+00 +5.918532E+00 +3.774553E+02 
 +5.337547E+02 +1.315443E+00 -1.349930E+01 +1.315443E+00 +8.805930E+02 +5.800836E+00 -1.349930E+01 +5.800836E+00 +3.748126E+02 
 +5.241801E+02 +3.570100E+00 -1.467695E+01 +3.570100E+00 +8.870026E+02 +3.350648E+00 -1.467695E+01 +3.350648E+00 +3.556820E+02 
 +5.347502E+02 -1.024650E+00 -1.977479E+01 -1.024650E+00 +9.156608E+02 +2.569715E+00 -1.977479E+01 +2.569715E+00 +3.730741E+02 
 +4.994102E+02 -6.346303E+00 +6.109312E+00 -6.346303E+00 +9.074181E+02 -6.282731E-01 +6.109312E+00 -6.282731E-01 +3.739464E+02 
 +4.960030E+02 -1.153933E+01 +1.233153E+01 -1.153933E+01 +9.132199E+02 -4.423323E+00 +1.233153E+01 -4.423323E+00 +3.977679E+02 
 +5.047131E+02 -1.023913E+01 -1.190766E+00 -1.023913E+01 +9.172909E+02 -6.926974E+00 -1.190766E+00 -6.926974E+00 +4.101581E+02 
 +5.046904E+02 -8.030384E+00 -3.723965E+01 -8.030384E+00 +8.958601E+02 -1.136275E+01 -3.723965E+01 -1.136275E+01 +3.587861E+02 
 +5.058267E+02 -4.626896E+00 -4.338402E+01 -4.626896E+00 +8.820976E+02 -1.123455E+01 -4.338402E+01 -1.123455E+01 +3.485044E+02 
 +5.073327E+02 +9.155123E-01 -3.605434E+01 +9.155123E-01 +8.746854E+02 -7.975385E+00 -3.605434E+01 -7.975385E+00 +3.557597E+02 
 +5.320213E+02 +3.316380E+00 -3.391664E+01 +3.316380E+00 +8.859698E+02 -7.945331E+00 -3.391664E+01 -7.945331E+00 +3.809437E+02 
 +5.307200E+02 +7.529967E+00 -3.083195E+01 +7.529967E+00 +8.921254E+02 -5.840490E+00 -3.083195E+01 -5.840490E+00 +3.815335E+02 
 +5.199545E+02 -3.744009E+00 -1.162088E+01 -3.744009E+00 +8.959119E+02 -2.281375E+00 -1.162088E+01 -2.281375E+00 +3.600514E+02 
 +4.589688E+02 -4.561022E+00 +8.218693E+00 -4.561022E+00 +8.839953E+02 +4.611682E-01 +8.218693E+00 +4.611682E-01 +3.331996E+02 
 +4.752365E+02 -1.853195E+01 -4.123280E+01 -1.853195E+01 +8.863941E+02 +2.134532E+00 -4.123280E+01 +2.134532E+00 +3.227059E+02 
 +4.903030E+02 -2.900251E+01 -9.221151E+00 -2.900251E+01 +8.812087E+02 -1.334755E+00 -9.221151E+00 -1.334755E+00 +3.534665E+02 
 +4.736895E+02 -1.740774E+01 -1.275345E+01 -1.740774E+01 +8.910743E+02 -8.101569E+00 -1.275345E+01 -8.101569E+00 +3.799370E+02 
 +4.964118E+02 -1.090732E+01 -1.536767E+00 -1.090732E+01 +9.042223E+02 -7.452197E+00 -1.536767E+00 -7.452197E+00 +3.936113E+02 
 +4.830164E+02 -4.001409E+00 -1.342901E+00 -4.001409E+00 +8.847331E+02 -9.080989E-01 -1.342901E+00 -9.080989E-01 +3.876958E+02 
 +4.840472E+02 +3.599848E-01 -3.730327E+00 +3.599848E-01 +8.712808E+02 -1.170888E+00 -3.730327E+00 -1.170888E+00 +3.869226E+02 
 +4.783952E+02 +4.111539E+00 -9.779084E+00 +4.111539E+00 +8.491927E+02 +5.461835E+00 -9.779084E+00 +5.461835E+00 +3.846195E+02 
 +5.090683E+02 -3.317703E+00 -5.545556E+00 -3.317703E+00 +8.633775E+02 +9.285923E+00 -5.545556E+00 +9.285923E+00 +3.854992E+02 
 +5.274955E+02 -7.443578E+00 -1.084734E+01 -7.443578E+00 +8.864399E+02 +5.525515E+00 -1.084734E+01 +5.525515E+00 +3.729258E+02 
 +5.178065E+02 -7.622845E+00 -1.059884E+01 -7.622845E+00 +8.959683E+02 +3.858736E+00 -1.059884E+01 +3.858736E+00 +3.520606E+02 
 +5.022945E+02 -1.266591E+01 -1.082645E+01 -1.266591E+01 +9.073410E+02 -4.006980E+00 -1.082645E+01 -4.006980E+00 +3.596828E+02 
 +4.921311E+02 -1.431700E+01 -5.690969E+00 -1.431700E+01 +9.081489E+02 -5.744443E+00 -5.690969E+00 -5.744443E+00 +3.681124E+02 
 +5.016531E+02 -1.458911E+01 -3.248546E+00 -1.458911E+01 +9.147265E+02 -8.932170E+00 -3.248546E+00 -8.932170E+00 +3.969489E+02 
 +5.112470E+02 -1.063953E+01 -1.905589E+01 -1.063953E+01 +9.165296E+02 -1.628333E+01 -1.905589E+01 -1.628333E+01 +4.133491E+02 
 +5.004374E+02 -1.218046E+01 -3.749782E+01 -1.218046E+01 +8.929737E+02 -2.414822E+01 -3.749782E+01 -2.414822E+01 +3.714023E+02 
 +5.079003E+02 -1.286338E+01 -3.693591E+01 -1.286338E+01 +8.823447E+02 -1.698671E+01 -3.693591E+01 -1.698671E+01 +3.533271E+02 
 +5.124866E+02 -8.645951E+00 -3.195568E+01 -8.645951E+00 +8.740946E+02 -2.405065E+00 -3.195568E+01 -2.405065E+00 +3.486781E+02 
 +5.308348E+02 -5.225167E+00 -3.328442E+01 -5.225167E+00 +8.873034E+02 +2.609722E+00 -3.328442E+01 +2.609722E+00 +3.797639E+02 
 +5.130303E+02 -4.812508E+00 -2.798654E+01 -4.812508E+00 +8.808438E+02 -3.208330E+00 -2.798654E+01 -3.208330E+00 +3.740960E+02 
 +5.191033E+02 -1.426096E+01 -8.151340E-01 -1.426096E+01 +9.000433E+02 -4.630929E+00 -8.151340E-01 -4.630929E+00 +3.705197E+02 
 +4.730749E+02 -9.100322E+00 +2.186090E+01 -9.100322E+00 +8.816837E+02 -3.309751E+00 +2.186090E+01 -3.309751E+00 +3.564714E+02 
 +4.831536E+02 -2.579463E+01 -2.069994E+01 -2.579463E+01 +8.552911E+02 +4.762677E+00 -2.069994E+01 +4.762677E+00 +3.375615E+02 
 +4.978161E+02 -2.567072E+01 -7.857440E+00 -2.567072E+01 +8.608450E+02 +9.314786E+00 -7.857440E+00 +9.314786E+00 +3.636930E+02 
 +5.010421E+02 -2.388095E+01 -1.688321E+01 -2.388095E+01 +8.811086E+02 +3.062857E+00 -1.688321E+01 +3.062857E+00 +3.877479E+02 
 +4.942801E+02 -2.060258E+01 -7.780666E+00 -2.060258E+01 +8.889342E+02 +4.425893E+00 -7.780666E+00 +4.425893E+00 +3.899201E+02 
 +4.668695E+02 -6.873804E+00 -1.568862E+01 -6.873804E+00 +8.803151E+02 +5.795708E+00 -1.568862E+01 +5.795708E+00 +3.832420E+02 
 +4.814304E+02 -3.031073E+00 -1.809331E+01 -3.031073E+00 +8.833468E+02 +1.328990E+00 -1.809331E+01 +1.328990E+00 +3.931906E+02 
 +4.970581E+02 -2.119008E+00 -2.280406E+01 -2.119008E+00 +8.810389E+02 +7.172033E-01 -2.280406E+01 +7.172033E-01 +4.020992E+02 
 +5.131402E+02 -1.030339E+01 -2.083187E+01 -1.030339E+01 +8.789991E+02 +1.112708E+00 -2.083187E+01 +1.112708E+00 +3.957868E+02 
 +4.889213E+02 -3.849893E+00 +8.627591E+00 -3.849893E+00 +8.797580E+02 -4.152018E-01 +8.627591E+00 -4.152018E-01 +3.766503E+02 
 +5.084781E+02 -3.346151E+00 -9.744969E+00 -3.346151E+00 +8.960807E+02 +3.387321E+00 -9.744969E+00 +3.387321E+00 +3.689482E+02 
 +5.058033E+02 -6.477387E+00 -9.951707E+00 -6.477387E+00 +9.057784E+02 +7.713841E-02 -9.951707E+00 +7.713841E-02 +3.744805E+02 
 +4.981749E+02 -7.362183E+00 -1.469267E+01 -7.362183E+00 +9.047385E+02 -2.590210E+00 -1.469267E+01 -2.590210E+00 +3.779605E+02 
 +5.110501E+02 -7.871971E+00 -1.388467E+01 -7.871971E+00 +9.096784E+02 -8.689855E+00 -1.388467E+01 -8.689855E+00 +4.042460E+02 
 +5.212670E+02 -6.057319E+00 -2.642442E+01 -6.057319E+00 +9.118959E+02 -1.476937E+01 -2.642442E+01 -1.476937E+01 +4.257657E+02 
 +4.963689E+02 -4.621059E+00 -3.400450E+01 -4.621059E+00 +8.915752E+02 -1.456123E+01 -3.400450E+01 -1.456123E+01 +3.867290E+02 
 +4.886219E+02 -7.572523E+00 -3.312362E+01 -7.572523E+00 +8.744865E+02 -4.665844E+00 -3.312362E+01 -4.665844E+00 +3.412881E+02 
 +5.068647E+02 -8.463982E+00 -2.639272E+01 -8.463982E+00 +8.743086E+02 +7.891214E+00 -2.639272E+01 +7.891214E+00 +3.306975E+02 
 +5.041119E+02 -6.322296E+00 -2.501679E+01 -6.322296E+00 +8.784529E+02 +1.010028E+01 -2.501679E+01 +1.010028E+01 +3.482779E+02 
 +5.026821E+02 -7.108457E+00 -1.924857E+01 -7.108457E+00 +8.722489E+02 +8.018540E+00 -1.924857E+01 +8.018540E+00 +3.514932E+02 
 +4.992879E+02 -1.658718E+00 +2.521025E+00 -1.658718E+00 +8.481916E+02 +5.891571E+00 +2.521025E+00 +5.891571E+00 +3.520144E+02 
 +4.842249E+02 +2.413128E-01 +6.926158E+00 +2.413128E-01 +8.270011E+02 +4.934243E+00 +6.926158E+00 +4.934243E+00 +3.615099E+02 
 +4.948762E+02 -2.024873E+01 -8.067619E+00 -2.024873E+01 +8.432835E+02 +1.106452E+01 -8.067619E+00 +1.106452E+01 +3.632619E+02 
 +5.007843E+02 -1.560571E+01 -4.433182E+00 -1.560571E+01 +8.630786E+02 +1.394457E+01 -4.433182E+00 +1.394457E+01 +3.743413E+02 
 +5.075826E+02 -1.802930E+01 -3.948110E+00 -1.802930E+01 +8.730113E+02 +1.233535E+01 -3.948110E+00 +1.233535E+01 +3.892166E+02 
 +5.137166E+02 -1.623239E+01 -9.922166E+00 -1.623239E+01 +8.914737E+02 +6.762798E+00 -9.922166E+00 +6.762798E+00 +3.984492E+02 
 +4.832294E+02 -3.948724E+00 -2.127372E+01 -3.948724E+00 +8.847386E+02 +6.560932E-01 -2.127372E+01 +6.560932E-01 +3.901749E+02 
 +4.689504E+02 +3.358922E+00 -1.579511E+01 +3.358922E+00 +8.759160E+02 +2.872947E+00 -1.579511E+01 +2.872947E+00 +3.953324E+02 
 +4.869294E+02 +3.798000E+00 -2.051879E+01 +3.798000E+00 +8.839219E+02 +5.823352E-01 -2.051879E+01 +5.823352E-01 +4.045243E+02 
 +5.093173E+02 -2.138407E+00 -1.361744E+01 -2.138407E+00 +8.931516E+02 -5.730376E+00 -1.361744E+01 -5.730376E+00 +4.050933E+02 
 +4.436568E+02 -1.817697E+00 +1.510332E+01 -1.817697E+00 +8.603045E+02 -6.571623E+00 +1.510332E+01 -6.571623E+00 +3.634569E+02 
 +4.839929E+02 +3.055209E+00 -9.308064E+00 +3.055209E+00 +8.638099E+02 -8.192659E+00 -9.308064E+00 -8.192659E+00 +3.717934E+02 
 +4.986919E+02 +4.068522E+00 -1.691923E+01 +4.068522E+00 +8.666715E+02 -8.563411E+00 -1.691923E+01 -8.563411E+00 +3.773534E+02 
 +4.956545E+02 +2.316444E-01 -1.661158E+01 +2.316444E-01 +8.677304E+02 -1.423154E+01 -1.661158E+01 -1.423154E+01 +3.762835E+02 
 +4.936763E+02 +9.999189E-01 -1.748658E+01 +9.999189E-01 +8.684703E+02 -2.642688E+01 -1.748658E+01 -2.642688E+01 +3.886818E+02 
 +5.062639E+02 +4.049244E-01 -2.485506E+01 +4.049244E-01 +8.763339E+02 -3.515012E+01 -2.485506E+01 -3.515012E+01 +4.104347E+02 
 +5.020577E+02 +9.273862E+00 -2.210825E+01 +9.273862E+00 +8.761851E+02 -1.967985E+01 -2.210825E+01 -1.967985E+01 +3.979096E+02 
 +4.652399E+02 +6.592159E+00 -2.612999E+01 +6.592159E+00 +8.628837E+02 +4.747170E+00 -2.612999E+01 +4.747170E+00 +3.496177E+02 
 +4.740172E+02 +2.280202E-01 -2.266932E+01 +2.280202E-01 +8.659221E+02 +1.027765E+01 -2.266932E+01 +1.027765E+01 +3.321149E+02 
 +4.882503E+02 +1.176395E-01 -1.933399E+01 +1.176395E-01 +8.521219E+02 +7.186580E+00 -1.933399E+01 +7.186580E+00 +3.340043E+02 
 +4.974835E+02 +6.055889E+00 -4.168191E+00 +6.055889E+00 +8.292126E+02 +8.773874E+00 -4.168191E+00 +8.773874E+00 +3.420852E+02 
 +4.971866E+02 +1.049832E+01 +1.575250E+00 +1.049832E+01 +8.236355E+02 +2.199431E+00 +1.575250E+00 +2.199431E+00 +3.571418E+02 
 +4.987653E+02 +4.262402E+00 -3.615645E-01 +4.262402E+00 +8.288093E+02 +9.050842E-01 -3.615645E-01 +9.050842E-01 +3.771842E+02 
 +4.965911E+02 -1.225122E+01 -5.928465E-01 -1.225122E+01 +8.360664E+02 +1.314076E+01 -5.928465E-01 +1.314076E+01 +3.744598E+02 
 +5.016401E+02 -1.332679E+01 +2.181902E+00 -1.332679E+01 +8.506411E+02 +1.568557E+01 +2.181902E+00 +1.568557E+01 +3.665398E+02 
 +5.063896E+02 -1.083013E+01 +6.447951E+00 -1.083013E+01 +8.672469E+02 +1.115628E+01 +6.447951E+00 +1.115628E+01 +3.776758E+02 
 +5.095291E+02 -1.042340E+01 -2.409546E+00 -1.042340E+01 +8.708296E+02 +6.202723E+00 -2.409546E+00 +6.202723E+00 +3.848091E+02 
 +4.813339E+02 -6.130322E+00 -5.548107E+00 -6.130322E+00 +8.509729E+02 +6.158666E+00 -5.548107E+00 +6.158666E+00 +3.784818E+02 
 +4.542220E+02 +2.116823E+00 -1.780067E-01 +2.116823E+00 +8.567378E+02 +9.611850E+00 -1.780067E-01 +9.611850E+00 +3.998177E+02 
 +4.862314E+02 +1.425815E-01 -3.739756E+00 +1.425815E-01 +8.809709E+02 +3.657031E+00 -3.739756E+00 +3.657031E+00 +4.202248E+02 
 +4.757611E+02 +3.259126E-01 +6.967288E+00 +3.259126E-01 +8.769423E+02 -2.962027E+00 +6.967288E+00 -2.962027E+00 +3.960322E+02 
 +4.434078E+02 +5.634570E-01 +8.692695E+00 +5.634570E-01 +8.653875E+02 -5.194737E+00 +8.692695E+00 -5.194737E+00 +3.790092E+02 
 +4.705855E+02 +1.577085E+00 -2.061984E-01 +1.577085E+00 +8.697341E+02 -3.215435E+00 -2.061984E-01 -3.215435E+00 +3.920777E+02 
 +5.197570E+02 +6.622363E+00 -2.323975E+01 +6.622363E+00 +8.782673E+02 -7.079292E+00 -2.323975E+01 -7.079292E+00 +4.016480E+02 
 +5.108686E+02 +3.886071E-01 -2.281190E+01 +3.886071E-01 +8.676603E+02 -1.651029E+01 -2.281190E+01 -1.651029E+01 +3.860577E+02 
 +5.010193E+02 +1.225430E+00 -2.495130E+01 +1.225430E+00 +8.621517E+02 -2.784049E+01 -2.495130E+01 -2.784049E+01 +3.849671E+02 
 +4.948998E+02 +2.827627E+00 -2.252650E+01 +2.827627E+00 +8.558437E+02 -3.233820E+01 -2.252650E+01 -3.233820E+01 +3.782826E+02 
 +5.011740E+02 +1.469977E+01 -5.450463E+00 +1.469977E+01 +8.650546E+02 -1.156192E+01 -5.450463E+00 -1.156192E+01 +3.803974E+02 
 +4.536415E+02 +9.660387E+00 -1.340243E+01 +9.660387E+00 +8.573482E+02 +6.767068E+00 -1.340243E+01 +6.767068E+00 +3.782645E+02 
 +4.574942E+02 +2.151342E+00 -2.010091E+01 +2.151342E+00 +8.542216E+02 +3.442442E+00 -2.010091E+01 +3.442442E+00 +3.687977E+02 
 +4.941935E+02 -6.332858E-02 -1.133738E+01 -6.332858E-02 +8.339565E+02 +7.023024E+00 -1.133738E+01 +7.023024E+00 +3.580129E+02 
 +5.006915E+02 +6.410025E+00 +6.497489E+00 +6.410025E+00 +8.197573E+02 +9.856314E+00 +6.497489E+00 +9.856314E+00 +3.699544E+02 
 +4.952340E+02 +9.053199E+00 +3.792764E+00 +9.053199E+00 +8.194834E+02 +2.807665E+00 +3.792764E+00 +2.807665E+00 +3.752943E+02 
 +4.960959E+02 +5.660236E+00 -1.002027E+00 +5.660236E+00 +8.300614E+02 +4.940536E+00 -1.002027E+00 +4.940536E+00 +3.865495E+02 
 +5.092405E+02 -9.134733E+00 +4.471838E+00 -9.134733E+00 +8.468788E+02 +1.570853E+01 +4.471838E+00 +1.570853E+01 +3.935975E+02 
 +5.056559E+02 -1.270747E+01 +6.587924E+00 -1.270747E+01 +8.450390E+02 +1.876090E+01 +6.587924E+00 +1.876090E+01 +3.681171E+02 
 +5.052533E+02 -9.792297E+00 +9.102334E+00 -9.792297E+00 +8.477284E+02 +1.277254E+01 +9.102334E+00 +1.277254E+01 +3.555999E+02 
 +5.123386E+02 -9.964062E+00 +8.323612E+00 -9.964062E+00 +8.623021E+02 +4.994282E+00 +8.323612E+00 +4.994282E+00 +3.615653E+02 
 +4.837506E+02 -7.123380E-01 +1.264095E+01 -7.123380E-01 +8.715228E+02 -3.222155E+00 +1.264095E+01 -3.222155E+00 +3.782323E+02 
 +4.679672E+02 +1.413847E+00 +6.972518E+00 +1.413847E+00 +8.719386E+02 -6.752514E+00 +6.972518E+00 -6.752514E+00 +4.073439E+02 
 +4.700410E+02 -3.356963E+00 +2.738424E+00 -3.356963E+00 +8.718848E+02 -5.173133E+00 +2.738424E+00 -5.173133E+00 +4.072080E+02 
 +4.571437E+02 +2.820056E+00 +1.005156E+01 +2.820056E+00 +8.718918E+02 -4.842582E+00 +1.005156E+01 -4.842582E+00 +3.896343E+02 
 +4.549168E+02 +2.334042E+00 +4.003309E+00 +2.334042E+00 +8.713689E+02 -6.427115E+00 +4.003309E+00 -6.427115E+00 +4.003613E+02 
 +4.491616E+02 -1.550397E+00 +3.929802E+00 -1.550397E+00 +8.635621E+02 -9.917456E+00 +3.929802E+00 -9.917456E+00 +3.905973E+02 
 +5.210980E+02 +4.143817E+00 -2.887747E+01 +4.143817E+00 +8.801483E+02 -1.794215E+01 -2.887747E+01 -1.794215E+01 +4.021839E+02 
 +5.176377E+02 +1.506658E+00 -2.964587E+01 +1.506658E+00 +8.574165E+02 -2.206364E+01 -2.964587E+01 -2.206364E+01 +3.896770E+02 
 +5.102218E+02 +2.942547E+00 -3.017130E+01 +2.942547E+00 +8.532770E+02 -2.359752E+01 -3.017130E+01 -2.359752E+01 +3.920919E+02 
 +5.012027E+02 +3.984772E+00 -1.630946E+01 +3.984772E+00 +8.566784E+02 -2.181521E+01 -1.630946E+01 -2.181521E+01 +3.788569E+02 
 +4.949631E+02 +1.612996E+01 +7.701411E+00 +1.612996E+01 +8.659691E+02 -5.974328E+00 +7.701411E+00 -5.974328E+00 +3.730188E+02 
 +4.315155E+02 +8.403018E+00 -7.825045E+00 +8.403018E+00 +8.391669E+02 +6.735135E+00 -7.825045E+00 +6.735135E+00 +3.760327E+02 
 +4.888177E+02 -2.466464E+00 -1.564955E+01 -2.466464E+00 +8.628508E+02 +9.648892E+00 -1.564955E+01 +9.648892E+00 +3.916740E+02 
 +4.991249E+02 -6.298195E+00 -1.029687E+01 -6.298195E+00 +8.553717E+02 +8.338899E+00 -1.029687E+01 +8.338899E+00 +3.712110E+02 
 +4.926119E+02 +3.072253E+00 +6.206727E+00 +3.072253E+00 +8.320399E+02 +6.954623E+00 +6.206727E+00 +6.954623E+00 +3.752340E+02 
 +4.915737E+02 +9.582889E+00 +1.042352E+01 +9.582889E+00 +8.192970E+02 +8.387519E+00 +1.042352E+01 +8.387519E+00 +3.806254E+02 
 +4.932764E+02 +1.021061E+01 +4.626315E+00 +1.021061E+01 +8.280581E+02 +8.493950E+00 +4.626315E+00 +8.493950E+00 +3.856265E+02 
 +4.926877E+02 -1.249367E+01 +6.208468E+00 -1.249367E+01 +8.296833E+02 +1.343558E+01 +6.208468E+00 +1.343558E+01 +3.841019E+02 
 +5.009301E+02 -1.605057E+01 +1.026426E+01 -1.605057E+01 +8.338484E+02 +1.453301E+01 +1.026426E+01 +1.453301E+01 +3.709328E+02 
 +5.189760E+02 -1.629823E+01 +9.285644E+00 -1.629823E+01 +8.571672E+02 +5.760181E+00 +9.285644E+00 +5.760181E+00 +3.653098E+02 
 +5.229486E+02 -2.033090E+01 +1.706508E+01 -2.033090E+01 +8.757816E+02 -6.836168E-01 +1.706508E+01 -6.836168E-01 +3.524987E+02 
 +4.844327E+02 -1.093982E+01 +1.675463E+01 -1.093982E+01 +8.649540E+02 -6.846306E+00 +1.675463E+01 -6.846306E+00 +3.532909E+02 
 +4.635558E+02 -6.291684E+00 +1.428874E+01 -6.291684E+00 +8.653124E+02 -1.008026E+01 +1.428874E+01 -1.008026E+01 +3.925868E+02 
 +4.653090E+02 -3.637420E+00 +7.228258E+00 -3.637420E+00 +8.758381E+02 -5.651999E+00 +7.228258E+00 -5.651999E+00 +4.008696E+02 
 +4.518196E+02 +2.291439E+00 +5.611030E+00 +2.291439E+00 +8.669516E+02 -5.085624E+00 +5.611030E+00 -5.085624E+00 +3.895463E+02 
 +4.502365E+02 -3.346114E+00 +7.567834E+00 -3.346114E+00 +8.672013E+02 -3.815137E+00 +7.567834E+00 -3.815137E+00 +3.925121E+02 
 +4.672777E+02 -7.265992E+00 -3.942383E+00 -7.265992E+00 +8.759142E+02 -1.167293E+01 -3.942383E+00 -1.167293E+01 +3.916776E+02 
 +5.214138E+02 -1.062946E+00 -3.486254E+01 -1.062946E+00 +8.797099E+02 -1.857869E+01 -3.486254E+01 -1.857869E+01 +4.032034E+02 
 +5.173834E+02 +1.879739E+00 -3.388756E+01 +1.879739E+00 +8.468762E+02 -2.102823E+01 -3.388756E+01 -2.102823E+01 +4.079023E+02 
 +5.107287E+02 +5.628112E+00 -2.868259E+01 +5.628112E+00 +8.451974E+02 -1.876697E+01 -2.868259E+01 -1.876697E+01 +4.197500E+02 
 +5.120905E+02 +4.487120E+00 -8.217849E+00 +4.487120E+00 +8.595388E+02 -8.992591E+00 -8.217849E+00 -8.992591E+00 +4.067432E+02 
 +4.948620E+02 +1.997440E+01 +1.212359E+01 +1.997440E+01 +8.693005E+02 -8.710544E-02 +1.212359E+01 -8.710544E-02 +3.903343E+02 
 +4.321673E+02 +5.987265E+00 -5.173937E+00 +5.987265E+00 +8.429768E+02 +3.608788E+00 -5.173937E+00 +3.608788E+00 +3.783824E+02 
 +5.059264E+02 -6.926159E+00 -1.043421E+01 -6.926159E+00 +8.729227E+02 +6.070349E+00 -1.043421E+01 +6.070349E+00 +3.945927E+02 
 +4.988143E+02 -1.466650E+01 -1.512532E+01 -1.466650E+01 +8.681860E+02 +6.072336E+00 -1.512532E+01 +6.072336E+00 +3.716891E+02 
 +5.020122E+02 -8.821940E+00 -4.859489E+00 -8.821940E+00 +8.654691E+02 +8.309811E+00 -4.859489E+00 +8.309811E+00 +3.791582E+02 
 +4.887632E+02 +3.436418E+00 +1.501023E+01 +3.436418E+00 +8.363995E+02 +1.489261E+01 +1.501023E+01 +1.489261E+01 +3.862368E+02 
 +5.045040E+02 +1.076988E+01 +9.494836E+00 +1.076988E+01 +8.367726E+02 +1.414333E+01 +9.494836E+00 +1.414333E+01 +3.966074E+02 
 +4.953434E+02 -9.517766E+00 +3.717248E+00 -9.517766E+00 +8.408591E+02 +1.674551E+01 +3.717248E+00 +1.674551E+01 +3.987013E+02 
 +5.144035E+02 -7.476210E+00 +1.556626E+01 -7.476210E+00 +8.597692E+02 +2.186198E+01 +1.556626E+01 +2.186198E+01 +4.024659E+02 
 +5.294582E+02 -8.747984E+00 +1.424647E+01 -8.747984E+00 +8.769265E+02 +1.468105E+01 +1.424647E+01 +1.468105E+01 +3.989497E+02 
 +5.288589E+02 -1.332512E+01 +2.395780E+01 -1.332512E+01 +8.850604E+02 +1.187896E+00 +2.395780E+01 +1.187896E+00 +3.711267E+02 
 +5.110668E+02 -1.353679E+01 +2.213825E+01 -1.353679E+01 +8.797176E+02 -4.356193E+00 +2.213825E+01 -4.356193E+00 +3.549443E+02 
 +4.688672E+02 -7.466272E+00 +2.259607E+01 -7.466272E+00 +8.686748E+02 -3.016366E+00 +2.259607E+01 -3.016366E+00 +3.898677E+02 
 +4.675971E+02 -5.432092E+00 +1.633588E+01 -5.432092E+00 +8.780853E+02 -3.025436E+00 +1.633588E+01 -3.025436E+00 +4.085511E+02 
 +4.467808E+02 -5.531347E+00 +1.120660E+01 -5.531347E+00 +8.637403E+02 -2.879407E+00 +1.120660E+01 -2.879407E+00 +3.845312E+02 
 +4.492448E+02 -1.845271E+00 +7.634633E+00 -1.845271E+00 +8.523203E+02 -5.540031E+00 +7.634633E+00 -5.540031E+00 +3.862203E+02 
 +4.894347E+02 -1.508725E+00 -1.712601E+01 -1.508725E+00 +8.477837E+02 -1.188339E+01 -1.712601E+01 -1.188339E+01 +3.919200E+02 
 +5.059887E+02 +1.338172E+00 -2.879152E+01 +1.338172E+00 +8.456107E+02 -1.237547E+01 -2.879152E+01 -1.237547E+01 +3.978865E+02 
 +4.975420E+02 +4.629462E+00 -2.174623E+01 +4.629462E+00 +8.522291E+02 -4.255625E+00 -2.174623E+01 -4.255625E+00 +4.124181E+02 
 +5.006415E+02 +3.118914E+00 -1.600937E+01 +3.118914E+00 +8.619436E+02 +4.707171E+00 -1.600937E+01 +4.707171E+00 +4.308674E+02 
 +5.191338E+02 -2.054825E+00 -6.251879E+00 -2.054825E+00 +8.750427E+02 +4.445067E+00 -6.251879E+00 +4.445067E+00 +4.285353E+02 
 +5.126890E+02 +1.407908E+01 +2.440867E+00 +1.407908E+01 +8.765947E+02 -2.278354E+00 +2.440867E+00 -2.278354E+00 +4.151818E+02 
 +4.472696E+02 -3.004891E-01 -6.455397E+00 -3.004891E-01 +8.447107E+02 +3.724499E-01 -6.455397E+00 +3.724499E-01 +3.869549E+02 
 +5.031823E+02 -8.441427E+00 -8.725403E+00 -8.441427E+00 +8.801772E+02 +4.822113E+00 -8.725403E+00 +4.822113E+00 +3.885454E+02 
 +5.017960E+02 -1.515370E+01 -1.232900E+01 -1.515370E+01 +8.750817E+02 +2.388581E+00 -1.232900E+01 +2.388581E+00 +3.741583E+02 
 +5.030927E+02 -1.327862E+01 -6.106756E+00 -1.327862E+01 +8.786651E+02 +2.519398E+00 -6.106756E+00 +2.519398E+00 +3.824342E+02 
 +4.940812E+02 -8.189559E+00 +1.524976E+01 -8.189559E+00 +8.681467E+02 +2.608508E+00 +1.524976E+01 +2.608508E+00 +3.882533E+02 
 +5.199671E+02 +4.632707E+00 +9.436027E+00 +4.632707E+00 +8.558745E+02 +5.175838E+00 +9.436027E+00 +5.175838E+00 +4.111701E+02 
 +5.094661E+02 -7.686836E+00 -8.968191E-01 -7.686836E+00 +8.475266E+02 +1.602528E+01 -8.968191E-01 +1.602528E+01 +4.184465E+02 
 +5.214245E+02 -4.592963E+00 +1.511357E+01 -4.592963E+00 +8.674149E+02 +2.279818E+01 +1.511357E+01 +2.279818E+01 +4.194460E+02 
 +5.283780E+02 -1.119356E-01 +1.573963E+01 -1.119356E-01 +8.772398E+02 +2.257291E+01 +1.573963E+01 +2.257291E+01 +4.152719E+02 
 +5.291297E+02 -2.278090E+00 +1.604291E+01 -2.278090E+00 +8.831769E+02 +1.178048E+01 +1.604291E+01 +1.178048E+01 +3.936754E+02 
 +5.217692E+02 -8.724014E+00 +3.302526E+01 -8.724014E+00 +8.866340E+02 +8.335190E-01 +3.302526E+01 +8.335190E-01 +3.710837E+02 
 +4.675035E+02 -5.154528E+00 +2.975549E+01 -5.154528E+00 +8.720246E+02 -4.386147E+00 +2.975549E+01 -4.386147E+00 +3.771835E+02 
 +4.706859E+02 -5.558419E+00 +2.214432E+01 -5.558419E+00 +8.816164E+02 -1.179566E+01 +2.214432E+01 -1.179566E+01 +3.946928E+02 
 +4.362287E+02 -5.683924E+00 +2.056646E+01 -5.683924E+00 +8.588127E+02 -9.391925E+00 +2.056646E+01 -9.391925E+00 +3.767629E+02 
 +4.696635E+02 +7.639002E+00 -7.644352E+00 +7.639002E+00 +8.366833E+02 -1.366962E+01 -7.644352E+00 -1.366962E+01 +4.008966E+02 
 +4.928662E+02 +6.330651E+00 -1.828334E+01 +6.330651E+00 +8.338559E+02 -1.794314E+01 -1.828334E+01 -1.794314E+01 +3.925423E+02 
 +4.872425E+02 +1.446639E+00 -1.110549E+01 +1.446639E+00 +8.463245E+02 -1.540976E+01 -1.110549E+01 -1.540976E+01 +3.945887E+02 
 +4.628199E+02 +1.181653E+00 +4.537485E+00 +1.181653E+00 +8.460975E+02 -3.553944E+00 +4.537485E+00 -3.553944E+00 +3.903607E+02 
 +4.840558E+02 +6.307564E+00 -3.957343E+00 +6.307564E+00 +8.609309E+02 +4.622312E+00 -3.957343E+00 +4.622312E+00 +4.058775E+02 
 +5.083947E+02 +1.273898E+01 -1.003958E+01 +1.273898E+01 +8.730321E+02 +1.698092E+00 -1.003958E+01 +1.698092E+00 +4.171441E+02 
 +5.079250E+02 +2.050793E+01 -8.626302E+00 +2.050793E+01 +8.569360E+02 -4.026701E+00 -8.626302E+00 -4.026701E+00 +4.094746E+02 
 +4.590331E+02 +1.111492E+01 -8.714346E+00 +1.111492E+01 +8.190122E+02 -4.116983E+00 -8.714346E+00 -4.116983E+00 +3.792239E+02 
 +4.789719E+02 +8.038247E+00 -2.076619E+00 +8.038247E+00 +8.447169E+02 +1.318743E+00 -2.076619E+00 +1.318743E+00 +3.655471E+02 
 +4.858915E+02 -8.396540E+00 -2.300644E+00 -8.396540E+00 +8.710161E+02 -4.875141E-01 -2.300644E+00 -4.875141E-01 +3.654605E+02 
 +4.906667E+02 -1.090491E+01 +7.851336E+00 -1.090491E+01 +8.729869E+02 -7.941194E+00 +7.851336E+00 -7.941194E+00 +3.742163E+02 
 +4.890760E+02 -5.800767E+00 +1.735208E+01 -5.800767E+00 +8.657577E+02 -1.445950E+01 +1.735208E+01 -1.445950E+01 +3.742379E+02 
 +5.204415E+02 -1.395254E+00 +1.673303E+01 -1.395254E+00 +8.744644E+02 -7.363909E+00 +1.673303E+01 -7.363909E+00 +4.066834E+02 
 +5.269914E+02 -1.253665E+00 -1.976285E-01 -1.253665E+00 +8.613024E+02 +1.020814E+01 -1.976285E-01 +1.020814E+01 +4.184803E+02 
 +5.251359E+02 +2.646219E+00 +1.051745E+01 +2.646219E+00 +8.646744E+02 +1.878483E+01 +1.051745E+01 +1.878483E+01 +4.114890E+02 
 +5.309914E+02 +5.597732E+00 +1.016027E+01 +5.597732E+00 +8.788124E+02 +1.839627E+01 +1.016027E+01 +1.839627E+01 +4.123529E+02 
 +5.327516E+02 +6.814485E+00 +1.587825E+00 +6.814485E+00 +8.921408E+02 +1.615583E+01 +1.587825E+00 +1.615583E+01 +4.129013E+02 
 +5.333053E+02 +1.344181E+00 +3.373809E+01 +1.344181E+00 +9.112151E+02 +1.079942E+01 +3.373809E+01 +1.079942E+01 +3.943483E+02 
 +4.631535E+02 -3.391431E-01 +3.460369E+01 -3.391431E-01 +8.791634E+02 +3.923392E+00 +3.460369E+01 +3.923392E+00 +3.460650E+02 
 +4.933404E+02 +2.590993E+00 +2.019133E+01 +2.590993E+00 +8.917833E+02 -5.087218E+00 +2.019133E+01 -5.087218E+00 +3.734756E+02 
 +4.268824E+02 +4.033136E+00 +1.820139E+01 +4.033136E+00 +8.424948E+02 -1.067723E+01 +1.820139E+01 -1.067723E+01 +3.812776E+02 
 +4.901913E+02 +3.341283E+00 -9.477206E+00 +3.341283E+00 +8.684914E+02 +1.375037E+01 -9.477206E+00 +1.375037E+01 +4.084215E+02 
 +4.902174E+02 +3.024745E-01 -9.742376E+00 +3.024745E-01 +8.694183E+02 +1.800421E+01 -9.742376E+00 +1.800421E+01 +3.956824E+02 
 +4.764781E+02 +9.658096E-01 -5.679477E+00 +9.658096E-01 +8.671258E+02 +1.397713E+01 -5.679477E+00 +1.397713E+01 +3.903198E+02 
 +4.560289E+02 +3.138850E+00 +1.340360E+01 +3.138850E+00 +8.469405E+02 +8.738649E+00 +1.340360E+01 +8.738649E+00 +3.739593E+02 
 +4.849879E+02 +1.547010E+01 -2.178024E+00 +1.547010E+01 +8.525218E+02 +5.555898E+00 -2.178024E+00 +5.555898E+00 +3.821802E+02 
 +4.930110E+02 +2.113348E+01 -6.494965E+00 +2.113348E+01 +8.571667E+02 +4.548773E+00 -6.494965E+00 +4.548773E+00 +3.893663E+02 
 +4.889493E+02 +2.169686E+01 -6.397676E+00 +2.169686E+01 +8.459510E+02 +1.192617E+00 -6.397676E+00 +1.192617E+00 +3.870451E+02 
 +4.818893E+02 +1.465303E+01 -7.097651E+00 +1.465303E+01 +8.326953E+02 -3.291722E+00 -7.097651E+00 -3.291722E+00 +3.801209E+02 
 +4.696059E+02 +1.148449E+01 -2.551772E+00 +1.148449E+01 +8.253563E+02 -1.752909E-01 -2.551772E+00 -1.752909E-01 +3.609447E+02 
 +4.668533E+02 +6.963302E+00 +1.348356E+00 +6.963302E+00 +8.428564E+02 -3.964609E-02 +1.348356E+00 -3.964609E-02 +3.562187E+02 
 +4.661724E+02 -7.015431E+00 +1.252599E+01 -7.015431E+00 +8.559892E+02 -1.218065E+01 +1.252599E+01 -1.218065E+01 +3.631135E+02 
 +4.775488E+02 -9.970834E-01 +1.622662E+01 -9.970834E-01 +8.502699E+02 -2.014947E+01 +1.622662E+01 -2.014947E+01 +3.611214E+02 
 +4.985544E+02 -7.805792E-01 +2.087952E+01 -7.805792E-01 +8.514459E+02 -1.130209E+01 +2.087952E+01 -1.130209E+01 +3.629997E+02 
 +5.234528E+02 +6.609544E+00 +6.918350E-02 +6.609544E+00 +8.619141E+02 +5.347778E+00 +6.918350E-02 +5.347778E+00 +3.790263E+02 
 +5.268114E+02 +1.141457E+01 +4.622489E+00 +1.141457E+01 +8.693620E+02 +1.495585E+01 +4.622489E+00 +1.495585E+01 +3.923646E+02 
 +5.264087E+02 +1.092137E+01 +1.452278E+00 +1.092137E+01 +8.792575E+02 +1.570589E+01 +1.452278E+00 +1.570589E+01 +4.023674E+02 
 +5.313901E+02 +9.726426E+00 -5.490707E+00 +9.726426E+00 +8.938414E+02 +1.868835E+01 -5.490707E+00 +1.868835E+01 +4.314952E+02 
 +5.199712E+02 +7.792475E+00 +1.650456E+01 +7.792475E+00 +9.000220E+02 +1.812159E+01 +1.650456E+01 +1.812159E+01 +4.139445E+02 
 +4.858790E+02 +1.678166E+00 +2.476491E+01 +1.678166E+00 +8.850246E+02 +8.406005E+00 +2.476491E+01 +8.406005E+00 +3.399492E+02 
 +5.068186E+02 +1.165607E+00 +1.944697E+01 +1.165607E+00 +8.919824E+02 +2.483902E+00 +1.944697E+01 +2.483902E+00 +3.460601E+02 
 +4.535611E+02 +1.670262E-01 +1.233121E+01 +1.670262E-01 +8.546914E+02 +6.023816E+00 +1.233121E+01 +6.023816E+00 +3.771975E+02 
 +4.650966E+02 -3.384961E+00 -2.792736E+00 -3.384961E+00 +8.506741E+02 +9.378291E+00 -2.792736E+00 +9.378291E+00 +3.786449E+02 
 +4.690855E+02 +5.838680E-01 -9.335812E+00 +5.838680E-01 +8.617661E+02 +1.142925E+01 -9.335812E+00 +1.142925E+01 +3.823911E+02 
 +4.620405E+02 +1.243227E+00 -1.220284E+01 +1.243227E+00 +8.527231E+02 +1.358249E+01 -1.220284E+01 +1.358249E+01 +3.777288E+02 
 +4.569671E+02 +3.697716E-01 +1.828026E+00 +3.697716E-01 +8.371914E+02 +1.703905E+01 +1.828026E+00 +1.703905E+01 +3.665344E+02 
 +4.891570E+02 +1.597170E+01 -2.159072E-01 +1.597170E+01 +8.558897E+02 +1.377184E+01 -2.159072E-01 +1.377184E+01 +3.688130E+02 
 +4.882814E+02 +1.744106E+01 -1.385544E+00 +1.744106E+01 +8.577248E+02 +6.994881E+00 -1.385544E+00 +6.994881E+00 +3.723751E+02 
 +4.822451E+02 +1.723026E+01 -3.299125E+00 +1.723026E+01 +8.467143E+02 +2.072911E+00 -3.299125E+00 +2.072911E+00 +3.763162E+02 
 +4.815057E+02 +1.586258E+01 -5.042048E+00 +1.586258E+01 +8.400524E+02 -7.175340E-01 -5.042048E+00 -7.175340E-01 +3.743319E+02 
 +4.758110E+02 +1.119419E+01 -7.631966E+00 +1.119419E+01 +8.320610E+02 +2.763469E+00 -7.631966E+00 +2.763469E+00 +3.660564E+02 
 +4.690881E+02 +1.026568E+01 -4.731365E+00 +1.026568E+01 +8.315289E+02 +3.235182E+00 -4.731365E+00 +3.235182E+00 +3.571920E+02 
 +4.549174E+02 -4.976929E+00 +4.536734E+00 -4.976929E+00 +8.412463E+02 -5.376337E+00 +4.536734E+00 -5.376337E+00 +3.508207E+02 
 +4.870181E+02 +5.512389E+00 +7.212189E+00 +5.512389E+00 +8.619335E+02 -9.669501E+00 +7.212189E+00 -9.669501E+00 +3.553576E+02 
 +5.047470E+02 +1.171525E+01 +1.173415E+01 +1.171525E+01 +8.667741E+02 -1.181564E+01 +1.173415E+01 -1.181564E+01 +3.426664E+02 
 +5.125020E+02 +1.355557E+01 +1.776484E+00 +1.355557E+01 +8.753951E+02 -7.881220E+00 +1.776484E+00 -7.881220E+00 +3.464431E+02 
 +5.128628E+02 +1.312037E+01 -2.067638E+00 +1.312037E+01 +8.724423E+02 +4.345801E+00 -2.067638E+00 +4.345801E+00 +3.636476E+02 
 +5.143146E+02 +1.293117E+01 -6.536718E+00 +1.293117E+01 +8.766195E+02 +1.089833E+01 -6.536718E+00 +1.089833E+01 +3.806452E+02 
 +5.201859E+02 +1.052695E+01 -6.116825E+00 +1.052695E+01 +8.961951E+02 +1.714149E+01 -6.116825E+00 +1.714149E+01 +4.257437E+02 
 +5.149115E+02 +1.277188E+01 +9.338853E+00 +1.277188E+01 +8.948203E+02 +2.557466E+01 +9.338853E+00 +2.557466E+01 +4.299363E+02 
 +5.111615E+02 +1.980407E+00 +9.236209E+00 +1.980407E+00 +8.830872E+02 +2.150229E+01 +9.236209E+00 +2.150229E+01 +3.752505E+02 
 +5.027338E+02 -9.445371E+00 +1.857413E+01 -9.445371E+00 +8.731979E+02 +7.762195E+00 +1.857413E+01 +7.762195E+00 +3.384514E+02 
 +4.784050E+02 -1.633926E+01 +9.745746E+00 -1.633926E+01 +8.539288E+02 +4.748663E+00 +9.745746E+00 +4.748663E+00 +3.509065E+02 
 +4.696875E+02 -1.381575E+01 +5.048866E-01 -1.381575E+01 +8.563132E+02 +8.658684E+00 +5.048866E-01 +8.658684E+00 +3.708551E+02 
 +4.693780E+02 -3.617639E+00 -1.525751E+01 -3.617639E+00 +8.597634E+02 +1.302599E+01 -1.525751E+01 +1.302599E+01 +3.822139E+02 
 +4.714479E+02 -7.044821E+00 -2.073842E+01 -7.044821E+00 +8.613034E+02 +9.826888E+00 -2.073842E+01 +9.826888E+00 +3.902169E+02 
 +4.631732E+02 -3.370592E+00 -8.633531E+00 -3.370592E+00 +8.454124E+02 +1.318785E+01 -8.633531E+00 +1.318785E+01 +3.770661E+02 
 +4.971838E+02 +1.611829E+01 -2.779430E+00 +1.611829E+01 +8.618749E+02 +7.233885E+00 -2.779430E+00 +7.233885E+00 +3.788397E+02 
 +4.884134E+02 +1.344677E+01 +6.219598E-01 +1.344677E+01 +8.587267E+02 -3.692020E+00 +6.219598E-01 -3.692020E+00 +3.824201E+02 
 +4.895803E+02 +1.258131E+01 -4.107473E-01 +1.258131E+01 +8.562346E+02 -2.128085E+00 -4.107473E-01 -2.128085E+00 +3.832412E+02 
 +4.863814E+02 +1.371437E+01 -3.601020E+00 +1.371437E+01 +8.471869E+02 +3.166272E+00 -3.601020E+00 +3.166272E+00 +3.754508E+02 
 +4.800974E+02 +1.247129E+01 -7.907493E+00 +1.247129E+01 +8.410738E+02 +1.703994E+00 -7.907493E+00 +1.703994E+00 +3.736536E+02 
 +4.723320E+02 +1.362097E+01 -7.888381E+00 +1.362097E+01 +8.286418E+02 +1.383224E+00 -7.888381E+00 +1.383224E+00 +3.645020E+02 
 +4.708801E+02 +7.780363E+00 -2.737811E+00 +7.780363E+00 +8.296384E+02 -6.686241E-02 -2.737811E+00 -6.686241E-02 +3.532500E+02 
 +4.834768E+02 +6.523029E+00 +6.578499E+00 +6.523029E+00 +8.515994E+02 -6.347069E+00 +6.578499E+00 -6.347069E+00 +3.474464E+02 
 +4.976113E+02 +1.091434E+01 +6.496372E+00 +1.091434E+01 +8.645377E+02 -1.058893E+01 +6.496372E+00 -1.058893E+01 +3.415745E+02 
 +4.995640E+02 +1.244542E+01 +4.736340E+00 +1.244542E+01 +8.725442E+02 -1.464052E+01 +4.736340E+00 -1.464052E+01 +3.431431E+02 
 +5.032648E+02 +1.450580E+01 -2.544231E+00 +1.450580E+01 +8.833730E+02 -1.521955E+01 -2.544231E+00 -1.521955E+01 +3.550902E+02 
 +5.027560E+02 +1.622968E+01 -1.228232E+00 +1.622968E+01 +8.873804E+02 -3.825689E+00 -1.228232E+00 -3.825689E+00 +3.700676E+02 
 +5.048616E+02 +9.467632E+00 -1.945364E+00 +9.467632E+00 +8.934706E+02 +1.992665E+01 -1.945364E+00 +1.992665E+01 +4.114223E+02 
 +5.159260E+02 +7.948594E+00 +7.993127E+00 +7.948594E+00 +8.906286E+02 +3.139938E+01 +7.993127E+00 +3.139938E+01 +4.329143E+02 
 +5.147655E+02 +2.985645E+00 +1.351247E+00 +2.985645E+00 +8.767466E+02 +2.017294E+01 +1.351247E+00 +2.017294E+01 +4.056081E+02 
 +5.054126E+02 -1.365489E+01 +6.116947E+00 -1.365489E+01 +8.632055E+02 +8.025708E-01 +6.116947E+00 +8.025708E-01 +3.633141E+02 
 +4.950134E+02 -2.355916E+01 +6.350015E+00 -2.355916E+01 +8.623041E+02 -4.816455E+00 +6.350015E+00 -4.816455E+00 +3.540591E+02 
 +4.800413E+02 -1.506120E+01 +1.573083E-01 -1.506120E+01 +8.626832E+02 -1.037108E+01 +1.573083E-01 -1.037108E+01 +3.574572E+02 
 +4.771450E+02 +1.738607E+00 -1.557400E+01 +1.738607E+00 +8.574088E+02 -1.272807E+01 -1.557400E+01 -1.272807E+01 +3.738136E+02 
 +4.688752E+02 -5.359756E+00 -1.736128E+01 -5.359756E+00 +8.535219E+02 +2.679828E-01 -1.736128E+01 +2.679828E-01 +3.802642E+02 
 +4.596926E+02 -2.119429E+00 -7.169803E+00 -2.119429E+00 +8.476879E+02 +1.174162E+01 -7.169803E+00 +1.174162E+01 +3.625835E+02 
 +4.996910E+02 +1.650380E+01 -4.862683E+00 +1.650380E+01 +8.727430E+02 +8.111990E+00 -4.862683E+00 +8.111990E+00 +3.825391E+02 
 +4.988753E+02 +9.362241E+00 +1.880737E+00 +9.362241E+00 +8.728514E+02 +2.983099E+00 +1.880737E+00 +2.983099E+00 +3.959675E+02 
 +4.946277E+02 +1.015317E+01 +2.330025E+00 +1.015317E+01 +8.601150E+02 +9.268797E-01 +2.330025E+00 +9.268797E-01 +3.825057E+02 
 +4.907056E+02 +1.106023E+01 -5.543733E+00 +1.106023E+01 +8.498461E+02 +2.296081E-01 -5.543733E+00 +2.296081E-01 +3.691378E+02 
 +4.830186E+02 +1.213487E+01 -1.032162E+01 +1.213487E+01 +8.414519E+02 -1.212392E-01 -1.032162E+01 -1.212392E-01 +3.681249E+02 
 +4.816455E+02 +1.115980E+01 -8.920171E+00 +1.115980E+01 +8.370543E+02 -1.088984E+00 -8.920171E+00 -1.088984E+00 +3.656899E+02 
 +4.865246E+02 +8.813193E+00 -6.925573E+00 +8.813193E+00 +8.409978E+02 -3.277211E+00 -6.925573E+00 -3.277211E+00 +3.592303E+02 
 +4.800850E+02 +4.829314E+00 +6.883217E+00 +4.829314E+00 +8.464171E+02 -6.180434E+00 +6.883217E+00 -6.180434E+00 +3.450081E+02 
 +4.871404E+02 +1.009626E+01 +5.105216E+00 +1.009626E+01 +8.596310E+02 -9.453270E+00 +5.105216E+00 -9.453270E+00 +3.381894E+02 
 +4.929234E+02 +1.223854E+01 +3.898400E+00 +1.223854E+01 +8.684538E+02 -1.226349E+01 +3.898400E+00 -1.226349E+01 +3.421089E+02 
 +4.929815E+02 +1.350176E+01 +1.954624E+00 +1.350176E+01 +8.757415E+02 -1.300051E+01 +1.954624E+00 -1.300051E+01 +3.547087E+02 
 +4.864059E+02 +1.550103E+01 +8.506034E+00 +1.550103E+01 +8.754213E+02 -1.297642E+01 +8.506034E+00 -1.297642E+01 +3.755516E+02 
 +4.962154E+02 +1.538949E+01 -9.443837E-01 +1.538949E+01 +8.773731E+02 -9.350846E+00 -9.443837E-01 -9.350846E+00 +4.113102E+02 
 +5.101457E+02 +1.457065E+01 +1.131283E+00 +1.457065E+01 +8.797030E+02 -3.320780E+00 +1.131283E+00 -3.320780E+00 +4.316051E+02 
 +5.074285E+02 +1.094269E+01 +2.146443E+00 +1.094269E+01 +8.693383E+02 -2.448783E+00 +2.146443E+00 -2.448783E+00 +4.154292E+02 
 +5.024578E+02 -7.588000E+00 -7.061981E+00 -7.588000E+00 +8.623522E+02 -4.666828E+00 -7.061981E+00 -4.666828E+00 +3.811884E+02 
 +4.943770E+02 -1.664816E+01 -1.792831E+00 -1.664816E+01 +8.661706E+02 -6.387873E+00 -1.792831E+00 -6.387873E+00 +3.597728E+02 
 +4.922578E+02 -1.634826E+01 -4.575039E+00 -1.634826E+01 +8.801041E+02 -5.562341E+00 -4.575039E+00 -5.562341E+00 +3.508317E+02 
 +4.827281E+02 -1.266849E+01 -1.068624E+01 -1.266849E+01 +8.712828E+02 -9.320966E+00 -1.068624E+01 -9.320966E+00 +3.451403E+02 
 +4.660491E+02 -1.374319E+01 -7.803645E+00 -1.374319E+01 +8.539299E+02 -1.071360E+01 -7.803645E+00 -1.071360E+01 +3.404643E+02 
 +4.622275E+02 -9.786465E+00 +1.174526E-01 -9.786465E+00 +8.491028E+02 -4.441473E+00 +1.174526E-01 -4.441473E+00 +3.426734E+02 
 +4.866540E+02 +1.707662E+01 -5.415310E+00 +1.707662E+01 +8.560941E+02 +1.816087E+00 -5.415310E+00 +1.816087E+00 +3.635727E+02 
 +4.925085E+02 +1.258602E+01 -5.895445E+00 +1.258602E+01 +8.583204E+02 +4.493488E+00 -5.895445E+00 +4.493488E+00 +3.721338E+02 
 +4.934805E+02 +1.276944E+01 -8.921706E+00 +1.276944E+01 +8.587745E+02 +4.281844E+00 -8.921706E+00 +4.281844E+00 +3.695029E+02 
 +4.888789E+02 +1.028665E+01 -1.113230E+01 +1.028665E+01 +8.496830E+02 +2.752343E+00 -1.113230E+01 +2.752343E+00 +3.641426E+02 
 +4.891689E+02 +1.132392E+01 -9.688853E+00 +1.132392E+01 +8.432966E+02 +3.403687E+00 -9.688853E+00 +3.403687E+00 +3.624200E+02 
 +4.883546E+02 +1.105497E+01 -6.424691E+00 +1.105497E+01 +8.404624E+02 +3.874116E+00 -6.424691E+00 +3.874116E+00 +3.614128E+02 
 +4.880102E+02 +1.487505E+01 -6.250752E+00 +1.487505E+01 +8.417925E+02 +2.094388E+00 -6.250752E+00 +2.094388E+00 +3.560385E+02 
 +4.766363E+02 +1.294504E+01 +1.821902E+00 +1.294504E+01 +8.462127E+02 -3.225986E+00 +1.821902E+00 -3.225986E+00 +3.349901E+02 
 +4.783190E+02 +1.173477E+01 +1.181692E+00 +1.173477E+01 +8.603726E+02 -6.461261E+00 +1.181692E+00 -6.461261E+00 +3.279509E+02 
 +4.804741E+02 +8.270592E+00 -6.806109E-01 +8.270592E+00 +8.634684E+02 -8.175419E+00 -6.806109E-01 -8.175419E+00 +3.359141E+02 
 +4.852871E+02 +1.204093E+01 +3.857892E+00 +1.204093E+01 +8.674380E+02 -8.282486E+00 +3.857892E+00 -8.282486E+00 +3.553574E+02 
 +4.889425E+02 +1.110517E+01 +5.492380E+00 +1.110517E+01 +8.729920E+02 -9.383791E+00 +5.492380E+00 -9.383791E+00 +3.839671E+02 
 +4.954942E+02 +8.139352E+00 -1.593224E+00 +8.139352E+00 +8.678759E+02 -1.091736E+01 -1.593224E+00 -1.091736E+01 +4.050205E+02 
 +4.973763E+02 +9.825859E+00 +4.672075E+00 +9.825859E+00 +8.651989E+02 -5.167582E+00 +4.672075E+00 -5.167582E+00 +4.198606E+02 
 +4.999708E+02 +6.621544E+00 +5.404795E+00 +6.621544E+00 +8.681564E+02 -2.040733E+00 +5.404795E+00 -2.040733E+00 +4.172689E+02 
 +4.949649E+02 -6.735110E+00 -1.197833E+01 -6.735110E+00 +8.648611E+02 -4.113072E+00 -1.197833E+01 -4.113072E+00 +3.881378E+02 
 +4.923987E+02 -1.275178E+01 -1.394646E+01 -1.275178E+01 +8.695792E+02 -4.360947E+00 -1.394646E+01 -4.360947E+00 +3.650914E+02 
 +4.970257E+02 -1.453710E+01 -1.040180E+01 -1.453710E+01 +8.804927E+02 -5.891616E+00 -1.040180E+01 -5.891616E+00 +3.603905E+02 
 +4.897675E+02 -1.139660E+01 -9.188665E+00 -1.139660E+01 +8.776799E+02 -9.937602E+00 -9.188665E+00 -9.937602E+00 +3.458524E+02 
 +4.776260E+02 -9.255311E+00 -7.851684E+00 -9.255311E+00 +8.685189E+02 -1.070989E+01 -7.851684E+00 -1.070989E+01 +3.369595E+02 
 +4.729340E+02 -1.359669E+01 +3.492708E+00 -1.359669E+01 +8.582112E+02 -6.154564E+00 +3.492708E+00 -6.154564E+00 +3.445271E+02 
 +4.902706E+02 +8.331855E+00 -5.126093E+00 +8.331855E+00 +8.515957E+02 -1.236793E+00 -5.126093E+00 -1.236793E+00 +3.612477E+02 
 +4.939417E+02 +1.162564E+01 -1.417919E+01 +1.162564E+01 +8.496645E+02 -2.353333E-01 -1.417919E+01 -2.353333E-01 +3.636762E+02 
 +4.970560E+02 +1.086482E+01 -1.903439E+01 +1.086482E+01 +8.604159E+02 -7.476808E-01 -1.903439E+01 -7.476808E-01 +3.656675E+02 
 +4.899164E+02 +7.487100E+00 -1.616358E+01 +7.487100E+00 +8.534852E+02 +7.666274E-01 -1.616358E+01 +7.666274E-01 +3.644122E+02 
 +4.965795E+02 +1.017456E+01 -2.945192E+00 +1.017456E+01 +8.464696E+02 +4.641274E+00 -2.945192E+00 +4.641274E+00 +3.683540E+02 
 +4.993487E+02 +1.239734E+01 +3.743866E+00 +1.239734E+01 +8.431723E+02 +8.028328E+00 +3.743866E+00 +8.028328E+00 +3.679056E+02 
 +4.857526E+02 +1.665425E+01 -1.066473E+01 +1.665425E+01 +8.439881E+02 +7.606620E+00 -1.066473E+01 +7.606620E+00 +3.546421E+02 
 +4.714555E+02 +1.649494E+01 -8.346532E+00 +1.649494E+01 +8.520844E+02 +2.915116E+00 -8.346532E+00 +2.915116E+00 +3.255469E+02 
 +4.750715E+02 +1.179530E+01 -7.740798E+00 +1.179530E+01 +8.654254E+02 -6.493071E-01 -7.740798E+00 -6.493071E-01 +3.200898E+02 
 +4.741945E+02 +8.128012E+00 -9.262717E+00 +8.128012E+00 +8.667721E+02 -3.916340E+00 -9.262717E+00 -3.916340E+00 +3.369332E+02 
 +4.640918E+02 +7.001608E+00 -3.451283E+00 +7.001608E+00 +8.467523E+02 -1.019050E+01 -3.451283E+00 -1.019050E+01 +3.509846E+02 
 +4.750458E+02 +5.850647E+00 +2.608041E+00 +5.850647E+00 +8.373141E+02 -1.172951E+01 +2.608041E+00 -1.172951E+01 +3.759202E+02 
 +4.856727E+02 +4.546207E+00 +2.447875E+00 +4.546207E+00 +8.476852E+02 -5.409140E+00 +2.447875E+00 -5.409140E+00 +3.957238E+02 
 +4.916359E+02 +9.694337E+00 +9.593845E+00 +9.694337E+00 +8.588225E+02 -2.169439E+00 +9.593845E+00 -2.169439E+00 +4.144543E+02 
 +4.893936E+02 +6.099978E+00 +6.751333E+00 +6.099978E+00 +8.586842E+02 -3.249947E+00 +6.751333E+00 -3.249947E+00 +4.156101E+02 
 +4.825286E+02 -4.267902E+00 -1.048105E+01 -4.267902E+00 +8.576732E+02 -3.241767E+00 -1.048105E+01 -3.241767E+00 +3.938122E+02 
 +4.917241E+02 -1.126283E+01 -2.137326E+01 -1.126283E+01 +8.723045E+02 -2.515012E+00 -2.137326E+01 -2.515012E+00 +3.770789E+02 
 +4.908886E+02 -1.551709E+01 -1.539994E+01 -1.551709E+01 +8.526507E+02 -1.173054E+01 -1.539994E+01 -1.173054E+01 +3.668064E+02 
 +4.914734E+02 -1.454032E+01 -1.040546E+01 -1.454032E+01 +8.534305E+02 -8.922822E+00 -1.040546E+01 -8.922822E+00 +3.631194E+02 
 +4.931342E+02 -8.253937E+00 -1.035670E+01 -8.253937E+00 +8.616829E+02 -3.175847E+00 -1.035670E+01 -3.175847E+00 +3.650288E+02 
 +4.921840E+02 -5.266713E+00 -1.392944E+00 -5.266713E+00 +8.755161E+02 +3.170476E+00 -1.392944E+00 +3.170476E+00 +3.650035E+02 
 +4.892087E+02 +5.164735E+00 -1.623820E+00 +5.164735E+00 +8.695240E+02 +6.090734E+00 -1.623820E+00 +6.090734E+00 +3.694285E+02 
 +5.064893E+02 +1.131394E+01 -1.972463E+01 +1.131394E+01 +8.601832E+02 +4.535281E+00 -1.972463E+01 +4.535281E+00 +3.793139E+02 
 +5.023927E+02 +9.986041E+00 -2.166247E+01 +9.986041E+00 +8.517154E+02 -2.243038E+00 -2.166247E+01 -2.243038E+00 +3.656218E+02 
 +4.931544E+02 +6.517374E+00 -1.176089E+01 +6.517374E+00 +8.482144E+02 -2.979973E+00 -1.176089E+01 -2.979973E+00 +3.570586E+02 
 +4.993807E+02 +7.418954E+00 +6.746939E+00 +7.418954E+00 +8.536389E+02 +7.463152E+00 +6.746939E+00 +7.463152E+00 +3.713207E+02 
 +4.986722E+02 +9.866304E+00 +3.564571E+00 +9.866304E+00 +8.637220E+02 +8.440138E+00 +3.564571E+00 +8.440138E+00 +3.619903E+02 
 +4.840728E+02 +9.275305E+00 -2.075561E+01 +9.275305E+00 +8.759087E+02 +5.716018E+00 -2.075561E+01 +5.716018E+00 +3.361532E+02 
 +4.865820E+02 +6.818956E+00 -1.959297E+01 +6.818956E+00 +8.817083E+02 +5.869033E+00 -1.959297E+01 +5.869033E+00 +3.249943E+02 
 +4.826168E+02 +9.571261E-01 -1.954344E+01 +9.571261E-01 +8.772837E+02 +2.036260E+00 -1.954344E+01 +2.036260E+00 +3.251814E+02 
 +4.768543E+02 -4.909407E+00 -1.697821E+01 -4.909407E+00 +8.747365E+02 +6.798474E-01 -1.697821E+01 +6.798474E-01 +3.435402E+02 
 +4.629855E+02 -8.887548E+00 -2.052083E+01 -8.887548E+00 +8.534297E+02 -6.459003E+00 -2.052083E+01 -6.459003E+00 +3.604857E+02 
 +4.759691E+02 -3.453945E+00 +6.916027E+00 -3.453945E+00 +8.338656E+02 -7.398060E+00 +6.916027E+00 -7.398060E+00 +3.785279E+02 
 +4.774666E+02 +5.701111E+00 +2.904554E+00 +5.701111E+00 +8.313748E+02 -1.974511E+00 +2.904554E+00 -1.974511E+00 +3.833623E+02 
 +4.796673E+02 +4.678001E+00 +6.920756E+00 +4.678001E+00 +8.494096E+02 -4.228917E+00 +6.920756E+00 -4.228917E+00 +3.930227E+02 
 +4.727058E+02 -1.766116E+00 +4.331786E+00 -1.766116E+00 +8.481340E+02 -1.061134E+01 +4.331786E+00 -1.061134E+01 +3.971706E+02 
 +4.702266E+02 -8.285167E+00 -5.513476E+00 -8.285167E+00 +8.435026E+02 -1.855677E+01 -5.513476E+00 -1.855677E+01 +3.896854E+02 
 +4.749350E+02 -9.949052E+00 -1.357772E+01 -9.949052E+00 +8.443511E+02 -1.713857E+01 -1.357772E+01 -1.713857E+01 +3.756488E+02 
 +4.885558E+02 -1.512330E+01 -6.864914E+00 -1.512330E+01 +8.439882E+02 -1.709061E+01 -6.864914E+00 -1.709061E+01 +3.648677E+02 
 +4.973862E+02 -1.359227E+01 -9.114712E+00 -1.359227E+01 +8.525393E+02 -6.364722E+00 -9.114712E+00 -6.364722E+00 +3.701944E+02 
 +5.116908E+02 -1.239922E+01 -1.570090E+01 -1.239922E+01 +8.639592E+02 -1.005575E+00 -1.570090E+01 -1.005575E+00 +3.830799E+02 
 +5.125306E+02 -8.528932E+00 -1.533586E+01 -8.528932E+00 +8.706633E+02 +3.099933E+00 -1.533586E+01 +3.099933E+00 +3.797632E+02 
 +4.962711E+02 +3.226552E+00 -1.113363E+01 +3.226552E+00 +8.726148E+02 +3.908959E+00 -1.113363E+01 +3.908959E+00 +3.857445E+02 
 +5.108384E+02 +1.483951E+01 -2.779469E+01 +1.483951E+01 +8.686161E+02 +2.770411E+00 -2.779469E+01 +2.770411E+00 +4.034747E+02 
 +5.066631E+02 +1.814586E+01 -1.657318E+01 +1.814586E+01 +8.497645E+02 +6.227840E+00 -1.657318E+01 +6.227840E+00 +3.781707E+02 
 +4.853066E+02 +5.544226E+00 -6.452307E+00 +5.544226E+00 +8.420681E+02 +4.875391E+00 -6.452307E+00 +4.875391E+00 +3.548117E+02 
 +4.911780E+02 +4.195573E+00 +3.425564E+00 +4.195573E+00 +8.708440E+02 +4.367882E+00 +3.425564E+00 +4.367882E+00 +3.587739E+02 
 +4.891128E+02 +6.200685E+00 -1.192685E+01 +6.200685E+00 +8.917290E+02 +5.136412E+00 -1.192685E+01 +5.136412E+00 +3.373643E+02 
 +4.857462E+02 +9.639099E+00 -2.116878E+01 +9.639099E+00 +8.858840E+02 +2.913034E+00 -2.116878E+01 +2.913034E+00 +3.167156E+02 
 +4.882048E+02 +7.384358E+00 -2.383349E+01 +7.384358E+00 +8.809644E+02 +3.247064E+00 -2.383349E+01 +3.247064E+00 +3.186295E+02 
 +4.845975E+02 +3.071660E+00 -2.594881E+01 +3.071660E+00 +8.769197E+02 +2.400300E+00 -2.594881E+01 +2.400300E+00 +3.286001E+02 
 +4.816111E+02 -3.967331E+00 -2.396743E+01 -3.967331E+00 +8.729656E+02 +1.276614E+00 -2.396743E+01 +1.276614E+00 +3.515782E+02 
 +4.639898E+02 -1.206916E+01 -2.425993E+01 -1.206916E+01 +8.570638E+02 +4.401693E+00 -2.425993E+01 +4.401693E+00 +3.653309E+02 
 +4.670374E+02 -1.676137E+01 +6.693099E+00 -1.676137E+01 +8.401304E+02 +6.925835E+00 +6.693099E+00 +6.925835E+00 +3.711386E+02 
 +4.640330E+02 +1.182522E+00 +1.369324E+00 +1.182522E+00 +8.260959E+02 +5.436055E+00 +1.369324E+00 +5.436055E+00 +3.714895E+02 
 +4.690972E+02 -1.993385E+00 +3.958865E+00 -1.993385E+00 +8.389340E+02 +9.627087E-01 +3.958865E+00 +9.627087E-01 +3.720784E+02 
 +4.713141E+02 -7.389249E+00 +6.142176E+00 -7.389249E+00 +8.478628E+02 -7.331378E+00 +6.142176E+00 -7.331378E+00 +3.729538E+02 
 +4.753112E+02 -8.260054E+00 +1.748028E+00 -8.260054E+00 +8.503088E+02 -1.584552E+01 +1.748028E+00 -1.584552E+01 +3.809385E+02 
 +4.772753E+02 -1.091010E+01 +2.345426E-01 -1.091010E+01 +8.458311E+02 -2.291175E+01 +2.345426E-01 -2.291175E+01 +3.776642E+02 
 +4.936453E+02 -1.106155E+01 +3.149678E+00 -1.106155E+01 +8.493494E+02 -1.908972E+01 +3.149678E+00 -1.908972E+01 +3.724937E+02 
 +5.090637E+02 -9.265528E+00 -1.112553E+01 -9.265528E+00 +8.639239E+02 -1.167997E+01 -1.112553E+01 -1.167997E+01 +3.765556E+02 
 +5.152600E+02 -9.027597E+00 -1.459238E+01 -9.027597E+00 +8.684407E+02 -6.888773E+00 -1.459238E+01 -6.888773E+00 +3.823963E+02 
 +5.224787E+02 -7.390381E+00 -2.296859E+01 -7.390381E+00 +8.711473E+02 +4.909771E+00 -2.296859E+01 +4.909771E+00 +3.912240E+02 
 +5.237645E+02 -6.409876E+00 -3.032957E+01 -6.409876E+00 +8.755664E+02 +1.321419E+01 -3.032957E+01 +1.321419E+01 +4.112183E+02 
 +5.203986E+02 -1.420386E-01 -3.376593E+01 -1.420386E-01 +8.764139E+02 +1.304281E+01 -3.376593E+01 +1.304281E+01 +4.180870E+02 
 +5.073944E+02 +1.442637E+01 -1.000725E+01 +1.442637E+01 +8.725432E+02 +1.001942E+01 -1.000725E+01 +1.001942E+01 +3.837512E+02 
 +4.885085E+02 +3.574626E+00 -1.707940E+01 +3.574626E+00 +8.839150E+02 +2.743234E+00 -1.707940E+01 +2.743234E+00 +3.626130E+02 
 +4.897956E+02 +6.390821E+00 -1.168641E+01 +6.390821E+00 +8.961347E+02 -3.518616E+00 -1.168641E+01 -3.518616E+00 +3.500296E+02 
 +4.828602E+02 +9.683333E+00 -1.990445E+01 +9.683333E+00 +8.848499E+02 -2.415294E-01 -1.990445E+01 -2.415294E-01 +3.206983E+02 
 +4.937793E+02 +9.783584E+00 -1.922565E+01 +9.783584E+00 +8.847580E+02 +2.171525E+00 -1.922565E+01 +2.171525E+00 +3.149516E+02 
 +4.924676E+02 +8.022870E+00 -2.439929E+01 +8.022870E+00 +8.799473E+02 +3.617619E-01 -2.439929E+01 +3.617619E-01 +3.209688E+02 
 +4.906452E+02 +4.494676E+00 -2.929907E+01 +4.494676E+00 +8.761100E+02 +7.643073E-01 -2.929907E+01 +7.643073E-01 +3.350448E+02 
 +4.910695E+02 -2.173114E+00 -3.169812E+01 -2.173114E+00 +8.751432E+02 +2.527943E+00 -3.169812E+01 +2.527943E+00 +3.617202E+02 
 +4.580607E+02 -9.385030E+00 -1.383391E+01 -9.385030E+00 +8.568771E+02 +6.936683E+00 -1.383391E+01 +6.936683E+00 +3.635014E+02 
 +4.631346E+02 -1.103083E+01 +1.097245E+00 -1.103083E+01 +8.719516E+02 +8.577616E+00 +1.097245E+00 +8.577616E+00 +3.723972E+02 
 +4.538257E+02 -2.411788E+00 +7.588771E+00 -2.411788E+00 +8.588545E+02 +1.297140E+01 +7.588771E+00 +1.297140E+01 +3.798504E+02 
 +4.750533E+02 -1.528946E+00 +5.901353E+00 -1.528946E+00 +8.414213E+02 +1.426401E+01 +5.901353E+00 +1.426401E+01 +3.819549E+02 
 +4.814518E+02 -7.761093E+00 +9.566417E+00 -7.761093E+00 +8.430099E+02 -2.784620E+00 +9.566417E+00 -2.784620E+00 +3.758464E+02 
 +4.867911E+02 -9.531498E+00 +8.201532E+00 -9.531498E+00 +8.539511E+02 -2.228201E+01 +8.201532E+00 -2.228201E+01 +3.787164E+02 
 +4.806589E+02 -1.305016E+01 +9.006661E+00 -1.305016E+01 +8.447897E+02 -2.855779E+01 +9.006661E+00 -2.855779E+01 +3.721220E+02 
 +5.040339E+02 -7.324560E+00 +2.979613E+00 -7.324560E+00 +8.553023E+02 -1.553130E+01 +2.979613E+00 -1.553130E+01 +3.907313E+02 
 +5.110534E+02 -3.419536E+00 -1.241905E+01 -3.419536E+00 +8.575194E+02 -1.010625E+01 -1.241905E+01 -1.010625E+01 +3.770644E+02 
 +5.099941E+02 -7.498736E+00 -8.304769E+00 -7.498736E+00 +8.639557E+02 -1.751200E+00 -8.304769E+00 -1.751200E+00 +3.765163E+02 
 +5.229523E+02 -6.926464E+00 -2.355973E+01 -6.926464E+00 +8.750686E+02 +6.994509E+00 -2.355973E+01 +6.994509E+00 +3.998217E+02 
 +5.286628E+02 -4.989337E+00 -3.601656E+01 -4.989337E+00 +8.834150E+02 +1.918814E+01 -3.601656E+01 +1.918814E+01 +4.223789E+02 
 +5.392476E+02 -3.902616E+00 -3.595386E+01 -3.902616E+00 +9.048898E+02 +1.912346E+01 -3.595386E+01 +1.912346E+01 +4.257685E+02 
 +5.054682E+02 +8.742290E+00 -1.965161E+01 +8.742290E+00 +8.947352E+02 +7.630603E+00 -1.965161E+01 +7.630603E+00 +3.812122E+02 
 +4.874387E+02 +6.218672E+00 -3.070471E+01 +6.218672E+00 +8.861776E+02 -6.651397E-01 -3.070471E+01 -6.651397E-01 +3.565789E+02 
 +4.880104E+02 +1.005513E+01 -2.101351E+01 +1.005513E+01 +8.873779E+02 -5.019867E+00 -2.101351E+01 -5.019867E+00 +3.445884E+02 
 +4.912280E+02 +1.320673E+01 -2.082229E+01 +1.320673E+01 +8.861321E+02 -6.177536E+00 -2.082229E+01 -6.177536E+00 +3.289273E+02 
 +4.961304E+02 +1.101661E+01 -1.971195E+01 +1.101661E+01 +8.844752E+02 -4.018704E+00 -1.971195E+01 -4.018704E+00 +3.175240E+02 
 +4.991051E+02 +7.588326E+00 -2.480900E+01 +7.588326E+00 +8.825035E+02 -1.929797E+00 -2.480900E+01 -1.929797E+00 +3.264198E+02 
 +5.005814E+02 +2.310606E+00 -3.164876E+01 +2.310606E+00 +8.801652E+02 +5.019424E-01 -3.164876E+01 +5.019424E-01 +3.462502E+02 
 +4.896991E+02 -5.361980E+00 -3.269900E+01 -5.361980E+00 +8.759998E+02 +7.851701E+00 -3.269900E+01 +7.851701E+00 +3.590351E+02 
 +4.508193E+02 -1.580420E+01 -9.435455E+00 -1.580420E+01 +8.595389E+02 +9.667665E+00 -9.435455E+00 +9.667665E+00 +3.569210E+02 
 +4.429578E+02 -1.391275E+01 -5.610642E-02 -1.391275E+01 +8.614532E+02 +7.055016E+00 -5.610642E-02 +7.055016E+00 +3.658986E+02 
 +4.454718E+02 -7.644889E+00 +1.199017E+01 -7.644889E+00 +8.609173E+02 +1.038821E+01 +1.199017E+01 +1.038821E+01 +3.778969E+02 
 +4.755777E+02 +3.076462E-01 +1.098161E+01 +3.076462E-01 +8.484405E+02 +1.526168E+01 +1.098161E+01 +1.526168E+01 +3.877157E+02 
 +4.745464E+02 +1.051753E+00 +1.145784E+01 +1.051753E+00 +8.142187E+02 +1.638783E+01 +1.145784E+01 +1.638783E+01 +3.752914E+02 
 +4.821209E+02 +3.783865E+00 +1.032654E+01 +3.783865E+00 +8.216279E+02 +4.376061E+00 +1.032654E+01 +4.376061E+00 +3.699635E+02 
 +4.790382E+02 -9.620140E+00 +1.364833E+01 -9.620140E+00 +8.383538E+02 -1.082788E+01 +1.364833E+01 -1.082788E+01 +3.738474E+02 
 +5.019796E+02 -6.496944E+00 +2.961993E+00 -6.496944E+00 +8.514409E+02 -1.304994E+01 +2.961993E+00 -1.304994E+01 +3.899967E+02 
 +5.170080E+02 -2.854385E+00 -1.035375E+01 -2.854385E+00 +8.622343E+02 -5.437502E+00 -1.035375E+01 -5.437502E+00 +3.895527E+02 
 +5.167092E+02 -5.216268E+00 -1.404012E+01 -5.216268E+00 +8.627006E+02 +3.506490E+00 -1.404012E+01 +3.506490E+00 +3.881696E+02 
 +5.135936E+02 -3.046157E+00 -1.920507E+01 -3.046157E+00 +8.680632E+02 +1.076898E+01 -1.920507E+01 +1.076898E+01 +4.009641E+02 
 +5.161733E+02 -1.612359E+00 -2.037354E+01 -1.612359E+00 +8.884898E+02 +1.612380E+01 -2.037354E+01 +1.612380E+01 +4.189914E+02 
 +5.289393E+02 -8.749740E-01 -2.431803E+01 -8.749740E-01 +9.071803E+02 +1.199772E+01 -2.431803E+01 +1.199772E+01 +4.175710E+02 
 +5.037487E+02 +9.932204E+00 -2.821365E+01 +9.932204E+00 +8.896190E+02 +2.105823E+00 -2.821365E+01 +2.105823E+00 +3.743111E+02 
 +4.929611E+02 +8.795398E+00 -3.692655E+01 +8.795398E+00 +8.802193E+02 -7.990404E+00 -3.692655E+01 -7.990404E+00 +3.556134E+02 
 +4.948979E+02 +1.116899E+01 -2.582041E+01 +1.116899E+01 +8.830668E+02 -1.223712E+01 -2.582041E+01 -1.223712E+01 +3.501558E+02 
 +4.972880E+02 +1.358049E+01 -2.330506E+01 +1.358049E+01 +8.855579E+02 -1.221914E+01 -2.330506E+01 -1.221914E+01 +3.356550E+02 
 +5.058026E+02 +1.242654E+01 -2.240534E+01 +1.242654E+01 +8.894213E+02 -1.125357E+01 -2.240534E+01 -1.125357E+01 +3.338306E+02 
 +5.073951E+02 +8.921795E+00 -2.655154E+01 +8.921795E+00 +8.876563E+02 -3.940193E+00 -2.655154E+01 -3.940193E+00 +3.371353E+02 
 +5.028966E+02 +4.729427E+00 -4.017951E+01 +4.729427E+00 +8.863568E+02 +3.585088E+00 -4.017951E+01 +3.585088E+00 +3.461122E+02 
 +4.853404E+02 -1.982671E+00 -3.263136E+01 -1.982671E+00 +8.857819E+02 +3.871518E+00 -3.263136E+01 +3.871518E+00 +3.526811E+02 
 +4.373324E+02 -1.509585E+01 -8.273825E+00 -1.509585E+01 +8.650346E+02 +5.143843E-01 -8.273825E+00 +5.143843E-01 +3.472005E+02 
 +4.282648E+02 -1.663175E+01 +6.345954E+00 -1.663175E+01 +8.456265E+02 +3.497640E+00 +6.345954E+00 +3.497640E+00 +3.608351E+02 
 +4.557925E+02 -9.594237E+00 +9.149691E+00 -9.594237E+00 +8.397906E+02 +1.039403E+01 +9.149691E+00 +1.039403E+01 +3.808762E+02 
 +4.711831E+02 -2.258963E+00 +1.239625E+01 -2.258963E+00 +8.397009E+02 +9.918323E+00 +1.239625E+01 +9.918323E+00 +3.910189E+02 
 +4.874939E+02 +1.574667E+00 +1.827826E+01 +1.574667E+00 +8.374886E+02 +1.154026E+01 +1.827826E+01 +1.154026E+01 +3.920377E+02 
 +4.791532E+02 +7.719423E+00 +9.012249E+00 +7.719423E+00 +8.260680E+02 +6.328864E+00 +9.012249E+00 +6.328864E+00 +3.778454E+02 
 +4.912023E+02 -8.151534E+00 +1.388765E+01 -8.151534E+00 +8.402541E+02 -7.111607E+00 +1.388765E+01 -7.111607E+00 +3.819212E+02 
 +4.666420E+02 -4.101242E+00 +3.767103E+01 -4.101242E+00 +8.367669E+02 -1.361903E+00 +3.767103E+01 -1.361903E+00 +3.423265E+02 
 +4.908671E+02 +3.297243E-01 +2.466219E+01 +3.297243E-01 +8.600983E+02 -3.171525E+00 +2.466219E+01 -3.171525E+00 +3.521518E+02 
 +5.113274E+02 +1.274741E+00 +1.132730E+01 +1.274741E+00 +8.708884E+02 -8.047419E-01 +1.132730E+01 -8.047419E-01 +3.616267E+02 
 +5.099815E+02 +1.412189E+00 +1.118627E+01 +1.412189E+00 +8.877793E+02 -1.666340E+00 +1.118627E+01 -1.666340E+00 +3.713413E+02 
 +4.989994E+02 -2.963793E-01 +1.927464E+01 -2.963793E-01 +9.041775E+02 +4.155117E+00 +1.927464E+01 +4.155117E+00 +3.923590E+02 
 +5.119117E+02 -1.833820E+00 -1.792429E+01 -1.833820E+00 +9.138262E+02 +1.187789E+01 -1.792429E+01 +1.187789E+01 +3.702303E+02 
 +5.042221E+02 +1.069107E+00 -2.166359E+01 +1.069107E+00 +8.980355E+02 +1.802351E+00 -2.166359E+01 +1.802351E+00 +3.403142E+02 
 +5.015294E+02 +5.096755E+00 -2.855793E+01 +5.096755E+00 +8.881348E+02 -9.024233E+00 -2.855793E+01 -9.024233E+00 +3.565445E+02 
 +4.923141E+02 +1.226910E+01 -3.268350E+01 +1.226910E+01 +8.774232E+02 -1.035806E+01 -3.268350E+01 -1.035806E+01 +3.463351E+02 
 +5.063752E+02 +1.199317E+01 -2.028378E+01 +1.199317E+01 +8.834446E+02 -5.810009E+00 -2.028378E+01 -5.810009E+00 +3.517360E+02 
 +4.950255E+02 +1.026090E+01 -2.467382E+01 +1.026090E+01 +8.824591E+02 -6.532870E+00 -2.467382E+01 -6.532870E+00 +3.599643E+02 
 +5.030048E+02 +5.990719E+00 -2.419150E+01 +5.990719E+00 +8.947029E+02 -6.793190E+00 -2.419150E+01 -6.793190E+00 +3.645461E+02 
 +4.923016E+02 +8.987432E-01 -3.018790E+01 +8.987432E-01 +8.895765E+02 +4.895961E+00 -3.018790E+01 +4.895961E+00 +3.425577E+02 
 +4.828642E+02 -4.874958E+00 -4.791126E+01 -4.874958E+00 +8.845139E+02 +2.498684E+00 -4.791126E+01 +2.498684E+00 +3.312723E+02 
 +4.700861E+02 -2.141715E+01 -1.346448E+01 -2.141715E+01 +8.641635E+02 +3.131841E+00 -1.346448E+01 +3.131841E+00 +3.255886E+02 
 +4.639824E+02 -1.794902E+01 +1.278997E+01 -1.794902E+01 +8.452026E+02 +1.370770E+01 +1.278997E+01 +1.370770E+01 +3.513173E+02 
 +4.736289E+02 -9.101464E+00 +9.807169E+00 -9.101464E+00 +8.367996E+02 +1.419384E+01 +9.807169E+00 +1.419384E+01 +3.868595E+02 
 +4.632300E+02 -6.355005E+00 +6.538272E+00 -6.355005E+00 +8.133868E+02 +1.317014E+01 +6.538272E+00 +1.317014E+01 +3.826958E+02 
 +4.822239E+02 -2.294265E+00 +1.408478E+01 -2.294265E+00 +8.278464E+02 +1.668452E+01 +1.408478E+01 +1.668452E+01 +3.912645E+02 
 +4.884002E+02 +1.109829E+00 +1.381219E+01 +1.109829E+00 +8.372942E+02 +1.901907E+01 +1.381219E+01 +1.901907E+01 +3.907244E+02 
 +4.785588E+02 -1.673023E+01 +2.746471E+01 -1.673023E+01 +8.276792E+02 +9.149985E+00 +2.746471E+01 +9.149985E+00 +3.626225E+02 
 +4.897566E+02 +3.194835E+00 +1.366596E+01 +3.194835E+00 +8.580035E+02 +7.436478E+00 +1.366596E+01 +7.436478E+00 +3.618309E+02 
 +4.985447E+02 +1.221491E-01 +8.871922E+00 +1.221491E-01 +8.706033E+02 +6.262540E-01 +8.871922E+00 +6.262540E-01 +3.619448E+02 
 +5.069371E+02 -2.965093E+00 -5.269874E+00 -2.965093E+00 +8.854108E+02 +1.552256E+00 -5.269874E+00 +1.552256E+00 +3.643715E+02 
 +5.050852E+02 -9.440637E+00 -6.665627E+00 -9.440637E+00 +8.979459E+02 -1.908686E-01 -6.665627E+00 -1.908686E-01 +3.657254E+02 
 +4.830437E+02 -1.304085E+01 +1.539761E+01 -1.304085E+01 +9.016899E+02 -6.663147E+00 +1.539761E+01 -6.663147E+00 +3.693196E+02 
 +5.004656E+02 -1.017802E+01 -1.541145E+01 -1.017802E+01 +9.084349E+02 -7.210908E+00 -1.541145E+01 -7.210908E+00 +3.516865E+02 
 +5.082459E+02 -7.439773E+00 -2.706635E+01 -7.439773E+00 +8.970753E+02 -5.676709E+00 -2.706635E+01 -5.676709E+00 +3.347664E+02 
 +5.046347E+02 -3.926399E+00 -2.514309E+01 -3.926399E+00 +8.846041E+02 -9.357777E+00 -2.514309E+01 -9.357777E+00 +3.447279E+02 
 +4.912045E+02 +1.828001E+00 -2.582129E+01 +1.828001E+00 +8.688583E+02 -8.062989E+00 -2.582129E+01 -8.062989E+00 +3.433229E+02 
 +5.086453E+02 +1.143686E+00 -9.125174E+00 +1.143686E+00 +8.734584E+02 -4.206436E+00 -9.125174E+00 -4.206436E+00 +3.631172E+02 
 +5.047949E+02 +6.722722E+00 -2.496682E+01 +6.722722E+00 +8.798254E+02 -4.641831E+00 -2.496682E+01 -4.641831E+00 +3.767076E+02 
 +5.172077E+02 +4.179816E+00 -2.771403E+01 +4.179816E+00 +9.003640E+02 -1.838825E+00 -2.771403E+01 -1.838825E+00 +3.773777E+02 
 +4.934338E+02 +4.720946E+00 -3.041359E+01 +4.720946E+00 +9.051395E+02 +2.984318E+00 -3.041359E+01 +2.984318E+00 +3.348081E+02 
 +4.794508E+02 -8.967234E+00 -4.639618E+01 -8.967234E+00 +8.914435E+02 +1.105721E+00 -4.639618E+01 +1.105721E+00 +3.117743E+02 
 +4.804391E+02 -2.251120E+01 +1.081948E+01 -2.251120E+01 +8.657528E+02 -2.750131E+00 +1.081948E+01 -2.750131E+00 +2.925584E+02 
 +4.727954E+02 -1.907176E+01 +2.173417E+01 -1.907176E+01 +8.645289E+02 -4.913503E+00 +2.173417E+01 -4.913503E+00 +3.084565E+02 
 +4.886844E+02 -1.526846E+01 +1.958230E+01 -1.526846E+01 +8.735267E+02 -4.059610E+00 +1.958230E+01 -4.059610E+00 +3.610805E+02 
 +4.603285E+02 -5.405343E+00 +1.468418E+01 -5.405343E+00 +8.531389E+02 +3.254272E+00 +1.468418E+01 +3.254272E+00 +3.630723E+02 
 +4.885576E+02 -2.452998E+00 +2.877522E+01 -2.452998E+00 +8.654905E+02 +1.458751E+01 +2.877522E+01 +1.458751E+01 +3.979312E+02 
 +4.946252E+02 -2.907312E-01 +1.687733E+01 -2.907312E-01 +8.541517E+02 +1.904665E+01 +1.687733E+01 +1.904665E+01 +3.980102E+02 
 +4.984846E+02 -1.130483E+01 +1.733180E+01 -1.130483E+01 +8.548421E+02 +1.648926E+01 +1.733180E+01 +1.648926E+01 +3.725219E+02 
 +4.894539E+02 -1.234719E+00 -6.873180E+00 -1.234719E+00 +8.607150E+02 +6.619511E+00 -6.873180E+00 +6.619511E+00 +3.534468E+02 
 +4.816081E+02 -5.762259E+00 -1.034670E+01 -5.762259E+00 +8.685616E+02 +6.122866E+00 -1.034670E+01 +6.122866E+00 +3.456783E+02 
 +4.815903E+02 -1.235826E+01 -1.490235E+01 -1.235826E+01 +8.869057E+02 +1.395955E+00 -1.490235E+01 +1.395955E+00 +3.492469E+02 
 +4.773822E+02 -1.708641E+01 -1.029375E+01 -1.708641E+01 +8.906521E+02 -7.578407E-02 -1.029375E+01 -7.578407E-02 +3.487838E+02 
 +5.016483E+02 -1.551929E+01 +1.319675E+01 -1.551929E+01 +9.007433E+02 -6.203534E+00 +1.319675E+01 -6.203534E+00 +3.432207E+02 
 +5.136423E+02 -6.185736E+00 +5.526792E+00 -6.185736E+00 +9.035648E+02 -1.241579E+01 +5.526792E+00 -1.241579E+01 +3.420101E+02 
 +5.027868E+02 -7.949374E+00 -1.532622E+01 -7.949374E+00 +8.941324E+02 -1.189850E+01 -1.532622E+01 -1.189850E+01 +3.575867E+02 
 +4.884473E+02 -1.042374E+01 -2.028245E+01 -1.042374E+01 +8.768961E+02 -1.081330E+01 -2.028245E+01 -1.081330E+01 +3.476404E+02 
 +4.989307E+02 -9.068782E+00 -2.176732E+01 -9.068782E+00 +8.717614E+02 -6.676910E+00 -2.176732E+01 -6.676910E+00 +3.443284E+02 
 +5.068192E+02 -6.441857E+00 -1.048802E+01 -6.441857E+00 +8.725710E+02 -2.019910E+00 -1.048802E+01 -2.019910E+00 +3.539657E+02 
 +5.022738E+02 -2.274093E+00 -2.337129E+01 -2.274093E+00 +8.751128E+02 -1.560933E+00 -2.337129E+01 -1.560933E+00 +3.680769E+02 
 +5.304831E+02 -6.409471E+00 -1.575062E+01 -6.409471E+00 +9.054813E+02 +1.497685E+00 -1.575062E+01 +1.497685E+00 +3.849466E+02 
 +5.170864E+02 -7.069820E-01 -1.344211E+01 -7.069820E-01 +9.026814E+02 +1.480135E+00 -1.344211E+01 +1.480135E+00 +3.572563E+02 
 +4.886996E+02 -2.053692E+01 -1.655611E+01 -2.053692E+01 +8.696054E+02 +3.544172E+00 -1.655611E+01 +3.544172E+00 +3.259923E+02 
 +4.657814E+02 -2.172258E+01 +1.937599E+01 -2.172258E+01 +8.500038E+02 +1.213295E+00 +1.937599E+01 +1.213295E+00 +2.765252E+02 
 +4.727405E+02 -2.535340E+01 +2.519064E+01 -2.535340E+01 +8.629303E+02 -6.715099E+00 +2.519064E+01 -6.715099E+00 +2.711079E+02 
 +4.852020E+02 -2.218669E+01 +2.582974E+01 -2.218669E+01 +8.845224E+02 -3.745881E+00 +2.582974E+01 -3.745881E+00 +3.043416E+02 
 +4.656802E+02 -7.233973E+00 +2.794560E+01 -7.233973E+00 +8.857608E+02 +4.770334E+00 +2.794560E+01 +4.770334E+00 +3.228434E+02 
 +4.893849E+02 -2.065325E+00 +3.948963E+01 -2.065325E+00 +9.026453E+02 +9.766986E+00 +3.948963E+01 +9.766986E+00 +3.745674E+02 
 +5.022999E+02 -1.782619E+00 +2.772658E+01 -1.782619E+00 +8.938213E+02 +7.966185E+00 +2.772658E+01 +7.966185E+00 +3.761998E+02 
 +5.004112E+02 -1.205243E+01 +1.701180E+01 -1.205243E+01 +8.711282E+02 +5.380649E+00 +1.701180E+01 +5.380649E+00 +3.591891E+02 
 +4.484781E+02 +5.300611E+00 -1.077492E+00 +5.300611E+00 +8.551076E+02 +7.183116E+00 -1.077492E+00 +7.183116E+00 +3.279051E+02 
 +4.568569E+02 -2.125025E+00 -1.465565E+01 -2.125025E+00 +8.620752E+02 +1.323354E+01 -1.465565E+01 +1.323354E+01 +3.302208E+02 
 +4.732586E+02 -4.791892E+00 -1.793632E+01 -4.791892E+00 +8.796551E+02 +5.073581E+00 -1.793632E+01 +5.073581E+00 +3.471315E+02 
 +4.708772E+02 -3.382530E+00 -1.217932E+01 -3.382530E+00 +8.822413E+02 +3.346583E-01 -1.217932E+01 +3.346583E-01 +3.532674E+02 
 +5.228641E+02 -5.491503E+00 +3.246460E+00 -5.491503E+00 +9.005010E+02 +6.182989E-02 +3.246460E+00 +6.182989E-02 +3.541215E+02 
 +5.315880E+02 -6.450936E+00 +8.036691E+00 -6.450936E+00 +8.949180E+02 -3.445491E+00 +8.036691E+00 -3.445491E+00 +3.472981E+02 
 +4.935875E+02 -3.366430E+00 -4.901428E-01 -3.366430E+00 +8.838774E+02 -2.077255E+00 -4.901428E-01 -2.077255E+00 +3.737475E+02 
 +4.564892E+02 -4.679032E+00 -8.165458E+00 -4.679032E+00 +8.645338E+02 +1.962713E+00 -8.165458E+00 +1.962713E+00 +3.551000E+02 
 +4.990458E+02 -8.582893E+00 -1.406884E+01 -8.582893E+00 +8.764360E+02 +5.164259E+00 -1.406884E+01 +5.164259E+00 +3.371380E+02 
 +5.017541E+02 -5.552050E+00 -1.430788E+01 -5.552050E+00 +8.732227E+02 +4.469436E+00 -1.430788E+01 +4.469436E+00 +3.288607E+02 
 +4.957286E+02 +2.493958E-01 -1.351109E+01 +2.493958E-01 +8.631518E+02 +7.168806E+00 -1.351109E+01 +7.168806E+00 +3.452013E+02 
 +5.166906E+02 +5.819271E+00 +3.271449E+00 +5.819271E+00 +8.507231E+02 +1.129459E+01 +3.271449E+00 +1.129459E+01 +3.654277E+02 
 +5.056473E+02 +9.270929E+00 +4.980350E+00 +9.270929E+00 +8.330498E+02 +3.306994E+00 +4.980350E+00 +3.306994E+00 +3.621491E+02 
 +5.072569E+02 -1.489009E+01 +2.008751E+00 -1.489009E+01 +8.675167E+02 +2.584349E+00 +2.008751E+00 +2.584349E+00 +3.609462E+02 
 +4.849773E+02 -1.750939E+01 +1.636474E+01 -1.750939E+01 +8.732521E+02 +1.857263E+00 +1.636474E+01 +1.857263E+00 +3.068128E+02 
 +4.775849E+02 -1.924748E+01 +3.137879E+01 -1.924748E+01 +8.680642E+02 -2.603932E+00 +3.137879E+01 -2.603932E+00 +2.825724E+02 
 +4.887644E+02 -1.508096E+01 +2.398443E+01 -1.508096E+01 +8.864966E+02 -1.900113E+00 +2.398443E+01 -1.900113E+00 +2.993665E+02 
 +4.755930E+02 -6.777053E+00 +2.755658E+01 -6.777053E+00 +8.823765E+02 -6.538685E-01 +2.755658E+01 -6.538685E-01 +3.163653E+02 
 +4.804793E+02 +3.633251E+00 +3.464664E+01 +3.633251E+00 +8.877380E+02 +7.188792E+00 +3.464664E+01 +7.188792E+00 +3.567204E+02 
 +4.928358E+02 +4.454264E+00 +2.301537E+01 +4.454264E+00 +8.922858E+02 +7.570566E+00 +2.301537E+01 +7.570566E+00 +3.669197E+02 
 +4.990983E+02 +4.665335E-01 +1.744950E+01 +4.665335E-01 +8.880001E+02 +1.680358E-02 +1.744950E+01 +1.680358E-02 +3.612737E+02 
 +4.258048E+02 +3.644367E+00 +1.371922E+01 +3.644367E+00 +8.540024E+02 +6.802853E+00 +1.371922E+01 +6.802853E+00 +3.543180E+02 
 +4.455423E+02 +3.998452E+00 -4.030333E-01 +3.998452E+00 +8.528292E+02 +1.200303E+01 -4.030333E-01 +1.200303E+01 +3.631452E+02 
 +4.752414E+02 +7.090933E+00 -1.977635E+01 +7.090933E+00 +8.577939E+02 -1.667623E+00 -1.977635E+01 -1.667623E+00 +3.694489E+02 
 +4.806164E+02 +6.372435E+00 -1.542973E+01 +6.372435E+00 +8.614254E+02 -1.496021E+01 -1.542973E+01 -1.496021E+01 +3.743333E+02 
 +5.108759E+02 +5.106065E+00 -1.313000E+01 +5.106065E+00 +8.797931E+02 -1.804929E+01 -1.313000E+01 -1.804929E+01 +3.753444E+02 
 +5.227286E+02 -4.540656E+00 -3.325291E+00 -4.540656E+00 +8.801770E+02 -1.904577E+01 -3.325291E+00 -1.904577E+01 +3.523318E+02 
 +4.953055E+02 +1.705522E+00 +6.394784E+00 +1.705522E+00 +8.736532E+02 -9.309077E+00 +6.394784E+00 -9.309077E+00 +3.590280E+02 
 +4.359743E+02 +2.232537E+00 -7.573796E-01 +2.232537E+00 +8.548870E+02 +1.138774E+01 -7.573796E-01 +1.138774E+01 +3.411885E+02 
 +4.845591E+02 +2.024158E+00 -1.405382E+01 +2.024158E+00 +8.751870E+02 +1.904893E+01 -1.405382E+01 +1.904893E+01 +3.329319E+02 
 +5.048787E+02 +2.387504E+00 -1.197256E+01 +2.387504E+00 +8.690155E+02 +1.051125E+01 -1.197256E+01 +1.051125E+01 +3.378253E+02 
 +5.121696E+02 +6.712697E+00 +4.556214E+00 +6.712697E+00 +8.463948E+02 +1.078895E+01 +4.556214E+00 +1.078895E+01 +3.553268E+02 
 +5.144156E+02 +1.064713E+01 +5.732050E+00 +1.064713E+01 +8.355715E+02 +9.085069E+00 +5.732050E+00 +9.085069E+00 +3.678984E+02 
 +5.066799E+02 +1.269953E+01 +3.451403E+00 +1.269953E+01 +8.329602E+02 -3.381677E+00 +3.451403E+00 -3.381677E+00 +3.747402E+02 
 +4.986618E+02 +1.563134E+00 +2.033933E+00 +1.563134E+00 +8.399284E+02 +3.008973E+00 +2.033933E+00 +3.008973E+00 +3.707832E+02 
 +4.958359E+02 -1.494784E+01 +9.577363E+00 -1.494784E+01 +8.524333E+02 +9.503463E+00 +9.577363E+00 +9.503463E+00 +3.395940E+02 
 +4.920610E+02 -7.385418E+00 +2.875843E+01 -7.385418E+00 +8.717830E+02 -2.527278E+00 +2.875843E+01 -2.527278E+00 +3.166411E+02 
 +4.937208E+02 -9.072889E+00 +1.840706E+01 -9.072889E+00 +8.861902E+02 -6.840265E+00 +1.840706E+01 -6.840265E+00 +3.236525E+02 
 +4.763307E+02 -7.214862E+00 +2.100655E+01 -7.214862E+00 +8.690996E+02 -3.179369E-01 +2.100655E+01 -3.179369E-01 +3.281275E+02 
 +4.790554E+02 +1.618055E+00 +2.443916E+01 +1.618055E+00 +8.751564E+02 +6.566081E+00 +2.443916E+01 +6.566081E+00 +3.587753E+02 
 +4.894878E+02 -5.127101E+00 -4.320645E-01 -5.127101E+00 +8.733992E+02 +4.196302E+00 -4.320645E-01 +4.196302E+00 +3.788351E+02 
 +4.645441E+02 -3.407463E+00 +1.004556E+01 -3.407463E+00 +8.614504E+02 -1.213264E-01 +1.004556E+01 -1.213264E-01 +3.672101E+02 
 +4.497925E+02 -1.458103E-02 +1.249198E+01 -1.458103E-02 +8.745512E+02 +2.051296E+00 +1.249198E+01 +2.051296E+00 +4.001045E+02 
 +4.403129E+02 -2.264619E+00 +6.682272E+00 -2.264619E+00 +8.526560E+02 +2.371962E+00 +6.682272E+00 +2.371962E+00 +3.914106E+02 
 +4.950081E+02 +6.998332E+00 -2.353476E+01 +6.998332E+00 +8.685091E+02 -4.083499E+00 -2.353476E+01 -4.083499E+00 +3.954998E+02 
 +5.000104E+02 +6.304033E+00 -2.232724E+01 +6.304033E+00 +8.692221E+02 -1.475365E+01 -2.232724E+01 -1.475365E+01 +3.937597E+02 
 +5.064865E+02 +4.248874E+00 -2.110356E+01 +4.248874E+00 +8.647414E+02 -1.441187E+01 -2.110356E+01 -1.441187E+01 +3.858247E+02 
 +4.968403E+02 -1.147126E+00 -6.141390E+00 -1.147126E+00 +8.457459E+02 -6.653810E+00 -6.141390E+00 -6.653810E+00 +3.636705E+02 
 +4.840323E+02 +1.415512E+01 +1.187473E+01 +1.415512E+01 +8.457634E+02 +8.050981E-01 +1.187473E+01 +8.050981E-01 +3.526181E+02 
 +4.425463E+02 +1.160119E+01 +2.587994E+00 +1.160119E+01 +8.383118E+02 +1.072825E+01 +2.587994E+00 +1.072825E+01 +3.289600E+02 
 +4.556262E+02 +6.870077E+00 -1.674899E+01 +6.870077E+00 +8.370314E+02 +1.231315E+01 -1.674899E+01 +1.231315E+01 +3.326274E+02 
 +4.999458E+02 +6.734765E+00 -1.140636E+00 +6.734765E+00 +8.337370E+02 +1.041900E+01 -1.140636E+00 +1.041900E+01 +3.632650E+02 
 +5.113208E+02 +8.113443E+00 +1.193233E+01 +8.113443E+00 +8.307082E+02 +6.374219E+00 +1.193233E+01 +6.374219E+00 +3.749987E+02 
 +5.059583E+02 +1.176818E+01 +4.558420E+00 +1.176818E+01 +8.328102E+02 +1.589618E+00 +4.558420E+00 +1.589618E+00 +3.758597E+02 
 +5.017251E+02 +1.335117E+01 +1.218537E+00 +1.335117E+01 +8.318302E+02 -8.939963E-01 +1.218537E+00 -8.939963E-01 +3.809040E+02 
 +4.995689E+02 +7.578177E+00 +3.329685E+00 +7.578177E+00 +8.335099E+02 +4.964067E+00 +3.329685E+00 +4.964067E+00 +3.823025E+02 
 +5.042585E+02 -1.193475E+01 +4.671026E+00 -1.193475E+01 +8.446224E+02 +1.241402E+01 +4.671026E+00 +1.241402E+01 +3.703628E+02 
 +4.963360E+02 -5.740604E+00 +1.271258E+01 -5.740604E+00 +8.444266E+02 +7.483704E+00 +1.271258E+01 +7.483704E+00 +3.450048E+02 
 +4.936881E+02 -1.156765E+01 +8.877822E+00 -1.156765E+01 +8.570547E+02 +4.668743E+00 +8.877822E+00 +4.668743E+00 +3.535124E+02 
 +4.739298E+02 -6.766652E+00 +1.694314E+01 -6.766652E+00 +8.674070E+02 +1.676331E+00 +1.694314E+01 +1.676331E+00 +3.587889E+02 
 +4.687470E+02 -5.178323E+00 +1.790864E+01 -5.178323E+00 +8.630131E+02 -6.100209E+00 +1.790864E+01 -6.100209E+00 +3.640354E+02 
 +4.876021E+02 -1.401167E+01 -3.598162E+00 -1.401167E+01 +8.756187E+02 -8.496644E+00 -3.598162E+00 -8.496644E+00 +3.865703E+02 
 +4.548273E+02 -2.217460E+00 +9.233478E+00 -2.217460E+00 +8.756507E+02 -2.556997E+00 +9.233478E+00 -2.556997E+00 +3.851819E+02 
 +4.515211E+02 -2.704370E-01 +6.966365E+00 -2.704370E-01 +8.714787E+02 -3.825101E+00 +6.966365E+00 -3.825101E+00 +4.059176E+02 
 +4.440200E+02 -2.815771E+00 +3.970121E+00 -2.815771E+00 +8.582643E+02 -7.394143E+00 +3.970121E+00 -7.394143E+00 +3.965535E+02 
 +4.899431E+02 +4.713632E+00 -2.178653E+01 +4.713632E+00 +8.651188E+02 -7.152671E+00 -2.178653E+01 -7.152671E+00 +4.051355E+02 
 +5.111458E+02 +4.019074E+00 -2.504106E+01 +4.019074E+00 +8.582011E+02 -2.300639E+00 -2.504106E+01 -2.300639E+00 +4.075540E+02 
 +5.097566E+02 +3.312288E+00 -1.511656E+01 +3.312288E+00 +8.494830E+02 +2.900117E+00 -1.511656E+01 +2.900117E+00 +3.989693E+02 
 +5.045154E+02 +2.208755E+00 -4.257438E+00 +2.208755E+00 +8.550525E+02 +2.717015E+00 -4.257438E+00 +2.717015E+00 +3.963825E+02 
 +4.913477E+02 +2.188325E+01 +1.960616E+01 +2.188325E+01 +8.553998E+02 +2.305373E+00 +1.960616E+01 +2.305373E+00 +3.708291E+02 
 +4.538515E+02 +1.255572E+01 +1.009873E+01 +1.255572E+01 +8.312071E+02 +2.390102E+00 +1.009873E+01 +2.390102E+00 +3.360966E+02 
 +4.726222E+02 +1.113919E+00 -2.264433E+00 +1.113919E+00 +8.387678E+02 +3.599160E+00 -2.264433E+00 +3.599160E+00 +3.584920E+02 
 +4.937096E+02 -4.380466E+00 +4.795816E+00 -4.380466E+00 +8.373706E+02 +3.837980E+00 +4.795816E+00 +3.837980E+00 +3.843878E+02 
 +4.969163E+02 +4.740700E+00 +1.536589E+01 +4.740700E+00 +8.254704E+02 +7.863929E-01 +1.536589E+01 +7.863929E-01 +3.849590E+02 
 +5.068614E+02 +9.409030E+00 +1.179571E+01 +9.409030E+00 +8.315829E+02 +1.548463E+00 +1.179571E+01 +1.548463E+00 +3.856820E+02 
 +5.067155E+02 +1.569681E+01 +4.929406E+00 +1.569681E+01 +8.371877E+02 +4.994268E-01 +4.929406E+00 +4.994268E-01 +3.905116E+02 
 +4.946747E+02 +9.426129E+00 +2.827125E+00 +9.426129E+00 +8.319795E+02 +4.106088E+00 +2.827125E+00 +4.106088E+00 +3.875141E+02 
 +4.988552E+02 -7.675909E+00 +4.759951E+00 -7.675909E+00 +8.380781E+02 +6.697310E+00 +4.759951E+00 +6.697310E+00 +3.801615E+02 
 +5.135718E+02 -8.020317E+00 +3.282839E+00 -8.020317E+00 +8.590852E+02 +4.974657E+00 +3.282839E+00 +4.974657E+00 +3.776347E+02 
 +5.277103E+02 -1.175864E+01 +6.941256E+00 -1.175864E+01 +8.813217E+02 +3.991709E+00 +6.941256E+00 +3.991709E+00 +3.985619E+02 
 +4.828968E+02 -8.183723E+00 +1.987970E+01 -8.183723E+00 +8.699719E+02 -2.524707E+00 +1.987970E+01 -2.524707E+00 +4.031858E+02 
 +4.591417E+02 -9.298504E+00 +1.760402E+01 -9.298504E+00 +8.640411E+02 -7.789427E+00 +1.760402E+01 -7.789427E+00 +3.813819E+02 
 +4.897916E+02 -1.004958E+01 +5.994544E+00 -1.004958E+01 +8.927094E+02 -6.565086E+00 +5.994544E+00 -6.565086E+00 +3.794082E+02 
 +4.532152E+02 +7.498489E-02 +1.161522E+01 +7.498489E-02 +8.755496E+02 -3.409645E+00 +1.161522E+01 -3.409645E+00 +3.830344E+02 
 +4.502985E+02 -2.556569E+00 +1.057667E+01 -2.556569E+00 +8.688905E+02 -3.290257E+00 +1.057667E+01 -3.290257E+00 +4.009340E+02 
 +4.571273E+02 -5.387829E+00 +4.626475E+00 -5.387829E+00 +8.696369E+02 -7.639641E+00 +4.626475E+00 -7.639641E+00 +3.944631E+02 
 +4.817763E+02 -2.674631E+00 -1.187120E+01 -2.674631E+00 +8.638005E+02 -1.769812E+00 -1.187120E+01 -1.769812E+00 +4.067249E+02 
 +5.203708E+02 +6.443681E-01 -2.035550E+01 +6.443681E-01 +8.505135E+02 +1.057441E+01 -2.035550E+01 +1.057441E+01 +4.243904E+02 
 +5.100254E+02 +5.545725E+00 -1.057901E+01 +5.545725E+00 +8.415572E+02 +1.018534E+01 -1.057901E+01 +1.018534E+01 +4.171033E+02 
 +5.059146E+02 +2.652537E+00 +4.917319E-02 +2.652537E+00 +8.538913E+02 +3.982822E+00 +4.917319E-02 +3.982822E+00 +4.079025E+02 
 +4.963330E+02 +2.479393E+01 +2.549282E+01 +2.479393E+01 +8.572995E+02 +1.253927E+00 +2.549282E+01 +1.253927E+00 +3.701274E+02 
 +4.748057E+02 +1.206628E+01 +1.736791E+01 +1.206628E+01 +8.509290E+02 -1.070652E+00 +1.736791E+01 -1.070652E+00 +3.444901E+02 
 +4.835918E+02 -4.507852E+00 +1.907242E+01 -4.507852E+00 +8.561142E+02 -2.229085E+00 +1.907242E+01 -2.229085E+00 +3.700456E+02 
 +4.866076E+02 -1.810994E+01 +1.093816E+01 -1.810994E+01 +8.562125E+02 -3.287877E-01 +1.093816E+01 -3.287877E-01 +3.891115E+02 
 +5.026573E+02 -3.221867E+00 +2.322207E+01 -3.221867E+00 +8.476923E+02 +3.095986E+00 +2.322207E+01 +3.095986E+00 +3.946443E+02 
 +5.055200E+02 +4.364920E+00 +1.985515E+01 +4.364920E+00 +8.263085E+02 +5.828776E+00 +1.985515E+01 +5.828776E+00 +3.842819E+02 
 +5.053044E+02 +1.532069E+01 +6.074231E+00 +1.532069E+01 +8.305833E+02 +8.811180E+00 +6.074231E+00 +8.811180E+00 +3.876602E+02 
 +4.965346E+02 +3.131805E+00 -1.045528E+00 +3.131805E+00 +8.373602E+02 +1.432258E+01 -1.045528E+00 +1.432258E+01 +3.976295E+02 
 +5.060785E+02 -1.934868E+00 +1.532864E+00 -1.934868E+00 +8.487358E+02 +1.791608E+01 +1.532864E+00 +1.791608E+01 +3.987937E+02 
 +5.257972E+02 -1.450603E+00 +3.662143E+00 -1.450603E+00 +8.703153E+02 +1.848306E+01 +3.662143E+00 +1.848306E+01 +4.001576E+02 
 +5.426491E+02 -4.408839E+00 +1.217992E+01 -4.408839E+00 +8.945453E+02 +1.182205E+01 +1.217992E+01 +1.182205E+01 +4.101856E+02 
 +4.852820E+02 -8.448898E+00 +3.086755E+01 -8.448898E+00 +8.803703E+02 +9.801056E-01 +3.086755E+01 +9.801056E-01 +4.119444E+02 
 +4.548822E+02 -9.239492E+00 +2.333292E+01 -9.239492E+00 +8.679095E+02 -3.775649E+00 +2.333292E+01 -3.775649E+00 +3.845437E+02 
 +4.845011E+02 -6.838210E+00 +1.189823E+01 -6.838210E+00 +8.834604E+02 -4.710626E+00 +1.189823E+01 -4.710626E+00 +3.624844E+02 
 +4.482773E+02 -4.459844E+00 +1.447200E+01 -4.459844E+00 +8.682346E+02 -2.633744E+00 +1.447200E+01 -2.633744E+00 +3.751990E+02 
 +4.478125E+02 -7.284767E+00 +1.698864E+01 -7.284767E+00 +8.635261E+02 -4.673086E+00 +1.698864E+01 -4.673086E+00 +3.915225E+02 
 +4.773936E+02 -6.165605E+00 +4.241567E-01 -6.165605E+00 +8.651097E+02 -3.637370E+00 +4.241567E-01 -3.637370E+00 +3.870811E+02 
 +4.941341E+02 +3.322304E-01 -6.432576E+00 +3.322304E-01 +8.598954E+02 +1.560742E+00 -6.432576E+00 +1.560742E+00 +3.928236E+02 
 +5.090136E+02 +6.317159E+00 -1.059501E+01 +6.317159E+00 +8.666480E+02 +8.825343E+00 -1.059501E+01 +8.825343E+00 +4.164428E+02 
 +4.941824E+02 +6.821546E+00 -2.616231E+00 +6.821546E+00 +8.467860E+02 +1.321166E+01 -2.616231E+00 +1.321166E+01 +4.116008E+02 
 +4.832407E+02 +1.074416E+00 +8.788497E+00 +1.074416E+00 +8.401835E+02 +1.236488E+01 +8.788497E+00 +1.236488E+01 +3.955593E+02 
 +5.083400E+02 +1.656383E+01 +2.339091E+01 +1.656383E+01 +8.652466E+02 +4.030470E+00 +2.339091E+01 +4.030470E+00 +3.797082E+02 
 +5.061578E+02 +1.544563E+00 +1.562442E+01 +1.544563E+00 +8.731689E+02 -4.550375E+00 +1.562442E+01 -4.550375E+00 +3.619826E+02 
 +4.879851E+02 -1.330620E+01 +2.395745E+01 -1.330620E+01 +8.752711E+02 -1.426119E+01 +2.395745E+01 -1.426119E+01 +3.748842E+02 
 +4.966294E+02 -1.918276E+01 +2.503801E+01 -1.918276E+01 +8.847424E+02 -1.810415E+01 +2.503801E+01 -1.810415E+01 +3.945425E+02 
 +5.159131E+02 -1.114358E+01 +2.656150E+01 -1.114358E+01 +8.948337E+02 -9.662323E+00 +2.656150E+01 -9.662323E+00 +3.971394E+02 
 +5.311064E+02 -7.414738E+00 +2.011504E+01 -7.414738E+00 +8.854866E+02 -5.528661E+00 +2.011504E+01 -5.528661E+00 +3.943193E+02 
 +5.128789E+02 +7.245238E+00 +9.084285E+00 +7.245238E+00 +8.476770E+02 -3.823390E-02 +9.084285E+00 -3.823390E-02 +3.910775E+02 
 +5.074317E+02 +9.852161E-01 -5.277962E+00 +9.852161E-01 +8.398779E+02 +1.081568E+01 -5.277962E+00 +1.081568E+01 +4.071727E+02 
 +5.188025E+02 -1.817555E+00 -1.816686E+00 -1.817555E+00 +8.558505E+02 +1.795314E+01 -1.816686E+00 +1.795314E+01 +4.153596E+02 
 +5.290236E+02 -1.743581E+00 +3.868750E+00 -1.743581E+00 +8.664598E+02 +1.907361E+01 +3.868750E+00 +1.907361E+01 +4.114955E+02 
 +5.440571E+02 -7.793573E-01 +4.221457E+00 -7.793573E-01 +8.936299E+02 +1.369618E+01 +4.221457E+00 +1.369618E+01 +4.220321E+02 
 +4.970864E+02 -2.925090E+00 +2.882761E+01 -2.925090E+00 +8.911574E+02 +4.688705E+00 +2.882761E+01 +4.688705E+00 +4.162330E+02 
 +4.606551E+02 -1.796125E-01 +3.245617E+01 -1.796125E-01 +8.752944E+02 -6.682916E+00 +3.245617E+01 -6.682916E+00 +3.947838E+02 
 +4.744148E+02 -4.528617E+00 +2.250840E+01 -4.528617E+00 +8.808767E+02 -1.064217E+01 +2.250840E+01 -1.064217E+01 +3.910031E+02 
 +4.512246E+02 -9.231751E+00 +2.342888E+01 -9.231751E+00 +8.684308E+02 -6.014881E+00 +2.342888E+01 -6.014881E+00 +3.900233E+02 
 +4.570174E+02 -4.913269E-02 +6.444317E+00 -4.913269E-02 +8.433768E+02 -9.037255E+00 +6.444317E+00 -9.037255E+00 +3.947658E+02 
 +4.944649E+02 +4.361319E+00 -9.932681E+00 +4.361319E+00 +8.442925E+02 -9.197731E+00 -9.932681E+00 -9.197731E+00 +3.963834E+02 
 +4.914443E+02 +2.768839E+00 -4.757237E+00 +2.768839E+00 +8.525349E+02 -2.518255E+00 -4.757237E+00 -2.518255E+00 +3.890202E+02 
 +4.822499E+02 +2.507589E+00 +9.700492E+00 +2.507589E+00 +8.664692E+02 -4.808152E-01 +9.700492E+00 -4.808152E-01 +3.901727E+02 
 +4.829695E+02 +6.060527E+00 +1.261520E+01 +6.060527E+00 +8.803924E+02 +1.222229E+00 +1.261520E+01 +1.222229E+00 +3.912471E+02 
 +4.849163E+02 +9.511288E+00 +9.981918E+00 +9.511288E+00 +8.868695E+02 +3.769109E+00 +9.981918E+00 +3.769109E+00 +3.956354E+02 
 +5.227139E+02 +1.704236E+01 +9.075935E+00 +1.704236E+01 +8.778704E+02 +1.101642E+00 +9.075935E+00 +1.101642E+00 +3.972744E+02 
 +5.060054E+02 +1.131502E+01 +4.670349E+00 +1.131502E+01 +8.359565E+02 -3.948417E+00 +4.670349E+00 -3.948417E+00 +3.650491E+02 
 +4.863127E+02 +2.217370E+00 +1.061385E+01 +2.217370E+00 +8.432483E+02 -1.000942E+01 +1.061385E+01 -1.000942E+01 +3.620700E+02 
 +4.651896E+02 -1.056332E+01 +2.378139E+01 -1.056332E+01 +8.619350E+02 -1.821931E+01 +2.378139E+01 -1.821931E+01 +3.714823E+02 
 +5.005348E+02 -9.451655E+00 +1.996460E+01 -9.451655E+00 +8.784314E+02 -1.579660E+01 +1.996460E+01 -1.579660E+01 +3.748743E+02 
 +5.162287E+02 -3.139135E+00 +1.284976E+01 -3.139135E+00 +8.779885E+02 -1.134046E+01 +1.284976E+01 -1.134046E+01 +3.763062E+02 
 +5.105134E+02 +4.036417E+00 +1.472779E+01 +4.036417E+00 +8.618437E+02 -4.251448E+00 +1.472779E+01 -4.251448E+00 +3.889097E+02 
 +5.228185E+02 +4.540717E+00 -6.607915E+00 +4.540717E+00 +8.535930E+02 +7.840361E+00 -6.607915E+00 +7.840361E+00 +4.075393E+02 
 +5.252963E+02 +2.125965E+00 -2.621193E+00 +2.125965E+00 +8.571289E+02 +1.642589E+01 -2.621193E+00 +1.642589E+01 +4.140106E+02 
 +5.306619E+02 +2.163246E+00 -3.365129E-01 +2.163246E+00 +8.689426E+02 +1.712788E+01 -3.365129E-01 +1.712788E+01 +4.146749E+02 
 +5.340696E+02 +3.756007E+00 -5.197395E+00 +3.756007E+00 +8.804200E+02 +1.905251E+01 -5.197395E+00 +1.905251E+01 +4.304303E+02 
 +5.257073E+02 +1.384822E+00 +1.418954E+01 +1.384822E+00 +8.899919E+02 +1.452409E+01 +1.418954E+01 +1.452409E+01 +4.361292E+02 
 +4.580533E+02 -1.162589E+00 +3.615617E+01 -1.162589E+00 +8.728904E+02 -2.460755E+00 +3.615617E+01 -2.460755E+00 +4.131617E+02 
 +4.771728E+02 -3.020109E+00 +2.817325E+01 -3.020109E+00 +8.894913E+02 -1.027986E+01 +2.817325E+01 -1.027986E+01 +4.346116E+02 
 +4.498988E+02 -2.208530E+00 +2.656711E+01 -2.208530E+00 +8.622413E+02 -6.118621E+00 +2.656711E+01 -6.118621E+00 +4.083814E+02 
 +4.880282E+02 +8.848616E-01 -9.337353E+00 +8.848616E-01 +8.595501E+02 +1.212408E+01 -9.337353E+00 +1.212408E+01 +4.075260E+02 
 +4.958277E+02 +1.182045E-01 -1.379674E+01 +1.182045E-01 +8.660522E+02 +1.997163E+01 -1.379674E+01 +1.997163E+01 +4.027162E+02 
 +4.837574E+02 -6.726207E-01 -8.519752E+00 -6.726207E-01 +8.656077E+02 +1.522679E+01 -8.519752E+00 +1.522679E+01 +3.902587E+02 
 +4.712448E+02 +2.410936E+00 +1.706670E+01 +2.410936E+00 +8.641428E+02 +4.663067E+00 +1.706670E+01 +4.663067E+00 +3.726249E+02 
 +4.522860E+02 +6.645874E+00 +1.558524E+01 +6.645874E+00 +8.516674E+02 +4.032018E+00 +1.558524E+01 +4.032018E+00 +3.566858E+02 
 +4.836475E+02 +1.882226E+01 +4.251325E+00 +1.882226E+01 +8.628806E+02 +7.791206E+00 +4.251325E+00 +7.791206E+00 +3.777991E+02 
 +5.142275E+02 +2.339298E+01 +7.407140E-02 +2.339298E+01 +8.675585E+02 +3.745746E+00 +7.407140E-02 +3.745746E+00 +3.898473E+02 
 +5.096963E+02 +1.812803E+01 -1.024724E+00 +1.812803E+01 +8.517899E+02 -3.101363E-01 -1.024724E+00 -3.101363E-01 +3.722008E+02 
 +4.973127E+02 +7.985573E+00 +8.089579E-01 +7.985573E+00 +8.522394E+02 -3.228254E+00 +8.089579E-01 -3.228254E+00 +3.620748E+02 
 +4.585185E+02 -3.166726E+00 +1.062596E+01 -3.166726E+00 +8.530303E+02 -1.480118E+01 +1.062596E+01 -1.480118E+01 +3.597150E+02 
 +4.890124E+02 -8.599759E+00 +9.999260E+00 -8.599759E+00 +8.733850E+02 -1.734538E+01 +9.999260E+00 -1.734538E+01 +3.694208E+02 
 +4.952898E+02 -5.828899E+00 +9.192757E+00 -5.828899E+00 +8.666887E+02 -1.331346E+01 +9.192757E+00 -1.331346E+01 +3.647955E+02 
 +5.054516E+02 -3.321113E+00 +1.648458E+01 -3.321113E+00 +8.650083E+02 -1.022525E+01 +1.648458E+01 -1.022525E+01 +3.749552E+02 
 +5.293350E+02 +5.640172E+00 -2.689303E+00 +5.640172E+00 +8.638857E+02 +7.554378E-01 -2.689303E+00 +7.554378E-01 +3.912214E+02 
 +5.250569E+02 +7.704828E+00 -1.115365E+00 +7.704828E+00 +8.575072E+02 +1.162066E+01 -1.115365E+00 +1.162066E+01 +3.971894E+02 
 +5.245208E+02 +7.026870E+00 -3.702625E+00 +7.026870E+00 +8.674316E+02 +1.702309E+01 -3.702625E+00 +1.702309E+01 +4.100728E+02 
 +5.203526E+02 +4.454420E+00 -3.499927E+00 +4.454420E+00 +8.729481E+02 +2.074554E+01 -3.499927E+00 +2.074554E+01 +4.269820E+02 
 +5.314587E+02 +1.956909E+00 +3.695685E+00 +1.956909E+00 +8.929706E+02 +1.838597E+01 +3.695685E+00 +1.838597E+01 +4.405519E+02 
 +4.878364E+02 -1.712497E+00 +2.453516E+01 -1.712497E+00 +8.876872E+02 +7.019958E+00 +2.453516E+01 +7.019958E+00 +4.358365E+02 
 +4.901296E+02 -3.543538E+00 +2.175398E+01 -3.543538E+00 +8.915326E+02 -1.188595E+00 +2.175398E+01 -1.188595E+00 +4.456290E+02 
 +4.545122E+02 +8.300384E-01 +1.865686E+01 +8.300384E-01 +8.542102E+02 +1.960263E+00 +1.865686E+01 +1.960263E+00 +4.095275E+02 
 +4.800906E+02 -4.877652E+00 -1.005157E+01 -4.877652E+00 +8.584913E+02 +1.437563E+01 -1.005157E+01 +1.437563E+01 +3.941596E+02 
 +4.750669E+02 -3.598129E+00 -1.545035E+01 -3.598129E+00 +8.630298E+02 +1.555862E+01 -1.545035E+01 +1.555862E+01 +3.868199E+02 
 +4.716550E+02 -2.409443E+00 -1.398575E+01 -2.409443E+00 +8.596828E+02 +1.728921E+01 -1.398575E+01 +1.728921E+01 +3.803610E+02 
 +4.579604E+02 +4.745093E-01 +2.376021E+00 +4.745093E-01 +8.452994E+02 +1.860054E+01 +2.376021E+00 +1.860054E+01 +3.598059E+02 
 +4.591016E+02 +7.072507E+00 +6.773891E+00 +7.072507E+00 +8.417518E+02 +1.481434E+01 +6.773891E+00 +1.481434E+01 +3.531123E+02 
 +5.062489E+02 +1.801418E+01 +3.068449E+00 +1.801418E+01 +8.630395E+02 +9.105202E+00 +3.068449E+00 +9.105202E+00 +3.749943E+02 
 +4.999965E+02 +1.795833E+01 +5.096356E+00 +1.795833E+01 +8.571510E+02 +3.306962E+00 +5.096356E+00 +3.306962E+00 +3.731845E+02 
 +4.928832E+02 +1.849505E+01 +5.043098E+00 +1.849505E+01 +8.503164E+02 +2.115460E+00 +5.043098E+00 +2.115460E+00 +3.691258E+02 
 +4.816882E+02 +1.646790E+01 +5.079124E+00 +1.646790E+01 +8.340784E+02 +6.872067E+00 +5.079124E+00 +6.872067E+00 +3.568869E+02 
 +4.612185E+02 +6.480146E+00 +2.958256E+00 +6.480146E+00 +8.320015E+02 -3.227719E+00 +2.958256E+00 -3.227719E+00 +3.516377E+02 
 +4.615149E+02 -9.140515E+00 +3.229435E+00 -9.140515E+00 +8.532457E+02 -1.644315E+01 +3.229435E+00 -1.644315E+01 +3.591885E+02 
 +4.893039E+02 -1.718105E+00 +4.377129E+00 -1.718105E+00 +8.659658E+02 -1.434961E+01 +4.377129E+00 -1.434961E+01 +3.592987E+02 
 +5.088040E+02 +5.717277E+00 +9.610428E+00 +5.717277E+00 +8.667335E+02 -8.154885E+00 +9.610428E+00 -8.154885E+00 +3.584465E+02 
 +5.149762E+02 +5.147145E+00 +1.779316E+00 +5.147145E+00 +8.636787E+02 +1.616347E+00 +1.779316E+00 +1.616347E+00 +3.671846E+02 
 +5.148495E+02 +8.000101E+00 +3.063970E-01 +8.000101E+00 +8.581393E+02 +1.212371E+01 +3.063970E-01 +1.212371E+01 +3.743889E+02 
 +5.181865E+02 +7.010249E+00 -4.395614E+00 +7.010249E+00 +8.659269E+02 +1.634642E+01 -4.395614E+00 +1.634642E+01 +3.959890E+02 
 +5.113451E+02 +7.346700E+00 +1.115966E+00 +7.346700E+00 +8.762716E+02 +1.796324E+01 +1.115966E+00 +1.796324E+01 +4.176517E+02 
 +5.056968E+02 +6.328047E+00 +4.526869E+00 +6.328047E+00 +8.757022E+02 +2.545932E+01 +4.526869E+00 +2.545932E+01 +4.193515E+02 
 +5.056426E+02 -3.119738E+00 +8.132140E+00 -3.119738E+00 +8.664148E+02 +2.981739E+01 +8.132140E+00 +2.981739E+01 +4.260316E+02 
 +4.819426E+02 -7.601582E+00 +8.494602E+00 -7.601582E+00 +8.557450E+02 +2.344843E+01 +8.494602E+00 +2.344843E+01 +4.268764E+02 
 +4.742858E+02 -6.376170E+00 +6.392753E+00 -6.376170E+00 +8.523695E+02 +1.556920E+01 +6.392753E+00 +1.556920E+01 +4.088729E+02 
 +4.684851E+02 -1.030693E+01 -5.986629E+00 -1.030693E+01 +8.549138E+02 +1.662062E+01 -5.986629E+00 +1.662062E+01 +3.821179E+02 
 +4.727221E+02 -6.096280E+00 -1.575094E+01 -6.096280E+00 +8.572922E+02 +1.744881E+01 -1.575094E+01 +1.744881E+01 +3.688639E+02 
 +4.632700E+02 -3.826132E+00 -1.671066E+01 -3.826132E+00 +8.532083E+02 +1.443798E+01 -1.671066E+01 +1.443798E+01 +3.740774E+02 
 +4.554697E+02 -2.782877E-01 -5.474515E+00 -2.782877E-01 +8.328495E+02 +1.297464E+01 -5.474515E+00 +1.297464E+01 +3.654377E+02 
 +4.848294E+02 +1.234222E+01 +4.997722E+00 +1.234222E+01 +8.417987E+02 +7.983908E+00 +4.997722E+00 +7.983908E+00 +3.650841E+02 
 +5.010820E+02 +1.580917E+01 +1.019435E+01 +1.580917E+01 +8.585686E+02 +2.689906E+00 +1.019435E+01 +2.689906E+00 +3.734815E+02 
 +4.933717E+02 +1.426125E+01 +9.504470E+00 +1.426125E+01 +8.559943E+02 +4.043562E+00 +9.504470E+00 +4.043562E+00 +3.719484E+02 
 +4.885271E+02 +9.740081E+00 +7.460534E+00 +9.740081E+00 +8.511583E+02 +2.897215E+00 +7.460534E+00 +2.897215E+00 +3.689798E+02 
 +4.824622E+02 +7.681833E+00 +3.984519E+00 +7.681833E+00 +8.411420E+02 +4.580035E+00 +3.984519E+00 +4.580035E+00 +3.648735E+02 
 +4.679675E+02 +7.150727E+00 -2.588903E-01 +7.150727E+00 +8.253325E+02 +5.659136E+00 -2.588903E-01 +5.659136E+00 +3.549690E+02 
 +4.592905E+02 +4.294776E+00 -2.534678E+00 +4.294776E+00 +8.276590E+02 -1.953580E+00 -2.534678E+00 -1.953580E+00 +3.524570E+02 
 +4.889926E+02 +9.181599E+00 -1.203922E+00 +9.181599E+00 +8.569143E+02 -6.465573E+00 -1.203922E+00 -6.465573E+00 +3.524456E+02 
 +5.001418E+02 +1.378958E+01 +3.939488E+00 +1.378958E+01 +8.684589E+02 -6.260068E+00 +3.939488E+00 -6.260068E+00 +3.429648E+02 
 +5.058798E+02 +1.266099E+01 +3.022147E+00 +1.266099E+01 +8.835460E+02 -8.049919E+00 +3.022147E+00 -8.049919E+00 +3.508626E+02 
 +5.122227E+02 +1.400858E+01 +1.877687E+00 +1.400858E+01 +8.911582E+02 -1.988293E+00 +1.877687E+00 -1.988293E+00 +3.665490E+02 
 +5.054913E+02 +6.117984E+00 +1.765247E+00 +6.117984E+00 +8.768029E+02 +1.208943E+01 +1.765247E+00 +1.208943E+01 +3.793851E+02 
 +4.979057E+02 +7.066781E+00 +7.327818E+00 +7.066781E+00 +8.721073E+02 +2.590526E+01 +7.327818E+00 +2.590526E+01 +3.928315E+02 
 +5.112795E+02 +4.214036E+00 +6.943061E+00 +4.214036E+00 +8.865425E+02 +3.365791E+01 +6.943061E+00 +3.365791E+01 +4.088337E+02 
 +5.223389E+02 -5.110860E+00 -1.614002E+00 -5.110860E+00 +8.841911E+02 +2.839137E+01 -1.614002E+00 +2.839137E+01 +4.104782E+02 
 +4.942124E+02 -6.728988E+00 -6.956313E+00 -6.728988E+00 +8.593734E+02 +1.867429E+01 -6.956313E+00 +1.867429E+01 +4.085279E+02 
 +4.839313E+02 -9.812788E+00 -3.116692E+00 -9.812788E+00 +8.607928E+02 +1.536759E+01 -3.116692E+00 +1.536759E+01 +4.112083E+02 
 +4.746470E+02 -7.215840E+00 -1.152814E+01 -7.215840E+00 +8.610962E+02 +7.898123E+00 -1.152814E+01 +7.898123E+00 +3.870445E+02 
 +4.876416E+02 -1.732869E+00 -1.433875E+01 -1.732869E+00 +8.653837E+02 +5.025411E+00 -1.433875E+01 +5.025411E+00 +3.691203E+02 
 +4.566868E+02 -3.777566E+00 -1.742723E+01 -3.777566E+00 +8.414262E+02 +7.491015E+00 -1.742723E+01 +7.491015E+00 +3.664317E+02 
 +4.615418E+02 -2.799758E+00 -5.837901E+00 -2.799758E+00 +8.353410E+02 +1.454797E+01 -5.837901E+00 +1.454797E+01 +3.716000E+02 
 +4.962721E+02 +1.146844E+01 +3.820317E+00 +1.146844E+01 +8.543198E+02 +1.315302E+01 +3.820317E+00 +1.315302E+01 +3.780322E+02 
 +4.933692E+02 +7.880419E+00 +5.880816E+00 +7.880419E+00 +8.589350E+02 +4.811281E+00 +5.880816E+00 +4.811281E+00 +3.797159E+02 
 +4.905325E+02 +6.838644E+00 +3.515138E+00 +6.838644E+00 +8.561027E+02 +2.246857E+00 +3.515138E+00 +2.246857E+00 +3.755572E+02 
 +4.852221E+02 +5.501188E+00 -2.171925E-01 +5.501188E+00 +8.462158E+02 +1.991942E+00 -2.171925E-01 +1.991942E+00 +3.649295E+02 
 +4.832538E+02 +6.142230E+00 -4.315826E+00 +6.142230E+00 +8.383580E+02 +1.051391E+00 -4.315826E+00 +1.051391E+00 +3.640508E+02 
 +4.813776E+02 +5.085929E+00 -6.642028E+00 +5.085929E+00 +8.297838E+02 +5.882593E-01 -6.642028E+00 +5.882593E-01 +3.615146E+02 
 +4.827516E+02 +2.497228E+00 -9.111270E+00 +2.497228E+00 +8.312990E+02 -5.888129E+00 -9.111270E+00 -5.888129E+00 +3.574846E+02 
 +4.838810E+02 +5.873115E+00 -1.872313E+00 +5.873115E+00 +8.459825E+02 -8.906079E+00 -1.872313E+00 -8.906079E+00 +3.445980E+02 
 +4.854896E+02 +9.982173E+00 +2.751696E+00 +9.982173E+00 +8.618066E+02 -6.085280E+00 +2.751696E+00 -6.085280E+00 +3.329057E+02 
 +4.894273E+02 +1.058217E+01 +2.992981E+00 +1.058217E+01 +8.716220E+02 -4.715589E+00 +2.992981E+00 -4.715589E+00 +3.364763E+02 
 +4.916043E+02 +1.078532E+01 +3.662257E+00 +1.078532E+01 +8.802380E+02 -2.786529E+00 +3.662257E+00 -2.786529E+00 +3.516039E+02 
 +4.947883E+02 +1.194279E+01 +1.061564E+01 +1.194279E+01 +8.961063E+02 +1.663339E-01 +1.061564E+01 +1.663339E-01 +3.671635E+02 
 +5.067175E+02 +1.479907E+01 +8.459664E+00 +1.479907E+01 +9.004414E+02 +1.489197E+00 +8.459664E+00 +1.489197E+00 +3.840084E+02 
 +5.150284E+02 +1.207688E+01 +3.868424E+00 +1.207688E+01 +8.882317E+02 +5.647296E+00 +3.868424E+00 +5.647296E+00 +4.001848E+02 
 +5.112715E+02 -5.888941E+00 -6.231931E+00 -5.888941E+00 +8.782311E+02 +7.745088E+00 -6.231931E+00 +7.745088E+00 +3.889305E+02 
 +5.031873E+02 -1.050419E+01 -1.505573E+01 -1.050419E+01 +8.727794E+02 +9.362666E+00 -1.505573E+01 +9.362666E+00 +3.911138E+02 
 +4.863305E+02 -8.718157E+00 -1.248890E+01 -8.718157E+00 +8.668879E+02 +1.181012E+01 -1.248890E+01 +1.181012E+01 +4.084759E+02 
 +4.883737E+02 -7.544794E+00 -1.998068E+01 -7.544794E+00 +8.632581E+02 +6.448467E+00 -1.998068E+01 +6.448467E+00 +3.936051E+02 
 +4.882229E+02 -7.050969E+00 -1.646851E+01 -7.050969E+00 +8.591984E+02 +9.638797E+00 -1.646851E+01 +9.638797E+00 +3.879225E+02 
 +4.639912E+02 -1.222713E+01 -1.100594E+01 -1.222713E+01 +8.441919E+02 +5.035424E+00 -1.100594E+01 +5.035424E+00 +3.789276E+02 
 +4.590648E+02 -1.047207E+01 +6.412367E-01 -1.047207E+01 +8.396020E+02 +1.149162E+01 +6.412367E-01 +1.149162E+01 +3.669673E+02 
 +4.938746E+02 +8.436043E+00 -3.534702E+00 +8.436043E+00 +8.585959E+02 +1.673584E+01 -3.534702E+00 +1.673584E+01 +3.739828E+02 
 +4.921867E+02 +9.132994E+00 -7.138104E+00 +9.132994E+00 +8.590640E+02 +1.287904E+01 -7.138104E+00 +1.287904E+01 +3.762095E+02 
 +4.904725E+02 +7.822093E+00 -7.542662E+00 +7.822093E+00 +8.537584E+02 +9.676408E+00 -7.542662E+00 +9.676408E+00 +3.730210E+02 
 +4.910796E+02 +5.821136E+00 -8.611703E+00 +5.821136E+00 +8.462688E+02 +5.307222E+00 -8.611703E+00 +5.307222E+00 +3.680240E+02 
 +4.880802E+02 +5.371016E+00 -9.907903E+00 +5.371016E+00 +8.383509E+02 +2.308442E+00 -9.907903E+00 +2.308442E+00 +3.623757E+02 
 +4.914672E+02 +5.768801E+00 -1.037998E+01 +5.768801E+00 +8.325625E+02 +4.107810E+00 -1.037998E+01 +4.107810E+00 +3.575120E+02 
 +4.841307E+02 +1.098457E+01 -2.156728E+01 +1.098457E+01 +8.282559E+02 +1.714077E+00 -2.156728E+01 +1.714077E+00 +3.423127E+02 
 +4.767707E+02 +1.495751E+01 -1.207143E+01 +1.495751E+01 +8.420192E+02 -4.962565E+00 -1.207143E+01 -4.962565E+00 +3.285114E+02 
 +4.748589E+02 +1.062773E+01 -1.000661E+00 +1.062773E+01 +8.575001E+02 -5.632295E+00 -1.000661E+00 -5.632295E+00 +3.253665E+02 
 +4.754284E+02 +7.752377E+00 +1.549809E+00 +7.752377E+00 +8.626439E+02 -4.166545E+00 +1.549809E+00 -4.166545E+00 +3.333167E+02 
 +4.802455E+02 +7.892527E+00 +4.080370E+00 +7.892527E+00 +8.716675E+02 -1.802393E+00 +4.080370E+00 -1.802393E+00 +3.493787E+02 
 +4.884814E+02 +9.467489E+00 +5.932338E+00 +9.467489E+00 +8.781675E+02 -1.424248E+00 +5.932338E+00 -1.424248E+00 +3.646332E+02 
 +4.947116E+02 +6.341002E+00 +1.211462E+00 +6.341002E+00 +8.710886E+02 -3.006636E+00 +1.211462E+00 -3.006636E+00 +3.834918E+02 
 +4.989375E+02 +9.547854E+00 +3.307276E+00 +9.547854E+00 +8.698652E+02 +4.058545E+00 +3.307276E+00 +4.058545E+00 +3.978447E+02 
 +4.950119E+02 -6.670793E+00 -7.746097E+00 -6.670793E+00 +8.681109E+02 +5.179019E+00 -7.746097E+00 +5.179019E+00 +3.852204E+02 
 +4.934470E+02 -1.254936E+01 -1.745426E+01 -1.254936E+01 +8.686155E+02 +2.095555E+00 -1.745426E+01 +2.095555E+00 +3.826640E+02 
 +4.961103E+02 -1.331112E+01 -2.397672E+01 -1.331112E+01 +8.717775E+02 +3.009844E+00 -2.397672E+01 +3.009844E+00 +3.985268E+02 
 +4.991437E+02 -1.197188E+01 -1.786221E+01 -1.197188E+01 +8.601950E+02 -7.703159E+00 -1.786221E+01 -7.703159E+00 +3.908931E+02 
 +4.836008E+02 -8.056447E+00 -1.376641E+01 -8.056447E+00 +8.466747E+02 +2.187611E-01 -1.376641E+01 +2.187611E-01 +3.864973E+02 
 +4.684810E+02 -5.075322E+00 -3.059244E+00 -5.075322E+00 +8.423864E+02 +8.518309E+00 -3.059244E+00 +8.518309E+00 +3.765905E+02 
 +4.635838E+02 -3.056353E+00 +1.302813E+01 -3.056353E+00 +8.490187E+02 +1.184114E+01 +1.302813E+01 +1.184114E+01 +3.680838E+02 
 +4.840666E+02 +1.007938E+01 -2.625719E+00 +1.007938E+01 +8.516988E+02 +1.467500E+01 -2.625719E+00 +1.467500E+01 +3.726086E+02 
 +4.930849E+02 +1.170154E+01 -1.635993E+01 +1.170154E+01 +8.518069E+02 +1.365905E+01 -1.635993E+01 +1.365905E+01 +3.760393E+02 
 +4.902626E+02 +5.368628E+00 -1.723045E+01 +5.368628E+00 +8.497660E+02 +7.826498E+00 -1.723045E+01 +7.826498E+00 +3.674209E+02 
 +4.933518E+02 +5.588596E+00 -1.475063E+01 +5.588596E+00 +8.422157E+02 +3.161772E+00 -1.475063E+01 +3.161772E+00 +3.611232E+02 
 +4.963453E+02 +7.811892E+00 -1.020321E+01 +7.811892E+00 +8.370623E+02 +6.572706E+00 -1.020321E+01 +6.572706E+00 +3.591957E+02 
 +4.974059E+02 +9.539314E+00 -1.457234E+01 +9.539314E+00 +8.404685E+02 +9.783576E+00 -1.457234E+01 +9.783576E+00 +3.458068E+02 
 +4.854283E+02 +1.294063E+01 -3.606545E+01 +1.294063E+01 +8.566757E+02 +6.794952E+00 -3.606545E+01 +6.794952E+00 +3.264406E+02 
 +4.804663E+02 +1.021478E+01 -2.900365E+01 +1.021478E+01 +8.678955E+02 +3.280901E+00 -2.900365E+01 +3.280901E+00 +3.211269E+02 
 +4.741581E+02 +6.175807E+00 -9.192987E+00 +6.175807E+00 +8.629297E+02 -7.224293E-01 -9.192987E+00 -7.224293E-01 +3.180083E+02 
 +4.683083E+02 +5.611150E+00 -6.286802E+00 +5.611150E+00 +8.627367E+02 -1.351710E+00 -6.286802E+00 -1.351710E+00 +3.261230E+02 
 +4.560868E+02 +3.986463E+00 -2.256235E+00 +3.986463E+00 +8.445569E+02 -6.049652E+00 -2.256235E+00 -6.049652E+00 +3.395588E+02 
 +4.782976E+02 +6.011086E+00 +4.437131E-01 +6.011086E+00 +8.393175E+02 -9.729850E+00 +4.437131E-01 -9.729850E+00 +3.647546E+02 
 +4.932968E+02 +6.217657E+00 +2.217168E-02 +6.217657E+00 +8.575197E+02 -2.570136E+00 +2.217168E-02 -2.570136E+00 +3.909912E+02 
 +4.873944E+02 +8.702773E+00 +4.319007E+00 +8.702773E+00 +8.619838E+02 +4.981991E+00 +4.319007E+00 +4.981991E+00 +3.995524E+02 
 +4.824629E+02 -5.139310E+00 -7.602628E+00 -5.139310E+00 +8.599204E+02 +4.689870E+00 -7.602628E+00 +4.689870E+00 +3.881476E+02 
 +4.880221E+02 -1.090779E+01 -1.576522E+01 -1.090779E+01 +8.696055E+02 +3.791280E+00 -1.576522E+01 +3.791280E+00 +3.838998E+02 
 +4.954967E+02 -1.600852E+01 -2.759265E+01 -1.600852E+01 +8.674072E+02 -1.869995E+00 -2.759265E+01 -1.869995E+00 +3.870878E+02 
 +4.903682E+02 -1.436568E+01 -9.797771E+00 -1.436568E+01 +8.406494E+02 -2.436788E+01 -9.797771E+00 -2.436788E+01 +3.830798E+02 
 +4.769045E+02 -1.091212E+01 +3.682035E+00 -1.091212E+01 +8.263376E+02 -1.704582E+01 +3.682035E+00 -1.704582E+01 +3.654912E+02 
 +4.786177E+02 -2.262818E+00 +6.065425E+00 -2.262818E+00 +8.440977E+02 +4.690831E+00 +6.065425E+00 +4.690831E+00 +3.644017E+02 
 +4.869141E+02 +5.008486E-01 +7.984003E+00 +5.008486E-01 +8.700797E+02 +1.245671E+01 +7.984003E+00 +1.245671E+01 +3.791520E+02 
 +4.796290E+02 +6.857416E+00 +4.596971E+00 +6.857416E+00 +8.642420E+02 +1.245672E+01 +4.596971E+00 +1.245672E+01 +3.762541E+02 
 +4.922081E+02 +1.584683E+01 -1.377826E+01 +1.584683E+01 +8.501949E+02 +1.489402E+01 -1.377826E+01 +1.489402E+01 +3.699502E+02 
 +4.946158E+02 +1.104737E+01 -1.669539E+01 +1.104737E+01 +8.442454E+02 +1.251047E+01 -1.669539E+01 +1.251047E+01 +3.621496E+02 
 +4.874473E+02 +6.885023E+00 -1.417418E+01 +6.885023E+00 +8.317050E+02 +1.061348E+01 -1.417418E+01 +1.061348E+01 +3.438012E+02 
 +4.930309E+02 +9.736728E+00 -1.144314E+01 +9.736728E+00 +8.360646E+02 +1.093633E+01 -1.144314E+01 +1.093633E+01 +3.380894E+02 
 +4.852804E+02 +9.271365E+00 -2.853761E+01 +9.271365E+00 +8.603774E+02 +7.119443E+00 -2.853761E+01 +7.119443E+00 +3.301729E+02 
 +4.784375E+02 +8.510093E+00 -3.661182E+01 +8.510093E+00 +8.720765E+02 +5.244628E+00 -3.661182E+01 +5.244628E+00 +3.188567E+02 
 +4.808600E+02 +3.213801E+00 -3.054788E+01 +3.213801E+00 +8.753870E+02 +9.088938E+00 -3.054788E+01 +9.088938E+00 +3.193274E+02 
 +4.845069E+02 -1.081424E+00 -2.070508E+01 -1.081424E+00 +8.798515E+02 +6.474777E+00 -2.070508E+01 +6.474777E+00 +3.247517E+02 
 +4.748080E+02 -3.952555E+00 -1.747196E+01 -3.952555E+00 +8.706038E+02 +2.788039E+00 -1.747196E+01 +2.788039E+00 +3.326907E+02 
 +4.722771E+02 -6.854321E+00 -1.465279E+01 -6.854321E+00 +8.626143E+02 -9.326361E-01 -1.465279E+01 -9.326361E-01 +3.624077E+02 
 +4.923737E+02 -1.435253E+00 +2.764418E+00 -1.435253E+00 +8.614321E+02 -3.257108E+00 +2.764418E+00 -3.257108E+00 +3.866119E+02 
 +4.884474E+02 +4.676757E+00 -3.432653E+00 +4.676757E+00 +8.556647E+02 -1.078077E+00 -3.432653E+00 -1.078077E+00 +3.835701E+02 
 +4.813480E+02 -1.518635E+00 -7.137096E-01 -1.518635E+00 +8.602425E+02 -4.260476E+00 -7.137096E-01 -4.260476E+00 +3.921204E+02 
 +4.754635E+02 -8.161931E+00 -3.446807E+00 -8.161931E+00 +8.517837E+02 -1.048023E+01 -3.446807E+00 -1.048023E+01 +3.872352E+02 
 +4.784944E+02 -1.225727E+01 -8.378856E+00 -1.225727E+01 +8.440693E+02 -1.629669E+01 -8.378856E+00 -1.629669E+01 +3.797700E+02 
 +4.849128E+02 -1.561631E+01 -1.298504E+01 -1.561631E+01 +8.457416E+02 -1.995691E+01 -1.298504E+01 -1.995691E+01 +3.823931E+02 
 +4.903642E+02 -1.408135E+01 +8.494671E+00 -1.408135E+01 +8.438922E+02 -3.050041E+01 +8.494671E+00 -3.050041E+01 +3.711932E+02 
 +4.888680E+02 -5.534701E+00 +2.685563E+01 -5.534701E+00 +8.584042E+02 -1.393780E+01 +2.685563E+01 -1.393780E+01 +3.581891E+02 
 +4.944073E+02 -3.468076E+00 +1.577559E+01 -3.468076E+00 +8.589229E+02 +2.097030E+00 +1.577559E+01 +2.097030E+00 +3.594718E+02 
 +4.901832E+02 -2.303108E+00 +1.258061E+00 -2.303108E+00 +8.527066E+02 +6.863900E+00 +1.258061E+00 +6.863900E+00 +3.722862E+02 
 +4.822086E+02 +2.647038E+00 +4.724433E+00 +2.647038E+00 +8.596733E+02 +7.955666E+00 +4.724433E+00 +7.955666E+00 +3.794287E+02 
 +5.006554E+02 +7.918109E+00 -8.051566E+00 +7.918109E+00 +8.663645E+02 +1.298899E+01 -8.051566E+00 +1.298899E+01 +3.817532E+02 
 +5.109546E+02 +9.578019E+00 -9.312307E+00 +9.578019E+00 +8.580380E+02 +2.243234E+01 -9.312307E+00 +2.243234E+01 +3.687885E+02 
 +4.819261E+02 +3.669032E-01 -1.371467E+01 +3.669032E-01 +8.454442E+02 +2.663146E+01 -1.371467E+01 +2.663146E+01 +3.330761E+02 
 +4.847428E+02 +7.105571E+00 -2.486305E+01 +7.105571E+00 +8.651733E+02 +1.342490E+01 -2.486305E+01 +1.342490E+01 +3.218527E+02 
 +4.790605E+02 +8.528912E+00 -3.447504E+01 +8.528912E+00 +8.746561E+02 +1.147240E+00 -3.447504E+01 +1.147240E+00 +3.192498E+02 
 +4.827193E+02 +9.577804E+00 -2.641575E+01 +9.577804E+00 +8.781546E+02 +4.095785E+00 -2.641575E+01 +4.095785E+00 +3.217265E+02 
 +4.826377E+02 +6.928639E+00 -2.495591E+01 +6.928639E+00 +8.774280E+02 +8.062933E+00 -2.495591E+01 +8.062933E+00 +3.245058E+02 
 +4.833166E+02 +2.603778E+00 -2.698630E+01 +2.603778E+00 +8.767611E+02 +7.823278E+00 -2.698630E+01 +7.823278E+00 +3.335444E+02 
 +4.787673E+02 -3.750598E+00 -2.656045E+01 -3.750598E+00 +8.685396E+02 +4.811321E+00 -2.656045E+01 +4.811321E+00 +3.428851E+02 
 +4.754085E+02 -9.500065E+00 -2.734493E+01 -9.500065E+00 +8.634579E+02 +1.001997E+01 -2.734493E+01 +1.001997E+01 +3.654761E+02 
 +4.876609E+02 -9.823695E+00 +4.606332E-01 -9.823695E+00 +8.654530E+02 +2.396544E+01 +4.606332E-01 +2.396544E+01 +3.859852E+02 
 +4.725821E+02 +7.345764E-01 -4.658483E+00 +7.345764E-01 +8.409482E+02 +2.672809E+01 -4.658483E+00 +2.672809E+01 +3.799879E+02 
 +4.776317E+02 +6.867981E-01 -6.084484E+00 +6.867981E-01 +8.416317E+02 +1.289090E+01 -6.084484E+00 +1.289090E+01 +3.886286E+02 
 +4.842359E+02 -7.238623E+00 +5.980219E-01 -7.238623E+00 +8.542421E+02 -3.776365E+00 +5.980219E-01 -3.776365E+00 +3.893887E+02 
 +4.857661E+02 -1.419927E+01 +2.088318E+00 -1.419927E+01 +8.511646E+02 -1.336408E+01 +2.088318E+00 -1.336408E+01 +3.861225E+02 
 +4.845546E+02 -1.848765E+01 +2.274474E+00 -1.848765E+01 +8.382215E+02 -2.553050E+01 +2.274474E+00 -2.553050E+01 +3.803556E+02 
 +4.862553E+02 -5.357315E+00 +3.509484E+01 -5.357315E+00 +8.480873E+02 -2.055157E+01 +3.509484E+01 -2.055157E+01 +3.544550E+02 
 +4.975674E+02 -5.492698E-01 +3.150653E+01 -5.492698E-01 +8.667877E+02 -1.476520E+01 +3.150653E+01 -1.476520E+01 +3.479619E+02 
 +4.899694E+02 -4.900718E+00 +3.172553E+01 -4.900718E+00 +8.596200E+02 -8.183664E+00 +3.172553E+01 -8.183664E+00 +3.477792E+02 
 +4.955566E+02 -1.191812E+00 +1.212999E+01 -1.191812E+00 +8.593806E+02 +7.617360E+00 +1.212999E+01 +7.617360E+00 +3.710686E+02 
 +4.839715E+02 -2.662370E+00 +5.675007E+00 -2.662370E+00 +8.466774E+02 +9.309722E+00 +5.675007E+00 +9.309722E+00 +3.847819E+02 
 +4.899784E+02 -6.291034E-01 -1.005787E+01 -6.291034E-01 +8.368166E+02 +9.150122E+00 -1.005787E+01 +9.150122E+00 +3.825585E+02 
 +4.971667E+02 +9.038924E+00 -4.772875E+00 +9.038924E+00 +8.485966E+02 +1.600219E+01 -4.772875E+00 +1.600219E+01 +3.529162E+02 
 +4.800600E+02 +1.845904E+00 -2.076405E+01 +1.845904E+00 +8.714894E+02 +1.224386E+01 -2.076405E+01 +1.224386E+01 +3.287720E+02 
 +4.846615E+02 +7.882769E+00 -3.137841E+01 +7.882769E+00 +8.895132E+02 +2.119866E+00 -3.137841E+01 +2.119866E+00 +3.244087E+02 
 +4.900483E+02 +1.046826E+01 -2.908891E+01 +1.046826E+01 +8.859143E+02 -9.351051E-01 -2.908891E+01 -9.351051E-01 +3.135962E+02 
 +4.897583E+02 +1.019290E+01 -2.070571E+01 +1.019290E+01 +8.823483E+02 +1.074007E+00 -2.070571E+01 +1.074007E+00 +3.186775E+02 
 +4.849801E+02 +7.167011E+00 -2.395723E+01 +7.167011E+00 +8.784497E+02 +4.404309E+00 -2.395723E+01 +4.404309E+00 +3.311765E+02 
 +4.863330E+02 +2.352490E+00 -2.960498E+01 +2.352490E+00 +8.761689E+02 +6.285319E+00 -2.960498E+01 +6.285319E+00 +3.433034E+02 
 +4.846228E+02 -3.791763E+00 -3.463126E+01 -3.791763E+00 +8.732972E+02 +7.788655E+00 -3.463126E+01 +7.788655E+00 +3.540934E+02 
 +4.638350E+02 -8.047406E+00 -3.882519E+01 -8.047406E+00 +8.559494E+02 +1.900676E+01 -3.882519E+01 +1.900676E+01 +3.450548E+02 
 +4.765130E+02 -6.562985E+00 -7.894091E+00 -6.562985E+00 +8.606843E+02 +3.457793E+01 -7.894091E+00 +3.457793E+01 +3.682052E+02 
 +4.683562E+02 -1.498116E+00 +2.851353E+00 -1.498116E+00 +8.508227E+02 +3.203094E+01 +2.851353E+00 +3.203094E+01 +3.898933E+02 
 +4.855611E+02 +9.658410E-01 -1.014808E+00 +9.658410E-01 +8.407099E+02 +1.922395E+01 -1.014808E+00 +1.922395E+01 +3.952215E+02 
 +4.869452E+02 -2.738882E+00 +1.397806E+00 -2.738882E+00 +8.394890E+02 +7.562240E+00 +1.397806E+00 +7.562240E+00 +3.929137E+02 
 +4.879423E+02 -1.383633E+01 +9.948287E+00 -1.383633E+01 +8.495012E+02 -1.327543E+01 +9.948287E+00 -1.327543E+01 +3.903222E+02 
 +4.905765E+02 -1.765769E+01 +1.972856E+01 -1.765769E+01 +8.456722E+02 -2.863208E+01 +1.972856E+01 -2.863208E+01 +3.754114E+02 
 +4.826799E+02 -4.051939E+00 +4.789885E+01 -4.051939E+00 +8.451245E+02 -1.931214E+01 +4.789885E+01 -1.931214E+01 +3.494064E+02 
 +4.928824E+02 +3.839239E+00 +2.572270E+01 +3.839239E+00 +8.450533E+02 -1.138850E+01 +2.572270E+01 -1.138850E+01 +3.448413E+02 
 +4.807426E+02 -6.948258E+00 +4.023911E+01 -6.948258E+00 +8.541031E+02 -2.754203E+00 +4.023911E+01 -2.754203E+00 +3.436656E+02 
 +4.975630E+02 -6.190371E+00 +2.503836E+01 -6.190371E+00 +8.714958E+02 +3.576778E+00 +2.503836E+01 +3.576778E+00 +3.716481E+02 
 +4.975397E+02 -6.170953E+00 +1.454060E+01 -6.170953E+00 +8.692122E+02 +1.012875E+01 +1.454060E+01 +1.012875E+01 +3.820378E+02 
 +5.108336E+02 -2.860398E+00 -3.871786E+00 -2.860398E+00 +8.855693E+02 +1.975416E+01 -3.871786E+00 +1.975416E+01 +3.785034E+02 
 +5.050884E+02 +9.151182E+00 -1.547825E+00 +9.151182E+00 +8.883140E+02 +2.177654E+01 -1.547825E+00 +2.177654E+01 +3.536081E+02 
 +4.860968E+02 +7.269831E+00 -2.884863E+01 +7.269831E+00 +8.791320E+02 +1.025912E+01 -2.884863E+01 +1.025912E+01 +3.401997E+02 
 +4.837594E+02 +1.079098E+01 -3.570582E+01 +1.079098E+01 +8.806538E+02 +8.224670E-01 -3.570582E+01 +8.224670E-01 +3.296625E+02 
 +4.960027E+02 +1.221307E+01 -2.731206E+01 +1.221307E+01 +8.865325E+02 -3.598673E+00 -2.731206E+01 -3.598673E+00 +3.118969E+02 
 +4.922802E+02 +1.013812E+01 -1.962560E+01 +1.013812E+01 +8.841917E+02 -2.981473E+00 -1.962560E+01 -2.981473E+00 +3.199262E+02 
 +4.887309E+02 +5.732815E+00 -2.429781E+01 +5.732815E+00 +8.804550E+02 -2.453572E-01 -2.429781E+01 -2.453572E-01 +3.412177E+02 
 +4.901946E+02 +1.243626E+00 -3.113150E+01 +1.243626E+00 +8.782665E+02 +3.843998E+00 -3.113150E+01 +3.843998E+00 +3.500692E+02 
 +4.912945E+02 -4.023295E+00 -3.587263E+01 -4.023295E+00 +8.807091E+02 +1.147444E+01 -3.587263E+01 +1.147444E+01 +3.613462E+02 
 +4.632496E+02 -1.171128E+01 -3.938571E+01 -1.171128E+01 +8.601665E+02 +2.422574E+01 -3.938571E+01 +2.422574E+01 +3.421619E+02 
 +4.695375E+02 -1.042112E+01 -9.416222E+00 -1.042112E+01 +8.600198E+02 +3.164524E+01 -9.416222E+00 +3.164524E+01 +3.634464E+02 
 +4.690864E+02 -4.722748E+00 +5.660565E+00 -4.722748E+00 +8.551397E+02 +2.451635E+01 +5.660565E+00 +2.451635E+01 +3.926421E+02 
 +4.871154E+02 -7.167693E-01 +6.496280E+00 -7.167693E-01 +8.469702E+02 +1.460425E+01 +6.496280E+00 +1.460425E+01 +3.922943E+02 
 +4.914860E+02 +2.084115E+00 +3.779544E+00 +2.084115E+00 +8.346882E+02 +1.281857E+01 +3.779544E+00 +1.281857E+01 +3.903874E+02 
 +4.938272E+02 -4.796791E+00 +8.542722E+00 -4.796791E+00 +8.411247E+02 +1.281758E+00 +8.542722E+00 +1.281758E+00 +3.758886E+02 
 +4.780366E+02 -1.462965E+01 +4.151978E+01 -1.462965E+01 +8.473606E+02 -1.606282E+01 +4.151978E+01 -1.606282E+01 +3.528332E+02 
 +4.825606E+02 -6.567080E+00 +4.590512E+01 -6.567080E+00 +8.545592E+02 -1.954263E+01 +4.590512E+01 -1.954263E+01 +3.529089E+02 
 +4.953778E+02 -1.072542E+00 +2.806373E+01 -1.072542E+00 +8.613042E+02 -5.612400E+00 +2.806373E+01 -5.612400E+00 +3.552507E+02 
 +4.908623E+02 -5.295210E+00 +2.945180E+01 -5.295210E+00 +8.589782E+02 +3.482479E+00 +2.945180E+01 +3.482479E+00 +3.512231E+02 
 +4.973928E+02 -4.463037E+00 +2.821416E+01 -4.463037E+00 +8.700008E+02 +4.865517E+00 +2.821416E+01 +4.865517E+00 +3.675656E+02 
 +5.024856E+02 -2.689177E+00 +2.226047E+01 -2.689177E+00 +8.819484E+02 +1.418716E+01 +2.226047E+01 +1.418716E+01 +3.807770E+02 
 +5.032131E+02 +4.286050E+00 -2.947891E+00 +4.286050E+00 +8.873628E+02 +2.147284E+01 -2.947891E+00 +2.147284E+01 +3.588987E+02 
 +4.969904E+02 +1.502817E+01 -7.407564E+00 +1.502817E+01 +8.834731E+02 +9.801141E+00 -7.407564E+00 +9.801141E+00 +3.431829E+02 
 +4.930941E+02 +1.271776E+01 -3.261162E+01 +1.271776E+01 +8.830194E+02 -4.153366E+00 -3.261162E+01 -4.153366E+00 +3.581056E+02 
 +4.922050E+02 +1.476921E+01 -4.036961E+01 +1.476921E+01 +8.824424E+02 -6.618893E+00 -4.036961E+01 -6.618893E+00 +3.465048E+02 
 +5.007063E+02 +1.404890E+01 -2.898584E+01 +1.404890E+01 +8.864969E+02 -6.810441E+00 -2.898584E+01 -6.810441E+00 +3.310301E+02 
 +4.942642E+02 +8.206563E+00 -2.053922E+01 +8.206563E+00 +8.851526E+02 -7.057925E+00 -2.053922E+01 -7.057925E+00 +3.388606E+02 
 +4.918257E+02 +2.598847E+00 -2.326896E+01 +2.598847E+00 +8.839344E+02 -3.768650E+00 -2.326896E+01 -3.768650E+00 +3.511464E+02 
 +4.942060E+02 -1.392118E+00 -3.026051E+01 -1.392118E+00 +8.818788E+02 +1.940446E+00 -3.026051E+01 +1.940446E+00 +3.527287E+02 
 +4.942588E+02 -3.468018E+00 -3.628655E+01 -3.468018E+00 +8.843471E+02 +7.662006E+00 -3.628655E+01 +7.662006E+00 +3.574619E+02 
 +4.649015E+02 -1.453755E+01 -3.172444E+01 -1.453755E+01 +8.683685E+02 +1.874602E+01 -3.172444E+01 +1.874602E+01 +3.466733E+02 
 +4.671114E+02 -1.427106E+01 -1.503385E-02 -1.427106E+01 +8.563237E+02 +2.542712E+01 -1.503385E-02 +2.542712E+01 +3.679661E+02 
 +4.720675E+02 -6.489025E+00 +5.346419E+00 -6.489025E+00 +8.423528E+02 +1.869713E+01 +5.346419E+00 +1.869713E+01 +3.917986E+02 
 +4.824602E+02 -1.573853E+00 +7.227617E+00 -1.573853E+00 +8.353075E+02 +1.256377E+01 +7.227617E+00 +1.256377E+01 +3.920378E+02 
 +4.826585E+02 +3.010938E+00 +7.363946E+00 +3.010938E+00 +8.215244E+02 +1.389619E+01 +7.363946E+00 +1.389619E+01 +3.790755E+02 
 +4.922122E+02 +2.455828E+00 +9.284328E+00 +2.455828E+00 +8.336644E+02 +1.095448E+01 +9.284328E+00 +1.095448E+01 +3.645016E+02 
 +4.699841E+02 -1.247333E+01 +4.054801E+01 -1.247333E+01 +8.408635E+02 -9.259603E+00 +4.054801E+01 -9.259603E+00 +3.472016E+02 
 +4.686401E+02 -3.994829E+00 +2.502391E+01 -3.994829E+00 +8.581514E+02 +9.326802E-01 +2.502391E+01 +9.326802E-01 +3.416487E+02 
 +4.822992E+02 -1.406478E+00 +1.624065E+01 -1.406478E+00 +8.744622E+02 -3.481655E+00 +1.624065E+01 -3.481655E+00 +3.605292E+02 
 +4.902022E+02 -4.879737E+00 +1.239298E+01 -4.879737E+00 +8.744703E+02 -3.198550E+00 +1.239298E+01 -3.198550E+00 +3.700345E+02 
 +4.898652E+02 -1.223409E+01 +1.043900E+01 -1.223409E+01 +8.851667E+02 -8.759283E+00 +1.043900E+01 -8.759283E+00 +3.638300E+02 
 +4.883711E+02 -1.282366E+01 +2.270981E+01 -1.282366E+01 +8.931039E+02 -5.290567E+00 +2.270981E+01 -5.290567E+00 +3.335354E+02 
 +5.129436E+02 -7.314921E+00 -1.895187E+01 -7.314921E+00 +9.063154E+02 +1.578720E+00 -1.895187E+01 +1.578720E+00 +3.365357E+02 
 +5.123634E+02 -2.045151E+00 -7.122817E+00 -2.045151E+00 +9.034722E+02 -5.703675E+00 -7.122817E+00 -5.703675E+00 +3.509929E+02 
 +4.884933E+02 +5.437432E+00 -1.801761E+01 +5.437432E+00 +8.808834E+02 -1.459541E+01 -1.801761E+01 -1.459541E+01 +3.449547E+02 
 +4.783478E+02 +1.230306E+01 -2.326362E+01 +1.230306E+01 +8.715307E+02 -1.049026E+01 -2.326362E+01 -1.049026E+01 +3.519508E+02 
 +4.770302E+02 +1.209078E+01 -2.254647E+01 +1.209078E+01 +8.725174E+02 -8.751133E-01 -2.254647E+01 -8.751133E-01 +3.552150E+02 
 +4.864652E+02 +1.002267E+01 -2.431699E+01 +1.002267E+01 +8.810624E+02 -3.586869E+00 -2.431699E+01 -3.586869E+00 +3.614937E+02 
 +4.942535E+02 +6.072215E+00 -2.456105E+01 +6.072215E+00 +8.900916E+02 -6.465449E+00 -2.456105E+01 -6.465449E+00 +3.638544E+02 
 +4.986269E+02 -8.648977E-01 -2.296890E+01 -8.648977E-01 +8.926860E+02 -1.900293E+00 -2.296890E+01 -1.900293E+00 +3.534065E+02 
 +4.864700E+02 -2.159014E+00 -2.805954E+01 -2.159014E+00 +8.744206E+02 -2.738501E+00 -2.805954E+01 -2.738501E+00 +3.501245E+02 
 +5.044684E+02 -1.734762E+01 +1.161438E+01 -1.734762E+01 +8.663008E+02 -4.545572E-02 +1.161438E+01 -4.545572E-02 +3.787921E+02 
 +5.028324E+02 -1.782619E+01 +2.264536E+01 -1.782619E+01 +8.602619E+02 +6.001690E+00 +2.264536E+01 +6.001690E+00 +3.873236E+02 
 +4.876195E+02 -9.839660E+00 +7.240944E+00 -9.839660E+00 +8.461406E+02 +1.053046E+01 +7.240944E+00 +1.053046E+01 +3.822391E+02 
 +4.892029E+02 -2.964522E+00 +7.530725E+00 -2.964522E+00 +8.315987E+02 +1.283772E+01 +7.530725E+00 +1.283772E+01 +3.837587E+02 
 +4.903921E+02 +1.136350E+00 +1.860043E+01 +1.136350E+00 +8.267827E+02 +1.270079E+01 +1.860043E+01 +1.270079E+01 +3.769565E+02 
 +4.968276E+02 -1.563991E+00 +1.880284E+00 -1.563991E+00 +8.392998E+02 +1.384246E+01 +1.880284E+00 +1.384246E+01 +3.680043E+02 
 +4.810543E+02 -1.891732E+01 +2.075548E+00 -1.891732E+01 +8.442364E+02 +8.922623E+00 +2.075548E+00 +8.922623E+00 +3.443616E+02 
 +4.683324E+02 -2.367654E+00 +8.092302E+00 -2.367654E+00 +8.511624E+02 +1.233914E+01 +8.092302E+00 +1.233914E+01 +3.459377E+02 
 +4.703928E+02 -6.878036E+00 +4.478224E+00 -6.878036E+00 +8.624377E+02 +8.606151E-01 +4.478224E+00 +8.606151E-01 +3.579322E+02 
 +4.730179E+02 -1.057301E+01 +4.802131E+00 -1.057301E+01 +8.702764E+02 -2.873452E+00 +4.802131E+00 -2.873452E+00 +3.597063E+02 
 +4.888507E+02 -1.156507E+01 +1.926156E-01 -1.156507E+01 +8.884338E+02 -4.117973E+00 +1.926156E-01 -4.117973E+00 +3.537680E+02 
 +4.922452E+02 -8.256639E+00 +2.266456E+01 -8.256639E+00 +8.958317E+02 -1.652622E+01 +2.266456E+01 -1.652622E+01 +3.099684E+02 
 +5.126200E+02 -2.616908E+00 -4.412882E+00 -2.616908E+00 +9.057669E+02 -1.819946E+01 -4.412882E+00 -1.819946E+01 +2.998129E+02 
 +5.186375E+02 +6.450151E-01 -1.498339E+00 +6.450151E-01 +9.048518E+02 -1.028404E+01 -1.498339E+00 -1.028404E+01 +3.298632E+02 
 +4.670868E+02 -1.359767E-01 -2.086021E+01 -1.359767E-01 +8.682447E+02 -1.101644E+01 -2.086021E+01 -1.101644E+01 +3.295204E+02 
 +4.883686E+02 +1.829940E+00 -2.001296E+01 +1.829940E+00 +8.735276E+02 -8.455669E+00 -2.001296E+01 -8.455669E+00 +3.624248E+02 
 +4.942082E+02 +3.383322E+00 -1.943592E+01 +3.383322E+00 +8.758909E+02 -3.679047E+00 -1.943592E+01 -3.679047E+00 +3.766262E+02 
 +4.902613E+02 +5.537937E+00 -2.758660E+01 +5.537937E+00 +8.832285E+02 -1.669129E+00 -2.758660E+01 -1.669129E+00 +3.721890E+02 
 +4.935169E+02 +3.794758E+00 -2.185883E+01 +3.794758E+00 +8.951336E+02 -3.170259E+00 -2.185883E+01 -3.170259E+00 +3.661436E+02 
 +5.168767E+02 +2.564453E+00 -1.870158E+01 +2.564453E+00 +9.119772E+02 -4.629750E+00 -1.870158E+01 -4.629750E+00 +3.539877E+02 
 +4.991409E+02 -5.559822E+00 -3.572741E+01 -5.559822E+00 +8.814499E+02 -1.681370E+00 -3.572741E+01 -1.681370E+00 +3.473215E+02 
 +5.086855E+02 -1.696470E+01 -2.177976E+00 -1.696470E+01 +8.643929E+02 -4.163476E+00 -2.177976E+00 -4.163476E+00 +3.771929E+02 
 +5.088733E+02 -1.538109E+01 +9.178769E+00 -1.538109E+01 +8.693613E+02 -1.071747E+01 +9.178769E+00 -1.071747E+01 +3.843218E+02 
 +4.958451E+02 -1.625063E+01 +5.500862E+00 -1.625063E+01 +8.551971E+02 -1.068793E+01 +5.500862E+00 -1.068793E+01 +3.669535E+02 
 +4.918723E+02 -3.904828E+00 +1.748731E+01 -3.904828E+00 +8.539989E+02 -3.737598E+00 +1.748731E+01 -3.737598E+00 +3.692659E+02 
 +4.888601E+02 -8.914015E-01 +3.449186E+01 -8.914015E-01 +8.701309E+02 +6.875577E+00 +3.449186E+01 +6.875577E+00 +3.631944E+02 
 +4.861308E+02 -3.289950E+00 +2.778492E+00 -3.289950E+00 +8.642995E+02 +9.840569E+00 +2.778492E+00 +9.840569E+00 +3.488643E+02 
 +4.872249E+02 -1.634670E+01 -1.429725E+00 -1.634670E+01 +8.552304E+02 +1.495639E+01 -1.429725E+00 +1.495639E+01 +3.455548E+02 
 +4.599539E+02 +1.794683E+00 +4.061822E+00 +1.794683E+00 +8.533013E+02 +1.171057E+01 +4.061822E+00 +1.171057E+01 +3.466207E+02 
 +4.656167E+02 -5.256273E+00 +1.474705E+00 -5.256273E+00 +8.674737E+02 +1.196211E+01 +1.474705E+00 +1.196211E+01 +3.671833E+02 
 +4.549772E+02 -1.041175E+01 +4.679101E+00 -1.041175E+01 +8.692337E+02 +7.596756E+00 +4.679101E+00 +7.596756E+00 +3.518994E+02 
 +4.929640E+02 -1.058420E+01 +7.397764E+00 -1.058420E+01 +8.921198E+02 +4.666017E+00 +7.397764E+00 +4.666017E+00 +3.558898E+02 
 +5.251053E+02 -9.073389E+00 +1.158471E+01 -9.073389E+00 +9.062379E+02 -5.569040E+00 +1.158471E+01 -5.569040E+00 +3.298745E+02 
 +5.253589E+02 -4.682317E+00 +1.112192E+01 -4.682317E+00 +9.019386E+02 -1.093016E+01 +1.112192E+01 -1.093016E+01 +2.955672E+02 
 +5.139137E+02 -1.921056E+00 +6.448410E+00 -1.921056E+00 +8.977852E+02 -3.290559E+00 +6.448410E+00 -3.290559E+00 +3.140865E+02 
 +4.389595E+02 -2.608056E+00 -6.098558E+00 -2.608056E+00 +8.587663E+02 -2.483499E+00 -6.098558E+00 -2.483499E+00 +3.297546E+02 
 +4.758331E+02 -5.466088E+00 -1.311299E+01 -5.466088E+00 +8.713123E+02 -7.393210E+00 -1.311299E+01 -7.393210E+00 +3.673104E+02 
 +4.971232E+02 -6.101079E+00 -1.874355E+01 -6.101079E+00 +8.745214E+02 -9.990440E+00 -1.874355E+01 -9.990440E+00 +3.752537E+02 
 +5.040047E+02 -8.966167E-01 -2.100927E+01 -8.966167E-01 +8.881323E+02 -5.707460E+00 -2.100927E+01 -5.707460E+00 +3.838531E+02 
 +5.183411E+02 +1.260923E-01 -1.281497E+01 +1.260923E-01 +9.042060E+02 -3.688485E-01 -1.281497E+01 -3.688485E-01 +3.816925E+02 
 +5.548584E+02 +6.589425E+00 -6.344151E+00 +6.589425E+00 +9.187396E+02 +2.650024E+00 -6.344151E+00 +2.650024E+00 +3.660298E+02 
 +5.184676E+02 -9.775226E+00 -2.934211E+01 -9.775226E+00 +8.968444E+02 +8.255747E+00 -2.934211E+01 +8.255747E+00 +3.536364E+02 
 +4.910279E+02 -1.783566E+01 -2.983274E+01 -1.783566E+01 +8.840074E+02 -9.237271E-01 -2.983274E+01 -9.237271E-01 +3.526650E+02 
 +5.129177E+02 -2.220184E+01 -1.751852E-01 -2.220184E+01 +8.800958E+02 -1.314484E+01 -1.751852E-01 -1.314484E+01 +3.554054E+02 
 +5.113995E+02 -1.756583E+01 +1.885461E+00 -1.756583E+01 +8.820441E+02 -1.209557E+01 +1.885461E+00 -1.209557E+01 +3.489836E+02 
 +5.016430E+02 -3.253194E+00 +2.378423E+01 -3.253194E+00 +9.004590E+02 -2.690692E+00 +2.378423E+01 -2.690692E+00 +3.550420E+02 
 +4.908484E+02 +1.512604E+00 +2.490478E+01 +1.512604E+00 +8.925646E+02 +9.635876E+00 +2.490478E+01 +9.635876E+00 +3.584852E+02 
 +4.908709E+02 -1.748497E+00 -2.498809E+00 -1.748497E+00 +8.815424E+02 +1.478488E+01 -2.498809E+00 +1.478488E+01 +3.538251E+02 
 +4.798205E+02 -1.105703E+01 +1.225783E+00 -1.105703E+01 +8.645601E+02 +1.310004E+01 +1.225783E+00 +1.310004E+01 +3.384453E+02 
 +4.391190E+02 +1.175606E+01 +1.716796E+01 +1.175606E+01 +8.544336E+02 +2.234541E+01 +1.716796E+01 +2.234541E+01 +3.505493E+02 
 +4.536415E+02 +4.250642E+00 +1.621292E+01 +4.250642E+00 +8.676182E+02 +2.763735E+01 +1.621292E+01 +2.763735E+01 +3.787634E+02 
 +4.571521E+02 +2.146542E+00 +1.452707E+01 +2.146542E+00 +8.691312E+02 +2.318477E+01 +1.452707E+01 +2.318477E+01 +3.697796E+02 
 +4.752278E+02 +1.491294E+00 +1.962539E+01 +1.491294E+00 +8.802893E+02 +1.592891E+01 +1.962539E+01 +1.592891E+01 +3.585903E+02 
 +5.442533E+02 -4.632714E+00 +3.420858E+00 -4.632714E+00 +9.101396E+02 +9.380626E+00 +3.420858E+00 +9.380626E+00 +3.463780E+02 
 +5.410587E+02 -7.410490E+00 +7.623765E+00 -7.410490E+00 +8.980603E+02 -1.450973E+00 +7.623765E+00 -1.450973E+00 +3.106554E+02 
 +5.202372E+02 -3.163645E+00 +9.704786E+00 -3.163645E+00 +8.920195E+02 -6.684971E-01 +9.704786E+00 -6.684971E-01 +3.215042E+02 
 +4.216952E+02 -1.259808E+00 +2.701715E+00 -1.259808E+00 +8.501252E+02 +6.963464E+00 +2.701715E+00 +6.963464E+00 +3.385634E+02 
 +4.522863E+02 -4.306791E+00 -3.695507E+00 -4.306791E+00 +8.693218E+02 +4.445432E+00 -3.695507E+00 +4.445432E+00 +3.758313E+02 
 +4.920441E+02 -4.105196E+00 -1.909120E+01 -4.105196E+00 +8.694305E+02 -3.164469E+00 -1.909120E+01 -3.164469E+00 +3.687009E+02 
 +5.079875E+02 +8.806454E+00 -3.167357E+00 +8.806454E+00 +8.521597E+02 +2.174195E+00 -3.167357E+00 +2.174195E+00 +3.783162E+02 
 +5.151121E+02 +1.117219E+01 +2.084745E+00 +1.117219E+01 +8.365144E+02 +9.855381E+00 +2.084745E+00 +9.855381E+00 +3.771251E+02 
 +5.327047E+02 +1.327501E+01 +6.250777E+00 +1.327501E+01 +8.469985E+02 +5.431868E+00 +6.250777E+00 +5.431868E+00 +3.582504E+02 
 +5.197722E+02 -5.899115E+00 -2.013643E+01 -5.899115E+00 +8.900164E+02 +1.323170E+00 -2.013643E+01 +1.323170E+00 +3.673652E+02 
 +5.038428E+02 -1.593671E+01 -3.283804E+01 -1.593671E+01 +9.107169E+02 -2.628510E+00 -3.283804E+01 -2.628510E+00 +3.503781E+02 
 +5.253149E+02 -1.492949E+01 +9.082477E+00 -1.492949E+01 +9.212481E+02 -7.626094E+00 +9.082477E+00 -7.626094E+00 +3.305374E+02 
 +5.186168E+02 -7.183500E+00 +8.043569E+00 -7.183500E+00 +9.220526E+02 -5.877988E+00 +8.043569E+00 -5.877988E+00 +3.269336E+02 
 +4.905957E+02 -4.905265E+00 +2.208550E+01 -4.905265E+00 +8.978777E+02 -9.913413E-01 +2.208550E+01 -9.913413E-01 +3.281084E+02 
 +4.928506E+02 -2.654088E-01 +2.020809E+01 -2.654088E-01 +8.931445E+02 +8.469390E+00 +2.020809E+01 +8.469390E+00 +3.553924E+02 
 +5.007571E+02 -4.312658E+00 -1.017900E+01 -4.312658E+00 +8.901004E+02 +1.667868E+01 -1.017900E+01 +1.667868E+01 +3.720809E+02 
 +4.845222E+02 -4.780683E+00 -3.027620E+00 -4.780683E+00 +8.726419E+02 +1.732163E+01 -3.027620E+00 +1.732163E+01 +3.519421E+02 
 +4.391628E+02 +4.082568E+00 +1.927320E+01 +4.082568E+00 +8.612837E+02 +2.522982E+01 +1.927320E+01 +2.522982E+01 +3.656423E+02 
 +4.519279E+02 +3.747134E+00 +2.035875E+01 +3.747134E+00 +8.654308E+02 +2.813362E+01 +2.035875E+01 +2.813362E+01 +3.812676E+02 
 +4.611086E+02 +9.779163E+00 +1.273628E+01 +9.779163E+00 +8.663026E+02 +2.139138E+01 +1.273628E+01 +2.139138E+01 +3.810451E+02 
 +4.673881E+02 +1.204800E+01 +1.780373E+01 +1.204800E+01 +8.717418E+02 +1.233947E+01 +1.780373E+01 +1.233947E+01 +3.619088E+02 
 +5.374188E+02 +7.189105E+00 -2.938282E+00 +7.189105E+00 +9.074679E+02 +1.071925E+00 -2.938282E+00 +1.071925E+00 +3.498195E+02 
 +5.360371E+02 -6.489041E+00 +4.284412E+00 -6.489041E+00 +8.960010E+02 -1.028316E+01 +4.284412E+00 -1.028316E+01 +3.337670E+02 
 +5.196963E+02 -8.334743E+00 +1.716716E+01 -8.334743E+00 +8.867705E+02 -7.584006E+00 +1.716716E+01 -7.584006E+00 +3.479488E+02 
 +4.278762E+02 -9.774036E+00 +7.951367E+00 -9.774036E+00 +8.497206E+02 +6.853860E+00 +7.951367E+00 +6.853860E+00 +3.463360E+02 
 +4.527544E+02 -2.123585E+00 +1.418644E+00 -2.123585E+00 +8.656771E+02 +1.576150E+01 +1.418644E+00 +1.576150E+01 +3.748856E+02 
 +5.060781E+02 +1.683776E+00 -7.502535E+00 +1.683776E+00 +8.749641E+02 +1.395280E+01 -7.502535E+00 +1.395280E+01 +3.765842E+02 
 +5.293827E+02 +1.254342E+01 +1.088386E+01 +1.254342E+01 +8.548899E+02 +1.037385E+01 +1.088386E+01 +1.037385E+01 +3.815419E+02 
 +5.253284E+02 +1.407026E+01 +6.477606E+00 +1.407026E+01 +8.389651E+02 +5.676071E+00 +6.477606E+00 +5.676071E+00 +3.838347E+02 
 +5.160636E+02 +1.420707E+01 +6.586327E+00 +1.420707E+01 +8.337686E+02 -2.279623E+00 +6.586327E+00 -2.279623E+00 +3.699698E+02 
 +4.998767E+02 +1.065420E+01 -5.070439E+00 +1.065420E+01 +8.351868E+02 -3.386169E+00 -5.070439E+00 -3.386169E+00 +3.653807E+02 
 +5.048689E+02 -1.109538E+01 -1.583908E+01 -1.109538E+01 +8.683216E+02 +3.322489E+00 -1.583908E+01 +3.322489E+00 +3.531716E+02 
 +5.160106E+02 -9.142085E+00 +1.394489E+01 -9.142085E+00 +9.076525E+02 -6.106368E+00 +1.394489E+01 -6.106368E+00 +3.355004E+02 
 +4.970668E+02 -8.820241E+00 +1.585204E+01 -8.820241E+00 +9.089869E+02 -1.480051E+01 +1.585204E+01 -1.480051E+01 +3.263556E+02 
 +4.849893E+02 -7.209064E+00 +2.057981E+01 -7.209064E+00 +8.931962E+02 -5.378615E+00 +2.057981E+01 -5.378615E+00 +3.285832E+02 
 +4.850308E+02 -1.702935E+00 +2.887071E+01 -1.702935E+00 +8.855639E+02 +3.304855E+00 +2.887071E+01 +3.304855E+00 +3.431848E+02 
 +5.005600E+02 -1.123854E+01 -9.512406E+00 -1.123854E+01 +8.816035E+02 +1.044159E+01 -9.512406E+00 +1.044159E+01 +3.723228E+02 
 +4.713428E+02 -9.095073E+00 -4.624872E+00 -9.095073E+00 +8.648551E+02 +1.743683E+01 -4.624872E+00 +1.743683E+01 +3.674441E+02 
 +4.564957E+02 -4.560916E-01 +1.423075E+01 -4.560916E-01 +8.749286E+02 +1.356369E+01 +1.423075E+01 +1.356369E+01 +3.890783E+02 
 +4.592932E+02 -3.486492E+00 +1.278695E+01 -3.486492E+00 +8.612238E+02 +1.467056E+01 +1.278695E+01 +1.467056E+01 +3.861709E+02 
 +4.647185E+02 +6.973577E+00 +4.092009E+00 +6.973577E+00 +8.642346E+02 +1.905335E+01 +4.092009E+00 +1.905335E+01 +3.882180E+02 
 +4.856126E+02 +9.256625E+00 +3.663544E+00 +9.256625E+00 +8.694060E+02 +1.459490E+01 +3.663544E+00 +1.459490E+01 +3.882622E+02 
 +5.108464E+02 +4.837384E+00 -3.892350E+00 +4.837384E+00 +8.624286E+02 +5.245365E+00 -3.892350E+00 +5.245365E+00 +3.712277E+02 
 +4.992442E+02 -5.495131E+00 +5.027601E+00 -5.495131E+00 +8.405278E+02 +3.226961E+00 +5.027601E+00 +3.226961E+00 +3.553315E+02 
 +4.780074E+02 +6.965430E+00 +2.370182E+01 +6.965430E+00 +8.369608E+02 +3.753700E+00 +2.370182E+01 +3.753700E+00 +3.523301E+02 
 +4.539525E+02 +7.103507E+00 +1.582919E+01 +7.103507E+00 +8.380545E+02 +8.038790E+00 +1.582919E+01 +8.038790E+00 +3.483904E+02 
 +4.576455E+02 +9.560860E+00 +5.854362E+00 +9.560860E+00 +8.319034E+02 +1.449230E+01 +5.854362E+00 +1.449230E+01 +3.611206E+02 
 +4.963752E+02 +9.319457E+00 +7.582311E+00 +9.319457E+00 +8.345114E+02 +1.460241E+01 +7.582311E+00 +1.460241E+01 +3.783892E+02 
 +5.142642E+02 +1.228854E+01 +1.204888E+01 +1.228854E+01 +8.386787E+02 +5.417373E+00 +1.204888E+01 +5.417373E+00 +3.797672E+02 
 +5.155945E+02 +1.757784E+01 +6.674035E+00 +1.757784E+01 +8.407276E+02 -1.026768E+00 +6.674035E+00 -1.026768E+00 +3.822309E+02 
 +5.126818E+02 +1.649593E+01 +5.709073E+00 +1.649593E+01 +8.392444E+02 -6.910735E-01 +5.709073E+00 -6.910735E-01 +3.808374E+02 
 +5.120448E+02 +1.783806E+01 +5.761126E+00 +1.783806E+01 +8.443869E+02 -4.877774E+00 +5.761126E+00 -4.877774E+00 +3.796504E+02 
 +5.014665E+02 -5.490490E+00 -2.635708E+00 -5.490490E+00 +8.509057E+02 -5.953290E-01 -2.635708E+00 -5.953290E-01 +3.632314E+02 
 +4.966982E+02 -7.872960E+00 +8.502393E+00 -7.872960E+00 +8.653726E+02 +1.136964E+00 +8.502393E+00 +1.136964E+00 +3.510791E+02 
 +4.840716E+02 -1.329958E+01 +1.760796E+01 -1.329958E+01 +8.766910E+02 -4.867116E+00 +1.760796E+01 -4.867116E+00 +3.434153E+02 
 +4.902205E+02 -9.463043E+00 +2.338885E+01 -9.463043E+00 +8.885364E+02 +3.501858E-01 +2.338885E+01 +3.501858E-01 +3.473626E+02 
 +4.757205E+02 -4.207320E+00 +3.025748E+01 -4.207320E+00 +8.708551E+02 -1.510858E+00 +3.025748E+01 -1.510858E+00 +3.506574E+02 
 +4.969051E+02 -1.290446E+01 +1.892469E+00 -1.290446E+01 +8.856443E+02 -1.751739E+00 +1.892469E+00 -1.751739E+00 +3.843249E+02 
 +4.561741E+02 -4.195478E+00 +5.175121E+00 -4.195478E+00 +8.809119E+02 +8.572378E+00 +5.175121E+00 +8.572378E+00 +3.848087E+02 
 +4.568774E+02 +1.357134E+00 +1.334497E+01 +1.357134E+00 +8.739522E+02 +2.330932E+00 +1.334497E+01 +2.330932E+00 +3.997181E+02 
 +4.616258E+02 +2.883670E-01 +7.580589E+00 +2.883670E-01 +8.664219E+02 +7.683835E+00 +7.580589E+00 +7.683835E+00 +3.974004E+02 
 +4.595483E+02 +4.499440E+00 +1.868556E-01 +4.499440E+00 +8.523069E+02 +1.918626E+01 +1.868556E-01 +1.918626E+01 +3.994735E+02 
 +5.096289E+02 +2.359576E+00 -1.063949E+01 +2.359576E+00 +8.614771E+02 +1.813722E+01 -1.063949E+01 +1.813722E+01 +4.197189E+02 
 +5.100841E+02 +3.092707E+00 -1.363090E+00 +3.092707E+00 +8.467136E+02 +1.149529E+01 -1.363090E+00 +1.149529E+01 +4.014510E+02 
 +4.999088E+02 -1.695948E+00 +4.730482E+00 -1.695948E+00 +8.424990E+02 +9.730982E+00 +4.730482E+00 +9.730982E+00 +3.863417E+02 
 +4.825250E+02 +1.989189E+01 +2.607748E+01 +1.989189E+01 +8.414439E+02 +6.125934E+00 +2.607748E+01 +6.125934E+00 +3.664248E+02 
 +4.845563E+02 +1.386735E+01 +2.027089E+01 +1.386735E+01 +8.444809E+02 +3.388906E+00 +2.027089E+01 +3.388906E+00 +3.559765E+02 
 +4.754972E+02 +2.661273E+00 +9.476768E+00 +2.661273E+00 +8.350373E+02 +4.774016E+00 +9.476768E+00 +4.774016E+00 +3.675719E+02 
 +4.844564E+02 -3.012091E+00 +9.547834E+00 -3.012091E+00 +8.287125E+02 +3.078970E+00 +9.547834E+00 +3.078970E+00 +3.899222E+02 
 +4.960106E+02 +5.011313E+00 +1.350894E+01 +5.011313E+00 +8.257710E+02 -1.917309E+00 +1.350894E+01 -1.917309E+00 +3.901393E+02 
 +5.114164E+02 +1.334290E+01 +1.094361E+01 +1.334290E+01 +8.331215E+02 -7.942836E-01 +1.094361E+01 -7.942836E-01 +3.885025E+02 
 +5.148490E+02 +1.979746E+01 +6.849105E+00 +1.979746E+01 +8.420911E+02 +5.798019E-01 +6.849105E+00 +5.798019E-01 +3.896600E+02 
 +5.022180E+02 +1.850683E+01 +2.442186E+00 +1.850683E+01 +8.400025E+02 -1.835983E+00 +2.442186E+00 -1.835983E+00 +3.862875E+02 
 +4.908736E+02 -1.451425E+00 -1.101869E+00 -1.451425E+00 +8.391272E+02 +1.916330E+00 -1.101869E+00 +1.916330E+00 +3.757424E+02 
 +5.070869E+02 -1.593365E+00 +1.867508E+00 -1.593365E+00 +8.699651E+02 +3.169741E+00 +1.867508E+00 +3.169741E+00 +3.786156E+02 
 +5.085629E+02 -5.596673E+00 +1.377450E+01 -5.596673E+00 +8.847064E+02 -5.051638E+00 +1.377450E+01 -5.051638E+00 +3.763807E+02 
 +4.918162E+02 -7.986273E+00 +3.124986E+01 -7.986273E+00 +8.774371E+02 -3.766857E+00 +3.124986E+01 -3.766857E+00 +3.732544E+02 
 +4.774569E+02 -8.218159E+00 +2.724710E+01 -8.218159E+00 +8.760828E+02 -4.019546E+00 +2.724710E+01 -4.019546E+00 +3.830269E+02 
 +4.898331E+02 -1.117801E+01 +1.542858E+01 -1.117801E+01 +8.999237E+02 -4.515395E+00 +1.542858E+01 -4.515395E+00 +4.041489E+02 
 +4.614996E+02 -2.376070E+00 +1.783483E+01 -2.376070E+00 +8.870870E+02 +1.135738E+00 +1.783483E+01 +1.135738E+00 +3.986854E+02 
 +4.619898E+02 -1.363131E+00 +1.247367E+01 -1.363131E+00 +8.754731E+02 -2.684964E+00 +1.247367E+01 -2.684964E+00 +4.013039E+02 
 +4.612133E+02 +7.116821E-02 +1.642587E+00 +7.116821E-02 +8.722866E+02 -7.933698E-01 +1.642587E+00 -7.933698E-01 +4.092295E+02 
 +4.596384E+02 +2.243023E+00 +2.888001E-02 +2.243023E+00 +8.530270E+02 +7.622326E+00 +2.888001E-02 +7.622326E+00 +4.137986E+02 
 +5.198720E+02 -5.652518E-01 -9.333986E+00 -5.652518E-01 +8.553411E+02 +1.439401E+01 -9.333986E+00 +1.439401E+01 +4.230962E+02 
 +5.081735E+02 +2.564523E+00 +2.470235E+00 +2.564523E+00 +8.370623E+02 +1.551380E+01 +2.470235E+00 +1.551380E+01 +4.010349E+02 
 +5.003514E+02 +2.355888E+00 +6.696218E+00 +2.355888E+00 +8.418435E+02 +1.423784E+01 +6.696218E+00 +1.423784E+01 +3.919428E+02 
 +4.972108E+02 +2.606372E+01 +2.796852E+01 +2.606372E+01 +8.485198E+02 +6.589757E+00 +2.796852E+01 +6.589757E+00 +3.693711E+02 
 +5.055722E+02 +1.557003E+01 +2.169811E+01 +1.557003E+01 +8.593202E+02 -2.462151E+00 +2.169811E+01 -2.462151E+00 +3.636670E+02 
 +4.850968E+02 -2.841876E-01 +1.570976E+01 -2.841876E-01 +8.499379E+02 -1.436941E+00 +1.570976E+01 -1.436941E+00 +3.722865E+02 
 +4.730760E+02 -8.747914E+00 +1.376369E+01 -8.747914E+00 +8.373448E+02 +4.059376E+00 +1.376369E+01 +4.059376E+00 +3.896897E+02 
 +4.897373E+02 +3.493604E+00 +1.947869E+01 +3.493604E+00 +8.304744E+02 +1.661128E+00 +1.947869E+01 +1.661128E+00 +3.973125E+02 
 +4.914386E+02 +6.835618E+00 +1.487542E+01 +6.835618E+00 +8.163788E+02 +1.283948E+00 +1.487542E+01 +1.283948E+00 +3.835278E+02 
 +5.161378E+02 +1.535148E+01 +4.119094E+00 +1.535148E+01 +8.415555E+02 +9.529279E+00 +4.119094E+00 +9.529279E+00 +3.965167E+02 
 +5.024115E+02 +6.229619E+00 -6.596703E+00 +6.229619E+00 +8.456795E+02 +1.365641E+01 -6.596703E+00 +1.365641E+01 +3.983275E+02 
 +5.041932E+02 +1.924654E+00 -6.595382E+00 +1.924654E+00 +8.499544E+02 +1.731399E+01 -6.595382E+00 +1.731399E+01 +4.001221E+02 
 +5.190380E+02 +4.439142E+00 -5.653718E+00 +4.439142E+00 +8.610610E+02 +2.182437E+01 -5.653718E+00 +2.182437E+01 +3.996376E+02 
 +5.284975E+02 +1.046508E+00 +6.574798E-01 +1.046508E+00 +8.743031E+02 +1.226769E+01 +6.574798E-01 +1.226769E+01 +4.068388E+02 
 +4.703110E+02 -6.388830E+00 +3.580779E+01 -6.388830E+00 +8.652638E+02 -4.587121E+00 +3.580779E+01 -4.587121E+00 +3.979828E+02 
 +4.743039E+02 -1.226588E+01 +2.897310E+01 -1.226588E+01 +8.809802E+02 -9.124769E+00 +2.897310E+01 -9.124769E+00 +4.055557E+02 
 +4.839185E+02 -7.782303E+00 +2.449442E+01 -7.782303E+00 +8.895657E+02 -4.860659E+00 +2.449442E+01 -4.860659E+00 +4.146126E+02 
 +4.667038E+02 -3.377026E+00 +2.406263E+01 -3.377026E+00 +8.812481E+02 -1.957368E+00 +2.406263E+01 -1.957368E+00 +4.073603E+02 
 +4.636631E+02 -4.036873E+00 +1.445023E+01 -4.036873E+00 +8.719552E+02 -2.503861E+00 +1.445023E+01 -2.503861E+00 +3.990811E+02 
 +4.706352E+02 -2.578850E+00 -1.960875E+00 -2.578850E+00 +8.686495E+02 -5.505590E+00 -1.960875E+00 -5.505590E+00 +4.093224E+02 
 +4.731540E+02 +8.563092E-01 +3.166259E+00 +8.563092E-01 +8.501648E+02 -4.959914E+00 +3.166259E+00 -4.959914E+00 +4.133791E+02 
 +5.018575E+02 +2.741098E+00 +1.641053E+00 +2.741098E+00 +8.471168E+02 +7.987418E+00 +1.641053E+00 +7.987418E+00 +4.080946E+02 
 +4.919912E+02 +3.778414E+00 +9.085817E+00 +3.778414E+00 +8.329900E+02 +1.905297E+01 +9.085817E+00 +1.905297E+01 +3.932647E+02 
 +4.938134E+02 +1.188666E+00 +1.246266E+01 +1.188666E+00 +8.412323E+02 +2.204711E+01 +1.246266E+01 +2.204711E+01 +3.881253E+02 
 +4.975943E+02 +1.369312E+01 +2.832631E+01 +1.369312E+01 +8.512555E+02 +1.224542E+01 +2.832631E+01 +1.224542E+01 +3.658216E+02 
 +5.363823E+02 +2.704254E+00 +1.846435E+01 +2.704254E+00 +8.834538E+02 -4.485672E+00 +1.846435E+01 -4.485672E+00 +3.790293E+02 
 +4.986186E+02 -1.621855E+01 +1.983140E+01 -1.621855E+01 +8.735247E+02 -1.473928E+01 +1.983140E+01 -1.473928E+01 +3.819050E+02 
 +4.866400E+02 -1.892117E+01 +2.162000E+01 -1.892117E+01 +8.757449E+02 -1.380208E+01 +2.162000E+01 -1.380208E+01 +3.897430E+02 
 +5.038592E+02 -1.032186E+01 +2.228645E+01 -1.032186E+01 +8.944107E+02 -1.119103E+01 +2.228645E+01 -1.119103E+01 +4.010470E+02 
 +5.078547E+02 -7.041088E+00 +1.800445E+01 -7.041088E+00 +8.809821E+02 -9.237339E+00 +1.800445E+01 -9.237339E+00 +3.951396E+02 
 +5.241183E+02 +1.048680E+01 +5.421885E+00 +1.048680E+01 +8.623717E+02 +3.684727E+00 +5.421885E+00 +3.684727E+00 +4.030972E+02 
 +5.165825E+02 +4.894025E+00 -1.591790E+01 +4.894025E+00 +8.525077E+02 +1.375679E+01 -1.591790E+01 +1.375679E+01 +4.083330E+02 
 +5.236127E+02 +1.197763E-01 -1.197923E+01 +1.197763E-01 +8.594456E+02 +1.467178E+01 -1.197923E+01 +1.467178E+01 +4.110266E+02 
 +5.289253E+02 -9.849135E-01 -8.363661E+00 -9.849135E-01 +8.589233E+02 +1.602970E+01 -8.363661E+00 +1.602970E+01 +4.097783E+02 
 +5.473902E+02 -8.037240E-02 -1.016981E+01 -8.037240E-02 +8.905861E+02 +1.211919E+01 -1.016981E+01 +1.211919E+01 +4.297667E+02 
 +4.815969E+02 -2.821220E+00 +2.467963E+01 -2.821220E+00 +8.823994E+02 -5.613281E+00 +2.467963E+01 -5.613281E+00 +4.178996E+02 
 +4.696762E+02 -4.563265E+00 +3.435807E+01 -4.563265E+00 +8.796913E+02 -1.278862E+01 +3.435807E+01 -1.278862E+01 +4.132518E+02 
 +4.714627E+02 -3.271263E+00 +2.852507E+01 -3.271263E+00 +8.795980E+02 -4.707116E+00 +2.852507E+01 -4.707116E+00 +4.146346E+02 
 +4.659685E+02 -5.844000E+00 +2.578336E+01 -5.844000E+00 +8.770902E+02 -3.276195E+00 +2.578336E+01 -3.276195E+00 +4.092445E+02 
 +4.749377E+02 -4.849551E+00 +1.014151E+01 -4.849551E+00 +8.680473E+02 -6.234278E+00 +1.014151E+01 -6.234278E+00 +4.074433E+02 
 +4.906256E+02 -3.478535E-02 -3.154602E+00 -3.478535E-02 +8.609230E+02 -9.340859E+00 -3.154602E+00 -9.340859E+00 +4.093172E+02 
 +4.942617E+02 +3.620516E+00 +3.905852E+00 +3.620516E+00 +8.653483E+02 -9.644539E+00 +3.905852E+00 -9.644539E+00 +4.019755E+02 
 +5.016108E+02 +6.171344E+00 +1.414092E+01 +6.171344E+00 +8.825756E+02 -4.359053E+00 +1.414092E+01 -4.359053E+00 +3.985941E+02 
 +4.936613E+02 +8.203966E+00 +1.609088E+01 +8.203966E+00 +8.881754E+02 +1.498967E+00 +1.609088E+01 +1.498967E+00 +4.001890E+02 
 +4.882101E+02 +6.096438E+00 +2.194503E+01 +6.096438E+00 +8.920817E+02 +2.598461E+00 +2.194503E+01 +2.598461E+00 +3.934028E+02 
 +5.137402E+02 +5.355640E+00 +2.324708E+01 +5.355640E+00 +8.887695E+02 +1.488333E-01 +2.324708E+01 +1.488333E-01 +3.821757E+02 
 +5.600668E+02 +3.608413E+00 +6.582003E+00 +3.608413E+00 +8.883981E+02 -8.712995E+00 +6.582003E+00 -8.712995E+00 +3.835684E+02 
 +4.972715E+02 -1.304557E+01 +1.535029E+01 -1.304557E+01 +8.616812E+02 -1.643742E+01 +1.535029E+01 -1.643742E+01 +3.710067E+02 
 +4.782897E+02 -1.521965E+01 +1.957402E+01 -1.521965E+01 +8.702719E+02 -1.458695E+01 +1.957402E+01 -1.458695E+01 +3.752288E+02 
 +4.762194E+02 -1.000446E+01 +2.099010E+01 -1.000446E+01 +8.697487E+02 -1.075190E+01 +2.099010E+01 -1.075190E+01 +3.704307E+02 
 +5.049822E+02 -3.880785E+00 +1.598279E+01 -3.880785E+00 +8.804608E+02 -1.251365E+01 +1.598279E+01 -1.251365E+01 +3.778068E+02 
 +5.153503E+02 +9.061692E+00 +1.161082E+01 +9.061692E+00 +8.748400E+02 -5.882344E+00 +1.161082E+01 -5.882344E+00 +3.858855E+02 
 +5.358041E+02 +8.618644E+00 -1.617638E+01 +8.618644E+00 +8.728400E+02 +8.428912E+00 -1.617638E+01 +8.428912E+00 +4.072940E+02 
 +5.359190E+02 +3.263351E-01 -1.135595E+01 +3.263351E-01 +8.689204E+02 +1.544480E+01 -1.135595E+01 +1.544480E+01 +4.092971E+02 
 +5.341212E+02 -8.852253E-01 -7.876732E+00 -8.852253E-01 +8.706457E+02 +1.663023E+01 -7.876732E+00 +1.663023E+01 +4.121660E+02 
 +5.295763E+02 +1.656262E+00 -7.083523E+00 +1.656262E+00 +8.700295E+02 +2.072768E+01 -7.083523E+00 +2.072768E+01 +4.222380E+02 
 +5.135093E+02 -1.448857E-01 +5.456596E+00 -1.448857E-01 +8.683404E+02 +1.267236E+01 +5.456596E+00 +1.267236E+01 +4.289570E+02 
 +4.531603E+02 -3.131749E+00 +3.316996E+01 -3.131749E+00 +8.615750E+02 -4.088465E+00 +3.316996E+01 -4.088465E+00 +4.190616E+02 
 +4.526855E+02 -5.704619E+00 +3.021633E+01 -5.704619E+00 +8.739503E+02 -8.182241E+00 +3.021633E+01 -8.182241E+00 +4.222760E+02 
 +4.679903E+02 -5.987675E+00 +2.457656E+01 -5.987675E+00 +8.757504E+02 -4.946544E+00 +2.457656E+01 -4.946544E+00 +4.156530E+02 
 +4.871791E+02 -5.966501E+00 -1.160664E+00 -5.966501E+00 +8.581783E+02 +2.432840E+00 -1.160664E+00 +2.432840E+00 +4.106305E+02 
 +4.927959E+02 -4.960223E+00 -6.098057E+00 -4.960223E+00 +8.567462E+02 +1.133808E+01 -6.098057E+00 +1.133808E+01 +4.049802E+02 
 +4.920476E+02 -3.426853E+00 -3.027457E+00 -3.426853E+00 +8.611172E+02 +1.236182E+01 -3.027457E+00 +1.236182E+01 +3.833801E+02 
 +4.893800E+02 +4.207742E-01 +1.935832E+01 +4.207742E-01 +8.749612E+02 +4.092928E+00 +1.935832E+01 +4.092928E+00 +3.740702E+02 
 +4.534424E+02 +1.020985E+00 +2.649165E+01 +1.020985E+00 +8.707051E+02 +9.656264E-01 +2.649165E+01 +9.656264E-01 +3.724296E+02 
 +4.726609E+02 +9.725901E+00 +2.122091E+01 +9.725901E+00 +8.758293E+02 +2.506137E+00 +2.122091E+01 +2.506137E+00 +3.729955E+02 
 +5.233481E+02 +1.712167E+01 +1.399921E+01 +1.712167E+01 +8.790470E+02 +8.930956E-01 +1.399921E+01 +8.930956E-01 +3.763626E+02 
 +5.457533E+02 +2.056858E+01 +3.662577E+00 +2.056858E+01 +8.718078E+02 -2.180035E+00 +3.662577E+00 -2.180035E+00 +3.697678E+02 
 +4.957822E+02 +5.032214E+00 +1.594065E+01 +5.032214E+00 +8.618474E+02 -1.163674E+01 +1.594065E+01 -1.163674E+01 +3.604180E+02 
 +4.719959E+02 -7.149523E+00 +1.887686E+01 -7.149523E+00 +8.675422E+02 -1.724021E+01 +1.887686E+01 -1.724021E+01 +3.710680E+02 
 +4.727183E+02 -5.093395E+00 +1.847998E+01 -5.093395E+00 +8.621665E+02 -1.304625E+01 +1.847998E+01 -1.304625E+01 +3.674896E+02 
 +4.958275E+02 -9.035422E-01 +1.267571E+01 -9.035422E-01 +8.703987E+02 -9.420519E+00 +1.267571E+01 -9.420519E+00 +3.723472E+02 
 +4.997637E+02 +6.290870E+00 +1.467400E+01 +6.290870E+00 +8.651401E+02 -5.234009E+00 +1.467400E+01 -5.234009E+00 +3.761220E+02 
 +5.337864E+02 +1.044933E+01 -6.983559E+00 +1.044933E+01 +8.687653E+02 +7.066600E+00 -6.983559E+00 +7.066600E+00 +3.928749E+02 
 +5.327872E+02 +5.196668E+00 -3.535863E+00 +5.196668E+00 +8.653234E+02 +1.955677E+01 -3.535863E+00 +1.955677E+01 +3.972685E+02 
 +5.284828E+02 +1.516332E+00 -3.437525E+00 +1.516332E+00 +8.728458E+02 +2.328009E+01 -3.437525E+00 +2.328009E+01 +4.109527E+02 
 +5.232018E+02 +8.439056E-01 -1.514210E+00 +8.439056E-01 +8.677699E+02 +2.239081E+01 -1.514210E+00 +2.239081E+01 +4.229320E+02 
 +5.333611E+02 -1.041701E+00 -5.291376E+00 -1.041701E+00 +8.810173E+02 +1.706493E+01 -5.291376E+00 +1.706493E+01 +4.430951E+02 
 +4.648318E+02 -4.435797E+00 +2.005913E+01 -4.435797E+00 +8.673786E+02 +6.013620E+00 +2.005913E+01 +6.013620E+00 +4.376870E+02 
 +4.598104E+02 -7.537131E+00 +2.186810E+01 -7.537131E+00 +8.752233E+02 -3.454471E+00 +2.186810E+01 -3.454471E+00 +4.413509E+02 
 +4.655933E+02 -3.450989E+00 +2.202107E+01 -3.450989E+00 +8.647084E+02 -3.997635E+00 +2.202107E+01 -3.997635E+00 +4.197172E+02 
 +4.853846E+02 -6.838937E+00 -3.798850E+00 -6.838937E+00 +8.623528E+02 +7.554399E+00 -3.798850E+00 +7.554399E+00 +3.992665E+02 
 +4.819412E+02 -6.336773E+00 -9.431302E+00 -6.336773E+00 +8.646800E+02 +1.129781E+01 -9.431302E+00 +1.129781E+01 +3.835404E+02 
 +4.834858E+02 -6.542457E+00 -7.322827E+00 -6.542457E+00 +8.620607E+02 +1.780285E+01 -7.322827E+00 +1.780285E+01 +3.730729E+02 
 +4.788131E+02 -1.841614E+00 +9.123740E+00 -1.841614E+00 +8.585301E+02 +1.825644E+01 +9.123740E+00 +1.825644E+01 +3.638525E+02 
 +4.422905E+02 +4.277189E+00 +2.764274E+01 +4.277189E+00 +8.432820E+02 +1.271024E+01 +2.764274E+01 +1.271024E+01 +3.531855E+02 
 +5.027942E+02 +1.623773E+01 +1.539631E+01 +1.623773E+01 +8.647547E+02 +1.054471E+01 +1.539631E+01 +1.054471E+01 +3.720304E+02 
 +5.333685E+02 +2.073050E+01 +1.353728E+01 +2.073050E+01 +8.755386E+02 +5.630389E+00 +1.353728E+01 +5.630389E+00 +3.765826E+02 
 +5.163758E+02 +1.850370E+01 +1.467576E+01 +1.850370E+01 +8.627040E+02 +4.268813E+00 +1.467576E+01 +4.268813E+00 +3.643752E+02 
 +4.869877E+02 +1.911472E+01 +1.897201E+01 +1.911472E+01 +8.436367E+02 +1.775721E+00 +1.897201E+01 +1.775721E+00 +3.530347E+02 
 +4.617314E+02 +4.093408E+00 +2.033430E+01 +4.093408E+00 +8.492536E+02 -9.364028E+00 +2.033430E+01 -9.364028E+00 +3.615166E+02 
 +4.513750E+02 -1.767224E+00 +1.981088E+01 -1.767224E+00 +8.509687E+02 -1.505689E+01 +1.981088E+01 -1.505689E+01 +3.604490E+02 
 +4.837454E+02 -3.481608E-01 +1.108107E+01 -3.481608E-01 +8.617218E+02 -1.279890E+01 +1.108107E+01 -1.279890E+01 +3.683218E+02 
 +4.961518E+02 +6.221407E+00 +1.534060E+01 +6.221407E+00 +8.558016E+02 -1.075324E+01 +1.534060E+01 -1.075324E+01 +3.678408E+02 
 +5.047193E+02 +6.330307E+00 +6.647935E+00 +6.330307E+00 +8.441350E+02 +4.910151E+00 +6.647935E+00 +4.910151E+00 +3.601814E+02 
 +5.148404E+02 +6.961883E+00 +3.667583E+00 +6.961883E+00 +8.512239E+02 +2.123605E+01 +3.667583E+00 +2.123605E+01 +3.712002E+02 
 +5.181984E+02 +7.584527E-02 +2.680279E+00 +7.584527E-02 +8.641388E+02 +2.238054E+01 +2.680279E+00 +2.238054E+01 +3.976210E+02 
 +5.188548E+02 -1.153817E+00 +3.418619E+00 -1.153817E+00 +8.726313E+02 +1.993206E+01 +3.418619E+00 +1.993206E+01 +4.156303E+02 
 +5.085384E+02 +8.736283E-01 -1.180871E+00 +8.736283E-01 +8.731432E+02 +2.408842E+01 -1.180871E+00 +2.408842E+01 +4.194485E+02 
 +4.773513E+02 -4.825241E+00 +7.053682E+00 -4.825241E+00 +8.530214E+02 +2.718990E+01 +7.053682E+00 +2.718990E+01 +4.248966E+02 
 +4.618164E+02 -7.312978E+00 +6.618419E+00 -7.312978E+00 +8.448363E+02 +2.108624E+01 +6.618419E+00 +2.108624E+01 +4.295858E+02 
 +4.679830E+02 -4.154941E+00 +1.065742E+01 -4.154941E+00 +8.501120E+02 +1.050734E+01 +1.065742E+01 +1.050734E+01 +4.146901E+02 
 +4.813168E+02 -7.233604E+00 -4.236277E+00 -7.233604E+00 +8.686004E+02 +1.233782E+01 -4.236277E+00 +1.233782E+01 +3.934645E+02 
 +4.832397E+02 -6.830199E+00 -1.100004E+01 -6.830199E+00 +8.745700E+02 +1.511492E+01 -1.100004E+01 +1.511492E+01 +3.815673E+02 
 +4.783789E+02 -6.449520E+00 -7.765180E+00 -6.449520E+00 +8.648372E+02 +1.382029E+01 -7.765180E+00 +1.382029E+01 +3.686841E+02 
 +4.658190E+02 +8.812993E-01 -1.272771E+00 +8.812993E-01 +8.367019E+02 +1.639642E+01 -1.272771E+00 +1.639642E+01 +3.567439E+02 
 +4.704015E+02 +1.276845E+01 +1.362660E+01 +1.276845E+01 +8.260534E+02 +2.279629E+01 +1.362660E+01 +2.279629E+01 +3.542758E+02 
 +5.104413E+02 +1.287086E+01 +1.842426E+01 +1.287086E+01 +8.524716E+02 +1.775471E+01 +1.842426E+01 +1.775471E+01 +3.657678E+02 
 +5.020440E+02 +1.432446E+01 +1.585376E+01 +1.432446E+01 +8.538184E+02 +5.571328E+00 +1.585376E+01 +5.571328E+00 +3.587735E+02 
 +4.900141E+02 +1.903461E+00 +1.857999E+01 +1.903461E+00 +8.521950E+02 -2.926088E+00 +1.857999E+01 -2.926088E+00 +3.520072E+02 
 +4.855492E+02 +2.063467E+00 +1.853359E+01 +2.063467E+00 +8.397350E+02 -4.735560E+00 +1.853359E+01 -4.735560E+00 +3.472085E+02 
 +4.719630E+02 -1.398830E+00 +1.927787E+01 -1.398830E+00 +8.330475E+02 -5.226741E+00 +1.927787E+01 -5.226741E+00 +3.492288E+02 
 +4.406032E+02 +3.130349E+00 +1.991990E+01 +3.130349E+00 +8.323651E+02 -6.171244E+00 +1.991990E+01 -6.171244E+00 +3.445834E+02 
 +4.806691E+02 +1.302045E+01 +6.447434E+00 +1.302045E+01 +8.596389E+02 -3.558016E+00 +6.447434E+00 -3.558016E+00 +3.538945E+02 
 +4.901016E+02 +1.607275E+01 +1.012670E+01 +1.607275E+01 +8.659796E+02 -2.874813E+00 +1.012670E+01 -2.874813E+00 +3.447570E+02 
 +4.952825E+02 +1.323733E+01 +8.502809E+00 +1.323733E+01 +8.710052E+02 -1.788643E+00 +8.502809E+00 -1.788643E+00 +3.445219E+02 
 +5.005776E+02 +1.192747E+01 +7.901313E+00 +1.192747E+01 +8.657292E+02 +6.124957E+00 +7.901313E+00 +6.124957E+00 +3.537458E+02 
 +4.935856E+02 -2.678261E+00 +9.181028E+00 -2.678261E+00 +8.521239E+02 +1.675751E+01 +9.181028E+00 +1.675751E+01 +3.652724E+02 
 +4.986899E+02 -2.809586E+00 +1.196102E+01 -2.809586E+00 +8.646532E+02 +2.287743E+01 +1.196102E+01 +2.287743E+01 +3.855010E+02 
 +5.201845E+02 +1.612765E+00 +2.683503E+00 +1.612765E+00 +8.924059E+02 +2.827654E+01 +2.683503E+00 +2.827654E+01 +4.025918E+02 
 +5.007267E+02 -6.457353E+00 -5.322046E+00 -6.457353E+00 +8.738916E+02 +2.651035E+01 -5.322046E+00 +2.651035E+01 +4.069465E+02 
 +4.760893E+02 -4.121018E+00 -5.140900E+00 -4.121018E+00 +8.501161E+02 +1.699410E+01 -5.140900E+00 +1.699410E+01 +4.169488E+02 
 +4.775736E+02 -5.878624E+00 -3.170901E+00 -5.878624E+00 +8.574078E+02 +1.180892E+01 -3.170901E+00 +1.180892E+01 +4.121040E+02 
 +4.896473E+02 -3.670654E+00 -1.148908E+01 -3.670654E+00 +8.744628E+02 +8.757235E+00 -1.148908E+01 +8.757235E+00 +4.095955E+02 
 +5.111707E+02 -4.974959E+00 -1.135042E+01 -4.974959E+00 +8.957339E+02 +1.091133E+01 -1.135042E+01 +1.091133E+01 +4.135533E+02 
 +4.756779E+02 -7.666645E+00 -7.065825E+00 -7.666645E+00 +8.591750E+02 +1.161375E+01 -7.065825E+00 +1.161375E+01 +3.740439E+02 
 +4.672609E+02 -3.230799E+00 -5.317070E-01 -3.230799E+00 +8.335061E+02 +1.193487E+01 -5.317070E-01 +1.193487E+01 +3.604291E+02 
 +4.942400E+02 +1.094948E+01 +9.139615E+00 +1.094948E+01 +8.439512E+02 +1.813273E+01 +9.139615E+00 +1.813273E+01 +3.652774E+02 
 +4.963834E+02 +1.907063E+00 +1.934000E+01 +1.907063E+00 +8.532498E+02 +1.228807E+01 +1.934000E+01 +1.228807E+01 +3.571538E+02 
 +4.836680E+02 +2.868911E+00 +1.576082E+01 +2.868911E+00 +8.468416E+02 +1.126407E+00 +1.576082E+01 +1.126407E+00 +3.496149E+02 
 +4.756829E+02 +2.172879E-01 +1.641757E+01 +2.172879E-01 +8.367403E+02 -3.585529E-01 +1.641757E+01 -3.585529E-01 +3.441569E+02 
 +4.795666E+02 +2.200294E-01 +1.629208E+01 +2.200294E-01 +8.323587E+02 -3.381305E+00 +1.629208E+01 -3.381305E+00 +3.428439E+02 
 +4.831964E+02 -1.788735E+00 +1.495009E+01 -1.788735E+00 +8.266823E+02 -4.076581E+00 +1.495009E+01 -4.076581E+00 +3.455994E+02 
 +4.652696E+02 -3.675741E+00 +1.122730E+01 -3.675741E+00 +8.183114E+02 -4.863797E+00 +1.122730E+01 -4.863797E+00 +3.387015E+02 
 +4.683164E+02 +9.232774E+00 +3.334328E+00 +9.232774E+00 +8.392163E+02 -3.311673E+00 +3.334328E+00 -3.311673E+00 +3.313343E+02 
 +4.740249E+02 +9.866420E+00 +5.565600E+00 +9.866420E+00 +8.605455E+02 +1.768525E+00 +5.565600E+00 +1.768525E+00 +3.295656E+02 
 +4.784634E+02 +8.447581E+00 +3.393390E+00 +8.447581E+00 +8.673133E+02 +3.593456E+00 +3.393390E+00 +3.593456E+00 +3.378053E+02 
 +4.831918E+02 +7.853599E+00 +6.118364E+00 +7.853599E+00 +8.695988E+02 +2.511928E+00 +6.118364E+00 +2.511928E+00 +3.457539E+02 
 +4.876039E+02 +5.535257E+00 +9.689964E+00 +5.535257E+00 +8.832437E+02 +1.736724E+00 +9.689964E+00 +1.736724E+00 +3.562069E+02 
 +5.046353E+02 +5.295474E+00 +1.037826E+01 +5.295474E+00 +8.965752E+02 -3.887413E-01 +1.037826E+01 -3.887413E-01 +3.776897E+02 
 +5.322276E+02 +7.809006E+00 -8.336613E-01 +7.809006E+00 +8.985091E+02 +1.721597E+00 -8.336613E-01 +1.721597E+00 +3.956728E+02 
 +5.088782E+02 -1.455918E+01 -1.118862E+01 -1.455918E+01 +8.790590E+02 +1.197987E+01 -1.118862E+01 +1.197987E+01 +3.966100E+02 
 +4.888189E+02 -8.177535E+00 -1.122979E+01 -8.177535E+00 +8.657611E+02 +1.732616E+01 -1.122979E+01 +1.732616E+01 +4.134472E+02 
 +4.757478E+02 -6.680423E+00 -1.462610E+01 -6.680423E+00 +8.562126E+02 +1.257650E+01 -1.462610E+01 +1.257650E+01 +4.083972E+02 
 +4.799701E+02 -6.397469E-02 -1.843344E+01 -6.397469E-02 +8.289611E+02 +3.424305E+00 -1.843344E+01 +3.424305E+00 +4.012157E+02 
 +4.880869E+02 -2.501197E+00 -1.115578E+01 -2.501197E+00 +8.330532E+02 +7.561850E+00 -1.115578E+01 +7.561850E+00 +4.001149E+02 
 +4.713691E+02 -8.551862E+00 -1.520418E-01 -8.551862E+00 +8.349132E+02 +6.925015E+00 -1.520418E-01 +6.925015E+00 +3.817286E+02 
 +4.519982E+02 -8.332428E+00 +1.280092E+01 -8.332428E+00 +8.246571E+02 +6.431893E+00 +1.280092E+01 +6.431893E+00 +3.585302E+02 
 +4.818555E+02 +8.598740E+00 +1.789837E+01 +8.598740E+00 +8.372609E+02 +1.156844E+01 +1.789837E+01 +1.156844E+01 +3.562489E+02 
 +4.855998E+02 +5.561616E+00 +1.698926E+01 +5.561616E+00 +8.471393E+02 +1.315849E+01 +1.698926E+01 +1.315849E+01 +3.543846E+02 
 +4.840923E+02 +3.544467E+00 +1.493914E+01 +3.544467E+00 +8.483992E+02 +7.620718E+00 +1.493914E+01 +7.620718E+00 +3.543986E+02 
 +4.833750E+02 -5.897791E-01 +1.301520E+01 -5.897791E-01 +8.393200E+02 +3.594956E+00 +1.301520E+01 +3.594956E+00 +3.538483E+02 
 +4.819966E+02 -2.039637E+00 +9.826550E+00 -2.039637E+00 +8.313161E+02 +6.637832E-01 +9.826550E+00 +6.637832E-01 +3.508342E+02 
 +4.798011E+02 -2.119150E+00 +6.507554E+00 -2.119150E+00 +8.219405E+02 +2.167262E+00 +6.507554E+00 +2.167262E+00 +3.421703E+02 
 +4.768206E+02 -1.609092E+00 -1.021440E+01 -1.609092E+00 +8.244921E+02 +2.393302E+00 -1.021440E+01 +2.393302E+00 +3.310665E+02 
 +4.692378E+02 +6.710936E+00 -8.186768E+00 +6.710936E+00 +8.393901E+02 +1.834879E+00 -8.186768E+00 +1.834879E+00 +3.237934E+02 
 +4.675625E+02 +2.319854E+00 -5.113686E+00 +2.319854E+00 +8.513683E+02 +1.688839E+00 -5.113686E+00 +1.688839E+00 +3.250316E+02 
 +4.752411E+02 +4.019236E+00 +1.653938E+00 +4.019236E+00 +8.642082E+02 +3.631999E-01 +1.653938E+00 +3.631999E-01 +3.398786E+02 
 +4.702722E+02 +2.482416E+00 +5.259449E+00 +2.482416E+00 +8.682450E+02 +2.911816E+00 +5.259449E+00 +2.911816E+00 +3.530039E+02 
 +4.821687E+02 +4.991892E+00 +2.994353E+00 +4.991892E+00 +8.741991E+02 +2.033466E+00 +2.994353E+00 +2.033466E+00 +3.618522E+02 
 +4.901880E+02 +8.684034E-02 -1.749759E+00 +8.684034E-02 +8.698925E+02 -4.320924E+00 -1.749759E+00 -4.320924E+00 +3.744924E+02 
 +5.175647E+02 +7.728536E+00 -5.276195E+00 +7.728536E+00 +8.831646E+02 -2.944930E+00 -5.276195E+00 -2.944930E+00 +3.953092E+02 
 +5.045951E+02 -1.857221E+01 -1.232278E+01 -1.857221E+01 +8.813380E+02 +6.747620E+00 -1.232278E+01 +6.747620E+00 +3.957697E+02 
 +4.961750E+02 -1.629896E+01 -1.801340E+01 -1.629896E+01 +8.772853E+02 +1.071053E+01 -1.801340E+01 +1.071053E+01 +4.075929E+02 
 +4.805661E+02 -1.623853E+01 -2.715659E+01 -1.623853E+01 +8.505467E+02 +4.754866E+00 -2.715659E+01 +4.754866E+00 +4.039051E+02 
 +4.982480E+02 -3.419963E+00 -1.907403E+01 -3.419963E+00 +8.353680E+02 +8.198121E+00 -1.907403E+01 +8.198121E+00 +4.043980E+02 
 +4.817860E+02 -1.397678E+00 -1.110114E+01 -1.397678E+00 +8.078389E+02 +4.935661E+00 -1.110114E+01 +4.935661E+00 +3.880247E+02 
 +4.618665E+02 +1.022904E+00 +4.699507E+00 +1.022904E+00 +8.025207E+02 +2.972528E+00 +4.699507E+00 +2.972528E+00 +3.784006E+02 
 +4.460802E+02 +1.442672E+00 +2.366870E+01 +1.442672E+00 +8.275998E+02 +9.378113E+00 +2.366870E+01 +9.378113E+00 +3.668968E+02 
 +4.695653E+02 +1.080787E+01 +2.077824E+01 +1.080787E+01 +8.514501E+02 +1.957117E+01 +2.077824E+01 +1.957117E+01 +3.647833E+02 
 +4.919495E+02 +5.289926E+00 +5.265247E+00 +5.289926E+00 +8.568122E+02 +1.889926E+01 +5.265247E+00 +1.889926E+01 +3.652652E+02 
 +4.912204E+02 -1.150397E+00 +2.509784E+00 -1.150397E+00 +8.541650E+02 +9.363162E+00 +2.509784E+00 +9.363162E+00 +3.575109E+02 
 +4.849063E+02 -3.339645E+00 +4.271681E+00 -3.339645E+00 +8.398397E+02 +2.684922E+00 +4.271681E+00 +2.684922E+00 +3.459724E+02 
 +4.802612E+02 -1.647187E+00 +5.461436E+00 -1.647187E+00 +8.247327E+02 +3.396444E+00 +5.461436E+00 +3.396444E+00 +3.346540E+02 
 +4.742736E+02 +9.087594E-01 -1.120289E+01 +9.087594E-01 +8.271584E+02 +5.110436E+00 -1.120289E+01 +5.110436E+00 +3.215460E+02 
 +4.770143E+02 +4.563987E+00 -3.067152E+01 +4.563987E+00 +8.538906E+02 +3.500461E+00 -3.067152E+01 +3.500461E+00 +3.160367E+02 
 +4.753420E+02 +4.318759E+00 -2.771955E+01 +4.318759E+00 +8.625799E+02 +3.270417E+00 -2.771955E+01 +3.270417E+00 +3.207711E+02 
 +4.687567E+02 -3.331741E+00 -2.405186E+01 -3.331741E+00 +8.541735E+02 +2.293134E+00 -2.405186E+01 +2.293134E+00 +3.217468E+02 
 +4.779658E+02 -3.275846E+00 -1.168881E+01 -3.275846E+00 +8.649987E+02 -2.165012E-01 -1.168881E+01 -2.165012E-01 +3.411043E+02 
 +4.515482E+02 -6.839168E+00 -3.509320E+00 -6.839168E+00 +8.465513E+02 -6.545187E+00 -3.509320E+00 -6.545187E+00 +3.524739E+02 
 +4.817625E+02 +1.703158E+00 -8.138233E+00 +1.703158E+00 +8.487789E+02 -9.683994E+00 -8.138233E+00 -9.683994E+00 +3.645791E+02 
 +4.988242E+02 +3.831739E+00 -9.218911E+00 +3.831739E+00 +8.726716E+02 -8.303445E+00 -9.218911E+00 -8.303445E+00 +3.844339E+02 
 +5.078807E+02 +8.047538E+00 -6.804956E+00 +8.047538E+00 +8.814079E+02 -4.308108E+00 -6.804956E+00 -4.308108E+00 +3.959793E+02 
 +4.868454E+02 -9.415331E+00 -1.145488E+01 -9.415331E+00 +8.644549E+02 +1.985711E+00 -1.145488E+01 +1.985711E+00 +3.776357E+02 
 +4.938117E+02 -1.048206E+01 -1.578782E+01 -1.048206E+01 +8.731648E+02 +8.311483E+00 -1.578782E+01 +8.311483E+00 +3.859454E+02 
 +4.879023E+02 -1.876431E+01 -2.763089E+01 -1.876431E+01 +8.517737E+02 +9.202028E+00 -2.763089E+01 +9.202028E+00 +3.965901E+02 
 +4.991041E+02 -5.678081E+00 -1.483611E+01 -5.678081E+00 +8.321049E+02 -1.951863E+00 -1.483611E+01 -1.951863E+00 +3.969281E+02 
 +4.886758E+02 +9.345985E-01 -5.664185E+00 +9.345985E-01 +8.224479E+02 +2.467614E+00 -5.664185E+00 +2.467614E+00 +3.846684E+02 
 +4.762634E+02 +2.312599E+00 +8.616509E+00 +2.312599E+00 +8.435395E+02 +9.835143E+00 +8.616509E+00 +9.835143E+00 +3.824274E+02 
 +4.702774E+02 +3.696790E-01 +1.564690E+01 +3.696790E-01 +8.518374E+02 +1.342446E+01 +1.564690E+01 +1.342446E+01 +3.828792E+02 
 +4.588927E+02 +9.595495E+00 +1.530890E+01 +9.595495E+00 +8.374340E+02 +1.564341E+01 +1.530890E+01 +1.564341E+01 +3.760424E+02 
 +4.888815E+02 +2.101048E+01 -6.640282E+00 +2.101048E+01 +8.413153E+02 +1.878389E+01 -6.640282E+00 +1.878389E+01 +3.784469E+02 
 +4.964662E+02 +1.780916E+01 -5.134838E+00 +1.780916E+01 +8.451490E+02 +2.237434E+01 -5.134838E+00 +2.237434E+01 +3.685676E+02 
 +4.737172E+02 +5.572298E+00 -3.309235E+00 +5.572298E+00 +8.330373E+02 +2.173232E+01 -3.309235E+00 +2.173232E+01 +3.455043E+02 
 +4.856717E+02 +3.739517E+00 +6.601707E+00 +3.739517E+00 +8.454424E+02 +1.500679E+01 +6.601707E+00 +1.500679E+01 +3.381921E+02 
 +4.862018E+02 +1.002089E+01 -2.477121E+01 +1.002089E+01 +8.682199E+02 +7.271830E+00 -2.477121E+01 +7.271830E+00 +3.291515E+02 
 +4.803917E+02 +1.098476E+01 -2.981654E+01 +1.098476E+01 +8.745253E+02 +4.445216E+00 -2.981654E+01 +4.445216E+00 +3.194993E+02 
 +4.696051E+02 +7.104591E+00 -3.300084E+01 +7.104591E+00 +8.674306E+02 +8.324840E+00 -3.300084E+01 +8.324840E+00 +3.153523E+02 
 +4.667127E+02 -7.973658E-02 -2.838672E+01 -7.973658E-02 +8.655820E+02 +9.024689E+00 -2.838672E+01 +9.024689E+00 +3.175067E+02 
 +4.738623E+02 -2.370532E+00 -2.536281E+01 -2.370532E+00 +8.644120E+02 +4.829681E+00 -2.536281E+01 +4.829681E+00 +3.355353E+02 
 +4.722214E+02 -4.294105E+00 -2.269152E+01 -4.294105E+00 +8.664305E+02 -9.137421E-01 -2.269152E+01 -9.137421E-01 +3.489661E+02 
 +4.890927E+02 -1.282761E+00 -2.344465E+01 -1.282761E+00 +8.789656E+02 -2.673574E+00 -2.344465E+01 -2.673574E+00 +3.581120E+02 
 +5.142158E+02 +4.236403E-01 -1.597698E+01 +4.236403E-01 +8.929737E+02 -6.570433E+00 -1.597698E+01 -6.570433E+00 +3.870296E+02 
 +5.097099E+02 -7.434720E+00 -6.827753E+00 -7.434720E+00 +8.860524E+02 -1.514888E+01 -6.827753E+00 -1.514888E+01 +3.982450E+02 
 +4.877129E+02 -1.272900E+01 -3.376911E+00 -1.272900E+01 +8.556114E+02 -1.485110E+01 -3.376911E+00 -1.485110E+01 +3.767048E+02 
 +4.852731E+02 -1.577305E+01 -7.339247E+00 -1.577305E+01 +8.402368E+02 -1.172538E+01 -7.339247E+00 -1.172538E+01 +3.722960E+02 
 +4.920794E+02 -2.018772E+01 -1.202660E+01 -2.018772E+01 +8.428027E+02 -7.995390E+00 -1.202660E+01 -7.995390E+00 +3.875562E+02 
 +5.175493E+02 -1.505664E+01 -1.098482E+01 -1.505664E+01 +8.677022E+02 -1.548947E+01 -1.098482E+01 -1.548947E+01 +3.954520E+02 
 +5.082991E+02 +4.867098E-01 +1.170251E+00 +4.867098E-01 +8.825544E+02 +2.870532E-01 +1.170251E+00 +2.870532E-01 +3.888495E+02 
 +4.843121E+02 +2.013585E+00 +6.855924E+00 +2.013585E+00 +8.599376E+02 +9.578027E+00 +6.855924E+00 +9.578027E+00 +3.745789E+02 
 +4.757394E+02 +2.942437E+00 +6.652736E+00 +2.942437E+00 +8.447150E+02 +9.872158E+00 +6.652736E+00 +9.872158E+00 +3.773007E+02 
 +4.734595E+02 +3.265527E+00 +1.286045E+01 +3.265527E+00 +8.424427E+02 +1.131389E+01 +1.286045E+01 +1.131389E+01 +3.873768E+02 
 +5.041618E+02 +1.004813E+01 -7.018102E+00 +1.004813E+01 +8.520671E+02 +1.417812E+01 -7.018102E+00 +1.417812E+01 +3.932685E+02 
 +5.025896E+02 +1.196008E+01 -2.451695E+00 +1.196008E+01 +8.502411E+02 +2.171580E+01 -2.451695E+00 +2.171580E+01 +3.774634E+02 
 +4.610317E+02 -1.102659E+00 -1.652026E+00 -1.102659E+00 +8.381991E+02 +2.978281E+01 -1.652026E+00 +2.978281E+01 +3.492683E+02 
 +4.770077E+02 +3.608071E+00 -2.474619E+00 +3.608071E+00 +8.610145E+02 +1.726509E+01 -2.474619E+00 +1.726509E+01 +3.450568E+02 
 +4.819889E+02 +8.934048E+00 -2.744134E+01 +8.934048E+00 +8.700226E+02 +4.200456E-01 -2.744134E+01 +4.200456E-01 +3.294466E+02 
 +4.761001E+02 +6.065172E+00 -2.369234E+01 +6.065172E+00 +8.714999E+02 +2.689088E+00 -2.369234E+01 +2.689088E+00 +3.210205E+02 
 +4.798787E+02 +4.529794E+00 -2.831907E+01 +4.529794E+00 +8.781173E+02 +1.009694E+01 -2.831907E+01 +1.009694E+01 +3.291268E+02 
 +4.738679E+02 +2.409347E+00 -2.484007E+01 +2.409347E+00 +8.738979E+02 +1.159243E+01 -2.484007E+01 +1.159243E+01 +3.297000E+02 
 +4.757957E+02 +1.142123E+00 -2.454002E+01 +1.142123E+00 +8.710929E+02 +9.079086E+00 -2.454002E+01 +9.079086E+00 +3.448006E+02 
 +4.756431E+02 +2.223226E+00 -3.139644E+01 +2.223226E+00 +8.715061E+02 +8.435951E+00 -3.139644E+01 +8.435951E+00 +3.465335E+02 
 +4.787721E+02 -1.502086E+00 -1.860506E+01 -1.502086E+00 +8.759609E+02 +1.446771E+01 -1.860506E+01 +1.446771E+01 +3.502844E+02 
 +5.010737E+02 +8.292719E-01 -1.263204E+01 +8.292719E-01 +8.629574E+02 +2.057822E+01 -1.263204E+01 +2.057822E+01 +3.807023E+02 
 +4.963991E+02 +3.647936E+00 -9.997625E+00 +3.647936E+00 +8.483007E+02 +9.725461E+00 -9.997625E+00 +9.725461E+00 +3.956909E+02 
 +5.013974E+02 -8.102622E+00 -1.979627E+00 -8.102622E+00 +8.638663E+02 -8.419446E+00 -1.979627E+00 -8.419446E+00 +4.015001E+02 
 +5.003876E+02 -1.811077E+01 -1.153728E+00 -1.811077E+01 +8.539317E+02 -1.496809E+01 -1.153728E+00 -1.496809E+01 +3.915153E+02 
 +4.998137E+02 -2.466097E+01 -3.704157E+00 -2.466097E+01 +8.417825E+02 -1.742352E+01 -3.704157E+00 -1.742352E+01 +3.834269E+02 
 +5.073321E+02 +3.342652E+00 -2.995505E+00 +3.342652E+00 +8.596967E+02 -5.935985E+00 -2.995505E+00 -5.935985E+00 +3.803233E+02 
 +5.059259E+02 +1.036522E+01 -1.295222E+00 +1.036522E+01 +8.740212E+02 -4.456673E+00 -1.295222E+00 -4.456673E+00 +3.736488E+02 
 +4.852580E+02 +3.768868E+00 +1.244654E+01 +3.768868E+00 +8.571562E+02 -2.662318E+00 +1.244654E+01 -2.662318E+00 +3.671271E+02 
 +4.742884E+02 +5.088196E+00 +1.071480E+01 +5.088196E+00 +8.468567E+02 +1.006093E+01 +1.071480E+01 +1.006093E+01 +3.680928E+02 
 +4.705496E+02 +9.993823E-01 +1.022460E+01 +9.993823E-01 +8.417988E+02 +9.420397E+00 +1.022460E+01 +9.420397E+00 +3.735756E+02 
 +4.940050E+02 +6.789514E+00 -6.877288E+00 +6.789514E+00 +8.409239E+02 +4.977548E+00 -6.877288E+00 +4.977548E+00 +3.737883E+02 
 +4.903904E+02 +1.366957E+01 +2.445704E+00 +1.366957E+01 +8.415835E+02 +1.251195E+01 +2.445704E+00 +1.251195E+01 +3.647100E+02 
 +4.603457E+02 +1.910837E+00 +3.891739E+00 +1.910837E+00 +8.508079E+02 +1.854376E+01 +3.891739E+00 +1.854376E+01 +3.547286E+02 
 +4.731561E+02 +6.680132E+00 -2.175450E+01 +6.680132E+00 +8.723311E+02 +5.124122E+00 -2.175450E+01 +5.124122E+00 +3.409421E+02 
 +4.673982E+02 +1.032737E+01 -2.996678E+01 +1.032737E+01 +8.653731E+02 -4.344890E+00 -2.996678E+01 -4.344890E+00 +3.081212E+02 
 +4.745929E+02 +7.356535E+00 -2.443589E+01 +7.356535E+00 +8.689132E+02 +2.468035E+00 -2.443589E+01 +2.468035E+00 +3.198820E+02 
 +4.912008E+02 +4.420877E+00 -2.932461E+01 +4.420877E+00 +8.800144E+02 +8.566847E+00 -2.932461E+01 +8.566847E+00 +3.436543E+02 
 +4.878918E+02 +7.670021E-01 -2.668258E+01 +7.670021E-01 +8.778331E+02 +8.762940E+00 -2.668258E+01 +8.762940E+00 +3.460025E+02 
 +4.760461E+02 -3.004880E+00 -2.213800E+01 -3.004880E+00 +8.753177E+02 +9.493201E+00 -2.213800E+01 +9.493201E+00 +3.540718E+02 
 +4.630484E+02 -6.989784E-01 -3.050594E+01 -6.989784E-01 +8.568240E+02 +1.652210E+01 -3.050594E+01 +1.652210E+01 +3.525844E+02 
 +4.825128E+02 -1.210303E+00 +2.878375E+00 -1.210303E+00 +8.461328E+02 +2.430736E+01 +2.878375E+00 +2.430736E+01 +3.635163E+02 
 +4.918693E+02 -4.111522E+00 -2.020955E+00 -4.111522E+00 +8.477458E+02 +1.917522E+01 -2.020955E+00 +1.917522E+01 +3.882879E+02 
 +4.928598E+02 +2.910169E+00 -9.219839E+00 +2.910169E+00 +8.393971E+02 +1.254439E+01 -9.219839E+00 +1.254439E+01 +3.978135E+02 
 +4.986713E+02 -1.876254E+00 -5.645945E+00 -1.876254E+00 +8.418322E+02 +3.032853E+00 -5.645945E+00 +3.032853E+00 +3.971768E+02 
 +4.987764E+02 -1.545665E+01 +1.588488E+00 -1.545665E+01 +8.513578E+02 -1.548000E+01 +1.588488E+00 -1.548000E+01 +3.955705E+02 
 +5.044939E+02 -1.899817E+01 -1.795758E+00 -1.899817E+01 +8.484232E+02 -1.922651E+01 -1.795758E+00 -1.922651E+01 +3.931546E+02 
 +4.978073E+02 +6.977644E+00 +1.275059E+01 +6.977644E+00 +8.533816E+02 -1.201686E+01 +1.275059E+01 -1.201686E+01 +3.634133E+02 
 +4.954705E+02 +1.083615E+01 +3.487975E+00 +1.083615E+01 +8.526384E+02 -3.850817E+00 +3.487975E+00 -3.850817E+00 +3.579462E+02 
 +4.778515E+02 -7.603686E-01 +2.594449E+01 -7.603686E-01 +8.611490E+02 -1.001796E+00 +2.594449E+01 -1.001796E+00 +3.614970E+02 
 +4.747960E+02 -3.588862E+00 +1.949031E+01 -3.588862E+00 +8.608455E+02 +4.857495E+00 +1.949031E+01 +4.857495E+00 +3.664941E+02 
 +4.896192E+02 -1.447390E+00 +1.686192E+00 -1.447390E+00 +8.646096E+02 +8.395616E+00 +1.686192E+00 +8.395616E+00 +3.672829E+02 
 +5.010437E+02 +3.536377E+00 -2.567557E+00 +3.536377E+00 +8.821644E+02 +8.908430E+00 -2.567557E+00 +8.908430E+00 +3.654686E+02 
 +4.951977E+02 +1.032103E+01 +7.253068E+00 +1.032103E+01 +8.778502E+02 +1.409605E+01 +7.253068E+00 +1.409605E+01 +3.623075E+02 
 +4.736362E+02 +6.327492E+00 +5.001413E+00 +6.327492E+00 +8.678655E+02 +1.541920E+01 +5.001413E+00 +1.541920E+01 +3.658868E+02 
 +4.809433E+02 +1.080005E+01 -3.283890E+01 +1.080005E+01 +8.806902E+02 +4.015591E+00 -3.283890E+01 +4.015591E+00 +3.476527E+02 
 +4.593516E+02 +1.224897E+01 -2.852014E+01 +1.224897E+01 +8.648520E+02 -4.326619E+00 -2.852014E+01 -4.326619E+00 +2.988408E+02 
 +4.768277E+02 +9.779351E+00 -2.409288E+01 +9.779351E+00 +8.732732E+02 -1.833504E+00 -2.409288E+01 -1.833504E+00 +3.292279E+02 
 +4.980813E+02 +5.621438E+00 -3.176089E+01 +5.621438E+00 +8.822988E+02 +1.705303E+00 -3.176089E+01 +1.705303E+00 +3.546227E+02 
 +4.960830E+02 +2.667654E+00 -2.824686E+01 +2.667654E+00 +8.810094E+02 +5.370968E+00 -2.824686E+01 +5.370968E+00 +3.533790E+02 
 +4.775326E+02 +1.139836E+00 -2.033956E+01 +1.139836E+00 +8.757208E+02 +1.184162E+01 -2.033956E+01 +1.184162E+01 +3.549465E+02 
 +4.678985E+02 -3.453599E+00 -2.624160E+01 -3.453599E+00 +8.647197E+02 +2.068105E+01 -2.624160E+01 +2.068105E+01 +3.565628E+02 
 +5.060114E+02 -7.772116E+00 +1.330407E+01 -7.772116E+00 +8.692234E+02 +2.442419E+01 +1.330407E+01 +2.442419E+01 +3.804608E+02 
 +4.908250E+02 -6.336881E+00 +6.782781E-01 -6.336881E+00 +8.486694E+02 +2.004473E+01 +6.782781E-01 +2.004473E+01 +3.907506E+02 
 +4.898811E+02 -1.334978E-01 -3.425713E+00 -1.334978E-01 +8.370061E+02 +1.526965E+01 -3.425713E+00 +1.526965E+01 +3.943885E+02 
 +5.014918E+02 +2.965255E+00 -7.126826E+00 +2.965255E+00 +8.351799E+02 +7.003049E+00 -7.126826E+00 +7.003049E+00 +3.827128E+02 
 +5.017249E+02 -1.308559E+01 -8.528797E+00 -1.308559E+01 +8.446224E+02 -1.454900E+01 -8.528797E+00 -1.454900E+01 +3.773562E+02 
 +5.039923E+02 -1.765227E+01 +1.282719E+01 -1.765227E+01 +8.603096E+02 -2.358683E+01 +1.282719E+01 -2.358683E+01 +3.837998E+02 
 +4.946952E+02 -7.226245E-01 +2.529105E+01 -7.226245E-01 +8.811118E+02 -1.549647E+01 +2.529105E+01 -1.549647E+01 +3.539368E+02 
 +4.943371E+02 +7.606559E-02 +1.564791E+01 +7.606559E-02 +8.751012E+02 -1.810211E+00 +1.564791E+01 -1.810211E+00 +3.586193E+02 
 +4.832601E+02 -6.241338E+00 +2.251969E+01 -6.241338E+00 +8.700208E+02 +1.662418E+00 +2.251969E+01 +1.662418E+00 +3.616535E+02 
 +4.870236E+02 -1.028654E+01 +2.194470E+01 -1.028654E+01 +8.770125E+02 -1.172496E+00 +2.194470E+01 -1.172496E+00 +3.697128E+02 
 +4.974536E+02 -4.802982E+00 +6.729924E+00 -4.802982E+00 +8.815440E+02 +1.181848E+01 +6.729924E+00 +1.181848E+01 +3.587537E+02 
 +4.957401E+02 +1.367197E+00 -8.280400E+00 +1.367197E+00 +8.828565E+02 +1.704202E+01 -8.280400E+00 +1.704202E+01 +3.484447E+02 
 +4.901514E+02 +9.326941E+00 +1.259591E+00 +9.326941E+00 +8.796427E+02 +3.774065E+00 +1.259591E+00 +3.774065E+00 +3.482382E+02 
 +4.835727E+02 +1.471579E+01 -1.787746E+00 +1.471579E+01 +8.764927E+02 -6.413839E+00 -1.787746E+00 -6.413839E+00 +3.563103E+02 
 +4.775842E+02 +1.625564E+01 -3.027626E+01 +1.625564E+01 +8.764780E+02 -5.596908E+00 -3.027626E+01 -5.596908E+00 +3.461669E+02 
 +4.621722E+02 +1.218735E+01 -2.455236E+01 +1.218735E+01 +8.658837E+02 -4.368567E-01 -2.455236E+01 -4.368567E-01 +3.173216E+02 
 +4.817135E+02 +9.150635E+00 -2.255199E+01 +9.150635E+00 +8.781754E+02 -3.423232E+00 -2.255199E+01 -3.423232E+00 +3.440207E+02 
 +4.997125E+02 +6.735569E+00 -2.930341E+01 +6.735569E+00 +8.873996E+02 -4.057163E+00 -2.930341E+01 -4.057163E+00 +3.607321E+02 
 +4.981407E+02 +2.008312E+00 -2.615315E+01 +2.008312E+00 +8.828646E+02 +1.628790E+00 -2.615315E+01 +1.628790E+00 +3.556972E+02 
 +4.888568E+02 +2.145743E+00 -1.823257E+01 +2.145743E+00 +8.842434E+02 +7.371293E+00 -1.823257E+01 +7.371293E+00 +3.585590E+02 
 +4.891434E+02 -8.000136E+00 -7.377135E+00 -8.000136E+00 +8.848936E+02 +1.921489E+01 -7.377135E+00 +1.921489E+01 +3.686793E+02 
 +5.071049E+02 -1.122820E+01 +2.035889E+01 -1.122820E+01 +8.707577E+02 +2.768147E+01 +2.035889E+01 +2.768147E+01 +3.846815E+02 
 +4.872078E+02 -5.165441E+00 +3.159169E+00 -5.165441E+00 +8.413280E+02 +2.253422E+01 +3.159169E+00 +2.253422E+01 +3.893744E+02 
 +4.910857E+02 -2.190235E+00 +1.095035E+00 -2.190235E+00 +8.365675E+02 +1.673242E+01 +1.095035E+00 +1.673242E+01 +3.939346E+02 
 +4.983244E+02 +4.086367E+00 -1.905550E+00 +4.086367E+00 +8.266962E+02 +1.477807E+01 -1.905550E+00 +1.477807E+01 +3.805975E+02 
 +5.155937E+02 -1.010500E+00 -8.328121E+00 -1.010500E+00 +8.492218E+02 +9.806783E+00 -8.328121E+00 +9.806783E+00 +3.725859E+02 
 +4.954019E+02 -1.183651E+01 +1.602682E+01 -1.183651E+01 +8.726516E+02 -9.328378E+00 +1.602682E+01 -9.328378E+00 +3.571134E+02 
 +4.733488E+02 -1.750944E+00 +2.296675E+01 -1.750944E+00 +8.708196E+02 +1.069172E+01 +2.296675E+01 +1.069172E+01 +3.339145E+02 
 +4.813885E+02 -5.357960E-01 +2.051922E+01 -5.357960E-01 +8.820425E+02 +7.364797E+00 +2.051922E+01 +7.364797E+00 +3.554229E+02 
 +4.846127E+02 -8.755047E+00 +1.693892E+01 -8.755047E+00 +8.809516E+02 +2.784820E+00 +1.693892E+01 +2.784820E+00 +3.663129E+02 
 +4.865750E+02 -1.852716E+01 +1.781964E+01 -1.852716E+01 +8.917407E+02 -9.106693E+00 +1.781964E+01 -9.106693E+00 +3.629627E+02 
 +5.117895E+02 -1.669749E+01 +2.305860E+01 -1.669749E+01 +9.077858E+02 -1.335444E+01 +2.305860E+01 -1.335444E+01 +3.244618E+02 
 +5.066699E+02 -5.859039E+00 +8.707906E+00 -5.859039E+00 +8.992196E+02 -1.066331E+01 +8.707906E+00 -1.066331E+01 +2.907519E+02 
 +5.050639E+02 -8.128297E-01 +1.622965E+01 -8.128297E-01 +9.003817E+02 -9.084602E+00 +1.622965E+01 -9.084602E+00 +3.209403E+02 
 +4.520211E+02 +5.019256E-01 -5.471423E+00 +5.019256E-01 +8.644621E+02 -1.154265E+01 -5.471423E+00 -1.154265E+01 +3.341363E+02 
 +4.615749E+02 +8.426241E-01 -2.298714E+01 +8.426241E-01 +8.667136E+02 -7.881255E+00 -2.298714E+01 -7.881255E+00 +3.636806E+02 
 +4.642080E+02 +2.285764E+00 -1.518820E+01 +2.285764E+00 +8.728474E+02 -6.902247E-01 -1.518820E+01 -6.902247E-01 +3.790372E+02 
 +4.823004E+02 +8.124117E+00 -1.504310E+01 +8.124117E+00 +8.813281E+02 -5.130693E+00 -1.504310E+01 -5.130693E+00 +3.778457E+02 
 +4.994180E+02 +9.434558E+00 -2.053724E+01 +9.434558E+00 +8.888212E+02 -5.279328E+00 -2.053724E+01 -5.279328E+00 +3.629593E+02 
 +4.997490E+02 +2.967585E+00 -1.689814E+01 +2.967585E+00 +8.901758E+02 -2.111452E-01 -1.689814E+01 -2.111452E-01 +3.565249E+02 
 +4.992647E+02 -3.446891E-01 -1.684375E+01 -3.446891E-01 +8.756955E+02 -2.038990E+00 -1.684375E+01 -2.038990E+00 +3.657646E+02 
 +5.163520E+02 -1.992683E+01 +1.663372E+01 -1.992683E+01 +8.644848E+02 +5.414998E-01 +1.663372E+01 +5.414998E-01 +3.859054E+02 
 +5.109344E+02 -2.052251E+01 +2.246553E+01 -2.052251E+01 +8.639979E+02 +1.128771E+00 +2.246553E+01 +1.128771E+00 +3.904110E+02 
 +5.095875E+02 -1.246081E+01 +1.355564E+01 -1.246081E+01 +8.616057E+02 -4.688620E-01 +1.355564E+01 -4.688620E-01 +3.909906E+02 
 +5.062443E+02 -3.657526E+00 -2.578000E+00 -3.657526E+00 +8.458843E+02 +3.638517E+00 -2.578000E+00 +3.638517E+00 +3.833778E+02 
 +5.014819E+02 -1.865013E-01 -3.293797E+00 -1.865013E-01 +8.498846E+02 +9.714715E+00 -3.293797E+00 +9.714715E+00 +3.720494E+02 
 +5.091732E+02 -8.125733E+00 -2.559386E+01 -8.125733E+00 +8.694780E+02 +1.544475E+01 -2.559386E+01 +1.544475E+01 +3.479700E+02 
 +4.905841E+02 -1.704338E+01 -7.678813E+00 -1.704338E+01 +8.667463E+02 +1.523517E+01 -7.678813E+00 +1.523517E+01 +3.249317E+02 
 +4.658498E+02 -2.762555E+00 +1.830467E+01 -2.762555E+00 +8.630479E+02 +2.053936E+01 +1.830467E+01 +2.053936E+01 +3.311490E+02 
 +4.704927E+02 -7.959840E+00 +1.492355E+01 -7.959840E+00 +8.749748E+02 +7.849995E+00 +1.492355E+01 +7.849995E+00 +3.607679E+02 
 +4.649060E+02 -1.281305E+01 +1.417253E+01 -1.281305E+01 +8.774894E+02 -1.398690E-01 +1.417253E+01 -1.398690E-01 +3.716774E+02 
 +4.913090E+02 -1.385082E+01 +1.331819E+00 -1.385082E+01 +8.950758E+02 -7.737281E+00 +1.331819E+00 -7.737281E+00 +3.627916E+02 
 +5.254921E+02 -8.322592E+00 +1.527953E+01 -8.322592E+00 +9.105396E+02 -2.226659E+01 +1.527953E+01 -2.226659E+01 +3.124156E+02 
 +5.196815E+02 -1.982393E+00 +1.153257E+01 -1.982393E+00 +9.029564E+02 -2.197458E+01 +1.153257E+01 -2.197458E+01 +2.780385E+02 
 +5.160646E+02 +2.762215E+00 +1.714135E+01 +2.762215E+00 +9.031242E+02 -1.123611E+01 +1.714135E+01 -1.123611E+01 +3.180404E+02 
 +4.203360E+02 +2.972516E+00 -4.032382E+00 +2.972516E+00 +8.511115E+02 -6.217857E+00 -4.032382E+00 -6.217857E+00 +3.345703E+02 
 +4.523165E+02 +2.575244E+00 -1.840496E+01 +2.575244E+00 +8.591010E+02 -5.092254E+00 -1.840496E+01 -5.092254E+00 +3.697374E+02 
 +4.908862E+02 +1.164066E+00 -2.243539E+01 +1.164066E+00 +8.755497E+02 -6.631952E+00 -2.243539E+01 -6.631952E+00 +3.817891E+02 
 +4.927093E+02 +4.976507E+00 -2.246383E+01 +4.976507E+00 +8.865358E+02 -8.163079E+00 -2.246383E+01 -8.163079E+00 +3.724010E+02 
 +4.961154E+02 +3.318393E+00 -1.996497E+01 +3.318393E+00 +8.930343E+02 -8.956362E+00 -1.996497E+01 -8.956362E+00 +3.615636E+02 
 +4.989318E+02 +1.215623E+00 -2.484172E+01 +1.215623E+00 +8.889208E+02 -5.883051E+00 -2.484172E+01 -5.883051E+00 +3.579620E+02 
 +4.945597E+02 -1.030378E+01 -2.364685E+01 -1.030378E+01 +8.588422E+02 +2.452836E+00 -2.364685E+01 +2.452836E+00 +3.645045E+02 
 +5.156804E+02 -2.232002E+01 +1.066998E+01 -2.232002E+01 +8.532404E+02 -5.293844E-01 +1.066998E+01 -5.293844E-01 +3.904076E+02 
 +5.225975E+02 -1.981748E+01 +1.773221E+01 -1.981748E+01 +8.669141E+02 -8.362569E+00 +1.773221E+01 -8.362569E+00 +3.921432E+02 
 +5.120600E+02 -1.877847E+01 +9.615417E+00 -1.877847E+01 +8.542446E+02 -1.534759E+01 +9.615417E+00 -1.534759E+01 +3.734341E+02 
 +5.017082E+02 -7.640413E+00 +7.574137E-01 -7.640413E+00 +8.523734E+02 -1.080131E+01 +7.574137E-01 -1.080131E+01 +3.611430E+02 
 +4.908384E+02 -2.818182E+00 -4.947520E+00 -2.818182E+00 +8.768837E+02 +6.696846E+00 -4.947520E+00 +6.696846E+00 +3.544277E+02 
 +4.983657E+02 -6.817302E+00 -1.891070E+01 -6.817302E+00 +8.858518E+02 +1.405972E+01 -1.891070E+01 +1.405972E+01 +3.334826E+02 
 +4.999326E+02 -1.418070E+01 -1.986772E+00 -1.418070E+01 +8.764278E+02 +1.993698E+01 -1.986772E+00 +1.993698E+01 +3.221730E+02 
 +4.528386E+02 +5.689240E+00 +2.237820E+01 +5.689240E+00 +8.571457E+02 +1.977499E+01 +2.237820E+01 +1.977499E+01 +3.427930E+02 
 +4.687420E+02 -9.639695E-02 +7.930287E+00 -9.639695E-02 +8.743370E+02 +1.953322E+01 +7.930287E+00 +1.953322E+01 +3.790400E+02 
 +4.491218E+02 -3.579293E+00 +1.908978E+01 -3.579293E+00 +8.702276E+02 +1.277681E+01 +1.908978E+01 +1.277681E+01 +3.876255E+02 
 +5.019141E+02 -4.678865E+00 -1.232605E+00 -4.678865E+00 +8.966214E+02 +5.870332E+00 -1.232605E+00 +5.870332E+00 +3.694127E+02 
 +5.281649E+02 -6.172718E+00 +1.792867E+00 -6.172718E+00 +9.041163E+02 -3.666737E+00 +1.792867E+00 -3.666737E+00 +3.058721E+02 
 +5.304176E+02 -7.129983E+00 +1.379155E+01 -7.129983E+00 +9.018554E+02 -9.671981E+00 +1.379155E+01 -9.671981E+00 +2.816161E+02 
 +5.324742E+02 -2.416390E+00 +1.647747E+01 -2.416390E+00 +9.071107E+02 -6.911941E+00 +1.647747E+01 -6.911941E+00 +3.170186E+02 
 +4.108430E+02 +2.003639E+00 +1.949259E+00 +2.003639E+00 +8.473231E+02 -2.596939E+00 +1.949259E+00 -2.596939E+00 +3.293967E+02 
 +4.321830E+02 +3.353355E+00 -4.931842E+00 +3.353355E+00 +8.540727E+02 -3.249808E+00 -4.931842E+00 -3.249808E+00 +3.811536E+02 
 +4.883126E+02 +1.937890E+00 -1.646699E+01 +1.937890E+00 +8.759116E+02 -1.383712E+01 -1.646699E+01 -1.383712E+01 +4.034829E+02 
 +5.138688E+02 +3.527690E+00 -1.120568E+01 +3.527690E+00 +8.986140E+02 -1.384933E+01 -1.120568E+01 -1.384933E+01 +3.934078E+02 
 +5.194098E+02 +1.307695E+00 -1.753606E+01 +1.307695E+00 +9.012542E+02 -7.079393E+00 -1.753606E+01 -7.079393E+00 +3.770615E+02 
 +5.325167E+02 +1.027731E+01 -1.843931E+01 +1.027731E+01 +8.932259E+02 -4.676823E-02 -1.843931E+01 -4.676823E-02 +3.690060E+02 
 +5.067373E+02 -6.707815E-01 -2.397698E+01 -6.707815E-01 +8.802061E+02 +7.913453E+00 -2.397698E+01 +7.913453E+00 +3.678114E+02 
 +5.084542E+02 -8.860072E+00 -1.338871E+01 -8.860072E+00 +8.864754E+02 -2.097989E+00 -1.338871E+01 -2.097989E+00 +3.851363E+02 
 +5.353522E+02 -1.798818E+01 +1.870917E+01 -1.798818E+01 +8.773036E+02 -1.682471E+01 +1.870917E+01 -1.682471E+01 +3.809949E+02 
 +5.183210E+02 -1.548413E+01 +7.733788E+00 -1.548413E+01 +8.662348E+02 -1.861121E+01 +7.733788E+00 -1.861121E+01 +3.606232E+02 
 +4.919855E+02 -6.028532E-02 +1.735381E+01 -6.028532E-02 +8.812876E+02 -5.743955E+00 +1.735381E+01 -5.743955E+00 +3.539009E+02 
 +4.892000E+02 +2.525712E+00 +4.921556E+00 +2.525712E+00 +8.797897E+02 +1.219435E+01 +4.921556E+00 +1.219435E+01 +3.469867E+02 
 +5.021194E+02 -4.110166E+00 -1.007604E+01 -4.110166E+00 +8.791288E+02 +2.010543E+01 -1.007604E+01 +2.010543E+01 +3.388977E+02 
 +5.007367E+02 -9.181229E+00 +3.587635E+00 -9.181229E+00 +8.802258E+02 +1.867336E+01 +3.587635E+00 +1.867336E+01 +3.370954E+02 
 +4.515704E+02 +1.164672E+01 +2.653004E+01 +1.164672E+01 +8.574799E+02 +2.597268E+01 +2.653004E+01 +2.597268E+01 +3.600170E+02 
 +4.612421E+02 +7.863597E+00 +1.419186E+01 +7.863597E+00 +8.715872E+02 +2.761570E+01 +1.419186E+01 +2.761570E+01 +3.920256E+02 
 +4.555068E+02 +8.806305E+00 +1.564508E+01 +8.806305E+00 +8.730293E+02 +2.245043E+01 +1.564508E+01 +2.245043E+01 +3.959236E+02 
 +4.668093E+02 +6.475284E+00 +2.713152E+00 +6.475284E+00 +8.815416E+02 +1.457556E+01 +2.713152E+00 +1.457556E+01 +3.554532E+02 
 +5.387747E+02 -3.491191E+00 -7.129063E+00 -3.491191E+00 +9.145830E+02 +9.103569E+00 -7.129063E+00 +9.103569E+00 +3.197689E+02 
 +5.338468E+02 -8.624333E+00 +1.142099E+01 -8.624333E+00 +9.017510E+02 +4.533165E-01 +1.142099E+01 +4.533165E-01 +2.918122E+02 
 +5.425775E+02 -7.247486E+00 +1.729606E+01 -7.247486E+00 +9.069255E+02 -9.201057E-01 +1.729606E+01 -9.201057E-01 +3.204522E+02 
 +4.294793E+02 -3.359401E+00 +5.178379E+00 -3.359401E+00 +8.540746E+02 +3.115891E+00 +5.178379E+00 +3.115891E+00 +3.333041E+02 
 +4.262656E+02 -5.451586E-01 +3.656962E+00 -5.451586E-01 +8.608857E+02 -1.339062E+00 +3.656962E+00 -1.339062E+00 +3.840269E+02 
 +4.491143E+02 +1.908743E-01 -3.828220E+00 +1.908743E-01 +8.519734E+02 -8.712314E+00 -3.828220E+00 -8.712314E+00 +4.041022E+02 
 +5.248226E+02 +1.397079E+01 +8.724615E+00 +1.397079E+01 +8.514506E+02 -4.014427E+00 +8.724615E+00 -4.014427E+00 +4.018585E+02 
 +5.151279E+02 +1.474697E+01 -2.450149E+00 +1.474697E+01 +8.282431E+02 +3.021310E+00 -2.450149E+00 +3.021310E+00 +3.690222E+02 
 +5.322083E+02 +1.939534E+01 -1.005392E-01 +1.939534E+01 +8.550727E+02 +1.914462E+00 -1.005392E-01 +1.914462E+00 +3.712294E+02 
 +5.090234E+02 +5.745697E+00 -1.596778E+01 +5.745697E+00 +8.806424E+02 -4.986629E+00 -1.596778E+01 -4.986629E+00 +3.676383E+02 
 +5.146257E+02 -1.190871E+00 -2.319208E+01 -1.190871E+00 +9.051026E+02 -6.572264E+00 -2.319208E+01 -6.572264E+00 +3.773942E+02 
 +5.504171E+02 -3.856776E+00 +1.834055E+01 -3.856776E+00 +9.291649E+02 -6.700501E+00 +1.834055E+01 -6.700501E+00 +3.656373E+02 
 +5.185053E+02 -2.088921E-01 +2.121476E+01 -2.088921E-01 +9.202629E+02 -5.527415E+00 +2.121476E+01 -5.527415E+00 +3.435332E+02 
 +4.906974E+02 +5.591317E+00 +2.619119E+01 +5.591317E+00 +8.980543E+02 -1.802644E+00 +2.619119E+01 -1.802644E+00 +3.430511E+02 
 +4.825660E+02 +4.481290E+00 +2.462600E+01 +4.481290E+00 +8.805303E+02 +5.961308E+00 +2.462600E+01 +5.961308E+00 +3.375383E+02 
 +5.033141E+02 -5.048918E+00 -6.512485E+00 -5.048918E+00 +8.804023E+02 +1.808513E+01 -6.512485E+00 +1.808513E+01 +3.505280E+02 
 +5.129425E+02 -8.005008E+00 -2.438505E+00 -8.005008E+00 +8.809187E+02 +2.473844E+01 -2.438505E+00 +2.473844E+01 +3.616116E+02 
 +4.585759E+02 +8.005115E-02 +2.428002E+01 +8.005115E-02 +8.651924E+02 +2.691473E+01 +2.428002E+01 +2.691473E+01 +3.666916E+02 
 +4.719947E+02 -5.546663E-02 +1.712567E+01 -5.546663E-02 +8.734005E+02 +1.954745E+01 +1.712567E+01 +1.954745E+01 +3.784222E+02 
 +4.560884E+02 +1.067840E+01 +8.050526E+00 +1.067840E+01 +8.752714E+02 +1.386766E+01 +8.050526E+00 +1.386766E+01 +3.846125E+02 
 +4.612874E+02 +1.405222E+01 -9.673986E-01 +1.405222E+01 +8.894303E+02 +9.438835E+00 -9.673986E-01 +9.438835E+00 +3.653869E+02 
 +5.480187E+02 +6.126590E+00 -1.165238E+01 +6.126590E+00 +9.282375E+02 +6.264196E+00 -1.165238E+01 +6.264196E+00 +3.560496E+02 
 +5.230672E+02 -7.797338E+00 +9.267356E+00 -7.797338E+00 +8.941004E+02 +5.257777E+00 +9.267356E+00 +5.257777E+00 +3.277662E+02 
 +5.229956E+02 -1.007852E+01 +1.950568E+01 -1.007852E+01 +8.891115E+02 +3.404101E+00 +1.950568E+01 +3.404101E+00 +3.443083E+02 
 +4.594532E+02 -1.227000E+01 +9.430818E+00 -1.227000E+01 +8.661536E+02 +3.173515E+00 +9.430818E+00 +3.173515E+00 +3.557205E+02 
 +4.436258E+02 -6.142166E+00 +6.229696E+00 -6.142166E+00 +8.648302E+02 +6.593517E+00 +6.229696E+00 +6.593517E+00 +3.815378E+02 
 +4.708592E+02 +8.378560E-01 +5.621773E+00 +8.378560E-01 +8.670755E+02 +1.073967E+01 +5.621773E+00 +1.073967E+01 +4.106487E+02 
 +5.515402E+02 +1.649064E+01 +1.752011E+01 +1.649064E+01 +8.707519E+02 +6.596085E+00 +1.752011E+01 +6.596085E+00 +4.189265E+02 
 +5.348296E+02 +1.615394E+01 +7.682822E+00 +1.615394E+01 +8.410634E+02 -1.676683E+00 +7.682822E+00 -1.676683E+00 +3.814891E+02 
 +5.251766E+02 +1.926348E+01 +8.712014E+00 +1.926348E+01 +8.444222E+02 -7.952719E+00 +8.712014E+00 -7.952719E+00 +3.744119E+02 
 +5.068649E+02 +1.553511E+01 +8.605240E-01 +1.553511E+01 +8.436040E+02 -1.353949E+01 +8.605240E-01 -1.353949E+01 +3.652150E+02 
 +5.130612E+02 +3.441896E+00 -1.324436E+01 +3.441896E+00 +8.754181E+02 -1.028697E+01 -1.324436E+01 -1.028697E+01 +3.671418E+02 
 +5.126119E+02 -4.308835E+00 +1.585482E+01 -4.308835E+00 +9.012938E+02 -4.495374E+00 +1.585482E+01 -4.495374E+00 +3.400395E+02 
 +4.795807E+02 -2.573073E+00 +2.756442E+01 -2.573073E+00 +8.952627E+02 -4.833464E+00 +2.756442E+01 -4.833464E+00 +3.158349E+02 
 +4.855183E+02 +2.047709E+00 +2.769111E+01 +2.047709E+00 +8.980868E+02 -1.558966E+00 +2.769111E+01 -1.558966E+00 +3.319658E+02 
 +4.735790E+02 +3.058886E+00 +3.565805E+01 +3.058886E+00 +8.772637E+02 +2.991787E+00 +3.565805E+01 +2.991787E+00 +3.267115E+02 
 +4.965570E+02 -5.243450E+00 +4.324188E+00 -5.243450E+00 +8.774165E+02 +1.340329E+01 +4.324188E+00 +1.340329E+01 +3.537425E+02 
 +4.972452E+02 -8.773766E+00 -1.484541E-01 -8.773766E+00 +8.786746E+02 +2.664098E+01 -1.484541E-01 +2.664098E+01 +3.781282E+02 
 +4.652914E+02 +1.210327E+00 +2.060744E+01 +1.210327E+00 +8.762960E+02 +1.684603E+01 +2.060744E+01 +1.684603E+01 +3.741857E+02 
 +4.878913E+02 -2.194700E+00 +1.165349E+01 -2.194700E+00 +8.765106E+02 +1.016764E+01 +1.165349E+01 +1.016764E+01 +3.665652E+02 
 +4.445115E+02 +9.351913E+00 +6.632666E+00 +9.351913E+00 +8.613709E+02 +1.050516E+01 +6.632666E+00 +1.050516E+01 +3.762211E+02 
 +4.781681E+02 +7.790076E+00 -8.609171E+00 +7.790076E+00 +8.675265E+02 +1.237912E+01 -8.609171E+00 +1.237912E+01 +3.896769E+02 
 +4.996625E+02 -9.282696E-01 -6.876054E+00 -9.282696E-01 +8.497108E+02 +1.477962E+01 -6.876054E+00 +1.477962E+01 +3.632533E+02 
 +4.870490E+02 -8.518865E+00 +8.697451E+00 -8.518865E+00 +8.346456E+02 +1.730675E+01 +8.697451E+00 +1.730675E+01 +3.505771E+02 
 +4.865659E+02 +4.787387E+00 +2.154086E+01 +4.787387E+00 +8.471690E+02 +1.074352E+01 +2.154086E+01 +1.074352E+01 +3.579557E+02 
 +4.687459E+02 +3.841314E+00 +1.389551E+01 +3.841314E+00 +8.452213E+02 +6.714119E+00 +1.389551E+01 +6.714119E+00 +3.586681E+02 
 +4.572048E+02 +5.827442E+00 +1.148012E+01 +5.827442E+00 +8.265171E+02 +1.222861E+01 +1.148012E+01 +1.222861E+01 +3.668601E+02 
 +4.746094E+02 +5.350405E+00 +9.539534E+00 +5.350405E+00 +8.224414E+02 +1.584969E+01 +9.539534E+00 +1.584969E+01 +3.873797E+02 
 +5.159059E+02 +1.424042E+01 +1.258322E+01 +1.424042E+01 +8.429992E+02 +7.830848E+00 +1.258322E+01 +7.830848E+00 +3.987423E+02 
 +5.266793E+02 +2.093922E+01 +6.635983E+00 +2.093922E+01 +8.462839E+02 -1.828052E+00 +6.635983E+00 -1.828052E+00 +3.826305E+02 
 +5.248264E+02 +2.065369E+01 +1.012613E+01 +2.065369E+01 +8.439269E+02 -4.450446E+00 +1.012613E+01 -4.450446E+00 +3.727544E+02 
 +5.309627E+02 +1.588033E+01 +1.198338E+01 +1.588033E+01 +8.609837E+02 -1.225226E+01 +1.198338E+01 -1.225226E+01 +3.789065E+02 
 +5.069492E+02 +3.649184E+00 +1.438819E-01 +3.649184E+00 +8.709544E+02 -1.690009E+01 +1.438819E-01 -1.690009E+01 +3.602959E+02 
 +4.825159E+02 -7.194738E+00 +1.684077E+01 -7.194738E+00 +8.821646E+02 -9.351787E+00 +1.684077E+01 -9.351787E+00 +3.379460E+02 
 +4.888494E+02 -8.416342E+00 +1.992821E+01 -8.416342E+00 +8.993974E+02 -4.480881E+00 +1.992821E+01 -4.480881E+00 +3.351170E+02 
 +4.856679E+02 -4.730327E+00 +3.040440E+01 -4.730327E+00 +8.922198E+02 -1.464655E+00 +3.040440E+01 -1.464655E+00 +3.310108E+02 
 +4.826205E+02 +1.244116E+00 +3.635062E+01 +1.244116E+00 +8.761523E+02 +1.351074E+00 +3.635062E+01 +1.351074E+00 +3.339149E+02 
 +4.956778E+02 -2.657672E+00 +2.137803E+01 -2.657672E+00 +8.879450E+02 +5.072836E+00 +2.137803E+01 +5.072836E+00 +3.714572E+02 
 +4.599608E+02 -2.783185E+00 +1.583746E+01 -2.783185E+00 +8.851472E+02 +1.470959E+01 +1.583746E+01 +1.470959E+01 +3.918350E+02 
 +4.675669E+02 +3.473416E+00 +1.925168E+01 +3.473416E+00 +8.754155E+02 +7.108243E+00 +1.925168E+01 +7.108243E+00 +3.940464E+02 
 +4.738412E+02 +2.746472E+00 +1.079727E+01 +2.746472E+00 +8.704227E+02 +9.899933E+00 +1.079727E+01 +9.899933E+00 +3.858256E+02 
 +4.421635E+02 +5.576896E+00 +9.489996E+00 +5.576896E+00 +8.463637E+02 +1.480925E+01 +9.489996E+00 +1.480925E+01 +3.843485E+02 
 +5.000210E+02 -2.458225E+00 -1.075661E+01 -2.458225E+00 +8.547677E+02 +1.547758E+01 -1.075661E+01 +1.547758E+01 +4.043954E+02 
 +4.990711E+02 +8.712469E-01 +1.307442E+00 +8.712469E-01 +8.412431E+02 +1.412845E+01 +1.307442E+00 +1.412845E+01 +3.848963E+02 
 +4.986510E+02 +9.372507E-02 +8.229043E+00 +9.372507E-02 +8.472727E+02 +1.538115E+01 +8.229043E+00 +1.538115E+01 +3.754903E+02 
 +4.873557E+02 +1.749978E+01 +2.347978E+01 +1.749978E+01 +8.454975E+02 +1.082506E+01 +2.347978E+01 +1.082506E+01 +3.649457E+02 
 +4.812360E+02 +1.021895E+01 +1.954266E+01 +1.021895E+01 +8.431058E+02 +7.131206E+00 +1.954266E+01 +7.131206E+00 +3.647395E+02 
 +4.872665E+02 +6.503912E-01 +1.509206E+01 +6.503912E-01 +8.442753E+02 +9.356802E+00 +1.509206E+01 +9.356802E+00 +3.791136E+02 
 +4.873778E+02 -6.338896E+00 +1.209599E+01 -6.338896E+00 +8.386339E+02 +7.931070E+00 +1.209599E+01 +7.931070E+00 +3.904452E+02 
 +4.924610E+02 +3.735118E+00 +1.119005E+01 +3.735118E+00 +8.304350E+02 +2.779995E+00 +1.119005E+01 +2.779995E+00 +3.938577E+02 
 +5.128915E+02 +1.389249E+01 +4.890466E+00 +1.389249E+01 +8.349824E+02 +1.124913E+00 +4.890466E+00 +1.124913E+00 +3.910284E+02 
 +5.326709E+02 +2.028492E+01 +2.997177E+00 +2.028492E+01 +8.529495E+02 -1.235028E-01 +2.997177E+00 -1.235028E-01 +3.854795E+02 
 +5.203103E+02 +1.560729E+01 +9.607930E+00 +1.560729E+01 +8.585181E+02 -2.785119E+00 +9.607930E+00 -2.785119E+00 +3.815075E+02 
 +4.941168E+02 +2.789496E+00 +2.254188E+00 +2.789496E+00 +8.601394E+02 +1.302213E-01 +2.254188E+00 +1.302213E-01 +3.680291E+02 
 +4.932446E+02 -2.520954E+00 +8.305281E+00 -2.520954E+00 +8.885465E+02 -1.607206E+00 +8.305281E+00 -1.607206E+00 +3.680273E+02 
 +5.064114E+02 -9.605291E+00 +1.042883E+01 -9.605291E+00 +9.074941E+02 -6.262199E+00 +1.042883E+01 -6.262199E+00 +3.732534E+02 
 +5.031938E+02 -1.027174E+01 +2.890053E+01 -1.027174E+01 +8.885815E+02 -1.680388E+00 +2.890053E+01 -1.680388E+00 +3.501385E+02 
 +4.908388E+02 -5.182981E+00 +3.062447E+01 -5.182981E+00 +8.769127E+02 -2.909730E-01 +3.062447E+01 -2.909730E-01 +3.573927E+02 
 +4.788558E+02 -7.821989E+00 +2.817080E+01 -7.821989E+00 +8.867682E+02 -1.109201E-02 +2.817080E+01 -1.109201E-02 +3.991272E+02 
 +4.526066E+02 -3.799536E+00 +2.840047E+01 -3.799536E+00 +8.799396E+02 +4.362758E+00 +2.840047E+01 +4.362758E+00 +4.070253E+02 
 +4.716341E+02 -1.659576E+00 +1.781252E+01 -1.659576E+00 +8.821631E+02 -2.914241E+00 +1.781252E+01 -2.914241E+00 +4.156153E+02 
 +4.609430E+02 +2.081343E+00 +1.058432E+01 +2.081343E+00 +8.739004E+02 +3.089806E+00 +1.058432E+01 +3.089806E+00 +4.124469E+02 
 +4.683938E+02 +4.241140E+00 +7.916029E+00 +4.241140E+00 +8.562207E+02 +1.054939E+01 +7.916029E+00 +1.054939E+01 +4.056521E+02 
 +5.075290E+02 -2.990513E+00 -4.214812E+00 -2.990513E+00 +8.488851E+02 +1.370468E+01 -4.214812E+00 +1.370468E+01 +4.049142E+02 
 +5.027208E+02 +2.991649E+00 +7.364184E+00 +2.991649E+00 +8.363267E+02 +1.975924E+01 +7.364184E+00 +1.975924E+01 +3.905807E+02 
 +5.045074E+02 +3.968048E+00 +9.743320E+00 +3.968048E+00 +8.465748E+02 +2.456323E+01 +9.743320E+00 +2.456323E+01 +3.849787E+02 
 +4.969985E+02 +1.760337E+01 +2.096858E+01 +1.760337E+01 +8.475692E+02 +1.514570E+01 +2.096858E+01 +1.514570E+01 +3.799005E+02 
 +4.916766E+02 +1.292648E+01 +2.042309E+01 +1.292648E+01 +8.477172E+02 +2.398775E+00 +2.042309E+01 +2.398775E+00 +3.782906E+02 
 +4.984203E+02 +2.644791E-01 +1.495776E+01 +2.644791E-01 +8.539136E+02 +1.639759E+00 +1.495776E+01 +1.639759E+00 +3.846289E+02 
 +4.813321E+02 -5.051861E+00 +1.327455E+01 -5.051861E+00 +8.413014E+02 +4.950808E+00 +1.327455E+01 +4.950808E+00 +3.817367E+02 
 +4.815668E+02 +1.395784E+00 +1.255221E+01 +1.395784E+00 +8.422633E+02 +5.514364E+00 +1.255221E+01 +5.514364E+00 +3.887956E+02 
 +4.967648E+02 +6.116268E+00 +7.834037E+00 +6.116268E+00 +8.350098E+02 +1.238062E+00 +7.834037E+00 +1.238062E+00 +3.904492E+02 
 +5.214321E+02 +1.467065E+01 +2.320040E+00 +1.467065E+01 +8.469768E+02 +4.294700E+00 +2.320040E+00 +4.294700E+00 +3.928598E+02 
 +5.184873E+02 +4.554824E+00 -1.305444E-02 +4.554824E+00 +8.646593E+02 +1.008323E+01 -1.305444E-02 +1.008323E+01 +3.997621E+02 
 +5.064551E+02 +1.727918E+00 -4.666292E+00 +1.727918E+00 +8.629902E+02 +1.622184E+01 -4.666292E+00 +1.622184E+01 +4.052245E+02 
 +5.073093E+02 +3.955406E+00 -9.753082E+00 +3.955406E+00 +8.619375E+02 +2.239215E+01 -9.753082E+00 +2.239215E+01 +4.054790E+02 
 +5.111847E+02 -2.717325E+00 -5.018237E+00 -2.717325E+00 +8.730946E+02 +1.259713E+01 -5.018237E+00 +1.259713E+01 +4.004332E+02 
 +4.952439E+02 -1.011311E+01 +2.394347E+01 -1.011311E+01 +8.770822E+02 -2.510078E+00 +2.394347E+01 -2.510078E+00 +3.777968E+02 
 +4.904282E+02 -1.286822E+01 +2.347053E+01 -1.286822E+01 +8.835469E+02 -8.977480E+00 +2.347053E+01 -8.977480E+00 +3.890300E+02 
 +4.682624E+02 -8.254446E+00 +2.955839E+01 -8.254446E+00 +8.772224E+02 -6.900818E+00 +2.955839E+01 -6.900818E+00 +4.117518E+02 
 +4.677699E+02 -2.805867E+00 +2.926992E+01 -2.805867E+00 +8.793875E+02 -2.148945E+00 +2.926992E+01 -2.148945E+00 +4.172317E+02 
 +4.716430E+02 -1.108850E+00 +1.201037E+01 -1.108850E+00 +8.818424E+02 -2.633712E+00 +1.201037E+01 -2.633712E+00 +4.187666E+02 
 +4.647140E+02 +2.466541E+00 +1.948770E+00 +2.466541E+00 +8.639731E+02 -2.075739E+00 +1.948770E+00 -2.075739E+00 +4.153243E+02 
 +4.738361E+02 +9.673364E-01 +7.475212E+00 +9.673364E-01 +8.331864E+02 +1.408045E+00 +7.475212E+00 +1.408045E+00 +4.092138E+02 
 +4.871757E+02 -1.745599E+00 +5.346607E+00 -1.745599E+00 +8.278964E+02 +1.253775E+01 +5.346607E+00 +1.253775E+01 +3.980272E+02 
 +4.914115E+02 +8.068306E-01 +1.295963E+01 +8.068306E-01 +8.318586E+02 +2.245826E+01 +1.295963E+01 +2.245826E+01 +3.840112E+02 
 +4.960054E+02 -1.297524E-01 +1.360350E+01 -1.297524E-01 +8.345112E+02 +2.930678E+01 +1.360350E+01 +2.930678E+01 +3.855709E+02 
 +5.014128E+02 +5.407003E+00 +1.561251E+01 +5.407003E+00 +8.443496E+02 +2.094024E+01 +1.561251E+01 +2.094024E+01 +3.932306E+02 
 +5.100125E+02 +6.322992E+00 +1.478411E+01 +6.322992E+00 +8.592810E+02 +2.672506E+00 +1.478411E+01 +2.672506E+00 +3.884905E+02 
 +5.073425E+02 -1.224900E+01 +1.029586E+01 -1.224900E+01 +8.687686E+02 -7.031837E+00 +1.029586E+01 -7.031837E+00 +3.814971E+02 
 +4.872778E+02 -1.613494E+01 +1.177312E+01 -1.613494E+01 +8.696886E+02 -9.693560E+00 +1.177312E+01 -9.693560E+00 +3.782719E+02 
 +4.906688E+02 -8.724423E+00 +1.485455E+01 -8.724423E+00 +8.811812E+02 -8.210714E+00 +1.485455E+01 -8.210714E+00 +3.877591E+02 
 +4.974988E+02 -4.415534E+00 +1.838258E+01 -4.415534E+00 +8.831141E+02 -9.597960E+00 +1.838258E+01 -9.597960E+00 +3.887256E+02 
 +5.059873E+02 +1.014717E+01 +1.559093E+01 +1.014717E+01 +8.703372E+02 -6.689019E+00 +1.559093E+01 -6.689019E+00 +3.906137E+02 
 +5.376998E+02 +6.934011E+00 -1.329760E+01 +6.934011E+00 +8.756673E+02 +2.513605E+00 -1.329760E+01 +2.513605E+00 +4.047744E+02 
 +5.284391E+02 +2.320561E+00 -1.116061E+01 +2.320561E+00 +8.716870E+02 +7.394673E+00 -1.116061E+01 +7.394673E+00 +4.104320E+02 
 +5.265775E+02 +1.859433E+00 -1.271570E+01 +1.859433E+00 +8.627839E+02 +1.308214E+01 -1.271570E+01 +1.308214E+01 +4.198275E+02 
 +5.332087E+02 +3.385853E-01 -1.519142E+01 +3.385853E-01 +8.729404E+02 +1.152881E+01 -1.519142E+01 +1.152881E+01 +4.246788E+02 
 +4.899218E+02 -4.224073E+00 +1.406577E+01 -4.224073E+00 +8.755792E+02 -5.857420E+00 +1.406577E+01 -5.857420E+00 +4.090440E+02 
 +4.765480E+02 -9.180301E+00 +2.631567E+01 -9.180301E+00 +8.775241E+02 -1.120662E+01 +2.631567E+01 -1.120662E+01 +4.093900E+02 
 +4.711013E+02 -5.561294E+00 +3.037485E+01 -5.561294E+00 +8.743419E+02 -4.020918E+00 +3.037485E+01 -4.020918E+00 +4.173919E+02 
 +4.692819E+02 -4.031441E+00 +2.553648E+01 -4.031441E+00 +8.768542E+02 -3.481491E+00 +2.553648E+01 -3.481491E+00 +4.202961E+02 
 +4.830748E+02 -4.026754E+00 +3.993808E+00 -4.026754E+00 +8.738156E+02 -4.010799E+00 +3.993808E+00 -4.010799E+00 +4.220166E+02 
 +4.996579E+02 +2.856899E-01 -9.400686E+00 +2.856899E-01 +8.680232E+02 -6.591530E+00 -9.400686E+00 -6.591530E+00 +4.184419E+02 
 +4.995019E+02 +6.538229E+00 +5.725567E+00 +6.538229E+00 +8.754631E+02 -1.541175E+01 +5.725567E+00 -1.541175E+01 +4.200451E+02 
 +5.010591E+02 +8.300046E+00 +1.385822E+01 +8.300046E+00 +8.864588E+02 -9.937176E+00 +1.385822E+01 -9.937176E+00 +4.135206E+02 
 +5.028811E+02 +6.537279E+00 +1.651158E+01 +6.537279E+00 +8.877577E+02 +4.629603E+00 +1.651158E+01 +4.629603E+00 +3.910831E+02 
 +5.101992E+02 +5.687273E+00 +2.336813E+01 +5.687273E+00 +8.978838E+02 +6.446694E+00 +2.336813E+01 +6.446694E+00 +3.907100E+02 
 +5.103301E+02 +2.188300E+00 +2.459039E+01 +2.188300E+00 +8.979826E+02 +1.204905E+00 +2.459039E+01 +1.204905E+00 +3.906280E+02 
 +5.572417E+02 -9.444665E-01 +8.357070E+00 -9.444665E-01 +9.110613E+02 -8.674803E+00 +8.357070E+00 -8.674803E+00 +4.057743E+02 
 +5.112749E+02 -1.502702E+01 +1.014472E+01 -1.502702E+01 +8.747798E+02 -1.099994E+01 +1.014472E+01 -1.099994E+01 +3.814507E+02 
 +4.845841E+02 -1.159571E+01 +1.359658E+01 -1.159571E+01 +8.659644E+02 -6.833291E+00 +1.359658E+01 -6.833291E+00 +3.696425E+02 
 +4.811555E+02 -8.396688E+00 +2.082494E+01 -8.396688E+00 +8.712556E+02 -7.397009E+00 +2.082494E+01 -7.397009E+00 +3.747268E+02 
 +4.836349E+02 -1.940444E+00 +2.290715E+01 -1.940444E+00 +8.728421E+02 -7.979044E+00 +2.290715E+01 -7.979044E+00 +3.785459E+02 
 +4.813325E+02 +1.057512E+01 +2.384014E+01 +1.057512E+01 +8.607994E+02 -1.268620E+01 +2.384014E+01 -1.268620E+01 +3.789469E+02 
 +5.446098E+02 +1.221994E+01 -1.365112E+01 +1.221994E+01 +8.747449E+02 -1.189977E+01 -1.365112E+01 -1.189977E+01 +3.962518E+02 
 +5.312011E+02 +4.048247E+00 -1.020189E+01 +4.048247E+00 +8.600589E+02 +5.104724E+00 -1.020189E+01 +5.104724E+00 +3.914340E+02 
 +5.285176E+02 -1.461061E+00 -8.211714E+00 -1.461061E+00 +8.642728E+02 +1.656895E+01 -8.211714E+00 +1.656895E+01 +4.060508E+02 
 +5.279434E+02 -2.845552E+00 -8.107670E+00 -2.845552E+00 +8.659277E+02 +1.546432E+01 -8.107670E+00 +1.546432E+01 +4.193309E+02 
 +5.108260E+02 -2.944832E+00 +1.578067E+00 -2.944832E+00 +8.623515E+02 +7.924324E+00 +1.578067E+00 +7.924324E+00 +4.265987E+02 
 +4.525145E+02 -4.678766E+00 +2.972935E+01 -4.678766E+00 +8.546902E+02 -1.404999E+00 +2.972935E+01 -1.404999E+00 +4.161964E+02 
 +4.651475E+02 -5.407887E+00 +2.692810E+01 -5.407887E+00 +8.779216E+02 -4.492020E+00 +2.692810E+01 -4.492020E+00 +4.282832E+02 
 +4.664701E+02 -6.712174E+00 +2.041549E+01 -6.712174E+00 +8.765561E+02 -4.900512E+00 +2.041549E+01 -4.900512E+00 +4.253798E+02 
 +4.906826E+02 -6.691291E+00 -2.537874E+00 -6.691291E+00 +8.631546E+02 -2.481311E+00 -2.537874E+00 -2.481311E+00 +4.174555E+02 
 +5.015265E+02 -9.182300E+00 -1.012008E+01 -9.182300E+00 +8.582391E+02 +2.498016E+00 -1.012008E+01 +2.498016E+00 +4.005717E+02 
 +5.013649E+02 -5.313631E+00 -5.072463E+00 -5.313631E+00 +8.665695E+02 +6.108160E+00 -5.072463E+00 +6.108160E+00 +3.937411E+02 
 +4.861978E+02 +1.657910E+00 +1.523594E+01 +1.657910E+00 +8.764818E+02 +3.023832E+00 +1.523594E+01 +3.023832E+00 +3.875028E+02 
 +4.803163E+02 +3.217558E+00 +2.406674E+01 +3.217558E+00 +8.850804E+02 +7.877253E+00 +2.406674E+01 +7.877253E+00 +3.700683E+02 
 +4.860332E+02 +2.939604E+00 +3.112578E+01 +2.939604E+00 +8.896514E+02 +7.737607E+00 +3.112578E+01 +7.737607E+00 +3.623926E+02 
 +5.111171E+02 +9.694070E+00 +3.130469E+01 +9.694070E+00 +8.872299E+02 +1.796330E+00 +3.130469E+01 +1.796330E+00 +3.611736E+02 
 +5.562299E+02 +1.787952E+01 +7.750007E+00 +1.787952E+01 +8.859115E+02 -5.191413E+00 +7.750007E+00 -5.191413E+00 +3.750174E+02 
 +4.891577E+02 +8.999798E+00 +1.867831E+01 +8.999798E+00 +8.570215E+02 -1.223400E+01 +1.867831E+01 -1.223400E+01 +3.635751E+02 
 +4.810998E+02 -1.638194E+00 +1.821203E+01 -1.638194E+00 +8.686579E+02 -9.193351E+00 +1.821203E+01 -9.193351E+00 +3.682595E+02 
 +4.694699E+02 -2.864364E+00 +2.089867E+01 -2.864364E+00 +8.579497E+02 -8.242149E+00 +2.089867E+01 -8.242149E+00 +3.644738E+02 
 +4.761370E+02 +2.870681E+00 +2.202798E+01 +2.870681E+00 +8.662680E+02 -3.717648E+00 +2.202798E+01 -3.717648E+00 +3.816168E+02 
 +4.891388E+02 +8.361277E+00 +1.889954E+01 +8.361277E+00 +8.679027E+02 -6.762429E+00 +1.889954E+01 -6.762429E+00 +3.901070E+02 
 +5.356702E+02 +1.344165E+01 -6.321699E+00 +1.344165E+01 +8.682462E+02 -2.034140E+01 -6.321699E+00 -2.034140E+01 +3.918546E+02 
 +5.222155E+02 +9.549577E+00 -5.169842E-02 +9.549577E+00 +8.509249E+02 -1.107721E+01 -5.169842E-02 -1.107721E+01 +3.849909E+02 
 +5.227747E+02 +3.922042E-01 -2.572848E+00 +3.922042E-01 +8.624456E+02 +1.213680E+01 -2.572848E+00 +1.213680E+01 +3.994515E+02 
 +5.277670E+02 -1.849285E+00 -9.357376E-01 -1.849285E+00 +8.724332E+02 +2.036483E+01 -9.357376E-01 +2.036483E+01 +4.184117E+02 
 +5.374595E+02 -4.266678E+00 -2.811075E+00 -4.266678E+00 +8.869571E+02 +1.384620E+01 -2.811075E+00 +1.384620E+01 +4.461879E+02 
 +4.529220E+02 -7.319996E+00 +2.511764E+01 -7.319996E+00 +8.572571E+02 +3.320094E+00 +2.511764E+01 +3.320094E+00 +4.326807E+02 
 +4.697613E+02 -8.426563E+00 +1.659357E+01 -8.426563E+00 +8.799850E+02 -5.824946E+00 +1.659357E+01 -5.824946E+00 +4.412513E+02 
 +4.643640E+02 -4.763287E+00 +1.858787E+01 -4.763287E+00 +8.692237E+02 -5.606791E+00 +1.858787E+01 -5.606791E+00 +4.242435E+02 
 +4.828087E+02 -7.397150E+00 -5.739086E+00 -7.397150E+00 +8.633628E+02 +1.210203E+00 -5.739086E+00 +1.210203E+00 +4.051244E+02 
 +4.885980E+02 -8.686038E+00 -8.593305E+00 -8.686038E+00 +8.656430E+02 +2.615230E+00 -8.593305E+00 +2.615230E+00 +3.840353E+02 
 +4.893543E+02 -8.521888E+00 -7.068676E+00 -8.521888E+00 +8.596565E+02 +1.263845E+01 -7.068676E+00 +1.263845E+01 +3.713498E+02 
 +4.849840E+02 -4.148562E+00 +4.158274E+00 -4.148562E+00 +8.578769E+02 +1.937712E+01 +4.158274E+00 +1.937712E+01 +3.703163E+02 
 +4.794163E+02 +5.346114E+00 +2.851032E+01 +5.346114E+00 +8.657040E+02 +1.306594E+01 +2.851032E+01 +1.306594E+01 +3.632781E+02 
 +4.837358E+02 +1.168576E+01 +3.391858E+01 +1.168576E+01 +8.532037E+02 +9.204162E+00 +3.391858E+01 +9.204162E+00 +3.528340E+02 
 +5.225668E+02 +2.233451E+01 +2.677435E+01 +2.233451E+01 +8.573312E+02 +9.264448E+00 +2.677435E+01 +9.264448E+00 +3.506011E+02 
 +5.266224E+02 +1.243100E+01 +1.338625E+01 +1.243100E+01 +8.667171E+02 +8.538772E+00 +1.338625E+01 +8.538772E+00 +3.386642E+02 
 +4.850826E+02 +1.548743E+01 +2.200341E+01 +1.548743E+01 +8.598708E+02 +2.850981E+00 +2.200341E+01 +2.850981E+00 +3.456263E+02 
 +4.756810E+02 +7.026914E+00 +1.521470E+01 +7.026914E+00 +8.659342E+02 -4.422001E+00 +1.521470E+01 -4.422001E+00 +3.624141E+02 
 +4.523324E+02 +6.941505E+00 +2.116572E+01 +6.941505E+00 +8.533928E+02 -6.621765E+00 +2.116572E+01 -6.621765E+00 +3.562784E+02 
 +4.609832E+02 +8.013518E+00 +2.376463E+01 +8.013518E+00 +8.524394E+02 -1.030771E+01 +2.376463E+01 -1.030771E+01 +3.798684E+02 
 +4.863157E+02 +1.035763E+01 +1.494210E+01 +1.035763E+01 +8.451516E+02 -2.335710E+01 +1.494210E+01 -2.335710E+01 +3.855010E+02 
 +4.966123E+02 +1.063625E+01 +9.159527E+00 +1.063625E+01 +8.403851E+02 -2.612784E+01 +9.159527E+00 -2.612784E+01 +3.730452E+02 
 +5.117228E+02 +8.031431E+00 +8.859592E+00 +8.031431E+00 +8.521538E+02 -1.587653E+01 +8.859592E+00 -1.587653E+01 +3.846178E+02 
 +5.157206E+02 +9.085649E-01 +5.574138E+00 +9.085649E-01 +8.565395E+02 -2.275575E+00 +5.574138E+00 -2.275575E+00 +3.949672E+02 
 +5.236430E+02 -2.925173E+00 +2.799179E+00 -2.925173E+00 +8.702505E+02 +1.472934E+01 +2.799179E+00 +1.472934E+01 +4.121190E+02 
 +5.214952E+02 -3.546811E+00 +2.504227E+00 -3.546811E+00 +8.847854E+02 +1.923062E+01 +2.504227E+00 +1.923062E+01 +4.299693E+02 
 +4.564159E+02 -5.947167E+00 +2.116830E+01 -5.947167E+00 +8.550759E+02 +1.177173E+01 +2.116830E+01 +1.177173E+01 +4.218354E+02 
 +4.771423E+02 -6.811146E+00 +7.406674E+00 -6.811146E+00 +8.613938E+02 +1.010149E+01 +7.406674E+00 +1.010149E+01 +4.319445E+02 
 +4.690794E+02 -4.529950E+00 +1.007682E+01 -4.529950E+00 +8.536310E+02 +6.780652E+00 +1.007682E+01 +6.780652E+00 +4.163234E+02 
 +4.735621E+02 -7.665945E+00 -8.625936E+00 -7.665945E+00 +8.638348E+02 +5.937996E+00 -8.625936E+00 +5.937996E+00 +3.913147E+02 
 +4.850899E+02 -7.621956E+00 -1.074410E+01 -7.621956E+00 +8.737986E+02 +4.847651E+00 -1.074410E+01 +4.847651E+00 +3.665178E+02 
 +4.730401E+02 -8.190124E+00 -3.263070E+00 -8.190124E+00 +8.582774E+02 +7.715527E+00 -3.263070E+00 +7.715527E+00 +3.540841E+02 
 +4.798711E+02 -1.730909E-01 +1.027281E+00 -1.730909E-01 +8.401766E+02 +1.308280E+01 +1.027281E+00 +1.308280E+01 +3.621161E+02 
 +4.971788E+02 +1.092928E+01 +1.987496E+01 +1.092928E+01 +8.345024E+02 +8.876094E+00 +1.987496E+01 +8.876094E+00 +3.657544E+02 
 +5.005991E+02 +2.943025E+00 +2.845548E+01 +2.943025E+00 +8.409629E+02 +2.396802E+00 +2.845548E+01 +2.396802E+00 +3.568032E+02 
 +5.016379E+02 +7.160570E+00 +1.978337E+01 +7.160570E+00 +8.467999E+02 +2.109597E+00 +1.978337E+01 +2.109597E+00 +3.470621E+02 
 +4.881780E+02 -2.549604E+00 +1.557005E+01 -2.549604E+00 +8.403412E+02 +3.263465E+00 +1.557005E+01 +3.263465E+00 +3.330379E+02 
 +4.835067E+02 -1.315122E+00 +1.909779E+01 -1.315122E+00 +8.334395E+02 +6.204359E-01 +1.909779E+01 +6.204359E-01 +3.364465E+02 
 +4.831931E+02 -3.323209E+00 +1.335740E+01 -3.323209E+00 +8.418422E+02 -4.285765E+00 +1.335740E+01 -4.285765E+00 +3.481962E+02 
 +4.500137E+02 +6.970565E+00 +2.235247E+01 +6.970565E+00 +8.449076E+02 -2.834837E+00 +2.235247E+01 -2.834837E+00 +3.491074E+02 
 +4.660342E+02 +1.312692E+01 +2.070841E+01 +1.312692E+01 +8.611044E+02 -7.760024E+00 +2.070841E+01 -7.760024E+00 +3.816184E+02 
 +4.924724E+02 +1.252199E+01 +1.714383E+01 +1.252199E+01 +8.818095E+02 -1.494137E+01 +1.714383E+01 -1.494137E+01 +3.996117E+02 
 +4.904444E+02 +9.571653E+00 +1.897526E+01 +9.571653E+00 +8.740589E+02 -1.780532E+01 +1.897526E+01 -1.780532E+01 +3.934217E+02 
 +5.069278E+02 +7.977094E+00 +1.462255E+01 +7.977094E+00 +8.607576E+02 -1.979015E+01 +1.462255E+01 -1.979015E+01 +3.984799E+02 
 +4.927801E+02 -5.539583E-01 +1.547109E+01 -5.539583E-01 +8.411477E+02 -8.375350E+00 +1.547109E+01 -8.375350E+00 +3.907914E+02 
 +4.950036E+02 -7.118366E+00 +1.219660E+01 -7.118366E+00 +8.478904E+02 +1.312752E+01 +1.219660E+01 +1.312752E+01 +3.910031E+02 
 +5.163910E+02 -4.448795E+00 +5.448228E+00 -4.448795E+00 +8.776921E+02 +2.400099E+01 +5.448228E+00 +2.400099E+01 +4.053980E+02 
 +4.788345E+02 -9.260242E+00 +7.425621E+00 -9.260242E+00 +8.640832E+02 +1.844362E+01 +7.425621E+00 +1.844362E+01 +4.116500E+02 
 +4.863461E+02 -7.181040E+00 +2.380248E+00 -7.181040E+00 +8.614811E+02 +1.079864E+01 +2.380248E+00 +1.079864E+01 +4.225806E+02 
 +4.845311E+02 -6.475892E+00 -1.796810E+00 -6.475892E+00 +8.628630E+02 +8.389420E+00 -1.796810E+00 +8.389420E+00 +4.155815E+02 
 +4.829874E+02 -4.628420E+00 -1.124304E+01 -4.628420E+00 +8.691491E+02 +7.652169E+00 -1.124304E+01 +7.652169E+00 +3.922551E+02 
 +5.015300E+02 -4.435514E+00 -1.286835E+01 -4.435514E+00 +8.850667E+02 +3.660842E+00 -1.286835E+01 +3.660842E+00 +3.691952E+02 
 +4.785872E+02 -7.858716E+00 -1.541062E+00 -7.858716E+00 +8.594003E+02 +5.836380E+00 -1.541062E+00 +5.836380E+00 +3.598262E+02 
 +4.749045E+02 -2.116288E-01 +5.072517E+00 -2.116288E-01 +8.304821E+02 +6.882724E+00 +5.072517E+00 +6.882724E+00 +3.624874E+02 
 +5.083513E+02 +1.509650E+01 +1.348295E+01 +1.509650E+01 +8.367055E+02 +4.299704E+00 +1.348295E+01 +4.299704E+00 +3.704929E+02 
 +4.927910E+02 +3.255090E+00 +2.015047E+01 +3.255090E+00 +8.392281E+02 +5.016229E+00 +2.015047E+01 +5.016229E+00 +3.554808E+02 
 +4.825050E+02 +2.822676E+00 +1.812145E+01 +2.822676E+00 +8.419603E+02 +4.189248E+00 +1.812145E+01 +4.189248E+00 +3.473236E+02 
 +4.842814E+02 -1.075928E-01 +1.546839E+01 -1.075928E-01 +8.414953E+02 +2.055284E+00 +1.546839E+01 +2.055284E+00 +3.494298E+02 
 +4.868822E+02 -3.374596E+00 +1.631356E+01 -3.374596E+00 +8.371987E+02 +2.012340E+00 +1.631356E+01 +2.012340E+00 +3.452707E+02 
 +4.904951E+02 -5.250094E+00 +1.433567E+01 -5.250094E+00 +8.349544E+02 +1.188175E+00 +1.433567E+01 +1.188175E+00 +3.428559E+02 
 +4.770307E+02 -4.882335E+00 +1.490705E+01 -4.882335E+00 +8.301886E+02 -2.525528E+00 +1.490705E+01 -2.525528E+00 +3.461370E+02 
 +4.555301E+02 +5.178073E+00 +1.456354E+01 +5.178073E+00 +8.433800E+02 -8.685713E+00 +1.456354E+01 -8.685713E+00 +3.669168E+02 
 +4.729137E+02 +6.384578E+00 +1.684492E+01 +6.384578E+00 +8.745246E+02 -1.070209E+01 +1.684492E+01 -1.070209E+01 +3.917711E+02 
 +4.879628E+02 +5.007232E+00 +1.687905E+01 +5.007232E+00 +8.842796E+02 -1.224653E+01 +1.687905E+01 -1.224653E+01 +4.014760E+02 
 +5.059317E+02 +3.371688E+00 +1.842291E+01 +3.371688E+00 +8.932673E+02 -1.566483E+01 +1.842291E+01 -1.566483E+01 +4.165668E+02 
 +4.974521E+02 -2.516886E-01 +2.002363E+01 -2.516886E-01 +8.869696E+02 -1.623469E+01 +2.002363E+01 -1.623469E+01 +4.170616E+02 
 +4.921648E+02 -4.706587E+00 +1.692740E+01 -4.706587E+00 +8.742844E+02 -1.170374E+01 +1.692740E+01 -1.170374E+01 +4.015299E+02 
 +5.320121E+02 +2.887415E+00 +4.067981E-01 +2.887415E+00 +8.885748E+02 -3.700570E+00 +4.067981E-01 -3.700570E+00 +4.061690E+02 
 +5.068252E+02 -1.332257E+01 -7.724855E+00 -1.332257E+01 +8.763709E+02 +7.352042E+00 -7.724855E+00 +7.352042E+00 +4.117446E+02 
 +4.917293E+02 -1.020160E+01 -3.652370E+00 -1.020160E+01 +8.654394E+02 +1.282948E+01 -3.652370E+00 +1.282948E+01 +4.137138E+02 
 +4.803252E+02 -8.139352E+00 -6.688557E+00 -8.139352E+00 +8.583368E+02 +1.142600E+01 -6.688557E+00 +1.142600E+01 +4.085578E+02 
 +4.778152E+02 +1.942879E+00 -8.549561E+00 +1.942879E+00 +8.180478E+02 +5.100683E+00 -8.549561E+00 +5.100683E+00 +3.891223E+02 
 +4.812789E+02 -1.463800E+00 -1.059828E+01 -1.463800E+00 +8.124084E+02 +7.546344E+00 -1.059828E+01 +7.546344E+00 +3.713640E+02 
 +4.776396E+02 -4.843057E+00 +1.077887E+00 -4.843057E+00 +8.171286E+02 +2.326275E+00 +1.077887E+00 +2.326275E+00 +3.662581E+02 
 +4.534858E+02 -2.266992E+00 +1.232880E+01 -2.266992E+00 +8.114989E+02 +1.584040E+00 +1.232880E+01 +1.584040E+00 +3.587437E+02 
 +4.914361E+02 +1.539482E+01 +1.876007E+01 +1.539482E+01 +8.331005E+02 +4.889056E+00 +1.876007E+01 +4.889056E+00 +3.662906E+02 
 +4.838280E+02 +7.897543E+00 +2.110776E+01 +7.897543E+00 +8.402253E+02 +6.149128E+00 +2.110776E+01 +6.149128E+00 +3.549716E+02 
 +4.805113E+02 +2.124440E+00 +2.024275E+01 +2.124440E+00 +8.484067E+02 +6.620874E+00 +2.024275E+01 +6.620874E+00 +3.538537E+02 
 +4.832620E+02 -3.711119E+00 +1.623306E+01 -3.711119E+00 +8.449817E+02 +4.268446E+00 +1.623306E+01 +4.268446E+00 +3.514891E+02 
 +4.849709E+02 -5.988949E+00 +1.391023E+01 -5.988949E+00 +8.387942E+02 +4.036401E+00 +1.391023E+01 +4.036401E+00 +3.464310E+02 
 +4.819420E+02 -5.809168E+00 +1.197612E+01 -5.809168E+00 +8.290446E+02 +3.015181E+00 +1.197612E+01 +3.015181E+00 +3.380595E+02 
 +4.933948E+02 -6.922775E+00 +6.793082E+00 -6.922775E+00 +8.427230E+02 -5.385296E-01 +6.793082E+00 -5.385296E-01 +3.543053E+02 
 +4.599146E+02 -1.083535E+00 +1.435941E+01 -1.083535E+00 +8.475690E+02 -3.729469E+00 +1.435941E+01 -3.729469E+00 +3.709274E+02 
 +4.765634E+02 -5.579446E+00 +1.402964E+01 -5.579446E+00 +8.711429E+02 -7.760575E+00 +1.402964E+01 -7.760575E+00 +3.917827E+02 
 +4.874297E+02 -4.467032E+00 +1.731287E+01 -4.467032E+00 +8.834340E+02 -1.070398E+01 +1.731287E+01 -1.070398E+01 +3.956917E+02 
 +4.836868E+02 -3.611116E+00 +1.863328E+01 -3.611116E+00 +8.848861E+02 -9.658574E+00 +1.863328E+01 -9.658574E+00 +3.951851E+02 
 +4.848234E+02 +7.748422E-02 +1.653702E+01 +7.748422E-02 +8.862938E+02 -1.175453E+01 +1.653702E+01 -1.175453E+01 +3.976755E+02 
 +4.813732E+02 -4.083336E+00 +1.214183E+01 -4.083336E+00 +8.775928E+02 -1.358934E+01 +1.214183E+01 -1.358934E+01 +3.854734E+02 
 +5.276367E+02 +3.793963E+00 -3.512490E+00 +3.793963E+00 +8.927481E+02 -7.814273E+00 -3.512490E+00 -7.814273E+00 +3.992846E+02 
 +5.103822E+02 -2.018718E+01 -1.352502E+01 -2.018718E+01 +8.802225E+02 +1.176290E+00 -1.352502E+01 +1.176290E+00 +4.054337E+02 
 +5.048309E+02 -2.059786E+01 -1.061402E+01 -2.059786E+01 +8.789596E+02 +4.642408E+00 -1.061402E+01 +4.642408E+00 +4.131665E+02 
 +4.847236E+02 -1.944278E+01 -1.186916E+01 -1.944278E+01 +8.475251E+02 +2.983360E+00 -1.186916E+01 +2.983360E+00 +4.048249E+02 
 +5.070002E+02 +1.825217E+00 -7.039639E+00 +1.825217E+00 +8.345130E+02 +1.245596E+01 -7.039639E+00 +1.245596E+01 +4.078541E+02 
 +4.976393E+02 -2.638798E+00 -7.669761E+00 -2.638798E+00 +8.109932E+02 +7.727072E+00 -7.669761E+00 +7.727072E+00 +3.932553E+02 
 +4.759868E+02 -1.255061E+00 +2.475964E+00 -1.255061E+00 +8.022193E+02 +2.912068E+00 +2.475964E+00 +2.912068E+00 +3.721067E+02 
 +4.534332E+02 -1.690956E+00 +1.973686E+01 -1.690956E+00 +8.289250E+02 +5.481820E+00 +1.973686E+01 +5.481820E+00 +3.661562E+02 
 +4.766836E+02 +7.487980E+00 +2.502864E+01 +7.487980E+00 +8.560360E+02 +9.837507E+00 +2.502864E+01 +9.837507E+00 +3.702216E+02 
 +4.867773E+02 +4.245643E+00 +1.695501E+01 +4.245643E+00 +8.541855E+02 +1.014716E+01 +1.695501E+01 +1.014716E+01 +3.640730E+02 
 +4.919259E+02 -3.348193E+00 +1.342276E+01 -3.348193E+00 +8.615849E+02 +4.752608E+00 +1.342276E+01 +4.752608E+00 +3.668495E+02 
 +4.860278E+02 -8.184745E+00 +1.205120E+01 -8.184745E+00 +8.524611E+02 +6.451091E-02 +1.205120E+01 +6.451091E-02 +3.604906E+02 
 +4.806479E+02 -1.019660E+01 +1.316701E+01 -1.019660E+01 +8.383721E+02 +6.112218E+00 +1.316701E+01 +6.112218E+00 +3.481348E+02 
 +4.776223E+02 -1.126967E+01 +1.281857E+00 -1.126967E+01 +8.339185E+02 +4.072992E+00 +1.281857E+00 +4.072992E+00 +3.319658E+02 
 +4.778265E+02 -7.515413E+00 -1.458830E-01 -7.515413E+00 +8.498759E+02 -2.938622E+00 -1.458830E-01 -2.938622E+00 +3.443734E+02 
 +4.712167E+02 -4.045358E+00 +8.823870E+00 -4.045358E+00 +8.603776E+02 -4.435351E+00 +8.823870E+00 -4.435351E+00 +3.704579E+02 
 +4.815629E+02 -9.924785E+00 +1.617489E+01 -9.924785E+00 +8.704929E+02 -5.270619E+00 +1.617489E+01 -5.270619E+00 +3.934575E+02 
 +4.920022E+02 -9.760690E+00 +1.897539E+01 -9.760690E+00 +8.830942E+02 -7.321427E+00 +1.897539E+01 -7.321427E+00 +4.009534E+02 
 +4.746600E+02 -1.047453E+01 +1.940029E+01 -1.047453E+01 +8.753656E+02 -1.086461E+01 +1.940029E+01 -1.086461E+01 +3.798875E+02 
 +4.859980E+02 -3.359023E+00 +1.466283E+01 -3.359023E+00 +8.810341E+02 -1.411897E+01 +1.466283E+01 -1.411897E+01 +3.782674E+02 
 +4.857075E+02 -2.157332E+00 +1.037067E+01 -2.157332E+00 +8.856671E+02 -1.604071E+01 +1.037067E+01 -1.604071E+01 +3.715732E+02 
 +5.234776E+02 +5.627359E+00 -2.638010E+00 +5.627359E+00 +8.968807E+02 -1.633220E+01 -2.638010E+00 -1.633220E+01 +3.865298E+02 
 +5.073943E+02 -3.064550E+00 -1.302298E+01 -3.064550E+00 +8.757717E+02 -1.630036E+01 -1.302298E+01 -1.630036E+01 +3.924601E+02 
 +5.017789E+02 -2.960143E+00 -8.047262E+00 -2.960143E+00 +8.695744E+02 -5.534547E+00 -8.047262E+00 -5.534547E+00 +4.008893E+02 
 +4.932312E+02 -1.743733E+01 -1.104798E+01 -1.743733E+01 +8.470880E+02 +8.090891E+00 -1.104798E+01 +8.090891E+00 +4.020709E+02 
 +5.049097E+02 +1.038863E-01 -1.081465E+01 +1.038863E-01 +8.237143E+02 -1.877089E-01 -1.081465E+01 -1.877089E-01 +3.926318E+02 
 +4.972934E+02 +1.050642E+00 -5.811112E+00 +1.050642E+00 +8.226893E+02 +3.792509E+00 -5.811112E+00 +3.792509E+00 +3.881324E+02 
 +4.822600E+02 -1.224667E+00 +8.853661E+00 -1.224667E+00 +8.493789E+02 +9.965228E+00 +8.853661E+00 +9.965228E+00 +3.850716E+02 
 +4.731755E+02 -2.781489E+00 +1.773172E+01 -2.781489E+00 +8.519081E+02 +1.068760E+01 +1.773172E+01 +1.068760E+01 +3.785353E+02 
 +4.568062E+02 +4.459411E+00 +2.631594E+01 +4.459411E+00 +8.322999E+02 +8.254746E+00 +2.631594E+01 +8.254746E+00 +3.672375E+02 
 +4.893446E+02 +1.963140E+01 +4.850890E+00 +1.963140E+01 +8.393073E+02 +1.244483E+01 +4.850890E+00 +1.244483E+01 +3.757823E+02 
 +4.963098E+02 +1.922773E+01 +6.082700E+00 +1.922773E+01 +8.449503E+02 +1.844165E+01 +6.082700E+00 +1.844165E+01 +3.738117E+02 
 +4.707425E+02 +6.919497E+00 +5.113214E+00 +6.919497E+00 +8.420467E+02 +2.381442E+01 +5.113214E+00 +2.381442E+01 +3.637778E+02 
 +4.706544E+02 +9.345907E-01 +7.528665E+00 +9.345907E-01 +8.468527E+02 +2.314665E+01 +7.528665E+00 +2.314665E+01 +3.439884E+02 
 +4.713951E+02 +6.487737E-01 -1.819315E+01 +6.487737E-01 +8.576243E+02 +1.137123E+01 -1.819315E+01 +1.137123E+01 +3.218250E+02 
 +4.730782E+02 +3.952443E+00 -1.646942E+01 +3.952443E+00 +8.704975E+02 +3.907656E+00 -1.646942E+01 +3.907656E+00 +3.253263E+02 
 +4.709745E+02 +7.080565E-01 -1.189703E+01 +7.080565E-01 +8.697566E+02 +3.670219E+00 -1.189703E+01 +3.670219E+00 +3.419068E+02 
 +4.732989E+02 -7.373278E+00 +5.590816E+00 -7.373278E+00 +8.701009E+02 +1.243751E+00 +5.590816E+00 +1.243751E+00 +3.709701E+02 
 +4.857489E+02 -7.910322E+00 +7.465140E+00 -7.910322E+00 +8.764010E+02 -3.488448E+00 +7.465140E+00 -3.488448E+00 +3.834492E+02 
 +4.868648E+02 -6.513300E+00 +9.974319E+00 -6.513300E+00 +8.821460E+02 -1.082365E+01 +9.974319E+00 -1.082365E+01 +3.823006E+02 
 +4.926827E+02 -5.298325E+00 +1.545673E+01 -5.298325E+00 +8.932388E+02 -1.032692E+01 +1.545673E+01 -1.032692E+01 +3.961267E+02 
 +5.155486E+02 -6.045318E+00 +9.966317E+00 -6.045318E+00 +9.077771E+02 -1.144180E+01 +9.966317E+00 -1.144180E+01 +3.986908E+02 
 +5.360728E+02 -1.127745E+01 -2.815067E+00 -1.127745E+01 +9.081299E+02 -1.902244E+01 -2.815067E+00 -1.902244E+01 +3.931583E+02 
 +5.144388E+02 -1.664924E+01 -3.606176E+00 -1.664924E+01 +8.710976E+02 -1.914539E+01 -3.606176E+00 -1.914539E+01 +3.853461E+02 
 +4.928123E+02 -1.511519E+01 -2.487205E+00 -1.511519E+01 +8.388240E+02 -1.428964E+01 -2.487205E+00 -1.428964E+01 +3.814954E+02 
 +4.941768E+02 -1.972130E+01 -5.293378E+00 -1.972130E+01 +8.348812E+02 -7.304831E+00 -5.293378E+00 -7.304831E+00 +3.902498E+02 
 +5.202370E+02 -1.351060E+01 -8.462639E+00 -1.351060E+01 +8.605716E+02 -1.324744E+01 -8.462639E+00 -1.324744E+01 +3.928968E+02 
 +5.070142E+02 -1.968354E+00 +7.478154E+00 -1.968354E+00 +8.769511E+02 +5.468189E-01 +7.478154E+00 +5.468189E-01 +3.922237E+02 
 +4.897248E+02 -1.464496E+00 +1.320492E+01 -1.464496E+00 +8.632943E+02 +9.391260E+00 +1.320492E+01 +9.391260E+00 +3.818434E+02 
 +4.807449E+02 +1.426677E+00 +1.493596E+01 +1.426677E+00 +8.487000E+02 +8.657540E+00 +1.493596E+01 +8.657540E+00 +3.749785E+02 
 +4.675062E+02 +2.864845E+00 +2.470491E+01 +2.864845E+00 +8.347373E+02 +8.675883E+00 +2.470491E+01 +8.675883E+00 +3.729902E+02 
 +5.064043E+02 +1.237187E+01 -1.957783E+00 +1.237187E+01 +8.444215E+02 +1.035731E+01 -1.957783E+00 +1.035731E+01 +3.856089E+02 
 +5.045332E+02 +1.689147E+01 +4.859268E+00 +1.689147E+01 +8.464890E+02 +1.398106E+01 +4.859268E+00 +1.398106E+01 +3.807491E+02 
 +4.593412E+02 +5.624491E+00 +6.716194E+00 +5.624491E+00 +8.353775E+02 +2.174245E+01 +6.716194E+00 +2.174245E+01 +3.639126E+02 
 +4.565536E+02 +7.746198E+00 +3.338248E+00 +7.746198E+00 +8.467814E+02 +2.079322E+01 +3.338248E+00 +2.079322E+01 +3.461673E+02 
 +4.535387E+02 +8.207078E+00 -1.840615E+01 +8.207078E+00 +8.590874E+02 +8.287159E+00 -1.840615E+01 +8.287159E+00 +3.348204E+02 
 +4.650715E+02 +5.661580E+00 -1.703485E+01 +5.661580E+00 +8.704426E+02 +6.686237E+00 -1.703485E+01 +6.686237E+00 +3.343190E+02 
 +4.687260E+02 +1.047838E+00 -2.308441E+01 +1.047838E+00 +8.710888E+02 +1.116742E+01 -2.308441E+01 +1.116742E+01 +3.269665E+02 
 +4.710452E+02 -3.203482E-01 -1.669212E+01 -3.203482E-01 +8.738725E+02 +8.365280E+00 -1.669212E+01 +8.365280E+00 +3.402689E+02 
 +4.784152E+02 +2.257805E+00 -1.448300E+01 +2.257805E+00 +8.735889E+02 +6.355277E+00 -1.448300E+01 +6.355277E+00 +3.483483E+02 
 +4.902631E+02 +7.033597E+00 -1.215259E+01 +7.033597E+00 +8.866828E+02 +1.615610E+00 -1.215259E+01 +1.615610E+00 +3.700799E+02 
 +4.868750E+02 +1.487420E+00 +1.842518E+01 +1.487420E+00 +8.935410E+02 +5.551709E+00 +1.842518E+01 +5.551709E+00 +4.037854E+02 
 +5.171238E+02 -1.409262E+00 +5.155031E+00 -1.409262E+00 +8.782913E+02 +1.732448E+01 +5.155031E+00 +1.732448E+01 +4.109971E+02 
 +5.245573E+02 +1.600108E+00 -1.010179E+01 +1.600108E+00 +8.628471E+02 +8.660094E+00 -1.010179E+01 +8.660094E+00 +3.946314E+02 
 +5.112092E+02 -9.372604E+00 -4.924862E-01 -9.372604E+00 +8.633898E+02 -1.101970E+01 -4.924862E-01 -1.101970E+01 +3.944658E+02 
 +5.087950E+02 -1.472783E+01 -3.237448E+00 -1.472783E+01 +8.532422E+02 -1.579720E+01 -3.237448E+00 -1.579720E+01 +3.951603E+02 
 +5.059242E+02 -2.525719E+01 -5.051493E+00 -2.525719E+01 +8.399190E+02 -1.450334E+01 -5.051493E+00 -1.450334E+01 +3.892720E+02 
 +5.164693E+02 +5.361368E+00 -2.374336E+00 +5.361368E+00 +8.689946E+02 +1.321876E+00 -2.374336E+00 +1.321876E+00 +3.862781E+02 
 +5.115790E+02 +1.112311E+01 +8.649377E+00 +1.112311E+01 +8.784938E+02 +4.090819E+00 +8.649377E+00 +4.090819E+00 +3.866402E+02 
 +4.929250E+02 +5.391601E+00 +1.332854E+01 +5.391601E+00 +8.596504E+02 +3.252990E+00 +1.332854E+01 +3.252990E+00 +3.760382E+02 
 +4.785524E+02 +3.884257E+00 +1.580423E+01 +3.884257E+00 +8.487798E+02 +1.051158E+01 +1.580423E+01 +1.051158E+01 +3.655921E+02 
 +4.772083E+02 +3.003668E-01 +1.684023E+01 +3.003668E-01 +8.475322E+02 +7.142266E+00 +1.684023E+01 +7.142266E+00 +3.657512E+02 
 +5.007183E+02 +7.325147E+00 -1.350176E+00 +7.325147E+00 +8.458094E+02 +1.701935E+00 -1.350176E+00 +1.701935E+00 +3.713300E+02 
 +4.983229E+02 +1.846167E+01 +8.466138E+00 +1.846167E+01 +8.407059E+02 +7.976758E+00 +8.466138E+00 +7.976758E+00 +3.737872E+02 
 +4.632589E+02 +4.585472E+00 +1.261234E+01 +4.585472E+00 +8.419160E+02 +1.860366E+01 +1.261234E+01 +1.860366E+01 +3.645826E+02 
 +4.606772E+02 +5.952225E+00 -3.922971E+00 +5.952225E+00 +8.574968E+02 +1.464142E+01 -3.922971E+00 +1.464142E+01 +3.673703E+02 
 +4.448602E+02 +8.084718E+00 -6.969341E-01 +8.084718E+00 +8.598925E+02 +5.224255E+00 -6.969341E-01 +5.224255E+00 +3.741302E+02 
 +4.595987E+02 +3.876220E+00 +2.712964E+00 +3.876220E+00 +8.695082E+02 +9.363983E+00 +2.712964E+00 +9.363983E+00 +3.723127E+02 
 +4.947346E+02 +3.381761E+00 -2.146417E+01 +3.381761E+00 +8.829032E+02 +1.032548E+01 -2.146417E+01 +1.032548E+01 +3.548602E+02 
 +4.838926E+02 +4.417234E+00 -2.093813E+01 +4.417234E+00 +8.778453E+02 +7.471625E+00 -2.093813E+01 +7.471625E+00 +3.381185E+02 
 +4.812306E+02 +4.106727E+00 -1.767345E+01 +4.106727E+00 +8.805487E+02 +8.858179E+00 -1.767345E+01 +8.858179E+00 +3.470147E+02 
 +4.729247E+02 +8.200237E+00 -1.980299E+01 +8.200237E+00 +8.676384E+02 +1.286037E+01 -1.980299E+01 +1.286037E+01 +3.605892E+02 
 +4.850247E+02 +4.653860E+00 +1.907058E+01 +4.653860E+00 +8.610526E+02 +2.054276E+01 +1.907058E+01 +2.054276E+01 +3.904730E+02 
 +5.090039E+02 -4.349979E+00 -5.601959E-01 -4.349979E+00 +8.634640E+02 +1.943466E+01 -5.601959E-01 +1.943466E+01 +4.079932E+02 
 +5.246877E+02 +1.781154E+00 -1.648220E+01 +1.781154E+00 +8.573778E+02 +5.857424E+00 -1.648220E+01 +5.857424E+00 +4.017486E+02 
 +5.109232E+02 -7.514882E+00 -8.165907E+00 -7.514882E+00 +8.542784E+02 -9.645418E+00 -8.165907E+00 -9.645418E+00 +3.939722E+02 
 +5.064279E+02 -1.476674E+01 -2.819511E+00 -1.476674E+01 +8.565215E+02 -1.414008E+01 -2.819511E+00 -1.414008E+01 +3.971955E+02 
 +5.026730E+02 -2.087779E+01 -3.987437E+00 -2.087779E+01 +8.459475E+02 -8.714337E+00 -3.987437E+00 -8.714337E+00 +3.875531E+02 
 +5.083154E+02 +1.747251E+01 +5.804673E+00 +1.747251E+01 +8.539035E+02 -2.299161E+00 +5.804673E+00 -2.299161E+00 +3.660091E+02 
 +5.004320E+02 +1.710857E+01 +3.927383E+00 +1.710857E+01 +8.551454E+02 +3.927275E+00 +3.927383E+00 +3.927275E+00 +3.671854E+02 
 +4.781492E+02 +6.745317E+00 +1.867569E+01 +6.745317E+00 +8.598937E+02 +6.863275E+00 +1.867569E+01 +6.863275E+00 +3.716967E+02 
 +4.688526E+02 +5.235989E-01 +2.106652E+01 +5.235989E-01 +8.531636E+02 +1.046237E+01 +2.106652E+01 +1.046237E+01 +3.575920E+02 
 +4.942777E+02 +3.720183E-01 +6.272326E+00 +3.720183E-01 +8.639719E+02 +4.176214E+00 +6.272326E+00 +4.176214E+00 +3.576709E+02 
 +5.046376E+02 +2.831175E+00 +3.889230E+00 +2.831175E+00 +8.825357E+02 +8.204434E-01 +3.889230E+00 +8.204434E-01 +3.656833E+02 
 +5.003729E+02 +1.165193E+01 +1.182439E+01 +1.165193E+01 +8.760252E+02 +5.837080E+00 +1.182439E+01 +5.837080E+00 +3.715139E+02 
 +4.762872E+02 +7.128195E+00 +1.247861E+01 +7.128195E+00 +8.578771E+02 +9.479691E+00 +1.247861E+01 +9.479691E+00 +3.566305E+02 
 +4.620662E+02 +8.059994E+00 -2.325227E+01 +8.059994E+00 +8.645603E+02 +6.910225E+00 -2.325227E+01 +6.910225E+00 +3.609641E+02 
 +4.414404E+02 +9.477225E+00 +7.004827E+00 +9.477225E+00 +8.638070E+02 +4.727800E+00 +7.004827E+00 +4.727800E+00 +3.887387E+02 
 +4.580331E+02 +5.897898E+00 +1.040032E+01 +5.897898E+00 +8.703738E+02 +5.364948E+00 +1.040032E+01 +5.364948E+00 +3.926649E+02 
 +5.153628E+02 +5.339303E+00 -2.256313E+01 +5.339303E+00 +8.918414E+02 +2.538156E+00 -2.256313E+01 +2.538156E+00 +3.729868E+02 
 +4.963390E+02 +4.568263E+00 -1.662142E+01 +4.568263E+00 +8.807134E+02 +3.780790E+00 -1.662142E+01 +3.780790E+00 +3.443431E+02 
 +4.871688E+02 +4.478147E+00 -1.100875E+01 +4.478147E+00 +8.860544E+02 +7.514302E+00 -1.100875E+01 +7.514302E+00 +3.558016E+02 
 +4.721869E+02 +1.106050E+00 -1.584778E+01 +1.106050E+00 +8.698484E+02 +1.391853E+01 -1.584778E+01 +1.391853E+01 +3.673817E+02 
 +5.039638E+02 -3.799633E+00 +2.093876E+01 -3.799633E+00 +8.602675E+02 +2.177932E+01 +2.093876E+01 +2.177932E+01 +3.944011E+02 
 +5.002105E+02 -5.840759E+00 +9.581206E-01 -5.840759E+00 +8.450142E+02 +1.966337E+01 +9.581206E-01 +1.966337E+01 +3.988377E+02 
 +5.042514E+02 +2.391955E+00 -1.123855E+01 +2.391955E+00 +8.372715E+02 +1.104502E+01 -1.123855E+01 +1.104502E+01 +3.925670E+02 
 +5.100306E+02 +3.160344E+00 -1.646850E+01 +3.160344E+00 +8.362580E+02 -5.250112E-01 -1.646850E+01 -5.250112E-01 +3.871487E+02 
 +5.028216E+02 -1.261493E+01 -1.176914E+01 -1.261493E+01 +8.464162E+02 -1.874333E+01 -1.176914E+01 -1.874333E+01 +3.897535E+02 
 +5.006813E+02 -1.479596E+01 +7.973128E+00 -1.479596E+01 +8.518244E+02 -1.795155E+01 +7.973128E+00 -1.795155E+01 +3.798783E+02 
 +5.091269E+02 +5.917450E+00 +1.909246E+01 +5.917450E+00 +8.948304E+02 -6.052766E+00 +1.909246E+01 -6.052766E+00 +3.599464E+02 
 +4.991576E+02 +5.166974E-01 +1.407531E+01 +5.166974E-01 +8.824482E+02 +5.196521E+00 +1.407531E+01 +5.196521E+00 +3.604577E+02 
 +4.847464E+02 -5.742558E+00 +2.286526E+01 -5.742558E+00 +8.782070E+02 +4.588767E+00 +2.286526E+01 +4.588767E+00 +3.719014E+02 
 +4.802290E+02 -8.505734E+00 +2.722674E+01 -8.505734E+00 +8.734238E+02 +1.175423E+00 +2.722674E+01 +1.175423E+00 +3.611153E+02 
 +4.959723E+02 -3.582777E+00 +1.250746E+01 -3.582777E+00 +8.754319E+02 +7.584227E+00 +1.250746E+01 +7.584227E+00 +3.367895E+02 
 +4.901656E+02 +1.361060E+00 +8.010314E+00 +1.361060E+00 +8.750351E+02 +7.341298E+00 +8.010314E+00 +7.341298E+00 +3.259416E+02 
 +4.872207E+02 +9.843830E+00 +1.258096E+01 +9.843830E+00 +8.743739E+02 -1.115143E+00 +1.258096E+01 -1.115143E+00 +3.381687E+02 
 +4.755304E+02 +1.404106E+01 +4.286555E+00 +1.404106E+01 +8.631454E+02 -7.658774E+00 +4.286555E+00 -7.658774E+00 +3.380039E+02 
 +4.553094E+02 +8.781645E+00 -2.844105E+01 +8.781645E+00 +8.616563E+02 -1.907114E+00 -2.844105E+01 -1.907114E+00 +3.519008E+02 
 +4.436659E+02 +7.403344E+00 -5.839087E-01 +7.403344E+00 +8.652158E+02 +6.421005E+00 -5.839087E-01 +6.421005E+00 +3.861032E+02 
 +4.668443E+02 +9.017593E+00 +6.363091E-01 +9.017593E+00 +8.746033E+02 +1.201053E+00 +6.363091E-01 +1.201053E+00 +3.915734E+02 
 +5.118504E+02 +9.488919E+00 -2.366115E+01 +9.488919E+00 +8.919969E+02 -1.101877E+00 -2.366115E+01 -1.101877E+00 +3.695393E+02 
 +5.002424E+02 +6.184536E+00 -1.560497E+01 +6.184536E+00 +8.808554E+02 +2.702932E+00 -1.560497E+01 +2.702932E+00 +3.458636E+02 
 +4.999720E+02 +8.308913E+00 -1.163876E+01 +8.308913E+00 +8.921354E+02 +3.658025E+00 -1.163876E+01 +3.658025E+00 +3.609463E+02 
 +5.006862E+02 -2.832165E+00 -2.604079E+00 -2.832165E+00 +8.911408E+02 +1.479916E+01 -2.604079E+00 +1.479916E+01 +3.802567E+02 
 +5.145359E+02 -4.829808E+00 +2.581834E+01 -4.829808E+00 +8.679893E+02 +2.587512E+01 +2.581834E+01 +2.587512E+01 +3.991213E+02 
 +5.031752E+02 +6.086578E-01 +8.048186E+00 +6.086578E-01 +8.446383E+02 +2.104454E+01 +8.048186E+00 +2.104454E+01 +3.999399E+02 
 +5.005481E+02 -7.480330E-01 -2.875740E+00 -7.480330E-01 +8.416758E+02 +1.289003E+01 -2.875740E+00 +1.289003E+01 +3.958438E+02 
 +5.098575E+02 +2.834098E+00 -1.042631E+01 +2.834098E+00 +8.314708E+02 +1.063014E+01 -1.042631E+01 +1.063014E+01 +3.873223E+02 
 +5.089431E+02 +4.898275E-01 -2.284133E+01 +4.898275E-01 +8.379098E+02 +9.747948E+00 -2.284133E+01 +9.747948E+00 +3.723869E+02 
 +4.988992E+02 -3.032646E+00 +6.108631E+00 -3.032646E+00 +8.751460E+02 -3.683640E+00 +6.108631E+00 -3.683640E+00 +3.602975E+02 
 +4.763965E+02 -5.879409E+00 +2.227452E+01 -5.879409E+00 +8.676418E+02 +1.540192E+01 +2.227452E+01 +1.540192E+01 +3.208754E+02 
 +4.915341E+02 -5.807520E+00 +2.228853E+01 -5.807520E+00 +8.846644E+02 +1.380074E+01 +2.228853E+01 +1.380074E+01 +3.452831E+02 
 +5.024558E+02 -1.237182E+01 +3.007678E+01 -1.237182E+01 +8.915031E+02 +5.646472E+00 +3.007678E+01 +5.646472E+00 +3.650907E+02 
 +5.019878E+02 -1.404844E+01 +2.625116E+01 -1.404844E+01 +8.946233E+02 -8.017907E+00 +2.625116E+01 -8.017907E+00 +3.541125E+02 
 +4.859358E+02 -1.352229E+01 +7.717900E+00 -1.352229E+01 +8.885795E+02 -1.813947E+01 +7.717900E+00 -1.813947E+01 +2.949267E+02 
 +4.957836E+02 -7.286161E+00 +7.829052E+00 -7.286161E+00 +8.979399E+02 -1.844271E+01 +7.829052E+00 -1.844271E+01 +2.877434E+02 
 +4.967601E+02 -2.790080E+00 +9.711739E+00 -2.790080E+00 +8.996537E+02 -9.150275E+00 +9.711739E+00 -9.150275E+00 +3.284074E+02 
 +4.333730E+02 -4.576523E+00 +2.489947E+00 -4.576523E+00 +8.589514E+02 -2.796926E+00 +2.489947E+00 -2.796926E+00 +3.541612E+02 
 +4.579004E+02 -7.439455E+00 -1.535490E+01 -7.439455E+00 +8.685238E+02 -5.910483E+00 -1.535490E+01 -5.910483E+00 +3.918454E+02 
 +4.649634E+02 -6.223870E+00 -7.069937E+00 -6.223870E+00 +8.690894E+02 -9.964701E+00 -7.069937E+00 -9.964701E+00 +3.902933E+02 
 +4.669014E+02 +2.062713E+00 -1.334537E+01 +2.062713E+00 +8.629431E+02 -1.337575E+01 -1.334537E+01 -1.337575E+01 +3.807547E+02 
 +4.797942E+02 +4.794450E+00 -1.983158E+01 +4.794450E+00 +8.644988E+02 -9.802717E+00 -1.983158E+01 -9.802717E+00 +3.671557E+02 
 +4.895967E+02 +1.012074E+01 -1.800916E+01 +1.012074E+01 +8.715581E+02 -2.584211E+00 -1.800916E+01 -2.584211E+00 +3.611261E+02 
 +5.064747E+02 +5.473591E+00 -7.298046E+00 +5.473591E+00 +8.737447E+02 -2.981120E+00 -7.298046E+00 -2.981120E+00 +3.844809E+02 
 +5.232136E+02 -8.914141E+00 +1.637287E+01 -8.914141E+00 +8.630424E+02 -3.480631E-01 +1.637287E+01 -3.480631E-01 +3.976853E+02 
 +5.279710E+02 -8.616217E+00 +2.115990E+01 -8.616217E+00 +8.628405E+02 +2.187274E+00 +2.115990E+01 +2.187274E+00 +3.892242E+02 
 +5.315382E+02 -6.522946E+00 +2.161982E+01 -6.522946E+00 +8.688057E+02 +1.147399E+00 +2.161982E+01 +1.147399E+00 +3.988252E+02 
 +5.229161E+02 -3.514998E+00 +4.908817E+00 -3.514998E+00 +8.659682E+02 -5.520238E+00 +4.908817E+00 -5.520238E+00 +3.822368E+02 
 +4.964156E+02 +5.755134E+00 +1.254382E+01 +5.755134E+00 +8.678545E+02 -5.366796E+00 +1.254382E+01 -5.366796E+00 +3.409579E+02 
 +5.008947E+02 -4.003875E+00 -2.486809E+01 -4.003875E+00 +8.818717E+02 +8.121756E+00 -2.486809E+01 +8.121756E+00 +3.297809E+02 
 +4.843254E+02 -1.282792E+01 -1.157964E+01 -1.282792E+01 +8.645331E+02 +1.523713E+01 -1.157964E+01 +1.523713E+01 +3.122943E+02 
 +4.684021E+02 -1.345377E+00 +1.501802E+01 -1.345377E+00 +8.699901E+02 +2.562889E+01 +1.501802E+01 +2.562889E+01 +3.145621E+02 
 +4.886913E+02 -5.469736E+00 +1.456906E+01 -5.469736E+00 +8.871062E+02 +1.302084E+01 +1.456906E+01 +1.302084E+01 +3.638454E+02 
 +4.971533E+02 -1.165318E+01 +2.765422E+01 -1.165318E+01 +8.940229E+02 +5.093999E+00 +2.765422E+01 +5.093999E+00 +3.812774E+02 
 +5.064208E+02 -1.404527E+01 +1.852470E+01 -1.404527E+01 +8.961690E+02 -9.682577E+00 +1.852470E+01 -9.682577E+00 +3.507983E+02 
 +4.794754E+02 -7.666116E+00 +1.055510E+01 -7.666116E+00 +8.774187E+02 -1.865176E+01 +1.055510E+01 -1.865176E+01 +2.803472E+02 
 +4.917130E+02 -6.687245E+00 +1.010808E+01 -6.687245E+00 +8.851575E+02 -1.504498E+01 +1.010808E+01 -1.504498E+01 +2.716177E+02 
 +5.015423E+02 -2.984524E+00 +1.192842E+01 -2.984524E+00 +8.941334E+02 -1.085539E+01 +1.192842E+01 -1.085539E+01 +3.177650E+02 
 +4.185477E+02 -8.794348E-01 +2.661634E+00 -8.794348E-01 +8.547334E+02 -4.486603E+00 +2.661634E+00 -4.486603E+00 +3.540661E+02 
 +4.355511E+02 +1.010575E+00 -1.027078E+01 +1.010575E+00 +8.536635E+02 -1.877386E+00 -1.027078E+01 -1.877386E+00 +3.880033E+02 
 +4.862624E+02 -3.418187E+00 -7.378002E+00 -3.418187E+00 +8.669210E+02 -8.054768E+00 -7.378002E+00 -8.054768E+00 +3.853269E+02 
 +4.736908E+02 +3.458130E+00 -2.246406E+01 +3.458130E+00 +8.649430E+02 -1.472871E+01 -2.246406E+01 -1.472871E+01 +3.731918E+02 
 +4.933872E+02 +1.775046E+00 -1.917909E+01 +1.775046E+00 +8.806526E+02 -1.857744E+01 -1.917909E+01 -1.857744E+01 +3.802056E+02 
 +5.066809E+02 +4.989627E+00 -1.032933E+01 +4.989627E+00 +8.777020E+02 -1.656810E+01 -1.032933E+01 -1.656810E+01 +3.887105E+02 
 +5.186159E+02 -9.097068E+00 +1.141544E+01 -9.097068E+00 +8.598712E+02 -9.871954E+00 +1.141544E+01 -9.871954E+00 +4.119094E+02 
 +5.344301E+02 -1.342200E+01 +2.627146E+01 -1.342200E+01 +8.643033E+02 -1.171625E+01 +2.627146E+01 -1.171625E+01 +4.173217E+02 
 +5.400938E+02 -1.454583E+01 +2.818792E+01 -1.454583E+01 +8.739470E+02 -1.266104E+01 +2.818792E+01 -1.266104E+01 +4.013628E+02 
 +5.335239E+02 -1.544845E+01 +2.696498E+01 -1.544845E+01 +8.662441E+02 -1.255044E+01 +2.696498E+01 -1.255044E+01 +4.001356E+02 
 +5.030361E+02 -1.260413E+01 +2.327380E+01 -1.260413E+01 +8.571678E+02 -8.442879E+00 +2.327380E+01 -8.442879E+00 +3.657075E+02 
 +4.747267E+02 -1.901846E+00 +3.016800E+01 -1.901846E+00 +8.602613E+02 +2.288213E+00 +3.016800E+01 +2.288213E+00 +3.204996E+02 
 +4.841459E+02 -7.992537E+00 -7.305921E+00 -7.992537E+00 +8.760357E+02 +1.625345E+01 -7.305921E+00 +1.625345E+01 +3.115043E+02 
 +4.859987E+02 -1.082371E+01 -7.683378E+00 -1.082371E+01 +8.765131E+02 +2.923969E+01 -7.683378E+00 +2.923969E+01 +3.003629E+02 
 +4.690326E+02 +5.385925E+00 +1.803346E+01 +5.385925E+00 +8.668553E+02 +3.003484E+01 +1.803346E+01 +3.003484E+01 +3.421983E+02 
 +4.914520E+02 +4.312028E+00 +1.834442E+01 +4.312028E+00 +8.870062E+02 +2.516155E+01 +1.834442E+01 +2.516155E+01 +3.919949E+02 
 +4.866923E+02 +2.301777E+00 +3.444533E+01 +2.301777E+00 +8.906532E+02 +1.659841E+01 +3.444533E+01 +1.659841E+01 +4.074461E+02 
 +4.994231E+02 -2.632318E+00 +5.992496E+00 -2.632318E+00 +8.931163E+02 +6.996782E+00 +5.992496E+00 +6.996782E+00 +3.601902E+02 
 +4.814687E+02 -3.441381E+00 +4.910099E+00 -3.441381E+00 +8.736096E+02 -1.978932E+00 +4.910099E+00 -1.978932E+00 +2.883464E+02 
 +4.927749E+02 -7.237499E+00 +9.234790E+00 -7.237499E+00 +8.745693E+02 -8.159904E+00 +9.234790E+00 -8.159904E+00 +2.751766E+02 
 +5.033448E+02 -3.530837E+00 +1.326240E+01 -3.530837E+00 +8.835525E+02 -1.022200E+01 +1.326240E+01 -1.022200E+01 +3.111544E+02 
 +4.254609E+02 -1.235470E+00 +3.331598E+00 -1.235470E+00 +8.517797E+02 -7.398597E+00 +3.331598E+00 -7.398597E+00 +3.483830E+02 
 +4.276037E+02 +2.017975E+00 -5.450700E+00 +2.017975E+00 +8.511325E+02 -3.406117E+00 -5.450700E+00 -3.406117E+00 +3.850732E+02 
 +4.775456E+02 +5.247948E+00 -1.124538E+01 +5.247948E+00 +8.694280E+02 -1.023001E+01 -1.124538E+01 -1.023001E+01 +3.939438E+02 
 +5.017433E+02 +8.162371E+00 -8.980790E+00 +8.162371E+00 +8.851215E+02 -1.928859E+01 -8.980790E+00 -1.928859E+01 +3.942314E+02 
 +5.127231E+02 +9.566273E+00 -9.901742E+00 +9.566273E+00 +8.826602E+02 -1.934781E+01 -9.901742E+00 -1.934781E+01 +3.927017E+02 
 +5.271362E+02 +1.766591E+01 +6.351324E+00 +1.766591E+01 +8.704739E+02 -1.493128E+01 +6.351324E+00 -1.493128E+01 +4.013335E+02 
 +5.259699E+02 +9.664580E+00 +1.342590E+01 +9.664580E+00 +8.711557E+02 -1.180246E+01 +1.342590E+01 -1.180246E+01 +4.089383E+02 
 +5.339659E+02 +4.869218E+00 +1.592297E+01 +4.869218E+00 +8.862558E+02 -1.798048E+01 +1.592297E+01 -1.798048E+01 +4.209844E+02 
 +5.425564E+02 -1.232897E+01 +2.752506E+01 -1.232897E+01 +8.801426E+02 -2.626904E+01 +2.752506E+01 -2.626904E+01 +4.129893E+02 
 +5.253548E+02 -1.185116E+01 +2.190202E+01 -1.185116E+01 +8.714315E+02 -1.962360E+01 +2.190202E+01 -1.962360E+01 +3.876215E+02 
 +4.841835E+02 -1.836440E+00 +3.855215E+01 -1.836440E+00 +8.705214E+02 -3.865416E+00 +3.855215E+01 -3.865416E+00 +3.540558E+02 
 +4.775303E+02 +1.173324E+00 +3.300405E+01 +1.173324E+00 +8.683640E+02 +1.020997E+01 +3.300405E+01 +1.020997E+01 +3.316076E+02 
 +4.946833E+02 -7.319082E+00 -8.030728E+00 -7.319082E+00 +8.711393E+02 +2.225830E+01 -8.030728E+00 +2.225830E+01 +3.300899E+02 
 +5.011401E+02 -8.732891E+00 -9.144363E+00 -8.732891E+00 +8.802898E+02 +2.872623E+01 -9.144363E+00 +2.872623E+01 +3.369285E+02 
 +4.768189E+02 +5.762239E+00 +2.055098E+01 +5.762239E+00 +8.685742E+02 +2.921971E+01 +2.055098E+01 +2.921971E+01 +3.681524E+02 
 +4.899353E+02 +3.000069E+00 +1.968467E+01 +3.000069E+00 +8.851400E+02 +2.395533E+01 +1.968467E+01 +2.395533E+01 +3.910878E+02 
 +4.930306E+02 +6.508612E+00 +3.210071E+01 +6.508612E+00 +8.953359E+02 +1.657080E+01 +3.210071E+01 +1.657080E+01 +4.168107E+02 
 +4.709172E+02 +5.866110E+00 +6.606684E+00 +5.866110E+00 +8.864387E+02 +8.809493E+00 +6.606684E+00 +8.809493E+00 +3.673292E+02 
 +4.806100E+02 -1.444147E+00 -3.491205E+00 -1.444147E+00 +8.809655E+02 +2.318728E+00 -3.491205E+00 +2.318728E+00 +2.908982E+02 
 +4.909636E+02 -1.057855E+01 +8.413569E+00 -1.057855E+01 +8.732319E+02 -2.726742E+00 +8.413569E+00 -2.726742E+00 +2.779178E+02 
 +5.028985E+02 -8.300304E+00 +1.172999E+01 -8.300304E+00 +8.762367E+02 -4.877689E+00 +1.172999E+01 -4.877689E+00 +3.040380E+02 
 +4.401446E+02 -2.625439E+00 +5.149536E+00 -2.625439E+00 +8.478600E+02 -7.495522E+00 +5.149536E+00 -7.495522E+00 +3.202654E+02 
 +4.395756E+02 +8.567320E-01 -4.365340E+00 +8.567320E-01 +8.581508E+02 -1.013395E+01 -4.365340E+00 -1.013395E+01 +3.739361E+02 
 +4.390429E+02 +2.199408E+00 -4.373788E+00 +2.199408E+00 +8.431513E+02 -1.072552E+01 -4.373788E+00 -1.072552E+01 +3.908766E+02 
 +5.202345E+02 +1.417100E+01 +1.270768E+01 +1.417100E+01 +8.546746E+02 -1.430304E+01 +1.270768E+01 -1.430304E+01 +4.042127E+02 
 +5.247951E+02 +1.837943E+01 +7.779862E+00 +1.837943E+01 +8.454621E+02 -1.386513E+01 +7.779862E+00 -1.386513E+01 +3.836976E+02 
 +5.283833E+02 +2.116761E+01 +1.043750E+01 +2.116761E+01 +8.601868E+02 -1.523504E+01 +1.043750E+01 -1.523504E+01 +3.790305E+02 
 +5.249563E+02 +1.522631E+01 +6.060539E+00 +1.522631E+01 +8.761063E+02 -1.974508E+01 +6.060539E+00 -1.974508E+01 +3.788705E+02 
 +5.326619E+02 +1.254163E+01 +3.012881E+00 +1.254163E+01 +8.909449E+02 -1.627206E+01 +3.012881E+00 -1.627206E+01 +4.135185E+02 
 +5.424942E+02 +6.246694E+00 +1.368440E+01 +6.246694E+00 +9.054011E+02 -1.904665E+01 +1.368440E+01 -1.904665E+01 +4.256157E+02 
 +5.031696E+02 +6.156990E+00 +3.021557E+01 +6.156990E+00 +8.908949E+02 -1.264089E+01 +3.021557E+01 -1.264089E+01 +3.642579E+02 
 +4.703774E+02 +1.055785E+01 +4.384212E+01 +1.055785E+01 +8.729320E+02 -2.550053E+00 +4.384212E+01 -2.550053E+00 +3.342560E+02 
 +4.649882E+02 +6.754919E+00 +3.624590E+01 +6.754919E+00 +8.625017E+02 +4.269274E+00 +3.624590E+01 +4.269274E+00 +3.282517E+02 
 +4.896914E+02 -1.053783E+00 -2.787918E+00 -1.053783E+00 +8.653803E+02 +2.184962E+01 -2.787918E+00 +2.184962E+01 +3.320756E+02 
 +5.162636E+02 -5.977293E+00 -1.126433E+01 -5.977293E+00 +8.804770E+02 +3.266824E+01 -1.126433E+01 +3.266824E+01 +3.646042E+02 
 +4.881354E+02 +5.719536E+00 +1.737822E+01 +5.719536E+00 +8.782746E+02 +3.082806E+01 +1.737822E+01 +3.082806E+01 +3.849242E+02 
 +4.963638E+02 +3.172767E+00 +2.005900E+01 +3.172767E+00 +8.856723E+02 +1.527570E+01 +2.005900E+01 +1.527570E+01 +3.900794E+02 
 +4.896354E+02 +8.333688E+00 +2.821739E+01 +8.333688E+00 +8.933423E+02 +7.071339E+00 +2.821739E+01 +7.071339E+00 +4.071700E+02 
 +4.598870E+02 +1.052282E+01 +7.909620E+00 +1.052282E+01 +8.873603E+02 +2.664024E+00 +7.909620E+00 +2.664024E+00 +3.718137E+02 
 +4.925117E+02 +2.719481E+00 -5.344781E+00 +2.719481E+00 +9.005971E+02 +9.067509E+00 -5.344781E+00 +9.067509E+00 +3.308622E+02 
 +5.004648E+02 -9.490290E+00 +8.025346E+00 -9.490290E+00 +8.946124E+02 +1.398442E+01 +8.025346E+00 +1.398442E+01 +3.267577E+02 
 +4.918943E+02 -8.866997E+00 +7.669073E+00 -8.866997E+00 +8.749481E+02 +5.943359E+00 +7.669073E+00 +5.943359E+00 +3.082246E+02 
 +4.637871E+02 -9.017735E+00 +8.382797E+00 -9.017735E+00 +8.552054E+02 -4.517346E+00 +8.382797E+00 -4.517346E+00 +3.002734E+02 
 +4.460106E+02 -7.987678E+00 +1.981622E+00 -7.987678E+00 +8.557648E+02 -6.552961E+00 +1.981622E+00 -6.552961E+00 +3.565348E+02 
 +4.635561E+02 -4.333180E+00 +5.309543E+00 -4.333180E+00 +8.549121E+02 -5.128638E+00 +5.309543E+00 -5.128638E+00 +3.987396E+02 
 +5.438994E+02 +1.380555E+01 +1.749404E+01 +1.380555E+01 +8.658733E+02 -7.530205E+00 +1.749404E+01 -7.530205E+00 +4.095635E+02 
 +5.387766E+02 +1.846987E+01 +1.358067E+01 +1.846987E+01 +8.521385E+02 -1.338830E+01 +1.358067E+01 -1.338830E+01 +3.787667E+02 
 +5.274353E+02 +1.980654E+01 +7.979716E+00 +1.980654E+01 +8.580552E+02 -2.209229E+01 +7.979716E+00 -2.209229E+01 +3.613705E+02 
 +5.271978E+02 +1.802912E+01 +4.185847E+00 +1.802912E+01 +8.660960E+02 -2.294596E+01 +4.185847E+00 -2.294596E+01 +3.561617E+02 
 +5.457443E+02 +1.172650E+01 -1.230164E+00 +1.172650E+01 +8.987231E+02 -1.526894E+01 -1.230164E+00 -1.526894E+01 +3.995456E+02 
 +5.164188E+02 +3.927534E+00 +8.665589E+00 +3.927534E+00 +9.034596E+02 -9.435428E+00 +8.665589E+00 -9.435428E+00 +4.028110E+02 
 +4.612175E+02 +5.075644E+00 +2.938828E+01 +5.075644E+00 +8.786060E+02 -7.432246E+00 +2.938828E+01 -7.432246E+00 +3.308713E+02 
 +4.677959E+02 +6.117149E+00 +4.073164E+01 +6.117149E+00 +8.811019E+02 -3.883904E+00 +4.073164E+01 -3.883904E+00 +3.248036E+02 
 +4.700469E+02 +6.329862E+00 +3.837614E+01 +6.329862E+00 +8.699657E+02 -1.138268E+00 +3.837614E+01 -1.138268E+00 +3.315899E+02 
 +4.808136E+02 +2.230738E+00 +1.972860E+01 +2.230738E+00 +8.645711E+02 +1.244424E+01 +1.972860E+01 +1.244424E+01 +3.352304E+02 
 +5.019750E+02 -3.312310E+00 -4.323738E-01 -3.312310E+00 +8.780484E+02 +3.466711E+01 -4.323738E-01 +3.466711E+01 +3.736825E+02 
 +5.030167E+02 +6.443355E+00 +2.077851E+01 +6.443355E+00 +8.944425E+02 +2.068075E+01 +2.077851E+01 +2.068075E+01 +4.074433E+02 
 +5.005798E+02 +1.915633E+00 +2.810182E+01 +1.915633E+00 +8.872436E+02 +1.296253E+01 +2.810182E+01 +1.296253E+01 +4.044790E+02 
 +4.732764E+02 +8.166654E+00 +3.305848E+01 +8.166654E+00 +8.839125E+02 +6.231243E+00 +3.305848E+01 +6.231243E+00 +3.983203E+02 
 +4.650886E+02 +7.851268E+00 +8.164311E+00 +7.851268E+00 +8.745717E+02 +6.688665E+00 +8.164311E+00 +6.688665E+00 +3.769543E+02 
 +4.837603E+02 +2.436681E-01 +3.434397E-01 +2.436681E-01 +8.644772E+02 +2.051233E+01 +3.434397E-01 +2.051233E+01 +3.681370E+02 
 +4.774360E+02 -6.816923E+00 +3.696953E+00 -6.816923E+00 +8.531752E+02 +2.372921E+01 +3.696953E+00 +2.372921E+01 +3.555735E+02 
 +4.763030E+02 +5.149466E-01 +7.223053E+00 +5.149466E-01 +8.552040E+02 +1.461486E+01 +7.223053E+00 +1.461486E+01 +3.297894E+02 
 +4.787252E+02 +1.231724E+00 +9.619733E+00 +1.231724E+00 +8.566429E+02 +6.572025E+00 +9.619733E+00 +6.572025E+00 +3.319042E+02 
 +4.663685E+02 +1.177656E+00 +8.229012E+00 +1.177656E+00 +8.414889E+02 +2.379137E+00 +8.229012E+00 +2.379137E+00 +3.616731E+02 
 +4.856969E+02 -1.174613E+00 +5.030637E+00 -1.174613E+00 +8.446216E+02 +4.819300E+00 +5.030637E+00 +4.819300E+00 +3.924599E+02 
 +5.302829E+02 +7.194504E+00 +6.843474E+00 +7.194504E+00 +8.620485E+02 +4.260119E+00 +6.843474E+00 +4.260119E+00 +4.049668E+02 
 +5.388372E+02 +1.990099E+01 +4.778923E+00 +1.990099E+01 +8.555935E+02 -3.397744E+00 +4.778923E+00 -3.397744E+00 +3.804431E+02 
 +5.296231E+02 +2.005528E+01 +9.812092E+00 +2.005528E+01 +8.513252E+02 -1.301960E+01 +9.812092E+00 -1.301960E+01 +3.591447E+02 
 +5.414175E+02 +1.444718E+01 +3.672011E+00 +1.444718E+01 +8.752007E+02 -2.017472E+01 +3.672011E+00 -2.017472E+01 +3.613479E+02 
 +5.484525E+02 +8.313165E+00 -2.110288E+00 +8.313165E+00 +9.101294E+02 -2.096095E+01 -2.110288E+00 -2.096095E+01 +3.888352E+02 
 +4.876815E+02 -1.970264E+00 +2.008515E+01 -1.970264E+00 +9.026726E+02 -1.450820E+01 +2.008515E+01 -1.450820E+01 +3.738848E+02 
 +4.560922E+02 -3.674100E-01 +2.109863E+01 -3.674100E-01 +8.848246E+02 -8.445368E+00 +2.109863E+01 -8.445368E+00 +3.247026E+02 
 +4.688335E+02 -1.850077E+00 +3.638295E+01 -1.850077E+00 +8.804860E+02 -5.603492E+00 +3.638295E+01 -5.603492E+00 +3.251102E+02 
 +4.888106E+02 +1.682512E+00 +3.136041E+01 +1.682512E+00 +8.786804E+02 -1.122511E+00 +3.136041E+01 -1.122511E+00 +3.391939E+02 
 +4.912121E+02 +3.307806E+00 +3.064615E+01 +3.307806E+00 +8.779642E+02 +8.366365E+00 +3.064615E+01 +8.366365E+00 +3.544473E+02 
 +4.721040E+02 +3.127172E+00 +1.804962E+01 +3.127172E+00 +8.808447E+02 +2.106843E+01 +1.804962E+01 +2.106843E+01 +3.864984E+02 
 +4.920316E+02 +1.910410E+00 +2.547216E+01 +1.910410E+00 +8.881455E+02 +9.213779E+00 +2.547216E+01 +9.213779E+00 +4.077595E+02 
 +4.876365E+02 +2.572454E+00 +2.898792E+01 +2.572454E+00 +8.846791E+02 +1.346193E+01 +2.898792E+01 +1.346193E+01 +3.986693E+02 
 +4.569554E+02 +7.313337E+00 +3.387907E+01 +7.313337E+00 +8.668972E+02 +9.990642E+00 +3.387907E+01 +9.990642E+00 +3.867830E+02 
 +4.818694E+02 +4.197615E-01 +6.122437E+00 +4.197615E-01 +8.570414E+02 +1.150750E+01 +6.122437E+00 +1.150750E+01 +3.879399E+02 
 +4.795621E+02 +1.541462E+00 +4.712943E+00 +1.541462E+00 +8.369341E+02 +1.662195E+01 +4.712943E+00 +1.662195E+01 +3.756536E+02 
 +4.770382E+02 +4.093781E+00 +2.689914E+00 +4.093781E+00 +8.399879E+02 +1.879688E+01 +2.689914E+00 +1.879688E+01 +3.659179E+02 
 +4.813866E+02 +1.318038E+01 +1.247776E+01 +1.318038E+01 +8.525411E+02 +1.642617E+01 +1.247776E+01 +1.642617E+01 +3.695721E+02 
 +4.876604E+02 +6.665979E+00 +8.208172E+00 +6.665979E+00 +8.566198E+02 +9.612905E+00 +8.208172E+00 +9.612905E+00 +3.723822E+02 
 +4.985169E+02 -9.582382E-03 +8.454392E+00 -9.582382E-03 +8.606814E+02 +6.117147E+00 +8.454392E+00 +6.117147E+00 +3.786343E+02 
 +5.065224E+02 -5.395586E+00 +6.795160E+00 -5.395586E+00 +8.648010E+02 +6.399764E+00 +6.795160E+00 +6.399764E+00 +3.966525E+02 
 +5.098230E+02 +2.076079E+00 +7.336133E+00 +2.076079E+00 +8.519960E+02 +3.906214E+00 +7.336133E+00 +3.906214E+00 +3.987428E+02 
 +5.139112E+02 +1.446764E+01 +4.984630E+00 +1.446764E+01 +8.365768E+02 +3.821765E+00 +4.984630E+00 +3.821765E+00 +3.749878E+02 
 +5.347725E+02 +1.845275E+01 +3.317207E+00 +1.845275E+01 +8.569840E+02 +7.976186E-01 +3.317207E+00 +7.976186E-01 +3.673639E+02 
 +5.332652E+02 +9.289283E+00 +3.174352E+00 +9.289283E+00 +8.756170E+02 -4.531473E+00 +3.174352E+00 -4.531473E+00 +3.696593E+02 
 +5.294097E+02 -1.223188E+00 -2.074228E+00 -1.223188E+00 +8.963967E+02 -1.091771E+00 -2.074228E+00 -1.091771E+00 +3.927399E+02 
 +4.945745E+02 -8.153581E+00 +1.531467E+01 -8.153581E+00 +9.058924E+02 -6.363006E+00 +1.531467E+01 -6.363006E+00 +3.877504E+02 
 +4.716869E+02 -1.055478E+01 +1.870242E+01 -1.055478E+01 +8.923486E+02 -9.666714E+00 +1.870242E+01 -9.666714E+00 +3.484215E+02 
 +4.842856E+02 -8.813868E+00 +3.124848E+01 -8.813868E+00 +8.803651E+02 -3.908410E+00 +3.124848E+01 -3.908410E+00 +3.423519E+02 
 +4.966047E+02 -4.067046E+00 +2.765695E+01 -4.067046E+00 +8.770664E+02 -1.069315E-01 +2.765695E+01 -1.069315E-01 +3.457130E+02 
 +4.901997E+02 -4.375771E+00 +3.276387E+01 -4.375771E+00 +8.813943E+02 +3.296258E+00 +3.276387E+01 +3.296258E+00 +3.748283E+02 
 +4.656956E+02 -1.993055E+00 +2.726996E+01 -1.993055E+00 +8.795371E+02 +3.948740E+00 +2.726996E+01 +3.948740E+00 +4.053570E+02 
 +4.824694E+02 -2.133477E+00 +2.552522E+01 -2.133477E+00 +8.851007E+02 -1.621489E+00 +2.552522E+01 -1.621489E+00 +4.115675E+02 
 +4.718752E+02 +3.847464E+00 +2.840535E+01 +3.847464E+00 +8.798408E+02 +3.708230E+00 +2.840535E+01 +3.708230E+00 +3.954246E+02 
 +4.775502E+02 +4.934147E+00 +2.717512E+01 +4.934147E+00 +8.706834E+02 +5.124513E+00 +2.717512E+01 +5.124513E+00 +3.986447E+02 
 +4.947709E+02 -3.039614E+00 +5.493614E+00 -3.039614E+00 +8.532380E+02 +1.255545E+01 +5.493614E+00 +1.255545E+01 +4.027687E+02 
 +4.815325E+02 -1.113648E+00 +5.898524E+00 -1.113648E+00 +8.303609E+02 +2.213500E+01 +5.898524E+00 +2.213500E+01 +3.804810E+02 
 +4.894808E+02 +2.788065E+00 +4.909806E+00 +2.788065E+00 +8.448268E+02 +2.940000E+01 +4.909806E+00 +2.940000E+01 +3.895593E+02 
 +4.933392E+02 +6.287696E+00 +5.404259E+00 +6.287696E+00 +8.551778E+02 +2.846125E+01 +5.404259E+00 +2.846125E+01 +4.043723E+02 
 +5.046571E+02 +8.224033E+00 +6.126055E+00 +8.224033E+00 +8.626063E+02 +1.407906E+01 +6.126055E+00 +1.407906E+01 +3.943078E+02 
 +5.059746E+02 +1.911815E+00 +1.112495E+01 +1.911815E+00 +8.620875E+02 +6.969720E+00 +1.112495E+01 +6.969720E+00 +3.841714E+02 
 +5.026336E+02 -3.795442E+00 +9.170027E+00 -3.795442E+00 +8.602824E+02 +4.680323E+00 +9.170027E+00 +4.680323E+00 +3.847472E+02 
 +5.000213E+02 -4.641675E+00 +1.533232E+01 -4.641675E+00 +8.757367E+02 -1.891021E+00 +1.533232E+01 -1.891021E+00 +3.843358E+02 
 +5.088420E+02 +1.827463E+00 +1.703731E+01 +1.827463E+00 +8.719647E+02 +6.054844E-01 +1.703731E+01 +6.054844E-01 +3.834101E+02 
 +5.294893E+02 +1.403426E+01 +4.716873E+00 +1.403426E+01 +8.644659E+02 +1.374390E+01 +4.716873E+00 +1.374390E+01 +3.801133E+02 
 +5.176151E+02 +2.400639E+00 +3.103007E+00 +2.400639E+00 +8.727896E+02 +1.295206E+01 +3.103007E+00 +1.295206E+01 +3.834224E+02 
 +5.194987E+02 -5.005059E+00 -2.136251E+00 -5.005059E+00 +8.893299E+02 +9.000487E+00 -2.136251E+00 +9.000487E+00 +4.167008E+02 
 +5.143406E+02 -4.957660E+00 -1.095887E+01 -4.957660E+00 +8.878624E+02 +7.998068E+00 -1.095887E+01 +7.998068E+00 +4.172992E+02 
 +5.024133E+02 -1.119841E+01 +8.900039E-01 -1.119841E+01 +8.875315E+02 -2.424191E-01 +8.900039E-01 -2.424191E-01 +3.916452E+02 
 +4.871874E+02 -1.461875E+01 +1.885129E+01 -1.461875E+01 +8.750603E+02 -5.965084E+00 +1.885129E+01 -5.965084E+00 +3.642648E+02 
 +4.894271E+02 -1.309296E+01 +2.335652E+01 -1.309296E+01 +8.686500E+02 -8.895311E+00 +2.335652E+01 -8.895311E+00 +3.523448E+02 
 +4.788111E+02 -8.621233E+00 +3.212825E+01 -8.621233E+00 +8.732811E+02 -9.216429E+00 +3.212825E+01 -9.216429E+00 +3.888972E+02 
 +4.870822E+02 -4.976105E+00 +2.533285E+01 -4.976105E+00 +8.884800E+02 -5.918922E+00 +2.533285E+01 -5.918922E+00 +4.266653E+02 
 +4.839949E+02 -4.001922E-02 +2.112704E+01 -4.001922E-02 +8.878123E+02 -6.625444E+00 +2.112704E+01 -6.625444E+00 +4.233481E+02 
 +4.760300E+02 +5.043868E+00 +2.441071E+01 +5.043868E+00 +8.730578E+02 -7.099752E+00 +2.441071E+01 -7.099752E+00 +4.108808E+02 
 +4.891533E+02 +1.557283E+00 +2.491993E+01 +1.557283E+00 +8.466487E+02 +4.040077E+00 +2.491993E+01 +4.040077E+00 +4.100140E+02 
 +4.773031E+02 -2.288595E+00 +1.131337E+01 -2.288595E+00 +8.295940E+02 +1.839275E+01 +1.131337E+01 +1.839275E+01 +3.943115E+02 
 +4.736393E+02 -3.149011E-01 +1.229622E+01 -3.149011E-01 +8.333682E+02 +2.260201E+01 +1.229622E+01 +2.260201E+01 +3.760359E+02 
 +4.840968E+02 +3.565691E+00 +1.112226E+01 +3.565691E+00 +8.437608E+02 +3.057497E+01 +1.112226E+01 +3.057497E+01 +3.896564E+02 
 +5.142140E+02 +2.484356E+00 -1.409917E+00 +2.484356E+00 +8.635541E+02 +3.333566E+01 -1.409917E+00 +3.333566E+01 +4.134330E+02 
 +5.274304E+02 +8.993901E+00 +5.299734E+00 +8.993901E+00 +8.719927E+02 +1.698361E+01 +5.299734E+00 +1.698361E+01 +4.082727E+02 
 +5.094848E+02 -7.071101E+00 +1.529453E+01 -7.071101E+00 +8.707848E+02 -1.146046E+00 +1.529453E+01 -1.146046E+00 +3.981098E+02 
 +4.939361E+02 -1.256103E+01 +1.117629E+01 -1.256103E+01 +8.711896E+02 -6.666278E+00 +1.117629E+01 -6.666278E+00 +3.840273E+02 
 +4.842565E+02 -8.458658E+00 +1.346607E+01 -8.458658E+00 +8.672623E+02 -8.483207E+00 +1.346607E+01 -8.483207E+00 +3.659362E+02 
 +4.969665E+02 -3.741766E+00 +2.185024E+01 -3.741766E+00 +8.823639E+02 -8.205520E+00 +2.185024E+01 -8.205520E+00 +3.836388E+02 
 +5.001131E+02 +5.482167E+00 +1.986212E+01 +5.482167E+00 +8.726845E+02 -4.549767E+00 +1.986212E+01 -4.549767E+00 +3.814246E+02 
 +5.164322E+02 +5.573972E+00 -9.838595E-01 +5.573972E+00 +8.586153E+02 -1.453117E+01 -9.838595E-01 -1.453117E+01 +3.851205E+02 
 +5.113926E+02 +4.204582E+00 -5.405371E+00 +4.204582E+00 +8.563871E+02 -2.974050E+01 -5.405371E+00 -2.974050E+01 +4.094621E+02 
 +5.150128E+02 +6.321178E+00 -1.544304E+01 +6.321178E+00 +8.592935E+02 -1.878535E+01 -1.544304E+01 -1.878535E+01 +4.191276E+02 
 +5.295042E+02 -6.788161E-01 -1.867525E+01 -6.788161E-01 +8.810214E+02 +1.952715E+00 -1.867525E+01 +1.952715E+00 +4.320098E+02 
 +4.954504E+02 -1.162732E+01 -4.554759E-01 -1.162732E+01 +8.819994E+02 -3.349565E+00 -4.554759E-01 -3.349565E+00 +4.111684E+02 
 +4.817259E+02 -1.074701E+01 +1.565634E+01 -1.074701E+01 +8.715303E+02 -1.230271E+01 +1.565634E+01 -1.230271E+01 +3.853220E+02 
 +4.830676E+02 -5.636023E+00 +2.621797E+01 -5.636023E+00 +8.735506E+02 -7.672514E+00 +2.621797E+01 -7.672514E+00 +4.085140E+02 
 +4.937323E+02 -4.360159E+00 +2.007848E+01 -4.360159E+00 +8.860223E+02 -5.729319E+00 +2.007848E+01 -5.729319E+00 +4.344986E+02 
 +4.850608E+02 -2.373864E+00 +1.398502E+01 -2.373864E+00 +8.775351E+02 -7.447402E+00 +1.398502E+01 -7.447402E+00 +4.225633E+02 
 +5.076525E+02 +7.461984E-01 +2.125791E+00 +7.461984E-01 +8.710554E+02 -9.950193E+00 +2.125791E+00 -9.950193E+00 +4.249856E+02 
 +5.078841E+02 +3.898248E+00 +1.317335E+01 +3.898248E+00 +8.767477E+02 -1.079766E+01 +1.317335E+01 -1.079766E+01 +4.288189E+02 
 +4.999602E+02 +3.703103E+00 +1.661388E+01 +3.703103E+00 +8.839275E+02 -1.323371E+00 +1.661388E+01 -1.323371E+00 +4.072444E+02 
 +4.908117E+02 +6.054283E+00 +1.935191E+01 +6.054283E+00 +8.847248E+02 +9.330566E+00 +1.935191E+01 +9.330566E+00 +3.757905E+02 
 +5.040882E+02 +1.031670E+01 +1.893405E+01 +1.031670E+01 +8.922997E+02 +1.239867E+01 +1.893405E+01 +1.239867E+01 +3.793170E+02 
 +5.300078E+02 +6.901783E+00 +1.396920E+01 +6.901783E+00 +9.042969E+02 +1.054668E+01 +1.396920E+01 +1.054668E+01 +4.012432E+02 
 +5.407055E+02 -7.443721E-03 +1.759636E+01 -7.443721E-03 +9.003642E+02 +1.756238E+00 +1.759636E+01 +1.756238E+00 +4.108924E+02 
 +5.046635E+02 -1.001299E+01 +2.028165E+01 -1.001299E+01 +8.679232E+02 -5.355951E+00 +2.028165E+01 -5.355951E+00 +3.908529E+02 
 +4.791414E+02 -8.052316E+00 +1.505879E+01 -8.052316E+00 +8.581455E+02 -4.662384E+00 +1.505879E+01 -4.662384E+00 +3.738753E+02 
 +4.839067E+02 -7.297551E+00 +1.252415E+01 -7.297551E+00 +8.659703E+02 -4.123465E+00 +1.252415E+01 -4.123465E+00 +3.700248E+02 
 +4.807801E+02 -1.303543E+00 +2.034448E+01 -1.303543E+00 +8.697273E+02 -7.148758E+00 +2.034448E+01 -7.148758E+00 +3.807569E+02 
 +4.685529E+02 +4.990496E+00 +2.582662E+01 +4.990496E+00 +8.537536E+02 -1.385504E+01 +2.582662E+01 -1.385504E+01 +3.706238E+02 
 +5.225693E+02 +8.143313E+00 -7.621639E-01 +8.143313E+00 +8.580984E+02 -2.195783E+01 -7.621639E-01 -2.195783E+01 +3.794188E+02 
 +5.143013E+02 +7.021110E+00 -4.665745E+00 +7.021110E+00 +8.431352E+02 -2.577103E+01 -4.665745E+00 -2.577103E+01 +3.920102E+02 
 +5.123425E+02 +5.133662E+00 -8.350644E+00 +5.133662E+00 +8.479494E+02 -1.729251E+01 -8.350644E+00 -1.729251E+01 +4.119060E+02 
 +5.165963E+02 -1.527365E-01 -1.675849E+01 -1.527365E-01 +8.563958E+02 +2.713006E+00 -1.675849E+01 +2.713006E+00 +4.287369E+02 
 +5.107155E+02 -1.028409E+01 -1.094678E+01 -1.028409E+01 +8.646131E+02 +5.787845E+00 -1.094678E+01 +5.787845E+00 +4.363778E+02 
 +4.728025E+02 -4.755450E+00 +1.258009E+01 -4.755450E+00 +8.627763E+02 -4.371953E+00 +1.258009E+01 -4.371953E+00 +4.194737E+02 
 +4.813467E+02 +2.035451E-01 +2.194817E+01 +2.035451E-01 +8.796504E+02 -7.263243E+00 +2.194817E+01 -7.263243E+00 +4.257726E+02 
 +4.895393E+02 -3.484770E+00 +1.832921E+01 -3.484770E+00 +8.901774E+02 -7.918611E+00 +1.832921E+01 -7.918611E+00 +4.357924E+02 
 +4.916033E+02 -5.053294E+00 +3.839359E+00 -5.053294E+00 +8.725678E+02 -3.568034E+00 +3.839359E+00 -3.568034E+00 +4.200400E+02 
 +5.002948E+02 -1.058093E+01 -1.357961E+01 -1.058093E+01 +8.563347E+02 -1.521981E+00 -1.357961E+01 -1.521981E+00 +4.056267E+02 
 +4.958421E+02 -5.767668E+00 -7.183596E+00 -5.767668E+00 +8.519355E+02 +2.224680E+00 -7.183596E+00 +2.224680E+00 +3.988492E+02 
 +4.812793E+02 -1.861645E+00 +1.158964E+01 -1.861645E+00 +8.597313E+02 +4.959651E+00 +1.158964E+01 +4.959651E+00 +3.876322E+02 
 +4.922232E+02 +2.197176E+00 +2.029818E+01 +2.197176E+00 +8.759561E+02 +1.246528E+01 +2.029818E+01 +1.246528E+01 +3.688887E+02 
 +4.997215E+02 +2.414267E+00 +2.381085E+01 +2.414267E+00 +8.797258E+02 +1.448372E+01 +2.381085E+01 +1.448372E+01 +3.595519E+02 
 +5.192781E+02 +9.579687E+00 +2.788610E+01 +9.579687E+00 +8.897551E+02 +5.194524E+00 +2.788610E+01 +5.194524E+00 +3.700138E+02 
 +5.408927E+02 +8.778119E+00 +2.534040E+01 +8.778119E+00 +8.953842E+02 -4.910834E+00 +2.534040E+01 -4.910834E+00 +3.920547E+02 
 +4.889787E+02 +7.801097E+00 +2.476889E+01 +7.801097E+00 +8.634012E+02 -7.129230E+00 +2.476889E+01 -7.129230E+00 +3.716344E+02 
 +4.747712E+02 +8.608100E-01 +1.806602E+01 +8.608100E-01 +8.630378E+02 -5.026700E+00 +1.806602E+01 -5.026700E+00 +3.631908E+02 
 +4.728367E+02 -2.292309E+00 +1.371989E+01 -2.292309E+00 +8.621115E+02 -6.331222E+00 +1.371989E+01 -6.331222E+00 +3.668271E+02 
 +4.618819E+02 +2.598348E+00 +2.176905E+01 +2.598348E+00 +8.564713E+02 -7.715767E+00 +2.176905E+01 -7.715767E+00 +3.731376E+02 
 +4.809520E+02 +2.937764E+00 +1.848002E+01 +2.937764E+00 +8.597965E+02 -1.378138E+01 +1.848002E+01 -1.378138E+01 +3.759490E+02 
 +5.148262E+02 +6.966672E+00 +2.784851E+00 +6.966672E+00 +8.564926E+02 -2.107651E+01 +2.784851E+00 -2.107651E+01 +3.775120E+02 
 +5.050974E+02 +1.057626E+01 +2.336646E+00 +1.057626E+01 +8.388559E+02 -2.472281E+01 +2.336646E+00 -2.472281E+01 +3.809606E+02 
 +5.050777E+02 +5.806941E+00 -3.473879E+00 +5.806941E+00 +8.421394E+02 -1.724630E+01 -3.473879E+00 -1.724630E+01 +3.935495E+02 
 +5.070451E+02 +1.394079E+00 -8.060448E+00 +1.394079E+00 +8.450613E+02 +1.174073E+00 -8.060448E+00 +1.174073E+00 +4.059562E+02 
 +5.275077E+02 -4.671467E+00 -9.311245E+00 -4.671467E+00 +8.672648E+02 +5.205125E+00 -9.311245E+00 +5.205125E+00 +4.378257E+02 
 +4.698529E+02 -2.482706E+00 +1.536457E+01 -2.482706E+00 +8.612141E+02 -1.504317E+00 +1.536457E+01 -1.504317E+00 +4.311374E+02 
 +4.849776E+02 -1.498281E+00 +1.578357E+01 -1.498281E+00 +8.905528E+02 -8.782355E+00 +1.578357E+01 -8.782355E+00 +4.363357E+02 
 +4.798642E+02 -8.532617E-01 +2.101635E+01 -8.532617E-01 +8.859720E+02 -8.481940E+00 +2.101635E+01 -8.481940E+00 +4.285945E+02 
 +4.903165E+02 -5.432709E+00 -8.201130E-01 -5.432709E+00 +8.711639E+02 +5.005326E+00 -8.201130E-01 +5.005326E+00 +4.151758E+02 
 +4.665320E+02 -1.167154E+01 -1.330668E+01 -1.167154E+01 +8.502924E+02 +1.553165E+00 -1.330668E+01 +1.553165E+00 +3.753997E+02 
 +4.853535E+02 -7.743372E+00 -6.440917E+00 -7.743372E+00 +8.504426E+02 +6.804373E+00 -6.440917E+00 +6.804373E+00 +3.706290E+02 
 +4.827393E+02 -3.675705E+00 +4.762057E+00 -3.675705E+00 +8.443115E+02 +1.441845E+01 +4.762057E+00 +1.441845E+01 +3.781179E+02 
 +5.021776E+02 +4.066265E+00 +1.594102E+01 +4.066265E+00 +8.512182E+02 +1.044141E+01 +1.594102E+01 +1.044141E+01 +3.728091E+02 
 +4.917287E+02 +6.530971E+00 +2.129622E+01 +6.530971E+00 +8.365924E+02 +1.128336E+01 +2.129622E+01 +1.128336E+01 +3.505397E+02 
 +5.002562E+02 +1.375600E+01 +2.008426E+01 +1.375600E+01 +8.285826E+02 +9.845522E+00 +2.008426E+01 +9.845522E+00 +3.449485E+02 
 +5.179677E+02 +7.608566E+00 +1.656617E+01 +7.608566E+00 +8.537032E+02 +6.744972E+00 +1.656617E+01 +6.744972E+00 +3.604379E+02 
 +4.816120E+02 +1.008371E+01 +2.634695E+01 +1.008371E+01 +8.657984E+02 +5.512042E+00 +2.634695E+01 +5.512042E+00 +3.547241E+02 
 +4.792645E+02 +7.888940E+00 +1.437708E+01 +7.888940E+00 +8.696797E+02 -2.243821E+00 +1.437708E+01 -2.243821E+00 +3.565080E+02 
 +4.581008E+02 +1.009995E+01 +1.632095E+01 +1.009995E+01 +8.589107E+02 -6.543604E+00 +1.632095E+01 -6.543604E+00 +3.599030E+02 
 +4.430655E+02 +1.061724E+01 +1.995806E+01 +1.061724E+01 +8.426602E+02 -1.350624E+01 +1.995806E+01 -1.350624E+01 +3.634023E+02 
 +4.752974E+02 +9.456816E+00 +8.043050E+00 +9.456816E+00 +8.340628E+02 -2.532683E+01 +8.043050E+00 -2.532683E+01 +3.707133E+02 
 +4.782292E+02 +7.610182E+00 +1.082645E+01 +7.610182E+00 +8.331173E+02 -2.201350E+01 +1.082645E+01 -2.201350E+01 +3.693900E+02 
 +4.979780E+02 +6.328722E+00 +9.180437E+00 +6.328722E+00 +8.485731E+02 -1.477255E+01 +9.180437E+00 -1.477255E+01 +3.821086E+02 
 +5.024198E+02 +4.441110E+00 +4.323620E+00 +4.441110E+00 +8.401934E+02 -1.856083E+01 +4.323620E+00 -1.856083E+01 +3.838271E+02 
 +5.097671E+02 +1.439962E+00 +2.353863E+00 +1.439962E+00 +8.448107E+02 -2.314884E+01 +2.353863E+00 -2.314884E+01 +3.985086E+02 
 +5.274454E+02 -1.310849E+00 -2.237038E+00 -1.310849E+00 +8.801161E+02 -1.890194E+01 -2.237038E+00 -1.890194E+01 +4.371527E+02 
 +4.681349E+02 -7.034960E-01 +1.758123E+01 -7.034960E-01 +8.682271E+02 -7.118605E+00 +1.758123E+01 -7.118605E+00 +4.249003E+02 
 +4.876681E+02 -2.888381E+00 +1.055777E+01 -2.888381E+00 +8.786932E+02 +3.708355E+00 +1.055777E+01 +3.708355E+00 +4.244126E+02 
 +4.811949E+02 -2.650648E+00 +1.566361E+01 -2.650648E+00 +8.684366E+02 +6.247742E+00 +1.566361E+01 +6.247742E+00 +4.179392E+02 
 +4.806132E+02 -6.271027E+00 +9.490100E-01 -6.271027E+00 +8.647347E+02 +7.874038E+00 +9.490100E-01 +7.874038E+00 +4.014055E+02 
 +4.592989E+02 -9.442042E+00 -6.068600E+00 -9.442042E+00 +8.529543E+02 +4.033874E+00 -6.068600E+00 +4.033874E+00 +3.682887E+02 
 +4.592030E+02 -5.420643E+00 +3.823650E+00 -5.420643E+00 +8.365281E+02 +8.249540E-01 +3.823650E+00 +8.249540E-01 +3.538217E+02 
 +4.928850E+02 +4.142097E+00 +1.034176E+01 +4.142097E+00 +8.352458E+02 +5.669861E+00 +1.034176E+01 +5.669861E+00 +3.690824E+02 
 +5.120964E+02 +8.076944E+00 +1.251493E+01 +8.076944E+00 +8.389344E+02 +5.913427E+00 +1.251493E+01 +5.913427E+00 +3.745311E+02 
 +5.071829E+02 +3.199758E+00 +1.330788E+01 +3.199758E+00 +8.419325E+02 +1.867887E+00 +1.330788E+01 +1.867887E+00 +3.648463E+02 
 +4.998630E+02 -3.053407E+00 +1.462860E+01 -3.053407E+00 +8.404741E+02 +1.547924E-01 +1.462860E+01 +1.547924E-01 +3.528322E+02 
 +4.929163E+02 +7.644360E-03 +1.433041E+01 +7.644360E-03 +8.371975E+02 +4.479474E+00 +1.433041E+01 +4.479474E+00 +3.448849E+02 
 +4.780652E+02 -3.065648E+00 +2.103957E+01 -3.065648E+00 +8.293944E+02 +4.440819E+00 +2.103957E+01 +4.440819E+00 +3.387972E+02 
 +4.859140E+02 -3.633876E+00 +1.020326E+01 -3.633876E+00 +8.428020E+02 -4.881789E+00 +1.020326E+01 -4.881789E+00 +3.470183E+02 
 +4.536449E+02 +8.509928E+00 +1.637122E+01 +8.509928E+00 +8.445052E+02 -8.102926E+00 +1.637122E+01 -8.102926E+00 +3.486419E+02 
 +4.490909E+02 +9.583478E+00 +9.347570E+00 +9.583478E+00 +8.488762E+02 -1.389002E+01 +9.347570E+00 -1.389002E+01 +3.628329E+02 
 +4.783930E+02 +8.149396E+00 +6.763832E+00 +8.149396E+00 +8.766439E+02 -1.453206E+01 +6.763832E+00 -1.453206E+01 +3.890267E+02 
 +4.741571E+02 +5.668079E+00 +1.827711E+01 +5.668079E+00 +8.719071E+02 -1.162470E+01 +1.827711E+01 -1.162470E+01 +3.887361E+02 
 +4.996915E+02 +4.140143E+00 +1.571581E+01 +4.140143E+00 +8.650343E+02 -1.047914E+01 +1.571581E+01 -1.047914E+01 +4.030974E+02 
 +5.102591E+02 +1.191748E+00 +1.196350E+01 +1.191748E+00 +8.580872E+02 -1.010876E+01 +1.196350E+01 -1.010876E+01 +4.076061E+02 
 +5.039766E+02 -2.757758E+00 +1.460290E+01 -2.757758E+00 +8.540910E+02 -1.498327E+01 +1.460290E+01 -1.498327E+01 +3.955059E+02 
 +5.069854E+02 -2.595502E+00 +9.964460E+00 -2.595502E+00 +8.688548E+02 -1.351295E+01 +9.964460E+00 -1.351295E+01 +4.080170E+02 
 +4.753537E+02 -2.503222E+00 +1.471417E+01 -2.503222E+00 +8.623366E+02 -5.314825E-01 +1.471417E+01 -5.314825E-01 +4.058055E+02 
 +4.959625E+02 -4.307737E+00 +7.771303E+00 -4.307737E+00 +8.718399E+02 +1.032309E+01 +7.771303E+00 +1.032309E+01 +4.141025E+02 
 +4.971301E+02 -3.759313E+00 +8.746523E+00 -3.759313E+00 +8.707817E+02 +1.104892E+01 +8.746523E+00 +1.104892E+01 +4.156234E+02 
 +4.846945E+02 -7.263136E+00 +3.786073E+00 -7.263136E+00 +8.658676E+02 +1.342277E+01 +3.786073E+00 +1.342277E+01 +3.981957E+02 
 +4.788832E+02 -9.472756E+00 -1.039121E+00 -9.472756E+00 +8.678165E+02 +7.253074E+00 -1.039121E+00 +7.253074E+00 +3.838997E+02 
 +4.730427E+02 -9.062363E+00 +5.402966E+00 -9.062363E+00 +8.523451E+02 +1.007395E+00 +5.402966E+00 +1.007395E+00 +3.633436E+02 
 +5.013210E+02 +4.064455E+00 +1.293203E+01 +4.064455E+00 +8.408840E+02 +4.896319E+00 +1.293203E+01 +4.896319E+00 +3.691062E+02 
 +5.077898E+02 +1.258161E+01 +1.265737E+01 +1.258161E+01 +8.346944E+02 +7.328108E+00 +1.265737E+01 +7.328108E+00 +3.765014E+02 
 +5.025297E+02 +8.559120E+00 +1.084263E+01 +8.559120E+00 +8.424744E+02 +6.360855E+00 +1.084263E+01 +6.360855E+00 +3.711362E+02 
 +4.879718E+02 -1.244879E+00 +1.819741E+01 -1.244879E+00 +8.414311E+02 +6.930330E-01 +1.819741E+01 +6.930330E-01 +3.545557E+02 
 +4.863613E+02 +6.075620E+00 +1.764053E+01 +6.075620E+00 +8.397277E+02 -3.389583E-01 +1.764053E+01 -3.389583E-01 +3.465407E+02 
 +4.861840E+02 -3.848316E+00 +1.596151E+01 -3.848316E+00 +8.341488E+02 +3.970121E+00 +1.596151E+01 +3.970121E+00 +3.474031E+02 
 +4.915775E+02 -6.719156E+00 +1.074159E+01 -6.719156E+00 +8.356098E+02 -1.921184E-01 +1.074159E+01 -1.921184E-01 +3.475936E+02 
 +4.740607E+02 -3.271065E+00 +1.029583E+01 -3.271065E+00 +8.314977E+02 -6.507393E+00 +1.029583E+01 -6.507393E+00 +3.473263E+02 
 +4.450190E+02 -7.757196E-01 +4.807423E+00 -7.757196E-01 +8.394342E+02 -8.164807E+00 +4.807423E+00 -8.164807E+00 +3.600067E+02 
 +4.580291E+02 +1.050935E+00 +9.726428E+00 +1.050935E+00 +8.679701E+02 -8.473072E+00 +9.726428E+00 -8.473072E+00 +3.823692E+02 
 +4.748712E+02 +1.715913E+00 +1.668023E+01 +1.715913E+00 +8.794029E+02 -1.072694E+01 +1.668023E+01 -1.072694E+01 +3.916301E+02 
 +4.986989E+02 +1.054268E+00 +2.057958E+01 +1.054268E+00 +8.950446E+02 -9.815165E+00 +2.057958E+01 -9.815165E+00 +4.141910E+02 
 +5.152218E+02 -2.528654E+00 +1.913860E+01 -2.528654E+00 +9.044559E+02 -1.068993E+01 +1.913860E+01 -1.068993E+01 +4.261291E+02 
 +5.032452E+02 -7.771754E+00 +2.176125E+01 -7.771754E+00 +8.900543E+02 -1.139633E+01 +2.176125E+01 -1.139633E+01 +4.016834E+02 
 +5.094433E+02 -4.798712E+00 +1.565941E+01 -4.798712E+00 +8.875146E+02 -1.381825E+01 +1.565941E+01 -1.381825E+01 +3.981618E+02 
 +5.090900E+02 -7.609642E+00 +8.746306E+00 -7.609642E+00 +8.793097E+02 -9.289226E+00 +8.746306E+00 -9.289226E+00 +4.032722E+02 
 +5.075848E+02 -9.500982E+00 +6.438068E+00 -9.500982E+00 +8.694433E+02 +6.463454E+00 +6.438068E+00 +6.463454E+00 +4.059884E+02 
 +4.960910E+02 -7.291733E+00 +9.436582E+00 -7.291733E+00 +8.637091E+02 +1.366043E+01 +9.436582E+00 +1.366043E+01 +4.050915E+02 
 +4.930342E+02 -4.257824E-02 +1.123900E+01 -4.257824E-02 +8.331346E+02 +9.754121E+00 +1.123900E+01 +9.754121E+00 +4.009694E+02 
 +4.626717E+02 -2.197626E+00 +2.244198E+00 -2.197626E+00 +8.106662E+02 +8.293171E+00 +2.244198E+00 +8.293171E+00 +3.708506E+02 
 +4.703103E+02 -1.926801E+00 +1.980149E+00 -1.926801E+00 +8.054863E+02 -1.742783E-01 +1.980149E+00 -1.742783E-01 +3.539515E+02 
 +4.666177E+02 +6.292356E+00 +1.261039E+01 +6.292356E+00 +8.074450E+02 +1.763077E+00 +1.261039E+01 +1.763077E+00 +3.552926E+02 
 +4.946105E+02 +1.585711E+01 +1.237507E+01 +1.585711E+01 +8.314293E+02 +8.392056E+00 +1.237507E+01 +8.392056E+00 +3.777289E+02 
 +4.961339E+02 +1.282055E+01 +1.200249E+01 +1.282055E+01 +8.428384E+02 +5.978277E+00 +1.200249E+01 +5.978277E+00 +3.755952E+02 
 +4.832500E+02 +4.362116E-01 +1.862750E+01 +4.362116E-01 +8.460309E+02 -9.574098E-01 +1.862750E+01 -9.574098E-01 +3.601245E+02 
 +4.853405E+02 +2.772843E+00 +1.956796E+01 +2.772843E+00 +8.473702E+02 -7.777355E-01 +1.956796E+01 -7.777355E-01 +3.523018E+02 
 +4.843762E+02 -6.557593E+00 +1.836952E+01 -6.557593E+00 +8.409498E+02 +1.799508E+00 +1.836952E+01 +1.799508E+00 +3.477694E+02 
 +4.861970E+02 -5.749079E+00 +1.073619E+01 -5.749079E+00 +8.343794E+02 -3.661622E+00 +1.073619E+01 -3.661622E+00 +3.436099E+02 
 +4.839213E+02 -3.577995E+00 +4.947205E+00 -3.577995E+00 +8.406111E+02 -2.714791E+00 +4.947205E+00 -2.714791E+00 +3.547326E+02 
 +4.509822E+02 -1.965222E+00 +5.955168E+00 -1.965222E+00 +8.453900E+02 -2.122841E+00 +5.955168E+00 -2.122841E+00 +3.680099E+02 
 +4.632834E+02 -6.181326E+00 +8.647967E+00 -6.181326E+00 +8.673349E+02 -5.255860E+00 +8.647967E+00 -5.255860E+00 +3.868768E+02 
 +4.757085E+02 -8.010337E+00 +1.580974E+01 -8.010337E+00 +8.804269E+02 -6.973099E+00 +1.580974E+01 -6.973099E+00 +3.911444E+02 
 +4.835628E+02 -6.101132E+00 +2.167440E+01 -6.101132E+00 +8.899739E+02 -1.051948E+01 +2.167440E+01 -1.051948E+01 +3.924151E+02 
 +4.866665E+02 -2.826181E+00 +2.001545E+01 -2.826181E+00 +8.941265E+02 -1.347795E+01 +2.001545E+01 -1.347795E+01 +3.957914E+02 
 +4.840288E+02 -5.404644E+00 +2.061298E+01 -5.404644E+00 +8.889810E+02 -1.089719E+01 +2.061298E+01 -1.089719E+01 +3.886936E+02 
 +4.905039E+02 -7.643812E+00 +1.604286E+01 -7.643812E+00 +8.776170E+02 -9.323394E+00 +1.604286E+01 -9.323394E+00 +3.865262E+02 
 +5.164265E+02 -1.900160E+01 +2.080955E-01 -1.900160E+01 +8.720380E+02 -5.384175E+00 +2.080955E-01 -5.384175E+00 +3.926392E+02 
 +5.154800E+02 -2.102705E+01 +2.885448E+00 -2.102705E+01 +8.657415E+02 +2.787481E-01 +2.885448E+00 +2.787481E-01 +3.890213E+02 
 +5.047085E+02 -1.775097E+01 +9.898815E+00 -1.775097E+01 +8.498769E+02 +4.863446E+00 +9.898815E+00 +4.863446E+00 +3.984592E+02 
 +5.202367E+02 -2.124894E+00 +9.267805E+00 -2.124894E+00 +8.433035E+02 +1.445436E+01 +9.267805E+00 +1.445436E+01 +4.090100E+02 
 +4.968089E+02 -8.203888E+00 +3.978017E+00 -8.203888E+00 +8.244786E+02 +1.113169E+01 +3.978017E+00 +1.113169E+01 +3.898770E+02 
 +4.873243E+02 -7.806148E+00 +1.418485E+00 -7.806148E+00 +8.275214E+02 +5.796741E+00 +1.418485E+00 +5.796741E+00 +3.731642E+02 
 +4.604796E+02 -2.673160E+00 +1.846172E+01 -2.673160E+00 +8.270892E+02 +3.477899E+00 +1.846172E+01 +3.477899E+00 +3.569948E+02 
 +4.781255E+02 +6.070252E+00 +1.899008E+01 +6.070252E+00 +8.353054E+02 +1.045457E+01 +1.899008E+01 +1.045457E+01 +3.706804E+02 
 +4.895386E+02 +1.056764E+01 +1.364012E+01 +1.056764E+01 +8.425607E+02 +1.063592E+01 +1.364012E+01 +1.063592E+01 +3.766367E+02 
 +4.894765E+02 -1.951573E+00 +1.671686E+01 -1.951573E+00 +8.565694E+02 -1.820048E+00 +1.671686E+01 -1.820048E+00 +3.745760E+02 
 +4.900488E+02 -5.609466E-01 +2.175781E+01 -5.609466E-01 +8.603169E+02 -3.972439E+00 +2.175781E+01 -3.972439E+00 +3.700889E+02 
 +4.868310E+02 -1.121488E+01 +2.491928E+01 -1.121488E+01 +8.508117E+02 -1.179524E+00 +2.491928E+01 -1.179524E+00 +3.537794E+02 
 +4.930790E+02 -1.012847E+01 +1.464949E+01 -1.012847E+01 +8.526438E+02 -4.667042E+00 +1.464949E+01 -4.667042E+00 +3.523215E+02 
 +4.712361E+02 -5.040009E+00 +1.276435E+01 -5.040009E+00 +8.540493E+02 -2.816828E+00 +1.276435E+01 -2.816828E+00 +3.652168E+02 
 +4.711351E+02 -6.333133E+00 +1.100454E+01 -6.333133E+00 +8.637572E+02 -3.865994E+00 +1.100454E+01 -3.865994E+00 +3.860118E+02 
 +4.690369E+02 -9.818690E+00 +1.315837E+01 -9.818690E+00 +8.663814E+02 -4.866698E+00 +1.315837E+01 -4.866698E+00 +3.907243E+02 
 +4.710122E+02 -9.115695E+00 +1.442895E+01 -9.115695E+00 +8.749215E+02 -4.546711E+00 +1.442895E+01 -4.546711E+00 +3.860955E+02 
 +4.837004E+02 -7.902457E+00 +1.745949E+01 -7.902457E+00 +8.884399E+02 -9.964828E+00 +1.745949E+01 -9.964828E+00 +3.823458E+02 
 +4.817264E+02 -4.866545E+00 +1.714763E+01 -4.866545E+00 +8.913689E+02 -1.554229E+01 +1.714763E+01 -1.554229E+01 +3.833990E+02 
 +4.784529E+02 -3.147320E+00 +1.665621E+01 -3.147320E+00 +8.884356E+02 -1.523195E+01 +1.665621E+01 -1.523195E+01 +3.811859E+02 
 +4.858335E+02 -2.108208E+00 +1.328890E+01 -2.108208E+00 +8.767541E+02 -2.026479E+01 +1.328890E+01 -2.026479E+01 +3.729621E+02 
 +5.201598E+02 -2.005812E+00 -4.262075E+00 -2.005812E+00 +8.744556E+02 -2.371134E+01 -4.262075E+00 -2.371134E+01 +3.866860E+02 
 +5.112162E+02 -1.044270E+00 -2.421575E+00 -1.044270E+00 +8.546683E+02 -1.252571E+01 -2.421575E+00 -1.252571E+01 +3.825034E+02 
 +5.165086E+02 -1.397709E+01 +6.933971E+00 -1.397709E+01 +8.488644E+02 +5.725346E+00 +6.933971E+00 +5.725346E+00 +3.969652E+02 
 +5.240750E+02 -4.472379E+00 -7.213575E+00 -4.472379E+00 +8.426443E+02 +9.908123E+00 -7.213575E+00 +9.908123E+00 +3.998925E+02 
 +5.149506E+02 -8.306294E+00 -3.676254E+00 -8.306294E+00 +8.411763E+02 +1.482633E+01 -3.676254E+00 +1.482633E+01 +4.008218E+02 
 +4.912777E+02 -9.712207E+00 +8.106624E+00 -9.712207E+00 +8.546359E+02 +1.474880E+01 +8.106624E+00 +1.474880E+01 +3.852383E+02 
 +4.816479E+02 -6.705132E+00 +2.236753E+01 -6.705132E+00 +8.619689E+02 +9.463348E+00 +2.236753E+01 +9.463348E+00 +3.690238E+02 
 +4.781064E+02 -1.284371E-01 +2.882577E+01 -1.284371E-01 +8.557099E+02 +8.383271E+00 +2.882577E+01 +8.383271E+00 +3.661222E+02 
 +4.989601E+02 +1.534286E+01 +7.997017E+00 +1.534286E+01 +8.499772E+02 +8.191309E+00 +7.997017E+00 +8.191309E+00 +3.739445E+02 
 +4.985273E+02 +1.570363E+01 +1.112127E+01 +1.570363E+01 +8.498040E+02 +8.064080E+00 +1.112127E+01 +8.064080E+00 +3.799289E+02 
 +4.767986E+02 +1.164819E+01 +1.606671E+01 +1.164819E+01 +8.532952E+02 +1.605355E+01 +1.606671E+01 +1.605355E+01 +3.737729E+02 
 +4.785927E+02 -5.764075E+00 +2.226821E+01 -5.764075E+00 +8.553719E+02 +9.273134E+00 +2.226821E+01 +9.273134E+00 +3.585364E+02 
 +4.710131E+02 -9.090111E+00 +1.782579E+01 -9.090111E+00 +8.561522E+02 +1.117045E+00 +1.782579E+01 +1.117045E+00 +3.558878E+02 
 +4.698769E+02 -4.072467E+00 +1.683033E+01 -4.072467E+00 +8.669199E+02 -1.588922E-01 +1.683033E+01 -1.588922E-01 +3.747086E+02 
 +4.816280E+02 -7.649642E+00 +2.219531E+01 -7.649642E+00 +8.769384E+02 -3.123873E+00 +2.219531E+01 -3.123873E+00 +3.984674E+02 
 +4.783180E+02 -1.196546E+01 +2.215919E+01 -1.196546E+01 +8.743659E+02 -2.116761E+00 +2.215919E+01 -2.116761E+00 +4.014641E+02 
 +4.778598E+02 -1.115595E+01 +1.571369E+01 -1.115595E+01 +8.774502E+02 -5.406582E+00 +1.571369E+01 -5.406582E+00 +3.928840E+02 
 +4.850762E+02 -1.025781E+01 +1.396118E+01 -1.025781E+01 +8.851688E+02 -1.246415E+01 +1.396118E+01 -1.246415E+01 +3.932947E+02 
 +4.828072E+02 -9.508215E+00 +1.666289E+01 -9.508215E+00 +8.838929E+02 -1.666626E+01 +1.666289E+01 -1.666626E+01 +3.907611E+02 
 +4.875732E+02 -8.094321E+00 +1.501261E+01 -8.094321E+00 +8.864527E+02 -1.674107E+01 +1.501261E+01 -1.674107E+01 +3.924159E+02 
 +5.184318E+02 -1.245620E+01 +9.339901E+00 -1.245620E+01 +8.948177E+02 -2.239743E+01 +9.339901E+00 -2.239743E+01 +3.921974E+02 
 +5.282249E+02 -1.465720E+01 +5.112930E+00 -1.465720E+01 +8.789771E+02 -2.461900E+01 +5.112930E+00 -2.461900E+01 +3.913343E+02 
 +5.088998E+02 -9.573609E+00 -1.822011E+00 -9.573609E+00 +8.471462E+02 -1.989100E+01 -1.822011E+00 -1.989100E+01 +3.870282E+02 
 +5.071581E+02 -1.439613E+01 -1.290864E-02 -1.439613E+01 +8.406094E+02 -6.430764E+00 -1.290864E-02 -6.430764E+00 +3.874409E+02 
 +5.320194E+02 -3.262622E+00 -1.091671E+01 -3.262622E+00 +8.599029E+02 +7.678310E+00 -1.091671E+01 +7.678310E+00 +3.996514E+02 
 +5.144211E+02 -1.639128E+00 +4.887470E+00 -1.639128E+00 +8.724400E+02 +1.436066E+01 +4.887470E+00 +1.436066E+01 +3.970872E+02 
 +4.993125E+02 -5.670406E+00 +1.738418E+01 -5.670406E+00 +8.659784E+02 +1.169104E+01 +1.738418E+01 +1.169104E+01 +3.822093E+02 
 +4.842970E+02 -1.214652E+00 +2.385644E+01 -1.214652E+00 +8.533916E+02 +6.767891E+00 +2.385644E+01 +6.767891E+00 +3.680413E+02 
 +4.726819E+02 +1.343916E+00 +3.188184E+01 +1.343916E+00 +8.445904E+02 +6.304520E+00 +3.188184E+01 +6.304520E+00 +3.588941E+02 
 +5.113099E+02 +1.070286E+01 +2.540988E+00 +1.070286E+01 +8.555444E+02 +4.993270E+00 +2.540988E+00 +4.993270E+00 +3.759190E+02 
 +5.122270E+02 +1.735732E+01 +7.152944E+00 +1.735732E+01 +8.562196E+02 +5.589196E+00 +7.152944E+00 +5.589196E+00 +3.831505E+02 
 +4.727700E+02 +1.452121E+01 +1.130223E+01 +1.452121E+01 +8.414312E+02 +1.602084E+01 +1.130223E+01 +1.602084E+01 +3.706948E+02 
 +4.631073E+02 +8.247394E+00 +8.884201E+00 +8.247394E+00 +8.514396E+02 +1.799919E+01 +8.884201E+00 +1.799919E+01 +3.632697E+02 
 +4.356578E+02 +6.769299E+00 +1.009776E+01 +6.769299E+00 +8.600625E+02 +1.271761E+01 +1.009776E+01 +1.271761E+01 +3.586994E+02 
 +4.660811E+02 +2.410645E+00 +5.445391E+00 +2.410645E+00 +8.775503E+02 +1.304411E+01 +5.445391E+00 +1.304411E+01 +3.709005E+02 
 +4.704281E+02 -5.017755E+00 +1.668876E+01 -5.017755E+00 +8.739979E+02 +7.255416E+00 +1.668876E+01 +7.255416E+00 +3.778175E+02 
 +4.795559E+02 -7.740823E+00 +1.661192E+01 -7.740823E+00 +8.823128E+02 +1.595293E+00 +1.661192E+01 +1.595293E+00 +3.922648E+02 
 +4.840231E+02 -7.352937E+00 +1.079591E+01 -7.352937E+00 +8.821571E+02 -2.726436E-01 +1.079591E+01 -2.726436E-01 +3.879176E+02 
 +4.959291E+02 -5.378916E+00 +7.400560E+00 -5.378916E+00 +8.907885E+02 -7.127389E+00 +7.400560E+00 -7.127389E+00 +4.039357E+02 
 +4.907417E+02 -4.130396E+00 +2.616800E+01 -4.130396E+00 +8.874535E+02 -8.366582E+00 +2.616800E+01 -8.366582E+00 +4.060157E+02 
 +4.899649E+02 -5.705586E+00 +1.664821E+01 -5.705586E+00 +8.673654E+02 -1.683799E-01 +1.664821E+01 -1.683799E-01 +3.963291E+02 
 +5.364892E+02 -5.695808E+00 +4.725005E-01 -5.695808E+00 +8.760062E+02 -5.060143E+00 +4.725005E-01 -5.060143E+00 +4.019292E+02 
 +5.153697E+02 -1.102900E+01 +6.824470E+00 -1.102900E+01 +8.623786E+02 -1.602986E+01 +6.824470E+00 -1.602986E+01 +3.881245E+02 
 +5.171957E+02 -9.418432E+00 -2.827063E+00 -9.418432E+00 +8.602419E+02 -1.679917E+01 -2.827063E+00 -1.679917E+01 +3.944557E+02 
 +5.142635E+02 -1.395913E+01 -5.685745E+00 -1.395913E+01 +8.454793E+02 -5.870195E+00 -5.685745E+00 -5.870195E+00 +3.868670E+02 
 +5.292657E+02 +2.823688E+00 -1.993107E+00 +2.823688E+00 +8.809224E+02 +1.826031E+01 -1.993107E+00 +1.826031E+01 +3.884350E+02 
 +5.174943E+02 +2.921885E+00 +1.307109E+01 +2.921885E+00 +8.804070E+02 +1.531819E+01 +1.307109E+01 +1.531819E+01 +3.865911E+02 
 +5.007113E+02 -2.163788E+00 +2.228186E+01 -2.163788E+00 +8.646043E+02 +7.213210E+00 +2.228186E+01 +7.213210E+00 +3.748814E+02 
 +4.849336E+02 +1.653384E+00 +2.592966E+01 +1.653384E+00 +8.545052E+02 +6.822410E+00 +2.592966E+01 +6.822410E+00 +3.617496E+02 
 +4.820496E+02 -8.391225E-01 +2.548095E+01 -8.391225E-01 +8.509897E+02 +2.663831E+00 +2.548095E+01 +2.663831E+00 +3.593390E+02 
 +5.062497E+02 +6.449851E+00 +2.925763E+00 +6.449851E+00 +8.544942E+02 -1.930051E+00 +2.925763E+00 -1.930051E+00 +3.733974E+02 
 +5.041995E+02 +1.741061E+01 +1.335807E+01 +1.741061E+01 +8.446333E+02 +2.123863E+00 +1.335807E+01 +2.123863E+00 +3.699985E+02 
 +4.899925E+02 +1.253511E+01 +1.789581E+01 +1.253511E+01 +8.481313E+02 +9.361381E+00 +1.789581E+01 +9.361381E+00 +3.718206E+02 
 +4.568546E+02 +8.395167E+00 +2.572065E+00 +8.395167E+00 +8.563620E+02 +1.045877E+01 +2.572065E+00 +1.045877E+01 +3.795932E+02 
 +4.260109E+02 +8.498924E+00 +6.467354E+00 +8.498924E+00 +8.575495E+02 +1.016176E+01 +6.467354E+00 +1.016176E+01 +3.810794E+02 
 +4.289789E+02 +3.327879E+00 +7.291062E+00 +3.327879E+00 +8.577490E+02 +1.663783E+01 +7.291062E+00 +1.663783E+01 +3.634596E+02 
 +4.706580E+02 +1.192920E+00 -7.179595E+00 +1.192920E+00 +8.766984E+02 +1.213775E+01 -7.179595E+00 +1.213775E+01 +3.583173E+02 
 +4.774421E+02 +2.954611E+00 -4.130956E+00 +2.954611E+00 +8.826218E+02 +5.844898E+00 -4.130956E+00 +5.844898E+00 +3.595805E+02 
 +4.798259E+02 +2.456739E+00 -7.096944E+00 +2.456739E+00 +8.834196E+02 +1.046796E+01 -7.096944E+00 +1.046796E+01 +3.563812E+02 
 +4.947709E+02 +1.553613E+00 -6.112713E+00 +1.553613E+00 +8.918079E+02 +6.042449E+00 -6.112713E+00 +6.042449E+00 +3.829896E+02 
 +5.078975E+02 +3.841742E-04 +2.891861E+01 +3.841742E-04 +8.980539E+02 -2.717864E+00 +2.891861E+01 -2.717864E+00 +4.130477E+02 
 +5.120093E+02 -7.194127E+00 +1.269203E+01 -7.194127E+00 +8.814479E+02 -6.610278E-01 +1.269203E+01 -6.610278E-01 +4.094432E+02 
 +5.461317E+02 -5.325755E+00 -1.204909E+01 -5.325755E+00 +8.765906E+02 -4.522948E+00 -1.204909E+01 -4.522948E+00 +4.071803E+02 
 +5.206237E+02 -8.729158E+00 -4.827590E+00 -8.729158E+00 +8.669148E+02 -1.636036E+01 -4.827590E+00 -1.636036E+01 +3.985327E+02 
 +5.169493E+02 -1.001096E+01 -5.449401E+00 -1.001096E+01 +8.660291E+02 -1.591484E+01 -5.449401E+00 -1.591484E+01 +3.983517E+02 
 +5.214943E+02 -1.262329E+01 -7.686540E+00 -1.262329E+01 +8.610385E+02 +1.515481E+00 -7.686540E+00 +1.515481E+00 +3.839725E+02 
 +5.093297E+02 +1.676713E+01 +3.615903E+00 +1.676713E+01 +8.544892E+02 +1.069192E+01 +3.615903E+00 +1.069192E+01 +3.598471E+02 
 +5.057543E+02 +1.498934E+01 +9.790743E+00 +1.498934E+01 +8.565199E+02 +9.725252E+00 +9.790743E+00 +9.725252E+00 +3.665878E+02 
 +4.830062E+02 +4.435442E+00 +2.571222E+01 +4.435442E+00 +8.588921E+02 +9.932361E+00 +2.571222E+01 +9.932361E+00 +3.623399E+02 
 +4.772839E+02 +1.572639E+00 +2.138877E+01 +1.572639E+00 +8.581452E+02 +8.323904E+00 +2.138877E+01 +8.323904E+00 +3.453032E+02 
 +4.957785E+02 -1.765853E+00 +1.216034E+01 -1.765853E+00 +8.660284E+02 +1.086720E+00 +1.216034E+01 +1.086720E+00 +3.520355E+02 
 +5.093221E+02 +3.718264E+00 +6.210813E+00 +3.718264E+00 +8.804413E+02 +6.510635E-02 +6.210813E+00 +6.510635E-02 +3.658310E+02 
 +5.042310E+02 +1.080785E+01 +2.347379E+01 +1.080785E+01 +8.746605E+02 +9.319530E-01 +2.347379E+01 +9.319530E-01 +3.569267E+02 
 +4.982501E+02 +8.394765E+00 +1.960629E+01 +8.394765E+00 +8.712064E+02 -1.851889E+00 +1.960629E+01 -1.851889E+00 +3.587641E+02 
 +4.519272E+02 +2.422658E+00 -1.043565E-01 +2.422658E+00 +8.575149E+02 +2.294546E+00 -1.043565E-01 +2.294546E+00 +3.915326E+02 
 +4.433171E+02 +2.963041E+00 +1.152187E+01 +2.963041E+00 +8.602634E+02 +8.781590E+00 +1.152187E+01 +8.781590E+00 +4.207084E+02 
 +4.141537E+02 +3.087058E+00 +1.459351E+01 +3.087058E+00 +8.432514E+02 +8.485294E+00 +1.459351E+01 +8.485294E+00 +3.704329E+02 
 +4.734103E+02 +5.503349E+00 -1.847868E+01 +5.503349E+00 +8.718515E+02 +4.011534E+00 -1.847868E+01 +4.011534E+00 +3.559083E+02 
 +4.789669E+02 +6.659441E+00 -1.361399E+01 +6.659441E+00 +8.761062E+02 +4.442888E+00 -1.361399E+01 +4.442888E+00 +3.468038E+02 
 +4.802463E+02 +5.391769E+00 -1.619092E+01 +5.391769E+00 +8.830071E+02 +8.753950E+00 -1.619092E+01 +8.753950E+00 +3.475950E+02 
 +4.840428E+02 +1.210792E+00 -1.136606E+01 +1.210792E+00 +8.796414E+02 +1.124563E+01 -1.136606E+01 +1.124563E+01 +3.712403E+02 
 +5.178418E+02 +8.894715E-01 +2.689860E+01 +8.894715E-01 +8.762941E+02 +1.390550E+01 +2.689860E+01 +1.390550E+01 +4.151512E+02 
 +5.136445E+02 -4.462830E+00 +3.516974E+00 -4.462830E+00 +8.581045E+02 +1.376306E+01 +3.516974E+00 +1.376306E+01 +4.142191E+02 
 +5.228026E+02 -2.932110E+00 -1.592343E+01 -2.932110E+00 +8.521934E+02 +7.281793E+00 -1.592343E+01 +7.281793E+00 +4.007432E+02 
 +5.219130E+02 +3.419742E+00 -1.580060E+01 +3.419742E+00 +8.508063E+02 -2.828660E+00 -1.580060E+01 -2.828660E+00 +4.033430E+02 
 +5.213033E+02 -4.806742E+00 -1.710087E+01 -4.806742E+00 +8.638598E+02 -1.565369E+01 -1.710087E+01 -1.565369E+01 +4.092005E+02 
 +5.136369E+02 -2.691640E+00 -2.532204E+00 -2.691640E+00 +8.620737E+02 -5.686082E+00 -2.532204E+00 -5.686082E+00 +3.799953E+02 
 +5.122437E+02 +7.257626E+00 +1.597368E+01 +7.257626E+00 +8.862726E+02 +6.098567E+00 +1.597368E+01 +6.098567E+00 +3.567407E+02 
 +5.041808E+02 +3.326432E+00 +2.003039E+01 +3.326432E+00 +8.804944E+02 +1.116048E+01 +2.003039E+01 +1.116048E+01 +3.565312E+02 
 +4.866101E+02 -2.267202E+00 +3.140292E+01 -2.267202E+00 +8.767178E+02 +8.153936E+00 +3.140292E+01 +8.153936E+00 +3.592978E+02 
 +4.866451E+02 -2.074943E-01 +1.945664E+01 -2.074943E-01 +8.739812E+02 +6.405966E+00 +1.945664E+01 +6.405966E+00 +3.458086E+02 
 +4.906091E+02 -1.930723E+00 +5.097497E+00 -1.930723E+00 +8.721177E+02 +7.867268E-01 +5.097497E+00 +7.867268E-01 +3.250996E+02 
 +4.950333E+02 +4.443156E+00 +8.226860E+00 +4.443156E+00 +8.803788E+02 -5.386024E+00 +8.226860E+00 -5.386024E+00 +3.255385E+02 
 +4.852954E+02 +7.129188E+00 +1.742462E+01 +7.129188E+00 +8.771993E+02 -5.332036E+00 +1.742462E+01 -5.332036E+00 +3.325067E+02 
 +4.704580E+02 +4.686911E+00 +9.730450E+00 +4.686911E+00 +8.620045E+02 -2.937183E+00 +9.730450E+00 -2.937183E+00 +3.470893E+02 
 +4.520798E+02 -5.554710E+00 -8.462698E+00 -5.554710E+00 +8.588822E+02 +1.296760E+00 -8.462698E+00 +1.296760E+00 +3.915568E+02 
 +4.499448E+02 -4.391492E+00 +2.784319E+00 -4.391492E+00 +8.627334E+02 -1.847113E-01 +2.784319E+00 -1.847113E-01 +4.182982E+02 
 +4.398227E+02 -4.777729E-01 +4.462691E+00 -4.777729E-01 +8.487169E+02 -3.175758E+00 +4.462691E+00 -3.175758E+00 +3.802699E+02 
 +4.727055E+02 +5.209528E+00 -1.935653E+01 +5.209528E+00 +8.647344E+02 -1.009583E+00 -1.935653E+01 -1.009583E+00 +3.594878E+02 
 +4.833144E+02 +7.636572E+00 -1.503592E+01 +7.636572E+00 +8.727049E+02 +3.726874E+00 -1.503592E+01 +3.726874E+00 +3.514200E+02 
 +4.929801E+02 +7.836662E+00 -1.733908E+01 +7.836662E+00 +8.858892E+02 +3.273593E+00 -1.733908E+01 +3.273593E+00 +3.611301E+02 
 +5.108506E+02 -7.965389E-01 -1.403973E+00 -7.965389E-01 +8.909561E+02 +1.009722E+01 -1.403973E+00 +1.009722E+01 +3.877598E+02 
 +5.369488E+02 +1.627143E+00 +2.455133E+01 +1.627143E+00 +8.813136E+02 +2.031748E+01 +2.455133E+01 +2.031748E+01 +4.115206E+02 
 +5.189911E+02 +3.202058E+00 +4.432764E+00 +3.202058E+00 +8.576316E+02 +1.961713E+01 +4.432764E+00 +1.961713E+01 +4.057924E+02 
 +5.146711E+02 +2.131356E+00 -1.032186E+01 +2.131356E+00 +8.485193E+02 +9.307639E+00 -1.032186E+01 +9.307639E+00 +3.922016E+02 
 +5.046780E+02 +1.151795E+01 -1.170033E+01 +1.151795E+01 +8.310740E+02 +5.120711E+00 -1.170033E+01 +5.120711E+00 +3.756899E+02 
 +5.122500E+02 +8.425407E+00 -3.312086E+01 +8.425407E+00 +8.491336E+02 +6.853423E+00 -3.312086E+01 +6.853423E+00 +3.808378E+02 
 +5.088264E+02 +5.096085E+00 -5.837977E+00 +5.096085E+00 +8.787670E+02 +2.610947E+00 -5.837977E+00 +2.610947E+00 +3.696161E+02 
TENSORS Strain float 
 +1.311801E-04 -8.120318E-05 +3.320580E-04 -8.120318E-05 +5.025395E-03 +9.102672E-05 +3.320580E-04 +9.102672E-05 -3.167998E-04 
 +1.270499E-04 -4.820873E-05 +3.648159E-04 -4.820873E-05 +5.149206E-03 +1.536000E-04 +3.648159E-04 +1.536000E-04 -3.283424E-04 
 +1.325194E-04 -7.883304E-05 +4.438740E-04 -7.883304E-05 +5.137605E-03 +6.674992E-05 +4.438740E-04 +6.674992E-05 -2.032373E-04 
 +1.176035E-04 +9.611779E-06 +1.332026E-04 +9.611779E-06 +5.128805E-03 -7.056779E-05 +1.332026E-04 -7.056779E-05 -7.838316E-05 
 -2.464376E-04 -1.149812E-04 -2.808393E-05 -1.149812E-04 +5.307468E-03 -2.320873E-04 -2.808393E-05 -2.320873E-04 -1.003631E-05 
 -1.995159E-04 -8.246007E-05 +8.785920E-05 -8.246007E-05 +5.398379E-03 -2.429687E-04 +8.785920E-05 -2.429687E-04 -3.446064E-05 
 -1.725579E-04 -1.089133E-04 +1.520185E-04 -1.089133E-04 +5.278813E-03 -1.146178E-04 +1.520185E-04 -1.146178E-04 -9.692059E-05 
 -2.395965E-04 -1.164944E-04 +1.253148E-04 -1.164944E-04 +5.168668E-03 -4.717086E-05 +1.253148E-04 -4.717086E-05 -1.249040E-04 
 -2.527730E-04 -1.181324E-04 +8.594429E-05 -1.181324E-04 +5.073675E-03 -9.843484E-05 +8.594429E-05 -9.843484E-05 -3.609602E-06 
 -2.473049E-04 -1.235740E-04 +1.876958E-04 -1.235740E-04 +5.019374E-03 -1.799675E-04 +1.876958E-04 -1.799675E-04 +1.444570E-04 
 -1.531878E-04 -8.804119E-05 +1.785725E-04 -8.804119E-05 +4.980304E-03 -2.047682E-04 +1.785725E-04 -2.047682E-04 +1.546036E-04 
 -1.796888E-04 -5.615846E-05 +2.231001E-04 -5.615846E-05 +4.934067E-03 -1.321906E-04 +2.231001E-04 -1.321906E-04 +2.806078E-04 
 -2.153280E-04 +1.309208E-04 +2.222153E-04 +1.309208E-04 +4.928861E-03 -6.552740E-05 +2.222153E-04 -6.552740E-05 +4.276711E-04 
 -2.400693E-05 +6.589763E-05 +1.764958E-04 +6.589763E-05 +4.867575E-03 -7.223674E-05 +1.764958E-04 -7.223674E-05 +4.221733E-04 
 +2.453855E-04 +8.342564E-05 +1.843414E-04 +8.342564E-05 +4.742484E-03 -3.073270E-05 +1.843414E-04 -3.073270E-05 +2.439836E-04 
 +3.634877E-04 +1.270959E-04 +2.003441E-04 +1.270959E-04 +4.720919E-03 +2.841161E-06 +2.003441E-04 +2.841161E-06 +5.222358E-05 
 +4.464144E-04 +1.122723E-04 +1.783573E-04 +1.122723E-04 +4.833646E-03 +8.783303E-06 +1.783573E-04 +8.783303E-06 +4.769184E-06 
 +1.907570E-04 +4.236658E-06 -3.255521E-04 +4.236658E-06 +5.023261E-03 +9.000853E-06 -3.255521E-04 +9.000853E-06 -2.499737E-05 
 +9.145116E-05 +1.528099E-04 -3.326569E-04 +1.528099E-04 +5.115263E-03 +1.352632E-05 -3.326569E-04 +1.352632E-05 -1.761970E-04 
 -2.724946E-06 +2.783845E-05 -4.579021E-04 +2.783845E-05 +5.060600E-03 +1.582800E-05 -4.579021E-04 +1.582800E-05 -2.219961E-04 
 +8.731088E-05 -7.537492E-05 -1.959772E-04 -7.537492E-05 +4.946686E-03 -4.058445E-06 -1.959772E-04 -4.058445E-06 -2.281981E-04 
 +9.182690E-05 +3.171289E-05 +5.590515E-04 +3.171289E-05 +5.153440E-03 +2.292042E-04 +5.590515E-04 +2.292042E-04 -4.154485E-04 
 +1.164008E-04 -1.903685E-05 +5.474801E-04 -1.903685E-05 +5.111203E-03 +1.829006E-04 +5.474801E-04 +1.829006E-04 -2.933392E-04 
 +1.652729E-04 -9.422932E-05 +5.865235E-04 -9.422932E-05 +5.138133E-03 +9.786854E-05 +5.865235E-04 +9.786854E-05 -7.691519E-05 
 -1.335635E-05 -1.091974E-04 -1.752950E-05 -1.091974E-04 +5.185375E-03 -8.359029E-05 -1.752950E-05 -8.359029E-05 +1.100928E-04 
 -3.240696E-04 -8.392749E-05 -4.749251E-05 -8.392749E-05 +5.240037E-03 -1.909242E-04 -4.749251E-05 -1.909242E-04 +9.965685E-05 
 -2.285637E-04 -9.052603E-05 +1.496053E-04 -9.052603E-05 +5.263567E-03 -1.869058E-04 +1.496053E-04 -1.869058E-04 +3.392254E-05 
 -1.658094E-04 -7.772371E-05 +2.644168E-04 -7.772371E-05 +5.221321E-03 -1.727998E-04 +2.644168E-04 -1.727998E-04 -4.797834E-05 
 -2.618231E-04 -8.990557E-05 +1.962991E-04 -8.990557E-05 +5.182121E-03 -1.068931E-04 +1.962991E-04 -1.068931E-04 -1.271968E-04 
 -2.611320E-04 -6.580056E-05 +1.063017E-04 -6.580056E-05 +5.083529E-03 -6.657482E-05 +1.063017E-04 -6.657482E-05 -5.862679E-05 
 -1.931112E-04 -7.249358E-05 +1.635029E-04 -7.249358E-05 +4.993147E-03 -1.112049E-04 +1.635029E-04 -1.112049E-04 +1.156153E-04 
 -1.755723E-04 -2.281412E-05 +1.720648E-04 -2.281412E-05 +4.921600E-03 -1.953700E-04 +1.720648E-04 -1.953700E-04 +2.001057E-04 
 -5.051367E-05 +4.808644E-05 +2.484649E-04 +4.808644E-05 +4.891199E-03 -2.076008E-04 +2.484649E-04 -2.076008E-04 +3.278525E-04 
 +3.845823E-05 +1.595698E-04 +2.163381E-04 +1.595698E-04 +4.787803E-03 -1.510952E-04 +2.163381E-04 -1.510952E-04 +4.394120E-04 
 +1.899124E-04 +5.395558E-05 +1.639109E-04 +5.395558E-05 +4.651360E-03 -1.273537E-04 +1.639109E-04 -1.273537E-04 +3.952707E-04 
 +3.139027E-04 +5.399661E-05 +1.409746E-04 +5.399661E-05 +4.694491E-03 -1.365521E-04 +1.409746E-04 -1.365521E-04 +2.303494E-04 
 +4.213144E-04 -3.190265E-06 +2.095228E-04 -3.190265E-06 +4.732382E-03 -1.045142E-04 +2.095228E-04 -1.045142E-04 +9.283101E-05 
 +4.617848E-04 -1.560424E-05 +2.278766E-04 -1.560424E-05 +4.801658E-03 -4.671933E-05 +2.278766E-04 -4.671933E-05 +3.586569E-05 
 +8.696564E-05 -9.784590E-05 -1.225605E-04 -9.784590E-05 +4.975429E-03 +3.566412E-05 -1.225605E-04 +3.566412E-05 -3.210521E-06 
 -2.988856E-05 +1.091219E-04 -1.057761E-04 +1.091219E-04 +5.104788E-03 +9.629905E-05 -1.057761E-04 +9.629905E-05 -1.664395E-04 
 -1.016304E-04 +6.153860E-05 -2.157942E-04 +6.153860E-05 +5.170603E-03 +1.498083E-04 -2.157942E-04 +1.498083E-04 -2.375084E-04 
 -8.040825E-05 -3.167964E-06 -8.079672E-05 -3.167964E-06 +5.195914E-03 +2.328682E-04 -8.079672E-05 +2.328682E-04 -3.653763E-04 
 +6.413108E-05 +6.618429E-05 +5.406138E-04 +6.618429E-05 +5.145420E-03 +2.600955E-04 +5.406138E-04 +2.600955E-04 -4.012069E-04 
 +7.431433E-05 +5.813506E-05 +5.172931E-04 +5.813506E-05 +5.124412E-03 +1.689277E-04 +5.172931E-04 +1.689277E-04 -3.000239E-04 
 +8.101608E-05 +1.604166E-05 +5.515441E-04 +1.604166E-05 +5.163726E-03 +1.196291E-04 +5.515441E-04 +1.196291E-04 -7.822238E-05 
 -1.864739E-04 -1.789544E-05 -1.608710E-04 -1.789544E-05 +5.199464E-03 +5.098182E-05 -1.608710E-04 +5.098182E-05 +1.451744E-04 
 -3.148547E-04 -8.387157E-06 -6.366713E-05 -8.387157E-06 +5.170760E-03 -7.519472E-05 -6.366713E-05 -7.519472E-05 +1.814511E-04 
 -2.033097E-04 -9.086817E-05 +1.527078E-04 -9.086817E-05 +5.144459E-03 -1.523534E-04 +1.527078E-04 -1.523534E-04 +1.171038E-04 
 -1.415403E-04 -5.951491E-05 +2.968175E-04 -5.951491E-05 +5.132939E-03 -1.763836E-04 +2.968175E-04 -1.763836E-04 -1.326921E-05 
 -2.440130E-04 -5.020785E-05 +2.531101E-04 -5.020785E-05 +5.125901E-03 -1.829816E-04 +2.531101E-04 -1.829816E-04 -1.208026E-04 
 -2.439964E-04 -8.042187E-05 +1.408532E-04 -8.042187E-05 +5.075967E-03 -1.157420E-04 +1.408532E-04 -1.157420E-04 -1.072025E-04 
 -1.519525E-04 -5.996640E-06 +1.364326E-04 -5.996640E-06 +4.993471E-03 -1.093945E-04 +1.364326E-04 -1.093945E-04 +4.345631E-05 
 -5.172848E-05 +4.013501E-05 +2.276060E-04 +4.013501E-05 +4.893435E-03 -2.258646E-04 +2.276060E-04 -2.258646E-04 +1.609871E-04 
 +7.832067E-05 +2.486289E-04 +2.422412E-04 +2.486289E-04 +4.813679E-03 -2.461611E-04 +2.422412E-04 -2.461611E-04 +2.758901E-04 
 +2.160012E-04 +2.415072E-04 +2.157878E-04 +2.415072E-04 +4.734328E-03 -1.827277E-04 +2.157878E-04 -1.827277E-04 +3.136043E-04 
 +2.673807E-04 +1.970501E-04 +1.065603E-04 +1.970501E-04 +4.719100E-03 -1.704391E-04 +1.065603E-04 -1.704391E-04 +2.628366E-04 
 +2.441195E-04 +1.336778E-04 +9.581527E-05 +1.336778E-04 +4.775326E-03 -1.963119E-04 +9.581527E-05 -1.963119E-04 +2.332427E-04 
 +3.112125E-04 -2.377345E-05 +1.662454E-04 -2.377345E-05 +4.755451E-03 -2.147786E-04 +1.662454E-04 -2.147786E-04 +2.011593E-04 
 +3.627679E-04 -7.822818E-06 +1.951092E-04 -7.822818E-06 +4.786424E-03 -1.518880E-04 +1.951092E-04 -1.518880E-04 +1.444361E-04 
 +5.127723E-05 -1.010916E-04 +2.827011E-04 -1.010916E-04 +4.951226E-03 -1.024491E-05 +2.827011E-04 -1.024491E-05 +1.991410E-06 
 -5.140437E-05 -2.027559E-05 +3.364308E-04 -2.027559E-05 +5.074769E-03 +9.034408E-05 +3.364308E-04 +9.034408E-05 -2.149983E-04 
 -7.701090E-05 -6.303311E-05 +2.070841E-04 -6.303311E-05 +5.109720E-03 +1.298877E-04 +2.070841E-04 +1.298877E-04 -2.360837E-04 
 -8.425984E-05 -6.100117E-05 +1.750793E-04 -6.100117E-05 +5.149185E-03 +2.419562E-04 +1.750793E-04 +2.419562E-04 -3.268187E-04 
 +7.307177E-05 -1.477773E-05 +4.362969E-04 -1.477773E-05 +5.092497E-03 +1.968666E-04 +4.362969E-04 +1.968666E-04 -2.980137E-04 
 +6.860784E-05 -1.552868E-05 +4.182371E-04 -1.552868E-05 +5.141852E-03 +9.123913E-05 +4.182371E-04 +9.123913E-05 -3.317550E-04 
 +5.110791E-05 +2.673093E-05 +4.681796E-04 +2.673093E-05 +5.172586E-03 +5.689846E-05 +4.681796E-04 +5.689846E-05 -1.258795E-04 
 -2.931560E-04 +2.045453E-05 -2.517412E-04 +2.045453E-05 +5.230908E-03 +4.033775E-05 -2.517412E-04 +4.033775E-05 +7.772652E-05 
 -4.164510E-04 -2.670124E-05 -1.541956E-04 -2.670124E-05 +5.206855E-03 -5.609504E-05 -1.541956E-04 -5.609504E-05 +1.698431E-04 
 -2.198486E-04 -1.114805E-04 +1.444160E-04 -1.114805E-04 +5.104831E-03 -1.220862E-04 +1.444160E-04 -1.220862E-04 +5.562104E-05 
 -7.481969E-05 -8.149175E-05 +2.755538E-04 -8.149175E-05 +5.068976E-03 -1.631509E-04 +2.755538E-04 -1.631509E-04 -1.061481E-04 
 -1.494754E-04 -3.738428E-05 +2.661678E-04 -3.738428E-05 +5.048287E-03 -2.426666E-04 +2.661678E-04 -2.426666E-04 -1.166073E-04 
 -2.044893E-04 -3.812244E-05 +1.914636E-04 -3.812244E-05 +5.017389E-03 -2.334329E-04 +1.914636E-04 -2.334329E-04 -1.004517E-04 
 -1.244062E-04 -3.821862E-05 +1.477298E-04 -3.821862E-05 +4.898959E-03 -1.734354E-04 +1.477298E-04 -1.734354E-04 +4.748005E-06 
 +1.385718E-04 +4.523298E-05 +2.015434E-04 +4.523298E-05 +4.815864E-03 -2.282583E-04 +2.015434E-04 -2.282583E-04 +7.295863E-05 
 +2.742541E-04 +2.476142E-04 +1.422824E-04 +2.476142E-04 +4.795196E-03 -2.407554E-04 +1.422824E-04 -2.407554E-04 +9.017872E-05 
 +2.973909E-04 +2.481252E-04 +9.662220E-05 +2.481252E-04 +4.783289E-03 -1.773903E-04 +9.662220E-05 -1.773903E-04 +7.103273E-05 
 +2.952153E-04 +2.536665E-04 -2.569348E-06 +2.536665E-04 +4.851419E-03 -1.771613E-04 -2.569348E-06 -1.771613E-04 +7.526177E-05 
 +2.301278E-04 +2.046081E-04 -2.528099E-05 +2.046081E-04 +4.860827E-03 -1.626424E-04 -2.528099E-05 -1.626424E-04 +1.461676E-04 
 +1.477747E-04 +1.023118E-04 -3.513972E-05 +1.023118E-04 +4.830647E-03 -1.740754E-04 -3.513972E-05 -1.740754E-04 +2.763208E-04 
 +6.325291E-05 +1.153212E-04 +3.365122E-05 +1.153212E-04 +4.879434E-03 -1.561062E-04 +3.365122E-05 -1.561062E-04 +1.791436E-04 
 -7.602259E-05 -2.496689E-05 +4.224693E-04 -2.496689E-05 +5.036803E-03 -4.902378E-05 +4.224693E-04 -4.902378E-05 -6.271254E-05 
 -5.892309E-05 -5.681546E-05 +4.376165E-04 -5.681546E-05 +5.096981E-03 +3.453942E-05 +4.376165E-04 +3.453942E-05 -1.931612E-04 
 -5.013716E-05 -7.352482E-05 +3.351791E-04 -7.352482E-05 +5.043302E-03 +1.361907E-04 +3.351791E-04 +1.361907E-04 -2.069933E-04 
 +2.837756E-05 -9.308842E-05 +2.551500E-04 -9.308842E-05 +5.038126E-03 +2.406370E-04 +2.551500E-04 +2.406370E-04 -1.921646E-04 
 +7.791950E-05 +7.412175E-05 +2.643553E-04 +7.412175E-05 +5.083799E-03 +2.015198E-04 +2.643553E-04 +2.015198E-04 -2.376624E-04 
 +6.459754E-05 +3.500493E-05 +2.944828E-04 +3.500493E-05 +5.124412E-03 +6.254530E-05 +2.944828E-04 +6.254530E-05 -3.128543E-04 
 +2.142367E-05 +3.767669E-05 +3.418589E-04 +3.767669E-05 +5.169817E-03 -2.912911E-05 +3.418589E-04 -2.912911E-05 -1.727532E-04 
 -3.216679E-04 +4.701197E-05 -2.190067E-04 +4.701197E-05 +5.259354E-03 -6.281185E-05 -2.190067E-04 -6.281185E-05 -4.517100E-05 
 -4.347904E-04 +5.374739E-06 -8.585391E-05 +5.374739E-06 +5.322575E-03 +9.483100E-06 -8.585391E-05 +9.483100E-06 -3.625643E-05 
 -2.395924E-04 -2.429871E-05 +1.800848E-04 -2.429871E-05 +5.301169E-03 +9.348687E-05 +1.800848E-04 +9.348687E-05 -2.155832E-04 
 -9.514050E-05 -2.662183E-05 +2.384842E-04 -2.662183E-05 +5.181011E-03 +1.294879E-05 +2.384842E-04 +1.294879E-05 -2.889570E-04 
 -1.024138E-04 -8.942168E-05 +2.616987E-04 -8.942168E-05 +5.039270E-03 -1.805451E-04 +2.616987E-04 -1.805451E-04 -1.909071E-04 
 -1.244960E-04 -1.128948E-04 +2.412419E-04 -1.128948E-04 +4.971668E-03 -2.494946E-04 +2.412419E-04 -2.494946E-04 -1.777874E-04 
 +3.817601E-05 -1.025359E-04 +2.018831E-04 -1.025359E-04 +4.828511E-03 -2.385014E-04 +2.018831E-04 -2.385014E-04 -1.145011E-04 
 +3.003448E-04 +1.864443E-04 +1.729259E-04 +1.864443E-04 +4.707716E-03 -2.259049E-04 +1.729259E-04 -2.259049E-04 -9.212631E-05 
 +3.471023E-04 +2.910980E-04 +1.012050E-04 +2.910980E-04 +4.764900E-03 -2.294718E-04 +1.012050E-04 -2.294718E-04 -9.451263E-05 
 +3.348388E-04 +2.496257E-04 +3.522461E-05 +2.496257E-04 +4.846484E-03 -2.237827E-04 +3.522461E-05 -2.237827E-04 -8.824212E-05 
 +3.558074E-04 +2.470668E-04 -4.833434E-05 +2.470668E-04 +4.897209E-03 -2.050066E-04 -4.833434E-05 -2.050066E-04 -7.231325E-05 
 +3.126789E-04 +1.993326E-04 -9.986595E-05 +1.993326E-04 +4.990884E-03 -1.595738E-04 -9.986595E-05 -1.595738E-04 +2.785797E-05 
 -6.249725E-05 +6.088651E-05 -2.334183E-04 +6.088651E-05 +5.130089E-03 -1.023239E-04 -2.334183E-04 -1.023239E-04 +2.201734E-04 
 -2.843411E-04 +1.141047E-04 -1.771221E-04 +1.141047E-04 +5.218233E-03 -7.586541E-05 -1.771221E-04 -7.586541E-05 +1.000843E-04 
 -1.380564E-04 +5.332227E-05 +3.337590E-04 +5.332227E-05 +5.172622E-03 -7.904871E-05 +3.337590E-04 -7.904871E-05 -1.595958E-04 
 -3.367595E-05 +2.432152E-05 +3.387658E-04 +2.432152E-05 +5.092669E-03 -5.829733E-05 +3.387658E-04 -5.829733E-05 -1.726581E-04 
 -2.440697E-05 +1.910666E-05 +3.305541E-04 +1.910666E-05 +5.054760E-03 +7.739518E-05 +3.305541E-04 +7.739518E-05 -1.490010E-04 
 +8.164712E-06 -2.236483E-06 +2.265971E-04 -2.236483E-06 +5.045966E-03 +2.438448E-04 +2.265971E-04 +2.438448E-04 -1.437908E-04 
 +5.298556E-05 +4.191503E-05 +1.585212E-05 +4.191503E-05 +5.103390E-03 +1.289293E-04 +1.585212E-05 +1.289293E-04 -2.606766E-04 
 -1.030088E-05 -4.516580E-06 +9.134406E-05 -4.516580E-06 +5.109618E-03 +5.453557E-05 +9.134406E-05 +5.453557E-05 -2.951249E-04 
 -7.848601E-05 -3.534002E-06 +1.153792E-04 -3.534002E-06 +5.192666E-03 -3.679604E-05 +1.153792E-04 -3.679604E-05 -2.788200E-04 
 -2.426775E-04 +3.115162E-05 -9.124702E-05 +3.115162E-05 +5.263036E-03 -5.805574E-05 -9.124702E-05 -5.805574E-05 -2.225963E-04 
 -2.918520E-04 +1.385061E-05 +8.618029E-05 +1.385061E-05 +5.303933E-03 +5.289804E-05 +8.618029E-05 +5.289804E-05 -2.341405E-04 
 -2.252491E-04 -2.924562E-05 +2.276183E-04 -2.924562E-05 +5.271013E-03 +1.292620E-04 +2.276183E-04 +1.292620E-04 -2.666257E-04 
 -1.211033E-04 -1.374138E-05 +2.691569E-04 -1.374138E-05 +5.199980E-03 +1.226485E-04 +2.691569E-04 +1.226485E-04 -2.646758E-04 
 -1.255248E-04 +2.923869E-05 +2.947286E-04 +2.923869E-05 +5.173102E-03 +2.131394E-05 +2.947286E-04 +2.131394E-05 -3.285955E-04 
 +2.159000E-05 +3.111470E-05 +2.836347E-04 +3.111470E-05 +5.091029E-03 -1.045739E-04 +2.836347E-04 -1.045739E-04 -3.474133E-04 
 +1.717414E-04 -6.381531E-05 +2.582898E-04 -6.381531E-05 +5.030166E-03 -1.376948E-04 +2.582898E-04 -1.376948E-04 -3.409072E-04 
 +3.126436E-04 +4.898307E-05 +2.406801E-04 +4.898307E-05 +4.899634E-03 -7.731298E-05 +2.406801E-04 -7.731298E-05 -3.206292E-04 
 +3.588274E-04 +2.344971E-04 +6.952669E-05 +2.344971E-04 +4.764705E-03 -9.866846E-05 +6.952669E-05 -9.866846E-05 -1.852673E-04 
 +3.455289E-04 +2.245964E-04 +1.581598E-05 +2.245964E-04 +4.816135E-03 -1.880198E-04 +1.581598E-05 -1.880198E-04 -1.193532E-04 
 +3.591434E-04 +1.734367E-04 -9.594074E-05 +1.734367E-04 +4.886947E-03 -2.262937E-04 -9.594074E-05 -2.262937E-04 -1.186752E-04 
 +3.183787E-04 +1.265036E-04 -1.567262E-04 +1.265036E-04 +5.039591E-03 -2.123427E-04 -1.567262E-04 -2.123427E-04 +6.485987E-05 
 -2.716509E-04 -3.644421E-05 -3.386161E-04 -3.644421E-05 +5.233597E-03 -1.361535E-04 -3.386161E-04 -1.361535E-04 +2.296374E-04 
 -3.642793E-04 +5.347779E-05 -2.960134E-04 +5.347779E-05 +5.290206E-03 -5.815309E-05 -2.960134E-04 -5.815309E-05 +8.699166E-05 
 -1.178091E-04 -1.139228E-06 +2.402484E-04 -1.139228E-06 +5.212257E-03 -5.451373E-05 +2.402484E-04 -5.451373E-05 -1.756566E-04 
 -4.384122E-05 -1.661403E-05 +2.901511E-04 -1.661403E-05 +5.107461E-03 -7.725668E-05 +2.901511E-04 -7.725668E-05 -2.142740E-04 
 -7.500775E-06 -2.769659E-05 +3.365226E-04 -2.769659E-05 +5.073853E-03 +3.403663E-05 +3.365226E-04 +3.403663E-05 -1.185707E-04 
 -4.068251E-05 -7.383482E-06 +1.471671E-04 -7.383482E-06 +5.106225E-03 +1.607658E-04 +1.471671E-04 +1.607658E-04 -1.688746E-04 
 -1.729487E-05 -3.528872E-05 -1.284560E-04 -3.528872E-05 +5.138525E-03 +3.412837E-05 -1.284560E-04 +3.412837E-05 -2.984738E-04 
 -6.477577E-05 -8.226095E-06 -5.106101E-05 -8.226095E-06 +5.153757E-03 +3.700617E-05 -5.106101E-05 +3.700617E-05 -2.917278E-04 
 -1.380619E-04 +3.035414E-05 +1.358621E-05 +3.035414E-05 +5.178908E-03 -2.411118E-05 +1.358621E-05 -2.411118E-05 -3.351721E-04 
 -1.247762E-04 +2.706078E-05 -2.403193E-05 +2.706078E-05 +5.091880E-03 -1.091736E-05 -2.403193E-05 -1.091736E-05 -2.426127E-04 
 -1.454419E-04 -9.255950E-06 +6.966623E-05 -9.255950E-06 +4.953842E-03 +9.290757E-05 +6.966623E-05 +9.290757E-05 -5.332372E-05 
 -1.440720E-04 -3.549381E-05 +1.323137E-04 -3.549381E-05 +4.953042E-03 +1.279342E-04 +1.323137E-04 +1.279342E-04 +1.214760E-05 
 -8.911741E-05 +2.777340E-05 +2.784026E-04 +2.777340E-05 +5.070241E-03 +8.549570E-05 +2.784026E-04 +8.549570E-05 -1.279304E-04 
 -3.838858E-05 +4.402016E-05 +2.774499E-04 +4.402016E-05 +5.117031E-03 +2.376496E-05 +2.774499E-04 +2.376496E-05 -3.208091E-04 
 +8.842489E-05 -1.065856E-05 +2.831561E-04 -1.065856E-05 +5.096565E-03 -6.735139E-05 +2.831561E-04 -6.735139E-05 -3.856713E-04 
 +1.721996E-04 -6.835429E-05 +2.596676E-04 -6.835429E-05 +5.092015E-03 -8.958449E-05 +2.596676E-04 -8.958449E-05 -4.620213E-04 
 +2.405342E-04 -3.659136E-05 +2.257416E-04 -3.659136E-05 +4.983662E-03 -3.808842E-05 +2.257416E-04 -3.808842E-05 -4.317158E-04 
 +3.116262E-04 +1.905460E-04 +2.394332E-05 +1.905460E-04 +4.797409E-03 -1.589358E-05 +2.394332E-05 -1.589358E-05 -3.097847E-04 
 +2.903486E-04 +1.971876E-04 +6.155693E-07 +1.971876E-04 +4.823365E-03 -9.843002E-05 +6.155693E-07 -9.843002E-05 -1.961325E-04 
 +2.586618E-04 +5.497475E-05 -8.311245E-05 +5.497475E-05 +4.952852E-03 -1.948650E-04 -8.311245E-05 -1.948650E-04 -1.425009E-04 
 +1.898328E-04 +4.272476E-06 -1.327710E-04 +4.272476E-06 +4.998356E-03 -1.806585E-04 -1.327710E-04 -1.806585E-04 -9.478203E-06 
 -2.134165E-04 -5.389789E-05 -3.189798E-04 -5.389789E-05 +5.175299E-03 -1.360852E-04 -3.189798E-04 -1.360852E-04 +2.001268E-04 
 -3.080999E-04 -3.109046E-05 -2.874706E-04 -3.109046E-05 +5.241078E-03 -7.184425E-05 -2.874706E-04 -7.184425E-05 +1.701548E-04 
 -7.226227E-05 -7.649919E-05 +1.433825E-04 -7.649919E-05 +5.114732E-03 -4.663978E-05 +1.433825E-04 -4.663978E-05 -2.897465E-05 
 -4.438436E-05 -1.751184E-05 +2.324890E-04 -1.751184E-05 +5.086824E-03 -4.091836E-05 +2.324890E-04 -4.091836E-05 -1.142850E-04 
 -8.521748E-05 -1.608631E-05 +2.902727E-04 -1.608631E-05 +5.113845E-03 +2.470336E-05 +2.902727E-04 +2.470336E-05 -8.081576E-05 
 -6.642941E-05 -4.147551E-05 -6.377523E-05 -4.147551E-05 +5.141571E-03 +3.079171E-05 -6.377523E-05 +3.079171E-05 -1.877773E-04 
 -4.460586E-05 -3.402769E-05 -1.516234E-04 -3.402769E-05 +5.131034E-03 -4.533189E-06 -1.516234E-04 -4.533189E-06 -2.967417E-04 
 -8.087148E-05 +3.704094E-05 -7.665927E-05 +3.704094E-05 +5.151093E-03 -1.853804E-05 -7.665927E-05 -1.853804E-05 -3.039129E-04 
 -8.631994E-05 +5.094591E-05 +8.592231E-06 +5.094591E-05 +5.104290E-03 -7.025682E-05 +8.592231E-06 -7.025682E-05 -3.209704E-04 
 -4.934532E-05 +2.912309E-05 -6.038235E-06 +2.912309E-05 +4.988780E-03 +8.918780E-06 -6.038235E-06 +8.918780E-06 -1.596715E-04 
 -9.537135E-05 -2.809555E-05 +2.511252E-05 -2.809555E-05 +4.881847E-03 +1.664023E-04 +2.511252E-05 +1.664023E-04 +8.303593E-05 
 -8.209600E-05 +3.623243E-06 +1.314850E-04 +3.623243E-06 +4.898575E-03 +2.287807E-04 +1.314850E-04 +2.287807E-04 +3.841110E-05 
 -1.423227E-05 +4.234566E-05 +2.186827E-04 +4.234566E-05 +5.005401E-03 +1.661313E-04 +2.186827E-04 +1.661313E-04 -1.568928E-04 
 +8.546064E-05 +3.611459E-05 +2.028149E-04 +3.611459E-05 +5.053589E-03 +5.563508E-05 +2.028149E-04 +5.563508E-05 -2.703442E-04 
 +1.475927E-04 +1.911785E-05 +2.302022E-04 +1.911785E-05 +5.046707E-03 +1.965259E-05 +2.302022E-04 +1.965259E-05 -3.457205E-04 
 +1.487160E-04 -2.679749E-05 +1.888964E-04 -2.679749E-05 +5.049679E-03 -1.275875E-06 +1.888964E-04 -1.275875E-06 -3.686036E-04 
 +1.029191E-04 -1.172506E-04 +1.595138E-04 -1.172506E-04 +5.142538E-03 -6.140432E-05 +1.595138E-04 -6.140432E-05 -3.389925E-04 
 +8.913272E-05 -2.880054E-05 +1.417937E-04 -2.880054E-05 +5.125190E-03 -1.317960E-05 +1.417937E-04 -1.317960E-05 -3.423055E-04 
 +2.143009E-04 +7.640933E-05 +4.561188E-05 +7.640933E-05 +4.970175E-03 +3.242726E-05 +4.561188E-05 +3.242726E-05 -2.176878E-04 
 +1.095007E-04 -1.164136E-05 -1.218265E-05 -1.164136E-05 +5.010859E-03 -3.001753E-05 -1.218265E-05 -3.001753E-05 -1.295454E-04 
 +5.319861E-05 -9.162173E-05 -2.279998E-05 -9.162173E-05 +5.124133E-03 -6.081837E-05 -2.279998E-05 -6.081837E-05 -1.284980E-04 
 +6.594382E-06 -8.914678E-05 -2.485607E-04 -8.914678E-05 +5.101095E-03 -1.341796E-04 -2.485607E-04 -1.341796E-04 +1.368265E-05 
 -1.337163E-04 -1.229429E-04 -1.914739E-04 -1.229429E-04 +5.087512E-03 -1.799583E-04 -1.914739E-04 -1.799583E-04 +1.065580E-04 
 -1.160938E-04 -1.792237E-04 +3.979056E-05 -1.792237E-04 +5.033211E-03 -1.891256E-04 +3.979056E-05 -1.891256E-04 +6.699034E-05 
 -7.638816E-05 -1.580616E-04 +1.345986E-04 -1.580616E-04 +4.970794E-03 -1.834836E-04 +1.345986E-04 -1.834836E-04 +5.106321E-06 
 -1.494168E-04 -1.199717E-04 +2.164756E-04 -1.199717E-04 +5.037609E-03 -1.219315E-04 +2.164756E-04 -1.219315E-04 -3.711935E-05 
 -2.895862E-05 -8.243127E-05 -1.640173E-04 -8.243127E-05 +5.111021E-03 -5.303793E-05 -1.640173E-04 -5.303793E-05 -1.637639E-04 
 -2.841868E-05 +7.022443E-06 -1.689367E-04 +7.022443E-06 +5.087305E-03 -7.732474E-05 -1.689367E-04 -7.732474E-05 -2.536140E-04 
 -5.266316E-05 +6.410988E-05 -8.926564E-05 +6.410988E-05 +5.085024E-03 -1.258263E-04 -8.926564E-05 -1.258263E-04 -2.697725E-04 
 +1.929956E-05 +6.566970E-05 -1.197768E-05 +6.566970E-05 +5.006513E-03 -9.813101E-05 -1.197768E-05 -9.813101E-05 -3.000914E-04 
 +2.028381E-06 +4.509090E-05 -3.707293E-05 +4.509090E-05 +4.940922E-03 +3.687121E-05 -3.707293E-05 +3.687121E-05 -1.859129E-04 
 -1.404529E-04 +1.911220E-05 +7.728852E-05 +1.911220E-05 +4.984628E-03 +1.842051E-04 +7.728852E-05 +1.842051E-04 -3.593370E-05 
 -9.480112E-05 +6.263698E-05 +2.693430E-04 +6.263698E-05 +5.093030E-03 +2.338099E-04 +2.693430E-04 +2.338099E-04 -1.363302E-04 
 +1.122031E-04 +4.646337E-05 +1.960558E-04 +4.646337E-05 +5.076800E-03 +2.125461E-04 +1.960558E-04 +2.125461E-04 -2.558516E-04 
 +2.169325E-04 +4.193407E-05 +1.341023E-04 +4.193407E-05 +5.011778E-03 +1.514380E-04 +1.341023E-04 +1.514380E-04 -2.319739E-04 
 +1.611491E-04 -4.542441E-05 +1.650319E-04 -4.542441E-05 +4.996100E-03 +7.882635E-05 +1.650319E-04 +7.882635E-05 -1.514437E-04 
 +1.860696E-05 -1.223810E-04 +1.488704E-04 -1.223810E-04 +5.031109E-03 +2.901872E-05 +1.488704E-04 +2.901872E-05 -6.700262E-05 
 -8.989551E-05 -1.762956E-04 +1.443961E-04 -1.762956E-04 +5.094326E-03 -5.236076E-05 +1.443961E-04 -5.236076E-05 -8.257684E-05 
 -1.450233E-04 -1.401711E-04 +2.325547E-04 -1.401711E-04 +5.131098E-03 -7.667861E-05 +2.325547E-04 -7.667861E-05 -6.858982E-05 
 +1.271938E-04 -6.371819E-05 +4.848476E-05 -6.371819E-05 +5.078204E-03 -9.476696E-05 +4.848476E-05 -9.476696E-05 +1.016019E-05 
 +9.473941E-05 -1.902495E-05 -2.157189E-05 -1.902495E-05 +4.943242E-03 -1.812544E-04 -2.157189E-05 -1.812544E-04 +6.365597E-05 
 +6.403256E-05 -1.608587E-05 -4.618022E-05 -1.608587E-05 +4.822860E-03 -2.806162E-04 -4.618022E-05 -2.806162E-04 +1.393038E-04 
 +1.007005E-04 +7.187916E-06 -1.908092E-04 +7.187916E-06 +4.810331E-03 -2.733298E-04 -1.908092E-04 -2.733298E-04 +1.449138E-04 
 +7.619676E-05 -4.370778E-05 -1.730467E-04 -4.370778E-05 +4.974362E-03 -2.111276E-04 -1.730467E-04 -2.111276E-04 +9.729228E-05 
 -1.143887E-04 -1.945136E-04 -4.812233E-05 -1.945136E-04 +5.063108E-03 -1.945718E-04 -4.812233E-05 -1.945718E-04 +6.634599E-05 
 -1.853217E-04 -2.298941E-05 +9.565467E-05 -2.298941E-05 +5.034237E-03 -1.065138E-04 +9.565467E-05 -1.065138E-04 +2.680180E-05 
 -1.649043E-04 +1.963529E-05 +1.820355E-04 +1.963529E-05 +5.059072E-03 -2.567543E-05 +1.820355E-04 -2.567543E-05 +1.061603E-05 
 +2.283406E-05 -3.545982E-05 -1.845058E-04 -3.545982E-05 +5.058203E-03 -3.964892E-05 -1.845058E-04 -3.964892E-05 -1.057052E-04 
 -3.062851E-05 -1.294288E-05 -1.681488E-04 -1.294288E-05 +5.056555E-03 -1.237801E-04 -1.681488E-04 -1.237801E-04 -2.160752E-04 
 +4.053214E-05 +1.911202E-05 -1.530972E-04 +1.911202E-05 +4.936545E-03 -1.697726E-04 -1.530972E-04 -1.697726E-04 -1.208849E-04 
 +3.181250E-05 +4.280942E-05 -9.102563E-05 +4.280942E-05 +4.958945E-03 -1.417624E-04 -9.102563E-05 -1.417624E-04 -6.502412E-05 
 +5.522481E-05 -3.422858E-05 -1.293449E-04 -3.422858E-05 +5.052794E-03 -5.209230E-05 -1.293449E-04 -5.209230E-05 -9.244661E-05 
 -1.430340E-04 +4.825424E-05 +7.235533E-05 +4.825424E-05 +5.135381E-03 +6.520038E-05 +7.235533E-05 +6.520038E-05 -2.514045E-05 
 -7.164083E-05 +9.715939E-05 +2.059761E-04 +9.715939E-05 +5.156033E-03 +9.552582E-05 +2.059761E-04 +9.552582E-05 -4.491502E-05 
 +2.475776E-04 +6.770726E-05 +1.365185E-04 +6.770726E-05 +5.110704E-03 +5.952195E-05 +1.365185E-04 +5.952195E-05 -2.235744E-04 
 +2.781228E-04 +2.483906E-05 +1.699652E-04 +2.483906E-05 +5.028567E-03 +5.773927E-05 +1.699652E-04 +5.773927E-05 -2.083707E-04 
 -1.604304E-05 -8.687830E-05 +1.915390E-04 -8.687830E-05 +4.962509E-03 +2.912901E-05 +1.915390E-04 +2.912901E-05 +6.896248E-05 
 -7.895451E-05 -1.450996E-04 +1.371823E-04 -1.450996E-04 +4.990371E-03 -1.044930E-05 +1.371823E-04 -1.044930E-05 +1.679270E-04 
 -1.783560E-04 -1.496838E-04 +1.298482E-04 -1.496838E-04 +5.040382E-03 -4.136947E-05 +1.298482E-04 -4.136947E-05 +6.384189E-05 
 -2.466587E-04 -6.878097E-05 +2.006178E-04 -6.878097E-05 +5.036317E-03 -1.241523E-04 +2.006178E-04 -1.241523E-04 +1.096662E-04 
 +7.039636E-05 +4.805829E-05 +8.166085E-07 +4.805829E-05 +4.957640E-03 -2.238683E-04 +8.166085E-07 -2.238683E-04 +9.749593E-05 
 +1.354903E-04 +6.634612E-05 -2.422761E-05 +6.634612E-05 +4.834745E-03 -2.454539E-04 -2.422761E-05 -2.454539E-04 +9.114193E-05 
 +1.035840E-04 +4.691422E-05 -5.727721E-05 +4.691422E-05 +4.773817E-03 -2.164811E-04 -5.727721E-05 -2.164811E-04 +2.425077E-04 
 +7.745108E-05 +4.808200E-05 -1.140271E-04 +4.808200E-05 +4.756453E-03 -2.539493E-04 -1.140271E-04 -2.539493E-04 +3.237616E-04 
 +1.191547E-04 +9.682879E-07 -1.863400E-04 +9.682879E-07 +4.720209E-03 -3.109585E-04 -1.863400E-04 -3.109585E-04 +3.312574E-04 
 +3.889213E-05 -2.039097E-04 -9.295179E-05 -2.039097E-04 +4.851045E-03 -2.133989E-04 -9.295179E-05 -2.133989E-04 +2.538945E-04 
 -1.721550E-04 -8.508327E-06 +2.381117E-05 -8.508327E-06 +5.018186E-03 -5.414346E-05 +2.381117E-05 -5.414346E-05 +9.324975E-05 
 -2.068204E-04 +9.047946E-05 +9.143883E-05 +9.047946E-05 +5.049606E-03 -4.502075E-05 +9.143883E-05 -4.502075E-05 +1.105319E-05 
 -5.388582E-05 +2.200735E-05 -1.797696E-04 +2.200735E-05 +5.094824E-03 -9.034537E-05 -1.797696E-04 -9.034537E-05 -9.485685E-05 
 -6.039334E-05 -2.172545E-05 -1.344667E-04 -2.172545E-05 +5.036135E-03 -1.428682E-04 -1.344667E-04 -1.428682E-04 -1.406313E-04 
 -5.460748E-05 -1.021976E-04 -2.311737E-04 -1.021976E-04 +4.815783E-03 -1.498265E-04 -2.311737E-04 -1.498265E-04 +3.899826E-05 
 +6.335161E-05 -1.694349E-05 -1.387429E-04 -1.694349E-05 +4.664276E-03 -8.755245E-05 -1.387429E-04 -8.755245E-05 +2.124205E-04 
 +5.674334E-05 -4.811850E-05 -8.819934E-05 -4.811850E-05 +4.705076E-03 +1.366077E-05 -8.819934E-05 +1.366077E-05 +1.734174E-04 
 +1.290783E-05 +3.393071E-05 +6.116539E-05 +3.393071E-05 +4.779697E-03 +6.353859E-05 +6.116539E-05 +6.353859E-05 +1.022506E-04 
 +9.637864E-05 +9.668965E-05 +1.044473E-04 +9.668965E-05 +4.757832E-03 +7.972912E-05 +1.044473E-04 +7.972912E-05 +6.755018E-05 
 +3.084615E-04 +1.413272E-04 +7.063096E-05 +1.413272E-04 +4.778995E-03 +5.147004E-05 +7.063096E-05 +5.147004E-05 -9.059560E-05 
 +2.917098E-04 +5.323036E-05 +1.833706E-04 +5.323036E-05 +4.928876E-03 +1.317874E-06 +1.833706E-04 +1.317874E-06 -1.593503E-04 
 -1.519771E-04 +3.015440E-06 +2.481587E-04 +3.015440E-06 +5.032762E-03 -3.695472E-05 +2.481587E-04 -3.695472E-05 +2.686708E-05 
 -1.780442E-04 -2.175937E-05 +1.450384E-04 -2.175937E-05 +5.043343E-03 -6.667948E-05 +1.450384E-04 -6.667948E-05 +1.016308E-04 
 -1.990574E-04 -3.525187E-05 +1.286993E-04 -3.525187E-05 +5.060683E-03 -5.127051E-05 +1.286993E-04 -5.127051E-05 +3.356680E-05 
 -2.754663E-04 -1.972942E-05 +2.192148E-04 -1.972942E-05 +5.045422E-03 -1.170357E-04 +2.192148E-04 -1.170357E-04 +3.991411E-05 
 +5.266276E-05 +3.033888E-05 +1.106725E-05 +3.033888E-05 +4.922565E-03 -2.285562E-04 +1.106725E-05 -2.285562E-04 -4.167846E-06 
 +9.191737E-05 +5.776744E-05 +2.030744E-05 +5.776744E-05 +4.816318E-03 -2.047157E-04 +2.030744E-05 -2.047157E-04 +3.037416E-05 
 +6.379906E-05 +7.454816E-05 -3.605244E-06 +7.454816E-05 +4.773523E-03 -1.522406E-04 -3.605244E-06 -1.522406E-04 +1.417391E-04 
 +6.524388E-05 +7.090861E-05 -3.626495E-05 +7.090861E-05 +4.741560E-03 -1.920378E-04 -3.626495E-05 -1.920378E-04 +2.394010E-04 
 +1.045823E-04 +2.540533E-05 -1.198646E-04 +2.540533E-05 +4.642546E-03 -2.604157E-04 -1.198646E-04 -2.604157E-04 +3.353713E-04 
 +1.093301E-04 -1.924018E-05 -1.531388E-04 -1.924018E-05 +4.694593E-03 -2.263927E-04 -1.531388E-04 -2.263927E-04 +2.632518E-04 
 -8.111291E-05 +6.577808E-05 -1.163738E-04 +6.577808E-05 +4.976277E-03 -1.154991E-04 -1.163738E-04 -1.154991E-04 +5.175266E-06 
 -1.732560E-04 +9.194246E-05 -5.945660E-05 +9.194246E-05 +5.121390E-03 -1.339045E-04 -5.945660E-05 -1.339045E-04 -1.137357E-04 
 -1.431920E-04 +9.050936E-05 -7.233384E-05 +9.050936E-05 +5.122750E-03 -1.660104E-04 -7.233384E-05 -1.660104E-04 -1.265495E-04 
 -1.190492E-05 +2.001419E-05 -7.747794E-05 +2.001419E-05 +4.989375E-03 -1.155748E-04 -7.747794E-05 -1.155748E-04 -5.932329E-05 
 -3.808141E-04 -1.219117E-04 -2.446820E-04 -1.219117E-04 +4.892345E-03 -1.141397E-04 -2.446820E-04 -1.141397E-04 +1.225672E-04 
 +8.512392E-05 -2.484018E-05 -2.141520E-05 -2.484018E-05 +4.707651E-03 -7.263040E-05 -2.141520E-05 -7.263040E-05 +1.906753E-04 
 +8.782079E-05 +1.948901E-05 +5.539487E-05 +1.948901E-05 +4.677473E-03 +1.123433E-05 +5.539487E-05 +1.123433E-05 +1.811639E-04 
 +1.772819E-04 +5.133196E-05 +1.074162E-04 +5.133196E-05 +4.674576E-03 +4.468723E-05 +1.074162E-04 +4.468723E-05 +1.065846E-04 
 +2.662658E-04 +4.380251E-05 +1.039385E-04 +4.380251E-05 +4.664180E-03 +6.265885E-05 +1.039385E-04 +6.265885E-05 +1.927919E-05 
 +3.004066E-04 +4.265401E-05 +3.096017E-05 +4.265401E-05 +4.634241E-03 +1.030301E-04 +3.096017E-05 +1.030301E-04 -1.718785E-05 
 +3.005226E-04 +4.763018E-05 +4.549798E-05 +4.763018E-05 +4.676837E-03 +1.184943E-04 +4.549798E-05 +1.184943E-04 -1.399629E-05 
 -4.755863E-05 +3.478331E-05 +1.978165E-04 +3.478331E-05 +4.926810E-03 +6.045543E-05 +1.978165E-04 +6.045543E-05 -3.576614E-05 
 -1.699107E-04 +7.757209E-05 +1.346716E-04 +7.757209E-05 +5.085885E-03 -1.359780E-05 +1.346716E-04 -1.359780E-05 -2.490917E-05 
 -2.637732E-04 +1.210450E-04 +1.482566E-04 +1.210450E-04 +5.096573E-03 -3.353757E-05 +1.482566E-04 -3.353757E-05 +2.047952E-05 
 -2.965680E-04 +8.534860E-05 +1.988486E-04 +8.534860E-05 +5.062530E-03 -1.254938E-04 +1.988486E-04 -1.254938E-04 -1.285009E-05 
 -6.521118E-05 +7.097456E-05 +2.441390E-05 +7.097456E-05 +4.951342E-03 -2.499902E-04 +2.441390E-05 -2.499902E-04 -1.436741E-05 
 -2.306630E-05 +8.198044E-05 +7.488781E-05 +8.198044E-05 +4.838114E-03 -2.156714E-04 +7.488781E-05 -2.156714E-04 +7.789900E-05 
 -2.994542E-06 +5.795245E-05 +6.757998E-05 +5.795245E-05 +4.782049E-03 -1.342030E-04 +6.757998E-05 -1.342030E-04 +1.036270E-04 
 +9.428000E-05 +4.784780E-05 +1.306860E-05 +4.784780E-05 +4.713029E-03 -1.424132E-04 +1.306860E-05 -1.424132E-04 +9.440984E-05 
 +1.091248E-04 +1.645243E-05 -7.133472E-05 +1.645243E-05 +4.731214E-03 -1.737647E-04 -7.133472E-05 -1.737647E-04 +7.158239E-05 
 +6.616406E-05 +9.320938E-05 -1.857960E-04 +9.320938E-05 +4.909047E-03 -1.330586E-04 -1.857960E-04 -1.330586E-04 -2.451389E-05 
 -5.808165E-05 +9.994923E-05 -1.139169E-04 +9.994923E-05 +5.053361E-03 -1.006215E-04 -1.139169E-04 -1.006215E-04 -1.641609E-04 
 -8.552202E-05 +3.526675E-05 -7.025551E-05 +3.526675E-05 +5.097353E-03 -1.091536E-04 -7.025551E-05 -1.091536E-04 -2.030777E-04 
 -8.177483E-05 +3.957386E-05 +8.101230E-06 +3.957386E-05 +5.042342E-03 -1.197012E-04 +8.101230E-06 -1.197012E-04 -1.702838E-04 
 -5.489958E-05 -2.635647E-05 -7.129501E-05 -2.635647E-05 +4.939208E-03 -1.138778E-04 -7.129501E-05 -1.138778E-04 +1.362513E-05 
 -4.425650E-04 -1.623411E-04 -1.673927E-04 -1.623411E-04 +4.942089E-03 -9.414452E-05 -1.673927E-04 -9.414452E-05 +1.841974E-04 
 -1.051809E-04 -2.935719E-05 +2.164019E-05 -2.935719E-05 +4.810479E-03 -6.475272E-05 +2.164019E-05 -6.475272E-05 +1.216408E-04 
 +2.135883E-04 +1.042928E-04 +9.590633E-05 +1.042928E-04 +4.667700E-03 -8.774498E-06 +9.590633E-05 -8.774498E-06 +5.759831E-05 
 +2.573070E-04 +8.476092E-05 +9.001610E-05 +8.476092E-05 +4.670069E-03 +6.305537E-05 +9.001610E-05 +6.305537E-05 +5.021428E-05 
 +2.819937E-04 +8.862378E-05 +7.599675E-05 +8.862378E-05 +4.691200E-03 +4.057029E-05 +7.599675E-05 +4.057029E-05 +1.094329E-05 
 +2.525932E-04 -2.204511E-05 +3.228589E-05 -2.204511E-05 +4.712447E-03 +8.782065E-05 +3.228589E-05 +8.782065E-05 +1.216335E-05 
 +2.272683E-04 +3.129533E-05 +1.569361E-05 +3.129533E-05 +4.748008E-03 +1.284751E-04 +1.569361E-05 +1.284751E-04 +2.892008E-05 
 +1.169140E-04 -8.262536E-05 +1.168760E-04 -8.262536E-05 +4.714194E-03 +2.054212E-05 +1.168760E-04 +2.054212E-05 -3.172903E-05 
 +6.759417E-05 -1.810731E-05 +7.947237E-05 -1.810731E-05 +4.739221E-03 -5.731044E-05 +7.947237E-05 -5.731044E-05 -3.271583E-05 
 -2.823151E-04 +9.284715E-05 +1.480167E-04 +9.284715E-05 +4.916846E-03 -8.454835E-05 +1.480167E-04 -8.454835E-05 +2.999827E-05 
 -2.869558E-04 +7.606557E-05 +9.127378E-05 +7.606557E-05 +5.048462E-03 -1.139494E-04 +9.127378E-05 -1.139494E-04 +2.373675E-05 
 -2.437700E-04 +4.778876E-05 +2.984744E-05 +4.778876E-05 +5.173833E-03 -9.746230E-05 +2.984744E-05 -9.746230E-05 +1.494266E-05 
 -2.048086E-04 +3.507769E-05 +1.571982E-04 +3.507769E-05 +5.207283E-03 -6.124737E-05 +1.571982E-04 -6.124737E-05 +8.858809E-05 
 -1.027475E-04 +9.321282E-06 +1.631255E-04 +9.321282E-06 +5.124877E-03 +3.094009E-06 +1.631255E-04 +3.094009E-06 +8.110252E-05 
 +7.166681E-05 -3.298297E-05 -4.370561E-05 -3.298297E-05 +5.079449E-03 +6.205891E-05 -4.370561E-05 +6.205891E-05 -8.292818E-05 
 +6.654082E-05 -5.258431E-05 -1.204519E-04 -5.258431E-05 +5.084495E-03 +7.631177E-05 -1.204519E-04 +7.631177E-05 -1.814395E-04 
 +2.535719E-05 +2.507606E-05 -1.575992E-04 +2.507606E-05 +5.059217E-03 +6.517782E-05 -1.575992E-04 +6.517782E-05 -2.171286E-04 
 -3.477279E-06 +6.675204E-05 -5.861794E-05 +6.675204E-05 +5.040075E-03 -8.523590E-06 -5.861794E-05 -8.523590E-06 -2.708007E-04 
 +4.712385E-05 +2.127729E-05 -2.256203E-05 +2.127729E-05 +5.017662E-03 -7.259356E-05 -2.256203E-05 -7.259356E-05 -2.674929E-04 
 +9.861386E-05 +2.620030E-05 +2.557940E-05 +2.620030E-05 +4.966087E-03 -8.128700E-05 +2.557940E-05 -8.128700E-05 -1.839179E-04 
 -1.099724E-04 -1.227085E-04 -6.518719E-05 -1.227085E-04 +4.903910E-03 -3.916602E-05 -6.518719E-05 -3.916602E-05 +3.484817E-05 
 -3.194424E-04 -1.850040E-04 -1.338389E-04 -1.850040E-04 +4.928408E-03 -6.606940E-05 -1.338389E-04 -6.606940E-05 +1.671294E-04 
 -1.720641E-04 -1.220744E-04 -2.858289E-05 -1.220744E-04 +4.919375E-03 -4.739288E-05 -2.858289E-05 -4.739288E-05 +7.957543E-05 
 +2.975082E-04 +1.236269E-04 +8.145134E-05 +1.236269E-04 +4.722784E-03 +4.166748E-05 +8.145134E-05 +4.166748E-05 +2.044234E-05 
 +2.662636E-04 +1.506809E-04 +4.293174E-05 +1.506809E-04 +4.633171E-03 +8.783328E-05 +4.293174E-05 +8.783328E-05 +4.840845E-05 
 +2.390862E-04 +1.258851E-04 +5.279399E-05 +1.258851E-04 +4.711999E-03 +7.274102E-05 +5.279399E-05 +7.274102E-05 +5.058120E-05 
 +1.799738E-04 +1.401700E-05 +7.038349E-05 +1.401700E-05 +4.767220E-03 +1.192656E-04 +7.038349E-05 +1.192656E-04 +5.175793E-05 
 +1.619859E-04 +1.159780E-04 +8.418824E-05 +1.159780E-04 +4.794084E-03 +1.200915E-04 +8.418824E-05 +1.200915E-04 +1.731780E-05 
 +1.460595E-04 -6.650911E-05 +1.293806E-04 -6.650911E-05 +4.751222E-03 -8.294067E-06 +1.293806E-04 -8.294067E-06 -2.467522E-05 
 +1.654052E-04 -3.124818E-05 +9.223038E-05 -3.124818E-05 +4.729650E-03 -5.655112E-05 +9.223038E-05 -5.655112E-05 +1.585152E-06 
 -1.905499E-04 +9.631323E-06 +1.137348E-04 +9.631323E-06 +4.835535E-03 -5.124421E-05 +1.137348E-04 -5.124421E-05 +6.720059E-05 
 -2.892536E-04 -2.106962E-05 +3.883862E-05 -2.106962E-05 +5.013891E-03 -4.810757E-05 +3.883862E-05 -4.810757E-05 +9.951398E-05 
 -3.256300E-04 -1.696145E-05 +2.621160E-05 -1.696145E-05 +5.145565E-03 -3.388530E-05 +2.621160E-05 -3.388530E-05 +7.459740E-05 
 -2.891320E-04 -1.690372E-05 +1.381469E-04 -1.690372E-05 +5.199303E-03 -5.441785E-05 +1.381469E-04 -5.441785E-05 +1.302314E-04 
 -1.977362E-04 +6.025906E-06 +1.795771E-04 +6.025906E-06 +5.203402E-03 -4.217595E-05 +1.795771E-04 -4.217595E-05 +1.497349E-04 
 -2.773921E-05 -6.915154E-06 -8.496372E-06 -6.915154E-06 +5.204630E-03 +4.920848E-05 -8.496372E-06 +4.920848E-05 -5.698064E-05 
 -3.207793E-05 -4.203479E-05 -4.501950E-05 -4.203479E-05 +5.209436E-03 +1.095249E-04 -4.501950E-05 +1.095249E-04 -1.761905E-04 
 -3.884482E-05 -4.729602E-05 -5.052609E-05 -4.729602E-05 +5.156095E-03 +9.880427E-05 -5.052609E-05 +9.880427E-05 -1.803019E-04 
 +1.308619E-04 -1.397023E-05 -4.298568E-05 -1.397023E-05 +5.036286E-03 -5.414232E-07 -4.298568E-05 -5.414232E-07 -2.667965E-04 
 +1.963129E-04 -7.645224E-05 +8.056313E-06 -7.645224E-05 +4.928283E-03 -7.916934E-05 +8.056313E-06 -7.916934E-05 -2.987168E-04 
 +2.088800E-04 -8.931826E-05 +5.624133E-05 -8.931826E-05 +4.904931E-03 -5.437535E-05 +5.624133E-05 -5.437535E-05 -1.794516E-04 
 +7.395547E-05 -5.584687E-05 -1.447296E-05 -5.584687E-05 +4.784171E-03 -7.075655E-07 -1.447296E-05 -7.075655E-07 -8.475645E-06 
 -2.337908E-04 -6.777102E-05 -1.629303E-04 -6.777102E-05 +4.770043E-03 -7.847064E-06 -1.629303E-04 -7.847064E-06 +5.841507E-05 
 -3.550697E-05 -2.192635E-05 -1.188805E-04 -2.192635E-05 +4.663758E-03 +1.442761E-05 -1.188805E-04 +1.442761E-05 +1.778083E-05 
 +2.167506E-04 +1.501917E-04 +6.909556E-05 +1.501917E-04 +4.641591E-03 +6.970323E-05 +6.909556E-05 +6.970323E-05 +2.251187E-05 
 +2.120217E-04 +1.991117E-04 +5.723263E-05 +1.991117E-04 +4.663245E-03 +1.230546E-04 +5.723263E-05 +1.230546E-04 +8.832104E-05 
 +1.908339E-04 +1.800283E-04 +6.011501E-05 +1.800283E-04 +4.716568E-03 +9.651902E-05 +6.011501E-05 +9.651902E-05 +1.002454E-04 
 +1.194622E-04 +5.587701E-05 +7.970402E-05 +5.587701E-05 +4.805847E-03 +1.108536E-04 +7.970402E-05 +1.108536E-04 +9.482852E-05 
 +1.447142E-04 +1.009718E-04 +1.135373E-04 +1.009718E-04 +4.827220E-03 +8.308637E-05 +1.135373E-04 +8.308637E-05 +5.388770E-05 
 +1.114488E-04 -9.861176E-05 +1.658445E-04 -9.861176E-05 +4.825238E-03 -4.768686E-05 +1.658445E-04 -4.768686E-05 -6.953901E-06 
 +3.099687E-05 -4.944118E-05 +1.259344E-04 -4.944118E-05 +4.831506E-03 -7.885543E-05 +1.259344E-04 -7.885543E-05 +1.868517E-05 
 -1.573453E-04 +6.639884E-06 +8.655015E-05 +6.639884E-06 +4.876560E-03 -2.652650E-05 +8.655015E-05 -2.652650E-05 +1.145831E-04 
 -2.651378E-04 -3.160748E-05 +5.831794E-05 -3.160748E-05 +4.992806E-03 -3.568081E-05 +5.831794E-05 -3.568081E-05 +1.438262E-04 
 -2.982624E-04 -5.066951E-05 +5.974313E-05 -5.066951E-05 +5.080613E-03 -3.923088E-05 +5.974313E-05 -3.923088E-05 +1.526482E-04 
 -2.776276E-04 -4.424690E-05 +8.314012E-05 -4.424690E-05 +5.132261E-03 -5.204695E-05 +8.314012E-05 -5.204695E-05 +1.295349E-04 
 -2.518024E-04 -2.433279E-05 +1.870803E-04 -2.433279E-05 +5.186880E-03 -9.479835E-05 +1.870803E-04 -9.479835E-05 +1.272036E-04 
 -1.323832E-04 -2.884424E-05 +1.321846E-04 -2.884424E-05 +5.204789E-03 -8.203098E-05 +1.321846E-04 -8.203098E-05 +9.226623E-05 
 -1.332701E-04 -5.408328E-05 +1.642763E-04 -5.408328E-05 +5.201498E-03 -5.483526E-05 +1.642763E-04 -5.483526E-05 +6.649250E-05 
 -1.648191E-04 -1.122855E-04 +1.714123E-04 -1.122855E-04 +5.134034E-03 -3.360610E-06 +1.714123E-04 -3.360610E-06 +1.188969E-05 
 +2.413341E-04 -1.222636E-04 +7.822443E-05 -1.222636E-04 +4.968372E-03 +1.641075E-05 +7.822443E-05 +1.641075E-05 -1.945064E-04 
 +3.195784E-04 -1.474443E-04 +1.499543E-04 -1.474443E-04 +4.855006E-03 -3.441239E-05 +1.499543E-04 -3.441239E-05 -2.559626E-04 
 +2.886773E-04 -1.210509E-04 +1.917105E-04 -1.210509E-04 +4.791110E-03 -1.722722E-05 +1.917105E-04 -1.722722E-05 -1.358329E-04 
 +1.903678E-04 -1.275238E-04 +2.100510E-05 -1.275238E-04 +4.752803E-03 +3.835991E-05 +2.100510E-05 +3.835991E-05 -8.281868E-05 
 +4.157550E-05 -1.553488E-04 -1.183866E-04 -1.553488E-04 +4.796388E-03 +3.348695E-05 -1.183866E-04 +3.348695E-05 -6.582697E-05 
 +5.889258E-06 -1.303938E-04 -1.850713E-04 -1.303938E-04 +4.833990E-03 +6.355799E-05 -1.850713E-04 +6.355799E-05 -2.754879E-05 
 +1.115279E-04 +6.289297E-05 +1.137025E-04 +6.289297E-05 +4.735181E-03 +7.313961E-05 +1.137025E-04 +7.313961E-05 +1.491824E-05 
 +1.182134E-04 +1.609040E-04 +1.830859E-04 +1.609040E-04 +4.662564E-03 +1.415474E-04 +1.830859E-04 +1.415474E-04 +5.122973E-05 
 +1.377192E-04 +1.950998E-04 +1.114879E-04 +1.950998E-04 +4.726560E-03 +1.472313E-04 +1.114879E-04 +1.472313E-04 +9.000438E-05 
 +8.253739E-05 +6.170851E-05 +1.000406E-04 +6.170851E-05 +4.842925E-03 +1.112544E-04 +1.000406E-04 +1.112544E-04 +1.420436E-04 
 +1.029398E-04 +7.412936E-05 +1.412163E-04 +7.412936E-05 +4.883548E-03 +3.906137E-05 +1.412163E-04 +3.906137E-05 +9.943038E-05 
 +1.140452E-04 -9.806085E-05 +1.748431E-04 -9.806085E-05 +4.870423E-03 -4.681334E-05 +1.748431E-04 -4.681334E-05 -4.171625E-06 
 -8.866155E-05 +1.422375E-05 +1.414198E-04 +1.422375E-05 +4.929549E-03 -3.489955E-05 +1.414198E-04 -3.489955E-05 +2.865149E-05 
 -2.430278E-04 +6.114255E-05 +9.952982E-05 +6.114255E-05 +5.002021E-03 -2.809616E-05 +9.952982E-05 -2.809616E-05 +1.386932E-04 
 -2.665496E-04 -1.885657E-05 +9.935315E-05 -1.885657E-05 +5.021722E-03 -5.939181E-05 +9.935315E-05 -5.939181E-05 +1.750150E-04 
 -2.700283E-04 -8.803808E-05 +1.518331E-04 -8.803808E-05 +5.068952E-03 -6.235183E-05 +1.518331E-04 -6.235183E-05 +2.284139E-04 
 -2.740479E-04 -9.699804E-05 +9.756845E-05 -9.699804E-05 +5.133613E-03 -4.769487E-05 +9.756845E-05 -4.769487E-05 +1.649836E-04 
 -2.651128E-04 -8.553380E-05 +1.847789E-04 -8.553380E-05 +5.175211E-03 -7.559972E-05 +1.847789E-04 -7.559972E-05 +1.068569E-04 
 -2.068226E-04 -8.794128E-05 +1.835365E-04 -8.794128E-05 +5.187382E-03 -1.170566E-04 +1.835365E-04 -1.170566E-04 +1.140003E-04 
 -1.949951E-04 -7.751782E-05 +2.047976E-04 -7.751782E-05 +5.209843E-03 -1.391424E-04 +2.047976E-04 -1.391424E-04 +1.527471E-04 
 -9.716756E-05 -1.154666E-04 +2.194143E-04 -1.154666E-04 +5.141768E-03 -1.606608E-04 +2.194143E-04 -1.606608E-04 +7.592414E-05 
 +2.775857E-04 -7.585152E-05 +2.617416E-04 -7.585152E-05 +4.931300E-03 -7.776803E-05 +2.617416E-04 -7.776803E-05 -1.741539E-04 
 +3.567301E-04 -8.048581E-05 +2.729512E-04 -8.048581E-05 +4.773643E-03 +2.721403E-05 +2.729512E-04 +2.721403E-05 -2.291892E-04 
 +3.671789E-04 -1.142871E-04 +3.116448E-04 -1.142871E-04 +4.753992E-03 +6.255051E-05 +3.116448E-04 +6.255051E-05 -1.303052E-04 
 +2.665369E-04 -1.754355E-04 +7.781012E-05 -1.754355E-04 +4.770249E-03 +2.746256E-05 +7.781012E-05 +2.746256E-05 -2.096007E-04 
 +2.496470E-04 -1.712807E-04 +1.247439E-05 -1.712807E-04 +4.762699E-03 +2.882714E-05 +1.247439E-05 +2.882714E-05 -1.461872E-04 
 +9.364254E-05 -2.023423E-04 +2.038649E-05 -2.023423E-04 +4.866072E-03 +7.495556E-05 +2.038649E-05 +7.495556E-05 -6.049108E-05 
 +4.145213E-05 -1.763292E-05 +2.120465E-04 -1.763292E-05 +4.969096E-03 +8.694380E-05 +2.120465E-04 +8.694380E-05 -3.094794E-05 
 +1.056414E-05 +5.649037E-05 +3.385634E-04 +5.649037E-05 +4.948841E-03 +1.299697E-04 +3.385634E-04 +1.299697E-04 -4.988139E-05 
 +1.607193E-04 +1.632165E-04 +1.542643E-04 +1.632165E-04 +4.842226E-03 +1.645328E-04 +1.542643E-04 +1.645328E-04 +1.635170E-05 
 +1.223138E-04 +1.411570E-04 +1.352789E-04 +1.411570E-04 +4.835648E-03 +1.307713E-04 +1.352789E-04 +1.307713E-04 +1.080013E-04 
 +8.361262E-05 +1.431649E-04 +1.624049E-04 +1.431649E-04 +4.914492E-03 +5.904377E-05 +1.624049E-04 +5.904377E-05 +1.069998E-04 
 +5.633998E-05 -7.791261E-05 +1.826590E-04 -7.791261E-05 +4.933701E-03 -7.171690E-06 +1.826590E-04 -7.171690E-06 +4.296734E-05 
 -2.497443E-04 +1.463043E-05 +1.998537E-04 +1.463043E-05 +4.983384E-03 +1.880380E-05 +1.998537E-04 +1.880380E-05 +6.801599E-05 
 -3.154190E-04 -1.181219E-06 +1.478988E-04 -1.181219E-06 +5.040346E-03 -1.898719E-05 +1.478988E-04 -1.898719E-05 +2.041907E-04 
 -2.987013E-04 -3.505494E-05 +1.847952E-04 -3.505494E-05 +5.042158E-03 -5.748422E-05 +1.847952E-04 -5.748422E-05 +2.380398E-04 
 -2.865263E-04 -7.238785E-05 +1.822588E-04 -7.238785E-05 +5.082386E-03 -5.805784E-05 +1.822588E-04 -5.805784E-05 +2.323863E-04 
 -2.999869E-04 -1.110730E-04 +1.175277E-04 -1.110730E-04 +5.146857E-03 -7.667401E-05 +1.175277E-04 -7.667401E-05 +2.153807E-04 
 -2.969781E-04 -1.566584E-04 +1.362866E-04 -1.566584E-04 +5.155623E-03 -7.636494E-05 +1.362866E-04 -7.636494E-05 +1.500829E-04 
 -2.002232E-04 -1.448564E-04 +1.841007E-04 -1.448564E-04 +5.147176E-03 -6.739397E-05 +1.841007E-04 -6.739397E-05 +8.089253E-05 
 -1.544395E-04 -8.905505E-05 +1.915373E-04 -8.905505E-05 +5.088249E-03 -2.589774E-05 +1.915373E-04 -2.589774E-05 +1.052915E-04 
 +1.392071E-04 -1.649600E-04 +1.038420E-04 -1.649600E-04 +4.946900E-03 -3.732865E-05 +1.038420E-04 -3.732865E-05 +5.150085E-05 
 +2.545721E-04 -1.333887E-04 +3.066412E-04 -1.333887E-04 +4.855801E-03 -1.365036E-05 +3.066412E-04 -1.365036E-05 -1.399029E-04 
 +3.094841E-04 -1.212014E-04 +2.287287E-04 -1.212014E-04 +4.798818E-03 +4.972543E-05 +2.287287E-04 +4.972543E-05 -2.157570E-04 
 +3.139186E-04 -1.286620E-04 +2.287253E-04 -1.286620E-04 +4.783227E-03 +4.970085E-05 +2.287253E-04 +4.970085E-05 -2.267642E-04 
 +3.327850E-04 -6.137018E-05 +8.552154E-05 -6.137018E-05 +4.784541E-03 +7.385506E-05 +8.552154E-05 +7.385506E-05 -2.280512E-04 
 +2.414667E-04 -8.490237E-05 +1.354346E-04 -8.490237E-05 +4.847052E-03 +1.820378E-05 +1.354346E-04 +1.820378E-05 -1.545142E-04 
 +1.812481E-04 -1.764698E-04 +2.499648E-04 -1.764698E-04 +4.911838E-03 -6.109322E-06 +2.499648E-04 -6.109322E-06 -9.303340E-05 
 -7.280585E-06 -2.423728E-05 +2.831649E-04 -2.423728E-05 +4.993902E-03 +9.525603E-06 +2.831649E-04 +9.525603E-06 -3.854656E-05 
 -3.667186E-05 +2.432221E-05 +3.632113E-04 +2.432221E-05 +5.012386E-03 +9.990076E-05 +3.632113E-04 +9.990076E-05 -5.210230E-05 
 +2.196727E-04 +1.221446E-04 +1.177965E-04 +1.221446E-04 +4.917156E-03 +1.548603E-04 +1.177965E-04 +1.548603E-04 -4.470311E-05 
 +2.061891E-04 +1.561689E-04 +1.711447E-04 +1.561689E-04 +4.855155E-03 +1.048767E-04 +1.711447E-04 +1.048767E-04 +2.654475E-05 
 +1.268825E-04 +1.794799E-04 +1.954053E-04 +1.794799E-04 +4.867968E-03 +3.752230E-05 +1.954053E-04 +3.752230E-05 +8.193496E-05 
 -1.062422E-04 +9.953698E-06 +9.745985E-05 +9.953698E-06 +5.016502E-03 +1.965362E-05 +9.745985E-05 +1.965362E-05 +3.408796E-05 
 -4.888623E-04 +7.358546E-05 +2.425722E-04 +7.358546E-05 +5.165047E-03 +5.917959E-05 +2.425722E-04 +5.917959E-05 +3.845576E-05 
 -3.702991E-04 -3.097315E-05 +1.904360E-04 -3.097315E-05 +5.128871E-03 +7.268031E-05 +1.904360E-04 +7.268031E-05 +2.028035E-04 
 -3.140368E-04 -5.542881E-05 +2.731003E-04 -5.542881E-05 +5.090102E-03 +9.371727E-06 +2.731003E-04 +9.371727E-06 +2.720967E-04 
 -3.106815E-04 -6.887027E-05 +2.149689E-04 -6.887027E-05 +5.126080E-03 -3.193634E-05 +2.149689E-04 -3.193634E-05 +2.529364E-04 
 -3.126740E-04 -9.467256E-05 +1.669152E-04 -9.467256E-05 +5.159257E-03 -6.620118E-05 +1.669152E-04 -6.620118E-05 +2.692176E-04 
 -2.992453E-04 -1.402896E-04 +1.719418E-04 -1.402896E-04 +5.130660E-03 -6.449972E-05 +1.719418E-04 -6.449972E-05 +2.330260E-04 
 -8.461456E-05 -4.213104E-05 +2.785277E-04 -4.213104E-05 +5.071439E-03 +6.145404E-05 +2.785277E-04 +6.145404E-05 +1.034322E-04 
 -3.372663E-05 -1.580062E-05 +2.747055E-04 -1.580062E-05 +5.008039E-03 +1.673524E-04 +2.747055E-04 +1.673524E-04 +7.056121E-05 
 +2.612507E-04 -1.373640E-04 +4.879220E-05 -1.373640E-04 +4.909588E-03 +8.853870E-05 +4.879220E-05 +8.853870E-05 +4.055847E-05 
 +2.248707E-04 -9.049283E-05 +2.405715E-04 -9.049283E-05 +4.855597E-03 +5.225506E-05 +2.405715E-04 +5.225506E-05 -1.007849E-04 
 +2.715050E-04 -7.913520E-05 +1.431894E-04 -7.913520E-05 +4.845452E-03 +9.336508E-05 +1.431894E-04 +9.336508E-05 -1.836689E-04 
 +2.986402E-04 -1.143219E-05 +1.024166E-04 -1.143219E-05 +4.799709E-03 +1.135034E-04 +1.024166E-04 +1.135034E-04 -2.451610E-04 
 +2.747801E-04 -5.779756E-05 +1.108298E-04 -5.779756E-05 +4.878627E-03 +1.450203E-04 +1.108298E-04 +1.450203E-04 -2.185868E-04 
 +2.376520E-04 -6.724782E-05 +2.136671E-04 -6.724782E-05 +4.917394E-03 +4.229788E-05 +2.136671E-04 +4.229788E-05 -1.997849E-04 
 +1.685528E-04 -1.293178E-04 +3.003715E-04 -1.293178E-04 +4.967221E-03 -1.494246E-05 +3.003715E-04 -1.494246E-05 -1.636716E-04 
 +5.801741E-06 +3.432804E-05 +3.105499E-04 +3.432804E-05 +5.013078E-03 -3.788523E-06 +3.105499E-04 -3.788523E-06 -8.706164E-05 
 -1.666317E-05 +2.675189E-05 +3.165495E-04 +2.675189E-05 +5.013192E-03 +3.803921E-05 +3.165495E-04 +3.803921E-05 -3.321023E-05 
 +2.199246E-04 +9.839960E-05 +9.929876E-05 +9.839960E-05 +4.955832E-03 +9.275058E-05 +9.929876E-05 +9.275058E-05 -5.536285E-06 
 +2.373411E-04 +1.372220E-04 +2.057672E-04 +1.372220E-04 +4.886589E-03 +7.352195E-05 +2.057672E-04 +7.352195E-05 +4.088827E-05 
 +9.855290E-05 +1.335188E-04 +1.363365E-04 +1.335188E-04 +4.928459E-03 -2.190330E-05 +1.363365E-04 -2.190330E-05 +2.264824E-05 
 -2.073145E-04 +4.024884E-05 +4.618939E-06 +4.024884E-05 +5.137075E-03 +8.157495E-08 +4.618939E-06 +8.157495E-08 -3.806958E-05 
 -5.236195E-04 +9.393026E-05 +2.309327E-04 +9.393026E-05 +5.237245E-03 +7.242054E-05 +2.309327E-04 +7.242054E-05 +4.987611E-05 
 -5.135490E-04 +5.082531E-05 +2.198969E-04 +5.082531E-05 +5.185338E-03 +1.050513E-04 +2.198969E-04 +1.050513E-04 +1.588705E-04 
 -3.539364E-04 +3.058294E-05 +2.628532E-04 +3.058294E-05 +5.163356E-03 +4.279989E-05 +2.628532E-04 +4.279989E-05 +2.515302E-04 
 -3.224298E-04 +1.925961E-05 +2.991863E-04 +1.925961E-05 +5.157819E-03 -4.316635E-05 +2.991863E-04 -4.316635E-05 +3.247063E-04 
 -2.879070E-04 -1.021534E-05 +2.732930E-04 -1.021534E-05 +5.166307E-03 -2.437213E-05 +2.732930E-04 -2.437213E-05 +3.270843E-04 
 -2.480646E-04 -9.393402E-05 +2.816587E-04 -9.393402E-05 +5.155412E-03 -1.281255E-05 +2.816587E-04 -1.281255E-05 +3.033732E-04 
 +2.844416E-05 -3.408006E-05 +4.252741E-04 -3.408006E-05 +5.101009E-03 +2.657415E-05 +4.252741E-04 +2.657415E-05 +1.418157E-04 
 +1.016492E-04 -5.658947E-05 +3.276963E-04 -5.658947E-05 +4.981931E-03 +1.181602E-04 +3.276963E-04 +1.181602E-04 +7.326886E-05 
 +2.970002E-04 -1.650044E-04 +1.179261E-05 -1.650044E-04 +4.853259E-03 +1.056321E-04 +1.179261E-05 +1.056321E-04 +7.045191E-05 
 +2.324998E-04 -3.978045E-05 +1.465866E-04 -3.978045E-05 +4.828413E-03 +5.425674E-05 +1.465866E-04 +5.425674E-05 -2.999152E-05 
 +2.592475E-04 -3.769856E-05 +7.684911E-05 -3.769856E-05 +4.834669E-03 +8.903438E-05 +7.684911E-05 +8.903438E-05 -1.391030E-04 
 +3.122620E-04 +5.475667E-06 +5.453106E-05 +5.475667E-06 +4.834062E-03 +1.628220E-04 +5.453106E-05 +1.628220E-04 -2.237887E-04 
 +2.444273E-04 +4.015876E-05 +1.433234E-04 +4.015876E-05 +4.905156E-03 +1.166419E-04 +1.433234E-04 +1.166419E-04 -2.655668E-04 
 +2.236891E-04 +4.466229E-05 +2.125093E-04 +4.466229E-05 +4.941198E-03 +4.031362E-05 +2.125093E-04 +4.031362E-05 -2.609663E-04 
 +1.299663E-04 -3.841604E-05 +3.042236E-04 -3.841604E-05 +5.044470E-03 +2.471990E-05 +3.042236E-04 +2.471990E-05 -2.487318E-04 
 -3.106983E-05 +3.327682E-05 +3.004895E-04 +3.327682E-05 +5.106191E-03 +2.704262E-05 +3.004895E-04 +2.704262E-05 -1.868432E-04 
 +1.155674E-06 -4.385045E-05 +2.577494E-04 -4.385045E-05 +5.038417E-03 +2.115276E-05 +2.577494E-04 +2.115276E-05 -4.174877E-05 
 +2.049129E-04 +5.605968E-05 +9.109843E-05 +5.605968E-05 +5.021614E-03 +5.320683E-05 +9.109843E-05 +5.320683E-05 +7.305850E-05 
 +1.145490E-04 +3.827107E-05 +1.718876E-04 +3.827107E-05 +5.082727E-03 +4.850349E-05 +1.718876E-04 +4.850349E-05 +6.569170E-05 
 -6.320259E-05 +2.028389E-05 -1.284669E-05 +2.028389E-05 +5.117190E-03 -4.478495E-05 -1.284669E-05 -4.478495E-05 -4.011229E-05 
 -2.389755E-04 -8.736818E-05 +2.071656E-05 -8.736818E-05 +5.074863E-03 -3.139294E-05 +2.071656E-05 -3.139294E-05 -3.777648E-05 
 -3.382647E-04 -7.325797E-05 +1.650246E-04 -7.325797E-05 +5.048566E-03 +6.462927E-06 +1.650246E-04 +6.462927E-06 +1.161078E-04 
 -4.779051E-04 +1.051886E-05 +2.119650E-04 +1.051886E-05 +5.100326E-03 -5.180819E-05 +2.119650E-04 -5.180819E-05 +1.679067E-04 
 -4.109104E-04 +9.881448E-05 +2.027096E-04 +9.881448E-05 +5.136279E-03 -8.571307E-05 +2.027096E-04 -8.571307E-05 +2.550849E-04 
 -3.259469E-04 +9.797283E-05 +3.324375E-04 +9.797283E-05 +5.162328E-03 -6.887231E-05 +3.324375E-04 -6.887231E-05 +3.442187E-04 
 -2.458055E-04 +7.290278E-05 +3.279007E-04 +7.290278E-05 +5.172985E-03 -2.701068E-05 +3.279007E-04 -2.701068E-05 +3.214208E-04 
 -1.810772E-04 -9.355521E-06 +3.622656E-04 -9.355521E-06 +5.153639E-03 +2.644431E-05 +3.622656E-04 +2.644431E-05 +3.175798E-04 
 +1.046863E-04 +2.363241E-05 +4.832497E-04 +2.363241E-05 +5.036135E-03 +7.372476E-05 +4.832497E-04 +7.372476E-05 +1.569693E-04 
 +1.656394E-04 -4.248764E-05 +2.418181E-04 -4.248764E-05 +4.866095E-03 +1.233176E-04 +2.418181E-04 +1.233176E-04 +9.861452E-05 
 +3.347549E-04 -1.625321E-04 -6.223575E-05 -1.625321E-04 +4.745937E-03 +1.199240E-04 -6.223575E-05 +1.199240E-04 +8.802786E-05 
 +2.777321E-04 +4.736686E-05 +4.413979E-05 +4.736686E-05 +4.732559E-03 +6.411557E-05 +4.413979E-05 +6.411557E-05 -4.396406E-05 
 +2.709268E-04 +4.705715E-05 -6.009305E-05 +4.705715E-05 +4.814549E-03 +4.853972E-05 -6.009305E-05 +4.853972E-05 -1.126089E-04 
 +2.408808E-04 +9.668612E-05 +1.754718E-05 +9.668612E-05 +4.885787E-03 +1.161687E-04 +1.754718E-05 +1.161687E-04 -2.038319E-04 
 +1.917294E-04 +5.943688E-06 +1.279448E-04 +5.943688E-06 +4.976738E-03 +7.646447E-05 +1.279448E-04 +7.646447E-05 -2.565105E-04 
 +1.569662E-04 +2.168740E-05 +2.008308E-04 +2.168740E-05 +5.037796E-03 +5.323582E-05 +2.008308E-04 +5.323582E-05 -2.995392E-04 
 +7.618606E-05 -5.078238E-05 +3.215135E-04 -5.078238E-05 +5.125948E-03 +5.127671E-05 +3.215135E-04 +5.127671E-05 -2.848548E-04 
 +3.391421E-05 +6.447207E-05 +2.432673E-04 +6.447207E-05 +5.164800E-03 +7.502850E-05 +2.432673E-04 +7.502850E-05 -2.052673E-04 
 -5.826342E-05 -2.594489E-05 +1.145591E-04 -2.594489E-05 +5.134553E-03 -3.760078E-05 +1.145591E-04 -3.760078E-05 -4.464773E-05 
 +2.413471E-05 +6.377849E-05 +4.585106E-05 +6.377849E-05 +5.148632E-03 -1.185760E-04 +4.585106E-05 -1.185760E-04 +6.665199E-06 
 -9.928650E-05 -7.986599E-05 +1.035155E-04 -7.986599E-05 +5.189968E-03 -6.221148E-05 +1.035155E-04 -6.221148E-05 -4.000212E-05 
 -1.707791E-04 -8.310009E-05 +2.866766E-06 -8.310009E-05 +5.103191E-03 -1.742785E-05 +2.866766E-06 -1.742785E-05 -7.650490E-05 
 -2.600294E-04 -1.442133E-04 +5.460509E-05 -1.442133E-04 +5.040460E-03 -6.454885E-05 +5.460509E-05 -6.454885E-05 -3.900129E-06 
 -2.627082E-04 -1.578267E-04 +1.502299E-04 -1.578267E-04 +5.018218E-03 -1.632020E-04 +1.502299E-04 -1.632020E-04 +1.144767E-04 
 -2.271666E-04 -1.186584E-04 +1.930647E-04 -1.186584E-04 +5.015890E-03 -1.934273E-04 +1.930647E-04 -1.934273E-04 +1.370682E-04 
 -3.545742E-04 +2.198011E-05 +2.059725E-04 +2.198011E-05 +5.067920E-03 -1.467667E-04 +2.059725E-04 -1.467667E-04 +2.594637E-04 
 -3.357724E-04 +7.608347E-05 +3.100696E-04 +7.608347E-05 +5.140524E-03 -8.816739E-05 +3.100696E-04 -8.816739E-05 +3.764848E-04 
 -1.915227E-04 -2.017021E-06 +2.720548E-04 -2.017021E-06 +5.150661E-03 -9.055474E-05 +2.720548E-04 -9.055474E-05 +3.663694E-04 
 +1.721932E-05 -4.542375E-05 +3.188443E-04 -4.542375E-05 +5.074255E-03 -4.308921E-05 +3.188443E-04 -4.308921E-05 +2.955059E-04 
 +2.204601E-04 +1.516023E-05 +3.457208E-04 +1.516023E-05 +5.005487E-03 -2.070349E-05 +3.457208E-04 -2.070349E-05 +1.005657E-04 
 +2.726721E-04 +6.477586E-06 +1.384572E-04 +6.477586E-06 +4.882230E-03 +2.604873E-05 +1.384572E-04 +2.604873E-05 +5.849048E-05 
 +3.384774E-04 -2.726358E-05 -2.086496E-04 -2.726358E-05 +4.754249E-03 +9.223635E-05 -2.086496E-04 +9.223635E-05 +1.526063E-05 
 +2.525433E-04 +2.003068E-04 -1.530996E-04 +2.003068E-04 +4.758446E-03 +6.180799E-05 -1.530996E-04 +6.180799E-05 -1.698611E-04 
 +1.987324E-04 +1.396124E-04 -2.966137E-04 +1.396124E-04 +4.878581E-03 +3.515670E-05 -2.966137E-04 +3.515670E-05 -1.659424E-04 
 +1.771992E-04 +1.000817E-04 -1.010831E-04 +1.000817E-04 +4.966522E-03 +5.600422E-05 -1.010831E-04 +5.600422E-05 -1.507252E-04 
 +3.106919E-04 -1.873138E-05 +3.046531E-04 -1.873138E-05 +4.826494E-03 +4.388545E-05 +3.046531E-04 +4.388545E-05 -3.466148E-04 
 +2.235407E-04 +6.078316E-05 +4.061253E-04 +6.078316E-05 +5.011262E-03 +1.320900E-04 +4.061253E-04 +1.320900E-04 -3.658488E-04 
 +1.316710E-04 +8.105426E-05 +4.470507E-04 +8.105426E-05 +5.039184E-03 +1.649250E-04 +4.470507E-04 +1.649250E-04 -2.606639E-04 
 +7.601521E-05 +1.403288E-04 +1.224502E-04 +1.403288E-04 +5.014598E-03 +4.728593E-05 +1.224502E-04 +4.728593E-05 -1.452597E-04 
 -3.280328E-04 -8.028903E-05 -3.812246E-05 -8.028903E-05 +5.178706E-03 -1.685668E-04 -3.812246E-05 -1.685668E-04 +1.128042E-04 
 -3.664142E-04 -5.843058E-05 +6.376473E-06 -5.843058E-05 +5.292124E-03 -2.260855E-04 +6.376473E-06 -2.260855E-04 +1.773023E-04 
 -2.178672E-04 -1.462904E-04 +2.174188E-04 -1.462904E-04 +5.173859E-03 -1.543785E-04 +2.174188E-04 -1.543785E-04 +1.402336E-06 
 -1.143357E-04 -1.558551E-04 +1.811971E-04 -1.558551E-04 +5.087969E-03 -1.073906E-04 +1.811971E-04 -1.073906E-04 -8.583161E-05 
 -1.248036E-04 -1.610677E-04 +7.053367E-05 -1.610677E-04 +5.028031E-03 -8.981918E-05 +7.053367E-05 -8.981918E-05 -4.058248E-05 
 -1.234407E-04 -2.006972E-04 +7.273870E-05 -2.006972E-04 +4.988183E-03 -1.262605E-04 +7.273870E-05 -1.262605E-04 +6.655378E-05 
 -1.353073E-04 -2.279720E-04 +1.374867E-05 -2.279720E-04 +4.947508E-03 -1.749898E-04 +1.374867E-05 -1.749898E-04 +1.528546E-04 
 -2.358467E-04 -1.362043E-04 +9.585633E-05 -1.362043E-04 +4.937992E-03 -1.019282E-04 +9.585633E-05 -1.019282E-04 +3.328032E-04 
 -3.171665E-04 -4.225906E-05 +1.110210E-04 -4.225906E-05 +4.956890E-03 -7.337556E-05 +1.110210E-04 -7.337556E-05 +5.872441E-04 
 -1.421944E-04 -1.712575E-06 +1.110078E-04 -1.712575E-06 +4.874543E-03 -7.237161E-05 +1.110078E-04 -7.237161E-05 +5.205672E-04 
 +1.754679E-04 +1.436014E-04 +1.917515E-04 +1.436014E-04 +4.761956E-03 -3.625545E-05 +1.917515E-04 -3.625545E-05 +2.997075E-04 
 +2.982504E-04 +2.387642E-04 +2.168946E-04 +2.387642E-04 +4.737984E-03 -1.510253E-05 +2.168946E-04 -1.510253E-05 +1.308040E-04 
 +4.017835E-04 +2.251213E-04 +2.200289E-04 +2.251213E-04 +4.876263E-03 +1.556517E-05 +2.200289E-04 +1.556517E-05 -5.330158E-06 
 +6.022962E-05 -1.882832E-05 -2.283108E-04 -1.882832E-05 +5.096224E-03 +3.314334E-05 -2.283108E-04 +3.314334E-05 -6.012812E-05 
 +5.638014E-05 +4.253681E-05 -2.609686E-04 +4.253681E-05 +5.091633E-03 +5.077969E-05 -2.609686E-04 +5.077969E-05 -1.812515E-04 
 +9.822745E-05 -4.442465E-05 -2.946468E-04 -4.442465E-05 +4.883650E-03 +5.576574E-05 -2.946468E-04 +5.576574E-05 -2.378370E-04 
 +2.730887E-04 -4.202925E-05 -1.373949E-04 -4.202925E-05 +4.724226E-03 +5.251348E-06 -1.373949E-04 +5.251348E-06 -1.958405E-04 
 +3.888224E-04 +7.628937E-05 +4.704668E-04 +7.628937E-05 +4.921181E-03 +1.757393E-04 +4.704668E-04 +1.757393E-04 -3.682459E-04 
 +2.906069E-04 +2.919501E-05 +4.959347E-04 +2.919501E-05 +4.962441E-03 +1.761703E-04 +4.959347E-04 +1.761703E-04 -3.083741E-04 
 +1.535279E-04 +9.552869E-06 +5.104124E-04 +9.552869E-06 +5.053653E-03 +1.279188E-04 +5.104124E-04 +1.279188E-04 -1.692296E-04 
 -2.562335E-04 -3.789942E-05 -2.427477E-05 -3.789942E-05 +5.124635E-03 -2.735258E-06 -2.427477E-05 -2.735258E-06 -2.675512E-05 
 -4.282526E-04 -8.308783E-05 -6.550189E-05 -8.308783E-05 +5.158991E-03 -1.300521E-04 -6.550189E-05 -1.300521E-04 +2.641443E-04 
 -4.299478E-04 -5.164391E-05 +3.673049E-05 -5.164391E-05 +5.164377E-03 -1.463019E-04 +3.673049E-05 -1.463019E-04 +2.633884E-04 
 -2.363085E-04 -7.669652E-05 +3.174805E-04 -7.669652E-05 +5.150598E-03 -1.370182E-04 +3.174805E-04 -1.370182E-04 +2.005057E-05 
 -1.527462E-04 -9.167314E-05 +2.155527E-04 -9.167314E-05 +5.148657E-03 -8.369417E-05 +2.155527E-04 -8.369417E-05 -1.571226E-04 
 -1.125533E-04 -1.232710E-04 +7.803127E-05 -1.232710E-04 +5.065512E-03 -6.844903E-05 +7.803127E-05 -6.844903E-05 -8.242439E-05 
 -1.472852E-04 -1.123403E-04 +9.766279E-06 -1.123403E-04 +4.991616E-03 -9.925586E-05 +9.766279E-06 -9.925586E-05 +6.603121E-05 
 -1.580766E-04 -1.154213E-04 +4.030271E-05 -1.154213E-04 +4.882567E-03 -1.390305E-04 +4.030271E-05 -1.390305E-04 +1.765171E-04 
 -1.436986E-04 +1.266006E-04 +1.006895E-04 +1.266006E-04 +4.800385E-03 -1.212493E-04 +1.006895E-04 -1.212493E-04 +4.319725E-04 
 -5.439297E-05 +1.461034E-04 +2.822768E-05 +1.461034E-04 +4.744642E-03 -1.191215E-04 +2.822768E-05 -1.191215E-04 +6.196757E-04 
 +1.379213E-04 +1.476863E-04 +1.162193E-05 +1.476863E-04 +4.675721E-03 -1.449314E-04 +1.162193E-05 -1.449314E-04 +4.699802E-04 
 +3.120132E-04 +1.699010E-04 +9.667869E-05 +1.699010E-04 +4.671600E-03 -1.175455E-04 +9.667869E-05 -1.175455E-04 +2.707455E-04 
 +4.116076E-04 +1.369024E-04 +1.276797E-04 +1.369024E-04 +4.673748E-03 -1.086701E-04 +1.276797E-04 -1.086701E-04 +1.554050E-04 
 +4.338934E-04 +1.620068E-04 +1.389717E-04 +1.620068E-04 +4.812305E-03 -8.194659E-05 +1.389717E-04 -8.194659E-05 +1.098650E-04 
 -1.111568E-04 +1.081835E-05 -2.497966E-04 +1.081835E-05 +5.004518E-03 +1.294755E-05 -2.497966E-04 +1.294755E-05 +6.554585E-05 
 -4.917082E-05 +1.550264E-04 -2.667033E-04 +1.550264E-04 +5.058358E-03 +1.256369E-04 -2.667033E-04 +1.256369E-04 -7.072241E-05 
 +1.573397E-05 +1.508844E-04 -3.625170E-04 +1.508844E-04 +5.034054E-03 +2.040720E-04 -3.625170E-04 +2.040720E-04 -1.877033E-04 
 +1.355156E-04 +9.094034E-05 -2.837190E-04 +9.094034E-05 +4.966361E-03 +1.914415E-04 -2.837190E-04 +1.914415E-04 -2.272865E-04 
 +2.329055E-04 +9.294251E-05 +4.593982E-04 +9.294251E-05 +5.092531E-03 +2.140430E-04 +4.593982E-04 +2.140430E-04 -4.021648E-04 
 +2.684346E-04 +5.490533E-07 +4.641887E-04 +5.490533E-07 +5.069858E-03 +1.279109E-04 +4.641887E-04 +1.279109E-04 -2.812333E-04 
 +7.473706E-05 -5.221888E-05 +4.767465E-04 -5.221888E-05 +5.127505E-03 +9.534553E-05 +4.767465E-04 +9.534553E-05 -1.840270E-04 
 -4.039012E-04 -3.123592E-05 -1.677871E-04 -3.123592E-05 +5.161477E-03 +4.713681E-05 -1.677871E-04 +4.713681E-05 -4.990851E-06 
 -4.215420E-04 +4.915416E-07 -6.141461E-05 +4.915416E-07 +5.132746E-03 -4.409210E-05 -6.141461E-05 -4.409210E-05 +3.046647E-04 
 -4.264231E-04 -5.007192E-05 +3.705223E-05 -5.007192E-05 +5.107057E-03 -9.343861E-05 +3.705223E-05 -9.343861E-05 +3.174260E-04 
 -2.778585E-04 -8.316175E-05 +3.002622E-04 -8.316175E-05 +5.098247E-03 -1.248241E-04 +3.002622E-04 -1.248241E-04 +6.487797E-05 
 -1.392037E-04 -9.511289E-05 +2.940175E-04 -9.511289E-05 +5.065427E-03 -1.062744E-04 +2.940175E-04 -1.062744E-04 -1.207650E-04 
 -8.776394E-05 -1.275810E-04 +1.074892E-04 -1.275810E-04 +5.016468E-03 -6.439801E-05 +1.074892E-04 -6.439801E-05 -8.398151E-05 
 -7.454288E-05 -5.257567E-05 -1.522410E-07 -5.257567E-05 +4.930015E-03 -8.531039E-05 -1.522410E-07 -8.531039E-05 +3.549061E-05 
 -6.014142E-05 -7.161814E-05 +3.114985E-05 -7.161814E-05 +4.834008E-03 -9.714968E-05 +3.114985E-05 -9.714968E-05 +1.430268E-04 
 -2.094629E-05 +2.610694E-04 +7.929669E-05 +2.610694E-04 +4.782874E-03 -1.215374E-04 +7.929669E-05 -1.215374E-04 +3.344331E-04 
 +1.380511E-04 +2.066995E-04 -6.348364E-06 +2.066995E-04 +4.724026E-03 -1.849414E-04 -6.348364E-06 -1.849414E-04 +4.153805E-04 
 +2.259510E-04 +1.961850E-04 +1.854809E-06 +1.961850E-04 +4.696127E-03 -2.083276E-04 +1.854809E-06 -2.083276E-04 +3.076494E-04 
 +2.646406E-04 +1.456476E-04 +2.027628E-05 +1.456476E-04 +4.713493E-03 -1.824771E-04 +2.027628E-05 -1.824771E-04 +2.521121E-04 
 +3.220571E-04 +8.685248E-05 +5.391772E-05 +8.685248E-05 +4.692924E-03 -1.547320E-04 +5.391772E-05 -1.547320E-04 +1.899418E-04 
 +4.112253E-04 +1.436873E-04 +7.485550E-05 +1.436873E-04 +4.714891E-03 -1.658378E-04 +7.485550E-05 -1.658378E-04 +2.284990E-04 
 -6.866709E-06 -3.977297E-05 -9.794465E-05 -3.977297E-05 +4.846718E-03 -6.830526E-05 -9.794465E-05 -6.830526E-05 +1.813829E-04 
 -1.188118E-05 +2.256470E-05 -1.279434E-04 +2.256470E-05 +4.963347E-03 +9.660147E-05 -1.279434E-04 +9.660147E-05 -2.567194E-06 
 +1.346419E-05 +5.890015E-05 -2.090597E-04 +5.890015E-05 +5.046711E-03 +1.936896E-04 -2.090597E-04 +1.936896E-04 -9.051539E-05 
 -2.044587E-05 +5.591027E-05 -2.525210E-04 +5.591027E-05 +5.119280E-03 +2.552513E-04 -2.525210E-04 +2.552513E-04 -2.565626E-04 
 +1.352054E-04 +3.454420E-05 +4.048589E-04 +3.454420E-05 +5.131290E-03 +2.216199E-04 +4.048589E-04 +2.216199E-04 -3.767773E-04 
 +1.496843E-04 +3.092113E-05 +4.041808E-04 +3.092113E-05 +5.150570E-03 +1.020159E-04 +4.041808E-04 +1.020159E-04 -3.104165E-04 
 +3.066103E-05 +2.522143E-05 +4.689207E-04 +2.522143E-05 +5.174242E-03 +8.433572E-05 +4.689207E-04 +8.433572E-05 -2.242550E-04 
 -3.805003E-04 +5.935610E-06 -2.478308E-04 +5.935610E-06 +5.205689E-03 +6.659438E-05 -2.478308E-04 +6.659438E-05 -5.210850E-05 
 -4.805921E-04 -2.925515E-05 -7.587948E-05 -2.925515E-05 +5.164416E-03 +3.043198E-06 -7.587948E-05 +3.043198E-06 +2.525001E-04 
 -4.522968E-04 -3.067730E-05 +3.834580E-05 -3.067730E-05 +5.090065E-03 -7.430065E-05 +3.834580E-05 -7.430065E-05 +3.509265E-04 
 -2.705544E-04 -4.340867E-05 +2.914117E-04 -4.340867E-05 +5.035693E-03 -1.291306E-04 +2.914117E-04 -1.291306E-04 +1.012894E-04 
 -9.700969E-05 -4.925676E-05 +3.307302E-04 -4.925676E-05 +4.963491E-03 -1.539405E-04 +3.307302E-04 -1.539405E-04 -7.696019E-05 
 -6.666022E-05 -8.049167E-05 +1.679401E-04 -8.049167E-05 +4.921393E-03 -1.448936E-04 +1.679401E-04 -1.448936E-04 -8.411375E-05 
 -7.964164E-06 -1.082463E-04 +2.275366E-05 -1.082463E-04 +4.853251E-03 -8.819895E-05 +2.275366E-05 -8.819895E-05 -5.841880E-05 
 +5.769665E-05 -5.786718E-05 +2.513740E-05 -5.786718E-05 +4.864944E-03 -5.860542E-05 +2.513740E-05 -5.860542E-05 +1.173056E-05 
 +1.846556E-04 +2.308136E-04 +3.948031E-05 +2.308136E-04 +4.843720E-03 -1.204760E-04 +3.948031E-05 -1.204760E-04 +9.863267E-05 
 +2.358503E-04 +2.293364E-04 -3.199106E-06 +2.293364E-04 +4.771891E-03 -1.888875E-04 -3.199106E-06 -1.888875E-04 +1.440589E-04 
 +2.197449E-04 +2.313440E-04 -2.238757E-05 +2.313440E-04 +4.810907E-03 -2.038662E-04 -2.238757E-05 -2.038662E-04 +1.497517E-04 
 +2.092719E-04 +1.693312E-04 -4.876698E-05 +1.693312E-04 +4.818113E-03 -1.950103E-04 -4.876698E-05 -1.950103E-04 +1.796428E-04 
 +1.987844E-04 +8.671985E-05 -2.948336E-05 +8.671985E-05 +4.771150E-03 -1.259659E-04 -2.948336E-05 -1.259659E-04 +2.129673E-04 
 +1.608833E-04 +1.071133E-04 -7.018288E-05 +1.071133E-04 +4.697216E-03 -1.666722E-04 -7.018288E-05 -1.666722E-04 +2.617516E-04 
 +2.798997E-05 -9.409387E-05 +2.380547E-04 -9.409387E-05 +4.799049E-03 -1.268746E-04 +2.380547E-04 -1.268746E-04 +1.041820E-04 
 +1.495237E-05 -1.345773E-04 +1.649005E-04 -1.345773E-04 +4.977160E-03 +2.464388E-05 +1.649005E-04 +2.464388E-05 -1.149993E-04 
 +6.548107E-05 -1.064697E-04 +1.201919E-04 -1.064697E-04 +5.031133E-03 +1.093650E-04 +1.201919E-04 +1.093650E-04 -8.031258E-05 
 +6.474483E-05 -6.659261E-05 +2.542149E-05 -6.659261E-05 +5.074947E-03 +2.394234E-04 +2.542149E-05 +2.394234E-04 -1.989170E-04 
 +1.606883E-04 -7.891255E-05 +2.603830E-04 -7.891255E-05 +5.109861E-03 +1.875758E-04 +2.603830E-04 +1.875758E-04 -3.389483E-04 
 +9.991363E-05 -6.284307E-05 +3.151486E-04 -6.284307E-05 +5.145899E-03 +9.167824E-05 +3.151486E-04 +9.167824E-05 -3.136006E-04 
 +1.553961E-05 -2.916396E-05 +3.792867E-04 -2.916396E-05 +5.192566E-03 -3.267599E-05 +3.792867E-04 -3.267599E-05 -2.712498E-04 
 -3.323365E-04 -2.295183E-05 -2.208704E-04 -2.295183E-05 +5.239051E-03 -5.338197E-05 -2.208704E-04 -5.338197E-05 -1.356433E-04 
 -4.302931E-04 -1.867209E-05 -1.041647E-04 -1.867209E-05 +5.221475E-03 +6.884027E-06 -1.041647E-04 +6.884027E-06 +1.045396E-04 
 -4.278015E-04 +5.119308E-05 +6.928090E-05 +5.119308E-05 +5.159146E-03 +2.832009E-05 +6.928090E-05 +2.832009E-05 +2.087231E-04 
 -2.361539E-04 +2.739433E-05 +2.927679E-04 +2.739433E-05 +5.062208E-03 -2.033469E-06 +2.927679E-04 -2.033469E-06 +9.497421E-05 
 -2.146163E-04 -5.608256E-05 +3.289352E-04 -5.608256E-05 +4.955702E-03 -1.076912E-04 +3.289352E-04 -1.076912E-04 -2.659062E-05 
 +5.573061E-06 -9.084118E-05 +2.185655E-04 -9.084118E-05 +4.898899E-03 -1.543688E-04 +2.185655E-04 -1.543688E-04 -1.648002E-04 
 +1.266107E-04 -8.710271E-05 +9.900735E-05 -8.710271E-05 +4.774134E-03 -1.105823E-04 +9.900735E-05 -1.105823E-04 -1.992401E-04 
 +2.161683E-04 +2.031015E-04 +9.236675E-06 +2.031015E-04 +4.747375E-03 -7.053141E-05 +9.236675E-06 -7.053141E-05 -9.142129E-05 
 +2.548009E-04 +2.670953E-04 +3.229307E-05 +2.670953E-04 +4.808795E-03 -9.279854E-05 +3.229307E-05 -9.279854E-05 -5.139087E-05 
 +2.562548E-04 +2.398669E-04 -1.164198E-05 +2.398669E-04 +4.803747E-03 -1.353403E-04 -1.164198E-05 -1.353403E-04 -1.038342E-05 
 +2.435228E-04 +2.183813E-04 -8.048387E-05 +2.183813E-04 +4.838667E-03 -1.734762E-04 -8.048387E-05 -1.734762E-04 +5.818880E-05 
 +1.830519E-04 +1.803782E-04 -1.020988E-04 +1.803782E-04 +4.883333E-03 -1.607709E-04 -1.020988E-04 -1.607709E-04 +1.201610E-04 
 -1.727003E-05 +4.808235E-05 -1.462014E-04 +4.808235E-05 +4.956766E-03 -1.223937E-04 -1.462014E-04 -1.223937E-04 +1.842049E-04 
 -2.036998E-04 +3.025018E-05 -2.101274E-04 +3.025018E-05 +5.015912E-03 -9.616150E-05 -2.101274E-04 -9.616150E-05 +2.279543E-04 
 -1.994913E-05 -8.501773E-05 +2.662885E-04 -8.501773E-05 +5.004749E-03 -1.087697E-04 +2.662885E-04 -1.087697E-04 +5.103625E-05 
 +8.411381E-05 -1.398933E-04 +2.797122E-04 -1.398933E-04 +4.995591E-03 -7.183318E-05 +2.797122E-04 -7.183318E-05 -1.892931E-04 
 +9.706835E-05 -1.164176E-04 +3.069894E-04 -1.164176E-04 +5.026376E-03 +7.282058E-05 +3.069894E-04 +7.282058E-05 -1.663093E-04 
 +1.388338E-04 -1.215679E-04 +1.343667E-04 -1.215679E-04 +5.067813E-03 +2.022395E-04 +1.343667E-04 +2.022395E-04 -2.101276E-04 
 +1.337020E-04 -1.710078E-04 +7.452069E-06 -1.710078E-04 +5.125811E-03 +1.180105E-04 +7.452069E-06 +1.180105E-04 -3.799265E-04 
 +9.089179E-05 -1.825131E-04 +1.242769E-04 -1.825131E-04 +5.147186E-03 +6.359562E-05 +1.242769E-04 +6.359562E-05 -3.479820E-04 
 +2.589024E-06 -1.534971E-04 +1.349603E-04 -1.534971E-04 +5.165384E-03 -2.958305E-05 +1.349603E-04 -2.958305E-05 -3.297344E-04 
 -1.412895E-04 -1.097906E-04 -1.238744E-04 -1.097906E-04 +5.183594E-03 -2.264876E-05 -1.238744E-04 -2.264876E-05 -2.115241E-04 
 -2.532423E-04 -7.215237E-05 -1.400849E-04 -7.215237E-05 +5.259573E-03 +3.363480E-05 -1.400849E-04 +3.363480E-05 -1.568222E-04 
 -2.911972E-04 +1.820295E-05 +1.531483E-04 +1.820295E-05 +5.278874E-03 +8.959769E-05 +1.531483E-04 +8.959769E-05 -1.624253E-04 
 -1.783436E-04 +5.084721E-05 +2.302779E-04 +5.084721E-05 +5.247286E-03 +1.431719E-04 +2.302779E-04 +1.431719E-04 -6.862097E-05 
 -3.096481E-04 +8.563758E-05 +2.656905E-04 +8.563758E-05 +5.243120E-03 +6.702367E-05 +2.656905E-04 +6.702367E-05 -6.660000E-05 
 +1.053896E-04 +8.933977E-05 +2.272844E-04 +8.933977E-05 +5.164430E-03 -1.712392E-05 +2.272844E-04 -1.712392E-05 -3.035217E-04 
 +2.388293E-04 -3.544692E-05 +1.738412E-04 -3.544692E-05 +5.068202E-03 -6.312729E-05 +1.738412E-04 -6.312729E-05 -3.679281E-04 
 +2.368592E-04 +1.283952E-04 +7.672323E-05 +1.283952E-04 +4.883853E-03 -2.002037E-05 +7.672323E-05 -2.002037E-05 -2.315455E-04 
 +2.060545E-04 +2.153979E-04 +2.473271E-05 +2.153979E-04 +4.796417E-03 -9.077093E-06 +2.473271E-05 -9.077093E-06 -1.747451E-04 
 +2.268607E-04 +1.810112E-04 -3.307987E-05 +1.810112E-04 +4.848716E-03 -9.197222E-05 -3.307987E-05 -9.197222E-05 -9.461078E-05 
 +2.271155E-04 +1.402274E-04 -9.611572E-05 +1.402274E-04 +4.817552E-03 -1.258435E-04 -9.611572E-05 -1.258435E-04 +5.122904E-06 
 +1.460875E-04 +1.173206E-04 -7.894430E-05 +1.173206E-04 +4.932317E-03 -1.348672E-04 -7.894430E-05 -1.348672E-04 +7.769407E-05 
 -2.399687E-04 -1.629187E-05 -1.836154E-04 -1.629187E-05 +5.088315E-03 -1.350718E-04 -1.836154E-04 -1.350718E-04 +1.021989E-04 
 -3.055631E-04 +8.031875E-05 -1.652730E-04 +8.031875E-05 +5.111647E-03 -7.162700E-05 -1.652730E-04 -7.162700E-05 +2.301937E-04 
 -6.989414E-05 +2.579954E-05 +2.911191E-05 +2.579954E-05 +5.028837E-03 -4.454596E-05 +2.911191E-05 -4.454596E-05 +1.636744E-04 
 +4.577839E-05 -3.235221E-05 +2.039544E-04 -3.235221E-05 +4.972525E-03 -4.735280E-05 +2.039544E-04 -4.735280E-05 -8.201133E-05 
 +1.491118E-07 -1.162633E-04 +3.205318E-04 -1.162633E-04 +5.046556E-03 +7.098537E-05 +3.205318E-04 +7.098537E-05 -1.401911E-04 
 +1.288083E-04 -1.862250E-04 -1.661011E-05 -1.862250E-04 +5.114227E-03 +1.510649E-04 -1.661011E-05 +1.510649E-04 -2.645078E-04 
 +1.025686E-04 -9.453100E-05 -1.036939E-04 -9.453100E-05 +5.148437E-03 +3.585823E-05 -1.036939E-04 +3.585823E-05 -3.732814E-04 
 +7.186052E-05 -6.130521E-05 -1.680707E-05 -6.130521E-05 +5.155432E-03 +3.346234E-05 -1.680707E-05 +3.346234E-05 -3.887783E-04 
 +3.660724E-05 -3.293939E-05 -6.540640E-06 -3.293939E-05 +5.159071E-03 +1.826214E-05 -6.540640E-06 +1.826214E-05 -3.643451E-04 
 -3.419855E-05 -2.182178E-05 -3.604597E-05 -2.182178E-05 +5.162063E-03 +2.651595E-05 -3.604597E-05 +2.651595E-05 -2.887673E-04 
 -9.211564E-05 -6.267684E-05 -7.666491E-05 -6.267684E-05 +5.169949E-03 +3.990172E-05 -7.666491E-05 +3.990172E-05 -4.041022E-04 
 -1.143310E-04 -6.221233E-05 +2.165372E-04 -6.221233E-05 +5.182495E-03 +6.622960E-05 +2.165372E-04 +6.622960E-05 -4.010132E-04 
 -1.140885E-04 -4.207948E-05 +2.033526E-04 -4.207948E-05 +5.209454E-03 +8.656851E-05 +2.033526E-04 +8.656851E-05 -2.187091E-04 
 -1.280013E-04 +1.325359E-05 +2.015167E-04 +1.325359E-05 +5.226798E-03 +5.126660E-05 +2.015167E-04 +5.126660E-05 -2.666510E-04 
 +9.365743E-05 -3.645285E-06 +1.991609E-04 -3.645285E-06 +5.208556E-03 -5.205676E-06 +1.991609E-04 -5.205676E-06 -4.478569E-04 
 +1.605409E-04 -1.095684E-04 +1.918045E-04 -1.095684E-04 +5.246608E-03 -5.784298E-05 +1.918045E-04 -5.784298E-05 -5.300856E-04 
 +1.584995E-04 -1.001238E-04 +1.911523E-04 -1.001238E-04 +5.173532E-03 -4.574726E-05 +1.911523E-04 -4.574726E-05 -4.324607E-04 
 +2.050982E-04 +1.385948E-04 -2.339450E-05 +1.385948E-04 +4.947248E-03 -1.669243E-05 -2.339450E-05 -1.669243E-05 -2.882893E-04 
 +1.707974E-04 +9.970748E-05 -4.927629E-07 +9.970748E-05 +4.864263E-03 -4.543401E-05 -4.927629E-07 -4.543401E-05 -1.463662E-04 
 +1.665608E-04 +4.273568E-05 -6.701010E-05 +4.273568E-05 +4.863664E-03 -8.357574E-05 -6.701010E-05 -8.357574E-05 +1.557754E-06 
 +5.963260E-05 +1.096356E-04 -2.947724E-05 +1.096356E-04 +4.864805E-03 -1.372429E-04 -2.947724E-05 -1.372429E-04 +4.237416E-05 
 -1.699003E-04 +8.002020E-05 -5.892332E-05 +8.002020E-05 +5.020372E-03 -1.263779E-04 -5.892332E-05 -1.263779E-04 +3.433995E-05 
 -2.949183E-04 +9.276034E-05 -3.140696E-05 +9.276034E-05 +5.073443E-03 -9.733265E-05 -3.140696E-05 -9.733265E-05 +1.968584E-04 
 -9.143827E-05 -5.624198E-06 +3.738267E-05 -5.624198E-06 +4.957738E-03 -6.144832E-05 +3.738267E-05 -6.144832E-05 +2.069044E-04 
 -1.001458E-04 +5.210959E-05 +1.502673E-04 +5.210959E-05 +4.984290E-03 +2.473741E-05 +1.502673E-04 +2.473741E-05 +5.758435E-05 
 -1.608108E-04 +1.564760E-05 +2.757593E-04 +1.564760E-05 +5.066375E-03 +7.981620E-05 +2.757593E-04 +7.981620E-05 -4.857802E-05 
 +7.404996E-05 -8.478771E-05 -1.396205E-04 -8.478771E-05 +5.120469E-03 +5.942869E-05 -1.396205E-04 +5.942869E-05 -2.434951E-04 
 +1.143370E-04 -4.664475E-05 -1.069301E-04 -4.664475E-05 +5.113123E-03 -1.028998E-05 -1.069301E-04 -1.028998E-05 -3.300340E-04 
 +8.918848E-05 -2.304213E-06 -5.065042E-05 -2.304213E-06 +5.125875E-03 -1.956894E-05 -5.065042E-05 -1.956894E-05 -3.882515E-04 
 +7.164453E-05 +2.029074E-05 -2.528454E-05 +2.029074E-05 +5.130727E-03 -2.296659E-05 -2.528454E-05 -2.296659E-05 -3.700932E-04 
 -6.737202E-07 +5.684118E-05 +6.919523E-06 +5.684118E-05 +5.144881E-03 -2.144386E-05 +6.919523E-06 -2.144386E-05 -3.408333E-04 
 -2.026775E-05 +7.293562E-06 -3.176904E-05 +7.293562E-06 +5.138196E-03 -1.529153E-05 -3.176904E-05 -1.529153E-05 -4.806897E-04 
 -2.172476E-05 -1.852295E-06 +2.352551E-04 -1.852295E-06 +5.141991E-03 +5.535912E-05 +2.352551E-04 +5.535912E-05 -4.286554E-04 
 -6.019910E-05 +9.799466E-06 +1.754516E-04 +9.799466E-06 +5.195079E-03 +1.001102E-04 +1.754516E-04 +1.001102E-04 -2.588791E-04 
 +1.220158E-05 -2.282500E-05 +1.499179E-04 -2.282500E-05 +5.209612E-03 +6.103407E-05 +1.499179E-04 +6.103407E-05 -3.321386E-04 
 +1.002082E-04 -6.655622E-05 +1.513216E-04 -6.655622E-05 +5.215122E-03 +4.948112E-05 +1.513216E-04 +4.948112E-05 -4.455373E-04 
 +1.308545E-04 -6.957948E-05 +1.529317E-04 -6.957948E-05 +5.230532E-03 +6.747815E-05 +1.529317E-04 +6.747815E-05 -5.327449E-04 
 +6.913454E-05 -1.518635E-04 +1.826163E-04 -1.518635E-04 +5.203052E-03 +9.511076E-06 +1.826163E-04 +9.511076E-06 -3.989726E-04 
 +7.773742E-05 -2.844828E-05 +5.378859E-05 -2.844828E-05 +5.065422E-03 +7.102448E-06 +5.378859E-05 +7.102448E-06 -2.886752E-04 
 +1.131151E-04 -7.143582E-06 +8.763791E-05 -7.143582E-06 +4.951122E-03 +3.792576E-05 +8.763791E-05 +3.792576E-05 -3.046153E-04 
 +6.070887E-05 -4.079581E-05 +9.527002E-06 -4.079581E-05 +5.056128E-03 -1.240606E-05 +9.527002E-06 -1.240606E-05 -1.980403E-04 
 +2.804572E-05 -3.033745E-05 +8.470414E-06 -3.033745E-05 +5.130067E-03 -3.709952E-05 +8.470414E-06 -3.709952E-05 -1.587405E-04 
 -2.126133E-06 -2.485588E-05 -3.613641E-05 -2.485588E-05 +5.036753E-03 -1.300413E-04 -3.613641E-05 -1.300413E-04 -6.889539E-05 
 -2.114151E-04 -5.450863E-05 -1.930254E-05 -5.450863E-05 +4.983529E-03 -2.122783E-04 -1.930254E-05 -2.122783E-04 +1.184753E-04 
 -1.960679E-04 -9.684857E-05 +8.104069E-05 -9.684857E-05 +4.985470E-03 -2.023293E-04 +8.104069E-05 -2.023293E-04 +1.501434E-04 
 -2.164342E-04 -4.886754E-05 +1.333354E-04 -4.886754E-05 +4.976723E-03 -1.776081E-04 +1.333354E-04 -1.776081E-04 +1.026311E-04 
 -1.945716E-04 -3.908557E-05 +2.623219E-04 -3.908557E-05 +5.022835E-03 -1.065685E-04 +2.623219E-04 -1.065685E-04 -5.341184E-07 
 +5.624156E-05 -6.361759E-05 -1.520454E-04 -6.361759E-05 +5.088603E-03 -3.031177E-05 -1.520454E-04 -3.031177E-05 -1.837061E-04 
 +1.248796E-04 +2.584779E-06 -1.166125E-04 +2.584779E-06 +5.054369E-03 -7.153530E-05 -1.166125E-04 -7.153530E-05 -2.915652E-04 
 +1.146653E-04 +3.300298E-05 -8.209388E-05 +3.300298E-05 +5.069052E-03 -9.037933E-05 -8.209388E-05 -9.037933E-05 -3.325777E-04 
 +1.027952E-04 +6.148029E-05 -5.598204E-05 +6.148029E-05 +5.086278E-03 -1.100621E-04 -5.598204E-05 -1.100621E-04 -3.174943E-04 
 +5.315102E-05 +8.972980E-05 -1.509406E-05 +8.972980E-05 +5.099347E-03 -8.974072E-05 -1.509406E-05 -8.974072E-05 -2.718740E-04 
 +1.833689E-05 +4.429790E-05 -3.778113E-05 +4.429790E-05 +5.170877E-03 +1.408141E-05 -3.778113E-05 +1.408141E-05 -3.471053E-04 
 +2.631207E-06 +5.412506E-06 +2.405474E-04 +5.412506E-06 +5.243454E-03 +1.004963E-04 +2.405474E-04 +1.004963E-04 -3.501651E-04 
 +1.406204E-05 +9.639145E-06 +1.541414E-04 +9.639145E-06 +5.241844E-03 +8.303364E-05 +1.541414E-04 +8.303364E-05 -2.446220E-04 
 +3.329946E-05 -5.603371E-05 +1.255637E-04 -5.603371E-05 +5.199757E-03 +8.429756E-05 +1.255637E-04 +8.429756E-05 -2.684792E-04 
 +1.472139E-04 -8.220958E-05 +1.130381E-04 -8.220958E-05 +5.128126E-03 +1.218689E-04 +1.130381E-04 +1.218689E-04 -3.808787E-04 
 +1.309436E-04 -1.188671E-04 +9.752766E-05 -1.188671E-04 +5.108782E-03 +1.205913E-04 +9.752766E-05 +1.205913E-04 -4.042689E-04 
 -1.458513E-04 -2.366391E-04 +1.413150E-04 -2.366391E-04 +5.196115E-03 +6.888413E-05 +1.413150E-04 +6.888413E-05 -1.620093E-04 
 -2.073709E-04 -2.480219E-04 +2.398052E-04 -2.480219E-04 +5.281489E-03 +6.526718E-05 +2.398052E-04 +6.526718E-05 -1.546970E-04 
 +1.108067E-04 -1.749745E-04 +1.071015E-04 -1.749745E-04 +5.286362E-03 +4.298047E-05 +1.071015E-04 +4.298047E-05 -3.723268E-04 
 +4.674227E-05 -8.737265E-05 +7.740444E-05 -8.737265E-05 +5.238472E-03 -4.936285E-05 +7.740444E-05 -4.936285E-05 -3.467716E-04 
 +4.114831E-05 -8.641016E-05 +2.572053E-05 -8.641016E-05 +5.124408E-03 -1.174657E-04 +2.572053E-05 -1.174657E-04 -3.117659E-04 
 +7.294275E-05 -9.594729E-05 -4.837731E-05 -9.594729E-05 +5.010082E-03 -1.220444E-04 -4.837731E-05 -1.220444E-04 -2.467458E-04 
 -1.212682E-05 -7.152898E-05 -4.011310E-05 -7.152898E-05 +5.006396E-03 -1.200462E-04 -4.011310E-05 -1.200462E-04 -5.252207E-05 
 -1.866287E-04 -6.706405E-05 +2.032538E-05 -6.706405E-05 +5.037234E-03 -1.142909E-04 +2.032538E-05 -1.142909E-04 +6.149386E-05 
 -2.967980E-04 +1.389664E-04 +1.292245E-04 +1.389664E-04 +5.069627E-03 -5.320818E-05 +1.292245E-04 -5.320818E-05 +6.794208E-05 
 -2.416963E-04 +1.268650E-04 +2.727379E-04 +1.268650E-04 +5.109513E-03 -1.748737E-05 +2.727379E-04 -1.748737E-05 -1.159073E-05 
 +7.674885E-05 -6.817388E-06 -1.578572E-04 -6.817388E-06 +5.072773E-03 -4.050485E-05 -1.578572E-04 -4.050485E-05 -1.624969E-04 
 +9.428325E-05 +5.504772E-06 -1.287671E-04 +5.504772E-06 +5.026197E-03 -1.013429E-04 -1.287671E-04 -1.013429E-04 -2.278334E-04 
 +1.262767E-04 +3.556537E-05 -1.027563E-04 +3.556537E-05 +4.957892E-03 -1.119408E-04 -1.027563E-04 -1.119408E-04 -2.256722E-04 
 +7.051894E-05 +5.848244E-05 -7.765346E-05 +5.848244E-05 +4.996837E-03 -1.274601E-04 -7.765346E-05 -1.274601E-04 -1.845857E-04 
 +7.856070E-05 -6.478160E-06 -5.838354E-05 -6.478160E-06 +5.001520E-03 -1.169505E-04 -5.838354E-05 -1.169505E-04 -4.627654E-05 
 +4.943489E-05 +2.521104E-05 +1.439725E-05 +2.521104E-05 +4.997327E-03 -2.451230E-05 +1.439725E-05 -2.451230E-05 -5.966533E-05 
 +2.918095E-05 -2.584472E-05 +1.992003E-04 -2.584472E-05 +5.100580E-03 +5.388356E-06 +1.992003E-04 +5.388356E-06 -1.623954E-04 
 +1.385209E-04 -2.051226E-05 +1.061962E-04 -2.051226E-05 +5.159397E-03 -3.502365E-05 +1.061962E-04 -3.502365E-05 -7.978999E-05 
 +1.474746E-04 -4.359328E-05 +9.768881E-05 -4.359328E-05 +5.148654E-03 +3.524661E-06 +9.768881E-05 +3.524661E-06 -5.615164E-05 
 +3.004426E-05 -1.112153E-04 +1.015577E-04 -1.112153E-04 +5.105290E-03 +7.547677E-05 +1.015577E-04 +7.547677E-05 -1.818545E-04 
 +3.878462E-05 -1.833764E-04 +4.717284E-05 -1.833764E-04 +5.088953E-03 +5.764090E-05 +4.717284E-05 +5.764090E-05 -1.868588E-04 
 -3.097438E-04 -2.195227E-04 +1.016735E-04 -2.195227E-04 +5.153816E-03 -2.051345E-05 +1.016735E-04 -2.051345E-05 -2.790842E-06 
 -3.250727E-04 -1.491314E-04 +2.729307E-04 -1.491314E-04 +5.141531E-03 -8.064537E-05 +2.729307E-04 -8.064537E-05 -3.118564E-05 
 +1.241396E-04 -1.334457E-05 +6.232275E-05 -1.334457E-05 +4.988165E-03 -1.547348E-04 +6.232275E-05 -1.547348E-04 -1.233521E-04 
 +7.067031E-05 +3.038046E-05 +5.713414E-05 +3.038046E-05 +4.868127E-03 -2.161487E-04 +5.713414E-05 -2.161487E-04 -2.847966E-05 
 +7.428422E-06 -1.320561E-05 +2.423604E-06 -1.320561E-05 +4.913548E-03 -2.024548E-04 +2.423604E-06 -2.024548E-04 -3.484945E-05 
 +6.716629E-05 -9.205691E-05 +1.191017E-05 -9.205691E-05 +4.986674E-03 -1.255763E-04 +1.191017E-05 -1.255763E-04 -2.017258E-04 
 +9.506352E-05 -1.140924E-04 +5.018918E-06 -1.140924E-04 +4.945567E-03 -6.282432E-05 +5.018918E-06 -6.282432E-05 -2.557234E-04 
 -1.775698E-05 -1.068971E-04 +2.997438E-05 -1.068971E-04 +5.000120E-03 +2.110351E-05 +2.997438E-05 +2.110351E-05 -1.382937E-04 
 -2.654302E-04 +8.164342E-05 +6.207512E-05 +8.164342E-05 +5.103957E-03 +2.702927E-05 +6.207512E-05 +2.702927E-05 -4.541479E-05 
 -2.701216E-04 +1.208129E-04 +1.754912E-04 +1.208129E-04 +5.076239E-03 -8.939098E-05 +1.754912E-04 -8.939098E-05 -6.482341E-05 
 +2.049922E-05 +4.638748E-05 -1.577343E-04 +4.638748E-05 +5.068720E-03 -1.187063E-04 -1.577343E-04 -1.187063E-04 -1.600057E-04 
 -4.827776E-06 +9.592356E-06 -1.155140E-04 +9.592356E-06 +5.025131E-03 -8.073407E-05 -1.155140E-04 -8.073407E-05 -1.412519E-04 
 -2.967229E-05 -4.037998E-05 -1.640788E-04 -4.037998E-05 +4.880824E-03 -7.001219E-05 -1.640788E-04 -7.001219E-05 -3.911863E-05 
 +9.055744E-05 +2.366506E-05 -8.132291E-05 +2.366506E-05 +4.781107E-03 -8.697005E-05 -8.132291E-05 -8.697005E-05 +7.551110E-06 
 +1.276224E-04 -1.477690E-05 -6.563523E-05 -1.477690E-05 +4.730988E-03 -3.815932E-05 -6.563523E-05 -3.815932E-05 +9.666636E-05 
 +1.147877E-04 +8.284792E-05 +3.589682E-05 +8.284792E-05 +4.658900E-03 -9.237325E-06 +3.589682E-05 -9.237325E-06 +1.076341E-04 
 +1.470193E-04 +9.795283E-05 +1.163901E-04 +9.795283E-05 +4.581545E-03 -1.428058E-05 +1.163901E-04 -1.428058E-05 +3.993409E-05 
 +2.204187E-04 +9.184047E-05 +1.316245E-05 +9.184047E-05 +4.580259E-03 -1.147932E-06 +1.316245E-05 -1.147932E-06 +1.253323E-04 
 +2.305359E-04 +3.970495E-05 -1.917347E-05 +3.970495E-05 +4.789934E-03 -1.992911E-05 -1.917347E-05 -1.992911E-05 +2.096319E-04 
 -5.216465E-05 -6.089978E-05 +4.052823E-05 -6.089978E-05 +5.042400E-03 -6.689826E-05 +4.052823E-05 -6.689826E-05 +1.122447E-04 
 -1.167615E-04 -8.127248E-05 +4.174207E-05 -8.127248E-05 +5.096743E-03 -5.212502E-05 +4.174207E-05 -5.212502E-05 +5.279305E-06 
 -2.499870E-04 -4.888116E-05 +1.104298E-04 -4.888116E-05 +5.083025E-03 -3.534184E-05 +1.104298E-04 -3.534184E-05 -9.977698E-06 
 -2.639287E-04 -2.065482E-05 +2.485849E-04 -2.065482E-05 +5.042254E-03 -8.963447E-05 +2.485849E-04 -8.963447E-05 -8.628508E-05 
 -1.780987E-05 +2.306877E-05 +9.650484E-05 +2.306877E-05 +4.958624E-03 -1.517908E-04 +9.650484E-05 -1.517908E-04 -4.319622E-05 
 -1.872504E-05 +4.355450E-05 +4.623652E-05 +4.355450E-05 +4.913324E-03 -1.653722E-04 +4.623652E-05 -1.653722E-04 +1.227122E-04 
 -4.168570E-05 +4.007391E-05 -5.645717E-07 +4.007391E-05 +4.857419E-03 -1.277356E-04 -5.645717E-07 -1.277356E-04 +2.076368E-04 
 +6.729130E-06 -9.264292E-06 -4.191540E-05 -9.264292E-06 +4.856780E-03 -6.166559E-05 -4.191540E-05 -6.166559E-05 +3.619497E-05 
 +1.054635E-04 -8.860297E-05 -4.541884E-05 -8.860297E-05 +4.908448E-03 -2.165723E-05 -4.541884E-05 -2.165723E-05 -2.709126E-04 
 +4.103457E-05 -3.108521E-05 +1.970516E-05 -3.108521E-05 +4.991203E-03 -3.876794E-05 +1.970516E-05 -3.876794E-05 -2.892795E-04 
 -1.131537E-04 +7.796496E-05 -1.759486E-05 +7.796496E-05 +5.082014E-03 -8.380768E-05 -1.759486E-05 -8.380768E-05 -1.715738E-04 
 -1.333056E-04 +1.308968E-04 +5.578869E-05 +1.308968E-04 +5.067621E-03 -1.571681E-04 +5.578869E-05 -1.571681E-04 -1.484124E-04 
 -4.227533E-05 +1.395684E-04 -8.000104E-05 +1.395684E-04 +5.059420E-03 -1.675733E-04 -8.000104E-05 -1.675733E-04 -1.809800E-04 
 +1.907453E-05 +9.089034E-05 -6.396786E-05 +9.089034E-05 +4.997294E-03 -8.194567E-05 -6.396786E-05 -8.194567E-05 -7.017188E-05 
 -3.698743E-04 -3.367129E-05 -2.534631E-04 -3.367129E-05 +4.818170E-03 -4.439448E-05 -2.534631E-04 -4.439448E-05 +1.576733E-04 
 +1.264564E-04 +6.836755E-05 -9.776772E-05 +6.836755E-05 +4.521196E-03 -2.606959E-05 -9.776772E-05 -2.606959E-05 +1.762022E-04 
 +1.966751E-04 +6.229546E-05 -3.706208E-05 +6.229546E-05 +4.567824E-03 -5.949800E-06 -3.706208E-05 -5.949800E-06 +8.952948E-05 
 +1.915821E-04 +6.104614E-05 +3.288028E-05 +6.104614E-05 +4.651881E-03 +4.487895E-07 +3.288028E-05 +4.487895E-07 +7.319446E-05 
 +2.351623E-04 +4.149382E-05 +6.103165E-05 +4.149382E-05 +4.622998E-03 +3.758668E-06 +6.103165E-05 +3.758668E-06 +7.797541E-05 
 +2.170330E-04 +3.294419E-05 -1.380321E-05 +3.294419E-05 +4.654834E-03 +2.954237E-05 -1.380321E-05 +2.954237E-05 +9.479552E-05 
 +2.285518E-04 +3.784364E-05 -8.769763E-05 +3.784364E-05 +4.647799E-03 +4.440800E-05 -8.769763E-05 +4.440800E-05 +1.414444E-04 
 +1.004786E-04 +1.251306E-05 -5.290432E-05 +1.251306E-05 +4.748830E-03 +1.364569E-05 -5.290432E-05 +1.364569E-05 +1.156024E-04 
 -1.193174E-04 +2.977831E-05 +7.106086E-05 +2.977831E-05 +4.944757E-03 -4.951511E-06 +7.106086E-05 -4.951511E-06 +2.531397E-05 
 -1.971771E-04 +6.415057E-05 +1.749469E-04 +6.415057E-05 +4.981574E-03 -2.567186E-05 +1.749469E-04 -2.567186E-05 -2.650490E-05 
 -2.833647E-04 +4.908811E-05 +1.862789E-04 +4.908811E-05 +5.061280E-03 -7.961445E-05 +1.862789E-04 -7.961445E-05 -9.920067E-05 
 -2.542111E-04 +2.431487E-05 +9.861479E-05 +2.431487E-05 +5.138345E-03 -1.016713E-04 +9.861479E-05 -1.016713E-04 -9.808693E-05 
 -1.331201E-04 +4.188289E-05 +5.642779E-05 +4.188289E-05 +5.026543E-03 -1.012699E-04 +5.642779E-05 -1.012699E-04 -2.286845E-05 
 -6.617975E-05 +4.336829E-05 -9.564215E-06 +4.336829E-05 +4.928066E-03 -1.010651E-04 -9.564215E-06 -1.010651E-04 +8.991674E-05 
 -3.924772E-05 +5.775399E-05 -1.092970E-04 +5.775399E-05 +4.929219E-03 -5.616251E-05 -1.092970E-04 -5.616251E-05 +4.875980E-05 
 +5.783096E-05 -2.783148E-05 -1.569252E-04 -2.783148E-05 +5.003852E-03 -7.974387E-06 -1.569252E-04 -7.974387E-06 -2.194296E-04 
 +6.319025E-05 +5.980359E-05 -5.351078E-05 +5.980359E-05 +5.092675E-03 -2.583685E-05 -5.351078E-05 -2.583685E-05 -3.321445E-04 
 +3.272524E-05 +8.691394E-05 -5.090211E-06 +8.691394E-05 +5.091784E-03 -5.029417E-05 -5.090211E-06 -5.029417E-05 -2.959452E-04 
 +1.876262E-07 +8.115988E-05 -2.970752E-06 +8.115988E-05 +5.072943E-03 -6.655343E-05 -2.970752E-06 -6.655343E-05 -2.561504E-04 
 -6.671916E-06 +9.586458E-05 -3.667760E-05 +9.586458E-05 +5.024666E-03 -1.035865E-04 -3.667760E-05 -1.035865E-04 -2.178470E-04 
 +1.697826E-05 +2.351787E-05 -5.109030E-05 +2.351787E-05 +4.908001E-03 -3.144318E-05 -5.109030E-05 -3.144318E-05 -2.879908E-06 
 -4.502179E-04 -1.426431E-04 -2.206252E-04 -1.426431E-04 +4.876985E-03 -2.234773E-05 -2.206252E-04 -2.234773E-05 +2.195993E-04 
 -1.238443E-04 +4.605277E-06 -1.477559E-04 +4.605277E-06 +4.763593E-03 -7.000501E-06 -1.477559E-04 -7.000501E-06 +2.061243E-04 
 +2.890209E-04 +9.921204E-05 +4.516338E-06 +9.921204E-05 +4.635215E-03 +1.134795E-05 +4.516338E-06 +1.134795E-05 +7.141814E-05 
 +2.825183E-04 +5.028894E-05 +3.875310E-05 +5.028894E-05 +4.652463E-03 +3.736595E-05 +3.875310E-05 +3.736595E-05 +1.771299E-05 
 +2.321877E-04 +8.216460E-05 +4.504309E-05 +8.216460E-05 +4.680857E-03 +3.401060E-05 +4.504309E-05 +3.401060E-05 +2.805122E-05 
 +2.229581E-04 +7.579829E-05 +2.129800E-05 +7.579829E-05 +4.703576E-03 +4.956862E-05 +2.129800E-05 +4.956862E-05 +1.939721E-05 
 +2.032044E-04 +4.007112E-05 -3.044048E-05 +4.007112E-05 +4.721293E-03 +4.998468E-05 -3.044048E-05 +4.998468E-05 +3.419153E-05 
 +1.838025E-04 -4.911551E-05 -3.661986E-05 -4.911551E-05 +4.642539E-03 +7.172371E-05 -3.661986E-05 +7.172371E-05 +6.569617E-05 
 +1.134408E-04 +3.163661E-06 +3.530475E-05 +3.163661E-06 +4.667002E-03 +4.251881E-05 +3.530475E-05 +4.251881E-05 +7.071395E-05 
 -2.755522E-04 -3.325968E-06 +1.478253E-04 -3.325968E-06 +4.875249E-03 -6.578253E-05 +1.478253E-04 -6.578253E-05 +6.590734E-05 
 -3.218974E-04 +3.931112E-05 +7.551690E-05 +3.931112E-05 +5.022006E-03 -6.799142E-05 +7.551690E-05 -6.799142E-05 +3.489558E-05 
 -3.596245E-04 +1.594341E-05 +3.384621E-05 +1.594341E-05 +5.150000E-03 +1.007372E-05 +3.384621E-05 +1.007372E-05 +3.376783E-05 
 -3.230060E-04 +5.915959E-06 +3.963609E-05 +5.915959E-06 +5.254895E-03 +8.481355E-05 +3.963609E-05 +8.481355E-05 -5.474641E-05 
 -1.229550E-04 -2.597948E-05 -4.472352E-05 -2.597948E-05 +5.278146E-03 +1.330450E-04 -4.472352E-05 +1.330450E-04 -1.662231E-04 
 -6.045818E-05 -2.192204E-05 -1.092188E-04 -2.192204E-05 +5.212014E-03 +1.204710E-04 -1.092188E-04 +1.204710E-04 -1.195389E-04 
 +1.864669E-07 -6.199048E-05 -1.043629E-04 -6.199048E-05 +5.124664E-03 +8.096977E-05 -1.043629E-04 +8.096977E-05 -1.919809E-04 
 +1.052479E-04 +2.455500E-05 -2.134354E-05 +2.455500E-05 +5.089841E-03 +6.892984E-05 -2.134354E-05 +6.892984E-05 -3.287430E-04 
 +1.166004E-04 +1.415897E-05 +2.247517E-05 +1.415897E-05 +5.077731E-03 +2.184783E-05 +2.247517E-05 +2.184783E-05 -3.504766E-04 
 +1.218162E-04 +4.229839E-05 -1.096739E-05 +4.229839E-05 +5.034183E-03 -5.231478E-05 -1.096739E-05 -5.231478E-05 -3.274673E-04 
 +1.494522E-04 +6.046743E-05 -2.854379E-05 +6.046743E-05 +4.977947E-03 -4.307777E-05 -2.854379E-05 -4.307777E-05 -2.311808E-04 
 -3.719842E-05 -9.747171E-05 -3.801713E-05 -9.747171E-05 +4.899932E-03 -9.923426E-06 -3.801713E-05 -9.923426E-06 +1.964498E-05 
 -3.663790E-04 -1.889690E-04 -1.790678E-04 -1.889690E-04 +4.897306E-03 -1.809625E-05 -1.790678E-04 -1.809625E-05 +1.708832E-04 
 -2.609139E-04 -7.432182E-05 -1.755709E-04 -7.432182E-05 +4.879019E-03 -3.048760E-05 -1.755709E-04 -3.048760E-05 +1.348364E-04 
 +3.573985E-04 +1.730613E-04 +4.714417E-05 +1.730613E-04 +4.712588E-03 +3.404693E-05 +4.714417E-05 +3.404693E-05 +2.754473E-05 
 +3.369860E-04 +1.436556E-04 +4.145481E-05 +1.436556E-04 +4.639310E-03 +8.416411E-05 +4.145481E-05 +8.416411E-05 -1.079377E-05 
 +2.399416E-04 +1.269739E-04 +4.200401E-05 +1.269739E-04 +4.692231E-03 +8.883892E-05 +4.200401E-05 +8.883892E-05 +3.002154E-05 
 +2.107468E-04 +1.118063E-04 +4.664205E-05 +1.118063E-04 +4.721398E-03 +8.092217E-05 +4.664205E-05 +8.092217E-05 +4.412771E-05 
 +1.924072E-04 +9.345329E-05 +2.610119E-05 +9.345329E-05 +4.750732E-03 +5.737500E-05 +2.610119E-05 +5.737500E-05 +5.968253E-05 
 +1.864140E-04 -1.956229E-05 +3.924411E-05 -1.956229E-05 +4.712820E-03 +5.723479E-05 +3.924411E-05 +5.723479E-05 +1.039824E-04 
 +1.287821E-04 +4.199448E-05 +1.797486E-05 +4.199448E-05 +4.651139E-03 +5.753275E-05 +1.797486E-05 +5.753275E-05 +1.457039E-04 
 -3.092239E-04 +5.011467E-06 +7.635675E-05 +5.011467E-06 +4.797771E-03 -2.569449E-05 +7.635675E-05 -2.569449E-05 +1.577143E-04 
 -3.275527E-04 -8.090389E-06 +4.711846E-05 -8.090389E-06 +4.980696E-03 -6.857229E-05 +4.711846E-05 -6.857229E-05 +1.506947E-04 
 -3.741900E-04 -1.870750E-06 +1.526544E-05 -1.870750E-06 +5.068337E-03 -1.629119E-05 +1.526544E-05 -1.629119E-05 +1.707628E-04 
 -4.246854E-04 +2.523245E-05 +4.876168E-05 +2.523245E-05 +5.169300E-03 +4.820048E-05 +4.876168E-05 +4.820048E-05 +5.736676E-05 
 -2.205115E-04 +2.208403E-05 -1.056053E-05 +2.208403E-05 +5.203514E-03 +1.186023E-04 -1.056053E-05 +1.186023E-04 -1.520498E-04 
 -8.093691E-05 -2.082615E-05 -1.130718E-04 -2.082615E-05 +5.185635E-03 +1.450442E-04 -1.130718E-04 +1.450442E-04 -1.695039E-04 
 -4.841720E-05 -6.294685E-05 -5.377506E-05 -6.294685E-05 +5.139356E-03 +1.331836E-04 -5.377506E-05 +1.331836E-04 -1.983499E-04 
 +1.051601E-04 +2.462141E-05 +2.479035E-06 +2.462141E-05 +5.084056E-03 +1.210981E-04 +2.479035E-06 +1.210981E-04 -3.200681E-04 
 +1.896264E-04 -6.637303E-06 +3.045313E-06 -6.637303E-06 +5.042290E-03 +3.352245E-05 +3.045313E-06 +3.352245E-05 -3.498095E-04 
 +2.373302E-04 -4.005570E-05 +1.604643E-05 -4.005570E-05 +4.979226E-03 -5.239965E-05 +1.604643E-05 -5.239965E-05 -3.420834E-04 
 +2.651215E-04 -4.796330E-05 +2.605160E-05 -4.796330E-05 +4.933914E-03 -4.730828E-05 +2.605160E-05 -4.730828E-05 -2.304234E-04 
 +5.413798E-05 -6.498891E-05 -3.162206E-05 -6.498891E-05 +4.906594E-03 -1.151714E-05 -3.162206E-05 -1.151714E-05 -6.116104E-05 
 -3.313930E-04 -1.235259E-04 -1.888041E-04 -1.235259E-04 +4.892031E-03 -5.694560E-06 -1.888041E-04 -5.694560E-06 +6.749370E-05 
 -1.229994E-04 -3.307329E-05 -1.697742E-04 -3.307329E-05 +4.769830E-03 +7.777681E-07 -1.697742E-04 +7.777681E-07 +2.889210E-05 
 +3.425955E-04 +2.008439E-04 +1.146201E-04 +2.008439E-04 +4.705858E-03 +6.267838E-05 +1.146201E-04 +6.267838E-05 -2.995373E-05 
 +3.052684E-04 +2.111271E-04 +8.708652E-05 +2.111271E-04 +4.684561E-03 +1.408780E-04 +8.708652E-05 +1.408780E-04 +2.333014E-06 
 +2.107320E-04 +1.835325E-04 +4.805285E-05 +1.835325E-04 +4.691666E-03 +1.383417E-04 +4.805285E-05 +1.383417E-04 +7.670511E-05 
 +1.778175E-04 +1.422197E-04 +5.299573E-05 +1.422197E-04 +4.743941E-03 +9.258132E-05 +5.299573E-05 +9.258132E-05 +8.401860E-05 
 +2.104645E-04 +8.668001E-05 +5.205464E-05 +8.668001E-05 +4.740960E-03 +4.122307E-05 +5.205464E-05 +4.122307E-05 +9.343752E-05 
 +1.858271E-04 -3.855862E-05 +4.862105E-05 -3.855862E-05 +4.823409E-03 +1.946302E-05 +4.862105E-05 +1.946302E-05 +1.067745E-04 
 -1.379900E-04 -4.952781E-05 +7.098331E-05 -4.952781E-05 +4.911224E-03 -1.214401E-05 +7.098331E-05 -1.214401E-05 +1.376083E-04 
 -2.614235E-04 +1.565842E-05 +6.025746E-05 +1.565842E-05 +4.901425E-03 -7.287244E-05 +6.025746E-05 -7.287244E-05 +1.719325E-04 
 -3.232415E-04 -2.202529E-05 +5.860871E-05 -2.202529E-05 +4.972259E-03 -9.372156E-05 +5.860871E-05 -9.372156E-05 +1.921972E-04 
 -3.656776E-04 -1.516955E-07 +2.009137E-05 -1.516955E-07 +5.057711E-03 -3.972453E-05 +2.009137E-05 -3.972453E-05 +2.028168E-04 
 -3.430751E-04 +3.905830E-05 -3.163415E-05 +3.905830E-05 +5.089198E-03 -3.000110E-05 -3.163415E-05 -3.000110E-05 +1.614289E-04 
 -2.934111E-04 +5.032644E-05 +9.142545E-05 +5.032644E-05 +5.106340E-03 -3.531789E-05 +9.142545E-05 -3.531789E-05 +5.514704E-05 
 -1.353118E-04 +1.747177E-05 -6.010770E-05 +1.747177E-05 +5.130876E-03 +2.197809E-05 -6.010770E-05 +2.197809E-05 -7.482314E-05 
 -1.280199E-04 -4.975796E-05 -1.388184E-05 -4.975796E-05 +5.179439E-03 +6.330748E-05 -1.388184E-05 +6.330748E-05 -1.780710E-04 
 +9.730287E-05 +1.557422E-06 -5.326797E-05 +1.557422E-06 +5.172479E-03 +6.602771E-05 -5.326797E-05 +6.602771E-05 -3.249575E-04 
 +2.623725E-04 -2.613139E-05 -2.658885E-05 -2.613139E-05 +5.057541E-03 +6.886770E-06 -2.658885E-05 +6.886770E-06 -3.717236E-04 
 +3.068396E-04 -3.868075E-05 +3.921095E-05 -3.868075E-05 +4.954999E-03 -3.463153E-05 +3.921095E-05 -3.463153E-05 -3.249590E-04 
 +2.890077E-04 -3.627688E-05 +7.425137E-05 -3.627688E-05 +4.900772E-03 -2.262043E-05 +7.425137E-05 -2.262043E-05 -2.646568E-04 
 +1.054511E-04 -1.221946E-04 -3.827318E-05 -1.221946E-04 +4.905041E-03 -5.294226E-05 -3.827318E-05 -5.294226E-05 -1.543332E-04 
 -8.210872E-05 -1.223830E-04 -1.049296E-04 -1.223830E-04 +4.910125E-03 -2.771400E-05 -1.049296E-04 -2.771400E-05 -3.438369E-05 
 -6.400528E-05 -7.596550E-05 -1.133552E-04 -7.596550E-05 +4.882614E-03 +4.065883E-05 -1.133552E-04 +4.065883E-05 -3.155070E-05 
 +2.960794E-04 +1.680806E-04 +1.381545E-04 +1.680806E-04 +4.718871E-03 +9.163326E-05 +1.381545E-04 +9.163326E-05 -1.196132E-05 
 +2.649578E-04 +2.265494E-04 +1.602682E-04 +2.265494E-04 +4.696770E-03 +1.241448E-04 +1.602682E-04 +1.241448E-04 +3.150414E-05 
 +1.534656E-04 +2.315276E-04 +1.037701E-04 +2.315276E-04 +4.787779E-03 +1.414813E-04 +1.037701E-04 +1.414813E-04 +1.017551E-04 
 +1.259505E-04 +1.469035E-04 +6.978737E-05 +1.469035E-04 +4.800301E-03 +1.045839E-04 +6.978737E-05 +1.045839E-04 +1.212060E-04 
 +1.591740E-04 +5.429864E-05 +3.643287E-05 +5.429864E-05 +4.771032E-03 +2.606718E-05 +3.643287E-05 +2.606718E-05 +1.438760E-04 
 +1.559028E-04 +1.077849E-05 +1.303209E-05 +1.077849E-05 +4.815692E-03 +3.477118E-05 +1.303209E-05 +3.477118E-05 +1.511068E-04 
 -2.914917E-04 +1.639934E-05 +1.000495E-04 +1.639934E-05 +4.915315E-03 +3.298220E-05 +1.000495E-04 +3.298220E-05 +1.602055E-04 
 -2.972663E-04 +7.476290E-05 +7.867838E-05 +7.476290E-05 +4.967136E-03 -5.599002E-05 +7.867838E-05 -5.599002E-05 +1.883376E-04 
 -3.264361E-04 +1.987035E-05 +7.433058E-05 +1.987035E-05 +4.990097E-03 -9.089528E-05 +7.433058E-05 -9.089528E-05 +2.223320E-04 
 -3.551728E-04 -2.936082E-06 +6.327334E-05 -2.936082E-06 +5.034210E-03 -4.628168E-05 +6.327334E-05 -4.628168E-05 +2.239666E-04 
 -2.888463E-04 -1.877741E-05 -1.028934E-04 -1.877741E-05 +5.060017E-03 +2.048689E-05 -1.028934E-04 +2.048689E-05 +1.839691E-04 
 -2.719544E-04 -9.728516E-06 +1.281024E-04 -9.728516E-06 +5.078267E-03 -2.953477E-05 +1.281024E-04 -2.953477E-05 +1.383870E-04 
 -2.007052E-04 -4.993729E-06 +1.036633E-04 -4.993729E-06 +5.103159E-03 -7.362296E-05 +1.036633E-04 -7.362296E-05 +7.077091E-05 
 -2.263337E-04 -2.451286E-05 +1.501423E-04 -2.451286E-05 +5.195258E-03 -7.473640E-05 +1.501423E-04 -7.473640E-05 -1.266078E-05 
 +1.729123E-04 -5.026905E-05 -4.231108E-05 -5.026905E-05 +5.190972E-03 -1.123130E-04 -4.231108E-05 -1.123130E-04 -1.911745E-04 
 +3.105467E-04 -9.492360E-05 +5.299236E-05 -9.492360E-05 +5.011992E-03 -7.374327E-05 +5.299236E-05 -7.374327E-05 -3.156921E-04 
 +3.404359E-04 -7.773401E-05 +5.362599E-05 -7.773401E-05 +4.905504E-03 -2.157267E-05 +5.362599E-05 -2.157267E-05 -3.226087E-04 
 +3.193656E-04 -6.027950E-05 +9.533711E-05 -6.027950E-05 +4.926507E-03 -3.831772E-05 +9.533711E-05 -3.831772E-05 -3.207024E-04 
 +1.973234E-04 -1.997822E-04 +3.189185E-05 -1.997822E-04 +4.890444E-03 -1.131359E-04 +3.189185E-05 -1.131359E-04 -2.330496E-04 
 +1.697388E-04 -1.387355E-04 +2.659618E-05 -1.387355E-04 +4.852079E-03 -6.513092E-05 +2.659618E-05 -6.513092E-05 -1.489016E-04 
 +8.727604E-05 -1.662059E-04 +5.915916E-05 -1.662059E-04 +4.851818E-03 +5.376939E-05 +5.915916E-05 +5.376939E-05 -6.298194E-05 
 +1.764480E-04 +1.094923E-04 +1.374514E-04 +1.094923E-04 +4.799440E-03 +1.254410E-04 +1.374514E-04 +1.254410E-04 +3.659430E-05 
 +1.680066E-04 +2.053976E-04 +2.426906E-04 +2.053976E-04 +4.786610E-03 +1.344865E-04 +2.426906E-04 +1.344865E-04 +1.908946E-05 
 +1.614473E-04 +2.027562E-04 +1.899503E-04 +2.027562E-04 +4.861551E-03 +1.480042E-04 +1.899503E-04 +1.480042E-04 +2.961950E-05 
 +1.185404E-04 +1.093639E-04 +1.458756E-04 +1.093639E-04 +4.875757E-03 +1.046037E-04 +1.458756E-04 +1.046037E-04 +1.084336E-04 
 +1.559408E-04 +9.470850E-05 +7.282107E-05 +9.470850E-05 +4.804162E-03 +5.462839E-05 +7.282107E-05 +5.462839E-05 +1.547575E-04 
 +7.484915E-05 +1.118595E-04 -2.437866E-05 +1.118595E-04 +4.776414E-03 +6.830099E-05 -2.437866E-05 +6.830099E-05 +1.365962E-04 
 -3.894328E-04 +1.018507E-04 +1.118324E-04 +1.018507E-04 +4.918712E-03 +4.026502E-05 +1.118324E-04 +4.026502E-05 +1.415850E-04 
 -4.063823E-04 +4.754672E-05 +8.978386E-05 +4.754672E-05 +5.030344E-03 -4.511223E-05 +8.978386E-05 -4.511223E-05 +2.053127E-04 
 -3.598369E-04 +2.504664E-05 +1.087051E-04 +2.504664E-05 +5.031656E-03 -7.510090E-05 +1.087051E-04 -7.510090E-05 +2.551320E-04 
 -3.581408E-04 -5.591604E-09 +1.162213E-04 -5.591604E-09 +5.059618E-03 -1.061157E-04 +1.162213E-04 -1.061157E-04 +2.674575E-04 
 -3.409949E-04 -4.081902E-05 +3.165036E-05 -4.081902E-05 +5.087767E-03 -7.411402E-05 +3.165036E-05 -7.411402E-05 +2.377659E-04 
 -3.031315E-04 -1.164626E-04 +1.085994E-04 -1.164626E-04 +5.090409E-03 -5.631105E-05 +1.085994E-04 -5.631105E-05 +1.809701E-04 
 -1.943409E-04 -1.039700E-04 +1.993699E-04 -1.039700E-04 +5.129076E-03 -9.733030E-05 +1.993699E-04 -9.733030E-05 +1.207117E-04 
 -1.666280E-04 -4.789222E-05 +3.067784E-04 -4.789222E-05 +5.097657E-03 -6.308132E-05 +3.067784E-04 -6.308132E-05 +8.499637E-05 
 +2.840965E-04 -1.235397E-04 +2.920433E-05 -1.235397E-04 +4.883831E-03 -1.048031E-05 +2.920433E-05 -1.048031E-05 -1.282858E-05 
 +2.982178E-04 -8.976786E-05 +1.874870E-04 -8.976786E-05 +4.827725E-03 +1.338656E-05 +1.874870E-04 +1.338656E-05 -1.589470E-04 
 +3.191042E-04 -9.600481E-05 +1.152516E-04 -9.600481E-05 +4.890181E-03 +2.267750E-05 +1.152516E-04 +2.267750E-05 -2.642338E-04 
 +3.079101E-04 -7.752336E-05 +9.373746E-05 -7.752336E-05 +4.906330E-03 -5.368270E-05 +9.373746E-05 -5.368270E-05 -3.083078E-04 
 +2.865052E-04 -1.640192E-04 +9.443247E-05 -1.640192E-04 +4.879782E-03 -1.424467E-05 +9.443247E-05 -1.424467E-05 -2.630398E-04 
 +2.526329E-04 -1.484800E-04 +1.198639E-04 -1.484800E-04 +4.859025E-03 -1.995178E-05 +1.198639E-04 -1.995178E-05 -2.343091E-04 
 +2.322454E-04 -2.176335E-04 +2.101287E-04 -2.176335E-04 +4.941901E-03 -2.919649E-06 +2.101287E-04 -2.919649E-06 -1.609102E-04 
 +6.345005E-05 -2.332400E-05 +2.347172E-04 -2.332400E-05 +5.109577E-03 +2.516342E-05 +2.347172E-04 +2.516342E-05 -6.474270E-05 
 +6.370743E-05 +1.002638E-04 +3.167629E-04 +1.002638E-04 +5.087727E-03 +8.627408E-05 +3.167629E-04 +8.627408E-05 -9.065304E-05 
 +2.275779E-04 +1.500796E-04 +2.131622E-04 +1.500796E-04 +4.947053E-03 +1.158242E-04 +2.131622E-04 +1.158242E-04 -7.293578E-05 
 +1.957260E-04 +4.782045E-05 +2.433557E-04 +4.782045E-05 +4.867172E-03 +9.460898E-05 +2.433557E-04 +9.460898E-05 +5.202239E-05 
 +1.250669E-04 +3.939321E-05 +1.148450E-04 +3.939321E-05 +4.934089E-03 +4.783547E-05 +1.148450E-04 +4.783547E-05 +6.006558E-05 
 -9.023524E-05 +7.886836E-06 -1.165765E-04 +7.886836E-06 +5.086532E-03 +5.707283E-05 -1.165765E-04 +5.707283E-05 +2.516760E-05 
 -4.466004E-04 +5.991976E-05 +1.372085E-04 +5.991976E-05 +5.115763E-03 +1.107981E-04 +1.372085E-04 +1.107981E-04 +1.232753E-04 
 -4.774828E-04 -3.027428E-06 +5.316404E-05 -3.027428E-06 +5.068655E-03 +3.873517E-05 +5.316404E-05 +3.873517E-05 +2.275227E-04 
 -3.660623E-04 +1.962016E-05 +1.421191E-04 +1.962016E-05 +5.039489E-03 -5.459297E-05 +1.421191E-04 -5.459297E-05 +2.616505E-04 
 -3.617749E-04 +3.203632E-05 +1.426053E-04 +3.203632E-05 +5.069650E-03 -7.958668E-05 +1.426053E-04 -7.958668E-05 +3.084097E-04 
 -4.058621E-04 -8.550142E-06 +1.464766E-04 -8.550142E-06 +5.125581E-03 -9.091830E-05 +1.464766E-04 -9.091830E-05 +3.297945E-04 
 -3.763201E-04 -7.864279E-05 +1.377641E-04 -7.864279E-05 +5.100441E-03 -5.397432E-05 +1.377641E-04 -5.397432E-05 +2.628336E-04 
 -6.770038E-05 +4.027561E-05 +2.608318E-04 +4.027561E-05 +5.043136E-03 +5.049813E-05 +2.608318E-04 +5.049813E-05 +1.326541E-04 
 +2.239449E-05 +3.912380E-05 +3.451800E-04 +3.912380E-05 +4.996032E-03 +9.881847E-05 +3.451800E-04 +9.881847E-05 +6.711811E-05 
 +2.936105E-04 -1.214105E-04 +4.840261E-05 -1.214105E-04 +4.900107E-03 +7.367195E-05 +4.840261E-05 +7.367195E-05 +4.273901E-05 
 +2.741670E-04 +1.534769E-05 +2.230272E-04 +1.534769E-05 +4.842531E-03 +5.195654E-05 +2.230272E-04 +5.195654E-05 -5.377635E-05 
 +2.781582E-04 -2.429054E-05 +1.396631E-04 -2.429054E-05 +4.869183E-03 +2.940805E-05 +1.396631E-04 +2.940805E-05 -1.830206E-04 
 +2.769182E-04 +2.715901E-05 +6.353229E-05 +2.715901E-05 +4.885794E-03 +7.172177E-06 +6.353229E-05 +7.172177E-06 -2.503318E-04 
 +2.786316E-04 -1.407273E-04 +9.969774E-05 -1.407273E-04 +4.877154E-03 +1.777811E-05 +9.969774E-05 +1.777811E-05 -2.664737E-04 
 +2.605122E-04 -1.290996E-04 +1.739764E-04 -1.290996E-04 +4.921804E-03 +7.808949E-06 +1.739764E-04 +7.808949E-06 -2.854814E-04 
 +1.968200E-04 -1.671560E-04 +2.581930E-04 -1.671560E-04 +5.028575E-03 +2.195901E-05 +2.581930E-04 +2.195901E-05 -2.613812E-04 
 +4.766856E-05 -1.421342E-06 +2.897572E-04 -1.421342E-06 +5.115397E-03 +2.009085E-05 +2.897572E-04 +2.009085E-05 -1.896457E-04 
 +5.512728E-05 +3.507827E-05 +3.377064E-04 +3.507827E-05 +5.093268E-03 +2.791009E-05 +3.377064E-04 +2.791009E-05 -1.415490E-04 
 +2.607731E-04 +1.015289E-04 +1.746552E-04 +1.015289E-04 +4.984647E-03 +6.945471E-05 +1.746552E-04 +6.945471E-05 -8.981917E-05 
 +1.291431E-04 -4.136897E-05 +2.013384E-04 -4.136897E-05 +4.968356E-03 +4.821467E-05 +2.013384E-04 +4.821467E-05 -3.111080E-05 
 -7.259775E-05 -8.149661E-05 -1.147112E-05 -8.149661E-05 +5.081677E-03 -3.658270E-05 -1.147112E-05 -3.658270E-05 -8.133583E-05 
 -9.510863E-05 -9.565044E-05 -1.248112E-04 -9.565044E-05 +5.183719E-03 +5.132096E-05 -1.248112E-04 +5.132096E-05 -3.564010E-05 
 -3.338084E-04 +5.258646E-06 +9.448523E-05 +5.258646E-06 +5.197803E-03 +2.002316E-04 +9.448523E-05 +2.002316E-04 +1.747108E-04 
 -4.282208E-04 +2.071397E-05 -1.078649E-05 +2.071397E-05 +5.135977E-03 +1.592377E-04 -1.078649E-05 +1.592377E-04 +2.454126E-04 
 -3.922895E-04 +8.601823E-05 +1.111887E-04 +8.601823E-05 +5.073002E-03 +1.093211E-05 +1.111887E-04 +1.093211E-05 +2.485214E-04 
 -3.833111E-04 +1.084228E-04 +1.561109E-04 +1.084228E-04 +5.072802E-03 -8.966091E-05 +1.561109E-04 -8.966091E-05 +3.381809E-04 
 -4.052174E-04 +6.483630E-05 +1.729967E-04 +6.483630E-05 +5.100511E-03 -8.097417E-05 +1.729967E-04 -8.097417E-05 +4.037459E-04 
 -3.747013E-04 -2.878008E-05 +1.976320E-04 -2.878008E-05 +5.086408E-03 -3.315487E-05 +1.976320E-04 -3.315487E-05 +3.415844E-04 
 +2.038235E-05 +3.819003E-05 +3.579296E-04 +3.819003E-05 +4.997015E-03 +4.772991E-05 +3.579296E-04 +4.772991E-05 +2.008027E-04 
 +1.381174E-04 -2.544407E-05 +3.309641E-04 -2.544407E-05 +4.902423E-03 +1.002525E-04 +3.309641E-04 +1.002525E-04 +1.025654E-04 
 +3.124477E-04 -1.788737E-04 +5.401766E-06 -1.788737E-04 +4.868749E-03 +1.198450E-04 +5.401766E-06 +1.198450E-04 +8.077329E-05 
 +2.884798E-04 +5.376346E-05 +1.730119E-04 +5.376346E-05 +4.859203E-03 +1.095721E-04 +1.730119E-04 +1.095721E-04 -9.570681E-06 
 +2.534517E-04 +5.369948E-05 +9.367465E-05 +5.369948E-05 +4.870276E-03 +6.446710E-05 +9.367465E-05 +6.446710E-05 -1.379727E-04 
 +2.439041E-04 +6.825142E-05 +3.210170E-05 +6.825142E-05 +4.883323E-03 +3.251026E-05 +3.210170E-05 +3.251026E-05 -2.085167E-04 
 +2.480200E-04 -1.342279E-04 +1.115301E-04 -1.342279E-04 +4.953009E-03 +1.441212E-05 +1.115301E-04 +1.441212E-05 -2.939690E-04 
 +2.288688E-04 -9.475314E-05 +2.063681E-04 -9.475314E-05 +4.996858E-03 +2.584456E-05 +2.063681E-04 +2.584456E-05 -3.478668E-04 
 +1.772552E-04 -9.391958E-05 +2.623793E-04 -9.391958E-05 +5.086576E-03 +5.120663E-05 +2.623793E-04 +5.120663E-05 -3.224062E-04 
 +1.961359E-05 +2.827215E-05 +2.384745E-04 +2.827215E-05 +5.147151E-03 +4.504858E-05 +2.384745E-04 +4.504858E-05 -2.298967E-04 
 +3.377897E-05 -5.421467E-05 +3.195080E-04 -5.421467E-05 +5.080134E-03 +1.556564E-05 +3.195080E-04 +1.556564E-05 -8.166567E-05 
 +2.007501E-04 +1.564014E-05 +1.091864E-04 +1.564014E-05 +5.063829E-03 +7.229697E-06 +1.091864E-04 +7.229697E-06 -2.213830E-05 
 -5.878935E-05 -9.389490E-05 +8.541578E-05 -9.389490E-05 +5.148273E-03 -1.482786E-05 +8.541578E-05 -1.482786E-05 -6.373167E-05 
 -2.336823E-04 -7.836424E-05 -6.557838E-05 -7.836424E-05 +5.159413E-03 -3.992132E-05 -6.557838E-05 -3.992132E-05 -8.872454E-05 
 -7.723437E-05 -1.555953E-04 +2.329014E-05 -1.555953E-04 +5.089385E-03 -2.676304E-05 +2.329014E-05 -2.676304E-05 -4.872919E-05 
 -1.437010E-04 -1.245629E-04 +4.545742E-05 -1.245629E-04 +5.025596E-03 +8.119122E-06 +4.545742E-05 +8.119122E-06 +1.061496E-04 
 -1.909467E-04 -6.944923E-05 -4.310838E-05 -6.944923E-05 +5.018692E-03 -2.348044E-06 -4.310838E-05 -2.348044E-06 +1.917050E-04 
 -4.529584E-04 +8.633115E-05 +5.859984E-05 +8.633115E-05 +5.079720E-03 -5.423557E-05 +5.859984E-05 -5.423557E-05 +2.466495E-04 
 -3.966744E-04 +1.058075E-04 +1.664380E-04 +1.058075E-04 +5.109069E-03 -7.432643E-05 +1.664380E-04 -7.432643E-05 +3.666398E-04 
 -3.609842E-04 +8.979367E-05 +2.242856E-04 +8.979367E-05 +5.094631E-03 -4.457419E-05 +2.242856E-04 -4.457419E-05 +4.250904E-04 
 -2.981695E-04 +1.661013E-05 +2.735911E-04 +1.661013E-05 +5.117576E-03 +4.484660E-05 +2.735911E-04 +4.484660E-05 +3.672164E-04 
 +3.773774E-06 +5.361066E-05 +3.795076E-04 +5.361066E-05 +5.064534E-03 +1.351843E-04 +3.795076E-04 +1.351843E-04 +1.968465E-04 
 +1.388530E-04 -1.962280E-05 +3.154208E-04 -1.962280E-05 +4.953117E-03 +1.437272E-04 +3.154208E-04 +1.437272E-04 +8.020195E-05 
 +4.168243E-04 -1.872210E-04 -5.986286E-05 -1.872210E-04 +4.859480E-03 +1.354224E-04 -5.986286E-05 +1.354224E-04 +1.000623E-04 
 +3.484497E-04 +7.545871E-05 +6.617834E-05 +7.545871E-05 +4.815264E-03 +1.231919E-04 +6.617834E-05 +1.231919E-04 +1.305962E-05 
 +2.405824E-04 +1.200900E-04 +2.003158E-05 +1.200900E-04 +4.877125E-03 +7.958490E-05 +2.003158E-05 +7.958490E-05 -1.226013E-04 
 +1.565823E-04 +9.200658E-05 +3.721143E-06 +9.200658E-05 +4.939380E-03 +3.126296E-05 +3.721143E-06 +3.126296E-05 -1.972560E-04 
 +2.051228E-04 -1.029590E-04 +1.502402E-04 -1.029590E-04 +4.946642E-03 +3.066031E-05 +1.502402E-04 +3.066031E-05 -3.210055E-04 
 +2.053333E-04 -5.195410E-05 +2.755650E-04 -5.195410E-05 +5.037690E-03 +3.571229E-05 +2.755650E-04 +3.571229E-05 -3.707484E-04 
 +1.333811E-04 -7.368153E-05 +3.195207E-04 -7.368153E-05 +5.106632E-03 +9.478360E-05 +3.195207E-04 +9.478360E-05 -3.424945E-04 
 +9.630407E-05 +6.014133E-05 +1.961716E-04 +6.014133E-05 +5.158350E-03 +1.136868E-04 +1.961716E-04 +1.136868E-04 -2.409951E-04 
 -8.736075E-05 -5.876401E-05 +1.585254E-04 -5.876401E-05 +5.114087E-03 -1.444023E-05 +1.585254E-04 -1.444023E-05 -1.892733E-05 
 -7.089614E-05 +1.424878E-05 +2.205241E-05 +1.424878E-05 +5.063572E-03 -1.441769E-04 +2.205241E-05 -1.441769E-04 +8.650542E-05 
 -1.737992E-04 -1.697412E-04 +1.039700E-04 -1.697412E-04 +5.100372E-03 -1.406754E-04 +1.039700E-04 -1.406754E-04 -3.003659E-06 
 -1.814326E-04 -1.281987E-04 +9.826892E-05 -1.281987E-04 +5.087754E-03 -4.245548E-05 +9.826892E-05 -4.245548E-05 -2.692485E-05 
 -1.357028E-04 -1.044036E-04 +8.963746E-05 -1.044036E-04 +5.064640E-03 -3.453445E-05 +8.963746E-05 -3.453445E-05 -4.406489E-05 
 -7.247089E-05 -1.220196E-04 +9.698274E-05 -1.220196E-04 +5.014069E-03 -1.165671E-04 +9.698274E-05 -1.165671E-04 +4.528231E-05 
 -4.123497E-05 -1.557682E-04 -2.901127E-05 -1.557682E-04 +4.991827E-03 -1.722022E-04 -2.901127E-05 -1.722022E-04 +1.482415E-04 
 -3.828583E-04 -2.028204E-05 +7.580249E-05 -2.028204E-05 +5.040022E-03 -1.506683E-04 +7.580249E-05 -1.506683E-04 +2.508550E-04 
 -4.221127E-04 +8.515399E-06 +1.705001E-04 +8.515399E-06 +5.080047E-03 -9.071721E-05 +1.705001E-04 -9.071721E-05 +4.419191E-04 
 -3.297892E-04 -4.627245E-05 +2.179945E-04 -4.627245E-05 +5.076571E-03 -5.932717E-05 +2.179945E-04 -5.932717E-05 +4.611831E-04 
 -1.062888E-04 -7.111918E-05 +2.800001E-04 -7.111918E-05 +5.078065E-03 -3.959314E-05 +2.800001E-04 -3.959314E-05 +3.499370E-04 
 +8.135894E-05 -1.433823E-05 +3.187991E-04 -1.433823E-05 +5.112172E-03 -2.369994E-05 +3.187991E-04 -2.369994E-05 +1.428755E-04 
 +2.435153E-04 +2.406337E-06 +2.939100E-04 +2.406337E-06 +5.000985E-03 +6.318809E-05 +2.939100E-04 +6.318809E-05 -1.325533E-05 
 +3.829342E-04 -1.239842E-04 -1.446086E-04 -1.239842E-04 +4.844390E-03 +1.263166E-04 -1.446086E-04 +1.263166E-04 +2.392933E-06 
 +2.799077E-04 +6.720098E-05 -1.250897E-04 +6.720098E-05 +4.837189E-03 +7.587090E-05 -1.250897E-04 +7.587090E-05 -9.070749E-05 
 +1.980329E-04 +3.439352E-05 -1.248397E-04 +3.439352E-05 +4.873760E-03 +4.653103E-05 -1.248397E-04 +4.653103E-05 -1.941564E-04 
 +1.782359E-04 +2.989934E-05 -3.739459E-05 +2.989934E-05 +4.882861E-03 +4.877877E-05 -3.739459E-05 +4.877877E-05 -2.194984E-04 
 +2.812800E-04 -4.133704E-05 +3.422261E-05 -4.133704E-05 +4.663025E-03 -8.843526E-05 +3.422261E-05 -8.843526E-05 -7.949264E-05 
 +2.098129E-04 +4.557835E-05 +2.450768E-04 +4.557835E-05 +4.811528E-03 +1.128603E-04 +2.450768E-04 +1.128603E-04 -1.958756E-04 
 +1.616938E-04 +1.043007E-04 +1.769484E-04 +1.043007E-04 +4.908409E-03 +2.189492E-04 +1.769484E-04 +2.189492E-04 -2.373150E-04 
 +1.423674E-05 +1.149862E-04 +5.116215E-05 +1.149862E-04 +4.997543E-03 +1.243210E-04 +5.116215E-05 +1.243210E-04 -1.549627E-04 
 -3.320818E-04 -1.005041E-05 -1.002609E-04 -1.005041E-05 +5.129222E-03 -7.239045E-05 -1.002609E-04 -7.239045E-05 +2.002427E-05 
 -3.611238E-04 -3.400756E-05 -1.007008E-04 -3.400756E-05 +5.190990E-03 -1.913751E-04 -1.007008E-04 -1.913751E-04 +1.549189E-04 
 -2.589298E-04 -1.340040E-04 -3.897777E-05 -1.340040E-04 +5.110983E-03 -1.759175E-04 -3.897777E-05 -1.759175E-04 +1.448884E-04 
 -1.276858E-04 -1.962842E-04 +1.192385E-05 -1.962842E-04 +5.042672E-03 -1.607106E-04 +1.192385E-05 -1.607106E-04 +3.115383E-05 
 -3.957509E-05 -2.429821E-04 -7.969915E-06 -2.429821E-04 +5.007866E-03 -9.311002E-05 -7.969915E-06 -9.311002E-05 +1.291685E-05 
 -5.476022E-05 -2.629568E-04 +1.567009E-05 -2.629568E-04 +4.967924E-03 -1.119312E-04 +1.567009E-05 -1.119312E-04 +6.150469E-06 
 -1.146392E-04 -2.922442E-04 -2.637161E-05 -2.922442E-04 +4.946598E-03 -1.216546E-04 -2.637161E-05 -1.216546E-04 +1.073480E-04 
 -1.637172E-04 -1.635990E-04 +2.264217E-04 -1.635990E-04 +4.998543E-03 -2.576705E-05 +2.264217E-04 -2.576705E-05 +1.775293E-04 
 -2.575336E-04 -1.135603E-04 +3.332390E-04 -1.135603E-04 +4.989756E-03 -3.325879E-08 +3.332390E-04 -3.325879E-08 +2.888471E-04 
 -1.298610E-04 +9.143665E-05 +9.574458E-05 +9.143665E-05 +4.855239E-03 -1.497069E-06 +9.574458E-05 -1.497069E-06 +4.450278E-04 
 +4.824802E-05 +1.570867E-04 +1.252137E-04 +1.570867E-04 +4.769164E-03 -1.386619E-05 +1.252137E-04 -1.386619E-05 +3.767362E-04 
 +2.185852E-04 +2.539844E-04 +1.201071E-04 +2.539844E-04 +4.748945E-03 -2.050458E-05 +1.201071E-04 -2.050458E-05 +2.176507E-04 
 +3.590662E-04 +2.544045E-04 +1.714058E-04 +2.544045E-04 +4.874809E-03 -6.549985E-06 +1.714058E-04 -6.549985E-06 +3.736724E-05 
 +3.201580E-05 -1.913913E-05 -2.664663E-04 -1.913913E-05 +5.054881E-03 +4.383069E-05 -2.664663E-04 +4.383069E-05 -1.364435E-04 
 +4.992754E-05 -5.683772E-05 -2.753429E-04 -5.683772E-05 +4.981983E-03 +3.884288E-05 -2.753429E-04 +3.884288E-05 -1.627735E-04 
 +1.811320E-04 -1.195907E-04 -1.480679E-04 -1.195907E-04 +4.780564E-03 -5.422356E-05 -1.480679E-04 -5.422356E-05 -6.346886E-05 
 +2.838569E-04 -7.411112E-05 -1.225783E-04 -7.411112E-05 +4.637262E-03 -1.456151E-04 -1.225783E-04 -1.456151E-04 +1.375923E-05 
 +3.993747E-04 +1.326608E-04 +2.322453E-04 +1.326608E-04 +4.764672E-03 +2.444408E-05 +2.322453E-04 +2.444408E-05 -1.334435E-04 
 +2.709564E-04 +9.004851E-05 +3.425866E-04 +9.004851E-05 +4.892484E-03 +1.201916E-04 +3.425866E-04 +1.201916E-04 -1.902612E-04 
 +1.089275E-04 +8.215003E-05 +7.465838E-05 +8.215003E-05 +4.972059E-03 +1.210369E-04 +7.465838E-05 +1.210369E-04 -1.628251E-04 
 -2.013426E-04 -6.025610E-06 -1.465008E-04 -6.025610E-06 +5.046484E-03 +2.321856E-05 -1.465008E-04 +2.321856E-05 +1.001428E-06 
 -4.447252E-04 -5.459873E-05 -1.655478E-04 -5.459873E-05 +5.115024E-03 -7.479237E-05 -1.655478E-04 -7.479237E-05 +2.026872E-04 
 -4.612081E-04 -3.481900E-05 -3.469452E-05 -3.481900E-05 +5.137767E-03 -9.974222E-05 -3.469452E-05 -9.974222E-05 +2.891501E-04 
 -3.154192E-04 -5.838861E-05 +2.493389E-05 -5.838861E-05 +5.149513E-03 -1.017888E-04 +2.493389E-05 -1.017888E-04 +2.148662E-04 
 -2.640083E-04 -7.373487E-05 -2.956512E-05 -7.373487E-05 +5.160357E-03 -7.952863E-05 -2.956512E-05 -7.952863E-05 -1.018776E-05 
 -9.695162E-06 -1.811412E-04 +5.054503E-05 -1.811412E-04 +5.060466E-03 -9.429815E-05 +5.054503E-05 -9.429815E-05 -2.441094E-05 
 -8.978938E-05 -1.789888E-04 -6.085504E-05 -1.789888E-04 +4.997116E-03 -8.747752E-05 -6.085504E-05 -8.747752E-05 +1.128518E-05 
 -1.214157E-04 -1.550069E-04 +3.941503E-05 -1.550069E-04 +4.975597E-03 -1.752784E-05 +3.941503E-05 -1.752784E-05 +6.219984E-05 
 -1.163854E-04 +5.317567E-05 +2.724240E-04 +5.317567E-05 +4.937896E-03 +9.888619E-06 +2.724240E-04 +9.888619E-06 +1.059909E-04 
 -1.335328E-05 -8.807502E-06 +2.560991E-04 -8.807502E-06 +4.889664E-03 -1.148152E-04 +2.560991E-04 -1.148152E-04 +2.522931E-04 
 +1.607608E-04 +1.065243E-04 +3.419276E-06 +1.065243E-04 +4.749347E-03 -1.750690E-04 +3.419276E-06 -1.750690E-04 +3.971267E-04 
 +2.235242E-04 +1.581357E-04 +7.166600E-05 +1.581357E-04 +4.644141E-03 -1.146110E-04 +7.166600E-05 -1.146110E-04 +3.467185E-04 
 +3.307294E-04 +1.708603E-04 +4.074368E-05 +1.708603E-04 +4.653136E-03 -9.284833E-05 +4.074368E-05 -9.284833E-05 +2.540557E-04 
 +3.546522E-04 +2.050452E-04 +1.111406E-04 +2.050452E-04 +4.794877E-03 -4.088459E-05 +1.111406E-04 -4.088459E-05 +1.266999E-04 
 -1.588341E-04 -1.527740E-05 -2.532921E-04 -1.527740E-05 +5.002855E-03 +9.807108E-05 -2.532921E-04 +9.807108E-05 +7.859018E-05 
 -8.020250E-05 -2.826528E-06 -2.803375E-04 -2.826528E-06 +5.027558E-03 +1.756368E-04 -2.803375E-04 +1.756368E-04 -1.482392E-05 
 +1.241460E-04 +2.905179E-05 -2.384188E-04 +2.905179E-05 +4.895999E-03 +1.108062E-04 -2.384188E-04 +1.108062E-04 -1.406009E-04 
 +3.032281E-04 +2.723431E-05 -1.577736E-04 +2.723431E-05 +4.744000E-03 -1.784473E-06 -1.577736E-04 -1.784473E-06 -9.121932E-05 
 +3.220783E-04 +1.732854E-04 +3.822114E-04 +1.732854E-04 +5.053405E-03 +1.279305E-04 +3.822114E-04 +1.279305E-04 -3.818542E-04 
 +2.340892E-04 +8.983239E-05 +4.245579E-04 +8.983239E-05 +5.050384E-03 +9.060243E-05 +4.245579E-04 +9.060243E-05 -2.883612E-04 
 -3.252766E-05 +4.618149E-05 +1.198192E-04 +4.618149E-05 +5.130057E-03 +6.351233E-05 +1.198192E-04 +6.351233E-05 -1.770536E-04 
 -3.429776E-04 +1.715568E-05 -2.387703E-04 +1.715568E-05 +5.145059E-03 +1.120351E-05 -2.387703E-04 +1.120351E-05 -4.924912E-05 
 -4.572067E-04 +1.157773E-05 -1.346953E-04 +1.157773E-05 +5.129521E-03 -3.940060E-05 -1.346953E-04 -3.940060E-05 +1.990199E-04 
 -4.820422E-04 -3.877467E-05 -3.015290E-05 -3.877467E-05 +5.108125E-03 -7.077823E-05 -3.015290E-05 -7.077823E-05 +3.439726E-04 
 -3.603074E-04 -5.240281E-05 +4.599929E-05 -5.240281E-05 +5.100240E-03 -1.189406E-04 +4.599929E-05 -1.189406E-04 +2.662213E-04 
 -2.290560E-04 -7.712620E-05 +8.669884E-05 -7.712620E-05 +5.056625E-03 -7.805752E-05 +8.669884E-05 -7.805752E-05 -1.591570E-05 
 -6.853369E-05 -1.143725E-04 +4.525400E-05 -1.143725E-04 +5.029600E-03 -1.462371E-05 +4.525400E-05 -1.462371E-05 -8.120643E-05 
 -5.295070E-05 -8.131688E-05 -7.303521E-05 -8.131688E-05 +4.993902E-03 -3.031997E-05 -7.303521E-05 -3.031997E-05 -1.049214E-05 
 -6.756521E-05 -5.841660E-05 -2.532879E-05 -5.841660E-05 +4.950753E-03 +1.050817E-05 -2.532879E-05 +1.050817E-05 +5.024854E-05 
 -1.921436E-05 +1.568804E-04 +1.419745E-04 +1.568804E-04 +4.901493E-03 -1.345889E-05 +1.419745E-04 -1.345889E-05 +1.170170E-04 
 +1.728573E-04 +1.003479E-04 +1.966843E-06 +1.003479E-04 +4.791822E-03 -1.788370E-04 +1.966843E-06 -1.788370E-04 +2.443783E-04 
 +2.572415E-04 +1.519243E-04 -6.822007E-05 +1.519243E-04 +4.732301E-03 -2.284661E-04 -6.822007E-05 -2.284661E-04 +2.893550E-04 
 +2.522273E-04 +1.526962E-04 +9.966144E-06 +1.526962E-04 +4.710403E-03 -1.808328E-04 +9.966144E-06 -1.808328E-04 +2.394081E-04 
 +2.820189E-04 +1.345852E-04 -8.187145E-06 +1.345852E-04 +4.682592E-03 -1.535812E-04 -8.187145E-06 -1.535812E-04 +2.498676E-04 
 +2.944946E-04 +2.064017E-04 +2.372944E-05 +2.064017E-04 +4.679988E-03 -1.587464E-04 +2.372944E-05 -1.587464E-04 +2.123000E-04 
 +1.873570E-05 +5.938998E-05 -1.346876E-04 +5.938998E-05 +4.790540E-03 -8.234535E-05 -1.346876E-04 -8.234535E-05 +2.435078E-04 
 -9.400830E-06 +2.683814E-05 -9.497909E-05 +2.683814E-05 +4.901896E-03 +4.397960E-05 -9.497909E-05 +4.397960E-05 +1.376917E-04 
 +9.187348E-05 +1.227732E-04 -1.261047E-04 +1.227732E-04 +4.986989E-03 +1.687193E-04 -1.261047E-04 +1.687193E-04 -1.851232E-04 
 +1.961771E-04 +9.079133E-05 -2.309104E-04 +9.079133E-05 +5.093371E-03 +2.041508E-04 -2.309104E-04 +2.041508E-04 -3.226782E-04 
 +2.123190E-04 +2.367547E-05 +1.996820E-04 +2.367547E-05 +5.215629E-03 +2.308850E-04 +1.996820E-04 +2.308850E-04 -5.092078E-04 
 +1.447929E-04 +3.826875E-05 +3.290694E-04 +3.826875E-05 +5.196506E-03 +7.318716E-05 +3.290694E-04 +7.318716E-05 -3.456844E-04 
 -2.400075E-05 +5.471532E-05 +2.151572E-04 +5.471532E-05 +5.210688E-03 +3.324491E-05 +2.151572E-04 +3.324491E-05 -3.029242E-04 
 -3.897453E-04 +5.184968E-05 -2.554865E-04 +5.184968E-05 +5.236241E-03 +2.617333E-05 -2.554865E-04 +2.617333E-05 -1.826254E-04 
 -4.890340E-04 +1.132568E-05 -1.298087E-04 +1.132568E-05 +5.195140E-03 -6.534989E-06 -1.298087E-04 -6.534989E-06 +1.612371E-04 
 -5.096177E-04 -2.436737E-06 -5.487618E-05 -2.436737E-06 +5.111012E-03 -5.053015E-05 -5.487618E-05 -5.053015E-05 +3.681568E-04 
 -3.953616E-04 +7.338077E-06 +3.951505E-05 +7.338077E-06 +5.033382E-03 -7.563575E-05 +3.951505E-05 -7.563575E-05 +3.210702E-04 
 -1.087320E-04 -1.848327E-05 +2.254269E-04 -1.848327E-05 +4.975559E-03 -5.339443E-05 +2.254269E-04 -5.339443E-05 +4.414256E-05 
 -7.550996E-05 -1.580120E-05 +1.190860E-04 -1.580120E-05 +4.962145E-03 -5.067056E-05 +1.190860E-04 -5.067056E-05 -7.018098E-05 
 -3.862507E-05 -3.755817E-05 -8.361997E-06 -3.755817E-05 +4.935331E-03 -1.804092E-05 -8.361997E-06 -1.804092E-05 -6.518496E-05 
 +2.303772E-05 +2.647451E-05 -2.651831E-05 +2.647451E-05 +4.870266E-03 +1.412172E-05 -2.651831E-05 +1.412172E-05 -2.884095E-05 
 +1.691346E-04 +2.293124E-04 +9.829441E-06 +2.293124E-04 +4.760799E-03 -6.814018E-05 +9.829441E-06 -6.814018E-05 +5.282833E-05 
 +2.416903E-04 +1.949294E-04 -5.866280E-05 +1.949294E-04 +4.725364E-03 -1.613368E-04 -5.866280E-05 -1.613368E-04 +1.375602E-04 
 +2.119045E-04 +1.869516E-04 -5.493550E-05 +1.869516E-04 +4.775672E-03 -1.713509E-04 -5.493550E-05 -1.713509E-04 +1.620816E-04 
 +1.956599E-04 +1.475760E-04 -2.251560E-05 +1.475760E-04 +4.773364E-03 -1.612862E-04 -2.251560E-05 -1.612862E-04 +1.776218E-04 
 +2.048017E-04 +1.217130E-04 -3.390442E-05 +1.217130E-04 +4.750425E-03 -1.242027E-04 -3.390442E-05 -1.242027E-04 +1.970373E-04 
 +2.350015E-04 +1.714530E-04 -8.894405E-05 +1.714530E-04 +4.639905E-03 -2.023025E-04 -8.894405E-05 -2.023025E-04 +2.683511E-04 
 +1.643254E-04 +9.173638E-05 +7.757902E-05 +9.173638E-05 +4.608345E-03 -2.300135E-04 +7.757902E-05 -2.300135E-04 +2.645619E-04 
 +7.905198E-06 -5.926547E-05 +1.928867E-04 -5.926547E-05 +4.829536E-03 -9.862087E-05 +1.928867E-04 -9.862087E-05 +6.815503E-05 
 +3.814060E-05 -5.274921E-05 +1.399923E-04 -5.274921E-05 +5.042273E-03 +6.269678E-05 +1.399923E-04 +6.269678E-05 -1.807478E-04 
 +1.819475E-04 -6.637706E-05 -2.599473E-04 -6.637706E-05 +5.162007E-03 +2.476157E-04 -2.599473E-04 +2.476157E-04 -4.063271E-04 
 +2.145830E-04 -2.104054E-04 -6.536692E-05 -2.104054E-04 +5.177123E-03 +2.048906E-04 -6.536692E-05 +2.048906E-04 -4.936503E-04 
 +1.185320E-04 -1.499737E-04 +4.854890E-05 -1.499737E-04 +5.186688E-03 +9.551402E-05 +4.854890E-05 +9.551402E-05 -4.118414E-04 
 +8.184784E-05 -9.187837E-05 +1.063541E-04 -9.187837E-05 +5.202876E-03 -2.963416E-05 +1.063541E-04 -2.963416E-05 -4.007423E-04 
 -2.925399E-04 -3.462787E-05 -2.119977E-04 -3.462787E-05 +5.235459E-03 -5.164070E-05 -2.119977E-04 -5.164070E-05 -2.357760E-04 
 -3.947331E-04 +1.133683E-05 -1.043674E-04 +1.133683E-05 +5.196231E-03 -4.680828E-05 -1.043674E-04 -4.680828E-05 +6.833500E-05 
 -4.521169E-04 +8.340635E-05 +3.759191E-05 +8.340635E-05 +5.115521E-03 -6.889924E-05 +3.759191E-05 -6.889924E-05 +2.572793E-04 
 -3.932890E-04 +1.201410E-04 +9.581503E-05 +1.201410E-04 +5.020436E-03 -2.491905E-05 +9.581503E-05 -2.491905E-05 +1.850650E-04 
 -1.255540E-04 +6.817704E-05 +2.845500E-04 +6.817704E-05 +4.945512E-03 -2.367031E-05 +2.845500E-04 -2.367031E-05 -4.525249E-05 
 -5.278622E-05 +3.463904E-05 +2.167988E-04 +3.463904E-05 +4.925558E-03 -7.812447E-05 +2.167988E-04 -7.812447E-05 -1.188970E-04 
 +2.132031E-05 -6.058608E-06 +1.915626E-04 -6.058608E-06 +4.833020E-03 -1.220886E-05 +1.915626E-04 -1.220886E-05 -1.472789E-04 
 +1.450304E-04 +1.542554E-04 +2.329594E-05 +1.542554E-04 +4.799339E-03 +5.113322E-05 +2.329594E-05 +5.113322E-05 -1.067916E-04 
 +2.238079E-04 +1.851575E-04 -2.388639E-05 +1.851575E-04 +4.791836E-03 -6.518011E-06 -2.388639E-05 -6.518011E-06 -2.907722E-05 
 +2.053236E-04 +1.774265E-04 -4.136779E-05 +1.774265E-04 +4.766661E-03 -5.963903E-05 -4.136779E-05 -5.963903E-05 +2.072510E-05 
 +1.784475E-04 +1.564003E-04 -5.785163E-05 +1.564003E-04 +4.804484E-03 -1.105433E-04 -5.785163E-05 -1.105433E-04 +7.307199E-05 
 +1.471649E-04 +1.457788E-04 -3.498550E-05 +1.457788E-04 +4.815324E-03 -9.680652E-05 -3.498550E-05 -9.680652E-05 +1.214304E-04 
 +1.211544E-04 +1.134291E-04 -4.505860E-05 +1.134291E-04 +4.800537E-03 -8.659668E-05 -4.505860E-05 -8.659668E-05 +1.412434E-04 
 +6.600681E-06 +3.594253E-05 -3.779519E-05 +3.594253E-05 +4.782333E-03 -1.146695E-04 -3.779519E-05 -1.146695E-04 +2.531097E-04 
 +2.314537E-05 -1.064283E-04 +2.886148E-04 -1.064283E-04 +4.834677E-03 -1.151275E-04 +2.886148E-04 -1.151275E-04 +2.014214E-04 
 +2.677581E-06 -2.450803E-04 +3.464228E-04 -2.450803E-04 +4.942720E-03 -5.406616E-05 +3.464228E-04 -5.406616E-05 -1.378686E-05 
 -2.664380E-05 -2.324356E-04 +2.475116E-04 -2.324356E-04 +5.057990E-03 +1.028480E-04 +2.475116E-04 +1.028480E-04 -1.495942E-04 
 +2.480507E-04 -2.634536E-04 -2.386026E-04 -2.634536E-04 +5.137598E-03 +2.312490E-04 -2.386026E-04 +2.312490E-04 -3.680348E-04 
 +2.199164E-04 -2.169808E-04 -1.057100E-04 -2.169808E-04 +5.134182E-03 +1.178775E-04 -1.057100E-04 +1.178775E-04 -4.410670E-04 
 +1.397622E-04 -2.017774E-04 -5.633816E-05 -2.017774E-04 +5.157041E-03 +5.688644E-05 -5.633816E-05 +5.688644E-05 -4.216845E-04 
 +1.089127E-04 -1.675937E-04 -1.933854E-05 -1.675937E-04 +5.150757E-03 -3.000846E-05 -1.933854E-05 -3.000846E-05 -3.781102E-04 
 -1.982815E-05 -1.466864E-04 -6.919090E-05 -1.466864E-04 +5.117860E-03 -2.236015E-05 -6.919090E-05 -2.236015E-05 -2.529495E-04 
 -1.888110E-04 -1.090452E-04 -8.922346E-05 -1.090452E-04 +5.115310E-03 +1.510964E-05 -8.922346E-05 +1.510964E-05 -1.056490E-04 
 -2.694530E-04 +1.755167E-05 +2.276112E-04 +1.755167E-05 +5.151957E-03 +4.745372E-05 +2.276112E-04 +4.745372E-05 -2.033945E-05 
 -2.858564E-04 +1.053547E-04 +1.884704E-04 +1.053547E-04 +5.180309E-03 +1.023608E-04 +1.884704E-04 +1.023608E-04 -1.298158E-04 
 -1.737066E-04 +1.648934E-04 +3.056893E-04 +1.648934E-04 +5.170788E-03 +6.887519E-05 +3.056893E-04 +6.887519E-05 -2.751245E-04 
 -7.929862E-06 +1.733096E-04 +2.498840E-04 +1.733096E-04 +5.124315E-03 +2.557423E-05 +2.498840E-04 +2.557423E-05 -2.865313E-04 
 +6.833184E-05 +4.506386E-05 +2.983241E-04 +4.506386E-05 +5.034846E-03 +4.320682E-05 +2.983241E-04 +4.320682E-05 -2.983880E-04 
 +1.188023E-04 +1.446170E-04 +1.005523E-04 +1.446170E-04 +4.875855E-03 +7.117296E-05 +1.005523E-04 +7.117296E-05 -2.236769E-04 
 +1.252997E-04 +1.404533E-04 -2.486050E-05 +1.404533E-04 +4.828524E-03 +1.492201E-05 -2.486050E-05 +1.492201E-05 -1.234773E-04 
 +1.676788E-04 +1.299665E-04 -6.992122E-05 +1.299665E-04 +4.832190E-03 -5.262169E-05 -6.992122E-05 -5.262169E-05 -5.306840E-05 
 +1.730226E-04 +1.173776E-04 -5.797211E-05 +1.173776E-04 +4.790456E-03 -5.569302E-05 -5.797211E-05 -5.569302E-05 +3.913099E-05 
 +1.524282E-04 +1.228116E-04 -9.519481E-06 +1.228116E-04 +4.827138E-03 -7.205387E-05 -9.519481E-06 -7.205387E-05 +7.462085E-05 
 +3.033412E-05 +1.008440E-04 -1.678497E-05 +1.008440E-04 +4.904789E-03 -7.275107E-05 -1.678497E-05 -7.275107E-05 +1.186570E-04 
 -3.087750E-04 +7.655380E-05 +1.321280E-04 +7.655380E-05 +4.984195E-03 +1.800505E-05 +1.321280E-04 +1.800505E-05 +2.310310E-04 
 -1.624457E-04 +1.042598E-05 +2.467261E-04 +1.042598E-05 +4.948142E-03 +9.791539E-05 +2.467261E-04 +9.791539E-05 +2.473937E-04 
 -2.355926E-05 -6.475414E-05 +3.326574E-04 -6.475414E-05 +4.923495E-03 +1.255100E-04 +3.326574E-04 +1.255100E-04 +1.285976E-04 
 -9.658225E-05 -1.076519E-04 +2.828054E-04 -1.076519E-04 +5.037176E-03 +1.700940E-04 +2.828054E-04 +1.700940E-04 -5.727984E-05 
 +2.324134E-04 -2.281584E-04 -1.989366E-04 -2.281584E-04 +5.115565E-03 +1.681513E-04 -1.989366E-04 +1.681513E-04 -3.085398E-04 
 +1.845720E-04 -1.069851E-04 -7.808135E-05 -1.069851E-04 +5.129920E-03 +6.163284E-05 -7.808135E-05 +6.163284E-05 -4.053190E-04 
 +1.525419E-04 -8.541159E-05 -3.879460E-05 -8.541159E-05 +5.139979E-03 +3.819800E-05 -3.879460E-05 +3.819800E-05 -4.146697E-04 
 +1.241744E-04 -5.711570E-05 -1.869497E-05 -5.711570E-05 +5.133749E-03 +1.441390E-05 -1.869497E-05 +1.441390E-05 -3.822620E-04 
 +8.898798E-05 -8.366265E-05 +1.913058E-05 -8.366265E-05 +5.133016E-03 +2.081283E-05 +1.913058E-05 +2.081283E-05 -3.286011E-04 
 -6.854272E-06 -1.198353E-04 -1.019970E-04 -1.198353E-04 +5.175032E-03 +7.307616E-05 -1.019970E-04 +7.307616E-05 -2.786618E-04 
 -1.102233E-04 -5.848101E-05 +2.607330E-04 -5.848101E-05 +5.229707E-03 +1.142061E-04 +2.607330E-04 +1.142061E-04 -2.421828E-04 
 -1.295910E-04 -5.595177E-05 +1.464056E-04 -5.595177E-05 +5.247444E-03 +7.860370E-05 +1.464056E-04 +7.860370E-05 -2.694901E-04 
 -5.929046E-05 -7.671780E-06 +1.981140E-04 -7.671780E-06 +5.216042E-03 +4.659575E-06 +1.981140E-04 +4.659575E-06 -3.505524E-04 
 +4.577959E-05 +2.325946E-05 +2.154069E-04 +2.325946E-05 +5.150203E-03 +2.342855E-05 +2.154069E-04 +2.342855E-05 -4.375626E-04 
 +2.861031E-05 -7.006356E-05 +2.698200E-04 -7.006356E-05 +5.173076E-03 +5.991266E-05 +2.698200E-04 +5.991266E-05 -4.638070E-04 
 -7.297225E-07 -6.388056E-05 +2.485928E-04 -6.388056E-05 +5.120481E-03 +9.751706E-05 +2.485928E-04 +9.751706E-05 -4.041857E-04 
 +6.830610E-05 +6.807217E-05 +1.660490E-05 +6.807217E-05 +4.944179E-03 +7.287702E-05 +1.660490E-05 +7.287702E-05 -2.591306E-04 
 +1.560672E-04 +4.943579E-05 -1.400856E-05 +4.943579E-05 +4.848150E-03 -7.743787E-06 -1.400856E-05 -7.743787E-06 -1.434673E-04 
 +1.461711E-04 +8.451418E-05 -1.392136E-05 +8.451418E-05 +4.798218E-03 -1.481016E-05 -1.392136E-05 -1.481016E-05 -7.787301E-05 
 +9.304596E-05 +1.109872E-04 +6.781764E-06 +1.109872E-04 +4.886283E-03 -7.142467E-05 +6.781764E-06 -7.142467E-05 +1.896192E-05 
 +2.029742E-05 +6.531895E-05 +4.911484E-07 +6.531895E-05 +5.035593E-03 -7.252077E-05 +4.911484E-07 -7.252077E-05 +9.167386E-05 
 -3.982058E-04 +8.757006E-05 +9.007086E-05 +8.757006E-05 +5.034803E-03 -3.449070E-06 +9.007086E-05 -3.449070E-06 +1.982754E-04 
 -2.291655E-04 +5.198257E-05 +1.039418E-04 +5.198257E-05 +4.955884E-03 +9.473645E-05 +1.039418E-04 +9.473645E-05 +2.659935E-04 
 -1.707992E-04 +6.271585E-05 +2.398867E-04 +6.271585E-05 +4.968154E-03 +1.655471E-04 +2.398867E-04 +1.655471E-04 +1.667472E-04 
 -1.771281E-04 +3.414179E-05 +2.553923E-04 +3.414179E-05 +5.046677E-03 +1.439360E-04 +2.553923E-04 +1.439360E-04 -3.944309E-05 
 +1.733545E-04 -1.128878E-04 -1.987166E-04 -1.128878E-04 +5.102605E-03 +1.027222E-04 -1.987166E-04 +1.027222E-04 -2.748565E-04 
 +1.738918E-04 -5.514617E-05 -1.018002E-04 -5.514617E-05 +5.090641E-03 +4.204386E-06 -1.018002E-04 +4.204386E-06 -3.671715E-04 
 +1.725505E-04 -2.596413E-05 -6.168653E-05 -2.596413E-05 +5.098555E-03 -8.877335E-06 -6.168653E-05 -8.877335E-06 -3.959673E-04 
 +1.528299E-04 -5.185473E-06 -2.700289E-05 -5.185473E-06 +5.116862E-03 -1.995467E-05 -2.700289E-05 -1.995467E-05 -3.889409E-04 
 +1.051841E-04 +6.609963E-06 +1.955196E-05 +6.609963E-06 +5.164374E-03 -2.632378E-05 +1.955196E-05 -2.632378E-05 -3.780545E-04 
 +6.980567E-05 -2.065671E-05 -1.113450E-04 -2.065671E-05 +5.225212E-03 -2.498325E-05 -1.113450E-04 -2.498325E-05 -3.645942E-04 
 -2.354848E-05 +4.175129E-06 +2.364560E-04 +4.175129E-06 +5.264043E-03 -3.552317E-06 +2.364560E-04 -3.552317E-06 -3.138500E-04 
 -3.183393E-05 -3.258279E-05 +1.044387E-04 -3.258279E-05 +5.241250E-03 +1.304950E-05 +1.044387E-04 +1.304950E-05 -2.685952E-04 
 +2.841808E-05 -4.436818E-05 +1.394537E-04 -4.436818E-05 +5.179029E-03 +2.121737E-05 +1.394537E-04 +2.121737E-05 -3.316792E-04 
 +4.614878E-05 -8.271362E-05 +1.924301E-04 -8.271362E-05 +5.151680E-03 +6.374482E-05 +1.924301E-04 +6.374482E-05 -4.461783E-04 
 +3.485113E-05 -1.193982E-04 +1.982849E-04 -1.193982E-04 +5.166989E-03 +1.160872E-04 +1.982849E-04 +1.160872E-04 -5.178477E-04 
 -2.524633E-05 -1.744809E-04 +2.746763E-04 -1.744809E-04 +5.142923E-03 +1.392621E-04 +2.746763E-04 +1.392621E-04 -5.542921E-04 
 +1.829669E-05 -2.251532E-05 +6.987618E-05 -2.251532E-05 +5.014564E-03 +9.578736E-05 +6.987618E-05 +9.578736E-05 -4.259112E-04 
 +8.158352E-05 -2.752492E-07 +5.490213E-05 -2.752492E-07 +5.006273E-03 +1.256517E-05 +5.490213E-05 +1.256517E-05 -2.977749E-04 
 +6.061411E-05 -3.535500E-05 +3.032335E-05 -3.535500E-05 +5.149116E-03 -1.550970E-05 +3.032335E-05 -1.550970E-05 -2.893601E-04 
 +3.606954E-05 +6.406047E-06 +2.611303E-05 +6.406047E-06 +5.143053E-03 -2.084067E-05 +2.611303E-05 -2.084067E-05 -1.802847E-04 
 +4.390678E-05 -2.221929E-05 +1.940786E-05 -2.221929E-05 +5.053111E-03 -4.174018E-05 +1.940786E-05 -4.174018E-05 -3.233181E-05 
 -2.618430E-04 -1.191091E-05 +1.347636E-05 -1.191091E-05 +5.021898E-03 -2.328433E-05 +1.347636E-05 -2.328433E-05 +1.119409E-04 
 -3.192141E-04 +1.354424E-07 +8.691816E-05 +1.354424E-07 +5.026028E-03 +4.244695E-05 +8.691816E-05 +4.244695E-05 +1.922132E-04 
 -2.777137E-04 +5.045545E-05 +1.907445E-04 +5.045545E-05 +5.024296E-03 +5.007741E-05 +1.907445E-04 +5.007741E-05 +1.357623E-04 
 -2.272298E-04 +6.654517E-05 +2.377595E-04 +6.654517E-05 +5.033032E-03 +2.979197E-05 +2.377595E-04 +2.979197E-05 -7.525021E-06 
 +1.423941E-04 -7.380875E-05 -2.146672E-04 -7.380875E-05 +5.071324E-03 +2.527502E-05 -2.146672E-04 +2.527502E-05 -2.247173E-04 
 +1.686880E-04 -1.575775E-05 -1.199619E-04 -1.575775E-05 +5.043875E-03 -3.627625E-05 -1.199619E-04 -3.627625E-05 -3.185608E-04 
 +1.852353E-04 -1.051030E-07 -8.293157E-05 -1.051030E-07 +5.044123E-03 -4.628855E-05 -8.293157E-05 -4.628855E-05 -3.468125E-04 
 +1.697748E-04 +2.643788E-05 -4.823457E-05 +2.643788E-05 +5.045341E-03 -6.551094E-05 -4.823457E-05 -6.551094E-05 -3.239791E-04 
 +1.438416E-04 +5.093730E-05 +2.381783E-05 +5.093730E-05 +5.089466E-03 -7.525635E-05 +2.381783E-05 -7.525635E-05 -3.073046E-04 
 +1.268780E-04 +3.348003E-05 -6.928698E-05 +3.348003E-05 +5.190198E-03 -4.506073E-05 -6.928698E-05 -4.506073E-05 -3.177567E-04 
 +6.514089E-05 +2.699042E-05 +2.545627E-04 +2.699042E-05 +5.238917E-03 -1.039202E-05 +2.545627E-04 -1.039202E-05 -2.778001E-04 
 +1.197263E-05 -3.809385E-05 +1.457109E-04 -3.809385E-05 +5.246470E-03 -2.519244E-05 +1.457109E-04 -2.519244E-05 -2.195783E-04 
 -7.318946E-07 -9.770652E-05 +1.789301E-04 -9.770652E-05 +5.253780E-03 -1.873709E-05 +1.789301E-04 -1.873709E-05 -2.333985E-04 
 +2.683750E-05 -1.136561E-04 +1.698446E-04 -1.136561E-04 +5.223555E-03 +4.853730E-05 +1.698446E-04 +4.853730E-05 -3.052014E-04 
 +5.397876E-05 -1.375776E-04 +1.354361E-04 -1.375776E-04 +5.207703E-03 +1.404710E-04 +1.354361E-04 +1.404710E-04 -4.226975E-04 
 -7.130312E-05 -2.276585E-04 +1.702447E-04 -2.276585E-04 +5.307799E-03 +1.963091E-04 +1.702447E-04 +1.963091E-04 -5.746404E-04 
 -1.296196E-04 -2.171333E-04 +1.522436E-04 -2.171333E-04 +5.432845E-03 +2.130029E-04 +1.522436E-04 +2.130029E-04 -6.317337E-04 
 +3.771753E-06 -1.448773E-04 +1.007007E-04 -1.448773E-04 +5.397091E-03 +1.486446E-04 +1.007007E-04 +1.486446E-04 -5.711219E-04 
 +4.373885E-05 -8.442752E-05 +1.276784E-04 -8.442752E-05 +5.281371E-03 +6.547752E-05 +1.276784E-04 +6.547752E-05 -5.163763E-04 
 +5.995359E-05 -3.684798E-05 +6.652924E-05 -3.684798E-05 +5.203516E-03 +2.188179E-05 +6.652924E-05 +2.188179E-05 -4.226809E-04 
 +1.513489E-05 -6.114114E-05 +3.857562E-05 -6.114114E-05 +5.139091E-03 -4.544978E-05 +3.857562E-05 -4.544978E-05 -2.570384E-04 
 -8.651323E-05 -6.450503E-05 +4.902571E-05 -6.450503E-05 +5.083647E-03 -2.814230E-05 +4.902571E-05 -2.814230E-05 -7.336779E-05 
 -2.866488E-04 +1.721787E-05 +6.860151E-05 +1.721787E-05 +5.070840E-03 +3.239965E-05 +6.860151E-05 +3.239965E-05 +5.867329E-05 
 -3.410755E-04 +1.270666E-04 +1.633596E-04 +1.270666E-04 +5.083672E-03 +3.320931E-05 +1.633596E-04 +3.320931E-05 +8.014089E-05 
 -2.833325E-04 +1.382931E-04 +2.385159E-04 +1.382931E-04 +5.083407E-03 +1.882096E-05 +2.385159E-04 +1.882096E-05 -1.197089E-05 
 +1.241423E-04 -2.182022E-05 -2.184054E-04 -2.182022E-05 +5.055760E-03 -8.791833E-06 -2.184054E-04 -8.791833E-06 -1.954850E-04 
 +1.377932E-04 -6.406982E-06 -1.299446E-04 -6.406982E-06 +5.013870E-03 -5.308652E-05 -1.299446E-04 -5.308652E-05 -2.494557E-04 
 +1.761402E-04 +1.522972E-05 -9.897300E-05 +1.522972E-05 +4.971742E-03 -5.060967E-05 -9.897300E-05 -5.060967E-05 -2.683877E-04 
 +1.521464E-04 +2.717034E-05 -6.594280E-05 +2.717034E-05 +4.988332E-03 -5.948853E-05 -6.594280E-05 -5.948853E-05 -2.418047E-04 
 +1.095223E-04 +1.659894E-05 +8.004499E-06 +1.659894E-05 +4.991329E-03 -7.740339E-05 +8.004499E-06 -7.740339E-05 -2.175193E-04 
 +1.717860E-04 +3.894430E-06 -1.799838E-05 +3.894430E-06 +5.044874E-03 -3.260436E-05 -1.799838E-05 -3.260436E-05 -2.035611E-04 
 +1.642024E-04 -7.171581E-05 +2.074458E-04 -7.171581E-05 +5.139748E-03 +9.387407E-06 +2.074458E-04 +9.387407E-06 -9.735324E-05 
 +8.428235E-05 -8.501671E-05 +1.630464E-04 -8.501671E-05 +5.187547E-03 -4.578667E-05 +1.630464E-04 -4.578667E-05 -2.245703E-05 
 +4.030301E-05 -8.357165E-05 +2.212158E-04 -8.357165E-05 +5.211185E-03 -6.951714E-05 +2.212158E-04 -6.951714E-05 -9.120830E-05 
 +2.156770E-05 -7.318754E-05 +1.935001E-04 -7.318754E-05 +5.216076E-03 +2.430463E-05 +1.935001E-04 +2.430463E-05 -2.197732E-04 
 -8.695531E-07 -1.071249E-04 +1.125502E-04 -1.071249E-04 +5.228250E-03 +8.565272E-05 +1.125502E-04 +8.565272E-05 -3.199725E-04 
 -2.750129E-04 -1.790808E-04 +1.199063E-04 -1.790808E-04 +5.311288E-03 +8.780517E-05 +1.199063E-04 +8.780517E-05 -4.157073E-04 
 -1.843477E-04 -1.943976E-04 +1.891218E-04 -1.943976E-04 +5.376478E-03 +1.136748E-04 +1.891218E-04 +1.136748E-04 -6.040492E-04 
 +2.335013E-05 -1.344017E-04 +1.599978E-04 -1.344017E-04 +5.258011E-03 +1.250115E-04 +1.599978E-04 +1.250115E-04 -7.184523E-04 
 +5.288002E-05 -6.115262E-05 +2.318944E-04 -6.115262E-05 +5.126498E-03 +9.159268E-05 +2.318944E-04 +9.159268E-05 -6.346311E-04 
 +3.229794E-05 -6.808750E-05 +1.342841E-04 -6.808750E-05 +5.089492E-03 +5.200649E-05 +1.342841E-04 +5.200649E-05 -5.017508E-04 
 -7.214981E-06 -9.403136E-05 +4.731244E-05 -9.403136E-05 +5.088157E-03 +3.514054E-05 +4.731244E-05 +3.514054E-05 -3.923790E-04 
 -4.018315E-05 -1.054915E-04 +2.901584E-05 -1.054915E-04 +5.139626E-03 +3.074815E-05 +2.901584E-05 +3.074815E-05 -2.690792E-04 
 -9.072394E-05 -6.392917E-05 +3.086577E-05 -6.392917E-05 +5.174165E-03 +6.671180E-05 +3.086577E-05 +6.671180E-05 -1.759842E-04 
 -3.436205E-04 +9.059396E-05 +8.887493E-05 +9.059396E-05 +5.172253E-03 +4.046971E-05 +8.887493E-05 +4.046971E-05 -1.222848E-04 
 -2.832230E-04 +1.318296E-04 +1.505957E-04 +1.318296E-04 +5.103636E-03 -7.240775E-05 +1.505957E-04 -7.240775E-05 -1.157166E-04 
 +5.881577E-05 +2.415538E-05 -2.049069E-04 +2.415538E-05 +5.049778E-03 -9.345945E-05 -2.049069E-04 -9.345945E-05 -1.936489E-04 
 +3.051489E-05 -8.056200E-06 -9.894541E-05 -8.056200E-06 +5.013241E-03 -4.411267E-05 -9.894541E-05 -4.411267E-05 -2.061884E-04 
 +9.413688E-05 -1.611286E-05 -1.018615E-04 -1.611286E-05 +4.936381E-03 +2.456339E-06 -1.018615E-04 +2.456339E-06 -1.813362E-04 
 +1.150215E-04 +1.972042E-05 -6.275755E-05 +1.972042E-05 +4.953974E-03 -4.000651E-05 -6.275755E-05 -4.000651E-05 -1.331318E-04 
 +1.393244E-04 -1.597708E-05 -3.691617E-05 -1.597708E-05 +4.901741E-03 -7.559242E-05 -3.691617E-05 -7.559242E-05 -1.476990E-04 
 +2.032825E-04 +7.373539E-05 +1.576475E-05 +7.373539E-05 +4.690331E-03 -4.573419E-05 +1.576475E-05 -4.573419E-05 -8.218519E-05 
 +2.020191E-04 +2.943777E-05 +1.080427E-04 +2.943777E-05 +4.610946E-03 -1.581922E-05 +1.080427E-04 -1.581922E-05 +9.029096E-05 
 +1.510748E-04 -3.042549E-05 +6.642884E-05 -3.042549E-05 +4.742980E-03 -2.896054E-05 +6.642884E-05 -2.896054E-05 +1.481103E-04 
 +8.603248E-05 -1.006224E-04 +1.181387E-04 -1.006224E-04 +4.980367E-03 -7.675613E-05 +1.181387E-04 -7.675613E-05 +2.259665E-05 
 +3.075639E-05 -1.604360E-04 +9.688274E-05 -1.604360E-04 +5.165502E-03 -9.176668E-05 +9.688274E-05 -9.176668E-05 -1.238753E-04 
 -4.095903E-05 -1.820608E-04 +5.422607E-06 -1.820608E-04 +5.190100E-03 -4.410481E-05 +5.422607E-06 -4.410481E-05 -1.858389E-04 
 -2.559100E-04 -9.450756E-05 +6.822635E-05 -9.450756E-05 +5.050005E-03 +1.043180E-05 +6.822635E-05 +1.043180E-05 -1.638919E-04 
 -1.014608E-04 +1.971440E-05 +1.078584E-04 +1.971440E-05 +4.885212E-03 +6.501627E-05 +1.078584E-04 +6.501627E-05 -2.930482E-04 
 -9.451328E-05 +3.300565E-05 +1.782845E-04 +3.300565E-05 +4.977390E-03 +1.185042E-04 +1.782845E-04 +1.185042E-04 -4.957683E-04 
 -1.033193E-04 -2.902904E-05 +2.550049E-04 -2.902904E-05 +5.115348E-03 +1.109707E-04 +2.550049E-04 +1.109707E-04 -4.951237E-04 
 -2.378429E-05 -7.831022E-05 +2.123851E-04 -7.831022E-05 +5.084273E-03 +6.025740E-05 +2.123851E-04 +6.025740E-05 -4.809701E-04 
 -3.173856E-05 -5.141809E-05 +7.827292E-05 -5.141809E-05 +5.101594E-03 +2.489546E-05 +7.827292E-05 +2.489546E-05 -4.736464E-04 
 -2.185080E-05 -6.037273E-05 -2.990437E-06 -6.037273E-05 +5.156388E-03 -3.066247E-06 -2.990437E-06 -3.066247E-06 -4.269417E-04 
 -2.318952E-06 -6.912791E-05 +5.885292E-05 -6.912791E-05 +5.175974E-03 -2.718351E-05 +5.885292E-05 -2.718351E-05 -3.832393E-04 
 -1.797084E-04 +4.721298E-05 +2.448717E-05 +4.721298E-05 +5.151369E-03 -8.219063E-05 +2.448717E-05 -8.219063E-05 -2.647477E-04 
 -1.620926E-04 +1.245212E-04 +5.488652E-05 +1.245212E-04 +5.071915E-03 -1.705253E-04 +5.488652E-05 -1.705253E-04 -1.788012E-04 
 -3.474474E-05 +1.138120E-04 -1.103760E-04 +1.138120E-04 +5.041016E-03 -1.600665E-04 -1.103760E-04 -1.600665E-04 -1.798612E-04 
 -1.365289E-05 +9.146920E-05 -3.816871E-05 +9.146920E-05 +4.991294E-03 -5.713894E-05 -3.816871E-05 -5.713894E-05 -1.645773E-04 
 -1.261125E-04 +1.527747E-05 -1.199146E-04 +1.527747E-05 +4.851583E-03 +4.073591E-05 -1.199146E-04 +4.073591E-05 -4.812364E-05 
 +1.286249E-04 +1.097530E-04 -6.518469E-05 +1.097530E-04 +4.596219E-03 +4.832522E-05 -6.518469E-05 +4.832522E-05 +7.195122E-05 
 +2.157677E-04 +7.204927E-05 -2.957146E-05 +7.204927E-05 +4.594980E-03 -2.261805E-05 -2.957146E-05 -2.261805E-05 -4.223483E-06 
 +2.124507E-04 +5.043441E-05 +3.588444E-05 +5.043441E-05 +4.667745E-03 -7.142541E-05 +3.588444E-05 -7.142541E-05 +4.868308E-07 
 +1.926366E-04 +6.299014E-05 +3.207414E-05 +6.299014E-05 +4.638930E-03 -8.059943E-05 +3.207414E-05 -8.059943E-05 +8.989570E-05 
 +1.482714E-04 +5.834381E-05 -2.556328E-05 +5.834381E-05 +4.614329E-03 -3.851073E-05 -2.556328E-05 -3.851073E-05 +1.358861E-04 
 +9.528866E-05 +2.815163E-05 -2.669373E-05 +2.815163E-05 +4.580073E-03 -1.884875E-05 -2.669373E-05 -1.884875E-05 +1.254197E-04 
 +1.139776E-04 +1.841654E-05 -7.903895E-05 +1.841654E-05 +4.634106E-03 -5.895193E-05 -7.903895E-05 -5.895193E-05 +8.665984E-05 
 +3.497097E-05 -2.718691E-05 -9.913483E-05 -2.718691E-05 +4.710748E-03 -5.609324E-05 -9.913483E-05 -5.609324E-05 +4.770173E-05 
 -6.176862E-05 -6.419104E-06 -1.247507E-07 -6.419104E-06 +4.726887E-03 -4.595166E-05 -1.247507E-07 -4.595166E-05 +1.251992E-05 
 -1.982754E-04 +5.653882E-05 +5.111292E-05 +5.653882E-05 +4.865873E-03 -5.362848E-05 +5.111292E-05 -5.362848E-05 -4.324434E-05 
 -2.734251E-04 +6.474443E-05 +1.474089E-04 +6.474443E-05 +4.972996E-03 +1.327876E-05 +1.474089E-04 +1.327876E-05 -1.180985E-04 
 -2.683437E-04 +3.912443E-05 +2.364322E-04 +3.912443E-05 +5.010884E-03 +7.068416E-05 +2.364322E-04 +7.068416E-05 -2.026745E-04 
 -1.247436E-04 -1.361251E-05 +2.482321E-04 -1.361251E-05 +5.126525E-03 +7.041691E-05 +2.482321E-04 +7.041691E-05 -3.047198E-04 
 -6.903800E-05 -2.465377E-05 +6.396403E-05 -2.465377E-05 +5.159297E-03 +5.410732E-05 +6.396403E-05 +5.410732E-05 -3.731506E-04 
 -8.285553E-06 -9.471662E-05 -2.781145E-05 -9.471662E-05 +5.052159E-03 +2.455972E-05 -2.781145E-05 +2.455972E-05 -4.454885E-04 
 +4.685932E-05 -4.032214E-05 +5.059396E-05 -4.032214E-05 +5.002420E-03 -5.707567E-05 +5.059396E-05 -5.707567E-05 -4.452670E-04 
 +3.908034E-06 +4.699117E-05 +4.062555E-05 +4.699117E-05 +5.032248E-03 -9.335574E-05 +4.062555E-05 -9.335574E-05 -3.160435E-04 
 -2.685591E-05 +5.930004E-05 +1.841247E-05 +5.930004E-05 +5.031891E-03 -8.431783E-05 +1.841247E-05 -8.431783E-05 -2.248550E-04 
 -2.258281E-05 +9.629308E-05 -4.237421E-05 +9.629308E-05 +4.997542E-03 -1.059730E-04 -4.237421E-05 -1.059730E-04 -1.761610E-04 
 +6.928616E-05 +6.717908E-05 -1.258439E-05 +6.717908E-05 +4.916241E-03 -2.462508E-05 -1.258439E-05 -2.462508E-05 -1.367550E-04 
 -2.776249E-04 -3.913980E-05 -1.379804E-04 -3.913980E-05 +4.856610E-03 +4.906015E-05 -1.379804E-04 +4.906015E-05 +1.081350E-04 
 -1.375793E-05 +3.164878E-05 -1.009315E-04 +3.164878E-05 +4.698566E-03 +7.532294E-05 -1.009315E-04 +7.532294E-05 +2.258967E-04 
 +2.595882E-04 +7.781166E-05 +3.549116E-05 +7.781166E-05 +4.611642E-03 +6.931295E-06 +3.549116E-05 +6.931295E-06 +7.503177E-05 
 +2.475178E-04 +4.662482E-05 +4.204068E-05 +4.662482E-05 +4.653218E-03 -1.744242E-05 +4.204068E-05 -1.744242E-05 -4.188729E-06 
 +2.155749E-04 +9.851294E-05 +1.741333E-05 +9.851294E-05 +4.665053E-03 -2.424512E-06 +1.741333E-05 -2.424512E-06 +1.621085E-05 
 +1.827421E-04 +1.129792E-04 -3.957032E-06 +1.129792E-04 +4.670330E-03 +1.699483E-05 -3.957032E-06 +1.699483E-05 +6.190664E-05 
 +1.313898E-04 +8.203833E-05 -2.627415E-05 +8.203833E-05 +4.683035E-03 +2.323992E-05 -2.627415E-05 +2.323992E-05 +1.141459E-04 
 +1.576454E-04 +3.499797E-05 -5.999795E-05 +3.499797E-05 +4.624125E-03 +7.848468E-06 -5.999795E-05 +7.848468E-06 +1.281721E-04 
 +1.970059E-04 +2.454290E-06 -6.816815E-05 +2.454290E-06 +4.650514E-03 -7.548291E-05 -6.816815E-05 -7.548291E-05 +1.203475E-04 
 -1.536948E-04 -6.001917E-05 +2.846593E-05 -6.001917E-05 +4.794211E-03 -1.413525E-04 +2.846593E-05 -1.413525E-04 +8.553632E-05 
 -3.016120E-04 +5.009627E-05 +5.645261E-05 +5.009627E-05 +4.901221E-03 -1.244700E-04 +5.645261E-05 -1.244700E-04 +7.454904E-05 
 -3.540171E-04 +5.844938E-05 +1.278400E-04 +5.844938E-05 +4.997751E-03 -5.172867E-05 +1.278400E-04 -5.172867E-05 +9.435672E-05 
 -3.967220E-04 +6.604100E-05 +2.028567E-04 +6.604100E-05 +5.089591E-03 +5.915981E-05 +2.028567E-04 +5.915981E-05 +2.472285E-05 
 -3.146112E-04 -4.091748E-05 +2.193500E-04 -4.091748E-05 +5.136097E-03 +1.051725E-04 +2.193500E-04 +1.051725E-04 -4.048785E-05 
 -3.913580E-05 -9.746202E-05 +8.371085E-06 -9.746202E-05 +5.091653E-03 +1.165840E-04 +8.371085E-06 +1.165840E-04 -1.077808E-04 
 +8.638696E-06 -1.405066E-04 -8.166034E-05 -1.405066E-04 +5.005662E-03 +1.104709E-04 -8.166034E-05 +1.104709E-04 -2.473611E-04 
 +1.158508E-04 -3.817583E-06 +7.505870E-07 -3.817583E-06 +4.969138E-03 +3.522560E-05 +7.505870E-07 +3.522560E-05 -3.424257E-04 
 +1.073531E-04 +3.824538E-05 +4.385824E-05 +3.824538E-05 +4.997257E-03 -3.008193E-05 +4.385824E-05 -3.008193E-05 -3.290020E-04 
 +7.646305E-05 +3.316977E-05 +1.384631E-05 +3.316977E-05 +4.999761E-03 -6.689916E-05 +1.384631E-05 -6.689916E-05 -2.578541E-04 
 +8.194598E-05 +4.862199E-05 -1.853678E-05 +4.862199E-05 +4.960951E-03 -6.133845E-05 -1.853678E-05 -6.133845E-05 -2.188258E-04 
 +1.065539E-04 -2.000219E-05 +2.410066E-06 -2.000219E-05 +4.915072E-03 -4.094865E-05 +2.410066E-06 -4.094865E-05 -1.723089E-04 
 -3.112425E-04 -1.389404E-04 -1.644780E-04 -1.389404E-04 +4.907144E-03 -8.523136E-06 -1.644780E-04 -8.523136E-06 +1.316341E-04 
 -1.277954E-04 -5.327018E-05 -1.251673E-04 -5.327018E-05 +4.889959E-03 +3.644895E-05 -1.251673E-04 +3.644895E-05 +2.045052E-04 
 +3.200783E-04 +1.338105E-04 +9.718198E-05 +1.338105E-04 +4.717113E-03 +5.045865E-05 +9.718198E-05 +5.045865E-05 +3.531152E-05 
 +3.064304E-04 +1.356697E-04 +8.341113E-05 +1.356697E-04 +4.624267E-03 +5.187533E-05 +8.341113E-05 +5.187533E-05 -1.111822E-05 
 +2.451461E-04 +1.441645E-04 +3.004678E-05 +1.441645E-04 +4.660263E-03 +6.531139E-05 +3.004678E-05 +6.531139E-05 +2.848135E-05 
 +2.123319E-04 +1.460897E-04 +1.072471E-05 +1.460897E-04 +4.677952E-03 +5.724969E-05 +1.072471E-05 +5.724969E-05 +4.400900E-05 
 +1.836972E-04 +1.267527E-04 +6.031370E-06 +1.267527E-04 +4.712204E-03 +4.563323E-05 +6.031370E-06 +4.563323E-05 +7.461434E-05 
 +1.789414E-04 +5.203718E-05 +1.386773E-05 +5.203718E-05 +4.687987E-03 +1.820536E-05 +1.386773E-05 +1.820536E-05 +9.877761E-05 
 +1.157768E-04 +1.999485E-05 -5.129318E-06 +1.999485E-05 +4.639555E-03 -3.577320E-05 -5.129318E-06 -3.577320E-05 +1.326950E-04 
 -3.129332E-04 -5.602126E-05 +4.144884E-05 -5.602126E-05 +4.826823E-03 -1.262041E-04 +4.144884E-05 -1.262041E-04 +1.586952E-04 
 -3.377425E-04 -2.437146E-05 +3.551455E-05 -2.437146E-05 +5.019022E-03 -1.455743E-04 +3.551455E-05 -1.455743E-04 +1.623632E-04 
 -3.783325E-04 -5.538281E-06 +6.019123E-05 -5.538281E-06 +5.099326E-03 -7.120717E-05 +6.019123E-05 -7.120717E-05 +1.659126E-04 
 -4.441519E-04 +4.971659E-05 +1.248753E-04 +4.971659E-05 +5.180593E-03 +2.248058E-05 +1.248753E-04 +2.248058E-05 +1.028387E-04 
 -3.611299E-04 +2.815411E-05 +1.792518E-04 +2.815411E-05 +5.137328E-03 +8.453179E-05 +1.792518E-04 +8.453179E-05 +4.056265E-05 
 -4.778234E-05 -2.996213E-06 +6.038185E-05 -2.996213E-06 +5.051897E-03 +9.257781E-05 +6.038185E-05 +9.257781E-05 +1.804139E-05 
 +7.653573E-06 -9.897695E-05 +8.716367E-06 -9.897695E-05 +5.049061E-03 +1.022597E-04 +8.716367E-06 +1.022597E-04 -8.821581E-05 
 +1.518421E-04 +2.732912E-05 +1.236329E-05 +2.732912E-05 +5.089239E-03 +3.005463E-05 +1.236329E-05 +3.005463E-05 -2.697506E-04 
 +1.635647E-04 +4.201691E-05 +1.060296E-05 +4.201691E-05 +5.050231E-03 -5.090638E-05 +1.060296E-05 -5.090638E-05 -3.459991E-04 
 +1.616510E-04 -2.419097E-06 +1.415850E-05 -2.419097E-06 +4.979373E-03 -6.100452E-05 +1.415850E-05 -6.100452E-05 -2.815153E-04 
 +1.673002E-04 +4.473228E-06 +2.199181E-05 +4.473228E-06 +4.954030E-03 -6.448894E-05 +2.199181E-05 -6.448894E-05 -2.794473E-04 
 +1.633075E-04 +1.191900E-06 +5.420593E-05 +1.191900E-06 +4.958034E-03 -4.970218E-05 +5.420593E-05 -4.970218E-05 -2.199282E-04 
 -3.041604E-04 -9.559143E-05 -1.599482E-04 -9.559143E-05 +4.850536E-03 -4.197963E-05 -1.599482E-04 -4.197963E-05 +3.825863E-05 
 -2.746063E-05 +1.704675E-05 -9.474022E-05 +1.704675E-05 +4.647368E-03 -9.727733E-06 -9.474022E-05 -9.727733E-06 +8.767697E-05 
 +3.178208E-04 +2.096990E-04 +1.769367E-04 +2.096990E-04 +4.654352E-03 +5.575107E-05 +1.769367E-04 +5.575107E-05 +1.711398E-06 
 +3.036673E-04 +2.068805E-04 +1.428065E-04 +2.068805E-04 +4.695361E-03 +1.008722E-04 +1.428065E-04 +1.008722E-04 +8.173486E-06 
 +2.260292E-04 +1.975295E-04 +3.371292E-05 +1.975295E-04 +4.677447E-03 +1.036494E-04 +3.371292E-05 +1.036494E-04 +6.083518E-05 
 +2.077779E-04 +1.747098E-04 +1.367265E-05 +1.747098E-04 +4.698809E-03 +8.949370E-05 +1.367265E-05 +8.949370E-05 +9.420385E-05 
 +2.164716E-04 +1.125653E-04 +7.890007E-06 +1.125653E-04 +4.679134E-03 +6.467333E-05 +7.890007E-06 +6.467333E-05 +1.215469E-04 
 +2.158938E-04 +3.984958E-05 -2.572474E-06 +3.984958E-05 +4.791824E-03 -2.578356E-05 -2.572474E-06 -2.578356E-05 +1.483407E-04 
 -2.372938E-04 -7.677652E-05 +4.846771E-05 -7.677652E-05 +4.908183E-03 -1.134072E-04 +4.846771E-05 -1.134072E-04 +1.888221E-04 
 -3.495334E-04 -2.313672E-05 -4.294534E-06 -2.313672E-05 +4.905339E-03 -1.370012E-04 -4.294534E-06 -1.370012E-04 +1.962066E-04 
 -3.651987E-04 -2.493642E-05 +1.793493E-06 -2.493642E-05 +4.955552E-03 -1.238044E-04 +1.793493E-06 -1.238044E-04 +2.224770E-04 
 -3.437394E-04 +7.438475E-05 +2.957785E-06 +7.438475E-05 +4.999249E-03 -7.233761E-05 +2.957785E-06 -7.233761E-05 +2.189290E-04 
 -3.174222E-04 +1.231661E-04 +7.832132E-05 +1.231661E-04 +5.009425E-03 -5.054356E-05 +7.832132E-05 -5.054356E-05 +1.686665E-04 
 -2.653043E-04 +1.145821E-04 +2.381676E-04 +1.145821E-04 +5.043495E-03 -6.021906E-05 +2.381676E-04 -6.021906E-05 +1.019030E-04 
 -1.788733E-04 +4.844657E-05 +2.236740E-04 +4.844657E-05 +5.094010E-03 -5.691700E-05 +2.236740E-04 -5.691700E-05 +1.177905E-04 
 -9.843955E-05 -2.388901E-05 +1.856156E-04 -2.388901E-05 +5.150777E-03 -1.442203E-05 +1.856156E-04 -1.442203E-05 -1.162423E-06 
 +1.837045E-04 +2.745936E-05 +2.805249E-05 +2.745936E-05 +5.179591E-03 -3.771998E-05 +2.805249E-05 -3.771998E-05 -3.060164E-04 
 +2.047698E-04 -1.425861E-05 +3.428323E-05 -1.425861E-05 +5.092283E-03 -8.840792E-05 +3.428323E-05 -8.840792E-05 -3.839869E-04 
 +2.171710E-04 -1.331926E-05 +3.917985E-05 -1.331926E-05 +5.002620E-03 -6.921439E-05 +3.917985E-05 -6.921439E-05 -3.187177E-04 
 +2.306837E-04 -5.589079E-06 +6.595096E-05 -5.589079E-06 +4.956165E-03 -6.039126E-05 +6.595096E-05 -6.039126E-05 -3.346286E-04 
 +2.167068E-04 -2.304698E-05 +1.237915E-04 -2.304698E-05 +4.957322E-03 -1.152928E-04 +1.237915E-04 -1.152928E-04 -2.927841E-04 
 -1.211334E-04 -1.075425E-04 -7.141662E-05 -1.075425E-04 +4.964545E-03 -1.094481E-04 -7.141662E-05 -1.094481E-04 -9.829367E-05 
 -5.074652E-05 -6.836831E-05 -2.643183E-05 -6.836831E-05 +4.923351E-03 -5.037617E-06 -2.643183E-05 -5.037617E-06 -2.787940E-05 
 +3.085027E-04 +1.859508E-04 +1.999716E-04 +1.859508E-04 +4.737383E-03 +7.989012E-05 +1.999716E-04 +7.989012E-05 +4.697655E-06 
 +3.085078E-04 +2.194240E-04 +1.612655E-04 +2.194240E-04 +4.731354E-03 +4.790302E-05 +1.612655E-04 +4.790302E-05 -1.148208E-06 
 +1.740315E-04 +2.221358E-04 +4.337734E-05 +2.221358E-04 +4.790827E-03 +1.807821E-05 +4.337734E-05 +1.807821E-05 +1.954676E-06 
 +1.671632E-04 +1.669955E-04 +3.529098E-05 +1.669955E-04 +4.758564E-03 +4.645054E-05 +3.529098E-05 +4.645054E-05 +1.032822E-04 
 +1.878741E-04 +8.114068E-05 +6.267844E-06 +8.114068E-05 +4.710995E-03 +4.773098E-05 +6.267844E-06 +4.773098E-05 +1.862958E-04 
 +1.609238E-04 +9.682280E-05 -1.700444E-05 +9.682280E-05 +4.755664E-03 -1.035662E-05 -1.700444E-05 -1.035662E-05 +2.010206E-04 
 -4.022297E-04 -1.106854E-05 +7.288968E-05 -1.106854E-05 +4.903328E-03 -4.887698E-05 +7.288968E-05 -4.887698E-05 +2.175685E-04 
 -4.282051E-04 +7.484665E-05 -1.015616E-05 +7.484665E-05 +4.983518E-03 -8.499748E-05 -1.015616E-05 -8.499748E-05 +2.125858E-04 
 -3.763725E-04 +1.472662E-05 -1.659062E-06 +1.472662E-05 +4.972707E-03 -1.414289E-04 -1.659062E-06 -1.414289E-04 +2.559045E-04 
 -2.897404E-04 +7.237320E-05 +3.417506E-05 +7.237320E-05 +4.971003E-03 -1.248315E-04 +3.417506E-05 -1.248315E-04 +2.371306E-04 
 -2.206413E-04 +5.974699E-05 +9.424928E-05 +5.974699E-05 +4.952235E-03 -7.489269E-05 +9.424928E-05 -7.489269E-05 +2.195592E-04 
 -1.986492E-04 +5.759272E-05 +2.468778E-04 +5.759272E-05 +4.983024E-03 -8.266174E-05 +2.468778E-04 -8.266174E-05 +1.706312E-04 
 -2.820041E-04 +2.665543E-06 +2.789711E-04 +2.665543E-06 +5.074646E-03 -1.166800E-04 +2.789711E-04 -1.166800E-04 +1.421596E-04 
 -1.802314E-04 +2.175265E-05 +2.247240E-04 +2.175265E-05 +5.202683E-03 -1.048802E-04 +2.247240E-04 -1.048802E-04 +4.653482E-05 
 +2.395093E-04 +2.030608E-05 +9.915977E-06 +2.030608E-05 +5.217724E-03 -9.619561E-05 +9.915977E-06 -9.619561E-05 -2.171473E-04 
 +2.618017E-04 -2.546516E-05 +1.234092E-04 -2.546516E-05 +5.079670E-03 -8.549076E-05 +1.234092E-04 -8.549076E-05 -3.207382E-04 
 +2.633133E-04 +2.734646E-05 +1.178896E-04 +2.734646E-05 +5.005464E-03 -5.207699E-05 +1.178896E-04 -5.207699E-05 -3.179362E-04 
 +2.615082E-04 +2.803055E-05 +1.265862E-04 +2.803055E-05 +5.016812E-03 -7.668346E-05 +1.265862E-04 -7.668346E-05 -3.668036E-04 
 +1.736359E-04 -1.611515E-04 +1.361707E-04 -1.611515E-04 +4.968693E-03 -1.592030E-04 +1.361707E-04 -1.592030E-04 -3.046201E-04 
 +1.122635E-04 -1.683423E-04 +2.369683E-05 -1.683423E-04 +4.920103E-03 -1.336313E-04 +2.369683E-05 -1.336313E-04 -2.067378E-04 
 +5.575231E-05 -1.512630E-04 +1.049420E-04 -1.512630E-04 +4.917975E-03 +2.028633E-06 +1.049420E-04 +2.028633E-06 -1.475320E-04 
 +2.302264E-04 +1.492297E-04 +1.640231E-04 +1.492297E-04 +4.778779E-03 +9.761959E-05 +1.640231E-04 +9.761959E-05 -6.878892E-05 
 +2.552785E-04 +2.512506E-04 +1.135522E-04 +2.512506E-04 +4.737369E-03 +5.661089E-05 +1.135522E-04 +5.661089E-05 -6.886222E-05 
 +1.633200E-04 +1.864887E-04 +5.161638E-05 +1.864887E-04 +4.866645E-03 -3.819343E-05 +5.161638E-05 -3.819343E-05 -9.889591E-05 
 +1.725775E-04 +1.277587E-04 +5.385354E-05 +1.277587E-04 +4.886887E-03 -3.948813E-05 +5.385354E-05 -3.948813E-05 +6.239167E-06 
 +1.731919E-04 +9.656659E-05 +2.606421E-06 +9.656659E-05 +4.821629E-03 +3.167558E-05 +2.606421E-06 +3.167558E-05 +9.308983E-05 
 +2.010823E-05 +1.820538E-04 -7.148681E-05 +1.820538E-04 +4.829907E-03 +1.244913E-05 -7.148681E-05 +1.244913E-05 +1.520862E-04 
 -4.737438E-04 +4.003254E-05 +4.840963E-05 +4.003254E-05 +4.958535E-03 -3.302229E-05 +4.840963E-05 -3.302229E-05 +2.386008E-04 
 -4.774227E-04 +3.048800E-05 -8.004786E-07 +3.048800E-05 +5.033601E-03 -5.026949E-05 -8.004786E-07 -5.026949E-05 +2.499900E-04 
 -4.032161E-04 +4.679144E-05 +2.388368E-05 +4.679144E-05 +5.010786E-03 -1.310059E-04 +2.388368E-05 -1.310059E-04 +2.594187E-04 
 -2.866745E-04 +9.658360E-05 +6.683262E-05 +9.658360E-05 +4.966140E-03 -1.883164E-04 +6.683262E-05 -1.883164E-04 +2.512478E-04 
 -2.680780E-04 +4.877408E-05 +1.219196E-04 +4.877408E-05 +4.958640E-03 -1.336597E-04 +1.219196E-04 -1.336597E-04 +2.510737E-04 
 -2.531937E-04 -1.188332E-05 +1.671280E-04 -1.188332E-05 +4.991377E-03 -6.724724E-05 +1.671280E-04 -6.724724E-05 +2.188628E-04 
 -2.817198E-04 -7.478893E-05 +2.239664E-04 -7.478893E-05 +5.071376E-03 -1.263460E-04 +2.239664E-04 -1.263460E-04 +1.356785E-04 
 -1.225560E-04 -3.177427E-05 +2.627933E-04 -3.177427E-05 +5.084290E-03 -1.275786E-04 +2.627933E-04 -1.275786E-04 +6.469660E-05 
 +3.810095E-04 -7.349052E-05 +1.888804E-05 -7.349052E-05 +4.927687E-03 -4.279262E-06 +1.888804E-05 -4.279262E-06 -2.475298E-05 
 +3.220792E-04 -1.424329E-05 +2.066674E-04 -1.424329E-05 +4.895121E-03 +4.395501E-05 +2.066674E-04 +4.395501E-05 -1.630307E-04 
 +2.813048E-04 +2.933782E-05 +2.023934E-04 +2.933782E-05 +4.960366E-03 +3.099598E-05 +2.023934E-04 +3.099598E-05 -2.463687E-04 
 +2.257126E-04 +2.589941E-05 +1.399330E-04 +2.589941E-05 +4.993909E-03 -5.558601E-05 +1.399330E-04 -5.558601E-05 -3.038550E-04 
 +1.622693E-04 -1.578815E-04 +1.095488E-04 -1.578815E-04 +4.946645E-03 -6.413678E-05 +1.095488E-04 -6.413678E-05 -2.786884E-04 
 +2.174094E-04 -1.467375E-04 +8.894266E-05 -1.467375E-04 +4.912413E-03 -6.770985E-05 +8.894266E-05 -6.770985E-05 -2.708177E-04 
 +2.100319E-04 -2.056650E-04 +1.816254E-04 -2.056650E-04 +5.005777E-03 -5.448452E-05 +1.816254E-04 -5.448452E-05 -2.809617E-04 
 +1.454296E-04 -7.054597E-05 +1.904471E-04 -7.054597E-05 +5.122592E-03 -4.852961E-05 +1.904471E-04 -4.852961E-05 -2.405274E-04 
 +1.673473E-04 +1.570300E-04 +1.060333E-04 +1.570300E-04 +5.013734E-03 -4.381913E-05 +1.060333E-04 -4.381913E-05 -2.179623E-04 
 +1.953408E-04 +1.563095E-04 +7.336019E-05 +1.563095E-04 +4.912615E-03 -6.629779E-05 +7.336019E-05 -6.629779E-05 -1.845183E-04 
 +1.699541E-04 +2.482655E-05 +3.354797E-05 +2.482655E-05 +4.918944E-03 -3.955304E-05 +3.354797E-05 -3.955304E-05 -9.801702E-05 
 +3.843914E-05 -7.625263E-05 -7.254013E-05 -7.625263E-05 +5.021872E-03 +6.261759E-05 -7.254013E-05 +6.261759E-05 -5.320322E-05 
 -7.708046E-05 -3.254060E-05 -2.042066E-04 -3.254060E-05 +5.115682E-03 +8.749753E-05 -2.042066E-04 +8.749753E-05 +4.039959E-05 
 -3.945002E-04 +1.954282E-05 +1.152447E-04 +1.954282E-05 +5.123937E-03 +1.044494E-04 +1.152447E-04 +1.044494E-04 +1.776967E-04 
 -5.050034E-04 +2.284688E-05 +9.262245E-07 +2.284688E-05 +5.094627E-03 +6.109069E-05 +9.262245E-07 +6.109069E-05 +2.704869E-04 
 -3.787396E-04 +1.371492E-05 +9.186656E-05 +1.371492E-05 +5.043433E-03 -7.982576E-05 +9.186656E-05 -7.982576E-05 +2.821179E-04 
 -3.606726E-04 +5.554315E-05 +9.433495E-05 +5.554315E-05 +5.049953E-03 -1.459002E-04 +9.433495E-05 -1.459002E-04 +2.840024E-04 
 -3.850949E-04 +1.122954E-05 +1.264614E-04 +1.122954E-05 +5.076704E-03 -1.269158E-04 +1.264614E-04 -1.269158E-04 +3.250261E-04 
 -3.511765E-04 -4.939290E-05 +9.074150E-05 -4.939290E-05 +5.052808E-03 -4.174583E-05 +9.074150E-05 -4.174583E-05 +2.917718E-04 
 -1.169155E-04 +2.033035E-05 +2.009794E-04 +2.033035E-05 +4.997815E-03 +4.281073E-05 +2.009794E-04 +4.281073E-05 +1.519966E-04 
 +5.554937E-05 +7.121361E-05 +3.127693E-04 +7.121361E-05 +4.947441E-03 +5.975344E-05 +3.127693E-04 +5.975344E-05 +7.762422E-05 
 +4.045126E-04 -5.448902E-05 +2.667042E-05 -5.448902E-05 +4.876880E-03 +7.319687E-05 +2.667042E-05 +7.319687E-05 +6.243497E-05 
 +3.496138E-04 +2.294459E-05 +1.677994E-04 +2.294459E-05 +4.857728E-03 +6.154058E-05 +1.677994E-04 +6.154058E-05 -7.920798E-05 
 +2.647153E-04 +1.002665E-05 +1.998068E-04 +1.002665E-05 +4.912147E-03 +2.252495E-05 +1.998068E-04 +2.252495E-05 -1.671324E-04 
 +1.885185E-04 +2.749408E-05 +8.344196E-05 +2.749408E-05 +4.949857E-03 -1.433929E-05 +8.344196E-05 -1.433929E-05 -2.120551E-04 
 +1.798742E-04 -1.456808E-04 +9.849649E-05 -1.456808E-04 +4.975807E-03 -2.596919E-05 +9.849649E-05 -2.596919E-05 -3.038725E-04 
 +2.091447E-04 -1.731233E-04 +1.405866E-04 -1.731233E-04 +5.001932E-03 -3.455337E-05 +1.405866E-04 -3.455337E-05 -3.324181E-04 
 +1.656385E-04 -1.722473E-04 +1.903850E-04 -1.722473E-04 +5.050049E-03 -2.282019E-05 +1.903850E-04 -2.282019E-05 -3.493586E-04 
 +1.466688E-04 -9.720149E-05 +2.481221E-04 -9.720149E-05 +5.129705E-03 -7.561311E-05 +2.481221E-04 -7.561311E-05 -3.448701E-04 
 +1.612121E-04 +3.652311E-05 +2.052624E-04 +3.652311E-05 +5.120205E-03 -8.276537E-05 +2.052624E-04 -8.276537E-05 -3.619065E-04 
 +1.478948E-04 +7.408200E-05 +6.608648E-05 +7.408200E-05 +5.022470E-03 -4.286466E-05 +6.608648E-05 -4.286466E-05 -2.735474E-04 
 -2.152641E-05 -1.140728E-04 -1.384616E-05 -1.140728E-04 +5.030653E-03 -1.843451E-05 -1.384616E-05 -1.843451E-05 -1.190250E-04 
 -1.379490E-04 -1.796264E-04 -1.432716E-04 -1.796264E-04 +5.102415E-03 -1.505701E-05 -1.432716E-04 -1.505701E-05 -4.196934E-05 
 -8.274565E-05 -1.602145E-04 -1.296263E-04 -1.602145E-04 +5.098621E-03 +6.648599E-05 -1.296263E-04 +6.648599E-05 -1.290056E-05 
 -7.838278E-05 -7.052746E-05 +1.715669E-04 -7.052746E-05 +5.098626E-03 +1.357297E-04 +1.715669E-04 +1.357297E-04 +6.850905E-06 
 -3.747186E-04 -4.084654E-06 +3.199520E-05 -4.084654E-06 +5.119553E-03 +1.009035E-04 +3.199520E-05 +1.009035E-04 +1.778693E-04 
 -4.581078E-04 +6.434284E-05 +8.876948E-05 +6.434284E-05 +5.089519E-03 +2.098873E-05 +8.876948E-05 +2.098873E-05 +2.965022E-04 
 -3.863341E-04 +1.181662E-04 +1.249126E-04 +1.181662E-04 +5.079732E-03 -1.111492E-04 +1.249126E-04 -1.111492E-04 +3.177171E-04 
 -4.620271E-04 +1.376049E-04 +1.406278E-04 +1.376049E-04 +5.102095E-03 -1.173565E-04 +1.406278E-04 -1.173565E-04 +3.921710E-04 
 -3.828638E-04 +4.518955E-05 +5.606618E-05 +4.518955E-05 +5.061707E-03 -3.351307E-05 +5.606618E-05 -3.351307E-05 +3.482125E-04 
 +4.169876E-05 +7.913739E-05 +2.414039E-04 +7.913739E-05 +4.999941E-03 +4.931945E-05 +2.414039E-04 +4.931945E-05 +1.701474E-04 
 +1.852622E-04 -4.085582E-06 +3.066920E-04 -4.085582E-06 +4.931669E-03 +6.728094E-05 +3.066920E-04 +6.728094E-05 +3.518455E-05 
 +3.509644E-04 -1.070969E-04 +4.100483E-06 -1.070969E-04 +4.878269E-03 +8.364966E-05 +4.100483E-06 +8.364966E-05 -3.975655E-05 
 +3.591223E-04 +5.427216E-05 +2.914913E-05 +5.427216E-05 +4.900268E-03 +7.335777E-05 +2.914913E-05 +7.335777E-05 -1.444317E-04 
 +2.565865E-04 +6.368885E-05 +9.513600E-05 +6.368885E-05 +4.917737E-03 +1.207083E-05 +9.513600E-05 +1.207083E-05 -1.737236E-04 
 +1.806306E-04 +8.006698E-05 +3.133415E-05 +8.006698E-05 +4.943363E-03 -9.134889E-06 +3.133415E-05 -9.134889E-06 -1.923408E-04 
 +1.706076E-04 -1.387978E-04 +9.614414E-05 -1.387978E-04 +4.949157E-03 -1.508655E-05 +9.614414E-05 -1.508655E-05 -3.321983E-04 
 +1.762116E-04 -1.420953E-04 +2.106916E-04 -1.420953E-04 +5.023709E-03 +1.613113E-05 +2.106916E-04 +1.613113E-05 -3.963378E-04 
 +1.354556E-04 -1.231278E-04 +2.413422E-04 -1.231278E-04 +5.115604E-03 +1.687303E-06 +2.413422E-04 +1.687303E-06 -3.725615E-04 
 +6.263700E-05 -8.794013E-05 +2.367911E-04 -8.794013E-05 +5.158424E-03 -1.079079E-04 +2.367911E-04 -1.079079E-04 -4.125965E-04 
 +1.226527E-04 -8.120967E-05 +2.799357E-04 -8.120967E-05 +5.152414E-03 -9.960776E-05 +2.799357E-04 -9.960776E-05 -4.289707E-04 
 +1.465457E-05 -7.203088E-05 -3.411647E-05 -7.203088E-05 +5.129229E-03 -3.578510E-05 -3.411647E-05 -3.578510E-05 -2.835367E-04 
 -1.707114E-04 -1.230943E-04 -5.969567E-05 -1.230943E-04 +5.129193E-03 -4.969671E-05 -5.969567E-05 -4.969671E-05 -7.519539E-05 
 -1.842567E-04 -1.224366E-04 -1.618615E-04 -1.224366E-04 +5.140875E-03 -2.914089E-05 -1.618615E-04 -2.914089E-05 -1.011059E-05 
 -9.548923E-05 -1.388945E-04 +8.807086E-06 -1.388945E-04 +5.100468E-03 -3.298365E-05 +8.807086E-06 -3.298365E-05 -6.514378E-05 
 +6.142584E-05 -1.179187E-04 +1.622432E-04 -1.179187E-04 +5.015806E-03 -2.312639E-05 +1.622432E-04 -2.312639E-05 -7.968887E-05 
 -2.322331E-05 -1.230986E-04 +3.498053E-05 -1.230986E-04 +4.986166E-03 -3.389447E-06 +3.498053E-05 -3.389447E-06 +9.439160E-05 
 -4.782587E-04 +2.432697E-05 +8.100836E-05 +2.432697E-05 +5.051140E-03 -2.505011E-05 +8.100836E-05 -2.505011E-05 +2.676857E-04 
 -3.953565E-04 +1.232599E-04 +1.697228E-04 +1.232599E-04 +5.089008E-03 -8.345157E-05 +1.697228E-04 -8.345157E-05 +3.513216E-04 
 -4.388845E-04 +1.480233E-04 +1.960484E-04 +1.480233E-04 +5.102166E-03 -7.322930E-05 +1.960484E-04 -7.322930E-05 +4.516413E-04 
 -3.416534E-04 +8.230501E-05 +1.130154E-04 +8.230501E-05 +5.129715E-03 +1.155613E-05 +1.130154E-04 +1.155613E-05 +3.723564E-04 
 +2.679305E-05 +1.273878E-04 +2.688640E-04 +1.273878E-04 +5.099344E-03 +7.952983E-05 +2.688640E-04 +7.952983E-05 +2.013871E-04 
 +1.600567E-04 -2.704218E-05 +2.545258E-04 -2.704218E-05 +5.046472E-03 +5.408982E-05 +2.545258E-04 +5.408982E-05 -2.484048E-05 
 +4.073329E-04 -1.300391E-04 -4.747142E-05 -1.300391E-04 +4.992260E-03 +2.659952E-05 -4.747142E-05 +2.659952E-05 -2.417432E-04 
 +4.007132E-04 +7.384507E-05 -8.334067E-05 +7.384507E-05 +4.937232E-03 +3.315424E-05 -8.334067E-05 +3.315424E-05 -2.503587E-04 
 +2.392280E-04 +9.376798E-05 -5.862524E-05 +9.376798E-05 +4.971328E-03 -9.611436E-06 -5.862524E-05 -9.611436E-06 -1.520950E-04 
 +1.502066E-04 +5.642515E-05 -4.891220E-05 +5.642515E-05 +4.970679E-03 -4.238285E-05 -4.891220E-05 -4.238285E-05 -1.488139E-04 
 +1.713450E-04 -1.642420E-04 +4.334794E-05 -1.642420E-04 +4.860410E-03 -4.327747E-05 +4.334794E-05 -4.327747E-05 -2.555895E-04 
 +1.590613E-04 -1.475835E-04 +2.178335E-04 -1.475835E-04 +4.964317E-03 +4.705176E-05 +2.178335E-04 +4.705176E-05 -3.654011E-04 
 +1.359841E-04 -1.202823E-04 +2.613205E-04 -1.202823E-04 +5.080271E-03 +9.557206E-05 +2.613205E-04 +9.557206E-05 -3.491383E-04 
 +3.219641E-05 -5.038476E-05 +1.783565E-04 -5.038476E-05 +5.174508E-03 +6.195422E-05 +1.783565E-04 +6.195422E-05 -3.777851E-04 
 -5.898237E-05 -7.371086E-05 +1.437996E-04 -7.371086E-05 +5.136220E-03 -2.923069E-05 +1.437996E-04 -2.923069E-05 -2.996556E-04 
 -1.591126E-04 -8.794850E-05 -1.312791E-04 -8.794850E-05 +5.075868E-03 -1.118984E-04 -1.312791E-04 -1.118984E-04 -9.860618E-05 
 -1.896655E-04 -1.569513E-04 -8.452390E-05 -1.569513E-04 +5.091886E-03 -1.513027E-04 -8.452390E-05 -1.513027E-04 +2.582428E-05 
 -1.107367E-04 -1.351985E-04 -6.491307E-05 -1.351985E-04 +5.093986E-03 -4.428626E-05 -6.491307E-05 -4.428626E-05 +2.196816E-05 
 -1.124958E-04 -1.167127E-04 -4.393000E-05 -1.167127E-04 +5.082861E-03 -1.718614E-07 -4.393000E-05 -1.718614E-07 -4.591408E-05 
 +2.359511E-05 -1.370748E-04 +1.445291E-04 -1.370748E-04 +5.000848E-03 -8.095202E-05 +1.445291E-04 -8.095202E-05 -3.344679E-05 
 +3.528525E-05 -2.224369E-04 -6.480008E-05 -2.224369E-04 +4.916728E-03 -1.087382E-04 -6.480008E-05 -1.087382E-04 +1.279098E-04 
 -2.987614E-04 -1.530153E-04 +1.297367E-04 -1.530153E-04 +4.956638E-03 -1.030028E-04 +1.297367E-04 -1.030028E-04 +2.498107E-04 
 -4.172125E-04 -5.337128E-05 +2.301723E-04 -5.337128E-05 +5.030664E-03 -3.589260E-05 +2.301723E-04 -3.589260E-05 +3.496520E-04 
 -3.584256E-04 +1.386016E-05 +1.705734E-04 +1.386016E-05 +5.077837E-03 -9.162672E-06 +1.705734E-04 -9.162672E-06 +4.652482E-04 
 -1.829914E-04 -3.116341E-05 +1.468748E-04 -3.116341E-05 +5.129998E-03 -4.810641E-05 +1.468748E-04 -4.810641E-05 +3.611844E-04 
 +4.833730E-05 +3.021715E-05 +2.155666E-04 +3.021715E-05 +5.140345E-03 -7.635088E-05 +2.155666E-04 -7.635088E-05 +2.062133E-04 
 +2.246742E-04 -3.647163E-06 +1.948051E-04 -3.647163E-06 +5.075615E-03 -5.563034E-05 +1.948051E-04 -5.563034E-05 -1.604341E-05 
 +3.578945E-04 -1.188300E-04 -1.624077E-04 -1.188300E-04 +4.962801E-03 +1.779779E-05 -1.624077E-04 +1.779779E-05 -2.851289E-04 
 +3.084824E-04 -1.650668E-05 -1.829165E-04 -1.650668E-05 +4.889422E-03 -1.199725E-05 -1.829165E-04 -1.199725E-05 -2.397187E-04 
 +2.121567E-04 -5.178993E-05 -1.289460E-04 -5.178993E-05 +4.818004E-03 -1.250017E-04 -1.289460E-04 -1.250017E-04 -6.746676E-05 
 +1.795050E-04 -4.912178E-05 -1.148115E-04 -4.912178E-05 +4.784667E-03 -1.352586E-04 -1.148115E-04 -1.352586E-04 -6.177880E-05 
 +9.118900E-05 -9.495212E-05 -1.317834E-05 -9.495212E-05 +4.700205E-03 -1.466203E-04 -1.317834E-05 -1.466203E-04 +4.187583E-05 
 +1.313666E-04 -1.139672E-05 +1.704226E-04 -1.139672E-05 +4.813688E-03 +4.133351E-05 +1.704226E-04 +4.133351E-05 -1.241883E-04 
 +1.803566E-04 +1.501865E-05 +1.405784E-04 +1.501865E-05 +4.894755E-03 +1.399705E-04 +1.405784E-04 +1.399705E-04 -2.403791E-04 
 -1.395514E-05 +7.192575E-05 +1.119022E-04 +7.192575E-05 +5.043340E-03 +8.765523E-05 +1.119022E-04 +8.765523E-05 -1.102811E-04 
 -3.804125E-04 +8.259342E-05 -1.705818E-04 +8.259342E-05 +5.169923E-03 -1.888946E-05 -1.705818E-04 -1.888946E-05 +2.842301E-05 
 -3.349108E-04 +3.012071E-05 -2.056914E-04 +3.012071E-05 +5.154453E-03 -9.663563E-05 -2.056914E-04 -9.663563E-05 +7.206212E-05 
 -2.762952E-04 -9.509266E-05 -1.495845E-04 -9.509266E-05 +5.115383E-03 -1.332986E-04 -1.495845E-04 -1.332986E-04 +1.556339E-04 
 -1.173098E-04 -1.548339E-04 -8.465703E-05 -1.548339E-04 +5.083005E-03 -1.857967E-04 -8.465703E-05 -1.857967E-04 +1.583483E-04 
 +1.135674E-04 -2.412364E-04 -1.175156E-04 -2.412364E-04 +5.041787E-03 -8.780758E-05 -1.175156E-04 -8.780758E-05 +5.642107E-05 
 +7.604960E-05 -2.612324E-04 -2.643105E-05 -2.612324E-04 +4.977158E-03 -8.814514E-05 -2.643105E-05 -8.814514E-05 -1.852079E-05 
 -3.101739E-05 -2.114462E-04 +9.165704E-05 -2.114462E-04 +4.969074E-03 -1.190324E-04 +9.165704E-05 -1.190324E-04 -1.176486E-05 
 -8.919578E-05 -1.518850E-04 +1.586411E-04 -1.518850E-04 +5.044908E-03 -1.182588E-06 +1.586411E-04 -1.182588E-06 +9.677998E-05 
 -2.602035E-04 -1.277357E-04 +2.785549E-04 -1.277357E-04 +5.022081E-03 +4.090167E-05 +2.785549E-04 +4.090167E-05 +2.225239E-04 
 -6.535997E-05 +5.810337E-05 +2.987646E-05 +5.810337E-05 +4.933369E-03 -9.808752E-06 +2.987646E-05 -9.808752E-06 +3.620101E-04 
 +1.772368E-05 +8.808524E-05 +8.779461E-05 +8.808524E-05 +4.857664E-03 -4.470417E-05 +8.779461E-05 -4.470417E-05 +4.228171E-04 
 +1.666538E-04 +2.300261E-04 +7.631770E-05 +2.300261E-04 +4.782736E-03 -9.832996E-06 +7.631770E-05 -9.832996E-06 +2.209674E-04 
 +3.329734E-04 +2.270081E-04 +1.583454E-04 +2.270081E-04 +4.885635E-03 +5.298488E-05 +1.583454E-04 +5.298488E-05 -5.541885E-05 
 +8.214853E-06 -5.272880E-05 -1.924744E-04 -5.272880E-05 +4.956254E-03 +5.810802E-05 -1.924744E-04 +5.810802E-05 -1.387372E-04 
 +1.713757E-04 -1.022753E-04 -5.598219E-05 -1.022753E-04 +4.798448E-03 -3.868875E-05 -5.598219E-05 -3.868875E-05 -7.061684E-05 
 +1.581021E-04 -1.125774E-04 -6.136033E-06 -1.125774E-04 +4.714745E-03 -1.145052E-04 -6.136033E-06 -1.145052E-04 +3.278236E-05 
 +1.211394E-04 -8.871579E-05 -6.694912E-05 -8.871579E-05 +4.686661E-03 -1.743963E-04 -6.694912E-05 -1.743963E-04 +7.004020E-05 
 +1.593018E-04 +1.338608E-04 +7.843442E-05 +1.338608E-04 +4.818615E-03 -8.913585E-06 +7.843442E-05 -8.913585E-06 -6.000736E-06 
 +1.264029E-04 +9.402490E-05 +1.618783E-04 +9.402490E-05 +4.933356E-03 +7.021087E-05 +1.618783E-04 +7.021087E-05 -1.796186E-04 
 +1.753305E-04 +9.842209E-05 +8.343697E-05 +9.842209E-05 +4.980320E-03 +9.357612E-05 +8.343697E-05 +9.357612E-05 -2.814003E-04 
 -4.560506E-05 +4.837712E-05 -4.264626E-07 +4.837712E-05 +5.050234E-03 +1.943664E-05 -4.264626E-07 +1.943664E-05 -1.415636E-04 
 -4.857577E-04 -2.966931E-05 -1.974587E-04 -2.966931E-05 +5.122846E-03 -6.320660E-05 -1.974587E-04 -6.320660E-05 +7.610726E-05 
 -4.336837E-04 -2.067282E-05 -1.804720E-04 -2.067282E-05 +5.149832E-03 -5.714443E-05 -1.804720E-04 -5.714443E-05 +2.234146E-04 
 -3.808641E-04 -5.417445E-05 -1.090621E-04 -5.417445E-05 +5.141978E-03 -8.920885E-05 -1.090621E-04 -8.920885E-05 +2.390036E-04 
 -2.860287E-04 -6.734204E-05 -5.938446E-05 -6.734204E-05 +5.128019E-03 -1.400726E-04 -5.938446E-05 -1.400726E-04 +1.991315E-04 
 +6.859682E-05 -2.100901E-04 +1.026876E-06 -2.100901E-04 +5.030121E-03 -1.668184E-04 +1.026876E-06 -1.668184E-04 +1.730358E-05 
 +4.717130E-05 -2.660274E-04 -8.808476E-05 -2.660274E-04 +4.987799E-03 -1.095711E-04 -8.808476E-05 -1.095711E-04 -1.035396E-04 
 +2.928536E-06 -1.597482E-04 +1.562782E-04 -1.597482E-04 +5.043658E-03 -1.565477E-05 +1.562782E-04 -1.565477E-05 -5.299929E-05 
 -5.472968E-05 -6.517663E-05 +2.206170E-04 -6.517663E-05 +5.056519E-03 +1.646834E-05 +2.206170E-04 +1.646834E-05 +1.304630E-05 
 -4.885231E-05 -7.650848E-05 +2.460213E-04 -7.650848E-05 +5.013185E-03 -3.361747E-05 +2.460213E-04 -3.361747E-05 +6.574744E-05 
 +1.068916E-04 +6.813076E-05 -6.066654E-05 +6.813076E-05 +4.895512E-03 -8.714876E-05 -6.066654E-05 -8.714876E-05 +2.700333E-04 
 +1.991964E-04 +9.021738E-05 -2.095201E-05 +9.021738E-05 +4.754079E-03 -1.105568E-04 -2.095201E-05 -1.105568E-04 +4.091836E-04 
 +3.142880E-04 +1.447743E-04 -2.791455E-05 +1.447743E-04 +4.686594E-03 -7.934791E-05 -2.791455E-05 -7.934791E-05 +2.661290E-04 
 +3.342369E-04 +1.966853E-04 +1.474854E-04 +1.966853E-04 +4.774115E-03 -1.746251E-05 +1.474854E-04 -1.746251E-05 +1.230468E-04 
 -8.772711E-05 -4.283673E-05 -1.466198E-04 -4.283673E-05 +5.000486E-03 +6.851648E-05 -1.466198E-04 +6.851648E-05 +3.687680E-05 
 +5.552263E-05 -9.067601E-05 -9.477641E-05 -9.067601E-05 +5.008038E-03 +9.326390E-05 -9.477641E-05 +9.326390E-05 -3.006573E-06 
 +1.172839E-04 -2.257586E-05 -6.222517E-05 -2.257586E-05 +4.822490E-03 -1.097017E-06 -6.222517E-05 -1.097017E-06 +5.978672E-05 
 +1.161371E-04 -3.494571E-06 -1.488976E-04 -3.494571E-06 +4.720441E-03 -7.290964E-05 -1.488976E-04 -7.290964E-05 +3.921964E-05 
 +2.022327E-04 +1.791776E-04 +5.114643E-05 +1.791776E-04 +5.003947E-03 +6.666565E-05 +5.114643E-05 +6.666565E-05 -1.776922E-04 
 +1.048567E-04 +1.750888E-04 +1.782778E-04 +1.750888E-04 +5.029018E-03 +1.008640E-04 +1.782778E-04 +1.008640E-04 -2.915181E-04 
 +3.785984E-05 +1.462151E-04 +1.361575E-05 +1.462151E-04 +5.126868E-03 +8.242374E-05 +1.361575E-05 +8.242374E-05 -3.057654E-04 
 -2.752117E-04 +3.699947E-05 -1.568080E-04 +3.699947E-05 +5.147846E-03 -1.196821E-05 -1.568080E-04 -1.196821E-05 -1.083661E-04 
 -4.444255E-04 -4.738323E-06 -1.930593E-04 -4.738323E-06 +5.130039E-03 -2.902653E-05 -1.930593E-04 -2.902653E-05 +1.406145E-04 
 -4.405513E-04 -2.841110E-05 -1.598945E-04 -2.841110E-05 +5.110977E-03 -3.672434E-05 -1.598945E-04 -3.672434E-05 +2.764647E-04 
 -4.122234E-04 -1.370306E-05 -1.002557E-04 -1.370306E-05 +5.118977E-03 -7.883492E-05 -1.002557E-04 -7.883492E-05 +3.121532E-04 
 -3.303932E-04 -4.407445E-05 -8.156035E-05 -4.407445E-05 +5.108397E-03 -9.332300E-05 -8.156035E-05 -9.332300E-05 +1.857083E-04 
 -6.143880E-05 -1.197717E-04 -2.682695E-05 -1.197717E-04 +5.117777E-03 -4.150515E-05 -2.682695E-05 -4.150515E-05 -5.992699E-05 
 +2.115234E-05 -1.292349E-04 -8.654237E-05 -1.292349E-04 +5.124811E-03 -1.076866E-05 -8.654237E-05 -1.076866E-05 -9.873759E-05 
 +2.164449E-05 -4.378548E-05 +4.058552E-05 -4.378548E-05 +5.066008E-03 -7.391118E-06 +4.058552E-05 -7.391118E-06 -7.766002E-06 
 +8.837151E-05 +1.232449E-05 +1.645275E-04 +1.232449E-05 +4.992749E-03 -5.159356E-05 +1.645275E-04 -5.159356E-05 -2.127539E-05 
 +1.550153E-04 +1.330683E-05 +1.432175E-04 +1.330683E-05 +4.882715E-03 -1.356042E-04 +1.432175E-04 -1.356042E-04 -2.085253E-05 
 +2.342861E-04 +1.241476E-04 -2.455988E-05 +1.241476E-04 +4.742056E-03 -1.607611E-04 -2.455988E-05 -1.607611E-04 +1.635195E-04 
 +2.291065E-04 +1.265802E-04 -1.524740E-05 +1.265802E-04 +4.679642E-03 -1.530656E-04 -1.524740E-05 -1.530656E-04 +2.871340E-04 
 +2.658897E-04 +1.337362E-04 -1.957639E-05 +1.337362E-04 +4.687900E-03 -1.404053E-04 -1.957639E-05 -1.404053E-04 +2.540546E-04 
 +2.761940E-04 +1.907785E-04 +1.131207E-04 +1.907785E-04 +4.661809E-03 -1.558939E-04 +1.131207E-04 -1.558939E-04 +2.282781E-04 
 +1.450036E-04 +4.844679E-05 +3.955662E-06 +4.844679E-05 +4.771207E-03 -1.255521E-04 +3.955662E-06 -1.255521E-04 +1.799675E-04 
 +3.400351E-05 -9.044912E-05 -1.782741E-04 -9.044912E-05 +4.950326E-03 -1.619297E-07 -1.782741E-04 -1.619297E-07 +2.472400E-05 
 +5.944842E-05 +3.514568E-05 -2.136166E-04 +3.514568E-05 +5.034277E-03 +1.343204E-04 -2.136166E-04 +1.343204E-04 -7.707277E-05 
 +8.913080E-05 +2.979099E-05 -3.787184E-04 +2.979099E-05 +5.070672E-03 +1.553416E-04 -3.787184E-04 +1.553416E-04 -1.186020E-04 
 +1.832142E-04 -4.502926E-05 -6.857791E-05 -4.502926E-05 +5.243695E-03 +1.965488E-04 -6.857791E-05 +1.965488E-04 -4.652389E-04 
 +1.671635E-04 +3.996851E-05 +1.965066E-04 +3.996851E-05 +5.229317E-03 +4.858944E-05 +1.965066E-04 +4.858944E-05 -4.175103E-04 
 -4.862371E-05 +6.351113E-05 -1.085045E-04 +6.351113E-05 +5.268357E-03 -2.666969E-05 -1.085045E-04 -2.666969E-05 -3.343089E-04 
 -3.600490E-04 +6.275768E-05 -2.419462E-04 +6.275768E-05 +5.244534E-03 -3.792752E-05 -2.419462E-04 -3.792752E-05 -1.914143E-04 
 -4.364111E-04 +3.251054E-05 -2.042101E-04 +3.251054E-05 +5.182591E-03 -5.469759E-05 -2.042101E-04 -5.469759E-05 +1.008854E-04 
 -4.388015E-04 +6.874371E-06 -1.164962E-04 +6.874371E-06 +5.108273E-03 -5.022286E-05 -1.164962E-04 -5.022286E-05 +2.626478E-04 
 -4.548509E-04 +2.649755E-05 -1.043770E-04 +2.649755E-05 +5.079015E-03 -5.571836E-05 -1.043770E-04 -5.571836E-05 +3.629962E-04 
 -2.384697E-04 +9.949813E-06 -7.864228E-05 +9.949813E-06 +5.070140E-03 -4.624697E-05 -7.864228E-05 -4.624697E-05 +2.018393E-04 
 -2.019446E-05 +4.209343E-05 -7.470946E-05 +4.209343E-05 +5.015720E-03 -5.882835E-05 -7.470946E-05 -5.882835E-05 -4.301983E-05 
 -9.908588E-06 +8.030483E-05 -8.657450E-05 +8.030483E-05 +4.974784E-03 -9.238371E-05 -8.657450E-05 -9.238371E-05 -2.907760E-05 
 +2.129646E-05 +1.088224E-04 -3.840583E-05 +1.088224E-04 +4.858072E-03 -8.274755E-05 -3.840583E-05 -8.274755E-05 +1.999937E-05 
 +2.124757E-04 +1.894951E-04 +4.662362E-05 +1.894951E-04 +4.692075E-03 -1.237766E-04 +4.662362E-05 -1.237766E-04 +1.048634E-05 
 +2.540870E-04 +1.228756E-04 +9.553242E-06 +1.228756E-04 +4.679215E-03 -1.536519E-04 +9.553242E-06 -1.536519E-04 +3.178765E-05 
 +2.228619E-04 +1.057277E-04 -2.002638E-05 +1.057277E-04 +4.735177E-03 -1.282165E-04 -2.002638E-05 -1.282165E-04 +1.128921E-04 
 +1.932720E-04 +1.074613E-04 -1.805324E-05 +1.074613E-04 +4.742345E-03 -1.199543E-04 -1.805324E-05 -1.199543E-04 +1.681911E-04 
 +1.936729E-04 +1.239925E-04 -2.348508E-05 +1.239925E-04 +4.711626E-03 -1.406630E-04 -2.348508E-05 -1.406630E-04 +1.954213E-04 
 +2.371053E-04 +1.687261E-04 -1.905181E-05 +1.687261E-04 +4.598694E-03 -1.983997E-04 -1.905181E-05 -1.983997E-04 +2.392950E-04 
 +2.772812E-04 +1.438295E-04 -3.750962E-05 +1.438295E-04 +4.577183E-03 -2.263517E-04 -3.750962E-05 -2.263517E-04 +2.611337E-04 
 -5.771543E-06 -1.182658E-04 -1.459807E-04 -1.182658E-04 +4.835966E-03 -8.812769E-05 -1.459807E-04 -8.812769E-05 +1.312372E-04 
 -2.726575E-05 -1.101605E-04 -1.853738E-04 -1.101605E-04 +5.095445E-03 +1.104598E-04 -1.853738E-04 +1.104598E-04 -1.328042E-04 
 +7.775624E-05 -1.304256E-04 -4.582446E-04 -1.304256E-04 +5.228118E-03 +2.309576E-04 -4.582446E-04 +2.309576E-04 -3.315569E-04 
 +1.578211E-04 -1.920489E-04 -8.207560E-05 -1.920489E-04 +5.245328E-03 +2.541869E-04 -8.207560E-05 +2.541869E-04 -5.011722E-04 
 +1.403295E-04 -1.337723E-04 +4.602210E-05 -1.337723E-04 +5.229162E-03 +9.883903E-05 +4.602210E-05 +9.883903E-05 -4.569042E-04 
 +1.392542E-04 -9.795861E-05 -8.045957E-05 -9.795861E-05 +5.197854E-03 -3.361751E-05 -8.045957E-05 -3.361751E-05 -4.095829E-04 
 -2.102212E-04 +4.369307E-06 -2.288169E-04 +4.369307E-06 +5.227483E-03 -6.255805E-05 -2.288169E-04 -6.255805E-05 -2.689476E-04 
 -3.482081E-04 +7.538208E-05 -2.314933E-04 +7.538208E-05 +5.196927E-03 -1.069306E-04 -2.314933E-04 -1.069306E-04 +6.632638E-05 
 -4.396656E-04 +1.087535E-04 -1.279552E-04 +1.087535E-04 +5.139546E-03 -1.071828E-04 -1.279552E-04 -1.071828E-04 +2.881822E-04 
 -4.705581E-04 +1.495533E-04 -1.920382E-04 +1.495533E-04 +5.029421E-03 -1.080049E-04 -1.920382E-04 -1.080049E-04 +3.710018E-04 
 -8.279630E-05 +1.637307E-04 -5.961764E-05 +1.637307E-04 +4.923377E-03 -1.204860E-04 -5.961764E-05 -1.204860E-04 +2.451569E-04 
 -6.166808E-06 +1.332904E-04 -9.516120E-05 +1.332904E-04 +4.940896E-03 -1.375315E-04 -9.516120E-05 -1.375315E-04 +7.242425E-05 
 -2.501265E-05 +8.778821E-05 -3.120605E-05 +8.778821E-05 +4.927045E-03 -9.903414E-05 -3.120605E-05 -9.903414E-05 -6.041367E-07 
 +5.056512E-05 +9.268449E-05 -4.762281E-05 +9.268449E-05 +4.863106E-03 -2.155940E-05 -4.762281E-05 -2.155940E-05 -3.949185E-05 
 +1.908347E-04 +1.214411E-04 -5.600942E-05 +1.214411E-04 +4.766839E-03 -2.805344E-05 -5.600942E-05 -2.805344E-05 -1.145358E-05 
 +2.052134E-04 +1.087179E-04 -7.911310E-05 +1.087179E-04 +4.728786E-03 -5.496385E-05 -7.911310E-05 -5.496385E-05 +2.660889E-05 
 +1.930750E-04 +9.262581E-05 -6.673142E-05 +9.262581E-05 +4.762497E-03 -7.965034E-05 -6.673142E-05 -7.965034E-05 +5.667616E-05 
 +1.939684E-04 +1.237162E-04 -2.702487E-05 +1.237162E-04 +4.767178E-03 -8.741278E-05 -2.702487E-05 -8.741278E-05 +9.334349E-05 
 +1.943411E-04 +1.478600E-04 -5.452324E-05 +1.478600E-04 +4.740701E-03 -8.691195E-05 -5.452324E-05 -8.691195E-05 +1.609141E-04 
 +1.555382E-04 +1.351148E-04 -9.294471E-05 +1.351148E-04 +4.667578E-03 -1.032738E-04 -9.294471E-05 -1.032738E-04 +2.580156E-04 
 +7.778150E-05 +8.856788E-05 -5.851728E-05 +8.856788E-05 +4.671922E-03 -1.045439E-04 -5.851728E-05 -1.045439E-04 +2.462860E-04 
 -1.527707E-04 -1.440766E-04 +1.313540E-04 -1.440766E-04 +4.863347E-03 +1.808867E-05 +1.313540E-04 +1.808867E-05 +2.062769E-04 
 -9.051593E-05 -2.148431E-04 +5.135362E-05 -2.148431E-04 +5.091020E-03 +1.621881E-04 +5.135362E-05 +1.621881E-04 -4.083103E-05 
 +1.270541E-04 -2.385727E-04 -2.730922E-04 -2.385727E-04 +5.189953E-03 +2.392970E-04 -2.730922E-04 +2.392970E-04 -3.894863E-04 
 +1.454959E-04 -1.468745E-04 -5.894935E-05 -1.468745E-04 +5.152684E-03 +1.366661E-04 -5.894935E-05 +1.366661E-04 -4.006374E-04 
 +1.238803E-04 -1.061041E-04 -6.054187E-05 -1.061041E-04 +5.167051E-03 +8.477351E-05 -6.054187E-05 +8.477351E-05 -4.189118E-04 
 +1.974358E-04 -9.728798E-05 -6.492659E-05 -9.728798E-05 +5.136161E-03 -3.596570E-06 -6.492659E-05 -3.596570E-06 -4.309406E-04 
 +1.067478E-04 -8.981675E-05 -1.556425E-04 -8.981675E-05 +5.115100E-03 -5.056766E-05 -1.556425E-04 -5.056766E-05 -3.047908E-04 
 -1.241701E-04 -1.888652E-05 -2.433216E-04 -1.888652E-05 +5.130949E-03 -7.303124E-05 -2.433216E-04 -7.303124E-05 +4.106148E-05 
 -3.159076E-04 +9.192115E-05 -6.266453E-05 +9.192115E-05 +5.124685E-03 -8.592703E-05 -6.266453E-05 -8.592703E-05 +2.656645E-04 
 -3.325014E-04 +1.860732E-04 -1.828267E-04 +1.860732E-04 +5.061969E-03 -6.339780E-05 -1.828267E-04 -6.339780E-05 +2.360060E-04 
 -7.247922E-05 +2.605623E-04 -4.742486E-05 +2.605623E-04 +5.015023E-03 -8.936359E-05 -4.742486E-05 -8.936359E-05 +1.564418E-04 
 -1.046601E-04 +2.087389E-04 -1.380148E-04 +2.087389E-04 +5.030102E-03 -1.370389E-04 -1.380148E-04 -1.370389E-04 +1.356099E-04 
 -5.109658E-05 +9.720474E-05 -5.204988E-05 +9.720474E-05 +5.008415E-03 -1.128140E-04 -5.204988E-05 -1.128140E-04 +6.812198E-05 
 +2.087967E-05 +6.988846E-05 -6.167054E-05 +6.988846E-05 +4.945015E-03 -3.965282E-05 -6.167054E-05 -3.965282E-05 -5.827321E-05 
 +6.054157E-05 +2.943380E-05 -1.142997E-04 +2.943380E-05 +4.879149E-03 -3.131376E-05 -1.142997E-04 -3.131376E-05 -8.955663E-05 
 +1.961020E-04 +9.675547E-05 -8.941265E-05 +9.675547E-05 +4.805898E-03 -2.492144E-05 -8.941265E-05 -2.492144E-05 -6.025253E-05 
 +2.246781E-04 +8.662824E-05 -5.926341E-05 +8.662824E-05 +4.770067E-03 -2.874458E-06 -5.926341E-05 -2.874458E-06 -3.937178E-05 
 +2.138349E-04 +1.264595E-04 -3.008892E-05 +1.264595E-04 +4.749662E-03 -2.149766E-05 -3.008892E-05 -2.149766E-05 -2.176429E-05 
 +1.565035E-04 +1.360434E-04 -5.370744E-05 +1.360434E-04 +4.830597E-03 +6.132634E-06 -5.370744E-05 +6.132634E-06 +1.410243E-04 
 -1.063312E-04 +2.071937E-05 -1.836193E-05 +2.071937E-05 +4.991199E-03 +1.072211E-04 -1.836193E-05 +1.072211E-04 +2.873600E-04 
 -1.904752E-04 -2.984208E-05 +8.292245E-06 -2.984208E-05 +5.001887E-03 +1.800943E-04 +8.292245E-06 +1.800943E-04 +1.871155E-04 
 -2.080721E-04 -6.582163E-05 +2.791620E-04 -6.582163E-05 +4.985205E-03 +2.069640E-04 +2.791620E-04 +2.069640E-04 +1.735431E-04 
 -9.395745E-05 -1.105577E-04 +2.010083E-04 -1.105577E-04 +5.067391E-03 +1.938503E-04 +2.010083E-04 +1.938503E-04 -2.418742E-05 
 +1.535415E-04 -1.891540E-04 -1.561398E-04 -1.891540E-04 +5.123008E-03 +1.633179E-04 -1.561398E-04 +1.633179E-04 -3.555398E-04 
 +1.430491E-04 -1.031531E-04 -8.667921E-05 -1.031531E-04 +5.100350E-03 +8.114191E-05 -8.667921E-05 +8.114191E-05 -3.668100E-04 
 +1.601235E-04 -8.031114E-05 -8.158715E-05 -8.031114E-05 +5.107640E-03 +4.500509E-05 -8.158715E-05 +4.500509E-05 -3.845373E-04 
 +1.735486E-04 -4.841832E-05 -8.574832E-05 -4.841832E-05 +5.108666E-03 +1.595395E-05 -8.574832E-05 +1.595395E-05 -4.102694E-04 
 +2.286725E-04 -6.154928E-05 -8.739895E-05 -6.154928E-05 +5.096788E-03 +8.237441E-07 -8.739895E-05 +8.237441E-07 -3.696533E-04 
 +9.463017E-05 -9.742774E-05 -1.527526E-04 -9.742774E-05 +5.103929E-03 -6.784652E-06 -1.527526E-04 -6.784652E-06 -1.354978E-04 
 -8.731958E-05 -3.042079E-05 +1.993161E-04 -3.042079E-05 +5.136333E-03 -1.837134E-06 +1.993161E-04 -1.837134E-06 +7.601369E-06 
 -1.810700E-04 +6.448324E-06 +4.129493E-05 +6.448324E-06 +5.175979E-03 -1.406137E-05 +4.129493E-05 -1.406137E-05 -9.075141E-05 
 -1.148340E-04 +6.880182E-05 -1.591451E-05 +6.880182E-05 +5.189537E-03 -5.544038E-05 -1.591451E-05 -5.544038E-05 -7.437225E-05 
 -8.552756E-05 +7.402876E-05 -1.503806E-04 +7.402876E-05 +5.097451E-03 -9.083158E-05 -1.503806E-04 -9.083158E-05 +8.016582E-05 
 -8.480477E-05 +3.539011E-05 -1.090506E-04 +3.539011E-05 +5.020355E-03 -8.081825E-05 -1.090506E-04 -8.081825E-05 +1.200242E-04 
 -7.286415E-05 +2.093206E-05 -4.877795E-05 +2.093206E-05 +5.013504E-03 -2.731959E-06 -4.877795E-05 -2.731959E-06 -1.309352E-05 
 -6.264752E-06 -7.975504E-06 -1.131844E-04 -7.975504E-06 +4.962132E-03 +2.235693E-05 -1.131844E-04 +2.235693E-05 -1.963721E-04 
 +2.107511E-04 +7.933242E-05 -5.284064E-05 +7.933242E-05 +4.865367E-03 +2.413903E-06 -5.284064E-05 +2.413903E-06 -2.244755E-04 
 +1.668234E-04 +1.049052E-04 -3.775799E-05 +1.049052E-04 +4.883874E-03 +1.679840E-05 -3.775799E-05 +1.679840E-05 -1.624434E-04 
 +1.350835E-04 +4.126707E-05 -5.949285E-05 +4.126707E-05 +5.048166E-03 +2.147458E-05 -5.949285E-05 +2.147458E-05 -1.712837E-04 
 +8.259407E-05 +3.346557E-05 -1.730700E-05 +3.346557E-05 +5.110367E-03 +4.411722E-05 -1.730700E-05 +4.411722E-05 +1.123091E-05 
 -2.750067E-04 +2.560717E-05 +6.672666E-05 +2.560717E-05 +5.083330E-03 +6.240392E-05 +6.672666E-05 +6.240392E-05 +2.324175E-04 
 -3.024759E-04 +1.207759E-05 +2.184364E-05 +1.207759E-05 +5.047918E-03 +9.185979E-05 +2.184364E-05 +9.185979E-05 +1.801337E-04 
 -2.204707E-04 +3.403061E-05 +2.073563E-04 +3.403061E-05 +5.006848E-03 +1.624732E-04 +2.073563E-04 +1.624732E-04 +1.628040E-04 
 -1.138418E-04 -2.787999E-05 +1.791894E-04 -2.787999E-05 +5.033030E-03 +1.587224E-04 +1.791894E-04 +1.587224E-04 -3.176752E-05 
 +1.492955E-04 -1.498280E-04 -1.749852E-04 -1.498280E-04 +5.083024E-03 +1.053452E-04 -1.749852E-04 +1.053452E-04 -3.208042E-04 
 +1.572665E-04 -8.023752E-05 -1.212698E-04 -8.023752E-05 +5.080693E-03 +2.086949E-05 -1.212698E-04 +2.086949E-05 -3.499258E-04 
 +1.858998E-04 -4.427256E-05 -1.020799E-04 -4.427256E-05 +5.073323E-03 +2.806564E-06 -1.020799E-04 +2.806564E-06 -3.809207E-04 
 +2.222328E-04 -1.895118E-05 -7.512405E-05 -1.895118E-05 +5.078843E-03 -3.636405E-06 -7.512405E-05 -3.636405E-06 -4.029786E-04 
 +2.253728E-04 -2.325455E-05 -5.514631E-05 -2.325455E-05 +5.100317E-03 -3.707204E-06 -5.514631E-05 -3.707204E-06 -3.857509E-04 
 +1.714314E-04 -6.090495E-05 -8.541058E-05 -6.090495E-05 +5.125992E-03 -3.111604E-06 -8.541058E-05 -3.111604E-06 -2.404768E-04 
 +6.967128E-05 -5.311445E-05 +3.399635E-04 -5.311445E-05 +5.180920E-03 -1.290860E-05 +3.399635E-04 -1.290860E-05 -1.605006E-04 
 -5.243068E-05 -6.715491E-05 +1.880247E-04 -6.715491E-05 +5.163312E-03 -3.161561E-06 +1.880247E-04 -3.161561E-06 -2.075601E-04 
 -4.561330E-05 +3.681169E-05 +5.518032E-05 +3.681169E-05 +5.030211E-03 +5.187992E-05 +5.518032E-05 +5.187992E-05 -1.006429E-04 
 -3.368504E-05 +4.641369E-05 -4.278158E-05 +4.641369E-05 +4.995098E-03 +6.047360E-05 -4.278158E-05 +6.047360E-05 -8.902181E-06 
 -1.204290E-04 +7.759310E-06 -4.955441E-05 +7.759310E-06 +5.060289E-03 +3.974068E-06 -4.955441E-05 +3.974068E-06 -4.336283E-05 
 -9.592991E-05 -1.804596E-05 +2.624525E-05 -1.804596E-05 +5.075795E-03 +1.603730E-05 +2.624525E-05 +1.603730E-05 -1.730853E-04 
 -3.676281E-05 +2.101519E-06 -6.295114E-05 +2.101519E-06 +5.131208E-03 +6.097216E-05 -6.295114E-05 +6.097216E-05 -4.299516E-04 
 +9.835838E-05 -8.808131E-06 -7.278220E-06 -8.808131E-06 +5.233231E-03 +3.753502E-05 -7.278220E-06 +3.753502E-05 -5.180834E-04 
 +6.458586E-05 +1.652271E-05 +4.809913E-06 +1.652271E-05 +5.243882E-03 +3.105134E-05 +4.809913E-06 +3.105134E-05 -3.702981E-04 
 +3.358063E-05 +2.430005E-05 -2.557730E-05 +2.430005E-05 +5.192840E-03 +4.246142E-05 -2.557730E-05 +4.246142E-05 -2.807741E-04 
 +5.868342E-05 -1.510566E-06 +2.029130E-05 -1.510566E-06 +5.149578E-03 +3.551607E-05 +2.029130E-05 +3.551607E-05 -1.489580E-04 
 -2.179941E-04 +1.918642E-05 +5.925363E-05 +1.918642E-05 +5.103401E-03 +2.599717E-05 +5.925363E-05 +2.599717E-05 +9.668462E-05 
 -3.432713E-04 +3.930315E-05 +2.887702E-05 +3.930315E-05 +5.064710E-03 +2.977529E-05 +2.887702E-05 +2.977529E-05 +1.525124E-04 
 -2.884416E-04 +7.781644E-05 +1.817655E-04 +7.781644E-05 +5.042557E-03 +5.864289E-05 +1.817655E-04 +5.864289E-05 +1.576990E-04 
 -1.639204E-04 +5.397741E-05 +1.541708E-04 +5.397741E-05 +5.047961E-03 +4.851784E-05 +1.541708E-04 +4.851784E-05 -1.591603E-05 
 +1.114739E-04 -9.833520E-05 -2.055071E-04 -9.833520E-05 +5.076215E-03 +2.782913E-05 -2.055071E-04 +2.782913E-05 -2.908631E-04 
 +1.758740E-04 -6.220510E-05 -1.665075E-04 -6.220510E-05 +5.039162E-03 -8.454793E-06 -1.665075E-04 -8.454793E-06 -3.333793E-04 
 +2.204652E-04 -2.673388E-05 -1.185550E-04 -2.673388E-05 +5.029950E-03 -1.822191E-05 -1.185550E-04 -1.822191E-05 -3.701429E-04 
 +2.330700E-04 +8.099033E-07 -6.616546E-05 +8.099033E-07 +5.033595E-03 -1.057719E-05 -6.616546E-05 -1.057719E-05 -3.748243E-04 
 +2.472560E-04 -4.537998E-06 -4.505980E-05 -4.537998E-06 +5.066745E-03 -4.735313E-06 -4.505980E-05 -4.735313E-06 -3.546992E-04 
 +1.713105E-04 -4.836876E-05 -1.057855E-04 -4.836876E-05 +5.136582E-03 +8.150198E-07 -1.057855E-04 +8.150198E-07 -2.326854E-04 
 +1.097867E-04 -6.699823E-05 +2.009448E-04 -6.699823E-05 +5.181109E-03 -2.930735E-05 +2.009448E-04 -2.930735E-05 -1.694701E-04 
 +7.004703E-05 -1.762782E-04 +1.066237E-04 -1.762782E-04 +5.216760E-03 -6.143338E-05 +1.066237E-04 -6.143338E-05 -1.707765E-04 
 +7.340269E-06 -1.687756E-04 +5.547375E-05 -1.687756E-04 +5.252968E-03 -2.045849E-05 +5.547375E-05 -2.045849E-05 -1.040045E-04 
 -3.258121E-05 -1.360489E-04 +5.517340E-07 -1.360489E-04 +5.233651E-03 +4.895634E-05 +5.517340E-07 +4.895634E-05 -1.680295E-04 
 -9.980408E-05 -1.149039E-04 +1.645778E-05 -1.149039E-04 +5.234892E-03 +1.276905E-04 +1.645778E-05 +1.276905E-04 -3.388379E-04 
 -4.616191E-05 -8.928055E-05 +4.579747E-05 -8.928055E-05 +5.330393E-03 +1.662588E-04 +4.579747E-05 +1.662588E-04 -5.303038E-04 
 -7.306166E-05 -4.483143E-05 +3.335584E-05 -4.483143E-05 +5.421322E-03 +1.955695E-04 +3.335584E-05 +1.955695E-04 -7.304031E-04 
 -7.049666E-05 -5.826387E-05 +7.191583E-05 -5.826387E-05 +5.404816E-03 +1.791677E-04 +7.191583E-05 +1.791677E-04 -7.613568E-04 
 +1.844988E-05 -3.956293E-05 +9.205469E-05 -3.956293E-05 +5.303224E-03 +1.149779E-04 +9.205469E-05 +1.149779E-04 -6.035763E-04 
 +3.448127E-05 +5.992404E-06 +3.821785E-05 +5.992404E-06 +5.225773E-03 +1.049870E-04 +3.821785E-05 +1.049870E-04 -3.816243E-04 
 -3.867803E-05 -3.481819E-05 -1.634218E-05 -3.481819E-05 +5.199703E-03 +4.474114E-05 -1.634218E-05 +4.474114E-05 -1.918817E-04 
 -9.850983E-05 -5.195855E-05 +3.086540E-05 -5.195855E-05 +5.166085E-03 -3.500240E-05 +3.086540E-05 -3.500240E-05 -7.645987E-05 
 -3.126951E-04 +1.795449E-05 +3.682796E-05 +1.795449E-05 +5.151338E-03 -3.626769E-05 +3.682796E-05 -3.626769E-05 -1.128352E-05 
 -3.786186E-04 +6.178893E-05 +1.415027E-04 +6.178893E-05 +5.136856E-03 -1.449895E-05 +1.415027E-04 -1.449895E-05 +4.822542E-05 
 -2.346987E-04 +2.979980E-05 +1.327466E-04 +2.979980E-05 +5.097371E-03 -1.158427E-05 +1.327466E-04 -1.158427E-05 -6.974152E-05 
 +9.730127E-05 -1.060298E-04 -2.562112E-04 -1.060298E-04 +5.060393E-03 -6.121255E-06 -2.562112E-04 -6.121255E-06 -2.678100E-04 
 +1.774576E-04 -3.399232E-05 -1.808532E-04 -3.399232E-05 +5.011652E-03 -1.059060E-05 -1.808532E-04 -1.059060E-05 -2.981681E-04 
 +2.179319E-04 -8.368630E-06 -1.305321E-04 -8.368630E-06 +4.983924E-03 -7.490064E-06 -1.305321E-04 -7.490064E-06 -3.269226E-04 
 +2.269115E-04 +4.975771E-06 -5.467421E-05 +4.975771E-06 +4.981152E-03 -1.400798E-05 -5.467421E-05 -1.400798E-05 -3.087096E-04 
 +1.906606E-04 -3.195477E-06 -1.004193E-05 -3.195477E-06 +5.021215E-03 -4.227715E-06 -1.004193E-05 -4.227715E-06 -2.592293E-04 
 +1.404774E-04 -5.757337E-05 -3.358112E-05 -5.757337E-05 +5.147164E-03 +4.618217E-05 -3.358112E-05 +4.618217E-05 -1.190900E-04 
 +1.569530E-04 -1.403180E-04 +3.382252E-05 -1.403180E-04 +5.212837E-03 +3.546420E-05 +3.382252E-05 +3.546420E-05 -1.020839E-04 
 +1.368543E-04 -1.868979E-04 -1.062338E-04 -1.868979E-04 +5.194932E-03 -5.737581E-05 -1.062338E-04 -5.737581E-05 -2.053801E-04 
 +2.647006E-05 -1.500914E-04 -1.155611E-04 -1.500914E-04 +5.230119E-03 -8.079867E-05 -1.155611E-04 -8.079867E-05 -2.227410E-04 
 -3.466667E-05 -1.353783E-04 -1.365265E-04 -1.353783E-04 +5.280808E-03 -2.730955E-05 -1.365265E-04 -2.730955E-05 -2.681317E-04 
 -9.080943E-05 -1.479099E-04 -1.280699E-04 -1.479099E-04 +5.304405E-03 +5.718973E-05 -1.280699E-04 +5.718973E-05 -3.624820E-04 
 -8.639021E-05 -1.701911E-04 -6.731000E-05 -1.701911E-04 +5.364967E-03 +1.645609E-04 -6.731000E-05 +1.645609E-04 -5.221602E-04 
 -5.067267E-05 -2.114535E-04 +4.951887E-05 -2.114535E-04 +5.411955E-03 +2.225285E-04 +4.951887E-05 +2.225285E-04 -6.309320E-04 
 -5.105013E-05 -1.740337E-04 +7.062464E-05 -1.740337E-04 +5.385380E-03 +2.254189E-04 +7.062464E-05 +2.254189E-04 -6.354714E-04 
 -3.163622E-06 -1.094403E-04 +1.119255E-04 -1.094403E-04 +5.335749E-03 +2.060191E-04 +1.119255E-04 +2.060191E-04 -6.744943E-04 
 +2.220201E-05 -5.820390E-05 +8.588553E-05 -5.820390E-05 +5.240803E-03 +2.084428E-04 +8.588553E-05 +2.084428E-04 -4.747520E-04 
 -9.945555E-05 -4.361813E-05 -6.106196E-05 -4.361813E-05 +5.168288E-03 +2.206964E-04 -6.106196E-05 +2.206964E-04 -1.968882E-04 
 -8.815714E-05 -2.706092E-05 -9.863425E-07 -2.706092E-05 +5.235421E-03 +1.237715E-04 -9.863425E-07 +1.237715E-04 -2.552090E-04 
 -2.757611E-04 -8.051748E-05 +4.799775E-05 -8.051748E-05 +5.277132E-03 +5.094868E-05 +4.799775E-05 +5.094868E-05 -2.870654E-04 
 -4.037551E-04 -2.990258E-05 +2.856591E-05 -2.990258E-05 +5.210175E-03 +4.120789E-05 +2.856591E-05 +4.120789E-05 -1.517192E-04 
 -2.266057E-04 +7.341441E-06 +1.564848E-05 +7.341441E-06 +5.096741E-03 -4.728872E-05 +1.564848E-05 -4.728872E-05 -1.594109E-04 
 +1.146496E-04 -4.284195E-05 -2.677755E-04 -4.284195E-05 +5.027622E-03 -6.899713E-05 -2.677755E-04 -6.899713E-05 -2.503616E-04 
 +8.563527E-05 -3.293765E-06 -1.157112E-04 -3.293765E-06 +4.992459E-03 -1.132133E-05 -1.157112E-04 -1.132133E-05 -2.385635E-04 
 +1.804855E-04 -8.912116E-06 -1.130945E-04 -8.912116E-06 +4.940933E-03 +4.501695E-05 -1.130945E-04 +4.501695E-05 -2.512658E-04 
 +1.614385E-04 +5.278831E-06 -9.474622E-05 +5.278831E-06 +4.940375E-03 -1.165226E-05 -9.474622E-05 -1.165226E-05 -2.484966E-04 
 +1.632799E-04 +5.996624E-06 +2.378891E-06 +5.996624E-06 +4.934355E-03 -4.163947E-05 +2.378891E-06 -4.163947E-05 -1.472879E-04 
 +1.783201E-04 +4.176360E-05 +7.049368E-05 +4.176360E-05 +4.823330E-03 +1.387057E-05 +7.049368E-05 +1.387057E-05 +3.491718E-05 
 +1.654753E-04 -5.894176E-06 -5.331646E-06 -5.894176E-06 +4.831367E-03 -5.153749E-06 -5.331646E-06 -5.153749E-06 +8.620956E-06 
 +1.203287E-04 -1.165646E-04 -1.732380E-04 -1.165646E-04 +5.046470E-03 -6.238324E-05 -1.732380E-04 -6.238324E-05 -1.256030E-04 
 +2.114697E-05 -1.942090E-04 -2.207442E-04 -1.942090E-04 +5.211431E-03 -6.474004E-05 -2.207442E-04 -6.474004E-05 -1.168523E-04 
 -4.720940E-05 -2.171809E-04 -2.384256E-04 -2.171809E-04 +5.261889E-03 -5.296162E-05 -2.384256E-04 -5.296162E-05 -1.063945E-04 
 -3.845563E-05 -2.180803E-04 -2.611454E-04 -2.180803E-04 +5.192452E-03 -4.892039E-05 -2.611454E-04 -4.892039E-05 -1.424313E-04 
 -5.569540E-05 -1.005086E-04 -1.078848E-04 -1.005086E-04 +4.947365E-03 +3.792249E-05 -1.078848E-04 +3.792249E-05 -2.152932E-04 
 +2.312606E-05 -1.098150E-05 -4.787815E-05 -1.098150E-05 +4.771343E-03 +1.345025E-04 -4.787815E-05 +1.345025E-04 -2.131695E-04 
 -4.045169E-05 +3.914381E-05 -1.828077E-05 +3.914381E-05 +4.902260E-03 +1.651609E-04 -1.828077E-05 +1.651609E-04 -2.374695E-04 
 -7.162246E-05 -2.110892E-05 +8.865557E-05 -2.110892E-05 +5.146657E-03 +1.741737E-04 +8.865557E-05 +1.741737E-04 -4.534036E-04 
 -1.659263E-05 -7.987514E-05 +1.351253E-04 -7.987514E-05 +5.219989E-03 +1.292270E-04 +1.351253E-04 +1.292270E-04 -4.668279E-04 
 -8.239991E-05 -7.860874E-07 +3.219339E-06 -7.860874E-07 +5.250332E-03 +1.092715E-04 +3.219339E-06 +1.092715E-04 -2.874010E-04 
 -1.290943E-04 +4.354477E-05 -1.779022E-05 +4.354477E-05 +5.293869E-03 +1.351916E-04 -1.779022E-05 +1.351916E-04 -2.521544E-04 
 -2.858627E-04 -4.422473E-05 +5.860653E-05 -4.422473E-05 +5.248725E-03 +1.189053E-04 +5.860653E-05 +1.189053E-04 -2.997938E-04 
 -2.764349E-04 +1.467362E-05 -4.311911E-05 +1.467362E-05 +5.128303E-03 +2.873546E-06 -4.311911E-05 +2.873546E-06 -2.487854E-04 
 -8.629180E-05 +1.069975E-04 -8.404652E-05 +1.069975E-04 +5.014437E-03 -1.463088E-04 -8.404652E-05 -1.463088E-04 -1.998431E-04 
 +3.080285E-05 +1.005228E-04 -1.403931E-04 +1.005228E-04 +5.000987E-03 -1.336448E-04 -1.403931E-04 -1.336448E-04 -2.278381E-04 
 +8.734265E-06 +7.443007E-05 -1.455168E-05 +7.443007E-05 +4.955653E-03 -2.642272E-05 -1.455168E-05 -2.642272E-05 -1.932171E-04 
 +8.680711E-05 +6.876786E-05 -5.419283E-05 +6.876786E-05 +4.923628E-03 +5.852360E-05 -5.419283E-05 +5.852360E-05 -2.162157E-04 
 +1.565425E-04 +9.371594E-05 -1.320170E-04 +9.371594E-05 +4.762273E-03 +1.409719E-05 -1.320170E-04 +1.409719E-05 -2.235935E-04 
 +1.847192E-04 +1.625908E-04 -3.278677E-05 +1.625908E-04 +4.632563E-03 -3.671859E-05 -3.278677E-05 -3.671859E-05 -9.380546E-05 
 +1.816852E-04 +1.108571E-04 +5.101490E-05 +1.108571E-04 +4.662648E-03 -2.703135E-05 +5.101490E-05 -2.703135E-05 +3.475970E-05 
 +1.449774E-04 +8.514224E-05 +1.150344E-05 +8.514224E-05 +4.683481E-03 -6.178890E-05 +1.150344E-05 -6.178890E-05 +2.379127E-05 
 +8.291014E-05 +8.871046E-05 -4.379101E-05 +8.871046E-05 +4.701642E-03 -5.125434E-05 -4.379101E-05 -5.125434E-05 +4.986803E-05 
 +2.045390E-05 +3.393852E-05 -1.246769E-04 +3.393852E-05 +4.750330E-03 -1.245013E-05 -1.246769E-04 -1.245013E-05 +1.242822E-04 
 -7.416499E-07 +1.082604E-05 -1.767326E-04 +1.082604E-05 +4.706289E-03 -2.977999E-05 -1.767326E-04 -2.977999E-05 +1.480996E-04 
 +5.392133E-05 -3.539229E-05 -2.079076E-04 -3.539229E-05 +4.623398E-03 -3.692824E-05 -2.079076E-04 -3.692824E-05 +8.633063E-05 
 +6.847064E-05 -2.410718E-05 -1.308703E-04 -2.410718E-05 +4.622030E-03 -3.636525E-06 -1.308703E-04 -3.636525E-06 +1.877929E-05 
 -2.841910E-05 +5.085025E-05 -1.144621E-04 +5.085025E-05 +4.694138E-03 +5.178315E-05 -1.144621E-04 +5.178315E-05 +3.066386E-05 
 -1.247217E-04 +1.104672E-04 -3.184506E-05 +1.104672E-04 +4.754948E-03 +1.069345E-04 -3.184506E-05 +1.069345E-04 +2.539197E-05 
 -1.472033E-04 +1.021108E-04 +6.521890E-05 +1.021108E-04 +4.832537E-03 +1.188613E-04 +6.521890E-05 +1.188613E-04 -9.226947E-05 
 -1.647886E-04 -2.935610E-05 +1.803939E-04 -2.935610E-05 +5.004787E-03 +1.156738E-04 +1.803939E-04 +1.156738E-04 -2.708314E-04 
 -1.387365E-04 -9.470056E-05 +5.802522E-05 -9.470056E-05 +5.014676E-03 +1.044729E-04 +5.802522E-05 +1.044729E-04 -2.991275E-04 
 -1.218362E-04 -1.186506E-04 -1.063077E-05 -1.186506E-04 +4.825674E-03 +1.432417E-04 -1.063077E-05 +1.432417E-04 -7.107539E-05 
 -1.484694E-04 -8.159825E-05 +2.419496E-05 -8.159825E-05 +4.769023E-03 +1.358214E-04 +2.419496E-05 +1.358214E-04 -9.055669E-06 
 -9.027218E-05 +2.836915E-05 +1.617519E-06 +2.836915E-05 +4.869340E-03 -1.157890E-05 +1.617519E-06 -1.157890E-05 -1.622813E-04 
 -1.035434E-05 +8.638915E-05 -3.452729E-05 +8.638915E-05 +4.962426E-03 -9.023278E-05 -3.452729E-05 -9.023278E-05 -1.954858E-04 
 -1.378504E-05 +8.276074E-05 -2.757222E-05 +8.276074E-05 +4.975646E-03 -8.178267E-05 -2.757222E-05 -8.178267E-05 -1.837797E-04 
 +5.988695E-05 +6.155381E-05 +4.344546E-05 +6.155381E-05 +4.926288E-03 -3.787498E-05 +4.344546E-05 -3.787498E-05 -2.018450E-04 
 +3.864852E-05 +7.320987E-05 -2.207086E-05 +7.320987E-05 +4.867056E-03 +3.257675E-05 -2.207086E-05 +3.257675E-05 -2.697516E-04 
 +1.123981E-04 +3.139360E-05 -1.112627E-04 +3.139360E-05 +4.758153E-03 +4.703687E-06 -1.112627E-04 +4.703687E-06 -2.051679E-04 
 +1.291011E-04 +7.672683E-05 -2.367995E-05 +7.672683E-05 +4.678663E-03 -6.022276E-05 -2.367995E-05 -6.022276E-05 -1.038741E-05 
 +1.643018E-04 +7.264979E-05 +1.048371E-05 +7.264979E-05 +4.608312E-03 -1.534922E-05 +1.048371E-05 -1.534922E-05 +6.476830E-05 
 +1.945376E-04 +1.110852E-04 +7.073313E-06 +1.110852E-04 +4.578428E-03 +2.465451E-05 +7.073313E-06 +2.465451E-05 +5.910366E-05 
 +1.554997E-04 +1.477654E-04 +1.579927E-05 +1.477654E-04 +4.584402E-03 +1.912370E-05 +1.579927E-05 +1.912370E-05 +1.115569E-04 
 +8.885292E-05 +1.071792E-04 -2.405042E-05 +1.071792E-04 +4.589127E-03 +2.073175E-06 -2.405042E-05 +2.073175E-06 +1.655021E-04 
 +6.502190E-05 +2.173957E-05 -8.209519E-05 +2.173957E-05 +4.575517E-03 -5.580259E-05 -8.209519E-05 -5.580259E-05 +1.940737E-04 
 +1.219339E-04 +3.457237E-05 -1.450638E-04 +3.457237E-05 +4.578810E-03 -9.557211E-05 -1.450638E-04 -9.557211E-05 +1.818036E-04 
 -2.059720E-05 +1.928216E-05 -1.306187E-04 +1.928216E-05 +4.599151E-03 -3.981464E-05 -1.306187E-04 -3.981464E-05 +1.400130E-04 
 -1.468091E-04 +1.203706E-04 -9.028518E-05 +1.203706E-04 +4.678538E-03 +8.551795E-06 -9.028518E-05 +8.551795E-06 +1.076762E-04 
 -2.217846E-04 +1.345183E-04 +1.386200E-05 +1.345183E-04 +4.784415E-03 +2.793731E-05 +1.386200E-05 +2.793731E-05 +9.407775E-05 
 -2.413213E-04 +1.109670E-04 +4.995009E-05 +1.109670E-04 +4.855668E-03 +4.059730E-05 +4.995009E-05 +4.059730E-05 +8.234351E-05 
 -4.323734E-04 -5.178619E-05 +2.143272E-04 -5.178619E-05 +4.943402E-03 +4.716891E-05 +2.143272E-04 +4.716891E-05 -1.590538E-05 
 -1.170715E-04 -1.448125E-04 +1.032506E-04 -1.448125E-04 +5.025968E-03 +5.506659E-05 +1.032506E-04 +5.506659E-05 -1.416033E-04 
 -5.591666E-05 -1.573406E-04 +4.122498E-05 -1.573406E-04 +4.939843E-03 +6.765267E-05 +4.122498E-05 +6.765267E-05 -3.280686E-05 
 -1.246580E-05 -4.948589E-05 -1.037737E-05 -4.948589E-05 +4.761282E-03 +4.721878E-05 -1.037737E-05 +4.721878E-05 +3.228529E-05 
 +4.797179E-05 +4.810124E-05 +1.166252E-05 +4.810124E-05 +4.804842E-03 -5.916122E-05 +1.166252E-05 -5.916122E-05 -1.465294E-04 
 +3.632018E-05 +6.816706E-05 +2.696975E-05 +6.816706E-05 +4.915632E-03 -9.773978E-05 +2.696975E-05 -9.773978E-05 -1.978208E-04 
 +3.380170E-05 +4.798265E-05 +1.456546E-06 +4.798265E-05 +4.928069E-03 -6.558086E-05 +1.456546E-06 -6.558086E-05 -1.563176E-04 
 +9.930379E-05 +2.163843E-05 +6.201813E-05 +2.163843E-05 +4.920657E-03 -7.741803E-05 +6.201813E-05 -7.741803E-05 -2.494745E-04 
 +3.995166E-05 -2.634244E-05 -2.137377E-05 -2.634244E-05 +4.887593E-03 -5.131774E-05 -2.137377E-05 -5.131774E-05 -2.902886E-04 
 +4.586434E-05 -3.892634E-05 -5.058425E-05 -3.892634E-05 +4.858571E-03 -3.061007E-05 -5.058425E-05 -3.061007E-05 -1.133545E-04 
 +8.748739E-05 +6.269570E-05 +1.959029E-05 +6.269570E-05 +4.710702E-03 -4.148330E-05 +1.959029E-05 -4.148330E-05 +6.658834E-05 
 +2.164600E-04 +1.041359E-04 +2.927310E-05 +1.041359E-04 +4.561427E-03 -2.601463E-05 +2.927310E-05 -2.601463E-05 +6.711484E-05 
 +2.372337E-04 +1.504020E-04 -3.173457E-05 +1.504020E-04 +4.524552E-03 +5.281188E-06 -3.173457E-05 +5.281188E-06 +5.136238E-05 
 +2.307685E-04 +1.812289E-04 -1.972340E-05 +1.812289E-04 +4.558597E-03 +2.845655E-05 -1.972340E-05 +2.845655E-05 +7.099005E-05 
 +1.887546E-04 +1.450851E-04 -6.065187E-06 +1.450851E-04 +4.626319E-03 +2.888589E-05 -6.065187E-06 +2.888589E-05 +1.077992E-04 
 +1.538776E-04 +5.245049E-05 -1.012043E-05 +5.245049E-05 +4.632842E-03 -1.700094E-05 -1.012043E-05 -1.700094E-05 +1.357873E-04 
 +5.492343E-05 +4.326294E-05 -4.070575E-05 +4.326294E-05 +4.636733E-03 -5.444652E-05 -4.070575E-05 -5.444652E-05 +1.632415E-04 
 -2.749748E-04 -4.247174E-05 -4.516212E-05 -4.247174E-05 +4.817282E-03 -1.110390E-04 -4.516212E-05 -1.110390E-04 +1.636368E-04 
 -3.182223E-04 -4.583523E-05 -2.519050E-05 -4.583523E-05 +4.974133E-03 -1.326430E-04 -2.519050E-05 -1.326430E-04 +1.353321E-04 
 -2.941314E-04 -3.449168E-05 +1.498946E-06 -3.449168E-05 +5.082697E-03 -8.537159E-05 +1.498946E-06 -8.537159E-05 +1.064544E-04 
 -3.236458E-04 -3.246141E-05 +2.042693E-05 -3.246141E-05 +5.159817E-03 -6.032559E-05 +2.042693E-05 -6.032559E-05 +8.615142E-05 
 -3.946151E-04 -1.968829E-05 +1.557174E-04 -1.968829E-05 +5.064919E-03 -2.356256E-05 +1.557174E-04 -2.356256E-05 +4.496323E-05 
 -1.919995E-05 +1.029317E-05 +1.135766E-04 +1.029317E-05 +4.923176E-03 +3.338502E-05 +1.135766E-04 +3.338502E-05 -1.075281E-04 
 +4.956875E-06 -6.538878E-05 +6.777246E-05 -6.538878E-05 +4.952195E-03 +3.342737E-05 +6.777246E-05 +3.342737E-05 -2.097901E-04 
 -7.415652E-06 +6.781264E-06 -1.089503E-05 +6.781264E-06 +5.065379E-03 -6.516963E-05 -1.089503E-05 -6.516963E-05 -2.208127E-04 
 +7.555180E-05 +1.009024E-04 -1.618682E-06 +1.009024E-04 +4.993646E-03 -1.618135E-04 -1.618682E-06 -1.618135E-04 -2.542923E-04 
 +1.149543E-04 +8.157667E-05 +3.758924E-05 +8.157667E-05 +4.928604E-03 -1.457213E-04 +3.758924E-05 -1.457213E-04 -2.361078E-04 
 +8.200438E-05 +3.839015E-05 +2.646305E-05 +3.839015E-05 +4.952477E-03 -9.386082E-05 +2.646305E-05 -9.386082E-05 -1.955309E-04 
 +1.394712E-04 +5.057733E-05 +6.747997E-05 +5.057733E-05 +4.994968E-03 -1.017224E-04 +6.747997E-05 -1.017224E-04 -3.053924E-04 
 +2.985095E-06 -4.203528E-05 -6.294760E-05 -4.203528E-05 +4.831310E-03 -5.508802E-05 -6.294760E-05 -5.508802E-05 -2.253692E-04 
 +5.042059E-05 -3.499711E-05 -7.684579E-05 -3.499711E-05 +4.603028E-03 -2.149226E-05 -7.684579E-05 -2.149226E-05 +1.795304E-05 
 +1.294355E-04 +7.864532E-05 +5.061940E-05 +7.864532E-05 +4.629883E-03 +1.228415E-05 +5.061940E-05 +1.228415E-05 +9.161023E-05 
 +2.190062E-04 +1.080521E-04 +2.016878E-05 +1.080521E-04 +4.665422E-03 +8.181227E-06 +2.016878E-05 +8.181227E-06 -2.519066E-06 
 +2.294943E-04 +1.730392E-04 -8.570086E-05 +1.730392E-04 +4.621864E-03 -2.472550E-05 -8.570086E-05 -2.472550E-05 -2.894392E-05 
 +2.757920E-04 +2.008545E-04 -4.613861E-05 +2.008545E-04 +4.616666E-03 +2.912521E-05 -4.613861E-05 +2.912521E-05 +5.456527E-05 
 +2.632324E-04 +1.301570E-04 -3.590116E-05 +1.301570E-04 +4.603752E-03 +4.418939E-05 -3.590116E-05 +4.418939E-05 +1.345594E-04 
 +2.308726E-04 +2.870637E-05 -1.287731E-05 +2.870637E-05 +4.732352E-03 -5.380572E-05 -1.287731E-05 -5.380572E-05 +1.823380E-04 
 -2.955165E-04 -6.978178E-05 +3.278688E-05 -6.978178E-05 +4.927195E-03 -1.115501E-04 +3.278688E-05 -1.115501E-04 +2.332043E-04 
 -4.774141E-04 -1.029568E-04 -4.034545E-05 -1.029568E-04 +5.020098E-03 -1.345163E-04 -4.034545E-05 -1.345163E-04 +2.412654E-04 
 -4.670618E-04 -1.084070E-04 -3.848778E-05 -1.084070E-04 +5.009499E-03 -1.593396E-04 -3.848778E-05 -1.593396E-04 +2.061002E-04 
 -2.029986E-04 +8.645168E-05 -1.384992E-04 +8.645168E-05 +4.956755E-03 -1.399572E-04 -1.384992E-04 -1.399572E-04 +1.651111E-04 
 -2.264312E-04 +1.210243E-04 -8.755979E-05 +1.210243E-04 +4.950191E-03 -1.370894E-04 -8.755979E-05 -1.370894E-04 +1.090601E-04 
 -1.926855E-04 +1.184875E-04 +1.184627E-05 +1.184875E-04 +5.021013E-03 -1.011931E-04 +1.184627E-05 -1.011931E-04 +1.496194E-05 
 -9.636503E-05 -3.043223E-05 +3.556767E-05 -3.043223E-05 +5.066442E-03 -2.247538E-05 +3.556767E-05 -2.247538E-05 -1.980570E-04 
 +9.993437E-06 -2.992555E-05 -3.402381E-05 -2.992555E-05 +5.095059E-03 -2.123066E-05 -3.402381E-05 -2.123066E-05 -4.247676E-04 
 +3.830145E-05 +1.513375E-06 -2.113957E-05 +1.513375E-06 +5.167073E-03 -1.244006E-04 -2.113957E-05 -1.244006E-04 -4.151635E-04 
 +8.668173E-05 +5.659977E-05 +4.609966E-05 +5.659977E-05 +5.139952E-03 -2.036870E-04 +4.609966E-05 -2.036870E-04 -3.286230E-04 
 +1.440905E-04 +1.047675E-04 +5.814901E-05 +1.047675E-04 +5.045172E-03 -1.750276E-04 +5.814901E-05 -1.750276E-04 -3.124328E-04 
 +1.385503E-04 +6.184381E-05 +5.072698E-05 +6.184381E-05 +4.988759E-03 -1.202616E-04 +5.072698E-05 -1.202616E-04 -2.788822E-04 
 +2.033865E-04 +8.700335E-05 +8.963644E-05 +8.700335E-05 +4.981980E-03 -1.570156E-04 +8.963644E-05 -1.570156E-04 -3.053789E-04 
 -3.493864E-05 -6.024553E-05 -1.040213E-04 -6.024553E-05 +4.982186E-03 -1.329501E-04 -1.040213E-04 -1.329501E-04 -1.980045E-04 
 -3.522992E-05 -1.233408E-04 -7.631282E-05 -1.233408E-04 +4.876376E-03 -1.457870E-05 -7.631282E-05 -1.457870E-05 -3.519327E-05 
 +2.437431E-04 +1.371200E-04 +6.465402E-05 +1.371200E-04 +4.704879E-03 +2.076670E-05 +6.465402E-05 +2.076670E-05 -1.475884E-05 
 +2.233152E-04 +1.729840E-04 -1.842136E-05 +1.729840E-04 +4.767756E-03 -8.035689E-05 -1.842136E-05 -8.035689E-05 -9.212150E-05 
 +2.051071E-04 +2.308019E-04 -7.019395E-05 +2.308019E-04 +4.829180E-03 -1.104605E-04 -7.019395E-05 -1.104605E-04 -9.076382E-05 
 +2.617705E-04 +2.289477E-04 -1.888051E-05 +2.289477E-04 +4.791275E-03 -4.750578E-05 -1.888051E-05 -4.750578E-05 -7.135254E-07 
 +3.098690E-04 +1.561856E-04 -4.741787E-05 +1.561856E-04 +4.759151E-03 +6.138086E-06 -4.741787E-05 +6.138086E-06 +9.242558E-05 
 +4.548468E-05 +6.485100E-05 -7.232140E-05 +6.485100E-05 +4.811756E-03 -2.727558E-06 -7.232140E-05 -2.727558E-06 +2.246046E-04 
 -4.845232E-04 -1.542703E-05 -4.884727E-05 -1.542703E-05 +4.986052E-03 +1.381628E-06 -4.884727E-05 +1.381628E-06 +3.404112E-04 
 -5.582531E-04 +1.211859E-05 -1.059936E-04 +1.211859E-05 +5.089870E-03 -1.208157E-05 -1.059936E-04 -1.208157E-05 +3.443954E-04 
 -5.024723E-04 -4.900272E-05 -8.452138E-05 -4.900272E-05 +5.017463E-03 -1.297062E-04 -8.452138E-05 -1.297062E-04 +2.719136E-04 
 -1.189375E-04 +1.023306E-04 -2.206899E-04 +1.023306E-04 +4.900704E-03 -1.771519E-04 -2.206899E-04 -1.771519E-04 +2.035686E-04 
 -1.145604E-04 +9.209278E-05 -1.846448E-04 +9.209278E-05 +4.864700E-03 -1.169928E-04 -1.846448E-04 -1.169928E-04 +1.562511E-04 
 -1.091168E-04 +1.172959E-04 -7.957447E-05 +1.172959E-04 +4.942447E-03 -8.799786E-05 -7.957447E-05 -8.799786E-05 +1.323877E-04 
 -2.523885E-04 -4.335717E-05 +5.907763E-05 -4.335717E-05 +5.062313E-03 -7.968827E-05 +5.907763E-05 -7.968827E-05 -1.732610E-05 
 -9.806837E-06 -2.009677E-05 -5.477371E-05 -2.009677E-05 +5.162510E-03 -6.250245E-05 -5.477371E-05 -6.250245E-05 -3.738594E-04 
 +1.683063E-04 -2.611253E-05 -6.370496E-05 -2.611253E-05 +5.177473E-03 -1.042562E-04 -6.370496E-05 -1.042562E-04 -4.745421E-04 
 +1.804226E-04 +3.333540E-05 +4.424257E-05 +3.333540E-05 +5.123472E-03 -1.452094E-04 +4.424257E-05 -1.452094E-04 -3.731317E-04 
 +1.874597E-04 +1.153454E-04 +5.108221E-05 +1.153454E-04 +5.067641E-03 -1.207006E-04 +5.108221E-05 -1.207006E-04 -3.627480E-04 
 +1.912495E-04 +1.229475E-04 +2.753093E-05 +1.229475E-04 +5.043125E-03 -1.240244E-04 +2.753093E-05 -1.240244E-04 -3.334672E-04 
 +1.528532E-04 -7.069722E-05 +1.141941E-04 -7.069722E-05 +5.015937E-03 -1.731821E-04 +1.141941E-04 -1.731821E-04 -2.807674E-04 
 +3.372207E-05 -1.150778E-04 -1.896732E-05 -1.150778E-04 +4.978691E-03 -1.661565E-04 -1.896732E-05 -1.661565E-04 -2.567107E-04 
 +3.275882E-05 -1.427514E-04 +8.368873E-05 -1.427514E-04 +4.992782E-03 -7.923681E-05 +8.368873E-05 -7.923681E-05 -2.418854E-04 
 +2.082178E-04 +1.359828E-04 +6.486888E-05 +1.359828E-04 +4.879849E-03 -2.921044E-05 +6.486888E-05 -2.921044E-05 -2.539902E-04 
 +1.906328E-04 +1.727605E-04 -8.671828E-06 +1.727605E-04 +4.817455E-03 -6.459791E-05 -8.671828E-06 -6.459791E-05 -2.483434E-04 
 +1.846455E-04 +1.403520E-04 -2.827345E-05 +1.403520E-04 +4.876881E-03 -8.303021E-05 -2.827345E-05 -8.303021E-05 -1.417853E-04 
 +2.581984E-04 +1.465179E-04 +3.441539E-06 +1.465179E-04 +4.877120E-03 -5.386193E-05 +3.441539E-06 -5.386193E-05 -7.473550E-05 
 +2.816349E-04 +9.687675E-05 -9.876891E-05 +9.687675E-05 +4.922396E-03 -1.177881E-05 -9.876891E-05 -1.177881E-05 -1.912647E-05 
 -1.817482E-04 +7.927758E-05 -1.351780E-04 +7.927758E-05 +5.047771E-03 -8.505787E-06 -1.351780E-04 -8.505787E-06 +1.530956E-04 
 -4.932822E-04 +1.992128E-05 -9.276303E-05 +1.992128E-05 +5.087797E-03 -1.095635E-06 -9.276303E-05 -1.095635E-06 +3.194683E-04 
 -4.842238E-04 +3.024470E-05 -1.032088E-04 +3.024470E-05 +5.062360E-03 +3.214601E-05 -1.032088E-04 +3.214601E-05 +3.663962E-04 
 -4.983528E-04 +3.504995E-05 -7.825752E-05 +3.504995E-05 +5.070905E-03 -3.768056E-05 -7.825752E-05 -3.768056E-05 +3.249861E-04 
 -2.085117E-04 +1.325680E-04 -1.502155E-04 +1.325680E-04 +4.975776E-03 -1.467340E-04 -1.502155E-04 -1.467340E-04 +2.421145E-04 
 -1.205603E-04 +1.396037E-04 -1.298386E-04 +1.396037E-04 +4.848867E-03 -1.464552E-04 -1.298386E-04 -1.464552E-04 +2.000267E-04 
 -1.590645E-04 +1.152340E-04 -6.368170E-05 +1.152340E-04 +4.861285E-03 -1.099547E-04 -6.368170E-05 -1.099547E-04 +2.372281E-04 
 -3.006247E-04 -6.214416E-05 +9.378067E-05 -6.214416E-05 +4.991306E-03 -1.624205E-04 +9.378067E-05 -1.624205E-04 +2.602053E-04 
 -9.108457E-06 -3.906318E-05 +9.343289E-05 -3.906318E-05 +5.063034E-03 -1.638868E-04 +9.343289E-05 -1.638868E-04 -9.846772E-05 
 +3.616524E-04 -4.318476E-05 -6.361025E-05 -4.318476E-05 +5.023785E-03 -7.056509E-05 -6.361025E-05 -7.056509E-05 -4.234019E-04 
 +2.913258E-04 +2.768303E-05 -2.438814E-05 +2.768303E-05 +5.017758E-03 -2.409786E-05 -2.438814E-05 -2.409786E-05 -3.815455E-04 
 +2.415619E-04 +8.778588E-05 -2.315788E-05 +8.778588E-05 +5.030057E-03 -3.006219E-05 -2.315788E-05 -3.006219E-05 -3.541698E-04 
 +2.181196E-04 +9.084903E-05 -6.360179E-05 +9.084903E-05 +5.044316E-03 -9.532338E-05 -6.360179E-05 -9.532338E-05 -3.467241E-04 
 +8.996499E-05 -1.105415E-04 +7.704168E-05 -1.105415E-04 +5.052254E-03 -1.024888E-04 +7.704168E-05 -1.024888E-04 -2.978588E-04 
 +1.234367E-04 -1.605709E-04 +5.698554E-05 -1.605709E-04 +5.013075E-03 -7.406196E-05 +5.698554E-05 -7.406196E-05 -3.225469E-04 
 +1.682425E-04 -2.368401E-04 +1.556763E-04 -2.368401E-04 +5.048133E-03 -9.930174E-05 +1.556763E-04 -9.930174E-05 -3.447829E-04 
 +9.328271E-05 -9.830336E-05 +1.392724E-04 -9.830336E-05 +5.056131E-03 -7.785916E-05 +1.392724E-04 -7.785916E-05 -3.240838E-04 
 +1.238192E-04 +1.080002E-04 -1.938358E-05 +1.080002E-04 +4.951306E-03 -4.694955E-05 -1.938358E-05 -4.694955E-05 -2.739104E-04 
 +1.866443E-04 +1.048866E-04 -2.794039E-05 +1.048866E-04 +4.948580E-03 -6.940187E-05 -2.794039E-05 -6.940187E-05 -1.754696E-04 
 +1.580161E-04 +3.878401E-05 -3.686236E-05 +3.878401E-05 +4.998923E-03 -2.791528E-05 -3.686236E-05 -2.791528E-05 -9.245590E-05 
 +5.217181E-05 -1.087213E-04 -1.534336E-04 -1.087213E-04 +5.047357E-03 +8.612775E-05 -1.534336E-04 +8.612775E-05 -1.507008E-05 
 -4.930221E-05 -8.544820E-05 -2.342127E-04 -8.544820E-05 +5.070023E-03 +1.045179E-04 -2.342127E-04 +1.045179E-04 +1.037719E-04 
 -3.305545E-04 +4.405083E-05 +3.082704E-05 +4.405083E-05 +5.100913E-03 +6.173076E-05 +3.082704E-05 +6.173076E-05 +1.847292E-04 
 -4.554437E-04 +6.823768E-05 -4.388906E-05 +6.823768E-05 +5.088566E-03 +6.584128E-05 -4.388906E-05 +6.584128E-05 +2.743553E-04 
 -4.244479E-04 +3.662682E-05 -1.600239E-05 +3.662682E-05 +5.085938E-03 +3.495084E-05 -1.600239E-05 +3.495084E-05 +3.600031E-04 
 -3.728240E-04 +7.101363E-05 -2.530496E-05 +7.101363E-05 +5.140484E-03 -2.222167E-05 -2.530496E-05 -2.222167E-05 +3.129819E-04 
 -2.687476E-04 +4.584889E-05 +4.566954E-05 +4.584889E-05 +5.135988E-03 -5.927319E-05 +4.566954E-05 -5.927319E-05 +2.916852E-04 
 -2.922204E-04 +2.236191E-05 -2.771038E-05 +2.236191E-05 +5.054213E-03 -6.809393E-05 -2.771038E-05 -6.809393E-05 +3.004284E-04 
 -1.608371E-04 -1.223978E-05 +7.664941E-05 -1.223978E-05 +4.970384E-03 -1.008365E-04 +7.664941E-05 -1.008365E-04 +2.501574E-04 
 +1.571088E-04 +7.441309E-05 +1.918382E-04 +7.441309E-05 +4.943245E-03 -9.195314E-05 +1.918382E-04 -9.195314E-05 -8.414212E-05 
 +3.962063E-04 +3.119267E-05 -2.043937E-05 +3.119267E-05 +4.915488E-03 -3.417254E-05 -2.043937E-05 -3.417254E-05 -3.701331E-04 
 +3.295467E-04 +3.003281E-05 -5.196700E-05 +3.003281E-05 +4.919529E-03 -1.198718E-05 -5.196700E-05 -1.198718E-05 -3.087588E-04 
 +2.585660E-04 +3.735568E-05 -6.183432E-05 +3.735568E-05 +4.959492E-03 -3.724743E-05 -6.183432E-05 -3.724743E-05 -2.843930E-04 
 +2.172936E-04 +5.619469E-05 -1.508082E-04 +5.619469E-05 +5.012002E-03 -7.849121E-05 -1.508082E-04 -7.849121E-05 -3.228668E-04 
 +1.050098E-04 -7.785986E-05 +1.385641E-06 -7.785986E-05 +4.992496E-03 -8.641467E-05 +1.385641E-06 -8.641467E-05 -2.920510E-04 
 +1.059035E-04 -1.491583E-04 +1.006390E-04 -1.491583E-04 +5.033667E-03 -4.560870E-05 +1.006390E-04 -4.560870E-05 -3.689923E-04 
 +1.192263E-04 -2.074278E-04 +1.727850E-04 -2.074278E-04 +5.081036E-03 -3.156385E-05 +1.727850E-04 -3.156385E-05 -3.913544E-04 
 +9.754740E-05 -1.868155E-04 +2.107167E-04 -1.868155E-04 +5.089076E-03 -7.057256E-05 +2.107167E-04 -7.057256E-05 -2.851967E-04 
 +4.856396E-05 +2.648340E-05 -8.172089E-05 +2.648340E-05 +5.063559E-03 -7.745639E-05 -8.172089E-05 -7.745639E-05 -2.499842E-04 
 +7.484686E-05 -9.309023E-06 -7.170714E-05 -9.309023E-06 +5.069845E-03 -4.885346E-05 -7.170714E-05 -4.885346E-05 -2.180586E-04 
 -2.879336E-05 -1.270958E-04 -9.123464E-05 -1.270958E-04 +5.097174E-03 -3.449889E-06 -9.123464E-05 -3.449889E-06 -7.609782E-05 
 -5.881082E-05 -1.425231E-04 -1.696815E-04 -1.425231E-04 +5.072386E-03 +8.095144E-06 -1.696815E-04 +8.095144E-06 +3.493556E-05 
 +8.513315E-05 -1.245651E-04 -1.597913E-04 -1.245651E-04 +5.006222E-03 +7.139684E-05 -1.597913E-04 +7.139684E-05 +7.343105E-05 
 +5.643004E-05 -4.705322E-05 +1.350360E-04 -4.705322E-05 +5.007092E-03 +9.050780E-05 +1.350360E-04 +9.050780E-05 +2.863409E-05 
 -3.620154E-04 +4.945361E-05 +3.325633E-05 +4.945361E-05 +5.090913E-03 +5.751242E-05 +3.325633E-05 +5.751242E-05 +1.055388E-04 
 -4.934082E-04 +6.927380E-05 +4.522479E-05 +6.927380E-05 +5.113054E-03 +7.206502E-05 +4.522479E-05 +7.206502E-05 +3.134593E-04 
 -4.254657E-04 +9.244613E-05 +6.791663E-05 +9.244613E-05 +5.115299E-03 +3.975064E-05 +6.791663E-05 +3.975064E-05 +3.808477E-04 
 -4.440502E-04 +1.366250E-04 +1.568109E-04 +1.366250E-04 +5.139686E-03 -8.782625E-06 +1.568109E-04 -8.782625E-06 +4.323391E-04 
 -2.503640E-04 +1.300091E-04 +2.209843E-05 +1.300091E-04 +5.056613E-03 -3.358012E-05 +2.209843E-05 -3.358012E-05 +4.194514E-04 
 -1.008689E-05 +1.757355E-04 +1.611067E-04 +1.757355E-04 +5.007897E-03 -4.370723E-05 +1.611067E-04 -4.370723E-05 +1.089871E-04 
 +2.588230E-04 +8.622533E-05 +1.919629E-04 +8.622533E-05 +4.992677E-03 -7.694783E-05 +1.919629E-04 -7.694783E-05 -2.779892E-04 
 +3.131113E-04 +7.359583E-06 +6.176834E-06 +7.359583E-06 +4.950734E-03 -4.528794E-05 +6.176834E-06 -4.528794E-05 -3.694956E-04 
 +3.006193E-04 +3.684311E-05 -4.398909E-05 +3.684311E-05 +4.946669E-03 -2.936176E-05 -4.398909E-05 -2.936176E-05 -2.335304E-04 
 +2.758129E-04 +6.060458E-05 -7.292231E-05 +6.060458E-05 +4.948582E-03 -1.022452E-04 -7.292231E-05 -1.022452E-04 -2.263982E-04 
 +2.319490E-04 +9.848214E-05 -1.666672E-04 +9.848214E-05 +4.971503E-03 -1.160150E-04 -1.666672E-04 -1.160150E-04 -2.795582E-04 
 +1.023941E-04 -1.272791E-04 -6.921205E-05 -1.272791E-04 +4.813999E-03 -1.261683E-04 -6.921205E-05 -1.261683E-04 -1.041136E-04 
 +1.311261E-04 -1.435680E-04 +1.167622E-04 -1.435680E-04 +4.935759E-03 -3.204936E-05 +1.167622E-04 -3.204936E-05 -2.429062E-04 
 +1.155542E-04 -1.607131E-04 +2.382972E-04 -1.607131E-04 +5.043427E-03 +1.929135E-06 +2.382972E-04 +1.929135E-06 -3.698893E-04 
 -1.111333E-04 -1.969646E-04 +1.743768E-04 -1.969646E-04 +5.104980E-03 -9.290601E-05 +1.743768E-04 -9.290601E-05 -2.198884E-04 
 -7.446887E-05 -9.796714E-05 -9.276575E-05 -9.796714E-05 +5.210597E-03 -8.303155E-05 -9.276575E-05 -8.303155E-05 -2.515924E-04 
 -9.161165E-05 -1.587519E-04 -1.798491E-04 -1.587519E-04 +5.183813E-03 -1.657936E-05 -1.798491E-04 -1.657936E-05 -2.590600E-04 
 -3.585365E-05 -1.458656E-04 -1.482084E-04 -1.458656E-04 +5.081873E-03 -4.038027E-05 -1.482084E-04 -4.038027E-05 -5.440945E-05 
 -1.880559E-05 -1.530511E-04 -1.974072E-04 -1.530511E-04 +5.068853E-03 -4.252005E-05 -1.974072E-04 -4.252005E-05 +4.517564E-05 
 +8.208091E-05 -1.557249E-04 -1.182117E-05 -1.557249E-04 +5.048791E-03 -3.080910E-05 -1.182117E-05 -3.080910E-05 +4.244918E-05 
 +1.627697E-04 -1.515826E-04 +1.802008E-04 -1.515826E-04 +4.988375E-03 +1.691466E-05 +1.802008E-04 +1.691466E-05 -2.681720E-05 
 -3.013612E-05 -1.430059E-04 +4.770510E-05 -1.430059E-04 +4.983697E-03 +3.371242E-05 +4.770510E-05 +3.371242E-05 +3.432487E-05 
 -4.454268E-04 -2.751714E-05 +4.293068E-05 -2.751714E-05 +5.042470E-03 +1.144087E-05 +4.293068E-05 +1.144087E-05 +2.217195E-04 
 -4.518322E-04 +1.051700E-04 +1.359511E-04 +1.051700E-04 +5.076118E-03 +4.365462E-05 +1.359511E-04 +4.365462E-05 +3.968183E-04 
 -3.975754E-04 +1.674965E-04 +1.789093E-04 +1.674965E-04 +5.104907E-03 -6.273543E-06 +1.789093E-04 -6.273543E-06 +4.788288E-04 
 -1.721246E-04 +1.666361E-04 +1.228890E-04 +1.666361E-04 +5.139940E-03 -5.313652E-05 +1.228890E-04 -5.313652E-05 +4.020867E-04 
 -4.640450E-05 +1.833846E-04 +2.504608E-04 +1.833846E-04 +5.148835E-03 +6.374183E-07 +2.504608E-04 +6.374183E-07 +4.686757E-06 
 +2.051138E-04 +1.442228E-05 +1.667524E-04 +1.442228E-05 +5.118668E-03 -2.349346E-06 +1.667524E-04 -2.349346E-06 -3.762245E-04 
 +3.144540E-04 -2.125244E-05 +1.636400E-05 -2.125244E-05 +5.059875E-03 -2.071196E-05 +1.636400E-05 -2.071196E-05 -3.697291E-04 
 +2.819375E-04 +4.291058E-05 -2.190645E-05 +4.291058E-05 +5.015570E-03 -2.517607E-05 -2.190645E-05 -2.517607E-05 -2.378415E-04 
 +2.576983E-04 +5.346592E-05 -8.119396E-05 +5.346592E-05 +4.990883E-03 -5.140830E-05 -8.119396E-05 -5.140830E-05 -2.203155E-04 
 +2.222720E-04 +9.112434E-06 -1.676180E-04 +9.112434E-06 +4.876409E-03 -1.171005E-04 -1.676180E-04 -1.171005E-04 -1.874502E-04 
 +7.782853E-05 -1.899446E-04 -8.532313E-05 -1.899446E-04 +4.695202E-03 -1.847108E-04 -8.532313E-05 -1.847108E-04 +7.467581E-05 
 +1.222503E-04 -1.995060E-04 +1.029270E-04 -1.995060E-04 +4.747954E-03 -1.039822E-04 +1.029270E-04 -1.039822E-04 -9.763486E-05 
 +1.850219E-04 -2.556178E-04 +2.525738E-04 -2.556178E-04 +4.967537E-03 +8.666778E-06 +2.525738E-04 +8.666778E-06 -2.685314E-04 
 -2.373404E-04 -1.973884E-04 +1.383601E-04 -1.973884E-04 +5.203474E-03 +8.664592E-05 +1.383601E-04 +8.664592E-05 -9.009173E-05 
 -1.887375E-04 -1.095711E-05 -9.475775E-05 -1.095711E-05 +5.159368E-03 +1.013189E-04 -9.475775E-05 +1.013189E-04 -9.588113E-05 
 -1.971037E-04 -6.791511E-05 -2.346056E-04 -6.791511E-05 +5.091262E-03 +1.998127E-05 -2.346056E-04 +1.998127E-05 -1.570370E-04 
 -8.343902E-05 -1.524493E-04 -1.738967E-04 -1.524493E-04 +5.086399E-03 -8.854507E-05 -1.738967E-04 -8.854507E-05 +1.638124E-05 
 -1.624748E-05 -1.796115E-04 -1.564612E-04 -1.796115E-04 +5.056322E-03 -5.824085E-05 -1.564612E-04 -5.824085E-05 +6.648686E-05 
 +8.499088E-05 -2.148138E-04 -1.160350E-04 -2.148138E-04 +5.061338E-03 -6.975333E-06 -1.160350E-04 -6.975333E-06 +3.829132E-05 
 +9.234356E-05 -2.305791E-04 +1.383475E-04 -2.305791E-04 +4.989475E-03 -6.635314E-05 +1.383475E-04 -6.635314E-05 -9.830293E-06 
 +4.523000E-05 -2.607604E-04 -6.643752E-06 -2.607604E-04 +4.887355E-03 -6.967911E-05 -6.643752E-06 -6.967911E-05 +3.377857E-05 
 -1.667460E-04 -2.428453E-04 +6.266471E-05 -2.428453E-04 +4.921865E-03 -1.278630E-05 +6.266471E-05 -1.278630E-05 +1.601187E-04 
 -4.587834E-04 -1.049351E-04 +2.328335E-04 -1.049351E-04 +5.027958E-03 +3.490493E-05 +2.328335E-04 +3.490493E-05 +3.392646E-04 
 -2.171627E-04 +1.225109E-05 +1.553692E-04 +1.225109E-05 +5.093692E-03 -5.033147E-05 +1.553692E-04 -5.033147E-05 +4.348648E-04 
 -1.357231E-04 +1.390551E-05 +1.820925E-04 +1.390551E-05 +5.171428E-03 -1.053467E-04 +1.820925E-04 -1.053467E-04 +3.623353E-04 
 -4.613819E-05 +6.569492E-05 +2.205492E-04 +6.569492E-05 +5.208812E-03 -4.962481E-05 +2.205492E-04 -4.962481E-05 +5.960379E-05 
 +2.563314E-04 -1.507013E-05 +1.642187E-04 -1.507013E-05 +5.184130E-03 +3.084924E-05 +1.642187E-04 +3.084924E-05 -2.745598E-04 
 +2.605469E-04 -8.919092E-05 -6.021590E-05 -8.919092E-05 +5.079300E-03 +6.722953E-05 -6.021590E-05 +6.722953E-05 -2.888098E-04 
 +2.587640E-04 -5.258580E-05 -2.893517E-05 -5.258580E-05 +4.941463E-03 -2.924235E-05 -2.893517E-05 -2.924235E-05 -1.991425E-04 
 +1.971971E-04 -8.102095E-05 -5.663491E-05 -8.102095E-05 +4.774907E-03 -1.337575E-04 -5.663491E-05 -1.337575E-04 -1.271871E-04 
 +1.670044E-04 -1.024569E-04 -1.252988E-04 -1.024569E-04 +4.678814E-03 -1.798169E-04 -1.252988E-04 -1.798169E-04 -1.826200E-05 
 +9.080928E-07 -1.186155E-04 +3.244446E-05 -1.186155E-04 +4.821760E-03 -1.340931E-04 +3.244446E-05 -1.340931E-04 +1.047586E-06 
 +2.624358E-05 -3.925382E-05 +2.332086E-04 -3.925382E-05 +4.972936E-03 +5.961530E-05 +2.332086E-04 +5.961530E-05 -1.019214E-04 
 -5.044939E-05 -2.982289E-05 +1.903643E-04 -2.982289E-05 +5.060951E-03 +1.423605E-04 +1.903643E-04 +1.423605E-04 -1.462660E-04 
 -2.324131E-04 +4.224717E-05 +2.581589E-05 +4.224717E-05 +5.135621E-03 +2.974630E-05 +2.581589E-05 +2.974630E-05 -1.181074E-04 
 -3.889528E-04 +8.375897E-05 -2.701159E-04 +8.375897E-05 +5.201003E-03 -5.137454E-05 -2.701159E-04 -5.137454E-05 +2.381740E-05 
 -3.534141E-04 +5.242113E-05 -3.680461E-04 +5.242113E-05 +5.163487E-03 -2.472774E-05 -3.680461E-04 -2.472774E-05 +6.740864E-05 
 -1.356588E-04 -5.891249E-05 -2.363164E-04 -5.891249E-05 +5.111965E-03 -3.335478E-05 -2.363164E-04 -3.335478E-05 +1.262653E-05 
 +2.447224E-05 -1.155327E-04 -1.483173E-04 -1.155327E-04 +5.079002E-03 -7.385114E-05 -1.483173E-04 -7.385114E-05 +3.487367E-05 
 +1.425408E-04 -1.572849E-04 -1.212850E-04 -1.572849E-04 +5.052928E-03 -5.240970E-05 -1.212850E-04 -5.240970E-05 +4.228912E-05 
 +1.873445E-04 -1.933725E-04 -1.624393E-04 -1.933725E-04 +4.982395E-03 -6.903085E-05 -1.624393E-04 -6.903085E-05 +8.499725E-05 
 +6.648037E-05 -1.515752E-04 -9.201808E-05 -1.515752E-04 +4.927524E-03 -1.037893E-04 -9.201808E-05 -1.037893E-04 +1.009669E-04 
 -1.583105E-05 -1.441697E-04 +1.156473E-04 -1.441697E-04 +5.004444E-03 -7.732713E-05 +1.156473E-04 -7.732713E-05 +7.202170E-05 
 -1.474931E-04 -1.157451E-04 +3.233994E-04 -1.157451E-04 +5.082938E-03 -4.580374E-05 +3.233994E-04 -4.580374E-05 -4.777936E-05 
 +7.000566E-05 -3.185925E-05 +1.375826E-04 -3.185925E-05 +5.099419E-03 -4.957028E-06 +1.375826E-04 -4.957028E-06 -2.351058E-04 
 +1.436042E-04 +4.210683E-05 +2.767221E-04 +4.210683E-05 +5.014834E-03 +1.952637E-05 +2.767221E-04 +1.952637E-05 -1.314574E-04 
 +1.792931E-04 +1.913918E-04 +1.095395E-04 +1.913918E-04 +4.926844E-03 +4.410076E-05 +1.095395E-04 +4.410076E-05 +3.524786E-05 
 +2.603018E-04 +1.028814E-04 +2.121143E-04 +1.028814E-04 +4.939320E-03 +1.802670E-05 +2.121143E-04 +1.802670E-05 -8.837838E-05 
 +1.052644E-04 -1.102137E-04 +5.413510E-05 -1.102137E-04 +4.899297E-03 -6.077629E-05 +5.413510E-05 -6.077629E-05 -3.462360E-05 
 +8.000408E-05 -7.579904E-05 +2.091655E-05 -7.579904E-05 +4.794566E-03 -9.586158E-05 +2.091655E-05 -9.586158E-05 +9.767606E-05 
 +2.912106E-05 -5.063780E-05 -1.049259E-05 -5.063780E-05 +4.736658E-03 -1.169415E-04 -1.049259E-05 -1.169415E-04 +7.835351E-05 
 +8.720581E-06 -1.015659E-04 -8.239460E-05 -1.015659E-04 +4.736435E-03 -1.811706E-04 -8.239460E-05 -1.811706E-04 +7.559784E-05 
 -1.001869E-05 +5.043529E-05 +1.701115E-04 +5.043529E-05 +4.960026E-03 +4.638958E-06 +1.701115E-04 +4.638958E-06 -4.607688E-05 
 +4.220033E-05 +3.138477E-05 +2.698532E-04 +3.138477E-05 +5.018196E-03 +1.288969E-04 +2.698532E-04 +1.288969E-04 -2.016454E-04 
 +5.750810E-05 +5.221083E-05 +1.929743E-04 +5.221083E-05 +5.054456E-03 +1.655612E-04 +1.929743E-04 +1.655612E-04 -2.315896E-04 
 -2.657069E-04 +1.066631E-05 -1.734871E-04 +1.066631E-05 +5.155332E-03 +8.419099E-05 -1.734871E-04 +8.419099E-05 -1.059402E-04 
 -4.557812E-04 +1.328789E-05 -3.551221E-04 +1.328789E-05 +5.194264E-03 -3.633589E-05 -3.551221E-04 -3.633589E-05 +7.526634E-05 
 -3.572393E-04 +4.714087E-05 -3.412457E-04 +4.714087E-05 +5.169340E-03 -3.132108E-05 -3.412457E-04 -3.132108E-05 +1.383147E-04 
 -2.713464E-04 -3.018197E-05 -2.465815E-04 -3.018197E-05 +5.138657E-03 -3.301034E-05 -2.465815E-04 -3.301034E-05 +1.178859E-04 
 -1.699274E-04 -7.404777E-05 -1.732390E-04 -7.404777E-05 +5.115411E-03 -8.435777E-05 -1.732390E-04 -8.435777E-05 +1.479060E-04 
 +9.264678E-05 -1.714403E-04 -1.093502E-04 -1.714403E-04 +5.043275E-03 -1.223069E-04 -1.093502E-04 -1.223069E-04 +7.736195E-05 
 +2.036998E-04 -2.761194E-04 -1.113512E-04 -2.761194E-04 +4.996846E-03 -1.033250E-04 -1.113512E-04 -1.033250E-04 -2.802625E-05 
 +5.108006E-05 -1.518885E-04 +7.526060E-05 -1.518885E-04 +5.049046E-03 -6.188978E-05 +7.526060E-05 -6.188978E-05 -8.583817E-06 
 -5.396029E-05 -9.446253E-05 +1.419835E-04 -9.446253E-05 +5.092726E-03 -2.294056E-05 +1.419835E-04 -2.294056E-05 +2.100506E-05 
 +1.724356E-05 -6.948640E-05 +2.193895E-04 -6.948640E-05 +5.087784E-03 -7.106342E-06 +2.193895E-04 -7.106342E-06 -7.394141E-05 
 +1.655886E-04 -4.466254E-05 +1.451930E-04 -4.466254E-05 +5.050400E-03 -1.426220E-05 +1.451930E-04 -1.426220E-05 -1.808481E-04 
 +2.726095E-04 -6.560468E-05 +2.130433E-04 -6.560468E-05 +4.914301E-03 -5.525987E-05 +2.130433E-04 -5.525987E-05 -3.061787E-05 
 +3.381867E-04 +6.288929E-05 +6.700280E-05 +6.288929E-05 +4.780903E-03 -3.196977E-05 +6.700280E-05 -3.196977E-05 +1.468717E-04 
 +2.903495E-04 +2.801785E-05 +1.679734E-04 +2.801785E-05 +4.877770E-03 +1.096046E-05 +1.679734E-04 +1.096046E-05 +3.502668E-05 
 +4.270700E-05 -1.777165E-04 -1.033667E-04 -1.777165E-04 +5.055935E-03 +1.297463E-06 -1.033667E-04 +1.297463E-06 -7.541023E-05 
 +7.357533E-05 -1.332026E-04 -1.116518E-04 -1.332026E-04 +5.039449E-03 +6.641016E-05 -1.116518E-04 +6.641016E-05 +1.308538E-05 
 +1.218815E-05 -6.702142E-05 -1.413052E-04 -6.702142E-05 +4.937475E-03 +7.403695E-05 -1.413052E-04 +7.403695E-05 +9.713413E-05 
 -7.557364E-05 -4.600084E-05 -1.867465E-04 -4.600084E-05 +4.881357E-03 -4.588476E-05 -1.867465E-04 -4.588476E-05 +9.601848E-05 
 -6.717279E-05 +9.852154E-05 +1.778019E-04 +9.852154E-05 +5.037803E-03 +5.844661E-05 +1.778019E-04 +5.844661E-05 -4.143769E-05 
 +6.570861E-05 +8.911635E-05 +2.097263E-04 +8.911635E-05 +5.062085E-03 +1.240048E-04 +2.097263E-04 +1.240048E-04 -2.108752E-04 
 -5.415338E-05 +3.318570E-05 -3.754826E-06 +3.318570E-05 +5.135765E-03 +1.276148E-04 -3.754826E-06 +1.276148E-04 -3.038468E-04 
 -3.665500E-04 -4.733465E-05 -2.800682E-04 -4.733465E-05 +5.156928E-03 +4.733098E-06 -2.800682E-04 +4.733098E-06 -9.581938E-05 
 -3.271771E-04 -1.763179E-05 -3.329811E-04 -1.763179E-05 +5.141750E-03 -3.599313E-05 -3.329811E-04 -3.599313E-05 +1.153604E-04 
 -3.690904E-04 -2.592851E-06 -2.690431E-04 -2.592851E-06 +5.110992E-03 -2.723973E-05 -2.690431E-04 -2.723973E-05 +1.813584E-04 
 -3.151965E-04 -1.832570E-05 -2.159105E-04 -1.832570E-05 +5.118480E-03 -1.826073E-06 -2.159105E-04 -1.826073E-06 +2.298762E-04 
 -3.047426E-04 -4.539211E-05 -2.115127E-04 -4.539211E-05 +5.107503E-03 -7.008476E-05 -2.115127E-04 -7.008476E-05 +2.334970E-04 
 +2.428302E-06 -8.454994E-05 -8.021801E-05 -8.454994E-05 +5.080919E-03 -7.239526E-05 -8.021801E-05 -7.239526E-05 +7.196551E-05 
 +1.614098E-04 -1.280995E-04 +3.696009E-05 -1.280995E-04 +5.117318E-03 +4.180344E-05 +3.696009E-05 +4.180344E-05 -1.296781E-04 
 +2.794218E-05 -6.964728E-05 +1.301142E-04 -6.964728E-05 +5.124566E-03 +4.794495E-06 +1.301142E-04 +4.794495E-06 -1.252672E-04 
 +5.986790E-05 -4.227930E-05 +8.748804E-05 -4.227930E-05 +5.012439E-03 -1.264271E-04 +8.748804E-05 -1.264271E-04 -1.092431E-05 
 +1.602865E-04 +3.249539E-05 +7.820834E-06 +3.249539E-05 +4.854157E-03 -1.605565E-04 +7.820834E-06 -1.605565E-04 +4.791830E-05 
 +2.362571E-04 +6.677469E-05 -2.337882E-05 +6.677469E-05 +4.732580E-03 -1.275622E-04 -2.337882E-05 -1.275622E-04 +8.502681E-05 
 +2.878412E-04 +1.949973E-06 +1.679183E-05 +1.949973E-06 +4.718027E-03 -1.175840E-04 +1.679183E-05 -1.175840E-04 +1.857057E-04 
 +3.053784E-04 +6.786969E-05 -1.652335E-05 +6.786969E-05 +4.701297E-03 -8.128109E-05 -1.652335E-05 -8.128109E-05 +1.888071E-04 
 +3.250801E-04 +1.119991E-04 +1.108179E-04 +1.119991E-04 +4.714648E-03 -4.435761E-05 +1.108179E-04 -4.435761E-05 +1.255580E-04 
 +1.308155E-04 -1.051664E-04 -1.528390E-04 -1.051664E-04 +4.906705E-03 -4.573705E-05 -1.528390E-04 -4.573705E-05 -3.070393E-05 
 +4.631757E-05 -1.839913E-04 -2.504302E-04 -1.839913E-04 +5.032925E-03 +2.703809E-05 -2.504302E-04 +2.703809E-05 -7.643769E-05 
 +2.129464E-05 -9.544418E-05 -2.213917E-04 -9.544418E-05 +5.048587E-03 +1.373353E-04 -2.213917E-04 +1.373353E-04 +4.194978E-05 
 -2.660419E-05 -4.397913E-05 -3.168499E-04 -4.397913E-05 +5.081939E-03 +1.441625E-04 -3.168499E-04 +1.441625E-04 +4.470808E-05 
 -1.410976E-04 -2.086693E-05 +4.616518E-05 -2.086693E-05 +5.170507E-03 +1.953025E-04 +4.616518E-05 +1.953025E-04 -1.106124E-04 
 +1.173299E-04 +5.362287E-05 +1.294595E-04 +5.362287E-05 +5.192754E-03 +9.111522E-05 +1.294595E-04 +9.111522E-05 -2.977594E-04 
 -1.923082E-04 +3.851820E-05 -2.095779E-04 +3.851820E-05 +5.240356E-03 -1.320877E-06 -2.095779E-04 -1.320877E-06 -4.186749E-04 
 -2.978492E-04 +3.645098E-05 -2.888590E-04 +3.645098E-05 +5.190858E-03 -6.494081E-05 -2.888590E-04 -6.494081E-05 -1.262160E-04 
 -3.014732E-04 +2.756571E-05 -3.095203E-04 +2.756571E-05 +5.122207E-03 -9.519520E-05 -3.095203E-04 -9.519520E-05 +1.055977E-04 
 -3.481717E-04 +4.199342E-05 -2.254634E-04 +4.199342E-05 +5.090129E-03 -6.114302E-05 -2.254634E-04 -6.114302E-05 +2.443315E-04 
 -3.414943E-04 +2.521644E-05 -1.978712E-04 +2.521644E-05 +5.089376E-03 -5.820067E-05 -1.978712E-04 -5.820067E-05 +3.498009E-04 
 -2.614134E-04 +1.891873E-05 -1.800386E-04 +1.891873E-05 +5.068284E-03 -1.133232E-04 -1.800386E-04 -1.133232E-04 +2.660708E-04 
 +3.405846E-05 +6.087412E-05 -3.352601E-06 +6.087412E-05 +4.985468E-03 -1.132947E-04 -3.352601E-06 -1.132947E-04 +3.164901E-05 
 +7.197773E-05 +1.047601E-04 +3.603121E-05 +1.047601E-04 +4.952255E-03 -7.902860E-05 +3.603121E-05 -7.902860E-05 -9.793754E-05 
 +2.652424E-05 +9.760576E-05 +3.787047E-05 +9.760576E-05 +4.863872E-03 -7.323853E-05 +3.787047E-05 -7.323853E-05 -6.776176E-05 
 +1.544170E-04 +1.252523E-04 +1.339110E-05 +1.252523E-04 +4.723272E-03 -1.203787E-04 +1.339110E-05 -1.203787E-04 -1.297273E-05 
 +2.324667E-04 +1.263077E-04 -8.305447E-05 +1.263077E-04 +4.703787E-03 -1.424685E-04 -8.305447E-05 -1.424685E-04 +2.963071E-05 
 +2.471707E-04 +9.519706E-05 -8.977511E-05 +9.519706E-05 +4.704371E-03 -1.037352E-04 -8.977511E-05 -1.037352E-04 +9.233051E-05 
 +2.384325E-04 +5.384913E-05 -4.466923E-05 +5.384913E-05 +4.692003E-03 -1.024796E-04 -4.466923E-05 -1.024796E-04 +1.799316E-04 
 +2.198855E-04 +7.566148E-05 -4.346106E-05 +7.566148E-05 +4.668850E-03 -1.006844E-04 -4.346106E-05 -1.006844E-04 +2.246660E-04 
 +2.794295E-04 +1.256120E-04 +1.350287E-05 +1.256120E-04 +4.562054E-03 -9.645623E-05 +1.350287E-05 -9.645623E-05 +2.709878E-04 
 +2.007195E-04 +2.166736E-05 -8.247954E-05 +2.166736E-05 +4.621460E-03 -1.426096E-04 -8.247954E-05 -1.426096E-04 +2.071515E-04 
 -9.200784E-06 -1.604698E-04 -1.761232E-04 -1.604698E-04 +4.902545E-03 -5.488881E-05 -1.761232E-04 -5.488881E-05 +2.499356E-05 
 +3.909406E-05 -1.141124E-04 -1.731892E-04 -1.141124E-04 +5.063342E-03 +1.040714E-04 -1.731892E-04 +1.040714E-04 -1.053862E-04 
 +3.139122E-05 -7.759960E-05 -3.508791E-04 -7.759960E-05 +5.136042E-03 +1.901449E-04 -3.508791E-04 +1.901449E-04 -1.651430E-04 
 -9.681479E-05 -1.049675E-04 -4.503159E-05 -1.049675E-04 +5.252150E-03 +2.990832E-04 -4.503159E-05 +2.990832E-04 -3.179634E-04 
 +9.558331E-05 -1.420996E-05 -2.817668E-05 -1.420996E-05 +5.224980E-03 +1.429688E-04 -2.817668E-05 +1.429688E-04 -3.899249E-04 
 -1.161662E-06 +2.065788E-05 -1.486660E-04 +2.065788E-05 +5.178810E-03 -2.765894E-05 -1.486660E-04 -2.765894E-05 -4.190859E-04 
 -1.908204E-04 +7.474575E-05 -2.791352E-04 +7.474575E-05 +5.206597E-03 -1.216895E-04 -2.791352E-04 -1.216895E-04 -2.445095E-04 
 -3.151909E-04 +9.121803E-05 -2.493927E-04 +9.121803E-05 +5.185269E-03 -1.827783E-04 -2.493927E-04 -1.827783E-04 -4.129902E-05 
 -3.910449E-04 +7.749221E-05 -1.978065E-04 +7.749221E-05 +5.126736E-03 -1.317349E-04 -1.978065E-04 -1.317349E-04 +2.214285E-04 
 -2.935287E-04 +6.931245E-05 -2.163595E-04 +6.931245E-05 +5.017680E-03 -1.481849E-04 -2.163595E-04 -1.481849E-04 +3.759586E-04 
 -8.067666E-05 +1.229322E-04 -1.164388E-04 +1.229322E-04 +4.922105E-03 -1.895507E-04 -1.164388E-04 -1.895507E-04 +2.706381E-04 
 +1.736940E-06 +1.450720E-04 -4.636775E-05 +1.450720E-04 +4.964505E-03 -1.721447E-04 -4.636775E-05 -1.721447E-04 +6.599997E-05 
 +2.327888E-05 +1.310511E-04 -4.033323E-05 +1.310511E-04 +4.976294E-03 -1.264114E-04 -4.033323E-05 -1.264114E-04 -2.181202E-05 
 +4.250499E-05 +7.266832E-05 -1.309138E-05 +7.266832E-05 +4.918114E-03 -6.596513E-05 -1.309138E-05 -6.596513E-05 -3.022482E-05 
 +1.010657E-04 +5.494545E-05 -5.624099E-05 +5.494545E-05 +4.832166E-03 -7.576744E-05 -5.624099E-05 -7.576744E-05 -2.106329E-05 
 +2.241140E-04 +9.839820E-05 -8.877717E-05 +9.839820E-05 +4.756197E-03 -7.510311E-05 -8.877717E-05 -7.510311E-05 -1.779309E-05 
 +2.207063E-04 +5.613068E-05 -8.311624E-05 +5.613068E-05 +4.734035E-03 -2.955671E-05 -8.311624E-05 -2.955671E-05 +1.903320E-05 
 +2.419455E-04 +5.985062E-05 -6.189782E-05 +5.985062E-05 +4.717136E-03 -3.867443E-05 -6.189782E-05 -3.867443E-05 +4.157159E-05 
 +2.219657E-04 +1.042124E-04 -5.524849E-05 +1.042124E-04 +4.661889E-03 -8.567553E-05 -5.524849E-05 -8.567553E-05 +9.131078E-05 
 +1.536061E-04 +1.645133E-04 -9.631657E-05 +1.645133E-04 +4.585232E-03 -9.629805E-05 -9.631657E-05 -9.629805E-05 +1.676471E-04 
 +7.863481E-05 +1.089122E-04 -1.030479E-04 +1.089122E-04 +4.617716E-03 -1.003060E-04 -1.030479E-04 -1.003060E-04 +2.633902E-04 
 -1.112345E-04 -9.817394E-05 +1.343291E-06 -9.817394E-05 +4.849964E-03 -2.786500E-05 +1.343291E-06 -2.786500E-05 +6.756248E-05 
 +4.097071E-05 -2.036901E-04 -1.362031E-04 -2.036901E-04 +5.089596E-03 +8.337845E-05 -1.362031E-04 +8.337845E-05 -3.130677E-04 
 +3.429128E-05 -1.761541E-04 -2.762975E-04 -1.761541E-04 +5.185177E-03 +2.003509E-04 -2.762975E-04 +2.003509E-04 -4.091957E-04 
 +2.358469E-05 -9.700466E-05 -9.402291E-05 -9.700466E-05 +5.161231E-03 +2.109502E-04 -9.402291E-05 +2.109502E-04 -3.439375E-04 
 +7.543902E-05 -5.391213E-05 -1.056657E-04 -5.391213E-05 +5.157107E-03 +1.454625E-04 -1.056657E-04 +1.454625E-04 -3.692337E-04 
 +1.184048E-04 -4.977173E-05 -1.149946E-04 -4.977173E-05 +5.133484E-03 +2.556341E-05 -1.149946E-04 +2.556341E-05 -3.657834E-04 
 +4.978280E-05 -2.935501E-05 -2.329587E-04 -2.935501E-05 +5.150446E-03 -9.620961E-05 -2.329587E-04 -9.620961E-05 -3.980153E-04 
 -1.814433E-04 +6.131480E-05 -1.802132E-04 +6.131480E-05 +5.185899E-03 -1.403524E-04 -1.802132E-04 -1.403524E-04 -2.260362E-04 
 -3.813088E-04 +1.516738E-04 -2.206229E-04 +1.516738E-04 +5.129152E-03 -1.585047E-04 -2.206229E-04 -1.585047E-04 +1.279821E-04 
 -1.452426E-04 +1.709725E-04 -3.012441E-04 +1.709725E-04 +5.013184E-03 -1.602842E-04 -3.012441E-04 -1.602842E-04 +3.139300E-04 
 -8.180125E-05 +2.059440E-04 -1.565549E-04 +2.059440E-04 +4.973858E-03 -1.663534E-04 -1.565549E-04 -1.663534E-04 +2.691899E-04 
 -1.032513E-04 +1.748674E-04 -1.194550E-04 +1.748674E-04 +4.992800E-03 -1.527773E-04 -1.194550E-04 -1.527773E-04 +1.027347E-04 
 -1.527067E-05 +1.112953E-04 -5.051184E-05 +1.112953E-04 +4.979429E-03 -1.084160E-04 -5.051184E-05 -1.084160E-04 +1.564794E-05 
 +1.130330E-05 +6.499574E-05 -2.462258E-05 +6.499574E-05 +4.967556E-03 -4.618095E-05 -2.462258E-05 -4.618095E-05 -4.905758E-05 
 +2.174699E-05 +1.363197E-05 -7.651956E-05 +1.363197E-05 +4.937316E-03 +1.243605E-05 -7.651956E-05 +1.243605E-05 -9.297772E-05 
 +2.308359E-04 +9.792565E-05 -7.308695E-05 +9.792565E-05 +4.858520E-03 +1.336911E-05 -7.308695E-05 +1.336911E-05 -1.308358E-04 
 +2.386911E-04 +6.276969E-05 -8.403850E-05 +6.276969E-05 +4.761865E-03 -1.048352E-05 -8.403850E-05 -1.048352E-05 -1.233458E-04 
 +2.101875E-04 +1.271086E-04 -1.035742E-04 +1.271086E-04 +4.802202E-03 +2.876417E-06 -1.035742E-04 +2.876417E-06 -1.002582E-04 
 +1.605272E-04 +2.506210E-05 -5.285190E-05 +2.506210E-05 +4.983263E-03 +4.240460E-05 -5.285190E-05 +4.240460E-05 -1.061266E-04 
 +1.424012E-05 -1.398035E-05 -1.013324E-04 -1.398035E-05 +5.040938E-03 +1.374977E-04 -1.013324E-04 +1.374977E-04 -3.489480E-05 
 -1.673096E-04 -1.792405E-05 -1.342090E-04 -1.792405E-05 +4.950645E-03 +2.147358E-04 -1.342090E-04 +2.147358E-04 +1.705317E-04 
 -2.018025E-04 -7.619170E-05 +4.713129E-05 -7.619170E-05 +4.936737E-03 +1.707124E-04 +4.713129E-05 +1.707124E-04 +2.231494E-05 
 +4.550866E-05 -1.964613E-04 -1.635302E-04 -1.964613E-04 +5.041058E-03 +1.263182E-04 -1.635302E-04 +1.263182E-04 -3.908702E-04 
 +7.721119E-05 -1.624022E-04 -2.315071E-04 -1.624022E-04 +5.126613E-03 +1.853345E-04 -2.315071E-04 +1.853345E-04 -4.326104E-04 
 +7.847731E-05 -1.039683E-04 -1.442773E-04 -1.039683E-04 +5.061032E-03 +9.006755E-05 -1.442773E-04 +9.006755E-05 -2.600811E-04 
 +1.242573E-04 -7.249221E-05 -1.276214E-04 -7.249221E-05 +5.076568E-03 +6.355040E-05 -1.276214E-04 +6.355040E-05 -3.170871E-04 
 +1.405908E-04 -1.941577E-05 -1.579848E-04 -1.941577E-05 +5.092939E-03 +3.391393E-05 -1.579848E-04 +3.391393E-05 -3.538665E-04 
 +2.095513E-04 -1.719641E-05 -1.835836E-04 -1.719641E-05 +5.093501E-03 +1.363285E-05 -1.835836E-04 +1.363285E-05 -4.055504E-04 
 +1.105162E-04 -7.494834E-06 -1.629104E-04 -7.494834E-06 +5.089729E-03 -4.593048E-05 -1.629104E-04 -4.593048E-05 -1.984625E-04 
 -1.509604E-04 +1.015946E-04 -2.090467E-04 +1.015946E-04 +5.083493E-03 -9.662913E-05 -2.090467E-04 -9.662913E-05 +8.667080E-05 
 -1.672541E-04 +1.031598E-04 -3.569472E-04 +1.031598E-04 +5.082219E-03 -1.131508E-04 -3.569472E-04 -1.131508E-04 +2.271750E-04 
 -1.683733E-04 +1.401375E-04 -2.172206E-04 +1.401375E-04 +5.105788E-03 -1.361597E-04 -2.172206E-04 -1.361597E-04 +2.548324E-04 
 -1.392739E-04 +1.303900E-04 -1.560687E-04 +1.303900E-04 +5.050053E-03 -1.224760E-04 -1.560687E-04 -1.224760E-04 +1.289624E-04 
 -5.503618E-05 +1.175397E-04 -6.816839E-05 +1.175397E-04 +4.976868E-03 -6.218494E-05 -6.816839E-05 -6.218494E-05 +2.589925E-05 
 -2.866703E-05 +1.069640E-04 -1.561354E-05 +1.069640E-04 +5.010906E-03 +6.252185E-06 -1.561354E-05 +6.252185E-06 -8.297793E-05 
 -4.956986E-06 +2.959804E-05 -1.003565E-04 +2.959804E-05 +5.051952E-03 +3.200959E-05 -1.003565E-04 +3.200959E-05 -1.867754E-04 
 +1.787879E-04 +8.118575E-05 -7.181172E-05 +8.118575E-05 +5.039410E-03 +3.297254E-05 -7.181172E-05 +3.297254E-05 -3.401710E-04 
 +1.779235E-04 +1.520293E-05 -4.965502E-05 +1.520293E-05 +5.121345E-03 +4.818619E-05 -4.965502E-05 +4.818619E-05 -3.542800E-04 
 +1.085374E-04 +3.158408E-05 -1.231843E-04 +3.158408E-05 +5.188039E-03 +7.303450E-05 -1.231843E-04 +7.303450E-05 -2.278657E-04 
 +3.925845E-05 -6.323189E-06 -3.500605E-05 -6.323189E-06 +5.150759E-03 +6.464186E-05 -3.500605E-05 +6.464186E-05 -2.072113E-04 
 -4.493194E-05 -3.593562E-05 -1.979033E-05 -3.593562E-05 +5.146589E-03 +6.806106E-05 -1.979033E-05 +6.806106E-05 -8.453918E-05 
 -3.032493E-04 -6.352507E-06 -7.193101E-05 -6.352507E-06 +5.109197E-03 +1.244734E-04 -7.193101E-05 +1.244734E-04 +1.626247E-04 
 -2.561857E-04 +3.505744E-05 +5.228968E-05 +3.505744E-05 +5.050263E-03 +1.409949E-04 +5.228968E-05 +1.409949E-04 +8.539496E-05 
 +5.635162E-05 -7.733863E-05 -1.993440E-04 -7.733863E-05 +5.041920E-03 +8.709420E-05 -1.993440E-04 +8.709420E-05 -2.955486E-04 
 +9.475010E-05 -1.104375E-04 -2.381989E-04 -1.104375E-04 +5.056628E-03 +7.217609E-05 -2.381989E-04 +7.217609E-05 -3.594657E-04 
 +1.212721E-04 -1.122957E-04 -2.111884E-04 -1.122957E-04 +5.046209E-03 -8.385981E-06 -2.111884E-04 -8.385981E-06 -3.021524E-04 
 +1.971697E-04 -5.194257E-05 -1.572610E-04 -5.194257E-05 +5.022760E-03 -1.465525E-05 -1.572610E-04 -1.465525E-05 -3.611350E-04 
 +2.176261E-04 -1.236844E-05 -1.370831E-04 -1.236844E-05 +5.031588E-03 +1.375991E-05 -1.370831E-04 +1.375991E-05 -3.777327E-04 
 +2.325467E-04 -2.188716E-05 -1.493589E-04 -2.188716E-05 +5.045392E-03 +4.456861E-05 -1.493589E-04 +4.456861E-05 -3.604072E-04 
 +2.313863E-04 -9.427642E-05 -1.727029E-04 -9.427642E-05 +5.053135E-03 +2.846462E-05 -1.727029E-04 +2.846462E-05 -1.628044E-04 
 +6.043038E-05 -1.214992E-04 -1.475058E-04 -1.214992E-04 +5.094635E-03 -1.392276E-05 -1.475058E-04 -1.392276E-05 -3.175608E-06 
 -1.270428E-04 -9.198309E-05 -2.959742E-04 -9.198309E-05 +5.117355E-03 +8.156858E-06 -2.959742E-04 +8.156858E-06 +3.856278E-05 
 -8.309118E-05 +8.036090E-05 -2.464150E-04 +8.036090E-05 +5.031487E-03 +1.792331E-05 -2.464150E-04 +1.792331E-05 +5.083136E-05 
 -9.672455E-05 +1.188392E-04 -2.562347E-04 +1.188392E-04 +4.975371E-03 -4.620809E-05 -2.562347E-04 -4.620809E-05 +1.240858E-05 
 -9.348739E-05 +1.678072E-04 -1.489238E-04 +1.678072E-04 +5.020280E-03 -6.768369E-05 -1.489238E-04 -6.768369E-05 +8.467270E-06 
 -8.068621E-05 +1.564013E-04 -5.923606E-05 +1.564013E-04 +5.074870E-03 -3.435475E-05 -5.923606E-05 -3.435475E-05 -7.790809E-05 
 -4.516974E-05 +9.904304E-05 -1.616800E-04 +9.904304E-05 +5.227811E-03 +3.475330E-05 -1.616800E-04 +3.475330E-05 -2.443353E-04 
 +4.811423E-05 +2.601945E-05 -8.914572E-05 +2.601945E-05 +5.327501E-03 +8.172692E-05 -8.914572E-05 +8.172692E-05 -4.804585E-04 
 +6.523582E-05 +4.091247E-05 +4.486376E-05 +4.091247E-05 +5.264388E-03 +6.826671E-05 +4.486376E-05 +6.826671E-05 -4.856154E-04 
 +3.452090E-05 +3.389865E-05 -4.869457E-05 +3.389865E-05 +5.206986E-03 +9.214766E-05 -4.869457E-05 +9.214766E-05 -2.662291E-04 
 -1.527944E-05 +1.310990E-05 -2.369638E-05 +1.310990E-05 +5.166495E-03 +8.775841E-05 -2.369638E-05 +8.775841E-05 -2.003459E-04 
 -5.632919E-05 -1.609509E-05 +1.611431E-05 -1.609509E-05 +5.156496E-03 +3.960424E-06 +1.611431E-05 +3.960424E-06 -1.472772E-04 
 -3.266199E-04 +3.353622E-06 -1.852500E-05 +3.353622E-06 +5.152536E-03 -2.501688E-05 -1.852500E-05 -2.501688E-05 +3.714865E-05 
 -3.527829E-04 +4.038349E-05 +4.890034E-05 +4.038349E-05 +5.121989E-03 -1.517240E-05 +4.890034E-05 -1.517240E-05 +2.497077E-05 
 -2.947866E-06 -8.293856E-05 -2.360487E-04 -8.293856E-05 +5.098547E-03 -2.668141E-05 -2.360487E-04 -2.668141E-05 -3.107884E-04 
 +7.196945E-05 -1.391200E-04 -2.985039E-04 -1.391200E-04 +5.083967E-03 -1.181995E-05 -2.985039E-04 -1.181995E-05 -3.871522E-04 
 +1.852341E-04 -1.036598E-04 -2.581407E-04 -1.036598E-04 +5.048506E-03 -3.804168E-05 -2.581407E-04 -3.804168E-05 -3.697306E-04 
 +2.504096E-04 -4.389764E-05 -1.719017E-04 -4.389764E-05 +5.036519E-03 -2.362859E-05 -1.719017E-04 -2.362859E-05 -4.267298E-04 
 +2.655027E-04 -1.055358E-05 -1.126630E-04 -1.055358E-05 +5.023548E-03 +1.616945E-06 -1.126630E-04 +1.616945E-06 -4.123248E-04 
 +2.350066E-04 -2.943758E-05 -1.018848E-04 -2.943758E-05 +5.033266E-03 +3.654442E-05 -1.018848E-04 +3.654442E-05 -3.322590E-04 
 +1.377583E-04 -1.289160E-04 -1.608018E-04 -1.289160E-04 +5.083668E-03 +6.232811E-05 -1.608018E-04 +6.232811E-05 -1.430203E-04 
 +9.380347E-05 -1.956121E-04 -1.257192E-04 -1.956121E-04 +5.126657E-03 +2.533880E-05 -1.257192E-04 +2.533880E-05 -6.346872E-05 
 +5.470626E-05 -2.431565E-04 -2.080318E-04 -2.431565E-04 +5.181379E-03 -8.762560E-06 -2.080318E-04 -8.762560E-06 -1.250676E-04 
 +1.298803E-05 -1.987288E-04 -2.651021E-04 -1.987288E-04 +5.229248E-03 +5.497728E-06 -2.651021E-04 +5.497728E-06 -1.683874E-04 
 -1.039963E-05 -1.560771E-04 -3.072119E-04 -1.560771E-04 +5.209793E-03 +1.087017E-05 -3.072119E-04 +1.087017E-05 -1.422391E-04 
 -3.526138E-05 -4.409453E-05 -2.296964E-04 -4.409453E-05 +5.165147E-03 -9.271170E-07 -2.296964E-04 -9.271170E-07 -7.827877E-05 
 -4.568734E-05 +7.987269E-05 -1.613011E-04 +7.987269E-05 +5.188500E-03 -2.527932E-05 -1.613011E-04 -2.527932E-05 -1.411377E-04 
 -9.800683E-05 +1.203530E-04 -1.283258E-04 +1.203530E-04 +5.254735E-03 +7.512893E-05 -1.283258E-04 +7.512893E-05 -1.998917E-04 
 -1.119106E-04 -2.083199E-05 -1.095449E-04 -2.083199E-05 +5.298722E-03 +2.207118E-04 -1.095449E-04 +2.207118E-04 -3.172355E-04 
 -3.571968E-06 -5.328501E-05 +1.610133E-05 -5.328501E-05 +5.282949E-03 +1.565405E-04 +1.610133E-05 +1.565405E-04 -4.555381E-04 
 +2.586385E-05 -1.977689E-05 +7.147930E-05 -1.977689E-05 +5.248554E-03 +6.584257E-05 +7.147930E-05 +6.584257E-05 -3.869155E-04 
 -2.822586E-05 +1.348143E-05 +1.793116E-06 +1.348143E-05 +5.244646E-03 +1.211076E-05 +1.793116E-06 +1.211076E-05 -2.773650E-04 
 -9.004039E-05 +2.362018E-05 +3.059893E-05 +2.362018E-05 +5.242301E-03 -8.758811E-05 +3.059893E-05 -8.758811E-05 -2.498106E-04 
 -3.561602E-04 +8.225159E-06 +3.207276E-05 +8.225159E-06 +5.259841E-03 -9.075332E-05 +3.207276E-05 -9.075332E-05 -1.575049E-04 
 -4.613579E-04 +5.473952E-06 +1.960010E-05 +5.473952E-06 +5.220438E-03 -7.876272E-05 +1.960010E-05 -7.876272E-05 -1.344362E-04 
 -1.578017E-04 -1.122831E-04 -1.756740E-04 -1.122831E-04 +5.142911E-03 -5.953795E-05 -1.756740E-04 -5.953795E-05 -3.187900E-04 
 +1.372594E-04 -1.683219E-04 -3.850872E-04 -1.683219E-04 +5.082996E-03 -2.862752E-05 -3.850872E-04 -2.862752E-05 -3.756367E-04 
 +2.421761E-04 -6.646974E-05 -2.682963E-04 -6.646974E-05 +4.996709E-03 -1.004779E-05 -2.682963E-04 -1.004779E-05 -3.747175E-04 
 +2.647777E-04 -1.656654E-05 -1.753583E-04 -1.656654E-05 +4.975763E-03 +3.196566E-05 -1.753583E-04 +3.196566E-05 -4.055649E-04 
 +2.801097E-04 +3.319379E-06 -1.031130E-04 +3.319379E-06 +4.982222E-03 +5.184647E-05 -1.031130E-04 +5.184647E-05 -3.872311E-04 
 +2.007158E-04 -7.477913E-06 -4.999037E-05 -7.477913E-06 +5.038500E-03 +6.535942E-05 -4.999037E-05 +6.535942E-05 -2.833008E-04 
 +5.415264E-05 -6.991816E-05 -6.638555E-05 -6.991816E-05 +5.133583E-03 +1.008403E-04 -6.638555E-05 +1.008403E-04 -1.541402E-04 
 +8.918278E-05 -1.481243E-04 -1.112260E-04 -1.481243E-04 +5.182350E-03 +8.411369E-05 -1.112260E-04 +8.411369E-05 -1.506530E-04 
 +9.246541E-05 -2.005320E-04 -1.686613E-04 -2.005320E-04 +5.170537E-03 +6.186495E-06 -1.686613E-04 +6.186495E-06 -1.691327E-04 
 +2.167312E-05 -1.957631E-04 -1.941934E-04 -1.957631E-04 +5.195411E-03 -2.907935E-05 -1.941934E-04 -2.907935E-05 -1.639266E-04 
 +1.964923E-06 -2.250759E-04 -2.047080E-04 -2.250759E-04 +5.247247E-03 -1.559756E-05 -2.047080E-04 -1.559756E-05 -1.899112E-04 
 -1.368472E-05 -2.151388E-04 -1.792537E-04 -2.151388E-04 +5.306718E-03 +2.891555E-05 -1.792537E-04 +2.891555E-05 -2.611227E-04 
 +4.059975E-05 -1.683915E-04 -1.363325E-04 -1.683915E-04 +5.354736E-03 +1.641858E-04 -1.363325E-04 +1.641858E-04 -2.875479E-04 
 -6.327705E-05 -1.846465E-04 -8.002214E-05 -1.846465E-04 +5.263630E-03 +3.023077E-04 -8.002214E-05 +3.023077E-04 -1.753748E-04 
 -7.653295E-05 -1.140044E-04 -1.188794E-04 -1.140044E-04 +5.218045E-03 +3.329233E-04 -1.188794E-04 +3.329233E-04 -8.571287E-05 
 -4.871321E-05 -9.834890E-05 -1.136426E-04 -9.834890E-05 +5.241658E-03 +2.538047E-04 -1.136426E-04 +2.538047E-04 -2.401582E-04 
 +6.976564E-05 -8.947754E-06 +1.192744E-04 -8.947754E-06 +5.195776E-03 +1.322584E-04 +1.192744E-04 +1.322584E-04 -5.208682E-04 
 +1.531474E-05 +4.391549E-05 +4.141405E-05 +4.391549E-05 +5.226788E-03 +6.427970E-05 +4.141405E-05 +6.427970E-05 -5.877541E-04 
 -1.459171E-04 +6.520841E-05 +7.031909E-05 +6.520841E-05 +5.329099E-03 +2.912082E-05 +7.031909E-05 +2.912082E-05 -3.454935E-04 
 -4.991022E-04 -3.495404E-05 +1.396054E-04 -3.495404E-05 +5.348551E-03 +2.666793E-05 +1.396054E-04 +2.666793E-05 -4.588230E-05 
 -5.025681E-04 -9.704290E-05 +6.321432E-05 -9.704290E-05 +5.252562E-03 -3.550942E-06 +6.321432E-05 -3.550942E-06 -5.012015E-05 
 -2.276645E-04 -1.195604E-04 -8.830821E-05 -1.195604E-04 +5.122748E-03 -1.067597E-04 -8.830821E-05 -1.067597E-04 -2.433298E-04 
 +2.045815E-04 -1.152077E-04 -3.665051E-04 -1.152077E-04 +5.032153E-03 -1.038668E-04 -3.665051E-04 -1.038668E-04 -3.376283E-04 
 +2.289335E-04 +3.505526E-05 -2.122977E-04 +3.505526E-05 +4.979664E-03 -1.816673E-06 -2.122977E-04 -1.816673E-06 -3.111169E-04 
 +2.377151E-04 +2.833874E-05 -1.253002E-04 +2.833874E-05 +4.952549E-03 +7.608138E-05 -1.253002E-04 +7.608138E-05 -3.431203E-04 
 +2.010460E-04 +2.275350E-05 -8.789757E-05 +2.275350E-05 +4.907632E-03 +7.696643E-05 -8.789757E-05 +7.696643E-05 -2.762400E-04 
 +1.625961E-04 +3.473964E-05 -8.991075E-06 +3.473964E-05 +4.956872E-03 +5.014256E-05 -8.991075E-06 +5.014256E-05 -1.734805E-04 
 +1.226532E-04 +3.059335E-05 +5.798412E-06 +3.059335E-05 +5.089385E-03 +4.144032E-05 +5.798412E-06 +4.144032E-05 -1.957214E-04 
 +1.225349E-04 -4.527869E-05 -9.275513E-05 -4.527869E-05 +5.155882E-03 -5.746952E-07 -9.275513E-05 -5.746952E-07 -2.728945E-04 
 +1.338602E-05 -1.041384E-04 -1.027167E-04 -1.041384E-04 +5.179584E-03 -3.384000E-05 -1.027167E-04 -3.384000E-05 -2.184351E-04 
 -2.648403E-05 -1.440347E-04 -1.045402E-04 -1.440347E-04 +5.198069E-03 -3.407497E-05 -1.045402E-04 -3.407497E-05 -1.687955E-04 
 -5.869885E-05 -1.729737E-04 -9.919982E-05 -1.729737E-04 +5.221731E-03 -1.730356E-05 -9.919982E-05 -1.730356E-05 -1.803374E-04 
 -9.057806E-07 -1.583533E-04 -1.324736E-04 -1.583533E-04 +5.129081E-03 +4.104456E-05 -1.324736E-04 +4.104456E-05 -1.992345E-04 
 +1.105017E-04 -4.390287E-05 -6.489232E-05 -4.390287E-05 +4.884503E-03 +1.221436E-04 -6.489232E-05 +1.221436E-04 -2.050471E-04 
 +6.509161E-05 -1.084624E-05 -6.494358E-05 -1.084624E-05 +4.789221E-03 +1.850099E-04 -6.494358E-05 +1.850099E-04 -1.640924E-04 
 +2.881784E-05 +8.697959E-05 -7.217474E-05 +8.697959E-05 +4.847415E-03 +2.096013E-04 -7.217474E-05 +2.096013E-04 -4.750376E-05 
 -4.050621E-05 +5.830308E-05 -9.480186E-05 +5.830308E-05 +5.025491E-03 +2.085187E-04 -9.480186E-05 +2.085187E-04 -5.226167E-05 
 +1.980146E-05 +2.554685E-05 +1.053598E-04 +2.554685E-05 +5.153260E-03 +1.693658E-04 +1.053598E-04 +1.693658E-04 -2.318055E-04 
 -5.948592E-05 +4.510128E-05 +2.271121E-05 +4.510128E-05 +5.189536E-03 +1.722500E-04 +2.271121E-05 +1.722500E-04 -3.330460E-04 
 -1.384678E-04 +3.658390E-05 +4.419740E-05 +3.658390E-05 +5.284160E-03 +2.044240E-04 +4.419740E-05 +2.044240E-04 -1.510122E-04 
 -5.122642E-04 -1.810230E-06 +1.512695E-04 -1.810230E-06 +5.303215E-03 +1.514634E-04 +1.512695E-04 +1.514634E-04 +1.692280E-04 
 -4.554616E-04 +7.945585E-06 +9.016886E-05 +7.945585E-06 +5.177965E-03 +3.993424E-05 +9.016886E-05 +3.993424E-05 +1.245780E-04 
 -1.116591E-04 +5.688704E-05 -1.086376E-04 +5.688704E-05 +5.024650E-03 -1.062215E-04 -1.086376E-04 -1.062215E-04 -1.868239E-04 
 +9.072906E-05 +7.450623E-05 -2.144502E-04 +7.450623E-05 +4.977140E-03 -1.285819E-04 -2.144502E-04 -1.285819E-04 -3.066209E-04 
 +1.311430E-04 +1.401873E-04 -6.711794E-05 +1.401873E-04 +4.951427E-03 -1.402129E-05 -6.711794E-05 -1.402129E-05 -2.518380E-04 
 +1.795225E-04 +1.129595E-04 -4.735058E-05 +1.129595E-04 +4.959436E-03 +8.575579E-05 -4.735058E-05 +8.575579E-05 -2.783045E-04 
 +1.132520E-04 +5.382823E-05 -1.034770E-04 +5.382823E-05 +4.818876E-03 +1.120316E-04 -1.034770E-04 +1.120316E-04 -1.468377E-04 
 +1.411350E-04 +1.942908E-04 -6.487736E-05 +1.942908E-04 +4.616597E-03 +7.006236E-05 -6.487736E-05 +7.006236E-05 -3.423642E-05 
 +1.831870E-04 +1.790376E-04 -5.078436E-05 +1.790376E-04 +4.589233E-03 +3.164911E-05 -5.078436E-05 +3.164911E-05 -3.297719E-05 
 +1.781886E-04 +4.985326E-05 -6.827849E-05 +4.985326E-05 +4.709675E-03 -4.873836E-06 -6.827849E-05 -4.873836E-06 -1.003238E-04 
 +1.618861E-05 +9.286303E-05 +1.016111E-05 +9.286303E-05 +4.946719E-03 -2.891284E-05 +1.016111E-05 -2.891284E-05 -1.463317E-04 
 -7.199465E-05 +6.242509E-05 -3.360443E-05 +6.242509E-05 +5.089278E-03 -1.838418E-06 -3.360443E-05 -1.838418E-06 -1.061850E-04 
 -6.693055E-05 +1.885837E-05 -8.196097E-05 +1.885837E-05 +4.955976E-03 +2.664946E-05 -8.196097E-05 +2.664946E-05 -2.594598E-05 
 +5.214260E-05 -1.947634E-05 -1.694247E-04 -1.947634E-05 +4.774813E-03 +5.101034E-05 -1.694247E-04 +5.101034E-05 +4.014417E-05 
 +1.385227E-04 +1.174630E-05 -9.266123E-05 +1.174630E-05 +4.690277E-03 +6.948376E-05 -9.266123E-05 +6.948376E-05 -1.212311E-05 
 +8.843382E-05 +5.347878E-05 -4.573090E-05 +5.347878E-05 +4.679825E-03 +9.447317E-05 -4.573090E-05 +9.447317E-05 -6.188926E-05 
 +1.537938E-06 +8.803352E-05 -2.458269E-05 +8.803352E-05 +4.745351E-03 +1.310055E-04 -2.458269E-05 +1.310055E-04 -2.868935E-05 
 -3.288705E-05 +9.709510E-05 -1.833108E-05 +9.709510E-05 +4.787481E-03 +1.579838E-04 -1.833108E-05 +1.579838E-04 +2.785840E-05 
 -1.125584E-04 +3.757532E-05 +5.076706E-05 +3.757532E-05 +4.904943E-03 +1.564232E-04 +5.076706E-05 +1.564232E-04 +1.164938E-04 
 -2.793791E-04 -4.139426E-05 -1.168532E-05 -4.139426E-05 +4.877527E-03 +1.366886E-04 -1.168532E-05 +1.366886E-04 +1.224143E-04 
 -1.132900E-04 -7.620795E-05 +7.116241E-05 -7.620795E-05 +4.641077E-03 +1.916421E-04 +7.116241E-05 +1.916421E-04 +1.401451E-04 
 -2.408817E-04 -4.807582E-05 +5.773706E-05 -4.807582E-05 +4.608034E-03 +2.422905E-04 +5.773706E-05 +2.422905E-04 +3.067090E-04 
 -2.642026E-04 -8.267970E-06 +4.223679E-06 -8.267970E-06 +4.708517E-03 +1.461137E-04 +4.223679E-06 +1.461137E-04 +2.559041E-04 
 -5.538427E-05 +8.610630E-05 -6.895472E-05 +8.610630E-05 +4.823483E-03 +1.528029E-05 -6.895472E-05 +1.528029E-05 -6.783539E-05 
 +1.409862E-05 +1.253109E-04 -6.103079E-05 +1.253109E-04 +4.929157E-03 -5.465871E-05 -6.103079E-05 -5.465871E-05 -2.196219E-04 
 +1.132629E-04 +7.758806E-05 +4.799382E-05 +7.758806E-05 +4.930290E-03 -3.233595E-05 +4.799382E-05 -3.233595E-05 -2.356502E-04 
 +1.680481E-04 +1.311793E-04 +1.507382E-06 +1.311793E-04 +4.891501E-03 +2.888303E-05 +1.507382E-06 +2.888303E-05 -1.956006E-04 
 +1.931844E-05 -1.113166E-05 -1.616451E-04 -1.113166E-05 +4.847599E-03 +6.197716E-05 -1.616451E-04 +6.197716E-05 -5.863096E-06 
 +4.391442E-05 +6.198235E-05 -1.844750E-04 +6.198235E-05 +4.722991E-03 +3.453137E-05 -1.844750E-04 +3.453137E-05 +5.299224E-05 
 +2.034866E-04 +8.681461E-05 -1.068158E-04 +8.681461E-05 +4.543399E-03 +3.412967E-05 -1.068158E-04 +3.412967E-05 +1.091689E-04 
 +2.180070E-04 +7.597533E-05 -8.007453E-05 +7.597533E-05 +4.494440E-03 +6.407640E-05 -8.007453E-05 +6.407640E-05 +1.377054E-04 
 +1.589059E-04 +1.286331E-04 -8.875314E-06 +1.286331E-04 +4.540254E-03 +3.333131E-05 -8.875314E-06 +3.333131E-05 +7.053245E-05 
 +2.262259E-05 +1.041494E-04 -1.347067E-05 +1.041494E-04 +4.630029E-03 +1.081523E-05 -1.347067E-05 +1.081523E-05 +1.322704E-04 
 -2.792521E-05 -2.156725E-05 -1.100582E-04 -2.156725E-05 +4.636167E-03 -6.288997E-06 -1.100582E-04 -6.288997E-06 +2.095762E-04 
 +5.512301E-05 +4.293219E-05 -1.695220E-04 +4.293219E-05 +4.575982E-03 -1.439852E-05 -1.695220E-04 -1.439852E-05 +1.782076E-04 
 +2.970748E-05 +6.246868E-05 -1.192830E-04 +6.246868E-05 +4.574157E-03 +4.540774E-05 -1.192830E-04 +4.540774E-05 +1.039719E-04 
 -1.865146E-05 +1.340489E-04 -9.103410E-05 +1.340489E-04 +4.616273E-03 +8.530367E-05 -9.103410E-05 +8.530367E-05 +7.855654E-05 
 -9.588065E-05 +1.379986E-04 -5.409876E-05 +1.379986E-04 +4.710052E-03 +8.500820E-05 -5.409876E-05 +8.500820E-05 +5.877228E-05 
 -1.379872E-04 +5.211014E-05 -8.890645E-06 +5.211014E-05 +4.812074E-03 +7.974633E-05 -8.890645E-06 +7.974633E-05 +8.759616E-05 
 -2.390547E-04 -2.403276E-05 +3.433561E-05 -2.403276E-05 +4.902426E-03 +1.204819E-04 +3.433561E-05 +1.204819E-04 +7.818680E-05 
 -2.461708E-04 -1.082950E-04 -2.563731E-05 -1.082950E-04 +4.927629E-03 +9.419862E-05 -2.563731E-05 +9.419862E-05 -3.781630E-05 
 -1.266511E-04 -3.755636E-05 +1.338435E-04 -3.755636E-05 +4.789882E-03 +1.816277E-05 +1.338435E-04 +1.816277E-05 +4.816639E-05 
 -8.946629E-05 +1.490352E-05 +3.139874E-05 +1.490352E-05 +4.604969E-03 +7.314139E-05 +3.139874E-05 +7.314139E-05 +3.185451E-04 
 -7.872837E-05 -2.612333E-05 -5.132277E-05 -2.612333E-05 +4.661741E-03 +6.891095E-05 -5.132277E-05 +6.891095E-05 +3.178844E-04 
 -2.750494E-05 +4.455727E-05 -3.482166E-06 +4.455727E-05 +4.819440E-03 -6.227914E-05 -3.482166E-06 -6.227914E-05 +1.551671E-05 
 +5.549010E-05 +7.596616E-05 +1.912248E-06 +7.596616E-05 +4.905412E-03 -9.680127E-05 +1.912248E-06 -9.680127E-05 -1.641648E-04 
 +1.428078E-04 +2.890424E-05 +6.781427E-05 +2.890424E-05 +4.918347E-03 -7.815256E-05 +6.781427E-05 -7.815256E-05 -2.501372E-04 
 +1.947903E-04 +4.003899E-05 +1.001464E-05 +4.003899E-05 +4.861737E-03 -3.235157E-05 +1.001464E-05 -3.235157E-05 -1.692642E-04 
 -4.026407E-05 -6.161579E-05 -1.915221E-04 -6.161579E-05 +4.797386E-03 +1.238326E-06 -1.915221E-04 +1.238326E-06 +4.537545E-05 
 -5.652453E-05 +3.461663E-05 -2.457911E-04 +3.461663E-05 +4.678871E-03 -1.091543E-05 -2.457911E-04 -1.091543E-05 +8.834410E-05 
 +2.370741E-04 +9.492865E-05 -9.188264E-05 +9.492865E-05 +4.516821E-03 +1.614058E-05 -9.188264E-05 +1.614058E-05 +1.214007E-04 
 +2.581662E-04 +1.473871E-04 -1.036409E-04 +1.473871E-04 +4.436454E-03 +6.081286E-05 -1.036409E-04 +6.081286E-05 +1.808931E-04 
 +2.629210E-04 +2.017583E-04 -8.078717E-05 +2.017583E-04 +4.460623E-03 +6.997263E-05 -8.078717E-05 +6.997263E-05 +1.792925E-04 
 +2.009674E-04 +1.697766E-04 -4.464141E-05 +1.697766E-04 +4.504241E-03 +8.073166E-05 -4.464141E-05 +8.073166E-05 +2.308095E-04 
 +1.560632E-04 +3.532650E-05 -6.324308E-05 +3.532650E-05 +4.532418E-03 +5.687650E-05 -6.324308E-05 +5.687650E-05 +2.798820E-04 
 -6.545811E-05 +1.302953E-04 -8.586712E-05 +1.302953E-04 +4.575748E-03 +5.729210E-05 -8.586712E-05 +5.729210E-05 +2.581729E-04 
 -2.287423E-04 +3.787086E-05 -1.119605E-04 +3.787086E-05 +4.676779E-03 +8.745666E-05 -1.119605E-04 +8.745666E-05 +2.294331E-04 
 -2.949517E-04 -2.726173E-05 -1.101335E-04 -2.726173E-05 +4.746802E-03 +7.140283E-05 -1.101335E-04 +7.140283E-05 +1.896551E-04 
 -1.760175E-04 -2.794784E-05 -7.989425E-05 -2.794784E-05 +4.824056E-03 +3.286107E-05 -7.989425E-05 +3.286107E-05 +1.280136E-04 
 -2.168184E-04 -3.471264E-05 +1.029764E-05 -3.471264E-05 +4.914479E-03 -4.494787E-06 +1.029764E-05 -4.494787E-06 +1.202049E-04 
 -2.345412E-04 +6.536166E-06 +5.511387E-05 +6.536166E-06 +4.921959E-03 -1.509759E-05 +5.511387E-05 -1.509759E-05 -1.496558E-05 
 -5.654824E-05 -1.009626E-04 -5.320771E-05 -1.009626E-04 +4.904414E-03 -2.947846E-05 -5.320771E-05 -2.947846E-05 -2.729789E-04 
 -5.617921E-05 -6.962821E-05 +4.307563E-05 -6.962821E-05 +4.969364E-03 -6.664015E-05 +4.307563E-05 -6.664015E-05 -2.339011E-04 
 -1.056234E-04 +4.573038E-06 +7.014958E-06 +4.573038E-06 +4.993170E-03 -6.363767E-05 +7.014958E-06 -6.363767E-05 +3.626626E-05 
 -4.145764E-05 +2.729230E-05 -1.854704E-05 +2.729230E-05 +4.857641E-03 -7.402244E-05 -1.854704E-05 -7.402244E-05 +8.442187E-05 
 +4.348557E-05 +1.043316E-04 +8.703826E-06 +1.043316E-04 +4.857877E-03 -1.438820E-04 +8.703826E-06 -1.438820E-04 -9.001463E-05 
 +7.668192E-05 +8.427556E-05 +2.192264E-05 +8.427556E-05 +4.939877E-03 -1.370896E-04 +2.192264E-05 -1.370896E-04 -1.900221E-04 
 +1.309583E-04 +2.849850E-05 +4.295911E-05 +2.849850E-05 +4.981626E-03 -1.309336E-04 +4.295911E-05 -1.309336E-04 -3.108725E-04 
 +1.736154E-04 -8.450502E-06 +1.156472E-06 -8.450502E-06 +4.879657E-03 -6.576363E-05 +1.156472E-06 -6.576363E-05 -2.731413E-04 
 -3.859392E-05 -1.302647E-04 -1.687549E-04 -1.302647E-04 +4.734180E-03 -3.384864E-05 -1.687549E-04 -3.384864E-05 -5.415948E-05 
 -2.391025E-05 -3.801449E-05 -1.938641E-04 -3.801449E-05 +4.649377E-03 -3.673436E-05 -1.938641E-04 -3.673436E-05 +1.096414E-05 
 +2.142392E-04 +3.210979E-05 -9.783563E-05 +3.210979E-05 +4.564464E-03 +8.924091E-07 -9.783563E-05 +8.924091E-07 +2.757168E-06 
 +2.779414E-04 +1.301880E-04 -9.587738E-05 +1.301880E-04 +4.494143E-03 +3.620469E-05 -9.587738E-05 +3.620469E-05 +5.549383E-05 
 +3.376845E-04 +1.926412E-04 -5.862601E-05 +1.926412E-04 +4.483835E-03 +7.718844E-05 -5.862601E-05 +7.718844E-05 +8.051987E-05 
 +3.648491E-04 +1.320009E-04 -5.624025E-05 +1.320009E-04 +4.431255E-03 +7.887696E-05 -5.624025E-05 +7.887696E-05 +1.619293E-04 
 +2.183912E-04 -7.795329E-06 -4.457424E-05 -7.795329E-06 +4.572650E-03 +3.489144E-05 -4.457424E-05 +3.489144E-05 +2.927850E-04 
 -3.474952E-04 -3.860904E-05 -4.617728E-05 -3.860904E-05 +4.950460E-03 +3.578105E-05 -4.617728E-05 +3.578105E-05 +3.367708E-04 
 -4.847021E-04 -1.373587E-04 -6.704441E-05 -1.373587E-04 +5.169389E-03 +5.605562E-05 -6.704441E-05 +5.605562E-05 +3.524759E-04 
 -5.853270E-04 -1.904925E-04 -5.458964E-05 -1.904925E-04 +5.091002E-03 +1.695322E-05 -5.458964E-05 +1.695322E-05 +2.811678E-04 
 -1.084749E-04 -1.862091E-05 -9.476979E-05 -1.862091E-05 +4.910884E-03 -1.016214E-04 -9.476979E-05 -1.016214E-04 +1.397009E-04 
 -1.756453E-04 +1.700634E-05 -3.327317E-05 +1.700634E-05 +4.873779E-03 -1.744619E-04 -3.327317E-05 -1.744619E-04 +1.138299E-04 
 -1.421712E-04 +8.874309E-06 -3.572449E-05 +8.874309E-06 +4.917681E-03 -1.381845E-04 -3.572449E-05 -1.381845E-04 -2.306374E-05 
 -2.049919E-05 -1.378111E-04 -9.653165E-05 -1.378111E-04 +4.945864E-03 -8.127372E-05 -9.653165E-05 -8.127372E-05 -3.310752E-04 
 +5.338331E-05 -9.051241E-05 -1.061729E-04 -9.051241E-05 +4.980486E-03 -8.641724E-05 -1.061729E-04 -8.641724E-05 -4.122473E-04 
 -1.000932E-05 -5.377125E-05 -7.924867E-05 -5.377125E-05 +5.029832E-03 -1.148411E-04 -7.924867E-05 -1.148411E-04 -3.146341E-04 
 +6.494901E-06 +2.032676E-05 -2.720469E-05 +2.032676E-05 +5.081642E-03 -1.518563E-04 -2.720469E-05 -1.518563E-04 -3.042326E-04 
 +6.826921E-05 +1.534297E-04 +2.773197E-05 +1.534297E-04 +5.029254E-03 -2.042899E-04 +2.773197E-05 -2.042899E-04 -2.749120E-04 
 +9.082552E-05 +1.246895E-04 +2.380774E-05 +1.246895E-04 +4.978453E-03 -1.753197E-04 +2.380774E-05 -1.753197E-04 -2.372021E-04 
 +1.397912E-04 +9.415125E-05 -2.961144E-05 +9.415125E-05 +5.039632E-03 -1.404105E-04 -2.961144E-05 -1.404105E-04 -3.585554E-04 
 +1.220839E-04 +2.125737E-05 -6.242148E-05 +2.125737E-05 +5.008340E-03 -1.244892E-04 -6.242148E-05 -1.244892E-04 -3.784800E-04 
 -6.300051E-05 -1.441886E-04 -5.260802E-05 -1.441886E-04 +4.842261E-03 -6.964230E-05 -5.260802E-05 -6.964230E-05 -1.787909E-04 
 +6.543382E-05 +6.907800E-05 -8.723414E-05 +6.907800E-05 +4.741301E-03 -5.546779E-05 -8.723414E-05 -5.546779E-05 -1.195185E-04 
 +1.837527E-04 +1.090532E-04 -1.344291E-04 +1.090532E-04 +4.797704E-03 -9.963972E-05 -1.344291E-04 -9.963972E-05 -1.407317E-04 
 +2.770854E-04 +2.214209E-04 -1.119392E-04 +2.214209E-04 +4.801623E-03 -1.013990E-04 -1.119392E-04 -1.013990E-04 -8.311924E-05 
 +3.796726E-04 +2.535439E-04 -6.570512E-05 +2.535439E-04 +4.738095E-03 -1.053558E-04 -6.570512E-05 -1.053558E-04 -6.265901E-05 
 +4.004591E-04 +1.684558E-04 -9.166846E-05 +1.684558E-04 +4.803390E-03 -1.265615E-04 -9.166846E-05 -1.265615E-04 +2.857932E-05 
 -1.329677E-04 -5.067264E-06 -1.099884E-04 -5.067264E-06 +5.014840E-03 -6.239187E-05 -1.099884E-04 -6.239187E-05 +2.285578E-04 
 -4.111200E-04 -5.007725E-05 -1.018698E-04 -5.007725E-05 +5.117337E-03 +1.326096E-05 -1.018698E-04 +1.326096E-05 +3.075821E-04 
 -5.213657E-04 -4.681616E-05 -3.751575E-05 -4.681616E-05 +5.148867E-03 +2.515700E-05 -3.751575E-05 +2.515700E-05 +3.478488E-04 
 -5.879012E-04 -7.670093E-05 -8.894508E-07 -7.670093E-05 +5.123225E-03 -5.414185E-06 -8.894508E-07 -5.414185E-06 +3.136099E-04 
 -1.966522E-04 +6.334505E-05 -7.364915E-05 +6.334505E-05 +5.006589E-03 -8.416812E-05 -7.364915E-05 -8.416812E-05 +1.724391E-04 
 -1.624310E-04 +5.557077E-05 -1.318072E-04 +5.557077E-05 +4.921851E-03 -1.235617E-04 -1.318072E-04 -1.235617E-04 +1.447363E-04 
 -9.373546E-05 +3.778278E-05 -2.188359E-04 +3.778278E-05 +4.893482E-03 -1.277508E-04 -2.188359E-04 -1.277508E-04 +1.630251E-05 
 +8.964725E-06 -6.762359E-05 -2.225989E-04 -6.762359E-05 +4.930147E-03 -8.927567E-05 -2.225989E-04 -8.927567E-05 -3.615111E-04 
 +9.397519E-05 -4.492967E-05 -2.122590E-04 -4.492967E-05 +4.984434E-03 -6.499705E-05 -2.122590E-04 -6.499705E-05 -5.237575E-04 
 +1.127259E-04 -4.397522E-05 -1.562144E-04 -4.397522E-05 +5.004008E-03 -1.115179E-04 -1.562144E-04 -1.115179E-04 -4.728085E-04 
 +1.297242E-04 +1.044490E-05 -7.427985E-05 +1.044490E-05 +5.034290E-03 -1.453171E-04 -7.427985E-05 -1.453171E-04 -5.027857E-04 
 +1.336357E-04 +1.236190E-04 +2.252851E-05 +1.236190E-04 +5.054652E-03 -1.734701E-04 +2.252851E-05 -1.734701E-04 -4.147075E-04 
 +1.217009E-04 +1.843552E-04 -1.789656E-05 +1.843552E-04 +5.050769E-03 -1.655225E-04 -1.789656E-05 -1.655225E-04 -2.817708E-04 
 +1.726816E-04 +1.079141E-04 -4.822359E-05 +1.079141E-04 +5.054693E-03 -1.482591E-04 -4.822359E-05 -1.482591E-04 -3.392618E-04 
 +1.063652E-04 +3.469510E-05 -7.650208E-05 +3.469510E-05 +5.002979E-03 -1.441945E-04 -7.650208E-05 -1.441945E-04 -3.634811E-04 
 -7.852657E-05 -1.608621E-04 +8.995609E-05 -1.608621E-04 +4.939799E-03 -1.125336E-04 +8.995609E-05 -1.125336E-04 -2.464196E-04 
 +4.188304E-05 +7.167025E-05 -6.973498E-05 +7.167025E-05 +4.878108E-03 -9.761087E-05 -6.973498E-05 -9.761087E-05 -1.922992E-04 
 +1.468177E-04 +7.458334E-05 -1.268456E-04 +7.458334E-05 +4.871329E-03 -1.469572E-04 -1.268456E-04 -1.469572E-04 -1.896141E-04 
 +2.526654E-04 +1.310815E-04 -1.243899E-04 +1.310815E-04 +4.886755E-03 -2.006414E-04 -1.243899E-04 -2.006414E-04 -1.871182E-04 
 +3.409400E-04 +1.448877E-04 -7.870521E-05 +1.448877E-04 +4.930975E-03 -1.683839E-04 -7.870521E-05 -1.683839E-04 -1.366234E-04 
 +2.375459E-04 +9.268569E-05 -2.133901E-04 +9.268569E-05 +5.062967E-03 -8.937764E-05 -2.133901E-04 -8.937764E-05 -1.339727E-05 
 -2.747761E-04 +4.554081E-05 -1.898525E-04 +4.554081E-05 +5.179225E-03 -5.396581E-05 -1.898525E-04 -5.396581E-05 +1.319217E-04 
 -3.861886E-04 +2.218851E-05 -9.726709E-05 +2.218851E-05 +5.168078E-03 -2.368458E-05 -9.726709E-05 -2.368458E-05 +2.103468E-04 
 -3.953293E-04 +1.029585E-05 -5.642865E-05 +1.029585E-05 +5.096989E-03 +8.696788E-06 -5.642865E-05 +8.696788E-06 +2.705983E-04 
 -4.767881E-04 -3.632781E-06 -7.780018E-06 -3.632781E-06 +5.162102E-03 +5.075734E-05 -7.780018E-06 +5.075734E-05 +3.027963E-04 
 -3.756409E-04 +9.118096E-05 -3.118544E-05 +9.118096E-05 +5.135947E-03 +6.106115E-05 -3.118544E-05 +6.106115E-05 +2.669127E-04 
 -1.414618E-04 +1.941867E-04 -1.192653E-04 +1.941867E-04 +4.943893E-03 +1.232824E-05 -1.192653E-04 +1.232824E-05 +2.647562E-04 
 -1.713183E-04 +1.819573E-04 -2.466906E-04 +1.819573E-04 +4.885975E-03 -7.082793E-05 -2.466906E-04 -7.082793E-05 +1.929467E-04 
 -2.361928E-05 +2.695180E-06 -2.676701E-04 +2.695180E-06 +4.946624E-03 -1.295312E-04 -2.676701E-04 -1.295312E-04 -2.151410E-04 
 +1.414499E-04 -3.140714E-05 -2.179429E-04 -3.140714E-05 +4.980780E-03 -1.342883E-04 -2.179429E-04 -1.342883E-04 -5.285320E-04 
 +1.950712E-04 +2.627250E-06 -1.473471E-04 +2.627250E-06 +4.990088E-03 -9.562688E-05 -1.473471E-04 -9.562688E-05 -4.630591E-04 
 +2.203664E-04 +4.051973E-05 -1.004246E-04 +4.051973E-05 +5.004210E-03 -5.829428E-05 -1.004246E-04 -5.829428E-05 -4.374816E-04 
 +2.432291E-04 +1.133510E-04 -3.931719E-05 +1.133510E-04 +5.010757E-03 -8.278574E-05 -3.931719E-05 -8.278574E-05 -4.026815E-04 
 +2.245407E-04 +1.962791E-04 -1.051545E-04 +1.962791E-04 +5.039086E-03 -1.296348E-04 -1.051545E-04 -1.296348E-04 -2.864258E-04 
 +1.657736E-04 -5.192290E-06 -1.547956E-05 -5.192290E-06 +5.019039E-03 -1.422057E-04 -1.547956E-05 -1.422057E-04 -2.574289E-04 
 +1.067656E-04 -1.495001E-04 +4.755171E-06 -1.495001E-04 +4.990071E-03 -1.327456E-04 +4.755171E-06 -1.327456E-04 -2.948193E-04 
 -5.831767E-05 -2.703495E-04 +1.293913E-04 -2.703495E-04 +5.037009E-03 -1.590001E-04 +1.293913E-04 -1.590001E-04 -2.914317E-04 
 -9.241098E-05 -1.094843E-04 -2.515296E-05 -1.094843E-04 +5.023393E-03 -1.135949E-04 -2.515296E-05 -1.135949E-04 -2.615779E-04 
 +6.921651E-05 -3.854886E-05 -1.521751E-04 -3.854886E-05 +4.926194E-03 -1.037500E-04 -1.521751E-04 -1.037500E-04 -2.216928E-04 
 +1.686288E-04 -1.080827E-05 -2.009891E-04 -1.080827E-05 +4.981481E-03 -1.708375E-04 -2.009891E-04 -1.708375E-04 -2.415517E-04 
 +1.795725E-04 -1.670553E-05 -1.470579E-04 -1.670553E-05 +5.083876E-03 -7.630681E-05 -1.470579E-04 -7.630681E-05 -1.322394E-04 
 +9.860289E-05 -9.876551E-05 -2.990714E-04 -9.876551E-05 +5.092785E-03 +7.057790E-05 -2.990714E-04 +7.057790E-05 +3.531943E-05 
 +1.162500E-05 -5.744941E-05 -2.919405E-04 -5.744941E-05 +5.069294E-03 +8.067387E-05 -2.919405E-04 +8.067387E-05 +1.248879E-04 
 -2.604002E-04 +2.749732E-05 -1.017291E-04 +2.749732E-05 +5.117889E-03 +3.087890E-05 -1.017291E-04 +3.087890E-05 +1.605531E-04 
 -3.748045E-04 +4.364986E-05 -6.639052E-05 +4.364986E-05 +5.118582E-03 +4.618311E-05 -6.639052E-05 +4.618311E-05 +1.876992E-04 
 -3.789939E-04 +3.966037E-05 -5.600242E-05 +3.966037E-05 +5.105068E-03 +9.296933E-05 -5.600242E-05 +9.296933E-05 +2.827113E-04 
 -4.033619E-04 +6.048588E-05 -3.677508E-05 +6.048588E-05 +5.159294E-03 +1.235403E-04 -3.677508E-05 +1.235403E-04 +3.302054E-04 
 -2.843519E-04 +6.161498E-05 -2.055761E-05 +6.161498E-05 +5.167457E-03 +1.475554E-04 -2.055761E-05 +1.475554E-04 +3.664471E-04 
 -1.702146E-04 +1.057465E-04 -1.894886E-04 +1.057465E-04 +5.090348E-03 +3.594612E-05 -1.894886E-04 +3.594612E-05 +3.378579E-04 
 -7.892878E-05 +6.936985E-05 -1.531773E-04 +6.936985E-05 +5.002096E-03 -1.667530E-04 -1.531773E-04 -1.667530E-04 -5.509638E-07 
 +2.421085E-04 +7.611393E-05 -9.961969E-05 +7.611393E-05 +4.968872E-03 -2.118045E-04 -9.961969E-05 -2.118045E-04 -3.988061E-04 
 +2.715225E-04 +1.263540E-04 -5.426690E-05 +1.263540E-04 +5.009051E-03 -1.263075E-04 -5.426690E-05 -1.263075E-04 -3.828844E-04 
 +2.368126E-04 +1.293301E-04 -7.352336E-05 +1.293301E-04 +5.057464E-03 -6.809362E-05 -7.352336E-05 -6.809362E-05 -2.711356E-04 
 +2.643502E-04 +1.324033E-04 -7.585434E-05 +1.324033E-04 +5.050729E-03 -8.252240E-05 -7.585434E-05 -8.252240E-05 -2.787468E-04 
 +2.868452E-04 +1.560189E-04 -1.827205E-04 +1.560189E-04 +5.021957E-03 -1.198505E-04 -1.827205E-04 -1.198505E-04 -2.453017E-04 
 +1.321303E-04 -4.019168E-05 -8.395489E-05 -4.019168E-05 +4.823528E-03 -1.805415E-04 -8.395489E-05 -1.805415E-04 -2.953506E-05 
 +7.338649E-05 -1.376411E-04 -5.639168E-06 -1.376411E-04 +4.861784E-03 -1.917013E-04 -5.639168E-06 -1.917013E-04 -7.530167E-05 
 -9.329460E-05 -2.527093E-04 +8.319112E-05 -2.527093E-04 +5.021683E-03 -1.271674E-04 +8.319112E-05 -1.271674E-04 -1.686099E-04 
 -5.410544E-05 -1.966679E-04 +9.538314E-05 -1.966679E-04 +5.080728E-03 -5.897126E-05 +9.538314E-05 -5.897126E-05 -1.893518E-04 
 -1.467181E-04 -3.175989E-05 -1.672312E-04 -3.175989E-05 +5.071340E-03 -1.125663E-04 -1.672312E-04 -1.125663E-04 -1.232978E-04 
 -5.536229E-05 -5.440545E-05 -2.530010E-04 -5.440545E-05 +5.144473E-03 -1.393966E-04 -2.530010E-04 -1.393966E-04 -1.637689E-04 
 +7.395726E-05 -1.073606E-04 -2.445552E-04 -1.073606E-04 +5.165217E-03 -3.014685E-05 -2.445552E-04 -3.014685E-05 -1.199426E-04 
 +1.441685E-04 -1.201837E-04 -3.342836E-04 -1.201837E-04 +5.074277E-03 +1.870735E-05 -3.342836E-04 +1.870735E-05 +3.271775E-05 
 +1.621814E-04 -1.055363E-04 -3.468802E-04 -1.055363E-04 +4.977279E-03 +9.198536E-05 -3.468802E-04 +9.198536E-05 +1.384567E-04 
 +8.424335E-05 -6.735042E-05 -2.373411E-04 -6.735042E-05 +4.978407E-03 +1.349398E-04 -2.373411E-04 +1.349398E-04 +1.491866E-04 
 -2.776887E-04 +2.098137E-05 -1.223681E-04 +2.098137E-05 +5.080377E-03 +8.447621E-05 -1.223681E-04 +8.447621E-05 +1.244392E-04 
 -4.028551E-04 +4.864964E-05 -6.340586E-05 +4.864964E-05 +5.107852E-03 +8.434064E-05 -6.340586E-05 +8.434064E-05 +2.415401E-04 
 -4.196575E-04 +3.883530E-05 -2.650336E-05 +3.883530E-05 +5.120422E-03 +1.146528E-04 -2.650336E-05 +1.146528E-04 +3.747098E-04 
 -4.286277E-04 +7.350892E-05 +3.988326E-05 +7.350892E-05 +5.145319E-03 +8.686083E-05 +3.988326E-05 +8.686083E-05 +3.762443E-04 
 +2.685896E-07 +1.578977E-04 -2.318265E-04 +1.578977E-04 +5.085154E-03 -4.944114E-06 -2.318265E-04 -4.944114E-06 +1.940306E-04 
 -1.112274E-05 +1.896763E-04 -1.241871E-04 +1.896763E-04 +5.083556E-03 -1.169750E-04 -1.241871E-04 -1.169750E-04 -7.323515E-05 
 +2.401372E-04 +1.646866E-04 +1.725193E-05 +1.646866E-04 +5.125748E-03 -1.858678E-04 +1.725193E-05 -1.858678E-04 -3.610989E-04 
 +2.760017E-04 +1.371035E-04 +3.816086E-05 +1.371035E-04 +5.095204E-03 -1.614402E-04 +3.816086E-05 -1.614402E-04 -3.677159E-04 
 +2.304409E-04 +1.069840E-04 -3.228741E-05 +1.069840E-04 +5.053506E-03 -1.309194E-04 -3.228741E-05 -1.309194E-04 -2.411663E-04 
 +2.371626E-04 +1.192291E-04 -4.289112E-05 +1.192291E-04 +5.038359E-03 -1.481432E-04 -4.289112E-05 -1.481432E-04 -1.959339E-04 
 +2.354695E-04 +1.001063E-04 -1.472452E-04 +1.001063E-04 +4.953246E-03 -1.508168E-04 -1.472452E-04 -1.508168E-04 -9.984059E-05 
 +1.166924E-04 -1.162310E-04 -8.672922E-05 -1.162310E-04 +4.721202E-03 -2.078570E-04 -8.672922E-05 -2.078570E-04 +7.556389E-05 
 +5.039398E-05 -1.145744E-04 -3.463578E-05 -1.145744E-04 +4.791702E-03 -2.099533E-04 -3.463578E-05 -2.099533E-04 +6.631554E-05 
 -8.778276E-05 -1.782046E-04 +3.842522E-05 -1.782046E-04 +4.869927E-03 -1.181967E-04 +3.842522E-05 -1.181967E-04 +7.770047E-05 
 -1.838218E-04 -2.086519E-04 +7.326881E-05 -2.086519E-04 +5.018783E-03 -4.915835E-06 +7.326881E-05 -4.915835E-06 +6.408749E-05 
 -2.961096E-04 -1.226385E-04 -9.803575E-05 -1.226385E-04 +5.264583E-03 -3.020613E-05 -9.803575E-05 -3.020613E-05 +4.603150E-05 
 -3.018751E-04 -1.074424E-04 -1.758583E-04 -1.074424E-04 +5.255465E-03 -6.539942E-05 -1.758583E-04 -6.539942E-05 -8.680358E-05 
 +1.308280E-04 -1.149254E-04 -2.404195E-04 -1.149254E-04 +5.091757E-03 -1.809609E-05 -2.404195E-04 -1.809609E-05 -1.116141E-04 
 +2.162624E-04 -1.429018E-04 -3.659344E-04 -1.429018E-04 +5.020794E-03 +1.971873E-05 -3.659344E-04 +1.971873E-05 +6.310364E-05 
 +1.483921E-04 -1.415618E-04 -3.303490E-04 -1.415618E-04 +4.971286E-03 +4.996489E-05 -3.303490E-04 +4.996489E-05 +1.858256E-04 
 +1.743009E-04 -1.611109E-04 -2.795889E-04 -1.611109E-04 +4.921207E-03 +1.243515E-04 -2.795889E-04 +1.243515E-04 +1.684028E-04 
 +3.125280E-05 -1.575446E-04 -2.162299E-04 -1.575446E-04 +4.944950E-03 +1.213831E-04 -2.162299E-04 +1.213831E-04 +1.002333E-04 
 -3.157853E-04 -6.046110E-05 -6.381278E-05 -6.046110E-05 +5.028877E-03 +5.331759E-05 -6.381278E-05 +5.331759E-05 +2.308774E-04 
 -4.410668E-04 +6.256812E-05 +5.310970E-05 +6.256812E-05 +5.052827E-03 +6.081683E-05 +5.310970E-05 +6.081683E-05 +4.158133E-04 
 -2.693954E-04 +1.548905E-04 -2.761034E-05 +1.548905E-04 +5.080753E-03 -1.831601E-06 -2.761034E-05 -1.831601E-06 +2.945183E-04 
 +3.120348E-05 +2.249694E-04 -2.112380E-04 +2.249694E-04 +5.136059E-03 -5.427880E-05 -2.112380E-04 -5.427880E-05 -1.972529E-05 
 +5.712749E-06 +1.990203E-04 -1.354851E-04 +1.990203E-04 +5.184798E-03 -4.428424E-05 -1.354851E-04 -4.428424E-05 -2.422552E-04 
 +1.900420E-04 +1.027553E-04 +5.215912E-05 +1.027553E-04 +5.195357E-03 -9.127592E-05 +5.215912E-05 -9.127592E-05 -4.231018E-04 
 +2.477266E-04 +9.399179E-05 +8.710599E-05 +9.399179E-05 +5.133930E-03 -1.153747E-04 +8.710599E-05 -1.153747E-04 -3.414659E-04 
 +2.022319E-04 +7.587110E-05 -4.130521E-06 +7.587110E-05 +5.061824E-03 -1.018122E-04 -4.130521E-06 -1.018122E-04 -1.869726E-04 
 +2.105931E-04 +4.295290E-05 -2.491241E-05 +4.295290E-05 +4.953375E-03 -1.191085E-04 -2.491241E-05 -1.191085E-04 -1.510581E-04 
 +1.403309E-04 -3.659469E-05 -7.211185E-05 -3.659469E-05 +4.792880E-03 -1.819046E-04 -7.211185E-05 -1.819046E-04 -9.589241E-06 
 +5.718654E-05 -1.577164E-04 -2.605471E-05 -1.577164E-04 +4.762824E-03 -1.661339E-04 -2.605471E-05 -1.661339E-04 +2.551479E-05 
 +1.693258E-05 -1.504162E-04 +6.044952E-05 -1.504162E-04 +4.798833E-03 -1.594579E-04 +6.044952E-05 -1.594579E-04 +2.452614E-05 
 -5.025843E-05 -2.417342E-04 +1.032231E-04 -2.417342E-04 +4.987825E-03 -1.147128E-04 +1.032231E-04 -1.147128E-04 +6.568615E-05 
 -3.834182E-04 -2.033671E-04 +6.442616E-05 -2.033671E-04 +5.164779E-03 +1.203424E-05 +6.442616E-05 +1.203424E-05 +5.377663E-05 
 -2.535236E-04 -3.017087E-05 -1.169082E-04 -3.017087E-05 +5.113182E-03 +1.175647E-04 -1.169082E-04 +1.175647E-04 +7.087729E-05 
 -3.790051E-04 -1.341471E-05 -2.378557E-04 -1.341471E-05 +5.100857E-03 +5.525812E-05 -2.378557E-04 +5.525812E-05 -1.903239E-05 
 +6.538177E-05 -8.833490E-05 -2.158993E-04 -8.833490E-05 +5.076534E-03 -9.212015E-06 -2.158993E-04 -9.212015E-06 -6.265183E-05 
 +1.750969E-04 -1.611159E-04 -2.646423E-04 -1.611159E-04 +5.003066E-03 +8.209039E-06 -2.646423E-04 +8.209039E-06 +4.432862E-05 
 +1.295771E-04 -2.072894E-04 -2.498693E-04 -2.072894E-04 +5.005077E-03 +2.949962E-05 -2.498693E-04 +2.949962E-05 +1.393404E-04 
 +1.436268E-04 -2.075126E-04 -1.863657E-04 -2.075126E-04 +4.955723E-03 +2.276452E-05 -1.863657E-04 +2.276452E-05 +1.580130E-04 
 +1.295327E-04 -2.014215E-04 -1.991511E-04 -2.014215E-04 +4.873708E-03 -2.852300E-06 -1.991511E-04 -2.852300E-06 +1.010530E-04 
 -4.675242E-05 -2.006895E-04 +2.853779E-06 -2.006895E-04 +4.887421E-03 -2.984021E-05 +2.853779E-06 -2.984021E-05 +2.068976E-04 
 -3.610101E-04 -7.511804E-05 +2.097034E-04 -7.511804E-05 +4.998123E-03 -3.525952E-05 +2.097034E-04 -3.525952E-05 +2.672584E-04 
 -4.762729E-05 +3.986003E-05 -2.222779E-05 +3.986003E-05 +5.072500E-03 -5.996724E-05 -2.222779E-05 -5.996724E-05 +5.224307E-05 
 +1.981547E-05 +1.219973E-04 +3.302836E-05 +1.219973E-04 +5.148982E-03 -2.094823E-05 +3.302836E-05 -2.094823E-05 -9.781902E-05 
 +2.731723E-07 +1.609588E-04 -4.502937E-06 +1.609588E-04 +5.234213E-03 +1.931991E-05 -4.502937E-06 +1.931991E-05 -1.768928E-04 
 +2.294756E-04 +6.590203E-05 +1.439535E-04 +6.590203E-05 +5.223508E-03 +8.274248E-06 +1.439535E-04 +8.274248E-06 -3.314315E-04 
 +2.263722E-04 -2.188863E-06 +1.069019E-04 -2.188863E-06 +5.044736E-03 -3.598165E-05 +1.069019E-04 -3.598165E-05 -1.872843E-04 
 +1.231516E-04 +4.154090E-06 +3.803985E-05 +4.154090E-06 +4.837941E-03 -1.301179E-04 +3.803985E-05 -1.301179E-04 -3.714938E-06 
 +1.222729E-04 -6.058788E-05 +1.788362E-06 -6.058788E-05 +4.752851E-03 -1.407801E-04 +1.788362E-06 -1.407801E-04 -2.021346E-05 
 +8.300730E-05 -1.184613E-04 -4.946414E-05 -1.184613E-04 +4.746957E-03 -1.329076E-04 -4.946414E-05 -1.329076E-04 +2.194581E-05 
 -8.036476E-05 -6.580640E-05 +5.177310E-05 -6.580640E-05 +4.986300E-03 -9.543784E-05 +5.177310E-05 -9.543784E-05 -6.137523E-05 
 -1.592102E-04 -2.661525E-05 +1.585630E-04 -2.661525E-05 +5.084824E-03 +5.757550E-05 +1.585630E-04 +5.757550E-05 +4.532402E-05 
 -3.478463E-04 -7.612767E-05 +1.724748E-04 -7.612767E-05 +5.165446E-03 +1.085380E-04 +1.724748E-04 +1.085380E-04 +1.369876E-04 
 -4.517417E-04 -5.685551E-05 +1.405831E-04 -5.685551E-05 +5.216430E-03 +5.561148E-05 +1.405831E-04 +5.561148E-05 +1.327049E-04 
 -3.889653E-04 -2.093650E-05 -4.592018E-05 -2.093650E-05 +5.259706E-03 -4.193650E-05 -4.592018E-05 -4.193650E-05 +1.375949E-04 
 -3.728734E-04 +1.434207E-06 -3.762845E-04 +1.434207E-06 +5.221885E-03 -3.028701E-05 -3.762845E-04 -3.028701E-05 +2.048966E-05 
 -1.112160E-04 -3.910067E-05 -1.730334E-04 -3.910067E-05 +5.094160E-03 +1.376113E-05 -1.730334E-04 +1.376113E-05 -1.265254E-04 
 +1.902627E-04 -9.401130E-05 -2.017270E-04 -9.401130E-05 +5.005498E-03 -1.133645E-05 -2.017270E-04 -1.133645E-05 -3.037178E-05 
 +2.411542E-04 -8.963586E-05 -2.073030E-04 -8.963586E-05 +4.981819E-03 -5.698545E-05 -2.073030E-04 -5.698545E-05 +6.579437E-05 
 +1.731815E-04 -8.604110E-05 -1.087623E-04 -8.604110E-05 +4.943097E-03 -1.108882E-04 -1.087623E-04 -1.108882E-04 +9.603416E-05 
 +1.751130E-04 -6.956485E-05 -3.572328E-05 -6.956485E-05 +4.880708E-03 -9.322127E-05 -3.572328E-05 -9.322127E-05 +1.928685E-04 
 +1.493983E-04 -3.641678E-05 -3.139877E-05 -3.641678E-05 +4.912656E-03 -7.765464E-05 -3.139877E-05 -7.765464E-05 +7.372875E-05 
 +1.541758E-04 -1.727131E-05 +1.638897E-04 -1.727131E-05 +5.007302E-03 -1.062207E-04 +1.638897E-04 -1.062207E-04 -2.393355E-04 
 +1.662940E-04 -6.173542E-07 +1.219756E-04 -6.173542E-07 +5.066522E-03 -8.147881E-05 +1.219756E-04 -8.147881E-05 -2.974510E-04 
 +1.647794E-04 +7.948911E-05 +2.781983E-04 +7.948911E-05 +5.084308E-03 +1.819231E-05 +2.781983E-04 +1.819231E-05 -2.546738E-04 
 +1.074312E-04 +1.520620E-04 -8.845207E-05 +1.520620E-04 +5.142786E-03 +7.849642E-05 -8.845207E-05 +7.849642E-05 -2.558836E-04 
 +1.631979E-04 +1.686688E-06 -1.416855E-04 +1.686688E-06 +5.119714E-03 +7.255307E-05 -1.416855E-04 +7.255307E-05 -2.847941E-04 
 +1.839699E-04 -1.084821E-04 -1.238986E-04 -1.084821E-04 +5.039766E-03 +7.200521E-05 -1.238986E-04 +7.200521E-05 -2.434046E-04 
 +5.199300E-05 -1.132510E-04 -1.336457E-04 -1.132510E-04 +5.006146E-03 +2.109547E-05 -1.336457E-04 +2.109547E-05 -6.811148E-05 
 +1.988014E-05 -8.549508E-05 +3.158139E-05 -8.549508E-05 +4.929593E-03 -7.412953E-05 +3.158139E-05 -7.412953E-05 +8.522255E-05 
 -2.861187E-05 -1.194155E-04 -8.164053E-05 -1.194155E-04 +4.907592E-03 -1.585248E-04 -8.164053E-05 -1.585248E-04 +1.958641E-05 
 -1.303035E-04 +2.699404E-06 +1.351567E-04 +2.699404E-06 +5.079958E-03 +1.215169E-04 +1.351567E-04 +1.215169E-04 -5.198692E-05 
 -8.953505E-05 -1.942391E-05 +1.732481E-04 -1.942391E-05 +5.047666E-03 +1.920545E-04 +1.732481E-04 +1.920545E-04 -2.562781E-05 
 -2.522472E-04 -4.842104E-05 +1.819625E-04 -4.842104E-05 +5.083168E-03 +1.461967E-04 +1.819625E-04 +1.461967E-04 -7.131826E-07 
 -5.588006E-04 -8.984450E-05 +5.943083E-05 -8.984450E-05 +5.213196E-03 +6.926503E-05 +5.943083E-05 +6.926503E-05 +7.273520E-05 
 -4.426926E-04 +6.130202E-06 -1.998356E-04 +6.130202E-06 +5.254734E-03 -2.452482E-05 -1.998356E-04 -2.452482E-05 +1.102915E-04 
 -2.862334E-04 +8.758316E-05 -3.793061E-04 +8.758316E-05 +5.193937E-03 -1.043877E-05 -3.793061E-04 -1.043877E-05 +4.939972E-05 
 -1.906676E-04 +3.031616E-05 -2.879311E-04 +3.031616E-05 +5.108998E-03 +6.892647E-05 -2.879311E-04 +6.892647E-05 -9.294293E-06 
 +9.548124E-05 -6.957337E-05 -1.666932E-04 -6.957337E-05 +5.004325E-03 +1.930395E-05 -1.666932E-04 +1.930395E-05 -1.670750E-05 
 +2.276386E-04 -9.842010E-05 -1.010523E-04 -9.842010E-05 +4.956673E-03 -7.328136E-05 -1.010523E-04 -7.328136E-05 +9.182102E-05 
 +2.411189E-04 -1.293593E-04 -1.096385E-04 -1.293593E-04 +4.965671E-03 -1.322717E-04 -1.096385E-04 -1.322717E-04 +1.283617E-04 
 +1.558480E-04 -7.124338E-05 +1.784835E-04 -7.124338E-05 +5.023970E-03 -1.175129E-04 +1.784835E-04 -1.175129E-04 +6.285815E-05 
 +5.574769E-06 -6.656799E-05 +1.953132E-04 -6.656799E-05 +5.088805E-03 -1.317320E-05 +1.953132E-04 -1.317320E-05 -9.875504E-05 
 +1.589351E-04 -1.304454E-04 +2.362971E-04 -1.304454E-04 +5.080472E-03 -9.699245E-06 +2.362971E-04 -9.699245E-06 -3.116423E-04 
 +2.739487E-04 -1.868173E-04 +1.885726E-04 -1.868173E-04 +5.047498E-03 -5.773951E-05 +1.885726E-04 -5.773951E-05 -3.626937E-04 
 +2.864485E-04 -1.485016E-04 +3.445608E-04 -1.485016E-04 +4.954227E-03 -3.612339E-05 +3.445608E-04 -3.612339E-05 -2.276868E-04 
 +2.267732E-04 +2.049850E-05 +9.009731E-06 +2.049850E-05 +4.932647E-03 +1.255380E-05 +9.009731E-06 +1.255380E-05 -8.457208E-05 
 +1.507266E-04 -1.455684E-04 -1.014922E-04 -1.455684E-04 +5.064690E-03 +5.161903E-05 -1.014922E-04 +5.161903E-05 -1.659648E-04 
 +9.639526E-05 -2.094921E-04 -2.424620E-04 -2.094921E-04 +5.090968E-03 +6.096801E-05 -2.424620E-04 +6.096801E-05 -1.693504E-04 
 +7.969796E-05 -1.476487E-04 -1.877211E-04 -1.476487E-04 +5.081725E-03 +1.008635E-04 -1.877211E-04 +1.008635E-04 -4.359605E-05 
 +7.645151E-06 -1.288811E-04 -1.222333E-04 -1.288811E-04 +5.152778E-03 +1.054919E-04 -1.222333E-04 +1.054919E-04 +6.025252E-05 
 -5.572103E-05 -1.086626E-04 -2.402445E-04 -1.086626E-04 +5.133043E-03 +6.442846E-05 -2.402445E-04 +6.442846E-05 +2.039206E-05 
 -2.558485E-04 +1.236129E-05 +1.621939E-04 +1.236129E-05 +5.095795E-03 +1.666717E-04 +1.621939E-04 +1.666717E-04 +5.110334E-05 
 -7.595626E-05 -1.877365E-06 +1.828797E-04 -1.877365E-06 +5.097564E-03 +1.461749E-04 +1.828797E-04 +1.461749E-04 -7.315326E-06 
 -3.297081E-04 -9.095625E-05 +1.272364E-04 -9.095625E-05 +5.156379E-03 +6.853504E-05 +1.272364E-04 +6.853504E-05 -5.266393E-06 
 -5.366038E-04 -1.042712E-04 +1.161984E-05 -1.042712E-04 +5.184385E-03 -3.453680E-05 +1.161984E-05 -3.453680E-05 +5.894397E-05 
 -3.218777E-04 -2.279383E-05 -2.792221E-04 -2.279383E-05 +5.162999E-03 -2.961383E-05 -2.792221E-04 -2.961383E-05 +1.186027E-04 
 -2.548856E-04 +5.026129E-06 -3.360525E-04 +5.026129E-06 +5.106319E-03 +1.716380E-05 -3.360525E-04 +1.716380E-05 +1.526041E-04 
 -1.377456E-04 +4.185761E-06 -2.597518E-04 +4.185761E-06 +5.081721E-03 +2.478399E-05 -2.597518E-04 +2.478399E-05 +1.210390E-04 
 -2.758063E-05 -8.774387E-06 -1.545472E-04 -8.774387E-06 +5.039570E-03 -9.232320E-05 -1.545472E-04 -9.232320E-05 +9.256967E-05 
 +1.527288E-04 +2.360363E-05 -4.409351E-06 +2.360363E-05 +4.943846E-03 -2.162530E-04 -4.409351E-06 -2.162530E-04 +2.077236E-04 
 +1.898227E-04 -2.138778E-05 -3.642594E-05 -2.138778E-05 +4.978981E-03 -1.205263E-04 -3.642594E-05 -1.205263E-04 +1.299236E-04 
 +5.581001E-05 -5.899907E-05 +2.065849E-04 -5.899907E-05 +5.114546E-03 -2.282126E-05 +2.065849E-04 -2.282126E-05 -8.704553E-05 
 -2.517745E-05 -6.785379E-05 +2.867879E-04 -6.785379E-05 +5.118263E-03 -4.629293E-05 +2.867879E-04 -4.629293E-05 -1.498233E-04 
 +1.362540E-04 -4.148706E-05 +1.785527E-04 -4.148706E-05 +5.018208E-03 -8.960346E-05 +1.785527E-04 -8.960346E-05 -2.561513E-04 
 +2.799883E-04 -8.365361E-05 +1.533684E-04 -8.365361E-05 +4.943068E-03 -1.205948E-04 +1.533684E-04 -1.205948E-04 -3.183508E-04 
 +3.360647E-04 -1.759853E-04 +1.835006E-04 -1.759853E-04 +4.870117E-03 -1.177936E-04 +1.835006E-04 -1.177936E-04 -1.638225E-04 
 +3.532888E-04 +7.609275E-06 +4.408357E-05 +7.609275E-06 +4.728665E-03 -5.092362E-05 +4.408357E-05 -5.092362E-05 +8.497044E-05 
 +2.302001E-04 -2.632156E-05 +3.426135E-05 -2.632156E-05 +4.782240E-03 -7.568390E-06 +3.426135E-05 -7.568390E-06 +4.132591E-05 
 +5.243514E-05 -1.943069E-04 -2.511865E-04 -1.943069E-04 +4.986907E-03 +1.178777E-05 -2.511865E-04 +1.178777E-05 -8.817128E-05 
 +7.166889E-05 -1.562232E-04 -2.556798E-04 -1.562232E-04 +5.042962E-03 +9.179886E-05 -2.556798E-04 +9.179886E-05 -6.959335E-05 
 +6.781816E-05 -1.043407E-04 -2.337071E-04 -1.043407E-04 +5.070707E-03 +1.864501E-04 -2.337071E-04 +1.864501E-04 -8.913415E-06 
 +3.929553E-05 -9.762834E-05 -3.572672E-04 -9.762834E-05 +5.123741E-03 +2.204245E-04 -3.572672E-04 +2.204245E-04 +5.656430E-05 
 -3.416207E-04 -6.084612E-05 +1.095195E-04 -6.084612E-05 +5.138268E-03 +1.936585E-04 +1.095195E-04 +1.936585E-04 +8.325652E-05 
 -9.021408E-05 -1.653741E-06 +1.354505E-04 -1.653741E-06 +5.147708E-03 +4.480611E-05 +1.354505E-04 +4.480611E-05 -1.186762E-05 
 -3.959242E-04 -1.573608E-05 +8.498752E-05 -1.573608E-05 +5.172465E-03 -4.105168E-05 +8.498752E-05 -4.105168E-05 +7.347927E-06 
 -4.192233E-04 -2.470658E-05 -7.743277E-05 -2.470658E-05 +5.169285E-03 -7.239305E-05 -7.743277E-05 -7.239305E-05 +5.224438E-05 
 -3.076982E-04 -3.132619E-05 -2.860720E-04 -3.132619E-05 +5.118086E-03 -1.060378E-04 -2.860720E-04 -1.060378E-04 +8.644538E-05 
 -2.051558E-04 +2.295658E-05 -3.059735E-04 +2.295658E-05 +5.079929E-03 -7.152937E-05 -3.059735E-04 -7.152937E-05 +1.431433E-04 
 -4.055288E-05 +1.379445E-05 -2.532494E-04 +1.379445E-05 +5.069236E-03 -6.989076E-05 -2.532494E-04 -6.989076E-05 +4.250264E-05 
 +1.061807E-05 -3.701887E-05 -1.862623E-04 -3.701887E-05 +5.039593E-03 -1.442136E-04 -1.862623E-04 -1.442136E-04 +2.302701E-05 
 +6.532558E-05 +3.410093E-05 -7.259550E-07 +3.410093E-05 +5.003880E-03 -2.006938E-04 -7.259550E-07 -2.006938E-04 +8.006278E-05 
 +4.351546E-05 +9.803009E-05 +2.605918E-05 +9.803009E-05 +4.998237E-03 -1.463988E-04 +2.605918E-05 -1.463988E-04 -2.940624E-05 
 +3.738527E-05 +9.212749E-05 +1.061407E-04 +9.212749E-05 +4.925090E-03 -1.393546E-05 +1.061407E-04 -1.393546E-05 -1.143467E-04 
 +6.809102E-05 +9.128196E-05 +1.642161E-04 +9.128196E-05 +4.777683E-03 +6.131979E-05 +1.642161E-04 +6.131979E-05 -5.267878E-05 
 +1.183397E-04 +1.011479E-04 +6.147600E-05 +1.011479E-04 +4.712970E-03 +2.436265E-05 +6.147600E-05 +2.436265E-05 -3.940954E-05 
 +2.074506E-04 +4.552942E-05 -1.287132E-05 +4.552942E-05 +4.717120E-03 -6.449122E-05 -1.287132E-05 -6.449122E-05 -6.977797E-05 
 +2.751819E-04 -8.225198E-05 -2.453552E-05 -8.225198E-05 +4.709439E-03 -1.346752E-04 -2.453552E-05 -1.346752E-04 -1.208204E-05 
 +3.536003E-04 -1.211391E-05 -1.360276E-05 -1.211391E-05 +4.662874E-03 -7.517565E-05 -1.360276E-05 -7.517565E-05 +1.382077E-04 
 +2.592053E-04 +7.607798E-06 +1.494738E-05 +7.607798E-06 +4.659898E-03 -1.943968E-05 +1.494738E-05 -1.943968E-05 +2.054868E-04 
 +3.702039E-05 -1.549567E-04 -3.021007E-04 -1.549567E-04 +4.833422E-03 -1.444737E-05 -3.021007E-04 -1.444737E-05 +7.082863E-05 
 +4.486036E-05 -1.804011E-04 -4.253292E-04 -1.804011E-04 +4.979939E-03 +7.454104E-05 -4.253292E-04 +7.454104E-05 -1.227334E-04 
 +1.630026E-04 -1.144191E-04 -3.249702E-04 -1.144191E-04 +4.996593E-03 +1.846921E-04 -3.249702E-04 +1.846921E-04 -1.209134E-04 
 +1.167641E-04 -1.174354E-04 -4.062576E-04 -1.174354E-04 +5.067643E-03 +2.399235E-04 -4.062576E-04 +2.399235E-04 +3.266718E-05 
 -2.626073E-04 -9.321883E-05 +4.205166E-05 -9.321883E-05 +5.141451E-03 +2.385960E-04 +4.205166E-05 +2.385960E-04 -7.950477E-05 
 -1.073480E-05 +3.042679E-05 +2.041168E-05 +3.042679E-05 +5.166286E-03 +9.079319E-05 +2.041168E-05 +9.079319E-05 -1.301133E-04 
 -2.606748E-04 +1.084197E-04 +4.822709E-05 +1.084197E-04 +5.159640E-03 -5.394282E-05 +4.822709E-05 -5.394282E-05 -1.068411E-04 
 -3.094222E-04 +1.429046E-04 -1.999346E-04 +1.429046E-04 +5.180300E-03 -1.732383E-04 -1.999346E-04 -1.732383E-04 -3.763829E-05 
 -3.872537E-04 +1.326827E-04 -2.238700E-04 +1.326827E-04 +5.165973E-03 -1.931458E-04 -2.238700E-04 -1.931458E-04 +3.763270E-05 
 -2.434001E-04 +8.791559E-05 -2.234850E-04 +8.791559E-05 +5.115342E-03 -1.260763E-04 -2.234850E-04 -1.260763E-04 +1.078581E-04 
 +1.256733E-05 +4.017651E-05 -3.216873E-04 +4.017651E-05 +5.052509E-03 -1.084499E-04 -3.216873E-04 -1.084499E-04 +3.685959E-05 
 +8.772989E-05 -5.335759E-06 -2.583510E-04 -5.335759E-06 +5.023388E-03 -1.374915E-04 -2.583510E-04 -1.374915E-04 -3.557547E-05 
 +2.706703E-05 +9.480477E-05 -8.106805E-05 +9.480477E-05 +5.047475E-03 -1.632940E-04 -8.106805E-05 -1.632940E-04 -5.394898E-05 
 +5.091715E-06 +1.765184E-04 -3.640176E-06 +1.765184E-04 +5.024462E-03 -1.318662E-04 -3.640176E-06 -1.318662E-04 -8.760449E-05 
 +5.783244E-05 +1.178050E-04 +4.649898E-05 +1.178050E-04 +4.943491E-03 -5.437367E-05 +4.649898E-05 -5.437367E-05 -6.199667E-05 
 +4.254706E-05 +2.687709E-05 +3.193238E-05 +2.687709E-05 +4.869644E-03 -4.010069E-05 +3.193238E-05 -4.010069E-05 -2.924207E-05 
 +6.786211E-05 +5.583161E-05 -1.239543E-05 +5.583161E-05 +4.806484E-03 -4.350081E-05 -1.239543E-05 -4.350081E-05 +3.960953E-05 
 +1.675998E-04 +2.211556E-05 -1.670060E-04 +2.211556E-05 +4.754095E-03 +1.893719E-06 -1.670060E-04 +1.893719E-06 +7.269795E-05 
 +2.457016E-04 -2.457255E-05 -1.965393E-04 -2.457255E-05 +4.767210E-03 -3.975322E-05 -1.965393E-04 -3.975322E-05 +3.610544E-05 
 +2.572945E-04 +1.625088E-05 -1.521697E-04 +1.625088E-05 +4.733448E-03 -9.087543E-05 -1.521697E-04 -9.087543E-05 +8.089316E-05 
 +1.594890E-04 +9.029124E-05 -1.535140E-04 +9.029124E-05 +4.638507E-03 -3.413396E-05 -1.535140E-04 -3.413396E-05 +2.817475E-04 
 +1.844626E-05 -5.424476E-05 -3.234305E-04 -5.424476E-05 +4.659563E-03 +4.168236E-06 -3.234305E-04 +4.168236E-06 +2.556284E-04 
 +2.999250E-05 -1.378766E-04 -4.001194E-04 -1.378766E-04 +4.809759E-03 +4.134672E-05 -4.001194E-04 +4.134672E-05 -8.630940E-05 
 +1.470358E-04 -1.619595E-04 -3.386250E-04 -1.619595E-04 +4.943102E-03 +1.337997E-04 -3.386250E-04 +1.337997E-04 -2.143793E-04 
 +1.478816E-04 -1.639859E-04 -3.305630E-04 -1.639859E-04 +5.029757E-03 +2.483132E-04 -3.305630E-04 +2.483132E-04 -1.171600E-04 
 -8.861862E-06 -8.401081E-05 -8.116424E-05 -8.401081E-05 +5.108273E-03 +2.441230E-04 -8.116424E-05 +2.441230E-04 -2.651306E-04 
 +4.895040E-05 -3.058065E-05 -4.403643E-05 -3.058065E-05 +5.145262E-03 +1.745583E-04 -4.403643E-05 +1.745583E-04 -2.448593E-04 
 -4.205261E-05 +2.446051E-05 -5.747757E-05 +2.446051E-05 +5.137985E-03 +1.626998E-05 -5.747757E-05 +1.626998E-05 -2.809257E-04 
 -1.395636E-04 +6.975410E-05 -1.868981E-04 +6.975410E-05 +5.143744E-03 -1.489860E-04 -1.868981E-04 -1.489860E-04 -2.059742E-04 
 -3.782865E-04 +1.105551E-04 -8.965202E-05 +1.105551E-04 +5.178958E-03 -1.528948E-04 -8.965202E-05 -1.528948E-04 +1.906402E-05 
 -3.706027E-04 +1.218278E-04 -1.697461E-04 +1.218278E-04 +5.134580E-03 -1.396296E-04 -1.697461E-04 -1.396296E-04 +1.851041E-04 
 +6.779702E-05 +8.104007E-05 -4.002901E-04 +8.104007E-05 +5.025198E-03 -1.106762E-04 -4.002901E-04 -1.106762E-04 +1.608445E-04 
 +8.565361E-05 +5.147999E-05 -3.245325E-04 +5.147999E-05 +5.010491E-03 -8.248271E-05 -3.245325E-04 -8.248271E-05 +3.443465E-06 
 +3.958376E-05 +1.226149E-04 -1.391358E-04 +1.226149E-04 +5.043387E-03 -1.096461E-04 -1.391358E-04 -1.096461E-04 -5.725837E-05 
 +3.144643E-06 +1.538296E-04 -2.848828E-05 +1.538296E-04 +5.016121E-03 -8.184212E-05 -2.848828E-05 -8.184212E-05 -7.085975E-05 
 +4.035423E-06 +1.113083E-04 -2.531313E-06 +1.113083E-04 +4.984147E-03 -3.628245E-05 -2.531313E-06 -3.628245E-05 -5.875049E-05 
 -1.121643E-05 +6.136871E-05 -4.909468E-05 +6.136871E-05 +4.981023E-03 -5.236106E-06 -4.909468E-05 -5.236106E-06 -9.311840E-05 
 +4.831071E-05 +9.845757E-05 -6.791830E-05 +9.845757E-05 +4.929814E-03 -2.429984E-05 -6.791830E-05 -2.429984E-05 -7.224792E-05 
 +1.521072E-04 +6.631563E-05 -2.136937E-04 +6.631563E-05 +4.831650E-03 -4.825700E-05 -2.136937E-04 -4.825700E-05 -4.364124E-05 
 +1.743279E-04 +7.529348E-05 -2.765019E-04 +7.529348E-05 +4.896998E-03 -1.086994E-05 -2.765019E-04 -1.086994E-05 -1.280910E-04 
 +1.807753E-04 -4.739045E-05 -1.728140E-04 -4.739045E-05 +5.022398E-03 +7.487537E-05 -1.728140E-04 +7.487537E-05 -8.040062E-05 
 +5.311749E-05 +6.638238E-08 -1.501181E-04 +6.638238E-08 +4.905364E-03 +1.936286E-04 -1.501181E-04 +1.936286E-04 +1.402642E-04 
 -3.549696E-05 -1.705365E-05 -1.982414E-04 -1.705365E-05 +4.755127E-03 +2.095711E-04 -1.982414E-04 +2.095711E-04 +2.026165E-04 
 -8.391568E-05 -7.204850E-05 -1.658903E-04 -7.204850E-05 +4.781818E-03 +1.840281E-04 -1.658903E-04 +1.840281E-04 +1.162084E-05 
 +8.785590E-05 -1.650548E-04 -2.483112E-04 -1.650548E-04 +4.871631E-03 +1.875416E-04 -2.483112E-04 +1.875416E-04 -1.855283E-04 
 +1.244340E-04 -1.300579E-04 -2.143881E-04 -1.300579E-04 +4.998505E-03 +2.380854E-04 -2.143881E-04 +2.380854E-04 -2.592186E-04 
 +1.715109E-04 -1.133883E-04 -2.315537E-04 -1.133883E-04 +5.041041E-03 +1.153486E-04 -2.315537E-04 +1.153486E-04 -2.828781E-04 
 +1.184736E-04 -7.255648E-05 -9.924732E-05 -7.255648E-05 +5.065266E-03 +8.306072E-05 -9.924732E-05 +8.306072E-05 -2.881321E-04 
 +1.045721E-04 -3.039445E-05 -1.284185E-04 -3.039445E-05 +5.097846E-03 +5.213376E-05 -1.284185E-04 +5.213376E-05 -3.361052E-04 
 -1.392046E-05 -2.899047E-05 -1.555621E-04 -2.899047E-05 +5.117573E-03 +7.097545E-06 -1.555621E-04 +7.097545E-06 -3.411938E-04 
 -1.779438E-04 +4.040232E-06 -8.096730E-05 +4.040232E-06 +5.102830E-03 -6.477518E-05 -8.096730E-05 -6.477518E-05 -1.123106E-04 
 -2.714656E-04 +9.328357E-05 -2.473084E-04 +9.328357E-05 +5.073346E-03 -1.122210E-04 -2.473084E-04 -1.122210E-04 +1.645758E-04 
 +1.039973E-06 +1.008418E-04 -4.158663E-04 +1.008418E-04 +5.042682E-03 -7.739648E-05 -4.158663E-04 -7.739648E-05 +1.778975E-04 
 +6.256303E-05 +9.866767E-05 -3.331480E-04 +9.866767E-05 +5.024883E-03 -3.495341E-05 -3.331480E-04 -3.495341E-05 +2.444410E-05 
 +2.861492E-05 +1.376423E-04 -1.675841E-04 +1.376423E-04 +5.010515E-03 -4.727708E-05 -1.675841E-04 -4.727708E-05 -2.528512E-05 
 -1.275203E-05 +1.599222E-04 -7.667857E-05 +1.599222E-04 +5.004257E-03 -4.515748E-05 -7.667857E-05 -4.515748E-05 -4.707374E-05 
 -3.039483E-06 +1.485226E-04 -5.722693E-05 +1.485226E-04 +5.045868E-03 -4.032949E-05 -5.722693E-05 -4.032949E-05 -9.494743E-05 
 -4.279719E-05 +1.042435E-04 -1.248728E-04 +1.042435E-04 +5.108989E-03 -5.583962E-05 -1.248728E-04 -5.583962E-05 -1.273220E-04 
 -6.100114E-05 +3.410885E-05 -1.671413E-04 +3.410885E-05 +5.151332E-03 -9.133879E-05 -1.671413E-04 -9.133879E-05 -1.227172E-04 
 +1.040847E-04 -3.175490E-05 -1.966404E-04 -3.175490E-05 +5.204261E-03 -1.946886E-05 -1.966404E-04 -1.946886E-05 -2.414402E-04 
 +9.839240E-05 +3.945152E-05 -2.086705E-04 +3.945152E-05 +5.195535E-03 +9.906988E-05 -2.086705E-04 +9.906988E-05 -2.786843E-04 
 +8.187647E-05 -3.529455E-05 -7.387160E-05 -3.529455E-05 +5.182229E-03 +9.709683E-05 -7.387160E-05 +9.709683E-05 -1.249347E-04 
 +3.749967E-05 -8.437616E-05 -2.204094E-06 -8.437616E-05 +5.196081E-03 +7.143983E-05 -2.204094E-06 +7.143983E-05 -9.410680E-05 
 -7.220836E-05 -3.646133E-05 -4.847600E-05 -3.646133E-05 +5.122563E-03 +7.212651E-05 -4.847600E-05 +7.212651E-05 -8.894048E-05 
 -2.481746E-04 -1.216923E-05 -1.357793E-05 -1.216923E-05 +5.091853E-03 +6.259391E-05 -1.357793E-05 +6.259391E-05 -1.338457E-04 
 +7.737268E-06 -1.216638E-04 -2.886470E-04 -1.216638E-04 +5.101064E-03 +3.437901E-05 -2.886470E-04 +3.437901E-05 -2.896125E-04 
 +8.699907E-05 -9.982603E-05 -2.311405E-04 -9.982603E-05 +5.065836E-03 +6.859266E-05 -2.311405E-04 +6.859266E-05 -3.083064E-04 
 +1.936502E-04 -1.031147E-04 -3.192133E-04 -1.031147E-04 +5.036258E-03 -2.173264E-05 -3.192133E-04 -2.173264E-05 -3.336310E-04 
 +2.206772E-04 -9.918080E-05 -1.943637E-04 -9.918080E-05 +5.040757E-03 +8.777983E-06 -1.943637E-04 +8.777983E-06 -3.820785E-04 
 +1.872023E-04 -7.706298E-05 -1.358098E-04 -7.706298E-05 +5.064837E-03 +5.553621E-05 -1.358098E-04 +5.553621E-05 -3.566809E-04 
 +1.421107E-04 -4.774225E-05 -1.638206E-04 -4.774225E-05 +5.068713E-03 +9.152112E-05 -1.638206E-04 +9.152112E-05 -3.341325E-04 
 -1.648200E-05 -4.320768E-05 -8.757886E-05 -4.320768E-05 +5.049666E-03 +3.666904E-05 -8.757886E-05 +3.666904E-05 -1.543050E-04 
 -9.421282E-05 -2.322918E-05 -2.452551E-04 -2.322918E-05 +5.053839E-03 -4.001932E-05 -2.452551E-04 -4.001932E-05 +7.251272E-05 
 -2.692710E-05 -1.060378E-05 -3.350005E-04 -1.060378E-05 +5.093449E-03 -2.704349E-05 -3.350005E-04 -2.704349E-05 +4.435651E-05 
 +7.010556E-05 +3.702538E-05 -3.167861E-04 +3.702538E-05 +5.087461E-03 -5.844927E-06 -3.167861E-04 -5.844927E-06 -4.705315E-05 
 +2.514114E-05 +8.118088E-05 -2.317357E-04 +8.118088E-05 +5.019875E-03 -3.858418E-05 -2.317357E-04 -3.858418E-05 -9.481316E-05 
 -2.139476E-06 +1.831360E-04 -1.334132E-04 +1.831360E-04 +5.011562E-03 -3.642472E-05 -1.334132E-04 -3.642472E-05 -1.341316E-04 
 -2.014825E-05 +1.775282E-04 -9.390503E-05 +1.775282E-04 +5.077091E-03 -9.798082E-06 -9.390503E-05 -9.798082E-06 -1.347962E-04 
 -7.196894E-05 +1.474732E-04 -1.933296E-04 +1.474732E-04 +5.175481E-03 -1.280307E-05 -1.933296E-04 -1.280307E-05 -7.798934E-05 
 -1.962898E-04 +8.773459E-05 -2.215803E-04 +8.773459E-05 +5.240740E-03 -4.084140E-05 -2.215803E-04 -4.084140E-05 -5.331211E-05 
 -5.506857E-07 +6.218813E-05 -1.298811E-04 +6.218813E-05 +5.257568E-03 +2.362682E-06 -1.298811E-04 +2.362682E-06 -2.618659E-04 
 +1.372231E-04 +5.583565E-05 -6.745786E-05 +5.583565E-05 +5.241199E-03 +1.302681E-04 -6.745786E-05 +1.302681E-04 -2.910669E-04 
 -8.199598E-06 +4.967141E-05 -2.454829E-05 +4.967141E-05 +5.194608E-03 +1.747073E-04 -2.454829E-05 +1.747073E-04 -9.391130E-05 
 +5.106366E-05 -9.740875E-06 +3.909020E-05 -9.740875E-06 +5.193891E-03 +3.329840E-05 +3.909020E-05 +3.329840E-05 -1.511585E-04 
 -2.112881E-04 -2.366800E-05 +6.428914E-05 -2.366800E-05 +5.228983E-03 -1.002237E-04 +6.428914E-05 -1.002237E-04 -1.922275E-04 
 -3.437578E-04 -2.717819E-05 +3.547367E-05 -2.717819E-05 +5.217821E-03 -1.212836E-04 +3.547367E-05 -1.212836E-04 -2.582350E-04 
 -1.307532E-04 -1.350582E-04 -2.508118E-04 -1.350582E-04 +5.160370E-03 -4.337010E-05 -2.508118E-04 -4.337010E-05 -3.358269E-04 
 +9.560654E-05 -1.200439E-04 -3.066944E-04 -1.200439E-04 +5.087040E-03 -4.358735E-06 -3.066944E-04 -4.358735E-06 -2.996327E-04 
 +2.022095E-04 -6.786790E-05 -3.303084E-04 -6.786790E-05 +4.952596E-03 -3.688643E-05 -3.303084E-04 -3.688643E-05 -4.214859E-04 
 +2.508795E-04 -4.507231E-05 -2.527195E-04 -4.507231E-05 +4.914126E-03 +3.224868E-05 -2.527195E-04 +3.224868E-05 -4.432376E-04 
 +2.548057E-04 -1.722720E-05 -1.634101E-04 -1.722720E-05 +4.935958E-03 +5.983557E-05 -1.634101E-04 +5.983557E-05 -4.123561E-04 
 +2.128084E-04 -9.145061E-05 -1.312187E-04 -9.145061E-05 +5.018495E-03 +1.150157E-04 -1.312187E-04 +1.150157E-04 -3.158915E-04 
 +8.664834E-05 -1.574371E-04 -5.143754E-05 -1.574371E-04 +5.076074E-03 +1.092550E-04 -5.143754E-05 +1.092550E-04 -1.559582E-04 
 -3.652382E-05 -1.223557E-04 -1.334720E-04 -1.223557E-04 +5.117175E-03 +4.120048E-05 -1.334720E-04 +4.120048E-05 -5.473405E-05 
 +3.089450E-05 -1.358875E-04 -2.108022E-04 -1.358875E-04 +5.149743E-03 +2.488482E-05 -2.108022E-04 +2.488482E-05 -9.554283E-05 
 +7.848390E-05 -1.322292E-04 -2.609765E-04 -1.322292E-04 +5.177275E-03 +3.076787E-05 -2.609765E-04 +3.076787E-05 -1.334804E-04 
 +6.974006E-05 -9.835700E-05 -2.518726E-04 -9.835700E-05 +5.190526E-03 +6.268768E-05 -2.518726E-04 +6.268768E-05 -2.186783E-04 
 +6.845643E-05 +2.820950E-05 -2.162999E-04 +2.820950E-05 +5.118464E-03 +5.670767E-05 -2.162999E-04 +5.670767E-05 -3.203493E-04 
 +1.553569E-05 +1.391348E-04 -1.394975E-04 +1.391348E-04 +5.083260E-03 -1.592230E-05 -1.394975E-04 -1.592230E-05 -2.105719E-04 
 -1.234572E-04 +1.394144E-04 -9.651203E-05 +1.394144E-04 +5.151266E-03 +3.908451E-05 -9.651203E-05 +3.908451E-05 -5.481017E-05 
 -2.518567E-04 +2.201343E-05 -1.590579E-04 +2.201343E-05 +5.212994E-03 +2.022123E-04 -1.590579E-04 +2.022123E-04 -3.735214E-06 
 -1.025703E-04 -1.480543E-06 -1.789991E-04 -1.480543E-06 +5.211606E-03 +1.847831E-04 -1.789991E-04 +1.847831E-04 -1.072878E-04 
 +2.044287E-04 +4.247912E-05 +3.471503E-06 +4.247912E-05 +5.255197E-03 +8.659417E-05 +3.471503E-06 +8.659417E-05 -2.310711E-04 
 +4.738110E-05 +5.303687E-05 +1.567294E-05 +5.303687E-05 +5.274860E-03 +2.282686E-05 +1.567294E-05 +2.282686E-05 -1.609362E-04 
 -5.155007E-05 +4.473020E-05 +6.390801E-05 +4.473020E-05 +5.224310E-03 -8.227162E-05 +6.390801E-05 -8.227162E-05 -6.451010E-05 
 -4.031272E-04 +1.362426E-05 +1.476399E-04 +1.362426E-05 +5.252480E-03 -1.445880E-04 +1.476399E-04 -1.445880E-04 -1.161737E-05 
 -4.217795E-04 -3.461868E-05 +1.001485E-04 -3.461868E-05 +5.231383E-03 -1.494578E-04 +1.001485E-04 -1.494578E-04 -1.088014E-04 
 -2.797868E-04 -1.418091E-04 -2.999699E-05 -1.418091E-04 +5.150699E-03 -5.660375E-05 -2.999699E-05 -5.660375E-05 -2.031990E-04 
 +1.484159E-04 -1.520881E-04 -3.667933E-04 -1.520881E-04 +5.045913E-03 -3.175729E-05 -3.667933E-04 -3.175729E-05 -3.068039E-04 
 +2.809855E-04 -4.903320E-05 -2.969460E-04 -4.903320E-05 +4.889642E-03 -4.716531E-05 -2.969460E-04 -4.716531E-05 -3.630076E-04 
 +2.682045E-04 +2.375845E-05 -2.135358E-04 +2.375845E-05 +4.879803E-03 +1.526986E-05 -2.135358E-04 +1.526986E-05 -3.996524E-04 
 +2.335606E-04 +4.373773E-05 -1.851983E-04 +4.373773E-05 +4.907568E-03 +8.368753E-05 -1.851983E-04 +8.368753E-05 -3.980200E-04 
 +2.012210E-04 +9.797692E-06 -9.097311E-05 +9.797692E-06 +4.976151E-03 +1.397254E-04 -9.097311E-05 +1.397254E-04 -3.422983E-04 
 +1.362161E-04 -7.112784E-05 -4.087897E-05 -7.112784E-05 +5.127120E-03 +1.549031E-04 -4.087897E-05 +1.549031E-04 -2.308980E-04 
 +2.553259E-06 -1.200854E-04 -9.553024E-05 -1.200854E-04 +5.187051E-03 +1.208986E-04 -9.553024E-05 +1.208986E-04 -1.500921E-04 
 +5.724918E-05 -1.402078E-04 -1.539600E-04 -1.402078E-04 +5.147420E-03 +7.280235E-05 -1.539600E-04 +7.280235E-05 -1.257968E-04 
 +6.239252E-05 -1.266274E-04 -1.773376E-04 -1.266274E-04 +5.135843E-03 +5.183440E-05 -1.773376E-04 +5.183440E-05 -1.444064E-04 
 +6.437134E-05 -1.454438E-04 -1.779867E-04 -1.454438E-04 +5.150722E-03 +9.367886E-05 -1.779867E-04 +9.367886E-05 -1.859057E-04 
 +6.735418E-05 -1.363419E-04 -2.291244E-04 -1.363419E-04 +5.161350E-03 +1.410144E-04 -2.291244E-04 +1.410144E-04 -2.675213E-04 
 +4.774919E-05 -5.390602E-05 -8.342606E-05 -5.390602E-05 +5.211624E-03 +2.349677E-04 -8.342606E-05 +2.349677E-04 -2.364216E-04 
 -1.345030E-04 -1.097052E-04 +1.704826E-05 -1.097052E-04 +5.185361E-03 +3.172887E-04 +1.704826E-05 +3.172887E-04 -1.018952E-04 
 -1.089310E-04 -3.129797E-05 -8.372358E-05 -3.129797E-05 +5.153705E-03 +3.286548E-04 -8.372358E-05 +3.286548E-04 -5.925302E-05 
 -7.722178E-05 -3.003611E-07 -2.280238E-04 -3.003611E-07 +5.121362E-03 +3.154782E-04 -2.280238E-04 +3.154782E-04 -5.364771E-05 
 +2.051204E-04 +9.374462E-05 -1.462538E-05 +9.374462E-05 +4.959301E-03 +2.498134E-04 -1.462538E-05 +2.498134E-04 -4.153603E-05 
 +1.698755E-04 +8.444805E-05 -3.121659E-05 +8.444805E-05 +5.008495E-03 +9.794593E-05 -3.121659E-05 +9.794593E-05 -2.800358E-05 
 -2.858488E-04 +3.740310E-05 +1.209344E-04 +3.740310E-05 +5.235114E-03 -4.025445E-05 +1.209344E-04 -4.025445E-05 +6.312925E-05 
 -4.753109E-04 -9.765796E-06 +1.675112E-04 -9.765796E-06 +5.303545E-03 -5.809566E-05 +1.675112E-04 -5.809566E-05 +6.982473E-05 
 -4.534541E-04 -3.769252E-05 +1.535271E-04 -3.769252E-05 +5.247485E-03 -6.719776E-05 +1.535271E-04 -6.719776E-05 -3.699647E-05 
 -3.559436E-04 -8.305451E-05 +8.484340E-05 -8.305451E-05 +5.147821E-03 -1.406543E-04 +8.484340E-05 -1.406543E-04 -1.394267E-04 
 +9.427974E-05 -1.421248E-04 -2.499320E-04 -1.421248E-04 +5.003994E-03 -1.308909E-04 -2.499320E-04 -1.308909E-04 -2.640045E-04 
 +2.557068E-04 +9.335166E-05 -1.911130E-04 +9.335166E-05 +4.927306E-03 -1.363110E-04 -1.911130E-04 -1.363110E-04 -3.301577E-04 
 +2.276548E-04 +1.050808E-04 -1.605209E-04 +1.050808E-04 +4.909293E-03 -2.028444E-05 -1.605209E-04 -2.028444E-05 -3.432292E-04 
 +1.810308E-04 +8.596232E-05 -1.595898E-04 +8.596232E-05 +4.890897E-03 +1.082369E-04 -1.595898E-04 +1.082369E-04 -2.376818E-04 
 +1.762160E-04 +9.208724E-05 -8.525201E-05 +9.208724E-05 +4.930830E-03 +1.317244E-04 -8.525201E-05 +1.317244E-04 -2.106115E-04 
 +1.829242E-04 +6.965718E-05 -4.131601E-05 +6.965718E-05 +5.139741E-03 +9.017852E-05 -4.131601E-05 +9.017852E-05 -1.934738E-04 
 +8.996613E-05 -8.247332E-05 -1.127589E-04 -8.247332E-05 +5.230683E-03 +3.045743E-05 -1.127589E-04 +3.045743E-05 -1.541030E-04 
 +6.178180E-06 -8.981707E-05 -9.755762E-05 -8.981707E-05 +5.150801E-03 +1.032145E-05 -9.755762E-05 +1.032145E-05 -1.315558E-04 
 +2.014079E-06 -1.160234E-04 -1.245248E-04 -1.160234E-04 +5.123347E-03 +3.706819E-05 -1.245248E-04 +3.706819E-05 -1.207615E-04 
 -2.184561E-06 -1.288852E-04 -8.539971E-05 -1.288852E-04 +5.131294E-03 +6.246580E-05 -8.539971E-05 +6.246580E-05 -1.544342E-04 
 +4.277637E-05 -1.248791E-04 -9.423920E-05 -1.248791E-04 +5.084626E-03 +1.254337E-04 -9.423920E-05 +1.254337E-04 -2.037389E-04 
 +7.619001E-05 +3.395564E-05 +2.301941E-05 +3.395564E-05 +4.884375E-03 +1.987735E-04 +2.301941E-05 +1.987735E-04 -1.663187E-04 
 +2.941132E-05 +7.069510E-05 -6.355592E-06 +7.069510E-05 +4.758758E-03 +2.380217E-04 -6.355592E-06 +2.380217E-04 -7.573444E-05 
 +6.196863E-05 +1.733097E-04 -6.441636E-05 +1.733097E-04 +4.789012E-03 +2.636538E-04 -6.441636E-05 +2.636538E-04 -7.225778E-05 
 -1.492060E-05 +9.365206E-05 -1.458455E-04 +9.365206E-05 +4.943526E-03 +3.147873E-04 -1.458455E-04 +3.147873E-04 -3.116714E-05 
 +5.553541E-05 +4.331987E-05 +3.814983E-05 +4.331987E-05 +5.059848E-03 +3.491600E-04 +3.814983E-05 +3.491600E-04 +1.033034E-04 
 +7.151092E-06 +2.831691E-05 -8.187213E-05 +2.831691E-05 +5.086735E-03 +3.272813E-04 -8.187213E-05 +3.272813E-04 +1.504854E-04 
 -2.726173E-04 +4.223401E-06 +6.852828E-05 +4.223401E-06 +5.219534E-03 +2.013821E-04 +6.852828E-05 +2.013821E-04 +1.800727E-04 
 -3.809092E-04 +2.882524E-05 +1.170786E-04 +2.882524E-05 +5.293458E-03 +3.910931E-05 +1.170786E-04 +3.910931E-05 +1.512733E-04 
 -3.928434E-04 +4.196108E-05 +1.267841E-04 +4.196108E-05 +5.226949E-03 -4.762653E-05 +1.267841E-04 -4.762653E-05 +8.831717E-05 
 -2.831045E-04 +1.758527E-05 +6.815645E-05 +1.758527E-05 +5.095527E-03 -1.106602E-04 +6.815645E-05 -1.106602E-04 +5.329780E-05 
 -4.818716E-05 +2.658773E-05 -9.676567E-06 +2.658773E-05 +4.978883E-03 -1.614056E-04 -9.676567E-06 -1.614056E-04 -1.170326E-04 
 +7.194910E-05 +1.883527E-04 -2.827047E-05 +1.883527E-04 +5.047118E-03 -1.330493E-04 -2.827047E-05 -1.330493E-04 -3.431534E-04 
 +1.368869E-04 +1.658952E-04 -8.849867E-05 +1.658952E-04 +5.006684E-03 +2.257519E-06 -8.849867E-05 +2.257519E-06 -2.228294E-04 
 +9.089550E-05 +9.730447E-05 -1.402320E-04 +9.730447E-05 +4.858333E-03 +1.250218E-04 -1.402320E-04 +1.250218E-04 +8.465526E-06 
 +6.883548E-05 +1.262757E-04 -1.781081E-04 +1.262757E-04 +4.709109E-03 +1.329559E-04 -1.781081E-04 +1.329559E-04 +4.047590E-05 
 +2.750162E-04 +1.294377E-04 -9.339542E-05 +1.294377E-04 +4.590528E-03 +9.726009E-05 -9.339542E-05 +9.726009E-05 -2.982308E-05 
 +2.521401E-04 -2.321753E-06 -1.573337E-04 -2.321753E-06 +4.718408E-03 +7.738484E-05 -1.573337E-04 +7.738484E-05 -6.305632E-05 
 +3.020040E-05 +6.803620E-05 -3.294703E-05 +6.803620E-05 +5.032890E-03 +1.704654E-05 -3.294703E-05 +1.704654E-05 -1.180824E-04 
 -9.866145E-05 +4.280681E-05 -2.757307E-05 +4.280681E-05 +5.133160E-03 +1.759951E-05 -2.757307E-05 +1.759951E-05 -1.297238E-04 
 -4.912138E-05 +2.377212E-05 -2.183798E-05 +2.377212E-05 +5.043949E-03 +9.167844E-05 -2.183798E-05 +9.167844E-05 -1.790948E-04 
 +7.956826E-05 -1.141494E-05 -2.925419E-05 -1.141494E-05 +4.918802E-03 +1.328069E-04 -2.925419E-05 +1.328069E-04 -2.144628E-04 
 +1.282619E-04 +4.447664E-05 +1.136947E-05 +4.447664E-05 +4.753445E-03 +1.352433E-04 +1.136947E-05 +1.352433E-04 -9.479450E-05 
 +9.965895E-05 +9.557982E-05 -2.370374E-05 +9.557982E-05 +4.661270E-03 +1.606707E-04 -2.370374E-05 +1.606707E-04 +1.629803E-06 
 +4.933100E-05 +1.071983E-04 -4.631234E-05 +1.071983E-04 +4.690375E-03 +1.940155E-04 -4.631234E-05 +1.940155E-04 +5.899329E-06 
 +9.657447E-06 +9.386133E-05 -3.840408E-05 +9.386133E-05 +4.747865E-03 +2.344396E-04 -3.840408E-05 +2.344396E-04 +2.148934E-05 
 -5.453660E-05 +1.161890E-04 +9.015263E-05 +1.161890E-04 +4.998735E-03 +2.099548E-04 +9.015263E-05 +2.099548E-04 +9.860911E-05 
 -3.347093E-04 +5.169015E-05 +3.587157E-06 +5.169015E-05 +5.101209E-03 +1.896384E-04 +3.587157E-06 +1.896384E-04 +2.644061E-04 
 -1.299852E-04 -9.468792E-06 +8.417048E-05 -9.468792E-06 +4.865132E-03 +2.567416E-04 +8.417048E-05 +2.567416E-04 +3.694556E-04 
 -1.732314E-04 -7.844521E-06 +6.667191E-05 -7.844521E-06 +4.781316E-03 +2.000666E-04 +6.667191E-05 +2.000666E-04 +3.417060E-04 
 -2.544682E-04 -1.493743E-05 +1.942297E-05 -1.493743E-05 +4.808416E-03 +9.325424E-05 +1.942297E-05 +9.325424E-05 +3.314102E-04 
 -1.672665E-04 -2.033738E-05 +1.064210E-06 -2.033738E-05 +4.818788E-03 +4.185983E-05 +1.064210E-06 +4.185983E-05 +2.725798E-04 
 -3.040790E-05 +9.108538E-05 +2.976118E-05 +9.108538E-05 +4.940644E-03 -9.044194E-05 +2.976118E-05 -9.044194E-05 -7.359892E-05 
 +6.489431E-05 +9.967336E-05 +5.079884E-05 +9.967336E-05 +5.023101E-03 -8.716800E-05 +5.079884E-05 -8.716800E-05 -3.137628E-04 
 +8.025645E-05 +1.658722E-04 +1.626109E-05 +1.658722E-04 +5.017823E-03 -4.068338E-05 +1.626109E-05 -4.068338E-05 -1.354280E-04 
 -8.192429E-05 +2.518069E-05 -1.388016E-04 +2.518069E-05 +4.932194E-03 +3.692631E-05 -1.388016E-04 +3.692631E-05 +8.565475E-05 
 -2.146877E-05 +6.401992E-05 -2.328594E-04 +6.401992E-05 +4.726421E-03 +7.264365E-05 -2.328594E-04 +7.264365E-05 +1.571249E-04 
 +3.056875E-04 +8.947102E-05 -8.706077E-05 +8.947102E-05 +4.561443E-03 +5.646953E-05 -8.706077E-05 +5.646953E-05 +1.191720E-04 
 +3.114166E-04 +2.744711E-05 -1.585841E-04 +2.744711E-05 +4.506246E-03 +7.168297E-05 -1.585841E-04 +7.168297E-05 +8.855096E-05 
 +2.217270E-04 +5.670059E-05 -5.406339E-05 +5.670059E-05 +4.601882E-03 +3.719311E-05 -5.406339E-05 +3.719311E-05 -1.573563E-05 
 +5.521486E-06 +1.205510E-04 +6.502493E-05 +1.205510E-04 +4.889964E-03 -2.093724E-05 +6.502493E-05 -2.093724E-05 -1.076897E-04 
 -7.178701E-05 +7.915447E-06 +1.938955E-05 +7.915447E-06 +4.900728E-03 +1.875561E-05 +1.938955E-05 +1.875561E-05 -6.946714E-05 
 +5.250747E-05 +2.341036E-05 -6.449426E-05 +2.341036E-05 +4.671787E-03 +7.398617E-05 -6.449426E-05 +7.398617E-05 -1.594861E-06 
 +3.762236E-05 +2.972109E-05 -3.173238E-05 +2.972109E-05 +4.640826E-03 +9.212076E-05 -3.173238E-05 +9.212076E-05 +4.110704E-05 
 +8.325267E-06 +9.759368E-05 -2.591223E-05 +9.759368E-05 +4.656969E-03 +8.352453E-05 -2.591223E-05 +8.352453E-05 +6.605266E-05 
 -3.055210E-05 +1.169174E-04 -3.207581E-05 +1.169174E-04 +4.703492E-03 +8.103909E-05 -3.207581E-05 +8.103909E-05 +7.663115E-05 
 -5.317200E-05 +4.485834E-05 +2.436044E-05 +4.485834E-05 +4.801112E-03 +9.642512E-05 +2.436044E-05 +9.642512E-05 +4.910018E-05 
 -9.194906E-05 +7.827900E-05 +6.938101E-05 +7.827900E-05 +4.902337E-03 +1.289096E-04 +6.938101E-05 +1.289096E-04 +1.303462E-04 
 -2.967493E-04 -3.448911E-05 +4.162343E-05 -3.448911E-05 +4.924061E-03 +1.464137E-04 +4.162343E-05 +1.464137E-04 +4.126536E-04 
 -1.712996E-04 +1.779362E-05 +1.772077E-04 +1.779362E-05 +4.825768E-03 +1.149263E-04 +1.772077E-04 +1.149263E-04 +4.817598E-04 
 -8.474351E-05 +4.982241E-05 +9.448244E-05 +4.982241E-05 +4.756590E-03 +8.026424E-05 +9.448244E-05 +8.026424E-05 +3.463106E-04 
 -1.308931E-04 -5.762877E-05 -3.486609E-05 -5.762877E-05 +4.816743E-03 +9.171369E-05 -3.486609E-05 +9.171369E-05 +3.679119E-04 
 -9.818109E-05 -9.772378E-05 -5.515598E-05 -9.772378E-05 +4.898165E-03 +3.878410E-05 -5.515598E-05 +3.878410E-05 +2.674781E-04 
 +4.474227E-05 +1.990965E-05 -1.265416E-05 +1.990965E-05 +4.978558E-03 -6.673642E-05 -1.265416E-05 -6.673642E-05 -1.346788E-04 
 +1.340764E-04 +3.338123E-05 +5.609736E-05 +3.338123E-05 +4.979304E-03 -6.896620E-05 +5.609736E-05 -6.896620E-05 -2.946668E-04 
 +7.553287E-05 +5.831835E-05 +6.040301E-05 +5.831835E-05 +4.962786E-03 -1.271906E-05 +6.040301E-05 -1.271906E-05 -1.206168E-04 
 -1.550617E-04 -8.086535E-05 -1.225321E-04 -8.086535E-05 +4.888716E-03 +4.130314E-05 -1.225321E-04 +4.130314E-05 +6.521771E-05 
 -5.866240E-05 +7.778767E-06 -2.106446E-04 +7.778767E-06 +4.729527E-03 +6.935433E-05 -2.106446E-04 +6.935433E-05 +1.570301E-04 
 +2.961713E-04 +8.317904E-05 -4.481618E-05 +8.317904E-05 +4.556079E-03 +5.787029E-05 -4.481618E-05 +5.787029E-05 +1.503156E-04 
 +3.077849E-04 +1.164390E-04 -1.263283E-04 +1.164390E-04 +4.481334E-03 +2.691281E-05 -1.263283E-04 +2.691281E-05 +1.307309E-04 
 +3.019568E-04 +1.558381E-04 -9.229062E-05 +1.558381E-04 +4.463685E-03 +2.022710E-05 -9.229062E-05 +2.022710E-05 +9.828866E-05 
 +2.290750E-04 +1.461380E-04 +8.330770E-06 +1.461380E-04 +4.410594E-03 +4.915151E-05 +8.330770E-06 +4.915151E-05 +1.020848E-04 
 +1.596868E-04 -2.729324E-05 -1.959743E-05 -2.729324E-05 +4.442325E-03 +9.808499E-05 -1.959743E-05 +9.808499E-05 +2.056509E-04 
 -7.611399E-05 +1.390534E-04 -7.068017E-05 +1.390534E-04 +4.557549E-03 +1.279026E-04 -7.068017E-05 +1.279026E-04 +2.340621E-04 
 -1.808177E-04 +1.185446E-04 -7.112855E-06 +1.185446E-04 +4.644107E-03 +1.309492E-04 -7.112855E-06 +1.309492E-04 +1.760321E-04 
 -2.465053E-04 +4.072613E-05 +1.052708E-05 +4.072613E-05 +4.673329E-03 +1.156661E-04 +1.052708E-05 +1.156661E-04 +1.617992E-04 
 -1.379588E-04 +2.518821E-05 -3.420469E-06 +2.518821E-05 +4.690620E-03 +5.632508E-05 -3.420469E-06 +5.632508E-05 +1.339075E-04 
 -7.460415E-05 +6.470802E-05 +4.537153E-05 +6.470802E-05 +4.805902E-03 +4.199669E-05 +4.537153E-05 +4.199669E-05 +6.782857E-05 
 -1.329217E-04 +1.183924E-04 +3.259414E-05 +1.183924E-04 +4.837400E-03 +5.900072E-05 +3.259414E-05 +5.900072E-05 +1.086275E-04 
 -1.195834E-04 -8.847123E-05 -1.240876E-05 -8.847123E-05 +4.780845E-03 +8.011045E-05 -1.240876E-05 +8.011045E-05 +3.118088E-04 
 -1.243765E-04 -3.355844E-05 +1.241934E-04 -3.355844E-05 +4.887135E-03 +6.606527E-05 +1.241934E-04 +6.606527E-05 +3.467693E-04 
 -8.810240E-05 +7.038535E-05 +1.046976E-04 +7.038535E-05 +4.995935E-03 +1.265155E-05 +1.046976E-04 +1.265155E-05 +2.357113E-04 
 -1.045159E-04 -4.507694E-05 +5.599672E-05 -4.507694E-05 +4.915737E-03 +6.676896E-05 +5.599672E-05 +6.676896E-05 +3.153406E-04 
 -7.041897E-05 -5.850655E-05 -2.560932E-05 -5.850655E-05 +4.904577E-03 +7.396841E-05 -2.560932E-05 +7.396841E-05 +2.496801E-04 
 +6.531559E-05 +4.073014E-05 -1.108700E-05 +4.073014E-05 +4.978088E-03 -3.932139E-05 -1.108700E-05 -3.932139E-05 -1.404914E-04 
 +7.926733E-05 +2.633287E-05 +1.326374E-05 +2.633287E-05 +4.982838E-03 -9.000441E-05 +1.326374E-05 -9.000441E-05 -2.826549E-04 
 +7.537376E-05 +1.465061E-05 +9.557589E-06 +1.465061E-05 +4.912575E-03 -7.139387E-05 +9.557589E-06 -7.139387E-05 -1.571546E-04 
 -9.721803E-05 -1.545465E-04 -1.258055E-04 -1.545465E-04 +4.808929E-03 -1.904368E-05 -1.258055E-04 -1.904368E-05 +3.529923E-06 
 -3.828651E-05 -7.773616E-05 -1.953181E-04 -7.773616E-05 +4.690458E-03 +3.777407E-05 -1.953181E-04 +3.777407E-05 +7.389644E-05 
 +2.974793E-04 +3.755982E-05 -2.788470E-05 +3.755982E-05 +4.558248E-03 +2.721677E-05 -2.788470E-05 +2.721677E-05 +6.416487E-05 
 +3.335266E-04 +1.197687E-04 -6.745392E-05 +1.197687E-04 +4.478416E-03 +3.401332E-06 -6.745392E-05 +3.401332E-06 +7.115999E-05 
 +3.126723E-04 +1.844459E-04 -4.266421E-05 +1.844459E-04 +4.492791E-03 +2.608449E-05 -4.266421E-05 +2.608449E-05 +1.113867E-04 
 +3.748413E-04 +1.505860E-04 -5.469930E-05 +1.505860E-04 +4.448458E-03 +8.610237E-05 -5.469930E-05 +8.610237E-05 +2.265525E-04 
 +2.676046E-04 -1.847100E-06 -8.215528E-05 -1.847100E-06 +4.585439E-03 +1.428350E-04 -8.215528E-05 +1.428350E-04 +3.379140E-04 
 -2.659217E-04 -3.658227E-05 -6.414079E-05 -3.658227E-05 +5.001080E-03 +1.209412E-04 -6.414079E-05 +1.209412E-04 +2.983235E-04 
 -3.495716E-04 -1.048371E-04 +6.058661E-05 -1.048371E-04 +5.222753E-03 +8.585068E-05 +6.058661E-05 +8.585068E-05 +2.273634E-04 
 -4.877459E-04 -1.220472E-04 +1.150462E-04 -1.220472E-04 +5.140946E-03 +9.845896E-05 +1.150462E-04 +9.845896E-05 +2.402814E-04 
 -2.006822E-04 -4.333568E-05 +5.981351E-05 -4.333568E-05 +4.879628E-03 +5.282116E-05 +5.981351E-05 +5.282116E-05 +2.066230E-04 
 -1.876619E-04 +2.615771E-05 +4.665816E-05 +2.615771E-05 +4.761729E-03 +5.060702E-05 +4.665816E-05 +5.060702E-05 +1.386773E-04 
 -4.687176E-05 -1.012979E-04 -3.167424E-05 -1.012979E-04 +4.780713E-03 +9.606744E-05 -3.167424E-05 +9.606744E-05 +1.147182E-04 
 -4.542910E-05 -1.546414E-04 -4.743389E-05 -1.546414E-04 +4.793134E-03 +1.003816E-04 -4.743389E-05 +1.003816E-04 +1.914676E-04 
 -1.591672E-05 -7.213538E-05 +6.799810E-06 -7.213538E-05 +4.796709E-03 +9.709315E-05 +6.799810E-06 +9.709315E-05 +2.665905E-04 
 -3.096899E-06 -3.794918E-05 +1.855045E-05 -3.794918E-05 +4.722458E-03 +8.291769E-05 +1.855045E-05 +8.291769E-05 +2.644044E-04 
 -4.556337E-05 -6.483650E-05 +7.817902E-05 -6.483650E-05 +4.791360E-03 +6.272883E-05 +7.817902E-05 +6.272883E-05 +3.164421E-04 
 -2.712213E-05 +9.071450E-06 +4.275629E-05 +9.071450E-06 +4.921036E-03 +5.368291E-06 +4.275629E-05 +5.368291E-06 +1.988572E-04 
 +7.025334E-05 +8.145041E-05 -7.139328E-06 +8.145041E-05 +4.971984E-03 -6.534294E-05 -7.139328E-06 -6.534294E-05 -1.487462E-04 
 +6.173514E-05 +8.999726E-05 -4.270075E-05 +8.999726E-05 +4.985205E-03 -1.355265E-04 -4.270075E-05 -1.355265E-04 -3.069757E-04 
 +5.293460E-05 +6.913086E-05 -6.122413E-05 +6.913086E-05 +4.859443E-03 -1.968065E-04 -6.122413E-05 -1.968065E-04 -2.791214E-04 
 -8.676016E-05 -1.210740E-04 -1.434062E-04 -1.210740E-04 +4.719056E-03 -1.319736E-04 -1.434062E-04 -1.319736E-04 -1.527239E-04 
 -8.379575E-08 -3.860054E-05 -1.894546E-04 -3.860054E-05 +4.678330E-03 -1.519429E-05 -1.894546E-04 -1.519429E-05 -9.152628E-05 
 +2.441916E-04 +1.608576E-06 -7.152019E-05 +1.608576E-06 +4.662910E-03 -2.630472E-06 -7.152019E-05 -2.630472E-06 -7.323524E-05 
 +3.214004E-04 +9.195441E-05 -4.892534E-05 +9.195441E-05 +4.617145E-03 -1.138549E-05 -4.892534E-05 -1.138549E-05 -2.555924E-05 
 +4.277354E-04 +2.012158E-04 -5.093304E-05 +2.012158E-04 +4.605851E-03 +8.481659E-06 -5.093304E-05 +8.481659E-06 +7.504875E-05 
 +3.832517E-04 +1.446185E-04 -7.510084E-05 +1.446185E-04 +4.759909E-03 +1.618572E-05 -7.510084E-05 +1.618572E-05 +2.083179E-04 
 -1.001932E-04 -5.549451E-06 -6.642316E-05 -5.549451E-06 +5.065338E-03 +1.689099E-05 -6.642316E-05 +1.689099E-05 +2.351205E-04 
 -2.986906E-04 -1.060609E-04 -5.197980E-05 -1.060609E-04 +5.174370E-03 +3.262269E-05 -5.197980E-05 +3.262269E-05 +2.155258E-04 
 -3.397952E-04 -1.175771E-04 +3.505467E-05 -1.175771E-04 +5.167360E-03 +2.421426E-05 +3.505467E-05 +2.421426E-05 +2.217076E-04 
 -4.310571E-04 -1.124288E-04 +9.357614E-05 -1.124288E-04 +5.196596E-03 +4.941187E-05 +9.357614E-05 +4.941187E-05 +2.451138E-04 
 -3.503557E-04 -5.054571E-05 +8.018124E-05 -5.054571E-05 +5.230103E-03 +9.409154E-05 +8.018124E-05 +9.409154E-05 +2.445082E-04 
 -4.276794E-04 -5.694825E-06 +6.054073E-05 -5.694825E-06 +5.047176E-03 +1.253714E-04 +6.054073E-05 +1.253714E-04 +2.571722E-04 
 -4.651161E-06 -1.067706E-04 -1.064516E-04 -1.067706E-04 +4.760036E-03 +1.233504E-04 -1.064516E-04 +1.233504E-04 +2.294370E-04 
 +1.426262E-04 -1.245551E-04 -1.168553E-04 -1.245551E-04 +4.743431E-03 +7.373803E-05 -1.168553E-04 +7.373803E-05 +1.816411E-04 
 +7.308520E-05 -8.401009E-05 -8.019646E-05 -8.401009E-05 +4.766663E-03 +4.739365E-05 -8.019646E-05 +4.739365E-05 +2.189266E-04 
 +8.759742E-05 -2.953137E-05 -7.131645E-05 -2.953137E-05 +4.734679E-03 +3.532014E-05 -7.131645E-05 +3.532014E-05 +2.573361E-04 
 +7.918771E-05 +1.753013E-05 -1.671363E-05 +1.753013E-05 +4.773718E-03 +3.307143E-05 -1.671363E-05 +3.307143E-05 +2.481821E-04 
 +8.653740E-05 +6.745672E-05 +4.929968E-05 +6.745672E-05 +4.866314E-03 -4.152835E-06 +4.929968E-05 -4.152835E-06 +6.810332E-05 
 +7.887753E-05 +1.807806E-04 +8.778837E-06 +1.807806E-04 +4.976421E-03 -7.395347E-05 +8.778837E-06 -7.395347E-05 -1.764264E-04 
 +1.232627E-04 +1.856035E-04 -4.482576E-05 +1.856035E-04 +4.981930E-03 -1.885448E-04 -4.482576E-05 -1.885448E-04 -2.228137E-04 
 +1.144864E-05 +1.354322E-04 -9.090090E-05 +1.354322E-04 +4.949939E-03 -2.054470E-04 -9.090090E-05 -2.054470E-04 -1.586526E-04 
 -1.726231E-04 -7.569294E-05 -1.212164E-04 -7.569294E-05 +4.875202E-03 -1.014625E-04 -1.212164E-04 -1.014625E-04 -7.255217E-05 
 -6.871652E-05 +8.231271E-06 -1.875392E-04 +8.231271E-06 +4.864873E-03 -3.690124E-05 -1.875392E-04 -3.690124E-05 -1.171878E-04 
 +1.964039E-04 +1.796454E-05 -1.377208E-04 +1.796454E-05 +4.925282E-03 -6.985310E-05 -1.377208E-04 -6.985310E-05 -1.471316E-04 
 +3.002845E-04 +1.110889E-04 -1.010895E-04 +1.110889E-04 +4.909664E-03 -1.183745E-04 -1.010895E-04 -1.183745E-04 -1.404400E-04 
 +3.699886E-04 +1.660962E-04 -4.661929E-05 +1.660962E-04 +4.918760E-03 -7.315029E-05 -4.661929E-05 -7.315029E-05 -3.113403E-05 
 +1.688023E-04 +7.863923E-05 -1.479519E-04 +7.863923E-05 +5.106824E-03 +2.252596E-05 -1.479519E-04 +2.252596E-05 +1.439019E-04 
 -1.642706E-04 +2.701348E-05 -1.437834E-04 +2.701348E-05 +5.220214E-03 -8.658443E-06 -1.437834E-04 -8.658443E-06 +1.403989E-04 
 -2.935859E-04 -2.763800E-05 -3.829132E-05 -2.763800E-05 +5.187075E-03 -4.244962E-07 -3.829132E-05 -4.244962E-07 +1.157747E-04 
 -2.833422E-04 -8.332836E-05 -5.145370E-05 -8.332836E-05 +5.139124E-03 +3.157589E-05 -5.145370E-05 +3.157589E-05 +1.700367E-04 
 -3.358506E-04 -1.009757E-04 -3.264595E-05 -1.009757E-04 +5.176739E-03 +5.898126E-05 -3.264595E-05 +5.898126E-05 +1.998542E-04 
 -4.356359E-04 -2.454532E-05 +1.671552E-05 -2.454532E-05 +5.191813E-03 +1.736860E-04 +1.671552E-05 +1.736860E-04 +2.685601E-04 
 -3.689084E-04 +8.988002E-05 +4.176836E-05 +8.988002E-05 +5.115645E-03 +2.064571E-04 +4.176836E-05 +2.064571E-04 +3.538954E-04 
 -1.480052E-04 +1.057070E-04 -1.696342E-04 +1.057070E-04 +5.011020E-03 +1.069981E-04 -1.696342E-04 +1.069981E-04 +2.238211E-04 
 +1.740901E-04 +3.555797E-05 -1.951014E-04 +3.555797E-05 +4.853667E-03 +4.206393E-05 -1.951014E-04 +4.206393E-05 +7.414654E-05 
 +1.667487E-04 -3.320592E-05 -1.381060E-04 -3.320592E-05 +4.783414E-03 +1.292778E-05 -1.381060E-04 +1.292778E-05 +1.139394E-04 
 +1.326909E-04 -5.450177E-06 -9.576402E-05 -5.450177E-06 +4.778861E-03 +1.583786E-05 -9.576402E-05 +1.583786E-05 +1.014322E-04 
 +1.776468E-04 +5.508925E-05 -6.626589E-05 +5.508925E-05 +4.763924E-03 +6.851403E-05 -6.626589E-05 +6.851403E-05 +7.005454E-05 
 +2.258724E-04 +1.293540E-04 -1.846416E-05 +1.293540E-04 +4.829189E-03 +4.370095E-05 -1.846416E-05 +4.370095E-05 -3.322270E-05 
 +2.236766E-04 +2.798154E-04 -5.215850E-05 +2.798154E-04 +4.933762E-03 -8.572997E-05 -5.215850E-05 -8.572997E-05 -1.556388E-04 
 +1.114612E-04 +4.664874E-05 -1.526114E-05 +4.664874E-05 +4.786851E-03 -2.610622E-04 -1.526114E-05 -2.610622E-04 -4.797012E-05 
 +6.838189E-06 -3.925046E-05 -8.404037E-05 -3.925046E-05 +4.757416E-03 -2.748764E-04 -8.404037E-05 -2.748764E-04 +1.270407E-04 
 -3.097279E-04 -1.446358E-04 -1.017833E-04 -1.446358E-04 +4.918449E-03 -1.512705E-04 -1.017833E-04 -1.512705E-04 +2.091725E-04 
 -1.962830E-04 -1.149581E-04 -1.129558E-04 -1.149581E-04 +5.039495E-03 +2.095646E-05 -1.129558E-04 +2.095646E-05 +2.409007E-05 
 +1.922904E-04 -1.081291E-04 -7.185039E-05 -1.081291E-04 +4.946819E-03 +1.054766E-04 -7.185039E-05 +1.054766E-04 -1.170293E-04 
 +1.678663E-04 -4.597898E-05 -3.940248E-05 -4.597898E-05 +4.996313E-03 +6.121255E-05 -3.940248E-05 +6.121255E-05 -1.598228E-04 
 +2.365460E-05 -4.292599E-05 +8.494036E-05 -4.292599E-05 +5.160655E-03 +2.767374E-05 +8.494036E-05 +2.767374E-05 -1.318279E-04 
 +9.587745E-05 -9.614393E-05 -2.384216E-04 -9.614393E-05 +5.142972E-03 +7.929954E-05 -2.384216E-04 +7.929954E-05 +2.504376E-05 
 +1.631812E-04 -7.503443E-05 -3.037832E-04 -7.503443E-05 +5.086602E-03 +9.363359E-05 -3.037832E-04 +9.363359E-05 +9.862682E-05 
 -2.040611E-04 -2.959551E-05 -1.024829E-04 -2.959551E-05 +5.145074E-03 +3.365845E-05 -1.024829E-04 +3.365845E-05 +1.028865E-04 
 -3.088651E-04 -4.127516E-05 -7.012933E-05 -4.127516E-05 +5.162347E-03 +5.129675E-05 -7.012933E-05 +5.129675E-05 +1.538069E-04 
 -2.953338E-04 -2.805263E-05 -9.947273E-05 -2.805263E-05 +5.122299E-03 +1.134738E-04 -9.947273E-05 +1.134738E-04 +1.775258E-04 
 -3.617839E-04 -1.046620E-06 -2.834538E-05 -1.046620E-06 +5.101703E-03 +1.746358E-04 -2.834538E-05 +1.746358E-04 +3.413607E-04 
 -2.952082E-04 +2.402671E-05 -1.068140E-05 +2.402671E-05 +5.092237E-03 +2.053495E-04 -1.068140E-05 +2.053495E-04 +3.689959E-04 
 -5.470158E-05 +9.828091E-05 -2.206749E-04 +9.828091E-05 +5.129329E-03 +6.177578E-05 -2.206749E-04 +6.177578E-05 +4.124674E-05 
 +4.133712E-05 +1.292672E-04 -2.007462E-04 +1.292672E-04 +5.125453E-03 -7.602358E-05 -2.007462E-04 -7.602358E-05 -8.000055E-05 
 +1.578905E-04 +8.982375E-05 -1.709651E-04 +8.982375E-05 +5.039375E-03 -1.141344E-04 -1.709651E-04 -1.141344E-04 -3.806783E-05 
 +2.343537E-04 +1.766382E-04 -5.351237E-05 +1.766382E-04 +5.094517E-03 -1.111765E-04 -5.351237E-05 -1.111765E-04 -1.716062E-04 
 +2.428153E-04 +2.171536E-04 -5.043363E-05 +2.171536E-04 +5.173712E-03 -7.124529E-05 -5.043363E-05 -7.124529E-05 -2.199191E-04 
 +2.561358E-04 +2.494716E-04 -5.710394E-05 +2.494716E-04 +5.109838E-03 -7.082057E-05 -5.710394E-05 -7.082057E-05 -1.877868E-04 
 +3.323312E-04 +2.313197E-04 -1.039347E-04 +2.313197E-04 +4.939265E-03 -1.495390E-04 -1.039347E-04 -1.495390E-04 -1.308380E-04 
 +1.385558E-05 -7.099867E-05 -4.731185E-06 -7.099867E-05 +4.798321E-03 -1.953386E-04 -4.731185E-06 -1.953386E-04 -9.497453E-06 
 -3.145414E-05 -1.071180E-04 -5.447851E-05 -1.071180E-04 +4.792134E-03 -2.331720E-04 -5.447851E-05 -2.331720E-04 +1.895356E-04 
 -4.195484E-04 -1.725761E-04 -9.169772E-05 -1.725761E-04 +4.892941E-03 -9.317994E-05 -9.169772E-05 -9.317994E-05 +3.159296E-04 
 -5.434271E-05 -1.148412E-04 -3.222067E-05 -1.148412E-04 +4.957765E-03 +9.146896E-05 -3.222067E-05 +9.146896E-05 +1.412693E-04 
 -4.611328E-05 -8.410391E-05 -4.331387E-05 -8.410391E-05 +5.036818E-03 +1.329257E-04 -4.331387E-05 +1.329257E-04 -1.536400E-05 
 -1.188548E-04 -6.126039E-05 +2.351526E-05 -6.126039E-05 +5.162257E-03 +4.853797E-05 +2.351526E-05 +4.853797E-05 -8.933041E-05 
 -1.302137E-04 -2.563340E-05 +1.623583E-04 -2.563340E-05 +5.204338E-03 -4.273899E-06 +1.623583E-04 -4.273899E-06 -1.341560E-04 
 +1.598809E-04 -7.136303E-05 -2.557901E-04 -7.136303E-05 +5.108625E-03 +3.652977E-05 -2.557901E-04 +3.652977E-05 +5.941962E-06 
 +2.516255E-04 -1.403356E-04 -3.343711E-04 -1.403356E-04 +4.986427E-03 +1.271735E-04 -3.343711E-04 +1.271735E-04 +1.248640E-04 
 +1.128222E-04 -1.380428E-04 -2.192671E-04 -1.380428E-04 +4.973949E-03 +1.368444E-04 -2.192671E-04 +1.368444E-04 +1.423984E-04 
 -1.762583E-04 -5.984811E-05 -1.005722E-04 -5.984811E-05 +5.066493E-03 +6.512436E-05 -1.005722E-04 +6.512436E-05 +1.597061E-04 
 -3.185447E-04 -1.960613E-05 -6.429774E-05 -1.960613E-05 +5.091769E-03 +9.509493E-05 -6.429774E-05 +9.509493E-05 +2.229135E-04 
 -3.331916E-04 -1.975416E-05 -3.716870E-05 -1.975416E-05 +5.077887E-03 +1.636099E-04 -3.716870E-05 +1.636099E-04 +3.664537E-04 
 -2.398879E-04 +6.505015E-05 -7.922028E-05 +6.505015E-05 +5.093164E-03 +9.124388E-05 -7.922028E-05 +9.124388E-05 +2.075740E-04 
 +1.088295E-04 +1.313577E-04 -2.360001E-04 +1.313577E-04 +5.097321E-03 -1.729296E-05 -2.360001E-04 -1.729296E-05 -1.106411E-04 
 +5.606670E-05 +1.045892E-04 -1.810246E-04 +1.045892E-04 +5.154375E-03 -7.518942E-05 -1.810246E-04 -7.518942E-05 -1.305850E-04 
 +1.036893E-04 +1.267110E-04 -2.175411E-04 +1.267110E-04 +5.237414E-03 -1.305827E-04 -2.175411E-04 -1.305827E-04 -2.120943E-04 
 +3.093368E-04 +1.855612E-04 -9.238257E-07 +1.855612E-04 +5.186259E-03 -1.437900E-04 -9.238257E-07 -1.437900E-04 -3.847488E-04 
 +3.150021E-04 +1.843794E-04 +4.607496E-07 +1.843794E-04 +5.127818E-03 -1.288550E-04 +4.607496E-07 -1.288550E-04 -3.212291E-04 
 +2.066012E-04 +1.924458E-04 +1.758493E-05 +1.924458E-04 +5.111873E-03 -1.051455E-04 +1.758493E-05 -1.051455E-04 -1.588816E-04 
 +2.306430E-04 +7.853104E-05 -5.696774E-05 +7.853104E-05 +4.971656E-03 -9.872134E-05 -5.696774E-05 -9.872134E-05 -7.001461E-05 
 +9.213955E-06 -9.513098E-05 -1.078440E-05 -9.513098E-05 +4.830487E-03 -1.925796E-04 -1.078440E-05 -1.925796E-04 -1.386355E-05 
 -1.910637E-04 -5.120433E-05 -7.356564E-06 -5.120433E-05 +4.909146E-03 -1.503215E-04 -7.356564E-06 -1.503215E-04 +1.441012E-04 
 -4.039127E-04 -1.287947E-04 +1.374380E-05 -1.287947E-04 +4.922851E-03 +5.634187E-06 +1.374380E-05 +5.634187E-06 +2.388346E-04 
 -5.644624E-05 -1.711631E-04 -2.548192E-05 -1.711631E-04 +4.974424E-03 +7.241034E-05 -2.548192E-05 +7.241034E-05 +1.411448E-04 
 -2.369295E-04 -1.709239E-04 -1.080648E-04 -1.709239E-04 +5.169029E-03 +3.233189E-05 -1.080648E-04 +3.233189E-05 +8.429037E-05 
 -3.363461E-04 -5.013651E-05 -3.193125E-05 -5.013651E-05 +5.212495E-03 -4.419647E-06 -3.193125E-05 -4.419647E-06 -9.305774E-06 
 -8.722206E-05 -7.705048E-06 +1.728123E-04 -7.705048E-06 +5.121009E-03 +5.684212E-06 +1.728123E-04 +5.684212E-06 -1.062382E-04 
 +1.697594E-04 -1.110233E-04 -2.192908E-04 -1.110233E-04 +5.056841E-03 +6.644996E-05 -2.192908E-04 +6.644996E-05 +3.851790E-05 
 +1.929917E-04 -1.294120E-04 -2.852728E-04 -1.294120E-04 +4.963584E-03 +8.320746E-05 -2.852728E-04 +8.320746E-05 +1.700040E-04 
 +2.131827E-04 -1.505417E-04 -2.261909E-04 -1.505417E-04 +4.888690E-03 +1.138890E-04 -2.261909E-04 +1.138890E-04 +1.769866E-04 
 +1.400048E-04 -1.633288E-04 -1.823555E-04 -1.633288E-04 +4.906098E-03 +1.084169E-04 -1.823555E-04 +1.084169E-04 +1.614474E-04 
 -2.521661E-04 -8.371439E-05 -1.785562E-05 -8.371439E-05 +5.005626E-03 +7.553721E-05 -1.785562E-05 +7.553721E-05 +2.569746E-04 
 -2.641137E-04 +2.754675E-05 -6.571455E-05 +2.754675E-05 +5.062041E-03 +6.142303E-05 -6.571455E-05 +6.142303E-05 +2.313011E-04 
 -6.073126E-05 +1.361479E-04 -1.850146E-04 +1.361479E-04 +5.090196E-03 -1.870247E-05 -1.850146E-04 -1.870247E-05 -4.202008E-05 
 +7.654031E-05 +1.813532E-04 -1.920205E-04 +1.813532E-04 +5.110711E-03 -3.898653E-05 -1.920205E-04 -3.898653E-05 -1.663111E-04 
 +1.260956E-04 +1.695514E-04 -1.778047E-04 +1.695514E-04 +5.135343E-03 -2.093357E-05 -1.778047E-04 -2.093357E-05 -1.146814E-04 
 +1.169461E-04 +1.504324E-04 -2.185778E-04 +1.504324E-04 +5.163031E-03 -4.893472E-05 -2.185778E-04 -4.893472E-05 -2.241772E-04 
 +3.184079E-04 +1.788079E-04 +8.821621E-05 +1.788079E-04 +5.117436E-03 -5.862685E-05 +8.821621E-05 -5.862685E-05 -3.355482E-04 
 +2.856323E-04 +1.646790E-04 +4.972152E-05 +1.646790E-04 +5.002150E-03 -7.708881E-05 +4.972152E-05 -7.708881E-05 -1.840348E-04 
 +1.245694E-04 +5.990957E-05 +4.782307E-05 +5.990957E-05 +4.862994E-03 -1.382855E-04 +4.782307E-05 -1.382855E-04 +8.728761E-06 
 +1.155319E-04 -5.480531E-05 -5.447990E-06 -5.480531E-05 +4.791740E-03 -1.759280E-04 -5.447990E-06 -1.759280E-04 +1.375487E-05 
 -2.097303E-05 -8.785468E-05 +1.604780E-06 -8.785468E-05 +4.926159E-03 -1.310207E-04 +1.604780E-06 -1.310207E-04 -1.716617E-05 
 -2.480611E-04 -5.210752E-05 +7.582773E-05 -5.210752E-05 +5.071768E-03 -3.165569E-05 +7.582773E-05 -3.165569E-05 +1.187590E-04 
 -3.773704E-04 -1.396042E-04 +1.258379E-04 -1.396042E-04 +5.149436E-03 +1.526680E-05 +1.258379E-04 +1.526680E-05 +2.101902E-04 
 -3.421546E-04 -1.587140E-04 +7.193963E-05 -1.587140E-04 +5.148748E-03 +1.028600E-05 +7.193963E-05 +1.028600E-05 +1.355379E-04 
 -2.180097E-04 -1.007749E-04 -5.903192E-05 -1.007749E-04 +5.095050E-03 +6.166618E-05 -5.903192E-05 +6.166618E-05 +1.288679E-04 
 -4.094027E-04 -4.274254E-05 -2.108919E-04 -4.274254E-05 +5.141798E-03 +3.315408E-05 -2.108919E-04 +3.315408E-05 +3.235451E-05 
 -8.365129E-05 -2.337472E-05 +5.999216E-05 -2.337472E-05 +5.120510E-03 -3.430427E-06 +5.999216E-05 -3.430427E-06 -1.005055E-04 
 +1.815281E-04 -1.056233E-04 -2.167319E-04 -1.056233E-04 +5.009335E-03 +4.612808E-05 -2.167319E-04 +4.612808E-05 +5.000027E-05 
 +2.108967E-04 -1.271297E-04 -2.636704E-04 -1.271297E-04 +4.963822E-03 +4.236268E-05 -2.636704E-04 +4.236268E-05 +1.704413E-04 
 +1.529886E-04 -1.044832E-04 -1.468956E-04 -1.044832E-04 +4.913098E-03 +6.586066E-06 -1.468956E-04 +6.586066E-06 +1.669530E-04 
 +2.235421E-04 -1.409314E-04 -1.837396E-04 -1.409314E-04 +4.861466E-03 +1.633063E-05 -1.837396E-04 +1.633063E-05 +2.013866E-04 
 +3.713620E-05 -1.016917E-04 -6.795668E-05 -1.016917E-04 +4.884647E-03 -3.508297E-05 -6.795668E-05 -3.508297E-05 +1.953661E-04 
 -5.007179E-05 +6.526706E-05 -6.710329E-06 +6.526706E-05 +5.007366E-03 -1.115600E-04 -6.710329E-06 -1.115600E-04 -4.810559E-05 
 +6.141796E-05 +1.745824E-04 -9.135490E-05 +1.745824E-04 +5.084823E-03 -9.839624E-05 -9.135490E-05 -9.839624E-05 -2.191669E-04 
 +8.587369E-05 +2.169282E-04 +5.517916E-06 +2.169282E-04 +5.117149E-03 -2.279217E-06 +5.517916E-06 -2.279217E-06 -2.286489E-04 
 +8.815052E-05 +2.074938E-04 -1.527282E-04 +2.074938E-04 +5.156792E-03 +4.060032E-05 -1.527282E-04 +4.060032E-05 -2.048298E-04 
 +1.773359E-04 +1.335723E-04 -1.442182E-04 +1.335723E-04 +5.134042E-03 +4.951064E-05 -1.442182E-04 +4.951064E-05 -2.305735E-04 
 +3.019559E-04 +7.443811E-05 +7.283413E-05 +7.443811E-05 +5.003248E-03 +2.879128E-05 +7.283413E-05 +2.879128E-05 -2.617532E-04 
 +1.217760E-04 +3.583479E-05 +1.088601E-05 +3.583479E-05 +4.846674E-03 -7.468608E-05 +1.088601E-05 -7.468608E-05 -1.076746E-04 
 +4.562353E-05 -1.431314E-05 +5.492828E-05 -1.431314E-05 +4.795484E-03 -1.016913E-04 +5.492828E-05 -1.016913E-04 +4.467751E-05 
 +6.144908E-05 -6.300669E-05 +2.065255E-06 -6.300669E-05 +4.814160E-03 -1.189051E-04 +2.065255E-06 -1.189051E-04 +2.460145E-05 
 -3.118098E-04 -5.290665E-05 +6.610284E-05 -5.290665E-05 +5.131354E-03 -2.123373E-05 +6.610284E-05 -2.123373E-05 +1.018382E-04 
 -3.825312E-04 -5.797006E-05 +8.809058E-05 -5.797006E-05 +5.112835E-03 -1.353043E-05 +8.809058E-05 -1.353043E-05 +2.855556E-04 
 -4.048160E-04 -1.099335E-04 +1.210422E-04 -1.099335E-04 +5.131129E-03 +1.903254E-05 +1.210422E-04 +1.903254E-05 +2.203238E-04 
 -4.276742E-04 -9.913758E-05 +1.559480E-04 -9.913758E-05 +5.202401E-03 +7.757427E-05 +1.559480E-04 +7.757427E-05 +1.386462E-04 
 -3.851055E-04 -5.894798E-05 +1.195094E-04 -5.894798E-05 +5.285743E-03 +1.658310E-05 +1.195094E-04 +1.658310E-05 +1.116962E-04 
 -3.104094E-04 -2.948310E-05 -2.697302E-04 -2.948310E-05 +5.239596E-03 -1.901197E-05 -2.697302E-04 -1.901197E-05 +3.029920E-05 
 -8.790604E-05 -3.692697E-05 +2.095937E-04 -3.692697E-05 +5.070145E-03 -1.385627E-05 +2.095937E-04 -1.385627E-05 +5.307692E-05 
 +7.320687E-05 -4.836224E-05 +1.303768E-04 -4.836224E-05 +4.949242E-03 -6.317712E-05 +1.303768E-04 -6.317712E-05 +7.641723E-05 
 +1.741334E-04 -1.817371E-05 -2.715333E-05 -1.817371E-05 +4.900767E-03 -7.231830E-05 -2.715333E-05 -7.231830E-05 +1.433407E-04 
 +2.273042E-04 -1.465513E-05 -1.873076E-04 -1.465513E-05 +4.893725E-03 -9.296490E-05 -1.873076E-04 -9.296490E-05 +2.456035E-04 
 +1.862150E-04 +8.352027E-06 -1.059245E-04 +8.352027E-06 +4.897625E-03 -1.134956E-04 -1.059245E-04 -1.134956E-04 +1.519365E-04 
 +2.285755E-04 +9.696345E-05 -2.642393E-04 +9.696345E-05 +4.882311E-03 -1.195785E-04 -2.642393E-04 -1.195785E-04 +3.800340E-05 
 +3.263750E-04 +6.645152E-05 -1.427477E-04 +6.645152E-05 +4.900233E-03 -1.222197E-04 -1.427477E-04 -1.222197E-04 -1.026307E-04 
 +2.230803E-04 +8.839804E-05 -1.741083E-04 +8.839804E-05 +4.962867E-03 -8.873522E-05 -1.741083E-04 -8.873522E-05 -1.647467E-04 
 +1.480151E-04 +1.222127E-04 -7.798294E-05 +1.222127E-04 +5.053098E-03 +1.129205E-05 -7.798294E-05 +1.129205E-05 -2.504335E-04 
 +8.242113E-05 +1.145107E-04 -2.308679E-04 +1.145107E-04 +5.152766E-03 +9.462359E-05 -2.308679E-04 +9.462359E-05 -3.000835E-04 
 +1.114961E-04 -1.242869E-05 -1.961156E-04 -1.242869E-05 +5.150175E-03 +1.226229E-04 -1.961156E-04 +1.226229E-04 -2.121286E-04 
 +1.811722E-04 -7.001259E-05 -1.344277E-04 -7.001259E-05 +5.103596E-03 +1.171077E-04 -1.344277E-04 +1.171077E-04 -1.944929E-04 
 +1.726723E-04 -1.147441E-04 -1.978190E-04 -1.147441E-04 +5.139959E-03 +7.695393E-05 -1.978190E-04 +7.695393E-05 -1.750708E-04 
 +1.208713E-04 -1.514189E-04 -1.179527E-04 -1.514189E-04 +5.187267E-03 +5.524391E-05 -1.179527E-04 +5.524391E-05 -1.237933E-04 
 +5.469102E-05 -1.323151E-04 -2.819110E-04 -1.323151E-04 +5.174098E-03 -3.694230E-06 -2.819110E-04 -3.694230E-06 -1.026026E-04 
 -2.955020E-04 -7.049448E-05 +1.529330E-04 -7.049448E-05 +5.143171E-03 +1.213139E-04 +1.529330E-04 +1.213139E-04 +1.435811E-04 
 -3.154928E-04 -6.497376E-05 +1.332415E-04 -6.497376E-05 +5.080561E-03 +9.028335E-05 +1.332415E-04 +9.028335E-05 +2.610695E-04 
 -3.623759E-04 -9.962796E-05 +1.312389E-04 -9.962796E-05 +5.112023E-03 +6.970393E-05 +1.312389E-04 +6.970393E-05 +2.003460E-04 
 -4.558502E-04 -1.203647E-04 +1.607874E-04 -1.203647E-04 +5.202879E-03 +5.618242E-05 +1.607874E-04 +5.618242E-05 +1.276452E-04 
 -5.112646E-04 -4.891898E-05 +9.046046E-05 -4.891898E-05 +5.271733E-03 -1.919514E-05 +9.046046E-05 -1.919514E-05 +1.757633E-04 
 -3.875876E-04 +1.447612E-05 -1.864663E-04 +1.447612E-05 +5.216278E-03 +1.808056E-05 -1.864663E-04 +1.808056E-05 +1.196223E-04 
 -5.671174E-05 -2.114776E-05 -4.299164E-05 -2.114776E-05 +5.028815E-03 +6.561982E-05 -4.299164E-05 +6.561982E-05 +3.166091E-05 
 +2.151047E-04 -9.017194E-05 +8.255063E-06 -9.017194E-05 +4.819399E-03 +3.337336E-05 +8.255063E-06 +3.337336E-05 +5.562412E-05 
 +2.238337E-04 -5.551471E-05 -1.743027E-05 -5.551471E-05 +4.762671E-03 +2.437471E-05 -1.743027E-05 +2.437471E-05 +1.020111E-04 
 +2.084070E-04 -1.599179E-05 -2.345925E-04 -1.599179E-05 +4.851671E-03 -7.617866E-05 -2.345925E-04 -7.617866E-05 +2.112277E-04 
 +2.027108E-04 -2.944330E-05 -1.227629E-04 -2.944330E-05 +4.965050E-03 -1.607030E-04 -1.227629E-04 -1.607030E-04 +1.567808E-04 
 +2.084894E-04 -2.732119E-06 -1.886042E-04 -2.732119E-06 +5.011130E-03 -9.253598E-05 -1.886042E-04 -9.253598E-05 -8.749640E-05 
 +3.195735E-04 -5.485296E-05 +5.957122E-05 -5.485296E-05 +5.006803E-03 -3.748584E-05 +5.957122E-05 -3.748584E-05 -2.759821E-04 
 +2.423726E-04 -1.184541E-04 +6.359837E-05 -1.184541E-04 +5.006093E-03 -7.054577E-05 +6.359837E-05 -7.054577E-05 -3.196090E-04 
 +2.161314E-04 -7.443780E-05 +2.199412E-04 -7.443780E-05 +4.997522E-03 -2.587691E-05 +2.199412E-04 -2.587691E-05 -3.140421E-04 
 +1.030212E-04 +2.645994E-05 -1.407503E-04 +2.645994E-05 +5.079236E-03 +3.632842E-05 -1.407503E-04 +3.632842E-05 -2.835806E-04 
 +6.894951E-05 -1.264333E-04 -2.016539E-04 -1.264333E-04 +5.121648E-03 +6.940682E-05 -2.016539E-04 +6.940682E-05 -2.168877E-04 
 +1.261285E-04 -9.947012E-05 -1.967851E-04 -9.947012E-05 +5.084511E-03 +9.830897E-05 -1.967851E-04 +9.830897E-05 -1.583536E-04 
 +1.053863E-04 -9.271885E-05 -2.638498E-04 -9.271885E-05 +5.125872E-03 +1.353488E-04 -2.638498E-04 +1.353488E-04 -1.515048E-04 
 +8.226519E-05 -1.407757E-04 -2.008482E-04 -1.407757E-04 +5.200782E-03 +1.352759E-04 -2.008482E-04 +1.352759E-04 -1.228442E-04 
 +6.243545E-05 -1.417754E-04 -3.497760E-04 -1.417754E-04 +5.218026E-03 +1.143818E-04 -3.497760E-04 +1.143818E-04 -1.952383E-05 
 -2.951653E-04 -7.505028E-05 +1.640918E-04 -7.505028E-05 +5.129079E-03 +1.833256E-04 +1.640918E-04 +1.833256E-04 +1.279049E-04 
 -2.984008E-04 -3.115923E-05 +1.507809E-04 -3.115923E-05 +5.118903E-03 +1.084978E-04 +1.507809E-04 +1.084978E-04 +1.740280E-04 
 -3.989646E-04 -8.290690E-05 +1.368773E-04 -8.290690E-05 +5.176968E-03 +5.314692E-05 +1.368773E-04 +5.314692E-05 +1.373454E-04 
 -5.087976E-04 -1.066371E-04 +1.315988E-04 -1.066371E-04 +5.227365E-03 -2.502294E-05 +1.315988E-04 -2.502294E-05 +8.686211E-05 
 -4.906352E-04 -7.641815E-05 +9.252695E-05 -7.641815E-05 +5.202440E-03 -1.668020E-05 +9.252695E-05 -1.668020E-05 +1.840591E-04 
 -2.779929E-04 -1.315101E-05 -1.616148E-04 -1.315101E-05 +5.147714E-03 +1.327847E-05 -1.616148E-04 +1.327847E-05 +1.569631E-04 
 +1.664448E-05 +3.331788E-05 -2.052544E-04 +3.331788E-05 +5.093198E-03 -4.023297E-05 -2.052544E-04 -4.023297E-05 -7.953196E-05 
 +1.688979E-04 -2.861514E-06 -1.406100E-04 -2.861514E-06 +5.009321E-03 -8.442877E-05 -1.406100E-04 -8.442877E-05 -8.628814E-05 
 +2.297350E-04 +5.891266E-05 -1.068233E-04 +5.891266E-05 +4.939126E-03 -1.151719E-04 -1.068233E-04 -1.151719E-04 -3.199872E-05 
 +1.509385E-04 +7.338112E-05 -2.454994E-04 +7.338112E-05 +4.935313E-03 -1.181756E-04 -2.454994E-04 -1.181756E-04 +3.598531E-05 
 +9.562677E-05 +3.560648E-05 -7.478305E-05 +3.560648E-05 +5.016635E-03 -1.473975E-04 -7.478305E-05 -1.473975E-04 +1.545322E-05 
 +1.516004E-04 -4.375768E-05 +3.903129E-05 -4.375768E-05 +5.116762E-03 -1.148236E-04 +3.903129E-05 -1.148236E-04 -1.736998E-04 
 +2.360642E-04 -1.162128E-04 +9.925178E-05 -1.162128E-04 +5.138484E-03 -5.795584E-05 +9.925178E-05 -5.795584E-05 -2.869275E-04 
 +1.935424E-04 -2.012311E-04 +1.680355E-04 -2.012311E-04 +5.068763E-03 -5.814153E-05 +1.680355E-04 -5.814153E-05 -3.662686E-04 
 +2.283987E-04 -2.304660E-04 +3.048807E-04 -2.304660E-04 +4.915890E-03 -7.095854E-05 +3.048807E-04 -7.095854E-05 -2.568470E-04 
 +2.728743E-04 -7.095730E-05 -4.081371E-05 -7.095730E-05 +4.811872E-03 -6.375443E-05 -4.081371E-05 -6.375443E-05 -9.942449E-05 
 +9.727693E-05 -2.020920E-04 -2.342499E-04 -2.020920E-04 +4.901302E-03 +1.064440E-05 -2.342499E-04 +1.064440E-05 -1.065688E-04 
 +7.510185E-05 -1.959621E-04 -3.572861E-04 -1.959621E-04 +5.017923E-03 +8.574103E-05 -3.572861E-04 +8.574103E-05 -1.059922E-04 
 +9.165908E-05 -1.356419E-04 -3.077813E-04 -1.356419E-04 +5.099709E-03 +1.495437E-04 -3.077813E-04 +1.495437E-04 -9.531222E-05 
 +1.517831E-04 -1.102908E-04 -2.192935E-04 -1.102908E-04 +5.218257E-03 +1.933163E-04 -2.192935E-04 +1.933163E-04 -4.750365E-05 
 +1.098216E-04 -1.469328E-04 -3.709319E-04 -1.469328E-04 +5.215713E-03 +2.147388E-04 -3.709319E-04 +2.147388E-04 +3.865851E-05 
 -3.022845E-04 -7.191097E-05 +1.626057E-04 -7.191097E-05 +5.116306E-03 +1.840052E-04 +1.626057E-04 +1.840052E-04 +1.678942E-04 
 -3.255159E-04 -1.210381E-06 +1.493893E-04 -1.210381E-06 +5.139876E-03 +5.585791E-05 +1.493893E-04 +5.585791E-05 +2.047572E-04 
 -4.405766E-04 -2.180658E-05 +1.824525E-04 -2.180658E-05 +5.192256E-03 -1.731233E-05 +1.824525E-04 -1.731233E-05 +1.545447E-04 
 -4.979945E-04 -4.320843E-05 +1.247363E-04 -4.320843E-05 +5.217910E-03 -6.559822E-05 +1.247363E-04 -6.559822E-05 +9.404934E-05 
 -4.791854E-04 -3.888917E-05 +1.609662E-04 -3.888917E-05 +5.167357E-03 -1.197594E-04 +1.609662E-04 -1.197594E-04 +1.934662E-04 
 -1.353321E-04 +2.354819E-05 -9.180262E-05 +2.354819E-05 +5.086073E-03 -8.731102E-05 -9.180262E-05 -8.731102E-05 +1.423238E-04 
 +1.147467E-04 +5.184379E-06 -2.209017E-04 +5.184379E-06 +5.087223E-03 -7.243432E-05 -2.209017E-04 -7.243432E-05 -9.072500E-05 
 +1.297795E-04 -6.193122E-05 -2.361230E-04 -6.193122E-05 +5.117736E-03 -1.121779E-04 -2.361230E-04 -1.121779E-04 -1.590941E-04 
 +1.534958E-04 -1.876370E-06 -1.970423E-04 -1.876370E-06 +5.066100E-03 -1.324116E-04 -1.970423E-04 -1.324116E-04 -1.767286E-04 
 +9.553587E-05 +7.807711E-05 -8.226515E-05 +7.807711E-05 +5.022813E-03 -9.993570E-05 -8.226515E-05 -9.993570E-05 -1.321690E-04 
 +5.280428E-05 +1.263120E-04 +2.515652E-05 +1.263120E-04 +5.002970E-03 -7.442819E-05 +2.515652E-05 -7.442819E-05 -1.570653E-04 
 +1.061408E-04 +9.692240E-05 +1.797360E-04 +9.692240E-05 +4.881952E-03 -8.847659E-05 +1.797360E-04 -8.847659E-05 -1.445964E-04 
 +1.774884E-04 +6.894392E-05 +9.295289E-05 +6.894392E-05 +4.792036E-03 -1.091936E-05 +9.295289E-05 -1.091936E-05 -7.233085E-05 
 +1.062881E-04 -2.315028E-05 +1.701663E-04 -2.315028E-05 +4.849708E-03 -3.145675E-07 +1.701663E-04 -3.145675E-07 -1.550845E-04 
 +1.445846E-04 -1.312994E-04 +2.315804E-04 -1.312994E-04 +4.868138E-03 -9.114052E-05 +2.315804E-04 -9.114052E-05 -1.213991E-04 
 +3.043317E-04 -2.419636E-05 +2.177308E-05 -2.419636E-05 +4.775539E-03 -1.016703E-04 +2.177308E-05 -1.016703E-04 -4.032166E-05 
 +8.323798E-05 -1.425495E-04 -1.411871E-04 -1.425495E-04 +4.832042E-03 -1.580960E-05 -1.411871E-04 -1.580960E-05 +3.232600E-05 
 +3.121400E-05 -2.309504E-04 -5.125618E-04 -2.309504E-04 +4.968006E-03 +2.939422E-05 -5.125618E-04 +2.939422E-05 -3.514365E-05 
 +1.753091E-04 -1.616097E-04 -3.115510E-04 -1.616097E-04 +4.920268E-03 +4.887210E-05 -3.115510E-04 +4.887210E-05 -6.438781E-05 
 +3.138208E-04 -7.817822E-05 -1.394663E-04 -7.817822E-05 +4.859181E-03 +9.597964E-05 -1.394663E-04 +9.597964E-05 +5.405969E-05 
 +1.920002E-04 -1.015385E-04 -2.726145E-04 -1.015385E-04 +4.998957E-03 +1.821562E-04 -2.726145E-04 +1.821562E-04 +1.056161E-04 
 -2.960039E-04 -8.602078E-05 +1.357191E-04 -8.602078E-05 +5.009855E-03 +1.044771E-04 +1.357191E-04 +1.044771E-04 +1.219364E-04 
 -2.513944E-04 +2.780862E-05 +9.364752E-05 +2.780862E-05 +5.138130E-03 -6.689471E-06 +9.364752E-05 -6.689471E-06 +1.089618E-04 
 -3.472359E-04 +9.025041E-05 +1.470592E-04 +9.025041E-05 +5.158003E-03 -1.117788E-04 +1.470592E-04 -1.117788E-04 +9.864515E-05 
 -4.359036E-04 +1.225527E-04 +1.276136E-04 +1.225527E-04 +5.157012E-03 -1.703144E-04 +1.276136E-04 -1.703144E-04 +1.587365E-04 
 -4.602110E-04 +1.034185E-04 +1.626028E-04 +1.034185E-04 +5.152073E-03 -1.578244E-04 +1.626028E-04 -1.578244E-04 +2.542285E-04 
 -2.505331E-04 +6.004094E-05 +7.042140E-05 +6.004094E-05 +5.117928E-03 -8.358426E-05 +7.042140E-05 -8.358426E-05 +1.877724E-04 
 +1.354206E-04 +6.509686E-06 -3.036650E-04 +6.509686E-06 +5.090996E-03 -4.213191E-05 -3.036650E-04 -4.213191E-05 +6.898133E-06 
 +1.519967E-04 -6.688857E-05 -2.897293E-04 -6.688857E-05 +5.111635E-03 -5.628826E-05 -2.897293E-04 -5.628826E-05 -1.688659E-04 
 +1.164068E-04 -1.031967E-05 -2.656267E-04 -1.031967E-05 +5.113727E-03 -6.647422E-05 -2.656267E-04 -6.647422E-05 -2.898183E-04 
 +9.215767E-05 +1.195129E-04 -8.542169E-06 +1.195129E-04 +5.061459E-03 -1.005463E-04 -8.542169E-06 -1.005463E-04 -2.160246E-04 
 +1.055861E-04 +1.296538E-04 +4.408762E-06 +1.296538E-04 +4.965052E-03 -9.970250E-05 +4.408762E-06 -9.970250E-05 -1.737187E-04 
 +1.069881E-04 +7.374960E-05 +1.598033E-04 +7.374960E-05 +4.905504E-03 -1.317367E-04 +1.598033E-04 -1.317367E-04 -8.794247E-05 
 +6.593080E-05 +5.358290E-05 +2.100142E-04 +5.358290E-05 +4.878387E-03 -1.065144E-04 +2.100142E-04 -1.065144E-04 +6.129538E-05 
 +6.656428E-05 +1.489856E-05 +1.848641E-04 +1.489856E-05 +4.856906E-03 -3.138056E-05 +1.848641E-04 -3.138056E-05 -3.124504E-05 
 +1.167278E-04 -4.752585E-05 +1.626226E-04 -4.752585E-05 +4.925303E-03 -4.897651E-05 +1.626226E-04 -4.897651E-05 -4.442892E-05 
 +1.241872E-04 +4.485329E-07 +1.087350E-04 +4.485329E-07 +4.929567E-03 -5.076380E-05 +1.087350E-04 -5.076380E-05 +2.616426E-05 
 +5.424696E-05 -6.734057E-08 +5.843764E-05 -6.734057E-08 +4.862591E-03 -5.419261E-05 +5.843764E-05 -5.419261E-05 +1.991676E-04 
 +5.111846E-05 -1.259188E-04 -4.341037E-04 -1.259188E-04 +4.784499E-03 -5.498445E-05 -4.341037E-04 -5.498445E-05 +1.142461E-04 
 +2.650893E-04 -8.540465E-05 -2.234967E-04 -8.540465E-05 +4.686254E-03 +2.858824E-05 -2.234967E-04 +2.858824E-05 +2.491001E-05 
 +3.131673E-04 -4.122638E-05 -6.176107E-05 -4.122638E-05 +4.662704E-03 +5.659068E-05 -6.176107E-05 +5.659068E-05 +1.631359E-04 
 +2.756131E-04 -4.562084E-05 -7.981829E-05 -4.562084E-05 +4.778607E-03 +1.088942E-04 -7.981829E-05 +1.088942E-04 +1.806873E-04 
 -1.128471E-04 -9.132842E-05 +1.326845E-05 -9.132842E-05 +5.010520E-03 +1.495920E-04 +1.326845E-05 +1.495920E-04 -8.347239E-05 
 -6.028986E-05 -1.310050E-05 +2.487293E-05 -1.310050E-05 +5.135506E-03 +1.166606E-04 +2.487293E-05 +1.166606E-04 -1.941803E-04 
 -7.655461E-05 +8.990605E-05 +1.262179E-05 +8.990605E-05 +5.122512E-03 -2.804009E-05 +1.262179E-05 -2.804009E-05 -6.927760E-05 
 -4.147535E-04 +1.252168E-04 +1.259895E-04 +1.252168E-04 +5.107833E-03 -1.598018E-04 +1.259895E-04 -1.598018E-04 +2.426514E-04 
 -4.619661E-04 +9.377116E-05 +1.207608E-04 +9.377116E-05 +5.144449E-03 -1.281121E-04 +1.207608E-04 -1.281121E-04 +3.294450E-04 
 -4.216427E-04 +6.574240E-05 +1.161001E-04 +6.574240E-05 +5.156165E-03 -7.934346E-05 +1.161001E-04 -7.934346E-05 +2.289683E-04 
 +1.251438E-04 +6.273670E-05 -3.827142E-04 +6.273670E-05 +5.084379E-03 -5.585311E-05 -3.827142E-04 -5.585311E-05 +7.817354E-05 
 +1.795966E-04 +1.158950E-05 -3.287595E-04 +1.158950E-05 +5.063203E-03 -6.182903E-06 -3.287595E-04 -6.182903E-06 -1.467481E-04 
 +1.372493E-04 +3.775799E-05 -3.156345E-04 +3.775799E-05 +5.087633E-03 +1.134627E-06 -3.156345E-04 +1.134627E-06 -3.247751E-04 
 +1.021615E-04 +1.479015E-04 -4.243672E-05 +1.479015E-04 +5.070354E-03 -5.311473E-05 -4.243672E-05 -5.311473E-05 -2.324737E-04 
 +9.849329E-05 +1.380261E-04 -6.260114E-05 +1.380261E-04 +5.037308E-03 -6.439175E-05 -6.260114E-05 -6.439175E-05 -1.153560E-04 
 +7.633938E-05 +8.279224E-05 +5.377772E-05 +8.279224E-05 +5.001740E-03 -9.059407E-05 +5.377772E-05 -9.059407E-05 -8.631059E-05 
 -4.529627E-05 +7.006966E-05 +2.145133E-04 +7.006966E-05 +4.971562E-03 -1.117252E-04 +2.145133E-04 -1.117252E-04 +4.551445E-05 
 +5.692018E-05 +4.533409E-05 +1.422784E-04 +4.533409E-05 +4.948531E-03 -7.112125E-05 +1.422784E-04 -7.112125E-05 +1.879389E-05 
 +4.011834E-05 -3.202765E-05 +9.271134E-05 -3.202765E-05 +4.969539E-03 -2.536873E-05 +9.271134E-05 -2.536873E-05 +4.654955E-05 
 +4.519392E-05 -7.233941E-05 +1.173529E-04 -7.233941E-05 +4.962797E-03 +3.751563E-05 +1.173529E-04 +3.751563E-05 +8.784126E-05 
 +8.686675E-05 -1.072308E-05 +1.028352E-04 -1.072308E-05 +4.799430E-03 +5.911494E-05 +1.028352E-04 +5.911494E-05 +1.370375E-04 
 +1.551000E-04 -6.488836E-05 -1.657732E-04 -6.488836E-05 +4.698887E-03 +9.272577E-05 -1.657732E-04 +9.272577E-05 +7.227547E-05 
 +1.652086E-04 -5.843743E-05 -7.852241E-05 -5.843743E-05 +4.724883E-03 +1.143454E-04 -7.852241E-05 +1.143454E-04 -3.552475E-05 
 +1.921232E-04 -8.066034E-05 -4.758199E-05 -8.066034E-05 +4.693323E-03 +1.865617E-05 -4.758199E-05 +1.865617E-05 +4.586462E-05 
 +1.328097E-04 -3.037391E-05 +3.616797E-05 -3.037391E-05 +4.774824E-03 +6.350442E-05 +3.616797E-05 +6.350442E-05 +7.921437E-05 
 +1.382332E-04 -8.946478E-05 -1.564820E-04 -8.946478E-05 +5.094738E-03 +1.070814E-04 -1.564820E-04 +1.070814E-04 -2.743710E-04 
 +1.395010E-04 -9.649597E-05 -4.235575E-05 -9.649597E-05 +5.117029E-03 +9.880151E-05 -4.235575E-05 +9.880151E-05 -3.996702E-04 
 +1.430459E-04 -8.482341E-05 -6.482365E-05 -8.482341E-05 +5.146138E-03 +5.166305E-05 -6.482365E-05 +5.166305E-05 -2.508169E-04 
 -3.294225E-04 -4.579780E-05 +1.026127E-04 -4.579780E-05 +5.140702E-03 -4.779986E-05 +1.026127E-04 -4.779986E-05 +1.451769E-04 
 -4.593909E-04 +1.568608E-06 +1.667814E-04 +1.568608E-06 +5.101522E-03 -6.705944E-05 +1.667814E-04 -6.705944E-05 +3.900097E-04 
 -3.081970E-04 +4.061001E-05 +6.539132E-06 +4.061001E-05 +5.081905E-03 -6.593172E-05 +6.539132E-06 -6.593172E-05 +3.136771E-04 
 +8.652533E-05 +9.674041E-05 -3.758955E-04 +9.674041E-05 +5.061178E-03 -6.303517E-05 -3.758955E-04 -6.303517E-05 +1.200516E-04 
 +1.692980E-04 +8.605279E-05 -3.410992E-04 +8.605279E-05 +5.046411E-03 +4.581219E-05 -3.410992E-04 +4.581219E-05 -9.989972E-05 
 +1.631683E-04 +8.529578E-05 -3.166012E-04 +8.529578E-05 +5.068731E-03 +8.112080E-05 -3.166012E-04 +8.112080E-05 -2.922943E-04 
 +1.089413E-04 +1.772237E-04 -8.114884E-05 +1.772237E-04 +5.069207E-03 -2.738244E-06 -8.114884E-05 -2.738244E-06 -2.300340E-04 
 +5.275724E-05 +1.692535E-04 -1.113558E-04 +1.692535E-04 +5.073380E-03 -8.300284E-05 -1.113558E-04 -8.300284E-05 -1.358446E-04 
 -3.880222E-07 +9.694663E-05 -3.370089E-05 +9.694663E-05 +5.103352E-03 -8.730678E-05 -3.370089E-05 -8.730678E-05 -1.385484E-04 
 -1.348172E-04 +4.309791E-05 +1.159780E-04 +4.309791E-05 +5.099088E-03 -7.854371E-05 +1.159780E-04 -7.854371E-05 +4.467407E-05 
 -4.887715E-05 -5.678233E-06 +8.679724E-05 -5.678233E-06 +5.086236E-03 -5.491159E-05 +8.679724E-05 -5.491159E-05 +1.417449E-04 
 -2.279010E-05 -3.808237E-05 +6.393395E-05 -3.808237E-05 +5.092230E-03 +9.647535E-06 +6.393395E-05 +9.647535E-06 +3.730845E-05 
 +9.596388E-05 -4.498647E-05 +4.114119E-05 -4.498647E-05 +5.107103E-03 +3.279596E-05 +4.114119E-05 +3.279596E-05 -1.342137E-04 
 +1.048047E-04 -7.773900E-05 +8.140137E-05 -7.773900E-05 +5.073661E-03 +1.008544E-05 +8.140137E-05 +1.008544E-05 -1.504471E-04 
 +2.224121E-04 -9.812432E-05 +6.345872E-05 -9.812432E-05 +5.008349E-03 +1.246347E-05 +6.345872E-05 +1.246347E-05 -1.262465E-04 
 -3.282290E-05 -7.123851E-05 +4.538215E-05 -7.123851E-05 +5.079811E-03 -2.084209E-05 +4.538215E-05 -2.084209E-05 -2.130766E-04 
 -2.086973E-05 -1.736760E-04 -8.220882E-06 -1.736760E-04 +5.196042E-03 -8.886747E-05 -8.220882E-06 -8.886747E-05 -1.611459E-04 
 -6.710792E-05 -9.482816E-05 +1.115601E-04 -9.482816E-05 +5.159127E-03 -1.236213E-05 +1.115601E-04 -1.236213E-05 -8.817156E-05 
 +1.909874E-04 -9.498149E-06 -1.999411E-04 -9.498149E-06 +5.034026E-03 -1.211185E-05 -1.999411E-04 -1.211185E-05 -2.683595E-04 
 +2.297468E-04 -1.213154E-04 -8.041062E-05 -1.213154E-04 +5.031702E-03 +4.915559E-05 -8.041062E-05 +4.915559E-05 -3.235202E-04 
 +1.875994E-04 -1.580040E-04 -3.460914E-05 -1.580040E-04 +5.086710E-03 +6.412296E-05 -3.460914E-05 +6.412296E-05 -3.132142E-04 
 -2.766501E-05 -1.469748E-04 -6.285109E-07 -1.469748E-04 +5.127790E-03 +5.035669E-05 -6.285109E-07 +5.035669E-05 -1.553666E-04 
 -3.500748E-04 -2.900818E-05 +1.841197E-04 -2.900818E-05 +5.070780E-03 +7.864825E-06 +1.841197E-04 +7.864825E-06 +2.298520E-04 
 -1.065106E-04 +6.897931E-05 -1.865668E-04 +6.897931E-05 +5.032262E-03 -4.741358E-05 -1.865668E-04 -4.741358E-05 +2.919176E-04 
 +6.820882E-05 +7.802708E-05 -3.017718E-04 +7.802708E-05 +5.052087E-03 -6.570243E-05 -3.017718E-04 -6.570243E-05 +6.262201E-05 
 +1.441176E-04 +9.288100E-05 -3.087822E-04 +9.288100E-05 +5.051488E-03 +2.662915E-05 -3.087822E-04 +2.662915E-05 -1.103772E-04 
 +1.950540E-04 +1.077561E-04 -2.586993E-04 +1.077561E-04 +5.044039E-03 +5.018118E-05 -2.586993E-04 +5.018118E-05 -1.978830E-04 
 +7.877729E-05 +1.867945E-04 -1.139769E-04 +1.867945E-04 +5.077024E-03 -1.414374E-05 -1.139769E-04 -1.414374E-05 -1.486087E-04 
 -1.809490E-05 +1.634230E-04 -1.187100E-04 +1.634230E-04 +5.122305E-03 -1.466502E-05 -1.187100E-04 -1.466502E-05 -1.768966E-04 
 -4.135756E-05 +1.061190E-04 -9.232356E-05 +1.061190E-04 +5.138814E-03 +1.176554E-05 -9.232356E-05 +1.176554E-05 -1.012573E-04 
 -2.381576E-04 +7.603121E-05 +6.175366E-06 +7.603121E-05 +5.146933E-03 -1.393980E-05 +6.175366E-06 -1.393980E-05 +1.588892E-04 
 -1.884243E-04 +5.379599E-05 +3.699609E-05 +5.379599E-05 +5.161024E-03 -3.994562E-05 +3.699609E-05 -3.994562E-05 +1.597391E-04 
 +7.993968E-05 +6.314312E-05 +6.063947E-05 +6.314312E-05 +5.187566E-03 -2.965232E-05 +6.063947E-05 -2.965232E-05 -1.929977E-04 
 +1.119312E-04 +5.083643E-05 +3.790328E-05 +5.083643E-05 +5.190794E-03 +3.006884E-05 +3.790328E-05 +3.006884E-05 -3.770335E-04 
 +1.658386E-04 +6.580122E-06 +6.960724E-05 +6.580122E-06 +5.152423E-03 +6.438796E-06 +6.960724E-05 +6.438796E-06 -2.246560E-04 
 -1.070453E-05 -3.685678E-05 +1.885556E-04 -3.685678E-05 +5.173767E-03 -5.802988E-05 +1.885556E-04 -5.802988E-05 -1.581580E-04 
 -1.625686E-04 -7.704201E-05 +9.389959E-05 -7.704201E-05 +5.212676E-03 -7.811181E-05 +9.389959E-05 -7.811181E-05 -2.120669E-04 
 -2.597070E-04 -1.547653E-04 +4.009866E-05 -1.547653E-04 +5.205060E-03 -2.961462E-05 +4.009866E-05 -2.961462E-05 -2.094875E-04 
 -4.891637E-05 -6.733758E-05 +9.421414E-06 -6.733758E-05 +5.119266E-03 -3.257060E-05 +9.421414E-06 -3.257060E-05 -1.698129E-04 
 +1.900732E-04 +5.587509E-05 -8.454745E-05 +5.587509E-05 +4.798930E-03 +7.653036E-05 -8.454745E-05 +7.653036E-05 +1.053793E-06 
 +2.117610E-04 +2.879982E-06 -2.361902E-05 +2.879982E-06 +4.765857E-03 +1.520058E-04 -2.361902E-05 +1.520058E-04 +6.255485E-06 
 +1.728301E-04 +1.661999E-05 +2.679261E-05 +1.661999E-05 +4.852924E-03 +1.523887E-04 +2.679261E-05 +1.523887E-04 -5.383631E-05 
 +1.262884E-04 -1.160605E-04 -3.401721E-05 -1.160605E-04 +5.037789E-03 +1.454711E-04 -3.401721E-05 +1.454711E-04 -2.251761E-04 
 -9.300109E-05 -1.725914E-04 +8.917634E-05 -1.725914E-04 +5.108527E-03 +3.455852E-05 +8.917634E-05 +3.455852E-05 -8.316657E-05 
 -3.405109E-05 -4.184434E-05 -2.425492E-04 -4.184434E-05 +5.079837E-03 -3.216389E-05 -2.425492E-04 -3.216389E-05 +1.052893E-04 
 +8.298086E-05 -4.782890E-05 -2.243243E-04 -4.782890E-05 +5.072401E-03 +2.032712E-05 -2.243243E-04 +2.032712E-05 -2.660720E-05 
 +1.478746E-04 -3.120106E-05 -2.322335E-04 -3.120106E-05 +5.064364E-03 +6.841010E-05 -2.322335E-04 +6.841010E-05 -1.715492E-04 
 +1.917867E-04 -2.286824E-05 -1.909677E-04 -2.286824E-05 +5.049912E-03 +8.475064E-05 -1.909677E-04 +8.475064E-05 -1.519085E-04 
 +7.968149E-05 +8.400852E-05 -1.350921E-04 +8.400852E-05 +5.034662E-03 +2.825082E-05 -1.350921E-04 +2.825082E-05 -8.933436E-06 
 +6.242436E-06 +1.709513E-04 -8.067718E-05 +1.709513E-04 +5.088621E-03 +9.156740E-06 -8.067718E-05 +9.156740E-06 -1.961021E-05 
 -9.906893E-05 +8.631903E-05 -4.691300E-05 +8.631903E-05 +5.134749E-03 +5.594257E-05 -4.691300E-05 +5.594257E-05 +3.095964E-05 
 -2.837027E-04 +6.521798E-05 -4.798514E-05 +6.521798E-05 +5.153233E-03 +1.153502E-04 -4.798514E-05 +1.153502E-04 +1.739842E-04 
 -2.419339E-04 +6.741661E-05 -6.706594E-05 +6.741661E-05 +5.150974E-03 +8.164119E-05 -6.706594E-05 +8.164119E-05 +9.243371E-05 
 +1.929569E-04 +1.477248E-04 +4.795204E-05 +1.477248E-04 +5.192258E-03 -1.421294E-05 +4.795204E-05 -1.421294E-05 -1.630215E-04 
 +1.781404E-04 +7.401343E-05 +6.989177E-05 +7.401343E-05 +5.206248E-03 -7.420671E-05 +6.989177E-05 -7.420671E-05 -1.795690E-04 
 +1.021627E-04 -6.346768E-06 +8.429250E-05 -6.346768E-06 +5.136892E-03 -9.571843E-05 +8.429250E-05 -9.571843E-05 -4.774742E-05 
 -3.121438E-04 -1.081878E-05 +2.294292E-04 -1.081878E-05 +5.184127E-03 -1.136993E-04 +2.294292E-04 -1.136993E-04 -5.853316E-05 
 -2.940240E-04 -5.149824E-05 +1.108470E-04 -5.149824E-05 +5.219230E-03 -1.021491E-04 +1.108470E-04 -1.021491E-04 -1.040395E-04 
 -3.541326E-04 -1.212901E-04 +7.248367E-05 -1.212901E-04 +5.160106E-03 -2.662546E-05 +7.248367E-05 -2.662546E-05 -2.081258E-04 
 +2.931115E-05 -1.173465E-04 -1.214280E-04 -1.173465E-04 +4.978816E-03 +7.641191E-06 -1.214280E-04 +7.641191E-06 -1.296976E-04 
 +2.434049E-04 +4.648367E-05 -2.446684E-05 +4.648367E-05 +4.790781E-03 +6.100199E-05 -2.446684E-05 +6.100199E-05 +1.643582E-04 
 +1.911138E-04 +5.661230E-05 +3.450366E-05 +5.661230E-05 +4.768351E-03 +1.128307E-04 +3.450366E-05 +1.128307E-04 +1.681915E-04 
 +1.384767E-04 +8.469500E-05 +5.600965E-05 +8.469500E-05 +4.792353E-03 +1.593534E-04 +5.600965E-05 +1.593534E-04 +1.629694E-04 
 +1.371061E-04 +6.183007E-05 +5.218549E-05 +6.183007E-05 +4.881406E-03 +2.155482E-04 +5.218549E-05 +2.155482E-04 -9.163735E-06 
 +3.984744E-05 -9.521584E-05 -3.893366E-06 -9.521584E-05 +5.109084E-03 +1.586157E-04 -3.893366E-06 +1.586157E-04 -1.549294E-04 
 +8.276049E-06 -1.031416E-04 -1.504092E-04 -1.031416E-04 +5.176945E-03 +5.043734E-05 -1.504092E-04 +5.043734E-05 -6.721517E-05 
 +9.297289E-05 -1.022757E-04 -1.866483E-04 -1.022757E-04 +5.105000E-03 +5.419776E-05 -1.866483E-04 +5.419776E-05 -8.274817E-05 
 +1.356674E-04 -9.195266E-05 -1.723418E-04 -9.195266E-05 +5.084913E-03 +9.031077E-05 -1.723418E-04 +9.031077E-05 -1.808883E-04 
 +1.411695E-04 -1.020192E-04 -1.454803E-04 -1.020192E-04 +5.109502E-03 +1.410156E-04 -1.454803E-04 +1.410156E-04 -1.980872E-04 
 +8.840862E-05 -7.138795E-05 -1.441060E-04 -7.138795E-05 +5.051231E-03 +1.934124E-04 -1.441060E-04 +1.934124E-04 -6.457086E-05 
 +7.190861E-05 +5.316787E-05 +1.809524E-05 +5.316787E-05 +5.031639E-03 +2.759563E-04 +1.809524E-05 +2.759563E-04 +7.774696E-05 
 -1.716603E-04 -7.194757E-05 +6.025215E-05 -7.194757E-05 +5.141189E-03 +2.677693E-04 +6.025215E-05 +2.677693E-04 +7.685580E-05 
 -1.212298E-04 +9.616128E-06 -2.958851E-05 +9.616128E-06 +5.182481E-03 +1.640535E-04 -2.958851E-05 +1.640535E-04 +4.666549E-05 
 -1.375478E-04 +6.670509E-05 -9.493015E-05 +6.670509E-05 +5.082105E-03 +1.555901E-04 -9.493015E-05 +1.555901E-04 +4.900773E-05 
 +1.424614E-04 +1.622407E-04 +2.594975E-05 +1.622407E-04 +4.852854E-03 +1.719267E-04 +2.594975E-05 +1.719267E-04 +4.099452E-05 
 +2.861989E-04 +7.290010E-05 -2.738824E-05 +7.290010E-05 +4.847102E-03 +4.822891E-05 -2.738824E-05 +4.822891E-05 +1.072496E-04 
 -2.276121E-04 -5.301703E-05 +1.520589E-04 -5.301703E-05 +5.078149E-03 -6.105843E-05 +1.520589E-04 -6.105843E-05 +1.356453E-04 
 -3.503579E-04 -4.809813E-05 +1.880817E-04 -4.809813E-05 +5.176759E-03 -1.151336E-04 +1.880817E-04 -1.151336E-04 +5.093311E-05 
 -3.135484E-04 -1.394080E-05 +1.508476E-04 -1.394080E-05 +5.155198E-03 -1.326044E-04 +1.508476E-04 -1.326044E-04 +1.758142E-05 
 -2.693864E-04 +2.102838E-05 +9.289050E-05 +2.102838E-05 +5.076417E-03 -1.225128E-04 +9.289050E-05 -1.225128E-04 -6.779429E-05 
 -1.257439E-04 -7.657487E-05 +3.005518E-05 -7.657487E-05 +4.938528E-03 -5.104992E-05 +3.005518E-05 -5.104992E-05 -6.825085E-07 
 +1.052620E-04 +1.387335E-04 +4.395291E-05 +1.387335E-04 +4.835587E-03 -2.173795E-05 +4.395291E-05 -2.173795E-05 +1.220126E-04 
 +9.064446E-05 +1.484697E-04 +1.076490E-04 +1.484697E-04 +4.788430E-03 +1.505314E-04 +1.076490E-04 +1.505314E-04 +1.952150E-04 
 +1.704951E-04 +1.068846E-04 +8.942380E-05 +1.068846E-04 +4.827831E-03 +2.634428E-04 +8.942380E-05 +2.634428E-04 +1.961444E-04 
 +1.339154E-04 +1.411727E-04 +6.433428E-05 +1.411727E-04 +4.823750E-03 +2.697231E-04 +6.433428E-05 +2.697231E-04 +1.628502E-04 
 +1.263867E-04 +1.001589E-04 -5.250901E-05 +1.001589E-04 +5.029540E-03 +1.635154E-04 -5.250901E-05 +1.635154E-04 +2.246516E-05 
 +7.226274E-05 -5.061151E-05 -1.372115E-04 -5.061151E-05 +5.207283E-03 +2.365599E-05 -1.372115E-04 +2.365599E-05 -6.818805E-05 
 +2.726438E-05 -6.148166E-05 -1.134953E-04 -6.148166E-05 +5.149202E-03 +6.478633E-06 -1.134953E-04 +6.478633E-06 -1.030862E-04 
 +8.455386E-05 -6.746493E-05 -9.865269E-05 -6.746493E-05 +5.101769E-03 +9.136535E-05 -9.865269E-05 +9.136535E-05 -1.345063E-04 
 +8.545282E-05 -5.631787E-05 -1.000149E-04 -5.631787E-05 +5.090404E-03 +1.437135E-04 -1.000149E-04 +1.437135E-04 -1.634011E-04 
 +5.496751E-05 -9.095923E-05 -7.974074E-05 -9.095923E-05 +5.059374E-03 +2.175203E-04 -7.974074E-05 +2.175203E-04 -1.447898E-04 
 +8.408422E-05 +5.278873E-05 +8.926933E-05 +5.278873E-05 +4.855321E-03 +2.768114E-04 +8.926933E-05 +2.768114E-04 -1.309178E-05 
 +3.884771E-06 +1.092923E-04 +4.621079E-05 +1.092923E-04 +4.697879E-03 +2.431235E-04 +4.621079E-05 +2.431235E-04 +1.940600E-05 
 +4.506750E-05 +1.776432E-04 -1.951031E-07 +1.776432E-04 +4.719107E-03 +1.776418E-04 -1.951031E-07 +1.776418E-04 -2.629249E-05 
 -3.406736E-05 +1.356442E-04 -3.702402E-05 +1.356442E-04 +4.879910E-03 +1.824658E-04 -3.702402E-05 +1.824658E-04 +1.906220E-06 
 -4.154335E-05 +5.736001E-05 +5.318829E-05 +5.736001E-05 +4.980713E-03 +2.570067E-04 +5.318829E-05 +2.570067E-04 +4.208160E-05 
 +1.092413E-04 +8.991403E-06 -9.919578E-05 +8.991403E-06 +4.948269E-03 +2.535487E-04 -9.919578E-05 +2.535487E-04 +9.390496E-05 
 -3.155232E-04 -4.210416E-05 +1.094416E-04 -4.210416E-05 +5.096479E-03 +9.575971E-05 +1.094416E-04 +9.575971E-05 +1.030359E-04 
 -2.644950E-04 -2.113030E-05 +8.017556E-05 -2.113030E-05 +5.179622E-03 -6.954351E-05 +8.017556E-05 -6.954351E-05 -1.069427E-05 
 -1.817295E-04 +2.388874E-05 +9.324762E-05 +2.388874E-05 +5.096271E-03 -1.556646E-04 +9.324762E-05 -1.556646E-04 -2.554465E-05 
 -1.166741E-04 +2.065902E-05 +2.605129E-05 +2.065902E-05 +5.031431E-03 -1.722262E-04 +2.605129E-05 -1.722262E-04 -3.796363E-05 
 -2.395300E-04 +2.494523E-07 +1.418703E-04 +2.494523E-07 +4.962945E-03 -1.353261E-04 +1.418703E-04 -1.353261E-04 -3.672904E-05 
 -1.422472E-04 +5.454081E-05 +8.761287E-05 +5.454081E-05 +5.149903E-03 -7.481070E-05 +8.761287E-05 -7.481070E-05 -2.462891E-05 
 -2.831183E-05 +1.241478E-04 +1.221339E-04 +1.241478E-04 +5.087135E-03 +1.074446E-04 +1.221339E-04 +1.074446E-04 +1.110369E-04 
 +1.574486E-04 +6.890047E-05 +3.367343E-05 +6.890047E-05 +4.948633E-03 +2.301611E-04 +3.367343E-05 +2.301611E-04 +1.428866E-04 
 +4.035806E-05 +3.622415E-05 -5.404251E-05 +3.622415E-05 +4.844879E-03 +1.992263E-04 -5.404251E-05 +1.992263E-04 +1.758333E-04 
 +2.843079E-04 +3.222082E-05 -6.273249E-05 +3.222082E-05 +4.623659E-03 +1.337661E-04 -6.273249E-05 +1.337661E-04 +1.326240E-04 
 +2.740917E-04 -1.307377E-05 -1.847589E-04 -1.307377E-05 +4.659416E-03 +1.003295E-04 -1.847589E-04 +1.003295E-04 +2.601445E-06 
 +8.544758E-05 +8.900028E-05 -4.927549E-05 +8.900028E-05 +4.963349E-03 +7.293207E-05 -4.927549E-05 +7.293207E-05 -5.494171E-05 
 +1.448447E-06 +1.018210E-04 +2.235813E-05 +1.018210E-04 +5.047956E-03 +1.067305E-04 +2.235813E-05 +1.067305E-04 -9.771813E-05 
 -1.728066E-05 +6.092435E-05 +2.245688E-06 +6.092435E-05 +4.946185E-03 +1.848828E-04 +2.245688E-06 +1.848828E-04 -1.265439E-04 
 +5.235214E-05 +1.979503E-06 -1.810728E-05 +1.979503E-06 +4.820917E-03 +2.187395E-04 -1.810728E-05 +2.187395E-04 -7.872964E-05 
 +9.831171E-05 +7.542409E-05 +4.669119E-05 +7.542409E-05 +4.704921E-03 +1.878595E-04 +4.669119E-05 +1.878595E-04 +2.524746E-06 
 +1.167101E-04 +1.356794E-04 +1.841089E-05 +1.356794E-04 +4.663030E-03 +1.932152E-04 +1.841089E-05 +1.932152E-04 +4.173676E-05 
 +2.577732E-05 +7.982571E-05 +6.456297E-06 +7.982571E-05 +4.737030E-03 +2.015932E-04 +6.456297E-06 +2.015932E-04 +4.509812E-05 
 -4.329273E-06 +8.360237E-05 -4.280346E-05 +8.360237E-05 +4.799740E-03 +1.724907E-04 -4.280346E-05 +1.724907E-04 +1.851388E-05 
 -1.062136E-04 +9.045861E-05 +3.709250E-05 +9.045861E-05 +5.041003E-03 +1.287595E-04 +3.709250E-05 +1.287595E-04 +4.134484E-05 
 -2.430490E-04 +5.601925E-05 -6.480557E-05 +5.601925E-05 +5.268063E-03 +1.010608E-04 -6.480557E-05 +1.010608E-04 +4.104942E-05 
 -1.756742E-04 +1.350650E-05 +1.117355E-05 +1.350650E-05 +5.177235E-03 +9.237844E-05 +1.117355E-05 +9.237844E-05 -9.753956E-05 
 -1.366304E-04 -2.804941E-05 -3.790851E-05 -2.804941E-05 +5.100629E-03 +3.610313E-06 -3.790851E-05 +3.610313E-06 -2.625988E-04 
 -8.141031E-05 -2.131501E-06 -3.996817E-05 -2.131501E-06 +5.087562E-03 -1.291701E-04 -3.996817E-05 -1.291701E-04 -2.860089E-04 
 -7.052695E-05 -6.236451E-05 -9.647447E-05 -6.236451E-05 +5.015336E-03 -1.749683E-04 -9.647447E-05 -1.749683E-04 -3.074663E-04 
 -1.306173E-04 -5.933645E-05 -1.951194E-08 -5.933645E-05 +5.042172E-03 -1.526408E-04 -1.951194E-08 -1.526408E-04 -2.407202E-04 
 -1.707804E-04 +1.849523E-05 -2.514617E-05 +1.849523E-05 +5.130122E-03 -5.922619E-05 -2.514617E-05 -5.922619E-05 -2.160193E-04 
 -3.891319E-05 +1.336810E-04 +5.895537E-06 +1.336810E-04 +5.165042E-03 +1.294616E-05 +5.895537E-06 +1.294616E-05 -1.156149E-04 
 +1.685249E-05 +3.720992E-05 -1.245509E-04 +3.720992E-05 +5.057754E-03 +9.870807E-05 -1.245509E-04 +9.870807E-05 +2.006953E-05 
 +5.078945E-05 +5.396078E-05 -1.567410E-04 +5.396078E-05 +4.822360E-03 +1.114420E-04 -1.567410E-04 +1.114420E-04 +1.262587E-04 
 +3.321178E-04 +4.207631E-05 -1.575707E-05 +4.207631E-05 +4.664780E-03 +8.528115E-05 -1.575707E-05 +8.528115E-05 +1.623694E-04 
 +3.674870E-04 +1.781481E-05 -1.484720E-04 +1.781481E-05 +4.557278E-03 +8.293241E-05 -1.484720E-04 +8.293241E-05 +7.036928E-05 
 +3.085686E-04 +1.720573E-05 -8.619153E-05 +1.720573E-05 +4.584916E-03 +6.245907E-05 -8.619153E-05 +6.245907E-05 +1.107857E-05 
 +7.442903E-05 +1.130509E-04 +4.994572E-05 +1.130509E-04 +4.887196E-03 +3.436664E-05 +4.994572E-05 +3.436664E-05 -3.483109E-05 
 -5.726112E-05 +1.661286E-05 +8.454396E-05 +1.661286E-05 +4.974747E-03 +8.462344E-05 +8.454396E-05 +8.462344E-05 -6.723367E-05 
 +2.385935E-05 +2.428344E-05 +1.165375E-05 +2.428344E-05 +4.742601E-03 +1.009063E-04 +1.165375E-05 +1.009063E-04 +8.502579E-06 
 +2.845986E-06 +6.655084E-05 +4.332716E-06 +6.655084E-05 +4.645278E-03 +9.566229E-05 +4.332716E-06 +9.566229E-05 +7.183686E-05 
 -1.716189E-05 +1.152044E-04 +3.670184E-06 +1.152044E-04 +4.626480E-03 +1.435679E-04 +3.670184E-06 +1.435679E-04 +1.129251E-04 
 -1.261133E-05 +1.123653E-04 -4.717553E-05 +1.123653E-04 +4.661315E-03 +1.691764E-04 -4.717553E-05 +1.691764E-04 +1.387157E-04 
 -4.647931E-05 +6.898794E-05 -7.752716E-05 +6.898794E-05 +4.790812E-03 +1.473200E-04 -7.752716E-05 +1.473200E-04 +9.077679E-05 
 -7.622088E-05 +1.505604E-04 -2.632419E-05 +1.505604E-04 +5.008461E-03 +7.132728E-05 -2.632419E-05 +7.132728E-05 +6.336670E-05 
 -2.026735E-04 +1.016988E-04 -5.345151E-05 +1.016988E-04 +5.196386E-03 -1.974017E-05 -5.345151E-05 -1.974017E-05 +1.826792E-05 
 -1.867090E-04 +8.793107E-05 +1.798768E-05 +8.793107E-05 +5.183974E-03 -4.009348E-05 +1.798768E-05 -4.009348E-05 -9.993121E-05 
 -1.228976E-04 +2.121474E-05 -5.806917E-05 +2.121474E-05 +5.130656E-03 -7.271698E-05 -5.806917E-05 -7.271698E-05 -2.772424E-04 
 -5.186342E-05 -6.540326E-05 -8.526318E-05 -6.540326E-05 +5.128090E-03 -1.314757E-04 -8.526318E-05 -1.314757E-04 -4.085199E-04 
 -5.663938E-05 -1.506347E-04 -1.579297E-04 -1.506347E-04 +5.086012E-03 -1.216362E-04 -1.579297E-04 -1.216362E-04 -4.558050E-04 
 -1.368101E-04 -9.556601E-05 -1.025802E-04 -9.556601E-05 +5.086769E-03 -7.691228E-05 -1.025802E-04 -7.691228E-05 -3.483510E-04 
 -1.135997E-04 +4.142838E-05 -9.539462E-05 +4.142838E-05 +5.078795E-03 -4.925100E-05 -9.539462E-05 -4.925100E-05 -2.508179E-04 
 -2.696925E-05 +1.019011E-04 -6.625339E-05 +1.019011E-04 +5.082815E-03 +1.568691E-05 -6.625339E-05 +1.568691E-05 -1.820117E-04 
 -1.786735E-05 -5.538194E-05 -2.155855E-04 -5.538194E-05 +4.987917E-03 +7.918900E-05 -2.155855E-04 +7.918900E-05 -3.879115E-05 
 +1.002388E-04 -5.356348E-06 -1.792739E-04 -5.356348E-06 +4.802547E-03 +9.656617E-05 -1.792739E-04 +9.656617E-05 +6.795424E-05 
 +3.230488E-04 +2.257137E-05 +4.086647E-05 +2.257137E-05 +4.681136E-03 +6.023340E-05 +4.086647E-05 +6.023340E-05 +1.533914E-04 
 +2.991412E-04 +4.189665E-05 -8.060354E-05 +4.189665E-05 +4.632226E-03 +4.835984E-06 -8.060354E-05 +4.835984E-06 +1.127058E-04 
 +3.184199E-04 +2.838360E-05 -8.455182E-05 +2.838360E-05 +4.536575E-03 -2.060923E-06 -8.455182E-05 -2.060923E-06 +5.717129E-05 
 +2.371920E-04 +7.625817E-05 -2.497801E-06 +7.625817E-05 +4.448356E-03 +5.036371E-05 -2.497801E-06 +5.036371E-05 +3.764207E-05 
 +1.829864E-04 -8.286697E-05 +2.002928E-05 -8.286697E-05 +4.563078E-03 +1.429940E-04 +2.002928E-05 +1.429940E-04 +3.794345E-05 
 -1.585204E-05 +6.641860E-06 -1.121550E-04 +6.641860E-06 +4.762168E-03 +1.525408E-04 -1.121550E-04 +1.525408E-04 +3.219825E-05 
 -1.654534E-04 +8.632887E-05 -6.672060E-05 +8.632887E-05 +4.806874E-03 +1.193506E-04 -6.672060E-05 +1.193506E-04 +1.366021E-06 
 -1.835643E-04 +9.736633E-05 -3.561267E-05 +9.736633E-05 +4.723961E-03 +1.334960E-04 -3.561267E-05 +1.334960E-04 +7.537502E-05 
 -1.418847E-04 +8.432098E-05 -7.780889E-05 +8.432098E-05 +4.633871E-03 +9.718298E-05 -7.780889E-05 +9.718298E-05 +1.578268E-04 
 -5.822882E-05 +1.502625E-04 -8.662585E-05 +1.502625E-04 +4.759625E-03 +4.120758E-05 -8.662585E-05 +4.120758E-05 +1.152353E-04 
 -6.290098E-05 +2.180220E-04 -5.577596E-05 +2.180220E-04 +4.823496E-03 -7.809399E-06 -5.577596E-05 -7.809399E-06 +8.554612E-05 
 -6.707007E-05 +3.008680E-05 -3.079790E-05 +3.008680E-05 +4.683512E-03 -5.769177E-06 -3.079790E-05 -5.769177E-06 +1.661499E-04 
 -1.474812E-04 +1.019950E-05 +2.411913E-05 +1.019950E-05 +4.776267E-03 +7.661201E-06 +2.411913E-05 +7.661201E-06 +2.254756E-04 
 -1.330408E-04 +8.792134E-05 -1.849039E-05 +8.792134E-05 +5.048620E-03 -4.498392E-05 -1.849039E-05 -4.498392E-05 +1.065446E-04 
 -8.631126E-05 -5.663487E-05 -1.442951E-05 -5.663487E-05 +5.115021E-03 -6.762225E-05 -1.442951E-05 -6.762225E-05 -1.270767E-04 
 -6.845141E-05 -1.629159E-04 -1.592466E-04 -1.629159E-04 +5.064170E-03 -4.735282E-05 -1.592466E-04 -4.735282E-05 -3.486164E-04 
 -1.723598E-04 -6.668309E-05 -1.009806E-04 -6.668309E-05 +5.067712E-03 -5.485717E-05 -1.009806E-04 -5.485717E-05 -3.363112E-04 
 -1.759327E-04 +5.558530E-05 -1.014270E-04 +5.558530E-05 +5.032618E-03 -3.934509E-05 -1.014270E-04 -3.934509E-05 -1.280930E-04 
 -3.144705E-06 +5.236593E-05 -8.436285E-05 +5.236593E-05 +4.992733E-03 -3.289981E-05 -8.436285E-05 -3.289981E-05 -2.396226E-05 
 +4.796009E-05 -1.195849E-04 -1.893112E-04 -1.195849E-04 +4.900293E-03 -1.000020E-05 -1.893112E-04 -1.000020E-05 +3.649817E-05 
 +1.305653E-04 -7.138052E-05 -1.574682E-04 -7.138052E-05 +4.835019E-03 +4.873061E-05 -1.574682E-04 +4.873061E-05 +6.481715E-05 
 +3.178664E-04 -7.863895E-06 +1.400227E-05 -7.863895E-06 +4.711435E-03 +4.730425E-05 +1.400227E-05 +4.730425E-05 +8.404355E-05 
 +3.319424E-04 +3.068476E-05 -4.726754E-05 +3.068476E-05 +4.579465E-03 -7.999514E-06 -4.726754E-05 -7.999514E-06 +3.298022E-05 
 +2.551018E-04 +1.463015E-04 -1.809976E-05 +1.463015E-04 +4.630922E-03 -4.972729E-05 -1.809976E-05 -4.972729E-05 +1.038557E-05 
 +2.936749E-04 +2.099718E-04 -3.609882E-05 +2.099718E-04 +4.712476E-03 -2.917300E-05 -3.609882E-05 -2.917300E-05 -6.192079E-05 
 +3.160877E-04 +6.956457E-05 -4.486769E-05 +6.956457E-05 +4.843445E-03 +9.981296E-05 -4.486769E-05 +9.981296E-05 -4.210187E-05 
 -1.676040E-04 -1.068754E-04 -2.571456E-04 -1.068754E-04 +5.101819E-03 +1.764875E-04 -2.571456E-04 +1.764875E-04 -1.989471E-05 
 -2.417042E-04 -1.474601E-04 -1.732854E-04 -1.474601E-04 +5.239395E-03 +1.400397E-04 -1.732854E-04 +1.400397E-04 -1.239665E-04 
 -2.829011E-04 -1.039541E-04 -1.176995E-04 -1.039541E-04 +5.238524E-03 +1.003106E-04 -1.176995E-04 +1.003106E-04 -8.246685E-05 
 -2.777158E-04 -6.671239E-05 -1.232069E-04 -6.671239E-05 +5.048592E-03 +7.744809E-05 -1.232069E-04 +7.744809E-05 +7.550027E-05 
 -1.835294E-04 +6.007035E-05 -4.548057E-05 +6.007035E-05 +4.812387E-03 +6.710246E-05 -4.548057E-05 +6.710246E-05 +1.344507E-04 
 +1.194389E-05 -8.158598E-05 -9.602092E-05 -8.158598E-05 +4.677880E-03 +4.082901E-05 -9.602092E-05 +4.082901E-05 +1.418029E-04 
 -2.998205E-05 -1.199939E-04 -3.938350E-05 -1.199939E-04 +4.644336E-03 +1.995458E-05 -3.938350E-05 +1.995458E-05 +2.740025E-04 
 -4.707979E-05 -4.363747E-05 -2.099466E-05 -4.363747E-05 +4.621144E-03 +1.880091E-05 -2.099466E-05 +1.880091E-05 +3.912173E-04 
 -1.411914E-05 +4.839484E-06 -1.656682E-05 +4.839484E-06 +4.537390E-03 +1.976374E-05 -1.656682E-05 +1.976374E-05 +3.966710E-04 
 -4.113320E-05 -5.037683E-05 +1.608282E-05 -5.037683E-05 +4.708921E-03 -1.087466E-05 +1.608282E-05 -1.087466E-05 +2.383168E-04 
 -6.837603E-05 -1.106862E-04 -9.918343E-05 -1.106862E-04 +4.966930E-03 -3.533085E-05 -9.918343E-05 -3.533085E-05 -1.283397E-04 
 -1.718403E-04 -4.064913E-05 -6.408412E-05 -4.064913E-05 +5.013680E-03 -3.778201E-05 -6.408412E-05 -3.778201E-05 -2.489446E-04 
 -8.667751E-05 +1.400933E-04 -1.522265E-04 +1.400933E-04 +4.855276E-03 -9.621019E-05 -1.522265E-04 -9.621019E-05 +2.459514E-05 
 -1.061518E-05 +1.547731E-04 -5.605919E-05 +1.547731E-04 +4.524418E-03 -1.530854E-04 -5.605919E-05 -1.530854E-04 +2.257850E-04 
 +2.900831E-05 +3.398050E-05 -3.597754E-05 +3.398050E-05 +4.374752E-03 -1.404695E-04 -3.597754E-05 -1.404695E-04 +2.084281E-04 
 +1.214453E-04 +1.689233E-05 -2.854819E-05 +1.689233E-05 +4.440281E-03 -1.311081E-05 -2.854819E-05 -1.311081E-05 +9.479768E-05 
 +2.645505E-04 -1.047999E-05 +4.017521E-05 -1.047999E-05 +4.525332E-03 +6.927460E-05 +4.017521E-05 +6.927460E-05 -1.013407E-05 
 +3.103499E-04 -9.595014E-08 +4.810330E-05 -9.595014E-08 +4.616312E-03 +3.310867E-05 +4.810330E-05 +3.310867E-05 -1.014154E-04 
 +3.306401E-04 +1.647855E-04 +2.012698E-05 +1.647855E-04 +4.744230E-03 -2.960794E-06 +2.012698E-05 -2.960794E-06 -1.429633E-04 
 +3.192158E-04 +1.543116E-04 -5.321398E-05 +1.543116E-04 +4.852281E-03 +4.370584E-05 -5.321398E-05 +4.370584E-05 -1.711649E-04 
 +7.725865E-05 +7.087231E-05 -4.368911E-05 +7.087231E-05 +4.988120E-03 +7.791256E-05 -4.368911E-05 +7.791256E-05 -4.008388E-05 
 -3.341537E-04 -1.272426E-04 -1.451513E-04 -1.272426E-04 +5.150299E-03 +8.777785E-05 -1.451513E-04 +8.777785E-05 +4.649170E-05 
 -2.294739E-04 -1.611859E-04 -1.782386E-04 -1.611859E-04 +5.218898E-03 +1.027618E-04 -1.782386E-04 +1.027618E-04 -7.130613E-05 
 -2.446993E-04 -1.309884E-04 -1.458775E-04 -1.309884E-04 +5.203337E-03 +1.042788E-04 -1.458775E-04 +1.042788E-04 -9.153590E-05 
 -3.179375E-04 -9.421460E-05 -1.088303E-04 -9.421460E-05 +5.251816E-03 +1.371279E-04 -1.088303E-04 +1.371279E-04 +8.036680E-05 
 -4.698310E-04 -2.714124E-05 +7.555687E-05 -2.714124E-05 +5.111045E-03 +1.707497E-04 +7.555687E-05 +1.707497E-04 +1.920685E-04 
 +5.082473E-05 -1.166258E-04 -1.301447E-04 -1.166258E-04 +4.778802E-03 +1.256510E-04 -1.301447E-04 +1.256510E-04 +1.344822E-04 
 +1.067603E-04 -1.070788E-04 -1.120329E-04 -1.070788E-04 +4.662142E-03 +3.075357E-05 -1.120329E-04 +3.075357E-05 +1.863539E-04 
 +4.014585E-05 -8.433600E-05 -8.572376E-05 -8.433600E-05 +4.622083E-03 -1.637825E-05 -8.572376E-05 -1.637825E-05 +3.128517E-04 
 +8.248449E-05 -1.437226E-05 -6.660985E-05 -1.437226E-05 +4.542310E-03 -1.209891E-05 -6.660985E-05 -1.209891E-05 +3.556644E-04 
 +8.556891E-05 +4.205637E-05 -3.365779E-05 +4.205637E-05 +4.520603E-03 +2.598497E-05 -3.365779E-05 +2.598497E-05 +3.178163E-04 
 +3.146918E-05 -5.831659E-05 -3.539702E-05 -5.831659E-05 +4.616473E-03 +4.081229E-05 -3.539702E-05 +4.081229E-05 +8.262456E-05 
 -1.563882E-04 +6.895589E-05 -7.080662E-05 +6.895589E-05 +4.858393E-03 -2.065856E-05 -7.080662E-05 -2.065856E-05 -1.042221E-04 
 +7.476234E-05 +2.101328E-04 -8.820759E-05 +2.101328E-04 +4.701157E-03 -1.242485E-04 -8.820759E-05 -1.242485E-04 +6.864654E-05 
 -1.357595E-04 +1.741193E-04 +2.641902E-05 +1.741193E-04 +4.709885E-03 -1.536753E-04 +2.641902E-05 -1.536753E-04 +2.976924E-04 
 -8.790501E-05 +7.846895E-05 +4.799802E-05 +7.846895E-05 +4.757038E-03 -1.223019E-04 +4.799802E-05 -1.223019E-04 +2.623762E-04 
 -3.626246E-05 +3.625304E-05 +2.716453E-05 +3.625304E-05 +4.780648E-03 -1.931594E-05 +2.716453E-05 -1.931594E-05 +9.085095E-05 
 +2.181593E-04 +2.036624E-05 +5.318752E-05 +2.036624E-05 +4.872076E-03 +5.981271E-05 +5.318752E-05 +5.981271E-05 -5.181752E-05 
 +2.669766E-04 +5.066126E-05 +5.700665E-05 +5.066126E-05 +4.941313E-03 +6.600823E-05 +5.700665E-05 +6.600823E-05 -1.051140E-04 
 +3.002345E-04 +1.635240E-04 +1.135735E-04 +1.635240E-04 +4.873865E-03 +8.710507E-05 +1.135735E-04 +8.710507E-05 -9.868759E-05 
 +1.940112E-04 +1.141740E-04 -1.029888E-05 +1.141740E-04 +4.968906E-03 +7.648504E-05 -1.029888E-05 +7.648504E-05 -6.834190E-05 
 -1.022891E-04 +6.612653E-06 -8.424298E-05 +6.612653E-06 +5.146796E-03 +1.105725E-06 -8.424298E-05 +1.105725E-06 +8.305941E-05 
 -3.386655E-04 -1.261176E-04 -5.660155E-05 -1.261176E-04 +5.167818E-03 +1.413443E-05 -5.660155E-05 +1.413443E-05 +1.593794E-04 
 -1.938871E-04 -1.760989E-04 -1.327583E-04 -1.760989E-04 +5.158736E-03 +6.242650E-05 -1.327583E-04 +6.242650E-05 +7.867829E-05 
 -2.370794E-04 -1.772589E-04 -8.418821E-05 -1.772589E-04 +5.170181E-03 +9.213392E-05 -8.418821E-05 +9.213392E-05 +6.568253E-05 
 -3.509029E-04 -1.488456E-04 -1.740709E-05 -1.488456E-04 +5.166194E-03 +1.648176E-04 -1.740709E-05 +1.648176E-04 +1.853087E-04 
 -3.598361E-04 -4.582638E-05 +3.103501E-06 -4.582638E-05 +5.141610E-03 +1.747177E-04 +3.103501E-06 +1.747177E-04 +1.517336E-04 
 -2.005344E-05 +1.013173E-05 -1.874240E-04 +1.013173E-05 +5.055856E-03 +1.157775E-04 -1.874240E-04 +1.157775E-04 -1.265234E-05 
 +1.103075E-04 -8.840390E-06 -1.258587E-04 -8.840390E-06 +4.828444E-03 +8.080090E-05 -1.258587E-04 +8.080090E-05 +5.297597E-05 
 +9.489020E-05 -5.015005E-05 -1.643396E-04 -5.015005E-05 +4.649666E-03 +3.333934E-05 -1.643396E-04 +3.333934E-05 +1.490806E-04 
 +1.294611E-04 -2.076900E-05 -1.266029E-04 -2.076900E-05 +4.585098E-03 +2.636534E-05 -1.266029E-04 +2.636534E-05 +1.254802E-04 
 +1.885999E-04 +5.183903E-05 -4.189756E-05 +5.183903E-05 +4.521967E-03 +7.392598E-05 -4.189756E-05 +7.392598E-05 +1.146015E-04 
 +2.040927E-04 +9.821367E-05 -3.202319E-05 +9.821367E-05 +4.630448E-03 +7.626437E-05 -3.202319E-05 +7.626437E-05 +4.913154E-05 
 +8.105343E-05 +2.822783E-04 -9.862441E-05 +2.822783E-04 +4.755694E-03 -3.325028E-05 -9.862441E-05 -3.325028E-05 -6.670342E-05 
 -8.122543E-05 +8.199971E-05 +1.015991E-04 +8.199971E-05 +4.769843E-03 -1.214248E-04 +1.015991E-04 -1.214248E-04 +9.835297E-05 
 -2.328478E-04 +2.038989E-05 +3.903183E-05 +2.038989E-05 +4.790374E-03 -1.345355E-04 +3.903183E-05 -1.345355E-04 +3.335771E-04 
 -2.696320E-04 -1.240296E-05 -2.936593E-05 -1.240296E-05 +4.902350E-03 -1.438100E-04 -2.936593E-05 -1.438100E-04 +2.883069E-04 
 -1.694030E-04 -5.376710E-05 -2.737069E-05 -5.376710E-05 +5.050651E-03 -5.511169E-05 -2.737069E-05 -5.511169E-05 +1.037468E-04 
 +2.070713E-04 -6.630710E-05 -2.521753E-05 -6.630710E-05 +5.005289E-03 +1.085604E-04 -2.521753E-05 +1.085604E-04 -5.222754E-05 
 +2.296592E-04 -2.954128E-05 -8.373701E-05 -2.954128E-05 +4.979651E-03 +1.816480E-04 -8.373701E-05 +1.816480E-04 -8.299363E-05 
 +6.591855E-06 -4.582737E-05 +2.452541E-04 -4.582737E-05 +5.096697E-03 +1.254476E-04 +2.452541E-04 +1.254476E-04 -9.524551E-06 
 -3.163864E-05 -8.422995E-05 +5.459585E-05 -8.422995E-05 +5.111274E-03 +6.248806E-05 +5.459585E-05 +6.248806E-05 +5.537182E-06 
 +5.705680E-05 -1.298860E-04 -1.681099E-04 -1.298860E-04 +5.077397E-03 +7.243693E-05 -1.681099E-04 +7.243693E-05 +9.661105E-05 
 -1.507749E-04 -9.229019E-05 -1.683610E-04 -9.229019E-05 +5.108222E-03 +6.048667E-05 -1.683610E-04 +6.048667E-05 +1.829342E-04 
 -2.461338E-04 -1.248884E-04 -1.073382E-04 -1.248884E-04 +5.131184E-03 +5.954807E-05 -1.073382E-04 +5.954807E-05 +1.218944E-04 
 -2.549678E-04 -1.353201E-04 -8.706199E-05 -1.353201E-04 +5.127510E-03 +1.346196E-04 -8.706199E-05 +1.346196E-04 +1.712935E-04 
 -3.275530E-04 -9.430633E-05 -1.819118E-05 -9.430633E-05 +5.100417E-03 +1.806876E-04 -1.819118E-05 +1.806876E-04 +2.041016E-04 
 -4.205109E-05 -2.941320E-06 -2.288188E-04 -2.941320E-06 +5.065969E-03 +1.234360E-04 -2.288188E-04 +1.234360E-04 -3.984400E-05 
 +2.559355E-05 +5.784771E-05 -2.658575E-04 +5.784771E-05 +5.106085E-03 +4.948616E-05 -2.658575E-04 +4.948616E-05 -1.834770E-04 
 +5.309870E-05 +8.005011E-05 -1.465698E-04 +8.005011E-05 +5.159733E-03 +1.408242E-05 -1.465698E-04 +1.408242E-05 -8.546108E-05 
 +6.753479E-05 +9.040567E-05 -2.240697E-04 +9.040567E-05 +5.127146E-03 -7.266434E-05 -2.240697E-04 -7.266434E-05 -9.167508E-05 
 +1.956285E-04 +1.705492E-04 -1.230294E-04 +1.705492E-04 +5.107243E-03 -1.316978E-04 -1.230294E-04 -1.316978E-04 -1.894921E-04 
 +2.796854E-04 +2.274945E-04 -1.953695E-05 +2.274945E-04 +5.103555E-03 -1.141272E-04 -1.953695E-05 -1.141272E-04 -2.182706E-04 
 +3.469351E-04 +3.044181E-04 +9.360325E-06 +3.044181E-04 +5.029326E-03 -6.102932E-05 +9.360325E-06 -6.102932E-05 -1.398806E-04 
 +3.374076E-04 +2.720297E-04 -1.316607E-05 +2.720297E-04 +4.863442E-03 -7.947669E-05 -1.316607E-05 -7.947669E-05 -1.096063E-04 
 -2.817558E-04 -3.392391E-05 +1.595932E-04 -3.392391E-05 +4.914896E-03 -4.666282E-05 +1.595932E-04 -4.666282E-05 +1.104294E-04 
 -3.265094E-04 -4.835897E-05 +2.707845E-05 -4.835897E-05 +4.932882E-03 -7.565199E-05 +2.707845E-05 -7.565199E-05 +3.614459E-04 
 -4.804745E-04 -9.122978E-05 -7.131029E-05 -9.122978E-05 +4.944975E-03 -6.822243E-05 -7.131029E-05 -6.822243E-05 +3.015169E-04 
 -6.150741E-05 -8.740659E-05 -3.410848E-05 -8.740659E-05 +4.919322E-03 +6.608043E-05 -3.410848E-05 +6.608043E-05 +1.131336E-04 
 +1.086114E-04 -9.517941E-05 -8.520520E-05 -9.517941E-05 +4.955886E-03 +2.030485E-04 -8.520520E-05 +2.030485E-04 -3.071184E-05 
 +5.881291E-05 -5.900155E-05 -1.324883E-04 -5.900155E-05 +5.070406E-03 +1.938439E-04 -1.324883E-04 +1.938439E-04 -7.574134E-05 
 -2.372115E-04 -4.351365E-05 +2.677769E-04 -4.351365E-05 +5.157863E-03 +6.977979E-05 +2.677769E-04 +6.977979E-05 -3.631805E-05 
 -1.575794E-04 -4.416852E-05 +8.080130E-05 -4.416852E-05 +5.124576E-03 +4.275052E-05 +8.080130E-05 +4.275052E-05 +1.156173E-05 
 +1.857831E-04 -1.460591E-04 -2.078927E-04 -1.460591E-04 +4.995514E-03 +1.497290E-04 -2.078927E-04 +1.497290E-04 +1.264485E-04 
 +1.933026E-04 -1.578895E-04 -2.897581E-04 -1.578895E-04 +4.952352E-03 +1.474684E-04 -2.897581E-04 +1.474684E-04 +1.961083E-04 
 -1.713634E-04 -8.595429E-05 -1.118210E-04 -8.595429E-05 +5.031845E-03 +8.750107E-05 -1.118210E-04 +8.750107E-05 +1.929439E-04 
 -2.761841E-04 -4.715590E-05 -5.220211E-05 -4.715590E-05 +5.060972E-03 +1.476999E-04 -5.220211E-05 +1.476999E-04 +2.664572E-04 
 -1.938290E-04 +1.007558E-05 -1.030883E-04 +1.007558E-05 +5.059207E-03 +1.356406E-04 -1.030883E-04 +1.356406E-04 +1.165682E-04 
 +8.412259E-05 +9.075215E-05 -3.036432E-04 +9.075215E-05 +5.079885E-03 +3.532601E-05 -3.036432E-04 +3.532601E-05 -2.053617E-04 
 +1.177641E-04 +9.475117E-05 -2.990951E-04 +9.475117E-05 +5.090380E-03 +1.820491E-05 -2.990951E-04 +1.820491E-05 -2.299966E-04 
 +6.895364E-05 +7.351882E-05 -2.092516E-04 +7.351882E-05 +5.132584E-03 -1.701078E-06 -2.092516E-04 -1.701078E-06 -1.307515E-04 
 +5.825065E-05 +8.497903E-05 -2.528361E-04 +8.497903E-05 +5.188906E-03 -3.908890E-05 -2.528361E-04 -3.908890E-05 -1.759975E-04 
 +3.041880E-04 +1.677691E-04 -2.100141E-05 +1.677691E-04 +5.166422E-03 -5.806720E-05 -2.100141E-05 -5.806720E-05 -3.574902E-04 
 +3.770994E-04 +2.373193E-04 +6.065600E-05 +2.373193E-04 +5.101484E-03 -4.522610E-05 +6.065600E-05 -4.522610E-05 -4.099977E-04 
 +3.398265E-04 +2.469302E-04 +1.167834E-04 +2.469302E-04 +5.021169E-03 -2.801923E-06 +1.167834E-04 -2.801923E-06 -2.214891E-04 
 +2.897323E-04 +8.631934E-05 +3.691563E-05 +8.631934E-05 +4.941981E-03 -5.330857E-06 +3.691563E-05 -5.330857E-06 -1.234911E-04 
 -3.038635E-04 -5.894710E-05 +8.391583E-05 -5.894710E-05 +4.962003E-03 -3.912646E-05 +8.391583E-05 -3.912646E-05 +1.058504E-04 
 -4.601769E-04 -3.308424E-05 +3.037725E-05 -3.308424E-05 +5.098514E-03 -2.894058E-05 +3.037725E-05 -2.894058E-05 +2.903204E-04 
 -5.526929E-04 -6.870208E-05 -1.476135E-05 -6.870208E-05 +5.087662E-03 +1.874435E-05 -1.476135E-05 +1.874435E-05 +2.265478E-04 
 -9.444039E-05 -1.341627E-04 -1.422155E-05 -1.341627E-04 +4.965701E-03 +1.285018E-04 -1.422155E-05 +1.285018E-04 +1.259795E-04 
 -6.994029E-06 -1.634315E-04 -9.947458E-05 -1.634315E-04 +4.991535E-03 +1.739185E-04 -9.947458E-05 +1.739185E-04 +4.441493E-05 
 -5.740554E-05 -4.558210E-05 -1.022850E-04 -4.558210E-05 +5.090951E-03 +1.577168E-04 -1.022850E-04 +1.577168E-04 -1.617736E-05 
 -2.845880E-04 +1.821137E-05 +2.502978E-04 +1.821137E-05 +5.135645E-03 +7.421186E-05 +2.502978E-04 +7.421186E-05 -1.195608E-05 
 -1.868166E-04 -3.718829E-05 +9.742487E-05 -3.718829E-05 +5.106258E-03 +4.059978E-05 +9.742487E-05 +4.059978E-05 +4.450051E-05 
 +1.589027E-04 -1.081630E-04 -1.820989E-04 -1.081630E-04 +4.998043E-03 +9.343758E-05 -1.820989E-04 +9.343758E-05 +1.725814E-04 
 +2.886947E-04 -1.551398E-04 -2.773465E-04 -1.551398E-04 +4.896668E-03 +1.300251E-04 -2.773465E-04 +1.300251E-04 +1.985640E-04 
 +1.101949E-04 -1.694021E-04 -1.634891E-04 -1.694021E-04 +4.871446E-03 +9.868161E-05 -1.634891E-04 +9.868161E-05 +2.734185E-04 
 -2.025780E-04 -6.134318E-05 -3.116914E-05 -6.134318E-05 +4.987580E-03 +2.129804E-05 -3.116914E-05 +2.129804E-05 +2.426453E-04 
 -1.478270E-05 +3.148794E-05 -1.867627E-04 +3.148794E-05 +5.087849E-03 -4.363720E-05 -1.867627E-04 -4.363720E-05 -9.099932E-05 
 +1.244005E-04 +8.877158E-05 -2.609841E-04 +8.877158E-05 +5.086489E-03 -4.877934E-05 -2.609841E-04 -4.877934E-05 -2.623003E-04 
 +1.303281E-04 +9.992623E-05 -2.624208E-04 +9.992623E-05 +5.069616E-03 +3.132874E-06 -2.624208E-04 +3.132874E-06 -1.950614E-04 
 +1.152861E-04 +1.152544E-04 -2.252806E-04 +1.152544E-04 +5.077407E-03 +2.830229E-05 -2.252806E-04 +2.830229E-05 -1.463239E-04 
 +1.186733E-04 +1.395822E-04 -2.513770E-04 +1.395822E-04 +5.106291E-03 +5.505476E-05 -2.513770E-04 +5.505476E-05 -1.424919E-04 
 +3.672479E-04 +1.691613E-04 +3.611624E-05 +1.691613E-04 +5.082511E-03 +9.518495E-05 +3.611624E-05 +9.518495E-05 -3.162984E-04 
 +3.778764E-04 +1.498593E-04 +7.158720E-05 +1.498593E-04 +4.991693E-03 +4.923188E-05 +7.158720E-05 +4.923188E-05 -3.702163E-04 
 +2.144591E-04 +6.394023E-05 +1.497272E-04 +6.394023E-05 +4.881028E-03 -6.041124E-05 +1.497272E-04 -6.041124E-05 -1.084766E-04 
 +1.583544E-04 -1.564596E-05 +3.502420E-06 -1.564596E-05 +4.856586E-03 -9.179518E-05 +3.502420E-06 -9.179518E-05 -5.285967E-06 
 -3.220863E-04 -3.300310E-05 +2.662973E-05 -3.300310E-05 +5.049197E-03 -4.009289E-05 +2.662973E-05 -4.009289E-05 +9.272170E-05 
 -4.621184E-04 -2.246113E-05 +4.135714E-05 -2.246113E-05 +5.157212E-03 -1.209181E-05 +4.135714E-05 -1.209181E-05 +2.582507E-04 
 -4.782658E-04 -7.728773E-05 +6.940013E-05 -7.728773E-05 +5.177919E-03 +1.976207E-05 +6.940013E-05 +1.976207E-05 +1.926555E-04 
 -3.589753E-04 -1.191361E-04 +7.555921E-05 -1.191361E-04 +5.149892E-03 +8.053873E-05 +7.555921E-05 +8.053873E-05 +1.274779E-04 
 -1.246612E-04 -9.071450E-05 +2.044356E-05 -9.071450E-05 +5.063710E-03 +1.703256E-04 +2.044356E-05 +1.703256E-04 +7.194220E-05 
 -1.461889E-04 -3.645966E-05 -1.991146E-04 -3.645966E-05 +5.069150E-03 +1.372319E-04 -1.991146E-04 +1.372319E-04 +7.088598E-06 
 -2.174634E-04 -1.127350E-06 +2.770049E-04 -1.127350E-06 +5.119606E-03 +1.259079E-05 +2.770049E-04 +1.259079E-05 +1.950790E-05 
 -1.280079E-04 -3.899813E-05 +1.421756E-04 -3.899813E-05 +5.059648E-03 -4.501159E-06 +1.421756E-04 -4.501159E-06 +4.282278E-05 
 +1.646448E-04 -8.230941E-05 -1.196122E-04 -8.230941E-05 +4.972539E-03 +3.191580E-05 -1.196122E-04 +3.191580E-05 +1.570508E-04 
 +2.285567E-04 -9.247181E-05 -2.233952E-04 -9.247181E-05 +4.908555E-03 +3.270233E-05 -2.233952E-04 +3.270233E-05 +2.128102E-04 
 +1.937741E-04 -1.083889E-04 -1.579640E-04 -1.083889E-04 +4.873613E-03 -1.547817E-05 -1.579640E-04 -1.547817E-05 +2.091401E-04 
 +7.709129E-05 +2.981182E-06 -1.547585E-04 +2.981182E-06 +4.921198E-03 -1.068294E-04 -1.547585E-04 -1.068294E-04 +1.077356E-04 
 +1.683017E-04 +8.278376E-05 -2.347136E-04 +8.278376E-05 +5.003545E-03 -1.522542E-04 -2.347136E-04 -1.522542E-04 -1.403994E-04 
 +1.664706E-04 +1.342587E-04 -2.683718E-04 +1.342587E-04 +5.037507E-03 -8.422385E-05 -2.683718E-04 -8.422385E-05 -2.019605E-04 
 +1.399660E-04 +1.392278E-04 -2.370992E-04 +1.392278E-04 +5.051509E-03 +5.937963E-06 -2.370992E-04 +5.937963E-06 -1.905677E-04 
 +1.306637E-04 +1.444110E-04 -2.294238E-04 +1.444110E-04 +5.074239E-03 +6.883689E-05 -2.294238E-04 +6.883689E-05 -2.010041E-04 
 +1.680213E-04 +1.114803E-04 -2.171675E-04 +1.114803E-04 +5.080600E-03 +1.261388E-04 -2.171675E-04 +1.261388E-04 -1.588770E-04 
 +2.968570E-04 +3.841646E-05 -5.150615E-05 +3.841646E-05 +5.057197E-03 +1.518547E-04 -5.150615E-05 +1.518547E-04 -2.309819E-04 
 +2.628571E-04 -3.870148E-05 -7.600217E-05 -3.870148E-05 +4.999080E-03 +7.384539E-05 -7.600217E-05 +7.384539E-05 -2.426722E-04 
 +1.372554E-04 -7.057312E-05 +2.700382E-05 -7.057312E-05 +4.936623E-03 -3.888387E-05 +2.700382E-05 -3.888387E-05 -5.601720E-05 
 +1.033391E-04 -4.516804E-05 -1.076398E-04 -4.516804E-05 +4.932821E-03 -8.546749E-05 -1.076398E-04 -8.546749E-05 -1.394755E-05 
 -4.060601E-04 -5.272271E-05 +1.023845E-04 -5.272271E-05 +5.155071E-03 -3.703931E-05 +1.023845E-04 -3.703931E-05 +1.305880E-04 
 -4.607198E-04 -8.204843E-05 +1.035072E-04 -8.204843E-05 +5.125131E-03 +8.238697E-06 +1.035072E-04 +8.238697E-06 +2.477536E-04 
 -4.151745E-04 -9.071012E-05 +1.265845E-04 -9.071012E-05 +5.124598E-03 +4.611889E-05 +1.265845E-04 +4.611889E-05 +2.109553E-04 
 -3.831761E-04 -1.222650E-04 +1.254046E-04 -1.222650E-04 +5.177160E-03 +7.159285E-05 +1.254046E-04 +7.159285E-05 +1.240144E-04 
 -2.873803E-04 -1.033940E-04 +7.401467E-05 -1.033940E-04 +5.240652E-03 +4.444882E-05 +7.401467E-05 +4.444882E-05 +6.886399E-05 
 -2.019497E-04 -3.768969E-05 -3.583648E-04 -3.768969E-05 +5.204116E-03 +7.645838E-06 -3.583648E-04 +7.645838E-06 +5.666212E-05 
 -1.075191E-04 -1.318613E-05 +1.339210E-04 -1.318613E-05 +5.072960E-03 -1.980477E-05 +1.339210E-04 -1.980477E-05 +9.722439E-05 
 +1.312983E-05 -4.601144E-05 -7.682718E-05 -4.601144E-05 +4.948667E-03 -7.324646E-05 -7.682718E-05 -7.324646E-05 +9.061225E-05 
 +3.163846E-05 +4.296965E-05 +1.994059E-04 +4.296965E-05 +4.877145E-03 -7.109646E-05 +1.994059E-04 -7.109646E-05 +2.008446E-04 
 +1.509599E-04 +1.807681E-05 -9.271508E-05 +1.807681E-05 +4.857579E-03 -5.237960E-05 -9.271508E-05 -5.237960E-05 +3.130163E-04 
 +1.593038E-04 +1.006217E-05 -1.015296E-04 +1.006217E-05 +4.891369E-03 -6.424738E-05 -1.015296E-04 -6.424738E-05 +1.797888E-04 
 +2.480683E-04 +1.023566E-04 -2.753069E-04 +1.023566E-04 +4.902131E-03 -1.084022E-04 -2.753069E-04 -1.084022E-04 +4.928423E-05 
 +2.540558E-04 +6.566206E-05 -2.096075E-04 +6.566206E-05 +4.905856E-03 -1.290989E-04 -2.096075E-04 -1.290989E-04 -4.728949E-05 
 +2.280368E-04 +7.582640E-05 -2.183152E-04 +7.582640E-05 +4.944622E-03 -7.808228E-05 -2.183152E-04 -7.808228E-05 -1.480174E-04 
 +2.322371E-04 +7.618171E-05 -1.918914E-04 +7.618171E-05 +4.991765E-03 +7.689283E-06 -1.918914E-04 +7.689283E-06 -2.485705E-04 
 +2.027313E-04 +7.921907E-05 -2.231123E-04 +7.921907E-05 +5.044649E-03 +9.852063E-05 -2.231123E-04 +9.852063E-05 -2.614703E-04 
 +1.352902E-04 -8.281720E-06 -2.149733E-04 -8.281720E-06 +5.078166E-03 +1.501739E-04 -2.149733E-04 +1.501739E-04 -1.952202E-04 
 +1.763469E-04 -4.209591E-05 -1.797522E-04 -4.209591E-05 +5.085904E-03 +1.311447E-04 -1.797522E-04 +1.311447E-04 -1.953369E-04 
 +1.886420E-04 -2.558840E-05 -1.519184E-04 -2.558840E-05 +5.174233E-03 +4.785013E-05 -1.519184E-04 +4.785013E-05 -1.896723E-04 
 +1.691779E-04 -7.408630E-05 -1.105143E-04 -7.408630E-05 +5.265856E-03 +1.003981E-05 -1.105143E-04 +1.003981E-05 -1.340258E-04 
 +7.252628E-05 -6.244310E-05 -3.590932E-04 -6.244310E-05 +5.230767E-03 -2.081359E-05 -3.590932E-04 -2.081359E-05 -4.215295E-05 
 -3.798437E-04 -8.219552E-05 +1.779960E-04 -8.219552E-05 +5.166570E-03 +5.177688E-05 +1.779960E-04 +5.177688E-05 +1.480219E-04 
 -4.196223E-04 -6.869011E-05 +1.517527E-04 -6.869011E-05 +5.121767E-03 +6.682953E-05 +1.517527E-04 +6.682953E-05 +2.427824E-04 
 -4.201247E-04 -8.881874E-05 +1.641442E-04 -8.881874E-05 +5.148204E-03 +7.012168E-05 +1.641442E-04 +7.012168E-05 +1.972042E-04 
 -3.883260E-04 -1.287385E-04 +1.211698E-04 -1.287385E-04 +5.205212E-03 +5.400987E-05 +1.211698E-04 +5.400987E-05 +1.024260E-04 
 -4.302477E-04 -8.967149E-05 -1.643680E-05 -8.967149E-05 +5.274259E-03 +7.456724E-06 -1.643680E-05 +7.456724E-06 +7.329994E-05 
 -3.873129E-04 -2.867498E-05 -2.847182E-04 -2.867498E-05 +5.215069E-03 +8.749216E-05 -2.847182E-04 +8.749216E-05 +5.150275E-05 
 +1.472144E-06 -2.834414E-05 +2.361162E-06 -2.834414E-05 +5.008950E-03 +9.949818E-05 +2.361162E-06 +9.949818E-05 +2.798384E-05 
 +1.675805E-04 -7.969151E-05 -1.776470E-05 -7.969151E-05 +4.815321E-03 +5.602642E-05 -1.776470E-05 +5.602642E-05 +5.525820E-05 
 +1.681811E-04 -4.511366E-05 +6.906286E-05 -4.511366E-05 +4.734697E-03 +2.231368E-05 +6.906286E-05 +2.231368E-05 +1.433723E-04 
 +1.165924E-04 -1.880370E-05 -1.053646E-04 -1.880370E-05 +4.829034E-03 -7.554827E-05 -1.053646E-04 -7.554827E-05 +2.183298E-04 
 +1.488577E-04 -3.256843E-05 -8.364272E-05 -3.256843E-05 +4.946065E-03 -1.392218E-04 -8.364272E-05 -1.392218E-04 +1.289066E-04 
 +3.358932E-04 +4.522690E-05 -2.324150E-04 +4.522690E-05 +4.928972E-03 -1.743651E-04 -2.324150E-04 -1.743651E-04 -1.280317E-05 
 +3.296034E-04 +5.468095E-05 -1.605365E-04 +5.468095E-05 +4.924461E-03 -1.340749E-04 -1.605365E-04 -1.340749E-04 -8.187881E-05 
 +1.665328E-04 +2.234753E-06 -1.885915E-04 +2.234753E-06 +4.966827E-03 -1.017558E-04 -1.885915E-04 -1.017558E-04 -8.049328E-05 
 +1.622418E-04 -4.254984E-05 -9.414779E-05 -4.254984E-05 +5.013335E-03 -9.734623E-06 -9.414779E-05 -9.734623E-06 -2.246085E-04 
 +1.770602E-04 -3.763444E-05 -2.169381E-04 -3.763444E-05 +5.067573E-03 +1.010390E-04 -2.169381E-04 +1.010390E-04 -3.105461E-04 
 +1.379785E-04 -1.013266E-04 -2.363278E-04 -1.013266E-04 +5.065779E-03 +1.416486E-04 -2.363278E-04 +1.416486E-04 -1.994098E-04 
 +1.651938E-04 -7.718488E-05 -2.353460E-04 -7.718488E-05 +5.108625E-03 +1.379278E-04 -2.353460E-04 +1.379278E-04 -1.926245E-04 
 +1.416187E-04 -4.843917E-05 -2.133581E-04 -4.843917E-05 +5.158930E-03 +7.529090E-05 -2.133581E-04 +7.529090E-05 -1.732272E-04 
 +1.711910E-04 -1.167707E-04 -4.689947E-05 -1.167707E-04 +5.160865E-03 +1.061712E-05 -4.689947E-05 +1.061712E-05 -8.382393E-05 
 +3.559324E-05 -1.044245E-04 -3.134167E-04 -1.044245E-04 +5.194626E-03 +1.928090E-05 -3.134167E-04 +1.928090E-05 +1.061375E-05 
 -3.506962E-04 -7.082674E-05 +2.133521E-04 -7.082674E-05 +5.152274E-03 +1.197925E-04 +2.133521E-04 +1.197925E-04 +1.871644E-04 
 -4.250958E-04 -3.020622E-05 +1.792836E-04 -3.020622E-05 +5.143126E-03 +7.956394E-05 +1.792836E-04 +7.956394E-05 +2.352943E-04 
 -4.322895E-04 -4.422279E-05 +1.823479E-04 -4.422279E-05 +5.188683E-03 +4.729420E-05 +1.823479E-04 +4.729420E-05 +1.851535E-04 
 -4.473642E-04 -6.853519E-05 +1.202789E-04 -6.853519E-05 +5.238669E-03 -1.256602E-05 +1.202789E-04 -1.256602E-05 +1.237932E-04 
 -4.983537E-04 -8.462691E-05 +8.205790E-05 -8.462691E-05 +5.238418E-03 -1.193935E-05 +8.205790E-05 -1.193935E-05 +1.197826E-04 
 -3.038895E-04 -7.434920E-06 -2.249652E-04 -7.434920E-06 +5.183268E-03 -1.498644E-05 -2.249652E-04 -1.498644E-05 +4.198321E-05 
 +7.170751E-05 +7.350453E-05 -1.115545E-04 +7.350453E-05 +5.078838E-03 -2.739039E-05 -1.115545E-04 -2.739039E-05 -3.373599E-05 
 +1.437378E-04 +9.597453E-06 +2.368286E-05 +9.597453E-06 +4.980246E-03 -3.541774E-05 +2.368286E-05 -3.541774E-05 -1.448504E-05 
 +1.877582E-04 +7.590099E-05 -7.934874E-05 +7.590099E-05 +5.007738E-03 -1.123633E-04 -7.934874E-05 -1.123633E-04 -4.546412E-05 
 +1.338718E-04 +8.127497E-05 -1.406350E-04 +8.127497E-05 +5.009125E-03 -1.423761E-04 -1.406350E-04 -1.423761E-04 -3.794564E-05 
 +1.593955E-04 +6.595964E-05 -6.603034E-05 +6.595964E-05 +4.950344E-03 -1.739334E-04 -6.603034E-05 -1.739334E-04 -5.817007E-05 
 +3.079553E-04 +4.739930E-05 +6.317732E-05 +4.739930E-05 +4.968598E-03 -8.409425E-05 +6.317732E-05 -8.409425E-05 -1.835423E-04 
 +3.170593E-04 -9.274136E-06 +2.293039E-06 -9.274136E-06 +5.005646E-03 -1.244057E-06 +2.293039E-06 -1.244057E-06 -1.888596E-04 
 +7.339732E-05 -9.845214E-05 +6.149836E-06 -9.845214E-05 +4.998841E-03 -3.150506E-05 +6.149836E-06 -3.150506E-05 -6.167319E-05 
 +5.856750E-05 -9.910958E-05 +1.189952E-04 -9.910958E-05 +4.959692E-03 -1.065025E-05 +1.189952E-04 -1.065025E-05 -1.567538E-04 
 +1.828884E-04 -1.027465E-04 -9.938953E-05 -1.027465E-04 +4.951499E-03 -6.913198E-06 -9.938953E-05 -6.913198E-06 -2.669910E-04 
 +1.529804E-04 -2.085304E-04 -1.630598E-04 -2.085304E-04 +4.983291E-03 +8.422393E-05 -1.630598E-04 +8.422393E-05 -1.287246E-04 
 +1.581465E-04 -1.518522E-04 -2.655314E-04 -1.518522E-04 +5.035855E-03 +1.240009E-04 -2.655314E-04 +1.240009E-04 -8.984017E-05 
 +1.880514E-04 -8.857368E-05 -1.988023E-04 -8.857368E-05 +5.153483E-03 +9.366971E-05 -1.988023E-04 +9.366971E-05 -9.659237E-05 
 +2.136164E-04 -9.313247E-05 -5.611560E-05 -9.313247E-05 +5.314457E-03 +1.231381E-04 -5.611560E-05 +1.231381E-04 -2.682506E-05 
 +1.086023E-04 -1.116083E-04 -2.591588E-04 -1.116083E-04 +5.281909E-03 +1.346220E-04 -2.591588E-04 +1.346220E-04 +8.327989E-05 
 -4.010579E-04 -6.698954E-06 +1.839504E-04 -6.698954E-06 +5.098810E-03 +1.309827E-04 +1.839504E-04 +1.309827E-04 +2.556500E-04 
 -4.589942E-04 +3.317100E-05 +1.585621E-04 +3.317100E-05 +5.168049E-03 +4.912178E-05 +1.585621E-04 +4.912178E-05 +2.241733E-04 
 -4.323980E-04 +8.640587E-06 +1.746571E-04 +8.640587E-06 +5.224856E-03 -3.145325E-05 +1.746571E-04 -3.145325E-05 +1.645756E-04 
 -4.533757E-04 -1.266037E-06 +1.415190E-04 -1.266037E-06 +5.244766E-03 -6.464196E-05 +1.415190E-04 -6.464196E-05 +1.606323E-04 
 -5.502382E-04 -1.463526E-06 +1.692476E-04 -1.463526E-06 +5.200341E-03 -1.057683E-04 +1.692476E-04 -1.057683E-04 +1.788029E-04 
 -1.434906E-04 +3.929096E-05 -1.737184E-04 +3.929096E-05 +5.112482E-03 -7.763967E-05 -1.737184E-04 -7.763967E-05 +5.592683E-05 
 +7.917230E-05 +3.185478E-05 -1.958754E-04 +3.185478E-05 +5.106679E-03 -3.856441E-05 -1.958754E-04 -3.856441E-05 -9.523490E-05 
 +1.043883E-04 -3.486846E-06 -1.074895E-04 -3.486846E-06 +5.157222E-03 -9.307361E-05 -1.074895E-04 -9.307361E-05 -1.593315E-04 
 +1.529336E-04 +7.788710E-05 -1.600982E-04 +7.788710E-05 +5.116460E-03 -1.030201E-04 -1.600982E-04 -1.030201E-04 -2.660166E-04 
 +1.794534E-04 +5.582707E-05 -2.607741E-05 +5.582707E-05 +5.045882E-03 -4.626633E-06 -2.607741E-05 -4.626633E-06 -3.022010E-04 
 +1.848293E-04 +7.913336E-05 -2.030882E-05 +7.913336E-05 +5.033314E-03 +1.995162E-05 -2.030882E-05 +1.995162E-05 -2.498299E-04 
 +1.572309E-04 +8.556795E-05 +3.462598E-04 +8.556795E-05 +4.996951E-03 +8.747175E-06 +3.462598E-04 +8.747175E-06 -2.286892E-04 
 +3.302716E-04 +9.116771E-05 +9.928656E-05 +9.116771E-05 +4.964787E-03 +5.016549E-05 +9.928656E-05 +5.016549E-05 -1.865895E-04 
 +5.907814E-05 +6.001784E-05 +1.293501E-04 +6.001784E-05 +5.000677E-03 +2.520801E-05 +1.293501E-04 +2.520801E-05 -1.245858E-04 
 -1.923086E-05 +5.164651E-05 +2.238546E-04 +5.164651E-05 +5.003185E-03 -3.448731E-05 +2.238546E-04 -3.448731E-05 -1.305714E-04 
 +8.655563E-05 +4.224424E-05 +1.311320E-04 +4.224424E-05 +4.951792E-03 -1.180448E-04 +1.311320E-04 -1.180448E-04 -1.379087E-04 
 +2.627168E-05 -1.276288E-04 +1.565668E-04 -1.276288E-04 +4.955598E-03 -1.507817E-05 +1.565668E-04 -1.507817E-05 -7.726189E-06 
 +1.563575E-04 -1.687192E-04 -3.379074E-04 -1.687192E-04 +4.910681E-03 +4.116555E-05 -3.379074E-04 +4.116555E-05 +4.302601E-05 
 +3.262218E-04 -7.193451E-05 -1.003291E-04 -7.193451E-05 +4.773217E-03 -1.125615E-05 -1.003291E-04 -1.125615E-05 +4.169995E-05 
 +3.838289E-04 +2.242398E-06 -2.961508E-05 +2.242398E-06 +4.701947E-03 +3.478997E-05 -2.961508E-05 +3.478997E-05 +1.209534E-04 
 +2.320973E-04 +2.331826E-05 -1.484722E-04 +2.331826E-05 +4.890544E-03 +1.076303E-04 -1.484722E-04 +1.076303E-04 +2.238521E-04 
 -4.189605E-04 +5.330626E-06 +9.913443E-05 +5.330626E-06 +4.985848E-03 +6.871027E-05 +9.913443E-05 +6.871027E-05 +3.384998E-04 
 -4.546429E-04 +5.666590E-05 +1.323903E-04 +5.666590E-05 +5.171761E-03 -4.075577E-05 +1.323903E-04 -4.075577E-05 +3.132026E-04 
 -3.862822E-04 +4.071895E-05 +1.463058E-04 +4.071895E-05 +5.190264E-03 -1.293767E-04 +1.463058E-04 -1.293767E-04 +2.579054E-04 
 -4.139512E-04 +4.590347E-05 +1.774357E-04 +4.590347E-05 +5.157151E-03 -1.271383E-04 +1.774357E-04 -1.271383E-04 +2.656166E-04 
 -4.796385E-04 +4.938765E-05 +1.033194E-04 +4.938765E-05 +5.141564E-03 -1.392886E-04 +1.033194E-04 -1.392886E-04 +2.567590E-04 
 -3.131817E-04 +2.254977E-05 +2.290307E-05 +2.254977E-05 +5.138553E-03 -6.213627E-05 +2.290307E-05 -6.213627E-05 +1.149476E-04 
 +1.075049E-04 +5.201512E-06 -3.221010E-04 +5.201512E-06 +5.132924E-03 +1.423620E-06 -3.221010E-04 +1.423620E-06 -1.036581E-04 
 +1.295038E-04 -5.465096E-06 -1.834515E-04 -5.465096E-06 +5.142558E-03 -4.170362E-05 -1.834515E-04 -4.170362E-05 -2.299478E-04 
 +1.572958E-04 +5.368596E-05 -1.859822E-04 +5.368596E-05 +5.112007E-03 +2.516662E-05 -1.859822E-04 +2.516662E-05 -3.560152E-04 
 +2.156722E-04 +7.942874E-05 +2.092441E-04 +7.942874E-05 +5.060191E-03 +8.589456E-05 +2.092441E-04 +8.589456E-05 -4.330700E-04 
 +2.163101E-04 +9.892690E-05 +5.183688E-05 +9.892690E-05 +5.036396E-03 +1.736902E-05 +5.183688E-05 +1.736902E-05 -3.734773E-04 
 +8.840828E-05 +1.052765E-04 +3.918516E-04 +1.052765E-04 +5.018087E-03 -7.120766E-05 +3.918516E-04 -7.120766E-05 -1.933276E-04 
 +3.171963E-04 +9.483817E-05 +1.103098E-04 +9.483817E-05 +4.971266E-03 -8.104466E-05 +1.103098E-04 -8.104466E-05 -9.161500E-05 
 +4.880025E-05 +4.883693E-05 +1.322031E-04 +4.883693E-05 +4.977559E-03 -7.537888E-05 +1.322031E-04 -7.537888E-05 -9.841799E-05 
 -4.512856E-05 -2.516937E-06 +1.931159E-04 -2.516937E-06 +5.034153E-03 -6.348266E-05 +1.931159E-04 -6.348266E-05 -4.712729E-05 
 -4.748347E-05 +7.847964E-06 +2.526214E-04 +7.847964E-06 +5.024033E-03 -5.565305E-05 +2.526214E-04 -5.565305E-05 -1.254038E-05 
 -5.397603E-05 -2.819711E-05 +3.815683E-04 -2.819711E-05 +5.008066E-03 -8.886811E-05 +3.815683E-04 -8.886811E-05 +6.513236E-05 
 +1.127045E-04 -1.206733E-04 -3.299879E-04 -1.206733E-04 +4.896555E-03 -4.585695E-05 -3.299879E-04 -4.585695E-05 +7.835538E-05 
 +4.415028E-04 -5.575331E-05 -4.489810E-05 -5.575331E-05 +4.670153E-03 +5.141036E-05 -4.489810E-05 +5.141036E-05 +6.049302E-05 
 +4.442781E-04 -2.179872E-05 -2.843445E-05 -2.179872E-05 +4.545832E-03 +5.439523E-05 -2.843445E-05 +5.439523E-05 +1.305784E-04 
 +3.339082E-04 +7.739288E-05 -5.769948E-05 +7.739288E-05 +4.671815E-03 +6.990769E-05 -5.769948E-05 +6.990769E-05 +2.498858E-04 
 -2.996335E-04 -2.481741E-05 -8.059745E-06 -2.481741E-05 +4.968357E-03 +4.697163E-05 -8.059745E-06 +4.697163E-05 +2.189362E-04 
 -2.711723E-04 -1.243830E-05 +8.108111E-05 -1.243830E-05 +5.143787E-03 -4.236826E-05 +8.108111E-05 -4.236826E-05 +1.932749E-04 
 -1.851049E-04 +5.501778E-05 +7.477741E-05 +5.501778E-05 +5.144926E-03 -1.168804E-04 +7.477741E-05 -1.168804E-04 +2.311083E-04 
 -4.505103E-04 +6.235820E-05 +2.120682E-04 +6.235820E-05 +5.091366E-03 -1.533667E-04 +2.120682E-04 -1.533667E-04 +3.418053E-04 
 -4.584607E-04 +4.944689E-05 +8.243284E-05 +4.944689E-05 +5.122485E-03 -1.187095E-04 +8.243284E-05 -1.187095E-04 +3.403583E-04 
 -4.753202E-04 +2.325717E-05 +1.423871E-04 +2.325717E-05 +5.179890E-03 -5.764860E-05 +1.423871E-04 -5.764860E-05 +1.876330E-04 
 +1.300836E-04 +4.961436E-05 -4.020341E-04 +4.961436E-05 +5.134265E-03 -1.100262E-05 -4.020341E-04 -1.100262E-05 -5.131359E-05 
 +1.669379E-04 +3.015455E-05 -2.165740E-04 +3.015455E-05 +5.092732E-03 +9.876286E-06 -2.165740E-04 +9.876286E-06 -2.030583E-04 
 +1.883304E-04 +4.833065E-05 -2.019469E-04 +4.833065E-05 +5.082695E-03 +7.849435E-05 -2.019469E-04 +7.849435E-05 -3.551088E-04 
 +2.411324E-04 +9.218994E-05 +3.095832E-04 +9.218994E-05 +5.095503E-03 +1.557728E-04 +3.095832E-04 +1.557728E-04 -4.748145E-04 
 +2.308772E-04 +1.043289E-04 +8.125850E-05 +1.043289E-04 +5.115476E-03 +1.110388E-04 +8.125850E-05 +1.110388E-04 -4.481303E-04 
 +7.519836E-05 +7.854893E-05 +3.215987E-04 +7.854893E-05 +5.050515E-03 -6.177965E-05 +3.215987E-04 -6.177965E-05 -1.608183E-04 
 +1.306046E-04 +5.650951E-05 +1.678710E-04 +5.650951E-05 +4.997893E-03 -1.650805E-04 +1.678710E-04 -1.650805E-04 +3.966096E-05 
 -3.576295E-06 +1.507359E-06 +1.329726E-04 +1.507359E-06 +5.001556E-03 -1.222259E-04 +1.329726E-04 -1.222259E-04 +1.664648E-05 
 -6.127829E-05 -7.060223E-05 +1.786503E-04 -7.060223E-05 +5.010778E-03 -6.532965E-05 +1.786503E-04 -6.532965E-05 +6.475936E-05 
 -7.155800E-05 -7.828432E-05 +3.027725E-04 -7.828432E-05 +4.995891E-03 -5.852364E-05 +3.027725E-04 -5.852364E-05 +9.236677E-05 
 +2.896900E-05 -6.739465E-05 +3.733103E-04 -6.739465E-05 +4.909580E-03 -1.591458E-04 +3.733103E-04 -1.591458E-04 +8.907769E-05 
 +1.985075E-04 -1.110369E-04 -1.093873E-04 -1.110369E-04 +4.853764E-03 -1.002114E-04 -1.093873E-04 -1.002114E-04 +1.003008E-05 
 +3.866989E-04 -3.153326E-05 -1.539409E-05 -3.153326E-05 +4.828539E-03 +5.274707E-05 -1.539409E-05 +5.274707E-05 -6.174058E-05 
 +3.161295E-04 -3.044602E-05 -7.405089E-06 -3.044602E-05 +4.751613E-03 +6.477483E-05 -7.405089E-06 +6.477483E-05 -1.889861E-05 
 +1.829597E-04 +8.898419E-05 +2.269891E-05 +8.898419E-05 +4.764846E-03 +8.445546E-05 +2.269891E-05 +8.445546E-05 +1.159738E-04 
 -1.154150E-04 -5.950467E-05 -1.104668E-04 -5.950467E-05 +5.109037E-03 +4.972343E-05 -1.104668E-04 +4.972343E-05 -6.833832E-05 
 +2.965255E-05 -1.124776E-04 +3.457834E-05 -1.124776E-04 +5.076364E-03 +1.102923E-05 +3.457834E-05 +1.102923E-05 -7.986045E-05 
 +1.232131E-04 -4.784020E-05 +4.886687E-05 -4.784020E-05 +5.105487E-03 -4.133049E-05 +4.886687E-05 -4.133049E-05 +5.585100E-05 
 -5.256386E-04 -5.019715E-05 +2.534040E-04 -5.019715E-05 +5.148674E-03 -1.306473E-04 +2.534040E-04 -1.306473E-04 +3.328681E-04 
 -5.182442E-04 -1.000557E-05 +1.588851E-04 -1.000557E-05 +5.114297E-03 -7.246446E-05 +1.588851E-04 -7.246446E-05 +4.004607E-04 
 -3.456624E-04 +1.726202E-05 +3.338704E-05 +1.726202E-05 +5.105146E-03 -4.432386E-05 +3.338704E-05 -4.432386E-05 +2.420121E-04 
 +1.053640E-04 +6.855891E-05 -3.831473E-04 +6.855891E-05 +5.094880E-03 -4.437995E-05 -3.831473E-04 -4.437995E-05 +1.297439E-05 
 +1.582583E-04 +7.369016E-05 -2.577487E-04 +7.369016E-05 +5.078921E-03 +4.062776E-05 -2.577487E-04 +4.062776E-05 -1.553402E-04 
 +1.955502E-04 +5.773181E-05 -2.649492E-04 +5.773181E-05 +5.084849E-03 +1.300389E-04 -2.649492E-04 +1.300389E-04 -3.381685E-04 
 +2.528251E-04 +9.989773E-05 +1.571236E-04 +9.989773E-05 +5.056436E-03 +1.454577E-04 +1.571236E-04 +1.454577E-04 -4.414815E-04 
 +2.088686E-04 +8.502920E-05 -2.321928E-05 +8.502920E-05 +5.037753E-03 +3.130017E-05 -2.321928E-05 +3.130017E-05 -3.624438E-04 
 +3.757155E-05 +1.248115E-05 +2.129583E-04 +1.248115E-05 +5.068310E-03 -6.792523E-05 +2.129583E-04 -6.792523E-05 -1.155956E-04 
 -3.809318E-05 +3.163761E-05 +1.762833E-04 +3.163761E-05 +5.071660E-03 -1.215693E-04 +1.762833E-04 -1.215693E-04 +7.917273E-05 
 -8.884545E-05 +7.334688E-06 +1.327819E-04 +7.334688E-06 +5.033458E-03 -1.009902E-04 +1.327819E-04 -1.009902E-04 +1.033261E-04 
 -8.637007E-05 -5.460857E-05 +2.166448E-04 -5.460857E-05 +5.012894E-03 -7.096928E-05 +2.166448E-04 -7.096928E-05 +1.586937E-04 
 -2.949044E-05 -8.324903E-05 +3.182173E-04 -8.324903E-05 +4.992710E-03 -7.249772E-05 +3.182173E-04 -7.249772E-05 +1.938854E-04 
 +8.995905E-05 -1.212774E-04 +2.817130E-04 -1.212774E-04 +4.937879E-03 -1.103303E-04 +2.817130E-04 -1.103303E-04 +6.230382E-05 
 +3.694516E-04 -1.494481E-04 +1.156507E-04 -1.494481E-04 +4.934886E-03 -6.402261E-05 +1.156507E-04 -6.402261E-05 -1.290659E-04 
 +2.569610E-04 -6.946982E-05 +3.380938E-05 -6.946982E-05 +5.070767E-03 +3.240724E-05 +3.380938E-05 +3.240724E-05 -2.184427E-04 
 +7.461382E-05 -1.403195E-04 +7.819835E-05 -1.403195E-04 +5.206568E-03 +6.192057E-05 +7.819835E-05 +6.192057E-05 -1.942820E-04 
 -1.546934E-04 -4.771483E-05 +1.333677E-04 -4.771483E-05 +5.177443E-03 +7.597646E-05 +1.333677E-04 +7.597646E-05 -1.042711E-04 
 +5.145508E-05 +9.708396E-05 -7.043615E-05 +9.708396E-05 +4.897432E-03 +7.158858E-05 -7.043615E-05 +7.158858E-05 +2.202252E-05 
 +1.504742E-04 -5.461100E-05 +8.284446E-05 -5.461100E-05 +4.849964E-03 +6.999547E-05 +8.284446E-05 +6.999547E-05 +3.012506E-05 
 +1.901254E-04 -8.473827E-05 +9.228248E-05 -8.473827E-05 +4.948590E-03 +2.032002E-05 +9.228248E-05 +2.032002E-05 +1.035340E-04 
 -3.401926E-04 -1.535040E-04 +2.243930E-04 -1.535040E-04 +5.128759E-03 -7.447211E-05 +2.243930E-04 -7.447211E-05 +3.334666E-04 
 -5.418935E-04 -7.864782E-05 +3.081397E-04 -7.864782E-05 +5.086883E-03 -1.035012E-04 +3.081397E-04 -1.035012E-04 +4.281811E-04 
 -9.332366E-05 +4.769074E-05 -1.954335E-04 +4.769074E-05 +4.993333E-03 -1.018988E-04 -1.954335E-04 -1.018988E-04 +2.790275E-04 
 +9.556153E-05 +7.731624E-05 -3.080868E-04 +7.731624E-05 +5.020248E-03 -7.276523E-05 -3.080868E-04 -7.276523E-05 +1.050648E-04 
 +1.253756E-04 +1.070670E-04 -3.121537E-04 +1.070670E-04 +5.031017E-03 +4.103631E-05 -3.121537E-04 +4.103631E-05 -5.720285E-06 
 +1.752005E-04 +7.749312E-05 -3.581365E-04 +7.749312E-05 +5.030458E-03 +1.384663E-04 -3.581365E-04 +1.384663E-04 -1.946859E-04 
 +2.103201E-04 +7.961899E-05 -1.663646E-04 +7.961899E-05 +5.030236E-03 +1.208008E-04 -1.663646E-04 +1.208008E-04 -3.193134E-04 
 +1.682522E-04 +8.931179E-05 -1.341724E-04 +8.931179E-05 +5.069674E-03 +2.840982E-05 -1.341724E-04 +2.840982E-05 -2.510566E-04 
 -2.831105E-05 +1.613020E-05 +1.594432E-04 +1.613020E-05 +5.115589E-03 +4.921143E-05 +1.594432E-04 +4.921143E-05 -7.847073E-05 
 -1.260619E-04 -4.392954E-06 +6.390573E-05 -4.392954E-06 +5.106217E-03 +3.034680E-05 +6.390573E-05 +3.034680E-05 +1.053173E-04 
 -1.680446E-04 -2.651582E-05 +6.040176E-05 -2.651582E-05 +5.053208E-03 -4.645596E-05 +6.040176E-05 -4.645596E-05 +2.174328E-04 
 -7.373396E-05 -3.030780E-05 +1.619439E-04 -3.030780E-05 +5.031251E-03 -1.098404E-04 +1.619439E-04 -1.098404E-04 +2.712600E-04 
 +5.066530E-05 -4.712847E-05 +2.710633E-04 -4.712847E-05 +5.031389E-03 -9.111016E-05 +2.710633E-04 -9.111016E-05 +1.379303E-04 
 +2.255663E-04 -2.091800E-05 +1.847246E-04 -2.091800E-05 +4.996100E-03 -3.163500E-05 +1.847246E-04 -3.163500E-05 -6.717571E-05 
 +1.986195E-04 -6.375870E-05 +1.943737E-04 -6.375870E-05 +5.013401E-03 -3.937993E-06 +1.943737E-04 -3.937993E-06 -1.649849E-04 
 +1.099679E-04 -1.153188E-04 +1.003574E-04 -1.153188E-04 +5.087978E-03 +4.146753E-05 +1.003574E-04 +4.146753E-05 -2.122158E-04 
 -1.724626E-04 -1.893724E-04 +1.394248E-04 -1.893724E-04 +5.183858E-03 +8.316237E-05 +1.394248E-04 +8.316237E-05 -2.480684E-04 
 -2.077038E-04 -8.191651E-05 +1.891526E-04 -8.191651E-05 +5.088903E-03 +5.974566E-05 +1.891526E-04 +5.974566E-05 -1.194918E-04 
 +1.675436E-04 +9.754538E-05 +6.162943E-06 +9.754538E-05 +4.811754E-03 +7.698436E-05 +6.162943E-06 +7.698436E-05 +1.232130E-04 
 +1.381010E-04 +1.748125E-06 +1.074613E-04 +1.748125E-06 +4.828645E-03 +9.929470E-05 +1.074613E-04 +9.929470E-05 +1.049521E-04 
 +8.280053E-05 +3.627399E-05 +1.105956E-04 +3.627399E-05 +4.837096E-03 +8.778579E-05 +1.105956E-04 +8.778579E-05 +1.272838E-04 
 -4.875850E-05 -2.838382E-06 +1.446938E-04 -2.838382E-06 +4.910442E-03 +4.608376E-05 +1.446938E-04 +4.608376E-05 +2.770184E-04 
 -5.249786E-04 -1.169080E-04 +3.384849E-04 -1.169080E-04 +5.045069E-03 -1.020527E-04 +3.384849E-04 -1.020527E-04 +4.058480E-04 
 +5.163075E-05 -1.509346E-05 -2.295867E-04 -1.509346E-05 +5.018599E-03 -1.201987E-04 -2.295867E-04 -1.201987E-04 +2.663342E-04 
 +1.324421E-04 +9.184624E-06 -2.555264E-04 +9.184624E-06 +4.974894E-03 -4.256652E-06 -2.555264E-04 -4.256652E-06 +1.287313E-04 
 +1.137323E-04 +5.150706E-05 -3.292241E-04 +5.150706E-05 +4.982218E-03 +6.046530E-05 -3.292241E-04 +6.046530E-05 +9.565014E-05 
 +1.707168E-04 +3.867480E-05 -3.892436E-04 +3.867480E-05 +4.965817E-03 +1.335453E-04 -3.892436E-04 +1.335453E-04 -5.192839E-05 
 +1.897786E-04 +1.029973E-04 -2.985602E-04 +1.029973E-04 +4.958584E-03 +1.237785E-04 -2.985602E-04 +1.237785E-04 -1.670718E-04 
 +1.429831E-04 +1.991912E-04 -1.394060E-04 +1.991912E-04 +5.053593E-03 +1.002363E-04 -1.394060E-04 +1.002363E-04 -1.120819E-04 
 -1.019244E-04 +6.342495E-05 +1.276091E-04 +6.342495E-05 +5.137157E-03 +1.494642E-04 +1.276091E-04 +1.494642E-04 +2.340276E-05 
 -2.047153E-04 +2.254254E-05 -3.035389E-05 +2.254254E-05 +5.102790E-03 +1.340362E-04 -3.035389E-05 +1.340362E-04 +1.333312E-04 
 -1.721588E-04 +1.874642E-05 -5.123143E-05 +1.874642E-05 +5.032254E-03 +5.731422E-05 -5.123143E-05 +5.731422E-05 +2.507172E-04 
 -5.115639E-05 +8.180117E-05 +3.300928E-05 +8.180117E-05 +5.003644E-03 -1.169435E-05 +3.300928E-05 -1.169435E-05 +2.415583E-04 
 +2.623876E-04 +8.094436E-05 +1.973923E-04 +8.094436E-05 +5.009542E-03 -5.014087E-05 +1.973923E-04 -5.014087E-05 -2.873849E-05 
 +2.015838E-04 +1.623353E-05 +1.674003E-04 +1.623353E-05 +5.009726E-03 -3.127519E-05 +1.674003E-04 -3.127519E-05 -9.418148E-05 
 -1.254535E-04 -4.301992E-05 +1.988412E-04 -4.301992E-05 +5.078308E-03 -2.659901E-05 +1.988412E-04 -2.659901E-05 -3.239284E-05 
 -1.045656E-04 -7.928387E-05 +1.509555E-04 -7.928387E-05 +5.132387E-03 -1.579227E-05 +1.509555E-04 -1.579227E-05 -5.524604E-05 
 -2.216283E-04 -1.054099E-04 +1.440596E-04 -1.054099E-04 +5.091313E-03 +4.177721E-05 +1.440596E-04 +4.177721E-05 -1.439345E-04 
 -9.848445E-05 -1.361860E-04 +1.933523E-04 -1.361860E-04 +4.949034E-03 +5.718080E-05 +1.933523E-04 +5.718080E-05 -3.643950E-05 
 +1.684787E-04 +5.105179E-05 -2.871401E-05 +5.105179E-05 +4.825486E-03 +1.039895E-04 -2.871401E-05 +1.039895E-04 +7.378626E-05 
 +1.801663E-04 +4.222089E-05 +6.588478E-05 +4.222089E-05 +4.799418E-03 +1.144732E-04 +6.588478E-05 +1.144732E-04 +9.477337E-05 
 +1.171452E-05 +1.073484E-05 +1.079836E-04 +1.073484E-05 +4.897217E-03 +1.037436E-04 +1.079836E-04 +1.037436E-04 +8.221494E-05 
 +2.591910E-05 -1.226091E-05 +7.510857E-05 -1.226091E-05 +4.962399E-03 +1.225202E-04 +7.510857E-05 +1.225202E-04 +1.668985E-04 
 -3.463617E-04 -1.251892E-04 +9.733951E-05 -1.251892E-04 +5.078619E-03 +4.734293E-05 +9.733951E-05 +4.734293E-05 +2.488746E-04 
 +6.686355E-05 -4.235402E-05 -1.188809E-04 -4.235402E-05 +5.129186E-03 -4.442080E-05 -1.188809E-04 -4.442080E-05 +8.948100E-05 
 +1.501461E-04 -4.553266E-05 -2.071959E-04 -4.553266E-05 +5.058099E-03 +7.477992E-06 -2.071959E-04 +7.477992E-06 -2.727877E-05 
 +1.360578E-04 -8.927099E-06 -2.527856E-04 -8.927099E-06 +4.983407E-03 +7.150585E-05 -2.527856E-04 +7.150585E-05 -6.305487E-05 
 +1.701430E-04 -1.120090E-05 -2.571356E-04 -1.120090E-05 +4.983115E-03 +1.477905E-04 -2.571356E-04 +1.477905E-04 -1.175700E-04 
 +1.503097E-04 -7.129839E-06 -1.820171E-04 -7.129839E-06 +4.999694E-03 +1.804237E-04 -1.820171E-04 +1.804237E-04 -6.063090E-05 
 +1.357349E-04 +1.089440E-04 -4.833652E-05 +1.089440E-04 +5.004728E-03 +2.224481E-04 -4.833652E-05 +2.224481E-04 +2.095429E-05 
 -9.188075E-05 +3.699824E-06 +7.379681E-05 +3.699824E-06 +5.074107E-03 +2.432526E-04 +7.379681E-05 +2.432526E-04 +6.768460E-05 
 -1.156526E-04 +2.255083E-05 +1.905400E-06 +2.255083E-05 +5.096204E-03 +1.398393E-04 +1.905400E-06 +1.398393E-04 +7.456358E-05 
 -1.317676E-04 +8.988143E-05 -3.201361E-05 +8.988143E-05 +5.028274E-03 +8.354640E-05 -3.201361E-05 +8.354640E-05 +1.130494E-04 
 -4.911895E-05 +1.662635E-04 +3.007815E-05 +1.662635E-04 +4.948430E-03 +9.799606E-05 +3.007815E-05 +9.799606E-05 +6.287620E-05 
 +3.925563E-04 +1.131517E-04 +1.131818E-04 +1.131517E-04 +4.943338E-03 +2.269301E-05 +1.131818E-04 +2.269301E-05 -3.880006E-05 
 -1.312021E-04 -4.775547E-05 +2.093133E-04 -4.775547E-05 +5.030697E-03 -3.211286E-05 +2.093133E-04 -3.211286E-05 +5.582121E-05 
 -2.433848E-04 -7.174942E-05 +1.572375E-04 -7.174942E-05 +5.085140E-03 -7.232089E-05 +1.572375E-04 -7.232089E-05 +1.035222E-04 
 -2.031452E-04 -5.219157E-05 +1.459292E-04 -5.219157E-05 +5.071754E-03 -1.118462E-04 +1.459292E-04 -1.118462E-04 -2.642597E-06 
 -7.690719E-05 +1.590498E-05 +3.126361E-05 +1.590498E-05 +5.021990E-03 -5.470013E-05 +3.126361E-05 -5.470013E-05 -1.247159E-04 
 -1.987858E-04 -7.357242E-05 +1.442905E-04 -7.357242E-05 +4.961676E-03 +4.646579E-05 +1.442905E-04 +4.646579E-05 -5.527523E-05 
 -1.827536E-05 +4.874295E-05 -5.249011E-05 +4.874295E-05 +4.899356E-03 +1.006111E-04 -5.249011E-05 +1.006111E-04 +1.183514E-04 
 +7.419238E-05 +8.459294E-05 +2.370237E-05 +8.459294E-05 +4.805582E-03 +2.505518E-04 +2.370237E-05 +2.505518E-04 +1.150628E-04 
 +9.076276E-06 -1.646775E-05 +3.941619E-06 -1.646775E-05 +4.880022E-03 +3.534774E-04 +3.941619E-06 +3.534774E-04 +7.041492E-05 
 +1.927925E-05 -3.837668E-06 -6.264350E-05 -3.837668E-06 +4.879603E-03 +3.047704E-04 -6.264350E-05 +3.047704E-04 +1.029260E-04 
 +4.206859E-05 +1.835928E-05 -1.649680E-04 +1.835928E-05 +4.976277E-03 +1.605614E-04 -1.649680E-04 +1.605614E-04 +1.085227E-04 
 +1.061115E-04 +4.008274E-05 -1.314821E-04 +4.008274E-05 +5.115303E-03 +3.906677E-05 -1.314821E-04 +3.906677E-05 -1.392322E-05 
 +8.775664E-05 +2.412586E-05 -1.129347E-04 +2.412586E-05 +5.096420E-03 +1.597979E-05 -1.129347E-04 +1.597979E-05 -1.294560E-04 
 +1.185113E-04 +2.201532E-05 -7.740486E-05 +2.201532E-05 +5.040475E-03 +1.004033E-04 -7.740486E-05 +1.004033E-04 -1.903737E-04 
 +1.146824E-04 +1.492389E-05 -1.105544E-04 +1.492389E-05 +4.996770E-03 +1.641895E-04 -1.105544E-04 +1.641895E-04 -1.152443E-04 
 +6.120317E-05 -1.767741E-06 -4.280345E-05 -1.767741E-06 +4.958832E-03 +2.055553E-04 -4.280345E-05 +2.055553E-04 +6.063747E-05 
 +1.360870E-04 +6.834601E-05 +6.480847E-05 +6.834601E-05 +4.774147E-03 +2.463366E-04 +6.480847E-05 +2.463366E-04 +8.366769E-05 
 +1.250802E-04 +1.235899E-04 +4.695931E-05 +1.235899E-04 +4.629731E-03 +2.219787E-04 +4.695931E-05 +2.219787E-04 +2.670957E-05 
 -5.932909E-06 +1.149102E-04 +3.389006E-05 +1.149102E-04 +4.702121E-03 +1.907138E-04 +3.389006E-05 +1.907138E-04 +2.284126E-05 
 -1.338378E-04 +1.293152E-04 +2.751520E-07 +1.293152E-04 +4.885617E-03 +1.820048E-04 +2.751520E-07 +1.820048E-04 +2.120623E-05 
 -1.075799E-04 +5.182429E-05 +7.336547E-05 +5.182429E-05 +4.930936E-03 +2.075916E-04 +7.336547E-05 +2.075916E-04 -5.951335E-05 
 +1.674819E-04 -2.536487E-05 +2.804570E-05 -2.536487E-05 +4.877119E-03 +1.854370E-04 +2.804570E-05 +1.854370E-04 -8.630302E-05 
 -2.444537E-04 -9.202853E-05 +1.507390E-04 -9.202853E-05 +5.038953E-03 +6.389070E-05 +1.507390E-04 +6.389070E-05 +2.667125E-05 
 -2.206727E-04 -7.388364E-05 +7.476867E-05 -7.388364E-05 +5.124622E-03 -7.381981E-05 +7.476867E-05 -7.381981E-05 +2.793792E-05 
 -1.565618E-04 -2.128850E-05 +8.570057E-05 -2.128850E-05 +5.046989E-03 -1.465986E-04 +8.570057E-05 -1.465986E-04 -1.638600E-04 
 +7.488499E-05 +2.185808E-05 -1.152150E-04 +2.185808E-05 +5.015574E-03 -1.291796E-04 -1.152150E-04 -1.291796E-04 -2.512665E-04 
 -2.492433E-04 -1.699231E-05 +6.521340E-05 -1.699231E-05 +5.019743E-03 -2.711263E-05 +6.521340E-05 -2.711263E-05 -4.468859E-05 
 -2.394971E-04 -5.242769E-05 +1.361936E-05 -5.242769E-05 +5.180204E-03 +6.934824E-05 +1.361936E-05 +6.934824E-05 +1.478926E-04 
 -1.882166E-04 +3.358655E-05 +5.365762E-05 +3.358655E-05 +5.193190E-03 +1.945616E-04 +5.365762E-05 +1.945616E-04 +3.589715E-05 
 +8.422077E-05 -6.069422E-05 -1.253217E-04 -6.069422E-05 +5.079579E-03 +3.072259E-04 -1.253217E-04 +3.072259E-04 -2.117140E-05 
 +1.090053E-04 -7.573767E-05 -1.797627E-04 -7.573767E-05 +4.943131E-03 +2.330670E-04 -1.797627E-04 +2.330670E-04 +8.253244E-06 
 +2.812000E-04 -5.369050E-05 -1.890867E-04 -5.369050E-05 +4.726116E-03 +1.013748E-04 -1.890867E-04 +1.013748E-04 +2.906513E-05 
 +3.484791E-04 -2.986625E-06 -1.516313E-04 -2.986625E-06 +4.694790E-03 +8.797398E-05 -1.516313E-04 +8.797398E-05 +7.641564E-05 
 +1.316389E-04 +1.089234E-04 -7.554378E-05 +1.089234E-04 +4.903681E-03 +1.086874E-04 -7.554378E-05 +1.086874E-04 +2.313698E-05 
 +3.707401E-05 +1.040842E-04 -8.995107E-06 +1.040842E-04 +4.985808E-03 +9.308394E-05 -8.995107E-06 +9.308394E-05 -4.721925E-05 
 -1.351213E-05 +5.476863E-05 -7.740927E-05 +5.476863E-05 +4.886303E-03 +1.161217E-04 -7.740927E-05 +1.161217E-04 +3.244923E-05 
 +6.227202E-05 +4.516439E-05 +3.564225E-05 +4.516439E-05 +4.756059E-03 +2.212615E-04 +3.564225E-05 +2.212615E-04 +1.210305E-04 
 +1.208646E-04 +8.728421E-05 +5.854566E-05 +8.728421E-05 +4.663571E-03 +2.318819E-04 +5.854566E-05 +2.318819E-04 +9.445936E-05 
 +1.760764E-04 +1.276374E-04 +6.500511E-05 +1.276374E-04 +4.676553E-03 +2.054953E-04 +6.500511E-05 +2.054953E-04 +3.841480E-05 
 -3.105064E-05 +3.084816E-05 -9.421295E-06 +3.084816E-05 +4.845550E-03 +2.467218E-04 -9.421295E-06 +2.467218E-04 +2.174215E-05 
 -1.166365E-04 +3.936574E-05 -4.255869E-05 +3.936574E-05 +4.949799E-03 +2.228936E-04 -4.255869E-05 +2.228936E-04 -9.585271E-06 
 -1.917587E-04 -8.579405E-06 +3.435234E-05 -8.579405E-06 +5.097991E-03 +1.488423E-04 +3.435234E-05 +1.488423E-04 -1.227589E-04 
 -1.013452E-04 -2.098488E-05 -4.204507E-05 -2.098488E-05 +5.278375E-03 +1.047532E-04 -4.204507E-05 +1.047532E-04 -2.452918E-04 
 -1.118702E-04 -2.821202E-08 +4.607210E-05 -2.821202E-08 +5.247661E-03 +4.856996E-05 +4.607210E-05 +4.856996E-05 -1.705942E-04 
 -1.190176E-04 -3.686532E-05 -7.443086E-06 -3.686532E-05 +5.213457E-03 -6.144613E-05 -7.443086E-06 -6.144613E-05 -2.170934E-04 
 -1.106170E-04 +5.683587E-06 -8.941838E-06 +5.683587E-06 +5.190978E-03 -1.563888E-04 -8.941838E-06 -1.563888E-04 -4.141481E-04 
 +6.849098E-05 +1.940170E-06 -1.459365E-04 +1.940170E-06 +5.095258E-03 -1.364278E-04 -1.459365E-04 -1.364278E-04 -3.310333E-04 
 -1.958670E-04 -5.559063E-05 +3.936941E-05 -5.559063E-05 +5.072286E-03 -2.356272E-05 +3.936941E-05 -2.356272E-05 +2.174436E-05 
 -3.361254E-04 -2.981196E-05 +8.484236E-05 -2.981196E-05 +5.138655E-03 +1.067486E-04 +8.484236E-05 +1.067486E-04 +2.265711E-04 
 -2.448564E-04 +1.093164E-04 +1.522708E-04 +1.093164E-04 +5.156319E-03 +1.498787E-04 +1.522708E-04 +1.498787E-04 +8.088756E-05 
 +8.880524E-05 +2.654499E-05 -1.111402E-04 +2.654499E-05 +5.036425E-03 +1.788659E-04 -1.111402E-04 +1.788659E-04 -6.087987E-05 
 +2.363639E-04 -2.678601E-06 -1.632459E-04 -2.678601E-06 +4.887666E-03 +1.378366E-04 -1.632459E-04 +1.378366E-04 -9.979668E-05 
 +3.142398E-04 -7.358948E-05 -9.596178E-05 -7.358948E-05 +4.734397E-03 +8.638332E-05 -9.596178E-05 +8.638332E-05 -1.176899E-04 
 +4.272902E-04 -3.238658E-05 -1.541069E-04 -3.238658E-05 +4.558229E-03 +3.655110E-05 -1.541069E-04 +3.655110E-05 -4.538633E-05 
 +3.195575E-04 -1.291773E-05 -1.003438E-04 -1.291773E-05 +4.558637E-03 +3.347980E-05 -1.003438E-04 +3.347980E-05 +7.308921E-05 
 +8.652880E-05 +3.592068E-05 -8.304508E-05 +3.592068E-05 +4.766959E-03 +6.582893E-06 -8.304508E-05 +6.582893E-06 +5.217378E-05 
 -2.263467E-05 +2.659255E-05 -5.359687E-05 +2.659255E-05 +4.898773E-03 +5.163437E-05 -5.359687E-05 +5.163437E-05 -9.868524E-06 
 +2.377450E-05 +2.500980E-05 -6.008606E-05 +2.500980E-05 +4.782482E-03 +1.639308E-04 -6.008606E-05 +1.639308E-04 -2.477734E-05 
 -3.882788E-05 +2.027669E-05 -8.260403E-05 +2.027669E-05 +4.722606E-03 +1.826072E-04 -8.260403E-05 +1.826072E-04 -1.576569E-05 
 -2.292191E-05 +1.733050E-05 +1.870005E-05 +1.733050E-05 +4.724030E-03 +2.076644E-04 +1.870005E-05 +2.076644E-04 +1.014170E-04 
 -2.493255E-05 +1.700029E-05 -1.285986E-04 +1.700029E-05 +4.710234E-03 +2.351387E-04 -1.285986E-04 +2.351387E-04 +1.699349E-04 
 -7.948216E-05 +1.286435E-05 -1.532979E-04 +1.286435E-05 +4.862030E-03 +2.305947E-04 -1.532979E-04 +2.305947E-04 +6.003211E-05 
 -1.110841E-04 +1.171019E-04 -4.823305E-05 +1.171019E-04 +5.154620E-03 +1.299756E-04 -4.823305E-05 +1.299756E-04 -8.150166E-05 
 -3.875256E-05 +1.354879E-04 -5.352294E-05 +1.354879E-04 +5.355490E-03 -1.900109E-06 -5.352294E-05 -1.900109E-06 -1.526548E-04 
 -9.401258E-05 +1.198838E-04 +1.389048E-05 +1.198838E-04 +5.343244E-03 -6.378035E-05 +1.389048E-05 -6.378035E-05 -1.528047E-04 
 -1.136914E-04 +2.150552E-05 -6.009496E-05 +2.150552E-05 +5.277588E-03 -8.913601E-05 -6.009496E-05 -8.913601E-05 -2.824523E-04 
 -9.283543E-05 -4.167389E-05 -5.554671E-05 -4.167389E-05 +5.222774E-03 -1.131611E-04 -5.554671E-05 -1.131611E-04 -4.587736E-04 
 +1.049030E-05 -5.095338E-05 -1.106257E-04 -5.095338E-05 +5.136084E-03 -8.463861E-05 -1.106257E-04 -8.463861E-05 -3.157059E-04 
 -2.868439E-04 -5.742284E-05 +7.908886E-05 -5.742284E-05 +5.103910E-03 +2.783249E-05 +7.908886E-05 +2.783249E-05 +8.177809E-05 
 -3.424767E-04 +4.746335E-05 +9.634088E-05 +4.746335E-05 +5.085699E-03 +1.027477E-04 +9.634088E-05 +1.027477E-04 +3.030920E-04 
 -2.369935E-04 +1.145525E-04 +1.788629E-04 +1.145525E-04 +5.083728E-03 +1.191751E-04 +1.788629E-04 +1.191751E-04 +1.625807E-04 
 +1.385171E-04 -5.859678E-05 -1.349784E-04 -5.859678E-05 +5.023457E-03 +9.704254E-05 -1.349784E-04 +9.704254E-05 -6.695967E-05 
 +2.963575E-04 -3.242835E-05 -1.362399E-04 -3.242835E-05 +4.881128E-03 +6.676663E-05 -1.362399E-04 +6.676663E-05 -1.857706E-04 
 +3.407613E-04 -5.867174E-05 -4.326595E-05 -5.867174E-05 +4.910262E-03 +3.958530E-05 -4.326595E-05 +3.958530E-05 -2.198540E-04 
 +2.997031E-04 -3.672986E-05 -1.570132E-04 -3.672986E-05 +4.932111E-03 -1.011690E-06 -1.570132E-04 -1.011690E-06 -2.270795E-04 
 +3.272319E-04 -2.402074E-05 -3.468490E-05 -2.402074E-05 +4.704274E-03 +3.873188E-05 -3.468490E-05 +3.873188E-05 -8.103548E-05 
 +2.378066E-04 +7.456907E-05 -5.945603E-05 +7.456907E-05 +4.660917E-03 +8.185151E-05 -5.945603E-05 +8.185151E-05 -1.038269E-04 
 +1.378314E-04 -2.003957E-05 +1.283505E-05 -2.003957E-05 +4.875458E-03 +1.293988E-04 +1.283505E-05 +1.293988E-04 -2.252405E-04 
 -1.069791E-04 -9.091794E-05 -2.679181E-04 -9.091794E-05 +5.055027E-03 +1.680146E-04 -2.679181E-04 +1.680146E-04 -2.224426E-04 
 -2.048530E-04 -2.839171E-05 -2.206219E-04 -2.839171E-05 +5.023577E-03 +1.792830E-04 -2.206219E-04 +1.792830E-04 -1.489216E-04 
 -9.886683E-05 +4.373387E-05 -1.150012E-04 +4.373387E-05 +4.850251E-03 +1.837154E-04 -1.150012E-04 +1.837154E-04 +5.359135E-05 
 -9.120840E-05 +5.171117E-05 -2.186973E-04 +5.171117E-05 +4.657078E-03 +1.336248E-04 -2.186973E-04 +1.336248E-04 +2.058812E-04 
 -2.318137E-05 +1.543553E-04 -2.532994E-04 +1.543553E-04 +4.597792E-03 +6.148707E-05 -2.532994E-04 +6.148707E-05 +1.506043E-04 
 +3.779241E-05 +2.651061E-04 -8.082793E-05 +2.651061E-04 +4.684558E-03 -1.763091E-06 -8.082793E-05 -1.763091E-06 +4.386595E-05 
 +1.038186E-05 +7.002529E-05 +2.093689E-05 +7.002529E-05 +4.732364E-03 +9.525705E-06 +2.093689E-05 +9.525705E-06 +1.132150E-04 
 -5.774238E-05 +4.825929E-05 -1.060340E-05 +4.825929E-05 +4.906925E-03 +9.121058E-06 -1.060340E-05 +9.121058E-06 +1.572162E-04 
 -1.282151E-04 +4.166275E-05 -6.373275E-05 +4.166275E-05 +5.163305E-03 -3.368062E-05 -6.373275E-05 -3.368062E-05 -2.735858E-07 
 -9.600552E-05 -5.171338E-05 -8.382390E-05 -5.171338E-05 +5.217097E-03 -8.174892E-05 -8.382390E-05 -8.174892E-05 -3.135967E-04 
 -5.981946E-05 -8.050890E-05 -9.122675E-05 -8.050890E-05 +5.159988E-03 -8.339879E-05 -9.122675E-05 -8.339879E-05 -3.008936E-04 
 -3.799714E-04 -4.254571E-05 +1.370608E-04 -4.254571E-05 +5.109707E-03 +1.790610E-05 +1.370608E-04 +1.790610E-05 +1.292092E-04 
 -4.253904E-04 +5.359896E-05 +1.138243E-04 +5.359896E-05 +5.059964E-03 +1.053541E-04 +1.138243E-04 +1.053541E-04 +3.806024E-04 
 -1.527691E-04 +8.646262E-05 +1.053762E-04 +8.646262E-05 +4.989160E-03 +7.343344E-05 +1.053762E-04 +7.343344E-05 +2.331005E-04 
 +2.348127E-04 -1.835468E-05 -1.578468E-04 -1.835468E-05 +4.793167E-03 +2.027856E-05 -1.578468E-04 +2.027856E-05 -3.266876E-05 
 +3.049107E-04 +1.528125E-05 -1.054850E-04 +1.528125E-05 +4.753820E-03 +4.304598E-05 -1.054850E-04 +4.304598E-05 -1.736150E-04 
 +3.223004E-04 +2.020459E-06 -1.387640E-05 +2.020459E-06 +4.718309E-03 +3.271652E-05 -1.387640E-05 +3.271652E-05 -1.608843E-04 
 +3.566890E-04 -3.758133E-05 -3.986611E-05 -3.758133E-05 +4.630767E-03 +2.441100E-05 -3.986611E-05 +2.441100E-05 -1.486953E-04 
 +2.053086E-04 +1.091619E-04 +3.948129E-05 +1.091619E-04 +4.764423E-03 +1.707203E-05 +3.948129E-05 +1.707203E-05 -1.347513E-04 
 +2.254019E-04 +1.867426E-04 -4.318893E-05 +1.867426E-04 +4.871542E-03 +8.279890E-07 -4.318893E-05 +8.279890E-07 -1.832061E-04 
 +1.913300E-04 +7.487173E-05 +2.699075E-05 +7.487173E-05 +4.955653E-03 +7.379751E-05 +2.699075E-05 +7.379751E-05 -2.184886E-04 
 -1.973220E-04 -1.184783E-04 -3.416264E-04 -1.184783E-04 +5.106372E-03 +1.720849E-04 -3.416264E-04 +1.720849E-04 -2.240545E-04 
 -2.286532E-04 -1.006286E-04 -2.063029E-04 -1.006286E-04 +5.168255E-03 +1.803450E-04 -2.063029E-04 +1.803450E-04 -1.736584E-04 
 -1.738260E-04 -9.888631E-05 -1.465315E-04 -9.888631E-05 +5.181211E-03 +1.263930E-04 -1.465315E-04 +1.263930E-04 -5.318892E-05 
 -1.888626E-04 -1.116329E-04 -1.895531E-04 -1.116329E-04 +5.120766E-03 +8.748165E-05 -1.895531E-04 +8.748165E-05 +3.627041E-05 
 -9.103575E-05 -3.434545E-05 -2.093572E-04 -3.434545E-05 +4.950841E-03 +7.648440E-05 -2.093572E-04 +7.648440E-05 +4.480992E-05 
 +4.691885E-05 -5.143907E-05 -1.605963E-04 -5.143907E-05 +4.687685E-03 +2.913302E-05 -1.605963E-04 +2.913302E-05 +3.475500E-05 
 +7.059042E-05 -8.819697E-05 +2.495465E-05 -8.819697E-05 +4.633748E-03 -2.598894E-05 +2.495465E-05 -2.598894E-05 +2.051678E-04 
 +4.200517E-05 +7.924308E-06 -1.430397E-05 +7.924308E-06 +4.706711E-03 +3.140318E-06 -1.430397E-05 +3.140318E-06 +3.560078E-04 
 +5.476671E-06 -5.192888E-06 -1.512946E-05 -5.192888E-06 +4.777209E-03 +2.904590E-05 -1.512946E-05 +2.904590E-05 +2.392448E-04 
 -2.382772E-05 -5.146005E-05 -1.114970E-04 -5.146005E-05 +5.011146E-03 -2.818756E-05 -1.114970E-04 -2.818756E-05 -1.356459E-04 
 -1.086852E-04 -1.045829E-04 -7.577059E-05 -1.045829E-04 +5.124548E-03 -3.098061E-05 -7.577059E-05 -3.098061E-05 -1.514842E-04 
 -4.153333E-04 -4.149699E-05 +1.473638E-04 -4.149699E-05 +5.045157E-03 +3.960902E-05 +1.473638E-04 +3.960902E-05 +2.457193E-04 
 -2.974572E-04 +1.034721E-04 +5.562582E-05 +1.034721E-04 +4.830508E-03 +5.880015E-05 +5.562582E-05 +5.880015E-05 +5.120288E-04 
 +8.131109E-05 +1.734427E-04 +6.631851E-06 +1.734427E-04 +4.409092E-03 -2.393871E-05 +6.631851E-06 -2.393871E-05 +3.544507E-04 
 +2.155342E-04 +1.712051E-04 -7.477337E-05 +1.712051E-04 +4.248941E-03 -7.036289E-05 -7.477337E-05 -7.036289E-05 +1.567698E-04 
 +2.319737E-04 +1.876200E-04 -4.571746E-05 +1.876200E-04 +4.342694E-03 -5.656604E-05 -4.571746E-05 -5.656604E-05 +8.254276E-05 
 +2.614564E-04 +1.059866E-04 +1.110599E-05 +1.059866E-04 +4.447915E-03 -6.637496E-05 +1.110599E-05 -6.637496E-05 +3.652214E-05 
 +2.850608E-04 +1.957775E-05 +6.881882E-05 +1.957775E-05 +4.631931E-03 -6.735991E-05 +6.881882E-05 -6.735991E-05 -4.585437E-05 
 +1.590859E-04 +1.336524E-04 +6.095060E-05 +1.336524E-04 +4.833348E-03 -3.970930E-05 +6.095060E-05 -3.970930E-05 -9.561492E-05 
 +1.530802E-04 +1.265579E-04 -4.625769E-05 +1.265579E-04 +4.931900E-03 +1.665626E-05 -4.625769E-05 +1.665626E-05 -1.171926E-04 
 +8.885619E-05 +1.207459E-04 -5.300236E-05 +1.207459E-04 +4.984854E-03 +5.394597E-05 -5.300236E-05 +5.394597E-05 -1.032923E-04 
 -3.343753E-04 -1.630623E-04 -3.067217E-04 -1.630623E-04 +5.109781E-03 +1.088717E-04 -3.067217E-04 +1.088717E-04 -1.226952E-04 
 -2.595735E-04 -2.297274E-04 -2.672893E-04 -2.297274E-04 +5.195627E-03 +1.456042E-04 -2.672893E-04 +1.456042E-04 -1.548403E-04 
 -2.248055E-04 -2.215007E-04 -2.340213E-04 -2.215007E-04 +5.172004E-03 +1.067673E-04 -2.340213E-04 +1.067673E-04 -1.330638E-04 
 -1.766910E-04 -1.517999E-04 -2.176852E-04 -1.517999E-04 +5.160022E-03 +1.452590E-04 -2.176852E-04 +1.452590E-04 -9.800539E-05 
 -2.060699E-04 -6.008067E-05 -1.804731E-04 -6.008067E-05 +5.138224E-03 +1.793763E-04 -1.804731E-04 +1.793763E-04 -1.397058E-04 
 -3.805324E-05 -9.049117E-05 -2.685700E-04 -9.049117E-05 +4.931239E-03 +1.038518E-04 -2.685700E-04 +1.038518E-04 -1.071639E-04 
 +1.509747E-04 -9.672603E-05 -1.232913E-04 -9.672603E-05 +4.655214E-03 +1.195065E-05 -1.232913E-04 +1.195065E-05 +9.820676E-05 
 +1.412081E-04 -6.982545E-05 -6.781036E-05 -6.982545E-05 +4.527934E-03 +2.645487E-05 -6.781036E-05 +2.645487E-05 +2.682988E-04 
 +1.348429E-04 -4.242253E-05 -2.191470E-05 -4.242253E-05 +4.474375E-03 +7.404368E-05 -2.191470E-05 +7.404368E-05 +3.107065E-04 
 +1.243631E-04 -3.532377E-05 -6.567718E-05 -3.532377E-05 +4.498662E-03 +7.340216E-05 -6.567718E-05 +7.340216E-05 +1.578241E-04 
 -3.989328E-05 -1.364188E-04 -5.590100E-05 -1.364188E-04 +4.665913E-03 +9.732754E-05 -5.590100E-05 +9.732754E-05 +1.551779E-04 
 -4.508615E-04 -2.269493E-05 +7.199584E-05 -2.269493E-05 +4.907713E-03 +1.015367E-04 +7.199584E-05 +1.015367E-04 +4.041397E-04 
 -1.665290E-05 +1.800938E-04 -4.887035E-05 +1.800938E-04 +4.426385E-03 -2.277277E-05 -4.887035E-05 -2.277277E-05 +4.992335E-04 
 +8.991994E-05 +1.928050E-04 -1.053706E-05 +1.928050E-04 +4.382995E-03 -3.521622E-05 -1.053706E-05 -3.521622E-05 +3.711122E-04 
 +7.545596E-05 +1.656557E-04 +1.557887E-05 +1.656557E-04 +4.476248E-03 -7.212403E-05 +1.557887E-05 -7.212403E-05 +2.499774E-04 
 +3.651083E-05 +1.264334E-04 +3.091108E-05 +1.264334E-04 +4.504341E-03 -1.147087E-04 +3.091108E-05 -1.147087E-04 +2.376001E-04 
 +1.335050E-04 +4.011106E-05 +8.329897E-06 +4.011106E-05 +4.646688E-03 -1.369591E-04 +8.329897E-06 -1.369591E-04 +1.185082E-04 
 +1.667224E-04 +2.291335E-05 +6.608071E-05 +2.291335E-05 +4.885523E-03 -9.585758E-05 +6.608071E-05 -9.585758E-05 -7.890826E-05 
 +1.108701E-04 +8.965196E-05 +1.339472E-04 +8.965196E-05 +4.915670E-03 +6.584660E-05 +1.339472E-04 +6.584660E-05 -6.941592E-05 
 +9.335457E-05 +8.907074E-05 -1.423432E-04 +8.907074E-05 +4.899785E-03 +8.877234E-05 -1.423432E-04 +8.877234E-05 -6.451972E-05 
 -6.458353E-05 +4.485705E-05 -1.011340E-04 +4.485705E-05 +5.004843E-03 +6.681370E-06 -1.011340E-04 +6.681370E-06 -3.317252E-06 
 -4.428977E-04 -1.544580E-04 -2.314681E-04 -1.544580E-04 +5.083516E-03 +3.491269E-05 -2.314681E-04 +3.491269E-05 +6.516121E-05 
 -2.366069E-04 -2.065528E-04 -3.592132E-04 -2.065528E-04 +5.117381E-03 +9.061703E-05 -3.592132E-04 +9.061703E-05 -5.718158E-05 
 -2.009970E-04 -1.776427E-04 -3.438607E-04 -1.776427E-04 +5.122469E-03 +1.283558E-04 -3.438607E-04 +1.283558E-04 -1.403618E-04 
 -1.817896E-04 -1.375620E-04 -1.844940E-04 -1.375620E-04 +5.151473E-03 +1.905953E-04 -1.844940E-04 +1.905953E-04 -1.412797E-04 
 -5.553124E-05 -4.816354E-05 -2.599218E-04 -4.816354E-05 +5.133705E-03 +1.586315E-04 -2.599218E-04 +1.586315E-04 -2.345407E-04 
 -2.407053E-05 -7.638670E-06 -2.732606E-04 -7.638670E-06 +5.106186E-03 +5.824713E-05 -2.732606E-04 +5.824713E-05 -1.983268E-04 
 +1.607988E-05 +6.201166E-07 -2.212088E-04 +6.201166E-07 +4.964649E-03 +2.354568E-05 -2.212088E-04 +2.354568E-05 -5.232975E-05 
 +1.422906E-04 -4.432171E-05 -1.483057E-04 -4.432171E-05 +4.636447E-03 +7.671206E-06 -1.483057E-04 +7.671206E-06 +1.035780E-04 
 +1.609541E-04 -3.557803E-05 -1.593114E-04 -3.557803E-05 +4.439662E-03 -1.493650E-05 -1.593114E-04 -1.493650E-05 +2.334480E-04 
 +2.486214E-04 -5.819980E-06 -6.690108E-05 -5.819980E-06 +4.448021E-03 -9.221255E-06 -6.690108E-05 -9.221255E-06 +1.378768E-04 
 +1.661937E-04 +3.988333E-05 -6.333373E-05 +3.988333E-05 +4.654512E-03 +8.511104E-05 -6.333373E-05 +8.511104E-05 +1.438087E-04 
 -2.174501E-04 +1.618406E-04 -7.010965E-05 +1.618406E-04 +4.700562E-03 +6.566643E-05 -7.010965E-05 +6.566643E-05 +3.740264E-04 
 -1.575794E-04 +8.348854E-05 +8.718098E-06 +8.348854E-05 +4.827988E-03 -2.702727E-05 +8.718098E-06 -2.702727E-05 +3.115170E-04 
 -8.932555E-05 +3.830611E-05 +4.139258E-05 +3.830611E-05 +4.890726E-03 -5.637137E-05 +4.139258E-05 -5.637137E-05 +2.723760E-04 
 -1.143492E-04 -6.946703E-07 +9.368186E-05 -6.946703E-07 +4.962249E-03 -8.775502E-05 +9.368186E-05 -8.775502E-05 +2.321914E-04 
 -1.938854E-04 -2.894928E-05 +3.306552E-05 -2.894928E-05 +5.069577E-03 -1.260321E-04 +3.306552E-05 -1.260321E-04 +2.166600E-04 
 +6.237329E-06 -5.485624E-05 +6.710851E-06 -5.485624E-05 +5.077890E-03 -6.555767E-05 +6.710851E-06 -6.555767E-05 +6.940269E-05 
 +1.991885E-04 -3.858260E-05 +2.689812E-06 -3.858260E-05 +5.014011E-03 +5.134206E-05 +2.689812E-06 +5.134206E-05 -5.951426E-05 
 -1.206517E-05 -7.558961E-05 +1.970500E-04 -7.558961E-05 +5.025731E-03 +1.078528E-04 +1.970500E-04 +1.078528E-04 +1.070676E-06 
 -7.716531E-05 -7.385849E-05 -2.231535E-04 -7.385849E-05 +5.057351E-03 +8.561127E-05 -2.231535E-04 +8.561127E-05 +9.570127E-06 
 -1.143188E-04 -1.138268E-04 -4.448410E-05 -1.138268E-04 +5.034759E-03 +2.429157E-05 -4.448410E-05 +2.429157E-05 +1.466190E-04 
 -2.312867E-04 -1.382164E-04 -2.260393E-04 -1.382164E-04 +5.026797E-03 -2.447113E-05 -2.260393E-04 -2.447113E-05 +2.672165E-04 
 -2.120722E-04 -1.342653E-04 -2.479832E-04 -1.342653E-04 +5.062102E-03 +7.597132E-06 -2.479832E-04 +7.597132E-06 +1.230377E-04 
 -1.915717E-04 -1.217618E-04 -1.890963E-04 -1.217618E-04 +5.105345E-03 +1.412489E-04 -1.890963E-04 +1.412489E-04 +2.117829E-05 
 -1.396711E-04 -3.803195E-05 -8.231381E-05 -3.803195E-05 +5.105685E-03 +1.583405E-04 -8.231381E-05 +1.583405E-04 -1.108220E-04 
 +1.334803E-04 +3.207665E-05 -3.196687E-04 +3.207665E-05 +5.075734E-03 +7.556293E-05 -3.196687E-04 +7.556293E-05 -2.444483E-04 
 +7.223247E-05 +3.292683E-05 -2.760492E-04 +3.292683E-05 +5.063194E-03 +4.198973E-05 -2.760492E-04 +4.198973E-05 -1.907827E-04 
 +1.664140E-05 +3.647600E-05 -2.569533E-04 +3.647600E-05 +5.091252E-03 +1.836235E-05 -2.569533E-04 +1.836235E-05 -1.282408E-04 
 +5.115853E-05 +7.778818E-05 -2.454354E-04 +7.778818E-05 +5.131325E-03 -1.023456E-04 -2.454354E-04 -1.023456E-04 -2.602009E-06 
 +1.182104E-04 +1.392922E-04 -3.221968E-04 +1.392922E-04 +5.049787E-03 -2.206517E-04 -3.221968E-04 -2.206517E-04 -4.350782E-06 
 +3.452111E-04 +1.989363E-04 -9.882687E-05 +1.989363E-04 +4.911025E-03 -1.545194E-04 -9.882687E-05 -1.545194E-04 -2.028557E-04 
 +4.034064E-04 +2.817545E-04 -4.723598E-05 +2.817545E-04 +4.799050E-03 +1.795862E-05 -4.723598E-05 +1.795862E-05 -1.236957E-04 
 +1.874213E-04 +2.219648E-04 -1.850610E-04 +2.219648E-04 +4.748138E-03 +4.058616E-05 -1.850610E-04 +4.058616E-05 +1.563150E-04 
 -3.521188E-04 -4.817436E-06 +7.490917E-05 -4.817436E-06 +4.946673E-03 -4.136482E-05 +7.490917E-05 -4.136482E-05 +2.003344E-04 
 -3.649147E-04 -5.384220E-05 +6.616328E-05 -5.384220E-05 +5.070130E-03 -1.263293E-04 +6.616328E-05 -1.263293E-04 +2.414888E-04 
 -3.293294E-04 -1.326545E-04 +8.298093E-05 -1.326545E-04 +5.083998E-03 -1.246475E-04 +8.298093E-05 -1.246475E-04 +2.166935E-04 
 -2.310307E-04 -1.233601E-04 +3.829292E-05 -1.233601E-04 +5.038553E-03 -4.361016E-05 +3.829292E-05 -4.361016E-05 +1.310425E-04 
 +5.988255E-05 -2.968483E-05 +7.945947E-06 -2.968483E-05 +4.991620E-03 +1.035765E-04 +7.945947E-06 +1.035765E-04 +7.556421E-06 
 +1.125150E-04 +5.949605E-06 -5.177872E-05 +5.949605E-06 +5.022287E-03 +1.530294E-04 -5.177872E-05 +1.530294E-04 +5.336726E-06 
 -1.457686E-04 -3.070279E-05 +2.216462E-04 -3.070279E-05 +5.077398E-03 +8.839916E-05 +2.216462E-04 +8.839916E-05 +7.378003E-05 
 -2.258973E-04 -1.577193E-05 -3.703166E-07 -1.577193E-05 +5.081864E-03 +6.571069E-05 -3.703166E-07 +6.571069E-05 +7.988525E-05 
 -1.310079E-04 -6.978475E-05 +3.441413E-05 -6.978475E-05 +5.019389E-03 +5.733564E-05 +3.441413E-05 +5.733564E-05 +1.463191E-04 
 +8.042855E-05 -1.499611E-04 -2.575963E-04 -1.499611E-04 +4.984657E-03 +3.484631E-05 -2.575963E-04 +3.484631E-05 +2.632426E-04 
 -1.108316E-04 -1.077002E-04 -1.747710E-04 -1.077002E-04 +5.025231E-03 +6.803698E-05 -1.747710E-04 +6.803698E-05 +2.219891E-04 
 -1.470679E-04 -3.319294E-05 -6.139269E-05 -3.319294E-05 +5.070058E-03 +9.816033E-05 -6.139269E-05 +9.816033E-05 +5.925374E-05 
 +3.546563E-05 +5.861681E-05 -1.822561E-04 +5.861681E-05 +5.091583E-03 +2.915660E-05 -1.822561E-04 +2.915660E-05 -1.978301E-04 
 +1.538048E-04 +8.994651E-05 -3.033968E-04 +8.994651E-05 +5.075446E-03 -5.498022E-06 -3.033968E-04 -5.498022E-06 -2.747575E-04 
 +1.163900E-04 +6.692413E-05 -2.899451E-04 +6.692413E-05 +5.047539E-03 +4.252804E-05 -2.899451E-04 +4.252804E-05 -1.755895E-04 
 +1.061831E-04 +5.211781E-05 -2.965269E-04 +5.211781E-05 +5.063283E-03 +3.020855E-05 -2.965269E-04 +3.020855E-05 -1.545962E-04 
 +8.247923E-05 +8.491222E-05 -3.551536E-04 +8.491222E-05 +5.102733E-03 -7.406116E-06 -3.551536E-04 -7.406116E-06 -5.847031E-05 
 +1.260069E-04 +1.157689E-04 -3.904727E-04 +1.157689E-04 +5.069278E-03 -2.995347E-05 -3.904727E-04 -2.995347E-05 -1.374392E-04 
 +3.762637E-04 +1.967846E-04 -1.279941E-04 +1.967846E-04 +4.933842E-03 +1.503951E-05 -1.279941E-04 +1.503951E-05 -3.532265E-04 
 +4.710938E-04 +1.854647E-04 -9.537831E-05 +1.854647E-04 +4.785265E-03 +7.194633E-05 -9.537831E-05 +7.194633E-05 -2.961538E-04 
 +3.173184E-04 +7.748597E-05 -2.615833E-04 +7.748597E-05 +4.780597E-03 +6.716360E-05 -2.615833E-04 +6.716360E-05 -3.863706E-05 
 -3.879375E-04 -2.232411E-05 +2.063902E-05 -2.232411E-05 +5.036580E-03 -5.438864E-05 +2.063902E-05 -5.438864E-05 +1.249233E-04 
 -5.421000E-04 -7.737900E-05 +6.783413E-05 -7.737900E-05 +5.173214E-03 -8.865443E-05 +6.783413E-05 -8.865443E-05 +2.570273E-04 
 -4.937485E-04 -7.806254E-05 +6.010044E-05 -7.806254E-05 +5.171055E-03 -4.346017E-05 +6.010044E-05 -4.346017E-05 +1.675969E-04 
 -2.291820E-04 -1.257278E-04 +1.383784E-04 -1.257278E-04 +5.051096E-03 +6.386424E-05 +1.383784E-04 +6.386424E-05 +1.550077E-05 
 +1.104991E-04 -1.000543E-04 -1.377797E-05 -1.000543E-04 +4.971996E-03 +1.330562E-04 -1.377797E-05 +1.330562E-04 -2.141820E-05 
 +4.386218E-05 -9.243345E-06 -6.997385E-05 -9.243345E-06 +5.011260E-03 +1.137845E-04 -6.997385E-05 +1.137845E-04 +3.179324E-05 
 -2.261605E-04 +7.141832E-06 +2.296601E-04 +7.141832E-06 +5.095652E-03 +6.184904E-05 +2.296601E-04 +6.184904E-05 +9.556297E-05 
 -2.746561E-04 -3.318355E-06 +1.860817E-04 -3.318355E-06 +5.119229E-03 +1.111328E-05 +1.860817E-04 +1.111328E-05 +9.743789E-05 
 -1.476169E-04 -3.674593E-05 +9.139482E-05 -3.674593E-05 +5.066274E-03 +2.556230E-05 +9.139482E-05 +2.556230E-05 +8.805036E-05 
 +1.367227E-04 -1.216234E-04 -1.565927E-04 -1.216234E-04 +4.990540E-03 +1.072394E-04 -1.565927E-04 +1.072394E-04 +2.394737E-04 
 +1.134589E-04 -1.354825E-04 -1.929488E-04 -1.354825E-04 +4.951975E-03 +9.594737E-05 -1.929488E-04 +9.594737E-05 +2.354140E-04 
 -1.049709E-06 -1.718004E-06 -1.425251E-04 -1.718004E-06 +5.011716E-03 -4.653596E-05 -1.425251E-04 -4.653596E-05 -4.765881E-05 
 +1.483189E-04 +4.448305E-05 -2.698203E-04 +4.448305E-05 +5.064733E-03 -1.034799E-04 -2.698203E-04 -1.034799E-04 -2.415132E-04 
 +1.541887E-04 +4.337395E-05 -2.611291E-04 +4.337395E-05 +5.048895E-03 -4.121912E-05 -2.611291E-04 -4.121912E-05 -2.393319E-04 
 +1.546038E-04 +6.139694E-05 -2.722256E-04 +6.139694E-05 +5.039163E-03 +1.607545E-05 -2.722256E-04 +1.607545E-05 -1.890452E-04 
 +1.435526E-04 +7.785927E-05 -2.927352E-04 +7.785927E-05 +5.045632E-03 +5.104744E-05 -2.927352E-04 +5.104744E-05 -1.800290E-04 
 +1.580918E-04 +1.106528E-04 -3.508883E-04 +1.106528E-04 +5.067400E-03 +9.296749E-05 -3.508883E-04 +9.296749E-05 -1.106299E-04 
 +1.830197E-04 +7.582124E-05 -3.226033E-04 +7.582124E-05 +5.061185E-03 +1.233529E-04 -3.226033E-04 +1.233529E-04 -1.571616E-04 
 +3.328734E-04 +1.015253E-04 -1.678968E-04 +1.015253E-04 +4.987323E-03 +8.704898E-05 -1.678968E-04 +8.704898E-05 -3.114153E-04 
 +3.746019E-04 +7.892366E-05 -1.871299E-04 +7.892366E-05 +4.898199E-03 +5.361167E-05 -1.871299E-04 +5.361167E-05 -3.493563E-04 
 +2.485804E-04 +4.626677E-05 -3.513676E-04 +4.626677E-05 +4.905122E-03 +2.006886E-05 -3.513676E-04 +2.006886E-05 -1.898511E-04 
 -4.226541E-04 -3.623233E-05 +1.777770E-05 -3.623233E-05 +5.135533E-03 -8.580243E-05 +1.777770E-05 -8.580243E-05 +8.350288E-05 
 -5.160492E-04 -7.685496E-05 +7.199466E-05 -7.685496E-05 +5.155933E-03 -4.839105E-05 +7.199466E-05 -4.839105E-05 +2.467864E-04 
 -4.753814E-04 -6.421315E-05 +8.666744E-05 -6.421315E-05 +5.172930E-03 +2.596347E-05 +8.666744E-05 +2.596347E-05 +1.816012E-04 
 -3.582256E-04 -1.089334E-04 +1.542397E-04 -1.089334E-04 +5.121902E-03 +1.037677E-04 +1.542397E-04 +1.037677E-04 +6.857816E-05 
 -2.357770E-05 -9.136160E-05 +5.972464E-05 -9.136160E-05 +4.994140E-03 +1.983040E-04 +5.972464E-05 +1.983040E-04 +3.753825E-05 
 -1.962580E-05 -2.203913E-05 -2.089036E-04 -2.203913E-05 +4.962374E-03 +1.286100E-04 -2.089036E-04 +1.286100E-04 +5.787408E-05 
 -2.084823E-04 +1.685567E-06 +1.974562E-04 +1.685567E-06 +5.080379E-03 -4.129996E-06 +1.974562E-04 -4.129996E-06 +1.201288E-04 
 -2.077282E-04 -1.542170E-05 +8.584364E-05 -1.542170E-05 +5.110269E-03 -4.300191E-05 +8.584364E-05 -4.300191E-05 +9.986879E-05 
 -9.409079E-05 -7.451933E-06 +1.722909E-04 -7.451933E-06 +5.020424E-03 +1.877644E-06 +1.722909E-04 +1.877644E-06 +1.349770E-04 
 +1.366857E-04 -5.299741E-05 -8.777454E-05 -5.299741E-05 +4.941997E-03 +6.142877E-05 -8.777454E-05 +6.142877E-05 +2.867697E-04 
 +1.977235E-04 -4.610932E-05 -1.622003E-04 -4.610932E-05 +4.895011E-03 +5.098545E-06 -1.622003E-04 +5.098545E-06 +2.042360E-04 
 +1.676955E-04 +5.053207E-05 -2.285740E-04 +5.053207E-05 +4.934446E-03 -7.945356E-05 -2.285740E-04 -7.945356E-05 -3.248632E-05 
 +1.773944E-04 +1.679889E-05 -2.235572E-04 +1.679889E-05 +4.982301E-03 -1.198821E-04 -2.235572E-04 -1.198821E-04 -1.407436E-04 
 +2.021024E-04 +1.373312E-05 -2.107746E-04 +1.373312E-05 +4.983011E-03 -6.015295E-05 -2.107746E-04 -6.015295E-05 -1.747345E-04 
 +2.112859E-04 +4.139786E-05 -2.231364E-04 +4.139786E-05 +4.986106E-03 +1.331920E-05 -2.231364E-04 +1.331920E-05 -2.089727E-04 
 +2.079652E-04 +8.944077E-05 -2.571337E-04 +8.944077E-05 +5.028663E-03 +7.619183E-05 -2.571337E-04 +7.619183E-05 -2.026334E-04 
 +1.735738E-04 +8.409571E-05 -2.786461E-04 +8.409571E-05 +5.053923E-03 +1.369739E-04 -2.786461E-04 +1.369739E-04 -1.649938E-04 
 +1.889022E-04 +1.919815E-05 -1.993083E-04 +1.919815E-05 +5.084597E-03 +1.539526E-04 -1.993083E-04 +1.539526E-04 -1.904476E-04 
 +2.636606E-04 +1.048590E-09 -1.485067E-04 +1.048590E-09 +5.148846E-03 +7.507606E-05 -1.485067E-04 +7.507606E-05 -2.408193E-04 
 +2.323805E-04 -3.403387E-05 -1.941596E-04 -3.403387E-05 +5.159475E-03 -1.237326E-05 -1.941596E-04 -1.237326E-05 -2.601417E-04 
 +1.665735E-04 -3.478052E-05 -3.924900E-04 -3.478052E-05 +5.133748E-03 -7.503506E-05 -3.924900E-04 -7.503506E-05 -1.764259E-04 
 -3.655397E-04 -2.219329E-05 +1.796441E-04 -2.219329E-05 +5.169153E-03 -1.761543E-05 +1.796441E-04 -1.761543E-05 +1.124624E-04 
 -4.249367E-04 -6.289382E-05 +1.062681E-04 -6.289382E-05 +5.151188E-03 +9.551372E-06 +1.062681E-04 +9.551372E-06 +1.938674E-04 
 -4.277089E-04 -7.536578E-05 +9.154059E-05 -7.536578E-05 +5.140801E-03 +6.053164E-05 +9.154059E-05 +6.053164E-05 +1.855484E-04 
 -3.734277E-04 -1.266514E-04 +1.199985E-04 -1.266514E-04 +5.162003E-03 +7.915736E-05 +1.199985E-04 +7.915736E-05 +1.108261E-04 
 -2.391522E-04 -1.476983E-04 +1.009111E-04 -1.476983E-04 +5.214631E-03 +5.612051E-05 +1.009111E-04 +5.612051E-05 +6.079139E-05 
 -1.680958E-04 -6.825271E-05 -3.504311E-04 -6.825271E-05 +5.183318E-03 -9.661660E-06 -3.504311E-04 -9.661660E-06 +9.807358E-05 
 -1.032480E-04 -2.125729E-05 +1.858546E-04 -2.125729E-05 +5.114072E-03 -1.509960E-04 +1.858546E-04 -1.509960E-04 +9.006710E-05 
 +2.917303E-05 -6.390911E-05 +4.263963E-05 -6.390911E-05 +5.054063E-03 -1.972082E-04 +4.263963E-05 -1.972082E-04 +1.124927E-04 
 -2.629065E-05 -5.112744E-06 +1.993233E-04 -5.112744E-06 +4.990812E-03 -1.171536E-04 +1.993233E-04 -1.171536E-04 +9.724242E-05 
 +1.103234E-04 -1.738987E-05 -5.540873E-05 -1.738987E-05 +4.951500E-03 -7.118099E-05 -5.540873E-05 -7.118099E-05 +2.011058E-04 
 +1.636265E-04 -2.073413E-05 -1.750933E-04 -2.073413E-05 +4.929979E-03 -4.282674E-05 -1.750933E-04 -4.282674E-05 +2.132100E-04 
 +1.657148E-04 +4.133220E-05 -2.401895E-04 +4.133220E-05 +4.924965E-03 -8.771364E-05 -2.401895E-04 -8.771364E-05 +2.797173E-05 
 +2.211675E-04 +2.058637E-05 -2.050427E-04 +2.058637E-05 +4.922909E-03 -1.331319E-04 -2.050427E-04 -1.331319E-04 -5.147761E-05 
 +2.281875E-04 -9.888465E-09 -1.313032E-04 -9.888465E-09 +4.928191E-03 -7.499092E-05 -1.313032E-04 -7.499092E-05 -1.357643E-04 
 +2.289627E-04 -9.804486E-06 -1.722719E-04 -9.804486E-06 +4.940377E-03 -5.818885E-06 -1.722719E-04 -5.818885E-06 -2.032011E-04 
 +2.413030E-04 +8.073511E-06 -1.935694E-04 +8.073511E-06 +4.988049E-03 +9.105646E-05 -1.935694E-04 +9.105646E-05 -2.315522E-04 
 +2.154236E-04 -3.214210E-05 -2.175863E-04 -3.214210E-05 +5.045777E-03 +1.603558E-04 -2.175863E-04 +1.603558E-04 -2.154350E-04 
 +1.613324E-04 -4.666911E-05 -1.987257E-04 -4.666911E-05 +5.127289E-03 +1.263777E-04 -1.987257E-04 +1.263777E-04 -2.202291E-04 
 +1.481811E-04 +7.286373E-06 -2.276692E-04 +7.286373E-06 +5.246604E-03 +1.625568E-06 -2.276692E-04 +1.625568E-06 -2.347086E-04 
 +1.486045E-04 +3.899134E-05 -1.824484E-04 +3.899134E-05 +5.272927E-03 -4.742306E-05 -1.824484E-04 -4.742306E-05 -1.895045E-04 
 +6.656651E-05 +3.445928E-07 -3.447977E-04 +3.445928E-07 +5.216354E-03 -1.023514E-05 -3.447977E-04 -1.023514E-05 -3.494500E-05 
 -3.702752E-04 -2.193097E-05 +2.168915E-04 -2.193097E-05 +5.157505E-03 +4.028330E-05 +2.168915E-04 +4.028330E-05 +1.788021E-04 
 -4.192363E-04 -3.674896E-05 +1.584353E-04 -3.674896E-05 +5.138112E-03 +5.554054E-05 +1.584353E-04 +5.554054E-05 +2.133816E-04 
 -4.214486E-04 -7.213680E-05 +1.283509E-04 -7.213680E-05 +5.146933E-03 +5.940942E-05 +1.283509E-04 +5.940942E-05 +2.137350E-04 
 -4.277054E-04 -1.259584E-04 +1.424824E-04 -1.259584E-04 +5.195895E-03 +5.479987E-05 +1.424824E-04 +5.479987E-05 +1.270636E-04 
 -4.011532E-04 -1.155672E-04 +1.251748E-04 -1.155672E-04 +5.245344E-03 +3.829693E-05 +1.251748E-04 +3.829693E-05 +7.278520E-05 
 -2.715816E-04 -3.428899E-05 -2.741275E-04 -3.428899E-05 +5.211285E-03 +5.022686E-05 -2.741275E-04 +5.022686E-05 +6.458880E-05 
 -6.870773E-05 +2.362919E-05 -2.524653E-05 +2.362919E-05 +5.067168E-03 -3.614644E-05 -2.524653E-05 -3.614644E-05 +7.073674E-06 
 +1.151280E-04 -1.590770E-05 -1.475383E-05 -1.590770E-05 +4.892075E-03 -6.681345E-05 -1.475383E-05 -6.681345E-05 +1.148210E-05 
 +9.983748E-05 +5.334672E-05 -3.369593E-06 +5.334672E-05 +4.841171E-03 -5.118447E-05 -3.369593E-06 -5.118447E-05 +1.525008E-05 
 +1.912417E-04 +2.483676E-05 -1.268194E-04 +2.483676E-05 +4.933911E-03 -1.033794E-04 -1.268194E-04 -1.033794E-04 +1.079104E-04 
 +2.480133E-04 -1.761409E-05 -1.399173E-04 -1.761409E-05 +4.959309E-03 -1.366872E-04 -1.399173E-04 -1.366872E-04 +1.573525E-04 
 +2.016854E-04 +8.157730E-05 -1.801590E-04 +8.157730E-05 +4.893537E-03 -1.919554E-04 -1.801590E-04 -1.919554E-04 +9.147223E-05 
 +2.030237E-04 +8.405212E-05 -1.142169E-04 +8.405212E-05 +4.903986E-03 -1.561349E-04 -1.142169E-04 -1.561349E-04 +1.830935E-05 
 +1.943716E-04 +3.349913E-05 -1.894978E-05 +3.349913E-05 +4.948285E-03 -5.684387E-05 -1.894978E-05 -5.684387E-05 -9.138755E-05 
 +1.209013E-04 -1.149570E-05 -5.422111E-05 -1.149570E-05 +4.984834E-03 +5.003950E-05 -5.422111E-05 +5.003950E-05 -2.433020E-04 
 +1.681494E-04 -6.531237E-05 -5.995766E-05 -6.531237E-05 +4.992948E-03 +1.447475E-04 -5.995766E-05 +1.447475E-04 -2.557608E-04 
 +2.744262E-04 -1.259628E-04 -2.641594E-04 -1.259628E-04 +5.001851E-03 +1.757638E-04 -2.641594E-04 +1.757638E-04 -1.892845E-04 
 +2.408659E-04 -9.781877E-05 -2.227523E-04 -9.781877E-05 +5.084741E-03 +1.234902E-04 -2.227523E-04 +1.234902E-04 -2.079554E-04 
 +1.716473E-04 -3.814748E-05 -2.670209E-04 -3.814748E-05 +5.183805E-03 +3.584045E-05 -2.670209E-04 +3.584045E-05 -2.158724E-04 
 +1.004892E-04 -3.269670E-05 -1.895451E-04 -3.269670E-05 +5.221493E-03 +6.045082E-06 -1.895451E-04 +6.045082E-06 -1.756604E-04 
 +5.043058E-05 -3.927055E-05 -3.693603E-04 -3.927055E-05 +5.195700E-03 +2.537560E-05 -3.693603E-04 +2.537560E-05 +3.055903E-05 
 -3.953071E-04 +2.375409E-05 +2.153790E-04 +2.375409E-05 +5.127746E-03 +9.565874E-05 +2.153790E-04 +9.565874E-05 +1.988275E-04 
 -4.283222E-04 -5.506421E-06 +1.642998E-04 -5.506421E-06 +5.142310E-03 +7.922365E-05 +1.642998E-04 +7.922365E-05 +2.566578E-04 
 -4.506357E-04 -3.076625E-05 +1.415124E-04 -3.076625E-05 +5.175422E-03 +2.917575E-05 +1.415124E-04 +2.917575E-05 +2.276690E-04 
 -4.846023E-04 -5.511219E-05 +1.508160E-04 -5.511219E-05 +5.213257E-03 +3.794045E-06 +1.508160E-04 +3.794045E-06 +1.916132E-04 
 -4.429661E-04 -5.834664E-05 +1.419569E-04 -5.834664E-05 +5.228685E-03 +8.631605E-07 +1.419569E-04 +8.631605E-07 +1.020651E-04 
 -2.490661E-04 +2.651391E-05 -2.401209E-04 +2.651391E-05 +5.177717E-03 -4.881106E-05 -2.401209E-04 -4.881106E-05 -1.947463E-05 
 +4.197821E-05 +1.343709E-04 -1.578283E-04 +1.343709E-04 +5.068974E-03 -1.170649E-04 -1.578283E-04 -1.170649E-04 -7.958764E-05 
 +1.130604E-04 +1.440714E-04 -5.806053E-05 +1.440714E-04 +5.049052E-03 -1.573442E-04 -5.806053E-05 -1.573442E-04 -1.429284E-04 
 +1.219174E-04 +2.040533E-04 -1.175038E-04 +2.040533E-04 +5.095145E-03 -1.735475E-04 -1.175038E-04 -1.735475E-04 -1.634199E-04 
 +2.033908E-04 +9.680560E-05 -3.248885E-05 +9.680560E-05 +5.007402E-03 -2.044856E-04 -3.248885E-05 -2.044856E-04 -4.704894E-05 
 +3.265700E-04 -1.018629E-05 -5.084146E-05 -1.018629E-05 +4.886772E-03 -2.657381E-04 -5.084146E-05 -2.657381E-04 +2.996034E-05 
 +1.936091E-04 +7.609946E-05 +4.086673E-05 +7.609946E-05 +4.897531E-03 -1.423169E-04 +4.086673E-05 -1.423169E-04 +4.067364E-05 
 +2.513653E-04 +1.142566E-04 -4.946122E-05 +1.142566E-04 +4.946487E-03 -1.218630E-05 -4.946122E-05 -1.218630E-05 -2.511469E-05 
 +7.829871E-05 +6.667312E-05 +9.595991E-05 +6.667312E-05 +4.977573E-03 -1.875139E-05 +9.595991E-05 -1.875139E-05 -9.852996E-05 
 +2.870227E-05 +4.101949E-05 +1.407450E-04 +4.101949E-05 +5.013804E-03 +2.858840E-05 +1.407450E-04 +2.858840E-05 -1.903238E-04 
 +5.747431E-05 -7.006174E-07 +1.091695E-04 -7.006174E-07 +5.008621E-03 +5.795493E-05 +1.091695E-04 +5.795493E-05 -2.254428E-04 
 +2.261127E-04 -6.751467E-05 -1.349175E-04 -6.751467E-05 +4.985954E-03 +1.581109E-04 -1.349175E-04 +1.581109E-04 -1.526783E-04 
 +2.859575E-04 -8.580064E-05 -3.275249E-04 -8.580064E-05 +5.017361E-03 +1.776196E-04 -3.275249E-04 +1.776196E-04 -1.734335E-04 
 +2.275380E-04 -3.934258E-05 -2.248557E-04 -3.934258E-05 +5.099845E-03 +1.084647E-04 -2.248557E-04 +1.084647E-04 -1.958536E-04 
 +2.139376E-04 -3.659326E-06 -1.052041E-04 -3.659326E-06 +5.199023E-03 +1.198746E-04 -1.052041E-04 +1.198746E-04 -1.092683E-04 
 +8.098040E-05 -6.983687E-06 -2.946140E-04 -6.983687E-06 +5.184419E-03 +1.002740E-04 -2.946140E-04 +1.002740E-04 +5.116967E-05 
 -4.552070E-04 +6.177133E-05 +1.106410E-04 +6.177133E-05 +5.151067E-03 +1.377382E-04 +1.106410E-04 +1.377382E-04 +2.321983E-04 
 -4.692006E-04 +3.845671E-05 +1.302829E-04 +3.845671E-05 +5.162558E-03 +2.736068E-05 +1.302829E-04 +2.736068E-05 +3.105279E-04 
 -4.737064E-04 +3.268139E-06 +1.116178E-04 +3.268139E-06 +5.184522E-03 -7.065986E-05 +1.116178E-04 -7.065986E-05 +2.527852E-04 
 -4.783736E-04 -7.285034E-06 +1.633083E-04 -7.285034E-06 +5.200264E-03 -1.065279E-04 +1.633083E-04 -1.065279E-04 +2.546938E-04 
 -3.971922E-04 +3.272579E-05 +1.566511E-04 +3.272579E-05 +5.186207E-03 -1.247595E-04 +1.566511E-04 -1.247595E-04 +1.501776E-04 
 -1.609806E-04 +1.089210E-04 -1.410009E-04 +1.089210E-04 +5.133624E-03 -8.425270E-05 -1.410009E-04 -8.425270E-05 -6.657184E-05 
 +3.502298E-05 +1.251792E-04 -1.773419E-04 +1.251792E-04 +5.112126E-03 -7.733439E-05 -1.773419E-04 -7.733439E-05 -1.460159E-04 
 +7.805080E-05 +1.174572E-04 -1.467407E-04 +1.174572E-04 +5.126926E-03 -1.306882E-04 -1.467407E-04 -1.306882E-04 -2.596167E-04 
 +1.179941E-04 +1.477487E-04 -1.221784E-04 +1.477487E-04 +5.080815E-03 -1.466783E-04 -1.221784E-04 -1.466783E-04 -2.313962E-04 
 +2.141389E-04 +2.598145E-05 +1.107332E-04 +2.598145E-05 +4.980687E-03 -1.265601E-04 +1.107332E-04 -1.265601E-04 -8.019094E-05 
 +3.094243E-04 -9.161710E-06 +2.083146E-06 -9.161710E-06 +4.966390E-03 -9.773655E-05 +2.083146E-06 -9.773655E-05 -9.209310E-05 
 +9.804582E-05 +5.446887E-05 +2.582755E-04 +5.446887E-05 +5.004339E-03 -1.974323E-05 +2.582755E-04 -1.974323E-05 -1.335810E-04 
 +3.837315E-04 +6.289193E-05 -6.430868E-05 +6.289193E-05 +5.017066E-03 +6.221169E-05 -6.430868E-05 +6.221169E-05 -2.178499E-04 
 +8.674727E-05 +1.086721E-04 +1.124216E-04 +1.086721E-04 +5.031090E-03 -4.261868E-07 +1.124216E-04 -4.261868E-07 -2.252685E-04 
 -2.956523E-05 +1.441291E-04 +2.134819E-04 +1.441291E-04 +5.029170E-03 -8.475237E-05 +2.134819E-04 -8.475237E-05 -1.386533E-04 
 -2.317100E-05 +7.142690E-05 +1.948792E-04 +7.142690E-05 +5.039277E-03 -9.353861E-05 +1.948792E-04 -9.353861E-05 -1.250229E-04 
 +2.405501E-05 -2.365022E-05 +1.797701E-04 -2.365022E-05 +5.036694E-03 +4.642937E-05 +1.797701E-04 +4.642937E-05 -1.242985E-04 
 +2.182231E-04 -8.539091E-05 -4.024341E-04 -8.539091E-05 +4.993575E-03 +1.206297E-04 -4.024341E-04 +1.206297E-04 -1.048487E-04 
 +3.240673E-04 -7.694238E-05 -1.299580E-04 -7.694238E-05 +4.888645E-03 +6.941721E-05 -1.299580E-04 +6.941721E-05 -7.328599E-05 
 +4.157856E-04 +5.658067E-06 -5.142084E-05 +5.658067E-06 +4.806661E-03 +6.803829E-05 -5.142084E-05 +6.803829E-05 +1.263854E-05 
 +1.820257E-04 +4.932377E-05 -2.548074E-04 +4.932377E-05 +4.982566E-03 +1.332042E-04 -2.548074E-04 +1.332042E-04 +1.097535E-04 
 -3.400681E-04 +7.623928E-05 -3.957800E-05 +7.623928E-05 +5.007059E-03 +5.627985E-05 -3.957800E-05 +5.627985E-05 +2.647113E-04 
 -5.261953E-04 +6.380762E-05 +5.714220E-05 +6.380762E-05 +5.214958E-03 -6.483718E-05 +5.714220E-05 -6.483718E-05 +3.156556E-04 
 -5.078580E-04 +3.760274E-06 +9.112002E-05 +3.760274E-06 +5.215773E-03 -1.461619E-04 +9.112002E-05 -1.461619E-04 +2.800159E-04 
 -3.629814E-04 +2.756255E-05 +1.894544E-04 +2.756255E-05 +5.180119E-03 -1.573577E-04 +1.894544E-04 -1.573577E-04 +2.488525E-04 
 -2.880087E-04 +8.353315E-05 +1.884691E-04 +8.353315E-05 +5.170641E-03 -1.487434E-04 +1.884691E-04 -1.487434E-04 +1.924890E-04 
 -2.891707E-04 +5.995264E-05 +1.093515E-04 +5.995264E-05 +5.186441E-03 -3.573523E-05 +1.093515E-04 -3.573523E-05 -1.968542E-05 
 -1.289952E-05 +6.201330E-05 -2.330181E-04 +6.201330E-05 +5.179501E-03 +2.191036E-06 -2.330181E-04 +2.191036E-06 -1.662163E-04 
 +8.272317E-05 +1.067680E-04 -2.085601E-04 +1.067680E-04 +5.128185E-03 -2.648621E-05 -2.085601E-04 -2.648621E-05 -2.953818E-04 
 +1.639462E-04 +1.324296E-04 -1.552063E-04 +1.324296E-04 +5.045930E-03 -5.008201E-05 -1.552063E-04 -5.008201E-05 -2.250203E-04 
 +2.443397E-04 +4.403170E-05 +1.662353E-04 +4.403170E-05 +5.015716E-03 -1.385366E-04 +1.662353E-04 -1.385366E-04 -7.249534E-05 
 +2.549185E-04 +4.948914E-05 -2.704752E-05 +4.948914E-05 +5.057913E-03 -1.605354E-04 -2.704752E-05 -1.605354E-04 -1.494339E-04 
 -2.701825E-06 +8.937359E-05 +3.330261E-04 +8.937359E-05 +5.056819E-03 -1.181928E-04 +3.330261E-04 -1.181928E-04 -2.024547E-04 
 +4.389482E-04 +7.769473E-05 -3.819512E-05 +7.769473E-05 +5.000380E-03 -4.318165E-05 -3.819512E-05 -4.318165E-05 -2.488929E-04 
 +1.881808E-04 +7.513535E-05 +7.054991E-05 +7.513535E-05 +5.015916E-03 -2.643014E-05 +7.054991E-05 -2.643014E-05 -2.369930E-04 
 -1.149641E-04 +4.993604E-05 +2.054174E-04 +4.993604E-05 +5.067348E-03 -7.733191E-05 +2.054174E-04 -7.733191E-05 -1.153545E-04 
 -8.730170E-05 +1.206243E-06 +2.408924E-04 +1.206243E-06 +5.067714E-03 -8.433124E-05 +2.408924E-04 -8.433124E-05 -2.430115E-05 
 -7.243226E-05 -2.841030E-05 +3.539402E-04 -2.841030E-05 +5.059814E-03 -5.284626E-05 +3.539402E-04 -5.284626E-05 -6.185555E-05 
 +1.196682E-04 -6.611851E-05 -3.448835E-04 -6.611851E-05 +4.917714E-03 +4.566941E-05 -3.448835E-04 +4.566941E-05 -5.530243E-05 
 +4.086072E-04 -4.952961E-05 -6.212146E-05 -4.952961E-05 +4.717717E-03 +1.023755E-04 -6.212146E-05 +1.023755E-04 -2.147087E-05 
 +4.210365E-04 -2.381225E-05 -8.244459E-05 -2.381225E-05 +4.626914E-03 +4.484179E-05 -8.244459E-05 +4.484179E-05 +1.655656E-05 
 +2.820687E-04 +6.475301E-05 -2.009072E-04 +6.475301E-05 +4.704178E-03 +5.790274E-05 -2.009072E-04 +5.790274E-05 +1.399478E-04 
 -1.582049E-04 +1.906193E-05 -1.903132E-04 +1.906193E-05 +4.951743E-03 -1.240977E-04 -1.903132E-04 -1.240977E-04 +2.209032E-04 
 -3.919970E-04 -1.618939E-05 -1.520159E-05 -1.618939E-05 +5.154891E-03 -2.266751E-04 -1.520159E-05 -2.266751E-04 +3.280545E-04 
 -4.060494E-04 -1.313613E-05 +1.532747E-04 -1.313613E-05 +5.229287E-03 -2.407686E-04 +1.532747E-04 -2.407686E-04 +3.652406E-04 
 -2.700143E-04 +2.605713E-05 +2.656032E-04 +2.605713E-05 +5.118099E-03 -1.589582E-04 +2.656032E-04 -1.589582E-04 +3.474351E-04 
 -3.198528E-04 +5.752063E-05 +2.468548E-04 +5.752063E-05 +5.116707E-03 -6.619439E-05 +2.468548E-04 -6.619439E-05 +2.946766E-04 
 -4.343309E-04 +2.311267E-05 +2.328637E-04 +2.311267E-05 +5.186430E-03 -9.855910E-06 +2.328637E-04 -9.855910E-06 +1.048743E-04 
 -3.051670E-06 +3.354210E-05 -2.825859E-04 +3.354210E-05 +5.154862E-03 +1.285648E-05 -2.825859E-04 +1.285648E-05 -1.003702E-04 
 +1.159961E-04 +4.776678E-05 -2.521326E-04 +4.776678E-05 +5.080734E-03 +2.013036E-05 -2.521326E-04 +2.013036E-05 -2.664588E-04 
 +2.115770E-04 +6.127454E-05 -2.101360E-04 +6.127454E-05 +5.023147E-03 -2.134206E-05 -2.101360E-04 -2.134206E-05 -2.256410E-04 
 +2.671701E-04 +2.683869E-05 +1.348415E-04 +2.683869E-05 +5.032013E-03 -1.118563E-04 +1.348415E-04 -1.118563E-04 -1.114664E-04 
 +2.553586E-04 +6.449710E-05 -7.386756E-05 +6.449710E-05 +5.088538E-03 -1.421886E-04 -7.386756E-05 -1.421886E-04 -1.868188E-04 
 -1.673522E-05 +9.625299E-05 +2.790326E-04 +9.625299E-05 +5.072004E-03 -1.476849E-04 +2.790326E-04 -1.476849E-04 -1.798084E-04 
 +3.093249E-04 +6.952970E-05 +3.933460E-05 +6.952970E-05 +5.013870E-03 -1.376599E-04 +3.933460E-05 -1.376599E-04 -1.429519E-04 
 +8.340919E-05 +8.420232E-06 +1.133661E-04 +8.420232E-06 +5.015552E-03 -9.252151E-05 +1.133661E-04 -9.252151E-05 -7.108908E-05 
 -8.768907E-05 -5.103132E-05 +1.999840E-04 -5.103132E-05 +5.042350E-03 -7.445564E-05 +1.999840E-04 -7.445564E-05 -3.831973E-06 
 -6.221338E-05 -3.441860E-05 +2.739935E-04 -3.441860E-05 +5.039709E-03 -8.606047E-05 +2.739935E-04 -8.606047E-05 +3.838885E-05 
 +1.840608E-06 -2.856301E-05 +3.475604E-04 -2.856301E-05 +4.984905E-03 -1.488704E-04 +3.475604E-04 -1.488704E-04 +5.163533E-05 
 +1.336868E-04 -6.870444E-05 -1.256818E-04 -6.870444E-05 +4.940947E-03 -5.824620E-05 -1.256818E-04 -5.824620E-05 +1.778750E-05 
 +3.414003E-04 -2.632860E-05 -1.013791E-04 -2.632860E-05 +4.941511E-03 +6.829755E-05 -1.013791E-04 +6.829755E-05 -7.017210E-05 
 +2.592248E-04 -3.765383E-05 -1.646859E-04 -3.765383E-05 +4.938770E-03 +6.742869E-05 -1.646859E-04 +6.742869E-05 -6.821376E-05 
 +1.710387E-04 +3.306247E-05 -2.086844E-04 +3.306247E-05 +4.905294E-03 +1.804608E-05 -2.086844E-04 +1.804608E-05 +4.440189E-05 
 -1.265090E-04 +4.345315E-05 -1.638811E-04 +4.345315E-05 +4.994849E-03 -1.169891E-04 -1.638811E-04 -1.169891E-04 +1.784914E-04 
 -9.999720E-05 -9.461116E-06 +3.158434E-05 -9.461116E-06 +4.892697E-03 -1.229456E-04 +3.158434E-05 -1.229456E-04 +3.498547E-04 
 -1.075146E-04 -1.775824E-06 +1.617130E-04 -1.775824E-06 +4.947485E-03 -1.490909E-04 +1.617130E-04 -1.490909E-04 +4.284552E-04 
 -4.744623E-04 -8.930108E-05 +3.215951E-04 -8.930108E-05 +5.068903E-03 -1.921342E-04 +3.215951E-04 -1.921342E-04 +4.616153E-04 
 -4.140100E-04 -9.051098E-05 +2.814321E-04 -9.051098E-05 +5.067952E-03 -8.383837E-05 +2.814321E-04 -8.383837E-05 +3.939790E-04 
 -3.012710E-04 -4.674175E-05 +1.157779E-04 -4.674175E-05 +5.063679E-03 -5.295535E-05 +1.157779E-04 -5.295535E-05 +2.246516E-04 
 -1.276013E-06 +2.342653E-05 -2.989046E-04 +2.342653E-05 +5.069646E-03 -4.199692E-05 -2.989046E-04 -4.199692E-05 +3.726669E-05 
 +1.081593E-04 +2.401941E-05 -2.949182E-04 +2.401941E-05 +5.031974E-03 +4.201904E-05 -2.949182E-04 +4.201904E-05 -1.632810E-04 
 +2.174233E-04 +2.622928E-05 -2.663409E-04 +2.622928E-05 +4.988956E-03 +1.673884E-05 -2.663409E-04 +1.673884E-05 -2.017239E-04 
 +2.864032E-04 +1.455304E-05 +1.347670E-04 +1.455304E-05 +4.995779E-03 -8.704866E-05 +1.347670E-04 -8.704866E-05 -1.439303E-04 
 +2.930995E-04 +3.296732E-05 -6.886791E-05 +3.296732E-05 +5.025949E-03 -1.264879E-04 -6.886791E-05 -1.264879E-04 -1.952063E-04 
 +2.315717E-05 +2.572504E-05 +2.074081E-04 +2.572504E-05 +5.052268E-03 -1.282923E-04 +2.074081E-04 -1.282923E-04 -1.283842E-04 
 +5.677420E-05 -4.229813E-06 +1.241791E-04 -4.229813E-06 +5.064105E-03 -1.299022E-04 +1.241791E-04 -1.299022E-04 -3.333372E-05 
 -1.009755E-05 -4.788522E-06 +1.424663E-04 -4.788522E-06 +5.032492E-03 -1.156143E-04 +1.424663E-04 -1.156143E-04 +5.584737E-05 
 -2.226588E-05 -2.545313E-05 +1.692655E-04 -2.545313E-05 +4.990140E-03 -1.022408E-04 +1.692655E-04 -1.022408E-04 +1.151620E-04 
 -8.847349E-06 -6.855786E-05 +2.767200E-04 -6.855786E-05 +4.962229E-03 -1.085336E-04 +2.767200E-04 -1.085336E-04 +1.215197E-04 
 +6.940616E-05 -1.177372E-04 +3.380796E-04 -1.177372E-04 +4.931017E-03 -1.543281E-04 +3.380796E-04 -1.543281E-04 +1.947573E-04 
 +2.091837E-04 -1.347814E-04 +1.181898E-04 -1.347814E-04 +4.938182E-03 -7.706418E-05 +1.181898E-04 -7.706418E-05 +1.580096E-04 
 +2.387961E-04 -5.444593E-05 -1.805110E-04 -5.444593E-05 +5.001953E-03 +2.631393E-05 -1.805110E-04 +2.631393E-05 -8.608203E-06 
 +1.035052E-04 -4.461446E-05 -1.977685E-04 -4.461446E-05 +5.062019E-03 +3.546913E-05 -1.977685E-04 +3.546913E-05 -3.974825E-05 
 -3.976289E-05 +2.124834E-05 -1.248203E-04 +2.124834E-05 +5.061339E-03 -7.318951E-06 -1.248203E-04 -7.318951E-06 -6.006603E-06 
 -8.406052E-05 +1.301682E-04 -5.309194E-06 +1.301682E-04 +4.906965E-03 +1.120733E-04 -5.309194E-06 +1.120733E-04 +6.498578E-05 
 -2.285103E-05 -3.989537E-06 +6.173877E-05 -3.989537E-06 +4.834155E-03 +9.427088E-05 +6.173877E-05 +9.427088E-05 +2.179567E-04 
 -1.077192E-05 -5.438612E-05 +3.163158E-05 -5.438612E-05 +4.892232E-03 -4.585945E-06 +3.163158E-05 -4.585945E-06 +3.057067E-04 
 -5.500380E-04 -1.555360E-04 +1.949139E-04 -1.555360E-04 +5.104689E-03 -1.883578E-04 +1.949139E-04 -1.883578E-04 +4.378624E-04 
 -5.120338E-04 -1.437562E-04 +2.708104E-04 -1.437562E-04 +5.079940E-03 -1.669132E-04 +2.708104E-04 -1.669132E-04 +4.303817E-04 
 -6.973179E-05 -6.190499E-05 -1.828262E-04 -6.190499E-05 +4.964205E-03 -1.423139E-04 -1.828262E-04 -1.423139E-04 +2.936244E-04 
 +5.547421E-05 -1.954006E-05 -3.046977E-04 -1.954006E-05 +4.977637E-03 -1.134101E-04 -3.046977E-04 -1.134101E-04 +1.436592E-04 
 +1.187536E-04 +1.604498E-05 -2.702796E-04 +1.604498E-05 +5.000624E-03 +4.750780E-05 -2.702796E-04 +4.750780E-05 -7.066839E-06 
 +1.425317E-04 +8.078347E-06 -3.026541E-04 +8.078347E-06 +5.006325E-03 +7.307756E-05 -3.026541E-04 +7.307756E-05 -1.129516E-04 
 +2.600547E-04 -3.935804E-05 +5.456798E-05 -3.935804E-05 +4.965511E-03 -2.193896E-05 +5.456798E-05 -2.193896E-05 -1.288745E-04 
 +3.538547E-04 +2.084764E-05 -8.832950E-05 +2.084764E-05 +4.998414E-03 -7.671457E-05 -8.832950E-05 -7.671457E-05 -1.269244E-04 
 +9.462851E-07 -1.721256E-05 +2.166921E-04 -1.721256E-05 +5.079239E-03 -1.616735E-05 +2.166921E-04 -1.616735E-05 -8.961104E-05 
 -7.728588E-05 -3.624275E-05 +1.581918E-04 -3.624275E-05 +5.089074E-03 +4.625835E-07 +1.581918E-04 +4.625835E-07 +1.565795E-05 
 -1.927120E-05 -3.326904E-05 +1.492533E-04 -3.326904E-05 +5.010366E-03 -5.684975E-05 +1.492533E-04 -5.684975E-05 +1.122514E-04 
 -1.315853E-05 -4.054168E-05 +1.868904E-04 -4.054168E-05 +4.929745E-03 -9.860091E-05 +1.868904E-04 -9.860091E-05 +2.198427E-04 
 +2.168325E-05 -7.594705E-05 +3.104183E-04 -7.594705E-05 +4.901068E-03 -1.276343E-04 +3.104183E-04 -1.276343E-04 +2.644063E-04 
 +1.641799E-04 -8.368012E-05 +3.779760E-04 -8.368012E-05 +4.874711E-03 -7.621431E-05 +3.779760E-04 -7.621431E-05 +3.226805E-04 
 +1.934213E-04 -7.067157E-05 +2.382493E-04 -7.067157E-05 +4.899626E-03 +1.012195E-05 +2.382493E-04 +1.012195E-05 +2.310525E-04 
 +1.406504E-04 -5.785263E-05 -4.710906E-05 -5.785263E-05 +4.964810E-03 +7.310698E-05 -4.710906E-05 +7.310698E-05 +5.185523E-05 
 -1.525665E-05 -4.893037E-05 -1.251845E-04 -4.893037E-05 +5.067466E-03 +8.335727E-05 -1.251845E-04 +8.335727E-05 -8.181845E-06 
 -7.721558E-05 -1.565804E-05 +1.483716E-04 -1.565804E-05 +5.036197E-03 +9.690767E-05 +1.483716E-04 +9.690767E-05 -6.152381E-05 
 +2.940145E-05 +2.876476E-05 +4.938782E-05 +2.876476E-05 +4.952465E-03 +1.537183E-04 +4.938782E-05 +1.537183E-04 -2.272199E-05 
 -5.055984E-05 -6.111329E-05 +4.780232E-05 -6.111329E-05 +4.941195E-03 +1.409240E-04 +4.780232E-05 +1.409240E-04 +8.556796E-05 
 -1.072184E-04 -2.291982E-05 -6.659562E-05 -2.291982E-05 +4.830220E-03 +1.091725E-04 -6.659562E-05 +1.091725E-04 +1.690881E-04 
 -2.980009E-04 +1.416501E-05 -3.515635E-05 +1.416501E-05 +4.817824E-03 -2.260887E-05 -3.515635E-05 -2.260887E-05 +3.530640E-04 
 -6.205962E-04 -8.741230E-05 +9.643138E-05 -8.741230E-05 +4.999171E-03 -1.964423E-04 +9.643138E-05 -1.964423E-04 +3.788739E-04 
 +3.338114E-05 -2.773860E-05 -3.391371E-04 -2.773860E-05 +5.018746E-03 -2.197922E-04 -3.391371E-04 -2.197922E-04 +2.093510E-04 
 +1.248790E-04 -7.063025E-06 -2.939957E-04 -7.063025E-06 +4.957301E-03 -1.026590E-04 -2.939957E-04 -1.026590E-04 +1.311559E-04 
 +1.402578E-04 +2.109175E-05 -2.492094E-04 +2.109175E-05 +4.968637E-03 -1.203972E-05 -2.492094E-04 -1.203972E-05 +1.736508E-04 
 +1.396164E-04 +2.517387E-05 -3.216367E-04 +2.517387E-05 +4.972187E-03 +3.844784E-05 -3.216367E-04 +3.844784E-05 +1.044182E-04 
 +2.589662E-04 +6.273441E-05 -7.277985E-05 +6.273441E-05 +4.940996E-03 +5.037372E-05 -7.277985E-05 +5.037372E-05 +5.952906E-06 
 +2.971074E-04 +1.643915E-04 -1.283007E-04 +1.643915E-04 +4.999056E-03 +8.613937E-05 -1.283007E-04 +8.613937E-05 -3.832265E-05 
 -1.299241E-05 +5.767664E-05 +1.708121E-04 +5.767664E-05 +5.134210E-03 +1.064512E-04 +1.708121E-04 +1.064512E-04 -7.980003E-05 
 -7.807498E-05 -9.319443E-06 +1.131184E-04 -9.319443E-06 +5.120527E-03 +5.469214E-05 +1.131184E-04 +5.469214E-05 +6.167176E-06 
 -6.025623E-05 -2.051955E-05 +1.703763E-04 -2.051955E-05 +4.988998E-03 -2.242122E-06 +1.703763E-04 -2.242122E-06 +1.119795E-04 
 -5.576936E-05 -4.179431E-06 +1.733524E-04 -4.179431E-06 +4.906803E-03 -7.052013E-05 +1.733524E-04 -7.052013E-05 +2.019945E-04 
 +1.864287E-04 +4.565808E-06 +3.237083E-04 +4.565808E-06 +4.884977E-03 -7.908073E-05 +3.237083E-04 -7.908073E-05 +2.470936E-04 
 +1.617512E-04 -2.503617E-05 +3.797923E-04 -2.503617E-05 +4.885199E-03 -9.488982E-06 +3.797923E-04 -9.488982E-06 +2.944721E-04 
 +6.177741E-05 -4.773607E-05 +2.379025E-04 -4.773607E-05 +4.948503E-03 +4.063640E-05 +2.379025E-04 +4.063640E-05 +1.774360E-04 
 -5.943519E-06 -7.050115E-05 +1.563618E-04 -7.050115E-05 +5.034560E-03 +5.583597E-05 +1.563618E-04 +5.583597E-05 -6.705014E-06 
 -7.602748E-05 -4.171104E-05 -3.782574E-05 -4.171104E-05 +5.035861E-03 +6.774245E-05 -3.782574E-05 +6.774245E-05 -6.995191E-05 
 -6.826316E-05 -1.248166E-04 +2.719817E-04 -1.248166E-04 +4.991777E-03 +1.242809E-04 +2.719817E-04 +1.242809E-04 -1.055758E-04 
 +5.457152E-05 -4.066762E-05 +5.927801E-05 -4.066762E-05 +4.894275E-03 +2.489579E-04 +5.927801E-05 +2.489579E-04 -1.155267E-05 
 +5.427483E-05 -4.532133E-05 +3.192292E-05 -4.532133E-05 +4.914333E-03 +2.220962E-04 +3.192292E-05 +2.220962E-04 +7.010378E-05 
 -2.720166E-04 -1.492665E-04 -1.516064E-04 -1.492665E-04 +5.046381E-03 +9.177673E-05 -1.516064E-04 +9.177673E-05 +7.105691E-05 
 -9.241159E-05 -1.198391E-04 -1.393414E-04 -1.198391E-04 +5.031543E-03 -6.107646E-07 -1.393414E-04 -6.107646E-07 +1.024704E-04 
 -4.285365E-04 -9.782038E-05 -1.122544E-04 -9.782038E-05 +5.008686E-03 -1.182746E-04 -1.122544E-04 -1.182746E-04 +1.785986E-04 
 +5.371260E-05 +2.244033E-05 -2.480450E-04 +2.244033E-05 +5.025699E-03 -1.443780E-04 -2.480450E-04 -1.443780E-04 +1.625773E-04 
 +1.682955E-04 +3.596490E-05 -2.323672E-04 +3.596490E-05 +4.985688E-03 -6.997402E-05 -2.323672E-04 -6.997402E-05 +1.684191E-04 
 +1.453703E-04 +6.889890E-05 -2.317426E-04 +6.889890E-05 +4.878749E-03 -8.191767E-05 -2.317426E-04 -8.191767E-05 +3.123061E-04 
 +1.887946E-04 +6.563660E-05 -2.612676E-04 +6.563660E-05 +4.815427E-03 -3.475558E-05 -2.612676E-04 -3.475558E-05 +3.042134E-04 
 +2.035716E-04 +3.365866E-05 -1.015758E-04 +3.365866E-05 +4.874874E-03 +5.813417E-05 -1.015758E-04 +5.813417E-05 +1.469356E-04 
 +1.855047E-04 +1.456760E-04 -7.037249E-05 +1.456760E-04 +4.928046E-03 +1.131885E-04 -7.037249E-05 +1.131885E-04 +2.808060E-05 
 +1.328577E-04 +1.486335E-04 +7.675966E-05 +1.486335E-04 +4.969076E-03 +1.240512E-04 +7.675966E-05 +1.240512E-04 -3.826498E-05 
 -4.950443E-05 +4.811782E-05 +5.838414E-05 +4.811782E-05 +5.003872E-03 +1.094607E-04 +5.838414E-05 +1.094607E-04 +2.078243E-05 
 -1.145898E-04 +4.572259E-05 +1.097209E-04 +4.572259E-05 +4.984018E-03 +7.794117E-05 +1.097209E-04 +7.794117E-05 +8.276239E-05 
 -1.016932E-04 +9.678261E-05 +8.645802E-05 +9.678261E-05 +4.973961E-03 +6.068465E-05 +8.645802E-05 +6.068465E-05 +5.519119E-05 
 +3.151811E-04 +6.771440E-05 +2.422392E-04 +6.771440E-05 +4.976525E-03 +7.227971E-05 +2.422392E-04 +7.227971E-05 +8.040988E-05 
 -3.535580E-05 -4.395906E-05 +3.075326E-04 -4.395906E-05 +5.007424E-03 +2.050081E-05 +3.075326E-04 +2.050081E-05 +1.698518E-04 
 -9.558529E-05 -6.174825E-05 +1.979605E-04 -6.174825E-05 +5.042496E-03 -3.149995E-05 +1.979605E-04 -3.149995E-05 +9.071725E-05 
 -9.005771E-05 -7.018188E-05 +1.919535E-04 -7.018188E-05 +5.071284E-03 -3.740680E-05 +1.919535E-04 -3.740680E-05 -4.466599E-05 
 -8.931776E-05 -4.540984E-05 +4.680881E-05 -4.540984E-05 +5.074673E-03 +3.560241E-05 +4.680881E-05 +3.560241E-05 -4.921510E-05 
 -1.331351E-04 -1.274115E-04 +2.140523E-04 -1.274115E-04 +5.020389E-03 +1.574966E-04 +2.140523E-04 +1.574966E-04 -3.492061E-05 
 -9.892632E-05 -8.356198E-05 +5.818905E-05 -8.356198E-05 +5.017866E-03 +1.794098E-04 +5.818905E-05 +1.794098E-04 +1.444891E-05 
 -9.785471E-06 -7.303848E-05 -9.098844E-06 -7.303848E-05 +4.952422E-03 +2.640921E-04 -9.098844E-06 +2.640921E-04 +3.077542E-05 
 -3.018542E-04 -1.750373E-04 -1.837625E-04 -1.750373E-04 +5.064754E-03 +2.246395E-04 -1.837625E-04 +2.246395E-04 -1.311249E-04 
 +8.191936E-05 -1.137176E-04 -7.482457E-05 -1.137176E-04 +5.070623E-03 +1.385300E-04 -7.482457E-05 +1.385300E-04 -2.688677E-04 
 +6.472227E-05 -1.639271E-05 -1.074208E-04 -1.639271E-05 +4.971421E-03 +1.746480E-05 -1.074208E-04 +1.746480E-05 -1.212452E-04 
 +1.268205E-04 +1.309813E-04 -1.339807E-04 +1.309813E-04 +4.903472E-03 -7.789426E-05 -1.339807E-04 -7.789426E-05 +1.394718E-04 
 +1.267640E-04 +1.485451E-04 -1.825995E-04 +1.485451E-04 +4.877900E-03 -9.451075E-05 -1.825995E-04 -9.451075E-05 +2.430805E-04 
 +9.933321E-05 +7.928530E-05 -1.303885E-04 +7.928530E-05 +4.880582E-03 -3.684937E-05 -1.303885E-04 -3.684937E-05 +2.733298E-04 
 +1.248045E-04 +6.211101E-05 -1.421255E-04 +6.211101E-05 +4.866796E-03 +5.445180E-05 -1.421255E-04 +5.445180E-05 +2.298524E-04 
 +1.173585E-04 +8.460026E-05 -5.076888E-05 +8.460026E-05 +4.877682E-03 +1.140724E-04 -5.076888E-05 +1.140724E-04 +1.004621E-04 
 +1.706990E-04 +1.503958E-04 +7.069217E-07 +1.503958E-04 +4.787991E-03 +1.338440E-04 +7.069217E-07 +1.338440E-04 +7.478074E-06 
 +3.088573E-04 +1.954932E-04 +3.443869E-05 +1.954932E-04 +4.684457E-03 +1.830553E-04 +3.443869E-05 +1.830553E-04 +1.436762E-05 
 -3.350117E-05 +6.615957E-05 +4.262678E-06 +6.615957E-05 +4.776668E-03 +2.313392E-04 +4.262678E-06 +2.313392E-04 +4.802482E-05 
 -1.859199E-04 +2.504718E-05 +3.791740E-05 +2.504718E-05 +4.923426E-03 +1.889584E-04 +3.791740E-05 +1.889584E-04 +1.956422E-05 
 -9.776935E-05 +4.800023E-05 +7.095212E-05 +4.800023E-05 +4.951377E-03 +1.970615E-04 +7.095212E-05 +1.970615E-04 -3.049337E-05 
 +8.810451E-05 -4.906002E-05 +1.340462E-04 -4.906002E-05 +4.968475E-03 +1.858477E-04 +1.340462E-04 +1.858477E-04 +5.462896E-05 
 -8.648241E-05 -1.428956E-04 +1.539865E-04 -1.428956E-04 +5.082570E-03 -1.722452E-05 +1.539865E-04 -1.722452E-05 +6.895246E-05 
 -1.021101E-04 -4.614948E-05 +1.224865E-04 -4.614948E-05 +5.148690E-03 -1.693172E-04 +1.224865E-04 -1.693172E-04 -6.322855E-05 
 -1.379073E-04 +1.348407E-05 +1.821298E-04 +1.348407E-05 +5.124312E-03 -1.364218E-04 +1.821298E-04 -1.364218E-04 -4.934450E-05 
 -8.543555E-05 +3.892110E-06 +8.562984E-05 +3.892110E-06 +5.082992E-03 -7.006737E-05 +8.562984E-05 -7.006737E-05 +7.823964E-05 
 -1.697962E-04 -4.942542E-05 +1.487631E-04 -4.942542E-05 +5.086398E-03 +1.789325E-05 +1.487631E-04 +1.789325E-05 +6.153711E-05 
 -2.713662E-04 -5.555894E-05 +2.307779E-05 -5.555894E-05 +5.134798E-03 +1.102602E-04 +2.307779E-05 +1.102602E-04 +1.012341E-04 
 -2.860694E-04 +6.342898E-06 +6.128660E-05 +6.342898E-06 +5.184687E-03 +1.988953E-04 +6.128660E-05 +1.988953E-04 +3.728467E-05 
 -5.942973E-05 -5.876847E-05 -2.360913E-05 -5.876847E-05 +5.148997E-03 +2.614946E-04 -2.360913E-05 +2.614946E-04 -1.373200E-04 
 +2.144857E-04 -1.297310E-04 -3.870671E-05 -1.297310E-04 +5.059506E-03 +1.853257E-04 -3.870671E-05 +1.853257E-04 -2.918597E-04 
 +3.315082E-04 -1.422601E-04 -5.918359E-05 -1.422601E-04 +4.956052E-03 +4.307576E-05 -5.918359E-05 +4.307576E-05 -2.880431E-04 
 +3.466904E-04 -7.136193E-05 -5.024856E-05 -7.136193E-05 +4.930291E-03 -1.053004E-05 -5.024856E-05 -1.053004E-05 -7.962281E-05 
 +1.044568E-04 +5.946805E-05 -2.155833E-04 +5.946805E-05 +4.926433E-03 -1.331165E-05 -2.155833E-04 -1.331165E-05 +9.016509E-05 
 +2.320426E-05 +5.084764E-05 -8.255033E-05 +5.084764E-05 +4.929391E-03 +2.216509E-05 -8.255033E-05 +2.216509E-05 +7.299927E-05 
 +5.554077E-05 +6.880356E-05 -8.259313E-05 +6.880356E-05 +4.927292E-03 +7.714609E-05 -8.259313E-05 +7.714609E-05 +1.186525E-05 
 +1.275486E-04 +1.066966E-04 -5.191717E-06 +1.066966E-04 +4.879499E-03 +1.234579E-04 -5.191717E-06 +1.234579E-04 -4.434998E-05 
 +1.767508E-04 +1.169920E-04 -3.272870E-05 +1.169920E-04 +4.767144E-03 +1.244899E-04 -3.272870E-05 +1.244899E-04 -1.021345E-04 
 +2.304181E-04 +1.487428E-04 +1.089219E-04 +1.487428E-04 +4.665097E-03 +1.895808E-04 +1.089219E-04 +1.895808E-04 -2.078106E-05 
 -6.304859E-05 +5.076660E-05 -2.841945E-05 +5.076660E-05 +4.774051E-03 +2.599521E-04 -2.841945E-05 +2.599521E-04 +5.857561E-05 
 -1.812771E-04 -2.106315E-05 -1.502265E-05 -2.106315E-05 +4.964252E-03 +1.683620E-04 -1.502265E-05 +1.683620E-04 -2.062037E-05 
 -1.876772E-04 -3.578657E-05 +4.830843E-05 -3.578657E-05 +5.099200E-03 +8.972792E-05 +4.830843E-05 +8.972792E-05 -1.029422E-04 
 -1.318482E-04 -8.960592E-05 +5.749342E-05 -8.960592E-05 +5.166672E-03 +4.479522E-05 +5.749342E-05 +4.479522E-05 -9.300975E-06 
 +4.287608E-05 -5.622103E-05 -2.345868E-05 -5.622103E-05 +5.151489E-03 -8.215983E-05 -2.345868E-05 -8.215983E-05 -9.981016E-05 
 +6.325634E-05 +2.211230E-05 +2.764912E-05 +2.211230E-05 +5.170489E-03 -1.477441E-04 +2.764912E-05 -1.477441E-04 -2.093263E-04 
 -1.873689E-04 +6.714240E-05 +2.012419E-04 +6.714240E-05 +5.153286E-03 -9.731646E-05 +2.012419E-04 -9.731646E-05 +1.963725E-05 
 -1.295244E-04 +4.095553E-05 +9.222670E-05 +4.095553E-05 +5.079619E-03 -3.340696E-05 +9.222670E-05 -3.340696E-05 +2.001856E-04 
 -2.192606E-04 -5.167302E-06 +1.036682E-04 -5.167302E-06 +5.054352E-03 +3.143559E-05 +1.036682E-04 +3.143559E-05 +1.580280E-04 
 -3.541628E-04 +7.147919E-06 +1.555614E-05 +7.147919E-06 +5.091119E-03 +1.020689E-04 +1.555614E-05 +1.020689E-04 +2.074905E-04 
 -3.401966E-04 +1.399898E-04 +1.461343E-04 +1.399898E-04 +5.111401E-03 +1.565987E-04 +1.461343E-04 +1.565987E-04 +1.337430E-04 
 +2.947944E-05 +7.721776E-05 +3.076554E-05 +7.721776E-05 +5.067768E-03 +1.842661E-04 +3.076554E-05 +1.842661E-04 +8.874408E-06 
 +2.510041E-04 -1.044465E-04 -1.046767E-04 -1.044465E-04 +5.011633E-03 +1.351792E-04 -1.046767E-04 +1.351792E-04 -1.456923E-04 
 +3.118619E-04 -2.030144E-04 -8.637293E-05 -2.030144E-04 +4.842805E-03 +9.701213E-05 -8.637293E-05 +9.701213E-05 -2.664375E-04 
 +4.542107E-04 -1.596047E-04 -7.441765E-05 -1.596047E-04 +4.668895E-03 +8.060968E-07 -7.441765E-05 +8.060968E-07 -2.227289E-04 
 +2.520166E-04 -3.428560E-05 -1.282124E-04 -3.428560E-05 +4.757760E-03 -4.763688E-05 -1.282124E-04 -4.763688E-05 -1.180682E-04 
 +8.359371E-05 +2.263689E-05 -1.347799E-04 +2.263689E-05 +4.908747E-03 -3.710340E-06 -1.347799E-04 -3.710340E-06 -6.058713E-05 
 +4.820558E-05 +7.050705E-05 -6.968117E-05 +7.050705E-05 +4.963960E-03 +2.981402E-05 -6.968117E-05 +2.981402E-05 -8.627870E-05 
 +9.958259E-05 +4.944434E-05 -3.394136E-05 +4.944434E-05 +4.906628E-03 +5.187687E-05 -3.394136E-05 +5.187687E-05 -1.693629E-04 
 +5.974124E-05 -5.044829E-06 +4.209789E-05 -5.044829E-06 +4.888802E-03 +8.520608E-05 +4.209789E-05 +8.520608E-05 -2.321286E-04 
 -2.120262E-05 -4.552274E-05 +3.085988E-04 -4.552274E-05 +4.909945E-03 +1.918726E-04 +3.085988E-04 +1.918726E-04 -1.519387E-04 
 -6.991466E-05 -5.602051E-05 +4.893689E-05 -5.602051E-05 +4.826686E-03 +2.657369E-04 +4.893689E-05 +2.657369E-04 +3.489972E-05 
 -1.049280E-04 -6.268102E-05 -1.068941E-04 -6.268102E-05 +4.888978E-03 +1.877818E-04 -1.068941E-04 +1.877818E-04 +3.394016E-05 
 -1.744217E-04 +3.514633E-05 -4.406905E-05 +3.514633E-05 +5.129936E-03 +5.590932E-05 -4.406905E-05 +5.590932E-05 -1.060228E-04 
 -1.113222E-05 +3.339950E-05 -4.324996E-05 +3.339950E-05 +5.238388E-03 -1.534921E-05 -4.324996E-05 -1.534921E-05 -1.046801E-04 
 +6.914736E-05 +7.852384E-05 -1.367834E-04 +7.852384E-05 +5.202308E-03 -7.876085E-05 -1.367834E-04 -7.876085E-05 -2.159328E-04 
 +1.155386E-04 +6.045262E-05 -3.965467E-05 +6.045262E-05 +5.172730E-03 -4.737942E-05 -3.965467E-05 -4.737942E-05 -2.174681E-04 
 -1.382357E-04 +4.047193E-05 +1.270593E-04 +4.047193E-05 +5.147849E-03 -1.627757E-05 +1.270593E-04 -1.627757E-05 +5.645032E-05 
 -2.487569E-04 +3.797833E-05 +1.227971E-04 +3.797833E-05 +5.098801E-03 +1.305724E-06 +1.227971E-04 +1.305724E-06 +2.475607E-04 
 -3.115406E-04 +1.249458E-05 +8.784678E-05 +1.249458E-05 +5.072536E-03 +5.503108E-05 +8.784678E-05 +5.503108E-05 +2.631051E-04 
 -3.709390E-04 +5.679609E-05 +4.439382E-05 +5.679609E-05 +5.033737E-03 +7.594068E-05 +4.439382E-05 +7.594068E-05 +2.883361E-04 
 -3.710978E-04 +9.376579E-05 +1.525886E-04 +9.376579E-05 +4.996214E-03 +8.726365E-05 +1.525886E-04 +8.726365E-05 +2.321234E-04 
 +1.376058E-04 -2.598701E-05 -8.495273E-05 -2.598701E-05 +4.881262E-03 +6.476416E-05 -8.495273E-05 +6.476416E-05 +6.627531E-05 
 +3.173202E-04 -1.647537E-05 -5.792124E-05 -1.647537E-05 +4.805347E-03 +5.784492E-05 -5.792124E-05 +5.784492E-05 -6.566597E-05 
 +2.914046E-04 -7.122720E-05 -1.842197E-05 -7.122720E-05 +4.967300E-03 +5.829744E-05 -1.842197E-05 +5.829744E-05 -1.507942E-04 
 +3.509245E-04 -6.591131E-05 -1.006972E-04 -6.591131E-05 +5.028722E-03 +1.852577E-05 -1.006972E-04 +1.852577E-05 -1.877617E-04 
 +3.454914E-04 +4.024943E-05 +5.484993E-05 +4.024943E-05 +4.838774E-03 +2.948177E-05 +5.484993E-05 +2.948177E-05 -1.626122E-04 
 +2.065399E-04 +9.784952E-05 -1.400985E-04 +9.784952E-05 +4.857311E-03 +1.478283E-05 -1.400985E-04 +1.478283E-05 -1.086036E-04 
 +6.403133E-05 +6.890285E-05 -1.840649E-05 +6.890285E-05 +5.016884E-03 +8.611371E-06 -1.840649E-05 +8.611371E-06 -1.498127E-04 
 -9.828076E-05 -4.477211E-05 -1.493862E-04 -4.477211E-05 +5.111299E-03 +5.931125E-05 -1.493862E-04 +5.931125E-05 -2.432549E-04 
 -1.656580E-04 -1.359622E-04 +1.352055E-04 -1.359622E-04 +5.110180E-03 +1.295541E-04 +1.352055E-04 +1.295541E-04 -2.218748E-04 
 -9.815299E-05 -1.099779E-04 +2.185049E-04 -1.099779E-04 +5.018337E-03 +1.260918E-04 +2.185049E-04 +1.260918E-04 -1.537084E-04 
 -4.978355E-05 -1.006390E-04 +7.378161E-05 -1.006390E-04 +4.859548E-03 +6.969255E-05 +7.378161E-05 +6.969255E-05 +4.221377E-06 
 -9.813923E-07 +2.624895E-05 -2.219247E-04 +2.624895E-05 +4.684155E-03 +2.132310E-05 -2.219247E-04 +2.132310E-05 +3.876552E-05 
 -2.181465E-05 +1.802583E-04 -1.066328E-04 +1.802583E-04 +4.720078E-03 -4.276919E-05 -1.066328E-04 -4.276919E-05 -4.643912E-05 
 +9.036102E-05 +1.316618E-05 -8.013372E-05 +1.316618E-05 +4.912365E-03 -2.093787E-05 -8.013372E-05 -2.093787E-05 -9.168078E-05 
 +6.143367E-05 +2.389093E-05 -2.189407E-04 +2.389093E-05 +5.137651E-03 -4.011427E-05 -2.189407E-04 -4.011427E-05 -3.238056E-04 
 +6.452344E-05 -3.099413E-07 -1.402079E-04 -3.099413E-07 +5.255899E-03 -6.199898E-05 -1.402079E-04 -6.199898E-05 -3.688793E-04 
 -1.387037E-05 -3.364857E-05 -7.822679E-05 -3.364857E-05 +5.204443E-03 -5.123872E-05 -7.822679E-05 -5.123872E-05 -1.261006E-04 
 -3.516152E-04 -1.244866E-05 +1.404465E-04 -1.244866E-05 +5.132223E-03 -1.079869E-05 +1.404465E-04 -1.079869E-05 +2.242634E-04 
 -3.875270E-04 +9.454146E-06 +1.011141E-04 +9.454146E-06 +5.072470E-03 +5.355471E-05 +1.011141E-04 +5.355471E-05 +3.466807E-04 
 -4.537269E-04 +3.618458E-05 +8.715058E-05 +3.618458E-05 +5.045818E-03 +8.218299E-05 +8.715058E-05 +8.218299E-05 +3.453785E-04 
 -2.535273E-04 +6.803967E-05 +1.244228E-04 +6.803967E-05 +4.875500E-03 +3.245044E-05 +1.244228E-04 +3.245044E-05 +2.948441E-04 
 +3.199599E-04 +5.611876E-05 -6.141414E-05 +5.611876E-05 +4.518519E-03 -2.095331E-05 -6.141414E-05 -2.095331E-05 +1.860082E-04 
 +3.615372E-04 +1.218486E-04 +5.699299E-05 +1.218486E-04 +4.417747E-03 +1.023763E-05 +5.699299E-05 +1.023763E-05 +1.432907E-04 
 +3.120988E-04 +1.008463E-04 +1.029471E-04 +1.008463E-04 +4.532702E-03 -3.160689E-06 +1.029471E-04 -3.160689E-06 +7.634866E-05 
 +3.124401E-04 +4.237390E-05 +4.004328E-06 +4.237390E-05 +4.680031E-03 +2.104287E-05 +4.004328E-06 +2.104287E-05 -2.958322E-05 
 +2.016468E-04 +1.291189E-04 +5.666064E-05 +1.291189E-04 +4.852864E-03 +1.004218E-05 +5.666064E-05 +1.004218E-05 -8.934320E-05 
 +1.656349E-04 +1.215714E-04 -4.970298E-05 +1.215714E-04 +4.914079E-03 -9.876005E-06 -4.970298E-05 -9.876005E-06 -1.362338E-04 
 +2.651724E-05 +3.907142E-05 +8.339531E-05 +3.907142E-05 +5.017581E-03 +4.682388E-05 +8.339531E-05 +4.682388E-05 -2.176826E-04 
 -2.923211E-04 -1.021916E-04 -2.831130E-04 -1.021916E-04 +5.129479E-03 +1.346756E-04 -2.831130E-04 +1.346756E-04 -2.487038E-04 
 -2.746510E-04 -1.337186E-04 -1.037468E-04 -1.337186E-04 +5.127759E-03 +1.695318E-04 -1.037468E-04 +1.695318E-04 -1.529813E-04 
 -9.649814E-05 -1.358380E-04 -1.208388E-04 -1.358380E-04 +5.075916E-03 +1.281564E-04 -1.208388E-04 +1.281564E-04 -8.218420E-05 
 -6.087838E-05 -1.799865E-04 -7.181396E-05 -1.799865E-04 +5.029398E-03 +5.281946E-05 -7.181396E-05 +5.281946E-05 -1.879237E-05 
 -2.970492E-05 -1.363401E-04 -2.224797E-04 -1.363401E-04 +5.020397E-03 +4.958351E-05 -2.224797E-04 +4.958351E-05 -5.758949E-05 
 +8.581558E-06 -6.456504E-05 -1.284185E-04 -6.456504E-05 +4.877537E-03 +4.107478E-05 -1.284185E-04 +4.107478E-05 -7.874469E-05 
 +2.102575E-04 -6.342260E-05 -1.145242E-05 -6.342260E-05 +4.866887E-03 -3.406342E-05 -1.145242E-05 -3.406342E-05 -3.741302E-05 
 +1.475822E-04 +4.108880E-05 -2.023682E-04 +4.108880E-05 +5.050992E-03 -4.651674E-05 -2.023682E-04 -4.651674E-05 -2.614468E-04 
 +1.354505E-04 -9.822052E-07 -1.646148E-04 -9.822052E-07 +5.185438E-03 -3.452388E-05 -1.646148E-04 -3.452388E-05 -3.729154E-04 
 +6.909517E-05 -6.866446E-05 -1.868915E-04 -6.866446E-05 +5.214825E-03 +4.404216E-06 -1.868915E-04 +4.404216E-06 -1.603304E-04 
 -3.758842E-04 -6.006237E-05 +1.182230E-04 -6.006237E-05 +5.118976E-03 +4.871036E-05 +1.182230E-04 +4.871036E-05 +2.385555E-04 
 -4.336736E-04 +5.935609E-06 +7.450228E-05 +5.935609E-06 +5.034907E-03 +6.220388E-05 +7.450228E-05 +6.220388E-05 +4.015421E-04 
 -3.234910E-04 +2.461249E-05 +6.736484E-05 +2.461249E-05 +4.874348E-03 +5.640686E-05 +6.736484E-05 +5.640686E-05 +3.926681E-04 
 +1.116897E-04 +5.820166E-05 +5.238629E-05 +5.820166E-05 +4.464808E-03 -8.049139E-05 +5.238629E-05 -8.049139E-05 +3.037504E-04 
 +3.058290E-04 +1.073049E-04 +1.865507E-05 +1.073049E-04 +4.325107E-03 -1.505417E-04 +1.865507E-05 -1.505417E-04 +2.182553E-04 
 +2.882992E-04 +1.872565E-04 +3.172975E-05 +1.872565E-04 +4.375334E-03 -1.373129E-04 +3.172975E-05 -1.373129E-04 +1.940259E-04 
 +2.879735E-04 +1.572144E-04 +4.820836E-05 +1.572144E-04 +4.422700E-03 -1.175277E-04 +4.820836E-05 -1.175277E-04 +1.864771E-04 
 +2.151531E-04 +7.183463E-05 +3.026783E-05 +7.183463E-05 +4.639766E-03 -6.726195E-05 +3.026783E-05 -6.726195E-05 +1.213126E-04 
 +5.199934E-05 +8.733354E-05 +5.923820E-05 +8.733354E-05 +4.862759E-03 -1.607880E-05 +5.923820E-05 -1.607880E-05 -1.589631E-06 
 +2.318016E-05 +7.096475E-05 +4.511748E-05 +7.096475E-05 +4.943184E-03 +3.060962E-05 +4.511748E-05 +3.060962E-05 -8.254392E-05 
 -6.463836E-05 +8.715970E-05 +1.008710E-04 +8.715970E-05 +5.002862E-03 +3.326151E-05 +1.008710E-04 +3.326151E-05 -1.548094E-04 
 -3.621259E-04 -1.243491E-04 -2.328816E-04 -1.243491E-04 +5.090082E-03 +1.112185E-04 -2.328816E-04 +1.112185E-04 -1.666115E-04 
 -2.909271E-04 -1.638812E-04 -2.242833E-04 -1.638812E-04 +5.120197E-03 +1.730281E-04 -2.242833E-04 +1.730281E-04 -1.081230E-04 
 -1.558343E-04 -1.794499E-04 -1.410977E-04 -1.794499E-04 +5.112835E-03 +1.179835E-04 -1.410977E-04 +1.179835E-04 -8.906321E-05 
 -1.171242E-04 -1.849598E-04 -7.386627E-05 -1.849598E-04 +5.123361E-03 +9.217296E-05 -7.386627E-05 +9.217296E-05 -1.418579E-04 
 -7.997905E-05 -1.040647E-04 -1.560587E-04 -1.040647E-04 +5.126569E-03 +1.031996E-04 -1.560587E-04 +1.031996E-04 -2.017932E-04 
 -6.439185E-05 -1.116796E-04 -1.945598E-04 -1.116796E-04 +4.962532E-03 +1.157091E-04 -1.945598E-04 +1.157091E-04 -1.452570E-04 
 +2.593159E-04 -1.007337E-04 -3.140871E-05 -1.007337E-04 +4.709535E-03 +6.490377E-05 -3.140871E-05 +6.490377E-05 +2.892097E-05 
 +2.877505E-04 -6.982181E-05 -9.498928E-05 -6.982181E-05 +4.621499E-03 +6.595449E-05 -9.498928E-05 +6.595449E-05 +7.305063E-05 
 +2.890556E-04 -9.472958E-05 -6.429541E-05 -9.472958E-05 +4.658927E-03 +1.307146E-04 -6.429541E-05 +1.307146E-04 +4.276059E-05 
 +1.965059E-04 -1.332661E-04 -1.256718E-04 -1.332661E-04 +4.800505E-03 +1.360669E-04 -1.256718E-04 +1.360669E-04 +3.565766E-05 
 -3.316446E-04 -1.059726E-04 +7.449979E-05 -1.059726E-04 +4.975049E-03 +1.045643E-04 +7.449979E-05 +1.045643E-04 +1.922620E-04 
 -5.267068E-04 -4.832279E-05 +4.423690E-05 -4.832279E-05 +5.062711E-03 +1.018781E-04 +4.423690E-05 +1.018781E-04 +4.003582E-04 
 -7.715645E-05 +8.030280E-05 +1.107416E-05 +8.030280E-05 +4.386910E-03 -3.742953E-05 +1.107416E-05 -3.742953E-05 +4.365909E-04 
 +2.744230E-04 +1.272635E-04 +1.521603E-05 +1.272635E-04 +4.304608E-03 -5.812276E-05 +1.521603E-05 -5.812276E-05 +2.798333E-04 
 +9.881328E-05 +1.160222E-04 -3.453842E-05 +1.160222E-04 +4.382720E-03 -1.013081E-04 -3.453842E-05 -1.013081E-04 +2.012901E-04 
 +1.390702E-04 +1.317062E-04 -6.418568E-05 +1.317062E-04 +4.390356E-03 -1.280750E-04 -6.418568E-05 -1.280750E-04 +1.725395E-04 
 +7.893049E-05 +7.751142E-05 -1.333941E-04 +7.751142E-05 +4.551231E-03 -1.219616E-04 -1.333941E-04 -1.219616E-04 +1.705425E-04 
 +1.234591E-04 +4.215820E-05 -2.954302E-06 +4.215820E-05 +4.760447E-03 -7.923034E-05 -2.954302E-06 -7.923034E-05 +1.516453E-04 
 -2.555931E-06 +2.628523E-05 +2.168432E-04 +2.628523E-05 +4.852009E-03 +6.414984E-05 +2.168432E-04 +6.414984E-05 +1.888938E-05 
 -5.714023E-05 +3.638939E-05 +7.660716E-05 +3.638939E-05 +4.912458E-03 +1.203010E-04 +7.660716E-05 +1.203010E-04 +6.090758E-06 
 -1.373575E-04 +4.359801E-05 +8.359748E-05 +4.359801E-05 +4.949061E-03 +9.017421E-05 +8.359748E-05 +9.017421E-05 +2.294225E-05 
 -3.390836E-04 -5.900467E-05 -7.509490E-05 -5.900467E-05 +4.987101E-03 +1.245067E-04 -7.509490E-05 +1.245067E-04 -4.774859E-05 
 -2.785161E-04 -1.165080E-04 -4.679263E-05 -1.165080E-04 +5.045587E-03 +1.741422E-04 -4.679263E-05 +1.741422E-04 -4.973715E-05 
 -1.938736E-04 -1.020149E-04 +3.541606E-05 -1.020149E-04 +5.038923E-03 +2.028029E-04 +3.541606E-05 +2.028029E-04 -1.022170E-04 
 -1.326984E-04 -6.108036E-05 +6.277464E-05 -6.108036E-05 +5.082594E-03 +2.168797E-04 +6.277464E-05 +2.168797E-04 -2.862077E-04 
 +4.543378E-06 +9.779201E-06 -2.134406E-04 +9.779201E-06 +5.090557E-03 +1.343202E-04 -2.134406E-04 +1.343202E-04 -2.914863E-04 
 -5.467772E-05 +1.189681E-05 -2.979813E-04 +1.189681E-05 +5.089018E-03 +5.225070E-05 -2.979813E-04 +5.225070E-05 -1.713403E-04 
 +3.094765E-05 +1.774459E-05 -1.970212E-04 +1.774459E-05 +4.980504E-03 +2.470936E-05 -1.970212E-04 +2.470936E-05 -2.189677E-05 
 +2.655573E-04 -4.550590E-05 -1.036534E-04 -4.550590E-05 +4.655748E-03 +5.402958E-05 -1.036534E-04 +5.402958E-05 +1.523102E-04 
 +3.223284E-04 -8.598708E-05 -1.471338E-04 -8.598708E-05 +4.519892E-03 +5.360591E-05 -1.471338E-04 +5.360591E-05 +2.090317E-04 
 +3.569958E-04 -1.357874E-04 -7.252949E-05 -1.357874E-04 +4.689656E-03 +1.957361E-05 -7.252949E-05 +1.957361E-05 +1.372661E-04 
 -7.745973E-05 -4.248171E-05 +8.169367E-05 -4.248171E-05 +4.968233E-03 +5.229955E-05 +8.169367E-05 +5.229955E-05 +1.647049E-04 
 -3.445993E-04 +2.878110E-05 +8.758463E-05 +2.878110E-05 +4.860684E-03 +2.720954E-05 +8.758463E-05 +2.720954E-05 +4.195315E-04 
 -2.261801E-04 +1.601677E-05 +1.068705E-04 +1.601677E-05 +4.750306E-03 +2.545155E-05 +1.068705E-04 +2.545155E-05 +4.298673E-04 
 +1.871883E-04 +8.766479E-05 +6.058605E-05 +8.766479E-05 +4.742698E-03 -1.131565E-05 +6.058605E-05 -1.131565E-05 +2.043629E-04 
 -1.994673E-04 +6.889324E-06 -5.455148E-05 +6.889324E-06 +4.947437E-03 -3.658634E-05 -5.455148E-05 -3.658634E-05 +1.672145E-04 
 -9.544183E-05 -1.526867E-05 -1.435227E-04 -1.526867E-05 +5.157049E-03 -7.593444E-05 -1.435227E-04 -7.593444E-05 +1.695598E-04 
 -1.252091E-04 -2.375687E-05 -1.644248E-04 -2.375687E-05 +5.158827E-03 -5.383318E-05 -1.644248E-04 -5.383318E-05 +1.039287E-04 
 +1.472767E-04 -2.839393E-05 +2.185171E-05 -2.839393E-05 +5.058838E-03 +2.753484E-05 +2.185171E-05 +2.753484E-05 +7.964446E-05 
 -1.097914E-04 -7.965781E-05 +3.248707E-04 -7.965781E-05 +5.033009E-03 +9.437722E-05 +3.248707E-04 +9.437722E-05 +6.235391E-05 
 -6.951527E-05 -6.326129E-05 +5.044280E-05 -6.326129E-05 +5.065938E-03 +1.451824E-04 +5.044280E-05 +1.451824E-04 +1.146036E-04 
 -1.575909E-04 -9.743461E-05 +1.543765E-04 -9.743461E-05 +4.996539E-03 +1.036982E-04 +1.543765E-04 +1.036982E-04 +1.640362E-04 
 -1.905264E-04 -9.179571E-05 -4.346994E-05 -9.179571E-05 +4.931890E-03 +4.879121E-05 -4.346994E-05 +4.879121E-05 +7.864021E-05 
 -2.058312E-04 -1.089668E-04 +4.764961E-05 -1.089668E-04 +4.998646E-03 +9.720818E-05 +4.764961E-05 +9.720818E-05 -7.525752E-06 
 -1.685683E-04 -6.905738E-05 +1.028442E-04 -6.905738E-05 +5.079467E-03 +2.055142E-04 +1.028442E-04 +2.055142E-04 -1.838543E-04 
 -4.394449E-05 +3.531657E-05 +3.986290E-06 +3.531657E-05 +5.081219E-03 +1.661906E-04 +3.986290E-06 +1.661906E-04 -3.480816E-04 
 +6.364446E-05 +8.093629E-05 -2.959136E-04 +8.093629E-05 +5.064382E-03 +5.246085E-05 -2.959136E-04 +5.246085E-05 -2.762193E-04 
 +4.486280E-05 +8.836540E-05 -3.104757E-04 +8.836540E-05 +5.049915E-03 +3.391008E-05 -3.104757E-04 +3.391008E-05 -1.559093E-04 
 -3.732330E-05 +9.103487E-05 -3.121117E-04 +9.103487E-05 +5.037523E-03 +3.373847E-05 -3.121117E-04 +3.373847E-05 -8.116905E-05 
 +7.493500E-05 +9.356726E-05 -2.757114E-04 +9.356726E-05 +4.977801E-03 -2.538280E-05 -2.757114E-04 -2.538280E-05 +2.634025E-05 
 +2.057809E-04 +1.247146E-04 -3.585637E-04 +1.247146E-04 +4.796793E-03 -6.894788E-05 -3.585637E-04 -6.894788E-05 +1.127315E-04 
 +4.310592E-04 +1.221052E-04 -3.347619E-05 +1.221052E-04 +4.638805E-03 +3.287007E-05 -3.347619E-05 +3.287007E-05 +2.087042E-04 
 +3.133773E-04 +1.694111E-04 +1.081989E-04 +1.694111E-04 +4.528145E-03 +1.253506E-04 +1.081989E-04 +1.253506E-04 +2.518531E-04 
 +1.613638E-04 +1.308803E-04 +1.541801E-04 +1.308803E-04 +4.613503E-03 +8.074743E-05 +1.541801E-04 +8.074743E-05 +4.528823E-04 
 -3.197386E-04 -1.145141E-04 +2.048432E-04 -1.145141E-04 +4.931007E-03 +3.244985E-05 +2.048432E-04 +3.244985E-05 +3.561612E-04 
 -2.140654E-04 -7.015008E-05 +8.154083E-05 -7.015008E-05 +5.186385E-03 -4.345272E-05 +8.154083E-05 -4.345272E-05 +1.436928E-04 
 -3.455149E-04 -1.228565E-04 +6.492843E-06 -1.228565E-04 +5.188813E-03 -5.334923E-05 +6.492843E-06 -5.334923E-05 +1.252994E-04 
 -2.719783E-04 -1.016295E-04 -1.231847E-04 -1.016295E-04 +5.131633E-03 -1.223612E-05 -1.231847E-04 -1.223612E-05 +8.691102E-05 
 -4.720329E-05 -1.627646E-05 -3.019749E-05 -1.627646E-05 +5.076662E-03 +1.002730E-04 -3.019749E-05 +1.002730E-04 +2.825179E-06 
 +5.980414E-05 -1.837110E-06 -1.571062E-05 -1.837110E-06 +5.044623E-03 +1.357375E-04 -1.571062E-05 +1.357375E-04 +8.371518E-05 
 -1.256945E-04 +3.278768E-05 +2.673962E-04 +3.278768E-05 +5.031586E-03 +6.628408E-05 +2.673962E-04 +6.628408E-05 +1.705611E-04 
 -5.748921E-05 +8.126047E-05 +8.485785E-05 +8.126047E-05 +5.014015E-03 +1.085182E-04 +8.485785E-05 +1.085182E-04 +1.607524E-04 
 -1.921851E-04 +1.240508E-05 +2.203760E-04 +1.240508E-05 +5.023669E-03 +6.325711E-05 +2.203760E-04 +6.325711E-05 +1.628172E-04 
 -1.666823E-04 -9.135538E-05 +5.515959E-05 -9.135538E-05 +4.996851E-03 +3.153353E-06 +5.515959E-05 +3.153353E-06 +1.772504E-04 
 -6.247333E-05 -9.585556E-05 +3.367050E-05 -9.585556E-05 +4.983567E-03 +1.076324E-04 +3.367050E-05 +1.076324E-04 +4.038901E-05 
 -2.905754E-05 -4.277935E-05 +5.308671E-05 -4.277935E-05 +5.059624E-03 +1.113047E-04 +5.308671E-05 +1.113047E-04 -2.395888E-04 
 +6.894147E-05 +4.896537E-05 -1.711535E-04 +4.896537E-05 +5.099087E-03 +6.913379E-07 -1.711535E-04 +6.913379E-07 -3.042470E-04 
 +1.086934E-04 +7.351319E-05 -2.898363E-04 +7.351319E-05 +5.072106E-03 -3.144015E-05 -2.898363E-04 -3.144015E-05 -2.224950E-04 
 +9.902230E-05 +8.333322E-05 -2.742215E-04 +8.333322E-05 +5.021998E-03 +1.772577E-05 -2.742215E-04 +1.772577E-05 -1.629500E-04 
 +5.816350E-05 +7.366929E-05 -3.054600E-04 +7.366929E-05 +5.000170E-03 +3.669391E-05 -3.054600E-04 +3.669391E-05 -5.912006E-05 
 -6.349696E-06 +6.335344E-05 -4.094212E-04 +6.335344E-05 +4.972641E-03 -1.571845E-05 -4.094212E-04 -1.571845E-05 -2.453477E-05 
 +1.134551E-04 +9.356636E-05 -4.066938E-04 +9.356636E-05 +4.839391E-03 +2.182103E-05 -4.066938E-04 +2.182103E-05 +6.347844E-05 
 +4.275498E-04 +1.663709E-04 +1.490276E-05 +1.663709E-04 +4.660845E-03 +1.705757E-04 +1.490276E-05 +1.705757E-04 +2.477006E-04 
 +4.775740E-04 +9.823230E-05 +1.031102E-04 +9.823230E-05 +4.558734E-03 +1.834964E-04 +1.031102E-04 +1.834964E-04 +2.441614E-04 
 +4.252918E-04 +2.974852E-05 +1.474414E-04 +2.974852E-05 +4.621160E-03 +1.185162E-04 +1.474414E-04 +1.185162E-04 +3.599540E-04 
 -3.361627E-04 -9.541590E-05 +1.672924E-04 -9.541590E-05 +5.002998E-03 -6.117628E-05 +1.672924E-04 -6.117628E-05 +2.285705E-04 
 -4.647718E-04 -1.457833E-04 +4.683780E-05 -1.457833E-04 +5.210266E-03 -4.018460E-05 +4.683780E-05 -4.018460E-05 +1.482007E-04 
 -4.142366E-04 -1.247274E-04 +1.323195E-05 -1.247274E-04 +5.215182E-03 +2.158795E-06 +1.323195E-05 +2.158795E-06 +1.734568E-04 
 -3.414262E-04 -1.552608E-04 -2.198329E-05 -1.552608E-04 +5.109090E-03 +1.166393E-04 -2.198329E-05 +1.166393E-04 +8.964355E-05 
 +7.487211E-05 -1.036655E-04 +9.209375E-06 -1.036655E-04 +4.974278E-03 +1.876182E-04 +9.209375E-06 +1.876182E-04 +5.693337E-06 
 +4.227614E-05 -1.680746E-05 -8.473663E-05 -1.680746E-05 +4.933485E-03 +1.030334E-04 -8.473663E-05 +1.030334E-04 +1.577459E-04 
 -9.224892E-05 +5.548050E-05 +2.084392E-04 +5.548050E-05 +4.977361E-03 +1.603364E-05 +2.084392E-04 +1.603364E-05 +2.060138E-04 
 -7.886685E-05 +4.141930E-05 +1.776544E-04 +4.141930E-05 +5.022472E-03 -8.425602E-06 +1.776544E-04 -8.425602E-06 +1.195839E-04 
 -2.139655E-04 +3.598856E-07 +2.694460E-04 +3.598856E-07 +5.045411E-03 -2.393080E-05 +2.694460E-04 -2.393080E-05 +8.786036E-05 
 -2.394159E-04 -7.231143E-05 +2.523560E-04 -7.231143E-05 +5.070462E-03 +1.936206E-05 +2.523560E-04 +1.936206E-05 +1.958101E-04 
 +6.026030E-05 -5.049505E-05 -8.033207E-05 -5.049505E-05 +5.059362E-03 +3.946495E-05 -8.033207E-05 +3.946495E-05 +9.371325E-05 
 +1.487488E-04 -3.302378E-06 -1.032489E-04 -3.302378E-06 +5.047544E-03 -5.982130E-05 -1.032489E-04 -5.982130E-05 -1.594244E-04 
 +1.364412E-04 +2.612238E-05 -2.244811E-04 +2.612238E-05 +5.042150E-03 -8.145827E-05 -2.244811E-04 -8.145827E-05 -1.947209E-04 
 +1.611705E-04 +3.791889E-05 -2.481078E-04 +3.791889E-05 +5.015814E-03 -1.748374E-05 -2.481078E-04 -1.748374E-05 -1.898422E-04 
 +1.543100E-04 +5.101251E-05 -2.555715E-04 +5.101251E-05 +5.006319E-03 +2.280872E-05 -2.555715E-04 +2.280872E-05 -1.854721E-04 
 +1.173033E-04 +6.765375E-05 -2.848699E-04 +6.765375E-05 +5.003986E-03 +4.154965E-05 -2.848699E-04 +4.154965E-05 -9.865612E-05 
 +5.995947E-05 +7.168508E-05 -3.821629E-04 +7.168508E-05 +5.015236E-03 +2.728988E-05 -3.821629E-04 +2.728988E-05 -9.190551E-05 
 +9.639421E-05 +5.951320E-05 -3.393274E-04 +5.951320E-05 +4.941440E-03 +5.144238E-05 -3.393274E-04 +5.144238E-05 -7.516906E-05 
 +3.321451E-04 +1.336158E-04 -1.873237E-05 +1.336158E-04 +4.795811E-03 +1.301581E-04 -1.873237E-05 +1.301581E-04 +1.626210E-05 
 +4.306155E-04 +8.097854E-05 +5.321230E-05 +8.097854E-05 +4.723322E-03 +1.349710E-04 +5.321230E-05 +1.349710E-04 +3.522793E-05 
 +3.666224E-04 +4.592947E-05 +1.359314E-05 +4.592947E-05 +4.769697E-03 +2.249062E-05 +1.359314E-05 +2.249062E-05 +1.548972E-04 
 -3.864646E-04 -4.268203E-05 +1.482391E-04 -4.268203E-05 +5.156455E-03 -8.626582E-05 +1.482391E-04 -8.626582E-05 +1.201551E-04 
 -4.350360E-04 -9.401201E-05 +4.779933E-05 -9.401201E-05 +5.162609E-03 -1.988198E-05 +4.779933E-05 -1.988198E-05 +1.735683E-04 
 -4.589785E-04 -9.464355E-05 +3.336126E-05 -9.464355E-05 +5.188350E-03 +5.107517E-05 +3.336126E-05 +5.107517E-05 +1.796328E-04 
 -3.736078E-04 -1.319863E-04 +6.870539E-05 -1.319863E-04 +5.117168E-03 +1.444203E-04 +6.870539E-05 +1.444203E-04 +1.085612E-04 
 +3.262861E-06 -1.031446E-04 +2.990714E-05 -1.031446E-04 +4.966252E-03 +2.187567E-04 +2.990714E-05 +2.187567E-04 +4.804301E-05 
 -9.181611E-06 -5.714423E-05 -2.294398E-04 -5.714423E-05 +4.938540E-03 +8.725808E-05 -2.294398E-04 +8.725808E-05 +1.278367E-04 
 -1.043625E-04 -4.842895E-05 +2.378107E-04 -4.842895E-05 +5.040941E-03 -8.619998E-05 +2.378107E-04 -8.619998E-05 +1.603718E-04 
 -7.037787E-05 -5.477316E-05 +1.456137E-04 -5.477316E-05 +5.079160E-03 -1.118281E-04 +1.456137E-04 -1.118281E-04 +1.233744E-04 
 -1.554047E-04 -5.464729E-05 +2.942671E-04 -5.464729E-05 +5.068393E-03 -5.344852E-05 +2.942671E-04 -5.344852E-05 +6.404539E-05 
 -9.438405E-05 -3.874576E-05 +1.993457E-04 -3.874576E-05 +5.058859E-03 -2.624708E-05 +1.993457E-04 -2.624708E-05 +1.957303E-04 
 +1.217710E-04 +1.463337E-05 -1.713150E-04 +1.463337E-05 +5.008575E-03 -4.950408E-05 -1.713150E-04 -4.950408E-05 +1.618269E-04 
 +1.893747E-04 +3.468968E-05 -2.118899E-04 +3.468968E-05 +4.962051E-03 -5.690314E-05 -2.118899E-04 -5.690314E-05 -5.785418E-05 
 +1.904308E-04 -4.131020E-06 -2.149691E-04 -4.131020E-06 +4.961290E-03 -8.663146E-05 -2.149691E-04 -8.663146E-05 -1.075330E-04 
 +2.097910E-04 +1.015012E-05 -2.062694E-04 +1.015012E-05 +4.955257E-03 -4.852553E-05 -2.062694E-04 -4.852553E-05 -1.647707E-04 
 +2.196546E-04 +3.131026E-05 -2.147069E-04 +3.131026E-05 +4.951933E-03 +2.244037E-05 -2.147069E-04 +2.244037E-05 -1.744031E-04 
 +1.951947E-04 +7.116353E-05 -2.557196E-04 +7.116353E-05 +4.992638E-03 +6.942276E-05 -2.557196E-04 +6.942276E-05 -1.763550E-04 
 +1.562959E-04 +7.262838E-05 -2.663089E-04 +7.262838E-05 +5.056930E-03 +9.628772E-05 -2.663089E-04 +9.628772E-05 -1.706256E-04 
 +1.086984E-04 +1.572341E-05 -2.647219E-04 +1.572341E-05 +5.138182E-03 +1.003129E-04 -2.647219E-04 +1.003129E-04 -1.902110E-04 
 +2.051583E-04 +7.863449E-05 -1.374225E-04 +7.863449E-05 +5.157164E-03 +5.020042E-05 -1.374225E-04 +5.020042E-05 -2.183430E-04 
 +2.958421E-04 +6.599357E-05 -6.904048E-05 +6.599357E-05 +5.166324E-03 -2.396122E-05 -6.904048E-05 -2.396122E-05 -1.500766E-04 
 +1.924885E-04 -1.014729E-05 -1.818184E-04 -1.014729E-05 +5.191654E-03 -9.425258E-05 -1.818184E-04 -9.425258E-05 -8.896194E-06 
 -3.272829E-04 +1.165519E-05 +2.258429E-04 +1.165519E-05 +5.157108E-03 +2.537366E-05 +2.258429E-04 +2.537366E-05 +1.272993E-04 
 -3.927660E-04 -4.049758E-05 +1.154250E-04 -4.049758E-05 +5.140713E-03 +3.776546E-05 +1.154250E-04 +3.776546E-05 +1.918865E-04 
 -3.942153E-04 -5.488653E-05 +6.959699E-05 -5.488653E-05 +5.115663E-03 +7.712705E-05 +6.959699E-05 +7.712705E-05 +1.924383E-04 
 -3.631731E-04 -8.092757E-05 +7.257169E-05 -8.092757E-05 +5.113057E-03 +1.105321E-04 +7.257169E-05 +1.105321E-04 +1.573822E-04 
 -2.510501E-04 -9.976704E-05 +3.049755E-05 -9.976704E-05 +5.150122E-03 +1.083306E-04 +3.049755E-05 +1.083306E-04 +8.118704E-05 
 -1.727367E-04 -7.208532E-05 -3.486401E-04 -7.208532E-05 +5.106603E-03 +5.997875E-05 -3.486401E-04 +5.997875E-05 +7.066570E-05 
 +1.106863E-05 -5.006883E-05 +5.109972E-05 -5.006883E-05 +5.110748E-03 -7.386995E-05 +5.109972E-05 -7.386995E-05 +4.630862E-05 
 +4.683646E-05 -4.463327E-05 +1.213023E-05 -4.463327E-05 +5.157107E-03 -1.494638E-04 +1.213023E-05 -1.494638E-04 -1.642727E-05 
 -2.200748E-05 -1.963425E-05 +2.202418E-04 -1.963425E-05 +5.133272E-03 -1.415383E-04 +2.202418E-04 -1.415383E-04 -8.882350E-05 
 +2.861889E-05 -2.664186E-05 +1.844860E-04 -2.664186E-05 +5.124274E-03 -1.895656E-04 +1.844860E-04 -1.895656E-04 -1.097809E-04 
 +1.018624E-04 -4.972310E-05 -2.486893E-04 -4.972310E-05 +5.062844E-03 -1.597836E-04 -2.486893E-04 -1.597836E-04 +4.816586E-05 
 +2.178065E-04 +5.635999E-06 -2.886812E-04 +5.635999E-06 +4.961563E-03 -1.101857E-04 -2.886812E-04 -1.101857E-04 +5.542386E-05 
 +2.234887E-04 +2.407851E-05 -1.878548E-04 +2.407851E-05 +4.915448E-03 -1.416312E-04 -1.878548E-04 -1.416312E-04 -8.302254E-05 
 +2.104119E-04 +8.513914E-06 -1.034438E-04 +8.513914E-06 +4.917435E-03 -8.933339E-05 -1.034438E-04 -8.933339E-05 -1.379534E-04 
 +2.521975E-04 -2.037277E-07 -1.200780E-04 -2.037277E-07 +4.916784E-03 +3.506681E-07 -1.200780E-04 +3.506681E-07 -1.525562E-04 
 +2.037312E-04 +2.349165E-06 -5.041764E-05 +2.349165E-06 +4.945725E-03 +1.097674E-04 -5.041764E-05 +1.097674E-04 -1.762982E-04 
 +1.739675E-04 -1.742656E-05 -1.860426E-04 -1.742656E-05 +4.997207E-03 +1.855282E-04 -1.860426E-04 +1.855282E-04 -2.064645E-04 
 +1.484902E-04 -2.034811E-05 -1.884200E-04 -2.034811E-05 +5.111474E-03 +1.908110E-04 -1.884200E-04 +1.908110E-04 -1.740258E-04 
 +1.544031E-04 +2.715648E-05 -1.438955E-04 +2.715648E-05 +5.228735E-03 +1.233567E-04 -1.438955E-04 +1.233567E-04 -9.919714E-05 
 +6.727074E-05 +6.041713E-05 -1.358588E-05 +6.041713E-05 +5.229776E-03 +7.802069E-05 -1.358588E-05 +7.802069E-05 -1.709942E-05 
 +8.323486E-05 +1.137861E-05 -2.558065E-04 +1.137861E-05 +5.185591E-03 +7.262219E-05 -2.558065E-04 +7.262219E-05 +5.291929E-05 
 -3.738582E-04 +2.073591E-05 +2.660408E-04 +2.073591E-05 +5.131404E-03 +9.897944E-05 +2.660408E-04 +9.897944E-05 +1.724916E-04 
 -4.042594E-04 -2.578876E-05 +1.444454E-04 -2.578876E-05 +5.128381E-03 +6.776791E-05 +1.444454E-04 +6.776791E-05 +2.513939E-04 
 -3.766408E-04 -4.270166E-05 +1.174266E-04 -4.270166E-05 +5.115049E-03 +4.267349E-05 +1.174266E-04 +4.267349E-05 +2.073189E-04 
 -3.836890E-04 -9.198497E-05 +1.071952E-04 -9.198497E-05 +5.144626E-03 +4.751093E-05 +1.071952E-04 +4.751093E-05 +1.828493E-04 
 -4.025300E-04 -9.144951E-05 +6.812785E-05 -9.144951E-05 +5.183408E-03 +5.146462E-05 +6.812785E-05 +5.146462E-05 +1.079960E-04 
 -3.095905E-04 -4.978141E-05 -3.131011E-04 -4.978141E-05 +5.184008E-03 +5.015493E-05 -3.131011E-04 +5.015493E-05 +3.599483E-05 
 -1.150969E-04 +1.042032E-05 -1.033960E-04 +1.042032E-05 +5.107581E-03 -1.642410E-05 -1.033960E-04 -1.642410E-05 -2.201860E-06 
 +1.657206E-04 -4.163417E-06 +2.267015E-05 -4.163417E-06 +5.011454E-03 -7.855417E-05 +2.267015E-05 -7.855417E-05 -7.429341E-05 
 +1.582418E-04 +1.085125E-04 +1.749915E-04 +1.085125E-04 +5.043186E-03 -1.557096E-04 +1.749915E-04 -1.557096E-04 -1.390561E-04 
 +1.801317E-04 +9.794782E-05 +2.192662E-04 +9.794782E-05 +5.095818E-03 -2.436598E-04 +2.192662E-04 -2.436598E-04 -7.065582E-05 
 +2.291899E-04 +5.273063E-05 -1.374195E-04 +5.273063E-05 +5.008318E-03 -2.537819E-04 -1.374195E-04 -2.537819E-04 +9.192692E-05 
 +2.359825E-04 +1.237537E-04 -2.100782E-04 +1.237537E-04 +4.921352E-03 -2.092859E-04 -2.100782E-04 -2.092859E-04 +8.580545E-05 
 +1.560324E-04 +1.277399E-04 -1.184115E-04 +1.277399E-04 +4.950085E-03 -1.127222E-04 -1.184115E-04 -1.127222E-04 -8.509183E-05 
 +1.584062E-04 +6.472253E-05 -8.020272E-06 +6.472253E-05 +4.962325E-03 -2.991884E-05 -8.020272E-06 -2.991884E-05 -2.007273E-04 
 +2.438169E-04 +4.408197E-05 -2.493925E-05 +4.408197E-05 +4.931931E-03 +5.384014E-05 -2.493925E-05 +5.384014E-05 -1.484451E-04 
 +1.486952E-04 +2.125401E-05 +2.452130E-04 +2.125401E-05 +4.923192E-03 +1.656377E-04 +2.452130E-04 +1.656377E-04 -1.242451E-04 
 +1.970154E-04 -2.346796E-05 -6.474093E-05 -2.346796E-05 +4.954620E-03 +2.159878E-04 -6.474093E-05 +2.159878E-04 -1.794649E-04 
 +2.015126E-04 -6.055790E-05 -1.607812E-04 -6.055790E-05 +5.043240E-03 +1.608313E-04 -1.607812E-04 +1.608313E-04 -1.819019E-04 
 +1.665346E-04 -3.865748E-05 -2.561989E-04 -3.865748E-05 +5.161242E-03 +8.066978E-05 -2.561989E-04 +8.066978E-05 -1.681984E-04 
 -4.150610E-05 +5.047085E-05 +4.350117E-05 +5.047085E-05 +5.206060E-03 +4.207715E-05 +4.350117E-05 +4.207715E-05 -3.235569E-05 
 +1.660482E-04 +2.819568E-05 -2.307398E-04 +2.819568E-05 +5.152906E-03 +7.313853E-05 -2.307398E-04 +7.313853E-05 +9.445079E-05 
 -3.789280E-04 +5.805223E-05 +2.456493E-04 +5.805223E-05 +5.115554E-03 +1.499920E-04 +2.456493E-04 +1.499920E-04 +2.720069E-04 
 -4.070699E-04 +4.823168E-07 +1.241758E-04 +4.823168E-07 +5.131501E-03 +6.266508E-05 +1.241758E-04 +6.266508E-05 +2.716603E-04 
 -4.109561E-04 -2.104974E-05 +1.487769E-04 -2.104974E-05 +5.144462E-03 +1.542328E-05 +1.487769E-04 +1.542328E-05 +2.434632E-04 
 -4.422584E-04 -5.070725E-05 +1.623462E-04 -5.070725E-05 +5.160771E-03 +2.705639E-05 +1.623462E-04 +2.705639E-05 +2.147997E-04 
 -3.993298E-04 -1.854160E-05 +7.144974E-05 -1.854160E-05 +5.187096E-03 -7.182892E-06 +7.144974E-05 -7.182892E-06 +7.625736E-05 
 -3.226849E-04 +6.132548E-05 -2.645157E-04 +6.132548E-05 +5.181666E-03 -7.051464E-05 -2.645157E-04 -7.051464E-05 -1.555768E-05 
 -8.075893E-05 +2.247128E-04 -2.399011E-04 +2.247128E-04 +5.107060E-03 -1.251163E-04 -2.399011E-04 -1.251163E-04 -1.061943E-04 
 +1.694478E-04 +2.846902E-04 -9.474586E-05 +2.846902E-04 +5.091773E-03 -1.955663E-04 -9.474586E-05 -1.955663E-04 -2.157027E-04 
 +2.377194E-04 +2.451301E-04 +3.399201E-05 +2.451301E-04 +5.041518E-03 -2.810119E-04 +3.399201E-05 -2.810119E-04 -1.398962E-04 
 +3.014224E-04 +9.032575E-05 +1.914934E-04 +9.032575E-05 +4.856843E-03 -3.612806E-04 +1.914934E-04 -3.612806E-04 +4.602889E-05 
 +3.152433E-04 -1.680042E-06 -2.487462E-05 -1.680042E-06 +4.774041E-03 -3.516496E-04 -2.487462E-05 -3.516496E-04 +1.339990E-04 
 +1.344361E-04 +7.372033E-05 +4.908214E-05 +7.372033E-05 +4.864770E-03 -2.031108E-04 +4.908214E-05 -2.031108E-04 +4.041226E-05 
 +2.014027E-04 +1.325960E-04 -1.820896E-05 +1.325960E-04 +4.957711E-03 -7.554177E-05 -1.820896E-05 -7.554177E-05 -9.094765E-05 
 +1.201110E-04 +1.091885E-04 +1.408107E-04 +1.091885E-04 +4.981119E-03 -2.183613E-05 +1.408107E-04 -2.183613E-05 -1.655631E-04 
 +1.490625E-04 +8.109436E-05 +1.305293E-04 +8.109436E-05 +4.984172E-03 +3.844789E-05 +1.305293E-04 +3.844789E-05 -1.567346E-04 
 +6.912856E-05 +4.398811E-05 +3.341914E-04 +4.398811E-05 +4.979774E-03 +4.894498E-05 +3.341914E-04 +4.894498E-05 -1.227045E-04 
 +8.685594E-05 -9.702976E-06 +1.471747E-04 -9.702976E-06 +4.993947E-03 +1.712982E-04 +1.471747E-04 +1.712982E-04 -1.674106E-04 
 +1.802993E-04 -5.556360E-05 -2.325521E-04 -5.556360E-05 +5.042413E-03 +2.235970E-04 -2.325521E-04 +2.235970E-04 -2.055808E-04 
 +1.898844E-04 -7.398991E-05 -2.498767E-04 -7.398991E-05 +5.081817E-03 +1.638703E-04 -2.498767E-04 +1.638703E-04 -1.608313E-04 
 +1.508191E-04 +2.898664E-06 -8.277264E-05 +2.898664E-06 +5.089885E-03 +1.335432E-04 -8.277264E-05 +1.335432E-04 -7.860021E-05 
 +1.362408E-04 +3.956326E-05 -2.268371E-04 +3.956326E-05 +5.097002E-03 +1.298879E-04 -2.268371E-04 +1.298879E-04 +1.034714E-04 
 -2.744535E-04 +7.470828E-05 +9.710159E-05 +7.470828E-05 +5.089854E-03 +1.118784E-04 +9.710159E-05 +1.118784E-04 +2.886463E-04 
 -4.341483E-04 +4.528982E-05 +1.111022E-04 +4.528982E-05 +5.130522E-03 +2.442910E-05 +1.111022E-04 +2.442910E-05 +2.957295E-04 
 -4.479521E-04 +1.600053E-05 +1.680641E-04 +1.600053E-05 +5.138614E-03 -4.206026E-05 +1.680641E-04 -4.206026E-05 +3.710451E-04 
 -5.081796E-04 -1.174370E-05 +1.749776E-04 -1.174370E-05 +5.152447E-03 -1.086889E-04 +1.749776E-04 -1.086889E-04 +2.585554E-04 
 -2.741207E-04 +3.571721E-05 -4.655643E-05 +3.571721E-05 +5.169424E-03 -1.630766E-04 -4.655643E-05 -1.630766E-04 -1.090444E-04 
 -1.778342E-04 +1.535882E-04 -2.111811E-04 +1.535882E-04 +5.139729E-03 -1.369370E-04 -2.111811E-04 -1.369370E-04 -1.889170E-04 
 -4.113505E-05 +2.578332E-04 -2.853648E-04 +2.578332E-04 +5.122764E-03 -8.837071E-05 -2.853648E-04 -8.837071E-05 -2.019235E-04 
 +6.011214E-05 +2.651593E-04 -1.692781E-04 +2.651593E-04 +5.083316E-03 -1.740630E-04 -1.692781E-04 -1.740630E-04 -2.273374E-04 
 +1.943399E-04 +1.567681E-04 +4.857412E-05 +1.567681E-04 +4.931402E-03 -2.627149E-04 +4.857412E-05 -2.627149E-04 +6.531713E-06 
 +2.900381E-04 +1.494583E-05 +1.434866E-04 +1.494583E-05 +4.814249E-03 -2.499615E-04 +1.434866E-04 -2.499615E-04 +1.144972E-04 
 +2.665593E-04 -4.991720E-05 +1.294160E-05 -4.991720E-05 +4.854629E-03 -1.917462E-04 +1.294160E-05 -1.917462E-04 +8.310775E-05 
 +2.857443E-05 +2.761396E-05 +2.622593E-04 +2.761396E-05 +4.927484E-03 -8.715294E-05 +2.622593E-04 -8.715294E-05 -6.120209E-05 
 +3.971770E-04 +6.945857E-05 -3.566106E-06 +6.945857E-05 +4.961838E-03 -1.735292E-05 -3.566106E-06 -1.735292E-05 -1.850639E-04 
 +1.525510E-04 +7.837876E-05 +1.802644E-04 +7.837876E-05 +5.004172E-03 -6.604825E-05 +1.802644E-04 -6.604825E-05 -1.605308E-04 
 +3.953151E-05 +8.019959E-05 +2.301007E-04 +8.019959E-05 +5.041595E-03 -8.999718E-05 +2.301007E-04 -8.999718E-05 -1.534988E-04 
 -4.111450E-05 +3.689936E-05 +2.660969E-04 +3.689936E-05 +5.065683E-03 -5.400239E-05 +2.660969E-04 -5.400239E-05 -1.198411E-04 
 -5.064229E-05 -2.020913E-05 +2.882442E-04 -2.020913E-05 +5.050122E-03 +6.496846E-05 +2.882442E-04 +6.496846E-05 -1.374519E-04 
 +1.472996E-04 -3.158363E-05 -3.273961E-04 -3.158363E-05 +5.032530E-03 +1.526525E-04 -3.273961E-04 +1.526525E-04 -1.758429E-04 
 +2.073370E-04 -6.814312E-05 -1.774156E-04 -6.814312E-05 +4.995013E-03 +1.360324E-04 -1.774156E-04 +1.360324E-04 -1.511067E-04 
 +3.125889E-04 -2.738161E-05 -1.937001E-04 -2.738161E-05 +4.933783E-03 +1.252249E-04 -1.937001E-04 +1.252249E-04 -1.676799E-04 
 +1.534557E-04 -5.670700E-07 -2.699101E-04 -5.670700E-07 +4.993799E-03 +1.471335E-04 -2.699101E-04 +1.471335E-04 +4.436581E-05 
 -9.630866E-05 +4.719175E-05 -1.197722E-04 +4.719175E-05 +4.969988E-03 -9.444657E-05 -1.197722E-04 -9.444657E-05 +1.787182E-04 
 -4.112043E-04 +8.683546E-07 +4.620097E-05 +8.683546E-07 +5.114542E-03 -1.531337E-04 +4.620097E-05 -1.531337E-04 +3.328668E-04 
 -5.251610E-04 -5.302463E-05 +1.135788E-04 -5.302463E-05 +5.151631E-03 -2.005550E-04 +1.135788E-04 -2.005550E-04 +4.203737E-04 
 -4.855120E-04 -3.480376E-05 +5.140973E-05 -3.480376E-05 +5.146791E-03 -2.512597E-04 +5.140973E-05 -2.512597E-04 +1.345485E-04 
 -1.317414E-04 +1.614186E-05 -1.794284E-04 +1.614186E-05 +5.104970E-03 -2.027127E-04 -1.794284E-04 -2.027127E-04 -3.061675E-04 
 -1.057467E-04 +6.607803E-05 -1.804142E-04 +6.607803E-05 +5.115859E-03 -7.552878E-05 -1.804142E-04 -7.552878E-05 -3.720584E-04 
 -8.757028E-05 +1.427186E-04 -3.383793E-04 +1.427186E-04 +5.151552E-03 -2.720598E-05 -3.383793E-04 -2.720598E-05 -2.887775E-04 
 +3.874622E-05 +1.552887E-04 -1.871081E-04 +1.552887E-04 +5.061442E-03 -1.103466E-04 -1.871081E-04 -1.103466E-04 -1.869601E-04 
 +1.585239E-04 +6.554323E-05 +1.025260E-04 +6.554323E-05 +4.938620E-03 -2.422650E-04 +1.025260E-04 -2.422650E-04 +8.589993E-05 
 +2.301617E-04 +4.720515E-06 +1.501213E-04 +4.720515E-06 +4.913729E-03 -2.720139E-04 +1.501213E-04 -2.720139E-04 +9.877291E-05 
 +1.987770E-04 +1.818164E-05 +1.471502E-05 +1.818164E-05 +4.979305E-03 -2.096708E-04 +1.471502E-05 -2.096708E-04 -2.494726E-05 
 -2.749818E-05 +7.915861E-05 +3.338498E-04 +7.915861E-05 +5.025310E-03 -1.378232E-04 +3.338498E-04 -1.378232E-04 -1.489196E-04 
 +4.303013E-04 +3.518393E-05 +3.237945E-06 +3.518393E-05 +4.993744E-03 -2.539172E-05 +3.237945E-06 -2.539172E-05 -2.550139E-04 
 +3.200662E-04 +3.551533E-05 +4.545968E-05 +3.551533E-05 +4.997903E-03 -1.393715E-05 +4.545968E-05 -1.393715E-05 -2.247378E-04 
 -7.041481E-05 +5.521281E-05 +2.359350E-04 +5.521281E-05 +5.068176E-03 -8.127354E-05 +2.359350E-04 -8.127354E-05 -1.411969E-04 
 -1.225327E-04 +1.297763E-05 +2.459767E-04 +1.297763E-05 +5.094794E-03 -7.797949E-05 +2.459767E-04 -7.797949E-05 -4.544900E-05 
 -7.998215E-05 -1.874245E-05 +3.230709E-04 -1.874245E-05 +5.050337E-03 -7.001354E-05 +3.230709E-04 -7.001354E-05 -7.260427E-05 
 +1.397266E-04 +2.391720E-05 -2.988688E-04 +2.391720E-05 +4.926090E-03 -1.328970E-05 -2.988688E-04 -1.328970E-05 -8.740716E-05 
 +2.346340E-04 -1.366726E-05 -1.299065E-04 -1.366726E-05 +4.820716E-03 +6.095246E-05 -1.299065E-04 +6.095246E-05 -7.458610E-05 
 +2.427121E-04 -9.425339E-06 -1.709279E-04 -9.425339E-06 +4.797030E-03 +3.560739E-05 -1.709279E-04 +3.560739E-05 -8.119531E-05 
 +1.499860E-04 +8.995355E-06 -2.367081E-04 +8.995355E-06 +4.824147E-03 -2.711173E-05 -2.367081E-04 -2.711173E-05 +3.579142E-05 
 -8.500004E-06 -2.345474E-06 -1.943330E-04 -2.345474E-06 +4.912104E-03 -2.333198E-04 -1.943330E-04 -2.333198E-04 +1.545149E-04 
 -2.744770E-04 -3.592656E-05 -9.395439E-05 -3.592656E-05 +5.024167E-03 -3.889550E-04 -9.395439E-05 -3.889550E-04 +3.762252E-04 
 -6.274411E-04 -1.358374E-04 -1.644708E-05 -1.358374E-04 +5.122015E-03 -3.626171E-04 -1.644708E-05 -3.626171E-04 +3.800663E-04 
 -2.715828E-04 -8.116134E-05 -1.231574E-04 -8.116134E-05 +5.066592E-03 -1.871298E-04 -1.231574E-04 -1.871298E-04 +4.517143E-05 
 -1.484344E-04 -1.542654E-05 -2.325685E-04 -1.542654E-05 +5.084924E-03 -8.240183E-05 -2.325685E-04 -8.240183E-05 -2.233403E-04 
 -1.425616E-04 +1.144357E-05 -2.336249E-04 +1.144357E-05 +5.134823E-03 -5.109918E-05 -2.336249E-04 -5.109918E-05 -2.824332E-04 
 -2.548644E-05 +5.424486E-05 -3.946071E-04 +5.424486E-05 +5.085849E-03 +1.440789E-05 -3.946071E-04 +1.440789E-05 -2.245780E-04 
 +6.746709E-05 +5.183817E-05 -2.586626E-04 +5.183817E-05 +5.010282E-03 -4.219610E-05 -2.586626E-04 -4.219610E-05 -1.391203E-04 
 +1.627555E-04 +8.276373E-06 +8.390271E-05 +8.276373E-06 +4.974109E-03 -1.951838E-04 +8.390271E-05 -1.951838E-04 +4.619465E-05 
 +2.063605E-04 +2.577767E-05 +1.442508E-04 +2.577767E-05 +4.989459E-03 -2.135776E-04 +1.442508E-04 -2.135776E-04 +3.459134E-05 
 +2.109000E-04 +8.712835E-05 +2.894188E-05 +8.712835E-05 +5.045292E-03 -1.734812E-04 +2.894188E-05 -1.734812E-04 -1.061664E-04 
 -4.143619E-05 +1.398541E-04 +3.230595E-04 +1.398541E-04 +5.072562E-03 -1.627039E-04 +3.230595E-04 -1.627039E-04 -1.812475E-04 
 +2.802217E-04 +6.423469E-05 +4.835902E-05 +6.423469E-05 +5.028064E-03 -1.159922E-04 +4.835902E-05 -1.159922E-04 -2.212305E-04 
 +3.092032E-04 -4.943712E-06 -1.524587E-05 -4.943712E-06 +5.015593E-03 -3.769411E-05 -1.524587E-05 -3.769411E-05 -1.974689E-04 
 -6.807156E-05 -4.848197E-05 +1.884325E-04 -4.848197E-05 +5.056511E-03 -4.825825E-05 +1.884325E-04 -4.825825E-05 -9.282145E-05 
 -9.055514E-05 -4.190221E-05 +2.250088E-04 -4.190221E-05 +5.047567E-03 -1.072799E-04 +2.250088E-04 -1.072799E-04 +3.018923E-05 
 -1.142486E-05 -4.570266E-05 +2.718740E-04 -4.570266E-05 +4.989874E-03 -1.613290E-04 +2.718740E-04 -1.613290E-04 +3.515959E-05 
 +1.328192E-04 -3.335009E-05 -2.635326E-04 -3.335009E-05 +4.938159E-03 -9.564828E-05 -2.635326E-04 -9.564828E-05 +3.237663E-06 
 +1.610435E-04 -6.566931E-05 -1.562025E-04 -6.566931E-05 +4.926292E-03 +8.296822E-06 -1.562025E-04 +8.296822E-06 -1.320776E-05 
 +1.253522E-04 -6.577984E-05 -1.320893E-04 -6.577984E-05 +4.950060E-03 +5.622735E-06 -1.320893E-04 +5.622735E-06 +1.796751E-05 
 +5.384059E-05 -4.540467E-05 -1.550873E-04 -4.540467E-05 +4.944880E-03 -7.049035E-05 -1.550873E-04 -7.049035E-05 +5.612568E-05 
 -8.349928E-05 +7.888172E-05 -1.886324E-04 +7.888172E-05 +4.912687E-03 -2.098584E-04 -1.886324E-04 -2.098584E-04 +1.746819E-04 
 -1.895624E-04 +5.118242E-05 -1.853041E-04 +5.118242E-05 +4.864050E-03 -3.384179E-04 -1.853041E-04 -3.384179E-04 +3.521150E-04 
 -5.342421E-04 -5.342039E-05 -1.574198E-04 -5.342039E-05 +4.957974E-03 -3.441660E-04 -1.574198E-04 -3.441660E-04 +3.733552E-04 
 -3.033532E-04 -1.072628E-04 -1.725885E-04 -1.072628E-04 +5.061305E-03 -2.479599E-04 -1.725885E-04 -2.479599E-04 +1.639547E-04 
 -1.660684E-04 -1.121318E-04 -1.615666E-04 -1.121318E-04 +5.095186E-03 -1.419929E-04 -1.615666E-04 -1.419929E-04 -5.033885E-05 
 -8.438260E-05 -5.185913E-05 -2.428358E-04 -5.185913E-05 +5.074881E-03 -1.240874E-04 -2.428358E-04 -1.240874E-04 -1.156086E-04 
 +2.151063E-05 -8.492007E-06 -3.601436E-04 -8.492007E-06 +5.007729E-03 -6.289515E-05 -3.601436E-04 -6.289515E-05 -5.322984E-06 
 +7.908816E-05 -2.844228E-05 -3.416799E-04 -2.844228E-05 +4.940251E-03 -3.355822E-06 -3.416799E-04 -3.355822E-06 +2.696822E-06 
 +2.064876E-04 -4.560212E-05 -2.321252E-05 -4.560212E-05 +4.916635E-03 -1.064503E-04 -2.321252E-05 -1.064503E-04 -9.845982E-08 
 +2.495901E-04 +2.815139E-05 +1.392179E-04 +2.815139E-05 +4.977437E-03 -1.541680E-04 +1.392179E-04 -1.541680E-04 -2.785064E-05 
 +2.392232E-04 +9.563010E-05 +6.129097E-06 +9.563010E-05 +5.054251E-03 -1.056667E-04 +6.129097E-06 -1.056667E-04 -1.329107E-04 
 +1.858335E-06 +1.110338E-04 +2.755389E-04 +1.110338E-04 +5.067989E-03 -9.660172E-05 +2.755389E-04 -9.660172E-05 -1.275898E-04 
 +1.015780E-04 +3.978584E-05 +1.205480E-04 +3.978584E-05 +5.055013E-03 -8.224276E-05 +1.205480E-04 -8.224276E-05 -9.483474E-05 
 +9.533598E-05 +7.875956E-06 +7.785955E-05 +7.875956E-06 +5.026102E-03 -6.965134E-05 +7.785955E-05 -6.965134E-05 -3.440270E-05 
 +1.317741E-05 -4.233369E-05 +1.449602E-04 -4.233369E-05 +4.975741E-03 -7.349619E-05 +1.449602E-04 -7.349619E-05 +4.795464E-05 
 +1.535134E-05 -6.216101E-05 +1.749616E-04 -6.216101E-05 +4.945056E-03 -1.132236E-04 +1.749616E-04 -1.132236E-04 +1.067827E-04 
 +4.087771E-05 -8.778139E-05 +1.885499E-04 -8.778139E-05 +4.929493E-03 -1.643247E-04 +1.885499E-04 -1.643247E-04 +1.852660E-04 
 +8.690288E-05 -7.667661E-05 -2.326321E-04 -7.667661E-05 +4.928512E-03 -9.553152E-05 -2.326321E-04 -9.553152E-05 +1.078647E-04 
 +1.038029E-04 -6.588668E-05 -1.833377E-04 -6.588668E-05 +4.940490E-03 +8.694907E-06 -1.833377E-04 +8.694907E-06 -1.084588E-05 
 +8.183071E-05 +8.249266E-06 -1.200881E-04 +8.249266E-06 +4.968475E-03 -4.865846E-06 -1.200881E-04 -4.865846E-06 +3.230380E-05 
 +2.450440E-05 +6.077205E-05 -1.289408E-04 +6.077205E-05 +4.980657E-03 -6.757381E-05 -1.289408E-04 -6.757381E-05 +5.818267E-05 
 -2.200710E-04 +5.624387E-05 -2.040641E-04 +5.624387E-05 +5.055654E-03 -5.006221E-05 -2.040641E-04 -5.006221E-05 +9.650515E-05 
 -2.542314E-04 +1.275714E-05 -2.325583E-04 +1.275714E-05 +4.987568E-03 -1.153804E-04 -2.325583E-04 -1.153804E-04 +2.372700E-04 
 -3.608936E-04 -6.376566E-05 -2.242314E-04 -6.376566E-05 +4.956075E-03 -1.788739E-04 -2.242314E-04 -1.788739E-04 +3.432536E-04 
 -5.225386E-04 -1.234311E-04 -1.398302E-04 -1.234311E-04 +5.053845E-03 -2.503663E-04 -1.398302E-04 -2.503663E-04 +2.254201E-04 
 -9.614459E-05 -1.220003E-04 +3.631739E-05 -1.220003E-04 +5.066570E-03 -2.002544E-04 +3.631739E-05 -2.002544E-04 -1.000514E-04 
 +2.714707E-05 -7.740296E-05 -1.207806E-04 -7.740296E-05 +5.021843E-03 -1.775204E-04 -1.207806E-04 -1.775204E-04 -1.281469E-04 
 +5.087098E-05 -5.060337E-05 -2.099080E-04 -5.060337E-05 +4.996519E-03 -1.888853E-04 -2.099080E-04 -1.888853E-04 +6.695488E-05 
 +1.153667E-04 -3.306386E-05 -2.420964E-04 -3.306386E-05 +4.963606E-03 -3.477041E-05 -2.420964E-04 -3.477041E-05 +4.367364E-05 
 +1.618750E-04 -4.677191E-05 -2.261140E-04 -4.677191E-05 +4.959721E-03 +2.505339E-05 -2.261140E-04 +2.505339E-05 -1.731606E-05 
 +2.540105E-04 -4.804427E-05 +6.988145E-05 -4.804427E-05 +4.948381E-03 -5.576967E-05 +6.988145E-05 -5.576967E-05 -4.171436E-05 
 +3.073296E-04 +2.967102E-05 -3.648403E-05 +2.967102E-05 +4.985909E-03 -6.128329E-05 -3.648403E-05 -6.128329E-05 -7.164060E-05 
 +5.984186E-05 +3.651534E-05 +2.601489E-04 +3.651534E-05 +5.063685E-03 -2.846918E-05 +2.601489E-04 -2.846918E-05 -5.740285E-05 
 +9.098641E-06 -1.612417E-05 +1.769624E-04 -1.612417E-05 +5.065485E-03 -2.145389E-05 +1.769624E-04 -2.145389E-05 -2.425438E-05 
 +9.329488E-06 +1.127004E-05 +1.448582E-04 +1.127004E-05 +4.991377E-03 -4.315716E-05 +1.448582E-04 -4.315716E-05 +8.071782E-05 
 +3.716658E-05 +2.305397E-05 +1.335866E-04 +2.305397E-05 +4.926044E-03 -6.746476E-05 +1.335866E-04 -6.746476E-05 +1.520876E-04 
 +5.171105E-05 -3.581840E-05 +1.381673E-04 -3.581840E-05 +4.907110E-03 -9.519209E-05 +1.381673E-04 -9.519209E-05 +1.835987E-04 
 +5.460580E-05 -1.032319E-04 +1.967648E-04 -1.032319E-04 +4.883390E-03 -9.249531E-05 +1.967648E-04 -9.249531E-05 +2.806907E-04 
 +1.037028E-04 -3.235222E-05 -1.989544E-04 -3.235222E-05 +4.898302E-03 -3.724638E-05 -1.989544E-04 -3.724638E-05 +1.713472E-04 
 +9.943436E-05 -2.659742E-06 -1.369089E-04 -2.659742E-06 +4.948749E-03 +6.703674E-05 -1.369089E-04 +6.703674E-05 -2.282426E-05 
 +7.418667E-05 +6.245835E-05 -1.557351E-04 +6.245835E-05 +4.981628E-03 +5.585300E-05 -1.557351E-04 +5.585300E-05 +2.585689E-05 
 +3.811529E-05 +7.609465E-05 -8.944950E-05 +7.609465E-05 +5.024422E-03 -4.163365E-06 -8.944950E-05 -4.163365E-06 +3.664330E-05 
 -2.752288E-04 +7.330700E-06 -1.573367E-04 +7.330700E-06 +5.089008E-03 +8.793530E-06 -1.573367E-04 +8.793530E-06 +3.255964E-05 
 -3.103511E-04 -5.044861E-05 -2.351775E-04 -5.044861E-05 +5.050234E-03 -1.194291E-05 -2.351775E-04 -1.194291E-05 +1.450830E-04 
 -3.267939E-04 -6.066819E-05 -2.383948E-04 -6.066819E-05 +4.965047E-03 -5.229553E-06 -2.383948E-04 -5.229553E-06 +2.339273E-04 
 -5.132690E-04 -5.011981E-05 -1.505992E-04 -5.011981E-05 +4.970889E-03 -7.940254E-05 -1.505992E-04 -7.940254E-05 +1.853695E-04 
 -1.085329E-04 -1.057583E-04 +4.683797E-05 -1.057583E-04 +5.008081E-03 -1.805799E-04 +4.683797E-05 -1.805799E-04 -5.743719E-05 
 +1.263189E-04 -7.757124E-05 -5.725221E-05 -7.757124E-05 +4.997172E-03 -2.388041E-04 -5.725221E-05 -2.388041E-04 -6.665341E-05 
 +1.255326E-04 -3.991845E-05 +7.076488E-06 -3.991845E-05 +4.980421E-03 -1.770377E-04 +7.076488E-06 -1.770377E-04 +9.868281E-06 
 +1.546401E-04 -1.715791E-05 +3.000184E-05 -1.715791E-05 +4.971869E-03 -4.665957E-05 +3.000184E-05 -4.665957E-05 -1.277242E-06 
 +1.158758E-04 +5.043051E-06 -2.550915E-04 +5.043051E-06 +4.975506E-03 +6.903451E-05 -2.550915E-04 +6.903451E-05 +7.732061E-05 
 +2.322221E-04 +4.724780E-05 -5.201540E-05 +4.724780E-05 +4.951238E-03 +9.427577E-05 -5.201540E-05 +9.427577E-05 +4.982039E-05 
 +2.844118E-04 +1.418393E-04 -4.486056E-05 +1.418393E-04 +4.949276E-03 +9.168296E-05 -4.486056E-05 +9.168296E-05 +1.591932E-05 
 +9.668189E-05 +6.439650E-05 +2.079330E-04 +6.439650E-05 +5.027931E-03 +8.892132E-05 +2.079330E-04 +8.892132E-05 -2.774954E-05 
 +4.657032E-05 -1.956823E-05 +1.227041E-04 -1.956823E-05 +5.077509E-03 +2.689399E-05 +1.227041E-04 +2.689399E-05 -5.635774E-05 
 -2.656428E-05 -4.027907E-05 +1.075653E-04 -4.027907E-05 +5.002914E-03 -1.344787E-05 +1.075653E-04 -1.344787E-05 +8.631498E-05 
 +2.636819E-05 -1.553783E-05 +6.991071E-05 -1.553783E-05 +4.909119E-03 -7.114988E-05 +6.991071E-05 -7.114988E-05 +2.265321E-04 
 +7.839288E-05 -3.873065E-05 +1.681339E-04 -3.873065E-05 +4.875104E-03 -9.703889E-05 +1.681339E-04 -9.703889E-05 +2.783929E-04 
 +1.045250E-04 -5.604742E-05 +2.934843E-04 -5.604742E-05 +4.863324E-03 -4.714391E-05 +2.934843E-04 -4.714391E-05 +2.940481E-04 
 +1.678630E-04 +6.872775E-05 -8.320207E-05 +6.872775E-05 +4.893538E-03 +2.279119E-06 -8.320207E-05 +2.279119E-06 +1.536443E-04 
 +5.438889E-05 +8.819770E-05 +4.008874E-05 +8.819770E-05 +4.994201E-03 +6.181232E-05 +4.008874E-05 +6.181232E-05 -2.387768E-05 
 -1.277557E-05 +7.142446E-05 -5.028659E-05 +7.142446E-05 +5.062821E-03 +6.732680E-05 -5.028659E-05 +6.732680E-05 +3.831887E-05 
 -4.050460E-05 +3.925225E-05 +6.629662E-05 +3.925225E-05 +5.067764E-03 +5.301236E-05 +6.629662E-05 +5.301236E-05 +2.220335E-05 
 -2.335812E-04 -7.473405E-05 -4.019982E-05 -7.473405E-05 +5.053610E-03 +1.473278E-04 -4.019982E-05 +1.473278E-04 +3.005540E-05 
 -2.782867E-04 -9.862011E-05 -1.979111E-04 -9.862011E-05 +5.060180E-03 +1.209512E-04 -1.979111E-04 +1.209512E-04 +9.476365E-05 
 -4.042251E-04 -1.329612E-04 -2.631551E-04 -1.329612E-04 +5.084994E-03 +2.859777E-05 -2.631551E-04 +2.859777E-05 +7.138585E-05 
 -2.886477E-04 -7.737848E-05 -1.064273E-04 -7.737848E-05 +5.032901E-03 -1.022741E-04 -1.064273E-04 -1.022741E-04 +3.599928E-05 
 -9.212321E-05 -4.007224E-05 -2.157645E-05 -4.007224E-05 +4.957542E-03 -1.950948E-04 -2.157645E-05 -1.950948E-04 +3.957740E-06 
 +1.825887E-04 +1.546766E-05 -2.926435E-05 +1.546766E-05 +4.899627E-03 -1.324381E-04 -2.926435E-05 -1.324381E-04 +3.846623E-05 
 +1.540518E-04 +1.476942E-05 +5.046260E-05 +1.476942E-05 +4.904062E-03 -2.345697E-05 +5.046260E-05 -2.345697E-05 +6.961064E-05 
 +1.916473E-04 -2.084158E-05 +7.841852E-05 -2.084158E-05 +4.875852E-03 -3.260293E-05 +7.841852E-05 -3.260293E-05 +1.125767E-04 
 +1.567800E-04 +5.804415E-05 -1.613951E-04 +5.804415E-05 +4.836903E-03 -1.133104E-05 -1.613951E-04 -1.133104E-05 +1.634030E-04 
 +1.789478E-04 +4.702086E-05 -7.183992E-05 +4.702086E-05 +4.886865E-03 +8.709084E-05 -7.183992E-05 +8.709084E-05 +1.011624E-04 
 +1.778107E-04 +1.226359E-04 -3.504394E-05 +1.226359E-04 +4.879505E-03 +1.222824E-04 -3.504394E-05 +1.222824E-04 +3.645836E-05 
 +1.780558E-04 +1.431261E-04 +3.622758E-05 +1.431261E-04 +4.848162E-03 +5.585170E-05 +3.622758E-05 +5.585170E-05 -2.158866E-05 
 +1.078713E-04 +7.710625E-05 -3.626087E-05 +7.710625E-05 +4.922333E-03 +2.030609E-05 -3.626087E-05 +2.030609E-05 -6.816676E-05 
 -1.001441E-04 -2.378091E-05 +2.950012E-05 -2.378091E-05 +4.982975E-03 +4.001043E-05 +2.950012E-05 +4.001043E-05 +4.571650E-05 
 -7.682468E-06 +1.068999E-06 -8.572577E-06 +1.068999E-06 +4.917620E-03 -9.353544E-06 -8.572577E-06 -9.353544E-06 +1.942472E-04 
 +1.737569E-04 +7.993305E-06 +2.635973E-04 +7.993305E-06 +4.859494E-03 -1.125893E-05 +2.635973E-04 -1.125893E-05 +2.400588E-04 
 +1.481854E-04 +1.212693E-05 +3.346428E-04 +1.212693E-05 +4.928594E-03 -2.320653E-05 +3.346428E-04 -2.320653E-05 +1.829842E-04 
 +6.110430E-05 +3.746202E-05 +1.456623E-04 +3.746202E-05 +5.041893E-03 -2.016285E-05 +1.456623E-04 -2.016285E-05 +6.559189E-05 
 -3.804834E-05 -1.525448E-05 +1.895653E-04 -1.525448E-05 +5.118313E-03 +3.263035E-05 +1.895653E-04 +3.263035E-05 +6.604822E-06 
 -1.286601E-04 -7.711600E-05 +1.284595E-04 -7.711600E-05 +5.152254E-03 +7.263153E-05 +1.284595E-04 +7.263153E-05 +5.968419E-05 
 -1.394994E-04 -9.195684E-05 +1.625453E-04 -9.195684E-05 +5.118385E-03 +1.256992E-04 +1.625453E-04 +1.256992E-04 +1.981247E-05 
 -2.031662E-04 -1.247468E-04 +6.107270E-05 -1.247468E-04 +5.044729E-03 +1.616177E-04 +6.107270E-05 +1.616177E-04 +7.705820E-05 
 -3.008411E-04 -1.497858E-04 -1.349196E-04 -1.497858E-04 +5.070501E-03 +1.610365E-04 -1.349196E-04 +1.610365E-04 +7.562112E-05 
 -3.143273E-04 -1.608213E-04 -2.123992E-04 -1.608213E-04 +5.123200E-03 +9.155290E-05 -2.123992E-04 +9.155290E-05 -4.831792E-05 
 +2.921119E-05 -4.842305E-05 -2.822660E-05 -4.842305E-05 +5.067496E-03 +3.379702E-06 -2.822660E-05 +3.379702E-06 -1.859742E-04 
 +1.120002E-04 +3.848487E-05 -8.272770E-06 +3.848487E-05 +4.974240E-03 -9.864233E-05 -8.272770E-06 -9.864233E-05 -2.136905E-04 
 +1.556515E-04 +1.118435E-04 +1.602965E-06 +1.118435E-04 +4.884139E-03 -7.024070E-05 +1.602965E-06 -7.024070E-05 -8.424719E-05 
 +9.880483E-05 +1.443212E-04 -8.489421E-05 +1.443212E-04 +4.817542E-03 -6.249681E-06 -8.489421E-05 -6.249681E-06 +1.213715E-04 
 +1.668087E-04 +3.148336E-05 -6.841176E-05 +3.148336E-05 +4.839050E-03 -7.518329E-06 -6.841176E-05 -7.518329E-06 +2.100692E-04 
 +1.536481E-04 +6.854193E-05 -1.171973E-04 +6.854193E-05 +4.879830E-03 +5.172073E-05 -1.171973E-04 +5.172073E-05 +1.156654E-04 
 +1.329085E-04 +9.556931E-05 -3.004580E-05 +9.556931E-05 +4.912668E-03 +1.366861E-04 -3.004580E-05 +1.366861E-04 +1.633309E-05 
 +1.490239E-04 +1.586815E-04 -1.690945E-05 +1.586815E-04 +4.896270E-03 +1.476904E-04 -1.690945E-05 +1.476904E-04 -3.430751E-05 
 +2.356507E-04 +1.698483E-04 -8.314945E-05 +1.698483E-04 +4.822316E-03 +7.149338E-05 -8.314945E-05 +7.149338E-05 -8.026385E-05 
 +1.330320E-04 +1.171277E-04 -1.591167E-04 +1.171277E-04 +4.811996E-03 +6.089378E-05 -1.591167E-04 +6.089378E-05 -7.929854E-05 
 -9.910891E-05 +1.670658E-05 -2.249390E-05 +1.670658E-05 +4.877364E-03 +1.215330E-04 -2.249390E-05 +1.215330E-04 -1.191205E-05 
 -9.023829E-05 +2.006890E-05 +5.901782E-06 +2.006890E-05 +4.947153E-03 +9.146141E-05 +5.901782E-06 +9.146141E-05 -4.061465E-05 
 +1.446215E-04 -3.382700E-05 +3.249172E-04 -3.382700E-05 +4.985386E-03 +1.733384E-05 +3.249172E-04 +1.733384E-05 -2.474734E-05 
 +1.612773E-04 -3.953544E-05 +2.601555E-04 -3.953544E-05 +5.036856E-03 -1.090061E-04 +2.601555E-04 -1.090061E-04 -1.262313E-05 
 -1.265993E-04 +1.928733E-05 +2.569236E-04 +1.928733E-05 +5.115934E-03 -1.544474E-04 +2.569236E-04 -1.544474E-04 +2.293946E-06 
 -1.551690E-04 -3.604601E-05 +1.654600E-04 -3.604601E-05 +5.133965E-03 -7.325207E-05 +1.654600E-04 -7.325207E-05 +9.098562E-05 
 -1.963535E-04 -1.017174E-04 +1.105059E-04 -1.017174E-04 +5.103710E-03 -1.732169E-05 +1.105059E-04 -1.732169E-05 +1.004900E-04 
 -1.868993E-04 -1.194508E-04 +1.083967E-04 -1.194508E-04 +5.080486E-03 +5.271460E-05 +1.083967E-04 +5.271460E-05 +6.514372E-05 
 -2.612315E-04 -6.175241E-05 +7.991317E-05 -6.175241E-05 +5.046204E-03 +1.194933E-04 +7.991317E-05 +1.194933E-04 +1.670498E-04 
 -3.524633E-04 -2.799181E-05 -1.350228E-05 -2.799181E-05 +5.089962E-03 +1.470370E-04 -1.350228E-05 +1.470370E-04 +6.904718E-05 
 -5.795407E-06 -5.073587E-05 -7.445504E-05 -5.073587E-05 +5.128070E-03 +1.477458E-04 -7.445504E-05 +1.477458E-04 -1.954924E-04 
 +1.746585E-04 -7.167656E-05 -3.619460E-06 -7.167656E-05 +5.094292E-03 +8.610921E-05 -3.619460E-06 +8.610921E-05 -3.806035E-04 
 +2.632952E-04 -1.014339E-04 -6.166251E-06 -1.014339E-04 +5.050730E-03 -1.132158E-05 -6.166251E-06 -1.132158E-05 -3.977393E-04 
 +1.877857E-04 -7.096036E-05 +4.272742E-05 -7.096036E-05 +5.018132E-03 -2.558159E-05 +4.272742E-05 -2.558159E-05 -2.746392E-04 
 +9.940015E-05 +4.695519E-05 -1.336495E-04 +4.695519E-05 +4.942094E-03 +1.855432E-05 -1.336495E-04 +1.855432E-05 -4.499276E-05 
 +1.157191E-04 +7.522038E-05 -8.829686E-05 +7.522038E-05 +4.942978E-03 +3.073712E-05 -8.829686E-05 +3.073712E-05 +3.480379E-05 
 +1.271546E-04 +1.170004E-04 -6.685629E-05 +1.170004E-04 +4.989608E-03 +7.648760E-05 -6.685629E-05 +7.648760E-05 -4.771383E-05 
 +1.456610E-04 +1.395625E-04 +4.065739E-07 +1.395625E-04 +4.970366E-03 +1.391018E-04 +4.065739E-07 +1.391018E-04 -1.251690E-04 
 +2.107866E-04 +1.797960E-04 -1.274628E-05 +1.797960E-04 +4.918615E-03 +1.345478E-04 -1.274628E-05 +1.345478E-04 -1.343948E-04 
 +2.075286E-04 +2.151828E-04 +6.098778E-05 +2.151828E-04 +4.810748E-03 +9.889332E-05 +6.098778E-05 +9.889332E-05 -1.619276E-04 
 +7.206035E-05 +1.929696E-04 -3.552921E-05 +1.929696E-04 +4.754529E-03 +1.105642E-04 -3.552921E-05 +1.105642E-04 -1.252533E-04 
 -1.336209E-04 +4.621848E-05 +1.731200E-05 +4.621848E-05 +4.849815E-03 +1.416933E-04 +1.731200E-05 +1.416933E-04 +1.476700E-06 
 -2.138100E-04 -1.734001E-05 +3.733312E-05 -1.734001E-05 +4.991960E-03 +5.877466E-05 +3.733312E-05 +5.877466E-05 -8.689209E-05 
 -6.172667E-06 -1.084336E-04 +3.071265E-04 -1.084336E-04 +5.056296E-03 -1.008923E-04 +3.071265E-04 -1.008923E-04 -1.474375E-04 
 +1.517807E-04 -1.020546E-04 +1.338398E-04 -1.020546E-04 +5.082147E-03 -1.458115E-04 +1.338398E-04 -1.458115E-04 -1.036614E-04 
 -5.741454E-05 +1.772761E-05 +1.683521E-04 +1.772761E-05 +5.111872E-03 -1.036785E-04 +1.683521E-04 -1.036785E-04 -8.900951E-06 
 -1.894030E-04 +5.780635E-05 +7.558271E-05 +5.780635E-05 +5.100991E-03 -5.660031E-05 +7.558271E-05 -5.660031E-05 +1.300554E-04 
 -2.885786E-04 +2.526544E-05 +2.508224E-05 +2.526544E-05 +5.075210E-03 +4.821303E-06 +2.508224E-05 +4.821303E-06 +1.905613E-04 
 -2.474719E-04 -3.392724E-05 +8.002682E-05 -3.392724E-05 +5.052427E-03 +7.912569E-05 +8.002682E-05 +7.912569E-05 +1.912389E-04 
 -3.264157E-04 +7.288534E-06 +8.261484E-05 +7.288534E-06 +5.019502E-03 +1.035956E-04 +8.261484E-05 +1.035956E-04 +2.427137E-04 
 -3.092743E-04 +1.117592E-04 +7.569607E-05 +1.117592E-04 +5.048559E-03 +1.247513E-04 +7.569607E-05 +1.247513E-04 +1.063566E-04 
 +1.261585E-04 +5.682346E-06 -9.163837E-06 +5.682346E-06 +5.125024E-03 +3.724429E-05 -9.163837E-06 +3.724429E-05 -1.776199E-04 
 +2.008233E-04 -1.379942E-04 +3.356338E-05 -1.379942E-04 +5.129079E-03 -6.126859E-05 +3.356338E-05 -6.126859E-05 -3.316577E-04 
 +2.679406E-04 -1.749402E-04 +1.125588E-04 -1.749402E-04 +4.992183E-03 -1.114351E-05 +1.125588E-04 -1.114351E-05 -3.460254E-04 
 +2.711984E-04 -1.281063E-04 +1.237348E-04 -1.281063E-04 +4.890733E-03 +4.114883E-06 +1.237348E-04 +4.114883E-06 -2.595372E-04 
 +1.818265E-04 -8.793548E-06 -1.477991E-05 -8.793548E-06 +4.935609E-03 +1.022043E-05 -1.477991E-05 +1.022043E-05 -1.228946E-04 
 +1.446554E-04 +6.486124E-05 -6.897477E-05 +6.486124E-05 +4.990303E-03 +4.839396E-05 -6.897477E-05 +4.839396E-05 -1.289342E-04 
 +1.415867E-04 +9.556914E-05 -2.284227E-05 +9.556914E-05 +5.011647E-03 +6.109399E-05 -2.284227E-05 +6.109399E-05 -1.850659E-04 
 +1.848948E-04 +1.415533E-04 -2.358296E-06 +1.415533E-04 +5.009477E-03 +5.752495E-05 -2.358296E-06 +5.752495E-05 -2.048607E-04 
 +2.079593E-04 +1.260091E-04 +4.809603E-05 +1.260091E-04 +4.972917E-03 +8.417474E-05 +4.809603E-05 +8.417474E-05 -1.804828E-04 
 +1.039846E-04 +6.123143E-05 +3.766206E-04 +6.123143E-05 +4.975081E-03 +1.558797E-04 +3.766206E-04 +1.558797E-04 -1.820822E-04 
 -3.137012E-05 +2.488876E-05 +2.819033E-04 +2.488876E-05 +4.949126E-03 +1.823988E-04 +2.819033E-04 +1.823988E-04 -1.687070E-04 
 -2.365291E-04 -2.445776E-05 +1.057372E-04 -2.445776E-05 +4.908061E-03 +1.411481E-04 +1.057372E-04 +1.411481E-04 +1.655569E-05 
 -3.151652E-04 -4.211153E-05 +1.219599E-05 -4.211153E-05 +4.986039E-03 +3.045183E-05 +1.219599E-05 +3.045183E-05 +1.758731E-05 
 -1.592249E-05 -9.401266E-05 +1.332923E-04 -9.401266E-05 +5.096102E-03 -8.175975E-05 +1.332923E-04 -8.175975E-05 -1.855081E-04 
 +1.002100E-04 -3.064567E-05 -6.281365E-05 -3.064567E-05 +5.149764E-03 -6.984666E-05 -6.281365E-05 -6.984666E-05 -2.341982E-04 
 +8.708398E-05 +1.727071E-05 -7.051916E-05 +1.727071E-05 +5.152171E-03 -4.023523E-05 -7.051916E-05 -4.023523E-05 -2.128995E-04 
 -7.789607E-05 +1.643596E-05 -6.286340E-05 +1.643596E-05 +5.129645E-03 -8.135926E-05 -6.286340E-05 -8.135926E-05 -1.526510E-05 
 -3.830085E-04 +2.568019E-05 +4.034778E-05 +2.568019E-05 +5.079363E-03 -7.051073E-06 +4.034778E-05 -7.051073E-06 +2.724670E-04 
 -3.229379E-04 +5.997141E-06 +8.386394E-05 +5.997141E-06 +5.035529E-03 +8.730960E-05 +8.386394E-05 +8.730960E-05 +3.119463E-04 
 -3.251769E-04 +6.383322E-05 +1.286066E-04 +6.383322E-05 +4.991807E-03 +7.605374E-05 +1.286066E-04 +7.605374E-05 +2.989066E-04 
 -3.129729E-04 +1.059062E-04 +1.461347E-04 +1.059062E-04 +4.920639E-03 +8.142315E-05 +1.461347E-04 +8.142315E-05 +2.327728E-04 
 +2.225516E-04 +2.223330E-05 +2.562377E-06 +2.223330E-05 +4.718016E-03 -1.390067E-05 +2.562377E-06 -1.390067E-05 +1.408798E-04 
 +3.192852E-04 +2.417619E-05 +9.836805E-05 +2.417619E-05 +4.681821E-03 -3.506628E-05 +9.836805E-05 -3.506628E-05 +6.014463E-05 
 +2.457043E-04 -1.298619E-05 +1.811044E-04 -1.298619E-05 +4.846199E-03 +3.625181E-05 +1.811044E-04 +3.625181E-05 -7.678802E-05 
 +2.455438E-04 -1.961324E-05 +1.179705E-04 -1.961324E-05 +4.910243E-03 +4.161110E-05 +1.179705E-04 +4.161110E-05 -8.790554E-05 
 +2.364776E-04 +7.772629E-05 +1.406767E-04 +7.772629E-05 +4.882538E-03 +2.165747E-05 +1.406767E-04 +2.165747E-05 -3.763231E-05 
 +1.520727E-04 +1.223259E-04 -1.091110E-04 +1.223259E-04 +4.935994E-03 -6.067650E-06 -1.091110E-04 -6.067650E-06 -9.137502E-05 
 +1.257624E-04 +9.120703E-05 +3.909898E-06 +9.120703E-05 +4.998361E-03 +1.899934E-05 +3.909898E-06 +1.899934E-05 -1.865448E-04 
 +1.388647E-04 +4.461882E-05 -2.463151E-05 +4.461882E-05 +5.056837E-03 +6.443251E-05 -2.463151E-05 +6.443251E-05 -1.919362E-04 
 -1.797249E-05 -1.118593E-04 +2.685433E-04 -1.118593E-04 +5.108762E-03 +1.206964E-04 +2.685433E-04 +1.206964E-04 -2.024219E-04 
 -6.106824E-05 -2.113660E-04 +5.050104E-04 -2.113660E-04 +5.069147E-03 +6.945418E-05 +5.050104E-04 +6.945418E-05 -1.637335E-04 
 -1.112884E-05 -2.258474E-04 +4.447728E-04 -2.258474E-04 +5.002331E-03 +4.997270E-07 +4.447728E-04 +4.997270E-07 -8.412688E-05 
 -2.419303E-04 -1.527577E-04 +3.323961E-05 -1.527577E-04 +4.986051E-03 -3.158523E-05 +3.323961E-05 -3.158523E-05 +1.542740E-05 
 -3.314796E-04 -6.520329E-05 -4.700839E-05 -6.520329E-05 +5.023069E-03 -1.248757E-04 -4.700839E-05 -1.248757E-04 -7.410330E-05 
 +1.189260E-04 -7.576804E-05 -1.003540E-04 -7.576804E-05 +5.124881E-03 -1.078958E-04 -1.003540E-04 -1.078958E-04 -4.205868E-04 
 +9.866046E-05 -1.708981E-05 -2.357943E-04 -1.708981E-05 +5.219463E-03 -4.665202E-05 -2.357943E-04 -4.665202E-05 -4.510158E-04 
 +1.021705E-04 +7.374595E-06 -2.468500E-04 +7.374595E-06 +5.211522E-03 -3.255615E-05 -2.468500E-04 -3.255615E-05 -4.071627E-04 
 +3.057578E-05 -3.731045E-05 -1.848969E-04 -3.731045E-05 +5.145679E-03 -5.231307E-05 -1.848969E-04 -5.231307E-05 -1.051107E-04 
 -3.673842E-04 -3.468340E-05 +9.284241E-05 -3.468340E-05 +5.076403E-03 -8.549381E-06 +9.284241E-05 -8.549381E-06 +3.444714E-04 
 -3.676406E-04 +1.158884E-06 +7.427175E-05 +1.158884E-06 +5.003708E-03 +4.672039E-05 +7.427175E-05 +4.672039E-05 +3.672019E-04 
 -3.934347E-04 +3.614444E-05 +1.603044E-04 +3.614444E-05 +4.988723E-03 +3.333087E-05 +1.603044E-04 +3.333087E-05 +3.109998E-04 
 -9.838799E-05 +2.407069E-05 +1.543682E-04 +2.407069E-05 +4.786407E-03 -1.300987E-05 +1.543682E-04 -1.300987E-05 +2.885598E-04 
 +3.385910E-04 +4.835860E-05 +4.515948E-05 +4.835860E-05 +4.440493E-03 -3.825779E-05 +4.515948E-05 -3.825779E-05 +2.800549E-04 
 +3.657767E-04 +1.239808E-04 +1.033281E-04 +1.239808E-04 +4.347982E-03 +9.915254E-06 +1.033281E-04 +9.915254E-06 +2.635495E-04 
 +3.002021E-04 +1.242167E-04 +1.018623E-04 +1.242167E-04 +4.555887E-03 +4.792737E-05 +1.018623E-04 +4.792737E-05 +1.402530E-04 
 +2.110648E-04 +1.026354E-04 +6.799113E-05 +1.026354E-04 +4.793765E-03 +7.931754E-05 +6.799113E-05 +7.931754E-05 +6.476340E-06 
 +1.368449E-04 +1.535731E-04 +1.568012E-04 +1.535731E-04 +4.890254E-03 -9.376944E-06 +1.568012E-04 -9.376944E-06 -4.106586E-05 
 +8.473131E-05 +1.670631E-04 -4.571611E-05 +1.670631E-04 +4.949577E-03 -5.923561E-05 -4.571611E-05 -5.923561E-05 -7.223624E-05 
 +2.684263E-05 +9.828987E-05 +9.997644E-05 +9.828987E-05 +5.091994E-03 +2.260159E-05 +9.997644E-05 +2.260159E-05 -1.979044E-04 
 -1.182308E-04 -2.279302E-05 +6.978572E-05 -2.279302E-05 +5.184623E-03 +1.140951E-04 +6.978572E-05 +1.140951E-04 -2.044783E-04 
 -2.497876E-04 -2.050083E-04 +4.127242E-04 -2.050083E-04 +5.168365E-03 +1.171740E-04 +4.127242E-04 +1.171740E-04 -2.025391E-04 
 -1.438272E-04 -2.613474E-04 +4.213983E-04 -2.613474E-04 +5.120536E-03 -8.506077E-06 +4.213983E-04 -8.506077E-06 -1.939122E-04 
 -5.807597E-05 -3.186461E-04 +3.060585E-04 -3.186461E-04 +5.038688E-03 -1.082802E-04 +3.060585E-04 -1.082802E-04 -8.266400E-05 
 -1.914788E-04 -2.623088E-04 -1.222758E-04 -2.623088E-04 +5.036574E-03 -5.930999E-05 -1.222758E-04 -5.930999E-05 -4.949860E-05 
 -2.036970E-04 -1.672087E-04 -1.234283E-04 -1.672087E-04 +5.057133E-03 -4.616484E-05 -1.234283E-04 -4.616484E-05 -2.045154E-04 
 +2.680179E-04 -7.261214E-05 -1.467023E-04 -7.261214E-05 +5.076266E-03 -8.046446E-05 -1.467023E-04 -8.046446E-05 -5.295489E-04 
 +2.090029E-04 -1.015187E-05 -2.876664E-04 -1.015187E-05 +5.173093E-03 -4.191082E-05 -2.876664E-04 -4.191082E-05 -5.433996E-04 
 +1.497643E-04 +1.795252E-05 -3.073518E-04 +1.795252E-05 +5.214350E-03 -1.472595E-05 -3.073518E-04 -1.472595E-05 -4.698878E-04 
 +7.212285E-05 -3.318538E-05 -2.607854E-04 -3.318538E-05 +5.146158E-03 +2.546734E-05 -2.607854E-04 +2.546734E-05 -1.727657E-04 
 -3.242164E-04 -3.065321E-05 +9.404444E-05 -3.065321E-05 +5.072398E-03 +5.023101E-05 +9.404444E-05 +5.023101E-05 +2.932133E-04 
 -3.819355E-04 -1.907254E-05 +7.258391E-05 -1.907254E-05 +5.029514E-03 +3.626541E-05 +7.258391E-05 +3.626541E-05 +3.490342E-04 
 -2.708986E-04 +4.287788E-05 +1.751071E-04 +4.287788E-05 +4.859604E-03 -3.103635E-05 +1.751071E-04 -3.103635E-05 +2.968762E-04 
 +1.468079E-04 -5.896360E-06 +6.371631E-05 -5.896360E-06 +4.420578E-03 -1.617059E-04 +6.371631E-05 -1.617059E-04 +2.399352E-04 
 +3.002146E-04 +8.676259E-06 +5.085097E-05 +8.676259E-06 +4.317311E-03 -1.385949E-04 +5.085097E-05 -1.385949E-04 +2.361746E-04 
 +2.623555E-04 +1.173012E-04 +3.849434E-06 +1.173012E-04 +4.378810E-03 -7.991398E-05 +3.849434E-06 -7.991398E-05 +2.406681E-04 
 +3.327446E-04 +1.377747E-04 +2.016599E-05 +1.377747E-04 +4.443706E-03 -5.700731E-05 +2.016599E-05 -5.700731E-05 +1.926016E-04 
 +1.805232E-04 +4.103686E-05 +2.132090E-05 +4.103686E-05 +4.673843E-03 -4.386896E-05 +2.132090E-05 -4.386896E-05 +1.125350E-04 
 +4.240317E-05 +3.743044E-05 +1.120206E-04 +3.743044E-05 +4.905174E-03 -5.693076E-05 +1.120206E-04 -5.693076E-05 +1.314215E-05 
 -3.448847E-06 +1.091140E-04 +1.275888E-04 +1.091140E-04 +4.988342E-03 +1.579609E-05 +1.275888E-04 +1.579609E-05 -8.915696E-05 
 -8.793432E-05 +1.190033E-04 +2.498399E-04 +1.190033E-04 +5.084857E-03 +1.100922E-04 +2.498399E-04 +1.100922E-04 -1.750872E-04 
 -2.656101E-04 -2.012707E-06 +2.175548E-04 -2.012707E-06 +5.160797E-03 +2.067873E-04 +2.175548E-04 +2.067873E-04 -1.358160E-04 
 -3.143742E-04 -9.604970E-05 +3.008216E-04 -9.604970E-05 +5.066279E-03 +1.937675E-04 +3.008216E-04 +1.937675E-04 -8.034386E-05 
 -2.023493E-04 -8.023094E-05 +2.444420E-04 -8.023094E-05 +5.013607E-03 +5.278785E-05 +2.444420E-04 +5.278785E-05 -1.162224E-04 
 -2.507977E-04 -1.623162E-04 +7.399570E-05 -1.623162E-04 +5.081781E-03 -4.035893E-05 +7.399570E-05 -4.035893E-05 -1.581287E-04 
 -1.948832E-04 -1.035174E-04 -9.509065E-05 -1.035174E-04 +5.097355E-03 +2.585768E-05 -9.509065E-05 +2.585768E-05 -1.521149E-04 
 -6.799742E-05 -1.260968E-04 -1.812230E-04 -1.260968E-04 +5.010978E-03 +7.492324E-05 -1.812230E-04 +7.492324E-05 -2.094758E-04 
 +3.255411E-04 -5.256691E-05 -3.226424E-05 -5.256691E-05 +4.940091E-03 -5.980849E-06 -3.226424E-05 -5.980849E-06 -4.259828E-04 
 +3.376619E-04 -3.491656E-05 -1.537734E-04 -3.491656E-05 +4.964117E-03 -2.243803E-05 -1.537734E-04 -2.243803E-05 -5.355248E-04 
 +2.670425E-04 -4.488808E-05 -2.566085E-04 -4.488808E-05 +5.036123E-03 +2.154907E-05 -2.566085E-04 +2.154907E-05 -6.082767E-04 
 +1.665061E-04 -8.395166E-05 -3.522420E-04 -8.395166E-05 +5.116707E-03 +3.182801E-05 -3.522420E-04 +3.182801E-05 -3.820059E-04 
 -3.101329E-04 -4.329721E-05 +5.448033E-05 -4.329721E-05 +5.152935E-03 +1.052332E-05 +5.448033E-05 +1.052332E-05 +1.238534E-04 
 -3.935793E-04 -4.494892E-05 +1.744983E-04 -4.494892E-05 +5.134611E-03 +3.737920E-05 +1.744983E-04 +3.737920E-05 +3.199544E-04 
 -4.782385E-05 +7.358062E-07 +1.028034E-04 +7.358062E-07 +4.581601E-03 -1.192199E-04 +1.028034E-04 -1.192199E-04 +3.107877E-04 
 +1.323772E-04 +9.571180E-06 +4.423143E-05 +9.571180E-06 +4.507560E-03 -1.416176E-04 +4.423143E-05 -1.416176E-04 +2.157063E-04 
 +7.177785E-05 +9.623564E-07 -4.505728E-05 +9.623564E-07 +4.490514E-03 -1.361084E-04 -4.505728E-05 -1.361084E-04 +1.460797E-04 
 +1.747033E-04 +7.514762E-05 -5.256371E-05 +7.514762E-05 +4.445957E-03 -1.478329E-04 -5.256371E-05 -1.478329E-04 +8.585029E-05 
 +6.072572E-05 +7.960938E-05 -9.068436E-05 +7.960938E-05 +4.562859E-03 -1.489379E-04 -9.068436E-05 -1.489379E-04 +1.499334E-04 
 +1.303729E-04 -6.801393E-05 -2.325703E-05 -6.801393E-05 +4.688692E-03 -1.244572E-04 -2.325703E-05 -1.244572E-04 +2.583639E-04 
 +8.865495E-05 -9.384029E-05 +9.353981E-05 -9.384029E-05 +4.751080E-03 -1.740527E-05 +9.353981E-05 -1.740527E-05 +1.634968E-04 
 -4.671018E-05 +9.071915E-06 +1.760313E-04 +9.071915E-06 +4.865621E-03 +1.248777E-04 +1.760313E-04 +1.248777E-04 +2.847180E-05 
 -1.343136E-04 +3.818751E-05 +2.606770E-04 +3.818751E-05 +4.946134E-03 +2.254987E-04 +2.606770E-04 +2.254987E-04 -2.012867E-05 
 -1.427432E-04 -2.630314E-05 +2.221242E-04 -2.630314E-05 +4.974622E-03 +2.210088E-04 +2.221242E-04 +2.210088E-04 -3.578338E-05 
 -2.715931E-04 -1.162165E-04 +1.535510E-04 -1.162165E-04 +5.034450E-03 +1.489554E-04 +1.535510E-04 +1.489554E-04 -5.787918E-06 
 -2.804284E-04 -4.334962E-05 +9.701974E-05 -4.334962E-05 +5.019713E-03 +9.175011E-05 +9.701974E-05 +9.175011E-05 -3.603948E-05 
 -2.911826E-04 -3.408738E-07 +1.606570E-05 -3.408738E-07 +5.035743E-03 +1.103853E-04 +1.606570E-05 +1.103853E-04 -1.637518E-04 
 -2.038212E-04 +8.168130E-05 -9.774629E-06 +8.168130E-05 +5.049568E-03 +1.260129E-04 -9.774629E-06 +1.260129E-04 -1.608150E-04 
 -5.265864E-05 +4.937213E-05 -2.247660E-04 +4.937213E-05 +5.020236E-03 +7.695113E-05 -2.247660E-04 +7.695113E-05 -1.304453E-04 
 +1.894968E-04 +4.254935E-05 +1.731037E-06 +4.254935E-05 +4.943459E-03 -2.460649E-06 +1.731037E-06 -2.460649E-06 -2.633375E-04 
 +3.413088E-04 +1.810307E-05 +8.463579E-05 +1.810307E-05 +4.855018E-03 -1.895732E-05 +8.463579E-05 -1.895732E-05 -3.591952E-04 
 +3.328898E-04 -2.135764E-05 -9.196393E-05 -2.135764E-05 +4.912307E-03 -5.148978E-05 -9.196393E-05 -5.148978E-05 -4.028868E-04 
 +2.670493E-04 -1.294039E-04 -2.592165E-04 -1.294039E-04 +5.034689E-03 -1.146857E-04 -2.592165E-04 -1.146857E-04 -2.671734E-04 
 -1.155006E-04 -4.812326E-05 +8.093324E-05 -4.812326E-05 +5.153727E-03 -1.349338E-04 +8.093324E-05 -1.349338E-04 +6.420048E-05 
 -2.027224E-04 -1.943828E-05 +2.736470E-04 -1.943828E-05 +4.973012E-03 -1.082460E-04 +2.736470E-04 -1.082460E-04 +3.066565E-04 
 -1.780294E-04 -1.041916E-04 -1.081321E-04 -1.041916E-04 +4.783482E-03 -1.206307E-05 -1.081321E-04 -1.206307E-05 +2.899956E-04 
 +9.869223E-05 -1.721428E-05 +6.813937E-06 -1.721428E-05 +4.783189E-03 +8.744332E-06 +6.813937E-06 +8.744332E-06 +1.646772E-04 
 -2.778070E-04 -4.657299E-05 -1.594649E-04 -4.657299E-05 +5.029822E-03 -4.999731E-05 -1.594649E-04 -4.999731E-05 -2.585070E-06 
 +1.355161E-05 -3.597555E-05 -1.030178E-04 -3.597555E-05 +5.217905E-03 -1.105420E-04 -1.030178E-04 -1.105420E-04 -1.355946E-04 
 -2.641982E-04 -4.843811E-05 -2.016267E-04 -4.843811E-05 +5.138844E-03 -1.121908E-04 -2.016267E-04 -1.121908E-04 +6.836642E-05 
 +1.746625E-04 -8.798280E-05 -4.943539E-05 -8.798280E-05 +5.010145E-03 -5.158226E-05 -4.943539E-05 -5.158226E-05 +2.642741E-04 
 +1.389100E-05 -1.230555E-04 +1.407272E-04 -1.230555E-04 +5.043754E-03 +4.390651E-05 +1.407272E-04 +4.390651E-05 +1.882371E-04 
 -3.008008E-06 -7.156476E-05 +6.401338E-05 -7.156476E-05 +5.078657E-03 +6.325143E-05 +6.401338E-05 +6.325143E-05 +1.229144E-04 
 -7.950181E-05 -7.876365E-05 +2.021674E-04 -7.876365E-05 +4.939743E-03 +1.169599E-04 +2.021674E-04 +1.169599E-04 +8.004241E-05 
 +5.222661E-06 -5.012375E-05 +1.242950E-04 -5.012375E-05 +4.876206E-03 +2.011897E-04 +1.242950E-04 +2.011897E-04 -6.995125E-06 
 -1.844063E-04 -1.677900E-04 +1.228012E-04 -1.677900E-04 +4.976723E-03 +1.256368E-04 +1.228012E-04 +1.256368E-04 -2.600289E-05 
 -2.367392E-04 -7.376073E-05 +1.038826E-04 -7.376073E-05 +5.057994E-03 +6.962013E-05 +1.038826E-04 +6.962013E-05 -1.159856E-04 
 -1.883555E-04 +3.182622E-05 +7.968036E-05 +3.182622E-05 +5.057494E-03 +9.152152E-05 +7.968036E-05 +9.152152E-05 -2.104035E-04 
 -1.613620E-04 +9.166247E-05 -8.403580E-05 +9.166247E-05 +5.031783E-03 +5.519386E-05 -8.403580E-05 +5.519386E-05 -1.636223E-04 
 -6.310478E-05 +9.157094E-05 -2.691126E-04 +9.157094E-05 +5.021134E-03 +3.886414E-05 -2.691126E-04 +3.886414E-05 -7.998791E-05 
 +5.665040E-05 +8.537106E-05 -1.919467E-04 +8.537106E-05 +4.972332E-03 +6.564984E-05 -1.919467E-04 +6.564984E-05 -8.687556E-05 
 +2.523253E-04 +1.082305E-04 +4.247891E-05 +1.082305E-04 +4.814919E-03 +4.930756E-05 +4.247891E-05 +4.930756E-05 -2.944563E-05 
 +3.374341E-04 +1.236209E-04 -1.658000E-05 +1.236209E-04 +4.622518E-03 +2.054926E-05 -1.658000E-05 +2.054926E-05 +1.797486E-04 
 +2.821097E-04 +4.596795E-05 +8.863159E-06 +4.596795E-05 +4.565582E-03 -7.568151E-07 +8.863159E-06 -7.568151E-07 +1.992544E-04 
 +2.316541E-04 +7.742737E-05 +1.143087E-04 +7.742737E-05 +4.543912E-03 -4.708598E-05 +1.143087E-04 -4.708598E-05 +1.757302E-04 
 +1.704032E-04 +3.487288E-05 +1.746229E-04 +3.487288E-05 +4.674343E-03 -8.022808E-05 +1.746229E-04 -8.022808E-05 +3.225248E-04 
 -2.482293E-04 -1.730472E-04 -1.838512E-04 -1.730472E-04 +4.897256E-03 +5.413661E-05 -1.838512E-04 +5.413661E-05 +2.727515E-04 
 -1.797783E-04 -9.212720E-05 -6.709811E-05 -9.212720E-05 +5.164265E-03 +8.118397E-05 -6.709811E-05 +8.118397E-05 +1.240562E-04 
 -4.086558E-04 -1.109293E-04 -1.139137E-04 -1.109293E-04 +5.214987E-03 +4.775256E-05 -1.139137E-04 +4.775256E-05 +1.782391E-05 
 -2.825364E-04 -9.623948E-05 -2.295096E-04 -9.623948E-05 +5.213091E-03 +3.879618E-06 -2.295096E-04 +3.879618E-06 -7.658754E-05 
 -2.097744E-04 -6.691791E-05 -1.520720E-04 -6.691791E-05 +5.186418E-03 +5.915374E-05 -1.520720E-04 +5.915374E-05 +7.367325E-05 
 +7.383802E-05 -6.667426E-05 -9.741858E-05 -6.667426E-05 +5.116871E-03 +1.615525E-04 -9.741858E-05 +1.615525E-04 +2.306777E-04 
 -3.316880E-05 -5.791353E-05 +7.807501E-05 -5.791353E-05 +5.034301E-03 +6.732546E-05 +7.807501E-05 +6.732546E-05 +1.874659E-04 
 +7.126999E-05 +2.010394E-05 -1.016407E-04 +2.010394E-05 +4.975488E-03 -2.369842E-05 -1.016407E-04 -2.369842E-05 +1.168118E-04 
 +5.667653E-07 -3.616975E-05 +8.676234E-05 -3.616975E-05 +4.963571E-03 -2.348801E-06 +8.676234E-05 -2.348801E-06 +1.068293E-04 
 -2.601089E-05 -4.656052E-05 +8.994338E-05 -4.656052E-05 +4.888353E-03 +1.317496E-04 +8.994338E-05 +1.317496E-04 +6.335292E-05 
 -9.734083E-05 -1.307892E-04 +1.003057E-04 -1.307892E-04 +4.906572E-03 +1.586578E-04 +1.003057E-04 +1.586578E-04 -2.010988E-05 
 -8.608127E-05 -1.132731E-04 +7.278932E-05 -1.132731E-04 +5.011044E-03 +5.675725E-05 +7.278932E-05 +5.675725E-05 -1.688510E-04 
 -7.553693E-05 +3.848391E-06 +1.298837E-05 +3.848391E-06 +5.062070E-03 +1.274722E-05 +1.298837E-05 +1.274722E-05 -2.023872E-04 
 -5.374274E-05 +7.244846E-05 -2.298730E-04 +7.244846E-05 +5.095089E-03 -2.472081E-05 -2.298730E-04 -2.472081E-05 -1.821618E-04 
 -2.909073E-06 +1.087543E-04 -2.592827E-04 +1.087543E-04 +5.040582E-03 -2.465519E-05 -2.592827E-04 -2.465519E-05 -1.255909E-04 
 +4.965771E-05 +1.255991E-04 -3.215250E-04 +1.255991E-04 +4.962144E-03 +2.542488E-05 -3.215250E-04 +2.542488E-05 -2.951042E-05 
 +1.426189E-04 +8.317395E-05 -2.068221E-04 +8.317395E-05 +4.822382E-03 +5.308479E-05 -2.068221E-04 +5.308479E-05 +1.328894E-04 
 +3.146262E-04 +1.071137E-04 -2.437635E-05 +1.071137E-04 +4.640521E-03 +1.105733E-04 -2.437635E-05 +1.105733E-04 +4.170094E-04 
 +3.024705E-04 +1.137259E-04 +1.199278E-04 +1.137259E-04 +4.548855E-03 +1.487180E-04 +1.199278E-04 +1.487180E-04 +3.560308E-04 
 +3.789930E-04 +4.324082E-05 +6.106316E-05 +4.324082E-05 +4.532395E-03 +9.485357E-05 +6.106316E-05 +9.485357E-05 +2.224423E-04 
 +3.699061E-04 -1.110851E-05 +5.546380E-05 -1.110851E-05 +4.609867E-03 +2.367297E-05 +5.546380E-05 +2.367297E-05 +3.377193E-04 
 -2.457811E-04 -1.612892E-04 -3.724633E-05 -1.612892E-04 +4.928550E-03 -5.327862E-05 -3.724633E-05 -5.327862E-05 +2.659457E-04 
 -3.872805E-04 -1.738914E-04 +1.687201E-07 -1.738914E-04 +5.178220E-03 +2.401438E-05 +1.687201E-07 +2.401438E-05 +1.590747E-04 
 -4.434972E-04 -1.452252E-04 -1.593374E-06 -1.452252E-04 +5.219863E-03 +6.108150E-05 -1.593374E-06 +6.108150E-05 +1.247229E-04 
 -4.555953E-04 -1.416243E-04 -2.030845E-04 -1.416243E-04 +5.141372E-03 +1.422425E-04 -2.030845E-04 +1.422425E-04 +4.289466E-05 
 -1.670910E-05 -8.499953E-05 -3.027682E-05 -8.499953E-05 +5.023050E-03 +2.173946E-04 -3.027682E-05 +2.173946E-04 +1.051456E-04 
 -5.933488E-06 -2.787947E-05 -1.657865E-04 -2.787947E-05 +4.950288E-03 +1.419158E-04 -1.657865E-04 +1.419158E-04 +2.567829E-04 
 -1.420764E-06 +6.251211E-05 -7.675518E-05 +6.251211E-05 +4.925974E-03 -1.037218E-06 -7.675518E-05 -1.037218E-06 +2.178070E-04 
 +7.542044E-05 +8.741130E-05 -1.963907E-04 +8.741130E-05 +4.941964E-03 -8.512103E-05 -1.963907E-04 -8.512103E-05 +1.113511E-04 
 +1.472100E-05 +9.788099E-06 -3.611624E-05 +9.788099E-06 +4.971253E-03 -1.038054E-04 -3.611624E-05 -1.038054E-04 +9.566376E-05 
 -1.565307E-04 -6.017612E-05 +1.730233E-04 -6.017612E-05 +5.014891E-03 +3.552125E-05 +1.730233E-04 +3.552125E-05 +5.648249E-05 
 -5.552776E-05 -8.383876E-05 -5.237544E-05 -8.383876E-05 +5.008136E-03 +7.924625E-05 -5.237544E-05 +7.924625E-05 -2.128093E-05 
 +4.810748E-05 -9.002230E-05 -6.879664E-05 -9.002230E-05 +5.041931E-03 -5.708496E-05 -6.879664E-05 -5.708496E-05 -1.130959E-04 
 +7.745932E-05 +7.969836E-07 -1.469068E-04 +7.969836E-07 +5.072496E-03 -8.068053E-05 -1.469068E-04 -8.068053E-05 -1.545041E-04 
 +1.004306E-04 +5.592835E-05 -2.438116E-04 +5.592835E-05 +5.014981E-03 -4.036483E-06 -2.438116E-04 -4.036483E-06 -1.728883E-04 
 +1.191935E-04 +9.049334E-05 -2.136687E-04 +9.049334E-05 +4.982054E-03 +3.455559E-05 -2.136687E-04 +3.455559E-05 -1.497825E-04 
 +9.163850E-05 +1.286036E-04 -2.605597E-04 +1.286036E-04 +4.973635E-03 +6.385775E-06 -2.605597E-04 +6.385775E-06 -8.381910E-05 
 +7.873369E-05 +7.438669E-05 -2.823145E-04 +7.438669E-05 +4.925206E-03 +4.787939E-05 -2.823145E-04 +4.787939E-05 +1.864431E-05 
 +1.827389E-04 +7.161430E-05 -9.622313E-05 +7.161430E-05 +4.773892E-03 +1.502369E-04 -9.622313E-05 +1.502369E-04 +1.982208E-04 
 +3.107827E-04 +1.059034E-04 +5.772155E-05 +1.059034E-04 +4.678784E-03 +2.118064E-04 +5.772155E-05 +2.118064E-04 +2.081271E-04 
 +3.587132E-04 +8.631123E-06 -5.448435E-06 +8.631123E-06 +4.665317E-03 +1.910005E-04 -5.448435E-06 +1.910005E-04 +1.534644E-04 
 +3.105366E-04 -2.513439E-05 -6.994026E-05 -2.513439E-05 +4.678175E-03 +3.142859E-05 -6.994026E-05 +3.142859E-05 +2.621556E-04 
 -3.029786E-04 -7.900351E-05 +1.230935E-04 -7.900351E-05 +5.109755E-03 -7.785885E-05 +1.230935E-04 -7.785885E-05 +1.791311E-04 
 -3.662605E-04 -1.362033E-04 +7.963726E-05 -1.362033E-04 +5.136323E-03 +1.921808E-06 +7.963726E-05 +1.921808E-06 +1.733160E-04 
 -4.594028E-04 -1.168557E-04 +3.688040E-05 -1.168557E-04 +5.179176E-03 +6.826335E-05 +3.688040E-05 +6.826335E-05 +1.745089E-04 
 -4.332187E-04 -1.084121E-04 -2.258848E-05 -1.084121E-04 +5.117019E-03 +1.907628E-04 -2.258848E-05 +1.907628E-04 +9.890357E-05 
 -3.880341E-05 -7.684809E-05 +8.980994E-06 -7.684809E-05 +4.956678E-03 +2.832671E-04 +8.980994E-06 +2.832671E-04 +9.252496E-05 
 -1.945102E-05 -6.466092E-05 -2.761979E-04 -6.466092E-05 +4.945124E-03 +1.141761E-04 -2.761979E-04 +1.141761E-04 +1.757905E-04 
 +1.797812E-05 -2.237910E-05 +5.008374E-06 -2.237910E-05 +5.035674E-03 -6.064369E-05 +5.008374E-06 -6.064369E-05 +1.202350E-04 
 +3.116614E-05 +3.943815E-05 -1.201209E-04 +3.943815E-05 +5.063327E-03 -9.485180E-05 -1.201209E-04 -9.485180E-05 +2.915110E-05 
 -4.915487E-05 -4.781103E-05 +6.962015E-05 -4.781103E-05 +5.110327E-03 -8.845766E-05 +6.962015E-05 -8.845766E-05 -7.318043E-06 
 -1.203035E-04 -7.653493E-05 +2.100751E-04 -7.653493E-05 +5.130978E-03 -8.742697E-05 +2.100751E-04 -8.742697E-05 -3.931084E-05 
 +2.505017E-06 -4.217949E-05 -2.385619E-04 -4.217949E-05 +5.087686E-03 -8.786969E-05 -2.385619E-04 -8.786969E-05 +1.229709E-05 
 +1.397015E-04 +4.172911E-06 -2.060739E-04 +4.172911E-06 +5.015236E-03 -6.163551E-05 -2.060739E-04 -6.163551E-05 -8.314453E-06 
 +1.964400E-04 +1.202824E-05 -1.975497E-04 +1.202824E-05 +4.944760E-03 -4.994234E-05 -1.975497E-04 -4.994234E-05 -9.951916E-05 
 +2.152986E-04 +3.559042E-05 -1.675319E-04 +3.559042E-05 +4.909723E-03 -1.437211E-05 -1.675319E-04 -1.437211E-05 -1.207521E-04 
 +2.005562E-04 +4.890539E-05 -1.701441E-04 +4.890539E-05 +4.930315E-03 +2.833765E-05 -1.701441E-04 +2.833765E-05 -1.442562E-04 
 +1.772894E-04 +6.938850E-05 -2.137336E-04 +6.938850E-05 +4.964224E-03 +5.082018E-05 -2.137336E-04 +5.082018E-05 -1.611647E-04 
 +1.009218E-04 +4.713103E-05 -2.316747E-04 +4.713103E-05 +5.054410E-03 +1.016062E-04 -2.316747E-04 +1.016062E-04 -1.609112E-04 
 +7.887162E-05 +2.207910E-05 -1.853104E-04 +2.207910E-05 +5.090938E-03 +2.014598E-04 -1.853104E-04 +2.014598E-04 -7.476372E-05 
 +2.422676E-04 +1.087184E-04 -1.884752E-05 +1.087184E-04 +4.921636E-03 +2.531541E-04 -1.884752E-05 +2.531541E-04 +6.048546E-05 
 +2.780935E-04 +6.383906E-05 -4.940390E-05 +6.383906E-05 +4.911109E-03 +1.855667E-04 -4.940390E-05 +1.855667E-04 +7.312084E-05 
 +1.087063E-04 -2.457365E-05 -2.121880E-04 -2.457365E-05 +5.077042E-03 +8.458725E-07 -2.121880E-04 +8.458725E-07 +1.148275E-04 
 -3.584096E-04 -1.142468E-05 +2.485726E-04 -1.142468E-05 +5.110754E-03 +2.692742E-05 +2.485726E-04 +2.692742E-05 +2.058276E-04 
 -3.395149E-04 -4.714519E-05 +9.499569E-05 -4.714519E-05 +5.095174E-03 +5.168587E-05 +9.499569E-05 +5.168587E-05 +2.256651E-04 
 -3.207352E-04 -3.797463E-05 +4.830755E-05 -3.797463E-05 +5.065412E-03 +5.117789E-05 +4.830755E-05 +5.117789E-05 +2.262273E-04 
 -3.032589E-04 -1.761140E-05 +7.684118E-05 -1.761140E-05 +5.073485E-03 +1.076205E-04 +7.684118E-05 +1.076205E-04 +1.499029E-04 
 -1.365860E-04 -2.200409E-05 +1.312103E-04 -2.200409E-05 +5.094068E-03 +1.578315E-04 +1.312103E-04 +1.578315E-04 +1.263623E-05 
 -1.429395E-04 -4.828248E-05 -2.698380E-05 -4.828248E-05 +5.068378E-03 +1.168000E-04 -2.698380E-05 +1.168000E-04 +5.307951E-05 
 -1.372673E-06 -3.265246E-05 +2.014388E-04 -3.265246E-05 +5.078021E-03 -2.563755E-05 +2.014388E-04 -2.563755E-05 +6.860663E-05 
 +7.509656E-05 -5.135842E-06 +1.845926E-04 -5.135842E-06 +5.123102E-03 -1.329339E-04 +1.845926E-04 -1.329339E-04 -2.400820E-05 
 +6.755890E-05 +3.712121E-05 +2.008067E-04 +3.712121E-05 +5.143464E-03 -1.659046E-04 +2.008067E-04 -1.659046E-04 -6.770492E-05 
 +1.089331E-05 +4.481601E-05 +2.840356E-04 +4.481601E-05 +5.178378E-03 -2.236718E-04 +2.840356E-04 -2.236718E-04 -1.835239E-04 
 +2.792684E-05 +1.648747E-05 +1.875035E-04 +1.648747E-05 +5.163508E-03 -1.762139E-04 +1.875035E-04 -1.762139E-04 -4.396148E-05 
 +1.850959E-04 +6.088547E-05 -2.124329E-04 +6.088547E-05 +5.033428E-03 -1.245961E-04 -2.124329E-04 -1.245961E-04 +1.622744E-05 
 +2.480256E-04 +1.008895E-04 -1.018182E-04 +1.008895E-04 +4.933705E-03 -1.430252E-04 -1.018182E-04 -1.430252E-04 -9.711450E-05 
 +2.126933E-04 +1.020568E-04 +2.566526E-05 +1.020568E-04 +4.917036E-03 -7.006095E-05 +2.566526E-05 -7.006095E-05 -9.385279E-05 
 +2.308713E-04 +8.051591E-05 -2.049885E-06 +8.051591E-05 +4.889795E-03 +3.864235E-05 -2.049885E-06 +3.864235E-05 -7.213829E-05 
 +1.593897E-04 +2.634832E-05 -4.284852E-05 +2.634832E-05 +4.886736E-03 +1.071393E-04 -4.284852E-05 +1.071393E-04 -8.020345E-06 
 +9.427847E-05 +1.450635E-05 -8.384386E-05 +1.450635E-05 +4.907539E-03 +1.579513E-04 -8.384386E-05 +1.579513E-04 +4.791994E-05 
 +1.431910E-04 -4.211966E-06 -6.547095E-05 -4.211966E-06 +4.959060E-03 +2.160001E-04 -6.547095E-05 +2.160001E-04 +4.029957E-05 
 +1.230350E-04 +2.026180E-05 -7.857421E-05 +2.026180E-05 +5.014409E-03 +1.703290E-04 -7.857421E-05 +1.703290E-04 +4.893553E-05 
 +5.573863E-06 +5.159905E-05 -1.220301E-05 +5.159905E-05 +5.036998E-03 +1.421460E-04 -1.220301E-05 +1.421460E-04 +1.052723E-04 
 +1.930156E-05 -3.936957E-06 -1.972280E-04 -3.936957E-06 +5.077279E-03 +9.188714E-05 -1.972280E-04 +9.188714E-05 +1.521657E-04 
 -3.356345E-04 +2.819498E-05 +3.066483E-04 +2.819498E-05 +5.120714E-03 +1.550505E-04 +3.066483E-04 +1.550505E-04 +2.528453E-04 
 -3.516002E-04 -3.351568E-06 +1.079885E-04 -3.351568E-06 +5.105307E-03 +6.415801E-05 +1.079885E-04 +6.415801E-05 +2.736813E-04 
 -3.240007E-04 +6.220005E-06 +9.950107E-05 +6.220005E-06 +5.072770E-03 +2.975709E-07 +9.950107E-05 +2.975709E-07 +2.124331E-04 
 -3.080280E-04 -1.751028E-05 +1.274224E-04 -1.751028E-05 +5.092438E-03 +4.729512E-05 +1.274224E-04 +4.729512E-05 +1.847914E-04 
 -2.481231E-04 -1.390851E-05 +1.326793E-04 -1.390851E-05 +5.131221E-03 +1.159461E-04 +1.326793E-04 +1.159461E-04 +7.141937E-05 
 -2.592667E-04 +9.154555E-07 +1.673057E-05 +9.154555E-07 +5.142799E-03 +1.419000E-04 +1.673057E-05 +1.419000E-04 +8.662535E-05 
 -1.385345E-04 +4.006692E-05 +1.615070E-04 +4.006692E-05 +5.107517E-03 +8.320053E-06 +1.615070E-04 +8.320053E-06 +8.671661E-05 
 +1.790845E-04 +4.134570E-05 +2.591934E-04 +4.134570E-05 +5.074876E-03 -1.902153E-04 +2.591934E-04 -1.902153E-04 -3.807765E-05 
 +2.028125E-04 +8.884090E-05 +2.080117E-04 +8.884090E-05 +5.078205E-03 -2.992867E-04 +2.080117E-04 -2.992867E-04 -6.232545E-05 
 +1.641942E-04 +1.298632E-04 +2.609915E-04 +1.298632E-04 +5.107970E-03 -2.687701E-04 +2.609915E-04 -2.687701E-04 -1.443105E-04 
 +1.936987E-04 +1.186884E-04 +2.135540E-04 +1.186884E-04 +5.081647E-03 -2.257565E-04 +2.135540E-04 -2.257565E-04 -4.697131E-05 
 +2.146173E-04 +1.579099E-04 -1.068373E-04 +1.579099E-04 +4.984268E-03 -1.929177E-04 -1.068373E-04 -1.929177E-04 -3.201275E-05 
 +2.388655E-04 +2.106325E-04 +1.705638E-05 +2.106325E-04 +4.929716E-03 -1.019741E-04 +1.705638E-05 -1.019741E-04 -1.263869E-04 
 +1.699119E-04 +1.483470E-04 +3.030440E-04 +1.483470E-04 +4.894345E-03 -3.318719E-05 +3.030440E-04 -3.318719E-05 -4.890471E-05 
 +2.098625E-04 +1.107989E-04 +2.578414E-04 +1.107989E-04 +4.864204E-03 +5.183106E-05 +2.578414E-04 +5.183106E-05 +2.838981E-05 
 +1.004442E-04 +9.673525E-05 +1.011312E-04 +9.673525E-05 +4.888890E-03 +1.382961E-04 +1.011312E-04 +1.382961E-04 -4.597214E-06 
 +4.177685E-05 +9.202622E-05 -1.315629E-04 +9.202622E-05 +4.920454E-03 +1.520431E-04 -1.315629E-04 +1.520431E-04 -2.437802E-05 
 +6.625134E-05 +5.183023E-05 -1.663604E-04 +5.183023E-05 +4.958102E-03 +1.357170E-04 -1.663604E-04 +1.357170E-04 +6.401457E-06 
 +1.617134E-04 -1.352400E-05 -2.586148E-04 -1.352400E-05 +5.011594E-03 +1.347244E-04 -2.586148E-04 +1.347244E-04 +1.507090E-05 
 -6.684310E-05 +2.761441E-05 +2.457892E-05 +2.761441E-05 +5.043352E-03 +1.000181E-04 +2.457892E-05 +1.000181E-04 +2.537259E-05 
 +8.893492E-05 +2.985623E-05 -2.482494E-04 +2.985623E-05 +5.076531E-03 +1.261196E-04 -2.482494E-04 +1.261196E-04 +7.221332E-05 
 -1.757340E-04 +6.155079E-05 +2.551409E-04 +6.155079E-05 +5.026312E-03 +1.551101E-04 +2.551409E-04 +1.551101E-04 +3.479366E-04 
 -3.443823E-04 +3.372003E-05 +1.462640E-04 +3.372003E-05 +5.086122E-03 +3.889363E-05 +1.462640E-04 +3.889363E-05 +3.077643E-04 
 -4.106637E-04 +4.437246E-05 +2.041863E-04 +4.437246E-05 +5.120622E-03 +2.806337E-05 +2.041863E-04 +2.806337E-05 +2.256155E-04 
 -3.437043E-04 +4.009867E-05 +1.379160E-04 +4.009867E-05 +5.144929E-03 +4.664631E-05 +1.379160E-04 +4.664631E-05 +1.428916E-04 
 -2.772568E-04 +5.684087E-05 +1.294131E-04 +5.684087E-05 +5.174341E-03 +3.184106E-05 +1.294131E-04 +3.184106E-05 +3.167379E-05 
 -2.744994E-04 +6.225573E-05 +5.686877E-06 +6.225573E-05 +5.175127E-03 -3.742359E-06 +5.686877E-06 -3.742359E-06 +4.156999E-05 
 -1.859484E-04 +1.603176E-04 +4.382142E-05 +1.603176E-04 +5.088182E-03 -1.467953E-04 +4.382142E-05 -1.467953E-04 +7.656699E-05 
 +1.580064E-04 +1.841541E-04 +1.848055E-04 +1.841541E-04 +4.962392E-03 -3.588879E-04 +1.848055E-04 -3.588879E-04 +5.769528E-05 
 +2.248183E-04 +1.327931E-04 +1.757535E-04 +1.327931E-04 +4.868361E-03 -4.578576E-04 +1.757535E-04 -4.578576E-04 +5.556768E-05 
 +3.003738E-04 +7.664659E-05 +1.700264E-04 +7.664659E-05 +4.760636E-03 -4.196894E-04 +1.700264E-04 -4.196894E-04 +3.996055E-05 
 +4.268864E-04 +2.219782E-05 +5.429700E-05 +2.219782E-05 +4.715106E-03 -3.328796E-04 +5.429700E-05 -3.328796E-04 +8.723367E-05 
 +2.471247E-04 +1.103185E-04 +1.391898E-04 +1.103185E-04 +4.841366E-03 -1.963097E-04 +1.391898E-04 -1.963097E-04 +3.655628E-05 
 +1.827262E-04 +1.698077E-04 +2.093565E-04 +1.698077E-04 +4.951546E-03 -9.329325E-05 +2.093565E-04 -9.329325E-05 -5.266162E-05 
 +1.104413E-04 +1.064454E-04 +3.880265E-04 +1.064454E-04 +4.957959E-03 -5.155020E-05 +3.880265E-04 -5.155020E-05 -4.334169E-05 
 +1.198580E-04 +6.956546E-05 +3.424125E-04 +6.956546E-05 +4.954207E-03 -1.179149E-05 +3.424125E-04 -1.179149E-05 -7.568500E-05 
 +8.155236E-05 +4.438594E-05 +2.934506E-04 +4.438594E-05 +4.958578E-03 +4.181514E-05 +2.934506E-04 +4.181514E-05 -8.102189E-05 
 -1.635984E-05 +3.458254E-05 -2.154693E-05 +3.458254E-05 +4.981881E-03 +1.260757E-04 -2.154693E-05 +1.260757E-04 -1.014544E-04 
 -5.874252E-05 +3.101333E-05 -1.626049E-04 +3.101333E-05 +5.015938E-03 +1.287599E-04 -1.626049E-04 +1.287599E-04 -1.961789E-05 
 +5.150492E-05 -7.751315E-05 -2.123327E-04 -7.751315E-05 +5.029389E-03 +1.348438E-04 -2.123327E-04 +1.348438E-04 +2.771212E-05 
 +3.543080E-05 -6.647101E-05 -7.579373E-05 -6.647101E-05 +4.983647E-03 +1.148808E-04 -7.579373E-05 +1.148808E-04 +7.136086E-06 
 +1.486561E-04 +1.867022E-05 -1.767983E-04 +1.867022E-05 +4.967553E-03 +1.437479E-04 -1.767983E-04 +1.437479E-04 +1.716706E-04 
 -1.899469E-05 +3.183596E-05 +1.007648E-04 +3.183596E-05 +4.930813E-03 -2.016698E-05 +1.007648E-04 -2.016698E-05 +2.865902E-04 
 -3.086864E-04 -2.027292E-05 +1.279932E-04 -2.027292E-05 +5.058101E-03 -3.482386E-05 +1.279932E-04 -3.482386E-05 +3.048979E-04 
 -4.269697E-04 +8.847677E-06 +1.764282E-04 +8.847677E-06 +5.127025E-03 -2.229883E-05 +1.764282E-04 -2.229883E-05 +2.215018E-04 
 -3.780306E-04 +5.605517E-05 +8.037886E-05 +5.605517E-05 +5.174589E-03 -5.633512E-05 +8.037886E-05 -5.633512E-05 +5.186499E-05 
 -2.781652E-04 +6.009379E-05 +6.415101E-05 +6.009379E-05 +5.234312E-03 -1.144545E-04 +6.415101E-05 -1.144545E-04 -3.650470E-06 
 -1.587161E-04 +7.229590E-05 -2.402641E-05 +7.229590E-05 +5.185318E-03 -1.239806E-04 -2.402641E-05 -1.239806E-04 -6.420341E-05 
 -9.994192E-05 +1.970824E-04 -1.399375E-04 +1.970824E-04 +5.100960E-03 -1.901805E-04 -1.399375E-04 -1.901805E-04 -9.817795E-05 
 +2.570199E-05 +2.194523E-04 +7.390154E-05 +2.194523E-04 +5.018411E-03 -3.528886E-04 +7.390154E-05 -3.528886E-04 +8.009367E-05 
 +1.460233E-04 +1.788680E-04 +1.214731E-04 +1.788680E-04 +4.892216E-03 -3.514101E-04 +1.214731E-04 -3.514101E-04 +1.508946E-04 
 +2.930870E-04 +9.559390E-05 +4.439889E-05 +9.559390E-05 +4.798537E-03 -2.789741E-04 +4.439889E-05 -2.789741E-04 +1.151842E-04 
 +4.429886E-04 -2.800071E-05 +1.769300E-05 -2.800071E-05 +4.768015E-03 -2.511427E-04 +1.769300E-05 -2.511427E-04 +1.162841E-04 
 +1.961068E-04 -2.535927E-05 +3.144431E-04 -2.535927E-05 +4.828045E-03 -1.682002E-04 +3.144431E-04 -1.682002E-04 +1.477804E-05 
 +2.303061E-04 -4.309651E-05 +2.292587E-04 -4.309651E-05 +4.943696E-03 -1.101009E-04 +2.292587E-04 -1.101009E-04 -4.193608E-05 
 +1.599039E-04 -3.625644E-05 +2.863315E-04 -3.625644E-05 +5.012250E-03 -1.254858E-04 +2.863315E-04 -1.254858E-04 -5.493340E-05 
 +2.121519E-05 -1.905401E-05 +2.991394E-04 -1.905401E-05 +5.030708E-03 -8.064677E-05 +2.991394E-04 -8.064677E-05 -1.581673E-04 
 -6.600546E-06 -4.218730E-05 +3.457931E-04 -4.218730E-05 +5.046946E-03 -3.547525E-05 +3.457931E-04 -3.547525E-05 -1.068424E-04 
 -3.237723E-05 -8.169485E-05 +2.255893E-04 -8.169485E-05 +5.035701E-03 +3.319452E-05 +2.255893E-04 +3.319452E-05 -1.302608E-04 
 -3.283455E-05 -7.508183E-06 -1.608201E-04 -7.508183E-06 +4.990180E-03 +7.284510E-05 -1.608201E-04 +7.284510E-05 -7.859303E-05 
 -8.104028E-06 +4.109789E-07 -9.350064E-05 +4.109789E-07 +4.950793E-03 +4.856409E-05 -9.350064E-05 +4.856409E-05 +4.006510E-05 
 +9.081990E-05 +1.719001E-06 -7.511729E-05 +1.719001E-06 +4.913161E-03 +4.868560E-05 -7.511729E-05 +4.868560E-05 +8.162775E-05 
 +1.433227E-04 +2.360326E-05 -9.865743E-05 +2.360326E-05 +4.882689E-03 +3.505625E-05 -9.865743E-05 +3.505625E-05 +2.116512E-04 
 -2.401933E-05 -1.434128E-05 -3.129044E-05 -1.434128E-05 +4.945459E-03 -1.547312E-04 -3.129044E-05 -1.547312E-04 +1.984281E-04 
 -2.440521E-04 -8.986810E-05 +1.238973E-06 -8.986810E-05 +4.985784E-03 -2.039999E-04 +1.238973E-06 -2.039999E-04 +2.706505E-04 
 -3.780556E-04 -9.607892E-05 -4.496339E-05 -9.607892E-05 +5.077854E-03 -2.116913E-04 -4.496339E-05 -2.116913E-04 +1.767672E-04 
 -4.022651E-04 -4.772680E-05 +4.869638E-05 -4.772680E-05 +5.125019E-03 -1.688869E-04 +4.869638E-05 -1.688869E-04 +6.845334E-05 
 -1.934783E-04 -6.271828E-05 +1.120539E-04 -6.271828E-05 +5.013669E-03 -1.494152E-06 +1.120539E-04 -1.494152E-06 +5.653255E-05 
 -5.807617E-06 -2.484709E-05 +5.205363E-05 -2.484709E-05 +4.931542E-03 +7.461798E-05 +5.205363E-05 +7.461798E-05 -6.858443E-05 
 -2.350286E-06 +1.287298E-04 -2.347729E-04 +1.287298E-04 +5.012431E-03 -6.723818E-05 -2.347729E-04 -6.723818E-05 -1.832972E-04 
 -2.989473E-06 +1.345103E-04 +6.262735E-05 +1.345103E-04 +5.039510E-03 -2.386725E-04 +6.262735E-05 -2.386725E-04 +6.612350E-05 
 +8.147282E-05 +1.253807E-04 +1.073245E-04 +1.253807E-04 +4.937428E-03 -2.789211E-04 +1.073245E-04 -2.789211E-04 +2.099191E-04 
 +2.243195E-04 +9.971849E-05 +2.631023E-05 +9.971849E-05 +4.858916E-03 -2.602476E-04 +2.631023E-05 -2.602476E-04 +1.020296E-04 
 +2.758090E-04 +3.208484E-05 +4.361055E-05 +3.208484E-05 +4.918542E-03 -2.467936E-04 +4.361055E-05 -2.467936E-04 +3.477623E-05 
 -3.067173E-06 +2.912576E-05 +3.327230E-04 +2.912576E-05 +4.992864E-03 -1.708536E-04 +3.327230E-04 -1.708536E-04 -1.007672E-04 
 +2.476191E-04 -7.213364E-05 +1.406781E-04 -7.213364E-05 +4.978214E-03 -3.963088E-05 +1.406781E-04 -3.963088E-05 -1.198145E-04 
 +3.791415E-04 -8.140055E-05 +6.084950E-05 -8.140055E-05 +4.987087E-03 -7.112440E-05 +6.084950E-05 -7.112440E-05 -1.172606E-04 
 -3.865978E-05 -2.013528E-05 +3.116584E-04 -2.013528E-05 +5.062676E-03 -1.011322E-04 +3.116584E-04 -1.011322E-04 -1.439378E-04 
 -8.848015E-05 -3.759942E-05 +2.766883E-04 -3.759942E-05 +5.092652E-03 -4.049174E-05 +2.766883E-04 -4.049174E-05 -4.422361E-05 
 -1.534831E-05 -7.842732E-05 +2.964070E-04 -7.842732E-05 +5.027615E-03 -4.572543E-05 +2.964070E-04 -4.572543E-05 -9.558850E-05 
 +7.161598E-05 -8.847629E-06 -1.903838E-04 -8.847629E-06 +4.953683E-03 -3.456333E-05 -1.903838E-04 -3.456333E-05 -1.037904E-04 
 +3.614327E-05 -2.102101E-05 -8.203535E-05 -2.102101E-05 +4.933081E-03 -2.447605E-05 -8.203535E-05 -2.447605E-05 +9.277991E-06 
 +4.389200E-05 -2.061053E-05 -5.649976E-05 -2.061053E-05 +4.955584E-03 -4.490893E-05 -5.649976E-05 -4.490893E-05 +5.755307E-05 
 +3.859555E-05 -1.349531E-05 -8.143157E-05 -1.349531E-05 +4.956905E-03 -7.656764E-05 -8.143157E-05 -7.656764E-05 +9.694974E-05 
 -9.952126E-05 -3.171836E-05 -1.128245E-04 -3.171836E-05 +4.939329E-03 -1.986658E-04 -1.128245E-04 -1.986658E-04 +1.877973E-04 
 -2.142907E-04 -5.954016E-05 -8.310079E-05 -5.954016E-05 +4.934007E-03 -2.798236E-04 -8.310079E-05 -2.798236E-04 +2.913246E-04 
 -4.721478E-04 -1.509061E-04 -1.045783E-04 -1.509061E-04 +4.974412E-03 -2.274186E-04 -1.045783E-04 -2.274186E-04 +2.085315E-04 
 -2.406951E-04 -1.516500E-04 +1.765987E-04 -1.516500E-04 +4.924153E-03 -1.964836E-05 +1.765987E-04 -1.964836E-05 +8.734256E-05 
 -9.392210E-05 -1.217278E-04 +2.413710E-04 -1.217278E-04 +4.891098E-03 +1.541291E-04 +2.413710E-04 +1.541291E-04 +4.858152E-05 
 +7.488847E-05 -4.117975E-05 +1.067775E-04 -4.117975E-05 +4.953427E-03 +1.043955E-04 +1.067775E-04 +1.043955E-04 -7.047638E-05 
 +9.156814E-05 +6.080176E-05 -2.155376E-04 +6.080176E-05 +4.949387E-03 -1.246400E-06 -2.155376E-04 -1.246400E-06 -1.368398E-04 
 +9.045477E-05 +4.843418E-05 -6.175750E-05 +4.843418E-05 +4.893393E-03 -1.477931E-04 -6.175750E-05 -1.477931E-04 +5.923849E-05 
 +9.696671E-05 +7.312427E-05 +1.385378E-04 +7.312427E-05 +4.879832E-03 -2.712785E-04 +1.385378E-04 -2.712785E-04 +1.465513E-04 
 +1.272399E-04 +1.079676E-04 +8.091051E-05 +1.079676E-04 +4.899607E-03 -2.583938E-04 +8.091051E-05 -2.583938E-04 +4.646714E-05 
 +1.435022E-04 +9.689029E-05 +3.048673E-05 +9.689029E-05 +4.982935E-03 -2.235683E-04 +3.048673E-05 -2.235683E-04 -1.799441E-05 
 -4.810527E-05 +1.410293E-04 +3.016441E-04 +1.410293E-04 +5.058773E-03 -1.548007E-04 +3.016441E-04 -1.548007E-04 -9.701293E-05 
 +1.197069E-04 +6.849979E-05 +1.910804E-04 +6.849979E-05 +5.032490E-03 -6.568799E-05 +1.910804E-04 -6.568799E-05 -6.305034E-05 
 +3.935500E-04 -3.972835E-05 -2.329890E-05 -3.972835E-05 +5.007641E-03 +1.119453E-05 -2.329890E-05 +1.119453E-05 -1.240327E-04 
 -8.624267E-06 -7.302388E-05 +2.788951E-04 -7.302388E-05 +5.033261E-03 -1.877711E-05 +2.788951E-04 -1.877711E-05 -1.135654E-04 
 -6.618577E-05 -7.933873E-05 +2.231876E-04 -7.933873E-05 +5.005810E-03 -9.844700E-05 +2.231876E-04 -9.844700E-05 +6.617396E-05 
 -5.096174E-06 -1.070374E-04 +2.480187E-04 -1.070374E-04 +4.961670E-03 -1.123561E-04 +2.480187E-04 -1.123561E-04 -1.079665E-05 
 +9.591676E-05 -5.267868E-05 -2.061327E-04 -5.267868E-05 +4.943158E-03 -8.611983E-05 -2.061327E-04 -8.611983E-05 -8.206407E-05 
 +5.205104E-05 -6.253754E-05 -1.259681E-04 -6.253754E-05 +4.932160E-03 -6.213856E-05 -1.259681E-04 -6.213856E-05 +7.481010E-07 
 +1.212340E-05 -4.640886E-05 -1.096093E-04 -4.640886E-05 +4.948981E-03 -7.085412E-05 -1.096093E-04 -7.085412E-05 +4.208275E-05 
 -4.933109E-05 -4.282739E-05 -1.050299E-04 -4.282739E-05 +4.975279E-03 -1.138459E-04 -1.050299E-04 -1.138459E-04 +8.867863E-05 
 -1.683953E-04 +1.039452E-05 -1.630300E-04 +1.039452E-05 +4.939786E-03 -1.482848E-04 -1.630300E-04 -1.482848E-04 +1.909947E-04 
 -3.003529E-04 +1.053915E-05 -1.116362E-04 +1.053915E-05 +4.942392E-03 -2.423603E-04 -1.116362E-04 -2.423603E-04 +3.172067E-04 
 -5.792523E-04 -8.772494E-05 -3.390754E-05 -8.772494E-05 +5.006935E-03 -2.159303E-04 -3.390754E-05 -2.159303E-04 +2.442463E-04 
 -1.264833E-04 -1.541359E-04 +2.312683E-04 -1.541359E-04 +5.073149E-03 -9.832301E-05 +2.312683E-04 -9.832301E-05 +3.585305E-05 
 +4.666168E-05 -1.421493E-04 +2.373324E-04 -1.421493E-04 +5.154558E-03 -8.530890E-05 +2.373324E-04 -8.530890E-05 -1.167346E-04 
 +1.315821E-04 -5.584486E-05 +1.079037E-04 -5.584486E-05 +5.156112E-03 -1.008311E-04 +1.079037E-04 -1.008311E-04 -2.351761E-04 
 +1.580405E-04 -2.207543E-06 -6.390057E-05 -2.207543E-06 +5.058834E-03 -4.437278E-05 -6.390057E-05 -4.437278E-05 -2.051609E-04 
 +2.177324E-04 +9.183446E-06 -1.334431E-04 +9.183446E-06 +4.975682E-03 -3.219510E-05 -1.334431E-04 -3.219510E-05 -1.301617E-05 
 +9.676682E-05 +5.390014E-06 +1.713883E-04 +5.390014E-06 +4.934232E-03 -1.483079E-04 +1.713883E-04 -1.483079E-04 +9.385405E-05 
 +8.264184E-05 +7.703590E-05 +1.663643E-04 +7.703590E-05 +4.952902E-03 -1.987528E-04 +1.663643E-04 -1.987528E-04 +5.450835E-05 
 +9.578378E-05 +1.589015E-04 +2.307323E-06 +1.589015E-04 +5.026100E-03 -1.496633E-04 +2.307323E-06 -1.496633E-04 -5.680053E-06 
 -1.736311E-05 +1.390096E-04 +2.512089E-04 +1.390096E-04 +5.067283E-03 -9.359017E-05 +2.512089E-04 -9.359017E-05 -7.318074E-05 
 +6.053663E-05 +3.318393E-05 +2.054528E-04 +3.318393E-05 +5.053749E-03 -5.525081E-05 +2.054528E-04 -5.525081E-05 -3.234763E-05 
 +1.343243E-04 +5.827204E-06 +7.893115E-05 +5.827204E-06 +5.028916E-03 +1.178090E-05 +7.893115E-05 +1.178090E-05 -1.966911E-05 
 +5.856059E-05 -5.726726E-05 +1.640194E-04 -5.726726E-05 +4.992986E-03 -5.741815E-06 +1.640194E-04 -5.741815E-06 +1.468381E-05 
 -2.194705E-05 -1.125380E-04 +1.498039E-04 -1.125380E-04 +4.961879E-03 -1.238143E-04 +1.498039E-04 -1.238143E-04 +1.303908E-04 
 -1.796381E-05 -1.483441E-04 +2.291936E-04 -1.483441E-04 +4.935690E-03 -1.250257E-04 +2.291936E-04 -1.250257E-04 +7.592460E-05 
 +1.176355E-04 -6.415032E-05 -2.303241E-04 -6.415032E-05 +4.933338E-03 -7.046399E-05 -2.303241E-04 -7.046399E-05 -3.103520E-05 
 +7.388092E-05 -5.962949E-05 -1.411316E-04 -5.962949E-05 +4.947677E-03 -4.535472E-05 -1.411316E-04 -4.535472E-05 -9.884078E-06 
 +9.088717E-06 -1.051913E-05 -1.416658E-04 -1.051913E-05 +4.956044E-03 -4.878160E-05 -1.416658E-04 -4.878160E-05 +4.911854E-05 
 -5.142026E-05 +2.328785E-05 -1.371707E-04 +2.328785E-05 +4.968163E-03 -9.059247E-05 -1.371707E-04 -9.059247E-05 +1.116211E-04 
 -3.070628E-04 +1.713828E-05 -1.521654E-04 +1.713828E-05 +5.066237E-03 -3.872390E-05 -1.521654E-04 -3.872390E-05 +1.622371E-04 
 -4.446145E-04 +5.562310E-07 -1.591196E-04 +5.562310E-07 +5.076077E-03 -8.373817E-05 -1.591196E-04 -8.373817E-05 +2.387860E-04 
 -5.099188E-04 -5.444039E-05 -7.028483E-05 -5.444039E-05 +5.021231E-03 -1.246276E-04 -7.028483E-05 -1.246276E-04 +2.079627E-04 
 -2.636997E-04 -8.682919E-05 +7.156582E-05 -8.682919E-05 +5.019881E-03 -1.346271E-04 +7.156582E-05 -1.346271E-04 +1.009410E-04 
 +2.641085E-04 -1.059964E-04 +1.352414E-04 -1.059964E-04 +5.058990E-03 -1.689712E-04 +1.352414E-04 -1.689712E-04 -1.264973E-04 
 +2.102658E-04 -5.530978E-05 +5.827590E-05 -5.530978E-05 +5.080188E-03 -1.758005E-04 +5.827590E-05 -1.758005E-04 -2.967950E-04 
 +1.753647E-04 -4.144877E-05 +1.924317E-05 -4.144877E-05 +5.057756E-03 -1.664801E-04 +1.924317E-05 -1.664801E-04 -2.272041E-04 
 +2.528010E-04 -8.201519E-05 +2.465807E-05 -8.201519E-05 +4.994935E-03 -6.278188E-05 +2.465807E-05 -6.278188E-05 -9.760447E-05 
 +5.540510E-05 -8.807517E-05 +1.657924E-04 -8.807517E-05 +4.963047E-03 -1.026731E-05 +1.657924E-04 -1.026731E-05 +6.678196E-05 
 +3.204155E-05 -1.950758E-05 +1.997799E-04 -1.950758E-05 +4.964011E-03 -9.328937E-05 +1.997799E-04 -9.328937E-05 +9.519265E-05 
 +1.192966E-04 +4.538094E-05 +2.068737E-06 +4.538094E-05 +4.993695E-03 -6.098097E-05 +2.068737E-06 -6.098097E-05 +5.994856E-05 
 +6.044609E-05 +9.076337E-05 +1.200528E-04 +9.076337E-05 +5.065805E-03 -1.590239E-05 +1.200528E-04 -1.590239E-05 -2.541962E-05 
 +5.064579E-05 -2.041992E-05 +1.817367E-04 -2.041992E-05 +5.059958E-03 -2.455315E-05 +1.817367E-04 -2.455315E-05 -4.727673E-05 
 +3.791398E-05 +2.118196E-05 +1.201817E-04 +2.118196E-05 +4.989219E-03 -2.558517E-05 +1.201817E-04 -2.558517E-05 +7.898973E-05 
 +4.016360E-05 +1.647631E-05 +1.085555E-04 +1.647631E-05 +4.957763E-03 -5.258953E-05 +1.085555E-04 -5.258953E-05 +1.498771E-04 
 -2.517954E-05 -5.197662E-05 +8.864091E-05 -5.197662E-05 +4.958453E-03 -8.555034E-05 +8.864091E-05 -8.555034E-05 +1.796391E-04 
 -1.430602E-05 -1.065064E-04 +2.122305E-04 -1.065064E-04 +4.952027E-03 -1.071086E-04 +2.122305E-04 -1.071086E-04 +1.101543E-04 
 +1.609169E-04 +7.695586E-06 -2.231012E-04 +7.695586E-06 +4.931153E-03 -6.562723E-05 -2.231012E-04 -6.562723E-05 +2.813049E-06 
 +1.197902E-04 +1.967228E-05 -1.148255E-04 +1.967228E-05 +4.948962E-03 +1.629185E-06 -1.148255E-04 +1.629185E-06 -4.747831E-05 
 +2.890651E-05 +6.726431E-05 -1.778805E-04 +6.726431E-05 +4.964848E-03 -3.164820E-06 -1.778805E-04 -3.164820E-06 -2.078556E-05 
 -4.330656E-05 +9.524211E-05 -1.269860E-04 +9.524211E-05 +4.995469E-03 -4.128393E-05 -1.269860E-04 -4.128393E-05 +6.426223E-05 
 -4.774278E-04 +2.215623E-05 -1.216126E-04 +2.215623E-05 +5.179087E-03 +1.488981E-05 -1.216126E-04 +1.488981E-05 +7.759942E-05 
 -4.896024E-04 -1.280918E-05 -1.831317E-04 -1.280918E-05 +5.156908E-03 +2.504268E-05 -1.831317E-04 +2.504268E-05 +1.476967E-04 
 -4.417592E-04 -5.096124E-05 -1.402653E-04 -5.096124E-05 +5.086494E-03 -5.740507E-05 -1.402653E-04 -5.740507E-05 +1.166803E-04 
 -3.537636E-04 -3.949168E-05 -3.603697E-05 -3.949168E-05 +5.039295E-03 -1.316893E-04 -3.603697E-05 -1.316893E-04 +5.574262E-05 
 +3.233657E-04 -9.323751E-05 +7.263176E-05 -9.323751E-05 +4.985247E-03 -1.418169E-04 +7.263176E-05 -1.418169E-04 -1.327240E-04 
 +3.165217E-04 -1.033968E-04 +5.344588E-06 -1.033968E-04 +4.964112E-03 -1.681032E-04 +5.344588E-06 -1.681032E-04 -2.140369E-04 
 +1.990039E-04 -7.840529E-05 +1.854484E-06 -7.840529E-05 +4.975539E-03 -1.373473E-04 +1.854484E-06 -1.373473E-04 -1.059803E-04 
 +1.563696E-04 -1.114374E-04 +1.255459E-04 -1.114374E-04 +4.998765E-03 +1.849145E-05 +1.255459E-04 +1.849145E-05 -1.128971E-04 
 +8.192240E-05 -9.901166E-05 +8.210834E-05 -9.901166E-05 +5.050752E-03 +1.561576E-04 +8.210834E-05 +1.561576E-04 -8.824973E-06 
 -3.811216E-07 +1.324424E-05 +4.953394E-05 +1.324424E-05 +5.068119E-03 +1.543610E-04 +4.953394E-05 +1.543610E-04 +7.075736E-05 
 +9.902546E-05 +7.998964E-05 -2.933748E-05 +7.998964E-05 +4.964086E-03 +1.079913E-04 -2.933748E-05 +1.079913E-04 +9.402763E-05 
 +1.861794E-04 +1.027219E-04 -3.439378E-05 +1.027219E-04 +4.883727E-03 +9.068153E-05 -3.439378E-05 +9.068153E-05 +5.052397E-05 
 +8.659445E-05 -1.727625E-05 +1.279320E-04 -1.727625E-05 +4.972970E-03 +9.117991E-06 +1.279320E-04 +9.117991E-06 -2.119271E-05 
 +3.770082E-05 -2.275616E-05 +1.614886E-04 -2.275616E-05 +4.982923E-03 -4.897944E-05 +1.614886E-04 -4.897944E-05 +9.619893E-05 
 +2.228182E-05 +2.601623E-06 +1.242699E-04 +2.601623E-06 +4.907323E-03 -5.020032E-05 +1.242699E-04 -5.020032E-05 +2.162395E-04 
 +1.344538E-05 +2.068513E-07 +1.279669E-04 +2.068513E-07 +4.906240E-03 -4.662326E-05 +1.279669E-04 -4.662326E-05 +2.829531E-04 
 +6.718918E-05 -1.000871E-06 +1.958937E-04 -1.000871E-06 +4.927405E-03 -4.048375E-05 +1.958937E-04 -4.048375E-05 +1.304258E-04 
 +1.753079E-04 +1.352892E-04 -2.126162E-04 +1.352892E-04 +4.958301E-03 -3.401926E-05 -2.126162E-04 -3.401926E-05 -3.935399E-05 
 +8.937828E-05 +1.305241E-04 -1.363867E-04 +1.305241E-04 +5.036977E-03 +2.881271E-05 -1.363867E-04 +2.881271E-05 -8.291755E-05 
 +3.169628E-06 +6.641972E-05 -2.615607E-04 +6.641972E-05 +5.107486E-03 +8.113520E-05 -2.615607E-04 +8.113520E-05 -7.680989E-05 
 -9.469007E-05 +9.272692E-05 -1.612904E-04 +9.272692E-05 +5.130227E-03 +4.500972E-05 -1.612904E-04 +4.500972E-05 -2.102200E-05 
 -4.643509E-04 -2.860985E-05 -6.104051E-05 -2.860985E-05 +5.224596E-03 +1.199421E-04 -6.104051E-05 +1.199421E-04 +3.406291E-05 
 -4.623958E-04 -3.592618E-05 -1.640680E-04 -3.592618E-05 +5.175665E-03 +1.148095E-04 -1.640680E-04 +1.148095E-04 +9.737275E-05 
 -4.273384E-04 -4.353946E-05 -2.011228E-04 -4.353946E-05 +5.127107E-03 -3.788972E-05 -2.011228E-04 -3.788972E-05 +9.590264E-05 
 -2.808986E-04 -2.709188E-05 -8.365422E-05 -2.709188E-05 +5.043505E-03 -2.055635E-04 -8.365422E-05 -2.055635E-04 +2.079795E-05 
 +2.520442E-04 -1.539335E-05 +6.568682E-05 -1.539335E-05 +4.951094E-03 -2.008154E-04 +6.568682E-05 -2.008154E-04 -1.757035E-04 
 +3.372229E-04 -3.902042E-05 +4.378957E-05 -3.902042E-05 +4.907805E-03 -8.695519E-05 +4.378957E-05 -8.695519E-05 -1.862146E-04 
 +1.934839E-04 -6.858100E-05 +5.654922E-05 -6.858100E-05 +4.938392E-03 +1.080460E-05 +5.654922E-05 +1.080460E-05 -1.027358E-04 
 +1.523071E-04 -1.079117E-04 +1.310877E-04 -1.079117E-04 +4.952825E-03 +6.416561E-05 +1.310877E-04 +6.416561E-05 -8.643777E-05 
 +9.521816E-05 -4.814318E-06 -6.245753E-05 -4.814318E-06 +4.957138E-03 +6.963475E-05 -6.245753E-05 +6.963475E-05 +3.315244E-05 
 +6.021353E-05 +2.654891E-05 -8.757463E-05 +2.654891E-05 +4.982779E-03 +1.261692E-04 -8.757463E-05 +1.261692E-04 +6.922368E-05 
 +6.571803E-05 +6.733133E-05 -4.287990E-05 +6.733133E-05 +4.940148E-03 +1.418185E-04 -4.287990E-05 +1.418185E-04 +5.136114E-05 
 +1.507095E-04 +8.690097E-05 -5.555242E-05 +8.690097E-05 +4.802171E-03 +8.713239E-05 -5.555242E-05 +8.713239E-05 +5.054225E-05 
 +1.861949E-04 +5.907448E-05 -4.445845E-05 +5.907448E-05 +4.789787E-03 +2.090115E-05 -4.445845E-05 +2.090115E-05 -3.083973E-05 
 +8.474939E-06 -4.489435E-05 +1.290731E-04 -4.489435E-05 +4.939384E-03 -5.316921E-05 +1.290731E-04 -5.316921E-05 +3.582161E-06 
 +5.752810E-05 -2.463768E-05 +6.866613E-05 -2.463768E-05 +4.920837E-03 -8.847309E-05 +6.866613E-05 -8.847309E-05 +1.479434E-04 
 +1.492003E-04 +2.367754E-05 +2.341642E-04 +2.367754E-05 +4.830148E-03 -6.077214E-05 +2.341642E-04 -6.077214E-05 +2.366201E-04 
 +1.875747E-04 +1.062494E-04 +1.276858E-04 +1.062494E-04 +4.923662E-03 -6.439621E-05 +1.276858E-04 -6.439621E-05 +8.220500E-05 
 +7.236691E-05 +1.620202E-04 -1.206702E-04 +1.620202E-04 +5.112004E-03 -2.482511E-05 -1.206702E-04 -2.482511E-05 -8.718611E-05 
 -6.799639E-05 +8.358714E-05 -1.176850E-04 +8.358714E-05 +5.191168E-03 +6.634990E-05 -1.176850E-04 +6.634990E-05 -5.986494E-05 
 -1.081533E-04 -4.594056E-05 -2.350500E-04 -4.594056E-05 +5.210366E-03 +7.579992E-05 -2.350500E-04 +7.579992E-05 -6.471770E-05 
 -1.572902E-04 -3.380191E-05 -1.686246E-04 -3.380191E-05 +5.233876E-03 +9.099346E-05 -1.686246E-04 +9.099346E-05 -7.499580E-05 
 -3.044437E-04 -9.140762E-05 +3.908770E-05 -9.140762E-05 +5.089818E-03 +1.515797E-04 +3.908770E-05 +1.515797E-04 +1.036504E-04 
 -3.930600E-04 -9.389150E-05 -1.069587E-04 -9.389150E-05 +5.138467E-03 +1.207062E-04 -1.069587E-04 +1.207062E-04 +6.678998E-05 
 -2.636306E-04 -4.291423E-05 -1.602618E-04 -4.291423E-05 +5.097382E-03 +3.280777E-06 -1.602618E-04 +3.280777E-06 +7.462091E-05 
 -1.302880E-04 +2.830599E-05 -8.499956E-05 +2.830599E-05 +4.982574E-03 -1.489835E-04 -8.499956E-05 -1.489835E-04 +4.275658E-05 
 +1.855876E-04 +9.216700E-05 +3.766182E-05 +9.216700E-05 +4.937329E-03 -2.019505E-04 +3.766182E-05 -2.019505E-04 -1.270844E-04 
 +1.917138E-04 +2.957653E-05 +1.113246E-04 +2.957653E-05 +4.970008E-03 -6.514634E-05 +1.113246E-04 -6.514634E-05 -1.664579E-04 
 +1.575421E-04 +2.271999E-06 +4.848434E-05 +2.271999E-06 +4.970830E-03 +6.179497E-05 +4.848434E-05 +6.179497E-05 -1.564522E-04 
 +2.170721E-04 -7.277658E-05 +6.398300E-05 -7.277658E-05 +4.961798E-03 +3.999408E-05 +6.398300E-05 +3.999408E-05 -1.046118E-04 
 +1.200847E-04 +4.982155E-05 -1.071114E-04 +4.982155E-05 +4.961750E-03 +3.536452E-05 -1.071114E-04 +3.536452E-05 +5.064046E-06 
 +9.480130E-05 +8.865552E-05 -5.960964E-05 +8.865552E-05 +4.961245E-03 +9.817667E-05 -5.960964E-05 +9.817667E-05 -2.742202E-07 
 +6.656927E-05 +9.978824E-05 -2.817630E-05 +9.978824E-05 +4.966968E-03 +1.209227E-04 -2.817630E-05 +1.209227E-04 -3.663767E-05 
 +6.825314E-05 +6.290144E-05 -4.050627E-05 +6.290144E-05 +4.913935E-03 +9.311377E-05 -4.050627E-05 +9.311377E-05 -4.498435E-05 
 +1.830829E-04 +8.324227E-05 -1.603426E-04 +8.324227E-05 +4.764102E-03 +4.980913E-05 -1.603426E-04 +4.980913E-05 -7.975089E-05 
 +9.496245E-05 +2.634936E-05 -8.287328E-05 +2.634936E-05 +4.684156E-03 -8.889766E-06 -8.287328E-05 -8.889766E-06 -5.713735E-05 
 +1.933420E-05 -1.227290E-05 -7.173110E-05 -1.227290E-05 +4.740011E-03 -2.680642E-05 -7.173110E-05 -2.680642E-05 +2.321277E-05 
 +2.195086E-04 -2.189400E-05 +2.317942E-04 -2.189400E-05 +4.819712E-03 -2.273997E-05 +2.317942E-04 -2.273997E-05 -1.346097E-05 
 +2.420611E-04 +8.370503E-05 -6.888788E-05 +8.370503E-05 +4.978186E-03 -7.948247E-05 -6.888788E-05 -7.948247E-05 -1.038990E-04 
 -1.298642E-04 +5.844504E-05 +9.814921E-05 +5.844504E-05 +5.124393E-03 -3.578473E-05 +9.814921E-05 -3.578473E-05 -3.265079E-06 
 -2.084823E-04 -5.943170E-05 +4.794323E-05 -5.943170E-05 +5.139482E-03 +6.162844E-05 +4.794323E-05 +6.162844E-05 +1.416089E-04 
 -2.171126E-04 -1.195010E-04 -5.393178E-05 -1.195010E-04 +5.127759E-03 +6.412699E-05 -5.393178E-05 +6.412699E-05 +6.133409E-05 
 -2.137380E-04 -1.122941E-04 -1.023423E-05 -1.122941E-04 +5.097421E-03 +1.013135E-04 -1.023423E-05 +1.013135E-04 +3.093966E-05 
 -2.613445E-04 -6.061294E-05 +7.160661E-05 -6.061294E-05 +4.997706E-03 +1.085551E-04 +7.160661E-05 +1.085551E-04 +1.929237E-04 
 -2.411008E-04 -8.368835E-05 -2.999163E-05 -8.368835E-05 +5.014390E-03 +1.042909E-04 -2.999163E-05 +1.042909E-04 +1.021012E-04 
 +2.578880E-05 -8.354664E-05 -6.141054E-05 -8.354664E-05 +5.019903E-03 +2.910688E-05 -6.141054E-05 +2.910688E-05 -4.084230E-05 
 +5.010152E-05 +5.148936E-06 +3.272436E-06 +5.148936E-06 +5.004094E-03 -6.268917E-05 +3.272436E-06 -6.268917E-05 -1.450300E-04 
 +9.781940E-05 +9.915815E-05 +5.386933E-05 +9.915815E-05 +5.003063E-03 -6.518814E-05 +5.386933E-05 -6.518814E-05 -1.529924E-04 
 +9.789065E-05 +8.877566E-05 +1.530390E-04 +8.877566E-05 +4.949297E-03 -8.024036E-06 +1.530390E-04 -8.024036E-06 -1.131364E-04 
 +1.717882E-04 +1.099736E-04 +1.696002E-05 +1.099736E-04 +4.881112E-03 +1.044739E-05 +1.696002E-05 +1.044739E-05 -1.269780E-04 
 +1.853017E-04 +8.465299E-05 -8.067220E-06 +8.465299E-05 +4.922956E-03 +7.222905E-06 -8.067220E-06 +7.222905E-06 -1.128394E-04 
 +1.442984E-04 +1.178044E-04 -4.598935E-05 +1.178044E-04 +4.988664E-03 +4.261109E-05 -4.598935E-05 +4.261109E-05 -9.923304E-05 
 +1.259690E-04 +1.503721E-04 -2.325557E-05 +1.503721E-04 +4.997760E-03 +8.628718E-05 -2.325557E-05 +8.628718E-05 -1.161142E-04 
 +9.629311E-05 +1.746962E-04 -5.222491E-05 +1.746962E-04 +5.010760E-03 +7.823946E-05 -5.222491E-05 +7.823946E-05 -1.014183E-04 
 +1.088857E-04 +1.704356E-04 -7.080876E-05 +1.704356E-04 +4.978535E-03 +1.073680E-04 -7.080876E-05 +1.073680E-04 -1.019250E-04 
 +9.087459E-05 +1.693652E-04 -2.101843E-04 +1.693652E-04 +4.834209E-03 +6.498366E-05 -2.101843E-04 +6.498366E-05 -1.369035E-04 
 +2.479718E-05 +1.068739E-04 -2.322711E-04 +1.068739E-04 +4.736319E-03 -2.470341E-05 -2.322711E-04 -2.470341E-05 -7.088518E-05 
 -1.201702E-04 -2.392526E-05 -2.453457E-04 -2.392526E-05 +4.819571E-03 -2.922432E-05 -2.453457E-04 -2.922432E-05 -2.010147E-05 
 +1.056537E-04 -7.759482E-05 +1.525783E-05 -7.759482E-05 +4.964520E-03 -5.656474E-05 +1.525783E-05 -5.656474E-05 -1.873851E-04 
 +1.547395E-04 -4.868068E-05 -2.617527E-04 -4.868068E-05 +5.067778E-03 -2.719049E-05 -2.617527E-04 -2.719049E-05 -2.544794E-04 
 -1.841834E-04 -1.030229E-04 +7.618618E-05 -1.030229E-04 +5.093008E-03 -2.452115E-05 +7.618618E-05 -2.452115E-05 +8.841838E-06 
 -1.655215E-04 -1.143979E-04 +1.117187E-04 -1.143979E-04 +5.066042E-03 -3.864375E-05 +1.117187E-04 -3.864375E-05 +2.349537E-04 
 -2.414541E-04 -6.360628E-05 +4.511712E-05 -6.360628E-05 +5.047920E-03 +5.330438E-05 +4.511712E-05 +5.330438E-05 +2.230825E-04 
 -2.665065E-04 -6.938437E-05 +5.475736E-05 -6.938437E-05 +5.031077E-03 +9.282273E-05 +5.475736E-05 +9.282273E-05 +1.873314E-04 
 -2.780358E-04 +4.228196E-05 +9.336208E-05 +4.228196E-05 +4.980998E-03 +1.239854E-04 +9.336208E-05 +1.239854E-04 +2.594352E-04 
 -1.559379E-04 +3.822470E-05 +8.153987E-05 +3.822470E-05 +4.943300E-03 +7.660244E-05 +8.153987E-05 +7.660244E-05 +1.407697E-04 
 +1.818168E-04 -1.096145E-04 -1.768733E-05 -1.096145E-04 +4.943627E-03 -2.069784E-05 -1.768733E-05 -2.069784E-05 -1.084692E-04 
 +1.838920E-04 -6.685718E-05 +5.118254E-05 -6.685718E-05 +4.986004E-03 -6.425132E-05 +5.118254E-05 -6.425132E-05 -2.204987E-04 
 +1.142615E-04 -6.376633E-06 +9.462780E-05 -6.376633E-06 +4.987929E-03 +6.715349E-06 +9.462780E-05 +6.715349E-06 -1.024135E-04 
 +1.177240E-04 +2.943318E-05 +1.430078E-04 +2.943318E-05 +4.931979E-03 +5.725887E-05 +1.430078E-04 +5.725887E-05 -7.064023E-05 
 +1.571226E-04 +4.466632E-05 +1.015328E-04 +4.466632E-05 +4.916067E-03 +1.009764E-04 +1.015328E-04 +1.009764E-04 -9.745652E-05 
 +1.601970E-04 +8.246467E-05 -3.350008E-05 +8.246467E-05 +4.938365E-03 +1.108408E-04 -3.350008E-05 +1.108408E-04 -9.907099E-05 
 +1.563305E-04 +1.224874E-04 -2.928134E-05 +1.224874E-04 +4.992172E-03 +5.009574E-05 -2.928134E-05 +5.009574E-05 -1.718438E-04 
 +1.557296E-04 +1.575982E-04 -3.608441E-05 +1.575982E-04 +5.006135E-03 +3.911151E-05 -3.608441E-05 +3.911151E-05 -1.495225E-04 
 +1.725593E-04 +1.795951E-04 -8.910383E-05 +1.795951E-04 +4.988781E-03 +4.302900E-05 -8.910383E-05 +4.302900E-05 -8.785181E-05 
 +1.511227E-04 +1.227437E-04 +4.817272E-05 +1.227437E-04 +5.009142E-03 +1.413793E-04 +4.817272E-05 +1.413793E-04 -7.398706E-05 
 -7.410703E-05 +1.396038E-05 -2.682714E-04 +1.396038E-05 +5.075387E-03 +1.524258E-04 -2.682714E-04 +1.524258E-04 -1.474248E-04 
 -2.199437E-04 -1.398052E-05 -3.027261E-04 -1.398052E-05 +5.096943E-03 +1.601628E-05 -3.027261E-04 +1.601628E-05 -1.550654E-04 
 -2.914466E-04 -6.738101E-05 -4.141458E-04 -6.738101E-05 +5.102495E-03 -5.747385E-05 -4.141458E-04 -5.747385E-05 -1.404728E-04 
 -2.115652E-05 -8.719766E-05 -2.322267E-04 -8.719766E-05 +5.161992E-03 -1.038946E-04 -2.322267E-04 -1.038946E-04 -3.219011E-04 
 +3.596657E-05 -4.713244E-05 -3.004007E-04 -4.713244E-05 +5.163796E-03 -4.725859E-05 -3.004007E-04 -4.725859E-05 -3.547587E-04 
 -5.665552E-05 -6.384505E-05 -1.298584E-04 -6.384505E-05 +5.113900E-03 -6.326839E-05 -1.298584E-04 -6.326839E-05 -1.332823E-04 
 -3.178697E-05 -8.586262E-05 +1.190164E-04 -8.586262E-05 +5.085231E-03 -1.249698E-04 +1.190164E-04 -1.249698E-04 +1.113473E-04 
 -1.773355E-04 -3.065680E-05 +1.196984E-04 -3.065680E-05 +5.036046E-03 -1.723072E-05 +1.196984E-04 -1.723072E-05 +2.365319E-04 
 -2.804305E-04 +1.891670E-05 +5.119625E-05 +1.891670E-05 +5.011668E-03 +9.255148E-05 +5.119625E-05 +9.255148E-05 +2.570035E-04 
 -2.240738E-04 +2.186595E-05 +1.258039E-04 +2.186595E-05 +4.940055E-03 +7.921401E-05 +1.258039E-04 +7.921401E-05 +3.037026E-04 
 -1.292278E-04 +4.844625E-05 +1.870672E-04 +4.844625E-05 +4.875671E-03 +1.734274E-05 +1.870672E-04 +1.734274E-05 +8.369064E-05 
 +2.460241E-04 -4.330873E-05 +5.934486E-05 -4.330873E-05 +4.800060E-03 -3.023538E-05 +5.934486E-05 -3.023538E-05 -9.441825E-05 
 +2.678810E-04 +6.628953E-05 +5.456986E-05 +6.628953E-05 +4.811688E-03 +1.018194E-05 +5.456986E-05 +1.018194E-05 -1.219861E-04 
 +1.657208E-04 +4.821375E-05 +3.678847E-05 +4.821375E-05 +4.863422E-03 +5.493804E-05 +3.678847E-05 +5.493804E-05 -5.972674E-05 
 +1.200725E-04 +4.986934E-05 +6.373969E-05 +4.986934E-05 +4.880748E-03 +4.048310E-05 +6.373969E-05 +4.048310E-05 -5.148758E-05 
 +1.281486E-04 +7.938983E-05 +1.592512E-04 +7.938983E-05 +4.887340E-03 +4.899778E-05 +1.592512E-04 +4.899778E-05 -5.602257E-05 
 +1.282824E-04 +1.310749E-04 -7.513712E-05 +1.310749E-04 +4.931080E-03 +4.822563E-05 -7.513712E-05 +4.822563E-05 -9.245850E-05 
 +1.380603E-04 +1.126265E-04 -4.113455E-05 +1.126265E-04 +4.996924E-03 +5.041437E-05 -4.113455E-05 +5.041437E-05 -2.176608E-04 
 +1.531173E-04 +6.353774E-05 -6.045462E-05 +6.353774E-05 +5.032375E-03 +4.327148E-05 -6.045462E-05 +4.327148E-05 -1.311636E-04 
 +1.772215E-04 +5.552565E-05 -7.153713E-05 +5.552565E-05 +5.065246E-03 +6.089122E-05 -7.153713E-05 +6.089122E-05 -6.978762E-05 
 +2.870807E-05 -7.665894E-05 +3.022727E-04 -7.665894E-05 +5.087583E-03 +8.955883E-05 +3.022727E-04 +8.955883E-05 -8.867845E-05 
 -1.915669E-04 -1.377950E-04 -8.947561E-05 -1.377950E-04 +5.107585E-03 +4.996479E-05 -8.947561E-05 +4.996479E-05 -1.258343E-04 
 -3.662717E-04 -1.258609E-04 -3.167665E-04 -1.258609E-04 +5.170336E-03 -6.554648E-05 -3.167665E-04 -6.554648E-05 -1.676561E-04 
 -4.067781E-04 -1.252232E-04 -3.967759E-04 -1.252232E-04 +5.195371E-03 -1.406588E-04 -3.967759E-04 -1.406588E-04 -2.139334E-04 
 +8.992730E-06 -5.901311E-05 -2.651254E-04 -5.901311E-05 +5.186240E-03 -1.017232E-04 -2.651254E-04 -1.017232E-04 -4.134262E-04 
 +6.253982E-05 +2.437731E-05 -2.571390E-04 +2.437731E-05 +5.167768E-03 -3.159376E-05 -2.571390E-04 -3.159376E-05 -4.381878E-04 
 +3.155820E-05 +1.735354E-05 -2.395374E-04 +1.735354E-05 +5.125968E-03 +1.805286E-06 -2.395374E-04 +1.805286E-06 -2.335786E-04 
 +6.664846E-06 -5.809177E-05 +1.243646E-04 -5.809177E-05 +5.088930E-03 -5.380530E-05 +1.243646E-04 -5.380530E-05 +6.668527E-06 
 -7.675800E-05 -5.677066E-05 +2.060123E-04 -5.677066E-05 +5.050413E-03 -5.835320E-05 +2.060123E-04 -5.835320E-05 +1.126410E-04 
 -2.684826E-04 +3.813912E-07 +1.009478E-04 +3.813912E-07 +4.984454E-03 +3.915979E-05 +1.009478E-04 +3.915979E-05 +2.710695E-04 
 -2.848102E-04 -4.860464E-06 +1.688583E-04 -4.860464E-06 +4.893017E-03 -1.752295E-07 +1.688583E-04 -1.752295E-07 +2.766318E-04 
 +6.725237E-05 -7.443858E-05 +1.840366E-04 -7.443858E-05 +4.719468E-03 -7.797709E-05 +1.840366E-04 -7.797709E-05 +1.018305E-04 
 +3.050783E-04 -4.285389E-05 +1.102957E-04 -4.285389E-05 +4.538459E-03 -5.985190E-05 +1.102957E-04 -5.985190E-05 +1.202854E-04 
 +3.122371E-04 +1.024585E-04 +5.466424E-05 +1.024585E-04 +4.585169E-03 +3.333300E-05 +5.466424E-05 +3.333300E-05 +1.163422E-04 
 +2.502462E-04 +1.216750E-04 -1.513915E-05 +1.216750E-04 +4.766107E-03 +6.177336E-05 -1.513915E-05 +6.177336E-05 -2.373321E-05 
 +1.600581E-04 +1.346983E-04 -1.811543E-05 +1.346983E-04 +4.881504E-03 +3.370231E-05 -1.811543E-05 +3.370231E-05 -6.000653E-05 
 +4.660408E-05 +1.551853E-04 +1.016946E-04 +1.551853E-04 +4.887381E-03 -3.463473E-05 +1.016946E-04 -3.463473E-05 -2.600380E-05 
 +1.446923E-05 +1.996649E-04 -7.404040E-05 +1.996649E-04 +4.953953E-03 -5.278371E-05 -7.404040E-05 -5.278371E-05 -5.240752E-05 
 +5.452181E-05 +1.433860E-04 -2.384711E-05 +1.433860E-04 +5.047138E-03 +1.912560E-05 -2.384711E-05 +1.912560E-05 -1.830985E-04 
 +6.077344E-05 +6.214247E-05 -4.704209E-05 +6.214247E-05 +5.117829E-03 +2.714903E-05 -4.704209E-05 +2.714903E-05 -1.517806E-04 
 +5.587623E-06 -5.642714E-05 +1.530664E-05 -5.642714E-05 +5.132284E-03 +5.003448E-05 +1.530664E-05 +5.003448E-05 -7.950280E-05 
 -1.227772E-04 -2.123923E-04 +3.397501E-04 -2.123923E-04 +5.122197E-03 +7.563587E-06 +3.397501E-04 +7.563587E-06 -8.099424E-05 
 -2.702733E-04 -2.856095E-04 +2.121249E-04 -2.856095E-04 +5.139531E-03 -1.289006E-04 +2.121249E-04 -1.289006E-04 -1.027747E-04 
 -3.956306E-04 -2.453740E-04 -1.071612E-04 -2.453740E-04 +5.158228E-03 -2.026910E-04 -1.071612E-04 -2.026910E-04 -1.526036E-04 
 -3.192880E-04 -1.762614E-04 -1.524954E-04 -1.762614E-04 +5.174299E-03 -1.733431E-04 -1.524954E-04 -1.733431E-04 -2.567508E-04 
 +8.115981E-05 -6.112955E-05 -1.334575E-04 -6.112955E-05 +5.155059E-03 -6.790412E-05 -1.334575E-04 -6.790412E-05 -4.643478E-04 
 +1.642060E-04 -1.613298E-05 -2.238162E-04 -1.613298E-05 +5.129995E-03 +1.007209E-05 -2.238162E-04 +1.007209E-05 -5.248746E-04 
 +1.129508E-04 +8.188441E-06 -2.724375E-04 +8.188441E-06 +5.109843E-03 +3.700319E-05 -2.724375E-04 +3.700319E-05 -3.360013E-04 
 +2.808522E-05 -1.555785E-05 +8.282304E-05 -1.555785E-05 +5.093142E-03 -2.463068E-06 +8.282304E-05 -2.463068E-06 -8.049373E-05 
 -2.555120E-05 -1.969645E-05 +2.272118E-04 -1.969645E-05 +5.067978E-03 -3.830704E-05 +2.272118E-04 -3.830704E-05 -1.718298E-05 
 -2.451117E-04 -6.130768E-06 +1.522094E-04 -6.130768E-06 +4.986444E-03 -2.286869E-07 +1.522094E-04 -2.286869E-07 +1.863696E-04 
 -3.152342E-04 +5.952238E-05 +1.515271E-04 +5.952238E-05 +4.789846E-03 -6.912098E-05 +1.515271E-04 -6.912098E-05 +1.962567E-04 
 +1.071648E-04 -5.761541E-05 +7.287532E-05 -5.761541E-05 +4.466185E-03 -1.638511E-04 +7.287532E-05 -1.638511E-04 +1.909844E-04 
 +2.565274E-04 -4.643692E-05 +5.716278E-05 -4.643692E-05 +4.477500E-03 -1.226407E-04 +5.716278E-05 -1.226407E-04 +2.691676E-04 
 +2.781585E-04 +2.975747E-05 -1.657141E-06 +2.975747E-05 +4.535471E-03 -2.197983E-05 -1.657141E-06 -2.197983E-05 +2.710228E-04 
 +3.097395E-04 +2.936033E-05 -4.999289E-05 +2.936033E-05 +4.542939E-03 +1.756756E-07 -4.999289E-05 +1.756756E-07 +1.101872E-04 
 +1.514560E-04 -8.411408E-05 -9.336988E-05 -8.411408E-05 +4.698040E-03 -6.777605E-08 -9.336988E-05 -6.777605E-08 -2.126680E-05 
 +5.305021E-05 -6.747455E-05 -3.459827E-05 -6.747455E-05 +4.861019E-03 -4.228487E-05 -3.459827E-05 -4.228487E-05 -1.113454E-05 
 -2.714716E-05 +1.356339E-04 -4.287141E-05 +1.356339E-04 +4.942866E-03 -5.086515E-05 -4.287141E-05 -5.086515E-05 -1.490588E-05 
 -5.471224E-05 +1.418694E-04 +2.206339E-05 +1.418694E-04 +5.094872E-03 +4.580510E-05 +2.206339E-05 +4.580510E-05 -1.126505E-04 
 -8.107046E-05 +5.201477E-06 -2.373185E-05 +5.201477E-06 +5.225155E-03 +1.307731E-04 -2.373185E-05 +1.307731E-04 -1.309362E-04 
 -1.984816E-04 -1.682349E-04 +1.476686E-05 -1.682349E-04 +5.121646E-03 +2.221095E-04 +1.476686E-05 +2.221095E-04 +1.191995E-05 
 -2.325065E-04 -2.159042E-04 +9.566208E-05 -2.159042E-04 +4.988614E-03 +1.891787E-04 +9.566208E-05 +1.891787E-04 +4.892670E-05 
 -3.220806E-04 -2.237201E-04 +1.863308E-04 -2.237201E-04 +5.000883E-03 +2.732054E-05 +1.863308E-04 +2.732054E-05 -2.232702E-05 
 -3.070045E-04 -1.137107E-04 +1.458476E-04 -1.137107E-04 +5.057092E-03 -3.326897E-05 +1.458476E-04 -3.326897E-05 -1.959406E-04 
 -1.195471E-04 -5.564627E-05 +7.865339E-05 -5.564627E-05 +5.092254E-03 -1.199601E-05 +7.865339E-05 -1.199601E-05 -3.533384E-04 
 +1.141207E-04 +4.677134E-05 +1.563483E-05 +4.677134E-05 +5.116187E-03 +2.510584E-06 +1.563483E-05 +2.510584E-06 -4.489077E-04 
 +2.287890E-04 +7.364130E-05 -1.609768E-04 +7.364130E-05 +5.123744E-03 +2.083463E-05 -1.609768E-04 +2.083463E-05 -5.446672E-04 
 +2.444727E-04 +8.671311E-05 -2.140312E-04 +8.671311E-05 +5.135165E-03 +3.623054E-05 -2.140312E-04 +3.623054E-05 -4.372770E-04 
 +1.053003E-04 +5.095956E-05 +8.450674E-05 +5.095956E-05 +5.135514E-03 -4.499221E-05 +8.450674E-05 -4.499221E-05 -2.076028E-04 
 -2.682688E-05 +4.352947E-05 +2.894150E-04 +4.352947E-05 +5.106984E-03 -1.579464E-04 +2.894150E-04 -1.579464E-04 -1.704006E-04 
 -1.643922E-04 +3.232509E-05 +3.287802E-04 +3.232509E-05 +5.056239E-03 -9.278893E-05 +3.287802E-04 -9.278893E-05 -4.847585E-06 
 -2.049832E-04 -2.772959E-05 +3.545961E-05 -2.772959E-05 +4.850821E-03 -1.262668E-04 +3.545961E-05 -1.262668E-04 +1.242932E-04 
 -9.836633E-05 -6.867476E-05 -4.789383E-05 -6.867476E-05 +4.811289E-03 -9.110559E-05 -4.789383E-05 -9.110559E-05 +1.164524E-04 
 +7.756066E-05 -4.585550E-05 -1.097025E-04 -4.585550E-05 +4.629684E-03 -9.263115E-05 -1.097025E-04 -9.263115E-05 +1.114750E-04 
 +1.586227E-04 -8.776411E-06 -9.978147E-05 -8.776411E-06 +4.484833E-03 -1.037387E-04 -9.978147E-05 -1.037387E-04 +1.676739E-04 
 +1.218339E-04 -1.577681E-05 -1.056249E-04 -1.577681E-05 +4.586584E-03 -8.658530E-05 -1.056249E-04 -8.658530E-05 +1.455942E-04 
 +9.208386E-05 -1.608958E-04 -2.696742E-05 -1.608958E-04 +4.720951E-03 -6.016231E-05 -2.696742E-05 -6.016231E-05 +1.313011E-05 
 +7.993265E-05 -2.146332E-04 -1.354769E-05 -2.146332E-04 +4.812905E-03 +5.276747E-05 -1.354769E-05 +5.276747E-05 -4.069323E-06 
 +1.349308E-05 -1.337664E-04 -3.702902E-06 -1.337664E-04 +4.858453E-03 +1.427426E-04 -3.702902E-06 +1.427426E-04 +2.199760E-05 
 +1.726642E-05 +4.463612E-05 -1.648234E-05 +4.463612E-05 +4.913135E-03 +1.055664E-04 -1.648234E-05 +1.055664E-04 -4.188388E-05 
 -5.893465E-05 +2.436125E-05 -2.616311E-05 +2.436125E-05 +5.016480E-03 +5.165803E-05 -2.616311E-05 +5.165803E-05 -5.993932E-05 
 -2.540821E-04 -1.173013E-04 -2.264198E-05 -1.173013E-04 +5.061744E-03 +9.054308E-05 -2.264198E-05 +9.054308E-05 +7.657662E-05 
 -2.773176E-04 -7.470476E-05 -6.706151E-05 -7.470476E-05 +5.015644E-03 +9.385123E-05 -6.706151E-05 +9.385123E-05 +8.283106E-05 
 -2.631798E-04 +2.362097E-05 +5.966657E-05 +2.362097E-05 +5.002654E-03 +7.092904E-05 +5.966657E-05 +7.092904E-05 -1.542193E-05 
 -2.440058E-04 +8.411506E-05 +1.686249E-04 +8.411506E-05 +5.023263E-03 +6.411819E-05 +1.686249E-04 +6.411819E-05 -2.155722E-04 
 -2.969439E-05 +7.370692E-05 +1.135245E-04 +7.370692E-05 +5.020492E-03 +4.778794E-05 +1.135245E-04 +4.778794E-05 -3.106601E-04 
 +1.475400E-04 +1.155364E-04 +1.057312E-04 +1.155364E-04 +5.014726E-03 +4.227202E-06 +1.057312E-04 +4.227202E-06 -2.765511E-04 
 +2.818069E-04 +1.632217E-04 +2.227227E-05 +1.632217E-04 +5.026930E-03 -4.407625E-05 +2.227227E-05 -4.407625E-05 -3.970408E-04 
 +2.972789E-04 +1.497439E-04 -3.537135E-05 +1.497439E-04 +5.057688E-03 -3.941003E-05 -3.537135E-05 -3.941003E-05 -3.690550E-04 
 +1.357711E-04 +1.237942E-05 +1.114619E-04 +1.237942E-05 +5.020021E-03 -1.056427E-04 +1.114619E-04 -1.056427E-04 -1.863275E-04 
 +2.460585E-05 +4.199233E-05 +3.775242E-04 +4.199233E-05 +5.008414E-03 -2.096825E-04 +3.775242E-04 -2.096825E-04 -1.753680E-04 
 -1.736115E-05 +1.326667E-05 +5.218301E-04 +1.326667E-05 +4.955580E-03 -1.811841E-04 +5.218301E-04 -1.811841E-04 -7.193793E-05 
 -1.494628E-04 -1.843329E-04 -9.393451E-05 -1.843329E-04 +4.865850E-03 -3.658438E-05 -9.393451E-05 -3.658438E-05 +1.562074E-04 
 -1.363762E-04 -1.481916E-04 -8.551908E-05 -1.481916E-04 +4.943667E-03 +6.890185E-05 -8.551908E-05 +6.890185E-05 +6.306685E-05 
 -1.578532E-04 -1.224285E-04 -2.323074E-04 -1.224285E-04 +5.082501E-03 +6.067681E-05 -2.323074E-04 +6.067681E-05 +2.587606E-05 
 -1.112465E-04 -8.801463E-05 -1.856563E-04 -8.801463E-05 +5.142521E-03 -2.230311E-05 -1.856563E-04 -2.230311E-05 +7.228022E-05 
 -9.236331E-05 -9.862880E-05 -4.385235E-05 -9.862880E-05 +5.039359E-03 -4.559680E-05 -4.385235E-05 -4.559680E-05 +6.773551E-05 
 +1.534347E-04 -1.254577E-04 +1.494510E-04 -1.254577E-04 +4.958479E-03 -3.633898E-06 +1.494510E-04 -3.633898E-06 +3.796320E-05 
 +1.239060E-05 -9.228013E-05 +2.141586E-04 -9.228013E-05 +5.040167E-03 +6.186337E-05 +2.141586E-04 +6.186337E-05 -5.852701E-06 
 +3.276934E-05 -7.593971E-05 +1.074921E-04 -7.593971E-05 +5.044849E-03 +1.621450E-05 +1.074921E-04 +1.621450E-05 +4.820621E-05 
 +1.303626E-04 +1.648339E-05 +6.440855E-06 +1.648339E-05 +4.855977E-03 -3.047116E-05 +6.440855E-06 -3.047116E-05 +4.067538E-05 
 +9.768055E-05 +1.835913E-05 -5.039461E-05 +1.835913E-05 +4.845668E-03 +5.849865E-05 -5.039461E-05 +5.849865E-05 -1.149417E-06 
 -1.777171E-04 -1.826418E-04 -3.220407E-05 -1.826418E-04 +4.965253E-03 +9.486028E-05 -3.220407E-05 +9.486028E-05 +4.744594E-05 
 -2.287490E-04 -9.248785E-05 -8.856906E-05 -9.248785E-05 +5.025774E-03 +7.877458E-05 -8.856906E-05 +7.877458E-05 +1.579388E-05 
 -2.135530E-04 +2.715387E-06 +1.562669E-05 +2.715387E-06 +5.046957E-03 +6.015074E-05 +1.562669E-05 +6.015074E-05 -9.282993E-05 
 -2.457752E-04 +4.263187E-05 -2.794702E-05 +4.263187E-05 +5.012793E-03 -2.030129E-05 -2.794702E-05 -2.030129E-05 -2.565182E-04 
 -1.441638E-05 +4.769028E-05 +1.102728E-04 +4.769028E-05 +5.013622E-03 -1.218934E-05 +1.102728E-04 -1.218934E-05 -2.813301E-04 
 +1.603222E-04 +5.961514E-05 +1.343020E-04 +5.961514E-05 +4.979091E-03 +5.701493E-05 +1.343020E-04 +5.701493E-05 -1.861621E-04 
 +3.195954E-04 +9.426569E-05 +1.822496E-04 +9.426569E-05 +4.890590E-03 -1.649260E-05 +1.822496E-04 -1.649260E-05 -2.438771E-04 
 +3.732820E-04 +1.018260E-04 +1.277278E-04 +1.018260E-04 +4.793430E-03 -7.948374E-05 +1.277278E-04 -7.948374E-05 -1.978462E-04 
 +5.947247E-05 -4.768035E-06 +1.315092E-04 -4.768035E-06 +4.767038E-03 -9.653300E-05 +1.315092E-04 -9.653300E-05 +7.402419E-06 
 +1.131215E-04 -2.349038E-07 +3.087120E-04 -2.349038E-07 +4.753007E-03 -1.345889E-04 +3.087120E-04 -1.345889E-04 +5.993816E-05 
 +7.505353E-05 -9.570244E-05 +4.291473E-04 -9.570244E-05 +4.786330E-03 -1.447352E-04 +4.291473E-04 -1.447352E-04 +8.557815E-05 
 -1.209098E-04 -1.545419E-04 -2.242700E-04 -1.545419E-04 +4.878790E-03 +8.923041E-06 -2.242700E-04 +8.923041E-06 +1.904319E-04 
 -1.733733E-04 -1.546662E-04 -1.316308E-04 -1.546662E-04 +5.022553E-03 +8.864727E-05 -1.316308E-04 +8.864727E-05 +8.312638E-05 
 -3.038866E-04 -1.582772E-04 -1.694902E-04 -1.582772E-04 +5.150597E-03 +1.084758E-04 -1.694902E-04 +1.084758E-04 +3.497675E-05 
 -3.585928E-04 -9.452079E-05 -2.185312E-04 -9.452079E-05 +5.197671E-03 +5.933291E-05 -2.185312E-04 +5.933291E-05 -2.375950E-05 
 -1.015231E-04 -4.116632E-05 +1.970896E-04 -4.116632E-05 +5.159046E-03 +5.462076E-05 +1.970896E-04 +5.462076E-05 -2.739368E-05 
 +9.478866E-05 -6.379403E-05 +2.570835E-04 -6.379403E-05 +5.096278E-03 +1.462205E-04 +2.570835E-04 +1.462205E-04 +4.338766E-05 
 +4.541258E-05 -6.271025E-05 +3.730733E-04 -6.271025E-05 +5.039747E-03 +1.312899E-04 +3.730733E-04 +1.312899E-04 -5.320739E-06 
 +6.828401E-05 -4.977935E-05 +2.316732E-04 -4.977935E-05 +5.060031E-03 -3.975459E-06 +2.316732E-04 -3.975459E-06 -1.619055E-06 
 +7.088624E-05 -5.418527E-05 +2.097868E-04 -5.418527E-05 +4.996242E-03 -1.051073E-04 +2.097868E-04 -1.051073E-04 +3.611037E-05 
 +1.613456E-04 +4.543982E-05 -1.040617E-05 +4.543982E-05 +4.822577E-03 +1.958023E-05 -1.040617E-05 +1.958023E-05 +3.352719E-05 
 -9.788591E-05 -1.727561E-04 -8.811118E-05 -1.727561E-04 +4.888937E-03 +1.203397E-04 -8.811118E-05 +1.203397E-04 +3.441982E-05 
 -1.773855E-04 -1.732675E-04 -1.240305E-04 -1.732675E-04 +5.008725E-03 +9.030694E-05 -1.240305E-04 +9.030694E-05 +4.733602E-06 
 -1.627169E-04 -9.489012E-05 -1.268737E-04 -9.489012E-05 +5.037676E-03 -7.010067E-06 -1.268737E-04 -7.010067E-06 -1.615795E-04 
 -1.344544E-04 +1.054581E-05 -2.414130E-04 +1.054581E-05 +5.075450E-03 -9.628025E-05 -2.414130E-04 -9.628025E-05 -2.930054E-04 
 +4.704383E-05 +7.537540E-05 +6.930254E-05 +7.537540E-05 +5.033393E-03 -4.973799E-05 +6.930254E-05 -4.973799E-05 -2.491874E-04 
 +1.543733E-04 +8.326783E-05 +6.442140E-05 +8.326783E-05 +4.960867E-03 +3.785295E-05 +6.442140E-05 +3.785295E-05 -1.846218E-04 
 +3.707495E-04 +1.073234E-04 +1.790462E-04 +1.073234E-04 +4.841093E-03 +3.550250E-05 +1.790462E-04 +3.550250E-05 -1.511116E-04 
 +3.750540E-04 +8.985143E-05 +2.106715E-04 +8.985143E-05 +4.730989E-03 -3.849330E-05 +2.106715E-04 -3.849330E-05 -5.017318E-05 
 +1.761822E-05 +3.793224E-06 +1.636180E-04 +3.793224E-06 +4.743084E-03 -6.949083E-05 +1.636180E-04 -6.949083E-05 +1.273359E-04 
 +1.249434E-04 -3.178232E-05 +1.854292E-04 -3.178232E-05 +4.758801E-03 -9.235233E-05 +1.854292E-04 -9.235233E-05 +1.834848E-04 
 +1.001305E-04 -6.251551E-05 +2.394699E-04 -6.251551E-05 +4.772949E-03 -1.046527E-04 +2.394699E-04 -1.046527E-04 +1.942533E-04 
 -1.600677E-04 -1.505172E-04 -1.916871E-04 -1.505172E-04 +4.934837E-03 -7.592524E-05 -1.916871E-04 -7.592524E-05 +1.917595E-04 
 -2.656375E-04 -1.650894E-04 -1.408205E-04 -1.650894E-04 +5.093186E-03 +4.596805E-05 -1.408205E-04 +4.596805E-05 +7.079016E-05 
 -3.749937E-04 -1.590619E-04 -8.058181E-05 -1.590619E-04 +5.184414E-03 +1.074986E-04 -8.058181E-05 +1.074986E-04 +4.810486E-05 
 -4.208374E-04 -1.360483E-04 -1.490123E-04 -1.360483E-04 +5.174523E-03 +1.498085E-04 -1.490123E-04 +1.498085E-04 -3.793655E-05 
 -1.182216E-05 -5.662966E-05 +3.282823E-04 -5.662966E-05 +5.112541E-03 +1.396109E-04 +3.282823E-04 +1.396109E-04 -7.830994E-05 
 +8.629263E-06 -2.476811E-06 +2.505504E-04 -2.476811E-06 +5.063332E-03 +8.905422E-05 +2.505504E-04 +8.905422E-05 -1.378470E-05 
 +4.369216E-05 +4.322756E-05 +3.525586E-04 +4.322756E-05 +5.016937E-03 +5.213938E-05 +3.525586E-04 +5.213938E-05 +9.443044E-06 
 +8.630646E-05 +4.392192E-05 +2.494094E-04 +4.392192E-05 +5.002036E-03 -1.095155E-05 +2.494094E-04 -1.095155E-05 -5.276044E-05 
 +2.245528E-05 -2.624605E-05 +2.957329E-04 -2.624605E-05 +5.050950E-03 -1.093296E-04 +2.957329E-04 -1.093296E-04 -3.365899E-05 
 +5.392719E-05 +1.181242E-06 +1.641437E-04 +1.181242E-06 +5.033373E-03 -1.480153E-05 +1.641437E-04 -1.480153E-05 +3.030061E-05 
 -6.528018E-05 -1.407896E-04 -1.673276E-04 -1.407896E-04 +4.953392E-03 +9.216857E-05 -1.673276E-04 +9.216857E-05 +1.462737E-05 
 -1.169050E-04 -1.507697E-04 -1.499842E-04 -1.507697E-04 +4.999888E-03 +8.614343E-06 -1.499842E-04 +8.614343E-06 -1.445521E-05 
 -3.472008E-06 -1.725468E-05 -2.359871E-04 -1.725468E-05 +5.064372E-03 -8.286354E-05 -2.359871E-04 -8.286354E-05 -1.665246E-04 
 +8.107376E-05 +7.971504E-05 -2.369455E-04 +7.971504E-05 +5.027273E-03 -4.862902E-05 -2.369455E-04 -4.862902E-05 -2.222755E-04 
 +1.290982E-04 +1.289474E-04 -1.162264E-04 +1.289474E-04 +4.979900E-03 +1.239467E-05 -1.162264E-04 +1.239467E-05 -1.647729E-04 
 +1.816369E-04 +1.383330E-04 -9.031989E-05 +1.383330E-04 +4.933493E-03 +3.768403E-06 -9.031989E-05 +3.768403E-06 -1.559024E-04 
 +3.754898E-04 +1.088367E-04 +8.680976E-05 +1.088367E-04 +4.861604E-03 +6.441465E-05 +8.680976E-05 +6.441465E-05 -3.509423E-05 
 +1.621267E-04 +4.668519E-05 +2.326013E-04 +4.668519E-05 +4.785594E-03 +9.872538E-05 +2.326013E-04 +9.872538E-05 +1.117026E-04 
 +7.630619E-05 +7.744912E-06 +2.103263E-04 +7.744912E-06 +4.765616E-03 +7.878430E-05 +2.103263E-04 +7.878430E-05 +1.922728E-04 
 +1.057554E-04 -3.777126E-05 +1.140776E-04 -3.777126E-05 +4.805962E-03 +3.710559E-05 +1.140776E-04 +3.710559E-05 +1.663949E-04 
 +9.239578E-05 -6.553360E-05 +1.255905E-04 -6.553360E-05 +4.831689E-03 -7.071910E-05 +1.255905E-04 -7.071910E-05 +2.161527E-04 
 -2.742832E-04 -9.305681E-05 +5.742468E-05 -9.305681E-05 +5.033456E-03 -9.393994E-05 +5.742468E-05 -9.393994E-05 +2.184489E-04 
 -3.002255E-04 -1.390197E-04 -7.631354E-06 -1.390197E-04 +5.094483E-03 +1.928614E-05 -7.631354E-06 +1.928614E-05 +1.344500E-04 
 -3.816064E-04 -1.301497E-04 -1.473149E-05 -1.301497E-04 +5.134082E-03 +7.645396E-05 -1.473149E-05 +7.645396E-05 +1.513515E-04 
 -3.796151E-04 -1.007189E-04 -1.965790E-05 -1.007189E-04 +5.123112E-03 +1.752905E-04 -1.965790E-05 +1.752905E-04 +6.618899E-05 
 +4.388264E-07 -4.146602E-05 +2.250460E-04 -4.146602E-05 +5.051210E-03 +2.038804E-04 +2.250460E-04 +2.038804E-04 -6.739945E-05 
 -7.888831E-06 -3.851355E-05 +8.819702E-05 -3.851355E-05 +5.022787E-03 +5.626591E-05 +8.819702E-05 +5.626591E-05 -6.426124E-06 
 +2.086949E-05 -5.121618E-06 +2.684653E-04 -5.121618E-06 +5.057711E-03 -2.198792E-05 +2.684653E-04 -2.198792E-05 +4.485090E-05 
 +5.399386E-05 +3.156361E-05 +1.801756E-04 +3.156361E-05 +5.087932E-03 -2.117380E-05 +1.801756E-04 -2.117380E-05 -3.371886E-05 
 -3.590540E-06 -1.583181E-05 +2.342300E-04 -1.583181E-05 +5.135618E-03 -6.604630E-05 +2.342300E-04 -6.604630E-05 -4.323167E-05 
 -3.805870E-05 -2.756850E-05 +2.903336E-04 -2.756850E-05 +5.107626E-03 -9.797361E-05 +2.903336E-04 -9.797361E-05 -4.805980E-05 
 -2.938739E-05 -7.361080E-05 -7.763392E-05 -7.361080E-05 +5.029357E-03 -2.959588E-05 -7.763392E-05 -2.959588E-05 +1.004721E-05 
 +4.291415E-05 +7.270041E-06 -1.927899E-04 +7.270041E-06 +5.030410E-03 -2.430665E-05 -1.927899E-04 -2.430665E-05 +1.872403E-05 
 +1.661378E-04 +7.676915E-05 -1.886855E-04 +7.676915E-05 +5.018933E-03 -4.598251E-05 -1.886855E-04 -4.598251E-05 -9.302578E-05 
 +2.024710E-04 +9.290626E-05 -1.548032E-04 +9.290626E-05 +4.979527E-03 -1.621332E-05 -1.548032E-04 -1.621332E-05 -1.343804E-04 
 +1.940856E-04 +1.058406E-04 -1.857808E-04 +1.058406E-04 +4.953081E-03 -3.580059E-06 -1.857808E-04 -3.580059E-06 -1.533374E-04 
 +2.170358E-04 +8.298606E-05 -1.260339E-04 +8.298606E-05 +4.910043E-03 +3.709682E-05 -1.260339E-04 +3.709682E-05 -1.013636E-04 
 +2.190255E-04 +3.074697E-05 -1.555612E-05 +3.074697E-05 +4.913207E-03 +1.030860E-04 -1.555612E-05 +1.030860E-04 +5.090529E-05 
 +8.715859E-05 +6.465569E-07 +1.284775E-04 +6.465569E-07 +4.913468E-03 +1.901077E-04 +1.284775E-04 +1.901077E-04 +1.410173E-04 
 +9.393973E-05 +4.332605E-05 +1.513684E-04 +4.332605E-05 +4.838021E-03 +1.896930E-04 +1.513684E-04 +1.896930E-04 +1.531768E-04 
 +9.814640E-05 +2.088733E-05 -1.301990E-05 +2.088733E-05 +4.854595E-03 +1.176251E-04 -1.301990E-05 +1.176251E-04 +1.346203E-04 
 +1.842697E-05 -3.572992E-05 -3.112750E-05 -3.572992E-05 +4.960542E-03 -4.382872E-05 -3.112750E-05 -4.382872E-05 +2.249424E-04 
 -2.825793E-04 -9.379447E-05 +3.758354E-04 -9.379447E-05 +5.048882E-03 -3.319457E-05 +3.758354E-04 -3.319457E-05 +1.577205E-04 
 -2.470640E-04 -4.392929E-05 +3.089534E-04 -4.392929E-05 +5.054266E-03 +3.890147E-05 +3.089534E-04 +3.890147E-05 +1.422103E-04 
 -1.956321E-04 -4.648565E-05 +2.672583E-04 -4.648565E-05 +5.037900E-03 +6.338024E-05 +2.672583E-04 +6.338024E-05 +8.762783E-05 
 -1.832286E-04 -5.592546E-06 +2.647508E-04 -5.592546E-06 +5.095249E-03 +1.139137E-04 +2.647508E-04 +1.139137E-04 +1.725641E-05 
 -9.990616E-05 +2.918502E-05 +2.151293E-04 +2.918502E-05 +5.145383E-03 +1.544588E-04 +2.151293E-04 +1.544588E-04 -1.011617E-05 
 -1.300769E-04 -5.550836E-06 +5.197578E-05 -5.550836E-06 +5.118744E-03 +9.255327E-05 +5.197578E-05 +9.255327E-05 +7.062743E-05 
 -2.428733E-06 -1.764628E-05 +1.384422E-04 -1.764628E-05 +5.063142E-03 -4.908698E-05 +1.384422E-04 -4.908698E-05 +1.207495E-04 
 +2.749828E-05 -7.076027E-06 +2.013275E-04 -7.076027E-06 +5.072096E-03 -1.483601E-04 +2.013275E-04 -1.483601E-04 +7.273227E-05 
 +4.250577E-05 +4.191860E-05 +1.993522E-04 +4.191860E-05 +5.104974E-03 -1.854282E-04 +1.993522E-04 -1.854282E-04 -2.509594E-05 
 +8.807215E-05 +9.766575E-05 +2.099954E-04 +9.766575E-05 +5.136070E-03 -2.619055E-04 +2.099954E-04 -2.619055E-04 -1.473515E-04 
 +2.634249E-05 +1.117330E-04 +1.801969E-04 +1.117330E-04 +5.187000E-03 -2.038942E-04 +1.801969E-04 -2.038942E-04 -2.071838E-04 
 +4.634731E-05 +1.333764E-04 -2.437205E-04 +1.333764E-04 +5.138672E-03 -1.008149E-04 -2.437205E-04 -1.008149E-04 -5.229355E-05 
 +1.293745E-04 +1.754506E-04 -1.796604E-04 +1.754506E-04 +5.022632E-03 -6.453570E-05 -1.796604E-04 -6.453570E-05 +3.683865E-05 
 +2.015633E-04 +1.502111E-04 -1.676667E-04 +1.502111E-04 +4.948471E-03 +3.074921E-05 -1.676667E-04 +3.074921E-05 -3.171029E-06 
 +1.770995E-04 +7.615965E-05 -1.391439E-04 +7.615965E-05 +4.881967E-03 +1.269293E-04 -1.391439E-04 +1.269293E-04 +2.741920E-05 
 +1.499435E-04 -6.368628E-06 -1.078662E-04 -6.368628E-06 +4.854596E-03 +1.708190E-04 -1.078662E-04 +1.708190E-04 +3.932612E-05 
 +1.402526E-04 +8.998355E-06 -1.207804E-04 +8.998355E-06 +4.842140E-03 +1.564686E-04 -1.207804E-04 +1.564686E-04 +7.970659E-05 
 +1.260327E-04 +1.144233E-06 -1.127434E-04 +1.144233E-06 +4.820704E-03 +9.755883E-05 -1.127434E-04 +9.755883E-05 +1.764716E-04 
 +2.255679E-05 -2.919589E-05 -2.606917E-05 -2.919589E-05 +4.857841E-03 +6.554293E-06 -2.606917E-05 +6.554293E-06 +2.706797E-04 
 -3.407174E-05 -4.933375E-06 -2.014364E-05 -4.933375E-06 +4.909748E-03 +9.864745E-06 -2.014364E-05 +9.864745E-06 +2.258733E-04 
 -2.575821E-06 -6.940247E-05 -1.599703E-04 -6.940247E-05 +4.966528E-03 -1.270469E-05 -1.599703E-04 -1.270469E-05 +1.508376E-04 
 -2.131058E-04 +1.083527E-06 +4.168376E-04 +1.083527E-06 +5.050045E-03 +1.368859E-04 +4.168376E-04 +1.368859E-04 +2.168170E-04 
 -2.153265E-04 +2.824466E-05 +2.250126E-04 +2.824466E-05 +5.067777E-03 +4.165098E-05 +2.250126E-04 +4.165098E-05 +1.434167E-04 
 -2.222346E-04 +6.190726E-05 +2.888182E-04 +6.190726E-05 +5.058401E-03 +1.157960E-05 +2.888182E-04 +1.157960E-05 +9.764910E-05 
 -2.116458E-04 +6.623841E-05 +3.199101E-04 +6.623841E-05 +5.097808E-03 +5.176563E-05 +3.199101E-04 +5.176563E-05 +2.678122E-05 
 -1.556933E-04 +6.319499E-05 +1.885555E-04 +6.319499E-05 +5.135999E-03 +8.465851E-05 +1.885555E-04 +8.465851E-05 +4.730139E-05 
 -1.748507E-04 +5.118889E-05 +1.615800E-05 +5.118889E-05 +5.147672E-03 +9.400720E-05 +1.615800E-05 +9.400720E-05 +1.099771E-04 
 -1.302778E-04 +5.523387E-05 +1.699007E-05 +5.523387E-05 +5.103155E-03 +1.460848E-06 +1.699007E-05 +1.460848E-06 +1.310474E-04 
 +8.059962E-05 +7.906988E-05 +1.792967E-04 +7.906988E-05 +5.024332E-03 -1.554635E-04 +1.792967E-04 -1.554635E-04 +1.048252E-04 
 +8.281591E-05 +8.460422E-05 +1.914148E-04 +8.460422E-05 +4.982156E-03 -2.199578E-04 +1.914148E-04 -2.199578E-04 +1.858242E-05 
 +2.083074E-04 +1.334785E-04 +1.605904E-04 +1.334785E-04 +5.029319E-03 -1.904496E-04 +1.605904E-04 -1.904496E-04 -1.351313E-04 
 +2.676892E-04 +1.423652E-04 +1.787141E-04 +1.423652E-04 +5.073733E-03 -1.840122E-04 +1.787141E-04 -1.840122E-04 -2.072260E-04 
 +6.500326E-05 +1.438510E-04 -2.206689E-04 +1.438510E-04 +5.001732E-03 -1.208124E-04 -2.206689E-04 -1.208124E-04 -4.129277E-07 
 +1.462369E-04 +1.913093E-04 -1.529216E-04 +1.913093E-04 +4.898477E-03 -1.392589E-06 -1.529216E-04 -1.392589E-06 +2.110353E-04 
 +1.728701E-04 +1.554496E-04 -1.850555E-04 +1.554496E-04 +4.860716E-03 +6.271073E-05 -1.850555E-04 +6.271073E-05 +1.783967E-04 
 +7.911601E-05 +9.576219E-05 -1.611261E-04 +9.576219E-05 +4.893624E-03 +1.143754E-04 -1.611261E-04 +1.143754E-04 +6.414097E-05 
 +6.053905E-05 +4.881492E-05 -1.324807E-04 +4.881492E-05 +4.915809E-03 +1.508184E-04 -1.324807E-04 +1.508184E-04 -8.953304E-06 
 +8.770754E-05 +5.240693E-05 -1.252330E-04 +5.240693E-05 +4.895847E-03 +1.579950E-04 -1.252330E-04 +1.579950E-04 +1.341856E-06 
 +5.302806E-05 +8.599585E-05 -1.500972E-04 +8.599585E-05 +4.874362E-03 +1.217293E-04 -1.500972E-04 +1.217293E-04 +1.017722E-04 
 +4.215979E-05 +7.791334E-05 -1.375388E-04 +7.791334E-05 +4.878758E-03 +6.495894E-05 -1.375388E-04 +6.495894E-05 +2.580471E-04 
 -1.405706E-05 +6.907597E-05 +1.804891E-05 +6.907597E-05 +4.904286E-03 +3.056207E-05 +1.804891E-05 +3.056207E-05 +2.460154E-04 
 -8.856152E-06 +2.504946E-05 -7.406870E-05 +2.504946E-05 +4.964982E-03 +1.076245E-04 -7.406870E-05 +1.076245E-04 +2.251529E-04 
 -6.069931E-05 +1.969710E-05 +2.436668E-04 +1.969710E-05 +4.933411E-03 +9.966480E-05 +2.436668E-04 +9.966480E-05 +2.811118E-04 
 -1.684454E-04 +1.543392E-05 +3.146485E-05 +1.543392E-05 +5.032259E-03 +1.194312E-05 +3.146485E-05 +1.194312E-05 +1.407766E-04 
 -2.728183E-04 +6.224429E-05 +2.442599E-04 +6.224429E-05 +5.108170E-03 +4.606994E-05 +2.442599E-04 +4.606994E-05 +3.129750E-05 
 -2.605253E-04 +1.004306E-04 +2.799128E-04 +1.004306E-04 +5.159383E-03 +2.761352E-05 +2.799128E-04 +2.761352E-05 -2.901282E-05 
 -1.789492E-04 +1.019790E-04 +1.806421E-04 +1.019790E-04 +5.180775E-03 -9.975226E-06 +1.806421E-04 -9.975226E-06 +2.198259E-05 
 -1.492991E-04 +8.385593E-05 +1.826054E-05 +8.385593E-05 +5.183882E-03 -5.150307E-05 +1.826054E-05 -5.150307E-05 +1.002524E-04 
 -1.746632E-04 +7.454834E-05 +1.208958E-05 +7.454834E-05 +5.110505E-03 -1.188563E-04 +1.208958E-05 -1.188563E-04 +1.658975E-04 
 +1.852719E-05 +9.793085E-05 +1.805203E-04 +9.793085E-05 +4.950288E-03 -1.781663E-04 +1.805203E-04 -1.781663E-04 +1.610316E-04 
 +4.097045E-05 +1.171232E-04 +2.177405E-04 +1.171232E-04 +4.887876E-03 -2.222569E-04 +2.177405E-04 -2.222569E-04 +1.112569E-04 
 +1.730547E-04 +9.089079E-05 +1.787263E-04 +9.089079E-05 +4.859983E-03 -2.303903E-04 +1.787263E-04 -2.303903E-04 -1.633176E-06 
 +5.458743E-04 -2.107223E-05 +1.371939E-05 -2.107223E-05 +4.758072E-03 -2.328644E-04 +1.371939E-05 -2.328644E-04 -1.640047E-05 
 +2.092931E-04 +6.771732E-05 -2.222144E-04 +6.771732E-05 +4.826677E-03 -1.192295E-04 -2.222144E-04 -1.192295E-04 +9.145464E-05 
 +9.960595E-05 +1.086561E-04 -2.336295E-04 +1.086561E-04 +4.932931E-03 +1.053923E-05 -2.336295E-04 +1.053923E-05 +1.645692E-04 
 +9.372414E-05 +9.455202E-05 -1.951420E-04 +9.455202E-05 +4.938154E-03 +5.025019E-05 -1.951420E-04 +5.025019E-05 +1.409480E-04 
 +6.593744E-05 +4.831313E-05 -1.650682E-04 +4.831313E-05 +4.951959E-03 +5.438071E-05 -1.650682E-04 +5.438071E-05 +6.000847E-05 
 +3.527619E-05 +3.140499E-05 -3.470742E-05 +3.140499E-05 +4.951755E-03 +8.989555E-05 -3.470742E-05 +8.989555E-05 -5.084001E-05 
 +4.191487E-05 +5.249797E-05 -1.545388E-04 +5.249797E-05 +4.943750E-03 +1.349854E-04 -1.545388E-04 +1.349854E-04 -8.426981E-05 
 -1.136669E-05 +7.343051E-05 -1.504678E-04 +7.343051E-05 +4.930495E-03 +1.069509E-04 -1.504678E-04 +1.069509E-04 +2.250701E-05 
 -2.032271E-05 +3.976961E-05 -1.138624E-04 +3.976961E-05 +4.915917E-03 +1.190459E-04 -1.138624E-04 +1.190459E-04 +1.896374E-04 
 -1.664861E-05 -6.010658E-06 +1.599710E-04 -6.010658E-06 +4.875801E-03 +1.808640E-04 +1.599710E-04 +1.808640E-04 +2.935580E-04 
 -1.040965E-05 -1.091002E-05 +1.327801E-04 -1.091002E-05 +4.862123E-03 +2.101356E-04 +1.327801E-04 +2.101356E-04 +3.531041E-04 
 -9.907381E-06 -2.395366E-05 +1.096739E-04 -2.395366E-05 +4.899681E-03 -6.270519E-05 +1.096739E-04 -6.270519E-05 +2.555646E-04 
 -1.677152E-04 -1.008259E-04 -8.406572E-05 -1.008259E-04 +5.003487E-03 -4.784994E-05 -8.406572E-05 -4.784994E-05 +1.295573E-04 
 -2.360407E-04 -5.614844E-05 +6.741774E-05 -5.614844E-05 +5.100793E-03 -3.032796E-05 +6.741774E-05 -3.032796E-05 -4.227095E-05 
 -1.864913E-04 +4.295018E-05 +9.389876E-05 +4.295018E-05 +5.158810E-03 -8.632102E-05 +9.389876E-05 -8.632102E-05 -4.239641E-05 
 -1.805112E-04 +8.673442E-05 +8.039168E-05 +8.673442E-05 +5.205997E-03 -1.768574E-04 +8.039168E-05 -1.768574E-04 +4.527450E-05 
 -7.306509E-05 +7.528898E-05 +4.329773E-06 +7.528898E-05 +5.194025E-03 -1.815639E-04 +4.329773E-06 -1.815639E-04 +1.170487E-04 
 -8.152651E-05 +7.155529E-05 +5.527199E-05 +7.155529E-05 +5.116132E-03 -1.818072E-04 +5.527199E-05 -1.818072E-04 +1.839914E-04 
 -1.346889E-04 +1.013196E-04 +2.775681E-04 +1.013196E-04 +5.007871E-03 -1.774762E-04 +2.775681E-04 -1.774762E-04 +2.064013E-04 
 -5.188627E-05 +1.926971E-04 +2.393228E-04 +1.926971E-04 +4.946564E-03 -9.959174E-05 +2.393228E-04 -9.959174E-05 +2.088681E-04 
 +1.709860E-04 +1.420798E-04 +1.107728E-04 +1.420798E-04 +4.859637E-03 -1.366197E-04 +1.107728E-04 -1.366197E-04 +1.413438E-04 
 +5.165581E-04 -2.084245E-06 -8.947635E-05 -2.084245E-06 +4.710643E-03 -2.568308E-04 -8.947635E-05 -2.568308E-04 +5.619326E-05 
 +3.131953E-04 +4.643371E-05 -6.998513E-05 +4.643371E-05 +4.747178E-03 -1.777875E-04 -6.998513E-05 -1.777875E-04 +7.146283E-05 
 +6.171023E-05 -4.552862E-05 -1.551693E-04 -4.552862E-05 +4.934435E-03 -4.351104E-05 -1.551693E-04 -4.351104E-05 +8.421441E-05 
 +1.045197E-04 -3.426916E-05 -1.235365E-04 -3.426916E-05 +5.006682E-03 -2.632535E-05 -1.235365E-04 -2.632535E-05 +3.467360E-05 
 +1.026759E-04 -3.324537E-05 -2.880760E-05 -3.324537E-05 +4.968240E-03 +1.839063E-05 -2.880760E-05 +1.839063E-05 -4.135891E-06 
 +7.669595E-05 -1.614238E-05 +2.097202E-04 -1.614238E-05 +4.961585E-03 +5.771649E-06 +2.097202E-04 +5.771649E-06 -6.938698E-05 
 -2.766789E-05 -8.081677E-06 +1.341851E-05 -8.081677E-06 +4.990241E-03 +3.763264E-05 +1.341851E-05 +3.763264E-05 -1.493926E-04 
 -6.837788E-05 +1.403558E-05 -1.536129E-04 +1.403558E-05 +4.990447E-03 +6.640631E-05 -1.536129E-04 +6.640631E-05 -6.469383E-05 
 -5.612743E-05 +1.244195E-05 -8.710596E-05 +1.244195E-05 +4.939737E-03 +7.940641E-05 -8.710596E-05 +7.940641E-05 +1.096670E-04 
 -5.874278E-05 -8.496806E-06 +1.250958E-04 -8.496806E-06 +4.886458E-03 +1.305297E-04 +1.250958E-04 +1.305297E-04 +2.177305E-04 
 -1.359695E-05 -7.226409E-06 +7.782174E-05 -7.226409E-06 +4.865506E-03 +3.599913E-05 +7.782174E-05 +3.599913E-05 +2.700905E-04 
 -1.120611E-04 -4.691102E-05 +5.993678E-05 -4.691102E-05 +4.965368E-03 -9.436278E-05 +5.993678E-05 -9.436278E-05 +2.144008E-04 
 -1.912920E-04 -1.088844E-04 -5.719287E-05 -1.088844E-04 +5.000233E-03 -1.305051E-04 -5.719287E-05 -1.305051E-04 +1.444586E-04 
 -1.491840E-04 -9.943309E-05 -1.078313E-04 -9.943309E-05 +5.032449E-03 -1.973440E-04 -1.078313E-04 -1.973440E-04 -2.161409E-05 
 -1.091070E-04 -3.211937E-05 -2.500842E-05 -3.211937E-05 +5.072394E-03 -2.325721E-04 -2.500842E-05 -2.325721E-04 +9.526095E-06 
 -7.538844E-05 -3.690144E-05 -2.016258E-05 -3.690144E-05 +5.046075E-03 -1.305707E-04 -2.016258E-05 -1.305707E-04 +8.283899E-05 
 +3.970777E-05 -5.635203E-05 +2.574427E-05 -5.635203E-05 +4.887827E-03 +4.289917E-05 +2.574427E-05 +4.289917E-05 +5.756478E-05 
 +8.777639E-05 +2.522028E-05 +1.168892E-06 +2.522028E-05 +4.861136E-03 +9.689344E-05 +1.168892E-06 +9.689344E-05 +1.467377E-04 
 -1.766795E-04 +1.191281E-04 +2.966586E-04 +1.191281E-04 +5.004747E-03 -1.223441E-05 +2.966586E-04 -1.223441E-05 +2.208527E-04 
 -1.235339E-04 +2.177886E-04 +1.907736E-04 +2.177886E-04 +4.936790E-03 -1.067634E-04 +1.907736E-04 -1.067634E-04 +2.194074E-04 
 +2.279228E-04 +1.503006E-04 +3.375331E-05 +1.503006E-04 +4.749458E-03 -1.868060E-04 +3.375331E-05 -1.868060E-04 +1.593799E-04 
 +2.565288E-04 +7.701666E-05 -6.908099E-05 +7.701666E-05 +4.846624E-03 -2.116864E-04 -6.908099E-05 -2.116864E-04 +1.614304E-05 
 +9.454593E-05 +3.824261E-05 +1.751676E-04 +3.824261E-05 +4.949348E-03 -1.315664E-04 +1.751676E-04 -1.315664E-04 +3.498550E-05 
 +4.989260E-05 -1.034029E-04 +7.400781E-05 -1.034029E-04 +4.942408E-03 +1.350130E-05 +7.400781E-05 +1.350130E-05 +7.743702E-05 
 +2.712737E-04 -1.436081E-04 -1.492425E-04 -1.436081E-04 +4.963530E-03 -1.361345E-05 -1.492425E-04 -1.361345E-05 -7.712235E-06 
 +9.115073E-05 -1.605314E-04 +1.931031E-04 -1.605314E-04 +4.914027E-03 -7.126981E-05 +1.931031E-04 -7.126981E-05 -6.402179E-05 
 +7.713723E-05 -1.442459E-04 +3.039082E-04 -1.442459E-04 +4.921388E-03 -3.319108E-05 +3.039082E-04 -3.319108E-05 -4.064050E-05 
 -2.770520E-05 -1.215318E-04 +1.528919E-04 -1.215318E-04 +4.996191E-03 -3.210049E-05 +1.528919E-04 -3.210049E-05 -1.310638E-04 
 -2.938417E-05 -7.615102E-05 -1.636673E-04 -7.615102E-05 +4.991183E-03 -2.784650E-05 -1.636673E-04 -2.784650E-05 -1.101988E-04 
 -5.759271E-05 -5.289000E-05 -1.106264E-04 -5.289000E-05 +4.956190E-03 -2.181026E-05 -1.106264E-04 -2.181026E-05 +5.725808E-05 
 -7.270420E-05 -5.329415E-05 -3.837152E-05 -5.329415E-05 +4.963616E-03 -2.622222E-05 -3.837152E-05 -2.622222E-05 +1.094399E-04 
 -7.133560E-05 -4.326489E-05 -3.380447E-05 -4.326489E-05 +4.964491E-03 -5.028802E-05 -3.380447E-05 -5.028802E-05 +1.523353E-04 
 -2.024192E-04 -4.536880E-05 -3.425343E-05 -4.536880E-05 +4.980243E-03 -1.619676E-04 -3.425343E-05 -1.619676E-04 +1.938741E-04 
 -2.059266E-04 -5.690922E-05 -4.810314E-06 -5.690922E-05 +4.952201E-03 -1.890860E-04 -4.810314E-06 -1.890860E-04 +1.751014E-04 
 -1.655294E-04 -8.730886E-05 -2.184643E-04 -8.730886E-05 +4.990046E-03 -2.227756E-04 -2.184643E-04 -2.227756E-04 -1.335371E-05 
 -3.977043E-05 -6.917555E-05 +5.077290E-05 -6.917555E-05 +4.945147E-03 -1.627395E-04 +5.077290E-05 -1.627395E-04 -3.752060E-05 
 +8.317666E-05 -9.758672E-05 +1.510174E-05 -9.758672E-05 +4.803127E-03 +4.174602E-05 +1.510174E-05 +4.174602E-05 -7.420213E-06 
 +1.549172E-04 -8.931781E-05 +6.010490E-05 -8.931781E-05 +4.777826E-03 +1.368856E-04 +6.010490E-05 +1.368856E-04 -6.454451E-05 
 +1.831267E-04 +1.682009E-05 -4.032186E-05 +1.682009E-05 +4.830088E-03 +1.115857E-04 -4.032186E-05 +1.115857E-04 +4.678693E-05 
 -1.839304E-05 +9.002188E-05 +1.463454E-04 +9.002188E-05 +4.823853E-03 -4.027589E-05 +1.463454E-04 -4.027589E-05 +1.484091E-04 
 -1.015266E-04 +1.490811E-04 +1.464118E-04 +1.490811E-04 +4.795755E-03 -1.736084E-04 +1.464118E-04 -1.736084E-04 +2.059559E-04 
 +5.097632E-05 +1.078911E-04 +2.829314E-05 +1.078911E-04 +4.832577E-03 -1.666570E-04 +2.829314E-05 -1.666570E-04 +1.875087E-04 
 +5.605664E-05 +8.405402E-05 -4.845902E-05 +8.405402E-05 +4.936467E-03 -1.259122E-04 -4.845902E-05 -1.259122E-04 +9.417317E-05 
 -4.841006E-05 +8.773100E-05 +2.127397E-04 +8.773100E-05 +5.033782E-03 -1.098318E-04 +2.127397E-04 -1.098318E-04 +6.281110E-06 
 +9.481432E-06 +2.599617E-05 +1.567874E-04 +2.599617E-05 +4.988126E-03 -3.810540E-05 +1.567874E-04 -3.810540E-05 -1.380200E-05 
 +3.134899E-04 -9.260005E-05 -2.102222E-04 -9.260005E-05 +4.908073E-03 +5.334370E-05 -2.102222E-04 +5.334370E-05 -1.936547E-05 
 +6.125686E-05 -1.499629E-04 +2.591027E-04 -1.499629E-04 +4.999467E-03 -4.600168E-05 +2.591027E-04 -4.600168E-05 -5.619506E-05 
 +4.493871E-05 -1.345513E-04 +2.354600E-04 -1.345513E-04 +5.019066E-03 -1.590944E-04 +2.354600E-04 -1.590944E-04 +1.790321E-05 
 +5.433481E-05 -9.579593E-05 +6.523307E-05 -9.579593E-05 +4.928092E-03 -1.217257E-04 +6.523307E-05 -1.217257E-04 -6.822470E-05 
 +1.605728E-05 -7.926691E-05 -1.667252E-04 -7.926691E-05 +4.937522E-03 -8.307517E-05 -1.667252E-04 -8.307517E-05 -1.059223E-04 
 -5.479525E-05 -6.533113E-05 -1.326114E-04 -6.533113E-05 +4.978601E-03 -7.643277E-05 -1.326114E-04 -7.643277E-05 +2.398783E-05 
 -6.980118E-05 -5.674101E-05 -1.053621E-04 -5.674101E-05 +4.995782E-03 -7.612588E-05 -1.053621E-04 -7.612588E-05 +5.635681E-05 
 -1.212563E-04 -5.355337E-05 -6.135424E-05 -5.355337E-05 +5.010878E-03 -9.590658E-05 -6.135424E-05 -9.590658E-05 +1.154582E-04 
 -2.157124E-04 -4.870574E-07 -1.182067E-04 -4.870574E-07 +4.990170E-03 -1.247302E-04 -1.182067E-04 -1.247302E-04 +1.763132E-04 
 -3.088989E-04 -4.168799E-06 -3.428872E-05 -4.168799E-06 +4.969985E-03 -2.002362E-04 -3.428872E-05 -2.002362E-04 +1.847543E-04 
 -3.170545E-04 -7.853733E-05 -2.010049E-04 -7.853733E-05 +5.004390E-03 -1.808753E-04 -2.010049E-04 -1.808753E-04 -2.976470E-05 
 +1.089674E-04 -1.528486E-04 +1.584631E-04 -1.528486E-04 +5.024878E-03 -1.143298E-04 +1.584631E-04 -1.143298E-04 -1.578718E-04 
 +1.910666E-04 -1.568797E-04 +9.382744E-05 -1.568797E-04 +5.051143E-03 -1.223299E-04 +9.382744E-05 -1.223299E-04 -1.506152E-04 
 +2.618331E-04 -1.280988E-04 +9.468461E-05 -1.280988E-04 +5.104145E-03 -1.190919E-04 +9.468461E-05 -1.190919E-04 -1.840325E-04 
 +2.904930E-04 -9.819444E-06 +7.804123E-06 -9.819444E-06 +5.095590E-03 -5.611692E-05 +7.804123E-06 -5.611692E-05 -2.211538E-04 
 +1.851695E-04 +8.000206E-05 +4.088637E-05 +8.000206E-05 +5.037929E-03 +3.013630E-05 +4.088637E-05 +3.013630E-05 -1.251962E-04 
 -1.690677E-04 +6.969562E-05 +1.095377E-04 +6.969562E-05 +4.996424E-03 +6.501405E-05 +1.095377E-04 +6.501405E-05 +1.841772E-04 
 -1.212800E-04 +7.902528E-05 -4.303097E-06 +7.902528E-05 +5.009276E-03 +6.307462E-05 -4.303097E-06 +6.307462E-05 +2.789073E-04 
 -6.628271E-05 +1.508124E-04 -1.221242E-04 +1.508124E-04 +5.049276E-03 +4.409562E-05 -1.221242E-04 +4.409562E-05 +2.192010E-04 
 -4.971100E-05 +1.032092E-04 +7.471471E-05 +1.032092E-04 +5.066810E-03 -1.451686E-05 +7.471471E-05 -1.451686E-05 +3.634108E-05 
 +7.062823E-05 -1.227535E-05 +1.622993E-04 -1.227535E-05 +5.051589E-03 -5.835759E-05 +1.622993E-04 -5.835759E-05 -5.678982E-05 
 +1.412261E-04 -3.076705E-05 -2.965379E-05 -3.076705E-05 +5.042606E-03 +3.693013E-05 -2.965379E-05 +3.693013E-05 +8.456952E-06 
 +7.295663E-05 -7.182301E-05 +1.474172E-04 -7.182301E-05 +5.042390E-03 +2.563050E-05 +1.474172E-04 +2.563050E-05 -2.621180E-05 
 +4.796246E-05 -1.296963E-04 +1.929530E-04 -1.296963E-04 +5.028362E-03 -1.381109E-04 +1.929530E-04 -1.381109E-04 +3.793411E-05 
 +6.429744E-05 -1.115909E-04 +1.178202E-04 -1.115909E-04 +4.970478E-03 -1.201373E-04 +1.178202E-04 -1.201373E-04 -4.809338E-05 
 +3.630254E-05 -5.519649E-05 -1.841356E-04 -5.519649E-05 +4.938447E-03 -7.326736E-05 -1.841356E-04 -7.326736E-05 -8.945216E-05 
 -3.689196E-05 -4.929169E-05 -1.509672E-04 -4.929169E-05 +4.967755E-03 -8.638418E-05 -1.509672E-04 -8.638418E-05 +2.449779E-05 
 -5.763847E-05 -3.139692E-05 -1.365318E-04 -3.139692E-05 +4.989991E-03 -7.304695E-05 -1.365318E-04 -7.304695E-05 +3.866086E-05 
 -1.284232E-04 -1.007445E-05 -1.112767E-04 -1.007445E-05 +5.005740E-03 -8.848689E-05 -1.112767E-04 -8.848689E-05 +1.035888E-04 
 -2.700915E-04 +2.493487E-05 -1.420195E-04 +2.493487E-05 +5.065637E-03 -6.401334E-05 -1.420195E-04 -6.401334E-05 +1.012903E-04 
 -4.902424E-04 -1.503215E-05 -1.030433E-04 -1.503215E-05 +5.113150E-03 -9.812917E-05 -1.030433E-04 -9.812917E-05 +1.730755E-04 
 -4.215004E-04 -5.695641E-05 -9.042502E-05 -5.695641E-05 +5.056413E-03 -9.110511E-05 -9.042502E-05 -9.110511E-05 -1.311776E-05 
 +1.523472E-04 -1.188336E-04 +1.942522E-04 -1.188336E-04 +5.016654E-03 -5.740417E-05 +1.942522E-04 -5.740417E-05 -1.907730E-04 
 +2.994781E-04 -1.574229E-04 +1.362863E-04 -1.574229E-04 +5.045051E-03 -1.052855E-04 +1.362863E-04 -1.052855E-04 -2.144812E-04 
 +3.303349E-04 -1.300294E-04 +1.282462E-04 -1.300294E-04 +5.063859E-03 -1.241643E-04 +1.282462E-04 -1.241643E-04 -2.643272E-04 
 +3.970317E-04 -1.097997E-04 +5.274897E-05 -1.097997E-04 +5.071811E-03 -7.278332E-05 +5.274897E-05 -7.278332E-05 -3.381566E-04 
 +2.983230E-04 -1.099335E-04 +5.470245E-05 -1.099335E-04 +5.048551E-03 +3.669556E-05 +5.470245E-05 +3.669556E-05 -2.575654E-04 
 -1.760423E-04 -3.552618E-05 +7.910589E-05 -3.552618E-05 +5.019997E-03 +1.259698E-04 +7.910589E-05 +1.259698E-04 +8.774646E-05 
 -2.496056E-04 +4.049525E-05 -7.789443E-06 +4.049525E-05 +5.008310E-03 +1.299042E-04 -7.789443E-06 +1.299042E-04 +3.207437E-04 
 -1.615209E-04 +5.253031E-05 -8.226430E-05 +5.253031E-05 +5.005892E-03 +1.337256E-04 -8.226430E-05 +1.337256E-04 +3.215462E-04 
 +3.660144E-05 +9.680989E-05 -7.717186E-05 +9.680989E-05 +5.022225E-03 +5.952603E-05 -7.717186E-05 +5.952603E-05 +1.286804E-04 
 +1.423555E-04 -9.015434E-06 +1.914809E-04 -9.015434E-06 +5.027126E-03 -5.161287E-06 +1.914809E-04 -5.161287E-06 +1.978317E-06 
 +5.507144E-05 +1.499434E-06 +1.250929E-04 +1.499434E-06 +5.029125E-03 +2.514117E-05 +1.250929E-04 +2.514117E-05 +7.792788E-05 
 +6.188299E-05 -1.779034E-05 +7.704665E-05 -1.779034E-05 +5.016550E-03 +1.697688E-05 +7.704665E-05 +1.697688E-05 +1.101347E-04 
 +7.230767E-05 -6.763763E-05 +1.386063E-04 -6.763763E-05 +4.987190E-03 -7.276188E-05 +1.386063E-04 -7.276188E-05 +1.045212E-04 
 +3.341606E-05 -6.540667E-05 +2.416841E-04 -6.540667E-05 +4.973521E-03 -1.410674E-04 +2.416841E-04 -1.410674E-04 -4.926346E-05 
 +2.315840E-05 +2.430735E-05 -1.912416E-04 +2.430735E-05 +4.974791E-03 -8.508560E-05 -1.912416E-04 -8.508560E-05 -1.189730E-04 
 -9.417590E-06 +3.137239E-06 -2.165939E-04 +3.137239E-06 +4.995972E-03 -2.987065E-05 -2.165939E-04 -2.987065E-05 -4.419054E-05 
 -2.190883E-05 +3.047427E-05 -2.354763E-04 +3.047427E-05 +5.013074E-03 -4.166656E-05 -2.354763E-04 -4.166656E-05 -4.154658E-05 
 -1.021054E-04 +5.082005E-05 -1.755604E-04 +5.082005E-05 +5.026833E-03 -7.096089E-05 -1.755604E-04 -7.096089E-05 +7.441586E-06 
 -4.183345E-04 +1.382838E-05 -9.864499E-05 +1.382838E-05 +5.206275E-03 +5.603972E-06 -9.864499E-05 +5.603972E-06 +9.108538E-06 
 -5.272807E-04 -1.077237E-05 -1.505795E-04 -1.077237E-05 +5.183858E-03 -9.512750E-06 -1.505795E-04 -9.512750E-06 +1.258543E-04 
 -4.025651E-04 -2.517831E-05 -8.000841E-05 -2.517831E-05 +5.075344E-03 -7.569150E-05 -8.000841E-05 -7.569150E-05 -3.074684E-05 
 +7.252965E-05 +1.477653E-06 +2.230243E-04 +1.477653E-06 +5.000814E-03 -1.120987E-04 +2.230243E-04 -1.120987E-04 -1.286931E-04 
 +3.251110E-04 -1.022237E-04 +1.589027E-04 -1.022237E-04 +4.992513E-03 -1.084999E-04 +1.589027E-04 -1.084999E-04 -1.274730E-04 
 +3.722741E-04 -1.278897E-04 +1.307030E-04 -1.278897E-04 +4.983733E-03 -1.037859E-04 +1.307030E-04 -1.037859E-04 -2.175071E-04 
 +3.203141E-04 -1.534940E-04 +7.065200E-05 -1.534940E-04 +4.980701E-03 -2.237220E-05 +7.065200E-05 -2.237220E-05 -2.178655E-04 
 +2.577065E-04 -2.357097E-04 +9.552048E-05 -2.357097E-04 +5.004242E-03 +1.299228E-04 +9.552048E-05 +1.299228E-04 -2.064194E-04 
 +1.390604E-05 -2.044428E-04 +1.278922E-04 -2.044428E-04 +5.055155E-03 +2.522812E-04 +1.278922E-04 +2.522812E-04 -8.092683E-05 
 -3.414457E-04 -4.322728E-05 -9.773993E-06 -4.322728E-05 +5.128349E-03 +2.735403E-04 -9.773993E-06 +2.735403E-04 +2.299014E-04 
 -1.793342E-04 -1.741719E-05 -9.730363E-06 -1.741719E-05 +5.020425E-03 +2.158595E-04 -9.730363E-06 +2.158595E-04 +3.078484E-04 
 +2.302929E-04 +1.025500E-04 -1.055110E-04 +1.025500E-04 +4.841999E-03 +1.527799E-04 -1.055110E-04 +1.527799E-04 +1.574745E-04 
 +1.653829E-04 +3.493057E-05 +9.713760E-05 +3.493057E-05 +4.906577E-03 +3.730771E-05 +9.713760E-05 +3.730771E-05 +7.185764E-05 
 +9.344342E-05 +3.276779E-05 +1.298426E-04 +3.276779E-05 +4.964677E-03 -2.611196E-05 +1.298426E-04 -2.611196E-05 +8.464822E-05 
 +6.468761E-05 +4.464070E-05 +1.277016E-04 +4.464070E-05 +4.967556E-03 -8.180646E-06 +1.277016E-04 -8.180646E-06 +1.932239E-04 
 +4.189635E-05 -1.827075E-05 +1.154472E-04 -1.827075E-05 +5.016184E-03 -1.826178E-05 +1.154472E-04 -1.826178E-05 +1.690716E-04 
 +2.442978E-05 -4.968160E-05 +1.138515E-04 -4.968160E-05 +5.041956E-03 -8.179288E-05 +1.138515E-04 -8.179288E-05 -8.295361E-05 
 -1.129147E-05 +6.867519E-05 -2.109937E-04 +6.867519E-05 +5.069052E-03 -7.539914E-05 -2.109937E-04 -7.539914E-05 -1.830620E-04 
 -4.706813E-05 +3.496802E-05 -2.355386E-04 +3.496802E-05 +5.125531E-03 +4.416386E-05 -2.355386E-04 +4.416386E-05 -1.255127E-04 
 -1.667226E-05 -1.918114E-05 -3.236932E-04 -1.918114E-05 +5.155916E-03 +1.106387E-04 -3.236932E-04 +1.106387E-04 -1.255856E-04 
 -3.812287E-05 +1.221403E-05 -2.575581E-04 +1.221403E-05 +5.163894E-03 +5.767487E-05 -2.575581E-04 +5.767487E-05 -1.107907E-04 
 -4.011139E-04 -1.653745E-05 -9.283156E-05 -1.653745E-05 +5.224874E-03 +1.107347E-04 -9.283156E-05 +1.107347E-04 +3.556129E-05 
 -4.325788E-04 +1.962626E-05 -1.827611E-04 +1.962626E-05 +5.179975E-03 +5.340698E-05 -1.827611E-04 +5.340698E-05 +1.075866E-04 
 -3.540352E-04 -2.094111E-05 -1.287726E-04 -2.094111E-05 +5.107917E-03 -1.728282E-05 -1.287726E-04 -1.728282E-05 -4.702647E-05 
 +1.498255E-05 +4.393179E-05 +2.449874E-04 +4.393179E-05 +4.994014E-03 -7.435314E-05 +2.449874E-04 -7.435314E-05 -6.476392E-05 
 +2.377993E-04 -1.058391E-05 +2.037122E-04 -1.058391E-05 +4.939996E-03 -7.041115E-05 +2.037122E-04 -7.041115E-05 +2.446727E-05 
 +3.471971E-04 -7.590115E-05 +1.233198E-04 -7.590115E-05 +4.949951E-03 -6.907021E-05 +1.233198E-04 -6.907021E-05 -1.491288E-04 
 +2.215543E-04 -8.463052E-05 +1.023470E-04 -8.463052E-05 +4.984915E-03 -2.304109E-05 +1.023470E-04 -2.304109E-05 -1.949361E-04 
 +1.354936E-04 -1.435738E-04 +1.239761E-04 -1.435738E-04 +5.015035E-03 +1.262636E-04 +1.239761E-04 +1.262636E-04 -1.874015E-04 
 +7.039521E-05 -1.463590E-04 +5.705546E-05 -1.463590E-04 +5.042295E-03 +2.003357E-04 +5.705546E-05 +2.003357E-04 -1.315462E-04 
 -1.348489E-04 -2.172605E-05 -7.143253E-05 -2.172605E-05 +5.000983E-03 +1.721056E-04 -7.143253E-05 +1.721056E-04 +9.441478E-05 
 -8.327116E-05 +3.868560E-05 -2.444557E-05 +3.868560E-05 +4.929366E-03 +1.518974E-04 -2.444557E-05 +1.518974E-04 +1.677898E-04 
 +1.542271E-04 +7.863281E-05 -7.685764E-05 +7.863281E-05 +4.811670E-03 +1.168020E-04 -7.685764E-05 +1.168020E-04 +9.271656E-05 
 +2.233449E-04 +4.029998E-05 -8.158895E-05 +4.029998E-05 +4.736401E-03 +4.001333E-05 -8.158895E-05 +4.001333E-05 +7.169493E-05 
 +1.395619E-04 -3.536144E-05 +1.210898E-04 -3.536144E-05 +4.831766E-03 -3.105710E-05 +1.210898E-04 -3.105710E-05 +9.701439E-05 
 +7.857368E-05 +1.583808E-07 +9.875165E-05 +1.583808E-07 +4.927903E-03 -6.677962E-05 +9.875165E-05 -6.677962E-05 +2.136604E-04 
 +2.030962E-05 -5.135647E-05 +9.914350E-05 -5.135647E-05 +5.016841E-03 -4.507966E-05 +9.914350E-05 -4.507966E-05 +2.025311E-04 
 +1.219176E-05 -4.902965E-05 -2.301547E-04 -4.902965E-05 +5.107260E-03 -7.099318E-05 -2.301547E-04 -7.099318E-05 -9.601547E-05 
 -2.853856E-05 +4.941132E-05 -2.836281E-04 +4.941132E-05 +5.178255E-03 -2.972804E-05 -2.836281E-04 -2.972804E-05 -1.878980E-04 
 -9.552897E-05 +3.801488E-05 -2.529865E-04 +3.801488E-05 +5.187225E-03 +1.189868E-04 -2.529865E-04 +1.189868E-04 -5.045065E-05 
 -6.411936E-05 -1.192120E-05 -4.069476E-04 -1.192120E-05 +5.174552E-03 +9.721701E-05 -4.069476E-04 +9.721701E-05 -8.919007E-05 
 -6.172347E-05 -1.397723E-05 -2.331754E-04 -1.397723E-05 +5.214513E-03 +9.813784E-05 -2.331754E-04 +9.813784E-05 -9.308413E-05 
 -2.621097E-04 -5.898295E-05 -1.411804E-04 -5.898295E-05 +5.124831E-03 +1.030799E-04 -1.411804E-04 +1.030799E-04 +8.995372E-05 
 -2.341687E-04 -1.588288E-05 -1.960156E-04 -1.588288E-05 +5.104548E-03 -6.440762E-06 -1.960156E-04 -6.440762E-06 +8.274294E-05 
 -1.905881E-04 +3.805343E-05 -1.225466E-04 +3.805343E-05 +5.052581E-03 -5.111847E-05 -1.225466E-04 -5.111847E-05 +2.458002E-05 
 -2.473288E-05 +1.288141E-04 +1.926090E-04 +1.288141E-04 +4.963835E-03 -5.748709E-05 +1.926090E-04 -5.748709E-05 +6.234590E-05 
 +6.500307E-05 +1.078022E-04 +1.941724E-04 +1.078022E-04 +4.917538E-03 -7.720711E-05 +1.941724E-04 -7.720711E-05 +1.329464E-04 
 +1.694674E-04 -2.669596E-05 +1.843781E-04 -2.669596E-05 +4.997290E-03 -4.036953E-05 +1.843781E-04 -4.036953E-05 -1.091196E-04 
 +2.008100E-04 -7.804524E-05 +9.911002E-05 -7.804524E-05 +5.064900E-03 +4.274771E-05 +9.911002E-05 +4.274771E-05 -2.366300E-04 
 +1.631885E-04 -9.980965E-05 +9.702674E-05 -9.980965E-05 +5.031766E-03 +6.250741E-05 +9.702674E-05 +6.250741E-05 -1.720633E-04 
 +7.612277E-05 +3.770457E-05 -6.927875E-05 +3.770457E-05 +4.983297E-03 +4.934797E-05 -6.927875E-05 +4.934797E-05 -7.800841E-05 
 +2.588817E-05 +5.159196E-05 -6.303718E-05 +5.159196E-05 +4.964993E-03 +7.694293E-05 -6.303718E-05 +7.694293E-05 +9.951998E-06 
 -2.285413E-05 +2.380422E-05 -4.267180E-05 +2.380422E-05 +4.964698E-03 +1.013172E-04 -4.267180E-05 +1.013172E-04 +4.286879E-05 
 -6.273913E-06 -6.778566E-06 -9.721140E-05 -6.778566E-06 +4.920309E-03 +5.993421E-05 -9.721140E-05 +5.993421E-05 +4.755624E-06 
 +1.381265E-04 -1.830757E-05 -1.175835E-04 -1.830757E-05 +4.706832E-03 +1.018673E-04 -1.175835E-04 +1.018673E-04 +2.333776E-05 
 +2.001512E-04 -5.037436E-05 +2.334410E-05 -5.037436E-05 +4.567258E-03 +1.358654E-04 +2.334410E-05 +1.358654E-04 +1.665622E-04 
 +8.240379E-05 -1.348544E-05 -1.024272E-04 -1.348544E-05 +4.595951E-03 +1.011627E-04 -1.024272E-04 +1.011627E-04 +3.101405E-04 
 +4.846330E-05 -1.164518E-05 -4.837855E-05 -1.164518E-05 +4.728726E-03 +7.033071E-05 -4.837855E-05 +7.033071E-05 +2.328331E-04 
 -2.491804E-07 +2.943139E-06 -4.426683E-04 +2.943139E-06 +5.013731E-03 -3.866824E-05 -4.426683E-04 -3.866824E-05 -6.053756E-05 
 -4.004916E-05 +2.035991E-05 -2.411693E-04 +2.035991E-05 +5.171339E-03 -4.798177E-05 -2.411693E-04 -4.798177E-05 -1.893898E-04 
 -7.296535E-05 -1.292947E-05 -2.808324E-04 -1.292947E-05 +5.140258E-03 +3.618484E-05 -2.808324E-04 +3.618484E-05 -1.940620E-05 
 -1.258911E-04 -1.933161E-05 -4.251285E-04 -1.933161E-05 +5.141496E-03 +8.994955E-05 -4.251285E-04 +8.994955E-05 +2.222190E-05 
 -1.897793E-04 -2.543001E-05 -9.654133E-05 -2.543001E-05 +5.142675E-03 +1.577405E-04 -9.654133E-05 +1.577405E-04 +2.809828E-05 
 -2.091315E-04 -3.034454E-05 -5.882816E-05 -3.034454E-05 +5.012859E-03 +4.115594E-05 -5.882816E-05 +4.115594E-05 +1.056509E-04 
 +6.894581E-06 -8.010201E-05 -1.369657E-04 -8.010201E-05 +4.949902E-03 -4.144963E-05 -1.369657E-04 -4.144963E-05 -2.450098E-05 
 +1.854011E-05 -4.833266E-05 -1.030558E-04 -4.833266E-05 +4.905352E-03 -8.222462E-05 -1.030558E-04 -8.222462E-05 +4.952205E-05 
 -6.216887E-06 -4.855132E-06 +3.619806E-05 -4.855132E-06 +4.885860E-03 -7.173195E-05 +3.619806E-05 -7.173195E-05 +1.658233E-04 
 -4.995063E-05 +1.578560E-04 +1.286045E-04 +1.578560E-04 +4.893252E-03 -1.484330E-05 +1.286045E-04 -1.484330E-05 +1.330255E-04 
 +5.715019E-05 +1.588160E-04 +1.930907E-04 +1.588160E-04 +4.912257E-03 +1.264019E-05 +1.930907E-04 +1.264019E-05 -6.738854E-05 
 +1.946642E-04 +1.502223E-04 +7.454301E-05 +1.502223E-04 +4.860121E-03 +5.766539E-06 +7.454301E-05 +5.766539E-06 -1.866298E-04 
 +1.872751E-04 +8.106775E-05 +3.725540E-05 +8.106775E-05 +4.903211E-03 +9.459011E-06 +3.725540E-05 +9.459011E-06 -1.440480E-04 
 +9.249630E-05 +9.156265E-05 -5.585650E-05 +9.156265E-05 +4.967949E-03 +3.911717E-05 -5.585650E-05 +3.911717E-05 -7.879532E-05 
 +3.952366E-05 +1.069631E-04 -4.827302E-05 +1.069631E-04 +4.978405E-03 +6.271221E-05 -4.827302E-05 +6.271221E-05 -3.382845E-05 
 -2.748223E-05 +1.157229E-04 -5.119134E-05 +1.157229E-04 +5.009869E-03 +5.484226E-05 -5.119134E-05 +5.484226E-05 -7.416543E-06 
 -3.329504E-05 +4.528405E-05 -1.112813E-04 +4.528405E-05 +4.995138E-03 +7.011032E-05 -1.112813E-04 +7.011032E-05 -5.066774E-05 
 -1.218342E-05 -3.263499E-05 -1.582887E-04 -3.263499E-05 +4.839390E-03 +9.026466E-05 -1.582887E-04 +9.026466E-05 -3.964062E-05 
 +1.080566E-04 +4.635579E-06 -1.444712E-04 +4.635579E-06 +4.661212E-03 +1.298907E-04 -1.444712E-04 +1.298907E-04 +6.266608E-05 
 +1.187708E-05 -4.297778E-05 -3.162949E-04 -4.297778E-05 +4.650157E-03 +1.316242E-04 -3.162949E-04 +1.316242E-04 +1.826962E-04 
 -1.433016E-05 -1.925167E-05 -2.856193E-04 -1.925167E-05 +4.814634E-03 +7.430869E-05 -2.856193E-04 +7.430869E-05 +7.945100E-05 
 +5.782711E-05 -5.678551E-07 -3.893329E-04 -5.678551E-07 +5.042034E-03 +1.834377E-05 -3.893329E-04 +1.834377E-05 -1.423536E-04 
 +2.155849E-06 -7.038600E-05 -3.797818E-05 -7.038600E-05 +5.135920E-03 -8.851134E-05 -3.797818E-05 -8.851134E-05 -1.847003E-04 
 -3.730580E-05 -1.006481E-04 -6.743230E-05 -1.006481E-04 +5.103854E-03 -1.472878E-04 -6.743230E-05 -1.472878E-04 -6.728968E-05 
 -1.576950E-04 -5.944061E-05 -1.568801E-04 -5.944061E-05 +5.063543E-03 +3.456002E-05 -1.568801E-04 +3.456002E-05 +9.496999E-05 
 -2.289255E-04 -4.127100E-05 -3.475312E-05 -4.127100E-05 +5.031566E-03 +1.331450E-04 -3.475312E-05 +1.331450E-04 +1.871171E-04 
 -1.451029E-04 +3.456718E-05 +1.597570E-05 +3.456718E-05 +4.951606E-03 +5.855105E-05 +1.597570E-05 +5.855105E-05 +8.185639E-05 
 +8.068393E-05 -4.635170E-05 -3.067006E-05 -4.635170E-05 +4.882823E-03 -2.749732E-05 -3.067006E-05 -2.749732E-05 -1.169863E-04 
 +9.814465E-05 -8.264032E-05 -7.509733E-05 -8.264032E-05 +4.833462E-03 -1.298941E-06 -7.509733E-05 -1.298941E-06 -1.742385E-05 
 +6.557227E-05 -4.642346E-05 -4.818773E-06 -4.642346E-05 +4.854320E-03 +4.329828E-05 -4.818773E-06 +4.329828E-05 +1.103988E-04 
 +6.922125E-06 +1.268501E-04 +1.031521E-04 +1.268501E-04 +4.909722E-03 +7.111985E-05 +1.031521E-04 +7.111985E-05 +4.720176E-05 
 +8.376299E-05 +9.983687E-05 +9.297814E-05 +9.983687E-05 +4.883660E-03 +7.653431E-05 +9.297814E-05 +7.653431E-05 -3.980536E-05 
 +1.543302E-04 +7.710270E-05 +1.050569E-04 +7.710270E-05 +4.868808E-03 +1.139910E-04 +1.050569E-04 +1.139910E-04 -1.085915E-04 
 +1.445369E-04 +9.183790E-05 -5.269629E-05 +9.183790E-05 +4.890790E-03 +1.186714E-04 -5.269629E-05 +1.186714E-04 -1.231746E-04 
 +1.120950E-04 +1.452507E-04 -3.105965E-05 +1.452507E-04 +4.954134E-03 +3.290558E-05 -3.105965E-05 +3.290558E-05 -1.020514E-04 
 +4.565825E-05 +1.501814E-04 +1.740543E-05 +1.501814E-04 +4.977582E-03 +3.291938E-05 +1.740543E-05 +3.291938E-05 -7.048144E-05 
 +6.421517E-06 +1.785249E-04 -6.019975E-05 +1.785249E-04 +5.008619E-03 +3.927015E-05 -6.019975E-05 +3.927015E-05 -1.040304E-05 
 -4.214670E-05 +8.801755E-05 -1.304113E-05 +8.801755E-05 +5.080851E-03 +1.056000E-04 -1.304113E-05 +1.056000E-04 -6.483809E-05 
 -1.830430E-04 -7.559815E-05 -2.427552E-04 -7.559815E-05 +5.125813E-03 +1.481256E-04 -2.427552E-04 +1.481256E-04 -1.146974E-04 
 -1.132126E-04 -2.598979E-05 -2.478853E-04 -2.598979E-05 +5.152882E-03 +5.990607E-05 -2.478853E-04 +5.990607E-05 -1.134259E-04 
 -1.492511E-04 -1.773510E-05 -4.284973E-04 -1.773510E-05 +5.153064E-03 -6.064716E-06 -4.284973E-04 -6.064716E-06 -3.703886E-05 
 -1.279459E-04 +4.746096E-05 -4.589150E-04 +4.746096E-05 +5.128748E-03 -1.395002E-05 -4.589150E-04 -1.395002E-05 -6.708840E-05 
 +1.445205E-04 +4.079516E-05 -2.909856E-04 +4.079516E-05 +5.074094E-03 +2.105860E-05 -2.909856E-04 +2.105860E-05 -2.118483E-04 
 +9.063335E-05 -7.846846E-05 +3.520335E-05 -7.846846E-05 +5.045130E-03 -6.586745E-05 +3.520335E-05 -6.586745E-05 -7.450617E-05 
 -5.510038E-06 -1.134540E-04 +1.533626E-04 -1.134540E-04 +5.062647E-03 -1.452274E-04 +1.533626E-04 -1.452274E-04 -6.080369E-06 
 -8.236496E-05 -6.208342E-05 +1.178652E-04 -6.208342E-05 +5.030848E-03 -7.210523E-05 +1.178652E-04 -7.210523E-05 +1.418346E-05 
 -1.847863E-04 +3.019923E-05 +3.985699E-05 +3.019923E-05 +5.001051E-03 +5.236457E-05 +3.985699E-05 +5.236457E-05 +1.598503E-04 
 -3.613702E-05 -6.391927E-05 +4.148274E-06 -6.391927E-05 +4.882070E-03 -3.493020E-05 +4.148274E-06 -3.493020E-05 -1.896508E-05 
 +8.214971E-05 -5.812654E-05 +5.495198E-05 -5.812654E-05 +4.819682E-03 -7.623661E-05 +5.495198E-05 -7.623661E-05 -1.351587E-04 
 +1.771375E-04 -7.045211E-05 +1.366203E-05 -7.045211E-05 +4.823249E-03 +2.497470E-05 +1.366203E-05 +2.497470E-05 -8.794171E-05 
 +1.204505E-04 +8.346949E-05 +5.313992E-05 +8.346949E-05 +4.884429E-03 +8.982221E-05 +5.313992E-05 +8.982221E-05 -8.045265E-06 
 +4.331148E-05 +1.452250E-04 +4.922722E-05 +1.452250E-04 +4.923466E-03 +6.398608E-05 +4.922722E-05 +6.398608E-05 -1.064820E-05 
 +7.358560E-05 +8.599740E-05 +2.053181E-05 +8.599740E-05 +4.886155E-03 +6.791689E-05 +2.053181E-05 +6.791689E-05 -3.346587E-05 
 +1.226844E-04 +8.002762E-05 +1.201590E-04 +8.002762E-05 +4.867771E-03 +5.387527E-05 +1.201590E-04 +5.387527E-05 -8.764914E-05 
 +1.416458E-04 +1.221730E-04 -1.230491E-04 +1.221730E-04 +4.887995E-03 +3.828789E-05 -1.230491E-04 +3.828789E-05 -1.288852E-04 
 +1.023490E-04 +1.356251E-04 -3.660985E-05 +1.356251E-04 +4.973368E-03 +3.932291E-05 -3.660985E-05 +3.932291E-05 -1.203977E-04 
 +2.191678E-05 +4.442336E-05 +1.215678E-04 +4.442336E-05 +5.034227E-03 +5.400045E-05 +1.215678E-04 +5.400045E-05 -1.004918E-04 
 +7.813091E-05 +1.217130E-04 -7.168835E-05 +1.217130E-04 +5.034090E-03 +3.211401E-05 -7.168835E-05 +3.211401E-05 +8.419247E-06 
 -1.699428E-05 +7.938868E-05 +1.063946E-04 +7.938868E-05 +5.111328E-03 +2.582781E-05 +1.063946E-04 +2.582781E-05 +8.685801E-06 
 -3.374141E-04 -3.126442E-05 -2.254455E-04 -3.126442E-05 +5.252509E-03 +1.561683E-05 -2.254455E-04 +1.561683E-05 -1.247047E-04 
 -2.872092E-04 +2.042717E-05 -2.511192E-04 +2.042717E-05 +5.300982E-03 -6.431118E-05 -2.511192E-04 -6.431118E-05 -1.772722E-04 
 -2.635918E-04 +5.042496E-05 -4.014194E-04 +5.042496E-05 +5.262444E-03 -1.218571E-04 -4.014194E-04 -1.218571E-04 -6.007653E-05 
 -2.186716E-04 +1.100907E-04 -4.699570E-04 +1.100907E-04 +5.160892E-03 -8.925617E-05 -4.699570E-04 -8.925617E-05 -7.259039E-05 
 +1.856874E-04 +1.075429E-04 -2.566748E-04 +1.075429E-04 +5.039553E-03 -2.881486E-05 -2.566748E-04 -2.881486E-05 -2.259324E-04 
 +1.490966E-04 +1.430680E-05 +5.665012E-06 +1.430680E-05 +5.009129E-03 -3.229913E-05 +5.665012E-06 -3.229913E-05 -5.702636E-05 
 +2.828061E-05 -3.427787E-05 +2.058617E-04 -3.427787E-05 +5.031755E-03 -5.356970E-05 +2.058617E-04 -5.356970E-05 +2.460776E-05 
 -2.876440E-05 -5.784630E-05 +2.163162E-04 -5.784630E-05 +5.042862E-03 -5.266249E-05 +2.163162E-04 -5.266249E-05 -6.735874E-05 
 -1.377079E-04 -1.542113E-05 +1.732546E-04 -1.542113E-05 +4.999149E-03 -1.913889E-05 +1.732546E-04 -1.913889E-05 -1.278837E-05 
 -4.805922E-05 -8.416397E-05 +8.054077E-05 -8.416397E-05 +4.855813E-03 -6.623523E-05 +8.054077E-05 -6.623523E-05 -9.716574E-05 
 +1.006131E-04 -1.306267E-04 +1.188915E-04 -1.306267E-04 +4.745206E-03 -7.428597E-05 +1.188915E-04 -7.428597E-05 -1.665455E-04 
 +2.673357E-04 -1.181082E-04 +8.773244E-05 -1.181082E-04 +4.725421E-03 +9.166033E-06 +8.773244E-05 +9.166033E-06 -2.510766E-04 
 +2.270520E-04 +7.705568E-05 +1.565169E-05 +7.705568E-05 +4.844581E-03 +7.564950E-05 +1.565169E-05 +7.564950E-05 -2.148543E-04 
 +1.347109E-04 +1.389417E-04 -6.983006E-05 +1.389417E-04 +4.898926E-03 +5.133107E-05 -6.983006E-05 +5.133107E-05 -9.503402E-05 
 +8.482947E-05 +1.693593E-04 -5.241401E-05 +1.693593E-04 +4.896277E-03 +2.730188E-05 -5.241401E-05 +2.730188E-05 -5.068514E-05 
 +4.414020E-05 +1.284274E-04 +4.959506E-05 +1.284274E-04 +4.871886E-03 -1.145166E-05 +4.959506E-05 -1.145166E-05 -7.776170E-05 
 +3.970157E-05 +1.683328E-04 -9.892759E-05 +1.683328E-04 +4.918737E-03 -9.658902E-06 -9.892759E-05 -9.658902E-06 -1.128665E-04 
 +3.025523E-05 +1.396060E-04 -3.771901E-05 +1.396060E-04 +4.987318E-03 +3.394214E-05 -3.771901E-05 +3.394214E-05 -1.327893E-04 
 +6.652627E-06 +6.326965E-05 +1.218070E-04 +6.326965E-05 +5.033296E-03 +3.596665E-05 +1.218070E-04 +3.596665E-05 -1.437856E-04 
 +5.456034E-05 +4.669715E-05 +2.125054E-05 +4.669715E-05 +5.082099E-03 +3.490424E-05 +2.125054E-05 +3.490424E-05 -2.826704E-05 
 -3.430429E-05 -2.816836E-05 +9.425824E-05 -2.816836E-05 +5.101042E-03 -6.488904E-05 +9.425824E-05 -6.488904E-05 +4.837154E-05 
 -3.336814E-04 -1.150800E-04 -1.223111E-04 -1.150800E-04 +5.226182E-03 -1.646118E-04 -1.223111E-04 -1.646118E-04 -8.792007E-05 
 -3.533213E-04 -7.879901E-05 -1.945154E-04 -7.879901E-05 +5.299786E-03 -2.302011E-04 -1.945154E-04 -2.302011E-04 -1.915489E-04 
 -2.899064E-04 +6.531434E-06 -1.983832E-04 +6.531434E-06 +5.239892E-03 -2.329010E-04 -1.983832E-04 -2.329010E-04 -7.820539E-05 
 -2.193640E-04 +9.493862E-05 -2.755353E-04 +9.493862E-05 +5.157145E-03 -1.065189E-04 -2.755353E-04 -1.065189E-04 -1.239063E-04 
 +1.644652E-04 +1.417581E-04 -1.353905E-04 +1.417581E-04 +5.092016E-03 -3.946435E-05 -1.353905E-04 -3.946435E-05 -2.831558E-04 
 +2.032853E-04 +8.149168E-05 +4.689175E-05 +8.149168E-05 +5.083292E-03 -4.751541E-05 +4.689175E-05 -4.751541E-05 -1.659683E-04 
 +6.206346E-05 +3.448404E-05 +2.437495E-04 +3.448404E-05 +5.086875E-03 -4.282096E-05 +2.437495E-04 -4.282096E-05 -7.851588E-05 
 -3.377635E-05 +1.624845E-05 +2.778105E-04 +1.624845E-05 +5.062443E-03 -1.732421E-05 +2.778105E-04 -1.732421E-05 -9.263531E-05 
 -1.073922E-04 +2.159115E-05 +2.581319E-04 +2.159115E-05 +4.966515E-03 -2.935473E-05 +2.581319E-04 -2.935473E-05 -8.005319E-05 
 -1.819727E-04 -3.622010E-05 +9.455172E-05 -3.622010E-05 +4.837388E-03 -4.638055E-05 +9.455172E-05 -4.638055E-05 -7.930083E-05 
 -3.698566E-05 -1.458104E-04 +4.253497E-05 -1.458104E-04 +4.756508E-03 -6.377443E-05 +4.253497E-05 -6.377443E-05 -1.433632E-04 
 +1.850499E-04 -1.459572E-04 +6.369579E-06 -1.459572E-04 +4.828203E-03 -4.328925E-05 +6.369579E-06 -4.328925E-05 -2.961957E-04 
 +3.604929E-04 -7.069093E-05 -5.475427E-05 -7.069093E-05 +4.905652E-03 +1.642964E-05 -5.475427E-05 +1.642964E-05 -2.860270E-04 
 +1.916291E-04 -1.621554E-04 -1.590637E-04 -1.621554E-04 +4.824411E-03 +2.232846E-05 -1.590637E-04 +2.232846E-05 -1.776765E-04 
 +9.983587E-05 -1.568968E-04 -1.115968E-04 -1.568968E-04 +4.794377E-03 +8.499893E-07 -1.115968E-04 +8.499893E-07 -9.845052E-05 
 +6.453129E-05 -1.545715E-04 -2.878092E-05 -1.545715E-04 +4.862425E-03 -1.248498E-05 -2.878092E-05 -1.248498E-05 -6.675380E-05 
 +2.030680E-07 +8.446273E-05 -2.128431E-05 +8.446273E-05 +4.895642E-03 -4.832863E-06 -2.128431E-05 -4.832863E-06 -6.653778E-05 
 -4.470235E-05 +1.212075E-04 +4.669953E-05 +1.212075E-04 +5.039624E-03 +1.477079E-04 +4.669953E-05 +1.477079E-04 -9.913599E-05 
 -4.464285E-05 -1.041554E-05 +1.321789E-04 -1.041554E-05 +5.198408E-03 +2.491041E-04 +1.321789E-04 +2.491041E-04 -1.453851E-04 
 -6.657099E-05 -9.071219E-05 +1.729919E-04 -9.071219E-05 +5.189059E-03 +2.599881E-04 +1.729919E-04 +2.599881E-04 -7.612666E-05 
 -1.415553E-04 -1.834487E-04 +2.078750E-05 -1.834487E-04 +5.067198E-03 +1.802055E-04 +2.078750E-05 +1.802055E-04 +1.456883E-05 
 -2.299803E-04 -1.762333E-04 -1.201584E-05 -1.762333E-04 +4.981450E-03 +5.054040E-05 -1.201584E-05 +5.054040E-05 -1.010080E-05 
 -2.548499E-04 -1.348364E-04 -1.372994E-04 -1.348364E-04 +5.032140E-03 -4.406458E-05 -1.372994E-04 -4.406458E-05 -1.271773E-04 
 -1.798219E-04 +3.169650E-05 +1.058269E-05 +3.169650E-05 +5.123861E-03 -6.440796E-05 +1.058269E-05 -6.440796E-05 -1.409427E-04 
 -1.115830E-04 +1.418510E-04 -3.595431E-05 +1.418510E-04 +5.152554E-03 -4.379972E-06 -3.595431E-05 -4.379972E-06 -1.747484E-04 
 +1.066190E-04 +2.075470E-04 +2.352143E-05 +2.075470E-04 +5.086608E-03 +4.335123E-06 +2.352143E-05 +4.335123E-06 -2.935402E-04 
 +2.776887E-04 +2.049724E-04 +6.062644E-05 +2.049724E-04 +5.079236E-03 -6.831940E-06 +6.062644E-05 -6.831940E-06 -2.284490E-04 
 +1.229059E-04 +1.418211E-04 +1.948394E-04 +1.418211E-04 +5.115432E-03 -3.454988E-05 +1.948394E-04 -3.454988E-05 -1.445677E-04 
 -9.315913E-06 +1.043946E-04 +2.746811E-04 +1.043946E-04 +5.058502E-03 -9.870178E-05 +2.746811E-04 -9.870178E-05 -9.688493E-05 
 -1.071791E-04 +6.630417E-05 +3.684610E-04 +6.630417E-05 +4.954699E-03 -7.700931E-05 +3.684610E-04 -7.700931E-05 -7.744690E-05 
 -3.081218E-04 +6.811421E-06 -2.811671E-07 +6.811421E-06 +4.970523E-03 -8.526202E-05 -2.811671E-07 -8.526202E-05 +1.712066E-05 
 -2.659251E-04 -5.771817E-05 -9.287510E-05 -5.771817E-05 +5.016322E-03 -2.974316E-05 -9.287510E-05 -2.974316E-05 +4.566185E-05 
 -1.731176E-05 -1.189281E-04 -1.436930E-04 -1.189281E-04 +4.777556E-03 -2.222819E-05 -1.436930E-04 -2.222819E-05 -2.772632E-05 
 +2.633251E-04 -6.161658E-05 -1.134141E-04 -6.161658E-05 +4.527285E-03 -3.263495E-05 -1.134141E-04 -3.263495E-05 -6.306306E-05 
 +1.601419E-04 -1.788440E-04 -1.497474E-04 -1.788440E-04 +4.695041E-03 -2.814192E-05 -1.497474E-04 -2.814192E-05 -1.052400E-04 
 +6.906192E-05 -1.878156E-04 -7.905026E-05 -1.878156E-04 +4.833656E-03 -3.762074E-05 -7.905026E-05 -3.762074E-05 -5.137062E-05 
 +5.837011E-05 -2.532853E-04 +3.224163E-05 -2.532853E-04 +4.876612E-03 +7.689131E-05 +3.224163E-05 +7.689131E-05 -2.401745E-05 
 +4.394843E-05 -2.273222E-04 +1.109622E-04 -2.273222E-04 +4.856781E-03 +2.216755E-04 +1.109622E-04 +2.216755E-04 -2.149753E-05 
 +9.250167E-05 +5.654227E-05 +8.070925E-05 +5.654227E-05 +4.838899E-03 +2.354554E-04 +8.070925E-05 +2.354554E-04 -1.431306E-05 
 +2.143978E-05 +8.035772E-05 +9.575704E-05 +8.035772E-05 +5.014582E-03 +1.260847E-04 +9.575704E-05 +1.260847E-04 -6.859019E-05 
 -1.424557E-04 -6.886615E-06 +1.901926E-04 -6.886615E-06 +5.090492E-03 +5.616854E-05 +1.901926E-04 +5.616854E-05 -5.539350E-05 
 -2.052641E-04 -8.236912E-05 -2.194734E-05 -8.236912E-05 +5.027183E-03 +7.002217E-05 -2.194734E-05 +7.002217E-05 +3.956936E-05 
 -1.980053E-04 -3.463290E-05 -1.284546E-05 -3.463290E-05 +4.992848E-03 +6.793911E-05 -1.284546E-05 +6.793911E-05 +4.078473E-05 
 -1.738975E-04 -4.923048E-05 -1.235971E-04 -4.923048E-05 +5.022123E-03 +3.089518E-05 -1.235971E-04 +3.089518E-05 -1.281300E-04 
 +1.063336E-05 +5.691537E-05 +3.320761E-05 +5.691537E-05 +5.069135E-03 +4.005666E-06 +3.320761E-05 +4.005666E-06 -2.360230E-04 
 +1.157686E-05 +1.167752E-04 +1.547977E-05 +1.167752E-04 +5.090983E-03 -2.231574E-05 +1.547977E-05 -2.231574E-05 -2.348849E-04 
 +1.478602E-04 +1.920446E-04 +4.674567E-05 +1.920446E-04 +5.074189E-03 -2.354166E-05 +4.674567E-05 -2.354166E-05 -3.082216E-04 
 +2.559849E-04 +2.278868E-04 +3.855737E-05 +2.278868E-04 +5.015554E-03 +6.853180E-05 +3.855737E-05 +6.853180E-05 -2.485614E-04 
 +1.441648E-04 +2.532254E-05 +2.466954E-05 +2.532254E-05 +4.871261E-03 +1.060394E-04 +2.466954E-05 +1.060394E-04 -8.818567E-05 
 +5.681763E-05 +4.114403E-05 +1.673481E-04 +4.114403E-05 +4.831862E-03 +1.547734E-05 +1.673481E-04 +1.547734E-05 -3.390653E-05 
 -2.503245E-05 +5.689201E-05 +4.281320E-04 +5.689201E-05 +4.920902E-03 -5.725203E-05 +4.281320E-04 -5.725203E-05 -6.520049E-05 
 -2.780819E-04 -1.355508E-04 -8.145594E-05 -1.355508E-04 +4.914425E-03 -6.248540E-05 -8.145594E-05 -6.248540E-05 +8.592844E-05 
 -2.614575E-04 -1.087490E-04 -1.093933E-04 -1.087490E-04 +4.951739E-03 +2.297404E-05 -1.093933E-04 +2.297404E-05 +1.569479E-04 
 -1.592245E-04 -1.118725E-04 -1.671633E-04 -1.118725E-04 +4.988971E-03 +7.252825E-05 -1.671633E-04 +7.252825E-05 +1.479212E-04 
 -1.430030E-04 -3.438629E-05 -1.744169E-04 -3.438629E-05 +4.996796E-03 -1.099917E-05 -1.744169E-04 -1.099917E-05 +6.675949E-05 
 +1.745949E-04 -1.214535E-04 -4.242952E-06 -1.214535E-04 +4.852508E-03 -1.670268E-05 -4.242952E-06 -1.670268E-05 +7.063748E-07 
 +1.079240E-04 -1.136148E-04 +3.895424E-05 -1.136148E-04 +4.876948E-03 +4.409571E-05 +3.895424E-05 +4.409571E-05 +5.359790E-05 
 +3.155290E-05 -1.026035E-05 +1.776349E-04 -1.026035E-05 +5.037291E-03 +4.158125E-05 +1.776349E-04 +4.158125E-05 +1.850202E-05 
 +1.836764E-05 -4.248542E-05 +2.411173E-04 -4.248542E-05 +5.058606E-03 +3.076687E-05 +2.411173E-04 +3.076687E-05 -1.244600E-05 
 +1.794067E-04 +1.007214E-04 +1.002139E-04 +1.007214E-04 +4.845235E-03 +7.641733E-05 +1.002139E-04 +7.641733E-05 +2.003704E-05 
 +1.634641E-04 +1.163118E-04 +2.396260E-05 +1.163118E-04 +4.831311E-03 +1.147433E-04 +2.396260E-05 +1.147433E-04 +8.744034E-06 
 -1.211172E-04 -1.263492E-04 +6.818759E-05 -1.263492E-04 +4.956007E-03 +8.029317E-05 +6.818759E-05 +8.029317E-05 +7.309470E-06 
 -1.945235E-04 -1.227417E-04 -3.380240E-05 -1.227417E-04 +4.994738E-03 +8.337923E-05 -3.380240E-05 +8.337923E-05 +6.314199E-05 
 -2.243082E-04 -6.019624E-05 -5.427093E-05 -6.019624E-05 +5.054934E-03 +9.601747E-05 -5.427093E-05 +9.601747E-05 +1.937131E-06 
 -1.619236E-04 -2.867038E-05 -1.550890E-04 -2.867038E-05 +5.053477E-03 +3.859507E-06 -1.550890E-04 +3.859507E-06 -1.804763E-04 
 +1.382895E-04 +5.899641E-05 +2.083361E-05 +5.899641E-05 +5.057080E-03 -5.585016E-05 +2.083361E-05 -5.585016E-05 -2.846785E-04 
 +1.284097E-04 +8.800388E-05 -1.446033E-05 +8.800388E-05 +5.054791E-03 -3.159948E-05 -1.446033E-05 -3.159948E-05 -2.817829E-04 
 +1.902133E-04 +1.016154E-04 +2.575879E-05 +1.016154E-04 +5.032231E-03 -1.375017E-05 +2.575879E-05 -1.375017E-05 -2.869603E-04 
 +2.829618E-04 +1.284330E-04 +5.763232E-05 +1.284330E-04 +4.944767E-03 +4.187742E-05 +5.763232E-05 +4.187742E-05 -2.028498E-04 
 +2.840462E-05 -5.221242E-05 -3.628342E-05 -5.221242E-05 +4.847400E-03 +5.945259E-05 -3.628342E-05 +5.945259E-05 -4.688616E-05 
 +1.425055E-05 -6.824760E-05 +1.020262E-04 -6.824760E-05 +4.775358E-03 +3.304728E-05 +1.020262E-04 +3.304728E-05 +7.882651E-06 
 +8.569238E-05 -1.484833E-04 +3.251227E-04 -1.484833E-04 +4.777721E-03 -1.783705E-05 +3.251227E-04 -1.783705E-05 +5.590539E-07 
 -1.217098E-04 -1.506372E-04 -1.255014E-04 -1.506372E-04 +4.942251E-03 -8.765939E-08 -1.255014E-04 -8.765939E-08 +1.053022E-04 
 -1.897693E-04 -2.138418E-04 -9.313186E-05 -2.138418E-04 +4.931300E-03 +2.166790E-05 -9.313186E-05 +2.166790E-05 +1.211295E-04 
 -2.508740E-04 -1.948853E-04 -1.151676E-04 -1.948853E-04 +5.056953E-03 +6.385587E-05 -1.151676E-04 +6.385587E-05 +8.255734E-05 
 -2.912685E-04 -8.023545E-05 -2.569382E-04 -8.023545E-05 +5.102117E-03 +6.854396E-05 -2.569382E-04 +6.854396E-05 +3.360968E-05 
 +1.505513E-04 +2.186320E-05 +2.188585E-04 +2.186320E-05 +5.058939E-03 +6.911896E-05 +2.188585E-04 +6.911896E-05 -4.597563E-06 
 +1.060477E-04 +3.285874E-05 +1.912662E-04 +3.285874E-05 +5.045677E-03 +1.315254E-04 +1.912662E-04 +1.315254E-04 +1.241303E-05 
 +9.119205E-05 +2.337951E-05 +2.644657E-04 +2.337951E-05 +5.041628E-03 +1.246047E-04 +2.644657E-04 +1.246047E-04 +8.190775E-06 
 +1.439497E-05 -4.794986E-05 +1.658534E-04 -4.794986E-05 +5.141979E-03 +2.747821E-06 +1.658534E-04 +2.747821E-06 +1.056632E-05 
 +3.228948E-05 -2.581525E-05 +2.186291E-04 -2.581525E-05 +5.096055E-03 -4.811741E-05 +2.186291E-04 -4.811741E-05 +1.865974E-05 
 +1.664265E-04 +1.689756E-04 +7.451798E-05 +1.689756E-04 +4.861729E-03 +5.022891E-05 +7.451798E-05 +5.022891E-05 +2.601645E-05 
 -7.207849E-05 -1.096768E-04 -1.126443E-05 -1.096768E-04 +4.893592E-03 +8.735723E-05 -1.126443E-05 +8.735723E-05 +2.654475E-05 
 -1.684877E-04 -1.370271E-04 -2.729552E-05 -1.370271E-04 +5.018456E-03 +8.291858E-05 -2.729552E-05 +8.291858E-05 +1.347474E-05 
 -1.888282E-04 -9.264307E-05 -5.009672E-05 -9.264307E-05 +5.040957E-03 +5.259434E-05 -5.009672E-05 +5.259434E-05 -3.227321E-05 
 -1.207272E-04 -5.447603E-05 -1.232753E-04 -5.447603E-05 +5.053896E-03 +1.198048E-05 -1.232753E-04 +1.198048E-05 -1.049260E-04 
 +1.835479E-04 +1.528081E-05 +7.494076E-06 +1.528081E-05 +5.033877E-03 -1.770527E-05 +7.494076E-06 -1.770527E-05 -2.410250E-04 
 +3.107347E-04 +5.552829E-05 +2.886540E-05 +5.552829E-05 +5.008777E-03 -2.724925E-05 +2.886540E-05 -2.724925E-05 -2.895653E-04 
 +2.843366E-04 +1.483304E-04 +6.630735E-05 +1.483304E-04 +4.958296E-03 -1.226223E-05 +6.630735E-05 -1.226223E-05 -2.048006E-04 
 +2.636872E-04 +1.266430E-04 +9.691469E-05 +1.266430E-04 +4.876629E-03 -1.556651E-05 +9.691469E-05 -1.556651E-05 -8.548573E-05 
 -5.684628E-05 -1.948107E-05 +8.576696E-05 -1.948107E-05 +4.908474E-03 -2.945396E-05 +8.576696E-05 -2.945396E-05 +5.896126E-05 
 -1.171682E-04 -8.968629E-06 +9.834489E-05 -8.968629E-06 +4.961293E-03 -9.310881E-05 +9.834489E-05 -9.310881E-05 +8.988509E-05 
 -2.547908E-05 -5.562649E-05 +2.581403E-04 -5.562649E-05 +4.970588E-03 -9.058854E-05 +2.581403E-04 -9.058854E-05 +5.794582E-05 
 -9.949104E-05 -1.433043E-04 -5.695388E-05 -1.433043E-04 +4.920991E-03 -6.778502E-05 -5.695388E-05 -6.778502E-05 +1.418823E-04 
 -2.479993E-04 -1.463591E-04 -5.715267E-07 -1.463591E-04 +4.989423E-03 +1.237463E-05 -5.715267E-07 +1.237463E-05 +9.283968E-05 
 -2.794889E-04 -1.269658E-04 -5.447775E-06 -1.269658E-04 +5.100994E-03 +1.022858E-04 -5.447775E-06 +1.022858E-04 +1.265641E-05 
 -2.041771E-04 -1.090424E-04 -1.800088E-04 -1.090424E-04 +5.097408E-03 +1.944388E-04 -1.800088E-04 +1.944388E-04 +2.249104E-05 
 +1.180841E-04 -4.260427E-05 +2.996379E-04 -4.260427E-05 +5.085250E-03 +1.747239E-04 +2.996379E-04 +1.747239E-04 -5.121715E-05 
 +6.914332E-05 +3.324650E-05 +2.718437E-04 +3.324650E-05 +5.104080E-03 +1.017516E-04 +2.718437E-04 +1.017516E-04 -7.282720E-05 
 +3.533786E-05 +3.126645E-05 +2.527732E-04 +3.126645E-05 +5.087829E-03 +2.167553E-05 +2.527732E-04 +2.167553E-05 +1.491316E-05 
 +2.646876E-05 +3.611689E-06 +3.694587E-05 +3.611689E-06 +5.050072E-03 -8.806011E-05 +3.694587E-05 -8.806011E-05 +6.432351E-05 
 -1.587961E-05 -5.234421E-05 +2.543374E-04 -5.234421E-05 +5.134723E-03 -1.198510E-04 +2.543374E-04 -1.198510E-04 +2.325158E-05 
 +2.034500E-05 +4.715833E-05 +2.389213E-04 +4.715833E-05 +5.101333E-03 -1.725584E-05 +2.389213E-04 -1.725584E-05 -1.189241E-05 
 -2.870747E-05 -9.859425E-05 -6.449176E-05 -9.859425E-05 +4.963465E-03 +7.328809E-05 -6.449176E-05 +7.328809E-05 +3.364755E-05 
 -1.049488E-04 -1.294233E-04 -4.548388E-05 -1.294233E-04 +4.973406E-03 +4.589173E-05 -4.548388E-05 +4.589173E-05 +9.114964E-06 
 -9.742426E-05 -5.101857E-05 -7.769146E-05 -5.101857E-05 +5.004212E-03 +2.953048E-05 -7.769146E-05 +2.953048E-05 -4.429419E-05 
 -1.603586E-05 +2.769556E-05 -6.848664E-05 +2.769556E-05 +5.029112E-03 +6.189136E-05 -6.848664E-05 +6.189136E-05 -8.240389E-05 
 +1.993913E-04 +9.864539E-05 -1.087618E-04 +9.864539E-05 +5.022363E-03 +5.252506E-05 -1.087618E-04 +5.252506E-05 -2.088154E-04 
 +4.241478E-04 +5.482015E-05 +5.057457E-05 +5.482015E-05 +4.916824E-03 +2.217176E-05 +5.057457E-05 +2.217176E-05 -2.046432E-04 
 +4.177921E-04 +5.867999E-05 +6.733283E-05 +5.867999E-05 +4.845131E-03 +4.502275E-05 +6.733283E-05 +4.502275E-05 -8.222429E-05 
 +1.084687E-04 +1.294267E-05 +7.690965E-05 +1.294267E-05 +4.862307E-03 +3.208428E-05 +7.690965E-05 +3.208428E-05 +2.469799E-05 
 -2.777405E-05 -4.327593E-05 +1.911085E-04 -4.327593E-05 +4.884302E-03 +4.588102E-06 +1.911085E-04 +4.588102E-06 +1.914163E-04 
 -1.243388E-04 -1.672889E-05 +7.156951E-05 -1.672889E-05 +4.956121E-03 -2.932476E-05 +7.156951E-05 -2.932476E-05 +1.928107E-04 
 -1.728768E-04 -3.401187E-06 +2.328248E-04 -3.401187E-06 +4.986217E-03 -7.651354E-05 +2.328248E-04 -7.651354E-05 +8.927482E-05 
 -2.174369E-04 -1.210921E-04 +1.513823E-04 -1.210921E-04 +4.960950E-03 -1.341951E-04 +1.513823E-04 -1.341951E-04 +1.580194E-04 
 -2.639200E-04 -5.500533E-05 +2.003387E-04 -5.500533E-05 +5.033631E-03 +2.691676E-05 +2.003387E-04 +2.691676E-05 +1.084026E-04 
 -2.313510E-04 -5.964643E-05 +1.771715E-04 -5.964643E-05 +5.073635E-03 +1.207065E-04 +1.771715E-04 +1.207065E-04 +3.285799E-05 
 -2.143750E-04 -2.898379E-05 +9.567516E-05 -2.898379E-05 +5.110744E-03 +1.800276E-04 +9.567516E-05 +1.800276E-04 +6.615524E-06 
 +3.026064E-05 +1.038585E-05 +2.548196E-04 +1.038585E-05 +5.133085E-03 +1.889123E-04 +2.548196E-04 +1.889123E-04 -6.708531E-05 
 +8.028423E-06 -1.566336E-05 +1.854572E-04 -1.566336E-05 +5.096224E-03 +6.983476E-05 +1.854572E-04 +6.983476E-05 -2.984761E-05 
 +2.943996E-05 -3.429907E-05 +2.038882E-04 -3.429907E-05 +5.081847E-03 -4.481952E-05 +2.038882E-04 -4.481952E-05 +6.694638E-05 
 +2.214963E-06 -2.295136E-05 +1.126187E-04 -2.295136E-05 +5.113778E-03 -7.825445E-05 +1.126187E-04 -7.825445E-05 +6.017786E-05 
 -1.626873E-05 -1.973231E-05 +2.318095E-04 -1.973231E-05 +5.149614E-03 -1.073047E-04 +2.318095E-04 -1.073047E-04 -1.085291E-05 
 -4.008697E-05 +2.563101E-05 +3.109778E-04 +2.563101E-05 +5.128314E-03 -1.816839E-04 +3.109778E-04 -1.816839E-04 -8.396903E-05 
 -1.972463E-05 -2.173684E-05 -8.536671E-06 -2.173684E-05 +5.028675E-03 -6.489433E-05 -8.536671E-06 -6.489433E-05 -4.544755E-05 
 -6.547788E-06 -2.040979E-05 -1.625218E-04 -2.040979E-05 +5.008419E-03 +4.355599E-05 -1.625218E-04 +4.355599E-05 +3.110933E-06 
 +3.356632E-05 +4.456491E-05 -1.716219E-04 +4.456491E-05 +5.072278E-03 +1.189931E-05 -1.716219E-04 +1.189931E-05 -7.898308E-05 
 +1.283444E-04 +9.593886E-05 -1.204835E-04 +9.593886E-05 +5.071414E-03 +1.734577E-05 -1.204835E-04 +1.734577E-05 -1.462327E-04 
 +2.325830E-04 +1.205936E-04 -1.630555E-04 +1.205936E-04 +4.966687E-03 +5.246335E-05 -1.630555E-04 +5.246335E-05 -1.137735E-04 
 +3.061460E-04 +2.087418E-05 -3.144288E-05 +2.087418E-05 +4.851452E-03 +9.954568E-05 -3.144288E-05 +9.954568E-05 -3.726511E-05 
 +3.029257E-04 -4.468271E-05 -5.172471E-05 -4.468271E-05 +4.791085E-03 +8.822314E-05 -5.172471E-05 +8.822314E-05 +5.776432E-05 
 +1.200449E-04 -7.581552E-05 -2.290946E-05 -7.581552E-05 +4.809868E-03 +5.078621E-05 -2.290946E-05 +5.078621E-05 +1.459393E-04 
 -1.024626E-05 -8.711282E-05 +1.413930E-04 -8.711282E-05 +4.882528E-03 +1.193283E-05 +1.413930E-04 +1.193283E-05 +2.424420E-04 
 -6.845200E-05 -5.296435E-05 +3.403923E-05 -5.296435E-05 +4.944748E-03 +1.979036E-05 +3.403923E-05 +1.979036E-05 +2.389394E-04 
 -1.051183E-04 -5.446625E-05 +5.043571E-05 -5.446625E-05 +4.941783E-03 -7.765381E-05 +5.043571E-05 -7.765381E-05 +1.556694E-04 
 -5.344591E-05 -9.618144E-05 +3.035611E-04 -9.618144E-05 +4.975729E-03 -9.934728E-05 +3.035611E-04 -9.934728E-05 +1.683908E-04 
 -6.706761E-05 -3.280693E-05 +2.325075E-04 -3.280693E-05 +5.067620E-03 -3.933111E-05 +2.325075E-04 -3.933111E-05 +7.503811E-05 
 -8.298652E-05 -5.270160E-05 +2.303297E-04 -5.270160E-05 +5.072999E-03 +1.673076E-05 +2.303297E-04 +1.673076E-05 +1.734088E-05 
 -1.307969E-04 -1.858364E-05 +1.942065E-04 -1.858364E-05 +5.141366E-03 +9.058149E-05 +1.942065E-04 +9.058149E-05 +3.286599E-05 
 -1.763424E-04 +5.137804E-05 +1.917356E-04 +5.137804E-05 +5.193768E-03 +1.319922E-04 +1.917356E-04 +1.319922E-04 +4.116900E-05 
 -1.094057E-04 +4.488271E-05 +1.652737E-04 +4.488271E-05 +5.152865E-03 +8.684139E-05 +1.652737E-04 +8.684139E-05 +9.127955E-05 
 +2.424223E-05 -8.112055E-06 +1.973663E-04 -8.112055E-06 +5.066802E-03 -3.818772E-05 +1.973663E-04 -3.818772E-05 +1.681337E-04 
 +3.693566E-06 -3.212195E-05 +2.140317E-04 -3.212195E-05 +5.063307E-03 -1.136734E-04 +2.140317E-04 -1.136734E-04 +1.365729E-04 
 +5.046586E-05 +2.028460E-05 +1.586049E-04 +2.028460E-05 +5.093389E-03 -1.607884E-04 +1.586049E-04 -1.607884E-04 -2.895088E-05 
 +1.084211E-04 +7.442388E-05 +2.614817E-04 +7.442388E-05 +5.107437E-03 -2.428853E-04 +2.614817E-04 -2.428853E-04 -2.104195E-04 
 +4.239657E-05 +5.959792E-05 +3.502822E-04 +5.959792E-05 +5.142574E-03 -1.997208E-04 +3.502822E-04 -1.997208E-04 -2.990001E-04 
 -1.078217E-04 +1.787282E-05 +6.576080E-05 +1.787282E-05 +5.168320E-03 -5.278732E-05 +6.576080E-05 -5.278732E-05 -9.925206E-05 
 -8.960515E-05 +3.996163E-05 -6.895167E-05 +3.996163E-05 +5.098427E-03 +1.105739E-04 -6.895167E-05 +1.105739E-04 +2.591402E-04 
 +1.072579E-04 +2.929799E-05 -9.881730E-05 +2.929799E-05 +4.987363E-03 +1.958288E-04 -9.881730E-05 +1.958288E-04 +2.532751E-04 
 +1.430412E-04 -5.434931E-05 -9.859948E-05 -5.434931E-05 +4.926921E-03 +1.922440E-04 -9.859948E-05 +1.922440E-04 +7.598727E-05 
 +1.428404E-04 -4.866333E-05 -1.196337E-04 -4.866333E-05 +4.893834E-03 +1.802982E-04 -1.196337E-04 +1.802982E-04 +3.047582E-05 
 +1.208433E-04 -1.305079E-06 -1.378581E-04 -1.305079E-06 +4.864680E-03 +1.312703E-04 -1.378581E-04 +1.312703E-04 +6.219386E-05 
 +7.318700E-05 +3.229339E-05 -1.703294E-04 +3.229339E-05 +4.828777E-03 +6.094462E-05 -1.703294E-04 +6.094462E-05 +1.526177E-04 
 +8.790123E-06 +2.531414E-05 -1.786017E-04 +2.531414E-05 +4.832318E-03 -1.047670E-05 -1.786017E-04 -1.047670E-05 +1.898218E-04 
 -2.405439E-05 +3.808337E-05 -1.538631E-04 +3.808337E-05 +4.829310E-03 -5.874107E-05 -1.538631E-04 -5.874107E-05 +1.962810E-04 
 +1.633819E-05 -1.371889E-05 -2.135302E-04 -1.371889E-05 +4.832263E-03 -1.117050E-04 -2.135302E-04 -1.117050E-04 +2.132226E-04 
 -1.319418E-04 -4.966874E-05 +3.265463E-04 -4.966874E-05 +4.980081E-03 +9.167672E-05 +3.265463E-04 +9.167672E-05 +1.846230E-04 
 -6.823965E-05 +1.730826E-05 +1.599461E-04 +1.730826E-05 +5.047973E-03 -4.513635E-07 +1.599461E-04 -4.513635E-07 +9.771804E-05 
 -6.167656E-05 +6.637040E-05 +1.352235E-04 +6.637040E-05 +5.083177E-03 -2.649852E-05 +1.352235E-04 -2.649852E-05 +3.028741E-05 
 -1.525687E-04 +7.526136E-05 +2.312516E-04 +7.526136E-05 +5.152339E-03 +8.227271E-06 +2.312516E-04 +8.227271E-06 -7.892024E-06 
 -1.694452E-04 +7.134006E-05 +1.883259E-04 +7.134006E-05 +5.190624E-03 +4.438558E-05 +1.883259E-04 +4.438558E-05 +1.872266E-05 
 -1.548766E-04 +5.705640E-05 +1.067934E-04 +5.705640E-05 +5.171867E-03 +3.558480E-05 +1.067934E-04 +3.558480E-05 +1.188870E-04 
 -1.243456E-04 +4.258559E-05 +5.473562E-05 +4.258559E-05 +5.099617E-03 -1.978517E-05 +5.473562E-05 -1.978517E-05 +2.299240E-04 
 +2.978480E-05 +5.576995E-05 +1.547620E-04 +5.576995E-05 +5.022945E-03 -1.251590E-04 +1.547620E-04 -1.251590E-04 +1.928086E-04 
 +8.605863E-05 +6.853686E-05 +1.433275E-04 +6.853686E-05 +5.010648E-03 -1.278079E-04 +1.433275E-04 -1.278079E-04 +4.301545E-05 
 +1.144549E-04 +1.039998E-04 +1.198111E-04 +1.039998E-04 +5.037129E-03 -1.135866E-04 +1.198111E-04 -1.135866E-04 -1.435984E-04 
 +5.960806E-05 +8.791172E-05 +1.632899E-04 +8.791172E-05 +5.059569E-03 -1.128940E-04 +1.632899E-04 -1.128940E-04 -2.090306E-04 
 -3.506066E-05 +4.927658E-05 -1.892559E-04 +4.927658E-05 +5.027516E-03 -7.689428E-06 -1.892559E-04 -7.689428E-06 +2.017898E-05 
 +8.126655E-07 +4.868730E-05 -1.824692E-04 +4.868730E-05 +4.965228E-03 +6.420249E-05 -1.824692E-04 +6.420249E-05 +2.866305E-04 
 +1.122574E-04 +4.567665E-05 -1.718366E-04 +4.567665E-05 +4.932191E-03 +9.653393E-05 -1.718366E-04 +9.653393E-05 +2.041935E-04 
 +1.458809E-04 -3.465748E-06 -6.208312E-05 -3.465748E-06 +4.932102E-03 +1.371315E-04 -6.208312E-05 +1.371315E-04 +2.685122E-05 
 +1.419237E-04 -1.690624E-05 -9.199521E-05 -1.690624E-05 +4.922595E-03 +1.458284E-04 -9.199521E-05 +1.458284E-04 -1.176532E-05 
 +1.028204E-04 +1.094177E-05 -1.213545E-04 +1.094177E-05 +4.884746E-03 +1.422830E-04 -1.213545E-04 +1.422830E-04 +2.058905E-05 
 +6.156531E-05 +7.085176E-05 -1.708408E-04 +7.085176E-05 +4.843712E-03 +1.122367E-04 -1.708408E-04 +1.122367E-04 +1.179557E-04 
 +4.832761E-06 +1.127568E-04 -1.524880E-04 +1.127568E-04 +4.820230E-03 +4.579865E-05 -1.524880E-04 +4.579865E-05 +2.224722E-04 
 +2.152757E-05 +9.429769E-05 -8.916178E-05 +9.429769E-05 +4.811069E-03 -7.311304E-06 -8.916178E-05 -7.311304E-06 +2.742927E-04 
 +1.648115E-05 +2.338800E-06 -7.568524E-05 +2.338800E-06 +4.862393E-03 +7.742619E-05 -7.568524E-05 +7.742619E-05 +2.691344E-04 
 -9.300522E-05 -4.577415E-05 +1.383602E-04 -4.577415E-05 +4.970946E-03 +1.059441E-04 +1.383602E-04 +1.059441E-04 +1.760256E-04 
 -4.029761E-05 -4.570701E-05 +2.401599E-05 -4.570701E-05 +5.023437E-03 +3.310800E-06 +2.401599E-05 +3.310800E-06 +1.181133E-04 
 -5.496037E-05 +1.291675E-05 -2.264760E-05 +1.291675E-05 +5.097166E-03 -2.804150E-05 -2.264760E-05 -2.804150E-05 -1.667305E-05 
 -1.581100E-04 +4.194181E-05 +1.890133E-04 +4.194181E-05 +5.170746E-03 -6.982074E-06 +1.890133E-04 -6.982074E-06 -3.395958E-05 
 -1.247378E-04 +7.188574E-05 +8.777717E-05 +7.188574E-05 +5.176218E-03 -5.593315E-05 +8.777717E-05 -5.593315E-05 +5.060873E-05 
 -1.065873E-04 +9.805515E-05 +4.917759E-05 +9.805515E-05 +5.188892E-03 -1.381490E-04 +4.917759E-05 -1.381490E-04 +9.566777E-05 
 -1.571596E-04 +8.138324E-05 -7.039428E-05 +8.138324E-05 +5.150653E-03 -1.764828E-04 -7.039428E-05 -1.764828E-04 +1.985963E-04 
 -5.287471E-05 +1.175487E-04 +8.948067E-05 +1.175487E-04 +5.015153E-03 -1.660186E-04 +8.948067E-05 -1.660186E-04 +2.206281E-04 
 -4.371126E-07 +1.179775E-04 +1.475739E-04 +1.179775E-04 +4.957579E-03 -1.404143E-04 +1.475739E-04 -1.404143E-04 +2.029182E-04 
 +1.833257E-06 +5.423597E-05 +6.598163E-05 +5.423597E-05 +4.970417E-03 -1.085096E-04 +6.598163E-05 -1.085096E-04 -1.325137E-06 
 +1.920169E-04 -9.516961E-06 -1.476656E-05 -9.516961E-06 +4.880925E-03 -1.017273E-04 -1.476656E-05 -1.017273E-04 -1.281116E-04 
 +1.065757E-04 +6.509661E-05 -2.534673E-04 +6.509661E-05 +4.864068E-03 -6.187458E-05 -2.534673E-04 -6.187458E-05 +7.501324E-05 
 +3.230843E-05 +2.776334E-05 -2.526019E-04 +2.776334E-05 +4.923121E-03 +2.348308E-05 -2.526019E-04 +2.348308E-05 +1.872169E-04 
 +1.136640E-04 +2.072615E-05 -1.552421E-04 +2.072615E-05 +4.905750E-03 +4.543691E-05 -1.552421E-04 +4.543691E-05 +8.969673E-05 
 +1.654794E-04 -1.717291E-05 -6.974610E-05 -1.717291E-05 +4.919971E-03 +3.309242E-05 -6.974610E-05 +3.309242E-05 +5.440039E-06 
 +1.457827E-04 -3.621255E-05 -9.830024E-06 -3.621255E-05 +4.933090E-03 +8.485586E-05 -9.830024E-06 +8.485586E-05 -6.645250E-05 
 +9.421630E-05 +5.405197E-06 -8.899617E-05 +5.405197E-06 +4.902310E-03 +1.312181E-04 -8.899617E-05 +1.312181E-04 -4.972779E-05 
 +4.302873E-05 +4.799413E-05 -1.509314E-04 +4.799413E-05 +4.874414E-03 +1.036617E-04 -1.509314E-04 +1.036617E-04 +6.241702E-05 
 -2.610833E-06 +7.184674E-05 -1.774535E-04 +7.184674E-05 +4.859528E-03 +5.996529E-05 -1.774535E-04 +5.996529E-05 +1.952349E-04 
 -1.898239E-05 +2.566187E-05 -8.119303E-05 +2.566187E-05 +4.866356E-03 +4.062975E-05 -8.119303E-05 +4.062975E-05 +2.522469E-04 
 -8.524044E-05 -2.597771E-05 +5.929714E-06 -2.597771E-05 +4.906246E-03 +1.106065E-04 +5.929714E-06 +1.106065E-04 +2.353408E-04 
 -9.589040E-05 -4.424838E-05 +1.027555E-04 -4.424838E-05 +4.938915E-03 -7.118119E-05 +1.027555E-04 -7.118119E-05 +1.963283E-04 
 -9.726753E-05 -9.367769E-05 -4.903486E-05 -9.367769E-05 +5.030764E-03 -4.384326E-05 -4.903486E-05 -4.384326E-05 +1.140752E-04 
 -5.373444E-05 -5.531064E-05 -7.528621E-05 -5.531064E-05 +5.075764E-03 -3.018902E-05 -7.528621E-05 -3.018902E-05 -3.735907E-05 
 -5.004283E-05 -3.286105E-05 +4.172791E-05 -3.286105E-05 +5.075120E-03 -7.305983E-05 +4.172791E-05 -7.305983E-05 -2.615378E-05 
 -2.427942E-05 +1.659418E-05 -3.070283E-05 +1.659418E-05 +5.097982E-03 -1.676749E-04 -3.070283E-05 -1.676749E-04 +6.930084E-05 
 +1.322002E-05 +8.908091E-05 -8.133406E-05 +8.908091E-05 +5.147111E-03 -2.414591E-04 -8.133406E-05 -2.414591E-04 +1.015481E-04 
 -1.310683E-05 +7.317391E-05 -1.559683E-04 +7.317391E-05 +5.146491E-03 -2.927863E-04 -1.559683E-04 -2.927863E-04 +1.646184E-04 
 -2.274445E-04 +9.781151E-05 +1.610599E-04 +9.781151E-05 +5.031415E-03 -2.284312E-04 +1.610599E-04 -2.284312E-04 +2.250458E-04 
 -1.751106E-04 +1.886436E-04 +1.504540E-04 +1.886436E-04 +4.970169E-03 -1.391064E-04 +1.504540E-04 -1.391064E-04 +2.629759E-04 
 -3.108891E-05 +1.215941E-04 -3.850551E-06 +1.215941E-04 +4.869080E-03 -1.409357E-04 -3.850551E-06 -1.409357E-04 +1.397220E-04 
 +2.335104E-04 +4.514388E-05 -1.616368E-04 +4.514388E-05 +4.670697E-03 -1.798852E-04 -1.616368E-04 -1.798852E-04 +4.034149E-05 
 +2.174577E-04 +1.581446E-04 -1.200548E-04 +1.581446E-04 +4.696962E-03 -9.538523E-05 -1.200548E-04 -9.538523E-05 +7.609938E-05 
 +3.110665E-05 +3.819890E-05 -2.484107E-04 +3.819890E-05 +4.851299E-03 +2.749306E-05 -2.484107E-04 +2.749306E-05 +1.197593E-04 
 +5.926018E-05 -1.572046E-05 -1.830030E-04 -1.572046E-05 +4.940676E-03 -4.289131E-07 -1.830030E-04 -4.289131E-07 +1.012474E-04 
 +2.340034E-04 -6.629848E-05 -1.210676E-04 -6.629848E-05 +4.924709E-03 -2.321056E-05 -1.210676E-04 -2.321056E-05 +5.822418E-05 
 +2.545400E-04 -3.049024E-05 -2.290690E-06 -3.049024E-05 +4.869115E-03 +3.158049E-05 -2.290690E-06 +3.158049E-05 -4.847709E-05 
 +1.138773E-05 +2.846266E-05 -7.658030E-05 +2.846266E-05 +4.905934E-03 +6.804491E-05 -7.658030E-05 +6.804491E-05 -8.812220E-05 
 -4.280013E-05 +8.137205E-06 -1.289288E-04 +8.137205E-06 +4.952800E-03 +6.021614E-05 -1.289288E-04 +6.021614E-05 +3.514857E-06 
 -6.316760E-05 -1.052149E-05 -1.576008E-04 -1.052149E-05 +4.936492E-03 +2.570548E-05 -1.576008E-04 +2.570548E-05 +1.272747E-04 
 -8.253946E-05 -4.625515E-05 -5.921055E-05 -4.625515E-05 +4.903345E-03 -2.771524E-05 -5.921055E-05 -2.771524E-05 +1.598260E-04 
 -9.798904E-05 -5.303466E-05 +4.756286E-06 -5.303466E-05 +4.889678E-03 -8.768724E-05 +4.756286E-06 -8.768724E-05 +1.853972E-04 
 -1.358835E-04 -4.558118E-05 +1.318837E-04 -4.558118E-05 +4.984300E-03 -1.166787E-04 +1.318837E-04 -1.166787E-04 +1.789108E-04 
 -1.459936E-04 -7.492427E-05 -5.393504E-05 -7.492427E-05 +5.031095E-03 -1.316354E-04 -5.393504E-05 -1.316354E-04 +7.982797E-05 
 -6.525691E-05 -6.681053E-05 -1.052315E-04 -6.681053E-05 +5.023852E-03 -1.505320E-04 -1.052315E-04 -1.505320E-04 -1.196373E-05 
 -7.433241E-06 -7.611111E-05 -1.318355E-06 -7.611111E-05 +5.013075E-03 -1.591778E-04 -1.318355E-06 -1.591778E-04 +1.570465E-05 
 +8.262164E-05 -6.795814E-05 -9.960469E-05 -6.795814E-05 +5.040415E-03 -1.514691E-04 -9.960469E-05 -1.514691E-04 +4.793763E-05 
 +2.172050E-04 -2.430115E-05 -1.629206E-04 -2.430115E-05 +4.967803E-03 -1.145935E-04 -1.629206E-04 -1.145935E-04 +4.022286E-05 
 +2.099024E-04 -1.001850E-05 -1.262171E-04 -1.001850E-05 +4.888664E-03 -1.051698E-05 -1.262171E-04 -1.051698E-05 +9.744455E-05 
 -3.217403E-04 +8.093892E-05 +1.546945E-04 +8.093892E-05 +4.984760E-03 -2.469023E-05 +1.546945E-04 -2.469023E-05 +2.099112E-04 
 -2.778963E-04 +1.976706E-04 +1.189363E-04 +1.976706E-04 +4.925920E-03 -1.162298E-04 +1.189363E-04 -1.162298E-04 +2.454018E-04 
 +6.464392E-05 +1.316473E-04 -1.156378E-04 +1.316473E-04 +4.751707E-03 -1.394157E-04 -1.156378E-04 -1.394157E-04 +2.187663E-04 
 -1.111464E-05 +7.852894E-05 -2.646597E-04 +7.852894E-05 +4.847968E-03 -8.901907E-05 -2.646597E-04 -8.901907E-05 +2.098120E-04 
 +1.211533E-04 +3.880402E-05 -6.842115E-05 +3.880402E-05 +4.865631E-03 -2.130133E-05 -6.842115E-05 -2.130133E-05 +1.609769E-04 
 +4.230199E-05 -6.869909E-05 -1.714347E-04 -6.869909E-05 +4.870338E-03 +6.318967E-05 -1.714347E-04 +6.318967E-05 +1.410646E-04 
 +1.206639E-04 -1.336689E-04 -2.629222E-04 -1.336689E-04 +4.891751E-03 +3.859294E-05 -2.629222E-04 +3.859294E-05 +2.429098E-04 
 +2.610208E-04 -2.136006E-04 -3.445097E-06 -2.136006E-04 +4.689764E-03 -1.013337E-05 -3.445097E-06 -1.013337E-05 +1.654604E-04 
 +2.592208E-04 -1.798824E-04 +6.511966E-05 -1.798824E-04 +4.660764E-03 +3.798822E-05 +6.511966E-05 +3.798822E-05 -2.726231E-05 
 +6.522438E-06 -1.066531E-04 -7.435137E-05 -1.066531E-04 +4.831252E-03 -5.488741E-06 -7.435137E-05 -5.488741E-06 -7.222047E-05 
 -7.440166E-05 -6.229555E-05 -1.378809E-04 -6.229555E-05 +4.939452E-03 -5.132839E-05 -1.378809E-04 -5.132839E-05 -2.020914E-05 
 -1.199672E-04 -4.641077E-05 -1.314436E-04 -4.641077E-05 +4.958455E-03 -6.205377E-05 -1.314436E-04 -6.205377E-05 +7.013818E-05 
 -1.106421E-04 -5.713558E-05 -7.750434E-05 -5.713558E-05 +4.947151E-03 -9.837078E-05 -7.750434E-05 -9.837078E-05 +1.114252E-04 
 -1.149514E-04 -6.441641E-05 -1.906523E-05 -6.441641E-05 +4.953024E-03 -1.084799E-04 -1.906523E-05 -1.084799E-04 +1.488920E-04 
 -1.945862E-04 -4.499965E-05 +6.343928E-05 -4.499965E-05 +5.016856E-03 -1.612869E-04 +6.343928E-05 -1.612869E-04 +1.552933E-04 
 -1.673483E-04 -8.400617E-05 -5.129669E-05 -8.400617E-05 +4.992499E-03 -1.718040E-04 -5.129669E-05 -1.718040E-04 +5.641788E-05 
 -1.202608E-04 -1.175551E-04 -2.343356E-04 -1.175551E-04 +5.007538E-03 -1.971631E-04 -2.343356E-04 -1.971631E-04 -3.860142E-05 
 +2.930897E-05 -8.438982E-05 +8.642416E-05 -8.438982E-05 +5.018304E-03 -1.991063E-04 +8.642416E-05 -1.991063E-04 -4.313703E-05 
 +2.453426E-04 -4.821737E-05 -8.706030E-05 -4.821737E-05 +4.923605E-03 -9.586312E-05 -8.706030E-05 -9.586312E-05 -9.581699E-05 
 +3.751729E-04 -4.759741E-05 -1.192387E-04 -4.759741E-05 +4.772490E-03 +4.508882E-05 -1.192387E-04 +4.508882E-05 -1.440430E-04 
 +3.583292E-04 -2.789359E-06 -8.455135E-05 -2.789359E-06 +4.772622E-03 +9.513309E-05 -8.455135E-05 +9.513309E-05 -1.253501E-05 
 -2.700551E-04 +1.079676E-04 -1.801619E-05 +1.079676E-04 +4.879672E-03 +1.568785E-05 -1.801619E-05 +1.568785E-05 +2.505818E-04 
 -2.702176E-04 +1.068000E-04 -6.889502E-06 +1.068000E-04 +4.903194E-03 -2.290906E-05 -6.889502E-06 -2.290906E-05 +3.300212E-04 
 -8.431762E-05 +5.722625E-05 -1.673561E-04 +5.722625E-05 +4.926092E-03 +3.938028E-05 -1.673561E-04 +3.938028E-05 +3.071825E-04 
 -1.446080E-04 +6.014855E-05 -2.575935E-04 +6.014855E-05 +4.966746E-03 +6.830874E-05 -2.575935E-04 +6.830874E-05 +3.148552E-04 
 -8.510444E-05 +5.589734E-05 -1.528585E-04 +5.589734E-05 +4.996613E-03 -5.068353E-05 -1.528585E-04 -5.068353E-05 +2.355319E-04 
 +1.159780E-04 +1.025387E-05 +8.779397E-06 +1.025387E-05 +4.884774E-03 -8.483544E-05 +8.779397E-06 -8.483544E-05 +8.858491E-05 
 +2.897112E-04 -8.230579E-05 -1.676229E-04 -8.230579E-05 +4.753132E-03 -1.637311E-05 -1.676229E-04 -1.637311E-05 +1.745418E-04 
 +1.525680E-04 -1.592789E-04 +1.945452E-04 -1.592789E-04 +4.901264E-03 -7.192968E-05 +1.945452E-04 -7.192968E-05 +9.656900E-05 
 +1.190812E-04 -1.334645E-04 +2.393355E-04 -1.334645E-04 +4.978340E-03 -1.514342E-04 +2.393355E-04 -1.514342E-04 -1.137721E-04 
 +8.401723E-05 -7.249684E-05 -4.975539E-05 -7.249684E-05 +4.890814E-03 -1.803679E-04 -4.975539E-05 -1.803679E-04 -9.163921E-05 
 -3.781814E-05 -5.120812E-05 -1.499724E-04 -5.120812E-05 +4.916941E-03 -1.299672E-04 -1.499724E-04 -1.299672E-04 -2.150479E-05 
 -1.147019E-04 -7.354065E-05 -1.506699E-04 -7.354065E-05 +4.979708E-03 -8.274117E-05 -1.506699E-04 -8.274117E-05 +3.627626E-05 
 -1.297906E-04 -6.575636E-05 -1.115289E-04 -6.575636E-05 +4.998299E-03 -1.078505E-04 -1.115289E-04 -1.078505E-04 +7.257375E-05 
 -1.507928E-04 -5.607714E-05 -4.321743E-05 -5.607714E-05 +5.021913E-03 -1.243226E-04 -4.321743E-05 -1.243226E-04 +9.004499E-05 
 -2.066901E-04 -1.961605E-05 -4.161085E-05 -1.961605E-05 +5.038858E-03 -1.034755E-04 -4.161085E-05 -1.034755E-04 +1.366288E-04 
 -2.710908E-04 -4.681828E-05 -8.298443E-05 -4.681828E-05 +4.998160E-03 -1.257574E-04 -8.298443E-05 -1.257574E-04 +9.707602E-05 
 -2.221573E-04 -8.321532E-05 -2.896386E-04 -8.321532E-05 +5.013061E-03 -1.358229E-04 -2.896386E-04 -1.358229E-04 -3.363371E-05 
 +2.382142E-04 -6.447511E-05 +7.731089E-05 -6.447511E-05 +5.011031E-03 -1.663245E-04 +7.731089E-05 -1.663245E-04 -1.724043E-04 
 +3.947891E-04 -4.358789E-05 +1.077761E-05 -4.358789E-05 +4.979161E-03 -1.714759E-04 +1.077761E-05 -1.714759E-04 -2.589010E-04 
 +4.309361E-04 -6.322680E-05 -1.000669E-05 -6.322680E-05 +5.015540E-03 -1.296430E-04 -1.000669E-05 -1.296430E-04 -2.774431E-04 
 +4.105412E-04 +2.597704E-08 -6.439990E-05 +2.597704E-08 +5.041201E-03 -1.009681E-04 -6.439990E-05 -1.009681E-04 -1.097165E-04 
 -1.945517E-04 +6.564048E-05 -9.861897E-05 +6.564048E-05 +4.995922E-03 +1.709404E-05 -9.861897E-05 +1.709404E-05 +2.683761E-04 
 -2.988149E-04 +1.868408E-05 -7.778780E-05 +1.868408E-05 +4.979491E-03 +1.399490E-04 -7.778780E-05 +1.399490E-04 +3.781451E-04 
 -2.418409E-04 +4.589750E-05 -1.549020E-04 +4.589750E-05 +4.996081E-03 +1.724373E-04 -1.549020E-04 +1.724373E-04 +3.429804E-04 
 -1.635590E-04 +8.308381E-05 -2.004937E-04 +8.308381E-05 +5.012568E-03 +1.425613E-04 -2.004937E-04 +1.425613E-04 +3.629368E-04 
 -1.204174E-04 +7.797880E-05 -1.760518E-04 +7.797880E-05 +4.987655E-03 +2.309706E-05 -1.760518E-04 +2.309706E-05 +2.500293E-04 
 +2.087541E-04 +2.148410E-05 +1.379232E-04 +2.148410E-05 +4.954882E-03 -5.769671E-05 +1.379232E-04 -5.769671E-05 +3.929458E-06 
 +2.469959E-04 -6.654636E-05 +6.791640E-05 -6.654636E-05 +5.003554E-03 +5.022312E-05 +6.791640E-05 +5.022312E-05 -1.481697E-05 
 +9.960306E-05 -1.444765E-04 +1.937871E-04 -1.444765E-04 +5.022999E-03 +6.430633E-06 +1.937871E-04 +6.430633E-06 +1.038314E-06 
 +2.988430E-05 -1.396068E-04 +2.411988E-04 -1.396068E-04 +5.007712E-03 -1.953158E-04 +2.411988E-04 -1.953158E-04 -9.256219E-05 
 +7.608684E-05 -7.191023E-05 -5.667355E-05 -7.191023E-05 +4.981450E-03 -2.097403E-04 -5.667355E-05 -2.097403E-04 -1.126948E-04 
 -1.805714E-05 -1.008771E-05 -1.804381E-04 -1.008771E-05 +4.950734E-03 -1.303464E-04 -1.804381E-04 -1.303464E-04 -5.072754E-05 
 -1.017156E-04 -4.081350E-05 -1.936383E-04 -4.081350E-05 +4.988955E-03 -1.016888E-04 -1.936383E-04 -1.016888E-04 +9.821743E-06 
 -1.335030E-04 -4.494756E-05 -1.473208E-04 -4.494756E-05 +5.051747E-03 -1.094402E-04 -1.473208E-04 -1.094402E-04 +1.122898E-05 
 -1.634968E-04 -3.679419E-05 -9.437826E-05 -3.679419E-05 +5.069696E-03 -1.040183E-04 -9.437826E-05 -1.040183E-04 +2.867936E-05 
 -2.108324E-04 -1.097095E-06 -8.815126E-05 -1.097095E-06 +5.051496E-03 -9.004541E-05 -8.815126E-05 -9.004541E-05 +1.086526E-04 
 -4.037903E-04 -2.203322E-05 -1.221382E-04 -2.203322E-05 +5.048046E-03 -1.036567E-04 -1.221382E-04 -1.036567E-04 +1.077096E-04 
 -2.877743E-04 -2.005768E-05 -2.062231E-04 -2.005768E-05 +5.014919E-03 -1.100879E-04 -2.062231E-04 -1.100879E-04 -1.772470E-06 
 +4.182812E-04 -3.793655E-05 +6.478853E-05 -3.793655E-05 +4.974105E-03 -8.283821E-05 +6.478853E-05 -8.283821E-05 -2.122906E-04 
 +4.217594E-04 -8.464733E-05 +8.242066E-05 -8.464733E-05 +4.974404E-03 -8.157774E-05 +8.242066E-05 -8.157774E-05 -2.760151E-04 
 +4.335466E-04 -1.173163E-04 +8.661190E-05 -1.173163E-04 +4.989184E-03 -6.018971E-05 +8.661190E-05 -6.018971E-05 -2.811205E-04 
 +4.239630E-04 -9.615508E-05 +1.500974E-05 -9.615508E-05 +5.027852E-03 -1.551039E-06 +1.500974E-05 -1.551039E-06 -2.394705E-04 
 -7.167104E-05 -3.976872E-05 -2.447586E-05 -3.976872E-05 +5.028880E-03 +6.468935E-05 -2.447586E-05 +6.468935E-05 +1.003345E-04 
 -3.260686E-04 +1.161843E-05 -7.703013E-05 +1.161843E-05 +4.994881E-03 +1.102398E-04 -7.703013E-05 +1.102398E-04 +3.429624E-04 
 -2.915105E-04 +3.355456E-05 -1.454293E-04 +3.355456E-05 +4.985692E-03 +1.426226E-04 -1.454293E-04 +1.426226E-04 +3.670394E-04 
 -2.085333E-04 +6.896319E-05 -1.340101E-04 +6.896319E-05 +4.975933E-03 +1.558355E-04 -1.340101E-04 +1.558355E-04 +3.381162E-04 
 -3.477411E-05 +7.617620E-05 -1.320230E-04 +7.617620E-05 +4.970885E-03 +7.816792E-05 -1.320230E-04 +7.816792E-05 +2.732200E-04 
 +1.876209E-04 +6.884891E-06 +1.330158E-04 +6.884891E-06 +4.996827E-03 +3.372277E-07 +1.330158E-04 +3.372277E-07 +9.501346E-05 
 +1.862328E-04 -4.265235E-05 +1.798831E-04 -4.265235E-05 +5.043258E-03 +1.187133E-06 +1.798831E-04 +1.187133E-06 +1.346619E-05 
 +7.174700E-05 -1.041512E-04 +1.231737E-04 -1.041512E-04 +5.110325E-03 -1.626537E-05 +1.231737E-04 -1.626537E-05 +3.187205E-05 
 +2.149913E-05 -1.289560E-04 +3.628894E-06 -1.289560E-04 +5.134634E-03 -1.507751E-04 +3.628894E-06 -1.507751E-04 -6.435449E-05 
 +1.854312E-05 -8.218329E-05 -1.754341E-04 -8.218329E-05 +5.078771E-03 -2.388322E-04 -1.754341E-04 -2.388322E-04 -1.984815E-04 
 -2.832344E-05 -1.921786E-05 -2.240018E-04 -1.921786E-05 +5.021656E-03 -1.765251E-04 -2.240018E-04 -1.765251E-04 -1.074846E-04 
 -1.085408E-04 -1.888012E-05 -2.519653E-04 -1.888012E-05 +5.048274E-03 -1.129314E-04 -2.519653E-04 -1.129314E-04 -1.383576E-06 
 -9.498155E-05 -3.446702E-05 -2.254881E-04 -3.446702E-05 +5.095906E-03 -1.158958E-04 -2.254881E-04 -1.158958E-04 -4.556404E-05 
 -1.164504E-04 -1.188802E-05 -1.208916E-04 -1.188802E-05 +5.082842E-03 -1.205073E-04 -1.208916E-04 -1.205073E-04 +1.580237E-05 
 -2.927672E-04 -3.406983E-05 -6.126070E-05 -3.406983E-05 +5.153002E-03 -4.285964E-05 -6.126070E-05 -4.285964E-05 +7.500908E-05 
 -3.446576E-04 +1.597116E-06 -1.204280E-04 +1.597116E-06 +5.130786E-03 -7.130855E-05 -1.204280E-04 -7.130855E-05 +5.995775E-05 
 -2.974045E-04 +4.435539E-05 -1.706909E-04 +4.435539E-05 +5.034586E-03 -1.710247E-04 -1.706909E-04 -1.710247E-04 -6.213173E-05 
 +3.707641E-04 +2.188159E-05 +1.487575E-04 +2.188159E-05 +4.970311E-03 -1.777475E-04 +1.487575E-04 -1.777475E-04 -2.517279E-04 
 +3.770496E-04 -9.644117E-05 +1.090748E-04 -9.644117E-05 +4.963597E-03 -1.070978E-04 +1.090748E-04 -1.070978E-04 -2.384142E-04 
 +3.534414E-04 -1.412806E-04 +1.212957E-04 -1.412806E-04 +4.984479E-03 -3.385670E-05 +1.212957E-04 -3.385670E-05 -1.850478E-04 
 +3.626073E-04 -1.843659E-04 +8.054221E-05 -1.843659E-04 +5.017058E-03 +9.265756E-05 +8.054221E-05 +9.265756E-05 -2.378454E-04 
 +1.251633E-04 -1.830530E-04 +7.082087E-05 -1.830530E-04 +5.012976E-03 +1.589819E-04 +7.082087E-05 +1.589819E-04 -7.417569E-05 
 -2.793217E-04 -1.110288E-04 +3.288541E-06 -1.110288E-04 +5.012438E-03 +1.525681E-04 +3.288541E-06 +1.525681E-04 +2.073420E-04 
 -3.807352E-04 -5.153637E-05 -1.183980E-04 -5.153637E-05 +5.049394E-03 +1.429278E-04 -1.183980E-04 +1.429278E-04 +2.988248E-04 
 -1.990741E-04 -6.775609E-05 -1.072805E-04 -6.775609E-05 +4.996080E-03 +1.379075E-04 -1.072805E-04 +1.379075E-04 +2.772006E-04 
 +7.890048E-05 +2.554716E-08 -1.341494E-04 +2.554716E-08 +4.916387E-03 +1.666406E-04 -1.341494E-04 +1.666406E-04 +2.919876E-04 
 +1.477864E-04 +1.806384E-05 -4.886019E-05 +1.806384E-05 +4.985622E-03 +9.145635E-05 -4.886019E-05 +9.145635E-05 +2.364900E-04 
 +2.339841E-04 -1.043827E-05 +1.011229E-04 -1.043827E-05 +5.101413E-03 -2.084512E-05 +1.011229E-04 -2.084512E-05 +1.774375E-04 
 +3.965966E-05 -5.735860E-05 +3.836826E-05 -5.735860E-05 +5.192185E-03 -2.412106E-05 +3.836826E-05 -2.412106E-05 +1.002502E-04 
 -1.589189E-05 -1.336288E-04 -2.540297E-04 -1.336288E-04 +5.231875E-03 -2.957435E-05 -2.540297E-04 -2.957435E-05 -1.651692E-04 
 -7.013301E-06 -1.184600E-04 -2.984957E-04 -1.184600E-04 +5.205770E-03 -9.799288E-05 -2.984957E-04 -9.799288E-05 -3.439429E-04 
 -8.742037E-05 -2.626470E-05 -2.685905E-04 -2.626470E-05 +5.156115E-03 -1.914205E-04 -2.685905E-04 -1.914205E-04 -2.041448E-04 
 -1.201012E-04 +1.962990E-05 -2.533504E-04 +1.962990E-05 +5.154473E-03 -7.999789E-05 -2.533504E-04 -7.999789E-05 -4.658813E-05 
 -3.323345E-05 -4.948055E-05 -3.225423E-04 -4.948055E-05 +5.144499E-03 +5.637506E-05 -3.225423E-04 +5.637506E-05 -7.400441E-05 
 -3.177206E-05 -2.381665E-05 -1.828894E-04 -2.381665E-05 +5.126370E-03 -1.346496E-05 -1.828894E-04 -1.346496E-05 -9.659385E-06 
 -2.180933E-04 -5.883437E-05 -8.426626E-05 -5.883437E-05 +5.171445E-03 +5.469712E-05 -8.426626E-05 +5.469712E-05 -3.670354E-05 
 -1.360762E-04 +6.342206E-05 -8.448360E-05 +6.342206E-05 +5.127319E-03 -5.792518E-05 -8.448360E-05 -5.792518E-05 -7.296156E-05 
 -1.984415E-04 +1.089070E-04 -1.254755E-04 +1.089070E-04 +5.070187E-03 -6.718312E-05 -1.254755E-04 -6.718312E-05 -1.289720E-04 
 +1.515728E-04 +1.558162E-04 +2.296030E-04 +1.558162E-04 +4.978578E-03 -9.080677E-05 +2.296030E-04 -9.080677E-05 -1.899040E-04 
 +2.531070E-04 -7.569812E-06 +1.118084E-04 -7.569812E-06 +4.940886E-03 -1.228569E-04 +1.118084E-04 -1.228569E-04 -1.956796E-04 
 +2.279565E-04 -3.732992E-05 +9.264794E-05 -3.732992E-05 +4.981482E-03 -6.670335E-05 +9.264794E-05 -6.670335E-05 -1.610740E-04 
 +2.198928E-04 -1.156747E-04 +1.196068E-04 -1.156747E-04 +5.032919E-03 +4.868713E-05 +1.196068E-04 +4.868713E-05 -1.834883E-04 
 +1.397163E-04 -2.278567E-04 +1.402948E-04 -2.278567E-04 +5.049506E-03 +1.788969E-04 +1.402948E-04 +1.788969E-04 -1.571547E-04 
 -1.594963E-04 -2.098930E-04 +6.201746E-05 -2.098930E-04 +5.062897E-03 +2.031201E-04 +6.201746E-05 +2.031201E-04 -1.514407E-05 
 -2.667198E-04 -5.767277E-05 -1.090029E-04 -5.767277E-05 +5.003077E-03 +1.003234E-04 -1.090029E-04 +1.003234E-04 +1.348594E-04 
 -1.527236E-04 -8.853108E-06 -1.380624E-04 -8.853108E-06 +4.895361E-03 +7.424240E-05 -1.380624E-04 +7.424240E-05 +2.037812E-04 
 +1.019714E-04 +7.202846E-05 -1.768389E-04 +7.202846E-05 +4.823436E-03 +1.008961E-04 -1.768389E-04 +1.008961E-04 +1.864034E-04 
 +1.930747E-04 +7.215983E-05 -1.546496E-04 +7.215983E-05 +4.768060E-03 +6.353547E-05 -1.546496E-04 +6.353547E-05 +2.108323E-04 
 +2.017920E-04 +2.694125E-05 +1.687047E-05 +2.694125E-05 +4.746890E-03 +5.933024E-05 +1.687047E-05 +5.933024E-05 +3.044879E-04 
 +6.870886E-05 +4.428115E-05 -7.391525E-05 +4.428115E-05 +4.935101E-03 +5.395194E-05 -7.391525E-05 +5.395194E-05 +2.768856E-04 
 -8.305354E-05 -7.993189E-05 -2.406616E-04 -7.993189E-05 +5.214503E-03 +4.184195E-05 -2.406616E-04 +4.184195E-05 -5.966215E-05 
 -7.262970E-05 -1.584739E-04 -3.205859E-04 -1.584739E-04 +5.294698E-03 -2.216267E-05 -3.205859E-04 -2.216267E-05 -3.004845E-04 
 -1.183228E-04 -7.989170E-05 -1.440979E-04 -7.989170E-05 +5.285497E-03 -5.776220E-05 -1.440979E-04 -5.776220E-05 -2.547150E-04 
 -5.054051E-05 +5.073125E-06 -6.969725E-05 +5.073125E-06 +5.199566E-03 +1.060205E-04 -6.969725E-05 +1.060205E-04 -5.704060E-05 
 -1.617078E-05 -1.211318E-05 -4.271178E-04 -1.211318E-05 +5.129499E-03 +1.355968E-04 -4.271178E-04 +1.355968E-04 +2.791121E-05 
 -8.556723E-05 -3.767642E-05 -1.839215E-04 -3.767642E-05 +5.183688E-03 +9.702089E-05 -1.839215E-04 +9.702089E-05 -3.860741E-05 
 -7.481194E-05 -3.049197E-05 -1.290226E-04 -3.049197E-05 +5.081738E-03 +3.094899E-05 -1.290226E-04 +3.094899E-05 -1.771851E-04 
 +1.897592E-05 +1.852744E-05 -5.782484E-05 +1.852744E-05 +5.021765E-03 -1.056976E-04 -5.782484E-05 -1.056976E-04 -2.297463E-04 
 -5.696078E-08 +3.087459E-05 -5.593036E-05 +3.087459E-05 +4.966726E-03 -4.419315E-05 -5.593036E-05 -4.419315E-05 -1.310631E-04 
 +6.610542E-06 +1.514239E-04 +1.589862E-04 +1.514239E-04 +4.954446E-03 -2.158172E-05 +1.589862E-04 -2.158172E-05 -4.989967E-05 
 +5.438524E-05 +6.246873E-05 +7.300354E-05 +6.246873E-05 +4.948441E-03 -1.258541E-04 +7.300354E-05 -1.258541E-04 -1.133423E-04 
 +6.984872E-05 +4.042607E-05 +1.372285E-04 +4.042607E-05 +4.970540E-03 -3.505099E-05 +1.372285E-04 -3.505099E-05 -1.864049E-04 
 +1.119921E-04 -4.801150E-05 +1.552547E-04 -4.801150E-05 +5.019390E-03 +1.014333E-04 +1.552547E-04 +1.014333E-04 -2.182561E-04 
 +9.893186E-05 -9.211255E-05 +1.590744E-04 -9.211255E-05 +5.011368E-03 +1.103259E-04 +1.590744E-04 +1.103259E-04 -1.858572E-04 
 -1.898869E-05 -2.210100E-05 -1.234967E-07 -2.210100E-05 +4.966464E-03 +7.949151E-05 -1.234967E-07 +7.949151E-05 -6.584678E-05 
 -9.079779E-05 +1.787765E-05 -9.328547E-05 +1.787765E-05 +4.939438E-03 +6.017191E-05 -9.328547E-05 +6.017191E-05 +8.436210E-05 
 -9.826037E-05 +1.622908E-05 -1.079282E-04 +1.622908E-05 +4.935977E-03 +6.880871E-05 -1.079282E-04 +6.880871E-05 +1.348727E-04 
 -1.045073E-05 +3.252225E-05 -1.532065E-04 +3.252225E-05 +4.870823E-03 +1.354965E-04 -1.532065E-04 +1.354965E-04 +9.074013E-05 
 +1.630992E-04 -2.048290E-05 -3.536845E-05 -2.048290E-05 +4.716661E-03 +2.352872E-04 -3.536845E-05 +2.352872E-04 +1.443764E-04 
 +1.537841E-04 -2.310417E-05 +1.347791E-05 -2.310417E-05 +4.659017E-03 +2.065813E-04 +1.347791E-05 +2.065813E-04 +2.508110E-04 
 +8.575488E-05 +7.999859E-05 -8.835105E-05 +7.999859E-05 +4.678438E-03 +1.701910E-04 -8.835105E-05 +1.701910E-04 +3.084720E-04 
 -2.869752E-05 +4.516710E-05 -1.576833E-04 +4.516710E-05 +4.867820E-03 +1.103841E-04 -1.576833E-04 +1.103841E-04 +1.302148E-04 
 -1.517374E-04 -4.701041E-05 -2.700612E-04 -4.701041E-05 +5.172079E-03 -1.413777E-05 -2.700612E-04 -1.413777E-05 -1.503349E-04 
 -8.404312E-05 +1.539868E-05 +1.562275E-04 +1.539868E-05 +5.244643E-03 -2.781797E-05 +1.562275E-04 -2.781797E-05 -1.976639E-04 
 +1.699146E-05 +1.721146E-05 +1.530758E-04 +1.721146E-05 +5.160056E-03 +1.762914E-06 +1.530758E-04 +1.762914E-06 -5.196734E-05 
 -5.891683E-05 +4.049095E-05 -3.781267E-04 +4.049095E-05 +5.147358E-03 +9.352932E-05 -3.781267E-04 +9.352932E-05 +6.044209E-05 
 -1.636085E-04 +2.207398E-05 -7.055873E-05 +2.207398E-05 +5.137012E-03 +1.653450E-04 -7.055873E-05 +1.653450E-04 -4.429931E-05 
 -3.690408E-05 -1.805072E-06 -9.353490E-05 -1.805072E-06 +5.023661E-03 -4.358269E-05 -9.353490E-05 -4.358269E-05 -2.195374E-04 
 +9.208233E-05 -1.940830E-05 -8.140793E-05 -1.940830E-05 +4.952645E-03 -7.226743E-05 -8.140793E-05 -7.226743E-05 -2.077631E-04 
 +6.801141E-05 -2.547874E-05 -6.005365E-05 -2.547874E-05 +4.901461E-03 -5.757129E-05 -6.005365E-05 -5.757129E-05 -7.038393E-05 
 -1.014078E-05 -1.068440E-05 +3.604251E-06 -1.068440E-05 +4.846187E-03 -3.382787E-05 +3.604251E-06 -3.382787E-05 +4.407864E-05 
 -1.069633E-05 +3.673045E-05 +6.041836E-05 +3.673045E-05 +4.822047E-03 -3.023121E-05 +6.041836E-05 -3.023121E-05 +2.238013E-05 
 +1.344522E-05 +1.553579E-04 +1.729840E-04 +1.553579E-04 +4.884584E-03 +3.386913E-05 +1.729840E-04 +3.386913E-05 -9.613509E-05 
 +7.647209E-05 +1.155880E-04 +1.252017E-04 +1.155880E-04 +4.847325E-03 +9.342758E-05 +1.252017E-04 +9.342758E-05 -1.599424E-04 
 +1.174444E-04 +6.616976E-05 +6.401213E-05 +6.616976E-05 +4.855595E-03 +7.164754E-05 +6.401213E-05 +7.164754E-05 -1.141211E-04 
 +1.638409E-05 +5.475848E-05 -4.597274E-05 +5.475848E-05 +4.921722E-03 +4.822599E-05 -4.597274E-05 +4.822599E-05 -2.055576E-05 
 -4.087018E-05 +5.677824E-05 -5.825387E-05 +5.677824E-05 +4.942990E-03 +3.777944E-05 -5.825387E-05 +3.777944E-05 +4.431935E-05 
 -8.096490E-05 +6.411867E-05 -5.354788E-05 +6.411867E-05 +4.975836E-03 +3.632355E-05 -5.354788E-05 +3.632355E-05 +5.401172E-05 
 -1.103051E-04 +2.411235E-05 -8.080562E-05 +2.411235E-05 +4.959324E-03 +1.227220E-04 -8.080562E-05 +1.227220E-04 +5.642687E-05 
 +4.036026E-05 -4.871658E-05 +4.600620E-05 -4.871658E-05 +4.821432E-03 +2.197119E-04 +4.600620E-05 +2.197119E-04 +1.434271E-04 
 +7.573568E-05 -2.860592E-06 +1.544239E-05 -2.860592E-06 +4.695549E-03 +2.147666E-04 +1.544239E-05 +2.147666E-04 +2.014944E-04 
 +5.829861E-05 +5.164268E-05 -7.268724E-05 +5.164268E-05 +4.660016E-03 +1.928906E-04 -7.268724E-05 +1.928906E-04 +2.333858E-04 
 +4.303271E-05 +1.049250E-04 -1.743167E-04 +1.049250E-04 +4.724361E-03 +8.812415E-05 -1.743167E-04 +8.812415E-05 +1.647350E-04 
 -4.354498E-05 +3.394709E-05 -8.979567E-05 +3.394709E-05 +4.950632E-03 -9.096112E-06 -8.979567E-05 -9.096112E-06 -3.324319E-05 
 -3.604412E-05 +8.977082E-06 +2.693551E-04 +8.977082E-06 +5.131840E-03 -4.304049E-05 +2.693551E-04 -4.304049E-05 -9.905910E-05 
 -2.963135E-05 -1.687115E-05 +1.682262E-04 -1.687115E-05 +5.174755E-03 -1.169186E-04 +1.682262E-04 -1.169186E-04 -1.040748E-04 
 -1.022243E-04 +1.093833E-05 -6.983208E-05 +1.093833E-05 +5.141622E-03 +2.302918E-05 -6.983208E-05 +2.302918E-05 -8.294852E-05 
 -1.000043E-04 -6.630520E-06 -4.121709E-05 -6.630520E-06 +5.059207E-03 +8.551047E-05 -4.121709E-05 +8.551047E-05 -1.167872E-04 
 +1.537209E-05 -3.846505E-05 -4.559873E-05 -3.846505E-05 +4.971658E-03 -4.560821E-05 -4.559873E-05 -4.560821E-05 -2.206792E-04 
 +1.137710E-04 -6.442101E-05 -8.093412E-05 -6.442101E-05 +4.902027E-03 -3.212050E-05 -8.093412E-05 -3.212050E-05 -1.486199E-04 
 +6.693780E-05 -1.071355E-05 -6.750018E-05 -1.071355E-05 +4.878214E-03 +1.751475E-05 -6.750018E-05 +1.751475E-05 -3.761243E-05 
 +3.727123E-05 +1.766753E-05 -2.043607E-05 +1.766753E-05 +4.843763E-03 +7.003099E-05 -2.043607E-05 +7.003099E-05 +6.966815E-05 
 +7.551054E-06 +1.525600E-04 +8.831581E-05 +1.525600E-04 +4.861745E-03 +7.280972E-05 +8.831581E-05 +7.280972E-05 +7.530103E-05 
 +3.651097E-05 +1.590343E-04 +9.756528E-05 +1.590343E-04 +4.872808E-03 +5.906374E-05 +9.756528E-05 +5.906374E-05 -2.553175E-05 
 +6.994922E-05 +7.559794E-05 +9.619021E-05 +7.559794E-05 +4.852503E-03 +1.223735E-04 +9.619021E-05 +1.223735E-04 -1.020060E-04 
 +8.933964E-05 +1.021941E-04 -7.477406E-05 +1.021941E-04 +4.858525E-03 +9.701249E-05 -7.477406E-05 +9.701249E-05 -8.759384E-05 
 +4.313129E-05 +1.316725E-04 -9.845552E-05 +1.316725E-04 +4.918835E-03 +2.402796E-05 -9.845552E-05 +2.402796E-05 -1.571091E-05 
 -2.968026E-05 +1.204078E-04 -7.812517E-05 +1.204078E-04 +4.969926E-03 +2.345963E-05 -7.812517E-05 +2.345963E-05 -7.155212E-06 
 -7.912605E-05 +1.374585E-04 -5.298110E-05 +1.374585E-04 +5.010727E-03 +3.075851E-05 -5.298110E-05 +3.075851E-05 -9.651798E-06 
 -9.067077E-05 +7.579384E-05 +4.160218E-05 +7.579384E-05 +5.043614E-03 +1.191011E-04 +4.160218E-05 +1.191011E-04 -5.033857E-06 
 -1.123180E-04 -3.283032E-05 +4.679501E-05 -3.283032E-05 +4.947438E-03 +2.168200E-04 +4.679501E-05 +2.168200E-04 +8.573272E-05 
 -1.065676E-04 +5.490794E-05 -8.889046E-06 +5.490794E-05 +4.844855E-03 +1.824220E-04 -8.889046E-06 +1.824220E-04 +2.053558E-04 
 -7.273499E-05 +5.148530E-05 -9.766207E-05 +5.148530E-05 +4.794271E-03 +1.381164E-04 -9.766207E-05 +1.381164E-04 +2.415457E-04 
 -7.990452E-06 +1.163511E-04 -1.804477E-04 +1.163511E-04 +4.794560E-03 +8.396014E-05 -1.804477E-04 +8.396014E-05 +2.073429E-04 
 +1.202975E-04 +6.006692E-05 +5.411399E-05 +6.006692E-05 +4.920711E-03 +1.505092E-05 +5.411399E-05 +1.505092E-05 +7.501849E-05 
 +3.677023E-05 -6.199057E-05 +2.205864E-04 -6.199057E-05 +5.058140E-03 -3.890227E-05 +2.205864E-04 -3.890227E-05 -3.860242E-05 
 -2.750195E-05 -5.854044E-05 +1.562153E-04 -5.854044E-05 +5.109663E-03 -7.320166E-05 +1.562153E-04 -7.320166E-05 -8.883882E-05 
 -5.816104E-05 -1.229338E-05 +1.972525E-04 -1.229338E-05 +5.080994E-03 -6.646313E-05 +1.972525E-04 -6.646313E-05 -1.005653E-04 
 -5.224158E-05 -3.620898E-06 +6.035957E-05 -3.620898E-06 +5.040949E-03 -3.226200E-05 +6.035957E-05 -3.226200E-05 -1.615584E-04 
 +7.075973E-05 -1.136198E-04 +1.210475E-05 -1.136198E-04 +4.914860E-03 -6.225221E-05 +1.210475E-05 -6.225221E-05 -2.095592E-04 
 +1.245782E-04 -8.748761E-05 -2.720229E-05 -8.748761E-05 +4.864148E-03 -6.358316E-06 -2.720229E-05 -6.358316E-06 -1.637968E-04 
 +1.487406E-04 -3.282773E-05 -5.847003E-05 -3.282773E-05 +4.846673E-03 +7.486663E-05 -5.847003E-05 +7.486663E-05 -1.166714E-04 
 +1.097838E-04 +3.061256E-05 -1.319203E-05 +3.061256E-05 +4.893407E-03 +1.231674E-04 -1.319203E-05 +1.231674E-04 -4.155187E-05 
 +6.579445E-08 +1.692501E-04 +6.445564E-05 +1.692501E-04 +4.976611E-03 +9.918055E-05 +6.445564E-05 +9.918055E-05 +6.534687E-06 
 -1.992358E-06 +1.265674E-04 +4.918798E-05 +1.265674E-04 +4.934730E-03 +8.539719E-05 +4.918798E-05 +8.539719E-05 -1.057863E-05 
 +6.976935E-05 +7.844001E-05 +9.156847E-05 +7.844001E-05 +4.858561E-03 +8.492149E-05 +9.156847E-05 +8.492149E-05 -1.164107E-04 
 +8.720023E-05 +1.083628E-04 -1.535390E-04 +1.083628E-04 +4.849178E-03 +4.053455E-05 -1.535390E-04 +4.053455E-05 -1.520579E-04 
 +6.660116E-05 +1.565198E-04 -1.230823E-04 +1.565198E-04 +4.896298E-03 +2.109861E-05 -1.230823E-04 +2.109861E-05 -4.385718E-05 
 -2.480520E-05 +9.795534E-05 -6.032433E-05 +9.795534E-05 +4.991675E-03 +3.236969E-05 -6.032433E-05 +3.236969E-05 -2.973468E-05 
 -6.634117E-05 +1.290638E-04 -2.913574E-05 +1.290638E-04 +5.027436E-03 +3.597083E-05 -2.913574E-05 +3.597083E-05 -4.332463E-05 
 +1.868567E-05 +1.237992E-04 +1.869825E-04 +1.237992E-04 +5.140168E-03 +3.933895E-05 +1.869825E-04 +3.933895E-05 -6.516853E-05 
 -2.672659E-04 -2.871903E-05 -1.138871E-05 -2.871903E-05 +5.354298E-03 -2.194113E-05 -1.138871E-05 -2.194113E-05 -6.358023E-05 
 -2.852323E-04 +5.329425E-05 -8.894807E-05 +5.329425E-05 +5.393372E-03 -9.550601E-05 -8.894807E-05 -9.550601E-05 +3.104013E-05 
 -2.414903E-04 +8.046709E-05 -1.946548E-04 +8.046709E-05 +5.288548E-03 -1.145416E-04 -1.946548E-04 -1.145416E-04 +9.794366E-05 
 -1.186750E-04 +1.808798E-04 -2.416519E-04 +1.808798E-04 +5.153214E-03 -1.016099E-04 -2.416519E-04 -1.016099E-04 +1.604409E-04 
 +2.391433E-04 +1.785002E-04 +5.925045E-05 +1.785002E-04 +5.037692E-03 -2.768350E-05 +5.925045E-05 -2.768350E-05 +9.392237E-05 
 +1.275933E-04 +6.652655E-05 +2.039347E-04 +6.652655E-05 +5.039423E-03 +4.578737E-06 +2.039347E-04 +4.578737E-06 -5.571284E-05 
 +1.462145E-05 -5.938737E-07 +2.432838E-04 -5.938737E-07 +5.063661E-03 -2.474511E-05 +2.432838E-04 -2.474511E-05 -7.825041E-05 
 -2.321568E-05 -2.645046E-05 +3.046942E-04 -2.645046E-05 +5.045646E-03 -3.561042E-05 +3.046942E-04 -3.561042E-05 -5.682559E-05 
 -4.853714E-05 -5.043042E-05 +2.555883E-04 -5.043042E-05 +5.001826E-03 -5.398467E-05 +2.555883E-04 -5.398467E-05 -1.478060E-04 
 +5.035888E-05 -1.347407E-04 +8.609775E-05 -1.347407E-04 +4.902452E-03 -2.540116E-05 +8.609775E-05 -2.540116E-05 -1.985332E-04 
 +1.104335E-04 -1.189637E-04 +2.067495E-05 -1.189637E-04 +4.863360E-03 +2.877875E-05 +2.067495E-05 +2.877875E-05 -1.698988E-04 
 +1.641406E-04 -1.125747E-04 -4.546303E-05 -1.125747E-04 +4.892796E-03 +5.222130E-05 -4.546303E-05 +5.222130E-05 -1.994086E-04 
 +1.746034E-04 -2.314069E-05 -5.680286E-05 -2.314069E-05 +4.997375E-03 +5.771581E-05 -5.680286E-05 +5.771581E-05 -2.226795E-04 
 +9.662960E-05 +8.158054E-05 -5.847021E-05 +8.158054E-05 +5.016049E-03 +6.472978E-05 -5.847021E-05 +6.472978E-05 -1.295028E-04 
 +5.059017E-05 +8.864101E-05 -4.529089E-05 +8.864101E-05 +4.941057E-03 +4.827620E-05 -4.529089E-05 +4.827620E-05 -4.914805E-05 
 +1.932926E-05 +6.842705E-05 +1.784729E-05 +6.842705E-05 +4.857617E-03 +4.731571E-06 +1.784729E-05 +4.731571E-06 -1.143058E-04 
 +4.838380E-05 +1.291564E-04 -1.421886E-04 +1.291564E-04 +4.855120E-03 -4.438694E-06 -1.421886E-04 -4.438694E-06 -1.646414E-04 
 +6.009620E-05 +1.748794E-04 -9.624520E-05 +1.748794E-04 +4.939678E-03 -2.919428E-05 -9.624520E-05 -2.919428E-05 -1.167948E-04 
 -1.811285E-05 +1.329284E-04 +3.156638E-05 +1.329284E-04 +5.002948E-03 -4.008740E-05 +3.156638E-05 -4.008740E-05 -7.623532E-05 
 -3.633129E-05 +1.197354E-04 +6.772014E-05 +1.197354E-04 +5.083012E-03 +2.152857E-05 +6.772014E-05 +2.152857E-05 -5.298266E-05 
 +9.680728E-06 +1.111929E-04 +1.701173E-04 +1.111929E-04 +5.144928E-03 -3.145292E-05 +1.701173E-04 -3.145292E-05 -7.976254E-05 
 -2.822299E-04 -1.289067E-05 -1.117504E-05 -1.289067E-05 +5.287923E-03 -1.294778E-04 -1.117504E-05 -1.294778E-04 -9.786489E-05 
 -2.965267E-04 +3.969500E-05 -1.170376E-04 +3.969500E-05 +5.357216E-03 -1.802713E-04 -1.170376E-04 -1.802713E-04 -3.338991E-05 
 -3.039116E-04 +1.612737E-04 -1.616198E-04 +1.612737E-04 +5.260975E-03 -2.129405E-04 -1.616198E-04 -2.129405E-04 -2.063312E-05 
 -1.353451E-04 +3.082910E-04 -1.853059E-04 +3.082910E-04 +5.115088E-03 -1.084735E-04 -1.853059E-04 -1.084735E-04 +1.746167E-05 
 +2.381491E-04 +3.290498E-04 +9.850385E-05 +3.290498E-04 +4.947523E-03 +1.222932E-05 +9.850385E-05 +1.222932E-05 -5.467323E-07 
 +1.553019E-04 +2.358548E-04 +2.231502E-04 +2.358548E-04 +4.954662E-03 +4.779363E-05 +2.231502E-04 +4.779363E-05 -1.189968E-04 
 -1.865228E-05 +9.037188E-05 +3.030082E-04 +9.037188E-05 +5.083991E-03 +1.819145E-05 +3.030082E-04 +1.819145E-05 -1.309932E-04 
 -6.200991E-05 +4.098413E-06 +3.648299E-04 +4.098413E-06 +5.102748E-03 -4.637430E-06 +3.648299E-04 -4.637430E-06 -7.582778E-05 
 -2.457354E-05 -4.680573E-05 +3.062212E-04 -4.680573E-05 +5.002962E-03 -2.914640E-05 +3.062212E-04 -2.914640E-05 -1.371635E-04 
 -2.075931E-05 -1.239578E-04 +1.391707E-04 -1.239578E-04 +4.913915E-03 +3.199932E-06 +1.391707E-04 +3.199932E-06 -1.862517E-04 
 -1.044873E-04 -1.570584E-04 -9.740912E-06 -1.570584E-04 +4.932398E-03 +7.247329E-06 -9.740912E-06 +7.247329E-06 -1.374632E-04 
 +8.467897E-05 -2.179310E-04 +3.146250E-05 -2.179310E-04 +4.978185E-03 +2.042571E-06 +3.146250E-05 +2.042571E-06 -1.736041E-04 
 +2.672289E-04 -1.025488E-04 -5.171017E-05 -1.025488E-04 +5.044969E-03 +1.405787E-05 -5.171017E-05 +1.405787E-05 -2.375250E-04 
 +1.496117E-04 -2.128316E-04 -1.642510E-04 -2.128316E-04 +4.935924E-03 +1.979056E-05 -1.642510E-04 +1.979056E-05 -2.079853E-04 
 +1.231166E-04 -1.850675E-04 -1.021572E-04 -1.850675E-04 +4.821751E-03 +3.976186E-05 -1.021572E-04 +3.976186E-05 -1.183312E-04 
 +6.036467E-05 -2.193642E-04 -6.006954E-05 -2.193642E-04 +4.839526E-03 -1.631268E-05 -6.006954E-05 -1.631268E-05 -1.077511E-04 
 +5.840251E-05 +2.311543E-05 -6.550201E-05 +2.311543E-05 +4.829693E-03 -3.776952E-05 -6.550201E-05 -3.776952E-05 -1.224732E-04 
 +5.120890E-05 +1.451034E-04 -9.836749E-06 +1.451034E-04 +4.975184E-03 +9.501284E-05 -9.836749E-06 +9.501284E-05 -1.222520E-04 
 -4.756950E-06 +6.028403E-05 +8.743294E-05 +6.028403E-05 +5.159422E-03 +2.131597E-04 +8.743294E-05 +2.131597E-04 -1.126802E-04 
 -3.943335E-05 +2.660646E-05 +1.838888E-04 +2.660646E-05 +5.209734E-03 +2.672170E-04 +1.838888E-04 +2.672170E-04 -8.134358E-05 
 -1.250548E-04 -5.658403E-05 +4.030566E-05 -5.658403E-05 +5.119254E-03 +2.083251E-04 +4.030566E-05 +2.083251E-04 -3.954128E-05 
 -1.714826E-04 -7.887314E-05 +3.916687E-05 -7.887314E-05 +5.028755E-03 +7.611187E-05 +3.916687E-05 +7.611187E-05 -3.979234E-06 
 -1.980953E-04 -1.018883E-04 -1.283593E-04 -1.018883E-04 +5.075719E-03 -2.476090E-05 -1.283593E-04 -2.476090E-05 +1.815037E-05 
 -1.751126E-04 +5.522179E-05 -2.084620E-06 +5.522179E-05 +5.111175E-03 -1.200246E-04 -2.084620E-06 -1.200246E-04 -9.029685E-05 
 -2.225012E-05 +2.198086E-04 -9.247335E-06 +2.198086E-04 +5.042770E-03 -9.499867E-05 -9.247335E-06 -9.499867E-05 -1.713938E-04 
 +9.227813E-05 +2.922496E-04 +1.156429E-04 +2.922496E-04 +4.970084E-03 -1.563554E-05 +1.156429E-04 -1.563554E-05 -1.703790E-04 
 +1.125180E-04 +2.580708E-04 +2.125198E-04 +2.580708E-04 +4.966412E-03 +3.540546E-05 +2.125198E-04 +3.540546E-05 -1.696837E-04 
 +1.214384E-05 +1.686764E-04 +2.551401E-04 +1.686764E-04 +5.028627E-03 +4.580225E-05 +2.551401E-04 +4.580225E-05 -1.236105E-04 
 -8.255988E-05 +4.151507E-05 +3.364369E-04 +4.151507E-05 +5.031072E-03 -2.980604E-05 +3.364369E-04 -2.980604E-05 -2.577143E-05 
 -6.755035E-05 -3.985864E-05 +2.861019E-04 -3.985864E-05 +4.945316E-03 -5.911726E-05 +2.861019E-04 -5.911726E-05 -9.904470E-05 
 -1.460269E-04 -4.006308E-05 +1.145212E-04 -4.006308E-05 +4.970039E-03 -2.471324E-05 +1.145212E-04 -2.471324E-05 -1.075982E-04 
 -3.572171E-04 -4.877090E-05 -9.758342E-05 -4.877090E-05 +5.075429E-03 -8.292888E-06 -9.758342E-05 -8.292888E-06 -3.861082E-05 
 -3.710293E-05 -1.865678E-04 +7.585453E-05 -1.865678E-04 +4.892420E-03 +2.436121E-06 +7.585453E-05 +2.436121E-06 -4.837505E-05 
 +2.051530E-04 -6.651171E-05 -5.327239E-05 -6.651171E-05 +4.642177E-03 -6.924074E-05 -5.327239E-05 -6.924074E-05 -6.645719E-05 
 +1.473228E-04 -2.452896E-04 -1.391157E-04 -2.452896E-04 +4.730642E-03 -1.131759E-04 -1.391157E-04 -1.131759E-04 -1.287813E-04 
 +1.182785E-04 -1.875330E-04 +1.034707E-05 -1.875330E-04 +4.800023E-03 -3.537938E-05 +1.034707E-05 -3.537938E-05 -9.827276E-05 
 +8.804191E-05 -2.440471E-04 +4.290878E-05 -2.440471E-04 +4.866060E-03 +6.246052E-05 +4.290878E-05 +6.246052E-05 -9.464864E-05 
 +7.664189E-05 -1.850993E-04 +1.154526E-04 -1.850993E-04 +4.926112E-03 +1.832212E-04 +1.154526E-04 +1.832212E-04 -9.794125E-05 
 +1.630506E-04 +6.171344E-05 +6.204910E-05 +6.171344E-05 +4.863218E-03 +2.049023E-04 +6.204910E-05 +2.049023E-04 -2.735226E-05 
 +1.354320E-04 +1.254440E-04 +2.394338E-05 +1.254440E-04 +4.981146E-03 +1.394203E-04 +2.394338E-05 +1.394203E-04 -4.421849E-05 
 -6.036942E-05 +5.577917E-05 +2.193040E-04 +5.577917E-05 +5.092012E-03 +1.089457E-04 +2.193040E-04 +1.089457E-04 -5.675876E-05 
 -2.079047E-04 -4.440378E-05 -2.861407E-06 -4.440378E-05 +5.063314E-03 +9.652931E-05 -2.861407E-06 +9.652931E-05 +2.590048E-05 
 -1.818137E-04 -5.392658E-05 +5.342985E-06 -5.392658E-05 +5.034545E-03 +5.974303E-05 +5.342985E-06 +5.974303E-05 +3.605204E-05 
 -1.805073E-04 -1.361623E-04 -1.632650E-04 -1.361623E-04 +5.035094E-03 +4.520671E-06 -1.632650E-04 +4.520671E-06 -5.441747E-05 
 +2.887445E-05 -4.558442E-05 +2.666490E-05 -4.558442E-05 +5.100143E-03 -5.624892E-05 +2.666490E-05 -5.624892E-05 -2.127214E-04 
 +8.370936E-05 +1.523896E-05 +2.214945E-05 +1.523896E-05 +5.125788E-03 -1.303588E-04 +2.214945E-05 -1.303588E-04 -3.087553E-04 
 +5.989082E-05 +1.402375E-04 +5.244982E-05 +1.402375E-04 +5.043409E-03 -1.176247E-04 +5.244982E-05 -1.176247E-04 -3.071879E-04 
 +5.601518E-05 +2.097482E-04 +1.987481E-04 +2.097482E-04 +4.976114E-03 -1.090431E-05 +1.987481E-04 -1.090431E-05 -2.261052E-04 
 +2.943165E-05 +9.416792E-06 +1.581979E-04 +9.416792E-06 +4.798051E-03 +1.056991E-04 +1.581979E-04 +1.056991E-04 -7.354277E-05 
 +9.529716E-06 -5.336118E-05 +1.655955E-04 -5.336118E-05 +4.715493E-03 +5.488511E-05 +1.655955E-04 +5.488511E-05 +5.531497E-05 
 -3.050954E-05 -1.880427E-05 +2.662378E-04 -1.880427E-05 +4.853931E-03 -3.470731E-05 +2.662378E-04 -3.470731E-05 -6.196704E-05 
 -2.452045E-04 -1.162682E-04 -3.105902E-05 -1.162682E-04 +5.019123E-03 -1.147208E-05 -3.105902E-05 -1.147208E-05 -1.666242E-05 
 -2.418459E-04 -8.871981E-05 -1.192567E-04 -8.871981E-05 +5.015054E-03 +6.367490E-06 -1.192567E-04 +6.367490E-06 +7.834587E-05 
 -1.330288E-04 -9.123066E-05 -2.459772E-05 -9.123066E-05 +5.010377E-03 +5.867602E-05 -2.459772E-05 +5.867602E-05 +8.885394E-05 
 -7.727619E-05 -5.221656E-06 -1.180319E-04 -5.221656E-06 +4.977660E-03 -7.461265E-05 -1.180319E-04 -7.461265E-05 +6.565276E-05 
 +1.993107E-04 -8.000526E-05 +1.084418E-04 -8.000526E-05 +4.816253E-03 -1.207958E-04 +1.084418E-04 -1.207958E-04 -2.790473E-05 
 +1.571589E-04 -1.666357E-05 +2.177534E-04 -1.666357E-05 +4.908500E-03 -1.615754E-05 +2.177534E-04 -1.615754E-05 -4.056344E-05 
 +6.026789E-05 +6.186164E-05 +2.548545E-04 +6.186164E-05 +5.086072E-03 +4.175223E-05 +2.548545E-04 +4.175223E-05 -4.324921E-05 
 +1.959501E-05 +3.120982E-05 +2.769853E-04 +3.120982E-05 +5.125112E-03 +7.304442E-05 +2.769853E-04 +7.304442E-05 -7.931193E-05 
 +1.809778E-04 +1.161622E-04 +1.357685E-04 +1.161622E-04 +4.934228E-03 +8.593716E-05 +1.357685E-04 +8.593716E-05 +3.384964E-06 
 +2.551769E-04 +1.894345E-04 -3.399906E-06 +1.894345E-04 +4.868588E-03 +1.195727E-04 -3.399906E-06 +1.195727E-04 +1.640941E-05 
 -4.836675E-05 -6.042108E-05 +1.491036E-04 -6.042108E-05 +4.936690E-03 +9.686689E-05 +1.491036E-04 +9.686689E-05 +2.756307E-06 
 -1.897878E-04 -7.238231E-05 +3.135817E-05 -7.238231E-05 +4.988320E-03 +5.994824E-05 +3.135817E-05 +5.994824E-05 +7.198973E-05 
 -2.304540E-04 -5.013723E-05 -2.989813E-05 -5.013723E-05 +5.075017E-03 +4.835536E-05 -2.989813E-05 +4.835536E-05 +3.689660E-05 
 -1.863684E-04 -5.558411E-05 -1.665038E-04 -5.558411E-05 +5.088864E-03 -9.202899E-06 -1.665038E-04 -9.202899E-06 -8.916679E-05 
 +1.344986E-04 +5.922459E-05 +7.781478E-06 +5.922459E-05 +5.119315E-03 -7.138810E-05 +7.781478E-06 -7.138810E-05 -2.561673E-04 
 +1.090200E-04 +3.120463E-05 +2.863523E-07 +3.120463E-05 +5.163431E-03 -1.129142E-04 +2.863523E-07 -1.129142E-04 -3.392926E-04 
 +1.217366E-04 +5.300708E-05 +2.393179E-05 +5.300708E-05 +5.106812E-03 -9.076950E-05 +2.393179E-05 -9.076950E-05 -2.944871E-04 
 +6.963583E-05 +1.693900E-04 +1.478143E-04 +1.693900E-04 +4.972915E-03 -2.667858E-05 +1.478143E-04 -2.667858E-05 -2.352327E-04 
 +4.630970E-07 -6.789328E-05 +9.339870E-05 -6.789328E-05 +4.811820E-03 +3.316468E-05 +9.339870E-05 +3.316468E-05 -5.645296E-05 
 -2.190572E-05 -3.605908E-05 +1.018121E-04 -3.605908E-05 +4.687766E-03 +7.878042E-05 +1.018121E-04 +7.878042E-05 +7.748338E-05 
 +6.630233E-05 -1.061875E-04 +2.380857E-04 -1.061875E-04 +4.784053E-03 +6.741983E-05 +2.380857E-04 +6.741983E-05 -4.203655E-05 
 -1.241425E-04 -1.289872E-04 -8.886966E-05 -1.289872E-04 +5.017774E-03 +2.074643E-05 -8.886966E-05 +2.074643E-05 -1.281435E-05 
 -1.042729E-04 -1.977424E-04 -1.146122E-04 -1.977424E-04 +4.873217E-03 +2.245807E-05 -1.146122E-04 +2.245807E-05 +1.202690E-04 
 -1.156355E-04 -1.411514E-04 +2.299211E-05 -1.411514E-04 +4.908999E-03 +3.457093E-05 +2.299211E-05 +3.457093E-05 +1.328983E-04 
 -1.429051E-04 -5.126309E-05 -5.784014E-05 -5.126309E-05 +4.930876E-03 +1.510769E-05 -5.784014E-05 +1.510769E-05 +1.168824E-04 
 +1.700561E-04 +8.511318E-05 +3.934086E-04 +8.511318E-05 +4.975767E-03 +4.473184E-06 +3.934086E-04 +4.473184E-06 +2.029766E-05 
 +1.337776E-04 +8.521534E-05 +3.494124E-04 +8.521534E-05 +5.055401E-03 +6.146998E-05 +3.494124E-04 +6.146998E-05 -3.033284E-05 
 +5.961201E-05 +4.774786E-05 +3.797367E-04 +4.774786E-05 +5.069143E-03 +1.018434E-04 +3.797367E-04 +1.018434E-04 -2.141931E-05 
 +6.546443E-06 -4.205703E-06 +3.025666E-04 -4.205703E-06 +5.146235E-03 +7.770467E-05 +3.025666E-04 +7.770467E-05 -2.886722E-05 
 +4.951703E-05 -4.905481E-06 +2.819534E-04 -4.905481E-06 +5.123576E-03 +1.016372E-08 +2.819534E-04 +1.016372E-08 -2.141926E-05 
 +2.257112E-04 +2.265471E-04 +1.432115E-04 +2.265471E-04 +4.914156E-03 +2.997445E-05 +1.432115E-04 +2.997445E-05 -1.848399E-05 
 -3.886253E-05 -2.885589E-06 +8.216779E-05 -2.885589E-06 +4.910714E-03 +6.434582E-05 +8.216779E-05 +6.434582E-05 +1.930116E-05 
 -1.399568E-04 -3.832989E-05 +3.956464E-05 -3.832989E-05 +5.012262E-03 +4.060850E-05 +3.956464E-05 +4.060850E-05 +4.608552E-05 
 -1.814889E-04 -2.737555E-05 -4.345694E-05 -2.737555E-05 +5.055680E-03 +2.592611E-05 -4.345694E-05 +2.592611E-05 +2.097493E-05 
 -1.868282E-04 -6.382617E-05 -1.326492E-04 -6.382617E-05 +5.115706E-03 +2.879331E-05 -1.326492E-04 +2.879331E-05 -1.016507E-04 
 +1.718658E-04 +2.412202E-05 -1.585279E-06 +2.412202E-05 +5.124226E-03 -8.894560E-06 -1.585279E-06 -8.894560E-06 -3.069301E-04 
 +1.953533E-04 +2.064850E-05 +3.884001E-05 +2.064850E-05 +5.081031E-03 -5.710267E-05 +3.884001E-05 -5.710267E-05 -3.286736E-04 
 +1.590194E-04 +7.199533E-05 -3.517430E-05 +7.199533E-05 +5.042148E-03 -6.020806E-05 -3.517430E-05 -6.020806E-05 -1.419853E-04 
 +8.754882E-05 +1.152018E-04 -2.426884E-05 +1.152018E-04 +4.926522E-03 -4.576182E-05 -2.426884E-05 -4.576182E-05 -9.624766E-05 
 +4.060955E-05 -8.430600E-05 +3.368008E-05 -8.430600E-05 +4.871929E-03 +3.917683E-06 +3.368008E-05 +3.917683E-06 -1.230571E-05 
 -1.448466E-04 +4.365107E-05 +3.392156E-05 +4.365107E-05 +4.979932E-03 -1.833402E-05 +3.392156E-05 -1.833402E-05 +9.338838E-05 
 -1.206525E-04 +2.196844E-05 +2.212701E-04 +2.196844E-05 +5.092976E-03 -3.758910E-05 +2.212701E-04 -3.758910E-05 -3.772240E-05 
 +1.096794E-04 -1.613372E-04 -4.035509E-06 -1.613372E-04 +4.850643E-03 -4.200533E-05 -4.035509E-06 -4.200533E-05 -1.669396E-05 
 -1.447281E-04 -6.111325E-05 -1.384265E-05 -6.111325E-05 +4.835255E-03 -1.161359E-05 -1.384265E-05 -1.161359E-05 +1.181759E-04 
 -1.162600E-04 -3.836823E-05 +2.382081E-04 -3.836823E-05 +4.916946E-03 +1.330617E-05 +2.382081E-04 +1.330617E-05 +9.186078E-05 
 -7.777539E-05 -6.006264E-05 +1.241241E-04 -6.006264E-05 +4.972938E-03 +9.552814E-05 +1.241241E-04 +9.552814E-05 +1.104064E-04 
 +4.351371E-05 +1.182100E-05 +3.938599E-04 +1.182100E-05 +5.043391E-03 +1.265659E-04 +3.938599E-04 +1.265659E-04 +6.129021E-05 
 +8.967892E-05 +3.445755E-05 +3.443168E-04 +3.445755E-05 +5.087175E-03 +9.100130E-05 +3.443168E-04 +9.100130E-05 -1.656308E-05 
 +1.447384E-05 +2.875304E-05 +3.926310E-04 +2.875304E-05 +5.110692E-03 +7.041468E-05 +3.926310E-04 +7.041468E-05 -2.595829E-05 
 +8.373740E-06 +4.373222E-06 +2.864576E-04 +4.373222E-06 +5.084780E-03 +2.537652E-05 +2.864576E-04 +2.537652E-05 +3.641218E-05 
 +2.890619E-05 -3.735630E-05 +3.108040E-04 -3.735630E-05 +5.151272E-03 -5.546632E-05 +3.108040E-04 -5.546632E-05 -5.869399E-06 
 +1.298469E-04 +7.779667E-05 +3.802180E-04 +7.779667E-05 +5.126254E-03 -3.249140E-05 +3.802180E-04 -3.249140E-05 -9.772256E-05 
 +1.941362E-05 +2.592294E-05 +1.533568E-04 +2.592294E-05 +5.008512E-03 +6.520173E-05 +1.533568E-04 +6.520173E-05 -4.081494E-05 
 -1.184814E-04 -2.456504E-05 +5.265720E-05 -2.456504E-05 +5.013397E-03 +5.142817E-05 +5.265720E-05 +5.142817E-05 +1.802509E-06 
 -1.619096E-04 -3.748198E-06 -3.738190E-05 -3.748198E-06 +5.056940E-03 +2.624775E-05 -3.738190E-05 +2.624775E-05 -9.109283E-06 
 -1.553548E-04 -4.125743E-05 -2.462557E-05 -4.125743E-05 +5.128347E-03 +9.004669E-05 -2.462557E-05 +9.004669E-05 -1.188942E-04 
 +1.673009E-04 -2.808239E-06 -4.244312E-05 -2.808239E-06 +5.076758E-03 +1.231114E-04 -4.244312E-05 +1.231114E-04 -2.576291E-04 
 +3.078343E-04 -5.364822E-05 +3.541278E-05 -5.364822E-05 +4.942304E-03 +7.284721E-05 +3.541278E-05 +7.284721E-05 -1.762690E-04 
 +1.627221E-04 -3.078908E-05 -1.647940E-04 -3.078908E-05 +4.879660E-03 +7.127358E-06 -1.647940E-04 +7.127358E-06 +2.324216E-05 
 +1.118962E-04 -2.409635E-05 -1.691514E-04 -2.409635E-05 +4.865125E-03 -2.951446E-05 -1.691514E-04 -2.951446E-05 +6.930034E-05 
 +5.822692E-06 -1.009167E-04 -6.341728E-05 -1.009167E-04 +4.952961E-03 -6.153986E-05 -6.341728E-05 -6.153986E-05 +6.331837E-05 
 -1.402345E-04 -5.212652E-05 -2.166254E-04 -5.212652E-05 +5.049279E-03 -7.584044E-05 -2.166254E-04 -7.584044E-05 +8.994690E-05 
 -2.846257E-04 +6.487813E-06 +7.248318E-05 +6.487813E-06 +5.003298E-03 -6.159930E-05 +7.248318E-05 -6.159930E-05 -2.767954E-05 
 +1.357753E-04 -2.146232E-04 +1.102801E-04 -2.146232E-04 +4.790655E-03 -1.448019E-04 +1.102801E-04 -1.448019E-04 +6.828224E-05 
 -8.812959E-05 -6.002869E-05 +1.724083E-04 -6.002869E-05 +4.905213E-03 -4.251860E-05 +1.724083E-04 -4.251860E-05 +9.640596E-05 
 -1.255896E-04 -3.443357E-05 +2.833559E-04 -3.443357E-05 +5.052218E-03 +2.163473E-05 +2.833559E-04 +2.163473E-05 +3.522891E-05 
 -1.343785E-04 -2.082957E-06 +1.893523E-04 -2.082957E-06 +5.129488E-03 +9.897860E-05 +1.893523E-04 +9.897860E-05 +7.029376E-05 
 -1.109156E-04 +3.977172E-05 +2.449798E-04 +3.977172E-05 +5.130724E-03 +1.552683E-04 +2.449798E-04 +1.552683E-04 +7.840588E-05 
 +3.834294E-05 +1.174880E-05 +2.738611E-04 +1.174880E-05 +5.090006E-03 +8.423868E-05 +2.738611E-04 +8.423868E-05 +3.621275E-05 
 +4.936133E-05 -1.288763E-05 +3.130123E-04 -1.288763E-05 +5.087507E-03 +7.371159E-06 +3.130123E-04 +7.371159E-06 +6.465849E-05 
 -1.167508E-05 -1.642963E-05 +2.396328E-04 -1.642963E-05 +5.112041E-03 -2.785105E-05 +2.396328E-04 -2.785105E-05 +1.024724E-04 
 +1.417480E-05 -1.609439E-06 +2.426818E-04 -1.609439E-06 +5.137147E-03 -9.243067E-05 +2.426818E-04 -9.243067E-05 -2.841065E-06 
 +8.425960E-05 +4.119690E-05 +4.340850E-04 +4.119690E-05 +5.145527E-03 -2.042691E-04 +4.340850E-04 -2.042691E-04 -1.905662E-04 
 +5.948856E-05 +2.743845E-05 +3.326590E-04 +2.743845E-05 +5.099112E-03 -1.499182E-04 +3.326590E-04 -1.499182E-04 -2.260461E-04 
 -1.120086E-04 -4.273821E-05 +1.365846E-04 -4.273821E-05 +5.065325E-03 +3.443419E-05 +1.365846E-04 +3.443419E-05 -7.062415E-05 
 -1.657689E-04 -8.582580E-06 -2.753496E-05 -8.582580E-06 +5.060916E-03 +1.480273E-04 -2.753496E-05 +1.480273E-04 +7.739527E-05 
 +1.971768E-06 -9.167815E-06 +1.631757E-05 -9.167815E-06 +5.038413E-03 +2.010876E-04 +1.631757E-05 +2.010876E-04 +5.067382E-05 
 +1.553592E-04 -1.885096E-05 -8.504633E-05 -1.885096E-05 +4.969035E-03 +2.032326E-04 -8.504633E-05 +2.032326E-04 -3.158509E-05 
 +2.186292E-04 -8.776082E-05 -5.010696E-05 -8.776082E-05 +4.881513E-03 +1.466288E-04 -5.010696E-05 +1.466288E-04 -2.907412E-06 
 +1.451291E-04 -9.641863E-05 -1.756725E-04 -9.641863E-05 +4.827259E-03 +6.765094E-05 -1.756725E-04 +6.765094E-05 +7.733551E-05 
 +1.212987E-04 -8.335385E-05 -1.859108E-04 -8.335385E-05 +4.832472E-03 +2.374740E-05 -1.859108E-04 +2.374740E-05 +1.444871E-04 
 -1.228012E-05 -1.034993E-04 -1.816870E-04 -1.034993E-04 +4.904768E-03 -3.698647E-05 -1.816870E-04 -3.698647E-05 +1.299203E-04 
 -1.025188E-04 -3.833352E-05 -2.917259E-04 -3.833352E-05 +4.979144E-03 -3.644076E-05 -2.917259E-04 -3.644076E-05 +1.122361E-04 
 -1.604632E-04 -3.395954E-05 -1.797058E-04 -3.395954E-05 +4.888573E-03 -9.244411E-05 -1.797058E-04 -9.244411E-05 +7.856786E-05 
 +1.878001E-04 -4.019151E-05 +2.333716E-04 -4.019151E-05 +4.862477E-03 -6.461522E-05 +2.333716E-04 -6.461522E-05 +1.684876E-04 
 +1.763503E-04 -4.523850E-05 +1.940376E-04 -4.523850E-05 +5.007605E-03 -6.313705E-05 +1.940376E-04 -6.313705E-05 +4.280402E-06 
 -5.118644E-05 -4.726159E-05 +2.300450E-04 -4.726159E-05 +5.156884E-03 -4.237337E-05 +2.300450E-04 -4.237337E-05 -3.972395E-05 
 -1.217192E-04 -3.478091E-05 +1.872555E-04 -3.478091E-05 +5.221497E-03 +2.507172E-05 +1.872555E-04 +2.507172E-05 +2.122961E-06 
 -1.424646E-04 +3.931349E-05 +1.642671E-04 +3.931349E-05 +5.221577E-03 +6.615387E-05 +1.642671E-04 +6.615387E-05 +4.547429E-05 
 -5.973187E-05 +6.015323E-05 +1.607476E-04 +6.015323E-05 +5.158044E-03 +6.667681E-05 +1.607476E-04 +6.667681E-05 +6.342410E-05 
 +1.163041E-04 +2.859092E-05 +2.598655E-04 +2.859092E-05 +5.053998E-03 -9.623137E-06 +2.598655E-04 -9.623137E-06 +1.693825E-04 
 +1.628556E-04 -5.189560E-07 +2.678204E-04 -5.189560E-07 +5.029619E-03 -8.564412E-05 +2.678204E-04 -8.564412E-05 +1.628877E-04 
 +1.107603E-04 +1.279670E-05 +3.049926E-04 +1.279670E-05 +5.053031E-03 -1.433347E-04 +3.049926E-04 -1.433347E-04 -4.104362E-05 
 -1.157731E-05 +6.173851E-06 +3.547150E-04 +6.173851E-06 +5.074927E-03 -1.845671E-04 +3.547150E-04 -1.845671E-04 -1.794144E-04 
 -9.831973E-05 -2.068486E-05 +2.731498E-04 -2.068486E-05 +5.113622E-03 -1.606260E-04 +2.731498E-04 -1.606260E-04 -2.061592E-04 
 -1.715177E-04 -5.429411E-05 +1.428231E-04 -5.429411E-05 +5.165167E-03 -8.058705E-05 +1.428231E-04 -8.058705E-05 -1.773509E-04 
 -2.046156E-04 -8.590550E-05 +1.391005E-04 -8.590550E-05 +5.154399E-03 +9.898194E-05 +1.391005E-04 +9.898194E-05 -7.677975E-05 
 -1.159854E-04 -9.956216E-05 -8.657315E-05 -9.956216E-05 +5.092201E-03 +1.955870E-04 -8.657315E-05 +1.955870E-04 +1.009657E-04 
 +2.726314E-05 -1.190447E-04 -1.829761E-04 -1.190447E-04 +5.039828E-03 +1.681217E-04 -1.829761E-04 +1.681217E-04 +6.144209E-05 
 +8.608479E-05 -6.141780E-05 -8.717078E-05 -6.141780E-05 +4.970388E-03 +1.371292E-04 -8.717078E-05 +1.371292E-04 -1.641381E-06 
 +3.729087E-05 +3.358164E-06 -1.175872E-04 +3.358164E-06 +4.919109E-03 +8.897889E-05 -1.175872E-04 +8.897889E-05 +9.166461E-05 
 -2.897773E-05 +6.156545E-05 -1.431852E-04 +6.156545E-05 +4.881664E-03 +3.301260E-05 -1.431852E-04 +3.301260E-05 +1.362414E-04 
 -1.804378E-05 +1.249367E-04 -1.806170E-04 +1.249367E-04 +4.837290E-03 -2.224239E-05 -1.806170E-04 -2.224239E-05 +1.502257E-04 
 +3.332644E-05 +1.423648E-04 -1.767218E-04 +1.423648E-04 +4.786318E-03 -6.604761E-05 -1.767218E-04 -6.604761E-05 +1.406370E-04 
 +8.610701E-05 +1.142965E-04 -2.182538E-04 +1.142965E-04 +4.778542E-03 -9.528809E-05 -2.182538E-04 -9.528809E-05 +2.002730E-04 
 +4.031248E-05 -1.338573E-04 +2.255822E-04 -1.338573E-04 +4.927931E-03 +4.542347E-05 +2.255822E-04 +4.542347E-05 +1.635801E-04 
 +9.734358E-06 -1.865168E-05 +1.815092E-04 -1.865168E-05 +5.085828E-03 -4.827406E-05 +1.815092E-04 -4.827406E-05 +2.157071E-05 
 +6.310057E-06 +5.388650E-05 +1.212129E-04 +5.388650E-05 +5.152210E-03 -5.764949E-05 +1.212129E-04 -5.764949E-05 +1.185861E-07 
 -4.233369E-05 +7.081680E-05 +2.043399E-04 +7.081680E-05 +5.196319E-03 -3.342447E-05 +2.043399E-04 -3.342447E-05 +4.334650E-06 
 -8.352375E-05 +9.933037E-05 +1.886343E-04 +9.933037E-05 +5.225636E-03 +5.459763E-06 +1.886343E-04 +5.459763E-06 +1.363125E-05 
 -1.073224E-04 +1.176848E-04 +1.618746E-04 +1.176848E-04 +5.196459E-03 -1.646333E-06 +1.618746E-04 -1.646333E-06 +7.822748E-05 
 -2.733051E-05 +8.569095E-05 +1.803682E-04 +8.569095E-05 +5.107358E-03 -3.742129E-05 +1.803682E-04 -3.742129E-05 +2.434060E-04 
 +1.230422E-04 +3.678194E-05 +2.515674E-04 +3.678194E-05 +5.024986E-03 -9.627585E-05 +2.515674E-04 -9.627585E-05 +2.514684E-04 
 +1.805926E-06 -5.995551E-06 +2.315655E-04 -5.995551E-06 +5.028959E-03 -6.148468E-05 +2.315655E-04 -6.148468E-05 +6.807064E-06 
 -6.301495E-05 -4.416175E-06 +1.419323E-04 -4.416175E-06 +5.057124E-03 -8.070265E-05 +1.419323E-04 -8.070265E-05 -1.639225E-04 
 -1.123172E-04 +6.014622E-06 +3.398148E-04 +6.014622E-06 +5.095405E-03 -9.787344E-05 +3.398148E-04 -9.787344E-05 -1.981597E-04 
 -1.309892E-04 -1.984263E-05 +2.431701E-04 -1.984263E-05 +5.108703E-03 +7.838617E-06 +2.431701E-04 +7.838617E-06 -1.285308E-04 
 -1.098211E-04 -3.709350E-05 +1.220070E-04 -3.709350E-05 +5.109537E-03 +6.248026E-05 +1.220070E-04 +6.248026E-05 +1.029951E-05 
 +1.117593E-04 -2.475334E-05 -1.334499E-04 -2.475334E-05 +5.101881E-03 +9.529840E-05 -1.334499E-04 +9.529840E-05 +1.326877E-04 
 +1.847558E-04 -2.834994E-05 -5.297446E-05 -2.834994E-05 +5.018179E-03 +1.474501E-04 -5.297446E-05 +1.474501E-04 +6.595130E-05 
 +5.091214E-05 -2.394485E-05 -6.492634E-06 -2.394485E-05 +4.963975E-03 +1.533411E-04 -6.492634E-06 +1.533411E-04 -2.496011E-06 
 +1.788612E-05 -1.877229E-06 -6.705210E-05 -1.877229E-06 +4.928111E-03 +1.228959E-04 -6.705210E-05 +1.228959E-04 +7.660799E-05 
 +7.509415E-06 +6.331173E-05 -1.338780E-04 +6.331173E-05 +4.854037E-03 +7.891691E-05 -1.338780E-04 +7.891691E-05 +1.511751E-04 
 +7.619432E-06 +9.179535E-05 -1.443855E-04 +9.179535E-05 +4.791508E-03 +2.933004E-05 -1.443855E-04 +2.933004E-05 +2.107320E-04 
 +4.121384E-05 +4.770257E-05 -1.232433E-04 +4.770257E-05 +4.758329E-03 +7.533493E-06 -1.232433E-04 +7.533493E-06 +2.272739E-04 
 +7.375952E-05 -3.143514E-05 -1.232343E-04 -3.143514E-05 +4.790671E-03 +8.247915E-05 -1.232343E-04 +8.247915E-05 +2.418419E-04 
 -6.954687E-06 -7.883812E-05 +8.422874E-05 -7.883812E-05 +5.028106E-03 +3.775436E-05 +8.422874E-05 +3.775436E-05 +1.270525E-04 
 -9.523963E-06 -3.141801E-05 +3.706479E-05 -3.141801E-05 +5.079627E-03 -4.349117E-05 +3.706479E-05 -4.349117E-05 +3.360490E-05 
 +6.717899E-05 +9.889318E-06 -4.166880E-06 +9.889318E-06 +5.103321E-03 -7.191524E-05 -4.166880E-06 -7.191524E-05 +5.724230E-05 
 +3.507111E-05 +9.360499E-06 +3.174165E-04 +9.360499E-06 +5.164743E-03 -5.539975E-05 +3.174165E-04 -5.539975E-05 +5.863610E-05 
 -3.632613E-05 +2.211839E-05 +1.404279E-04 +2.211839E-05 +5.183928E-03 -7.934288E-05 +1.404279E-04 -7.934288E-05 +4.133229E-05 
 -7.187289E-05 +3.676922E-05 +1.376654E-04 +3.676922E-05 +5.191163E-03 -1.705263E-04 +1.376654E-04 -1.705263E-04 +8.836435E-05 
 -8.366412E-05 +3.072054E-05 +9.985342E-05 +3.072054E-05 +5.155791E-03 -2.263676E-04 +9.985342E-05 -2.263676E-04 +2.140528E-04 
 -2.254256E-05 +6.632340E-05 +2.736917E-04 +6.632340E-05 +5.055831E-03 -1.660502E-04 +2.736917E-04 -1.660502E-04 +3.137415E-04 
 -1.430348E-04 +6.455681E-05 +2.174600E-04 +6.455681E-05 +4.994726E-03 -3.414287E-05 +2.174600E-04 -3.414287E-05 +2.034443E-04 
 -1.282667E-04 +4.197257E-05 -7.156026E-05 +4.197257E-05 +5.016015E-03 -1.385873E-05 -7.156026E-05 -1.385873E-05 -9.791035E-05 
 -4.293753E-05 +4.985851E-05 +2.701518E-04 +4.985851E-05 +5.017966E-03 -6.276488E-05 +2.701518E-04 -6.276488E-05 -2.389086E-04 
 -3.391833E-05 +7.717324E-05 +1.935180E-04 +7.717324E-05 +5.038874E-03 -3.187969E-05 +1.935180E-04 -3.187969E-05 -7.166950E-05 
 -3.152670E-05 -4.502171E-06 -5.489632E-05 -4.502171E-06 +4.988766E-03 +4.844584E-05 -5.489632E-05 +4.844584E-05 +1.098591E-04 
 +2.593373E-04 -1.076698E-04 -7.574219E-05 -1.076698E-04 +4.784505E-03 +1.048149E-04 -7.574219E-05 +1.048149E-04 +1.201116E-04 
 +2.865145E-04 -1.156957E-04 +9.332312E-05 -1.156957E-04 +4.799015E-03 +1.269029E-04 +9.332312E-05 +1.269029E-04 +4.434267E-05 
 +5.645080E-05 -5.515190E-05 +9.211687E-05 -5.515190E-05 +4.951293E-03 +1.301983E-04 +9.211687E-05 +1.301983E-04 +1.982225E-05 
 +2.178069E-05 -3.644415E-05 +3.110748E-06 -3.644415E-05 +4.913454E-03 +1.221530E-04 +3.110748E-06 +1.221530E-04 +4.213626E-05 
 -6.470159E-06 +3.809602E-05 -9.872425E-05 +3.809602E-05 +4.841943E-03 +7.966540E-05 -9.872425E-05 +7.966540E-05 +1.365521E-04 
 -5.476945E-05 +3.884829E-05 -1.088146E-04 +3.884829E-05 +4.827450E-03 +3.738571E-05 -1.088146E-04 +3.738571E-05 +2.266341E-04 
 -4.607602E-05 -2.448842E-06 -7.705939E-05 -2.448842E-06 +4.839943E-03 +2.359731E-05 -7.705939E-05 +2.359731E-05 +2.224941E-04 
 -8.464591E-06 -2.941419E-05 +4.228493E-05 -2.941419E-05 +4.911276E-03 +6.823429E-05 +4.228493E-05 +6.823429E-05 +1.874021E-04 
 -4.972754E-05 -3.361293E-05 +5.728089E-05 -3.361293E-05 +5.006673E-03 -1.196484E-04 +5.728089E-05 -1.196484E-04 +1.061077E-04 
 -5.632662E-05 -4.988196E-05 -8.511595E-05 -4.988196E-05 +5.109681E-03 -5.608226E-05 -8.511595E-05 -5.608226E-05 +2.717510E-05 
 -3.258133E-06 -6.383350E-05 -6.818086E-05 -6.383350E-05 +5.105798E-03 -5.492468E-05 -6.818086E-05 -5.492468E-05 +2.471006E-05 
 +9.746495E-05 -1.057701E-04 +2.068931E-04 -1.057701E-04 +5.063179E-03 -1.419263E-04 +2.068931E-04 -1.419263E-04 +3.550598E-05 
 +2.567848E-05 -9.886221E-05 -3.980030E-05 -9.886221E-05 +5.105473E-03 -2.009290E-04 -3.980030E-05 -2.009290E-04 +3.662433E-05 
 +1.371433E-05 -7.508920E-05 -7.677557E-05 -7.508920E-05 +5.133132E-03 -2.306004E-04 -7.677557E-05 -2.306004E-04 +7.917154E-05 
 +5.411929E-05 -6.125508E-05 -1.400132E-04 -6.125508E-05 +5.099217E-03 -2.953678E-04 -1.400132E-04 -2.953678E-04 +1.936664E-04 
 -1.425021E-04 -1.193424E-06 +2.052643E-04 -1.193424E-06 +5.033267E-03 -2.254177E-04 +2.052643E-04 -2.254177E-04 +2.858899E-04 
 -2.175233E-04 +1.055196E-04 +1.787138E-04 +1.055196E-04 +5.004413E-03 -1.321257E-04 +1.787138E-04 -1.321257E-04 +2.774008E-04 
 -2.370272E-04 +7.002463E-05 -7.278576E-05 +7.002463E-05 +4.888687E-03 -9.423140E-06 -7.278576E-05 -9.423140E-06 +1.032695E-04 
 -3.400858E-05 +2.512476E-05 -3.420618E-05 +2.512476E-05 +4.693840E-03 +8.931424E-05 -3.420618E-05 +8.931424E-05 +4.208374E-05 
 +9.176305E-05 +7.768729E-05 -1.899389E-06 +7.768729E-05 +4.668060E-03 +8.238844E-05 -1.899389E-06 +8.238844E-05 +1.160664E-04 
 +8.693930E-05 -4.335791E-05 -9.915262E-05 -4.335791E-05 +4.709057E-03 +8.343832E-05 -9.915262E-05 +8.343832E-05 +1.361642E-04 
 +1.580005E-04 -1.315380E-04 -9.848902E-06 -1.315380E-04 +4.798099E-03 +3.975130E-05 -9.848902E-06 +3.975130E-05 +1.472915E-04 
 +2.593532E-04 -1.850792E-04 +1.140090E-04 -1.850792E-04 +4.811289E-03 +3.525998E-05 +1.140090E-04 +3.525998E-05 +1.021226E-04 
 +2.681928E-04 -1.703079E-04 +1.199751E-04 -1.703079E-04 +4.740826E-03 +1.258431E-04 +1.199751E-04 +1.258431E-04 +3.603256E-05 
 +8.178735E-05 -1.016041E-04 +4.520667E-05 -1.016041E-04 +4.806666E-03 +1.289245E-04 +4.520667E-05 +1.289245E-04 +3.142295E-05 
 -9.767789E-05 -5.663397E-06 -7.592080E-05 -5.663397E-06 +4.891719E-03 +4.589106E-05 -7.592080E-05 +4.589106E-05 +1.165253E-04 
 -1.470218E-04 -3.025275E-05 -9.119310E-05 -3.025275E-05 +4.934858E-03 +7.200928E-06 -9.119310E-05 +7.200928E-06 +1.824380E-04 
 -1.100607E-04 -5.437154E-05 -8.439210E-05 -5.437154E-05 +4.942091E-03 -3.895886E-05 -8.439210E-05 -3.895886E-05 +1.605665E-04 
 -4.186070E-05 -3.738074E-05 +6.408831E-05 -3.738074E-05 +4.932764E-03 -1.250364E-04 +6.408831E-05 -1.250364E-04 +1.328950E-04 
 -9.091486E-05 -4.776554E-05 +6.001492E-05 -4.776554E-05 +5.043653E-03 -1.530173E-04 +6.001492E-05 -1.530173E-04 +6.568937E-05 
 -8.809269E-05 -6.071938E-05 -1.686592E-04 -6.071938E-05 +5.120281E-03 -1.003792E-04 -1.686592E-04 -1.003792E-04 -4.143797E-07 
 -2.724211E-05 -4.720917E-05 -9.491573E-05 -4.720917E-05 +5.184073E-03 -7.387714E-05 -9.491573E-05 -7.387714E-05 -7.380670E-06 
 +7.751748E-05 -5.585107E-05 +3.067818E-05 -5.585107E-05 +5.190133E-03 -8.390917E-05 +3.067818E-05 -8.390917E-05 -2.021948E-05 
 +1.044869E-04 -6.624279E-05 -6.553646E-05 -6.624279E-05 +5.107435E-03 -8.360638E-05 -6.553646E-05 -8.360638E-05 +1.442068E-05 
 +1.747716E-04 -3.469154E-05 -2.541903E-04 -3.469154E-05 +5.026690E-03 -1.627016E-04 -2.541903E-04 -1.627016E-04 +6.539771E-05 
 +2.047000E-04 -2.079510E-05 -2.755287E-04 -2.079510E-05 +5.004830E-03 -1.525939E-04 -2.755287E-04 -1.525939E-04 +1.126821E-04 
 -2.422085E-04 +1.175635E-05 -3.828763E-05 +1.175635E-05 +5.024066E-03 -6.606411E-05 -3.828763E-05 -6.606411E-05 +2.043974E-04 
 -2.515263E-04 +8.734543E-05 +1.843407E-05 +8.734543E-05 +4.984962E-03 -7.021340E-05 +1.843407E-05 -7.021340E-05 +2.318826E-04 
 -2.344696E-04 +3.590472E-05 -1.650701E-04 +3.590472E-05 +4.921659E-03 -5.329477E-05 -1.650701E-04 -5.329477E-05 +2.641708E-04 
 -2.526305E-04 -8.670115E-06 -2.693421E-04 -8.670115E-06 +4.837659E-03 -1.746098E-05 -2.693421E-04 -1.746098E-05 +3.531812E-04 
 +9.521257E-05 -3.658887E-05 -1.271573E-04 -3.658887E-05 +4.647161E-03 +4.654688E-05 -1.271573E-04 +4.654688E-05 +2.888631E-04 
 +2.298052E-04 -1.476821E-04 -7.076183E-05 -1.476821E-04 +4.672416E-03 +8.045000E-05 -7.076183E-05 +8.045000E-05 +1.380255E-04 
 +1.728345E-04 -1.909563E-04 -3.720178E-05 -1.909563E-04 +4.773945E-03 +5.159550E-05 -3.720178E-05 +5.159550E-05 +1.596388E-04 
 +2.233015E-04 -1.911768E-04 +6.306686E-05 -1.911768E-04 +4.695971E-03 +5.254817E-05 +6.306686E-05 +5.254817E-05 +1.475622E-04 
 +3.176352E-04 -1.634739E-04 +1.023888E-04 -1.634739E-04 +4.661292E-03 +1.186982E-04 +1.023888E-04 +1.186982E-04 -4.788664E-06 
 +2.038432E-04 -1.548909E-04 +5.019054E-05 -1.548909E-04 +4.729594E-03 +8.741833E-05 +5.019054E-05 +8.741833E-05 +7.429937E-06 
 -1.785423E-04 -3.470274E-05 -1.018835E-04 -3.470274E-05 +4.892050E-03 -7.969818E-06 -1.018835E-04 -7.969818E-06 +9.772048E-05 
 -1.819421E-04 -6.144654E-05 -1.207999E-04 -6.144654E-05 +4.977590E-03 -7.352759E-05 -1.207999E-04 -7.352759E-05 +1.045249E-04 
 -1.454672E-04 -6.482371E-05 -1.181019E-04 -6.482371E-05 +4.975178E-03 -1.209882E-04 -1.181019E-04 -1.209882E-04 +9.685953E-05 
 -1.111553E-04 -6.339031E-05 -2.660055E-05 -6.339031E-05 +5.001141E-03 -1.627156E-04 -2.660055E-05 -1.627156E-04 +8.695100E-05 
 -1.578029E-04 -1.497108E-05 -6.730787E-06 -1.497108E-05 +5.066021E-03 -1.496372E-04 -6.730787E-06 -1.496372E-04 +3.358704E-05 
 -5.996917E-05 -2.312841E-05 -1.836937E-04 -2.312841E-05 +5.061052E-03 -8.555110E-05 -1.836937E-04 -8.555110E-05 -3.842500E-05 
 +1.485959E-05 -3.503788E-05 -5.176935E-05 -3.503788E-05 +5.048738E-03 -4.094711E-05 -5.176935E-05 -4.094711E-05 +7.344705E-05 
 +7.390675E-05 -5.285552E-05 +7.929898E-05 -5.285552E-05 +5.034451E-03 -7.140198E-05 +7.929898E-05 -7.140198E-05 +3.081412E-05 
 +2.554821E-04 -3.572405E-05 +6.820896E-05 -3.572405E-05 +5.010521E-03 -9.404416E-05 +6.820896E-05 -9.404416E-05 -8.592919E-05 
 +3.214947E-04 +3.501877E-06 -2.080399E-04 +3.501877E-06 +4.902353E-03 -8.669641E-05 -2.080399E-04 -8.669641E-05 -1.150178E-04 
 +2.840884E-04 +4.702470E-05 -1.677061E-04 +4.702470E-05 +4.855959E-03 -1.356538E-05 -1.677061E-04 -1.356538E-05 -8.360966E-05 
 -3.548723E-04 +1.010066E-04 -1.796616E-04 +1.010066E-04 +4.976371E-03 +2.378144E-05 -1.796616E-04 +2.378144E-05 +1.844679E-04 
 -2.986644E-04 +6.757507E-05 -1.436813E-04 +6.757507E-05 +4.994164E-03 +1.488642E-05 -1.436813E-04 +1.488642E-05 +3.140852E-04 
 -2.314057E-04 +4.069397E-05 -2.690967E-04 +4.069397E-05 +4.922889E-03 +5.980401E-05 -2.690967E-04 +5.980401E-05 +3.459155E-04 
 -3.035213E-04 +4.472547E-05 -2.682511E-04 +4.472547E-05 +4.931577E-03 +5.678325E-05 -2.682511E-04 +5.678325E-05 +3.737770E-04 
 -1.602003E-04 +4.719743E-05 -1.922739E-04 +4.719743E-05 +4.904833E-03 -7.753514E-05 -1.922739E-04 -7.753514E-05 +3.215527E-04 
 +3.884121E-04 -2.353422E-05 -7.125908E-05 -2.353422E-05 +4.714547E-03 -1.912045E-04 -7.125908E-05 -1.912045E-04 +1.894641E-04 
 +2.905201E-04 -7.320344E-05 -1.574034E-04 -7.320344E-05 +4.625884E-03 -1.443688E-04 -1.574034E-04 -1.443688E-04 +1.746465E-04 
 +2.076390E-04 -1.619091E-04 -5.258572E-05 -1.619091E-04 +4.737029E-03 -1.891776E-05 -5.258572E-05 -1.891776E-05 +1.728873E-04 
 +2.094112E-04 -1.406858E-04 +9.436601E-05 -1.406858E-04 +4.801912E-03 +5.084421E-05 +9.436601E-05 +5.084421E-05 -3.111282E-05 
 +1.888834E-04 -1.341740E-04 +3.993668E-05 -1.341740E-04 +4.845095E-03 -2.805173E-06 +3.993668E-05 -2.805173E-06 -3.842031E-05 
 -1.411013E-04 -1.315704E-05 -1.232320E-04 -1.315704E-05 +4.919935E-03 -6.037129E-05 -1.232320E-04 -6.037129E-05 +6.189999E-05 
 -1.522649E-04 -9.054408E-05 -1.370420E-04 -9.054408E-05 +4.970873E-03 -8.526443E-05 -1.370420E-04 -8.526443E-05 +6.232234E-05 
 -1.777681E-04 -5.077390E-05 -1.247456E-04 -5.077390E-05 +5.005172E-03 -1.323780E-04 -1.247456E-04 -1.323780E-04 +7.022939E-05 
 -1.972299E-04 -4.498818E-05 -6.264696E-05 -4.498818E-05 +5.050643E-03 -1.484897E-04 -6.264696E-05 -1.484897E-04 +6.600099E-05 
 -1.920987E-04 -3.545306E-05 -6.707093E-05 -3.545306E-05 +5.054761E-03 -1.338257E-04 -6.707093E-05 -1.338257E-04 +5.489022E-05 
 -3.008262E-05 -2.211359E-05 -1.377592E-04 -2.211359E-05 +4.985510E-03 -3.426177E-05 -1.377592E-04 -3.426177E-05 +1.413793E-05 
 -2.258498E-05 -5.674662E-05 -1.237837E-05 -5.674662E-05 +4.943571E-03 +2.216801E-05 -1.237837E-05 +2.216801E-05 +1.368947E-04 
 +1.856211E-04 -6.013359E-05 +9.023754E-05 -6.013359E-05 +4.919542E-03 -7.673769E-05 +9.023754E-05 -7.673769E-05 +2.917023E-05 
 +4.628720E-04 -2.149203E-05 +1.100608E-04 -2.149203E-05 +4.904681E-03 -1.607564E-04 +1.100608E-04 -1.607564E-04 -2.685354E-04 
 +4.576420E-04 +1.813574E-05 -6.521747E-05 +1.813574E-05 +4.953019E-03 -1.116777E-04 -6.521747E-05 -1.116777E-04 -2.491016E-04 
 +1.679395E-04 +4.480741E-05 -1.005861E-04 +4.480741E-05 +5.020878E-03 -6.702556E-05 -1.005861E-04 -6.702556E-05 -6.464946E-05 
 -3.861040E-04 +4.538263E-05 -1.206180E-04 +4.538263E-05 +4.995897E-03 -1.672038E-05 -1.206180E-04 -1.672038E-05 +2.424395E-04 
 -3.069476E-04 +1.042558E-05 -1.642310E-04 +1.042558E-05 +4.943382E-03 +7.493051E-05 -1.642310E-04 +7.493051E-05 +4.066124E-04 
 -2.538216E-04 +4.303165E-05 -2.299812E-04 +4.303165E-05 +4.906570E-03 +1.142265E-04 -2.299812E-04 +1.142265E-04 +4.069640E-04 
 -2.231189E-04 +7.165998E-05 -2.469602E-04 +7.165998E-05 +4.925814E-03 +9.783238E-05 -2.469602E-04 +9.783238E-05 +3.729549E-04 
 -2.362367E-04 +5.829217E-05 -2.722008E-04 +5.829217E-05 +4.881478E-03 -6.551271E-06 -2.722008E-04 -6.551271E-06 +3.463374E-04 
 +2.950112E-04 -2.987020E-05 -1.208647E-04 -2.987020E-05 +4.785395E-03 -1.440392E-04 -1.208647E-04 -1.440392E-04 +2.840567E-04 
 +2.966447E-04 -1.047053E-04 -1.960589E-04 -1.047053E-04 +4.828739E-03 -6.982000E-05 -1.960589E-04 -6.982000E-05 +1.745649E-04 
 +1.579769E-04 -2.318011E-04 -2.072475E-04 -2.318011E-04 +4.844226E-03 +4.694287E-05 -2.072475E-04 +4.694287E-05 +8.520295E-05 
 +1.097733E-04 -1.828239E-04 -3.707391E-05 -1.828239E-04 +4.868708E-03 +8.481925E-06 -3.707391E-05 +8.481925E-06 -1.164279E-04 
 +1.300040E-04 -1.527385E-04 -2.132711E-05 -1.527385E-04 +4.979973E-03 -4.123729E-05 -2.132711E-05 -4.123729E-05 -1.535727E-04 
 -4.123982E-05 -3.763066E-05 -1.210207E-04 -3.763066E-05 +4.983454E-03 -6.564888E-05 -1.210207E-04 -6.564888E-05 -2.675627E-05 
 -1.260879E-04 -9.326128E-05 -1.719113E-04 -9.326128E-05 +4.966264E-03 -1.277766E-04 -1.719113E-04 -1.277766E-04 +3.905019E-05 
 -2.052624E-04 -5.518757E-05 -1.572829E-04 -5.518757E-05 +5.035208E-03 -1.874119E-04 -1.572829E-04 -1.874119E-04 +3.903933E-05 
 -2.399510E-04 -5.591321E-05 -9.021427E-05 -5.591321E-05 +5.082549E-03 -1.749843E-04 -9.021427E-05 -1.749843E-04 +3.299960E-05 
 -1.788106E-04 -4.147255E-05 -1.668561E-04 -4.147255E-05 +5.062396E-03 -9.630784E-05 -1.668561E-04 -9.630784E-05 +9.105393E-05 
 -4.206678E-05 -3.824029E-05 -1.543639E-04 -3.824029E-05 +4.968581E-03 -6.058320E-05 -1.543639E-04 -6.058320E-05 +8.379343E-05 
 -6.039717E-05 -4.097937E-05 -5.464447E-05 -4.097937E-05 +4.905221E-03 -3.853153E-05 -5.464447E-05 -3.853153E-05 +5.576969E-05 
 +3.653183E-04 -2.489590E-05 +4.245144E-05 -2.489590E-05 +4.868758E-03 -4.598269E-05 +4.245144E-05 -4.598269E-05 -1.234142E-04 
 +5.276421E-04 -2.528235E-05 +1.155631E-04 -2.528235E-05 +4.863356E-03 -2.060808E-05 +1.155631E-04 -2.060808E-05 -3.025500E-04 
 +5.305984E-04 -5.928941E-05 +5.880023E-06 -5.928941E-05 +4.914689E-03 +9.008432E-06 +5.880023E-06 +9.008432E-06 -1.558654E-04 
 +5.972671E-05 -8.726788E-06 -9.159115E-05 -8.726788E-06 +4.993826E-03 +2.415669E-05 -9.159115E-05 +2.415669E-05 +9.393093E-05 
 -3.437267E-04 +5.164762E-06 -4.926629E-05 +5.164762E-06 +4.999446E-03 +5.311233E-05 -4.926629E-05 +5.311233E-05 +3.205129E-04 
 -3.132494E-04 -1.806208E-05 -1.118182E-04 -1.806208E-05 +4.945932E-03 +1.129161E-04 -1.118182E-04 +1.129161E-04 +4.159576E-04 
 -2.451139E-04 -7.065118E-06 -1.884091E-04 -7.065118E-06 +4.937594E-03 +1.462299E-04 -1.884091E-04 +1.462299E-04 +3.955925E-04 
 -1.753702E-04 +6.273676E-05 -2.432945E-04 +6.273676E-05 +4.912938E-03 +1.236393E-04 -2.432945E-04 +1.236393E-04 +3.535841E-04 
 -9.769384E-05 +4.408467E-05 -2.476651E-04 +4.408467E-05 +4.959753E-03 +8.200025E-05 -2.476651E-04 +8.200025E-05 +3.402741E-04 
 -3.799419E-05 -2.488983E-05 -1.414622E-04 -2.488983E-05 +5.077872E-03 -1.282072E-05 -1.414622E-04 -1.282072E-05 +3.173220E-04 
 +3.172167E-04 -6.722400E-05 -2.123308E-04 -6.722400E-05 +5.083841E-03 -8.101843E-05 -2.123308E-04 -8.101843E-05 +9.793056E-05 
 +1.233175E-04 -1.415195E-04 -3.005963E-04 -1.415195E-04 +5.184928E-03 -4.579722E-05 -3.005963E-04 -4.579722E-05 -1.373701E-04 
 -1.869084E-05 -1.487551E-04 -2.486959E-04 -1.487551E-04 +5.270535E-03 -7.320931E-05 -2.486959E-04 -7.320931E-05 -2.991370E-04 
 +8.210508E-05 -1.482477E-04 -1.209107E-04 -1.482477E-04 +5.167007E-03 -1.624874E-04 -1.209107E-04 -1.624874E-04 -3.483035E-04 
 +1.071192E-04 -1.033633E-04 -3.353518E-05 -1.033633E-04 +5.041486E-03 -1.346750E-04 -3.353518E-05 -1.346750E-04 -1.964158E-04 
 -1.577936E-04 -4.544212E-05 -2.364383E-04 -4.544212E-05 +5.049454E-03 -1.583177E-04 -2.364383E-04 -1.583177E-04 -3.595318E-05 
 -2.369003E-04 -6.589886E-05 -2.170311E-04 -6.589886E-05 +5.123280E-03 -2.320034E-04 -2.170311E-04 -2.320034E-04 +7.607355E-07 
 -2.052905E-04 -5.224924E-05 -1.562932E-04 -5.224924E-05 +5.113146E-03 -1.619565E-04 -1.562932E-04 -1.619565E-04 +2.066809E-05 
 -7.407374E-05 +1.049071E-06 -1.875428E-04 +1.049071E-06 +5.057961E-03 -1.015357E-04 -1.875428E-04 -1.015357E-04 -1.581173E-05 
 -1.264370E-05 +6.760254E-05 -1.233738E-04 +6.760254E-05 +4.977867E-03 -1.141781E-04 -1.233738E-04 -1.141781E-04 -6.616930E-05 
 -1.418620E-04 +9.546892E-05 -1.516692E-04 +9.546892E-05 +4.910355E-03 -1.367696E-04 -1.516692E-04 -1.367696E-04 -3.693947E-05 
 +3.975783E-04 -1.969636E-06 +1.222052E-04 -1.969636E-06 +4.901263E-03 -9.258988E-05 +1.222052E-04 -9.258988E-05 -1.662736E-04 
 +4.870834E-04 -6.095795E-05 +1.522942E-04 -6.095795E-05 +4.881272E-03 -3.498994E-05 +1.522942E-04 -3.498994E-05 -2.362419E-04 
 +4.064414E-04 -7.774204E-05 +5.768118E-05 -7.774204E-05 +4.931676E-03 +6.695952E-06 +5.768118E-05 +6.695952E-06 -1.559863E-04 
 +1.332512E-04 -9.919499E-05 -1.943471E-05 -9.919499E-05 +5.015636E-03 +7.349852E-05 -1.943471E-05 +7.349852E-05 -5.002218E-05 
 -1.954212E-04 -7.324359E-05 -3.104625E-06 -7.324359E-05 +5.021728E-03 +9.005996E-05 -3.104625E-06 +9.005996E-05 +2.194788E-04 
 -3.824120E-04 -4.790821E-05 -6.726030E-05 -4.790821E-05 +5.014336E-03 +9.529140E-05 -6.726030E-05 +9.529140E-05 +3.867318E-04 
 -2.882464E-04 -6.726928E-05 -1.374606E-04 -6.726928E-05 +4.989226E-03 +1.030508E-04 -1.374606E-04 +1.030508E-04 +3.665753E-04 
 -1.658158E-04 -8.522126E-05 -1.988629E-04 -8.522126E-05 +4.948382E-03 +9.401841E-05 -1.988629E-04 +9.401841E-05 +3.107667E-04 
 -2.323498E-05 -7.164146E-05 -1.703497E-04 -7.164146E-05 +4.981195E-03 +1.038968E-04 -1.703497E-04 +1.038968E-04 +2.491010E-04 
 -1.040859E-04 -3.205669E-05 -1.344446E-04 -3.205669E-05 +5.131948E-03 +7.140382E-05 -1.344446E-04 +7.140382E-05 +2.609848E-04 
 +3.123678E-04 -5.567634E-05 -2.289045E-04 -5.567634E-05 +5.281148E-03 -2.149792E-05 -2.289045E-04 -2.149792E-05 +7.522060E-05 
 +8.844389E-05 -1.042126E-04 -2.863960E-04 -1.042126E-04 +5.311689E-03 -7.243411E-05 -2.863960E-04 -7.243411E-05 -2.501884E-04 
 -4.701743E-05 -1.250967E-04 -3.169428E-04 -1.250967E-04 +5.307297E-03 -6.450317E-05 -3.169428E-04 -6.450317E-05 -3.258265E-04 
 -1.164932E-05 -1.082895E-04 -2.421392E-04 -1.082895E-04 +5.273882E-03 -7.074690E-05 -2.421392E-04 -7.074690E-05 -3.847532E-04 
 +7.420033E-05 -1.721075E-04 -3.140359E-05 -1.721075E-04 +5.180665E-03 -1.535373E-04 -3.140359E-05 -1.535373E-04 -3.270908E-04 
 -1.260346E-04 -6.354831E-05 -1.331287E-04 -6.354831E-05 +5.156609E-03 -1.261476E-04 -1.331287E-04 -1.261476E-04 -1.153147E-04 
 -1.960998E-04 -5.810681E-05 -2.934163E-04 -5.810681E-05 +5.159589E-03 -4.005845E-05 -2.934163E-04 -4.005845E-05 -4.256454E-07 
 -1.309208E-04 -2.177141E-05 -2.527807E-04 -2.177141E-05 +5.112833E-03 -6.991022E-05 -2.527807E-04 -6.991022E-05 +5.188862E-05 
 +8.538230E-05 +1.205617E-06 -9.881591E-05 +1.205617E-06 +5.004992E-03 -9.621944E-05 -9.881591E-05 -9.621944E-05 -2.629531E-04 
 +1.135681E-04 +1.219420E-04 -4.270962E-05 +1.219420E-04 +4.947974E-03 -2.122111E-04 -4.270962E-05 -2.122111E-04 -3.403735E-04 
 -1.277709E-04 +2.235641E-04 -1.510144E-04 +2.235641E-04 +4.935301E-03 -1.347912E-04 -1.510144E-04 -1.347912E-04 -1.259907E-04 
 +1.636182E-04 +1.923158E-04 +1.556153E-04 +1.923158E-04 +4.871352E-03 -5.021915E-05 +1.556153E-04 -5.021915E-05 -1.564606E-04 
 +3.040739E-04 +1.590976E-05 +1.329245E-04 +1.590976E-05 +4.930755E-03 -4.381235E-05 +1.329245E-04 -4.381235E-05 -2.030497E-04 
 +1.924185E-04 -3.105786E-05 +5.069246E-05 -3.105786E-05 +5.055666E-03 +1.644634E-05 +5.069246E-05 +1.644634E-05 -6.440146E-05 
 +8.274201E-05 -1.860067E-04 -1.747952E-06 -1.860067E-04 +5.094906E-03 +1.123794E-04 -1.747952E-06 +1.123794E-04 -7.347867E-05 
 -1.564458E-05 -2.679529E-04 +1.678711E-05 -2.679529E-04 +5.067192E-03 +1.678024E-04 +1.678711E-05 +1.678024E-04 +4.426134E-05 
 -3.201308E-04 -1.933940E-04 -4.216581E-05 -1.933940E-04 +5.059224E-03 +1.400328E-04 -4.216581E-05 +1.400328E-04 +2.775122E-04 
 -2.790868E-04 -1.104012E-04 -1.201164E-04 -1.104012E-04 +5.034458E-03 +9.387825E-05 -1.201164E-04 +9.387825E-05 +3.432137E-04 
 -1.836170E-04 -6.653111E-05 -1.698203E-04 -6.653111E-05 +4.940954E-03 +7.426862E-05 -1.698203E-04 +7.426862E-05 +2.844512E-04 
 +6.056581E-05 +7.300376E-05 -1.998657E-04 +7.300376E-05 +4.886272E-03 +2.050487E-05 -1.998657E-04 +2.050487E-05 +1.904998E-04 
 +4.024417E-05 +1.188099E-04 -1.172795E-04 +1.188099E-04 +4.868622E-03 +5.480920E-06 -1.172795E-04 +5.480920E-06 +2.404301E-04 
 +2.396864E-04 +1.112126E-04 -8.346643E-05 +1.112126E-04 +4.902944E-03 +7.966370E-05 -8.346643E-05 +7.966370E-05 +2.011207E-04 
 +9.865523E-05 +8.089268E-05 -2.098845E-04 +8.089268E-05 +5.117150E-03 +5.089590E-05 -2.098845E-04 +5.089590E-05 -1.013909E-04 
 -3.316567E-05 +7.677532E-07 -3.095961E-04 +7.677532E-07 +5.294399E-03 -2.100397E-05 -3.095961E-04 -2.100397E-05 -2.751404E-04 
 -9.010491E-05 -4.443988E-05 -3.427131E-04 -4.443988E-05 +5.336943E-03 -4.665821E-05 -3.427131E-04 -4.665821E-05 -3.745662E-04 
 -8.235455E-05 -4.491976E-05 -4.070715E-05 -4.491976E-05 +5.389795E-03 -3.437464E-05 -4.070715E-05 -3.437464E-05 -3.643463E-04 
 -5.959304E-05 +3.774458E-05 +1.085723E-04 +3.774458E-05 +5.326894E-03 +1.040434E-04 +1.085723E-04 +1.040434E-04 -2.038557E-04 
 -1.190409E-04 +3.164587E-05 -4.149590E-04 +3.164587E-05 +5.240221E-03 +1.696434E-04 -4.149590E-04 +1.696434E-04 -1.056969E-05 
 -7.055684E-05 -6.976434E-07 -2.457141E-04 -6.976434E-07 +5.180568E-03 +6.481302E-05 -2.457141E-04 +6.481302E-05 +1.957497E-05 
 +1.250295E-04 -3.149683E-05 -9.106333E-05 -3.149683E-05 +5.045069E-03 -6.291538E-05 -9.106333E-05 -6.291538E-05 -3.368084E-04 
 +1.058576E-04 +3.432125E-05 -5.887074E-05 +3.432125E-05 +4.998325E-03 -1.602394E-04 -5.887074E-05 -1.602394E-04 -3.646173E-04 
 +2.825635E-05 -7.652938E-06 -7.574929E-05 -7.652938E-06 +4.955021E-03 -8.205134E-05 -7.574929E-05 -8.205134E-05 -1.685352E-04 
 +5.655023E-06 +5.754328E-05 +1.269042E-05 +5.754328E-05 +4.915593E-03 -5.304066E-05 +1.269042E-05 -5.304066E-05 -1.447542E-04 
 +1.048401E-04 +7.912217E-05 +2.973777E-05 +7.912217E-05 +4.849043E-03 -6.444200E-05 +2.973777E-05 -6.444200E-05 -1.213912E-04 
 +9.422541E-06 +1.225133E-04 +1.505064E-05 +1.225133E-04 +4.787941E-03 -5.885143E-06 +1.505064E-05 -5.885143E-06 +1.262233E-04 
 -1.107690E-05 +1.618870E-05 -1.775451E-05 +1.618870E-05 +4.812656E-03 +6.367709E-05 -1.775451E-05 +6.367709E-05 +1.670095E-04 
 +7.028535E-06 -6.281310E-05 -1.088722E-05 -6.281310E-05 +4.882165E-03 +1.028908E-04 -1.088722E-05 +1.028908E-04 +6.696424E-05 
 -1.097009E-04 -4.976405E-05 -5.163255E-05 -4.976405E-05 +4.900518E-03 +6.379045E-05 -5.163255E-05 +6.379045E-05 +1.163637E-04 
 -1.670685E-04 +2.491883E-05 -1.122027E-04 +2.491883E-05 +4.891605E-03 +1.673488E-05 -1.122027E-04 +1.673488E-05 +2.073236E-04 
 -1.171613E-04 +6.412733E-05 -1.364082E-04 +6.412733E-05 +4.900129E-03 +2.094604E-05 -1.364082E-04 +2.094604E-05 +1.881514E-04 
 +1.434226E-05 +1.374940E-04 -1.871574E-04 +1.374940E-04 +4.849956E-03 +8.664814E-05 -1.871574E-04 +8.664814E-05 +1.653140E-04 
 +1.121678E-04 +4.848718E-05 -3.386697E-05 +4.848718E-05 +4.718363E-03 +1.628711E-04 -3.386697E-05 +1.628711E-04 +2.065839E-04 
 +1.793010E-04 +1.154768E-04 +1.597181E-05 +1.154768E-04 +4.670919E-03 +1.642030E-04 +1.597181E-05 +1.642030E-04 +2.337874E-04 
 +1.449635E-04 +1.923498E-04 -8.760874E-05 +1.923498E-04 +4.826181E-03 +1.094074E-04 -8.760874E-05 +1.094074E-04 +9.663929E-05 
 -1.459914E-05 +1.151959E-04 -3.062804E-04 +1.151959E-04 +5.139349E-03 +3.557703E-05 -3.062804E-04 +3.557703E-05 -1.236967E-04 
 -1.018485E-04 +4.914342E-05 -3.751523E-04 +4.914342E-05 +5.360438E-03 -2.145809E-05 -3.751523E-04 -2.145809E-05 -2.578646E-04 
 -1.102894E-04 +7.384439E-05 +1.364308E-04 +7.384439E-05 +5.365229E-03 +4.154050E-05 +1.364308E-04 +4.154050E-05 -2.637256E-04 
 -7.145929E-05 +1.046693E-04 +1.937336E-04 +1.046693E-04 +5.308318E-03 +7.201928E-05 +1.937336E-04 +7.201928E-05 -1.988074E-04 
 -1.096734E-04 +1.138589E-04 -3.395839E-04 +1.138589E-04 +5.219643E-03 +8.685471E-05 -3.395839E-04 +8.685471E-05 -6.617286E-05 
 -2.400232E-05 +2.396454E-05 -9.320560E-05 +2.396454E-05 +5.109325E-03 +8.746683E-05 -9.320560E-05 +8.746683E-05 -1.052985E-04 
 +9.057338E-05 -6.577650E-05 -8.618775E-05 -6.577650E-05 +5.071335E-03 -5.087182E-05 -8.618775E-05 -5.087182E-05 -2.750692E-04 
 +3.611944E-05 +2.653285E-05 -9.008521E-05 +2.653285E-05 +5.023413E-03 -6.543248E-05 -9.008521E-05 -6.543248E-05 -2.406660E-04 
 +5.547499E-05 +7.212006E-06 -5.179200E-05 +7.212006E-06 +4.952488E-03 -5.952358E-05 -5.179200E-05 -5.952358E-05 -1.155759E-04 
 +2.097679E-05 +4.027110E-06 -6.419871E-05 +4.027110E-06 +4.885707E-03 -1.004416E-04 -6.419871E-05 -1.004416E-04 -5.153644E-05 
 +4.548045E-05 +1.361576E-05 -3.311811E-05 +1.361576E-05 +4.820283E-03 -7.875578E-05 -3.311811E-05 -7.875578E-05 -1.698677E-05 
 -1.930627E-05 +1.493577E-04 +5.411269E-06 +1.493577E-04 +4.808548E-03 -4.017435E-05 +5.411269E-06 -4.017435E-05 +1.246093E-04 
 -2.528030E-05 +1.115559E-04 -1.987448E-06 +1.115559E-04 +4.782549E-03 -8.386842E-06 -1.987448E-06 -8.386842E-06 +1.908552E-04 
 +3.589740E-06 +8.163288E-05 -3.165517E-05 +8.163288E-05 +4.784864E-03 +4.108192E-05 -3.165517E-05 +4.108192E-05 +1.137667E-04 
 -3.699935E-05 +4.895807E-05 -9.323598E-05 +4.895807E-05 +4.869587E-03 +2.869662E-05 -9.323598E-05 +2.869662E-05 +4.571233E-05 
 -7.203392E-05 +3.663803E-05 -9.160222E-05 +3.663803E-05 +4.939064E-03 +1.553186E-05 -9.160222E-05 +1.553186E-05 +5.575663E-05 
 -8.746866E-05 +3.113489E-05 -7.441562E-05 +3.113489E-05 +4.961384E-03 +2.649603E-05 -7.441562E-05 +2.649603E-05 +5.480163E-05 
 -8.712795E-05 +6.451286E-05 -5.047860E-05 +6.451286E-05 +4.896949E-03 +7.369686E-05 -5.047860E-05 +7.369686E-05 +1.029727E-04 
 +7.207686E-05 -6.517120E-06 +6.848616E-05 -6.517120E-06 +4.771536E-03 +1.384359E-04 +6.848616E-05 +1.384359E-04 +2.010726E-04 
 +1.073737E-04 +8.570437E-05 -3.223410E-05 +8.570437E-05 +4.682608E-03 +1.650681E-04 -3.223410E-05 +1.650681E-04 +2.461333E-04 
 +1.632909E-04 +1.954281E-04 -5.091933E-05 +1.954281E-04 +4.651247E-03 +1.453873E-04 -5.091933E-05 +1.453873E-04 +2.373255E-04 
 +7.976810E-05 +1.813086E-04 -2.904636E-04 +1.813086E-04 +4.744853E-03 +9.538125E-05 -2.904636E-04 +9.538125E-05 +2.582125E-04 
 -5.629599E-05 +8.278882E-05 -3.205963E-04 +8.278882E-05 +5.001646E-03 +1.286770E-04 -3.205963E-04 +1.286770E-04 +1.569377E-04 
 -1.147001E-04 +7.779984E-06 +1.854422E-04 +7.779984E-06 +5.210946E-03 +9.668981E-05 +1.854422E-04 +9.668981E-05 -4.753896E-05 
 -9.876877E-05 -8.902997E-06 +1.881807E-04 -8.902997E-06 +5.222732E-03 -3.272460E-05 +1.881807E-04 -3.272460E-05 -9.040740E-05 
 -9.371157E-05 +4.199088E-06 +5.244492E-06 +4.199088E-06 +5.162325E-03 +3.226723E-05 +5.244492E-06 +3.226723E-05 -1.119504E-04 
 +1.687872E-05 -5.786619E-05 -2.643019E-06 -5.786619E-05 +5.105054E-03 +5.921001E-05 -2.643019E-06 +5.921001E-05 -2.175640E-04 
 +7.242916E-05 -1.081765E-04 -5.280775E-05 -1.081765E-04 +5.057192E-03 -3.155563E-05 -5.280775E-05 -3.155563E-05 -2.500432E-04 
 +7.210673E-05 -4.478711E-05 -8.616882E-05 -4.478711E-05 +5.002106E-03 -4.004024E-05 -8.616882E-05 -4.004024E-05 -1.995155E-04 
 +6.016171E-05 -5.137020E-06 -5.216216E-05 -5.137020E-06 +4.942788E-03 -2.965649E-05 -5.216216E-05 -2.965649E-05 -1.135241E-04 
 +5.855233E-05 +4.109315E-05 -4.561571E-05 +4.109315E-05 +4.913776E-03 -3.754534E-05 -4.561571E-05 -3.754534E-05 -4.268155E-05 
 +2.267006E-05 +1.149337E-04 -2.387113E-05 +1.149337E-04 +4.917277E-03 -3.714602E-05 -2.387113E-05 -3.714602E-05 -1.532963E-05 
 -2.027918E-05 +2.023132E-04 -1.072181E-05 +2.023132E-04 +4.877421E-03 -6.864561E-05 -1.072181E-05 -6.864561E-05 +5.415586E-05 
 -2.288028E-05 +1.349439E-04 -1.483586E-05 +1.349439E-04 +4.837566E-03 -4.862027E-05 -1.483586E-05 -4.862027E-05 +8.412422E-05 
 +7.274974E-06 +1.288423E-04 -8.140033E-05 +1.288423E-04 +4.851909E-03 +6.003406E-06 -8.140033E-05 +6.003406E-06 +8.145912E-05 
 -4.599079E-05 +1.118560E-04 -1.283244E-04 +1.118560E-04 +4.889112E-03 +8.363941E-06 -1.283244E-04 +8.363941E-06 +5.579823E-05 
 -4.067228E-05 +7.904833E-05 -8.503471E-05 +7.904833E-05 +4.928911E-03 +1.729630E-05 -8.503471E-05 +1.729630E-05 +1.739835E-06 
 -5.969367E-05 +8.747979E-05 -3.695324E-05 +8.747979E-05 +4.979929E-03 +2.297632E-05 -3.695324E-05 +2.297632E-05 -3.118841E-05 
 -5.858329E-05 +8.559053E-05 +4.617374E-05 +8.559053E-05 +4.988574E-03 +8.662340E-05 +4.617374E-05 +8.662340E-05 +4.549049E-06 
 -6.200384E-05 -4.006773E-06 +4.373763E-05 -4.006773E-06 +4.884665E-03 +1.423521E-04 +4.373763E-05 +1.423521E-04 +1.440079E-04 
 -3.561571E-05 +8.455715E-05 -1.091644E-04 +8.455715E-05 +4.794699E-03 +1.325322E-04 -1.091644E-04 +1.325322E-04 +2.295642E-04 
 +6.223563E-05 +1.186520E-04 -1.493098E-04 +1.186520E-04 +4.700125E-03 +1.092759E-04 -1.493098E-04 +1.092759E-04 +2.254591E-04 
 +1.426135E-04 +1.542153E-04 -2.738083E-04 +1.542153E-04 +4.679083E-03 +1.037675E-04 -2.738083E-04 +1.037675E-04 +3.493685E-04 
 +2.937591E-05 +1.239007E-04 -2.205656E-04 +1.239007E-04 +4.862933E-03 +1.117059E-04 -2.205656E-04 +1.117059E-04 +3.134906E-04 
 -6.811850E-05 +2.514806E-05 +1.617755E-04 +2.514806E-05 +5.082917E-03 +6.411194E-05 +1.617755E-04 +6.411194E-05 -5.051526E-06 
 -7.830457E-05 -1.329309E-05 +2.584448E-04 -1.329309E-05 +5.184358E-03 +1.399545E-06 +2.584448E-04 +1.399545E-06 -1.144459E-04 
 -7.425324E-05 -1.240397E-05 +2.483522E-04 -1.240397E-05 +5.156911E-03 -6.628584E-06 +2.483522E-04 -6.628584E-06 -9.596457E-05 
 +3.891781E-05 -1.008800E-04 +2.323706E-05 -1.008800E-04 +5.095120E-03 -2.555905E-06 +2.323706E-05 -2.555905E-06 -1.969324E-04 
 +6.167311E-05 -1.222104E-04 -2.234769E-05 -1.222104E-04 +5.008616E-03 -4.216969E-05 -2.234769E-05 -4.216969E-05 -2.317313E-04 
 +9.824187E-05 -8.300396E-05 -7.306569E-05 -8.300396E-05 +4.981703E-03 -1.000879E-05 -7.306569E-05 -1.000879E-05 -2.065188E-04 
 +1.198314E-04 -3.746041E-05 -4.912897E-05 -3.746041E-05 +4.967125E-03 +2.548858E-06 -4.912897E-05 +2.548858E-06 -1.661058E-04 
 +1.129639E-04 -1.474208E-05 -6.090047E-05 -1.474208E-05 +4.952318E-03 -1.044474E-05 -6.090047E-05 -1.044474E-05 -1.306047E-04 
 +5.461765E-05 +1.282439E-04 -1.626614E-05 +1.282439E-04 +5.046218E-03 +1.338175E-06 -1.626614E-05 +1.338175E-06 -8.872837E-05 
 -7.258584E-05 +1.145820E-04 -2.441010E-05 +1.145820E-04 +5.066091E-03 +3.521695E-06 -2.441010E-05 +3.521695E-06 +2.766983E-05 
 -1.639917E-05 +1.008121E-04 -6.684393E-05 +1.008121E-04 +4.893366E-03 -3.470389E-05 -6.684393E-05 -3.470389E-05 +3.548471E-05 
 +2.055076E-05 +1.376856E-04 -1.266782E-04 +1.376856E-04 +4.799264E-03 -2.718821E-05 -1.266782E-04 -2.718821E-05 +4.641474E-05 
 -1.263924E-05 +1.962839E-04 -9.884149E-05 +1.962839E-04 +4.827671E-03 +7.599375E-06 -9.884149E-05 +7.599375E-06 +7.066660E-05 
 -5.219108E-05 +1.513593E-04 -7.130462E-05 +1.513593E-04 +4.932173E-03 +2.559624E-05 -7.130462E-05 +2.559624E-05 -2.695059E-05 
 -5.859484E-06 +1.499797E-04 -4.837532E-06 +1.499797E-04 +5.021845E-03 +3.060169E-05 -4.837532E-06 +3.060169E-05 -1.001187E-04 
 -9.967178E-06 +1.271558E-04 +5.742455E-05 +1.271558E-04 +5.149678E-03 +1.813789E-05 +5.742455E-05 +1.813789E-05 -1.251862E-04 
 -2.593224E-04 -2.443115E-05 -1.364935E-04 -2.443115E-05 +5.287044E-03 -4.051132E-05 -1.364935E-04 -4.051132E-05 -3.356335E-05 
 -1.986970E-04 +3.952407E-05 -2.007279E-04 +3.952407E-05 +5.268929E-03 -8.483263E-05 -2.007279E-04 -8.483263E-05 +9.415235E-05 
 -8.473143E-05 +7.280740E-05 -2.171134E-04 +7.280740E-05 +5.142441E-03 -7.087655E-05 -2.171134E-04 -7.087655E-05 +5.649192E-05 
 +1.567241E-04 +1.978648E-04 -1.742112E-04 +1.978648E-04 +5.030047E-03 -3.179612E-05 -1.742112E-04 -3.179612E-05 +1.186495E-04 
 +1.400052E-04 +2.229066E-04 -9.721676E-05 +2.229066E-04 +4.988495E-03 +2.650224E-05 -9.721676E-05 +2.650224E-05 +1.970505E-04 
 +4.949901E-05 +1.062049E-04 +1.612340E-04 +1.062049E-04 +5.013651E-03 +4.830942E-05 +1.612340E-04 +4.830942E-05 +2.548290E-05 
 -2.913926E-05 +2.495349E-05 +3.053170E-04 +2.495349E-05 +5.065093E-03 +4.277391E-05 +3.053170E-04 +4.277391E-05 -1.370777E-04 
 -8.502713E-05 -1.822333E-05 +3.361106E-04 -1.822333E-05 +5.106682E-03 +2.153046E-05 +3.361106E-04 +2.153046E-05 -1.013362E-04 
 +1.248477E-05 -1.373315E-04 +9.928528E-05 -1.373315E-04 +5.067441E-03 -3.490617E-05 +9.928528E-05 -3.490617E-05 -1.412378E-04 
 +2.938872E-05 -1.416627E-04 +3.281655E-05 -1.416627E-04 +4.980976E-03 -2.324908E-05 +3.281655E-05 -2.324908E-05 -1.889871E-04 
 +1.026525E-04 -1.067789E-04 -3.939773E-05 -1.067789E-04 +4.977792E-03 +2.597496E-05 -3.939773E-05 +2.597496E-05 -2.162827E-04 
 +1.005162E-04 -9.711799E-05 -5.450791E-05 -9.711799E-05 +4.981154E-03 +1.457161E-05 -5.450791E-05 +1.457161E-05 -1.861459E-04 
 +1.248381E-04 -8.652885E-05 -3.906042E-05 -8.652885E-05 +5.045558E-03 -4.534340E-05 -3.906042E-05 -4.534340E-05 -1.464729E-04 
 +1.163969E-04 +5.451346E-05 -1.398537E-05 +5.451346E-05 +5.057289E-03 -9.103285E-05 -1.398537E-05 -9.103285E-05 -1.297986E-04 
 +4.467343E-05 +3.901471E-06 -3.257153E-05 +3.901471E-06 +4.932133E-03 -1.248587E-04 -3.257153E-05 -1.248587E-04 -9.555900E-06 
 -1.528346E-05 +7.134823E-05 -5.933564E-05 +7.134823E-05 +4.822236E-03 -1.028206E-04 -5.933564E-05 -1.028206E-04 +3.893811E-05 
 +2.730102E-05 +1.334649E-04 -1.047096E-04 +1.334649E-04 +4.754657E-03 -6.406276E-05 -1.047096E-04 -6.406276E-05 +3.563940E-05 
 +5.767698E-05 +2.601710E-04 -7.650974E-05 +2.601710E-04 +4.824480E-03 -6.632679E-05 -7.650974E-05 -6.632679E-05 +6.271131E-05 
 -4.889921E-05 +2.412342E-04 +7.412338E-06 +2.412342E-04 +4.972502E-03 -2.678045E-05 +7.412338E-06 -2.678045E-05 -2.143909E-05 
 -5.799737E-06 +2.196752E-04 +6.621301E-05 +2.196752E-04 +5.093829E-03 +3.534131E-05 +6.621301E-05 +3.534131E-05 -1.071808E-04 
 -4.750920E-05 +1.650326E-04 +1.104434E-05 +1.650326E-04 +5.194610E-03 -1.677112E-05 +1.104434E-05 -1.677112E-05 -1.272948E-04 
 -3.137588E-04 +3.742175E-05 -2.047965E-04 +3.742175E-05 +5.290505E-03 -8.876100E-05 -2.047965E-04 -8.876100E-05 -4.297487E-05 
 -2.705810E-04 +1.045605E-04 -3.082642E-04 +1.045605E-04 +5.273690E-03 -1.204842E-04 -3.082642E-04 -1.204842E-04 +8.039492E-05 
 -1.593409E-04 +1.993210E-04 -2.927434E-04 +1.993210E-04 +5.159057E-03 -1.090143E-04 -2.927434E-04 -1.090143E-04 +5.245109E-05 
 +1.646362E-04 +3.217420E-04 -1.476542E-04 +3.217420E-04 +5.007991E-03 -3.351320E-05 -1.476542E-04 -3.351320E-05 +1.137791E-04 
 +1.589560E-04 +3.114555E-04 -7.145354E-05 +3.114555E-04 +4.755762E-03 -7.251790E-06 -7.145354E-05 -7.251790E-06 +2.799233E-04 
 +8.112596E-05 +2.610314E-04 +6.070865E-05 +2.610314E-04 +4.746231E-03 -1.578357E-05 +6.070865E-05 -1.578357E-05 +2.584618E-04 
 -3.798955E-05 +9.493694E-05 +2.330673E-04 +9.493694E-05 +4.965738E-03 +3.337637E-06 +2.330673E-04 +3.337637E-06 +4.846014E-05 
 -8.852114E-05 -2.382280E-05 +3.877355E-04 -2.382280E-05 +5.034017E-03 +3.334901E-05 +3.877355E-04 +3.334901E-05 -1.003777E-04 
 -2.037889E-05 -1.626246E-04 +1.923392E-04 -1.626246E-04 +5.008320E-03 -7.113337E-06 +1.923392E-04 -7.113337E-06 -1.393770E-04 
 -8.934279E-06 -1.485170E-04 +8.499010E-05 -1.485170E-04 +4.969717E-03 +4.389508E-05 +8.499010E-05 +4.389508E-05 -1.538039E-04 
 -2.344908E-05 -1.391500E-04 -6.666663E-05 -1.391500E-04 +4.995361E-03 +7.015717E-05 -6.666663E-05 +7.015717E-05 -1.750540E-04 
 +5.985885E-05 -2.003885E-04 +5.574528E-06 -2.003885E-04 +5.010744E-03 +4.405553E-05 +5.574528E-06 +4.405553E-05 -1.433972E-04 
 +1.050601E-04 -1.287377E-04 +5.593526E-06 -1.287377E-04 +4.993441E-03 +9.278008E-07 +5.593526E-06 +9.278008E-07 -1.109314E-04 
 +1.642826E-04 -1.397077E-04 -1.453385E-05 -1.397077E-04 +4.861228E-03 -9.083313E-05 -1.453385E-05 -9.083313E-05 -6.725732E-05 
 +1.835470E-04 -1.711321E-04 +5.249297E-05 -1.711321E-04 +4.771179E-03 -1.317527E-04 +5.249297E-05 -1.317527E-04 +1.109960E-05 
 +9.030089E-05 -1.234175E-04 +7.733739E-05 -1.234175E-04 +4.796827E-03 -9.968717E-05 +7.733739E-05 -9.968717E-05 +5.311840E-05 
 +8.670513E-06 +9.231840E-06 +3.529382E-05 +9.231840E-06 +4.768535E-03 -7.051778E-05 +3.529382E-05 -7.051778E-05 -3.543226E-05 
 +1.029538E-04 +2.318323E-04 +7.047762E-05 +2.318323E-04 +4.833744E-03 +4.739788E-05 +7.047762E-05 +4.739788E-05 -5.974908E-05 
 +1.465792E-05 +2.062033E-04 +8.237531E-05 +2.062033E-04 +5.048314E-03 +1.723647E-04 +8.237531E-05 +1.723647E-04 -8.510035E-05 
 -2.662610E-05 +1.499820E-04 +2.202951E-04 +1.499820E-04 +5.185317E-03 +2.176271E-04 +2.202951E-04 +2.176271E-04 -1.230896E-04 
 -1.122907E-04 +8.268852E-05 +1.667560E-05 +8.268852E-05 +5.135337E-03 +2.037991E-04 +1.667560E-05 +2.037991E-04 -5.924410E-05 
 -1.802190E-04 +4.892284E-05 -7.087260E-05 +4.892284E-05 +5.119747E-03 +5.203307E-05 -7.087260E-05 +5.203307E-05 +9.134852E-06 
 -2.407460E-04 +6.820182E-05 -3.187683E-04 +6.820182E-05 +5.180997E-03 -1.213487E-04 -3.187683E-04 -1.213487E-04 +7.955449E-05 
 -1.319753E-04 +1.483632E-04 -2.980365E-04 +1.483632E-04 +5.057323E-03 -2.227948E-04 -2.980365E-04 -2.227948E-04 +3.576368E-05 
 +1.238016E-04 +2.700478E-04 -1.454528E-04 +2.700478E-04 +4.822449E-03 -1.915147E-04 -1.454528E-04 -1.915147E-04 +6.705124E-05 
 +5.416517E-05 +2.739060E-04 -8.758746E-05 +2.739060E-04 +4.789163E-03 -1.337138E-04 -8.758746E-05 -1.337138E-04 +2.861543E-04 
 -1.021904E-05 +2.500963E-04 +9.726948E-06 +2.500963E-04 +4.766403E-03 -9.365720E-05 +9.726948E-06 -9.365720E-05 +3.876990E-04 
 -2.314573E-05 +1.682443E-04 +9.565123E-05 +1.682443E-04 +4.789842E-03 -4.964516E-05 +9.565123E-05 -4.964516E-05 +2.669406E-04 
 -9.840724E-05 -1.779206E-05 +3.188517E-04 -1.779206E-05 +4.920597E-03 -7.499643E-06 +3.188517E-04 -7.499643E-06 +1.828949E-05 
 -5.121316E-05 -1.694480E-04 +2.287792E-04 -1.694480E-04 +4.956313E-03 -4.956180E-06 +2.287792E-04 -4.956180E-06 -1.078505E-04 
 -7.648200E-05 -1.172028E-04 +8.823314E-05 -1.172028E-04 +5.045472E-03 +6.987678E-05 +8.823314E-05 +6.987678E-05 -1.719886E-04 
 -2.038489E-04 -1.100638E-04 -1.426664E-04 -1.100638E-04 +5.106220E-03 +7.337629E-05 -1.426664E-04 +7.337629E-05 -1.689519E-04 
 +5.112387E-05 -1.934467E-04 +7.358372E-05 -1.934467E-04 +5.045248E-03 +7.492191E-05 +7.358372E-05 +7.492191E-05 -1.537492E-04 
 +8.130971E-05 -1.301595E-04 +3.198450E-05 -1.301595E-04 +4.902322E-03 -3.578844E-05 +3.198450E-05 -3.578844E-05 -1.645825E-04 
 +1.824170E-04 -1.880459E-04 +8.227916E-05 -1.880459E-04 +4.755115E-03 -2.001581E-04 +8.227916E-05 -2.001581E-04 -7.503226E-05 
 +1.915602E-04 -1.251956E-04 +2.202240E-04 -1.251956E-04 +4.683908E-03 -2.218410E-04 +2.202240E-04 -2.218410E-04 -1.368526E-05 
 +1.549264E-04 -9.723406E-05 +2.466327E-04 -9.723406E-05 +4.846457E-03 -8.089004E-05 +2.466327E-04 -8.089004E-05 -4.063915E-05 
 +2.291184E-06 -8.126947E-05 +3.049256E-04 -8.126947E-05 +5.103874E-03 +1.272457E-04 +3.049256E-04 +1.272457E-04 -2.311370E-04 
 +1.163204E-04 +7.923355E-05 +3.166745E-04 +7.923355E-05 +5.060491E-03 +2.095729E-04 +3.166745E-04 +2.095729E-04 -2.366757E-04 
 +1.920586E-04 +2.302694E-04 +4.138626E-05 +2.302694E-04 +4.985448E-03 +1.767021E-04 +4.138626E-05 +1.767021E-04 -1.036114E-04 
 -1.107782E-05 +1.411539E-04 +2.915040E-04 +1.411539E-04 +5.064921E-03 +1.332521E-04 +2.915040E-04 +1.332521E-04 -5.126845E-05 
 -1.211260E-04 +5.514356E-05 +4.376767E-05 +5.514356E-05 +5.098502E-03 +1.360626E-04 +4.376767E-05 +1.360626E-04 +2.619401E-06 
 -1.397901E-04 +8.931653E-06 +3.248225E-05 +8.931653E-06 +5.113084E-03 +8.405914E-05 +3.248225E-05 +8.405914E-05 +1.135644E-05 
 -1.966607E-04 -6.156464E-05 -1.684419E-04 -6.156464E-05 +5.090272E-03 -2.385017E-05 -1.684419E-04 -2.385017E-05 +3.870945E-05 
 -3.978990E-05 -2.732758E-05 -1.073244E-04 -2.732758E-05 +5.138670E-03 -1.250420E-04 -1.073244E-04 -1.250420E-04 -1.511338E-04 
 +3.458137E-05 +3.198877E-05 -4.757320E-06 +3.198877E-05 +5.103107E-03 -1.946700E-04 -4.757320E-06 -1.946700E-04 -2.205723E-04 
 -4.348943E-05 +1.405743E-04 -1.270137E-05 +1.405743E-04 +4.901868E-03 -2.017828E-04 -1.270137E-05 -2.017828E-04 +9.643371E-05 
 -5.091476E-05 +1.858479E-04 +7.095366E-05 +1.858479E-04 +4.849516E-03 -1.704523E-04 +7.095366E-05 -1.704523E-04 +2.858318E-04 
 -5.077407E-05 +1.000679E-04 +6.706158E-05 +1.000679E-04 +4.761761E-03 -6.276288E-05 +6.706158E-05 -6.276288E-05 +2.301045E-04 
 -3.764597E-05 -4.410513E-05 +1.644586E-04 -4.410513E-05 +4.684086E-03 +1.480139E-05 +1.644586E-04 +1.480139E-05 +9.514694E-05 
 -3.494903E-05 -9.741573E-05 +1.960861E-04 -9.741573E-05 +4.864729E-03 +2.737849E-05 +1.960861E-04 +2.737849E-05 -4.657613E-05 
 -5.795265E-05 -1.380195E-04 +3.074184E-05 -1.380195E-04 +5.074944E-03 +7.233280E-05 +3.074184E-05 +7.233280E-05 -1.802838E-04 
 -1.149912E-04 -7.575413E-05 -7.278523E-05 -7.575413E-05 +5.109408E-03 +7.370827E-05 -7.278523E-05 +7.370827E-05 -1.491753E-04 
 +2.968457E-05 -6.267038E-05 +6.714259E-05 -6.267038E-05 +5.040151E-03 +1.258802E-04 +6.714259E-05 +1.258802E-04 -1.301451E-04 
 +9.331534E-05 -3.686915E-05 +5.117808E-05 -3.686915E-05 +4.944841E-03 +7.185925E-07 +5.117808E-05 +7.185925E-07 -7.867259E-05 
 +2.020003E-04 -3.640747E-06 +3.036670E-04 -3.640747E-06 +4.909362E-03 -1.288801E-04 +3.036670E-04 -1.288801E-04 -7.859364E-05 
 +1.195017E-04 +1.018094E-04 +3.846494E-04 +1.018094E-04 +5.083392E-03 -9.894857E-05 +3.846494E-04 -9.894857E-05 -9.302530E-05 
 +5.183826E-05 +1.226168E-04 +3.365397E-04 +1.226168E-04 +5.220623E-03 +3.143029E-05 +3.365397E-04 +3.143029E-05 -1.045503E-04 
 +2.492205E-05 +9.159381E-05 +4.239328E-04 +9.159381E-05 +5.227421E-03 +1.722465E-04 +4.239328E-04 +1.722465E-04 -2.222237E-04 
 +1.065756E-04 +8.291081E-05 +4.210873E-04 +8.291081E-05 +5.085152E-03 +1.530601E-04 +4.210873E-04 +1.530601E-04 -2.118410E-04 
 +2.800501E-04 +2.815026E-04 +8.756870E-05 +2.815026E-04 +4.949279E-03 +9.391513E-05 +8.756870E-05 +9.391513E-05 -4.202350E-05 
 -2.550566E-06 +8.827678E-05 +2.165105E-04 +8.827678E-05 +4.965341E-03 +8.782714E-05 +2.165105E-04 +8.782714E-05 +6.283079E-05 
 -1.080562E-04 +1.069637E-05 +5.972478E-05 +1.069637E-05 +5.047055E-03 +9.248761E-05 +5.972478E-05 +9.248761E-05 +4.836525E-05 
 -1.638437E-04 -4.192889E-05 +3.700456E-05 -4.192889E-05 +5.101758E-03 +9.153154E-05 +3.700456E-05 +9.153154E-05 +4.568550E-05 
 -1.815416E-04 -9.047063E-05 -1.085195E-04 -9.047063E-05 +5.117063E-03 +9.458259E-06 -1.085195E-04 +9.458259E-06 +4.208242E-07 
 +1.350365E-06 -3.134259E-05 +2.059343E-05 -3.134259E-05 +5.170640E-03 -7.482370E-05 +2.059343E-05 -7.482370E-05 -2.264612E-04 
 -7.518884E-05 -1.148790E-04 +5.306932E-05 -1.148790E-04 +5.202413E-03 -1.446909E-04 +5.306932E-05 -1.446909E-04 -2.918154E-04 
 -2.820713E-05 -3.913109E-05 +2.750263E-05 -3.913109E-05 +5.076462E-03 -1.633099E-04 +2.750263E-05 -1.633099E-04 -6.046378E-05 
 -9.555564E-05 +1.135617E-04 +1.331259E-05 +1.135617E-04 +4.937636E-03 -1.648334E-04 +1.331259E-05 -1.648334E-04 +1.086671E-04 
 -2.907578E-05 -7.600428E-05 +4.324509E-05 -7.600428E-05 +4.806658E-03 -6.193428E-05 +4.324509E-05 -6.193428E-05 +1.093173E-04 
 -5.668946E-05 -8.162987E-05 -4.264950E-05 -8.162987E-05 +4.678755E-03 +7.841256E-05 -4.264950E-05 +7.841256E-05 +5.377709E-05 
 +4.429291E-06 -1.130661E-04 +5.360837E-05 -1.130661E-04 +4.817725E-03 +1.113482E-04 +5.360837E-05 +1.113482E-04 -9.355431E-05 
 +1.050475E-04 -1.508155E-04 -1.059425E-05 -1.508155E-04 +4.921318E-03 -3.426492E-05 -1.059425E-05 -3.426492E-05 -1.497806E-04 
 +8.018071E-05 -1.714450E-04 +1.896913E-05 -1.714450E-04 +4.770511E-03 +1.933342E-05 +1.896913E-05 +1.933342E-05 -3.222857E-05 
 +1.121858E-04 -1.056966E-04 +8.634375E-05 -1.056966E-04 +4.730538E-03 +2.854802E-05 +8.634375E-05 +2.854802E-05 +3.169287E-05 
 +1.482348E-04 -5.710376E-05 +4.540118E-05 -5.710376E-05 +4.736396E-03 +5.167322E-06 +4.540118E-05 +5.167322E-06 +1.167582E-04 
 +1.033514E-04 +6.724634E-05 +4.108792E-04 +6.724634E-05 +4.890369E-03 -2.671874E-05 +4.108792E-04 -2.671874E-05 +4.135592E-05 
 +1.284816E-05 +1.022653E-04 +4.719079E-04 +1.022653E-04 +5.086340E-03 +2.490429E-06 +4.719079E-04 +2.490429E-06 -4.628150E-05 
 +1.128843E-05 +1.052657E-04 +3.563616E-04 +1.052657E-04 +5.141504E-03 +8.274219E-05 +3.563616E-04 +8.274219E-05 -3.197585E-05 
 +9.450909E-05 +1.088699E-04 +3.817330E-04 +1.088699E-04 +5.150547E-03 +1.264040E-04 +3.817330E-04 +1.264040E-04 -3.477923E-05 
 +8.260432E-05 +5.039861E-05 +3.980988E-04 +5.039861E-05 +5.153593E-03 +5.140805E-05 +3.980988E-04 +5.140805E-05 -8.868021E-05 
 +1.417620E-04 +2.414532E-04 +2.907000E-04 +2.414532E-04 +5.025430E-03 -9.546838E-07 +2.907000E-04 -9.546838E-07 -1.163428E-04 
 -2.753042E-05 +1.222420E-04 +1.243330E-04 +1.222420E-04 +4.959211E-03 +5.959179E-05 +1.243330E-04 +5.959179E-05 -1.986611E-06 
 -7.461497E-05 +3.950143E-05 +6.779192E-05 +3.950143E-05 +5.026820E-03 +9.638032E-05 +6.779192E-05 +9.638032E-05 +5.609597E-05 
 -1.515364E-04 -3.568769E-05 +1.864673E-05 -3.568769E-05 +5.072439E-03 +6.168542E-05 +1.864673E-05 +6.168542E-05 +4.260025E-05 
 -1.809619E-04 -9.179694E-05 -1.074738E-04 -9.179694E-05 +5.126501E-03 +2.004141E-05 -1.074738E-04 +2.004141E-05 -6.154230E-05 
 -2.430181E-05 -4.282555E-05 -5.750260E-06 -4.282555E-05 +5.150524E-03 -3.786117E-05 -5.750260E-06 -3.786117E-05 -8.323448E-05 
 -1.862271E-04 -1.606286E-04 +2.340383E-05 -1.606286E-04 +5.126706E-03 -8.848769E-05 +2.340383E-05 -8.848769E-05 -3.887225E-05 
 -3.276146E-05 -1.395265E-04 -9.060022E-05 -1.395265E-04 +5.143944E-03 -8.720367E-05 -9.060022E-05 -8.720367E-05 -4.867772E-05 
 -1.376870E-04 -3.368561E-05 -2.157440E-04 -3.368561E-05 +5.022704E-03 -1.087492E-04 -2.157440E-04 -1.087492E-04 +2.289408E-05 
 +1.321790E-04 -1.592616E-04 -1.347360E-04 -1.592616E-04 +4.838056E-03 -6.471329E-05 -1.347360E-04 -6.471329E-05 +3.643855E-05 
 -1.258282E-04 +6.565870E-06 -3.029137E-04 +6.565870E-06 +4.946115E-03 -1.283290E-05 -3.029137E-04 -1.283290E-05 -4.310990E-05 
 -8.266169E-05 -2.857867E-06 -1.311786E-04 -2.857867E-06 +5.057011E-03 -4.077418E-05 -1.311786E-04 -4.077418E-05 -1.446348E-04 
 +3.075831E-04 -1.386362E-04 -1.216480E-06 -1.386362E-04 +4.791799E-03 -1.018582E-04 -1.216480E-06 -1.018582E-04 -7.743590E-05 
 +1.918022E-04 -7.046349E-05 -1.301739E-05 -7.046349E-05 +4.702255E-03 -1.760776E-05 -1.301739E-05 -1.760776E-05 +4.074507E-05 
 +1.215511E-04 -6.784585E-05 +1.134556E-04 -6.784585E-05 +4.686365E-03 -2.353158E-05 +1.134556E-04 -2.353158E-05 +1.089018E-04 
 +5.757890E-05 -1.127745E-04 +6.630812E-05 -1.127745E-04 +4.817933E-03 +1.978116E-05 +6.630812E-05 +1.978116E-05 +1.233886E-04 
 -5.559353E-05 -1.360604E-05 +3.130916E-04 -1.360604E-05 +5.008524E-03 +5.903176E-05 +3.130916E-04 +5.903176E-05 +7.800502E-05 
 +1.275398E-05 +3.679509E-05 +4.369280E-04 +3.679509E-05 +5.087087E-03 +4.787439E-05 +4.369280E-04 +4.787439E-05 +1.311756E-05 
 +4.755219E-05 +4.130282E-05 +3.426103E-04 +4.130282E-05 +5.111776E-03 +6.022842E-05 +3.426103E-04 +6.022842E-05 +2.007193E-05 
 +1.312108E-04 +1.354649E-05 +3.404838E-04 +1.354649E-05 +5.105695E-03 +4.199036E-05 +3.404838E-04 +4.199036E-05 +4.726295E-05 
 +1.111855E-04 -8.408077E-06 +3.177016E-04 -8.408077E-06 +5.176995E-03 -5.153611E-06 +3.177016E-04 -5.153611E-06 -5.208170E-05 
 +3.302995E-05 +1.014931E-04 +4.667228E-04 +1.014931E-04 +5.198551E-03 -2.007253E-05 +4.667228E-04 -2.007253E-05 -2.191284E-04 
 -3.804481E-05 +1.227288E-04 +5.350507E-05 +1.227288E-04 +5.069723E-03 +7.768464E-06 +5.350507E-05 +7.768464E-06 -1.742066E-04 
 -6.543777E-05 +4.709951E-05 +1.626908E-05 +4.709951E-05 +5.006032E-03 +5.103735E-05 +1.626908E-05 +5.103735E-05 -1.191536E-05 
 -1.395959E-04 +1.267329E-05 -4.726310E-05 +1.267329E-05 +5.087968E-03 -4.900123E-06 -4.726310E-05 -4.900123E-06 -3.262444E-06 
 -2.396463E-04 -1.078653E-04 +1.369789E-05 -1.078653E-04 +5.169041E-03 -1.920763E-05 +1.369789E-05 -1.920763E-05 -6.662423E-05 
 -1.277768E-04 -1.624225E-04 -8.624790E-05 -1.624225E-04 +5.097252E-03 +4.466695E-05 -8.624790E-05 +4.466695E-05 +6.642016E-05 
 -1.338688E-04 -2.079623E-04 -1.969425E-05 -2.079623E-04 +5.043111E-03 +2.649297E-05 -1.969425E-05 +2.649297E-05 +1.201422E-04 
 -6.466653E-05 -8.119181E-05 -2.477179E-04 -8.119181E-05 +5.021015E-03 -1.917659E-05 -2.477179E-04 -1.917659E-05 +3.022014E-05 
 -4.959468E-06 -5.487168E-06 -2.912332E-04 -5.487168E-06 +4.953271E-03 -3.426837E-05 -2.912332E-04 -3.426837E-05 +5.736869E-05 
 +4.056337E-05 -7.956696E-05 -2.911316E-04 -7.956696E-05 +5.011952E-03 -3.755497E-05 -2.911316E-04 -3.755497E-05 +6.295163E-06 
 -1.054669E-04 -4.210607E-05 -3.957570E-04 -4.210607E-05 +5.040635E-03 -2.473869E-05 -3.957570E-04 -2.473869E-05 -7.569839E-05 
 -7.968558E-05 -4.511010E-05 -1.859151E-04 -4.511010E-05 +4.923518E-03 -7.817343E-05 -1.859151E-04 -7.817343E-05 -5.656361E-05 
 +3.732612E-04 -1.746218E-04 +8.613275E-05 -1.746218E-04 +4.656696E-03 -1.076759E-04 +8.613275E-05 -1.076759E-04 +7.179722E-05 
 +2.887451E-04 -1.154393E-04 +5.367528E-05 -1.154393E-04 +4.727022E-03 -4.194490E-05 +5.367528E-05 -4.194490E-05 +2.821132E-05 
 +7.854824E-07 -5.663004E-05 +1.818702E-04 -5.663004E-05 +4.981131E-03 -5.381686E-05 +1.818702E-04 -5.381686E-05 +2.196983E-05 
 -1.254155E-04 -3.233975E-05 +1.704622E-04 -3.233975E-05 +5.199170E-03 +2.174166E-05 +1.704622E-04 +2.174166E-05 +4.553508E-05 
 -1.413672E-04 +1.442961E-05 +2.039390E-04 +1.442961E-05 +5.188861E-03 +9.848977E-05 +2.039390E-04 +9.848977E-05 +7.010734E-05 
 +3.403338E-05 +3.006098E-05 +2.972966E-04 +3.006098E-05 +5.091242E-03 +6.020725E-05 +2.972966E-04 +6.020725E-05 +4.268844E-05 
 +1.042098E-04 +3.464500E-05 +3.167538E-04 +3.464500E-05 +5.070207E-03 +1.698920E-05 +3.167538E-04 +1.698920E-05 +6.548109E-05 
 +1.384518E-04 +1.505408E-05 +2.876480E-04 +1.505408E-05 +5.080853E-03 -2.588654E-05 +2.876480E-04 -2.588654E-05 +1.000056E-04 
 +1.367083E-04 +3.448287E-05 +3.127300E-04 +3.448287E-05 +5.093696E-03 -5.399504E-05 +3.127300E-04 -5.399504E-05 -3.393643E-05 
 +3.470732E-05 +7.533642E-05 +4.609568E-04 +7.533642E-05 +5.117804E-03 -1.609605E-04 +4.609568E-04 -1.609605E-04 -2.252993E-04 
 -6.749836E-05 +7.460622E-05 +1.261033E-04 +7.460622E-05 +5.118500E-03 -2.129307E-04 +1.261033E-04 -2.129307E-04 -2.632390E-04 
 -1.146676E-04 +4.561326E-06 +1.745143E-05 +4.561326E-06 +5.103296E-03 -5.321800E-05 +1.745143E-05 -5.321800E-05 -1.496329E-04 
 -1.931278E-04 -5.411467E-05 -3.556525E-05 -5.411467E-05 +5.078558E-03 +1.150412E-04 -3.556525E-05 +1.150412E-04 -5.921606E-05 
 -2.389833E-04 -1.702476E-04 +4.088828E-05 -1.702476E-04 +5.090235E-03 +1.613653E-04 +4.088828E-05 +1.613653E-04 -3.762475E-06 
 -1.367906E-04 -1.635580E-04 -1.692644E-04 -1.635580E-04 +5.085455E-03 +1.488657E-04 -1.692644E-04 +1.488657E-04 +5.060845E-05 
 +2.945529E-07 -1.163649E-04 -9.465189E-05 -1.163649E-04 +5.008543E-03 +1.040602E-04 -9.465189E-05 +1.040602E-04 +6.520790E-05 
 +1.348155E-05 -2.109494E-05 -2.229045E-04 -2.109494E-05 +4.936704E-03 +4.801730E-05 -2.229045E-04 +4.801730E-05 +7.859452E-05 
 +1.620728E-05 +1.492710E-05 -1.883442E-04 +1.492710E-05 +4.912981E-03 +1.699385E-05 -1.883442E-04 +1.699385E-05 +1.055214E-04 
 -8.681242E-05 +7.342864E-06 -2.656110E-04 +7.342864E-06 +4.944902E-03 -2.301063E-05 -2.656110E-04 -2.301063E-05 +7.506740E-05 
 -6.258489E-05 +6.437849E-05 -2.843296E-04 +6.437849E-05 +4.923089E-03 -1.047520E-05 -2.843296E-04 -1.047520E-05 +2.248929E-05 
 +2.635041E-05 +1.464885E-05 -1.976946E-04 +1.464885E-05 +4.779521E-03 -9.307568E-05 -1.976946E-04 -9.307568E-05 +8.154956E-05 
 +4.148922E-04 -5.571726E-05 +4.087527E-05 -5.571726E-05 +4.740833E-03 -4.702442E-05 +4.087527E-05 -4.702442E-05 +1.069300E-04 
 +3.403901E-04 -7.482810E-05 +3.295087E-05 -7.482810E-05 +4.802645E-03 -5.392924E-06 +3.295087E-05 -5.392924E-06 +2.174499E-06 
 +6.738854E-05 -7.820826E-05 +1.051274E-04 -7.820826E-05 +5.116434E-03 -3.491892E-05 +1.051274E-04 -3.491892E-05 -1.748954E-05 
 -9.357659E-05 -7.211714E-05 +1.766507E-04 -7.211714E-05 +5.286098E-03 -4.916472E-05 +1.766507E-04 -4.916472E-05 -3.145641E-05 
 -1.466207E-04 -8.489075E-06 +1.732459E-04 -8.489075E-06 +5.252211E-03 +1.064162E-06 +1.732459E-04 +1.064162E-06 +8.528235E-05 
 -9.998705E-05 +4.060487E-05 +6.885658E-05 +4.060487E-05 +5.153587E-03 +3.020930E-05 +6.885658E-05 +3.020930E-05 +2.002414E-04 
 +6.030898E-05 +2.718474E-05 +7.892046E-05 +2.718474E-05 +5.055883E-03 +1.118809E-05 +7.892046E-05 +1.118809E-05 +2.785014E-04 
 +2.997899E-04 -1.927112E-05 -3.767855E-04 -1.927112E-05 +5.009577E-03 -5.798642E-05 -3.767855E-04 -5.798642E-05 +1.096302E-04 
 +1.820166E-04 +2.349869E-05 -3.221401E-04 +2.349869E-05 +5.017066E-03 -1.311358E-04 -3.221401E-04 -1.311358E-04 -7.336114E-05 
 +4.120923E-08 +6.254516E-05 -1.196146E-04 +6.254516E-05 +5.053596E-03 -1.593974E-04 -1.196146E-04 -1.593974E-04 -8.347330E-05 
 -1.165482E-04 +5.169277E-05 +1.771933E-04 +5.169277E-05 +5.117700E-03 -1.363192E-04 +1.771933E-04 -1.363192E-04 -1.911053E-04 
 -1.387628E-04 +1.175279E-05 +1.866121E-04 +1.175279E-05 +5.172098E-03 -6.645069E-05 +1.866121E-04 -6.645069E-05 -1.673832E-04 
 -1.879391E-04 -2.364617E-05 +1.178079E-04 -2.364617E-05 +5.238923E-03 +8.932092E-05 +1.178079E-04 +8.932092E-05 -1.731609E-04 
 -2.809202E-04 -1.079074E-04 +1.428834E-04 -1.079074E-04 +5.299630E-03 +1.994866E-04 +1.428834E-04 +1.994866E-04 -1.454212E-04 
 -1.862849E-04 -1.277931E-04 -9.422880E-05 -1.277931E-04 +5.213287E-03 +1.562006E-04 -9.422880E-05 +1.562006E-04 -2.710600E-05 
 -7.833296E-05 -6.578923E-05 +1.700781E-05 -6.578923E-05 +5.065784E-03 +1.031752E-04 +1.700781E-05 +1.031752E-04 +4.125287E-05 
 -5.070760E-05 +2.019452E-05 -1.012234E-04 +2.019452E-05 +4.992269E-03 +6.374640E-05 -1.012234E-04 +6.374640E-05 +1.016889E-04 
 -4.418134E-05 +6.188505E-05 -9.950703E-05 +6.188505E-05 +4.950745E-03 +1.409202E-05 -9.950703E-05 +1.409202E-05 +9.879651E-05 
 -7.145117E-05 +1.215658E-04 -1.153128E-04 +1.215658E-04 +4.904647E-03 -3.861133E-05 -1.153128E-04 -3.861133E-05 +1.207109E-04 
 -2.492983E-05 +1.402975E-04 -1.808390E-04 +1.402975E-04 +4.806445E-03 -4.855902E-05 -1.808390E-04 -4.855902E-05 +1.068671E-04 
 +1.555048E-04 +1.009030E-04 -1.739646E-04 +1.009030E-04 +4.782298E-03 -6.245658E-05 -1.739646E-04 -6.245658E-05 +1.549184E-04 
 +3.326822E-04 -1.651958E-04 -8.458091E-06 -1.651958E-04 +4.809348E-03 +3.267864E-05 -8.458091E-06 +3.267864E-05 +1.194465E-04 
 +8.830793E-05 -2.989369E-05 +3.574834E-05 -2.989369E-05 +5.084804E-03 -2.158598E-05 +3.574834E-05 -2.158598E-05 -2.491176E-06 
 +1.676129E-05 -1.898530E-06 +1.656352E-05 -1.898530E-06 +5.249660E-03 -7.460492E-05 +1.656352E-05 -7.460492E-05 -1.607888E-05 
 -5.301863E-07 +1.527681E-05 +5.428379E-05 +1.527681E-05 +5.248003E-03 -8.269288E-05 +5.428379E-05 -8.269288E-05 -3.292571E-05 
 -5.227724E-05 +4.260753E-05 +1.976785E-05 +4.260753E-05 +5.245223E-03 -4.768296E-05 +1.976785E-05 -4.768296E-05 +2.449431E-05 
 -1.022686E-04 +6.899478E-05 -7.794489E-05 +6.899478E-05 +5.218964E-03 -5.054598E-05 -7.794489E-05 -5.054598E-05 +1.025830E-04 
 -7.433605E-05 +7.480911E-05 -1.331676E-04 +7.480911E-05 +5.139865E-03 -1.050122E-04 -1.331676E-04 -1.050122E-04 +2.136868E-04 
 +2.311740E-04 +2.428786E-05 -5.221913E-04 +2.428786E-05 +5.028848E-03 -1.000098E-04 -5.221913E-04 -1.000098E-04 +1.183646E-04 
 +1.441109E-04 -3.174970E-05 -3.351677E-04 -3.174970E-05 +4.989537E-03 -2.314583E-05 -3.351677E-04 -2.314583E-05 -5.243742E-05 
 -1.963707E-05 -4.105500E-05 -9.920768E-05 -4.105500E-05 +5.044268E-03 -7.841778E-05 -9.920768E-05 -7.841778E-05 -1.074460E-04 
 -1.192974E-04 -3.165107E-05 +2.859590E-04 -3.165107E-05 +5.141705E-03 -8.638379E-05 +2.859590E-04 -8.638379E-05 -1.875323E-04 
 -1.408191E-04 -5.776986E-05 +2.124371E-04 -5.776986E-05 +5.205104E-03 -4.903063E-06 +2.124371E-04 -4.903063E-06 -1.654232E-04 
 -1.735306E-04 -4.493067E-05 +2.333214E-04 -4.493067E-05 +5.216381E-03 +3.925381E-05 +2.333214E-04 +3.925381E-05 -1.167286E-04 
 +2.673644E-05 -1.001589E-04 +8.835396E-05 -1.001589E-04 +5.161509E-03 +1.786152E-05 +8.835396E-05 +1.786152E-05 -6.460079E-05 
 +7.618911E-05 -7.888914E-05 -2.422957E-05 -7.888914E-05 +5.070019E-03 +5.812576E-05 -2.422957E-05 +5.812576E-05 -2.564816E-05 
 -7.847013E-05 -1.883364E-05 +4.385669E-05 -1.883364E-05 +5.032744E-03 +1.264483E-04 +4.385669E-05 +1.264483E-04 +4.698062E-05 
 -1.020002E-04 -6.430185E-06 -2.647487E-05 -6.430185E-06 +4.985163E-03 +8.837653E-05 -2.647487E-05 +8.837653E-05 +1.267503E-04 
 -5.841253E-05 +3.433630E-05 -8.306174E-05 +3.433630E-05 +4.889711E-03 +5.014004E-05 -8.306174E-05 +5.014004E-05 +1.745595E-04 
 -3.920043E-05 +9.283839E-05 -1.273343E-04 +9.283839E-05 +4.806812E-03 +3.086993E-05 -1.273343E-04 +3.086993E-05 +2.141491E-04 
 +1.151423E-05 +6.868248E-05 -1.741087E-04 +6.868248E-05 +4.796641E-03 +2.064846E-05 -1.741087E-04 +2.064846E-05 +2.074965E-04 
 +3.338493E-05 +2.483255E-05 -1.951350E-04 +2.483255E-05 +4.765328E-03 +4.402258E-05 -1.951350E-04 +4.402258E-05 +2.186671E-04 
 +8.854111E-05 -9.065683E-05 -3.453151E-05 -9.065683E-05 +5.084567E-03 +2.951776E-06 -3.453151E-05 +2.951776E-06 +5.127055E-05 
 +7.301750E-06 +6.762116E-06 -4.541630E-05 +6.762116E-06 +5.199295E-03 -5.530285E-05 -4.541630E-05 -5.530285E-05 -2.031737E-05 
 +8.180811E-05 -9.768373E-06 -1.344137E-04 -9.768373E-06 +5.194074E-03 -7.695923E-05 -1.344137E-04 -7.695923E-05 -1.038815E-06 
 +7.607842E-05 -1.747076E-05 -7.594741E-05 -1.747076E-05 +5.226136E-03 -6.876035E-05 -7.594741E-05 -6.876035E-05 -6.456988E-05 
 -2.013421E-05 -3.606604E-05 -2.043538E-04 -3.606604E-05 +5.251312E-03 -1.008472E-04 -2.043538E-04 -1.008472E-04 -6.922896E-05 
 -7.277821E-05 -2.967783E-05 -2.840348E-04 -2.967783E-05 +5.247403E-03 -1.908931E-04 -2.840348E-04 -1.908931E-04 +3.278263E-05 
 -7.763363E-05 -1.270616E-05 -3.686471E-04 -1.270616E-05 +5.190971E-03 -2.451665E-04 -3.686471E-04 -2.451665E-04 +1.183750E-04 
 +4.212085E-05 -1.677502E-05 -4.468775E-04 -1.677502E-05 +5.118535E-03 -1.613737E-04 -4.468775E-04 -1.613737E-04 +6.672210E-05 
 -2.805464E-05 -3.330402E-05 -2.979256E-04 -3.330402E-05 +5.058880E-03 +1.642485E-05 -2.979256E-04 +1.642485E-05 -7.859756E-05 
 -8.510346E-05 -1.894941E-05 -3.431673E-04 -1.894941E-05 +5.048908E-03 +3.350102E-05 -3.431673E-04 +3.350102E-05 -1.236339E-04 
 -4.476568E-05 +5.383751E-06 +1.915647E-04 +5.383751E-06 +5.095475E-03 -5.259237E-05 +1.915647E-04 -5.259237E-05 -1.003600E-04 
 -9.386272E-05 -1.122332E-06 +1.454615E-04 -1.122332E-06 +5.199272E-03 -6.867106E-05 +1.454615E-04 -6.867106E-05 -1.273165E-04 
 -6.733555E-05 -8.766737E-05 +1.905516E-04 -8.766737E-05 +5.092363E-03 -4.307952E-05 +1.905516E-04 -4.307952E-05 -4.054522E-05 
 +2.609205E-04 -2.222812E-04 -1.387521E-05 -2.222812E-04 +4.761691E-03 -1.232096E-07 -1.387521E-05 -1.232096E-07 +9.084672E-05 
 +2.829917E-04 -2.033019E-04 +1.827759E-05 -2.033019E-04 +4.739207E-03 +5.126089E-05 +1.827759E-05 +5.126089E-05 +5.546757E-05 
 -1.645510E-06 -8.338598E-05 +3.818390E-05 -8.338598E-05 +4.970831E-03 +7.596981E-05 +3.818390E-05 +7.596981E-05 +8.029734E-05 
 -9.410918E-05 -5.211627E-05 +6.339504E-05 -5.211627E-05 +4.997985E-03 +9.227565E-05 +6.339504E-05 +9.227565E-05 +1.570177E-04 
 -1.150369E-04 +1.996740E-05 -4.966827E-05 +1.996740E-05 +4.887372E-03 +7.172454E-05 -4.966827E-05 +7.172454E-05 +2.153298E-04 
 -9.358670E-05 +3.992831E-05 -1.107861E-04 +3.992831E-05 +4.849874E-03 +2.531393E-05 -1.107861E-04 +2.531393E-05 +2.385930E-04 
 -6.048549E-05 -1.888720E-06 -1.376246E-04 -1.888720E-06 +4.842575E-03 +7.696486E-06 -1.376246E-04 +7.696486E-06 +2.304036E-04 
 +1.482743E-05 -3.676013E-05 -2.962506E-05 -3.676013E-05 +4.891412E-03 +2.472076E-05 -2.962506E-05 +2.472076E-05 +1.684386E-04 
 -6.168676E-05 -9.222944E-05 -1.004841E-04 -9.222944E-05 +5.117606E-03 -1.094063E-04 -1.004841E-04 -1.094063E-04 -1.078815E-05 
 -3.556923E-05 -5.789575E-05 -2.225449E-04 -5.789575E-05 +5.230902E-03 -4.186181E-05 -2.225449E-04 -4.186181E-05 -6.097334E-05 
 +6.366676E-05 -1.189134E-04 -2.369141E-04 -1.189134E-04 +5.227683E-03 -3.191927E-05 -2.369141E-04 -3.191927E-05 -2.964416E-05 
 +9.173498E-05 -1.606129E-04 -1.515902E-04 -1.606129E-04 +5.209776E-03 -6.911114E-05 -1.515902E-04 -6.911114E-05 -8.648988E-05 
 +3.195835E-05 -1.630939E-04 -2.877820E-04 -1.630939E-04 +5.214565E-03 -1.473223E-04 -2.877820E-04 -1.473223E-04 -6.551166E-05 
 +2.081025E-05 -1.556038E-04 -3.293551E-04 -1.556038E-04 +5.160619E-03 -2.100240E-04 -3.293551E-04 -2.100240E-04 +6.047363E-05 
 -4.458510E-07 -1.062728E-04 -4.122251E-04 -1.062728E-04 +5.085201E-03 -2.400500E-04 -4.122251E-04 -2.400500E-04 +1.656030E-04 
 -9.778362E-05 -7.330872E-05 -3.000672E-04 -7.330872E-05 +5.053430E-03 -1.960723E-04 -3.000672E-04 -1.960723E-04 +1.689458E-04 
 -1.619253E-04 -3.751927E-05 -3.393891E-04 -3.751927E-05 +5.057912E-03 -1.302863E-04 -3.393891E-04 -1.302863E-04 +3.322369E-05 
 -1.951747E-04 -5.461174E-05 -4.651579E-04 -5.461174E-05 +4.955972E-03 +8.645584E-05 -4.651579E-04 +8.645584E-05 -1.391924E-05 
 -5.099428E-05 -7.031122E-05 -4.583263E-05 -7.031122E-05 +4.764109E-03 +2.162375E-04 -4.583263E-05 +2.162375E-04 +5.652920E-05 
 +5.661706E-05 -1.711152E-05 +9.890586E-06 -1.711152E-05 +4.702861E-03 +1.133865E-04 +9.890586E-06 +1.133865E-04 +6.462223E-05 
 +1.780267E-04 -1.830829E-04 +4.733449E-05 -1.830829E-04 +4.650690E-03 +2.137838E-05 +4.733449E-05 +2.137838E-05 +6.547638E-05 
 +2.300090E-04 -2.195875E-04 -4.053616E-06 -2.195875E-04 +4.675185E-03 +8.855663E-06 -4.053616E-06 +8.855663E-06 +1.101637E-04 
 +2.473960E-04 -2.258377E-04 +4.815041E-05 -2.258377E-04 +4.735769E-03 +5.622429E-05 +4.815041E-05 +5.622429E-05 +9.449632E-05 
 +1.957541E-04 -2.272229E-04 +4.276890E-05 -2.272229E-04 +4.685364E-03 +8.898946E-05 +4.276890E-05 +8.898946E-05 +1.038790E-04 
 +9.315728E-05 -2.329027E-04 +7.229474E-05 -2.329027E-04 +4.717066E-03 +1.207111E-04 +7.229474E-05 +1.207111E-04 +1.508500E-04 
 -1.859663E-04 -5.350185E-05 -4.906643E-05 -5.350185E-05 +4.848294E-03 +5.954103E-05 -4.906643E-05 +5.954103E-05 +1.943533E-04 
 -1.830574E-04 -1.622569E-05 -6.355107E-05 -1.622569E-05 +4.939902E-03 -1.503811E-05 -6.355107E-05 -1.503811E-05 +2.126330E-04 
 -1.822904E-04 -6.606141E-05 -1.246885E-04 -6.606141E-05 +4.938773E-03 -7.048552E-05 -1.246885E-04 -7.048552E-05 +1.894743E-04 
 -5.421054E-05 -1.130675E-04 +1.701712E-06 -1.130675E-04 +4.974054E-03 -1.405164E-04 +1.701712E-06 -1.405164E-04 +1.008291E-04 
 -1.098711E-04 -7.575453E-05 -1.522709E-04 -7.575453E-05 +5.079822E-03 -1.904063E-04 -1.522709E-04 -1.904063E-04 -4.779148E-08 
 +1.020139E-05 -2.672988E-05 -3.540745E-04 -2.672988E-05 +5.162307E-03 -1.444711E-04 -3.540745E-04 -1.444711E-04 -3.838112E-05 
 +4.565449E-05 -4.048786E-05 -2.836620E-04 -4.048786E-05 +5.227107E-03 -9.258628E-05 -2.836620E-04 -9.258628E-05 -4.254217E-05 
 +1.078275E-04 -3.929814E-05 -2.346176E-04 -3.929814E-05 +5.217950E-03 -1.028712E-04 -2.346176E-04 -1.028712E-04 -7.630780E-05 
 +1.534330E-04 -3.599441E-05 -2.287223E-04 -3.599441E-05 +5.161459E-03 -1.099626E-04 -2.287223E-04 -1.099626E-04 -6.371300E-05 
 +1.211509E-04 -5.647699E-05 -3.496835E-04 -5.647699E-05 +5.095586E-03 -1.456519E-04 -3.496835E-04 -1.456519E-04 +6.103831E-05 
 +3.479693E-05 -3.668185E-05 -2.971635E-04 -3.668185E-05 +5.036170E-03 -1.546964E-04 -2.971635E-04 -1.546964E-04 +2.045917E-04 
 -2.058206E-04 -8.458176E-06 -2.004428E-04 -8.458176E-06 +5.020903E-03 -8.544125E-05 -2.004428E-04 -8.544125E-05 +2.510618E-04 
 -2.465411E-04 +7.696089E-06 -3.386014E-04 +7.696089E-06 +4.979148E-03 -8.880929E-05 -3.386014E-04 -8.880929E-05 +2.021411E-04 
 -2.207728E-04 -2.045679E-05 -3.665944E-04 -2.045679E-05 +4.865991E-03 -9.445486E-05 -3.665944E-04 -9.445486E-05 +1.872781E-04 
 -1.692308E-04 +1.338419E-05 -1.533590E-04 +1.338419E-05 +4.703865E-03 -3.538798E-05 -1.533590E-04 -3.538798E-05 +2.499506E-04 
 +1.331603E-04 +4.354664E-05 -2.131579E-05 +4.354664E-05 +4.529051E-03 +9.166248E-05 -2.131579E-05 +9.166248E-05 +2.287509E-04 
 +3.308933E-04 -2.550983E-04 +6.709861E-06 -2.550983E-04 +4.548228E-03 +1.300352E-04 +6.709861E-06 +1.300352E-04 +1.190239E-04 
 +2.459987E-04 -2.578639E-04 +1.635610E-05 -2.578639E-04 +4.689359E-03 +1.114157E-04 +1.635610E-05 +1.114157E-04 +9.489777E-05 
 +2.015683E-04 -2.241486E-04 +4.779533E-05 -2.241486E-04 +4.752262E-03 +9.577413E-05 +4.779533E-05 +9.577413E-05 +9.226210E-05 
 +2.572226E-04 -1.944970E-04 +9.191166E-05 -1.944970E-04 +4.741490E-03 +4.645604E-05 +9.191166E-05 +4.645604E-05 +4.635645E-05 
 +2.396510E-04 -2.347528E-04 +4.264873E-05 -2.347528E-04 +4.770323E-03 +3.369587E-05 +4.264873E-05 +3.369587E-05 +3.814452E-05 
 -1.908931E-04 -9.143079E-05 -1.191045E-04 -9.143079E-05 +4.888842E-03 -1.693703E-05 -1.191045E-04 -1.693703E-05 +1.110309E-04 
 -2.375240E-04 -1.080512E-04 -6.721004E-05 -1.080512E-04 +4.956652E-03 -1.151305E-04 -6.721004E-05 -1.151305E-04 +1.786643E-04 
 -2.641331E-04 -1.210756E-04 -1.403850E-04 -1.210756E-04 +4.988205E-03 -1.503112E-04 -1.403850E-04 -1.503112E-04 +1.402017E-04 
 -2.368214E-04 -1.105868E-04 -1.187563E-04 -1.105868E-04 +5.037800E-03 -1.791891E-04 -1.187563E-04 -1.791891E-04 +7.297819E-05 
 -1.594187E-04 +2.339626E-05 -1.893457E-04 +2.339626E-05 +5.061388E-03 -2.230835E-04 -1.893457E-04 -2.230835E-04 +1.010313E-05 
 +1.125380E-04 +9.260376E-05 -3.289079E-04 +9.260376E-05 +4.986526E-03 -2.542798E-04 -3.289079E-04 -2.542798E-04 +2.040106E-05 
 +1.226283E-04 +6.465278E-05 -2.764660E-04 +6.465278E-05 +4.992660E-03 -1.961534E-04 -2.764660E-04 -1.961534E-04 +1.600105E-05 
 +1.565983E-04 +4.612826E-05 -2.975191E-04 +4.612826E-05 +4.994646E-03 -2.191905E-04 -2.975191E-04 -2.191905E-04 -3.109900E-05 
 +2.663501E-04 +5.455659E-05 -2.118043E-04 +5.455659E-05 +4.985053E-03 -2.506043E-04 -2.118043E-04 -2.506043E-04 -9.668531E-05 
 +2.498783E-04 +3.808208E-05 -3.227981E-04 +3.808208E-05 +4.982958E-03 -1.776090E-04 -3.227981E-04 -1.776090E-04 -2.739136E-06 
 -8.360251E-05 +5.319841E-05 -1.645738E-04 +5.319841E-05 +4.978508E-03 -5.488559E-05 -1.645738E-04 -5.488559E-05 +2.087026E-04 
 -2.835395E-04 +8.790423E-05 -2.366990E-04 +8.790423E-05 +5.025748E-03 +3.070573E-05 -2.366990E-04 +3.070573E-05 +2.335846E-04 
 -2.673558E-04 +6.969730E-05 -2.752142E-04 +6.969730E-05 +5.014421E-03 +2.050211E-05 -2.752142E-04 +2.050211E-05 +2.637906E-04 
 -1.912735E-04 +3.375444E-05 -2.939801E-04 +3.375444E-05 +4.893607E-03 -6.014426E-05 -2.939801E-04 -6.014426E-05 +3.131940E-04 
 -2.002702E-04 +7.807632E-05 -1.777185E-04 +7.807632E-05 +4.781805E-03 -6.712102E-05 -1.777185E-04 -6.712102E-05 +3.401551E-04 
 -1.104637E-04 +8.558880E-05 -1.851800E-05 +8.558880E-05 +4.684182E-03 +3.400429E-05 -1.851800E-05 +3.400429E-05 +2.997586E-04 
 +3.678299E-04 -1.501044E-04 +4.797199E-05 -1.501044E-04 +4.627744E-03 +8.609231E-05 +4.797199E-05 +8.609231E-05 +1.865909E-04 
 +2.942426E-04 -1.683505E-04 +1.121532E-05 -1.683505E-04 +4.667616E-03 +5.481063E-05 +1.121532E-05 +5.481063E-05 +1.531546E-04 
 +2.704690E-04 -2.297528E-04 +1.159779E-05 -2.297528E-04 +4.690803E-03 +2.868332E-05 +1.159779E-05 +2.868332E-05 +9.276619E-05 
 +2.792905E-04 -1.878180E-04 +1.162878E-04 -1.878180E-04 +4.726306E-03 +2.239629E-05 +1.162878E-04 +2.239629E-05 -3.254776E-05 
 +2.125721E-04 -1.784712E-04 +5.704565E-05 -1.784712E-04 +4.854850E-03 +2.285073E-08 +5.704565E-05 +2.285073E-08 -8.992913E-05 
 -1.362676E-04 -2.352560E-05 -1.182043E-04 -2.352560E-05 +5.012673E-03 -6.548743E-05 -1.182043E-04 -6.548743E-05 -2.616199E-05 
 -2.390971E-04 -1.002255E-04 -8.537430E-05 -1.002255E-04 +5.036203E-03 -1.076445E-04 -8.537430E-05 -1.076445E-04 +8.098577E-05 
 -3.286006E-04 -4.759420E-05 -1.659282E-04 -4.759420E-05 +5.019238E-03 -1.289383E-04 -1.659282E-04 -1.289383E-04 +1.155918E-04 
 -3.325509E-04 -3.242613E-05 -1.977266E-04 -3.242613E-05 +5.084587E-03 -1.469640E-04 -1.977266E-04 -1.469640E-04 +9.747437E-05 
 -2.272611E-04 +8.616022E-06 -1.144517E-04 +8.616022E-06 +5.106216E-03 -1.690617E-04 -1.144517E-04 -1.690617E-04 +1.994284E-05 
 +1.152461E-04 +1.978377E-05 -2.617800E-04 +1.978377E-05 +5.019171E-03 -1.804964E-04 -2.617800E-04 -1.804964E-04 +3.718634E-05 
 +2.098964E-04 +1.153625E-06 -3.298484E-04 +1.153625E-06 +4.909662E-03 -2.087639E-04 -3.298484E-04 -2.087639E-04 +9.207519E-05 
 +2.329714E-04 -3.365648E-05 -3.440997E-04 -3.365648E-05 +4.852119E-03 -2.932019E-04 -3.440997E-04 -2.932019E-04 +6.051873E-05 
 +4.069675E-04 +3.196439E-05 -1.957917E-04 +3.196439E-05 +4.824513E-03 -3.211717E-04 -1.957917E-04 -3.211717E-04 -8.488012E-05 
 +4.081541E-04 +5.399893E-05 -1.122700E-04 +5.399893E-05 +4.888400E-03 -1.359032E-04 -1.122700E-04 -1.359032E-04 -6.979107E-05 
 -2.899809E-04 +6.069300E-05 -1.161320E-04 +6.069300E-05 +5.010465E-03 -1.294436E-05 -1.161320E-04 -1.294436E-05 +2.304189E-04 
 -3.254708E-04 +7.205644E-05 -2.132441E-04 +7.205644E-05 +5.035709E-03 +1.855527E-05 -2.132441E-04 +1.855527E-05 +3.049028E-04 
 -2.142974E-04 +1.108188E-05 -2.437925E-04 +1.108188E-05 +4.959223E-03 +7.708412E-05 -2.437925E-04 +7.708412E-05 +3.150657E-04 
 -1.708546E-04 +2.056166E-05 -2.160499E-04 +2.056166E-05 +4.919694E-03 +4.131571E-05 -2.160499E-04 +4.131571E-05 +3.560861E-04 
 -1.988631E-04 +5.901250E-05 -2.083618E-04 +5.901250E-05 +4.907448E-03 -3.477563E-05 -2.083618E-04 -3.477563E-05 +3.525124E-04 
 -2.802639E-04 +8.717831E-05 -1.182457E-04 +8.717831E-05 +4.755150E-03 +9.169280E-06 -1.182457E-04 +9.169280E-06 +3.704435E-04 
 +2.003054E-04 -6.512962E-05 -1.076676E-06 -6.512962E-05 +4.639479E-03 +1.833146E-04 -1.076676E-06 +1.833146E-04 +2.843027E-04 
 +2.882854E-04 -1.904016E-04 -3.299659E-05 -1.904016E-04 +4.646107E-03 +1.713062E-04 -3.299659E-05 +1.713062E-04 +9.581159E-05 
 +2.591918E-04 -2.798463E-04 -9.211121E-06 -2.798463E-04 +4.665964E-03 +6.192970E-05 -9.211121E-06 +6.192970E-05 -4.142735E-05 
 +2.808088E-04 -2.128992E-04 +4.664663E-05 -2.128992E-04 +4.798192E-03 -3.680736E-05 +4.664663E-05 -3.680736E-05 -1.507734E-04 
 +1.949470E-04 -1.932687E-04 +7.663330E-05 -1.932687E-04 +5.010898E-03 -1.019580E-04 +7.663330E-05 -1.019580E-04 -2.262342E-04 
 -3.749139E-05 -9.552481E-05 -3.716411E-05 -9.552481E-05 +5.061449E-03 -3.473309E-05 -3.716411E-05 -3.473309E-05 -1.762344E-04 
 -8.700987E-05 -1.574827E-04 -1.931148E-05 -1.574827E-04 +4.998026E-03 -6.702979E-05 -1.931148E-05 -6.702979E-05 -4.919776E-05 
 -4.025935E-04 +3.557722E-05 -7.258952E-05 +3.557722E-05 +5.031460E-03 -1.649416E-04 -7.258952E-05 -1.649416E-04 +1.032284E-04 
 -3.627401E-04 +4.913990E-05 -8.874452E-05 +4.913990E-05 +5.100414E-03 -1.728337E-04 -8.874452E-05 -1.728337E-04 +1.483682E-04 
 -1.906475E-04 -4.151625E-05 +1.338644E-06 -4.151625E-05 +5.194144E-03 -3.976624E-05 +1.338644E-06 -3.976624E-05 +9.543691E-05 
 +1.266031E-04 -1.252787E-05 -1.923180E-04 -1.252787E-05 +5.057094E-03 -1.215755E-04 -1.923180E-04 -1.215755E-04 +6.137011E-05 
 +2.488941E-04 +3.527915E-05 -3.377679E-04 +3.527915E-05 +4.881606E-03 -2.526066E-04 -3.377679E-04 -2.526066E-04 +8.330130E-05 
 +3.056701E-04 +5.572474E-06 -2.766350E-04 +5.572474E-06 +4.827095E-03 -2.563450E-04 -2.766350E-04 -2.563450E-04 +1.875149E-06 
 +4.962525E-04 +1.751314E-05 -5.384560E-05 +1.751314E-05 +4.815933E-03 -9.181317E-05 -5.384560E-05 -9.181317E-05 -1.670488E-04 
 +4.665818E-04 +3.051193E-05 +7.100716E-06 +3.051193E-05 +4.886420E-03 +3.410538E-05 +7.100716E-06 +3.410538E-05 -7.993257E-05 
 -3.952429E-04 +2.708827E-05 -1.399511E-04 +2.708827E-05 +5.014562E-03 +3.602827E-05 -1.399511E-04 +3.602827E-05 +2.669448E-04 
 -3.523343E-04 +4.269519E-06 -1.360894E-04 +4.269519E-06 +5.015024E-03 +4.596079E-05 -1.360894E-04 +4.596079E-05 +3.770515E-04 
 -1.593590E-04 -5.878039E-05 -1.846387E-04 -5.878039E-05 +4.939728E-03 +6.559838E-05 -1.846387E-04 +6.559838E-05 +3.640405E-04 
 -1.427108E-04 -2.890785E-05 -1.684035E-04 -2.890785E-05 +4.915480E-03 +5.630676E-05 -1.684035E-04 +5.630676E-05 +3.768296E-04 
 -1.523285E-04 +2.466507E-05 -1.810176E-04 +2.466507E-05 +4.915414E-03 +8.865016E-06 -1.810176E-04 +8.865016E-06 +3.640779E-04 
 -2.817334E-04 +4.392820E-05 -1.847901E-04 +4.392820E-05 +4.957002E-03 +1.321819E-05 -1.847901E-04 +1.321819E-05 +3.556736E-04 
 -1.044065E-04 -3.849834E-06 -6.081768E-05 -3.849834E-06 +5.038904E-03 +1.517614E-04 -6.081768E-05 +1.517614E-04 +2.794661E-04 
 +2.893704E-04 -1.102068E-04 -1.103566E-04 -1.102068E-04 +5.078490E-03 +1.320377E-04 -1.103566E-04 +1.320377E-04 -1.403722E-05 
 +2.207377E-04 -1.304233E-04 -5.551082E-05 -1.304233E-04 +5.164733E-03 -3.918252E-06 -5.551082E-05 -3.918252E-06 -2.328042E-04 
 +1.691735E-04 -1.226338E-04 -1.030437E-04 -1.226338E-04 +5.188509E-03 -6.537855E-05 -1.030437E-04 -6.537855E-05 -2.778083E-04 
 +1.764793E-04 -1.439289E-04 +2.352557E-05 -1.439289E-04 +5.083048E-03 -1.589331E-04 +2.352557E-05 -1.589331E-04 -2.876571E-04 
 +1.057646E-04 -1.201056E-04 +7.606501E-05 -1.201056E-04 +5.019429E-03 -1.065543E-04 +7.606501E-05 -1.065543E-04 -2.642041E-04 
 +6.837494E-05 -1.518405E-04 +2.214768E-05 -1.518405E-04 +5.054330E-03 -7.655243E-05 +2.214768E-05 -7.655243E-05 -1.553702E-04 
 -4.676729E-04 -1.753828E-05 +1.124204E-04 -1.753828E-05 +5.129271E-03 -1.307121E-04 +1.124204E-04 -1.307121E-04 +1.016331E-04 
 -4.275102E-04 -3.046078E-05 +9.869494E-05 -3.046078E-05 +5.171370E-03 -6.955209E-05 +9.869494E-05 -6.955209E-05 +2.134722E-04 
 +6.245197E-05 +9.705491E-05 -9.602739E-06 +9.705491E-05 +4.855433E-03 -1.813632E-04 -9.602739E-06 -1.813632E-04 +1.471283E-04 
 +1.281977E-04 +9.330329E-05 -9.551195E-05 +9.330329E-05 +4.743693E-03 -2.248524E-04 -9.551195E-05 -2.248524E-04 +8.446744E-05 
 +1.415093E-04 +1.197060E-04 -2.323575E-04 +1.197060E-04 +4.740851E-03 -2.177755E-04 -2.323575E-04 -2.177755E-04 +7.979842E-05 
 +3.021990E-04 +4.118968E-05 -9.505611E-05 +4.118968E-05 +4.825338E-03 -1.040810E-04 -9.505611E-05 -1.040810E-04 -2.006942E-05 
 +4.115897E-04 -4.697911E-05 +3.110388E-05 -4.697911E-05 +4.870811E-03 +6.175499E-06 +3.110388E-05 +6.175499E-06 -1.719777E-04 
 +3.941916E-04 -2.737540E-05 -5.776860E-05 -2.737540E-05 +4.903870E-03 +3.097411E-05 -5.776860E-05 +3.097411E-05 +2.373970E-05 
 -2.810219E-04 -8.682035E-06 -1.978116E-04 -8.682035E-06 +4.998606E-03 +3.122902E-05 -1.978116E-04 +3.122902E-05 +3.744971E-04 
 -3.341051E-04 -4.899769E-05 -1.202651E-04 -4.899769E-05 +5.012901E-03 +1.505033E-05 -1.202651E-04 +1.505033E-05 +4.108312E-04 
 -1.984709E-04 -9.460021E-05 -1.335109E-04 -9.460021E-05 +4.992296E-03 +2.668116E-05 -1.335109E-04 +2.668116E-05 +3.511009E-04 
 -1.276596E-04 -1.097080E-04 -1.494849E-04 -1.097080E-04 +4.970400E-03 +2.323765E-05 -1.494849E-04 +2.323765E-05 +3.520746E-04 
 -1.252645E-04 -7.872215E-05 -1.363843E-04 -7.872215E-05 +4.948502E-03 +1.594686E-05 -1.363843E-04 +1.594686E-05 +3.222954E-04 
 -2.388645E-04 -3.889930E-05 -1.451075E-04 -3.889930E-05 +4.999423E-03 +3.941653E-05 -1.451075E-04 +3.941653E-05 +3.389197E-04 
 -1.698024E-04 +2.249513E-05 -9.169467E-05 +2.249513E-05 +5.075288E-03 +6.345787E-05 -9.169467E-05 +6.345787E-05 +2.848624E-04 
 +2.594946E-04 -5.516431E-05 -1.816388E-04 -5.516431E-05 +5.144097E-03 +5.489111E-05 -1.816388E-04 +5.489111E-05 -4.155059E-05 
 +2.259641E-04 -4.831184E-05 -1.056039E-04 -4.831184E-05 +5.173150E-03 +5.772488E-06 -1.056039E-04 +5.772488E-06 -2.852001E-04 
 +9.580820E-05 -3.524413E-05 -1.540028E-04 -3.524413E-05 +5.205003E-03 +2.905333E-06 -1.540028E-04 +2.905333E-06 -2.947547E-04 
 +3.617650E-05 -6.955104E-05 -1.417473E-04 -6.955104E-05 +5.200854E-03 -6.980431E-05 -1.417473E-04 -6.980431E-05 -3.120077E-04 
 +1.031586E-04 -1.812023E-04 +1.842554E-04 -1.812023E-04 +5.099725E-03 -1.334938E-04 +1.842554E-04 -1.334938E-04 -3.216157E-04 
 +8.521941E-05 -2.085212E-04 +1.163124E-04 -2.085212E-04 +5.118062E-03 -4.318015E-05 +1.163124E-04 -4.318015E-05 -2.357356E-04 
 -3.998447E-04 -6.664985E-05 +1.380907E-04 -6.664985E-05 +5.216326E-03 -2.339302E-07 +1.380907E-04 -2.339302E-07 -1.640571E-05 
 -3.710414E-04 -4.870816E-06 +1.467430E-04 -4.870816E-06 +5.090248E-03 -7.739708E-05 +1.467430E-04 -7.739708E-05 +1.619670E-04 
 +1.380942E-04 +1.161084E-04 -4.083550E-05 +1.161084E-04 +4.816927E-03 -2.233761E-04 -4.083550E-05 -2.233761E-04 +1.643748E-05 
 +7.463742E-05 +1.441997E-04 -5.945688E-05 +1.441997E-04 +4.742504E-03 -3.108408E-04 -5.945688E-05 -3.108408E-04 -8.164258E-06 
 +3.214963E-05 +1.581831E-04 -1.506279E-04 +1.581831E-04 +4.709150E-03 -2.927158E-04 -1.506279E-04 -2.927158E-04 +5.105311E-06 
 +1.497452E-04 +1.663378E-04 -6.050654E-05 +1.663378E-04 +4.596373E-03 -1.895802E-04 -6.050654E-05 -1.895802E-04 +1.866003E-05 
 +1.716509E-04 +3.264424E-05 -8.045598E-06 +3.264424E-05 +4.757934E-03 -6.991546E-05 -8.045598E-06 -6.991546E-05 -3.411313E-05 
 +2.054335E-04 -6.959532E-05 -6.995108E-05 -6.959532E-05 +4.916801E-03 +1.187507E-05 -6.995108E-05 +1.187507E-05 +1.015877E-04 
 -1.297373E-04 -1.131242E-04 -1.775865E-04 -1.131242E-04 +4.934879E-03 +9.122890E-05 -1.775865E-04 +9.122890E-05 +3.967746E-04 
 -2.341507E-04 -1.825088E-04 -9.933291E-05 -1.825088E-04 +5.028719E-03 +8.656185E-05 -9.933291E-05 +8.656185E-05 +4.006265E-04 
 -2.224482E-04 -1.830414E-04 -1.005591E-04 -1.830414E-04 +5.084431E-03 +1.301637E-05 -1.005591E-04 +1.301637E-05 +2.703891E-04 
 -1.039456E-04 -1.727145E-04 -1.346768E-04 -1.727145E-04 +5.056953E-03 -1.495341E-05 -1.346768E-04 -1.495341E-05 +2.540626E-04 
 -1.492325E-04 -1.033619E-04 -1.165882E-04 -1.033619E-04 +5.016353E-03 +1.132483E-05 -1.165882E-04 +1.132483E-05 +2.372618E-04 
 -1.091075E-04 +7.769913E-07 -1.279930E-04 +7.769913E-07 +4.996398E-03 -5.274483E-06 -1.279930E-04 -5.274483E-06 +3.364100E-04 
 -1.784835E-05 +1.036074E-04 -7.068111E-05 +1.036074E-04 +5.017200E-03 -5.315181E-05 -7.068111E-05 -5.315181E-05 +3.275984E-04 
 +2.570307E-04 +1.158840E-04 -1.475332E-04 +1.158840E-04 +5.083887E-03 +7.905524E-06 -1.475332E-04 +7.905524E-06 -3.919738E-05 
 +1.928772E-04 +8.568230E-05 -2.054950E-04 +8.568230E-05 +5.166851E-03 +2.544840E-05 -2.054950E-04 +2.544840E-05 -3.074631E-04 
 +6.623800E-05 +5.859657E-05 -2.050232E-04 +5.859657E-05 +5.222377E-03 -3.993384E-05 -2.050232E-04 -3.993384E-05 -2.817564E-04 
 -6.976777E-05 +9.612759E-06 -2.709288E-04 +9.612759E-06 +5.270396E-03 -8.420293E-05 -2.709288E-04 -8.420293E-05 -3.391234E-04 
 -8.528932E-06 +5.871826E-07 +2.575661E-04 +5.871826E-07 +5.346006E-03 -4.896989E-05 +2.575661E-04 -4.896989E-05 -3.333959E-04 
 -1.960341E-05 +2.505346E-06 +2.818088E-04 +2.505346E-06 +5.391213E-03 +6.877854E-05 +2.818088E-04 +6.877854E-05 -3.390563E-04 
 -1.682516E-04 +5.781006E-05 +7.191037E-05 +5.781006E-05 +5.334461E-03 +1.206426E-04 +7.191037E-05 +1.206426E-04 -2.925451E-04 
 -5.535218E-05 +4.052051E-05 +1.002310E-04 +4.052051E-05 +5.127429E-03 -2.233693E-05 +1.002310E-04 -2.233693E-05 -5.937651E-05 
 +5.076570E-05 -8.527171E-05 -2.228220E-05 -8.527171E-05 +5.070357E-03 -2.663555E-05 -2.228220E-05 -2.663555E-05 -1.815338E-04 
 -4.377265E-05 +6.025438E-05 -5.925865E-05 +6.025438E-05 +5.031377E-03 -5.843992E-05 -5.925865E-05 -5.843992E-05 -9.818439E-05 
 +2.838763E-05 -5.460301E-05 -9.288629E-05 -5.460301E-05 +5.004688E-03 -1.233746E-04 -9.288629E-05 -1.233746E-04 -1.257989E-04 
 +3.516000E-05 +1.843839E-06 -8.241247E-05 +1.843839E-06 +4.852838E-03 -1.231809E-04 -8.241247E-05 -1.231809E-04 -8.834382E-06 
 +2.007713E-05 +1.690304E-04 -5.087039E-05 +1.690304E-04 +4.702225E-03 -5.556557E-05 -5.087039E-05 -5.556557E-05 +1.822128E-04 
 +9.599281E-06 +1.019161E-04 -4.854880E-05 +1.019161E-04 +4.699055E-03 -2.664049E-05 -4.854880E-05 -2.664049E-05 +2.252065E-04 
 -6.978284E-05 +8.665124E-05 -1.092406E-04 +8.665124E-05 +4.691469E-03 +1.735934E-05 -1.092406E-04 +1.735934E-05 +3.090996E-04 
 -1.065796E-04 +4.903257E-05 -8.935256E-05 +4.903257E-05 +4.712418E-03 +6.965125E-05 -8.935256E-05 +6.965125E-05 +3.172689E-04 
 -1.071877E-04 +3.167902E-05 -6.851993E-05 +3.167902E-05 +4.803299E-03 +2.535067E-06 -6.851993E-05 +2.535067E-06 +2.170258E-04 
 -1.229096E-04 +3.977100E-05 -1.287944E-04 +3.977100E-05 +4.901345E-03 -8.067636E-05 -1.287944E-04 -8.067636E-05 +1.441002E-04 
 -1.001345E-04 +5.747589E-05 -1.224270E-04 +5.747589E-05 +4.918499E-03 -5.164084E-05 -1.224270E-04 -5.164084E-05 +1.289719E-04 
 -6.295378E-05 +1.144781E-04 -1.336747E-04 +1.144781E-04 +4.809531E-03 +1.178500E-05 -1.336747E-04 +1.178500E-05 +2.357538E-04 
 +1.176946E-04 +1.383756E-04 +8.045483E-07 +1.383756E-04 +4.664022E-03 +7.176320E-05 +8.045483E-07 +7.176320E-05 +3.297009E-04 
 +2.324389E-04 +1.775464E-04 -7.952867E-05 +1.775464E-04 +4.730995E-03 +7.537433E-05 -7.952867E-05 +7.537433E-05 +1.353115E-04 
 +1.792687E-04 +1.525420E-04 -2.479835E-04 +1.525420E-04 +5.016321E-03 +2.142424E-05 -2.479835E-04 +2.142424E-05 -1.601467E-04 
 +3.740857E-05 +1.372155E-04 -3.301899E-04 +1.372155E-04 +5.215647E-03 -3.214380E-05 -3.301899E-04 -3.214380E-05 -2.279101E-04 
 -7.165071E-05 +1.244877E-04 -3.756124E-04 +1.244877E-04 +5.327363E-03 -7.751256E-05 -3.756124E-04 -7.751256E-05 -2.888655E-04 
 -5.578615E-05 +1.024663E-04 +2.844878E-04 +1.024663E-04 +5.430000E-03 +6.838339E-06 +2.844878E-04 +6.838339E-06 -3.175175E-04 
 -7.093180E-05 +1.196110E-04 +3.051636E-04 +1.196110E-04 +5.455807E-03 +7.917395E-05 +3.051636E-04 +7.917395E-05 -3.963669E-04 
 -9.236335E-06 +1.234331E-04 +6.209095E-05 +1.234331E-04 +5.319633E-03 +7.756218E-05 +6.209095E-05 +7.756218E-05 -3.634063E-04 
 +1.100786E-04 -8.108772E-05 +5.304452E-05 -8.108772E-05 +5.141581E-03 +2.998849E-05 +5.304452E-05 +2.998849E-05 -2.124331E-04 
 +4.767670E-05 -1.446971E-04 +1.089541E-05 -1.446971E-04 +5.133445E-03 -8.167405E-06 +1.089541E-05 -8.167405E-06 -2.386512E-04 
 -1.087088E-04 +6.072383E-05 -4.663977E-05 +6.072383E-05 +5.073487E-03 -1.996224E-05 -4.663977E-05 -1.996224E-05 -1.191109E-04 
 -1.150818E-06 +1.905921E-05 -6.849944E-05 +1.905921E-05 +5.025884E-03 -7.097592E-05 -6.849944E-05 -7.097592E-05 -1.400933E-04 
 +2.871708E-05 -3.722974E-05 -7.188481E-05 -3.722974E-05 +4.957780E-03 -1.655148E-04 -7.188481E-05 -1.655148E-04 -3.618953E-05 
 -8.668083E-06 +1.575343E-04 -8.190558E-05 +1.575343E-04 +4.827478E-03 -1.532592E-04 -8.190558E-05 -1.532592E-04 +1.963411E-04 
 -2.629193E-05 +1.584633E-04 -4.322976E-05 +1.584633E-04 +4.754481E-03 -7.398674E-05 -4.322976E-05 -7.398674E-05 +2.485511E-04 
 -3.289748E-05 +1.822010E-04 -8.285881E-05 +1.822010E-04 +4.752340E-03 -3.803874E-05 -8.285881E-05 -3.803874E-05 +2.299998E-04 
 -4.339286E-05 +1.440980E-04 -9.840493E-05 +1.440980E-04 +4.765066E-03 +1.018235E-06 -9.840493E-05 +1.018235E-06 +2.150807E-04 
 -5.252088E-05 +8.716447E-05 -9.670954E-05 +8.716447E-05 +4.838272E-03 -2.425119E-08 -9.670954E-05 -2.425119E-08 +1.832992E-04 
 -1.051957E-04 +5.325531E-05 -1.177783E-04 +5.325531E-05 +4.928048E-03 -1.082180E-05 -1.177783E-04 -1.082180E-05 +8.926151E-05 
 -7.816940E-05 +2.888889E-05 -9.373009E-05 +2.888889E-05 +4.931086E-03 +3.180042E-06 -9.373009E-05 +3.180042E-06 +4.391447E-05 
 -7.134691E-05 +4.184729E-05 -1.708381E-05 +4.184729E-05 +4.867957E-03 +2.926054E-05 -1.708381E-05 +2.926054E-05 +1.319735E-04 
 +8.902433E-05 +4.968717E-05 +8.010601E-05 +4.968717E-05 +4.765110E-03 +8.681225E-05 +8.010601E-05 +8.681225E-05 +1.978257E-04 
 +1.554879E-04 +1.654852E-04 -5.803775E-05 +1.654852E-04 +4.643829E-03 +1.103185E-04 -5.803775E-05 +1.103185E-04 +1.446065E-04 
 +2.155727E-04 +2.334165E-04 -1.639572E-04 +2.334165E-04 +4.691992E-03 +6.565849E-05 -1.639572E-04 +6.565849E-05 +9.090521E-06 
 +6.564399E-05 +1.720900E-04 -3.365799E-04 +1.720900E-04 +4.962815E-03 +1.230112E-05 -3.365799E-04 +1.230112E-05 -1.228998E-04 
 -7.470473E-05 +1.483706E-04 -4.192246E-04 +1.483706E-04 +5.235476E-03 +4.655341E-05 -4.192246E-04 +4.655341E-05 -1.975394E-04 
 -5.287275E-05 +1.254792E-04 +1.374690E-04 +1.254792E-04 +5.416542E-03 +7.850015E-05 +1.374690E-04 +7.850015E-05 -2.155421E-04 
 -2.117977E-05 +4.034264E-05 +2.296074E-04 +4.034264E-05 +5.379589E-03 +4.055684E-05 +2.296074E-04 +4.055684E-05 -2.579863E-04 
 +9.379178E-06 -4.473865E-05 +1.284768E-04 -4.473865E-05 +5.201820E-03 +5.726217E-05 +1.284768E-04 +5.726217E-05 -2.373124E-04 
 +6.558841E-05 -1.740183E-04 +3.244579E-05 -1.740183E-04 +5.142984E-03 +4.087626E-05 +3.244579E-05 +4.087626E-05 -2.364771E-04 
 +5.395149E-05 -2.098148E-04 +1.929421E-05 -2.098148E-04 +5.128558E-03 -3.564255E-05 +1.929421E-05 -3.564255E-05 -2.051145E-04 
 -4.457326E-05 -3.607941E-05 -6.401355E-05 -3.607941E-05 +5.118673E-03 -5.345717E-05 -6.401355E-05 -5.345717E-05 -1.803753E-04 
 +2.159054E-05 -2.814617E-05 -8.531553E-05 -2.814617E-05 +5.053997E-03 -5.980245E-05 -8.531553E-05 -5.980245E-05 -1.735913E-04 
 +5.022113E-05 -3.655488E-05 -5.907053E-05 -3.655488E-05 +5.009734E-03 -1.227130E-04 -5.907053E-05 -1.227130E-04 -7.584000E-05 
 -4.455825E-06 +2.018008E-04 -7.370838E-05 +2.018008E-04 +4.960058E-03 -9.971801E-05 -7.370838E-05 -9.971801E-05 +5.534271E-05 
 -6.524522E-05 +2.108408E-04 -6.505425E-05 +2.108408E-04 +4.852219E-03 -6.171054E-05 -6.505425E-05 -6.171054E-05 +6.305824E-05 
 -3.382141E-05 +2.194278E-04 -5.109969E-05 +2.194278E-04 +4.818074E-03 -4.708351E-05 -5.109969E-05 -4.708351E-05 +9.166218E-05 
 -2.962163E-05 +1.507282E-04 -1.087510E-04 +1.507282E-04 +4.839268E-03 -8.708515E-06 -1.087510E-04 -8.708515E-06 +1.310539E-04 
 -5.506377E-05 +1.497421E-04 -1.301475E-04 +1.497421E-04 +4.833935E-03 -5.802222E-06 -1.301475E-04 -5.802222E-06 +1.379327E-04 
 -4.292974E-05 +1.204016E-04 -9.732907E-05 +1.204016E-04 +4.865449E-03 +7.993569E-06 -9.732907E-05 +7.993569E-06 +8.057744E-05 
 -8.394502E-05 +7.212713E-05 -5.085388E-05 +7.212713E-05 +4.940209E-03 -3.423596E-06 -5.085388E-05 -3.423596E-06 +5.915829E-06 
 -5.249727E-05 +6.690406E-05 +7.522001E-05 +6.690406E-05 +5.000591E-03 -1.267346E-05 +7.522001E-05 -1.267346E-05 -2.906757E-06 
 +4.554264E-06 +5.945384E-05 +1.115050E-04 +5.945384E-05 +5.018718E-03 +3.807328E-06 +1.115050E-04 +3.807328E-06 -1.008547E-04 
 +7.517159E-05 +1.565111E-04 +1.945546E-05 +1.565111E-04 +5.002099E-03 +1.049618E-05 +1.945546E-05 +1.049618E-05 -1.767760E-04 
 +1.505278E-04 +2.240481E-04 -6.888203E-05 +2.240481E-04 +4.893114E-03 -5.211879E-05 -6.888203E-05 -5.211879E-05 -1.111261E-04 
 +9.960749E-05 +2.435908E-04 -1.675013E-04 +2.435908E-04 +4.879949E-03 -8.579777E-05 -1.675013E-04 -8.579777E-05 -1.483970E-05 
 -1.154207E-05 +1.968467E-04 -3.065804E-04 +1.968467E-04 +4.976002E-03 -4.846329E-05 -3.065804E-04 -4.846329E-05 +1.039302E-04 
 -9.492119E-06 +1.656973E-04 -4.468186E-05 +1.656973E-04 +4.999378E-03 -2.435199E-05 -4.468186E-05 -2.435199E-05 +1.429842E-04 
 -3.642355E-05 +2.355033E-05 +1.744436E-04 +2.355033E-05 +5.116718E-03 -3.149319E-06 +1.744436E-04 -3.149319E-06 -1.140326E-05 
 -4.351750E-05 -1.291625E-04 +2.650712E-04 -1.291625E-04 +5.207159E-03 +2.285152E-05 +2.650712E-04 +2.285152E-05 -1.895399E-04 
 +5.740159E-05 -2.398628E-04 +5.879902E-05 -2.398628E-04 +5.147806E-03 +1.443434E-05 +5.879902E-05 +1.443434E-05 -2.325951E-04 
 +5.605430E-05 -1.649760E-04 +1.734017E-05 -1.649760E-04 +5.073681E-03 -5.813087E-05 +1.734017E-05 -5.813087E-05 -1.903879E-04 
 +2.158664E-05 -4.169880E-05 -7.257321E-05 -4.169880E-05 +5.083319E-03 -4.025184E-05 -7.257321E-05 -4.025184E-05 -2.397432E-04 
 +7.112517E-05 -5.832012E-05 -6.964156E-05 -5.832012E-05 +5.049382E-03 -2.518826E-05 -6.964156E-05 -2.518826E-05 -2.367826E-04 
 +6.349296E-05 -9.547013E-05 -4.333328E-05 -9.547013E-05 +5.036053E-03 -1.008642E-04 -4.333328E-05 -1.008642E-04 -7.917021E-05 
 +7.985011E-06 +1.286841E-04 -8.198800E-05 +1.286841E-04 +5.174117E-03 -7.182667E-05 -8.198800E-05 -7.182667E-05 +4.839375E-05 
 -9.659868E-05 +3.551159E-05 -1.616294E-04 +3.551159E-05 +5.225979E-03 +1.986173E-05 -1.616294E-04 +1.986173E-05 -6.090845E-05 
 -1.494953E-05 +1.244290E-04 -9.665903E-05 +1.244290E-04 +4.958532E-03 +1.283228E-05 -9.665903E-05 +1.283228E-05 -2.753068E-05 
 +3.618521E-05 +1.761298E-04 -1.253332E-04 +1.761298E-04 +4.776308E-03 -1.735211E-05 -1.253332E-04 -1.735211E-05 +1.031867E-04 
 -2.171309E-05 +2.217715E-04 -1.271428E-04 +2.217715E-04 +4.811656E-03 -1.919096E-05 -1.271428E-04 -1.919096E-05 +1.094478E-04 
 -4.451758E-05 +1.841597E-04 -1.003034E-04 +1.841597E-04 +4.894533E-03 +2.270170E-06 -1.003034E-04 +2.270170E-06 +5.953222E-05 
 -5.884986E-05 +1.387751E-04 -2.955670E-05 +1.387751E-04 +4.989185E-03 +4.947188E-06 -2.955670E-05 +4.947188E-06 -3.116166E-05 
 -7.270621E-05 +1.050253E-04 +7.648198E-05 +1.050253E-04 +5.084556E-03 -3.195051E-05 +7.648198E-05 -3.195051E-05 -1.249377E-04 
 -9.131268E-05 +4.628374E-05 +1.044764E-04 +4.628374E-05 +5.136169E-03 -5.549394E-05 +1.044764E-04 -5.549394E-05 -2.216476E-04 
 -1.273381E-05 +1.050097E-04 +1.114637E-04 +1.050097E-04 +5.097887E-03 -6.109644E-05 +1.114637E-04 -6.109644E-05 -2.471573E-04 
 +6.245726E-05 +1.740850E-04 +1.574792E-06 +1.740850E-04 +5.012704E-03 -9.058446E-05 +1.574792E-06 -9.058446E-05 -1.030392E-04 
 +9.039488E-05 +2.365565E-04 -1.545732E-05 +2.365565E-04 +4.859909E-03 -1.197693E-04 -1.545732E-05 -1.197693E-04 +1.586866E-04 
 +7.218194E-05 +1.766291E-04 -1.420405E-04 +1.766291E-04 +4.750792E-03 -1.327013E-04 -1.420405E-04 -1.327013E-04 +3.834942E-04 
 +2.561390E-05 +1.238783E-04 -4.769177E-05 +1.238783E-04 +4.756774E-03 -1.057294E-04 -4.769177E-05 -1.057294E-04 +4.605825E-04 
 -4.532940E-05 +1.002624E-04 +7.595253E-05 +1.002624E-04 +4.845852E-03 -3.735750E-05 +7.595253E-05 -3.735750E-05 +2.932681E-04 
 -8.489825E-05 -7.143126E-05 +2.788232E-04 -7.143126E-05 +5.063536E-03 -6.669008E-06 +2.788232E-04 -6.669008E-06 -3.421735E-05 
 +3.633639E-05 -2.778757E-04 +1.024133E-04 -2.778757E-04 +5.117810E-03 -2.494024E-05 +1.024133E-04 -2.494024E-05 -1.838490E-04 
 +3.966181E-05 -1.719301E-04 +1.269120E-05 -1.719301E-04 +5.067404E-03 -2.552359E-05 +1.269120E-05 -2.552359E-05 -1.809770E-04 
 +5.426732E-05 -1.106706E-04 -5.984817E-05 -1.106706E-04 +5.056894E-03 +1.504553E-05 -5.984817E-05 +1.504553E-05 -2.367973E-04 
 +7.689201E-05 -1.277438E-04 -6.328783E-05 -1.277438E-04 +5.042643E-03 +1.313396E-05 -6.328783E-05 +1.313396E-05 -2.283869E-04 
 +5.169489E-05 -1.284991E-04 -5.972244E-05 -1.284991E-04 +5.078075E-03 -7.981352E-05 -5.972244E-05 -7.981352E-05 -1.062325E-04 
 +6.375789E-05 +1.706497E-04 -9.058306E-05 +1.706497E-04 +5.003504E-03 -1.274274E-04 -9.058306E-05 -1.274274E-04 -4.021185E-06 
 +3.878186E-05 +9.475390E-05 -1.089988E-04 +9.475390E-05 +4.883029E-03 -4.893739E-05 -1.089988E-04 -4.893739E-05 -4.974440E-05 
 +3.148106E-05 +1.589045E-04 -1.225859E-04 +1.589045E-04 +4.864466E-03 +1.974531E-05 -1.225859E-04 +1.974531E-05 -3.226103E-05 
 +4.516025E-06 +1.561826E-04 -1.418940E-04 +1.561826E-04 +4.738842E-03 -1.095955E-05 -1.418940E-04 -1.095955E-05 +4.077211E-05 
 +4.036291E-05 +2.891022E-04 -1.317609E-04 +2.891022E-04 +4.742984E-03 -3.716602E-05 -1.317609E-04 -3.716602E-05 +1.016661E-04 
 -4.671124E-05 +2.549918E-04 -1.249174E-04 +2.549918E-04 +4.914114E-03 -1.726787E-05 -1.249174E-04 -1.726787E-05 +7.724910E-05 
 -5.544862E-05 +2.110847E-04 -4.745332E-05 +2.110847E-04 +5.011822E-03 -1.113928E-05 -4.745332E-05 -1.113928E-05 -5.701014E-05 
 -1.000160E-04 +1.694297E-04 +2.263390E-05 +1.694297E-04 +5.109462E-03 -6.379100E-05 +2.263390E-05 -6.379100E-05 -1.318526E-04 
 -1.569109E-04 +1.126356E-04 +5.828386E-05 +1.126356E-04 +5.170941E-03 -7.827624E-05 +5.828386E-05 -7.827624E-05 -1.727219E-04 
 -1.073018E-04 +1.162343E-04 +9.473577E-05 +1.162343E-04 +5.114657E-03 -5.965748E-05 +9.473577E-05 -5.965748E-05 -1.744898E-04 
 -1.157878E-06 +1.807411E-04 +5.686633E-05 +1.807411E-04 +5.010222E-03 -4.208428E-05 +5.686633E-05 -4.208428E-05 -6.068377E-07 
 +7.790922E-05 +2.026843E-04 +4.431188E-05 +2.026843E-04 +4.904886E-03 -3.978329E-05 +4.431188E-05 -3.978329E-05 +2.270132E-04 
 +7.193232E-05 +1.783062E-04 -3.599674E-05 +1.783062E-04 +4.718469E-03 -8.467912E-05 -3.599674E-05 -8.467912E-05 +3.626981E-04 
 +4.117533E-05 +1.807100E-04 +1.201208E-05 +1.807100E-04 +4.677134E-03 -1.327060E-04 +1.201208E-05 -1.327060E-04 +4.605700E-04 
 -4.422146E-05 +1.378284E-04 +3.001707E-05 +1.378284E-04 +4.754405E-03 -1.334383E-04 +3.001707E-05 -1.334383E-04 +4.783484E-04 
 -6.770765E-05 +3.545284E-05 +1.664036E-04 +3.545284E-05 +4.841615E-03 -6.751653E-05 +1.664036E-04 -6.751653E-05 +2.244846E-04 
 -1.314954E-05 -2.817295E-04 +1.190319E-04 -2.817295E-04 +4.994506E-03 -3.165118E-05 +1.190319E-04 -3.165118E-05 -7.152886E-05 
 -3.855655E-06 -1.739548E-04 +1.906146E-05 -1.739548E-04 +5.075513E-03 +6.539680E-06 +1.906146E-05 +6.539680E-06 -1.963228E-04 
 +5.575183E-05 -1.355381E-04 -4.735275E-05 -1.355381E-04 +5.094691E-03 +1.303791E-05 -4.735275E-05 +1.303791E-05 -2.447393E-04 
 +6.600098E-05 -1.481158E-04 -3.526971E-05 -1.481158E-04 +5.109559E-03 +2.189144E-06 -3.526971E-05 +2.189144E-06 -2.279911E-04 
 +6.242803E-05 -1.729418E-04 +1.572169E-06 -1.729418E-04 +5.079202E-03 -3.490489E-05 +1.572169E-06 -3.490489E-05 -1.830466E-04 
 +1.508679E-04 -3.212550E-05 -1.797199E-05 -3.212550E-05 +4.915682E-03 -2.686730E-05 -1.797199E-05 -2.686730E-05 -6.992310E-05 
 +1.954639E-04 -7.622919E-05 +2.430706E-06 -7.622919E-05 +4.755232E-03 +2.813867E-05 +2.430706E-06 +2.813867E-05 +1.323830E-06 
 +1.496283E-04 +1.103826E-04 -5.897216E-05 +1.103826E-04 +4.858143E-03 +1.025837E-04 -5.897216E-05 +1.025837E-04 +2.957220E-05 
 -1.286846E-04 +2.589106E-06 -1.614757E-04 +2.589106E-06 +4.903092E-03 +8.833465E-05 -1.614757E-04 +8.833465E-05 +2.026131E-05 
 +9.735249E-05 +2.868756E-04 -3.689909E-05 +2.868756E-04 +4.765565E-03 +3.085207E-05 -3.689909E-05 +3.085207E-05 +1.438626E-05 
 +4.184162E-05 +3.151427E-04 -8.596616E-05 +3.151427E-04 +4.876633E-03 +4.463292E-05 -8.596616E-05 +4.463292E-05 +4.095153E-05 
 -4.772356E-05 +2.560170E-04 +3.915291E-05 +2.560170E-04 +5.046297E-03 +5.138118E-05 +3.915291E-05 +5.138118E-05 -8.874285E-05 
 -8.997076E-05 +2.473175E-04 -4.700929E-05 +2.473175E-04 +5.101195E-03 +1.753737E-06 -4.700929E-05 +1.753737E-06 -2.099789E-04 
 -1.328681E-04 +1.927005E-04 -3.448397E-05 +1.927005E-04 +5.161878E-03 -7.492693E-05 -3.448397E-05 -7.492693E-05 -2.332262E-04 
 -1.732498E-04 +1.853352E-04 -7.032464E-05 +1.853352E-04 +5.178828E-03 -1.152593E-04 -7.032464E-05 -1.152593E-04 -1.883627E-04 
 -1.239262E-04 +1.889984E-04 -5.412814E-05 +1.889984E-04 +4.988204E-03 -1.728710E-04 -5.412814E-05 -1.728710E-04 +1.731136E-05 
 +5.170495E-05 +2.054440E-04 +3.398382E-05 +2.054440E-04 +4.747347E-03 -1.756062E-04 +3.398382E-05 -1.756062E-04 +1.938639E-04 
 +1.420845E-05 +1.739471E-04 +1.703091E-05 +1.739471E-04 +4.733744E-03 -1.366518E-04 +1.703091E-05 -1.366518E-04 +2.927020E-04 
 -2.973934E-05 +1.936675E-04 +6.142289E-05 +1.936675E-04 +4.731836E-03 -1.177331E-04 +6.142289E-05 -1.177331E-04 +3.568178E-04 
 -3.508552E-05 +1.478244E-04 +6.774709E-05 +1.478244E-04 +4.732466E-03 -1.409862E-04 +6.774709E-05 -1.409862E-04 +4.145174E-04 
 -5.251711E-05 +8.100564E-05 +1.025948E-04 +8.100564E-05 +4.822329E-03 -1.102742E-04 +1.025948E-04 -1.102742E-04 +2.991799E-04 
 -6.787927E-05 -2.223466E-04 +1.032615E-04 -2.223466E-04 +4.961379E-03 -3.412988E-05 +1.032615E-04 -3.412988E-05 +5.408135E-06 
 -2.274359E-05 -1.655821E-04 +4.549586E-05 -1.655821E-04 +5.128064E-03 +1.085223E-05 +4.549586E-05 +1.085223E-05 -2.149344E-04 
 +1.051718E-05 -1.359339E-04 -3.434781E-05 -1.359339E-04 +5.144840E-03 -4.093626E-06 -3.434781E-05 -4.093626E-06 -2.582002E-04 
 +1.101228E-04 -1.459589E-04 +6.245544E-05 -1.459589E-04 +5.138609E-03 -9.594761E-06 +6.245544E-05 -9.594761E-06 -2.128419E-04 
 +1.288617E-04 -1.535201E-04 +7.943757E-05 -1.535201E-04 +5.054623E-03 -6.867231E-05 +7.943757E-05 -6.867231E-05 -1.422442E-04 
 +1.686603E-04 -5.627158E-05 +8.420711E-05 -5.627158E-05 +4.832444E-03 -1.305631E-04 +8.420711E-05 -1.305631E-04 -1.943584E-05 
 +2.167081E-04 -2.816956E-06 +1.160738E-04 -2.816956E-06 +4.723393E-03 -7.360086E-05 +1.160738E-04 -7.360086E-05 -1.263589E-05 
 +2.465128E-04 +1.727619E-04 +1.024148E-04 +1.727619E-04 +4.828721E-03 +6.608339E-05 +1.024148E-04 +6.608339E-05 -9.581222E-06 
 -1.124664E-04 +3.233848E-06 +1.639862E-05 +3.233848E-06 +5.074884E-03 +1.564197E-04 +1.639862E-05 +1.564197E-04 -4.318810E-05 
 +1.709986E-05 +1.459026E-04 +2.417366E-04 +1.459026E-04 +5.101743E-03 +1.553099E-04 +2.417366E-04 +1.553099E-04 -1.717057E-04 
 +1.640507E-04 +3.020680E-04 +1.885184E-05 +3.020680E-04 +4.955985E-03 +1.301145E-04 +1.885184E-05 +1.301145E-04 -7.198111E-05 
 -3.083188E-05 +1.875565E-04 +1.046037E-04 +1.875565E-04 +5.066591E-03 +4.746316E-05 +1.046037E-04 +4.746316E-05 -1.132720E-04 
 -8.574280E-05 +1.286080E-04 -1.728637E-04 +1.286080E-04 +5.184774E-03 -3.173338E-05 -1.728637E-04 -3.173338E-05 -3.085601E-04 
 -9.328102E-05 +3.340995E-05 -1.757783E-04 +3.340995E-05 +5.203100E-03 -7.649807E-05 -1.757783E-04 -7.649807E-05 -3.065743E-04 
 -1.476816E-04 +4.783058E-06 -2.892519E-04 +4.783058E-06 +5.168608E-03 -9.741872E-05 -2.892519E-04 -9.741872E-05 -1.759594E-04 
 -1.630149E-04 -1.139767E-06 -3.265311E-04 -1.139767E-06 +5.109904E-03 -1.558450E-04 -3.265311E-04 -1.558450E-04 +3.216147E-05 
 -6.656780E-05 +6.210494E-05 -1.509092E-05 +6.210494E-05 +4.927421E-03 -1.811408E-04 -1.509092E-05 -1.811408E-04 +2.106321E-04 
 -9.473072E-05 +1.200661E-04 +4.090623E-05 +1.200661E-04 +4.770489E-03 -1.433756E-04 +4.090623E-05 -1.433756E-04 +3.082948E-04 
 -6.829912E-05 +1.309791E-04 +9.325960E-05 +1.309791E-04 +4.789043E-03 -1.320671E-04 +9.325960E-05 -1.320671E-04 +3.033607E-04 
 -6.006267E-05 +1.300859E-04 +8.708520E-05 +1.300859E-04 +4.805531E-03 -1.324720E-04 +8.708520E-05 -1.324720E-04 +2.958427E-04 
 -4.508208E-05 +4.172887E-05 +6.116417E-05 +4.172887E-05 +4.789328E-03 -1.018306E-04 +6.116417E-05 -1.018306E-04 +2.014730E-04 
 -7.225374E-05 -1.174252E-04 +6.503045E-05 -1.174252E-04 +4.952538E-03 -3.163977E-05 +6.503045E-05 -3.163977E-05 -1.093748E-05 
 +1.100643E-04 -1.741473E-04 +7.472573E-05 -1.741473E-04 +4.955507E-03 -1.505279E-05 +7.472573E-05 -1.505279E-05 -1.685344E-04 
 +3.022422E-05 -7.540504E-05 -4.863787E-05 -7.540504E-05 +5.006097E-03 +1.257369E-05 -4.863787E-05 +1.257369E-05 -1.705914E-04 
 +1.966681E-04 -9.076373E-05 +6.892548E-05 -9.076373E-05 +4.898069E-03 +3.014843E-05 +6.892548E-05 +3.014843E-05 -1.103741E-04 
 +2.294812E-04 -9.358960E-05 +8.764082E-06 -9.358960E-05 +4.845233E-03 -6.178895E-06 +8.764082E-06 -6.178895E-06 +3.837821E-05 
 +2.008924E-04 -7.219497E-05 +3.766319E-05 -7.219497E-05 +4.881783E-03 -6.083975E-05 +3.766319E-05 -6.083975E-05 +1.000251E-04 
 +1.087583E-04 +1.427492E-04 +2.532494E-04 +1.427492E-04 +5.034457E-03 -1.804310E-05 +2.532494E-04 -1.804310E-05 -5.761010E-05 
 +1.421475E-04 +1.797499E-04 +3.140378E-04 +1.797499E-04 +5.159103E-03 +1.299497E-04 +3.140378E-04 +1.299497E-04 -1.197836E-04 
 -7.164944E-06 +6.877968E-05 +3.009046E-04 +6.877968E-05 +5.197160E-03 +2.056777E-04 +3.009046E-04 +2.056777E-04 -1.465931E-04 
 -5.447680E-05 +2.532838E-05 +3.287180E-04 +2.532838E-05 +5.208854E-03 +1.283506E-04 +3.287180E-04 +1.283506E-04 -2.181068E-04 
 +1.054105E-04 +2.375980E-04 +1.663034E-05 +2.375980E-04 +5.104092E-03 +2.459448E-05 +1.663034E-05 +2.459448E-05 -1.363724E-04 
 -2.658409E-05 +1.440370E-04 -7.444842E-05 +1.440370E-04 +5.092834E-03 -5.717123E-05 -7.444842E-05 -5.717123E-05 -1.756168E-04 
 -5.868985E-05 +6.071425E-05 -2.644343E-04 +6.071425E-05 +5.146298E-03 -8.215262E-05 -2.644343E-04 -8.215262E-05 -3.191469E-04 
 -6.892975E-05 -2.810636E-05 -2.735872E-04 -2.810636E-05 +5.158266E-03 -5.625909E-05 -2.735872E-04 -5.625909E-05 -3.159625E-04 
 -9.818690E-05 -7.966766E-05 -4.263464E-04 -7.966766E-05 +5.146495E-03 -1.102074E-04 -4.263464E-04 -1.102074E-04 -1.676893E-04 
 -1.967362E-04 -1.390892E-04 -3.486337E-04 -1.390892E-04 +5.138292E-03 -9.425390E-05 -3.486337E-04 -9.425390E-05 +3.836238E-05 
 -1.927911E-04 -2.338317E-04 -5.991081E-05 -2.338317E-04 +5.052632E-03 -1.014113E-04 -5.991081E-05 -1.014113E-04 +2.215402E-04 
 -1.531757E-04 -4.838047E-05 +2.199344E-05 -4.838047E-05 +4.860161E-03 -1.367006E-04 +2.199344E-05 -1.367006E-04 +2.989990E-04 
 -1.417373E-04 +3.311567E-05 +8.804930E-05 +3.311567E-05 +4.804342E-03 -1.306878E-04 +8.804930E-05 -1.306878E-04 +2.517933E-04 
 -7.813793E-05 -4.449693E-05 +1.023851E-04 -4.449693E-05 +4.822492E-03 -6.115376E-05 +1.023851E-04 -6.115376E-05 +2.004099E-04 
 -9.912332E-05 -1.313165E-04 -3.685996E-05 -1.313165E-04 +4.795817E-03 +4.260925E-05 -3.685996E-05 +4.260925E-05 +7.609117E-05 
 +5.190749E-05 -1.705042E-04 +5.901193E-05 -1.705042E-04 +4.837053E-03 +2.521203E-05 +5.901193E-05 +2.521203E-05 -6.179371E-05 
 +2.807684E-04 -1.566510E-04 +1.314744E-04 -1.566510E-04 +4.790973E-03 -1.205795E-04 +1.314744E-04 -1.205795E-04 -8.906354E-05 
 +1.978073E-04 -1.436284E-04 +5.703303E-06 -1.436284E-04 +4.735936E-03 -6.361495E-05 +5.703303E-06 -6.361495E-05 -6.330604E-05 
 +2.377076E-04 -1.536748E-04 +5.484263E-06 -1.536748E-04 +4.699691E-03 -7.808282E-06 +5.484263E-06 -7.808282E-06 +3.766296E-06 
 +2.797454E-04 -1.170560E-04 -9.790557E-05 -1.170560E-04 +4.712656E-03 +2.361479E-05 -9.790557E-05 +2.361479E-05 +1.673447E-04 
 +1.633172E-04 -8.077003E-05 -4.805234E-05 -8.077003E-05 +4.867462E-03 +1.232632E-06 -4.805234E-05 +1.232632E-06 +1.794627E-04 
 -2.495345E-05 +1.404072E-04 +3.059089E-04 +1.404072E-04 +5.106262E-03 +1.857158E-05 +3.059089E-04 +1.857158E-05 -1.342523E-05 
 +5.813052E-05 +9.905293E-05 +3.473701E-04 +9.905293E-05 +5.189390E-03 +1.149236E-04 +3.473701E-04 +1.149236E-04 -3.961665E-05 
 +8.624414E-05 +7.978248E-05 +3.169297E-04 +7.978248E-05 +5.168512E-03 +1.028399E-04 +3.169297E-04 +1.028399E-04 -7.671619E-05 
 -4.618164E-05 +1.802836E-05 +5.214799E-05 +1.802836E-05 +5.234883E-03 -7.485564E-06 +5.214799E-05 -7.485564E-06 -1.622817E-04 
 -5.820753E-05 +1.581242E-04 -6.354684E-05 +1.581242E-04 +5.222843E-03 -6.332126E-05 -6.354684E-05 -6.332126E-05 -2.020587E-04 
 -1.642002E-05 +1.679180E-04 -1.952580E-04 +1.679180E-04 +5.108203E-03 -4.598847E-05 -1.952580E-04 -4.598847E-05 -2.618360E-04 
 +2.267710E-05 +8.348895E-05 -2.615740E-04 +8.348895E-05 +5.093027E-03 -5.609182E-05 -2.615740E-04 -5.609182E-05 -3.023255E-04 
 -4.516628E-05 -7.768696E-07 -3.249131E-04 -7.768696E-07 +5.117674E-03 -9.171969E-05 -3.249131E-04 -9.171969E-05 -2.960697E-04 
 -1.280908E-04 -1.140846E-04 -3.799902E-04 -1.140846E-04 +5.121309E-03 -6.882985E-05 -3.799902E-04 -6.882985E-05 -1.353870E-04 
 -2.804164E-04 -1.507292E-04 -1.581417E-04 -1.507292E-04 +5.120550E-03 -2.038156E-05 -1.581417E-04 -2.038156E-05 +8.199719E-05 
 -3.232266E-04 -2.507041E-04 -2.870205E-05 -2.507041E-04 +5.194117E-03 -4.790637E-05 -2.870205E-05 -4.790637E-05 +1.716662E-04 
 -2.528978E-04 -1.804582E-04 +1.654872E-05 -1.804582E-04 +5.253579E-03 -8.070708E-05 +1.654872E-05 -8.070708E-05 +1.768610E-04 
 -2.967372E-04 -1.515097E-04 +2.808890E-05 -1.515097E-04 +5.093346E-03 -1.062597E-04 +2.808890E-05 -1.062597E-04 +1.460549E-04 
 +4.802610E-05 -1.667630E-04 -3.051874E-05 -1.667630E-04 +4.854825E-03 -1.224509E-04 -3.051874E-05 -1.224509E-04 +3.293429E-05 
 -9.063468E-05 -3.686118E-05 -1.269751E-04 -3.686118E-05 +4.877068E-03 -6.886837E-05 -1.269751E-04 -6.886837E-05 -7.323312E-05 
 +1.885041E-04 -1.191960E-04 +1.144124E-04 -1.191960E-04 +4.892527E-03 -6.702281E-05 +1.144124E-04 -6.702281E-05 -7.358643E-05 
 +3.442703E-04 -8.616341E-05 +1.677454E-04 -8.616341E-05 +4.752818E-03 -1.228975E-04 +1.677454E-04 -1.228975E-04 -1.684964E-05 
 +3.348124E-04 -1.244269E-04 +6.114418E-05 -1.244269E-04 +4.693779E-03 -6.664158E-05 +6.114418E-05 -6.664158E-05 -9.584446E-06 
 +2.683764E-04 -1.407457E-04 -5.242184E-06 -1.407457E-04 +4.658580E-03 -4.495928E-06 -5.242184E-06 -4.495928E-06 +6.751409E-05 
 +1.619301E-04 -1.291812E-04 -2.261248E-05 -1.291812E-04 +4.716058E-03 +4.709913E-05 -2.261248E-05 +4.709913E-05 +1.699914E-04 
 +2.785426E-05 -7.602671E-05 +3.029136E-05 -7.602671E-05 +4.937168E-03 +4.916578E-05 +3.029136E-05 +4.916578E-05 +1.901335E-04 
 -7.901959E-05 +7.853930E-05 +2.684605E-04 +7.853930E-05 +5.101217E-03 +2.262852E-05 +2.684605E-04 +2.262852E-05 +1.005530E-04 
 +1.226614E-04 +3.422142E-05 +2.729580E-04 +3.422142E-05 +5.111290E-03 +2.714958E-05 +2.729580E-04 +2.714958E-05 +9.165351E-05 
 +1.483733E-04 +3.159574E-05 +2.031356E-04 +3.159574E-05 +5.124508E-03 +5.855664E-06 +2.031356E-04 +5.855664E-06 -7.863395E-06 
 -9.527798E-06 +4.152964E-05 -1.764569E-04 +4.152964E-05 +5.198707E-03 -4.674891E-05 -1.764569E-04 -4.674891E-05 -1.123820E-04 
 -1.191561E-04 +1.067070E-04 -7.312672E-05 +1.067070E-04 +5.230626E-03 -4.364193E-05 -7.312672E-05 -4.364193E-05 -2.049023E-04 
 -4.407337E-05 +1.359041E-04 -1.640492E-04 +1.359041E-04 +5.129734E-03 -4.524692E-05 -1.640492E-04 -4.524692E-05 -2.679581E-04 
 +8.036663E-05 +7.075108E-05 -1.853170E-04 +7.075108E-05 +5.043568E-03 -6.898533E-05 -1.853170E-04 -6.898533E-05 -2.609664E-04 
 -1.829084E-05 -1.284654E-06 -3.660522E-04 -1.284654E-06 +5.071186E-03 -9.653144E-05 -3.660522E-04 -9.653144E-05 -2.516751E-04 
 -2.865213E-04 -1.649031E-04 -1.421073E-04 -1.649031E-04 +5.119958E-03 -8.553229E-06 -1.421073E-04 -8.553229E-06 -8.674760E-05 
 -3.359608E-04 -2.348974E-04 -5.495032E-05 -2.348974E-04 +5.154462E-03 +5.700729E-05 -5.495032E-05 +5.700729E-05 +8.577190E-05 
 -3.693826E-04 -2.718685E-04 +7.245939E-05 -2.718685E-04 +5.200126E-03 +9.487122E-08 +7.245939E-05 +9.487122E-08 +8.847515E-05 
 -2.964381E-04 -1.216582E-04 -2.064675E-05 -1.216582E-04 +5.173031E-03 -3.323798E-05 -2.064675E-05 -3.323798E-05 +7.857379E-05 
 -2.266488E-04 +1.791020E-06 -4.307873E-05 +1.791020E-06 +5.040386E-03 -5.846984E-05 -4.307873E-05 -5.846984E-05 +7.347880E-05 
 +3.870799E-05 +3.417548E-05 -1.967396E-04 +3.417548E-05 +4.923239E-03 -5.653461E-05 -1.967396E-04 -5.653461E-05 -2.745224E-05 
 -6.001396E-06 +1.125822E-04 -1.363971E-04 +1.125822E-04 +4.849492E-03 -4.832692E-05 -1.363971E-04 -4.832692E-05 -7.746060E-05 
 +2.636802E-04 -7.388142E-05 +1.352757E-04 -7.388142E-05 +4.801764E-03 -8.800926E-05 +1.352757E-04 -8.800926E-05 -2.437030E-05 
 +3.846797E-04 -9.342415E-05 +1.300135E-04 -9.342415E-05 +4.695539E-03 -8.056302E-05 +1.300135E-04 -8.056302E-05 +4.535636E-05 
 +4.405700E-04 -1.035555E-04 +3.645683E-05 -1.035555E-04 +4.670062E-03 -2.327416E-05 +3.645683E-05 -2.327416E-05 +7.122755E-06 
 +2.262306E-04 -5.457476E-05 +4.323014E-05 -5.457476E-05 +4.808200E-03 -1.225003E-05 +4.323014E-05 -1.225003E-05 +4.083206E-05 
 -5.253144E-05 -1.336320E-05 +1.420198E-04 -1.336320E-05 +5.112495E-03 +9.581590E-06 +1.420198E-04 +9.581590E-06 +5.879670E-05 
 -1.287819E-04 +2.949278E-05 +1.593316E-04 +2.949278E-05 +5.257254E-03 +6.544221E-05 +1.593316E-04 +6.544221E-05 +1.407614E-04 
 -8.362117E-05 +5.741550E-05 +1.508915E-04 +5.741550E-05 +5.148302E-03 +5.493936E-05 +1.508915E-04 +5.493936E-05 +1.890800E-04 
 +1.694297E-04 +1.868155E-05 +1.938419E-04 +1.868155E-05 +5.061615E-03 +2.679646E-05 +1.938419E-04 +2.679646E-05 +1.726331E-04 
 +2.164107E-04 +1.482922E-05 -2.010486E-05 +1.482922E-05 +5.088798E-03 -3.046607E-05 -2.010486E-05 -3.046607E-05 +1.471263E-05 
 +8.175207E-05 +6.143778E-05 -2.497971E-04 +6.143778E-05 +5.105664E-03 -9.309355E-05 -2.497971E-04 -9.309355E-05 -9.802052E-05 
 -5.903559E-05 +1.283746E-04 -1.221466E-04 +1.283746E-04 +5.119732E-03 -1.537950E-04 -1.221466E-04 -1.537950E-04 -1.351219E-04 
 -8.559822E-05 +1.575257E-04 -2.845730E-05 +1.575257E-04 +5.111523E-03 -1.724486E-04 -2.845730E-05 -1.724486E-04 -2.115386E-04 
 -8.218552E-06 +8.854970E-05 +9.746486E-06 +8.854970E-05 +5.096890E-03 -9.059481E-05 +9.746486E-06 -9.059481E-05 -2.058803E-04 
 -9.470338E-05 -6.043276E-05 -1.928104E-04 -6.043276E-05 +5.126094E-03 +5.980572E-05 -1.928104E-04 +5.980572E-05 -2.076255E-04 
 -3.792490E-04 -2.166137E-04 +5.780654E-05 -2.166137E-04 +5.206052E-03 +1.733135E-04 +5.780654E-05 +1.733135E-04 -8.953042E-05 
 -3.440756E-04 -2.168045E-04 -6.535879E-05 -2.168045E-04 +5.230548E-03 +1.147897E-04 -6.535879E-05 +1.147897E-04 +4.402649E-05 
 -2.346819E-04 -1.832555E-04 +6.832046E-05 -1.832555E-04 +5.156853E-03 +5.053046E-05 +6.832046E-05 +5.053046E-05 +4.617642E-05 
 -1.300356E-04 -3.029854E-05 -9.956153E-05 -3.029854E-05 +5.056255E-03 +2.664390E-05 -9.956153E-05 +2.664390E-05 +7.219121E-05 
 -6.296437E-05 +6.744256E-05 -8.567518E-05 +6.744256E-05 +4.995165E-03 -5.053602E-05 -8.567518E-05 -5.053602E-05 +6.231452E-05 
 -8.741834E-05 +1.286833E-04 -1.497931E-04 +1.286833E-04 +4.991506E-03 -1.209327E-04 -1.497931E-04 -1.209327E-04 +4.655015E-05 
 -3.866075E-05 +1.667783E-04 -1.402254E-04 +1.667783E-04 +4.867011E-03 -9.107852E-05 -1.402254E-04 -9.107852E-05 +2.316189E-05 
 +2.705142E-04 -2.058491E-05 +2.811168E-05 -2.058491E-05 +4.723388E-03 -9.343682E-05 +2.811168E-05 -9.343682E-05 +4.510367E-05 
 +4.310105E-04 -8.461849E-05 +5.858696E-05 -8.461849E-05 +4.693143E-03 -3.776849E-05 +5.858696E-05 -3.776849E-05 +8.794856E-05 
 +3.409496E-04 -4.281012E-05 +2.723692E-05 -4.281012E-05 +4.684804E-03 +2.259602E-05 +2.723692E-05 +2.259602E-05 +8.078152E-05 
 +2.508258E-04 -6.708224E-05 -5.993696E-05 -6.708224E-05 +4.939081E-03 +1.254402E-05 -5.993696E-05 +1.254402E-05 +2.581811E-05 
 -8.812549E-05 -3.086531E-05 +6.942897E-05 -3.086531E-05 +5.253335E-03 -3.698264E-05 +6.942897E-05 -3.698264E-05 +2.783006E-05 
 -1.401521E-04 -2.453273E-05 +6.328141E-05 -2.453273E-05 +5.309193E-03 -3.708724E-05 +6.328141E-05 -3.708724E-05 +1.148240E-04 
 -1.114126E-04 +1.154230E-06 +8.023885E-05 +1.154230E-06 +5.223911E-03 -6.949212E-06 +8.023885E-05 -6.949212E-06 +2.780402E-04 
 -2.138694E-05 +3.575725E-06 +5.749152E-05 +3.575725E-06 +5.143275E-03 +3.711625E-05 +5.749152E-05 +3.711625E-05 +1.813005E-04 
 +1.290108E-04 -3.188812E-05 -3.628289E-04 -3.188812E-05 +5.067055E-03 -3.356916E-05 -3.628289E-04 -3.356916E-05 -7.867126E-05 
 +1.603426E-04 +5.261650E-05 -2.547265E-04 +5.261650E-05 +5.055451E-03 -1.110080E-04 -2.547265E-04 -1.110080E-04 -9.349952E-05 
 +1.769677E-04 +1.470485E-04 -2.431181E-04 +1.470485E-04 +5.069409E-03 -1.359051E-04 -2.431181E-04 -1.359051E-04 -1.257313E-04 
 +1.705546E-04 +1.626683E-04 -8.776599E-05 +1.626683E-04 +5.118625E-03 -1.037412E-04 -8.776599E-05 -1.037412E-04 -2.200488E-04 
 +9.853812E-06 +6.069630E-05 +1.812065E-04 +6.069630E-05 +5.173849E-03 -3.921469E-05 +1.812065E-04 -3.921469E-05 -2.521952E-04 
 -1.098584E-04 +2.052017E-05 +1.782926E-04 +2.052017E-05 +5.288723E-03 +6.292390E-05 +1.782926E-04 +6.292390E-05 -9.548106E-05 
 -2.907648E-04 -5.032825E-05 +1.194979E-04 -5.032825E-05 +5.459680E-03 +1.294103E-04 +1.194979E-04 +1.294103E-04 -1.413135E-04 
 -4.242643E-04 -1.480279E-04 +6.067858E-05 -1.480279E-04 +5.392878E-03 +9.975746E-05 +6.067858E-05 +9.975746E-05 -8.922370E-05 
 -3.736173E-04 -1.409153E-04 +1.220391E-04 -1.409153E-04 +5.177891E-03 +4.978886E-05 +1.220391E-04 +4.978886E-05 +1.172588E-04 
 -1.445929E-04 -5.319182E-05 -6.782417E-05 -5.319182E-05 +5.041596E-03 -3.305881E-05 -6.782417E-05 -3.305881E-05 +8.754555E-05 
 -5.704734E-05 +2.203991E-05 -9.541590E-05 +2.203991E-05 +4.949392E-03 -7.201894E-05 -9.541590E-05 -7.201894E-05 +5.060272E-05 
 -5.404572E-05 +1.033902E-04 -5.569116E-05 +1.033902E-04 +4.952862E-03 -8.740385E-05 -5.569116E-05 -8.740385E-05 +7.535025E-05 
 -1.005202E-04 +1.483309E-04 -1.184856E-04 +1.483309E-04 +4.870916E-03 -2.461192E-05 -1.184856E-04 -2.461192E-05 +8.952009E-05 
 +2.463236E-04 -1.818428E-05 +2.377935E-05 -1.818428E-05 +4.754930E-03 +2.529726E-06 +2.377935E-05 +2.529726E-06 +8.727157E-05 
 +4.805214E-04 -9.220956E-05 -9.538002E-06 -9.220956E-05 +4.827520E-03 +9.080495E-05 -9.538002E-06 +9.080495E-05 +1.085276E-04 
 +1.969004E-04 +3.359558E-06 +7.988110E-05 +3.359558E-06 +5.078267E-03 +6.404758E-05 +7.988110E-05 +6.404758E-05 +4.714319E-05 
 +5.897798E-05 -6.322530E-05 +1.332325E-05 -6.322530E-05 +5.325044E-03 -2.100055E-05 +1.332325E-05 -2.100055E-05 -4.441279E-05 
 -1.197293E-04 -5.856832E-05 +1.158497E-04 -5.856832E-05 +5.343971E-03 -5.692397E-05 +1.158497E-04 -5.692397E-05 -6.148624E-05 
 -9.625148E-05 -7.021566E-05 +3.211524E-05 -7.021566E-05 +5.311777E-03 -5.692850E-05 +3.211524E-05 -5.692850E-05 +3.596716E-05 
 -1.452917E-04 -6.143643E-05 -1.648386E-05 -6.143643E-05 +5.268137E-03 -7.592590E-05 -1.648386E-05 -7.592590E-05 +2.166256E-04 
 -9.589942E-05 -3.822673E-05 -8.744042E-05 -3.822673E-05 +5.185880E-03 -1.357211E-04 -8.744042E-05 -1.357211E-04 +1.540606E-04 
 +1.421678E-04 -3.521568E-05 -3.987060E-04 -3.521568E-05 +5.072448E-03 -1.004985E-04 -3.987060E-04 -1.004985E-04 -8.794345E-05 
 +3.000268E-04 +1.126114E-06 -2.965332E-04 +1.126114E-06 +4.983186E-03 -2.686834E-05 -2.965332E-04 -2.686834E-05 -9.157723E-05 
 +2.555603E-04 +4.357643E-05 -3.163693E-04 +4.357643E-05 +5.010320E-03 -8.404934E-05 -3.163693E-04 -8.404934E-05 -7.858216E-05 
 +5.283810E-05 +1.851421E-05 +1.426461E-04 +1.851421E-05 +5.126425E-03 -6.293100E-05 +1.426461E-04 -6.293100E-05 -1.465402E-04 
 -7.166316E-05 -1.300882E-04 +2.615635E-04 -1.300882E-04 +5.224422E-03 -3.280549E-05 +2.615635E-04 -3.280549E-05 -2.386026E-04 
 -2.181679E-04 -1.243902E-04 +2.935103E-04 -1.243902E-04 +5.270651E-03 +2.890899E-06 +2.935103E-04 +2.890899E-06 -7.196006E-05 
 -9.629143E-06 -2.465925E-04 -1.078832E-04 -2.465925E-04 +5.132286E-03 +8.333650E-05 -1.078832E-04 +8.333650E-05 -4.702363E-05 
 -4.898913E-05 -2.332730E-04 +5.705978E-05 -2.332730E-04 +5.020745E-03 +1.110957E-04 +5.705978E-05 +1.110957E-04 -2.928330E-05 
 -2.620343E-04 -6.390567E-05 +1.077256E-04 -6.390567E-05 +5.146155E-03 +9.315353E-05 +1.077256E-04 +9.315353E-05 +1.388177E-04 
 -2.258498E-04 -4.311157E-05 -2.555857E-05 -4.311157E-05 +5.154412E-03 +9.834810E-06 -2.555857E-05 +9.834810E-06 +1.370710E-04 
 -1.045154E-04 +2.027111E-05 -7.253001E-05 +2.027111E-05 +5.050180E-03 -3.237743E-05 -7.253001E-05 -3.237743E-05 +1.403704E-04 
 -8.193338E-05 +1.007181E-04 -8.958741E-05 +1.007181E-04 +4.976881E-03 -2.057490E-05 -8.958741E-05 -2.057490E-05 +1.621075E-04 
 -6.595580E-05 +9.146518E-05 -1.445485E-04 +9.146518E-05 +4.903205E-03 +4.277051E-05 -1.445485E-04 +4.277051E-05 +1.738260E-04 
 +5.911785E-05 +3.715540E-05 -7.296846E-05 +3.715540E-05 +4.828459E-03 +7.263000E-05 -7.296846E-05 +7.263000E-05 +1.680999E-04 
 +1.943772E-04 -1.462627E-04 -1.282275E-04 -1.462627E-04 +5.091953E-03 +5.850996E-05 -1.282275E-04 +5.850996E-05 +1.152728E-05 
 +1.043368E-04 -8.197258E-05 -5.363332E-05 -8.197258E-05 +5.258776E-03 +1.416858E-06 -5.363332E-05 +1.416858E-06 -5.253831E-05 
 -3.078140E-05 -1.167629E-04 -4.317380E-05 -1.167629E-04 +5.325368E-03 -6.372628E-05 -4.317380E-05 -6.372628E-05 -1.121984E-04 
 -2.729449E-05 -9.905037E-05 +8.661840E-06 -9.905037E-05 +5.349964E-03 -7.011041E-05 +8.661840E-06 -7.011041E-05 -1.015454E-04 
 -6.975172E-05 -1.117916E-04 -4.800377E-05 -1.117916E-04 +5.327217E-03 -1.034628E-04 -4.800377E-05 -1.034628E-04 -7.092339E-06 
 -1.579084E-04 -1.006540E-04 -1.884677E-04 -1.006540E-04 +5.290682E-03 -1.710584E-04 -1.884677E-04 -1.710584E-04 +1.352547E-04 
 -9.769081E-05 -9.248124E-05 -2.862460E-04 -9.248124E-05 +5.211305E-03 -2.279522E-04 -2.862460E-04 -2.279522E-04 +9.687110E-05 
 +8.607566E-05 -1.208260E-04 -3.567284E-04 -1.208260E-04 +5.118178E-03 -1.381266E-04 -3.567284E-04 -1.381266E-04 -9.245186E-05 
 +2.419874E-04 -1.107806E-04 -2.675565E-04 -1.107806E-04 +5.040932E-03 +1.454575E-05 -2.675565E-04 +1.454575E-05 -1.698976E-04 
 +1.765280E-04 -8.983926E-05 -3.372053E-04 -8.983926E-05 +5.031810E-03 +3.846402E-05 -3.372053E-04 +3.846402E-05 -3.516355E-05 
 -9.250118E-07 -8.421533E-05 +1.972066E-04 -8.421533E-05 +5.091517E-03 -1.952505E-05 +1.972066E-04 -1.952505E-05 -1.098420E-05 
 -6.440364E-05 -1.223571E-04 +1.494714E-04 -1.223571E-04 +5.230068E-03 -5.767927E-05 +1.494714E-04 -5.767927E-05 -1.507085E-04 
 -1.317968E-04 -1.243837E-04 +2.024702E-04 -1.243837E-04 +5.180269E-03 -4.895732E-05 +2.024702E-04 -4.895732E-05 -6.750499E-05 
 +2.090777E-04 -3.066744E-04 -1.753282E-04 -3.066744E-04 +4.881078E-03 +3.008126E-05 -1.753282E-04 +3.008126E-05 +8.073289E-06 
 +1.953234E-04 -3.125726E-04 +1.755485E-05 -3.125726E-04 +4.787788E-03 +9.430505E-05 +1.755485E-05 +9.430505E-05 +5.662056E-05 
 +2.273906E-06 -2.128090E-04 +2.217263E-05 -2.128090E-04 +4.909330E-03 +9.059221E-05 +2.217263E-05 +9.059221E-05 +1.524704E-04 
 -1.533339E-04 -1.386609E-04 +2.450432E-05 -1.386609E-04 +5.016322E-03 +6.730614E-05 +2.450432E-05 +6.730614E-05 +1.955576E-04 
 -2.348317E-04 -5.344971E-06 -8.002249E-05 -5.344971E-06 +5.015735E-03 +4.909271E-05 -8.002249E-05 +4.909271E-05 +2.165073E-04 
 -1.333233E-04 +3.714268E-05 -1.129046E-04 +3.714268E-05 +4.931439E-03 +4.516394E-05 -1.129046E-04 +4.516394E-05 +2.277831E-04 
 -8.005896E-05 +3.800130E-06 -1.362267E-04 +3.800130E-06 +4.877488E-03 +4.846412E-05 -1.362267E-04 +4.846412E-05 +2.587067E-04 
 -2.772618E-05 -6.900982E-05 -1.358356E-04 -6.900982E-05 +4.910997E-03 +5.088814E-05 -1.358356E-04 +5.088814E-05 +1.572896E-04 
 -9.893892E-05 -1.294713E-04 -1.311200E-04 -1.294713E-04 +5.138373E-03 -5.516358E-05 -1.311200E-04 -5.516358E-05 -2.348097E-05 
 +7.464710E-05 -5.952168E-05 -2.183910E-04 -5.952168E-05 +5.256060E-03 -2.609382E-05 -2.183910E-04 -2.609382E-05 -3.081334E-05 
 +1.632627E-05 -1.135798E-04 -1.281072E-04 -1.135798E-04 +5.296464E-03 -4.390177E-05 -1.281072E-04 -4.390177E-05 -6.016354E-05 
 +3.450333E-05 -1.426529E-04 -7.679248E-05 -1.426529E-04 +5.300303E-03 -8.543777E-05 -7.679248E-05 -8.543777E-05 -3.672698E-05 
 +1.100885E-05 -1.431517E-04 -1.248410E-04 -1.431517E-04 +5.274999E-03 -1.318636E-04 -1.248410E-04 -1.318636E-04 +3.503137E-05 
 -9.760057E-05 -1.059669E-04 -3.392540E-04 -1.059669E-04 +5.217063E-03 -1.645539E-04 -3.392540E-04 -1.645539E-04 +1.292590E-04 
 -4.861676E-05 -4.253825E-05 -3.922006E-04 -4.253825E-05 +5.169689E-03 -1.599121E-04 -3.922006E-04 -1.599121E-04 +1.308181E-04 
 -3.168368E-05 -5.894175E-05 -2.636299E-04 -5.894175E-05 +5.109557E-03 -7.914173E-05 -2.636299E-04 -7.914173E-05 +3.686206E-05 
 -1.016911E-05 -9.393182E-05 -1.832175E-04 -9.393182E-05 +5.078562E-03 -4.010740E-07 -1.832175E-04 -4.010740E-07 -4.325751E-05 
 +3.436817E-05 -1.182418E-04 -2.537955E-04 -1.182418E-04 +5.031758E-03 +1.400079E-04 -2.537955E-04 +1.400079E-04 +3.942937E-05 
 +5.812873E-05 -1.161496E-04 +4.246277E-05 -1.161496E-04 +4.886579E-03 +2.331944E-04 +4.246277E-05 +2.331944E-04 +5.357333E-05 
 +7.668695E-05 -4.724319E-05 +2.922396E-05 -4.724319E-05 +4.794773E-03 +1.460145E-04 +2.922396E-05 +1.460145E-04 -1.370867E-05 
 +1.714017E-04 -1.748433E-04 +6.185214E-05 -1.748433E-04 +4.702543E-03 +7.028184E-05 +6.185214E-05 +7.028184E-05 +1.704271E-05 
 +2.300312E-04 -2.794035E-04 -4.256035E-05 -2.794035E-04 +4.692585E-03 +7.473288E-05 -4.256035E-05 +7.473288E-05 +5.361212E-05 
 +1.738998E-04 -2.343545E-04 +3.139827E-05 -2.343545E-04 +4.787095E-03 +8.815019E-05 +3.139827E-05 +8.815019E-05 +8.319972E-05 
 +1.531097E-04 -2.365359E-04 +3.228602E-05 -2.365359E-04 +4.778056E-03 +5.466916E-05 +3.228602E-05 +5.466916E-05 +1.389589E-04 
 +1.032372E-04 -2.469402E-04 +2.597074E-05 -2.469402E-04 +4.818507E-03 +4.370544E-05 +2.597074E-05 +4.370544E-05 +1.879500E-04 
 -2.186664E-04 -7.317766E-05 -9.474443E-05 -7.317766E-05 +4.943855E-03 +4.317056E-05 -9.474443E-05 +4.317056E-05 +2.090806E-04 
 -2.639408E-04 -1.721759E-05 -1.134094E-04 -1.721759E-05 +4.979591E-03 -1.550267E-06 -1.134094E-04 -1.550267E-06 +2.289832E-04 
 -2.062937E-04 -6.055384E-05 -1.729638E-04 -6.055384E-05 +4.961880E-03 -5.530181E-05 -1.729638E-04 -5.530181E-05 +2.660145E-04 
 -1.614539E-04 -1.345350E-04 -1.421999E-04 -1.345350E-04 +5.013203E-03 -8.531704E-05 -1.421999E-04 -8.531704E-05 +1.151718E-04 
 -2.319058E-04 -6.250922E-05 +2.204625E-05 -6.250922E-05 +5.103540E-03 -1.286460E-04 +2.204625E-05 -1.286460E-04 +6.455996E-05 
 +9.248701E-05 +2.678632E-05 -2.053324E-04 +2.678632E-05 +5.039826E-03 -1.927344E-04 -2.053324E-04 -1.927344E-04 +2.792655E-05 
 +6.111799E-05 +2.750586E-07 -1.462718E-04 +2.750586E-07 +5.044422E-03 -1.766303E-04 -1.462718E-04 -1.766303E-04 +2.953277E-05 
 +9.830038E-05 -2.926663E-05 -1.260925E-04 -2.926663E-05 +5.041299E-03 -2.106153E-04 -1.260925E-04 -2.106153E-04 +2.668045E-05 
 +1.262899E-04 -1.859972E-05 -1.504417E-04 -1.859972E-05 +5.059979E-03 -2.641948E-04 -1.504417E-04 -2.641948E-04 +2.984604E-05 
 +1.902724E-05 -1.040749E-05 -3.812022E-04 -1.040749E-05 +5.071321E-03 -2.321854E-04 -3.812022E-04 -2.321854E-04 +9.238242E-05 
 +2.233980E-05 +3.602496E-05 -3.238851E-04 +3.602496E-05 +5.005977E-03 -1.098593E-04 -3.238851E-04 -1.098593E-04 +2.098592E-04 
 -1.894461E-04 +2.900722E-05 -1.586507E-04 +2.900722E-05 +5.038968E-03 -3.098412E-05 -1.586507E-04 -3.098412E-05 +2.441816E-04 
 -3.098675E-04 -1.973310E-05 -1.814144E-04 -1.973310E-05 +5.028559E-03 -2.149259E-05 -1.814144E-04 -2.149259E-05 +1.812500E-04 
 +4.713760E-05 -1.972886E-05 -2.159863E-04 -1.972886E-05 +4.802358E-03 +3.619164E-05 -2.159863E-04 +3.619164E-05 +8.667111E-05 
 +1.033097E-04 +9.008491E-05 -2.074914E-05 +9.008491E-05 +4.622077E-03 +7.974814E-05 -2.074914E-05 +7.974814E-05 +4.794767E-05 
 +1.819262E-04 +1.582409E-04 +2.913303E-05 +1.582409E-04 +4.585778E-03 +5.425239E-05 +2.913303E-05 +5.425239E-05 +1.013239E-04 
 +2.606834E-04 -1.769619E-04 +2.765226E-05 -1.769619E-04 +4.584358E-03 +8.927452E-05 +2.765226E-05 +8.927452E-05 +7.838548E-05 
 +2.396165E-04 -2.675978E-04 +6.253535E-05 -2.675978E-04 +4.659853E-03 +1.291787E-04 +6.253535E-05 +1.291787E-04 +9.905439E-06 
 +2.161044E-04 -2.314845E-04 +6.031038E-05 -2.314845E-04 +4.760888E-03 +8.677031E-05 +6.031038E-05 +8.677031E-05 +2.393816E-05 
 +1.714507E-04 -2.105538E-04 +8.957069E-05 -2.105538E-04 +4.797088E-03 +3.805859E-05 +8.957069E-05 +3.805859E-05 +7.189918E-05 
 +1.722625E-04 -2.282321E-04 +7.447710E-05 -2.282321E-04 +4.796501E-03 +5.590304E-06 +7.447710E-05 +5.590304E-06 +5.139502E-05 
 -6.101386E-05 -1.414891E-04 -5.801451E-06 -1.414891E-04 +4.823067E-03 -2.994318E-06 -5.801451E-06 -2.994318E-06 +9.788834E-05 
 -3.982482E-04 -8.456303E-05 -7.691852E-05 -8.456303E-05 +4.956556E-03 -3.036456E-05 -7.691852E-05 -3.036456E-05 +2.014205E-04 
 -2.975860E-04 -1.042363E-04 -1.599323E-04 -1.042363E-04 +5.053707E-03 -5.391661E-05 -1.599323E-04 -5.391661E-05 +2.386191E-04 
 -3.241684E-04 -8.323692E-05 -1.591461E-05 -8.323692E-05 +5.103083E-03 -5.779859E-05 -1.591461E-05 -5.779859E-05 +1.656938E-04 
 -2.743641E-04 +1.190800E-05 +8.064811E-05 +1.190800E-05 +5.101707E-03 -1.254767E-04 +8.064811E-05 -1.254767E-04 +1.349604E-04 
 +2.494946E-05 +8.223241E-05 -1.210449E-04 +8.223241E-05 +4.979451E-03 -2.019743E-04 -1.210449E-04 -2.019743E-04 +8.950973E-05 
 +1.507655E-04 +7.275600E-05 -2.305070E-04 +7.275600E-05 +4.923195E-03 -1.853064E-04 -2.305070E-04 -1.853064E-04 +7.051601E-05 
 +2.045733E-04 +3.254898E-05 -2.310268E-04 +3.254898E-05 +4.939017E-03 -2.121979E-04 -2.310268E-04 -2.121979E-04 -5.022337E-07 
 +2.193950E-04 +9.441718E-05 -2.445371E-04 +9.441718E-05 +4.935219E-03 -3.139165E-04 -2.445371E-04 -3.139165E-04 -2.159851E-05 
 +1.835584E-04 +7.593958E-05 -3.188661E-04 +7.593958E-05 +4.946135E-03 -2.861497E-04 -3.188661E-04 -2.861497E-04 +9.455392E-05 
 -1.171554E-04 +6.420132E-05 -1.567580E-04 +6.420132E-05 +4.975092E-03 -5.235351E-05 -1.567580E-04 -5.235351E-05 +2.760091E-04 
 -3.104924E-04 +7.179622E-05 -1.555518E-04 +7.179622E-05 +5.054186E-03 +4.858516E-05 -1.555518E-04 +4.858516E-05 +2.887038E-04 
 -3.106491E-04 +3.350434E-05 -2.441497E-04 +3.350434E-05 +5.070549E-03 +2.878990E-05 -2.441497E-04 +2.878990E-05 +1.434225E-04 
 +5.555732E-05 -9.733723E-06 -2.813378E-04 -9.733723E-06 +4.859694E-03 +3.420601E-05 -2.813378E-04 +3.420601E-05 +2.565674E-05 
 +7.106269E-05 +9.504653E-05 -5.209542E-05 +9.504653E-05 +4.610171E-03 +3.975355E-05 -5.209542E-05 +3.975355E-05 +8.315105E-05 
 +9.649536E-05 +1.321917E-04 +7.928290E-05 +1.321917E-04 +4.511114E-03 +5.336326E-05 +7.928290E-05 +5.336326E-05 +2.229501E-04 
 +2.006911E-04 -1.119130E-04 +8.031659E-05 -1.119130E-04 +4.654221E-03 +9.816095E-05 +8.031659E-05 +9.816095E-05 +1.230668E-04 
 +2.824746E-04 -2.107502E-04 +1.251183E-04 -2.107502E-04 +4.795677E-03 +1.105520E-04 +1.251183E-04 +1.105520E-04 -8.039162E-05 
 +2.783955E-04 -2.158441E-04 +7.682408E-05 -2.158441E-04 +4.755463E-03 +8.808776E-05 +7.682408E-05 +8.808776E-05 -5.482343E-05 
 +2.424568E-04 -1.896537E-04 +1.050447E-04 -1.896537E-04 +4.778768E-03 +7.212467E-05 +1.050447E-04 +7.212467E-05 -9.038139E-06 
 +1.834114E-04 -1.549984E-04 +1.073191E-04 -1.549984E-04 +4.905534E-03 -1.970576E-05 +1.073191E-04 -1.970576E-05 -9.878780E-05 
 -2.266119E-05 -1.613602E-05 +8.583186E-05 -1.613602E-05 +5.095942E-03 -1.356421E-04 +8.583186E-05 -1.356421E-04 -3.804693E-05 
 -3.577153E-04 -9.916395E-06 +6.007849E-05 -9.916395E-06 +5.114564E-03 -1.009766E-04 +6.007849E-05 -1.009766E-04 +1.622883E-04 
 -4.173790E-04 -4.309790E-07 +2.069973E-05 -4.309790E-07 +5.063637E-03 +2.534461E-06 +2.069973E-05 +2.534461E-06 +2.657167E-04 
 -3.834162E-04 +2.567819E-05 +9.650370E-05 +2.567819E-05 +5.123841E-03 -4.892709E-06 +9.650370E-05 -4.892709E-06 +2.339234E-04 
 -3.058918E-04 +5.316711E-05 +7.969817E-05 +5.316711E-05 +5.176578E-03 -6.097278E-05 +7.969817E-05 -6.097278E-05 +1.531943E-04 
 -1.599747E-04 +9.800194E-06 -1.272180E-06 +9.800194E-06 +5.136126E-03 -1.000097E-04 -1.272180E-06 -1.000097E-04 +1.440691E-04 
 +2.601045E-04 +4.559627E-05 -3.085858E-04 +4.559627E-05 +4.958857E-03 -1.736639E-04 -3.085858E-04 -1.736639E-04 +7.703373E-05 
 +3.346020E-04 +2.652097E-05 -3.397948E-04 +2.652097E-05 +4.844966E-03 -2.519064E-04 -3.397948E-04 -2.519064E-04 +1.099722E-05 
 +3.120829E-04 +9.382285E-05 -3.730234E-04 +9.382285E-05 +4.815931E-03 -3.166799E-04 -3.730234E-04 -3.166799E-04 +1.015263E-04 
 +2.718484E-04 +6.335362E-05 -2.270380E-04 +6.335362E-05 +4.854037E-03 -2.580571E-04 -2.270380E-04 -2.580571E-04 +2.008811E-04 
 -2.778552E-04 +9.069115E-05 -7.587221E-05 +9.069115E-05 +4.991225E-03 -6.956327E-05 -7.587221E-05 -6.956327E-05 +3.233642E-04 
 -4.305735E-04 +1.060877E-04 -1.814755E-04 +1.060877E-04 +5.054067E-03 +1.030686E-04 -1.814755E-04 +1.030686E-04 +2.892454E-04 
 -7.078810E-05 -1.834432E-05 -2.604012E-04 -1.834432E-05 +4.957851E-03 +1.682691E-04 -2.604012E-04 +1.682691E-04 +9.552635E-05 
 -9.572646E-06 -3.034942E-05 -2.871486E-04 -3.034942E-05 +4.947716E-03 +1.253635E-04 -2.871486E-04 +1.253635E-04 -2.981018E-06 
 -3.404186E-05 +3.563703E-05 -1.406208E-04 +3.563703E-05 +4.836648E-03 +6.479278E-05 -1.406208E-04 +6.479278E-05 +7.915165E-05 
 -5.627795E-05 +1.591963E-04 +5.731412E-05 +1.591963E-04 +4.590405E-03 +6.880307E-05 +5.731412E-05 +6.880307E-05 +2.568622E-04 
 +1.331994E-04 +4.138682E-05 +1.029222E-04 +4.138682E-05 +4.585586E-03 +1.767274E-04 +1.029222E-04 +1.767274E-04 +2.092530E-04 
 +2.296948E-04 -3.069307E-04 +6.676307E-05 -3.069307E-04 +4.604574E-03 +1.579672E-04 +6.676307E-05 +1.579672E-04 +7.142745E-06 
 +2.904198E-04 -3.120780E-04 +6.269431E-05 -3.120780E-04 +4.612484E-03 +6.507886E-05 +6.269431E-05 +6.507886E-05 -8.228083E-05 
 +2.908716E-04 -2.363186E-04 +4.555034E-05 -2.363186E-04 +4.803992E-03 -4.295236E-06 +4.555034E-05 -4.295236E-06 -1.244131E-04 
 +2.241592E-04 -2.340119E-04 +1.562963E-04 -2.340119E-04 +5.040806E-03 -8.621031E-05 +1.562963E-04 -8.621031E-05 -1.557566E-04 
 +5.575569E-05 -1.358644E-04 +1.231353E-04 -1.358644E-04 +5.109360E-03 -1.367452E-04 +1.231353E-04 -1.367452E-04 -1.359340E-04 
 -1.390597E-04 -1.242947E-04 +1.444146E-04 -1.242947E-04 +5.058869E-03 -1.233113E-04 +1.444146E-04 -1.233113E-04 +1.592391E-05 
 -5.179790E-04 +5.943089E-05 +1.151182E-04 +5.943089E-05 +5.084409E-03 -4.683426E-05 +1.151182E-04 -4.683426E-05 +2.499945E-04 
 -4.006530E-04 +1.029115E-04 +8.851798E-05 +1.029115E-04 +5.128746E-03 -4.002066E-05 +8.851798E-05 -4.002066E-05 +2.717778E-04 
 -2.837360E-04 -2.439159E-05 +6.140937E-05 -2.439159E-05 +5.221058E-03 -1.808995E-05 +6.140937E-05 -1.808995E-05 +1.555116E-04 
 -9.905475E-05 -2.134668E-05 -2.160625E-05 -2.134668E-05 +5.168957E-03 -5.756211E-05 -2.160625E-05 -5.756211E-05 +1.483108E-04 
 +3.220023E-04 +9.552959E-05 -3.435643E-04 +9.552959E-05 +4.944704E-03 -2.012987E-04 -3.435643E-04 -2.012987E-04 +1.214951E-04 
 +3.209325E-04 +6.406317E-05 -3.810734E-04 +6.406317E-05 +4.784583E-03 -3.060801E-04 -3.810734E-04 -3.060801E-04 +1.314926E-04 
 +3.374409E-04 +4.395725E-05 -3.565051E-04 +4.395725E-05 +4.730099E-03 -2.503224E-04 -3.565051E-04 -2.503224E-04 +1.639708E-04 
 +2.900740E-04 +7.476502E-05 -1.611076E-04 +7.476502E-05 +4.809614E-03 -1.441231E-04 -1.611076E-04 -1.441231E-04 +1.640797E-04 
 -3.452366E-04 +1.258823E-04 -8.948818E-05 +1.258823E-04 +5.011201E-03 -3.044070E-05 -8.948818E-05 -3.044070E-05 +3.374288E-04 
 -4.666226E-04 +3.493122E-05 -1.519024E-04 +3.493122E-05 +5.039266E-03 +8.866523E-05 -1.519024E-04 +8.866523E-05 +3.446327E-04 
 +4.355429E-05 -8.968681E-05 -2.397241E-04 -8.968681E-05 +4.942615E-03 +1.276654E-04 -2.397241E-04 +1.276654E-04 +1.265817E-04 
 +1.268061E-05 -6.681600E-05 -2.410430E-04 -6.681600E-05 +4.940215E-03 +1.277861E-04 -2.410430E-04 +1.277861E-04 +2.737877E-05 
 -3.758925E-05 -5.311459E-05 -1.963289E-04 -5.311459E-05 +4.977610E-03 +7.754406E-05 -1.963289E-04 +7.754406E-05 +1.040940E-04 
 -3.115423E-04 +4.876058E-05 -2.678937E-05 +4.876058E-05 +4.894159E-03 +7.198070E-05 -2.678937E-05 +7.198070E-05 +2.999890E-04 
 +1.203206E-04 +7.071227E-05 +5.350007E-05 +7.071227E-05 +4.796141E-03 +1.653667E-04 +5.350007E-05 +1.653667E-04 +2.459253E-04 
 +1.546709E-04 -1.929366E-04 -7.955855E-05 -1.929366E-04 +4.870169E-03 +1.270331E-04 -7.955855E-05 +1.270331E-04 +1.695568E-05 
 +2.304052E-04 -1.456696E-04 -5.506807E-06 -1.456696E-04 +4.985035E-03 +2.448371E-05 -5.506807E-06 +2.448371E-05 -1.347994E-04 
 +2.263090E-04 -1.392284E-04 -7.535376E-05 -1.392284E-04 +5.013685E-03 -2.179917E-06 -7.535376E-05 -2.179917E-06 -2.131678E-04 
 +2.346984E-04 -1.722824E-04 +1.393379E-04 -1.722824E-04 +5.001507E-03 -9.658705E-05 +1.393379E-04 -9.658705E-05 -1.586701E-04 
 +1.969542E-04 -1.482534E-04 +1.894729E-04 -1.482534E-04 +5.007705E-03 -1.820792E-04 +1.894729E-04 -1.820792E-04 -1.620426E-04 
 +8.811588E-05 -1.604200E-04 +1.251035E-04 -1.604200E-04 +5.053484E-03 -1.203884E-04 +1.251035E-04 -1.203884E-04 -8.483392E-05 
 -5.559740E-04 -7.553921E-06 +1.055894E-04 -7.553921E-06 +5.124222E-03 -4.239813E-05 +1.055894E-04 -4.239813E-05 +1.965750E-04 
 -4.783434E-04 -3.031775E-05 +7.154849E-05 -3.031775E-05 +5.161861E-03 -3.550644E-05 +7.154849E-05 -3.550644E-05 +2.677769E-04 
 -9.288707E-05 +8.988889E-05 -1.395095E-05 +8.988889E-05 +4.817419E-03 -1.199392E-04 -1.395095E-05 -1.199392E-04 +1.922152E-04 
 +1.153529E-04 +5.780319E-05 -1.250996E-04 +5.780319E-05 +4.640707E-03 -1.377273E-04 -1.250996E-04 -1.377273E-04 +1.975357E-04 
 +2.234411E-04 +7.423705E-05 -2.827139E-04 +7.423705E-05 +4.613691E-03 -1.673592E-04 -2.827139E-04 -1.673592E-04 +1.986849E-04 
 +1.393921E-04 +6.032886E-05 -3.210273E-04 +6.032886E-05 +4.701936E-03 -1.519827E-04 -3.210273E-04 -1.519827E-04 +2.894405E-04 
 +1.809636E-04 -3.581388E-05 -3.143339E-04 -3.581388E-05 +4.855476E-03 -5.917087E-05 -3.143339E-04 -5.917087E-05 +2.452234E-04 
 +2.819118E-04 -4.605742E-05 -2.109091E-04 -4.605742E-05 +4.945281E-03 -4.364231E-05 -2.109091E-04 -4.364231E-05 +1.825692E-04 
 -2.464836E-04 +7.740229E-05 -1.528589E-04 +7.740229E-05 +4.993027E-03 -2.923927E-05 -1.528589E-04 -2.923927E-05 +3.570550E-04 
 -4.071836E-04 -4.617264E-05 -1.452319E-04 -4.617264E-05 +4.975096E-03 +5.872544E-05 -1.452319E-04 +5.872544E-05 +3.866661E-04 
 -1.013710E-05 -1.303306E-04 -1.889477E-04 -1.303306E-04 +4.979254E-03 +1.084858E-04 -1.889477E-04 +1.084858E-04 +1.497715E-04 
 +7.715018E-05 -1.533142E-04 -1.979209E-04 -1.533142E-04 +4.965851E-03 +1.041871E-04 -1.979209E-04 +1.041871E-04 +2.351329E-05 
 -6.691288E-05 -1.260866E-04 -1.775209E-04 -1.260866E-04 +4.983673E-03 +6.738808E-05 -1.775209E-04 +6.738808E-05 +1.699730E-04 
 -4.036264E-04 -7.247837E-05 -1.053966E-04 -7.247837E-05 +5.007032E-03 +5.348071E-05 -1.053966E-04 +5.348071E-05 +3.498038E-04 
 +1.419189E-04 +6.169485E-05 -6.964864E-05 +6.169485E-05 +4.847099E-03 +6.655004E-05 -6.964864E-05 +6.655004E-05 +1.874891E-04 
 +1.703953E-04 -1.149086E-04 -1.807597E-04 -1.149086E-04 +4.843760E-03 +7.027125E-05 -1.807597E-04 +7.027125E-05 -3.574235E-05 
 +1.967912E-04 -6.471765E-05 -7.802006E-05 -6.471765E-05 +4.981512E-03 +4.153753E-05 -7.802006E-05 +4.153753E-05 -1.359060E-04 
 +1.677981E-04 -4.508766E-06 -1.326115E-04 -4.508766E-06 +5.038034E-03 +5.424992E-05 -1.326115E-04 +5.424992E-05 -2.410934E-04 
 +1.648302E-04 -4.665413E-05 -6.627063E-05 -4.665413E-05 +5.052849E-03 -4.673137E-05 -6.627063E-05 -4.673137E-05 -1.849242E-04 
 +1.891692E-04 -1.439337E-04 +2.708300E-04 -1.439337E-04 +5.023099E-03 -1.694109E-04 +2.708300E-04 -1.694109E-04 -1.726997E-04 
 +8.585369E-05 -2.095283E-04 +1.914870E-04 -2.095283E-04 +5.095842E-03 -8.456653E-05 +1.914870E-04 -8.456653E-05 -1.925625E-04 
 -3.989592E-04 -7.136946E-05 +1.302661E-04 -7.136946E-05 +5.210018E-03 -7.332075E-05 +1.302661E-04 -7.332075E-05 +1.972278E-05 
 -5.088212E-04 -1.493168E-05 +1.148873E-04 -1.493168E-05 +5.098556E-03 -1.279498E-04 +1.148873E-04 -1.279498E-04 +1.615119E-04 
 -1.647718E-05 +1.545158E-04 -9.292052E-05 +1.545158E-04 +4.771141E-03 -1.407985E-04 -9.292052E-05 -1.407985E-04 +1.219302E-04 
 +5.026219E-05 +1.053772E-04 -1.170072E-04 +1.053772E-04 +4.669723E-03 -2.109973E-04 -1.170072E-04 -2.109973E-04 +1.805160E-04 
 +4.961785E-05 +2.415246E-05 -1.628929E-04 +2.415246E-05 +4.689247E-03 -2.377082E-04 -1.628929E-04 -2.377082E-04 +1.567046E-04 
 -6.379639E-05 +7.877885E-05 -1.788173E-04 +7.877885E-05 +4.641818E-03 -1.713537E-04 -1.788173E-04 -1.713537E-04 +3.267221E-04 
 +5.000440E-05 +8.262019E-05 -2.580726E-04 +8.262019E-05 +4.671238E-03 -8.238720E-05 -2.580726E-04 -8.238720E-05 +4.182307E-04 
 +1.634255E-04 +6.214754E-05 -2.096557E-04 +6.214754E-05 +4.720273E-03 -3.658651E-05 -2.096557E-04 -3.658651E-05 +3.289029E-04 
 -5.526069E-05 +1.195091E-04 -1.621182E-04 +1.195091E-04 +4.743883E-03 -6.986349E-07 -1.621182E-04 -6.986349E-07 +3.419504E-04 
 -2.966779E-04 -6.294987E-06 -1.316704E-04 -6.294987E-06 +4.889438E-03 +1.271626E-05 -1.316704E-04 +1.271626E-05 +3.597580E-04 
 -1.212204E-04 -6.880159E-05 -7.801063E-05 -6.880159E-05 +5.032824E-03 +2.410187E-05 -7.801063E-05 +2.410187E-05 +1.768772E-04 
 +8.962414E-05 -1.797308E-04 -1.395847E-04 -1.797308E-04 +5.089404E-03 +4.287828E-05 -1.395847E-04 +4.287828E-05 +1.004369E-05 
 -1.798258E-04 -1.419821E-04 -1.236893E-04 -1.419821E-04 +5.069173E-03 +7.461801E-06 -1.236893E-04 +7.461801E-06 +1.571796E-04 
 -2.256127E-04 -8.238485E-05 -1.565154E-04 -8.238485E-05 +5.071337E-03 -7.117738E-05 -1.565154E-04 -7.117738E-05 +2.916660E-04 
 +1.287986E-04 -7.574428E-06 -1.415724E-04 -7.574428E-06 +5.054001E-03 -9.919628E-05 -1.415724E-04 -9.919628E-05 +1.113778E-04 
 +2.383667E-04 -3.502726E-06 -2.383939E-04 -3.502726E-06 +4.939744E-03 -3.469374E-05 -2.383939E-04 -3.469374E-05 -8.702583E-05 
 +2.200388E-04 +6.017967E-05 -1.762643E-04 +6.017967E-05 +4.944107E-03 -3.017813E-06 -1.762643E-04 -3.017813E-06 -1.691098E-04 
 +1.728065E-04 +8.571238E-05 -1.764862E-04 +8.571238E-05 +5.038635E-03 -2.819997E-05 -1.764862E-04 -2.819997E-05 -2.287548E-04 
 +8.648094E-05 +6.193783E-05 -2.636795E-04 +6.193783E-05 +5.138753E-03 -5.537764E-05 -2.636795E-04 -5.537764E-05 -1.888415E-04 
 +7.685722E-05 +3.402452E-05 +3.069359E-04 +3.402452E-05 +5.282248E-03 -2.135350E-05 +3.069359E-04 -2.135350E-05 -2.462415E-04 
 -2.756827E-05 +4.019903E-06 +2.755311E-04 +4.019903E-06 +5.370319E-03 +5.227475E-05 +2.755311E-04 +5.227475E-05 -3.663447E-04 
 -7.206314E-05 +7.056528E-05 +1.344357E-04 +7.056528E-05 +5.299271E-03 +1.295145E-06 +1.344357E-04 +1.295145E-06 -2.813017E-04 
 -2.679263E-04 +6.513109E-05 +7.774199E-05 +6.513109E-05 +5.074610E-03 -9.513927E-05 +7.774199E-05 -9.513927E-05 -1.086691E-04 
 -1.193616E-04 -4.710758E-05 -5.328129E-05 -4.710758E-05 +5.048421E-03 +1.341668E-04 -5.328129E-05 +1.341668E-04 +4.214335E-05 
 -1.281189E-04 +3.014062E-05 -8.465170E-05 +3.014062E-05 +5.028345E-03 +1.106695E-04 -8.465170E-05 +1.106695E-04 +1.369061E-04 
 -7.593017E-05 -3.526629E-05 -1.332609E-04 -3.526629E-05 +5.029406E-03 +6.644491E-05 -1.332609E-04 +6.644491E-05 +1.089738E-04 
 -1.047807E-04 +1.826063E-05 -5.423083E-05 +1.826063E-05 +4.874962E-03 +7.683579E-05 -5.423083E-05 +7.683579E-05 +1.948167E-04 
 +5.089461E-05 +2.368138E-04 -1.269800E-04 +2.368138E-04 +4.761188E-03 +3.613399E-05 -1.269800E-04 +3.613399E-05 +2.621559E-04 
 +9.853547E-06 +1.764954E-04 -9.907019E-05 +1.764954E-04 +4.810187E-03 +1.005285E-06 -9.907019E-05 +1.005285E-06 +2.451382E-04 
 -1.988668E-05 +1.900677E-04 -1.071910E-04 +1.900677E-04 +4.726278E-03 +3.950118E-06 -1.071910E-04 +3.950118E-06 +2.633062E-04 
 -1.074588E-04 +1.447999E-04 -1.108555E-04 +1.447999E-04 +4.669030E-03 +1.474966E-05 -1.108555E-04 +1.474966E-05 +2.718360E-04 
 -9.785018E-05 +1.262333E-04 -6.022927E-05 +1.262333E-04 +4.745778E-03 +8.235576E-06 -6.022927E-05 +8.235576E-06 +1.686225E-04 
 -3.778483E-05 +8.920933E-05 -8.221483E-05 +8.920933E-05 +4.909105E-03 -1.690744E-06 -8.221483E-05 -1.690744E-06 +6.162937E-05 
 -2.054950E-04 -7.563045E-06 -8.011734E-05 -7.563045E-06 +4.976776E-03 -6.498513E-05 -8.011734E-05 -6.498513E-05 +1.124240E-04 
 -8.921341E-05 +7.794134E-05 -1.127272E-04 +7.794134E-05 +4.816860E-03 -9.626099E-05 -1.127272E-04 -9.626099E-05 +1.645643E-04 
 +1.538388E-04 +1.151209E-04 -3.382024E-05 +1.151209E-04 +4.706893E-03 -2.801330E-05 -3.382024E-05 -2.801330E-05 +5.550743E-05 
 +2.396106E-04 +1.213582E-04 -2.339803E-04 +1.213582E-04 +4.837937E-03 -2.153708E-05 -2.339803E-04 -2.153708E-05 -1.779494E-04 
 +2.278942E-04 +1.472560E-04 -2.416335E-04 +1.472560E-04 +5.018482E-03 -2.719109E-05 -2.416335E-04 -2.719109E-05 -3.059879E-04 
 +1.429427E-04 +1.504431E-04 -2.670910E-04 +1.504431E-04 +5.069706E-03 -3.340207E-05 -2.670910E-04 -3.340207E-05 -2.640302E-04 
 +6.310695E-05 +1.450545E-04 -3.402448E-04 +1.450545E-04 +5.141143E-03 -3.455438E-05 -3.402448E-04 -3.455438E-05 -1.699006E-04 
 +6.976917E-06 +1.408925E-04 +2.869066E-04 +1.408925E-04 +5.312684E-03 +1.473886E-05 +2.869066E-04 +1.473886E-05 -3.170372E-04 
 -2.374100E-06 +8.277457E-05 +2.749666E-04 +8.277457E-05 +5.415361E-03 +3.996811E-05 +2.749666E-04 +3.996811E-05 -5.308931E-04 
 +1.140934E-04 +7.133147E-05 +1.611568E-04 +7.133147E-05 +5.331707E-03 +7.097557E-05 +1.611568E-04 +7.097557E-05 -5.027304E-04 
 -2.115278E-05 -1.055356E-04 +3.902291E-05 -1.055356E-04 +5.151976E-03 +1.029210E-04 +3.902291E-05 +1.029210E-04 -2.854252E-04 
 -1.158755E-04 -1.097759E-04 +3.787701E-05 -1.097759E-04 +5.056272E-03 +8.287006E-05 +3.787701E-05 +8.287006E-05 -6.843820E-06 
 -2.024138E-04 +5.555514E-05 -4.803515E-05 +5.555514E-05 +5.067088E-03 +7.123760E-05 -4.803515E-05 +7.123760E-05 +7.378908E-05 
 -1.355674E-04 +1.095313E-05 -1.282339E-04 +1.095313E-05 +5.036460E-03 +3.817864E-05 -1.282339E-04 +3.817864E-05 +4.012328E-05 
 -5.456760E-05 -3.617842E-05 -1.945534E-05 -3.617842E-05 +4.926507E-03 -9.396216E-06 -1.945534E-05 -9.396216E-06 +1.853521E-05 
 +1.552223E-05 +2.752043E-04 -3.310708E-05 +2.752043E-04 +4.857850E-03 -4.900610E-05 -3.310708E-05 -4.900610E-05 +1.035069E-04 
 -2.812412E-05 +2.132334E-04 -4.528614E-05 +2.132334E-04 +4.841872E-03 -3.825223E-05 -4.528614E-05 -3.825223E-05 +1.802511E-04 
 -3.650254E-05 +2.262923E-04 -9.432177E-05 +2.262923E-04 +4.802676E-03 -3.456199E-05 -9.432177E-05 -3.456199E-05 +1.963603E-04 
 -1.479608E-05 +1.861886E-04 -1.119497E-04 +1.861886E-04 +4.756033E-03 -3.124336E-05 -1.119497E-04 -3.124336E-05 +2.003651E-04 
 -2.360387E-05 +1.166678E-04 -1.168205E-04 +1.166678E-04 +4.795243E-03 -2.364258E-05 -1.168205E-04 -2.364258E-05 +1.669345E-04 
 -1.085031E-04 +1.066714E-04 -9.739774E-05 +1.066714E-04 +4.874163E-03 +4.022030E-06 -9.739774E-05 +4.022030E-06 +1.344687E-04 
 -1.292669E-04 +2.190200E-05 -3.482751E-05 +2.190200E-05 +4.911851E-03 +1.371614E-05 -3.482751E-05 +1.371614E-05 +9.799794E-05 
 -9.176666E-06 +7.493861E-05 +5.340470E-05 +7.493861E-05 +4.920046E-03 +1.694837E-05 +5.340470E-05 +1.694837E-05 +9.348103E-06 
 +1.141023E-04 +1.500416E-04 +1.150021E-04 +1.500416E-04 +4.910958E-03 -2.417299E-05 +1.150021E-04 -2.417299E-05 -1.115218E-04 
 +1.744158E-04 +2.200083E-04 -7.011333E-05 +2.200083E-04 +4.901550E-03 -8.672041E-05 -7.011333E-05 -8.672041E-05 -2.581211E-04 
 +1.866963E-04 +2.352099E-04 -1.513081E-04 +2.352099E-04 +4.956074E-03 -8.064510E-05 -1.513081E-04 -8.064510E-05 -3.485752E-04 
 +9.120268E-05 +1.865464E-04 -3.032270E-04 +1.865464E-04 +5.120096E-03 -4.099860E-05 -3.032270E-04 -4.099860E-05 -2.737128E-04 
 -2.149587E-05 +1.615102E-04 -3.535085E-04 +1.615102E-04 +5.241182E-03 +2.273624E-05 -3.535085E-04 +2.273624E-05 -1.261996E-04 
 +8.394633E-06 +2.041699E-04 +1.657582E-04 +2.041699E-04 +5.330314E-03 +1.703245E-05 +1.657582E-04 +1.703245E-05 -1.849623E-04 
 +7.406638E-05 +5.447366E-05 +1.697334E-04 +5.447366E-05 +5.381736E-03 -5.139230E-06 +1.697334E-04 -5.139230E-06 -4.155931E-04 
 +1.367992E-04 -1.066479E-04 +1.840806E-04 -1.066479E-04 +5.259943E-03 +5.665752E-05 +1.840806E-04 +5.665752E-05 -4.557406E-04 
 +7.855911E-05 -2.845036E-04 +6.062236E-05 -2.845036E-04 +5.106362E-03 +8.706639E-05 +6.062236E-05 +8.706639E-05 -2.393196E-04 
 -1.822020E-05 -2.363967E-04 +7.958415E-05 -2.363967E-04 +5.110714E-03 +1.722635E-05 +7.958415E-05 +1.722635E-05 -8.213090E-05 
 -2.028096E-04 -2.262519E-05 -5.521018E-05 -2.262519E-05 +5.113982E-03 +2.648819E-05 -5.521018E-05 +2.648819E-05 +3.563635E-05 
 -7.799334E-05 -9.633633E-05 -1.297612E-04 -9.633633E-05 +5.076217E-03 -6.527792E-05 -1.297612E-04 -6.527792E-05 -6.811860E-05 
 -3.369163E-05 -6.838498E-05 -4.187496E-05 -6.838498E-05 +5.005840E-03 -7.103262E-05 -4.187496E-05 -7.103262E-05 -1.538865E-04 
 -2.055972E-05 +2.727120E-04 -9.675289E-05 +2.727120E-04 +4.948302E-03 -4.293352E-05 -9.675289E-05 -4.293352E-05 -5.242224E-05 
 -4.838270E-05 +2.038178E-04 -9.334628E-05 +2.038178E-04 +4.863768E-03 -6.644974E-05 -9.334628E-05 -6.644974E-05 +7.282306E-05 
 -2.840207E-05 +2.044873E-04 -4.799595E-05 +2.044873E-04 +4.856266E-03 -4.811505E-05 -4.799595E-05 -4.811505E-05 +1.242155E-04 
 -9.698016E-06 +1.659608E-04 -1.121972E-04 +1.659608E-04 +4.845096E-03 -1.542639E-05 -1.121972E-04 -1.542639E-05 +1.387843E-04 
 -1.201779E-05 +1.789998E-04 -1.254729E-04 +1.789998E-04 +4.817982E-03 -7.770227E-06 -1.254729E-04 -7.770227E-06 +1.311638E-04 
 -4.375925E-05 +1.699645E-04 -1.198596E-04 +1.699645E-04 +4.821527E-03 +1.092492E-05 -1.198596E-04 +1.092492E-05 +1.096645E-04 
 -4.696768E-05 +9.294602E-05 -2.585779E-06 +9.294602E-05 +4.884260E-03 +1.315006E-05 -2.585779E-06 +1.315006E-05 +4.842494E-05 
 +9.955444E-06 +7.407491E-05 +1.657554E-04 +7.407491E-05 +4.977571E-03 -2.733886E-05 +1.657554E-04 -2.733886E-05 -8.458485E-05 
 +8.216159E-05 +1.451448E-04 +1.416140E-04 +1.451448E-04 +5.022433E-03 -6.671414E-05 +1.416140E-04 -6.671414E-05 -2.011100E-04 
 +1.254971E-04 +2.088055E-04 +5.657077E-05 +2.088055E-04 +5.038649E-03 -1.114131E-04 +5.657077E-05 -1.114131E-04 -2.333188E-04 
 +9.765645E-05 +2.471020E-04 -4.221518E-05 +2.471020E-04 +5.024673E-03 -1.935706E-04 -4.221518E-05 -1.935706E-04 -1.894131E-04 
 +2.746093E-05 +2.806017E-04 -1.589603E-04 +2.806017E-04 +5.097853E-03 -1.614534E-04 -1.589603E-04 -1.614534E-04 -6.458454E-05 
 -9.232187E-05 +1.649430E-04 -2.753012E-04 +1.649430E-04 +5.134748E-03 -1.559605E-05 -2.753012E-04 -1.559605E-05 +9.081922E-05 
 +2.404191E-05 +1.954249E-04 -2.594353E-05 +1.954249E-04 +4.954387E-03 -2.155236E-05 -2.594353E-05 -2.155236E-05 +2.172403E-04 
 +4.869339E-05 +9.065954E-05 -5.052332E-06 +9.065954E-05 +4.953950E-03 -5.942305E-05 -5.052332E-06 -5.942305E-05 +1.507185E-04 
 +8.875235E-05 -2.049876E-04 +9.077342E-05 -2.049876E-04 +5.084844E-03 -2.654613E-05 +9.077342E-05 -2.654613E-05 -9.878266E-05 
 +1.305443E-04 -3.726641E-04 +5.599276E-05 -3.726641E-04 +5.116357E-03 -2.726511E-05 +5.599276E-05 -2.726511E-05 -2.073354E-04 
 +5.610367E-05 -2.367323E-04 +4.985126E-05 -2.367323E-04 +5.107514E-03 -9.355853E-05 +4.985126E-05 -9.355853E-05 -1.344460E-04 
 -1.092485E-04 +6.837688E-06 -8.673448E-05 +6.837688E-06 +5.077078E-03 -1.222108E-04 -8.673448E-05 -1.222108E-04 -4.903064E-05 
 -3.684313E-05 -9.808200E-05 -8.415673E-05 -9.808200E-05 +5.057863E-03 -9.375556E-05 -8.415673E-05 -9.375556E-05 -1.358380E-04 
 -5.365696E-05 -1.039984E-04 -3.791423E-05 -1.039984E-04 +5.124723E-03 -2.392156E-05 -3.791423E-05 -2.392156E-05 -2.131627E-04 
 -6.847227E-05 +1.710208E-04 -1.684836E-04 +1.710208E-04 +5.244201E-03 +3.664084E-05 -1.684836E-04 +3.664084E-05 -2.465318E-04 
 -3.867699E-05 +5.269407E-05 -1.537710E-04 +5.269407E-05 +5.214131E-03 +5.790085E-05 -1.537710E-04 +5.790085E-05 -1.399020E-04 
 +3.260611E-05 +1.266177E-04 -1.664726E-05 +1.266177E-04 +4.961181E-03 +3.536893E-05 -1.664726E-05 +3.536893E-05 +1.480325E-05 
 +5.524399E-05 +1.698923E-04 -1.185395E-04 +1.698923E-04 +4.815815E-03 +6.322752E-06 -1.185395E-04 +6.322752E-06 +6.905917E-05 
 +1.638339E-05 +2.110289E-04 -1.380621E-04 +2.110289E-04 +4.815089E-03 +9.893395E-06 -1.380621E-04 +9.893395E-06 +7.985902E-05 
 -3.379235E-06 +1.864150E-04 -1.177083E-04 +1.864150E-04 +4.836347E-03 +1.979640E-06 -1.177083E-04 +1.979640E-06 +8.436903E-05 
 -3.170837E-05 +1.291250E-04 -1.009065E-05 +1.291250E-04 +4.905153E-03 +1.370103E-06 -1.009065E-05 +1.370103E-06 +1.972876E-05 
 +1.811567E-06 +8.768194E-05 +1.581252E-04 +8.768194E-05 +4.994025E-03 -2.105925E-05 +1.581252E-04 -2.105925E-05 -1.234604E-04 
 +6.342325E-05 +1.268687E-04 +1.160137E-04 +1.268687E-04 +5.044604E-03 -6.634672E-05 +1.160137E-04 -6.634672E-05 -2.033671E-04 
 +6.946726E-05 +1.728934E-04 +3.975872E-05 +1.728934E-04 +5.041112E-03 -1.006892E-04 +3.975872E-05 -1.006892E-04 -1.888589E-04 
 +2.871377E-05 +2.168422E-04 -1.726213E-05 +2.168422E-04 +5.024593E-03 -1.367984E-04 -1.726213E-05 -1.367984E-04 -5.169699E-05 
 -4.191479E-05 +2.351611E-04 +2.385088E-06 +2.351611E-04 +4.888254E-03 -1.728250E-04 +2.385088E-06 -1.728250E-04 +1.543079E-04 
 -3.532626E-05 +1.604892E-04 -1.137308E-04 +1.604892E-04 +4.765347E-03 -1.651333E-04 -1.137308E-04 -1.651333E-04 +3.377771E-04 
 -2.812603E-05 +1.729240E-04 -5.580544E-05 +1.729240E-04 +4.766932E-03 -1.345180E-04 -5.580544E-05 -1.345180E-04 +4.546547E-04 
 +5.123805E-06 +1.896926E-04 -1.300111E-05 +1.896926E-04 +4.744896E-03 -1.024305E-04 -1.300111E-05 -1.024305E-04 +4.804763E-04 
 +3.347835E-05 -7.076546E-05 +2.650001E-05 -7.076546E-05 +4.879202E-03 -1.092888E-04 +2.650001E-05 -1.092888E-04 +2.215808E-04 
 +8.492865E-05 -3.074336E-04 +3.662180E-05 -3.074336E-04 +5.057973E-03 -1.003131E-04 +3.662180E-05 -1.003131E-04 -1.337659E-04 
 +2.614693E-05 -2.311143E-04 -1.068999E-05 -2.311143E-04 +5.137639E-03 -5.209466E-05 -1.068999E-05 -5.209466E-05 -1.879921E-04 
 -8.365576E-06 -1.602202E-04 -9.367035E-05 -1.602202E-04 +5.151764E-03 -3.560763E-05 -9.367035E-05 -3.560763E-05 -1.906403E-04 
 -1.213122E-05 -1.732002E-04 -6.651947E-05 -1.732002E-04 +5.126237E-03 -3.782743E-05 -6.651947E-05 -3.782743E-05 -1.984302E-04 
 -4.477400E-05 -1.361450E-04 -3.206168E-05 -1.361450E-04 +5.097436E-03 -5.794703E-05 -3.206168E-05 -5.794703E-05 -1.521446E-04 
 -1.083060E-05 +2.689209E-04 -1.313151E-04 +2.689209E-04 +4.949753E-03 -5.059424E-05 -1.313151E-04 -5.059424E-05 -1.194453E-04 
 +6.346924E-05 +1.862253E-04 -1.405459E-04 +1.862253E-04 +4.896173E-03 +1.729570E-05 -1.405459E-04 +1.729570E-05 -8.765667E-05 
 +7.562013E-05 +2.016178E-04 -1.202616E-04 +2.016178E-04 +4.940716E-03 +5.167347E-05 -1.202616E-04 +5.167347E-05 -3.423017E-05 
 +4.512690E-06 +1.499333E-04 -1.562612E-04 +1.499333E-04 +4.836053E-03 +3.291853E-05 -1.562612E-04 +3.291853E-05 +2.458622E-05 
 +6.487411E-05 +2.232909E-04 -1.057752E-04 +2.232909E-04 +4.781550E-03 +3.962660E-05 -1.057752E-04 +3.962660E-05 +5.587514E-05 
 -8.404690E-06 +1.927794E-04 -1.136480E-04 +1.927794E-04 +4.851067E-03 +2.379322E-05 -1.136480E-04 +2.379322E-05 +8.739877E-05 
 -1.950273E-05 +1.670799E-04 -2.197340E-05 +1.670799E-04 +4.899822E-03 +9.097907E-06 -2.197340E-05 +9.097907E-06 +2.275501E-05 
 +1.654508E-05 +1.402140E-04 +1.116520E-04 +1.402140E-04 +4.993262E-03 -8.630188E-06 +1.116520E-04 -8.630188E-06 -1.591907E-04 
 +1.513206E-05 +1.602020E-04 +6.037327E-05 +1.602020E-04 +5.080369E-03 -5.539992E-05 +6.037327E-05 -5.539992E-05 -2.456966E-04 
 -4.657634E-09 +1.311790E-04 -4.859156E-06 +1.311790E-04 +5.066389E-03 -9.761395E-05 -4.859156E-06 -9.761395E-05 -1.870844E-04 
 -2.557493E-05 +1.873511E-04 -5.060098E-06 +1.873511E-04 +5.000818E-03 -9.940709E-05 -5.060098E-06 -9.940709E-05 -4.064726E-06 
 -7.125298E-05 +1.575030E-04 +2.529161E-05 +1.575030E-04 +4.940821E-03 -9.864484E-05 +2.529161E-05 -9.864484E-05 +2.047665E-04 
 +1.024657E-05 +1.143922E-04 +1.606935E-06 +1.143922E-04 +4.825230E-03 -1.076663E-04 +1.606935E-06 -1.076663E-04 +3.456083E-04 
 -4.273795E-05 +1.465529E-04 +3.125969E-05 +1.465529E-04 +4.771629E-03 -9.546042E-05 +3.125969E-05 -9.546042E-05 +4.005784E-04 
 -4.265745E-05 +1.602675E-04 +9.467402E-05 +1.602675E-04 +4.766185E-03 -7.775819E-05 +9.467402E-05 -7.775819E-05 +4.361416E-04 
 +2.376190E-06 +2.858293E-05 +4.785622E-05 +2.858293E-05 +4.828347E-03 -1.328398E-04 +4.785622E-05 -1.328398E-04 +3.121299E-04 
 +7.148781E-06 -2.519160E-04 +1.868445E-05 -2.519160E-04 +4.991292E-03 -1.256603E-04 +1.868445E-05 -1.256603E-04 -2.723494E-05 
 -4.866080E-06 -1.784601E-04 -3.667201E-05 -1.784601E-04 +5.138832E-03 -6.331405E-05 -3.667201E-05 -6.331405E-05 -1.899409E-04 
 +5.152958E-05 -1.128217E-04 -8.242405E-05 -1.128217E-04 +5.149349E-03 -5.794245E-05 -8.242405E-05 -5.794245E-05 -2.722295E-04 
 +2.463499E-05 -1.079202E-04 -8.414843E-05 -1.079202E-04 +5.162789E-03 -6.263853E-05 -8.414843E-05 -6.263853E-05 -2.534028E-04 
 -5.155722E-06 -2.114284E-04 -3.093768E-05 -2.114284E-04 +5.107352E-03 -9.543234E-05 -3.093768E-05 -9.543234E-05 -1.297694E-04 
 +1.010704E-04 +7.689338E-05 -1.016737E-04 +7.689338E-05 +4.940639E-03 -7.194477E-05 -1.016737E-04 -7.194477E-05 -1.457447E-05 
 +1.638608E-04 +5.863333E-05 -1.420855E-04 +5.863333E-05 +4.824673E-03 +1.571581E-05 -1.420855E-04 +1.571581E-05 -2.511994E-05 
 +1.392856E-04 +1.823196E-04 -1.839831E-04 +1.823196E-04 +4.963682E-03 +7.453409E-05 -1.839831E-04 +7.453409E-05 -6.855039E-05 
 -1.159980E-04 +2.088626E-05 -2.181858E-04 +2.088626E-05 +5.013894E-03 +1.214772E-04 -2.181858E-04 +1.214772E-04 +8.771986E-06 
 +9.288648E-05 +1.942113E-04 -5.476606E-05 +1.942113E-04 +4.813388E-03 +1.127175E-04 -5.476606E-05 +1.127175E-04 +5.576881E-05 
 +8.802692E-05 +2.534167E-04 -6.763318E-05 +2.534167E-04 +4.784186E-03 +7.702620E-05 -6.763318E-05 +7.702620E-05 +7.472831E-05 
 +1.237169E-06 +2.693855E-04 -7.551173E-05 +2.693855E-04 +4.872120E-03 +7.622328E-05 -7.551173E-05 +7.622328E-05 -3.155050E-05 
 -3.580488E-06 +2.825382E-04 -9.696957E-06 +2.825382E-04 +5.022698E-03 +4.383853E-05 -9.696957E-06 +4.383853E-05 -2.324235E-04 
 -2.753357E-05 +2.002734E-04 -5.481160E-05 +2.002734E-04 +5.145993E-03 -1.186429E-05 -5.481160E-05 -1.186429E-05 -2.661398E-04 
 -8.305775E-05 +1.452655E-04 -1.094729E-04 +1.452655E-04 +5.117659E-03 -7.081980E-05 -1.094729E-04 -7.081980E-05 -1.692190E-04 
 -1.471940E-04 +1.139593E-04 -8.920467E-05 +1.139593E-04 +4.941818E-03 -1.628130E-04 -8.920467E-05 -1.628130E-04 +3.377285E-05 
 -4.634970E-05 +1.043634E-04 +2.300969E-05 +1.043634E-04 +4.762217E-03 -1.973067E-04 +2.300969E-05 -1.973067E-04 +2.040286E-04 
 -1.325618E-05 +8.692085E-05 +5.554986E-05 +8.692085E-05 +4.766826E-03 -1.345473E-04 +5.554986E-05 -1.345473E-04 +2.812657E-04 
 -4.027263E-05 +1.486604E-04 +7.345424E-05 +1.486604E-04 +4.802901E-03 -9.144678E-05 +7.345424E-05 -9.144678E-05 +3.280103E-04 
 -5.701045E-05 +1.356178E-04 +1.338655E-04 +1.356178E-04 +4.806733E-03 -8.539139E-05 +1.338655E-04 -8.539139E-05 +3.795223E-04 
 -5.810780E-05 +8.961489E-05 +6.498931E-05 +8.961489E-05 +4.833812E-03 -1.352646E-04 +6.498931E-05 -1.352646E-04 +3.323267E-04 
 -6.039297E-05 -1.753954E-04 -3.974230E-06 -1.753954E-04 +5.002270E-03 -1.239313E-04 -3.974230E-06 -1.239313E-04 +6.649899E-05 
 +7.799801E-05 -1.857821E-04 -4.466869E-05 -1.857821E-04 +5.055207E-03 -1.045819E-04 -4.466869E-05 -1.045819E-04 -1.665798E-04 
 +1.016276E-04 -1.214061E-04 -3.941814E-05 -1.214061E-04 +5.084202E-03 -4.581089E-05 -3.941814E-05 -4.581089E-05 -2.499903E-04 
 +8.956701E-05 -1.037470E-04 -2.138891E-05 -1.037470E-04 +5.072784E-03 -3.316738E-05 -2.138891E-05 -3.316738E-05 -1.678498E-04 
 +4.402315E-05 -1.412811E-04 -3.813887E-05 -1.412811E-04 +5.058400E-03 -8.119489E-05 -3.813887E-05 -8.119489E-05 -4.205686E-05 
 +7.916052E-05 +6.460029E-05 -1.166911E-04 +6.460029E-05 +4.924357E-03 -1.002662E-04 -1.166911E-04 -1.002662E-04 +9.113314E-05 
 +2.038401E-04 +1.326528E-04 -2.072132E-04 +1.326528E-04 +4.816491E-03 +3.123099E-06 -2.072132E-04 +3.123099E-06 +9.178256E-05 
 +2.272573E-04 +2.540605E-04 -1.758983E-04 +2.540605E-04 +4.844417E-03 +5.000371E-05 -1.758983E-04 +5.000371E-05 +3.794188E-06 
 -8.638588E-05 +5.292436E-05 -2.280626E-04 +5.292436E-05 +4.973938E-03 +1.495798E-04 -2.280626E-04 +1.495798E-04 +6.052169E-05 
 +6.732745E-06 +9.921835E-05 -2.347963E-05 +9.921835E-05 +4.991179E-03 +2.754461E-04 -2.347963E-05 +2.754461E-04 +2.740513E-05 
 +1.644927E-04 +2.362775E-04 -5.641586E-05 +2.362775E-04 +4.921005E-03 +1.777329E-04 -5.641586E-05 +1.777329E-04 -7.722687E-05 
 -4.893855E-05 +1.722683E-04 -1.706230E-04 +1.722683E-04 +5.120861E-03 +7.187507E-05 -1.706230E-04 +7.187507E-05 -2.106447E-04 
 -5.192790E-05 +1.380944E-04 -1.846495E-04 +1.380944E-04 +5.249576E-03 +3.839837E-05 -1.846495E-04 +3.839837E-05 -3.289838E-04 
 -4.227646E-05 +1.011929E-05 -1.712678E-04 +1.011929E-05 +5.228110E-03 +5.481372E-06 -1.712678E-04 +5.481372E-06 -2.828270E-04 
 -1.317389E-04 -5.314740E-05 -2.341582E-04 -5.314740E-05 +5.184566E-03 -3.447025E-05 -2.341582E-04 -3.447025E-05 -1.612204E-04 
 -1.926483E-04 -9.843964E-05 -2.809276E-04 -9.843964E-05 +5.043400E-03 -1.404080E-04 -2.809276E-04 -1.404080E-04 +5.078346E-05 
 -5.204709E-05 -1.312955E-05 +6.835184E-05 -1.312955E-05 +4.775402E-03 -1.558522E-04 +6.835184E-05 -1.558522E-04 +2.096258E-04 
 -4.906953E-05 +8.488990E-05 +8.851709E-05 +8.488990E-05 +4.704542E-03 -9.416251E-05 +8.851709E-05 -9.416251E-05 +2.713249E-04 
 -5.136254E-05 +9.187950E-05 +1.202633E-04 +9.187950E-05 +4.809639E-03 -7.792922E-05 +1.202633E-04 -7.792922E-05 +2.744896E-04 
 -9.014578E-05 +6.111537E-05 +1.148472E-04 +6.111537E-05 +4.850067E-03 -1.061411E-04 +1.148472E-04 -1.061411E-04 +2.762637E-04 
 -1.223865E-04 -6.510045E-06 +3.902548E-05 -6.510045E-06 +4.870562E-03 -2.043994E-04 +3.902548E-05 -2.043994E-04 +2.586233E-04 
 -7.600334E-05 -1.174257E-04 -1.550141E-05 -1.174257E-04 +4.949278E-03 -2.080392E-04 -1.550141E-05 -2.080392E-04 +9.215863E-05 
 +1.661842E-04 -1.983853E-04 +1.092049E-05 -1.983853E-04 +4.874360E-03 -1.033034E-04 +1.092049E-05 -1.033034E-04 -1.050033E-04 
 +1.461239E-04 -1.448614E-04 -9.391933E-06 -1.448614E-04 +4.867331E-03 -2.295210E-05 -9.391933E-06 -2.295210E-05 -1.021200E-04 
 +2.005551E-04 -1.675655E-04 -1.475115E-05 -1.675655E-04 +4.818582E-03 +1.287422E-05 -1.475115E-05 +1.287422E-05 -2.162226E-06 
 +1.670810E-04 -1.389984E-04 -8.232775E-05 -1.389984E-04 +4.893144E-03 +1.185684E-05 -8.232775E-05 +1.185684E-05 +4.860874E-05 
 +1.461558E-04 -4.618933E-05 -1.555639E-04 -4.618933E-05 +4.908593E-03 -1.817452E-05 -1.555639E-04 -1.817452E-05 +1.842188E-04 
 +1.745237E-04 +2.212383E-04 -1.574635E-04 +2.212383E-04 +4.818948E-03 -8.561059E-06 -1.574635E-04 -8.561059E-06 +1.850067E-04 
 +1.609064E-04 +2.813939E-04 -5.842284E-05 +2.813939E-04 +4.851052E-03 +9.020077E-05 -5.842284E-05 +9.020077E-05 +9.286755E-05 
 -7.399395E-05 +7.323913E-05 -1.491457E-04 +7.323913E-05 +4.943501E-03 +2.127716E-04 -1.491457E-04 +2.127716E-04 +7.564727E-05 
 -9.977649E-05 +1.498083E-06 -3.138463E-05 +1.498083E-06 +5.136731E-03 +2.328054E-04 -3.138463E-05 +2.328054E-04 -6.983212E-05 
 +8.575324E-06 +1.260413E-04 -1.368652E-04 +1.260413E-04 +5.264367E-03 +1.094243E-04 -1.368652E-04 +1.094243E-04 -2.584671E-04 
 -4.783799E-05 +1.153568E-04 -2.109236E-04 +1.153568E-04 +5.246103E-03 -9.592514E-06 -2.109236E-04 -9.592514E-06 -3.643506E-04 
 -2.268035E-05 +8.471892E-05 -2.389067E-04 +8.471892E-05 +5.218886E-03 -1.208793E-05 -2.389067E-04 -1.208793E-05 -3.607324E-04 
 -2.624451E-05 +6.102354E-06 -2.441281E-04 +6.102354E-06 +5.201774E-03 +1.021088E-05 -2.441281E-04 +1.021088E-05 -2.933700E-04 
 -9.919747E-05 -5.482800E-05 -3.406485E-04 -5.482800E-05 +5.155523E-03 -3.744187E-05 -3.406485E-04 -3.744187E-05 -1.382579E-04 
 -2.293811E-04 -1.583675E-04 -3.005133E-04 -1.583675E-04 +5.093843E-03 -4.851756E-06 -3.005133E-04 -4.851756E-06 +5.833941E-05 
 -1.478602E-04 -2.696658E-04 +4.492891E-05 -2.696658E-04 +4.933177E-03 +1.720480E-05 +4.492891E-05 +1.720480E-05 +1.782704E-04 
 -1.145064E-04 -1.130970E-05 +3.754640E-05 -1.130970E-05 +4.743383E-03 -3.334183E-05 +3.754640E-05 -3.334183E-05 +2.211006E-04 
 -9.620437E-05 -8.971273E-06 +1.049641E-04 -8.971273E-06 +4.786179E-03 -2.057577E-05 +1.049641E-04 -2.057577E-05 +1.937198E-04 
 -1.245095E-04 -6.320661E-05 +1.186747E-04 -6.320661E-05 +4.887789E-03 -4.952587E-05 +1.186747E-04 -4.952587E-05 +1.241878E-04 
 -1.146903E-04 -9.071310E-05 +2.941495E-05 -9.071310E-05 +4.924945E-03 -1.449237E-04 +2.941495E-05 -1.449237E-04 +9.358877E-05 
 +2.665158E-05 -1.421669E-04 +4.608766E-05 -1.421669E-04 +4.907437E-03 -1.866015E-04 +4.608766E-05 -1.866015E-04 +3.239303E-05 
 +2.107576E-04 -1.405614E-04 +8.924981E-05 -1.405614E-04 +4.784840E-03 -1.275501E-04 +8.924981E-05 -1.275501E-04 -3.138537E-05 
 +2.179008E-04 -1.372168E-04 +1.540806E-05 -1.372168E-04 +4.784278E-03 -1.036931E-04 +1.540806E-05 -1.036931E-04 -1.120495E-05 
 +2.407510E-04 -1.505267E-04 -6.593641E-05 -1.505267E-04 +4.783462E-03 -2.069846E-05 -6.593641E-05 -2.069846E-05 +3.904227E-05 
 +2.309277E-04 -1.142202E-04 -1.132964E-04 -1.142202E-04 +4.798250E-03 +6.499492E-05 -1.132964E-04 +6.499492E-05 +8.767304E-05 
 +2.711591E-04 -1.263221E-04 -1.820870E-04 -1.263221E-04 +4.893819E-03 +1.193476E-04 -1.820870E-04 +1.193476E-04 +1.535727E-04 
 +1.081918E-04 +1.185984E-04 +7.526707E-05 +1.185984E-04 +5.071405E-03 +1.130878E-04 +7.526707E-05 +1.130878E-04 +7.949426E-05 
 +4.399702E-05 +1.579889E-04 +1.580404E-04 +1.579889E-04 +5.125974E-03 +1.111171E-04 +1.580404E-04 +1.111171E-04 +3.067646E-05 
 -1.214395E-04 +4.252849E-05 -1.118531E-04 +4.252849E-05 +5.163603E-03 +8.373580E-05 -1.118531E-04 +8.373580E-05 -2.264980E-05 
 -1.628741E-04 +2.539981E-05 -1.335298E-04 +2.539981E-05 +5.283302E-03 -9.340536E-06 -1.335298E-04 -9.340536E-06 -1.468051E-04 
 -9.714935E-05 +1.125056E-04 -1.397527E-04 +1.125056E-04 +5.317667E-03 -2.204250E-05 -1.397527E-04 -2.204250E-05 -2.482651E-04 
 +2.746988E-05 +1.402007E-04 -1.798676E-04 +1.402007E-04 +5.239382E-03 +5.180044E-06 -1.798676E-04 +5.180044E-06 -3.637947E-04 
 +6.615215E-05 +1.035249E-04 -2.270904E-04 +1.035249E-04 +5.170432E-03 -1.013360E-05 -2.270904E-04 -1.013360E-05 -3.632524E-04 
 +3.482498E-05 +5.715337E-05 -2.708991E-04 +5.715337E-05 +5.151266E-03 -3.266476E-05 -2.708991E-04 -3.266476E-05 -2.539383E-04 
 -8.206393E-05 -6.175304E-05 -3.226616E-04 -6.175304E-05 +5.130111E-03 -1.026101E-05 -3.226616E-04 -1.026101E-05 -8.992975E-05 
 -3.281433E-04 -1.399386E-04 -1.284587E-04 -1.399386E-04 +5.108154E-03 +6.011373E-05 -1.284587E-04 +6.011373E-05 +4.351873E-05 
 -3.034651E-04 -2.103571E-04 -2.985397E-05 -2.103571E-04 +5.233005E-03 +6.790094E-05 -2.985397E-05 +6.790094E-05 +1.236256E-04 
 -3.124249E-04 -1.137768E-04 -5.390561E-06 -1.137768E-04 +5.218849E-03 +4.668336E-05 -5.390561E-06 +4.668336E-05 +1.603095E-04 
 -2.365396E-04 -1.101613E-04 +5.319176E-05 -1.101613E-04 +4.974238E-03 +4.711799E-05 +5.319176E-05 +4.711799E-05 +1.349826E-04 
 -2.466907E-05 -1.406705E-04 +1.153952E-04 -1.406705E-04 +4.859613E-03 -7.259848E-05 +1.153952E-04 -7.259848E-05 +5.150613E-05 
 +3.082950E-05 -5.904424E-05 +1.238245E-04 -5.904424E-05 +4.882116E-03 -1.936874E-04 +1.238245E-04 -1.936874E-04 +3.435240E-05 
 +1.858819E-04 -1.451629E-04 +1.642327E-04 -1.451629E-04 +4.837426E-03 -1.612765E-04 +1.642327E-04 -1.612765E-04 +7.962812E-06 
 +2.312020E-04 -9.104280E-05 +1.091910E-04 -9.104280E-05 +4.749541E-03 -1.088300E-04 +1.091910E-04 -1.088300E-04 +2.982032E-05 
 +2.557536E-04 -1.207987E-04 +2.667566E-05 -1.207987E-04 +4.772618E-03 -1.073026E-04 +2.667566E-05 -1.073026E-04 +2.705336E-05 
 +2.926663E-04 -1.290281E-04 -8.204150E-05 -1.290281E-04 +4.780620E-03 -2.890766E-05 -8.204150E-05 -2.890766E-05 +3.927830E-05 
 +2.328345E-04 -9.292883E-05 -1.040954E-04 -9.292883E-05 +4.750589E-03 +6.551087E-05 -1.040954E-04 +6.551087E-05 +1.347747E-04 
 +1.558687E-04 -5.575056E-05 -8.700332E-05 -5.575056E-05 +4.874398E-03 +1.738247E-04 -8.700332E-05 +1.738247E-04 +1.905137E-04 
 +3.725446E-05 +6.397795E-05 +2.204522E-04 +6.397795E-05 +5.079810E-03 +1.362377E-04 +2.204522E-04 +1.362377E-04 +1.293475E-04 
 +3.326713E-05 +7.063831E-05 +2.065979E-04 +7.063831E-05 +5.150457E-03 -5.609706E-06 +2.065979E-04 -5.609706E-06 +6.700962E-05 
 -1.041612E-04 +5.010193E-05 -1.845202E-04 +5.010193E-05 +5.190401E-03 -5.209805E-05 -1.845202E-04 -5.209805E-05 -6.072672E-05 
 -1.482179E-04 +8.325236E-05 -2.325495E-04 +8.325236E-05 +5.237115E-03 -6.440489E-05 -2.325495E-04 -6.440489E-05 -1.585289E-04 
 -5.148271E-05 +1.471659E-04 -9.900003E-05 +1.471659E-04 +5.236973E-03 -5.381022E-05 -9.900003E-05 -5.381022E-05 -2.082887E-04 
 +4.629441E-05 +1.548169E-04 -1.384113E-04 +1.548169E-04 +5.199353E-03 -4.698304E-05 -1.384113E-04 -4.698304E-05 -3.304407E-04 
 +1.189698E-04 +1.049143E-04 -2.214504E-04 +1.049143E-04 +5.147623E-03 -3.264203E-05 -2.214504E-04 -3.264203E-05 -3.595725E-04 
 +9.570672E-05 +4.165571E-05 -2.634644E-04 +4.165571E-05 +5.107080E-03 -4.904376E-05 -2.634644E-04 -4.904376E-05 -1.628273E-04 
 -1.909104E-04 -1.072625E-04 -1.156474E-04 -1.072625E-04 +5.116740E-03 +2.166602E-05 -1.156474E-04 +2.166602E-05 -9.082156E-06 
 -3.806622E-04 -2.059927E-04 -3.775384E-05 -2.059927E-04 +5.182963E-03 +7.150786E-05 -3.775384E-05 +7.150786E-05 +2.133913E-05 
 -4.250147E-04 -2.292465E-04 -2.062687E-05 -2.292465E-04 +5.239692E-03 +4.065836E-05 -2.062687E-05 +4.065836E-05 +7.829866E-05 
 -4.141969E-04 -1.551648E-04 +2.827807E-05 -1.551648E-04 +5.200624E-03 +2.254399E-05 +2.827807E-05 +2.254399E-05 +1.219090E-04 
 -2.753536E-04 -1.828533E-05 +4.208869E-05 -1.828533E-05 +4.962471E-03 +1.376022E-05 +4.208869E-05 +1.376022E-05 +1.266103E-04 
 +4.357991E-05 +4.895055E-05 +5.331542E-05 +4.895055E-05 +4.649734E-03 +6.993398E-05 +5.331542E-05 +6.993398E-05 +7.129306E-05 
 +1.603937E-04 +1.437472E-04 +1.289713E-04 +1.437472E-04 +4.592337E-03 +2.603711E-05 +1.289713E-04 +2.603711E-05 +7.458916E-05 
 +2.863495E-04 -1.012933E-04 +2.025357E-04 -1.012933E-04 +4.703612E-03 -7.119458E-05 +2.025357E-04 -7.119458E-05 +3.879376E-05 
 +2.808352E-04 -9.384349E-05 +9.588556E-05 -9.384349E-05 +4.732443E-03 -9.564033E-05 +9.588556E-05 -9.564033E-05 +5.103811E-05 
 +3.342741E-04 -6.981421E-05 +3.961883E-06 -6.981421E-05 +4.729416E-03 -6.312106E-05 +3.961883E-06 -6.312106E-05 +5.462943E-05 
 +3.256759E-04 -6.952566E-05 -9.656321E-05 -6.952566E-05 +4.733665E-03 -9.944345E-06 -9.656321E-05 -9.944345E-06 +5.809795E-05 
 +1.173969E-04 -5.329045E-05 -5.691340E-05 -5.329045E-05 +4.899846E-03 +2.302256E-05 -5.691340E-05 +2.302256E-05 +1.208045E-04 
 -7.977788E-05 +9.199174E-07 +4.650062E-05 +9.199174E-07 +5.143939E-03 +8.685083E-05 +4.650062E-05 +8.685083E-05 +1.920009E-04 
 -4.550678E-05 +3.118447E-07 +1.677363E-04 +3.118447E-07 +5.154302E-03 +7.860842E-05 +1.677363E-04 +7.860842E-05 +2.524435E-04 
 +6.396732E-05 -2.145735E-06 +1.319646E-04 -2.145735E-06 +5.084994E-03 +2.020114E-05 +1.319646E-04 +2.020114E-05 +1.602514E-04 
 +7.782845E-06 +1.642375E-05 -2.777637E-04 +1.642375E-05 +5.112613E-03 -6.662795E-05 -2.777637E-04 -6.662795E-05 -6.032337E-05 
 -3.258255E-05 +8.432708E-05 -2.428040E-04 +8.432708E-05 +5.151021E-03 -1.278971E-04 -2.428040E-04 -1.278971E-04 -1.409894E-04 
 +3.599979E-05 +1.580055E-04 -1.470389E-04 +1.580055E-04 +5.173265E-03 -1.202329E-04 -1.470389E-04 -1.202329E-04 -1.841592E-04 
 +1.254958E-04 +2.100903E-04 -1.501557E-04 +2.100903E-04 +5.160081E-03 -1.316573E-04 -1.501557E-04 -1.316573E-04 -2.910358E-04 
 +9.453882E-05 +1.810533E-04 -6.590496E-05 +1.810533E-04 +5.144393E-03 -5.775435E-05 -6.590496E-05 -5.775435E-05 -3.079195E-04 
 +2.654029E-05 +7.437699E-05 -1.045680E-04 +7.437699E-05 +5.175282E-03 +4.034008E-05 -1.045680E-04 +4.034008E-05 -1.169882E-04 
 -3.236633E-04 -8.429703E-05 +1.146472E-04 -8.429703E-05 +5.268732E-03 +7.688961E-05 +1.146472E-04 +7.688961E-05 -5.423530E-05 
 -4.867485E-04 -2.055272E-04 -1.150285E-06 -2.055272E-04 +5.315588E-03 +5.599565E-05 -1.150285E-06 +5.599565E-05 -2.613574E-05 
 -4.241899E-04 -2.563070E-04 +4.787366E-05 -2.563070E-04 +5.196441E-03 +2.760031E-05 +4.787366E-05 +2.760031E-05 +7.159896E-05 
 -2.457231E-04 -1.378424E-04 +8.635857E-06 -1.378424E-04 +5.029535E-03 -1.983312E-05 +8.635857E-06 -1.983312E-05 +6.629694E-05 
 -1.345901E-04 +2.591676E-06 -2.522574E-05 +2.591676E-06 +4.966244E-03 -1.075741E-04 -2.522574E-05 -1.075741E-04 +5.177893E-05 
 -1.529267E-05 +9.123352E-05 -8.901526E-06 +9.123352E-05 +4.931708E-03 -1.161011E-04 -8.901526E-06 -1.161011E-04 +4.094162E-05 
 +4.367521E-05 +1.693800E-04 -1.710530E-05 +1.693800E-04 +4.801706E-03 -7.989708E-05 -1.710530E-05 -7.989708E-05 +6.442966E-05 
 +3.319192E-04 -9.330574E-05 +1.435093E-04 -9.330574E-05 +4.716044E-03 -7.652023E-05 +1.435093E-04 -7.652023E-05 +4.788681E-05 
 +1.892763E-04 -6.047424E-05 -1.147234E-05 -6.047424E-05 +4.734911E-03 -3.760388E-06 -1.147234E-05 -3.760388E-06 +7.771621E-05 
 +2.279900E-04 +2.145568E-05 -1.310012E-04 +2.145568E-05 +4.778990E-03 +1.633349E-05 -1.310012E-04 +1.633349E-05 +4.665621E-05 
 +3.318182E-04 +3.036328E-05 -2.303399E-04 +3.036328E-05 +4.876397E-03 +5.244387E-05 -2.303399E-04 +5.244387E-05 +4.722758E-05 
 +4.042755E-06 +9.705417E-05 -1.772204E-05 +9.705417E-05 +5.151452E-03 +5.342845E-05 -1.772204E-05 +5.342845E-05 +9.901919E-05 
 -1.050373E-04 +5.851454E-05 +5.563140E-05 +5.851454E-05 +5.310737E-03 +3.614866E-05 +5.563140E-05 +3.614866E-05 +1.864475E-04 
 -7.535529E-05 +2.055496E-05 -1.779915E-05 +2.055496E-05 +5.338221E-03 +4.764475E-05 -1.779915E-05 +4.764475E-05 +1.471687E-04 
 +2.696379E-05 +2.788913E-05 -3.205475E-04 +2.788913E-05 +5.266389E-03 +1.342759E-05 -3.205475E-04 +1.342759E-05 -1.528229E-04 
 +4.052604E-05 +1.195389E-05 -4.200913E-04 +1.195389E-05 +5.151268E-03 -7.387588E-05 -4.200913E-04 -7.387588E-05 -1.823932E-04 
 +7.040322E-05 +8.451845E-05 -3.247554E-04 +8.451845E-05 +5.115239E-03 -1.175990E-04 -3.247554E-04 -1.175990E-04 -1.208808E-04 
 +1.557961E-04 +1.349579E-04 -2.652886E-04 +1.349579E-04 +5.096979E-03 -1.158960E-04 -2.652886E-04 -1.158960E-04 -1.499190E-04 
 +1.821866E-04 +1.755715E-04 -2.901363E-04 +1.755715E-04 +5.140085E-03 -8.404133E-05 -2.901363E-04 -8.404133E-05 -1.468287E-04 
 +1.569066E-04 +1.106344E-04 -2.444628E-04 +1.106344E-04 +5.205461E-03 -3.930256E-05 -2.444628E-04 -3.930256E-05 -2.195450E-04 
 -7.872980E-05 +3.494880E-05 -3.158529E-04 +3.494880E-05 +5.273960E-03 +6.181919E-05 -3.158529E-04 +6.181919E-05 -2.476214E-04 
 -1.789841E-04 -6.476849E-05 -4.385837E-04 -6.476849E-05 +5.420646E-03 +2.730879E-06 -4.385837E-04 +2.730879E-06 -2.308361E-04 
 -3.593005E-04 -2.722228E-04 -7.786800E-05 -2.722228E-04 +5.392700E-03 -8.908634E-05 -7.786800E-05 -8.908634E-05 -9.969544E-05 
 -4.594735E-04 -2.424323E-04 +5.130262E-05 -2.424323E-04 +5.145149E-03 -2.433063E-05 +5.130262E-05 -2.433063E-05 +6.698221E-05 
 -1.290484E-04 -1.264404E-04 +5.411565E-05 -1.264404E-04 +4.910317E-03 +3.331163E-05 +5.411565E-05 +3.331163E-05 +1.606689E-04 
 -8.249538E-05 -5.125065E-05 +8.459545E-05 -5.125065E-05 +4.748040E-03 +7.395807E-05 +8.459545E-05 +7.395807E-05 +2.159895E-04 
 -1.152484E-05 +3.814007E-05 +1.293427E-04 +3.814007E-05 +4.801520E-03 +8.048520E-05 +1.293427E-04 +8.048520E-05 +1.924191E-04 
 -1.062342E-04 +1.083747E-04 +1.924358E-05 +1.083747E-04 +4.828997E-03 +9.099937E-05 +1.924358E-05 +9.099937E-05 +1.502409E-04 
 +2.003077E-04 -1.290745E-04 +9.043471E-05 -1.290745E-04 +4.702584E-03 +5.869166E-05 +9.043471E-05 +5.869166E-05 +9.052500E-05 
 +3.128685E-04 +1.679771E-05 -1.341974E-04 +1.679771E-05 +4.942251E-03 +5.686968E-05 -1.341974E-04 +5.686968E-05 -5.756662E-05 
 +2.330866E-04 +4.683471E-05 -1.458512E-04 +4.683471E-05 +5.075509E-03 +3.214861E-05 -1.458512E-04 +3.214861E-05 -1.775539E-04 
 +1.728937E-04 -1.476532E-05 -1.973499E-04 -1.476532E-05 +5.256594E-03 +2.470530E-05 -1.973499E-04 +2.470530E-05 -1.332905E-04 
 -1.080983E-04 -8.364922E-05 +6.489534E-05 -8.364922E-05 +5.333703E-03 -5.368836E-06 +6.489534E-05 -5.368836E-06 -5.214055E-05 
 -2.055760E-04 -1.519341E-04 +1.266601E-04 -1.519341E-04 +5.358122E-03 -4.095471E-05 +1.266601E-04 -4.095471E-05 +9.934071E-05 
 -1.662695E-04 -1.366372E-04 -9.334984E-06 -1.366372E-04 +5.334504E-03 -6.606704E-05 -9.334984E-06 -6.606704E-05 +1.576531E-04 
 +1.826190E-05 -1.120812E-04 -3.743663E-04 -1.120812E-04 +5.232995E-03 -1.154611E-04 -3.743663E-04 -1.154611E-04 -1.413061E-04 
 +1.065393E-04 -6.749982E-05 -4.357789E-04 -6.749982E-05 +5.122472E-03 -1.154375E-04 -4.357789E-04 -1.154375E-04 -1.862770E-04 
 +1.386335E-04 +7.417299E-06 -3.612916E-04 +7.417299E-06 +5.036542E-03 -8.254623E-05 -3.612916E-04 -8.254623E-05 -1.277110E-04 
 +2.670086E-04 +3.973554E-05 -3.394892E-04 +3.973554E-05 +4.986132E-03 -8.273696E-05 -3.394892E-04 -8.273696E-05 -2.651642E-05 
 +2.270788E-04 +9.635842E-05 -3.078531E-04 +9.635842E-05 +5.046276E-03 -6.122395E-05 -3.078531E-04 -6.122395E-05 -3.100121E-05 
 +1.497670E-04 -5.096490E-05 -1.158019E-04 -5.096490E-05 +5.166013E-03 -2.473198E-05 -1.158019E-04 -2.473198E-05 -1.580804E-04 
 -2.987129E-04 -5.965921E-05 +8.689998E-05 -5.965921E-05 +5.371242E-03 +6.170224E-06 +8.689998E-05 +6.170224E-06 -2.052795E-04 
 -1.446543E-04 -2.523803E-04 -4.161580E-04 -2.523803E-04 +5.340799E-03 +2.064086E-05 -4.161580E-04 +2.064086E-05 -3.066811E-04 
 -4.194759E-05 -3.877303E-04 -9.185444E-05 -3.877303E-04 +5.174186E-03 -1.350208E-05 -9.185444E-05 -1.350208E-05 -1.220449E-04 
 -2.817361E-04 -2.328073E-04 -1.279514E-04 -2.328073E-04 +5.288209E-03 -8.048249E-05 -1.279514E-04 -8.048249E-05 +6.371357E-05 
 -1.586674E-04 -1.456128E-04 -1.485391E-05 -1.456128E-04 +5.283601E-03 -7.426579E-05 -1.485391E-05 -7.426579E-05 +8.958035E-05 
 -1.844771E-04 -5.345179E-05 -1.265823E-05 -5.345179E-05 +5.176973E-03 -8.329941E-06 -1.265823E-05 -8.329941E-06 +1.095514E-04 
 -1.153665E-04 +4.665865E-06 -3.653503E-05 +4.665865E-06 +5.052751E-03 -1.114751E-05 -3.653503E-05 -1.114751E-05 +1.265732E-04 
 -6.659857E-05 +5.448318E-05 -9.728308E-05 +5.448318E-05 +4.882638E-03 +5.550394E-05 -9.728308E-05 +5.550394E-05 +1.611052E-04 
 +1.461247E-04 -4.451729E-05 -5.496939E-05 -4.451729E-05 +4.875612E-03 +9.320065E-05 -5.496939E-05 +9.320065E-05 +8.721215E-05 
 +2.344979E-04 -9.995472E-05 -1.079692E-04 -9.995472E-05 +5.025441E-03 +5.442197E-05 -1.079692E-04 +5.442197E-05 -6.923329E-05 
 +1.431552E-04 -1.023260E-04 -1.053940E-04 -1.023260E-04 +5.190388E-03 +3.758466E-05 -1.053940E-04 +3.758466E-05 -2.059049E-04 
 -5.611360E-05 -1.704613E-04 -1.095564E-04 -1.704613E-04 +5.345682E-03 -4.083358E-05 -1.095564E-04 -4.083358E-05 -1.508182E-04 
 -1.657805E-04 -1.917673E-04 -5.809654E-05 -1.917673E-04 +5.381966E-03 -5.655166E-05 -5.809654E-05 -5.655166E-05 -7.906214E-05 
 -1.593371E-04 -1.950484E-04 -3.358425E-05 -1.950484E-04 +5.348310E-03 -8.733540E-05 -3.358425E-05 -8.733540E-05 +8.107242E-05 
 -1.084164E-04 -1.445431E-04 -1.921829E-04 -1.445431E-04 +5.293178E-03 -1.610698E-04 -1.921829E-04 -1.610698E-04 +1.673869E-04 
 -2.731045E-05 -1.674358E-04 -3.775576E-04 -1.674358E-04 +5.202252E-03 -2.427786E-04 -3.775576E-04 -2.427786E-04 -4.756708E-05 
 +1.167321E-04 -1.764981E-04 -3.719934E-04 -1.764981E-04 +5.106808E-03 -1.731238E-04 -3.719934E-04 -1.731238E-04 -1.595926E-04 
 +1.990462E-04 -1.196179E-04 -3.213115E-04 -1.196179E-04 +5.021821E-03 -2.754445E-05 -3.213115E-04 -2.754445E-05 -1.815650E-04 
 +2.504240E-04 -7.417873E-05 -3.342642E-04 -7.417873E-05 +5.006014E-03 +2.352988E-05 -3.342642E-04 +2.352988E-05 -3.303411E-05 
 +1.294875E-04 -6.793816E-05 -2.808752E-04 -6.793816E-05 +5.034927E-03 -3.370359E-05 -2.808752E-04 -3.370359E-05 -2.783162E-05 
 +1.058273E-04 -1.903505E-04 -8.001651E-06 -1.903505E-04 +5.188241E-03 -4.770326E-05 -8.001651E-06 -4.770326E-05 -9.549245E-05 
 -2.024499E-04 -1.183042E-04 +2.233989E-04 -1.183042E-04 +5.247799E-03 -3.159835E-05 +2.233989E-04 -3.159835E-05 -7.425620E-05 
 +3.385689E-05 -3.458670E-04 -2.071874E-04 -3.458670E-04 +5.000291E-03 +4.714364E-05 -2.071874E-04 +4.714364E-05 -1.669463E-04 
 +9.461758E-05 -3.432478E-04 -7.805423E-05 -3.432478E-04 +4.940430E-03 +9.320864E-05 -7.805423E-05 +9.320864E-05 -3.123429E-05 
 -6.370606E-06 -3.200191E-04 -1.687152E-04 -3.200191E-04 +5.065700E-03 +3.143815E-05 -1.687152E-04 +3.143815E-05 +8.434047E-05 
 -1.052988E-04 -2.755681E-04 -7.681453E-05 -2.755681E-04 +5.161810E-03 +4.576148E-05 -7.681453E-05 +4.576148E-05 +9.673805E-05 
 -3.031202E-04 -9.236563E-05 -1.570931E-04 -9.236563E-05 +5.215320E-03 +5.948021E-05 -1.570931E-04 +5.948021E-05 +1.172409E-04 
 -2.026258E-04 -4.115989E-05 -1.811528E-04 -4.115989E-05 +5.161576E-03 +1.432060E-05 -1.811528E-04 +1.432060E-05 +1.510177E-04 
 -6.771182E-05 -2.917370E-05 -2.284898E-04 -2.917370E-05 +5.057029E-03 +7.853879E-06 -2.284898E-04 +7.853879E-06 +1.857400E-04 
 +9.713678E-05 -1.383315E-04 -2.089738E-04 -1.383315E-04 +4.980051E-03 +1.121634E-05 -2.089738E-04 +1.121634E-05 +1.193630E-04 
 -9.024600E-05 -5.123350E-05 +8.697463E-05 -5.123350E-05 +5.126254E-03 -4.019417E-06 +8.697463E-05 -4.019417E-06 +3.556384E-05 
 +3.028490E-05 -4.599599E-05 -9.741058E-05 -4.599599E-05 +5.201464E-03 +3.315956E-05 -9.741058E-05 +3.315956E-05 -7.989399E-05 
 -4.502535E-05 -8.778972E-05 -9.991429E-05 -8.778972E-05 +5.290297E-03 +8.731908E-07 -9.991429E-05 +8.731908E-07 -5.655723E-05 
 -1.148088E-04 -1.002487E-04 -1.477651E-04 -1.002487E-04 +5.307660E-03 -2.489585E-05 -1.477651E-04 -2.489585E-05 -1.863059E-05 
 -6.588399E-05 -1.069203E-04 -1.397413E-04 -1.069203E-04 +5.249070E-03 -8.556608E-05 -1.397413E-04 -8.556608E-05 +1.212727E-04 
 -2.056406E-05 -8.444513E-05 -2.657524E-04 -8.444513E-05 +5.185940E-03 -1.461857E-04 -2.657524E-04 -1.461857E-04 +2.395217E-04 
 -8.694670E-05 -6.634188E-05 -3.418258E-04 -6.634188E-05 +5.180589E-03 -1.448635E-04 -3.418258E-04 -1.448635E-04 +6.389992E-05 
 -3.849622E-06 -1.054451E-04 -3.328871E-04 -1.054451E-04 +5.141938E-03 -4.828893E-05 -3.328871E-04 -4.828893E-05 -1.885320E-04 
 +1.764551E-04 -1.145710E-04 -2.639546E-04 -1.145710E-04 +5.080883E-03 +7.760386E-05 -2.639546E-04 +7.760386E-05 -2.877107E-04 
 +1.021741E-04 -8.591792E-05 -2.500104E-04 -8.591792E-05 +5.098940E-03 +1.005513E-04 -2.500104E-04 +1.005513E-04 -1.747330E-04 
 +1.107082E-04 -9.605343E-05 -1.920540E-04 -9.605343E-05 +5.043571E-03 +7.970101E-05 -1.920540E-04 +7.970101E-05 -1.402215E-04 
 +1.842024E-04 -2.190355E-05 +2.737205E-05 -2.190355E-05 +4.840879E-03 +5.744602E-05 +2.737205E-05 +5.744602E-05 -8.847776E-05 
 +1.238263E-04 +3.879643E-06 +7.177791E-05 +3.879643E-06 +4.698637E-03 +4.897229E-05 +7.177791E-05 +4.897229E-05 +3.824315E-05 
 +1.449725E-04 -2.709215E-04 -7.984865E-05 -2.709215E-04 +4.795934E-03 +1.106259E-04 -7.984865E-05 +1.106259E-04 +2.565113E-06 
 +9.210587E-05 -2.086983E-04 -4.284673E-05 -2.086983E-04 +4.928902E-03 +1.399938E-04 -4.284673E-05 +1.399938E-04 +2.971306E-05 
 +8.388604E-05 -2.409914E-04 -3.816824E-05 -2.409914E-04 +4.962273E-03 +1.241911E-04 -3.816824E-05 +1.241911E-04 +9.738892E-05 
 +4.319410E-05 -2.174329E-04 -9.807509E-05 -2.174329E-04 +5.085137E-03 +6.843995E-05 -9.807509E-05 +6.843995E-05 +1.137801E-04 
 -1.870661E-04 -5.352959E-05 -2.131801E-04 -5.352959E-05 +5.171632E-03 +7.449030E-06 -2.131801E-04 +7.449030E-06 +1.255420E-04 
 -2.866073E-04 +4.420697E-05 -1.577434E-04 +4.420697E-05 +5.145114E-03 +3.020274E-05 -1.577434E-04 +3.020274E-05 +2.005471E-04 
 -1.757320E-04 +4.988848E-05 -2.052574E-04 +4.988848E-05 +5.122677E-03 +6.865248E-06 -2.052574E-04 +6.865248E-06 +2.145257E-04 
 -1.490571E-05 -2.905456E-05 -1.360515E-04 -2.905456E-05 +5.107424E-03 -5.721805E-05 -1.360515E-04 -5.721805E-05 +1.617265E-04 
 -3.896068E-04 -2.399281E-05 +1.521599E-04 -2.399281E-05 +5.171187E-03 -6.553493E-05 +1.521599E-04 -6.553493E-05 +6.404308E-05 
 -5.568033E-05 +4.030302E-05 -9.222884E-05 +4.030302E-05 +5.012384E-03 -8.206138E-05 -9.222884E-05 -8.206138E-05 +4.022031E-05 
 +5.437172E-05 +5.341390E-05 -1.687648E-04 +5.341390E-05 +4.964357E-03 -8.622693E-05 -1.687648E-04 -8.622693E-05 +4.544750E-05 
 +2.481191E-05 +2.241891E-06 -1.658719E-04 +2.241891E-06 +4.988853E-03 -1.431231E-04 -1.658719E-04 -1.431231E-04 +4.162628E-05 
 -1.723677E-05 +1.248856E-05 -1.746533E-04 +1.248856E-05 +4.981752E-03 -2.653620E-04 -1.746533E-04 -2.653620E-04 +1.244631E-04 
 +2.397196E-05 +4.175539E-06 -2.488497E-04 +4.175539E-06 +4.958920E-03 -3.529350E-04 -2.488497E-04 -3.529350E-04 +2.302875E-04 
 +7.721572E-06 +1.226401E-04 -2.207042E-04 +1.226401E-04 +4.998518E-03 -1.975170E-04 -2.207042E-04 -1.975170E-04 +1.567529E-04 
 -1.808372E-04 +8.443665E-05 -2.606148E-04 +8.443665E-05 +5.124757E-03 +4.902270E-05 -2.606148E-04 +4.902270E-05 -7.020681E-05 
 -8.559141E-05 +1.642501E-06 -2.259707E-04 +1.642501E-06 +5.145629E-03 +1.030371E-04 -2.259707E-04 +1.030371E-04 -2.049047E-04 
 +9.940506E-05 +3.856284E-07 -1.924981E-04 +3.856284E-07 +4.956159E-03 +7.115439E-05 -1.924981E-04 +7.115439E-05 -1.935013E-04 
 +2.676347E-04 +8.037984E-05 -3.925154E-05 +8.037984E-05 +4.695606E-03 +8.562221E-05 -3.925154E-05 +8.562221E-05 -1.163054E-04 
 +2.633383E-04 +1.402525E-04 +1.890121E-05 +1.402525E-04 +4.619670E-03 +2.013324E-05 +1.890121E-05 +2.013324E-05 -7.759066E-06 
 +2.195881E-04 +5.685784E-05 -1.231565E-06 +5.685784E-05 +4.623645E-03 +8.154360E-06 -1.231565E-06 +8.154360E-06 +1.116110E-04 
 +1.715396E-04 -1.636265E-04 -4.106289E-06 -1.636265E-04 +4.703759E-03 +1.316790E-04 -4.106289E-06 +1.316790E-04 +8.592238E-05 
 +1.674784E-04 -1.777823E-04 +2.384730E-05 -1.777823E-04 +4.827249E-03 +1.569052E-04 +2.384730E-05 +1.569052E-04 -7.746091E-07 
 +1.188329E-04 -1.440938E-04 +6.701621E-05 -1.440938E-04 +4.936190E-03 +1.117765E-04 +6.701621E-05 +1.117765E-04 +3.387147E-05 
 +1.194747E-04 -1.393184E-04 -2.209275E-05 -1.393184E-04 +4.941832E-03 +6.210355E-05 -2.209275E-05 +6.210355E-05 +6.837349E-05 
 -3.684489E-05 -8.227267E-05 -5.338656E-05 -8.227267E-05 +4.896748E-03 +6.274490E-05 -5.338656E-05 +6.274490E-05 +1.124151E-04 
 -3.441153E-04 +2.824440E-05 -1.523932E-06 +2.824440E-05 +5.028607E-03 +9.744819E-05 -1.523932E-06 +9.744819E-05 +2.903748E-04 
 -1.973544E-04 +1.835799E-06 -3.739047E-05 +1.835799E-06 +5.071364E-03 +3.738566E-05 -3.739047E-05 +3.738566E-05 +3.240612E-04 
 -2.309011E-04 +4.473782E-06 +7.033801E-05 +4.473782E-06 +5.123577E-03 -2.929825E-05 +7.033801E-05 -2.929825E-05 +1.910554E-04 
 -4.416324E-04 +7.675821E-06 +8.770499E-05 +7.675821E-06 +5.190369E-03 -5.151950E-05 +8.770499E-05 -5.151950E-05 +1.574747E-04 
 -2.391388E-04 +2.104825E-05 -1.810252E-06 +2.104825E-05 +5.088193E-03 -3.184174E-05 -1.810252E-06 -3.184174E-05 +1.871491E-04 
 +1.502987E-04 +8.714872E-05 -2.322460E-04 +8.714872E-05 +4.934029E-03 -7.136943E-05 -2.322460E-04 -7.136943E-05 +1.467965E-04 
 +1.448952E-04 +4.006808E-06 -2.282753E-04 +4.006808E-06 +4.904661E-03 -1.664165E-04 -2.282753E-04 -1.664165E-04 +7.868202E-05 
 +8.305764E-05 +1.509678E-05 -2.497611E-04 +1.509678E-05 +4.899511E-03 -2.800776E-04 -2.497611E-04 -2.800776E-04 +9.821683E-05 
 +6.763887E-05 +3.662725E-05 -2.252780E-04 +3.662725E-05 +4.881101E-03 -3.253350E-04 -2.252780E-04 -3.253350E-04 +7.621787E-05 
 +7.931266E-05 +1.957664E-04 -5.334282E-05 +1.957664E-04 +4.933402E-03 -1.164627E-04 -5.334282E-05 -1.164627E-04 +6.313947E-05 
 -3.134823E-04 +1.288539E-04 -1.346180E-04 +1.288539E-04 +5.074911E-03 +6.827222E-05 -1.346180E-04 +6.827222E-05 +1.488544E-04 
 -2.483417E-04 +2.859034E-05 -2.020523E-04 +2.859034E-05 +5.046853E-03 +3.477571E-05 -2.020523E-04 +3.477571E-05 +8.545662E-05 
 +1.893311E-04 -1.959669E-06 -1.120107E-04 -1.959669E-06 +4.724107E-03 +6.919895E-05 -1.120107E-04 +6.919895E-05 -1.451173E-05 
 +2.877445E-04 +8.612607E-05 +6.798045E-05 +8.612607E-05 +4.547109E-03 +9.747820E-05 +6.798045E-05 +9.747820E-05 +7.771512E-05 
 +2.313595E-04 +1.211771E-04 +4.100478E-05 +1.211771E-04 +4.558513E-03 +2.723743E-05 +4.100478E-05 +2.723743E-05 +1.222633E-04 
 +1.728337E-04 +7.542459E-05 -7.560274E-06 +7.542459E-05 +4.630004E-03 +4.943841E-05 -7.560274E-06 +4.943841E-05 +1.759987E-04 
 +2.040606E-04 -1.216618E-04 +4.706468E-05 -1.216618E-04 +4.712256E-03 +1.576829E-04 +4.706468E-05 +1.576829E-04 +1.698823E-04 
 +2.247618E-04 -1.691981E-04 +6.818174E-05 -1.691981E-04 +4.756733E-03 +1.875604E-04 +6.818174E-05 +1.875604E-04 +1.260704E-05 
 +2.324635E-04 -1.300480E-04 +9.377915E-05 -1.300480E-04 +4.804792E-03 +1.268571E-04 +9.377915E-05 +1.268571E-04 -7.409269E-05 
 +2.232916E-04 -1.323377E-04 +8.598186E-05 -1.323377E-04 +4.894321E-03 +4.867708E-05 +8.598186E-05 +4.867708E-05 -7.413392E-05 
 -1.037598E-04 -9.284615E-06 +1.274016E-04 -9.284615E-06 +5.071745E-03 -3.220686E-05 +1.274016E-04 -3.220686E-05 +6.973257E-05 
 -2.993505E-04 +1.899698E-05 +7.040438E-05 +1.899698E-05 +5.092237E-03 -6.724198E-05 +7.040438E-05 -6.724198E-05 +2.879408E-04 
 -2.802465E-04 -4.475410E-05 +2.772397E-05 -4.475410E-05 +5.082993E-03 -5.137958E-05 +2.772397E-05 -5.137958E-05 +2.834874E-04 
 -3.651387E-04 +3.781822E-05 +1.014129E-04 +3.781822E-05 +5.170357E-03 -4.804312E-05 +1.014129E-04 -4.804312E-05 +1.911610E-04 
 -4.019524E-04 +3.122685E-05 +4.055273E-05 +3.122685E-05 +5.156223E-03 -6.385730E-05 +4.055273E-05 -6.385730E-05 +2.663812E-04 
 -4.023862E-04 -2.061796E-05 +3.974562E-05 -2.061796E-05 +5.128285E-03 -9.900954E-05 +3.974562E-05 -9.900954E-05 +2.264050E-04 
 +1.541792E-04 +5.379917E-05 -2.891015E-04 +5.379917E-05 +4.943894E-03 -1.806592E-04 -2.891015E-04 -1.806592E-04 +1.439795E-04 
 +2.443727E-04 +1.857510E-05 -2.970117E-04 +1.857510E-05 +4.776432E-03 -2.225933E-04 -2.970117E-04 -2.225933E-04 +1.083089E-04 
 +1.914232E-04 +3.771517E-05 -3.022297E-04 +3.771517E-05 +4.767043E-03 -2.376941E-04 -3.022297E-04 -2.376941E-04 +1.446245E-04 
 +1.188314E-04 +5.237386E-05 -1.626663E-04 +5.237386E-05 +4.860501E-03 -2.197205E-04 -1.626663E-04 -2.197205E-04 +6.786162E-05 
 +3.188214E-05 +2.158633E-04 +7.911034E-05 +2.158633E-04 +4.981946E-03 -6.016525E-05 +7.911034E-05 -6.016525E-05 +2.460156E-05 
 -4.297235E-04 +1.121057E-04 -7.851853E-05 +1.121057E-04 +5.011325E-03 +6.802532E-05 -7.851853E-05 +6.802532E-05 +2.059145E-04 
 -4.495190E-05 -3.386229E-05 -1.555430E-04 -3.386229E-05 +4.947760E-03 +9.783549E-05 -1.555430E-04 +9.783549E-05 +1.648291E-04 
 +1.168473E-04 -8.468449E-05 -1.018936E-04 -8.468449E-05 +4.872082E-03 +8.350515E-05 -1.018936E-04 +8.350515E-05 +2.545415E-05 
 +1.527077E-04 +4.157459E-05 +6.478197E-05 +4.157459E-05 +4.683232E-03 +6.944680E-05 +6.478197E-05 +6.944680E-05 +1.045964E-04 
 +1.888631E-04 +1.288520E-04 +1.077715E-04 +1.288520E-04 +4.563539E-03 +8.390334E-05 +1.077715E-04 +8.390334E-05 +1.646174E-04 
 +1.572424E-04 +1.366683E-04 +4.951628E-05 +1.366683E-04 +4.626060E-03 +8.527902E-05 +4.951628E-05 +8.527902E-05 +1.788540E-04 
 +1.468934E-04 -1.663340E-04 +6.423676E-05 -1.663340E-04 +4.646189E-03 +1.351723E-04 +6.423676E-05 +1.351723E-04 +1.674527E-04 
 +2.263050E-04 -2.134919E-04 +1.048368E-04 -2.134919E-04 +4.671410E-03 +1.452708E-04 +1.048368E-04 +1.452708E-04 +5.902866E-05 
 +2.985837E-04 -2.168001E-04 +9.510694E-05 -2.168001E-04 +4.812646E-03 +5.609332E-05 +9.510694E-05 +5.609332E-05 -5.219241E-05 
 +2.775843E-04 -2.695320E-04 +1.734526E-04 -2.695320E-04 +4.985571E-03 -9.790602E-06 +1.734526E-04 -9.790602E-06 -1.774475E-04 
 -2.259520E-05 -1.441913E-04 +1.712655E-04 -1.441913E-04 +5.053653E-03 -6.904552E-05 +1.712655E-04 -6.904552E-05 -8.502100E-05 
 -2.839394E-04 -8.371929E-05 +1.438767E-04 -8.371929E-05 +5.077980E-03 -1.008154E-04 +1.438767E-04 -1.008154E-04 +2.107234E-04 
 -3.287354E-04 -4.841873E-05 +7.289362E-05 -4.841873E-05 +5.150418E-03 -5.617532E-05 +7.289362E-05 -5.617532E-05 +2.432902E-04 
 -3.914437E-04 +3.068543E-05 +5.672826E-05 +3.068543E-05 +5.149161E-03 -5.043510E-05 +5.672826E-05 -5.043510E-05 +2.088410E-04 
 -4.120921E-04 -4.452592E-05 +7.631560E-05 -4.452592E-05 +5.153022E-03 -3.760036E-05 +7.631560E-05 -3.760036E-05 +2.306867E-04 
 -2.948229E-04 -9.704046E-05 -3.954860E-05 -9.704046E-05 +5.158844E-03 -1.168560E-04 -3.954860E-05 -1.168560E-04 +1.792638E-04 
 +1.571745E-04 -1.601520E-05 -3.496055E-04 -1.601520E-05 +4.936716E-03 -1.870352E-04 -3.496055E-04 -1.870352E-04 +1.508693E-04 
 +2.553523E-04 +2.331930E-05 -3.397277E-04 +2.331930E-05 +4.650226E-03 -2.117740E-04 -3.397277E-04 -2.117740E-04 +2.471350E-04 
 +1.814504E-04 +7.362128E-05 -2.871752E-04 +7.362128E-05 +4.643021E-03 -1.884376E-04 -2.871752E-04 -1.884376E-04 +3.397887E-04 
 +1.555434E-04 +5.902626E-05 -8.024784E-05 +5.902626E-05 +4.789144E-03 -9.021867E-05 -8.024784E-05 -9.021867E-05 +2.258132E-04 
 -1.503469E-05 +2.675041E-04 +1.238979E-04 +2.675041E-04 +4.981771E-03 -1.841493E-07 +1.238979E-04 -1.841493E-07 +1.329218E-04 
 -4.445571E-04 +7.987979E-05 -5.186145E-05 +7.987979E-05 +5.038606E-03 +3.658368E-05 -5.186145E-05 +3.658368E-05 +2.133673E-04 
 +6.044037E-05 -9.306094E-05 -1.033122E-04 -9.306094E-05 +4.958882E-03 +6.130917E-05 -1.033122E-04 +6.130917E-05 +1.353611E-04 
 +5.775672E-05 -1.966336E-04 -1.509004E-04 -1.966336E-04 +4.987839E-03 +6.094121E-05 -1.509004E-04 +6.094121E-05 +6.237025E-06 
 +8.482866E-05 -1.180537E-04 -4.731381E-05 -1.180537E-04 +4.936350E-03 +8.346538E-05 -4.731381E-05 +8.346538E-05 +5.444671E-05 
 +7.831323E-05 +4.723626E-05 +1.534017E-04 +4.723626E-05 +4.720022E-03 +1.502313E-04 +1.534017E-04 +1.502313E-04 +1.766358E-04 
 +2.000618E-04 +1.445680E-04 +9.855636E-05 +1.445680E-04 +4.636494E-03 +1.419965E-04 +9.855636E-05 +1.419965E-04 +2.159395E-04 
 +9.608037E-05 -1.268949E-04 +3.904679E-05 -1.268949E-04 +4.709304E-03 +1.689409E-04 +3.904679E-05 +1.689409E-04 +2.387787E-04 
 +1.783196E-04 -9.895922E-05 +1.584472E-04 -9.895922E-05 +4.790312E-03 +2.198667E-04 +1.584472E-04 +2.198667E-04 +1.961523E-04 
 +2.462767E-04 -1.159645E-04 +1.451677E-04 -1.159645E-04 +4.885429E-03 +1.470382E-04 +1.451677E-04 +1.470382E-04 +1.153179E-04 
 +2.570025E-04 -1.753738E-04 +2.434848E-04 -1.753738E-04 +5.010466E-03 +9.691039E-06 +2.434848E-04 +9.691039E-06 -8.213293E-05 
 +1.497246E-04 -1.783260E-04 +2.252304E-04 -1.783260E-04 +5.068153E-03 -4.564735E-05 +2.252304E-04 -4.564735E-05 -1.476820E-04 
 -2.460871E-04 -9.925616E-05 +2.274336E-04 -9.925616E-05 +5.090077E-03 -2.983400E-05 +2.274336E-04 -2.983400E-05 +1.775840E-04 
 -3.316370E-04 -7.221510E-05 +1.644874E-04 -7.221510E-05 +5.147073E-03 -2.970239E-05 +1.644874E-04 -2.970239E-05 +2.856442E-04 
 -4.139973E-04 -7.362942E-05 +1.128866E-04 -7.362942E-05 +5.151084E-03 -2.822440E-05 +1.128866E-04 -2.822440E-05 +1.906618E-04 
 -3.451338E-04 -2.449184E-05 +7.700862E-05 -2.449184E-05 +5.034539E-03 -5.505529E-05 +7.700862E-05 -5.505529E-05 +2.176249E-04 
 +2.810441E-05 -2.135444E-05 -1.709278E-04 -2.135444E-05 +4.808315E-03 -1.188205E-04 -1.709278E-04 -1.188205E-04 +1.904629E-04 
 +1.760333E-04 +1.576761E-05 -2.881305E-04 +1.576761E-05 +4.706148E-03 -1.245534E-04 -2.881305E-04 -1.245534E-04 +2.040160E-04 
 +4.381237E-05 +6.080299E-05 -2.183523E-04 +6.080299E-05 +4.777168E-03 -4.213827E-05 -2.183523E-04 -4.213827E-05 +3.034948E-04 
 -3.946360E-06 +4.089705E-05 -1.607041E-04 +4.089705E-05 +4.818523E-03 +4.845467E-05 -1.607041E-04 +4.845467E-05 +4.021318E-04 
 +1.104656E-04 -2.812260E-05 -6.119408E-05 -2.812260E-05 +4.860006E-03 +4.601845E-05 -6.119408E-05 +4.601845E-05 +3.302401E-04 
 +7.005048E-05 +1.881009E-04 +2.605106E-05 +1.881009E-04 +4.925637E-03 -2.205109E-05 +2.605106E-05 -2.205109E-05 +2.508961E-04 
 -3.313449E-04 -4.050092E-06 -6.479447E-05 -4.050092E-06 +4.973348E-03 +3.985484E-06 -6.479447E-05 +3.985484E-06 +2.396214E-04 
 +1.509552E-05 -1.131780E-04 -8.615299E-05 -1.131780E-04 +5.046851E-03 +4.879364E-05 -8.615299E-05 +4.879364E-05 +8.758483E-05 
 +5.057796E-05 -2.029538E-04 -1.227747E-04 -2.029538E-04 +5.032504E-03 +2.391442E-05 -1.227747E-04 +2.391442E-05 +4.620405E-06 
 +3.193214E-05 -1.775718E-04 -6.007296E-05 -1.775718E-04 +5.044466E-03 +2.545740E-05 -6.007296E-05 +2.545740E-05 +5.019401E-05 
 -1.392706E-05 -1.084590E-04 +1.538578E-04 -1.084590E-04 +4.978683E-03 +2.672763E-05 +1.538578E-04 +2.672763E-05 +1.230612E-04 
 +2.317449E-04 +6.271887E-05 +9.739253E-05 +6.271887E-05 +4.715000E-03 +5.180832E-05 +9.739253E-05 +5.180832E-05 +2.490503E-04 
 +1.592053E-04 -1.027363E-04 -7.320284E-06 -1.027363E-04 +4.672789E-03 +1.617308E-04 -7.320284E-06 +1.617308E-04 +3.312893E-04 
 +1.780116E-04 -6.051375E-05 +1.540391E-04 -6.051375E-05 +4.798456E-03 +2.295761E-04 +1.540391E-04 +2.295761E-04 +2.815000E-04 
 +2.053871E-04 -6.696754E-07 +1.606658E-04 -6.696754E-07 +4.864128E-03 +2.269482E-04 +1.606658E-04 +2.269482E-04 +2.242447E-04 
 +2.258285E-04 -2.948840E-05 +1.636867E-04 -2.948840E-05 +4.952449E-03 +1.177480E-04 +1.636867E-04 +1.177480E-04 +6.998632E-05 
 +1.864364E-04 -1.130618E-04 +3.352243E-04 -1.130618E-04 +5.055615E-03 +6.674596E-06 +3.352243E-04 +6.674596E-06 -7.271932E-05 
 -2.503174E-04 -6.827540E-05 +2.995071E-04 -6.827540E-05 +5.148718E-03 -4.370047E-05 +2.995071E-04 -4.370047E-05 +9.083122E-05 
 -2.942793E-04 -7.379423E-05 +2.229267E-04 -7.379423E-05 +5.190035E-03 -1.180887E-04 +2.229267E-04 -1.180887E-04 +1.828131E-04 
 -4.735953E-04 -7.549842E-05 +2.070499E-04 -7.549842E-05 +5.166341E-03 -9.368839E-05 +2.070499E-04 -9.368839E-05 +1.671242E-04 
 -1.174714E-04 +1.014422E-04 -7.487740E-05 +1.014422E-04 +4.778288E-03 -1.355021E-04 -7.487740E-05 -1.355021E-04 +3.041151E-04 
 +1.190889E-04 +8.320473E-05 -1.820389E-04 +8.320473E-05 +4.666720E-03 -1.802167E-04 -1.820389E-04 -1.802167E-04 +2.127481E-04 
 +1.035644E-05 +1.855186E-05 -1.101371E-04 +1.855186E-05 +4.799876E-03 -1.540964E-04 -1.101371E-04 -1.540964E-04 +2.141646E-04 
 -2.029597E-04 +1.598038E-05 +4.594085E-05 +1.598038E-05 +4.912077E-03 -3.443184E-05 +4.594085E-05 -3.443184E-05 +2.315229E-04 
 -1.043974E-04 +8.400204E-05 -3.929336E-05 +8.400204E-05 +4.925920E-03 +4.758198E-05 -3.929336E-05 +4.758198E-05 +2.695197E-04 
 +4.282266E-05 +1.691145E-04 -9.965634E-05 +1.691145E-04 +4.908863E-03 +1.826536E-05 -9.965634E-05 +1.826536E-05 +2.781336E-04 
 +1.229356E-04 +2.729179E-04 -8.475610E-05 +2.729179E-04 +4.779437E-03 -3.995895E-05 -8.475610E-05 -3.995895E-05 +2.567644E-04 
 -9.866579E-05 +1.475627E-04 -8.647221E-05 +1.475627E-04 +4.704197E-03 -3.962811E-05 -8.647221E-05 -3.962811E-05 +2.128309E-04 
 -7.178948E-06 +1.070868E-04 -1.993360E-05 +1.070868E-04 +4.873558E-03 +1.354580E-05 -1.993360E-05 +1.354580E-05 +4.234765E-05 
 -5.923572E-05 -1.121785E-04 -2.145966E-05 -1.121785E-04 +5.080477E-03 -4.654526E-06 -2.145966E-05 -4.654526E-06 -1.712988E-05 
 -3.979462E-05 -1.450816E-04 +7.929806E-05 -1.450816E-04 +5.061778E-03 -7.959466E-05 +7.929806E-05 -7.959466E-05 +2.785973E-05 
 -2.220077E-05 -7.642039E-05 +1.751566E-04 -7.642039E-05 +5.003447E-03 -1.451976E-04 +1.751566E-04 -1.451976E-04 +4.329173E-05 
 +1.640093E-04 -1.767500E-05 +1.691309E-04 -1.767500E-05 +4.888033E-03 -7.413532E-05 +1.691309E-04 -7.413532E-05 +1.852221E-04 
 +2.576391E-04 -1.679761E-05 +1.506110E-07 -1.679761E-05 +4.720475E-03 +1.025221E-04 +1.506110E-07 +1.025221E-04 +2.754340E-04 
 +2.378843E-04 +3.584715E-05 +1.082435E-04 +3.584715E-05 +4.771668E-03 +1.886875E-04 +1.082435E-04 +1.886875E-04 +2.273499E-04 
 +2.276931E-04 +7.521929E-05 +1.048904E-04 +7.521929E-05 +4.871959E-03 +1.846975E-04 +1.048904E-04 +1.846975E-04 +1.974186E-04 
 +1.849113E-04 +9.095090E-05 +1.877650E-05 +9.095090E-05 +4.983176E-03 +1.622618E-04 +1.877650E-05 +1.622618E-04 +1.740855E-04 
 +1.405428E-04 +2.013805E-05 +3.402673E-04 +2.013805E-05 +5.185433E-03 +1.080128E-04 +3.402673E-04 +1.080128E-04 +1.707356E-05 
 -2.653623E-04 -3.924940E-06 +3.483808E-04 -3.924940E-06 +5.287308E-03 +3.969495E-05 +3.483808E-04 +3.969495E-05 -1.180738E-04 
 -9.573688E-05 +3.617939E-05 +2.041727E-04 +3.617939E-05 +5.220634E-03 -5.066652E-05 +2.041727E-04 -5.066652E-05 -1.543253E-05 
 -4.948443E-04 +5.415514E-05 +1.834175E-04 +5.415514E-05 +5.051994E-03 -1.065191E-04 +1.834175E-04 -1.065191E-04 +2.423657E-04 
 -8.734102E-05 +4.328787E-05 -9.232078E-05 +4.328787E-05 +4.962843E-03 +1.411328E-04 -9.232078E-05 +1.411328E-04 +2.625690E-04 
 -6.927189E-05 +2.680056E-06 -9.532437E-05 +2.680056E-06 +4.993990E-03 +1.831020E-04 -9.532437E-05 +1.831020E-04 +1.778320E-04 
 -1.726579E-04 +1.208293E-05 -5.431627E-05 +1.208293E-05 +5.042357E-03 +1.435516E-04 -5.431627E-05 +1.435516E-04 +1.706340E-04 
 -2.394506E-04 +4.249679E-05 +1.352390E-04 +4.249679E-05 +4.978599E-03 +8.908886E-05 +1.352390E-04 +8.908886E-05 +1.351063E-04 
 -1.711160E-05 +2.062511E-04 -2.030150E-05 +2.062511E-04 +4.888255E-03 +5.666733E-05 -2.030150E-05 +5.666733E-05 +1.272667E-04 
 +2.229142E-05 +2.814477E-04 -6.324382E-05 +2.814477E-04 +4.882396E-03 +4.640249E-05 -6.324382E-05 +4.640249E-05 +1.517721E-04 
 +3.902472E-05 +2.889768E-04 -6.221992E-05 +2.889768E-04 +4.803073E-03 +1.259785E-05 -6.221992E-05 +1.259785E-05 +1.634240E-04 
 +4.597426E-05 +1.949200E-04 -6.988827E-05 +1.949200E-04 +4.726554E-03 -3.259561E-05 -6.988827E-05 -3.259561E-05 +1.537416E-04 
 +9.752060E-07 +1.530352E-04 -2.441863E-05 +1.530352E-04 +4.748081E-03 -1.428054E-06 -2.441863E-05 -1.428054E-06 +6.314487E-05 
 -9.140417E-05 +9.304477E-05 +1.444047E-05 +9.304477E-05 +4.925986E-03 +2.496478E-07 +1.444047E-05 +2.496478E-07 +5.906842E-06 
 -1.663616E-04 -9.290363E-05 +1.265407E-04 -9.290363E-05 +5.034819E-03 -1.217234E-04 +1.265407E-04 -1.217234E-04 +2.860378E-05 
 -3.487122E-05 -1.235792E-05 +1.640914E-04 -1.235792E-05 +4.937282E-03 -2.025197E-04 +1.640914E-04 -2.025197E-04 +4.995812E-06 
 +1.450195E-04 -9.232524E-06 +2.109069E-04 -9.232524E-06 +4.853519E-03 -1.143539E-04 +2.109069E-04 -1.143539E-04 -2.165589E-05 
 +2.938036E-04 +8.819510E-05 +3.457202E-06 +8.819510E-05 +4.811420E-03 +5.249339E-05 +3.457202E-06 +5.249339E-05 +2.152505E-05 
 +2.670258E-04 +1.525368E-04 +4.955226E-05 +1.525368E-04 +4.840454E-03 +1.494827E-04 +4.955226E-05 +1.494827E-04 +9.037256E-05 
 +2.025556E-04 +1.457561E-04 +1.764219E-05 +1.457561E-04 +4.913476E-03 +1.575015E-04 +1.764219E-05 +1.575015E-04 +1.391682E-04 
 +1.319551E-04 +1.293647E-04 -5.231943E-05 +1.293647E-04 +4.971313E-03 +1.883989E-04 -5.231943E-05 +1.883989E-04 +2.956627E-04 
 +3.353395E-05 +1.048988E-04 +1.689762E-04 +1.048988E-04 +5.107986E-03 +1.827797E-04 +1.689762E-04 +1.827797E-04 +1.896747E-04 
 -7.552944E-05 +2.432967E-05 +2.501510E-04 +2.432967E-05 +5.252333E-03 +8.402819E-05 +2.501510E-04 +8.402819E-05 -2.089700E-04 
 +7.262051E-05 +1.708414E-05 +1.965950E-04 +1.708414E-05 +5.212934E-03 +2.354520E-05 +1.965950E-04 +2.354520E-05 -2.190147E-04 
 -3.008409E-04 +2.440945E-06 +1.242971E-04 +2.440945E-06 +5.053278E-03 +6.114707E-05 +1.242971E-04 +6.114707E-05 +1.467605E-04 
 -1.819889E-04 -4.555979E-05 -2.585357E-05 -4.555979E-05 +4.964240E-03 +9.722389E-05 -2.585357E-05 +9.722389E-05 +1.429419E-04 
 -2.012898E-04 +6.535473E-06 -9.115733E-05 +6.535473E-06 +5.040133E-03 +1.179844E-04 -9.115733E-05 +1.179844E-04 +1.409982E-04 
 -2.175757E-04 +1.494725E-05 -1.199519E-04 +1.494725E-05 +4.997708E-03 +1.397715E-04 -1.199519E-04 +1.397715E-04 +1.393675E-04 
 -1.766207E-04 +5.074538E-06 +2.112553E-05 +5.074538E-06 +4.900222E-03 +1.738634E-04 +2.112553E-05 +1.738634E-04 +1.029449E-04 
 +2.846765E-05 +2.131122E-04 -5.066703E-07 +2.131122E-04 +4.924576E-03 +1.384714E-04 -5.066703E-07 +1.384714E-04 +2.690553E-05 
 +7.206392E-06 +2.326221E-04 -1.214726E-05 +2.326221E-04 +4.938295E-03 +7.056178E-05 -1.214726E-05 +7.056178E-05 +4.794427E-05 
 -5.663984E-06 +2.296437E-04 -3.142838E-05 +2.296437E-04 +4.858187E-03 +2.143635E-05 -3.142838E-05 +2.143635E-05 +1.036907E-04 
 +2.052602E-05 +2.112406E-04 -4.909039E-05 +2.112406E-04 +4.804851E-03 -6.801391E-06 -4.909039E-05 -6.801391E-06 +1.035873E-04 
 +1.821812E-05 +1.487113E-04 -7.556391E-05 +1.487113E-04 +4.772501E-03 +2.807175E-05 -7.556391E-05 +2.807175E-05 +7.397765E-05 
 -2.427736E-05 +1.365760E-04 -4.645379E-05 +1.365760E-04 +4.812702E-03 +3.286022E-05 -4.645379E-05 +3.286022E-05 +2.877800E-05 
 -1.823535E-04 -6.615492E-05 +4.626524E-05 -6.615492E-05 +4.972991E-03 -5.332817E-05 +4.626524E-05 -5.332817E-05 -5.358451E-06 
 +9.990231E-06 +7.418472E-05 +7.355956E-05 +7.418472E-05 +5.011365E-03 -9.765860E-05 +7.355956E-05 -9.765860E-05 -7.039114E-05 
 +1.714535E-04 +1.573440E-04 +1.195902E-04 +1.573440E-04 +5.000464E-03 -1.208819E-04 +1.195902E-04 -1.208819E-04 -1.940296E-04 
 +1.965997E-04 +1.810637E-04 +1.954977E-05 +1.810637E-04 +5.037794E-03 -8.149109E-05 +1.954977E-05 -8.149109E-05 -1.980408E-04 
 +1.802075E-04 +1.749659E-04 -1.752384E-05 +1.749659E-04 +4.979509E-03 +4.252399E-05 -1.752384E-05 +4.252399E-05 -7.928907E-05 
 +1.442723E-04 +1.721246E-04 -6.253882E-05 +1.721246E-04 +4.980695E-03 +1.089703E-04 -6.253882E-05 +1.089703E-04 +2.264327E-05 
 +3.124745E-05 +1.400206E-04 -5.852265E-05 +1.400206E-04 +5.051352E-03 +1.732132E-04 -5.852265E-05 +1.732132E-04 +2.735927E-04 
 -1.857315E-05 +1.708672E-04 +9.710895E-05 +1.708672E-04 +5.054809E-03 +2.584028E-04 +9.710895E-05 +2.584028E-04 +3.133599E-04 
 +9.634010E-05 +2.686755E-05 +9.555138E-05 +2.686755E-05 +5.062658E-03 +2.157820E-04 +9.555138E-05 +2.157820E-04 -1.806994E-05 
 +1.303241E-04 -1.246015E-04 +1.869596E-04 -1.246015E-04 +5.075293E-03 +7.627563E-05 +1.869596E-04 +7.627563E-05 -2.277975E-04 
 -2.660673E-05 -2.171116E-04 +9.995093E-05 -2.171116E-04 +4.985239E-03 +4.773286E-05 +9.995093E-05 +4.773286E-05 -6.895330E-05 
 -1.516591E-04 -1.844038E-04 +6.212506E-06 -1.844038E-04 +5.009156E-03 +8.786180E-05 +6.212506E-06 +8.786180E-05 +7.376490E-05 
 -1.899093E-04 -4.900635E-05 -1.519393E-04 -4.900635E-05 +5.021322E-03 +1.320526E-04 -1.519393E-04 +1.320526E-04 +1.429593E-04 
 -1.919739E-04 -9.497298E-05 -2.072493E-04 -9.497298E-05 +5.011856E-03 +1.000130E-04 -2.072493E-04 +1.000130E-04 +1.889087E-04 
 -1.742967E-04 -4.541948E-05 -8.531844E-05 -4.541948E-05 +4.928289E-03 +1.336363E-04 -8.531844E-05 +1.336363E-04 +1.457402E-04 
 +5.793495E-05 +2.147956E-04 -2.608486E-05 +2.147956E-04 +4.925457E-03 +7.273084E-05 -2.608486E-05 +7.273084E-05 +6.704446E-05 
 -1.199074E-05 +1.795014E-04 +7.870338E-06 +1.795014E-04 +4.928339E-03 -3.634450E-05 +7.870338E-06 -3.634450E-05 +1.105923E-04 
 +7.623836E-06 +1.678462E-04 -2.612429E-06 +1.678462E-04 +4.899448E-03 -2.071827E-05 -2.612429E-06 -2.071827E-05 +1.185050E-04 
 +3.091262E-05 +1.826975E-04 -3.477623E-05 +1.826975E-04 +4.846062E-03 +3.212141E-05 -3.477623E-05 +3.212141E-05 +8.990788E-05 
 +4.546419E-06 +1.656098E-04 -7.807043E-05 +1.656098E-04 +4.821381E-03 +1.772890E-05 -7.807043E-05 +1.772890E-05 +9.988342E-05 
 +4.966514E-06 +1.809532E-04 -7.776278E-05 +1.809532E-04 +4.759466E-03 +1.435202E-05 -7.776278E-05 +1.435202E-05 +7.575752E-05 
 +7.841736E-06 +1.035436E-04 -2.652186E-05 +1.035436E-04 +4.794706E-03 -6.936311E-07 -2.652186E-05 -6.936311E-07 +2.577862E-06 
 +3.663801E-05 +8.761406E-05 +6.726353E-05 +8.761406E-05 +4.947917E-03 -6.454529E-05 +6.726353E-05 -6.454529E-05 -9.730720E-05 
 +1.187110E-04 +1.462154E-04 +6.681860E-05 +1.462154E-04 +5.013297E-03 -1.081642E-04 +6.681860E-05 -1.081642E-04 -1.843929E-04 
 +9.925942E-05 +1.665060E-04 +4.924321E-05 +1.665060E-04 +5.073947E-03 -1.488331E-04 +4.924321E-05 -1.488331E-04 -1.921796E-04 
 +6.435936E-05 +1.933928E-04 -2.384310E-05 +1.933928E-04 +5.134058E-03 -1.541793E-04 -2.384310E-05 -1.541793E-04 -1.396970E-04 
 +1.421818E-05 +2.164921E-04 -1.046223E-05 +2.164921E-04 +5.146112E-03 -3.880577E-05 -1.046223E-05 -3.880577E-05 -4.666152E-05 
 -6.966880E-05 +1.261191E-04 -1.655817E-05 +1.261191E-04 +5.118982E-03 +2.014737E-04 -1.655817E-05 +2.014737E-04 +2.119187E-04 
 +2.916280E-06 +1.063752E-04 +8.324306E-05 +1.063752E-04 +5.007511E-03 +3.170199E-04 +8.324306E-05 +3.170199E-04 +3.389288E-04 
 +1.024478E-04 +3.980997E-05 +1.613584E-05 +3.980997E-05 +4.935795E-03 +2.031143E-04 +1.613584E-05 +2.031143E-04 +1.859023E-04 
 +1.547631E-04 -1.816020E-04 +6.364216E-05 -1.816020E-04 +4.929175E-03 +6.811845E-06 +6.364216E-05 +6.811845E-06 -5.251490E-05 
 +8.237843E-05 -3.136934E-04 +6.509412E-05 -3.136934E-04 +4.982452E-03 -4.932335E-05 +6.509412E-05 -4.932335E-05 -9.368005E-05 
 -5.925379E-05 -2.008384E-04 +3.604866E-06 -2.008384E-04 +5.044507E-03 -1.039765E-04 +3.604866E-06 -1.039765E-04 -4.589394E-05 
 -8.996959E-05 +2.129036E-05 -1.562535E-04 +2.129036E-05 +4.980004E-03 -1.265485E-04 -1.562535E-04 -1.265485E-04 +7.494929E-05 
 -1.629768E-04 -7.229011E-05 -1.732004E-04 -7.229011E-05 +4.970524E-03 +3.627081E-06 -1.732004E-04 +3.627081E-06 +1.415927E-04 
 -1.896513E-04 -2.864939E-05 -7.048975E-05 -2.864939E-05 +4.989642E-03 +1.188895E-04 -7.048975E-05 +1.188895E-04 +5.281776E-05 
 +2.659052E-05 +2.197265E-04 -4.700643E-05 +2.197265E-04 +5.005853E-03 +8.180490E-05 -4.700643E-05 +8.180490E-05 +6.760498E-05 
 -4.328559E-06 +1.251218E-04 +2.012216E-05 +1.251218E-04 +4.986247E-03 +3.100738E-05 +2.012216E-05 +3.100738E-05 +1.564265E-04 
 +3.703819E-05 +1.357232E-04 +2.472303E-05 +1.357232E-04 +4.913911E-03 +9.656864E-06 +2.472303E-05 +9.656864E-06 +9.810705E-05 
 +7.023992E-05 +1.470233E-04 -5.442231E-05 +1.470233E-04 +4.862258E-03 +2.009340E-06 -5.442231E-05 +2.009340E-06 +3.558314E-05 
 +3.934329E-05 +1.608753E-04 -1.023979E-04 +1.608753E-04 +4.821857E-03 -1.150235E-06 -1.023979E-04 -1.150235E-06 +5.753528E-05 
 +5.056688E-05 +1.480078E-04 -8.839516E-05 +1.480078E-04 +4.792526E-03 -1.100309E-05 -8.839516E-05 -1.100309E-05 +5.172528E-05 
 +8.922592E-05 +1.169001E-04 -6.855867E-05 +1.169001E-04 +4.818239E-03 -3.365781E-05 -6.855867E-05 -3.365781E-05 -6.606876E-06 
 +3.292678E-05 +6.503671E-05 +7.018512E-05 +6.503671E-05 +4.920341E-03 -6.284735E-05 +7.018512E-05 -6.284735E-05 -9.802869E-05 
 +5.163153E-05 +1.351800E-04 +5.275199E-05 +1.351800E-04 +5.020661E-03 -9.629379E-05 +5.275199E-05 -9.629379E-05 -1.791250E-04 
 +5.876923E-05 +1.636716E-04 +4.079260E-05 +1.636716E-04 +5.067889E-03 -1.246087E-04 +4.079260E-05 -1.246087E-04 -1.796519E-04 
 +5.308833E-06 +1.803674E-04 +2.133781E-05 +1.803674E-04 +5.110787E-03 -1.313411E-04 +2.133781E-05 -1.313411E-04 -1.101222E-04 
 -8.961753E-05 +2.075959E-04 +8.741532E-05 +2.075959E-04 +5.099385E-03 -1.297625E-04 +8.741532E-05 -1.297625E-04 +3.889254E-05 
 -7.405419E-05 +2.053577E-04 -6.565197E-06 +2.053577E-04 +5.010878E-03 -9.247357E-05 -6.565197E-06 -9.247357E-05 +2.529769E-04 
 +4.355270E-06 +1.945656E-04 +1.420023E-05 +1.945656E-04 +4.935467E-03 -3.178987E-05 +1.420023E-05 -3.178987E-05 +3.576670E-04 
 +5.359296E-05 +1.462267E-04 +2.413174E-05 +1.462267E-04 +4.882786E-03 -2.368647E-05 +2.413174E-05 -2.368647E-05 +2.748939E-04 
 +1.003616E-04 -1.017474E-04 -6.898409E-05 -1.017474E-04 +4.902262E-03 -4.712263E-05 -6.898409E-05 -4.712263E-05 +7.147423E-05 
 +4.995217E-05 -2.222379E-04 -1.618507E-05 -2.222379E-04 +5.009670E-03 -6.478017E-05 -1.618507E-05 -6.478017E-05 -6.201931E-05 
 -1.381534E-05 -2.185084E-04 -4.400759E-05 -2.185084E-04 +5.160203E-03 -5.647740E-05 -4.400759E-05 -5.647740E-05 -1.416000E-04 
 -5.058192E-05 -1.699564E-04 -1.051708E-04 -1.699564E-04 +5.132061E-03 -9.407897E-05 -1.051708E-04 -9.407897E-05 -1.465919E-04 
 -1.168667E-04 -1.840099E-04 -7.633422E-05 -1.840099E-04 +5.056584E-03 -1.074282E-04 -7.633422E-05 -1.074282E-04 -1.168516E-04 
 -1.352166E-04 -1.305086E-04 +3.721747E-06 -1.305086E-04 +5.026172E-03 -4.407627E-05 +3.721747E-06 -4.407627E-05 -8.640622E-05 
 +1.629704E-05 +2.273179E-04 -5.250963E-05 +2.273179E-04 +4.946067E-03 +1.812831E-05 -5.250963E-05 +1.812831E-05 -4.667798E-06 
 +4.366115E-05 +1.673446E-04 -5.780274E-05 +1.673446E-04 +4.925570E-03 +4.510305E-05 -5.780274E-05 +4.510305E-05 +3.740429E-05 
 +5.516013E-05 +1.694832E-04 -8.823791E-05 +1.694832E-04 +4.930108E-03 +4.276594E-05 -8.823791E-05 +4.276594E-05 +1.758127E-05 
 +6.299994E-05 +1.361282E-04 -1.107402E-04 +1.361282E-04 +4.877720E-03 +2.725905E-05 -1.107402E-04 +2.725905E-05 +6.623867E-06 
 +9.630381E-05 +1.501165E-04 -9.611067E-05 +1.501165E-04 +4.822071E-03 +3.355125E-05 -9.611067E-05 +3.355125E-05 +6.238538E-06 
 +1.029971E-04 +1.468608E-04 -6.329009E-05 +1.468608E-04 +4.801912E-03 +3.823072E-05 -6.329009E-05 +3.823072E-05 +6.172246E-06 
 +1.039779E-04 +1.978547E-04 -6.114693E-05 +1.978547E-04 +4.824865E-03 +2.009664E-05 -6.114693E-05 +2.009664E-05 -3.103687E-05 
 +2.022040E-05 +1.729132E-04 +1.994359E-05 +1.729132E-04 +4.951402E-03 -3.335789E-05 +1.994359E-05 -3.335789E-05 -1.569836E-04 
 -1.316536E-05 +1.567132E-04 +1.341984E-05 +1.567132E-04 +5.083966E-03 -6.605854E-05 +1.341984E-05 -6.605854E-05 -2.316418E-04 
 -2.116082E-05 +1.103302E-04 -5.612871E-06 +1.103302E-04 +5.088238E-03 -8.303111E-05 -5.612871E-06 -8.303111E-05 -1.888914E-04 
 -2.967642E-05 +1.610253E-04 +4.036026E-05 +1.610253E-04 +5.068478E-03 -8.350137E-05 +4.036026E-05 -8.350137E-05 -7.697924E-05 
 -7.168372E-05 +1.486755E-04 +5.671298E-05 +1.486755E-04 +5.051652E-03 -9.345928E-05 +5.671298E-05 -9.345928E-05 +9.423038E-05 
 -2.790915E-05 +1.085591E-04 -1.368903E-05 +1.085591E-04 +4.939648E-03 -1.085797E-04 -1.368903E-05 -1.085797E-04 +2.297707E-04 
 -2.648577E-05 +1.315353E-04 +4.944018E-05 +1.315353E-04 +4.881217E-03 -5.029414E-05 +4.944018E-05 -5.029414E-05 +3.289893E-04 
 -1.174693E-05 +8.881664E-05 +5.657384E-05 +8.881664E-05 +4.901299E-03 -1.904229E-05 +5.657384E-05 -1.904229E-05 +3.023614E-04 
 +9.587156E-06 -9.074386E-05 -1.183882E-04 -9.074386E-05 +4.944986E-03 -4.079635E-05 -1.183882E-04 -4.079635E-05 +1.260207E-04 
 +7.056683E-06 -1.711843E-04 -1.385300E-04 -1.711843E-04 +5.039580E-03 -4.393357E-05 -1.385300E-04 -4.393357E-05 -2.900169E-05 
 +1.046938E-05 -1.948963E-04 -1.025220E-04 -1.948963E-04 +5.125890E-03 -5.967691E-05 -1.025220E-04 -5.967691E-05 -8.804162E-05 
 -1.616696E-05 -1.528340E-04 -8.995075E-05 -1.528340E-04 +5.157807E-03 -1.006488E-04 -8.995075E-05 -1.006488E-04 -1.659181E-04 
 -6.974659E-05 -1.241248E-04 -7.628993E-05 -1.241248E-04 +5.143877E-03 -1.081671E-04 -7.628993E-05 -1.081671E-04 -1.864315E-04 
 -8.143671E-05 -1.810132E-04 +3.735590E-05 -1.810132E-04 +5.058349E-03 -6.178776E-05 +3.735590E-05 -6.178776E-05 -1.097251E-04 
 +7.301572E-05 +1.106596E-04 -5.049445E-05 +1.106596E-04 +4.893874E-03 -1.308686E-05 -5.049445E-05 -1.308686E-05 -1.868670E-05 
 +1.099677E-04 +1.536863E-04 -1.412665E-04 +1.536863E-04 +4.856265E-03 -3.222280E-06 -1.412665E-04 -3.222280E-06 -5.740297E-06 
 +8.786062E-05 +1.430384E-04 -1.902004E-04 +1.430384E-04 +4.935948E-03 -8.275761E-06 -1.902004E-04 -8.275761E-06 -1.740793E-05 
 +5.566971E-05 +9.825849E-05 -1.616569E-04 +9.825849E-05 +4.906866E-03 +7.304604E-06 -1.616569E-04 +7.304604E-06 -4.317988E-07 
 +1.384737E-04 +1.354674E-04 -2.836442E-05 +1.354674E-04 +4.807957E-03 +4.579837E-05 -2.836442E-05 +4.579837E-05 +2.645661E-05 
 +1.779771E-04 +1.658092E-04 +3.917641E-05 +1.658092E-04 +4.767211E-03 +7.954677E-05 +3.917641E-05 +7.954677E-05 +2.480787E-05 
 +7.573007E-05 +2.211419E-04 -1.053833E-04 +2.211419E-04 +4.857159E-03 +7.569426E-05 -1.053833E-04 +7.569426E-05 -3.949334E-05 
 -3.590332E-05 +2.194268E-04 -8.206382E-05 +2.194268E-04 +5.043766E-03 +2.844258E-05 -8.206382E-05 +2.844258E-05 -2.196082E-04 
 -5.110243E-05 +1.567660E-04 -7.634512E-05 +1.567660E-04 +5.157737E-03 -7.636092E-06 -7.634512E-05 -7.636092E-06 -2.859029E-04 
 -9.440829E-05 +1.077028E-04 -9.197725E-05 +1.077028E-04 +5.143573E-03 -3.967307E-05 -9.197725E-05 -3.967307E-05 -1.765175E-04 
 -1.226233E-04 +9.316581E-05 -3.362317E-05 +9.316581E-05 +4.982007E-03 -1.018745E-04 -3.362317E-05 -1.018745E-04 -3.127652E-05 
 -2.737744E-05 +7.835376E-05 +2.838373E-05 +7.835376E-05 +4.805120E-03 -1.172144E-04 +2.838373E-05 -1.172144E-04 +1.295575E-04 
 -1.278656E-05 +6.090233E-05 +2.664765E-05 +6.090233E-05 +4.817310E-03 -5.328389E-05 +2.664765E-05 -5.328389E-05 +2.226322E-04 
 -4.123041E-05 +1.301568E-04 +9.895030E-05 +1.301568E-04 +4.858507E-03 -2.011407E-05 +9.895030E-05 -2.011407E-05 +3.153122E-04 
 -6.273522E-05 +8.196854E-05 +7.006141E-05 +8.196854E-05 +4.864885E-03 -3.078179E-05 +7.006141E-05 -3.078179E-05 +3.270578E-04 
 -8.136774E-05 -5.771179E-05 -1.031774E-04 -5.771179E-05 +4.924240E-03 -3.120514E-05 -1.031774E-04 -3.120514E-05 +1.982333E-04 
 -3.238782E-05 -1.518928E-04 -2.131748E-04 -1.518928E-04 +5.045690E-03 -2.481446E-05 -2.131748E-04 -2.481446E-05 +4.619516E-05 
 +6.543645E-05 -2.084394E-04 -1.548624E-04 -2.084394E-04 +4.890325E-03 -1.182708E-04 -1.548624E-04 -1.182708E-04 +1.399700E-05 
 +7.346294E-05 -1.949508E-04 -1.045009E-04 -1.949508E-04 +4.901515E-03 -9.023863E-05 -1.045009E-04 -9.023863E-05 -1.237176E-05 
 +4.834364E-05 -1.110821E-04 -1.034011E-04 -1.110821E-04 +4.965426E-03 -3.231649E-05 -1.034011E-04 -3.231649E-05 -1.692668E-05 
 -2.166426E-05 -7.036993E-05 -1.399866E-05 -7.036993E-05 +5.094582E-03 +3.186184E-05 -1.399866E-05 +3.186184E-05 -3.911404E-05 
 -3.055485E-05 +6.883442E-05 -1.573740E-05 +6.883442E-05 +5.045762E-03 +6.141834E-05 -1.573740E-05 +6.141834E-05 +6.040303E-06 
 +1.486468E-04 +1.489574E-04 -1.971067E-04 +1.489574E-04 +4.868844E-03 +4.483520E-05 -1.971067E-04 +4.483520E-05 +5.631353E-05 
 +1.740030E-04 +1.310446E-04 -2.167432E-04 +1.310446E-04 +4.834472E-03 -2.393945E-05 -2.167432E-04 -2.393945E-05 -1.188745E-05 
 +1.214013E-04 +8.577074E-05 -1.174501E-04 +8.577074E-05 +4.858287E-03 -3.114955E-05 -1.174501E-04 -3.114955E-05 -4.547560E-05 
 +1.268269E-04 +9.968494E-05 +6.889359E-05 +9.968494E-05 +4.855186E-03 +7.428050E-05 +6.889359E-05 +7.428050E-05 +2.846893E-05 
 +9.313483E-05 +1.320167E-04 +3.712619E-05 +1.320167E-04 +4.965670E-03 +8.388920E-05 +3.712619E-05 +8.388920E-05 -4.933221E-05 
 -4.427906E-05 +1.211721E-04 -2.066417E-04 +1.211721E-04 +5.184414E-03 +5.631948E-05 -2.066417E-04 +5.631948E-05 -2.151005E-04 
 -2.700373E-05 +8.854342E-05 -1.952179E-04 +8.854342E-05 +5.245602E-03 +5.705344E-05 -1.952179E-04 +5.705344E-05 -3.031213E-04 
 -4.308552E-05 +1.034901E-05 -1.954567E-04 +1.034901E-05 +5.222446E-03 +1.879773E-05 -1.954567E-04 +1.879773E-05 -2.874473E-04 
 -1.178017E-04 -6.650746E-05 -1.689989E-04 -6.650746E-05 +5.192127E-03 +6.856640E-06 -1.689989E-04 +6.856640E-06 -1.513120E-04 
 -1.796095E-04 -1.197713E-04 -2.049963E-04 -1.197713E-04 +5.030193E-03 -6.405682E-05 -2.049963E-04 -6.405682E-05 +2.201501E-05 
 -9.278281E-06 -4.549663E-05 +7.097332E-05 -4.549663E-05 +4.765610E-03 -7.360714E-05 +7.097332E-05 -7.360714E-05 +1.514977E-04 
 +5.749702E-06 +7.633473E-05 +3.131404E-05 +7.633473E-05 +4.728242E-03 -1.903002E-05 +3.131404E-05 -1.903002E-05 +1.854508E-04 
 -6.968758E-05 +6.301085E-05 +7.168515E-05 +6.301085E-05 +4.863795E-03 -4.112162E-05 +7.168515E-05 -4.112162E-05 +2.126107E-04 
 -1.338676E-04 -2.324891E-05 +4.456863E-05 -2.324891E-05 +4.875056E-03 -1.050863E-04 +4.456863E-05 -1.050863E-04 +2.542706E-04 
 -1.219297E-04 -1.108665E-04 -5.491311E-05 -1.108665E-04 +4.857174E-03 -1.851900E-04 -5.491311E-05 -1.851900E-04 +2.173133E-04 
 -5.837609E-05 -1.336010E-04 -1.361388E-04 -1.336010E-04 +4.869337E-03 -1.716246E-04 -1.361388E-04 -1.716246E-04 +1.154691E-04 
 +8.626667E-05 -2.023657E-04 -6.896095E-05 -2.023657E-04 +4.825765E-03 -1.722889E-04 -6.896095E-05 -1.722889E-04 +2.028484E-05 
 +1.175897E-04 -1.821904E-04 -9.144750E-05 -1.821904E-04 +4.855341E-03 -6.461408E-05 -9.144750E-05 -6.461408E-05 +2.534939E-05 
 +1.730668E-04 -1.669070E-04 -1.576162E-04 -1.669070E-04 +4.873269E-03 -1.089178E-05 -1.576162E-04 -1.089178E-05 +6.464930E-05 
 +1.568257E-04 -1.152431E-04 -1.535521E-04 -1.152431E-04 +4.936043E-03 +3.030221E-05 -1.535521E-04 +3.030221E-05 +2.986030E-05 
 -9.238682E-06 +4.243158E-05 -1.115346E-04 +4.243158E-05 +5.013816E-03 +3.968160E-05 -1.115346E-04 +3.968160E-05 +9.487664E-05 
 +1.084323E-04 +1.951792E-04 -2.779647E-04 +1.951792E-04 +4.882780E-03 +2.821638E-05 -2.779647E-04 +2.821638E-05 +1.919125E-04 
 +1.972130E-04 +2.404431E-04 -1.646991E-04 +2.404431E-04 +4.776421E-03 +6.154641E-05 -1.646991E-04 +6.154641E-05 +6.722439E-05 
 +8.018397E-05 +7.332214E-05 -6.412735E-05 +7.332214E-05 +4.841392E-03 +4.823136E-05 -6.412735E-05 +4.823136E-05 -3.446331E-05 
 +1.122386E-06 +5.633521E-05 +3.515375E-05 +5.633521E-05 +5.067859E-03 +4.351766E-05 +3.515375E-05 +4.351766E-05 -7.019956E-05 
 -6.963183E-05 +8.124942E-05 -1.181328E-04 +8.124942E-05 +5.302781E-03 +5.052237E-05 -1.181328E-04 +5.052237E-05 -2.444004E-04 
 -3.732012E-05 +1.259836E-04 -2.107068E-04 +1.259836E-04 +5.301385E-03 +2.697138E-05 -2.107068E-04 +2.697138E-05 -3.637835E-04 
 +2.694764E-06 +9.556742E-05 -2.378226E-04 +9.556742E-05 +5.243032E-03 +3.008814E-05 -2.378226E-04 +3.008814E-05 -3.467940E-04 
 -2.983039E-05 +3.776417E-05 -2.596710E-04 +3.776417E-05 +5.204479E-03 +2.247260E-05 -2.596710E-04 +2.247260E-05 -2.678259E-04 
 -8.162938E-05 -5.434755E-05 -2.393003E-04 -5.434755E-05 +5.141181E-03 +1.286041E-05 -2.393003E-04 +1.286041E-05 -1.038248E-04 
 -1.959606E-04 -1.625103E-04 -2.428013E-04 -1.625103E-04 +5.050175E-03 +4.536489E-05 -2.428013E-04 +4.536489E-05 +4.623242E-05 
 -1.052794E-04 -2.229946E-04 +6.942356E-05 -2.229946E-04 +4.874412E-03 +7.136714E-05 +6.942356E-05 +7.136714E-05 +1.087747E-04 
 -7.204283E-05 +1.587612E-05 +1.553267E-05 +1.587612E-05 +4.760434E-03 +5.578215E-05 +1.553267E-05 +5.578215E-05 +1.414941E-04 
 -8.291136E-05 -2.634207E-05 +4.082405E-05 -2.634207E-05 +4.852882E-03 +1.054077E-05 +4.082405E-05 +1.054077E-05 +1.132519E-04 
 -1.024529E-04 -9.818622E-05 +6.245886E-05 -9.818622E-05 +4.921849E-03 -7.283228E-05 +6.245886E-05 -7.283228E-05 +9.859004E-05 
 -9.043238E-05 -1.100671E-04 +1.817908E-05 -1.100671E-04 +4.912036E-03 -1.583745E-04 +1.817908E-05 -1.583745E-04 +1.389362E-04 
 -4.675438E-05 -1.455103E-04 +2.770889E-06 -1.455103E-04 +4.868812E-03 -2.297249E-04 +2.770889E-06 -2.297249E-04 +1.214517E-04 
 +9.549835E-05 -1.472211E-04 +3.219052E-05 -1.472211E-04 +4.838338E-03 -1.923007E-04 +3.219052E-05 -1.923007E-04 +5.147569E-05 
 +1.627350E-04 -1.246169E-04 -1.112671E-04 -1.246169E-04 +4.895562E-03 -1.184038E-04 -1.112671E-04 -1.184038E-04 +2.551845E-05 
 +1.878129E-04 -1.217857E-04 -1.461347E-04 -1.217857E-04 +4.899094E-03 -7.028503E-05 -1.461347E-04 -7.028503E-05 +4.525156E-05 
 +2.236250E-04 -1.007698E-04 -2.302871E-04 -1.007698E-04 +4.876830E-03 +4.834636E-05 -2.302871E-04 +4.834636E-05 +8.669029E-05 
 +1.792079E-04 -8.840849E-05 -3.042987E-04 -8.840849E-05 +4.875735E-03 +1.328471E-04 -3.042987E-04 +1.328471E-04 +2.085688E-04 
 +1.330247E-04 -5.087724E-06 -3.383035E-04 -5.087724E-06 +4.885726E-03 +1.316940E-04 -3.383035E-04 +1.316940E-04 +2.581197E-04 
 +9.434787E-05 +1.914786E-04 -9.899270E-05 +1.914786E-04 +4.968531E-03 +1.004381E-04 -9.899270E-05 +1.004381E-04 +6.239971E-05 
 -8.555666E-05 +4.548745E-05 -1.705665E-04 +4.548745E-05 +5.189944E-03 +2.796853E-05 -1.705665E-04 +2.796853E-05 -6.409152E-05 
 -1.033129E-04 +8.377411E-05 -1.158843E-04 +8.377411E-05 +5.316408E-03 -3.564931E-05 -1.158843E-04 -3.564931E-05 -1.715992E-04 
 -6.530184E-05 +1.267395E-04 -1.979825E-04 +1.267395E-04 +5.297347E-03 -4.244150E-06 -1.979825E-04 -4.244150E-06 -3.310726E-04 
 +4.317402E-05 +1.281554E-04 -1.911360E-04 +1.281554E-04 +5.259489E-03 +1.858796E-05 -1.911360E-04 +1.858796E-05 -3.877779E-04 
 +4.187791E-05 +1.040243E-04 -2.434467E-04 +1.040243E-04 +5.211049E-03 +7.780972E-07 -2.434467E-04 +7.780972E-07 -3.376023E-04 
 +1.696460E-05 +5.633826E-05 -2.932297E-04 +5.633826E-05 +5.159363E-03 +5.824686E-06 -2.932297E-04 +5.824686E-06 -2.350691E-04 
 -2.290772E-05 -3.293082E-05 -3.182464E-04 -3.293082E-05 +5.101416E-03 +2.525080E-05 -3.182464E-04 +2.525080E-05 -5.878520E-05 
 -2.443937E-04 -1.271972E-04 -1.350850E-04 -1.271972E-04 +5.077049E-03 +7.291320E-05 -1.350850E-04 +7.291320E-05 +4.472410E-05 
 -2.804565E-04 -1.470576E-04 +1.507416E-05 -1.470576E-04 +5.175304E-03 +9.002468E-05 +1.507416E-05 +9.002468E-05 +6.724769E-05 
 -3.217349E-04 -3.121938E-05 +8.147315E-05 -3.121938E-05 +5.084976E-03 +1.352691E-04 +8.147315E-05 +1.352691E-04 +1.566535E-04 
 -5.917747E-05 -1.986700E-05 +6.125106E-05 -1.986700E-05 +4.832261E-03 +1.449247E-04 +6.125106E-05 +1.449247E-04 +1.640212E-04 
 +4.277795E-06 -1.029404E-04 +9.686497E-05 -1.029404E-04 +4.829130E-03 -2.757772E-05 +9.686497E-05 -2.757772E-05 +1.084548E-04 
 +1.699001E-06 -1.265953E-04 +8.303329E-05 -1.265953E-04 +4.898765E-03 -2.237248E-04 +8.303329E-05 -2.237248E-04 +9.698699E-05 
 -1.344092E-06 -1.734826E-04 +9.089732E-05 -1.734826E-04 +4.854484E-03 -2.868897E-04 +9.089732E-05 -2.868897E-04 +8.051278E-05 
 +1.301786E-04 -9.738468E-05 +3.079779E-05 -9.738468E-05 +4.814503E-03 -1.562664E-04 +3.079779E-05 -1.562664E-04 +1.423903E-04 
 +2.073250E-04 -4.673266E-05 -1.237624E-04 -4.673266E-05 +4.828422E-03 -1.028504E-04 -1.237624E-04 -1.028504E-04 +3.687023E-05 
 +1.695917E-04 -1.008191E-04 -8.271566E-05 -1.008191E-04 +4.892304E-03 -1.860864E-05 -8.271566E-05 -1.860864E-05 +2.450512E-05 
 +1.952471E-04 -9.464344E-05 -2.361985E-04 -9.464344E-05 +4.894853E-03 +6.978026E-05 -2.361985E-04 +6.978026E-05 +1.354865E-04 
 +1.684912E-04 -7.000839E-05 -3.613967E-04 -7.000839E-05 +4.905460E-03 +1.932801E-04 -3.613967E-04 +1.932801E-04 +2.597139E-04 
 +1.645078E-04 -5.549988E-05 -3.606104E-04 -5.549988E-05 +5.046773E-03 +1.924600E-04 -3.606104E-04 +1.924600E-04 +2.248795E-04 
 -1.397865E-05 +1.140904E-04 -1.957987E-04 +1.140904E-04 +5.180877E-03 +7.696552E-05 -1.957987E-04 +7.696552E-05 +9.158767E-06 
 -9.354894E-05 +7.900883E-05 -3.073582E-04 +7.900883E-05 +5.225454E-03 -6.554821E-06 -3.073582E-04 -6.554821E-06 -1.062495E-04 
 -7.136429E-05 +1.314596E-04 -2.093000E-04 +1.314596E-04 +5.254910E-03 -5.119512E-05 -2.093000E-04 -5.119512E-05 -1.887227E-04 
 -8.835064E-06 +1.735365E-04 -2.069528E-04 +1.735365E-04 +5.257549E-03 -6.426735E-05 -2.069528E-04 -6.426735E-05 -2.951952E-04 
 +6.218501E-05 +1.445636E-04 -1.958841E-04 +1.445636E-04 +5.241818E-03 -4.374213E-05 -1.958841E-04 -4.374213E-05 -3.753871E-04 
 +8.126729E-05 +9.818175E-05 -2.476313E-04 +9.818175E-05 +5.195415E-03 -2.248747E-05 -2.476313E-04 -2.248747E-05 -3.185049E-04 
 +6.889616E-05 +2.690571E-05 -3.171647E-04 +2.690571E-05 +5.132760E-03 +3.067896E-06 -3.171647E-04 +3.067896E-06 -1.864810E-04 
 -3.521033E-05 -7.561713E-05 -3.287095E-04 -7.561713E-05 +5.120141E-03 +7.878468E-05 -3.287095E-04 +7.878468E-05 -7.479379E-05 
 -3.100358E-04 -2.122489E-04 -9.161315E-05 -2.122489E-04 +5.144417E-03 +1.008723E-04 -9.161315E-05 +1.008723E-04 +1.004276E-05 
 -4.046112E-04 -1.856490E-04 +3.048057E-06 -1.856490E-04 +5.179825E-03 +7.617811E-05 +3.048057E-06 +7.617811E-05 +7.906059E-05 
 -4.018671E-04 -1.003715E-04 +1.250991E-04 -1.003715E-04 +5.143210E-03 +1.102166E-04 +1.250991E-04 +1.102166E-04 +1.546074E-04 
 -9.536582E-05 +5.149316E-06 +1.125759E-04 +5.149316E-06 +4.883004E-03 +1.553712E-04 +1.125759E-04 +1.553712E-04 +1.884707E-04 
 +6.588922E-05 +1.512016E-05 +1.173300E-04 +1.512016E-05 +4.601604E-03 +1.653546E-04 +1.173300E-04 +1.653546E-04 +1.698068E-04 
 +1.133040E-04 +5.153260E-05 +1.062581E-04 +5.153260E-05 +4.644348E-03 +4.380169E-05 +1.062581E-04 +4.380169E-05 +1.068980E-04 
 +8.105152E-06 -1.270430E-04 +1.379487E-04 -1.270430E-04 +4.800787E-03 -1.082966E-04 +1.379487E-04 -1.082966E-04 +1.067005E-04 
 +1.293980E-04 -8.635290E-05 +3.068888E-05 -8.635290E-05 +4.790073E-03 -1.312760E-04 +3.068888E-05 -1.312760E-04 +1.483436E-04 
 +2.175350E-04 -3.901870E-05 -1.029435E-04 -3.901870E-05 +4.822988E-03 -5.561721E-05 -1.029435E-04 -5.561721E-05 +1.002612E-04 
 +2.139884E-04 -7.091872E-05 -1.402531E-04 -7.091872E-05 +4.831286E-03 +3.432126E-05 -1.402531E-04 +3.432126E-05 +9.177925E-05 
 +1.388198E-04 -4.247315E-05 -1.920320E-04 -4.247315E-05 +4.870581E-03 +1.083247E-04 -1.920320E-04 +1.083247E-04 +1.724649E-04 
 +4.046445E-05 -2.347210E-05 -2.036303E-04 -2.347210E-05 +5.011382E-03 +1.632931E-04 -2.036303E-04 +1.632931E-04 +2.503290E-04 
 +7.737305E-05 -1.398152E-05 -2.432023E-04 -1.398152E-05 +5.126527E-03 +1.211701E-04 -2.432023E-04 +1.211701E-04 +1.846265E-04 
 +6.174531E-06 +1.288707E-04 -2.818264E-04 +1.288707E-04 +5.154234E-03 +2.095776E-05 -2.818264E-04 +2.095776E-05 -2.469333E-05 
 -1.476280E-05 +1.125988E-04 -3.696636E-04 +1.125988E-04 +5.149137E-03 -8.102654E-05 -3.696636E-04 -8.102654E-05 -1.128027E-04 
 +8.916698E-07 +1.457146E-04 -2.575580E-04 +1.457146E-04 +5.175874E-03 -1.242252E-04 -2.575580E-04 -1.242252E-04 -1.577506E-04 
 +3.718531E-05 +1.783469E-04 -2.317562E-04 +1.783469E-04 +5.213797E-03 -1.251272E-04 -2.317562E-04 -1.251272E-04 -2.614352E-04 
 +1.001339E-04 +1.630601E-04 -2.228379E-04 +1.630601E-04 +5.214916E-03 -1.162525E-04 -2.228379E-04 -1.162525E-04 -2.953410E-04 
 +1.148262E-04 +1.157621E-04 -2.650140E-04 +1.157621E-04 +5.186616E-03 -4.267680E-05 -2.650140E-04 -4.267680E-05 -2.723821E-04 
 +6.252145E-05 +5.810924E-05 -4.027138E-04 +5.810924E-05 +5.178817E-03 +3.400406E-05 -4.027138E-04 +3.400406E-05 -2.021099E-04 
 -1.048122E-04 -3.050908E-05 -3.275760E-04 -3.050908E-05 +5.238201E-03 +3.902140E-05 -3.275760E-04 +3.902140E-05 -1.266619E-04 
 -4.359445E-04 -2.024987E-04 -7.964863E-05 -2.024987E-04 +5.269170E-03 +9.755056E-06 -7.964863E-05 +9.755056E-06 -4.088215E-05 
 -4.584315E-04 -2.209648E-04 +6.701031E-05 -2.209648E-04 +5.110082E-03 +4.120627E-05 +6.701031E-05 +4.120627E-05 +9.958462E-05 
 -2.229741E-04 -1.271397E-04 +9.314250E-05 -1.271397E-04 +4.902987E-03 +1.074753E-04 +9.314250E-05 +1.074753E-04 +1.937252E-04 
 -1.020248E-04 -2.892640E-05 +1.265072E-04 -2.892640E-05 +4.817311E-03 +1.019687E-04 +1.265072E-04 +1.019687E-04 +2.329529E-04 
 +5.233800E-05 +2.281671E-05 +1.860562E-04 +2.281671E-05 +4.724889E-03 +1.169775E-04 +1.860562E-04 +1.169775E-04 +2.146576E-04 
 +5.296291E-05 +1.039037E-04 +9.343097E-05 +1.039037E-04 +4.683248E-03 +6.417298E-05 +9.343097E-05 +6.417298E-05 +1.562153E-04 
 +9.444468E-05 -1.074388E-04 +1.404716E-04 -1.074388E-04 +4.750859E-03 -7.137386E-05 +1.404716E-04 -7.137386E-05 +1.349919E-04 
 -4.090719E-05 -4.970141E-05 +3.827441E-04 -4.970141E-05 +4.897072E-03 -1.374407E-05 +3.827441E-04 -1.374407E-05 -7.541092E-05 
 +5.884064E-05 +7.730079E-06 +2.524686E-04 +7.730079E-06 +4.984103E-03 -3.313560E-05 +2.524686E-04 -3.313560E-05 -9.575037E-05 
 +1.788955E-04 +1.856202E-05 +1.183593E-04 +1.856202E-05 +4.975454E-03 -1.048625E-05 +1.183593E-04 -1.048625E-05 -8.876803E-05 
 +7.632476E-05 +2.038632E-05 +1.170499E-04 +2.038632E-05 +5.115974E-03 -1.785915E-05 +1.170499E-04 -1.785915E-05 -5.279198E-05 
 -1.317988E-04 -9.819081E-07 +1.982379E-04 -9.819081E-07 +5.274074E-03 +4.409601E-05 +1.982379E-04 +4.409601E-05 +7.587685E-05 
 -2.001876E-05 -2.690180E-05 -1.790756E-04 -2.690180E-05 +5.344472E-03 +1.188306E-04 -1.790756E-04 +1.188306E-04 -1.078541E-04 
 +3.475185E-05 +1.136588E-05 -2.163074E-04 +1.136588E-05 +5.288371E-03 +1.572105E-05 -2.163074E-04 +1.572105E-05 -2.638091E-04 
 +2.682406E-05 +6.421455E-05 -2.852271E-04 +6.421455E-05 +5.181366E-03 -9.204637E-05 -2.852271E-04 -9.204637E-05 -1.363367E-04 
 +8.841562E-06 +1.593556E-04 -3.257940E-04 +1.593556E-04 +5.143026E-03 -1.055584E-04 -3.257940E-04 -1.055584E-04 -1.680216E-04 
 +9.869181E-05 +1.573247E-04 -2.010207E-04 +1.573247E-04 +5.126924E-03 -6.073212E-05 -2.010207E-04 -6.073212E-05 -1.677734E-04 
 -1.372313E-05 +1.336246E-04 -2.454536E-04 +1.336246E-04 +5.152591E-03 -6.625408E-05 -2.454536E-04 -6.625408E-05 -9.185117E-05 
 -3.594358E-06 +7.695457E-05 -2.416469E-04 +7.695457E-05 +5.220153E-03 -6.895750E-05 -2.416469E-04 -6.895750E-05 -9.757110E-05 
 -4.076951E-05 +8.237788E-06 -3.026052E-04 +8.237788E-06 +5.260228E-03 +4.808555E-05 -3.026052E-04 +4.808555E-05 -2.121439E-04 
 -8.315466E-05 -7.099494E-05 -4.816995E-04 -7.099494E-05 +5.275509E-03 +2.403048E-05 -4.816995E-04 +2.403048E-05 -2.606402E-04 
 -9.989374E-05 -2.874255E-04 -1.370755E-04 -2.874255E-04 +5.158107E-03 +3.076382E-05 -1.370755E-04 +3.076382E-05 -2.389540E-04 
 -1.206215E-04 -2.382730E-04 +1.290332E-04 -2.382730E-04 +4.968931E-03 +1.387582E-04 +1.290332E-04 +1.387582E-04 -2.412243E-05 
 -6.067030E-05 -1.205192E-04 +9.975637E-05 -1.205192E-04 +4.788146E-03 +1.445335E-04 +9.975637E-05 +1.445335E-04 +2.069375E-04 
 -4.504722E-05 -8.419675E-05 +6.705893E-05 -8.419675E-05 +4.629884E-03 +1.343000E-04 +6.705893E-05 +1.343000E-04 +2.397203E-04 
 +4.733138E-05 -2.926515E-05 +1.434305E-04 -2.926515E-05 +4.662545E-03 +1.689028E-04 +1.434305E-04 +1.689028E-04 +2.367048E-04 
 +6.250853E-05 +1.611875E-05 +1.410689E-04 +1.611875E-05 +4.721835E-03 +1.920586E-04 +1.410689E-04 +1.920586E-04 +2.055924E-04 
 +6.719685E-05 -2.207195E-04 +2.763137E-04 -2.207195E-04 +4.727666E-03 +9.195630E-05 +2.763137E-04 +9.195630E-05 +5.479349E-05 
 +3.779316E-05 +4.336945E-05 +1.392187E-04 +4.336945E-05 +4.953313E-03 +7.456289E-05 +1.392187E-04 +7.456289E-05 -2.425644E-05 
 +6.257443E-05 +2.125244E-06 +9.084708E-05 +2.125244E-06 +5.028170E-03 +5.843385E-06 +9.084708E-05 +5.843385E-06 -6.193714E-05 
 +6.943878E-05 -3.986027E-05 -5.157246E-05 -3.986027E-05 +5.120633E-03 +1.505830E-05 -5.157246E-05 +1.505830E-05 -8.718304E-05 
 -3.937376E-06 -1.263538E-04 -6.593310E-05 -1.263538E-04 +5.239063E-03 -2.180198E-06 -6.593310E-05 -2.180198E-06 -9.740268E-05 
 -2.209351E-04 -1.714657E-04 +1.573908E-04 -1.714657E-04 +5.361149E-03 -6.458154E-05 +1.573908E-04 -6.458154E-05 -4.418408E-05 
 -6.529710E-05 -1.367306E-04 -1.533608E-04 -1.367306E-04 +5.378223E-03 -7.290769E-05 -1.533608E-04 -7.290769E-05 -2.003958E-04 
 +8.408082E-05 -1.009128E-04 -2.704672E-04 -1.009128E-04 +5.272211E-03 -5.856693E-05 -2.704672E-04 -5.856693E-05 -3.048545E-04 
 +8.835916E-05 -5.388498E-05 -2.509797E-04 -5.388498E-05 +5.157820E-03 -9.528966E-05 -2.509797E-04 -9.528966E-05 -2.111442E-04 
 +4.090066E-05 +2.096841E-05 -2.581427E-04 +2.096841E-05 +5.076295E-03 -8.278336E-05 -2.581427E-04 -8.278336E-05 -1.702694E-04 
 +1.401968E-04 +1.454409E-05 -8.878149E-05 +1.454409E-05 +5.007451E-03 -4.359187E-05 -8.878149E-05 -4.359187E-05 -7.796898E-05 
 +5.540549E-05 +8.637176E-05 -2.489291E-04 +8.637176E-05 +5.056787E-03 -4.714619E-05 -2.489291E-04 -4.714619E-05 +5.593522E-06 
 +7.623945E-05 +5.206585E-05 -2.768729E-04 +5.206585E-05 +5.186725E-03 -1.959549E-05 -2.768729E-04 -1.959549E-05 -4.830423E-05 
 -8.394466E-05 +5.921323E-05 -3.043576E-04 +5.921323E-05 +5.409084E-03 +2.865941E-05 -3.043576E-04 +2.865941E-05 -2.929813E-04 
 -1.089394E-04 -1.254024E-04 -4.669140E-04 -1.254024E-04 +5.387338E-03 +9.282958E-06 -4.669140E-04 +9.282958E-06 -3.950514E-04 
 +4.591990E-05 -2.990891E-04 +1.102360E-04 -2.990891E-04 +5.186271E-03 -3.096248E-05 +1.102360E-04 -3.096248E-05 -4.776109E-04 
 -4.557484E-05 -2.519581E-04 +2.203960E-04 -2.519581E-04 +5.180191E-03 -5.117999E-05 +2.203960E-04 -5.117999E-05 -3.578414E-04 
 -3.581181E-05 -2.017125E-04 +1.977204E-04 -2.017125E-04 +5.098529E-03 -4.077177E-05 +1.977204E-04 -4.077177E-05 -5.639833E-05 
 -2.079492E-04 -7.157602E-05 +1.485150E-04 -7.157602E-05 +5.035040E-03 +3.346524E-05 +1.485150E-04 +3.346524E-05 +4.474400E-05 
 -7.067399E-05 -2.988169E-05 +2.913909E-04 -2.988169E-05 +4.962068E-03 +1.485064E-04 +2.913909E-04 +1.485064E-04 +2.018586E-04 
 +3.236743E-05 -2.259635E-06 +1.718186E-04 -2.259635E-06 +4.833610E-03 +1.926146E-04 +1.718186E-04 +1.926146E-04 +2.122936E-04 
 +1.099216E-04 -1.490929E-04 +1.748458E-04 -1.490929E-04 +4.868289E-03 +1.652748E-04 +1.748458E-04 +1.652748E-04 +3.669778E-05 
 +3.831811E-05 -1.687596E-05 -6.764817E-05 -1.687596E-05 +4.993800E-03 +6.616418E-05 -6.764817E-05 +6.616418E-05 -8.349463E-05 
 -5.252527E-05 -7.749046E-05 -1.027963E-04 -7.749046E-05 +5.112304E-03 +6.139434E-05 -1.027963E-04 +6.139434E-05 -1.344628E-04 
 -1.383012E-04 -1.657532E-04 -1.489442E-04 -1.657532E-04 +5.271030E-03 +1.419502E-05 -1.489442E-04 +1.419502E-05 -1.439127E-04 
 -1.915163E-04 -2.285961E-04 -1.028194E-04 -2.285961E-04 +5.323852E-03 -3.774008E-07 -1.028194E-04 -3.774008E-07 -1.462316E-04 
 -5.559448E-06 -2.058638E-04 +1.343256E-04 -2.058638E-04 +5.319007E-03 -6.351093E-05 +1.343256E-04 -6.351093E-05 -2.450193E-04 
 +9.320416E-05 -8.194329E-05 +5.796912E-05 -8.194329E-05 +5.294153E-03 -1.268961E-04 +5.796912E-05 -1.268961E-04 -2.798608E-04 
 +7.672427E-06 -1.069562E-04 -1.524496E-04 -1.069562E-04 +5.228762E-03 -1.201905E-04 -1.524496E-04 -1.201905E-04 -1.406801E-04 
 -2.593703E-05 -1.417339E-04 -2.040202E-04 -1.417339E-04 +5.152787E-03 -1.095623E-04 -2.040202E-04 -1.095623E-04 -1.517320E-04 
 +9.576681E-05 -1.238721E-04 -2.188013E-04 -1.238721E-04 +5.067208E-03 -6.945430E-05 -2.188013E-04 -6.945430E-05 -1.824348E-04 
 +1.450908E-04 -8.732609E-05 -1.049347E-04 -8.732609E-05 +5.023443E-03 -2.275156E-05 -1.049347E-04 -2.275156E-05 -1.340716E-04 
 +6.790171E-05 -3.345735E-05 -2.340727E-04 -3.345735E-05 +5.040871E-03 -1.660868E-05 -2.340727E-04 -1.660868E-05 -3.774584E-05 
 +1.593276E-04 -8.761607E-05 -1.578855E-04 -8.761607E-05 +5.161961E-03 +1.329518E-05 -1.578855E-04 +1.329518E-05 -3.098047E-05 
 +9.992245E-05 -1.109401E-05 -1.342660E-04 -1.109401E-05 +5.244318E-03 +1.264795E-05 -1.342660E-04 +1.264795E-05 -1.836742E-04 
 +4.235208E-05 -2.753659E-04 -1.649509E-04 -2.753659E-04 +5.125660E-03 +3.427847E-05 -1.649509E-04 +3.427847E-05 -2.783258E-04 
 +1.017347E-05 -2.876460E-04 +1.964340E-04 -2.876460E-04 +5.137003E-03 +8.851993E-06 +1.964340E-04 +8.851993E-06 -5.282968E-04 
 +2.771808E-05 -3.353673E-04 +2.546493E-04 -3.353673E-04 +5.232482E-03 -7.146265E-05 +2.546493E-04 -7.146265E-05 -6.002410E-04 
 -1.356914E-05 -2.930717E-04 +2.614062E-04 -2.930717E-04 +5.313736E-03 -4.023738E-05 +2.614062E-04 -4.023738E-05 -4.424426E-04 
 -2.291558E-04 -9.339960E-05 +2.843356E-04 -9.339960E-05 +5.377151E-03 +4.809944E-05 +2.843356E-04 +4.809944E-05 -2.874725E-04 
 -1.823353E-04 -2.541788E-05 +3.979967E-04 -2.541788E-05 +5.334240E-03 +9.894447E-05 +3.979967E-04 +9.894447E-05 -1.936001E-05 
 -3.047724E-05 -2.228512E-05 +2.796399E-04 -2.228512E-05 +5.195722E-03 +8.021658E-05 +2.796399E-04 +8.021658E-05 -1.601537E-05 
 +8.212221E-05 -1.590515E-04 +1.716300E-04 -1.590515E-04 +5.029738E-03 +5.303030E-05 +1.716300E-04 +5.303030E-05 -8.442630E-05 
 -2.608288E-04 +7.066295E-05 -8.901400E-06 +7.066295E-05 +5.166797E-03 +7.276400E-05 -8.901400E-06 +7.276400E-05 -1.681323E-04 
 -2.202771E-04 -2.921399E-05 -1.459136E-04 -2.921399E-05 +5.189065E-03 +1.334503E-04 -1.459136E-04 +1.334503E-04 -1.798405E-04 
 -1.783619E-04 -6.495346E-05 -1.790639E-04 -6.495346E-05 +5.245780E-03 +5.136897E-05 -1.790639E-04 +5.136897E-05 -1.298369E-04 
 -2.195350E-04 -4.681287E-05 -1.219047E-04 -4.681287E-05 +5.267806E-03 +4.986210E-06 -1.219047E-04 +4.986210E-06 -9.156976E-05 
 +1.662500E-04 -7.296903E-05 +3.501224E-05 -7.296903E-05 +5.205434E-03 -1.524887E-06 +3.501224E-05 -1.524887E-06 -2.101948E-04 
 +2.816524E-04 -8.532372E-05 +8.311024E-05 -8.532372E-05 +5.129353E-03 -3.782258E-05 +8.311024E-05 -3.782258E-05 -2.609219E-04 
 -6.093512E-05 -4.493531E-05 -4.372988E-06 -4.493531E-05 +5.148214E-03 -2.082100E-05 -4.372988E-06 -2.082100E-05 +8.827471E-07 
 -2.778103E-04 -6.257965E-05 -8.160576E-05 -6.257965E-05 +5.168412E-03 +2.005503E-05 -8.160576E-05 +2.005503E-05 -2.093675E-05 
 +8.558815E-05 -1.154049E-04 -1.399660E-04 -1.154049E-04 +5.122566E-03 +5.077050E-05 -1.399660E-04 +5.077050E-05 -2.355724E-04 
 +1.391112E-04 -7.537953E-05 -1.414783E-04 -7.537953E-05 +5.096467E-03 +4.252433E-05 -1.414783E-04 +4.252433E-05 -2.892712E-04 
 +9.888398E-05 +2.493228E-06 -1.338975E-04 +2.493228E-06 +5.003098E-03 +7.112291E-05 -1.338975E-04 +7.112291E-05 -1.530196E-04 
 +3.051781E-04 +7.792521E-05 +3.559484E-05 +7.792521E-05 +4.764467E-03 +1.111703E-04 +3.559484E-05 +1.111703E-04 -3.542659E-05 
 +2.895362E-04 +1.241962E-04 +5.306608E-05 +1.241962E-04 +4.658843E-03 +3.109746E-05 +5.306608E-05 +3.109746E-05 -6.636291E-06 
 +1.563141E-04 -1.985510E-04 +2.209919E-05 -1.985510E-04 +4.964271E-03 +2.484716E-05 +2.209919E-05 +2.484716E-05 -7.857086E-05 
 +2.799506E-05 -2.317724E-04 +1.665817E-04 -2.317724E-04 +5.209005E-03 +1.595858E-05 +1.665817E-04 +1.595858E-05 -4.050171E-04 
 +2.787426E-05 -2.532415E-04 +3.175842E-04 -2.532415E-04 +5.237547E-03 -2.979087E-05 +3.175842E-04 -2.979087E-05 -5.423563E-04 
 +1.848287E-05 -1.984801E-04 +2.436614E-04 -1.984801E-04 +5.324961E-03 -2.229320E-05 +2.436614E-04 -2.229320E-05 -4.847211E-04 
 -1.139870E-04 -8.893354E-05 +2.777116E-04 -8.893354E-05 +5.314939E-03 -7.202783E-06 +2.777116E-04 -7.202783E-06 -3.411022E-04 
 -1.657747E-04 +5.037671E-05 +3.495812E-04 +5.037671E-05 +5.270396E-03 +7.268611E-05 +3.495812E-04 +7.268611E-05 -9.419488E-05 
 -9.245814E-05 +6.069668E-05 +2.325918E-04 +6.069668E-05 +5.239492E-03 +7.634378E-05 +2.325918E-04 +7.634378E-05 -5.732691E-05 
 -6.765191E-06 +7.185933E-06 +1.763699E-04 +7.185933E-06 +5.183555E-03 -1.190657E-07 +1.763699E-04 -1.190657E-07 -9.830273E-05 
 -5.070542E-04 +4.887690E-05 +1.383330E-04 +4.887690E-05 +5.208362E-03 +6.914828E-05 +1.383330E-04 +6.914828E-05 +4.731859E-05 
 -3.403331E-04 +5.334839E-05 -3.786212E-06 +5.334839E-05 +5.096435E-03 +1.218105E-04 -3.786212E-06 +1.218105E-04 +7.245445E-05 
 -1.047033E-04 +9.357274E-05 -1.973379E-04 +9.357274E-05 +5.000511E-03 -1.620218E-05 -1.973379E-04 -1.620218E-05 +5.152730E-05 
 -7.965625E-05 +8.426489E-05 -1.536488E-04 +8.426489E-05 +5.000871E-03 -1.499660E-04 -1.536488E-04 -1.499660E-04 +6.676652E-05 
 +1.114416E-04 +6.749978E-05 -1.305557E-04 +6.749978E-05 +5.032928E-03 -1.820746E-04 -1.305557E-04 -1.820746E-04 -1.331166E-05 
 +2.591286E-04 -6.072720E-05 -3.114402E-05 -6.072720E-05 +5.025442E-03 -1.942036E-04 -3.114402E-05 -1.942036E-04 -1.872491E-04 
 +2.727741E-05 +2.341484E-05 +6.720321E-05 +2.341484E-05 +5.074369E-03 -9.422903E-05 +6.720321E-05 -9.422903E-05 -8.204507E-05 
 -3.960792E-04 +2.976900E-05 -6.963667E-06 +2.976900E-05 +5.195515E-03 +1.149650E-04 -6.963667E-06 +1.149650E-04 -5.838190E-05 
 -3.322186E-05 +2.608454E-05 -1.391534E-04 +2.608454E-05 +5.182095E-03 +1.909197E-04 -1.391534E-04 +1.909197E-04 -2.342870E-04 
 +1.686030E-04 +3.110375E-05 -1.182549E-04 +3.110375E-05 +5.029366E-03 +1.041529E-04 -1.182549E-04 +1.041529E-04 -2.279192E-04 
 +3.013341E-04 +8.997481E-05 +4.862685E-05 +8.997481E-05 +4.763103E-03 +1.058173E-04 +4.862685E-05 +1.058173E-04 -8.600712E-05 
 +3.464137E-04 +1.425991E-04 +6.074756E-05 +1.425991E-04 +4.633489E-03 +8.889284E-05 +6.074756E-05 +8.889284E-05 +1.156253E-05 
 +2.778081E-04 +1.698392E-04 +3.796854E-05 +1.698392E-04 +4.630847E-03 -3.564502E-05 +3.796854E-05 -3.564502E-05 +7.363296E-05 
 +1.814538E-04 +2.105781E-05 +2.268566E-05 +2.105781E-05 +4.735686E-03 +2.925303E-05 +2.268566E-05 +2.925303E-05 +5.020515E-05 
 +1.561400E-04 -1.987852E-04 +9.826938E-05 -1.987852E-04 +4.916418E-03 +9.401424E-05 +9.826938E-05 +9.401424E-05 -1.709758E-04 
 +8.134911E-05 -9.525997E-05 +2.923706E-04 -9.525997E-05 +5.147500E-03 -2.830771E-05 +2.923706E-04 -2.830771E-05 -3.511623E-04 
 +2.204748E-05 -1.188937E-04 +1.880688E-04 -1.188937E-04 +5.257133E-03 -7.105775E-05 +1.880688E-04 -7.105775E-05 -3.341570E-04 
 -7.063049E-05 -9.513610E-05 +2.117529E-04 -9.513610E-05 +5.171272E-03 -3.676452E-06 +2.117529E-04 -3.676452E-06 -2.416075E-04 
 -1.275393E-04 +2.292383E-05 +2.467496E-04 +2.292383E-05 +5.159614E-03 +6.639381E-05 +2.467496E-04 +6.639381E-05 -5.581245E-05 
 -6.116853E-05 -6.846167E-05 -3.386540E-06 -6.846167E-05 +5.062565E-03 +4.292884E-05 -3.386540E-06 +4.292884E-05 +6.006187E-05 
 -2.125929E-04 -4.461434E-05 +1.021974E-04 -4.461434E-05 +5.083912E-03 +3.991262E-07 +1.021974E-04 +3.991262E-07 +4.904687E-05 
 -4.616867E-04 +2.234621E-08 +1.259140E-04 +2.234621E-08 +5.207664E-03 +2.151927E-05 +1.259140E-04 +2.151927E-05 +2.683012E-04 
 -4.364526E-04 -3.011058E-05 +6.741985E-05 -3.011058E-05 +5.067190E-03 +2.471242E-05 +6.741985E-05 +2.471242E-05 +2.671035E-04 
 -1.943818E-05 +9.214008E-05 -2.351900E-04 +9.214008E-05 +4.964689E-03 -4.047400E-05 -2.351900E-04 -4.047400E-05 +1.680425E-04 
 +2.650073E-05 +8.297560E-05 -2.230783E-04 +8.297560E-05 +4.952227E-03 -1.480650E-04 -2.230783E-04 -1.480650E-04 +1.458451E-04 
 +1.183567E-04 +5.561267E-05 -2.108810E-04 +5.561267E-05 +4.897892E-03 -1.451749E-04 -2.108810E-04 -1.451749E-04 +9.025818E-05 
 +1.544628E-04 -1.593171E-05 -5.989317E-05 -1.593171E-05 +4.808001E-03 -6.819327E-05 -5.989317E-05 -6.819327E-05 -4.863713E-06 
 +5.672470E-05 +1.898241E-04 +1.209480E-04 +1.898241E-04 +4.884063E-03 +7.523194E-06 +1.209480E-04 +7.523194E-06 -5.327715E-05 
 -2.434804E-04 +1.550137E-04 +2.732196E-05 +1.550137E-04 +5.039574E-03 +1.087624E-04 +2.732196E-05 +1.087624E-04 -1.205553E-04 
 -1.267931E-04 +9.063088E-05 -1.661040E-04 +9.063088E-05 +4.964618E-03 +1.239761E-04 -1.661040E-04 +1.239761E-04 -1.173167E-04 
 +2.321792E-04 +8.972004E-05 -8.766327E-06 +8.972004E-05 +4.688045E-03 +1.031484E-04 -8.766327E-06 +1.031484E-04 +1.037474E-05 
 +3.274150E-04 +1.094024E-04 +1.228568E-04 +1.094024E-04 +4.590455E-03 +6.213108E-05 +1.228568E-04 +6.213108E-05 +7.200613E-05 
 +2.692174E-04 +1.574885E-04 +4.901696E-05 +1.574885E-04 +4.630858E-03 +1.447305E-05 +4.901696E-05 +1.447305E-05 +8.302666E-05 
 +2.267602E-04 +1.783040E-04 +1.554461E-05 +1.783040E-04 +4.631305E-03 -9.965740E-06 +1.554461E-05 -9.965740E-06 +1.251771E-04 
 +1.966759E-04 +1.014367E-04 +3.624011E-05 +1.014367E-04 +4.653566E-03 +4.926174E-05 +3.624011E-05 +4.926174E-05 +1.357850E-04 
 +2.107744E-04 -1.589847E-04 +4.894226E-05 -1.589847E-04 +4.754813E-03 +1.238788E-04 +4.894226E-05 +1.238788E-04 +3.006520E-05 
 +1.860182E-04 -7.565159E-05 +1.304612E-04 -7.565159E-05 +4.832512E-03 +7.367704E-05 +1.304612E-04 +7.367704E-05 -1.223151E-04 
 +9.254818E-05 -1.536924E-04 +9.146713E-05 -1.536924E-04 +4.942406E-03 +4.613358E-05 +9.146713E-05 +4.613358E-05 -8.445547E-05 
 -1.396231E-04 -8.938106E-05 +1.708612E-04 -8.938106E-05 +5.111949E-03 +1.734633E-05 +1.708612E-04 +1.734633E-05 -3.307958E-05 
 -1.758705E-04 -6.811478E-05 +1.806518E-04 -6.811478E-05 +5.085388E-03 -6.056810E-05 +1.806518E-04 -6.056810E-05 +1.792650E-05 
 -9.988124E-05 -1.872460E-04 -3.600328E-05 -1.872460E-04 +5.076480E-03 -8.421088E-05 -3.600328E-05 -8.421088E-05 +1.091104E-04 
 -3.944634E-04 -2.943344E-05 +9.309847E-05 -2.943344E-05 +5.222197E-03 -2.504100E-05 +9.309847E-05 -2.504100E-05 +1.594361E-04 
 -4.429557E-04 -3.485224E-06 +7.031567E-05 -3.485224E-06 +5.162102E-03 -3.758109E-05 +7.031567E-05 -3.758109E-05 +3.087137E-04 
 -4.363246E-04 -3.750790E-05 +4.012526E-05 -3.750790E-05 +5.092351E-03 -7.351921E-05 +4.012526E-05 -7.351921E-05 +2.840854E-04 
 -6.720045E-05 +6.175310E-05 -2.177474E-04 +6.175310E-05 +4.938961E-03 -7.089180E-05 -2.177474E-04 -7.089180E-05 +2.461114E-04 
 +1.490198E-04 +5.228996E-05 -2.505675E-04 +5.228996E-05 +4.780385E-03 -2.299383E-05 -2.505675E-04 -2.299383E-05 +2.368399E-04 
 +1.899810E-04 +4.251149E-05 -1.498238E-04 +4.251149E-05 +4.723124E-03 +2.890462E-05 -1.498238E-04 +2.890462E-05 +1.982889E-04 
 +1.232306E-04 +2.900198E-05 -4.062031E-05 +2.900198E-05 +4.800701E-03 +2.751532E-05 -4.062031E-05 +2.751532E-05 +1.806525E-04 
 +4.812928E-05 +2.935542E-04 +1.993366E-04 +2.935542E-04 +4.906699E-03 +2.306710E-05 +1.993366E-04 +2.306710E-05 +3.613704E-05 
 -1.225488E-04 +1.683408E-04 +1.029580E-04 +1.683408E-04 +4.913549E-03 +2.437279E-05 +1.029580E-04 +2.437279E-05 -8.190347E-05 
 -2.640524E-05 +1.468982E-05 -2.233622E-05 +1.468982E-05 +4.860263E-03 +3.644908E-05 -2.233622E-05 +3.644908E-05 +1.825991E-05 
 +1.236135E-04 -5.799501E-05 +4.985837E-05 -5.799501E-05 +4.710013E-03 +3.863428E-05 +4.985837E-05 +3.863428E-05 +1.529113E-04 
 +2.035700E-04 +6.475823E-05 +1.570461E-04 +6.475823E-05 +4.587920E-03 +7.423728E-06 +1.570461E-04 +7.423728E-06 +1.717519E-04 
 +2.651701E-04 +1.267053E-04 +1.215824E-04 +1.267053E-04 +4.598473E-03 +1.447764E-05 +1.215824E-04 +1.447764E-05 +1.480026E-04 
 +2.310942E-04 +2.099545E-04 +5.310312E-05 +2.099545E-04 +4.640856E-03 +4.260983E-06 +5.310312E-05 +4.260983E-06 +1.699122E-04 
 +1.501081E-04 +1.260522E-04 +3.134412E-05 +1.260522E-04 +4.651725E-03 +4.122045E-05 +3.134412E-05 +4.122045E-05 +1.813370E-04 
 +1.738031E-04 -1.020974E-04 +5.009484E-05 -1.020974E-04 +4.701737E-03 +6.695730E-05 +5.009484E-05 +6.695730E-05 +1.151435E-04 
 +2.197762E-04 -1.067934E-04 +3.532173E-05 -1.067934E-04 +4.831349E-03 +4.899021E-05 +3.532173E-05 +4.899021E-05 +3.485829E-05 
 +2.133427E-04 -1.563887E-04 +7.186754E-05 -1.563887E-04 +4.932894E-03 +3.951032E-05 +7.186754E-05 +3.951032E-05 +1.073003E-04 
 -1.491200E-04 -1.088797E-04 +2.000874E-04 -1.088797E-04 +5.017115E-03 -2.495160E-05 +2.000874E-04 -2.495160E-05 +2.376783E-04 
 -2.982869E-04 -1.237951E-04 +1.771812E-04 -1.237951E-04 +5.105664E-03 -7.781422E-05 +1.771812E-04 -7.781422E-05 +1.473890E-04 
 -1.434127E-04 -1.340230E-04 +6.038221E-05 -1.340230E-04 +5.234115E-03 -6.582222E-05 +6.038221E-05 -6.582222E-05 +2.895439E-05 
 -4.046954E-04 +1.206015E-06 +1.171008E-04 +1.206015E-06 +5.232107E-03 -3.361843E-05 +1.171008E-04 -3.361843E-05 +1.483817E-04 
 -4.338694E-04 -3.393569E-05 +1.065977E-04 -3.393569E-05 +5.152986E-03 -3.223775E-05 +1.065977E-04 -3.223775E-05 +2.828148E-04 
 -3.640020E-04 -7.182563E-05 +4.668815E-05 -7.182563E-05 +5.141511E-03 -7.614142E-05 +4.668815E-05 -7.614142E-05 +2.268237E-04 
 -1.387051E-04 -3.590404E-05 -1.192491E-04 -3.590404E-05 +4.960102E-03 -1.733682E-05 -1.192491E-04 -1.733682E-05 +2.738957E-04 
 +2.344428E-04 +6.281469E-06 -2.029294E-04 +6.281469E-06 +4.641400E-03 +1.066946E-04 -2.029294E-04 +1.066946E-04 +3.452984E-04 
 +1.932154E-04 +7.277686E-05 -1.039945E-04 +7.277686E-05 +4.618736E-03 +1.030124E-04 -1.039945E-04 +1.030124E-04 +3.317480E-04 
 +1.201109E-04 +3.539672E-05 +2.730995E-06 +3.539672E-05 +4.763769E-03 +4.076975E-05 +2.730995E-06 +4.076975E-05 +2.559484E-04 
 +8.613401E-05 +3.328540E-04 +2.587947E-04 +3.328540E-04 +4.903371E-03 +1.219084E-05 +2.587947E-04 +1.219084E-05 +1.918722E-05 
 -3.408111E-05 +1.623742E-04 +1.760702E-04 +1.623742E-04 +4.985042E-03 -1.102820E-05 +1.760702E-04 -1.102820E-05 -9.952303E-05 
 -2.285660E-05 -5.868022E-05 +1.919295E-04 -5.868022E-05 +4.948052E-03 -2.207169E-05 +1.919295E-04 -2.207169E-05 +4.316778E-05 
 -3.062619E-05 -2.410551E-04 +1.110446E-04 -2.410551E-04 +4.902142E-03 -2.506151E-06 +1.110446E-04 -2.506151E-06 +1.630049E-04 
 +1.411466E-04 -4.075162E-05 +2.354012E-04 -4.075162E-05 +4.745956E-03 +3.123262E-05 +2.354012E-04 +3.123262E-05 +1.857144E-04 
 +2.778231E-04 +6.014777E-05 +2.021824E-04 +6.014777E-05 +4.559567E-03 +5.748208E-05 +2.021824E-04 +5.748208E-05 +1.509760E-04 
 +2.508909E-04 +2.049970E-04 +6.457004E-05 +2.049970E-04 +4.592971E-03 +8.769054E-05 +6.457004E-05 +8.769054E-05 +1.663033E-04 
 +1.241536E-04 +4.165193E-05 -8.119579E-06 +4.165193E-05 +4.674426E-03 +1.443454E-04 -8.119579E-06 +1.443454E-04 +2.357297E-04 
 +1.582450E-04 -2.583388E-05 +1.755542E-05 -2.583388E-05 +4.733430E-03 +1.802641E-04 +1.755542E-05 +1.802641E-04 +2.063544E-04 
 +2.395521E-04 -1.924385E-05 +3.908619E-05 -1.924385E-05 +4.839659E-03 +1.853595E-04 +3.908619E-05 +1.853595E-04 +1.418346E-04 
 +2.687865E-04 -5.816127E-05 +1.246714E-04 -5.816127E-05 +4.966657E-03 +1.182158E-04 +1.246714E-04 +1.182158E-04 +1.340301E-04 
 -1.884990E-04 -1.122296E-04 +3.106274E-04 -1.122296E-04 +5.084825E-03 +1.039555E-05 +3.106274E-04 +1.039555E-05 +2.724383E-04 
 -3.591748E-04 -1.229101E-04 +2.348191E-04 -1.229101E-04 +5.153406E-03 -3.733267E-05 +2.348191E-04 -3.733267E-05 +1.688913E-04 
 -1.193133E-04 -9.016179E-05 +1.200153E-04 -9.016179E-05 +5.203551E-03 -4.683962E-05 +1.200153E-04 -4.683962E-05 -5.716443E-05 
 -4.034553E-04 -5.927120E-05 +1.457618E-04 -5.927120E-05 +5.201650E-03 -2.584214E-05 +1.457618E-04 -2.584214E-05 +1.188014E-04 
 -4.161682E-04 -9.693038E-05 +1.710233E-04 -9.693038E-05 +5.132229E-03 -4.621913E-05 +1.710233E-04 -4.621913E-05 +2.350237E-04 
 -1.488574E-04 -8.228250E-05 +4.394739E-06 -8.228250E-05 +5.025870E-03 -3.623769E-05 +4.394739E-06 -3.623769E-05 +1.504858E-04 
 +1.427875E-05 +4.141864E-06 -6.446562E-05 +4.141864E-06 +4.895978E-03 +1.610804E-05 -6.446562E-05 +1.610804E-05 +1.676635E-04 
 +7.636378E-05 +8.382577E-05 -1.060787E-04 +8.382577E-05 +4.850256E-03 +8.928789E-05 -1.060787E-04 +8.928789E-05 +2.844454E-04 
 +3.714051E-05 +9.067360E-05 -2.365297E-05 +9.067360E-05 +4.744595E-03 +1.346351E-04 -2.365297E-05 +1.346351E-04 +3.148666E-04 
 -3.999290E-06 +1.526834E-05 +9.051540E-05 +1.526834E-05 +4.761279E-03 +1.260074E-04 +9.051540E-05 +1.260074E-04 +2.406773E-04 
 +1.423264E-04 +2.228556E-04 +2.370078E-04 +2.228556E-04 +4.905810E-03 +3.992763E-05 +2.370078E-04 +3.992763E-05 +4.675138E-05 
 +1.208689E-04 +2.182742E-05 +1.577152E-04 +2.182742E-05 +5.017840E-03 -4.682623E-05 +1.577152E-04 -4.682623E-05 -8.043349E-05 
 -7.028913E-05 -1.736860E-04 +2.443664E-04 -1.736860E-04 +5.091863E-03 -1.420201E-04 +2.443664E-04 -1.420201E-04 +2.938350E-05 
 -6.775344E-05 -2.518719E-04 +2.543032E-04 -2.518719E-04 +5.104356E-03 -1.797495E-04 +2.543032E-04 -1.797495E-04 +1.255525E-04 
 +5.547194E-05 -1.445124E-04 +2.708724E-04 -1.445124E-04 +5.107464E-03 -9.666572E-05 +2.708724E-04 -9.666572E-05 +9.151242E-05 
 +2.339877E-04 -9.782947E-05 +2.028564E-04 -9.782947E-05 +4.962990E-03 -5.634244E-05 +2.028564E-04 -5.634244E-05 +6.562920E-05 
 +2.394262E-04 +9.720277E-05 +9.262568E-05 +9.720277E-05 +4.707646E-03 -9.122738E-07 +9.262568E-05 -9.122738E-07 +1.444147E-04 
 +1.946840E-04 +1.276854E-05 -5.087124E-05 +1.276854E-05 +4.632644E-03 +1.089005E-04 -5.087124E-05 +1.089005E-04 +2.742622E-04 
 +2.124180E-04 -2.447295E-05 -1.617775E-05 -2.447295E-05 +4.712706E-03 +1.806545E-04 -1.617775E-05 +1.806545E-04 +2.797428E-04 
 +2.651101E-04 -2.314589E-05 +4.108383E-05 -2.314589E-05 +4.770783E-03 +1.914592E-04 +4.108383E-05 +1.914592E-04 +2.173611E-04 
 +2.642000E-04 -1.022006E-05 +4.477155E-05 -1.022006E-05 +4.931193E-03 +1.373427E-04 +4.477155E-05 +1.373427E-04 +2.110361E-04 
 -1.368174E-04 -3.854102E-05 +2.902035E-04 -3.854102E-05 +5.123055E-03 +4.762142E-05 +2.902035E-04 +4.762142E-05 +2.604471E-04 
 -3.574237E-04 -1.826442E-06 +3.267607E-04 -1.826442E-06 +5.176583E-03 -6.654309E-05 +3.267607E-04 -6.654309E-05 +2.125862E-04 
 -2.509625E-04 -6.004379E-05 +2.266078E-04 -6.004379E-05 +5.173748E-03 -1.065722E-04 +2.266078E-04 -1.065722E-04 +1.533172E-04 
 -4.040550E-04 -1.228036E-04 +2.357836E-04 -1.228036E-04 +5.164225E-03 -5.975812E-05 +2.357836E-04 -5.975812E-05 +2.103679E-04 
 -2.514117E-04 -5.372384E-07 +6.505639E-05 -5.372384E-07 +4.905028E-03 -9.030152E-05 +6.505639E-05 -9.030152E-05 +2.756905E-04 
 +8.027995E-05 +5.751041E-05 -9.813495E-05 +5.751041E-05 +4.747236E-03 -9.200501E-05 -9.813495E-05 -9.200501E-05 +2.171788E-04 
 +2.909159E-05 +3.674090E-05 -4.750152E-05 +3.674090E-05 +4.848087E-03 -2.499678E-05 -4.750152E-05 -2.499678E-05 +1.604013E-04 
 -1.164109E-04 +3.390958E-05 +9.795390E-05 +3.390958E-05 +5.011475E-03 -4.007356E-06 +9.795390E-05 -4.007356E-06 +1.596179E-04 
 -1.724459E-04 +8.146020E-05 +1.274469E-04 +8.146020E-05 +5.131819E-03 +1.326182E-05 +1.274469E-04 +1.326182E-05 +1.406940E-04 
 -1.890030E-04 +1.284900E-04 +1.066175E-04 +1.284900E-04 +5.173345E-03 +4.161048E-05 +1.066175E-04 +4.161048E-05 +1.532480E-04 
 +1.861835E-04 +2.282279E-04 +9.308502E-05 +2.282279E-04 +4.925592E-03 +1.045382E-05 +9.308502E-05 +1.045382E-05 +1.135924E-04 
 +2.758500E-04 +1.514131E-04 +4.823924E-05 +1.514131E-04 +4.677996E-03 -4.149101E-05 +4.823924E-05 -4.149101E-05 +6.040587E-06 
 +7.303242E-05 +3.053522E-05 +1.072530E-04 +3.053522E-05 +4.834223E-03 -1.010930E-04 +1.072530E-04 -1.010930E-04 +8.020712E-06 
 -2.106586E-04 -1.370708E-04 +2.429476E-04 -1.370708E-04 +5.076547E-03 -1.799219E-04 +2.429476E-04 -1.799219E-04 +7.085418E-05 
 +2.489153E-05 -1.249982E-04 +2.012571E-04 -1.249982E-04 +5.066612E-03 -1.589615E-04 +2.012571E-04 -1.589615E-04 +4.442983E-06 
 +1.651796E-04 -4.115353E-05 +1.300106E-04 -4.115353E-05 +4.991991E-03 -1.147897E-04 +1.300106E-04 -1.147897E-04 -1.302882E-05 
 +1.608105E-04 +5.469913E-05 +1.492596E-04 +5.469913E-05 +4.849231E-03 -4.307731E-05 +1.492596E-04 -4.307731E-05 +1.089423E-04 
 +2.732729E-04 +6.015949E-05 -6.398968E-05 +6.015949E-05 +4.688534E-03 +7.840959E-05 -6.398968E-05 +7.840959E-05 +2.246996E-04 
 +2.678764E-04 +2.811853E-05 -2.403049E-05 +2.811853E-05 +4.698361E-03 +1.649300E-04 -2.403049E-05 +1.649300E-04 +2.569696E-04 
 +2.636141E-04 +2.875109E-05 -9.903027E-07 +2.875109E-05 +4.780267E-03 +1.719161E-04 -9.903027E-07 +1.719161E-04 +2.307882E-04 
 +2.162322E-04 +4.969878E-05 -4.980089E-05 +4.969878E-05 +4.840758E-03 +1.917605E-04 -4.980089E-05 +1.917605E-04 +3.078099E-04 
 +8.960600E-05 +1.926350E-05 +1.451565E-04 +1.926350E-05 +4.953186E-03 +1.469330E-04 +1.451565E-04 +1.469330E-04 +3.426225E-04 
 -4.032131E-04 -1.488446E-05 +3.639602E-04 -1.488446E-05 +5.133588E-03 -2.387191E-05 +3.639602E-04 -2.387191E-05 +3.420985E-04 
 -3.411439E-04 -3.981113E-05 +2.836144E-04 -3.981113E-05 +5.161757E-03 -1.025339E-04 +2.836144E-04 -1.025339E-04 +4.190994E-04 
 -4.217579E-04 -2.900963E-05 +2.674690E-04 -2.900963E-05 +5.081608E-03 -6.064399E-05 +2.674690E-04 -6.064399E-05 +3.441358E-04 
 -6.606733E-05 +1.134986E-05 -9.226169E-05 +1.134986E-05 +4.893384E-03 +1.229002E-04 -9.226169E-05 +1.229002E-04 +2.761080E-04 
 -1.606412E-05 +8.856074E-07 -1.371326E-04 +8.856074E-07 +4.926714E-03 +2.015348E-04 -1.371326E-04 +2.015348E-04 +2.194980E-04 
 -1.003201E-04 -9.415291E-06 -8.403489E-05 -9.415291E-06 +4.997254E-03 +1.539284E-04 -8.403489E-05 +1.539284E-04 +1.598113E-04 
 -1.745263E-04 +3.295087E-05 +1.720674E-04 +3.295087E-05 +5.069664E-03 +4.768934E-05 +1.720674E-04 +4.768934E-05 +6.847977E-05 
 -2.626113E-04 +8.940563E-05 +1.573568E-04 +8.940563E-05 +5.068049E-03 +4.150648E-05 +1.573568E-04 +4.150648E-05 +1.983177E-05 
 -6.667063E-05 +2.515502E-04 +4.469835E-05 +2.515502E-04 +4.995214E-03 +7.924041E-05 +4.469835E-05 +7.924041E-05 +8.267685E-05 
 +1.674258E-04 +3.121800E-04 +3.060012E-06 +3.121800E-04 +4.882928E-03 +3.708708E-05 +3.060012E-06 +3.708708E-05 +9.857593E-05 
 +2.270880E-04 +2.418266E-04 -8.462566E-06 +2.418266E-04 +4.791905E-03 -4.515782E-06 -8.462566E-06 -4.515782E-06 +1.855397E-05 
 +1.320814E-04 +1.066415E-04 +9.100971E-06 +1.066415E-04 +4.867635E-03 -3.346869E-05 +9.100971E-06 -3.346869E-05 -2.690186E-05 
 -2.117959E-04 -4.039456E-05 +1.116213E-04 -4.039456E-05 +5.046254E-03 -1.460944E-04 +1.116213E-04 -1.460944E-04 +2.206971E-05 
 -4.707428E-05 -1.141753E-04 +1.010433E-04 -1.141753E-04 +5.080860E-03 -1.742670E-04 +1.010433E-04 -1.742670E-04 -1.911008E-06 
 +4.641013E-05 -7.724897E-05 +9.307209E-05 -7.724897E-05 +5.001634E-03 -1.341990E-04 +9.307209E-05 -1.341990E-04 -3.127263E-05 
 +1.268405E-04 -4.338436E-05 +1.665547E-04 -4.338436E-05 +4.924394E-03 -1.033021E-04 +1.665547E-04 -1.033021E-04 +2.043597E-05 
 +3.169376E-04 +7.511947E-05 -2.439754E-05 +7.511947E-05 +4.781772E-03 +6.437764E-06 -2.439754E-05 +6.437764E-06 +8.726960E-05 
 +2.944677E-04 +1.026983E-04 -8.480526E-06 +1.026983E-04 +4.732621E-03 +1.160340E-04 -8.480526E-06 +1.160340E-04 +1.460634E-04 
 +2.231002E-04 +9.345666E-05 -3.454516E-05 +9.345666E-05 +4.801488E-03 +1.709543E-04 -3.454516E-05 +1.709543E-04 +2.142341E-04 
 +1.311660E-04 +5.911172E-05 -3.268562E-05 +5.911172E-05 +4.839271E-03 +2.092298E-04 -3.268562E-05 +2.092298E-04 +3.229928E-04 
 +1.202380E-04 +2.623389E-05 +3.960018E-05 +2.623389E-05 +4.947148E-03 +1.856841E-04 +3.960018E-05 +1.856841E-04 +3.564174E-04 
 -2.399536E-04 -2.243291E-05 +2.470336E-04 -2.243291E-05 +5.097140E-03 +7.136571E-05 +2.470336E-04 +7.136571E-05 +4.116917E-04 
 -2.532092E-04 -4.691517E-05 +2.190200E-04 -4.691517E-05 +5.104312E-03 -1.114063E-05 +2.190200E-04 -1.114063E-05 +4.648481E-04 
 -3.475912E-04 +1.140310E-05 +1.879364E-04 +1.140310E-05 +4.987279E-03 +2.054697E-05 +1.879364E-04 +2.054697E-05 +3.578846E-04 
 -1.092989E-04 -6.560139E-05 -9.966278E-05 -6.560139E-05 +4.942149E-03 +1.455320E-04 -9.966278E-05 +1.455320E-04 +2.045507E-04 
 -1.612509E-04 -4.876631E-05 -1.538836E-04 -4.876631E-05 +5.017870E-03 +1.574733E-04 -1.538836E-04 +1.574733E-04 +1.573543E-04 
 -1.660581E-04 -3.284522E-05 -1.390888E-04 -3.284522E-05 +5.014094E-03 +1.748137E-04 -1.390888E-04 +1.748137E-04 +1.270872E-04 
 -1.904177E-04 +6.357282E-06 +2.566458E-05 +6.357282E-06 +4.980806E-03 +1.878516E-04 +2.566458E-05 +1.878516E-04 +4.219931E-05 
 -1.525737E-04 +9.462855E-05 +7.020260E-05 +9.462855E-05 +4.955779E-03 +1.495048E-04 +7.020260E-05 +1.495048E-04 +2.380218E-06 
 +1.409297E-04 +2.406615E-04 +3.272183E-05 +2.406615E-04 +4.903539E-03 +9.077666E-05 +3.272183E-05 +9.077666E-05 +2.386863E-05 
 +1.142312E-04 +2.400990E-04 +5.312142E-05 +2.400990E-04 +4.880681E-03 +3.268531E-05 +5.312142E-05 +3.268531E-05 +3.306963E-05 
 +8.726153E-05 +2.472576E-04 +5.263162E-05 +2.472576E-04 +4.857223E-03 +2.086933E-05 +5.263162E-05 +2.086933E-05 +3.115996E-05 
 +7.812740E-05 +2.202055E-04 +5.281292E-05 +2.202055E-04 +4.781631E-03 +6.860759E-05 +5.281292E-05 +6.860759E-05 +1.317273E-07 
 -8.640062E-05 +8.674129E-05 +3.059438E-05 +8.674129E-05 +4.860772E-03 -3.185264E-05 +3.059438E-05 -3.185264E-05 +4.905885E-06 
 -1.890140E-04 -1.217686E-04 +3.288995E-05 -1.217686E-04 +5.037197E-03 -1.645449E-04 +3.288995E-05 -1.645449E-04 +1.580398E-05 
 +5.536258E-06 -2.264889E-05 +4.485634E-05 -2.264889E-05 +5.030863E-03 -1.445425E-04 +4.485634E-05 -1.445425E-04 -5.543775E-05 
 +1.795809E-04 +7.711785E-05 +9.770540E-05 +7.711785E-05 +4.954530E-03 -8.362340E-05 +9.770540E-05 -8.362340E-05 -9.732760E-05 
 +2.312511E-04 +6.880712E-05 +2.063583E-05 +6.880712E-05 +4.885110E-03 +1.501486E-05 +2.063583E-05 +1.501486E-05 -4.445648E-05 
 +2.403541E-04 +1.067234E-04 +5.938976E-06 +1.067234E-04 +4.823240E-03 +1.208586E-04 +5.938976E-06 +1.208586E-04 +1.356363E-05 
 +1.977407E-04 +9.319767E-05 -4.146893E-05 +9.319767E-05 +4.840488E-03 +1.639785E-04 -4.146893E-05 +1.639785E-04 +1.357608E-04 
 +5.249440E-05 +9.801195E-05 +1.399488E-05 +9.801195E-05 +4.924886E-03 +1.813975E-04 +1.399488E-05 +1.813975E-04 +2.716972E-04 
 +3.694934E-07 +8.457534E-05 +4.825240E-05 +8.457534E-05 +4.941505E-03 +2.571284E-04 +4.825240E-05 +2.571284E-04 +2.943679E-04 
 +2.790701E-05 -4.132434E-05 +8.388155E-05 -4.132434E-05 +4.846400E-03 +3.011236E-04 +8.388155E-05 +3.011236E-04 +3.550621E-04 
 -1.395680E-04 -1.011865E-04 +8.671834E-05 -1.011865E-04 +4.851487E-03 +2.374814E-04 +8.671834E-05 +2.374814E-04 +4.210600E-04 
 -1.612610E-04 -8.488636E-05 +6.566445E-05 -8.488636E-05 +4.886220E-03 +1.580261E-04 +6.566445E-05 +1.580261E-04 +3.222504E-04 
 -1.769771E-04 -1.378956E-04 -5.897511E-05 -1.378956E-04 +4.981850E-03 +1.682285E-04 -5.897511E-05 +1.682285E-04 +1.526659E-04 
 -1.256177E-04 -8.212961E-05 -1.569916E-04 -8.212961E-05 +5.008380E-03 +1.761126E-04 -1.569916E-04 +1.761126E-04 +5.404758E-05 
 -2.020413E-04 -5.185929E-05 -1.665661E-04 -5.185929E-05 +5.003334E-03 +1.462170E-04 -1.665661E-04 +1.462170E-04 +1.121926E-04 
 -1.683802E-04 -4.008288E-06 -5.340962E-05 -4.008288E-06 +4.869360E-03 +1.313526E-04 -5.340962E-05 +1.313526E-04 +1.054992E-04 
 +5.825947E-05 +1.652017E-04 +5.179137E-05 +1.652017E-04 +4.822908E-03 +8.007583E-05 +5.179137E-05 +8.007583E-05 +3.459626E-05 
 +1.174022E-04 +2.118688E-04 +1.042321E-04 +2.118688E-04 +4.888181E-03 +2.644654E-05 +1.042321E-04 +2.644654E-05 +3.050208E-05 
 +6.171076E-05 +1.911504E-04 +9.715402E-05 +1.911504E-04 +4.901270E-03 +4.047378E-05 +9.715402E-05 +4.047378E-05 +3.887950E-05 
 +4.453983E-05 +1.306370E-04 +7.618705E-05 +1.306370E-04 +4.884011E-03 +2.904846E-05 +7.618705E-05 +2.904846E-05 +3.653122E-05 
 +4.051660E-05 +1.028625E-04 +4.102442E-05 +1.028625E-04 +4.827552E-03 +4.601081E-05 +4.102442E-05 +4.601081E-05 +3.837207E-05 
 -3.834513E-06 +9.540018E-05 -1.725418E-06 +9.540018E-05 +4.765844E-03 +5.709933E-05 -1.725418E-06 +5.709933E-05 +2.743584E-05 
 -8.653324E-05 +5.709289E-05 -2.487451E-05 +5.709289E-05 +4.828639E-03 -1.894838E-05 -2.487451E-05 -1.894838E-05 +2.156390E-05 
 +5.433448E-05 +1.224411E-04 -1.082397E-05 +1.224411E-04 +4.962890E-03 -6.578485E-05 -1.082397E-05 -6.578485E-05 -8.378650E-05 
 +1.214247E-04 +1.843654E-04 +4.133346E-05 +1.843654E-04 +5.035285E-03 -6.465629E-05 +4.133346E-05 -6.465629E-05 -1.863717E-04 
 +9.373719E-05 +1.692301E-04 +3.201694E-05 +1.692301E-04 +5.132057E-03 -8.240995E-05 +3.201694E-05 -8.240995E-05 -1.717756E-04 
 +8.906236E-05 +1.871092E-04 +2.060893E-05 +1.871092E-04 +5.145343E-03 -2.102379E-05 +2.060893E-05 -2.102379E-05 -9.316726E-05 
 +6.614688E-05 +8.169370E-05 +2.059440E-05 +8.169370E-05 +5.023028E-03 +1.213806E-04 +2.059440E-05 +1.213806E-04 +2.977375E-05 
 -7.010030E-06 +9.460342E-05 +7.656324E-05 +9.460342E-05 +4.990207E-03 +2.610856E-04 +7.656324E-05 +2.610856E-04 +1.406762E-04 
 +2.147663E-05 +5.645618E-05 +7.251936E-05 +5.645618E-05 +5.033802E-03 +3.391616E-04 +7.251936E-05 +3.391616E-04 +1.966594E-04 
 +1.288544E-04 -6.848043E-05 -1.418016E-05 -6.848043E-05 +4.961443E-03 +2.857366E-04 -1.418016E-05 +2.857366E-04 +1.916709E-04 
 -1.186042E-05 -9.019494E-05 -6.864893E-05 -9.019494E-05 +4.863290E-03 +1.886409E-04 -6.864893E-05 +1.886409E-04 +2.722805E-04 
 -1.151361E-04 -1.311693E-04 -3.014513E-05 -1.311693E-04 +4.915924E-03 +1.558176E-04 -3.014513E-05 +1.558176E-04 +3.054588E-04 
 -1.565147E-04 -9.684235E-05 -1.145891E-04 -9.684235E-05 +5.001768E-03 +8.042688E-05 -1.145891E-04 +8.042688E-05 +1.626432E-04 
 -2.572192E-05 -2.440611E-05 -1.438083E-04 -2.440611E-05 +5.015692E-03 +5.081017E-05 -1.438083E-04 +5.081017E-05 +1.393318E-05 
 -1.960476E-04 -5.121000E-05 -1.737915E-04 -5.121000E-05 +4.939324E-03 +7.626626E-05 -1.737915E-04 +7.626626E-05 +9.440220E-05 
 -1.356079E-04 -3.768458E-05 -5.718832E-05 -3.768458E-05 +4.854478E-03 +1.471499E-04 -5.718832E-05 +1.471499E-04 +1.307556E-04 
 +8.302307E-05 +1.534184E-04 +3.985373E-05 +1.534184E-04 +4.863119E-03 +1.321312E-04 +3.985373E-05 +1.321312E-04 +7.744531E-05 
 +3.518077E-05 +1.057559E-04 +6.022507E-05 +1.057559E-04 +4.913897E-03 +4.865399E-05 +6.022507E-05 +4.865399E-05 +8.455591E-05 
 +2.975716E-05 +9.161455E-05 +3.631187E-05 +9.161455E-05 +4.908003E-03 +2.280055E-05 +3.631187E-05 +2.280055E-05 +6.708842E-05 
 +4.384959E-05 +7.338655E-05 -1.385857E-06 +7.338655E-05 +4.860964E-03 +1.986995E-05 -1.385857E-06 +1.986995E-05 +2.438267E-05 
 +6.196281E-05 +8.152252E-05 -4.257061E-05 +8.152252E-05 +4.800296E-03 +1.034248E-05 -4.257061E-05 +1.034248E-05 +3.601098E-05 
 +8.689183E-05 +6.718995E-05 -6.609159E-05 +6.718995E-05 +4.735753E-03 +5.506113E-06 -6.609159E-05 +5.506113E-06 +3.792312E-05 
 +1.008953E-04 +3.239851E-05 -9.120358E-05 +3.239851E-05 +4.750305E-03 -5.992577E-05 -9.120358E-05 -5.992577E-05 +5.643534E-06 
 +7.008045E-05 +7.823679E-05 -1.783144E-05 +7.823679E-05 +4.900555E-03 -9.054086E-05 -1.783144E-05 -9.054086E-05 -1.069315E-04 
 +3.628995E-05 +1.334558E-04 +2.906703E-05 +1.334558E-04 +5.056936E-03 -6.249890E-05 +2.906703E-05 -6.249890E-05 -2.144230E-04 
 +2.257921E-05 +1.414811E-04 +3.155211E-05 +1.414811E-04 +5.121890E-03 -4.864207E-05 +3.155211E-05 -4.864207E-05 -2.153554E-04 
 -2.242552E-05 +1.442454E-04 +3.830149E-05 +1.442454E-04 +5.163149E-03 -2.855769E-05 +3.830149E-05 -2.855769E-05 -1.351471E-04 
 -9.076542E-05 +1.602699E-04 +1.083718E-04 +1.602699E-04 +5.264602E-03 +1.910749E-06 +1.083718E-04 +1.910749E-06 -6.672265E-05 
 -3.235834E-05 +1.982045E-04 +8.690549E-05 +1.982045E-04 +5.221890E-03 +1.525264E-05 +8.690549E-05 +1.525264E-05 +1.495745E-05 
 +6.609544E-05 +1.614624E-04 +4.165077E-05 +1.614624E-04 +5.047281E-03 +5.697235E-05 +4.165077E-05 +5.697235E-05 +1.283984E-04 
 +9.549004E-05 -7.910018E-05 -6.045270E-05 -7.910018E-05 +4.993576E-03 +7.777100E-05 -6.045270E-05 +7.777100E-05 +7.930225E-05 
 +4.233485E-05 -1.413757E-04 -1.496157E-04 -1.413757E-04 +4.975676E-03 +9.454979E-05 -1.496157E-04 +9.454979E-05 +1.179154E-04 
 -1.148880E-04 -1.169540E-04 -1.243642E-04 -1.169540E-04 +4.965098E-03 +1.199371E-04 -1.243642E-04 +1.199371E-04 +2.723071E-04 
 -5.388402E-05 -1.015967E-04 -1.996665E-04 -1.015967E-04 +4.949842E-03 +6.554572E-05 -1.996665E-04 +6.554572E-05 +1.773801E-04 
 -2.772124E-05 -9.486660E-05 -1.643095E-04 -9.486660E-05 +4.924146E-03 +9.747395E-05 -1.643095E-04 +9.747395E-05 +1.477276E-04 
 -1.643800E-04 -1.636895E-04 -1.095863E-04 -1.636895E-04 +4.910262E-03 +5.166708E-05 -1.095863E-04 +5.166708E-05 +1.583028E-04 
 -1.679787E-04 -1.397848E-04 +7.690610E-06 -1.397848E-04 +4.911828E-03 +1.164590E-04 +7.690610E-06 +1.164590E-04 +9.702453E-05 
 +4.951691E-05 +1.122006E-04 -3.446950E-05 +1.122006E-04 +4.919380E-03 +1.682409E-04 -3.446950E-05 +1.682409E-04 +4.792221E-05 
 +2.893830E-05 +1.211351E-04 -7.066170E-05 +1.211351E-04 +4.926782E-03 +1.297113E-04 -7.066170E-05 +1.297113E-04 +6.429698E-05 
 +4.273225E-05 +1.036033E-04 -7.486836E-05 +1.036033E-04 +4.891998E-03 +9.734556E-05 -7.486836E-05 +9.734556E-05 +5.552815E-05 
 +9.031473E-05 +7.679628E-05 -8.583343E-05 +7.679628E-05 +4.830641E-03 +5.291576E-05 -8.583343E-05 +5.291576E-05 +3.452086E-05 
 +1.082297E-04 +7.065948E-05 -9.892555E-05 +7.065948E-05 +4.782308E-03 +2.251213E-05 -9.892555E-05 +2.251213E-05 +1.657323E-05 
 +1.722318E-04 +7.591813E-05 -1.036374E-04 +7.591813E-05 +4.724236E-03 +3.995040E-05 -1.036374E-04 +3.995040E-05 -1.088011E-05 
 +1.523409E-04 +1.443761E-04 -2.156845E-04 +1.443761E-04 +4.744257E-03 +1.554425E-05 -2.156845E-04 +1.554425E-05 -9.013016E-05 
 +5.141174E-05 +1.986086E-04 -1.196895E-04 +1.986086E-04 +4.924505E-03 -5.120007E-05 -1.196895E-04 -5.120007E-05 -1.923980E-04 
 -2.734676E-05 +1.417559E-04 -8.632912E-06 +1.417559E-04 +5.077759E-03 -5.765859E-05 -8.632912E-06 -5.765859E-05 -2.372495E-04 
 -5.890663E-05 +1.035958E-04 +1.679009E-05 +1.035958E-04 +5.107502E-03 -4.250408E-05 +1.679009E-05 -4.250408E-05 -1.951326E-04 
 -8.363430E-05 +1.056746E-04 +4.226235E-05 +1.056746E-04 +5.139322E-03 -1.816698E-05 +4.226235E-05 -1.816698E-05 -1.141847E-04 
 -6.492730E-05 +1.268469E-04 +6.102314E-05 +1.268469E-04 +5.134942E-03 -1.411460E-05 +6.102314E-05 -1.411460E-05 -4.030430E-05 
 -1.156517E-05 +8.474607E-05 +1.445766E-05 +8.474607E-05 +5.010573E-03 -2.978672E-05 +1.445766E-05 -2.978672E-05 +8.485280E-05 
 +5.358695E-06 +1.276743E-04 +3.575753E-05 +1.276743E-04 +4.955930E-03 +4.158256E-05 +3.575753E-05 +4.158256E-05 +1.742459E-04 
 -2.676934E-08 -8.963132E-05 -7.576599E-05 -8.963132E-05 +4.979586E-03 +5.261155E-05 -7.576599E-05 +5.261155E-05 +1.017238E-04 
 -1.135886E-05 -1.687983E-04 -1.738832E-04 -1.687983E-04 +4.995259E-03 +2.163381E-05 -1.738832E-04 +2.163381E-05 +8.667056E-05 
 -2.944112E-05 -1.794679E-04 -2.396175E-04 -1.794679E-04 +4.983888E-03 +3.136152E-05 -2.396175E-04 +3.136152E-05 +1.804909E-04 
 +6.267068E-05 -1.609056E-04 -1.793814E-04 -1.609056E-04 +4.879946E-03 -7.718552E-05 -1.793814E-04 -7.718552E-05 +1.448492E-04 
 -1.175694E-05 -1.081238E-04 -1.372064E-04 -1.081238E-04 +4.833852E-03 +2.718165E-06 -1.372064E-04 +2.718165E-06 +1.684374E-04 
 -1.122131E-04 -6.790532E-05 -2.932646E-05 -6.790532E-05 +4.878788E-03 +8.644741E-05 -2.932646E-05 +8.644741E-05 +1.383175E-04 
 -1.703044E-04 -4.006269E-05 +1.312086E-04 -4.006269E-05 +4.975022E-03 +1.201089E-04 +1.312086E-04 +1.201089E-04 +7.963110E-05 
 -6.060404E-06 +1.342234E-04 -2.515576E-05 +1.342234E-04 +4.902235E-03 +1.480647E-04 -2.515576E-05 +1.480647E-04 +6.843031E-05 
 +6.871456E-05 +1.544672E-04 -1.632073E-04 +1.544672E-04 +4.857887E-03 +1.373113E-04 -1.632073E-04 +1.373113E-04 +7.458613E-05 
 +6.844966E-05 +6.987603E-05 -1.726125E-04 +6.987603E-05 +4.866846E-03 +7.836709E-05 -1.726125E-04 +7.836709E-05 +2.607006E-05 
 +1.410055E-04 +7.306768E-05 -1.476366E-04 +7.306768E-05 +4.796471E-03 +3.069440E-05 -1.476366E-04 +3.069440E-05 -7.820447E-06 
 +1.932184E-04 +1.031975E-04 -1.016487E-04 +1.031975E-04 +4.740675E-03 +6.454422E-05 -1.016487E-04 +6.454422E-05 -1.626637E-05 
 +2.113172E-04 +1.257999E-04 -1.454349E-04 +1.257999E-04 +4.790699E-03 +9.611459E-05 -1.454349E-04 +9.611459E-05 -1.117271E-04 
 +6.852964E-05 +1.681692E-04 -3.603086E-04 +1.681692E-04 +5.022704E-03 +6.586772E-05 -3.603086E-04 +6.586772E-05 -2.468398E-04 
 -1.469786E-05 +1.326884E-04 -2.895357E-04 +1.326884E-04 +5.154526E-03 +3.097631E-05 -2.895357E-04 +3.097631E-05 -2.933234E-04 
 -4.477127E-05 +8.165229E-05 -9.142930E-05 +8.165229E-05 +5.142936E-03 -8.441477E-06 -9.142930E-05 -8.441477E-06 -2.934958E-04 
 -1.109655E-04 +7.436101E-05 -6.223746E-05 +7.436101E-05 +5.152145E-03 -1.403552E-05 -6.223746E-05 -1.403552E-05 -2.295576E-04 
 -1.653556E-04 +5.302316E-05 -2.184193E-05 +5.302316E-05 +5.017494E-03 -6.023578E-05 -2.184193E-05 -6.023578E-05 -8.771616E-05 
 +1.283209E-05 +8.031416E-05 +6.650707E-06 +8.031416E-05 +4.828955E-03 -9.773198E-05 +6.650707E-06 -9.773198E-05 +4.712859E-05 
 +2.122138E-05 +8.300268E-05 +2.413257E-06 +8.300268E-05 +4.881233E-03 -2.523234E-05 +2.413257E-06 -2.523234E-05 +1.607584E-04 
 -6.749006E-05 +1.164719E-04 +4.584940E-05 +1.164719E-04 +4.932112E-03 +5.152514E-05 +4.584940E-05 +5.152514E-05 +2.200960E-04 
 -8.258470E-05 -6.917965E-05 -7.424387E-05 -6.917965E-05 +4.955131E-03 +4.840449E-05 -7.424387E-05 +4.840449E-05 +1.578003E-04 
 -6.690472E-05 -1.467753E-04 -1.567530E-04 -1.467753E-04 +5.025609E-03 +3.906780E-05 -1.567530E-04 +3.906780E-05 +1.027954E-04 
 +4.969732E-06 -2.157043E-04 -2.761880E-04 -2.157043E-04 +4.967361E-03 -1.819989E-05 -2.761880E-04 -1.819989E-05 +1.139550E-04 
 +8.414683E-05 -1.922761E-04 -9.842630E-05 -1.922761E-04 +4.755572E-03 -2.449173E-04 -9.842630E-05 -2.449173E-04 +1.428276E-04 
 +5.563957E-05 -1.453314E-04 +3.743130E-05 -1.453314E-04 +4.716780E-03 -1.713904E-04 +3.743130E-05 -1.713904E-04 +7.733121E-05 
 -6.396464E-06 -2.985949E-05 +6.119487E-05 -2.985949E-05 +4.871786E-03 +4.734471E-05 +6.119487E-05 +4.734471E-05 +3.706167E-05 
 -7.149590E-05 +7.126913E-06 +8.066338E-05 +7.126913E-06 +5.043603E-03 +1.258586E-04 +8.066338E-05 +1.258586E-04 +7.328520E-05 
 -1.065674E-04 +9.177135E-05 +4.694325E-05 +9.177135E-05 +5.027844E-03 +1.260165E-04 +4.694325E-05 +1.260165E-04 +7.762989E-05 
 +7.846953E-05 +2.100447E-04 -1.368017E-04 +2.100447E-04 +4.858079E-03 +1.494384E-04 -1.368017E-04 +1.494384E-04 +3.919141E-05 
 +1.402537E-04 +1.457045E-04 -1.666494E-04 +1.457045E-04 +4.807844E-03 +1.247237E-04 -1.666494E-04 +1.247237E-04 -5.947175E-06 
 +1.631510E-04 +9.042124E-05 -1.417014E-04 +9.042124E-05 +4.758661E-03 +1.049538E-04 -1.417014E-04 +1.049538E-04 -9.146154E-05 
 +2.046130E-04 +1.287531E-04 -1.139228E-04 +1.287531E-04 +4.783844E-03 +1.075464E-04 -1.139228E-04 +1.075464E-04 -1.466142E-04 
 +4.440604E-05 +1.201477E-04 -2.849940E-04 +1.201477E-04 +5.050069E-03 +6.950148E-05 -2.849940E-04 +6.950148E-05 -2.286491E-04 
 -4.743631E-05 +1.089921E-04 -3.663107E-04 +1.089921E-04 +5.205081E-03 +5.089334E-05 -3.663107E-04 +5.089334E-05 -3.117727E-04 
 -4.158986E-05 +3.907043E-05 -3.059298E-04 +3.907043E-05 +5.223761E-03 +8.945918E-05 -3.059298E-04 +8.945918E-05 -3.184112E-04 
 -3.730951E-05 -1.700684E-05 -2.073964E-04 -1.700684E-05 +5.238357E-03 +6.330227E-05 -2.073964E-04 +6.330227E-05 -2.976269E-04 
 -9.792535E-05 -5.490316E-05 -1.752381E-04 -5.490316E-05 +5.182899E-03 +2.743736E-05 -1.752381E-04 +2.743736E-05 -2.122574E-04 
 -1.382830E-04 -9.326050E-05 -1.472833E-04 -9.326050E-05 +5.068878E-03 -8.011500E-06 -1.472833E-04 -8.011500E-06 +1.030171E-06 
 +3.795739E-06 -1.890560E-05 +2.942496E-05 -1.890560E-05 +4.928249E-03 -3.216253E-05 +2.942496E-05 -3.216253E-05 +1.266399E-04 
 -1.346994E-06 +6.215775E-05 -3.245556E-05 +6.215775E-05 +4.898825E-03 -1.025732E-05 -3.245556E-05 -1.025732E-05 +1.241487E-04 
 -1.003044E-04 -2.029379E-05 -6.148594E-06 -2.029379E-05 +4.955666E-03 -4.163862E-05 -6.148594E-06 -4.163862E-05 +1.846665E-04 
 -1.072116E-04 -1.091125E-04 -3.408946E-05 -1.091125E-04 +4.913576E-03 -1.041747E-04 -3.408946E-05 -1.041747E-04 +1.777294E-04 
 -3.253518E-05 -1.640707E-04 -8.398969E-05 -1.640707E-04 +4.844058E-03 -1.631921E-04 -8.398969E-05 -1.631921E-04 +1.367095E-04 
 +1.369471E-05 -2.091880E-04 -1.305590E-04 -2.091880E-04 +4.826440E-03 -2.002149E-04 -1.305590E-04 -2.002149E-04 +1.392839E-04 
 +9.178026E-05 -1.872718E-04 +8.567122E-05 -1.872718E-04 +4.805845E-03 -3.069657E-04 +8.567122E-05 -3.069657E-04 +5.861236E-05 
 +3.962636E-05 -7.010659E-05 +2.737244E-04 -7.010659E-05 +4.966197E-03 -1.407765E-04 +2.737244E-04 -1.407765E-04 -5.104448E-05 
 +8.035786E-05 -4.539426E-05 +1.588327E-04 -4.539426E-05 +4.945384E-03 +2.059452E-05 +1.588327E-04 +2.059452E-05 -4.991248E-05 
 +4.611046E-05 -3.067055E-05 +1.282420E-05 -3.067055E-05 +4.885071E-03 +6.903546E-05 +1.282420E-05 +6.903546E-05 +5.301493E-05 
 -6.875181E-05 +3.558980E-05 +4.798300E-05 +3.558980E-05 +4.969751E-03 +8.066394E-05 +4.798300E-05 +8.066394E-05 +1.017246E-04 
 +6.368189E-05 +1.052126E-04 -8.026273E-05 +1.052126E-04 +4.945835E-03 +1.306318E-04 -8.026273E-05 +1.306318E-04 +7.254874E-05 
 +2.141217E-04 +1.269037E-04 -9.257190E-05 +1.269037E-04 +4.849669E-03 +2.239883E-04 -9.257190E-05 +2.239883E-04 -1.502065E-05 
 +7.146952E-05 +4.176275E-06 -1.379383E-04 +4.176275E-06 +4.925770E-03 +2.670708E-04 -1.379383E-04 +2.670708E-04 -1.754715E-04 
 +3.235000E-05 +9.169086E-05 -2.482548E-04 +9.169086E-05 +5.110742E-03 +1.325665E-04 -2.482548E-04 +1.325665E-04 -2.900261E-04 
 -5.293183E-05 +1.095204E-04 -3.447975E-04 +1.095204E-04 +5.224679E-03 +9.719859E-06 -3.447975E-04 +9.719859E-06 -3.154356E-04 
 -4.017517E-05 +1.245094E-04 -2.635475E-04 +1.245094E-04 +5.236074E-03 +3.927511E-05 -2.635475E-04 +3.927511E-05 -3.115698E-04 
 -4.348240E-05 +8.933358E-05 -2.491885E-04 +8.933358E-05 +5.225164E-03 +7.935140E-05 -2.491885E-04 +7.935140E-05 -2.913755E-04 
 -5.053799E-05 +3.137713E-05 -2.701775E-04 +3.137713E-05 +5.200101E-03 +7.745743E-05 -2.701775E-04 +7.745743E-05 -2.320995E-04 
 -7.187385E-05 -5.334507E-05 -2.667107E-04 -5.334507E-05 +5.129056E-03 +4.800775E-05 -2.667107E-04 +4.800775E-05 -1.484400E-04 
 -1.213342E-04 -1.301702E-04 -2.753624E-04 -1.301702E-04 +5.057960E-03 +1.020684E-04 -2.753624E-04 +1.020684E-04 +1.555006E-05 
 -5.871761E-05 -1.311578E-04 +5.740127E-06 -1.311578E-04 +4.987050E-03 +2.423040E-04 +5.740127E-06 +2.423040E-04 +1.263019E-04 
 -7.781245E-05 +9.196242E-06 -4.477790E-05 +9.196242E-06 +4.842694E-03 +2.703588E-04 -4.477790E-05 +2.703588E-04 +1.577448E-04 
 -4.851852E-05 +8.492873E-06 -5.916638E-05 +8.492873E-06 +4.810914E-03 +1.312523E-04 -5.916638E-05 +1.312523E-04 +2.027706E-04 
 -4.343220E-05 -9.654803E-05 +6.665349E-06 -9.654803E-05 +4.893986E-03 -3.707603E-05 +6.665349E-06 -3.707603E-05 +1.723119E-04 
 -9.505204E-06 -1.893166E-04 +2.120321E-05 -1.893166E-04 +4.865180E-03 -1.337354E-04 +2.120321E-05 -1.337354E-04 +1.529799E-04 
 +4.730349E-05 -2.464983E-04 +2.277467E-05 -2.464983E-04 +4.763839E-03 -2.564309E-04 +2.277467E-05 -2.564309E-04 +1.395053E-04 
 +6.885621E-05 -6.658522E-05 +3.566144E-04 -6.658522E-05 +4.891088E-03 -2.075756E-04 +3.566144E-04 -2.075756E-04 -5.353369E-05 
 +9.994245E-05 -2.968014E-06 +3.213029E-04 -2.968014E-06 +5.022138E-03 -1.505027E-04 +3.213029E-04 -1.505027E-04 -1.487833E-04 
 +6.162281E-05 -6.106983E-05 +3.228982E-04 -6.106983E-05 +4.991311E-03 -8.370332E-05 +3.228982E-04 -8.370332E-05 -1.227693E-04 
 +6.759419E-05 -1.522539E-05 +1.222769E-04 -1.522539E-05 +4.924012E-03 +7.642421E-05 +1.222769E-04 +7.642421E-05 +2.362657E-05 
 -6.078042E-06 -3.521791E-05 +5.723624E-05 -3.521791E-05 +4.835610E-03 +9.420939E-05 +5.723624E-05 +9.420939E-05 +1.569021E-04 
 +9.489546E-05 -9.367483E-06 -1.010698E-04 -9.367483E-06 +4.724655E-03 +9.221666E-05 -1.010698E-04 +9.221666E-05 +1.491172E-04 
 +1.602228E-04 +1.201511E-04 -4.694050E-05 +1.201511E-04 +4.852531E-03 +1.593460E-04 -4.694050E-05 +1.593460E-04 -7.845851E-05 
 -4.933366E-05 +2.202698E-05 -2.076460E-04 +2.202698E-05 +5.175552E-03 +1.217816E-04 -2.076460E-04 +1.217816E-04 -2.476745E-04 
 -7.638542E-05 +1.012819E-04 -3.136887E-04 +1.012819E-04 +5.324975E-03 +1.970302E-05 -3.136887E-04 +1.970302E-05 -3.178910E-04 
 +7.595767E-06 +1.360724E-04 -2.903190E-04 +1.360724E-04 +5.288293E-03 -1.235496E-05 -2.903190E-04 -1.235496E-05 -3.924579E-04 
 +1.100683E-05 +1.334352E-04 -2.059903E-04 +1.334352E-04 +5.248554E-03 +8.115523E-06 -2.059903E-04 +8.115523E-06 -3.520043E-04 
 -3.801061E-05 +9.264813E-05 -2.391165E-04 +9.264813E-05 +5.212121E-03 +4.278945E-05 -2.391165E-04 +4.278945E-05 -2.540672E-04 
 -3.790570E-05 +2.770245E-05 -2.965834E-04 +2.770245E-05 +5.164209E-03 +6.231644E-05 -2.965834E-04 +6.231644E-05 -1.725620E-04 
 -6.035650E-05 -5.490673E-05 -3.479581E-04 -5.490673E-05 +5.126635E-03 +7.824289E-05 -3.479581E-04 +7.824289E-05 -9.337073E-05 
 -1.582660E-04 -1.122405E-04 -3.907095E-04 -1.122405E-04 +5.077411E-03 +1.920349E-04 -3.907095E-04 +1.920349E-04 -8.328228E-05 
 -1.083608E-04 -8.855325E-05 -7.795812E-05 -8.855325E-05 +5.024571E-03 +3.488599E-04 -7.795812E-05 +3.488599E-04 +3.915465E-05 
 -1.772331E-04 -1.986686E-05 +3.059218E-05 -1.986686E-05 +4.932601E-03 +3.247921E-04 +3.059218E-05 +3.247921E-04 +2.132125E-04 
 +1.411209E-05 +1.269357E-05 -8.151530E-06 +1.269357E-05 +4.756782E-03 +1.946552E-04 -8.151530E-06 +1.946552E-04 +2.341900E-04 
 +3.782342E-05 -3.643088E-05 +1.574882E-05 -3.643088E-05 +4.743391E-03 +7.711903E-05 +1.574882E-05 +7.711903E-05 +2.175023E-04 
 +9.816639E-06 -1.839620E-04 +1.002986E-04 -1.839620E-04 +4.833323E-03 -1.328350E-04 +1.002986E-04 -1.328350E-04 +1.795961E-04 
 +7.824748E-05 -2.342764E-04 +1.984675E-04 -2.342764E-04 +4.813551E-03 -2.880003E-04 +1.984675E-04 -2.880003E-04 +8.282839E-05 
 +5.821179E-05 -4.750094E-05 +4.856791E-04 -4.750094E-05 +4.889221E-03 -1.951820E-04 +4.856791E-04 -1.951820E-04 -7.500115E-05 
 +1.552339E-04 +5.353891E-05 +2.595701E-04 +5.353891E-05 +4.852570E-03 -1.161950E-04 +2.595701E-04 -1.161950E-04 -1.200980E-04 
 +8.679979E-06 -8.733043E-05 +4.083260E-04 -8.733043E-05 +4.989486E-03 -2.856592E-05 +4.083260E-04 -2.856592E-05 -1.228483E-04 
 +3.350695E-05 -7.928765E-05 +2.553726E-04 -7.928765E-05 +5.023308E-03 +3.578965E-05 +2.553726E-04 +3.578965E-05 +9.191129E-07 
 +2.339245E-05 -8.048209E-05 +1.496339E-04 -8.048209E-05 +4.984553E-03 +1.023275E-04 +1.496339E-04 +1.023275E-04 +7.424797E-05 
 +7.674598E-05 -3.850140E-05 -3.873917E-05 -3.850140E-05 +5.080568E-03 +1.982444E-04 -3.873917E-05 +1.982444E-04 -4.305192E-07 
 +5.717219E-05 +1.219790E-04 -1.437605E-05 +1.219790E-04 +5.174600E-03 +2.179382E-04 -1.437605E-05 +2.179382E-04 -1.582456E-04 
 -4.813356E-05 +9.339497E-05 -2.883474E-04 +9.339497E-05 +5.197651E-03 +1.021712E-04 -2.883474E-04 +1.021712E-04 -1.972725E-04 
 -5.515909E-05 +1.395494E-04 -3.569092E-04 +1.395494E-04 +5.239707E-03 +6.833216E-06 -3.569092E-04 +6.833216E-06 -2.661852E-04 
 +6.206380E-05 +1.595810E-04 -2.722182E-04 +1.595810E-04 +5.270898E-03 -3.982022E-05 -2.722182E-04 -3.982022E-05 -4.156781E-04 
 +2.426994E-05 +1.328500E-04 -1.951258E-04 +1.328500E-04 +5.251759E-03 -3.278518E-05 -1.951258E-04 -3.278518E-05 -3.521174E-04 
 -2.994296E-05 +7.348265E-05 -2.427362E-04 +7.348265E-05 +5.195758E-03 -3.625743E-06 -2.427362E-04 -3.625743E-06 -1.990231E-04 
 -2.382978E-05 +1.272422E-05 -3.120939E-04 +1.272422E-05 +5.154142E-03 +3.788894E-05 -3.120939E-04 +3.788894E-05 -1.390864E-04 
 -4.610721E-05 -5.816058E-05 -3.604794E-04 -5.816058E-05 +5.151673E-03 +1.153406E-04 -3.604794E-04 +1.153406E-04 -7.037150E-05 
 -1.776979E-04 -1.612094E-04 -3.967924E-04 -1.612094E-04 +5.123343E-03 +2.445185E-04 -3.967924E-04 +2.445185E-04 -1.080520E-04 
 -1.593305E-04 -1.401735E-04 -9.364775E-05 -1.401735E-04 +5.057201E-03 +3.196674E-04 -9.364775E-05 +3.196674E-04 +2.123484E-05 
 -1.931180E-04 -6.256875E-05 +5.854388E-05 -6.256875E-05 +4.963087E-03 +2.494104E-04 +5.854388E-05 +2.494104E-04 +2.214514E-04 
 +6.849574E-06 -8.971175E-06 +6.729913E-05 -8.971175E-06 +4.811455E-03 +1.480609E-04 +6.729913E-05 +1.480609E-04 +2.005365E-04 
 +1.032106E-04 +2.813864E-05 +4.018801E-05 +2.813864E-05 +4.685214E-03 +1.293626E-04 +4.018801E-05 +1.293626E-04 +2.019241E-04 
 +1.239799E-04 -6.312999E-05 +8.749094E-05 -6.312999E-05 +4.758319E-03 +1.254916E-05 +8.749094E-05 +1.254916E-05 +8.990862E-05 
 -4.307366E-08 -1.895018E-04 +4.200940E-04 -1.895018E-04 +4.923475E-03 -1.616142E-04 +4.200940E-04 -1.616142E-04 -4.768471E-05 
 +1.000079E-05 -8.131666E-05 +4.653420E-04 -8.131666E-05 +4.968372E-03 -1.969481E-04 +4.653420E-04 -1.969481E-04 -6.860364E-05 
 +8.917411E-05 -1.050512E-05 +2.865028E-04 -1.050512E-05 +4.969779E-03 -5.788042E-05 +2.865028E-04 -5.788042E-05 -8.597275E-05 
 +6.392617E-05 -6.676149E-05 +2.999407E-04 -6.676149E-05 +4.976161E-03 +3.375499E-05 +2.999407E-04 +3.375499E-05 -9.898140E-05 
 +4.546328E-05 -5.583834E-05 +2.875779E-04 -5.583834E-05 +5.017988E-03 +4.842738E-05 +2.875779E-04 +4.842738E-05 -2.277313E-05 
 +1.402073E-05 -3.305792E-05 +2.279043E-04 -3.305792E-05 +5.080333E-03 +1.428848E-04 +2.279043E-04 +1.428848E-04 +3.494441E-05 
 +3.504028E-05 +5.694132E-05 -2.885614E-05 +5.694132E-05 +5.164754E-03 +2.152106E-04 -2.885614E-05 +2.152106E-04 -1.185293E-04 
 +2.534752E-05 +1.999548E-04 -7.286564E-05 +1.999548E-04 +5.184311E-03 +9.745191E-05 -7.286564E-05 +9.745191E-05 -2.046046E-04 
 -3.071496E-05 +1.653261E-04 -3.250162E-04 +1.653261E-04 +5.169419E-03 -4.224663E-05 -3.250162E-04 -4.224663E-05 -1.012385E-04 
 -1.499800E-05 +1.916626E-04 -4.028091E-04 +1.916626E-04 +5.188547E-03 -6.779350E-05 -4.028091E-04 -6.779350E-05 -1.750923E-04 
 +7.108428E-05 +1.838753E-04 -2.888677E-04 +1.838753E-04 +5.215916E-03 -7.133901E-05 -2.888677E-04 -7.133901E-05 -2.988336E-04 
 +5.001998E-06 +1.069752E-04 -2.045890E-04 +1.069752E-04 +5.217861E-03 -7.271163E-05 -2.045890E-04 -7.271163E-05 -2.336184E-04 
 -3.419872E-05 +3.180531E-05 -2.327799E-04 +3.180531E-05 +5.195777E-03 -3.861083E-05 -2.327799E-04 -3.861083E-05 -1.460293E-04 
 -7.767905E-06 -2.232932E-05 -3.036540E-04 -2.232932E-05 +5.164408E-03 +1.863404E-05 -3.036540E-04 +1.863404E-05 -1.354629E-04 
 -2.754700E-05 -5.079241E-05 -3.645654E-04 -5.079241E-05 +5.178256E-03 +7.655408E-05 -3.645654E-04 +7.655408E-05 -1.081222E-04 
 -2.054145E-04 -1.979505E-04 -3.200233E-04 -1.979505E-04 +5.181698E-03 +1.897732E-04 -3.200233E-04 +1.897732E-04 -9.672379E-05 
 -1.722150E-04 -1.905597E-04 +5.421054E-07 -1.905597E-04 +5.026227E-03 +2.574970E-04 +5.421054E-07 +2.574970E-04 +6.107652E-05 
 -1.083375E-04 -8.613680E-05 +5.514360E-05 -8.613680E-05 +4.836282E-03 +1.903227E-04 +5.514360E-05 +1.903227E-04 +2.327489E-04 
 +1.635535E-05 -2.032293E-05 +7.452608E-05 -2.032293E-05 +4.727059E-03 +1.276368E-04 +7.452608E-05 +1.276368E-04 +2.276820E-04 
 +1.008639E-04 +4.086326E-05 +7.634003E-05 +4.086326E-05 +4.625262E-03 +1.400021E-04 +7.634003E-05 +1.400021E-04 +1.669442E-04 
 +1.605841E-04 +3.366935E-05 +9.569452E-05 +3.366935E-05 +4.718882E-03 +1.091577E-04 +9.569452E-05 +1.091577E-04 +3.236579E-05 
 -3.568833E-05 -1.609356E-04 +4.105966E-04 -1.609356E-04 +4.910350E-03 -9.296706E-05 +4.105966E-04 -9.296706E-05 -5.777924E-05 
 -1.149329E-04 -4.996549E-05 +2.556425E-04 -4.996549E-05 +5.081992E-03 +9.689047E-06 +2.556425E-04 +9.689047E-06 -1.210344E-04 
 -9.546920E-05 -1.653776E-05 +1.675687E-04 -1.653776E-05 +5.135493E-03 -3.437214E-05 +1.675687E-04 -3.437214E-05 -5.100369E-05 
 -4.134305E-05 -6.338709E-05 +1.283096E-04 -6.338709E-05 +5.084290E-03 -3.164526E-05 +1.283096E-04 -3.164526E-05 -2.630432E-06 
 -7.859106E-05 -1.617005E-04 +1.078009E-04 -1.617005E-04 +5.192716E-03 -8.757393E-05 +1.078009E-04 -8.757393E-05 -6.253972E-05 
 -7.324844E-05 -1.679864E-04 +2.314864E-04 -1.679864E-04 +5.324990E-03 -5.437434E-05 +2.314864E-04 -5.437434E-05 -2.725268E-04 
 +8.411470E-05 -1.001241E-04 -1.901138E-04 -1.001241E-04 +5.331772E-03 +1.256860E-05 -1.901138E-04 +1.256860E-05 -3.189477E-04 
 +6.696083E-05 -2.819830E-05 -7.037490E-05 -2.819830E-05 +5.282600E-03 -5.969281E-05 -7.037490E-05 -5.969281E-05 -2.190251E-04 
 -3.724786E-05 +7.019959E-05 -1.790724E-04 +7.019959E-05 +5.193048E-03 -1.477367E-04 -1.790724E-04 -1.477367E-04 -1.770875E-04 
 -1.013230E-04 +1.610751E-04 -2.309876E-04 +1.610751E-04 +5.140657E-03 -1.051980E-04 -2.309876E-04 -1.051980E-04 -9.582075E-05 
 -1.253078E-04 +1.583016E-04 -2.237975E-04 +1.583016E-04 +5.150017E-03 -8.099857E-06 -2.237975E-04 -8.099857E-06 -7.244903E-05 
 -8.846958E-05 +1.307256E-04 -2.424230E-04 +1.307256E-04 +5.174779E-03 -3.568731E-05 -2.424230E-04 -3.568731E-05 -6.342170E-05 
 -6.119519E-05 +7.799477E-05 -2.453600E-04 +7.799477E-05 +5.217881E-03 -6.498308E-05 -2.453600E-04 -6.498308E-05 -7.825852E-05 
 -1.534855E-05 -1.437703E-05 -2.301788E-04 -1.437703E-05 +5.241106E-03 -2.008388E-05 -2.301788E-04 -2.008388E-05 -1.586559E-04 
 -3.949240E-05 -3.227507E-05 -2.816048E-04 -3.227507E-05 +5.135248E-03 -2.804454E-05 -2.816048E-04 -2.804454E-05 -1.261039E-04 
 +1.054980E-04 -2.302594E-04 +1.190190E-04 -2.302594E-04 +4.933623E-03 -7.696803E-07 +1.190190E-04 -7.696803E-07 +4.495988E-05 
 +1.007766E-04 -2.355858E-04 +2.298899E-04 -2.355858E-04 +4.871638E-03 +6.051746E-05 +2.298899E-04 +6.051746E-05 +1.151283E-04 
 +3.354314E-05 -1.306074E-04 +7.389334E-05 -1.306074E-04 +4.819520E-03 +1.065452E-04 +7.389334E-05 +1.065452E-04 +1.346994E-04 
 +1.078656E-04 -3.885006E-05 +7.743537E-05 -3.885006E-05 +4.679148E-03 +1.293450E-04 +7.743537E-05 +1.293450E-04 +1.679741E-04 
 +1.515930E-04 +1.699477E-05 +1.892480E-04 +1.699477E-05 +4.642833E-03 +1.273851E-04 +1.892480E-04 +1.273851E-04 +1.297113E-04 
 +1.709894E-04 -2.073772E-05 +2.078644E-05 -2.073772E-05 +4.743398E-03 +1.381737E-04 +2.078644E-05 +1.381737E-04 +3.745013E-05 
 +5.047738E-05 -2.522335E-04 +2.055938E-05 -2.522335E-04 +4.898168E-03 +8.883331E-05 +2.055938E-05 +8.883331E-05 -9.891952E-05 
 -9.749825E-05 -3.119594E-05 +8.286663E-05 -3.119594E-05 +5.013142E-03 +1.242847E-04 +8.286663E-05 +1.242847E-04 -7.790292E-05 
 -1.482751E-04 -9.154409E-05 +4.626319E-05 -9.154409E-05 +5.084056E-03 +9.225358E-06 +4.626319E-05 +9.225358E-06 -2.359901E-05 
 -1.615270E-04 -1.408246E-04 +4.933728E-05 -1.408246E-04 +5.139977E-03 -2.829012E-05 +4.933728E-05 -2.829012E-05 -3.079605E-05 
 -8.717284E-05 -1.543128E-04 +2.962132E-06 -1.543128E-04 +5.245170E-03 -4.143877E-05 +2.962132E-06 -4.143877E-05 -1.302793E-04 
 -8.278463E-06 -1.080340E-04 +2.303463E-04 -1.080340E-04 +5.374506E-03 -1.683808E-04 +2.303463E-04 -1.683808E-04 -4.387295E-04 
 +1.504071E-04 -3.515196E-05 -4.156841E-05 -3.515196E-05 +5.393174E-03 -1.869424E-04 -4.156841E-05 -1.869424E-04 -5.592776E-04 
 +1.539444E-04 +8.576933E-06 -1.207453E-05 +8.576933E-06 +5.305669E-03 -1.063851E-04 -1.207453E-05 -1.063851E-04 -3.704938E-04 
 -1.483395E-04 -4.555118E-06 -2.084229E-04 -4.555118E-06 +5.199874E-03 -1.109356E-04 -2.084229E-04 -1.109356E-04 -2.172115E-04 
 -3.888358E-05 +2.177575E-05 -1.996991E-04 +2.177575E-05 +5.096629E-03 -8.494942E-05 -1.996991E-04 -8.494942E-05 -4.821584E-05 
 -2.289462E-05 +4.255848E-05 -1.937075E-04 +4.255848E-05 +5.067556E-03 -3.645954E-05 -1.937075E-04 -3.645954E-05 +3.105530E-05 
 -8.276878E-05 +7.020070E-05 -2.754259E-04 +7.020070E-05 +5.158697E-03 -1.593740E-05 -2.754259E-04 -1.593740E-05 -3.781672E-06 
 -9.404244E-05 +4.772124E-05 -2.179599E-04 +4.772124E-05 +5.262428E-03 -3.144145E-05 -2.179599E-04 -3.144145E-05 -7.070258E-05 
 +6.470340E-05 +3.191798E-05 -1.867721E-04 +3.191798E-05 +5.334360E-03 -4.875049E-05 -1.867721E-04 -4.875049E-05 -2.220837E-04 
 +4.887017E-05 -7.860616E-05 -3.591938E-04 -7.860616E-05 +5.148531E-03 -1.862485E-05 -3.591938E-04 -1.862485E-05 -1.794410E-04 
 +1.553173E-04 -2.265132E-04 -1.976042E-05 -2.265132E-04 +4.900572E-03 -4.266640E-05 -1.976042E-05 -4.266640E-05 +3.006303E-05 
 +1.237284E-04 -2.041533E-04 +9.468756E-05 -2.041533E-04 +4.931686E-03 -1.081226E-04 +9.468756E-05 -1.081226E-04 +6.683586E-05 
 +9.888831E-05 -2.161313E-04 +5.759582E-05 -2.161313E-04 +4.891606E-03 -1.080268E-04 +5.759582E-05 -1.080268E-04 +1.329497E-06 
 +6.305070E-05 -5.029167E-05 +1.776734E-04 -5.029167E-05 +4.894337E-03 -3.785079E-05 +1.776734E-04 -3.785079E-05 +2.643368E-05 
 -2.533920E-05 -1.001833E-05 +3.477386E-04 -1.001833E-05 +5.063960E-03 +6.916027E-05 +3.477386E-04 +6.916027E-05 -3.533571E-05 
 +8.995835E-07 -4.363501E-05 +2.932200E-05 -4.363501E-05 +5.048757E-03 +9.829076E-05 +2.932200E-05 +9.829076E-05 -1.140306E-04 
 +5.519341E-05 -2.183244E-04 -1.441722E-05 -2.183244E-04 +4.968467E-03 +1.493252E-04 -1.441722E-05 +1.493252E-04 -1.209724E-04 
 -1.833724E-04 +2.413595E-05 +4.255710E-05 +2.413595E-05 +5.067534E-03 +1.183495E-04 +4.255710E-05 +1.183495E-04 -6.233705E-05 
 -2.305598E-04 -7.011150E-05 +1.613504E-05 -7.011150E-05 +5.133928E-03 +1.214306E-04 +1.613504E-05 +1.214306E-04 +3.727687E-05 
 -3.064218E-04 -1.387226E-04 +4.813951E-05 -1.387226E-04 +5.223093E-03 +7.757510E-05 +4.813951E-05 +7.757510E-05 -4.744029E-05 
 -7.033703E-05 -1.405971E-04 +7.633072E-05 -1.405971E-04 +5.256906E-03 +4.680684E-05 +7.633072E-05 +4.680684E-05 -1.300387E-04 
 +2.054425E-04 -1.199895E-04 +1.187170E-04 -1.199895E-04 +5.290365E-03 -5.930362E-05 +1.187170E-04 -5.930362E-05 -3.840617E-04 
 +2.882266E-04 -6.139199E-05 +1.145488E-04 -6.139199E-05 +5.311403E-03 -1.149513E-04 +1.145488E-04 -1.149513E-04 -6.024459E-04 
 +1.692077E-04 -2.501269E-05 +6.769349E-05 -2.501269E-05 +5.291004E-03 -3.655962E-05 +6.769349E-05 -3.655962E-05 -4.524277E-04 
 -3.653787E-04 -3.489919E-05 -6.075993E-05 -3.489919E-05 +5.237703E-03 -2.469196E-05 -6.075993E-05 -2.469196E-05 -1.457983E-04 
 -1.510712E-04 -7.464195E-05 -1.312321E-04 -7.464195E-05 +5.122501E-03 -7.263904E-05 -1.312321E-04 -7.263904E-05 +1.027381E-05 
 +1.306234E-05 -8.386074E-05 -1.880195E-04 -8.386074E-05 +5.044654E-03 -1.003392E-04 -1.880195E-04 -1.003392E-04 +1.839593E-05 
 -2.853851E-07 -1.474629E-05 -2.101067E-04 -1.474629E-05 +5.122219E-03 -5.700021E-05 -2.101067E-04 -5.700021E-05 +3.895191E-05 
 +6.174037E-05 -1.911172E-08 -1.274438E-04 -1.911172E-08 +5.208881E-03 -4.493534E-06 -1.274438E-04 -4.493534E-06 -2.869596E-05 
 +3.543987E-04 +8.713813E-05 -6.191772E-05 +8.713813E-05 +5.209375E-03 +2.173876E-05 -6.191772E-05 +2.173876E-05 -2.218754E-04 
 +1.431454E-04 -1.344481E-04 -2.946424E-04 -1.344481E-04 +5.192372E-03 +8.002476E-05 -2.946424E-04 +8.002476E-05 -1.987031E-04 
 -4.448132E-05 -2.420075E-04 -3.007068E-04 -2.420075E-04 +5.197091E-03 -9.772553E-06 -3.007068E-04 -9.772553E-06 -1.346025E-04 
 +1.654709E-04 -2.960922E-04 +9.763015E-08 -2.960922E-04 +5.061952E-03 -1.340984E-04 +9.763015E-08 -1.340984E-04 -1.493719E-04 
 +1.546067E-04 -2.340294E-04 +2.136436E-05 -2.340294E-04 +5.097593E-03 -1.237715E-04 +2.136436E-05 -1.237715E-04 -1.921860E-04 
 -2.665731E-05 -4.210607E-05 +2.399263E-04 -4.210607E-05 +5.295704E-03 -2.748605E-05 +2.399263E-04 -2.748605E-05 -1.660421E-04 
 -9.672980E-05 +2.153608E-05 +2.514508E-04 +2.153608E-05 +5.265696E-03 +9.697260E-05 +2.514508E-04 +9.697260E-05 -1.094970E-04 
 -4.092462E-05 -2.363960E-05 -2.358139E-05 -2.363960E-05 +5.174747E-03 +1.482955E-04 -2.358139E-05 +1.482955E-04 -1.200455E-04 
 -3.901148E-05 -1.474536E-04 +1.291562E-05 -1.474536E-04 +5.097183E-03 +1.310599E-04 +1.291562E-05 +1.310599E-04 -1.712563E-04 
 -3.832978E-04 +1.575093E-04 +1.732704E-04 +1.575093E-04 +5.161360E-03 +2.258096E-04 +1.732704E-04 +2.258096E-04 -1.206999E-06 
 -3.603195E-04 +5.730049E-05 +1.633922E-04 +5.730049E-05 +5.166861E-03 +2.792757E-04 +1.633922E-04 +2.792757E-04 +1.347517E-04 
 -3.190552E-04 +2.915909E-05 +1.463581E-04 +2.915909E-05 +5.181143E-03 +2.342295E-04 +1.463581E-04 +2.342295E-04 +6.672493E-05 
 -1.844844E-04 +2.059760E-05 +1.976313E-04 +2.059760E-05 +5.222868E-03 +1.606111E-04 +1.976313E-04 +1.606111E-04 -5.894557E-05 
 +3.294604E-04 -6.155686E-05 +3.689429E-05 -6.155686E-05 +5.213460E-03 +9.055952E-05 +3.689429E-05 +9.055952E-05 -3.153788E-04 
 +4.182463E-04 -9.817542E-05 +7.900853E-05 -9.817542E-05 +5.181794E-03 -2.004216E-05 +7.900853E-05 -2.004216E-05 -5.236032E-04 
 +2.375939E-04 -4.132607E-05 +1.002838E-04 -4.132607E-05 +5.198580E-03 -1.037935E-05 +1.002838E-04 -1.037935E-05 -4.045415E-04 
 -4.991710E-04 -1.678315E-05 +2.778359E-05 -1.678315E-05 +5.219327E-03 +7.059563E-05 +2.778359E-05 +7.059563E-05 -4.180424E-05 
 -3.733909E-04 -5.754629E-05 -3.664015E-05 -5.754629E-05 +5.192927E-03 +4.526618E-05 -3.664015E-05 +4.526618E-05 +1.140226E-04 
 -2.399544E-06 -5.590439E-05 -1.903392E-04 -5.590439E-05 +5.033497E-03 -3.181084E-05 -1.903392E-04 -3.181084E-05 -4.103026E-06 
 +1.990242E-04 +1.172179E-04 -2.893620E-05 +1.172179E-04 +4.791805E-03 +2.075005E-05 -2.893620E-05 +2.075005E-05 +6.120115E-05 
 +3.320503E-04 +1.492484E-04 +2.406994E-05 +1.492484E-04 +4.622530E-03 +9.707118E-05 +2.406994E-05 +9.707118E-05 +6.928525E-05 
 +4.791823E-04 +1.777398E-04 +6.627874E-05 +1.777398E-04 +4.673958E-03 +5.050786E-05 +6.627874E-05 +5.050786E-05 -1.050259E-04 
 +1.615039E-04 -8.143986E-05 -2.015142E-04 -8.143986E-05 +5.100467E-03 +1.092779E-05 -2.015142E-04 +1.092779E-05 -9.979473E-05 
 -4.057633E-05 -2.170739E-04 -3.306002E-04 -2.170739E-04 +5.385814E-03 -2.765786E-05 -3.306002E-04 -2.765786E-05 -2.202550E-04 
 +1.421918E-04 -1.980717E-04 +9.372549E-05 -1.980717E-04 +5.423103E-03 -8.040446E-05 +9.372549E-05 -8.040446E-05 -4.076725E-04 
 +8.451847E-05 -9.484692E-05 +8.417368E-05 -9.484692E-05 +5.465911E-03 -6.250107E-05 +8.417368E-05 -6.250107E-05 -4.206071E-04 
 -6.711577E-05 -6.425100E-05 +2.227732E-04 -6.425100E-05 +5.368404E-03 -1.071949E-05 +2.227732E-04 -1.071949E-05 -3.183583E-04 
 -7.561591E-05 -2.448383E-06 +2.041020E-04 -2.448383E-06 +5.267679E-03 +8.507394E-05 +2.041020E-04 +8.507394E-05 -1.344357E-04 
 -2.189251E-05 -5.866750E-05 -1.011626E-04 -5.866750E-05 +5.176398E-03 +1.677436E-04 -1.011626E-04 +1.677436E-04 -3.285183E-05 
 -5.649555E-05 -6.416736E-05 -2.923990E-05 -6.416736E-05 +5.125658E-03 +1.740347E-04 -2.923990E-05 +1.740347E-04 -1.049692E-04 
 -4.396738E-04 +5.516699E-05 +1.941767E-04 +5.516699E-05 +5.196035E-03 +2.551636E-04 +1.941767E-04 +2.551636E-04 +8.562929E-05 
 -3.707277E-04 +5.072768E-05 +2.050837E-04 +5.072768E-05 +5.150167E-03 +2.843457E-04 +2.050837E-04 +2.843457E-04 +1.581333E-04 
 -2.910912E-04 +1.309666E-04 +1.286101E-04 +1.309666E-04 +5.118421E-03 +2.162634E-04 +1.286101E-04 +2.162634E-04 +1.385403E-04 
 -2.236377E-04 +1.614317E-04 +1.796775E-04 +1.614317E-04 +5.174014E-03 +1.247103E-04 +1.796775E-04 +1.247103E-04 -8.160189E-06 
 +2.745711E-04 +9.569811E-05 -2.607073E-05 +9.569811E-05 +5.212573E-03 +7.476675E-06 -2.607073E-05 +7.476675E-06 -2.765987E-04 
 +3.420537E-04 -8.611423E-05 +4.539556E-05 -8.611423E-05 +5.143555E-03 -1.075154E-04 +4.539556E-05 -1.075154E-04 -3.601549E-04 
 +2.093580E-04 -1.096276E-04 +1.747912E-04 -1.096276E-04 +5.106432E-03 -7.874341E-05 +1.747912E-04 -7.874341E-05 -2.214287E-04 
 -4.555946E-04 -1.303419E-04 +8.045678E-05 -1.303419E-04 +5.175018E-03 +6.949355E-05 +8.045678E-05 +6.949355E-05 -1.113422E-06 
 -3.519368E-04 -2.834582E-05 +1.484040E-05 -2.834582E-05 +5.159851E-03 +1.590804E-04 +1.484040E-05 +1.590804E-04 +1.136461E-04 
 +8.425210E-05 +2.196005E-05 -7.340584E-05 +2.196005E-05 +5.008876E-03 +1.400188E-04 -7.340584E-05 +1.400188E-04 +1.379867E-05 
 +3.727700E-04 +1.683936E-04 +1.128019E-04 +1.683936E-04 +4.718217E-03 +1.018186E-04 +1.128019E-04 +1.018186E-04 +4.014375E-05 
 +4.020525E-04 +1.883696E-04 +6.853211E-05 +1.883696E-04 +4.588153E-03 +5.463880E-05 +6.853211E-05 +5.463880E-05 +9.030240E-05 
 +3.670996E-04 +1.902531E-04 +6.966799E-05 +1.902531E-04 +4.605945E-03 -2.549888E-05 +6.966799E-05 -2.549888E-05 +2.427216E-05 
 +2.235845E-04 +1.417238E-04 -4.793801E-05 +1.417238E-04 +4.697009E-03 -3.559413E-05 -4.793801E-05 -3.559413E-05 +2.042701E-05 
 +1.451350E-04 -1.493101E-04 -1.571503E-04 -1.493101E-04 +4.995521E-03 +3.207703E-05 -1.571503E-04 +3.207703E-05 -1.265452E-04 
 +1.083221E-04 -1.203214E-04 +1.432059E-04 -1.203214E-04 +5.332433E-03 -6.440161E-05 +1.432059E-04 -6.440161E-05 -3.341950E-04 
 -5.280706E-05 -1.168149E-04 +1.598579E-04 -1.168149E-04 +5.443073E-03 -1.498229E-04 +1.598579E-04 -1.498229E-04 -3.619152E-04 
 -9.772337E-05 -9.507183E-05 +2.074925E-04 -9.507183E-05 +5.349657E-03 -5.465324E-05 +2.074925E-04 -5.465324E-05 -2.971866E-04 
 -9.093098E-05 -2.114946E-05 +2.911844E-04 -2.114946E-05 +5.255024E-03 +3.301578E-05 +2.911844E-04 +3.301578E-05 -1.874233E-04 
 +1.380930E-05 -1.509881E-04 -9.520957E-05 -1.509881E-04 +5.100057E-03 +1.048736E-04 -9.520957E-05 +1.048736E-04 -1.647566E-05 
 -1.689707E-04 -1.219070E-04 -4.581532E-05 -1.219070E-04 +5.085191E-03 +1.769585E-04 -4.581532E-05 +1.769585E-04 +3.411276E-05 
 -3.839491E-04 -5.584963E-06 +1.432825E-04 -5.584963E-06 +5.201704E-03 +1.378647E-04 +1.432825E-04 +1.378647E-04 +1.837983E-04 
 -2.941187E-04 -4.608273E-05 +1.286456E-04 -4.608273E-05 +5.071361E-03 +1.487620E-04 +1.286456E-04 +1.487620E-04 +1.841741E-04 
 -2.622389E-04 +9.321426E-05 +4.154038E-05 +9.321426E-05 +5.071321E-03 +1.927608E-04 +4.154038E-05 +1.927608E-04 +1.827589E-04 
 -9.642901E-05 +1.236718E-04 +3.731075E-05 +1.236718E-04 +5.026964E-03 +1.473682E-04 +3.731075E-05 +1.473682E-04 +1.365097E-04 
 +1.925841E-04 +6.410597E-05 -3.655177E-05 +6.410597E-05 +4.884512E-03 +5.108634E-05 -3.655177E-05 +5.108634E-05 -8.541884E-06 
 +2.118640E-04 -7.275537E-05 +5.202906E-05 -7.275537E-05 +4.766024E-03 +3.038985E-05 +5.202906E-05 +3.038985E-05 -5.349193E-05 
 +4.086387E-05 +9.478613E-05 +2.393936E-04 +9.478613E-05 +4.831619E-03 +3.739388E-05 +2.393936E-04 +3.739388E-05 -2.855052E-05 
 -1.739476E-04 +9.601623E-05 +1.601968E-04 +9.601623E-05 +4.953076E-03 +8.180792E-05 +1.601968E-04 +8.180792E-05 -1.316383E-05 
 -1.374232E-04 +1.280331E-04 +6.000610E-05 +1.280331E-04 +4.859217E-03 +1.469110E-04 +6.000610E-05 +1.469110E-04 +7.525479E-05 
 +1.690812E-04 +1.250269E-04 +7.922659E-05 +1.250269E-04 +4.683861E-03 +1.462653E-04 +7.922659E-05 +1.462653E-04 +1.149620E-04 
 +3.109564E-04 +1.651331E-04 +1.244504E-04 +1.651331E-04 +4.640896E-03 +5.267042E-05 +1.244504E-04 +5.267042E-05 +8.376873E-05 
 +3.106329E-04 +2.352340E-04 +7.087106E-05 +2.352340E-04 +4.648857E-03 -1.211366E-05 +7.087106E-05 -1.211366E-05 +9.329896E-05 
 +2.932846E-04 +2.207015E-04 +6.105738E-05 +2.207015E-04 +4.650638E-03 -8.613428E-06 +6.105738E-05 -8.613428E-06 +9.202299E-05 
 +2.679660E-04 +2.386412E-04 +6.173762E-05 +2.386412E-04 +4.701629E-03 -5.063683E-05 +6.173762E-05 -5.063683E-05 +7.579308E-05 
 +1.726604E-04 -7.344929E-05 -2.400494E-05 -7.344929E-05 +4.835652E-03 -7.053868E-06 -2.400494E-05 -7.053868E-06 -2.393521E-05 
 +8.828869E-05 -1.043858E-04 +8.803478E-05 -1.043858E-04 +5.008415E-03 +1.043593E-05 +8.803478E-05 +1.043593E-05 -1.208658E-04 
 -6.072833E-05 -1.765212E-04 +1.772180E-04 -1.765212E-04 +5.178671E-03 -4.922934E-05 +1.772180E-04 -4.922934E-05 -1.688631E-04 
 -6.429789E-05 -1.250118E-04 +2.356030E-04 -1.250118E-04 +5.251720E-03 +3.241298E-06 +2.356030E-04 +3.241298E-06 -1.747005E-04 
 -1.237483E-04 -5.448839E-05 +3.049733E-04 -5.448839E-05 +5.149644E-03 -1.498891E-05 +3.049733E-04 -1.498891E-05 -9.594947E-05 
 -5.656404E-05 -1.720321E-04 +1.936647E-05 -1.720321E-04 +5.130607E-03 -1.689239E-05 +1.936647E-05 -1.689239E-05 +6.054862E-05 
 -4.048322E-04 -5.591205E-05 +5.223767E-05 -5.591205E-05 +5.264456E-03 +8.692355E-05 +5.223767E-05 +8.692355E-05 +1.454397E-04 
 -3.946211E-04 +1.834539E-05 +1.345183E-04 +1.834539E-05 +5.172183E-03 +2.422932E-05 +1.345183E-04 +2.422932E-05 +2.542339E-04 
 -3.152894E-04 +4.116386E-06 +7.639928E-05 +4.116386E-06 +5.087936E-03 +7.865862E-05 +7.639928E-05 +7.865862E-05 +2.441707E-04 
 -2.770030E-04 +6.005349E-05 +2.158855E-06 +6.005349E-05 +4.966377E-03 +1.943592E-04 +2.158855E-06 +1.943592E-04 +2.870061E-04 
 +9.711823E-05 +3.021171E-05 -1.048760E-04 +3.021171E-05 +4.795493E-03 +1.836882E-04 -1.048760E-04 +1.836882E-04 +3.150944E-04 
 +1.989958E-04 +4.106997E-05 -1.144850E-05 +4.106997E-05 +4.692901E-03 +1.154096E-04 -1.144850E-05 +1.154096E-04 +2.198463E-04 
 +1.529014E-04 -2.213457E-05 +4.938124E-05 -2.213457E-05 +4.726000E-03 +9.759259E-05 +4.938124E-05 +9.759259E-05 +1.460819E-04 
 +3.668637E-05 +2.674750E-04 +2.642918E-04 +2.674750E-04 +4.827361E-03 +6.161827E-05 +2.642918E-04 +6.161827E-05 +4.808569E-05 
 +6.071709E-05 +1.866298E-04 +2.054067E-04 +1.866298E-04 +4.864368E-03 +3.359760E-05 +2.054067E-04 +3.359760E-05 -2.969470E-05 
 -6.325845E-07 +3.624557E-05 +9.591713E-05 +3.624557E-05 +4.798097E-03 +4.839713E-05 +9.591713E-05 +4.839713E-05 +7.943044E-05 
 +6.814746E-05 -3.927303E-05 +9.776590E-05 -3.927303E-05 +4.662417E-03 +3.178633E-05 +9.776590E-05 +3.178633E-05 +2.210079E-04 
 +1.852969E-04 +6.820558E-05 +1.383713E-04 +6.820558E-05 +4.585208E-03 -1.943738E-05 +1.383713E-04 -1.943738E-05 +2.065579E-04 
 +2.948292E-04 +1.791315E-04 +1.133792E-04 +1.791315E-04 +4.587418E-03 -9.278467E-06 +1.133792E-04 -9.278467E-06 +1.554258E-04 
 +2.845270E-04 +2.648602E-04 +7.283184E-05 +2.648602E-04 +4.651215E-03 +4.494045E-06 +7.283184E-05 +4.494045E-06 +1.411072E-04 
 +1.862640E-04 +2.472261E-04 +2.837602E-05 +2.472261E-04 +4.693118E-03 -1.906239E-05 +2.837602E-05 -1.906239E-05 +1.449748E-04 
 +1.058624E-04 -1.944948E-05 -8.363334E-06 -1.944948E-05 +4.753470E-03 +1.913597E-05 -8.363334E-06 +1.913597E-05 +9.815204E-05 
 +1.126244E-04 -2.112001E-05 +2.165837E-05 -2.112001E-05 +4.955628E-03 +3.140426E-05 +2.165837E-05 +3.140426E-05 +3.334128E-05 
 +6.630213E-05 -7.392630E-05 +1.390377E-04 -7.392630E-05 +5.085783E-03 -5.110534E-05 +1.390377E-04 -5.110534E-05 -1.047549E-05 
 -4.745167E-05 -1.048645E-04 +3.147306E-04 -1.048645E-04 +5.098730E-03 -3.763657E-05 +3.147306E-04 -3.763657E-05 +1.178945E-05 
 -1.887425E-04 -1.092098E-04 +2.742168E-04 -1.092098E-04 +5.131619E-03 -4.007697E-05 +2.742168E-04 -4.007697E-05 +1.042385E-04 
 -2.184498E-04 -1.489210E-04 +1.552686E-04 -1.489210E-04 +5.254898E-03 -4.494761E-05 +1.552686E-04 -4.494761E-05 +1.783422E-04 
 -4.082009E-04 -3.140273E-05 +1.796295E-04 -3.140273E-05 +5.272185E-03 +1.218561E-05 +1.796295E-04 +1.218561E-05 +2.158486E-04 
 -3.578866E-04 -1.797410E-05 +1.257047E-04 -1.797410E-05 +5.160806E-03 -2.627969E-05 +1.257047E-04 -2.627969E-05 +2.527435E-04 
 -3.651809E-04 +9.793814E-07 +1.675995E-05 +9.793814E-07 +5.121397E-03 -7.179791E-06 +1.675995E-05 -7.179791E-06 +3.118155E-04 
 -3.040481E-04 +2.993367E-05 +5.523324E-07 +2.993367E-05 +4.946785E-03 +7.747278E-05 +5.523324E-07 +7.747278E-05 +3.789986E-04 
 +2.106057E-04 -8.648127E-06 -9.211529E-05 -8.648127E-06 +4.689608E-03 +1.452090E-04 -9.211529E-05 +1.452090E-04 +3.294828E-04 
 +2.237263E-04 +3.442750E-05 +2.703378E-05 +3.442750E-05 +4.615294E-03 +1.557374E-04 +2.703378E-05 +1.557374E-04 +2.381469E-04 
 +1.489606E-04 +3.212401E-05 +6.959900E-05 +3.212401E-05 +4.708448E-03 +1.431737E-04 +6.959900E-05 +1.431737E-04 +1.837328E-04 
 +1.328681E-04 +3.499857E-04 +2.837974E-04 +3.499857E-04 +4.822054E-03 +6.563162E-05 +2.837974E-04 +6.563162E-05 +2.871505E-05 
 +1.724879E-04 +2.094688E-04 +2.199019E-04 +2.094688E-04 +4.892800E-03 -2.596551E-05 +2.199019E-04 -2.596551E-05 -4.353575E-05 
 +1.343208E-05 -2.574706E-06 +1.584138E-04 -2.574706E-06 +4.881951E-03 -1.421249E-05 +1.584138E-04 -1.421249E-05 +6.624687E-05 
 -7.186503E-05 -1.158920E-04 +1.380602E-04 -1.158920E-04 +4.790043E-03 +4.201316E-05 +1.380602E-04 +4.201316E-05 +2.247564E-04 
 +9.506642E-05 +4.850733E-05 +1.983080E-04 +4.850733E-05 +4.642225E-03 +1.750255E-05 +1.983080E-04 +1.750255E-05 +2.567528E-04 
 +1.962078E-04 +9.266272E-05 +1.522826E-04 +9.266272E-05 +4.532431E-03 +1.256349E-05 +1.522826E-04 +1.256349E-05 +1.883500E-04 
 +2.849015E-04 +2.052151E-04 +4.490736E-05 +2.052151E-04 +4.628949E-03 +9.477735E-05 +4.490736E-05 +9.477735E-05 +1.856775E-04 
 +1.397653E-04 +8.266185E-05 -6.375228E-05 +8.266185E-05 +4.722477E-03 +1.374765E-04 -6.375228E-05 +1.374765E-04 +2.150425E-04 
 +1.336955E-04 +2.518394E-05 -6.398739E-05 +2.518394E-05 +4.750127E-03 +1.743287E-04 -6.398739E-05 +1.743287E-04 +2.162725E-04 
 +2.195305E-04 +5.877075E-05 -5.432160E-05 +5.877075E-05 +4.786627E-03 +2.191126E-04 -5.432160E-05 +2.191126E-04 +1.671950E-04 
 +2.352505E-04 +1.394012E-05 +8.999288E-06 +1.394012E-05 +4.851746E-03 +1.229561E-04 +8.999288E-06 +1.229561E-04 +1.733837E-04 
 -2.326673E-04 -8.464401E-05 +3.603637E-04 -8.464401E-05 +5.038662E-03 -4.559540E-05 +3.603637E-04 -4.559540E-05 +2.342691E-04 
 -2.783419E-04 -1.632016E-04 +2.915058E-04 -1.632016E-04 +5.149293E-03 -9.116675E-05 +2.915058E-04 -9.116675E-05 +2.487980E-04 
 -2.453069E-04 -1.034399E-04 +2.465264E-04 -1.034399E-04 +5.168735E-03 -4.828662E-05 +2.465264E-04 -4.828662E-05 +2.759032E-04 
 -3.513316E-04 -4.465193E-05 +2.422599E-04 -4.465193E-05 +5.181561E-03 -1.894519E-05 +2.422599E-04 -1.894519E-05 +2.738117E-04 
 -3.235907E-04 -5.362627E-05 +1.455418E-04 -5.362627E-05 +5.125823E-03 -2.451260E-05 +1.455418E-04 -2.451260E-05 +2.414480E-04 
 -2.645929E-04 -3.445038E-05 -1.954194E-05 -3.445038E-05 +5.047517E-03 -5.472587E-05 -1.954194E-05 -5.472587E-05 +3.020497E-04 
 -1.688472E-04 +1.148792E-05 +3.208835E-05 +1.148792E-05 +4.862954E-03 -4.930634E-05 +3.208835E-05 -4.930634E-05 +3.570639E-04 
 +1.119508E-04 +3.673315E-05 +1.873756E-05 +3.673315E-05 +4.720273E-03 +8.124700E-05 +1.873756E-05 +8.124700E-05 +2.769564E-04 
 +1.089300E-04 +5.134417E-05 +9.377612E-05 +5.134417E-05 +4.662956E-03 +1.921866E-04 +9.377612E-05 +1.921866E-04 +2.236124E-04 
 +9.817865E-05 +1.714974E-05 +1.275221E-04 +1.714974E-05 +4.738560E-03 +2.220601E-04 +1.275221E-04 +2.220601E-04 +1.722985E-04 
 +1.300761E-04 +1.849181E-04 +2.864459E-04 +1.849181E-04 +4.851525E-03 +1.224153E-04 +2.864459E-04 +1.224153E-04 +3.356533E-07 
 +3.179521E-04 +3.752323E-05 +1.863732E-04 +3.752323E-05 +4.948836E-03 -4.713437E-05 +1.863732E-04 -4.713437E-05 -4.070662E-05 
 +2.062874E-05 -2.131443E-04 +2.022961E-04 -2.131443E-04 +5.017382E-03 -1.475351E-04 +2.022961E-04 -1.475351E-04 +5.960499E-05 
 -1.110579E-04 -2.489493E-04 +2.199055E-04 -2.489493E-04 +5.075480E-03 -1.360033E-04 +2.199055E-04 -1.360033E-04 +1.286040E-04 
 -5.780296E-05 -1.341665E-04 +2.279594E-04 -1.341665E-04 +5.148810E-03 -1.103688E-04 +2.279594E-04 -1.103688E-04 +1.392497E-04 
 +4.654825E-05 -9.106129E-05 +1.852283E-04 -9.106129E-05 +5.021176E-03 -9.213091E-05 +1.852283E-04 -9.213091E-05 +1.176140E-04 
 +2.555195E-04 +1.404599E-04 +5.761133E-05 +1.404599E-04 +4.769727E-03 +3.619101E-05 +5.761133E-05 +3.619101E-05 +1.769967E-04 
 +2.198961E-04 +6.426847E-05 -1.576386E-04 +6.426847E-05 +4.704501E-03 +1.382303E-04 -1.576386E-04 +1.382303E-04 +2.433775E-04 
 +2.481618E-04 +7.855402E-07 -1.182842E-04 +7.855402E-07 +4.731695E-03 +1.473114E-04 -1.182842E-04 +1.473114E-04 +2.362225E-04 
 +3.003397E-04 -1.374608E-05 -8.197931E-05 -1.374608E-05 +4.706213E-03 +1.606801E-04 -8.197931E-05 +1.606801E-04 +2.195709E-04 
 +2.938539E-04 -1.758266E-06 -1.000306E-04 -1.758266E-06 +4.875364E-03 +1.215191E-04 -1.000306E-04 +1.215191E-04 +2.612544E-04 
 -2.409031E-04 -3.722045E-05 +2.484718E-04 -3.722045E-05 +5.108452E-03 -5.582716E-05 +2.484718E-04 -5.582716E-05 +3.143253E-04 
 -3.279976E-04 -6.029818E-05 +3.458128E-04 -6.029818E-05 +5.144081E-03 -1.279027E-04 +3.458128E-04 -1.279027E-04 +3.097282E-04 
 -3.141868E-04 -4.316070E-05 +2.871520E-04 -4.316070E-05 +5.133076E-03 -4.661313E-05 +2.871520E-04 -4.661313E-05 +3.159370E-04 
 -3.432055E-04 -7.754788E-05 +2.595256E-04 -7.754788E-05 +5.143964E-03 -3.220008E-05 +2.595256E-04 -3.220008E-05 +2.948482E-04 
 -2.198831E-04 -6.454590E-05 +1.021737E-04 -6.454590E-05 +5.026753E-03 -6.213325E-05 +1.021737E-04 -6.213325E-05 +2.831216E-04 
 -5.094401E-05 -5.129952E-07 -3.151368E-05 -5.129952E-07 +4.891093E-03 -9.361333E-05 -3.151368E-05 -9.361333E-05 +2.801302E-04 
 -2.375211E-05 +4.850609E-05 +3.969804E-05 +4.850609E-05 +4.928021E-03 -9.635110E-05 +3.969804E-05 -9.635110E-05 +2.172233E-04 
 -2.678356E-05 +8.301226E-05 +1.427980E-04 +8.301226E-05 +5.057318E-03 -4.335010E-05 +1.427980E-04 -4.335010E-05 +1.515644E-04 
 -1.235333E-04 +1.120550E-04 +1.678723E-04 +1.120550E-04 +5.139004E-03 +1.814062E-05 +1.678723E-04 +1.814062E-05 +1.647581E-04 
 -1.777492E-04 +8.486570E-05 +2.265716E-04 +8.486570E-05 +5.210082E-03 +2.947763E-05 +2.265716E-04 +2.947763E-05 +1.230784E-04 
 +8.710526E-05 +7.522786E-05 +2.395321E-04 +7.522786E-05 +5.089370E-03 +6.156961E-07 +2.395321E-04 +6.156961E-07 +9.257785E-06 
 +5.025052E-04 +4.874233E-05 +6.680975E-05 +4.874233E-05 +4.882164E-03 -9.126096E-05 +6.680975E-05 -9.126096E-05 -6.248540E-05 
 +7.975479E-05 -1.714557E-04 +1.576096E-04 -1.714557E-04 +4.935842E-03 -1.657372E-04 +1.576096E-04 -1.657372E-04 +1.134486E-05 
 -1.363967E-04 -1.998600E-04 +1.999274E-04 -1.998600E-04 +5.088210E-03 -1.442879E-04 +1.999274E-04 -1.442879E-04 +5.785992E-05 
 -1.451000E-04 -1.301287E-04 +2.149956E-04 -1.301287E-04 +5.101312E-03 -1.059413E-04 +2.149956E-04 -1.059413E-04 +3.155526E-05 
 +5.061802E-05 -5.087600E-05 +1.615006E-04 -5.087600E-05 +5.060412E-03 -1.260316E-04 +1.615006E-04 -1.260316E-04 +1.235343E-05 
 +1.534308E-04 +1.215995E-04 +1.182020E-04 +1.215995E-04 +4.950548E-03 -5.963454E-05 +1.182020E-04 -5.963454E-05 +5.728957E-05 
 +3.069898E-04 +1.139976E-04 -1.599333E-04 +1.139976E-04 +4.805754E-03 +8.393368E-05 -1.599333E-04 +8.393368E-05 +1.658391E-04 
 +3.208024E-04 +3.575852E-06 -1.119636E-04 +3.575852E-06 +4.766642E-03 +1.545728E-04 -1.119636E-04 +1.545728E-04 +1.861636E-04 
 +2.918944E-04 -1.238961E-05 -7.702954E-05 -1.238961E-05 +4.784946E-03 +1.667066E-04 -7.702954E-05 +1.667066E-04 +2.051643E-04 
 +2.353366E-04 +2.154976E-05 -6.892431E-05 +2.154976E-05 +4.781337E-03 +2.084387E-04 -6.892431E-05 +2.084387E-04 +2.806748E-04 
 +8.679722E-05 -1.672332E-06 +5.712796E-05 -1.672332E-06 +4.823876E-03 +1.283749E-04 +5.712796E-05 +1.283749E-04 +3.557483E-04 
 -4.085568E-04 -4.121800E-05 +3.338762E-04 -4.121800E-05 +5.042464E-03 -4.016867E-05 +3.338762E-04 -4.016867E-05 +4.095987E-04 
 -4.721983E-04 -7.560711E-05 +3.041216E-04 -7.560711E-05 +5.150186E-03 -8.126843E-05 +3.041216E-04 -8.126843E-05 +4.094383E-04 
 -3.305376E-04 -7.948551E-05 +2.473790E-04 -7.948551E-05 +5.111705E-03 -4.897827E-05 +2.473790E-04 -4.897827E-05 +3.356357E-04 
 -7.262932E-05 -7.968822E-05 -1.030973E-05 -7.968822E-05 +4.879072E-03 +2.552639E-05 -1.030973E-05 +2.552639E-05 +2.999365E-04 
 -6.387478E-06 -6.651596E-05 -5.993666E-05 -6.651596E-05 +4.851968E-03 +1.147720E-04 -5.993666E-05 +1.147720E-04 +2.558631E-04 
 +6.244667E-06 -4.592020E-05 -2.890636E-05 -4.592020E-05 +4.933038E-03 +1.246351E-04 -2.890636E-05 +1.246351E-04 +1.077733E-04 
 -6.078351E-05 +6.493695E-06 +1.950355E-04 +6.493695E-06 +5.085700E-03 +4.145434E-05 +1.950355E-04 +4.145434E-05 +2.641655E-05 
 -3.602022E-04 +1.790761E-05 +2.715586E-04 +1.790761E-05 +5.205865E-03 +1.495417E-05 +2.715586E-04 +1.495417E-05 +8.516001E-05 
 -2.107752E-04 +1.331673E-04 +2.198782E-04 +1.331673E-04 +5.167607E-03 +2.816487E-05 +2.198782E-04 +2.816487E-05 +4.576505E-05 
 +2.240482E-04 +2.297207E-04 +1.426418E-04 +2.297207E-04 +4.970640E-03 +7.369308E-06 +1.426418E-04 +7.369308E-06 -2.685505E-05 
 +4.693636E-04 +2.748099E-04 +3.892586E-05 +2.748099E-04 +4.819787E-03 -2.553230E-05 +3.892586E-05 -2.553230E-05 -9.741410E-05 
 +8.340657E-05 +6.973360E-05 +1.663213E-04 +6.973360E-05 +4.962988E-03 -1.183509E-04 +1.663213E-04 -1.183509E-04 -5.508785E-05 
 -1.731701E-04 -9.226872E-05 +1.941231E-04 -9.226872E-05 +5.098177E-03 -1.707645E-04 +1.941231E-04 -1.707645E-04 +4.622503E-05 
 -1.379249E-04 -6.495496E-05 +1.904032E-04 -6.495496E-05 +5.053300E-03 -1.291542E-04 +1.904032E-04 -1.291542E-04 +3.167177E-05 
 +2.135878E-05 -1.133124E-05 +1.283845E-04 -1.133124E-05 +5.019369E-03 -9.480803E-05 +1.283845E-04 -9.480803E-05 +1.092162E-05 
 +7.255594E-05 +8.478709E-05 +1.488708E-04 +8.478709E-05 +4.948325E-03 -5.283389E-05 +1.488708E-04 -5.283389E-05 +3.827028E-05 
 +3.322881E-04 +1.389996E-04 -6.729701E-05 +1.389996E-04 +4.803548E-03 +6.980006E-05 -6.729701E-05 +6.980006E-05 +8.194447E-05 
 +3.292248E-04 +6.902523E-05 -3.295694E-05 +6.902523E-05 +4.769455E-03 +1.956242E-04 -3.295694E-05 +1.956242E-04 +1.194416E-04 
 +2.330912E-04 +1.988834E-05 -3.219336E-05 +1.988834E-05 +4.831624E-03 +2.338460E-04 -3.219336E-05 +2.338460E-04 +2.037196E-04 
 +1.863533E-04 +1.103617E-05 -1.294270E-05 +1.103617E-05 +4.787549E-03 +2.254708E-04 -1.294270E-05 +2.254708E-04 +3.006601E-04 
 +1.849089E-04 -1.432481E-05 -5.107865E-05 -1.432481E-05 +4.826625E-03 +1.722436E-04 -5.107865E-05 +1.722436E-04 +3.909592E-04 
 -3.620970E-04 -5.885839E-05 +2.019476E-04 -5.885839E-05 +5.010940E-03 +6.149579E-05 +2.019476E-04 +6.149579E-05 +5.008618E-04 
 -4.476438E-04 -1.002144E-04 +2.200960E-04 -1.002144E-04 +5.096791E-03 -3.362219E-05 +2.200960E-04 -3.362219E-05 +5.196954E-04 
 -3.114023E-04 -4.567346E-05 +2.217074E-04 -4.567346E-05 +5.015484E-03 -3.940605E-05 +2.217074E-04 -3.940605E-05 +3.862165E-04 
 -8.704391E-05 -9.147158E-05 -3.684509E-05 -9.147158E-05 +4.944745E-03 +7.689351E-05 -3.684509E-05 +7.689351E-05 +2.214141E-04 
 -1.004172E-04 -8.503355E-05 -9.343980E-05 -8.503355E-05 +5.008661E-03 +1.143281E-04 -9.343980E-05 +1.143281E-04 +1.204518E-04 
 -5.695820E-05 -8.771644E-05 -7.222037E-05 -8.771644E-05 +4.997133E-03 +1.794513E-04 -7.222037E-05 +1.794513E-04 +5.399439E-05 
 -6.734811E-05 -2.425704E-05 +9.346838E-05 -2.425704E-05 +5.002179E-03 +1.839080E-04 +9.346838E-05 +1.839080E-04 +8.051987E-06 
 -3.102181E-04 +6.138448E-05 +2.835717E-04 +6.138448E-05 +5.042580E-03 +1.318320E-04 +2.835717E-04 +1.318320E-04 +2.949051E-05 
 +1.074556E-04 +2.180410E-04 +1.566197E-04 +2.180410E-04 +4.939324E-03 +1.053922E-04 +1.566197E-04 +1.053922E-04 +7.646054E-06 
 +3.284519E-04 +2.778356E-04 +1.383083E-04 +2.778356E-04 +4.895337E-03 +5.427155E-05 +1.383083E-04 +5.427155E-05 -3.657403E-05 
 +2.531284E-04 +2.482208E-04 +1.495682E-04 +2.482208E-04 +4.875265E-03 +4.093396E-05 +1.495682E-04 +4.093396E-05 -6.369428E-05 
 +9.188789E-05 +2.567550E-04 +1.928522E-04 +2.567550E-04 +4.851333E-03 +1.698490E-05 +1.928522E-04 +1.698490E-05 -5.207017E-05 
 -1.710132E-04 +5.782369E-05 +2.103754E-04 +5.782369E-05 +4.995679E-03 -9.186151E-05 +2.103754E-04 -9.186151E-05 +3.559369E-05 
 -2.684668E-04 -2.036004E-05 +2.042879E-04 -2.036004E-05 +5.057568E-03 -1.478590E-04 +2.042879E-04 -1.478590E-04 +4.313339E-05 
 -4.226949E-05 -3.999071E-06 +1.123660E-04 -3.999071E-06 +5.000810E-03 -1.284962E-04 +1.123660E-04 -1.284962E-04 +2.126403E-05 
 +9.581356E-05 +8.391013E-05 +1.555683E-04 +8.391013E-05 +4.894547E-03 -1.085533E-04 +1.555683E-04 -1.085533E-04 +6.671258E-06 
 +2.359332E-04 +8.487218E-05 +6.963285E-05 +8.487218E-05 +4.766320E-03 +4.814540E-05 +6.963285E-05 +4.814540E-05 -3.719196E-05 
 +2.751071E-04 +9.301226E-05 +3.967159E-05 +9.301226E-05 +4.766977E-03 +2.123395E-04 +3.967159E-05 +2.123395E-04 +5.525333E-06 
 +2.021151E-04 +1.042491E-06 +2.928897E-05 +1.042491E-06 +4.821669E-03 +2.247544E-04 +2.928897E-05 +2.247544E-04 +1.499637E-04 
 +1.393182E-04 -1.530832E-05 +3.662297E-05 -1.530832E-05 +4.863169E-03 +2.007891E-04 +3.662297E-05 +2.007891E-04 +2.516593E-04 
 +3.703985E-05 +1.144197E-05 -9.526039E-06 +1.144197E-05 +4.905858E-03 +2.432060E-04 -9.526039E-06 +2.432060E-04 +2.944519E-04 
 -1.663486E-04 -6.413547E-05 +7.290230E-05 -6.413547E-05 +4.850648E-03 +2.758328E-04 +7.290230E-05 +2.758328E-04 +4.216368E-04 
 -2.780292E-04 -9.740636E-05 +6.782872E-05 -9.740636E-05 +4.835827E-03 +2.143626E-04 +6.782872E-05 +2.143626E-04 +4.939491E-04 
 -2.182098E-04 -5.503016E-05 +1.086518E-04 -5.503016E-05 +4.882860E-03 +1.074215E-04 +1.086518E-04 +1.074215E-04 +3.753831E-04 
 -1.408080E-04 -9.678042E-05 -4.122156E-05 -9.678042E-05 +5.029070E-03 +1.250826E-04 -4.122156E-05 +1.250826E-04 +1.797037E-04 
 -1.284351E-04 -9.170557E-05 -1.092044E-04 -9.170557E-05 +5.095628E-03 +1.527358E-04 -1.092044E-04 +1.527358E-04 +8.778797E-05 
 -1.069121E-04 -8.647669E-05 -7.664100E-05 -8.647669E-05 +5.052040E-03 +1.394869E-04 -7.664100E-05 +1.394869E-04 +2.917384E-05 
 -7.671554E-05 +1.163690E-05 -1.106010E-05 +1.163690E-05 +4.874649E-03 +1.652537E-04 -1.106010E-05 +1.652537E-04 +2.334414E-05 
 +1.471849E-05 +1.709127E-04 +1.393260E-04 +1.709127E-04 +4.763503E-03 +2.292661E-04 +1.393260E-04 +2.292661E-04 +1.816607E-05 
 +2.397985E-04 +1.733728E-04 +1.867870E-04 +1.733728E-04 +4.806974E-03 +1.768661E-04 +1.867870E-04 +1.768661E-04 -2.453735E-05 
 +1.724831E-04 +1.925527E-04 +1.610531E-04 +1.925527E-04 +4.867535E-03 +5.459414E-05 +1.610531E-04 +5.459414E-05 -5.899453E-05 
 +8.393028E-05 +2.665544E-05 +1.882122E-04 +2.665544E-05 +4.917074E-03 -3.016188E-05 +1.882122E-04 -3.016188E-05 -7.956648E-05 
 +1.065801E-04 +2.879320E-05 +1.877368E-04 +2.879320E-05 +4.832783E-03 -4.848225E-05 +1.877368E-04 -4.848225E-05 -8.105493E-05 
 +9.766438E-06 -1.736322E-05 +1.949851E-04 -1.736322E-05 +4.827984E-03 -5.273475E-05 +1.949851E-04 -5.273475E-05 -3.175775E-05 
 -2.584730E-04 +4.487087E-05 +2.060683E-04 +4.487087E-05 +4.965717E-03 -5.916122E-05 +2.060683E-04 -5.916122E-05 -7.307946E-06 
 -3.539748E-05 +1.743072E-04 +6.649386E-05 +1.743072E-04 +5.021109E-03 -3.588463E-05 +6.649386E-05 -3.588463E-05 -6.406525E-05 
 +3.816399E-05 +2.153477E-04 +1.037828E-04 +2.153477E-04 +5.053517E-03 -2.991725E-05 +1.037828E-04 -2.991725E-05 -1.520368E-04 
 +6.325950E-05 +1.773715E-04 +8.720897E-05 +1.773715E-04 +5.076713E-03 -1.924410E-05 +8.720897E-05 -1.924410E-05 -1.716491E-04 
 +1.163854E-04 +1.598299E-04 +8.103316E-05 +1.598299E-04 +4.990100E-03 +6.032269E-05 +8.103316E-05 +6.032269E-05 -1.104774E-04 
 +9.080504E-05 -3.527993E-05 +9.461246E-05 -3.527993E-05 +4.877881E-03 +1.681846E-04 +9.461246E-05 +1.681846E-04 +2.544742E-06 
 +4.574636E-05 -3.690411E-05 +1.225637E-04 -3.690411E-05 +4.932706E-03 +2.303213E-04 +1.225637E-04 +2.303213E-04 +1.042328E-04 
 +8.781271E-05 +2.151622E-05 +2.954104E-05 +2.151622E-05 +5.058825E-03 +2.844986E-04 +2.954104E-05 +2.844986E-04 +1.291195E-04 
 -1.400433E-05 -8.653426E-05 -5.214368E-05 -8.653426E-05 +4.968670E-03 +2.673510E-04 -5.214368E-05 +2.673510E-04 +2.248413E-04 
 -1.496790E-04 -5.530068E-05 -5.030585E-05 -5.530068E-05 +4.843675E-03 +1.724511E-04 -5.030585E-05 +1.724511E-04 +3.761432E-04 
 -1.590187E-04 -7.864767E-05 -3.052637E-05 -7.864767E-05 +4.911406E-03 +1.202046E-04 -3.052637E-05 +1.202046E-04 +3.285040E-04 
 -1.197167E-04 -4.952896E-05 -1.140625E-04 -4.952896E-05 +5.016840E-03 +8.918656E-05 -1.140625E-04 +8.918656E-05 +2.601275E-04 
 -2.553485E-05 -6.694046E-05 -1.126785E-04 -6.694046E-05 +5.107841E-03 +1.104219E-04 -1.126785E-04 +1.104219E-04 +2.100478E-04 
 -1.160204E-04 -1.026804E-04 -6.968953E-05 -1.026804E-04 +5.003227E-03 +1.174560E-04 -6.968953E-05 +1.174560E-04 +7.910353E-05 
 -5.610468E-05 -4.319212E-05 -3.807327E-06 -4.319212E-05 +4.832978E-03 +1.203943E-04 -3.807327E-06 +1.203943E-04 +5.042674E-05 
 +1.323391E-04 +1.464611E-04 +9.411642E-05 +1.464611E-04 +4.801383E-03 +1.819679E-04 +9.411642E-05 +1.819679E-04 +1.587855E-05 
 +1.259503E-04 +2.670751E-05 +1.958510E-04 +2.670751E-05 +4.890196E-03 +1.227499E-04 +1.958510E-04 +1.227499E-04 -5.796086E-05 
 +5.389097E-05 +3.934020E-05 +1.599065E-04 +3.934020E-05 +4.900805E-03 +1.076899E-05 +1.599065E-04 +1.076899E-05 -7.414822E-05 
 +3.574271E-05 +4.000324E-06 +1.663280E-04 +4.000324E-06 +4.854223E-03 -4.084119E-06 +1.663280E-04 -4.084119E-06 -7.787211E-05 
 +9.238817E-05 +4.037834E-06 +1.650543E-04 +4.037834E-06 +4.800159E-03 -3.480295E-05 +1.650543E-04 -3.480295E-05 -8.581188E-05 
 +1.448906E-04 -2.285792E-05 +1.513976E-04 -2.285792E-05 +4.728364E-03 -4.196635E-05 +1.513976E-04 -4.196635E-05 -6.414139E-05 
 +3.221972E-05 -4.828680E-05 +1.138175E-04 -4.828680E-05 +4.743101E-03 -4.931216E-05 +1.138175E-04 -4.931216E-05 -6.263208E-05 
 -1.777999E-05 +1.234998E-04 +3.484910E-05 +1.234998E-04 +4.931058E-03 -3.395986E-05 +3.484910E-05 -3.395986E-05 -1.537142E-04 
 -5.652898E-05 +1.321358E-04 +5.737723E-05 +1.321358E-04 +5.101609E-03 +1.708297E-05 +5.737723E-05 +1.708297E-05 -2.129944E-04 
 -6.086802E-05 +1.130169E-04 +3.540064E-05 +1.130169E-04 +5.128658E-03 +3.563787E-05 +3.540064E-05 +3.563787E-05 -1.787190E-04 
 -4.223774E-05 +1.053199E-04 +6.276614E-05 +1.053199E-04 +5.114519E-03 +2.484149E-05 +6.276614E-05 +2.484149E-05 -1.391550E-04 
 -8.028385E-05 +7.468175E-05 +9.851698E-05 +7.468175E-05 +5.199567E-03 +1.746841E-05 +9.851698E-05 +1.746841E-05 -1.027858E-04 
 -2.282062E-05 +7.154231E-05 +1.054164E-04 +7.154231E-05 +5.207309E-03 -3.836684E-06 +1.054164E-04 -3.836684E-06 -1.607788E-05 
 +1.848323E-04 +1.041529E-04 -5.971141E-06 +1.041529E-04 +5.072961E-03 +1.642758E-05 -5.971141E-06 +1.642758E-05 +4.958663E-05 
 +5.618938E-05 -1.952161E-04 -1.110063E-04 -1.952161E-04 +4.997842E-03 +1.208938E-04 -1.110063E-04 +1.208938E-04 +1.328467E-04 
 -9.681608E-05 -1.097093E-04 -1.116910E-04 -1.097093E-04 +4.935416E-03 +1.754443E-04 -1.116910E-04 +1.754443E-04 +3.027384E-04 
 -1.636975E-04 -8.985487E-05 -1.458050E-04 -8.985487E-05 +4.915102E-03 +1.278948E-04 -1.458050E-04 +1.278948E-04 +3.096574E-04 
 +6.390082E-06 -2.428651E-06 -1.854289E-04 -2.428651E-06 +4.664009E-03 +3.595651E-05 -1.854289E-04 +3.595651E-05 +3.028460E-04 
 +6.310146E-05 -3.433225E-05 -1.124046E-04 -3.433225E-05 +4.667713E-03 +7.706292E-05 -1.124046E-04 +7.706292E-05 +2.742583E-04 
 -6.278825E-05 -1.141703E-04 -2.728200E-07 -1.141703E-04 +4.789814E-03 +7.038274E-05 -2.728200E-07 +7.038274E-05 +1.800877E-04 
 -1.513455E-04 -1.106710E-04 +1.300951E-04 -1.106710E-04 +4.822983E-03 +6.545327E-05 +1.300951E-04 +6.545327E-05 +8.055279E-05 
 +6.628964E-05 +1.159192E-04 +1.817637E-04 +1.159192E-04 +4.810942E-03 +1.159792E-04 +1.817637E-04 +1.159792E-04 -9.636643E-06 
 +6.024942E-05 +7.532128E-05 +1.724387E-04 +7.532128E-05 +4.886966E-03 +1.318685E-04 +1.724387E-04 +1.318685E-04 -4.599305E-05 
 +4.175829E-05 +4.828143E-05 +1.516803E-04 +4.828143E-05 +4.904658E-03 +7.626408E-05 +1.516803E-04 +7.626408E-05 -4.583906E-05 
 +7.613302E-05 -7.009082E-06 +1.320266E-04 -7.009082E-06 +4.826894E-03 +3.566469E-05 +1.320266E-04 +3.566469E-05 -3.229179E-05 
 +1.041601E-04 -2.656168E-05 +9.983331E-05 -2.656168E-05 +4.766089E-03 +6.032178E-06 +9.983331E-05 +6.032178E-06 -3.556373E-05 
 +1.403843E-04 -2.784803E-05 +6.642641E-05 -2.784803E-05 +4.706667E-03 +2.083153E-05 +6.642641E-05 +2.083153E-05 -7.169365E-05 
 +1.222321E-04 -2.215318E-05 -1.017652E-04 -2.215318E-05 +4.762266E-03 +2.290715E-05 -1.017652E-04 +2.290715E-05 -1.436990E-04 
 +2.521199E-06 +8.887399E-05 -8.128742E-05 +8.887399E-05 +4.942205E-03 +1.742448E-05 -8.128742E-05 +1.742448E-05 -2.046695E-04 
 -6.676549E-05 +3.053263E-05 -5.071973E-05 +3.053263E-05 +5.055103E-03 +1.634591E-05 -5.071973E-05 +1.634591E-05 -2.148948E-04 
 -7.966154E-05 +5.377938E-05 +1.752248E-05 +5.377938E-05 +5.110887E-03 +3.395080E-06 +1.752248E-05 +3.395080E-06 -1.541345E-04 
 -1.656319E-04 +3.356872E-05 +5.367071E-05 +3.356872E-05 +5.145550E-03 +3.000920E-05 +5.367071E-05 +3.000920E-05 -6.614101E-05 
 -1.000240E-04 +6.686919E-05 +3.108470E-05 +6.686919E-05 +5.131702E-03 +2.089040E-05 +3.108470E-05 +2.089040E-05 -3.994051E-05 
 -3.090526E-05 +1.054393E-06 -1.581322E-05 +1.054393E-06 +5.035397E-03 -4.309315E-05 -1.581322E-05 -4.309315E-05 +3.590010E-05 
 +1.206993E-04 +1.027476E-04 -5.072124E-05 +1.027476E-04 +4.998959E-03 -2.988811E-05 -5.072124E-05 -2.988811E-05 +1.002443E-04 
 +9.852695E-06 -2.488194E-04 -1.227018E-04 -2.488194E-04 +5.038265E-03 +6.854883E-05 -1.227018E-04 +6.854883E-05 +1.304964E-04 
 -6.985127E-05 -2.189452E-04 -1.798425E-04 -2.189452E-04 +5.017381E-03 +1.092979E-04 -1.798425E-04 +1.092979E-04 +2.306204E-04 
 -8.694948E-05 -2.187916E-04 -2.719527E-04 -2.187916E-04 +4.850727E-03 +4.971804E-05 -2.719527E-04 +4.971804E-05 +2.813880E-04 
 +1.368168E-04 -4.726966E-05 -1.921617E-04 -4.726966E-05 +4.636825E-03 +8.302091E-05 -1.921617E-04 +8.302091E-05 +2.802059E-04 
 +1.377486E-04 -1.960070E-05 -1.117629E-04 -1.960070E-05 +4.489517E-03 +5.005162E-05 -1.117629E-04 +5.005162E-05 +2.507896E-04 
 -1.091103E-06 +1.405195E-05 +4.744023E-05 +1.405195E-05 +4.545203E-03 +3.110172E-05 +4.744023E-05 +3.110172E-05 +2.324006E-04 
 -2.325259E-04 +2.058505E-05 +2.385109E-04 +2.058505E-05 +4.860294E-03 +9.579907E-05 +2.385109E-04 +9.579907E-05 +1.409460E-04 
 -1.218260E-04 +1.454030E-04 +2.099703E-04 +1.454030E-04 +4.977004E-03 +1.975288E-04 +2.099703E-04 +1.975288E-04 +4.346211E-05 
 +5.545589E-05 +7.089815E-05 +5.445901E-05 +7.089815E-05 +4.927217E-03 +1.898085E-04 +5.445901E-05 +1.898085E-04 -2.691855E-06 
 +7.518468E-05 -1.520693E-05 +2.631176E-05 -1.520693E-05 +4.920058E-03 +9.362807E-05 +2.631176E-05 +9.362807E-05 -4.820709E-05 
 +1.017862E-04 -4.428655E-05 +4.388176E-05 -4.428655E-05 +4.838866E-03 +2.617133E-05 +4.388176E-05 +2.617133E-05 -8.764265E-05 
 +1.456511E-04 -2.162237E-05 +5.595055E-05 -2.162237E-05 +4.743209E-03 +3.294994E-05 +5.595055E-05 +3.294994E-05 -1.266975E-04 
 +1.043861E-04 +1.137578E-05 -1.115201E-04 +1.137578E-05 +4.814344E-03 +5.007181E-05 -1.115201E-04 +5.007181E-05 -2.061705E-04 
 +2.404782E-05 +5.708487E-05 -3.070465E-04 +5.708487E-05 +5.052522E-03 +3.282039E-05 -3.070465E-04 +3.282039E-05 -2.956130E-04 
 -3.712273E-05 +5.418068E-05 -2.773524E-04 +5.418068E-05 +5.129563E-03 +3.121636E-05 -2.773524E-04 +3.121636E-05 -2.770662E-04 
 -6.147437E-05 -4.743700E-05 -2.414041E-04 -4.743700E-05 +5.080708E-03 +2.188216E-05 -2.414041E-04 +2.188216E-05 -2.440952E-04 
 -6.066318E-05 -4.469009E-05 -1.173507E-04 -4.469009E-05 +5.103939E-03 -2.536594E-06 -1.173507E-04 -2.536594E-06 -1.523824E-04 
 -2.356241E-04 -9.156957E-05 -3.081747E-05 -9.156957E-05 +5.031408E-03 -6.311713E-05 -3.081747E-05 -6.311713E-05 +1.685811E-07 
 +3.261221E-06 +2.214242E-05 -8.001339E-05 +2.214242E-05 +4.899329E-03 -9.730884E-05 -8.001339E-05 -9.730884E-05 +2.301945E-05 
 +1.758561E-05 +5.045630E-05 -9.069672E-05 +5.045630E-05 +5.005024E-03 -8.324649E-05 -9.069672E-05 -8.324649E-05 +8.050634E-05 
 +4.012451E-05 +1.068895E-04 -6.607705E-05 +1.068895E-04 +5.023951E-03 -4.300475E-05 -6.607705E-05 -4.300475E-05 +1.249009E-04 
 -4.377716E-05 -1.265166E-04 -1.132724E-04 -1.265166E-04 +4.995489E-03 +2.062953E-05 -1.132724E-04 +2.062953E-05 +7.278308E-05 
 -3.441741E-05 -1.411283E-04 -1.569436E-04 -1.411283E-04 +5.029017E-03 +8.433214E-05 -1.569436E-04 +8.433214E-05 +9.993533E-05 
 -1.373667E-05 -2.525667E-04 -2.768927E-04 -2.525667E-04 +4.843071E-03 +9.376540E-05 -2.768927E-04 +9.376540E-05 +2.185141E-04 
 +1.733486E-04 -7.704003E-05 -1.497101E-04 -7.704003E-05 +4.616646E-03 -1.953011E-05 -1.497101E-04 -1.953011E-05 +2.345701E-04 
 +1.426397E-04 +1.198831E-05 -5.685160E-05 +1.198831E-05 +4.596987E-03 +2.488956E-05 -5.685160E-05 +2.488956E-05 +1.902835E-04 
 -5.770049E-05 +3.134457E-05 +8.711311E-05 +3.134457E-05 +4.845048E-03 +9.972227E-05 +8.711311E-05 +9.972227E-05 +1.607864E-04 
 -1.487569E-04 +5.808273E-06 +1.577447E-04 +5.808273E-06 +4.945043E-03 +1.362119E-04 +1.577447E-04 +1.362119E-04 +1.598461E-04 
 -1.767176E-04 +1.289166E-04 +1.548610E-04 +1.289166E-04 +4.877047E-03 +1.586475E-04 +1.548610E-04 +1.586475E-04 +1.610175E-04 
 +7.136026E-05 +2.797214E-04 -6.458936E-05 +2.797214E-04 +4.777641E-03 +1.890766E-04 -6.458936E-05 +1.890766E-04 +1.170569E-04 
 +1.400521E-04 +2.371451E-04 -4.974425E-05 +2.371451E-04 +4.796953E-03 +2.242058E-04 -4.974425E-05 +2.242058E-04 +3.226424E-05 
 +2.974268E-05 +7.419466E-05 -3.297550E-05 +7.419466E-05 +4.827512E-03 +2.183202E-04 -3.297550E-05 +2.183202E-04 -5.753995E-05 
 +9.690889E-05 +5.030803E-05 +6.782304E-05 +5.030803E-05 +4.900193E-03 +1.498732E-04 +6.782304E-05 +1.498732E-04 -1.491604E-04 
 +2.044589E-05 +1.306165E-04 -2.469738E-04 +1.306165E-04 +5.118501E-03 +7.109116E-05 -2.469738E-04 +7.109116E-05 -2.509482E-04 
 -4.147031E-05 +1.428577E-04 -2.976049E-04 +1.428577E-04 +5.217481E-03 +4.276665E-05 -2.976049E-04 +4.276665E-05 -3.155221E-04 
 -1.011420E-04 +9.067977E-05 -3.301397E-04 +9.067977E-05 +5.208025E-03 +8.237917E-05 -3.301397E-04 +8.237917E-05 -3.103677E-04 
 -1.231401E-04 -4.604803E-06 -2.845972E-04 -4.604803E-06 +5.200164E-03 +8.980922E-05 -2.845972E-04 +8.980922E-05 -2.877021E-04 
 -8.502012E-05 -3.478258E-05 -2.544800E-04 -3.478258E-05 +5.126287E-03 +4.807325E-05 -2.544800E-04 +4.807325E-05 -1.805895E-04 
 -1.313833E-04 -6.010018E-05 -2.278476E-04 -6.010018E-05 +5.127364E-03 -8.595878E-06 -2.278476E-04 -8.595878E-06 -9.386198E-05 
 -4.986428E-05 -2.001014E-05 -2.350500E-04 -2.001014E-05 +5.150575E-03 -2.700312E-05 -2.350500E-04 -2.700312E-05 -8.644998E-05 
 +6.316293E-05 +4.430222E-06 -1.589158E-04 +4.430222E-06 +5.116331E-03 -6.629083E-05 -1.589158E-04 -6.629083E-05 +3.418594E-05 
 +3.314447E-05 -9.961188E-05 -6.801823E-05 -9.961188E-05 +5.053590E-03 -1.520161E-04 -6.801823E-05 -1.520161E-04 +1.277195E-04 
 +5.627899E-06 -1.700450E-04 -3.366543E-05 -1.700450E-04 +4.913442E-03 -1.490558E-04 -3.366543E-05 -1.490558E-04 +7.974169E-05 
 +5.797502E-05 -2.109381E-04 -7.375952E-05 -2.109381E-04 +4.793547E-03 -1.178492E-04 -7.375952E-05 -1.178492E-04 +8.274420E-05 
 +8.057294E-05 -2.701726E-04 -1.212323E-04 -2.701726E-04 +4.760017E-03 -8.010232E-05 -1.212323E-04 -8.010232E-05 +1.664390E-04 
 +1.884336E-04 -2.016022E-04 -1.103868E-04 -2.016022E-04 +4.859287E-03 -1.561740E-04 -1.103868E-04 -1.561740E-04 +1.280850E-04 
 +5.066277E-05 +6.563274E-06 +1.210685E-05 +6.563274E-06 +5.045454E-03 +2.933412E-06 +1.210685E-05 +2.933412E-06 +7.593015E-05 
 -4.247602E-05 +2.725475E-05 +6.939476E-05 +2.725475E-05 +4.971665E-03 +9.675202E-05 +6.939476E-05 +9.675202E-05 +6.579318E-05 
 -5.840287E-05 +3.963955E-05 +6.739356E-05 +3.963955E-05 +4.867026E-03 +9.997995E-05 +6.739356E-05 +9.997995E-05 +1.260032E-04 
 -8.711927E-05 +4.430100E-05 +1.298644E-04 +4.430100E-05 +4.838589E-03 +1.148540E-04 +1.298644E-04 +1.148540E-04 +2.002773E-04 
 +1.365345E-04 +1.334028E-04 -6.944932E-05 +1.334028E-04 +4.781503E-03 +1.425821E-04 -6.944932E-05 +1.425821E-04 +1.674936E-04 
 +1.573243E-04 +1.593519E-04 -2.330802E-05 +1.593519E-04 +4.800344E-03 +2.176817E-04 -2.330802E-05 +2.176817E-04 +7.059670E-05 
 -1.142400E-04 -1.480507E-05 -1.665140E-05 -1.480507E-05 +4.922571E-03 +2.999891E-04 -1.665140E-05 +2.999891E-04 -1.901765E-05 
 -6.099553E-05 +4.802359E-05 -2.467960E-05 +4.802359E-05 +5.065776E-03 +1.735556E-04 -2.467960E-05 +1.735556E-04 -1.163499E-04 
 -2.449946E-05 +1.158022E-04 -2.739792E-04 +1.158022E-04 +5.152102E-03 +2.659475E-06 -2.739792E-04 +2.659475E-06 -2.455957E-04 
 -6.935349E-05 +7.798477E-05 -2.365826E-04 +7.798477E-05 +5.206101E-03 +2.555210E-05 -2.365826E-04 +2.555210E-05 -2.927478E-04 
 -7.994164E-05 +5.690294E-05 -2.833405E-04 +5.690294E-05 +5.235214E-03 +1.004023E-04 -2.833405E-04 +1.004023E-04 -2.570802E-04 
 -1.170566E-04 +2.903936E-05 -2.485939E-04 +2.903936E-05 +5.222403E-03 +1.159552E-04 -2.485939E-04 +1.159552E-04 -2.349070E-04 
 -1.139557E-04 +1.217504E-05 -2.457611E-04 +1.217504E-05 +5.161770E-03 +9.140068E-05 -2.457611E-04 +9.140068E-05 -1.345667E-04 
 -1.200783E-04 +2.574846E-05 -3.146386E-04 +2.574846E-05 +5.163001E-03 +8.506722E-05 -3.146386E-04 +8.506722E-05 -1.237200E-04 
 -1.191182E-04 -2.238194E-05 -1.863525E-04 -2.238194E-05 +5.183222E-03 +1.458065E-04 -1.863525E-04 +1.458065E-04 -1.118605E-04 
 +8.285090E-05 +9.689057E-06 -1.249515E-04 +9.689057E-06 +4.915485E-03 +2.067723E-04 -1.249515E-04 +2.067723E-04 +7.190350E-05 
 +7.941574E-05 +4.762832E-05 -9.826203E-05 +4.762832E-05 +4.776713E-03 +9.843388E-05 -9.826203E-05 +9.843388E-05 +2.034993E-04 
 +4.818727E-05 -1.082319E-04 -1.933489E-05 -1.082319E-04 +4.884393E-03 -8.410200E-05 -1.933489E-05 -8.410200E-05 +2.037844E-04 
 +1.006800E-04 -2.417246E-04 -1.168388E-05 -2.417246E-04 +4.816928E-03 -1.503781E-04 -1.168388E-05 -1.503781E-04 +1.573100E-04 
 +1.629297E-04 -3.293007E-04 -3.778781E-05 -3.293007E-04 +4.724358E-03 -1.754785E-04 -3.778781E-05 -1.754785E-04 +1.267309E-04 
 +1.578057E-04 +4.434970E-05 -2.946941E-05 +4.434970E-05 +4.858663E-03 -6.041206E-05 -2.946941E-05 -6.041206E-05 +6.145007E-05 
 +9.462129E-05 +1.382140E-04 -1.171899E-05 +1.382140E-04 +5.005654E-03 -4.547260E-05 -1.171899E-05 -4.547260E-05 -5.192618E-06 
 -7.539640E-06 +5.100692E-05 +1.257440E-04 +5.100692E-05 +4.955478E-03 -2.668122E-05 +1.257440E-04 -2.668122E-05 +1.944810E-05 
 -6.440067E-05 +6.850660E-05 +1.083902E-04 +6.850660E-05 +4.909001E-03 +1.016952E-04 +1.083902E-04 +1.016952E-04 +6.438314E-05 
 -8.579080E-05 +1.390938E-05 +1.032221E-04 +1.390938E-05 +4.869936E-03 +9.551938E-05 +1.032221E-04 +9.551938E-05 +1.159621E-04 
 +1.295588E-04 +8.993785E-05 -6.834427E-05 +8.993785E-05 +4.759578E-03 +4.958333E-05 -6.834427E-05 +4.958333E-05 +7.666719E-05 
 +1.091867E-04 +1.826412E-04 +2.614141E-05 +1.826412E-04 +4.797695E-03 +1.251929E-04 +2.614141E-05 +1.251929E-04 +2.311915E-05 
 -1.839822E-04 +2.570529E-05 +3.928394E-05 +2.570529E-05 +5.029089E-03 +1.872489E-04 +3.928394E-05 +1.872489E-04 -5.031301E-06 
 -1.354510E-04 +8.642307E-05 -2.170266E-04 +8.642307E-05 +5.191036E-03 +5.164752E-05 -2.170266E-04 +5.164752E-05 -1.579146E-04 
 -9.673369E-05 +1.340922E-04 -2.991956E-04 +1.340922E-04 +5.211280E-03 -4.536812E-05 -2.991956E-04 -4.536812E-05 -3.518921E-04 
 -6.962099E-05 +9.512278E-05 -2.439090E-04 +9.512278E-05 +5.191372E-03 +2.332656E-05 -2.439090E-04 +2.332656E-05 -2.929555E-04 
 -1.184279E-05 +5.532848E-05 -2.934990E-04 +5.532848E-05 +5.177193E-03 +8.491265E-05 -2.934990E-04 +8.491265E-05 -1.854856E-04 
 -3.639142E-05 +6.904775E-06 -2.673673E-04 +6.904775E-06 +5.167765E-03 +8.731001E-05 -2.673673E-04 +8.731001E-05 -1.602736E-04 
 -1.466489E-04 -4.285876E-05 -2.221048E-04 -4.285876E-05 +5.182236E-03 +9.627280E-05 -2.221048E-04 +9.627280E-05 -8.163585E-05 
 -1.820931E-04 -1.315340E-05 -3.060706E-04 -1.315340E-05 +5.075194E-03 +1.676173E-04 -3.060706E-04 +1.676173E-04 -3.436579E-05 
 +1.878530E-05 -1.597678E-05 +3.093142E-05 -1.597678E-05 +4.875520E-03 +2.444788E-04 +3.093142E-05 +2.444788E-04 +2.244298E-05 
 +5.271522E-05 -5.515933E-05 -1.874708E-05 -5.515933E-05 +4.805054E-03 +1.934835E-04 -1.874708E-05 +1.934835E-04 +1.649357E-04 
 +8.198092E-05 +3.784557E-05 -9.055039E-05 +3.784557E-05 +4.708290E-03 +1.269869E-04 -9.055039E-05 +1.269869E-04 +2.398736E-04 
 +1.263571E-04 -2.560755E-05 -5.506676E-05 -2.560755E-05 +4.705718E-03 +3.090452E-05 -5.506676E-05 +3.090452E-05 +2.199793E-04 
 +9.018514E-05 -2.061234E-04 +1.606804E-05 -2.061234E-04 +4.793538E-03 -1.553525E-04 +1.606804E-05 -1.553525E-04 +1.913148E-04 
 +1.590889E-04 -2.535962E-04 -1.822096E-05 -2.535962E-04 +4.746462E-03 -1.934446E-04 -1.822096E-05 -1.934446E-04 +1.702678E-04 
 +1.304282E-04 +9.426581E-05 +1.293096E-04 +9.426581E-05 +4.873057E-03 -1.218325E-04 +1.293096E-04 -1.218325E-04 -2.188179E-05 
 +1.212228E-04 +1.449235E-04 +3.644874E-05 +1.449235E-04 +4.886548E-03 -3.980277E-05 +3.644874E-05 -3.980277E-05 -5.149580E-05 
 -8.000938E-05 -6.672519E-06 +2.652206E-04 -6.672519E-06 +5.033558E-03 -9.293997E-06 +2.652206E-04 -9.293997E-06 -1.278889E-05 
 -1.162800E-04 -4.532363E-05 +1.998640E-04 -4.532363E-05 +5.035417E-03 +5.030891E-05 +1.998640E-04 +5.030891E-05 +2.688225E-05 
 -1.829995E-06 -1.918741E-05 +1.729238E-05 -1.918741E-05 +5.003598E-03 +8.447057E-05 +1.729238E-05 +8.447057E-05 +6.458342E-08 
 +2.795408E-05 +4.698181E-05 -2.509782E-05 +4.698181E-05 +5.115249E-03 +8.914281E-05 -2.509782E-05 +8.914281E-05 -6.336704E-05 
 -9.641742E-07 +1.383025E-04 +7.426188E-05 +1.383025E-04 +5.107626E-03 +1.414749E-04 +7.426188E-05 +1.414749E-04 -6.559877E-05 
 -1.580233E-04 +8.470968E-05 +5.068037E-05 +8.470968E-05 +5.104996E-03 +1.557750E-04 +5.068037E-05 +1.557750E-04 +1.399047E-05 
 -1.133614E-04 +1.400172E-04 -3.280760E-04 +1.400172E-04 +5.220418E-03 +4.039498E-05 -3.280760E-04 +4.039498E-05 -1.427450E-04 
 -1.503768E-04 +1.599112E-04 -2.843789E-04 +1.599112E-04 +5.258045E-03 -4.502709E-05 -2.843789E-04 -4.502709E-05 -3.975336E-04 
 -8.425063E-05 +1.275033E-04 -2.401614E-04 +1.275033E-04 +5.204043E-03 -1.943164E-05 -2.401614E-04 -1.943164E-05 -2.439219E-04 
 +2.196983E-05 +7.106252E-05 -3.178874E-04 +7.106252E-05 +5.147976E-03 +1.600804E-05 -3.178874E-04 +1.600804E-05 -1.307144E-04 
 +1.107651E-05 +3.207880E-05 -2.828849E-04 +3.207880E-05 +5.147475E-03 +5.296195E-05 -2.828849E-04 +5.296195E-05 -1.325521E-04 
 -1.370328E-04 +1.265896E-05 -2.034887E-04 +1.265896E-05 +5.177991E-03 +1.198045E-04 -2.034887E-04 +1.198045E-04 -7.896215E-05 
 -1.806058E-04 -4.938773E-05 -2.634832E-04 -4.938773E-05 +5.118371E-03 +2.094585E-04 -2.634832E-04 +2.094585E-04 -3.042575E-05 
 +9.985346E-05 -1.024815E-04 +1.352082E-04 -1.024815E-04 +4.951281E-03 +2.452496E-04 +1.352082E-04 +2.452496E-04 +5.062582E-05 
 +3.477202E-05 -8.458622E-05 +8.189432E-06 -8.458622E-05 +4.813582E-03 +2.024769E-04 +8.189432E-06 +2.024769E-04 +1.813883E-04 
 +7.120077E-05 -2.197565E-06 -3.254559E-05 -2.197565E-06 +4.705970E-03 +1.544183E-04 -3.254559E-05 +1.544183E-04 +2.272158E-04 
 +2.057740E-04 +3.882585E-05 -6.946780E-05 +3.882585E-05 +4.659499E-03 +6.967146E-05 -6.946780E-05 +6.967146E-05 +1.323146E-04 
 +1.783212E-04 -1.751401E-04 -8.556274E-05 -1.751401E-04 +4.752482E-03 -1.468623E-04 -8.556274E-05 -1.468623E-04 +7.866513E-05 
 +1.200192E-04 -2.346686E-04 +1.290420E-04 -2.346686E-04 +4.872236E-03 -2.374341E-04 +1.290420E-04 -2.374341E-04 +8.830052E-05 
 +1.442194E-06 -6.089166E-06 +2.588130E-04 -6.089166E-06 +5.152740E-03 -1.567407E-04 +2.588130E-04 -1.567407E-04 -1.299748E-04 
 +1.319815E-05 +3.147398E-06 +1.617857E-04 +3.147398E-06 +5.092483E-03 -1.892573E-05 +1.617857E-04 -1.892573E-05 -8.590450E-05 
 -7.063260E-05 -8.027664E-05 +2.300926E-04 -8.027664E-05 +5.089750E-03 +1.727138E-05 +2.300926E-04 +1.727138E-05 -3.679169E-05 
 -8.088221E-05 -1.342919E-04 +2.237762E-04 -1.342919E-04 +5.121821E-03 -1.082507E-05 +2.237762E-04 -1.082507E-05 -3.430781E-06 
 +9.914728E-06 -6.356938E-05 +6.779487E-05 -6.356938E-05 +5.137323E-03 +1.183576E-04 +6.779487E-05 +1.183576E-04 -9.969199E-05 
 +6.499078E-06 +1.756808E-05 -8.274255E-05 +1.756808E-05 +5.175079E-03 +1.705926E-04 -8.274255E-05 +1.705926E-04 -1.661539E-04 
 -2.784206E-05 +1.245698E-04 +1.388544E-05 +1.245698E-04 +5.170340E-03 +3.740230E-05 +1.388544E-05 +3.740230E-05 -1.529624E-04 
 -8.648731E-05 +1.962536E-04 -1.635405E-05 +1.962536E-04 +5.155827E-03 -6.439344E-05 -1.635405E-05 -6.439344E-05 -8.353717E-05 
 -1.208067E-04 +2.131532E-04 -3.016108E-04 +2.131532E-04 +5.199217E-03 -5.618325E-05 -3.016108E-04 -5.618325E-05 -1.402710E-04 
 -1.631638E-04 +1.595708E-04 -2.444762E-04 +1.595708E-04 +5.222417E-03 -4.946579E-06 -2.444762E-04 -4.946579E-06 -2.826057E-04 
 -8.760532E-05 +1.193102E-04 -2.247445E-04 +1.193102E-04 +5.200543E-03 -3.479482E-05 -2.247445E-04 -3.479482E-05 -1.644782E-04 
 +4.740495E-06 +8.624921E-05 -2.930139E-04 +8.624921E-05 +5.175625E-03 -4.157143E-05 -2.930139E-04 -4.157143E-05 -1.033620E-04 
 +1.814076E-05 +2.355234E-05 -2.618948E-04 +2.355234E-05 +5.150918E-03 +1.532919E-05 -2.618948E-04 +1.532919E-05 -1.248009E-04 
 -7.765114E-05 +2.635493E-05 -1.821511E-04 +2.635493E-05 +5.198880E-03 +7.421083E-05 -1.821511E-04 +7.421083E-05 -9.119836E-05 
 -9.824577E-05 -1.076987E-04 -7.416368E-05 -1.076987E-04 +5.186165E-03 +1.940070E-04 -7.416368E-05 +1.940070E-04 -2.493012E-05 
 +9.498509E-05 -1.479036E-04 +2.058478E-04 -1.479036E-04 +4.953039E-03 +2.782064E-04 +2.058478E-04 +2.782064E-04 +7.394685E-05 
 +3.613443E-05 -6.871772E-05 +3.325113E-05 -6.871772E-05 +4.765786E-03 +2.275609E-04 +3.325113E-05 +2.275609E-04 +1.921166E-04 
 +8.451634E-05 -2.919292E-05 +1.273879E-05 -2.919292E-05 +4.697704E-03 +1.690155E-04 +1.273879E-05 +1.690155E-04 +2.230008E-04 
 +2.166189E-04 +5.427023E-05 -1.683532E-05 +5.427023E-05 +4.601043E-03 +1.478207E-04 -1.683532E-05 +1.478207E-04 +1.399698E-04 
 +2.893605E-04 -1.436244E-05 -8.188374E-05 -1.436244E-05 +4.742804E-03 +9.655491E-05 -8.188374E-05 +9.655491E-05 +1.605915E-05 
 +3.763781E-05 -1.556552E-04 +1.640149E-04 -1.556552E-04 +5.068066E-03 -9.468881E-05 +1.640149E-04 -9.468881E-05 -9.435977E-05 
 -1.157241E-04 -2.040277E-05 +2.353802E-04 -2.040277E-05 +5.189875E-03 +1.071626E-04 +2.353802E-04 +1.071626E-04 -2.013875E-04 
 -1.297084E-04 -4.477704E-06 +2.108543E-04 -4.477704E-06 +5.217464E-03 +7.466730E-05 +2.108543E-04 +7.466730E-05 -9.495192E-05 
 -1.144086E-04 -1.145592E-04 +1.736535E-04 -1.145592E-04 +5.173934E-03 +2.908099E-05 +1.736535E-04 +2.908099E-05 -2.786082E-05 
 -1.351638E-04 -2.446880E-04 +1.813344E-04 -2.446880E-04 +5.267816E-03 -9.052553E-05 +1.813344E-04 -9.052553E-05 -7.420221E-05 
 +9.168879E-05 -2.195298E-04 +2.346051E-04 -2.195298E-04 +5.371189E-03 -1.380317E-04 +2.346051E-04 -1.380317E-04 -4.010922E-04 
 +1.403261E-04 -7.731069E-05 +9.018499E-05 -7.731069E-05 +5.376635E-03 -1.112462E-04 +9.018499E-05 -1.112462E-04 -5.958780E-04 
 +6.682443E-05 -9.319514E-06 +1.662183E-04 -9.319514E-06 +5.340492E-03 -9.386818E-05 +1.662183E-04 -9.386818E-05 -3.969311E-04 
 -2.757036E-04 +6.026627E-06 -5.344378E-05 +6.026627E-06 +5.223060E-03 -1.144311E-04 -5.344378E-05 -1.144311E-04 -1.534495E-04 
 -2.528843E-04 +8.199745E-06 -2.297699E-04 +8.199745E-06 +5.149365E-03 -7.646930E-05 -2.297699E-04 -7.646930E-05 +2.003044E-05 
 -2.847058E-04 +2.847361E-05 -1.510858E-04 +2.847361E-05 +5.166275E-03 -3.165782E-06 -1.510858E-04 -3.165782E-06 +1.061995E-04 
 -1.559772E-04 +1.065511E-04 -1.493376E-04 +1.065511E-04 +5.166093E-03 -4.973053E-05 -1.493376E-04 -4.973053E-05 +5.062675E-05 
 -7.824803E-06 +1.233539E-04 -2.044461E-04 +1.233539E-04 +5.185705E-03 -5.365677E-05 -2.044461E-04 -5.365677E-05 -9.093477E-05 
 -2.443204E-07 +3.750778E-05 -1.686098E-04 +3.750778E-05 +5.208208E-03 -3.079306E-06 -1.686098E-04 -3.079306E-06 -1.355173E-04 
 +4.213392E-05 -6.674950E-06 -1.685190E-04 -6.674950E-06 +5.063429E-03 -2.120069E-05 -1.685190E-04 -2.120069E-05 -4.846976E-05 
 +2.075800E-04 -2.641705E-04 +1.691856E-04 -2.641705E-04 +4.853129E-03 +4.557244E-06 +1.691856E-04 +4.557244E-06 +7.370727E-05 
 +1.527737E-04 -2.715313E-04 +2.277972E-04 -2.715313E-04 +4.864372E-03 +1.113544E-05 +2.277972E-04 +1.113544E-05 +1.137875E-04 
 +1.502992E-04 -1.648493E-04 +1.389344E-04 -1.648493E-04 +4.847437E-03 -4.940355E-06 +1.389344E-04 -4.940355E-06 +1.241734E-04 
 +2.014186E-04 -4.906785E-05 -2.432294E-05 -4.906785E-05 +4.733925E-03 +3.576638E-05 -2.432294E-05 +3.576638E-05 +1.087779E-04 
 +1.603940E-04 -2.856870E-06 -3.111517E-05 -2.856870E-06 +4.811039E-03 +9.672789E-05 -3.111517E-05 +9.672789E-05 +3.645618E-05 
 +1.865950E-04 -1.111538E-04 -2.567155E-04 -1.111538E-04 +4.996979E-03 +1.528635E-04 -2.567155E-04 +1.528635E-04 -1.694178E-04 
 +7.214134E-05 -2.282737E-04 -7.729465E-05 -2.282737E-04 +5.094217E-03 +1.509913E-04 -7.729465E-05 +1.509913E-04 -2.827223E-04 
 -1.458810E-04 -3.593721E-05 +1.856682E-04 -3.593721E-05 +5.157500E-03 +2.066036E-04 +1.856682E-04 +2.066036E-04 -1.912077E-04 
 -2.074981E-04 -1.054356E-04 +1.513320E-04 -1.054356E-04 +5.191678E-03 +7.977199E-05 +1.513320E-04 +7.977199E-05 -2.712273E-05 
 -2.874428E-04 -1.702162E-04 +1.434971E-04 -1.702162E-04 +5.218975E-03 +1.158782E-09 +1.434971E-04 +1.158782E-09 +4.944792E-05 
 -1.096404E-04 -1.847413E-04 +1.429731E-05 -1.847413E-04 +5.278153E-03 -7.760355E-05 +1.429731E-05 -7.760355E-05 -8.749521E-05 
 +2.236250E-04 -1.095246E-04 +1.560455E-04 -1.095246E-04 +5.357870E-03 -2.280188E-04 +1.560455E-04 -2.280188E-04 -5.085265E-04 
 +2.654297E-04 -2.524683E-05 +1.189952E-04 -2.524683E-05 +5.375988E-03 -2.264655E-04 +1.189952E-04 -2.264655E-04 -7.101790E-04 
 +1.594103E-04 +3.848506E-05 +1.757165E-04 +3.848506E-05 +5.322497E-03 -1.163747E-04 +1.757165E-04 -1.163747E-04 -4.406330E-04 
 -5.081287E-04 +3.959219E-05 -3.949537E-05 +3.959219E-05 +5.241060E-03 -6.171759E-05 -3.949537E-05 -6.171759E-05 -6.761644E-05 
 -3.145906E-04 +3.192009E-05 -1.834401E-04 +3.192009E-05 +5.110440E-03 -4.725233E-05 -1.834401E-04 -4.725233E-05 +9.022580E-05 
 -5.990262E-05 +1.255759E-05 -2.242078E-04 +1.255759E-05 +5.069518E-03 -6.544658E-05 -2.242078E-04 -6.544658E-05 +7.107373E-05 
 -7.410707E-05 +6.342505E-05 -2.239305E-04 +6.342505E-05 +5.177109E-03 -8.138784E-05 -2.239305E-04 -8.138784E-05 -1.358008E-05 
 -5.264507E-05 +4.183092E-05 -1.994345E-04 +4.183092E-05 +5.240248E-03 -9.027655E-05 -1.994345E-04 -9.027655E-05 -1.021893E-04 
 -3.605108E-06 +1.315993E-05 -2.487857E-04 +1.315993E-05 +5.197558E-03 -5.998231E-05 -2.487857E-04 -5.998231E-05 -1.231104E-04 
 +7.431160E-05 -1.404123E-04 -2.382624E-04 -1.404123E-04 +4.934619E-03 +2.391603E-05 -2.382624E-04 +2.391603E-05 -1.774389E-05 
 +2.425336E-04 -2.967039E-04 +1.088076E-04 -2.967039E-04 +4.746668E-03 -6.149795E-06 +1.088076E-04 -6.149795E-06 +1.244121E-04 
 +2.435620E-04 -2.625045E-04 +1.802176E-04 -2.625045E-04 +4.836396E-03 -8.511411E-05 +1.802176E-04 -8.511411E-05 +9.822478E-05 
 +2.381816E-04 -2.493929E-04 +9.866016E-05 -2.493929E-04 +4.800955E-03 -1.558333E-04 +9.866016E-05 -1.558333E-04 +1.612226E-05 
 +1.743243E-04 -1.017191E-04 +1.073414E-05 -1.017191E-04 +4.850991E-03 -1.101027E-04 +1.073414E-05 -1.101027E-04 -4.217819E-05 
 -2.073804E-05 -3.813376E-05 -4.835560E-05 -3.813376E-05 +5.131492E-03 +6.687605E-05 -4.835560E-05 +6.687605E-05 -1.086168E-04 
 +4.422830E-05 -9.298818E-05 -1.892211E-04 -9.298818E-05 +5.217057E-03 +1.393929E-04 -1.892211E-04 +1.393929E-04 -2.745566E-04 
 +1.184063E-04 -1.894994E-04 -1.968054E-05 -1.894994E-04 +5.145940E-03 +1.975805E-04 -1.968054E-05 +1.975805E-04 -3.342216E-04 
 -2.576224E-04 +7.672323E-05 +2.254744E-04 +7.672323E-05 +5.139938E-03 +1.994482E-04 +2.254744E-04 +1.994482E-04 -8.141118E-05 
 -2.539972E-04 -9.227708E-07 +8.136515E-05 -9.227708E-07 +5.161270E-03 +1.978646E-04 +8.136515E-05 +1.978646E-04 +9.768709E-05 
 -4.272865E-04 -4.709635E-05 +1.920563E-04 -4.709635E-05 +5.193990E-03 +1.300907E-04 +1.920563E-04 +1.300907E-04 +1.957206E-04 
 -3.352775E-05 -6.256363E-05 -1.003111E-05 -6.256363E-05 +5.234450E-03 +5.897302E-05 -1.003111E-05 +5.897302E-05 -6.508914E-05 
 +2.847089E-04 -8.215716E-05 +2.051323E-05 -8.215716E-05 +5.300662E-03 -4.155548E-05 +2.051323E-05 -4.155548E-05 -5.429660E-04 
 +3.587906E-04 -9.382696E-05 +1.412399E-04 -9.382696E-05 +5.313591E-03 -1.032738E-04 +1.412399E-04 -1.032738E-04 -7.027411E-04 
 +2.910562E-04 -3.071023E-05 +1.685801E-04 -3.071023E-05 +5.289103E-03 -7.394369E-05 +1.685801E-04 -7.394369E-05 -4.832458E-04 
 -5.681604E-04 +2.677779E-05 +2.027175E-05 +2.677779E-05 +5.257485E-03 -2.554313E-05 +2.027175E-05 -2.554313E-05 -7.778918E-05 
 -4.974124E-04 +4.468716E-05 -4.897627E-05 +4.468716E-05 +5.133454E-03 -3.192876E-05 -4.897627E-05 -3.192876E-05 +2.116943E-04 
 -1.218229E-04 +2.371100E-05 -1.640696E-04 +2.371100E-05 +5.044928E-03 -1.361012E-04 -1.640696E-04 -1.361012E-04 +2.163823E-04 
 +2.768436E-05 +4.563176E-05 -1.108280E-04 +4.563176E-05 +5.156314E-03 -1.389503E-04 -1.108280E-04 -1.389503E-04 +6.423150E-05 
 +9.384768E-05 +1.513690E-05 -1.748089E-04 +1.513690E-05 +5.185495E-03 -7.251320E-05 -1.748089E-04 -7.251320E-05 -5.667126E-05 
 +2.592396E-04 +1.348453E-04 -1.832440E-04 +1.348453E-04 +5.071212E-03 -3.731301E-06 -1.832440E-04 -3.731301E-06 -1.174122E-04 
 +8.453157E-05 -1.224781E-05 -2.394805E-04 -1.224781E-05 +5.068313E-03 +7.830794E-05 -2.394805E-04 +7.830794E-05 -5.518671E-05 
 +4.400205E-05 -1.200034E-04 -1.340472E-04 -1.200034E-04 +5.085920E-03 -2.108159E-05 -1.340472E-04 -2.108159E-05 +4.282511E-05 
 +3.344832E-04 -2.379012E-04 +1.903502E-04 -2.379012E-04 +4.894016E-03 -1.716286E-04 +1.903502E-04 -1.716286E-04 -1.705650E-05 
 +2.658383E-04 -2.055874E-04 +8.021548E-05 -2.055874E-04 +4.904324E-03 -1.896114E-04 +8.021548E-05 -1.896114E-04 -1.007635E-04 
 -2.803170E-05 +1.610741E-07 +1.753784E-04 +1.610741E-07 +5.167000E-03 -5.805845E-05 +1.753784E-04 -5.805845E-05 -1.223946E-04 
 -3.576638E-05 +3.418244E-05 +5.155270E-05 +3.418244E-05 +5.178329E-03 +1.219432E-04 +5.155270E-05 +1.219432E-04 -1.591417E-04 
 +9.656126E-05 -5.596796E-05 -1.000668E-04 -5.596796E-05 +5.130944E-03 +2.000284E-04 -1.000668E-04 +2.000284E-04 -2.331230E-04 
 +8.276776E-05 -1.221998E-04 +3.691888E-05 -1.221998E-04 +5.150058E-03 +1.856890E-04 +3.691888E-05 +1.856890E-04 -2.446586E-04 
 -3.014804E-04 +1.563819E-04 +2.674543E-04 +1.563819E-04 +5.117914E-03 +2.621550E-04 +2.674543E-04 +2.621550E-04 +3.345082E-05 
 -3.327276E-04 +1.054498E-04 +1.431857E-04 +1.054498E-04 +5.145980E-03 +2.791239E-04 +1.431857E-04 +2.791239E-04 +2.011535E-04 
 -3.972739E-04 +1.180853E-04 +1.578398E-04 +1.180853E-04 +5.176863E-03 +2.274037E-04 +1.578398E-04 +2.274037E-04 +2.341655E-04 
 -2.600559E-04 +8.651616E-05 +2.766040E-05 +8.651616E-05 +5.276263E-03 +1.471796E-04 +2.766040E-05 +1.471796E-04 -6.681634E-05 
 +3.082956E-04 -4.725145E-05 -6.903506E-05 -4.725145E-05 +5.324476E-03 +8.699341E-05 -6.903506E-05 +8.699341E-05 -4.880602E-04 
 +3.705714E-04 -1.140502E-04 +1.172131E-04 -1.140502E-04 +5.279982E-03 -1.180798E-06 +1.172131E-04 -1.180798E-06 -6.408102E-04 
 +3.758743E-04 -9.514968E-05 +1.763630E-04 -9.514968E-05 +5.237694E-03 -1.417945E-05 +1.763630E-04 -1.417945E-05 -4.778292E-04 
 -4.368024E-04 -4.476217E-05 +5.267397E-05 -4.476217E-05 +5.230401E-03 +3.176813E-05 +5.267397E-05 +3.176813E-05 -9.723664E-05 
 -5.854458E-04 -7.216926E-06 +3.737873E-05 -7.216926E-06 +5.215419E-03 -1.258209E-05 +3.737873E-05 -1.258209E-05 +2.289628E-04 
 -3.765551E-04 +2.502963E-06 -3.794976E-05 +2.502963E-06 +5.000143E-03 -8.690372E-05 -3.794976E-05 -8.690372E-05 +3.357296E-04 
 +3.126385E-04 +1.873151E-04 +9.113430E-05 +1.873151E-04 +4.670271E-03 -4.161890E-05 +9.113430E-05 -4.161890E-05 +1.862513E-04 
 +3.835810E-04 +1.965542E-04 -2.123543E-05 +1.965542E-04 +4.562097E-03 +2.772104E-05 -2.123543E-05 +2.772104E-05 +3.014626E-05 
 +4.170848E-04 +2.588182E-04 +2.951659E-06 +2.588182E-04 +4.725487E-03 +1.595478E-05 +2.951659E-06 +1.595478E-05 -3.366764E-05 
 +1.062709E-04 +7.452097E-05 -1.579848E-04 +7.452097E-05 +5.061914E-03 -5.170073E-05 -1.579848E-04 -5.170073E-05 -6.307316E-05 
 +3.351073E-05 -1.900404E-05 -2.315909E-04 -1.900404E-05 +5.240224E-03 -6.677588E-05 -2.315909E-04 -6.677588E-05 -5.276157E-05 
 +2.710725E-04 -4.930164E-05 +1.879743E-04 -4.930164E-05 +5.323090E-03 -7.113305E-05 +1.879743E-04 -7.113305E-05 -2.361338E-04 
 +5.985605E-05 -1.610719E-06 +2.142758E-04 -1.610719E-06 +5.421142E-03 -5.684177E-05 +2.142758E-04 -5.684177E-05 -3.069316E-04 
 -9.349237E-05 +7.606484E-05 +2.646410E-04 +7.606484E-05 +5.342961E-03 -1.847511E-05 +2.646410E-04 -1.847511E-05 -2.208938E-04 
 -8.143235E-05 +6.114902E-05 +2.488150E-04 +6.114902E-05 +5.230512E-03 +5.960954E-05 +2.488150E-04 +5.960954E-05 -2.109581E-04 
 +8.139226E-05 -6.811356E-05 -6.432657E-05 -6.811356E-05 +5.116451E-03 +1.802816E-04 -6.432657E-05 +1.802816E-04 -1.614380E-04 
 +1.449935E-04 -1.071628E-04 -2.366818E-05 -1.071628E-04 +5.059903E-03 +2.470500E-04 -2.366818E-05 +2.470500E-04 -1.060683E-04 
 -2.838415E-04 +1.924060E-06 +2.444061E-04 +1.924060E-06 +5.145055E-03 +2.716262E-04 +2.444061E-04 +2.716262E-04 +5.108041E-05 
 -2.191515E-04 -1.368516E-07 +1.724221E-04 -1.368516E-07 +5.139671E-03 +1.974206E-04 +1.724221E-04 +1.974206E-04 +8.927252E-05 
 -3.811763E-04 +1.428043E-04 +8.150201E-05 +1.428043E-04 +5.214506E-03 +1.408496E-04 +8.150201E-05 +1.408496E-04 +1.546360E-04 
 -3.614242E-04 +1.875143E-04 -9.098309E-06 +1.875143E-04 +5.353515E-03 +9.590132E-05 -9.098309E-06 +9.590132E-05 -6.062233E-06 
 +2.680247E-04 +8.071333E-05 -1.137760E-04 +8.071333E-05 +5.342526E-03 +5.967073E-05 -1.137760E-04 +5.967073E-05 -2.910139E-04 
 +2.420681E-04 -1.032422E-04 +9.545839E-05 -1.032422E-04 +5.194104E-03 +4.940024E-05 +9.545839E-05 +4.940024E-05 -3.716462E-04 
 +2.338551E-04 -1.327679E-04 +1.981935E-04 -1.327679E-04 +5.120108E-03 +3.144746E-05 +1.981935E-04 +3.144746E-05 -2.543544E-04 
 -2.593089E-04 -1.636270E-04 +9.530365E-05 -1.636270E-04 +5.169067E-03 +3.222309E-05 +9.530365E-05 +3.222309E-05 -2.503041E-05 
 -4.420568E-04 -8.189330E-05 +6.317611E-05 -8.189330E-05 +5.180000E-03 +6.701501E-05 +6.317611E-05 +6.701501E-05 +1.748640E-04 
 -2.585182E-04 +1.125348E-05 +5.713717E-05 +1.125348E-05 +5.030148E-03 +1.086306E-04 +5.713717E-05 +1.086306E-04 +3.134181E-04 
 +4.373436E-04 +2.217276E-04 +1.798928E-04 +2.217276E-04 +4.698157E-03 +6.435577E-05 +1.798928E-04 +6.435577E-05 +2.173249E-04 
 +4.837617E-04 +2.163351E-04 +8.086409E-05 +2.163351E-04 +4.569660E-03 -2.012177E-05 +8.086409E-05 -2.012177E-05 +5.350364E-05 
 +3.958207E-04 +2.579663E-04 +9.156906E-05 +2.579663E-04 +4.654148E-03 -8.282764E-05 +9.156906E-05 -8.282764E-05 +1.764022E-05 
 +2.517595E-04 +2.074888E-04 +1.224476E-05 +2.074888E-04 +4.742352E-03 -1.381061E-04 +1.224476E-05 -1.381061E-04 -9.150867E-06 
 +1.655249E-04 +4.464924E-05 -1.326269E-04 +4.464924E-05 +4.998494E-03 -1.050130E-04 -1.326269E-04 -1.050130E-04 -6.383958E-05 
 +9.695426E-05 -5.563269E-05 +1.629077E-04 -5.563269E-05 +5.281979E-03 -4.783581E-05 +1.629077E-04 -4.783581E-05 -2.868641E-04 
 -1.327579E-04 -3.281745E-05 +2.780391E-04 -3.281745E-05 +5.414468E-03 -4.928777E-05 +2.780391E-04 -4.928777E-05 -3.748437E-04 
 -1.205553E-04 +2.885280E-05 +2.795520E-04 +2.885280E-05 +5.385482E-03 -1.611304E-05 +2.795520E-04 -1.611304E-05 -2.844370E-04 
 -1.286411E-04 +4.277512E-05 +3.597435E-04 +4.277512E-05 +5.259366E-03 +2.977421E-05 +3.597435E-04 +2.977421E-05 -2.603648E-04 
 +2.853888E-05 -6.955583E-05 +4.469775E-05 -6.955583E-05 +5.113052E-03 +1.338525E-04 +4.469775E-05 +1.338525E-04 -1.235562E-04 
 -1.632160E-05 -1.171916E-04 -7.325620E-07 -1.171916E-04 +5.078563E-03 +2.683252E-04 -7.325620E-07 +2.683252E-04 +3.446887E-05 
 -2.843909E-04 +1.688221E-05 +2.074984E-04 +1.688221E-05 +5.202353E-03 +1.703733E-04 +2.074984E-04 +1.703733E-04 +6.815853E-05 
 -6.794138E-05 -2.819413E-05 +1.202941E-04 -2.819413E-05 +5.119691E-03 +1.026722E-04 +1.202941E-04 +1.026722E-04 -2.277302E-05 
 -4.099001E-04 +1.250506E-04 +6.718874E-05 +1.250506E-04 +5.154530E-03 +1.070793E-04 +6.718874E-05 +1.070793E-04 +1.447978E-04 
 -1.578497E-04 +1.029340E-04 -8.368190E-05 +1.029340E-04 +5.039736E-03 +1.268771E-04 -8.368190E-05 +1.268771E-04 +1.625458E-04 
 +1.596617E-04 -1.321499E-05 -6.724054E-05 -1.321499E-05 +4.833227E-03 +1.472105E-04 -6.724054E-05 +1.472105E-04 -1.717301E-05 
 +1.336143E-04 -1.127721E-04 +8.863266E-05 -1.127721E-04 +4.775208E-03 +1.726646E-04 +8.863266E-05 +1.726646E-04 -5.086438E-05 
 +6.272383E-05 +6.554555E-05 +2.174847E-04 +6.554555E-05 +4.876568E-03 +1.075932E-04 +2.174847E-04 +1.075932E-04 -2.447660E-05 
 -9.002585E-05 +5.233315E-05 +1.404846E-04 +5.233315E-05 +4.935009E-03 +6.813152E-05 +1.404846E-04 +6.813152E-05 +1.506820E-05 
 -1.279456E-04 +7.864630E-05 +1.163179E-04 +7.864630E-05 +4.802362E-03 +1.243114E-04 +1.163179E-04 +1.243114E-04 +1.230881E-04 
 +9.331929E-06 +7.224226E-05 +9.848482E-05 +7.224226E-05 +4.653791E-03 +1.606736E-04 +9.848482E-05 +1.606736E-04 +2.343145E-04 
 +2.728159E-04 +1.912155E-04 +1.299758E-04 +1.912155E-04 +4.638996E-03 +7.786294E-05 +1.299758E-04 +7.786294E-05 +1.979005E-04 
 +3.857114E-04 +2.800909E-04 +7.082229E-05 +2.800909E-04 +4.649995E-03 -2.089031E-05 +7.082229E-05 -2.089031E-05 +6.620820E-05 
 +3.972395E-04 +2.766336E-04 +1.059380E-04 +2.766336E-04 +4.654321E-03 -4.767524E-05 +1.059380E-04 -4.767524E-05 +8.615055E-06 
 +3.686347E-04 +2.131620E-04 +1.242163E-04 +2.131620E-04 +4.769951E-03 -1.259118E-04 +1.242163E-04 -1.259118E-04 +6.896717E-06 
 +1.430768E-04 +4.872717E-05 +2.123708E-06 +4.872717E-05 +4.996771E-03 -1.715116E-04 +2.123708E-06 -1.715116E-04 -9.061672E-05 
 -8.839215E-05 -9.507767E-05 +1.698479E-04 -9.507767E-05 +5.244324E-03 -9.438108E-05 +1.698479E-04 -9.438108E-05 -2.119647E-04 
 -1.016107E-04 -1.112219E-04 +2.008716E-04 -1.112219E-04 +5.377111E-03 -4.552280E-05 +2.008716E-04 -4.552280E-05 -2.721776E-04 
 -9.203565E-05 -6.146007E-05 +3.064720E-04 -6.146007E-05 +5.333724E-03 -1.525502E-05 +3.064720E-04 -1.525502E-05 -2.805294E-04 
 -5.509362E-05 +1.859590E-05 +3.665991E-04 +1.859590E-05 +5.197234E-03 +1.307960E-05 +3.665991E-04 +1.307960E-05 -2.273222E-04 
 -5.587757E-05 -3.430557E-05 +2.157160E-04 -3.430557E-05 +5.179933E-03 +5.118770E-05 +2.157160E-04 +5.118770E-05 -2.503773E-05 
 -4.018103E-04 -3.688003E-05 +1.595295E-04 -3.688003E-05 +5.273695E-03 +1.486939E-04 +1.595295E-04 +1.486939E-04 +1.773573E-04 
 -2.948734E-04 +4.704207E-05 +1.939350E-04 +4.704207E-05 +5.149058E-03 +7.270972E-05 +1.939350E-04 +7.270972E-05 +1.955773E-04 
 -2.022266E-04 +3.703788E-05 +1.088512E-04 +3.703788E-05 +5.091517E-03 +1.004280E-04 +1.088512E-04 +1.004280E-04 +1.394844E-04 
 -3.805465E-04 +7.476664E-05 +9.579610E-05 +7.476664E-05 +5.015235E-03 +1.504800E-04 +9.579610E-05 +1.504800E-04 +2.291389E-04 
 +6.751623E-05 -3.407102E-05 -1.065663E-04 -3.407102E-05 +4.803955E-03 +1.567408E-04 -1.065663E-04 +1.567408E-04 +2.432862E-04 
 +1.526280E-04 +1.171273E-05 +1.521936E-05 +1.171273E-05 +4.721092E-03 +1.417645E-04 +1.521936E-05 +1.417645E-04 +1.408600E-04 
 +1.391933E-04 +2.105788E-06 +8.484815E-05 +2.105788E-06 +4.794054E-03 +1.540048E-04 +8.484815E-05 +1.540048E-04 +6.925500E-05 
 +6.463901E-05 +2.353461E-04 +2.379715E-04 +2.353461E-04 +4.845659E-03 +1.086079E-04 +2.379715E-04 +1.086079E-04 +2.295265E-05 
 +2.074578E-05 +1.378806E-04 +1.977924E-04 +1.378806E-04 +4.850942E-03 +7.177768E-05 +1.977924E-04 +7.177768E-05 +3.645523E-05 
 +4.410210E-05 +9.838940E-06 +1.522626E-04 +9.838940E-06 +4.809771E-03 +9.441307E-05 +1.522626E-04 +9.441307E-05 +1.181235E-04 
 +4.957025E-05 -8.384664E-05 +1.214299E-04 -8.384664E-05 +4.738291E-03 +8.030655E-05 +1.214299E-04 +8.030655E-05 +2.022192E-04 
 +1.257643E-04 +5.092397E-05 +1.149284E-04 +5.092397E-05 +4.636164E-03 +2.837237E-05 +1.149284E-04 +2.837237E-05 +2.294672E-04 
 +2.952568E-04 +1.858697E-04 +5.251763E-05 +1.858697E-04 +4.593295E-03 +1.007721E-05 +5.251763E-05 +1.007721E-05 +1.662915E-04 
 +4.053879E-04 +2.709987E-04 +3.415567E-05 +2.709987E-04 +4.678948E-03 -3.907976E-06 +3.415567E-05 -3.907976E-06 +6.256291E-05 
 +2.773864E-04 +2.092327E-04 +1.002824E-04 +2.092327E-04 +4.789761E-03 -2.980248E-05 +1.002824E-04 -2.980248E-05 +4.829585E-05 
 +5.746780E-05 +3.737994E-05 +2.527883E-05 +3.737994E-05 +4.942312E-03 +1.052037E-06 +2.527883E-05 +1.052037E-06 +4.405917E-06 
 -7.371043E-05 -3.318319E-05 +8.420020E-05 -3.318319E-05 +5.201818E-03 -1.600043E-05 +8.420020E-05 -1.600043E-05 -4.463257E-05 
 -4.637696E-05 -1.276067E-04 +1.051959E-04 -1.276067E-04 +5.305797E-03 -6.299955E-05 +1.051959E-04 -6.299955E-05 -6.776434E-05 
 +4.753129E-05 -1.354991E-04 +2.910047E-04 -1.354991E-04 +5.190804E-03 -1.765809E-05 +2.910047E-04 -1.765809E-05 -1.797866E-04 
 -2.604387E-05 -6.749206E-05 +3.086081E-04 -6.749206E-05 +5.126556E-03 -3.095046E-06 +3.086081E-04 -3.095046E-06 -8.938081E-05 
 -2.513186E-04 -1.039086E-04 +2.835163E-04 -1.039086E-04 +5.193131E-03 +4.181667E-07 +2.835163E-04 +4.181667E-07 +1.884102E-04 
 -4.721391E-04 -5.021957E-05 +2.858947E-04 -5.021957E-05 +5.231672E-03 +4.482140E-05 +2.858947E-04 +4.482140E-05 +2.991319E-04 
 -3.255777E-04 -2.183748E-05 +1.794079E-04 -2.183748E-05 +5.153683E-03 -2.856090E-05 +1.794079E-04 -2.856090E-05 +3.175406E-04 
 -3.804574E-04 +2.796278E-05 +1.067527E-04 +2.796278E-05 +5.131415E-03 +3.192419E-05 +1.067527E-04 +3.192419E-05 +3.305919E-04 
 -2.248834E-04 +5.688403E-05 +7.991017E-05 +5.688403E-05 +4.952063E-03 +1.073713E-04 +7.991017E-05 +1.073713E-04 +3.045058E-04 
 +1.600160E-04 -4.043207E-05 -4.082558E-05 -4.043207E-05 +4.717457E-03 +1.381446E-04 -4.082558E-05 +1.381446E-04 +2.435381E-04 
 +1.957039E-04 +4.065048E-05 +7.637098E-05 +4.065048E-05 +4.651206E-03 +1.982827E-04 +7.637098E-05 +1.982827E-04 +1.810351E-04 
 +1.764346E-04 +5.391860E-05 +1.004855E-04 +5.391860E-05 +4.745924E-03 +2.463646E-04 +1.004855E-04 +2.463646E-04 +1.233955E-04 
 +1.153113E-04 +2.365301E-04 +2.127032E-04 +2.365301E-04 +4.795963E-03 +1.521292E-04 +2.127032E-04 +1.521292E-04 +1.005611E-04 
 +7.115985E-05 +1.740861E-04 +2.068546E-04 +1.740861E-04 +4.822839E-03 +2.416757E-05 +2.068546E-04 +2.416757E-05 +9.817932E-05 
 +9.377140E-05 +4.686204E-06 +1.508833E-04 +4.686204E-06 +4.838019E-03 +1.649997E-05 +1.508833E-04 +1.649997E-05 +1.166744E-04 
 -6.547693E-07 -6.659538E-05 +1.333710E-04 -6.659538E-05 +4.803976E-03 +5.037190E-05 +1.333710E-04 +5.037190E-05 +1.509125E-04 
 -1.533823E-05 +1.940933E-05 +1.265041E-04 +1.940933E-05 +4.799073E-03 +5.627119E-05 +1.265041E-04 +5.627119E-05 +1.951245E-04 
 +1.509585E-04 +8.238450E-05 +8.141154E-05 +8.238450E-05 +4.664627E-03 +1.244808E-05 +8.141154E-05 +1.244808E-05 +1.911594E-04 
 +3.163323E-04 +1.959877E-04 +2.676526E-05 +1.959877E-04 +4.661031E-03 +4.165924E-05 +2.676526E-05 +4.165924E-05 +1.420865E-04 
 +1.998229E-04 +6.073546E-05 +2.455391E-06 +6.073546E-05 +4.820933E-03 +1.010790E-04 +2.455391E-06 +1.010790E-04 +1.618013E-04 
 +8.845714E-05 +2.268311E-05 -4.454412E-05 +2.268311E-05 +4.848567E-03 +1.635734E-04 -4.454412E-05 +1.635734E-04 +2.224403E-04 
 +9.969448E-05 +5.206071E-05 -9.559535E-05 +5.206071E-05 +4.835040E-03 +2.255826E-04 -9.559535E-05 +2.255826E-04 +2.248913E-04 
 +9.602111E-05 -3.664004E-05 -4.829530E-05 -3.664004E-05 +4.927411E-03 +1.268963E-04 -4.829530E-05 +1.268963E-04 +1.643875E-04 
 -2.323595E-05 -1.336523E-04 +2.410959E-04 -1.336523E-04 +5.072573E-03 -2.501018E-05 +2.410959E-04 -2.501018E-05 +3.620420E-05 
 -1.149330E-04 -1.713371E-04 +2.361415E-04 -1.713371E-04 +5.131745E-03 -9.004550E-05 +2.361415E-04 -9.004550E-05 +1.071698E-04 
 -3.274905E-04 -1.096520E-04 +2.974610E-04 -1.096520E-04 +5.130704E-03 -6.867113E-05 +2.974610E-04 -6.867113E-05 +3.069076E-04 
 -3.512074E-04 -3.693769E-05 +2.946532E-04 -3.693769E-05 +5.142624E-03 -2.080421E-05 +2.946532E-04 -2.080421E-05 +3.399597E-04 
 -3.297163E-04 -1.458832E-05 +1.210441E-04 -1.458832E-05 +5.145148E-03 -2.571160E-05 +1.210441E-04 -2.571160E-05 +3.387726E-04 
 -3.083567E-04 +3.295667E-05 +1.987538E-05 +3.295667E-05 +5.020493E-03 -2.010611E-05 +1.987538E-05 -2.010611E-05 +3.603260E-04 
 -8.070496E-05 +1.375300E-05 +7.722303E-05 +1.375300E-05 +4.714270E-03 +1.725162E-05 +7.722303E-05 +1.725162E-05 +3.582214E-04 
 +8.034986E-05 -2.274638E-05 +5.549379E-05 -2.274638E-05 +4.629182E-03 +1.272603E-04 +5.549379E-05 +1.272603E-04 +2.717738E-04 
 +1.245067E-04 +1.210789E-05 +1.324549E-04 +1.210789E-05 +4.671961E-03 +2.259361E-04 +1.324549E-04 +2.259361E-04 +1.663102E-04 
 +1.503723E-04 -3.559918E-07 +1.388338E-04 -3.559918E-07 +4.673460E-03 +2.945800E-04 +1.388338E-04 +2.945800E-04 +1.644373E-04 
 +1.441496E-04 +7.379477E-05 +1.596831E-04 +7.379477E-05 +4.724514E-03 +2.106167E-04 +1.596831E-04 +2.106167E-04 +1.865635E-04 
 +1.678246E-04 +8.552458E-05 +1.496037E-04 +8.552458E-05 +4.829157E-03 +2.643094E-05 +1.496037E-04 +2.643094E-05 +1.119036E-04 
 +1.162057E-04 -1.626615E-04 +1.030186E-04 -1.626615E-04 +4.938267E-03 -7.113029E-05 +1.030186E-04 -7.113029E-05 +5.311459E-05 
 -5.946384E-05 -2.132942E-04 +1.212096E-04 -2.132942E-04 +5.038695E-03 -9.589705E-05 +1.212096E-04 -9.589705E-05 +6.371480E-05 
 -9.608813E-05 -1.139990E-04 +1.533758E-04 -1.139990E-04 +5.110681E-03 -8.036373E-05 +1.533758E-04 -8.036373E-05 +9.966851E-05 
 -4.440970E-05 -5.597364E-05 +1.895236E-04 -5.597364E-05 +5.096706E-03 -9.502238E-05 +1.895236E-04 -9.502238E-05 +9.011840E-05 
 +8.342873E-05 +1.378432E-04 +1.634084E-04 +1.378432E-04 +4.941656E-03 -6.722418E-05 +1.634084E-04 -6.722418E-05 +1.106084E-04 
 +3.168145E-04 +9.172894E-05 -1.310520E-04 +9.172894E-05 +4.827327E-03 +2.430639E-05 -1.310520E-04 +2.430639E-05 +1.405095E-04 
 +2.401910E-04 +3.025533E-05 -1.098572E-04 +3.025533E-05 +4.821804E-03 +7.400691E-05 -1.098572E-04 +7.400691E-05 +2.014825E-04 
 +2.448435E-04 +2.396821E-05 -1.256060E-04 +2.396821E-05 +4.733161E-03 +1.314933E-04 -1.256060E-04 +1.314933E-04 +2.826410E-04 
 +2.519497E-04 +3.530528E-06 -1.505826E-04 +3.530528E-06 +4.787093E-03 +1.158522E-04 -1.505826E-04 +1.158522E-04 +2.845099E-04 
 -1.205641E-04 -5.612939E-05 +1.416655E-04 -5.612939E-05 +5.026626E-03 -5.850289E-05 +1.416655E-04 -5.850289E-05 +2.535713E-04 
 -2.498878E-04 -1.220633E-04 +2.648214E-04 -1.220633E-04 +5.101590E-03 -1.121215E-04 +2.648214E-04 -1.121215E-04 +2.760657E-04 
 -2.995307E-04 -7.369402E-05 +3.057182E-04 -7.369402E-05 +5.082429E-03 -3.969829E-05 +3.057182E-04 -3.969829E-05 +3.440246E-04 
 -3.320040E-04 -5.335976E-05 +2.570692E-04 -5.335976E-05 +5.107783E-03 -3.421153E-05 +2.570692E-04 -3.421153E-05 +3.618527E-04 
 -1.976687E-04 -5.367270E-05 +4.033620E-05 -5.367270E-05 +5.017422E-03 -3.972037E-05 +4.033620E-05 -3.972037E-05 +3.540105E-04 
 -1.631429E-05 +3.437871E-06 -9.293483E-05 +3.437871E-06 +4.899365E-03 -6.544186E-05 -9.293483E-05 -6.544186E-05 +3.110800E-04 
 -4.697236E-05 +8.837837E-05 +6.296840E-05 +8.837837E-05 +4.962508E-03 -1.514123E-04 +6.296840E-05 -1.514123E-04 +3.046699E-04 
 -7.041708E-05 +1.131160E-04 +1.452772E-04 +1.131160E-04 +5.066869E-03 -9.672866E-05 +1.452772E-04 -9.672866E-05 +2.402712E-04 
 -2.324769E-05 +8.985534E-05 +1.718740E-04 +8.985534E-05 +5.111695E-03 +4.771578E-05 +1.718740E-04 +4.771578E-05 +8.976934E-05 
 -1.118018E-06 +7.959263E-05 +2.408513E-04 +7.959263E-05 +5.171999E-03 +6.541708E-05 +2.408513E-04 +6.541708E-05 +5.643722E-05 
 +1.078459E-06 +3.317791E-05 +2.525943E-04 +3.317791E-05 +5.172119E-03 +1.273141E-05 +2.525943E-04 +1.273141E-05 +5.459876E-05 
 +3.416100E-04 -1.116136E-05 +8.910899E-05 -1.116136E-05 +5.058485E-03 -9.047737E-05 +8.910899E-05 -9.047737E-05 +4.597887E-05 
 +1.291274E-04 -1.987349E-04 +1.049391E-04 -1.987349E-04 +4.974610E-03 -1.114168E-04 +1.049391E-04 -1.114168E-04 +3.252525E-05 
 -5.283178E-05 -1.525060E-04 +1.402728E-04 -1.525060E-04 +5.032461E-03 -6.767341E-05 +1.402728E-04 -6.767341E-05 +1.891211E-05 
 -1.156399E-04 -1.087511E-04 +2.135452E-04 -1.087511E-04 +5.086021E-03 -7.241417E-05 +2.135452E-04 -7.241417E-05 +4.879410E-05 
 -1.068924E-04 -2.230618E-05 +2.354463E-04 -2.230618E-05 +5.082748E-03 -7.829207E-05 +2.354463E-04 -7.829207E-05 +6.649587E-05 
 -7.499378E-05 +1.448567E-04 +2.465668E-04 +1.448567E-04 +4.983357E-03 -1.258942E-04 +2.465668E-04 -1.258942E-04 +9.393167E-05 
 +3.996277E-04 +1.622719E-04 -1.353264E-04 +1.622719E-04 +4.803828E-03 -1.213575E-04 -1.353264E-04 -1.213575E-04 +7.293431E-05 
 +3.495888E-04 +5.338733E-05 -1.001045E-04 +5.338733E-05 +4.738877E-03 +5.006606E-05 -1.001045E-04 +5.006606E-05 +9.248137E-05 
 +2.800165E-04 -2.009468E-05 -8.043859E-05 -2.009468E-05 +4.762789E-03 +1.660799E-04 -8.043859E-05 +1.660799E-04 +1.863610E-04 
 +2.441288E-04 -3.855923E-05 -7.951270E-05 -3.855923E-05 +4.756524E-03 +1.554502E-04 -7.951270E-05 +1.554502E-04 +2.714802E-04 
 +9.331198E-05 -3.924561E-05 +1.791399E-05 -3.924561E-05 +4.785646E-03 +8.060103E-05 +1.791399E-05 +8.060103E-05 +3.554333E-04 
 -3.794363E-04 -6.192784E-05 +2.992328E-04 -6.192784E-05 +4.988401E-03 -1.321498E-05 +2.992328E-04 -1.321498E-05 +4.042540E-04 
 -3.880432E-04 -7.170633E-05 +2.710439E-04 -7.170633E-05 +5.121139E-03 -4.424344E-05 +2.710439E-04 -4.424344E-05 +4.196735E-04 
 -3.650266E-04 -8.922807E-05 +2.055015E-04 -8.922807E-05 +5.108256E-03 -4.840199E-05 +2.055015E-04 -4.840199E-05 +4.007045E-04 
 -7.450908E-05 -8.939913E-05 -2.420021E-05 -8.939913E-05 +4.896407E-03 -2.382190E-05 -2.420021E-05 -2.382190E-05 +3.293968E-04 
 +7.418470E-05 -1.230008E-04 -1.005808E-04 -1.230008E-04 +4.835127E-03 +2.547437E-05 -1.005808E-04 +2.547437E-05 +2.083708E-04 
 +4.844017E-05 -7.116266E-05 -4.957953E-05 -7.116266E-05 +4.923082E-03 +6.170353E-05 -4.957953E-05 +6.170353E-05 +1.491767E-04 
 -1.177304E-04 +2.458104E-05 +1.582099E-04 +2.458104E-05 +5.088834E-03 +3.301134E-05 +1.582099E-04 +3.301134E-05 +1.158725E-04 
 -1.781211E-04 +4.674283E-05 +2.475815E-04 +4.674283E-05 +5.223295E-03 +8.138286E-05 +2.475815E-04 +8.138286E-05 -2.733192E-06 
 -1.327849E-04 +4.416819E-05 +3.186851E-04 +4.416819E-05 +5.253426E-03 +7.879451E-05 +3.186851E-04 +7.879451E-05 -7.159682E-05 
 +1.072039E-04 +1.343723E-04 +3.214778E-04 +1.343723E-04 +5.124573E-03 +1.565352E-05 +3.214778E-04 +1.565352E-05 -1.210609E-04 
 +4.935023E-04 +2.392875E-04 +7.982359E-05 +2.392875E-04 +4.891796E-03 -5.602676E-05 +7.982359E-05 -5.602676E-05 -1.070061E-04 
 +3.919834E-05 +1.230744E-04 +1.944153E-04 +1.230744E-04 +4.942697E-03 -1.235539E-04 +1.944153E-04 -1.235539E-04 -1.408100E-05 
 -9.289780E-05 -1.895189E-05 +1.882606E-04 -1.895189E-05 +5.074230E-03 -9.115443E-05 +1.882606E-04 -9.115443E-05 +1.081282E-05 
 -1.446192E-04 -3.492579E-05 +2.150741E-04 -3.492579E-05 +5.035182E-03 -8.086638E-05 +2.150741E-04 -8.086638E-05 +2.588687E-05 
 -1.523275E-04 +4.168456E-05 +2.272443E-04 +4.168456E-05 +5.050907E-03 -3.461250E-05 +2.272443E-04 -3.461250E-05 +1.124148E-04 
 -5.678977E-05 +1.145081E-04 +1.964795E-04 +1.145081E-04 +4.993819E-03 -6.610261E-05 +1.964795E-04 -6.610261E-05 +1.416185E-04 
 +3.560217E-04 +1.790706E-04 -6.150726E-05 +1.790706E-04 +4.791782E-03 -2.060750E-04 -6.150726E-05 -2.060750E-04 +7.097513E-05 
 +3.214151E-04 +1.274916E-04 +1.308769E-06 +1.274916E-04 +4.706793E-03 -1.126699E-04 +1.308769E-06 -1.126699E-04 +8.130810E-05 
 +2.484006E-04 +5.011800E-06 -2.356958E-05 +5.011800E-06 +4.782965E-03 +1.215207E-04 -2.356958E-05 +1.215207E-04 +1.562210E-04 
 +2.154339E-04 -2.485808E-05 -7.254020E-06 -2.485808E-05 +4.817695E-03 +2.048087E-04 -7.254020E-06 +2.048087E-04 +2.544535E-04 
 +1.908013E-04 -5.719301E-05 -2.630637E-05 -5.719301E-05 +4.856732E-03 +1.398691E-04 -2.630637E-05 +1.398691E-04 +3.931629E-04 
 -4.163702E-04 -9.726395E-05 +2.527866E-04 -9.726395E-05 +4.980448E-03 +3.447760E-05 +2.527866E-04 +3.447760E-05 +5.071661E-04 
 -3.784998E-04 -1.121762E-04 +1.670173E-04 -1.121762E-04 +5.096583E-03 -5.758754E-05 +1.670173E-04 -5.758754E-05 +4.928303E-04 
 -3.500926E-04 -6.324763E-05 +1.871459E-04 -6.324763E-05 +5.053407E-03 -5.551841E-05 +1.871459E-04 -5.551841E-05 +4.100303E-04 
 -1.246065E-04 -9.897735E-05 -5.639886E-05 -9.897735E-05 +4.954469E-03 +1.330583E-05 -5.639886E-05 +1.330583E-05 +2.623410E-04 
 -4.495801E-05 -1.163106E-04 -8.511721E-05 -1.163106E-04 +4.987373E-03 +2.678508E-05 -8.511721E-05 +2.678508E-05 +1.097370E-04 
 +9.737851E-06 -1.140996E-04 -6.976130E-05 -1.140996E-04 +4.952965E-03 +1.272430E-04 -6.976130E-05 +1.272430E-04 +3.628906E-05 
 -2.052299E-05 -5.526998E-05 +4.338543E-05 -5.526998E-05 +4.957979E-03 +1.951234E-04 +4.338543E-05 +1.951234E-04 +4.070667E-05 
 -9.136183E-05 +7.578239E-05 +2.925269E-04 +7.578239E-05 +5.065369E-03 +1.323996E-04 +2.925269E-04 +1.323996E-04 -1.039209E-05 
 +2.133268E-05 +1.612618E-04 +3.479237E-04 +1.612618E-04 +4.952571E-03 +9.164276E-05 +3.479237E-04 +9.164276E-05 -6.513770E-05 
 +3.560318E-04 +3.004052E-04 +2.716521E-04 +3.004052E-04 +4.824735E-03 +9.001602E-05 +2.716521E-04 +9.001602E-05 -1.550757E-04 
 +3.731852E-04 +1.671267E-04 +1.372378E-04 +1.671267E-04 +4.912872E-03 +8.179056E-05 +1.372378E-04 +8.179056E-05 -2.574688E-04 
 +1.865750E-05 +2.099141E-04 +2.290374E-04 +2.099141E-04 +5.019046E-03 +2.723112E-05 +2.290374E-04 +2.723112E-05 -1.274368E-04 
 -1.205206E-04 +9.613464E-05 +1.594055E-04 +9.613464E-05 +5.083890E-03 -4.320896E-05 +1.594055E-04 -4.320896E-05 -1.226802E-05 
 -2.648844E-04 +9.590508E-05 +2.192801E-04 +9.590508E-05 +5.083240E-03 -6.350587E-05 +2.192801E-04 -6.350587E-05 +1.101194E-05 
 -2.241150E-04 +1.106361E-04 +2.453943E-04 +1.106361E-04 +4.994927E-03 -9.978540E-05 +2.453943E-04 -9.978540E-05 +1.515476E-04 
 +2.357440E-05 +1.392682E-04 +1.522308E-04 +1.392682E-04 +4.809580E-03 -2.344905E-04 +1.522308E-04 -2.344905E-04 +1.579496E-04 
 +1.594273E-04 +1.426306E-04 +9.406832E-05 +1.426306E-04 +4.744002E-03 -2.633536E-04 +9.406832E-05 -2.633536E-04 +6.623420E-05 
 +2.227379E-04 +1.078118E-04 +9.088593E-05 +1.078118E-04 +4.764010E-03 -1.604194E-04 +9.088593E-05 -1.604194E-04 +9.499722E-05 
 +2.199213E-04 +1.249444E-05 +5.736922E-05 +1.249444E-05 +4.768073E-03 -2.336726E-05 +5.736922E-05 -2.336726E-05 +1.488845E-04 
 +1.995108E-04 -3.895213E-05 +3.027454E-05 -3.895213E-05 +4.827042E-03 +1.480912E-04 +3.027454E-05 +1.480912E-04 +2.240131E-04 
 +8.484755E-05 -4.729673E-05 +2.728604E-05 -4.729673E-05 +4.935577E-03 +1.942433E-04 +2.728604E-05 +1.942433E-04 +3.193567E-04 
 -3.563760E-04 -7.901503E-05 +2.130805E-04 -7.901503E-05 +4.964986E-03 +1.193476E-04 +2.130805E-04 +1.193476E-04 +4.338583E-04 
 -2.154236E-04 -9.062222E-05 +7.581923E-05 -9.062222E-05 +4.913911E-03 +1.035425E-04 +7.581923E-05 +1.035425E-04 +4.521857E-04 
 -2.262750E-04 -6.004321E-05 +1.028014E-04 -6.004321E-05 +4.906796E-03 +6.996658E-05 +1.028014E-04 +6.996658E-05 +3.777160E-04 
 -1.856477E-04 -1.027133E-04 -8.540946E-05 -1.027133E-04 +5.023521E-03 +6.087206E-05 -8.540946E-05 +6.087206E-05 +1.876061E-04 
 -8.094751E-05 -1.022130E-04 -1.066328E-04 -1.022130E-04 +5.107224E-03 +4.903393E-05 -1.066328E-04 +4.903393E-05 -1.331589E-05 
 -1.000957E-04 -1.094814E-04 -3.140512E-05 -1.094814E-04 +5.042066E-03 +7.786546E-05 -3.140512E-05 +7.786546E-05 -4.572220E-05 
 +2.536232E-05 -2.319077E-06 +1.201907E-05 -2.319077E-06 +4.835285E-03 +1.315997E-04 +1.201907E-05 +1.315997E-04 +2.723320E-05 
 +1.996368E-04 +1.474384E-04 +2.010154E-04 +1.474384E-04 +4.702491E-03 +8.823394E-05 +2.010154E-04 +8.823394E-05 +3.018466E-05 
 +2.189072E-04 +4.116948E-05 +2.876046E-04 +4.116948E-05 +4.761656E-03 +2.283555E-05 +2.876046E-04 +2.283555E-05 -4.662105E-05 
 +2.202879E-04 +9.688055E-05 +2.006576E-04 +9.688055E-05 +4.826971E-03 +1.962448E-05 +2.006576E-04 +1.962448E-05 -1.227489E-04 
 +1.520098E-04 -3.299290E-05 +1.576349E-04 -3.299290E-05 +4.852255E-03 +3.137666E-05 +1.576349E-04 +3.137666E-05 -1.792034E-04 
 +1.341336E-04 -1.627538E-05 +1.931931E-04 -1.627538E-05 +4.804288E-03 +5.046043E-06 +1.931931E-04 +5.046043E-06 -1.364443E-04 
 +7.441850E-05 -4.344182E-05 +1.353024E-04 -4.344182E-05 +4.860217E-03 -4.375410E-05 +1.353024E-04 -4.375410E-05 -7.408294E-05 
 -2.370320E-04 +9.641772E-05 +2.312032E-04 +9.641772E-05 +5.029979E-03 -2.598802E-05 +2.312032E-04 -2.598802E-05 -1.624998E-05 
 -2.199321E-04 +1.783639E-04 +2.154529E-04 +1.783639E-04 +5.047980E-03 -7.440399E-05 +2.154529E-04 -7.440399E-05 +1.390304E-04 
 -1.025381E-04 +1.697774E-04 +1.797374E-04 +1.697774E-04 +5.087155E-03 -1.477456E-04 +1.797374E-04 -1.477456E-04 +1.722715E-04 
 -7.549845E-05 +1.307194E-04 +1.977172E-04 +1.307194E-04 +5.037084E-03 -1.769801E-04 +1.977172E-04 -1.769801E-04 +1.486015E-04 
 +1.179067E-04 +1.074651E-04 +1.488683E-04 +1.074651E-04 +4.837549E-03 -1.989712E-04 +1.488683E-04 -1.989712E-04 +1.788747E-04 
 +8.826413E-05 -6.376280E-06 +1.568380E-04 -6.376280E-06 +4.736465E-03 -8.394089E-05 +1.568380E-04 -8.394089E-05 +1.892653E-04 
 +7.650112E-05 -9.433156E-05 +1.245701E-04 -9.433156E-05 +4.787765E-03 +1.323954E-04 +1.245701E-04 +1.323954E-04 +1.760862E-04 
 +1.129723E-04 -5.918547E-05 +5.690859E-05 -5.918547E-05 +4.937765E-03 +2.416015E-04 +5.690859E-05 +2.416015E-04 +1.801663E-04 
 -1.763325E-04 -1.233468E-04 +7.596122E-05 -1.233468E-04 +4.967036E-03 +1.869773E-04 +7.596122E-05 +1.869773E-04 +3.116608E-04 
 -1.163185E-04 -9.578236E-05 +2.524634E-05 -9.578236E-05 +4.891352E-03 +1.100275E-04 +2.524634E-05 +1.100275E-04 +3.742923E-04 
 -1.260350E-04 -8.654278E-05 -1.672401E-05 -8.654278E-05 +4.924051E-03 +8.570156E-05 -1.672401E-05 +8.570156E-05 +3.290657E-04 
 -1.256639E-04 -6.229551E-05 -1.115992E-04 -6.229551E-05 +5.028763E-03 +7.785227E-05 -1.115992E-04 +7.785227E-05 +1.676411E-04 
 +1.413145E-05 -6.050378E-05 -1.292050E-04 -6.050378E-05 +5.132314E-03 +3.646682E-05 -1.292050E-04 +3.646682E-05 -4.562083E-05 
 -6.512604E-05 -1.049740E-04 -1.408144E-05 -1.049740E-04 +5.017840E-03 +5.891275E-05 -1.408144E-05 +5.891275E-05 -2.002178E-05 
 +2.251623E-05 -2.627156E-06 +5.268439E-05 -2.627156E-06 +4.768834E-03 +6.931266E-05 +5.268439E-05 +6.931266E-05 +5.544731E-05 
 +2.827886E-04 +2.025421E-04 +1.370284E-04 +2.025421E-04 +4.665206E-03 +4.173765E-05 +1.370284E-04 +4.173765E-05 +3.708017E-05 
 +1.582404E-04 +4.477390E-05 +2.040662E-04 +4.477390E-05 +4.782341E-03 +4.951785E-05 +2.040662E-04 +4.951785E-05 -3.810288E-05 
 +6.837837E-05 +3.887075E-05 +1.836485E-04 +3.887075E-05 +4.866091E-03 +4.148939E-05 +1.836485E-04 +4.148939E-05 -7.821737E-05 
 +8.286684E-05 -4.059294E-07 +1.567535E-04 -4.059294E-07 +4.850367E-03 +2.000579E-05 +1.567535E-04 +2.000579E-05 -6.687581E-05 
 +1.323485E-04 -4.395023E-05 +1.650347E-04 -4.395023E-05 +4.807795E-03 +1.924119E-05 +1.650347E-04 +1.924119E-05 -9.114895E-05 
 +1.790084E-04 -6.910913E-05 +1.450051E-04 -6.910913E-05 +4.776163E-03 +1.065156E-05 +1.450051E-04 +1.065156E-05 -1.094785E-04 
 +7.303501E-05 -6.415210E-05 +1.507706E-04 -6.415210E-05 +4.785796E-03 -2.596407E-05 +1.507706E-04 -2.596407E-05 -5.577034E-05 
 -2.114130E-04 +7.134450E-05 +1.526575E-04 +7.134450E-05 +4.960148E-03 -8.426721E-05 +1.526575E-04 -8.426721E-05 +9.292934E-05 
 -2.339617E-04 +8.779298E-05 +1.759008E-04 +8.779298E-05 +5.120683E-03 -1.036663E-04 +1.759008E-04 -1.036663E-04 +1.692950E-04 
 -1.577789E-04 +6.944581E-05 +1.760360E-04 +6.944581E-05 +5.125796E-03 -1.198196E-04 +1.760360E-04 -1.198196E-04 +1.885649E-04 
 -6.117969E-05 +4.789438E-05 +1.912711E-04 +4.789438E-05 +5.101658E-03 -1.547595E-04 +1.912711E-04 -1.547595E-04 +2.390500E-04 
 -1.109585E-04 -2.114381E-07 +2.068214E-04 -2.114381E-07 +5.080894E-03 -1.596561E-04 +2.068214E-04 -1.596561E-04 +2.685303E-04 
 -7.679416E-05 -6.014742E-05 +1.750167E-04 -6.014742E-05 +5.017539E-03 -1.149931E-04 +1.750167E-04 -1.149931E-04 +1.993088E-04 
 +2.080184E-04 +3.859678E-05 +6.055844E-06 +3.859678E-05 +4.965611E-03 -3.781441E-05 +6.055844E-06 -3.781441E-05 +1.360510E-04 
 +2.290807E-05 -1.781768E-04 -7.663022E-05 -1.781768E-04 +4.955576E-03 +7.457560E-05 -7.663022E-05 +7.457560E-05 +2.401824E-04 
 -6.939942E-05 -1.363701E-04 -3.554905E-05 -1.363701E-04 +4.919372E-03 +1.301213E-04 -3.554905E-05 +1.301213E-04 +2.996376E-04 
 -1.319394E-04 -1.089729E-04 -6.600723E-05 -1.089729E-04 +4.914092E-03 +1.161958E-04 -6.600723E-05 +1.161958E-04 +2.986959E-04 
 +5.569009E-05 +2.519668E-05 -8.580044E-05 +2.519668E-05 +4.596714E-03 +5.221643E-05 -8.580044E-05 +5.221643E-05 +2.469086E-04 
 +1.426570E-04 -2.044060E-05 -1.067061E-04 -2.044060E-05 +4.562599E-03 +7.568622E-05 -1.067061E-04 +7.568622E-05 +1.344875E-04 
 +9.918211E-05 -6.453799E-05 +1.049903E-05 -6.453799E-05 +4.629787E-03 +2.328092E-05 +1.049903E-05 +2.328092E-05 +9.859901E-05 
 -8.084252E-05 -2.971650E-05 +1.255606E-04 -2.971650E-05 +4.697587E-03 +1.648265E-05 +1.255606E-04 +1.648265E-05 +1.024945E-04 
 +1.535674E-04 +2.069445E-04 +1.901536E-04 +2.069445E-04 +4.713716E-03 +4.848156E-05 +1.901536E-04 +4.848156E-05 +4.608802E-05 
 +7.400523E-05 +1.067912E-04 +2.140162E-04 +1.067912E-04 +4.831190E-03 +6.136222E-05 +2.140162E-04 +6.136222E-05 -2.718882E-05 
 +1.055303E-05 +2.968573E-05 +2.049525E-04 +2.968573E-05 +4.921245E-03 +6.637796E-05 +2.049525E-04 +6.637796E-05 -4.313967E-05 
 +5.465051E-05 -4.845377E-05 +1.642136E-04 -4.845377E-05 +4.882585E-03 +4.245586E-05 +1.642136E-04 +4.245586E-05 -5.760347E-05 
 +1.059392E-04 -7.900685E-05 +1.406827E-04 -7.900685E-05 +4.828443E-03 +3.977301E-05 +1.406827E-04 +3.977301E-05 -8.282520E-05 
 +1.360252E-04 -7.673295E-05 +1.212263E-04 -7.673295E-05 +4.768686E-03 +2.922236E-05 +1.212263E-04 +2.922236E-05 -1.150689E-04 
 +1.511832E-04 -9.192883E-05 +6.900063E-05 -9.192883E-05 +4.813046E-03 -6.351997E-06 +6.900063E-05 -6.351997E-06 -5.345060E-05 
 -1.983701E-04 -1.229243E-05 +1.497215E-04 -1.229243E-05 +4.971983E-03 -3.438956E-05 +1.497215E-04 -3.438956E-05 +1.047229E-04 
 -1.870878E-04 -7.226076E-05 +1.458151E-04 -7.226076E-05 +5.074505E-03 -7.442197E-05 +1.458151E-04 -7.442197E-05 +1.693709E-04 
 -1.489387E-04 -5.690902E-05 +1.790957E-04 -5.690902E-05 +5.130903E-03 -1.045654E-04 +1.790957E-04 -1.045654E-04 +1.532762E-04 
 -1.882727E-04 -4.531824E-05 +1.925425E-04 -4.531824E-05 +5.161212E-03 -9.364073E-05 +1.925425E-04 -9.364073E-05 +1.541750E-04 
 -1.881124E-04 +3.623648E-06 +1.719555E-04 +3.623648E-06 +5.164337E-03 -1.146718E-04 +1.719555E-04 -1.146718E-04 +1.657086E-04 
 -1.592180E-04 -5.248083E-05 +1.271241E-04 -5.248083E-05 +5.122512E-03 -1.338644E-04 +1.271241E-04 -1.338644E-04 +1.070473E-04 
 +1.632789E-04 +5.040352E-05 -3.327259E-05 +5.040352E-05 +5.034257E-03 -7.914251E-05 -3.327259E-05 -7.914251E-05 +9.092657E-05 
 +5.025777E-05 -2.704231E-04 -1.349759E-04 -2.704231E-04 +4.985695E-03 +1.253960E-05 -1.349759E-04 +1.253960E-05 +1.851438E-04 
 -8.420906E-06 -2.757086E-04 -1.057432E-04 -2.757086E-04 +4.984825E-03 +4.802660E-05 -1.057432E-04 +4.802660E-05 +2.482570E-04 
 -3.787442E-05 -2.603783E-04 -1.184004E-04 -2.603783E-04 +4.803949E-03 +3.166498E-05 -1.184004E-04 +3.166498E-05 +2.851394E-04 
 +2.126010E-04 +2.375406E-05 -7.061737E-05 +2.375406E-05 +4.585135E-03 +1.254047E-04 -7.061737E-05 +1.254047E-04 +2.891971E-04 
 +2.570889E-04 -3.587075E-05 -7.734110E-05 -3.587075E-05 +4.439865E-03 +7.736695E-05 -7.734110E-05 +7.736695E-05 +2.515152E-04 
 +1.385552E-04 -1.653720E-05 +2.487103E-05 -1.653720E-05 +4.492368E-03 +2.926500E-05 +2.487103E-05 +2.926500E-05 +1.664969E-04 
 -1.704210E-04 -2.145577E-05 +1.987742E-04 -2.145577E-05 +4.841501E-03 +5.627601E-05 +1.987742E-04 +5.627601E-05 +1.204179E-04 
 -8.648137E-05 +1.013433E-04 +2.525465E-04 +1.013433E-04 +4.977457E-03 +9.951723E-05 +2.525465E-04 +9.951723E-05 +5.772811E-05 
 +2.331458E-05 +5.776533E-05 +1.720068E-04 +5.776533E-05 +4.927957E-03 +1.019593E-04 +1.720068E-04 +1.019593E-04 +2.719774E-06 
 +3.315134E-05 -4.379869E-05 +1.359705E-04 -4.379869E-05 +4.967092E-03 +4.765297E-05 +1.359705E-04 +4.765297E-05 -1.760059E-06 
 +3.148550E-05 -1.084232E-04 +1.218407E-04 -1.084232E-04 +4.921745E-03 +4.587904E-07 +1.218407E-04 +4.587904E-07 -1.706461E-05 
 +6.560683E-05 -1.352171E-04 +1.329243E-04 -1.352171E-04 +4.840444E-03 +6.094515E-05 +1.329243E-04 +6.094515E-05 -6.305572E-05 
 +8.671750E-05 -1.503218E-04 +1.328506E-05 -1.503218E-04 +4.842145E-03 +3.996208E-05 +1.328506E-05 +3.996208E-05 -1.559174E-04 
 -2.105984E-06 -1.002919E-04 -8.134580E-07 -1.002919E-04 +4.962623E-03 -2.992839E-05 -8.134580E-07 -2.992839E-05 -1.037652E-04 
 -1.511740E-04 -5.257805E-05 +9.369001E-05 -5.257805E-05 +5.038882E-03 -4.233810E-05 +9.369001E-05 -4.233810E-05 +5.865409E-05 
 -1.428123E-04 -1.299632E-04 +1.667596E-04 -1.299632E-04 +5.044181E-03 -4.976553E-05 +1.667596E-04 -4.976553E-05 +1.729465E-04 
 -1.164455E-04 -1.273456E-04 +1.950246E-04 -1.273456E-04 +5.098880E-03 -7.059537E-05 +1.950246E-04 -7.059537E-05 +1.807490E-04 
 -2.006792E-04 -1.367541E-04 +1.993253E-04 -1.367541E-04 +5.141879E-03 -1.061030E-04 +1.993253E-04 -1.061030E-04 +8.661439E-05 
 -1.195605E-04 -4.244890E-05 +1.526832E-04 -4.244890E-05 +5.146271E-03 -1.401395E-04 +1.526832E-04 -1.401395E-04 +4.524525E-05 
 -1.298865E-04 -2.699598E-05 +1.097497E-04 -2.699598E-05 +5.200933E-03 -1.598085E-04 +1.097497E-04 -1.598085E-04 -6.655418E-06 
 +1.316495E-04 +7.498134E-05 -2.427771E-05 +7.498134E-05 +5.111928E-03 -1.650356E-04 -2.427771E-05 -1.650356E-04 +6.585900E-06 
 +6.695066E-05 -4.154613E-05 -1.299764E-04 -4.154613E-05 +4.981443E-03 -1.638653E-04 -1.299764E-04 -1.638653E-04 +1.124113E-04 
 +2.739655E-05 -3.991891E-05 -7.993449E-05 -3.991891E-05 +4.935329E-03 -5.515941E-05 -7.993449E-05 -5.515941E-05 +1.893159E-04 
 +4.491047E-05 -2.335892E-04 -1.099893E-04 -2.335892E-04 +4.768146E-03 +8.240684E-05 -1.099893E-04 +8.240684E-05 +2.531052E-04 
 +2.694665E-04 +4.630452E-07 -1.087509E-04 +4.630452E-07 +4.523617E-03 -2.522465E-06 -1.087509E-04 -2.522465E-06 +2.111342E-04 
 +2.128298E-04 +1.352409E-05 -5.832083E-05 +1.352409E-05 +4.555622E-03 +3.780164E-05 -5.832083E-05 +3.780164E-05 +1.973546E-04 
 -3.379542E-05 -1.585105E-05 +8.930087E-05 -1.585105E-05 +4.866869E-03 +1.009201E-04 +8.930087E-05 +1.009201E-04 +1.570784E-04 
 -1.150018E-04 -3.612768E-05 +1.785441E-04 -3.612768E-05 +4.940755E-03 +1.084269E-04 +1.785441E-04 +1.084269E-04 +1.259053E-04 
 -1.568850E-04 +6.099746E-05 +2.653170E-04 +6.099746E-05 +4.855387E-03 +8.409127E-05 +2.653170E-04 +8.409127E-05 +1.156622E-04 
 +8.994461E-05 +2.624295E-04 +5.091527E-05 +2.624295E-04 +4.762040E-03 +1.251036E-04 +5.091527E-05 +1.251036E-04 +1.016748E-04 
 +1.307557E-04 +2.571579E-04 +6.327480E-05 +2.571579E-04 +4.786354E-03 +1.849200E-04 +6.327480E-05 +1.849200E-04 +6.690122E-05 
 -6.886010E-05 +9.261598E-05 +5.183489E-05 +9.261598E-05 +4.889078E-03 +2.399930E-04 +5.183489E-05 +2.399930E-04 +5.170127E-05 
 -5.525895E-05 +1.286627E-05 +7.582465E-05 +1.286627E-05 +4.967918E-03 +2.327911E-04 +7.582465E-05 +2.327911E-04 -8.653480E-05 
 -5.460930E-05 +6.376378E-06 -1.819334E-04 +6.376378E-06 +5.100699E-03 +1.130184E-04 -1.819334E-04 +1.130184E-04 -2.532631E-04 
 -1.001280E-04 +5.069057E-05 -1.641526E-04 +5.069057E-05 +5.202627E-03 +3.836140E-05 -1.641526E-04 +3.836140E-05 -2.571781E-04 
 -1.453661E-04 +7.971082E-06 -1.185590E-04 +7.971082E-06 +5.175579E-03 +3.724735E-05 -1.185590E-04 +3.724735E-05 -1.433283E-04 
 -1.767754E-04 -9.751595E-05 +6.077776E-05 -9.751595E-05 +5.116726E-03 +1.493118E-05 +6.077776E-05 +1.493118E-05 +4.188378E-05 
 -1.132520E-04 -1.043466E-04 +7.950112E-05 -1.043466E-04 +5.096926E-03 -3.290444E-05 +7.950112E-05 -3.290444E-05 +8.965148E-05 
 -1.244770E-04 -8.524454E-05 +1.050211E-04 -8.524454E-05 +5.145433E-03 -1.067197E-04 +1.050211E-04 -1.067197E-04 +6.876014E-05 
 -1.450431E-04 -6.826631E-05 +1.603846E-04 -6.826631E-05 +5.195559E-03 -1.010067E-04 +1.603846E-04 -1.010067E-04 +1.293875E-04 
 -6.565750E-06 -7.899074E-05 +1.050808E-04 -7.899074E-05 +5.222417E-03 -1.141026E-04 +1.050808E-04 -1.141026E-04 +7.946523E-05 
 +1.840365E-04 -1.506224E-04 -2.785001E-05 -1.506224E-04 +5.146793E-03 -1.921665E-04 -2.785001E-05 -1.921665E-04 +7.871872E-06 
 +1.640313E-04 -2.223651E-04 -3.622234E-05 -2.223651E-04 +4.921275E-03 -1.930834E-04 -3.622234E-05 -1.930834E-04 +6.101348E-05 
 +1.158658E-04 -2.018349E-04 -2.492125E-05 -2.018349E-04 +4.731666E-03 -1.437355E-04 -2.492125E-05 -1.437355E-04 +1.319948E-04 
 +1.289878E-04 -2.635123E-04 -5.347993E-05 -2.635123E-04 +4.674856E-03 -7.328418E-05 -5.347993E-05 -7.328418E-05 +1.944946E-04 
 +2.479174E-04 -1.808120E-04 -8.492385E-05 -1.808120E-04 +4.788045E-03 -1.339502E-04 -8.492385E-05 -1.339502E-04 +1.193713E-04 
 +5.740411E-05 -2.584632E-05 +7.542929E-05 -2.584632E-05 +4.994602E-03 +5.635816E-06 +7.542929E-05 +5.635816E-06 +1.103286E-04 
 -2.123948E-05 -1.880549E-05 +1.330757E-04 -1.880549E-05 +4.965451E-03 +9.489422E-05 +1.330757E-04 +9.489422E-05 +9.782360E-05 
 -2.641184E-05 +1.987895E-05 +1.506508E-04 +1.987895E-05 +4.885270E-03 +8.752254E-05 +1.506508E-04 +8.752254E-05 +9.469374E-05 
 -8.141639E-05 +3.962476E-05 +2.490151E-04 +3.962476E-05 +4.820627E-03 +8.805784E-05 +2.490151E-04 +8.805784E-05 +1.300456E-04 
 +2.041371E-04 +1.649013E-04 -1.830406E-05 +1.649013E-04 +4.716417E-03 +1.034316E-04 -1.830406E-05 +1.034316E-04 +1.264596E-04 
 +1.864228E-04 +2.258668E-04 +5.073545E-05 +2.258668E-04 +4.751962E-03 +1.398182E-04 +5.073545E-05 +1.398182E-04 +9.458643E-05 
 -1.426052E-04 +7.541660E-05 +6.789472E-05 +7.541660E-05 +4.878275E-03 +2.195428E-04 +6.789472E-05 +2.195428E-04 +8.462528E-05 
 -1.855809E-04 +1.035566E-04 +3.402112E-05 +1.035566E-04 +5.024595E-03 +2.097513E-04 +3.402112E-05 +2.097513E-04 -4.715245E-05 
 -2.442827E-04 +1.072035E-04 -1.831425E-04 +1.072035E-04 +5.168072E-03 +8.459961E-05 -1.831425E-04 +8.459961E-05 -1.391460E-04 
 -1.885407E-04 +7.341593E-05 -1.696389E-04 +7.341593E-05 +5.221027E-03 +6.766385E-05 -1.696389E-04 +6.766385E-05 -1.834220E-04 
 -1.462017E-04 +1.109305E-05 -2.310914E-04 +1.109305E-05 +5.224289E-03 +1.119289E-04 -2.310914E-04 +1.119289E-04 -2.387422E-04 
 -1.605818E-04 -6.359577E-06 -1.669379E-04 -6.359577E-06 +5.215470E-03 +8.446895E-05 -1.669379E-04 +8.446895E-05 -1.609060E-04 
 -1.070132E-04 +2.831932E-05 -1.443994E-04 +2.831932E-05 +5.166443E-03 +6.404967E-05 -1.443994E-04 +6.404967E-05 -1.207788E-04 
 -9.500485E-05 +9.234243E-05 -1.203609E-04 +9.234243E-05 +5.193934E-03 +1.699134E-05 -1.203609E-04 +1.699134E-05 -2.319959E-05 
 -2.158364E-04 +2.244862E-05 +1.912095E-04 +2.244862E-05 +5.210903E-03 +5.980623E-05 +1.912095E-04 +5.980623E-05 +1.917989E-04 
 +1.072751E-04 -1.836245E-05 +5.377816E-05 -1.836245E-05 +4.929920E-03 +1.747428E-04 +5.377816E-05 +1.747428E-04 +2.143585E-04 
 +2.718153E-04 +2.029939E-05 -9.948537E-05 +2.029939E-05 +4.787230E-03 +8.577031E-05 -9.948537E-05 +8.577031E-05 +1.203880E-04 
 +1.513724E-04 -1.250756E-04 -4.451027E-06 -1.250756E-04 +4.849936E-03 -1.110001E-04 -4.451027E-06 -1.110001E-04 +1.408425E-04 
 +1.729643E-04 -1.967094E-04 -3.244306E-05 -1.967094E-04 +4.767685E-03 -1.590419E-04 -3.244306E-05 -1.590419E-04 +1.674342E-04 
 +2.153373E-04 -3.373547E-04 -5.140113E-05 -3.373547E-04 +4.670720E-03 -1.462386E-04 -5.140113E-05 -1.462386E-04 +1.577171E-04 
 +1.880776E-04 +7.133665E-05 -2.303647E-05 +7.133665E-05 +4.892371E-03 +1.241662E-05 -2.303647E-05 +1.241662E-05 +6.837906E-05 
 +1.014223E-04 +1.489378E-04 +8.795556E-05 +1.489378E-04 +4.998686E-03 +4.092950E-05 +8.795556E-05 +4.092950E-05 +6.304437E-05 
 +3.427098E-05 +7.270915E-05 +1.347062E-04 +7.270915E-05 +4.928923E-03 +3.278084E-05 +1.347062E-04 +3.278084E-05 +6.016836E-05 
 -2.995688E-05 +5.272581E-05 +1.595301E-04 +5.272581E-05 +4.912258E-03 +1.059916E-04 +1.595301E-04 +1.059916E-04 +3.699301E-05 
 -3.662489E-05 +4.955889E-06 +1.697504E-04 +4.955889E-06 +4.906500E-03 +7.214844E-05 +1.697504E-04 +7.214844E-05 +4.244787E-05 
 +1.736538E-04 +9.762001E-05 -1.267023E-05 +9.762001E-05 +4.778646E-03 +1.610943E-05 -1.267023E-05 +1.610943E-05 +3.955193E-05 
 +1.689260E-04 +2.471712E-04 +8.718347E-05 +2.471712E-04 +4.739010E-03 +7.941543E-05 +8.718347E-05 +7.941543E-05 +6.965049E-05 
 -1.366719E-04 +6.185875E-05 +1.271628E-04 +6.185875E-05 +4.918857E-03 +1.879005E-04 +1.271628E-04 +1.879005E-04 +7.024291E-05 
 -2.322283E-04 +7.923365E-05 -3.912973E-05 +7.923365E-05 +5.065284E-03 +1.484021E-04 -3.912973E-05 +1.484021E-04 +6.518671E-05 
 -3.962971E-04 +1.078928E-04 -6.835839E-06 +1.078928E-04 +5.143341E-03 +5.330767E-05 -6.835839E-06 +5.330767E-05 +1.328706E-04 
 -3.022778E-04 +5.178978E-05 +2.738559E-05 +5.178978E-05 +5.169151E-03 +9.474820E-05 +2.738559E-05 +9.474820E-05 +7.771331E-05 
 -1.289332E-05 +4.243655E-05 -2.145242E-04 +4.243655E-05 +5.168036E-03 +1.030703E-04 -2.145242E-04 +1.030703E-04 -1.231725E-04 
 -5.815112E-05 +5.632608E-05 -2.090813E-04 +5.632608E-05 +5.199223E-03 +7.418842E-05 -2.090813E-04 +7.418842E-05 -2.050981E-04 
 -1.099821E-04 +5.258494E-05 -1.762659E-04 +5.258494E-05 +5.219363E-03 +8.904707E-05 -1.762659E-04 +8.904707E-05 -1.466048E-04 
 -1.536906E-04 +1.069251E-04 -1.972325E-04 +1.069251E-04 +5.115258E-03 +1.306251E-04 -1.972325E-04 +1.306251E-04 -1.919379E-05 
 -7.084261E-05 +6.393518E-05 +1.944572E-04 +6.393518E-05 +4.950914E-03 +2.081483E-04 +1.944572E-04 +2.081483E-04 +1.678001E-04 
 +1.035825E-04 -5.819515E-05 -4.081252E-06 -5.819515E-05 +4.837097E-03 +1.961358E-04 -4.081252E-06 +1.961358E-04 +2.357599E-04 
 +2.845177E-04 +2.208402E-05 -1.637228E-04 +2.208402E-05 +4.724583E-03 +5.782265E-05 -1.637228E-04 +5.782265E-05 +1.763320E-04 
 +1.891205E-04 -1.007863E-04 -8.155864E-05 -1.007863E-04 +4.770035E-03 -9.731448E-05 -8.155864E-05 -9.731448E-05 +1.544439E-04 
 +1.336201E-04 -1.972068E-04 -2.823397E-05 -1.972068E-04 +4.803915E-03 -1.421354E-04 -2.823397E-05 -1.421354E-04 +1.792748E-04 
 +1.623541E-04 -2.788568E-04 -4.038967E-05 -2.788568E-04 +4.742339E-03 -8.782473E-05 -4.038967E-05 -8.782473E-05 +1.418928E-04 
 +2.167950E-04 +2.336885E-04 +6.034565E-05 +2.336885E-04 +4.827874E-03 -2.469332E-05 +6.034565E-05 -2.469332E-05 -2.357742E-05 
 +1.374704E-04 +2.286581E-04 +4.142497E-05 +2.286581E-04 +4.871434E-03 +3.856494E-05 +4.142497E-05 +3.856494E-05 -3.448910E-06 
 -9.240389E-05 +9.107517E-05 +1.885870E-04 +9.107517E-05 +5.003114E-03 +6.962450E-05 +1.885870E-04 +6.962450E-05 +5.776167E-05 
 -1.220849E-04 +8.171268E-06 +2.122939E-04 +8.171268E-06 +5.008094E-03 +1.057445E-04 +2.122939E-04 +1.057445E-04 -6.028842E-06 
 +6.051609E-05 +5.464338E-06 +6.358869E-05 +5.464338E-06 +4.994590E-03 +4.132104E-05 +6.358869E-05 +4.132104E-05 -7.051292E-05 
 +5.932031E-05 +3.809596E-05 +3.981493E-05 +3.809596E-05 +5.102330E-03 +7.576882E-06 +3.981493E-05 +7.576882E-06 -6.970263E-05 
 +3.818972E-05 +1.564383E-04 +1.203572E-04 +1.564383E-04 +5.052059E-03 +5.842581E-05 +1.203572E-04 +5.842581E-05 -1.186323E-05 
 -7.381366E-05 +9.578839E-05 +1.259517E-04 +9.578839E-05 +5.019893E-03 +9.554675E-05 +1.259517E-04 +9.554675E-05 -3.399868E-05 
 -2.375953E-04 +1.046411E-04 -2.319689E-04 +1.046411E-04 +5.133678E-03 +7.177576E-05 -2.319689E-04 +7.177576E-05 +7.337326E-06 
 -4.700624E-04 +1.266323E-04 +7.067525E-05 +1.266323E-04 +5.167448E-03 +4.853638E-05 +7.067525E-05 +4.853638E-05 +2.277914E-04 
 -3.562137E-04 +7.892671E-05 +1.047641E-04 +7.892671E-05 +5.147506E-03 +5.475778E-05 +1.047641E-04 +5.475778E-05 +2.123564E-04 
 +1.032237E-04 +6.843958E-05 -2.253626E-04 +6.843958E-05 +5.126246E-03 +2.416643E-05 -2.253626E-04 +2.416643E-05 -5.789379E-05 
 +3.106773E-05 +5.888836E-05 -1.656255E-04 +5.888836E-05 +5.159749E-03 +3.634378E-05 -1.656255E-04 +3.634378E-05 -1.920289E-04 
 -9.582958E-05 +5.837310E-05 -1.091437E-04 +5.837310E-05 +5.227455E-03 +7.567766E-05 -1.091437E-04 +7.567766E-05 -1.095143E-04 
 -1.822438E-04 +1.276023E-05 -1.583099E-04 +1.276023E-05 +5.126334E-03 +1.418624E-04 -1.583099E-04 +1.418624E-04 +2.289635E-05 
 +9.587330E-05 -4.868565E-05 +2.123624E-04 -4.868565E-05 +4.854695E-03 +2.193284E-04 +2.123624E-04 +2.193284E-04 +1.613585E-04 
 +1.207928E-04 -7.793588E-05 +1.100346E-05 -7.793588E-05 +4.725521E-03 +1.982439E-04 +1.100346E-05 +1.982439E-04 +2.241993E-04 
 +2.033537E-04 +3.073537E-05 -1.109267E-04 +3.073537E-05 +4.648950E-03 +1.106811E-04 -1.109267E-04 +1.106811E-04 +1.887917E-04 
 +2.712785E-04 +4.052569E-05 -1.634791E-04 +4.052569E-05 +4.623815E-03 -6.468860E-06 -1.634791E-04 -6.468860E-06 +1.435503E-04 
 +1.587688E-04 -1.690567E-04 -1.181525E-04 -1.690567E-04 +4.741674E-03 -1.886647E-04 -1.181525E-04 -1.886647E-04 +1.545701E-04 
 +1.334794E-04 -1.968824E-04 +8.037645E-05 -1.968824E-04 +4.817346E-03 -1.808417E-04 +8.037645E-05 -1.808417E-04 +8.396637E-05 
 +5.920720E-05 +8.158461E-05 +1.973478E-04 +8.158461E-05 +5.203318E-03 -6.251105E-05 +1.973478E-04 -6.251105E-05 -1.393158E-04 
 +2.000200E-05 +8.742971E-06 +1.460604E-04 +8.742971E-06 +5.134793E-03 +5.138091E-05 +1.460604E-04 +5.138091E-05 -9.453124E-05 
 -1.116538E-04 -7.361022E-05 +2.336462E-04 -7.361022E-05 +5.138907E-03 +4.748591E-05 +2.336462E-04 +4.748591E-05 +1.364876E-05 
 -1.116546E-04 -1.098642E-04 +2.772139E-04 -1.098642E-04 +5.134545E-03 +1.277395E-05 +2.772139E-04 +1.277395E-05 -4.109960E-05 
 +6.275125E-05 -4.681884E-05 +1.260358E-04 -4.681884E-05 +5.127681E-03 +7.482921E-05 +1.260358E-04 +7.482921E-05 -2.306370E-04 
 +3.154383E-05 +1.879885E-05 +8.118675E-05 +1.879885E-05 +5.168613E-03 +7.228052E-05 +8.118675E-05 +7.228052E-05 -2.907755E-04 
 -1.281346E-05 +1.323778E-04 +1.278476E-04 +1.323778E-04 +5.153405E-03 -1.211038E-05 +1.278476E-04 -1.211038E-05 -2.048539E-04 
 -6.818195E-05 +1.877358E-04 +4.471458E-05 +1.877358E-04 +5.103143E-03 -7.741436E-05 +4.471458E-05 -7.741436E-05 -1.656795E-04 
 -2.679465E-04 +1.136489E-04 -2.840951E-04 +1.136489E-04 +5.152499E-03 -1.692138E-05 -2.840951E-04 -1.692138E-05 -3.606922E-05 
 -4.515113E-04 +9.880067E-05 -5.712417E-06 +9.880067E-05 +5.175166E-03 +6.551451E-05 -5.712417E-06 +6.551451E-05 +2.040771E-04 
 -2.931908E-04 +1.203706E-04 +6.595752E-06 +1.203706E-04 +5.149211E-03 +1.273752E-05 +6.595752E-06 +1.273752E-05 +1.819129E-04 
 +7.778034E-05 +1.236791E-04 -2.358913E-04 +1.236791E-04 +5.148825E-03 -1.233422E-05 -2.358913E-04 -1.233422E-05 -7.500847E-05 
 +6.309103E-05 +8.058278E-05 -1.551983E-04 +8.058278E-05 +5.141321E-03 +2.522291E-05 -1.551983E-04 +2.522291E-05 -1.894032E-04 
 -1.538139E-05 +1.094173E-04 -1.150111E-04 +1.094173E-04 +5.217242E-03 +3.614094E-05 -1.150111E-04 +3.614094E-05 -1.098961E-04 
 -4.123002E-05 -3.813976E-05 -2.549078E-05 -3.813976E-05 +5.171460E-03 +1.493868E-04 -2.549078E-05 +1.493868E-04 +1.877059E-05 
 +1.484560E-04 -6.196102E-05 +2.613718E-04 -6.196102E-05 +4.870125E-03 +2.601195E-04 +2.613718E-04 +2.601195E-04 +1.601621E-04 
 +1.469158E-04 +8.835604E-06 +8.299937E-05 +8.835604E-06 +4.707429E-03 +2.119171E-04 +8.299937E-05 +2.119171E-04 +2.269229E-04 
 +1.447412E-04 -1.032811E-05 -2.707080E-05 -1.032811E-05 +4.698998E-03 +1.298243E-04 -2.707080E-05 +1.298243E-04 +2.091970E-04 
 +2.884170E-04 +3.672042E-05 -1.027252E-04 +3.672042E-05 +4.581716E-03 +1.056548E-04 -1.027252E-04 +1.056548E-04 +1.546659E-04 
 +2.790016E-04 +4.187097E-06 -2.278267E-04 +4.187097E-06 +4.670078E-03 +9.621397E-05 -2.278267E-04 +9.621397E-05 +4.681362E-05 
 +5.151262E-05 -3.956043E-05 +6.533718E-05 -3.956043E-05 +5.069825E-03 -3.809048E-05 +6.533718E-05 -3.809048E-05 -8.324820E-05 
 -5.220843E-05 -7.562440E-05 +2.279144E-04 -7.562440E-05 +5.171520E-03 +1.532783E-04 +2.279144E-04 +1.532783E-04 -2.860947E-04 
 -3.299850E-05 -7.464773E-05 +2.280324E-04 -7.464773E-05 +5.215482E-03 +1.377928E-04 +2.280324E-04 +1.377928E-04 -1.834001E-04 
 +1.962065E-06 -1.611171E-04 +3.054758E-04 -1.611171E-04 +5.194027E-03 +5.630229E-05 +3.054758E-04 +5.630229E-05 -8.624059E-05 
 +6.599653E-06 -1.838348E-04 +2.668303E-04 -1.838348E-04 +5.242833E-03 -8.172426E-05 +2.668303E-04 -8.172426E-05 -1.648574E-04 
 -6.535930E-06 -1.796114E-04 +7.950164E-05 -1.796114E-04 +5.363163E-03 -1.849780E-04 +7.950164E-05 -1.849780E-04 -5.133152E-04 
 +5.430837E-05 -9.637844E-05 +8.123371E-05 -9.637844E-05 +5.417432E-03 -1.889022E-04 +8.123371E-05 -1.889022E-04 -5.946679E-04 
 -1.803957E-05 -3.628194E-05 +1.004369E-04 -3.628194E-05 +5.356636E-03 -9.361250E-05 +1.004369E-04 -9.361250E-05 -3.318149E-04 
 -4.598927E-04 -6.103941E-05 +2.559568E-05 -6.103941E-05 +5.220242E-03 -2.757634E-05 +2.559568E-05 -2.757634E-05 +2.386327E-05 
 -3.444712E-04 -1.012799E-04 -1.541074E-04 -1.012799E-04 +5.131621E-03 -5.419121E-05 -1.541074E-04 -5.419121E-05 +2.084883E-04 
 -2.797334E-04 -8.393125E-05 -7.055067E-05 -8.393125E-05 +5.108632E-03 -9.580137E-05 -7.055067E-05 -9.580137E-05 +1.840925E-04 
 -2.183956E-04 +2.591038E-05 -1.330397E-04 +2.591038E-05 +5.061834E-03 -1.314564E-04 -1.330397E-04 -1.314564E-04 +1.288199E-04 
 -8.552202E-05 +6.154271E-05 -1.979683E-04 +6.154271E-05 +5.044251E-03 -9.762438E-05 -1.979683E-04 -9.762438E-05 +1.429681E-05 
 -1.857008E-05 +1.328156E-04 -1.789437E-04 +1.328156E-04 +5.076378E-03 -2.619019E-05 -1.789437E-04 -2.619019E-05 -5.438344E-05 
 +8.232149E-05 +7.214408E-05 -7.175305E-05 +7.214408E-05 +4.981244E-03 -3.022464E-05 -7.175305E-05 -3.022464E-05 +6.484370E-05 
 +2.547776E-04 -1.172365E-04 +1.675904E-04 -1.172365E-04 +4.789344E-03 -4.457004E-06 +1.675904E-04 -4.457004E-06 +1.412541E-04 
 +3.131292E-04 -1.127978E-04 +2.158310E-04 -1.127978E-04 +4.782124E-03 +2.020790E-05 +2.158310E-04 +2.020790E-05 +7.783612E-05 
 +3.024053E-04 -8.480812E-05 +2.206601E-04 -8.480812E-05 +4.803204E-03 +1.008934E-05 +2.206601E-04 +1.008934E-05 +1.237480E-04 
 +2.677926E-04 -4.630319E-05 +5.288144E-05 -4.630319E-05 +4.844047E-03 -5.728168E-05 +5.288144E-05 -5.728168E-05 +3.477898E-05 
 +9.320550E-05 +7.751106E-05 +1.272928E-04 +7.751106E-05 +5.049848E-03 -5.499811E-05 +1.272928E-04 -5.499811E-05 -1.912471E-04 
 +9.185307E-05 -5.604294E-05 -2.488891E-04 -5.604294E-05 +5.176525E-03 +7.915224E-05 -2.488891E-04 +7.915224E-05 -2.968924E-04 
 +4.792496E-05 -1.724309E-04 -1.160828E-04 -1.724309E-04 +5.123935E-03 +1.507590E-04 -1.160828E-04 +1.507590E-04 -3.505421E-04 
 -1.239709E-04 -1.722473E-05 +1.527351E-04 -1.722473E-05 +5.238521E-03 +2.572924E-04 +1.527351E-04 +2.572924E-04 -3.165936E-04 
 -1.022745E-04 -7.224277E-05 +1.479192E-04 -7.224277E-05 +5.216490E-03 +1.312324E-04 +1.479192E-04 +1.312324E-04 -6.060511E-05 
 -8.649970E-05 -1.540150E-04 +2.792080E-04 -1.540150E-04 +5.210881E-03 +5.174017E-05 +2.792080E-04 +5.174017E-05 +2.586099E-05 
 +4.424005E-05 -1.856988E-04 +1.880081E-04 -1.856988E-04 +5.243545E-03 -9.858221E-05 +1.880081E-04 -9.858221E-05 -1.960219E-04 
 +9.791706E-06 -1.012074E-04 +1.085714E-04 -1.012074E-04 +5.316706E-03 -1.906175E-04 +1.085714E-04 -1.906175E-04 -5.776747E-04 
 +1.014079E-04 -8.820782E-05 +1.042164E-04 -8.820782E-05 +5.348898E-03 -1.554422E-04 +1.042164E-04 -1.554422E-04 -6.701753E-04 
 +6.816393E-05 -3.866795E-05 +1.227265E-04 -3.866795E-05 +5.305074E-03 -1.116919E-04 +1.227265E-04 -1.116919E-04 -4.005057E-04 
 -5.748273E-04 -1.168884E-05 +2.738002E-05 -1.168884E-05 +5.246831E-03 -4.441723E-05 +2.738002E-05 -4.441723E-05 +5.708717E-05 
 -4.775254E-04 +1.333328E-05 -1.027318E-04 +1.333328E-05 +5.102948E-03 -1.810464E-05 -1.027318E-04 -1.810464E-05 +2.513858E-04 
 -7.174518E-05 -4.619064E-05 -7.130007E-05 -4.619064E-05 +5.006079E-03 -7.982053E-05 -7.130007E-05 -7.982053E-05 +1.187442E-04 
 -1.516450E-04 +4.319166E-05 -2.241899E-04 +4.319166E-05 +5.063510E-03 -1.459988E-04 -2.241899E-04 -1.459988E-04 +6.304497E-05 
 -5.482375E-05 +2.136206E-05 -1.917702E-04 +2.136206E-05 +5.106935E-03 -1.858953E-04 -1.917702E-04 -1.858953E-04 +4.581587E-05 
 +6.210347E-05 +6.534734E-05 -1.023234E-04 +6.534734E-05 +5.007681E-03 -1.665110E-04 -1.023234E-04 -1.665110E-04 +8.342994E-05 
 +2.033570E-04 -1.200848E-04 +1.175825E-04 -1.200848E-04 +4.754936E-03 -9.919751E-05 +1.175825E-04 -9.919751E-05 +2.474609E-04 
 +3.170686E-04 -1.762597E-04 +2.666135E-04 -1.762597E-04 +4.716699E-03 -1.185654E-04 +2.666135E-04 -1.185654E-04 +2.465553E-04 
 +3.547554E-04 -1.910467E-04 +2.859406E-04 -1.910467E-04 +4.807308E-03 -1.291440E-04 +2.859406E-04 -1.291440E-04 +1.144603E-04 
 +3.312269E-04 -2.032180E-04 +2.734997E-04 -2.032180E-04 +4.768666E-03 -1.277375E-04 +2.734997E-04 -1.277375E-04 +1.318461E-04 
 +1.568496E-04 -1.656816E-04 +2.368340E-04 -1.656816E-04 +4.880738E-03 -8.606974E-05 +2.368340E-04 -8.606974E-05 -2.312277E-05 
 -3.333691E-05 -2.373105E-05 +3.042147E-04 -2.373105E-05 +5.112335E-03 +2.227436E-05 +3.042147E-04 +2.227436E-05 -2.729335E-04 
 -2.399156E-06 -1.074656E-04 -7.252578E-05 -1.074656E-04 +5.229736E-03 +1.611969E-04 -7.252578E-05 +1.611969E-04 -3.757881E-04 
 +2.993703E-05 -1.453404E-04 -7.659188E-05 -1.453404E-04 +5.246413E-03 +2.910785E-04 -7.659188E-05 +2.910785E-04 -4.516231E-04 
 -1.535209E-04 +7.251691E-05 +1.817538E-04 +7.251691E-05 +5.158218E-03 +3.022786E-04 +1.817538E-04 +3.022786E-04 -1.310114E-04 
 -1.275436E-04 +5.819652E-05 +1.848389E-04 +5.819652E-05 +5.153578E-03 +2.537167E-04 +1.848389E-04 +2.537167E-04 +1.196820E-04 
 -2.132535E-04 +3.194213E-05 +3.467531E-04 +3.194213E-05 +5.179475E-03 +1.680202E-04 +3.467531E-04 +1.680202E-04 +2.226797E-04 
 -2.448880E-05 -3.462189E-05 +6.287291E-05 -3.462189E-05 +5.230251E-03 +6.996845E-05 +6.287291E-05 +6.996845E-05 -1.148738E-04 
 +2.775195E-05 -4.544623E-05 +5.209219E-05 -4.544623E-05 +5.260112E-03 -2.277917E-05 +5.209219E-05 -2.277917E-05 -5.203786E-04 
 +1.496620E-04 -9.567713E-05 +9.530943E-05 -9.567713E-05 +5.242899E-03 -8.629610E-05 +9.530943E-05 -8.629610E-05 -6.292294E-04 
 +1.420184E-04 -4.584470E-05 +1.360655E-04 -4.584470E-05 +5.213804E-03 -1.059522E-04 +1.360655E-04 -1.059522E-04 -4.282089E-04 
 -4.895787E-04 -1.642589E-05 +3.411329E-05 -1.642589E-05 +5.200299E-03 -7.385160E-05 +3.411329E-05 -7.385160E-05 +1.272244E-05 
 -5.328339E-04 +2.685596E-05 -5.422213E-05 +2.685596E-05 +5.119902E-03 -3.342220E-05 -5.422213E-05 -3.342220E-05 +2.507761E-04 
 -1.743738E-04 +6.856091E-05 -1.110544E-04 +6.856091E-05 +5.050532E-03 -9.956947E-05 -1.110544E-04 -9.956947E-05 +1.849952E-04 
 -2.325073E-05 +1.077855E-04 -8.784300E-05 +1.077855E-04 +5.085727E-03 -1.927387E-04 -8.784300E-05 -1.927387E-04 +1.145063E-04 
 +8.902185E-05 +1.263926E-04 -9.693817E-05 +1.263926E-04 +5.018637E-03 -1.946734E-04 -9.693817E-05 -1.946734E-04 +8.926411E-05 
 +2.535096E-04 +2.363733E-04 +6.593624E-05 +2.363733E-04 +4.831849E-03 -1.511695E-04 +6.593624E-05 -1.511695E-04 +1.437475E-04 
 +2.260249E-04 +1.302891E-04 +1.363463E-04 +1.302891E-04 +4.829660E-03 -1.191987E-04 +1.363463E-04 -1.191987E-04 +1.948242E-04 
 +2.119304E-04 +6.654752E-05 +1.610100E-04 +6.654752E-05 +4.909165E-03 -1.810062E-04 +1.610100E-04 -1.810062E-04 +2.321159E-04 
 +3.314871E-04 -1.613888E-04 +2.794698E-04 -1.613888E-04 +4.831071E-03 -2.654789E-04 +2.794698E-04 -2.654789E-04 +1.738890E-04 
 +2.586019E-04 -1.556556E-04 +2.230440E-04 -1.556556E-04 +4.872700E-03 -1.988257E-04 +2.230440E-04 -1.988257E-04 +5.434910E-05 
 -5.196115E-05 -2.238740E-05 +3.885502E-04 -2.238740E-05 +5.103802E-03 -3.894765E-05 +3.885502E-04 -3.894765E-05 -8.827689E-05 
 -6.373827E-05 +1.745031E-05 +3.329175E-04 +1.745031E-05 +5.153539E-03 +1.022561E-04 +3.329175E-04 +1.022561E-04 -2.190276E-04 
 +7.963854E-05 -9.858259E-05 -7.981840E-05 -9.858259E-05 +5.107102E-03 +2.216382E-04 -7.981840E-05 +2.216382E-04 -2.632252E-04 
 +8.480223E-05 -1.175932E-04 -9.116261E-05 -1.175932E-04 +5.149554E-03 +2.867588E-04 -9.116261E-05 +2.867588E-04 -2.454256E-04 
 -1.370201E-04 +7.762932E-05 +2.070907E-04 +7.762932E-05 +5.093687E-03 +2.943595E-04 +2.070907E-04 +2.943595E-04 +2.227626E-05 
 -1.314113E-04 +4.073423E-05 +1.982760E-04 +4.073423E-05 +5.144962E-03 +2.415930E-04 +1.982760E-04 +2.415930E-04 +1.197053E-04 
 -1.931916E-04 +8.800625E-05 +3.233133E-04 +8.800625E-05 +5.177437E-03 +1.677762E-04 +3.233133E-04 +1.677762E-04 +2.644935E-04 
 -2.651558E-04 +7.852616E-05 +6.680942E-05 +7.852616E-05 +5.281290E-03 +8.931817E-05 +6.680942E-05 +8.931817E-05 -5.159698E-06 
 -1.703192E-05 -1.956620E-05 -3.223779E-05 -1.956620E-05 +5.325591E-03 +2.075424E-05 -3.223779E-05 +2.075424E-05 -5.147376E-04 
 +1.335347E-04 -1.403738E-04 +8.673748E-05 -1.403738E-04 +5.234048E-03 -3.139516E-05 +8.673748E-05 -3.139516E-05 -6.051296E-04 
 +1.817090E-04 -1.096647E-04 +1.202122E-04 -1.096647E-04 +5.162740E-03 -5.260179E-05 +1.202122E-04 -5.260179E-05 -4.605787E-04 
 -2.903371E-04 -3.494954E-05 +5.239445E-05 -3.494954E-05 +5.151242E-03 -7.524242E-05 +5.239445E-05 -7.524242E-05 -1.908411E-04 
 -4.355692E-04 +1.138426E-05 -4.330720E-05 +1.138426E-05 +5.150845E-03 -1.013152E-04 -4.330720E-05 -1.013152E-04 +1.438410E-04 
 -4.053243E-04 +2.930577E-05 -4.340385E-05 +2.930577E-05 +4.987984E-03 -1.071760E-04 -4.340385E-05 -1.071760E-04 +2.825660E-04 
 +2.546809E-04 +1.904314E-04 +1.312465E-04 +1.904314E-04 +4.714624E-03 -1.445754E-04 +1.312465E-04 -1.445754E-04 +2.030672E-04 
 +3.722259E-04 +2.461132E-04 +8.207834E-05 +2.461132E-04 +4.648380E-03 -1.417732E-04 +8.207834E-05 -1.417732E-04 +7.680455E-05 
 +3.491731E-04 +2.835000E-04 +1.074010E-04 +2.835000E-04 +4.773520E-03 -1.556833E-04 +1.074010E-04 -1.556833E-04 +1.345838E-05 
 +2.501699E-04 +2.037947E-04 +6.278583E-05 +2.037947E-04 +4.931786E-03 -2.004491E-04 +6.278583E-05 -2.004491E-04 -1.027678E-05 
 +1.928726E-04 +1.676691E-04 +3.184768E-05 +1.676691E-04 +4.970379E-03 -1.640107E-04 +3.184768E-05 -1.640107E-04 +1.772917E-04 
 +1.974931E-04 +8.471147E-05 +1.386261E-04 +8.471147E-05 +5.036180E-03 -1.917339E-04 +1.386261E-04 -1.917339E-04 +2.131343E-04 
 +1.307395E-05 +8.385588E-05 +3.051232E-04 +8.385588E-05 +5.186357E-03 -1.275172E-04 +3.051232E-04 -1.275172E-04 -9.187646E-05 
 -1.516082E-04 +1.433167E-04 +4.424828E-04 +1.433167E-04 +5.220746E-03 -2.568884E-05 +4.424828E-04 -2.568884E-05 -1.978084E-04 
 -1.447119E-04 +9.213266E-05 +3.658398E-04 +9.213266E-05 +5.161079E-03 +4.285205E-05 +3.658398E-04 +4.285205E-05 -2.086388E-04 
 +5.622060E-05 -1.443005E-05 -2.642087E-05 -1.443005E-05 +5.073421E-03 +2.178850E-04 -2.642087E-05 +2.178850E-04 -2.311223E-04 
 +1.702013E-04 -8.106363E-05 -1.122864E-04 -8.106363E-05 +5.036485E-03 +3.266824E-04 -1.122864E-04 +3.266824E-04 -9.065172E-05 
 -1.072072E-04 +7.694589E-05 +1.751676E-04 +7.694589E-05 +5.102044E-03 +3.106140E-04 +1.751676E-04 +3.106140E-04 +9.495149E-05 
 -7.357270E-05 +4.305542E-05 +2.020479E-04 +4.305542E-05 +5.123486E-03 +1.540815E-04 +2.020479E-04 +1.540815E-04 +1.003830E-04 
 -1.974175E-04 +1.122300E-04 +2.843106E-04 +1.122300E-04 +5.191238E-03 +7.210867E-05 +2.843106E-04 +7.210867E-05 +2.104959E-04 
 -3.760988E-04 +1.407266E-04 +8.008391E-05 +1.407266E-04 +5.329429E-03 +2.788974E-05 +8.008391E-05 +2.788974E-05 +4.200825E-05 
 -6.722137E-05 +3.578280E-05 -5.057776E-05 +3.578280E-05 +5.379751E-03 +9.002056E-05 -5.057776E-05 +9.002056E-05 -3.080260E-04 
 +3.695525E-05 -1.260062E-04 +8.285485E-05 -1.260062E-04 +5.298983E-03 +1.387146E-04 +8.285485E-05 +1.387146E-04 -3.381085E-04 
 +7.930003E-05 -1.176629E-04 +7.929602E-05 -1.176629E-04 +5.191852E-03 +5.717694E-05 +7.929602E-05 +5.717694E-05 -4.101903E-04 
 -7.241237E-05 -1.195391E-04 +8.642586E-05 -1.195391E-04 +5.149938E-03 -4.685805E-05 +8.642586E-05 -4.685805E-05 -3.781479E-04 
 -3.364069E-04 -1.065702E-04 +2.041869E-05 -1.065702E-04 +5.132404E-03 -6.550179E-05 +2.041869E-05 -6.550179E-05 +2.255825E-05 
 -2.498582E-04 -5.774437E-05 +5.391333E-05 -5.774437E-05 +4.973446E-03 -5.105108E-05 +5.391333E-05 -5.105108E-05 +2.696837E-04 
 +4.085429E-04 +1.859777E-04 +1.793836E-04 +1.859777E-04 +4.703483E-03 -7.772113E-05 +1.793836E-04 -7.772113E-05 +1.767526E-04 
 +4.778048E-04 +2.478784E-04 +1.404896E-04 +2.478784E-04 +4.656617E-03 -1.381369E-04 +1.404896E-04 -1.381369E-04 +7.679552E-06 
 +3.823934E-04 +2.651037E-04 +8.254117E-05 +2.651037E-04 +4.789581E-03 -2.255329E-04 +8.254117E-05 -2.255329E-04 -9.763491E-05 
 +3.547498E-04 +2.410160E-04 +4.419667E-05 +2.410160E-04 +4.872221E-03 -2.341941E-04 +4.419667E-05 -2.341941E-04 -1.457835E-04 
 +3.016132E-04 +1.563772E-04 -1.092179E-05 +1.563772E-04 +5.008496E-03 -1.554640E-04 -1.092179E-05 -1.554640E-04 +4.857037E-05 
 +1.032678E-05 +5.326639E-05 +8.790818E-05 +5.326639E-05 +5.172916E-03 -9.427840E-05 +8.790818E-05 -9.427840E-05 +1.143861E-04 
 -2.522658E-04 +6.936853E-05 +2.967746E-04 +6.936853E-05 +5.317472E-03 -7.443025E-05 +2.967746E-04 -7.443025E-05 -2.140542E-04 
 -1.933981E-04 +8.388272E-05 +4.109678E-04 +8.388272E-05 +5.322283E-03 -3.916123E-05 +4.109678E-04 -3.916123E-05 -2.698217E-04 
 -1.370705E-04 +8.658710E-05 +3.872550E-04 +8.658710E-05 +5.200238E-03 -1.157650E-05 +3.872550E-04 -1.157650E-05 -2.093385E-04 
 -2.433068E-05 +3.083165E-05 +1.993966E-04 +3.083165E-05 +5.098699E-03 +1.246477E-04 +1.993966E-04 +1.246477E-04 -1.942025E-04 
 +3.558876E-05 -4.437977E-05 -3.013301E-06 -4.437977E-05 +5.060670E-03 +3.483864E-04 -3.013301E-06 +3.483864E-04 -1.134656E-06 
 -8.296869E-05 +8.673094E-05 +2.094019E-04 +8.673094E-05 +5.142736E-03 +2.086636E-04 +2.094019E-04 +2.086636E-04 +1.870341E-04 
 -6.793433E-05 +2.656380E-05 +2.829175E-04 +2.656380E-05 +5.093670E-03 +1.309751E-04 +2.829175E-04 +1.309751E-04 +1.844433E-04 
 -2.879406E-04 +1.101733E-04 +3.330099E-04 +1.101733E-04 +5.193141E-03 +6.387299E-05 +3.330099E-04 +6.387299E-05 +1.982984E-04 
 -2.830855E-04 +1.050777E-04 +8.254660E-05 +1.050777E-04 +5.182621E-03 +6.823053E-05 +8.254660E-05 +6.823053E-05 +8.937107E-05 
 -5.732822E-05 +3.196592E-06 +5.621108E-06 +3.196592E-06 +5.026831E-03 +2.069026E-04 +5.621108E-06 +2.069026E-04 +1.755473E-05 
 -4.338351E-05 -9.065809E-05 +3.857827E-05 -9.065809E-05 +4.975106E-03 +2.388376E-04 +3.857827E-05 +2.388376E-04 -3.314799E-05 
 -1.492179E-05 +7.432891E-06 +7.547576E-05 +7.432891E-06 +5.043781E-03 +1.460275E-04 +7.547576E-05 +1.460275E-04 -2.049999E-04 
 -2.121708E-06 +1.717757E-05 +9.728012E-05 +1.717757E-05 +5.042099E-03 +6.521297E-05 +9.728012E-05 +6.521297E-05 -1.986096E-04 
 -1.000443E-04 +1.635228E-05 +8.325740E-05 +1.635228E-05 +4.906232E-03 +2.472899E-05 +8.325740E-05 +2.472899E-05 +4.531073E-05 
 +5.466576E-06 -1.519898E-05 +5.254983E-05 -1.519898E-05 +4.795754E-03 +4.965189E-05 +5.254983E-05 +4.965189E-05 +2.073400E-04 
 +3.090012E-04 +9.666052E-05 +7.158427E-05 +9.666052E-05 +4.736760E-03 +4.162170E-05 +7.158427E-05 +4.162170E-05 +1.789095E-04 
 +4.588802E-04 +2.660674E-04 +5.206743E-05 +2.660674E-04 +4.684814E-03 -3.750284E-05 +5.206743E-05 -3.750284E-05 +1.348684E-05 
 +4.338306E-04 +2.686698E-04 +1.027873E-04 +2.686698E-04 +4.723944E-03 -1.347586E-04 +1.027873E-04 -1.347586E-04 -1.032587E-04 
 +4.335746E-04 +1.931654E-04 +3.867752E-05 +1.931654E-04 +4.883322E-03 -2.069389E-04 +3.867752E-05 -2.069389E-04 -1.530007E-04 
 +2.964110E-04 +1.107481E-04 -2.010022E-05 +1.107481E-04 +5.118227E-03 -2.132241E-04 -2.010022E-05 -2.132241E-04 -4.741088E-05 
 -1.944836E-04 -2.516326E-05 +2.027683E-04 -2.516326E-05 +5.342456E-03 -1.452070E-04 +2.027683E-04 -1.452070E-04 -2.220725E-05 
 -3.143481E-04 -3.727328E-06 +2.130904E-04 -3.727328E-06 +5.406642E-03 -8.449500E-05 +2.130904E-04 -8.449500E-05 -2.565011E-04 
 -1.817769E-04 -2.268429E-05 +3.667764E-04 -2.268429E-05 +5.311631E-03 -5.648735E-05 +3.667764E-04 -5.648735E-05 -2.686509E-04 
 -1.952462E-05 +2.417856E-05 +3.164108E-04 +2.417856E-05 +5.183639E-03 -1.188795E-05 +3.164108E-04 -1.188795E-05 -2.083401E-04 
 -2.274754E-05 +4.581199E-05 +3.092960E-04 +4.581199E-05 +5.139848E-03 +8.389148E-05 +3.092960E-04 +8.389148E-05 -1.107400E-04 
 -2.644765E-04 +4.204030E-05 +1.818860E-04 +4.204030E-05 +5.191751E-03 +2.124313E-04 +1.818860E-04 +2.124313E-04 +1.285231E-04 
 -1.544377E-04 +2.640172E-05 +2.564613E-04 +2.640172E-05 +5.133027E-03 +9.356785E-05 +2.564613E-04 +9.356785E-05 +2.194243E-04 
 -1.630112E-04 +3.536159E-05 +2.918570E-04 +3.536159E-05 +5.137152E-03 +1.362301E-04 +2.918570E-04 +1.362301E-04 +1.739466E-04 
 -3.406432E-04 +9.881221E-05 +3.412340E-04 +9.881221E-05 +5.131441E-03 +1.017986E-04 +3.412340E-04 +1.017986E-04 +1.820733E-04 
 -7.579856E-05 +6.241250E-06 +6.370931E-05 +6.241250E-06 +4.932469E-03 +1.174744E-04 +6.370931E-05 +1.174744E-04 +1.630269E-04 
 +1.172489E-05 +2.102202E-05 +4.960128E-05 +2.102202E-05 +4.783606E-03 +1.678966E-04 +4.960128E-05 +1.678966E-04 +1.229075E-04 
 -7.282015E-06 +5.484082E-05 +2.957282E-05 +5.484082E-05 +4.839469E-03 +1.894823E-04 +2.957282E-05 +1.894823E-04 +5.834532E-05 
 -2.859644E-05 +1.768467E-04 +1.269381E-04 +1.768467E-04 +4.926930E-03 +1.656215E-04 +1.269381E-04 +1.656215E-04 +5.186191E-05 
 +5.993597E-06 +8.958693E-05 +8.347352E-05 +8.958693E-05 +4.931161E-03 +9.689615E-05 +8.347352E-05 +9.689615E-05 +5.132371E-05 
 +7.538404E-05 +5.219542E-07 +8.543267E-05 +5.219542E-07 +4.909332E-03 +6.140549E-05 +8.543267E-05 +6.140549E-05 +6.550247E-05 
 +9.737393E-05 -7.158713E-05 +6.815871E-05 -7.158713E-05 +4.879613E-03 +6.453118E-05 +6.815871E-05 +6.453118E-05 +1.622097E-04 
 +1.795906E-04 +2.840777E-05 +7.604733E-05 +2.840777E-05 +4.746178E-03 +3.910556E-05 +7.604733E-05 +3.910556E-05 +1.923637E-04 
 +3.256764E-04 +1.935394E-04 +5.357685E-05 +1.935394E-04 +4.631881E-03 +3.634632E-05 +5.357685E-05 +3.634632E-05 +5.666059E-05 
 +4.389153E-04 +2.465768E-04 +3.727117E-05 +2.465768E-04 +4.738421E-03 +4.379196E-06 +3.727117E-05 +4.379196E-06 -6.713355E-05 
 +3.411530E-04 +1.243149E-04 +3.502797E-05 +1.243149E-04 +4.908379E-03 -4.854565E-05 +3.502797E-05 -4.854565E-05 -8.308572E-05 
 +1.738716E-04 -1.642852E-05 -1.846627E-05 -1.642852E-05 +5.071377E-03 -1.161959E-05 -1.846627E-05 -1.161959E-05 +3.913344E-05 
 -1.717791E-04 -1.079646E-04 +1.544207E-04 -1.079646E-04 +5.317014E-03 -6.311386E-05 +1.544207E-04 -6.311386E-05 +5.122561E-05 
 -2.487358E-04 -1.398192E-04 +1.884040E-04 -1.398192E-04 +5.364403E-03 -9.665683E-05 +1.884040E-04 -9.665683E-05 -1.421208E-04 
 -7.296234E-05 -1.159092E-04 +3.147113E-04 -1.159092E-04 +5.212775E-03 -3.958861E-05 +3.147113E-04 -3.958861E-05 -1.827292E-04 
 +4.596984E-05 -5.276111E-05 +2.788220E-04 -5.276111E-05 +5.123670E-03 -1.825594E-06 +2.788220E-04 -1.825594E-06 -1.765108E-04 
 -8.259936E-05 -5.660910E-05 +3.301667E-04 -5.660910E-05 +5.138750E-03 +3.357172E-05 +3.301667E-04 +3.357172E-05 +1.835205E-05 
 -3.495738E-04 -2.612782E-05 +2.745513E-04 -2.612782E-05 +5.174150E-03 +4.046005E-05 +2.745513E-04 +4.046005E-05 +2.656159E-04 
 -2.336278E-04 -2.802891E-05 +2.569942E-04 -2.802891E-05 +5.140276E-03 -1.572839E-05 +2.569942E-04 -1.572839E-05 +2.665110E-04 
 -2.775750E-04 +5.236134E-05 +2.860417E-04 +5.236134E-05 +5.167682E-03 +3.844567E-05 +2.860417E-04 +3.844567E-05 +1.889496E-04 
 -1.925111E-04 +6.682077E-05 +2.736999E-04 +6.682077E-05 +5.054881E-03 +5.252415E-05 +2.736999E-04 +5.252415E-05 +2.163174E-04 
 +3.025955E-05 -3.999553E-05 +5.691731E-05 -3.999553E-05 +4.815875E-03 +1.276835E-04 +5.691731E-05 +1.276835E-04 +2.442496E-04 
 +4.843386E-05 -1.430539E-05 +6.119213E-05 -1.430539E-05 +4.707574E-03 +2.233120E-04 +6.119213E-05 +2.233120E-04 +1.634157E-04 
 +3.974766E-05 +3.760473E-05 +5.170713E-05 +3.760473E-05 +4.787467E-03 +2.965548E-04 +5.170713E-05 +2.965548E-04 +1.839367E-04 
 +3.316281E-06 +8.436129E-05 +5.707132E-05 +8.436129E-05 +4.837478E-03 +2.878783E-04 +5.707132E-05 +2.878783E-04 +2.557337E-04 
 +9.344176E-05 +1.102142E-04 +6.263289E-05 +1.102142E-04 +4.872371E-03 +1.417851E-04 +6.263289E-05 +1.417851E-04 +1.546176E-04 
 +1.264556E-04 +2.636906E-05 +1.124493E-04 +2.636906E-05 +4.879783E-03 +6.977824E-05 +1.124493E-04 +6.977824E-05 +8.611545E-05 
 +1.033450E-04 -5.008300E-05 +9.215453E-05 -5.008300E-05 +4.876962E-03 +4.697207E-05 +9.215453E-05 +4.697207E-05 +9.896216E-05 
 +1.637639E-05 -5.954759E-05 +1.587360E-04 -5.954759E-05 +5.027621E-03 -1.839269E-05 +1.587360E-04 -1.839269E-05 +7.117565E-05 
 +1.132188E-04 +2.697289E-05 +1.768024E-04 +2.697289E-05 +4.957250E-03 +5.409897E-06 +1.768024E-04 +5.409897E-06 +5.643844E-05 
 +3.342020E-04 +1.876734E-04 +5.093527E-05 +1.876734E-04 +4.806582E-03 +1.358291E-04 +5.093527E-05 +1.358291E-04 +1.391666E-05 
 +1.854551E-04 +3.215787E-05 +3.377604E-05 +3.215787E-05 +4.927093E-03 +1.295818E-04 +3.377604E-05 +1.295818E-04 +4.186687E-05 
 +7.173497E-05 -6.697321E-05 -1.942310E-05 -6.697321E-05 +5.008445E-03 +9.107208E-05 -1.942310E-05 +9.107208E-05 +2.271667E-04 
 +3.072812E-05 -6.687176E-05 -1.081912E-04 -6.687176E-05 +5.016456E-03 +8.123077E-05 -1.081912E-04 +8.123077E-05 +2.428792E-04 
 -2.889709E-05 -1.494033E-04 +9.088111E-06 -1.494033E-04 +5.110846E-03 -1.980468E-06 +9.088111E-06 -1.980468E-06 +9.587113E-05 
 -6.260392E-05 -1.940573E-04 +1.896297E-04 -1.940573E-04 +5.113341E-03 -5.982655E-05 +1.896297E-04 -5.982655E-05 -3.481137E-05 
 +6.862076E-06 -1.734412E-04 +2.350430E-04 -1.734412E-04 +5.067055E-03 -8.982157E-05 +2.350430E-04 -8.982157E-05 -1.057582E-04 
 -1.746824E-04 -1.145012E-04 +3.233128E-04 -1.145012E-04 +5.090036E-03 -9.233439E-05 +3.233128E-04 -9.233439E-05 +1.452163E-04 
 -2.335204E-04 -6.597021E-05 +2.550053E-04 -6.597021E-05 +5.123770E-03 -5.887186E-05 +2.550053E-04 -5.887186E-05 +3.512355E-04 
 -2.524930E-04 -1.609855E-07 +2.127803E-04 -1.609855E-07 +5.137062E-03 -6.597372E-05 +2.127803E-04 -6.597372E-05 +3.361493E-04 
 -2.379120E-04 +6.775148E-05 +2.459021E-04 +6.775148E-05 +5.061010E-03 -7.081069E-05 +2.459021E-04 -7.081069E-05 +2.947856E-04 
 -3.179793E-06 +2.356127E-05 +2.528944E-04 +2.356127E-05 +4.767809E-03 +4.276788E-05 +2.528944E-04 +4.276788E-05 +3.124214E-04 
 -1.031699E-05 -2.935795E-05 +1.155163E-04 -2.935795E-05 +4.694278E-03 +1.868408E-04 +1.155163E-04 +1.868408E-04 +2.626091E-04 
 -2.785937E-05 -2.934673E-06 +1.257054E-04 -2.934673E-06 +4.776901E-03 +2.285090E-04 +1.257054E-04 +2.285090E-04 +1.429729E-04 
 -4.488659E-06 +4.866842E-05 +1.143193E-04 +4.866842E-05 +4.801185E-03 +3.088195E-04 +1.143193E-04 +3.088195E-04 +1.961655E-04 
 +1.379051E-04 +3.282304E-05 -1.194719E-05 +3.282304E-05 +4.806300E-03 +3.358399E-04 -1.194719E-05 +3.358399E-04 +2.637016E-04 
 +2.324895E-04 +1.204216E-04 +5.437289E-05 +1.204216E-04 +4.833214E-03 +1.703533E-04 +5.437289E-05 +1.703533E-04 +1.892239E-04 
 +9.831434E-05 -9.197625E-05 +1.578164E-04 -9.197625E-05 +4.917509E-03 -1.105539E-05 +1.578164E-04 -1.105539E-05 +1.536628E-04 
 -1.699779E-05 -1.657474E-04 +1.156894E-04 -1.657474E-04 +5.013249E-03 -6.577803E-05 +1.156894E-04 -6.577803E-05 +8.742701E-05 
 -5.441707E-05 -1.106523E-04 +1.394640E-04 -1.106523E-04 +5.052055E-03 -8.451608E-05 +1.394640E-04 -8.451608E-05 -7.405301E-06 
 -3.721411E-05 -4.648858E-05 +2.245639E-04 -4.648858E-05 +5.101488E-03 -8.138329E-05 +2.245639E-04 -8.138329E-05 +5.917257E-05 
 +3.623201E-05 +7.621698E-05 +2.058249E-04 +7.621698E-05 +5.004864E-03 -4.560014E-05 +2.058249E-04 -4.560014E-05 +5.685027E-05 
 +2.360588E-04 +7.438668E-05 -8.297077E-06 +7.438668E-05 +4.800811E-03 -1.470043E-04 -8.297077E-06 -1.470043E-04 +7.854286E-05 
 +1.585541E-04 +5.588356E-05 -5.292006E-05 +5.588356E-05 +4.758886E-03 -2.989737E-04 -5.292006E-05 -2.989737E-04 +2.501580E-04 
 +1.602524E-04 +8.345679E-05 -1.537923E-04 +8.345679E-05 +4.752378E-03 -1.885953E-04 -1.537923E-04 -1.885953E-04 +3.027119E-04 
 +1.713728E-04 -1.019739E-05 -1.856774E-04 -1.019739E-05 +4.862595E-03 +2.004396E-05 -1.856774E-04 +2.004396E-05 +3.242272E-04 
 -1.025254E-04 -1.551958E-04 -4.552227E-06 -1.551958E-04 +5.056634E-03 -3.329972E-05 -4.552227E-06 -3.329972E-05 +2.463042E-04 
 -1.343863E-04 -1.431594E-04 +1.575606E-04 -1.431594E-04 +5.067930E-03 -1.234612E-04 +1.575606E-04 -1.234612E-04 +1.196520E-04 
 -1.724688E-04 -7.476160E-05 +2.638977E-04 -7.476160E-05 +5.039080E-03 -7.668160E-05 +2.638977E-04 -7.668160E-05 +2.658550E-04 
 -1.769124E-04 -5.784096E-05 +2.021499E-04 -5.784096E-05 +5.058816E-03 -5.699315E-05 +2.021499E-04 -5.699315E-05 +3.951596E-04 
 -1.968295E-04 -3.143500E-05 +1.408825E-04 -3.143500E-05 +5.041291E-03 -7.430246E-05 +1.408825E-04 -7.430246E-05 +3.473773E-04 
 +3.105087E-05 +1.010532E-05 +2.303907E-05 +1.010532E-05 +4.880314E-03 -9.932510E-05 +2.303907E-05 -9.932510E-05 +3.341709E-04 
 +6.066924E-06 +5.429547E-05 +1.374702E-04 +5.429547E-05 +4.922542E-03 -1.052417E-04 +1.374702E-04 -1.052417E-04 +3.457132E-04 
 -6.029111E-05 +5.213277E-05 +1.723141E-04 +5.213277E-05 +5.060693E-03 -1.052945E-05 +1.723141E-04 -1.052945E-05 +2.069363E-04 
 -9.264026E-05 +8.381146E-05 +2.004988E-04 +8.381146E-05 +5.164385E-03 +9.511508E-05 +2.004988E-04 +9.511508E-05 +1.704367E-05 
 -1.303332E-05 +1.405667E-04 +1.969897E-04 +1.405667E-04 +5.168886E-03 +1.248203E-04 +1.969897E-04 +1.248203E-04 +3.526770E-06 
 +1.296198E-04 +9.424215E-05 +1.463607E-04 +9.424215E-05 +5.125127E-03 +1.052577E-04 +1.463607E-04 +1.052577E-04 +7.963075E-05 
 +2.275514E-04 +2.561871E-06 +1.821698E-04 +2.561871E-06 +5.025727E-03 +1.638021E-05 +1.821698E-04 +1.638021E-05 +1.296230E-04 
 +8.121635E-05 -1.304237E-04 +2.076171E-04 -1.304237E-04 +4.925430E-03 -5.344531E-05 +2.076171E-04 -5.344531E-05 +1.189916E-04 
 -7.596702E-05 -1.050517E-04 +1.554236E-04 -1.050517E-04 +4.978343E-03 -4.518521E-05 +1.554236E-04 -4.518521E-05 +7.065224E-05 
 -6.025759E-05 -9.536337E-05 +1.301163E-04 -9.536337E-05 +5.034928E-03 -4.037393E-05 +1.301163E-04 -4.037393E-05 +2.305360E-05 
 -1.231997E-04 -1.420266E-05 +2.097028E-04 -1.420266E-05 +5.063164E-03 -6.955304E-05 +2.097028E-04 -6.955304E-05 +9.181828E-05 
 -1.443671E-04 +7.066618E-05 +2.657578E-04 +7.066618E-05 +4.990184E-03 -1.369670E-04 +2.657578E-04 -1.369670E-04 +7.442697E-05 
 +3.044368E-04 +1.087174E-04 -5.900162E-06 +1.087174E-04 +4.779442E-03 -2.222227E-04 -5.900162E-06 -2.222227E-04 +3.064349E-05 
 +2.729659E-04 +9.350595E-05 -4.530587E-05 +9.350595E-05 +4.658119E-03 -2.599597E-04 -4.530587E-05 -2.599597E-04 +1.543398E-04 
 +1.981778E-04 +6.805234E-05 -8.252241E-05 +6.805234E-05 +4.674783E-03 -1.738384E-04 -8.252241E-05 -1.738384E-04 +2.803492E-04 
 +1.678721E-04 -3.065364E-06 -1.664561E-04 -3.065364E-06 +4.702836E-03 +2.786909E-05 -1.664561E-04 +2.786909E-05 +3.695790E-04 
 +6.532909E-05 -1.379449E-04 -1.085740E-04 -1.379449E-04 +4.788900E-03 +5.950222E-05 -1.085740E-04 +5.950222E-05 +4.157045E-04 
 -2.376597E-04 -6.324861E-05 +1.267021E-04 -6.324861E-05 +4.967192E-03 -4.327882E-05 +1.267021E-04 -4.327882E-05 +3.752310E-04 
 -2.451722E-04 +3.104599E-06 +2.210409E-04 +3.104599E-06 +5.070769E-03 -7.236334E-05 +2.210409E-04 -7.236334E-05 +3.712681E-04 
 -2.349536E-04 -4.618623E-05 +1.845690E-04 -4.618623E-05 +5.112119E-03 -7.893382E-05 +1.845690E-04 -7.893382E-05 +4.036739E-04 
 -1.116473E-04 -6.725267E-05 +4.005964E-05 -6.725267E-05 +4.972578E-03 -3.464286E-05 +4.005964E-05 -3.464286E-05 +3.278828E-04 
 +6.265638E-05 -1.418008E-04 -1.354668E-04 -1.418008E-04 +4.814237E-03 -1.482060E-05 -1.354668E-04 -1.482060E-05 +2.469391E-04 
 +5.346892E-05 -7.729731E-05 -7.090021E-05 -7.729731E-05 +4.806151E-03 +2.280321E-05 -7.090021E-05 +2.280321E-05 +2.183744E-04 
 -9.003868E-05 -2.297639E-05 +1.207916E-04 -2.297639E-05 +4.959263E-03 +5.255164E-05 +1.207916E-04 +5.255164E-05 +1.557105E-04 
 -3.036121E-05 +3.247436E-05 +2.093698E-04 +3.247436E-05 +5.091880E-03 +1.256228E-04 +2.093698E-04 +1.256228E-04 -1.466404E-05 
 +3.693385E-05 +3.591099E-05 +2.448475E-04 +3.591099E-05 +5.110115E-03 +1.443368E-04 +2.448475E-04 +1.443368E-04 -9.578127E-05 
 +1.531117E-04 +1.322578E-04 +2.869899E-04 +1.322578E-04 +5.096323E-03 +4.963326E-05 +2.869899E-04 +4.963326E-05 -8.146326E-05 
 +2.859527E-04 +1.210093E-04 +2.615070E-04 +1.210093E-04 +5.013376E-03 -5.242597E-05 +2.615070E-04 -5.242597E-05 +1.332623E-05 
 -5.692941E-06 +1.079156E-04 +2.555675E-04 +1.079156E-04 +4.987000E-03 -7.134115E-05 +2.555675E-04 -7.134115E-05 +2.849745E-05 
 -1.174073E-04 +1.430704E-05 +1.871609E-04 +1.430704E-05 +5.060406E-03 -4.913185E-05 +1.871609E-04 -4.913185E-05 -5.183439E-07 
 -1.369645E-04 -2.838513E-05 +1.429092E-04 -2.838513E-05 +5.053810E-03 -6.173558E-05 +1.429092E-04 -6.173558E-05 +2.831795E-05 
 -2.221001E-04 +3.806697E-05 +2.245923E-04 +3.806697E-05 +5.039426E-03 -7.414328E-05 +2.245923E-04 -7.414328E-05 +9.900603E-05 
 -6.843560E-05 +4.219203E-05 +1.914840E-04 +4.219203E-05 +4.981133E-03 -1.370303E-04 +1.914840E-04 -1.370303E-04 +7.662480E-05 
 +2.450035E-04 +9.323552E-05 +2.971907E-05 +9.323552E-05 +4.802053E-03 -2.130552E-04 +2.971907E-05 -2.130552E-04 +3.481902E-05 
 +2.282428E-04 +1.413927E-04 +2.539033E-05 +1.413927E-04 +4.679299E-03 -2.493981E-04 +2.539033E-05 -2.493981E-04 +1.058951E-04 
 +1.906682E-04 +7.734702E-05 -3.338824E-05 +7.734702E-05 +4.686722E-03 -1.737065E-04 -3.338824E-05 -1.737065E-04 +1.831865E-04 
 +1.717800E-04 +1.811920E-05 -7.881286E-05 +1.811920E-05 +4.682863E-03 +1.195461E-05 -7.881286E-05 +1.195461E-05 +2.571517E-04 
 +2.024626E-04 -6.293490E-05 -9.179185E-05 -6.293490E-05 +4.737262E-03 +5.288688E-05 -9.179185E-05 +5.288688E-05 +3.905497E-04 
 -2.782554E-04 -3.286748E-05 +1.547507E-04 -3.286748E-05 +4.945219E-03 -1.429010E-05 +1.547507E-04 -1.429010E-05 +4.598049E-04 
 -2.785944E-04 -1.971633E-05 +1.589940E-04 -1.971633E-05 +5.134339E-03 -8.755611E-05 +1.589940E-04 -8.755611E-05 +4.146706E-04 
 -2.909682E-04 -1.101612E-05 +2.116504E-04 -1.101612E-05 +5.129092E-03 -8.455294E-05 +2.116504E-04 -8.455294E-05 +3.811458E-04 
 -1.090566E-04 -7.256098E-05 -6.826692E-06 -7.256098E-05 +4.974314E-03 +5.152526E-05 -6.826692E-06 +5.152526E-05 +3.011824E-04 
 -1.614857E-04 -1.563588E-04 -1.326814E-04 -1.563588E-04 +4.960338E-03 +1.652332E-05 -1.326814E-04 +1.652332E-05 +1.196403E-04 
 +1.542404E-05 -1.036543E-04 -6.343971E-05 -1.036543E-04 +4.888570E-03 +6.858021E-05 -6.343971E-05 +6.858021E-05 +5.480007E-05 
 +4.652071E-06 -4.890970E-05 +4.941383E-05 -4.890970E-05 +4.831637E-03 +1.453627E-04 +4.941383E-05 +1.453627E-04 +1.197738E-04 
 +1.592914E-04 +5.553522E-05 +1.608863E-04 +5.553522E-05 +4.818756E-03 +1.042596E-04 +1.608863E-04 +1.042596E-04 +3.795628E-05 
 +1.682810E-04 +8.885469E-05 +2.149699E-04 +8.885469E-05 +4.772133E-03 +1.121906E-04 +2.149699E-04 +1.121906E-04 -6.344621E-05 
 +2.899714E-04 +1.851779E-04 +2.033497E-04 +1.851779E-04 +4.672893E-03 +9.681757E-05 +2.033497E-04 +9.681757E-05 -1.011766E-04 
 +3.130338E-04 +1.026313E-04 +1.683014E-04 +1.026313E-04 +4.794514E-03 +6.597196E-05 +1.683014E-04 +6.597196E-05 -7.601944E-05 
 -5.518206E-05 +1.384323E-04 +2.719734E-04 +1.384323E-04 +5.071514E-03 +5.537186E-05 +2.719734E-04 +5.537186E-05 -7.171442E-05 
 -9.447284E-05 +1.074831E-04 +1.511746E-04 +1.074831E-04 +5.112693E-03 -2.206849E-05 +1.511746E-04 -2.206849E-05 -6.375876E-05 
 -2.433501E-04 +1.373206E-04 +1.709919E-04 +1.373206E-04 +5.101319E-03 -6.297406E-05 +1.709919E-04 -6.297406E-05 +1.477065E-05 
 -3.128496E-04 +1.448508E-04 +2.075237E-04 +1.448508E-04 +5.013696E-03 -1.315139E-04 +2.075237E-04 -1.315139E-04 +9.237637E-05 
 -9.335201E-07 +1.268161E-04 +8.276359E-05 +1.268161E-04 +4.783830E-03 -2.544032E-04 +8.276359E-05 -2.544032E-04 +1.001795E-04 
 +3.159113E-05 +1.023358E-04 +1.106499E-04 +1.023358E-04 +4.765046E-03 -2.212676E-04 +1.106499E-04 -2.212676E-04 +8.817348E-05 
 +1.189053E-04 +8.510390E-05 +9.401182E-05 +8.510390E-05 +4.795970E-03 -1.487613E-04 +9.401182E-05 -1.487613E-04 +1.094433E-04 
 +1.926134E-04 +5.961757E-05 +4.499492E-05 +5.961757E-05 +4.698052E-03 -1.871430E-04 +4.499492E-05 -1.871430E-04 +1.274866E-04 
 +2.130321E-04 +1.945561E-05 +2.496534E-05 +1.945561E-05 +4.681446E-03 -2.330979E-04 +2.496534E-05 -2.330979E-04 +2.022049E-04 
 +1.496506E-04 -1.756270E-05 -2.138811E-05 -1.756270E-05 +4.853828E-03 -1.894665E-04 -2.138811E-05 -1.894665E-04 +3.617210E-04 
 -3.129408E-04 -9.078011E-06 +1.770881E-04 -9.078011E-06 +5.026872E-03 -7.077948E-05 +1.770881E-04 -7.077948E-05 +4.093755E-04 
 -1.819750E-04 -3.809809E-05 +1.077646E-04 -3.809809E-05 +5.037227E-03 +3.884246E-05 +1.077646E-04 +3.884246E-05 +3.529693E-04 
 -1.843651E-04 -3.471317E-05 +1.591299E-04 -3.471317E-05 +4.984612E-03 +6.436216E-05 +1.591299E-04 +6.436216E-05 +3.403659E-04 
 -1.441836E-04 -8.368529E-05 +1.095616E-05 -8.368529E-05 +4.983149E-03 +8.034236E-05 +1.095616E-05 +8.034236E-05 +2.396875E-04 
 -2.256984E-04 -1.262966E-04 -5.972690E-05 -1.262966E-04 +5.028472E-03 +4.157932E-05 -5.972690E-05 +4.157932E-05 +8.121156E-05 
 -1.292681E-04 -7.217575E-05 +3.995008E-05 -7.217575E-05 +4.906759E-03 +8.792227E-06 +3.995008E-05 +8.792227E-06 +1.551740E-05 
 +1.522286E-04 +5.610198E-05 +1.045470E-04 +5.610198E-05 +4.721789E-03 +5.640480E-05 +1.045470E-04 +5.640480E-05 +5.807564E-05 
 +2.994349E-04 +1.087868E-04 +1.267267E-04 +1.087868E-04 +4.661877E-03 +5.794809E-05 +1.267267E-04 +5.794809E-05 +5.307467E-05 
 +2.599256E-04 +4.376497E-05 +1.343196E-04 +4.376497E-05 +4.727296E-03 +1.720897E-05 +1.343196E-04 +1.720897E-05 -7.388532E-06 
 +2.217232E-04 -3.977007E-05 +1.480894E-04 -3.977007E-05 +4.767386E-03 +1.915760E-07 +1.480894E-04 +1.915760E-07 -7.060274E-05 
 +1.871111E-04 +1.049119E-06 +1.453025E-04 +1.049119E-06 +4.782325E-03 +4.372227E-05 +1.453025E-04 +4.372227E-05 -1.042392E-04 
 +9.813090E-05 -3.952028E-05 +2.126049E-04 -3.952028E-05 +4.787445E-03 +4.378818E-05 +2.126049E-04 +4.378818E-05 -1.038811E-04 
 +9.690797E-05 -4.779574E-05 +1.035479E-04 -4.779574E-05 +4.859104E-03 -4.991745E-05 +1.035479E-04 -4.991745E-05 -8.839223E-05 
 -2.005078E-04 +1.161386E-04 +1.712010E-04 +1.161386E-04 +5.010959E-03 -7.946244E-05 +1.712010E-04 -7.946244E-05 -2.580210E-05 
 -2.847614E-04 +1.294531E-04 +1.008855E-04 +1.294531E-04 +5.044386E-03 -1.360932E-04 +1.008855E-04 -1.360932E-04 +6.711941E-05 
 -1.880206E-04 +1.099637E-04 +7.469409E-05 +1.099637E-04 +5.120398E-03 -1.429641E-04 +7.469409E-05 -1.429641E-04 +1.373144E-04 
 -2.058005E-04 +7.845174E-05 +1.902047E-04 +7.845174E-05 +5.097109E-03 -1.133779E-04 +1.902047E-04 -1.133779E-04 +1.516550E-04 
 +2.504337E-05 +5.629375E-05 +1.596350E-04 +5.629375E-05 +4.899528E-03 -1.047216E-04 +1.596350E-04 -1.047216E-04 +2.150487E-04 
 +1.422999E-04 +1.670566E-05 +1.216586E-04 +1.670566E-05 +4.783057E-03 -1.014552E-04 +1.216586E-04 -1.014552E-04 +2.382155E-04 
 +1.251111E-04 -3.581949E-05 +1.479805E-04 -3.581949E-05 +4.795777E-03 -1.506235E-04 +1.479805E-04 -1.506235E-04 +1.767993E-04 
 +6.566867E-05 -3.395318E-05 +1.013361E-04 -3.395318E-05 +4.893372E-03 -1.353617E-04 +1.013361E-04 -1.353617E-04 +2.273612E-04 
 -1.883990E-04 -3.275522E-05 +1.495969E-04 -3.275522E-05 +4.976518E-03 -3.975422E-06 +1.495969E-04 -3.975422E-06 +2.817180E-04 
 -5.963447E-05 -5.719448E-05 +7.966024E-05 -5.719448E-05 +4.957948E-03 +1.048061E-04 +7.966024E-05 +1.048061E-04 +2.830966E-04 
 -4.728452E-05 -4.983559E-05 +8.948719E-05 -4.983559E-05 +4.940666E-03 +1.120903E-04 +8.948719E-05 +1.120903E-04 +2.929057E-04 
 -1.070366E-04 -9.682792E-05 +3.946457E-05 -9.682792E-05 +4.981458E-03 +1.359650E-04 +3.946457E-05 +1.359650E-04 +2.095982E-04 
 -1.419515E-04 -1.265011E-04 -9.130751E-06 -1.265011E-04 +5.049525E-03 +7.379669E-05 -9.130751E-06 +7.379669E-05 +1.224426E-04 
 -9.033711E-05 -1.207116E-04 +5.570000E-05 -1.207116E-04 +4.972110E-03 +1.054220E-05 +5.570000E-05 +1.054220E-05 +2.520965E-05 
 +2.037447E-04 +5.527313E-05 +1.306060E-04 +5.527313E-05 +4.735840E-03 +4.819757E-05 +1.306060E-04 +4.819757E-05 +3.311423E-05 
 +2.753923E-04 +1.689132E-04 +1.285184E-04 +1.689132E-04 +4.638955E-03 +7.245327E-05 +1.285184E-04 +7.245327E-05 +8.133130E-05 
 +2.039224E-04 +1.150877E-04 +1.099409E-04 +1.150877E-04 +4.741346E-03 +6.296512E-05 +1.099409E-04 +6.296512E-05 +4.157387E-05 
 +1.073830E-04 -1.539838E-05 +1.841254E-04 -1.539838E-05 +4.824615E-03 +6.292078E-06 +1.841254E-04 +6.292078E-06 -3.980814E-05 
 +1.146572E-04 +8.226575E-05 +1.790187E-04 +8.226575E-05 +4.830502E-03 -4.332320E-06 +1.790187E-04 -4.332320E-06 -8.655917E-05 
 +1.353105E-04 -5.030191E-05 +1.614509E-04 -5.030191E-05 +4.779634E-03 +3.900302E-05 +1.614509E-04 +3.900302E-05 -7.035339E-05 
 +1.776220E-04 -8.894980E-05 +1.087380E-04 -8.894980E-05 +4.768875E-03 -3.110926E-06 +1.087380E-04 -3.110926E-06 -8.157661E-05 
 +3.891384E-05 -4.294295E-05 +1.044838E-04 -4.294295E-05 +4.808226E-03 -6.581050E-05 +1.044838E-04 -6.581050E-05 -4.527474E-05 
 -2.766486E-04 -9.477286E-06 +5.364452E-05 -9.477286E-06 +4.982362E-03 -7.842387E-05 +5.364452E-05 -7.842387E-05 +7.356933E-05 
 -3.232025E-04 +1.559392E-05 +1.035326E-04 +1.559392E-05 +5.143002E-03 -8.043341E-05 +1.035326E-04 -8.043341E-05 +1.462360E-04 
 -2.372516E-04 +2.548663E-05 +1.736304E-04 +2.548663E-05 +5.156338E-03 -1.039232E-04 +1.736304E-04 -1.039232E-04 +1.561927E-04 
 -1.310807E-04 +1.719870E-05 +2.127195E-04 +1.719870E-05 +5.153685E-03 -9.521485E-05 +2.127195E-04 -9.521485E-05 +2.340268E-04 
 -4.426018E-05 -3.079263E-05 +1.976674E-04 -3.079263E-05 +5.145340E-03 -1.046108E-04 +1.976674E-04 -1.046108E-04 +2.660639E-04 
 -4.584680E-05 -1.003541E-04 +2.233842E-04 -1.003541E-04 +5.111242E-03 -1.125759E-04 +2.233842E-04 -1.125759E-04 +1.524442E-04 
 +2.783226E-05 -6.152041E-05 +1.623581E-04 -6.152041E-05 +5.067470E-03 -1.380099E-04 +1.623581E-04 -1.380099E-04 +1.225236E-04 
 +5.018066E-05 -1.000711E-04 +9.224195E-05 -1.000711E-04 +4.986183E-03 -9.226613E-05 +9.224195E-05 -9.226613E-05 +1.720950E-04 
 +7.011318E-05 -1.265464E-04 +6.601768E-05 -1.265464E-04 +4.900238E-03 +6.539488E-05 +6.601768E-05 +6.539488E-05 +2.132884E-04 
 -7.357922E-06 -9.696296E-05 +9.627624E-05 -9.696296E-05 +4.900300E-03 +1.381042E-04 +9.627624E-05 +1.381042E-04 +2.383738E-04 
 +1.054721E-04 +3.905318E-07 +1.131544E-04 +3.905318E-07 +4.645530E-03 +9.882458E-05 +1.131544E-04 +9.882458E-05 +2.711024E-04 
 -1.648060E-05 -2.913650E-05 +2.246037E-05 -2.913650E-05 +4.628665E-03 +8.438388E-05 +2.246037E-05 +8.438388E-05 +1.674148E-04 
 +1.060018E-04 -2.554324E-05 +1.982703E-05 -2.554324E-05 +4.578619E-03 -2.153391E-06 +1.982703E-05 -2.153391E-06 +5.140175E-05 
 +6.151991E-05 +8.498049E-05 +1.275426E-04 +8.498049E-05 +4.610004E-03 +1.767767E-05 +1.275426E-04 +1.767767E-05 +6.351431E-05 
 +1.686038E-04 +2.126023E-04 +1.259393E-04 +2.126023E-04 +4.664651E-03 +8.397014E-05 +1.259393E-04 +8.397014E-05 +1.187473E-04 
 +1.368706E-04 +1.720502E-04 +1.219520E-04 +1.720502E-04 +4.764451E-03 +5.970671E-05 +1.219520E-04 +5.970671E-05 +8.153336E-05 
 +3.515538E-05 +7.070567E-06 +1.885697E-04 +7.070567E-06 +4.876576E-03 -9.809427E-06 +1.885697E-04 -9.809427E-06 -3.174282E-06 
 +6.206180E-05 +3.831701E-05 +1.982020E-04 +3.831701E-05 +4.893482E-03 -8.370593E-06 +1.982020E-04 -8.370593E-06 -6.058416E-05 
 +8.906674E-05 -8.629253E-05 +1.855162E-04 -8.629253E-05 +4.848006E-03 +1.738204E-05 +1.855162E-04 +1.738204E-05 -7.699241E-05 
 +1.419773E-04 -7.599310E-05 +1.087548E-04 -7.599310E-05 +4.788154E-03 -3.789306E-05 +1.087548E-04 -3.789306E-05 -9.618549E-05 
 +7.453546E-05 -4.740637E-05 +5.065078E-05 -4.740637E-05 +4.834348E-03 -2.777885E-05 +5.065078E-05 -2.777885E-05 -3.017406E-05 
 -2.644307E-04 -2.527227E-05 +6.502306E-05 -2.527227E-05 +4.996239E-03 -1.752294E-05 +6.502306E-05 -1.752294E-05 +1.057499E-04 
 -2.818905E-04 -8.109191E-05 +9.159436E-05 -8.109191E-05 +5.106632E-03 -4.824153E-05 +9.159436E-05 -4.824153E-05 +1.680865E-04 
 -2.341204E-04 -1.044485E-04 +1.635032E-04 -1.044485E-04 +5.162998E-03 -6.612801E-05 +1.635032E-04 -6.612801E-05 +1.502646E-04 
 -2.063556E-04 -7.809152E-05 +2.228807E-04 -7.809152E-05 +5.212487E-03 -1.022925E-04 +2.228807E-04 -1.022925E-04 +1.269781E-04 
 -2.017898E-04 -3.459303E-05 +2.066544E-04 -3.459303E-05 +5.230159E-03 -1.320575E-04 +2.066544E-04 -1.320575E-04 +1.357969E-04 
 -1.911232E-04 -6.894386E-05 +2.123101E-04 -6.894386E-05 +5.208109E-03 -1.064615E-04 +2.123101E-04 -1.064615E-04 +1.034433E-04 
 -7.997049E-05 -9.948829E-05 +1.658556E-04 -9.948829E-05 +5.081587E-03 -9.184005E-05 +1.658556E-04 -9.184005E-05 +9.820684E-05 
 +1.637306E-04 -2.535081E-04 +3.289245E-06 -2.535081E-04 +4.908471E-03 -5.446421E-05 +3.289245E-06 -5.446421E-05 +1.043823E-04 
 +1.883141E-04 -2.803762E-04 +3.005608E-05 -2.803762E-04 +4.862558E-03 +2.323291E-06 +3.005608E-05 +2.323291E-06 +9.396771E-05 
 +1.428719E-04 -2.361578E-04 +1.007663E-04 -2.361578E-04 +4.749964E-03 +4.917052E-05 +1.007663E-04 +4.917052E-05 +2.035989E-04 
 +2.912681E-04 -2.756709E-05 +9.314087E-05 -2.756709E-05 +4.604807E-03 +1.448416E-04 +9.314087E-05 +1.448416E-04 +2.577450E-04 
 +1.966113E-04 -1.091420E-04 +3.939269E-05 -1.091420E-04 +4.571008E-03 +1.117724E-04 +3.939269E-05 +1.117724E-04 +2.071345E-04 
 +1.284800E-04 -1.040518E-04 +1.367369E-05 -1.040518E-04 +4.669125E-03 +5.804935E-05 +1.367369E-05 +5.804935E-05 +1.084810E-04 
 -8.252956E-05 -3.463475E-05 +1.858905E-04 -3.463475E-05 +4.810617E-03 +3.551305E-05 +1.858905E-04 +3.551305E-05 +5.093284E-05 
 +1.564966E-05 +8.252230E-05 +1.917243E-04 +8.252230E-05 +4.783754E-03 +1.055226E-04 +1.917243E-04 +1.055226E-04 +9.512727E-05 
 +7.626512E-05 +1.421134E-04 +1.382507E-04 +1.421134E-04 +4.788905E-03 +1.070098E-04 +1.382507E-04 +1.070098E-04 +1.009916E-04 
 +1.980896E-05 -2.492090E-05 +1.691844E-04 -2.492090E-05 +4.918656E-03 -1.814572E-05 +1.691844E-04 -1.814572E-05 +6.173955E-05 
 +1.688823E-05 -6.019943E-06 +2.200129E-04 -6.019943E-06 +4.957851E-03 -3.993291E-05 +2.200129E-04 -3.993291E-05 +2.445183E-05 
 +5.793742E-05 -1.480031E-04 +2.511202E-04 -1.480031E-04 +4.915374E-03 -1.234475E-05 +2.511202E-04 -1.234475E-05 -5.971219E-05 
 +1.092000E-04 -1.341761E-04 +1.478629E-04 -1.341761E-04 +4.907173E-03 -4.778028E-05 +1.478629E-04 -4.778028E-05 -8.386654E-05 
 -1.145746E-04 -6.531105E-05 +1.331852E-04 -6.531105E-05 +4.991367E-03 -2.663211E-05 +1.331852E-04 -2.663211E-05 +3.566180E-05 
 -1.944584E-04 -8.280199E-05 +1.152375E-04 -8.280199E-05 +5.042040E-03 -3.530566E-05 +1.152375E-04 -3.530566E-05 +1.549452E-04 
 -2.329339E-04 -1.289835E-04 +1.364235E-04 -1.289835E-04 +5.066357E-03 -4.465155E-05 +1.364235E-04 -4.465155E-05 +1.847726E-04 
 -2.440328E-04 -1.194263E-04 +1.494400E-04 -1.194263E-04 +5.142939E-03 -4.173878E-05 +1.494400E-04 -4.173878E-05 +1.356810E-04 
 -1.805965E-04 -1.027265E-04 +1.802552E-04 -1.027265E-04 +5.215953E-03 -9.750432E-05 +1.802552E-04 -9.750432E-05 +6.350768E-05 
 -2.117182E-04 -6.218779E-05 +1.775729E-04 -6.218779E-05 +5.248651E-03 -1.532511E-04 +1.775729E-04 -1.532511E-04 +6.790047E-05 
 -2.245780E-04 -3.932622E-05 +1.728644E-04 -3.932622E-05 +5.240406E-03 -1.500491E-04 +1.728644E-04 -1.500491E-04 +6.448672E-05 
 -9.163424E-05 -2.586632E-05 +1.390163E-04 -2.586632E-05 +5.117497E-03 -2.024757E-04 +1.390163E-04 -2.024757E-04 +1.743721E-05 
 +1.984825E-04 -2.691570E-05 -4.177658E-05 -2.691570E-05 +4.924288E-03 -2.391417E-04 -4.177658E-05 -2.391417E-04 +5.370960E-05 
 +2.104071E-04 -1.402032E-05 -2.324322E-05 -1.402032E-05 +4.792719E-03 -1.265952E-04 -2.324322E-05 -1.265952E-04 +7.802332E-05 
 +2.560694E-04 -1.860253E-04 +7.120192E-05 -1.860253E-04 +4.692257E-03 +5.703554E-05 +7.120192E-05 +5.703554E-05 +1.746836E-04 
 +3.455274E-04 -6.030113E-05 -7.290432E-05 -6.030113E-05 +4.598255E-03 +9.843481E-05 -7.290432E-05 +9.843481E-05 +1.918616E-04 
 +2.674465E-04 -1.111632E-04 -3.763713E-05 -1.111632E-04 +4.623195E-03 +1.485304E-04 -3.763713E-05 +1.485304E-04 +2.172573E-04 
 +2.383705E-05 -1.291732E-04 +8.130698E-05 -1.291732E-04 +4.874846E-03 +1.487211E-04 +8.130698E-05 +1.487211E-04 +1.330551E-04 
 -6.539382E-05 -8.823026E-05 +2.249738E-04 -8.823026E-05 +5.011424E-03 +9.558402E-05 +2.249738E-04 +9.558402E-05 +3.046131E-05 
 -6.483354E-05 -9.089665E-08 +2.903217E-04 -9.089665E-08 +4.975604E-03 +8.470609E-05 +2.903217E-04 +8.470609E-05 +2.879707E-05 
 +1.340932E-04 +2.055075E-04 +8.216631E-05 +2.055075E-04 +4.819428E-03 +8.173163E-05 +8.216631E-05 +8.173163E-05 +5.306996E-05 
 +1.203089E-04 +2.106227E-04 +1.136391E-04 +2.106227E-04 +4.809095E-03 +8.078273E-05 +1.136391E-04 +8.078273E-05 +9.340076E-05 
 -8.034933E-05 +1.563011E-04 +1.622881E-04 +1.563011E-04 +4.946077E-03 +1.620757E-04 +1.622881E-04 +1.620757E-04 +8.604673E-05 
 -4.558499E-05 -7.546620E-05 +2.248181E-04 -7.546620E-05 +4.984035E-03 +9.344725E-05 +2.248181E-04 +9.344725E-05 -2.122027E-05 
 -1.116443E-04 -1.201253E-04 +1.799091E-04 -1.201253E-04 +5.028433E-03 +1.172291E-05 +1.799091E-04 +1.172291E-05 -2.704656E-05 
 -2.002076E-04 -5.186587E-05 +1.743335E-04 -5.186587E-05 +5.096458E-03 +1.346305E-06 +1.743335E-04 +1.346305E-06 +7.781299E-05 
 -1.796450E-04 -9.878788E-05 +2.277240E-04 -9.878788E-05 +5.093258E-03 -2.763686E-05 +2.277240E-04 -2.763686E-05 +1.944680E-04 
 -2.038507E-04 -1.563864E-04 +2.267071E-04 -1.563864E-04 +5.079194E-03 -1.693648E-05 +2.267071E-04 -1.693648E-05 +2.247792E-04 
 -2.052853E-04 -1.464510E-04 +1.620373E-04 -1.464510E-04 +5.123869E-03 -5.053032E-05 +1.620373E-04 -5.053032E-05 +1.633843E-04 
 -1.729698E-04 -1.346129E-04 +1.445775E-04 -1.346129E-04 +5.160810E-03 -1.220490E-04 +1.445775E-04 -1.220490E-04 +1.384416E-04 
 -1.824264E-04 -1.241675E-04 +1.718885E-04 -1.241675E-04 +5.163484E-03 -1.642933E-04 +1.718885E-04 -1.642933E-04 +1.274609E-04 
 -1.535514E-04 -1.055375E-04 +1.554779E-04 -1.055375E-04 +5.162851E-03 -1.653931E-04 +1.554779E-04 -1.653931E-04 +1.252785E-04 
 +8.964052E-05 -1.644465E-04 +9.774678E-05 -1.644465E-04 +5.104132E-03 -2.253941E-04 +9.774678E-05 -2.253941E-04 +5.315530E-05 
 +2.438072E-04 -1.951951E-04 +5.163523E-05 -1.951951E-04 +4.921563E-03 -2.485343E-04 +5.163523E-05 -2.485343E-04 +6.133674E-05 
 +2.152726E-04 -1.278168E-04 -1.786819E-05 -1.278168E-04 +4.726711E-03 -2.006095E-04 -1.786819E-05 -2.006095E-04 +1.244645E-04 
 +2.258797E-04 -1.921022E-04 +6.501873E-09 -1.921022E-04 +4.675089E-03 -6.518071E-05 +6.501873E-09 -6.518071E-05 +1.428142E-04 
 +3.428300E-04 -4.447292E-05 -1.100618E-04 -4.447292E-05 +4.719458E-03 +7.578815E-05 -1.100618E-04 +7.578815E-05 +1.452233E-04 
 +1.338082E-04 -2.161008E-05 +4.937618E-05 -2.161008E-05 +4.913506E-03 +1.443610E-04 +4.937618E-05 +1.443610E-04 +1.378960E-04 
 +5.256281E-05 -7.470399E-05 +1.748869E-04 -7.470399E-05 +4.947381E-03 +1.176544E-04 +1.748869E-04 +1.176544E-04 +7.851887E-05 
 -2.302098E-06 -1.486710E-05 +2.402588E-04 -1.486710E-05 +4.924383E-03 +6.821160E-05 +2.402588E-04 +6.821160E-05 +3.440181E-05 
 -5.232564E-05 +1.973371E-05 +3.211499E-04 +1.973371E-05 +4.911876E-03 +6.368045E-05 +3.211499E-04 +6.368045E-05 +1.069476E-05 
 +2.180684E-04 +1.430662E-04 +2.681450E-05 +1.430662E-04 +4.812262E-03 +4.885512E-05 +2.681450E-05 +4.885512E-05 +3.380306E-05 
 +2.104225E-04 +2.323094E-04 +7.386455E-05 +2.323094E-04 +4.801518E-03 +5.515588E-05 +7.386455E-05 +5.515588E-05 +7.847388E-05 
 -5.960387E-05 +1.943956E-04 +1.145018E-04 +1.943956E-04 +4.862245E-03 +1.616902E-04 +1.145018E-04 +1.616902E-04 +9.413078E-05 
 -1.770180E-04 +1.105366E-04 +8.984581E-05 +1.105366E-04 +5.007573E-03 +1.818990E-04 +8.984581E-05 +1.818990E-04 +4.492442E-05 
 -4.526659E-04 +9.055100E-05 +1.017381E-04 +9.055100E-05 +5.212364E-03 +1.286757E-04 +1.017381E-04 +1.286757E-04 +4.789062E-05 
 -2.767726E-04 +3.281743E-05 +5.618480E-05 +3.281743E-05 +5.215940E-03 +1.341006E-04 +5.618480E-05 +1.341006E-04 +4.298809E-05 
 -2.331478E-04 -6.460501E-05 +1.728366E-04 -6.460501E-05 +5.152692E-03 +7.631449E-05 +1.728366E-04 +7.631449E-05 +8.574080E-05 
 -2.115696E-04 -1.008635E-04 +1.716258E-04 -1.008635E-04 +5.161834E-03 +1.975437E-05 +1.716258E-04 +1.975437E-05 +1.486610E-04 
 -1.624711E-04 -9.648539E-05 +1.131495E-04 -9.648539E-05 +5.148540E-03 +1.344263E-07 +1.131495E-04 +1.344263E-07 +1.122416E-04 
 -1.197695E-04 -7.053418E-05 +7.918140E-05 -7.053418E-05 +5.145528E-03 -6.869272E-05 +7.918140E-05 -6.869272E-05 +1.798252E-04 
 -1.555531E-04 -5.119691E-05 +2.682420E-04 -5.119691E-05 +5.134669E-03 -8.052874E-05 +2.682420E-04 -8.052874E-05 +2.081998E-04 
 -5.985352E-05 -7.368258E-05 +1.720442E-04 -7.368258E-05 +4.974790E-03 +6.697376E-07 +1.720442E-04 +6.697376E-07 +1.831303E-04 
 +3.112442E-04 -7.590706E-05 +6.207594E-06 -7.590706E-05 +4.840368E-03 -5.245276E-05 +6.207594E-06 -5.245276E-05 +1.220812E-04 
 +2.050057E-04 -1.466897E-04 +6.906646E-05 -1.466897E-04 +4.833938E-03 -1.618362E-04 +6.906646E-05 -1.618362E-04 +9.327311E-05 
 +2.195475E-04 -1.258209E-04 -2.795610E-05 -1.258209E-04 +4.795439E-03 -1.694885E-04 -2.795610E-05 -1.694885E-04 +1.353357E-04 
 +2.696696E-04 -1.866407E-04 -5.703511E-05 -1.866407E-04 +4.689077E-03 -5.985435E-05 -5.703511E-05 -5.985435E-05 +1.177948E-04 
 +2.456638E-04 +3.755964E-05 -1.959294E-05 +3.755964E-05 +4.940871E-03 +1.827812E-04 -1.959294E-05 +1.827812E-04 +3.986982E-05 
 +1.454623E-04 +3.972359E-05 +1.319810E-04 +3.972359E-05 +4.990588E-03 +1.536425E-04 +1.319810E-04 +1.536425E-04 +4.945262E-05 
 +8.455859E-05 -2.762371E-05 +2.243641E-04 -2.762371E-05 +4.941867E-03 +7.230996E-05 +2.243641E-04 +7.230996E-05 +3.013726E-05 
 +9.783516E-06 +2.352730E-05 +2.612834E-04 +2.352730E-05 +4.942841E-03 +6.855720E-05 +2.612834E-04 +6.855720E-05 -9.981443E-06 
 +3.745694E-06 -9.760061E-06 +2.566272E-04 -9.760061E-06 +4.927905E-03 +2.673707E-05 +2.566272E-04 +2.673707E-05 -1.465269E-05 
 +1.826039E-04 +8.635394E-05 +3.027758E-05 +8.635394E-05 +4.828976E-03 -2.055053E-05 +3.027758E-05 -2.055053E-05 +2.744009E-05 
 +2.124049E-04 +2.336203E-04 +1.363127E-04 +2.336203E-04 +4.755345E-03 +1.999398E-05 +1.363127E-04 +1.999398E-05 +2.674131E-05 
 +6.488479E-05 +1.682345E-04 +1.807370E-04 +1.682345E-04 +4.845599E-03 +9.410070E-05 +1.807370E-04 +9.410070E-05 +5.858154E-05 
 -2.828577E-04 +1.121014E-04 +2.605775E-05 +1.121014E-04 +5.049778E-03 +1.058233E-04 +2.605775E-05 +1.058233E-04 +1.537530E-04 
 -5.683308E-04 +1.135640E-04 +6.524858E-05 +1.135640E-04 +5.191815E-03 +1.033364E-04 +6.524858E-05 +1.033364E-04 +2.162498E-04 
 -5.113348E-04 +4.456215E-05 +7.343262E-05 +4.456215E-05 +5.212118E-03 +1.682580E-04 +7.343262E-05 +1.682580E-04 +9.518951E-05 
 -2.092487E-04 +1.500296E-05 -7.102461E-05 +1.500296E-05 +5.210702E-03 +1.236987E-04 -7.102461E-05 +1.236987E-04 -4.632395E-05 
 -1.749178E-04 +3.890504E-05 -4.011494E-05 +3.890504E-05 +5.231990E-03 +5.998966E-05 -4.011494E-05 +5.998966E-05 -6.150008E-05 
 -1.521115E-04 +3.188073E-05 -7.002406E-05 +3.188073E-05 +5.234759E-03 +1.060689E-04 -7.002406E-05 +1.060689E-04 -8.755638E-05 
 -1.005473E-04 +1.996473E-05 -6.026034E-05 +1.996473E-05 +5.197781E-03 +6.207407E-05 -6.026034E-05 +6.207407E-05 +4.493339E-05 
 -6.091444E-05 +4.221396E-06 +2.965351E-04 +4.221396E-06 +5.143521E-03 -2.482605E-05 +2.965351E-04 -2.482605E-05 +2.056840E-04 
 +5.423954E-05 -9.409453E-05 +1.319971E-04 -9.409453E-05 +4.982399E-03 -5.295012E-06 +1.319971E-04 -5.295012E-06 +2.048151E-04 
 +3.861092E-04 -7.224088E-05 -1.197908E-04 -7.224088E-05 +4.794328E-03 -4.752588E-05 -1.197908E-04 -4.752588E-05 +1.384539E-04 
 +2.141290E-04 -1.167535E-04 -4.803254E-05 -1.167535E-04 +4.833369E-03 -1.650164E-04 -4.803254E-05 -1.650164E-04 +1.441430E-04 
 +1.851730E-04 -1.339021E-04 -5.437166E-05 -1.339021E-04 +4.841687E-03 -1.603629E-04 -5.437166E-05 -1.603629E-04 +1.511041E-04 
 +2.715928E-04 -1.689657E-04 -7.704084E-05 -1.689657E-04 +4.803090E-03 +1.419446E-05 -7.704084E-05 +1.419446E-05 +5.876477E-05 
 +2.325515E-04 +2.240671E-04 +3.826197E-05 +2.240671E-04 +4.840212E-03 +1.056367E-04 +3.826197E-05 +1.056367E-04 -6.564033E-05 
 +1.796730E-04 +2.008935E-04 +1.002385E-04 +2.008935E-04 +4.861995E-03 +9.651786E-05 +1.002385E-04 +9.651786E-05 -1.875885E-05 
 -2.794831E-05 +6.064228E-05 +2.592558E-04 +6.064228E-05 +4.989732E-03 +9.999719E-05 +2.592558E-04 +9.999719E-05 -1.029988E-05 
 -4.575880E-05 +2.219200E-05 +2.156023E-04 +2.219200E-05 +5.038128E-03 +8.355733E-05 +2.156023E-04 +8.355733E-05 -1.106313E-04 
 +7.551156E-05 -2.259199E-05 +1.226697E-04 -2.259199E-05 +5.016515E-03 +9.952706E-06 +1.226697E-04 +9.952706E-06 -1.140809E-04 
 +1.104188E-04 +5.012064E-05 +6.324299E-05 +5.012064E-05 +5.062847E-03 -3.446978E-07 +6.324299E-05 -3.446978E-07 -7.341273E-05 
 +1.054261E-04 +1.461102E-04 +2.375161E-04 +1.461102E-04 +5.048825E-03 +8.210818E-06 +2.375161E-04 +8.210818E-06 -1.124278E-04 
 +6.365889E-05 +1.136015E-04 +1.984045E-04 +1.136015E-04 +5.040332E-03 -1.940054E-05 +1.984045E-04 -1.940054E-05 -8.380751E-05 
 -3.532113E-04 +3.233310E-05 -9.876927E-07 +3.233310E-05 +5.060253E-03 +2.389572E-05 -9.876927E-07 +2.389572E-05 +2.386027E-04 
 -4.947711E-04 +3.977737E-05 +1.159881E-04 +3.977737E-05 +5.070559E-03 +8.960863E-05 +1.159881E-04 +8.960863E-05 +4.405180E-04 
 -5.939729E-04 +4.149395E-05 +1.468935E-04 +4.149395E-05 +5.133527E-03 +8.648160E-05 +1.468935E-04 +8.648160E-05 +1.929161E-04 
 -1.575459E-04 +7.113172E-05 -1.842246E-04 +7.113172E-05 +5.158926E-03 +4.139874E-05 -1.842246E-04 +4.139874E-05 -5.943905E-05 
 -1.098500E-04 +8.716133E-05 -1.350983E-04 +8.716133E-05 +5.189355E-03 +4.471844E-05 -1.350983E-04 +4.471844E-05 -1.366325E-04 
 -1.305306E-04 +6.991521E-05 -1.611792E-04 +6.991521E-05 +5.244731E-03 +8.819608E-05 -1.611792E-04 +8.819608E-05 -1.454364E-04 
 -1.243798E-04 +1.472290E-05 -1.131802E-04 +1.472290E-05 +5.156019E-03 +1.143484E-04 -1.131802E-04 +1.143484E-04 +9.293108E-06 
 +1.154972E-04 +1.453409E-05 +2.728038E-04 +1.453409E-05 +4.901473E-03 +1.404655E-04 +2.728038E-04 +1.404655E-04 +2.433986E-04 
 +1.584283E-04 -5.925604E-05 +3.688784E-05 -5.925604E-05 +4.757408E-03 +1.389342E-04 +3.688784E-05 +1.389342E-04 +2.772590E-04 
 +2.916203E-04 -4.076149E-05 -1.585946E-04 -4.076149E-05 +4.687958E-03 +7.215704E-05 -1.585946E-04 +7.215704E-05 +1.824689E-04 
 +2.866024E-04 +4.406760E-05 -1.567306E-04 +4.406760E-05 +4.674260E-03 -2.939746E-05 -1.567306E-04 -2.939746E-05 +2.025060E-04 
 +2.144739E-04 -6.520644E-05 -1.712922E-04 -6.520644E-05 +4.783895E-03 -1.576356E-04 -1.712922E-04 -1.576356E-04 +2.184366E-04 
 +2.041607E-04 -3.606152E-05 -2.451989E-05 -3.606152E-05 +4.853433E-03 -5.800279E-05 -2.451989E-05 -5.800279E-05 +4.430969E-05 
 +1.276488E-04 +9.892112E-05 +1.660773E-04 +9.892112E-05 +5.119123E-03 +5.889317E-05 +1.660773E-04 +5.889317E-05 -1.489712E-04 
 +7.945396E-05 +4.694716E-05 +2.063688E-04 +4.694716E-05 +5.102845E-03 +1.104934E-04 +2.063688E-04 +1.104934E-04 -1.250320E-04 
 -6.671289E-05 -2.615815E-05 +3.200973E-04 -2.615815E-05 +5.140210E-03 +8.220824E-05 +3.200973E-04 +8.220824E-05 -6.936315E-05 
 -3.083316E-05 -1.218861E-06 +1.962256E-04 -1.218861E-06 +5.139051E-03 +6.390670E-05 +1.962256E-04 +6.390670E-05 -1.523873E-04 
 +5.052381E-05 -2.535556E-05 +5.161164E-05 -2.535556E-05 +5.141687E-03 +6.236587E-06 +5.161164E-05 +6.236587E-06 -2.924428E-04 
 +5.446433E-05 +5.996234E-05 +8.361516E-05 +5.996234E-05 +5.195848E-03 -5.597610E-05 +8.361516E-05 -5.597610E-05 -3.126607E-04 
 -3.181377E-05 +9.654230E-05 +1.763756E-04 +9.654230E-05 +5.197136E-03 -5.459284E-05 +1.763756E-04 -5.459284E-05 -2.439580E-04 
 -1.256601E-04 +6.333195E-05 +9.874052E-05 +6.333195E-05 +5.098910E-03 -2.923133E-05 +9.874052E-05 -2.923133E-05 -9.462513E-05 
 -3.577897E-04 -7.430771E-05 -8.523581E-05 -7.430771E-05 +5.071847E-03 +1.386187E-05 -8.523581E-05 +1.386187E-05 +2.360375E-04 
 -4.412659E-04 -5.855772E-05 +2.793743E-05 -5.855772E-05 +5.068212E-03 -7.123129E-07 +2.793743E-05 -7.123129E-07 +4.083390E-04 
 -4.037596E-04 -6.287639E-06 +4.490119E-05 -6.287639E-06 +5.053619E-03 -3.110481E-05 +4.490119E-05 -3.110481E-05 +2.018039E-04 
 -1.384029E-04 +6.711581E-05 -1.931178E-04 +6.711581E-05 +5.091275E-03 -8.993467E-06 -1.931178E-04 -8.993467E-06 -2.267026E-05 
 -6.403433E-05 +1.000236E-04 -1.493054E-04 +1.000236E-04 +5.131606E-03 +3.729983E-05 -1.493054E-04 +3.729983E-05 -1.081180E-04 
 -5.146115E-05 +1.024081E-04 -1.724535E-04 +1.024081E-04 +5.190998E-03 +3.279482E-05 -1.724535E-04 +3.279482E-05 -8.514010E-05 
 +3.861643E-05 -1.081742E-05 -1.317667E-05 -1.081742E-05 +5.112069E-03 +1.015886E-04 -1.317667E-05 +1.015886E-04 +4.961082E-05 
 +2.711794E-04 +2.410430E-05 +2.492680E-04 +2.410430E-05 +4.870421E-03 +2.033632E-04 +2.492680E-04 +2.033632E-04 +1.773017E-04 
 +2.226982E-04 +4.308441E-05 +4.689858E-05 +4.308441E-05 +4.745205E-03 +1.968929E-04 +4.689858E-05 +1.968929E-04 +2.138971E-04 
 +2.492478E-04 +2.736162E-05 -1.016902E-04 +2.736162E-05 +4.705535E-03 +9.261440E-05 -1.016902E-04 +9.261440E-05 +1.476247E-04 
 +2.651054E-04 +1.525010E-04 -1.146284E-04 +1.525010E-04 +4.621081E-03 +4.997158E-05 -1.146284E-04 +4.997158E-05 +8.769054E-05 
 +2.454719E-04 +1.090544E-04 -3.304507E-04 +1.090544E-04 +4.741490E-03 +6.748815E-05 -3.304507E-04 +6.748815E-05 +7.615218E-05 
 +1.073236E-04 +6.725265E-05 -5.388739E-05 +6.725265E-05 +5.042898E-03 +2.484493E-05 -5.388739E-05 +2.484493E-05 -4.522655E-05 
