# vtk DataFile Version 2.0
data file: MKS_results generated by Noah H. Paulson on Thu Feb 26 13:21:31 2015
ASCII
DATASET RECTILINEAR_GRID
DIMENSIONS 22 22 22
X_COORDINATES 22 float
 0.0000  0.0200  0.0400  0.0600  0.0800  0.1000  0.1200  0.1400  0.1600  0.1800  0.2000  0.2200  0.2400  0.2600  0.2800  0.3000  0.3200  0.3400  0.3600  0.3800  0.4000  0.4200 
Y_COORDINATES 22 float
 0.0000  0.0200  0.0400  0.0600  0.0800  0.1000  0.1200  0.1400  0.1600  0.1800  0.2000  0.2200  0.2400  0.2600  0.2800  0.3000  0.3200  0.3400  0.3600  0.3800  0.4000  0.4200 
Z_COORDINATES 22 float
 0.0000  0.0200  0.0400  0.0600  0.0800  0.1000  0.1200  0.1400  0.1600  0.1800  0.2000  0.2200  0.2400  0.2600  0.2800  0.3000  0.3200  0.3400  0.3600  0.3800  0.4000  0.4200 
CELL_DATA 9261
SCALARS GrainID int 1
LOOKUP_TABLE default
   39    39    39   110     4    50    50    50    50    50    50    50   210   210   210   210   210    65    65    65     7 
   39    39    39     4     4   207   207    50    50    50    50    50   210   210   210   210   210    65    65    65    65 
   39    39    39     4     4   207   207   207    50    50    50   210   210   210   210   210   210   152   152   152   152 
   39    39    39     4     4   207   207   207   207    50    50   210   210   210   210   210   210   152   152   152   152 
   39    39    39     4     4   127   127   207   207   207   210   210   210   210   210    45    45   152   152   152   152 
   16    16    16    16   216   216   216   216   216   216   216   210   210   210   210    45    45   152   152   152   152 
   16    16    16    16    43    43   216   216   216   216   216   210   210   210   210    45    45   152   152   152    16 
   16    16    16    16    43    43   216   216   216   216   216   216   210   210   218   218    78    78    78    78    16 
   16    16    16    16    43   216   216   216   216   197   197   197   178   178   178   178   218    78   196   196    16 
   16    16    16    16    41    41   216   216   197   197   197   197   178   178   178   178   178    78   196   196    16 
   16    16   147   147   147   147   147   216   197   197   197   197   178   178   178   178   178   178    98    98    98 
   98   177   147   147   147   147   147   147   197   197   197   197   178   178   178   178   178    98    98    98    98 
   98   177   147   147   147   147   147   147    97    97   217   217   217   217   217    47    47    47    98    98    98 
  177   177   177   147   147   147   147   147    97    97   217   217   217   217   217    47    47    47    98    98    98 
   98   177   147   147   147   147   147   147    97    97   217   217   217   217   217   217   217   217    98    98    98 
   19    19    19   147   147   147   147   147    97   217   217   217   217   217   217   217   217   217    59    59    59 
  125   125   125   220   220   147   147   147    97   217   217   217   217   217   217   217   217    73    59    59    59 
  125   125   125   220   220   147   147   147    97   217   217   217   217   217   217    81    81    73    59    59    59 
  125   125   125   220   220   147   147   147   109   217   217   217   172   172   217    81    81    73    59    59    59 
  125   125   125   220   220   147   147   109    50    50   172   172   172   172   172    81    81    73    59    59    59 
  125   125   125   220   220   147    50    50    50    50    50   172   172   172   172   172   172    73    59    59    59 
   39    39    39   110     4     4    50    50    50    50    50    50   172   172   210   210   210    65    65    65     7 
   39    39    39     4     4     4   207    50    50    50    50   210   210   210   210   210   210    65    65    65    65 
   39    39    39     4     4     4   207   207    50    50    50   210   210   210   210   210   210    65    65    65    65 
   39    39    39     4     4     4   207   207   207    50    50   210   210   210   210   210   210   152   152   152   152 
   39    39    39     4     4     4   207   207   207    50   210   210   210   210   210   210    45   152   152   152   152 
   16    16    16    16    16   216   216   114   216   216   210   210   210   210   210    45    45    45   152   152    16 
   16    16    16    16    16   216   216   216   216   216   216   210   210   210   210   218   196    78   196   196    16 
   16    16    16    16    16   216   216   216   216   216   216   210   210   210   218   218    78    78    78    78    16 
   16    16    16    16    16   216   216   216   216   216   197   197   218   218   218   218   218    78   196   196    16 
   16    16    16    16   147   216   216   216   216   216   197   197   178   178   178   218   218   218   196   196    16 
   16    16    16   147   147   147   147   147   197   197   197   197   178   178   178   178   218   218    98    98    98 
   98   177   147   147   147   147   147   147   147   197   197   217   217   178   178   178    47    98    98    98    98 
   98   177   177   147   147   147   147   147   147   147   217   217   217   217    47    47    47    98    98    98    98 
  177   177   177   147   147   147   147   147   147   147   217   217   217   217    47    47    47    98    98    98    98 
   98   177   177   147   147   147   147   147   147   217   217   217   217   217   217    47    47    98    98    98    98 
   19    19    19   147   147   147   147   147   147   217   217   217   217    77   217   217   217    98    98    98    98 
  125   125   125   147   147   147   147   147   147   217   217   217   217   217   217   217   217    73    59    59    59 
  125   125   125   220   220   147   147   147   109   217   217   217   217   217   217    81    81    73    59    59    59 
  125   125   125   220   220   147   147   109   109    60    60   217   172   172   172    81    81    73    59    59    59 
  125   125   125   220   220   147   109   109    50    50    50   172   172   172   172    81    81    73    59    59    59 
  125   125   125   220   220   147    50    50    50    50    50   172   172   172   172   172    81    73    59    59    59 
    7   158   110   110     4     4     4    50    50    50    50   134   134   210   210   210   210    65    65     7     7 
  158    39   110     4     4     4     4     4    50    50    50   134   134   210   210   210   210    65    65    65     7 
   39    39     4     4     4     4     4   207    50    50    50   134   210   210   210   210   210    65    65   206   206 
   39    39    39     4     4     4     4   207   207    50    50   210   210   210   210   210   210   210   152   152    16 
   16    16    16     4     4     4     4   207   207   207   210   210   210   210   210   210   210   152   152   152    16 
   16    16    16    16    16   216   216   216   216   216   210   210   210   210   210   210   196   196   196   196    16 
   16    16    16    16    16   216   216   216   216   216   216   210   210   210   210   218   196   196   196   196    16 
   16    16    16    16    16   216   216   216   216   216   216   210   210   218   218   218   196   196   196   196    16 
   16    16    16    16    16   216   216   216   216   216   216   216   218   218   218   218   218   196   196   196    16 
   16    16    16    16    16   216   216   216   216   216   216   216   218   218   218   218   218   218   196   196    16 
   16    16    16    16   147   147   147   216   216   216   197    26   218   218   218   218   218   218    98    98    98 
   98    16   147   147   147   147   147   147   147   147    26   217   217   217   218   218   218    98    98    98    98 
   98   177   147   147   147   147   147   147   147   147   217   217   217   217   217    47    47    98    98    98    98 
   98   177   177   147   147   147   147   147   147   147   217   217   217   217   217    47    47    98    98    98    98 
   98   177   147   147   147   147   147   147   147   217   217   217   217   217   217   217   217    98    98    98    98 
   98    19    19   147   147    44   147   147   147   217   217   217   217   217   217   217   217    98    98    98    98 
  125   125   125   147   147    44    44   147   147   217   217   217   217   217   217   217   217    73    59    59    59 
  125   125   125   125    44    44    44   109   109    60    60   217   217   217   217    81    81    73    59    59    59 
  125   125   125   125   125    44   109   109   109    83    60    60   172   172   172    81    81    73     8    59    59 
  125   125   125   125   125   109   109   109    83    83    83    60   172   172   172    81    81     8     8     8    59 
  125   125   125   125   125   109   109   109   109    83   109   172   172   172   172   172   172     8     8     7     7 
    7   158   110   110     4     4     4    52   109   109   134   134   134   210   210   210   210    65     7     7     7 
  158   110   110   110     4     4     4    52    50    50   134   134   134   210   210   210   210    65   206     7     7 
  158   158   110     4     4     4     4     4    50    50   134   134   134   210   210   210   210   210   206   206   206 
   16    39     4     4     4     4     4     4   180   180   180   210   210   210   210   210   210   210   206   206   206 
   16    16    16     4     4     4     4   180   180   180   180   210   210   210   210   210   210   210   196   196    16 
   16    16    16    16     4     4     4   180   180   180   180   180   210   210   210   210   196   196   196   196    16 
   16    16    16    16    16   216   216   216   180   180   180   180   210   210   218   218   196   196   196   196    16 
   16    16    16    16    16   216   216   128   128   180   180   180   218   218   218   218   196   196   196   196    16 
   16    16    16    16    16   216   216   216   216   216   216   218   218   218   218   218   218   196   196   196    16 
   16    16    16    16    16    67    67    67    67    67    67   218   218   218   218   146   218   218   196   196    16 
   16    16    16    16   147   147    67    67    67    67    26    26    26   218   218   218   218   218    98    98    98 
   98    98    16   147   147   147   147   147   147    26    26    26    26    26   218   218   132   132    98    98    98 
   98    98    98   147   147   147   147   147   147    26    26    26    26    26   217    10    10   132    98    98    98 
   98    98    98   147   147   147   147   147   147   147   217   217   217   217   217    68    10    10    98    98    98 
   98    98   147   147   147    44   147   147   147   217   217   217   204   204   204    10    10    10    98    98    98 
   98    19    19   147    44    44    44   147   147    60    60   217   204   204   204   217    10    10    98    98    98 
  125   125   125    44    44    44    44    44    60    60    60    60   204   204   204   217   217    10    98    98    98 
  125   125   125   125    44    44    44   109   109    60    60    60    60   217   217   217    81     8     8     8     8 
  125   125   125   125    44    44   109   109   109    83    60    60    60    60   172    81     8     8     8     8     8 
    7   125   125   125    44   109   109   109    83    83    83    60    60    60   172    81     8     8     8     8     8 
    7     7   125    91   168   109   109   109   109    83   109   109    60   172   172   172     8     8     8     7     7 
    7   158   158   110     4     4     4   109   109   109   109   134   134   209   209   210   210     7     7     7     7 
  158   158   158     4     4     4     4     4   109    50   134   134   134   209   209   210   210   206   206   206     7 
  158   158   158     4     4     4     4     4     4   134   134   134   210   210   210   210   210   206   206   206   206 
   91   158     4     4     4     4     4     4   180   180   180   210   210   210   210   210   210   210   206   206   206 
   16    16    16     4     4     4     4   180   180   180   180   180   210   210   210   210   210   210   196    16    16 
   16    16    16    16    16     4   124   180   180   180   180   180   210   210   210   218   218   130   196    16    16 
   16    16    16    16    16   124   124   180   180   180   180   180   210   218   218   218   218   196   196    16    16 
   16    16    16    16    16    16   124   128   180   180   180   180   218   218   218   218   218   196   196    16    16 
   16    16    16    16    16    16    67    67    67   180   180   180    36   218   218   218   218   218   196    16    16 
   16    16    16    16    16    67    67    67    67    67    67    36    36    36   218   218   218     1     1     1    16 
   16    16    16    16    16    67    67    67    67    67    26    26    26    26   218   218   218     1     1    98    98 
   98    16    16   147   147    28   191   191   191    26    26    26    26    26    26   170   132   132   132    98    98 
   98    98    74    74    28    28    28    28    28    26    26    26    26    26    26    10   211   132   132    98    98 
   98    98    74    74    28    28    28    28    28    26    26    26    26    26    26    10    10    10   132    98    98 
   98    98    74    74    28    28    28    28    28    60    60    60   204   204   204    10    10    10    10    98    98 
   98    98    74    44    44    44    44    44    60    60    60    60   204   204   204    10    10    10    10    98    98 
   98    98   125    44    44    44    44    44    60    60    60    60    60   204   204    10    10    10    10    98    98 
  125   125   125    44    44    44    44   109   109    60    60    60    60    60    60   217    10     8     8     8     8 
    7     7   125   125    44    44   109   109   109   109    60    60    60    60   198   198     8     8     8     8     8 
    7     7     7   168   184   184   109   109   109   109   109    60    60    60   198   198     8     8     8     8     7 
    7     7     7    91   168   184   109   109   109   109   109   109    60   198   198   198     8     8     7     7     7 
    7   158    91    91    91     4   109   109   109   109   109   109   209   209   209   198   198   206   206     7     7 
  158   104   158    91     4     4     4   109   109   109   134   134   209   209   209   210   206   206   206   206   206 
   91   158    91    91     4     4     4     4   180   180   134   134   209   209   209   210   210   206   206   206   206 
   91    91    91    91     4     4   124   124   180   180   180   163   163   210   210   210   210   206   206   206   206 
   91    16    91     4     4   124   124   124   180   180   180   180   210   210   210   210   210   130   206   206   206 
   16    16    16    16   190   167   124   124   180   180   180   180   210   210   210   218   130   130   130   130    16 
   16    16    16    16    16   124   124   124   180   180   180   180   180   218   218   218   218   218   196    16    16 
   16    16    16    16    16   124   124   124   180   180   180   180   180   218   218    76   218   218   218    16    16 
   16    16    16    16    16    67    67    67    67    67   180   180    36    36   218   218   218     1     1     1    16 
   16    16    16    16    67    67    67    67    67    67    67    36    36    36    96    96     1     1     1     1    16 
   16    16    16    16    67    67    67    67    67    67    26    26    26    36    96    96     1     1     1     1     1 
   98    16    74    74    28    28   191   191   191   191    26    26    26    26    26   170   132   132   132   132    98 
   98    98    74    74    28    28    28   191   191    26    26    26    26    26    26   132   132   132   132   132    98 
   98    98    74    74    28    28    28    28    28    26    26    26    26    26    26   132   132    10   132   132    98 
   98    98    74    74    28    28    28    28    28    60    60    72    26    26   132   132   132   132   132   132    98 
   98    98    74    74    28    28    28    28    60    60    60    72    60    60   132   132   132   132   132   132    98 
   98    98    74    44    44    44    44    60    60    60    60    60    60    60    60   132   132   132   132   132    98 
    7     7    64    64   168   168   145   109   109    60    60    60    60    60   198   198   132     8     8     8     8 
    7     7    64   168   168   145   145   109   109   109    60    60    60    60   198   198   198     8     8     8     8 
    7     7    91   168   184   184   145   109   109   109   109    60    60   198   198   198   198     8     8     7     7 
    7    91    91    91   168   184   145   109   109   109   109   109   198   198   198   198   198     8     7     7     7 
   91    91    91    91    91     9   145   145   109   109   109   198   198   198   198   198   206   206   206   206   206 
   91    91    91    91    91     9     9   120   120   109   109   198   209   209   209   198   206   206   206   206   206 
   91    91    91    91    91     9   124   124   124   124   180   209   209   209   209   210   206   206   206   206   206 
   91    91    91    91   190   124   124   124   124   180   180   180   163   221   221   210   206   206   206    86   206 
   91    91    91   190   190   190   124   124   124   180   180   180   221   221   221   221   221   206    86    86    86 
   16    16    16   190   190   190   124   124   124   180   180   180   221   221   221   221   130   130   130    86    86 
   16    16    16   190   190   190   124   124   124   180   180   180   221   221   221   218   218   218   196   112   112 
   16    16    16    16   190   124   124   124   124   180   180   180   221   221   218   218   218   218   218   112   112 
   88    88    88    16    16   124    67    67    67   180   180   180   175   175   218   218   218     1     1     1    16 
   88    88    88    88    67    67    67    67    67    67    26   175   175   175    96    96     1     1     1     1     1 
   88    88    88    88    67    67    67    67    67    67    26    26    26    26    25    96     1     1     1     1     1 
  123   123    88    74    28    28   191   191   191    26    26    26    26    26    26   170    10    10    10    10    10 
   98    98    74    74    28    28    28   191   191    26    26    26    26    26    26    10    10    10    10    10    10 
   98    98    74    74    28    28    28    28    28    26    26    26    26    26    26   132   132    10    10    10    10 
   98    98    74    74    28    28    28   111   111    93    93    93    93    26   132   132   132   132   132    10    10 
   98   155   155   155    28    28   111   111   111    60    93    93    93    60   132   132   132   132   132   132    98 
   98    64    64    64   168   168   111   111    60    60    60    60    60    60   198   132   132   132   132   132    98 
   64    64    64    64   168   168   145   145   109    60    60    60    60   198   198   198   198     8     8     8     8 
   91    91    64   168   168   168   145   145   109   109    60    60    60   198   198   198   198     8     8     8     8 
   91    91    91   168   168   168   145   145   109   109   109    60   198   198   198   198   198     8     8     7     7 
   91    91    91    91   168   168   145   145   109   109   109   198   198   198   198   198   198   206   206     7     7 
   91    91    91    91    91     9   145   120   145   109   109   198   198   198   198   198   206   206   206   206   206 
   91    91    91    91     9     9   120   120   120   109   109   198   198   198   198   198   206   206   206   202   206 
   91    91    91    91    91     9   124   120   124   124   180   209   209   221   221   206   206   206   206   206   206 
   91    91    91    91   190   124   124   124   124   124   180   221   221   221   221   221   221   206    86    86    86 
   91    91    91   190   190   190   124   124   124    24   180   221     3   221   221   221   221   206    86    86    86 
   91    91    91   190   190   190   124   124   124    24    24   221   221   221   221   221   221    61    86    86    86 
   16    16    16   190   190   190   124   124   124    24   180   221   221   221   221   221   221   218   196   112   112 
   88    88    88   190   190   124   124   124   124   124   180   221   221   221   221   221   218   218   218   112   112 
   88    88    88    88   190   124   124   124   124   124   180   221   175   175   175   218   218     1     1     1   112 
   88    88    88    88   190    67    67    67    67    67   219   175   175   175   175   218     1     1     1     1     1 
   88    88    88    88    67    67    67    67    67   219    26    26    26    25    25    96     1     1     1    10   123 
  123   123    35    35    35    28   191   191   219    26    26    26    25    25    25    10    10    10    10    10   123 
  123   123    35    35    35    28    28   219   219    26    26    26    26    25    25    10    10    10    10    10   123 
  123   123    35    35    35   153    28   111   111    93    93    26    26    26    26   132   132    10    10    10   123 
  123   123    35    35    35    28   111   111   111    93    93    93    93    93   132   132   132   132    10    10   123 
  123   155   155   155   155   155   111   111   111    93    93    93    93    93    93   132   132   132   132   132   123 
  155   155   155   155   155   111   111   111   111    60    93    93    93   198   198   198   132   132   132   132   123 
   64    64    64    64    64   168   145   179   145    60    60    60    60   198   198   198   198   198     8     8   206 
   91    91    64    64   168   168   145   145   145   109    60    60   198   198   198   198   198   198     8     8   206 
   91    91    91    21   168   168   145   145   145   109   109   198   198   198   198   198   198   206   206   206   206 
   91    91    91    91   168   168   145   145   145   109   109   198   198   198   198   198   198   206   206   206   206 
   91    91    91    91    91     9   145   145   145   109   109   198   198   198   198   198   206   206   206   206   206 
   91    91    91    91    91     9     9   120   120   109   109   198   198   198   198   198   206   206   206   206   206 
   91    91    91    91    91     9   124   124   124   124    55   221   221   221   221   221   206   206   206   206   206 
   91    91    91    91    91   124   124   124   124    55    55   221     3   221   221   221   221   206   206    86   206 
   91    91    91   190   190   190   124   124   124    55    55   221     3     3   221   221   221   206    86    86    86 
   79    91    91   190   190   190   124   124   124    55    55   221     3   221   221   221   221    61    79    79    79 
   79    88    88   190   190   190   124   124   124    55    55   221   221   221   221   221   221   221    79    79    79 
   88    88    88   190   190   124   124   124   124    55    55   221   221   221   221   221   221   221    79    79   112 
   88    88    88    88   190   124   124   124   124   219   219   221   221   221   221   221   221     1     1    79   112 
   88    88    63    63    63    67    67   219   219   219   219   219   175   175   175   218     1     1     1   123   123 
  123    88    63   161   161   219   219   219   219   219   219    26    25    25    25    25     1     1   123   123   123 
  123   123   161   161   161   161   219   219   219   219   219    26    25    25    25    25    10    10   123   123   123 
  123   123   123    35    35    28   219   219   219   219   219    80    25    25    25    10   122   122   123   123   123 
  123   123    35    35    35   153   117   219   219   219    80    80    80    26    26   132   122   122   122   123   123 
  123   123   155   155   155   155   111   111   111    93    93    93    93    93    93   132   122   122   122   123   123 
  123   155   155   155   155   155   111   111   111    93    93    93    93    93    93   132   132   132   132   123   123 
  155   155   155   155   155   155   111   111   111   160   160   160   160   198   198   198   132   132   132   123   123 
   91   155   108   108   108   168   145   145   145   160   160   160   160   198   198   198   198   198   182   182   182 
   91    91    91   108   168   168   145   145   145   145   160   160   198   198   198   198   198   198   182   182   182 
   91    91    91    91   168   168   145   145   145   145   198   198   198   198   198   198   198   198   182   182   182 
   91    91    91    91   168   168   145   145   145   145   198   198   198   198   198   198   198   206   206   206   206 
   91    91    91    91    91     9   115   115   115   115   198   198   198   198   198   198   206   206   206   206   206 
   91    91    91    91    91     9     9   120   115   115   198   198   198   198   198   221   206   206   206     6   206 
   91    91    91    91    91     9   124   124   124    55    55   221   221   221   221   221   221   206   206   206   206 
   91    91    91    91   124   124   124   124    55    55    55   221     3   221   221   221   221   206   206   206   206 
   79    91    91    91   124   124   124   124    55    55    55   221     3     3   221   221   221    79    79    79    79 
   79    79    91   124   124   124   124   124    55    55    55   221     3     3   221   221   221    79    79    79    79 
   79    79    63   124   124   124   124   124    55    55    55   221   221   221   221   221   221    79    79    79    79 
   63    63    63    63    12    12   124   124   124    55    55   221   221   221   221   221   221    79    79    79    79 
   63    63    63    63    12    12    12    57   124   219   219   221   221   221   221   221   221    79    79    79    79 
   63    63    63    63    63    12    57    57   219   219   219   219   219   175   175   221   221     1   123   123   123 
  123    63    63   161   161   161   219   219   219   219   219   219   219    25    25   142   142   123   123   123   123 
  123   123   161   161   161   161   219   219   219   219   219   219   219    25    25   142   142   123   123   123   123 
  123   123   161   161   161   117   219   219   219   219   219    80    80    25    25   142   122   122   122   123   123 
  123   123   155   155   117   117   117   219   219   219    80    80    80   118   118   122   122   122   122   123   123 
  123   123   155   155   155   117   117   219   219   219    80    80    80    93    93   122   122   122   122   123   123 
  123   155   155    30   155   155   111   111   111   160   160    33    93    93    93   122   122   122   122   123   123 
  155   155   155   155   155   155   155   111   160   160   160   160   160   160   198   181   181   181   122   123   123 
  203   155   108    87   108   155   145   145   145   160   160   160   160   160   198   198   181   182   182   182   182 
  203   203   108   108   108   168   145    85   115   160   160   160   160   198   198   198   198   182   182   182   182 
   91    91    91   108   168   168    85    85    85   115   160   198   198   198   198   198   198   182   182   182   182 
   91    91    91    91   168   168   115    85   115   115   198   198   198   198   198   198   198   206   182   182   206 
   91    91    91    91   162   162   115   115   115   115   115   198   198   198   198   129   129   206   206   206   206 
   91    91    91    91   162   162   162   115   115   115   115   198   198   221   221   129   129   129   206     6   206 
   91    91    91    91   162   162   162    55    55    55    55   221   221   221   221   221   129   129   206   206   206 
   79    91    91   215   215   124   124    55    55    55    55   221   221   221   221   221   221    79    79    79    79 
   79    79   215   215    29    29   124    55    55    55    55   221     3     3   221   221   221    79    79    79    79 
   79    79   215    29    29    29   124    55    55    55    55   221   221     3   221   221   221    79    79    79    79 
   79    79    63    12    12    12    12   124    55    55    55   221   221   221   221   221   221    79    79    79    79 
   63    63    63    63    12    12    12    12    55    55    55   221   221   221   221   221   221    79    79    79    79 
   63    63    63    63    12    12    12    57    57   219   219   219   221   221   221   221   221    79    79   164    79 
   63    63    63    63    12    12    57    57   219   219   219   219   219   221   221   221   221   164   164   164   164 
  123    63    63    63    12    57    57    57   219   219   219   219   219   219    25   142   122   123   123   123   123 
  123   123   161   161   161   117   219   219   219   219   219   219   219   219    25   142   122   123   123   123   123 
  123   123   195   161   117   117   117   219   219   219   219   219    32    32    32   122   122   122   102   123   123 
  123   123   195   117   117   117   117   219   219   219   219    80    32    32    32   122   122   122   102   102   123 
  123   195   155   155   117   117   117   219   219   219   219    80    80    32    32   122   122   122   102   102   123 
  123   155   155   155   155   194   194   219   219   219   137   137   137   160   181   181   122   122   102   102   102 
  203   203   155   155   155   194   194   194   193   193   137   137   160   160   181   181   181   181   102   102   102 
  203   203   203   108   108   115   115   115   193   193   137   137   160   160   181   181   181   181    31    31    31 
  203   203   203   108   115   115   115   115   115   193   137   137   137   198   181   181   181   181    31    31    31 
  203   203   203   108   115   115   115   115   115   115   137   137   198   198   198   198   181    31    31    31    31 
   91    91    91    91   115   115   115   115   115   115   137   198   198   198   198   198   129    31    31    31    31 
   46    46    46    46    46   162   115   115   115   115   115   198   198   198   129   129   129   129   129   129   206 
   46    46    46    46   162   162   162   115   115   115   115    54    54    54   129   129   129   129   129   129   129 
   79   215    46    46    46   162   162   162    66    66    55    54    54    54    54   129   129   129   129   176   176 
   79   215   215   215   215   215   162    66    66    66    55   139    54    54    54   221   129   129    79   176    79 
   79   215   215   215   215    29    29    66    66    55    55   221   221     3   221   221   221    79    79    79    79 
   79    79   215   215    29    29    29    55    55    55    55   221   221   138   221   221    79    79    79    79    79 
   79    79   215    12    12    12    12    12   113   113   113   221   221   221   221   221   221    79    79    79    79 
   79    63    63    12    12    12    12    12   113   113   113   113   221   221   221   221   221    79    79    79    79 
   63    63    63    37    12    12    12    57    57   113   113   219   221   221   221   221   221    79   164   164   164 
   63    63    63    37    37    12    57    57    57   219   219   219   219   221   221   221   164   164   164   164   164 
   63    63    63    37    37    57    57    57   219   219   219   219   219   157   157   157   164   164   164   164   123 
  123   195   195   195   117   117   219   219   219   219   219   219   219   157   157   157   122   102   102   123   123 
  123   195   195   195   117   117   117   219   219   219   219   219    32    32    32    32   122   102   102   102   123 
  195   195   195   117   117   117   117   219   219    89   219   219    32    32    32    32   122   102   102   102   102 
  195   195   195   117   117   117   117   219   219   219   219   219    32    32    32    32   122   102   102   102   102 
  195   195   116   116   194   194   194   219   219   105   105   137   137   137   141   141   141   102   102   102   102 
  203   203   203   155   194   194   194   194   193   193   105   137   137   137   181   181   181   181   189   189   102 
  203   203   203   108   194   194   115   115   193   193   137   137   137   137   181   181   181   181   189   189   189 
  203   203   203   203   115   115   115   115   115   193   137   137   137   137   181   181   181   181    31    31    31 
  203   203   203   203   115   115   115    69   115   115   137   137   137   137   198   181   181    31    31    31    31 
   91    46    46    46   115   115   115   115   115   115   137   137   198   198   198   129   129   129    31    31    31 
   46    46    46    46    46    46   115   115   115   115   115    53    54   129   129   129   129   129   129   129   129 
   46    46    46    46    46   162   162   115   115   115    53    54    54   129   129   129   129   129   129   129   129 
  215   215   215    46    46    46   162   162    66    66    54    54    54    54   129   129   129   129   129   129   129 
   79   215   215   215   215   215   215    66    66    66    55   139    54    54    54   129   129   129   129    79    79 
   79   215   215   215   215   215    29    66    66    55   113   221    54    54   156   156   129    79    79    79    79 
   79    79   215   187   215    29    29   113   113   113   113   113   221   126   221   221    79    79    79    79    79 
   79    79   215    12    12    12    12   113   113   113   113   113   221   221   221   221    79    79    79    79    79 
   79    63    63    12    12    12    12   113   113   113   113   113   221   221   221   221    79    79    79    79    79 
   63    63    63    12    12    12    12    57   113   113   113   113   113   221   221   188   188    79    79   164    79 
   63    63    63    37    12    12    57    57    57   219   219   219   219   157   157   188   188   164   164   164   164 
  195   195   195    37    12    57    57    57   219   219   219   219   157   157   157   157   188   102   102   164   123 
  195   195   195   195   195   117   219   219   219   219   219   219   157   157   157   157   102   102   102   102   195 
  195   195   195   195   117   117   117   219   219   219   219   219   157   157   157   157   102   102   102   102   102 
  195   195   195   195   117   117   117   219   219   219   219    84    38    38    38    38   102   102   102   102   102 
  195   195   195   195   117   117   117   219   219   219   219    84    38    38    38    38   102   102   102   102   102 
  195   195   195   116   194   194   194   219   219   105   105   137   137   137   141   141   141   102   102   102   195 
  195   203   195   155   194   194   194   194   193   193   105   137   137   137   181   181   181   181   189   189   195 
  203   203   203   203   194   115   115   115   193   193   137   137   137   137   181   181   181   181   189   189   189 
  203   203   203   203   115   115   115   115   115   193   137   137   137   137   181   181   181   181   189    31    31 
   82   203    46    46   115   115   115   115   115   115   137   137   137   137   181   181   129   129    31    51    31 
   82    46    46    46    46   115   115   115   115   115   115   137   137   137   129   129   129   129    51    51    51 
   46    46    46    46    46    46   115   115   115   115    53    53    53   129   129   129   129   129   129   129   129 
   46    46    46    46    46    46   162   115   115    53    53    53    53   129   129   129   129   129   129   129   129 
  215   215   215    46    46    46    46    46    66   201    53    53    54   156   156   129   129   129   129   129   129 
   79   215   215   192   215   215   215    66    66    66    56    56   156   156   156   156   129   129   129   129    79 
   79   215   215   215   215   215   215   113    66   113   113   156   156   156   156   156   156   129    79    79    79 
   79   215   187   187   187   215    29   113   113   113   113   113   126   126   156   156   156    79    79    79    79 
   79    79   187   187    12    12    12   113   113   113   113   113   126   126   156   156   156    79    79    79    79 
   79    79   187    12    12    12   113   113   113   113   113   113   113   126   188   188    94    94    79    79    79 
   63    63    63    12    12    12    12   113   113   113   113   113   113   188   188   188   188    94    79    79    79 
  195   195    63    37    12    12    57    57   113   113   113   219   219   157   188   188   188   188    90   164   164 
  195   195   195   195    12   200   200   219   219   219   219   219   157   157   157   188   188    90    90   164   195 
  195   195   195   195   195   200   200   200   219   219   219   219   157   157   157   157   157   102   102   102   195 
  195   195   195   195   195   200   200   200   219   219   219    84   157   157   157   157   157   102   102   102   195 
  195   195   195   195   195   117   200   200   200   219    84    84    38    38    38     2     2   102   102   102   195 
  195   195   195   195   195   166   200   200   200   219    84    84    38    38    38     2    23    23   102   102   195 
  195   195   195   195   166   166   166   200   200   105   105   137   137    38    38    23    23    23    23   102   195 
  195    27   195   195   166   166   166   133   133   193   105   137   137   137   181   181    23    23    23   189   195 
   27    27    27    27   115   115   115   115   115   193   137   137   137   137   181   181   181    23   189   189   189 
   82    82    82    82   115   115   115   115   115   193   137   137   137   137   181   199   181   129   189    51    51 
   82    82    82    82   115   115   115   115   115   115    62   137   137   199   199   199   129   129    51    51    51 
   82    82    46    46    46   115   115   115   115   115    62   214   137   199   129   129   129   129    51    51    51 
   82    82    46    46    46    46    46   201   201   201    53    53    53    53   129   129   129   129   129   129   129 
   82    46    46    46    46    46    46   201   201    53    53    53    53    53   129   129   129   129   129   129   129 
  215   215   215   215   215   215   215   201   201   201    53    53    53   156   156   129   129   129   129   171   129 
  215   215   215   215   215   215   215   215   201   201    56    56   156   156   156   156   156   129   171   171    79 
   79   215   215   215   215   215   215   113   113   113   113    56   156   156   156   156   156   129    79    79    79 
   79   136   136   136   136   215   113   113   113   113   113   113   156   156   156   156   156    79    79    79    79 
   79   136   136   136   136    12   113   113   113   113   113   113   156   156   156   156    94    94    94    79    79 
  100   136   136   136    12    12   113   113   113   113   113   113   113   188   188   188    94    94    94   100   100 
   99    99    99    12    12    12   113   113   113   113   113   113   113   188   188   188   188    94    94   100   100 
   99    99    99    99    12    12   113   113   113   113   113   113   113   188   188   188   188    90    90   121   121 
  195   205   195   195   200   200   200   200   200   219   219   219   157   157   188   188   188    90    90   121   195 
  195   205   195   195   200   200   200   200   200   219   219   219   157   157   157   188   188    90    90   195   195 
  195   195   195   195   200   200   200   200   200   200   219    84     2     2     2     2     2    23   102   102   195 
  195   195   195   195   200   165   200   200   200   200    84    84     2     2     2     2    23    23    23   102   195 
  195   195   195   195   200   200   200   200   200   200    84    84     2     2     2     2    23    23    23    23   195 
  195   195   195   195   166   166   200    42   200   200    84    84     2     2     2    23    23    23    23    23   195 
  195   195   195   195   166   166   200    42   133   200   105   214   119   119   119    23    23    23    23    23   195 
   82    27    82    82    82   115   115   115   115   193   214   214   119   119   119   107    23    23    23   189    82 
   82    82    82    82    82   115   115   115    62    62    62   214   214   119   199   199   199   199    18    51    82 
   82    82    82    82    82   115   115   115    62    62    62   214   214   199   199   199   199   199    51    51    82 
   82    82    82    46    46    46   115   115    62    62    62   214   214   199   199   199   129   129   129   129    82 
   82    82    82    46    46    46    46   201   201   201   214    53    53    53   199   199   129   129   129   129    82 
   82    46    46    46    46    46    46   201   201   201    53    53    53   156   156   129   129   129   129   129   129 
  215   215   215   215   215   215   215   201   201   201    53    53    53   156   156   156   129   129   129   171   171 
  215   215   215   215   215   215   215   201   201   201    56    56   156   156   156   156   156   129   171   171   171 
  100   136   136   136   136   215   215   113   113    75    75    75   156   156   156   156   156   156   171   171   100 
  100   136   136   136   136   136   113   113   113   186    75    75   156    92   156   156   156    17   100   100   100 
  100   100   136   136   136   136   113   113   186   186   186    75    75   156   156   156    94    17    94   100   100 
  100   100   136   136   136   136   113   113   186   186   186   113    75   188   188   188    94    17    94   100   100 
   99    99    99    99    12    12   113   113   186   186   186   113    75   188   188   188   188    17    94   100   100 
   99    99    99    99    99    14    14   113   113   186   113   113   188   188   188   188   188    90    90   121   121 
  205   205   205   205    14    14    14    14    14    14   219   219   157   188   188   188   188    90   121   121   121 
  205   205   205   195   200   200   200   200   200   200   200     2     2     2     2   188   188    90   121   121   195 
  195   205   195   195   200   200   200   200   200   200   200     2     2     2     2     2   188    23    23   195   195 
  195   131   195   195   165   165   200   200   200   200   200     2     2     2     2     2    23    23    23    23   195 
  195   195   195   195   200   200   200   200   200   200   200     2     2     2     2     2    23    23    23    23   195 
  195   195   195   195   200   200   200    42   200   200   200     2     2     2     2    23    23    23    23    23   195 
  195   195   195    82   200   200   200    42    42   200   214   214   119   119   119    23    23    23    23    18    18 
   82    82    82    82    82   200   200    42    42   214   214   214   119   119   119   107    23    23    18    18    18 
   82    82    82    82    82   115   115    62    62    62   214   214   214   119   199   199   199   199    18    18    82 
   82    82    82    82    82   115   115    62    62    62    62   214   214   199   199   199   199   199    71    71    82 
   82    82    82    82    46    46   115    62    62    62   214   214   214   199   199   199   199   129   129   129    82 
   82    82    82    46    46    46   201   201   201   201   201   214   214   214   199   199    71    71    71   129    82 
  174   174   174    46    46    46   201   201   201   201   201   183    53   214   156   129   129   129   129   129   129 
  174   174   215   215   215   215   201   201   201   201   201   183    53   156   156   156   156   129   129   171   171 
  100   215   215   215   215   215   215   201    95    95    95    75    75   156   156   156   156   129   171   171   171 
  100   136   136   136   136   136   136   201    95    95    75    75    75   156   156   156   156   156   100   100   100 
  100   100   136   136   136   136   150   113   113    75    75    75    75   156   156   156   156   100   100   100   100 
  100   100   136   136   136   136   150   113   186   186    75    75    75   156   156   156    94    94   100   100   100 
  100   100   136   136   136    43   150   113   186   186   186    75    75     5     5     5    94    94   100   100   100 
  100    99    99    70    70    43    14   113   186   186   186   140    75     5     5     5     5    94   100   100   100 
   99    99    99    70    70    14    14    14    14   186   140   140   140     5     5     5     5    90   100   121   100 
  205   205   205    70    14    14    14    14    14    14   140   140   140     5     5     5     5     5   121   121   100 
  205   205   205   205    14    14    14    14    14    14   140     2     2     2     5     5     5     5     5   121   195 
  154   154   154   154   200   200   200    14   200   200   200     2     2     2     2     2     5     5     5   195   195 
  195   131   154   154   200   200   200   200   200   200   200     2     2     2     2     2    23    23    23    15   195 
  195   195   195   195   200   200   200   200   200   200   200     2     2     2     2     2    23    23    23    15    15 
  195   195   195   195   200   200   200   200   200   200   200     2     2     2     2    23    23    23    23    15    15 
   82    82    82   220   220   200   200   200   200   200   214   214   214   119   119    23    23    23    18    18    18 
   82    82    82    82   220   200   200   200   200   214   214   214   214   119   119   107    23    18    18    18    18 
   82    82    82    82    82    82   200    62    62   214   214   214   214   214   199   199   199    71    18    18    18 
   82    82    82    82    82    82    62    62    62    62   214   214   214   214   199   199   199    71    71    71    82 
   82    82    82    82    82    82    62    62    62   214   214   214   214   214   199   199    71    71    71    71    82 
  213   213   213   213    46   201   201   201   201   201   201   214   214   214   214    71    71    71    71    71    82 
  174   174   174   174    46   159   159   159   201   106   201   201   214   214   151   151    71   129    71    71    49 
  174   174   174   174   127   127   159   201   201   201   201   201   214   156   151   151   151   151   152   152    49 
  174   174   174   215   127   127   103   103    95    34    95    75    75   156   151   151   151   152   152   152   152 
  100   101   136   136   136   127   127   103    95    95    75    75    75    75   156   151   151   152   152    20    20 
  100   100   136   136   136    43   150   150    95    75    75    75    75    75   156   156   156   152   152    20   100 
  100   100   136   136    43    43   150   150   150    75    75    75    75    75   156   156   156   100   100   100   100 
  100   100   100    43    43    43   150   150   150   186    75    75    75     5     5     5     5   100   100    48   100 
  100   100    70    70    43    43   150   150   197   197   197   140   140     5     5     5     5   100   100   100   100 
  100    99    70    70    70    41    14    14    14   197   140   140   140     5     5     5     5     5   100   100   100 
  154   154   154    70    70    14    14    14    14   197   140   140   140     5     5     5     5     5   100   100   100 
  154   154   154   154   154    14    14    14    14    14   140   140     2     5     5     5     5     5     5   154   154 
  154   154   154   154   200    14    14    14    14    14    14     2     2     2     2     5     5     5     5   154   154 
  154   212   154   154   200   200   200   200   200   200   200     2     2     2     2     2     2    23    15    15   154 
  154   154   154   154   200   200   200   200   200   200   200     2     2     2     2     2    23    23    15    15    15 
   18   154   154   220   200   200   200   200   200   200   214   214     2     2     2    23    23    23    15    15    15 
   18    18   220   220   220   200   200   200   200   214   214   214   214   214   214    23    23    18    18    18    18 
   18   213   220   220   220   220    40   169   214   214   214   214   214   214   214    71    71    71    18    18    18 
  213   213   213   220   220    40    40   214   214   214   214   214   214   214   214    71    71    71    71    18    18 
  213   149   213   213   213   173   173   214   214   214   214   214   214   214   214    71    71    71    71    71   213 
  213   213   213   213   213   173   173   201   201   214   214   214   214   214   214    71    71    71    71    71   213 
  213   213   213   213   213   201   201   201   201   201   214   214   214   214   208   208    71    71    71    71    49 
  174   174   174   174   127   127   127   201   201   201   201   201   214   214   208   208   208    71   152    49    49 
  174   174   174   127   127   127   127   103   201   201   201   201   214   148   148   208   208   152   152    49    49 
  101   101   101   101   127   127   127   103   103    95    75    75    75   148   148   151   151   152   152    49    49 
  101   101   101   101   127   127   127   103   103    95    75    75    75    75   156   151   152   152   152    49    49 
  101   101   101   101    43    43   150   150   150    75    75    75    75    75   156   156   152   152   152    20   100 
  100   101   101    43    43    43   150   150   150    75    75    75    75    75   156   156   152   152   100   100   100 
  100   100   100    43    43    43   150   150   150   185    75    75    75     5     5     5     5   100   100   100   100 
  100   100   100    43    43    43   150   150   197   197   197   197    75     5     5     5     5   100   100   100   100 
  100   100    70    70    41    41    41    14   197   197   197   140   140     5     5     5     5     5   100   100   100 
  154   154   154    70    41    41    14    14   197   197   197   140   140     5     5     5     5     5   100   100   100 
  154   154   154   154    41    14    14    14    14   197   197   140   140     5     5     5     5     5     5   154   154 
  154   154   154   154   154    14    14    97    97    97   197     2     2     2     2     5     5     5   154   154   154 
  154   154   154   154   154    97    97    97    97    97    97     2     2     2     2     2     2    23    15   154   154 
   11    11   154   154    97    97    97    97    97    97    97     2     2     2     2     2    23    23    15    15    15 
   11    11    11   220   220    97    97    97    97    97   214   214   214     2   217    23    23    23    15    15    15 
   11    11   220   220   220    40    40   169    97   214   214   214   214   214   214   214    23    18    18    18    18 
   18   220   220   220   220    40    40   169   169   214   214   214   214   214   214   214    71    71    18    18    18 
  149   149   220   220   220    40    40   169   214   214   214   214   214   214   214    71    71    71    71    18    18 
  149   149   213   213   173   173   173   169   214   214   214   214   214   214   214    71    71    71    71    18    18 
  213   213   213   213   173   173   173   173   214   214   214   214   214   214   214    71    71    71    71    71   213 
  213   213   213   213   213   127   127   201   201   201   214   214   214   214   208   208   208    71    71    49    49 
  174   174   174   174   127   127   127   143   201   201   201   214   214   214   208   208   208   208    49    49    49 
  101   174   101   127   127   127   127   103   103   201   201   201   214   148   148   208   208   152    49    49    49 
  101   101   101   101   127   127   127   103   103   103    75    75    75   148   148   151   152   152   152    49    49 
  101   101   101   101   127   127   127   103   103   103    75    75    75    75   210   151   152   152   152    49    49 
  101    58   101    43    43    43   150   150   150    75    75    75    75    75   210   152   152   152   152   152   100 
  101   101   101    43    43    43   150   150   150   185    75    75    75    75     5   152   152   152   152   100   100 
  100   100   101    43    43    43   150   150   150   185   185    75    75     5     5     5     5   152   100   100   100 
  100   100    43    43    43    43    43   150   150   197   197   197   197     5     5     5     5   100   100   100   100 
  100   154    41    41    41    41    41   197   197   197   197   197   197   178     5     5     5     5   100   100   100 
  154   154   154    41    41    41    41    14   197   197   197   197   197   178   178     5     5     5   100   100   100 
  154   154   154   154    41    41    14   144   197   197   197   197   178   178   178   178     5     5   100   154   154 
  154   154   154   154   147    97    97    97    97    97   197   197   217   217   178   178     5     5   154   154   154 
  154    13   154   154   147    97    97    97    97    97    97   217   217   217   217   217   217    23   154   154   154 
   11    11    11   154   147    97    97    97    97    97    97   217   217   217   217   217   217    23    15    15    15 
   11    11    11   220   220    97    97    97    97    97    97   217   217   217   217   217   217    23   135   135    15 
   11    11   220   220   220    40    40   169   169   214   214   214   217   217   217   217   217    18    18    18    18 
   18   220   220   220   220    40    40   169   169   214   214   214   214   214   214   217    71    71    18    18    18 
  149   220   220   220   220    40    40   169   169    22    22   214   214   214   214    71    71    71    18    18    18 
  149   149   220   220   173   173   173   169   214    22    22   214   214   214   214    71    71    71    71    18    18 
  213   213   213   213   173   173   173   173   214    22    22   214   214   214   214    71    71    71    71    71   213 
  213   213   213   213   127   127   127   103   201   201   214   214   214   214   208   208   208   208   152    49    49 
  174   174   174   127   127   127   127   103   103    50   201   214   214   208   208   208   208   208   152    49    49 
  101   101   101   127   127   127   127   103   103   201   201   201   210   210   210   208   208   152   152    49    49 
  101   101   101   101   127   127   127   103   103   103    75    75   210   210   210   210   152   152   152    49    49 
  101   101   101   101   127   127   127   127   103   103    75    75   210   210   210   210   152   152   152   152    49 
  101   101   101   101    43    43   127   150   150    75    75    75    75   210   210   152   152   152   152   152   100 
  101   101   101    43    43    43   150   150   150   185    75    75    75    75     5   152   152   152   152   152   100 
  100   101   101    43    43    43    43   150   150   185   197   197    75     5     5     5   152   152   152   100   100 
  100   100    43    43    43    43    43   150   197   197   197   197   197   178   178   178     5   100   100   100   100 
  100   154    41    41    41    41    41   197   197   197   197   197   197   178   178   178     5     5   100   100   100 
  154   154   154    41    41    41    41   197   197   197   197   197   197   178   178   178     5     5   100   100   100 
  154   154   154   154   147   147   147    97   197   197   197   197   178   178   178   178   178   178   100   154   154 
  154   154   154   147   147   147    97    97    97    97   197   217   217   217   178   178   178   178   154   154   154 
  154   154   154   147   147   147    97    97    97    97    97   217   217   217   217   217   217   217   217   154   154 
   11    11    11   147   147   147    97    97    97    97    97   217   217   217   217   217   217   217    15    15    15 
   11    11    11   220   147   147    97    97    97    97   217   217   217   217   217   217   217   217   135   135    15 
   11    11   220   220   220    40    40   169    97    97   217   217   217   217   217   217   217   217    18    18    18 
   11   220   220   220   220    40    40   169   169    22   214   217   217   217   217   217   217    71    18    18    18 
  220   220   220   220   220    40    40   169    22    22    22   214   214   214   214   217   217    71    18    18    18 
  149   149   220   220   173   173   173   173    22    22    22   214   214   214   214    71    71    71    71    18    18 
  213   213   213   173   173   173   173   173    22    22    22   214   214   214   214    71    71    71    71    71   213 
VECTORS Euler_phi1Phi0phi2 float 
 +4.523970E+00 +2.179550E+00 +2.367365E-02     +4.523970E+00 +2.179550E+00 +2.367365E-02     +4.523970E+00 +2.179550E+00 +2.367365E-02     +3.930640E+00 +1.465029E+00 +3.238450E+00     +4.602379E+00 +5.372560E-01 +2.793579E+00     +5.525491E+00 +1.605509E+00 +1.080820E+00     +5.525491E+00 +1.605509E+00 +1.080820E+00     +5.525491E+00 +1.605509E+00 +1.080820E+00     +5.525491E+00 +1.605509E+00 +1.080820E+00     +5.525491E+00 +1.605509E+00 +1.080820E+00     +5.525491E+00 +1.605509E+00 +1.080820E+00     +5.525491E+00 +1.605509E+00 +1.080820E+00     +4.957660E-01 +1.701850E+00 +2.498352E-01     +4.957660E-01 +1.701850E+00 +2.498352E-01     +4.957660E-01 +1.701850E+00 +2.498352E-01     +4.957660E-01 +1.701850E+00 +2.498352E-01     +4.957660E-01 +1.701850E+00 +2.498352E-01     +1.386111E+00 +2.577029E+00 +3.175319E+00     +1.386111E+00 +2.577029E+00 +3.175319E+00     +1.386111E+00 +2.577029E+00 +3.175319E+00     +3.158290E+00 +9.270875E-01 +4.146730E+00    
 +4.523970E+00 +2.179550E+00 +2.367365E-02     +4.523970E+00 +2.179550E+00 +2.367365E-02     +4.523970E+00 +2.179550E+00 +2.367365E-02     +4.602379E+00 +5.372560E-01 +2.793579E+00     +4.602379E+00 +5.372560E-01 +2.793579E+00     +5.685649E+00 +1.890691E+00 +5.557690E+00     +5.685649E+00 +1.890691E+00 +5.557690E+00     +5.525491E+00 +1.605509E+00 +1.080820E+00     +5.525491E+00 +1.605509E+00 +1.080820E+00     +5.525491E+00 +1.605509E+00 +1.080820E+00     +5.525491E+00 +1.605509E+00 +1.080820E+00     +5.525491E+00 +1.605509E+00 +1.080820E+00     +4.957660E-01 +1.701850E+00 +2.498352E-01     +4.957660E-01 +1.701850E+00 +2.498352E-01     +4.957660E-01 +1.701850E+00 +2.498352E-01     +4.957660E-01 +1.701850E+00 +2.498352E-01     +4.957660E-01 +1.701850E+00 +2.498352E-01     +1.386111E+00 +2.577029E+00 +3.175319E+00     +1.386111E+00 +2.577029E+00 +3.175319E+00     +1.386111E+00 +2.577029E+00 +3.175319E+00     +1.386111E+00 +2.577029E+00 +3.175319E+00    
 +4.523970E+00 +2.179550E+00 +2.367365E-02     +4.523970E+00 +2.179550E+00 +2.367365E-02     +4.523970E+00 +2.179550E+00 +2.367365E-02     +4.602379E+00 +5.372560E-01 +2.793579E+00     +4.602379E+00 +5.372560E-01 +2.793579E+00     +5.685649E+00 +1.890691E+00 +5.557690E+00     +5.685649E+00 +1.890691E+00 +5.557690E+00     +5.685649E+00 +1.890691E+00 +5.557690E+00     +5.525491E+00 +1.605509E+00 +1.080820E+00     +5.525491E+00 +1.605509E+00 +1.080820E+00     +5.525491E+00 +1.605509E+00 +1.080820E+00     +4.957660E-01 +1.701850E+00 +2.498352E-01     +4.957660E-01 +1.701850E+00 +2.498352E-01     +4.957660E-01 +1.701850E+00 +2.498352E-01     +4.957660E-01 +1.701850E+00 +2.498352E-01     +4.957660E-01 +1.701850E+00 +2.498352E-01     +4.957660E-01 +1.701850E+00 +2.498352E-01     +2.070980E+00 +9.549901E-01 +5.551800E+00     +2.070980E+00 +9.549901E-01 +5.551800E+00     +2.070980E+00 +9.549901E-01 +5.551800E+00     +2.070980E+00 +9.549901E-01 +5.551800E+00    
 +4.523970E+00 +2.179550E+00 +2.367365E-02     +4.523970E+00 +2.179550E+00 +2.367365E-02     +4.523970E+00 +2.179550E+00 +2.367365E-02     +4.602379E+00 +5.372560E-01 +2.793579E+00     +4.602379E+00 +5.372560E-01 +2.793579E+00     +5.685649E+00 +1.890691E+00 +5.557690E+00     +5.685649E+00 +1.890691E+00 +5.557690E+00     +5.685649E+00 +1.890691E+00 +5.557690E+00     +5.685649E+00 +1.890691E+00 +5.557690E+00     +5.525491E+00 +1.605509E+00 +1.080820E+00     +5.525491E+00 +1.605509E+00 +1.080820E+00     +4.957660E-01 +1.701850E+00 +2.498352E-01     +4.957660E-01 +1.701850E+00 +2.498352E-01     +4.957660E-01 +1.701850E+00 +2.498352E-01     +4.957660E-01 +1.701850E+00 +2.498352E-01     +4.957660E-01 +1.701850E+00 +2.498352E-01     +4.957660E-01 +1.701850E+00 +2.498352E-01     +2.070980E+00 +9.549901E-01 +5.551800E+00     +2.070980E+00 +9.549901E-01 +5.551800E+00     +2.070980E+00 +9.549901E-01 +5.551800E+00     +2.070980E+00 +9.549901E-01 +5.551800E+00    
 +4.523970E+00 +2.179550E+00 +2.367365E-02     +4.523970E+00 +2.179550E+00 +2.367365E-02     +4.523970E+00 +2.179550E+00 +2.367365E-02     +4.602379E+00 +5.372560E-01 +2.793579E+00     +4.602379E+00 +5.372560E-01 +2.793579E+00     +4.549539E+00 +1.545980E+00 +3.262760E+00     +4.549539E+00 +1.545980E+00 +3.262760E+00     +5.685649E+00 +1.890691E+00 +5.557690E+00     +5.685649E+00 +1.890691E+00 +5.557690E+00     +5.685649E+00 +1.890691E+00 +5.557690E+00     +4.957660E-01 +1.701850E+00 +2.498352E-01     +4.957660E-01 +1.701850E+00 +2.498352E-01     +4.957660E-01 +1.701850E+00 +2.498352E-01     +4.957660E-01 +1.701850E+00 +2.498352E-01     +4.957660E-01 +1.701850E+00 +2.498352E-01     +1.846120E+00 +2.636760E+00 +4.365350E+00     +1.846120E+00 +2.636760E+00 +4.365350E+00     +2.070980E+00 +9.549901E-01 +5.551800E+00     +2.070980E+00 +9.549901E-01 +5.551800E+00     +2.070980E+00 +9.549901E-01 +5.551800E+00     +2.070980E+00 +9.549901E-01 +5.551800E+00    
 +5.138010E+00 +1.343350E+00 +1.951891E+00     +5.138010E+00 +1.343350E+00 +1.951891E+00     +5.138010E+00 +1.343350E+00 +1.951891E+00     +5.138010E+00 +1.343350E+00 +1.951891E+00     +4.840150E+00 +1.948020E+00 +4.511090E+00     +4.840150E+00 +1.948020E+00 +4.511090E+00     +4.840150E+00 +1.948020E+00 +4.511090E+00     +4.840150E+00 +1.948020E+00 +4.511090E+00     +4.840150E+00 +1.948020E+00 +4.511090E+00     +4.840150E+00 +1.948020E+00 +4.511090E+00     +4.840150E+00 +1.948020E+00 +4.511090E+00     +4.957660E-01 +1.701850E+00 +2.498352E-01     +4.957660E-01 +1.701850E+00 +2.498352E-01     +4.957660E-01 +1.701850E+00 +2.498352E-01     +4.957660E-01 +1.701850E+00 +2.498352E-01     +1.846120E+00 +2.636760E+00 +4.365350E+00     +1.846120E+00 +2.636760E+00 +4.365350E+00     +2.070980E+00 +9.549901E-01 +5.551800E+00     +2.070980E+00 +9.549901E-01 +5.551800E+00     +2.070980E+00 +9.549901E-01 +5.551800E+00     +2.070980E+00 +9.549901E-01 +5.551800E+00    
 +5.138010E+00 +1.343350E+00 +1.951891E+00     +5.138010E+00 +1.343350E+00 +1.951891E+00     +5.138010E+00 +1.343350E+00 +1.951891E+00     +5.138010E+00 +1.343350E+00 +1.951891E+00     +2.906589E+00 +1.952840E+00 +5.279670E+00     +2.906589E+00 +1.952840E+00 +5.279670E+00     +4.840150E+00 +1.948020E+00 +4.511090E+00     +4.840150E+00 +1.948020E+00 +4.511090E+00     +4.840150E+00 +1.948020E+00 +4.511090E+00     +4.840150E+00 +1.948020E+00 +4.511090E+00     +4.840150E+00 +1.948020E+00 +4.511090E+00     +4.957660E-01 +1.701850E+00 +2.498352E-01     +4.957660E-01 +1.701850E+00 +2.498352E-01     +4.957660E-01 +1.701850E+00 +2.498352E-01     +4.957660E-01 +1.701850E+00 +2.498352E-01     +1.846120E+00 +2.636760E+00 +4.365350E+00     +1.846120E+00 +2.636760E+00 +4.365350E+00     +2.070980E+00 +9.549901E-01 +5.551800E+00     +2.070980E+00 +9.549901E-01 +5.551800E+00     +2.070980E+00 +9.549901E-01 +5.551800E+00     +5.138010E+00 +1.343350E+00 +1.951891E+00    
 +5.138010E+00 +1.343350E+00 +1.951891E+00     +5.138010E+00 +1.343350E+00 +1.951891E+00     +5.138010E+00 +1.343350E+00 +1.951891E+00     +5.138010E+00 +1.343350E+00 +1.951891E+00     +2.906589E+00 +1.952840E+00 +5.279670E+00     +2.906589E+00 +1.952840E+00 +5.279670E+00     +4.840150E+00 +1.948020E+00 +4.511090E+00     +4.840150E+00 +1.948020E+00 +4.511090E+00     +4.840150E+00 +1.948020E+00 +4.511090E+00     +4.840150E+00 +1.948020E+00 +4.511090E+00     +4.840150E+00 +1.948020E+00 +4.511090E+00     +4.840150E+00 +1.948020E+00 +4.511090E+00     +4.957660E-01 +1.701850E+00 +2.498352E-01     +4.957660E-01 +1.701850E+00 +2.498352E-01     +4.487301E+00 +1.771249E+00 +4.998571E+00     +4.487301E+00 +1.771249E+00 +4.998571E+00     +5.598119E+00 +2.061890E+00 +1.272050E+00     +5.598119E+00 +2.061890E+00 +1.272050E+00     +5.598119E+00 +2.061890E+00 +1.272050E+00     +5.598119E+00 +2.061890E+00 +1.272050E+00     +5.138010E+00 +1.343350E+00 +1.951891E+00    
 +5.138010E+00 +1.343350E+00 +1.951891E+00     +5.138010E+00 +1.343350E+00 +1.951891E+00     +5.138010E+00 +1.343350E+00 +1.951891E+00     +5.138010E+00 +1.343350E+00 +1.951891E+00     +2.906589E+00 +1.952840E+00 +5.279670E+00     +4.840150E+00 +1.948020E+00 +4.511090E+00     +4.840150E+00 +1.948020E+00 +4.511090E+00     +4.840150E+00 +1.948020E+00 +4.511090E+00     +4.840150E+00 +1.948020E+00 +4.511090E+00     +5.254021E+00 +2.600570E+00 +4.963440E+00     +5.254021E+00 +2.600570E+00 +4.963440E+00     +5.254021E+00 +2.600570E+00 +4.963440E+00     +3.183899E+00 +1.106230E+00 +6.516117E-01     +3.183899E+00 +1.106230E+00 +6.516117E-01     +3.183899E+00 +1.106230E+00 +6.516117E-01     +3.183899E+00 +1.106230E+00 +6.516117E-01     +4.487301E+00 +1.771249E+00 +4.998571E+00     +5.598119E+00 +2.061890E+00 +1.272050E+00     +3.868631E+00 +2.330819E+00 +3.753090E+00     +3.868631E+00 +2.330819E+00 +3.753090E+00     +5.138010E+00 +1.343350E+00 +1.951891E+00    
 +5.138010E+00 +1.343350E+00 +1.951891E+00     +5.138010E+00 +1.343350E+00 +1.951891E+00     +5.138010E+00 +1.343350E+00 +1.951891E+00     +5.138010E+00 +1.343350E+00 +1.951891E+00     +4.350031E+00 +2.797740E+00 +6.246621E+00     +4.350031E+00 +2.797740E+00 +6.246621E+00     +4.840150E+00 +1.948020E+00 +4.511090E+00     +4.840150E+00 +1.948020E+00 +4.511090E+00     +5.254021E+00 +2.600570E+00 +4.963440E+00     +5.254021E+00 +2.600570E+00 +4.963440E+00     +5.254021E+00 +2.600570E+00 +4.963440E+00     +5.254021E+00 +2.600570E+00 +4.963440E+00     +3.183899E+00 +1.106230E+00 +6.516117E-01     +3.183899E+00 +1.106230E+00 +6.516117E-01     +3.183899E+00 +1.106230E+00 +6.516117E-01     +3.183899E+00 +1.106230E+00 +6.516117E-01     +3.183899E+00 +1.106230E+00 +6.516117E-01     +5.598119E+00 +2.061890E+00 +1.272050E+00     +3.868631E+00 +2.330819E+00 +3.753090E+00     +3.868631E+00 +2.330819E+00 +3.753090E+00     +5.138010E+00 +1.343350E+00 +1.951891E+00    
 +5.138010E+00 +1.343350E+00 +1.951891E+00     +5.138010E+00 +1.343350E+00 +1.951891E+00     +3.156707E-01 +1.393139E+00 +1.170060E+00     +3.156707E-01 +1.393139E+00 +1.170060E+00     +3.156707E-01 +1.393139E+00 +1.170060E+00     +3.156707E-01 +1.393139E+00 +1.170060E+00     +3.156707E-01 +1.393139E+00 +1.170060E+00     +4.840150E+00 +1.948020E+00 +4.511090E+00     +5.254021E+00 +2.600570E+00 +4.963440E+00     +5.254021E+00 +2.600570E+00 +4.963440E+00     +5.254021E+00 +2.600570E+00 +4.963440E+00     +5.254021E+00 +2.600570E+00 +4.963440E+00     +3.183899E+00 +1.106230E+00 +6.516117E-01     +3.183899E+00 +1.106230E+00 +6.516117E-01     +3.183899E+00 +1.106230E+00 +6.516117E-01     +3.183899E+00 +1.106230E+00 +6.516117E-01     +3.183899E+00 +1.106230E+00 +6.516117E-01     +3.183899E+00 +1.106230E+00 +6.516117E-01     +4.225140E+00 +1.382261E+00 +3.163409E+00     +4.225140E+00 +1.382261E+00 +3.163409E+00     +4.225140E+00 +1.382261E+00 +3.163409E+00    
 +4.225140E+00 +1.382261E+00 +3.163409E+00     +5.404499E+00 +4.255567E-01 +5.017801E+00     +3.156707E-01 +1.393139E+00 +1.170060E+00     +3.156707E-01 +1.393139E+00 +1.170060E+00     +3.156707E-01 +1.393139E+00 +1.170060E+00     +3.156707E-01 +1.393139E+00 +1.170060E+00     +3.156707E-01 +1.393139E+00 +1.170060E+00     +3.156707E-01 +1.393139E+00 +1.170060E+00     +5.254021E+00 +2.600570E+00 +4.963440E+00     +5.254021E+00 +2.600570E+00 +4.963440E+00     +5.254021E+00 +2.600570E+00 +4.963440E+00     +5.254021E+00 +2.600570E+00 +4.963440E+00     +3.183899E+00 +1.106230E+00 +6.516117E-01     +3.183899E+00 +1.106230E+00 +6.516117E-01     +3.183899E+00 +1.106230E+00 +6.516117E-01     +3.183899E+00 +1.106230E+00 +6.516117E-01     +3.183899E+00 +1.106230E+00 +6.516117E-01     +4.225140E+00 +1.382261E+00 +3.163409E+00     +4.225140E+00 +1.382261E+00 +3.163409E+00     +4.225140E+00 +1.382261E+00 +3.163409E+00     +4.225140E+00 +1.382261E+00 +3.163409E+00    
 +4.225140E+00 +1.382261E+00 +3.163409E+00     +5.404499E+00 +4.255567E-01 +5.017801E+00     +3.156707E-01 +1.393139E+00 +1.170060E+00     +3.156707E-01 +1.393139E+00 +1.170060E+00     +3.156707E-01 +1.393139E+00 +1.170060E+00     +3.156707E-01 +1.393139E+00 +1.170060E+00     +3.156707E-01 +1.393139E+00 +1.170060E+00     +3.156707E-01 +1.393139E+00 +1.170060E+00     +2.630241E+00 +1.160670E+00 +4.955601E+00     +2.630241E+00 +1.160670E+00 +4.955601E+00     +5.858500E+00 +2.491110E+00 +6.200010E+00     +5.858500E+00 +2.491110E+00 +6.200010E+00     +5.858500E+00 +2.491110E+00 +6.200010E+00     +5.858500E+00 +2.491110E+00 +6.200010E+00     +5.858500E+00 +2.491110E+00 +6.200010E+00     +2.135199E+00 +1.930481E+00 +3.795630E+00     +2.135199E+00 +1.930481E+00 +3.795630E+00     +2.135199E+00 +1.930481E+00 +3.795630E+00     +4.225140E+00 +1.382261E+00 +3.163409E+00     +4.225140E+00 +1.382261E+00 +3.163409E+00     +4.225140E+00 +1.382261E+00 +3.163409E+00    
 +5.404499E+00 +4.255567E-01 +5.017801E+00     +5.404499E+00 +4.255567E-01 +5.017801E+00     +5.404499E+00 +4.255567E-01 +5.017801E+00     +3.156707E-01 +1.393139E+00 +1.170060E+00     +3.156707E-01 +1.393139E+00 +1.170060E+00     +3.156707E-01 +1.393139E+00 +1.170060E+00     +3.156707E-01 +1.393139E+00 +1.170060E+00     +3.156707E-01 +1.393139E+00 +1.170060E+00     +2.630241E+00 +1.160670E+00 +4.955601E+00     +2.630241E+00 +1.160670E+00 +4.955601E+00     +5.858500E+00 +2.491110E+00 +6.200010E+00     +5.858500E+00 +2.491110E+00 +6.200010E+00     +5.858500E+00 +2.491110E+00 +6.200010E+00     +5.858500E+00 +2.491110E+00 +6.200010E+00     +5.858500E+00 +2.491110E+00 +6.200010E+00     +2.135199E+00 +1.930481E+00 +3.795630E+00     +2.135199E+00 +1.930481E+00 +3.795630E+00     +2.135199E+00 +1.930481E+00 +3.795630E+00     +4.225140E+00 +1.382261E+00 +3.163409E+00     +4.225140E+00 +1.382261E+00 +3.163409E+00     +4.225140E+00 +1.382261E+00 +3.163409E+00    
 +4.225140E+00 +1.382261E+00 +3.163409E+00     +5.404499E+00 +4.255567E-01 +5.017801E+00     +3.156707E-01 +1.393139E+00 +1.170060E+00     +3.156707E-01 +1.393139E+00 +1.170060E+00     +3.156707E-01 +1.393139E+00 +1.170060E+00     +3.156707E-01 +1.393139E+00 +1.170060E+00     +3.156707E-01 +1.393139E+00 +1.170060E+00     +3.156707E-01 +1.393139E+00 +1.170060E+00     +2.630241E+00 +1.160670E+00 +4.955601E+00     +2.630241E+00 +1.160670E+00 +4.955601E+00     +5.858500E+00 +2.491110E+00 +6.200010E+00     +5.858500E+00 +2.491110E+00 +6.200010E+00     +5.858500E+00 +2.491110E+00 +6.200010E+00     +5.858500E+00 +2.491110E+00 +6.200010E+00     +5.858500E+00 +2.491110E+00 +6.200010E+00     +5.858500E+00 +2.491110E+00 +6.200010E+00     +5.858500E+00 +2.491110E+00 +6.200010E+00     +5.858500E+00 +2.491110E+00 +6.200010E+00     +4.225140E+00 +1.382261E+00 +3.163409E+00     +4.225140E+00 +1.382261E+00 +3.163409E+00     +4.225140E+00 +1.382261E+00 +3.163409E+00    
 +4.621510E+00 +6.203145E-01 +2.231161E+00     +4.621510E+00 +6.203145E-01 +2.231161E+00     +4.621510E+00 +6.203145E-01 +2.231161E+00     +3.156707E-01 +1.393139E+00 +1.170060E+00     +3.156707E-01 +1.393139E+00 +1.170060E+00     +3.156707E-01 +1.393139E+00 +1.170060E+00     +3.156707E-01 +1.393139E+00 +1.170060E+00     +3.156707E-01 +1.393139E+00 +1.170060E+00     +2.630241E+00 +1.160670E+00 +4.955601E+00     +5.858500E+00 +2.491110E+00 +6.200010E+00     +5.858500E+00 +2.491110E+00 +6.200010E+00     +5.858500E+00 +2.491110E+00 +6.200010E+00     +5.858500E+00 +2.491110E+00 +6.200010E+00     +5.858500E+00 +2.491110E+00 +6.200010E+00     +5.858500E+00 +2.491110E+00 +6.200010E+00     +5.858500E+00 +2.491110E+00 +6.200010E+00     +5.858500E+00 +2.491110E+00 +6.200010E+00     +5.858500E+00 +2.491110E+00 +6.200010E+00     +4.092329E+00 +1.967230E+00 +5.843849E+00     +4.092329E+00 +1.967230E+00 +5.843849E+00     +4.092329E+00 +1.967230E+00 +5.843849E+00    
 +2.061770E+00 +1.152230E+00 +5.173899E+00     +2.061770E+00 +1.152230E+00 +5.173899E+00     +2.061770E+00 +1.152230E+00 +5.173899E+00     +8.284624E-01 +9.850813E-01 +5.831145E-02     +8.284624E-01 +9.850813E-01 +5.831145E-02     +3.156707E-01 +1.393139E+00 +1.170060E+00     +3.156707E-01 +1.393139E+00 +1.170060E+00     +3.156707E-01 +1.393139E+00 +1.170060E+00     +2.630241E+00 +1.160670E+00 +4.955601E+00     +5.858500E+00 +2.491110E+00 +6.200010E+00     +5.858500E+00 +2.491110E+00 +6.200010E+00     +5.858500E+00 +2.491110E+00 +6.200010E+00     +5.858500E+00 +2.491110E+00 +6.200010E+00     +5.858500E+00 +2.491110E+00 +6.200010E+00     +5.858500E+00 +2.491110E+00 +6.200010E+00     +5.858500E+00 +2.491110E+00 +6.200010E+00     +5.858500E+00 +2.491110E+00 +6.200010E+00     +3.076860E+00 +1.928310E+00 +4.824630E+00     +4.092329E+00 +1.967230E+00 +5.843849E+00     +4.092329E+00 +1.967230E+00 +5.843849E+00     +4.092329E+00 +1.967230E+00 +5.843849E+00    
 +2.061770E+00 +1.152230E+00 +5.173899E+00     +2.061770E+00 +1.152230E+00 +5.173899E+00     +2.061770E+00 +1.152230E+00 +5.173899E+00     +8.284624E-01 +9.850813E-01 +5.831145E-02     +8.284624E-01 +9.850813E-01 +5.831145E-02     +3.156707E-01 +1.393139E+00 +1.170060E+00     +3.156707E-01 +1.393139E+00 +1.170060E+00     +3.156707E-01 +1.393139E+00 +1.170060E+00     +2.630241E+00 +1.160670E+00 +4.955601E+00     +5.858500E+00 +2.491110E+00 +6.200010E+00     +5.858500E+00 +2.491110E+00 +6.200010E+00     +5.858500E+00 +2.491110E+00 +6.200010E+00     +5.858500E+00 +2.491110E+00 +6.200010E+00     +5.858500E+00 +2.491110E+00 +6.200010E+00     +5.858500E+00 +2.491110E+00 +6.200010E+00     +3.911690E+00 +2.064901E+00 +5.572710E+00     +3.911690E+00 +2.064901E+00 +5.572710E+00     +3.076860E+00 +1.928310E+00 +4.824630E+00     +4.092329E+00 +1.967230E+00 +5.843849E+00     +4.092329E+00 +1.967230E+00 +5.843849E+00     +4.092329E+00 +1.967230E+00 +5.843849E+00    
 +2.061770E+00 +1.152230E+00 +5.173899E+00     +2.061770E+00 +1.152230E+00 +5.173899E+00     +2.061770E+00 +1.152230E+00 +5.173899E+00     +8.284624E-01 +9.850813E-01 +5.831145E-02     +8.284624E-01 +9.850813E-01 +5.831145E-02     +3.156707E-01 +1.393139E+00 +1.170060E+00     +3.156707E-01 +1.393139E+00 +1.170060E+00     +3.156707E-01 +1.393139E+00 +1.170060E+00     +5.400150E+00 +1.024931E+00 +1.593920E+00     +5.858500E+00 +2.491110E+00 +6.200010E+00     +5.858500E+00 +2.491110E+00 +6.200010E+00     +5.858500E+00 +2.491110E+00 +6.200010E+00     +3.008780E+00 +6.545491E-01 +1.219811E+00     +3.008780E+00 +6.545491E-01 +1.219811E+00     +5.858500E+00 +2.491110E+00 +6.200010E+00     +3.911690E+00 +2.064901E+00 +5.572710E+00     +3.911690E+00 +2.064901E+00 +5.572710E+00     +3.076860E+00 +1.928310E+00 +4.824630E+00     +4.092329E+00 +1.967230E+00 +5.843849E+00     +4.092329E+00 +1.967230E+00 +5.843849E+00     +4.092329E+00 +1.967230E+00 +5.843849E+00    
 +2.061770E+00 +1.152230E+00 +5.173899E+00     +2.061770E+00 +1.152230E+00 +5.173899E+00     +2.061770E+00 +1.152230E+00 +5.173899E+00     +8.284624E-01 +9.850813E-01 +5.831145E-02     +8.284624E-01 +9.850813E-01 +5.831145E-02     +3.156707E-01 +1.393139E+00 +1.170060E+00     +3.156707E-01 +1.393139E+00 +1.170060E+00     +5.400150E+00 +1.024931E+00 +1.593920E+00     +5.525491E+00 +1.605509E+00 +1.080820E+00     +5.525491E+00 +1.605509E+00 +1.080820E+00     +3.008780E+00 +6.545491E-01 +1.219811E+00     +3.008780E+00 +6.545491E-01 +1.219811E+00     +3.008780E+00 +6.545491E-01 +1.219811E+00     +3.008780E+00 +6.545491E-01 +1.219811E+00     +3.008780E+00 +6.545491E-01 +1.219811E+00     +3.911690E+00 +2.064901E+00 +5.572710E+00     +3.911690E+00 +2.064901E+00 +5.572710E+00     +3.076860E+00 +1.928310E+00 +4.824630E+00     +4.092329E+00 +1.967230E+00 +5.843849E+00     +4.092329E+00 +1.967230E+00 +5.843849E+00     +4.092329E+00 +1.967230E+00 +5.843849E+00    
 +2.061770E+00 +1.152230E+00 +5.173899E+00     +2.061770E+00 +1.152230E+00 +5.173899E+00     +2.061770E+00 +1.152230E+00 +5.173899E+00     +8.284624E-01 +9.850813E-01 +5.831145E-02     +8.284624E-01 +9.850813E-01 +5.831145E-02     +3.156707E-01 +1.393139E+00 +1.170060E+00     +5.525491E+00 +1.605509E+00 +1.080820E+00     +5.525491E+00 +1.605509E+00 +1.080820E+00     +5.525491E+00 +1.605509E+00 +1.080820E+00     +5.525491E+00 +1.605509E+00 +1.080820E+00     +5.525491E+00 +1.605509E+00 +1.080820E+00     +3.008780E+00 +6.545491E-01 +1.219811E+00     +3.008780E+00 +6.545491E-01 +1.219811E+00     +3.008780E+00 +6.545491E-01 +1.219811E+00     +3.008780E+00 +6.545491E-01 +1.219811E+00     +3.008780E+00 +6.545491E-01 +1.219811E+00     +3.008780E+00 +6.545491E-01 +1.219811E+00     +3.076860E+00 +1.928310E+00 +4.824630E+00     +4.092329E+00 +1.967230E+00 +5.843849E+00     +4.092329E+00 +1.967230E+00 +5.843849E+00     +4.092329E+00 +1.967230E+00 +5.843849E+00    
 +4.523970E+00 +2.179550E+00 +2.367365E-02     +4.523970E+00 +2.179550E+00 +2.367365E-02     +4.523970E+00 +2.179550E+00 +2.367365E-02     +3.930640E+00 +1.465029E+00 +3.238450E+00     +4.602379E+00 +5.372560E-01 +2.793579E+00     +4.602379E+00 +5.372560E-01 +2.793579E+00     +5.525491E+00 +1.605509E+00 +1.080820E+00     +5.525491E+00 +1.605509E+00 +1.080820E+00     +5.525491E+00 +1.605509E+00 +1.080820E+00     +5.525491E+00 +1.605509E+00 +1.080820E+00     +5.525491E+00 +1.605509E+00 +1.080820E+00     +5.525491E+00 +1.605509E+00 +1.080820E+00     +3.008780E+00 +6.545491E-01 +1.219811E+00     +3.008780E+00 +6.545491E-01 +1.219811E+00     +4.957660E-01 +1.701850E+00 +2.498352E-01     +4.957660E-01 +1.701850E+00 +2.498352E-01     +4.957660E-01 +1.701850E+00 +2.498352E-01     +1.386111E+00 +2.577029E+00 +3.175319E+00     +1.386111E+00 +2.577029E+00 +3.175319E+00     +1.386111E+00 +2.577029E+00 +3.175319E+00     +3.158290E+00 +9.270875E-01 +4.146730E+00    
 +4.523970E+00 +2.179550E+00 +2.367365E-02     +4.523970E+00 +2.179550E+00 +2.367365E-02     +4.523970E+00 +2.179550E+00 +2.367365E-02     +4.602379E+00 +5.372560E-01 +2.793579E+00     +4.602379E+00 +5.372560E-01 +2.793579E+00     +4.602379E+00 +5.372560E-01 +2.793579E+00     +5.685649E+00 +1.890691E+00 +5.557690E+00     +5.525491E+00 +1.605509E+00 +1.080820E+00     +5.525491E+00 +1.605509E+00 +1.080820E+00     +5.525491E+00 +1.605509E+00 +1.080820E+00     +5.525491E+00 +1.605509E+00 +1.080820E+00     +4.957660E-01 +1.701850E+00 +2.498352E-01     +4.957660E-01 +1.701850E+00 +2.498352E-01     +4.957660E-01 +1.701850E+00 +2.498352E-01     +4.957660E-01 +1.701850E+00 +2.498352E-01     +4.957660E-01 +1.701850E+00 +2.498352E-01     +4.957660E-01 +1.701850E+00 +2.498352E-01     +1.386111E+00 +2.577029E+00 +3.175319E+00     +1.386111E+00 +2.577029E+00 +3.175319E+00     +1.386111E+00 +2.577029E+00 +3.175319E+00     +1.386111E+00 +2.577029E+00 +3.175319E+00    
 +4.523970E+00 +2.179550E+00 +2.367365E-02     +4.523970E+00 +2.179550E+00 +2.367365E-02     +4.523970E+00 +2.179550E+00 +2.367365E-02     +4.602379E+00 +5.372560E-01 +2.793579E+00     +4.602379E+00 +5.372560E-01 +2.793579E+00     +4.602379E+00 +5.372560E-01 +2.793579E+00     +5.685649E+00 +1.890691E+00 +5.557690E+00     +5.685649E+00 +1.890691E+00 +5.557690E+00     +5.525491E+00 +1.605509E+00 +1.080820E+00     +5.525491E+00 +1.605509E+00 +1.080820E+00     +5.525491E+00 +1.605509E+00 +1.080820E+00     +4.957660E-01 +1.701850E+00 +2.498352E-01     +4.957660E-01 +1.701850E+00 +2.498352E-01     +4.957660E-01 +1.701850E+00 +2.498352E-01     +4.957660E-01 +1.701850E+00 +2.498352E-01     +4.957660E-01 +1.701850E+00 +2.498352E-01     +4.957660E-01 +1.701850E+00 +2.498352E-01     +1.386111E+00 +2.577029E+00 +3.175319E+00     +1.386111E+00 +2.577029E+00 +3.175319E+00     +1.386111E+00 +2.577029E+00 +3.175319E+00     +1.386111E+00 +2.577029E+00 +3.175319E+00    
 +4.523970E+00 +2.179550E+00 +2.367365E-02     +4.523970E+00 +2.179550E+00 +2.367365E-02     +4.523970E+00 +2.179550E+00 +2.367365E-02     +4.602379E+00 +5.372560E-01 +2.793579E+00     +4.602379E+00 +5.372560E-01 +2.793579E+00     +4.602379E+00 +5.372560E-01 +2.793579E+00     +5.685649E+00 +1.890691E+00 +5.557690E+00     +5.685649E+00 +1.890691E+00 +5.557690E+00     +5.685649E+00 +1.890691E+00 +5.557690E+00     +5.525491E+00 +1.605509E+00 +1.080820E+00     +5.525491E+00 +1.605509E+00 +1.080820E+00     +4.957660E-01 +1.701850E+00 +2.498352E-01     +4.957660E-01 +1.701850E+00 +2.498352E-01     +4.957660E-01 +1.701850E+00 +2.498352E-01     +4.957660E-01 +1.701850E+00 +2.498352E-01     +4.957660E-01 +1.701850E+00 +2.498352E-01     +4.957660E-01 +1.701850E+00 +2.498352E-01     +2.070980E+00 +9.549901E-01 +5.551800E+00     +2.070980E+00 +9.549901E-01 +5.551800E+00     +2.070980E+00 +9.549901E-01 +5.551800E+00     +2.070980E+00 +9.549901E-01 +5.551800E+00    
 +4.523970E+00 +2.179550E+00 +2.367365E-02     +4.523970E+00 +2.179550E+00 +2.367365E-02     +4.523970E+00 +2.179550E+00 +2.367365E-02     +4.602379E+00 +5.372560E-01 +2.793579E+00     +4.602379E+00 +5.372560E-01 +2.793579E+00     +4.602379E+00 +5.372560E-01 +2.793579E+00     +5.685649E+00 +1.890691E+00 +5.557690E+00     +5.685649E+00 +1.890691E+00 +5.557690E+00     +5.685649E+00 +1.890691E+00 +5.557690E+00     +5.525491E+00 +1.605509E+00 +1.080820E+00     +4.957660E-01 +1.701850E+00 +2.498352E-01     +4.957660E-01 +1.701850E+00 +2.498352E-01     +4.957660E-01 +1.701850E+00 +2.498352E-01     +4.957660E-01 +1.701850E+00 +2.498352E-01     +4.957660E-01 +1.701850E+00 +2.498352E-01     +4.957660E-01 +1.701850E+00 +2.498352E-01     +1.846120E+00 +2.636760E+00 +4.365350E+00     +2.070980E+00 +9.549901E-01 +5.551800E+00     +2.070980E+00 +9.549901E-01 +5.551800E+00     +2.070980E+00 +9.549901E-01 +5.551800E+00     +2.070980E+00 +9.549901E-01 +5.551800E+00    
 +5.138010E+00 +1.343350E+00 +1.951891E+00     +5.138010E+00 +1.343350E+00 +1.951891E+00     +5.138010E+00 +1.343350E+00 +1.951891E+00     +5.138010E+00 +1.343350E+00 +1.951891E+00     +5.138010E+00 +1.343350E+00 +1.951891E+00     +4.840150E+00 +1.948020E+00 +4.511090E+00     +4.840150E+00 +1.948020E+00 +4.511090E+00     +4.348160E+00 +2.792329E+00 +3.762061E+00     +4.840150E+00 +1.948020E+00 +4.511090E+00     +4.840150E+00 +1.948020E+00 +4.511090E+00     +4.957660E-01 +1.701850E+00 +2.498352E-01     +4.957660E-01 +1.701850E+00 +2.498352E-01     +4.957660E-01 +1.701850E+00 +2.498352E-01     +4.957660E-01 +1.701850E+00 +2.498352E-01     +4.957660E-01 +1.701850E+00 +2.498352E-01     +1.846120E+00 +2.636760E+00 +4.365350E+00     +1.846120E+00 +2.636760E+00 +4.365350E+00     +1.846120E+00 +2.636760E+00 +4.365350E+00     +2.070980E+00 +9.549901E-01 +5.551800E+00     +2.070980E+00 +9.549901E-01 +5.551800E+00     +5.138010E+00 +1.343350E+00 +1.951891E+00    
 +5.138010E+00 +1.343350E+00 +1.951891E+00     +5.138010E+00 +1.343350E+00 +1.951891E+00     +5.138010E+00 +1.343350E+00 +1.951891E+00     +5.138010E+00 +1.343350E+00 +1.951891E+00     +5.138010E+00 +1.343350E+00 +1.951891E+00     +4.840150E+00 +1.948020E+00 +4.511090E+00     +4.840150E+00 +1.948020E+00 +4.511090E+00     +4.840150E+00 +1.948020E+00 +4.511090E+00     +4.840150E+00 +1.948020E+00 +4.511090E+00     +4.840150E+00 +1.948020E+00 +4.511090E+00     +4.840150E+00 +1.948020E+00 +4.511090E+00     +4.957660E-01 +1.701850E+00 +2.498352E-01     +4.957660E-01 +1.701850E+00 +2.498352E-01     +4.957660E-01 +1.701850E+00 +2.498352E-01     +4.957660E-01 +1.701850E+00 +2.498352E-01     +4.487301E+00 +1.771249E+00 +4.998571E+00     +3.868631E+00 +2.330819E+00 +3.753090E+00     +5.598119E+00 +2.061890E+00 +1.272050E+00     +3.868631E+00 +2.330819E+00 +3.753090E+00     +3.868631E+00 +2.330819E+00 +3.753090E+00     +5.138010E+00 +1.343350E+00 +1.951891E+00    
 +5.138010E+00 +1.343350E+00 +1.951891E+00     +5.138010E+00 +1.343350E+00 +1.951891E+00     +5.138010E+00 +1.343350E+00 +1.951891E+00     +5.138010E+00 +1.343350E+00 +1.951891E+00     +5.138010E+00 +1.343350E+00 +1.951891E+00     +4.840150E+00 +1.948020E+00 +4.511090E+00     +4.840150E+00 +1.948020E+00 +4.511090E+00     +4.840150E+00 +1.948020E+00 +4.511090E+00     +4.840150E+00 +1.948020E+00 +4.511090E+00     +4.840150E+00 +1.948020E+00 +4.511090E+00     +4.840150E+00 +1.948020E+00 +4.511090E+00     +4.957660E-01 +1.701850E+00 +2.498352E-01     +4.957660E-01 +1.701850E+00 +2.498352E-01     +4.957660E-01 +1.701850E+00 +2.498352E-01     +4.487301E+00 +1.771249E+00 +4.998571E+00     +4.487301E+00 +1.771249E+00 +4.998571E+00     +5.598119E+00 +2.061890E+00 +1.272050E+00     +5.598119E+00 +2.061890E+00 +1.272050E+00     +5.598119E+00 +2.061890E+00 +1.272050E+00     +5.598119E+00 +2.061890E+00 +1.272050E+00     +5.138010E+00 +1.343350E+00 +1.951891E+00    
 +5.138010E+00 +1.343350E+00 +1.951891E+00     +5.138010E+00 +1.343350E+00 +1.951891E+00     +5.138010E+00 +1.343350E+00 +1.951891E+00     +5.138010E+00 +1.343350E+00 +1.951891E+00     +5.138010E+00 +1.343350E+00 +1.951891E+00     +4.840150E+00 +1.948020E+00 +4.511090E+00     +4.840150E+00 +1.948020E+00 +4.511090E+00     +4.840150E+00 +1.948020E+00 +4.511090E+00     +4.840150E+00 +1.948020E+00 +4.511090E+00     +4.840150E+00 +1.948020E+00 +4.511090E+00     +5.254021E+00 +2.600570E+00 +4.963440E+00     +5.254021E+00 +2.600570E+00 +4.963440E+00     +4.487301E+00 +1.771249E+00 +4.998571E+00     +4.487301E+00 +1.771249E+00 +4.998571E+00     +4.487301E+00 +1.771249E+00 +4.998571E+00     +4.487301E+00 +1.771249E+00 +4.998571E+00     +4.487301E+00 +1.771249E+00 +4.998571E+00     +5.598119E+00 +2.061890E+00 +1.272050E+00     +3.868631E+00 +2.330819E+00 +3.753090E+00     +3.868631E+00 +2.330819E+00 +3.753090E+00     +5.138010E+00 +1.343350E+00 +1.951891E+00    
 +5.138010E+00 +1.343350E+00 +1.951891E+00     +5.138010E+00 +1.343350E+00 +1.951891E+00     +5.138010E+00 +1.343350E+00 +1.951891E+00     +5.138010E+00 +1.343350E+00 +1.951891E+00     +3.156707E-01 +1.393139E+00 +1.170060E+00     +4.840150E+00 +1.948020E+00 +4.511090E+00     +4.840150E+00 +1.948020E+00 +4.511090E+00     +4.840150E+00 +1.948020E+00 +4.511090E+00     +4.840150E+00 +1.948020E+00 +4.511090E+00     +4.840150E+00 +1.948020E+00 +4.511090E+00     +5.254021E+00 +2.600570E+00 +4.963440E+00     +5.254021E+00 +2.600570E+00 +4.963440E+00     +3.183899E+00 +1.106230E+00 +6.516117E-01     +3.183899E+00 +1.106230E+00 +6.516117E-01     +3.183899E+00 +1.106230E+00 +6.516117E-01     +4.487301E+00 +1.771249E+00 +4.998571E+00     +4.487301E+00 +1.771249E+00 +4.998571E+00     +4.487301E+00 +1.771249E+00 +4.998571E+00     +3.868631E+00 +2.330819E+00 +3.753090E+00     +3.868631E+00 +2.330819E+00 +3.753090E+00     +5.138010E+00 +1.343350E+00 +1.951891E+00    
 +5.138010E+00 +1.343350E+00 +1.951891E+00     +5.138010E+00 +1.343350E+00 +1.951891E+00     +5.138010E+00 +1.343350E+00 +1.951891E+00     +3.156707E-01 +1.393139E+00 +1.170060E+00     +3.156707E-01 +1.393139E+00 +1.170060E+00     +3.156707E-01 +1.393139E+00 +1.170060E+00     +3.156707E-01 +1.393139E+00 +1.170060E+00     +3.156707E-01 +1.393139E+00 +1.170060E+00     +5.254021E+00 +2.600570E+00 +4.963440E+00     +5.254021E+00 +2.600570E+00 +4.963440E+00     +5.254021E+00 +2.600570E+00 +4.963440E+00     +5.254021E+00 +2.600570E+00 +4.963440E+00     +3.183899E+00 +1.106230E+00 +6.516117E-01     +3.183899E+00 +1.106230E+00 +6.516117E-01     +3.183899E+00 +1.106230E+00 +6.516117E-01     +3.183899E+00 +1.106230E+00 +6.516117E-01     +4.487301E+00 +1.771249E+00 +4.998571E+00     +4.487301E+00 +1.771249E+00 +4.998571E+00     +4.225140E+00 +1.382261E+00 +3.163409E+00     +4.225140E+00 +1.382261E+00 +3.163409E+00     +4.225140E+00 +1.382261E+00 +3.163409E+00    
 +4.225140E+00 +1.382261E+00 +3.163409E+00     +5.404499E+00 +4.255567E-01 +5.017801E+00     +3.156707E-01 +1.393139E+00 +1.170060E+00     +3.156707E-01 +1.393139E+00 +1.170060E+00     +3.156707E-01 +1.393139E+00 +1.170060E+00     +3.156707E-01 +1.393139E+00 +1.170060E+00     +3.156707E-01 +1.393139E+00 +1.170060E+00     +3.156707E-01 +1.393139E+00 +1.170060E+00     +3.156707E-01 +1.393139E+00 +1.170060E+00     +5.254021E+00 +2.600570E+00 +4.963440E+00     +5.254021E+00 +2.600570E+00 +4.963440E+00     +5.858500E+00 +2.491110E+00 +6.200010E+00     +5.858500E+00 +2.491110E+00 +6.200010E+00     +3.183899E+00 +1.106230E+00 +6.516117E-01     +3.183899E+00 +1.106230E+00 +6.516117E-01     +3.183899E+00 +1.106230E+00 +6.516117E-01     +2.135199E+00 +1.930481E+00 +3.795630E+00     +4.225140E+00 +1.382261E+00 +3.163409E+00     +4.225140E+00 +1.382261E+00 +3.163409E+00     +4.225140E+00 +1.382261E+00 +3.163409E+00     +4.225140E+00 +1.382261E+00 +3.163409E+00    
 +4.225140E+00 +1.382261E+00 +3.163409E+00     +5.404499E+00 +4.255567E-01 +5.017801E+00     +5.404499E+00 +4.255567E-01 +5.017801E+00     +3.156707E-01 +1.393139E+00 +1.170060E+00     +3.156707E-01 +1.393139E+00 +1.170060E+00     +3.156707E-01 +1.393139E+00 +1.170060E+00     +3.156707E-01 +1.393139E+00 +1.170060E+00     +3.156707E-01 +1.393139E+00 +1.170060E+00     +3.156707E-01 +1.393139E+00 +1.170060E+00     +3.156707E-01 +1.393139E+00 +1.170060E+00     +5.858500E+00 +2.491110E+00 +6.200010E+00     +5.858500E+00 +2.491110E+00 +6.200010E+00     +5.858500E+00 +2.491110E+00 +6.200010E+00     +5.858500E+00 +2.491110E+00 +6.200010E+00     +2.135199E+00 +1.930481E+00 +3.795630E+00     +2.135199E+00 +1.930481E+00 +3.795630E+00     +2.135199E+00 +1.930481E+00 +3.795630E+00     +4.225140E+00 +1.382261E+00 +3.163409E+00     +4.225140E+00 +1.382261E+00 +3.163409E+00     +4.225140E+00 +1.382261E+00 +3.163409E+00     +4.225140E+00 +1.382261E+00 +3.163409E+00    
 +5.404499E+00 +4.255567E-01 +5.017801E+00     +5.404499E+00 +4.255567E-01 +5.017801E+00     +5.404499E+00 +4.255567E-01 +5.017801E+00     +3.156707E-01 +1.393139E+00 +1.170060E+00     +3.156707E-01 +1.393139E+00 +1.170060E+00     +3.156707E-01 +1.393139E+00 +1.170060E+00     +3.156707E-01 +1.393139E+00 +1.170060E+00     +3.156707E-01 +1.393139E+00 +1.170060E+00     +3.156707E-01 +1.393139E+00 +1.170060E+00     +3.156707E-01 +1.393139E+00 +1.170060E+00     +5.858500E+00 +2.491110E+00 +6.200010E+00     +5.858500E+00 +2.491110E+00 +6.200010E+00     +5.858500E+00 +2.491110E+00 +6.200010E+00     +5.858500E+00 +2.491110E+00 +6.200010E+00     +2.135199E+00 +1.930481E+00 +3.795630E+00     +2.135199E+00 +1.930481E+00 +3.795630E+00     +2.135199E+00 +1.930481E+00 +3.795630E+00     +4.225140E+00 +1.382261E+00 +3.163409E+00     +4.225140E+00 +1.382261E+00 +3.163409E+00     +4.225140E+00 +1.382261E+00 +3.163409E+00     +4.225140E+00 +1.382261E+00 +3.163409E+00    
 +4.225140E+00 +1.382261E+00 +3.163409E+00     +5.404499E+00 +4.255567E-01 +5.017801E+00     +5.404499E+00 +4.255567E-01 +5.017801E+00     +3.156707E-01 +1.393139E+00 +1.170060E+00     +3.156707E-01 +1.393139E+00 +1.170060E+00     +3.156707E-01 +1.393139E+00 +1.170060E+00     +3.156707E-01 +1.393139E+00 +1.170060E+00     +3.156707E-01 +1.393139E+00 +1.170060E+00     +3.156707E-01 +1.393139E+00 +1.170060E+00     +5.858500E+00 +2.491110E+00 +6.200010E+00     +5.858500E+00 +2.491110E+00 +6.200010E+00     +5.858500E+00 +2.491110E+00 +6.200010E+00     +5.858500E+00 +2.491110E+00 +6.200010E+00     +5.858500E+00 +2.491110E+00 +6.200010E+00     +5.858500E+00 +2.491110E+00 +6.200010E+00     +2.135199E+00 +1.930481E+00 +3.795630E+00     +2.135199E+00 +1.930481E+00 +3.795630E+00     +4.225140E+00 +1.382261E+00 +3.163409E+00     +4.225140E+00 +1.382261E+00 +3.163409E+00     +4.225140E+00 +1.382261E+00 +3.163409E+00     +4.225140E+00 +1.382261E+00 +3.163409E+00    
 +4.621510E+00 +6.203145E-01 +2.231161E+00     +4.621510E+00 +6.203145E-01 +2.231161E+00     +4.621510E+00 +6.203145E-01 +2.231161E+00     +3.156707E-01 +1.393139E+00 +1.170060E+00     +3.156707E-01 +1.393139E+00 +1.170060E+00     +3.156707E-01 +1.393139E+00 +1.170060E+00     +3.156707E-01 +1.393139E+00 +1.170060E+00     +3.156707E-01 +1.393139E+00 +1.170060E+00     +3.156707E-01 +1.393139E+00 +1.170060E+00     +5.858500E+00 +2.491110E+00 +6.200010E+00     +5.858500E+00 +2.491110E+00 +6.200010E+00     +5.858500E+00 +2.491110E+00 +6.200010E+00     +5.858500E+00 +2.491110E+00 +6.200010E+00     +2.311610E+00 +2.385520E+00 +3.626490E+00     +5.858500E+00 +2.491110E+00 +6.200010E+00     +5.858500E+00 +2.491110E+00 +6.200010E+00     +5.858500E+00 +2.491110E+00 +6.200010E+00     +4.225140E+00 +1.382261E+00 +3.163409E+00     +4.225140E+00 +1.382261E+00 +3.163409E+00     +4.225140E+00 +1.382261E+00 +3.163409E+00     +4.225140E+00 +1.382261E+00 +3.163409E+00    
 +2.061770E+00 +1.152230E+00 +5.173899E+00     +2.061770E+00 +1.152230E+00 +5.173899E+00     +2.061770E+00 +1.152230E+00 +5.173899E+00     +3.156707E-01 +1.393139E+00 +1.170060E+00     +3.156707E-01 +1.393139E+00 +1.170060E+00     +3.156707E-01 +1.393139E+00 +1.170060E+00     +3.156707E-01 +1.393139E+00 +1.170060E+00     +3.156707E-01 +1.393139E+00 +1.170060E+00     +3.156707E-01 +1.393139E+00 +1.170060E+00     +5.858500E+00 +2.491110E+00 +6.200010E+00     +5.858500E+00 +2.491110E+00 +6.200010E+00     +5.858500E+00 +2.491110E+00 +6.200010E+00     +5.858500E+00 +2.491110E+00 +6.200010E+00     +5.858500E+00 +2.491110E+00 +6.200010E+00     +5.858500E+00 +2.491110E+00 +6.200010E+00     +5.858500E+00 +2.491110E+00 +6.200010E+00     +5.858500E+00 +2.491110E+00 +6.200010E+00     +3.076860E+00 +1.928310E+00 +4.824630E+00     +4.092329E+00 +1.967230E+00 +5.843849E+00     +4.092329E+00 +1.967230E+00 +5.843849E+00     +4.092329E+00 +1.967230E+00 +5.843849E+00    
 +2.061770E+00 +1.152230E+00 +5.173899E+00     +2.061770E+00 +1.152230E+00 +5.173899E+00     +2.061770E+00 +1.152230E+00 +5.173899E+00     +8.284624E-01 +9.850813E-01 +5.831145E-02     +8.284624E-01 +9.850813E-01 +5.831145E-02     +3.156707E-01 +1.393139E+00 +1.170060E+00     +3.156707E-01 +1.393139E+00 +1.170060E+00     +3.156707E-01 +1.393139E+00 +1.170060E+00     +5.400150E+00 +1.024931E+00 +1.593920E+00     +5.858500E+00 +2.491110E+00 +6.200010E+00     +5.858500E+00 +2.491110E+00 +6.200010E+00     +5.858500E+00 +2.491110E+00 +6.200010E+00     +5.858500E+00 +2.491110E+00 +6.200010E+00     +5.858500E+00 +2.491110E+00 +6.200010E+00     +5.858500E+00 +2.491110E+00 +6.200010E+00     +3.911690E+00 +2.064901E+00 +5.572710E+00     +3.911690E+00 +2.064901E+00 +5.572710E+00     +3.076860E+00 +1.928310E+00 +4.824630E+00     +4.092329E+00 +1.967230E+00 +5.843849E+00     +4.092329E+00 +1.967230E+00 +5.843849E+00     +4.092329E+00 +1.967230E+00 +5.843849E+00    
 +2.061770E+00 +1.152230E+00 +5.173899E+00     +2.061770E+00 +1.152230E+00 +5.173899E+00     +2.061770E+00 +1.152230E+00 +5.173899E+00     +8.284624E-01 +9.850813E-01 +5.831145E-02     +8.284624E-01 +9.850813E-01 +5.831145E-02     +3.156707E-01 +1.393139E+00 +1.170060E+00     +3.156707E-01 +1.393139E+00 +1.170060E+00     +5.400150E+00 +1.024931E+00 +1.593920E+00     +5.400150E+00 +1.024931E+00 +1.593920E+00     +3.382630E+00 +2.983171E+00 +5.703999E+00     +3.382630E+00 +2.983171E+00 +5.703999E+00     +5.858500E+00 +2.491110E+00 +6.200010E+00     +3.008780E+00 +6.545491E-01 +1.219811E+00     +3.008780E+00 +6.545491E-01 +1.219811E+00     +3.008780E+00 +6.545491E-01 +1.219811E+00     +3.911690E+00 +2.064901E+00 +5.572710E+00     +3.911690E+00 +2.064901E+00 +5.572710E+00     +3.076860E+00 +1.928310E+00 +4.824630E+00     +4.092329E+00 +1.967230E+00 +5.843849E+00     +4.092329E+00 +1.967230E+00 +5.843849E+00     +4.092329E+00 +1.967230E+00 +5.843849E+00    
 +2.061770E+00 +1.152230E+00 +5.173899E+00     +2.061770E+00 +1.152230E+00 +5.173899E+00     +2.061770E+00 +1.152230E+00 +5.173899E+00     +8.284624E-01 +9.850813E-01 +5.831145E-02     +8.284624E-01 +9.850813E-01 +5.831145E-02     +3.156707E-01 +1.393139E+00 +1.170060E+00     +5.400150E+00 +1.024931E+00 +1.593920E+00     +5.400150E+00 +1.024931E+00 +1.593920E+00     +5.525491E+00 +1.605509E+00 +1.080820E+00     +5.525491E+00 +1.605509E+00 +1.080820E+00     +5.525491E+00 +1.605509E+00 +1.080820E+00     +3.008780E+00 +6.545491E-01 +1.219811E+00     +3.008780E+00 +6.545491E-01 +1.219811E+00     +3.008780E+00 +6.545491E-01 +1.219811E+00     +3.008780E+00 +6.545491E-01 +1.219811E+00     +3.911690E+00 +2.064901E+00 +5.572710E+00     +3.911690E+00 +2.064901E+00 +5.572710E+00     +3.076860E+00 +1.928310E+00 +4.824630E+00     +4.092329E+00 +1.967230E+00 +5.843849E+00     +4.092329E+00 +1.967230E+00 +5.843849E+00     +4.092329E+00 +1.967230E+00 +5.843849E+00    
 +2.061770E+00 +1.152230E+00 +5.173899E+00     +2.061770E+00 +1.152230E+00 +5.173899E+00     +2.061770E+00 +1.152230E+00 +5.173899E+00     +8.284624E-01 +9.850813E-01 +5.831145E-02     +8.284624E-01 +9.850813E-01 +5.831145E-02     +3.156707E-01 +1.393139E+00 +1.170060E+00     +5.525491E+00 +1.605509E+00 +1.080820E+00     +5.525491E+00 +1.605509E+00 +1.080820E+00     +5.525491E+00 +1.605509E+00 +1.080820E+00     +5.525491E+00 +1.605509E+00 +1.080820E+00     +5.525491E+00 +1.605509E+00 +1.080820E+00     +3.008780E+00 +6.545491E-01 +1.219811E+00     +3.008780E+00 +6.545491E-01 +1.219811E+00     +3.008780E+00 +6.545491E-01 +1.219811E+00     +3.008780E+00 +6.545491E-01 +1.219811E+00     +3.008780E+00 +6.545491E-01 +1.219811E+00     +3.911690E+00 +2.064901E+00 +5.572710E+00     +3.076860E+00 +1.928310E+00 +4.824630E+00     +4.092329E+00 +1.967230E+00 +5.843849E+00     +4.092329E+00 +1.967230E+00 +5.843849E+00     +4.092329E+00 +1.967230E+00 +5.843849E+00    
 +3.158290E+00 +9.270875E-01 +4.146730E+00     +7.546524E-01 +1.219079E+00 +3.888690E+00     +3.930640E+00 +1.465029E+00 +3.238450E+00     +3.930640E+00 +1.465029E+00 +3.238450E+00     +4.602379E+00 +5.372560E-01 +2.793579E+00     +4.602379E+00 +5.372560E-01 +2.793579E+00     +4.602379E+00 +5.372560E-01 +2.793579E+00     +5.525491E+00 +1.605509E+00 +1.080820E+00     +5.525491E+00 +1.605509E+00 +1.080820E+00     +5.525491E+00 +1.605509E+00 +1.080820E+00     +5.525491E+00 +1.605509E+00 +1.080820E+00     +1.603130E+00 +9.864147E-01 +5.636260E+00     +1.603130E+00 +9.864147E-01 +5.636260E+00     +4.957660E-01 +1.701850E+00 +2.498352E-01     +4.957660E-01 +1.701850E+00 +2.498352E-01     +4.957660E-01 +1.701850E+00 +2.498352E-01     +4.957660E-01 +1.701850E+00 +2.498352E-01     +1.386111E+00 +2.577029E+00 +3.175319E+00     +1.386111E+00 +2.577029E+00 +3.175319E+00     +3.158290E+00 +9.270875E-01 +4.146730E+00     +3.158290E+00 +9.270875E-01 +4.146730E+00    
 +7.546524E-01 +1.219079E+00 +3.888690E+00     +4.523970E+00 +2.179550E+00 +2.367365E-02     +3.930640E+00 +1.465029E+00 +3.238450E+00     +4.602379E+00 +5.372560E-01 +2.793579E+00     +4.602379E+00 +5.372560E-01 +2.793579E+00     +4.602379E+00 +5.372560E-01 +2.793579E+00     +4.602379E+00 +5.372560E-01 +2.793579E+00     +4.602379E+00 +5.372560E-01 +2.793579E+00     +5.525491E+00 +1.605509E+00 +1.080820E+00     +5.525491E+00 +1.605509E+00 +1.080820E+00     +5.525491E+00 +1.605509E+00 +1.080820E+00     +1.603130E+00 +9.864147E-01 +5.636260E+00     +1.603130E+00 +9.864147E-01 +5.636260E+00     +4.957660E-01 +1.701850E+00 +2.498352E-01     +4.957660E-01 +1.701850E+00 +2.498352E-01     +4.957660E-01 +1.701850E+00 +2.498352E-01     +4.957660E-01 +1.701850E+00 +2.498352E-01     +1.386111E+00 +2.577029E+00 +3.175319E+00     +1.386111E+00 +2.577029E+00 +3.175319E+00     +1.386111E+00 +2.577029E+00 +3.175319E+00     +3.158290E+00 +9.270875E-01 +4.146730E+00    
 +4.523970E+00 +2.179550E+00 +2.367365E-02     +4.523970E+00 +2.179550E+00 +2.367365E-02     +4.602379E+00 +5.372560E-01 +2.793579E+00     +4.602379E+00 +5.372560E-01 +2.793579E+00     +4.602379E+00 +5.372560E-01 +2.793579E+00     +4.602379E+00 +5.372560E-01 +2.793579E+00     +4.602379E+00 +5.372560E-01 +2.793579E+00     +5.685649E+00 +1.890691E+00 +5.557690E+00     +5.525491E+00 +1.605509E+00 +1.080820E+00     +5.525491E+00 +1.605509E+00 +1.080820E+00     +5.525491E+00 +1.605509E+00 +1.080820E+00     +1.603130E+00 +9.864147E-01 +5.636260E+00     +4.957660E-01 +1.701850E+00 +2.498352E-01     +4.957660E-01 +1.701850E+00 +2.498352E-01     +4.957660E-01 +1.701850E+00 +2.498352E-01     +4.957660E-01 +1.701850E+00 +2.498352E-01     +4.957660E-01 +1.701850E+00 +2.498352E-01     +1.386111E+00 +2.577029E+00 +3.175319E+00     +1.386111E+00 +2.577029E+00 +3.175319E+00     +1.965630E+00 +2.237580E+00 +1.848070E+00     +1.965630E+00 +2.237580E+00 +1.848070E+00    
 +4.523970E+00 +2.179550E+00 +2.367365E-02     +4.523970E+00 +2.179550E+00 +2.367365E-02     +4.523970E+00 +2.179550E+00 +2.367365E-02     +4.602379E+00 +5.372560E-01 +2.793579E+00     +4.602379E+00 +5.372560E-01 +2.793579E+00     +4.602379E+00 +5.372560E-01 +2.793579E+00     +4.602379E+00 +5.372560E-01 +2.793579E+00     +5.685649E+00 +1.890691E+00 +5.557690E+00     +5.685649E+00 +1.890691E+00 +5.557690E+00     +5.525491E+00 +1.605509E+00 +1.080820E+00     +5.525491E+00 +1.605509E+00 +1.080820E+00     +4.957660E-01 +1.701850E+00 +2.498352E-01     +4.957660E-01 +1.701850E+00 +2.498352E-01     +4.957660E-01 +1.701850E+00 +2.498352E-01     +4.957660E-01 +1.701850E+00 +2.498352E-01     +4.957660E-01 +1.701850E+00 +2.498352E-01     +4.957660E-01 +1.701850E+00 +2.498352E-01     +4.957660E-01 +1.701850E+00 +2.498352E-01     +2.070980E+00 +9.549901E-01 +5.551800E+00     +2.070980E+00 +9.549901E-01 +5.551800E+00     +5.138010E+00 +1.343350E+00 +1.951891E+00    
 +5.138010E+00 +1.343350E+00 +1.951891E+00     +5.138010E+00 +1.343350E+00 +1.951891E+00     +5.138010E+00 +1.343350E+00 +1.951891E+00     +4.602379E+00 +5.372560E-01 +2.793579E+00     +4.602379E+00 +5.372560E-01 +2.793579E+00     +4.602379E+00 +5.372560E-01 +2.793579E+00     +4.602379E+00 +5.372560E-01 +2.793579E+00     +5.685649E+00 +1.890691E+00 +5.557690E+00     +5.685649E+00 +1.890691E+00 +5.557690E+00     +5.685649E+00 +1.890691E+00 +5.557690E+00     +4.957660E-01 +1.701850E+00 +2.498352E-01     +4.957660E-01 +1.701850E+00 +2.498352E-01     +4.957660E-01 +1.701850E+00 +2.498352E-01     +4.957660E-01 +1.701850E+00 +2.498352E-01     +4.957660E-01 +1.701850E+00 +2.498352E-01     +4.957660E-01 +1.701850E+00 +2.498352E-01     +4.957660E-01 +1.701850E+00 +2.498352E-01     +2.070980E+00 +9.549901E-01 +5.551800E+00     +2.070980E+00 +9.549901E-01 +5.551800E+00     +2.070980E+00 +9.549901E-01 +5.551800E+00     +5.138010E+00 +1.343350E+00 +1.951891E+00    
 +5.138010E+00 +1.343350E+00 +1.951891E+00     +5.138010E+00 +1.343350E+00 +1.951891E+00     +5.138010E+00 +1.343350E+00 +1.951891E+00     +5.138010E+00 +1.343350E+00 +1.951891E+00     +5.138010E+00 +1.343350E+00 +1.951891E+00     +4.840150E+00 +1.948020E+00 +4.511090E+00     +4.840150E+00 +1.948020E+00 +4.511090E+00     +4.840150E+00 +1.948020E+00 +4.511090E+00     +4.840150E+00 +1.948020E+00 +4.511090E+00     +4.840150E+00 +1.948020E+00 +4.511090E+00     +4.957660E-01 +1.701850E+00 +2.498352E-01     +4.957660E-01 +1.701850E+00 +2.498352E-01     +4.957660E-01 +1.701850E+00 +2.498352E-01     +4.957660E-01 +1.701850E+00 +2.498352E-01     +4.957660E-01 +1.701850E+00 +2.498352E-01     +4.957660E-01 +1.701850E+00 +2.498352E-01     +3.868631E+00 +2.330819E+00 +3.753090E+00     +3.868631E+00 +2.330819E+00 +3.753090E+00     +3.868631E+00 +2.330819E+00 +3.753090E+00     +3.868631E+00 +2.330819E+00 +3.753090E+00     +5.138010E+00 +1.343350E+00 +1.951891E+00    
 +5.138010E+00 +1.343350E+00 +1.951891E+00     +5.138010E+00 +1.343350E+00 +1.951891E+00     +5.138010E+00 +1.343350E+00 +1.951891E+00     +5.138010E+00 +1.343350E+00 +1.951891E+00     +5.138010E+00 +1.343350E+00 +1.951891E+00     +4.840150E+00 +1.948020E+00 +4.511090E+00     +4.840150E+00 +1.948020E+00 +4.511090E+00     +4.840150E+00 +1.948020E+00 +4.511090E+00     +4.840150E+00 +1.948020E+00 +4.511090E+00     +4.840150E+00 +1.948020E+00 +4.511090E+00     +4.840150E+00 +1.948020E+00 +4.511090E+00     +4.957660E-01 +1.701850E+00 +2.498352E-01     +4.957660E-01 +1.701850E+00 +2.498352E-01     +4.957660E-01 +1.701850E+00 +2.498352E-01     +4.957660E-01 +1.701850E+00 +2.498352E-01     +4.487301E+00 +1.771249E+00 +4.998571E+00     +3.868631E+00 +2.330819E+00 +3.753090E+00     +3.868631E+00 +2.330819E+00 +3.753090E+00     +3.868631E+00 +2.330819E+00 +3.753090E+00     +3.868631E+00 +2.330819E+00 +3.753090E+00     +5.138010E+00 +1.343350E+00 +1.951891E+00    
 +5.138010E+00 +1.343350E+00 +1.951891E+00     +5.138010E+00 +1.343350E+00 +1.951891E+00     +5.138010E+00 +1.343350E+00 +1.951891E+00     +5.138010E+00 +1.343350E+00 +1.951891E+00     +5.138010E+00 +1.343350E+00 +1.951891E+00     +4.840150E+00 +1.948020E+00 +4.511090E+00     +4.840150E+00 +1.948020E+00 +4.511090E+00     +4.840150E+00 +1.948020E+00 +4.511090E+00     +4.840150E+00 +1.948020E+00 +4.511090E+00     +4.840150E+00 +1.948020E+00 +4.511090E+00     +4.840150E+00 +1.948020E+00 +4.511090E+00     +4.957660E-01 +1.701850E+00 +2.498352E-01     +4.957660E-01 +1.701850E+00 +2.498352E-01     +4.487301E+00 +1.771249E+00 +4.998571E+00     +4.487301E+00 +1.771249E+00 +4.998571E+00     +4.487301E+00 +1.771249E+00 +4.998571E+00     +3.868631E+00 +2.330819E+00 +3.753090E+00     +3.868631E+00 +2.330819E+00 +3.753090E+00     +3.868631E+00 +2.330819E+00 +3.753090E+00     +3.868631E+00 +2.330819E+00 +3.753090E+00     +5.138010E+00 +1.343350E+00 +1.951891E+00    
 +5.138010E+00 +1.343350E+00 +1.951891E+00     +5.138010E+00 +1.343350E+00 +1.951891E+00     +5.138010E+00 +1.343350E+00 +1.951891E+00     +5.138010E+00 +1.343350E+00 +1.951891E+00     +5.138010E+00 +1.343350E+00 +1.951891E+00     +4.840150E+00 +1.948020E+00 +4.511090E+00     +4.840150E+00 +1.948020E+00 +4.511090E+00     +4.840150E+00 +1.948020E+00 +4.511090E+00     +4.840150E+00 +1.948020E+00 +4.511090E+00     +4.840150E+00 +1.948020E+00 +4.511090E+00     +4.840150E+00 +1.948020E+00 +4.511090E+00     +4.840150E+00 +1.948020E+00 +4.511090E+00     +4.487301E+00 +1.771249E+00 +4.998571E+00     +4.487301E+00 +1.771249E+00 +4.998571E+00     +4.487301E+00 +1.771249E+00 +4.998571E+00     +4.487301E+00 +1.771249E+00 +4.998571E+00     +4.487301E+00 +1.771249E+00 +4.998571E+00     +3.868631E+00 +2.330819E+00 +3.753090E+00     +3.868631E+00 +2.330819E+00 +3.753090E+00     +3.868631E+00 +2.330819E+00 +3.753090E+00     +5.138010E+00 +1.343350E+00 +1.951891E+00    
 +5.138010E+00 +1.343350E+00 +1.951891E+00     +5.138010E+00 +1.343350E+00 +1.951891E+00     +5.138010E+00 +1.343350E+00 +1.951891E+00     +5.138010E+00 +1.343350E+00 +1.951891E+00     +5.138010E+00 +1.343350E+00 +1.951891E+00     +4.840150E+00 +1.948020E+00 +4.511090E+00     +4.840150E+00 +1.948020E+00 +4.511090E+00     +4.840150E+00 +1.948020E+00 +4.511090E+00     +4.840150E+00 +1.948020E+00 +4.511090E+00     +4.840150E+00 +1.948020E+00 +4.511090E+00     +4.840150E+00 +1.948020E+00 +4.511090E+00     +4.840150E+00 +1.948020E+00 +4.511090E+00     +4.487301E+00 +1.771249E+00 +4.998571E+00     +4.487301E+00 +1.771249E+00 +4.998571E+00     +4.487301E+00 +1.771249E+00 +4.998571E+00     +4.487301E+00 +1.771249E+00 +4.998571E+00     +4.487301E+00 +1.771249E+00 +4.998571E+00     +4.487301E+00 +1.771249E+00 +4.998571E+00     +3.868631E+00 +2.330819E+00 +3.753090E+00     +3.868631E+00 +2.330819E+00 +3.753090E+00     +5.138010E+00 +1.343350E+00 +1.951891E+00    
 +5.138010E+00 +1.343350E+00 +1.951891E+00     +5.138010E+00 +1.343350E+00 +1.951891E+00     +5.138010E+00 +1.343350E+00 +1.951891E+00     +5.138010E+00 +1.343350E+00 +1.951891E+00     +3.156707E-01 +1.393139E+00 +1.170060E+00     +3.156707E-01 +1.393139E+00 +1.170060E+00     +3.156707E-01 +1.393139E+00 +1.170060E+00     +4.840150E+00 +1.948020E+00 +4.511090E+00     +4.840150E+00 +1.948020E+00 +4.511090E+00     +4.840150E+00 +1.948020E+00 +4.511090E+00     +5.254021E+00 +2.600570E+00 +4.963440E+00     +3.479920E+00 +1.666229E+00 +5.212799E+00     +4.487301E+00 +1.771249E+00 +4.998571E+00     +4.487301E+00 +1.771249E+00 +4.998571E+00     +4.487301E+00 +1.771249E+00 +4.998571E+00     +4.487301E+00 +1.771249E+00 +4.998571E+00     +4.487301E+00 +1.771249E+00 +4.998571E+00     +4.487301E+00 +1.771249E+00 +4.998571E+00     +4.225140E+00 +1.382261E+00 +3.163409E+00     +4.225140E+00 +1.382261E+00 +3.163409E+00     +4.225140E+00 +1.382261E+00 +3.163409E+00    
 +4.225140E+00 +1.382261E+00 +3.163409E+00     +5.138010E+00 +1.343350E+00 +1.951891E+00     +3.156707E-01 +1.393139E+00 +1.170060E+00     +3.156707E-01 +1.393139E+00 +1.170060E+00     +3.156707E-01 +1.393139E+00 +1.170060E+00     +3.156707E-01 +1.393139E+00 +1.170060E+00     +3.156707E-01 +1.393139E+00 +1.170060E+00     +3.156707E-01 +1.393139E+00 +1.170060E+00     +3.156707E-01 +1.393139E+00 +1.170060E+00     +3.156707E-01 +1.393139E+00 +1.170060E+00     +3.479920E+00 +1.666229E+00 +5.212799E+00     +5.858500E+00 +2.491110E+00 +6.200010E+00     +5.858500E+00 +2.491110E+00 +6.200010E+00     +5.858500E+00 +2.491110E+00 +6.200010E+00     +4.487301E+00 +1.771249E+00 +4.998571E+00     +4.487301E+00 +1.771249E+00 +4.998571E+00     +4.487301E+00 +1.771249E+00 +4.998571E+00     +4.225140E+00 +1.382261E+00 +3.163409E+00     +4.225140E+00 +1.382261E+00 +3.163409E+00     +4.225140E+00 +1.382261E+00 +3.163409E+00     +4.225140E+00 +1.382261E+00 +3.163409E+00    
 +4.225140E+00 +1.382261E+00 +3.163409E+00     +5.404499E+00 +4.255567E-01 +5.017801E+00     +3.156707E-01 +1.393139E+00 +1.170060E+00     +3.156707E-01 +1.393139E+00 +1.170060E+00     +3.156707E-01 +1.393139E+00 +1.170060E+00     +3.156707E-01 +1.393139E+00 +1.170060E+00     +3.156707E-01 +1.393139E+00 +1.170060E+00     +3.156707E-01 +1.393139E+00 +1.170060E+00     +3.156707E-01 +1.393139E+00 +1.170060E+00     +3.156707E-01 +1.393139E+00 +1.170060E+00     +5.858500E+00 +2.491110E+00 +6.200010E+00     +5.858500E+00 +2.491110E+00 +6.200010E+00     +5.858500E+00 +2.491110E+00 +6.200010E+00     +5.858500E+00 +2.491110E+00 +6.200010E+00     +5.858500E+00 +2.491110E+00 +6.200010E+00     +2.135199E+00 +1.930481E+00 +3.795630E+00     +2.135199E+00 +1.930481E+00 +3.795630E+00     +4.225140E+00 +1.382261E+00 +3.163409E+00     +4.225140E+00 +1.382261E+00 +3.163409E+00     +4.225140E+00 +1.382261E+00 +3.163409E+00     +4.225140E+00 +1.382261E+00 +3.163409E+00    
 +4.225140E+00 +1.382261E+00 +3.163409E+00     +5.404499E+00 +4.255567E-01 +5.017801E+00     +5.404499E+00 +4.255567E-01 +5.017801E+00     +3.156707E-01 +1.393139E+00 +1.170060E+00     +3.156707E-01 +1.393139E+00 +1.170060E+00     +3.156707E-01 +1.393139E+00 +1.170060E+00     +3.156707E-01 +1.393139E+00 +1.170060E+00     +3.156707E-01 +1.393139E+00 +1.170060E+00     +3.156707E-01 +1.393139E+00 +1.170060E+00     +3.156707E-01 +1.393139E+00 +1.170060E+00     +5.858500E+00 +2.491110E+00 +6.200010E+00     +5.858500E+00 +2.491110E+00 +6.200010E+00     +5.858500E+00 +2.491110E+00 +6.200010E+00     +5.858500E+00 +2.491110E+00 +6.200010E+00     +5.858500E+00 +2.491110E+00 +6.200010E+00     +2.135199E+00 +1.930481E+00 +3.795630E+00     +2.135199E+00 +1.930481E+00 +3.795630E+00     +4.225140E+00 +1.382261E+00 +3.163409E+00     +4.225140E+00 +1.382261E+00 +3.163409E+00     +4.225140E+00 +1.382261E+00 +3.163409E+00     +4.225140E+00 +1.382261E+00 +3.163409E+00    
 +4.225140E+00 +1.382261E+00 +3.163409E+00     +5.404499E+00 +4.255567E-01 +5.017801E+00     +3.156707E-01 +1.393139E+00 +1.170060E+00     +3.156707E-01 +1.393139E+00 +1.170060E+00     +3.156707E-01 +1.393139E+00 +1.170060E+00     +3.156707E-01 +1.393139E+00 +1.170060E+00     +3.156707E-01 +1.393139E+00 +1.170060E+00     +3.156707E-01 +1.393139E+00 +1.170060E+00     +3.156707E-01 +1.393139E+00 +1.170060E+00     +5.858500E+00 +2.491110E+00 +6.200010E+00     +5.858500E+00 +2.491110E+00 +6.200010E+00     +5.858500E+00 +2.491110E+00 +6.200010E+00     +5.858500E+00 +2.491110E+00 +6.200010E+00     +5.858500E+00 +2.491110E+00 +6.200010E+00     +5.858500E+00 +2.491110E+00 +6.200010E+00     +5.858500E+00 +2.491110E+00 +6.200010E+00     +5.858500E+00 +2.491110E+00 +6.200010E+00     +4.225140E+00 +1.382261E+00 +3.163409E+00     +4.225140E+00 +1.382261E+00 +3.163409E+00     +4.225140E+00 +1.382261E+00 +3.163409E+00     +4.225140E+00 +1.382261E+00 +3.163409E+00    
 +4.225140E+00 +1.382261E+00 +3.163409E+00     +4.621510E+00 +6.203145E-01 +2.231161E+00     +4.621510E+00 +6.203145E-01 +2.231161E+00     +3.156707E-01 +1.393139E+00 +1.170060E+00     +3.156707E-01 +1.393139E+00 +1.170060E+00     +6.023323E-01 +1.946630E+00 +2.772860E+00     +3.156707E-01 +1.393139E+00 +1.170060E+00     +3.156707E-01 +1.393139E+00 +1.170060E+00     +3.156707E-01 +1.393139E+00 +1.170060E+00     +5.858500E+00 +2.491110E+00 +6.200010E+00     +5.858500E+00 +2.491110E+00 +6.200010E+00     +5.858500E+00 +2.491110E+00 +6.200010E+00     +5.858500E+00 +2.491110E+00 +6.200010E+00     +5.858500E+00 +2.491110E+00 +6.200010E+00     +5.858500E+00 +2.491110E+00 +6.200010E+00     +5.858500E+00 +2.491110E+00 +6.200010E+00     +5.858500E+00 +2.491110E+00 +6.200010E+00     +4.225140E+00 +1.382261E+00 +3.163409E+00     +4.225140E+00 +1.382261E+00 +3.163409E+00     +4.225140E+00 +1.382261E+00 +3.163409E+00     +4.225140E+00 +1.382261E+00 +3.163409E+00    
 +2.061770E+00 +1.152230E+00 +5.173899E+00     +2.061770E+00 +1.152230E+00 +5.173899E+00     +2.061770E+00 +1.152230E+00 +5.173899E+00     +3.156707E-01 +1.393139E+00 +1.170060E+00     +3.156707E-01 +1.393139E+00 +1.170060E+00     +6.023323E-01 +1.946630E+00 +2.772860E+00     +6.023323E-01 +1.946630E+00 +2.772860E+00     +3.156707E-01 +1.393139E+00 +1.170060E+00     +3.156707E-01 +1.393139E+00 +1.170060E+00     +5.858500E+00 +2.491110E+00 +6.200010E+00     +5.858500E+00 +2.491110E+00 +6.200010E+00     +5.858500E+00 +2.491110E+00 +6.200010E+00     +5.858500E+00 +2.491110E+00 +6.200010E+00     +5.858500E+00 +2.491110E+00 +6.200010E+00     +5.858500E+00 +2.491110E+00 +6.200010E+00     +5.858500E+00 +2.491110E+00 +6.200010E+00     +5.858500E+00 +2.491110E+00 +6.200010E+00     +3.076860E+00 +1.928310E+00 +4.824630E+00     +4.092329E+00 +1.967230E+00 +5.843849E+00     +4.092329E+00 +1.967230E+00 +5.843849E+00     +4.092329E+00 +1.967230E+00 +5.843849E+00    
 +2.061770E+00 +1.152230E+00 +5.173899E+00     +2.061770E+00 +1.152230E+00 +5.173899E+00     +2.061770E+00 +1.152230E+00 +5.173899E+00     +2.061770E+00 +1.152230E+00 +5.173899E+00     +6.023323E-01 +1.946630E+00 +2.772860E+00     +6.023323E-01 +1.946630E+00 +2.772860E+00     +6.023323E-01 +1.946630E+00 +2.772860E+00     +5.400150E+00 +1.024931E+00 +1.593920E+00     +5.400150E+00 +1.024931E+00 +1.593920E+00     +3.382630E+00 +2.983171E+00 +5.703999E+00     +3.382630E+00 +2.983171E+00 +5.703999E+00     +5.858500E+00 +2.491110E+00 +6.200010E+00     +5.858500E+00 +2.491110E+00 +6.200010E+00     +5.858500E+00 +2.491110E+00 +6.200010E+00     +5.858500E+00 +2.491110E+00 +6.200010E+00     +3.911690E+00 +2.064901E+00 +5.572710E+00     +3.911690E+00 +2.064901E+00 +5.572710E+00     +3.076860E+00 +1.928310E+00 +4.824630E+00     +4.092329E+00 +1.967230E+00 +5.843849E+00     +4.092329E+00 +1.967230E+00 +5.843849E+00     +4.092329E+00 +1.967230E+00 +5.843849E+00    
 +2.061770E+00 +1.152230E+00 +5.173899E+00     +2.061770E+00 +1.152230E+00 +5.173899E+00     +2.061770E+00 +1.152230E+00 +5.173899E+00     +2.061770E+00 +1.152230E+00 +5.173899E+00     +2.061770E+00 +1.152230E+00 +5.173899E+00     +6.023323E-01 +1.946630E+00 +2.772860E+00     +5.400150E+00 +1.024931E+00 +1.593920E+00     +5.400150E+00 +1.024931E+00 +1.593920E+00     +5.400150E+00 +1.024931E+00 +1.593920E+00     +5.174140E+00 +1.968820E+00 +8.447324E-01     +3.382630E+00 +2.983171E+00 +5.703999E+00     +3.382630E+00 +2.983171E+00 +5.703999E+00     +3.008780E+00 +6.545491E-01 +1.219811E+00     +3.008780E+00 +6.545491E-01 +1.219811E+00     +3.008780E+00 +6.545491E-01 +1.219811E+00     +3.911690E+00 +2.064901E+00 +5.572710E+00     +3.911690E+00 +2.064901E+00 +5.572710E+00     +3.076860E+00 +1.928310E+00 +4.824630E+00     +4.284520E+00 +1.543060E+00 +3.243520E+00     +4.092329E+00 +1.967230E+00 +5.843849E+00     +4.092329E+00 +1.967230E+00 +5.843849E+00    
 +2.061770E+00 +1.152230E+00 +5.173899E+00     +2.061770E+00 +1.152230E+00 +5.173899E+00     +2.061770E+00 +1.152230E+00 +5.173899E+00     +2.061770E+00 +1.152230E+00 +5.173899E+00     +2.061770E+00 +1.152230E+00 +5.173899E+00     +5.400150E+00 +1.024931E+00 +1.593920E+00     +5.400150E+00 +1.024931E+00 +1.593920E+00     +5.400150E+00 +1.024931E+00 +1.593920E+00     +5.174140E+00 +1.968820E+00 +8.447324E-01     +5.174140E+00 +1.968820E+00 +8.447324E-01     +5.174140E+00 +1.968820E+00 +8.447324E-01     +3.382630E+00 +2.983171E+00 +5.703999E+00     +3.008780E+00 +6.545491E-01 +1.219811E+00     +3.008780E+00 +6.545491E-01 +1.219811E+00     +3.008780E+00 +6.545491E-01 +1.219811E+00     +3.911690E+00 +2.064901E+00 +5.572710E+00     +3.911690E+00 +2.064901E+00 +5.572710E+00     +4.284520E+00 +1.543060E+00 +3.243520E+00     +4.284520E+00 +1.543060E+00 +3.243520E+00     +4.284520E+00 +1.543060E+00 +3.243520E+00     +4.092329E+00 +1.967230E+00 +5.843849E+00    
 +2.061770E+00 +1.152230E+00 +5.173899E+00     +2.061770E+00 +1.152230E+00 +5.173899E+00     +2.061770E+00 +1.152230E+00 +5.173899E+00     +2.061770E+00 +1.152230E+00 +5.173899E+00     +2.061770E+00 +1.152230E+00 +5.173899E+00     +5.400150E+00 +1.024931E+00 +1.593920E+00     +5.400150E+00 +1.024931E+00 +1.593920E+00     +5.400150E+00 +1.024931E+00 +1.593920E+00     +5.400150E+00 +1.024931E+00 +1.593920E+00     +5.174140E+00 +1.968820E+00 +8.447324E-01     +5.400150E+00 +1.024931E+00 +1.593920E+00     +3.008780E+00 +6.545491E-01 +1.219811E+00     +3.008780E+00 +6.545491E-01 +1.219811E+00     +3.008780E+00 +6.545491E-01 +1.219811E+00     +3.008780E+00 +6.545491E-01 +1.219811E+00     +3.008780E+00 +6.545491E-01 +1.219811E+00     +3.008780E+00 +6.545491E-01 +1.219811E+00     +4.284520E+00 +1.543060E+00 +3.243520E+00     +4.284520E+00 +1.543060E+00 +3.243520E+00     +3.158290E+00 +9.270875E-01 +4.146730E+00     +3.158290E+00 +9.270875E-01 +4.146730E+00    
 +3.158290E+00 +9.270875E-01 +4.146730E+00     +7.546524E-01 +1.219079E+00 +3.888690E+00     +3.930640E+00 +1.465029E+00 +3.238450E+00     +3.930640E+00 +1.465029E+00 +3.238450E+00     +4.602379E+00 +5.372560E-01 +2.793579E+00     +4.602379E+00 +5.372560E-01 +2.793579E+00     +4.602379E+00 +5.372560E-01 +2.793579E+00     +1.105329E+00 +2.658210E+00 +3.355570E+00     +5.400150E+00 +1.024931E+00 +1.593920E+00     +5.400150E+00 +1.024931E+00 +1.593920E+00     +1.603130E+00 +9.864147E-01 +5.636260E+00     +1.603130E+00 +9.864147E-01 +5.636260E+00     +1.603130E+00 +9.864147E-01 +5.636260E+00     +4.957660E-01 +1.701850E+00 +2.498352E-01     +4.957660E-01 +1.701850E+00 +2.498352E-01     +4.957660E-01 +1.701850E+00 +2.498352E-01     +4.957660E-01 +1.701850E+00 +2.498352E-01     +1.386111E+00 +2.577029E+00 +3.175319E+00     +3.158290E+00 +9.270875E-01 +4.146730E+00     +3.158290E+00 +9.270875E-01 +4.146730E+00     +3.158290E+00 +9.270875E-01 +4.146730E+00    
 +7.546524E-01 +1.219079E+00 +3.888690E+00     +3.930640E+00 +1.465029E+00 +3.238450E+00     +3.930640E+00 +1.465029E+00 +3.238450E+00     +3.930640E+00 +1.465029E+00 +3.238450E+00     +4.602379E+00 +5.372560E-01 +2.793579E+00     +4.602379E+00 +5.372560E-01 +2.793579E+00     +4.602379E+00 +5.372560E-01 +2.793579E+00     +1.105329E+00 +2.658210E+00 +3.355570E+00     +5.525491E+00 +1.605509E+00 +1.080820E+00     +5.525491E+00 +1.605509E+00 +1.080820E+00     +1.603130E+00 +9.864147E-01 +5.636260E+00     +1.603130E+00 +9.864147E-01 +5.636260E+00     +1.603130E+00 +9.864147E-01 +5.636260E+00     +4.957660E-01 +1.701850E+00 +2.498352E-01     +4.957660E-01 +1.701850E+00 +2.498352E-01     +4.957660E-01 +1.701850E+00 +2.498352E-01     +4.957660E-01 +1.701850E+00 +2.498352E-01     +1.386111E+00 +2.577029E+00 +3.175319E+00     +1.965630E+00 +2.237580E+00 +1.848070E+00     +3.158290E+00 +9.270875E-01 +4.146730E+00     +3.158290E+00 +9.270875E-01 +4.146730E+00    
 +7.546524E-01 +1.219079E+00 +3.888690E+00     +7.546524E-01 +1.219079E+00 +3.888690E+00     +3.930640E+00 +1.465029E+00 +3.238450E+00     +4.602379E+00 +5.372560E-01 +2.793579E+00     +4.602379E+00 +5.372560E-01 +2.793579E+00     +4.602379E+00 +5.372560E-01 +2.793579E+00     +4.602379E+00 +5.372560E-01 +2.793579E+00     +4.602379E+00 +5.372560E-01 +2.793579E+00     +5.525491E+00 +1.605509E+00 +1.080820E+00     +5.525491E+00 +1.605509E+00 +1.080820E+00     +1.603130E+00 +9.864147E-01 +5.636260E+00     +1.603130E+00 +9.864147E-01 +5.636260E+00     +1.603130E+00 +9.864147E-01 +5.636260E+00     +4.957660E-01 +1.701850E+00 +2.498352E-01     +4.957660E-01 +1.701850E+00 +2.498352E-01     +4.957660E-01 +1.701850E+00 +2.498352E-01     +4.957660E-01 +1.701850E+00 +2.498352E-01     +4.957660E-01 +1.701850E+00 +2.498352E-01     +1.965630E+00 +2.237580E+00 +1.848070E+00     +1.965630E+00 +2.237580E+00 +1.848070E+00     +1.965630E+00 +2.237580E+00 +1.848070E+00    
 +5.138010E+00 +1.343350E+00 +1.951891E+00     +4.523970E+00 +2.179550E+00 +2.367365E-02     +4.602379E+00 +5.372560E-01 +2.793579E+00     +4.602379E+00 +5.372560E-01 +2.793579E+00     +4.602379E+00 +5.372560E-01 +2.793579E+00     +4.602379E+00 +5.372560E-01 +2.793579E+00     +4.602379E+00 +5.372560E-01 +2.793579E+00     +4.602379E+00 +5.372560E-01 +2.793579E+00     +3.410539E+00 +9.633903E-01 +6.286885E-01     +3.410539E+00 +9.633903E-01 +6.286885E-01     +3.410539E+00 +9.633903E-01 +6.286885E-01     +4.957660E-01 +1.701850E+00 +2.498352E-01     +4.957660E-01 +1.701850E+00 +2.498352E-01     +4.957660E-01 +1.701850E+00 +2.498352E-01     +4.957660E-01 +1.701850E+00 +2.498352E-01     +4.957660E-01 +1.701850E+00 +2.498352E-01     +4.957660E-01 +1.701850E+00 +2.498352E-01     +4.957660E-01 +1.701850E+00 +2.498352E-01     +1.965630E+00 +2.237580E+00 +1.848070E+00     +1.965630E+00 +2.237580E+00 +1.848070E+00     +1.965630E+00 +2.237580E+00 +1.848070E+00    
 +5.138010E+00 +1.343350E+00 +1.951891E+00     +5.138010E+00 +1.343350E+00 +1.951891E+00     +5.138010E+00 +1.343350E+00 +1.951891E+00     +4.602379E+00 +5.372560E-01 +2.793579E+00     +4.602379E+00 +5.372560E-01 +2.793579E+00     +4.602379E+00 +5.372560E-01 +2.793579E+00     +4.602379E+00 +5.372560E-01 +2.793579E+00     +3.410539E+00 +9.633903E-01 +6.286885E-01     +3.410539E+00 +9.633903E-01 +6.286885E-01     +3.410539E+00 +9.633903E-01 +6.286885E-01     +3.410539E+00 +9.633903E-01 +6.286885E-01     +4.957660E-01 +1.701850E+00 +2.498352E-01     +4.957660E-01 +1.701850E+00 +2.498352E-01     +4.957660E-01 +1.701850E+00 +2.498352E-01     +4.957660E-01 +1.701850E+00 +2.498352E-01     +4.957660E-01 +1.701850E+00 +2.498352E-01     +4.957660E-01 +1.701850E+00 +2.498352E-01     +4.957660E-01 +1.701850E+00 +2.498352E-01     +3.868631E+00 +2.330819E+00 +3.753090E+00     +3.868631E+00 +2.330819E+00 +3.753090E+00     +5.138010E+00 +1.343350E+00 +1.951891E+00    
 +5.138010E+00 +1.343350E+00 +1.951891E+00     +5.138010E+00 +1.343350E+00 +1.951891E+00     +5.138010E+00 +1.343350E+00 +1.951891E+00     +5.138010E+00 +1.343350E+00 +1.951891E+00     +4.602379E+00 +5.372560E-01 +2.793579E+00     +4.602379E+00 +5.372560E-01 +2.793579E+00     +4.602379E+00 +5.372560E-01 +2.793579E+00     +3.410539E+00 +9.633903E-01 +6.286885E-01     +3.410539E+00 +9.633903E-01 +6.286885E-01     +3.410539E+00 +9.633903E-01 +6.286885E-01     +3.410539E+00 +9.633903E-01 +6.286885E-01     +3.410539E+00 +9.633903E-01 +6.286885E-01     +4.957660E-01 +1.701850E+00 +2.498352E-01     +4.957660E-01 +1.701850E+00 +2.498352E-01     +4.957660E-01 +1.701850E+00 +2.498352E-01     +4.957660E-01 +1.701850E+00 +2.498352E-01     +3.868631E+00 +2.330819E+00 +3.753090E+00     +3.868631E+00 +2.330819E+00 +3.753090E+00     +3.868631E+00 +2.330819E+00 +3.753090E+00     +3.868631E+00 +2.330819E+00 +3.753090E+00     +5.138010E+00 +1.343350E+00 +1.951891E+00    
 +5.138010E+00 +1.343350E+00 +1.951891E+00     +5.138010E+00 +1.343350E+00 +1.951891E+00     +5.138010E+00 +1.343350E+00 +1.951891E+00     +5.138010E+00 +1.343350E+00 +1.951891E+00     +5.138010E+00 +1.343350E+00 +1.951891E+00     +4.840150E+00 +1.948020E+00 +4.511090E+00     +4.840150E+00 +1.948020E+00 +4.511090E+00     +4.840150E+00 +1.948020E+00 +4.511090E+00     +3.410539E+00 +9.633903E-01 +6.286885E-01     +3.410539E+00 +9.633903E-01 +6.286885E-01     +3.410539E+00 +9.633903E-01 +6.286885E-01     +3.410539E+00 +9.633903E-01 +6.286885E-01     +4.957660E-01 +1.701850E+00 +2.498352E-01     +4.957660E-01 +1.701850E+00 +2.498352E-01     +4.487301E+00 +1.771249E+00 +4.998571E+00     +4.487301E+00 +1.771249E+00 +4.998571E+00     +3.868631E+00 +2.330819E+00 +3.753090E+00     +3.868631E+00 +2.330819E+00 +3.753090E+00     +3.868631E+00 +2.330819E+00 +3.753090E+00     +3.868631E+00 +2.330819E+00 +3.753090E+00     +5.138010E+00 +1.343350E+00 +1.951891E+00    
 +5.138010E+00 +1.343350E+00 +1.951891E+00     +5.138010E+00 +1.343350E+00 +1.951891E+00     +5.138010E+00 +1.343350E+00 +1.951891E+00     +5.138010E+00 +1.343350E+00 +1.951891E+00     +5.138010E+00 +1.343350E+00 +1.951891E+00     +4.840150E+00 +1.948020E+00 +4.511090E+00     +4.840150E+00 +1.948020E+00 +4.511090E+00     +5.042152E-01 +1.365830E+00 +4.160519E+00     +5.042152E-01 +1.365830E+00 +4.160519E+00     +3.410539E+00 +9.633903E-01 +6.286885E-01     +3.410539E+00 +9.633903E-01 +6.286885E-01     +3.410539E+00 +9.633903E-01 +6.286885E-01     +4.487301E+00 +1.771249E+00 +4.998571E+00     +4.487301E+00 +1.771249E+00 +4.998571E+00     +4.487301E+00 +1.771249E+00 +4.998571E+00     +4.487301E+00 +1.771249E+00 +4.998571E+00     +3.868631E+00 +2.330819E+00 +3.753090E+00     +3.868631E+00 +2.330819E+00 +3.753090E+00     +3.868631E+00 +2.330819E+00 +3.753090E+00     +3.868631E+00 +2.330819E+00 +3.753090E+00     +5.138010E+00 +1.343350E+00 +1.951891E+00    
 +5.138010E+00 +1.343350E+00 +1.951891E+00     +5.138010E+00 +1.343350E+00 +1.951891E+00     +5.138010E+00 +1.343350E+00 +1.951891E+00     +5.138010E+00 +1.343350E+00 +1.951891E+00     +5.138010E+00 +1.343350E+00 +1.951891E+00     +4.840150E+00 +1.948020E+00 +4.511090E+00     +4.840150E+00 +1.948020E+00 +4.511090E+00     +4.840150E+00 +1.948020E+00 +4.511090E+00     +4.840150E+00 +1.948020E+00 +4.511090E+00     +4.840150E+00 +1.948020E+00 +4.511090E+00     +4.840150E+00 +1.948020E+00 +4.511090E+00     +4.487301E+00 +1.771249E+00 +4.998571E+00     +4.487301E+00 +1.771249E+00 +4.998571E+00     +4.487301E+00 +1.771249E+00 +4.998571E+00     +4.487301E+00 +1.771249E+00 +4.998571E+00     +4.487301E+00 +1.771249E+00 +4.998571E+00     +4.487301E+00 +1.771249E+00 +4.998571E+00     +3.868631E+00 +2.330819E+00 +3.753090E+00     +3.868631E+00 +2.330819E+00 +3.753090E+00     +3.868631E+00 +2.330819E+00 +3.753090E+00     +5.138010E+00 +1.343350E+00 +1.951891E+00    
 +5.138010E+00 +1.343350E+00 +1.951891E+00     +5.138010E+00 +1.343350E+00 +1.951891E+00     +5.138010E+00 +1.343350E+00 +1.951891E+00     +5.138010E+00 +1.343350E+00 +1.951891E+00     +5.138010E+00 +1.343350E+00 +1.951891E+00     +1.585410E+00 +1.724919E+00 +3.745440E+00     +1.585410E+00 +1.724919E+00 +3.745440E+00     +1.585410E+00 +1.724919E+00 +3.745440E+00     +1.585410E+00 +1.724919E+00 +3.745440E+00     +1.585410E+00 +1.724919E+00 +3.745440E+00     +1.585410E+00 +1.724919E+00 +3.745440E+00     +4.487301E+00 +1.771249E+00 +4.998571E+00     +4.487301E+00 +1.771249E+00 +4.998571E+00     +4.487301E+00 +1.771249E+00 +4.998571E+00     +4.487301E+00 +1.771249E+00 +4.998571E+00     +3.029000E+00 +2.128930E+00 +4.462269E+00     +4.487301E+00 +1.771249E+00 +4.998571E+00     +4.487301E+00 +1.771249E+00 +4.998571E+00     +3.868631E+00 +2.330819E+00 +3.753090E+00     +3.868631E+00 +2.330819E+00 +3.753090E+00     +5.138010E+00 +1.343350E+00 +1.951891E+00    
 +5.138010E+00 +1.343350E+00 +1.951891E+00     +5.138010E+00 +1.343350E+00 +1.951891E+00     +5.138010E+00 +1.343350E+00 +1.951891E+00     +5.138010E+00 +1.343350E+00 +1.951891E+00     +3.156707E-01 +1.393139E+00 +1.170060E+00     +3.156707E-01 +1.393139E+00 +1.170060E+00     +1.585410E+00 +1.724919E+00 +3.745440E+00     +1.585410E+00 +1.724919E+00 +3.745440E+00     +1.585410E+00 +1.724919E+00 +3.745440E+00     +1.585410E+00 +1.724919E+00 +3.745440E+00     +3.479920E+00 +1.666229E+00 +5.212799E+00     +3.479920E+00 +1.666229E+00 +5.212799E+00     +3.479920E+00 +1.666229E+00 +5.212799E+00     +4.487301E+00 +1.771249E+00 +4.998571E+00     +4.487301E+00 +1.771249E+00 +4.998571E+00     +4.487301E+00 +1.771249E+00 +4.998571E+00     +4.487301E+00 +1.771249E+00 +4.998571E+00     +4.487301E+00 +1.771249E+00 +4.998571E+00     +4.225140E+00 +1.382261E+00 +3.163409E+00     +4.225140E+00 +1.382261E+00 +3.163409E+00     +4.225140E+00 +1.382261E+00 +3.163409E+00    
 +4.225140E+00 +1.382261E+00 +3.163409E+00     +4.225140E+00 +1.382261E+00 +3.163409E+00     +5.138010E+00 +1.343350E+00 +1.951891E+00     +3.156707E-01 +1.393139E+00 +1.170060E+00     +3.156707E-01 +1.393139E+00 +1.170060E+00     +3.156707E-01 +1.393139E+00 +1.170060E+00     +3.156707E-01 +1.393139E+00 +1.170060E+00     +3.156707E-01 +1.393139E+00 +1.170060E+00     +3.156707E-01 +1.393139E+00 +1.170060E+00     +3.479920E+00 +1.666229E+00 +5.212799E+00     +3.479920E+00 +1.666229E+00 +5.212799E+00     +3.479920E+00 +1.666229E+00 +5.212799E+00     +3.479920E+00 +1.666229E+00 +5.212799E+00     +3.479920E+00 +1.666229E+00 +5.212799E+00     +4.487301E+00 +1.771249E+00 +4.998571E+00     +4.487301E+00 +1.771249E+00 +4.998571E+00     +6.061860E+00 +1.336090E+00 +1.274289E+00     +6.061860E+00 +1.336090E+00 +1.274289E+00     +4.225140E+00 +1.382261E+00 +3.163409E+00     +4.225140E+00 +1.382261E+00 +3.163409E+00     +4.225140E+00 +1.382261E+00 +3.163409E+00    
 +4.225140E+00 +1.382261E+00 +3.163409E+00     +4.225140E+00 +1.382261E+00 +3.163409E+00     +4.225140E+00 +1.382261E+00 +3.163409E+00     +3.156707E-01 +1.393139E+00 +1.170060E+00     +3.156707E-01 +1.393139E+00 +1.170060E+00     +3.156707E-01 +1.393139E+00 +1.170060E+00     +3.156707E-01 +1.393139E+00 +1.170060E+00     +3.156707E-01 +1.393139E+00 +1.170060E+00     +3.156707E-01 +1.393139E+00 +1.170060E+00     +3.479920E+00 +1.666229E+00 +5.212799E+00     +3.479920E+00 +1.666229E+00 +5.212799E+00     +3.479920E+00 +1.666229E+00 +5.212799E+00     +3.479920E+00 +1.666229E+00 +5.212799E+00     +3.479920E+00 +1.666229E+00 +5.212799E+00     +5.858500E+00 +2.491110E+00 +6.200010E+00     +4.465460E+00 +1.407840E+00 +3.380230E+00     +4.465460E+00 +1.407840E+00 +3.380230E+00     +6.061860E+00 +1.336090E+00 +1.274289E+00     +4.225140E+00 +1.382261E+00 +3.163409E+00     +4.225140E+00 +1.382261E+00 +3.163409E+00     +4.225140E+00 +1.382261E+00 +3.163409E+00    
 +4.225140E+00 +1.382261E+00 +3.163409E+00     +4.225140E+00 +1.382261E+00 +3.163409E+00     +4.225140E+00 +1.382261E+00 +3.163409E+00     +3.156707E-01 +1.393139E+00 +1.170060E+00     +3.156707E-01 +1.393139E+00 +1.170060E+00     +3.156707E-01 +1.393139E+00 +1.170060E+00     +3.156707E-01 +1.393139E+00 +1.170060E+00     +3.156707E-01 +1.393139E+00 +1.170060E+00     +3.156707E-01 +1.393139E+00 +1.170060E+00     +3.156707E-01 +1.393139E+00 +1.170060E+00     +5.858500E+00 +2.491110E+00 +6.200010E+00     +5.858500E+00 +2.491110E+00 +6.200010E+00     +5.858500E+00 +2.491110E+00 +6.200010E+00     +5.858500E+00 +2.491110E+00 +6.200010E+00     +5.858500E+00 +2.491110E+00 +6.200010E+00     +3.846859E+00 +1.844750E+00 +1.032779E+00     +4.465460E+00 +1.407840E+00 +3.380230E+00     +4.465460E+00 +1.407840E+00 +3.380230E+00     +4.225140E+00 +1.382261E+00 +3.163409E+00     +4.225140E+00 +1.382261E+00 +3.163409E+00     +4.225140E+00 +1.382261E+00 +3.163409E+00    
 +4.225140E+00 +1.382261E+00 +3.163409E+00     +4.225140E+00 +1.382261E+00 +3.163409E+00     +3.156707E-01 +1.393139E+00 +1.170060E+00     +3.156707E-01 +1.393139E+00 +1.170060E+00     +3.156707E-01 +1.393139E+00 +1.170060E+00     +6.023323E-01 +1.946630E+00 +2.772860E+00     +3.156707E-01 +1.393139E+00 +1.170060E+00     +3.156707E-01 +1.393139E+00 +1.170060E+00     +3.156707E-01 +1.393139E+00 +1.170060E+00     +5.858500E+00 +2.491110E+00 +6.200010E+00     +5.858500E+00 +2.491110E+00 +6.200010E+00     +5.858500E+00 +2.491110E+00 +6.200010E+00     +4.054313E-01 +1.877370E+00 +2.888710E+00     +4.054313E-01 +1.877370E+00 +2.888710E+00     +4.054313E-01 +1.877370E+00 +2.888710E+00     +4.465460E+00 +1.407840E+00 +3.380230E+00     +4.465460E+00 +1.407840E+00 +3.380230E+00     +4.465460E+00 +1.407840E+00 +3.380230E+00     +4.225140E+00 +1.382261E+00 +3.163409E+00     +4.225140E+00 +1.382261E+00 +3.163409E+00     +4.225140E+00 +1.382261E+00 +3.163409E+00    
 +4.225140E+00 +1.382261E+00 +3.163409E+00     +4.621510E+00 +6.203145E-01 +2.231161E+00     +4.621510E+00 +6.203145E-01 +2.231161E+00     +3.156707E-01 +1.393139E+00 +1.170060E+00     +6.023323E-01 +1.946630E+00 +2.772860E+00     +6.023323E-01 +1.946630E+00 +2.772860E+00     +6.023323E-01 +1.946630E+00 +2.772860E+00     +3.156707E-01 +1.393139E+00 +1.170060E+00     +3.156707E-01 +1.393139E+00 +1.170060E+00     +3.382630E+00 +2.983171E+00 +5.703999E+00     +3.382630E+00 +2.983171E+00 +5.703999E+00     +5.858500E+00 +2.491110E+00 +6.200010E+00     +4.054313E-01 +1.877370E+00 +2.888710E+00     +4.054313E-01 +1.877370E+00 +2.888710E+00     +4.054313E-01 +1.877370E+00 +2.888710E+00     +5.858500E+00 +2.491110E+00 +6.200010E+00     +4.465460E+00 +1.407840E+00 +3.380230E+00     +4.465460E+00 +1.407840E+00 +3.380230E+00     +4.225140E+00 +1.382261E+00 +3.163409E+00     +4.225140E+00 +1.382261E+00 +3.163409E+00     +4.225140E+00 +1.382261E+00 +3.163409E+00    
 +2.061770E+00 +1.152230E+00 +5.173899E+00     +2.061770E+00 +1.152230E+00 +5.173899E+00     +2.061770E+00 +1.152230E+00 +5.173899E+00     +6.023323E-01 +1.946630E+00 +2.772860E+00     +6.023323E-01 +1.946630E+00 +2.772860E+00     +6.023323E-01 +1.946630E+00 +2.772860E+00     +6.023323E-01 +1.946630E+00 +2.772860E+00     +6.023323E-01 +1.946630E+00 +2.772860E+00     +3.382630E+00 +2.983171E+00 +5.703999E+00     +3.382630E+00 +2.983171E+00 +5.703999E+00     +3.382630E+00 +2.983171E+00 +5.703999E+00     +3.382630E+00 +2.983171E+00 +5.703999E+00     +4.054313E-01 +1.877370E+00 +2.888710E+00     +4.054313E-01 +1.877370E+00 +2.888710E+00     +4.054313E-01 +1.877370E+00 +2.888710E+00     +5.858500E+00 +2.491110E+00 +6.200010E+00     +5.858500E+00 +2.491110E+00 +6.200010E+00     +4.465460E+00 +1.407840E+00 +3.380230E+00     +4.225140E+00 +1.382261E+00 +3.163409E+00     +4.225140E+00 +1.382261E+00 +3.163409E+00     +4.225140E+00 +1.382261E+00 +3.163409E+00    
 +2.061770E+00 +1.152230E+00 +5.173899E+00     +2.061770E+00 +1.152230E+00 +5.173899E+00     +2.061770E+00 +1.152230E+00 +5.173899E+00     +2.061770E+00 +1.152230E+00 +5.173899E+00     +6.023323E-01 +1.946630E+00 +2.772860E+00     +6.023323E-01 +1.946630E+00 +2.772860E+00     +6.023323E-01 +1.946630E+00 +2.772860E+00     +5.400150E+00 +1.024931E+00 +1.593920E+00     +5.400150E+00 +1.024931E+00 +1.593920E+00     +3.382630E+00 +2.983171E+00 +5.703999E+00     +3.382630E+00 +2.983171E+00 +5.703999E+00     +3.382630E+00 +2.983171E+00 +5.703999E+00     +3.382630E+00 +2.983171E+00 +5.703999E+00     +5.858500E+00 +2.491110E+00 +6.200010E+00     +5.858500E+00 +2.491110E+00 +6.200010E+00     +5.858500E+00 +2.491110E+00 +6.200010E+00     +3.911690E+00 +2.064901E+00 +5.572710E+00     +4.284520E+00 +1.543060E+00 +3.243520E+00     +4.284520E+00 +1.543060E+00 +3.243520E+00     +4.284520E+00 +1.543060E+00 +3.243520E+00     +4.284520E+00 +1.543060E+00 +3.243520E+00    
 +2.061770E+00 +1.152230E+00 +5.173899E+00     +2.061770E+00 +1.152230E+00 +5.173899E+00     +2.061770E+00 +1.152230E+00 +5.173899E+00     +2.061770E+00 +1.152230E+00 +5.173899E+00     +6.023323E-01 +1.946630E+00 +2.772860E+00     +6.023323E-01 +1.946630E+00 +2.772860E+00     +5.400150E+00 +1.024931E+00 +1.593920E+00     +5.400150E+00 +1.024931E+00 +1.593920E+00     +5.400150E+00 +1.024931E+00 +1.593920E+00     +5.174140E+00 +1.968820E+00 +8.447324E-01     +3.382630E+00 +2.983171E+00 +5.703999E+00     +3.382630E+00 +2.983171E+00 +5.703999E+00     +3.382630E+00 +2.983171E+00 +5.703999E+00     +3.382630E+00 +2.983171E+00 +5.703999E+00     +3.008780E+00 +6.545491E-01 +1.219811E+00     +3.911690E+00 +2.064901E+00 +5.572710E+00     +4.284520E+00 +1.543060E+00 +3.243520E+00     +4.284520E+00 +1.543060E+00 +3.243520E+00     +4.284520E+00 +1.543060E+00 +3.243520E+00     +4.284520E+00 +1.543060E+00 +3.243520E+00     +4.284520E+00 +1.543060E+00 +3.243520E+00    
 +3.158290E+00 +9.270875E-01 +4.146730E+00     +2.061770E+00 +1.152230E+00 +5.173899E+00     +2.061770E+00 +1.152230E+00 +5.173899E+00     +2.061770E+00 +1.152230E+00 +5.173899E+00     +6.023323E-01 +1.946630E+00 +2.772860E+00     +5.400150E+00 +1.024931E+00 +1.593920E+00     +5.400150E+00 +1.024931E+00 +1.593920E+00     +5.400150E+00 +1.024931E+00 +1.593920E+00     +5.174140E+00 +1.968820E+00 +8.447324E-01     +5.174140E+00 +1.968820E+00 +8.447324E-01     +5.174140E+00 +1.968820E+00 +8.447324E-01     +3.382630E+00 +2.983171E+00 +5.703999E+00     +3.382630E+00 +2.983171E+00 +5.703999E+00     +3.382630E+00 +2.983171E+00 +5.703999E+00     +3.008780E+00 +6.545491E-01 +1.219811E+00     +3.911690E+00 +2.064901E+00 +5.572710E+00     +4.284520E+00 +1.543060E+00 +3.243520E+00     +4.284520E+00 +1.543060E+00 +3.243520E+00     +4.284520E+00 +1.543060E+00 +3.243520E+00     +4.284520E+00 +1.543060E+00 +3.243520E+00     +4.284520E+00 +1.543060E+00 +3.243520E+00    
 +3.158290E+00 +9.270875E-01 +4.146730E+00     +3.158290E+00 +9.270875E-01 +4.146730E+00     +2.061770E+00 +1.152230E+00 +5.173899E+00     +2.322279E+00 +1.183578E-01 +5.142279E+00     +2.287620E-01 +8.959333E-01 +4.001450E+00     +5.400150E+00 +1.024931E+00 +1.593920E+00     +5.400150E+00 +1.024931E+00 +1.593920E+00     +5.400150E+00 +1.024931E+00 +1.593920E+00     +5.400150E+00 +1.024931E+00 +1.593920E+00     +5.174140E+00 +1.968820E+00 +8.447324E-01     +5.400150E+00 +1.024931E+00 +1.593920E+00     +5.400150E+00 +1.024931E+00 +1.593920E+00     +3.382630E+00 +2.983171E+00 +5.703999E+00     +3.008780E+00 +6.545491E-01 +1.219811E+00     +3.008780E+00 +6.545491E-01 +1.219811E+00     +3.008780E+00 +6.545491E-01 +1.219811E+00     +4.284520E+00 +1.543060E+00 +3.243520E+00     +4.284520E+00 +1.543060E+00 +3.243520E+00     +4.284520E+00 +1.543060E+00 +3.243520E+00     +3.158290E+00 +9.270875E-01 +4.146730E+00     +3.158290E+00 +9.270875E-01 +4.146730E+00    
 +3.158290E+00 +9.270875E-01 +4.146730E+00     +7.546524E-01 +1.219079E+00 +3.888690E+00     +7.546524E-01 +1.219079E+00 +3.888690E+00     +3.930640E+00 +1.465029E+00 +3.238450E+00     +4.602379E+00 +5.372560E-01 +2.793579E+00     +4.602379E+00 +5.372560E-01 +2.793579E+00     +4.602379E+00 +5.372560E-01 +2.793579E+00     +5.400150E+00 +1.024931E+00 +1.593920E+00     +5.400150E+00 +1.024931E+00 +1.593920E+00     +5.400150E+00 +1.024931E+00 +1.593920E+00     +5.400150E+00 +1.024931E+00 +1.593920E+00     +1.603130E+00 +9.864147E-01 +5.636260E+00     +1.603130E+00 +9.864147E-01 +5.636260E+00     +4.683410E+00 +1.912020E+00 +4.247760E+00     +4.683410E+00 +1.912020E+00 +4.247760E+00     +4.957660E-01 +1.701850E+00 +2.498352E-01     +4.957660E-01 +1.701850E+00 +2.498352E-01     +3.158290E+00 +9.270875E-01 +4.146730E+00     +3.158290E+00 +9.270875E-01 +4.146730E+00     +3.158290E+00 +9.270875E-01 +4.146730E+00     +3.158290E+00 +9.270875E-01 +4.146730E+00    
 +7.546524E-01 +1.219079E+00 +3.888690E+00     +7.546524E-01 +1.219079E+00 +3.888690E+00     +7.546524E-01 +1.219079E+00 +3.888690E+00     +4.602379E+00 +5.372560E-01 +2.793579E+00     +4.602379E+00 +5.372560E-01 +2.793579E+00     +4.602379E+00 +5.372560E-01 +2.793579E+00     +4.602379E+00 +5.372560E-01 +2.793579E+00     +4.602379E+00 +5.372560E-01 +2.793579E+00     +5.400150E+00 +1.024931E+00 +1.593920E+00     +5.525491E+00 +1.605509E+00 +1.080820E+00     +1.603130E+00 +9.864147E-01 +5.636260E+00     +1.603130E+00 +9.864147E-01 +5.636260E+00     +1.603130E+00 +9.864147E-01 +5.636260E+00     +4.683410E+00 +1.912020E+00 +4.247760E+00     +4.683410E+00 +1.912020E+00 +4.247760E+00     +4.957660E-01 +1.701850E+00 +2.498352E-01     +4.957660E-01 +1.701850E+00 +2.498352E-01     +1.965630E+00 +2.237580E+00 +1.848070E+00     +1.965630E+00 +2.237580E+00 +1.848070E+00     +1.965630E+00 +2.237580E+00 +1.848070E+00     +3.158290E+00 +9.270875E-01 +4.146730E+00    
 +7.546524E-01 +1.219079E+00 +3.888690E+00     +7.546524E-01 +1.219079E+00 +3.888690E+00     +7.546524E-01 +1.219079E+00 +3.888690E+00     +4.602379E+00 +5.372560E-01 +2.793579E+00     +4.602379E+00 +5.372560E-01 +2.793579E+00     +4.602379E+00 +5.372560E-01 +2.793579E+00     +4.602379E+00 +5.372560E-01 +2.793579E+00     +4.602379E+00 +5.372560E-01 +2.793579E+00     +4.602379E+00 +5.372560E-01 +2.793579E+00     +1.603130E+00 +9.864147E-01 +5.636260E+00     +1.603130E+00 +9.864147E-01 +5.636260E+00     +1.603130E+00 +9.864147E-01 +5.636260E+00     +4.957660E-01 +1.701850E+00 +2.498352E-01     +4.957660E-01 +1.701850E+00 +2.498352E-01     +4.957660E-01 +1.701850E+00 +2.498352E-01     +4.957660E-01 +1.701850E+00 +2.498352E-01     +4.957660E-01 +1.701850E+00 +2.498352E-01     +1.965630E+00 +2.237580E+00 +1.848070E+00     +1.965630E+00 +2.237580E+00 +1.848070E+00     +1.965630E+00 +2.237580E+00 +1.848070E+00     +1.965630E+00 +2.237580E+00 +1.848070E+00    
 +2.322279E+00 +1.183578E-01 +5.142279E+00     +7.546524E-01 +1.219079E+00 +3.888690E+00     +4.602379E+00 +5.372560E-01 +2.793579E+00     +4.602379E+00 +5.372560E-01 +2.793579E+00     +4.602379E+00 +5.372560E-01 +2.793579E+00     +4.602379E+00 +5.372560E-01 +2.793579E+00     +4.602379E+00 +5.372560E-01 +2.793579E+00     +4.602379E+00 +5.372560E-01 +2.793579E+00     +3.410539E+00 +9.633903E-01 +6.286885E-01     +3.410539E+00 +9.633903E-01 +6.286885E-01     +3.410539E+00 +9.633903E-01 +6.286885E-01     +4.957660E-01 +1.701850E+00 +2.498352E-01     +4.957660E-01 +1.701850E+00 +2.498352E-01     +4.957660E-01 +1.701850E+00 +2.498352E-01     +4.957660E-01 +1.701850E+00 +2.498352E-01     +4.957660E-01 +1.701850E+00 +2.498352E-01     +4.957660E-01 +1.701850E+00 +2.498352E-01     +4.957660E-01 +1.701850E+00 +2.498352E-01     +1.965630E+00 +2.237580E+00 +1.848070E+00     +1.965630E+00 +2.237580E+00 +1.848070E+00     +1.965630E+00 +2.237580E+00 +1.848070E+00    
 +5.138010E+00 +1.343350E+00 +1.951891E+00     +5.138010E+00 +1.343350E+00 +1.951891E+00     +5.138010E+00 +1.343350E+00 +1.951891E+00     +4.602379E+00 +5.372560E-01 +2.793579E+00     +4.602379E+00 +5.372560E-01 +2.793579E+00     +4.602379E+00 +5.372560E-01 +2.793579E+00     +4.602379E+00 +5.372560E-01 +2.793579E+00     +3.410539E+00 +9.633903E-01 +6.286885E-01     +3.410539E+00 +9.633903E-01 +6.286885E-01     +3.410539E+00 +9.633903E-01 +6.286885E-01     +3.410539E+00 +9.633903E-01 +6.286885E-01     +3.410539E+00 +9.633903E-01 +6.286885E-01     +4.957660E-01 +1.701850E+00 +2.498352E-01     +4.957660E-01 +1.701850E+00 +2.498352E-01     +4.957660E-01 +1.701850E+00 +2.498352E-01     +4.957660E-01 +1.701850E+00 +2.498352E-01     +4.957660E-01 +1.701850E+00 +2.498352E-01     +4.957660E-01 +1.701850E+00 +2.498352E-01     +3.868631E+00 +2.330819E+00 +3.753090E+00     +5.138010E+00 +1.343350E+00 +1.951891E+00     +5.138010E+00 +1.343350E+00 +1.951891E+00    
 +5.138010E+00 +1.343350E+00 +1.951891E+00     +5.138010E+00 +1.343350E+00 +1.951891E+00     +5.138010E+00 +1.343350E+00 +1.951891E+00     +5.138010E+00 +1.343350E+00 +1.951891E+00     +5.138010E+00 +1.343350E+00 +1.951891E+00     +4.602379E+00 +5.372560E-01 +2.793579E+00     +4.299280E+00 +9.850045E-01 +2.890799E+00     +3.410539E+00 +9.633903E-01 +6.286885E-01     +3.410539E+00 +9.633903E-01 +6.286885E-01     +3.410539E+00 +9.633903E-01 +6.286885E-01     +3.410539E+00 +9.633903E-01 +6.286885E-01     +3.410539E+00 +9.633903E-01 +6.286885E-01     +4.957660E-01 +1.701850E+00 +2.498352E-01     +4.957660E-01 +1.701850E+00 +2.498352E-01     +4.957660E-01 +1.701850E+00 +2.498352E-01     +4.487301E+00 +1.771249E+00 +4.998571E+00     +4.487301E+00 +1.771249E+00 +4.998571E+00     +3.297869E+00 +2.277210E+00 +1.561359E+00     +3.868631E+00 +2.330819E+00 +3.753090E+00     +5.138010E+00 +1.343350E+00 +1.951891E+00     +5.138010E+00 +1.343350E+00 +1.951891E+00    
 +5.138010E+00 +1.343350E+00 +1.951891E+00     +5.138010E+00 +1.343350E+00 +1.951891E+00     +5.138010E+00 +1.343350E+00 +1.951891E+00     +5.138010E+00 +1.343350E+00 +1.951891E+00     +5.138010E+00 +1.343350E+00 +1.951891E+00     +4.299280E+00 +9.850045E-01 +2.890799E+00     +4.299280E+00 +9.850045E-01 +2.890799E+00     +3.410539E+00 +9.633903E-01 +6.286885E-01     +3.410539E+00 +9.633903E-01 +6.286885E-01     +3.410539E+00 +9.633903E-01 +6.286885E-01     +3.410539E+00 +9.633903E-01 +6.286885E-01     +3.410539E+00 +9.633903E-01 +6.286885E-01     +4.957660E-01 +1.701850E+00 +2.498352E-01     +4.487301E+00 +1.771249E+00 +4.998571E+00     +4.487301E+00 +1.771249E+00 +4.998571E+00     +4.487301E+00 +1.771249E+00 +4.998571E+00     +4.487301E+00 +1.771249E+00 +4.998571E+00     +3.868631E+00 +2.330819E+00 +3.753090E+00     +3.868631E+00 +2.330819E+00 +3.753090E+00     +5.138010E+00 +1.343350E+00 +1.951891E+00     +5.138010E+00 +1.343350E+00 +1.951891E+00    
 +5.138010E+00 +1.343350E+00 +1.951891E+00     +5.138010E+00 +1.343350E+00 +1.951891E+00     +5.138010E+00 +1.343350E+00 +1.951891E+00     +5.138010E+00 +1.343350E+00 +1.951891E+00     +5.138010E+00 +1.343350E+00 +1.951891E+00     +5.138010E+00 +1.343350E+00 +1.951891E+00     +4.299280E+00 +9.850045E-01 +2.890799E+00     +5.042152E-01 +1.365830E+00 +4.160519E+00     +3.410539E+00 +9.633903E-01 +6.286885E-01     +3.410539E+00 +9.633903E-01 +6.286885E-01     +3.410539E+00 +9.633903E-01 +6.286885E-01     +3.410539E+00 +9.633903E-01 +6.286885E-01     +4.487301E+00 +1.771249E+00 +4.998571E+00     +4.487301E+00 +1.771249E+00 +4.998571E+00     +4.487301E+00 +1.771249E+00 +4.998571E+00     +4.487301E+00 +1.771249E+00 +4.998571E+00     +4.487301E+00 +1.771249E+00 +4.998571E+00     +3.868631E+00 +2.330819E+00 +3.753090E+00     +3.868631E+00 +2.330819E+00 +3.753090E+00     +5.138010E+00 +1.343350E+00 +1.951891E+00     +5.138010E+00 +1.343350E+00 +1.951891E+00    
 +5.138010E+00 +1.343350E+00 +1.951891E+00     +5.138010E+00 +1.343350E+00 +1.951891E+00     +5.138010E+00 +1.343350E+00 +1.951891E+00     +5.138010E+00 +1.343350E+00 +1.951891E+00     +5.138010E+00 +1.343350E+00 +1.951891E+00     +5.138010E+00 +1.343350E+00 +1.951891E+00     +1.585410E+00 +1.724919E+00 +3.745440E+00     +1.585410E+00 +1.724919E+00 +3.745440E+00     +1.585410E+00 +1.724919E+00 +3.745440E+00     +3.410539E+00 +9.633903E-01 +6.286885E-01     +3.410539E+00 +9.633903E-01 +6.286885E-01     +3.410539E+00 +9.633903E-01 +6.286885E-01     +5.889300E+00 +8.985828E-01 +3.240590E+00     +4.487301E+00 +1.771249E+00 +4.998571E+00     +4.487301E+00 +1.771249E+00 +4.998571E+00     +4.487301E+00 +1.771249E+00 +4.998571E+00     +4.487301E+00 +1.771249E+00 +4.998571E+00     +4.487301E+00 +1.771249E+00 +4.998571E+00     +3.868631E+00 +2.330819E+00 +3.753090E+00     +5.138010E+00 +1.343350E+00 +1.951891E+00     +5.138010E+00 +1.343350E+00 +1.951891E+00    
 +5.138010E+00 +1.343350E+00 +1.951891E+00     +5.138010E+00 +1.343350E+00 +1.951891E+00     +5.138010E+00 +1.343350E+00 +1.951891E+00     +5.138010E+00 +1.343350E+00 +1.951891E+00     +5.138010E+00 +1.343350E+00 +1.951891E+00     +1.585410E+00 +1.724919E+00 +3.745440E+00     +1.585410E+00 +1.724919E+00 +3.745440E+00     +1.585410E+00 +1.724919E+00 +3.745440E+00     +1.585410E+00 +1.724919E+00 +3.745440E+00     +1.585410E+00 +1.724919E+00 +3.745440E+00     +1.585410E+00 +1.724919E+00 +3.745440E+00     +5.889300E+00 +8.985828E-01 +3.240590E+00     +5.889300E+00 +8.985828E-01 +3.240590E+00     +5.889300E+00 +8.985828E-01 +3.240590E+00     +4.487301E+00 +1.771249E+00 +4.998571E+00     +4.487301E+00 +1.771249E+00 +4.998571E+00     +4.487301E+00 +1.771249E+00 +4.998571E+00     +2.075921E+00 +5.109731E-01 +4.872919E+00     +2.075921E+00 +5.109731E-01 +4.872919E+00     +2.075921E+00 +5.109731E-01 +4.872919E+00     +5.138010E+00 +1.343350E+00 +1.951891E+00    
 +5.138010E+00 +1.343350E+00 +1.951891E+00     +5.138010E+00 +1.343350E+00 +1.951891E+00     +5.138010E+00 +1.343350E+00 +1.951891E+00     +5.138010E+00 +1.343350E+00 +1.951891E+00     +5.138010E+00 +1.343350E+00 +1.951891E+00     +1.585410E+00 +1.724919E+00 +3.745440E+00     +1.585410E+00 +1.724919E+00 +3.745440E+00     +1.585410E+00 +1.724919E+00 +3.745440E+00     +1.585410E+00 +1.724919E+00 +3.745440E+00     +1.585410E+00 +1.724919E+00 +3.745440E+00     +3.479920E+00 +1.666229E+00 +5.212799E+00     +3.479920E+00 +1.666229E+00 +5.212799E+00     +3.479920E+00 +1.666229E+00 +5.212799E+00     +3.479920E+00 +1.666229E+00 +5.212799E+00     +4.487301E+00 +1.771249E+00 +4.998571E+00     +4.487301E+00 +1.771249E+00 +4.998571E+00     +4.487301E+00 +1.771249E+00 +4.998571E+00     +2.075921E+00 +5.109731E-01 +4.872919E+00     +2.075921E+00 +5.109731E-01 +4.872919E+00     +4.225140E+00 +1.382261E+00 +3.163409E+00     +4.225140E+00 +1.382261E+00 +3.163409E+00    
 +4.225140E+00 +1.382261E+00 +3.163409E+00     +5.138010E+00 +1.343350E+00 +1.951891E+00     +5.138010E+00 +1.343350E+00 +1.951891E+00     +3.156707E-01 +1.393139E+00 +1.170060E+00     +3.156707E-01 +1.393139E+00 +1.170060E+00     +3.045771E+00 +1.771399E+00 +5.542501E+00     +4.112849E+00 +1.965209E+00 +3.785350E+00     +4.112849E+00 +1.965209E+00 +3.785350E+00     +4.112849E+00 +1.965209E+00 +3.785350E+00     +3.479920E+00 +1.666229E+00 +5.212799E+00     +3.479920E+00 +1.666229E+00 +5.212799E+00     +3.479920E+00 +1.666229E+00 +5.212799E+00     +3.479920E+00 +1.666229E+00 +5.212799E+00     +3.479920E+00 +1.666229E+00 +5.212799E+00     +3.479920E+00 +1.666229E+00 +5.212799E+00     +3.511650E+00 +8.393515E-01 +1.924440E+00     +6.061860E+00 +1.336090E+00 +1.274289E+00     +6.061860E+00 +1.336090E+00 +1.274289E+00     +6.061860E+00 +1.336090E+00 +1.274289E+00     +4.225140E+00 +1.382261E+00 +3.163409E+00     +4.225140E+00 +1.382261E+00 +3.163409E+00    
 +4.225140E+00 +1.382261E+00 +3.163409E+00     +4.225140E+00 +1.382261E+00 +3.163409E+00     +2.387970E+00 +2.171881E+00 +4.348490E+00     +2.387970E+00 +2.171881E+00 +4.348490E+00     +3.045771E+00 +1.771399E+00 +5.542501E+00     +3.045771E+00 +1.771399E+00 +5.542501E+00     +3.045771E+00 +1.771399E+00 +5.542501E+00     +3.045771E+00 +1.771399E+00 +5.542501E+00     +3.045771E+00 +1.771399E+00 +5.542501E+00     +3.479920E+00 +1.666229E+00 +5.212799E+00     +3.479920E+00 +1.666229E+00 +5.212799E+00     +3.479920E+00 +1.666229E+00 +5.212799E+00     +3.479920E+00 +1.666229E+00 +5.212799E+00     +3.479920E+00 +1.666229E+00 +5.212799E+00     +3.479920E+00 +1.666229E+00 +5.212799E+00     +4.465460E+00 +1.407840E+00 +3.380230E+00     +4.405359E+00 +1.497121E+00 +2.885329E+00     +6.061860E+00 +1.336090E+00 +1.274289E+00     +6.061860E+00 +1.336090E+00 +1.274289E+00     +4.225140E+00 +1.382261E+00 +3.163409E+00     +4.225140E+00 +1.382261E+00 +3.163409E+00    
 +4.225140E+00 +1.382261E+00 +3.163409E+00     +4.225140E+00 +1.382261E+00 +3.163409E+00     +2.387970E+00 +2.171881E+00 +4.348490E+00     +2.387970E+00 +2.171881E+00 +4.348490E+00     +3.045771E+00 +1.771399E+00 +5.542501E+00     +3.045771E+00 +1.771399E+00 +5.542501E+00     +3.045771E+00 +1.771399E+00 +5.542501E+00     +3.045771E+00 +1.771399E+00 +5.542501E+00     +3.045771E+00 +1.771399E+00 +5.542501E+00     +3.479920E+00 +1.666229E+00 +5.212799E+00     +3.479920E+00 +1.666229E+00 +5.212799E+00     +3.479920E+00 +1.666229E+00 +5.212799E+00     +3.479920E+00 +1.666229E+00 +5.212799E+00     +3.479920E+00 +1.666229E+00 +5.212799E+00     +3.479920E+00 +1.666229E+00 +5.212799E+00     +4.465460E+00 +1.407840E+00 +3.380230E+00     +4.465460E+00 +1.407840E+00 +3.380230E+00     +4.465460E+00 +1.407840E+00 +3.380230E+00     +6.061860E+00 +1.336090E+00 +1.274289E+00     +4.225140E+00 +1.382261E+00 +3.163409E+00     +4.225140E+00 +1.382261E+00 +3.163409E+00    
 +4.225140E+00 +1.382261E+00 +3.163409E+00     +4.225140E+00 +1.382261E+00 +3.163409E+00     +2.387970E+00 +2.171881E+00 +4.348490E+00     +2.387970E+00 +2.171881E+00 +4.348490E+00     +3.045771E+00 +1.771399E+00 +5.542501E+00     +3.045771E+00 +1.771399E+00 +5.542501E+00     +3.045771E+00 +1.771399E+00 +5.542501E+00     +3.045771E+00 +1.771399E+00 +5.542501E+00     +3.045771E+00 +1.771399E+00 +5.542501E+00     +3.382630E+00 +2.983171E+00 +5.703999E+00     +3.382630E+00 +2.983171E+00 +5.703999E+00     +3.382630E+00 +2.983171E+00 +5.703999E+00     +4.054313E-01 +1.877370E+00 +2.888710E+00     +4.054313E-01 +1.877370E+00 +2.888710E+00     +4.054313E-01 +1.877370E+00 +2.888710E+00     +4.465460E+00 +1.407840E+00 +3.380230E+00     +4.465460E+00 +1.407840E+00 +3.380230E+00     +4.465460E+00 +1.407840E+00 +3.380230E+00     +4.465460E+00 +1.407840E+00 +3.380230E+00     +4.225140E+00 +1.382261E+00 +3.163409E+00     +4.225140E+00 +1.382261E+00 +3.163409E+00    
 +4.225140E+00 +1.382261E+00 +3.163409E+00     +4.225140E+00 +1.382261E+00 +3.163409E+00     +2.387970E+00 +2.171881E+00 +4.348490E+00     +6.023323E-01 +1.946630E+00 +2.772860E+00     +6.023323E-01 +1.946630E+00 +2.772860E+00     +6.023323E-01 +1.946630E+00 +2.772860E+00     +6.023323E-01 +1.946630E+00 +2.772860E+00     +6.023323E-01 +1.946630E+00 +2.772860E+00     +3.382630E+00 +2.983171E+00 +5.703999E+00     +3.382630E+00 +2.983171E+00 +5.703999E+00     +3.382630E+00 +2.983171E+00 +5.703999E+00     +3.382630E+00 +2.983171E+00 +5.703999E+00     +4.054313E-01 +1.877370E+00 +2.888710E+00     +4.054313E-01 +1.877370E+00 +2.888710E+00     +4.054313E-01 +1.877370E+00 +2.888710E+00     +4.465460E+00 +1.407840E+00 +3.380230E+00     +4.465460E+00 +1.407840E+00 +3.380230E+00     +4.465460E+00 +1.407840E+00 +3.380230E+00     +4.465460E+00 +1.407840E+00 +3.380230E+00     +4.225140E+00 +1.382261E+00 +3.163409E+00     +4.225140E+00 +1.382261E+00 +3.163409E+00    
 +4.225140E+00 +1.382261E+00 +3.163409E+00     +4.225140E+00 +1.382261E+00 +3.163409E+00     +2.061770E+00 +1.152230E+00 +5.173899E+00     +6.023323E-01 +1.946630E+00 +2.772860E+00     +6.023323E-01 +1.946630E+00 +2.772860E+00     +6.023323E-01 +1.946630E+00 +2.772860E+00     +6.023323E-01 +1.946630E+00 +2.772860E+00     +6.023323E-01 +1.946630E+00 +2.772860E+00     +3.382630E+00 +2.983171E+00 +5.703999E+00     +3.382630E+00 +2.983171E+00 +5.703999E+00     +3.382630E+00 +2.983171E+00 +5.703999E+00     +3.382630E+00 +2.983171E+00 +5.703999E+00     +3.382630E+00 +2.983171E+00 +5.703999E+00     +4.054313E-01 +1.877370E+00 +2.888710E+00     +4.054313E-01 +1.877370E+00 +2.888710E+00     +4.465460E+00 +1.407840E+00 +3.380230E+00     +4.465460E+00 +1.407840E+00 +3.380230E+00     +4.465460E+00 +1.407840E+00 +3.380230E+00     +4.465460E+00 +1.407840E+00 +3.380230E+00     +4.225140E+00 +1.382261E+00 +3.163409E+00     +4.225140E+00 +1.382261E+00 +3.163409E+00    
 +2.061770E+00 +1.152230E+00 +5.173899E+00     +2.061770E+00 +1.152230E+00 +5.173899E+00     +2.061770E+00 +1.152230E+00 +5.173899E+00     +6.023323E-01 +1.946630E+00 +2.772860E+00     +6.023323E-01 +1.946630E+00 +2.772860E+00     +6.023323E-01 +1.946630E+00 +2.772860E+00     +6.023323E-01 +1.946630E+00 +2.772860E+00     +5.400150E+00 +1.024931E+00 +1.593920E+00     +5.400150E+00 +1.024931E+00 +1.593920E+00     +3.382630E+00 +2.983171E+00 +5.703999E+00     +3.382630E+00 +2.983171E+00 +5.703999E+00     +3.382630E+00 +2.983171E+00 +5.703999E+00     +3.382630E+00 +2.983171E+00 +5.703999E+00     +3.382630E+00 +2.983171E+00 +5.703999E+00     +3.382630E+00 +2.983171E+00 +5.703999E+00     +5.858500E+00 +2.491110E+00 +6.200010E+00     +4.465460E+00 +1.407840E+00 +3.380230E+00     +4.284520E+00 +1.543060E+00 +3.243520E+00     +4.284520E+00 +1.543060E+00 +3.243520E+00     +4.284520E+00 +1.543060E+00 +3.243520E+00     +4.284520E+00 +1.543060E+00 +3.243520E+00    
 +3.158290E+00 +9.270875E-01 +4.146730E+00     +3.158290E+00 +9.270875E-01 +4.146730E+00     +2.061770E+00 +1.152230E+00 +5.173899E+00     +2.061770E+00 +1.152230E+00 +5.173899E+00     +6.023323E-01 +1.946630E+00 +2.772860E+00     +6.023323E-01 +1.946630E+00 +2.772860E+00     +5.400150E+00 +1.024931E+00 +1.593920E+00     +5.400150E+00 +1.024931E+00 +1.593920E+00     +5.400150E+00 +1.024931E+00 +1.593920E+00     +5.400150E+00 +1.024931E+00 +1.593920E+00     +3.382630E+00 +2.983171E+00 +5.703999E+00     +3.382630E+00 +2.983171E+00 +5.703999E+00     +3.382630E+00 +2.983171E+00 +5.703999E+00     +3.382630E+00 +2.983171E+00 +5.703999E+00     +1.257470E+00 +2.196211E+00 +1.616730E+00     +1.257470E+00 +2.196211E+00 +1.616730E+00     +4.284520E+00 +1.543060E+00 +3.243520E+00     +4.284520E+00 +1.543060E+00 +3.243520E+00     +4.284520E+00 +1.543060E+00 +3.243520E+00     +4.284520E+00 +1.543060E+00 +3.243520E+00     +4.284520E+00 +1.543060E+00 +3.243520E+00    
 +3.158290E+00 +9.270875E-01 +4.146730E+00     +3.158290E+00 +9.270875E-01 +4.146730E+00     +3.158290E+00 +9.270875E-01 +4.146730E+00     +2.287620E-01 +8.959333E-01 +4.001450E+00     +2.981560E+00 +3.227219E-01 +1.509530E+00     +2.981560E+00 +3.227219E-01 +1.509530E+00     +5.400150E+00 +1.024931E+00 +1.593920E+00     +5.400150E+00 +1.024931E+00 +1.593920E+00     +5.400150E+00 +1.024931E+00 +1.593920E+00     +5.400150E+00 +1.024931E+00 +1.593920E+00     +5.400150E+00 +1.024931E+00 +1.593920E+00     +3.382630E+00 +2.983171E+00 +5.703999E+00     +3.382630E+00 +2.983171E+00 +5.703999E+00     +3.382630E+00 +2.983171E+00 +5.703999E+00     +1.257470E+00 +2.196211E+00 +1.616730E+00     +1.257470E+00 +2.196211E+00 +1.616730E+00     +4.284520E+00 +1.543060E+00 +3.243520E+00     +4.284520E+00 +1.543060E+00 +3.243520E+00     +4.284520E+00 +1.543060E+00 +3.243520E+00     +4.284520E+00 +1.543060E+00 +3.243520E+00     +3.158290E+00 +9.270875E-01 +4.146730E+00    
 +3.158290E+00 +9.270875E-01 +4.146730E+00     +3.158290E+00 +9.270875E-01 +4.146730E+00     +3.158290E+00 +9.270875E-01 +4.146730E+00     +2.322279E+00 +1.183578E-01 +5.142279E+00     +2.287620E-01 +8.959333E-01 +4.001450E+00     +2.981560E+00 +3.227219E-01 +1.509530E+00     +5.400150E+00 +1.024931E+00 +1.593920E+00     +5.400150E+00 +1.024931E+00 +1.593920E+00     +5.400150E+00 +1.024931E+00 +1.593920E+00     +5.400150E+00 +1.024931E+00 +1.593920E+00     +5.400150E+00 +1.024931E+00 +1.593920E+00     +5.400150E+00 +1.024931E+00 +1.593920E+00     +3.382630E+00 +2.983171E+00 +5.703999E+00     +1.257470E+00 +2.196211E+00 +1.616730E+00     +1.257470E+00 +2.196211E+00 +1.616730E+00     +1.257470E+00 +2.196211E+00 +1.616730E+00     +4.284520E+00 +1.543060E+00 +3.243520E+00     +4.284520E+00 +1.543060E+00 +3.243520E+00     +3.158290E+00 +9.270875E-01 +4.146730E+00     +3.158290E+00 +9.270875E-01 +4.146730E+00     +3.158290E+00 +9.270875E-01 +4.146730E+00    
 +3.158290E+00 +9.270875E-01 +4.146730E+00     +7.546524E-01 +1.219079E+00 +3.888690E+00     +2.322279E+00 +1.183578E-01 +5.142279E+00     +2.322279E+00 +1.183578E-01 +5.142279E+00     +2.322279E+00 +1.183578E-01 +5.142279E+00     +4.602379E+00 +5.372560E-01 +2.793579E+00     +5.400150E+00 +1.024931E+00 +1.593920E+00     +5.400150E+00 +1.024931E+00 +1.593920E+00     +5.400150E+00 +1.024931E+00 +1.593920E+00     +5.400150E+00 +1.024931E+00 +1.593920E+00     +5.400150E+00 +1.024931E+00 +1.593920E+00     +5.400150E+00 +1.024931E+00 +1.593920E+00     +4.683410E+00 +1.912020E+00 +4.247760E+00     +4.683410E+00 +1.912020E+00 +4.247760E+00     +4.683410E+00 +1.912020E+00 +4.247760E+00     +1.257470E+00 +2.196211E+00 +1.616730E+00     +1.257470E+00 +2.196211E+00 +1.616730E+00     +1.965630E+00 +2.237580E+00 +1.848070E+00     +1.965630E+00 +2.237580E+00 +1.848070E+00     +3.158290E+00 +9.270875E-01 +4.146730E+00     +3.158290E+00 +9.270875E-01 +4.146730E+00    
 +7.546524E-01 +1.219079E+00 +3.888690E+00     +3.392670E+00 +2.230330E+00 +1.066941E+00     +7.546524E-01 +1.219079E+00 +3.888690E+00     +2.322279E+00 +1.183578E-01 +5.142279E+00     +4.602379E+00 +5.372560E-01 +2.793579E+00     +4.602379E+00 +5.372560E-01 +2.793579E+00     +4.602379E+00 +5.372560E-01 +2.793579E+00     +5.400150E+00 +1.024931E+00 +1.593920E+00     +5.400150E+00 +1.024931E+00 +1.593920E+00     +5.400150E+00 +1.024931E+00 +1.593920E+00     +1.603130E+00 +9.864147E-01 +5.636260E+00     +1.603130E+00 +9.864147E-01 +5.636260E+00     +4.683410E+00 +1.912020E+00 +4.247760E+00     +4.683410E+00 +1.912020E+00 +4.247760E+00     +4.683410E+00 +1.912020E+00 +4.247760E+00     +4.957660E-01 +1.701850E+00 +2.498352E-01     +1.965630E+00 +2.237580E+00 +1.848070E+00     +1.965630E+00 +2.237580E+00 +1.848070E+00     +1.965630E+00 +2.237580E+00 +1.848070E+00     +1.965630E+00 +2.237580E+00 +1.848070E+00     +1.965630E+00 +2.237580E+00 +1.848070E+00    
 +2.322279E+00 +1.183578E-01 +5.142279E+00     +7.546524E-01 +1.219079E+00 +3.888690E+00     +2.322279E+00 +1.183578E-01 +5.142279E+00     +2.322279E+00 +1.183578E-01 +5.142279E+00     +4.602379E+00 +5.372560E-01 +2.793579E+00     +4.602379E+00 +5.372560E-01 +2.793579E+00     +4.602379E+00 +5.372560E-01 +2.793579E+00     +4.602379E+00 +5.372560E-01 +2.793579E+00     +3.410539E+00 +9.633903E-01 +6.286885E-01     +3.410539E+00 +9.633903E-01 +6.286885E-01     +1.603130E+00 +9.864147E-01 +5.636260E+00     +1.603130E+00 +9.864147E-01 +5.636260E+00     +4.683410E+00 +1.912020E+00 +4.247760E+00     +4.683410E+00 +1.912020E+00 +4.247760E+00     +4.683410E+00 +1.912020E+00 +4.247760E+00     +4.957660E-01 +1.701850E+00 +2.498352E-01     +4.957660E-01 +1.701850E+00 +2.498352E-01     +1.965630E+00 +2.237580E+00 +1.848070E+00     +1.965630E+00 +2.237580E+00 +1.848070E+00     +1.965630E+00 +2.237580E+00 +1.848070E+00     +1.965630E+00 +2.237580E+00 +1.848070E+00    
 +2.322279E+00 +1.183578E-01 +5.142279E+00     +2.322279E+00 +1.183578E-01 +5.142279E+00     +2.322279E+00 +1.183578E-01 +5.142279E+00     +2.322279E+00 +1.183578E-01 +5.142279E+00     +4.602379E+00 +5.372560E-01 +2.793579E+00     +4.602379E+00 +5.372560E-01 +2.793579E+00     +4.299280E+00 +9.850045E-01 +2.890799E+00     +4.299280E+00 +9.850045E-01 +2.890799E+00     +3.410539E+00 +9.633903E-01 +6.286885E-01     +3.410539E+00 +9.633903E-01 +6.286885E-01     +3.410539E+00 +9.633903E-01 +6.286885E-01     +3.334225E-01 +1.138300E+00 +5.195147E-01     +3.334225E-01 +1.138300E+00 +5.195147E-01     +4.957660E-01 +1.701850E+00 +2.498352E-01     +4.957660E-01 +1.701850E+00 +2.498352E-01     +4.957660E-01 +1.701850E+00 +2.498352E-01     +4.957660E-01 +1.701850E+00 +2.498352E-01     +1.965630E+00 +2.237580E+00 +1.848070E+00     +1.965630E+00 +2.237580E+00 +1.848070E+00     +1.965630E+00 +2.237580E+00 +1.848070E+00     +1.965630E+00 +2.237580E+00 +1.848070E+00    
 +2.322279E+00 +1.183578E-01 +5.142279E+00     +5.138010E+00 +1.343350E+00 +1.951891E+00     +2.322279E+00 +1.183578E-01 +5.142279E+00     +4.602379E+00 +5.372560E-01 +2.793579E+00     +4.602379E+00 +5.372560E-01 +2.793579E+00     +4.299280E+00 +9.850045E-01 +2.890799E+00     +4.299280E+00 +9.850045E-01 +2.890799E+00     +4.299280E+00 +9.850045E-01 +2.890799E+00     +3.410539E+00 +9.633903E-01 +6.286885E-01     +3.410539E+00 +9.633903E-01 +6.286885E-01     +3.410539E+00 +9.633903E-01 +6.286885E-01     +3.410539E+00 +9.633903E-01 +6.286885E-01     +4.957660E-01 +1.701850E+00 +2.498352E-01     +4.957660E-01 +1.701850E+00 +2.498352E-01     +4.957660E-01 +1.701850E+00 +2.498352E-01     +4.957660E-01 +1.701850E+00 +2.498352E-01     +4.957660E-01 +1.701850E+00 +2.498352E-01     +3.297869E+00 +2.277210E+00 +1.561359E+00     +1.965630E+00 +2.237580E+00 +1.848070E+00     +1.965630E+00 +2.237580E+00 +1.848070E+00     +1.965630E+00 +2.237580E+00 +1.848070E+00    
 +5.138010E+00 +1.343350E+00 +1.951891E+00     +5.138010E+00 +1.343350E+00 +1.951891E+00     +5.138010E+00 +1.343350E+00 +1.951891E+00     +5.138010E+00 +1.343350E+00 +1.951891E+00     +4.881440E+00 +2.973851E+00 +5.034610E+00     +2.924950E+00 +3.077681E+00 +5.975121E+00     +4.299280E+00 +9.850045E-01 +2.890799E+00     +4.299280E+00 +9.850045E-01 +2.890799E+00     +3.410539E+00 +9.633903E-01 +6.286885E-01     +3.410539E+00 +9.633903E-01 +6.286885E-01     +3.410539E+00 +9.633903E-01 +6.286885E-01     +3.410539E+00 +9.633903E-01 +6.286885E-01     +4.957660E-01 +1.701850E+00 +2.498352E-01     +4.957660E-01 +1.701850E+00 +2.498352E-01     +4.957660E-01 +1.701850E+00 +2.498352E-01     +4.487301E+00 +1.771249E+00 +4.998571E+00     +3.297869E+00 +2.277210E+00 +1.561359E+00     +3.297869E+00 +2.277210E+00 +1.561359E+00     +3.297869E+00 +2.277210E+00 +1.561359E+00     +3.297869E+00 +2.277210E+00 +1.561359E+00     +5.138010E+00 +1.343350E+00 +1.951891E+00    
 +5.138010E+00 +1.343350E+00 +1.951891E+00     +5.138010E+00 +1.343350E+00 +1.951891E+00     +5.138010E+00 +1.343350E+00 +1.951891E+00     +5.138010E+00 +1.343350E+00 +1.951891E+00     +5.138010E+00 +1.343350E+00 +1.951891E+00     +4.299280E+00 +9.850045E-01 +2.890799E+00     +4.299280E+00 +9.850045E-01 +2.890799E+00     +4.299280E+00 +9.850045E-01 +2.890799E+00     +3.410539E+00 +9.633903E-01 +6.286885E-01     +3.410539E+00 +9.633903E-01 +6.286885E-01     +3.410539E+00 +9.633903E-01 +6.286885E-01     +3.410539E+00 +9.633903E-01 +6.286885E-01     +3.410539E+00 +9.633903E-01 +6.286885E-01     +4.487301E+00 +1.771249E+00 +4.998571E+00     +4.487301E+00 +1.771249E+00 +4.998571E+00     +4.487301E+00 +1.771249E+00 +4.998571E+00     +4.487301E+00 +1.771249E+00 +4.998571E+00     +4.487301E+00 +1.771249E+00 +4.998571E+00     +3.868631E+00 +2.330819E+00 +3.753090E+00     +5.138010E+00 +1.343350E+00 +1.951891E+00     +5.138010E+00 +1.343350E+00 +1.951891E+00    
 +5.138010E+00 +1.343350E+00 +1.951891E+00     +5.138010E+00 +1.343350E+00 +1.951891E+00     +5.138010E+00 +1.343350E+00 +1.951891E+00     +5.138010E+00 +1.343350E+00 +1.951891E+00     +5.138010E+00 +1.343350E+00 +1.951891E+00     +4.299280E+00 +9.850045E-01 +2.890799E+00     +4.299280E+00 +9.850045E-01 +2.890799E+00     +4.299280E+00 +9.850045E-01 +2.890799E+00     +3.410539E+00 +9.633903E-01 +6.286885E-01     +3.410539E+00 +9.633903E-01 +6.286885E-01     +3.410539E+00 +9.633903E-01 +6.286885E-01     +3.410539E+00 +9.633903E-01 +6.286885E-01     +3.410539E+00 +9.633903E-01 +6.286885E-01     +4.487301E+00 +1.771249E+00 +4.998571E+00     +4.487301E+00 +1.771249E+00 +4.998571E+00     +4.245705E-01 +9.192335E-01 +4.622510E+00     +4.487301E+00 +1.771249E+00 +4.998571E+00     +4.487301E+00 +1.771249E+00 +4.998571E+00     +4.487301E+00 +1.771249E+00 +4.998571E+00     +5.138010E+00 +1.343350E+00 +1.951891E+00     +5.138010E+00 +1.343350E+00 +1.951891E+00    
 +5.138010E+00 +1.343350E+00 +1.951891E+00     +5.138010E+00 +1.343350E+00 +1.951891E+00     +5.138010E+00 +1.343350E+00 +1.951891E+00     +5.138010E+00 +1.343350E+00 +1.951891E+00     +5.138010E+00 +1.343350E+00 +1.951891E+00     +1.585410E+00 +1.724919E+00 +3.745440E+00     +1.585410E+00 +1.724919E+00 +3.745440E+00     +1.585410E+00 +1.724919E+00 +3.745440E+00     +1.585410E+00 +1.724919E+00 +3.745440E+00     +1.585410E+00 +1.724919E+00 +3.745440E+00     +3.410539E+00 +9.633903E-01 +6.286885E-01     +3.410539E+00 +9.633903E-01 +6.286885E-01     +5.889300E+00 +8.985828E-01 +3.240590E+00     +5.889300E+00 +8.985828E-01 +3.240590E+00     +4.487301E+00 +1.771249E+00 +4.998571E+00     +4.487301E+00 +1.771249E+00 +4.998571E+00     +4.487301E+00 +1.771249E+00 +4.998571E+00     +2.075921E+00 +5.109731E-01 +4.872919E+00     +2.075921E+00 +5.109731E-01 +4.872919E+00     +2.075921E+00 +5.109731E-01 +4.872919E+00     +5.138010E+00 +1.343350E+00 +1.951891E+00    
 +5.138010E+00 +1.343350E+00 +1.951891E+00     +5.138010E+00 +1.343350E+00 +1.951891E+00     +5.138010E+00 +1.343350E+00 +1.951891E+00     +5.138010E+00 +1.343350E+00 +1.951891E+00     +1.585410E+00 +1.724919E+00 +3.745440E+00     +1.585410E+00 +1.724919E+00 +3.745440E+00     +1.585410E+00 +1.724919E+00 +3.745440E+00     +1.585410E+00 +1.724919E+00 +3.745440E+00     +1.585410E+00 +1.724919E+00 +3.745440E+00     +1.585410E+00 +1.724919E+00 +3.745440E+00     +1.585410E+00 +1.724919E+00 +3.745440E+00     +5.889300E+00 +8.985828E-01 +3.240590E+00     +5.889300E+00 +8.985828E-01 +3.240590E+00     +5.889300E+00 +8.985828E-01 +3.240590E+00     +3.210339E+00 +2.023261E+00 +5.578230E+00     +3.210339E+00 +2.023261E+00 +5.578230E+00     +2.075921E+00 +5.109731E-01 +4.872919E+00     +2.075921E+00 +5.109731E-01 +4.872919E+00     +2.075921E+00 +5.109731E-01 +4.872919E+00     +2.075921E+00 +5.109731E-01 +4.872919E+00     +5.138010E+00 +1.343350E+00 +1.951891E+00    
 +5.138010E+00 +1.343350E+00 +1.951891E+00     +5.138010E+00 +1.343350E+00 +1.951891E+00     +5.138010E+00 +1.343350E+00 +1.951891E+00     +5.138010E+00 +1.343350E+00 +1.951891E+00     +1.585410E+00 +1.724919E+00 +3.745440E+00     +1.585410E+00 +1.724919E+00 +3.745440E+00     +1.585410E+00 +1.724919E+00 +3.745440E+00     +1.585410E+00 +1.724919E+00 +3.745440E+00     +1.585410E+00 +1.724919E+00 +3.745440E+00     +1.585410E+00 +1.724919E+00 +3.745440E+00     +3.479920E+00 +1.666229E+00 +5.212799E+00     +3.479920E+00 +1.666229E+00 +5.212799E+00     +3.479920E+00 +1.666229E+00 +5.212799E+00     +5.889300E+00 +8.985828E-01 +3.240590E+00     +3.210339E+00 +2.023261E+00 +5.578230E+00     +3.210339E+00 +2.023261E+00 +5.578230E+00     +2.075921E+00 +5.109731E-01 +4.872919E+00     +2.075921E+00 +5.109731E-01 +4.872919E+00     +2.075921E+00 +5.109731E-01 +4.872919E+00     +2.075921E+00 +5.109731E-01 +4.872919E+00     +2.075921E+00 +5.109731E-01 +4.872919E+00    
 +4.225140E+00 +1.382261E+00 +3.163409E+00     +5.138010E+00 +1.343350E+00 +1.951891E+00     +2.387970E+00 +2.171881E+00 +4.348490E+00     +2.387970E+00 +2.171881E+00 +4.348490E+00     +3.045771E+00 +1.771399E+00 +5.542501E+00     +3.045771E+00 +1.771399E+00 +5.542501E+00     +4.112849E+00 +1.965209E+00 +3.785350E+00     +4.112849E+00 +1.965209E+00 +3.785350E+00     +4.112849E+00 +1.965209E+00 +3.785350E+00     +4.112849E+00 +1.965209E+00 +3.785350E+00     +3.479920E+00 +1.666229E+00 +5.212799E+00     +3.479920E+00 +1.666229E+00 +5.212799E+00     +3.479920E+00 +1.666229E+00 +5.212799E+00     +3.479920E+00 +1.666229E+00 +5.212799E+00     +3.479920E+00 +1.666229E+00 +5.212799E+00     +3.511650E+00 +8.393515E-01 +1.924440E+00     +6.061860E+00 +1.336090E+00 +1.274289E+00     +6.061860E+00 +1.336090E+00 +1.274289E+00     +6.061860E+00 +1.336090E+00 +1.274289E+00     +6.061860E+00 +1.336090E+00 +1.274289E+00     +4.225140E+00 +1.382261E+00 +3.163409E+00    
 +4.225140E+00 +1.382261E+00 +3.163409E+00     +4.225140E+00 +1.382261E+00 +3.163409E+00     +2.387970E+00 +2.171881E+00 +4.348490E+00     +2.387970E+00 +2.171881E+00 +4.348490E+00     +3.045771E+00 +1.771399E+00 +5.542501E+00     +3.045771E+00 +1.771399E+00 +5.542501E+00     +3.045771E+00 +1.771399E+00 +5.542501E+00     +4.112849E+00 +1.965209E+00 +3.785350E+00     +4.112849E+00 +1.965209E+00 +3.785350E+00     +3.479920E+00 +1.666229E+00 +5.212799E+00     +3.479920E+00 +1.666229E+00 +5.212799E+00     +3.479920E+00 +1.666229E+00 +5.212799E+00     +3.479920E+00 +1.666229E+00 +5.212799E+00     +3.479920E+00 +1.666229E+00 +5.212799E+00     +3.479920E+00 +1.666229E+00 +5.212799E+00     +6.061860E+00 +1.336090E+00 +1.274289E+00     +6.061860E+00 +1.336090E+00 +1.274289E+00     +6.061860E+00 +1.336090E+00 +1.274289E+00     +6.061860E+00 +1.336090E+00 +1.274289E+00     +6.061860E+00 +1.336090E+00 +1.274289E+00     +4.225140E+00 +1.382261E+00 +3.163409E+00    
 +4.225140E+00 +1.382261E+00 +3.163409E+00     +4.225140E+00 +1.382261E+00 +3.163409E+00     +2.387970E+00 +2.171881E+00 +4.348490E+00     +2.387970E+00 +2.171881E+00 +4.348490E+00     +3.045771E+00 +1.771399E+00 +5.542501E+00     +3.045771E+00 +1.771399E+00 +5.542501E+00     +3.045771E+00 +1.771399E+00 +5.542501E+00     +3.045771E+00 +1.771399E+00 +5.542501E+00     +3.045771E+00 +1.771399E+00 +5.542501E+00     +3.479920E+00 +1.666229E+00 +5.212799E+00     +3.479920E+00 +1.666229E+00 +5.212799E+00     +3.479920E+00 +1.666229E+00 +5.212799E+00     +3.479920E+00 +1.666229E+00 +5.212799E+00     +3.479920E+00 +1.666229E+00 +5.212799E+00     +3.479920E+00 +1.666229E+00 +5.212799E+00     +6.061860E+00 +1.336090E+00 +1.274289E+00     +6.061860E+00 +1.336090E+00 +1.274289E+00     +4.465460E+00 +1.407840E+00 +3.380230E+00     +6.061860E+00 +1.336090E+00 +1.274289E+00     +6.061860E+00 +1.336090E+00 +1.274289E+00     +4.225140E+00 +1.382261E+00 +3.163409E+00    
 +4.225140E+00 +1.382261E+00 +3.163409E+00     +4.225140E+00 +1.382261E+00 +3.163409E+00     +2.387970E+00 +2.171881E+00 +4.348490E+00     +2.387970E+00 +2.171881E+00 +4.348490E+00     +3.045771E+00 +1.771399E+00 +5.542501E+00     +3.045771E+00 +1.771399E+00 +5.542501E+00     +3.045771E+00 +1.771399E+00 +5.542501E+00     +3.045771E+00 +1.771399E+00 +5.542501E+00     +3.045771E+00 +1.771399E+00 +5.542501E+00     +3.382630E+00 +2.983171E+00 +5.703999E+00     +3.382630E+00 +2.983171E+00 +5.703999E+00     +4.631842E-01 +3.036829E+00 +2.060729E+00     +3.479920E+00 +1.666229E+00 +5.212799E+00     +3.479920E+00 +1.666229E+00 +5.212799E+00     +6.061860E+00 +1.336090E+00 +1.274289E+00     +6.061860E+00 +1.336090E+00 +1.274289E+00     +6.061860E+00 +1.336090E+00 +1.274289E+00     +6.061860E+00 +1.336090E+00 +1.274289E+00     +6.061860E+00 +1.336090E+00 +1.274289E+00     +6.061860E+00 +1.336090E+00 +1.274289E+00     +4.225140E+00 +1.382261E+00 +3.163409E+00    
 +4.225140E+00 +1.382261E+00 +3.163409E+00     +4.225140E+00 +1.382261E+00 +3.163409E+00     +2.387970E+00 +2.171881E+00 +4.348490E+00     +2.387970E+00 +2.171881E+00 +4.348490E+00     +3.045771E+00 +1.771399E+00 +5.542501E+00     +3.045771E+00 +1.771399E+00 +5.542501E+00     +3.045771E+00 +1.771399E+00 +5.542501E+00     +3.045771E+00 +1.771399E+00 +5.542501E+00     +3.382630E+00 +2.983171E+00 +5.703999E+00     +3.382630E+00 +2.983171E+00 +5.703999E+00     +3.382630E+00 +2.983171E+00 +5.703999E+00     +4.631842E-01 +3.036829E+00 +2.060729E+00     +3.382630E+00 +2.983171E+00 +5.703999E+00     +3.382630E+00 +2.983171E+00 +5.703999E+00     +6.061860E+00 +1.336090E+00 +1.274289E+00     +6.061860E+00 +1.336090E+00 +1.274289E+00     +6.061860E+00 +1.336090E+00 +1.274289E+00     +6.061860E+00 +1.336090E+00 +1.274289E+00     +6.061860E+00 +1.336090E+00 +1.274289E+00     +6.061860E+00 +1.336090E+00 +1.274289E+00     +4.225140E+00 +1.382261E+00 +3.163409E+00    
 +4.225140E+00 +1.382261E+00 +3.163409E+00     +4.225140E+00 +1.382261E+00 +3.163409E+00     +2.387970E+00 +2.171881E+00 +4.348490E+00     +6.023323E-01 +1.946630E+00 +2.772860E+00     +6.023323E-01 +1.946630E+00 +2.772860E+00     +6.023323E-01 +1.946630E+00 +2.772860E+00     +6.023323E-01 +1.946630E+00 +2.772860E+00     +3.382630E+00 +2.983171E+00 +5.703999E+00     +3.382630E+00 +2.983171E+00 +5.703999E+00     +3.382630E+00 +2.983171E+00 +5.703999E+00     +3.382630E+00 +2.983171E+00 +5.703999E+00     +3.382630E+00 +2.983171E+00 +5.703999E+00     +3.382630E+00 +2.983171E+00 +5.703999E+00     +3.382630E+00 +2.983171E+00 +5.703999E+00     +3.382630E+00 +2.983171E+00 +5.703999E+00     +6.061860E+00 +1.336090E+00 +1.274289E+00     +6.061860E+00 +1.336090E+00 +1.274289E+00     +6.061860E+00 +1.336090E+00 +1.274289E+00     +6.061860E+00 +1.336090E+00 +1.274289E+00     +6.061860E+00 +1.336090E+00 +1.274289E+00     +4.225140E+00 +1.382261E+00 +3.163409E+00    
 +3.158290E+00 +9.270875E-01 +4.146730E+00     +3.158290E+00 +9.270875E-01 +4.146730E+00     +5.938350E+00 +3.025460E+00 +1.453730E+00     +5.938350E+00 +3.025460E+00 +1.453730E+00     +2.287620E-01 +8.959333E-01 +4.001450E+00     +2.287620E-01 +8.959333E-01 +4.001450E+00     +1.242140E+00 +6.487214E-01 +2.650963E-01     +5.400150E+00 +1.024931E+00 +1.593920E+00     +5.400150E+00 +1.024931E+00 +1.593920E+00     +3.382630E+00 +2.983171E+00 +5.703999E+00     +3.382630E+00 +2.983171E+00 +5.703999E+00     +3.382630E+00 +2.983171E+00 +5.703999E+00     +3.382630E+00 +2.983171E+00 +5.703999E+00     +3.382630E+00 +2.983171E+00 +5.703999E+00     +1.257470E+00 +2.196211E+00 +1.616730E+00     +1.257470E+00 +2.196211E+00 +1.616730E+00     +6.061860E+00 +1.336090E+00 +1.274289E+00     +4.284520E+00 +1.543060E+00 +3.243520E+00     +4.284520E+00 +1.543060E+00 +3.243520E+00     +4.284520E+00 +1.543060E+00 +3.243520E+00     +4.284520E+00 +1.543060E+00 +3.243520E+00    
 +3.158290E+00 +9.270875E-01 +4.146730E+00     +3.158290E+00 +9.270875E-01 +4.146730E+00     +5.938350E+00 +3.025460E+00 +1.453730E+00     +2.287620E-01 +8.959333E-01 +4.001450E+00     +2.287620E-01 +8.959333E-01 +4.001450E+00     +1.242140E+00 +6.487214E-01 +2.650963E-01     +1.242140E+00 +6.487214E-01 +2.650963E-01     +5.400150E+00 +1.024931E+00 +1.593920E+00     +5.400150E+00 +1.024931E+00 +1.593920E+00     +5.400150E+00 +1.024931E+00 +1.593920E+00     +3.382630E+00 +2.983171E+00 +5.703999E+00     +3.382630E+00 +2.983171E+00 +5.703999E+00     +3.382630E+00 +2.983171E+00 +5.703999E+00     +3.382630E+00 +2.983171E+00 +5.703999E+00     +1.257470E+00 +2.196211E+00 +1.616730E+00     +1.257470E+00 +2.196211E+00 +1.616730E+00     +1.257470E+00 +2.196211E+00 +1.616730E+00     +4.284520E+00 +1.543060E+00 +3.243520E+00     +4.284520E+00 +1.543060E+00 +3.243520E+00     +4.284520E+00 +1.543060E+00 +3.243520E+00     +4.284520E+00 +1.543060E+00 +3.243520E+00    
 +3.158290E+00 +9.270875E-01 +4.146730E+00     +3.158290E+00 +9.270875E-01 +4.146730E+00     +2.322279E+00 +1.183578E-01 +5.142279E+00     +2.287620E-01 +8.959333E-01 +4.001450E+00     +2.981560E+00 +3.227219E-01 +1.509530E+00     +2.981560E+00 +3.227219E-01 +1.509530E+00     +1.242140E+00 +6.487214E-01 +2.650963E-01     +5.400150E+00 +1.024931E+00 +1.593920E+00     +5.400150E+00 +1.024931E+00 +1.593920E+00     +5.400150E+00 +1.024931E+00 +1.593920E+00     +5.400150E+00 +1.024931E+00 +1.593920E+00     +3.382630E+00 +2.983171E+00 +5.703999E+00     +3.382630E+00 +2.983171E+00 +5.703999E+00     +1.257470E+00 +2.196211E+00 +1.616730E+00     +1.257470E+00 +2.196211E+00 +1.616730E+00     +1.257470E+00 +2.196211E+00 +1.616730E+00     +1.257470E+00 +2.196211E+00 +1.616730E+00     +4.284520E+00 +1.543060E+00 +3.243520E+00     +4.284520E+00 +1.543060E+00 +3.243520E+00     +3.158290E+00 +9.270875E-01 +4.146730E+00     +3.158290E+00 +9.270875E-01 +4.146730E+00    
 +3.158290E+00 +9.270875E-01 +4.146730E+00     +2.322279E+00 +1.183578E-01 +5.142279E+00     +2.322279E+00 +1.183578E-01 +5.142279E+00     +2.322279E+00 +1.183578E-01 +5.142279E+00     +2.287620E-01 +8.959333E-01 +4.001450E+00     +2.981560E+00 +3.227219E-01 +1.509530E+00     +1.242140E+00 +6.487214E-01 +2.650963E-01     +5.400150E+00 +1.024931E+00 +1.593920E+00     +5.400150E+00 +1.024931E+00 +1.593920E+00     +5.400150E+00 +1.024931E+00 +1.593920E+00     +5.400150E+00 +1.024931E+00 +1.593920E+00     +5.400150E+00 +1.024931E+00 +1.593920E+00     +1.257470E+00 +2.196211E+00 +1.616730E+00     +1.257470E+00 +2.196211E+00 +1.616730E+00     +1.257470E+00 +2.196211E+00 +1.616730E+00     +1.257470E+00 +2.196211E+00 +1.616730E+00     +1.257470E+00 +2.196211E+00 +1.616730E+00     +4.284520E+00 +1.543060E+00 +3.243520E+00     +3.158290E+00 +9.270875E-01 +4.146730E+00     +3.158290E+00 +9.270875E-01 +4.146730E+00     +3.158290E+00 +9.270875E-01 +4.146730E+00    
 +2.322279E+00 +1.183578E-01 +5.142279E+00     +2.322279E+00 +1.183578E-01 +5.142279E+00     +2.322279E+00 +1.183578E-01 +5.142279E+00     +2.322279E+00 +1.183578E-01 +5.142279E+00     +2.322279E+00 +1.183578E-01 +5.142279E+00     +4.449281E+00 +3.704584E-01 +2.769490E+00     +1.242140E+00 +6.487214E-01 +2.650963E-01     +1.242140E+00 +6.487214E-01 +2.650963E-01     +5.400150E+00 +1.024931E+00 +1.593920E+00     +5.400150E+00 +1.024931E+00 +1.593920E+00     +5.400150E+00 +1.024931E+00 +1.593920E+00     +1.257470E+00 +2.196211E+00 +1.616730E+00     +1.257470E+00 +2.196211E+00 +1.616730E+00     +1.257470E+00 +2.196211E+00 +1.616730E+00     +1.257470E+00 +2.196211E+00 +1.616730E+00     +1.257470E+00 +2.196211E+00 +1.616730E+00     +1.965630E+00 +2.237580E+00 +1.848070E+00     +1.965630E+00 +2.237580E+00 +1.848070E+00     +1.965630E+00 +2.237580E+00 +1.848070E+00     +1.965630E+00 +2.237580E+00 +1.848070E+00     +1.965630E+00 +2.237580E+00 +1.848070E+00    
 +2.322279E+00 +1.183578E-01 +5.142279E+00     +2.322279E+00 +1.183578E-01 +5.142279E+00     +2.322279E+00 +1.183578E-01 +5.142279E+00     +2.322279E+00 +1.183578E-01 +5.142279E+00     +2.322279E+00 +1.183578E-01 +5.142279E+00     +4.449281E+00 +3.704584E-01 +2.769490E+00     +4.449281E+00 +3.704584E-01 +2.769490E+00     +5.804571E+00 +9.694606E-01 +1.866090E+00     +5.804571E+00 +9.694606E-01 +1.866090E+00     +5.400150E+00 +1.024931E+00 +1.593920E+00     +5.400150E+00 +1.024931E+00 +1.593920E+00     +1.257470E+00 +2.196211E+00 +1.616730E+00     +4.683410E+00 +1.912020E+00 +4.247760E+00     +4.683410E+00 +1.912020E+00 +4.247760E+00     +4.683410E+00 +1.912020E+00 +4.247760E+00     +1.257470E+00 +2.196211E+00 +1.616730E+00     +1.965630E+00 +2.237580E+00 +1.848070E+00     +1.965630E+00 +2.237580E+00 +1.848070E+00     +1.965630E+00 +2.237580E+00 +1.848070E+00     +1.965630E+00 +2.237580E+00 +1.848070E+00     +1.965630E+00 +2.237580E+00 +1.848070E+00    
 +2.322279E+00 +1.183578E-01 +5.142279E+00     +2.322279E+00 +1.183578E-01 +5.142279E+00     +2.322279E+00 +1.183578E-01 +5.142279E+00     +2.322279E+00 +1.183578E-01 +5.142279E+00     +2.322279E+00 +1.183578E-01 +5.142279E+00     +4.449281E+00 +3.704584E-01 +2.769490E+00     +4.299280E+00 +9.850045E-01 +2.890799E+00     +4.299280E+00 +9.850045E-01 +2.890799E+00     +4.299280E+00 +9.850045E-01 +2.890799E+00     +4.299280E+00 +9.850045E-01 +2.890799E+00     +3.410539E+00 +9.633903E-01 +6.286885E-01     +4.683410E+00 +1.912020E+00 +4.247760E+00     +4.683410E+00 +1.912020E+00 +4.247760E+00     +4.683410E+00 +1.912020E+00 +4.247760E+00     +4.683410E+00 +1.912020E+00 +4.247760E+00     +4.957660E-01 +1.701850E+00 +2.498352E-01     +1.965630E+00 +2.237580E+00 +1.848070E+00     +1.965630E+00 +2.237580E+00 +1.848070E+00     +1.965630E+00 +2.237580E+00 +1.848070E+00     +1.965630E+00 +2.237580E+00 +1.848070E+00     +1.965630E+00 +2.237580E+00 +1.848070E+00    
 +2.322279E+00 +1.183578E-01 +5.142279E+00     +2.322279E+00 +1.183578E-01 +5.142279E+00     +2.322279E+00 +1.183578E-01 +5.142279E+00     +2.322279E+00 +1.183578E-01 +5.142279E+00     +4.881440E+00 +2.973851E+00 +5.034610E+00     +4.299280E+00 +9.850045E-01 +2.890799E+00     +4.299280E+00 +9.850045E-01 +2.890799E+00     +4.299280E+00 +9.850045E-01 +2.890799E+00     +4.299280E+00 +9.850045E-01 +2.890799E+00     +3.410539E+00 +9.633903E-01 +6.286885E-01     +3.410539E+00 +9.633903E-01 +6.286885E-01     +3.410539E+00 +9.633903E-01 +6.286885E-01     +3.334225E-01 +1.138300E+00 +5.195147E-01     +2.105790E+00 +6.473322E-01 +5.527269E+00     +2.105790E+00 +6.473322E-01 +5.527269E+00     +4.957660E-01 +1.701850E+00 +2.498352E-01     +1.965630E+00 +2.237580E+00 +1.848070E+00     +1.965630E+00 +2.237580E+00 +1.848070E+00     +1.965630E+00 +2.237580E+00 +1.848070E+00     +2.593263E-01 +1.744610E+00 +1.877301E+00     +1.965630E+00 +2.237580E+00 +1.848070E+00    
 +2.322279E+00 +1.183578E-01 +5.142279E+00     +2.322279E+00 +1.183578E-01 +5.142279E+00     +2.322279E+00 +1.183578E-01 +5.142279E+00     +4.881440E+00 +2.973851E+00 +5.034610E+00     +4.881440E+00 +2.973851E+00 +5.034610E+00     +4.881440E+00 +2.973851E+00 +5.034610E+00     +4.299280E+00 +9.850045E-01 +2.890799E+00     +4.299280E+00 +9.850045E-01 +2.890799E+00     +4.299280E+00 +9.850045E-01 +2.890799E+00     +3.410539E+00 +9.633903E-01 +6.286885E-01     +3.410539E+00 +9.633903E-01 +6.286885E-01     +3.410539E+00 +9.633903E-01 +6.286885E-01     +2.105790E+00 +6.473322E-01 +5.527269E+00     +2.105790E+00 +6.473322E-01 +5.527269E+00     +2.105790E+00 +6.473322E-01 +5.527269E+00     +2.105790E+00 +6.473322E-01 +5.527269E+00     +2.105790E+00 +6.473322E-01 +5.527269E+00     +1.965630E+00 +2.237580E+00 +1.848070E+00     +2.593263E-01 +1.744610E+00 +1.877301E+00     +2.593263E-01 +1.744610E+00 +1.877301E+00     +2.593263E-01 +1.744610E+00 +1.877301E+00    
 +5.138010E+00 +1.343350E+00 +1.951891E+00     +5.138010E+00 +1.343350E+00 +1.951891E+00     +5.138010E+00 +1.343350E+00 +1.951891E+00     +4.881440E+00 +2.973851E+00 +5.034610E+00     +4.881440E+00 +2.973851E+00 +5.034610E+00     +4.881440E+00 +2.973851E+00 +5.034610E+00     +4.299280E+00 +9.850045E-01 +2.890799E+00     +4.299280E+00 +9.850045E-01 +2.890799E+00     +4.299280E+00 +9.850045E-01 +2.890799E+00     +3.410539E+00 +9.633903E-01 +6.286885E-01     +3.410539E+00 +9.633903E-01 +6.286885E-01     +3.410539E+00 +9.633903E-01 +6.286885E-01     +2.105790E+00 +6.473322E-01 +5.527269E+00     +2.105790E+00 +6.473322E-01 +5.527269E+00     +2.105790E+00 +6.473322E-01 +5.527269E+00     +2.105790E+00 +6.473322E-01 +5.527269E+00     +3.297869E+00 +2.277210E+00 +1.561359E+00     +3.297869E+00 +2.277210E+00 +1.561359E+00     +3.297869E+00 +2.277210E+00 +1.561359E+00     +2.593263E-01 +1.744610E+00 +1.877301E+00     +2.593263E-01 +1.744610E+00 +1.877301E+00    
 +5.138010E+00 +1.343350E+00 +1.951891E+00     +5.138010E+00 +1.343350E+00 +1.951891E+00     +5.138010E+00 +1.343350E+00 +1.951891E+00     +4.881440E+00 +2.973851E+00 +5.034610E+00     +4.881440E+00 +2.973851E+00 +5.034610E+00     +4.881440E+00 +2.973851E+00 +5.034610E+00     +4.299280E+00 +9.850045E-01 +2.890799E+00     +4.299280E+00 +9.850045E-01 +2.890799E+00     +4.299280E+00 +9.850045E-01 +2.890799E+00     +3.410539E+00 +9.633903E-01 +6.286885E-01     +3.410539E+00 +9.633903E-01 +6.286885E-01     +3.410539E+00 +9.633903E-01 +6.286885E-01     +2.105790E+00 +6.473322E-01 +5.527269E+00     +2.105790E+00 +6.473322E-01 +5.527269E+00     +2.105790E+00 +6.473322E-01 +5.527269E+00     +4.487301E+00 +1.771249E+00 +4.998571E+00     +4.487301E+00 +1.771249E+00 +4.998571E+00     +4.487301E+00 +1.771249E+00 +4.998571E+00     +3.868631E+00 +2.330819E+00 +3.753090E+00     +2.177860E+00 +9.589939E-01 +4.821070E+00     +2.177860E+00 +9.589939E-01 +4.821070E+00    
 +5.138010E+00 +1.343350E+00 +1.951891E+00     +5.138010E+00 +1.343350E+00 +1.951891E+00     +5.138010E+00 +1.343350E+00 +1.951891E+00     +5.138010E+00 +1.343350E+00 +1.951891E+00     +4.881440E+00 +2.973851E+00 +5.034610E+00     +4.299280E+00 +9.850045E-01 +2.890799E+00     +4.299280E+00 +9.850045E-01 +2.890799E+00     +4.299280E+00 +9.850045E-01 +2.890799E+00     +4.299280E+00 +9.850045E-01 +2.890799E+00     +3.410539E+00 +9.633903E-01 +6.286885E-01     +3.410539E+00 +9.633903E-01 +6.286885E-01     +3.410539E+00 +9.633903E-01 +6.286885E-01     +2.105790E+00 +6.473322E-01 +5.527269E+00     +2.105790E+00 +6.473322E-01 +5.527269E+00     +4.487301E+00 +1.771249E+00 +4.998571E+00     +4.487301E+00 +1.771249E+00 +4.998571E+00     +4.487301E+00 +1.771249E+00 +4.998571E+00     +4.487301E+00 +1.771249E+00 +4.998571E+00     +4.487301E+00 +1.771249E+00 +4.998571E+00     +2.177860E+00 +9.589939E-01 +4.821070E+00     +2.177860E+00 +9.589939E-01 +4.821070E+00    
 +3.436520E+00 +1.891780E+00 +5.593100E+00     +3.436520E+00 +1.891780E+00 +5.593100E+00     +3.436520E+00 +1.891780E+00 +5.593100E+00     +5.138010E+00 +1.343350E+00 +1.951891E+00     +5.138010E+00 +1.343350E+00 +1.951891E+00     +4.299280E+00 +9.850045E-01 +2.890799E+00     +1.585410E+00 +1.724919E+00 +3.745440E+00     +1.585410E+00 +1.724919E+00 +3.745440E+00     +1.585410E+00 +1.724919E+00 +3.745440E+00     +3.410539E+00 +9.633903E-01 +6.286885E-01     +3.410539E+00 +9.633903E-01 +6.286885E-01     +3.410539E+00 +9.633903E-01 +6.286885E-01     +6.194441E+00 +4.528937E-01 +4.405160E+00     +6.194441E+00 +4.528937E-01 +4.405160E+00     +4.487301E+00 +1.771249E+00 +4.998571E+00     +4.487301E+00 +1.771249E+00 +4.998571E+00     +4.487301E+00 +1.771249E+00 +4.998571E+00     +2.075921E+00 +5.109731E-01 +4.872919E+00     +2.075921E+00 +5.109731E-01 +4.872919E+00     +2.075921E+00 +5.109731E-01 +4.872919E+00     +5.138010E+00 +1.343350E+00 +1.951891E+00    
 +3.436520E+00 +1.891780E+00 +5.593100E+00     +3.436520E+00 +1.891780E+00 +5.593100E+00     +3.436520E+00 +1.891780E+00 +5.593100E+00     +3.436520E+00 +1.891780E+00 +5.593100E+00     +1.585410E+00 +1.724919E+00 +3.745440E+00     +1.585410E+00 +1.724919E+00 +3.745440E+00     +1.585410E+00 +1.724919E+00 +3.745440E+00     +1.585410E+00 +1.724919E+00 +3.745440E+00     +1.585410E+00 +1.724919E+00 +3.745440E+00     +1.585410E+00 +1.724919E+00 +3.745440E+00     +3.479920E+00 +1.666229E+00 +5.212799E+00     +6.194441E+00 +4.528937E-01 +4.405160E+00     +6.194441E+00 +4.528937E-01 +4.405160E+00     +6.194441E+00 +4.528937E-01 +4.405160E+00     +3.210339E+00 +2.023261E+00 +5.578230E+00     +3.210339E+00 +2.023261E+00 +5.578230E+00     +2.075921E+00 +5.109731E-01 +4.872919E+00     +2.075921E+00 +5.109731E-01 +4.872919E+00     +2.075921E+00 +5.109731E-01 +4.872919E+00     +2.075921E+00 +5.109731E-01 +4.872919E+00     +2.075921E+00 +5.109731E-01 +4.872919E+00    
 +3.436520E+00 +1.891780E+00 +5.593100E+00     +3.436520E+00 +1.891780E+00 +5.593100E+00     +3.436520E+00 +1.891780E+00 +5.593100E+00     +3.436520E+00 +1.891780E+00 +5.593100E+00     +1.585410E+00 +1.724919E+00 +3.745440E+00     +1.585410E+00 +1.724919E+00 +3.745440E+00     +1.585410E+00 +1.724919E+00 +3.745440E+00     +1.585410E+00 +1.724919E+00 +3.745440E+00     +1.585410E+00 +1.724919E+00 +3.745440E+00     +1.585410E+00 +1.724919E+00 +3.745440E+00     +3.479920E+00 +1.666229E+00 +5.212799E+00     +3.479920E+00 +1.666229E+00 +5.212799E+00     +3.479920E+00 +1.666229E+00 +5.212799E+00     +3.479920E+00 +1.666229E+00 +5.212799E+00     +1.447506E-01 +7.757657E-01 +9.525362E-01     +3.210339E+00 +2.023261E+00 +5.578230E+00     +2.075921E+00 +5.109731E-01 +4.872919E+00     +2.075921E+00 +5.109731E-01 +4.872919E+00     +2.075921E+00 +5.109731E-01 +4.872919E+00     +2.075921E+00 +5.109731E-01 +4.872919E+00     +2.075921E+00 +5.109731E-01 +4.872919E+00    
 +5.835107E-01 +6.701733E-01 +2.399269E-01     +5.835107E-01 +6.701733E-01 +2.399269E-01     +3.436520E+00 +1.891780E+00 +5.593100E+00     +2.387970E+00 +2.171881E+00 +4.348490E+00     +3.045771E+00 +1.771399E+00 +5.542501E+00     +3.045771E+00 +1.771399E+00 +5.542501E+00     +4.112849E+00 +1.965209E+00 +3.785350E+00     +4.112849E+00 +1.965209E+00 +3.785350E+00     +4.112849E+00 +1.965209E+00 +3.785350E+00     +3.479920E+00 +1.666229E+00 +5.212799E+00     +3.479920E+00 +1.666229E+00 +5.212799E+00     +3.479920E+00 +1.666229E+00 +5.212799E+00     +3.479920E+00 +1.666229E+00 +5.212799E+00     +3.479920E+00 +1.666229E+00 +5.212799E+00     +3.479920E+00 +1.666229E+00 +5.212799E+00     +3.511650E+00 +8.393515E-01 +1.924440E+00     +4.465460E+00 +1.407840E+00 +3.380230E+00     +4.465460E+00 +1.407840E+00 +3.380230E+00     +4.465460E+00 +1.407840E+00 +3.380230E+00     +4.465460E+00 +1.407840E+00 +3.380230E+00     +4.465460E+00 +1.407840E+00 +3.380230E+00    
 +4.225140E+00 +1.382261E+00 +3.163409E+00     +4.225140E+00 +1.382261E+00 +3.163409E+00     +2.387970E+00 +2.171881E+00 +4.348490E+00     +2.387970E+00 +2.171881E+00 +4.348490E+00     +3.045771E+00 +1.771399E+00 +5.542501E+00     +3.045771E+00 +1.771399E+00 +5.542501E+00     +3.045771E+00 +1.771399E+00 +5.542501E+00     +4.112849E+00 +1.965209E+00 +3.785350E+00     +4.112849E+00 +1.965209E+00 +3.785350E+00     +3.479920E+00 +1.666229E+00 +5.212799E+00     +3.479920E+00 +1.666229E+00 +5.212799E+00     +3.479920E+00 +1.666229E+00 +5.212799E+00     +3.479920E+00 +1.666229E+00 +5.212799E+00     +3.479920E+00 +1.666229E+00 +5.212799E+00     +3.479920E+00 +1.666229E+00 +5.212799E+00     +4.465460E+00 +1.407840E+00 +3.380230E+00     +4.465460E+00 +1.407840E+00 +3.380230E+00     +4.465460E+00 +1.407840E+00 +3.380230E+00     +4.465460E+00 +1.407840E+00 +3.380230E+00     +4.465460E+00 +1.407840E+00 +3.380230E+00     +4.465460E+00 +1.407840E+00 +3.380230E+00    
 +4.225140E+00 +1.382261E+00 +3.163409E+00     +4.225140E+00 +1.382261E+00 +3.163409E+00     +2.387970E+00 +2.171881E+00 +4.348490E+00     +2.387970E+00 +2.171881E+00 +4.348490E+00     +3.045771E+00 +1.771399E+00 +5.542501E+00     +3.045771E+00 +1.771399E+00 +5.542501E+00     +3.045771E+00 +1.771399E+00 +5.542501E+00     +3.045771E+00 +1.771399E+00 +5.542501E+00     +3.045771E+00 +1.771399E+00 +5.542501E+00     +3.479920E+00 +1.666229E+00 +5.212799E+00     +3.479920E+00 +1.666229E+00 +5.212799E+00     +3.479920E+00 +1.666229E+00 +5.212799E+00     +3.479920E+00 +1.666229E+00 +5.212799E+00     +3.479920E+00 +1.666229E+00 +5.212799E+00     +3.479920E+00 +1.666229E+00 +5.212799E+00     +6.061860E+00 +1.336090E+00 +1.274289E+00     +6.061860E+00 +1.336090E+00 +1.274289E+00     +4.465460E+00 +1.407840E+00 +3.380230E+00     +4.465460E+00 +1.407840E+00 +3.380230E+00     +4.465460E+00 +1.407840E+00 +3.380230E+00     +4.465460E+00 +1.407840E+00 +3.380230E+00    
 +4.225140E+00 +1.382261E+00 +3.163409E+00     +4.225140E+00 +1.382261E+00 +3.163409E+00     +2.387970E+00 +2.171881E+00 +4.348490E+00     +2.387970E+00 +2.171881E+00 +4.348490E+00     +3.045771E+00 +1.771399E+00 +5.542501E+00     +3.045771E+00 +1.771399E+00 +5.542501E+00     +3.045771E+00 +1.771399E+00 +5.542501E+00     +7.809755E-01 +1.321310E+00 +6.078340E+00     +7.809755E-01 +1.321310E+00 +6.078340E+00     +5.354831E+00 +7.510396E-01 +2.302220E+00     +5.354831E+00 +7.510396E-01 +2.302220E+00     +5.354831E+00 +7.510396E-01 +2.302220E+00     +5.354831E+00 +7.510396E-01 +2.302220E+00     +3.479920E+00 +1.666229E+00 +5.212799E+00     +6.061860E+00 +1.336090E+00 +1.274289E+00     +6.061860E+00 +1.336090E+00 +1.274289E+00     +6.061860E+00 +1.336090E+00 +1.274289E+00     +6.061860E+00 +1.336090E+00 +1.274289E+00     +6.061860E+00 +1.336090E+00 +1.274289E+00     +4.465460E+00 +1.407840E+00 +3.380230E+00     +4.465460E+00 +1.407840E+00 +3.380230E+00    
 +4.225140E+00 +1.382261E+00 +3.163409E+00     +3.215650E+00 +1.546719E+00 +1.366820E+00     +3.215650E+00 +1.546719E+00 +1.366820E+00     +3.215650E+00 +1.546719E+00 +1.366820E+00     +3.045771E+00 +1.771399E+00 +5.542501E+00     +3.045771E+00 +1.771399E+00 +5.542501E+00     +7.809755E-01 +1.321310E+00 +6.078340E+00     +7.809755E-01 +1.321310E+00 +6.078340E+00     +7.809755E-01 +1.321310E+00 +6.078340E+00     +3.382630E+00 +2.983171E+00 +5.703999E+00     +5.354831E+00 +7.510396E-01 +2.302220E+00     +5.354831E+00 +7.510396E-01 +2.302220E+00     +5.354831E+00 +7.510396E-01 +2.302220E+00     +3.382630E+00 +2.983171E+00 +5.703999E+00     +6.061860E+00 +1.336090E+00 +1.274289E+00     +6.061860E+00 +1.336090E+00 +1.274289E+00     +6.061860E+00 +1.336090E+00 +1.274289E+00     +6.061860E+00 +1.336090E+00 +1.274289E+00     +6.061860E+00 +1.336090E+00 +1.274289E+00     +6.061860E+00 +1.336090E+00 +1.274289E+00     +4.225140E+00 +1.382261E+00 +3.163409E+00    
 +4.225140E+00 +1.382261E+00 +3.163409E+00     +5.938350E+00 +3.025460E+00 +1.453730E+00     +5.938350E+00 +3.025460E+00 +1.453730E+00     +5.938350E+00 +3.025460E+00 +1.453730E+00     +2.287620E-01 +8.959333E-01 +4.001450E+00     +2.287620E-01 +8.959333E-01 +4.001450E+00     +7.809755E-01 +1.321310E+00 +6.078340E+00     +7.809755E-01 +1.321310E+00 +6.078340E+00     +3.382630E+00 +2.983171E+00 +5.703999E+00     +3.382630E+00 +2.983171E+00 +5.703999E+00     +3.382630E+00 +2.983171E+00 +5.703999E+00     +3.382630E+00 +2.983171E+00 +5.703999E+00     +3.382630E+00 +2.983171E+00 +5.703999E+00     +3.382630E+00 +2.983171E+00 +5.703999E+00     +1.257470E+00 +2.196211E+00 +1.616730E+00     +6.061860E+00 +1.336090E+00 +1.274289E+00     +6.061860E+00 +1.336090E+00 +1.274289E+00     +6.061860E+00 +1.336090E+00 +1.274289E+00     +6.061860E+00 +1.336090E+00 +1.274289E+00     +6.061860E+00 +1.336090E+00 +1.274289E+00     +4.225140E+00 +1.382261E+00 +3.163409E+00    
 +5.938350E+00 +3.025460E+00 +1.453730E+00     +5.938350E+00 +3.025460E+00 +1.453730E+00     +5.938350E+00 +3.025460E+00 +1.453730E+00     +5.938350E+00 +3.025460E+00 +1.453730E+00     +2.287620E-01 +8.959333E-01 +4.001450E+00     +2.287620E-01 +8.959333E-01 +4.001450E+00     +1.242140E+00 +6.487214E-01 +2.650963E-01     +1.242140E+00 +6.487214E-01 +2.650963E-01     +5.400150E+00 +1.024931E+00 +1.593920E+00     +3.382630E+00 +2.983171E+00 +5.703999E+00     +3.382630E+00 +2.983171E+00 +5.703999E+00     +3.382630E+00 +2.983171E+00 +5.703999E+00     +3.382630E+00 +2.983171E+00 +5.703999E+00     +1.257470E+00 +2.196211E+00 +1.616730E+00     +1.257470E+00 +2.196211E+00 +1.616730E+00     +1.257470E+00 +2.196211E+00 +1.616730E+00     +1.257470E+00 +2.196211E+00 +1.616730E+00     +4.284520E+00 +1.543060E+00 +3.243520E+00     +4.284520E+00 +1.543060E+00 +3.243520E+00     +4.284520E+00 +1.543060E+00 +3.243520E+00     +4.284520E+00 +1.543060E+00 +3.243520E+00    
 +2.322279E+00 +1.183578E-01 +5.142279E+00     +2.322279E+00 +1.183578E-01 +5.142279E+00     +5.938350E+00 +3.025460E+00 +1.453730E+00     +2.287620E-01 +8.959333E-01 +4.001450E+00     +2.287620E-01 +8.959333E-01 +4.001450E+00     +2.287620E-01 +8.959333E-01 +4.001450E+00     +1.242140E+00 +6.487214E-01 +2.650963E-01     +1.242140E+00 +6.487214E-01 +2.650963E-01     +5.400150E+00 +1.024931E+00 +1.593920E+00     +5.400150E+00 +1.024931E+00 +1.593920E+00     +3.382630E+00 +2.983171E+00 +5.703999E+00     +3.382630E+00 +2.983171E+00 +5.703999E+00     +3.382630E+00 +2.983171E+00 +5.703999E+00     +1.257470E+00 +2.196211E+00 +1.616730E+00     +1.257470E+00 +2.196211E+00 +1.616730E+00     +1.257470E+00 +2.196211E+00 +1.616730E+00     +1.257470E+00 +2.196211E+00 +1.616730E+00     +4.284520E+00 +1.543060E+00 +3.243520E+00     +4.284520E+00 +1.543060E+00 +3.243520E+00     +4.284520E+00 +1.543060E+00 +3.243520E+00     +4.284520E+00 +1.543060E+00 +3.243520E+00    
 +2.322279E+00 +1.183578E-01 +5.142279E+00     +2.322279E+00 +1.183578E-01 +5.142279E+00     +2.322279E+00 +1.183578E-01 +5.142279E+00     +2.287620E-01 +8.959333E-01 +4.001450E+00     +2.287620E-01 +8.959333E-01 +4.001450E+00     +2.287620E-01 +8.959333E-01 +4.001450E+00     +1.242140E+00 +6.487214E-01 +2.650963E-01     +1.242140E+00 +6.487214E-01 +2.650963E-01     +5.400150E+00 +1.024931E+00 +1.593920E+00     +5.400150E+00 +1.024931E+00 +1.593920E+00     +5.400150E+00 +1.024931E+00 +1.593920E+00     +3.382630E+00 +2.983171E+00 +5.703999E+00     +1.257470E+00 +2.196211E+00 +1.616730E+00     +1.257470E+00 +2.196211E+00 +1.616730E+00     +1.257470E+00 +2.196211E+00 +1.616730E+00     +1.257470E+00 +2.196211E+00 +1.616730E+00     +1.257470E+00 +2.196211E+00 +1.616730E+00     +4.284520E+00 +1.543060E+00 +3.243520E+00     +4.284520E+00 +1.543060E+00 +3.243520E+00     +3.158290E+00 +9.270875E-01 +4.146730E+00     +3.158290E+00 +9.270875E-01 +4.146730E+00    
 +2.322279E+00 +1.183578E-01 +5.142279E+00     +2.322279E+00 +1.183578E-01 +5.142279E+00     +2.322279E+00 +1.183578E-01 +5.142279E+00     +2.322279E+00 +1.183578E-01 +5.142279E+00     +2.287620E-01 +8.959333E-01 +4.001450E+00     +2.287620E-01 +8.959333E-01 +4.001450E+00     +1.242140E+00 +6.487214E-01 +2.650963E-01     +1.242140E+00 +6.487214E-01 +2.650963E-01     +5.400150E+00 +1.024931E+00 +1.593920E+00     +5.400150E+00 +1.024931E+00 +1.593920E+00     +5.400150E+00 +1.024931E+00 +1.593920E+00     +1.257470E+00 +2.196211E+00 +1.616730E+00     +1.257470E+00 +2.196211E+00 +1.616730E+00     +1.257470E+00 +2.196211E+00 +1.616730E+00     +1.257470E+00 +2.196211E+00 +1.616730E+00     +1.257470E+00 +2.196211E+00 +1.616730E+00     +1.257470E+00 +2.196211E+00 +1.616730E+00     +1.965630E+00 +2.237580E+00 +1.848070E+00     +1.965630E+00 +2.237580E+00 +1.848070E+00     +3.158290E+00 +9.270875E-01 +4.146730E+00     +3.158290E+00 +9.270875E-01 +4.146730E+00    
 +2.322279E+00 +1.183578E-01 +5.142279E+00     +2.322279E+00 +1.183578E-01 +5.142279E+00     +2.322279E+00 +1.183578E-01 +5.142279E+00     +2.322279E+00 +1.183578E-01 +5.142279E+00     +2.322279E+00 +1.183578E-01 +5.142279E+00     +4.449281E+00 +3.704584E-01 +2.769490E+00     +1.242140E+00 +6.487214E-01 +2.650963E-01     +5.804571E+00 +9.694606E-01 +1.866090E+00     +1.242140E+00 +6.487214E-01 +2.650963E-01     +5.400150E+00 +1.024931E+00 +1.593920E+00     +5.400150E+00 +1.024931E+00 +1.593920E+00     +1.257470E+00 +2.196211E+00 +1.616730E+00     +1.257470E+00 +2.196211E+00 +1.616730E+00     +1.257470E+00 +2.196211E+00 +1.616730E+00     +1.257470E+00 +2.196211E+00 +1.616730E+00     +1.257470E+00 +2.196211E+00 +1.616730E+00     +1.965630E+00 +2.237580E+00 +1.848070E+00     +1.965630E+00 +2.237580E+00 +1.848070E+00     +1.965630E+00 +2.237580E+00 +1.848070E+00     +1.965630E+00 +2.237580E+00 +1.848070E+00     +1.965630E+00 +2.237580E+00 +1.848070E+00    
 +2.322279E+00 +1.183578E-01 +5.142279E+00     +2.322279E+00 +1.183578E-01 +5.142279E+00     +2.322279E+00 +1.183578E-01 +5.142279E+00     +2.322279E+00 +1.183578E-01 +5.142279E+00     +4.449281E+00 +3.704584E-01 +2.769490E+00     +4.449281E+00 +3.704584E-01 +2.769490E+00     +5.804571E+00 +9.694606E-01 +1.866090E+00     +5.804571E+00 +9.694606E-01 +1.866090E+00     +5.804571E+00 +9.694606E-01 +1.866090E+00     +5.400150E+00 +1.024931E+00 +1.593920E+00     +5.400150E+00 +1.024931E+00 +1.593920E+00     +1.257470E+00 +2.196211E+00 +1.616730E+00     +1.257470E+00 +2.196211E+00 +1.616730E+00     +1.257470E+00 +2.196211E+00 +1.616730E+00     +1.257470E+00 +2.196211E+00 +1.616730E+00     +1.257470E+00 +2.196211E+00 +1.616730E+00     +1.965630E+00 +2.237580E+00 +1.848070E+00     +1.965630E+00 +2.237580E+00 +1.848070E+00     +1.965630E+00 +2.237580E+00 +1.848070E+00     +5.831260E+00 +1.723621E+00 +3.931590E+00     +1.965630E+00 +2.237580E+00 +1.848070E+00    
 +2.322279E+00 +1.183578E-01 +5.142279E+00     +2.322279E+00 +1.183578E-01 +5.142279E+00     +2.322279E+00 +1.183578E-01 +5.142279E+00     +2.322279E+00 +1.183578E-01 +5.142279E+00     +2.322279E+00 +1.183578E-01 +5.142279E+00     +4.449281E+00 +3.704584E-01 +2.769490E+00     +4.299280E+00 +9.850045E-01 +2.890799E+00     +5.804571E+00 +9.694606E-01 +1.866090E+00     +4.299280E+00 +9.850045E-01 +2.890799E+00     +4.299280E+00 +9.850045E-01 +2.890799E+00     +3.410539E+00 +9.633903E-01 +6.286885E-01     +4.683410E+00 +1.912020E+00 +4.247760E+00     +4.683410E+00 +1.912020E+00 +4.247760E+00     +2.105790E+00 +6.473322E-01 +5.527269E+00     +2.105790E+00 +6.473322E-01 +5.527269E+00     +1.965630E+00 +2.237580E+00 +1.848070E+00     +1.965630E+00 +2.237580E+00 +1.848070E+00     +1.965630E+00 +2.237580E+00 +1.848070E+00     +1.965630E+00 +2.237580E+00 +1.848070E+00     +1.965630E+00 +2.237580E+00 +1.848070E+00     +1.965630E+00 +2.237580E+00 +1.848070E+00    
 +2.322279E+00 +1.183578E-01 +5.142279E+00     +2.322279E+00 +1.183578E-01 +5.142279E+00     +2.322279E+00 +1.183578E-01 +5.142279E+00     +2.322279E+00 +1.183578E-01 +5.142279E+00     +4.881440E+00 +2.973851E+00 +5.034610E+00     +4.299280E+00 +9.850045E-01 +2.890799E+00     +4.299280E+00 +9.850045E-01 +2.890799E+00     +4.299280E+00 +9.850045E-01 +2.890799E+00     +4.299280E+00 +9.850045E-01 +2.890799E+00     +4.299280E+00 +9.850045E-01 +2.890799E+00     +3.410539E+00 +9.633903E-01 +6.286885E-01     +2.105790E+00 +6.473322E-01 +5.527269E+00     +2.105790E+00 +6.473322E-01 +5.527269E+00     +2.105790E+00 +6.473322E-01 +5.527269E+00     +2.105790E+00 +6.473322E-01 +5.527269E+00     +2.105790E+00 +6.473322E-01 +5.527269E+00     +2.105790E+00 +6.473322E-01 +5.527269E+00     +1.965630E+00 +2.237580E+00 +1.848070E+00     +2.593263E-01 +1.744610E+00 +1.877301E+00     +2.593263E-01 +1.744610E+00 +1.877301E+00     +2.593263E-01 +1.744610E+00 +1.877301E+00    
 +2.322279E+00 +1.183578E-01 +5.142279E+00     +2.322279E+00 +1.183578E-01 +5.142279E+00     +2.322279E+00 +1.183578E-01 +5.142279E+00     +4.881440E+00 +2.973851E+00 +5.034610E+00     +4.881440E+00 +2.973851E+00 +5.034610E+00     +4.881440E+00 +2.973851E+00 +5.034610E+00     +4.299280E+00 +9.850045E-01 +2.890799E+00     +4.299280E+00 +9.850045E-01 +2.890799E+00     +4.299280E+00 +9.850045E-01 +2.890799E+00     +9.651758E-01 +1.219830E+00 +2.566240E+00     +3.410539E+00 +9.633903E-01 +6.286885E-01     +2.105790E+00 +6.473322E-01 +5.527269E+00     +1.930961E+00 +1.529690E+00 +2.736430E+00     +2.105790E+00 +6.473322E-01 +5.527269E+00     +2.105790E+00 +6.473322E-01 +5.527269E+00     +2.105790E+00 +6.473322E-01 +5.527269E+00     +2.105790E+00 +6.473322E-01 +5.527269E+00     +1.965630E+00 +2.237580E+00 +1.848070E+00     +2.593263E-01 +1.744610E+00 +1.877301E+00     +2.593263E-01 +1.744610E+00 +1.877301E+00     +2.593263E-01 +1.744610E+00 +1.877301E+00    
 +2.322279E+00 +1.183578E-01 +5.142279E+00     +2.322279E+00 +1.183578E-01 +5.142279E+00     +2.322279E+00 +1.183578E-01 +5.142279E+00     +4.881440E+00 +2.973851E+00 +5.034610E+00     +4.881440E+00 +2.973851E+00 +5.034610E+00     +4.881440E+00 +2.973851E+00 +5.034610E+00     +4.299280E+00 +9.850045E-01 +2.890799E+00     +4.299280E+00 +9.850045E-01 +2.890799E+00     +4.299280E+00 +9.850045E-01 +2.890799E+00     +9.651758E-01 +1.219830E+00 +2.566240E+00     +9.651758E-01 +1.219830E+00 +2.566240E+00     +2.105790E+00 +6.473322E-01 +5.527269E+00     +2.105790E+00 +6.473322E-01 +5.527269E+00     +2.105790E+00 +6.473322E-01 +5.527269E+00     +2.105790E+00 +6.473322E-01 +5.527269E+00     +2.105790E+00 +6.473322E-01 +5.527269E+00     +2.105790E+00 +6.473322E-01 +5.527269E+00     +3.310951E+00 +5.815804E-01 +4.265421E+00     +2.593263E-01 +1.744610E+00 +1.877301E+00     +2.593263E-01 +1.744610E+00 +1.877301E+00     +2.593263E-01 +1.744610E+00 +1.877301E+00    
 +5.138010E+00 +1.343350E+00 +1.951891E+00     +5.138010E+00 +1.343350E+00 +1.951891E+00     +5.138010E+00 +1.343350E+00 +1.951891E+00     +4.881440E+00 +2.973851E+00 +5.034610E+00     +4.881440E+00 +2.973851E+00 +5.034610E+00     +4.881440E+00 +2.973851E+00 +5.034610E+00     +4.299280E+00 +9.850045E-01 +2.890799E+00     +4.299280E+00 +9.850045E-01 +2.890799E+00     +4.299280E+00 +9.850045E-01 +2.890799E+00     +9.651758E-01 +1.219830E+00 +2.566240E+00     +3.410539E+00 +9.633903E-01 +6.286885E-01     +2.105790E+00 +6.473322E-01 +5.527269E+00     +2.105790E+00 +6.473322E-01 +5.527269E+00     +2.105790E+00 +6.473322E-01 +5.527269E+00     +2.105790E+00 +6.473322E-01 +5.527269E+00     +2.105790E+00 +6.473322E-01 +5.527269E+00     +2.105790E+00 +6.473322E-01 +5.527269E+00     +4.487301E+00 +1.771249E+00 +4.998571E+00     +3.868631E+00 +2.330819E+00 +3.753090E+00     +2.177860E+00 +9.589939E-01 +4.821070E+00     +2.177860E+00 +9.589939E-01 +4.821070E+00    
 +3.436520E+00 +1.891780E+00 +5.593100E+00     +3.436520E+00 +1.891780E+00 +5.593100E+00     +3.436520E+00 +1.891780E+00 +5.593100E+00     +4.881440E+00 +2.973851E+00 +5.034610E+00     +4.881440E+00 +2.973851E+00 +5.034610E+00     +4.299280E+00 +9.850045E-01 +2.890799E+00     +4.299280E+00 +9.850045E-01 +2.890799E+00     +4.299280E+00 +9.850045E-01 +2.890799E+00     +4.299280E+00 +9.850045E-01 +2.890799E+00     +4.299280E+00 +9.850045E-01 +2.890799E+00     +3.410539E+00 +9.633903E-01 +6.286885E-01     +2.105790E+00 +6.473322E-01 +5.527269E+00     +2.105790E+00 +6.473322E-01 +5.527269E+00     +2.105790E+00 +6.473322E-01 +5.527269E+00     +2.105790E+00 +6.473322E-01 +5.527269E+00     +2.105790E+00 +6.473322E-01 +5.527269E+00     +4.487301E+00 +1.771249E+00 +4.998571E+00     +4.487301E+00 +1.771249E+00 +4.998571E+00     +4.487301E+00 +1.771249E+00 +4.998571E+00     +2.177860E+00 +9.589939E-01 +4.821070E+00     +2.177860E+00 +9.589939E-01 +4.821070E+00    
 +3.436520E+00 +1.891780E+00 +5.593100E+00     +3.436520E+00 +1.891780E+00 +5.593100E+00     +3.436520E+00 +1.891780E+00 +5.593100E+00     +3.436520E+00 +1.891780E+00 +5.593100E+00     +4.881440E+00 +2.973851E+00 +5.034610E+00     +4.299280E+00 +9.850045E-01 +2.890799E+00     +4.299280E+00 +9.850045E-01 +2.890799E+00     +4.299280E+00 +9.850045E-01 +2.890799E+00     +4.299280E+00 +9.850045E-01 +2.890799E+00     +4.299280E+00 +9.850045E-01 +2.890799E+00     +3.410539E+00 +9.633903E-01 +6.286885E-01     +2.105790E+00 +6.473322E-01 +5.527269E+00     +6.194441E+00 +4.528937E-01 +4.405160E+00     +6.194441E+00 +4.528937E-01 +4.405160E+00     +6.194441E+00 +4.528937E-01 +4.405160E+00     +4.487301E+00 +1.771249E+00 +4.998571E+00     +4.487301E+00 +1.771249E+00 +4.998571E+00     +2.075921E+00 +5.109731E-01 +4.872919E+00     +2.075921E+00 +5.109731E-01 +4.872919E+00     +2.075921E+00 +5.109731E-01 +4.872919E+00     +2.177860E+00 +9.589939E-01 +4.821070E+00    
 +3.436520E+00 +1.891780E+00 +5.593100E+00     +3.436520E+00 +1.891780E+00 +5.593100E+00     +3.436520E+00 +1.891780E+00 +5.593100E+00     +3.436520E+00 +1.891780E+00 +5.593100E+00     +4.881440E+00 +2.973851E+00 +5.034610E+00     +1.585410E+00 +1.724919E+00 +3.745440E+00     +1.585410E+00 +1.724919E+00 +3.745440E+00     +1.585410E+00 +1.724919E+00 +3.745440E+00     +1.585410E+00 +1.724919E+00 +3.745440E+00     +1.585410E+00 +1.724919E+00 +3.745440E+00     +3.758950E+00 +1.131211E+00 +3.495980E+00     +6.194441E+00 +4.528937E-01 +4.405160E+00     +6.194441E+00 +4.528937E-01 +4.405160E+00     +6.194441E+00 +4.528937E-01 +4.405160E+00     +6.194441E+00 +4.528937E-01 +4.405160E+00     +4.487301E+00 +1.771249E+00 +4.998571E+00     +2.075921E+00 +5.109731E-01 +4.872919E+00     +2.075921E+00 +5.109731E-01 +4.872919E+00     +2.075921E+00 +5.109731E-01 +4.872919E+00     +2.075921E+00 +5.109731E-01 +4.872919E+00     +2.075921E+00 +5.109731E-01 +4.872919E+00    
 +3.436520E+00 +1.891780E+00 +5.593100E+00     +3.436520E+00 +1.891780E+00 +5.593100E+00     +3.436520E+00 +1.891780E+00 +5.593100E+00     +3.436520E+00 +1.891780E+00 +5.593100E+00     +1.585410E+00 +1.724919E+00 +3.745440E+00     +1.585410E+00 +1.724919E+00 +3.745440E+00     +1.585410E+00 +1.724919E+00 +3.745440E+00     +1.585410E+00 +1.724919E+00 +3.745440E+00     +1.585410E+00 +1.724919E+00 +3.745440E+00     +3.758950E+00 +1.131211E+00 +3.495980E+00     +3.479920E+00 +1.666229E+00 +5.212799E+00     +3.479920E+00 +1.666229E+00 +5.212799E+00     +3.479920E+00 +1.666229E+00 +5.212799E+00     +1.447506E-01 +7.757657E-01 +9.525362E-01     +1.447506E-01 +7.757657E-01 +9.525362E-01     +3.210339E+00 +2.023261E+00 +5.578230E+00     +2.075921E+00 +5.109731E-01 +4.872919E+00     +2.075921E+00 +5.109731E-01 +4.872919E+00     +2.075921E+00 +5.109731E-01 +4.872919E+00     +4.465460E+00 +1.407840E+00 +3.380230E+00     +5.835107E-01 +6.701733E-01 +2.399269E-01    
 +5.835107E-01 +6.701733E-01 +2.399269E-01     +5.835107E-01 +6.701733E-01 +2.399269E-01     +2.283500E+00 +1.905899E+00 +4.867119E+00     +2.283500E+00 +1.905899E+00 +4.867119E+00     +2.283500E+00 +1.905899E+00 +4.867119E+00     +3.045771E+00 +1.771399E+00 +5.542501E+00     +4.112849E+00 +1.965209E+00 +3.785350E+00     +4.112849E+00 +1.965209E+00 +3.785350E+00     +3.758950E+00 +1.131211E+00 +3.495980E+00     +3.479920E+00 +1.666229E+00 +5.212799E+00     +3.479920E+00 +1.666229E+00 +5.212799E+00     +3.479920E+00 +1.666229E+00 +5.212799E+00     +1.447506E-01 +7.757657E-01 +9.525362E-01     +1.447506E-01 +7.757657E-01 +9.525362E-01     +1.447506E-01 +7.757657E-01 +9.525362E-01     +4.465460E+00 +1.407840E+00 +3.380230E+00     +4.465460E+00 +1.407840E+00 +3.380230E+00     +4.465460E+00 +1.407840E+00 +3.380230E+00     +4.465460E+00 +1.407840E+00 +3.380230E+00     +4.465460E+00 +1.407840E+00 +3.380230E+00     +5.835107E-01 +6.701733E-01 +2.399269E-01    
 +5.835107E-01 +6.701733E-01 +2.399269E-01     +5.835107E-01 +6.701733E-01 +2.399269E-01     +2.283500E+00 +1.905899E+00 +4.867119E+00     +2.283500E+00 +1.905899E+00 +4.867119E+00     +2.283500E+00 +1.905899E+00 +4.867119E+00     +3.045771E+00 +1.771399E+00 +5.542501E+00     +3.045771E+00 +1.771399E+00 +5.542501E+00     +3.758950E+00 +1.131211E+00 +3.495980E+00     +3.758950E+00 +1.131211E+00 +3.495980E+00     +3.479920E+00 +1.666229E+00 +5.212799E+00     +3.479920E+00 +1.666229E+00 +5.212799E+00     +3.479920E+00 +1.666229E+00 +5.212799E+00     +3.479920E+00 +1.666229E+00 +5.212799E+00     +1.447506E-01 +7.757657E-01 +9.525362E-01     +1.447506E-01 +7.757657E-01 +9.525362E-01     +4.465460E+00 +1.407840E+00 +3.380230E+00     +4.465460E+00 +1.407840E+00 +3.380230E+00     +4.465460E+00 +1.407840E+00 +3.380230E+00     +4.465460E+00 +1.407840E+00 +3.380230E+00     +4.465460E+00 +1.407840E+00 +3.380230E+00     +5.835107E-01 +6.701733E-01 +2.399269E-01    
 +5.835107E-01 +6.701733E-01 +2.399269E-01     +5.835107E-01 +6.701733E-01 +2.399269E-01     +2.283500E+00 +1.905899E+00 +4.867119E+00     +2.283500E+00 +1.905899E+00 +4.867119E+00     +2.283500E+00 +1.905899E+00 +4.867119E+00     +4.604489E+00 +1.104820E+00 +5.910870E+00     +3.045771E+00 +1.771399E+00 +5.542501E+00     +7.809755E-01 +1.321310E+00 +6.078340E+00     +7.809755E-01 +1.321310E+00 +6.078340E+00     +5.354831E+00 +7.510396E-01 +2.302220E+00     +5.354831E+00 +7.510396E-01 +2.302220E+00     +3.479920E+00 +1.666229E+00 +5.212799E+00     +3.479920E+00 +1.666229E+00 +5.212799E+00     +3.479920E+00 +1.666229E+00 +5.212799E+00     +3.479920E+00 +1.666229E+00 +5.212799E+00     +6.061860E+00 +1.336090E+00 +1.274289E+00     +6.061860E+00 +1.336090E+00 +1.274289E+00     +4.465460E+00 +1.407840E+00 +3.380230E+00     +4.465460E+00 +1.407840E+00 +3.380230E+00     +4.465460E+00 +1.407840E+00 +3.380230E+00     +5.835107E-01 +6.701733E-01 +2.399269E-01    
 +5.835107E-01 +6.701733E-01 +2.399269E-01     +5.835107E-01 +6.701733E-01 +2.399269E-01     +2.283500E+00 +1.905899E+00 +4.867119E+00     +2.283500E+00 +1.905899E+00 +4.867119E+00     +2.283500E+00 +1.905899E+00 +4.867119E+00     +3.045771E+00 +1.771399E+00 +5.542501E+00     +7.809755E-01 +1.321310E+00 +6.078340E+00     +7.809755E-01 +1.321310E+00 +6.078340E+00     +7.809755E-01 +1.321310E+00 +6.078340E+00     +5.354831E+00 +7.510396E-01 +2.302220E+00     +5.354831E+00 +7.510396E-01 +2.302220E+00     +5.354831E+00 +7.510396E-01 +2.302220E+00     +5.354831E+00 +7.510396E-01 +2.302220E+00     +5.354831E+00 +7.510396E-01 +2.302220E+00     +6.061860E+00 +1.336090E+00 +1.274289E+00     +6.061860E+00 +1.336090E+00 +1.274289E+00     +6.061860E+00 +1.336090E+00 +1.274289E+00     +6.061860E+00 +1.336090E+00 +1.274289E+00     +4.465460E+00 +1.407840E+00 +3.380230E+00     +4.465460E+00 +1.407840E+00 +3.380230E+00     +5.835107E-01 +6.701733E-01 +2.399269E-01    
 +5.835107E-01 +6.701733E-01 +2.399269E-01     +3.215650E+00 +1.546719E+00 +1.366820E+00     +3.215650E+00 +1.546719E+00 +1.366820E+00     +3.215650E+00 +1.546719E+00 +1.366820E+00     +3.215650E+00 +1.546719E+00 +1.366820E+00     +3.215650E+00 +1.546719E+00 +1.366820E+00     +7.809755E-01 +1.321310E+00 +6.078340E+00     +7.809755E-01 +1.321310E+00 +6.078340E+00     +7.809755E-01 +1.321310E+00 +6.078340E+00     +5.354831E+00 +7.510396E-01 +2.302220E+00     +5.354831E+00 +7.510396E-01 +2.302220E+00     +5.354831E+00 +7.510396E-01 +2.302220E+00     +5.354831E+00 +7.510396E-01 +2.302220E+00     +5.354831E+00 +7.510396E-01 +2.302220E+00     +5.354831E+00 +7.510396E-01 +2.302220E+00     +6.061860E+00 +1.336090E+00 +1.274289E+00     +6.061860E+00 +1.336090E+00 +1.274289E+00     +6.061860E+00 +1.336090E+00 +1.274289E+00     +6.061860E+00 +1.336090E+00 +1.274289E+00     +6.061860E+00 +1.336090E+00 +1.274289E+00     +5.835107E-01 +6.701733E-01 +2.399269E-01    
 +3.215650E+00 +1.546719E+00 +1.366820E+00     +3.215650E+00 +1.546719E+00 +1.366820E+00     +3.215650E+00 +1.546719E+00 +1.366820E+00     +3.215650E+00 +1.546719E+00 +1.366820E+00     +3.215650E+00 +1.546719E+00 +1.366820E+00     +7.809755E-01 +1.321310E+00 +6.078340E+00     +7.809755E-01 +1.321310E+00 +6.078340E+00     +7.809755E-01 +1.321310E+00 +6.078340E+00     +7.809755E-01 +1.321310E+00 +6.078340E+00     +3.382630E+00 +2.983171E+00 +5.703999E+00     +5.354831E+00 +7.510396E-01 +2.302220E+00     +5.354831E+00 +7.510396E-01 +2.302220E+00     +5.354831E+00 +7.510396E-01 +2.302220E+00     +1.257470E+00 +2.196211E+00 +1.616730E+00     +1.257470E+00 +2.196211E+00 +1.616730E+00     +1.257470E+00 +2.196211E+00 +1.616730E+00     +6.061860E+00 +1.336090E+00 +1.274289E+00     +6.061860E+00 +1.336090E+00 +1.274289E+00     +6.061860E+00 +1.336090E+00 +1.274289E+00     +6.061860E+00 +1.336090E+00 +1.274289E+00     +5.835107E-01 +6.701733E-01 +2.399269E-01    
 +5.938350E+00 +3.025460E+00 +1.453730E+00     +5.938350E+00 +3.025460E+00 +1.453730E+00     +5.938350E+00 +3.025460E+00 +1.453730E+00     +5.938350E+00 +3.025460E+00 +1.453730E+00     +5.938350E+00 +3.025460E+00 +1.453730E+00     +2.287620E-01 +8.959333E-01 +4.001450E+00     +1.242140E+00 +6.487214E-01 +2.650963E-01     +4.328380E+00 +7.867718E-01 +3.099659E+00     +1.242140E+00 +6.487214E-01 +2.650963E-01     +3.382630E+00 +2.983171E+00 +5.703999E+00     +3.382630E+00 +2.983171E+00 +5.703999E+00     +3.382630E+00 +2.983171E+00 +5.703999E+00     +3.382630E+00 +2.983171E+00 +5.703999E+00     +1.257470E+00 +2.196211E+00 +1.616730E+00     +1.257470E+00 +2.196211E+00 +1.616730E+00     +1.257470E+00 +2.196211E+00 +1.616730E+00     +1.257470E+00 +2.196211E+00 +1.616730E+00     +1.257470E+00 +2.196211E+00 +1.616730E+00     +4.284520E+00 +1.543060E+00 +3.243520E+00     +4.284520E+00 +1.543060E+00 +3.243520E+00     +1.965630E+00 +2.237580E+00 +1.848070E+00    
 +2.322279E+00 +1.183578E-01 +5.142279E+00     +2.322279E+00 +1.183578E-01 +5.142279E+00     +5.938350E+00 +3.025460E+00 +1.453730E+00     +5.938350E+00 +3.025460E+00 +1.453730E+00     +2.287620E-01 +8.959333E-01 +4.001450E+00     +2.287620E-01 +8.959333E-01 +4.001450E+00     +1.242140E+00 +6.487214E-01 +2.650963E-01     +1.242140E+00 +6.487214E-01 +2.650963E-01     +1.242140E+00 +6.487214E-01 +2.650963E-01     +5.400150E+00 +1.024931E+00 +1.593920E+00     +3.382630E+00 +2.983171E+00 +5.703999E+00     +3.382630E+00 +2.983171E+00 +5.703999E+00     +1.257470E+00 +2.196211E+00 +1.616730E+00     +1.257470E+00 +2.196211E+00 +1.616730E+00     +1.257470E+00 +2.196211E+00 +1.616730E+00     +1.257470E+00 +2.196211E+00 +1.616730E+00     +1.257470E+00 +2.196211E+00 +1.616730E+00     +1.257470E+00 +2.196211E+00 +1.616730E+00     +4.284520E+00 +1.543060E+00 +3.243520E+00     +4.284520E+00 +1.543060E+00 +3.243520E+00     +1.965630E+00 +2.237580E+00 +1.848070E+00    
 +2.322279E+00 +1.183578E-01 +5.142279E+00     +2.322279E+00 +1.183578E-01 +5.142279E+00     +2.322279E+00 +1.183578E-01 +5.142279E+00     +1.351901E+00 +7.177108E-01 +1.413870E+00     +2.287620E-01 +8.959333E-01 +4.001450E+00     +2.287620E-01 +8.959333E-01 +4.001450E+00     +1.242140E+00 +6.487214E-01 +2.650963E-01     +1.242140E+00 +6.487214E-01 +2.650963E-01     +1.242140E+00 +6.487214E-01 +2.650963E-01     +5.400150E+00 +1.024931E+00 +1.593920E+00     +5.400150E+00 +1.024931E+00 +1.593920E+00     +1.257470E+00 +2.196211E+00 +1.616730E+00     +1.257470E+00 +2.196211E+00 +1.616730E+00     +1.257470E+00 +2.196211E+00 +1.616730E+00     +1.257470E+00 +2.196211E+00 +1.616730E+00     +1.257470E+00 +2.196211E+00 +1.616730E+00     +1.257470E+00 +2.196211E+00 +1.616730E+00     +1.965630E+00 +2.237580E+00 +1.848070E+00     +1.965630E+00 +2.237580E+00 +1.848070E+00     +1.965630E+00 +2.237580E+00 +1.848070E+00     +1.965630E+00 +2.237580E+00 +1.848070E+00    
 +2.322279E+00 +1.183578E-01 +5.142279E+00     +2.322279E+00 +1.183578E-01 +5.142279E+00     +2.322279E+00 +1.183578E-01 +5.142279E+00     +2.322279E+00 +1.183578E-01 +5.142279E+00     +2.287620E-01 +8.959333E-01 +4.001450E+00     +2.287620E-01 +8.959333E-01 +4.001450E+00     +1.242140E+00 +6.487214E-01 +2.650963E-01     +1.242140E+00 +6.487214E-01 +2.650963E-01     +1.242140E+00 +6.487214E-01 +2.650963E-01     +5.400150E+00 +1.024931E+00 +1.593920E+00     +5.400150E+00 +1.024931E+00 +1.593920E+00     +1.257470E+00 +2.196211E+00 +1.616730E+00     +1.257470E+00 +2.196211E+00 +1.616730E+00     +1.257470E+00 +2.196211E+00 +1.616730E+00     +1.257470E+00 +2.196211E+00 +1.616730E+00     +1.257470E+00 +2.196211E+00 +1.616730E+00     +1.257470E+00 +2.196211E+00 +1.616730E+00     +1.965630E+00 +2.237580E+00 +1.848070E+00     +1.965630E+00 +2.237580E+00 +1.848070E+00     +1.965630E+00 +2.237580E+00 +1.848070E+00     +1.965630E+00 +2.237580E+00 +1.848070E+00    
 +2.322279E+00 +1.183578E-01 +5.142279E+00     +2.322279E+00 +1.183578E-01 +5.142279E+00     +2.322279E+00 +1.183578E-01 +5.142279E+00     +2.322279E+00 +1.183578E-01 +5.142279E+00     +2.322279E+00 +1.183578E-01 +5.142279E+00     +4.449281E+00 +3.704584E-01 +2.769490E+00     +1.242140E+00 +6.487214E-01 +2.650963E-01     +1.242140E+00 +6.487214E-01 +2.650963E-01     +1.242140E+00 +6.487214E-01 +2.650963E-01     +5.400150E+00 +1.024931E+00 +1.593920E+00     +5.400150E+00 +1.024931E+00 +1.593920E+00     +1.257470E+00 +2.196211E+00 +1.616730E+00     +1.257470E+00 +2.196211E+00 +1.616730E+00     +1.257470E+00 +2.196211E+00 +1.616730E+00     +1.257470E+00 +2.196211E+00 +1.616730E+00     +1.257470E+00 +2.196211E+00 +1.616730E+00     +1.965630E+00 +2.237580E+00 +1.848070E+00     +1.965630E+00 +2.237580E+00 +1.848070E+00     +1.965630E+00 +2.237580E+00 +1.848070E+00     +1.965630E+00 +2.237580E+00 +1.848070E+00     +1.965630E+00 +2.237580E+00 +1.848070E+00    
 +2.322279E+00 +1.183578E-01 +5.142279E+00     +2.322279E+00 +1.183578E-01 +5.142279E+00     +2.322279E+00 +1.183578E-01 +5.142279E+00     +2.322279E+00 +1.183578E-01 +5.142279E+00     +2.322279E+00 +1.183578E-01 +5.142279E+00     +4.449281E+00 +3.704584E-01 +2.769490E+00     +4.449281E+00 +3.704584E-01 +2.769490E+00     +5.804571E+00 +9.694606E-01 +1.866090E+00     +5.804571E+00 +9.694606E-01 +1.866090E+00     +5.400150E+00 +1.024931E+00 +1.593920E+00     +5.400150E+00 +1.024931E+00 +1.593920E+00     +1.257470E+00 +2.196211E+00 +1.616730E+00     +1.257470E+00 +2.196211E+00 +1.616730E+00     +1.257470E+00 +2.196211E+00 +1.616730E+00     +1.257470E+00 +2.196211E+00 +1.616730E+00     +1.257470E+00 +2.196211E+00 +1.616730E+00     +1.965630E+00 +2.237580E+00 +1.848070E+00     +1.965630E+00 +2.237580E+00 +1.848070E+00     +1.965630E+00 +2.237580E+00 +1.848070E+00     +1.965630E+00 +2.237580E+00 +1.848070E+00     +1.965630E+00 +2.237580E+00 +1.848070E+00    
 +2.322279E+00 +1.183578E-01 +5.142279E+00     +2.322279E+00 +1.183578E-01 +5.142279E+00     +2.322279E+00 +1.183578E-01 +5.142279E+00     +2.322279E+00 +1.183578E-01 +5.142279E+00     +2.322279E+00 +1.183578E-01 +5.142279E+00     +4.449281E+00 +3.704584E-01 +2.769490E+00     +4.299280E+00 +9.850045E-01 +2.890799E+00     +4.299280E+00 +9.850045E-01 +2.890799E+00     +4.299280E+00 +9.850045E-01 +2.890799E+00     +4.299280E+00 +9.850045E-01 +2.890799E+00     +6.060300E+00 +2.163990E+00 +1.847630E+00     +2.105790E+00 +6.473322E-01 +5.527269E+00     +2.105790E+00 +6.473322E-01 +5.527269E+00     +2.105790E+00 +6.473322E-01 +5.527269E+00     +2.105790E+00 +6.473322E-01 +5.527269E+00     +2.105790E+00 +6.473322E-01 +5.527269E+00     +1.965630E+00 +2.237580E+00 +1.848070E+00     +1.965630E+00 +2.237580E+00 +1.848070E+00     +1.965630E+00 +2.237580E+00 +1.848070E+00     +1.965630E+00 +2.237580E+00 +1.848070E+00     +1.965630E+00 +2.237580E+00 +1.848070E+00    
 +2.322279E+00 +1.183578E-01 +5.142279E+00     +2.322279E+00 +1.183578E-01 +5.142279E+00     +2.322279E+00 +1.183578E-01 +5.142279E+00     +2.322279E+00 +1.183578E-01 +5.142279E+00     +2.322279E+00 +1.183578E-01 +5.142279E+00     +4.299280E+00 +9.850045E-01 +2.890799E+00     +4.299280E+00 +9.850045E-01 +2.890799E+00     +4.299280E+00 +9.850045E-01 +2.890799E+00     +4.299280E+00 +9.850045E-01 +2.890799E+00     +6.060300E+00 +2.163990E+00 +1.847630E+00     +6.060300E+00 +2.163990E+00 +1.847630E+00     +2.105790E+00 +6.473322E-01 +5.527269E+00     +1.930961E+00 +1.529690E+00 +2.736430E+00     +2.105790E+00 +6.473322E-01 +5.527269E+00     +2.105790E+00 +6.473322E-01 +5.527269E+00     +2.105790E+00 +6.473322E-01 +5.527269E+00     +2.105790E+00 +6.473322E-01 +5.527269E+00     +1.965630E+00 +2.237580E+00 +1.848070E+00     +1.965630E+00 +2.237580E+00 +1.848070E+00     +2.593263E-01 +1.744610E+00 +1.877301E+00     +1.965630E+00 +2.237580E+00 +1.848070E+00    
 +2.322279E+00 +1.183578E-01 +5.142279E+00     +2.322279E+00 +1.183578E-01 +5.142279E+00     +2.322279E+00 +1.183578E-01 +5.142279E+00     +4.881440E+00 +2.973851E+00 +5.034610E+00     +4.881440E+00 +2.973851E+00 +5.034610E+00     +4.881440E+00 +2.973851E+00 +5.034610E+00     +4.299280E+00 +9.850045E-01 +2.890799E+00     +4.299280E+00 +9.850045E-01 +2.890799E+00     +4.299280E+00 +9.850045E-01 +2.890799E+00     +6.060300E+00 +2.163990E+00 +1.847630E+00     +6.060300E+00 +2.163990E+00 +1.847630E+00     +2.105790E+00 +6.473322E-01 +5.527269E+00     +1.930961E+00 +1.529690E+00 +2.736430E+00     +1.930961E+00 +1.529690E+00 +2.736430E+00     +2.105790E+00 +6.473322E-01 +5.527269E+00     +2.105790E+00 +6.473322E-01 +5.527269E+00     +2.105790E+00 +6.473322E-01 +5.527269E+00     +1.965630E+00 +2.237580E+00 +1.848070E+00     +2.593263E-01 +1.744610E+00 +1.877301E+00     +2.593263E-01 +1.744610E+00 +1.877301E+00     +2.593263E-01 +1.744610E+00 +1.877301E+00    
 +5.041506E-01 +2.354709E+00 +2.561890E+00     +2.322279E+00 +1.183578E-01 +5.142279E+00     +2.322279E+00 +1.183578E-01 +5.142279E+00     +4.881440E+00 +2.973851E+00 +5.034610E+00     +4.881440E+00 +2.973851E+00 +5.034610E+00     +4.881440E+00 +2.973851E+00 +5.034610E+00     +4.299280E+00 +9.850045E-01 +2.890799E+00     +4.299280E+00 +9.850045E-01 +2.890799E+00     +4.299280E+00 +9.850045E-01 +2.890799E+00     +6.060300E+00 +2.163990E+00 +1.847630E+00     +6.060300E+00 +2.163990E+00 +1.847630E+00     +2.105790E+00 +6.473322E-01 +5.527269E+00     +1.930961E+00 +1.529690E+00 +2.736430E+00     +2.105790E+00 +6.473322E-01 +5.527269E+00     +2.105790E+00 +6.473322E-01 +5.527269E+00     +2.105790E+00 +6.473322E-01 +5.527269E+00     +2.105790E+00 +6.473322E-01 +5.527269E+00     +3.310951E+00 +5.815804E-01 +4.265421E+00     +5.041506E-01 +2.354709E+00 +2.561890E+00     +5.041506E-01 +2.354709E+00 +2.561890E+00     +5.041506E-01 +2.354709E+00 +2.561890E+00    
 +5.041506E-01 +2.354709E+00 +2.561890E+00     +3.436520E+00 +1.891780E+00 +5.593100E+00     +3.436520E+00 +1.891780E+00 +5.593100E+00     +4.881440E+00 +2.973851E+00 +5.034610E+00     +4.881440E+00 +2.973851E+00 +5.034610E+00     +4.881440E+00 +2.973851E+00 +5.034610E+00     +4.299280E+00 +9.850045E-01 +2.890799E+00     +4.299280E+00 +9.850045E-01 +2.890799E+00     +4.299280E+00 +9.850045E-01 +2.890799E+00     +6.060300E+00 +2.163990E+00 +1.847630E+00     +6.060300E+00 +2.163990E+00 +1.847630E+00     +2.105790E+00 +6.473322E-01 +5.527269E+00     +2.105790E+00 +6.473322E-01 +5.527269E+00     +2.105790E+00 +6.473322E-01 +5.527269E+00     +2.105790E+00 +6.473322E-01 +5.527269E+00     +2.105790E+00 +6.473322E-01 +5.527269E+00     +2.105790E+00 +6.473322E-01 +5.527269E+00     +2.105790E+00 +6.473322E-01 +5.527269E+00     +5.041506E-01 +2.354709E+00 +2.561890E+00     +5.041506E-01 +2.354709E+00 +2.561890E+00     +5.041506E-01 +2.354709E+00 +2.561890E+00    
 +3.436520E+00 +1.891780E+00 +5.593100E+00     +3.436520E+00 +1.891780E+00 +5.593100E+00     +3.436520E+00 +1.891780E+00 +5.593100E+00     +4.881440E+00 +2.973851E+00 +5.034610E+00     +4.881440E+00 +2.973851E+00 +5.034610E+00     +4.299280E+00 +9.850045E-01 +2.890799E+00     +4.299280E+00 +9.850045E-01 +2.890799E+00     +4.299280E+00 +9.850045E-01 +2.890799E+00     +4.299280E+00 +9.850045E-01 +2.890799E+00     +6.060300E+00 +2.163990E+00 +1.847630E+00     +6.060300E+00 +2.163990E+00 +1.847630E+00     +2.105790E+00 +6.473322E-01 +5.527269E+00     +2.105790E+00 +6.473322E-01 +5.527269E+00     +2.105790E+00 +6.473322E-01 +5.527269E+00     +2.105790E+00 +6.473322E-01 +5.527269E+00     +2.105790E+00 +6.473322E-01 +5.527269E+00     +2.105790E+00 +6.473322E-01 +5.527269E+00     +2.105790E+00 +6.473322E-01 +5.527269E+00     +5.041506E-01 +2.354709E+00 +2.561890E+00     +5.041506E-01 +2.354709E+00 +2.561890E+00     +2.177860E+00 +9.589939E-01 +4.821070E+00    
 +3.436520E+00 +1.891780E+00 +5.593100E+00     +3.436520E+00 +1.891780E+00 +5.593100E+00     +3.436520E+00 +1.891780E+00 +5.593100E+00     +3.436520E+00 +1.891780E+00 +5.593100E+00     +4.881440E+00 +2.973851E+00 +5.034610E+00     +4.299280E+00 +9.850045E-01 +2.890799E+00     +4.299280E+00 +9.850045E-01 +2.890799E+00     +4.299280E+00 +9.850045E-01 +2.890799E+00     +4.299280E+00 +9.850045E-01 +2.890799E+00     +3.758950E+00 +1.131211E+00 +3.495980E+00     +3.758950E+00 +1.131211E+00 +3.495980E+00     +2.105790E+00 +6.473322E-01 +5.527269E+00     +2.105790E+00 +6.473322E-01 +5.527269E+00     +2.105790E+00 +6.473322E-01 +5.527269E+00     +2.105790E+00 +6.473322E-01 +5.527269E+00     +2.105790E+00 +6.473322E-01 +5.527269E+00     +2.105790E+00 +6.473322E-01 +5.527269E+00     +2.075921E+00 +5.109731E-01 +4.872919E+00     +2.075921E+00 +5.109731E-01 +4.872919E+00     +5.041506E-01 +2.354709E+00 +2.561890E+00     +2.177860E+00 +9.589939E-01 +4.821070E+00    
 +3.436520E+00 +1.891780E+00 +5.593100E+00     +3.436520E+00 +1.891780E+00 +5.593100E+00     +7.364801E-01 +2.806779E+00 +3.325250E+00     +7.364801E-01 +2.806779E+00 +3.325250E+00     +7.364801E-01 +2.806779E+00 +3.325250E+00     +1.585410E+00 +1.724919E+00 +3.745440E+00     +1.585410E+00 +1.724919E+00 +3.745440E+00     +3.758950E+00 +1.131211E+00 +3.495980E+00     +3.758950E+00 +1.131211E+00 +3.495980E+00     +3.758950E+00 +1.131211E+00 +3.495980E+00     +3.758950E+00 +1.131211E+00 +3.495980E+00     +3.758950E+00 +1.131211E+00 +3.495980E+00     +6.194441E+00 +4.528937E-01 +4.405160E+00     +6.194441E+00 +4.528937E-01 +4.405160E+00     +6.194441E+00 +4.528937E-01 +4.405160E+00     +4.487301E+00 +1.771249E+00 +4.998571E+00     +2.075921E+00 +5.109731E-01 +4.872919E+00     +2.075921E+00 +5.109731E-01 +4.872919E+00     +2.075921E+00 +5.109731E-01 +4.872919E+00     +5.835107E-01 +6.701733E-01 +2.399269E-01     +5.835107E-01 +6.701733E-01 +2.399269E-01    
 +5.835107E-01 +6.701733E-01 +2.399269E-01     +3.436520E+00 +1.891780E+00 +5.593100E+00     +7.364801E-01 +2.806779E+00 +3.325250E+00     +1.458450E+00 +1.405009E+00 +2.669589E+00     +1.458450E+00 +1.405009E+00 +2.669589E+00     +3.758950E+00 +1.131211E+00 +3.495980E+00     +3.758950E+00 +1.131211E+00 +3.495980E+00     +3.758950E+00 +1.131211E+00 +3.495980E+00     +3.758950E+00 +1.131211E+00 +3.495980E+00     +3.758950E+00 +1.131211E+00 +3.495980E+00     +3.758950E+00 +1.131211E+00 +3.495980E+00     +3.479920E+00 +1.666229E+00 +5.212799E+00     +1.447506E-01 +7.757657E-01 +9.525362E-01     +1.447506E-01 +7.757657E-01 +9.525362E-01     +1.447506E-01 +7.757657E-01 +9.525362E-01     +1.447506E-01 +7.757657E-01 +9.525362E-01     +2.075921E+00 +5.109731E-01 +4.872919E+00     +2.075921E+00 +5.109731E-01 +4.872919E+00     +5.835107E-01 +6.701733E-01 +2.399269E-01     +5.835107E-01 +6.701733E-01 +2.399269E-01     +5.835107E-01 +6.701733E-01 +2.399269E-01    
 +5.835107E-01 +6.701733E-01 +2.399269E-01     +5.835107E-01 +6.701733E-01 +2.399269E-01     +1.458450E+00 +1.405009E+00 +2.669589E+00     +1.458450E+00 +1.405009E+00 +2.669589E+00     +1.458450E+00 +1.405009E+00 +2.669589E+00     +1.458450E+00 +1.405009E+00 +2.669589E+00     +3.758950E+00 +1.131211E+00 +3.495980E+00     +3.758950E+00 +1.131211E+00 +3.495980E+00     +3.758950E+00 +1.131211E+00 +3.495980E+00     +3.758950E+00 +1.131211E+00 +3.495980E+00     +3.758950E+00 +1.131211E+00 +3.495980E+00     +3.479920E+00 +1.666229E+00 +5.212799E+00     +1.447506E-01 +7.757657E-01 +9.525362E-01     +1.447506E-01 +7.757657E-01 +9.525362E-01     +1.447506E-01 +7.757657E-01 +9.525362E-01     +1.447506E-01 +7.757657E-01 +9.525362E-01     +4.465460E+00 +1.407840E+00 +3.380230E+00     +4.465460E+00 +1.407840E+00 +3.380230E+00     +5.835107E-01 +6.701733E-01 +2.399269E-01     +5.835107E-01 +6.701733E-01 +2.399269E-01     +5.835107E-01 +6.701733E-01 +2.399269E-01    
 +5.835107E-01 +6.701733E-01 +2.399269E-01     +5.835107E-01 +6.701733E-01 +2.399269E-01     +5.835107E-01 +6.701733E-01 +2.399269E-01     +2.283500E+00 +1.905899E+00 +4.867119E+00     +2.283500E+00 +1.905899E+00 +4.867119E+00     +3.045771E+00 +1.771399E+00 +5.542501E+00     +3.758950E+00 +1.131211E+00 +3.495980E+00     +3.758950E+00 +1.131211E+00 +3.495980E+00     +3.758950E+00 +1.131211E+00 +3.495980E+00     +3.758950E+00 +1.131211E+00 +3.495980E+00     +3.758950E+00 +1.131211E+00 +3.495980E+00     +5.053200E+00 +2.278360E+00 +8.272494E-01     +1.447506E-01 +7.757657E-01 +9.525362E-01     +1.447506E-01 +7.757657E-01 +9.525362E-01     +1.447506E-01 +7.757657E-01 +9.525362E-01     +4.465460E+00 +1.407840E+00 +3.380230E+00     +4.440599E+00 +1.314250E+00 +3.000511E+00     +4.440599E+00 +1.314250E+00 +3.000511E+00     +5.835107E-01 +6.701733E-01 +2.399269E-01     +5.835107E-01 +6.701733E-01 +2.399269E-01     +5.835107E-01 +6.701733E-01 +2.399269E-01    
 +5.835107E-01 +6.701733E-01 +2.399269E-01     +5.835107E-01 +6.701733E-01 +2.399269E-01     +2.283500E+00 +1.905899E+00 +4.867119E+00     +2.283500E+00 +1.905899E+00 +4.867119E+00     +2.283500E+00 +1.905899E+00 +4.867119E+00     +4.604489E+00 +1.104820E+00 +5.910870E+00     +6.950512E-01 +1.125559E+00 +6.052470E-01     +3.758950E+00 +1.131211E+00 +3.495980E+00     +3.758950E+00 +1.131211E+00 +3.495980E+00     +3.758950E+00 +1.131211E+00 +3.495980E+00     +5.053200E+00 +2.278360E+00 +8.272494E-01     +5.053200E+00 +2.278360E+00 +8.272494E-01     +5.053200E+00 +2.278360E+00 +8.272494E-01     +3.479920E+00 +1.666229E+00 +5.212799E+00     +3.479920E+00 +1.666229E+00 +5.212799E+00     +6.061860E+00 +1.336090E+00 +1.274289E+00     +4.440599E+00 +1.314250E+00 +3.000511E+00     +4.440599E+00 +1.314250E+00 +3.000511E+00     +4.440599E+00 +1.314250E+00 +3.000511E+00     +5.835107E-01 +6.701733E-01 +2.399269E-01     +5.835107E-01 +6.701733E-01 +2.399269E-01    
 +5.835107E-01 +6.701733E-01 +2.399269E-01     +5.835107E-01 +6.701733E-01 +2.399269E-01     +3.215650E+00 +1.546719E+00 +1.366820E+00     +3.215650E+00 +1.546719E+00 +1.366820E+00     +3.215650E+00 +1.546719E+00 +1.366820E+00     +3.215650E+00 +1.546719E+00 +1.366820E+00     +7.809755E-01 +1.321310E+00 +6.078340E+00     +7.809755E-01 +1.321310E+00 +6.078340E+00     +7.809755E-01 +1.321310E+00 +6.078340E+00     +5.354831E+00 +7.510396E-01 +2.302220E+00     +5.354831E+00 +7.510396E-01 +2.302220E+00     +5.354831E+00 +7.510396E-01 +2.302220E+00     +5.354831E+00 +7.510396E-01 +2.302220E+00     +5.354831E+00 +7.510396E-01 +2.302220E+00     +5.354831E+00 +7.510396E-01 +2.302220E+00     +6.061860E+00 +1.336090E+00 +1.274289E+00     +4.440599E+00 +1.314250E+00 +3.000511E+00     +4.440599E+00 +1.314250E+00 +3.000511E+00     +4.440599E+00 +1.314250E+00 +3.000511E+00     +5.835107E-01 +6.701733E-01 +2.399269E-01     +5.835107E-01 +6.701733E-01 +2.399269E-01    
 +5.835107E-01 +6.701733E-01 +2.399269E-01     +3.215650E+00 +1.546719E+00 +1.366820E+00     +3.215650E+00 +1.546719E+00 +1.366820E+00     +3.215650E+00 +1.546719E+00 +1.366820E+00     +3.215650E+00 +1.546719E+00 +1.366820E+00     +3.215650E+00 +1.546719E+00 +1.366820E+00     +7.809755E-01 +1.321310E+00 +6.078340E+00     +7.809755E-01 +1.321310E+00 +6.078340E+00     +7.809755E-01 +1.321310E+00 +6.078340E+00     +5.354831E+00 +7.510396E-01 +2.302220E+00     +5.354831E+00 +7.510396E-01 +2.302220E+00     +5.354831E+00 +7.510396E-01 +2.302220E+00     +5.354831E+00 +7.510396E-01 +2.302220E+00     +5.354831E+00 +7.510396E-01 +2.302220E+00     +5.354831E+00 +7.510396E-01 +2.302220E+00     +6.061860E+00 +1.336090E+00 +1.274289E+00     +6.061860E+00 +1.336090E+00 +1.274289E+00     +6.061860E+00 +1.336090E+00 +1.274289E+00     +6.061860E+00 +1.336090E+00 +1.274289E+00     +5.835107E-01 +6.701733E-01 +2.399269E-01     +5.835107E-01 +6.701733E-01 +2.399269E-01    
 +3.215650E+00 +1.546719E+00 +1.366820E+00     +3.215650E+00 +1.546719E+00 +1.366820E+00     +3.215650E+00 +1.546719E+00 +1.366820E+00     +3.215650E+00 +1.546719E+00 +1.366820E+00     +3.215650E+00 +1.546719E+00 +1.366820E+00     +3.215650E+00 +1.546719E+00 +1.366820E+00     +7.809755E-01 +1.321310E+00 +6.078340E+00     +7.809755E-01 +1.321310E+00 +6.078340E+00     +7.809755E-01 +1.321310E+00 +6.078340E+00     +5.560235E-01 +9.892072E-01 +3.192029E+00     +5.560235E-01 +9.892072E-01 +3.192029E+00     +5.560235E-01 +9.892072E-01 +3.192029E+00     +5.560235E-01 +9.892072E-01 +3.192029E+00     +1.257470E+00 +2.196211E+00 +1.616730E+00     +1.257470E+00 +2.196211E+00 +1.616730E+00     +1.257470E+00 +2.196211E+00 +1.616730E+00     +6.061860E+00 +1.336090E+00 +1.274289E+00     +6.061860E+00 +1.336090E+00 +1.274289E+00     +6.061860E+00 +1.336090E+00 +1.274289E+00     +5.835107E-01 +6.701733E-01 +2.399269E-01     +5.835107E-01 +6.701733E-01 +2.399269E-01    
 +2.322279E+00 +1.183578E-01 +5.142279E+00     +3.215650E+00 +1.546719E+00 +1.366820E+00     +4.152540E+00 +3.637894E-01 +2.961279E+00     +4.152540E+00 +3.637894E-01 +2.961279E+00     +4.152540E+00 +3.637894E-01 +2.961279E+00     +2.287620E-01 +8.959333E-01 +4.001450E+00     +1.242140E+00 +6.487214E-01 +2.650963E-01     +1.242140E+00 +6.487214E-01 +2.650963E-01     +1.242140E+00 +6.487214E-01 +2.650963E-01     +5.560235E-01 +9.892072E-01 +3.192029E+00     +5.560235E-01 +9.892072E-01 +3.192029E+00     +5.560235E-01 +9.892072E-01 +3.192029E+00     +5.560235E-01 +9.892072E-01 +3.192029E+00     +1.257470E+00 +2.196211E+00 +1.616730E+00     +1.257470E+00 +2.196211E+00 +1.616730E+00     +1.257470E+00 +2.196211E+00 +1.616730E+00     +1.257470E+00 +2.196211E+00 +1.616730E+00     +1.257470E+00 +2.196211E+00 +1.616730E+00     +2.278807E-01 +1.351590E+00 +4.007510E+00     +2.278807E-01 +1.351590E+00 +4.007510E+00     +2.278807E-01 +1.351590E+00 +4.007510E+00    
 +2.322279E+00 +1.183578E-01 +5.142279E+00     +2.322279E+00 +1.183578E-01 +5.142279E+00     +2.322279E+00 +1.183578E-01 +5.142279E+00     +4.152540E+00 +3.637894E-01 +2.961279E+00     +2.287620E-01 +8.959333E-01 +4.001450E+00     +2.287620E-01 +8.959333E-01 +4.001450E+00     +1.242140E+00 +6.487214E-01 +2.650963E-01     +1.242140E+00 +6.487214E-01 +2.650963E-01     +1.242140E+00 +6.487214E-01 +2.650963E-01     +1.242140E+00 +6.487214E-01 +2.650963E-01     +5.560235E-01 +9.892072E-01 +3.192029E+00     +5.560235E-01 +9.892072E-01 +3.192029E+00     +1.257470E+00 +2.196211E+00 +1.616730E+00     +1.257470E+00 +2.196211E+00 +1.616730E+00     +1.257470E+00 +2.196211E+00 +1.616730E+00     +1.257470E+00 +2.196211E+00 +1.616730E+00     +1.257470E+00 +2.196211E+00 +1.616730E+00     +1.257470E+00 +2.196211E+00 +1.616730E+00     +2.278807E-01 +1.351590E+00 +4.007510E+00     +2.278807E-01 +1.351590E+00 +4.007510E+00     +2.278807E-01 +1.351590E+00 +4.007510E+00    
 +2.322279E+00 +1.183578E-01 +5.142279E+00     +2.322279E+00 +1.183578E-01 +5.142279E+00     +2.322279E+00 +1.183578E-01 +5.142279E+00     +2.322279E+00 +1.183578E-01 +5.142279E+00     +2.287620E-01 +8.959333E-01 +4.001450E+00     +2.287620E-01 +8.959333E-01 +4.001450E+00     +1.242140E+00 +6.487214E-01 +2.650963E-01     +1.242140E+00 +6.487214E-01 +2.650963E-01     +1.242140E+00 +6.487214E-01 +2.650963E-01     +1.242140E+00 +6.487214E-01 +2.650963E-01     +1.257470E+00 +2.196211E+00 +1.616730E+00     +1.257470E+00 +2.196211E+00 +1.616730E+00     +1.257470E+00 +2.196211E+00 +1.616730E+00     +1.257470E+00 +2.196211E+00 +1.616730E+00     +1.257470E+00 +2.196211E+00 +1.616730E+00     +1.257470E+00 +2.196211E+00 +1.616730E+00     +1.257470E+00 +2.196211E+00 +1.616730E+00     +1.257470E+00 +2.196211E+00 +1.616730E+00     +2.278807E-01 +1.351590E+00 +4.007510E+00     +2.278807E-01 +1.351590E+00 +4.007510E+00     +2.278807E-01 +1.351590E+00 +4.007510E+00    
 +2.322279E+00 +1.183578E-01 +5.142279E+00     +2.322279E+00 +1.183578E-01 +5.142279E+00     +2.322279E+00 +1.183578E-01 +5.142279E+00     +2.322279E+00 +1.183578E-01 +5.142279E+00     +2.287620E-01 +8.959333E-01 +4.001450E+00     +2.287620E-01 +8.959333E-01 +4.001450E+00     +1.242140E+00 +6.487214E-01 +2.650963E-01     +1.242140E+00 +6.487214E-01 +2.650963E-01     +1.242140E+00 +6.487214E-01 +2.650963E-01     +1.242140E+00 +6.487214E-01 +2.650963E-01     +1.257470E+00 +2.196211E+00 +1.616730E+00     +1.257470E+00 +2.196211E+00 +1.616730E+00     +1.257470E+00 +2.196211E+00 +1.616730E+00     +1.257470E+00 +2.196211E+00 +1.616730E+00     +1.257470E+00 +2.196211E+00 +1.616730E+00     +1.257470E+00 +2.196211E+00 +1.616730E+00     +1.257470E+00 +2.196211E+00 +1.616730E+00     +1.965630E+00 +2.237580E+00 +1.848070E+00     +1.965630E+00 +2.237580E+00 +1.848070E+00     +1.965630E+00 +2.237580E+00 +1.848070E+00     +1.965630E+00 +2.237580E+00 +1.848070E+00    
 +2.322279E+00 +1.183578E-01 +5.142279E+00     +2.322279E+00 +1.183578E-01 +5.142279E+00     +2.322279E+00 +1.183578E-01 +5.142279E+00     +2.322279E+00 +1.183578E-01 +5.142279E+00     +2.322279E+00 +1.183578E-01 +5.142279E+00     +4.449281E+00 +3.704584E-01 +2.769490E+00     +1.114019E+00 +9.085102E-01 +5.696470E+00     +1.114019E+00 +9.085102E-01 +5.696470E+00     +1.114019E+00 +9.085102E-01 +5.696470E+00     +1.114019E+00 +9.085102E-01 +5.696470E+00     +1.257470E+00 +2.196211E+00 +1.616730E+00     +1.257470E+00 +2.196211E+00 +1.616730E+00     +1.257470E+00 +2.196211E+00 +1.616730E+00     +1.257470E+00 +2.196211E+00 +1.616730E+00     +1.257470E+00 +2.196211E+00 +1.616730E+00     +1.257470E+00 +2.196211E+00 +1.616730E+00     +1.965630E+00 +2.237580E+00 +1.848070E+00     +1.965630E+00 +2.237580E+00 +1.848070E+00     +1.965630E+00 +2.237580E+00 +1.848070E+00     +1.965630E+00 +2.237580E+00 +1.848070E+00     +1.965630E+00 +2.237580E+00 +1.848070E+00    
 +2.322279E+00 +1.183578E-01 +5.142279E+00     +2.322279E+00 +1.183578E-01 +5.142279E+00     +2.322279E+00 +1.183578E-01 +5.142279E+00     +2.322279E+00 +1.183578E-01 +5.142279E+00     +2.322279E+00 +1.183578E-01 +5.142279E+00     +4.449281E+00 +3.704584E-01 +2.769490E+00     +4.449281E+00 +3.704584E-01 +2.769490E+00     +5.804571E+00 +9.694606E-01 +1.866090E+00     +1.114019E+00 +9.085102E-01 +5.696470E+00     +1.114019E+00 +9.085102E-01 +5.696470E+00     +1.257470E+00 +2.196211E+00 +1.616730E+00     +1.257470E+00 +2.196211E+00 +1.616730E+00     +1.257470E+00 +2.196211E+00 +1.616730E+00     +1.257470E+00 +2.196211E+00 +1.616730E+00     +1.257470E+00 +2.196211E+00 +1.616730E+00     +2.105790E+00 +6.473322E-01 +5.527269E+00     +1.965630E+00 +2.237580E+00 +1.848070E+00     +1.965630E+00 +2.237580E+00 +1.848070E+00     +1.965630E+00 +2.237580E+00 +1.848070E+00     +2.538630E+00 +2.996119E-01 +4.839250E+00     +1.965630E+00 +2.237580E+00 +1.848070E+00    
 +2.322279E+00 +1.183578E-01 +5.142279E+00     +2.322279E+00 +1.183578E-01 +5.142279E+00     +2.322279E+00 +1.183578E-01 +5.142279E+00     +2.322279E+00 +1.183578E-01 +5.142279E+00     +2.322279E+00 +1.183578E-01 +5.142279E+00     +4.449281E+00 +3.704584E-01 +2.769490E+00     +4.299280E+00 +9.850045E-01 +2.890799E+00     +4.299280E+00 +9.850045E-01 +2.890799E+00     +4.299280E+00 +9.850045E-01 +2.890799E+00     +6.060300E+00 +2.163990E+00 +1.847630E+00     +6.060300E+00 +2.163990E+00 +1.847630E+00     +2.105790E+00 +6.473322E-01 +5.527269E+00     +2.105790E+00 +6.473322E-01 +5.527269E+00     +2.105790E+00 +6.473322E-01 +5.527269E+00     +2.105790E+00 +6.473322E-01 +5.527269E+00     +2.105790E+00 +6.473322E-01 +5.527269E+00     +2.105790E+00 +6.473322E-01 +5.527269E+00     +1.965630E+00 +2.237580E+00 +1.848070E+00     +1.965630E+00 +2.237580E+00 +1.848070E+00     +1.965630E+00 +2.237580E+00 +1.848070E+00     +1.965630E+00 +2.237580E+00 +1.848070E+00    
 +2.322279E+00 +1.183578E-01 +5.142279E+00     +2.322279E+00 +1.183578E-01 +5.142279E+00     +2.322279E+00 +1.183578E-01 +5.142279E+00     +2.322279E+00 +1.183578E-01 +5.142279E+00     +4.299280E+00 +9.850045E-01 +2.890799E+00     +4.299280E+00 +9.850045E-01 +2.890799E+00     +4.299280E+00 +9.850045E-01 +2.890799E+00     +4.299280E+00 +9.850045E-01 +2.890799E+00     +6.060300E+00 +2.163990E+00 +1.847630E+00     +6.060300E+00 +2.163990E+00 +1.847630E+00     +6.060300E+00 +2.163990E+00 +1.847630E+00     +2.105790E+00 +6.473322E-01 +5.527269E+00     +1.930961E+00 +1.529690E+00 +2.736430E+00     +2.105790E+00 +6.473322E-01 +5.527269E+00     +2.105790E+00 +6.473322E-01 +5.527269E+00     +2.105790E+00 +6.473322E-01 +5.527269E+00     +2.105790E+00 +6.473322E-01 +5.527269E+00     +1.965630E+00 +2.237580E+00 +1.848070E+00     +1.965630E+00 +2.237580E+00 +1.848070E+00     +1.965630E+00 +2.237580E+00 +1.848070E+00     +1.965630E+00 +2.237580E+00 +1.848070E+00    
 +5.041506E-01 +2.354709E+00 +2.561890E+00     +2.322279E+00 +1.183578E-01 +5.142279E+00     +2.322279E+00 +1.183578E-01 +5.142279E+00     +2.322279E+00 +1.183578E-01 +5.142279E+00     +4.299280E+00 +9.850045E-01 +2.890799E+00     +4.299280E+00 +9.850045E-01 +2.890799E+00     +4.299280E+00 +9.850045E-01 +2.890799E+00     +4.299280E+00 +9.850045E-01 +2.890799E+00     +6.060300E+00 +2.163990E+00 +1.847630E+00     +6.060300E+00 +2.163990E+00 +1.847630E+00     +6.060300E+00 +2.163990E+00 +1.847630E+00     +2.105790E+00 +6.473322E-01 +5.527269E+00     +1.930961E+00 +1.529690E+00 +2.736430E+00     +1.930961E+00 +1.529690E+00 +2.736430E+00     +2.105790E+00 +6.473322E-01 +5.527269E+00     +2.105790E+00 +6.473322E-01 +5.527269E+00     +2.105790E+00 +6.473322E-01 +5.527269E+00     +5.041506E-01 +2.354709E+00 +2.561890E+00     +5.041506E-01 +2.354709E+00 +2.561890E+00     +5.041506E-01 +2.354709E+00 +2.561890E+00     +5.041506E-01 +2.354709E+00 +2.561890E+00    
 +5.041506E-01 +2.354709E+00 +2.561890E+00     +5.041506E-01 +2.354709E+00 +2.561890E+00     +2.322279E+00 +1.183578E-01 +5.142279E+00     +4.299280E+00 +9.850045E-01 +2.890799E+00     +4.299280E+00 +9.850045E-01 +2.890799E+00     +4.299280E+00 +9.850045E-01 +2.890799E+00     +4.299280E+00 +9.850045E-01 +2.890799E+00     +4.299280E+00 +9.850045E-01 +2.890799E+00     +6.060300E+00 +2.163990E+00 +1.847630E+00     +6.060300E+00 +2.163990E+00 +1.847630E+00     +6.060300E+00 +2.163990E+00 +1.847630E+00     +2.105790E+00 +6.473322E-01 +5.527269E+00     +1.930961E+00 +1.529690E+00 +2.736430E+00     +1.930961E+00 +1.529690E+00 +2.736430E+00     +2.105790E+00 +6.473322E-01 +5.527269E+00     +2.105790E+00 +6.473322E-01 +5.527269E+00     +2.105790E+00 +6.473322E-01 +5.527269E+00     +5.041506E-01 +2.354709E+00 +2.561890E+00     +5.041506E-01 +2.354709E+00 +2.561890E+00     +5.041506E-01 +2.354709E+00 +2.561890E+00     +5.041506E-01 +2.354709E+00 +2.561890E+00    
 +5.041506E-01 +2.354709E+00 +2.561890E+00     +5.041506E-01 +2.354709E+00 +2.561890E+00     +7.364801E-01 +2.806779E+00 +3.325250E+00     +4.299280E+00 +9.850045E-01 +2.890799E+00     +4.299280E+00 +9.850045E-01 +2.890799E+00     +4.299280E+00 +9.850045E-01 +2.890799E+00     +4.299280E+00 +9.850045E-01 +2.890799E+00     +4.299280E+00 +9.850045E-01 +2.890799E+00     +6.060300E+00 +2.163990E+00 +1.847630E+00     +6.060300E+00 +2.163990E+00 +1.847630E+00     +6.060300E+00 +2.163990E+00 +1.847630E+00     +2.105790E+00 +6.473322E-01 +5.527269E+00     +2.105790E+00 +6.473322E-01 +5.527269E+00     +2.105790E+00 +6.473322E-01 +5.527269E+00     +2.105790E+00 +6.473322E-01 +5.527269E+00     +2.105790E+00 +6.473322E-01 +5.527269E+00     +2.105790E+00 +6.473322E-01 +5.527269E+00     +5.041506E-01 +2.354709E+00 +2.561890E+00     +5.041506E-01 +2.354709E+00 +2.561890E+00     +5.041506E-01 +2.354709E+00 +2.561890E+00     +5.041506E-01 +2.354709E+00 +2.561890E+00    
 +7.364801E-01 +2.806779E+00 +3.325250E+00     +7.364801E-01 +2.806779E+00 +3.325250E+00     +7.364801E-01 +2.806779E+00 +3.325250E+00     +7.364801E-01 +2.806779E+00 +3.325250E+00     +1.914110E+00 +1.422990E+00 +5.496099E+00     +1.914110E+00 +1.422990E+00 +5.496099E+00     +4.299280E+00 +9.850045E-01 +2.890799E+00     +4.299280E+00 +9.850045E-01 +2.890799E+00     +4.299280E+00 +9.850045E-01 +2.890799E+00     +6.060300E+00 +2.163990E+00 +1.847630E+00     +6.060300E+00 +2.163990E+00 +1.847630E+00     +2.105790E+00 +6.473322E-01 +5.527269E+00     +2.105790E+00 +6.473322E-01 +5.527269E+00     +2.105790E+00 +6.473322E-01 +5.527269E+00     +2.105790E+00 +6.473322E-01 +5.527269E+00     +2.105790E+00 +6.473322E-01 +5.527269E+00     +2.105790E+00 +6.473322E-01 +5.527269E+00     +5.041506E-01 +2.354709E+00 +2.561890E+00     +5.041506E-01 +2.354709E+00 +2.561890E+00     +5.041506E-01 +2.354709E+00 +2.561890E+00     +5.041506E-01 +2.354709E+00 +2.561890E+00    
 +7.364801E-01 +2.806779E+00 +3.325250E+00     +7.364801E-01 +2.806779E+00 +3.325250E+00     +7.364801E-01 +2.806779E+00 +3.325250E+00     +7.364801E-01 +2.806779E+00 +3.325250E+00     +1.914110E+00 +1.422990E+00 +5.496099E+00     +1.914110E+00 +1.422990E+00 +5.496099E+00     +1.914110E+00 +1.422990E+00 +5.496099E+00     +5.157350E+00 +1.765779E+00 +1.156281E+00     +4.299280E+00 +9.850045E-01 +2.890799E+00     +3.758950E+00 +1.131211E+00 +3.495980E+00     +3.758950E+00 +1.131211E+00 +3.495980E+00     +2.105790E+00 +6.473322E-01 +5.527269E+00     +2.105790E+00 +6.473322E-01 +5.527269E+00     +2.105790E+00 +6.473322E-01 +5.527269E+00     +2.105790E+00 +6.473322E-01 +5.527269E+00     +2.105790E+00 +6.473322E-01 +5.527269E+00     +2.105790E+00 +6.473322E-01 +5.527269E+00     +5.041506E-01 +2.354709E+00 +2.561890E+00     +5.041506E-01 +2.354709E+00 +2.561890E+00     +5.041506E-01 +2.354709E+00 +2.561890E+00     +5.041506E-01 +2.354709E+00 +2.561890E+00    
 +7.364801E-01 +2.806779E+00 +3.325250E+00     +7.364801E-01 +2.806779E+00 +3.325250E+00     +7.364801E-01 +2.806779E+00 +3.325250E+00     +7.364801E-01 +2.806779E+00 +3.325250E+00     +7.364801E-01 +2.806779E+00 +3.325250E+00     +1.914110E+00 +1.422990E+00 +5.496099E+00     +5.157350E+00 +1.765779E+00 +1.156281E+00     +5.157350E+00 +1.765779E+00 +1.156281E+00     +3.758950E+00 +1.131211E+00 +3.495980E+00     +3.758950E+00 +1.131211E+00 +3.495980E+00     +3.758950E+00 +1.131211E+00 +3.495980E+00     +3.758950E+00 +1.131211E+00 +3.495980E+00     +3.758950E+00 +1.131211E+00 +3.495980E+00     +6.194441E+00 +4.528937E-01 +4.405160E+00     +6.194441E+00 +4.528937E-01 +4.405160E+00     +2.105790E+00 +6.473322E-01 +5.527269E+00     +2.105790E+00 +6.473322E-01 +5.527269E+00     +2.075921E+00 +5.109731E-01 +4.872919E+00     +5.835107E-01 +6.701733E-01 +2.399269E-01     +5.835107E-01 +6.701733E-01 +2.399269E-01     +5.835107E-01 +6.701733E-01 +2.399269E-01    
 +5.835107E-01 +6.701733E-01 +2.399269E-01     +7.364801E-01 +2.806779E+00 +3.325250E+00     +7.364801E-01 +2.806779E+00 +3.325250E+00     +1.458450E+00 +1.405009E+00 +2.669589E+00     +1.458450E+00 +1.405009E+00 +2.669589E+00     +1.458450E+00 +1.405009E+00 +2.669589E+00     +3.758950E+00 +1.131211E+00 +3.495980E+00     +3.758950E+00 +1.131211E+00 +3.495980E+00     +3.758950E+00 +1.131211E+00 +3.495980E+00     +3.758950E+00 +1.131211E+00 +3.495980E+00     +3.758950E+00 +1.131211E+00 +3.495980E+00     +3.758950E+00 +1.131211E+00 +3.495980E+00     +3.758950E+00 +1.131211E+00 +3.495980E+00     +1.447506E-01 +7.757657E-01 +9.525362E-01     +1.447506E-01 +7.757657E-01 +9.525362E-01     +2.045610E+00 +1.109190E+00 +5.290170E+00     +2.045610E+00 +1.109190E+00 +5.290170E+00     +5.835107E-01 +6.701733E-01 +2.399269E-01     +5.835107E-01 +6.701733E-01 +2.399269E-01     +5.835107E-01 +6.701733E-01 +2.399269E-01     +5.835107E-01 +6.701733E-01 +2.399269E-01    
 +5.835107E-01 +6.701733E-01 +2.399269E-01     +5.835107E-01 +6.701733E-01 +2.399269E-01     +1.458450E+00 +1.405009E+00 +2.669589E+00     +1.458450E+00 +1.405009E+00 +2.669589E+00     +1.458450E+00 +1.405009E+00 +2.669589E+00     +1.458450E+00 +1.405009E+00 +2.669589E+00     +3.758950E+00 +1.131211E+00 +3.495980E+00     +3.758950E+00 +1.131211E+00 +3.495980E+00     +3.758950E+00 +1.131211E+00 +3.495980E+00     +3.758950E+00 +1.131211E+00 +3.495980E+00     +3.758950E+00 +1.131211E+00 +3.495980E+00     +3.758950E+00 +1.131211E+00 +3.495980E+00     +3.758950E+00 +1.131211E+00 +3.495980E+00     +1.447506E-01 +7.757657E-01 +9.525362E-01     +1.447506E-01 +7.757657E-01 +9.525362E-01     +2.045610E+00 +1.109190E+00 +5.290170E+00     +2.045610E+00 +1.109190E+00 +5.290170E+00     +5.835107E-01 +6.701733E-01 +2.399269E-01     +5.835107E-01 +6.701733E-01 +2.399269E-01     +5.835107E-01 +6.701733E-01 +2.399269E-01     +5.835107E-01 +6.701733E-01 +2.399269E-01    
 +5.835107E-01 +6.701733E-01 +2.399269E-01     +5.835107E-01 +6.701733E-01 +2.399269E-01     +1.458450E+00 +1.405009E+00 +2.669589E+00     +1.458450E+00 +1.405009E+00 +2.669589E+00     +1.458450E+00 +1.405009E+00 +2.669589E+00     +6.950512E-01 +1.125559E+00 +6.052470E-01     +3.758950E+00 +1.131211E+00 +3.495980E+00     +3.758950E+00 +1.131211E+00 +3.495980E+00     +3.758950E+00 +1.131211E+00 +3.495980E+00     +3.758950E+00 +1.131211E+00 +3.495980E+00     +3.758950E+00 +1.131211E+00 +3.495980E+00     +5.053200E+00 +2.278360E+00 +8.272494E-01     +5.053200E+00 +2.278360E+00 +8.272494E-01     +1.447506E-01 +7.757657E-01 +9.525362E-01     +1.447506E-01 +7.757657E-01 +9.525362E-01     +2.045610E+00 +1.109190E+00 +5.290170E+00     +4.440599E+00 +1.314250E+00 +3.000511E+00     +4.440599E+00 +1.314250E+00 +3.000511E+00     +4.440599E+00 +1.314250E+00 +3.000511E+00     +5.835107E-01 +6.701733E-01 +2.399269E-01     +5.835107E-01 +6.701733E-01 +2.399269E-01    
 +5.835107E-01 +6.701733E-01 +2.399269E-01     +5.835107E-01 +6.701733E-01 +2.399269E-01     +3.215650E+00 +1.546719E+00 +1.366820E+00     +3.215650E+00 +1.546719E+00 +1.366820E+00     +6.950512E-01 +1.125559E+00 +6.052470E-01     +6.950512E-01 +1.125559E+00 +6.052470E-01     +6.950512E-01 +1.125559E+00 +6.052470E-01     +3.758950E+00 +1.131211E+00 +3.495980E+00     +3.758950E+00 +1.131211E+00 +3.495980E+00     +3.758950E+00 +1.131211E+00 +3.495980E+00     +5.053200E+00 +2.278360E+00 +8.272494E-01     +5.053200E+00 +2.278360E+00 +8.272494E-01     +5.053200E+00 +2.278360E+00 +8.272494E-01     +1.211759E+00 +3.141589E+00 +1.492600E+00     +1.211759E+00 +3.141589E+00 +1.492600E+00     +4.440599E+00 +1.314250E+00 +3.000511E+00     +4.440599E+00 +1.314250E+00 +3.000511E+00     +4.440599E+00 +1.314250E+00 +3.000511E+00     +4.440599E+00 +1.314250E+00 +3.000511E+00     +5.835107E-01 +6.701733E-01 +2.399269E-01     +5.835107E-01 +6.701733E-01 +2.399269E-01    
 +5.835107E-01 +6.701733E-01 +2.399269E-01     +5.835107E-01 +6.701733E-01 +2.399269E-01     +3.215650E+00 +1.546719E+00 +1.366820E+00     +3.215650E+00 +1.546719E+00 +1.366820E+00     +3.215650E+00 +1.546719E+00 +1.366820E+00     +6.950512E-01 +1.125559E+00 +6.052470E-01     +6.950512E-01 +1.125559E+00 +6.052470E-01     +3.758950E+00 +1.131211E+00 +3.495980E+00     +3.758950E+00 +1.131211E+00 +3.495980E+00     +3.758950E+00 +1.131211E+00 +3.495980E+00     +5.053200E+00 +2.278360E+00 +8.272494E-01     +5.053200E+00 +2.278360E+00 +8.272494E-01     +5.053200E+00 +2.278360E+00 +8.272494E-01     +5.354831E+00 +7.510396E-01 +2.302220E+00     +5.354831E+00 +7.510396E-01 +2.302220E+00     +4.440599E+00 +1.314250E+00 +3.000511E+00     +4.440599E+00 +1.314250E+00 +3.000511E+00     +4.440599E+00 +1.314250E+00 +3.000511E+00     +4.440599E+00 +1.314250E+00 +3.000511E+00     +5.835107E-01 +6.701733E-01 +2.399269E-01     +5.835107E-01 +6.701733E-01 +2.399269E-01    
 +5.835107E-01 +6.701733E-01 +2.399269E-01     +3.215650E+00 +1.546719E+00 +1.366820E+00     +3.215650E+00 +1.546719E+00 +1.366820E+00     +3.281540E+00 +1.465940E+00 +4.276310E+00     +3.215650E+00 +1.546719E+00 +1.366820E+00     +3.215650E+00 +1.546719E+00 +1.366820E+00     +7.809755E-01 +1.321310E+00 +6.078340E+00     +7.809755E-01 +1.321310E+00 +6.078340E+00     +7.809755E-01 +1.321310E+00 +6.078340E+00     +5.560235E-01 +9.892072E-01 +3.192029E+00     +5.560235E-01 +9.892072E-01 +3.192029E+00     +7.390335E-01 +1.618220E+00 +1.758470E+00     +5.354831E+00 +7.510396E-01 +2.302220E+00     +5.354831E+00 +7.510396E-01 +2.302220E+00     +5.354831E+00 +7.510396E-01 +2.302220E+00     +4.440599E+00 +1.314250E+00 +3.000511E+00     +4.440599E+00 +1.314250E+00 +3.000511E+00     +4.440599E+00 +1.314250E+00 +3.000511E+00     +4.440599E+00 +1.314250E+00 +3.000511E+00     +5.835107E-01 +6.701733E-01 +2.399269E-01     +5.835107E-01 +6.701733E-01 +2.399269E-01    
 +3.215650E+00 +1.546719E+00 +1.366820E+00     +3.215650E+00 +1.546719E+00 +1.366820E+00     +3.215650E+00 +1.546719E+00 +1.366820E+00     +3.215650E+00 +1.546719E+00 +1.366820E+00     +3.215650E+00 +1.546719E+00 +1.366820E+00     +3.215650E+00 +1.546719E+00 +1.366820E+00     +3.215650E+00 +1.546719E+00 +1.366820E+00     +7.809755E-01 +1.321310E+00 +6.078340E+00     +5.560235E-01 +9.892072E-01 +3.192029E+00     +5.560235E-01 +9.892072E-01 +3.192029E+00     +5.560235E-01 +9.892072E-01 +3.192029E+00     +5.560235E-01 +9.892072E-01 +3.192029E+00     +5.560235E-01 +9.892072E-01 +3.192029E+00     +5.560235E-01 +9.892072E-01 +3.192029E+00     +1.257470E+00 +2.196211E+00 +1.616730E+00     +1.224610E+00 +1.377710E+00 +3.225890E+00     +1.224610E+00 +1.377710E+00 +3.225890E+00     +1.224610E+00 +1.377710E+00 +3.225890E+00     +4.440599E+00 +1.314250E+00 +3.000511E+00     +5.835107E-01 +6.701733E-01 +2.399269E-01     +5.835107E-01 +6.701733E-01 +2.399269E-01    
 +2.072921E+00 +2.692690E+00 +2.495990E+00     +3.215650E+00 +1.546719E+00 +1.366820E+00     +4.152540E+00 +3.637894E-01 +2.961279E+00     +4.506899E+00 +1.473110E+00 +3.913939E+00     +4.152540E+00 +3.637894E-01 +2.961279E+00     +3.215650E+00 +1.546719E+00 +1.366820E+00     +1.242140E+00 +6.487214E-01 +2.650963E-01     +1.242140E+00 +6.487214E-01 +2.650963E-01     +1.242140E+00 +6.487214E-01 +2.650963E-01     +5.560235E-01 +9.892072E-01 +3.192029E+00     +5.560235E-01 +9.892072E-01 +3.192029E+00     +5.560235E-01 +9.892072E-01 +3.192029E+00     +5.560235E-01 +9.892072E-01 +3.192029E+00     +5.560235E-01 +9.892072E-01 +3.192029E+00     +1.257470E+00 +2.196211E+00 +1.616730E+00     +1.257470E+00 +2.196211E+00 +1.616730E+00     +1.224610E+00 +1.377710E+00 +3.225890E+00     +2.278807E-01 +1.351590E+00 +4.007510E+00     +2.278807E-01 +1.351590E+00 +4.007510E+00     +2.278807E-01 +1.351590E+00 +4.007510E+00     +2.278807E-01 +1.351590E+00 +4.007510E+00    
 +2.072921E+00 +2.692690E+00 +2.495990E+00     +2.072921E+00 +2.692690E+00 +2.495990E+00     +4.152540E+00 +3.637894E-01 +2.961279E+00     +4.152540E+00 +3.637894E-01 +2.961279E+00     +4.152540E+00 +3.637894E-01 +2.961279E+00     +2.287620E-01 +8.959333E-01 +4.001450E+00     +1.242140E+00 +6.487214E-01 +2.650963E-01     +6.031421E-01 +1.663569E+00 +2.653550E+00     +1.114019E+00 +9.085102E-01 +5.696470E+00     +5.560235E-01 +9.892072E-01 +3.192029E+00     +5.560235E-01 +9.892072E-01 +3.192029E+00     +5.560235E-01 +9.892072E-01 +3.192029E+00     +5.560235E-01 +9.892072E-01 +3.192029E+00     +1.257470E+00 +2.196211E+00 +1.616730E+00     +1.257470E+00 +2.196211E+00 +1.616730E+00     +1.257470E+00 +2.196211E+00 +1.616730E+00     +1.257470E+00 +2.196211E+00 +1.616730E+00     +2.278807E-01 +1.351590E+00 +4.007510E+00     +2.278807E-01 +1.351590E+00 +4.007510E+00     +2.278807E-01 +1.351590E+00 +4.007510E+00     +2.278807E-01 +1.351590E+00 +4.007510E+00    
 +2.322279E+00 +1.183578E-01 +5.142279E+00     +2.322279E+00 +1.183578E-01 +5.142279E+00     +2.322279E+00 +1.183578E-01 +5.142279E+00     +4.152540E+00 +3.637894E-01 +2.961279E+00     +2.287620E-01 +8.959333E-01 +4.001450E+00     +2.287620E-01 +8.959333E-01 +4.001450E+00     +6.031421E-01 +1.663569E+00 +2.653550E+00     +6.031421E-01 +1.663569E+00 +2.653550E+00     +6.031421E-01 +1.663569E+00 +2.653550E+00     +1.114019E+00 +9.085102E-01 +5.696470E+00     +5.560235E-01 +9.892072E-01 +3.192029E+00     +1.257470E+00 +2.196211E+00 +1.616730E+00     +1.257470E+00 +2.196211E+00 +1.616730E+00     +1.257470E+00 +2.196211E+00 +1.616730E+00     +1.257470E+00 +2.196211E+00 +1.616730E+00     +1.257470E+00 +2.196211E+00 +1.616730E+00     +1.257470E+00 +2.196211E+00 +1.616730E+00     +2.278807E-01 +1.351590E+00 +4.007510E+00     +2.278807E-01 +1.351590E+00 +4.007510E+00     +2.278807E-01 +1.351590E+00 +4.007510E+00     +2.278807E-01 +1.351590E+00 +4.007510E+00    
 +2.322279E+00 +1.183578E-01 +5.142279E+00     +2.322279E+00 +1.183578E-01 +5.142279E+00     +2.322279E+00 +1.183578E-01 +5.142279E+00     +2.322279E+00 +1.183578E-01 +5.142279E+00     +2.287620E-01 +8.959333E-01 +4.001450E+00     +2.287620E-01 +8.959333E-01 +4.001450E+00     +1.114019E+00 +9.085102E-01 +5.696470E+00     +6.031421E-01 +1.663569E+00 +2.653550E+00     +1.114019E+00 +9.085102E-01 +5.696470E+00     +1.114019E+00 +9.085102E-01 +5.696470E+00     +1.257470E+00 +2.196211E+00 +1.616730E+00     +1.257470E+00 +2.196211E+00 +1.616730E+00     +1.257470E+00 +2.196211E+00 +1.616730E+00     +1.257470E+00 +2.196211E+00 +1.616730E+00     +1.257470E+00 +2.196211E+00 +1.616730E+00     +1.257470E+00 +2.196211E+00 +1.616730E+00     +1.257470E+00 +2.196211E+00 +1.616730E+00     +1.965630E+00 +2.237580E+00 +1.848070E+00     +2.278807E-01 +1.351590E+00 +4.007510E+00     +2.278807E-01 +1.351590E+00 +4.007510E+00     +1.965630E+00 +2.237580E+00 +1.848070E+00    
 +2.322279E+00 +1.183578E-01 +5.142279E+00     +2.322279E+00 +1.183578E-01 +5.142279E+00     +2.322279E+00 +1.183578E-01 +5.142279E+00     +2.322279E+00 +1.183578E-01 +5.142279E+00     +1.865129E-01 +4.469998E-01 +4.307549E+00     +1.865129E-01 +4.469998E-01 +4.307549E+00     +1.114019E+00 +9.085102E-01 +5.696470E+00     +1.114019E+00 +9.085102E-01 +5.696470E+00     +1.114019E+00 +9.085102E-01 +5.696470E+00     +1.114019E+00 +9.085102E-01 +5.696470E+00     +1.114019E+00 +9.085102E-01 +5.696470E+00     +1.257470E+00 +2.196211E+00 +1.616730E+00     +1.257470E+00 +2.196211E+00 +1.616730E+00     +1.257470E+00 +2.196211E+00 +1.616730E+00     +1.257470E+00 +2.196211E+00 +1.616730E+00     +3.881970E+00 +6.810327E-01 +3.088199E+00     +3.881970E+00 +6.810327E-01 +3.088199E+00     +1.965630E+00 +2.237580E+00 +1.848070E+00     +1.965630E+00 +2.237580E+00 +1.848070E+00     +1.965630E+00 +2.237580E+00 +1.848070E+00     +1.965630E+00 +2.237580E+00 +1.848070E+00    
 +2.322279E+00 +1.183578E-01 +5.142279E+00     +2.322279E+00 +1.183578E-01 +5.142279E+00     +2.322279E+00 +1.183578E-01 +5.142279E+00     +2.322279E+00 +1.183578E-01 +5.142279E+00     +1.865129E-01 +4.469998E-01 +4.307549E+00     +1.865129E-01 +4.469998E-01 +4.307549E+00     +1.865129E-01 +4.469998E-01 +4.307549E+00     +1.114019E+00 +9.085102E-01 +5.696470E+00     +1.114019E+00 +9.085102E-01 +5.696470E+00     +1.114019E+00 +9.085102E-01 +5.696470E+00     +1.114019E+00 +9.085102E-01 +5.696470E+00     +1.257470E+00 +2.196211E+00 +1.616730E+00     +1.257470E+00 +2.196211E+00 +1.616730E+00     +2.105790E+00 +6.473322E-01 +5.527269E+00     +2.105790E+00 +6.473322E-01 +5.527269E+00     +3.881970E+00 +6.810327E-01 +3.088199E+00     +3.881970E+00 +6.810327E-01 +3.088199E+00     +3.881970E+00 +6.810327E-01 +3.088199E+00     +1.965630E+00 +2.237580E+00 +1.848070E+00     +2.538630E+00 +2.996119E-01 +4.839250E+00     +1.965630E+00 +2.237580E+00 +1.848070E+00    
 +2.322279E+00 +1.183578E-01 +5.142279E+00     +2.322279E+00 +1.183578E-01 +5.142279E+00     +2.322279E+00 +1.183578E-01 +5.142279E+00     +2.322279E+00 +1.183578E-01 +5.142279E+00     +1.865129E-01 +4.469998E-01 +4.307549E+00     +1.865129E-01 +4.469998E-01 +4.307549E+00     +1.865129E-01 +4.469998E-01 +4.307549E+00     +6.060300E+00 +2.163990E+00 +1.847630E+00     +6.060300E+00 +2.163990E+00 +1.847630E+00     +6.060300E+00 +2.163990E+00 +1.847630E+00     +6.060300E+00 +2.163990E+00 +1.847630E+00     +2.105790E+00 +6.473322E-01 +5.527269E+00     +2.105790E+00 +6.473322E-01 +5.527269E+00     +2.105790E+00 +6.473322E-01 +5.527269E+00     +2.105790E+00 +6.473322E-01 +5.527269E+00     +2.105790E+00 +6.473322E-01 +5.527269E+00     +3.881970E+00 +6.810327E-01 +3.088199E+00     +3.881970E+00 +6.810327E-01 +3.088199E+00     +1.965630E+00 +2.237580E+00 +1.848070E+00     +1.965630E+00 +2.237580E+00 +1.848070E+00     +1.965630E+00 +2.237580E+00 +1.848070E+00    
 +5.041506E-01 +2.354709E+00 +2.561890E+00     +2.322279E+00 +1.183578E-01 +5.142279E+00     +2.322279E+00 +1.183578E-01 +5.142279E+00     +1.198790E+00 +2.438080E+00 +8.100614E-01     +1.198790E+00 +2.438080E+00 +8.100614E-01     +4.299280E+00 +9.850045E-01 +2.890799E+00     +4.299280E+00 +9.850045E-01 +2.890799E+00     +6.060300E+00 +2.163990E+00 +1.847630E+00     +6.060300E+00 +2.163990E+00 +1.847630E+00     +6.060300E+00 +2.163990E+00 +1.847630E+00     +6.060300E+00 +2.163990E+00 +1.847630E+00     +2.105790E+00 +6.473322E-01 +5.527269E+00     +2.105790E+00 +6.473322E-01 +5.527269E+00     +2.105790E+00 +6.473322E-01 +5.527269E+00     +2.105790E+00 +6.473322E-01 +5.527269E+00     +2.105790E+00 +6.473322E-01 +5.527269E+00     +2.105790E+00 +6.473322E-01 +5.527269E+00     +5.041506E-01 +2.354709E+00 +2.561890E+00     +5.041506E-01 +2.354709E+00 +2.561890E+00     +5.041506E-01 +2.354709E+00 +2.561890E+00     +5.041506E-01 +2.354709E+00 +2.561890E+00    
 +5.041506E-01 +2.354709E+00 +2.561890E+00     +5.041506E-01 +2.354709E+00 +2.561890E+00     +1.198790E+00 +2.438080E+00 +8.100614E-01     +1.198790E+00 +2.438080E+00 +8.100614E-01     +6.237170E+00 +1.034020E+00 +5.949609E+00     +6.237170E+00 +1.034020E+00 +5.949609E+00     +4.299280E+00 +9.850045E-01 +2.890799E+00     +6.060300E+00 +2.163990E+00 +1.847630E+00     +6.060300E+00 +2.163990E+00 +1.847630E+00     +6.060300E+00 +2.163990E+00 +1.847630E+00     +6.060300E+00 +2.163990E+00 +1.847630E+00     +2.105790E+00 +6.473322E-01 +5.527269E+00     +1.930961E+00 +1.529690E+00 +2.736430E+00     +1.930961E+00 +1.529690E+00 +2.736430E+00     +2.105790E+00 +6.473322E-01 +5.527269E+00     +2.105790E+00 +6.473322E-01 +5.527269E+00     +2.105790E+00 +6.473322E-01 +5.527269E+00     +5.041506E-01 +2.354709E+00 +2.561890E+00     +5.041506E-01 +2.354709E+00 +2.561890E+00     +5.041506E-01 +2.354709E+00 +2.561890E+00     +5.041506E-01 +2.354709E+00 +2.561890E+00    
 +5.041506E-01 +2.354709E+00 +2.561890E+00     +5.041506E-01 +2.354709E+00 +2.561890E+00     +1.198790E+00 +2.438080E+00 +8.100614E-01     +6.237170E+00 +1.034020E+00 +5.949609E+00     +6.237170E+00 +1.034020E+00 +5.949609E+00     +6.237170E+00 +1.034020E+00 +5.949609E+00     +4.299280E+00 +9.850045E-01 +2.890799E+00     +6.060300E+00 +2.163990E+00 +1.847630E+00     +6.060300E+00 +2.163990E+00 +1.847630E+00     +6.060300E+00 +2.163990E+00 +1.847630E+00     +6.060300E+00 +2.163990E+00 +1.847630E+00     +2.105790E+00 +6.473322E-01 +5.527269E+00     +2.105790E+00 +6.473322E-01 +5.527269E+00     +1.930961E+00 +1.529690E+00 +2.736430E+00     +2.105790E+00 +6.473322E-01 +5.527269E+00     +2.105790E+00 +6.473322E-01 +5.527269E+00     +2.105790E+00 +6.473322E-01 +5.527269E+00     +5.041506E-01 +2.354709E+00 +2.561890E+00     +5.041506E-01 +2.354709E+00 +2.561890E+00     +5.041506E-01 +2.354709E+00 +2.561890E+00     +5.041506E-01 +2.354709E+00 +2.561890E+00    
 +5.041506E-01 +2.354709E+00 +2.561890E+00     +5.041506E-01 +2.354709E+00 +2.561890E+00     +7.364801E-01 +2.806779E+00 +3.325250E+00     +1.914110E+00 +1.422990E+00 +5.496099E+00     +1.914110E+00 +1.422990E+00 +5.496099E+00     +1.914110E+00 +1.422990E+00 +5.496099E+00     +1.914110E+00 +1.422990E+00 +5.496099E+00     +4.299280E+00 +9.850045E-01 +2.890799E+00     +6.060300E+00 +2.163990E+00 +1.847630E+00     +6.060300E+00 +2.163990E+00 +1.847630E+00     +6.060300E+00 +2.163990E+00 +1.847630E+00     +2.105790E+00 +6.473322E-01 +5.527269E+00     +2.105790E+00 +6.473322E-01 +5.527269E+00     +2.105790E+00 +6.473322E-01 +5.527269E+00     +2.105790E+00 +6.473322E-01 +5.527269E+00     +2.105790E+00 +6.473322E-01 +5.527269E+00     +2.105790E+00 +6.473322E-01 +5.527269E+00     +5.041506E-01 +2.354709E+00 +2.561890E+00     +5.041506E-01 +2.354709E+00 +2.561890E+00     +5.041506E-01 +2.354709E+00 +2.561890E+00     +5.041506E-01 +2.354709E+00 +2.561890E+00    
 +7.364801E-01 +2.806779E+00 +3.325250E+00     +7.364801E-01 +2.806779E+00 +3.325250E+00     +7.364801E-01 +2.806779E+00 +3.325250E+00     +7.364801E-01 +2.806779E+00 +3.325250E+00     +1.914110E+00 +1.422990E+00 +5.496099E+00     +1.914110E+00 +1.422990E+00 +5.496099E+00     +1.914110E+00 +1.422990E+00 +5.496099E+00     +1.914110E+00 +1.422990E+00 +5.496099E+00     +6.060300E+00 +2.163990E+00 +1.847630E+00     +6.060300E+00 +2.163990E+00 +1.847630E+00     +6.060300E+00 +2.163990E+00 +1.847630E+00     +2.105790E+00 +6.473322E-01 +5.527269E+00     +2.105790E+00 +6.473322E-01 +5.527269E+00     +2.105790E+00 +6.473322E-01 +5.527269E+00     +2.105790E+00 +6.473322E-01 +5.527269E+00     +2.105790E+00 +6.473322E-01 +5.527269E+00     +2.105790E+00 +6.473322E-01 +5.527269E+00     +5.041506E-01 +2.354709E+00 +2.561890E+00     +5.041506E-01 +2.354709E+00 +2.561890E+00     +5.041506E-01 +2.354709E+00 +2.561890E+00     +5.041506E-01 +2.354709E+00 +2.561890E+00    
 +7.364801E-01 +2.806779E+00 +3.325250E+00     +7.364801E-01 +2.806779E+00 +3.325250E+00     +7.364801E-01 +2.806779E+00 +3.325250E+00     +7.364801E-01 +2.806779E+00 +3.325250E+00     +1.914110E+00 +1.422990E+00 +5.496099E+00     +1.914110E+00 +1.422990E+00 +5.496099E+00     +1.914110E+00 +1.422990E+00 +5.496099E+00     +5.157350E+00 +1.765779E+00 +1.156281E+00     +5.157350E+00 +1.765779E+00 +1.156281E+00     +3.758950E+00 +1.131211E+00 +3.495980E+00     +3.758950E+00 +1.131211E+00 +3.495980E+00     +3.758950E+00 +1.131211E+00 +3.495980E+00     +2.105790E+00 +6.473322E-01 +5.527269E+00     +2.105790E+00 +6.473322E-01 +5.527269E+00     +2.105790E+00 +6.473322E-01 +5.527269E+00     +2.105790E+00 +6.473322E-01 +5.527269E+00     +2.105790E+00 +6.473322E-01 +5.527269E+00     +5.041506E-01 +2.354709E+00 +2.561890E+00     +5.041506E-01 +2.354709E+00 +2.561890E+00     +4.824010E+00 +8.755496E-01 +5.217430E+00     +5.041506E-01 +2.354709E+00 +2.561890E+00    
 +7.364801E-01 +2.806779E+00 +3.325250E+00     +7.364801E-01 +2.806779E+00 +3.325250E+00     +7.364801E-01 +2.806779E+00 +3.325250E+00     +7.364801E-01 +2.806779E+00 +3.325250E+00     +1.914110E+00 +1.422990E+00 +5.496099E+00     +1.914110E+00 +1.422990E+00 +5.496099E+00     +5.157350E+00 +1.765779E+00 +1.156281E+00     +5.157350E+00 +1.765779E+00 +1.156281E+00     +3.758950E+00 +1.131211E+00 +3.495980E+00     +3.758950E+00 +1.131211E+00 +3.495980E+00     +3.758950E+00 +1.131211E+00 +3.495980E+00     +3.758950E+00 +1.131211E+00 +3.495980E+00     +3.758950E+00 +1.131211E+00 +3.495980E+00     +2.105790E+00 +6.473322E-01 +5.527269E+00     +2.105790E+00 +6.473322E-01 +5.527269E+00     +2.105790E+00 +6.473322E-01 +5.527269E+00     +2.105790E+00 +6.473322E-01 +5.527269E+00     +4.824010E+00 +8.755496E-01 +5.217430E+00     +4.824010E+00 +8.755496E-01 +5.217430E+00     +4.824010E+00 +8.755496E-01 +5.217430E+00     +4.824010E+00 +8.755496E-01 +5.217430E+00    
 +5.835107E-01 +6.701733E-01 +2.399269E-01     +7.364801E-01 +2.806779E+00 +3.325250E+00     +7.364801E-01 +2.806779E+00 +3.325250E+00     +7.364801E-01 +2.806779E+00 +3.325250E+00     +1.914110E+00 +1.422990E+00 +5.496099E+00     +5.157350E+00 +1.765779E+00 +1.156281E+00     +5.157350E+00 +1.765779E+00 +1.156281E+00     +5.157350E+00 +1.765779E+00 +1.156281E+00     +3.758950E+00 +1.131211E+00 +3.495980E+00     +3.758950E+00 +1.131211E+00 +3.495980E+00     +3.758950E+00 +1.131211E+00 +3.495980E+00     +3.758950E+00 +1.131211E+00 +3.495980E+00     +3.758950E+00 +1.131211E+00 +3.495980E+00     +3.758950E+00 +1.131211E+00 +3.495980E+00     +1.447506E-01 +7.757657E-01 +9.525362E-01     +2.045610E+00 +1.109190E+00 +5.290170E+00     +4.440599E+00 +1.314250E+00 +3.000511E+00     +5.835107E-01 +6.701733E-01 +2.399269E-01     +5.835107E-01 +6.701733E-01 +2.399269E-01     +5.835107E-01 +6.701733E-01 +2.399269E-01     +5.835107E-01 +6.701733E-01 +2.399269E-01    
 +5.835107E-01 +6.701733E-01 +2.399269E-01     +5.835107E-01 +6.701733E-01 +2.399269E-01     +1.458450E+00 +1.405009E+00 +2.669589E+00     +1.458450E+00 +1.405009E+00 +2.669589E+00     +1.458450E+00 +1.405009E+00 +2.669589E+00     +6.950512E-01 +1.125559E+00 +6.052470E-01     +3.758950E+00 +1.131211E+00 +3.495980E+00     +3.758950E+00 +1.131211E+00 +3.495980E+00     +3.758950E+00 +1.131211E+00 +3.495980E+00     +3.758950E+00 +1.131211E+00 +3.495980E+00     +3.758950E+00 +1.131211E+00 +3.495980E+00     +3.758950E+00 +1.131211E+00 +3.495980E+00     +3.758950E+00 +1.131211E+00 +3.495980E+00     +3.758950E+00 +1.131211E+00 +3.495980E+00     +1.447506E-01 +7.757657E-01 +9.525362E-01     +2.045610E+00 +1.109190E+00 +5.290170E+00     +4.440599E+00 +1.314250E+00 +3.000511E+00     +5.835107E-01 +6.701733E-01 +2.399269E-01     +5.835107E-01 +6.701733E-01 +2.399269E-01     +5.835107E-01 +6.701733E-01 +2.399269E-01     +5.835107E-01 +6.701733E-01 +2.399269E-01    
 +5.835107E-01 +6.701733E-01 +2.399269E-01     +5.835107E-01 +6.701733E-01 +2.399269E-01     +5.433811E+00 +1.679949E+00 +5.185890E+00     +1.458450E+00 +1.405009E+00 +2.669589E+00     +6.950512E-01 +1.125559E+00 +6.052470E-01     +6.950512E-01 +1.125559E+00 +6.052470E-01     +6.950512E-01 +1.125559E+00 +6.052470E-01     +3.758950E+00 +1.131211E+00 +3.495980E+00     +3.758950E+00 +1.131211E+00 +3.495980E+00     +3.758950E+00 +1.131211E+00 +3.495980E+00     +3.758950E+00 +1.131211E+00 +3.495980E+00     +3.758950E+00 +1.131211E+00 +3.495980E+00     +1.521451E+00 +2.460431E+00 +1.499360E+00     +1.521451E+00 +2.460431E+00 +1.499360E+00     +1.521451E+00 +2.460431E+00 +1.499360E+00     +4.440599E+00 +1.314250E+00 +3.000511E+00     +4.440599E+00 +1.314250E+00 +3.000511E+00     +4.440599E+00 +1.314250E+00 +3.000511E+00     +2.013930E+00 +1.089689E+00 +4.875490E+00     +5.835107E-01 +6.701733E-01 +2.399269E-01     +5.835107E-01 +6.701733E-01 +2.399269E-01    
 +5.835107E-01 +6.701733E-01 +2.399269E-01     +5.835107E-01 +6.701733E-01 +2.399269E-01     +5.433811E+00 +1.679949E+00 +5.185890E+00     +6.950512E-01 +1.125559E+00 +6.052470E-01     +6.950512E-01 +1.125559E+00 +6.052470E-01     +6.950512E-01 +1.125559E+00 +6.052470E-01     +6.950512E-01 +1.125559E+00 +6.052470E-01     +3.758950E+00 +1.131211E+00 +3.495980E+00     +3.758950E+00 +1.131211E+00 +3.495980E+00     +3.758950E+00 +1.131211E+00 +3.495980E+00     +3.758950E+00 +1.131211E+00 +3.495980E+00     +5.053200E+00 +2.278360E+00 +8.272494E-01     +1.521451E+00 +2.460431E+00 +1.499360E+00     +1.521451E+00 +2.460431E+00 +1.499360E+00     +1.521451E+00 +2.460431E+00 +1.499360E+00     +4.440599E+00 +1.314250E+00 +3.000511E+00     +4.440599E+00 +1.314250E+00 +3.000511E+00     +4.440599E+00 +1.314250E+00 +3.000511E+00     +2.013930E+00 +1.089689E+00 +4.875490E+00     +2.013930E+00 +1.089689E+00 +4.875490E+00     +5.835107E-01 +6.701733E-01 +2.399269E-01    
 +5.835107E-01 +6.701733E-01 +2.399269E-01     +5.433811E+00 +1.679949E+00 +5.185890E+00     +3.215650E+00 +1.546719E+00 +1.366820E+00     +3.215650E+00 +1.546719E+00 +1.366820E+00     +6.950512E-01 +1.125559E+00 +6.052470E-01     +6.950512E-01 +1.125559E+00 +6.052470E-01     +6.950512E-01 +1.125559E+00 +6.052470E-01     +3.758950E+00 +1.131211E+00 +3.495980E+00     +3.758950E+00 +1.131211E+00 +3.495980E+00     +3.758950E+00 +1.131211E+00 +3.495980E+00     +3.758950E+00 +1.131211E+00 +3.495980E+00     +5.053200E+00 +2.278360E+00 +8.272494E-01     +5.053200E+00 +2.278360E+00 +8.272494E-01     +1.521451E+00 +2.460431E+00 +1.499360E+00     +1.521451E+00 +2.460431E+00 +1.499360E+00     +4.440599E+00 +1.314250E+00 +3.000511E+00     +4.440599E+00 +1.314250E+00 +3.000511E+00     +4.440599E+00 +1.314250E+00 +3.000511E+00     +2.013930E+00 +1.089689E+00 +4.875490E+00     +2.013930E+00 +1.089689E+00 +4.875490E+00     +5.835107E-01 +6.701733E-01 +2.399269E-01    
 +5.835107E-01 +6.701733E-01 +2.399269E-01     +3.215650E+00 +1.546719E+00 +1.366820E+00     +3.215650E+00 +1.546719E+00 +1.366820E+00     +3.215650E+00 +1.546719E+00 +1.366820E+00     +3.215650E+00 +1.546719E+00 +1.366820E+00     +2.543310E+00 +1.935980E+00 +2.518671E+00     +2.543310E+00 +1.935980E+00 +2.518671E+00     +3.758950E+00 +1.131211E+00 +3.495980E+00     +3.758950E+00 +1.131211E+00 +3.495980E+00     +3.758950E+00 +1.131211E+00 +3.495980E+00     +6.054039E+00 +8.540367E-01 +9.057613E-01     +6.054039E+00 +8.540367E-01 +9.057613E-01     +6.054039E+00 +8.540367E-01 +9.057613E-01     +5.560235E-01 +9.892072E-01 +3.192029E+00     +1.224610E+00 +1.377710E+00 +3.225890E+00     +1.224610E+00 +1.377710E+00 +3.225890E+00     +4.440599E+00 +1.314250E+00 +3.000511E+00     +4.440599E+00 +1.314250E+00 +3.000511E+00     +2.013930E+00 +1.089689E+00 +4.875490E+00     +2.013930E+00 +1.089689E+00 +4.875490E+00     +2.013930E+00 +1.089689E+00 +4.875490E+00    
 +2.072921E+00 +2.692690E+00 +2.495990E+00     +2.072921E+00 +2.692690E+00 +2.495990E+00     +3.215650E+00 +1.546719E+00 +1.366820E+00     +3.215650E+00 +1.546719E+00 +1.366820E+00     +3.215650E+00 +1.546719E+00 +1.366820E+00     +2.543310E+00 +1.935980E+00 +2.518671E+00     +2.543310E+00 +1.935980E+00 +2.518671E+00     +2.543310E+00 +1.935980E+00 +2.518671E+00     +3.612540E+00 +1.265290E+00 +3.981019E+00     +3.612540E+00 +1.265290E+00 +3.981019E+00     +6.054039E+00 +8.540367E-01 +9.057613E-01     +6.054039E+00 +8.540367E-01 +9.057613E-01     +5.560235E-01 +9.892072E-01 +3.192029E+00     +5.560235E-01 +9.892072E-01 +3.192029E+00     +1.224610E+00 +1.377710E+00 +3.225890E+00     +1.224610E+00 +1.377710E+00 +3.225890E+00     +1.224610E+00 +1.377710E+00 +3.225890E+00     +1.224610E+00 +1.377710E+00 +3.225890E+00     +2.013930E+00 +1.089689E+00 +4.875490E+00     +2.013930E+00 +1.089689E+00 +4.875490E+00     +2.013930E+00 +1.089689E+00 +4.875490E+00    
 +2.072921E+00 +2.692690E+00 +2.495990E+00     +2.072921E+00 +2.692690E+00 +2.495990E+00     +2.072921E+00 +2.692690E+00 +2.495990E+00     +4.152540E+00 +3.637894E-01 +2.961279E+00     +4.152540E+00 +3.637894E-01 +2.961279E+00     +1.114019E+00 +9.085102E-01 +5.696470E+00     +1.114019E+00 +9.085102E-01 +5.696470E+00     +1.114019E+00 +9.085102E-01 +5.696470E+00     +3.612540E+00 +1.265290E+00 +3.981019E+00     +3.612540E+00 +1.265290E+00 +3.981019E+00     +6.054039E+00 +8.540367E-01 +9.057613E-01     +6.054039E+00 +8.540367E-01 +9.057613E-01     +5.560235E-01 +9.892072E-01 +3.192029E+00     +5.560235E-01 +9.892072E-01 +3.192029E+00     +1.224610E+00 +1.377710E+00 +3.225890E+00     +1.224610E+00 +1.377710E+00 +3.225890E+00     +1.224610E+00 +1.377710E+00 +3.225890E+00     +1.224610E+00 +1.377710E+00 +3.225890E+00     +3.656170E+00 +2.634601E+00 +5.280831E+00     +3.656170E+00 +2.634601E+00 +5.280831E+00     +3.656170E+00 +2.634601E+00 +5.280831E+00    
 +2.072921E+00 +2.692690E+00 +2.495990E+00     +2.072921E+00 +2.692690E+00 +2.495990E+00     +2.072921E+00 +2.692690E+00 +2.495990E+00     +4.152540E+00 +3.637894E-01 +2.961279E+00     +1.114019E+00 +9.085102E-01 +5.696470E+00     +1.114019E+00 +9.085102E-01 +5.696470E+00     +1.114019E+00 +9.085102E-01 +5.696470E+00     +1.114019E+00 +9.085102E-01 +5.696470E+00     +1.114019E+00 +9.085102E-01 +5.696470E+00     +3.612540E+00 +1.265290E+00 +3.981019E+00     +6.054039E+00 +8.540367E-01 +9.057613E-01     +6.054039E+00 +8.540367E-01 +9.057613E-01     +6.054039E+00 +8.540367E-01 +9.057613E-01     +1.257470E+00 +2.196211E+00 +1.616730E+00     +1.224610E+00 +1.377710E+00 +3.225890E+00     +1.224610E+00 +1.377710E+00 +3.225890E+00     +1.224610E+00 +1.377710E+00 +3.225890E+00     +1.224610E+00 +1.377710E+00 +3.225890E+00     +3.656170E+00 +2.634601E+00 +5.280831E+00     +3.656170E+00 +2.634601E+00 +5.280831E+00     +3.656170E+00 +2.634601E+00 +5.280831E+00    
 +2.072921E+00 +2.692690E+00 +2.495990E+00     +2.072921E+00 +2.692690E+00 +2.495990E+00     +2.072921E+00 +2.692690E+00 +2.495990E+00     +4.152540E+00 +3.637894E-01 +2.961279E+00     +1.114019E+00 +9.085102E-01 +5.696470E+00     +1.114019E+00 +9.085102E-01 +5.696470E+00     +1.114019E+00 +9.085102E-01 +5.696470E+00     +1.114019E+00 +9.085102E-01 +5.696470E+00     +1.114019E+00 +9.085102E-01 +5.696470E+00     +1.114019E+00 +9.085102E-01 +5.696470E+00     +6.054039E+00 +8.540367E-01 +9.057613E-01     +6.054039E+00 +8.540367E-01 +9.057613E-01     +1.257470E+00 +2.196211E+00 +1.616730E+00     +1.257470E+00 +2.196211E+00 +1.616730E+00     +1.257470E+00 +2.196211E+00 +1.616730E+00     +1.257470E+00 +2.196211E+00 +1.616730E+00     +1.224610E+00 +1.377710E+00 +3.225890E+00     +3.656170E+00 +2.634601E+00 +5.280831E+00     +3.656170E+00 +2.634601E+00 +5.280831E+00     +3.656170E+00 +2.634601E+00 +5.280831E+00     +3.656170E+00 +2.634601E+00 +5.280831E+00    
 +2.322279E+00 +1.183578E-01 +5.142279E+00     +2.322279E+00 +1.183578E-01 +5.142279E+00     +2.322279E+00 +1.183578E-01 +5.142279E+00     +2.322279E+00 +1.183578E-01 +5.142279E+00     +1.114019E+00 +9.085102E-01 +5.696470E+00     +1.114019E+00 +9.085102E-01 +5.696470E+00     +1.114019E+00 +9.085102E-01 +5.696470E+00     +1.114019E+00 +9.085102E-01 +5.696470E+00     +1.114019E+00 +9.085102E-01 +5.696470E+00     +1.114019E+00 +9.085102E-01 +5.696470E+00     +6.054039E+00 +8.540367E-01 +9.057613E-01     +1.257470E+00 +2.196211E+00 +1.616730E+00     +1.257470E+00 +2.196211E+00 +1.616730E+00     +1.257470E+00 +2.196211E+00 +1.616730E+00     +1.257470E+00 +2.196211E+00 +1.616730E+00     +1.257470E+00 +2.196211E+00 +1.616730E+00     +3.881970E+00 +6.810327E-01 +3.088199E+00     +3.656170E+00 +2.634601E+00 +5.280831E+00     +3.656170E+00 +2.634601E+00 +5.280831E+00     +3.656170E+00 +2.634601E+00 +5.280831E+00     +3.656170E+00 +2.634601E+00 +5.280831E+00    
 +4.046370E+00 +2.683341E+00 +1.019586E-01     +4.046370E+00 +2.683341E+00 +1.019586E-01     +4.046370E+00 +2.683341E+00 +1.019586E-01     +4.046370E+00 +2.683341E+00 +1.019586E-01     +4.046370E+00 +2.683341E+00 +1.019586E-01     +1.865129E-01 +4.469998E-01 +4.307549E+00     +1.114019E+00 +9.085102E-01 +5.696470E+00     +1.114019E+00 +9.085102E-01 +5.696470E+00     +1.114019E+00 +9.085102E-01 +5.696470E+00     +1.114019E+00 +9.085102E-01 +5.696470E+00     +1.114019E+00 +9.085102E-01 +5.696470E+00     +1.257470E+00 +2.196211E+00 +1.616730E+00     +1.257470E+00 +2.196211E+00 +1.616730E+00     +1.257470E+00 +2.196211E+00 +1.616730E+00     +3.881970E+00 +6.810327E-01 +3.088199E+00     +3.881970E+00 +6.810327E-01 +3.088199E+00     +3.881970E+00 +6.810327E-01 +3.088199E+00     +3.881970E+00 +6.810327E-01 +3.088199E+00     +3.881970E+00 +6.810327E-01 +3.088199E+00     +3.881970E+00 +6.810327E-01 +3.088199E+00     +1.965630E+00 +2.237580E+00 +1.848070E+00    
 +4.046370E+00 +2.683341E+00 +1.019586E-01     +4.046370E+00 +2.683341E+00 +1.019586E-01     +4.046370E+00 +2.683341E+00 +1.019586E-01     +4.046370E+00 +2.683341E+00 +1.019586E-01     +1.865129E-01 +4.469998E-01 +4.307549E+00     +1.865129E-01 +4.469998E-01 +4.307549E+00     +1.865129E-01 +4.469998E-01 +4.307549E+00     +1.114019E+00 +9.085102E-01 +5.696470E+00     +1.114019E+00 +9.085102E-01 +5.696470E+00     +1.114019E+00 +9.085102E-01 +5.696470E+00     +1.114019E+00 +9.085102E-01 +5.696470E+00     +2.593730E+00 +2.615301E+00 +5.023920E+00     +2.593730E+00 +2.615301E+00 +5.023920E+00     +2.593730E+00 +2.615301E+00 +5.023920E+00     +3.881970E+00 +6.810327E-01 +3.088199E+00     +3.881970E+00 +6.810327E-01 +3.088199E+00     +3.881970E+00 +6.810327E-01 +3.088199E+00     +3.881970E+00 +6.810327E-01 +3.088199E+00     +3.881970E+00 +6.810327E-01 +3.088199E+00     +3.881970E+00 +6.810327E-01 +3.088199E+00     +3.881970E+00 +6.810327E-01 +3.088199E+00    
 +5.041506E-01 +2.354709E+00 +2.561890E+00     +1.198790E+00 +2.438080E+00 +8.100614E-01     +4.046370E+00 +2.683341E+00 +1.019586E-01     +4.046370E+00 +2.683341E+00 +1.019586E-01     +4.046370E+00 +2.683341E+00 +1.019586E-01     +1.865129E-01 +4.469998E-01 +4.307549E+00     +1.865129E-01 +4.469998E-01 +4.307549E+00     +1.865129E-01 +4.469998E-01 +4.307549E+00     +1.070719E+00 +3.908229E-01 +4.967207E-01     +1.070719E+00 +3.908229E-01 +4.967207E-01     +6.060300E+00 +2.163990E+00 +1.847630E+00     +2.593730E+00 +2.615301E+00 +5.023920E+00     +2.593730E+00 +2.615301E+00 +5.023920E+00     +2.593730E+00 +2.615301E+00 +5.023920E+00     +2.593730E+00 +2.615301E+00 +5.023920E+00     +3.881970E+00 +6.810327E-01 +3.088199E+00     +3.881970E+00 +6.810327E-01 +3.088199E+00     +3.881970E+00 +6.810327E-01 +3.088199E+00     +3.881970E+00 +6.810327E-01 +3.088199E+00     +2.247513E-01 +6.254876E-01 +4.094131E+00     +2.247513E-01 +6.254876E-01 +4.094131E+00    
 +5.041506E-01 +2.354709E+00 +2.561890E+00     +1.198790E+00 +2.438080E+00 +8.100614E-01     +1.198790E+00 +2.438080E+00 +8.100614E-01     +1.198790E+00 +2.438080E+00 +8.100614E-01     +1.198790E+00 +2.438080E+00 +8.100614E-01     +1.198790E+00 +2.438080E+00 +8.100614E-01     +1.865129E-01 +4.469998E-01 +4.307549E+00     +1.070719E+00 +3.908229E-01 +4.967207E-01     +1.070719E+00 +3.908229E-01 +4.967207E-01     +1.070719E+00 +3.908229E-01 +4.967207E-01     +6.060300E+00 +2.163990E+00 +1.847630E+00     +3.729481E+00 +8.935056E-01 +5.063010E+00     +2.593730E+00 +2.615301E+00 +5.023920E+00     +2.593730E+00 +2.615301E+00 +5.023920E+00     +2.593730E+00 +2.615301E+00 +5.023920E+00     +2.105790E+00 +6.473322E-01 +5.527269E+00     +3.881970E+00 +6.810327E-01 +3.088199E+00     +3.881970E+00 +6.810327E-01 +3.088199E+00     +5.041506E-01 +2.354709E+00 +2.561890E+00     +2.247513E-01 +6.254876E-01 +4.094131E+00     +5.041506E-01 +2.354709E+00 +2.561890E+00    
 +5.041506E-01 +2.354709E+00 +2.561890E+00     +1.198790E+00 +2.438080E+00 +8.100614E-01     +1.198790E+00 +2.438080E+00 +8.100614E-01     +1.198790E+00 +2.438080E+00 +8.100614E-01     +1.198790E+00 +2.438080E+00 +8.100614E-01     +6.237170E+00 +1.034020E+00 +5.949609E+00     +6.237170E+00 +1.034020E+00 +5.949609E+00     +1.070719E+00 +3.908229E-01 +4.967207E-01     +1.070719E+00 +3.908229E-01 +4.967207E-01     +6.060300E+00 +2.163990E+00 +1.847630E+00     +6.060300E+00 +2.163990E+00 +1.847630E+00     +2.105790E+00 +6.473322E-01 +5.527269E+00     +2.105790E+00 +6.473322E-01 +5.527269E+00     +1.930961E+00 +1.529690E+00 +2.736430E+00     +2.105790E+00 +6.473322E-01 +5.527269E+00     +2.105790E+00 +6.473322E-01 +5.527269E+00     +2.105790E+00 +6.473322E-01 +5.527269E+00     +5.041506E-01 +2.354709E+00 +2.561890E+00     +5.041506E-01 +2.354709E+00 +2.561890E+00     +5.041506E-01 +2.354709E+00 +2.561890E+00     +5.041506E-01 +2.354709E+00 +2.561890E+00    
 +5.041506E-01 +2.354709E+00 +2.561890E+00     +5.041506E-01 +2.354709E+00 +2.561890E+00     +1.198790E+00 +2.438080E+00 +8.100614E-01     +1.198790E+00 +2.438080E+00 +8.100614E-01     +6.237170E+00 +1.034020E+00 +5.949609E+00     +6.237170E+00 +1.034020E+00 +5.949609E+00     +6.237170E+00 +1.034020E+00 +5.949609E+00     +6.060300E+00 +2.163990E+00 +1.847630E+00     +6.060300E+00 +2.163990E+00 +1.847630E+00     +6.060300E+00 +2.163990E+00 +1.847630E+00     +6.060300E+00 +2.163990E+00 +1.847630E+00     +2.105790E+00 +6.473322E-01 +5.527269E+00     +2.105790E+00 +6.473322E-01 +5.527269E+00     +5.180809E+00 +1.031750E+00 +4.464411E+00     +2.105790E+00 +6.473322E-01 +5.527269E+00     +2.105790E+00 +6.473322E-01 +5.527269E+00     +5.041506E-01 +2.354709E+00 +2.561890E+00     +5.041506E-01 +2.354709E+00 +2.561890E+00     +5.041506E-01 +2.354709E+00 +2.561890E+00     +5.041506E-01 +2.354709E+00 +2.561890E+00     +5.041506E-01 +2.354709E+00 +2.561890E+00    
 +5.041506E-01 +2.354709E+00 +2.561890E+00     +5.041506E-01 +2.354709E+00 +2.561890E+00     +1.198790E+00 +2.438080E+00 +8.100614E-01     +1.914110E+00 +1.422990E+00 +5.496099E+00     +1.914110E+00 +1.422990E+00 +5.496099E+00     +1.914110E+00 +1.422990E+00 +5.496099E+00     +1.914110E+00 +1.422990E+00 +5.496099E+00     +1.914110E+00 +1.422990E+00 +5.496099E+00     +3.956649E+00 +1.065070E-01 +3.420859E+00     +3.956649E+00 +1.065070E-01 +3.420859E+00     +3.956649E+00 +1.065070E-01 +3.420859E+00     +2.105790E+00 +6.473322E-01 +5.527269E+00     +2.105790E+00 +6.473322E-01 +5.527269E+00     +2.105790E+00 +6.473322E-01 +5.527269E+00     +2.105790E+00 +6.473322E-01 +5.527269E+00     +2.105790E+00 +6.473322E-01 +5.527269E+00     +2.105790E+00 +6.473322E-01 +5.527269E+00     +5.041506E-01 +2.354709E+00 +2.561890E+00     +5.041506E-01 +2.354709E+00 +2.561890E+00     +5.041506E-01 +2.354709E+00 +2.561890E+00     +5.041506E-01 +2.354709E+00 +2.561890E+00    
 +5.041506E-01 +2.354709E+00 +2.561890E+00     +7.364801E-01 +2.806779E+00 +3.325250E+00     +7.364801E-01 +2.806779E+00 +3.325250E+00     +1.914110E+00 +1.422990E+00 +5.496099E+00     +1.914110E+00 +1.422990E+00 +5.496099E+00     +1.914110E+00 +1.422990E+00 +5.496099E+00     +1.914110E+00 +1.422990E+00 +5.496099E+00     +1.914110E+00 +1.422990E+00 +5.496099E+00     +3.956649E+00 +1.065070E-01 +3.420859E+00     +3.956649E+00 +1.065070E-01 +3.420859E+00     +3.956649E+00 +1.065070E-01 +3.420859E+00     +3.956649E+00 +1.065070E-01 +3.420859E+00     +2.105790E+00 +6.473322E-01 +5.527269E+00     +2.105790E+00 +6.473322E-01 +5.527269E+00     +2.105790E+00 +6.473322E-01 +5.527269E+00     +2.105790E+00 +6.473322E-01 +5.527269E+00     +2.105790E+00 +6.473322E-01 +5.527269E+00     +5.041506E-01 +2.354709E+00 +2.561890E+00     +5.041506E-01 +2.354709E+00 +2.561890E+00     +5.041506E-01 +2.354709E+00 +2.561890E+00     +5.041506E-01 +2.354709E+00 +2.561890E+00    
 +7.364801E-01 +2.806779E+00 +3.325250E+00     +7.364801E-01 +2.806779E+00 +3.325250E+00     +7.364801E-01 +2.806779E+00 +3.325250E+00     +3.869140E+00 +2.180499E+00 +5.555709E+00     +1.914110E+00 +1.422990E+00 +5.496099E+00     +1.914110E+00 +1.422990E+00 +5.496099E+00     +1.914110E+00 +1.422990E+00 +5.496099E+00     +5.157350E+00 +1.765779E+00 +1.156281E+00     +5.157350E+00 +1.765779E+00 +1.156281E+00     +3.956649E+00 +1.065070E-01 +3.420859E+00     +3.956649E+00 +1.065070E-01 +3.420859E+00     +3.758950E+00 +1.131211E+00 +3.495980E+00     +2.105790E+00 +6.473322E-01 +5.527269E+00     +2.105790E+00 +6.473322E-01 +5.527269E+00     +2.105790E+00 +6.473322E-01 +5.527269E+00     +2.105790E+00 +6.473322E-01 +5.527269E+00     +2.105790E+00 +6.473322E-01 +5.527269E+00     +5.041506E-01 +2.354709E+00 +2.561890E+00     +4.824010E+00 +8.755496E-01 +5.217430E+00     +4.824010E+00 +8.755496E-01 +5.217430E+00     +4.824010E+00 +8.755496E-01 +5.217430E+00    
 +7.364801E-01 +2.806779E+00 +3.325250E+00     +7.364801E-01 +2.806779E+00 +3.325250E+00     +7.364801E-01 +2.806779E+00 +3.325250E+00     +3.869140E+00 +2.180499E+00 +5.555709E+00     +3.869140E+00 +2.180499E+00 +5.555709E+00     +1.914110E+00 +1.422990E+00 +5.496099E+00     +5.157350E+00 +1.765779E+00 +1.156281E+00     +5.157350E+00 +1.765779E+00 +1.156281E+00     +5.157350E+00 +1.765779E+00 +1.156281E+00     +3.758950E+00 +1.131211E+00 +3.495980E+00     +3.758950E+00 +1.131211E+00 +3.495980E+00     +3.758950E+00 +1.131211E+00 +3.495980E+00     +3.758950E+00 +1.131211E+00 +3.495980E+00     +2.105790E+00 +6.473322E-01 +5.527269E+00     +2.105790E+00 +6.473322E-01 +5.527269E+00     +2.105790E+00 +6.473322E-01 +5.527269E+00     +4.824010E+00 +8.755496E-01 +5.217430E+00     +4.824010E+00 +8.755496E-01 +5.217430E+00     +4.824010E+00 +8.755496E-01 +5.217430E+00     +4.824010E+00 +8.755496E-01 +5.217430E+00     +4.824010E+00 +8.755496E-01 +5.217430E+00    
 +7.364801E-01 +2.806779E+00 +3.325250E+00     +7.364801E-01 +2.806779E+00 +3.325250E+00     +7.364801E-01 +2.806779E+00 +3.325250E+00     +3.869140E+00 +2.180499E+00 +5.555709E+00     +3.869140E+00 +2.180499E+00 +5.555709E+00     +5.157350E+00 +1.765779E+00 +1.156281E+00     +5.157350E+00 +1.765779E+00 +1.156281E+00     +5.157350E+00 +1.765779E+00 +1.156281E+00     +3.758950E+00 +1.131211E+00 +3.495980E+00     +3.758950E+00 +1.131211E+00 +3.495980E+00     +3.758950E+00 +1.131211E+00 +3.495980E+00     +3.758950E+00 +1.131211E+00 +3.495980E+00     +3.758950E+00 +1.131211E+00 +3.495980E+00     +1.374796E-01 +1.228949E+00 +4.301060E+00     +1.374796E-01 +1.228949E+00 +4.301060E+00     +1.374796E-01 +1.228949E+00 +4.301060E+00     +4.824010E+00 +8.755496E-01 +5.217430E+00     +4.824010E+00 +8.755496E-01 +5.217430E+00     +4.824010E+00 +8.755496E-01 +5.217430E+00     +4.824010E+00 +8.755496E-01 +5.217430E+00     +5.835107E-01 +6.701733E-01 +2.399269E-01    
 +5.835107E-01 +6.701733E-01 +2.399269E-01     +5.433811E+00 +1.679949E+00 +5.185890E+00     +5.433811E+00 +1.679949E+00 +5.185890E+00     +5.433811E+00 +1.679949E+00 +5.185890E+00     +6.950512E-01 +1.125559E+00 +6.052470E-01     +6.950512E-01 +1.125559E+00 +6.052470E-01     +3.758950E+00 +1.131211E+00 +3.495980E+00     +3.758950E+00 +1.131211E+00 +3.495980E+00     +3.758950E+00 +1.131211E+00 +3.495980E+00     +3.758950E+00 +1.131211E+00 +3.495980E+00     +3.758950E+00 +1.131211E+00 +3.495980E+00     +3.758950E+00 +1.131211E+00 +3.495980E+00     +3.758950E+00 +1.131211E+00 +3.495980E+00     +1.374796E-01 +1.228949E+00 +4.301060E+00     +1.374796E-01 +1.228949E+00 +4.301060E+00     +1.374796E-01 +1.228949E+00 +4.301060E+00     +4.440599E+00 +1.314250E+00 +3.000511E+00     +2.013930E+00 +1.089689E+00 +4.875490E+00     +2.013930E+00 +1.089689E+00 +4.875490E+00     +5.835107E-01 +6.701733E-01 +2.399269E-01     +5.835107E-01 +6.701733E-01 +2.399269E-01    
 +5.835107E-01 +6.701733E-01 +2.399269E-01     +5.433811E+00 +1.679949E+00 +5.185890E+00     +5.433811E+00 +1.679949E+00 +5.185890E+00     +5.433811E+00 +1.679949E+00 +5.185890E+00     +6.950512E-01 +1.125559E+00 +6.052470E-01     +6.950512E-01 +1.125559E+00 +6.052470E-01     +6.950512E-01 +1.125559E+00 +6.052470E-01     +3.758950E+00 +1.131211E+00 +3.495980E+00     +3.758950E+00 +1.131211E+00 +3.495980E+00     +3.758950E+00 +1.131211E+00 +3.495980E+00     +3.758950E+00 +1.131211E+00 +3.495980E+00     +3.758950E+00 +1.131211E+00 +3.495980E+00     +1.521451E+00 +2.460431E+00 +1.499360E+00     +1.521451E+00 +2.460431E+00 +1.499360E+00     +1.521451E+00 +2.460431E+00 +1.499360E+00     +1.521451E+00 +2.460431E+00 +1.499360E+00     +4.440599E+00 +1.314250E+00 +3.000511E+00     +2.013930E+00 +1.089689E+00 +4.875490E+00     +2.013930E+00 +1.089689E+00 +4.875490E+00     +2.013930E+00 +1.089689E+00 +4.875490E+00     +5.835107E-01 +6.701733E-01 +2.399269E-01    
 +5.433811E+00 +1.679949E+00 +5.185890E+00     +5.433811E+00 +1.679949E+00 +5.185890E+00     +5.433811E+00 +1.679949E+00 +5.185890E+00     +6.950512E-01 +1.125559E+00 +6.052470E-01     +6.950512E-01 +1.125559E+00 +6.052470E-01     +6.950512E-01 +1.125559E+00 +6.052470E-01     +6.950512E-01 +1.125559E+00 +6.052470E-01     +3.758950E+00 +1.131211E+00 +3.495980E+00     +3.758950E+00 +1.131211E+00 +3.495980E+00     +5.460111E+00 +2.305899E+00 +1.140930E+00     +3.758950E+00 +1.131211E+00 +3.495980E+00     +3.758950E+00 +1.131211E+00 +3.495980E+00     +1.521451E+00 +2.460431E+00 +1.499360E+00     +1.521451E+00 +2.460431E+00 +1.499360E+00     +1.521451E+00 +2.460431E+00 +1.499360E+00     +1.521451E+00 +2.460431E+00 +1.499360E+00     +4.440599E+00 +1.314250E+00 +3.000511E+00     +2.013930E+00 +1.089689E+00 +4.875490E+00     +2.013930E+00 +1.089689E+00 +4.875490E+00     +2.013930E+00 +1.089689E+00 +4.875490E+00     +2.013930E+00 +1.089689E+00 +4.875490E+00    
 +5.433811E+00 +1.679949E+00 +5.185890E+00     +5.433811E+00 +1.679949E+00 +5.185890E+00     +5.433811E+00 +1.679949E+00 +5.185890E+00     +6.950512E-01 +1.125559E+00 +6.052470E-01     +6.950512E-01 +1.125559E+00 +6.052470E-01     +6.950512E-01 +1.125559E+00 +6.052470E-01     +6.950512E-01 +1.125559E+00 +6.052470E-01     +3.758950E+00 +1.131211E+00 +3.495980E+00     +3.758950E+00 +1.131211E+00 +3.495980E+00     +3.758950E+00 +1.131211E+00 +3.495980E+00     +3.758950E+00 +1.131211E+00 +3.495980E+00     +3.758950E+00 +1.131211E+00 +3.495980E+00     +1.521451E+00 +2.460431E+00 +1.499360E+00     +1.521451E+00 +2.460431E+00 +1.499360E+00     +1.521451E+00 +2.460431E+00 +1.499360E+00     +1.521451E+00 +2.460431E+00 +1.499360E+00     +4.440599E+00 +1.314250E+00 +3.000511E+00     +2.013930E+00 +1.089689E+00 +4.875490E+00     +2.013930E+00 +1.089689E+00 +4.875490E+00     +2.013930E+00 +1.089689E+00 +4.875490E+00     +2.013930E+00 +1.089689E+00 +4.875490E+00    
 +5.433811E+00 +1.679949E+00 +5.185890E+00     +5.433811E+00 +1.679949E+00 +5.185890E+00     +1.513420E+00 +1.589400E+00 +4.202107E-01     +1.513420E+00 +1.589400E+00 +4.202107E-01     +2.543310E+00 +1.935980E+00 +2.518671E+00     +2.543310E+00 +1.935980E+00 +2.518671E+00     +2.543310E+00 +1.935980E+00 +2.518671E+00     +3.758950E+00 +1.131211E+00 +3.495980E+00     +3.758950E+00 +1.131211E+00 +3.495980E+00     +3.890700E+00 +2.090150E+00 +6.044089E+00     +3.890700E+00 +2.090150E+00 +6.044089E+00     +6.054039E+00 +8.540367E-01 +9.057613E-01     +6.054039E+00 +8.540367E-01 +9.057613E-01     +6.054039E+00 +8.540367E-01 +9.057613E-01     +4.214370E+00 +2.327639E+00 +6.006060E+00     +4.214370E+00 +2.327639E+00 +6.006060E+00     +4.214370E+00 +2.327639E+00 +6.006060E+00     +2.013930E+00 +1.089689E+00 +4.875490E+00     +2.013930E+00 +1.089689E+00 +4.875490E+00     +2.013930E+00 +1.089689E+00 +4.875490E+00     +2.013930E+00 +1.089689E+00 +4.875490E+00    
 +2.072921E+00 +2.692690E+00 +2.495990E+00     +2.072921E+00 +2.692690E+00 +2.495990E+00     +2.072921E+00 +2.692690E+00 +2.495990E+00     +3.215650E+00 +1.546719E+00 +1.366820E+00     +2.543310E+00 +1.935980E+00 +2.518671E+00     +2.543310E+00 +1.935980E+00 +2.518671E+00     +2.543310E+00 +1.935980E+00 +2.518671E+00     +2.543310E+00 +1.935980E+00 +2.518671E+00     +3.612540E+00 +1.265290E+00 +3.981019E+00     +3.612540E+00 +1.265290E+00 +3.981019E+00     +3.890700E+00 +2.090150E+00 +6.044089E+00     +6.054039E+00 +8.540367E-01 +9.057613E-01     +6.054039E+00 +8.540367E-01 +9.057613E-01     +6.054039E+00 +8.540367E-01 +9.057613E-01     +1.224610E+00 +1.377710E+00 +3.225890E+00     +1.224610E+00 +1.377710E+00 +3.225890E+00     +1.224610E+00 +1.377710E+00 +3.225890E+00     +1.224610E+00 +1.377710E+00 +3.225890E+00     +2.563601E+00 +1.783100E+00 +2.644291E+00     +2.563601E+00 +1.783100E+00 +2.644291E+00     +2.013930E+00 +1.089689E+00 +4.875490E+00    
 +2.072921E+00 +2.692690E+00 +2.495990E+00     +2.072921E+00 +2.692690E+00 +2.495990E+00     +2.072921E+00 +2.692690E+00 +2.495990E+00     +4.152540E+00 +3.637894E-01 +2.961279E+00     +2.543310E+00 +1.935980E+00 +2.518671E+00     +2.543310E+00 +1.935980E+00 +2.518671E+00     +1.114019E+00 +9.085102E-01 +5.696470E+00     +1.114019E+00 +9.085102E-01 +5.696470E+00     +3.612540E+00 +1.265290E+00 +3.981019E+00     +3.612540E+00 +1.265290E+00 +3.981019E+00     +6.054039E+00 +8.540367E-01 +9.057613E-01     +6.054039E+00 +8.540367E-01 +9.057613E-01     +6.054039E+00 +8.540367E-01 +9.057613E-01     +6.054039E+00 +8.540367E-01 +9.057613E-01     +1.224610E+00 +1.377710E+00 +3.225890E+00     +1.224610E+00 +1.377710E+00 +3.225890E+00     +1.224610E+00 +1.377710E+00 +3.225890E+00     +1.224610E+00 +1.377710E+00 +3.225890E+00     +2.563601E+00 +1.783100E+00 +2.644291E+00     +2.563601E+00 +1.783100E+00 +2.644291E+00     +2.563601E+00 +1.783100E+00 +2.644291E+00    
 +2.072921E+00 +2.692690E+00 +2.495990E+00     +2.072921E+00 +2.692690E+00 +2.495990E+00     +2.072921E+00 +2.692690E+00 +2.495990E+00     +2.072921E+00 +2.692690E+00 +2.495990E+00     +1.114019E+00 +9.085102E-01 +5.696470E+00     +1.114019E+00 +9.085102E-01 +5.696470E+00     +1.114019E+00 +9.085102E-01 +5.696470E+00     +1.114019E+00 +9.085102E-01 +5.696470E+00     +1.114019E+00 +9.085102E-01 +5.696470E+00     +3.612540E+00 +1.265290E+00 +3.981019E+00     +6.054039E+00 +8.540367E-01 +9.057613E-01     +6.054039E+00 +8.540367E-01 +9.057613E-01     +6.054039E+00 +8.540367E-01 +9.057613E-01     +6.054039E+00 +8.540367E-01 +9.057613E-01     +1.224610E+00 +1.377710E+00 +3.225890E+00     +1.224610E+00 +1.377710E+00 +3.225890E+00     +1.224610E+00 +1.377710E+00 +3.225890E+00     +1.224610E+00 +1.377710E+00 +3.225890E+00     +3.656170E+00 +2.634601E+00 +5.280831E+00     +3.656170E+00 +2.634601E+00 +5.280831E+00     +3.656170E+00 +2.634601E+00 +5.280831E+00    
 +2.072921E+00 +2.692690E+00 +2.495990E+00     +2.072921E+00 +2.692690E+00 +2.495990E+00     +2.072921E+00 +2.692690E+00 +2.495990E+00     +2.072921E+00 +2.692690E+00 +2.495990E+00     +1.114019E+00 +9.085102E-01 +5.696470E+00     +1.114019E+00 +9.085102E-01 +5.696470E+00     +1.114019E+00 +9.085102E-01 +5.696470E+00     +3.598139E+00 +9.297299E-01 +5.294648E-01     +1.114019E+00 +9.085102E-01 +5.696470E+00     +1.114019E+00 +9.085102E-01 +5.696470E+00     +6.054039E+00 +8.540367E-01 +9.057613E-01     +6.054039E+00 +8.540367E-01 +9.057613E-01     +6.054039E+00 +8.540367E-01 +9.057613E-01     +6.054039E+00 +8.540367E-01 +9.057613E-01     +1.257470E+00 +2.196211E+00 +1.616730E+00     +1.224610E+00 +1.377710E+00 +3.225890E+00     +1.224610E+00 +1.377710E+00 +3.225890E+00     +3.656170E+00 +2.634601E+00 +5.280831E+00     +3.656170E+00 +2.634601E+00 +5.280831E+00     +3.656170E+00 +2.634601E+00 +5.280831E+00     +3.656170E+00 +2.634601E+00 +5.280831E+00    
 +2.322279E+00 +1.183578E-01 +5.142279E+00     +4.046370E+00 +2.683341E+00 +1.019586E-01     +4.046370E+00 +2.683341E+00 +1.019586E-01     +4.046370E+00 +2.683341E+00 +1.019586E-01     +1.114019E+00 +9.085102E-01 +5.696470E+00     +1.114019E+00 +9.085102E-01 +5.696470E+00     +1.114019E+00 +9.085102E-01 +5.696470E+00     +1.114019E+00 +9.085102E-01 +5.696470E+00     +1.114019E+00 +9.085102E-01 +5.696470E+00     +1.114019E+00 +9.085102E-01 +5.696470E+00     +6.054039E+00 +8.540367E-01 +9.057613E-01     +6.054039E+00 +8.540367E-01 +9.057613E-01     +1.257470E+00 +2.196211E+00 +1.616730E+00     +1.257470E+00 +2.196211E+00 +1.616730E+00     +1.257470E+00 +2.196211E+00 +1.616730E+00     +3.881970E+00 +6.810327E-01 +3.088199E+00     +3.881970E+00 +6.810327E-01 +3.088199E+00     +3.881970E+00 +6.810327E-01 +3.088199E+00     +3.656170E+00 +2.634601E+00 +5.280831E+00     +3.656170E+00 +2.634601E+00 +5.280831E+00     +3.656170E+00 +2.634601E+00 +5.280831E+00    
 +4.046370E+00 +2.683341E+00 +1.019586E-01     +4.046370E+00 +2.683341E+00 +1.019586E-01     +4.046370E+00 +2.683341E+00 +1.019586E-01     +4.046370E+00 +2.683341E+00 +1.019586E-01     +4.046370E+00 +2.683341E+00 +1.019586E-01     +4.046370E+00 +2.683341E+00 +1.019586E-01     +1.114019E+00 +9.085102E-01 +5.696470E+00     +1.114019E+00 +9.085102E-01 +5.696470E+00     +1.114019E+00 +9.085102E-01 +5.696470E+00     +1.114019E+00 +9.085102E-01 +5.696470E+00     +1.114019E+00 +9.085102E-01 +5.696470E+00     +4.813019E+00 +2.408141E+00 +2.331376E-01     +2.593730E+00 +2.615301E+00 +5.023920E+00     +3.881970E+00 +6.810327E-01 +3.088199E+00     +3.881970E+00 +6.810327E-01 +3.088199E+00     +3.881970E+00 +6.810327E-01 +3.088199E+00     +3.881970E+00 +6.810327E-01 +3.088199E+00     +3.881970E+00 +6.810327E-01 +3.088199E+00     +3.881970E+00 +6.810327E-01 +3.088199E+00     +3.881970E+00 +6.810327E-01 +3.088199E+00     +3.881970E+00 +6.810327E-01 +3.088199E+00    
 +4.046370E+00 +2.683341E+00 +1.019586E-01     +4.046370E+00 +2.683341E+00 +1.019586E-01     +4.046370E+00 +2.683341E+00 +1.019586E-01     +4.046370E+00 +2.683341E+00 +1.019586E-01     +4.046370E+00 +2.683341E+00 +1.019586E-01     +1.865129E-01 +4.469998E-01 +4.307549E+00     +1.865129E-01 +4.469998E-01 +4.307549E+00     +1.114019E+00 +9.085102E-01 +5.696470E+00     +1.114019E+00 +9.085102E-01 +5.696470E+00     +1.114019E+00 +9.085102E-01 +5.696470E+00     +4.813019E+00 +2.408141E+00 +2.331376E-01     +2.593730E+00 +2.615301E+00 +5.023920E+00     +2.593730E+00 +2.615301E+00 +5.023920E+00     +3.881970E+00 +6.810327E-01 +3.088199E+00     +3.881970E+00 +6.810327E-01 +3.088199E+00     +3.881970E+00 +6.810327E-01 +3.088199E+00     +3.881970E+00 +6.810327E-01 +3.088199E+00     +3.881970E+00 +6.810327E-01 +3.088199E+00     +3.881970E+00 +6.810327E-01 +3.088199E+00     +3.881970E+00 +6.810327E-01 +3.088199E+00     +3.881970E+00 +6.810327E-01 +3.088199E+00    
 +1.198790E+00 +2.438080E+00 +8.100614E-01     +1.198790E+00 +2.438080E+00 +8.100614E-01     +1.198790E+00 +2.438080E+00 +8.100614E-01     +4.046370E+00 +2.683341E+00 +1.019586E-01     +4.046370E+00 +2.683341E+00 +1.019586E-01     +4.046370E+00 +2.683341E+00 +1.019586E-01     +1.865129E-01 +4.469998E-01 +4.307549E+00     +1.865129E-01 +4.469998E-01 +4.307549E+00     +1.070719E+00 +3.908229E-01 +4.967207E-01     +1.070719E+00 +3.908229E-01 +4.967207E-01     +2.593730E+00 +2.615301E+00 +5.023920E+00     +2.593730E+00 +2.615301E+00 +5.023920E+00     +2.593730E+00 +2.615301E+00 +5.023920E+00     +2.593730E+00 +2.615301E+00 +5.023920E+00     +3.881970E+00 +6.810327E-01 +3.088199E+00     +3.881970E+00 +6.810327E-01 +3.088199E+00     +3.881970E+00 +6.810327E-01 +3.088199E+00     +3.881970E+00 +6.810327E-01 +3.088199E+00     +3.881970E+00 +6.810327E-01 +3.088199E+00     +3.881970E+00 +6.810327E-01 +3.088199E+00     +3.881970E+00 +6.810327E-01 +3.088199E+00    
 +5.041506E-01 +2.354709E+00 +2.561890E+00     +1.198790E+00 +2.438080E+00 +8.100614E-01     +1.198790E+00 +2.438080E+00 +8.100614E-01     +1.198790E+00 +2.438080E+00 +8.100614E-01     +1.198790E+00 +2.438080E+00 +8.100614E-01     +1.198790E+00 +2.438080E+00 +8.100614E-01     +1.198790E+00 +2.438080E+00 +8.100614E-01     +1.070719E+00 +3.908229E-01 +4.967207E-01     +1.070719E+00 +3.908229E-01 +4.967207E-01     +1.070719E+00 +3.908229E-01 +4.967207E-01     +6.060300E+00 +2.163990E+00 +1.847630E+00     +3.729481E+00 +8.935056E-01 +5.063010E+00     +2.593730E+00 +2.615301E+00 +5.023920E+00     +2.593730E+00 +2.615301E+00 +5.023920E+00     +2.593730E+00 +2.615301E+00 +5.023920E+00     +3.881970E+00 +6.810327E-01 +3.088199E+00     +3.881970E+00 +6.810327E-01 +3.088199E+00     +3.881970E+00 +6.810327E-01 +3.088199E+00     +3.881970E+00 +6.810327E-01 +3.088199E+00     +5.041506E-01 +2.354709E+00 +2.561890E+00     +5.041506E-01 +2.354709E+00 +2.561890E+00    
 +5.041506E-01 +2.354709E+00 +2.561890E+00     +1.198790E+00 +2.438080E+00 +8.100614E-01     +1.198790E+00 +2.438080E+00 +8.100614E-01     +1.198790E+00 +2.438080E+00 +8.100614E-01     +1.198790E+00 +2.438080E+00 +8.100614E-01     +1.198790E+00 +2.438080E+00 +8.100614E-01     +6.237170E+00 +1.034020E+00 +5.949609E+00     +1.070719E+00 +3.908229E-01 +4.967207E-01     +1.070719E+00 +3.908229E-01 +4.967207E-01     +6.060300E+00 +2.163990E+00 +1.847630E+00     +3.956649E+00 +1.065070E-01 +3.420859E+00     +2.105790E+00 +6.473322E-01 +5.527269E+00     +2.593730E+00 +2.615301E+00 +5.023920E+00     +2.593730E+00 +2.615301E+00 +5.023920E+00     +5.915940E+00 +1.370550E+00 +4.709919E+00     +5.915940E+00 +1.370550E+00 +4.709919E+00     +3.881970E+00 +6.810327E-01 +3.088199E+00     +5.041506E-01 +2.354709E+00 +2.561890E+00     +5.041506E-01 +2.354709E+00 +2.561890E+00     +5.041506E-01 +2.354709E+00 +2.561890E+00     +5.041506E-01 +2.354709E+00 +2.561890E+00    
 +5.041506E-01 +2.354709E+00 +2.561890E+00     +5.041506E-01 +2.354709E+00 +2.561890E+00     +1.198790E+00 +2.438080E+00 +8.100614E-01     +3.622480E+00 +2.571390E+00 +3.240610E+00     +1.198790E+00 +2.438080E+00 +8.100614E-01     +6.237170E+00 +1.034020E+00 +5.949609E+00     +6.237170E+00 +1.034020E+00 +5.949609E+00     +3.956649E+00 +1.065070E-01 +3.420859E+00     +3.956649E+00 +1.065070E-01 +3.420859E+00     +3.956649E+00 +1.065070E-01 +3.420859E+00     +3.956649E+00 +1.065070E-01 +3.420859E+00     +3.956649E+00 +1.065070E-01 +3.420859E+00     +2.105790E+00 +6.473322E-01 +5.527269E+00     +3.115390E+00 +1.210260E+00 +4.526370E+00     +2.105790E+00 +6.473322E-01 +5.527269E+00     +2.105790E+00 +6.473322E-01 +5.527269E+00     +5.041506E-01 +2.354709E+00 +2.561890E+00     +5.041506E-01 +2.354709E+00 +2.561890E+00     +5.041506E-01 +2.354709E+00 +2.561890E+00     +5.041506E-01 +2.354709E+00 +2.561890E+00     +5.041506E-01 +2.354709E+00 +2.561890E+00    
 +5.041506E-01 +2.354709E+00 +2.561890E+00     +5.041506E-01 +2.354709E+00 +2.561890E+00     +1.198790E+00 +2.438080E+00 +8.100614E-01     +1.914110E+00 +1.422990E+00 +5.496099E+00     +1.914110E+00 +1.422990E+00 +5.496099E+00     +1.914110E+00 +1.422990E+00 +5.496099E+00     +1.914110E+00 +1.422990E+00 +5.496099E+00     +3.956649E+00 +1.065070E-01 +3.420859E+00     +3.956649E+00 +1.065070E-01 +3.420859E+00     +3.956649E+00 +1.065070E-01 +3.420859E+00     +3.956649E+00 +1.065070E-01 +3.420859E+00     +3.956649E+00 +1.065070E-01 +3.420859E+00     +2.105790E+00 +6.473322E-01 +5.527269E+00     +2.105790E+00 +6.473322E-01 +5.527269E+00     +2.105790E+00 +6.473322E-01 +5.527269E+00     +2.105790E+00 +6.473322E-01 +5.527269E+00     +5.041506E-01 +2.354709E+00 +2.561890E+00     +5.041506E-01 +2.354709E+00 +2.561890E+00     +5.041506E-01 +2.354709E+00 +2.561890E+00     +5.041506E-01 +2.354709E+00 +2.561890E+00     +5.041506E-01 +2.354709E+00 +2.561890E+00    
 +5.041506E-01 +2.354709E+00 +2.561890E+00     +7.364801E-01 +2.806779E+00 +3.325250E+00     +7.364801E-01 +2.806779E+00 +3.325250E+00     +1.914110E+00 +1.422990E+00 +5.496099E+00     +1.914110E+00 +1.422990E+00 +5.496099E+00     +1.914110E+00 +1.422990E+00 +5.496099E+00     +1.914110E+00 +1.422990E+00 +5.496099E+00     +3.956649E+00 +1.065070E-01 +3.420859E+00     +3.956649E+00 +1.065070E-01 +3.420859E+00     +3.956649E+00 +1.065070E-01 +3.420859E+00     +3.956649E+00 +1.065070E-01 +3.420859E+00     +3.956649E+00 +1.065070E-01 +3.420859E+00     +2.105790E+00 +6.473322E-01 +5.527269E+00     +2.105790E+00 +6.473322E-01 +5.527269E+00     +2.105790E+00 +6.473322E-01 +5.527269E+00     +2.105790E+00 +6.473322E-01 +5.527269E+00     +5.041506E-01 +2.354709E+00 +2.561890E+00     +5.041506E-01 +2.354709E+00 +2.561890E+00     +5.041506E-01 +2.354709E+00 +2.561890E+00     +5.041506E-01 +2.354709E+00 +2.561890E+00     +5.041506E-01 +2.354709E+00 +2.561890E+00    
 +7.364801E-01 +2.806779E+00 +3.325250E+00     +7.364801E-01 +2.806779E+00 +3.325250E+00     +7.364801E-01 +2.806779E+00 +3.325250E+00     +1.914110E+00 +1.422990E+00 +5.496099E+00     +1.914110E+00 +1.422990E+00 +5.496099E+00     +1.914110E+00 +1.422990E+00 +5.496099E+00     +1.914110E+00 +1.422990E+00 +5.496099E+00     +5.157350E+00 +1.765779E+00 +1.156281E+00     +3.956649E+00 +1.065070E-01 +3.420859E+00     +3.956649E+00 +1.065070E-01 +3.420859E+00     +3.956649E+00 +1.065070E-01 +3.420859E+00     +3.956649E+00 +1.065070E-01 +3.420859E+00     +3.956649E+00 +1.065070E-01 +3.420859E+00     +2.105790E+00 +6.473322E-01 +5.527269E+00     +2.105790E+00 +6.473322E-01 +5.527269E+00     +2.091821E+00 +2.086600E+00 +2.558670E+00     +2.091821E+00 +2.086600E+00 +2.558670E+00     +5.041506E-01 +2.354709E+00 +2.561890E+00     +5.041506E-01 +2.354709E+00 +2.561890E+00     +4.824010E+00 +8.755496E-01 +5.217430E+00     +5.041506E-01 +2.354709E+00 +2.561890E+00    
 +7.364801E-01 +2.806779E+00 +3.325250E+00     +7.364801E-01 +2.806779E+00 +3.325250E+00     +7.364801E-01 +2.806779E+00 +3.325250E+00     +3.869140E+00 +2.180499E+00 +5.555709E+00     +1.914110E+00 +1.422990E+00 +5.496099E+00     +1.914110E+00 +1.422990E+00 +5.496099E+00     +5.157350E+00 +1.765779E+00 +1.156281E+00     +5.157350E+00 +1.765779E+00 +1.156281E+00     +5.157350E+00 +1.765779E+00 +1.156281E+00     +3.758950E+00 +1.131211E+00 +3.495980E+00     +3.758950E+00 +1.131211E+00 +3.495980E+00     +3.758950E+00 +1.131211E+00 +3.495980E+00     +3.758950E+00 +1.131211E+00 +3.495980E+00     +1.374796E-01 +1.228949E+00 +4.301060E+00     +1.374796E-01 +1.228949E+00 +4.301060E+00     +2.091821E+00 +2.086600E+00 +2.558670E+00     +2.091821E+00 +2.086600E+00 +2.558670E+00     +4.824010E+00 +8.755496E-01 +5.217430E+00     +4.824010E+00 +8.755496E-01 +5.217430E+00     +4.824010E+00 +8.755496E-01 +5.217430E+00     +4.824010E+00 +8.755496E-01 +5.217430E+00    
 +5.433811E+00 +1.679949E+00 +5.185890E+00     +5.433811E+00 +1.679949E+00 +5.185890E+00     +5.433811E+00 +1.679949E+00 +5.185890E+00     +3.869140E+00 +2.180499E+00 +5.555709E+00     +1.914110E+00 +1.422990E+00 +5.496099E+00     +5.157350E+00 +1.765779E+00 +1.156281E+00     +5.157350E+00 +1.765779E+00 +1.156281E+00     +5.157350E+00 +1.765779E+00 +1.156281E+00     +3.758950E+00 +1.131211E+00 +3.495980E+00     +3.758950E+00 +1.131211E+00 +3.495980E+00     +3.758950E+00 +1.131211E+00 +3.495980E+00     +3.758950E+00 +1.131211E+00 +3.495980E+00     +1.374796E-01 +1.228949E+00 +4.301060E+00     +1.374796E-01 +1.228949E+00 +4.301060E+00     +1.374796E-01 +1.228949E+00 +4.301060E+00     +1.374796E-01 +1.228949E+00 +4.301060E+00     +2.091821E+00 +2.086600E+00 +2.558670E+00     +2.013930E+00 +1.089689E+00 +4.875490E+00     +2.013930E+00 +1.089689E+00 +4.875490E+00     +4.824010E+00 +8.755496E-01 +5.217430E+00     +5.835107E-01 +6.701733E-01 +2.399269E-01    
 +5.433811E+00 +1.679949E+00 +5.185890E+00     +5.433811E+00 +1.679949E+00 +5.185890E+00     +5.433811E+00 +1.679949E+00 +5.185890E+00     +5.433811E+00 +1.679949E+00 +5.185890E+00     +5.433811E+00 +1.679949E+00 +5.185890E+00     +6.950512E-01 +1.125559E+00 +6.052470E-01     +3.758950E+00 +1.131211E+00 +3.495980E+00     +3.758950E+00 +1.131211E+00 +3.495980E+00     +3.758950E+00 +1.131211E+00 +3.495980E+00     +3.758950E+00 +1.131211E+00 +3.495980E+00     +3.758950E+00 +1.131211E+00 +3.495980E+00     +3.758950E+00 +1.131211E+00 +3.495980E+00     +1.374796E-01 +1.228949E+00 +4.301060E+00     +1.374796E-01 +1.228949E+00 +4.301060E+00     +1.374796E-01 +1.228949E+00 +4.301060E+00     +1.374796E-01 +1.228949E+00 +4.301060E+00     +2.013930E+00 +1.089689E+00 +4.875490E+00     +2.013930E+00 +1.089689E+00 +4.875490E+00     +2.013930E+00 +1.089689E+00 +4.875490E+00     +2.013930E+00 +1.089689E+00 +4.875490E+00     +5.433811E+00 +1.679949E+00 +5.185890E+00    
 +5.433811E+00 +1.679949E+00 +5.185890E+00     +5.433811E+00 +1.679949E+00 +5.185890E+00     +5.433811E+00 +1.679949E+00 +5.185890E+00     +5.433811E+00 +1.679949E+00 +5.185890E+00     +6.950512E-01 +1.125559E+00 +6.052470E-01     +6.950512E-01 +1.125559E+00 +6.052470E-01     +6.950512E-01 +1.125559E+00 +6.052470E-01     +3.758950E+00 +1.131211E+00 +3.495980E+00     +3.758950E+00 +1.131211E+00 +3.495980E+00     +3.758950E+00 +1.131211E+00 +3.495980E+00     +3.758950E+00 +1.131211E+00 +3.495980E+00     +3.758950E+00 +1.131211E+00 +3.495980E+00     +1.374796E-01 +1.228949E+00 +4.301060E+00     +1.374796E-01 +1.228949E+00 +4.301060E+00     +1.374796E-01 +1.228949E+00 +4.301060E+00     +1.374796E-01 +1.228949E+00 +4.301060E+00     +2.013930E+00 +1.089689E+00 +4.875490E+00     +2.013930E+00 +1.089689E+00 +4.875490E+00     +2.013930E+00 +1.089689E+00 +4.875490E+00     +2.013930E+00 +1.089689E+00 +4.875490E+00     +2.013930E+00 +1.089689E+00 +4.875490E+00    
 +5.433811E+00 +1.679949E+00 +5.185890E+00     +5.433811E+00 +1.679949E+00 +5.185890E+00     +5.433811E+00 +1.679949E+00 +5.185890E+00     +5.433811E+00 +1.679949E+00 +5.185890E+00     +6.950512E-01 +1.125559E+00 +6.052470E-01     +6.950512E-01 +1.125559E+00 +6.052470E-01     +6.950512E-01 +1.125559E+00 +6.052470E-01     +3.758950E+00 +1.131211E+00 +3.495980E+00     +3.758950E+00 +1.131211E+00 +3.495980E+00     +3.758950E+00 +1.131211E+00 +3.495980E+00     +3.758950E+00 +1.131211E+00 +3.495980E+00     +7.389550E-01 +1.758239E+00 +3.113430E+00     +9.909788E-01 +2.469810E+00 +3.427329E+00     +9.909788E-01 +2.469810E+00 +3.427329E+00     +9.909788E-01 +2.469810E+00 +3.427329E+00     +9.909788E-01 +2.469810E+00 +3.427329E+00     +2.013930E+00 +1.089689E+00 +4.875490E+00     +2.013930E+00 +1.089689E+00 +4.875490E+00     +2.013930E+00 +1.089689E+00 +4.875490E+00     +2.013930E+00 +1.089689E+00 +4.875490E+00     +2.013930E+00 +1.089689E+00 +4.875490E+00    
 +5.433811E+00 +1.679949E+00 +5.185890E+00     +5.433811E+00 +1.679949E+00 +5.185890E+00     +5.433811E+00 +1.679949E+00 +5.185890E+00     +5.433811E+00 +1.679949E+00 +5.185890E+00     +6.950512E-01 +1.125559E+00 +6.052470E-01     +6.950512E-01 +1.125559E+00 +6.052470E-01     +6.950512E-01 +1.125559E+00 +6.052470E-01     +3.758950E+00 +1.131211E+00 +3.495980E+00     +3.758950E+00 +1.131211E+00 +3.495980E+00     +3.758950E+00 +1.131211E+00 +3.495980E+00     +3.758950E+00 +1.131211E+00 +3.495980E+00     +7.389550E-01 +1.758239E+00 +3.113430E+00     +9.909788E-01 +2.469810E+00 +3.427329E+00     +9.909788E-01 +2.469810E+00 +3.427329E+00     +9.909788E-01 +2.469810E+00 +3.427329E+00     +9.909788E-01 +2.469810E+00 +3.427329E+00     +2.013930E+00 +1.089689E+00 +4.875490E+00     +2.013930E+00 +1.089689E+00 +4.875490E+00     +2.013930E+00 +1.089689E+00 +4.875490E+00     +2.013930E+00 +1.089689E+00 +4.875490E+00     +2.013930E+00 +1.089689E+00 +4.875490E+00    
 +5.433811E+00 +1.679949E+00 +5.185890E+00     +5.433811E+00 +1.679949E+00 +5.185890E+00     +5.433811E+00 +1.679949E+00 +5.185890E+00     +1.513420E+00 +1.589400E+00 +4.202107E-01     +2.543310E+00 +1.935980E+00 +2.518671E+00     +2.543310E+00 +1.935980E+00 +2.518671E+00     +2.543310E+00 +1.935980E+00 +2.518671E+00     +3.758950E+00 +1.131211E+00 +3.495980E+00     +3.758950E+00 +1.131211E+00 +3.495980E+00     +3.890700E+00 +2.090150E+00 +6.044089E+00     +3.890700E+00 +2.090150E+00 +6.044089E+00     +6.054039E+00 +8.540367E-01 +9.057613E-01     +6.054039E+00 +8.540367E-01 +9.057613E-01     +6.054039E+00 +8.540367E-01 +9.057613E-01     +4.214370E+00 +2.327639E+00 +6.006060E+00     +4.214370E+00 +2.327639E+00 +6.006060E+00     +4.214370E+00 +2.327639E+00 +6.006060E+00     +2.013930E+00 +1.089689E+00 +4.875490E+00     +2.013930E+00 +1.089689E+00 +4.875490E+00     +2.013930E+00 +1.089689E+00 +4.875490E+00     +5.433811E+00 +1.679949E+00 +5.185890E+00    
 +5.433811E+00 +1.679949E+00 +5.185890E+00     +2.072921E+00 +2.692690E+00 +2.495990E+00     +5.433811E+00 +1.679949E+00 +5.185890E+00     +3.215650E+00 +1.546719E+00 +1.366820E+00     +2.543310E+00 +1.935980E+00 +2.518671E+00     +2.543310E+00 +1.935980E+00 +2.518671E+00     +2.543310E+00 +1.935980E+00 +2.518671E+00     +2.543310E+00 +1.935980E+00 +2.518671E+00     +3.612540E+00 +1.265290E+00 +3.981019E+00     +3.612540E+00 +1.265290E+00 +3.981019E+00     +3.890700E+00 +2.090150E+00 +6.044089E+00     +6.054039E+00 +8.540367E-01 +9.057613E-01     +6.054039E+00 +8.540367E-01 +9.057613E-01     +6.054039E+00 +8.540367E-01 +9.057613E-01     +1.224610E+00 +1.377710E+00 +3.225890E+00     +1.224610E+00 +1.377710E+00 +3.225890E+00     +1.224610E+00 +1.377710E+00 +3.225890E+00     +1.224610E+00 +1.377710E+00 +3.225890E+00     +2.563601E+00 +1.783100E+00 +2.644291E+00     +2.563601E+00 +1.783100E+00 +2.644291E+00     +5.433811E+00 +1.679949E+00 +5.185890E+00    
 +2.072921E+00 +2.692690E+00 +2.495990E+00     +2.072921E+00 +2.692690E+00 +2.495990E+00     +2.072921E+00 +2.692690E+00 +2.495990E+00     +2.072921E+00 +2.692690E+00 +2.495990E+00     +2.543310E+00 +1.935980E+00 +2.518671E+00     +1.114019E+00 +9.085102E-01 +5.696470E+00     +1.114019E+00 +9.085102E-01 +5.696470E+00     +1.114019E+00 +9.085102E-01 +5.696470E+00     +3.612540E+00 +1.265290E+00 +3.981019E+00     +3.612540E+00 +1.265290E+00 +3.981019E+00     +6.054039E+00 +8.540367E-01 +9.057613E-01     +6.054039E+00 +8.540367E-01 +9.057613E-01     +6.054039E+00 +8.540367E-01 +9.057613E-01     +6.054039E+00 +8.540367E-01 +9.057613E-01     +1.224610E+00 +1.377710E+00 +3.225890E+00     +1.224610E+00 +1.377710E+00 +3.225890E+00     +1.224610E+00 +1.377710E+00 +3.225890E+00     +1.224610E+00 +1.377710E+00 +3.225890E+00     +2.563601E+00 +1.783100E+00 +2.644291E+00     +2.563601E+00 +1.783100E+00 +2.644291E+00     +2.563601E+00 +1.783100E+00 +2.644291E+00    
 +2.072921E+00 +2.692690E+00 +2.495990E+00     +2.072921E+00 +2.692690E+00 +2.495990E+00     +2.072921E+00 +2.692690E+00 +2.495990E+00     +2.072921E+00 +2.692690E+00 +2.495990E+00     +1.114019E+00 +9.085102E-01 +5.696470E+00     +1.114019E+00 +9.085102E-01 +5.696470E+00     +1.114019E+00 +9.085102E-01 +5.696470E+00     +1.114019E+00 +9.085102E-01 +5.696470E+00     +1.114019E+00 +9.085102E-01 +5.696470E+00     +3.612540E+00 +1.265290E+00 +3.981019E+00     +6.054039E+00 +8.540367E-01 +9.057613E-01     +6.054039E+00 +8.540367E-01 +9.057613E-01     +6.054039E+00 +8.540367E-01 +9.057613E-01     +6.054039E+00 +8.540367E-01 +9.057613E-01     +1.224610E+00 +1.377710E+00 +3.225890E+00     +1.224610E+00 +1.377710E+00 +3.225890E+00     +1.224610E+00 +1.377710E+00 +3.225890E+00     +1.224610E+00 +1.377710E+00 +3.225890E+00     +2.563601E+00 +1.783100E+00 +2.644291E+00     +3.656170E+00 +2.634601E+00 +5.280831E+00     +3.656170E+00 +2.634601E+00 +5.280831E+00    
 +2.615599E+00 +1.628670E+00 +4.890741E+00     +2.072921E+00 +2.692690E+00 +2.495990E+00     +4.046370E+00 +2.683341E+00 +1.019586E-01     +4.046370E+00 +2.683341E+00 +1.019586E-01     +1.114019E+00 +9.085102E-01 +5.696470E+00     +1.114019E+00 +9.085102E-01 +5.696470E+00     +1.114019E+00 +9.085102E-01 +5.696470E+00     +1.114019E+00 +9.085102E-01 +5.696470E+00     +1.114019E+00 +9.085102E-01 +5.696470E+00     +1.114019E+00 +9.085102E-01 +5.696470E+00     +6.054039E+00 +8.540367E-01 +9.057613E-01     +6.054039E+00 +8.540367E-01 +9.057613E-01     +6.054039E+00 +8.540367E-01 +9.057613E-01     +6.054039E+00 +8.540367E-01 +9.057613E-01     +1.224610E+00 +1.377710E+00 +3.225890E+00     +1.224610E+00 +1.377710E+00 +3.225890E+00     +3.881970E+00 +6.810327E-01 +3.088199E+00     +3.881970E+00 +6.810327E-01 +3.088199E+00     +3.656170E+00 +2.634601E+00 +5.280831E+00     +2.053430E+00 +2.508590E+00 +3.670989E+00     +3.656170E+00 +2.634601E+00 +5.280831E+00    
 +2.615599E+00 +1.628670E+00 +4.890741E+00     +4.046370E+00 +2.683341E+00 +1.019586E-01     +4.046370E+00 +2.683341E+00 +1.019586E-01     +4.046370E+00 +2.683341E+00 +1.019586E-01     +4.046370E+00 +2.683341E+00 +1.019586E-01     +1.114019E+00 +9.085102E-01 +5.696470E+00     +1.114019E+00 +9.085102E-01 +5.696470E+00     +1.114019E+00 +9.085102E-01 +5.696470E+00     +1.114019E+00 +9.085102E-01 +5.696470E+00     +1.114019E+00 +9.085102E-01 +5.696470E+00     +1.114019E+00 +9.085102E-01 +5.696470E+00     +6.054039E+00 +8.540367E-01 +9.057613E-01     +6.054039E+00 +8.540367E-01 +9.057613E-01     +6.054039E+00 +8.540367E-01 +9.057613E-01     +3.881970E+00 +6.810327E-01 +3.088199E+00     +3.881970E+00 +6.810327E-01 +3.088199E+00     +3.881970E+00 +6.810327E-01 +3.088199E+00     +3.881970E+00 +6.810327E-01 +3.088199E+00     +2.053430E+00 +2.508590E+00 +3.670989E+00     +2.053430E+00 +2.508590E+00 +3.670989E+00     +2.053430E+00 +2.508590E+00 +3.670989E+00    
 +4.046370E+00 +2.683341E+00 +1.019586E-01     +4.046370E+00 +2.683341E+00 +1.019586E-01     +4.046370E+00 +2.683341E+00 +1.019586E-01     +4.046370E+00 +2.683341E+00 +1.019586E-01     +4.046370E+00 +2.683341E+00 +1.019586E-01     +4.046370E+00 +2.683341E+00 +1.019586E-01     +1.114019E+00 +9.085102E-01 +5.696470E+00     +1.114019E+00 +9.085102E-01 +5.696470E+00     +1.114019E+00 +9.085102E-01 +5.696470E+00     +1.114019E+00 +9.085102E-01 +5.696470E+00     +4.813019E+00 +2.408141E+00 +2.331376E-01     +4.813019E+00 +2.408141E+00 +2.331376E-01     +4.813019E+00 +2.408141E+00 +2.331376E-01     +3.881970E+00 +6.810327E-01 +3.088199E+00     +3.881970E+00 +6.810327E-01 +3.088199E+00     +3.881970E+00 +6.810327E-01 +3.088199E+00     +3.881970E+00 +6.810327E-01 +3.088199E+00     +3.881970E+00 +6.810327E-01 +3.088199E+00     +3.881970E+00 +6.810327E-01 +3.088199E+00     +3.881970E+00 +6.810327E-01 +3.088199E+00     +3.881970E+00 +6.810327E-01 +3.088199E+00    
 +4.046370E+00 +2.683341E+00 +1.019586E-01     +4.046370E+00 +2.683341E+00 +1.019586E-01     +4.046370E+00 +2.683341E+00 +1.019586E-01     +4.046370E+00 +2.683341E+00 +1.019586E-01     +4.046370E+00 +2.683341E+00 +1.019586E-01     +4.046370E+00 +2.683341E+00 +1.019586E-01     +1.865129E-01 +4.469998E-01 +4.307549E+00     +1.114019E+00 +9.085102E-01 +5.696470E+00     +1.114019E+00 +9.085102E-01 +5.696470E+00     +4.813019E+00 +2.408141E+00 +2.331376E-01     +4.813019E+00 +2.408141E+00 +2.331376E-01     +4.813019E+00 +2.408141E+00 +2.331376E-01     +4.813019E+00 +2.408141E+00 +2.331376E-01     +3.881970E+00 +6.810327E-01 +3.088199E+00     +3.881970E+00 +6.810327E-01 +3.088199E+00     +3.881970E+00 +6.810327E-01 +3.088199E+00     +3.881970E+00 +6.810327E-01 +3.088199E+00     +3.881970E+00 +6.810327E-01 +3.088199E+00     +3.881970E+00 +6.810327E-01 +3.088199E+00     +3.881970E+00 +6.810327E-01 +3.088199E+00     +3.881970E+00 +6.810327E-01 +3.088199E+00    
 +1.198790E+00 +2.438080E+00 +8.100614E-01     +1.198790E+00 +2.438080E+00 +8.100614E-01     +1.198790E+00 +2.438080E+00 +8.100614E-01     +4.046370E+00 +2.683341E+00 +1.019586E-01     +4.046370E+00 +2.683341E+00 +1.019586E-01     +4.046370E+00 +2.683341E+00 +1.019586E-01     +4.046370E+00 +2.683341E+00 +1.019586E-01     +4.046370E+00 +2.683341E+00 +1.019586E-01     +1.070719E+00 +3.908229E-01 +4.967207E-01     +1.666920E+00 +2.348550E+00 +2.015970E+00     +4.813019E+00 +2.408141E+00 +2.331376E-01     +4.813019E+00 +2.408141E+00 +2.331376E-01     +2.593730E+00 +2.615301E+00 +5.023920E+00     +5.915940E+00 +1.370550E+00 +4.709919E+00     +5.915940E+00 +1.370550E+00 +4.709919E+00     +3.881970E+00 +6.810327E-01 +3.088199E+00     +3.881970E+00 +6.810327E-01 +3.088199E+00     +3.881970E+00 +6.810327E-01 +3.088199E+00     +3.881970E+00 +6.810327E-01 +3.088199E+00     +3.881970E+00 +6.810327E-01 +3.088199E+00     +3.881970E+00 +6.810327E-01 +3.088199E+00    
 +5.041506E-01 +2.354709E+00 +2.561890E+00     +1.198790E+00 +2.438080E+00 +8.100614E-01     +1.198790E+00 +2.438080E+00 +8.100614E-01     +3.071980E+00 +9.047298E-01 +7.368065E-01     +1.198790E+00 +2.438080E+00 +8.100614E-01     +1.198790E+00 +2.438080E+00 +8.100614E-01     +1.198790E+00 +2.438080E+00 +8.100614E-01     +1.070719E+00 +3.908229E-01 +4.967207E-01     +1.070719E+00 +3.908229E-01 +4.967207E-01     +1.070719E+00 +3.908229E-01 +4.967207E-01     +3.084890E+00 +2.202740E+00 +4.869291E+00     +3.084890E+00 +2.202740E+00 +4.869291E+00     +5.915940E+00 +1.370550E+00 +4.709919E+00     +5.915940E+00 +1.370550E+00 +4.709919E+00     +5.915940E+00 +1.370550E+00 +4.709919E+00     +5.915940E+00 +1.370550E+00 +4.709919E+00     +3.881970E+00 +6.810327E-01 +3.088199E+00     +3.881970E+00 +6.810327E-01 +3.088199E+00     +3.881970E+00 +6.810327E-01 +3.088199E+00     +3.881970E+00 +6.810327E-01 +3.088199E+00     +5.041506E-01 +2.354709E+00 +2.561890E+00    
 +5.041506E-01 +2.354709E+00 +2.561890E+00     +1.198790E+00 +2.438080E+00 +8.100614E-01     +1.198790E+00 +2.438080E+00 +8.100614E-01     +1.198790E+00 +2.438080E+00 +8.100614E-01     +1.198790E+00 +2.438080E+00 +8.100614E-01     +1.198790E+00 +2.438080E+00 +8.100614E-01     +1.198790E+00 +2.438080E+00 +8.100614E-01     +3.956649E+00 +1.065070E-01 +3.420859E+00     +1.070719E+00 +3.908229E-01 +4.967207E-01     +3.956649E+00 +1.065070E-01 +3.420859E+00     +3.956649E+00 +1.065070E-01 +3.420859E+00     +5.915940E+00 +1.370550E+00 +4.709919E+00     +5.915940E+00 +1.370550E+00 +4.709919E+00     +5.915940E+00 +1.370550E+00 +4.709919E+00     +5.915940E+00 +1.370550E+00 +4.709919E+00     +5.915940E+00 +1.370550E+00 +4.709919E+00     +5.915940E+00 +1.370550E+00 +4.709919E+00     +3.881970E+00 +6.810327E-01 +3.088199E+00     +5.041506E-01 +2.354709E+00 +2.561890E+00     +5.041506E-01 +2.354709E+00 +2.561890E+00     +5.041506E-01 +2.354709E+00 +2.561890E+00    
 +5.041506E-01 +2.354709E+00 +2.561890E+00     +1.198790E+00 +2.438080E+00 +8.100614E-01     +3.622480E+00 +2.571390E+00 +3.240610E+00     +3.622480E+00 +2.571390E+00 +3.240610E+00     +3.622480E+00 +2.571390E+00 +3.240610E+00     +1.198790E+00 +2.438080E+00 +8.100614E-01     +6.237170E+00 +1.034020E+00 +5.949609E+00     +3.956649E+00 +1.065070E-01 +3.420859E+00     +3.956649E+00 +1.065070E-01 +3.420859E+00     +3.956649E+00 +1.065070E-01 +3.420859E+00     +3.956649E+00 +1.065070E-01 +3.420859E+00     +3.956649E+00 +1.065070E-01 +3.420859E+00     +3.115390E+00 +1.210260E+00 +4.526370E+00     +3.115390E+00 +1.210260E+00 +4.526370E+00     +5.915940E+00 +1.370550E+00 +4.709919E+00     +5.915940E+00 +1.370550E+00 +4.709919E+00     +5.915940E+00 +1.370550E+00 +4.709919E+00     +5.041506E-01 +2.354709E+00 +2.561890E+00     +5.041506E-01 +2.354709E+00 +2.561890E+00     +5.041506E-01 +2.354709E+00 +2.561890E+00     +5.041506E-01 +2.354709E+00 +2.561890E+00    
 +5.041506E-01 +2.354709E+00 +2.561890E+00     +5.041506E-01 +2.354709E+00 +2.561890E+00     +3.622480E+00 +2.571390E+00 +3.240610E+00     +3.622480E+00 +2.571390E+00 +3.240610E+00     +1.914110E+00 +1.422990E+00 +5.496099E+00     +1.914110E+00 +1.422990E+00 +5.496099E+00     +1.914110E+00 +1.422990E+00 +5.496099E+00     +3.956649E+00 +1.065070E-01 +3.420859E+00     +3.956649E+00 +1.065070E-01 +3.420859E+00     +3.956649E+00 +1.065070E-01 +3.420859E+00     +3.956649E+00 +1.065070E-01 +3.420859E+00     +3.956649E+00 +1.065070E-01 +3.420859E+00     +3.115390E+00 +1.210260E+00 +4.526370E+00     +3.115390E+00 +1.210260E+00 +4.526370E+00     +5.915940E+00 +1.370550E+00 +4.709919E+00     +5.915940E+00 +1.370550E+00 +4.709919E+00     +5.915940E+00 +1.370550E+00 +4.709919E+00     +5.041506E-01 +2.354709E+00 +2.561890E+00     +5.041506E-01 +2.354709E+00 +2.561890E+00     +5.041506E-01 +2.354709E+00 +2.561890E+00     +5.041506E-01 +2.354709E+00 +2.561890E+00    
 +5.041506E-01 +2.354709E+00 +2.561890E+00     +5.041506E-01 +2.354709E+00 +2.561890E+00     +3.622480E+00 +2.571390E+00 +3.240610E+00     +1.914110E+00 +1.422990E+00 +5.496099E+00     +1.914110E+00 +1.422990E+00 +5.496099E+00     +1.914110E+00 +1.422990E+00 +5.496099E+00     +3.956649E+00 +1.065070E-01 +3.420859E+00     +3.956649E+00 +1.065070E-01 +3.420859E+00     +3.956649E+00 +1.065070E-01 +3.420859E+00     +3.956649E+00 +1.065070E-01 +3.420859E+00     +3.956649E+00 +1.065070E-01 +3.420859E+00     +3.956649E+00 +1.065070E-01 +3.420859E+00     +3.956649E+00 +1.065070E-01 +3.420859E+00     +3.115390E+00 +1.210260E+00 +4.526370E+00     +2.091821E+00 +2.086600E+00 +2.558670E+00     +2.091821E+00 +2.086600E+00 +2.558670E+00     +5.570089E+00 +1.761910E+00 +5.651350E+00     +5.570089E+00 +1.761910E+00 +5.651350E+00     +5.041506E-01 +2.354709E+00 +2.561890E+00     +5.041506E-01 +2.354709E+00 +2.561890E+00     +5.041506E-01 +2.354709E+00 +2.561890E+00    
 +7.364801E-01 +2.806779E+00 +3.325250E+00     +7.364801E-01 +2.806779E+00 +3.325250E+00     +7.364801E-01 +2.806779E+00 +3.325250E+00     +1.914110E+00 +1.422990E+00 +5.496099E+00     +1.914110E+00 +1.422990E+00 +5.496099E+00     +1.914110E+00 +1.422990E+00 +5.496099E+00     +1.914110E+00 +1.422990E+00 +5.496099E+00     +3.956649E+00 +1.065070E-01 +3.420859E+00     +3.956649E+00 +1.065070E-01 +3.420859E+00     +3.956649E+00 +1.065070E-01 +3.420859E+00     +3.956649E+00 +1.065070E-01 +3.420859E+00     +3.956649E+00 +1.065070E-01 +3.420859E+00     +3.956649E+00 +1.065070E-01 +3.420859E+00     +2.091821E+00 +2.086600E+00 +2.558670E+00     +2.091821E+00 +2.086600E+00 +2.558670E+00     +2.091821E+00 +2.086600E+00 +2.558670E+00     +2.091821E+00 +2.086600E+00 +2.558670E+00     +5.570089E+00 +1.761910E+00 +5.651350E+00     +5.041506E-01 +2.354709E+00 +2.561890E+00     +5.041506E-01 +2.354709E+00 +2.561890E+00     +5.041506E-01 +2.354709E+00 +2.561890E+00    
 +5.433811E+00 +1.679949E+00 +5.185890E+00     +5.433811E+00 +1.679949E+00 +5.185890E+00     +7.364801E-01 +2.806779E+00 +3.325250E+00     +3.869140E+00 +2.180499E+00 +5.555709E+00     +1.914110E+00 +1.422990E+00 +5.496099E+00     +1.914110E+00 +1.422990E+00 +5.496099E+00     +5.157350E+00 +1.765779E+00 +1.156281E+00     +5.157350E+00 +1.765779E+00 +1.156281E+00     +3.956649E+00 +1.065070E-01 +3.420859E+00     +3.956649E+00 +1.065070E-01 +3.420859E+00     +3.956649E+00 +1.065070E-01 +3.420859E+00     +3.758950E+00 +1.131211E+00 +3.495980E+00     +3.758950E+00 +1.131211E+00 +3.495980E+00     +1.374796E-01 +1.228949E+00 +4.301060E+00     +2.091821E+00 +2.086600E+00 +2.558670E+00     +2.091821E+00 +2.086600E+00 +2.558670E+00     +2.091821E+00 +2.086600E+00 +2.558670E+00     +2.091821E+00 +2.086600E+00 +2.558670E+00     +1.615070E+00 +1.144740E+00 +5.368900E+00     +4.824010E+00 +8.755496E-01 +5.217430E+00     +4.824010E+00 +8.755496E-01 +5.217430E+00    
 +5.433811E+00 +1.679949E+00 +5.185890E+00     +5.433811E+00 +1.679949E+00 +5.185890E+00     +5.433811E+00 +1.679949E+00 +5.185890E+00     +5.433811E+00 +1.679949E+00 +5.185890E+00     +1.914110E+00 +1.422990E+00 +5.496099E+00     +3.680027E-01 +1.781810E+00 +2.174680E-02     +3.680027E-01 +1.781810E+00 +2.174680E-02     +3.758950E+00 +1.131211E+00 +3.495980E+00     +3.758950E+00 +1.131211E+00 +3.495980E+00     +3.758950E+00 +1.131211E+00 +3.495980E+00     +3.758950E+00 +1.131211E+00 +3.495980E+00     +3.758950E+00 +1.131211E+00 +3.495980E+00     +1.374796E-01 +1.228949E+00 +4.301060E+00     +1.374796E-01 +1.228949E+00 +4.301060E+00     +1.374796E-01 +1.228949E+00 +4.301060E+00     +2.091821E+00 +2.086600E+00 +2.558670E+00     +2.091821E+00 +2.086600E+00 +2.558670E+00     +1.615070E+00 +1.144740E+00 +5.368900E+00     +1.615070E+00 +1.144740E+00 +5.368900E+00     +4.824010E+00 +8.755496E-01 +5.217430E+00     +5.433811E+00 +1.679949E+00 +5.185890E+00    
 +5.433811E+00 +1.679949E+00 +5.185890E+00     +5.433811E+00 +1.679949E+00 +5.185890E+00     +5.433811E+00 +1.679949E+00 +5.185890E+00     +5.433811E+00 +1.679949E+00 +5.185890E+00     +5.433811E+00 +1.679949E+00 +5.185890E+00     +3.680027E-01 +1.781810E+00 +2.174680E-02     +3.680027E-01 +1.781810E+00 +2.174680E-02     +3.680027E-01 +1.781810E+00 +2.174680E-02     +3.758950E+00 +1.131211E+00 +3.495980E+00     +3.758950E+00 +1.131211E+00 +3.495980E+00     +3.758950E+00 +1.131211E+00 +3.495980E+00     +3.758950E+00 +1.131211E+00 +3.495980E+00     +1.374796E-01 +1.228949E+00 +4.301060E+00     +1.374796E-01 +1.228949E+00 +4.301060E+00     +1.374796E-01 +1.228949E+00 +4.301060E+00     +1.374796E-01 +1.228949E+00 +4.301060E+00     +1.374796E-01 +1.228949E+00 +4.301060E+00     +2.013930E+00 +1.089689E+00 +4.875490E+00     +2.013930E+00 +1.089689E+00 +4.875490E+00     +2.013930E+00 +1.089689E+00 +4.875490E+00     +5.433811E+00 +1.679949E+00 +5.185890E+00    
 +5.433811E+00 +1.679949E+00 +5.185890E+00     +5.433811E+00 +1.679949E+00 +5.185890E+00     +5.433811E+00 +1.679949E+00 +5.185890E+00     +5.433811E+00 +1.679949E+00 +5.185890E+00     +5.433811E+00 +1.679949E+00 +5.185890E+00     +3.680027E-01 +1.781810E+00 +2.174680E-02     +3.680027E-01 +1.781810E+00 +2.174680E-02     +3.680027E-01 +1.781810E+00 +2.174680E-02     +3.758950E+00 +1.131211E+00 +3.495980E+00     +3.758950E+00 +1.131211E+00 +3.495980E+00     +3.758950E+00 +1.131211E+00 +3.495980E+00     +7.389550E-01 +1.758239E+00 +3.113430E+00     +1.374796E-01 +1.228949E+00 +4.301060E+00     +1.374796E-01 +1.228949E+00 +4.301060E+00     +1.374796E-01 +1.228949E+00 +4.301060E+00     +1.374796E-01 +1.228949E+00 +4.301060E+00     +1.374796E-01 +1.228949E+00 +4.301060E+00     +2.013930E+00 +1.089689E+00 +4.875490E+00     +2.013930E+00 +1.089689E+00 +4.875490E+00     +2.013930E+00 +1.089689E+00 +4.875490E+00     +5.433811E+00 +1.679949E+00 +5.185890E+00    
 +5.433811E+00 +1.679949E+00 +5.185890E+00     +5.433811E+00 +1.679949E+00 +5.185890E+00     +5.433811E+00 +1.679949E+00 +5.185890E+00     +5.433811E+00 +1.679949E+00 +5.185890E+00     +5.433811E+00 +1.679949E+00 +5.185890E+00     +6.950512E-01 +1.125559E+00 +6.052470E-01     +3.680027E-01 +1.781810E+00 +2.174680E-02     +3.680027E-01 +1.781810E+00 +2.174680E-02     +3.680027E-01 +1.781810E+00 +2.174680E-02     +3.758950E+00 +1.131211E+00 +3.495980E+00     +7.389550E-01 +1.758239E+00 +3.113430E+00     +7.389550E-01 +1.758239E+00 +3.113430E+00     +9.909788E-01 +2.469810E+00 +3.427329E+00     +9.909788E-01 +2.469810E+00 +3.427329E+00     +9.909788E-01 +2.469810E+00 +3.427329E+00     +9.478342E-01 +1.460731E+00 +2.908085E-01     +9.478342E-01 +1.460731E+00 +2.908085E-01     +2.013930E+00 +1.089689E+00 +4.875490E+00     +2.013930E+00 +1.089689E+00 +4.875490E+00     +2.013930E+00 +1.089689E+00 +4.875490E+00     +5.433811E+00 +1.679949E+00 +5.185890E+00    
 +5.433811E+00 +1.679949E+00 +5.185890E+00     +5.433811E+00 +1.679949E+00 +5.185890E+00     +5.433811E+00 +1.679949E+00 +5.185890E+00     +5.433811E+00 +1.679949E+00 +5.185890E+00     +5.433811E+00 +1.679949E+00 +5.185890E+00     +2.764511E+00 +1.413471E+00 +1.580460E+00     +3.680027E-01 +1.781810E+00 +2.174680E-02     +3.680027E-01 +1.781810E+00 +2.174680E-02     +3.680027E-01 +1.781810E+00 +2.174680E-02     +3.758950E+00 +1.131211E+00 +3.495980E+00     +7.389550E-01 +1.758239E+00 +3.113430E+00     +7.389550E-01 +1.758239E+00 +3.113430E+00     +9.909788E-01 +2.469810E+00 +3.427329E+00     +9.909788E-01 +2.469810E+00 +3.427329E+00     +9.909788E-01 +2.469810E+00 +3.427329E+00     +9.478342E-01 +1.460731E+00 +2.908085E-01     +3.433651E+00 +1.387669E+00 +4.191160E+00     +3.433651E+00 +1.387669E+00 +4.191160E+00     +2.013930E+00 +1.089689E+00 +4.875490E+00     +2.013930E+00 +1.089689E+00 +4.875490E+00     +5.433811E+00 +1.679949E+00 +5.185890E+00    
 +5.433811E+00 +1.679949E+00 +5.185890E+00     +5.433811E+00 +1.679949E+00 +5.185890E+00     +5.433811E+00 +1.679949E+00 +5.185890E+00     +5.433811E+00 +1.679949E+00 +5.185890E+00     +2.764511E+00 +1.413471E+00 +1.580460E+00     +2.764511E+00 +1.413471E+00 +1.580460E+00     +2.764511E+00 +1.413471E+00 +1.580460E+00     +3.680027E-01 +1.781810E+00 +2.174680E-02     +3.680027E-01 +1.781810E+00 +2.174680E-02     +3.890700E+00 +2.090150E+00 +6.044089E+00     +3.890700E+00 +2.090150E+00 +6.044089E+00     +6.054039E+00 +8.540367E-01 +9.057613E-01     +6.054039E+00 +8.540367E-01 +9.057613E-01     +9.909788E-01 +2.469810E+00 +3.427329E+00     +9.909788E-01 +2.469810E+00 +3.427329E+00     +3.433651E+00 +1.387669E+00 +4.191160E+00     +3.433651E+00 +1.387669E+00 +4.191160E+00     +3.433651E+00 +1.387669E+00 +4.191160E+00     +3.433651E+00 +1.387669E+00 +4.191160E+00     +2.013930E+00 +1.089689E+00 +4.875490E+00     +5.433811E+00 +1.679949E+00 +5.185890E+00    
 +5.433811E+00 +1.679949E+00 +5.185890E+00     +2.381050E+00 +2.283360E+00 +4.075920E+00     +5.433811E+00 +1.679949E+00 +5.185890E+00     +5.433811E+00 +1.679949E+00 +5.185890E+00     +2.764511E+00 +1.413471E+00 +1.580460E+00     +2.764511E+00 +1.413471E+00 +1.580460E+00     +2.764511E+00 +1.413471E+00 +1.580460E+00     +1.044690E+00 +1.064689E+00 +5.803421E+00     +1.044690E+00 +1.064689E+00 +5.803421E+00     +3.612540E+00 +1.265290E+00 +3.981019E+00     +3.890700E+00 +2.090150E+00 +6.044089E+00     +6.054039E+00 +8.540367E-01 +9.057613E-01     +6.054039E+00 +8.540367E-01 +9.057613E-01     +6.054039E+00 +8.540367E-01 +9.057613E-01     +1.224610E+00 +1.377710E+00 +3.225890E+00     +1.224610E+00 +1.377710E+00 +3.225890E+00     +3.433651E+00 +1.387669E+00 +4.191160E+00     +3.433651E+00 +1.387669E+00 +4.191160E+00     +3.433651E+00 +1.387669E+00 +4.191160E+00     +2.563601E+00 +1.783100E+00 +2.644291E+00     +5.433811E+00 +1.679949E+00 +5.185890E+00    
 +2.381050E+00 +2.283360E+00 +4.075920E+00     +2.381050E+00 +2.283360E+00 +4.075920E+00     +2.381050E+00 +2.283360E+00 +4.075920E+00     +2.381050E+00 +2.283360E+00 +4.075920E+00     +1.114019E+00 +9.085102E-01 +5.696470E+00     +1.114019E+00 +9.085102E-01 +5.696470E+00     +1.114019E+00 +9.085102E-01 +5.696470E+00     +1.114019E+00 +9.085102E-01 +5.696470E+00     +1.114019E+00 +9.085102E-01 +5.696470E+00     +3.612540E+00 +1.265290E+00 +3.981019E+00     +6.054039E+00 +8.540367E-01 +9.057613E-01     +6.054039E+00 +8.540367E-01 +9.057613E-01     +6.054039E+00 +8.540367E-01 +9.057613E-01     +6.054039E+00 +8.540367E-01 +9.057613E-01     +1.224610E+00 +1.377710E+00 +3.225890E+00     +1.224610E+00 +1.377710E+00 +3.225890E+00     +1.224610E+00 +1.377710E+00 +3.225890E+00     +3.433651E+00 +1.387669E+00 +4.191160E+00     +2.563601E+00 +1.783100E+00 +2.644291E+00     +2.563601E+00 +1.783100E+00 +2.644291E+00     +2.563601E+00 +1.783100E+00 +2.644291E+00    
 +2.615599E+00 +1.628670E+00 +4.890741E+00     +2.615599E+00 +1.628670E+00 +4.890741E+00     +2.615599E+00 +1.628670E+00 +4.890741E+00     +2.615599E+00 +1.628670E+00 +4.890741E+00     +1.114019E+00 +9.085102E-01 +5.696470E+00     +1.114019E+00 +9.085102E-01 +5.696470E+00     +1.114019E+00 +9.085102E-01 +5.696470E+00     +1.114019E+00 +9.085102E-01 +5.696470E+00     +1.114019E+00 +9.085102E-01 +5.696470E+00     +3.612540E+00 +1.265290E+00 +3.981019E+00     +6.054039E+00 +8.540367E-01 +9.057613E-01     +6.054039E+00 +8.540367E-01 +9.057613E-01     +6.054039E+00 +8.540367E-01 +9.057613E-01     +6.054039E+00 +8.540367E-01 +9.057613E-01     +1.224610E+00 +1.377710E+00 +3.225890E+00     +5.858500E+00 +2.491110E+00 +6.200010E+00     +1.224610E+00 +1.377710E+00 +3.225890E+00     +3.881970E+00 +6.810327E-01 +3.088199E+00     +2.563601E+00 +1.783100E+00 +2.644291E+00     +2.053430E+00 +2.508590E+00 +3.670989E+00     +2.053430E+00 +2.508590E+00 +3.670989E+00    
 +2.615599E+00 +1.628670E+00 +4.890741E+00     +2.615599E+00 +1.628670E+00 +4.890741E+00     +2.615599E+00 +1.628670E+00 +4.890741E+00     +2.615599E+00 +1.628670E+00 +4.890741E+00     +1.114019E+00 +9.085102E-01 +5.696470E+00     +1.114019E+00 +9.085102E-01 +5.696470E+00     +1.114019E+00 +9.085102E-01 +5.696470E+00     +1.114019E+00 +9.085102E-01 +5.696470E+00     +1.114019E+00 +9.085102E-01 +5.696470E+00     +1.114019E+00 +9.085102E-01 +5.696470E+00     +9.955812E-01 +2.258920E+00 +2.958440E+00     +6.054039E+00 +8.540367E-01 +9.057613E-01     +6.054039E+00 +8.540367E-01 +9.057613E-01     +5.858500E+00 +2.491110E+00 +6.200010E+00     +5.858500E+00 +2.491110E+00 +6.200010E+00     +5.858500E+00 +2.491110E+00 +6.200010E+00     +3.881970E+00 +6.810327E-01 +3.088199E+00     +3.881970E+00 +6.810327E-01 +3.088199E+00     +2.053430E+00 +2.508590E+00 +3.670989E+00     +2.053430E+00 +2.508590E+00 +3.670989E+00     +2.053430E+00 +2.508590E+00 +3.670989E+00    
 +2.615599E+00 +1.628670E+00 +4.890741E+00     +2.615599E+00 +1.628670E+00 +4.890741E+00     +4.046370E+00 +2.683341E+00 +1.019586E-01     +4.046370E+00 +2.683341E+00 +1.019586E-01     +4.046370E+00 +2.683341E+00 +1.019586E-01     +1.114019E+00 +9.085102E-01 +5.696470E+00     +1.114019E+00 +9.085102E-01 +5.696470E+00     +1.114019E+00 +9.085102E-01 +5.696470E+00     +1.114019E+00 +9.085102E-01 +5.696470E+00     +1.114019E+00 +9.085102E-01 +5.696470E+00     +9.955812E-01 +2.258920E+00 +2.958440E+00     +1.275359E+00 +2.170849E+00 +8.672960E-01     +6.054039E+00 +8.540367E-01 +9.057613E-01     +5.858500E+00 +2.491110E+00 +6.200010E+00     +3.881970E+00 +6.810327E-01 +3.088199E+00     +3.881970E+00 +6.810327E-01 +3.088199E+00     +3.881970E+00 +6.810327E-01 +3.088199E+00     +3.881970E+00 +6.810327E-01 +3.088199E+00     +2.053430E+00 +2.508590E+00 +3.670989E+00     +2.053430E+00 +2.508590E+00 +3.670989E+00     +2.053430E+00 +2.508590E+00 +3.670989E+00    
 +2.615599E+00 +1.628670E+00 +4.890741E+00     +2.615599E+00 +1.628670E+00 +4.890741E+00     +4.046370E+00 +2.683341E+00 +1.019586E-01     +4.046370E+00 +2.683341E+00 +1.019586E-01     +4.046370E+00 +2.683341E+00 +1.019586E-01     +4.046370E+00 +2.683341E+00 +1.019586E-01     +4.046370E+00 +2.683341E+00 +1.019586E-01     +1.666920E+00 +2.348550E+00 +2.015970E+00     +1.666920E+00 +2.348550E+00 +2.015970E+00     +1.666920E+00 +2.348550E+00 +2.015970E+00     +4.813019E+00 +2.408141E+00 +2.331376E-01     +4.813019E+00 +2.408141E+00 +2.331376E-01     +4.813019E+00 +2.408141E+00 +2.331376E-01     +4.813019E+00 +2.408141E+00 +2.331376E-01     +3.881970E+00 +6.810327E-01 +3.088199E+00     +3.881970E+00 +6.810327E-01 +3.088199E+00     +3.881970E+00 +6.810327E-01 +3.088199E+00     +3.881970E+00 +6.810327E-01 +3.088199E+00     +3.881970E+00 +6.810327E-01 +3.088199E+00     +3.881970E+00 +6.810327E-01 +3.088199E+00     +3.881970E+00 +6.810327E-01 +3.088199E+00    
 +2.615599E+00 +1.628670E+00 +4.890741E+00     +4.046370E+00 +2.683341E+00 +1.019586E-01     +4.046370E+00 +2.683341E+00 +1.019586E-01     +4.046370E+00 +2.683341E+00 +1.019586E-01     +4.046370E+00 +2.683341E+00 +1.019586E-01     +4.046370E+00 +2.683341E+00 +1.019586E-01     +4.046370E+00 +2.683341E+00 +1.019586E-01     +1.666920E+00 +2.348550E+00 +2.015970E+00     +1.666920E+00 +2.348550E+00 +2.015970E+00     +4.813019E+00 +2.408141E+00 +2.331376E-01     +4.813019E+00 +2.408141E+00 +2.331376E-01     +4.813019E+00 +2.408141E+00 +2.331376E-01     +4.813019E+00 +2.408141E+00 +2.331376E-01     +4.813019E+00 +2.408141E+00 +2.331376E-01     +3.881970E+00 +6.810327E-01 +3.088199E+00     +3.881970E+00 +6.810327E-01 +3.088199E+00     +3.881970E+00 +6.810327E-01 +3.088199E+00     +3.881970E+00 +6.810327E-01 +3.088199E+00     +3.881970E+00 +6.810327E-01 +3.088199E+00     +3.881970E+00 +6.810327E-01 +3.088199E+00     +3.881970E+00 +6.810327E-01 +3.088199E+00    
 +1.198790E+00 +2.438080E+00 +8.100614E-01     +1.198790E+00 +2.438080E+00 +8.100614E-01     +1.198790E+00 +2.438080E+00 +8.100614E-01     +1.198790E+00 +2.438080E+00 +8.100614E-01     +1.198790E+00 +2.438080E+00 +8.100614E-01     +1.198790E+00 +2.438080E+00 +8.100614E-01     +1.198790E+00 +2.438080E+00 +8.100614E-01     +1.666920E+00 +2.348550E+00 +2.015970E+00     +1.666920E+00 +2.348550E+00 +2.015970E+00     +1.666920E+00 +2.348550E+00 +2.015970E+00     +4.813019E+00 +2.408141E+00 +2.331376E-01     +4.813019E+00 +2.408141E+00 +2.331376E-01     +4.813019E+00 +2.408141E+00 +2.331376E-01     +5.915940E+00 +1.370550E+00 +4.709919E+00     +5.915940E+00 +1.370550E+00 +4.709919E+00     +3.881970E+00 +6.810327E-01 +3.088199E+00     +3.881970E+00 +6.810327E-01 +3.088199E+00     +3.881970E+00 +6.810327E-01 +3.088199E+00     +3.881970E+00 +6.810327E-01 +3.088199E+00     +4.051160E+00 +6.849475E-01 +3.600789E-01     +3.881970E+00 +6.810327E-01 +3.088199E+00    
 +1.198790E+00 +2.438080E+00 +8.100614E-01     +1.198790E+00 +2.438080E+00 +8.100614E-01     +1.198790E+00 +2.438080E+00 +8.100614E-01     +1.198790E+00 +2.438080E+00 +8.100614E-01     +1.198790E+00 +2.438080E+00 +8.100614E-01     +1.198790E+00 +2.438080E+00 +8.100614E-01     +1.198790E+00 +2.438080E+00 +8.100614E-01     +1.198790E+00 +2.438080E+00 +8.100614E-01     +1.666920E+00 +2.348550E+00 +2.015970E+00     +1.666920E+00 +2.348550E+00 +2.015970E+00     +3.084890E+00 +2.202740E+00 +4.869291E+00     +3.084890E+00 +2.202740E+00 +4.869291E+00     +5.915940E+00 +1.370550E+00 +4.709919E+00     +5.915940E+00 +1.370550E+00 +4.709919E+00     +5.915940E+00 +1.370550E+00 +4.709919E+00     +5.915940E+00 +1.370550E+00 +4.709919E+00     +5.915940E+00 +1.370550E+00 +4.709919E+00     +3.881970E+00 +6.810327E-01 +3.088199E+00     +4.051160E+00 +6.849475E-01 +3.600789E-01     +4.051160E+00 +6.849475E-01 +3.600789E-01     +5.041506E-01 +2.354709E+00 +2.561890E+00    
 +5.041506E-01 +2.354709E+00 +2.561890E+00     +1.198790E+00 +2.438080E+00 +8.100614E-01     +1.198790E+00 +2.438080E+00 +8.100614E-01     +1.198790E+00 +2.438080E+00 +8.100614E-01     +1.198790E+00 +2.438080E+00 +8.100614E-01     +1.198790E+00 +2.438080E+00 +8.100614E-01     +1.198790E+00 +2.438080E+00 +8.100614E-01     +3.956649E+00 +1.065070E-01 +3.420859E+00     +3.956649E+00 +1.065070E-01 +3.420859E+00     +3.956649E+00 +1.065070E-01 +3.420859E+00     +3.956649E+00 +1.065070E-01 +3.420859E+00     +3.084890E+00 +2.202740E+00 +4.869291E+00     +5.915940E+00 +1.370550E+00 +4.709919E+00     +5.915940E+00 +1.370550E+00 +4.709919E+00     +5.915940E+00 +1.370550E+00 +4.709919E+00     +5.915940E+00 +1.370550E+00 +4.709919E+00     +5.915940E+00 +1.370550E+00 +4.709919E+00     +3.881970E+00 +6.810327E-01 +3.088199E+00     +5.041506E-01 +2.354709E+00 +2.561890E+00     +5.041506E-01 +2.354709E+00 +2.561890E+00     +5.041506E-01 +2.354709E+00 +2.561890E+00    
 +5.041506E-01 +2.354709E+00 +2.561890E+00     +3.539840E+00 +9.509950E-01 +4.313920E+00     +3.539840E+00 +9.509950E-01 +4.313920E+00     +3.539840E+00 +9.509950E-01 +4.313920E+00     +3.539840E+00 +9.509950E-01 +4.313920E+00     +1.198790E+00 +2.438080E+00 +8.100614E-01     +3.956649E+00 +1.065070E-01 +3.420859E+00     +3.956649E+00 +1.065070E-01 +3.420859E+00     +3.956649E+00 +1.065070E-01 +3.420859E+00     +3.956649E+00 +1.065070E-01 +3.420859E+00     +3.956649E+00 +1.065070E-01 +3.420859E+00     +3.956649E+00 +1.065070E-01 +3.420859E+00     +5.915940E+00 +1.370550E+00 +4.709919E+00     +5.915940E+00 +1.370550E+00 +4.709919E+00     +5.915940E+00 +1.370550E+00 +4.709919E+00     +5.915940E+00 +1.370550E+00 +4.709919E+00     +5.915940E+00 +1.370550E+00 +4.709919E+00     +5.041506E-01 +2.354709E+00 +2.561890E+00     +5.041506E-01 +2.354709E+00 +2.561890E+00     +5.041506E-01 +2.354709E+00 +2.561890E+00     +5.041506E-01 +2.354709E+00 +2.561890E+00    
 +5.041506E-01 +2.354709E+00 +2.561890E+00     +3.539840E+00 +9.509950E-01 +4.313920E+00     +3.539840E+00 +9.509950E-01 +4.313920E+00     +3.539840E+00 +9.509950E-01 +4.313920E+00     +3.539840E+00 +9.509950E-01 +4.313920E+00     +1.914110E+00 +1.422990E+00 +5.496099E+00     +3.956649E+00 +1.065070E-01 +3.420859E+00     +3.956649E+00 +1.065070E-01 +3.420859E+00     +3.956649E+00 +1.065070E-01 +3.420859E+00     +3.956649E+00 +1.065070E-01 +3.420859E+00     +3.956649E+00 +1.065070E-01 +3.420859E+00     +3.956649E+00 +1.065070E-01 +3.420859E+00     +5.915940E+00 +1.370550E+00 +4.709919E+00     +5.915940E+00 +1.370550E+00 +4.709919E+00     +5.915940E+00 +1.370550E+00 +4.709919E+00     +5.915940E+00 +1.370550E+00 +4.709919E+00     +5.570089E+00 +1.761910E+00 +5.651350E+00     +5.570089E+00 +1.761910E+00 +5.651350E+00     +5.570089E+00 +1.761910E+00 +5.651350E+00     +5.041506E-01 +2.354709E+00 +2.561890E+00     +5.041506E-01 +2.354709E+00 +2.561890E+00    
 +2.099771E+00 +3.043278E-01 +5.190450E+00     +3.539840E+00 +9.509950E-01 +4.313920E+00     +3.539840E+00 +9.509950E-01 +4.313920E+00     +3.539840E+00 +9.509950E-01 +4.313920E+00     +1.914110E+00 +1.422990E+00 +5.496099E+00     +1.914110E+00 +1.422990E+00 +5.496099E+00     +3.956649E+00 +1.065070E-01 +3.420859E+00     +3.956649E+00 +1.065070E-01 +3.420859E+00     +3.956649E+00 +1.065070E-01 +3.420859E+00     +3.956649E+00 +1.065070E-01 +3.420859E+00     +3.956649E+00 +1.065070E-01 +3.420859E+00     +3.956649E+00 +1.065070E-01 +3.420859E+00     +3.956649E+00 +1.065070E-01 +3.420859E+00     +2.091821E+00 +2.086600E+00 +2.558670E+00     +2.091821E+00 +2.086600E+00 +2.558670E+00     +2.091821E+00 +2.086600E+00 +2.558670E+00     +5.570089E+00 +1.761910E+00 +5.651350E+00     +5.570089E+00 +1.761910E+00 +5.651350E+00     +5.570089E+00 +1.761910E+00 +5.651350E+00     +2.099771E+00 +3.043278E-01 +5.190450E+00     +2.099771E+00 +3.043278E-01 +5.190450E+00    
 +3.310211E+00 +1.307440E+00 +3.972190E+00     +3.310211E+00 +1.307440E+00 +3.972190E+00     +3.310211E+00 +1.307440E+00 +3.972190E+00     +1.914110E+00 +1.422990E+00 +5.496099E+00     +1.914110E+00 +1.422990E+00 +5.496099E+00     +1.914110E+00 +1.422990E+00 +5.496099E+00     +3.956649E+00 +1.065070E-01 +3.420859E+00     +3.956649E+00 +1.065070E-01 +3.420859E+00     +3.956649E+00 +1.065070E-01 +3.420859E+00     +3.956649E+00 +1.065070E-01 +3.420859E+00     +3.956649E+00 +1.065070E-01 +3.420859E+00     +3.956649E+00 +1.065070E-01 +3.420859E+00     +3.956649E+00 +1.065070E-01 +3.420859E+00     +2.091821E+00 +2.086600E+00 +2.558670E+00     +2.091821E+00 +2.086600E+00 +2.558670E+00     +2.091821E+00 +2.086600E+00 +2.558670E+00     +2.091821E+00 +2.086600E+00 +2.558670E+00     +5.570089E+00 +1.761910E+00 +5.651350E+00     +5.570089E+00 +1.761910E+00 +5.651350E+00     +2.099771E+00 +3.043278E-01 +5.190450E+00     +2.099771E+00 +3.043278E-01 +5.190450E+00    
 +3.310211E+00 +1.307440E+00 +3.972190E+00     +3.310211E+00 +1.307440E+00 +3.972190E+00     +3.310211E+00 +1.307440E+00 +3.972190E+00     +3.310211E+00 +1.307440E+00 +3.972190E+00     +1.914110E+00 +1.422990E+00 +5.496099E+00     +1.914110E+00 +1.422990E+00 +5.496099E+00     +3.956649E+00 +1.065070E-01 +3.420859E+00     +3.956649E+00 +1.065070E-01 +3.420859E+00     +3.956649E+00 +1.065070E-01 +3.420859E+00     +3.956649E+00 +1.065070E-01 +3.420859E+00     +3.956649E+00 +1.065070E-01 +3.420859E+00     +3.956649E+00 +1.065070E-01 +3.420859E+00     +3.956649E+00 +1.065070E-01 +3.420859E+00     +2.091821E+00 +2.086600E+00 +2.558670E+00     +2.091821E+00 +2.086600E+00 +2.558670E+00     +2.091821E+00 +2.086600E+00 +2.558670E+00     +2.091821E+00 +2.086600E+00 +2.558670E+00     +1.615070E+00 +1.144740E+00 +5.368900E+00     +1.615070E+00 +1.144740E+00 +5.368900E+00     +1.488501E+00 +1.369720E+00 +4.647463E-02     +1.488501E+00 +1.369720E+00 +4.647463E-02    
 +5.433811E+00 +1.679949E+00 +5.185890E+00     +3.289830E+00 +2.250270E+00 +2.792970E+00     +5.433811E+00 +1.679949E+00 +5.185890E+00     +5.433811E+00 +1.679949E+00 +5.185890E+00     +3.680027E-01 +1.781810E+00 +2.174680E-02     +3.680027E-01 +1.781810E+00 +2.174680E-02     +3.680027E-01 +1.781810E+00 +2.174680E-02     +3.680027E-01 +1.781810E+00 +2.174680E-02     +3.680027E-01 +1.781810E+00 +2.174680E-02     +3.758950E+00 +1.131211E+00 +3.495980E+00     +3.758950E+00 +1.131211E+00 +3.495980E+00     +3.758950E+00 +1.131211E+00 +3.495980E+00     +1.374796E-01 +1.228949E+00 +4.301060E+00     +1.374796E-01 +1.228949E+00 +4.301060E+00     +2.091821E+00 +2.086600E+00 +2.558670E+00     +2.091821E+00 +2.086600E+00 +2.558670E+00     +2.091821E+00 +2.086600E+00 +2.558670E+00     +1.615070E+00 +1.144740E+00 +5.368900E+00     +1.615070E+00 +1.144740E+00 +5.368900E+00     +1.488501E+00 +1.369720E+00 +4.647463E-02     +5.433811E+00 +1.679949E+00 +5.185890E+00    
 +5.433811E+00 +1.679949E+00 +5.185890E+00     +3.289830E+00 +2.250270E+00 +2.792970E+00     +5.433811E+00 +1.679949E+00 +5.185890E+00     +5.433811E+00 +1.679949E+00 +5.185890E+00     +3.680027E-01 +1.781810E+00 +2.174680E-02     +3.680027E-01 +1.781810E+00 +2.174680E-02     +3.680027E-01 +1.781810E+00 +2.174680E-02     +3.680027E-01 +1.781810E+00 +2.174680E-02     +3.680027E-01 +1.781810E+00 +2.174680E-02     +3.758950E+00 +1.131211E+00 +3.495980E+00     +3.758950E+00 +1.131211E+00 +3.495980E+00     +3.758950E+00 +1.131211E+00 +3.495980E+00     +1.374796E-01 +1.228949E+00 +4.301060E+00     +1.374796E-01 +1.228949E+00 +4.301060E+00     +1.374796E-01 +1.228949E+00 +4.301060E+00     +2.091821E+00 +2.086600E+00 +2.558670E+00     +2.091821E+00 +2.086600E+00 +2.558670E+00     +1.615070E+00 +1.144740E+00 +5.368900E+00     +1.615070E+00 +1.144740E+00 +5.368900E+00     +5.433811E+00 +1.679949E+00 +5.185890E+00     +5.433811E+00 +1.679949E+00 +5.185890E+00    
 +5.433811E+00 +1.679949E+00 +5.185890E+00     +5.433811E+00 +1.679949E+00 +5.185890E+00     +5.433811E+00 +1.679949E+00 +5.185890E+00     +5.433811E+00 +1.679949E+00 +5.185890E+00     +3.680027E-01 +1.781810E+00 +2.174680E-02     +3.680027E-01 +1.781810E+00 +2.174680E-02     +3.680027E-01 +1.781810E+00 +2.174680E-02     +3.680027E-01 +1.781810E+00 +2.174680E-02     +3.680027E-01 +1.781810E+00 +2.174680E-02     +3.680027E-01 +1.781810E+00 +2.174680E-02     +3.758950E+00 +1.131211E+00 +3.495980E+00     +7.389550E-01 +1.758239E+00 +3.113430E+00     +9.478342E-01 +1.460731E+00 +2.908085E-01     +9.478342E-01 +1.460731E+00 +2.908085E-01     +9.478342E-01 +1.460731E+00 +2.908085E-01     +9.478342E-01 +1.460731E+00 +2.908085E-01     +9.478342E-01 +1.460731E+00 +2.908085E-01     +3.433651E+00 +1.387669E+00 +4.191160E+00     +2.013930E+00 +1.089689E+00 +4.875490E+00     +2.013930E+00 +1.089689E+00 +4.875490E+00     +5.433811E+00 +1.679949E+00 +5.185890E+00    
 +5.433811E+00 +1.679949E+00 +5.185890E+00     +5.433811E+00 +1.679949E+00 +5.185890E+00     +5.433811E+00 +1.679949E+00 +5.185890E+00     +5.433811E+00 +1.679949E+00 +5.185890E+00     +3.680027E-01 +1.781810E+00 +2.174680E-02     +1.730440E+00 +1.973601E+00 +5.111280E+00     +3.680027E-01 +1.781810E+00 +2.174680E-02     +3.680027E-01 +1.781810E+00 +2.174680E-02     +3.680027E-01 +1.781810E+00 +2.174680E-02     +3.680027E-01 +1.781810E+00 +2.174680E-02     +7.389550E-01 +1.758239E+00 +3.113430E+00     +7.389550E-01 +1.758239E+00 +3.113430E+00     +9.478342E-01 +1.460731E+00 +2.908085E-01     +9.478342E-01 +1.460731E+00 +2.908085E-01     +9.478342E-01 +1.460731E+00 +2.908085E-01     +9.478342E-01 +1.460731E+00 +2.908085E-01     +3.433651E+00 +1.387669E+00 +4.191160E+00     +3.433651E+00 +1.387669E+00 +4.191160E+00     +3.433651E+00 +1.387669E+00 +4.191160E+00     +2.013930E+00 +1.089689E+00 +4.875490E+00     +5.433811E+00 +1.679949E+00 +5.185890E+00    
 +5.433811E+00 +1.679949E+00 +5.185890E+00     +5.433811E+00 +1.679949E+00 +5.185890E+00     +5.433811E+00 +1.679949E+00 +5.185890E+00     +5.433811E+00 +1.679949E+00 +5.185890E+00     +3.680027E-01 +1.781810E+00 +2.174680E-02     +3.680027E-01 +1.781810E+00 +2.174680E-02     +3.680027E-01 +1.781810E+00 +2.174680E-02     +3.680027E-01 +1.781810E+00 +2.174680E-02     +3.680027E-01 +1.781810E+00 +2.174680E-02     +3.680027E-01 +1.781810E+00 +2.174680E-02     +7.389550E-01 +1.758239E+00 +3.113430E+00     +7.389550E-01 +1.758239E+00 +3.113430E+00     +9.478342E-01 +1.460731E+00 +2.908085E-01     +9.478342E-01 +1.460731E+00 +2.908085E-01     +9.478342E-01 +1.460731E+00 +2.908085E-01     +9.478342E-01 +1.460731E+00 +2.908085E-01     +3.433651E+00 +1.387669E+00 +4.191160E+00     +3.433651E+00 +1.387669E+00 +4.191160E+00     +3.433651E+00 +1.387669E+00 +4.191160E+00     +3.433651E+00 +1.387669E+00 +4.191160E+00     +5.433811E+00 +1.679949E+00 +5.185890E+00    
 +5.433811E+00 +1.679949E+00 +5.185890E+00     +5.433811E+00 +1.679949E+00 +5.185890E+00     +5.433811E+00 +1.679949E+00 +5.185890E+00     +5.433811E+00 +1.679949E+00 +5.185890E+00     +2.764511E+00 +1.413471E+00 +1.580460E+00     +2.764511E+00 +1.413471E+00 +1.580460E+00     +3.680027E-01 +1.781810E+00 +2.174680E-02     +5.872230E+00 +7.271635E-01 +1.324391E+00     +3.680027E-01 +1.781810E+00 +2.174680E-02     +3.680027E-01 +1.781810E+00 +2.174680E-02     +7.389550E-01 +1.758239E+00 +3.113430E+00     +7.389550E-01 +1.758239E+00 +3.113430E+00     +9.478342E-01 +1.460731E+00 +2.908085E-01     +9.478342E-01 +1.460731E+00 +2.908085E-01     +9.478342E-01 +1.460731E+00 +2.908085E-01     +3.433651E+00 +1.387669E+00 +4.191160E+00     +3.433651E+00 +1.387669E+00 +4.191160E+00     +3.433651E+00 +1.387669E+00 +4.191160E+00     +3.433651E+00 +1.387669E+00 +4.191160E+00     +3.433651E+00 +1.387669E+00 +4.191160E+00     +5.433811E+00 +1.679949E+00 +5.185890E+00    
 +5.433811E+00 +1.679949E+00 +5.185890E+00     +5.433811E+00 +1.679949E+00 +5.185890E+00     +5.433811E+00 +1.679949E+00 +5.185890E+00     +5.433811E+00 +1.679949E+00 +5.185890E+00     +2.764511E+00 +1.413471E+00 +1.580460E+00     +2.764511E+00 +1.413471E+00 +1.580460E+00     +3.680027E-01 +1.781810E+00 +2.174680E-02     +5.872230E+00 +7.271635E-01 +1.324391E+00     +1.044690E+00 +1.064689E+00 +5.803421E+00     +3.680027E-01 +1.781810E+00 +2.174680E-02     +3.890700E+00 +2.090150E+00 +6.044089E+00     +1.275359E+00 +2.170849E+00 +8.672960E-01     +5.176631E+00 +1.026130E+00 +2.206360E+00     +5.176631E+00 +1.026130E+00 +2.206360E+00     +5.176631E+00 +1.026130E+00 +2.206360E+00     +3.433651E+00 +1.387669E+00 +4.191160E+00     +3.433651E+00 +1.387669E+00 +4.191160E+00     +3.433651E+00 +1.387669E+00 +4.191160E+00     +3.433651E+00 +1.387669E+00 +4.191160E+00     +3.433651E+00 +1.387669E+00 +4.191160E+00     +5.433811E+00 +1.679949E+00 +5.185890E+00    
 +2.615599E+00 +1.628670E+00 +4.890741E+00     +2.381050E+00 +2.283360E+00 +4.075920E+00     +2.615599E+00 +1.628670E+00 +4.890741E+00     +2.615599E+00 +1.628670E+00 +4.890741E+00     +2.615599E+00 +1.628670E+00 +4.890741E+00     +1.114019E+00 +9.085102E-01 +5.696470E+00     +1.114019E+00 +9.085102E-01 +5.696470E+00     +1.114019E+00 +9.085102E-01 +5.696470E+00     +1.114019E+00 +9.085102E-01 +5.696470E+00     +3.612540E+00 +1.265290E+00 +3.981019E+00     +1.275359E+00 +2.170849E+00 +8.672960E-01     +1.275359E+00 +2.170849E+00 +8.672960E-01     +5.176631E+00 +1.026130E+00 +2.206360E+00     +5.176631E+00 +1.026130E+00 +2.206360E+00     +5.176631E+00 +1.026130E+00 +2.206360E+00     +5.804021E+00 +1.837120E+00 +1.865720E+00     +3.433651E+00 +1.387669E+00 +4.191160E+00     +3.433651E+00 +1.387669E+00 +4.191160E+00     +3.433651E+00 +1.387669E+00 +4.191160E+00     +2.563601E+00 +1.783100E+00 +2.644291E+00     +2.615599E+00 +1.628670E+00 +4.890741E+00    
 +2.615599E+00 +1.628670E+00 +4.890741E+00     +2.615599E+00 +1.628670E+00 +4.890741E+00     +2.615599E+00 +1.628670E+00 +4.890741E+00     +2.615599E+00 +1.628670E+00 +4.890741E+00     +2.615599E+00 +1.628670E+00 +4.890741E+00     +1.114019E+00 +9.085102E-01 +5.696470E+00     +1.114019E+00 +9.085102E-01 +5.696470E+00     +1.114019E+00 +9.085102E-01 +5.696470E+00     +9.955812E-01 +2.258920E+00 +2.958440E+00     +9.955812E-01 +2.258920E+00 +2.958440E+00     +9.955812E-01 +2.258920E+00 +2.958440E+00     +1.275359E+00 +2.170849E+00 +8.672960E-01     +1.275359E+00 +2.170849E+00 +8.672960E-01     +5.176631E+00 +1.026130E+00 +2.206360E+00     +5.858500E+00 +2.491110E+00 +6.200010E+00     +5.858500E+00 +2.491110E+00 +6.200010E+00     +5.858500E+00 +2.491110E+00 +6.200010E+00     +5.858500E+00 +2.491110E+00 +6.200010E+00     +2.765171E+00 +1.135571E+00 +5.039141E+00     +2.053430E+00 +2.508590E+00 +3.670989E+00     +2.615599E+00 +1.628670E+00 +4.890741E+00    
 +2.615599E+00 +1.628670E+00 +4.890741E+00     +2.615599E+00 +1.628670E+00 +4.890741E+00     +2.615599E+00 +1.628670E+00 +4.890741E+00     +2.615599E+00 +1.628670E+00 +4.890741E+00     +2.615599E+00 +1.628670E+00 +4.890741E+00     +1.114019E+00 +9.085102E-01 +5.696470E+00     +1.114019E+00 +9.085102E-01 +5.696470E+00     +1.114019E+00 +9.085102E-01 +5.696470E+00     +9.955812E-01 +2.258920E+00 +2.958440E+00     +9.955812E-01 +2.258920E+00 +2.958440E+00     +9.955812E-01 +2.258920E+00 +2.958440E+00     +1.275359E+00 +2.170849E+00 +8.672960E-01     +1.275359E+00 +2.170849E+00 +8.672960E-01     +5.858500E+00 +2.491110E+00 +6.200010E+00     +5.858500E+00 +2.491110E+00 +6.200010E+00     +5.858500E+00 +2.491110E+00 +6.200010E+00     +5.858500E+00 +2.491110E+00 +6.200010E+00     +5.858500E+00 +2.491110E+00 +6.200010E+00     +2.053430E+00 +2.508590E+00 +3.670989E+00     +2.053430E+00 +2.508590E+00 +3.670989E+00     +2.615599E+00 +1.628670E+00 +4.890741E+00    
 +2.615599E+00 +1.628670E+00 +4.890741E+00     +2.615599E+00 +1.628670E+00 +4.890741E+00     +2.615599E+00 +1.628670E+00 +4.890741E+00     +4.046370E+00 +2.683341E+00 +1.019586E-01     +4.046370E+00 +2.683341E+00 +1.019586E-01     +4.046370E+00 +2.683341E+00 +1.019586E-01     +1.114019E+00 +9.085102E-01 +5.696470E+00     +1.114019E+00 +9.085102E-01 +5.696470E+00     +9.955812E-01 +2.258920E+00 +2.958440E+00     +9.955812E-01 +2.258920E+00 +2.958440E+00     +9.955812E-01 +2.258920E+00 +2.958440E+00     +1.275359E+00 +2.170849E+00 +8.672960E-01     +1.275359E+00 +2.170849E+00 +8.672960E-01     +5.858500E+00 +2.491110E+00 +6.200010E+00     +5.858500E+00 +2.491110E+00 +6.200010E+00     +5.858500E+00 +2.491110E+00 +6.200010E+00     +3.881970E+00 +6.810327E-01 +3.088199E+00     +3.881970E+00 +6.810327E-01 +3.088199E+00     +3.881970E+00 +6.810327E-01 +3.088199E+00     +3.881970E+00 +6.810327E-01 +3.088199E+00     +2.615599E+00 +1.628670E+00 +4.890741E+00    
 +2.615599E+00 +1.628670E+00 +4.890741E+00     +2.615599E+00 +1.628670E+00 +4.890741E+00     +2.615599E+00 +1.628670E+00 +4.890741E+00     +4.046370E+00 +2.683341E+00 +1.019586E-01     +4.046370E+00 +2.683341E+00 +1.019586E-01     +4.046370E+00 +2.683341E+00 +1.019586E-01     +4.046370E+00 +2.683341E+00 +1.019586E-01     +1.666920E+00 +2.348550E+00 +2.015970E+00     +1.666920E+00 +2.348550E+00 +2.015970E+00     +1.666920E+00 +2.348550E+00 +2.015970E+00     +1.275359E+00 +2.170849E+00 +8.672960E-01     +4.813019E+00 +2.408141E+00 +2.331376E-01     +4.813019E+00 +2.408141E+00 +2.331376E-01     +4.813019E+00 +2.408141E+00 +2.331376E-01     +5.858500E+00 +2.491110E+00 +6.200010E+00     +5.858500E+00 +2.491110E+00 +6.200010E+00     +3.881970E+00 +6.810327E-01 +3.088199E+00     +3.881970E+00 +6.810327E-01 +3.088199E+00     +3.881970E+00 +6.810327E-01 +3.088199E+00     +3.881970E+00 +6.810327E-01 +3.088199E+00     +2.615599E+00 +1.628670E+00 +4.890741E+00    
 +2.615599E+00 +1.628670E+00 +4.890741E+00     +4.046370E+00 +2.683341E+00 +1.019586E-01     +4.046370E+00 +2.683341E+00 +1.019586E-01     +4.046370E+00 +2.683341E+00 +1.019586E-01     +4.046370E+00 +2.683341E+00 +1.019586E-01     +4.046370E+00 +2.683341E+00 +1.019586E-01     +4.046370E+00 +2.683341E+00 +1.019586E-01     +1.666920E+00 +2.348550E+00 +2.015970E+00     +1.666920E+00 +2.348550E+00 +2.015970E+00     +1.666920E+00 +2.348550E+00 +2.015970E+00     +4.813019E+00 +2.408141E+00 +2.331376E-01     +4.813019E+00 +2.408141E+00 +2.331376E-01     +4.813019E+00 +2.408141E+00 +2.331376E-01     +5.915940E+00 +1.370550E+00 +4.709919E+00     +5.915940E+00 +1.370550E+00 +4.709919E+00     +3.881970E+00 +6.810327E-01 +3.088199E+00     +3.881970E+00 +6.810327E-01 +3.088199E+00     +3.881970E+00 +6.810327E-01 +3.088199E+00     +3.881970E+00 +6.810327E-01 +3.088199E+00     +3.881970E+00 +6.810327E-01 +3.088199E+00     +3.881970E+00 +6.810327E-01 +3.088199E+00    
 +1.198790E+00 +2.438080E+00 +8.100614E-01     +1.198790E+00 +2.438080E+00 +8.100614E-01     +1.198790E+00 +2.438080E+00 +8.100614E-01     +1.198790E+00 +2.438080E+00 +8.100614E-01     +1.198790E+00 +2.438080E+00 +8.100614E-01     +1.198790E+00 +2.438080E+00 +8.100614E-01     +1.198790E+00 +2.438080E+00 +8.100614E-01     +1.666920E+00 +2.348550E+00 +2.015970E+00     +1.666920E+00 +2.348550E+00 +2.015970E+00     +1.666920E+00 +2.348550E+00 +2.015970E+00     +4.813019E+00 +2.408141E+00 +2.331376E-01     +4.813019E+00 +2.408141E+00 +2.331376E-01     +4.813019E+00 +2.408141E+00 +2.331376E-01     +5.915940E+00 +1.370550E+00 +4.709919E+00     +5.915940E+00 +1.370550E+00 +4.709919E+00     +5.915940E+00 +1.370550E+00 +4.709919E+00     +3.881970E+00 +6.810327E-01 +3.088199E+00     +3.881970E+00 +6.810327E-01 +3.088199E+00     +3.881970E+00 +6.810327E-01 +3.088199E+00     +4.051160E+00 +6.849475E-01 +3.600789E-01     +4.051160E+00 +6.849475E-01 +3.600789E-01    
 +1.198790E+00 +2.438080E+00 +8.100614E-01     +1.198790E+00 +2.438080E+00 +8.100614E-01     +1.198790E+00 +2.438080E+00 +8.100614E-01     +1.198790E+00 +2.438080E+00 +8.100614E-01     +1.198790E+00 +2.438080E+00 +8.100614E-01     +1.198790E+00 +2.438080E+00 +8.100614E-01     +1.198790E+00 +2.438080E+00 +8.100614E-01     +1.666920E+00 +2.348550E+00 +2.015970E+00     +1.666920E+00 +2.348550E+00 +2.015970E+00     +1.666920E+00 +2.348550E+00 +2.015970E+00     +3.084890E+00 +2.202740E+00 +4.869291E+00     +3.084890E+00 +2.202740E+00 +4.869291E+00     +5.915940E+00 +1.370550E+00 +4.709919E+00     +5.915940E+00 +1.370550E+00 +4.709919E+00     +5.915940E+00 +1.370550E+00 +4.709919E+00     +5.915940E+00 +1.370550E+00 +4.709919E+00     +5.915940E+00 +1.370550E+00 +4.709919E+00     +3.881970E+00 +6.810327E-01 +3.088199E+00     +4.051160E+00 +6.849475E-01 +3.600789E-01     +4.051160E+00 +6.849475E-01 +3.600789E-01     +4.051160E+00 +6.849475E-01 +3.600789E-01    
 +2.099771E+00 +3.043278E-01 +5.190450E+00     +3.539840E+00 +9.509950E-01 +4.313920E+00     +3.539840E+00 +9.509950E-01 +4.313920E+00     +3.539840E+00 +9.509950E-01 +4.313920E+00     +3.539840E+00 +9.509950E-01 +4.313920E+00     +1.198790E+00 +2.438080E+00 +8.100614E-01     +1.198790E+00 +2.438080E+00 +8.100614E-01     +3.956649E+00 +1.065070E-01 +3.420859E+00     +3.956649E+00 +1.065070E-01 +3.420859E+00     +3.483319E+00 +1.686590E+00 +5.091201E+00     +3.483319E+00 +1.686590E+00 +5.091201E+00     +3.483319E+00 +1.686590E+00 +5.091201E+00     +5.915940E+00 +1.370550E+00 +4.709919E+00     +5.915940E+00 +1.370550E+00 +4.709919E+00     +5.915940E+00 +1.370550E+00 +4.709919E+00     +5.915940E+00 +1.370550E+00 +4.709919E+00     +5.915940E+00 +1.370550E+00 +4.709919E+00     +5.915940E+00 +1.370550E+00 +4.709919E+00     +4.051160E+00 +6.849475E-01 +3.600789E-01     +4.051160E+00 +6.849475E-01 +3.600789E-01     +2.099771E+00 +3.043278E-01 +5.190450E+00    
 +2.099771E+00 +3.043278E-01 +5.190450E+00     +3.539840E+00 +9.509950E-01 +4.313920E+00     +3.539840E+00 +9.509950E-01 +4.313920E+00     +3.539840E+00 +9.509950E-01 +4.313920E+00     +3.539840E+00 +9.509950E-01 +4.313920E+00     +3.539840E+00 +9.509950E-01 +4.313920E+00     +3.956649E+00 +1.065070E-01 +3.420859E+00     +3.956649E+00 +1.065070E-01 +3.420859E+00     +3.956649E+00 +1.065070E-01 +3.420859E+00     +5.646151E+00 +1.008350E+00 +4.577880E+00     +3.483319E+00 +1.686590E+00 +5.091201E+00     +3.483319E+00 +1.686590E+00 +5.091201E+00     +5.915940E+00 +1.370550E+00 +4.709919E+00     +1.751171E+00 +1.449180E+00 +5.219191E+00     +5.915940E+00 +1.370550E+00 +4.709919E+00     +5.915940E+00 +1.370550E+00 +4.709919E+00     +5.915940E+00 +1.370550E+00 +4.709919E+00     +2.748290E+00 +1.006291E+00 +4.587360E+00     +2.099771E+00 +3.043278E-01 +5.190450E+00     +2.099771E+00 +3.043278E-01 +5.190450E+00     +2.099771E+00 +3.043278E-01 +5.190450E+00    
 +2.099771E+00 +3.043278E-01 +5.190450E+00     +2.099771E+00 +3.043278E-01 +5.190450E+00     +3.539840E+00 +9.509950E-01 +4.313920E+00     +3.539840E+00 +9.509950E-01 +4.313920E+00     +3.539840E+00 +9.509950E-01 +4.313920E+00     +3.539840E+00 +9.509950E-01 +4.313920E+00     +3.956649E+00 +1.065070E-01 +3.420859E+00     +3.956649E+00 +1.065070E-01 +3.420859E+00     +5.646151E+00 +1.008350E+00 +4.577880E+00     +5.646151E+00 +1.008350E+00 +4.577880E+00     +5.646151E+00 +1.008350E+00 +4.577880E+00     +3.483319E+00 +1.686590E+00 +5.091201E+00     +3.483319E+00 +1.686590E+00 +5.091201E+00     +5.915940E+00 +1.370550E+00 +4.709919E+00     +5.915940E+00 +1.370550E+00 +4.709919E+00     +5.915940E+00 +1.370550E+00 +4.709919E+00     +5.570089E+00 +1.761910E+00 +5.651350E+00     +2.748290E+00 +1.006291E+00 +4.587360E+00     +5.570089E+00 +1.761910E+00 +5.651350E+00     +2.099771E+00 +3.043278E-01 +5.190450E+00     +2.099771E+00 +3.043278E-01 +5.190450E+00    
 +2.099771E+00 +3.043278E-01 +5.190450E+00     +2.099771E+00 +3.043278E-01 +5.190450E+00     +3.539840E+00 +9.509950E-01 +4.313920E+00     +3.539840E+00 +9.509950E-01 +4.313920E+00     +3.539840E+00 +9.509950E-01 +4.313920E+00     +3.539840E+00 +9.509950E-01 +4.313920E+00     +3.956649E+00 +1.065070E-01 +3.420859E+00     +3.956649E+00 +1.065070E-01 +3.420859E+00     +5.646151E+00 +1.008350E+00 +4.577880E+00     +5.646151E+00 +1.008350E+00 +4.577880E+00     +5.646151E+00 +1.008350E+00 +4.577880E+00     +3.956649E+00 +1.065070E-01 +3.420859E+00     +3.483319E+00 +1.686590E+00 +5.091201E+00     +2.091821E+00 +2.086600E+00 +2.558670E+00     +2.091821E+00 +2.086600E+00 +2.558670E+00     +2.091821E+00 +2.086600E+00 +2.558670E+00     +5.570089E+00 +1.761910E+00 +5.651350E+00     +2.748290E+00 +1.006291E+00 +4.587360E+00     +5.570089E+00 +1.761910E+00 +5.651350E+00     +2.099771E+00 +3.043278E-01 +5.190450E+00     +2.099771E+00 +3.043278E-01 +5.190450E+00    
 +3.310211E+00 +1.307440E+00 +3.972190E+00     +3.310211E+00 +1.307440E+00 +3.972190E+00     +3.310211E+00 +1.307440E+00 +3.972190E+00     +3.310211E+00 +1.307440E+00 +3.972190E+00     +1.914110E+00 +1.422990E+00 +5.496099E+00     +1.914110E+00 +1.422990E+00 +5.496099E+00     +3.956649E+00 +1.065070E-01 +3.420859E+00     +3.956649E+00 +1.065070E-01 +3.420859E+00     +5.646151E+00 +1.008350E+00 +4.577880E+00     +5.646151E+00 +1.008350E+00 +4.577880E+00     +5.646151E+00 +1.008350E+00 +4.577880E+00     +3.956649E+00 +1.065070E-01 +3.420859E+00     +3.483319E+00 +1.686590E+00 +5.091201E+00     +2.091821E+00 +2.086600E+00 +2.558670E+00     +2.091821E+00 +2.086600E+00 +2.558670E+00     +2.091821E+00 +2.086600E+00 +2.558670E+00     +2.091821E+00 +2.086600E+00 +2.558670E+00     +2.748290E+00 +1.006291E+00 +4.587360E+00     +5.570089E+00 +1.761910E+00 +5.651350E+00     +2.099771E+00 +3.043278E-01 +5.190450E+00     +2.099771E+00 +3.043278E-01 +5.190450E+00    
 +3.310211E+00 +1.307440E+00 +3.972190E+00     +3.310211E+00 +1.307440E+00 +3.972190E+00     +3.310211E+00 +1.307440E+00 +3.972190E+00     +3.310211E+00 +1.307440E+00 +3.972190E+00     +3.310211E+00 +1.307440E+00 +3.972190E+00     +4.558015E-01 +1.537501E+00 +1.064860E+00     +4.558015E-01 +1.537501E+00 +1.064860E+00     +3.956649E+00 +1.065070E-01 +3.420859E+00     +3.956649E+00 +1.065070E-01 +3.420859E+00     +5.646151E+00 +1.008350E+00 +4.577880E+00     +3.956649E+00 +1.065070E-01 +3.420859E+00     +3.956649E+00 +1.065070E-01 +3.420859E+00     +2.091821E+00 +2.086600E+00 +2.558670E+00     +2.091821E+00 +2.086600E+00 +2.558670E+00     +2.091821E+00 +2.086600E+00 +2.558670E+00     +2.091821E+00 +2.086600E+00 +2.558670E+00     +2.091821E+00 +2.086600E+00 +2.558670E+00     +1.615070E+00 +1.144740E+00 +5.368900E+00     +1.615070E+00 +1.144740E+00 +5.368900E+00     +1.488501E+00 +1.369720E+00 +4.647463E-02     +1.488501E+00 +1.369720E+00 +4.647463E-02    
 +3.289830E+00 +2.250270E+00 +2.792970E+00     +3.289830E+00 +2.250270E+00 +2.792970E+00     +3.289830E+00 +2.250270E+00 +2.792970E+00     +3.289830E+00 +2.250270E+00 +2.792970E+00     +4.558015E-01 +1.537501E+00 +1.064860E+00     +4.558015E-01 +1.537501E+00 +1.064860E+00     +4.558015E-01 +1.537501E+00 +1.064860E+00     +4.558015E-01 +1.537501E+00 +1.064860E+00     +4.558015E-01 +1.537501E+00 +1.064860E+00     +4.558015E-01 +1.537501E+00 +1.064860E+00     +3.758950E+00 +1.131211E+00 +3.495980E+00     +3.758950E+00 +1.131211E+00 +3.495980E+00     +1.374796E-01 +1.228949E+00 +4.301060E+00     +2.091821E+00 +2.086600E+00 +2.558670E+00     +2.091821E+00 +2.086600E+00 +2.558670E+00     +2.091821E+00 +2.086600E+00 +2.558670E+00     +2.091821E+00 +2.086600E+00 +2.558670E+00     +1.615070E+00 +1.144740E+00 +5.368900E+00     +1.488501E+00 +1.369720E+00 +4.647463E-02     +1.488501E+00 +1.369720E+00 +4.647463E-02     +1.488501E+00 +1.369720E+00 +4.647463E-02    
 +3.289830E+00 +2.250270E+00 +2.792970E+00     +3.289830E+00 +2.250270E+00 +2.792970E+00     +3.289830E+00 +2.250270E+00 +2.792970E+00     +5.433811E+00 +1.679949E+00 +5.185890E+00     +3.680027E-01 +1.781810E+00 +2.174680E-02     +3.680027E-01 +1.781810E+00 +2.174680E-02     +3.680027E-01 +1.781810E+00 +2.174680E-02     +3.680027E-01 +1.781810E+00 +2.174680E-02     +3.680027E-01 +1.781810E+00 +2.174680E-02     +3.680027E-01 +1.781810E+00 +2.174680E-02     +3.680027E-01 +1.781810E+00 +2.174680E-02     +9.478342E-01 +1.460731E+00 +2.908085E-01     +9.478342E-01 +1.460731E+00 +2.908085E-01     +9.478342E-01 +1.460731E+00 +2.908085E-01     +9.478342E-01 +1.460731E+00 +2.908085E-01     +2.091821E+00 +2.086600E+00 +2.558670E+00     +2.091821E+00 +2.086600E+00 +2.558670E+00     +1.615070E+00 +1.144740E+00 +5.368900E+00     +1.488501E+00 +1.369720E+00 +4.647463E-02     +1.488501E+00 +1.369720E+00 +4.647463E-02     +5.433811E+00 +1.679949E+00 +5.185890E+00    
 +5.433811E+00 +1.679949E+00 +5.185890E+00     +3.289830E+00 +2.250270E+00 +2.792970E+00     +5.433811E+00 +1.679949E+00 +5.185890E+00     +5.433811E+00 +1.679949E+00 +5.185890E+00     +3.680027E-01 +1.781810E+00 +2.174680E-02     +3.680027E-01 +1.781810E+00 +2.174680E-02     +3.680027E-01 +1.781810E+00 +2.174680E-02     +3.680027E-01 +1.781810E+00 +2.174680E-02     +3.680027E-01 +1.781810E+00 +2.174680E-02     +3.680027E-01 +1.781810E+00 +2.174680E-02     +3.680027E-01 +1.781810E+00 +2.174680E-02     +9.478342E-01 +1.460731E+00 +2.908085E-01     +9.478342E-01 +1.460731E+00 +2.908085E-01     +9.478342E-01 +1.460731E+00 +2.908085E-01     +9.478342E-01 +1.460731E+00 +2.908085E-01     +9.478342E-01 +1.460731E+00 +2.908085E-01     +2.091821E+00 +2.086600E+00 +2.558670E+00     +3.433651E+00 +1.387669E+00 +4.191160E+00     +3.433651E+00 +1.387669E+00 +4.191160E+00     +5.433811E+00 +1.679949E+00 +5.185890E+00     +5.433811E+00 +1.679949E+00 +5.185890E+00    
 +5.433811E+00 +1.679949E+00 +5.185890E+00     +3.594226E-01 +2.151391E+00 +5.300430E+00     +5.433811E+00 +1.679949E+00 +5.185890E+00     +5.433811E+00 +1.679949E+00 +5.185890E+00     +1.730440E+00 +1.973601E+00 +5.111280E+00     +1.730440E+00 +1.973601E+00 +5.111280E+00     +3.680027E-01 +1.781810E+00 +2.174680E-02     +3.680027E-01 +1.781810E+00 +2.174680E-02     +3.680027E-01 +1.781810E+00 +2.174680E-02     +3.680027E-01 +1.781810E+00 +2.174680E-02     +3.680027E-01 +1.781810E+00 +2.174680E-02     +9.478342E-01 +1.460731E+00 +2.908085E-01     +9.478342E-01 +1.460731E+00 +2.908085E-01     +9.478342E-01 +1.460731E+00 +2.908085E-01     +9.478342E-01 +1.460731E+00 +2.908085E-01     +9.478342E-01 +1.460731E+00 +2.908085E-01     +3.433651E+00 +1.387669E+00 +4.191160E+00     +3.433651E+00 +1.387669E+00 +4.191160E+00     +3.433651E+00 +1.387669E+00 +4.191160E+00     +3.433651E+00 +1.387669E+00 +4.191160E+00     +5.433811E+00 +1.679949E+00 +5.185890E+00    
 +5.433811E+00 +1.679949E+00 +5.185890E+00     +5.433811E+00 +1.679949E+00 +5.185890E+00     +5.433811E+00 +1.679949E+00 +5.185890E+00     +5.433811E+00 +1.679949E+00 +5.185890E+00     +3.680027E-01 +1.781810E+00 +2.174680E-02     +3.680027E-01 +1.781810E+00 +2.174680E-02     +3.680027E-01 +1.781810E+00 +2.174680E-02     +3.680027E-01 +1.781810E+00 +2.174680E-02     +3.680027E-01 +1.781810E+00 +2.174680E-02     +3.680027E-01 +1.781810E+00 +2.174680E-02     +3.680027E-01 +1.781810E+00 +2.174680E-02     +9.478342E-01 +1.460731E+00 +2.908085E-01     +9.478342E-01 +1.460731E+00 +2.908085E-01     +9.478342E-01 +1.460731E+00 +2.908085E-01     +9.478342E-01 +1.460731E+00 +2.908085E-01     +9.478342E-01 +1.460731E+00 +2.908085E-01     +3.433651E+00 +1.387669E+00 +4.191160E+00     +3.433651E+00 +1.387669E+00 +4.191160E+00     +3.433651E+00 +1.387669E+00 +4.191160E+00     +3.433651E+00 +1.387669E+00 +4.191160E+00     +5.433811E+00 +1.679949E+00 +5.185890E+00    
 +5.433811E+00 +1.679949E+00 +5.185890E+00     +5.433811E+00 +1.679949E+00 +5.185890E+00     +5.433811E+00 +1.679949E+00 +5.185890E+00     +5.433811E+00 +1.679949E+00 +5.185890E+00     +3.680027E-01 +1.781810E+00 +2.174680E-02     +3.680027E-01 +1.781810E+00 +2.174680E-02     +3.680027E-01 +1.781810E+00 +2.174680E-02     +5.872230E+00 +7.271635E-01 +1.324391E+00     +3.680027E-01 +1.781810E+00 +2.174680E-02     +3.680027E-01 +1.781810E+00 +2.174680E-02     +3.680027E-01 +1.781810E+00 +2.174680E-02     +9.478342E-01 +1.460731E+00 +2.908085E-01     +9.478342E-01 +1.460731E+00 +2.908085E-01     +9.478342E-01 +1.460731E+00 +2.908085E-01     +9.478342E-01 +1.460731E+00 +2.908085E-01     +3.433651E+00 +1.387669E+00 +4.191160E+00     +3.433651E+00 +1.387669E+00 +4.191160E+00     +3.433651E+00 +1.387669E+00 +4.191160E+00     +3.433651E+00 +1.387669E+00 +4.191160E+00     +3.433651E+00 +1.387669E+00 +4.191160E+00     +5.433811E+00 +1.679949E+00 +5.185890E+00    
 +5.433811E+00 +1.679949E+00 +5.185890E+00     +5.433811E+00 +1.679949E+00 +5.185890E+00     +5.433811E+00 +1.679949E+00 +5.185890E+00     +2.615599E+00 +1.628670E+00 +4.890741E+00     +3.680027E-01 +1.781810E+00 +2.174680E-02     +3.680027E-01 +1.781810E+00 +2.174680E-02     +3.680027E-01 +1.781810E+00 +2.174680E-02     +5.872230E+00 +7.271635E-01 +1.324391E+00     +5.872230E+00 +7.271635E-01 +1.324391E+00     +3.680027E-01 +1.781810E+00 +2.174680E-02     +1.275359E+00 +2.170849E+00 +8.672960E-01     +1.275359E+00 +2.170849E+00 +8.672960E-01     +5.176631E+00 +1.026130E+00 +2.206360E+00     +5.176631E+00 +1.026130E+00 +2.206360E+00     +5.176631E+00 +1.026130E+00 +2.206360E+00     +3.433651E+00 +1.387669E+00 +4.191160E+00     +3.433651E+00 +1.387669E+00 +4.191160E+00     +3.433651E+00 +1.387669E+00 +4.191160E+00     +3.433651E+00 +1.387669E+00 +4.191160E+00     +2.765171E+00 +1.135571E+00 +5.039141E+00     +2.765171E+00 +1.135571E+00 +5.039141E+00    
 +2.615599E+00 +1.628670E+00 +4.890741E+00     +2.615599E+00 +1.628670E+00 +4.890741E+00     +2.615599E+00 +1.628670E+00 +4.890741E+00     +2.615599E+00 +1.628670E+00 +4.890741E+00     +2.615599E+00 +1.628670E+00 +4.890741E+00     +3.680027E-01 +1.781810E+00 +2.174680E-02     +3.680027E-01 +1.781810E+00 +2.174680E-02     +5.872230E+00 +7.271635E-01 +1.324391E+00     +5.872230E+00 +7.271635E-01 +1.324391E+00     +1.275359E+00 +2.170849E+00 +8.672960E-01     +1.275359E+00 +2.170849E+00 +8.672960E-01     +1.275359E+00 +2.170849E+00 +8.672960E-01     +5.176631E+00 +1.026130E+00 +2.206360E+00     +5.176631E+00 +1.026130E+00 +2.206360E+00     +5.176631E+00 +1.026130E+00 +2.206360E+00     +5.804021E+00 +1.837120E+00 +1.865720E+00     +3.433651E+00 +1.387669E+00 +4.191160E+00     +3.433651E+00 +1.387669E+00 +4.191160E+00     +2.765171E+00 +1.135571E+00 +5.039141E+00     +2.765171E+00 +1.135571E+00 +5.039141E+00     +2.765171E+00 +1.135571E+00 +5.039141E+00    
 +2.615599E+00 +1.628670E+00 +4.890741E+00     +2.615599E+00 +1.628670E+00 +4.890741E+00     +2.615599E+00 +1.628670E+00 +4.890741E+00     +2.615599E+00 +1.628670E+00 +4.890741E+00     +2.615599E+00 +1.628670E+00 +4.890741E+00     +1.114019E+00 +9.085102E-01 +5.696470E+00     +1.114019E+00 +9.085102E-01 +5.696470E+00     +9.955812E-01 +2.258920E+00 +2.958440E+00     +9.955812E-01 +2.258920E+00 +2.958440E+00     +9.955812E-01 +2.258920E+00 +2.958440E+00     +1.275359E+00 +2.170849E+00 +8.672960E-01     +1.275359E+00 +2.170849E+00 +8.672960E-01     +1.275359E+00 +2.170849E+00 +8.672960E-01     +5.176631E+00 +1.026130E+00 +2.206360E+00     +5.858500E+00 +2.491110E+00 +6.200010E+00     +5.858500E+00 +2.491110E+00 +6.200010E+00     +5.858500E+00 +2.491110E+00 +6.200010E+00     +5.858500E+00 +2.491110E+00 +6.200010E+00     +2.765171E+00 +1.135571E+00 +5.039141E+00     +2.765171E+00 +1.135571E+00 +5.039141E+00     +2.615599E+00 +1.628670E+00 +4.890741E+00    
 +2.615599E+00 +1.628670E+00 +4.890741E+00     +2.615599E+00 +1.628670E+00 +4.890741E+00     +2.615599E+00 +1.628670E+00 +4.890741E+00     +2.615599E+00 +1.628670E+00 +4.890741E+00     +2.615599E+00 +1.628670E+00 +4.890741E+00     +1.114019E+00 +9.085102E-01 +5.696470E+00     +1.114019E+00 +9.085102E-01 +5.696470E+00     +9.955812E-01 +2.258920E+00 +2.958440E+00     +9.955812E-01 +2.258920E+00 +2.958440E+00     +9.955812E-01 +2.258920E+00 +2.958440E+00     +9.955812E-01 +2.258920E+00 +2.958440E+00     +1.275359E+00 +2.170849E+00 +8.672960E-01     +1.275359E+00 +2.170849E+00 +8.672960E-01     +5.858500E+00 +2.491110E+00 +6.200010E+00     +5.858500E+00 +2.491110E+00 +6.200010E+00     +5.858500E+00 +2.491110E+00 +6.200010E+00     +5.858500E+00 +2.491110E+00 +6.200010E+00     +5.858500E+00 +2.491110E+00 +6.200010E+00     +3.230280E+00 +1.770179E+00 +4.852461E+00     +3.230280E+00 +1.770179E+00 +4.852461E+00     +2.615599E+00 +1.628670E+00 +4.890741E+00    
 +2.615599E+00 +1.628670E+00 +4.890741E+00     +2.615599E+00 +1.628670E+00 +4.890741E+00     +2.615599E+00 +1.628670E+00 +4.890741E+00     +2.615599E+00 +1.628670E+00 +4.890741E+00     +4.046370E+00 +2.683341E+00 +1.019586E-01     +4.046370E+00 +2.683341E+00 +1.019586E-01     +1.114019E+00 +9.085102E-01 +5.696470E+00     +9.955812E-01 +2.258920E+00 +2.958440E+00     +9.955812E-01 +2.258920E+00 +2.958440E+00     +9.955812E-01 +2.258920E+00 +2.958440E+00     +1.275359E+00 +2.170849E+00 +8.672960E-01     +1.275359E+00 +2.170849E+00 +8.672960E-01     +1.275359E+00 +2.170849E+00 +8.672960E-01     +5.858500E+00 +2.491110E+00 +6.200010E+00     +5.858500E+00 +2.491110E+00 +6.200010E+00     +5.858500E+00 +2.491110E+00 +6.200010E+00     +5.858500E+00 +2.491110E+00 +6.200010E+00     +3.881970E+00 +6.810327E-01 +3.088199E+00     +3.881970E+00 +6.810327E-01 +3.088199E+00     +3.881970E+00 +6.810327E-01 +3.088199E+00     +2.615599E+00 +1.628670E+00 +4.890741E+00    
 +2.615599E+00 +1.628670E+00 +4.890741E+00     +2.615599E+00 +1.628670E+00 +4.890741E+00     +2.615599E+00 +1.628670E+00 +4.890741E+00     +4.046370E+00 +2.683341E+00 +1.019586E-01     +4.046370E+00 +2.683341E+00 +1.019586E-01     +4.046370E+00 +2.683341E+00 +1.019586E-01     +1.666920E+00 +2.348550E+00 +2.015970E+00     +1.666920E+00 +2.348550E+00 +2.015970E+00     +1.666920E+00 +2.348550E+00 +2.015970E+00     +1.666920E+00 +2.348550E+00 +2.015970E+00     +1.666920E+00 +2.348550E+00 +2.015970E+00     +1.275359E+00 +2.170849E+00 +8.672960E-01     +1.275359E+00 +2.170849E+00 +8.672960E-01     +1.275359E+00 +2.170849E+00 +8.672960E-01     +5.858500E+00 +2.491110E+00 +6.200010E+00     +5.858500E+00 +2.491110E+00 +6.200010E+00     +3.230280E+00 +1.770179E+00 +4.852461E+00     +3.230280E+00 +1.770179E+00 +4.852461E+00     +3.230280E+00 +1.770179E+00 +4.852461E+00     +3.881970E+00 +6.810327E-01 +3.088199E+00     +2.615599E+00 +1.628670E+00 +4.890741E+00    
 +4.305530E+00 +9.631216E-01 +1.169598E-01     +4.305530E+00 +9.631216E-01 +1.169598E-01     +4.305530E+00 +9.631216E-01 +1.169598E-01     +4.046370E+00 +2.683341E+00 +1.019586E-01     +4.046370E+00 +2.683341E+00 +1.019586E-01     +4.046370E+00 +2.683341E+00 +1.019586E-01     +1.666920E+00 +2.348550E+00 +2.015970E+00     +1.666920E+00 +2.348550E+00 +2.015970E+00     +1.666920E+00 +2.348550E+00 +2.015970E+00     +1.666920E+00 +2.348550E+00 +2.015970E+00     +1.666920E+00 +2.348550E+00 +2.015970E+00     +2.403409E+00 +1.538571E+00 +4.591139E+00     +4.813019E+00 +2.408141E+00 +2.331376E-01     +1.275359E+00 +2.170849E+00 +8.672960E-01     +5.915940E+00 +1.370550E+00 +4.709919E+00     +3.881970E+00 +6.810327E-01 +3.088199E+00     +3.881970E+00 +6.810327E-01 +3.088199E+00     +3.881970E+00 +6.810327E-01 +3.088199E+00     +3.881970E+00 +6.810327E-01 +3.088199E+00     +3.881970E+00 +6.810327E-01 +3.088199E+00     +3.881970E+00 +6.810327E-01 +3.088199E+00    
 +4.305530E+00 +9.631216E-01 +1.169598E-01     +4.305530E+00 +9.631216E-01 +1.169598E-01     +1.198790E+00 +2.438080E+00 +8.100614E-01     +1.198790E+00 +2.438080E+00 +8.100614E-01     +1.198790E+00 +2.438080E+00 +8.100614E-01     +1.198790E+00 +2.438080E+00 +8.100614E-01     +1.666920E+00 +2.348550E+00 +2.015970E+00     +1.666920E+00 +2.348550E+00 +2.015970E+00     +1.666920E+00 +2.348550E+00 +2.015970E+00     +1.666920E+00 +2.348550E+00 +2.015970E+00     +1.666920E+00 +2.348550E+00 +2.015970E+00     +2.403409E+00 +1.538571E+00 +4.591139E+00     +4.813019E+00 +2.408141E+00 +2.331376E-01     +5.915940E+00 +1.370550E+00 +4.709919E+00     +5.915940E+00 +1.370550E+00 +4.709919E+00     +5.915940E+00 +1.370550E+00 +4.709919E+00     +5.915940E+00 +1.370550E+00 +4.709919E+00     +3.881970E+00 +6.810327E-01 +3.088199E+00     +3.881970E+00 +6.810327E-01 +3.088199E+00     +4.051160E+00 +6.849475E-01 +3.600789E-01     +4.051160E+00 +6.849475E-01 +3.600789E-01    
 +2.099771E+00 +3.043278E-01 +5.190450E+00     +1.198790E+00 +2.438080E+00 +8.100614E-01     +1.198790E+00 +2.438080E+00 +8.100614E-01     +1.198790E+00 +2.438080E+00 +8.100614E-01     +1.198790E+00 +2.438080E+00 +8.100614E-01     +1.198790E+00 +2.438080E+00 +8.100614E-01     +1.198790E+00 +2.438080E+00 +8.100614E-01     +1.666920E+00 +2.348550E+00 +2.015970E+00     +5.032650E+00 +1.049700E+00 +2.761570E+00     +5.032650E+00 +1.049700E+00 +2.761570E+00     +5.032650E+00 +1.049700E+00 +2.761570E+00     +3.483319E+00 +1.686590E+00 +5.091201E+00     +3.483319E+00 +1.686590E+00 +5.091201E+00     +5.915940E+00 +1.370550E+00 +4.709919E+00     +5.915940E+00 +1.370550E+00 +4.709919E+00     +5.915940E+00 +1.370550E+00 +4.709919E+00     +5.915940E+00 +1.370550E+00 +4.709919E+00     +3.881970E+00 +6.810327E-01 +3.088199E+00     +4.051160E+00 +6.849475E-01 +3.600789E-01     +4.051160E+00 +6.849475E-01 +3.600789E-01     +4.051160E+00 +6.849475E-01 +3.600789E-01    
 +2.099771E+00 +3.043278E-01 +5.190450E+00     +3.539840E+00 +9.509950E-01 +4.313920E+00     +3.539840E+00 +9.509950E-01 +4.313920E+00     +3.539840E+00 +9.509950E-01 +4.313920E+00     +3.539840E+00 +9.509950E-01 +4.313920E+00     +3.539840E+00 +9.509950E-01 +4.313920E+00     +3.539840E+00 +9.509950E-01 +4.313920E+00     +1.666920E+00 +2.348550E+00 +2.015970E+00     +5.032650E+00 +1.049700E+00 +2.761570E+00     +5.032650E+00 +1.049700E+00 +2.761570E+00     +3.483319E+00 +1.686590E+00 +5.091201E+00     +3.483319E+00 +1.686590E+00 +5.091201E+00     +3.483319E+00 +1.686590E+00 +5.091201E+00     +5.915940E+00 +1.370550E+00 +4.709919E+00     +5.915940E+00 +1.370550E+00 +4.709919E+00     +5.915940E+00 +1.370550E+00 +4.709919E+00     +5.915940E+00 +1.370550E+00 +4.709919E+00     +5.915940E+00 +1.370550E+00 +4.709919E+00     +2.099771E+00 +3.043278E-01 +5.190450E+00     +2.099771E+00 +3.043278E-01 +5.190450E+00     +2.099771E+00 +3.043278E-01 +5.190450E+00    
 +2.099771E+00 +3.043278E-01 +5.190450E+00     +2.099771E+00 +3.043278E-01 +5.190450E+00     +3.539840E+00 +9.509950E-01 +4.313920E+00     +3.539840E+00 +9.509950E-01 +4.313920E+00     +3.539840E+00 +9.509950E-01 +4.313920E+00     +3.539840E+00 +9.509950E-01 +4.313920E+00     +7.410406E-01 +1.347391E+00 +6.309173E-01     +3.956649E+00 +1.065070E-01 +3.420859E+00     +3.956649E+00 +1.065070E-01 +3.420859E+00     +3.483319E+00 +1.686590E+00 +5.091201E+00     +3.483319E+00 +1.686590E+00 +5.091201E+00     +3.483319E+00 +1.686590E+00 +5.091201E+00     +3.483319E+00 +1.686590E+00 +5.091201E+00     +5.915940E+00 +1.370550E+00 +4.709919E+00     +5.915940E+00 +1.370550E+00 +4.709919E+00     +5.915940E+00 +1.370550E+00 +4.709919E+00     +5.915940E+00 +1.370550E+00 +4.709919E+00     +2.099771E+00 +3.043278E-01 +5.190450E+00     +2.099771E+00 +3.043278E-01 +5.190450E+00     +2.099771E+00 +3.043278E-01 +5.190450E+00     +2.099771E+00 +3.043278E-01 +5.190450E+00    
 +2.099771E+00 +3.043278E-01 +5.190450E+00     +2.099771E+00 +3.043278E-01 +5.190450E+00     +3.539840E+00 +9.509950E-01 +4.313920E+00     +3.539840E+00 +9.509950E-01 +4.313920E+00     +3.539840E+00 +9.509950E-01 +4.313920E+00     +3.539840E+00 +9.509950E-01 +4.313920E+00     +7.410406E-01 +1.347391E+00 +6.309173E-01     +3.956649E+00 +1.065070E-01 +3.420859E+00     +5.646151E+00 +1.008350E+00 +4.577880E+00     +5.646151E+00 +1.008350E+00 +4.577880E+00     +3.483319E+00 +1.686590E+00 +5.091201E+00     +3.483319E+00 +1.686590E+00 +5.091201E+00     +3.483319E+00 +1.686590E+00 +5.091201E+00     +5.915940E+00 +1.370550E+00 +4.709919E+00     +5.915940E+00 +1.370550E+00 +4.709919E+00     +5.915940E+00 +1.370550E+00 +4.709919E+00     +5.570089E+00 +1.761910E+00 +5.651350E+00     +5.570089E+00 +1.761910E+00 +5.651350E+00     +2.099771E+00 +3.043278E-01 +5.190450E+00     +2.099771E+00 +3.043278E-01 +5.190450E+00     +2.099771E+00 +3.043278E-01 +5.190450E+00    
 +2.099771E+00 +3.043278E-01 +5.190450E+00     +2.099771E+00 +3.043278E-01 +5.190450E+00     +3.539840E+00 +9.509950E-01 +4.313920E+00     +3.539840E+00 +9.509950E-01 +4.313920E+00     +3.539840E+00 +9.509950E-01 +4.313920E+00     +2.906589E+00 +1.952840E+00 +5.279670E+00     +7.410406E-01 +1.347391E+00 +6.309173E-01     +3.956649E+00 +1.065070E-01 +3.420859E+00     +5.646151E+00 +1.008350E+00 +4.577880E+00     +5.646151E+00 +1.008350E+00 +4.577880E+00     +5.646151E+00 +1.008350E+00 +4.577880E+00     +3.483319E+00 +1.686590E+00 +5.091201E+00     +3.483319E+00 +1.686590E+00 +5.091201E+00     +6.149331E+00 +1.068421E+00 +1.449381E+00     +6.149331E+00 +1.068421E+00 +1.449381E+00     +6.149331E+00 +1.068421E+00 +1.449381E+00     +5.570089E+00 +1.761910E+00 +5.651350E+00     +5.570089E+00 +1.761910E+00 +5.651350E+00     +2.099771E+00 +3.043278E-01 +5.190450E+00     +2.099771E+00 +3.043278E-01 +5.190450E+00     +2.099771E+00 +3.043278E-01 +5.190450E+00    
 +2.099771E+00 +3.043278E-01 +5.190450E+00     +3.310211E+00 +1.307440E+00 +3.972190E+00     +3.310211E+00 +1.307440E+00 +3.972190E+00     +8.389483E-01 +7.921194E-01 +1.657923E-01     +8.389483E-01 +7.921194E-01 +1.657923E-01     +2.906589E+00 +1.952840E+00 +5.279670E+00     +4.558015E-01 +1.537501E+00 +1.064860E+00     +3.956649E+00 +1.065070E-01 +3.420859E+00     +5.646151E+00 +1.008350E+00 +4.577880E+00     +5.646151E+00 +1.008350E+00 +4.577880E+00     +5.646151E+00 +1.008350E+00 +4.577880E+00     +2.488949E+00 +9.638284E-01 +4.558980E+00     +3.483319E+00 +1.686590E+00 +5.091201E+00     +6.149331E+00 +1.068421E+00 +1.449381E+00     +6.149331E+00 +1.068421E+00 +1.449381E+00     +6.149331E+00 +1.068421E+00 +1.449381E+00     +6.149331E+00 +1.068421E+00 +1.449381E+00     +5.570089E+00 +1.761910E+00 +5.651350E+00     +2.099771E+00 +3.043278E-01 +5.190450E+00     +2.099771E+00 +3.043278E-01 +5.190450E+00     +2.099771E+00 +3.043278E-01 +5.190450E+00    
 +3.310211E+00 +1.307440E+00 +3.972190E+00     +3.310211E+00 +1.307440E+00 +3.972190E+00     +3.310211E+00 +1.307440E+00 +3.972190E+00     +8.389483E-01 +7.921194E-01 +1.657923E-01     +8.389483E-01 +7.921194E-01 +1.657923E-01     +4.558015E-01 +1.537501E+00 +1.064860E+00     +4.558015E-01 +1.537501E+00 +1.064860E+00     +4.558015E-01 +1.537501E+00 +1.064860E+00     +4.558015E-01 +1.537501E+00 +1.064860E+00     +5.646151E+00 +1.008350E+00 +4.577880E+00     +2.488949E+00 +9.638284E-01 +4.558980E+00     +2.488949E+00 +9.638284E-01 +4.558980E+00     +2.488949E+00 +9.638284E-01 +4.558980E+00     +6.149331E+00 +1.068421E+00 +1.449381E+00     +6.149331E+00 +1.068421E+00 +1.449381E+00     +6.149331E+00 +1.068421E+00 +1.449381E+00     +6.149331E+00 +1.068421E+00 +1.449381E+00     +1.615070E+00 +1.144740E+00 +5.368900E+00     +2.099771E+00 +3.043278E-01 +5.190450E+00     +1.488501E+00 +1.369720E+00 +4.647463E-02     +2.099771E+00 +3.043278E-01 +5.190450E+00    
 +3.289830E+00 +2.250270E+00 +2.792970E+00     +3.289830E+00 +2.250270E+00 +2.792970E+00     +3.289830E+00 +2.250270E+00 +2.792970E+00     +8.389483E-01 +7.921194E-01 +1.657923E-01     +4.558015E-01 +1.537501E+00 +1.064860E+00     +4.558015E-01 +1.537501E+00 +1.064860E+00     +4.558015E-01 +1.537501E+00 +1.064860E+00     +4.558015E-01 +1.537501E+00 +1.064860E+00     +4.558015E-01 +1.537501E+00 +1.064860E+00     +4.558015E-01 +1.537501E+00 +1.064860E+00     +2.488949E+00 +9.638284E-01 +4.558980E+00     +2.488949E+00 +9.638284E-01 +4.558980E+00     +2.488949E+00 +9.638284E-01 +4.558980E+00     +6.149331E+00 +1.068421E+00 +1.449381E+00     +6.149331E+00 +1.068421E+00 +1.449381E+00     +6.149331E+00 +1.068421E+00 +1.449381E+00     +6.149331E+00 +1.068421E+00 +1.449381E+00     +6.149331E+00 +1.068421E+00 +1.449381E+00     +1.488501E+00 +1.369720E+00 +4.647463E-02     +1.488501E+00 +1.369720E+00 +4.647463E-02     +2.099771E+00 +3.043278E-01 +5.190450E+00    
 +3.289830E+00 +2.250270E+00 +2.792970E+00     +3.289830E+00 +2.250270E+00 +2.792970E+00     +3.289830E+00 +2.250270E+00 +2.792970E+00     +3.289830E+00 +2.250270E+00 +2.792970E+00     +4.558015E-01 +1.537501E+00 +1.064860E+00     +4.558015E-01 +1.537501E+00 +1.064860E+00     +4.558015E-01 +1.537501E+00 +1.064860E+00     +4.558015E-01 +1.537501E+00 +1.064860E+00     +4.558015E-01 +1.537501E+00 +1.064860E+00     +4.558015E-01 +1.537501E+00 +1.064860E+00     +2.488949E+00 +9.638284E-01 +4.558980E+00     +9.478342E-01 +1.460731E+00 +2.908085E-01     +9.478342E-01 +1.460731E+00 +2.908085E-01     +9.478342E-01 +1.460731E+00 +2.908085E-01     +6.149331E+00 +1.068421E+00 +1.449381E+00     +6.149331E+00 +1.068421E+00 +1.449381E+00     +6.149331E+00 +1.068421E+00 +1.449381E+00     +6.149331E+00 +1.068421E+00 +1.449381E+00     +6.149331E+00 +1.068421E+00 +1.449381E+00     +1.488501E+00 +1.369720E+00 +4.647463E-02     +5.433811E+00 +1.679949E+00 +5.185890E+00    
 +6.098370E+00 +7.690217E-01 +9.597182E-01     +6.098370E+00 +7.690217E-01 +9.597182E-01     +6.098370E+00 +7.690217E-01 +9.597182E-01     +6.098370E+00 +7.690217E-01 +9.597182E-01     +3.680027E-01 +1.781810E+00 +2.174680E-02     +3.680027E-01 +1.781810E+00 +2.174680E-02     +3.680027E-01 +1.781810E+00 +2.174680E-02     +4.558015E-01 +1.537501E+00 +1.064860E+00     +3.680027E-01 +1.781810E+00 +2.174680E-02     +3.680027E-01 +1.781810E+00 +2.174680E-02     +3.680027E-01 +1.781810E+00 +2.174680E-02     +9.478342E-01 +1.460731E+00 +2.908085E-01     +9.478342E-01 +1.460731E+00 +2.908085E-01     +9.478342E-01 +1.460731E+00 +2.908085E-01     +9.478342E-01 +1.460731E+00 +2.908085E-01     +9.478342E-01 +1.460731E+00 +2.908085E-01     +6.149331E+00 +1.068421E+00 +1.449381E+00     +6.149331E+00 +1.068421E+00 +1.449381E+00     +6.149331E+00 +1.068421E+00 +1.449381E+00     +5.433811E+00 +1.679949E+00 +5.185890E+00     +5.433811E+00 +1.679949E+00 +5.185890E+00    
 +5.433811E+00 +1.679949E+00 +5.185890E+00     +3.594226E-01 +2.151391E+00 +5.300430E+00     +6.098370E+00 +7.690217E-01 +9.597182E-01     +6.098370E+00 +7.690217E-01 +9.597182E-01     +3.680027E-01 +1.781810E+00 +2.174680E-02     +3.680027E-01 +1.781810E+00 +2.174680E-02     +3.680027E-01 +1.781810E+00 +2.174680E-02     +3.680027E-01 +1.781810E+00 +2.174680E-02     +3.680027E-01 +1.781810E+00 +2.174680E-02     +3.680027E-01 +1.781810E+00 +2.174680E-02     +3.680027E-01 +1.781810E+00 +2.174680E-02     +9.478342E-01 +1.460731E+00 +2.908085E-01     +9.478342E-01 +1.460731E+00 +2.908085E-01     +9.478342E-01 +1.460731E+00 +2.908085E-01     +9.478342E-01 +1.460731E+00 +2.908085E-01     +9.478342E-01 +1.460731E+00 +2.908085E-01     +3.433651E+00 +1.387669E+00 +4.191160E+00     +3.433651E+00 +1.387669E+00 +4.191160E+00     +3.433651E+00 +1.387669E+00 +4.191160E+00     +5.490879E+00 +1.331950E+00 +1.387240E+00     +5.433811E+00 +1.679949E+00 +5.185890E+00    
 +5.433811E+00 +1.679949E+00 +5.185890E+00     +5.433811E+00 +1.679949E+00 +5.185890E+00     +5.433811E+00 +1.679949E+00 +5.185890E+00     +5.433811E+00 +1.679949E+00 +5.185890E+00     +3.680027E-01 +1.781810E+00 +2.174680E-02     +3.680027E-01 +1.781810E+00 +2.174680E-02     +3.680027E-01 +1.781810E+00 +2.174680E-02     +3.680027E-01 +1.781810E+00 +2.174680E-02     +3.680027E-01 +1.781810E+00 +2.174680E-02     +3.680027E-01 +1.781810E+00 +2.174680E-02     +3.680027E-01 +1.781810E+00 +2.174680E-02     +9.478342E-01 +1.460731E+00 +2.908085E-01     +9.478342E-01 +1.460731E+00 +2.908085E-01     +9.478342E-01 +1.460731E+00 +2.908085E-01     +9.478342E-01 +1.460731E+00 +2.908085E-01     +9.478342E-01 +1.460731E+00 +2.908085E-01     +3.433651E+00 +1.387669E+00 +4.191160E+00     +3.433651E+00 +1.387669E+00 +4.191160E+00     +3.433651E+00 +1.387669E+00 +4.191160E+00     +5.490879E+00 +1.331950E+00 +1.387240E+00     +5.490879E+00 +1.331950E+00 +1.387240E+00    
 +5.433811E+00 +1.679949E+00 +5.185890E+00     +5.433811E+00 +1.679949E+00 +5.185890E+00     +5.433811E+00 +1.679949E+00 +5.185890E+00     +5.433811E+00 +1.679949E+00 +5.185890E+00     +3.680027E-01 +1.781810E+00 +2.174680E-02     +3.680027E-01 +1.781810E+00 +2.174680E-02     +3.680027E-01 +1.781810E+00 +2.174680E-02     +3.680027E-01 +1.781810E+00 +2.174680E-02     +3.680027E-01 +1.781810E+00 +2.174680E-02     +3.680027E-01 +1.781810E+00 +2.174680E-02     +3.680027E-01 +1.781810E+00 +2.174680E-02     +9.478342E-01 +1.460731E+00 +2.908085E-01     +9.478342E-01 +1.460731E+00 +2.908085E-01     +9.478342E-01 +1.460731E+00 +2.908085E-01     +9.478342E-01 +1.460731E+00 +2.908085E-01     +3.433651E+00 +1.387669E+00 +4.191160E+00     +3.433651E+00 +1.387669E+00 +4.191160E+00     +3.433651E+00 +1.387669E+00 +4.191160E+00     +3.433651E+00 +1.387669E+00 +4.191160E+00     +5.490879E+00 +1.331950E+00 +1.387240E+00     +5.490879E+00 +1.331950E+00 +1.387240E+00    
 +2.615599E+00 +1.628670E+00 +4.890741E+00     +2.615599E+00 +1.628670E+00 +4.890741E+00     +2.615599E+00 +1.628670E+00 +4.890741E+00     +8.284624E-01 +9.850813E-01 +5.831145E-02     +8.284624E-01 +9.850813E-01 +5.831145E-02     +3.680027E-01 +1.781810E+00 +2.174680E-02     +3.680027E-01 +1.781810E+00 +2.174680E-02     +3.680027E-01 +1.781810E+00 +2.174680E-02     +3.680027E-01 +1.781810E+00 +2.174680E-02     +3.680027E-01 +1.781810E+00 +2.174680E-02     +1.275359E+00 +2.170849E+00 +8.672960E-01     +1.275359E+00 +2.170849E+00 +8.672960E-01     +1.275359E+00 +2.170849E+00 +8.672960E-01     +5.176631E+00 +1.026130E+00 +2.206360E+00     +5.176631E+00 +1.026130E+00 +2.206360E+00     +3.433651E+00 +1.387669E+00 +4.191160E+00     +3.433651E+00 +1.387669E+00 +4.191160E+00     +3.433651E+00 +1.387669E+00 +4.191160E+00     +2.765171E+00 +1.135571E+00 +5.039141E+00     +2.765171E+00 +1.135571E+00 +5.039141E+00     +2.765171E+00 +1.135571E+00 +5.039141E+00    
 +2.615599E+00 +1.628670E+00 +4.890741E+00     +2.615599E+00 +1.628670E+00 +4.890741E+00     +2.615599E+00 +1.628670E+00 +4.890741E+00     +2.615599E+00 +1.628670E+00 +4.890741E+00     +8.284624E-01 +9.850813E-01 +5.831145E-02     +3.680027E-01 +1.781810E+00 +2.174680E-02     +3.680027E-01 +1.781810E+00 +2.174680E-02     +3.680027E-01 +1.781810E+00 +2.174680E-02     +3.680027E-01 +1.781810E+00 +2.174680E-02     +1.275359E+00 +2.170849E+00 +8.672960E-01     +1.275359E+00 +2.170849E+00 +8.672960E-01     +1.275359E+00 +2.170849E+00 +8.672960E-01     +1.275359E+00 +2.170849E+00 +8.672960E-01     +5.176631E+00 +1.026130E+00 +2.206360E+00     +5.176631E+00 +1.026130E+00 +2.206360E+00     +5.804021E+00 +1.837120E+00 +1.865720E+00     +3.433651E+00 +1.387669E+00 +4.191160E+00     +2.765171E+00 +1.135571E+00 +5.039141E+00     +2.765171E+00 +1.135571E+00 +5.039141E+00     +2.765171E+00 +1.135571E+00 +5.039141E+00     +2.765171E+00 +1.135571E+00 +5.039141E+00    
 +2.615599E+00 +1.628670E+00 +4.890741E+00     +2.615599E+00 +1.628670E+00 +4.890741E+00     +2.615599E+00 +1.628670E+00 +4.890741E+00     +2.615599E+00 +1.628670E+00 +4.890741E+00     +2.615599E+00 +1.628670E+00 +4.890741E+00     +2.615599E+00 +1.628670E+00 +4.890741E+00     +3.680027E-01 +1.781810E+00 +2.174680E-02     +9.955812E-01 +2.258920E+00 +2.958440E+00     +9.955812E-01 +2.258920E+00 +2.958440E+00     +1.275359E+00 +2.170849E+00 +8.672960E-01     +1.275359E+00 +2.170849E+00 +8.672960E-01     +1.275359E+00 +2.170849E+00 +8.672960E-01     +1.275359E+00 +2.170849E+00 +8.672960E-01     +1.275359E+00 +2.170849E+00 +8.672960E-01     +5.858500E+00 +2.491110E+00 +6.200010E+00     +5.858500E+00 +2.491110E+00 +6.200010E+00     +5.858500E+00 +2.491110E+00 +6.200010E+00     +3.230280E+00 +1.770179E+00 +4.852461E+00     +2.765171E+00 +1.135571E+00 +5.039141E+00     +2.765171E+00 +1.135571E+00 +5.039141E+00     +2.765171E+00 +1.135571E+00 +5.039141E+00    
 +2.615599E+00 +1.628670E+00 +4.890741E+00     +2.615599E+00 +1.628670E+00 +4.890741E+00     +2.615599E+00 +1.628670E+00 +4.890741E+00     +2.615599E+00 +1.628670E+00 +4.890741E+00     +2.615599E+00 +1.628670E+00 +4.890741E+00     +2.615599E+00 +1.628670E+00 +4.890741E+00     +9.955812E-01 +2.258920E+00 +2.958440E+00     +9.955812E-01 +2.258920E+00 +2.958440E+00     +9.955812E-01 +2.258920E+00 +2.958440E+00     +9.955812E-01 +2.258920E+00 +2.958440E+00     +1.275359E+00 +2.170849E+00 +8.672960E-01     +1.275359E+00 +2.170849E+00 +8.672960E-01     +1.275359E+00 +2.170849E+00 +8.672960E-01     +1.275359E+00 +2.170849E+00 +8.672960E-01     +5.858500E+00 +2.491110E+00 +6.200010E+00     +5.858500E+00 +2.491110E+00 +6.200010E+00     +5.858500E+00 +2.491110E+00 +6.200010E+00     +3.230280E+00 +1.770179E+00 +4.852461E+00     +3.230280E+00 +1.770179E+00 +4.852461E+00     +3.230280E+00 +1.770179E+00 +4.852461E+00     +2.615599E+00 +1.628670E+00 +4.890741E+00    
 +2.615599E+00 +1.628670E+00 +4.890741E+00     +2.615599E+00 +1.628670E+00 +4.890741E+00     +2.615599E+00 +1.628670E+00 +4.890741E+00     +2.615599E+00 +1.628670E+00 +4.890741E+00     +2.615599E+00 +1.628670E+00 +4.890741E+00     +2.615599E+00 +1.628670E+00 +4.890741E+00     +9.955812E-01 +2.258920E+00 +2.958440E+00     +9.955812E-01 +2.258920E+00 +2.958440E+00     +9.955812E-01 +2.258920E+00 +2.958440E+00     +1.275359E+00 +2.170849E+00 +8.672960E-01     +1.275359E+00 +2.170849E+00 +8.672960E-01     +1.275359E+00 +2.170849E+00 +8.672960E-01     +1.275359E+00 +2.170849E+00 +8.672960E-01     +1.275359E+00 +2.170849E+00 +8.672960E-01     +5.858500E+00 +2.491110E+00 +6.200010E+00     +5.858500E+00 +2.491110E+00 +6.200010E+00     +3.230280E+00 +1.770179E+00 +4.852461E+00     +3.230280E+00 +1.770179E+00 +4.852461E+00     +3.230280E+00 +1.770179E+00 +4.852461E+00     +3.230280E+00 +1.770179E+00 +4.852461E+00     +2.615599E+00 +1.628670E+00 +4.890741E+00    
 +4.812670E+00 +2.299791E+00 +4.509041E+00     +4.812670E+00 +2.299791E+00 +4.509041E+00     +4.812670E+00 +2.299791E+00 +4.509041E+00     +4.812670E+00 +2.299791E+00 +4.509041E+00     +4.046370E+00 +2.683341E+00 +1.019586E-01     +1.666920E+00 +2.348550E+00 +2.015970E+00     +1.666920E+00 +2.348550E+00 +2.015970E+00     +1.666920E+00 +2.348550E+00 +2.015970E+00     +1.666920E+00 +2.348550E+00 +2.015970E+00     +1.666920E+00 +2.348550E+00 +2.015970E+00     +1.666920E+00 +2.348550E+00 +2.015970E+00     +1.275359E+00 +2.170849E+00 +8.672960E-01     +1.275359E+00 +2.170849E+00 +8.672960E-01     +1.275359E+00 +2.170849E+00 +8.672960E-01     +1.275359E+00 +2.170849E+00 +8.672960E-01     +3.230280E+00 +1.770179E+00 +4.852461E+00     +3.230280E+00 +1.770179E+00 +4.852461E+00     +3.230280E+00 +1.770179E+00 +4.852461E+00     +3.230280E+00 +1.770179E+00 +4.852461E+00     +3.230280E+00 +1.770179E+00 +4.852461E+00     +2.615599E+00 +1.628670E+00 +4.890741E+00    
 +4.305530E+00 +9.631216E-01 +1.169598E-01     +4.305530E+00 +9.631216E-01 +1.169598E-01     +4.305530E+00 +9.631216E-01 +1.169598E-01     +4.305530E+00 +9.631216E-01 +1.169598E-01     +4.046370E+00 +2.683341E+00 +1.019586E-01     +5.204900E+00 +1.079929E+00 +3.982901E+00     +5.204900E+00 +1.079929E+00 +3.982901E+00     +5.204900E+00 +1.079929E+00 +3.982901E+00     +1.666920E+00 +2.348550E+00 +2.015970E+00     +5.203431E+00 +1.491560E+00 +1.852030E+00     +1.666920E+00 +2.348550E+00 +2.015970E+00     +1.666920E+00 +2.348550E+00 +2.015970E+00     +1.275359E+00 +2.170849E+00 +8.672960E-01     +1.275359E+00 +2.170849E+00 +8.672960E-01     +4.742130E+00 +1.957270E+00 +8.167478E-01     +4.742130E+00 +1.957270E+00 +8.167478E-01     +3.230280E+00 +1.770179E+00 +4.852461E+00     +3.881970E+00 +6.810327E-01 +3.088199E+00     +3.230280E+00 +1.770179E+00 +4.852461E+00     +3.230280E+00 +1.770179E+00 +4.852461E+00     +2.421060E+00 +1.825970E+00 +4.804870E+00    
 +4.305530E+00 +9.631216E-01 +1.169598E-01     +4.305530E+00 +9.631216E-01 +1.169598E-01     +4.305530E+00 +9.631216E-01 +1.169598E-01     +4.305530E+00 +9.631216E-01 +1.169598E-01     +4.549539E+00 +1.545980E+00 +3.262760E+00     +4.549539E+00 +1.545980E+00 +3.262760E+00     +5.204900E+00 +1.079929E+00 +3.982901E+00     +1.666920E+00 +2.348550E+00 +2.015970E+00     +1.666920E+00 +2.348550E+00 +2.015970E+00     +1.666920E+00 +2.348550E+00 +2.015970E+00     +1.666920E+00 +2.348550E+00 +2.015970E+00     +1.666920E+00 +2.348550E+00 +2.015970E+00     +1.275359E+00 +2.170849E+00 +8.672960E-01     +5.915940E+00 +1.370550E+00 +4.709919E+00     +4.742130E+00 +1.957270E+00 +8.167478E-01     +4.742130E+00 +1.957270E+00 +8.167478E-01     +4.742130E+00 +1.957270E+00 +8.167478E-01     +4.742130E+00 +1.957270E+00 +8.167478E-01     +2.070980E+00 +9.549901E-01 +5.551800E+00     +2.070980E+00 +9.549901E-01 +5.551800E+00     +2.421060E+00 +1.825970E+00 +4.804870E+00    
 +4.305530E+00 +9.631216E-01 +1.169598E-01     +4.305530E+00 +9.631216E-01 +1.169598E-01     +4.305530E+00 +9.631216E-01 +1.169598E-01     +1.198790E+00 +2.438080E+00 +8.100614E-01     +4.549539E+00 +1.545980E+00 +3.262760E+00     +4.549539E+00 +1.545980E+00 +3.262760E+00     +5.848241E+00 +2.706412E-01 +1.179061E+00     +5.848241E+00 +2.706412E-01 +1.179061E+00     +5.032650E+00 +1.049700E+00 +2.761570E+00     +4.778410E+00 +1.572580E+00 +5.564960E+00     +5.032650E+00 +1.049700E+00 +2.761570E+00     +3.483319E+00 +1.686590E+00 +5.091201E+00     +3.483319E+00 +1.686590E+00 +5.091201E+00     +5.915940E+00 +1.370550E+00 +4.709919E+00     +4.742130E+00 +1.957270E+00 +8.167478E-01     +4.742130E+00 +1.957270E+00 +8.167478E-01     +4.742130E+00 +1.957270E+00 +8.167478E-01     +2.070980E+00 +9.549901E-01 +5.551800E+00     +2.070980E+00 +9.549901E-01 +5.551800E+00     +2.070980E+00 +9.549901E-01 +5.551800E+00     +2.070980E+00 +9.549901E-01 +5.551800E+00    
 +2.099771E+00 +3.043278E-01 +5.190450E+00     +5.381670E-01 +6.205536E-01 +1.011910E+00     +3.539840E+00 +9.509950E-01 +4.313920E+00     +3.539840E+00 +9.509950E-01 +4.313920E+00     +3.539840E+00 +9.509950E-01 +4.313920E+00     +4.549539E+00 +1.545980E+00 +3.262760E+00     +4.549539E+00 +1.545980E+00 +3.262760E+00     +5.848241E+00 +2.706412E-01 +1.179061E+00     +5.032650E+00 +1.049700E+00 +2.761570E+00     +5.032650E+00 +1.049700E+00 +2.761570E+00     +3.483319E+00 +1.686590E+00 +5.091201E+00     +3.483319E+00 +1.686590E+00 +5.091201E+00     +3.483319E+00 +1.686590E+00 +5.091201E+00     +3.483319E+00 +1.686590E+00 +5.091201E+00     +5.915940E+00 +1.370550E+00 +4.709919E+00     +4.742130E+00 +1.957270E+00 +8.167478E-01     +4.742130E+00 +1.957270E+00 +8.167478E-01     +2.070980E+00 +9.549901E-01 +5.551800E+00     +2.070980E+00 +9.549901E-01 +5.551800E+00     +2.518821E+00 +1.471250E+00 +4.781989E+00     +2.518821E+00 +1.471250E+00 +4.781989E+00    
 +2.099771E+00 +3.043278E-01 +5.190450E+00     +2.099771E+00 +3.043278E-01 +5.190450E+00     +3.539840E+00 +9.509950E-01 +4.313920E+00     +3.539840E+00 +9.509950E-01 +4.313920E+00     +3.539840E+00 +9.509950E-01 +4.313920E+00     +2.906589E+00 +1.952840E+00 +5.279670E+00     +7.410406E-01 +1.347391E+00 +6.309173E-01     +7.410406E-01 +1.347391E+00 +6.309173E-01     +5.032650E+00 +1.049700E+00 +2.761570E+00     +3.483319E+00 +1.686590E+00 +5.091201E+00     +3.483319E+00 +1.686590E+00 +5.091201E+00     +3.483319E+00 +1.686590E+00 +5.091201E+00     +3.483319E+00 +1.686590E+00 +5.091201E+00     +3.483319E+00 +1.686590E+00 +5.091201E+00     +5.915940E+00 +1.370550E+00 +4.709919E+00     +5.915940E+00 +1.370550E+00 +4.709919E+00     +5.915940E+00 +1.370550E+00 +4.709919E+00     +2.070980E+00 +9.549901E-01 +5.551800E+00     +2.070980E+00 +9.549901E-01 +5.551800E+00     +2.518821E+00 +1.471250E+00 +4.781989E+00     +2.099771E+00 +3.043278E-01 +5.190450E+00    
 +2.099771E+00 +3.043278E-01 +5.190450E+00     +2.099771E+00 +3.043278E-01 +5.190450E+00     +3.539840E+00 +9.509950E-01 +4.313920E+00     +3.539840E+00 +9.509950E-01 +4.313920E+00     +2.906589E+00 +1.952840E+00 +5.279670E+00     +2.906589E+00 +1.952840E+00 +5.279670E+00     +7.410406E-01 +1.347391E+00 +6.309173E-01     +7.410406E-01 +1.347391E+00 +6.309173E-01     +7.410406E-01 +1.347391E+00 +6.309173E-01     +3.483319E+00 +1.686590E+00 +5.091201E+00     +3.483319E+00 +1.686590E+00 +5.091201E+00     +3.483319E+00 +1.686590E+00 +5.091201E+00     +3.483319E+00 +1.686590E+00 +5.091201E+00     +3.483319E+00 +1.686590E+00 +5.091201E+00     +5.915940E+00 +1.370550E+00 +4.709919E+00     +5.915940E+00 +1.370550E+00 +4.709919E+00     +5.915940E+00 +1.370550E+00 +4.709919E+00     +2.099771E+00 +3.043278E-01 +5.190450E+00     +2.099771E+00 +3.043278E-01 +5.190450E+00     +2.099771E+00 +3.043278E-01 +5.190450E+00     +2.099771E+00 +3.043278E-01 +5.190450E+00    
 +2.099771E+00 +3.043278E-01 +5.190450E+00     +2.099771E+00 +3.043278E-01 +5.190450E+00     +2.099771E+00 +3.043278E-01 +5.190450E+00     +2.906589E+00 +1.952840E+00 +5.279670E+00     +2.906589E+00 +1.952840E+00 +5.279670E+00     +2.906589E+00 +1.952840E+00 +5.279670E+00     +7.410406E-01 +1.347391E+00 +6.309173E-01     +7.410406E-01 +1.347391E+00 +6.309173E-01     +7.410406E-01 +1.347391E+00 +6.309173E-01     +5.646151E+00 +1.008350E+00 +4.577880E+00     +3.483319E+00 +1.686590E+00 +5.091201E+00     +3.483319E+00 +1.686590E+00 +5.091201E+00     +3.483319E+00 +1.686590E+00 +5.091201E+00     +6.149331E+00 +1.068421E+00 +1.449381E+00     +6.149331E+00 +1.068421E+00 +1.449381E+00     +6.149331E+00 +1.068421E+00 +1.449381E+00     +6.149331E+00 +1.068421E+00 +1.449381E+00     +2.099771E+00 +3.043278E-01 +5.190450E+00     +2.099771E+00 +3.043278E-01 +5.190450E+00     +1.458401E+00 +1.573229E+00 +1.711899E+00     +2.099771E+00 +3.043278E-01 +5.190450E+00    
 +2.099771E+00 +3.043278E-01 +5.190450E+00     +2.099771E+00 +3.043278E-01 +5.190450E+00     +8.389483E-01 +7.921194E-01 +1.657923E-01     +8.389483E-01 +7.921194E-01 +1.657923E-01     +2.906589E+00 +1.952840E+00 +5.279670E+00     +2.906589E+00 +1.952840E+00 +5.279670E+00     +7.410406E-01 +1.347391E+00 +6.309173E-01     +7.410406E-01 +1.347391E+00 +6.309173E-01     +5.254021E+00 +2.600570E+00 +4.963440E+00     +5.254021E+00 +2.600570E+00 +4.963440E+00     +5.254021E+00 +2.600570E+00 +4.963440E+00     +2.488949E+00 +9.638284E-01 +4.558980E+00     +2.488949E+00 +9.638284E-01 +4.558980E+00     +6.149331E+00 +1.068421E+00 +1.449381E+00     +6.149331E+00 +1.068421E+00 +1.449381E+00     +6.149331E+00 +1.068421E+00 +1.449381E+00     +6.149331E+00 +1.068421E+00 +1.449381E+00     +2.099771E+00 +3.043278E-01 +5.190450E+00     +2.099771E+00 +3.043278E-01 +5.190450E+00     +2.099771E+00 +3.043278E-01 +5.190450E+00     +2.099771E+00 +3.043278E-01 +5.190450E+00    
 +2.099771E+00 +3.043278E-01 +5.190450E+00     +3.310211E+00 +1.307440E+00 +3.972190E+00     +8.389483E-01 +7.921194E-01 +1.657923E-01     +8.389483E-01 +7.921194E-01 +1.657923E-01     +8.389483E-01 +7.921194E-01 +1.657923E-01     +4.350031E+00 +2.797740E+00 +6.246621E+00     +4.558015E-01 +1.537501E+00 +1.064860E+00     +4.558015E-01 +1.537501E+00 +1.064860E+00     +4.558015E-01 +1.537501E+00 +1.064860E+00     +5.254021E+00 +2.600570E+00 +4.963440E+00     +2.488949E+00 +9.638284E-01 +4.558980E+00     +2.488949E+00 +9.638284E-01 +4.558980E+00     +2.488949E+00 +9.638284E-01 +4.558980E+00     +6.149331E+00 +1.068421E+00 +1.449381E+00     +6.149331E+00 +1.068421E+00 +1.449381E+00     +6.149331E+00 +1.068421E+00 +1.449381E+00     +6.149331E+00 +1.068421E+00 +1.449381E+00     +6.149331E+00 +1.068421E+00 +1.449381E+00     +2.099771E+00 +3.043278E-01 +5.190450E+00     +2.099771E+00 +3.043278E-01 +5.190450E+00     +2.099771E+00 +3.043278E-01 +5.190450E+00    
 +6.098370E+00 +7.690217E-01 +9.597182E-01     +6.098370E+00 +7.690217E-01 +9.597182E-01     +6.098370E+00 +7.690217E-01 +9.597182E-01     +8.389483E-01 +7.921194E-01 +1.657923E-01     +8.389483E-01 +7.921194E-01 +1.657923E-01     +4.558015E-01 +1.537501E+00 +1.064860E+00     +4.558015E-01 +1.537501E+00 +1.064860E+00     +4.558015E-01 +1.537501E+00 +1.064860E+00     +4.558015E-01 +1.537501E+00 +1.064860E+00     +5.254021E+00 +2.600570E+00 +4.963440E+00     +2.488949E+00 +9.638284E-01 +4.558980E+00     +2.488949E+00 +9.638284E-01 +4.558980E+00     +2.488949E+00 +9.638284E-01 +4.558980E+00     +6.149331E+00 +1.068421E+00 +1.449381E+00     +6.149331E+00 +1.068421E+00 +1.449381E+00     +6.149331E+00 +1.068421E+00 +1.449381E+00     +6.149331E+00 +1.068421E+00 +1.449381E+00     +6.149331E+00 +1.068421E+00 +1.449381E+00     +2.099771E+00 +3.043278E-01 +5.190450E+00     +2.099771E+00 +3.043278E-01 +5.190450E+00     +2.099771E+00 +3.043278E-01 +5.190450E+00    
 +6.098370E+00 +7.690217E-01 +9.597182E-01     +6.098370E+00 +7.690217E-01 +9.597182E-01     +6.098370E+00 +7.690217E-01 +9.597182E-01     +6.098370E+00 +7.690217E-01 +9.597182E-01     +6.098370E+00 +7.690217E-01 +9.597182E-01     +4.558015E-01 +1.537501E+00 +1.064860E+00     +4.558015E-01 +1.537501E+00 +1.064860E+00     +4.558015E-01 +1.537501E+00 +1.064860E+00     +4.558015E-01 +1.537501E+00 +1.064860E+00     +4.558015E-01 +1.537501E+00 +1.064860E+00     +2.488949E+00 +9.638284E-01 +4.558980E+00     +2.488949E+00 +9.638284E-01 +4.558980E+00     +9.478342E-01 +1.460731E+00 +2.908085E-01     +6.149331E+00 +1.068421E+00 +1.449381E+00     +6.149331E+00 +1.068421E+00 +1.449381E+00     +6.149331E+00 +1.068421E+00 +1.449381E+00     +6.149331E+00 +1.068421E+00 +1.449381E+00     +6.149331E+00 +1.068421E+00 +1.449381E+00     +6.149331E+00 +1.068421E+00 +1.449381E+00     +6.098370E+00 +7.690217E-01 +9.597182E-01     +6.098370E+00 +7.690217E-01 +9.597182E-01    
 +6.098370E+00 +7.690217E-01 +9.597182E-01     +6.098370E+00 +7.690217E-01 +9.597182E-01     +6.098370E+00 +7.690217E-01 +9.597182E-01     +6.098370E+00 +7.690217E-01 +9.597182E-01     +3.680027E-01 +1.781810E+00 +2.174680E-02     +4.558015E-01 +1.537501E+00 +1.064860E+00     +4.558015E-01 +1.537501E+00 +1.064860E+00     +4.558015E-01 +1.537501E+00 +1.064860E+00     +4.558015E-01 +1.537501E+00 +1.064860E+00     +4.558015E-01 +1.537501E+00 +1.064860E+00     +4.558015E-01 +1.537501E+00 +1.064860E+00     +9.478342E-01 +1.460731E+00 +2.908085E-01     +9.478342E-01 +1.460731E+00 +2.908085E-01     +9.478342E-01 +1.460731E+00 +2.908085E-01     +9.478342E-01 +1.460731E+00 +2.908085E-01     +6.149331E+00 +1.068421E+00 +1.449381E+00     +6.149331E+00 +1.068421E+00 +1.449381E+00     +6.149331E+00 +1.068421E+00 +1.449381E+00     +6.149331E+00 +1.068421E+00 +1.449381E+00     +6.098370E+00 +7.690217E-01 +9.597182E-01     +6.098370E+00 +7.690217E-01 +9.597182E-01    
 +6.098370E+00 +7.690217E-01 +9.597182E-01     +1.085890E+00 +1.555420E+00 +7.832235E-01     +6.098370E+00 +7.690217E-01 +9.597182E-01     +6.098370E+00 +7.690217E-01 +9.597182E-01     +3.680027E-01 +1.781810E+00 +2.174680E-02     +3.680027E-01 +1.781810E+00 +2.174680E-02     +3.680027E-01 +1.781810E+00 +2.174680E-02     +3.680027E-01 +1.781810E+00 +2.174680E-02     +3.680027E-01 +1.781810E+00 +2.174680E-02     +3.680027E-01 +1.781810E+00 +2.174680E-02     +3.680027E-01 +1.781810E+00 +2.174680E-02     +9.478342E-01 +1.460731E+00 +2.908085E-01     +9.478342E-01 +1.460731E+00 +2.908085E-01     +9.478342E-01 +1.460731E+00 +2.908085E-01     +9.478342E-01 +1.460731E+00 +2.908085E-01     +9.478342E-01 +1.460731E+00 +2.908085E-01     +9.478342E-01 +1.460731E+00 +2.908085E-01     +3.433651E+00 +1.387669E+00 +4.191160E+00     +5.490879E+00 +1.331950E+00 +1.387240E+00     +5.490879E+00 +1.331950E+00 +1.387240E+00     +6.098370E+00 +7.690217E-01 +9.597182E-01    
 +6.098370E+00 +7.690217E-01 +9.597182E-01     +6.098370E+00 +7.690217E-01 +9.597182E-01     +6.098370E+00 +7.690217E-01 +9.597182E-01     +6.098370E+00 +7.690217E-01 +9.597182E-01     +3.680027E-01 +1.781810E+00 +2.174680E-02     +3.680027E-01 +1.781810E+00 +2.174680E-02     +3.680027E-01 +1.781810E+00 +2.174680E-02     +3.680027E-01 +1.781810E+00 +2.174680E-02     +3.680027E-01 +1.781810E+00 +2.174680E-02     +3.680027E-01 +1.781810E+00 +2.174680E-02     +3.680027E-01 +1.781810E+00 +2.174680E-02     +9.478342E-01 +1.460731E+00 +2.908085E-01     +9.478342E-01 +1.460731E+00 +2.908085E-01     +9.478342E-01 +1.460731E+00 +2.908085E-01     +9.478342E-01 +1.460731E+00 +2.908085E-01     +9.478342E-01 +1.460731E+00 +2.908085E-01     +3.433651E+00 +1.387669E+00 +4.191160E+00     +3.433651E+00 +1.387669E+00 +4.191160E+00     +5.490879E+00 +1.331950E+00 +1.387240E+00     +5.490879E+00 +1.331950E+00 +1.387240E+00     +5.490879E+00 +1.331950E+00 +1.387240E+00    
 +2.765171E+00 +1.135571E+00 +5.039141E+00     +6.098370E+00 +7.690217E-01 +9.597182E-01     +6.098370E+00 +7.690217E-01 +9.597182E-01     +8.284624E-01 +9.850813E-01 +5.831145E-02     +3.680027E-01 +1.781810E+00 +2.174680E-02     +3.680027E-01 +1.781810E+00 +2.174680E-02     +3.680027E-01 +1.781810E+00 +2.174680E-02     +3.680027E-01 +1.781810E+00 +2.174680E-02     +3.680027E-01 +1.781810E+00 +2.174680E-02     +3.680027E-01 +1.781810E+00 +2.174680E-02     +1.275359E+00 +2.170849E+00 +8.672960E-01     +1.275359E+00 +2.170849E+00 +8.672960E-01     +9.478342E-01 +1.460731E+00 +2.908085E-01     +9.478342E-01 +1.460731E+00 +2.908085E-01     +9.478342E-01 +1.460731E+00 +2.908085E-01     +3.433651E+00 +1.387669E+00 +4.191160E+00     +3.433651E+00 +1.387669E+00 +4.191160E+00     +3.433651E+00 +1.387669E+00 +4.191160E+00     +5.490879E+00 +1.331950E+00 +1.387240E+00     +5.490879E+00 +1.331950E+00 +1.387240E+00     +5.490879E+00 +1.331950E+00 +1.387240E+00    
 +2.765171E+00 +1.135571E+00 +5.039141E+00     +2.765171E+00 +1.135571E+00 +5.039141E+00     +8.284624E-01 +9.850813E-01 +5.831145E-02     +8.284624E-01 +9.850813E-01 +5.831145E-02     +8.284624E-01 +9.850813E-01 +5.831145E-02     +3.680027E-01 +1.781810E+00 +2.174680E-02     +3.680027E-01 +1.781810E+00 +2.174680E-02     +3.680027E-01 +1.781810E+00 +2.174680E-02     +3.680027E-01 +1.781810E+00 +2.174680E-02     +1.275359E+00 +2.170849E+00 +8.672960E-01     +1.275359E+00 +2.170849E+00 +8.672960E-01     +1.275359E+00 +2.170849E+00 +8.672960E-01     +1.275359E+00 +2.170849E+00 +8.672960E-01     +1.275359E+00 +2.170849E+00 +8.672960E-01     +1.275359E+00 +2.170849E+00 +8.672960E-01     +3.433651E+00 +1.387669E+00 +4.191160E+00     +3.433651E+00 +1.387669E+00 +4.191160E+00     +2.765171E+00 +1.135571E+00 +5.039141E+00     +2.765171E+00 +1.135571E+00 +5.039141E+00     +2.765171E+00 +1.135571E+00 +5.039141E+00     +2.765171E+00 +1.135571E+00 +5.039141E+00    
 +2.765171E+00 +1.135571E+00 +5.039141E+00     +4.812670E+00 +2.299791E+00 +4.509041E+00     +8.284624E-01 +9.850813E-01 +5.831145E-02     +8.284624E-01 +9.850813E-01 +5.831145E-02     +8.284624E-01 +9.850813E-01 +5.831145E-02     +8.284624E-01 +9.850813E-01 +5.831145E-02     +3.530731E-01 +1.680461E+00 +2.640961E+00     +8.182453E-02 +9.136572E-01 +3.673201E+00     +1.275359E+00 +2.170849E+00 +8.672960E-01     +1.275359E+00 +2.170849E+00 +8.672960E-01     +1.275359E+00 +2.170849E+00 +8.672960E-01     +1.275359E+00 +2.170849E+00 +8.672960E-01     +1.275359E+00 +2.170849E+00 +8.672960E-01     +1.275359E+00 +2.170849E+00 +8.672960E-01     +1.275359E+00 +2.170849E+00 +8.672960E-01     +3.230280E+00 +1.770179E+00 +4.852461E+00     +3.230280E+00 +1.770179E+00 +4.852461E+00     +3.230280E+00 +1.770179E+00 +4.852461E+00     +2.765171E+00 +1.135571E+00 +5.039141E+00     +2.765171E+00 +1.135571E+00 +5.039141E+00     +2.765171E+00 +1.135571E+00 +5.039141E+00    
 +4.812670E+00 +2.299791E+00 +4.509041E+00     +4.812670E+00 +2.299791E+00 +4.509041E+00     +4.812670E+00 +2.299791E+00 +4.509041E+00     +8.284624E-01 +9.850813E-01 +5.831145E-02     +8.284624E-01 +9.850813E-01 +5.831145E-02     +3.530731E-01 +1.680461E+00 +2.640961E+00     +3.530731E-01 +1.680461E+00 +2.640961E+00     +1.275359E+00 +2.170849E+00 +8.672960E-01     +1.275359E+00 +2.170849E+00 +8.672960E-01     +1.275359E+00 +2.170849E+00 +8.672960E-01     +1.275359E+00 +2.170849E+00 +8.672960E-01     +1.275359E+00 +2.170849E+00 +8.672960E-01     +1.275359E+00 +2.170849E+00 +8.672960E-01     +1.275359E+00 +2.170849E+00 +8.672960E-01     +1.275359E+00 +2.170849E+00 +8.672960E-01     +3.230280E+00 +1.770179E+00 +4.852461E+00     +3.230280E+00 +1.770179E+00 +4.852461E+00     +3.230280E+00 +1.770179E+00 +4.852461E+00     +3.230280E+00 +1.770179E+00 +4.852461E+00     +2.765171E+00 +1.135571E+00 +5.039141E+00     +2.765171E+00 +1.135571E+00 +5.039141E+00    
 +4.812670E+00 +2.299791E+00 +4.509041E+00     +6.725365E-01 +1.552629E+00 +5.500213E-01     +4.812670E+00 +2.299791E+00 +4.509041E+00     +4.812670E+00 +2.299791E+00 +4.509041E+00     +4.812670E+00 +2.299791E+00 +4.509041E+00     +8.433344E-01 +1.392911E+00 +3.825851E+00     +8.433344E-01 +1.392911E+00 +3.825851E+00     +1.275359E+00 +2.170849E+00 +8.672960E-01     +1.275359E+00 +2.170849E+00 +8.672960E-01     +1.275359E+00 +2.170849E+00 +8.672960E-01     +1.275359E+00 +2.170849E+00 +8.672960E-01     +1.275359E+00 +2.170849E+00 +8.672960E-01     +1.275359E+00 +2.170849E+00 +8.672960E-01     +1.275359E+00 +2.170849E+00 +8.672960E-01     +1.275359E+00 +2.170849E+00 +8.672960E-01     +3.230280E+00 +1.770179E+00 +4.852461E+00     +3.230280E+00 +1.770179E+00 +4.852461E+00     +3.230280E+00 +1.770179E+00 +4.852461E+00     +3.230280E+00 +1.770179E+00 +4.852461E+00     +3.230280E+00 +1.770179E+00 +4.852461E+00     +4.812670E+00 +2.299791E+00 +4.509041E+00    
 +4.812670E+00 +2.299791E+00 +4.509041E+00     +4.812670E+00 +2.299791E+00 +4.509041E+00     +4.812670E+00 +2.299791E+00 +4.509041E+00     +4.812670E+00 +2.299791E+00 +4.509041E+00     +4.812670E+00 +2.299791E+00 +4.509041E+00     +8.433344E-01 +1.392911E+00 +3.825851E+00     +8.433344E-01 +1.392911E+00 +3.825851E+00     +1.666920E+00 +2.348550E+00 +2.015970E+00     +1.666920E+00 +2.348550E+00 +2.015970E+00     +1.275359E+00 +2.170849E+00 +8.672960E-01     +1.275359E+00 +2.170849E+00 +8.672960E-01     +1.275359E+00 +2.170849E+00 +8.672960E-01     +1.275359E+00 +2.170849E+00 +8.672960E-01     +1.275359E+00 +2.170849E+00 +8.672960E-01     +1.275359E+00 +2.170849E+00 +8.672960E-01     +3.230280E+00 +1.770179E+00 +4.852461E+00     +3.230280E+00 +1.770179E+00 +4.852461E+00     +3.230280E+00 +1.770179E+00 +4.852461E+00     +3.230280E+00 +1.770179E+00 +4.852461E+00     +3.230280E+00 +1.770179E+00 +4.852461E+00     +4.812670E+00 +2.299791E+00 +4.509041E+00    
 +4.812670E+00 +2.299791E+00 +4.509041E+00     +4.812670E+00 +2.299791E+00 +4.509041E+00     +4.812670E+00 +2.299791E+00 +4.509041E+00     +4.812670E+00 +2.299791E+00 +4.509041E+00     +4.812670E+00 +2.299791E+00 +4.509041E+00     +1.666920E+00 +2.348550E+00 +2.015970E+00     +1.666920E+00 +2.348550E+00 +2.015970E+00     +1.666920E+00 +2.348550E+00 +2.015970E+00     +1.666920E+00 +2.348550E+00 +2.015970E+00     +1.666920E+00 +2.348550E+00 +2.015970E+00     +1.275359E+00 +2.170849E+00 +8.672960E-01     +1.275359E+00 +2.170849E+00 +8.672960E-01     +1.275359E+00 +2.170849E+00 +8.672960E-01     +1.275359E+00 +2.170849E+00 +8.672960E-01     +5.959910E+00 +1.790221E+00 +5.827860E+00     +5.959910E+00 +1.790221E+00 +5.827860E+00     +3.230280E+00 +1.770179E+00 +4.852461E+00     +3.230280E+00 +1.770179E+00 +4.852461E+00     +3.230280E+00 +1.770179E+00 +4.852461E+00     +3.230280E+00 +1.770179E+00 +4.852461E+00     +2.421060E+00 +1.825970E+00 +4.804870E+00    
 +4.305530E+00 +9.631216E-01 +1.169598E-01     +4.305530E+00 +9.631216E-01 +1.169598E-01     +4.305530E+00 +9.631216E-01 +1.169598E-01     +4.305530E+00 +9.631216E-01 +1.169598E-01     +4.549539E+00 +1.545980E+00 +3.262760E+00     +4.549539E+00 +1.545980E+00 +3.262760E+00     +4.549539E+00 +1.545980E+00 +3.262760E+00     +1.666920E+00 +2.348550E+00 +2.015970E+00     +1.666920E+00 +2.348550E+00 +2.015970E+00     +1.666920E+00 +2.348550E+00 +2.015970E+00     +1.666920E+00 +2.348550E+00 +2.015970E+00     +1.666920E+00 +2.348550E+00 +2.015970E+00     +1.275359E+00 +2.170849E+00 +8.672960E-01     +1.275359E+00 +2.170849E+00 +8.672960E-01     +5.959910E+00 +1.790221E+00 +5.827860E+00     +5.959910E+00 +1.790221E+00 +5.827860E+00     +5.959910E+00 +1.790221E+00 +5.827860E+00     +3.230280E+00 +1.770179E+00 +4.852461E+00     +2.070980E+00 +9.549901E-01 +5.551800E+00     +2.421060E+00 +1.825970E+00 +4.804870E+00     +2.421060E+00 +1.825970E+00 +4.804870E+00    
 +4.305530E+00 +9.631216E-01 +1.169598E-01     +4.305530E+00 +9.631216E-01 +1.169598E-01     +4.305530E+00 +9.631216E-01 +1.169598E-01     +4.549539E+00 +1.545980E+00 +3.262760E+00     +4.549539E+00 +1.545980E+00 +3.262760E+00     +4.549539E+00 +1.545980E+00 +3.262760E+00     +4.549539E+00 +1.545980E+00 +3.262760E+00     +5.848241E+00 +2.706412E-01 +1.179061E+00     +1.666920E+00 +2.348550E+00 +2.015970E+00     +1.666920E+00 +2.348550E+00 +2.015970E+00     +1.666920E+00 +2.348550E+00 +2.015970E+00     +1.666920E+00 +2.348550E+00 +2.015970E+00     +1.275359E+00 +2.170849E+00 +8.672960E-01     +2.143180E+00 +2.393351E+00 +5.831759E+00     +2.143180E+00 +2.393351E+00 +5.831759E+00     +5.959910E+00 +1.790221E+00 +5.827860E+00     +5.959910E+00 +1.790221E+00 +5.827860E+00     +2.070980E+00 +9.549901E-01 +5.551800E+00     +2.070980E+00 +9.549901E-01 +5.551800E+00     +2.421060E+00 +1.825970E+00 +4.804870E+00     +2.421060E+00 +1.825970E+00 +4.804870E+00    
 +5.381670E-01 +6.205536E-01 +1.011910E+00     +5.381670E-01 +6.205536E-01 +1.011910E+00     +5.381670E-01 +6.205536E-01 +1.011910E+00     +5.381670E-01 +6.205536E-01 +1.011910E+00     +4.549539E+00 +1.545980E+00 +3.262760E+00     +4.549539E+00 +1.545980E+00 +3.262760E+00     +4.549539E+00 +1.545980E+00 +3.262760E+00     +5.848241E+00 +2.706412E-01 +1.179061E+00     +5.848241E+00 +2.706412E-01 +1.179061E+00     +5.032650E+00 +1.049700E+00 +2.761570E+00     +3.483319E+00 +1.686590E+00 +5.091201E+00     +3.483319E+00 +1.686590E+00 +5.091201E+00     +3.483319E+00 +1.686590E+00 +5.091201E+00     +2.143180E+00 +2.393351E+00 +5.831759E+00     +2.143180E+00 +2.393351E+00 +5.831759E+00     +4.742130E+00 +1.957270E+00 +8.167478E-01     +4.742130E+00 +1.957270E+00 +8.167478E-01     +2.070980E+00 +9.549901E-01 +5.551800E+00     +2.070980E+00 +9.549901E-01 +5.551800E+00     +2.421060E+00 +1.825970E+00 +4.804870E+00     +2.421060E+00 +1.825970E+00 +4.804870E+00    
 +5.381670E-01 +6.205536E-01 +1.011910E+00     +5.381670E-01 +6.205536E-01 +1.011910E+00     +5.381670E-01 +6.205536E-01 +1.011910E+00     +5.381670E-01 +6.205536E-01 +1.011910E+00     +4.549539E+00 +1.545980E+00 +3.262760E+00     +4.549539E+00 +1.545980E+00 +3.262760E+00     +4.549539E+00 +1.545980E+00 +3.262760E+00     +5.848241E+00 +2.706412E-01 +1.179061E+00     +5.848241E+00 +2.706412E-01 +1.179061E+00     +5.032650E+00 +1.049700E+00 +2.761570E+00     +3.483319E+00 +1.686590E+00 +5.091201E+00     +3.483319E+00 +1.686590E+00 +5.091201E+00     +3.483319E+00 +1.686590E+00 +5.091201E+00     +3.483319E+00 +1.686590E+00 +5.091201E+00     +5.915940E+00 +1.370550E+00 +4.709919E+00     +4.742130E+00 +1.957270E+00 +8.167478E-01     +2.070980E+00 +9.549901E-01 +5.551800E+00     +2.070980E+00 +9.549901E-01 +5.551800E+00     +2.070980E+00 +9.549901E-01 +5.551800E+00     +2.421060E+00 +1.825970E+00 +4.804870E+00     +2.421060E+00 +1.825970E+00 +4.804870E+00    
 +5.381670E-01 +6.205536E-01 +1.011910E+00     +5.381670E-01 +6.205536E-01 +1.011910E+00     +5.381670E-01 +6.205536E-01 +1.011910E+00     +5.381670E-01 +6.205536E-01 +1.011910E+00     +2.906589E+00 +1.952840E+00 +5.279670E+00     +2.906589E+00 +1.952840E+00 +5.279670E+00     +7.410406E-01 +1.347391E+00 +6.309173E-01     +7.410406E-01 +1.347391E+00 +6.309173E-01     +7.410406E-01 +1.347391E+00 +6.309173E-01     +3.483319E+00 +1.686590E+00 +5.091201E+00     +3.483319E+00 +1.686590E+00 +5.091201E+00     +3.483319E+00 +1.686590E+00 +5.091201E+00     +3.483319E+00 +1.686590E+00 +5.091201E+00     +3.483319E+00 +1.686590E+00 +5.091201E+00     +5.915940E+00 +1.370550E+00 +4.709919E+00     +5.915940E+00 +1.370550E+00 +4.709919E+00     +2.070980E+00 +9.549901E-01 +5.551800E+00     +2.070980E+00 +9.549901E-01 +5.551800E+00     +2.070980E+00 +9.549901E-01 +5.551800E+00     +2.518821E+00 +1.471250E+00 +4.781989E+00     +2.099771E+00 +3.043278E-01 +5.190450E+00    
 +2.099771E+00 +3.043278E-01 +5.190450E+00     +5.381670E-01 +6.205536E-01 +1.011910E+00     +5.381670E-01 +6.205536E-01 +1.011910E+00     +2.906589E+00 +1.952840E+00 +5.279670E+00     +2.906589E+00 +1.952840E+00 +5.279670E+00     +2.906589E+00 +1.952840E+00 +5.279670E+00     +7.410406E-01 +1.347391E+00 +6.309173E-01     +7.410406E-01 +1.347391E+00 +6.309173E-01     +7.410406E-01 +1.347391E+00 +6.309173E-01     +3.483319E+00 +1.686590E+00 +5.091201E+00     +3.483319E+00 +1.686590E+00 +5.091201E+00     +3.483319E+00 +1.686590E+00 +5.091201E+00     +3.483319E+00 +1.686590E+00 +5.091201E+00     +3.483319E+00 +1.686590E+00 +5.091201E+00     +5.915940E+00 +1.370550E+00 +4.709919E+00     +5.915940E+00 +1.370550E+00 +4.709919E+00     +2.070980E+00 +9.549901E-01 +5.551800E+00     +2.070980E+00 +9.549901E-01 +5.551800E+00     +2.099771E+00 +3.043278E-01 +5.190450E+00     +2.099771E+00 +3.043278E-01 +5.190450E+00     +2.099771E+00 +3.043278E-01 +5.190450E+00    
 +2.099771E+00 +3.043278E-01 +5.190450E+00     +2.099771E+00 +3.043278E-01 +5.190450E+00     +2.099771E+00 +3.043278E-01 +5.190450E+00     +2.906589E+00 +1.952840E+00 +5.279670E+00     +2.906589E+00 +1.952840E+00 +5.279670E+00     +2.906589E+00 +1.952840E+00 +5.279670E+00     +7.410406E-01 +1.347391E+00 +6.309173E-01     +7.410406E-01 +1.347391E+00 +6.309173E-01     +7.410406E-01 +1.347391E+00 +6.309173E-01     +3.233345E-01 +1.087000E+00 +4.007190E+00     +3.483319E+00 +1.686590E+00 +5.091201E+00     +3.483319E+00 +1.686590E+00 +5.091201E+00     +3.483319E+00 +1.686590E+00 +5.091201E+00     +6.149331E+00 +1.068421E+00 +1.449381E+00     +6.149331E+00 +1.068421E+00 +1.449381E+00     +6.149331E+00 +1.068421E+00 +1.449381E+00     +6.149331E+00 +1.068421E+00 +1.449381E+00     +2.099771E+00 +3.043278E-01 +5.190450E+00     +2.099771E+00 +3.043278E-01 +5.190450E+00     +2.099771E+00 +3.043278E-01 +5.190450E+00     +2.099771E+00 +3.043278E-01 +5.190450E+00    
 +2.099771E+00 +3.043278E-01 +5.190450E+00     +2.099771E+00 +3.043278E-01 +5.190450E+00     +2.099771E+00 +3.043278E-01 +5.190450E+00     +2.906589E+00 +1.952840E+00 +5.279670E+00     +2.906589E+00 +1.952840E+00 +5.279670E+00     +2.906589E+00 +1.952840E+00 +5.279670E+00     +7.410406E-01 +1.347391E+00 +6.309173E-01     +7.410406E-01 +1.347391E+00 +6.309173E-01     +5.254021E+00 +2.600570E+00 +4.963440E+00     +5.254021E+00 +2.600570E+00 +4.963440E+00     +5.254021E+00 +2.600570E+00 +4.963440E+00     +5.254021E+00 +2.600570E+00 +4.963440E+00     +3.483319E+00 +1.686590E+00 +5.091201E+00     +6.149331E+00 +1.068421E+00 +1.449381E+00     +6.149331E+00 +1.068421E+00 +1.449381E+00     +6.149331E+00 +1.068421E+00 +1.449381E+00     +6.149331E+00 +1.068421E+00 +1.449381E+00     +2.099771E+00 +3.043278E-01 +5.190450E+00     +2.099771E+00 +3.043278E-01 +5.190450E+00     +2.099771E+00 +3.043278E-01 +5.190450E+00     +2.099771E+00 +3.043278E-01 +5.190450E+00    
 +2.099771E+00 +3.043278E-01 +5.190450E+00     +2.099771E+00 +3.043278E-01 +5.190450E+00     +8.389483E-01 +7.921194E-01 +1.657923E-01     +8.389483E-01 +7.921194E-01 +1.657923E-01     +4.350031E+00 +2.797740E+00 +6.246621E+00     +4.350031E+00 +2.797740E+00 +6.246621E+00     +4.350031E+00 +2.797740E+00 +6.246621E+00     +4.558015E-01 +1.537501E+00 +1.064860E+00     +5.254021E+00 +2.600570E+00 +4.963440E+00     +5.254021E+00 +2.600570E+00 +4.963440E+00     +5.254021E+00 +2.600570E+00 +4.963440E+00     +2.488949E+00 +9.638284E-01 +4.558980E+00     +2.488949E+00 +9.638284E-01 +4.558980E+00     +6.149331E+00 +1.068421E+00 +1.449381E+00     +6.149331E+00 +1.068421E+00 +1.449381E+00     +6.149331E+00 +1.068421E+00 +1.449381E+00     +6.149331E+00 +1.068421E+00 +1.449381E+00     +6.149331E+00 +1.068421E+00 +1.449381E+00     +2.099771E+00 +3.043278E-01 +5.190450E+00     +2.099771E+00 +3.043278E-01 +5.190450E+00     +2.099771E+00 +3.043278E-01 +5.190450E+00    
 +6.098370E+00 +7.690217E-01 +9.597182E-01     +6.098370E+00 +7.690217E-01 +9.597182E-01     +6.098370E+00 +7.690217E-01 +9.597182E-01     +8.389483E-01 +7.921194E-01 +1.657923E-01     +4.350031E+00 +2.797740E+00 +6.246621E+00     +4.350031E+00 +2.797740E+00 +6.246621E+00     +4.558015E-01 +1.537501E+00 +1.064860E+00     +4.558015E-01 +1.537501E+00 +1.064860E+00     +5.254021E+00 +2.600570E+00 +4.963440E+00     +5.254021E+00 +2.600570E+00 +4.963440E+00     +5.254021E+00 +2.600570E+00 +4.963440E+00     +2.488949E+00 +9.638284E-01 +4.558980E+00     +2.488949E+00 +9.638284E-01 +4.558980E+00     +6.149331E+00 +1.068421E+00 +1.449381E+00     +6.149331E+00 +1.068421E+00 +1.449381E+00     +6.149331E+00 +1.068421E+00 +1.449381E+00     +6.149331E+00 +1.068421E+00 +1.449381E+00     +6.149331E+00 +1.068421E+00 +1.449381E+00     +2.099771E+00 +3.043278E-01 +5.190450E+00     +2.099771E+00 +3.043278E-01 +5.190450E+00     +2.099771E+00 +3.043278E-01 +5.190450E+00    
 +6.098370E+00 +7.690217E-01 +9.597182E-01     +6.098370E+00 +7.690217E-01 +9.597182E-01     +6.098370E+00 +7.690217E-01 +9.597182E-01     +6.098370E+00 +7.690217E-01 +9.597182E-01     +4.350031E+00 +2.797740E+00 +6.246621E+00     +4.558015E-01 +1.537501E+00 +1.064860E+00     +4.558015E-01 +1.537501E+00 +1.064860E+00     +4.558015E-01 +1.537501E+00 +1.064860E+00     +4.558015E-01 +1.537501E+00 +1.064860E+00     +5.254021E+00 +2.600570E+00 +4.963440E+00     +5.254021E+00 +2.600570E+00 +4.963440E+00     +2.488949E+00 +9.638284E-01 +4.558980E+00     +2.488949E+00 +9.638284E-01 +4.558980E+00     +6.149331E+00 +1.068421E+00 +1.449381E+00     +6.149331E+00 +1.068421E+00 +1.449381E+00     +6.149331E+00 +1.068421E+00 +1.449381E+00     +6.149331E+00 +1.068421E+00 +1.449381E+00     +6.149331E+00 +1.068421E+00 +1.449381E+00     +6.149331E+00 +1.068421E+00 +1.449381E+00     +6.098370E+00 +7.690217E-01 +9.597182E-01     +6.098370E+00 +7.690217E-01 +9.597182E-01    
 +6.098370E+00 +7.690217E-01 +9.597182E-01     +6.098370E+00 +7.690217E-01 +9.597182E-01     +6.098370E+00 +7.690217E-01 +9.597182E-01     +6.098370E+00 +7.690217E-01 +9.597182E-01     +6.098370E+00 +7.690217E-01 +9.597182E-01     +4.558015E-01 +1.537501E+00 +1.064860E+00     +4.558015E-01 +1.537501E+00 +1.064860E+00     +2.630241E+00 +1.160670E+00 +4.955601E+00     +2.630241E+00 +1.160670E+00 +4.955601E+00     +2.630241E+00 +1.160670E+00 +4.955601E+00     +5.254021E+00 +2.600570E+00 +4.963440E+00     +9.478342E-01 +1.460731E+00 +2.908085E-01     +9.478342E-01 +1.460731E+00 +2.908085E-01     +9.478342E-01 +1.460731E+00 +2.908085E-01     +9.478342E-01 +1.460731E+00 +2.908085E-01     +6.149331E+00 +1.068421E+00 +1.449381E+00     +6.149331E+00 +1.068421E+00 +1.449381E+00     +6.149331E+00 +1.068421E+00 +1.449381E+00     +6.098370E+00 +7.690217E-01 +9.597182E-01     +6.098370E+00 +7.690217E-01 +9.597182E-01     +6.098370E+00 +7.690217E-01 +9.597182E-01    
 +6.098370E+00 +7.690217E-01 +9.597182E-01     +6.098370E+00 +7.690217E-01 +9.597182E-01     +6.098370E+00 +7.690217E-01 +9.597182E-01     +6.098370E+00 +7.690217E-01 +9.597182E-01     +6.098370E+00 +7.690217E-01 +9.597182E-01     +2.630241E+00 +1.160670E+00 +4.955601E+00     +2.630241E+00 +1.160670E+00 +4.955601E+00     +2.630241E+00 +1.160670E+00 +4.955601E+00     +2.630241E+00 +1.160670E+00 +4.955601E+00     +2.630241E+00 +1.160670E+00 +4.955601E+00     +2.630241E+00 +1.160670E+00 +4.955601E+00     +9.478342E-01 +1.460731E+00 +2.908085E-01     +9.478342E-01 +1.460731E+00 +2.908085E-01     +9.478342E-01 +1.460731E+00 +2.908085E-01     +9.478342E-01 +1.460731E+00 +2.908085E-01     +9.478342E-01 +1.460731E+00 +2.908085E-01     +9.478342E-01 +1.460731E+00 +2.908085E-01     +3.433651E+00 +1.387669E+00 +4.191160E+00     +5.490879E+00 +1.331950E+00 +1.387240E+00     +6.098370E+00 +7.690217E-01 +9.597182E-01     +6.098370E+00 +7.690217E-01 +9.597182E-01    
 +1.306745E-01 +1.489879E+00 +4.005723E-01     +1.306745E-01 +1.489879E+00 +4.005723E-01     +6.098370E+00 +7.690217E-01 +9.597182E-01     +6.098370E+00 +7.690217E-01 +9.597182E-01     +2.630241E+00 +1.160670E+00 +4.955601E+00     +2.630241E+00 +1.160670E+00 +4.955601E+00     +2.630241E+00 +1.160670E+00 +4.955601E+00     +2.630241E+00 +1.160670E+00 +4.955601E+00     +2.630241E+00 +1.160670E+00 +4.955601E+00     +2.630241E+00 +1.160670E+00 +4.955601E+00     +2.630241E+00 +1.160670E+00 +4.955601E+00     +9.478342E-01 +1.460731E+00 +2.908085E-01     +9.478342E-01 +1.460731E+00 +2.908085E-01     +9.478342E-01 +1.460731E+00 +2.908085E-01     +9.478342E-01 +1.460731E+00 +2.908085E-01     +9.478342E-01 +1.460731E+00 +2.908085E-01     +3.433651E+00 +1.387669E+00 +4.191160E+00     +3.433651E+00 +1.387669E+00 +4.191160E+00     +5.490879E+00 +1.331950E+00 +1.387240E+00     +5.490879E+00 +1.331950E+00 +1.387240E+00     +5.490879E+00 +1.331950E+00 +1.387240E+00    
 +1.306745E-01 +1.489879E+00 +4.005723E-01     +1.306745E-01 +1.489879E+00 +4.005723E-01     +1.306745E-01 +1.489879E+00 +4.005723E-01     +8.284624E-01 +9.850813E-01 +5.831145E-02     +8.284624E-01 +9.850813E-01 +5.831145E-02     +2.630241E+00 +1.160670E+00 +4.955601E+00     +2.630241E+00 +1.160670E+00 +4.955601E+00     +2.630241E+00 +1.160670E+00 +4.955601E+00     +2.630241E+00 +1.160670E+00 +4.955601E+00     +2.630241E+00 +1.160670E+00 +4.955601E+00     +1.275359E+00 +2.170849E+00 +8.672960E-01     +1.275359E+00 +2.170849E+00 +8.672960E-01     +1.275359E+00 +2.170849E+00 +8.672960E-01     +9.478342E-01 +1.460731E+00 +2.908085E-01     +5.858500E+00 +2.491110E+00 +6.200010E+00     +3.433651E+00 +1.387669E+00 +4.191160E+00     +3.433651E+00 +1.387669E+00 +4.191160E+00     +3.433651E+00 +1.387669E+00 +4.191160E+00     +5.490879E+00 +1.331950E+00 +1.387240E+00     +5.490879E+00 +1.331950E+00 +1.387240E+00     +5.490879E+00 +1.331950E+00 +1.387240E+00    
 +1.306745E-01 +1.489879E+00 +4.005723E-01     +1.306745E-01 +1.489879E+00 +4.005723E-01     +8.284624E-01 +9.850813E-01 +5.831145E-02     +8.284624E-01 +9.850813E-01 +5.831145E-02     +8.284624E-01 +9.850813E-01 +5.831145E-02     +3.530731E-01 +1.680461E+00 +2.640961E+00     +3.530731E-01 +1.680461E+00 +2.640961E+00     +8.182453E-02 +9.136572E-01 +3.673201E+00     +2.630241E+00 +1.160670E+00 +4.955601E+00     +1.275359E+00 +2.170849E+00 +8.672960E-01     +1.275359E+00 +2.170849E+00 +8.672960E-01     +1.275359E+00 +2.170849E+00 +8.672960E-01     +1.275359E+00 +2.170849E+00 +8.672960E-01     +1.275359E+00 +2.170849E+00 +8.672960E-01     +1.275359E+00 +2.170849E+00 +8.672960E-01     +1.275359E+00 +2.170849E+00 +8.672960E-01     +3.433651E+00 +1.387669E+00 +4.191160E+00     +2.765171E+00 +1.135571E+00 +5.039141E+00     +2.765171E+00 +1.135571E+00 +5.039141E+00     +2.765171E+00 +1.135571E+00 +5.039141E+00     +2.765171E+00 +1.135571E+00 +5.039141E+00    
 +2.765171E+00 +1.135571E+00 +5.039141E+00     +8.284624E-01 +9.850813E-01 +5.831145E-02     +8.284624E-01 +9.850813E-01 +5.831145E-02     +8.284624E-01 +9.850813E-01 +5.831145E-02     +8.284624E-01 +9.850813E-01 +5.831145E-02     +3.530731E-01 +1.680461E+00 +2.640961E+00     +3.530731E-01 +1.680461E+00 +2.640961E+00     +8.182453E-02 +9.136572E-01 +3.673201E+00     +8.182453E-02 +9.136572E-01 +3.673201E+00     +1.275359E+00 +2.170849E+00 +8.672960E-01     +1.275359E+00 +2.170849E+00 +8.672960E-01     +1.275359E+00 +2.170849E+00 +8.672960E-01     +1.275359E+00 +2.170849E+00 +8.672960E-01     +1.275359E+00 +2.170849E+00 +8.672960E-01     +1.275359E+00 +2.170849E+00 +8.672960E-01     +1.275359E+00 +2.170849E+00 +8.672960E-01     +3.230280E+00 +1.770179E+00 +4.852461E+00     +3.230280E+00 +1.770179E+00 +4.852461E+00     +2.765171E+00 +1.135571E+00 +5.039141E+00     +2.765171E+00 +1.135571E+00 +5.039141E+00     +2.765171E+00 +1.135571E+00 +5.039141E+00    
 +6.725365E-01 +1.552629E+00 +5.500213E-01     +6.725365E-01 +1.552629E+00 +5.500213E-01     +8.284624E-01 +9.850813E-01 +5.831145E-02     +8.284624E-01 +9.850813E-01 +5.831145E-02     +8.284624E-01 +9.850813E-01 +5.831145E-02     +3.530731E-01 +1.680461E+00 +2.640961E+00     +3.530731E-01 +1.680461E+00 +2.640961E+00     +8.182453E-02 +9.136572E-01 +3.673201E+00     +1.275359E+00 +2.170849E+00 +8.672960E-01     +1.275359E+00 +2.170849E+00 +8.672960E-01     +1.275359E+00 +2.170849E+00 +8.672960E-01     +1.275359E+00 +2.170849E+00 +8.672960E-01     +1.275359E+00 +2.170849E+00 +8.672960E-01     +1.275359E+00 +2.170849E+00 +8.672960E-01     +1.275359E+00 +2.170849E+00 +8.672960E-01     +3.230280E+00 +1.770179E+00 +4.852461E+00     +3.230280E+00 +1.770179E+00 +4.852461E+00     +3.230280E+00 +1.770179E+00 +4.852461E+00     +3.230280E+00 +1.770179E+00 +4.852461E+00     +2.765171E+00 +1.135571E+00 +5.039141E+00     +2.765171E+00 +1.135571E+00 +5.039141E+00    
 +6.725365E-01 +1.552629E+00 +5.500213E-01     +6.725365E-01 +1.552629E+00 +5.500213E-01     +4.812670E+00 +2.299791E+00 +4.509041E+00     +4.812670E+00 +2.299791E+00 +4.509041E+00     +8.433344E-01 +1.392911E+00 +3.825851E+00     +8.433344E-01 +1.392911E+00 +3.825851E+00     +8.433344E-01 +1.392911E+00 +3.825851E+00     +8.182453E-02 +9.136572E-01 +3.673201E+00     +1.275359E+00 +2.170849E+00 +8.672960E-01     +1.275359E+00 +2.170849E+00 +8.672960E-01     +1.275359E+00 +2.170849E+00 +8.672960E-01     +1.275359E+00 +2.170849E+00 +8.672960E-01     +1.275359E+00 +2.170849E+00 +8.672960E-01     +1.275359E+00 +2.170849E+00 +8.672960E-01     +1.275359E+00 +2.170849E+00 +8.672960E-01     +3.230280E+00 +1.770179E+00 +4.852461E+00     +3.230280E+00 +1.770179E+00 +4.852461E+00     +3.230280E+00 +1.770179E+00 +4.852461E+00     +3.230280E+00 +1.770179E+00 +4.852461E+00     +2.765171E+00 +1.135571E+00 +5.039141E+00     +2.765171E+00 +1.135571E+00 +5.039141E+00    
 +4.812670E+00 +2.299791E+00 +4.509041E+00     +4.812670E+00 +2.299791E+00 +4.509041E+00     +4.812670E+00 +2.299791E+00 +4.509041E+00     +4.812670E+00 +2.299791E+00 +4.509041E+00     +8.433344E-01 +1.392911E+00 +3.825851E+00     +8.433344E-01 +1.392911E+00 +3.825851E+00     +8.433344E-01 +1.392911E+00 +3.825851E+00     +8.433344E-01 +1.392911E+00 +3.825851E+00     +1.275359E+00 +2.170849E+00 +8.672960E-01     +1.275359E+00 +2.170849E+00 +8.672960E-01     +1.275359E+00 +2.170849E+00 +8.672960E-01     +1.275359E+00 +2.170849E+00 +8.672960E-01     +1.275359E+00 +2.170849E+00 +8.672960E-01     +1.275359E+00 +2.170849E+00 +8.672960E-01     +1.275359E+00 +2.170849E+00 +8.672960E-01     +3.230280E+00 +1.770179E+00 +4.852461E+00     +3.230280E+00 +1.770179E+00 +4.852461E+00     +3.230280E+00 +1.770179E+00 +4.852461E+00     +3.230280E+00 +1.770179E+00 +4.852461E+00     +3.230280E+00 +1.770179E+00 +4.852461E+00     +4.812670E+00 +2.299791E+00 +4.509041E+00    
 +4.812670E+00 +2.299791E+00 +4.509041E+00     +4.812670E+00 +2.299791E+00 +4.509041E+00     +4.812670E+00 +2.299791E+00 +4.509041E+00     +4.812670E+00 +2.299791E+00 +4.509041E+00     +4.812670E+00 +2.299791E+00 +4.509041E+00     +4.549539E+00 +1.545980E+00 +3.262760E+00     +4.549539E+00 +1.545980E+00 +3.262760E+00     +1.666920E+00 +2.348550E+00 +2.015970E+00     +1.666920E+00 +2.348550E+00 +2.015970E+00     +1.666920E+00 +2.348550E+00 +2.015970E+00     +1.275359E+00 +2.170849E+00 +8.672960E-01     +1.275359E+00 +2.170849E+00 +8.672960E-01     +1.275359E+00 +2.170849E+00 +8.672960E-01     +1.275359E+00 +2.170849E+00 +8.672960E-01     +5.959910E+00 +1.790221E+00 +5.827860E+00     +5.959910E+00 +1.790221E+00 +5.827860E+00     +5.959910E+00 +1.790221E+00 +5.827860E+00     +3.230280E+00 +1.770179E+00 +4.852461E+00     +3.230280E+00 +1.770179E+00 +4.852461E+00     +2.421060E+00 +1.825970E+00 +4.804870E+00     +2.421060E+00 +1.825970E+00 +4.804870E+00    
 +4.305530E+00 +9.631216E-01 +1.169598E-01     +4.305530E+00 +9.631216E-01 +1.169598E-01     +4.305530E+00 +9.631216E-01 +1.169598E-01     +4.305530E+00 +9.631216E-01 +1.169598E-01     +4.549539E+00 +1.545980E+00 +3.262760E+00     +4.549539E+00 +1.545980E+00 +3.262760E+00     +4.549539E+00 +1.545980E+00 +3.262760E+00     +5.813969E+00 +4.335014E-01 +4.874060E+00     +1.666920E+00 +2.348550E+00 +2.015970E+00     +1.666920E+00 +2.348550E+00 +2.015970E+00     +1.666920E+00 +2.348550E+00 +2.015970E+00     +1.275359E+00 +2.170849E+00 +8.672960E-01     +1.275359E+00 +2.170849E+00 +8.672960E-01     +1.275359E+00 +2.170849E+00 +8.672960E-01     +5.959910E+00 +1.790221E+00 +5.827860E+00     +5.959910E+00 +1.790221E+00 +5.827860E+00     +5.959910E+00 +1.790221E+00 +5.827860E+00     +5.959910E+00 +1.790221E+00 +5.827860E+00     +2.421060E+00 +1.825970E+00 +4.804870E+00     +2.421060E+00 +1.825970E+00 +4.804870E+00     +2.421060E+00 +1.825970E+00 +4.804870E+00    
 +5.381670E-01 +6.205536E-01 +1.011910E+00     +4.305530E+00 +9.631216E-01 +1.169598E-01     +5.381670E-01 +6.205536E-01 +1.011910E+00     +4.549539E+00 +1.545980E+00 +3.262760E+00     +4.549539E+00 +1.545980E+00 +3.262760E+00     +4.549539E+00 +1.545980E+00 +3.262760E+00     +4.549539E+00 +1.545980E+00 +3.262760E+00     +5.848241E+00 +2.706412E-01 +1.179061E+00     +5.848241E+00 +2.706412E-01 +1.179061E+00     +1.666920E+00 +2.348550E+00 +2.015970E+00     +1.666920E+00 +2.348550E+00 +2.015970E+00     +1.666920E+00 +2.348550E+00 +2.015970E+00     +1.275359E+00 +2.170849E+00 +8.672960E-01     +2.143180E+00 +2.393351E+00 +5.831759E+00     +2.143180E+00 +2.393351E+00 +5.831759E+00     +5.959910E+00 +1.790221E+00 +5.827860E+00     +5.959910E+00 +1.790221E+00 +5.827860E+00     +2.070980E+00 +9.549901E-01 +5.551800E+00     +2.421060E+00 +1.825970E+00 +4.804870E+00     +2.421060E+00 +1.825970E+00 +4.804870E+00     +2.421060E+00 +1.825970E+00 +4.804870E+00    
 +5.381670E-01 +6.205536E-01 +1.011910E+00     +5.381670E-01 +6.205536E-01 +1.011910E+00     +5.381670E-01 +6.205536E-01 +1.011910E+00     +5.381670E-01 +6.205536E-01 +1.011910E+00     +4.549539E+00 +1.545980E+00 +3.262760E+00     +4.549539E+00 +1.545980E+00 +3.262760E+00     +4.549539E+00 +1.545980E+00 +3.262760E+00     +5.848241E+00 +2.706412E-01 +1.179061E+00     +5.848241E+00 +2.706412E-01 +1.179061E+00     +5.848241E+00 +2.706412E-01 +1.179061E+00     +3.483319E+00 +1.686590E+00 +5.091201E+00     +3.483319E+00 +1.686590E+00 +5.091201E+00     +3.483319E+00 +1.686590E+00 +5.091201E+00     +2.143180E+00 +2.393351E+00 +5.831759E+00     +2.143180E+00 +2.393351E+00 +5.831759E+00     +4.742130E+00 +1.957270E+00 +8.167478E-01     +2.070980E+00 +9.549901E-01 +5.551800E+00     +2.070980E+00 +9.549901E-01 +5.551800E+00     +2.070980E+00 +9.549901E-01 +5.551800E+00     +2.421060E+00 +1.825970E+00 +4.804870E+00     +2.421060E+00 +1.825970E+00 +4.804870E+00    
 +5.381670E-01 +6.205536E-01 +1.011910E+00     +5.381670E-01 +6.205536E-01 +1.011910E+00     +5.381670E-01 +6.205536E-01 +1.011910E+00     +5.381670E-01 +6.205536E-01 +1.011910E+00     +4.549539E+00 +1.545980E+00 +3.262760E+00     +4.549539E+00 +1.545980E+00 +3.262760E+00     +4.549539E+00 +1.545980E+00 +3.262760E+00     +5.848241E+00 +2.706412E-01 +1.179061E+00     +5.848241E+00 +2.706412E-01 +1.179061E+00     +5.848241E+00 +2.706412E-01 +1.179061E+00     +3.483319E+00 +1.686590E+00 +5.091201E+00     +3.483319E+00 +1.686590E+00 +5.091201E+00     +3.483319E+00 +1.686590E+00 +5.091201E+00     +3.483319E+00 +1.686590E+00 +5.091201E+00     +4.957660E-01 +1.701850E+00 +2.498352E-01     +4.742130E+00 +1.957270E+00 +8.167478E-01     +2.070980E+00 +9.549901E-01 +5.551800E+00     +2.070980E+00 +9.549901E-01 +5.551800E+00     +2.070980E+00 +9.549901E-01 +5.551800E+00     +2.421060E+00 +1.825970E+00 +4.804870E+00     +2.421060E+00 +1.825970E+00 +4.804870E+00    
 +5.381670E-01 +6.205536E-01 +1.011910E+00     +4.882719E+00 +1.721999E+00 +4.721451E+00     +5.381670E-01 +6.205536E-01 +1.011910E+00     +2.906589E+00 +1.952840E+00 +5.279670E+00     +2.906589E+00 +1.952840E+00 +5.279670E+00     +2.906589E+00 +1.952840E+00 +5.279670E+00     +7.410406E-01 +1.347391E+00 +6.309173E-01     +7.410406E-01 +1.347391E+00 +6.309173E-01     +7.410406E-01 +1.347391E+00 +6.309173E-01     +3.483319E+00 +1.686590E+00 +5.091201E+00     +3.483319E+00 +1.686590E+00 +5.091201E+00     +3.483319E+00 +1.686590E+00 +5.091201E+00     +3.483319E+00 +1.686590E+00 +5.091201E+00     +3.483319E+00 +1.686590E+00 +5.091201E+00     +4.957660E-01 +1.701850E+00 +2.498352E-01     +2.070980E+00 +9.549901E-01 +5.551800E+00     +2.070980E+00 +9.549901E-01 +5.551800E+00     +2.070980E+00 +9.549901E-01 +5.551800E+00     +2.070980E+00 +9.549901E-01 +5.551800E+00     +2.070980E+00 +9.549901E-01 +5.551800E+00     +2.099771E+00 +3.043278E-01 +5.190450E+00    
 +5.381670E-01 +6.205536E-01 +1.011910E+00     +5.381670E-01 +6.205536E-01 +1.011910E+00     +5.381670E-01 +6.205536E-01 +1.011910E+00     +2.906589E+00 +1.952840E+00 +5.279670E+00     +2.906589E+00 +1.952840E+00 +5.279670E+00     +2.906589E+00 +1.952840E+00 +5.279670E+00     +7.410406E-01 +1.347391E+00 +6.309173E-01     +7.410406E-01 +1.347391E+00 +6.309173E-01     +7.410406E-01 +1.347391E+00 +6.309173E-01     +3.233345E-01 +1.087000E+00 +4.007190E+00     +3.483319E+00 +1.686590E+00 +5.091201E+00     +3.483319E+00 +1.686590E+00 +5.091201E+00     +3.483319E+00 +1.686590E+00 +5.091201E+00     +3.483319E+00 +1.686590E+00 +5.091201E+00     +6.149331E+00 +1.068421E+00 +1.449381E+00     +2.070980E+00 +9.549901E-01 +5.551800E+00     +2.070980E+00 +9.549901E-01 +5.551800E+00     +2.070980E+00 +9.549901E-01 +5.551800E+00     +2.070980E+00 +9.549901E-01 +5.551800E+00     +2.099771E+00 +3.043278E-01 +5.190450E+00     +2.099771E+00 +3.043278E-01 +5.190450E+00    
 +2.099771E+00 +3.043278E-01 +5.190450E+00     +2.099771E+00 +3.043278E-01 +5.190450E+00     +5.381670E-01 +6.205536E-01 +1.011910E+00     +2.906589E+00 +1.952840E+00 +5.279670E+00     +2.906589E+00 +1.952840E+00 +5.279670E+00     +2.906589E+00 +1.952840E+00 +5.279670E+00     +7.410406E-01 +1.347391E+00 +6.309173E-01     +7.410406E-01 +1.347391E+00 +6.309173E-01     +7.410406E-01 +1.347391E+00 +6.309173E-01     +3.233345E-01 +1.087000E+00 +4.007190E+00     +3.233345E-01 +1.087000E+00 +4.007190E+00     +3.483319E+00 +1.686590E+00 +5.091201E+00     +3.483319E+00 +1.686590E+00 +5.091201E+00     +6.149331E+00 +1.068421E+00 +1.449381E+00     +6.149331E+00 +1.068421E+00 +1.449381E+00     +6.149331E+00 +1.068421E+00 +1.449381E+00     +6.149331E+00 +1.068421E+00 +1.449381E+00     +2.070980E+00 +9.549901E-01 +5.551800E+00     +2.099771E+00 +3.043278E-01 +5.190450E+00     +2.099771E+00 +3.043278E-01 +5.190450E+00     +2.099771E+00 +3.043278E-01 +5.190450E+00    
 +2.099771E+00 +3.043278E-01 +5.190450E+00     +2.099771E+00 +3.043278E-01 +5.190450E+00     +2.906589E+00 +1.952840E+00 +5.279670E+00     +2.906589E+00 +1.952840E+00 +5.279670E+00     +2.906589E+00 +1.952840E+00 +5.279670E+00     +2.906589E+00 +1.952840E+00 +5.279670E+00     +2.906589E+00 +1.952840E+00 +5.279670E+00     +7.410406E-01 +1.347391E+00 +6.309173E-01     +7.410406E-01 +1.347391E+00 +6.309173E-01     +5.254021E+00 +2.600570E+00 +4.963440E+00     +5.254021E+00 +2.600570E+00 +4.963440E+00     +5.254021E+00 +2.600570E+00 +4.963440E+00     +5.254021E+00 +2.600570E+00 +4.963440E+00     +6.149331E+00 +1.068421E+00 +1.449381E+00     +6.149331E+00 +1.068421E+00 +1.449381E+00     +6.149331E+00 +1.068421E+00 +1.449381E+00     +6.149331E+00 +1.068421E+00 +1.449381E+00     +2.099771E+00 +3.043278E-01 +5.190450E+00     +2.099771E+00 +3.043278E-01 +5.190450E+00     +2.099771E+00 +3.043278E-01 +5.190450E+00     +2.099771E+00 +3.043278E-01 +5.190450E+00    
 +2.099771E+00 +3.043278E-01 +5.190450E+00     +6.098370E+00 +7.690217E-01 +9.597182E-01     +4.350031E+00 +2.797740E+00 +6.246621E+00     +4.350031E+00 +2.797740E+00 +6.246621E+00     +4.350031E+00 +2.797740E+00 +6.246621E+00     +4.350031E+00 +2.797740E+00 +6.246621E+00     +4.350031E+00 +2.797740E+00 +6.246621E+00     +5.254021E+00 +2.600570E+00 +4.963440E+00     +5.254021E+00 +2.600570E+00 +4.963440E+00     +5.254021E+00 +2.600570E+00 +4.963440E+00     +5.254021E+00 +2.600570E+00 +4.963440E+00     +5.254021E+00 +2.600570E+00 +4.963440E+00     +5.254021E+00 +2.600570E+00 +4.963440E+00     +3.183899E+00 +1.106230E+00 +6.516117E-01     +6.149331E+00 +1.068421E+00 +1.449381E+00     +6.149331E+00 +1.068421E+00 +1.449381E+00     +6.149331E+00 +1.068421E+00 +1.449381E+00     +6.149331E+00 +1.068421E+00 +1.449381E+00     +2.099771E+00 +3.043278E-01 +5.190450E+00     +2.099771E+00 +3.043278E-01 +5.190450E+00     +2.099771E+00 +3.043278E-01 +5.190450E+00    
 +6.098370E+00 +7.690217E-01 +9.597182E-01     +6.098370E+00 +7.690217E-01 +9.597182E-01     +6.098370E+00 +7.690217E-01 +9.597182E-01     +4.350031E+00 +2.797740E+00 +6.246621E+00     +4.350031E+00 +2.797740E+00 +6.246621E+00     +4.350031E+00 +2.797740E+00 +6.246621E+00     +4.350031E+00 +2.797740E+00 +6.246621E+00     +4.558015E-01 +1.537501E+00 +1.064860E+00     +5.254021E+00 +2.600570E+00 +4.963440E+00     +5.254021E+00 +2.600570E+00 +4.963440E+00     +5.254021E+00 +2.600570E+00 +4.963440E+00     +5.254021E+00 +2.600570E+00 +4.963440E+00     +5.254021E+00 +2.600570E+00 +4.963440E+00     +3.183899E+00 +1.106230E+00 +6.516117E-01     +3.183899E+00 +1.106230E+00 +6.516117E-01     +6.149331E+00 +1.068421E+00 +1.449381E+00     +6.149331E+00 +1.068421E+00 +1.449381E+00     +6.149331E+00 +1.068421E+00 +1.449381E+00     +2.099771E+00 +3.043278E-01 +5.190450E+00     +2.099771E+00 +3.043278E-01 +5.190450E+00     +2.099771E+00 +3.043278E-01 +5.190450E+00    
 +6.098370E+00 +7.690217E-01 +9.597182E-01     +6.098370E+00 +7.690217E-01 +9.597182E-01     +6.098370E+00 +7.690217E-01 +9.597182E-01     +6.098370E+00 +7.690217E-01 +9.597182E-01     +4.350031E+00 +2.797740E+00 +6.246621E+00     +4.350031E+00 +2.797740E+00 +6.246621E+00     +4.558015E-01 +1.537501E+00 +1.064860E+00     +2.166599E+00 +1.639630E+00 +5.043501E+00     +5.254021E+00 +2.600570E+00 +4.963440E+00     +5.254021E+00 +2.600570E+00 +4.963440E+00     +5.254021E+00 +2.600570E+00 +4.963440E+00     +5.254021E+00 +2.600570E+00 +4.963440E+00     +3.183899E+00 +1.106230E+00 +6.516117E-01     +3.183899E+00 +1.106230E+00 +6.516117E-01     +3.183899E+00 +1.106230E+00 +6.516117E-01     +3.183899E+00 +1.106230E+00 +6.516117E-01     +6.149331E+00 +1.068421E+00 +1.449381E+00     +6.149331E+00 +1.068421E+00 +1.449381E+00     +2.099771E+00 +3.043278E-01 +5.190450E+00     +6.098370E+00 +7.690217E-01 +9.597182E-01     +6.098370E+00 +7.690217E-01 +9.597182E-01    
 +6.098370E+00 +7.690217E-01 +9.597182E-01     +6.098370E+00 +7.690217E-01 +9.597182E-01     +6.098370E+00 +7.690217E-01 +9.597182E-01     +6.098370E+00 +7.690217E-01 +9.597182E-01     +3.156707E-01 +1.393139E+00 +1.170060E+00     +2.630241E+00 +1.160670E+00 +4.955601E+00     +2.630241E+00 +1.160670E+00 +4.955601E+00     +2.630241E+00 +1.160670E+00 +4.955601E+00     +2.630241E+00 +1.160670E+00 +4.955601E+00     +2.630241E+00 +1.160670E+00 +4.955601E+00     +5.254021E+00 +2.600570E+00 +4.963440E+00     +5.254021E+00 +2.600570E+00 +4.963440E+00     +5.858500E+00 +2.491110E+00 +6.200010E+00     +5.858500E+00 +2.491110E+00 +6.200010E+00     +3.183899E+00 +1.106230E+00 +6.516117E-01     +3.183899E+00 +1.106230E+00 +6.516117E-01     +6.149331E+00 +1.068421E+00 +1.449381E+00     +6.149331E+00 +1.068421E+00 +1.449381E+00     +6.098370E+00 +7.690217E-01 +9.597182E-01     +6.098370E+00 +7.690217E-01 +9.597182E-01     +6.098370E+00 +7.690217E-01 +9.597182E-01    
 +6.098370E+00 +7.690217E-01 +9.597182E-01     +1.084471E+00 +1.785859E+00 +2.017539E+00     +6.098370E+00 +7.690217E-01 +9.597182E-01     +6.098370E+00 +7.690217E-01 +9.597182E-01     +3.156707E-01 +1.393139E+00 +1.170060E+00     +2.630241E+00 +1.160670E+00 +4.955601E+00     +2.630241E+00 +1.160670E+00 +4.955601E+00     +2.630241E+00 +1.160670E+00 +4.955601E+00     +2.630241E+00 +1.160670E+00 +4.955601E+00     +2.630241E+00 +1.160670E+00 +4.955601E+00     +2.630241E+00 +1.160670E+00 +4.955601E+00     +5.858500E+00 +2.491110E+00 +6.200010E+00     +5.858500E+00 +2.491110E+00 +6.200010E+00     +5.858500E+00 +2.491110E+00 +6.200010E+00     +5.858500E+00 +2.491110E+00 +6.200010E+00     +5.858500E+00 +2.491110E+00 +6.200010E+00     +5.858500E+00 +2.491110E+00 +6.200010E+00     +3.433651E+00 +1.387669E+00 +4.191160E+00     +6.098370E+00 +7.690217E-01 +9.597182E-01     +6.098370E+00 +7.690217E-01 +9.597182E-01     +6.098370E+00 +7.690217E-01 +9.597182E-01    
 +1.306745E-01 +1.489879E+00 +4.005723E-01     +1.306745E-01 +1.489879E+00 +4.005723E-01     +1.306745E-01 +1.489879E+00 +4.005723E-01     +6.098370E+00 +7.690217E-01 +9.597182E-01     +3.156707E-01 +1.393139E+00 +1.170060E+00     +2.630241E+00 +1.160670E+00 +4.955601E+00     +2.630241E+00 +1.160670E+00 +4.955601E+00     +2.630241E+00 +1.160670E+00 +4.955601E+00     +2.630241E+00 +1.160670E+00 +4.955601E+00     +2.630241E+00 +1.160670E+00 +4.955601E+00     +2.630241E+00 +1.160670E+00 +4.955601E+00     +5.858500E+00 +2.491110E+00 +6.200010E+00     +5.858500E+00 +2.491110E+00 +6.200010E+00     +5.858500E+00 +2.491110E+00 +6.200010E+00     +5.858500E+00 +2.491110E+00 +6.200010E+00     +5.858500E+00 +2.491110E+00 +6.200010E+00     +5.858500E+00 +2.491110E+00 +6.200010E+00     +3.433651E+00 +1.387669E+00 +4.191160E+00     +5.490879E+00 +1.331950E+00 +1.387240E+00     +5.490879E+00 +1.331950E+00 +1.387240E+00     +5.490879E+00 +1.331950E+00 +1.387240E+00    
 +1.306745E-01 +1.489879E+00 +4.005723E-01     +1.306745E-01 +1.489879E+00 +4.005723E-01     +1.306745E-01 +1.489879E+00 +4.005723E-01     +8.284624E-01 +9.850813E-01 +5.831145E-02     +8.284624E-01 +9.850813E-01 +5.831145E-02     +2.630241E+00 +1.160670E+00 +4.955601E+00     +2.630241E+00 +1.160670E+00 +4.955601E+00     +2.630241E+00 +1.160670E+00 +4.955601E+00     +2.630241E+00 +1.160670E+00 +4.955601E+00     +2.630241E+00 +1.160670E+00 +4.955601E+00     +2.630241E+00 +1.160670E+00 +4.955601E+00     +5.858500E+00 +2.491110E+00 +6.200010E+00     +5.858500E+00 +2.491110E+00 +6.200010E+00     +5.858500E+00 +2.491110E+00 +6.200010E+00     +5.858500E+00 +2.491110E+00 +6.200010E+00     +5.858500E+00 +2.491110E+00 +6.200010E+00     +5.858500E+00 +2.491110E+00 +6.200010E+00     +3.433651E+00 +1.387669E+00 +4.191160E+00     +3.508040E+00 +9.477399E-01 +4.114291E+00     +3.508040E+00 +9.477399E-01 +4.114291E+00     +5.490879E+00 +1.331950E+00 +1.387240E+00    
 +1.306745E-01 +1.489879E+00 +4.005723E-01     +1.306745E-01 +1.489879E+00 +4.005723E-01     +8.284624E-01 +9.850813E-01 +5.831145E-02     +8.284624E-01 +9.850813E-01 +5.831145E-02     +8.284624E-01 +9.850813E-01 +5.831145E-02     +3.530731E-01 +1.680461E+00 +2.640961E+00     +3.530731E-01 +1.680461E+00 +2.640961E+00     +8.182453E-02 +9.136572E-01 +3.673201E+00     +8.182453E-02 +9.136572E-01 +3.673201E+00     +1.275359E+00 +2.170849E+00 +8.672960E-01     +1.275359E+00 +2.170849E+00 +8.672960E-01     +1.275359E+00 +2.170849E+00 +8.672960E-01     +5.858500E+00 +2.491110E+00 +6.200010E+00     +5.858500E+00 +2.491110E+00 +6.200010E+00     +5.858500E+00 +2.491110E+00 +6.200010E+00     +5.858500E+00 +2.491110E+00 +6.200010E+00     +5.858500E+00 +2.491110E+00 +6.200010E+00     +2.765171E+00 +1.135571E+00 +5.039141E+00     +2.765171E+00 +1.135571E+00 +5.039141E+00     +2.765171E+00 +1.135571E+00 +5.039141E+00     +2.765171E+00 +1.135571E+00 +5.039141E+00    
 +2.765171E+00 +1.135571E+00 +5.039141E+00     +8.284624E-01 +9.850813E-01 +5.831145E-02     +8.284624E-01 +9.850813E-01 +5.831145E-02     +8.284624E-01 +9.850813E-01 +5.831145E-02     +8.284624E-01 +9.850813E-01 +5.831145E-02     +3.530731E-01 +1.680461E+00 +2.640961E+00     +3.530731E-01 +1.680461E+00 +2.640961E+00     +8.182453E-02 +9.136572E-01 +3.673201E+00     +8.182453E-02 +9.136572E-01 +3.673201E+00     +1.275359E+00 +2.170849E+00 +8.672960E-01     +1.275359E+00 +2.170849E+00 +8.672960E-01     +1.275359E+00 +2.170849E+00 +8.672960E-01     +1.275359E+00 +2.170849E+00 +8.672960E-01     +1.275359E+00 +2.170849E+00 +8.672960E-01     +1.275359E+00 +2.170849E+00 +8.672960E-01     +5.858500E+00 +2.491110E+00 +6.200010E+00     +3.230280E+00 +1.770179E+00 +4.852461E+00     +3.230280E+00 +1.770179E+00 +4.852461E+00     +2.765171E+00 +1.135571E+00 +5.039141E+00     +2.765171E+00 +1.135571E+00 +5.039141E+00     +2.765171E+00 +1.135571E+00 +5.039141E+00    
 +6.725365E-01 +1.552629E+00 +5.500213E-01     +8.284624E-01 +9.850813E-01 +5.831145E-02     +8.284624E-01 +9.850813E-01 +5.831145E-02     +8.284624E-01 +9.850813E-01 +5.831145E-02     +8.284624E-01 +9.850813E-01 +5.831145E-02     +3.530731E-01 +1.680461E+00 +2.640961E+00     +3.530731E-01 +1.680461E+00 +2.640961E+00     +8.182453E-02 +9.136572E-01 +3.673201E+00     +8.182453E-02 +9.136572E-01 +3.673201E+00     +1.088562E-01 +3.478947E-01 +8.269126E-01     +1.088562E-01 +3.478947E-01 +8.269126E-01     +1.275359E+00 +2.170849E+00 +8.672960E-01     +1.275359E+00 +2.170849E+00 +8.672960E-01     +1.275359E+00 +2.170849E+00 +8.672960E-01     +1.275359E+00 +2.170849E+00 +8.672960E-01     +3.230280E+00 +1.770179E+00 +4.852461E+00     +3.230280E+00 +1.770179E+00 +4.852461E+00     +3.230280E+00 +1.770179E+00 +4.852461E+00     +2.765171E+00 +1.135571E+00 +5.039141E+00     +2.765171E+00 +1.135571E+00 +5.039141E+00     +2.765171E+00 +1.135571E+00 +5.039141E+00    
 +6.725365E-01 +1.552629E+00 +5.500213E-01     +6.725365E-01 +1.552629E+00 +5.500213E-01     +8.284624E-01 +9.850813E-01 +5.831145E-02     +8.284624E-01 +9.850813E-01 +5.831145E-02     +8.433344E-01 +1.392911E+00 +3.825851E+00     +8.433344E-01 +1.392911E+00 +3.825851E+00     +8.433344E-01 +1.392911E+00 +3.825851E+00     +8.182453E-02 +9.136572E-01 +3.673201E+00     +1.275359E+00 +2.170849E+00 +8.672960E-01     +1.088562E-01 +3.478947E-01 +8.269126E-01     +1.088562E-01 +3.478947E-01 +8.269126E-01     +1.275359E+00 +2.170849E+00 +8.672960E-01     +1.275359E+00 +2.170849E+00 +8.672960E-01     +1.275359E+00 +2.170849E+00 +8.672960E-01     +1.275359E+00 +2.170849E+00 +8.672960E-01     +3.230280E+00 +1.770179E+00 +4.852461E+00     +3.230280E+00 +1.770179E+00 +4.852461E+00     +3.230280E+00 +1.770179E+00 +4.852461E+00     +3.230280E+00 +1.770179E+00 +4.852461E+00     +2.765171E+00 +1.135571E+00 +5.039141E+00     +2.765171E+00 +1.135571E+00 +5.039141E+00    
 +4.812670E+00 +2.299791E+00 +4.509041E+00     +4.812670E+00 +2.299791E+00 +4.509041E+00     +4.812670E+00 +2.299791E+00 +4.509041E+00     +4.812670E+00 +2.299791E+00 +4.509041E+00     +8.433344E-01 +1.392911E+00 +3.825851E+00     +8.433344E-01 +1.392911E+00 +3.825851E+00     +8.433344E-01 +1.392911E+00 +3.825851E+00     +8.433344E-01 +1.392911E+00 +3.825851E+00     +1.275359E+00 +2.170849E+00 +8.672960E-01     +1.088562E-01 +3.478947E-01 +8.269126E-01     +1.088562E-01 +3.478947E-01 +8.269126E-01     +1.275359E+00 +2.170849E+00 +8.672960E-01     +1.275359E+00 +2.170849E+00 +8.672960E-01     +1.275359E+00 +2.170849E+00 +8.672960E-01     +1.275359E+00 +2.170849E+00 +8.672960E-01     +3.230280E+00 +1.770179E+00 +4.852461E+00     +3.230280E+00 +1.770179E+00 +4.852461E+00     +3.230280E+00 +1.770179E+00 +4.852461E+00     +3.230280E+00 +1.770179E+00 +4.852461E+00     +3.230280E+00 +1.770179E+00 +4.852461E+00     +4.812670E+00 +2.299791E+00 +4.509041E+00    
 +4.812670E+00 +2.299791E+00 +4.509041E+00     +4.812670E+00 +2.299791E+00 +4.509041E+00     +4.812670E+00 +2.299791E+00 +4.509041E+00     +4.812670E+00 +2.299791E+00 +4.509041E+00     +4.549539E+00 +1.545980E+00 +3.262760E+00     +4.549539E+00 +1.545980E+00 +3.262760E+00     +4.549539E+00 +1.545980E+00 +3.262760E+00     +5.848241E+00 +2.706412E-01 +1.179061E+00     +1.666920E+00 +2.348550E+00 +2.015970E+00     +1.666920E+00 +2.348550E+00 +2.015970E+00     +1.275359E+00 +2.170849E+00 +8.672960E-01     +1.275359E+00 +2.170849E+00 +8.672960E-01     +1.275359E+00 +2.170849E+00 +8.672960E-01     +1.275359E+00 +2.170849E+00 +8.672960E-01     +5.959910E+00 +1.790221E+00 +5.827860E+00     +5.959910E+00 +1.790221E+00 +5.827860E+00     +5.959910E+00 +1.790221E+00 +5.827860E+00     +5.959910E+00 +1.790221E+00 +5.827860E+00     +2.070980E+00 +9.549901E-01 +5.551800E+00     +2.421060E+00 +1.825970E+00 +4.804870E+00     +2.421060E+00 +1.825970E+00 +4.804870E+00    
 +4.305530E+00 +9.631216E-01 +1.169598E-01     +4.305530E+00 +9.631216E-01 +1.169598E-01     +4.305530E+00 +9.631216E-01 +1.169598E-01     +4.549539E+00 +1.545980E+00 +3.262760E+00     +4.549539E+00 +1.545980E+00 +3.262760E+00     +4.549539E+00 +1.545980E+00 +3.262760E+00     +4.549539E+00 +1.545980E+00 +3.262760E+00     +5.848241E+00 +2.706412E-01 +1.179061E+00     +5.848241E+00 +2.706412E-01 +1.179061E+00     +5.525491E+00 +1.605509E+00 +1.080820E+00     +1.666920E+00 +2.348550E+00 +2.015970E+00     +1.275359E+00 +2.170849E+00 +8.672960E-01     +1.275359E+00 +2.170849E+00 +8.672960E-01     +5.959910E+00 +1.790221E+00 +5.827860E+00     +5.959910E+00 +1.790221E+00 +5.827860E+00     +5.959910E+00 +1.790221E+00 +5.827860E+00     +5.959910E+00 +1.790221E+00 +5.827860E+00     +5.959910E+00 +1.790221E+00 +5.827860E+00     +2.070980E+00 +9.549901E-01 +5.551800E+00     +2.421060E+00 +1.825970E+00 +4.804870E+00     +2.421060E+00 +1.825970E+00 +4.804870E+00    
 +5.381670E-01 +6.205536E-01 +1.011910E+00     +5.381670E-01 +6.205536E-01 +1.011910E+00     +5.381670E-01 +6.205536E-01 +1.011910E+00     +4.549539E+00 +1.545980E+00 +3.262760E+00     +4.549539E+00 +1.545980E+00 +3.262760E+00     +4.549539E+00 +1.545980E+00 +3.262760E+00     +4.549539E+00 +1.545980E+00 +3.262760E+00     +5.848241E+00 +2.706412E-01 +1.179061E+00     +5.848241E+00 +2.706412E-01 +1.179061E+00     +1.666920E+00 +2.348550E+00 +2.015970E+00     +1.666920E+00 +2.348550E+00 +2.015970E+00     +1.666920E+00 +2.348550E+00 +2.015970E+00     +4.957660E-01 +1.701850E+00 +2.498352E-01     +4.957660E-01 +1.701850E+00 +2.498352E-01     +4.957660E-01 +1.701850E+00 +2.498352E-01     +5.959910E+00 +1.790221E+00 +5.827860E+00     +5.959910E+00 +1.790221E+00 +5.827860E+00     +2.070980E+00 +9.549901E-01 +5.551800E+00     +2.070980E+00 +9.549901E-01 +5.551800E+00     +2.421060E+00 +1.825970E+00 +4.804870E+00     +2.421060E+00 +1.825970E+00 +4.804870E+00    
 +5.381670E-01 +6.205536E-01 +1.011910E+00     +5.381670E-01 +6.205536E-01 +1.011910E+00     +5.381670E-01 +6.205536E-01 +1.011910E+00     +5.381670E-01 +6.205536E-01 +1.011910E+00     +4.549539E+00 +1.545980E+00 +3.262760E+00     +4.549539E+00 +1.545980E+00 +3.262760E+00     +4.549539E+00 +1.545980E+00 +3.262760E+00     +5.848241E+00 +2.706412E-01 +1.179061E+00     +5.848241E+00 +2.706412E-01 +1.179061E+00     +5.848241E+00 +2.706412E-01 +1.179061E+00     +3.483319E+00 +1.686590E+00 +5.091201E+00     +3.483319E+00 +1.686590E+00 +5.091201E+00     +4.957660E-01 +1.701850E+00 +2.498352E-01     +4.957660E-01 +1.701850E+00 +2.498352E-01     +4.957660E-01 +1.701850E+00 +2.498352E-01     +4.957660E-01 +1.701850E+00 +2.498352E-01     +2.070980E+00 +9.549901E-01 +5.551800E+00     +2.070980E+00 +9.549901E-01 +5.551800E+00     +2.070980E+00 +9.549901E-01 +5.551800E+00     +2.421060E+00 +1.825970E+00 +4.804870E+00     +2.421060E+00 +1.825970E+00 +4.804870E+00    
 +5.381670E-01 +6.205536E-01 +1.011910E+00     +5.381670E-01 +6.205536E-01 +1.011910E+00     +5.381670E-01 +6.205536E-01 +1.011910E+00     +5.381670E-01 +6.205536E-01 +1.011910E+00     +4.549539E+00 +1.545980E+00 +3.262760E+00     +4.549539E+00 +1.545980E+00 +3.262760E+00     +4.549539E+00 +1.545980E+00 +3.262760E+00     +4.549539E+00 +1.545980E+00 +3.262760E+00     +5.848241E+00 +2.706412E-01 +1.179061E+00     +5.848241E+00 +2.706412E-01 +1.179061E+00     +3.483319E+00 +1.686590E+00 +5.091201E+00     +3.483319E+00 +1.686590E+00 +5.091201E+00     +4.957660E-01 +1.701850E+00 +2.498352E-01     +4.957660E-01 +1.701850E+00 +2.498352E-01     +4.957660E-01 +1.701850E+00 +2.498352E-01     +4.957660E-01 +1.701850E+00 +2.498352E-01     +2.070980E+00 +9.549901E-01 +5.551800E+00     +2.070980E+00 +9.549901E-01 +5.551800E+00     +2.070980E+00 +9.549901E-01 +5.551800E+00     +2.070980E+00 +9.549901E-01 +5.551800E+00     +2.421060E+00 +1.825970E+00 +4.804870E+00    
 +5.381670E-01 +6.205536E-01 +1.011910E+00     +5.381670E-01 +6.205536E-01 +1.011910E+00     +5.381670E-01 +6.205536E-01 +1.011910E+00     +5.381670E-01 +6.205536E-01 +1.011910E+00     +2.906589E+00 +1.952840E+00 +5.279670E+00     +2.906589E+00 +1.952840E+00 +5.279670E+00     +4.549539E+00 +1.545980E+00 +3.262760E+00     +7.410406E-01 +1.347391E+00 +6.309173E-01     +7.410406E-01 +1.347391E+00 +6.309173E-01     +3.483319E+00 +1.686590E+00 +5.091201E+00     +3.483319E+00 +1.686590E+00 +5.091201E+00     +3.483319E+00 +1.686590E+00 +5.091201E+00     +3.483319E+00 +1.686590E+00 +5.091201E+00     +4.957660E-01 +1.701850E+00 +2.498352E-01     +4.957660E-01 +1.701850E+00 +2.498352E-01     +2.070980E+00 +9.549901E-01 +5.551800E+00     +2.070980E+00 +9.549901E-01 +5.551800E+00     +2.070980E+00 +9.549901E-01 +5.551800E+00     +2.070980E+00 +9.549901E-01 +5.551800E+00     +2.070980E+00 +9.549901E-01 +5.551800E+00     +2.099771E+00 +3.043278E-01 +5.190450E+00    
 +5.381670E-01 +6.205536E-01 +1.011910E+00     +5.381670E-01 +6.205536E-01 +1.011910E+00     +5.381670E-01 +6.205536E-01 +1.011910E+00     +2.906589E+00 +1.952840E+00 +5.279670E+00     +2.906589E+00 +1.952840E+00 +5.279670E+00     +2.906589E+00 +1.952840E+00 +5.279670E+00     +7.410406E-01 +1.347391E+00 +6.309173E-01     +7.410406E-01 +1.347391E+00 +6.309173E-01     +7.410406E-01 +1.347391E+00 +6.309173E-01     +3.233345E-01 +1.087000E+00 +4.007190E+00     +3.483319E+00 +1.686590E+00 +5.091201E+00     +3.483319E+00 +1.686590E+00 +5.091201E+00     +3.483319E+00 +1.686590E+00 +5.091201E+00     +3.483319E+00 +1.686590E+00 +5.091201E+00     +6.149331E+00 +1.068421E+00 +1.449381E+00     +2.070980E+00 +9.549901E-01 +5.551800E+00     +2.070980E+00 +9.549901E-01 +5.551800E+00     +2.070980E+00 +9.549901E-01 +5.551800E+00     +2.070980E+00 +9.549901E-01 +5.551800E+00     +2.070980E+00 +9.549901E-01 +5.551800E+00     +2.099771E+00 +3.043278E-01 +5.190450E+00    
 +2.099771E+00 +3.043278E-01 +5.190450E+00     +5.381670E-01 +6.205536E-01 +1.011910E+00     +5.381670E-01 +6.205536E-01 +1.011910E+00     +2.906589E+00 +1.952840E+00 +5.279670E+00     +2.906589E+00 +1.952840E+00 +5.279670E+00     +2.906589E+00 +1.952840E+00 +5.279670E+00     +2.906589E+00 +1.952840E+00 +5.279670E+00     +7.410406E-01 +1.347391E+00 +6.309173E-01     +7.410406E-01 +1.347391E+00 +6.309173E-01     +3.233345E-01 +1.087000E+00 +4.007190E+00     +5.254021E+00 +2.600570E+00 +4.963440E+00     +5.254021E+00 +2.600570E+00 +4.963440E+00     +3.483319E+00 +1.686590E+00 +5.091201E+00     +6.149331E+00 +1.068421E+00 +1.449381E+00     +6.149331E+00 +1.068421E+00 +1.449381E+00     +6.149331E+00 +1.068421E+00 +1.449381E+00     +2.070980E+00 +9.549901E-01 +5.551800E+00     +2.070980E+00 +9.549901E-01 +5.551800E+00     +2.070980E+00 +9.549901E-01 +5.551800E+00     +2.099771E+00 +3.043278E-01 +5.190450E+00     +2.099771E+00 +3.043278E-01 +5.190450E+00    
 +2.099771E+00 +3.043278E-01 +5.190450E+00     +2.099771E+00 +3.043278E-01 +5.190450E+00     +2.906589E+00 +1.952840E+00 +5.279670E+00     +2.906589E+00 +1.952840E+00 +5.279670E+00     +2.906589E+00 +1.952840E+00 +5.279670E+00     +2.906589E+00 +1.952840E+00 +5.279670E+00     +2.906589E+00 +1.952840E+00 +5.279670E+00     +7.410406E-01 +1.347391E+00 +6.309173E-01     +5.254021E+00 +2.600570E+00 +4.963440E+00     +5.254021E+00 +2.600570E+00 +4.963440E+00     +5.254021E+00 +2.600570E+00 +4.963440E+00     +5.254021E+00 +2.600570E+00 +4.963440E+00     +5.254021E+00 +2.600570E+00 +4.963440E+00     +3.183899E+00 +1.106230E+00 +6.516117E-01     +3.183899E+00 +1.106230E+00 +6.516117E-01     +3.183899E+00 +1.106230E+00 +6.516117E-01     +6.149331E+00 +1.068421E+00 +1.449381E+00     +2.099771E+00 +3.043278E-01 +5.190450E+00     +2.099771E+00 +3.043278E-01 +5.190450E+00     +2.099771E+00 +3.043278E-01 +5.190450E+00     +2.099771E+00 +3.043278E-01 +5.190450E+00    
 +2.099771E+00 +3.043278E-01 +5.190450E+00     +6.098370E+00 +7.690217E-01 +9.597182E-01     +4.350031E+00 +2.797740E+00 +6.246621E+00     +4.350031E+00 +2.797740E+00 +6.246621E+00     +4.350031E+00 +2.797740E+00 +6.246621E+00     +4.350031E+00 +2.797740E+00 +6.246621E+00     +4.350031E+00 +2.797740E+00 +6.246621E+00     +5.254021E+00 +2.600570E+00 +4.963440E+00     +5.254021E+00 +2.600570E+00 +4.963440E+00     +5.254021E+00 +2.600570E+00 +4.963440E+00     +5.254021E+00 +2.600570E+00 +4.963440E+00     +5.254021E+00 +2.600570E+00 +4.963440E+00     +5.254021E+00 +2.600570E+00 +4.963440E+00     +3.183899E+00 +1.106230E+00 +6.516117E-01     +3.183899E+00 +1.106230E+00 +6.516117E-01     +3.183899E+00 +1.106230E+00 +6.516117E-01     +6.149331E+00 +1.068421E+00 +1.449381E+00     +6.149331E+00 +1.068421E+00 +1.449381E+00     +2.099771E+00 +3.043278E-01 +5.190450E+00     +2.099771E+00 +3.043278E-01 +5.190450E+00     +2.099771E+00 +3.043278E-01 +5.190450E+00    
 +6.098370E+00 +7.690217E-01 +9.597182E-01     +6.098370E+00 +7.690217E-01 +9.597182E-01     +6.098370E+00 +7.690217E-01 +9.597182E-01     +4.350031E+00 +2.797740E+00 +6.246621E+00     +4.350031E+00 +2.797740E+00 +6.246621E+00     +4.350031E+00 +2.797740E+00 +6.246621E+00     +4.350031E+00 +2.797740E+00 +6.246621E+00     +5.254021E+00 +2.600570E+00 +4.963440E+00     +5.254021E+00 +2.600570E+00 +4.963440E+00     +5.254021E+00 +2.600570E+00 +4.963440E+00     +5.254021E+00 +2.600570E+00 +4.963440E+00     +5.254021E+00 +2.600570E+00 +4.963440E+00     +5.254021E+00 +2.600570E+00 +4.963440E+00     +3.183899E+00 +1.106230E+00 +6.516117E-01     +3.183899E+00 +1.106230E+00 +6.516117E-01     +3.183899E+00 +1.106230E+00 +6.516117E-01     +6.149331E+00 +1.068421E+00 +1.449381E+00     +6.149331E+00 +1.068421E+00 +1.449381E+00     +2.099771E+00 +3.043278E-01 +5.190450E+00     +2.099771E+00 +3.043278E-01 +5.190450E+00     +2.099771E+00 +3.043278E-01 +5.190450E+00    
 +6.098370E+00 +7.690217E-01 +9.597182E-01     +6.098370E+00 +7.690217E-01 +9.597182E-01     +6.098370E+00 +7.690217E-01 +9.597182E-01     +6.098370E+00 +7.690217E-01 +9.597182E-01     +3.156707E-01 +1.393139E+00 +1.170060E+00     +3.156707E-01 +1.393139E+00 +1.170060E+00     +3.156707E-01 +1.393139E+00 +1.170060E+00     +2.630241E+00 +1.160670E+00 +4.955601E+00     +5.254021E+00 +2.600570E+00 +4.963440E+00     +5.254021E+00 +2.600570E+00 +4.963440E+00     +5.254021E+00 +2.600570E+00 +4.963440E+00     +5.254021E+00 +2.600570E+00 +4.963440E+00     +3.183899E+00 +1.106230E+00 +6.516117E-01     +3.183899E+00 +1.106230E+00 +6.516117E-01     +3.183899E+00 +1.106230E+00 +6.516117E-01     +3.183899E+00 +1.106230E+00 +6.516117E-01     +3.183899E+00 +1.106230E+00 +6.516117E-01     +3.183899E+00 +1.106230E+00 +6.516117E-01     +2.099771E+00 +3.043278E-01 +5.190450E+00     +6.098370E+00 +7.690217E-01 +9.597182E-01     +6.098370E+00 +7.690217E-01 +9.597182E-01    
 +6.098370E+00 +7.690217E-01 +9.597182E-01     +6.098370E+00 +7.690217E-01 +9.597182E-01     +6.098370E+00 +7.690217E-01 +9.597182E-01     +3.156707E-01 +1.393139E+00 +1.170060E+00     +3.156707E-01 +1.393139E+00 +1.170060E+00     +3.156707E-01 +1.393139E+00 +1.170060E+00     +2.630241E+00 +1.160670E+00 +4.955601E+00     +2.630241E+00 +1.160670E+00 +4.955601E+00     +2.630241E+00 +1.160670E+00 +4.955601E+00     +2.630241E+00 +1.160670E+00 +4.955601E+00     +5.254021E+00 +2.600570E+00 +4.963440E+00     +5.858500E+00 +2.491110E+00 +6.200010E+00     +5.858500E+00 +2.491110E+00 +6.200010E+00     +5.858500E+00 +2.491110E+00 +6.200010E+00     +3.183899E+00 +1.106230E+00 +6.516117E-01     +3.183899E+00 +1.106230E+00 +6.516117E-01     +3.183899E+00 +1.106230E+00 +6.516117E-01     +3.183899E+00 +1.106230E+00 +6.516117E-01     +6.098370E+00 +7.690217E-01 +9.597182E-01     +6.098370E+00 +7.690217E-01 +9.597182E-01     +6.098370E+00 +7.690217E-01 +9.597182E-01    
 +6.098370E+00 +7.690217E-01 +9.597182E-01     +6.098370E+00 +7.690217E-01 +9.597182E-01     +6.098370E+00 +7.690217E-01 +9.597182E-01     +3.156707E-01 +1.393139E+00 +1.170060E+00     +3.156707E-01 +1.393139E+00 +1.170060E+00     +3.156707E-01 +1.393139E+00 +1.170060E+00     +2.630241E+00 +1.160670E+00 +4.955601E+00     +2.630241E+00 +1.160670E+00 +4.955601E+00     +2.630241E+00 +1.160670E+00 +4.955601E+00     +2.630241E+00 +1.160670E+00 +4.955601E+00     +2.630241E+00 +1.160670E+00 +4.955601E+00     +5.858500E+00 +2.491110E+00 +6.200010E+00     +5.858500E+00 +2.491110E+00 +6.200010E+00     +5.858500E+00 +2.491110E+00 +6.200010E+00     +5.858500E+00 +2.491110E+00 +6.200010E+00     +5.858500E+00 +2.491110E+00 +6.200010E+00     +5.858500E+00 +2.491110E+00 +6.200010E+00     +5.858500E+00 +2.491110E+00 +6.200010E+00     +5.858500E+00 +2.491110E+00 +6.200010E+00     +6.098370E+00 +7.690217E-01 +9.597182E-01     +6.098370E+00 +7.690217E-01 +9.597182E-01    
 +1.306745E-01 +1.489879E+00 +4.005723E-01     +1.306745E-01 +1.489879E+00 +4.005723E-01     +1.306745E-01 +1.489879E+00 +4.005723E-01     +3.156707E-01 +1.393139E+00 +1.170060E+00     +3.156707E-01 +1.393139E+00 +1.170060E+00     +3.156707E-01 +1.393139E+00 +1.170060E+00     +2.630241E+00 +1.160670E+00 +4.955601E+00     +2.630241E+00 +1.160670E+00 +4.955601E+00     +2.630241E+00 +1.160670E+00 +4.955601E+00     +2.630241E+00 +1.160670E+00 +4.955601E+00     +2.630241E+00 +1.160670E+00 +4.955601E+00     +5.858500E+00 +2.491110E+00 +6.200010E+00     +5.858500E+00 +2.491110E+00 +6.200010E+00     +5.858500E+00 +2.491110E+00 +6.200010E+00     +5.858500E+00 +2.491110E+00 +6.200010E+00     +5.858500E+00 +2.491110E+00 +6.200010E+00     +5.858500E+00 +2.491110E+00 +6.200010E+00     +5.858500E+00 +2.491110E+00 +6.200010E+00     +5.490879E+00 +1.331950E+00 +1.387240E+00     +5.490879E+00 +1.331950E+00 +1.387240E+00     +5.490879E+00 +1.331950E+00 +1.387240E+00    
 +1.306745E-01 +1.489879E+00 +4.005723E-01     +1.306745E-01 +1.489879E+00 +4.005723E-01     +1.306745E-01 +1.489879E+00 +4.005723E-01     +8.284624E-01 +9.850813E-01 +5.831145E-02     +3.156707E-01 +1.393139E+00 +1.170060E+00     +3.156707E-01 +1.393139E+00 +1.170060E+00     +2.630241E+00 +1.160670E+00 +4.955601E+00     +2.630241E+00 +1.160670E+00 +4.955601E+00     +2.630241E+00 +1.160670E+00 +4.955601E+00     +2.630241E+00 +1.160670E+00 +4.955601E+00     +5.858500E+00 +2.491110E+00 +6.200010E+00     +5.858500E+00 +2.491110E+00 +6.200010E+00     +5.858500E+00 +2.491110E+00 +6.200010E+00     +5.858500E+00 +2.491110E+00 +6.200010E+00     +5.858500E+00 +2.491110E+00 +6.200010E+00     +5.858500E+00 +2.491110E+00 +6.200010E+00     +5.858500E+00 +2.491110E+00 +6.200010E+00     +5.858500E+00 +2.491110E+00 +6.200010E+00     +3.508040E+00 +9.477399E-01 +4.114291E+00     +3.508040E+00 +9.477399E-01 +4.114291E+00     +5.490879E+00 +1.331950E+00 +1.387240E+00    
 +1.306745E-01 +1.489879E+00 +4.005723E-01     +1.306745E-01 +1.489879E+00 +4.005723E-01     +8.284624E-01 +9.850813E-01 +5.831145E-02     +8.284624E-01 +9.850813E-01 +5.831145E-02     +8.284624E-01 +9.850813E-01 +5.831145E-02     +3.530731E-01 +1.680461E+00 +2.640961E+00     +3.530731E-01 +1.680461E+00 +2.640961E+00     +8.182453E-02 +9.136572E-01 +3.673201E+00     +2.630241E+00 +1.160670E+00 +4.955601E+00     +2.630241E+00 +1.160670E+00 +4.955601E+00     +5.858500E+00 +2.491110E+00 +6.200010E+00     +5.858500E+00 +2.491110E+00 +6.200010E+00     +5.858500E+00 +2.491110E+00 +6.200010E+00     +5.858500E+00 +2.491110E+00 +6.200010E+00     +5.858500E+00 +2.491110E+00 +6.200010E+00     +5.858500E+00 +2.491110E+00 +6.200010E+00     +5.858500E+00 +2.491110E+00 +6.200010E+00     +5.858500E+00 +2.491110E+00 +6.200010E+00     +2.765171E+00 +1.135571E+00 +5.039141E+00     +2.765171E+00 +1.135571E+00 +5.039141E+00     +2.765171E+00 +1.135571E+00 +5.039141E+00    
 +1.306745E-01 +1.489879E+00 +4.005723E-01     +8.284624E-01 +9.850813E-01 +5.831145E-02     +8.284624E-01 +9.850813E-01 +5.831145E-02     +8.284624E-01 +9.850813E-01 +5.831145E-02     +8.284624E-01 +9.850813E-01 +5.831145E-02     +3.530731E-01 +1.680461E+00 +2.640961E+00     +3.530731E-01 +1.680461E+00 +2.640961E+00     +8.182453E-02 +9.136572E-01 +3.673201E+00     +8.182453E-02 +9.136572E-01 +3.673201E+00     +1.088562E-01 +3.478947E-01 +8.269126E-01     +1.275359E+00 +2.170849E+00 +8.672960E-01     +5.858500E+00 +2.491110E+00 +6.200010E+00     +5.858500E+00 +2.491110E+00 +6.200010E+00     +5.858500E+00 +2.491110E+00 +6.200010E+00     +5.858500E+00 +2.491110E+00 +6.200010E+00     +5.858500E+00 +2.491110E+00 +6.200010E+00     +5.858500E+00 +2.491110E+00 +6.200010E+00     +3.230280E+00 +1.770179E+00 +4.852461E+00     +2.765171E+00 +1.135571E+00 +5.039141E+00     +2.765171E+00 +1.135571E+00 +5.039141E+00     +2.765171E+00 +1.135571E+00 +5.039141E+00    
 +8.284624E-01 +9.850813E-01 +5.831145E-02     +8.284624E-01 +9.850813E-01 +5.831145E-02     +8.284624E-01 +9.850813E-01 +5.831145E-02     +8.284624E-01 +9.850813E-01 +5.831145E-02     +8.284624E-01 +9.850813E-01 +5.831145E-02     +3.530731E-01 +1.680461E+00 +2.640961E+00     +3.530731E-01 +1.680461E+00 +2.640961E+00     +8.182453E-02 +9.136572E-01 +3.673201E+00     +1.088562E-01 +3.478947E-01 +8.269126E-01     +1.088562E-01 +3.478947E-01 +8.269126E-01     +1.088562E-01 +3.478947E-01 +8.269126E-01     +1.275359E+00 +2.170849E+00 +8.672960E-01     +1.275359E+00 +2.170849E+00 +8.672960E-01     +1.275359E+00 +2.170849E+00 +8.672960E-01     +1.275359E+00 +2.170849E+00 +8.672960E-01     +5.858500E+00 +2.491110E+00 +6.200010E+00     +5.858500E+00 +2.491110E+00 +6.200010E+00     +3.230280E+00 +1.770179E+00 +4.852461E+00     +2.765171E+00 +1.135571E+00 +5.039141E+00     +2.765171E+00 +1.135571E+00 +5.039141E+00     +2.765171E+00 +1.135571E+00 +5.039141E+00    
 +6.725365E-01 +1.552629E+00 +5.500213E-01     +6.725365E-01 +1.552629E+00 +5.500213E-01     +8.284624E-01 +9.850813E-01 +5.831145E-02     +8.284624E-01 +9.850813E-01 +5.831145E-02     +8.433344E-01 +1.392911E+00 +3.825851E+00     +8.433344E-01 +1.392911E+00 +3.825851E+00     +8.433344E-01 +1.392911E+00 +3.825851E+00     +8.433344E-01 +1.392911E+00 +3.825851E+00     +1.088562E-01 +3.478947E-01 +8.269126E-01     +1.088562E-01 +3.478947E-01 +8.269126E-01     +1.088562E-01 +3.478947E-01 +8.269126E-01     +1.275359E+00 +2.170849E+00 +8.672960E-01     +1.275359E+00 +2.170849E+00 +8.672960E-01     +1.275359E+00 +2.170849E+00 +8.672960E-01     +1.275359E+00 +2.170849E+00 +8.672960E-01     +3.230280E+00 +1.770179E+00 +4.852461E+00     +3.230280E+00 +1.770179E+00 +4.852461E+00     +3.230280E+00 +1.770179E+00 +4.852461E+00     +3.230280E+00 +1.770179E+00 +4.852461E+00     +2.765171E+00 +1.135571E+00 +5.039141E+00     +2.765171E+00 +1.135571E+00 +5.039141E+00    
 +4.812670E+00 +2.299791E+00 +4.509041E+00     +4.812670E+00 +2.299791E+00 +4.509041E+00     +4.812670E+00 +2.299791E+00 +4.509041E+00     +8.433344E-01 +1.392911E+00 +3.825851E+00     +8.433344E-01 +1.392911E+00 +3.825851E+00     +8.433344E-01 +1.392911E+00 +3.825851E+00     +8.433344E-01 +1.392911E+00 +3.825851E+00     +8.433344E-01 +1.392911E+00 +3.825851E+00     +1.088562E-01 +3.478947E-01 +8.269126E-01     +1.088562E-01 +3.478947E-01 +8.269126E-01     +1.088562E-01 +3.478947E-01 +8.269126E-01     +1.275359E+00 +2.170849E+00 +8.672960E-01     +1.275359E+00 +2.170849E+00 +8.672960E-01     +1.275359E+00 +2.170849E+00 +8.672960E-01     +1.275359E+00 +2.170849E+00 +8.672960E-01     +3.230280E+00 +1.770179E+00 +4.852461E+00     +3.230280E+00 +1.770179E+00 +4.852461E+00     +3.230280E+00 +1.770179E+00 +4.852461E+00     +3.230280E+00 +1.770179E+00 +4.852461E+00     +3.230280E+00 +1.770179E+00 +4.852461E+00     +4.812670E+00 +2.299791E+00 +4.509041E+00    
TENSORS Stress float 
 +4.105944E+02 +7.284814E+00 +3.810521E+00 +7.284814E+00 +4.089535E+02 -2.374565E+01 +3.810521E+00 -2.374565E+01 +9.957157E+02 
 +3.859884E+02 +1.761869E+00 +1.936833E+00 +1.761869E+00 +3.652644E+02 -9.404843E+00 +1.936833E+00 -9.404843E+00 +9.799336E+02 
 +3.675079E+02 +5.899248E+00 +2.559543E-01 +5.899248E+00 +3.410108E+02 -2.000806E+00 +2.559543E-01 -2.000806E+00 +9.714017E+02 
 +3.401268E+02 -1.302274E+01 +1.355373E+01 -1.302274E+01 +3.256053E+02 -3.734874E+00 +1.355373E+01 -3.734874E+00 +9.564652E+02 
 +3.840993E+02 +6.905426E+00 +1.957368E+01 +6.905426E+00 +3.513918E+02 +1.784134E-01 +1.957368E+01 +1.784134E-01 +9.783234E+02 
 +3.730546E+02 +1.429465E+01 +2.712399E+00 +1.429465E+01 +3.465301E+02 -2.933961E+00 +2.712399E+00 -2.933961E+00 +9.939481E+02 
 +3.866727E+02 +1.902711E+01 -9.835134E+00 +1.902711E+01 +3.686206E+02 -7.288691E+00 -9.835134E+00 -7.288691E+00 +1.006026E+03 
 +3.920029E+02 +1.829480E+01 -8.807169E+00 +1.829480E+01 +3.817318E+02 -2.657988E+00 -8.807169E+00 -2.657988E+00 +1.002239E+03 
 +3.952815E+02 +2.093099E+01 -1.574442E+00 +2.093099E+01 +3.779898E+02 +7.472926E-01 -1.574442E+00 +7.472926E-01 +9.873729E+02 
 +3.923462E+02 +2.231398E+01 -3.207906E+00 +2.231398E+01 +3.682147E+02 +2.155059E+00 -3.207906E+00 +2.155059E+00 +9.694047E+02 
 +3.888412E+02 +1.732012E+01 -4.867127E+00 +1.732012E+01 +3.626397E+02 +8.136134E+00 -4.867127E+00 +8.136134E+00 +9.660574E+02 
 +3.919331E+02 +1.177063E+01 -8.385198E+00 +1.177063E+01 +3.653347E+02 +1.462306E+01 -8.385198E+00 +1.462306E+01 +9.660620E+02 
 +3.780659E+02 -1.794024E+01 -1.101505E+01 -1.794024E+01 +3.592045E+02 +1.206800E+01 -1.101505E+01 +1.206800E+01 +9.666788E+02 
 +3.520920E+02 -1.206262E+01 -9.178952E+00 -1.206262E+01 +3.427138E+02 +1.405754E+01 -9.178952E+00 +1.405754E+01 +9.573998E+02 
 +3.211760E+02 -1.619157E+01 -2.970290E+00 -1.619157E+01 +3.363456E+02 +9.697612E+00 -2.970290E+00 +9.697612E+00 +9.444975E+02 
 +3.049714E+02 -2.095638E+01 -8.967565E-01 -2.095638E+01 +3.344923E+02 -5.188547E+00 -8.967565E-01 -5.188547E+00 +9.458464E+02 
 +2.837392E+02 -2.251283E+01 +4.929206E+00 -2.251283E+01 +3.250000E+02 -1.763962E+01 +4.929206E+00 -1.763962E+01 +9.375574E+02 
 +3.171436E+02 +3.354281E+00 +2.944851E+01 +3.354281E+00 +3.374447E+02 -2.036519E+01 +2.944851E+01 -2.036519E+01 +9.432352E+02 
 +3.540256E+02 -3.745508E-01 +2.575900E+01 -3.745508E-01 +3.621716E+02 -1.918014E+01 +2.575900E+01 -1.918014E+01 +9.572267E+02 
 +3.812380E+02 +1.142080E+01 +3.091530E+01 +1.142080E+01 +3.950988E+02 -2.691777E+01 +3.091530E+01 -2.691777E+01 +9.697938E+02 
 +3.767075E+02 +1.406459E+01 +1.944051E+01 +1.406459E+01 +4.098661E+02 -2.927521E+01 +1.944051E+01 -2.927521E+01 +9.779839E+02 
 +3.929439E+02 -1.766746E+00 -8.912276E+00 -1.766746E+00 +3.987066E+02 -2.303704E+01 -8.912276E+00 -2.303704E+01 +9.884809E+02 
 +3.849061E+02 +4.456216E+00 -4.495674E+00 +4.456216E+00 +3.769247E+02 -1.336847E+01 -4.495674E+00 -1.336847E+01 +9.841060E+02 
 +3.716651E+02 +5.403479E+00 -3.780574E+00 +5.403479E+00 +3.486915E+02 -6.531476E+00 -3.780574E+00 -6.531476E+00 +9.640699E+02 
 +3.779024E+02 +4.657398E+00 +1.950707E+01 +4.657398E+00 +3.459554E+02 +1.423841E-02 +1.950707E+01 +1.423841E-02 +9.484588E+02 
 +4.178705E+02 +2.884866E+00 +1.571885E+01 +2.884866E+00 +3.743170E+02 -7.715059E-01 +1.571885E+01 -7.715059E-01 +9.749655E+02 
 +4.003702E+02 +8.831219E+00 -3.550708E+00 +8.831219E+00 +3.747072E+02 -1.031674E+01 -3.550708E+00 -1.031674E+01 +1.003809E+03 
 +3.882034E+02 +1.129987E+01 -1.947626E+01 +1.129987E+01 +3.793789E+02 -9.990987E+00 -1.947626E+01 -9.990987E+00 +1.015793E+03 
 +3.967004E+02 +1.799622E+01 -1.974530E+01 +1.799622E+01 +3.847668E+02 -4.395502E+00 -1.974530E+01 -4.395502E+00 +1.019707E+03 
 +4.019376E+02 +1.777190E+01 -8.394366E+00 +1.777190E+01 +3.881220E+02 -8.391990E-01 -8.394366E+00 -8.391990E-01 +1.007992E+03 
 +3.944782E+02 +2.478070E+01 -4.375674E+00 +2.478070E+01 +3.731875E+02 +3.249966E+00 -4.375674E+00 +3.249966E+00 +9.764127E+02 
 +4.096952E+02 +1.789147E+01 -2.940318E+00 +1.789147E+01 +3.835661E+02 +1.485475E+01 -2.940318E+00 +1.485475E+01 +9.812208E+02 
 +3.782565E+02 +7.939907E-01 -9.856988E+00 +7.939907E-01 +3.562576E+02 +2.319032E+01 -9.856988E+00 +2.319032E+01 +9.759635E+02 
 +3.408188E+02 -2.217667E+01 -1.722246E+01 -2.217667E+01 +3.320861E+02 +2.245792E+01 -1.722246E+01 +2.245792E+01 +9.645889E+02 
 +3.288131E+02 -8.898293E+00 -1.345367E+01 -8.898293E+00 +3.490360E+02 +2.146271E+01 -1.345367E+01 +2.146271E+01 +9.646795E+02 
 +3.096959E+02 -1.132114E+01 -5.684395E+00 -1.132114E+01 +3.402895E+02 +1.393863E+01 -5.684395E+00 +1.393863E+01 +9.607051E+02 
 +2.962633E+02 -1.029701E+01 -6.686996E+00 -1.029701E+01 +3.325393E+02 +3.580159E+00 -6.686996E+00 +3.580159E+00 +9.607901E+02 
 +2.843457E+02 -1.264651E+01 -2.629306E+00 -1.264651E+01 +3.234670E+02 -1.157773E+01 -2.629306E+00 -1.157773E+01 +9.446572E+02 
 +3.488750E+02 +6.170192E+00 +1.740735E+01 +6.170192E+00 +3.570620E+02 -2.367389E+01 +1.740735E+01 -2.367389E+01 +9.537001E+02 
 +3.734774E+02 -4.690135E+00 +1.280391E+01 -4.690135E+00 +3.751187E+02 -2.240468E+01 +1.280391E+01 -2.240468E+01 +9.633757E+02 
 +3.772412E+02 +2.508510E+00 +1.416188E+01 +2.508510E+00 +3.840364E+02 -2.244869E+01 +1.416188E+01 -2.244869E+01 +9.590362E+02 
 +3.750256E+02 +8.688678E+00 +8.520882E+00 +8.688678E+00 +3.927928E+02 -2.741085E+01 +8.520882E+00 -2.741085E+01 +9.657854E+02 
 +3.880642E+02 -3.166107E+00 -1.427615E+01 -3.166107E+00 +3.873084E+02 -2.023649E+01 -1.427615E+01 -2.023649E+01 +9.952163E+02 
 +3.861246E+02 +4.212838E+00 -1.165704E+00 +4.212838E+00 +3.832735E+02 -9.056212E+00 -1.165704E+00 -9.056212E+00 +9.960808E+02 
 +3.846843E+02 +2.059426E+00 +3.190151E+00 +2.059426E+00 +3.650738E+02 -7.193189E+00 +3.190151E+00 -7.193189E+00 +9.766940E+02 
 +4.013024E+02 +2.766710E+00 +3.052009E+01 +2.766710E+00 +3.593778E+02 -4.228037E+00 +3.052009E+01 -4.228037E+00 +9.555693E+02 
 +4.260326E+02 -2.542838E+00 +1.669636E+01 -2.542838E+00 +3.815158E+02 -3.133136E+00 +1.669636E+01 -3.133136E+00 +9.713995E+02 
 +4.076901E+02 +8.819104E+00 -5.914856E+00 +8.819104E+00 +3.863382E+02 -8.320945E+00 -5.914856E+00 -8.320945E+00 +9.999662E+02 
 +4.048001E+02 +9.890806E+00 -2.358306E+01 +9.890806E+00 +3.946653E+02 -9.688451E+00 -2.358306E+01 -9.688451E+00 +1.020915E+03 
 +4.090225E+02 +1.282788E+01 -2.334571E+01 +1.282788E+01 +3.986520E+02 -8.858032E+00 -2.334571E+01 -8.858032E+00 +1.029486E+03 
 +4.103171E+02 +1.632534E+01 -1.485595E+01 +1.632534E+01 +3.943733E+02 -5.496619E+00 -1.485595E+01 -5.496619E+00 +1.024448E+03 
 +3.975918E+02 +1.464813E+01 -8.403206E+00 +1.464813E+01 +3.808918E+02 +3.833122E+00 -8.403206E+00 +3.833122E+00 +9.948424E+02 
 +3.975678E+02 +1.265551E+01 -1.095580E+01 +1.265551E+01 +3.833574E+02 +2.286912E+01 -1.095580E+01 +2.286912E+01 +9.869255E+02 
 +3.574029E+02 -2.504484E+01 -1.760123E+01 -2.504484E+01 +3.551868E+02 +2.833467E+01 -1.760123E+01 +2.833467E+01 +9.765540E+02 
 +3.280440E+02 -2.686447E+01 -2.112836E+01 -2.686447E+01 +3.403024E+02 +2.275612E+01 -2.112836E+01 +2.275612E+01 +9.710087E+02 
 +3.169069E+02 -2.232572E+01 -1.447770E+01 -2.232572E+01 +3.440515E+02 +2.178039E+01 -1.447770E+01 +2.178039E+01 +9.719500E+02 
 +3.106566E+02 -2.026764E+01 -7.965554E+00 -2.026764E+01 +3.361531E+02 +1.753847E+01 -7.965554E+00 +1.753847E+01 +9.695197E+02 
 +3.012220E+02 -9.484650E+00 -9.383902E+00 -9.484650E+00 +3.329557E+02 +9.344984E+00 -9.383902E+00 +9.344984E+00 +9.623778E+02 
 +2.903560E+02 -9.987658E+00 -8.525506E+00 -9.987658E+00 +3.239424E+02 -1.074745E+01 -8.525506E+00 -1.074745E+01 +9.472341E+02 
 +3.551788E+02 +1.510780E+01 -8.778867E+00 +1.510780E+01 +3.528999E+02 -2.238984E+01 -8.778867E+00 -2.238984E+01 +9.676017E+02 
 +3.728391E+02 +8.524321E+00 -1.425209E+01 +8.524321E+00 +3.631282E+02 -1.974207E+01 -1.425209E+01 -1.974207E+01 +9.779221E+02 
 +3.682899E+02 +1.815011E+01 -9.894938E+00 +1.815011E+01 +3.601960E+02 -1.823776E+01 -9.894938E+00 -1.823776E+01 +9.671244E+02 
 +3.803890E+02 +1.986496E+01 -8.539563E+00 +1.986496E+01 +3.727592E+02 -2.403331E+01 -8.539563E+00 -2.403331E+01 +9.762883E+02 
 +3.768333E+02 +2.297913E-01 -1.453020E+01 +2.297913E-01 +3.692101E+02 -2.162658E+01 -1.453020E+01 -2.162658E+01 +9.835352E+02 
 +3.787265E+02 +4.149142E+00 -3.422001E+00 +4.149142E+00 +3.725211E+02 -1.371643E+01 -3.422001E+00 -1.371643E+01 +9.919585E+02 
 +3.849983E+02 -1.613313E-01 +1.012853E+00 -1.613313E-01 +3.736888E+02 -8.802623E+00 +1.012853E+00 -8.802623E+00 +9.789878E+02 
 +4.040837E+02 -6.861001E-01 +3.263629E+01 -6.861001E-01 +3.744808E+02 +3.511655E-01 +3.263629E+01 +3.511655E-01 +9.642117E+02 
 +4.428913E+02 -4.324044E+00 +2.352123E+01 -4.324044E+00 +3.933510E+02 +4.751640E+00 +2.352123E+01 +4.751640E+00 +9.806407E+02 
 +4.376103E+02 +7.966868E+00 -5.980098E+00 +7.966868E+00 +4.052831E+02 -3.220331E+00 -5.980098E+00 -3.220331E+00 +1.014225E+03 
 +4.138735E+02 +1.311561E+01 -2.438846E+01 +1.311561E+01 +3.971136E+02 -7.692427E+00 -2.438846E+01 -7.692427E+00 +1.026789E+03 
 +4.047245E+02 +1.370284E+01 -2.394420E+01 +1.370284E+01 +3.939318E+02 -7.350162E+00 -2.394420E+01 -7.350162E+00 +1.026229E+03 
 +4.131604E+02 +1.228365E+01 -1.694276E+01 +1.228365E+01 +4.003995E+02 -3.929509E+00 -1.694276E+01 -3.929509E+00 +1.033270E+03 
 +4.166339E+02 +1.921592E+01 -6.696917E+00 +1.921592E+01 +4.089824E+02 +8.124563E+00 -6.696917E+00 +8.124563E+00 +1.020639E+03 
 +3.658602E+02 +1.128626E+01 -8.296767E+00 +1.128626E+01 +3.702418E+02 +2.334994E+01 -8.296767E+00 +2.334994E+01 +9.805910E+02 
 +3.187853E+02 -2.463588E+01 -9.516061E+00 -2.463588E+01 +3.382246E+02 +2.329914E+01 -9.516061E+00 +2.329914E+01 +9.633064E+02 
 +3.198740E+02 -2.351636E+01 -7.486860E+00 -2.351636E+01 +3.520580E+02 +1.677948E+01 -7.486860E+00 +1.677948E+01 +9.763913E+02 
 +3.106740E+02 -2.356503E+01 -2.476268E+00 -2.356503E+01 +3.425741E+02 +1.941775E+01 -2.476268E+00 +1.941775E+01 +9.758276E+02 
 +3.073033E+02 -2.520340E+01 -1.617425E+00 -2.520340E+01 +3.368716E+02 +1.641137E+01 -1.617425E+00 +1.641137E+01 +9.668917E+02 
 +3.060822E+02 -2.041812E+01 -3.255671E+00 -2.041812E+01 +3.274478E+02 +8.681891E+00 -3.255671E+00 +8.681891E+00 +9.421498E+02 
 +3.286926E+02 -1.503248E+01 -5.982639E+00 -1.503248E+01 +3.395301E+02 -6.804548E+00 -5.982639E+00 -6.804548E+00 +9.463045E+02 
 +3.779336E+02 +1.439276E+01 -2.181193E+01 +1.439276E+01 +3.638760E+02 -1.693719E+01 -2.181193E+01 -1.693719E+01 +9.750092E+02 
 +3.703982E+02 +1.419463E+01 -2.187685E+01 +1.419463E+01 +3.541299E+02 -1.753662E+01 -2.187685E+01 -1.753662E+01 +9.728948E+02 
 +3.659281E+02 +1.989749E+01 -1.731664E+01 +1.989749E+01 +3.520667E+02 -1.982301E+01 -1.731664E+01 -1.982301E+01 +9.654552E+02 
 +3.615186E+02 +2.509301E+01 -1.525314E+01 +2.509301E+01 +3.521248E+02 -2.346760E+01 -1.525314E+01 -2.346760E+01 +9.616806E+02 
 +3.625510E+02 -4.099501E+00 -1.498059E+01 -4.099501E+00 +3.569870E+02 -2.428217E+01 -1.498059E+01 -2.428217E+01 +9.747716E+02 
 +3.758588E+02 -5.748713E+00 -1.032849E+01 -5.748713E+00 +3.726061E+02 -1.512139E+01 -1.032849E+01 -1.512139E+01 +9.902718E+02 
 +3.859033E+02 -5.838989E+00 -5.864353E+00 -5.838989E+00 +3.762002E+02 -9.731966E+00 -5.864353E+00 -9.731966E+00 +9.794383E+02 
 +4.060332E+02 -7.445047E+00 +2.024214E+01 -7.445047E+00 +3.854771E+02 -1.065888E+00 +2.024214E+01 -1.065888E+00 +9.739209E+02 
 +4.268984E+02 -1.430391E+01 +1.659736E+01 -1.430391E+01 +3.819034E+02 +3.971338E+00 +1.659736E+01 +3.971338E+00 +9.870507E+02 
 +4.278258E+02 -1.218037E+01 -3.520046E+00 -1.218037E+01 +3.658726E+02 -3.597671E+00 -3.520046E+00 -3.597671E+00 +1.011818E+03 
 +4.185868E+02 -7.481578E+00 -1.220979E+01 -7.481578E+00 +3.636759E+02 -8.255124E+00 -1.220979E+01 -8.255124E+00 +1.020631E+03 
 +3.969391E+02 +6.763063E+00 -1.833612E+01 +6.763063E+00 +3.677516E+02 -4.020768E+00 -1.833612E+01 -4.020768E+00 +1.009533E+03 
 +4.057844E+02 +9.824756E+00 -1.547313E+01 +9.824756E+00 +3.911859E+02 +2.437419E+00 -1.547313E+01 +2.437419E+00 +1.019407E+03 
 +3.995957E+02 +1.512118E+01 -5.216388E+00 +1.512118E+01 +4.045970E+02 +1.163770E+01 -5.216388E+00 +1.163770E+01 +1.011132E+03 
 +3.456040E+02 -1.569577E+01 -3.862176E+00 -1.569577E+01 +3.735640E+02 +1.547563E+01 -3.862176E+00 +1.547563E+01 +9.765887E+02 
 +3.149827E+02 -2.813817E+01 -2.426094E+00 -2.813817E+01 +3.479681E+02 +1.369235E+01 -2.426094E+00 +1.369235E+01 +9.691224E+02 
 +3.124095E+02 -2.216445E+01 +1.098665E+00 -2.216445E+01 +3.485700E+02 +1.353846E+01 +1.098665E+00 +1.353846E+01 +9.774075E+02 
 +3.059108E+02 -2.028797E+01 +4.265102E+00 -2.028797E+01 +3.487564E+02 +1.562039E+01 +4.265102E+00 +1.562039E+01 +9.760151E+02 
 +2.912292E+02 -2.138066E+01 +3.027476E+00 -2.138066E+01 +3.306678E+02 +1.488762E+01 +3.027476E+00 +1.488762E+01 +9.480768E+02 
 +3.305937E+02 -6.815123E+00 +9.412859E+00 -6.815123E+00 +3.416530E+02 +1.237675E+01 +9.412859E+00 +1.237675E+01 +9.229238E+02 
 +3.818140E+02 -2.106363E+00 +7.282349E+00 -2.106363E+00 +3.706238E+02 +2.953069E+00 +7.282349E+00 +2.953069E+00 +9.475197E+02 
 +3.813096E+02 +1.305808E+01 -1.779466E+01 +1.305808E+01 +3.663843E+02 -8.377967E+00 -1.779466E+01 -8.377967E+00 +9.713256E+02 
 +3.673277E+02 +1.137430E+01 -1.736165E+01 +1.137430E+01 +3.553077E+02 -1.388207E+01 -1.736165E+01 -1.388207E+01 +9.674328E+02 
 +3.650200E+02 +1.361962E+01 -1.679881E+01 +1.361962E+01 +3.523898E+02 -2.056704E+01 -1.679881E+01 -2.056704E+01 +9.621255E+02 
 +3.488010E+02 +2.082893E+01 -1.544002E+01 +2.082893E+01 +3.391965E+02 -2.682813E+01 -1.544002E+01 -2.682813E+01 +9.536898E+02 
 +3.648192E+02 +1.545899E+01 -7.818374E+00 +1.545899E+01 +3.461143E+02 -2.147031E+01 -7.818374E+00 -2.147031E+01 +9.823281E+02 
 +3.734485E+02 +1.622562E+01 -1.012065E+01 +1.622562E+01 +3.598971E+02 -1.684189E+01 -1.012065E+01 -1.684189E+01 +9.868939E+02 
 +3.814831E+02 +1.756508E+01 -5.755162E+00 +1.756508E+01 +3.591552E+02 -1.006116E+01 -5.755162E+00 -1.006116E+01 +9.827407E+02 
 +3.870239E+02 +1.267553E+01 +3.108212E+00 +1.267553E+01 +3.488624E+02 -2.829338E-01 +3.108212E+00 -2.829338E-01 +9.753560E+02 
 +3.730607E+02 +1.678642E+00 +2.042274E+00 +1.678642E+00 +3.352055E+02 +3.004710E+00 +2.042274E+00 +3.004710E+00 +9.771249E+02 
 +3.884162E+02 +1.136507E+00 -1.477487E+00 +1.136507E+00 +3.488414E+02 -3.503488E+00 -1.477487E+00 -3.503488E+00 +9.953557E+02 
 +4.238746E+02 -6.050340E+00 -2.422600E+00 -6.050340E+00 +3.768345E+02 -6.501539E+00 -2.422600E+00 -6.501539E+00 +1.014276E+03 
 +3.983261E+02 -1.311516E+01 -1.051634E+01 -1.311516E+01 +3.596196E+02 -1.186035E+00 -1.051634E+01 -1.186035E+00 +1.000437E+03 
 +3.763149E+02 -1.499939E+01 -9.461523E+00 -1.499939E+01 +3.407456E+02 +2.287581E+00 -9.461523E+00 +2.287581E+00 +9.852760E+02 
 +3.462746E+02 +6.349735E-01 -5.147818E+00 +6.349735E-01 +3.174399E+02 +7.960918E+00 -5.147818E+00 +7.960918E+00 +9.659030E+02 
 +3.403154E+02 -3.437988E+00 -4.759791E+00 -3.437988E+00 +3.359401E+02 +9.094097E+00 -4.759791E+00 +9.094097E+00 +9.676148E+02 
 +3.089953E+02 -2.022300E+01 -1.535901E+00 -2.022300E+01 +3.460236E+02 +4.747727E+00 -1.535901E+00 +4.747727E+00 +9.696983E+02 
 +3.102896E+02 -1.792932E+01 +4.087557E+00 -1.792932E+01 +3.478108E+02 +5.149339E+00 +4.087557E+00 +5.149339E+00 +9.751387E+02 
 +3.110825E+02 -1.223495E+01 +8.878377E+00 -1.223495E+01 +3.521353E+02 +9.076897E+00 +8.878377E+00 +9.076897E+00 +9.752252E+02 
 +2.957850E+02 -1.318980E+01 +9.764721E+00 -1.318980E+01 +3.380309E+02 +1.393779E+01 +9.764721E+00 +1.393779E+01 +9.436725E+02 
 +3.782358E+02 +4.736286E+00 +2.241792E+01 +4.736286E+00 +3.705829E+02 +1.482531E+01 +2.241792E+01 +1.482531E+01 +9.367472E+02 
 +3.892910E+02 +2.899123E-01 +1.843041E+01 +2.899123E-01 +3.722666E+02 +3.020142E+00 +1.843041E+01 +3.020142E+00 +9.446117E+02 
 +3.731990E+02 +1.299335E+01 -1.087437E+01 +1.299335E+01 +3.711249E+02 -6.872947E+00 -1.087437E+01 -6.872947E+00 +9.734557E+02 
 +3.709312E+02 +1.117779E+01 -1.608205E+01 +1.117779E+01 +3.645956E+02 -1.185858E+01 -1.608205E+01 -1.185858E+01 +9.762839E+02 
 +3.574997E+02 +1.573683E+01 -1.691480E+01 +1.573683E+01 +3.461260E+02 -2.114048E+01 -1.691480E+01 -2.114048E+01 +9.623868E+02 
 +3.592100E+02 +2.180977E+01 -1.184990E+01 +2.180977E+01 +3.422586E+02 -2.546060E+01 -1.184990E+01 -2.546060E+01 +9.739679E+02 
 +3.838441E+02 +1.670035E+01 +4.332543E-01 +1.670035E+01 +3.507435E+02 -1.463756E+01 +4.332543E-01 -1.463756E+01 +9.930970E+02 
 +3.806262E+02 +1.192339E+01 -4.794205E+00 +1.192339E+01 +3.547919E+02 -1.707347E+01 -4.794205E+00 -1.707347E+01 +9.903767E+02 
 +3.877621E+02 +9.134185E+00 -2.621534E+00 +9.134185E+00 +3.581126E+02 -1.086752E+01 -2.621534E+00 -1.086752E+01 +9.923939E+02 
 +3.897709E+02 +8.560949E+00 -6.756347E-01 +8.560949E+00 +3.637448E+02 -1.283380E+00 -6.756347E-01 -1.283380E+00 +9.841186E+02 
 +3.597773E+02 -3.539788E-02 -1.602570E+00 -3.539788E-02 +3.686069E+02 +4.459949E+00 -1.602570E+00 +4.459949E+00 +9.795500E+02 
 +3.541942E+02 -3.006507E+00 +3.125914E-01 -3.006507E+00 +3.710373E+02 +2.196316E+00 +3.125914E-01 +2.196316E+00 +9.807082E+02 
 +3.964239E+02 -7.956328E+00 -3.795314E-01 -7.956328E+00 +3.734543E+02 -3.824815E+00 -3.795314E-01 -3.824815E+00 +9.896725E+02 
 +3.829848E+02 -7.967189E+00 -1.439965E+00 -7.967189E+00 +3.459568E+02 -4.243099E+00 -1.439965E+00 -4.243099E+00 +9.818990E+02 
 +3.667023E+02 -5.004940E+00 -3.077183E+00 -5.004940E+00 +3.279819E+02 -4.245585E-01 -3.077183E+00 -4.245585E-01 +9.733783E+02 
 +3.533046E+02 -1.029632E+00 -1.518263E+00 -1.029632E+00 +3.103278E+02 +2.478038E+00 -1.518263E+00 +2.478038E+00 +9.662984E+02 
 +3.544658E+02 -2.607446E+00 +1.828858E+00 -2.607446E+00 +3.184884E+02 +1.654585E+00 +1.828858E+00 +1.654585E+00 +9.707680E+02 
 +3.164432E+02 -2.006095E+01 +6.633174E+00 -2.006095E+01 +3.385795E+02 -4.367151E+00 +6.633174E+00 -4.367151E+00 +9.697997E+02 
 +3.137832E+02 -1.674762E+01 +6.454318E+00 -1.674762E+01 +3.516041E+02 -4.624308E+00 +6.454318E+00 -4.624308E+00 +9.759978E+02 
 +3.100920E+02 -8.024383E+00 +5.780657E+00 -8.024383E+00 +3.403436E+02 +3.676370E+00 +5.780657E+00 +3.676370E+00 +9.734830E+02 
 +3.461025E+02 -3.885653E+00 +1.030540E+01 -3.885653E+00 +3.683782E+02 +1.290772E+01 +1.030540E+01 +1.290772E+01 +9.716656E+02 
 +3.991976E+02 +8.350908E+00 +2.708415E+01 +8.350908E+00 +3.834258E+02 +1.742448E+01 +2.708415E+01 +1.742448E+01 +9.605361E+02 
 +3.727285E+02 +6.987653E+00 +1.966600E+01 +6.987653E+00 +3.669735E+02 +7.235974E+00 +1.966600E+01 +7.235974E+00 +9.472127E+02 
 +3.703718E+02 +1.294717E+01 -6.824274E+00 +1.294717E+01 +3.806156E+02 -9.033785E-01 -6.824274E+00 -9.033785E-01 +9.726855E+02 
 +3.668664E+02 +3.806656E+00 -1.646239E+01 +3.806656E+00 +3.701480E+02 -6.272060E+00 -1.646239E+01 -6.272060E+00 +9.829926E+02 
 +3.618798E+02 +8.590190E+00 -2.117716E+01 +8.590190E+00 +3.491327E+02 -1.430880E+01 -2.117716E+01 -1.430880E+01 +9.808534E+02 
 +3.835826E+02 +1.991481E+01 -5.411715E+00 +1.991481E+01 +3.483825E+02 -1.491614E+01 -5.411715E+00 -1.491614E+01 +9.956521E+02 
 +3.930941E+02 +1.781264E+01 +1.695121E-02 +1.781264E+01 +3.639745E+02 -1.395389E+01 +1.695121E-02 -1.395389E+01 +9.996473E+02 
 +3.890525E+02 +1.058534E+01 -1.494562E+00 +1.058534E+01 +3.588936E+02 -1.204291E+01 -1.494562E+00 -1.204291E+01 +9.940043E+02 
 +3.879126E+02 +5.435833E+00 -1.451807E+00 +5.435833E+00 +3.636834E+02 -4.572623E+00 -1.451807E+00 -4.572623E+00 +9.870113E+02 
 +3.791755E+02 +3.236436E+00 -3.671545E-01 +3.236436E+00 +3.673249E+02 -3.931712E+00 -3.671545E-01 -3.931712E+00 +9.760413E+02 
 +3.311462E+02 -9.948926E-01 +1.193835E+00 -9.948926E-01 +3.512262E+02 -6.539032E+00 +1.193835E+00 -6.539032E+00 +9.658921E+02 
 +3.413925E+02 +1.177670E+00 +2.071209E+00 +1.177670E+00 +3.574052E+02 -7.510125E+00 +2.071209E+00 -7.510125E+00 +9.729072E+02 
 +3.701065E+02 +3.428365E+00 +1.924680E+00 +3.428365E+00 +3.579212E+02 -1.078966E+01 +1.924680E+00 -1.078966E+01 +9.714292E+02 
 +3.628053E+02 -2.988142E+00 +6.370784E+00 -2.988142E+00 +3.367807E+02 -4.560490E+00 +6.370784E+00 -4.560490E+00 +9.647315E+02 
 +3.584821E+02 -9.461789E-01 +5.884425E+00 -9.461789E-01 +3.235521E+02 +5.595089E-01 +5.884425E+00 +5.595089E-01 +9.603050E+02 
 +3.452297E+02 +2.715513E+00 +4.271672E+00 +2.715513E+00 +3.116902E+02 -5.318724E+00 +4.271672E+00 -5.318724E+00 +9.506566E+02 
 +3.419729E+02 +9.276438E+00 +2.601984E+00 +9.276438E+00 +2.984147E+02 -6.431108E+00 +2.601984E+00 -6.431108E+00 +9.501429E+02 
 +3.340177E+02 +1.396495E+00 +1.798071E+00 +1.396495E+00 +3.090247E+02 -9.130474E+00 +1.798071E+00 -9.130474E+00 +9.580611E+02 
 +3.047691E+02 -1.420053E+01 +3.387692E+00 -1.420053E+01 +3.297652E+02 -9.437026E+00 +3.387692E+00 -9.437026E+00 +9.631875E+02 
 +3.132535E+02 -5.876529E+00 +9.639514E-01 -5.876529E+00 +3.290690E+02 +3.119637E-01 +9.639514E-01 +3.119637E-01 +9.638171E+02 
 +3.576293E+02 +1.932142E+00 +6.297495E+00 +1.932142E+00 +3.249934E+02 +1.005759E+01 +6.297495E+00 +1.005759E+01 +9.602233E+02 
 +3.735761E+02 +8.154069E+00 +2.092571E+01 +8.154069E+00 +3.436809E+02 +1.343551E+01 +2.092571E+01 +1.343551E+01 +9.576455E+02 
 +3.810462E+02 +2.147740E+01 +1.574969E+01 +2.147740E+01 +3.769248E+02 +6.429464E+00 +1.574969E+01 +6.429464E+00 +9.706339E+02 
 +3.724627E+02 +2.682213E+01 -7.179309E-01 +2.682213E+01 +3.894741E+02 +2.901926E+00 -7.179309E-01 +2.901926E+00 +9.801018E+02 
 +3.741670E+02 +1.893592E+01 -1.185406E+01 +1.893592E+01 +3.915263E+02 -6.236817E+00 -1.185406E+01 -6.236817E+00 +9.903836E+02 
 +3.693104E+02 +1.923650E+01 -1.523605E+01 +1.923650E+01 +3.697625E+02 -1.849364E+01 -1.523605E+01 -1.849364E+01 +9.934780E+02 
 +3.924888E+02 +2.663676E+01 -2.954825E-01 +2.663676E+01 +3.677259E+02 -1.575692E+01 -2.954825E-01 -1.575692E+01 +1.003513E+03 
 +4.047529E+02 +1.993412E+01 +5.737632E-02 +1.993412E+01 +3.784873E+02 -8.946796E+00 +5.737632E-02 -8.946796E+00 +1.011028E+03 
 +3.926789E+02 +1.480005E+01 +4.337742E+00 +1.480005E+01 +3.723592E+02 -8.901695E+00 +4.337742E+00 -8.901695E+00 +1.001045E+03 
 +3.818823E+02 +8.524391E+00 +4.164404E+00 +8.524391E+00 +3.695139E+02 -8.243232E+00 +4.164404E+00 -8.243232E+00 +9.851015E+02 
 +3.771331E+02 +1.034764E+01 +3.489244E+00 +1.034764E+01 +3.734524E+02 -1.178803E+01 +3.489244E+00 -1.178803E+01 +9.792262E+02 
 +3.108233E+02 +3.173169E+00 +1.332366E+00 +3.173169E+00 +3.245692E+02 -2.034276E+01 +1.332366E+00 -2.034276E+01 +9.466453E+02 
 +3.272740E+02 +1.310928E+00 -1.280834E-01 +1.310928E+00 +3.133384E+02 -2.513756E+01 -1.280834E-01 -2.513756E+01 +9.478625E+02 
 +3.353034E+02 +3.034352E+00 +5.266506E+00 +3.034352E+00 +3.239511E+02 -2.524563E+01 +5.266506E+00 -2.524563E+01 +9.528776E+02 
 +3.393921E+02 -2.052079E+00 +8.375169E+00 -2.052079E+00 +3.276752E+02 -1.381402E+01 +8.375169E+00 -1.381402E+01 +9.503070E+02 
 +3.536205E+02 +9.995151E+00 +4.793982E+00 +9.995151E+00 +3.322350E+02 -1.046146E+01 +4.793982E+00 -1.046146E+01 +9.415862E+02 
 +3.617328E+02 +1.396557E+01 +1.620487E+00 +1.396557E+01 +3.500459E+02 -2.158914E+01 +1.620487E+00 -2.158914E+01 +9.370313E+02 
 +3.753308E+02 +1.487020E+01 -3.056667E+00 +1.487020E+01 +3.677182E+02 -1.837224E+01 -3.056667E+00 -1.837224E+01 +9.436238E+02 
 +3.753140E+02 +1.270639E+01 -1.032672E+01 +1.270639E+01 +3.600577E+02 -1.596904E+01 -1.032672E+01 -1.596904E+01 +9.518238E+02 
 +3.174128E+02 +5.009730E-01 +2.286269E+00 +5.009730E-01 +3.248648E+02 -1.551356E+01 +2.286269E+00 -1.551356E+01 +9.522619E+02 
 +3.313412E+02 +3.843926E-01 +4.932913E+00 +3.843926E-01 +3.400822E+02 -1.100934E+01 +4.932913E+00 -1.100934E+01 +9.592569E+02 
 +3.701531E+02 +5.189469E-01 +4.809882E+00 +5.189469E-01 +3.738012E+02 -6.592830E+00 +4.809882E+00 -6.592830E+00 +9.614985E+02 
 +3.770170E+02 -1.386425E+00 +1.249953E+01 -1.386425E+00 +3.832162E+02 +1.282692E+00 +1.249953E+01 +1.282692E+00 +9.628155E+02 
 +3.929197E+02 -1.011545E+00 +1.487262E+01 -1.011545E+00 +3.789764E+02 +1.048007E+01 +1.487262E+01 +1.048007E+01 +9.712944E+02 
 +3.806781E+02 +1.583993E+01 +9.321957E+00 +1.583993E+01 +3.915148E+02 +1.844924E+01 +9.321957E+00 +1.844924E+01 +9.841447E+02 
 +3.955999E+02 -7.015914E+00 +1.474593E-02 -7.015914E+00 +4.196091E+02 +1.921754E+01 +1.474593E-02 +1.921754E+01 +9.985130E+02 
 +3.726439E+02 -5.939276E+00 -5.706524E+00 -5.939276E+00 +3.848129E+02 +5.016458E+00 -5.706524E+00 +5.016458E+00 +9.834823E+02 
 +3.967978E+02 +1.994045E+01 +1.750988E+00 +1.994045E+01 +3.817261E+02 -5.429998E+00 +1.750988E+00 -5.429998E+00 +1.000059E+03 
 +4.000364E+02 +2.499088E+01 +5.465822E+00 +2.499088E+01 +3.766834E+02 -4.772340E+00 +5.465822E+00 -4.772340E+00 +1.004713E+03 
 +4.025790E+02 +2.245467E+01 +1.208588E+01 +2.245467E+01 +3.882879E+02 -2.036744E+00 +1.208588E+01 -2.036744E+00 +9.973042E+02 
 +3.792175E+02 +1.753728E+01 +1.395662E+01 +1.753728E+01 +3.708613E+02 -7.936236E+00 +1.395662E+01 -7.936236E+00 +9.863169E+02 
 +3.515319E+02 +2.059596E+01 +1.748925E+01 +2.059596E+01 +3.551045E+02 -1.493371E+01 +1.748925E+01 -1.493371E+01 +9.774227E+02 
 +3.261310E+02 -3.522525E-01 +9.091041E+00 -3.522525E-01 +3.525864E+02 -2.264804E+01 +9.091041E+00 -2.264804E+01 +9.507927E+02 
 +3.412082E+02 -4.435945E+00 +5.661253E+00 -4.435945E+00 +3.574113E+02 -2.547793E+01 +5.661253E+00 -2.547793E+01 +9.552608E+02 
 +3.219235E+02 -3.491384E+00 +1.335687E+01 -3.491384E+00 +3.202561E+02 -2.336098E+01 +1.335687E+01 -2.336098E+01 +9.550156E+02 
 +3.433128E+02 -1.117077E+00 +8.815199E+00 -1.117077E+00 +3.348873E+02 -1.787582E+01 +8.815199E+00 -1.787582E+01 +9.525485E+02 
 +3.591126E+02 +8.931838E+00 -6.063370E+00 +8.931838E+00 +3.596334E+02 -1.626397E+01 -6.063370E+00 -1.626397E+01 +9.351035E+02 
 +3.632121E+02 +1.427739E+01 -4.742499E+00 +1.427739E+01 +3.590769E+02 -1.818417E+01 -4.742499E+00 -1.818417E+01 +9.241734E+02 
 +3.744356E+02 +1.288555E+01 -4.483004E+00 +1.288555E+01 +3.636693E+02 -1.496204E+01 -4.483004E+00 -1.496204E+01 +9.234787E+02 
 +3.914503E+02 +8.088651E+00 -8.580926E+00 +8.088651E+00 +3.727085E+02 -1.126450E+01 -8.580926E+00 -1.126450E+01 +9.373273E+02 
 +3.437824E+02 -5.400042E+00 +1.034358E+01 -5.400042E+00 +3.548584E+02 -1.061667E+01 +1.034358E+01 -1.061667E+01 +9.559932E+02 
 +3.472152E+02 -9.703919E+00 +9.518637E+00 -9.703919E+00 +3.717790E+02 -1.246831E+01 +9.518637E+00 -1.246831E+01 +9.661530E+02 
 +3.485758E+02 -7.990648E+00 +7.160845E-01 -7.990648E+00 +3.765823E+02 -1.101216E+01 +7.160845E-01 -1.101216E+01 +9.491093E+02 
 +3.682083E+02 -3.907802E-01 +3.628090E+00 -3.907802E-01 +3.861097E+02 -6.571020E+00 +3.628090E+00 -6.571020E+00 +9.520691E+02 
 +3.977247E+02 +2.966745E+00 +9.921238E+00 +2.966745E+00 +4.114085E+02 +2.697684E+00 +9.921238E+00 +2.697684E+00 +9.607704E+02 
 +3.936249E+02 +1.976470E+01 +9.402424E+00 +1.976470E+01 +4.053187E+02 +1.621553E+01 +9.402424E+00 +1.621553E+01 +9.681374E+02 
 +4.134004E+02 -2.774903E+00 +4.629484E+00 -2.774903E+00 +4.152209E+02 +2.178071E+01 +4.629484E+00 +2.178071E+01 +9.961554E+02 
 +4.176775E+02 +2.082125E+00 -2.220204E+00 +2.082125E+00 +4.257456E+02 +9.527183E+00 -2.220204E+00 +9.527183E+00 +1.007254E+03 
 +4.093279E+02 +2.064578E+01 +1.123042E+00 +2.064578E+01 +3.956173E+02 -2.786154E+00 +1.123042E+00 -2.786154E+00 +1.005314E+03 
 +4.043275E+02 +1.992115E+01 +1.475132E+01 +1.992115E+01 +3.795628E+02 -5.804013E+00 +1.475132E+01 -5.804013E+00 +9.828927E+02 
 +4.001436E+02 +2.840091E+01 +2.474438E+01 +2.840091E+01 +3.797705E+02 -8.583746E+00 +2.474438E+01 -8.583746E+00 +9.633458E+02 
 +3.644347E+02 +8.411461E+00 +2.262654E+01 +8.411461E+00 +3.981257E+02 -9.417417E+00 +2.262654E+01 -9.417417E+00 +9.711145E+02 
 +3.527545E+02 +2.102296E+00 +2.190358E+01 +2.102296E+00 +3.974210E+02 -8.281944E+00 +2.190358E+01 -8.281944E+00 +9.850594E+02 
 +3.430516E+02 -9.041717E+00 +1.574993E+01 -9.041717E+00 +3.715069E+02 -6.785571E+00 +1.574993E+01 -6.785571E+00 +9.725223E+02 
 +3.417911E+02 -1.548753E+01 +1.298966E+01 -1.548753E+01 +3.740255E+02 -6.404850E+00 +1.298966E+01 -6.404850E+00 +9.726426E+02 
 +3.334285E+02 -2.039116E+01 +1.422998E+01 -2.039116E+01 +3.681545E+02 -2.625279E+00 +1.422998E+01 -2.625279E+00 +9.706563E+02 
 +3.501757E+02 -6.948634E+00 +5.258872E+00 -6.948634E+00 +3.581991E+02 -7.062264E+00 +5.258872E+00 -7.062264E+00 +9.537594E+02 
 +3.641816E+02 +1.452690E+00 -1.209397E+01 +1.452690E+00 +3.656939E+02 -1.754629E+01 -1.209397E+01 -1.754629E+01 +9.342768E+02 
 +3.770750E+02 +6.209029E+00 -7.843769E+00 +6.209029E+00 +3.782798E+02 -1.614499E+01 -7.843769E+00 -1.614499E+01 +9.334891E+02 
 +3.851196E+02 +4.274552E+00 -6.217102E+00 +4.274552E+00 +3.734246E+02 -1.205768E+01 -6.217102E+00 -1.205768E+01 +9.309531E+02 
 +4.047028E+02 -2.411095E+00 -6.079263E+00 -2.411095E+00 +3.833413E+02 -4.870940E+00 -6.079263E+00 -4.870940E+00 +9.486809E+02 
 +3.462460E+02 -1.325633E+01 +1.085577E+01 -1.325633E+01 +3.642862E+02 +8.976013E-01 +1.085577E+01 +8.976013E-01 +9.588210E+02 
 +3.455618E+02 -1.405722E+01 +6.379776E+00 -1.405722E+01 +3.704148E+02 -5.861072E+00 +6.379776E+00 -5.861072E+00 +9.615694E+02 
 +3.520189E+02 -1.100307E+01 -5.984109E-01 -1.100307E+01 +3.771394E+02 -1.040384E+01 -5.984109E-01 -1.040384E+01 +9.506777E+02 
 +3.635113E+02 -7.748011E+00 -3.323393E+00 -7.748011E+00 +3.847837E+02 -8.623921E+00 -3.323393E+00 -8.623921E+00 +9.488422E+02 
 +3.870163E+02 +2.512121E+00 -1.036536E+00 +2.512121E+00 +4.075385E+02 -1.143207E+00 -1.036536E+00 -1.143207E+00 +9.475474E+02 
 +3.987716E+02 +5.363013E+00 -2.677331E+00 +5.363013E+00 +4.059459E+02 +6.325637E+00 -2.677331E+00 +6.325637E+00 +9.526299E+02 
 +4.197442E+02 -1.041273E+01 -2.290255E+00 -1.041273E+01 +3.912935E+02 +6.717852E+00 -2.290255E+00 +6.717852E+00 +9.860643E+02 
 +4.215066E+02 -1.193942E+01 +4.670692E+00 -1.193942E+01 +4.000520E+02 +3.230623E+00 +4.670692E+00 +3.230623E+00 +1.008099E+03 
 +4.247386E+02 -4.353334E+00 +6.431088E+00 -4.353334E+00 +4.106318E+02 -1.810874E+00 +6.431088E+00 -1.810874E+00 +1.011244E+03 
 +4.143492E+02 -8.065071E+00 +1.399204E+01 -8.065071E+00 +3.981807E+02 -1.210033E+01 +1.399204E+01 -1.210033E+01 +9.658296E+02 
 +4.178976E+02 +1.392771E+01 +2.731348E+01 +1.392771E+01 +4.097353E+02 -9.829247E+00 +2.731348E+01 -9.829247E+00 +9.562142E+02 
 +3.465718E+02 +1.359965E+00 +1.212339E+01 +1.359965E+00 +3.954586E+02 -5.953129E+00 +1.212339E+01 -5.953129E+00 +9.546732E+02 
 +3.439674E+02 -4.236988E+00 +1.065198E+01 -4.236988E+00 +3.897340E+02 -2.107304E+00 +1.065198E+01 -2.107304E+00 +9.653351E+02 
 +3.385507E+02 -1.241138E+01 +1.181236E+01 -1.241138E+01 +3.773722E+02 +2.105662E+00 +1.181236E+01 +2.105662E+00 +9.642577E+02 
 +3.291128E+02 -1.726762E+01 +1.428744E+01 -1.726762E+01 +3.673295E+02 +3.009703E+00 +1.428744E+01 +3.009703E+00 +9.605033E+02 
 +3.344563E+02 -1.774771E+01 +1.291844E+01 -1.774771E+01 +3.797219E+02 +2.325656E+00 +1.291844E+01 +2.325656E+00 +9.580035E+02 
 +3.397720E+02 -9.959917E+00 +3.357470E+00 -9.959917E+00 +3.808483E+02 -6.218505E+00 +3.357470E+00 -6.218505E+00 +9.450473E+02 
 +3.695951E+02 +2.515966E-02 -1.107675E+01 +2.515966E-02 +3.764851E+02 -1.748353E+01 -1.107675E+01 -1.748353E+01 +9.380185E+02 
 +3.815687E+02 -2.045743E+00 -5.651708E+00 -2.045743E+00 +3.796648E+02 -1.555037E+01 -5.651708E+00 -1.555037E+01 +9.384596E+02 
 +3.958044E+02 -7.091738E+00 -5.377824E+00 -7.091738E+00 +3.864442E+02 -9.550058E+00 -5.377824E+00 -9.550058E+00 +9.418516E+02 
 +3.988421E+02 -1.271804E+01 -4.696069E+00 -1.271804E+01 +3.848609E+02 -1.762225E+00 -4.696069E+00 -1.762225E+00 +9.536596E+02 
 +3.547442E+02 -2.102466E+01 +4.637756E+00 -2.102466E+01 +3.657744E+02 +2.807687E+00 +4.637756E+00 +2.807687E+00 +9.573128E+02 
 +3.497575E+02 -2.148544E+01 -2.336238E+00 -2.148544E+01 +3.659223E+02 -5.931339E+00 -2.336238E+00 -5.931339E+00 +9.546426E+02 
 +3.521848E+02 -1.573474E+01 -7.416727E+00 -1.573474E+01 +3.684541E+02 -9.231087E+00 -7.416727E+00 -9.231087E+00 +9.452019E+02 
 +3.599433E+02 -9.756352E+00 -7.094923E+00 -9.756352E+00 +3.839490E+02 -7.618106E+00 -7.094923E+00 -7.618106E+00 +9.470929E+02 
 +3.751270E+02 +2.301873E+00 -4.458620E+00 +2.301873E+00 +3.861278E+02 -9.625234E-01 -4.458620E+00 -9.625234E-01 +9.454457E+02 
 +3.998685E+02 -7.917081E+00 -1.116921E+01 -7.917081E+00 +3.768350E+02 +6.957386E+00 -1.116921E+01 +6.957386E+00 +9.508870E+02 
 +4.263547E+02 -1.117376E+01 -1.028882E+01 -1.117376E+01 +3.917441E+02 +8.165168E+00 -1.028882E+01 +8.165168E+00 +9.853730E+02 
 +4.160230E+02 -7.432452E+00 +2.158703E+00 -7.432452E+00 +3.929536E+02 +6.520732E+00 +2.158703E+00 +6.520732E+00 +9.925994E+02 
 +4.205526E+02 -1.028283E+01 +4.681938E+00 -1.028283E+01 +4.040093E+02 -2.007711E+00 +4.681938E+00 -2.007711E+00 +9.905038E+02 
 +3.894739E+02 -5.603695E+00 +9.386458E+00 -5.603695E+00 +3.819691E+02 -1.650638E+01 +9.386458E+00 -1.650638E+01 +9.370545E+02 
 +4.130619E+02 +1.969493E+01 +1.736166E+01 +1.969493E+01 +4.031057E+02 -7.910301E+00 +1.736166E+01 -7.910301E+00 +9.407985E+02 
 +3.766203E+02 +4.862223E+00 +2.725847E+00 +4.862223E+00 +3.999483E+02 -3.199599E+00 +2.725847E+00 -3.199599E+00 +9.586208E+02 
 +3.363033E+02 -1.140923E+01 +3.759711E+00 -1.140923E+01 +3.885165E+02 -2.809406E+00 +3.759711E+00 -2.809406E+00 +9.554510E+02 
 +3.293476E+02 -1.540355E+01 +9.206917E+00 -1.540355E+01 +3.790704E+02 -2.782206E+00 +9.206917E+00 -2.782206E+00 +9.474813E+02 
 +3.300027E+02 -1.848484E+01 +1.164266E+01 -1.848484E+01 +3.727113E+02 +2.721774E+00 +1.164266E+01 +2.721774E+00 +9.483124E+02 
 +3.364766E+02 -8.884910E+00 +9.109496E+00 -8.884910E+00 +3.737465E+02 +5.801593E-02 +9.109496E+00 +5.801593E-02 +9.513123E+02 
 +3.301352E+02 -6.372515E+00 +2.257391E+00 -6.372515E+00 +3.680005E+02 -9.615117E+00 +2.257391E+00 -9.615117E+00 +9.443181E+02 
 +3.598257E+02 +1.599572E+01 -6.479660E+00 +1.599572E+01 +3.797340E+02 -1.089059E+01 -6.479660E+00 -1.089059E+01 +9.444927E+02 
 +3.655511E+02 +9.081860E+00 -2.346518E+00 +9.081860E+00 +3.826976E+02 -1.023372E+01 -2.346518E+00 -1.023372E+01 +9.398322E+02 
 +4.011423E+02 -6.295679E+00 -6.995632E+00 -6.295679E+00 +3.985157E+02 -9.289588E+00 -6.995632E+00 -9.289588E+00 +9.541802E+02 
 +3.910803E+02 -1.227042E+01 -3.766198E+00 -1.227042E+01 +3.856474E+02 -8.422141E+00 -3.766198E+00 -8.422141E+00 +9.515982E+02 
 +3.726954E+02 -1.343387E+01 +2.973895E-01 -1.343387E+01 +3.705807E+02 -1.482991E+01 +2.973895E-01 -1.482991E+01 +9.481733E+02 
 +3.568378E+02 -1.327685E+01 -7.678101E+00 -1.327685E+01 +3.597133E+02 -2.284791E+01 -7.678101E+00 -2.284791E+01 +9.371678E+02 
 +3.430470E+02 -5.547178E+00 -1.043902E+01 -5.547178E+00 +3.402597E+02 -1.980890E+01 -1.043902E+01 -1.980890E+01 +9.229800E+02 
 +3.491401E+02 +8.002141E+00 -2.500152E+00 +8.002141E+00 +3.379278E+02 -7.276029E+00 -2.500152E+00 -7.276029E+00 +9.366767E+02 
 +3.588809E+02 +1.632438E+01 +7.559874E-01 +1.632438E+01 +3.417511E+02 +5.623503E+00 +7.559874E-01 +5.623503E+00 +9.432108E+02 
 +3.956335E+02 +1.039292E+01 -6.609337E+00 +1.039292E+01 +3.683240E+02 +1.319890E+01 -6.609337E+00 +1.319890E+01 +9.504286E+02 
 +4.149651E+02 -5.573556E+00 -1.115605E+01 -5.573556E+00 +3.849627E+02 +9.671460E+00 -1.115605E+01 +9.671460E+00 +9.656879E+02 
 +4.024912E+02 -2.814802E+00 -4.256369E+00 -2.814802E+00 +3.862599E+02 -9.307771E-01 -4.256369E+00 -9.307771E-01 +9.698127E+02 
 +3.860740E+02 -1.032880E+01 -2.085691E+00 -1.032880E+01 +3.811484E+02 -1.387881E+01 -2.085691E+00 -1.387881E+01 +9.591414E+02 
 +4.040519E+02 +1.592647E+01 +9.982526E+00 +1.592647E+01 +4.178922E+02 -7.073749E+00 +9.982526E+00 -7.073749E+00 +9.370852E+02 
 +4.029422E+02 +3.009103E+01 +1.215491E+01 +3.009103E+01 +4.133512E+02 +1.472073E+00 +1.215491E+01 +1.472073E+00 +9.278734E+02 
 +3.857779E+02 +1.589240E+01 +1.439062E+00 +1.589240E+01 +4.068495E+02 +3.727043E+00 +1.439062E+00 +3.727043E+00 +9.520133E+02 
 +3.250705E+02 -1.417095E+01 -1.755577E+00 -1.417095E+01 +3.854207E+02 -2.626593E+00 -1.755577E+00 -2.626593E+00 +9.500461E+02 
 +3.374621E+02 -1.805042E+01 +8.105124E+00 -1.805042E+01 +3.872427E+02 -4.759877E+00 +8.105124E+00 -4.759877E+00 +9.533966E+02 
 +3.370449E+02 -2.229767E+01 +5.306528E+00 -2.229767E+01 +3.766983E+02 +3.210503E+00 +5.306528E+00 +3.210503E+00 +9.515532E+02 
 +3.426814E+02 -8.505991E+00 +1.010097E+00 -8.505991E+00 +3.753878E+02 +3.661024E+00 +1.010097E+00 +3.661024E+00 +9.554256E+02 
 +3.440388E+02 -1.171276E+01 -2.234039E+00 -1.171276E+01 +3.744165E+02 -6.519606E+00 -2.234039E+00 -6.519606E+00 +9.529347E+02 
 +3.564705E+02 +1.314965E+01 -4.694456E+00 +1.314965E+01 +3.848300E+02 -9.226057E+00 -4.694456E+00 -9.226057E+00 +9.541415E+02 
 +3.538768E+02 +1.188340E+01 -3.986956E+00 +1.188340E+01 +3.863741E+02 -9.497876E+00 -3.986956E+00 -9.497876E+00 +9.490295E+02 
 +3.936786E+02 +1.583368E+00 -1.265802E+01 +1.583368E+00 +4.012908E+02 -1.090844E+01 -1.265802E+01 -1.090844E+01 +9.530837E+02 
 +3.922786E+02 -4.247880E+00 -8.611854E+00 -4.247880E+00 +3.882320E+02 -1.051130E+01 -8.611854E+00 -1.051130E+01 +9.451347E+02 
 +3.880100E+02 -5.325128E+00 -2.850683E+00 -5.325128E+00 +3.788545E+02 -1.199480E+01 -2.850683E+00 -1.199480E+01 +9.443013E+02 
 +3.761265E+02 -8.090952E+00 -3.839711E+00 -8.090952E+00 +3.692414E+02 -1.851249E+01 -3.839711E+00 -1.851249E+01 +9.341877E+02 
 +3.651293E+02 -6.851374E+00 -3.932100E+00 -6.851374E+00 +3.575631E+02 -2.225049E+01 -3.932100E+00 -2.225049E+01 +9.286973E+02 
 +3.616992E+02 +6.501517E+00 +1.332818E-02 +6.501517E+00 +3.442402E+02 -1.355974E+01 +1.332818E-02 -1.355974E+01 +9.393540E+02 
 +3.654647E+02 +1.119352E+01 -7.100863E-01 +1.119352E+01 +3.399345E+02 +2.722827E+00 -7.100863E-01 +2.722827E+00 +9.414727E+02 
 +3.682556E+02 +8.626632E+00 -4.558799E+00 +8.626632E+00 +3.439738E+02 +7.323620E+00 -4.558799E+00 +7.323620E+00 +9.343452E+02 
 +3.817952E+02 -8.724045E+00 -6.334229E+00 -8.724045E+00 +3.619310E+02 +4.664210E-01 -6.334229E+00 +4.664210E-01 +9.457640E+02 
 +3.866054E+02 -1.279129E+00 -4.679253E+00 -1.279129E+00 +3.687594E+02 -4.607339E+00 -4.679253E+00 -4.607339E+00 +9.549420E+02 
 +3.919676E+02 +7.475321E-01 -1.789750E+00 +7.475321E-01 +3.876342E+02 -1.051101E+01 -1.789750E+00 -1.051101E+01 +9.523830E+02 
 +3.694064E+02 -1.702101E+00 +6.521579E+00 -1.702101E+00 +3.662685E+02 -2.307635E+01 +6.521579E+00 -2.307635E+01 +9.172168E+02 
 +3.931182E+02 +1.249481E+01 +1.309019E+01 +1.249481E+01 +4.057921E+02 -5.902658E+00 +1.309019E+01 -5.902658E+00 +9.313425E+02 
 +3.833696E+02 +1.480859E+00 +4.985108E-01 +1.480859E+00 +4.209346E+02 -3.116528E+00 +4.985108E-01 -3.116528E+00 +9.630889E+02 
 +3.458415E+02 -2.181538E+01 -7.072154E+00 -2.181538E+01 +3.966724E+02 -6.630423E+00 -7.072154E+00 -6.630423E+00 +9.635998E+02 
 +3.449989E+02 -2.295312E+01 +2.684402E+00 -2.295312E+01 +3.883459E+02 -6.490680E+00 +2.684402E+00 -6.490680E+00 +9.579533E+02 
 +3.432234E+02 -2.419054E+01 -6.929061E-01 -2.419054E+01 +3.790078E+02 +3.451146E+00 -6.929061E-01 +3.451146E+00 +9.549734E+02 
 +3.487598E+02 -9.291851E+00 -2.872605E+00 -9.291851E+00 +3.775909E+02 +5.700265E+00 -2.872605E+00 +5.700265E+00 +9.564786E+02 
 +3.447234E+02 -1.013762E+01 -5.381164E+00 -1.013762E+01 +3.751971E+02 -3.393217E+00 -5.381164E+00 -3.393217E+00 +9.502157E+02 
 +3.583888E+02 +1.677243E+01 -4.309637E+00 +1.677243E+01 +3.866961E+02 -8.559913E+00 -4.309637E+00 -8.559913E+00 +9.580139E+02 
 +3.669386E+02 +1.589829E+01 -5.629476E+00 +1.589829E+01 +3.918328E+02 -1.224581E+01 -5.629476E+00 -1.224581E+01 +9.601171E+02 
 +3.844327E+02 +5.031247E+00 -1.574878E+01 +5.031247E+00 +3.932805E+02 -1.741734E+01 -1.574878E+01 -1.741734E+01 +9.466066E+02 
 +3.903566E+02 -4.550166E-01 -1.422231E+01 -4.550166E-01 +3.894067E+02 -1.458764E+01 -1.422231E+01 -1.458764E+01 +9.410975E+02 
 +3.890761E+02 -3.035523E+00 -8.672563E+00 -3.035523E+00 +3.818423E+02 -1.432257E+01 -8.672563E+00 -1.432257E+01 +9.356788E+02 
 +3.883386E+02 -5.666835E+00 -1.768709E+00 -5.666835E+00 +3.791637E+02 -1.982464E+01 -1.768709E+00 -1.982464E+01 +9.311608E+02 
 +3.855837E+02 -9.190149E+00 -2.444294E+00 -9.190149E+00 +3.848272E+02 -2.178070E+01 -2.444294E+00 -2.178070E+01 +9.391286E+02 
 +3.770027E+02 -3.037874E+00 -4.547783E+00 -3.037874E+00 +3.785173E+02 -1.952222E+01 -4.547783E+00 -1.952222E+01 +9.424985E+02 
 +3.703689E+02 +3.148850E+00 -9.041330E+00 +3.148850E+00 +3.629530E+02 -1.001661E+01 -9.041330E+00 -1.001661E+01 +9.329344E+02 
 +3.786319E+02 +4.229794E+00 -1.324855E+01 +4.229794E+00 +3.582320E+02 -5.357683E+00 -1.324855E+01 -5.357683E+00 +9.310271E+02 
 +3.665407E+02 -4.257013E+00 -9.668802E+00 -4.257013E+00 +3.491385E+02 -3.563631E+00 -9.668802E+00 -3.563631E+00 +9.355013E+02 
 +3.634140E+02 +7.691331E-02 -1.280169E+01 +7.691331E-02 +3.488862E+02 -6.138088E+00 -1.280169E+01 -6.138088E+00 +9.377742E+02 
 +3.695621E+02 -1.075943E+00 -1.006562E+01 -1.075943E+00 +3.568858E+02 -2.197030E+01 -1.006562E+01 -2.197030E+01 +9.337010E+02 
 +3.720329E+02 +9.809726E+00 -1.493341E-01 +9.809726E+00 +3.902340E+02 -2.606378E+01 -1.493341E-01 -2.606378E+01 +9.376458E+02 
 +3.893686E+02 +1.017051E+01 +6.130847E+00 +1.017051E+01 +4.096529E+02 -1.713688E+01 +6.130847E+00 -1.713688E+01 +9.498062E+02 
 +3.965242E+02 +1.834042E+00 +2.991696E+00 +1.834042E+00 +4.120704E+02 -1.100836E+01 +2.991696E+00 -1.100836E+01 +9.716680E+02 
 +3.728991E+02 -2.052627E+01 -1.154370E+01 -2.052627E+01 +4.039430E+02 -6.715908E+00 -1.154370E+01 -6.715908E+00 +9.754069E+02 
 +3.621125E+02 -2.221898E+01 -7.913473E+00 -2.221898E+01 +3.917319E+02 -7.412603E+00 -7.913473E+00 -7.412603E+00 +9.692081E+02 
 +3.494453E+02 -2.266129E+01 -8.788839E+00 -2.266129E+01 +3.805503E+02 +6.645965E-01 -8.788839E+00 +6.645965E-01 +9.614227E+02 
 +3.511363E+02 -7.352790E+00 -1.153124E+01 -7.352790E+00 +3.772698E+02 +4.299369E+00 -1.153124E+01 +4.299369E+00 +9.596964E+02 
 +3.449443E+02 -8.309779E+00 -9.734704E+00 -8.309779E+00 +3.751188E+02 -3.123611E+00 -9.734704E+00 -3.123611E+00 +9.567571E+02 
 +3.561101E+02 +1.650445E+01 -3.197003E+00 +1.650445E+01 +3.883263E+02 -1.113045E+01 -3.197003E+00 -1.113045E+01 +9.583316E+02 
 +3.796859E+02 +8.371615E+00 -8.006092E+00 +8.371615E+00 +3.987922E+02 -2.093661E+01 -8.006092E+00 -2.093661E+01 +9.559967E+02 
 +3.904341E+02 -9.452292E-01 -1.588606E+01 -9.452292E-01 +3.923811E+02 -2.000049E+01 -1.588606E+01 -2.000049E+01 +9.476931E+02 
 +3.928394E+02 +5.157085E-01 -1.579865E+01 +5.157085E-01 +3.892130E+02 -1.422864E+01 -1.579865E+01 -1.422864E+01 +9.447614E+02 
 +3.903112E+02 -6.937605E-01 -1.514831E+01 -6.937605E-01 +3.846421E+02 -1.198332E+01 -1.514831E+01 -1.198332E+01 +9.354854E+02 
 +3.926681E+02 -1.033093E+00 -6.089023E+00 -1.033093E+00 +3.846659E+02 -1.293836E+01 -6.089023E+00 -1.293836E+01 +9.366850E+02 
 +3.888854E+02 -3.830641E+00 -5.963245E+00 -3.830641E+00 +3.900907E+02 -1.468126E+01 -5.963245E+00 -1.468126E+01 +9.427360E+02 
 +3.787598E+02 -2.421984E+00 -7.998131E+00 -2.421984E+00 +3.888158E+02 -1.636944E+01 -7.998131E+00 -1.636944E+01 +9.436835E+02 
 +3.699414E+02 +2.576411E+00 -1.792112E+01 +2.576411E+00 +3.639929E+02 -1.367037E+01 -1.792112E+01 -1.367037E+01 +9.321553E+02 
 +3.643788E+02 +4.044465E+00 -1.715849E+01 +4.044465E+00 +3.456711E+02 -8.556230E+00 -1.715849E+01 -8.556230E+00 +9.262807E+02 
 +3.625583E+02 -1.221154E+01 -1.412766E+01 -1.221154E+01 +3.563177E+02 -4.396701E+00 -1.412766E+01 -4.396701E+00 +9.417320E+02 
 +3.616997E+02 -1.076319E+01 -1.915758E+01 -1.076319E+01 +3.644661E+02 -6.444947E+00 -1.915758E+01 -6.444947E+00 +9.487559E+02 
 +3.544143E+02 -2.671441E+00 -1.667008E+01 -2.671441E+00 +3.596620E+02 -2.313804E+01 -1.667008E+01 -2.313804E+01 +9.373884E+02 
 +3.540817E+02 +2.780115E+01 -2.281747E+00 +2.780115E+01 +3.612726E+02 -3.093042E+01 -2.281747E+00 -3.093042E+01 +9.462282E+02 
 +3.636247E+02 +2.084930E+01 -1.473883E+00 +2.084930E+01 +3.704244E+02 -2.424921E+01 -1.473883E+00 -2.424921E+01 +9.514340E+02 
 +3.905274E+02 +1.686423E+01 -2.062327E+00 +1.686423E+01 +3.827799E+02 -1.120909E+01 -2.062327E+00 -1.120909E+01 +9.664769E+02 
 +3.643052E+02 -2.080443E+01 -1.536806E+01 -2.080443E+01 +3.689297E+02 +1.396792E+00 -1.536806E+01 +1.396792E+00 +9.606132E+02 
 +3.696846E+02 -2.099355E+01 -1.757550E+01 -2.099355E+01 +3.744938E+02 -9.343733E-02 -1.757550E+01 -9.343733E-02 +9.692174E+02 
 +3.368333E+02 -2.378310E+01 -1.267091E+01 -2.378310E+01 +3.666884E+02 -5.712982E-01 -1.267091E+01 -5.712982E-01 +9.580822E+02 
 +3.451771E+02 -1.583879E+01 -1.517706E+01 -1.583879E+01 +3.773565E+02 +2.457789E+00 -1.517706E+01 +2.457789E+00 +9.596307E+02 
 +3.473308E+02 -1.493597E+01 -1.222009E+01 -1.493597E+01 +3.788757E+02 -1.965216E+00 -1.222009E+01 -1.965216E+00 +9.612561E+02 
 +3.613041E+02 +1.646604E+01 -7.585149E+00 +1.646604E+01 +3.908722E+02 -1.184619E+01 -7.585149E+00 -1.184619E+01 +9.644635E+02 
 +4.018570E+02 +7.959611E+00 -1.421751E+01 +7.959611E+00 +4.078965E+02 -2.400589E+01 -1.421751E+01 -2.400589E+01 +9.677490E+02 
 +4.054362E+02 +2.303062E+00 -1.706908E+01 +2.303062E+00 +3.999673E+02 -2.045721E+01 -1.706908E+01 -2.045721E+01 +9.541122E+02 
 +3.980750E+02 +1.825982E+00 -1.905093E+01 +1.825982E+00 +3.922614E+02 -1.326441E+01 -1.905093E+01 -1.326441E+01 +9.455842E+02 
 +3.953564E+02 -1.206165E+00 -1.701357E+01 -1.206165E+00 +3.891382E+02 -1.368600E+01 -1.701357E+01 -1.368600E+01 +9.451659E+02 
 +3.953721E+02 -1.192717E+00 -1.099466E+01 -1.192717E+00 +3.869036E+02 -1.416091E+01 -1.099466E+01 -1.416091E+01 +9.488444E+02 
 +3.954248E+02 +3.024666E+00 -1.200876E+01 +3.024666E+00 +3.886666E+02 -1.198218E+01 -1.200876E+01 -1.198218E+01 +9.499911E+02 
 +3.851644E+02 +3.648356E+00 -1.234991E+01 +3.648356E+00 +3.806135E+02 -1.250098E+01 -1.234991E+01 -1.250098E+01 +9.457713E+02 
 +3.708462E+02 +6.016934E+00 -1.503748E+01 +6.016934E+00 +3.617648E+02 -1.158371E+01 -1.503748E+01 -1.158371E+01 +9.442828E+02 
 +3.275681E+02 +1.281112E+01 -7.303167E+00 +1.281112E+01 +3.419215E+02 +2.797860E+00 -7.303167E+00 +2.797860E+00 +9.411845E+02 
 +3.600694E+02 -5.314030E+00 -1.241408E+01 -5.314030E+00 +3.678854E+02 +7.868073E+00 -1.241408E+01 +7.868073E+00 +9.645960E+02 
 +3.615887E+02 -3.154098E+00 -1.374322E+01 -3.154098E+00 +3.708927E+02 -1.082722E+00 -1.374322E+01 -1.082722E+00 +9.641348E+02 
 +3.580204E+02 +4.045035E-01 -8.973990E+00 +4.045035E-01 +3.639686E+02 -2.074992E+01 -8.973990E+00 -2.074992E+01 +9.555728E+02 
 +3.629527E+02 +2.590291E+01 +1.577165E+00 +2.590291E+01 +3.709920E+02 -3.360854E+01 +1.577165E+00 -3.360854E+01 +9.683041E+02 
 +3.734262E+02 +1.304766E+01 -1.865705E+00 +1.304766E+01 +3.702379E+02 -2.149334E+01 -1.865705E+00 -2.149334E+01 +9.685966E+02 
 +3.779761E+02 +1.541056E+01 -9.570587E+00 +1.541056E+01 +3.725707E+02 -3.142660E+00 -9.570587E+00 -3.142660E+00 +9.698059E+02 
 +3.699002E+02 -2.187148E+01 -1.740460E+01 -2.187148E+01 +3.663126E+02 +7.358321E+00 -1.740460E+01 +7.358321E+00 +9.630160E+02 
 +3.773883E+02 -2.140941E+01 -1.935181E+01 -2.140941E+01 +3.738224E+02 +1.363418E+00 -1.935181E+01 +1.363418E+00 +9.707547E+02 
 +3.235718E+02 -2.159692E+01 -9.243861E+00 -2.159692E+01 +3.582406E+02 -3.546869E+00 -9.243861E+00 -3.546869E+00 +9.544465E+02 
 +3.309232E+02 -1.744030E+01 -1.138328E+01 -1.744030E+01 +3.700497E+02 -1.168687E+00 -1.138328E+01 -1.168687E+00 +9.562677E+02 
 +3.462104E+02 -1.590494E+01 -1.284033E+01 -1.590494E+01 +3.798716E+02 -3.548810E+00 -1.284033E+01 -3.548810E+00 +9.598476E+02 
 +3.934613E+02 +1.510103E+01 -6.846297E+00 +1.510103E+01 +4.040348E+02 -1.271865E+01 -6.846297E+00 -1.271865E+01 +9.773459E+02 
 +4.207876E+02 +3.270777E+00 -1.252306E+01 +3.270777E+00 +4.059665E+02 -2.565829E+01 -1.252306E+01 -2.565829E+01 +9.812447E+02 
 +4.075577E+02 +1.212537E+00 -1.381416E+01 +1.212537E+00 +3.926747E+02 -2.626156E+01 -1.381416E+01 -2.626156E+01 +9.624476E+02 
 +4.047607E+02 +2.454000E-01 -2.142434E+01 +2.454000E-01 +3.968281E+02 -1.807885E+01 -2.142434E+01 -1.807885E+01 +9.553840E+02 
 +4.019126E+02 -2.409407E+00 -2.091610E+01 -2.409407E+00 +3.927937E+02 -1.536914E+01 -2.091610E+01 -1.536914E+01 +9.548042E+02 
 +3.947147E+02 -1.756395E+00 -1.953100E+01 -1.756395E+00 +3.831480E+02 -1.353498E+01 -1.953100E+01 -1.353498E+01 +9.530921E+02 
 +3.913858E+02 +4.104552E-01 -2.054283E+01 +4.104552E-01 +3.782930E+02 -2.457474E+00 -2.054283E+01 -2.457474E+00 +9.532396E+02 
 +3.744803E+02 -1.698113E+01 -1.875215E+01 -1.698113E+01 +3.548056E+02 +1.083076E+01 -1.875215E+01 +1.083076E+01 +9.492568E+02 
 +3.622343E+02 -1.306507E+01 -1.377616E+01 -1.306507E+01 +3.440382E+02 +8.164924E+00 -1.377616E+01 +8.164924E+00 +9.552533E+02 
 +2.992831E+02 +8.282332E+00 -2.019736E+00 +8.282332E+00 +3.289337E+02 +1.042273E+01 -2.019736E+00 +1.042273E+01 +9.434407E+02 
 +3.562705E+02 -8.450307E+00 -1.007381E+01 -8.450307E+00 +3.709425E+02 +9.429357E+00 -1.007381E+01 +9.429357E+00 +9.705903E+02 
 +3.568888E+02 -2.805606E+00 -8.843109E+00 -2.805606E+00 +3.691146E+02 -3.022369E+00 -8.843109E+00 -3.022369E+00 +9.685430E+02 
 +3.573808E+02 -2.405403E+00 -2.131236E+00 -2.405403E+00 +3.713417E+02 -2.439584E+01 -2.131236E+00 -2.439584E+01 +9.704139E+02 
 +3.657057E+02 +2.362288E+01 +4.542613E+00 +2.362288E+01 +3.722319E+02 -3.317611E+01 +4.542613E+00 -3.317611E+01 +9.729055E+02 
 +3.712765E+02 +1.317023E+01 -4.752468E+00 +1.317023E+01 +3.666627E+02 -1.614677E+01 -4.752468E+00 -1.614677E+01 +9.696255E+02 
 +3.788805E+02 +1.501110E+01 -1.225968E+01 +1.501110E+01 +3.675144E+02 +2.241601E-01 -1.225968E+01 +2.241601E-01 +9.732004E+02 
 +3.744143E+02 -2.262113E+01 -1.644777E+01 -2.262113E+01 +3.648318E+02 +7.003283E+00 -1.644777E+01 +7.003283E+00 +9.706540E+02 
 +3.760779E+02 -1.911842E+01 -1.719594E+01 -1.911842E+01 +3.713412E+02 +1.002157E+00 -1.719594E+01 +1.002157E+00 +9.717125E+02 
 +3.196044E+02 -1.712997E+01 -9.619315E+00 -1.712997E+01 +3.512025E+02 -5.873281E+00 -9.619315E+00 -5.873281E+00 +9.556679E+02 
 +3.201239E+02 -1.590577E+01 -1.184379E+01 -1.590577E+01 +3.604640E+02 -5.177682E+00 -1.184379E+01 -5.177682E+00 +9.571152E+02 
 +3.536184E+02 -8.698556E+00 -1.178808E+01 -8.698556E+00 +3.805771E+02 -1.726580E+00 -1.178808E+01 -1.726580E+00 +9.620255E+02 
 +4.073397E+02 +1.492962E+01 -6.982349E+00 +1.492962E+01 +3.993555E+02 -8.657767E+00 -6.982349E+00 -8.657767E+00 +9.783188E+02 
 +4.297468E+02 +1.385409E+00 -1.090233E+01 +1.385409E+00 +4.119622E+02 -2.389535E+01 -1.090233E+01 -2.389535E+01 +9.884253E+02 
 +4.296038E+02 -2.932778E+00 -7.852530E+00 -2.932778E+00 +4.178334E+02 -2.487221E+01 -7.852530E+00 -2.487221E+01 +9.876744E+02 
 +4.064342E+02 -5.910826E+00 -1.538838E+01 -5.910826E+00 +3.914087E+02 -1.629137E+01 -1.538838E+01 -1.629137E+01 +9.649164E+02 
 +3.959198E+02 -1.189914E+01 -2.315973E+01 -1.189914E+01 +3.751378E+02 -1.038230E+01 -2.315973E+01 -1.038230E+01 +9.531496E+02 
 +3.849981E+02 -1.098291E+01 -2.703737E+01 -1.098291E+01 +3.634619E+02 -1.156754E+01 -2.703737E+01 -1.156754E+01 +9.518304E+02 
 +3.766485E+02 -5.147682E+00 -2.944337E+01 -5.147682E+00 +3.527647E+02 -3.176230E+00 -2.944337E+01 -3.176230E+00 +9.508552E+02 
 +3.613392E+02 -1.809745E+01 -2.807129E+01 -1.809745E+01 +3.465716E+02 +9.124557E+00 -2.807129E+01 +9.124557E+00 +9.592142E+02 
 +3.597390E+02 -9.154356E+00 -2.081089E+01 -9.154356E+00 +3.540623E+02 +2.107418E+00 -2.081089E+01 +2.107418E+00 +9.724802E+02 
 +3.017838E+02 +1.129115E+01 -6.250205E+00 +1.129115E+01 +3.323080E+02 +3.605469E+00 -6.250205E+00 +3.605469E+00 +9.502400E+02 
 +3.524511E+02 -1.245553E+01 -5.008735E+00 -1.245553E+01 +3.682458E+02 +7.586395E+00 -5.008735E+00 +7.586395E+00 +9.711283E+02 
 +3.554677E+02 -4.490188E+00 +7.386729E-01 -4.490188E+00 +3.721706E+02 -3.341134E+00 +7.386729E-01 -3.341134E+00 +9.718876E+02 
 +3.513287E+02 -4.494694E+00 +5.740826E+00 -4.494694E+00 +3.720754E+02 -2.694743E+01 +5.740826E+00 -2.694743E+01 +9.716637E+02 
 +3.671938E+02 +1.597883E+01 +1.084889E+01 +1.597883E+01 +3.774914E+02 -3.253294E+01 +1.084889E+01 -3.253294E+01 +9.811202E+02 
 +3.764873E+02 +5.112224E+00 +2.163068E+00 +5.112224E+00 +3.681349E+02 -1.590277E+01 +2.163068E+00 -1.590277E+01 +9.778011E+02 
 +3.847003E+02 +1.328473E+01 -5.105211E+00 +1.328473E+01 +3.605529E+02 -2.924289E+00 -5.105211E+00 -2.924289E+00 +9.813385E+02 
 +3.744114E+02 -1.959690E+01 -9.246031E+00 -1.959690E+01 +3.509089E+02 +3.602977E+00 -9.246031E+00 +3.602977E+00 +9.754469E+02 
 +3.679671E+02 -1.100750E+01 -9.951628E+00 -1.100750E+01 +3.592340E+02 +1.055764E-01 -9.951628E+00 +1.055764E-01 +9.715094E+02 
 +3.042410E+02 -1.617360E+01 -4.431921E+00 -1.617360E+01 +3.336959E+02 -7.293682E+00 -4.431921E+00 -7.293682E+00 +9.546727E+02 
 +3.272834E+02 -1.032764E+01 -5.765705E+00 -1.032764E+01 +3.485132E+02 -7.291077E+00 -5.765705E+00 -7.291077E+00 +9.603997E+02 
 +3.843883E+02 +2.232419E+00 -7.460042E+00 +2.232419E+00 +3.818838E+02 -9.183369E-01 -7.460042E+00 -9.183369E-01 +9.681766E+02 
 +4.031828E+02 +2.546752E+01 -1.280656E+01 +2.546752E+01 +3.884706E+02 -6.956685E+00 -1.280656E+01 -6.956685E+00 +9.773600E+02 
 +4.089405E+02 +1.866562E+01 -1.056845E+01 +1.866562E+01 +3.923719E+02 -1.883052E+01 -1.056845E+01 -1.883052E+01 +9.833130E+02 
 +4.245245E+02 +5.325605E+00 -2.065199E+00 +5.325605E+00 +4.121247E+02 -2.035079E+01 -2.065199E+00 -2.035079E+01 +9.864537E+02 
 +4.099770E+02 -8.272890E+00 -5.451017E+00 -8.272890E+00 +3.980554E+02 -1.283376E+01 -5.451017E+00 -1.283376E+01 +9.675626E+02 
 +3.894431E+02 -1.038379E+01 -2.150392E+01 -1.038379E+01 +3.681728E+02 -9.192083E+00 -2.150392E+01 -9.192083E+00 +9.489078E+02 
 +3.784444E+02 -1.188888E+01 -2.661830E+01 -1.188888E+01 +3.538390E+02 -1.047004E+01 -2.661830E+01 -1.047004E+01 +9.484927E+02 
 +3.651322E+02 -1.019290E+01 -2.834743E+01 -1.019290E+01 +3.380736E+02 -5.726835E-01 -2.834743E+01 -5.726835E-01 +9.473967E+02 
 +3.375581E+02 -2.363272E+01 -2.908642E+01 -2.363272E+01 +3.310376E+02 +7.560034E+00 -2.908642E+01 +7.560034E+00 +9.467801E+02 
 +3.469687E+02 -1.633318E+01 -2.046178E+01 -1.633318E+01 +3.526630E+02 -1.187107E+00 -2.046178E+01 -1.187107E+00 +9.630632E+02 
 +3.023959E+02 +9.396510E+00 -4.475849E+00 +9.396510E+00 +3.363876E+02 -2.113911E+00 -4.475849E+00 -2.113911E+00 +9.546599E+02 
 +3.581064E+02 -1.726581E+01 +1.305554E+00 -1.726581E+01 +3.722932E+02 +4.136204E+00 +1.305554E+00 +4.136204E+00 +9.790968E+02 
 +3.538212E+02 -6.120378E+00 +1.142585E+01 -6.120378E+00 +3.740843E+02 -5.461825E+00 +1.142585E+01 -5.461825E+00 +9.749873E+02 
 +3.555946E+02 -7.329992E+00 +1.586132E+01 -7.329992E+00 +3.778390E+02 -2.918152E+01 +1.586132E+01 -2.918152E+01 +9.799049E+02 
 +3.900398E+02 +1.956335E+01 +1.485730E+01 +1.956335E+01 +3.887708E+02 -2.961292E+01 +1.485730E+01 -2.961292E+01 +9.955234E+02 
 +3.853664E+02 +1.647137E+01 +1.092098E+01 +1.647137E+01 +3.640575E+02 -1.707494E+01 +1.092098E+01 -1.707494E+01 +9.858766E+02 
 +3.827887E+02 +2.395215E+01 +6.040751E+00 +2.395215E+01 +3.511421E+02 -5.746195E+00 +6.040751E+00 -5.746195E+00 +9.865487E+02 
 +3.501718E+02 -1.699760E+01 +5.771336E+00 -1.699760E+01 +3.321278E+02 -2.365289E+00 +5.771336E+00 -2.365289E+00 +9.709034E+02 
 +3.594091E+02 -1.018792E+01 +7.826104E+00 -1.018792E+01 +3.483779E+02 +2.055073E+00 +7.826104E+00 +2.055073E+00 +9.755238E+02 
 +3.308206E+02 -1.306612E+01 +4.898312E+00 -1.306612E+01 +3.428061E+02 -1.566130E+00 +4.898312E+00 -1.566130E+00 +9.757820E+02 
 +3.745844E+02 +9.146954E+00 -2.003712E-01 +9.146954E+00 +3.667749E+02 -1.011363E+01 -2.003712E-01 -1.011363E+01 +9.863115E+02 
 +3.961108E+02 +1.233763E+01 -2.968568E+00 +1.233763E+01 +3.811544E+02 -5.363143E+00 -2.968568E+00 -5.363143E+00 +9.792636E+02 
 +4.040533E+02 +2.257096E+01 -6.510619E+00 +2.257096E+01 +3.869879E+02 -1.049889E+00 -6.510619E+00 -1.049889E+00 +9.807527E+02 
 +3.960777E+02 +2.175218E+01 -5.957219E+00 +2.175218E+01 +3.774481E+02 +8.875452E-01 -5.957219E+00 +8.875452E-01 +9.758500E+02 
 +3.903156E+02 +1.730019E+01 -3.959683E+00 +1.730019E+01 +3.743345E+02 +7.894516E-01 -3.959683E+00 +7.894516E-01 +9.674230E+02 
 +4.086141E+02 -2.512648E+00 -7.277562E+00 -2.512648E+00 +3.951050E+02 -2.123139E+00 -7.277562E+00 -2.123139E+00 +9.666827E+02 
 +3.992033E+02 -8.813300E+00 -1.856800E+01 -8.813300E+00 +3.806408E+02 -5.593259E+00 -1.856800E+01 -5.593259E+00 +9.616971E+02 
 +3.740978E+02 -2.839376E+00 -2.002592E+01 -2.839376E+00 +3.489475E+02 -2.138201E+00 -2.002592E+01 -2.138201E+00 +9.535508E+02 
 +3.441100E+02 -3.052551E-01 -1.474712E+01 -3.052551E-01 +3.362852E+02 -6.303860E+00 -1.474712E+01 -6.303860E+00 +9.410495E+02 
 +3.192481E+02 -6.815140E+00 -1.185434E+01 -6.815140E+00 +3.384557E+02 -2.105001E+01 -1.185434E+01 -2.105001E+01 +9.365151E+02 
 +3.229107E+02 -1.112951E+01 -4.609386E+00 -1.112951E+01 +3.538829E+02 -2.537848E+01 -4.609386E+00 -2.537848E+01 +9.482476E+02 
 +2.974851E+02 +3.736346E+00 +1.394777E+01 +3.736346E+00 +3.352241E+02 -9.910542E+00 +1.394777E+01 -9.910542E+00 +9.496622E+02 
 +3.512497E+02 -2.163243E+01 +1.524762E+01 -2.163243E+01 +3.635329E+02 +1.752216E-01 +1.524762E+01 +1.752216E-01 +9.739239E+02 
 +3.567333E+02 -1.188256E+01 +2.601845E+01 -1.188256E+01 +3.682408E+02 -7.791614E+00 +2.601845E+01 -7.791614E+00 +9.739897E+02 
 +3.655944E+02 -7.278643E+00 +2.226722E+01 -7.278643E+00 +3.793394E+02 -2.450160E+01 +2.226722E+01 -2.450160E+01 +9.859395E+02 
 +4.022876E+02 +6.545213E+00 +2.356575E+00 +6.545213E+00 +4.290496E+02 -1.614251E+01 +2.356575E+00 -1.614251E+01 +9.931009E+02 
 +3.904073E+02 -5.896123E+00 +6.957509E-01 -5.896123E+00 +3.898313E+02 -1.338143E+01 +6.957509E-01 -1.338143E+01 +9.857371E+02 
 +3.709480E+02 -1.032892E+01 -1.341956E-01 -1.032892E+01 +3.541438E+02 -1.961050E+01 -1.341956E-01 -1.961050E+01 +9.745803E+02 
 +3.476558E+02 -2.801405E+01 +8.745765E+00 -2.801405E+01 +3.337647E+02 -1.603343E+01 +8.745765E+00 -1.603343E+01 +9.631891E+02 
 +3.886965E+02 -2.914237E-01 +1.782140E+01 -2.914237E-01 +3.638232E+02 +1.877098E+00 +1.782140E+01 +1.877098E+00 +9.649991E+02 
 +3.856231E+02 +5.097655E-01 +9.101593E+00 +5.097655E-01 +3.652196E+02 +7.593046E+00 +9.101593E+00 +7.593046E+00 +9.652451E+02 
 +3.823039E+02 +1.931696E+01 -1.079955E+01 +1.931696E+01 +3.740538E+02 +5.716118E-01 -1.079955E+01 +5.716118E-01 +9.979193E+02 
 +3.786767E+02 +2.121121E+01 -1.201280E+01 +2.121121E+01 +3.740465E+02 -4.502518E+00 -1.201280E+01 -4.502518E+00 +1.001214E+03 
 +3.857337E+02 +2.270011E+01 -6.259291E+00 +2.270011E+01 +3.810051E+02 -4.344724E+00 -6.259291E+00 -4.344724E+00 +9.841552E+02 
 +3.951554E+02 +2.479805E+01 -4.553883E+00 +2.479805E+01 +3.871079E+02 -2.144403E+00 -4.553883E+00 -2.144403E+00 +9.719914E+02 
 +3.932779E+02 +3.191197E+01 -6.664004E+00 +3.191197E+01 +3.824157E+02 +6.395049E+00 -6.664004E+00 +6.395049E+00 +9.652764E+02 
 +3.980716E+02 +1.358386E+01 -8.288820E+00 +1.358386E+01 +3.768685E+02 +3.517834E+00 -8.288820E+00 +3.517834E+00 +9.622400E+02 
 +3.829768E+02 -4.724919E+00 -6.080040E+00 -4.724919E+00 +3.665522E+02 -2.310346E+00 -6.080040E+00 -2.310346E+00 +9.408448E+02 
 +3.542703E+02 -4.576553E+00 -4.634081E+00 -4.576553E+00 +3.557852E+02 +3.378247E-02 -4.634081E+00 +3.378247E-02 +9.312441E+02 
 +3.223193E+02 -1.980859E+01 -2.890859E+00 -1.980859E+01 +3.416280E+02 +2.847543E+00 -2.890859E+00 +2.847543E+00 +9.386110E+02 
 +3.076103E+02 -2.757268E+01 -2.155183E+00 -2.757268E+01 +3.380402E+02 +5.223717E+00 -2.155183E+00 +5.223717E+00 +9.457166E+02 
 +2.925380E+02 -3.012532E+01 +1.001500E+00 -3.012532E+01 +3.255568E+02 -4.915707E+00 +1.001500E+00 -4.915707E+00 +9.388823E+02 
 +3.508004E+02 +2.737241E+00 +2.167346E+01 +2.737241E+00 +3.481932E+02 -2.223296E+01 +2.167346E+01 -2.223296E+01 +9.554440E+02 
 +3.764339E+02 +1.427877E+00 +2.005001E+01 +1.427877E+00 +3.745826E+02 -2.674268E+01 +2.005001E+01 -2.674268E+01 +9.628164E+02 
 +3.923206E+02 +1.014840E+01 +2.683071E+01 +1.014840E+01 +4.078769E+02 -2.223351E+01 +2.683071E+01 -2.223351E+01 +9.684540E+02 
 +3.679102E+02 +8.505112E+00 +1.822817E+01 +8.505112E+00 +4.202611E+02 -1.681386E+01 +1.822817E+01 -1.681386E+01 +9.679554E+02 
 +3.677357E+02 -7.267846E-01 -4.659705E+00 -7.267846E-01 +3.975456E+02 -9.129784E+00 -4.659705E+00 -9.129784E+00 +9.704938E+02 
 +3.796004E+02 +5.132783E+00 -5.627022E+00 +5.132783E+00 +3.853421E+02 -1.006644E+01 -5.627022E+00 -1.006644E+01 +9.794453E+02 
 +3.783040E+02 -4.873873E-01 -9.339455E+00 -4.873873E-01 +3.660294E+02 -1.248402E+01 -9.339455E+00 -1.248402E+01 +9.681109E+02 
 +4.063338E+02 +1.325586E+00 +9.168091E+00 +1.325586E+00 +3.856175E+02 -5.890921E+00 +9.168091E+00 -5.890921E+00 +9.754292E+02 
 +4.208919E+02 +4.108537E+00 +8.601929E+00 +4.108537E+00 +3.913135E+02 +4.608961E+00 +8.601929E+00 +4.608961E+00 +9.583476E+02 
 +4.124841E+02 -6.734096E-01 -1.693234E+00 -6.734096E-01 +3.849189E+02 +3.052545E+00 -1.693234E+00 +3.052545E+00 +9.595081E+02 
 +3.869372E+02 +1.024179E+01 -2.000591E+01 +1.024179E+01 +3.873688E+02 -5.620152E+00 -2.000591E+01 -5.620152E+00 +1.001900E+03 
 +3.908336E+02 +1.395630E+01 -1.693683E+01 +1.395630E+01 +3.864235E+02 -7.678723E+00 -1.693683E+01 -7.678723E+00 +1.023336E+03 
 +3.878698E+02 +1.937160E+01 -8.768639E+00 +1.937160E+01 +3.789962E+02 -5.982867E+00 -8.768639E+00 -5.982867E+00 +9.974119E+02 
 +3.970494E+02 +2.037571E+01 -3.443695E+00 +2.037571E+01 +3.807727E+02 -1.862374E+00 -3.443695E+00 -1.862374E+00 +9.769460E+02 
 +4.075210E+02 +2.482824E+01 -8.135118E+00 +2.482824E+01 +3.935309E+02 +6.248918E+00 -8.135118E+00 +6.248918E+00 +9.798715E+02 
 +3.917171E+02 -1.475614E+01 -1.029136E+01 -1.475614E+01 +3.750020E+02 +4.060368E+00 -1.029136E+01 +4.060368E+00 +9.765914E+02 
 +3.471659E+02 -2.089991E+01 -5.549875E+00 -2.089991E+01 +3.377896E+02 +4.858816E+00 -5.549875E+00 +4.858816E+00 +9.509488E+02 
 +3.182435E+02 -1.917845E+01 +3.645247E+00 -1.917845E+01 +3.348716E+02 +1.273893E+01 +3.645247E+00 +1.273893E+01 +9.441494E+02 
 +3.045006E+02 -2.051291E+01 +4.783005E+00 -2.051291E+01 +3.368860E+02 +9.214738E+00 +4.783005E+00 +9.214738E+00 +9.532101E+02 
 +2.987798E+02 -1.923764E+01 +2.158222E+00 -1.923764E+01 +3.386408E+02 +3.619016E+00 +2.158222E+00 +3.619016E+00 +9.561470E+02 
 +2.896047E+02 -2.551709E+01 +1.885426E+00 -2.551709E+01 +3.235466E+02 -5.304057E+00 +1.885426E+00 -5.304057E+00 +9.359540E+02 
 +3.783450E+02 -5.994126E-01 +2.190291E+01 -5.994126E-01 +3.682221E+02 -1.986981E+01 +2.190291E+01 -1.986981E+01 +9.540249E+02 
 +3.743960E+02 -7.783208E+00 +1.889419E+01 -7.783208E+00 +3.742375E+02 -2.736886E+01 +1.889419E+01 -2.736886E+01 +9.447582E+02 
 +3.836795E+02 -4.263395E+00 +2.248024E+01 -4.263395E+00 +3.925097E+02 -2.372847E+01 +2.248024E+01 -2.372847E+01 +9.463133E+02 
 +3.599884E+02 +3.098227E+00 +2.097453E+01 +3.098227E+00 +3.938673E+02 -1.409748E+01 +2.097453E+01 -1.409748E+01 +9.445855E+02 
 +3.745750E+02 -2.551549E+00 -1.011260E+01 -2.551549E+00 +3.753115E+02 -1.177141E+01 -1.011260E+01 -1.177141E+01 +9.803285E+02 
 +3.749028E+02 +7.358718E+00 -6.349086E+00 +7.358718E+00 +3.716605E+02 -7.231593E+00 -6.349086E+00 -7.231593E+00 +9.860685E+02 
 +3.950398E+02 +3.606068E+00 -8.224923E+00 +3.606068E+00 +3.803598E+02 -4.389159E+00 -8.224923E+00 -4.389159E+00 +9.858834E+02 
 +4.207391E+02 +3.517217E+00 +1.281860E+01 +3.517217E+00 +3.925486E+02 -2.422934E+00 +1.281860E+01 -2.422934E+00 +9.832628E+02 
 +4.210951E+02 -1.295382E+00 +3.614441E+00 -1.295382E+00 +3.909751E+02 +2.427332E+00 +3.614441E+00 +2.427332E+00 +9.543880E+02 
 +4.223917E+02 +1.300805E+00 -4.117283E+00 +1.300805E+00 +3.970493E+02 +3.083919E+00 -4.117283E+00 +3.083919E+00 +9.618423E+02 
 +4.011362E+02 +1.063494E+01 -1.975765E+01 +1.063494E+01 +3.943204E+02 -6.730006E+00 -1.975765E+01 -6.730006E+00 +1.005983E+03 
 +3.938935E+02 +1.436317E+01 -2.100774E+01 +1.436317E+01 +3.924815E+02 -8.922881E+00 -2.100774E+01 -8.922881E+00 +1.026841E+03 
 +3.946828E+02 +2.228562E+01 -1.291361E+01 +2.228562E+01 +3.846339E+02 -4.480322E+00 -1.291361E+01 -4.480322E+00 +1.010174E+03 
 +3.941208E+02 +1.705677E+01 -3.504753E+00 +1.705677E+01 +3.826078E+02 +1.483956E+00 -3.504753E+00 +1.483956E+00 +9.908615E+02 
 +3.965928E+02 +2.152075E+01 -2.926019E+00 +2.152075E+01 +3.859275E+02 +5.480244E+00 -2.926019E+00 +5.480244E+00 +9.881445E+02 
 +3.693666E+02 -2.832731E+01 -4.499775E+00 -2.832731E+01 +3.613310E+02 +6.051316E+00 -4.499775E+00 +6.051316E+00 +9.813056E+02 
 +3.309025E+02 -1.866547E+01 -1.507849E+00 -1.866547E+01 +3.396040E+02 +1.028195E+01 -1.507849E+00 +1.028195E+01 +9.674049E+02 
 +3.194053E+02 -1.967432E+01 +2.676983E+00 -1.967432E+01 +3.428941E+02 +1.622034E+01 +2.676983E+00 +1.622034E+01 +9.675749E+02 
 +3.106405E+02 -1.883899E+01 +5.649894E+00 -1.883899E+01 +3.406584E+02 +1.412684E+01 +5.649894E+00 +1.412684E+01 +9.647059E+02 
 +3.041933E+02 -1.751339E+01 +3.678157E+00 -1.751339E+01 +3.412501E+02 +6.112349E+00 +3.678157E+00 +6.112349E+00 +9.621336E+02 
 +2.912681E+02 -2.302726E+01 +9.685938E-01 -2.302726E+01 +3.329879E+02 -1.480424E+00 +9.685938E-01 -1.480424E+00 +9.378916E+02 
 +3.637396E+02 +6.295223E+00 +1.225395E+01 +6.295223E+00 +3.687585E+02 -1.594606E+01 +1.225395E+01 -1.594606E+01 +9.443737E+02 
 +3.686770E+02 +1.851819E-01 +1.205586E+01 +1.851819E-01 +3.702877E+02 -2.491815E+01 +1.205586E+01 -2.491815E+01 +9.431431E+02 
 +3.709592E+02 +4.634192E+00 +1.168540E+01 +4.634192E+00 +3.662193E+02 -2.156637E+01 +1.168540E+01 -2.156637E+01 +9.377494E+02 
 +3.748439E+02 +1.059932E+01 +1.303821E+01 +1.059932E+01 +3.691656E+02 -1.631330E+01 +1.303821E+01 -1.631330E+01 +9.489964E+02 
 +3.748181E+02 -2.226714E+00 -1.261313E+01 -2.226714E+00 +3.634557E+02 -1.770901E+01 -1.261313E+01 -1.770901E+01 +9.840586E+02 
 +3.784808E+02 -1.124864E-01 -9.234208E+00 -1.124864E-01 +3.688726E+02 -9.327754E+00 -9.234208E+00 -9.327754E+00 +9.892186E+02 
 +3.967823E+02 -1.569650E+00 -1.000535E+01 -1.569650E+00 +3.773703E+02 -6.223717E+00 -1.000535E+01 -6.223717E+00 +9.904003E+02 
 +4.184994E+02 +3.425932E-01 +1.682467E+01 +3.425932E-01 +3.904458E+02 -2.502395E+00 +1.682467E+01 -2.502395E+00 +9.868687E+02 
 +4.333517E+02 -1.484629E+00 +5.327328E+00 -1.484629E+00 +4.007711E+02 +1.559954E+00 +5.327328E+00 +1.559954E+00 +9.634641E+02 
 +4.393958E+02 -2.639183E+00 -4.345292E+00 -2.639183E+00 +4.110610E+02 +1.654432E+00 -4.345292E+00 +1.654432E+00 +9.685908E+02 
 +4.153110E+02 +4.850770E+00 -2.180976E+01 +4.850770E+00 +4.025372E+02 -5.364402E+00 -2.180976E+01 -5.364402E+00 +1.011615E+03 
 +3.978016E+02 +1.039131E+01 -2.312322E+01 +1.039131E+01 +3.948945E+02 -3.332013E+00 -2.312322E+01 -3.332013E+00 +1.024873E+03 
 +3.984748E+02 +1.644364E+01 -1.295554E+01 +1.644364E+01 +3.927222E+02 +1.026670E+00 -1.295554E+01 +1.026670E+00 +1.012435E+03 
 +4.066772E+02 +2.612525E+01 -1.951205E+00 +2.612525E+01 +4.018611E+02 +4.580890E+00 -1.951205E+00 +4.580890E+00 +1.008033E+03 
 +3.792717E+02 +2.019800E+01 +2.576953E+00 +2.019800E+01 +3.701477E+02 +3.804351E+00 +2.576953E+00 +3.804351E+00 +9.900150E+02 
 +3.245113E+02 -2.362461E+01 -1.350739E-01 -2.362461E+01 +3.339147E+02 +4.730546E+00 -1.350739E-01 +4.730546E+00 +9.716295E+02 
 +3.213790E+02 -1.909699E+01 -4.199166E-01 -1.909699E+01 +3.490636E+02 +1.204745E+01 -4.199166E-01 +1.204745E+01 +9.750626E+02 
 +3.180209E+02 -1.969164E+01 +3.472794E+00 -1.969164E+01 +3.441175E+02 +1.612334E+01 +3.472794E+00 +1.612334E+01 +9.708803E+02 
 +3.112215E+02 -1.957338E+01 +6.680177E+00 -1.957338E+01 +3.417136E+02 +1.451133E+01 +6.680177E+00 +1.451133E+01 +9.686655E+02 
 +3.098851E+02 -1.898792E+01 +3.830523E+00 -1.898792E+01 +3.424146E+02 +2.056906E+00 +3.830523E+00 +2.056906E+00 +9.645337E+02 
 +3.144784E+02 -2.157140E+01 +4.996847E+00 -2.157140E+01 +3.456811E+02 -3.332178E+00 +4.996847E+00 -3.332178E+00 +9.457525E+02 
 +3.639171E+02 +1.235713E+01 -6.475059E+00 +1.235713E+01 +3.610575E+02 -9.205124E+00 -6.475059E+00 -9.205124E+00 +9.566322E+02 
 +3.646183E+02 +1.689757E+01 -5.845011E+00 +1.689757E+01 +3.467949E+02 -2.172899E+01 -5.845011E+00 -2.172899E+01 +9.633751E+02 
 +3.585008E+02 +2.004891E+01 -5.430834E+00 +2.004891E+01 +3.377373E+02 -2.404810E+01 -5.430834E+00 -2.404810E+01 +9.524647E+02 
 +3.644972E+02 +2.304089E+01 -2.690655E+00 +2.304089E+01 +3.445934E+02 -2.324497E+01 -2.690655E+00 -2.324497E+01 +9.593998E+02 
 +3.602290E+02 +2.342365E+00 -6.594012E+00 +2.342365E+00 +3.533283E+02 -2.178546E+01 -6.594012E+00 -2.178546E+01 +9.806801E+02 
 +3.760319E+02 -1.227803E+00 -5.591999E+00 -1.227803E+00 +3.660399E+02 -1.486737E+01 -5.591999E+00 -1.486737E+01 +9.864169E+02 
 +3.947944E+02 -2.284657E+00 -6.390790E+00 -2.284657E+00 +3.779524E+02 -7.324365E+00 -6.390790E+00 -7.324365E+00 +9.884671E+02 
 +4.203598E+02 -4.972381E+00 +1.844488E+01 -4.972381E+00 +3.992219E+02 -1.238385E+00 +1.844488E+01 -1.238385E+00 +9.928290E+02 
 +4.364728E+02 -1.043807E+01 +1.099309E+01 -1.043807E+01 +4.067168E+02 +4.377298E-01 +1.099309E+01 +4.377298E-01 +9.793670E+02 
 +4.531437E+02 -1.675364E+01 -1.379028E+00 -1.675364E+01 +4.111428E+02 +1.005816E+00 -1.379028E+00 +1.005816E+00 +9.877667E+02 
 +4.266458E+02 -8.224298E+00 -2.078506E+01 -8.224298E+00 +4.008973E+02 -5.132655E+00 -2.078506E+01 -5.132655E+00 +1.009638E+03 
 +4.058570E+02 +6.176053E+00 -2.517580E+01 +6.176053E+00 +3.940094E+02 -3.839329E+00 -2.517580E+01 -3.839329E+00 +1.006031E+03 
 +4.021406E+02 +1.329402E+01 -1.003519E+01 +1.329402E+01 +3.968433E+02 +2.074835E+00 -1.003519E+01 +2.074835E+00 +1.001644E+03 
 +4.124459E+02 +2.331805E+01 +1.080150E+00 +2.331805E+01 +4.179260E+02 +5.068300E+00 +1.080150E+00 +5.068300E+00 +1.012707E+03 
 +3.495239E+02 -1.669403E+01 +3.705991E+00 -1.669403E+01 +3.710464E+02 -6.747527E-01 +3.705991E+00 -6.747527E-01 +9.846164E+02 
 +3.176847E+02 -2.848485E+01 -1.376387E+00 -2.848485E+01 +3.407711E+02 +6.406287E-01 -1.376387E+00 +6.406287E-01 +9.748634E+02 
 +3.205573E+02 -2.074133E+01 -1.173256E+00 -2.074133E+01 +3.506343E+02 +6.950844E+00 -1.173256E+00 +6.950844E+00 +9.793801E+02 
 +3.163146E+02 -1.632304E+01 +6.335027E+00 -1.632304E+01 +3.492154E+02 +1.038106E+01 +6.335027E+00 +1.038106E+01 +9.725756E+02 
 +3.145691E+02 -1.717445E+01 +5.845758E+00 -1.717445E+01 +3.487234E+02 +1.191777E+01 +5.845758E+00 +1.191777E+01 +9.682018E+02 
 +3.310205E+02 -9.420767E+00 +4.387490E+00 -9.420767E+00 +3.565834E+02 +6.791811E+00 +4.387490E+00 +6.791811E+00 +9.594417E+02 
 +3.662635E+02 -5.249513E+00 +1.091268E+01 -5.249513E+00 +3.700833E+02 -1.364247E+00 +1.091268E+01 -1.364247E+00 +9.438880E+02 
 +3.673863E+02 +2.048197E+01 -7.170692E+00 +2.048197E+01 +3.580707E+02 -7.225312E+00 -7.170692E+00 -7.225312E+00 +9.492151E+02 
 +3.552682E+02 +2.277855E+01 -9.027482E+00 +2.277855E+01 +3.445247E+02 -1.949338E+01 -9.027482E+00 -1.949338E+01 +9.679023E+02 
 +3.527014E+02 +1.925464E+01 -1.016891E+01 +1.925464E+01 +3.402371E+02 -2.900818E+01 -1.016891E+01 -2.900818E+01 +9.670587E+02 
 +3.482590E+02 +2.505026E+01 -4.583769E+00 +2.505026E+01 +3.373910E+02 -2.895137E+01 -4.583769E+00 -2.895137E+01 +9.668669E+02 
 +3.617687E+02 +2.182278E+01 +2.850089E+00 +2.182278E+01 +3.426756E+02 -2.123110E+01 +2.850089E+00 -2.123110E+01 +9.879474E+02 
 +3.680502E+02 +2.059932E+01 +1.320914E+00 +2.059932E+01 +3.504558E+02 -1.571975E+01 +1.320914E+00 -1.571975E+01 +9.860542E+02 
 +3.761455E+02 +2.187607E+01 +1.567935E+00 +2.187607E+01 +3.525644E+02 -7.133429E+00 +1.567935E+00 -7.133429E+00 +9.836983E+02 
 +3.799704E+02 +1.865711E+01 +1.205072E+01 +1.865711E+01 +3.418883E+02 -3.254105E+00 +1.205072E+01 -3.254105E+00 +9.765268E+02 
 +3.822442E+02 +1.000533E+01 +1.149391E+01 +1.000533E+01 +3.321031E+02 +1.653648E+00 +1.149391E+01 +1.653648E+00 +9.718379E+02 
 +4.000566E+02 -8.471022E+00 +7.034300E-01 -8.471022E+00 +3.430176E+02 +3.208996E+00 +7.034300E-01 +3.208996E+00 +9.869415E+02 
 +3.972740E+02 -1.088153E+01 -7.088723E+00 -1.088153E+01 +3.573051E+02 -2.026352E+00 -7.088723E+00 -2.026352E+00 +9.889764E+02 
 +3.914749E+02 -1.510213E+01 -1.385066E+01 -1.510213E+01 +3.615210E+02 -1.373074E+00 -1.385066E+01 -1.373074E+00 +9.724622E+02 
 +3.736913E+02 -1.265524E+01 -3.585418E+00 -1.265524E+01 +3.439505E+02 +2.939016E+00 -3.585418E+00 +2.939016E+00 +9.697737E+02 
 +3.616985E+02 +7.301539E+00 +5.687715E-01 +7.301539E+00 +3.327757E+02 +4.856107E+00 +5.687715E-01 +4.856107E+00 +9.756303E+02 
 +3.366223E+02 -1.158279E+01 -1.545627E+00 -1.158279E+01 +3.479752E+02 -1.059800E+00 -1.545627E+00 -1.059800E+00 +9.771972E+02 
 +3.305648E+02 -2.172081E+01 -4.341812E+00 -2.172081E+01 +3.590576E+02 -5.970003E+00 -4.341812E+00 -5.970003E+00 +9.845516E+02 
 +3.203405E+02 -1.627984E+01 -7.781303E-01 -1.627984E+01 +3.438435E+02 -2.472828E-01 -7.781303E-01 -2.472828E-01 +9.774439E+02 
 +3.243559E+02 -1.000167E+01 +5.389335E+00 -1.000167E+01 +3.556913E+02 +3.484351E+00 +5.389335E+00 +3.484351E+00 +9.750922E+02 
 +3.200983E+02 -8.528732E+00 +5.477108E-01 -8.528732E+00 +3.565753E+02 +1.042553E+01 +5.477108E-01 +1.042553E+01 +9.615555E+02 
 +3.930785E+02 +3.419275E+00 +6.769183E+00 +3.419275E+00 +3.960521E+02 +1.367350E+01 +6.769183E+00 +1.367350E+01 +9.723296E+02 
 +3.870137E+02 -4.487111E+00 +1.129766E+01 -4.487111E+00 +3.828833E+02 +5.860651E+00 +1.129766E+01 +5.860651E+00 +9.439477E+02 
 +3.636192E+02 +8.932234E+00 +3.683086E+00 +8.932234E+00 +3.749124E+02 -4.860694E+00 +3.683086E+00 -4.860694E+00 +9.411674E+02 
 +3.616329E+02 +1.057060E+01 -8.671490E+00 +1.057060E+01 +3.706300E+02 -1.386568E+01 -8.671490E+00 -1.386568E+01 +9.667337E+02 
 +3.427544E+02 +1.775276E+01 -1.132172E+01 +1.775276E+01 +3.356745E+02 -2.757173E+01 -1.132172E+01 -2.757173E+01 +9.662576E+02 
 +3.462557E+02 +3.315197E+01 +1.546276E+00 +3.315197E+01 +3.300708E+02 -2.923191E+01 +1.546276E+00 -2.923191E+01 +9.767566E+02 
 +3.766305E+02 +1.858796E+01 +1.467989E+00 +1.858796E+01 +3.502236E+02 -1.830738E+01 +1.467989E+00 -1.830738E+01 +9.941935E+02 
 +3.746368E+02 +1.405211E+01 +1.661960E-01 +1.405211E+01 +3.528321E+02 -1.468075E+01 +1.661960E-01 -1.468075E+01 +9.920906E+02 
 +3.729104E+02 +1.292728E+01 +1.142982E+00 +1.292728E+01 +3.495205E+02 -1.011466E+01 +1.142982E+00 -1.011466E+01 +9.872900E+02 
 +3.803270E+02 +1.053061E+01 +2.387476E+00 +1.053061E+01 +3.510534E+02 -5.963343E+00 +2.387476E+00 -5.963343E+00 +9.849008E+02 
 +3.690677E+02 +6.960984E+00 +4.554334E+00 +6.960984E+00 +3.511841E+02 +2.695029E+00 +4.554334E+00 +2.695029E+00 +9.845233E+02 
 +3.742374E+02 -7.253102E+00 +2.131134E+00 -7.253102E+00 +3.593763E+02 +4.837439E+00 +2.131134E+00 +4.837439E+00 +9.927844E+02 
 +3.759608E+02 -1.081957E+00 +3.385119E+00 -1.081957E+00 +3.461059E+02 -6.147628E-01 +3.385119E+00 -6.147628E-01 +9.857169E+02 
 +3.672699E+02 -2.702453E+00 -4.649764E-01 -2.702453E+00 +3.281033E+02 -1.307482E-01 -4.649764E-01 -1.307482E-01 +9.702936E+02 
 +3.633989E+02 -2.890715E+00 +1.701650E+00 -2.890715E+00 +3.294765E+02 +8.339187E-01 +1.701650E+00 +8.339187E-01 +9.705419E+02 
 +3.570086E+02 +5.327498E+00 -4.271246E-01 +5.327498E+00 +3.075114E+02 +2.619792E+00 -4.271246E-01 +2.619792E+00 +9.703424E+02 
 +3.585199E+02 +6.891791E+00 -5.361675E+00 +6.891791E+00 +3.140354E+02 -9.928625E-01 -5.361675E+00 -9.928625E-01 +9.814408E+02 
 +3.041247E+02 -1.891952E+01 -2.120346E+00 -1.891952E+01 +3.290026E+02 -1.141297E+01 -2.120346E+00 -1.141297E+01 +9.761669E+02 
 +3.140311E+02 -1.409148E+01 -1.209772E+00 -1.409148E+01 +3.466212E+02 -7.311588E+00 -1.209772E+00 -7.311588E+00 +9.772005E+02 
 +3.267214E+02 -1.144571E+01 +1.464211E+00 -1.144571E+01 +3.503021E+02 +3.218798E+00 +1.464211E+00 +3.218798E+00 +9.703085E+02 
 +3.557323E+02 -7.069747E+00 -4.278811E-01 -7.069747E+00 +3.662279E+02 +1.073592E+01 -4.278811E-01 +1.073592E+01 +9.715490E+02 
 +4.164412E+02 +1.110696E+00 +8.752649E+00 +1.110696E+00 +3.823971E+02 +1.613038E+01 +8.752649E+00 +1.613038E+01 +9.846246E+02 
 +3.624120E+02 -1.238819E+00 +5.142981E+00 -1.238819E+00 +3.622614E+02 +8.886142E+00 +5.142981E+00 +8.886142E+00 +9.550121E+02 
 +3.607713E+02 +1.069621E+01 +7.110779E-02 +1.069621E+01 +3.871977E+02 -2.918451E+00 +7.110779E-02 -2.918451E+00 +9.614967E+02 
 +3.637620E+02 -2.881981E+00 -9.803479E+00 -2.881981E+00 +3.845550E+02 -6.648558E+00 -9.803479E+00 -6.648558E+00 +9.719424E+02 
 +3.652115E+02 -3.021462E-01 -1.447350E+01 -3.021462E-01 +3.664706E+02 -1.434482E+01 -1.447350E+01 -1.434482E+01 +9.779616E+02 
 +3.811093E+02 +2.602081E+01 -1.285307E-01 +2.602081E+01 +3.557954E+02 -2.117752E+01 -1.285307E-01 -2.117752E+01 +9.924049E+02 
 +3.822636E+02 +1.955620E+01 +1.219345E-01 +1.955620E+01 +3.594288E+02 -1.467413E+01 +1.219345E-01 -1.467413E+01 +9.956869E+02 
 +3.799450E+02 +1.382831E+01 +1.816585E+00 +1.382831E+01 +3.564477E+02 -1.300854E+01 +1.816585E+00 -1.300854E+01 +9.938675E+02 
 +3.742980E+02 +1.157805E+01 +1.712445E+00 +1.157805E+01 +3.547866E+02 -9.724222E+00 +1.712445E+00 -9.724222E+00 +9.879391E+02 
 +3.688203E+02 +6.768344E+00 -1.450912E-02 +6.768344E+00 +3.517030E+02 -7.414412E+00 -1.450912E-02 -7.414412E+00 +9.813099E+02 
 +3.487527E+02 +5.554238E+00 +3.696556E+00 +5.554238E+00 +3.402206E+02 -4.071539E+00 +3.696556E+00 -4.071539E+00 +9.728828E+02 
 +3.530353E+02 -3.605141E+00 +4.426822E+00 -3.605141E+00 +3.406661E+02 -4.906277E+00 +4.426822E+00 -4.906277E+00 +9.739493E+02 
 +3.623422E+02 +9.227835E-01 +5.632119E+00 +9.227835E-01 +3.361333E+02 -3.301136E+00 +5.632119E+00 -3.301136E+00 +9.764469E+02 
 +3.582913E+02 +4.275038E+00 +4.650704E+00 +4.275038E+00 +3.272338E+02 +9.858358E-02 +4.650704E+00 +9.858358E-02 +9.741285E+02 
 +3.529441E+02 +4.540787E+00 +2.897545E+00 +4.540787E+00 +3.215046E+02 -8.005277E-01 +2.897545E+00 -8.005277E-01 +9.683329E+02 
 +3.472545E+02 +1.636324E+00 -9.790264E-01 +1.636324E+00 +3.078280E+02 -3.289179E+00 -9.790264E-01 -3.289179E+00 +9.643296E+02 
 +3.454612E+02 +5.679371E+00 -6.590392E+00 +5.679371E+00 +2.923958E+02 -5.935770E+00 -6.590392E+00 -5.935770E+00 +9.652884E+02 
 +2.970124E+02 -1.496908E+01 -5.030456E+00 -1.496908E+01 +2.962180E+02 -1.093978E+01 -5.030456E+00 -1.093978E+01 +9.613895E+02 
 +3.195788E+02 -1.707285E+01 -1.798519E+00 -1.707285E+01 +3.467023E+02 -9.479246E+00 -1.798519E+00 -9.479246E+00 +9.806196E+02 
 +3.290094E+02 -6.722701E+00 +3.803855E+00 -6.722701E+00 +3.272185E+02 +2.993002E+00 +3.803855E+00 +2.993002E+00 +9.664604E+02 
 +3.710291E+02 +2.490169E+00 +9.244129E+00 +2.490169E+00 +3.201908E+02 +1.252595E+01 +9.244129E+00 +1.252595E+01 +9.609721E+02 
 +4.048146E+02 +1.083585E+01 +1.088523E+01 +1.083585E+01 +3.601041E+02 +1.320355E+01 +1.088523E+01 +1.320355E+01 +9.725705E+02 
 +3.845468E+02 +2.143963E+01 +9.796765E-01 +2.143963E+01 +3.893151E+02 +6.759511E+00 +9.796765E-01 +6.759511E+00 +9.790633E+02 
 +3.653571E+02 +2.905481E+01 -8.656086E+00 +2.905481E+01 +3.973696E+02 -2.803989E+00 -8.656086E+00 -2.803989E+00 +9.825850E+02 
 +3.690966E+02 +1.843302E+01 -1.314694E+01 +1.843302E+01 +3.972180E+02 -1.407031E+01 -1.314694E+01 -1.407031E+01 +9.889535E+02 
 +3.626514E+02 +1.666821E+01 -1.589972E+01 +1.666821E+01 +3.726893E+02 -2.193476E+01 -1.589972E+01 -2.193476E+01 +9.858588E+02 
 +3.861899E+02 +3.222562E+01 -1.388153E+00 +3.222562E+01 +3.676273E+02 -1.901099E+01 -1.388153E+00 -1.901099E+01 +9.956137E+02 
 +3.883393E+02 +2.195512E+01 -9.795835E-02 +2.195512E+01 +3.631870E+02 -9.487130E+00 -9.795835E-02 -9.487130E+00 +1.000727E+03 
 +3.793831E+02 +1.972409E+01 +4.314663E+00 +1.972409E+01 +3.580151E+02 -9.239810E+00 +4.314663E+00 -9.239810E+00 +9.944276E+02 
 +3.730924E+02 +1.534835E+01 +5.351163E+00 +1.534835E+01 +3.566358E+02 -6.757708E+00 +5.351163E+00 -6.757708E+00 +9.863979E+02 
 +3.695344E+02 +1.593220E+01 +1.839485E+00 +1.593220E+01 +3.573261E+02 -1.046186E+01 +1.839485E+00 -1.046186E+01 +9.853233E+02 
 +3.194147E+02 +9.190080E+00 +4.704769E+00 +9.190080E+00 +3.138717E+02 -1.820668E+01 +4.704769E+00 -1.820668E+01 +9.696111E+02 
 +3.347417E+02 -6.957516E-02 +6.264063E+00 -6.957516E-02 +3.079195E+02 -2.003081E+01 +6.264063E+00 -2.003081E+01 +9.724627E+02 
 +3.444924E+02 +6.424957E-01 +7.176516E+00 +6.424957E-01 +3.199849E+02 -1.274034E+01 +7.176516E+00 -1.274034E+01 +9.678149E+02 
 +3.451378E+02 +6.203478E+00 +2.882610E+00 +6.203478E+00 +3.191399E+02 -5.541696E+00 +2.882610E+00 -5.541696E+00 +9.648217E+02 
 +3.421625E+02 +6.239924E+00 -5.676834E-01 +6.239924E+00 +3.155979E+02 -4.204832E+00 -5.676834E-01 -4.204832E+00 +9.680940E+02 
 +3.510013E+02 +5.649613E+00 -3.408304E+00 +5.649613E+00 +3.320100E+02 -9.295580E+00 -3.408304E+00 -9.295580E+00 +9.702889E+02 
 +3.458004E+02 +1.185847E+01 -1.307235E+01 +1.185847E+01 +3.290314E+02 -1.790692E+01 -1.307235E+01 -1.790692E+01 +9.505704E+02 
 +3.309238E+02 +1.351501E+01 -1.231247E+01 +1.351501E+01 +3.061035E+02 -1.874500E+01 -1.231247E+01 -1.874500E+01 +9.501608E+02 
 +3.026653E+02 +1.471589E-01 +6.027930E+00 +1.471589E-01 +2.795937E+02 -1.195719E+01 +6.027930E+00 -1.195719E+01 +9.567115E+02 
 +3.215119E+02 -7.622675E-01 +8.569931E+00 -7.622675E-01 +2.907198E+02 -2.570650E+00 +8.569931E+00 -2.570650E+00 +9.589414E+02 
 +3.692383E+02 -1.494548E+00 +1.142949E+01 -1.494548E+00 +3.370830E+02 +7.611509E+00 +1.142949E+01 +7.611509E+00 +9.627012E+02 
 +3.995465E+02 -1.227871E+00 +1.191713E+01 -1.227871E+00 +3.704336E+02 +1.306070E+01 +1.191713E+01 +1.306070E+01 +9.640344E+02 
 +4.031040E+02 +2.985838E+00 +7.464650E+00 +2.985838E+00 +3.788226E+02 +1.668783E+01 +7.464650E+00 +1.668783E+01 +9.753458E+02 
 +3.758074E+02 +2.041541E+01 -5.666113E+00 +2.041541E+01 +3.912375E+02 +1.039876E+01 -5.666113E+00 +1.039876E+01 +9.868881E+02 
 +3.818134E+02 -4.414982E+00 -1.465200E+01 -4.414982E+00 +4.156639E+02 +2.763493E+00 -1.465200E+01 +2.763493E+00 +1.002860E+03 
 +3.613250E+02 -1.163929E+01 -1.433061E+01 -1.163929E+01 +3.855249E+02 -1.408192E+00 -1.433061E+01 -1.408192E+00 +9.934843E+02 
 +3.858417E+02 +2.261843E+01 -7.280700E-02 +2.261843E+01 +3.751552E+02 -6.848093E+00 -7.280700E-02 -6.848093E+00 +1.001055E+03 
 +3.786612E+02 +2.937620E+01 +1.873487E+00 +2.937620E+01 +3.524618E+02 -3.828077E-01 +1.873487E+00 -3.828077E-01 +9.923272E+02 
 +3.872975E+02 +2.571227E+01 +3.116749E+00 +2.571227E+01 +3.645780E+02 -2.277487E+00 +3.116749E+00 -2.277487E+00 +9.919937E+02 
 +3.821996E+02 +2.668334E+01 +2.617642E+00 +2.668334E+01 +3.564461E+02 -1.569369E+00 +2.617642E+00 -1.569369E+00 +9.844883E+02 
 +3.580766E+02 +2.894696E+01 +3.043762E+00 +2.894696E+01 +3.491669E+02 -6.762112E+00 +3.043762E+00 -6.762112E+00 +9.842995E+02 
 +3.072591E+02 +6.838212E+00 +5.915137E+00 +6.838212E+00 +3.295037E+02 -1.595761E+01 +5.915137E+00 -1.595761E+01 +9.793190E+02 
 +3.387245E+02 +4.603154E+00 +1.200133E+01 +4.603154E+00 +3.324312E+02 -1.478642E+01 +1.200133E+01 -1.478642E+01 +9.847315E+02 
 +3.145049E+02 +3.113479E+00 +1.196651E+01 +3.113479E+00 +2.993642E+02 -9.210898E+00 +1.196651E+01 -9.210898E+00 +9.547665E+02 
 +3.184412E+02 +8.897138E-01 +2.593782E+00 +8.897138E-01 +2.985100E+02 -4.274477E+00 +2.593782E+00 -4.274477E+00 +9.496058E+02 
 +3.391249E+02 +3.619899E+00 -4.304457E+00 +3.619899E+00 +3.146196E+02 -2.836449E+00 -4.304457E+00 -2.836449E+00 +9.597733E+02 
 +3.458494E+02 +1.185441E+01 -2.577053E-01 +1.185441E+01 +3.243138E+02 -6.471143E+00 -2.577053E-01 -6.471143E+00 +9.584429E+02 
 +3.527877E+02 +1.399070E+01 -1.097560E+01 +1.399070E+01 +3.284662E+02 -1.381056E+01 -1.097560E+01 -1.381056E+01 +9.369839E+02 
 +3.642210E+02 +1.071363E+01 -1.082658E+01 +1.071363E+01 +3.345934E+02 -1.847500E+01 -1.082658E+01 -1.847500E+01 +9.461858E+02 
 +3.292663E+02 -7.110206E+00 +1.105718E+01 -7.110206E+00 +3.303023E+02 -1.479319E+01 +1.105718E+01 -1.479319E+01 +9.610287E+02 
 +3.552312E+02 -8.340658E+00 +8.763221E+00 -8.340658E+00 +3.666391E+02 -9.976710E+00 +8.763221E+00 -9.976710E+00 +9.743015E+02 
 +3.513686E+02 -6.137067E+00 +7.569160E+00 -6.137067E+00 +3.636507E+02 -1.344716E+00 +7.569160E+00 -1.344716E+00 +9.587558E+02 
 +3.883938E+02 -1.227243E+00 +6.566887E+00 -1.227243E+00 +3.712660E+02 +7.317237E+00 +6.566887E+00 +7.317237E+00 +9.583691E+02 
 +4.114992E+02 +2.114750E-02 +6.867923E+00 +2.114750E-02 +3.906805E+02 +1.614165E+01 +6.867923E+00 +1.614165E+01 +9.664770E+02 
 +4.039827E+02 +1.288805E+01 +3.126129E+00 +1.288805E+01 +3.933334E+02 +1.216366E+01 +3.126129E+00 +1.216366E+01 +9.800519E+02 
 +3.890923E+02 -1.250135E+00 -4.768953E+00 -1.250135E+00 +3.975478E+02 +5.494645E+00 -4.768953E+00 +5.494645E+00 +9.937661E+02 
 +4.026116E+02 -1.226000E+00 -1.135145E+01 -1.226000E+00 +4.216195E+02 +7.511716E+00 -1.135145E+01 +7.511716E+00 +1.011296E+03 
 +3.926725E+02 +2.274519E+01 -1.472456E+00 +2.274519E+01 +3.830484E+02 +4.106567E+00 -1.472456E+00 +4.106567E+00 +1.003510E+03 
 +3.954863E+02 +2.318746E+01 +1.496507E+00 +2.318746E+01 +3.623036E+02 +3.731101E+00 +1.496507E+00 +3.731101E+00 +9.825511E+02 
 +3.959120E+02 +3.492184E+01 +6.366667E+00 +3.492184E+01 +3.600686E+02 +6.355761E-01 +6.366667E+00 +6.355761E-01 +9.705415E+02 
 +3.709388E+02 +2.088021E+01 +6.481698E+00 +2.088021E+01 +3.732889E+02 -1.360015E+00 +6.481698E+00 -1.360015E+00 +9.744075E+02 
 +3.299032E+02 +7.715160E+00 +1.214074E+01 +7.715160E+00 +3.621656E+02 -3.647959E+00 +1.214074E+01 -3.647959E+00 +9.764122E+02 
 +3.219639E+02 -1.107364E+01 +1.528520E+01 -1.107364E+01 +3.633330E+02 -3.347710E+00 +1.528520E+01 -3.347710E+00 +9.751411E+02 
 +3.485746E+02 -1.497258E+01 +1.537391E+01 -1.497258E+01 +3.894277E+02 +8.161589E-01 +1.537391E+01 +8.161589E-01 +9.804102E+02 
 +3.377861E+02 -1.634648E+01 +1.333563E+01 -1.634648E+01 +3.790977E+02 +5.173064E+00 +1.333563E+01 +5.173064E+00 +9.699405E+02 
 +3.412462E+02 -9.146836E+00 +6.602634E+00 -9.146836E+00 +3.580083E+02 +3.425708E+00 +6.602634E+00 +3.425708E+00 +9.594059E+02 
 +3.554254E+02 -1.611546E-01 -1.606918E+00 -1.611546E-01 +3.516856E+02 -7.132342E+00 -1.606918E+00 -7.132342E+00 +9.492216E+02 
 +3.648310E+02 +5.809322E+00 +3.576128E+00 +5.809322E+00 +3.568124E+02 -1.729196E+01 +3.576128E+00 -1.729196E+01 +9.454762E+02 
 +3.693566E+02 +2.117508E+00 -4.440927E+00 +2.117508E+00 +3.572766E+02 -1.929949E+01 -4.440927E+00 -1.929949E+01 +9.395066E+02 
 +3.685448E+02 -9.761784E+00 -9.479291E+00 -9.761784E+00 +3.570982E+02 -1.456322E+01 -9.479291E+00 -1.456322E+01 +9.487370E+02 
 +3.420675E+02 -1.972201E+01 +1.176478E+00 -1.972201E+01 +3.482063E+02 -1.107148E+01 +1.176478E+00 -1.107148E+01 +9.556167E+02 
 +3.486494E+02 -1.411678E+01 +2.166975E+00 -1.411678E+01 +3.578866E+02 -1.127882E+01 +2.166975E+00 -1.127882E+01 +9.562784E+02 
 +3.580421E+02 -8.421411E+00 +4.112698E+00 -8.421411E+00 +3.732255E+02 -9.017169E+00 +4.112698E+00 -9.017169E+00 +9.531954E+02 
 +3.704003E+02 -5.456395E+00 +3.258865E+00 -5.456395E+00 +3.840959E+02 -2.310408E+00 +3.258865E+00 -2.310408E+00 +9.487361E+02 
 +4.180522E+02 +3.037430E+00 +3.567697E+00 +3.037430E+00 +4.137152E+02 +5.272478E+00 +3.567697E+00 +5.272478E+00 +9.586695E+02 
 +4.253866E+02 +1.284863E+00 +1.212155E+00 +1.284863E+00 +4.050306E+02 +2.058868E+00 +1.212155E+00 +2.058868E+00 +9.706568E+02 
 +3.983605E+02 -1.427620E+01 -3.760906E+00 -1.427620E+01 +3.643013E+02 -1.759056E+00 -3.760906E+00 -1.759056E+00 +9.823855E+02 
 +4.022084E+02 -2.228406E+01 -6.676275E+00 -2.228406E+01 +3.782570E+02 +2.905488E+00 -6.676275E+00 +2.905488E+00 +1.000160E+03 
 +4.077236E+02 -1.107109E+01 -1.194338E-01 -1.107109E+01 +3.930095E+02 +6.101475E+00 -1.194338E-01 +6.101475E+00 +1.003267E+03 
 +4.209969E+02 -1.447733E+01 -2.080244E-02 -1.447733E+01 +3.914378E+02 +5.008849E+00 -2.080244E-02 +5.008849E+00 +9.737434E+02 
 +4.266788E+02 +1.286182E+01 +1.835736E+01 +1.286182E+01 +4.075482E+02 +3.317668E+00 +1.835736E+01 +3.317668E+00 +9.573400E+02 
 +3.478492E+02 -6.580729E+00 +1.539353E+01 -6.580729E+00 +4.005517E+02 -2.332624E+00 +1.539353E+01 -2.332624E+00 +9.434057E+02 
 +3.289426E+02 -8.607490E+00 +1.531887E+01 -8.607490E+00 +3.851800E+02 -2.589391E+00 +1.531887E+01 -2.589391E+00 +9.603573E+02 
 +3.338773E+02 -1.292851E+01 +1.686613E+01 -1.292851E+01 +3.797061E+02 +2.041092E+00 +1.686613E+01 +2.041092E+00 +9.613177E+02 
 +3.314626E+02 -1.470049E+01 +1.381303E+01 -1.470049E+01 +3.798301E+02 +2.664934E+00 +1.381303E+01 +2.664934E+00 +9.558711E+02 
 +3.370993E+02 -1.362378E+01 +1.158379E+01 -1.362378E+01 +3.829034E+02 +2.969491E+00 +1.158379E+01 +2.969491E+00 +9.598170E+02 
 +3.475078E+02 -1.149387E+01 +1.003508E+01 -1.149387E+01 +3.852016E+02 +4.798079E+00 +1.003508E+01 +4.798079E+00 +9.631352E+02 
 +3.543623E+02 -6.101280E+00 +3.528718E+00 -6.101280E+00 +3.774417E+02 -8.426306E-01 +3.528718E+00 -8.426306E-01 +9.567409E+02 
 +3.677918E+02 -4.996751E+00 -2.005534E-01 -4.996751E+00 +3.698543E+02 -1.183019E+01 -2.005534E-01 -1.183019E+01 +9.426588E+02 
 +3.724304E+02 -7.231849E+00 -6.913721E+00 -7.231849E+00 +3.695225E+02 -9.774137E+00 -6.913721E+00 -9.774137E+00 +9.382403E+02 
 +3.785077E+02 -1.175269E+01 -7.091107E+00 -1.175269E+01 +3.778222E+02 -1.079004E+01 -7.091107E+00 -1.079004E+01 +9.516147E+02 
 +3.712797E+02 -1.540983E+01 -1.401999E+00 -1.540983E+01 +3.781745E+02 -1.956422E+01 -1.401999E+00 -1.956422E+01 +9.541755E+02 
 +3.542423E+02 -1.657821E+01 -1.739052E+00 -1.657821E+01 +3.707820E+02 -1.628024E+01 -1.739052E+00 -1.628024E+01 +9.528393E+02 
 +3.658898E+02 -1.480273E+01 -9.619933E-01 -1.480273E+01 +3.789615E+02 -1.313839E+01 -9.619933E-01 -1.313839E+01 +9.602083E+02 
 +3.667915E+02 -9.613499E+00 +2.597176E+00 -9.613499E+00 +3.820420E+02 -1.087243E+01 +2.597176E+00 -1.087243E+01 +9.493039E+02 
 +4.181226E+02 +1.079388E+01 +6.020712E+00 +1.079388E+01 +4.130749E+02 -4.334067E+00 +6.020712E+00 -4.334067E+00 +9.562384E+02 
 +4.253419E+02 -1.266282E+01 -1.237309E+00 -1.266282E+01 +4.001821E+02 -1.375935E+00 -1.237309E+00 -1.375935E+00 +9.624661E+02 
 +4.075644E+02 -1.576516E+01 -5.850422E+00 -1.576516E+01 +3.739495E+02 +2.053285E+00 -5.850422E+00 +2.053285E+00 +9.774643E+02 
 +4.068457E+02 -1.680803E+01 -2.647295E+00 -1.680803E+01 +3.768113E+02 +7.921953E+00 -2.647295E+00 +7.921953E+00 +9.894522E+02 
 +4.185281E+02 -1.888402E+01 +3.362748E+00 -1.888402E+01 +3.964210E+02 +8.595801E+00 +3.362748E+00 +8.595801E+00 +9.917359E+02 
 +4.030356E+02 -1.304105E+01 +4.926175E+00 -1.304105E+01 +3.929760E+02 -3.112858E-01 +4.926175E+00 -3.112858E-01 +9.481144E+02 
 +4.216856E+02 +1.999565E+01 +2.106540E+01 +1.999565E+01 +4.133559E+02 -7.206093E-01 +2.106540E+01 -7.206093E-01 +9.351488E+02 
 +3.664133E+02 +4.238632E+00 +1.365054E+01 +4.238632E+00 +3.958334E+02 +1.281579E+00 +1.365054E+01 +1.281579E+00 +9.199932E+02 
 +3.302949E+02 -6.360728E+00 +7.421643E+00 -6.360728E+00 +3.912916E+02 +2.058226E-01 +7.421643E+00 +2.058226E-01 +9.399460E+02 
 +3.303275E+02 -1.130655E+01 +1.055834E+01 -1.130655E+01 +3.836095E+02 +2.657973E-01 +1.055834E+01 +2.657973E-01 +9.533745E+02 
 +3.373003E+02 -1.659450E+01 +9.812608E+00 -1.659450E+01 +3.837768E+02 +3.716977E-01 +9.812608E+00 +3.716977E-01 +9.543509E+02 
 +3.382447E+02 -1.740972E+01 +8.136646E+00 -1.740972E+01 +3.845007E+02 -2.755728E+00 +8.136646E+00 -2.755728E+00 +9.558688E+02 
 +3.372800E+02 -1.426683E+01 +6.934524E+00 -1.426683E+01 +3.809951E+02 +6.009639E-01 +6.934524E+00 +6.009639E-01 +9.559511E+02 
 +3.509639E+02 +1.458836E+00 +1.919994E+00 +1.458836E+00 +3.885112E+02 +1.943086E+00 +1.919994E+00 +1.943086E+00 +9.611749E+02 
 +3.535128E+02 -3.530621E-01 -2.234353E+00 -3.530621E-01 +3.814123E+02 -4.040932E+00 -2.234353E+00 -4.040932E+00 +9.487712E+02 
 +3.945898E+02 +1.834332E+00 -1.004770E+01 +1.834332E+00 +3.927131E+02 -6.182389E+00 -1.004770E+01 -6.182389E+00 +9.523953E+02 
 +3.903048E+02 -6.904980E+00 -5.471316E+00 -6.904980E+00 +3.873403E+02 -9.102565E+00 -5.471316E+00 -9.102565E+00 +9.479212E+02 
 +3.756002E+02 -1.088347E+01 +1.126346E+00 -1.088347E+01 +3.761529E+02 -1.857121E+01 +1.126346E+00 -1.857121E+01 +9.374269E+02 
 +3.587661E+02 -1.073854E+01 +2.896895E+00 -1.073854E+01 +3.641001E+02 -2.143230E+01 +2.896895E+00 -2.143230E+01 +9.436507E+02 
 +3.584295E+02 +3.793560E+00 +3.597032E+00 +3.793560E+00 +3.521008E+02 -1.698499E+01 +3.597032E+00 -1.698499E+01 +9.583462E+02 
 +3.744431E+02 +1.526783E+01 +3.264664E+00 +1.526783E+01 +3.582760E+02 -1.446695E+01 +3.264664E+00 -1.446695E+01 +9.518357E+02 
 +3.870217E+02 +3.019501E+01 +1.310833E-01 +3.019501E+01 +3.721814E+02 -3.473064E+00 +1.310833E-01 -3.473064E+00 +9.420556E+02 
 +4.094746E+02 -5.916889E+00 -6.038108E+00 -5.916889E+00 +3.853566E+02 +6.051680E-01 -6.038108E+00 +6.051680E-01 +9.539280E+02 
 +4.035595E+02 -1.027772E+01 -6.351779E+00 -1.027772E+01 +3.772618E+02 +1.363525E+00 -6.351779E+00 +1.363525E+00 +9.632511E+02 
 +4.040067E+02 -1.112132E+01 -2.180746E+00 -1.112132E+01 +3.833872E+02 +8.028782E+00 -2.180746E+00 +8.028782E+00 +9.737022E+02 
 +3.909042E+02 -1.571317E+01 +5.312004E-01 -1.571317E+01 +3.777155E+02 +4.496826E+00 +5.312004E-01 +4.496826E+00 +9.619677E+02 
 +4.117641E+02 +1.023819E+01 +3.126240E+00 +1.023819E+01 +4.244740E+02 +6.074419E+00 +3.126240E+00 +6.074419E+00 +9.410619E+02 
 +4.138082E+02 +3.190976E+01 +1.400913E+01 +3.190976E+01 +4.256569E+02 +2.019813E+00 +1.400913E+01 +2.019813E+00 +9.254043E+02 
 +3.964914E+02 +1.593057E+01 +1.031482E+01 +1.593057E+01 +4.155263E+02 +3.670304E+00 +1.031482E+01 +3.670304E+00 +9.271921E+02 
 +3.164785E+02 -1.436226E+01 +6.903806E-01 -1.436226E+01 +3.835627E+02 -1.552112E+00 +6.903806E-01 -1.552112E+00 +9.309434E+02 
 +3.291406E+02 -1.627098E+01 +5.425408E+00 -1.627098E+01 +3.890465E+02 -3.799221E+00 +5.425408E+00 -3.799221E+00 +9.562693E+02 
 +3.374798E+02 -1.845735E+01 +4.288811E+00 -1.845735E+01 +3.851703E+02 -2.762562E+00 +4.288811E+00 -2.762562E+00 +9.544845E+02 
 +3.379427E+02 -1.746788E+01 +2.387403E+00 -1.746788E+01 +3.819951E+02 -3.195899E+00 +2.387403E+00 -3.195899E+00 +9.531615E+02 
 +3.375458E+02 -1.637199E+01 +9.856595E-01 -1.637199E+01 +3.798928E+02 +1.336312E+00 +9.856595E-01 +1.336312E+00 +9.515798E+02 
 +3.390097E+02 -2.673957E+00 +8.296877E-01 -2.673957E+00 +3.786581E+02 +3.877555E+00 +8.296877E-01 +3.877555E+00 +9.482249E+02 
 +3.526290E+02 -3.396571E-01 -1.807775E+00 -3.396571E-01 +3.893245E+02 -3.431347E+00 -1.807775E+00 -3.431347E+00 +9.445292E+02 
 +4.097996E+02 +5.534658E+00 -1.195569E+01 +5.534658E+00 +4.121418E+02 -8.139293E+00 -1.195569E+01 -8.139293E+00 +9.553595E+02 
 +3.910366E+02 -1.181229E+00 -8.194074E+00 -1.181229E+00 +3.869590E+02 -8.995905E+00 -8.194074E+00 -8.995905E+00 +9.423414E+02 
 +3.849656E+02 -3.762252E+00 -3.647664E+00 -3.762252E+00 +3.802505E+02 -1.488870E+01 -3.647664E+00 -1.488870E+01 +9.358850E+02 
 +3.836038E+02 -8.523604E+00 +1.242884E+00 -8.523604E+00 +3.765848E+02 -1.599370E+01 +1.242884E+00 -1.599370E+01 +9.392611E+02 
 +3.791356E+02 -2.299560E+00 +6.100511E+00 -2.299560E+00 +3.680897E+02 -1.156579E+01 +6.100511E+00 -1.156579E+01 +9.521947E+02 
 +3.746932E+02 +1.220843E+01 +6.444077E+00 +1.220843E+01 +3.566895E+02 -8.451081E+00 +6.444077E+00 -8.451081E+00 +9.513612E+02 
 +3.721330E+02 +2.452176E+01 -4.492642E+00 +2.452176E+01 +3.520341E+02 +4.086285E+00 -4.492642E+00 +4.086285E+00 +9.438972E+02 
 +3.816601E+02 -9.358904E+00 -1.058042E+01 -9.358904E+00 +3.601580E+02 +4.114252E+00 -1.058042E+01 +4.114252E+00 +9.441233E+02 
 +3.874792E+02 -1.278183E+01 -6.647644E+00 -1.278183E+01 +3.703501E+02 -6.762720E-02 -6.647644E+00 -6.762720E-02 +9.478911E+02 
 +3.887354E+02 -9.049484E+00 -3.894631E+00 -9.049484E+00 +3.719448E+02 +5.430612E+00 -3.894631E+00 +5.430612E+00 +9.533715E+02 
 +3.966750E+02 -6.567058E+00 -4.692893E+00 -6.567058E+00 +3.904542E+02 +6.936844E+00 -4.692893E+00 +6.936844E+00 +9.520904E+02 
 +3.846629E+02 -2.757501E+00 +4.047684E+00 -2.757501E+00 +3.706032E+02 -7.449510E+00 +4.047684E+00 -7.449510E+00 +9.214189E+02 
 +4.086812E+02 +2.011981E+01 +1.308363E+01 +2.011981E+01 +4.163869E+02 -2.900526E+00 +1.308363E+01 -2.900526E+00 +9.233651E+02 
 +3.924061E+02 +4.892023E+00 +3.787474E+00 +4.892023E+00 +4.273631E+02 +9.954573E-01 +3.787474E+00 +9.954573E-01 +9.333288E+02 
 +3.223059E+02 -2.346146E+01 -9.620451E+00 -2.346146E+01 +3.852052E+02 -6.148379E+00 -9.620451E+00 -6.148379E+00 +9.411480E+02 
 +3.351034E+02 -2.317827E+01 -8.887622E-01 -2.317827E+01 +3.894799E+02 -6.642920E+00 -8.887622E-01 -6.642920E+00 +9.634035E+02 
 +3.444122E+02 -2.092957E+01 -7.420606E-01 -2.092957E+01 +3.875623E+02 -2.272942E+00 -7.420606E-01 -2.272942E+00 +9.592930E+02 
 +3.425177E+02 -1.718417E+01 -2.154647E+00 -1.718417E+01 +3.817952E+02 -1.044450E+00 -2.154647E+00 -1.044450E+00 +9.549548E+02 
 +3.366526E+02 -1.365672E+01 -1.323164E+00 -1.365672E+01 +3.809434E+02 +5.049091E+00 -1.323164E+00 +5.049091E+00 +9.514419E+02 
 +3.346675E+02 +7.674420E-01 +3.310249E+00 +7.674420E-01 +3.758862E+02 +7.796543E-01 +3.310249E+00 +7.796543E-01 +9.438854E+02 
 +3.803259E+02 +1.329138E+01 -4.478843E+00 +1.329138E+01 +3.999918E+02 -1.429219E+01 -4.478843E+00 -1.429219E+01 +9.460559E+02 
 +3.998683E+02 +6.260444E+00 -1.472006E+01 +6.260444E+00 +4.096972E+02 -1.353156E+01 -1.472006E+01 -1.353156E+01 +9.449209E+02 
 +3.961974E+02 +1.393495E+00 -1.242732E+01 +1.393495E+00 +3.956069E+02 -1.081681E+01 -1.242732E+01 -1.081681E+01 +9.402422E+02 
 +3.915499E+02 -2.218249E+00 -9.903291E+00 -2.218249E+00 +3.860893E+02 -1.474160E+01 -9.903291E+00 -1.474160E+01 +9.313337E+02 
 +3.960521E+02 -6.918432E+00 +9.810972E-01 -6.918432E+00 +3.951613E+02 -1.599130E+01 +9.810972E-01 -1.599130E+01 +9.295031E+02 
 +3.968493E+02 -9.115420E+00 +2.725716E+00 -9.115420E+00 +4.029327E+02 -1.216155E+01 +2.725716E+00 -1.216155E+01 +9.398023E+02 
 +3.826081E+02 +2.420895E+00 +4.617055E+00 +2.420895E+00 +3.838491E+02 -4.875374E+00 +4.617055E+00 -4.875374E+00 +9.550264E+02 
 +3.697766E+02 +1.437522E+01 -8.021119E+00 +1.437522E+01 +3.558221E+02 +4.632681E+00 -8.021119E+00 +4.632681E+00 +9.580078E+02 
 +3.763916E+02 -1.284979E+01 -7.505668E+00 -1.284979E+01 +3.525523E+02 +6.102702E-01 -7.505668E+00 +6.102702E-01 +9.562884E+02 
 +3.749755E+02 -1.415393E+01 -2.887932E+00 -1.415393E+01 +3.605124E+02 -4.783089E+00 -2.887932E+00 -4.783089E+00 +9.482659E+02 
 +3.791155E+02 -1.562335E+01 -5.092846E+00 -1.562335E+01 +3.709053E+02 -1.045055E+00 -5.092846E+00 -1.045055E+00 +9.479919E+02 
 +3.799757E+02 -1.612044E+01 -4.951618E+00 -1.612044E+01 +3.662657E+02 -3.567104E+00 -4.951618E+00 -3.567104E+00 +9.409286E+02 
 +3.882284E+02 +9.042479E+00 +7.472267E+00 +9.042479E+00 +3.916635E+02 -1.289476E+01 +7.472267E+00 -1.289476E+01 +9.438544E+02 
 +4.059420E+02 +1.244946E+01 +8.144840E+00 +1.244946E+01 +4.083781E+02 -1.716207E+01 +8.144840E+00 -1.716207E+01 +9.451099E+02 
 +4.075758E+02 +1.741018E+00 -2.112770E+00 +1.741018E+00 +4.132791E+02 -1.542675E+01 -2.112770E+00 -1.542675E+01 +9.619101E+02 
 +3.371421E+02 -2.609441E+01 -1.591975E+01 -2.609441E+01 +3.922103E+02 -1.360092E+01 -1.591975E+01 -1.360092E+01 +9.622256E+02 
 +3.425515E+02 -2.601074E+01 -9.959698E+00 -2.601074E+01 +3.873333E+02 -8.263459E+00 -9.959698E+00 -8.263459E+00 +9.696277E+02 
 +3.522775E+02 -2.526833E+01 -7.944316E+00 -2.526833E+01 +3.818011E+02 -2.182729E+00 -7.944316E+00 -2.182729E+00 +9.632347E+02 
 +3.445234E+02 -1.774299E+01 -5.613491E+00 -1.774299E+01 +3.741687E+02 -4.080744E-02 -5.613491E+00 -4.080744E-02 +9.560483E+02 
 +3.425814E+02 -1.011608E+01 +4.407647E-01 -1.011608E+01 +3.800933E+02 +7.119001E+00 +4.407647E-01 +7.119001E+00 +9.548662E+02 
 +3.406020E+02 -5.012730E-01 +5.023628E+00 -5.012730E-01 +3.854699E+02 -3.160218E-01 +5.023628E+00 -3.160218E-01 +9.496171E+02 
 +4.027569E+02 +7.841062E+00 -7.081539E+00 +7.841062E+00 +4.137224E+02 -1.704210E+01 -7.081539E+00 -1.704210E+01 +9.593767E+02 
 +3.974890E+02 -8.889329E-01 -1.389694E+01 -8.889329E-01 +4.015546E+02 -1.577787E+01 -1.389694E+01 -1.577787E+01 +9.477779E+02 
 +3.974288E+02 -2.644216E-01 -1.546451E+01 -2.644216E-01 +3.967694E+02 -1.297556E+01 -1.546451E+01 -1.297556E+01 +9.422036E+02 
 +3.965710E+02 -1.668814E+00 -1.266424E+01 -1.668814E+00 +3.889248E+02 -4.774840E+00 -1.266424E+01 -4.774840E+00 +9.318896E+02 
 +3.943208E+02 +2.704532E-02 +1.467610E+00 +2.704532E-02 +3.869651E+02 +2.972807E+00 +1.467610E+00 +2.972807E+00 +9.273978E+02 
 +3.911957E+02 -3.715504E+00 -4.266327E+00 -3.715504E+00 +3.997811E+02 -2.078896E+00 -4.266327E+00 -2.078896E+00 +9.337837E+02 
 +3.850289E+02 -1.386000E+00 -3.943093E+00 -1.386000E+00 +4.060386E+02 -6.662845E+00 -3.943093E+00 -6.662845E+00 +9.500562E+02 
 +3.706660E+02 +5.131062E+00 -1.689621E+01 +5.131062E+00 +3.666725E+02 -2.574680E+00 -1.689621E+01 -2.574680E+00 +9.568360E+02 
 +3.556929E+02 -7.656593E+00 -7.081996E+00 -7.656593E+00 +3.387436E+02 -1.815344E+00 -7.081996E+00 -1.815344E+00 +9.561430E+02 
 +3.751318E+02 -1.234563E+01 -4.036459E+00 -1.234563E+01 +3.643238E+02 -4.923721E+00 -4.036459E+00 -4.923721E+00 +9.575040E+02 
 +3.674252E+02 -1.485634E+01 -6.410849E+00 -1.485634E+01 +3.650172E+02 -7.194871E+00 -6.410849E+00 -7.194871E+00 +9.485535E+02 
 +3.579213E+02 -1.659268E+01 -5.184869E+00 -1.659268E+01 +3.558357E+02 -1.060881E+01 -5.184869E+00 -1.060881E+01 +9.427961E+02 
 +3.648757E+02 +3.514461E+01 +1.876148E+00 +3.514461E+01 +3.609098E+02 -1.386514E+01 +1.876148E+00 -1.386514E+01 +9.500056E+02 
 +3.744316E+02 +2.700089E+01 -3.477580E+00 +2.700089E+01 +3.663833E+02 -1.927012E+01 -3.477580E+00 -1.927012E+01 +9.538125E+02 
 +3.975571E+02 +2.211311E+01 -9.397831E+00 +2.211311E+01 +3.858473E+02 -1.908042E+01 -9.397831E+00 -1.908042E+01 +9.755257E+02 
 +3.492324E+02 -2.338314E+01 -1.791334E+01 -2.338314E+01 +3.829299E+02 -1.149178E+01 -1.791334E+01 -1.149178E+01 +9.727157E+02 
 +3.547745E+02 -2.544076E+01 -1.954187E+01 -2.544076E+01 +3.886843E+02 -2.482780E+00 -1.954187E+01 -2.482780E+00 +9.783693E+02 
 +3.444508E+02 -2.485235E+01 -1.686815E+01 -2.485235E+01 +3.692579E+02 -1.119685E+00 -1.686815E+01 -1.119685E+00 +9.623490E+02 
 +3.426375E+02 -1.919933E+01 -1.291392E+01 -1.919933E+01 +3.665126E+02 -1.022926E+00 -1.291392E+01 -1.022926E+00 +9.565711E+02 
 +3.343730E+02 -1.540726E+01 -4.420264E+00 -1.540726E+01 +3.694593E+02 +5.056435E+00 -4.420264E+00 +5.056435E+00 +9.537951E+02 
 +3.598299E+02 -4.015777E+00 +2.832523E+00 -4.015777E+00 +3.991575E+02 -2.878548E+00 +2.832523E+00 -2.878548E+00 +9.638744E+02 
 +4.235171E+02 +3.645463E-01 -8.567407E+00 +3.645463E-01 +4.244892E+02 -2.047610E+01 -8.567407E+00 -2.047610E+01 +9.794016E+02 
 +4.086964E+02 +1.458381E+00 -1.224810E+01 +1.458381E+00 +3.965673E+02 -1.967818E+01 -1.224810E+01 -1.967818E+01 +9.615158E+02 
 +4.000387E+02 +6.767106E-01 -1.576789E+01 +6.767106E-01 +3.926909E+02 -1.433472E+01 -1.576789E+01 -1.433472E+01 +9.506582E+02 
 +4.014418E+02 -2.330264E+00 -1.359372E+01 -2.330264E+00 +3.923896E+02 -8.075919E+00 -1.359372E+01 -8.075919E+00 +9.425559E+02 
 +4.007553E+02 -1.196050E+00 -6.198524E+00 -1.196050E+00 +3.876064E+02 -7.154681E+00 -6.198524E+00 -7.154681E+00 +9.404074E+02 
 +4.005209E+02 +7.026390E+00 -1.314072E+01 +7.026390E+00 +3.968602E+02 -9.946766E+00 -1.314072E+01 -9.946766E+00 +9.485835E+02 
 +3.872902E+02 +7.941068E+00 -1.490644E+01 +7.941068E+00 +3.944472E+02 -1.316707E+01 -1.490644E+01 -1.316707E+01 +9.541330E+02 
 +3.734519E+02 +9.032541E+00 -1.637700E+01 +9.032541E+00 +3.696756E+02 -8.967649E+00 -1.637700E+01 -8.967649E+00 +9.596936E+02 
 +3.214613E+02 +1.644860E+01 -2.715631E+00 +1.644860E+01 +3.524639E+02 -5.407265E-01 -2.715631E+00 -5.407265E-01 +9.492360E+02 
 +3.842270E+02 -7.433964E+00 -8.710788E+00 -7.433964E+00 +3.934026E+02 -1.746616E-01 -8.710788E+00 -1.746616E-01 +9.683136E+02 
 +3.687036E+02 -9.144838E+00 -6.950955E+00 -9.144838E+00 +3.720810E+02 -5.003559E+00 -6.950955E+00 -5.003559E+00 +9.568433E+02 
 +3.567401E+02 -1.207191E+01 -2.853520E+00 -1.207191E+01 +3.596476E+02 -8.950698E+00 -2.853520E+00 -8.950698E+00 +9.541846E+02 
 +3.703754E+02 +3.447318E+01 +5.133126E-01 +3.447318E+01 +3.695354E+02 -1.577536E+01 +5.133126E-01 -1.577536E+01 +9.701521E+02 
 +3.710736E+02 +2.029229E+01 -7.059801E+00 +2.029229E+01 +3.728187E+02 -1.655913E+01 -7.059801E+00 -1.655913E+01 +9.711428E+02 
 +3.677741E+02 +2.280619E+01 -1.607640E+01 +2.280619E+01 +3.688397E+02 -1.385757E+01 -1.607640E+01 -1.385757E+01 +9.720265E+02 
 +3.473258E+02 -1.794288E+01 -2.371399E+01 -1.794288E+01 +3.494116E+02 -1.141566E+00 -2.371399E+01 -1.141566E+00 +9.659054E+02 
 +3.551299E+02 -2.513820E+01 -2.599305E+01 -2.513820E+01 +3.612046E+02 +7.968519E+00 -2.599305E+01 +7.968519E+00 +9.742926E+02 
 +3.243837E+02 -2.504645E+01 -2.097806E+01 -2.504645E+01 +3.525856E+02 +2.075851E+00 -2.097806E+01 +2.075851E+00 +9.600771E+02 
 +3.270410E+02 -1.853452E+01 -2.032376E+01 -1.853452E+01 +3.566118E+02 -1.063080E+00 -2.032376E+01 -1.063080E+00 +9.542367E+02 
 +3.416782E+02 -9.229075E+00 -1.206459E+01 -9.229075E+00 +3.672341E+02 +4.087808E+00 -1.206459E+01 +4.087808E+00 +9.561222E+02 
 +3.896126E+02 +1.445261E+01 +3.870172E-01 +1.445261E+01 +3.976718E+02 -4.631071E+00 +3.870172E-01 -4.631071E+00 +9.685830E+02 
 +4.252833E+02 +3.255148E+00 -7.467788E+00 +3.255148E+00 +4.202125E+02 -2.320641E+01 -7.467788E+00 -2.320641E+01 +9.723997E+02 
 +4.192160E+02 +3.395329E+00 -5.678192E+00 +3.395329E+00 +4.105281E+02 -2.241239E+01 -5.678192E+00 -2.241239E+01 +9.656460E+02 
 +4.036135E+02 +1.167570E+00 -1.185745E+01 +1.167570E+00 +3.948583E+02 -1.635396E+01 -1.185745E+01 -1.635396E+01 +9.576458E+02 
 +3.975394E+02 -3.769430E+00 -1.346541E+01 -3.769430E+00 +3.846475E+02 -8.896429E+00 -1.346541E+01 -8.896429E+00 +9.513294E+02 
 +3.955376E+02 -4.160079E+00 -1.394487E+01 -4.160079E+00 +3.768480E+02 -4.423351E+00 -1.394487E+01 -4.423351E+00 +9.479213E+02 
 +3.983239E+02 +2.902346E+00 -1.721067E+01 +2.902346E+00 +3.795293E+02 -1.861166E+00 -1.721067E+01 -1.861166E+00 +9.546415E+02 
 +3.767909E+02 -1.893508E+01 -1.873271E+01 -1.893508E+01 +3.606507E+02 +3.919610E+00 -1.873271E+01 +3.919610E+00 +9.562474E+02 
 +3.617655E+02 -1.964981E+01 -1.186841E+01 -1.964981E+01 +3.464755E+02 +6.966591E+00 -1.186841E+01 +6.966591E+00 +9.611690E+02 
 +2.927291E+02 +1.407202E+01 +1.033583E+00 +1.407202E+01 +3.273248E+02 +3.810860E+00 +1.033583E+00 +3.810860E+00 +9.392169E+02 
 +3.718736E+02 -1.299249E+01 -7.161515E+00 -1.299249E+01 +3.829828E+02 +5.208588E-01 -7.161515E+00 +5.208588E-01 +9.674620E+02 
 +3.671672E+02 -6.572866E+00 -1.818961E+00 -6.572866E+00 +3.729445E+02 -4.167335E+00 -1.818961E+00 -4.167335E+00 +9.633604E+02 
 +3.600922E+02 -1.432842E+01 +3.372432E+00 -1.432842E+01 +3.655900E+02 -1.133214E+01 +3.372432E+00 -1.133214E+01 +9.649542E+02 
 +3.695659E+02 +3.245883E+01 +3.199518E+00 +3.245883E+01 +3.824058E+02 -1.250760E+01 +3.199518E+00 -1.250760E+01 +9.778525E+02 
 +3.688276E+02 +2.017631E+01 -5.768976E+00 +2.017631E+01 +3.761736E+02 -1.217854E+01 -5.768976E+00 -1.217854E+01 +9.790867E+02 
 +3.690857E+02 +2.361981E+01 -1.538903E+01 +2.361981E+01 +3.647336E+02 -1.186418E+01 -1.538903E+01 -1.186418E+01 +9.823234E+02 
 +3.536093E+02 -1.407873E+01 -2.549004E+01 -1.407873E+01 +3.452556E+02 -8.369748E-01 -2.549004E+01 -8.369748E-01 +9.726037E+02 
 +3.559606E+02 -1.686875E+01 -2.579234E+01 -1.686875E+01 +3.496168E+02 +1.246788E+01 -2.579234E+01 +1.246788E+01 +9.729021E+02 
 +3.054938E+02 -2.307457E+01 -1.534290E+01 -2.307457E+01 +3.323973E+02 +5.767109E+00 -1.534290E+01 +5.767109E+00 +9.577586E+02 
 +3.262149E+02 -8.233543E+00 -1.441380E+01 -8.233543E+00 +3.486399E+02 -5.702692E-01 -1.441380E+01 -5.702692E-01 +9.580729E+02 
 +3.753036E+02 +4.068481E+00 -4.857161E+00 +4.068481E+00 +3.805504E+02 +4.526542E+00 -4.857161E+00 +4.526542E+00 +9.671215E+02 
 +3.895345E+02 +1.714073E+01 +7.053313E-01 +1.714073E+01 +3.890777E+02 -1.403964E+00 +7.053313E-01 -1.403964E+00 +9.614473E+02 
 +4.144109E+02 +1.201630E+00 -2.102706E+00 +1.201630E+00 +4.152004E+02 -1.273665E+01 -2.102706E+00 -1.273665E+01 +9.564065E+02 
 +4.347094E+02 -4.553588E+00 +5.349342E+00 -4.553588E+00 +4.393021E+02 -1.338879E+01 +5.349342E+00 -1.338879E+01 +9.704114E+02 
 +4.200838E+02 -6.793272E+00 -4.900711E+00 -6.793272E+00 +4.167150E+02 -1.432483E+01 -4.900711E+00 -1.432483E+01 +9.725454E+02 
 +3.982637E+02 -7.911483E+00 -1.092297E+01 -7.911483E+00 +3.903744E+02 -7.938781E+00 -1.092297E+01 -7.938781E+00 +9.602585E+02 
 +3.877182E+02 -1.096516E+01 -1.696603E+01 -1.096516E+01 +3.779268E+02 -2.938361E+00 -1.696603E+01 -2.938361E+00 +9.528799E+02 
 +3.849142E+02 -1.606213E+00 -2.064342E+01 -1.606213E+00 +3.650178E+02 -4.356328E-01 -2.064342E+01 -4.356328E-01 +9.528663E+02 
 +3.660369E+02 -2.073566E+01 -1.954033E+01 -2.073566E+01 +3.471367E+02 -4.395271E-01 -1.954033E+01 -4.395271E-01 +9.509118E+02 
 +3.596748E+02 -1.229134E+01 -1.281146E+01 -1.229134E+01 +3.515749E+02 +5.138153E+00 -1.281146E+01 +5.138153E+00 +9.637624E+02 
 +3.071750E+02 +1.923209E+01 -1.738768E-01 +1.923209E+01 +3.303762E+02 +5.403242E+00 -1.738768E-01 +5.403242E+00 +9.497097E+02 
 +3.666590E+02 -1.627760E+01 -1.123210E+00 -1.627760E+01 +3.656580E+02 -1.588369E+00 -1.123210E+00 -1.588369E+00 +9.679824E+02 
 +3.638194E+02 -8.578253E+00 +7.457683E+00 -8.578253E+00 +3.703472E+02 -6.894277E+00 +7.457683E+00 -6.894277E+00 +9.669476E+02 
 +3.580286E+02 -1.572909E+01 +9.683352E+00 -1.572909E+01 +3.733249E+02 -1.105167E+01 +9.683352E+00 -1.105167E+01 +9.706847E+02 
 +3.727243E+02 +3.161162E+01 +3.445119E+00 +3.161162E+01 +3.895784E+02 -1.054845E+01 +3.445119E+00 -1.054845E+01 +9.874714E+02 
 +3.772826E+02 +1.887758E+01 -3.140490E+00 +1.887758E+01 +3.787114E+02 -1.180228E+01 -3.140490E+00 -1.180228E+01 +9.890558E+02 
 +3.706497E+02 +2.255178E+01 -9.612694E+00 +2.255178E+01 +3.575477E+02 -1.208559E+01 -9.612694E+00 -1.208559E+01 +9.902053E+02 
 +3.593780E+02 -1.222649E+01 -1.715674E+01 -1.222649E+01 +3.396874E+02 -2.034835E+00 -1.715674E+01 -2.034835E+00 +9.812525E+02 
 +3.633746E+02 -5.184063E+00 -1.696676E+01 -5.184063E+00 +3.478287E+02 +1.171357E+01 -1.696676E+01 +1.171357E+01 +9.811151E+02 
 +2.927629E+02 -1.244361E+01 -1.044355E+00 -1.244361E+01 +3.144867E+02 +7.019266E+00 -1.044355E+00 +7.019266E+00 +9.556753E+02 
 +3.478348E+02 +7.112563E+00 +5.751358E-03 +7.112563E+00 +3.533147E+02 +6.822399E-01 +5.751358E-03 +6.822399E-01 +9.661627E+02 
 +3.915004E+02 +1.183255E+01 +1.829895E-01 +1.183255E+01 +3.857260E+02 -1.312939E+00 +1.829895E-01 -1.312939E+00 +9.691418E+02 
 +3.775509E+02 +2.717170E+01 -4.525306E+00 +2.717170E+01 +3.710514E+02 -5.217487E+00 -4.525306E+00 -5.217487E+00 +9.593312E+02 
 +3.883410E+02 +2.371367E+01 -4.620833E-01 +2.371367E+01 +3.712021E+02 -7.674104E+00 -4.620833E-01 -7.674104E+00 +9.552186E+02 
 +4.097023E+02 +1.354186E+01 +1.330999E+01 +1.354186E+01 +4.037917E+02 -1.172307E+01 +1.330999E+01 -1.172307E+01 +9.699477E+02 
 +4.239040E+02 -6.665473E+00 +5.139973E+00 -6.665473E+00 +4.258276E+02 -1.402580E+01 +5.139973E+00 -1.402580E+01 +9.834053E+02 
 +3.968047E+02 -6.845763E+00 -9.363360E+00 -6.845763E+00 +3.970758E+02 -1.169716E+01 -9.363360E+00 -1.169716E+01 +9.634377E+02 
 +3.805602E+02 -8.867414E+00 -1.756585E+01 -8.867414E+00 +3.763483E+02 -7.500342E+00 -1.756585E+01 -7.500342E+00 +9.532439E+02 
 +3.624850E+02 -5.194267E+00 -1.668769E+01 -5.194267E+00 +3.465090E+02 -1.663947E+00 -1.668769E+01 -1.663947E+00 +9.417664E+02 
 +3.503202E+02 -2.474141E+01 -1.696317E+01 -2.474141E+01 +3.317024E+02 +5.159142E+00 -1.696317E+01 +5.159142E+00 +9.393286E+02 
 +3.536409E+02 -1.572324E+01 -1.674690E+01 -1.572324E+01 +3.452008E+02 +1.110560E+01 -1.674690E+01 +1.110560E+01 +9.607446E+02 
 +3.071276E+02 +1.435686E+01 +1.842407E+00 +1.435686E+01 +3.196886E+02 +3.332262E+00 +1.842407E+00 +3.332262E+00 +9.495164E+02 
 +3.622555E+02 -1.656238E+01 +8.913944E+00 -1.656238E+01 +3.517237E+02 -6.726244E+00 +8.913944E+00 -6.726244E+00 +9.684904E+02 
 +3.601416E+02 -9.280797E+00 +1.518829E+01 -9.280797E+00 +3.638001E+02 -8.365997E+00 +1.518829E+01 -8.365997E+00 +9.746349E+02 
 +3.605921E+02 -1.545351E+01 +1.165680E+01 -1.545351E+01 +3.802585E+02 -9.630280E+00 +1.165680E+01 -9.630280E+00 +9.837484E+02 
 +4.002277E+02 +3.132822E+01 +2.121354E+00 +3.132822E+01 +4.093453E+02 -1.415267E+01 +2.121354E+00 -1.415267E+01 +1.000721E+03 
 +3.853711E+02 +2.338657E+01 +8.788015E-01 +2.338657E+01 +3.753366E+02 -1.656581E+01 +8.788015E-01 -1.656581E+01 +9.915212E+02 
 +3.728172E+02 +2.900941E+01 +4.889661E-01 +2.900941E+01 +3.534212E+02 -1.671300E+01 +4.889661E-01 -1.671300E+01 +9.915958E+02 
 +3.391249E+02 -7.994181E+00 -1.059369E+00 -7.994181E+00 +3.199563E+02 -7.964907E+00 -1.059369E+00 -7.964907E+00 +9.733180E+02 
 +3.550396E+02 -1.897290E+00 +5.874851E+00 -1.897290E+00 +3.319993E+02 +8.189010E+00 +5.874851E+00 +8.189010E+00 +9.717681E+02 
 +3.312609E+02 -9.935882E+00 +1.262156E+01 -9.935882E+00 +3.373684E+02 +9.760077E+00 +1.262156E+01 +9.760077E+00 +9.665624E+02 
 +3.735117E+02 +2.136211E+01 +1.093660E+00 +2.136211E+01 +3.676430E+02 -4.414170E-02 +1.093660E+00 -4.414170E-02 +9.842525E+02 
 +3.827696E+02 +1.934986E+01 -7.935506E+00 +1.934986E+01 +3.773571E+02 -6.463905E+00 -7.935506E+00 -6.463905E+00 +9.770055E+02 
 +3.899728E+02 +2.036984E+01 -8.668580E+00 +2.036984E+01 +3.805448E+02 -3.698901E+00 -8.668580E+00 -3.698901E+00 +9.763453E+02 
 +3.902515E+02 +1.922268E+01 -4.293244E+00 +1.922268E+01 +3.768530E+02 +1.186792E+00 -4.293244E+00 +1.186792E+00 +9.722663E+02 
 +3.874203E+02 +1.905801E+01 +4.763169E+00 +1.905801E+01 +3.865146E+02 -1.389933E-01 +4.763169E+00 -1.389933E-01 +9.681188E+02 
 +4.178863E+02 -4.504598E+00 +2.427822E+00 -4.504598E+00 +4.212772E+02 -1.082270E+01 +2.427822E+00 -1.082270E+01 +9.771960E+02 
 +4.069361E+02 -6.482013E+00 -6.164963E+00 -6.482013E+00 +4.025110E+02 -1.586099E+01 -6.164963E+00 -1.586099E+01 +9.574180E+02 
 +3.808136E+02 +5.442342E+00 -1.455335E+01 +5.442342E+00 +3.711823E+02 -1.301095E+01 -1.455335E+01 -1.301095E+01 +9.439759E+02 
 +3.510620E+02 +8.370371E+00 -1.042076E+01 +8.370371E+00 +3.534951E+02 -1.594034E+01 -1.042076E+01 -1.594034E+01 +9.390009E+02 
 +3.349587E+02 +5.068842E-01 -9.399472E+00 +5.068842E-01 +3.473550E+02 -1.466697E+01 -9.399472E+00 -1.466697E+01 +9.439083E+02 
 +3.313887E+02 -6.432800E+00 -1.104990E+01 -6.432800E+00 +3.493835E+02 -8.302761E+00 -1.104990E+01 -8.302761E+00 +9.578662E+02 
 +3.122495E+02 +9.674595E+00 +1.081988E+01 +9.674595E+00 +3.228041E+02 -7.235248E+00 +1.081988E+01 -7.235248E+00 +9.479899E+02 
 +3.600245E+02 -1.383481E+01 +1.882812E+01 -1.383481E+01 +3.473264E+02 -9.868800E+00 +1.882812E+01 -9.868800E+00 +9.638984E+02 
 +3.636690E+02 -3.712179E+00 +2.452920E+01 -3.712179E+00 +3.667344E+02 -7.165478E+00 +2.452920E+01 -7.165478E+00 +9.701333E+02 
 +3.670521E+02 -5.862977E+00 +1.309734E+01 -5.862977E+00 +3.920564E+02 -9.046742E+00 +1.309734E+01 -9.046742E+00 +9.824738E+02 
 +3.948294E+02 +7.375968E+00 +5.588078E+00 +7.375968E+00 +4.388788E+02 -7.013442E+00 +5.588078E+00 -7.013442E+00 +9.885137E+02 
 +4.003913E+02 -1.027605E+01 +3.179526E+00 -1.027605E+01 +4.145284E+02 -9.420933E+00 +3.179526E+00 -9.420933E+00 +9.959152E+02 
 +3.811136E+02 -1.986961E+01 +5.411519E+00 -1.986961E+01 +3.798370E+02 -2.123691E+01 +5.411519E+00 -2.123691E+01 +9.912580E+02 
 +3.648053E+02 -2.792653E+01 +6.408558E+00 -2.792653E+01 +3.543558E+02 -2.175752E+01 +6.408558E+00 -2.175752E+01 +9.727238E+02 
 +3.982631E+02 -9.218405E+00 +1.207814E+01 -9.218405E+00 +3.858396E+02 -9.218318E+00 +1.207814E+01 -9.218318E+00 +9.742633E+02 
 +3.959042E+02 -8.422262E+00 +6.714180E+00 -8.422262E+00 +3.887878E+02 +3.536298E+00 +6.714180E+00 +3.536298E+00 +9.590170E+02 
 +3.843347E+02 +5.975473E+00 -1.811640E+00 +5.975473E+00 +3.813638E+02 +9.483954E+00 -1.811640E+00 +9.483954E+00 +9.566184E+02 
 +3.688128E+02 +1.963091E+01 -8.927389E+00 +1.963091E+01 +3.700801E+02 +8.666693E-01 -8.927389E+00 +8.666693E-01 +9.742946E+02 
 +3.651293E+02 +2.848417E+01 -9.680538E+00 +2.848417E+01 +3.697449E+02 -4.779709E+00 -9.680538E+00 -4.779709E+00 +9.739097E+02 
 +3.842756E+02 +2.701469E+01 -4.993641E+00 +2.701469E+01 +3.871587E+02 -6.345040E-01 -4.993641E+00 -6.345040E-01 +9.755299E+02 
 +3.904546E+02 +2.568467E+01 -6.346614E+00 +2.568467E+01 +3.842494E+02 +3.420778E-01 -6.346614E+00 +3.420778E-01 +9.680234E+02 
 +3.972397E+02 +1.994139E+00 -1.053641E+01 +1.994139E+00 +3.698755E+02 +1.976055E+00 -1.053641E+01 +1.976055E+00 +9.545979E+02 
 +4.051494E+02 +3.850110E+00 -7.770188E+00 +3.850110E+00 +3.761892E+02 +1.106324E+01 -7.770188E+00 +1.106324E+01 +9.603891E+02 
 +3.467507E+02 -1.021144E+01 +1.830882E+00 -1.021144E+01 +3.567144E+02 +1.066044E+01 +1.830882E+00 +1.066044E+01 +9.492139E+02 
 +3.256691E+02 -1.608462E+01 +1.834329E+00 -1.608462E+01 +3.442060E+02 +8.627746E+00 +1.834329E+00 +8.627746E+00 +9.485597E+02 
 +3.109641E+02 -2.475638E+01 +1.252107E+00 -2.475638E+01 +3.369088E+02 +5.014170E+00 +1.252107E+00 +5.014170E+00 +9.438304E+02 
 +2.967698E+02 -2.846483E+01 +1.755235E+00 -2.846483E+01 +3.223168E+02 -1.044441E+01 +1.755235E+00 -1.044441E+01 +9.340045E+02 
 +3.789631E+02 +8.094034E-01 +2.060490E+01 +8.094034E-01 +3.654021E+02 -2.720529E+01 +2.060490E+01 -2.720529E+01 +9.582279E+02 
 +4.078453E+02 +6.135897E+00 +1.747382E+01 +6.135897E+00 +4.019732E+02 -3.023499E+01 +1.747382E+01 -3.023499E+01 +9.670173E+02 
 +3.778909E+02 +1.307887E+01 +1.688946E+01 +1.307887E+01 +4.046188E+02 -2.112968E+01 +1.688946E+01 -2.112968E+01 +9.647028E+02 
 +3.746388E+02 +1.067279E+01 +1.183590E+01 +1.067279E+01 +4.290071E+02 -1.299794E+01 +1.183590E+01 -1.299794E+01 +9.741196E+02 
 +3.599979E+02 -9.113376E+00 +4.274896E+00 -9.113376E+00 +3.969988E+02 +1.948664E+00 +4.274896E+00 +1.948664E+00 +9.749517E+02 
 +3.767067E+02 -1.843369E+00 +7.141380E-01 -1.843369E+00 +3.849475E+02 -6.503967E+00 +7.141380E-01 -6.503967E+00 +9.803116E+02 
 +3.725434E+02 -1.109312E+01 +1.718636E+00 -1.109312E+01 +3.714827E+02 -1.384141E+01 +1.718636E+00 -1.384141E+01 +9.748680E+02 
 +4.037036E+02 -2.176743E+00 +9.150799E+00 -2.176743E+00 +3.899853E+02 -8.530482E+00 +9.150799E+00 -8.530482E+00 +9.712269E+02 
 +4.216764E+02 +3.784183E+00 +7.572912E+00 +3.784183E+00 +4.009693E+02 -9.176186E-01 +7.572912E+00 -9.176186E-01 +9.647411E+02 
 +4.160407E+02 -4.027880E+00 +2.866007E-01 -4.027880E+00 +3.930461E+02 +5.442523E+00 +2.866007E-01 +5.442523E+00 +9.488069E+02 
 +3.943879E+02 +2.273195E+00 -4.909319E+00 +2.273195E+00 +3.857996E+02 +7.214195E+00 -4.909319E+00 +7.214195E+00 +9.439148E+02 
 +3.902888E+02 +4.591646E+00 -7.586509E+00 +4.591646E+00 +3.863726E+02 -9.678322E-01 -7.586509E+00 -9.678322E-01 +9.791683E+02 
 +3.701270E+02 +2.272028E+01 -1.341557E+01 +2.272028E+01 +3.756605E+02 -6.202464E+00 -1.341557E+01 -6.202464E+00 +9.825410E+02 
 +3.786434E+02 +2.494378E+01 -7.003357E+00 +2.494378E+01 +3.787814E+02 -1.174265E+00 -7.003357E+00 -1.174265E+00 +9.821800E+02 
 +3.873230E+02 +2.273798E+01 -9.021722E+00 +2.273798E+01 +3.768636E+02 -5.965385E+00 -9.021722E+00 -5.965385E+00 +9.752488E+02 
 +4.057921E+02 -1.081274E+01 -1.149165E+01 -1.081274E+01 +3.745565E+02 -2.534802E+00 -1.149165E+01 -2.534802E+00 +9.615032E+02 
 +3.799107E+02 -3.551524E+00 -6.664896E+00 -3.551524E+00 +3.554041E+02 +1.711551E+01 -6.664896E+00 +1.711551E+01 +9.540772E+02 
 +3.078834E+02 -1.720330E+01 +7.499533E+00 -1.720330E+01 +3.338162E+02 +1.760301E+01 +7.499533E+00 +1.760301E+01 +9.487480E+02 
 +3.110639E+02 -1.710170E+01 +6.314381E+00 -1.710170E+01 +3.495884E+02 +7.225176E+00 +6.314381E+00 +7.225176E+00 +9.587251E+02 
 +3.114258E+02 -1.941978E+01 +5.921668E+00 -1.941978E+01 +3.478068E+02 +2.714947E+00 +5.921668E+00 +2.714947E+00 +9.516971E+02 
 +3.081667E+02 -2.775766E+01 +1.578552E+00 -2.775766E+01 +3.414342E+02 -5.331151E+00 +1.578552E+00 -5.331151E+00 +9.417626E+02 
 +3.866675E+02 -4.771261E+00 +1.881948E+01 -4.771261E+00 +3.736727E+02 -2.151566E+01 +1.881948E+01 -2.151566E+01 +9.533429E+02 
 +3.805614E+02 +1.873224E-01 +1.577593E+01 +1.873224E-01 +3.708119E+02 -2.294420E+01 +1.577593E+01 -2.294420E+01 +9.389503E+02 
 +3.774141E+02 +1.432487E+00 +1.374872E+01 +1.432487E+00 +3.933430E+02 -1.669671E+01 +1.374872E+01 -1.669671E+01 +9.585877E+02 
 +3.626189E+02 +5.356517E+00 +1.230840E+01 +5.356517E+00 +4.080279E+02 -6.177407E+00 +1.230840E+01 -6.177407E+00 +9.731593E+02 
 +3.674090E+02 -5.953063E+00 -6.392832E+00 -5.953063E+00 +3.746402E+02 -1.139180E-01 -6.392832E+00 -1.139180E-01 +9.896380E+02 
 +3.828538E+02 +1.995077E+00 -1.208659E+01 +1.995077E+00 +3.838880E+02 -2.555120E+00 -1.208659E+01 -2.555120E+00 +9.867787E+02 
 +3.957605E+02 -2.410982E+00 -4.300223E+00 -2.410982E+00 +3.946668E+02 -3.568961E+00 -4.300223E+00 -3.568961E+00 +9.830989E+02 
 +4.244762E+02 +3.805556E+00 +7.686259E+00 +3.805556E+00 +4.130655E+02 -3.767362E+00 +7.686259E+00 -3.767362E+00 +9.870939E+02 
 +4.286243E+02 +3.089801E+00 +1.961064E-01 +3.089801E+00 +4.056480E+02 -1.269030E+00 +1.961064E-01 -1.269030E+00 +9.696550E+02 
 +4.289415E+02 +1.944836E-01 -1.782590E+00 +1.944836E-01 +4.028117E+02 +4.499587E+00 -1.782590E+00 +4.499587E+00 +9.502337E+02 
 +4.072290E+02 +4.819369E+00 -4.411834E+00 +4.819369E+00 +3.882211E+02 +7.097353E+00 -4.411834E+00 +7.097353E+00 +9.508098E+02 
 +3.951623E+02 +1.317672E+01 -7.339800E+00 +1.317672E+01 +3.907377E+02 -3.759637E+00 -7.339800E+00 -3.759637E+00 +9.936644E+02 
 +3.878608E+02 +2.546273E+01 -7.092885E+00 +2.546273E+01 +3.864164E+02 -5.942415E+00 -7.092885E+00 -5.942415E+00 +1.001043E+03 
 +3.770528E+02 +2.458733E+01 +7.127671E-01 +2.458733E+01 +3.729577E+02 +4.591329E-01 +7.127671E-01 +4.591329E-01 +9.866262E+02 
 +3.832476E+02 +2.071465E+01 +3.995462E+00 +2.071465E+01 +3.711154E+02 -6.453704E+00 +3.995462E+00 -6.453704E+00 +9.821750E+02 
 +3.890827E+02 -1.384402E+01 +1.781259E+00 -1.384402E+01 +3.650297E+02 -6.550579E+00 +1.781259E+00 -6.550579E+00 +9.706083E+02 
 +3.398735E+02 -9.996700E+00 +7.627207E+00 -9.996700E+00 +3.423248E+02 +7.237742E+00 +7.627207E+00 +7.237742E+00 +9.563325E+02 
 +3.082777E+02 -1.966448E+01 +1.215542E+01 -1.966448E+01 +3.361692E+02 +1.177137E+01 +1.215542E+01 +1.177137E+01 +9.585692E+02 
 +3.113739E+02 -1.897030E+01 +8.535352E+00 -1.897030E+01 +3.471874E+02 +8.151564E+00 +8.535352E+00 +8.151564E+00 +9.644783E+02 
 +3.135030E+02 -1.942621E+01 +8.462746E+00 -1.942621E+01 +3.522498E+02 +4.255481E+00 +8.462746E+00 +4.255481E+00 +9.574299E+02 
 +3.167965E+02 -2.522110E+01 +4.300643E+00 -2.522110E+01 +3.584987E+02 +2.335291E+00 +4.300643E+00 +2.335291E+00 +9.480476E+02 
 +3.554437E+02 -1.034505E+01 +1.380786E+01 -1.034505E+01 +3.711602E+02 -1.350427E+01 +1.380786E+01 -1.350427E+01 +9.449734E+02 
 +3.693064E+02 -1.487483E+00 +1.202599E+01 -1.487483E+00 +3.649473E+02 -1.978557E+01 +1.202599E+01 -1.978557E+01 +9.424191E+02 
 +3.685779E+02 +1.441095E+00 +7.994824E+00 +1.441095E+00 +3.607362E+02 -8.444317E+00 +7.994824E+00 -8.444317E+00 +9.613271E+02 
 +3.566547E+02 +1.249198E+01 +1.389327E+01 +1.249198E+01 +3.560262E+02 -2.760191E+00 +1.389327E+01 -2.760191E+00 +9.744878E+02 
 +3.589872E+02 -1.649390E-01 -6.756859E+00 -1.649390E-01 +3.463207E+02 -1.384898E+01 -6.756859E+00 -1.384898E+01 +9.980110E+02 
 +3.803610E+02 -2.786785E+00 -1.219642E+01 -2.786785E+00 +3.676625E+02 -6.293215E+00 -1.219642E+01 -6.293215E+00 +9.971410E+02 
 +4.101890E+02 -2.126686E+00 -1.021525E+01 -2.126686E+00 +3.924632E+02 -6.891595E+00 -1.021525E+01 -6.891595E+00 +1.005682E+03 
 +4.290509E+02 -7.407621E-01 +8.561051E+00 -7.407621E-01 +4.085238E+02 -5.103571E+00 +8.561051E+00 -5.103571E+00 +1.001140E+03 
 +4.348544E+02 +2.720916E+00 +8.260688E-01 +2.720916E+00 +4.094446E+02 -3.248836E+00 +8.260688E-01 -3.248836E+00 +9.747655E+02 
 +4.357674E+02 -2.285733E+00 +1.243549E+00 -2.285733E+00 +4.080219E+02 +4.418253E+00 +1.243549E+00 +4.418253E+00 +9.503223E+02 
 +4.272461E+02 -3.713088E+00 -9.355835E-01 -3.713088E+00 +4.049021E+02 +5.847883E+00 -9.355835E-01 +5.847883E+00 +9.574109E+02 
 +4.003046E+02 +6.289174E+00 -1.184532E+01 +6.289174E+00 +4.043154E+02 -5.746145E+00 -1.184532E+01 -5.746145E+00 +9.968145E+02 
 +3.982916E+02 +1.046084E+01 -6.445163E+00 +1.046084E+01 +4.043137E+02 -8.287462E+00 -6.445163E+00 -8.287462E+00 +1.007395E+03 
 +3.979920E+02 +1.911221E+01 +2.293711E+00 +1.911221E+01 +3.964394E+02 -6.886823E+00 +2.293711E+00 -6.886823E+00 +9.993132E+02 
 +3.849302E+02 +1.007268E+01 +5.580081E+00 +1.007268E+01 +3.793834E+02 -1.059744E+01 +5.580081E+00 -1.059744E+01 +9.935738E+02 
 +3.476354E+02 -2.377853E+01 +1.915693E+00 -2.377853E+01 +3.581569E+02 -7.895367E+00 +1.915693E+00 -7.895367E+00 +9.760865E+02 
 +3.283952E+02 -1.919582E+01 +5.262934E+00 -1.919582E+01 +3.536786E+02 +2.806072E+00 +5.262934E+00 +2.806072E+00 +9.727371E+02 
 +3.254182E+02 -1.859239E+01 +8.098529E+00 -1.859239E+01 +3.500532E+02 +8.030513E+00 +8.098529E+00 +8.030513E+00 +9.733387E+02 
 +3.219490E+02 -1.714294E+01 +6.445346E+00 -1.714294E+01 +3.536772E+02 +6.631960E+00 +6.445346E+00 +6.631960E+00 +9.701257E+02 
 +3.202943E+02 -1.883462E+01 +5.959542E+00 -1.883462E+01 +3.585937E+02 +7.015757E-01 +5.959542E+00 +7.015757E-01 +9.701622E+02 
 +3.181653E+02 -2.493110E+01 +8.686726E+00 -2.493110E+01 +3.614229E+02 +1.046737E+00 +8.686726E+00 +1.046737E+00 +9.626724E+02 
 +3.425993E+02 -1.265224E+01 +5.211912E+00 -1.265224E+01 +3.658335E+02 -7.339235E+00 +5.211912E+00 -7.339235E+00 +9.547869E+02 
 +3.763420E+02 +1.189615E+01 +8.812052E-01 +1.189615E+01 +3.608338E+02 -2.157383E+01 +8.812052E-01 -2.157383E+01 +9.613571E+02 
 +3.607529E+02 +1.807516E+01 -4.518545E-02 +1.807516E+01 +3.351108E+02 -2.284861E+01 -4.518545E-02 -2.284861E+01 +9.679647E+02 
 +3.550863E+02 +2.509058E+01 +1.057066E+01 +2.509058E+01 +3.307074E+02 -2.048837E+01 +1.057066E+01 -2.048837E+01 +9.858701E+02 
 +3.575890E+02 +1.799960E+01 +4.998907E+00 +1.799960E+01 +3.424419E+02 -1.932812E+01 +4.998907E+00 -1.932812E+01 +9.963012E+02 
 +3.722612E+02 +1.310104E+01 +3.213738E+00 +1.310104E+01 +3.516838E+02 -1.245876E+01 +3.213738E+00 -1.245876E+01 +9.972981E+02 
 +3.920452E+02 +1.326999E+01 -9.275343E-01 +1.326999E+01 +3.701773E+02 -5.628237E+00 -9.275343E-01 -5.628237E+00 +1.005110E+03 
 +4.200026E+02 +3.486473E-01 +1.605256E+01 +3.486473E-01 +3.988925E+02 -6.669251E-01 +1.605256E+01 -6.669251E-01 +1.003172E+03 
 +4.374876E+02 -3.694412E+00 +8.788615E+00 -3.694412E+00 +4.143065E+02 +4.820646E-01 +8.788615E+00 +4.820646E-01 +9.887644E+02 
 +4.498001E+02 -1.078643E+01 +2.701884E+00 -1.078643E+01 +4.212884E+02 +5.823847E+00 +2.701884E+00 +5.823847E+00 +9.755952E+02 
 +4.461080E+02 -1.057650E+01 -4.101534E+00 -1.057650E+01 +4.268878E+02 +2.721489E+00 -4.101534E+00 +2.721489E+00 +9.812964E+02 
 +4.069620E+02 +1.438585E+00 -1.718924E+01 +1.438585E+00 +4.111831E+02 -5.705689E+00 -1.718924E+01 -5.705689E+00 +9.955686E+02 
 +4.017624E+02 +6.880609E+00 -1.051323E+01 +6.880609E+00 +4.037955E+02 -4.499964E+00 -1.051323E+01 -4.499964E+00 +9.972839E+02 
 +4.090395E+02 +1.570154E+01 -8.453685E+00 +1.570154E+01 +4.140199E+02 -1.017162E+01 -8.453685E+00 -1.017162E+01 +1.002215E+03 
 +3.512482E+02 -1.561411E+01 -1.967220E+00 -1.561411E+01 +3.701452E+02 -1.248086E+01 -1.967220E+00 -1.248086E+01 +9.858157E+02 
 +3.272981E+02 -2.499087E+01 -2.159726E+00 -2.499087E+01 +3.490642E+02 -6.116411E+00 -2.159726E+00 -6.116411E+00 +9.775005E+02 
 +3.357625E+02 -1.911919E+01 -1.492650E+00 -1.911919E+01 +3.589094E+02 -1.745748E+00 -1.492650E+00 -1.745748E+00 +9.801060E+02 
 +3.339033E+02 -1.377015E+01 +2.623610E+00 -1.377015E+01 +3.548934E+02 +2.990574E+00 +2.623610E+00 +2.990574E+00 +9.748397E+02 
 +3.341631E+02 -1.241371E+01 +1.228480E+00 -1.241371E+01 +3.634653E+02 +1.535278E+00 +1.228480E+00 +1.535278E+00 +9.765017E+02 
 +3.276871E+02 -1.657109E+01 -9.128375E-01 -1.657109E+01 +3.661102E+02 -3.401412E+00 -9.128375E-01 -3.401412E+00 +9.836052E+02 
 +3.506995E+02 -1.237089E+01 +8.376758E-01 -1.237089E+01 +3.712125E+02 -5.655644E+00 +8.376758E-01 -5.655644E+00 +9.780424E+02 
 +3.694153E+02 +1.124127E+01 -7.248795E+00 +1.124127E+01 +3.715525E+02 -1.147123E+01 -7.248795E+00 -1.147123E+01 +9.626621E+02 
 +3.697429E+02 +2.509807E+01 -1.042251E+01 +2.509807E+01 +3.635415E+02 -2.101894E+01 -1.042251E+01 -2.101894E+01 +9.648546E+02 
 +3.505839E+02 +2.125841E+01 -7.557934E+00 +2.125841E+01 +3.363595E+02 -2.699416E+01 -7.557934E+00 -2.699416E+01 +9.654926E+02 
 +3.491540E+02 +3.534915E+01 +8.807455E+00 +3.534915E+01 +3.309670E+02 -2.756569E+01 +8.807455E+00 -2.756569E+01 +9.821672E+02 
 +3.647852E+02 +2.159428E+01 +7.143125E+00 +2.159428E+01 +3.448279E+02 -1.856369E+01 +7.143125E+00 -1.856369E+01 +9.879869E+02 
 +3.702649E+02 +1.663860E+01 +8.752822E+00 +1.663860E+01 +3.523715E+02 -1.314456E+01 +8.752822E+00 -1.314456E+01 +9.919160E+02 
 +3.674173E+02 +2.044353E+01 +8.330233E+00 +2.044353E+01 +3.459665E+02 -4.253219E+00 +8.330233E+00 -4.253219E+00 +9.874880E+02 
 +3.727270E+02 +1.838922E+01 +1.476005E+01 +1.838922E+01 +3.414582E+02 +2.117713E+00 +1.476005E+01 +2.117713E+00 +9.791393E+02 
 +3.974647E+02 +1.280117E+01 +1.199443E+01 +1.280117E+01 +3.616380E+02 +1.947555E+00 +1.199443E+01 +1.947555E+00 +9.835936E+02 
 +4.147589E+02 -6.332260E+00 -1.146557E+00 -6.332260E+00 +3.696042E+02 +1.726855E+00 -1.146557E+00 +1.726855E+00 +9.872796E+02 
 +4.109829E+02 -1.047751E+01 -8.288697E+00 -1.047751E+01 +3.713811E+02 +2.395532E+00 -8.288697E+00 +2.395532E+00 +9.922296E+02 
 +3.939707E+02 -1.248287E+01 -1.186139E+01 -1.248287E+01 +3.707594E+02 +4.278560E+00 -1.186139E+01 +4.278560E+00 +9.950086E+02 
 +3.757610E+02 -1.084991E+01 -1.961775E+00 -1.084991E+01 +3.521552E+02 +4.246559E+00 -1.961775E+00 +4.246559E+00 +9.806887E+02 
 +3.664441E+02 +4.317522E+00 -9.563628E+00 +4.317522E+00 +3.472353E+02 -7.672515E+00 -9.563628E+00 -7.672515E+00 +9.784047E+02 
 +3.376635E+02 -1.625448E+01 -5.314494E+00 -1.625448E+01 +3.577214E+02 -1.574846E+01 -5.314494E+00 -1.574846E+01 +9.823838E+02 
 +3.472593E+02 -1.880216E+01 -2.204663E+00 -1.880216E+01 +3.683410E+02 -9.612090E+00 -2.204663E+00 -9.612090E+00 +9.902352E+02 
 +3.346046E+02 -1.557836E+01 -2.651421E+00 -1.557836E+01 +3.531409E+02 -4.471574E+00 -2.651421E+00 -4.471574E+00 +9.778734E+02 
 +3.338105E+02 -1.151468E+01 -2.436356E+00 -1.151468E+01 +3.588215E+02 -2.618943E+00 -2.436356E+00 -2.618943E+00 +9.714942E+02 
 +3.454068E+02 -9.595292E+00 -7.299689E+00 -9.595292E+00 +3.727330E+02 +1.887005E+00 -7.299689E+00 +1.887005E+00 +9.809968E+02 
 +3.734955E+02 -8.651088E+00 -4.846713E+00 -8.651088E+00 +3.924168E+02 +5.888069E+00 -4.846713E+00 +5.888069E+00 +9.985794E+02 
 +3.953485E+02 -4.716537E+00 -1.032014E+01 -4.716537E+00 +3.961584E+02 +9.175042E+00 -1.032014E+01 +9.175042E+00 +9.853762E+02 
 +3.823160E+02 +4.577953E+00 -1.243823E+01 +4.577953E+00 +3.931970E+02 +4.576960E+00 -1.243823E+01 +4.576960E+00 +9.595089E+02 
 +3.624736E+02 +7.381324E+00 -1.677072E+01 +7.381324E+00 +3.846340E+02 -8.082532E+00 -1.677072E+01 -8.082532E+00 +9.621312E+02 
 +3.518278E+02 +9.092874E+00 -1.370849E+01 +9.092874E+00 +3.552600E+02 -1.951139E+01 -1.370849E+01 -1.951139E+01 +9.697860E+02 
 +3.610642E+02 +3.647498E+01 +6.160236E+00 +3.647498E+01 +3.425308E+02 -2.246491E+01 +6.160236E+00 -2.246491E+01 +9.797240E+02 
 +3.730828E+02 +1.994577E+01 +2.609606E+00 +1.994577E+01 +3.504134E+02 -1.709265E+01 +2.609606E+00 -1.709265E+01 +9.879632E+02 
 +3.689351E+02 +1.569678E+01 +4.373518E+00 +1.569678E+01 +3.486697E+02 -1.435031E+01 +4.373518E+00 -1.435031E+01 +9.887462E+02 
 +3.678983E+02 +1.472690E+01 +6.219314E+00 +1.472690E+01 +3.453864E+02 -9.865566E+00 +6.219314E+00 -9.865566E+00 +9.887224E+02 
 +3.645344E+02 +1.417346E+01 +7.898527E+00 +1.417346E+01 +3.363183E+02 -3.121474E+00 +7.898527E+00 -3.121474E+00 +9.828176E+02 
 +3.667696E+02 +1.387614E+01 +9.960707E+00 +1.387614E+01 +3.323447E+02 +3.749192E-01 +9.960707E+00 +3.749192E-01 +9.767693E+02 
 +3.840269E+02 -3.254734E+00 +1.201862E+00 -3.254734E+00 +3.426371E+02 +1.524228E+00 +1.201862E+00 +1.524228E+00 +9.862385E+02 
 +3.753072E+02 +3.227055E+00 +2.053628E+00 +3.227055E+00 +3.350852E+02 +5.194209E+00 +2.053628E+00 +5.194209E+00 +9.869850E+02 
 +3.680398E+02 +1.630028E+00 +4.747647E+00 +1.630028E+00 +3.303493E+02 +6.588694E+00 +4.747647E+00 +6.588694E+00 +9.798073E+02 
 +3.531896E+02 -6.094504E-01 +7.869272E+00 -6.094504E-01 +3.331558E+02 +4.066613E+00 +7.869272E+00 +4.066613E+00 +9.735941E+02 
 +3.527192E+02 +5.796247E+00 -3.077771E+00 +5.796247E+00 +3.230641E+02 -3.186906E+00 -3.077771E+00 -3.186906E+00 +9.750691E+02 
 +3.555536E+02 +2.711268E+00 -1.203589E+01 +2.711268E+00 +3.298005E+02 -1.313976E+01 -1.203589E+01 -1.313976E+01 +9.815233E+02 
 +3.160922E+02 -1.755488E+01 -1.072649E+01 -1.755488E+01 +3.386440E+02 -1.167928E+01 -1.072649E+01 -1.167928E+01 +9.740800E+02 
 +3.236059E+02 -1.598042E+01 -6.992199E+00 -1.598042E+01 +3.526596E+02 -4.736765E+00 -6.992199E+00 -4.736765E+00 +9.726185E+02 
 +3.482490E+02 -1.332710E+01 -4.579594E+00 -1.332710E+01 +3.698142E+02 -4.192740E+00 -4.579594E+00 -4.192740E+00 +9.739461E+02 
 +3.628609E+02 -4.487828E+00 -6.084118E+00 -4.487828E+00 +3.599309E+02 +2.546102E+00 -6.084118E+00 +2.546102E+00 +9.725930E+02 
 +3.975051E+02 +1.588784E+00 +3.635955E+00 +1.588784E+00 +3.636687E+02 +1.117886E+01 +3.635955E+00 +1.117886E+01 +9.757019E+02 
 +3.687473E+02 +2.570215E+00 -5.572394E+00 +2.570215E+00 +3.718469E+02 +1.308466E+01 -5.572394E+00 +1.308466E+01 +9.554369E+02 
 +3.644046E+02 +7.912036E+00 -8.369484E+00 +7.912036E+00 +3.924103E+02 +5.172241E+00 -8.369484E+00 +5.172241E+00 +9.515438E+02 
 +3.590567E+02 +2.925273E+00 -1.248326E+01 +2.925273E+00 +3.858845E+02 -3.280032E+00 -1.248326E+01 -3.280032E+00 +9.560240E+02 
 +3.586764E+02 -1.364157E+00 -1.204986E+01 -1.364157E+00 +3.678588E+02 -1.050141E+01 -1.204986E+01 -1.050141E+01 +9.668102E+02 
 +3.784832E+02 +3.282358E+01 +3.557059E+00 +3.282358E+01 +3.595943E+02 -1.696040E+01 +3.557059E+00 -1.696040E+01 +9.833465E+02 
 +3.791997E+02 +2.050207E+01 +1.937438E+00 +2.050207E+01 +3.579886E+02 -1.129922E+01 +1.937438E+00 -1.129922E+01 +9.907908E+02 
 +3.729476E+02 +1.639787E+01 +3.981366E+00 +1.639787E+01 +3.508169E+02 -1.149704E+01 +3.981366E+00 -1.149704E+01 +9.898046E+02 
 +3.647908E+02 +1.420566E+01 +5.097359E+00 +1.420566E+01 +3.462459E+02 -9.656810E+00 +5.097359E+00 -9.656810E+00 +9.890249E+02 
 +3.566944E+02 +1.104155E+01 +8.113049E+00 +1.104155E+01 +3.364515E+02 -5.282803E+00 +8.113049E+00 -5.282803E+00 +9.839896E+02 
 +3.590526E+02 +1.240411E+01 +1.134388E+01 +1.240411E+01 +3.297134E+02 +1.281125E+00 +1.134388E+01 +1.281125E+00 +9.761425E+02 
 +3.667047E+02 -5.197921E+00 +3.781691E+00 -5.197921E+00 +3.288813E+02 +3.186468E+00 +3.781691E+00 +3.186468E+00 +9.772314E+02 
 +3.603706E+02 +1.036274E+00 +6.997504E+00 +1.036274E+00 +3.271257E+02 +4.143720E+00 +6.997504E+00 +4.143720E+00 +9.802082E+02 
 +3.525847E+02 -1.485317E+00 +6.494850E+00 -1.485317E+00 +3.284835E+02 +6.519104E+00 +6.494850E+00 +6.519104E+00 +9.775296E+02 
 +3.444208E+02 -2.066051E-01 +8.409383E-01 -2.066051E-01 +3.259788E+02 +4.888787E+00 +8.409383E-01 +4.888787E+00 +9.743404E+02 
 +3.479336E+02 +5.030645E-01 -5.451634E+00 +5.030645E-01 +3.234327E+02 +1.769680E-01 -5.451634E+00 +1.769680E-01 +9.772344E+02 
 +3.560560E+02 +2.146733E+00 -1.438553E+01 +2.146733E+00 +3.257021E+02 -8.590353E+00 -1.438553E+01 -8.590353E+00 +9.847236E+02 
 +3.095929E+02 -1.939105E+01 -1.005301E+01 -1.939105E+01 +3.264935E+02 -1.532474E+01 -1.005301E+01 -1.532474E+01 +9.753560E+02 
 +3.283763E+02 -1.498746E+01 -6.120858E-01 -1.498746E+01 +3.411826E+02 -1.183548E+01 -6.120858E-01 -1.183548E+01 +9.755743E+02 
 +3.482765E+02 +2.038462E-01 +2.933537E+00 +2.038462E-01 +3.173737E+02 -5.760861E+00 +2.933537E+00 -5.760861E+00 +9.630329E+02 
 +3.693104E+02 +4.537370E+00 +7.146208E-01 +4.537370E+00 +3.208560E+02 -1.288253E+00 +7.146208E-01 -1.288253E+00 +9.605098E+02 
 +4.086870E+02 +1.246380E+01 +5.029894E+00 +1.246380E+01 +3.725821E+02 +6.000829E+00 +5.029894E+00 +6.000829E+00 +9.726185E+02 
 +3.787618E+02 +1.608052E+01 -3.695202E+00 +1.608052E+01 +3.928660E+02 +1.349803E+01 -3.695202E+00 +1.349803E+01 +9.608736E+02 
 +3.614018E+02 +1.642266E+01 -1.369864E+01 +1.642266E+01 +3.944974E+02 +7.242521E+00 -1.369864E+01 +7.242521E+00 +9.583061E+02 
 +3.592013E+02 +1.043541E+01 -1.459691E+01 +1.043541E+01 +3.881140E+02 -3.758159E+00 -1.459691E+01 -3.758159E+00 +9.656173E+02 
 +3.598526E+02 +1.435045E+00 -1.414608E+01 +1.435045E+00 +3.754713E+02 -9.550682E+00 -1.414608E+01 -9.550682E+00 +9.719694E+02 
 +3.805625E+02 +3.264312E+01 +1.820356E+00 +3.264312E+01 +3.696487E+02 -1.121351E+01 +1.820356E+00 -1.121351E+01 +9.863838E+02 
 +3.827662E+02 +2.230359E+01 +4.367086E-01 +2.230359E+01 +3.584018E+02 -4.854776E+00 +4.367086E-01 -4.854776E+00 +9.907037E+02 
 +3.724242E+02 +2.166640E+01 +2.768418E+00 +2.166640E+01 +3.513281E+02 -6.909267E+00 +2.768418E+00 -6.909267E+00 +9.876841E+02 
 +3.650945E+02 +1.906770E+01 +3.662482E+00 +1.906770E+01 +3.500181E+02 -6.942641E+00 +3.662482E+00 -6.942641E+00 +9.862189E+02 
 +3.509613E+02 +1.540649E+01 +3.822886E+00 +1.540649E+01 +3.390900E+02 -6.206297E+00 +3.822886E+00 -6.206297E+00 +9.808326E+02 
 +3.390756E+02 +1.372752E+01 +4.702641E+00 +1.372752E+01 +3.158994E+02 -3.104107E+00 +4.702641E+00 -3.104107E+00 +9.725511E+02 
 +3.469121E+02 -1.486106E+00 +9.371482E-01 -1.486106E+00 +3.120116E+02 -3.070139E+00 +9.371482E-01 -3.070139E+00 +9.751725E+02 
 +3.408215E+02 +5.316060E+00 +5.001559E+00 +5.316060E+00 +3.106412E+02 +2.180599E+00 +5.001559E+00 +2.180599E+00 +9.728948E+02 
 +3.353214E+02 +9.236236E+00 +1.520709E+00 +9.236236E+00 +3.072401E+02 +9.033047E+00 +1.520709E+00 +9.033047E+00 +9.692261E+02 
 +3.370902E+02 +1.113386E+01 -4.492446E+00 +1.113386E+01 +3.088930E+02 +5.525969E+00 -4.492446E+00 +5.525969E+00 +9.709146E+02 
 +3.348228E+02 +8.813870E+00 -7.674052E+00 +8.813870E+00 +3.070838E+02 -7.847776E-01 -7.674052E+00 -7.847776E-01 +9.747786E+02 
 +3.218101E+02 +1.308560E+01 -7.262530E+00 +1.308560E+01 +2.895445E+02 -8.162212E+00 -7.262530E+00 -8.162212E+00 +9.831787E+02 
 +3.126224E+02 +1.025182E+01 +5.898215E+00 +1.025182E+01 +2.717323E+02 -1.773914E+01 +5.898215E+00 -1.773914E+01 +9.841538E+02 
 +3.213581E+02 -6.728738E-01 +1.537178E+01 -6.728738E-01 +2.792488E+02 -1.684812E+01 +1.537178E+01 -1.684812E+01 +9.703138E+02 
 +3.440005E+02 +1.341259E+00 +9.151152E+00 +1.341259E+00 +3.027544E+02 -4.285337E+00 +9.151152E+00 -4.285337E+00 +9.640005E+02 
 +3.662387E+02 -3.536095E+00 +3.935792E+00 -3.536095E+00 +3.270094E+02 +1.937212E+00 +3.935792E+00 +1.937212E+00 +9.643448E+02 
 +3.830935E+02 +3.184791E+00 -1.030848E+00 +3.184791E+00 +3.452874E+02 +2.366873E+00 -1.030848E+00 +2.366873E+00 +9.630879E+02 
 +3.989440E+02 +1.041230E+01 -5.586787E+00 +1.041230E+01 +3.765301E+02 +9.952209E+00 -5.586787E+00 +9.952209E+00 +9.737073E+02 
 +3.817842E+02 +1.221874E+01 -1.631259E+01 +1.221874E+01 +4.010293E+02 +1.231704E+01 -1.631259E+01 +1.231704E+01 +9.809456E+02 
 +3.722026E+02 +3.643096E+00 -2.163248E+01 +3.643096E+00 +4.070358E+02 +8.114731E+00 -2.163248E+01 +8.114731E+00 +9.918581E+02 
 +3.604314E+02 -9.499717E+00 -1.925050E+01 -9.499717E+00 +3.871664E+02 +1.957539E+00 -1.925050E+01 +1.957539E+00 +9.894222E+02 
 +3.841759E+02 +2.492261E+01 -9.217140E-01 +2.492261E+01 +3.772400E+02 -2.100986E+00 -9.217140E-01 -2.100986E+00 +9.936570E+02 
 +3.719789E+02 +3.067828E+01 -1.905666E+00 +3.067828E+01 +3.512230E+02 +1.737515E+00 -1.905666E+00 +1.737515E+00 +9.801218E+02 
 +3.729297E+02 +2.409725E+01 +5.558607E-01 +2.409725E+01 +3.564994E+02 -1.823804E+00 +5.558607E-01 -1.823804E+00 +9.823431E+02 
 +3.721382E+02 +2.464887E+01 +5.459074E-01 +2.464887E+01 +3.508790E+02 -2.770566E+00 +5.459074E-01 -2.770566E+00 +9.814214E+02 
 +3.674034E+02 +2.730376E+01 -2.374002E+00 +2.730376E+01 +3.522305E+02 -3.541608E+00 -2.374002E+00 -3.541608E+00 +9.830902E+02 
 +3.107684E+02 +1.829539E+01 +3.065733E-01 +1.829539E+01 +3.065750E+02 -5.788818E+00 +3.065733E-01 -5.788818E+00 +9.632923E+02 
 +3.045396E+02 +9.375950E+00 +2.011103E+00 +9.375950E+00 +2.851860E+02 -5.851181E+00 +2.011103E+00 -5.851181E+00 +9.602468E+02 
 +3.094068E+02 +6.051995E+00 +3.600796E+00 +6.051995E+00 +2.878536E+02 +3.568447E+00 +3.600796E+00 +3.568447E+00 +9.575689E+02 
 +3.265279E+02 +4.032177E+00 +1.418807E+00 +4.032177E+00 +2.947035E+02 +1.107286E+01 +1.418807E+00 +1.107286E+01 +9.589357E+02 
 +3.359250E+02 +5.336138E+00 +8.656746E-01 +5.336138E+00 +2.992840E+02 +7.228726E+00 +8.656746E-01 +7.228726E+00 +9.678707E+02 
 +3.351762E+02 +9.078433E+00 +3.503066E+00 +9.078433E+00 +2.992039E+02 +8.813157E-01 +3.503066E+00 +8.813157E-01 +9.717674E+02 
 +3.317190E+02 +1.352800E+01 +1.909982E+00 +1.352800E+01 +2.922776E+02 -6.979995E+00 +1.909982E+00 -6.979995E+00 +9.842456E+02 
 +3.176967E+02 +8.145401E+00 +1.256705E+01 +8.145401E+00 +2.797506E+02 -1.659369E+01 +1.256705E+01 -1.659369E+01 +9.969782E+02 
 +3.310614E+02 -9.450276E+00 +1.425244E+01 -9.450276E+00 +2.991324E+02 -1.651718E+01 +1.425244E+01 -1.651718E+01 +9.871683E+02 
 +3.549797E+02 -6.938824E+00 +7.107592E+00 -6.938824E+00 +3.331962E+02 -5.762058E+00 +7.107592E+00 -5.762058E+00 +9.764341E+02 
 +3.632008E+02 -2.823901E+00 +1.065000E+01 -2.823901E+00 +3.515248E+02 +3.825657E+00 +1.065000E+01 +3.825657E+00 +9.689804E+02 
 +3.829949E+02 +2.932952E+00 +4.457057E+00 +2.932952E+00 +3.661978E+02 +7.668840E+00 +4.457057E+00 +7.668840E+00 +9.669743E+02 
 +4.072728E+02 +4.475670E+00 -1.257542E+00 +4.475670E+00 +3.685550E+02 +3.901657E+00 -1.257542E+00 +3.901657E+00 +9.782138E+02 
 +4.002440E+02 +5.969981E+00 -3.143109E+00 +5.969981E+00 +3.697602E+02 +6.420083E-01 -3.143109E+00 +6.420083E-01 +9.883669E+02 
 +3.820921E+02 +6.946378E-01 -1.337329E+01 +6.946378E-01 +3.896983E+02 +6.214816E+00 -1.337329E+01 +6.214816E+00 +9.970547E+02 
 +3.919807E+02 -2.118166E+00 -1.790071E+01 -2.118166E+00 +4.134776E+02 +1.086785E+01 -1.790071E+01 +1.086785E+01 +1.006756E+03 
 +3.860429E+02 +2.402917E+01 -4.356140E+00 +2.402917E+01 +3.810199E+02 +8.106131E+00 -4.356140E+00 +8.106131E+00 +9.938633E+02 
 +3.916479E+02 +2.575432E+01 -5.006502E+00 +2.575432E+01 +3.652792E+02 +6.956480E+00 -5.006502E+00 +6.956480E+00 +9.830893E+02 
 +3.823931E+02 +3.341924E+01 -7.757373E-01 +3.341924E+01 +3.579960E+02 +2.312802E+00 -7.757373E-01 +2.312802E+00 +9.784460E+02 
 +3.662659E+02 +2.831067E+01 +1.293724E+00 +2.831067E+01 +3.510665E+02 +3.270229E-01 +1.293724E+00 +3.270229E-01 +9.688440E+02 
 +3.482582E+02 +2.028595E+01 +2.579677E+00 +2.028595E+01 +3.498168E+02 -1.337448E+00 +2.579677E+00 -1.337448E+00 +9.682119E+02 
 +3.122673E+02 -8.104944E+00 +5.538662E+00 -8.104944E+00 +3.597434E+02 -1.426305E+00 +5.538662E+00 -1.426305E+00 +9.679700E+02 
 +3.302469E+02 -1.208597E+01 +4.727925E+00 -1.208597E+01 +3.795821E+02 +2.252372E+00 +4.727925E+00 +2.252372E+00 +9.789713E+02 
 +3.331821E+02 -8.382480E+00 +4.502277E+00 -8.382480E+00 +3.548920E+02 +3.781067E+00 +4.502277E+00 +3.781067E+00 +9.685203E+02 
 +3.451469E+02 +3.993137E-01 +4.912691E+00 +3.993137E-01 +3.286285E+02 +4.886612E+00 +4.912691E+00 +4.886612E+00 +9.617800E+02 
 +3.404114E+02 +3.930115E+00 +8.659991E+00 +3.930115E+00 +3.087315E+02 +6.144570E+00 +8.659991E+00 +6.144570E+00 +9.689447E+02 
 +3.512795E+02 +5.910160E+00 +1.578900E+01 +5.910160E+00 +3.217135E+02 -6.361759E-01 +1.578900E+01 -6.361759E-01 +9.796214E+02 
 +3.494727E+02 -4.083993E+00 +1.153415E+01 -4.083993E+00 +3.474979E+02 -8.768916E+00 +1.153415E+01 -8.768916E+00 +9.836897E+02 
 +3.233194E+02 -1.827081E+01 +1.393547E+01 -1.827081E+01 +3.437095E+02 -9.008035E+00 +1.393547E+01 -9.008035E+00 +9.865281E+02 
 +3.448424E+02 -2.387299E+01 +5.078010E+00 -2.387299E+01 +3.336572E+02 -1.340749E+01 +5.078010E+00 -1.340749E+01 +9.747935E+02 
 +3.568740E+02 -1.454671E+01 -1.602461E+00 -1.454671E+01 +3.301768E+02 -1.380986E+01 -1.602461E+00 -1.380986E+01 +9.563491E+02 
 +3.757449E+02 -6.010267E+00 +7.053891E+00 -6.010267E+00 +3.605511E+02 -2.427084E+00 +7.053891E+00 -2.427084E+00 +9.659492E+02 
 +3.804011E+02 -1.230371E+00 +1.009445E+01 -1.230371E+00 +3.706207E+02 +5.557205E+00 +1.009445E+01 +5.557205E+00 +9.652496E+02 
 +3.991826E+02 +1.144132E+00 +4.474660E+00 +1.144132E+00 +3.759494E+02 -4.504067E+00 +4.474660E+00 -4.504067E+00 +9.723756E+02 
 +4.107134E+02 -9.693191E-01 -1.038317E+00 -9.693191E-01 +3.752533E+02 -1.127033E+01 -1.038317E+00 -1.127033E+01 +9.842507E+02 
 +3.945538E+02 -1.573493E+01 -9.610133E+00 -1.573493E+01 +3.588799E+02 -4.858334E+00 -9.610133E+00 -4.858334E+00 +9.835516E+02 
 +4.011919E+02 -2.301114E+01 -1.436824E+01 -2.301114E+01 +3.800260E+02 +3.051875E+00 -1.436824E+01 +3.051875E+00 +9.922047E+02 
 +4.050397E+02 -1.087362E+01 -6.672690E+00 -1.087362E+01 +3.915442E+02 +8.762680E+00 -6.672690E+00 +8.762680E+00 +9.933319E+02 
 +4.190072E+02 -1.289942E+01 -9.665971E+00 -1.289942E+01 +3.852891E+02 +1.200617E+01 -9.665971E+00 +1.200617E+01 +9.814139E+02 
 +4.210269E+02 +1.129418E+01 +3.961439E+00 +1.129418E+01 +3.909230E+02 +3.273867E+00 +3.961439E+00 +3.273867E+00 +9.823509E+02 
 +3.697979E+02 -2.846440E+00 +1.186542E+01 -2.846440E+00 +4.058065E+02 -4.624841E+00 +1.186542E+01 -4.624841E+00 +9.715424E+02 
 +3.343734E+02 -8.172143E+00 +1.106940E+01 -8.172143E+00 +3.869603E+02 -2.474827E+00 +1.106940E+01 -2.474827E+00 +9.640513E+02 
 +3.134279E+02 -1.400199E+01 +8.008204E+00 -1.400199E+01 +3.652990E+02 +2.210444E+00 +8.008204E+00 +2.210444E+00 +9.579685E+02 
 +3.284097E+02 -1.426511E+01 +7.622326E+00 -1.426511E+01 +3.771080E+02 +2.775668E+00 +7.622326E+00 +2.775668E+00 +9.635106E+02 
 +3.489584E+02 -1.351784E+01 +8.675759E+00 -1.351784E+01 +3.874421E+02 -1.059086E+00 +8.675759E+00 -1.059086E+00 +9.663117E+02 
 +3.733108E+02 -1.254510E+01 +7.835056E+00 -1.254510E+01 +3.994986E+02 +1.299935E+00 +7.835056E+00 +1.299935E+00 +9.747527E+02 
 +3.634492E+02 -1.712943E+01 +9.509797E+00 -1.712943E+01 +3.913764E+02 +7.281338E+00 +9.509797E+00 +7.281338E+00 +9.822787E+02 
 +3.638770E+02 -1.649808E+01 +1.262063E+01 -1.649808E+01 +3.807777E+02 +8.751769E+00 +1.262063E+01 +8.751769E+00 +9.889087E+02 
 +3.478132E+02 -1.610855E+01 +1.016647E+01 -1.610855E+01 +3.609374E+02 +2.309765E+00 +1.016647E+01 +2.309765E+00 +9.683430E+02 
 +3.514562E+02 -1.328061E+01 +8.916388E+00 -1.328061E+01 +3.663215E+02 -1.219398E+01 +8.916388E+00 -1.219398E+01 +9.534952E+02 
 +3.701822E+02 -1.150494E+01 +2.168666E+00 -1.150494E+01 +3.882910E+02 -2.661854E+01 +2.168666E+00 -2.661854E+01 +9.455911E+02 
 +3.611723E+02 -1.074647E+01 -4.240649E+00 -1.074647E+01 +3.752546E+02 -2.958448E+01 -4.240649E+00 -2.958448E+01 +9.335999E+02 
 +3.808562E+02 -9.770519E+00 -5.103839E-01 -9.770519E+00 +3.611845E+02 -1.646469E+01 -5.103839E-01 -1.646469E+01 +9.508427E+02 
 +3.915959E+02 -4.977373E+00 +1.126395E+01 -4.977373E+00 +3.665892E+02 -4.004259E+00 +1.126395E+01 -4.004259E+00 +9.618394E+02 
 +4.138126E+02 +8.244652E+00 +9.352124E+00 +8.244652E+00 +4.072850E+02 -8.424565E+00 +9.352124E+00 -8.424565E+00 +9.716450E+02 
 +4.075431E+02 -3.749305E+00 -6.448366E+00 -3.749305E+00 +4.031573E+02 -6.594004E+00 -6.448366E+00 -6.594004E+00 +9.696384E+02 
 +4.165265E+02 -1.382042E+01 -1.140753E+01 -1.382042E+01 +3.828736E+02 +4.009319E+00 -1.140753E+01 +4.009319E+00 +9.765123E+02 
 +4.079468E+02 -1.749013E+01 -8.676309E+00 -1.749013E+01 +3.738824E+02 +8.445644E+00 -8.676309E+00 +8.445644E+00 +9.789420E+02 
 +4.192369E+02 -2.044375E+01 -5.015565E+00 -2.044375E+01 +3.958706E+02 +1.219077E+01 -5.015565E+00 +1.219077E+01 +9.858840E+02 
 +4.163169E+02 -1.523110E+01 -8.430070E+00 -1.523110E+01 +4.045740E+02 +1.159324E+01 -8.430070E+00 +1.159324E+01 +9.716139E+02 
 +4.303975E+02 +1.078259E+01 +1.005968E+01 +1.078259E+01 +4.223144E+02 +4.292385E+00 +1.005968E+01 +4.292385E+00 +9.643044E+02 
 +3.746577E+02 -1.293597E+00 +1.603232E+01 -1.293597E+00 +4.013636E+02 -8.792033E+00 +1.603232E+01 -8.792033E+00 +9.497271E+02 
 +3.239603E+02 -6.062680E+00 +9.475019E+00 -6.062680E+00 +3.828209E+02 -4.571494E+00 +9.475019E+00 -4.571494E+00 +9.492220E+02 
 +3.297361E+02 -1.005839E+01 +5.282442E+00 -1.005839E+01 +3.812911E+02 -2.906104E-02 +5.282442E+00 -2.906104E-02 +9.575739E+02 
 +3.357005E+02 -1.842766E+01 +6.568892E+00 -1.842766E+01 +3.832715E+02 -2.138560E+00 +6.568892E+00 -2.138560E+00 +9.585693E+02 
 +3.415733E+02 -2.032192E+01 +6.151482E+00 -2.032192E+01 +3.879493E+02 -3.996830E+00 +6.151482E+00 -3.996830E+00 +9.579591E+02 
 +3.451803E+02 -1.755438E+01 +3.483194E+00 -1.755438E+01 +3.866656E+02 -3.792371E+00 +3.483194E+00 -3.792371E+00 +9.584656E+02 
 +3.451057E+02 -1.206273E+01 +1.373628E+00 -1.206273E+01 +3.872771E+02 -5.916325E-02 +1.373628E+00 -5.916325E-02 +9.622984E+02 
 +3.336723E+02 -1.027969E+01 +2.777035E+00 -1.027969E+01 +3.719753E+02 +6.165149E+00 +2.777035E+00 +6.165149E+00 +9.530461E+02 
 +3.822930E+02 +1.217455E+00 -1.905789E+00 +1.217455E+00 +3.894858E+02 +1.414852E+00 -1.905789E+00 +1.414852E+00 +9.552867E+02 
 +3.887897E+02 -7.772322E+00 -2.032749E+00 -7.772322E+00 +3.939878E+02 -6.410138E+00 -2.032749E+00 -6.410138E+00 +9.440530E+02 
 +3.707739E+02 -1.198307E+01 -3.225799E+00 -1.198307E+01 +3.834183E+02 -1.340563E+01 -3.225799E+00 -1.340563E+01 +9.297378E+02 
 +3.668447E+02 -7.481368E+00 -3.351914E+00 -7.481368E+00 +3.814973E+02 -2.478149E+01 -3.351914E+00 -2.478149E+01 +9.277326E+02 
 +3.939508E+02 +6.876676E+00 -2.265381E+00 +6.876676E+00 +3.908825E+02 -2.836542E+01 -2.265381E+00 -2.836542E+01 +9.433005E+02 
 +4.018204E+02 +1.436337E+01 +6.776652E+00 +1.436337E+01 +3.858804E+02 -1.626067E+01 +6.776652E+00 -1.626067E+01 +9.517728E+02 
 +4.087749E+02 +2.668350E+01 +6.546733E+00 +2.668350E+01 +3.974209E+02 -9.207041E+00 +6.546733E+00 -9.207041E+00 +9.569731E+02 
 +3.963467E+02 -5.538905E+00 -4.499903E+00 -5.538905E+00 +3.915716E+02 +3.057112E+00 -4.499903E+00 +3.057112E+00 +9.505742E+02 
 +4.070483E+02 -1.040211E+01 -7.137704E+00 -1.040211E+01 +3.811382E+02 +1.183271E+01 -7.137704E+00 +1.183271E+01 +9.603583E+02 
 +4.047323E+02 -1.324107E+01 -5.302625E+00 -1.324107E+01 +3.791459E+02 +9.930042E+00 -5.302625E+00 +9.930042E+00 +9.673585E+02 
 +4.062392E+02 -1.437008E+01 -6.363794E+00 -1.437008E+01 +3.862245E+02 +1.087932E+01 -6.363794E+00 +1.087932E+01 +9.726434E+02 
 +4.088333E+02 -4.844195E+00 -8.363408E+00 -4.844195E+00 +4.036823E+02 +1.062142E+01 -8.363408E+00 +1.062142E+01 +9.633885E+02 
 +4.122955E+02 +2.430612E+01 +9.632705E+00 +2.430612E+01 +4.114771E+02 +3.619604E+00 +9.632705E+00 +3.619604E+00 +9.385297E+02 
 +3.865285E+02 +1.186672E+01 +1.271726E+01 +1.186672E+01 +4.047039E+02 -8.245494E+00 +1.271726E+01 -8.245494E+00 +9.369707E+02 
 +3.182329E+02 -1.036787E+01 +5.370484E-01 -1.036787E+01 +3.810390E+02 -8.894093E+00 +5.370484E-01 -8.894093E+00 +9.403592E+02 
 +3.328304E+02 -1.462096E+01 -1.275299E+00 -1.462096E+01 +3.929139E+02 -2.367699E+00 -1.275299E+00 -2.367699E+00 +9.560098E+02 
 +3.395052E+02 -1.869699E+01 +3.235255E+00 -1.869699E+01 +3.926835E+02 -2.687248E+00 +3.235255E+00 -2.687248E+00 +9.557365E+02 
 +3.384425E+02 -1.935227E+01 +3.259173E+00 -1.935227E+01 +3.890759E+02 -4.426638E+00 +3.259173E+00 -4.426638E+00 +9.530869E+02 
 +3.351160E+02 -1.658358E+01 +1.150768E+00 -1.658358E+01 +3.860720E+02 -4.781930E+00 +1.150768E+00 -4.781930E+00 +9.520374E+02 
 +3.310797E+02 -1.379125E+01 +2.851489E+00 -1.379125E+01 +3.764799E+02 +9.699831E-01 +2.851489E+00 +9.699831E-01 +9.470684E+02 
 +3.491092E+02 -7.678827E+00 -6.263481E-01 -7.678827E+00 +3.847917E+02 +6.084583E+00 -6.263481E-01 +6.084583E+00 +9.413276E+02 
 +4.097505E+02 +8.865598E+00 -8.026126E+00 +8.865598E+00 +4.133805E+02 +1.347814E+00 -8.026126E+00 +1.347814E+00 +9.527476E+02 
 +3.935760E+02 +4.177144E+00 -3.498189E+00 +4.177144E+00 +3.950028E+02 -5.981156E+00 -3.498189E+00 -5.981156E+00 +9.410798E+02 
 +3.837143E+02 +1.573662E+00 -3.785852E+00 +1.573662E+00 +3.873003E+02 -1.542421E+01 -3.785852E+00 -1.542421E+01 +9.352403E+02 
 +3.806354E+02 -2.270860E+00 -2.013232E+00 -2.270860E+00 +3.803191E+02 -2.384678E+01 -2.013232E+00 -2.384678E+01 +9.284578E+02 
 +3.810733E+02 -3.065047E-01 -1.791764E+00 -3.065047E-01 +3.753956E+02 -2.071311E+01 -1.791764E+00 -2.071311E+01 +9.210540E+02 
 +3.773132E+02 +6.443117E+00 -3.538576E-02 +6.443117E+00 +3.682222E+02 -1.220071E+01 -3.538576E-02 -1.220071E+01 +9.254732E+02 
 +3.826809E+02 +2.570942E+01 -6.094126E+00 +2.570942E+01 +3.644619E+02 -1.243826E+01 -6.094126E+00 -1.243826E+01 +9.381568E+02 
 +3.838158E+02 -1.300122E+01 -7.504383E+00 -1.300122E+01 +3.617756E+02 +1.642349E+00 -7.504383E+00 +1.642349E+00 +9.404733E+02 
 +3.905358E+02 -1.549739E+01 -3.213392E+00 -1.549739E+01 +3.717877E+02 +1.268729E+01 -3.213392E+00 +1.268729E+01 +9.494083E+02 
 +3.923109E+02 -1.317468E+01 -3.171401E+00 -1.317468E+01 +3.750459E+02 +9.258715E+00 -3.171401E+00 +9.258715E+00 +9.543300E+02 
 +4.036622E+02 -1.237399E+01 -8.658877E+00 -1.237399E+01 +3.869591E+02 +1.116962E+01 -8.658877E+00 +1.116962E+01 +9.678039E+02 
 +3.935322E+02 -8.102286E+00 -8.166278E+00 -8.102286E+00 +3.787920E+02 +1.951769E+00 -8.166278E+00 +1.951769E+00 +9.498497E+02 
 +4.196345E+02 +1.804931E+01 +8.205475E+00 +1.804931E+01 +4.170802E+02 -2.368665E+00 +8.205475E+00 -2.368665E+00 +9.455874E+02 
 +3.836169E+02 +1.071715E-01 +5.241973E+00 +1.071715E-01 +4.254770E+02 -1.173617E+01 +5.241973E+00 -1.173617E+01 +9.510848E+02 
 +3.321798E+02 -2.075176E+01 -1.144015E+01 -2.075176E+01 +3.962395E+02 -1.274124E+01 -1.144015E+01 -1.274124E+01 +9.527481E+02 
 +3.373757E+02 -2.078482E+01 -8.579693E+00 -2.078482E+01 +3.905190E+02 -6.164550E+00 -8.579693E+00 -6.164550E+00 +9.569898E+02 
 +3.487360E+02 -2.241389E+01 +8.688761E-01 -2.241389E+01 +3.925680E+02 -3.637572E+00 +8.688761E-01 -3.637572E+00 +9.572195E+02 
 +3.374111E+02 -1.856357E+01 +2.226022E+00 -1.856357E+01 +3.839491E+02 -3.190211E+00 +2.226022E+00 -3.190211E+00 +9.501532E+02 
 +3.305187E+02 -1.211461E+01 +2.201656E+00 -1.211461E+01 +3.845127E+02 -1.994111E+00 +2.201656E+00 -1.994111E+00 +9.473554E+02 
 +3.198004E+02 -1.150430E+01 +6.088968E+00 -1.150430E+01 +3.685382E+02 -2.694183E+00 +6.088968E+00 -2.694183E+00 +9.332561E+02 
 +3.871576E+02 +7.734021E+00 -2.454210E+00 +7.734021E+00 +3.983285E+02 -9.236129E+00 -2.454210E+00 -9.236129E+00 +9.445910E+02 
 +4.066770E+02 +9.299381E+00 -3.708057E+00 +9.299381E+00 +4.065642E+02 -8.978722E+00 -3.708057E+00 -8.978722E+00 +9.474907E+02 
 +3.972682E+02 +4.487686E+00 -2.489845E+00 +4.487686E+00 +3.924647E+02 -4.838014E+00 -2.489845E+00 -4.838014E+00 +9.396632E+02 
 +3.833645E+02 -5.219244E+00 -3.880963E+00 -5.219244E+00 +3.839664E+02 -1.201589E+01 -3.880963E+00 -1.201589E+01 +9.301116E+02 
 +3.761913E+02 -7.434415E+00 -4.017930E+00 -7.434415E+00 +3.843919E+02 -1.928377E+01 -4.017930E+00 -1.928377E+01 +9.257692E+02 
 +3.711930E+02 -1.060408E+01 -6.463537E+00 -1.060408E+01 +3.782380E+02 -1.689555E+01 -6.463537E+00 -1.689555E+01 +9.216231E+02 
 +3.750626E+02 -1.455844E+00 -1.024877E+01 -1.455844E+00 +3.716200E+02 -1.770916E+01 -1.024877E+01 -1.770916E+01 +9.230779E+02 
 +3.744196E+02 +1.424460E+01 -1.671924E+01 +1.424460E+01 +3.580597E+02 -2.328896E+01 -1.671924E+01 -2.328896E+01 +9.288480E+02 
 +3.853386E+02 -1.415804E+01 -8.658706E+00 -1.415804E+01 +3.561672E+02 -7.300066E+00 -8.658706E+00 -7.300066E+00 +9.479059E+02 
 +3.785895E+02 -1.590909E+01 -3.611218E+00 -1.590909E+01 +3.628788E+02 +8.258414E+00 -3.611218E+00 +8.258414E+00 +9.520215E+02 
 +3.817030E+02 -1.982105E+01 -1.659674E+00 -1.982105E+01 +3.681478E+02 +6.803722E+00 -1.659674E+00 +6.803722E+00 +9.518336E+02 
 +3.911980E+02 -1.690075E+01 -6.081191E+00 -1.690075E+01 +3.730555E+02 +5.881459E+00 -6.081191E+00 +5.881459E+00 +9.605455E+02 
 +3.793060E+02 -6.784374E+00 -3.980091E+00 -6.784374E+00 +3.735245E+02 -4.494215E+00 -3.980091E+00 -4.494215E+00 +9.590355E+02 
 +4.099191E+02 +1.029970E+01 +4.861744E+00 +1.029970E+01 +4.084827E+02 -1.244487E+01 +4.861744E+00 -1.244487E+01 +9.615207E+02 
 +4.104754E+02 +5.041547E+00 -3.361006E+00 +5.041547E+00 +4.228339E+02 -1.715232E+01 -3.361006E+00 -1.715232E+01 +9.742416E+02 
 +3.368949E+02 -2.091536E+01 -1.832634E+01 -2.091536E+01 +3.980091E+02 -1.485879E+01 -1.832634E+01 -1.485879E+01 +9.615354E+02 
 +3.348956E+02 -2.515380E+01 -1.333129E+01 -2.515380E+01 +3.837054E+02 -8.968547E+00 -1.333129E+01 -8.968547E+00 +9.585237E+02 
 +3.576292E+02 -2.954384E+01 -2.920400E+00 -2.954384E+01 +3.824084E+02 -8.048019E+00 -2.920400E+00 -8.048019E+00 +9.572654E+02 
 +3.439351E+02 -1.973116E+01 -7.245550E-03 -1.973116E+01 +3.739035E+02 -3.421165E+00 -7.245550E-03 -3.421165E+00 +9.489936E+02 
 +3.343606E+02 -8.434725E+00 +3.865492E+00 -8.434725E+00 +3.791400E+02 +1.381716E+00 +3.865492E+00 +1.381716E+00 +9.499810E+02 
 +3.304924E+02 -1.427886E+01 +4.464150E+00 -1.427886E+01 +3.833556E+02 +2.190922E+00 +4.464150E+00 +2.190922E+00 +9.458175E+02 
 +4.170365E+02 +1.234279E+00 -4.792797E+00 +1.234279E+00 +4.235192E+02 -7.077576E+00 -4.792797E+00 -7.077576E+00 +9.690158E+02 
 +4.133258E+02 -2.279111E+00 -1.763346E+00 -2.279111E+00 +4.077047E+02 -1.383583E+01 -1.763346E+00 -1.383583E+01 +9.597545E+02 
 +3.982139E+02 +3.101742E+00 -5.374831E+00 +3.101742E+00 +3.915765E+02 -9.033251E+00 -5.374831E+00 -9.033251E+00 +9.444518E+02 
 +3.807786E+02 -3.444642E+00 -7.001816E+00 -3.444642E+00 +3.799416E+02 -7.880187E+00 -7.001816E+00 -7.880187E+00 +9.305591E+02 
 +3.751599E+02 -5.281756E-01 -1.103172E+01 -5.281756E-01 +3.792998E+02 -1.176461E+01 -1.103172E+01 -1.176461E+01 +9.228624E+02 
 +3.726816E+02 -1.635775E+00 -1.518809E+01 -1.635775E+00 +3.884663E+02 -1.547723E+01 -1.518809E+01 -1.547723E+01 +9.274651E+02 
 +3.807373E+02 +5.715784E+00 -1.725221E+01 +5.715784E+00 +3.965460E+02 -1.767725E+01 -1.725221E+01 -1.767725E+01 +9.417664E+02 
 +3.729353E+02 +5.121042E+00 -1.794904E+01 +5.121042E+00 +3.586260E+02 -1.628016E+01 -1.794904E+01 -1.628016E+01 +9.405342E+02 
 +3.683061E+02 -1.165768E+01 -3.556692E+00 -1.165768E+01 +3.399470E+02 -4.003696E+00 -3.556692E+00 -4.003696E+00 +9.507418E+02 
 +3.755147E+02 -1.588990E+01 -2.212228E+00 -1.588990E+01 +3.597437E+02 +4.050832E+00 -2.212228E+00 +4.050832E+00 +9.584715E+02 
 +3.713606E+02 -2.092190E+01 +8.982762E-02 -2.092190E+01 +3.626093E+02 +1.734723E+00 +8.982762E-02 +1.734723E+00 +9.542532E+02 
 +3.637889E+02 -2.341258E+01 -3.407945E+00 -2.341258E+01 +3.495381E+02 +1.237668E+00 -3.407945E+00 +1.237668E+00 +9.554935E+02 
 +3.699672E+02 +3.147595E+01 +3.765603E-01 +3.147595E+01 +3.693916E+02 -4.645552E+00 +3.765603E-01 -4.645552E+00 +9.649994E+02 
 +3.786384E+02 +3.071793E+01 -1.378388E+00 +3.071793E+01 +3.753576E+02 -1.393471E+01 -1.378388E+00 -1.393471E+01 +9.673298E+02 
 +3.897339E+02 +2.061527E+01 -1.181565E+01 +2.061527E+01 +3.793662E+02 -2.014155E+01 -1.181565E+01 -2.014155E+01 +9.763225E+02 
 +3.482213E+02 -1.998289E+01 -2.035451E+01 -1.998289E+01 +3.920656E+02 -1.574824E+01 -2.035451E+01 -1.574824E+01 +9.739224E+02 
 +3.441201E+02 -3.038176E+01 -1.636099E+01 -3.038176E+01 +3.920475E+02 -8.348794E+00 -1.636099E+01 -8.348794E+00 +9.716084E+02 
 +3.501278E+02 -2.842199E+01 -8.630113E+00 -2.842199E+01 +3.687938E+02 -8.202021E+00 -8.630113E+00 -8.202021E+00 +9.578437E+02 
 +3.341165E+02 -2.579967E+01 -6.829984E+00 -2.579967E+01 +3.534274E+02 -6.107369E+00 -6.829984E+00 -6.107369E+00 +9.411613E+02 
 +3.334496E+02 -1.544111E+01 +6.936956E-01 -1.544111E+01 +3.684350E+02 -3.242677E+00 +6.936956E-01 -3.242677E+00 +9.483509E+02 
 +3.746433E+02 -1.782956E+01 +5.074463E+00 -1.782956E+01 +4.190704E+02 -5.235395E+00 +5.074463E+00 -5.235395E+00 +9.709992E+02 
 +4.331377E+02 -2.704294E+00 -4.216738E+00 -2.704294E+00 +4.420973E+02 -1.568473E+01 -4.216738E+00 -1.568473E+01 +9.732597E+02 
 +4.223763E+02 -9.167170E-01 -9.450726E-01 -9.167170E-01 +4.157754E+02 -1.972000E+01 -9.450726E-01 -1.972000E+01 +9.601361E+02 
 +4.057889E+02 -1.110032E+00 -6.548044E+00 -1.110032E+00 +3.981689E+02 -1.125044E+01 -6.548044E+00 -1.125044E+01 +9.569312E+02 
 +3.831212E+02 -5.803187E+00 -9.028867E+00 -5.803187E+00 +3.777360E+02 -6.530411E+00 -9.028867E+00 -6.530411E+00 +9.397070E+02 
 +3.851040E+02 -1.958661E+00 -1.406857E+01 -1.958661E+00 +3.778038E+02 -8.933728E+00 -1.406857E+01 -8.933728E+00 +9.320223E+02 
 +3.949061E+02 +5.786858E+00 -2.018437E+01 +5.786858E+00 +3.981639E+02 -1.275482E+01 -2.018437E+01 -1.275482E+01 +9.486824E+02 
 +3.986550E+02 +1.400943E+01 -2.053691E+01 +1.400943E+01 +4.104272E+02 -1.411646E+01 -2.053691E+01 -1.411646E+01 +9.717479E+02 
 +3.830787E+02 +1.170839E+01 -1.541061E+01 +1.170839E+01 +3.844248E+02 -8.191819E+00 -1.541061E+01 -8.191819E+00 +9.696504E+02 
 +3.479018E+02 +1.389428E+01 -2.334941E-01 +1.389428E+01 +3.663858E+02 +7.768963E-01 -2.334941E-01 +7.768963E-01 +9.552928E+02 
 +3.851923E+02 -7.895899E+00 -1.676792E+00 -7.895899E+00 +3.901185E+02 +3.287149E+00 -1.676792E+00 +3.287149E+00 +9.656085E+02 
 +3.750009E+02 -1.304725E+01 +2.055416E+00 -1.304725E+01 +3.751171E+02 +2.127458E+00 +2.055416E+00 +2.127458E+00 +9.584243E+02 
 +3.633693E+02 -1.626071E+01 +1.414188E+00 -1.626071E+01 +3.611739E+02 +8.787693E-01 +1.414188E+00 +8.787693E-01 +9.589255E+02 
 +3.702829E+02 +3.188959E+01 +4.902057E+00 +3.188959E+01 +3.742407E+02 -7.667842E+00 +4.902057E+00 -7.667842E+00 +9.726191E+02 
 +3.640916E+02 +2.192751E+01 -3.880429E+00 +2.192751E+01 +3.782649E+02 -1.290892E+01 -3.880429E+00 -1.290892E+01 +9.804907E+02 
 +3.539715E+02 +2.279447E+01 -1.634036E+01 +2.279447E+01 +3.593421E+02 -1.689061E+01 -1.634036E+01 -1.689061E+01 +9.796881E+02 
 +3.440637E+02 +8.425734E-01 -2.010055E+01 +8.425734E-01 +3.442851E+02 -1.151290E+01 -2.010055E+01 -1.151290E+01 +9.748834E+02 
 +3.392864E+02 -2.920263E+01 -1.604627E+01 -2.920263E+01 +3.632010E+02 -7.055204E+00 -1.604627E+01 -7.055204E+00 +9.762811E+02 
 +3.287106E+02 -3.035705E+01 -1.412744E+01 -3.035705E+01 +3.555490E+02 -6.620939E+00 -1.412744E+01 -6.620939E+00 +9.580155E+02 
 +3.261979E+02 -1.796988E+01 -1.136752E+01 -1.796988E+01 +3.471461E+02 -2.948005E+00 -1.136752E+01 -2.948005E+00 +9.386427E+02 
 +3.566429E+02 +5.795383E+00 -9.236386E-01 +5.795383E+00 +3.642395E+02 -2.570659E+00 -9.236386E-01 -2.570659E+00 +9.484533E+02 
 +3.841742E+02 +1.171884E+01 +5.487902E+00 +1.171884E+01 +3.930357E+02 -6.781285E+00 +5.487902E+00 -6.781285E+00 +9.595409E+02 
 +4.374241E+02 +1.663499E+00 -4.486597E+00 +1.663499E+00 +4.522791E+02 -8.849933E+00 -4.486597E+00 -8.849933E+00 +9.698752E+02 
 +4.349318E+02 -4.797493E+00 +1.429737E+00 -4.797493E+00 +4.438962E+02 -1.008524E+01 +1.429737E+00 -1.008524E+01 +9.573468E+02 
 +4.079646E+02 -1.750673E+00 -4.230886E+00 -1.750673E+00 +4.075472E+02 -1.348798E+01 -4.230886E+00 -1.348798E+01 +9.563976E+02 
 +3.987471E+02 -2.378083E+00 -8.936587E+00 -2.378083E+00 +3.902844E+02 -1.094185E+01 -8.936587E+00 -1.094185E+01 +9.599035E+02 
 +3.932711E+02 +2.292930E+00 -1.291076E+01 +2.292930E+00 +3.779522E+02 -7.903312E+00 -1.291076E+01 -7.903312E+00 +9.508689E+02 
 +3.957210E+02 +8.767873E+00 -1.531148E+01 +8.767873E+00 +3.837081E+02 -7.140829E+00 -1.531148E+01 -7.140829E+00 +9.588766E+02 
 +3.850666E+02 -7.800129E+00 -1.775542E+01 -7.800129E+00 +3.761143E+02 +3.897291E+00 -1.775542E+01 +3.897291E+00 +9.646649E+02 
 +3.660797E+02 -1.537834E+01 -1.211904E+01 -1.537834E+01 +3.587645E+02 +1.457522E+01 -1.211904E+01 +1.457522E+01 +9.592999E+02 
 +3.156232E+02 +8.538793E+00 -1.895711E-01 +8.538793E+00 +3.415276E+02 +3.903061E+00 -1.895711E-01 +3.903061E+00 +9.394372E+02 
 +3.778931E+02 -1.116675E+01 -1.139762E+00 -1.116675E+01 +3.809756E+02 -3.558617E+00 -1.139762E+00 -3.558617E+00 +9.613521E+02 
 +3.696840E+02 -7.081573E+00 +5.519352E+00 -7.081573E+00 +3.690071E+02 +1.302514E-01 +5.519352E+00 +1.302514E-01 +9.574064E+02 
 +3.671878E+02 -1.717912E+01 +8.509738E+00 -1.717912E+01 +3.678603E+02 -2.583380E+00 +8.509738E+00 -2.583380E+00 +9.633329E+02 
 +3.608014E+02 +3.250759E+01 +6.979941E+00 +3.250759E+01 +3.811481E+02 -6.798122E+00 +6.979941E+00 -6.798122E+00 +9.843187E+02 
 +3.597186E+02 +2.359306E+01 -3.878798E+00 +2.359306E+01 +3.764811E+02 -1.063970E+01 -3.878798E+00 -1.063970E+01 +9.894573E+02 
 +3.615910E+02 +1.979069E+01 -1.250942E+01 +1.979069E+01 +3.665179E+02 -1.616884E+01 -1.250942E+01 -1.616884E+01 +9.911710E+02 
 +3.509884E+02 +5.603582E+00 -1.827876E+01 +5.603582E+00 +3.428400E+02 -8.316946E+00 -1.827876E+01 -8.316946E+00 +9.846302E+02 
 +3.283337E+02 -1.565620E+01 -1.557199E+01 -1.565620E+01 +3.300227E+02 +6.862087E-01 -1.557199E+01 +6.862087E-01 +9.767786E+02 
 +3.148823E+02 -2.262405E+01 -1.012372E+01 -2.262405E+01 +3.342343E+02 -1.061814E+00 -1.012372E+01 -1.061814E+00 +9.580891E+02 
 +3.563771E+02 +4.825875E+00 -7.632129E+00 +4.825875E+00 +3.609899E+02 +3.722553E+00 -7.632129E+00 +3.722553E+00 +9.569447E+02 
 +3.823519E+02 +1.521957E+01 -1.540904E-01 +1.521957E+01 +3.773844E+02 +3.447059E+00 -1.540904E-01 +3.447059E+00 +9.613263E+02 
 +3.761653E+02 +1.921590E+01 +2.079106E-01 +1.921590E+01 +3.712084E+02 -1.749370E+00 +2.079106E-01 -1.749370E+00 +9.561687E+02 
 +3.967420E+02 +1.302372E+01 -2.226505E+00 +1.302372E+01 +3.971039E+02 -7.082915E+00 -2.226505E+00 -7.082915E+00 +9.665456E+02 
 +4.298142E+02 -5.114187E+00 +6.132324E+00 -5.114187E+00 +4.420041E+02 -3.709605E+00 +6.132324E+00 -3.709605E+00 +9.648260E+02 
 +4.271830E+02 -1.100532E+01 +8.299495E-01 -1.100532E+01 +4.341750E+02 -4.501923E+00 +8.299495E-01 -4.501923E+00 +9.546390E+02 
 +3.990995E+02 -7.358275E+00 -4.543833E+00 -7.358275E+00 +4.012161E+02 -8.432288E+00 -4.543833E+00 -8.432288E+00 +9.599475E+02 
 +3.953519E+02 -9.330638E+00 -9.972831E+00 -9.330638E+00 +3.917022E+02 -9.540793E+00 -9.972831E+00 -9.540793E+00 +9.594528E+02 
 +3.808307E+02 -1.469054E-01 -9.018202E+00 -1.469054E-01 +3.730628E+02 -4.191651E+00 -9.018202E+00 -4.191651E+00 +9.476445E+02 
 +3.601009E+02 -1.773729E+01 -1.256887E+01 -1.773729E+01 +3.475001E+02 +1.740371E+00 -1.256887E+01 +1.740371E+00 +9.434979E+02 
 +3.656085E+02 -9.058105E+00 -9.570553E+00 -9.058105E+00 +3.554441E+02 +9.504418E+00 -9.570553E+00 +9.504418E+00 +9.581045E+02 
 +3.308332E+02 +1.159607E+01 +4.201427E-01 +1.159607E+01 +3.423689E+02 -7.588990E-01 +4.201427E-01 -7.588990E-01 +9.494429E+02 
 +3.702343E+02 -1.285713E+01 +3.815707E+00 -1.285713E+01 +3.554597E+02 -9.256358E+00 +3.815707E+00 -9.256358E+00 +9.635780E+02 
 +3.694019E+02 -7.199754E+00 +1.127762E+01 -7.199754E+00 +3.632153E+02 -4.328222E+00 +1.127762E+01 -4.328222E+00 +9.681609E+02 
 +3.639210E+02 -1.421266E+01 +1.472963E+01 -1.421266E+01 +3.754248E+02 -3.224924E+00 +1.472963E+01 -3.224924E+00 +9.752885E+02 
 +3.761939E+02 +2.674794E+01 +5.671195E+00 +2.674794E+01 +4.075565E+02 -5.947353E+00 +5.671195E+00 -5.947353E+00 +9.963000E+02 
 +3.729832E+02 +2.105626E+01 -2.880035E+00 +2.105626E+01 +3.874741E+02 -1.271067E+01 -2.880035E+00 -1.271067E+01 +9.982646E+02 
 +3.666462E+02 +2.019927E+01 -7.285417E+00 +2.019927E+01 +3.614791E+02 -1.496413E+01 -7.285417E+00 -1.496413E+01 +9.972580E+02 
 +3.615900E+02 +7.039380E+00 -1.352513E+01 +7.039380E+00 +3.414817E+02 -4.944288E+00 -1.352513E+01 -4.944288E+00 +9.975642E+02 
 +3.346981E+02 -1.139177E+00 -1.283869E+01 -1.139177E+00 +3.168167E+02 +2.488180E+00 -1.283869E+01 +2.488180E+00 +9.801748E+02 
 +3.247913E+02 -1.064933E+00 +2.796429E-01 -1.064933E+00 +3.255571E+02 +5.370218E+00 +2.796429E-01 +5.370218E+00 +9.629422E+02 
 +3.693098E+02 +1.381893E+01 -5.974602E+00 +1.381893E+01 +3.659406E+02 +6.274674E+00 -5.974602E+00 +6.274674E+00 +9.684211E+02 
 +3.641394E+02 +1.635367E+01 -2.544700E+00 +1.635367E+01 +3.575649E+02 -2.055873E+00 -2.544700E+00 -2.055873E+00 +9.551248E+02 
 +3.721197E+02 +2.420232E+01 -2.985124E+00 +2.420232E+01 +3.590419E+02 -6.716419E+00 -2.985124E+00 -6.716419E+00 +9.544681E+02 
 +3.765812E+02 +2.521824E+01 -2.673492E+00 +2.521824E+01 +3.603007E+02 -8.029279E+00 -2.673492E+00 -8.029279E+00 +9.543416E+02 
 +3.787190E+02 +1.777276E+01 +7.509000E+00 +1.777276E+01 +3.744661E+02 -7.744814E+00 +7.509000E+00 -7.744814E+00 +9.391123E+02 
 +4.154027E+02 -7.481770E+00 +3.500644E+00 -7.481770E+00 +4.223925E+02 -7.576609E+00 +3.500644E+00 -7.576609E+00 +9.493652E+02 
 +3.981177E+02 -8.075257E+00 -4.171661E+00 -8.075257E+00 +4.172253E+02 -8.391044E+00 -4.171661E+00 -8.391044E+00 +9.628013E+02 
 +3.905889E+02 -5.756762E+00 -1.035400E+01 -5.756762E+00 +4.002412E+02 -1.149660E+01 -1.035400E+01 -1.149660E+01 +9.630711E+02 
 +3.631687E+02 -2.266395E+00 -7.190026E+00 -2.266395E+00 +3.592702E+02 -2.034146E+00 -7.190026E+00 -2.034146E+00 +9.398707E+02 
 +3.401686E+02 -2.338095E+01 -1.143809E+01 -2.338095E+01 +3.270398E+02 +4.103505E+00 -1.143809E+01 +4.103505E+00 +9.319113E+02 
 +3.528598E+02 -1.210391E+01 -1.032387E+01 -1.210391E+01 +3.326868E+02 +4.552762E+00 -1.032387E+01 +4.552762E+00 +9.476565E+02 
 +3.444149E+02 +2.560039E+00 +4.904069E+00 +2.560039E+00 +3.228696E+02 -5.405872E+00 +4.904069E+00 -5.405872E+00 +9.498511E+02 
 +3.537001E+02 -1.317991E+01 +1.261094E+01 -1.317991E+01 +3.318163E+02 -1.198126E+01 +1.261094E+01 -1.198126E+01 +9.610072E+02 
 +3.480505E+02 -9.707760E+00 +1.720843E+01 -9.707760E+00 +3.407245E+02 -6.449322E+00 +1.720843E+01 -6.449322E+00 +9.657718E+02 
 +3.621323E+02 -1.510831E+01 +1.315061E+01 -1.510831E+01 +3.791638E+02 -2.562175E+00 +1.315061E+01 -2.562175E+00 +9.790737E+02 
 +4.033636E+02 +3.219665E+01 +1.730885E+00 +3.219665E+01 +4.277390E+02 -7.573092E+00 +1.730885E+00 -7.573092E+00 +9.965456E+02 
 +3.926182E+02 +2.429591E+01 -1.564462E+00 +2.429591E+01 +3.990270E+02 -1.672074E+01 -1.564462E+00 -1.672074E+01 +9.977685E+02 
 +3.809639E+02 +2.754440E+01 +2.169444E+00 +2.754440E+01 +3.728431E+02 -2.311519E+01 +2.169444E+00 -2.311519E+01 +1.000237E+03 
 +3.582118E+02 +8.233143E+00 -2.457103E+00 +8.233143E+00 +3.400661E+02 -1.421708E+01 -2.457103E+00 -1.421708E+01 +9.951634E+02 
 +3.555396E+02 +4.619680E+00 +5.650706E-01 +4.619680E+00 +3.371075E+02 -3.791984E+00 +5.650706E-01 -3.791984E+00 +9.807261E+02 
 +3.561190E+02 +4.884726E+00 +7.858071E+00 +4.884726E+00 +3.522410E+02 +7.126607E+00 +7.858071E+00 +7.126607E+00 +9.647734E+02 
 +3.574921E+02 +1.655126E+01 -2.863622E+00 +1.655126E+01 +3.543575E+02 +1.346885E+01 -2.863622E+00 +1.346885E+01 +9.603865E+02 
 +3.588443E+02 +2.051696E+01 -5.775682E+00 +2.051696E+01 +3.597129E+02 +4.519896E+00 -5.775682E+00 +4.519896E+00 +9.635918E+02 
 +3.734184E+02 +2.174375E+01 -3.224340E+00 +2.174375E+01 +3.669343E+02 -2.570516E+00 -3.224340E+00 -2.570516E+00 +9.621736E+02 
 +3.850071E+02 +2.128872E+01 -4.837339E+00 +2.128872E+01 +3.742931E+02 -9.837833E-01 -4.837339E+00 -9.837833E-01 +9.581682E+02 
 +3.829509E+02 +1.995118E+01 +2.816905E+00 +1.995118E+01 +3.873663E+02 -2.569565E-01 +2.816905E+00 -2.569565E-01 +9.510948E+02 
 +4.081081E+02 -1.048745E+00 +1.465732E+00 -1.048745E+00 +4.144943E+02 -9.243927E+00 +1.465732E+00 -9.243927E+00 +9.615923E+02 
 +4.182020E+02 +9.031941E-01 -1.202733E+00 +9.031941E-01 +4.245540E+02 -1.351404E+01 -1.202733E+00 -1.351404E+01 +9.738271E+02 
 +3.835186E+02 +8.467249E+00 -5.257754E+00 +8.467249E+00 +3.908776E+02 -1.373667E+01 -5.257754E+00 -1.373667E+01 +9.561288E+02 
 +3.495199E+02 +1.258714E+01 -2.417926E+00 +1.258714E+01 +3.548216E+02 -1.279375E+01 -2.417926E+00 -1.279375E+01 +9.428113E+02 
 +3.278826E+02 +2.462118E+00 -5.246039E+00 +2.462118E+00 +3.426372E+02 -1.645018E+01 -5.246039E+00 -1.645018E+01 +9.403345E+02 
 +3.198513E+02 -2.640434E+00 -4.592144E+00 -2.640434E+00 +3.242544E+02 -1.885396E+01 -4.592144E+00 -1.885396E+01 +9.354351E+02 
 +3.486010E+02 +7.676324E-01 +1.414172E+01 +7.676324E-01 +3.189403E+02 -1.779323E+01 +1.414172E+01 -1.779323E+01 +9.451484E+02 
 +3.736443E+02 -7.566524E+00 +1.877610E+01 -7.566524E+00 +3.510138E+02 -1.765165E+01 +1.877610E+01 -1.765165E+01 +9.640675E+02 
 +3.633993E+02 +6.669693E+00 +1.868027E+01 +6.669693E+00 +3.897343E+02 -1.792924E+01 +1.868027E+01 -1.792924E+01 +9.723171E+02 
 +3.812306E+02 +5.269589E+00 +1.060105E+01 +5.269589E+00 +4.238405E+02 -1.116952E+01 +1.060105E+01 -1.116952E+01 +9.820275E+02 
 +3.954617E+02 +1.153276E+01 +4.135297E+00 +1.153276E+01 +4.376891E+02 -5.062638E+00 +4.135297E+00 -5.062638E+00 +9.879053E+02 
 +3.915667E+02 -1.043609E+01 +2.734738E+00 -1.043609E+01 +4.109626E+02 -8.525566E+00 +2.734738E+00 -8.525566E+00 +9.961485E+02 
 +3.747114E+02 -1.315107E+01 -7.300751E-01 -1.315107E+01 +3.781536E+02 -1.160572E+01 -7.300751E-01 -1.160572E+01 +9.919490E+02 
 +3.657960E+02 -2.249172E+01 -1.075053E+01 -2.249172E+01 +3.525649E+02 -1.013600E+01 -1.075053E+01 -1.013600E+01 +9.731919E+02 
 +3.975816E+02 -9.927982E+00 +4.738228E-01 -9.927982E+00 +3.824995E+02 -2.686589E+00 +4.738228E-01 -2.686589E+00 +9.683530E+02 
 +4.052341E+02 -7.827803E+00 +2.060405E+00 -7.827803E+00 +4.004242E+02 +1.224965E+00 +2.060405E+00 +1.224965E+00 +9.590789E+02 
 +3.941701E+02 -4.694628E+00 +6.825277E-01 -4.694628E+00 +3.937155E+02 +7.337190E-01 +6.825277E-01 +7.337190E-01 +9.436243E+02 
 +3.597722E+02 +9.041076E+00 -5.072044E+00 +9.041076E+00 +3.636096E+02 -7.855321E-01 -5.072044E+00 -7.855321E-01 +9.289134E+02 
 +3.391717E+02 +2.667500E+01 -6.971987E+00 +2.667500E+01 +3.514652E+02 +2.990436E+00 -6.971987E+00 +2.990436E+00 +9.427891E+02 
 +3.630533E+02 +2.598300E+01 -3.408397E+00 +2.598300E+01 +3.766223E+02 +5.686246E+00 -3.408397E+00 +5.686246E+00 +9.626441E+02 
 +3.832586E+02 +1.372372E+01 -7.540525E+00 +1.372372E+01 +3.756607E+02 +3.338193E+00 -7.540525E+00 +3.338193E+00 +9.616627E+02 
 +3.822417E+02 +4.510215E+00 -9.791239E+00 +4.510215E+00 +3.490968E+02 +2.043147E+00 -9.791239E+00 +2.043147E+00 +9.524427E+02 
 +3.927255E+02 +4.232572E+00 -1.449297E+01 +4.232572E+00 +3.539608E+02 +7.628321E+00 -1.449297E+01 +7.628321E+00 +9.572803E+02 
 +3.399790E+02 -1.378147E+01 -2.852651E+00 -1.378147E+01 +3.387455E+02 +1.219874E+01 -2.852651E+00 +1.219874E+01 +9.497402E+02 
 +3.396518E+02 -8.823793E+00 +2.578028E+00 -8.823793E+00 +3.461287E+02 +1.366692E+01 +2.578028E+00 +1.366692E+01 +9.574397E+02 
 +3.186522E+02 -2.050404E+01 +5.674696E+00 -2.050404E+01 +3.451392E+02 +3.171863E+00 +5.674696E+00 +3.171863E+00 +9.528725E+02 
 +3.173711E+02 -2.534466E+01 +2.642334E+00 -2.534466E+01 +3.429286E+02 -1.243636E+01 +2.642334E+00 -1.243636E+01 +9.501122E+02 
 +4.015943E+02 +3.830517E+00 +1.254334E+01 +3.830517E+00 +3.915739E+02 -2.164813E+01 +1.254334E+01 -2.164813E+01 +9.713026E+02 
 +4.035809E+02 +6.716582E+00 +8.499620E-01 +6.716582E+00 +4.160235E+02 -1.808872E+01 +8.499620E-01 -1.808872E+01 +9.731024E+02 
 +3.866758E+02 +1.098926E+01 +2.288471E+00 +1.098926E+01 +4.183340E+02 -1.400312E+01 +2.288471E+00 -1.400312E+01 +9.690361E+02 
 +3.844629E+02 +1.433096E+01 +3.612419E+00 +1.433096E+01 +4.321305E+02 -7.734567E+00 +3.612419E+00 -7.734567E+00 +9.729326E+02 
 +3.716149E+02 -1.000352E+01 +1.152296E+01 -1.000352E+01 +4.005527E+02 +2.201112E-01 +1.152296E+01 +2.201112E-01 +9.831236E+02 
 +3.763447E+02 -8.058464E+00 +7.704346E+00 -8.058464E+00 +3.894361E+02 -8.580234E+00 +7.704346E+00 -8.580234E+00 +9.991251E+02 
 +3.722266E+02 -1.288461E+01 +3.732041E-01 -1.288461E+01 +3.821090E+02 -1.528487E+01 +3.732041E-01 -1.528487E+01 +1.007475E+03 
 +4.018832E+02 -4.712121E+00 -2.245920E+00 -4.712121E+00 +3.932677E+02 -6.896520E+00 -2.245920E+00 -6.896520E+00 +1.004780E+03 
 +4.387195E+02 +3.691721E+00 +6.219576E+00 +3.691721E+00 +4.132095E+02 +9.839942E-01 +6.219576E+00 +9.839942E-01 +9.831860E+02 
 +4.137013E+02 -3.080310E+00 +8.432546E+00 -3.080310E+00 +3.941055E+02 +1.732611E+00 +8.432546E+00 +1.732611E+00 +9.490735E+02 
 +4.093427E+02 -1.572541E+00 +4.169344E+00 -1.572541E+00 +3.974208E+02 +3.543282E+00 +4.169344E+00 +3.543282E+00 +9.441284E+02 
 +3.918274E+02 -1.331818E+00 -1.377407E+00 -1.331818E+00 +3.872379E+02 +2.473655E-02 -1.377407E+00 +2.473655E-02 +9.462497E+02 
 +3.529621E+02 +2.670678E+01 -1.004344E+01 +2.670678E+01 +3.660746E+02 -9.719325E-01 -1.004344E+01 -9.719325E-01 +9.658540E+02 
 +3.542016E+02 +3.290652E+01 -2.424907E+00 +3.290652E+01 +3.646282E+02 -2.121833E+00 -2.424907E+00 -2.121833E+00 +9.755356E+02 
 +3.772794E+02 +1.594039E+01 -5.719047E+00 +1.594039E+01 +3.584697E+02 -4.839297E+00 -5.719047E+00 -4.839297E+00 +9.639298E+02 
 +3.916428E+02 +7.161472E+00 -6.602830E+00 +7.161472E+00 +3.505143E+02 -8.001014E-01 -6.602830E+00 -8.001014E-01 +9.569803E+02 
 +3.840167E+02 +8.255239E+00 -4.965896E+00 +8.255239E+00 +3.459513E+02 +7.492000E+00 -4.965896E+00 +7.492000E+00 +9.610501E+02 
 +3.153354E+02 -1.153020E+01 +8.892064E+00 -1.153020E+01 +3.246020E+02 +3.933650E+00 +8.892064E+00 +3.933650E+00 +9.526155E+02 
 +3.203358E+02 -8.917305E+00 +1.096648E+01 -8.917305E+00 +3.457776E+02 +3.809543E+00 +1.096648E+01 +3.809543E+00 +9.592441E+02 
 +3.140889E+02 -1.845564E+01 +1.147694E+01 -1.845564E+01 +3.508746E+02 +8.769589E-01 +1.147694E+01 +8.769589E-01 +9.495722E+02 
 +3.132803E+02 -2.832574E+01 -2.228361E+00 -2.832574E+01 +3.530052E+02 -7.895388E+00 -2.228361E+00 -7.895388E+00 +9.461037E+02 
 +3.811741E+02 -2.859366E+00 +4.863429E+00 -2.859366E+00 +3.705101E+02 -1.002029E+01 +4.863429E+00 -1.002029E+01 +9.660560E+02 
 +3.747445E+02 +7.913571E+00 -2.273741E-01 +7.913571E+00 +3.643791E+02 -7.553878E+00 -2.273741E-01 -7.553878E+00 +9.648766E+02 
 +3.780371E+02 +5.420332E+00 +5.299965E+00 +5.420332E+00 +3.940779E+02 -1.051137E+01 +5.299965E+00 -1.051137E+01 +9.744527E+02 
 +3.828163E+02 +1.047397E+01 +1.327659E+01 +1.047397E+01 +4.201463E+02 -6.753884E+00 +1.327659E+01 -6.753884E+00 +9.827140E+02 
 +3.662930E+02 -9.020072E+00 +1.079252E+01 -9.020072E+00 +3.766530E+02 +4.085712E+00 +1.079252E+01 +4.085712E+00 +1.001071E+03 
 +3.932216E+02 -9.783276E+00 -3.431601E+00 -9.783276E+00 +4.003316E+02 -2.798299E+00 -3.431601E+00 -2.798299E+00 +1.020438E+03 
 +3.908355E+02 -1.170393E+01 -2.227951E+00 -1.170393E+01 +3.967431E+02 -7.828144E+00 -2.227951E+00 -7.828144E+00 +1.012740E+03 
 +4.343740E+02 +5.689811E+00 +2.477048E+00 +5.689811E+00 +4.272107E+02 -2.195015E+00 +2.477048E+00 -2.195015E+00 +1.003966E+03 
 +4.414187E+02 +6.406505E+00 +5.218719E+00 +6.406505E+00 +4.192745E+02 -5.975909E-02 +5.218719E+00 -5.975909E-02 +9.709377E+02 
 +4.263172E+02 +1.964184E+00 +8.513987E+00 +1.964184E+00 +4.041548E+02 -9.437246E-01 +8.513987E+00 -9.437246E-01 +9.514038E+02 
 +4.155831E+02 -8.387188E-01 +6.653722E+00 -8.387188E-01 +3.936263E+02 +2.472666E+00 +6.653722E+00 +2.472666E+00 +9.373529E+02 
 +4.084529E+02 +4.217936E+00 +3.126851E+00 +4.217936E+00 +3.953328E+02 +3.077574E+00 +3.126851E+00 +3.077574E+00 +9.495866E+02 
 +3.754268E+02 +2.585794E+01 -6.141049E+00 +2.585794E+01 +3.807216E+02 -5.539332E+00 -6.141049E+00 -5.539332E+00 +9.835706E+02 
 +3.513599E+02 +3.046598E+01 +1.393772E+00 +3.046598E+01 +3.448139E+02 -7.776728E+00 +1.393772E+00 -7.776728E+00 +9.796242E+02 
 +3.687334E+02 +1.424197E+01 +3.322197E+00 +1.424197E+01 +3.442422E+02 -7.877818E+00 +3.322197E+00 -7.877818E+00 +9.656432E+02 
 +3.795856E+02 +2.570241E+00 -1.808390E-01 +2.570241E+00 +3.524620E+02 -8.408648E-01 -1.808390E-01 -8.408648E-01 +9.618534E+02 
 +3.527038E+02 -3.076758E+00 +3.097614E+00 -3.076758E+00 +3.452460E+02 +6.711893E+00 +3.097614E+00 +6.711893E+00 +9.589909E+02 
 +3.159235E+02 -1.935453E+01 +8.922757E+00 -1.935453E+01 +3.467493E+02 +4.633002E-01 +8.922757E+00 +4.633002E-01 +9.633085E+02 
 +3.230779E+02 -1.778570E+01 +7.863393E+00 -1.778570E+01 +3.631481E+02 -1.475410E-01 +7.863393E+00 -1.475410E-01 +9.687914E+02 
 +3.222443E+02 -2.037718E+01 +7.057032E+00 -2.037718E+01 +3.610991E+02 +1.972895E+00 +7.057032E+00 +1.972895E+00 +9.556833E+02 
 +3.295660E+02 -2.688849E+01 -1.059690E+00 -2.688849E+01 +3.743902E+02 -8.132991E-01 -1.059690E+00 -8.132991E-01 +9.646226E+02 
 +3.462771E+02 -1.633680E+01 +2.077860E+00 -1.633680E+01 +3.700652E+02 -4.504952E+00 +2.077860E+00 -4.504952E+00 +9.765460E+02 
 +3.754937E+02 +5.937624E+00 +1.008089E+01 +5.937624E+00 +3.612742E+02 -4.567583E+00 +1.008089E+01 -4.567583E+00 +9.774231E+02 
 +3.622427E+02 +6.794049E+00 +1.399111E+01 +6.794049E+00 +3.505207E+02 -2.006709E+00 +1.399111E+01 -2.006709E+00 +9.681470E+02 
 +3.535154E+02 +1.724582E+01 +2.726435E+01 +1.724582E+01 +3.470340E+02 +5.475069E-01 +2.726435E+01 +5.475069E-01 +9.766368E+02 
 +3.612333E+02 +7.006900E+00 +7.031772E+00 +7.006900E+00 +3.546652E+02 -8.787460E+00 +7.031772E+00 -8.787460E+00 +1.017274E+03 
 +3.803079E+02 -5.327955E+00 -6.612002E+00 -5.327955E+00 +3.764433E+02 -7.194169E+00 -6.612002E+00 -7.194169E+00 +1.015218E+03 
 +4.229879E+02 +2.994873E+00 +1.273081E-01 +2.994873E+00 +4.181816E+02 -5.487096E+00 +1.273081E-01 -5.487096E+00 +1.017661E+03 
 +4.459977E+02 +4.406531E+00 +5.334684E+00 +4.406531E+00 +4.320613E+02 -2.129952E+00 +5.334684E+00 -2.129952E+00 +1.004767E+03 
 +4.353649E+02 +4.332113E+00 +5.461524E+00 +4.332113E+00 +4.118267E+02 +1.100786E+00 +5.461524E+00 +1.100786E+00 +9.705382E+02 
 +4.347339E+02 +1.466288E+00 +5.390438E+00 +1.466288E+00 +4.126303E+02 -7.705594E-01 +5.390438E+00 -7.705594E-01 +9.575706E+02 
 +4.360273E+02 -2.775944E+00 +8.248868E+00 -2.775944E+00 +4.110221E+02 +9.781570E-01 +8.248868E+00 +9.781570E-01 +9.440693E+02 
 +4.099098E+02 -1.697324E-01 +1.295592E+00 -1.697324E-01 +4.058240E+02 -4.252044E+00 +1.295592E+00 -4.252044E+00 +9.501671E+02 
 +3.791780E+02 +1.197655E+00 -3.777635E+00 +1.197655E+00 +3.964124E+02 -1.761505E+01 -3.777635E+00 -1.761505E+01 +9.777329E+02 
 +3.773451E+02 +2.820084E+00 +3.274731E+00 +2.820084E+00 +3.828456E+02 -2.315147E+01 +3.274731E+00 -2.315147E+01 +9.862684E+02 
 +3.826895E+02 -3.925963E+00 +4.409086E+00 -3.925963E+00 +3.828512E+02 -2.032960E+01 +4.409086E+00 -2.032960E+01 +9.831595E+02 
 +3.669842E+02 -2.182922E+01 -2.683949E-01 -2.182922E+01 +3.819068E+02 -6.501810E+00 -2.683949E-01 -6.501810E+00 +9.782063E+02 
 +3.439914E+02 -1.975049E+01 +2.587612E+00 -1.975049E+01 +3.648207E+02 +1.219204E+00 +2.587612E+00 +1.219204E+00 +9.731304E+02 
 +3.293833E+02 -1.883625E+01 +3.994169E+00 -1.883625E+01 +3.555612E+02 -2.011011E+00 +3.994169E+00 -2.011011E+00 +9.735637E+02 
 +3.312157E+02 -1.554821E+01 +2.906745E+00 -1.554821E+01 +3.642152E+02 -1.510709E+00 +2.906745E+00 -1.510709E+00 +9.749736E+02 
 +3.358862E+02 -1.851569E+01 +2.570881E+00 -1.851569E+01 +3.739593E+02 -4.046148E-01 +2.570881E+00 -4.046148E-01 +9.703009E+02 
 +3.358390E+02 -2.608249E+01 +4.070140E+00 -2.608249E+01 +3.860636E+02 -1.576195E+00 +4.070140E+00 -1.576195E+00 +9.719962E+02 
 +3.330782E+02 -2.493087E+01 +5.908425E+00 -2.493087E+01 +3.810285E+02 -4.539365E+00 +5.908425E+00 -4.539365E+00 +9.654776E+02 
 +3.813517E+02 +1.425088E+01 +1.140425E+01 +1.425088E+01 +3.730666E+02 -8.162522E+00 +1.140425E+01 -8.162522E+00 +9.641764E+02 
 +3.607746E+02 +1.863822E+01 +1.590157E+01 +1.863822E+01 +3.384953E+02 -8.606186E+00 +1.590157E+01 -8.606186E+00 +9.578797E+02 
 +3.564154E+02 +2.352826E+01 +2.604009E+01 +2.352826E+01 +3.386840E+02 -1.163234E+01 +2.604009E+01 -1.163234E+01 +9.891601E+02 
 +3.576178E+02 +2.385994E+01 +6.249682E+00 +2.385994E+01 +3.316246E+02 -1.645338E+01 +6.249682E+00 -1.645338E+01 +9.978418E+02 
 +3.643781E+02 +1.679889E+01 +1.733697E+00 +1.679889E+01 +3.406389E+02 -1.105428E+01 +1.733697E+00 -1.105428E+01 +9.979216E+02 
 +3.876659E+02 +2.380142E+01 +4.251604E+00 +2.380142E+01 +3.655719E+02 -6.530889E+00 +4.251604E+00 -6.530889E+00 +9.998286E+02 
 +4.213208E+02 +5.437887E+00 +1.351638E+01 +5.437887E+00 +4.032043E+02 +3.557217E-01 +1.351638E+01 +3.557217E-01 +1.001887E+03 
 +4.337993E+02 +7.631844E-01 +1.331426E+01 +7.631844E-01 +4.164447E+02 +6.674861E+00 +1.331426E+01 +6.674861E+00 +9.798802E+02 
 +4.368081E+02 -3.709115E+00 +9.814064E+00 -3.709115E+00 +4.098591E+02 +8.937180E+00 +9.814064E+00 +8.937180E+00 +9.579578E+02 
 +4.500905E+02 -7.622917E+00 +1.241613E+01 -7.622917E+00 +4.232719E+02 +4.813970E+00 +1.241613E+01 +4.813970E+00 +9.599104E+02 
 +3.813492E+02 -7.152260E+00 -1.755386E+00 -7.152260E+00 +3.925072E+02 -7.450730E+00 -1.755386E+00 -7.450730E+00 +9.544404E+02 
 +3.734833E+02 -5.698448E+00 -3.426902E+00 -5.698448E+00 +3.840184E+02 -1.411726E+01 -3.426902E+00 -1.411726E+01 +9.735258E+02 
 +3.755195E+02 -1.268903E+00 -4.096438E-01 -1.268903E+00 +3.827469E+02 -2.044407E+01 -4.096438E-01 -2.044407E+01 +9.786599E+02 
 +3.604629E+02 -8.910636E+00 +2.970437E+00 -8.910636E+00 +3.699115E+02 -2.392326E+01 +2.970437E+00 -2.392326E+01 +9.737012E+02 
 +3.454745E+02 -1.777157E+01 +6.171550E-01 -1.777157E+01 +3.644176E+02 -1.491376E+01 +6.171550E-01 -1.491376E+01 +9.750429E+02 
 +3.502084E+02 -1.619321E+01 +4.349527E-01 -1.619321E+01 +3.693835E+02 -7.941355E+00 +4.349527E-01 -7.941355E+00 +9.832582E+02 
 +3.452109E+02 -1.220587E+01 +3.399032E-01 -1.220587E+01 +3.646784E+02 -6.041936E+00 +3.399032E-01 -6.041936E+00 +9.807983E+02 
 +3.401792E+02 -1.360348E+01 -3.826938E+00 -1.360348E+01 +3.716899E+02 -5.133413E+00 -3.826938E+00 -5.133413E+00 +9.808884E+02 
 +3.413346E+02 -1.893983E+01 -3.566755E+00 -1.893983E+01 +3.804289E+02 -4.049370E+00 -3.566755E+00 -4.049370E+00 +9.831460E+02 
 +3.467907E+02 -2.062236E+01 +2.389068E-01 -2.062236E+01 +3.823316E+02 -5.556644E+00 +2.389068E-01 -5.556644E+00 +9.795626E+02 
 +3.584061E+02 -1.231659E+01 +3.349048E+00 -1.231659E+01 +3.900545E+02 -9.770225E+00 +3.349048E+00 -9.770225E+00 +9.723352E+02 
 +3.881683E+02 +1.208477E+01 -6.816377E+00 +1.208477E+01 +3.944076E+02 -1.184913E+01 -6.816377E+00 -1.184913E+01 +9.670639E+02 
 +3.607791E+02 +1.929507E+01 -3.420334E-01 +1.929507E+01 +3.474137E+02 -8.516310E+00 -3.420334E-01 -8.516310E+00 +9.574284E+02 
 +3.596060E+02 +3.293042E+01 +1.491563E+01 +3.293042E+01 +3.335724E+02 -1.172966E+01 +1.491563E+01 -1.172966E+01 +9.826042E+02 
 +3.710034E+02 +1.947046E+01 +5.342627E+00 +1.947046E+01 +3.438118E+02 -1.397174E+01 +5.342627E+00 -1.397174E+01 +9.854471E+02 
 +3.722599E+02 +1.315305E+01 +6.779771E+00 +1.315305E+01 +3.491532E+02 -1.162636E+01 +6.779771E+00 -1.162636E+01 +9.935306E+02 
 +3.647440E+02 +1.918816E+01 +8.694584E+00 +1.918816E+01 +3.420022E+02 -4.018198E+00 +8.694584E+00 -4.018198E+00 +9.916567E+02 
 +3.717072E+02 +1.875863E+01 +1.708460E+01 +1.875863E+01 +3.394639E+02 +2.471533E+00 +1.708460E+01 +2.471533E+00 +9.800679E+02 
 +3.946697E+02 +1.106608E+01 +2.282060E+01 +1.106608E+01 +3.683064E+02 +8.071184E+00 +2.282060E+01 +8.071184E+00 +9.651323E+02 
 +4.187362E+02 -3.812055E+00 +1.641038E+01 -3.812055E+00 +3.908378E+02 +1.229278E+01 +1.641038E+01 +1.229278E+01 +9.582198E+02 
 +4.235169E+02 -1.132018E+01 +1.245069E+01 -1.132018E+01 +3.932793E+02 +8.043540E+00 +1.245069E+01 +8.043540E+00 +9.633757E+02 
 +3.736044E+02 -1.317348E+01 +1.342255E+00 -1.317348E+01 +3.709962E+02 -1.192989E+00 +1.342255E+00 -1.192989E+00 +9.657827E+02 
 +3.665265E+02 -9.894430E+00 +2.197778E+00 -9.894430E+00 +3.637478E+02 -6.959315E+00 +2.197778E+00 -6.959315E+00 +9.764684E+02 
 +3.556910E+02 -2.941775E+00 -6.101221E-01 -2.941775E+00 +3.562840E+02 -1.896275E+01 -6.101221E-01 -1.896275E+01 +9.701623E+02 
 +3.479917E+02 -9.925611E+00 +1.529129E+00 -9.925611E+00 +3.567761E+02 -2.926193E+01 +1.529129E+00 -2.926193E+01 +9.691350E+02 
 +3.511474E+02 -1.002167E+01 +2.434143E+00 -1.002167E+01 +3.632331E+02 -2.155717E+01 +2.434143E+00 -2.155717E+01 +9.753790E+02 
 +3.376528E+02 -1.746728E+01 -2.173464E+00 -1.746728E+01 +3.617582E+02 -1.320988E+01 -2.173464E+00 -1.320988E+01 +9.757608E+02 
 +3.409591E+02 -1.352011E+01 -6.612107E+00 -1.352011E+01 +3.681879E+02 -8.925347E+00 -6.612107E+00 -8.925347E+00 +9.780989E+02 
 +3.610788E+02 -1.238647E+01 -1.002196E+01 -1.238647E+01 +3.857278E+02 -8.403974E+00 -1.002196E+01 -8.403974E+00 +9.867334E+02 
 +3.619858E+02 -1.054350E+01 -4.614895E+00 -1.054350E+01 +3.774708E+02 -3.967042E+00 -4.614895E+00 -3.967042E+00 +9.828401E+02 
 +3.730836E+02 -2.362008E+00 -3.371150E+00 -2.362008E+00 +3.747676E+02 +5.046711E+00 -3.371150E+00 +5.046711E+00 +9.768904E+02 
 +3.642579E+02 +4.538274E+00 -2.664789E+00 +4.538274E+00 +3.850472E+02 +2.519047E+00 -2.664789E+00 +2.519047E+00 +9.714808E+02 
 +3.665454E+02 +9.583296E+00 -1.540750E+01 +9.583296E+00 +3.867934E+02 -8.800771E+00 -1.540750E+01 -8.800771E+00 +9.627168E+02 
 +3.643643E+02 +1.394746E+01 -8.852605E+00 +1.394746E+01 +3.616236E+02 -7.158037E+00 -8.852605E+00 -7.158037E+00 +9.609727E+02 
 +3.749718E+02 +3.190309E+01 +8.013369E+00 +3.190309E+01 +3.514130E+02 -6.373651E+00 +8.013369E+00 -6.373651E+00 +9.804800E+02 
 +3.761557E+02 +1.983614E+01 +5.741794E+00 +1.983614E+01 +3.532927E+02 -1.201354E+01 +5.741794E+00 -1.201354E+01 +9.830453E+02 
 +3.682107E+02 +1.609556E+01 +7.911190E+00 +1.609556E+01 +3.465546E+02 -1.096624E+01 +7.911190E+00 -1.096624E+01 +9.843895E+02 
 +3.679395E+02 +1.529359E+01 +1.234991E+01 +1.529359E+01 +3.427389E+02 -7.307268E+00 +1.234991E+01 -7.307268E+00 +9.888901E+02 
 +3.620817E+02 +1.597451E+01 +1.479760E+01 +1.597451E+01 +3.320417E+02 -3.797021E+00 +1.479760E+01 -3.797021E+00 +9.844305E+02 
 +3.594378E+02 +1.585878E+01 +1.625690E+01 +1.585878E+01 +3.238171E+02 +5.069700E-01 +1.625690E+01 +5.069700E-01 +9.682572E+02 
 +3.821352E+02 -1.434320E+00 +8.976196E+00 -1.434320E+00 +3.363891E+02 +5.357356E+00 +8.976196E+00 +5.357356E+00 +9.658486E+02 
 +3.951692E+02 +7.283126E-01 +7.850936E+00 +7.283126E-01 +3.445573E+02 +8.337830E+00 +7.850936E+00 +8.337830E+00 +9.744104E+02 
 +3.631981E+02 +1.693192E+00 +5.752747E+00 +1.693192E+00 +3.336623E+02 +4.901681E+00 +5.752747E+00 +4.901681E+00 +9.722664E+02 
 +3.370334E+02 -2.137336E+00 +8.504040E+00 -2.137336E+00 +3.388385E+02 -1.786554E+00 +8.504040E+00 -1.786554E+00 +9.688589E+02 
 +3.483082E+02 -1.488499E+00 +2.647704E+00 -1.488499E+00 +3.505019E+02 -1.548888E+01 +2.647704E+00 -1.548888E+01 +9.691056E+02 
 +3.447335E+02 -7.707087E+00 -4.515656E+00 -7.707087E+00 +3.466243E+02 -3.057465E+01 -4.515656E+00 -3.057465E+01 +9.665083E+02 
 +3.300032E+02 -1.388073E+01 -5.420589E+00 -1.388073E+01 +3.469941E+02 -2.663436E+01 -5.420589E+00 -2.663436E+01 +9.658340E+02 
 +3.383848E+02 -2.071304E+01 -6.557318E+00 -2.071304E+01 +3.613370E+02 -1.740699E+01 -6.557318E+00 -1.740699E+01 +9.762629E+02 
 +3.473899E+02 -9.866160E+00 -5.704218E+00 -9.866160E+00 +3.575426E+02 -1.475089E+01 -5.704218E+00 -1.475089E+01 +9.777902E+02 
 +3.698141E+02 +1.885275E+00 -5.414794E+00 +1.885275E+00 +3.419500E+02 -1.045122E+01 -5.414794E+00 -1.045122E+01 +9.734645E+02 
 +3.803539E+02 +6.833529E+00 -1.112726E+00 +6.833529E+00 +3.509178E+02 -4.569212E+00 -1.112726E+00 -4.569212E+00 +9.658928E+02 
 +3.736210E+02 +7.731721E+00 -3.780650E+00 +7.731721E+00 +3.796407E+02 +1.865693E+00 -3.780650E+00 +1.865693E+00 +9.591955E+02 
 +3.604282E+02 +5.744738E+00 -3.651716E+00 +5.744738E+00 +3.909572E+02 +2.179293E+00 -3.651716E+00 +2.179293E+00 +9.576185E+02 
 +3.564243E+02 +5.549257E+00 -1.146794E+01 +5.549257E+00 +3.841181E+02 -7.784690E+00 -1.146794E+01 -7.784690E+00 +9.530954E+02 
 +3.609003E+02 +9.105262E+00 -7.906609E+00 +9.105262E+00 +3.699701E+02 -6.376778E+00 -7.906609E+00 -6.376778E+00 +9.611060E+02 
 +3.781177E+02 +3.153183E+01 +6.911720E+00 +3.153183E+01 +3.624814E+02 -3.668299E+00 +6.911720E+00 -3.668299E+00 +9.804609E+02 
 +3.742510E+02 +2.015250E+01 +5.611967E+00 +2.015250E+01 +3.538693E+02 -7.525963E+00 +5.611967E+00 -7.525963E+00 +9.820545E+02 
 +3.695389E+02 +1.677681E+01 +7.663074E+00 +1.677681E+01 +3.468444E+02 -9.114136E+00 +7.663074E+00 -9.114136E+00 +9.845609E+02 
 +3.593103E+02 +1.472161E+01 +1.078318E+01 +1.472161E+01 +3.390833E+02 -8.242824E+00 +1.078318E+01 -8.242824E+00 +9.854667E+02 
 +3.573445E+02 +1.447005E+01 +1.143003E+01 +1.447005E+01 +3.328961E+02 -4.731879E+00 +1.143003E+01 -4.731879E+00 +9.866269E+02 
 +3.530961E+02 +1.626071E+01 +8.285720E+00 +1.626071E+01 +3.206816E+02 -3.547265E-01 +8.285720E+00 -3.547265E-01 +9.775340E+02 
 +3.649011E+02 +1.529189E-02 +6.012141E-01 +1.529189E-02 +3.198017E+02 +6.124727E+00 +6.012141E-01 +6.124727E+00 +9.731603E+02 
 +3.861793E+02 -4.050676E+00 +3.174315E+00 -4.050676E+00 +3.440772E+02 +1.062731E+01 +3.174315E+00 +1.062731E+01 +9.883530E+02 
 +3.553122E+02 -1.281940E+01 +2.558555E+00 -1.281940E+01 +3.479710E+02 +1.062030E+01 +2.558555E+00 +1.062030E+01 +9.844756E+02 
 +3.504985E+02 -1.043611E+01 +4.986359E+00 -1.043611E+01 +3.520701E+02 +4.723197E+00 +4.986359E+00 +4.723197E+00 +9.820062E+02 
 +3.499418E+02 -4.887027E+00 +3.104172E+00 -4.887027E+00 +3.486136E+02 -9.493279E+00 +3.104172E+00 -9.493279E+00 +9.790779E+02 
 +3.472267E+02 -2.868912E+00 -4.869416E+00 -2.868912E+00 +3.542235E+02 -2.724718E+01 -4.869416E+00 -2.724718E+01 +9.822958E+02 
 +3.156117E+02 -1.190199E+01 -7.069997E+00 -1.190199E+01 +3.270769E+02 -3.495290E+01 -7.069997E+00 -3.495290E+01 +9.699305E+02 
 +3.308273E+02 -7.531678E+00 -2.509730E+00 -7.531678E+00 +3.042152E+02 -2.665681E+01 -2.509730E+00 -2.665681E+01 +9.664368E+02 
 +3.490312E+02 +2.841989E+00 +8.900991E-01 +2.841989E+00 +3.055994E+02 -1.610763E+01 +8.900991E-01 -1.610763E+01 +9.654824E+02 
 +3.712679E+02 +3.539787E+00 -4.779761E+00 +3.539787E+00 +3.256547E+02 -9.900500E+00 -4.779761E+00 -9.900500E+00 +9.669378E+02 
 +3.939944E+02 +9.269284E+00 -4.420424E+00 +9.269284E+00 +3.590493E+02 -3.773449E+00 -4.420424E+00 -3.773449E+00 +9.664783E+02 
 +3.742536E+02 +1.241302E+01 -7.060469E+00 +1.241302E+01 +3.842888E+02 +1.534471E+00 -7.060469E+00 +1.534471E+00 +9.562558E+02 
 +3.678765E+02 +6.891365E+00 -8.538756E+00 +6.891365E+00 +3.997441E+02 +5.079265E+00 -8.538756E+00 +5.079265E+00 +9.624473E+02 
 +3.570750E+02 +1.750711E+00 -1.329587E+01 +1.750711E+00 +3.879758E+02 -2.182436E+00 -1.329587E+01 -2.182436E+00 +9.591036E+02 
 +3.615647E+02 +1.420583E+00 -1.106522E+01 +1.420583E+00 +3.764148E+02 -1.371653E-01 -1.106522E+01 -1.371653E-01 +9.665748E+02 
 +3.794925E+02 +2.734525E+01 +5.338705E+00 +2.734525E+01 +3.696301E+02 +2.077195E+00 +5.338705E+00 +2.077195E+00 +9.833948E+02 
 +3.771721E+02 +2.110974E+01 +3.698671E+00 +2.110974E+01 +3.566687E+02 -1.902691E+00 +3.698671E+00 -1.902691E+00 +9.827606E+02 
 +3.650119E+02 +2.022138E+01 +4.571297E+00 +2.022138E+01 +3.469944E+02 -5.509516E+00 +4.571297E+00 -5.509516E+00 +9.815823E+02 
 +3.595750E+02 +1.774602E+01 +6.154879E+00 +1.774602E+01 +3.448076E+02 -7.832190E+00 +6.154879E+00 -7.832190E+00 +9.845325E+02 
 +3.446484E+02 +1.471549E+01 +8.312216E+00 +1.471549E+01 +3.295516E+02 -5.428456E+00 +8.312216E+00 -5.428456E+00 +9.800867E+02 
 +3.453512E+02 +1.480260E+01 +8.523660E+00 +1.480260E+01 +3.168818E+02 -2.675063E-01 +8.523660E+00 -2.675063E-01 +9.742928E+02 
 +3.539746E+02 +3.167800E+00 +7.392277E-01 +3.167800E+00 +3.137474E+02 +7.695116E+00 +7.392277E-01 +7.695116E+00 +9.726147E+02 
 +3.382751E+02 +9.824375E+00 +1.327153E+00 +9.824375E+00 +3.016026E+02 +1.216615E+01 +1.327153E+00 +1.216615E+01 +9.679017E+02 
 +3.232530E+02 +1.258100E+01 +1.380380E+00 +1.258100E+01 +2.910485E+02 +8.258383E+00 +1.380380E+00 +8.258383E+00 +9.630506E+02 
 +3.399618E+02 +1.574448E+01 +3.174706E+00 +1.574448E+01 +3.047601E+02 +5.735027E+00 +3.174706E+00 +5.735027E+00 +9.707495E+02 
 +3.272643E+02 +1.135907E+01 +3.758231E+00 +1.135907E+01 +3.054592E+02 -1.007139E+00 +3.758231E+00 -1.007139E+00 +9.732699E+02 
 +3.179068E+02 +1.185381E+01 +2.230891E+00 +1.185381E+01 +2.894336E+02 -1.457887E+01 +2.230891E+00 -1.457887E+01 +9.780342E+02 
 +3.052410E+02 +2.991216E+00 +5.273463E+00 +2.991216E+00 +2.710854E+02 -3.066822E+01 +5.273463E+00 -3.066822E+01 +9.757500E+02 
 +3.319224E+02 +2.968769E+00 +3.050321E+00 +2.968769E+00 +2.949225E+02 -3.106567E+01 +3.050321E+00 -3.106567E+01 +9.797464E+02 
 +3.594066E+02 +3.011263E+00 -3.474314E+00 +3.011263E+00 +3.225077E+02 -1.763396E+01 -3.474314E+00 -1.763396E+01 +9.738105E+02 
 +3.688484E+02 -2.411548E+00 -9.083268E+00 -2.411548E+00 +3.360010E+02 -7.019346E+00 -9.083268E+00 -7.019346E+00 +9.647818E+02 
 +3.679482E+02 +7.312203E+00 -5.636915E+00 +7.312203E+00 +3.374208E+02 -2.042017E+00 -5.636915E+00 -2.042017E+00 +9.579174E+02 
 +3.869090E+02 +1.071585E+01 -4.154921E+00 +1.071585E+01 +3.566644E+02 -6.212845E-01 -4.154921E+00 -6.212845E-01 +9.668775E+02 
 +3.779450E+02 +7.202715E+00 -1.130695E+01 +7.202715E+00 +3.777961E+02 +4.489168E+00 -1.130695E+01 +4.489168E+00 +9.777771E+02 
 +3.666002E+02 +4.384083E+00 -1.666811E+01 +4.384083E+00 +3.920628E+02 +5.508549E+00 -1.666811E+01 +5.508549E+00 +9.840211E+02 
 +3.619073E+02 -8.822049E-01 -1.528782E+01 -8.822049E-01 +3.833402E+02 +7.046428E+00 -1.528782E+01 +7.046428E+00 +9.819580E+02 
 +3.823084E+02 +2.356472E+01 +2.753231E+00 +2.356472E+01 +3.742228E+02 +7.037952E+00 +2.753231E+00 +7.037952E+00 +9.872961E+02 
 +3.621355E+02 +2.757773E+01 -1.951464E+00 +2.757773E+01 +3.475308E+02 +2.475600E+00 -1.951464E+00 +2.475600E+00 +9.734829E+02 
 +3.676571E+02 +2.233880E+01 +3.317401E-01 +2.233880E+01 +3.540572E+02 -2.338061E+00 +3.317401E-01 -2.338061E+00 +9.798515E+02 
 +3.563317E+02 +2.213546E+01 +8.389657E-01 +2.213546E+01 +3.422608E+02 -3.691720E+00 +8.389657E-01 -3.691720E+00 +9.758404E+02 
 +3.569254E+02 +2.376155E+01 -7.866031E-01 +2.376155E+01 +3.402584E+02 -5.230756E+00 -7.866031E-01 -5.230756E+00 +9.785059E+02 
 +3.211100E+02 +2.287233E+01 -3.315172E+00 +2.287233E+01 +2.991558E+02 -2.195507E+00 -3.315172E+00 -2.195507E+00 +9.640743E+02 
 +3.045388E+02 +8.463926E+00 -3.118694E+00 +8.463926E+00 +2.729554E+02 +6.023591E+00 -3.118694E+00 +6.023591E+00 +9.588233E+02 
 +3.219000E+02 +7.015859E+00 +4.968463E+00 +7.015859E+00 +2.879224E+02 +1.150347E+01 +4.968463E+00 +1.150347E+01 +9.661384E+02 
 +3.403683E+02 +4.722822E+00 +6.423327E+00 +4.722822E+00 +2.975013E+02 +8.094424E+00 +6.423327E+00 +8.094424E+00 +9.722978E+02 
 +3.386064E+02 +9.285765E+00 +6.785424E+00 +9.285765E+00 +2.922357E+02 +5.194429E+00 +6.785424E+00 +5.194429E+00 +9.733245E+02 
 +3.369540E+02 +1.413408E+01 +9.409348E+00 +1.413408E+01 +2.858599E+02 +4.432730E+00 +9.409348E+00 +4.432730E+00 +9.782852E+02 
 +3.072800E+02 +1.495599E+01 +1.502050E+01 +1.495599E+01 +2.606209E+02 -4.146665E+00 +1.502050E+01 -4.146665E+00 +9.796914E+02 
 +2.895408E+02 +5.404925E+00 +2.337722E+01 +5.404925E+00 +2.593609E+02 -1.433254E+01 +2.337722E+01 -1.433254E+01 +9.834447E+02 
 +3.105795E+02 -3.289527E+00 +1.503716E+01 -3.289527E+00 +2.906555E+02 -1.881798E+01 +1.503716E+01 -1.881798E+01 +9.854621E+02 
 +3.500944E+02 +5.216159E-01 -1.000918E+00 +5.216159E-01 +3.223229E+02 -1.500683E+01 -1.000918E+00 -1.500683E+01 +9.779570E+02 
 +3.855107E+02 +6.243913E-01 -7.619458E+00 +6.243913E-01 +3.591411E+02 -5.376411E+00 -7.619458E+00 -5.376411E+00 +9.750716E+02 
 +3.693789E+02 +7.535034E+00 -2.680009E+00 +7.535034E+00 +3.628681E+02 -7.657587E-01 -2.680009E+00 -7.657587E-01 +9.691665E+02 
 +4.068066E+02 +5.492431E+00 +1.650246E+00 +5.492431E+00 +3.629677E+02 -6.555011E+00 +1.650246E+00 -6.555011E+00 +9.939760E+02 
 +4.040184E+02 +1.204996E+01 -5.796885E+00 +1.204996E+01 +3.635499E+02 -9.707026E+00 -5.796885E+00 -9.707026E+00 +1.001678E+03 
 +3.963180E+02 +7.375062E+00 -1.516115E+01 +7.375062E+00 +4.021393E+02 -2.127589E-01 -1.516115E+01 -2.127589E-01 +1.003648E+03 
 +3.969335E+02 +2.152372E+00 -1.643476E+01 +2.152372E+00 +4.229635E+02 +1.147207E+01 -1.643476E+01 +1.147207E+01 +1.003430E+03 
 +3.800485E+02 +2.197511E+01 -3.143814E+00 +2.197511E+01 +3.818336E+02 +1.233864E+01 -3.143814E+00 +1.233864E+01 +9.861198E+02 
 +3.828859E+02 +2.360102E+01 -9.590872E+00 +2.360102E+01 +3.664451E+02 +4.895813E+00 -9.590872E+00 +4.895813E+00 +9.765416E+02 
 +3.661401E+02 +2.703663E+01 -6.131179E+00 +2.703663E+01 +3.493911E+02 -2.466980E+00 -6.131179E+00 -2.466980E+00 +9.692577E+02 
 +3.671743E+02 +3.015007E+01 -1.342778E+00 +3.015007E+01 +3.509278E+02 +1.794820E-01 -1.342778E+00 +1.794820E-01 +9.716984E+02 
 +3.542122E+02 +2.411024E+01 -4.573548E+00 +2.411024E+01 +3.475215E+02 -5.603182E-01 -4.573548E+00 -5.603182E-01 +9.706538E+02 
 +3.022003E+02 +3.593694E+00 -9.347219E+00 +3.593694E+00 +3.324538E+02 -3.469644E+00 -9.347219E+00 -3.469644E+00 +9.631667E+02 
 +3.084971E+02 -6.644489E+00 -2.811403E+00 -6.644489E+00 +3.359411E+02 +1.963516E+00 -2.811403E+00 +1.963516E+00 +9.721948E+02 
 +3.412448E+02 +7.987407E-03 +7.868158E+00 +7.987407E-03 +3.194675E+02 +6.081993E+00 +7.868158E+00 +6.081993E+00 +9.714510E+02 
 +3.413679E+02 +6.986895E+00 +1.019246E+01 +6.986895E+00 +2.935890E+02 +6.824806E+00 +1.019246E+01 +6.824806E+00 +9.640490E+02 
 +3.373886E+02 +9.453108E+00 +1.099490E+01 +9.453108E+00 +2.805966E+02 +4.148976E+00 +1.099490E+01 +4.148976E+00 +9.650564E+02 
 +3.505246E+02 +7.030864E+00 +1.474518E+01 +7.030864E+00 +3.017710E+02 +3.626222E+00 +1.474518E+01 +3.626222E+00 +9.827526E+02 
 +3.234439E+02 -1.048824E+01 +2.214397E+01 -1.048824E+01 +3.334181E+02 +1.363018E+00 +2.214397E+01 +1.363018E+00 +9.974671E+02 
 +3.212741E+02 -1.945135E+01 +3.405438E+01 -1.945135E+01 +3.558561E+02 -2.348115E+00 +3.405438E+01 -2.348115E+00 +1.001643E+03 
 +3.248229E+02 -2.418206E+01 +2.801906E+01 -2.418206E+01 +3.400495E+02 -3.588597E+00 +2.801906E+01 -3.588597E+00 +9.844047E+02 
 +3.518962E+02 -1.628727E+01 +9.979886E+00 -1.628727E+01 +3.268283E+02 -6.944823E+00 +9.979886E+00 -6.944823E+00 +9.704734E+02 
 +3.892591E+02 -4.224480E+00 +4.151017E-01 -4.224480E+00 +3.480831E+02 -8.919299E+00 +4.151017E-01 -8.919299E+00 +9.689231E+02 
 +3.709593E+02 -2.253935E+00 -1.910760E+00 -2.253935E+00 +3.413278E+02 -9.686948E+00 -1.910760E+00 -9.686948E+00 +9.621550E+02 
 +3.692762E+02 -6.829582E+00 -4.022318E+00 -6.829582E+00 +3.382916E+02 -1.661490E+01 -4.022318E+00 -1.661490E+01 +9.744182E+02 
 +4.080549E+02 +6.473789E-01 -5.760896E+00 +6.473789E-01 +3.690512E+02 -2.035135E+01 -5.760896E+00 -2.035135E+01 +9.941091E+02 
 +4.025959E+02 -1.388499E+01 -1.131806E+01 -1.388499E+01 +3.695405E+02 -8.567176E+00 -1.131806E+01 -8.567176E+00 +9.788900E+02 
 +4.015860E+02 -2.625037E+01 -1.369490E+01 -2.625037E+01 +3.820750E+02 +6.930373E+00 -1.369490E+01 +6.930373E+00 +9.795920E+02 
 +3.990103E+02 -1.391439E+01 -9.898746E+00 -1.391439E+01 +3.878724E+02 +1.102119E+01 -9.898746E+00 +1.102119E+01 +9.857390E+02 
 +4.190094E+02 -1.059615E+01 -1.487825E+01 -1.059615E+01 +3.935936E+02 +7.632669E+00 -1.487825E+01 +7.632669E+00 +9.872234E+02 
 +3.950777E+02 +6.981405E-01 -8.924121E+00 +6.981405E-01 +3.660953E+02 -5.380463E+00 -8.924121E+00 -5.380463E+00 +9.747496E+02 
 +3.792159E+02 +1.033822E+01 +2.811340E+00 +1.033822E+01 +3.809513E+02 -5.036913E+00 +2.811340E+00 -5.036913E+00 +9.726501E+02 
 +3.270679E+02 -9.154725E+00 +2.427471E+00 -9.154725E+00 +3.742779E+02 +3.755660E-01 +2.427471E+00 +3.755660E-01 +9.668752E+02 
 +3.094419E+02 -1.468583E+01 -3.842385E+00 -1.468583E+01 +3.620962E+02 -4.988140E+00 -3.842385E+00 -4.988140E+00 +9.660527E+02 
 +3.263107E+02 -1.372253E+01 -2.349743E+00 -1.372253E+01 +3.700225E+02 -3.204389E+00 -2.349743E+00 -3.204389E+00 +9.687940E+02 
 +3.667293E+02 -1.852662E+01 -1.969915E-01 -1.852662E+01 +3.886113E+02 +9.993660E-01 -1.969915E-01 +9.993660E-01 +9.788024E+02 
 +3.766342E+02 -1.996084E+01 +2.583265E+00 -1.996084E+01 +3.820648E+02 +4.862129E+00 +2.583265E+00 +4.862129E+00 +9.794026E+02 
 +3.802104E+02 -2.488408E+01 +7.519887E+00 -2.488408E+01 +3.861790E+02 +8.470094E+00 +7.519887E+00 +8.470094E+00 +9.858234E+02 
 +3.640029E+02 -2.337552E+01 +1.317120E+01 -2.337552E+01 +3.798377E+02 +1.050588E+01 +1.317120E+01 +1.050588E+01 +9.864528E+02 
 +3.340314E+02 -2.104834E+01 +1.957668E+01 -2.104834E+01 +3.576107E+02 +8.990984E+00 +1.957668E+01 +8.990984E+00 +9.805321E+02 
 +3.425024E+02 -1.654255E+01 +2.677113E+01 -1.654255E+01 +3.642242E+02 +2.250987E+00 +2.677113E+01 +2.250987E+00 +9.847940E+02 
 +3.514487E+02 -1.582896E+01 +2.354426E+01 -1.582896E+01 +3.792878E+02 +2.427642E-01 +2.354426E+01 +2.427642E-01 +9.849002E+02 
 +3.567072E+02 -1.703542E+01 +1.625688E+01 -1.703542E+01 +3.710943E+02 -2.364386E+00 +1.625688E+01 -2.364386E+00 +9.663182E+02 
 +4.004795E+02 -4.600627E+00 +7.652538E+00 -4.600627E+00 +3.629754E+02 -6.847282E+00 +7.652538E+00 -6.847282E+00 +9.515935E+02 
 +4.412748E+02 +2.481893E+00 +3.462896E+00 +2.481893E+00 +4.035716E+02 -6.098793E+00 +3.462896E+00 -6.098793E+00 +9.734115E+02 
 +4.064311E+02 +1.032017E+01 -7.040051E-01 +1.032017E+01 +4.256502E+02 -8.956705E+00 -7.040051E-01 -8.956705E+00 +9.829268E+02 
 +3.850352E+02 +1.350621E+01 -6.204709E+00 +1.350621E+01 +4.050553E+02 -9.969597E+00 -6.204709E+00 -9.969597E+00 +9.704390E+02 
 +4.210013E+02 -1.013766E+01 -1.255206E+01 -1.013766E+01 +3.918234E+02 +3.591771E+00 -1.255206E+01 +3.591771E+00 +9.699974E+02 
 +4.175066E+02 -2.137208E+01 -1.299988E+01 -2.137208E+01 +3.789455E+02 +1.221182E+01 -1.299988E+01 +1.221182E+01 +9.707809E+02 
 +4.210926E+02 -2.090193E+01 -1.270384E+01 -2.090193E+01 +3.974793E+02 +1.084514E+01 -1.270384E+01 +1.084514E+01 +9.835760E+02 
 +4.154102E+02 -1.321950E+01 -1.830615E+01 -1.321950E+01 +3.960450E+02 +1.188609E+01 -1.830615E+01 +1.188609E+01 +9.872592E+02 
 +4.224242E+02 -8.482971E+00 -7.842707E+00 -8.482971E+00 +4.092376E+02 -7.206123E+00 -7.842707E+00 -7.206123E+00 +9.974143E+02 
 +3.842262E+02 -7.792855E-01 +8.509474E+00 -7.792855E-01 +3.897637E+02 -1.606831E+01 +8.509474E+00 -1.606831E+01 +9.766494E+02 
 +3.168871E+02 -2.478893E+00 +6.750944E+00 -2.478893E+00 +3.633327E+02 -3.317005E+00 +6.750944E+00 -3.317005E+00 +9.573363E+02 
 +3.303986E+02 -7.653510E+00 -1.572291E+00 -7.653510E+00 +3.833736E+02 -4.168436E+00 -1.572291E+00 -4.168436E+00 +9.644775E+02 
 +3.342046E+02 -1.449628E+01 -2.381508E+00 -1.449628E+01 +3.839500E+02 -7.042720E+00 -2.381508E+00 -7.042720E+00 +9.583091E+02 
 +3.453605E+02 -1.879110E+01 -3.052431E+00 -1.879110E+01 +3.914179E+02 -6.443454E+00 -3.052431E+00 -6.443454E+00 +9.618322E+02 
 +3.543986E+02 -1.664865E+01 -2.187769E+00 -1.664865E+01 +3.936337E+02 -5.199528E+00 -2.187769E+00 -5.199528E+00 +9.648352E+02 
 +3.592347E+02 -1.265298E+01 +2.933095E-01 -1.265298E+01 +3.922893E+02 +2.559100E+00 +2.933095E-01 +2.559100E+00 +9.666148E+02 
 +3.426341E+02 -1.666923E+01 +6.994655E+00 -1.666923E+01 +3.697711E+02 +8.794491E+00 +6.994655E+00 +8.794491E+00 +9.539998E+02 
 +3.666912E+02 -1.038818E+01 +1.188758E+01 -1.038818E+01 +3.741155E+02 +8.060818E+00 +1.188758E+01 +8.060818E+00 +9.623691E+02 
 +3.726840E+02 -1.550606E+01 +1.548946E+01 -1.550606E+01 +3.838145E+02 +6.438739E+00 +1.548946E+01 +6.438739E+00 +9.706561E+02 
 +3.674918E+02 -1.692537E+01 +1.329496E+01 -1.692537E+01 +3.856598E+02 +4.723751E+00 +1.329496E+01 +4.723751E+00 +9.700624E+02 
 +3.619816E+02 -1.447177E+01 +1.003208E+01 -1.447177E+01 +3.847337E+02 -4.187040E+00 +1.003208E+01 -4.187040E+00 +9.486234E+02 
 +4.111146E+02 +6.386431E+00 -2.814252E-02 +6.386431E+00 +4.044267E+02 -9.600804E+00 -2.814252E-02 -9.600804E+00 +9.393579E+02 
 +4.284531E+02 +4.783797E+00 +3.401823E+00 +4.783797E+00 +3.886620E+02 -1.046980E+00 +3.401823E+00 -1.046980E+00 +9.414053E+02 
 +4.175255E+02 +7.862784E+00 +5.446658E+00 +7.862784E+00 +3.909859E+02 -9.029844E-01 +5.446658E+00 -9.029844E-01 +9.567190E+02 
 +3.628388E+02 +1.092718E+01 +6.630480E-02 +1.092718E+01 +3.846798E+02 +6.270915E-01 +6.630480E-02 +6.270915E-01 +9.493233E+02 
 +3.978946E+02 -5.176597E+00 -1.070860E+01 -5.176597E+00 +3.867888E+02 +1.379704E+01 -1.070860E+01 +1.379704E+01 +9.572902E+02 
 +4.167197E+02 -1.610796E+01 -1.266526E+01 -1.610796E+01 +3.842503E+02 +1.750989E+01 -1.266526E+01 +1.750989E+01 +9.643450E+02 
 +4.109477E+02 -1.519181E+01 -1.300276E+01 -1.519181E+01 +3.861194E+02 +1.340810E+01 -1.300276E+01 +1.340810E+01 +9.706762E+02 
 +4.098032E+02 -1.185253E+01 -1.843858E+01 -1.185253E+01 +3.913500E+02 +1.230595E+01 -1.843858E+01 +1.230595E+01 +9.847749E+02 
 +4.103923E+02 +2.574358E+00 -9.142413E+00 +2.574358E+00 +4.020014E+02 -7.239657E+00 -9.142413E+00 -7.239657E+00 +9.948443E+02 
 +3.822683E+02 +1.056145E+01 +5.724618E+00 +1.056145E+01 +3.922010E+02 -1.921745E+01 +5.724618E+00 -1.921745E+01 +9.770142E+02 
 +3.441766E+02 -3.479407E-01 +4.203428E+00 -3.479407E-01 +3.851952E+02 -7.962066E+00 +4.203428E+00 -7.962066E+00 +9.599154E+02 
 +3.327964E+02 -1.305460E+01 +1.502241E-01 -1.305460E+01 +3.902787E+02 -4.085006E+00 +1.502241E-01 -4.085006E+00 +9.525059E+02 
 +3.403697E+02 -1.622917E+01 +3.518689E+00 -1.622917E+01 +3.952128E+02 -5.727683E+00 +3.518689E+00 -5.727683E+00 +9.521693E+02 
 +3.352093E+02 -1.817281E+01 +2.204223E+00 -1.817281E+01 +3.904498E+02 -6.570287E+00 +2.204223E+00 -6.570287E+00 +9.525645E+02 
 +3.319450E+02 -1.748921E+01 +1.193518E+00 -1.748921E+01 +3.879932E+02 -6.722344E+00 +1.193518E+00 -6.722344E+00 +9.500902E+02 
 +3.300955E+02 -1.358770E+01 +1.655472E+00 -1.358770E+01 +3.754326E+02 +1.826910E+00 +1.655472E+00 +1.826910E+00 +9.405445E+02 
 +3.515981E+02 -1.385917E+01 -1.391593E+00 -1.385917E+01 +3.763856E+02 +8.148236E+00 -1.391593E+00 +8.148236E+00 +9.378810E+02 
 +3.957710E+02 +3.050130E+00 -1.228474E+00 +3.050130E+00 +3.933774E+02 +1.843504E+00 -1.228474E+00 +1.843504E+00 +9.473336E+02 
 +3.924563E+02 +9.326774E+00 +4.901635E+00 +9.326774E+00 +3.925266E+02 -3.162932E+00 +4.901635E+00 -3.162932E+00 +9.466087E+02 
 +3.779908E+02 +6.890548E+00 +5.287325E+00 +6.890548E+00 +3.896746E+02 -8.717257E+00 +5.287325E+00 -8.717257E+00 +9.477700E+02 
 +3.711807E+02 +2.381485E+00 +2.050365E+00 +2.381485E+00 +3.855675E+02 -1.377360E+01 +2.050365E+00 -1.377360E+01 +9.418344E+02 
 +3.793333E+02 +5.025832E+00 -4.598742E+00 +5.025832E+00 +3.899765E+02 -7.318013E+00 -4.598742E+00 -7.318013E+00 +9.372653E+02 
 +4.029137E+02 -6.181670E-01 -3.744234E+00 -6.181670E-01 +3.942189E+02 +3.310544E+00 -3.744234E+00 +3.310544E+00 +9.417979E+02 
 +4.208877E+02 +8.636420E+00 -4.834706E+00 +8.636420E+00 +3.856646E+02 -7.389143E-01 -4.834706E+00 -7.389143E-01 +9.483623E+02 
 +3.834905E+02 -3.424248E+00 -1.829141E+00 -3.424248E+00 +3.536860E+02 +2.449489E+00 -1.829141E+00 +2.449489E+00 +9.454825E+02 
 +3.713466E+02 -1.315358E+01 -5.591873E+00 -1.315358E+01 +3.588735E+02 +1.959799E+01 -5.591873E+00 +1.959799E+01 +9.488618E+02 
 +3.986554E+02 -1.635319E+01 -8.328534E+00 -1.635319E+01 +3.791354E+02 +2.064366E+01 -8.328534E+00 +2.064366E+01 +9.620926E+02 
 +3.999707E+02 -1.503262E+01 -1.123422E+01 -1.503262E+01 +3.751118E+02 +1.419587E+01 -1.123422E+01 +1.419587E+01 +9.666620E+02 
 +3.969395E+02 -1.312343E+01 -1.490217E+01 -1.312343E+01 +3.743608E+02 +9.612441E+00 -1.490217E+01 +9.612441E+00 +9.759614E+02 
 +4.154888E+02 +1.300641E+00 -3.301403E+00 +1.300641E+00 +4.053273E+02 -1.083306E+01 -3.301403E+00 -1.083306E+01 +9.808647E+02 
 +3.824167E+02 +9.228867E+00 +9.157166E+00 +9.228867E+00 +4.245935E+02 -2.071659E+01 +9.157166E+00 -2.071659E+01 +9.648771E+02 
 +3.598842E+02 -4.662763E+00 +3.848395E+00 -4.662763E+00 +4.144140E+02 -9.504148E+00 +3.848395E+00 -9.504148E+00 +9.619678E+02 
 +3.435870E+02 -1.456180E+01 +2.698750E+00 -1.456180E+01 +3.897142E+02 -5.993380E+00 +2.698750E+00 -5.993380E+00 +9.529428E+02 
 +3.500316E+02 -1.885978E+01 +9.115062E+00 -1.885978E+01 +3.920262E+02 -6.879577E+00 +9.115062E+00 -6.879577E+00 +9.526553E+02 
 +3.296401E+02 -1.467045E+01 +6.099519E+00 -1.467045E+01 +3.855024E+02 -4.201604E+00 +6.099519E+00 -4.201604E+00 +9.473159E+02 
 +3.233476E+02 -1.075455E+01 +5.367005E+00 -1.075455E+01 +3.868394E+02 -1.119629E+00 +5.367005E+00 -1.119629E+00 +9.453063E+02 
 +3.173102E+02 -9.549692E+00 +4.706149E+00 -9.549692E+00 +3.694276E+02 +2.827281E+00 +4.706149E+00 +2.827281E+00 +9.295334E+02 
 +3.888153E+02 +2.764981E+00 -4.998983E+00 +2.764981E+00 +3.956629E+02 -1.705687E+00 -4.998983E+00 -1.705687E+00 +9.381707E+02 
 +4.134333E+02 +9.704596E+00 +4.447403E-01 +9.704596E+00 +4.020549E+02 -4.173043E+00 +4.447403E-01 -4.173043E+00 +9.412743E+02 
 +4.163469E+02 +1.455333E+01 +1.684941E+00 +1.455333E+01 +4.047928E+02 +1.327932E+00 +1.684941E+00 +1.327932E+00 +9.563229E+02 
 +3.747427E+02 -5.187448E+00 +6.224771E+00 -5.187448E+00 +3.883012E+02 +5.612517E+00 +6.224771E+00 +5.612517E+00 +9.585750E+02 
 +3.633593E+02 -8.597306E+00 +4.468697E+00 -8.597306E+00 +3.863855E+02 +5.123485E+00 +4.468697E+00 +5.123485E+00 +9.679684E+02 
 +3.429058E+02 -1.164862E+01 +1.770555E-01 -1.164862E+01 +3.593646E+02 +1.930993E+00 +1.770555E-01 +1.930993E+00 +9.527003E+02 
 +3.913359E+02 -1.778942E+00 -4.013035E+00 -1.778942E+00 +3.709285E+02 -6.545885E-01 -4.013035E+00 -6.545885E-01 +9.525862E+02 
 +4.077837E+02 +7.733027E+00 -3.351709E+00 +7.733027E+00 +3.795919E+02 -6.330832E+00 -3.351709E+00 -6.330832E+00 +9.540884E+02 
 +4.031080E+02 -2.847766E+00 -2.504043E+00 -2.847766E+00 +3.671665E+02 -4.010799E-01 -2.504043E+00 -4.010799E-01 +9.581909E+02 
 +3.755492E+02 -1.618052E+01 -4.572165E+00 -1.618052E+01 +3.512277E+02 +1.593400E+01 -4.572165E+00 +1.593400E+01 +9.517809E+02 
 +3.804198E+02 -2.435093E+01 -2.598687E+00 -2.435093E+01 +3.599401E+02 +1.778459E+01 -2.598687E+00 +1.778459E+01 +9.589026E+02 
 +3.898242E+02 -1.789412E+01 -6.138729E+00 -1.789412E+01 +3.699492E+02 +1.284402E+01 -6.138729E+00 +1.284402E+01 +9.678374E+02 
 +3.808650E+02 -1.606020E+01 -3.263618E+00 -1.606020E+01 +3.671740E+02 +7.159755E+00 -3.263618E+00 +7.159755E+00 +9.690845E+02 
 +4.089888E+02 +9.443504E-01 +9.553102E+00 +9.443504E-01 +4.102530E+02 -1.040555E+01 +9.553102E+00 -1.040555E+01 +9.697051E+02 
 +4.073249E+02 +1.562231E+01 +1.153123E+01 +1.562231E+01 +4.343674E+02 -2.140630E+01 +1.153123E+01 -2.140630E+01 +9.694959E+02 
 +3.467846E+02 -1.759750E+01 -2.122458E+00 -1.759750E+01 +4.058722E+02 -1.698111E+01 -2.122458E+00 -1.698111E+01 +9.587291E+02 
 +3.437529E+02 -2.649164E+01 +3.911122E-01 -2.649164E+01 +3.800509E+02 -1.503380E+01 +3.911122E-01 -1.503380E+01 +9.544355E+02 
 +3.439987E+02 -3.238299E+01 +6.670267E+00 -3.238299E+01 +3.670657E+02 -1.086583E+01 +6.670267E+00 -1.086583E+01 +9.475221E+02 
 +3.349398E+02 -2.290203E+01 +5.036054E+00 -2.290203E+01 +3.658921E+02 -5.498763E+00 +5.036054E+00 -5.498763E+00 +9.433047E+02 
 +3.148484E+02 -1.628006E+01 +7.371046E+00 -1.628006E+01 +3.670488E+02 +1.600624E-01 +7.371046E+00 +1.600624E-01 +9.384268E+02 
 +3.396393E+02 -1.311217E+01 +4.760816E+00 -1.311217E+01 +3.906475E+02 +8.566707E+00 +4.760816E+00 +8.566707E+00 +9.321903E+02 
 +4.173648E+02 -3.956887E+00 -2.574457E-01 -3.956887E+00 +4.285784E+02 +1.238956E+01 -2.574457E-01 +1.238956E+01 +9.292419E+02 
 +4.198096E+02 -4.680346E+00 +7.589323E+00 -4.680346E+00 +4.149840E+02 +4.282054E+00 +7.589323E+00 +4.282054E+00 +9.231266E+02 
 +4.186465E+02 +7.097767E+00 +4.831348E+00 +7.097767E+00 +4.055465E+02 +9.057123E-01 +4.831348E+00 +9.057123E-01 +9.549988E+02 
 +3.668545E+02 -6.601371E+00 +1.167222E+01 -6.601371E+00 +3.783557E+02 +7.979194E+00 +1.167222E+01 +7.979194E+00 +9.713329E+02 
 +3.628634E+02 -7.179249E-01 +5.154552E+00 -7.179249E-01 +3.820628E+02 +7.984566E+00 +5.154552E+00 +7.984566E+00 +9.873249E+02 
 +3.537215E+02 -2.954892E+00 -2.690946E+00 -2.954892E+00 +3.789033E+02 -2.348371E+00 -2.690946E+00 -2.348371E+00 +9.703336E+02 
 +4.007484E+02 +1.069903E+01 -5.686437E+00 +1.069903E+01 +3.981925E+02 -1.034074E+01 -5.686437E+00 -1.034074E+01 +9.625930E+02 
 +3.987285E+02 +5.966751E+00 +3.819072E+00 +5.966751E+00 +3.767181E+02 -6.468476E+00 +3.819072E+00 -6.468476E+00 +9.564156E+02 
 +3.951698E+02 -4.696323E-01 +3.186264E+00 -4.696323E-01 +3.664249E+02 -3.588374E-01 +3.186264E+00 -3.588374E-01 +9.630377E+02 
 +3.813375E+02 -1.217296E+01 -9.103730E-01 -1.217296E+01 +3.606058E+02 +6.647294E+00 -9.103730E-01 +6.647294E+00 +9.619957E+02 
 +3.741631E+02 -2.226137E+01 +2.992179E+00 -2.226137E+01 +3.605626E+02 +9.069531E+00 +2.992179E+00 +9.069531E+00 +9.650242E+02 
 +3.649485E+02 -2.600568E+01 +3.113256E+00 -2.600568E+01 +3.477405E+02 +9.020268E+00 +3.113256E+00 +9.020268E+00 +9.627295E+02 
 +3.660601E+02 +1.631632E+01 +1.567870E+00 +1.631632E+01 +3.643678E+02 +2.978670E+00 +1.567870E+00 +2.978670E+00 +9.683187E+02 
 +3.829710E+02 +1.754389E+01 +5.374853E+00 +1.754389E+01 +3.856411E+02 -9.858205E+00 +5.374853E+00 -9.858205E+00 +9.773001E+02 
 +3.841445E+02 +2.340120E+01 -2.223279E+00 +2.340120E+01 +3.842414E+02 -1.609710E+01 -2.223279E+00 -1.609710E+01 +9.806709E+02 
 +3.432172E+02 -1.962909E+01 -1.087215E+01 -1.962909E+01 +3.836241E+02 -1.982776E+01 -1.087215E+01 -1.982776E+01 +9.672379E+02 
 +3.493267E+02 -2.987737E+01 -7.414216E+00 -2.987737E+01 +3.852747E+02 -1.751206E+01 -7.414216E+00 -1.751206E+01 +9.635617E+02 
 +3.434635E+02 -2.645544E+01 -4.912382E-01 -2.645544E+01 +3.630933E+02 -7.204569E+00 -4.912382E-01 -7.204569E+00 +9.518810E+02 
 +3.225330E+02 -2.497858E+01 -1.506676E+00 -2.497858E+01 +3.451780E+02 -4.868282E+00 -1.506676E+00 -4.868282E+00 +9.385147E+02 
 +3.201801E+02 -1.703346E+01 +4.404706E+00 -1.703346E+01 +3.565154E+02 -1.029184E+01 +4.404706E+00 -1.029184E+01 +9.307773E+02 
 +3.938210E+02 -9.994887E+00 +4.271846E+00 -9.994887E+00 +4.252784E+02 -6.743529E+00 +4.271846E+00 -6.743529E+00 +9.413598E+02 
 +4.234208E+02 -5.564480E+00 +1.537693E+00 -5.564480E+00 +4.404014E+02 +1.686195E+00 +1.537693E+00 +1.686195E+00 +9.300278E+02 
 +4.185867E+02 -7.407475E+00 +8.281911E+00 -7.407475E+00 +4.260824E+02 +3.841636E+00 +8.281911E+00 +3.841636E+00 +9.172886E+02 
 +4.172234E+02 -7.553760E+00 +6.718410E+00 -7.553760E+00 +4.109465E+02 +9.613648E+00 +6.718410E+00 +9.613648E+00 +9.352384E+02 
 +3.763071E+02 -1.301126E+01 +9.609960E+00 -1.301126E+01 +3.800004E+02 +1.230247E+01 +9.609960E+00 +1.230247E+01 +9.632950E+02 
 +3.701506E+02 -6.563940E+00 +1.233990E+00 -6.563940E+00 +3.802249E+02 +8.150429E+00 +1.233990E+00 +8.150429E+00 +9.808908E+02 
 +3.732299E+02 -1.628264E+00 -9.926305E+00 -1.628264E+00 +3.852756E+02 -2.126363E+00 -9.926305E+00 -2.126363E+00 +9.687842E+02 
 +4.079965E+02 +1.720662E+01 -1.687216E+01 +1.720662E+01 +4.121644E+02 -1.281626E+01 -1.687216E+01 -1.281626E+01 +9.631810E+02 
 +3.958498E+02 +1.307061E+01 -3.189080E+00 +1.307061E+01 +4.006139E+02 -9.593593E+00 -3.189080E+00 -9.593593E+00 +9.587421E+02 
 +3.850331E+02 +8.483384E+00 +6.943343E+00 +8.483384E+00 +3.767777E+02 -2.346359E+00 +6.943343E+00 -2.346359E+00 +9.647478E+02 
 +3.734574E+02 -6.257247E+00 +4.893108E+00 -6.257247E+00 +3.628857E+02 +1.205403E-01 +4.893108E+00 +1.205403E-01 +9.638266E+02 
 +3.708113E+02 -1.355664E+01 +9.800973E+00 -1.355664E+01 +3.655587E+02 +2.926714E+00 +9.800973E+00 +2.926714E+00 +9.674964E+02 
 +3.575972E+02 -1.977772E+01 +9.117109E+00 -1.977772E+01 +3.511665E+02 +5.299737E+00 +9.117109E+00 +5.299737E+00 +9.635154E+02 
 +3.614859E+02 +2.988272E+01 +6.345663E+00 +2.988272E+01 +3.708865E+02 -9.627581E-01 +6.345663E+00 -9.627581E-01 +9.785363E+02 
 +3.583881E+02 +2.259955E+01 -4.965582E-02 +2.259955E+01 +3.829728E+02 -1.423607E+01 -4.965582E-02 -1.423607E+01 +9.939846E+02 
 +3.495752E+02 +2.690159E+01 -1.247336E+01 +2.690159E+01 +3.582963E+02 -1.336816E+01 -1.247336E+01 -1.336816E+01 +9.892991E+02 
 +3.551768E+02 +5.422995E+00 -1.637666E+01 +5.422995E+00 +3.547732E+02 -1.375818E+01 -1.637666E+01 -1.375818E+01 +9.782716E+02 
 +3.412069E+02 -2.661817E+01 -7.199963E+00 -2.661817E+01 +3.671772E+02 -1.686321E+01 -7.199963E+00 -1.686321E+01 +9.679828E+02 
 +3.232846E+02 -2.563315E+01 -2.586672E+00 -2.563315E+01 +3.467607E+02 -6.664857E+00 -2.586672E+00 -6.664857E+00 +9.513950E+02 
 +3.260331E+02 -1.496347E+01 -3.416580E+00 -1.496347E+01 +3.449681E+02 -2.691762E+00 -3.416580E+00 -2.691762E+00 +9.423907E+02 
 +3.627241E+02 +1.372224E+01 +1.614780E+00 +1.372224E+01 +3.649038E+02 -6.438205E+00 +1.614780E+00 -6.438205E+00 +9.441220E+02 
 +3.774458E+02 +1.656958E+01 +4.620093E+00 +1.656958E+01 +3.781661E+02 -6.540782E+00 +4.620093E+00 -6.540782E+00 +9.366571E+02 
 +4.237700E+02 -9.914090E-01 -1.732157E+00 -9.914090E-01 +4.360517E+02 -2.384519E+00 -1.732157E+00 -2.384519E+00 +9.577245E+02 
 +4.256515E+02 -8.954769E+00 +5.895877E+00 -8.954769E+00 +4.419646E+02 +1.259649E+00 +5.895877E+00 +1.259649E+00 +9.490814E+02 
 +4.083238E+02 -8.803577E+00 +7.019568E+00 -8.803577E+00 +4.135172E+02 +5.643256E+00 +7.019568E+00 +5.643256E+00 +9.283362E+02 
 +3.971209E+02 -9.170044E+00 +2.997192E+00 -9.170044E+00 +3.970302E+02 +6.828903E+00 +2.997192E+00 +6.828903E+00 +9.377184E+02 
 +3.834273E+02 +3.265568E+00 -4.028353E+00 +3.265568E+00 +3.840707E+02 +5.393566E-01 -4.028353E+00 +5.393566E-01 +9.517783E+02 
 +3.985766E+02 +1.391379E+01 -7.783606E+00 +1.391379E+01 +4.061011E+02 -1.026753E+01 -7.783606E+00 -1.026753E+01 +9.656299E+02 
 +3.982335E+02 +1.276621E+01 -1.484181E+01 +1.276621E+01 +4.110488E+02 -6.921578E+00 -1.484181E+01 -6.921578E+00 +9.622788E+02 
 +3.748471E+02 -7.102087E+00 -5.432483E+00 -7.102087E+00 +3.793683E+02 +6.755158E+00 -5.432483E+00 +6.755158E+00 +9.549920E+02 
 +3.622225E+02 -2.306398E+00 +5.349064E+00 -2.306398E+00 +3.627174E+02 +3.170489E-01 +5.349064E+00 +3.170489E-01 +9.545839E+02 
 +3.722829E+02 -6.432786E+00 +5.194877E+00 -6.432786E+00 +3.643675E+02 -5.359926E+00 +5.194877E+00 -5.359926E+00 +9.589427E+02 
 +3.692588E+02 -6.523180E+00 +1.265399E+01 -6.523180E+00 +3.603735E+02 +1.778600E+00 +1.265399E+01 +1.778600E+00 +9.607960E+02 
 +3.673423E+02 -1.652979E+01 +1.528473E+01 -1.652979E+01 +3.638536E+02 +4.483392E+00 +1.528473E+01 +4.483392E+00 +9.681299E+02 
 +3.531449E+02 +2.478908E+01 +1.063781E+01 +2.478908E+01 +3.888004E+02 -1.961756E-01 +1.063781E+01 -1.961756E-01 +9.853645E+02 
 +3.573634E+02 +1.908645E+01 +2.409509E+00 +1.908645E+01 +3.916559E+02 -1.189271E+01 +2.409509E+00 -1.189271E+01 +1.000014E+03 
 +3.568957E+02 +1.936596E+01 -1.198996E+01 +1.936596E+01 +3.693957E+02 -1.525408E+01 -1.198996E+01 -1.525408E+01 +9.968193E+02 
 +3.596976E+02 +1.826746E+01 -1.661927E+01 +1.826746E+01 +3.470824E+02 -1.068080E+01 -1.661927E+01 -1.068080E+01 +9.836201E+02 
 +3.259045E+02 -1.889897E+01 -1.938846E+00 -1.889897E+01 +3.339831E+02 -8.627196E+00 -1.938846E+00 -8.627196E+00 +9.748712E+02 
 +3.266030E+02 -1.354822E+01 -3.823860E+00 -1.354822E+01 +3.416201E+02 -1.528374E+00 -3.823860E+00 -1.528374E+00 +9.671307E+02 
 +3.678906E+02 +1.227861E+01 -4.795489E+00 +1.227861E+01 +3.655758E+02 +4.886827E+00 -4.795489E+00 +4.886827E+00 +9.593096E+02 
 +3.796831E+02 +1.774304E+01 -2.749861E-01 +1.774304E+01 +3.738016E+02 +2.763477E+00 -2.749861E-01 +2.763477E+00 +9.539342E+02 
 +3.588777E+02 +1.966773E+01 +9.188092E-01 +1.966773E+01 +3.533945E+02 -2.800022E+00 +9.188092E-01 -2.800022E+00 +9.410406E+02 
 +3.724727E+02 +1.763413E+01 -3.795848E+00 +1.763413E+01 +3.667218E+02 -7.110760E+00 -3.795848E+00 -7.110760E+00 +9.448722E+02 
 +4.137389E+02 -1.802370E+00 +3.832058E-01 -1.802370E+00 +4.231851E+02 -2.548004E+00 +3.832058E-01 -2.548004E+00 +9.604833E+02 
 +4.199225E+02 -1.077847E+01 +2.337915E+00 -1.077847E+01 +4.327944E+02 +6.104666E+00 +2.337915E+00 +6.104666E+00 +9.448100E+02 
 +3.987668E+02 -1.164406E+01 -1.183139E+00 -1.164406E+01 +4.063191E+02 +1.252068E+01 -1.183139E+00 +1.252068E+01 +9.174816E+02 
 +3.947270E+02 -1.110651E+01 -8.283113E+00 -1.110651E+01 +3.982099E+02 +8.184580E+00 -8.283113E+00 +8.184580E+00 +9.206666E+02 
 +3.718605E+02 -3.162616E+00 -2.112233E+00 -3.162616E+00 +3.787373E+02 +9.818207E-01 -2.112233E+00 +9.818207E-01 +9.309399E+02 
 +3.518663E+02 -1.250267E+01 -3.166332E+00 -1.250267E+01 +3.502509E+02 +3.691786E+00 -3.166332E+00 +3.691786E+00 +9.414810E+02 
 +3.633116E+02 -1.235990E+01 -1.529255E+00 -1.235990E+01 +3.490417E+02 +7.234047E+00 -1.529255E+00 +7.234047E+00 +9.566623E+02 
 +3.595603E+02 -2.612097E+00 +2.299565E+00 -2.612097E+00 +3.488008E+02 -6.174964E+00 +2.299565E+00 -6.174964E+00 +9.530384E+02 
 +3.673069E+02 -7.535891E+00 +5.279750E+00 -7.535891E+00 +3.464126E+02 -6.208156E+00 +5.279750E+00 -6.208156E+00 +9.538956E+02 
 +3.726357E+02 -5.620805E+00 +1.333083E+01 -5.620805E+00 +3.542729E+02 +1.502555E+00 +1.333083E+01 +1.502555E+00 +9.638218E+02 
 +3.717014E+02 -1.284278E+01 +1.812356E+01 -1.284278E+01 +3.783037E+02 +3.845332E+00 +1.812356E+01 +3.845332E+00 +9.786454E+02 
 +3.678413E+02 +1.943289E+01 +7.558119E+00 +1.943289E+01 +4.200567E+02 +5.738649E-01 +7.558119E+00 +5.738649E-01 +9.851715E+02 
 +3.702065E+02 +1.915541E+01 +1.757507E+00 +1.915541E+01 +4.008403E+02 -7.330421E+00 +1.757507E+00 -7.330421E+00 +9.970102E+02 
 +3.692189E+02 +1.305371E+01 -8.795350E+00 +1.305371E+01 +3.815477E+02 -7.485187E+00 -8.795350E+00 -7.485187E+00 +9.969313E+02 
 +3.767035E+02 +1.632109E+01 -1.485654E+01 +1.632109E+01 +3.581239E+02 -2.733007E+00 -1.485654E+01 -2.733007E+00 +9.826940E+02 
 +3.337130E+02 -5.588964E-01 -1.545177E+00 -5.588964E-01 +3.233626E+02 -2.625421E+00 -1.545177E+00 -2.625421E+00 +9.723643E+02 
 +3.658881E+02 +8.391676E+00 +3.327900E-01 +8.391676E+00 +3.663837E+02 +1.226590E+00 +3.327900E-01 +1.226590E+00 +9.879782E+02 
 +3.720756E+02 +1.502551E+01 -7.942938E+00 +1.502551E+01 +3.747845E+02 +4.277373E+00 -7.942938E+00 +4.277373E+00 +9.657605E+02 
 +3.554422E+02 +1.879193E+01 -2.492205E+00 +1.879193E+01 +3.495968E+02 +9.564964E-01 -2.492205E+00 +9.564964E-01 +9.482122E+02 
 +3.623681E+02 +2.310224E+01 -4.256862E+00 +2.310224E+01 +3.510487E+02 -4.816567E+00 -4.256862E+00 -4.816567E+00 +9.499222E+02 
 +3.622523E+02 +2.590620E+01 -8.037323E+00 +2.590620E+01 +3.520352E+02 -8.642074E+00 -8.037323E+00 -8.642074E+00 +9.480930E+02 
 +3.689059E+02 +1.997468E+01 -2.610041E+00 +1.997468E+01 +3.690558E+02 -8.265992E+00 -2.610041E+00 -8.265992E+00 +9.444305E+02 
 +4.068313E+02 -4.508700E+00 -2.034527E+00 -4.508700E+00 +4.194381E+02 +1.131382E+00 -2.034527E+00 +1.131382E+00 +9.449691E+02 
 +4.014057E+02 -1.030439E+01 -3.470201E+00 -1.030439E+01 +4.209453E+02 +1.097411E+01 -3.470201E+00 +1.097411E+01 +9.220461E+02 
 +3.861356E+02 -7.621283E+00 -7.765807E+00 -7.621283E+00 +4.022418E+02 +1.054039E+01 -7.765807E+00 +1.054039E+01 +9.148749E+02 
 +3.429196E+02 -6.646064E+00 -3.022802E-01 -6.646064E+00 +3.548386E+02 +6.314069E+00 -3.022802E-01 +6.314069E+00 +9.176847E+02 
 +3.390696E+02 -1.711522E+01 +4.119105E-01 -1.711522E+01 +3.252159E+02 +6.111744E+00 +4.119105E-01 +6.111744E+00 +9.391464E+02 
 +3.679291E+02 -1.224741E+01 +1.489356E+00 -1.224741E+01 +3.319629E+02 +5.122764E+00 +1.489356E+00 +5.122764E+00 +9.597216E+02 
 +3.618612E+02 -3.982054E+00 +6.282326E+00 -3.982054E+00 +3.287095E+02 -8.714957E+00 +6.282326E+00 -8.714957E+00 +9.538500E+02 
 +3.553652E+02 -8.621747E+00 +7.168380E+00 -8.621747E+00 +3.310841E+02 -5.722337E+00 +7.168380E+00 -5.722337E+00 +9.549630E+02 
 +3.524774E+02 -9.751900E+00 +1.351462E+01 -9.751900E+00 +3.392546E+02 +1.439464E+00 +1.351462E+01 +1.439464E+00 +9.576731E+02 
 +3.747201E+02 -8.204284E+00 +1.206804E+01 -8.204284E+00 +3.968425E+02 +3.226098E+00 +1.206804E+01 +3.226098E+00 +9.767928E+02 
 +3.979489E+02 +2.502989E+01 +4.873337E+00 +2.502989E+01 +4.399474E+02 -4.755198E+00 +4.873337E+00 -4.755198E+00 +9.849025E+02 
 +3.967008E+02 +1.884054E+01 -8.184533E-01 +1.884054E+01 +4.239894E+02 -1.340318E+01 -8.184533E-01 -1.340318E+01 +9.999163E+02 
 +3.832711E+02 +2.644951E+01 -5.806849E+00 +2.644951E+01 +3.957306E+02 -1.321121E+01 -5.806849E+00 -1.321121E+01 +9.939315E+02 
 +3.866510E+02 +1.597119E+01 -1.619711E+01 +1.597119E+01 +3.779692E+02 -3.479555E+00 -1.619711E+01 -3.479555E+00 +9.736804E+02 
 +3.634997E+02 +3.348634E+00 -5.430822E+00 +3.348634E+00 +3.613027E+02 +4.780902E+00 -5.430822E+00 +4.780902E+00 +9.625892E+02 
 +3.875037E+02 +8.635937E+00 +8.260464E-01 +8.635937E+00 +3.842451E+02 +5.564757E+00 +8.260464E-01 +5.564757E+00 +9.743628E+02 
 +3.553691E+02 +1.268292E+01 -5.427169E+00 +1.268292E+01 +3.566049E+02 +6.268110E+00 -5.427169E+00 +6.268110E+00 +9.432877E+02 
 +3.493265E+02 +2.229649E+01 -4.779876E+00 +2.229649E+01 +3.473403E+02 +8.063991E+00 -4.779876E+00 +8.063991E+00 +9.398691E+02 
 +3.501095E+02 +2.590646E+01 -3.332227E+00 +2.590646E+01 +3.492635E+02 +3.310823E+00 -3.332227E+00 +3.310823E+00 +9.475888E+02 
 +3.735292E+02 +2.700629E+01 -7.059640E+00 +2.700629E+01 +3.712807E+02 +6.679034E-01 -7.059640E+00 +6.679034E-01 +9.570464E+02 
 +3.746591E+02 +2.500020E+01 -4.159292E+00 +2.500020E+01 +3.784821E+02 +1.859416E+00 -4.159292E+00 +1.859416E+00 +9.533369E+02 
 +3.887132E+02 +1.364775E+01 -5.884052E+00 +1.364775E+01 +3.919308E+02 +3.372724E+00 -5.884052E+00 +3.372724E+00 +9.515081E+02 
 +4.166654E+02 +5.890587E+00 -1.181806E+01 +5.890587E+00 +4.205383E+02 -6.690447E-01 -1.181806E+01 -6.690447E-01 +9.517231E+02 
 +3.707366E+02 +3.211074E+00 -8.707520E+00 +3.211074E+00 +3.841156E+02 -1.199097E-01 -8.707520E+00 -1.199097E-01 +9.378275E+02 
 +3.448935E+02 +7.515514E+00 -1.543157E+00 +7.515514E+00 +3.522343E+02 -5.476378E+00 -1.543157E+00 -5.476378E+00 +9.412868E+02 
 +3.273962E+02 +1.216744E+00 +7.854363E-01 +1.216744E+00 +3.337795E+02 -1.055349E+01 +7.854363E-01 -1.055349E+01 +9.456864E+02 
 +3.346680E+02 -6.894477E+00 +5.817883E+00 -6.894477E+00 +3.127669E+02 -1.343826E+01 +5.817883E+00 -1.343826E+01 +9.507893E+02 
 +3.640325E+02 -1.056637E+00 +1.487160E+01 -1.056637E+00 +3.219850E+02 -1.346588E+01 +1.487160E+01 -1.346588E+01 +9.554825E+02 
 +3.744997E+02 -2.254004E+00 +7.503455E+00 -2.254004E+00 +3.623293E+02 -1.074037E+01 +7.503455E+00 -1.074037E+01 +9.643209E+02 
 +3.778931E+02 +8.753465E+00 +6.328942E+00 +8.753465E+00 +4.144189E+02 -1.157501E+01 +6.328942E+00 -1.157501E+01 +9.736542E+02 
 +3.931027E+02 +1.339742E+01 +6.695330E+00 +1.339742E+01 +4.419531E+02 -6.582288E+00 +6.695330E+00 -6.582288E+00 +9.781633E+02 
 +3.862572E+02 +1.272788E+01 +2.544258E+00 +1.272788E+01 +4.233680E+02 -1.081853E+01 +2.544258E+00 -1.081853E+01 +9.953219E+02 
 +3.841704E+02 -5.077408E+00 -1.835292E+00 -5.077408E+00 +3.997861E+02 -1.180561E+01 -1.835292E+00 -1.180561E+01 +1.005143E+03 
 +3.838952E+02 -2.537278E+00 -2.754511E+00 -2.537278E+00 +3.811767E+02 -9.545700E+00 -2.754511E+00 -9.545700E+00 +1.000232E+03 
 +3.906690E+02 -1.013619E+01 -3.818102E+00 -1.013619E+01 +3.714570E+02 -6.636480E+00 -3.818102E+00 -6.636480E+00 +9.845864E+02 
 +3.971717E+02 -1.097645E+00 +4.560357E+00 -1.097645E+00 +3.821836E+02 -1.495361E+00 +4.560357E+00 -1.495361E+00 +9.615391E+02 
 +4.070356E+02 -4.769195E+00 +8.960666E+00 -4.769195E+00 +3.958939E+02 -1.818751E+00 +8.960666E+00 -1.818751E+00 +9.499643E+02 
 +3.848157E+02 -3.561455E+00 +3.487991E+00 -3.561455E+00 +3.875220E+02 -1.340320E+00 +3.487991E+00 -1.340320E+00 +9.480349E+02 
 +3.560458E+02 +1.074268E+01 -5.135133E+00 +1.074268E+01 +3.648341E+02 +7.014191E+00 -5.135133E+00 +7.014191E+00 +9.427518E+02 
 +3.414694E+02 +2.040917E+01 -8.253253E+00 +2.040917E+01 +3.483026E+02 +1.150200E+01 -8.253253E+00 +1.150200E+01 +9.432548E+02 
 +3.475083E+02 +2.451806E+01 -3.074517E+00 +2.451806E+01 +3.587759E+02 +7.122953E+00 -3.074517E+00 +7.122953E+00 +9.525334E+02 
 +3.695210E+02 +1.629727E+01 -3.411442E+00 +1.629727E+01 +3.654151E+02 +4.875604E+00 -3.411442E+00 +4.875604E+00 +9.611748E+02 
 +3.537773E+02 +1.450705E+01 -1.380541E+01 +1.450705E+01 +3.264159E+02 +4.768613E+00 -1.380541E+01 +4.768613E+00 +9.501568E+02 
 +3.575126E+02 +2.228907E+00 -1.868905E+01 +2.228907E+00 +3.159088E+02 +7.176694E+00 -1.868905E+01 +7.176694E+00 +9.567979E+02 
 +3.536864E+02 -4.727792E+00 -5.146389E+00 -4.727792E+00 +3.252014E+02 +1.132121E+01 -5.146389E+00 +1.132121E+01 +9.638715E+02 
 +3.610036E+02 +1.304882E+00 -6.029800E+00 +1.304882E+00 +3.502961E+02 +1.214638E+01 -6.029800E+00 +1.214638E+01 +9.717887E+02 
 +3.146765E+02 -1.605032E+01 -7.357562E-02 -1.605032E+01 +3.369336E+02 +7.945103E-01 -7.357562E-02 +7.945103E-01 +9.578040E+02 
 +3.374035E+02 -1.766040E+01 -6.326717E+00 -1.766040E+01 +3.489903E+02 -7.887809E+00 -6.326717E+00 -7.887809E+00 +9.732461E+02 
 +3.913274E+02 +4.260418E+00 -3.561733E+00 +4.260418E+00 +3.927307E+02 -1.303904E+01 -3.561733E+00 -1.303904E+01 +9.891150E+02 
 +3.899643E+02 +6.737640E+00 -3.091496E+00 +6.737640E+00 +4.067401E+02 -1.412625E+01 -3.091496E+00 -1.412625E+01 +9.712854E+02 
 +3.934551E+02 +7.129446E+00 +1.496940E+00 +7.129446E+00 +4.166214E+02 -8.438825E+00 +1.496940E+00 -8.438825E+00 +9.651381E+02 
 +3.952024E+02 +1.598342E+01 +5.362627E+00 +1.598342E+01 +4.340932E+02 -7.382555E+00 +5.362627E+00 -7.382555E+00 +9.789611E+02 
 +3.775701E+02 -4.743019E+00 +6.658804E+00 -4.743019E+00 +3.955063E+02 -3.629006E+00 +6.658804E+00 -3.629006E+00 +1.001175E+03 
 +3.679237E+02 -3.702986E+00 +8.419813E-01 -3.702986E+00 +3.846742E+02 -7.933828E+00 +8.419813E-01 -7.933828E+00 +1.002496E+03 
 +3.780845E+02 -6.028643E+00 +4.701321E-01 -6.028643E+00 +3.836355E+02 -1.185896E+01 +4.701321E-01 -1.185896E+01 +1.000336E+03 
 +4.138217E+02 +2.890055E+00 +8.462802E+00 +2.890055E+00 +3.961169E+02 -5.112337E+00 +8.462802E+00 -5.112337E+00 +9.897959E+02 
 +4.311356E+02 +2.996224E+00 +1.676484E+01 +2.996224E+00 +4.055544E+02 +8.318093E-01 +1.676484E+01 +8.318093E-01 +9.710835E+02 
 +4.132995E+02 -6.187524E+00 +1.857211E+01 -6.187524E+00 +3.958990E+02 -1.782179E+00 +1.857211E+01 -1.782179E+00 +9.556617E+02 
 +4.065133E+02 -4.264411E+00 +1.188565E+01 -4.264411E+00 +4.037930E+02 -2.658299E+00 +1.188565E+01 -2.658299E+00 +9.568042E+02 
 +3.860402E+02 +3.362099E+00 +9.595951E+00 +3.362099E+00 +3.869113E+02 +6.499368E+00 +9.595951E+00 +6.499368E+00 +9.468011E+02 
 +3.454914E+02 +2.457765E+01 +3.192296E+00 +2.457765E+01 +3.543660E+02 +9.322503E+00 +3.192296E+00 +9.322503E+00 +9.431673E+02 
 +3.303832E+02 +3.417749E+01 -1.770638E+00 +3.417749E+01 +3.409039E+02 -2.830448E+00 -1.770638E+00 -2.830448E+00 +9.563079E+02 
 +3.647550E+02 +1.367827E+01 -8.295280E+00 +1.367827E+01 +3.404612E+02 -3.428759E+00 -8.295280E+00 -3.428759E+00 +9.649934E+02 
 +3.680061E+02 +1.368909E+01 -1.019871E+01 +1.368909E+01 +3.275931E+02 +2.349145E+00 -1.019871E+01 +2.349145E+00 +9.642278E+02 
 +3.607489E+02 +7.956645E+00 -8.912181E+00 +7.956645E+00 +3.238761E+02 +1.024510E+00 -8.912181E+00 +1.024510E+00 +9.691232E+02 
 +3.430038E+02 -7.004614E-01 -1.595798E+00 -7.004614E-01 +3.209630E+02 +3.713506E-01 -1.595798E+00 +3.713506E-01 +9.585402E+02 
 +3.428104E+02 +2.071202E+00 -5.762146E-01 +2.071202E+00 +3.419652E+02 +5.334141E+00 -5.762146E-01 +5.334141E+00 +9.586953E+02 
 +2.963219E+02 -1.903243E+01 +2.976891E+00 -1.903243E+01 +3.410047E+02 -3.440297E+00 +2.976891E+00 -3.440297E+00 +9.493905E+02 
 +3.192052E+02 -2.196297E+01 -6.595508E+00 -2.196297E+01 +3.560311E+02 -6.518804E+00 -6.595508E+00 -6.518804E+00 +9.694954E+02 
 +3.688522E+02 +7.461115E+00 +2.644548E-01 +7.461115E+00 +3.683416E+02 +3.000777E+00 +2.644548E-01 +3.000777E+00 +9.863391E+02 
 +3.685781E+02 +1.214320E+01 +1.269281E+00 +1.214320E+01 +3.634904E+02 +2.802835E+00 +1.269281E+00 +2.802835E+00 +9.700892E+02 
 +3.777529E+02 +1.050183E+01 +6.729279E+00 +1.050183E+01 +3.769877E+02 -3.852973E+00 +6.729279E+00 -3.852973E+00 +9.657092E+02 
 +3.857368E+02 +1.465404E+01 +1.551657E+01 +1.465404E+01 +4.014413E+02 -2.617038E+00 +1.551657E+01 -2.617038E+00 +9.849287E+02 
 +3.796903E+02 -4.438749E+00 +1.017744E+01 -4.438749E+00 +3.868727E+02 -4.375868E+00 +1.017744E+01 -4.375868E+00 +9.987175E+02 
 +3.778586E+02 -7.549356E+00 +1.471140E+00 -7.549356E+00 +3.955051E+02 -8.089349E+00 +1.471140E+00 -8.089349E+00 +1.013273E+03 
 +4.022529E+02 -5.164180E+00 +5.680750E+00 -5.164180E+00 +4.072989E+02 -5.441597E+00 +5.680750E+00 -5.441597E+00 +1.017590E+03 
 +4.438768E+02 +9.457391E+00 +1.340010E+01 +9.457391E+00 +4.291031E+02 +2.112390E+00 +1.340010E+01 +2.112390E+00 +9.982839E+02 
 +4.269769E+02 +3.776677E+00 +1.905936E+01 +3.776677E+00 +4.081371E+02 +1.271090E+00 +1.905936E+01 +1.271090E+00 +9.612549E+02 
 +4.266123E+02 +2.600081E-01 +1.698039E+01 +2.600081E-01 +4.092387E+02 -1.534554E+00 +1.698039E+01 -1.534554E+00 +9.556942E+02 
 +4.169195E+02 -2.359959E+00 +1.372289E+01 -2.359959E+00 +4.073635E+02 -4.799987E+00 +1.372289E+01 -4.799987E+00 +9.474153E+02 
 +4.155244E+02 +4.362651E-01 +1.623051E+01 +4.362651E-01 +4.100076E+02 +8.399000E-02 +1.623051E+01 +8.399000E-02 +9.476033E+02 
 +3.566846E+02 +1.186910E+01 +3.706582E+00 +1.186910E+01 +3.717025E+02 +6.516188E-01 +3.706582E+00 +6.516188E-01 +9.421772E+02 
 +3.268680E+02 +1.933326E+01 -9.431458E+00 +1.933326E+01 +3.252076E+02 -8.673052E+00 -9.431458E+00 -8.673052E+00 +9.515997E+02 
 +3.608805E+02 +1.208038E+01 -1.306406E+01 +1.208038E+01 +3.263634E+02 -4.440393E+00 -1.306406E+01 -4.440393E+00 +9.634862E+02 
 +3.664101E+02 +1.003762E+01 -8.473807E+00 +1.003762E+01 +3.369270E+02 +3.562814E+00 -8.473807E+00 +3.562814E+00 +9.617640E+02 
 +3.526701E+02 -3.126126E+00 +2.806494E-01 -3.126126E+00 +3.459802E+02 -2.029139E-01 +2.806494E-01 -2.029139E-01 +9.652010E+02 
 +3.498954E+02 -1.252418E+01 +4.113425E+00 -1.252418E+01 +3.678937E+02 -4.140321E+00 +4.113425E+00 -4.140321E+00 +9.722549E+02 
 +3.399203E+02 -1.112231E+01 +4.033492E+00 -1.112231E+01 +3.685755E+02 -1.312233E+00 +4.033492E+00 -1.312233E+00 +9.669298E+02 
 +3.203688E+02 -2.281505E+01 +5.383859E+00 -2.281505E+01 +3.665103E+02 -3.176246E+00 +5.383859E+00 -3.176246E+00 +9.628403E+02 
 +3.184494E+02 -2.966468E+01 -1.198815E+00 -2.966468E+01 +3.754999E+02 -6.790618E+00 -1.198815E+00 -6.790618E+00 +9.679519E+02 
 +3.551899E+02 -2.362541E+00 +4.873437E+00 -2.362541E+00 +3.709063E+02 +3.163464E+00 +4.873437E+00 +3.163464E+00 +9.784301E+02 
 +3.677876E+02 +1.001550E+01 +1.017113E+01 +1.001550E+01 +3.595705E+02 +4.178721E+00 +1.017113E+01 +4.178721E+00 +9.722586E+02 
 +3.690726E+02 +1.065697E+01 +1.332317E+01 +1.065697E+01 +3.648398E+02 -4.818902E+00 +1.332317E+01 -4.818902E+00 +9.652711E+02 
 +3.633308E+02 +1.715760E+01 +2.834330E+01 +1.715760E+01 +3.594287E+02 -5.776516E+00 +2.834330E+01 -5.776516E+00 +9.701405E+02 
 +3.834000E+02 +5.739310E+00 +1.118295E+01 +5.739310E+00 +3.876885E+02 -1.023742E+01 +1.118295E+01 -1.023742E+01 +9.888060E+02 
 +3.909359E+02 -6.482037E+00 +1.478763E+00 -6.482037E+00 +4.068932E+02 -5.077116E+00 +1.478763E+00 -5.077116E+00 +1.019585E+03 
 +4.513449E+02 +6.440383E+00 +1.027014E+01 +6.440383E+00 +4.508629E+02 +1.954752E+00 +1.027014E+01 +1.954752E+00 +1.044319E+03 
 +4.446683E+02 +6.492339E+00 +1.304997E+01 +6.492339E+00 +4.359353E+02 +4.095159E+00 +1.304997E+01 +4.095159E+00 +9.981682E+02 
 +4.292516E+02 +4.076823E+00 +1.572508E+01 +4.076823E+00 +4.130505E+02 +5.163434E+00 +1.572508E+01 +5.163434E+00 +9.626718E+02 
 +4.287729E+02 +4.133493E-01 +1.226800E+01 +4.133493E-01 +4.114183E+02 +2.141741E+00 +1.226800E+01 +2.141741E+00 +9.505414E+02 
 +4.181259E+02 -3.639759E+00 +1.540807E+01 -3.639759E+00 +3.989246E+02 +1.277938E+00 +1.540807E+01 +1.277938E+00 +9.345139E+02 
 +4.039790E+02 -5.456095E+00 +1.311805E+01 -5.456095E+00 +3.919806E+02 +7.134045E-01 +1.311805E+01 +7.134045E-01 +9.414374E+02 
 +3.477679E+02 -2.995206E+00 -3.925763E+00 -2.995206E+00 +3.660886E+02 -7.860161E+00 -3.925763E+00 -7.860161E+00 +9.496368E+02 
 +3.627506E+02 -5.025965E+00 -5.709257E+00 -5.025965E+00 +3.706727E+02 -1.672458E+01 -5.709257E+00 -1.672458E+01 +9.719818E+02 
 +3.811214E+02 -8.278720E+00 -1.412151E+00 -8.278720E+00 +3.810438E+02 -1.484944E+01 -1.412151E+00 -1.484944E+01 +9.790429E+02 
 +3.753683E+02 -1.529017E+01 -1.996454E-01 -1.529017E+01 +3.847201E+02 -4.820759E+00 -1.996454E-01 -4.820759E+00 +9.798761E+02 
 +3.579591E+02 -1.767252E+01 +4.600794E+00 -1.767252E+01 +3.759219E+02 -3.037235E+00 +4.600794E+00 -3.037235E+00 +9.804399E+02 
 +3.477141E+02 -1.709464E+01 +5.161466E+00 -1.709464E+01 +3.738220E+02 -9.963660E+00 +5.161466E+00 -9.963660E+00 +9.809234E+02 
 +3.461152E+02 -1.242756E+01 +2.112730E+00 -1.242756E+01 +3.794802E+02 -7.947354E+00 +2.112730E+00 -7.947354E+00 +9.770399E+02 
 +3.420271E+02 -1.750130E+01 +1.915920E+00 -1.750130E+01 +3.845048E+02 -2.227188E+00 +1.915920E+00 -2.227188E+00 +9.707191E+02 
 +3.352290E+02 -2.930911E+01 +8.652483E-03 -2.930911E+01 +3.938590E+02 -8.686527E+00 +8.652483E-03 -8.686527E+00 +9.690776E+02 
 +3.476145E+02 -1.472026E+01 +7.600767E-01 -1.472026E+01 +3.892154E+02 -7.300025E+00 +7.600767E-01 -7.300025E+00 +9.736293E+02 
 +3.705116E+02 +1.224314E+01 +7.977678E+00 +1.224314E+01 +3.690565E+02 -3.068321E+00 +7.977678E+00 -3.068321E+00 +9.719930E+02 
 +3.674444E+02 +1.450219E+01 +1.683765E+01 +1.450219E+01 +3.587259E+02 -8.272707E+00 +1.683765E+01 -8.272707E+00 +9.625917E+02 
 +3.649178E+02 +1.713363E+01 +3.080939E+01 +1.713363E+01 +3.644424E+02 -1.224733E+01 +3.080939E+01 -1.224733E+01 +9.661506E+02 
 +3.679236E+02 +1.750831E+01 +6.250437E+00 +1.750831E+01 +3.355596E+02 -1.626392E+01 +6.250437E+00 -1.626392E+01 +9.879432E+02 
 +3.703685E+02 +1.247232E+01 +2.241085E+00 +1.247232E+01 +3.424768E+02 -7.446232E+00 +2.241085E+00 -7.446232E+00 +9.991472E+02 
 +4.065347E+02 +1.789688E+01 +4.441909E+00 +1.789688E+01 +3.836782E+02 +3.072901E+00 +4.441909E+00 +3.072901E+00 +1.012802E+03 
 +4.259822E+02 +4.516789E+00 +1.213735E+01 +4.516789E+00 +4.123810E+02 +8.848797E+00 +1.213735E+01 +8.848797E+00 +1.002691E+03 
 +4.369786E+02 +4.605686E-01 +1.056295E+01 +4.605686E-01 +4.218025E+02 +1.294219E+01 +1.056295E+01 +1.294219E+01 +9.866939E+02 
 +4.311662E+02 -2.556489E+00 +7.319311E+00 -2.556489E+00 +4.054492E+02 +1.073024E+01 +7.319311E+00 +1.073024E+01 +9.565518E+02 
 +4.231303E+02 -6.540495E+00 +1.238868E+01 -6.540495E+00 +4.006727E+02 +6.078176E+00 +1.238868E+01 +6.078176E+00 +9.461066E+02 
 +3.757856E+02 -1.256916E+01 +7.390261E+00 -1.256916E+01 +3.775010E+02 -2.867078E+00 +7.390261E+00 -2.867078E+00 +9.522753E+02 
 +3.519190E+02 -1.081417E+01 +3.815780E-01 -1.081417E+01 +3.632995E+02 -7.502189E+00 +3.815780E-01 -7.502189E+00 +9.698226E+02 
 +3.576049E+02 -1.069898E+01 +3.629088E+00 -1.069898E+01 +3.660953E+02 -9.876284E+00 +3.629088E+00 -9.876284E+00 +9.749382E+02 
 +3.597957E+02 -6.896662E+00 +8.630703E+00 -6.896662E+00 +3.657669E+02 -1.752535E+01 +8.630703E+00 -1.752535E+01 +9.675305E+02 
 +3.644447E+02 -7.269097E+00 +8.761492E+00 -7.269097E+00 +3.748741E+02 -1.914012E+01 +8.761492E+00 -1.914012E+01 +9.741893E+02 
 +3.587007E+02 -1.344988E+01 +5.141431E+00 -1.344988E+01 +3.774281E+02 -1.553119E+01 +5.141431E+00 -1.553119E+01 +9.844270E+02 
 +3.495367E+02 -1.097230E+01 +1.088758E+00 -1.097230E+01 +3.761049E+02 -1.477867E+01 +1.088758E+00 -1.477867E+01 +9.850182E+02 
 +3.476474E+02 -1.322903E+01 -2.575370E+00 -1.322903E+01 +3.839519E+02 -1.146652E+01 -2.575370E+00 -1.146652E+01 +9.826097E+02 
 +3.678251E+02 -1.750357E+01 -2.910569E-01 -1.750357E+01 +4.034409E+02 -6.667889E+00 -2.910569E-01 -6.667889E+00 +9.861146E+02 
 +3.641323E+02 -2.440487E+01 +2.270520E+00 -2.440487E+01 +4.089699E+02 -1.452223E+01 +2.270520E+00 -1.452223E+01 +9.876667E+02 
 +3.492372E+02 -1.530742E+01 +2.470853E+00 -1.530742E+01 +4.018502E+02 -1.379507E+01 +2.470853E+00 -1.379507E+01 +9.774212E+02 
 +3.786476E+02 +5.932959E+00 +2.495736E+00 +5.932959E+00 +3.905063E+02 -7.237677E+00 +2.495736E+00 -7.237677E+00 +9.737834E+02 
 +3.629380E+02 +2.084456E+01 +1.553270E+01 +2.084456E+01 +3.490620E+02 -9.195588E+00 +1.553270E+01 -9.195588E+00 +9.659617E+02 
 +3.631361E+02 +2.702819E+01 +2.216280E+01 +2.702819E+01 +3.435612E+02 -1.212899E+01 +2.216280E+01 -1.212899E+01 +9.789108E+02 
 +3.735007E+02 +1.733805E+01 +4.929032E+00 +1.733805E+01 +3.380641E+02 -1.296451E+01 +4.929032E+00 -1.296451E+01 +9.882293E+02 
 +3.762723E+02 +1.440847E+01 +5.242144E+00 +1.440847E+01 +3.442700E+02 -1.122000E+01 +5.242144E+00 -1.122000E+01 +9.924237E+02 
 +3.693937E+02 +1.909710E+01 +8.048993E+00 +1.909710E+01 +3.358111E+02 -9.166084E-01 +8.048993E+00 -9.166084E-01 +9.865390E+02 
 +3.841475E+02 +1.977239E+01 +1.538805E+01 +1.977239E+01 +3.437877E+02 +8.923336E+00 +1.538805E+01 +8.923336E+00 +9.981531E+02 
 +4.229548E+02 +1.355026E+01 +1.022521E+01 +1.355026E+01 +3.957753E+02 +1.391900E+01 +1.022521E+01 +1.391900E+01 +1.012001E+03 
 +4.351480E+02 -4.147587E+00 +8.909501E+00 -4.147587E+00 +4.163051E+02 +1.408185E+01 +8.909501E+00 +1.408185E+01 +9.867713E+02 
 +4.128564E+02 -1.294867E+01 +9.542511E+00 -1.294867E+01 +3.922085E+02 +2.240715E+00 +9.542511E+00 +2.240715E+00 +9.640599E+02 
 +3.682901E+02 -1.388761E+01 +7.776975E+00 -1.388761E+01 +3.724919E+02 -7.712434E+00 +7.776975E+00 -7.712434E+00 +9.660232E+02 
 +3.566668E+02 -8.886114E+00 +4.956113E+00 -8.886114E+00 +3.694529E+02 -7.388364E+00 +4.956113E+00 -7.388364E+00 +9.747282E+02 
 +3.500569E+02 -9.005754E+00 +4.160878E+00 -9.005754E+00 +3.624257E+02 -9.675561E+00 +4.160878E+00 -9.675561E+00 +9.692195E+02 
 +3.530356E+02 -9.691180E+00 +6.280388E+00 -9.691180E+00 +3.590111E+02 -1.861443E+01 +6.280388E+00 -1.861443E+01 +9.663987E+02 
 +3.556657E+02 -6.012392E+00 +6.687079E+00 -6.012392E+00 +3.603420E+02 -2.340769E+01 +6.687079E+00 -2.340769E+01 +9.729465E+02 
 +3.339094E+02 -1.910885E+01 +1.033637E+00 -1.910885E+01 +3.608167E+02 -1.993125E+01 +1.033637E+00 -1.993125E+01 +9.786031E+02 
 +3.625810E+02 -1.317914E+01 -3.026242E+00 -1.317914E+01 +3.918056E+02 -1.448970E+01 -3.026242E+00 -1.448970E+01 +9.948045E+02 
 +3.576534E+02 -1.362972E+01 -3.064561E+00 -1.362972E+01 +3.801440E+02 -1.633335E+01 -3.064561E+00 -1.633335E+01 +9.856018E+02 
 +3.815969E+02 -3.188953E+00 +1.723449E+00 -3.188953E+00 +3.661323E+02 -1.585820E+01 +1.723449E+00 -1.585820E+01 +9.843796E+02 
 +3.718336E+02 +1.434483E+00 +6.701742E+00 +1.434483E+00 +3.748863E+02 -8.556359E+00 +6.701742E+00 -8.556359E+00 +9.870254E+02 
 +3.486857E+02 +7.255007E+00 +7.576759E+00 +7.255007E+00 +3.939340E+02 -2.918165E+00 +7.576759E+00 -2.918165E+00 +9.797620E+02 
 +3.636847E+02 +8.076637E+00 +2.906496E-01 +8.076637E+00 +3.923808E+02 -4.358470E+00 +2.906496E-01 -4.358470E+00 +9.719729E+02 
 +3.728954E+02 +2.599192E+01 +9.671021E+00 +2.599192E+01 +3.720906E+02 -3.697373E+00 +9.671021E+00 -3.697373E+00 +9.789381E+02 
 +3.760527E+02 +2.838643E+01 +1.191023E+01 +2.838643E+01 +3.516533E+02 -5.759236E+00 +1.191023E+01 -5.759236E+00 +9.874144E+02 
 +3.699280E+02 +1.975539E+01 +8.581898E+00 +1.975539E+01 +3.444763E+02 -7.929777E+00 +8.581898E+00 -7.929777E+00 +9.769908E+02 
 +3.675699E+02 +1.701747E+01 +9.252771E+00 +1.701747E+01 +3.380675E+02 -9.274436E+00 +9.252771E+00 -9.274436E+00 +9.793029E+02 
 +3.707660E+02 +1.507524E+01 +1.617342E+01 +1.507524E+01 +3.353188E+02 -6.884130E+00 +1.617342E+01 -6.884130E+00 +9.840674E+02 
 +3.678697E+02 +1.485451E+01 +1.934705E+01 +1.485451E+01 +3.319888E+02 -2.526140E+00 +1.934705E+01 -2.526140E+00 +9.943884E+02 
 +3.706319E+02 +1.503000E+01 +1.287439E+01 +1.503000E+01 +3.348518E+02 +5.208998E+00 +1.287439E+01 +5.208998E+00 +9.912048E+02 
 +3.894574E+02 -1.173102E+01 +1.013971E+01 -1.173102E+01 +3.514378E+02 +5.954924E+00 +1.013971E+01 +5.954924E+00 +9.729488E+02 
 +4.079291E+02 -1.041060E+01 +8.221266E+00 -1.041060E+01 +3.713874E+02 -1.072573E+00 +8.221266E+00 -1.072573E+00 +9.696677E+02 
 +3.682456E+02 -4.619514E+00 +5.020824E+00 -4.619514E+00 +3.607505E+02 -6.114784E+00 +5.020824E+00 -6.114784E+00 +9.689091E+02 
 +3.414730E+02 -5.780745E+00 +3.920547E+00 -5.780745E+00 +3.607329E+02 -7.606737E+00 +3.920547E+00 -7.606737E+00 +9.712361E+02 
 +3.482758E+02 -9.659494E+00 +2.566002E+00 -9.659494E+00 +3.683598E+02 -1.253432E+01 +2.566002E+00 -1.253432E+01 +9.727049E+02 
 +3.412658E+02 -1.399393E+01 +4.057537E+00 -1.399393E+01 +3.535564E+02 -2.204022E+01 +4.057537E+00 -2.204022E+01 +9.700943E+02 
 +3.368304E+02 -9.374684E+00 +6.370624E+00 -9.374684E+00 +3.466945E+02 -2.848978E+01 +6.370624E+00 -2.848978E+01 +9.782145E+02 
 +3.288149E+02 -1.626554E+01 -1.259892E+00 -1.626554E+01 +3.426331E+02 -2.890820E+01 -1.259892E+00 -2.890820E+01 +9.845841E+02 
 +3.565262E+02 -1.578115E+00 -3.960726E+00 -1.578115E+00 +3.342841E+02 -1.910763E+01 -3.960726E+00 -1.910763E+01 +9.817838E+02 
 +3.595356E+02 +2.343421E+00 -1.115056E+00 +2.343421E+00 +3.192463E+02 -1.795269E+01 -1.115056E+00 -1.795269E+01 +9.661778E+02 
 +3.776046E+02 +5.283002E+00 -2.293154E+00 +5.283002E+00 +3.471224E+02 -2.094033E+01 -2.293154E+00 -2.094033E+01 +9.709698E+02 
 +3.761921E+02 +4.839919E+00 +4.496484E-01 +4.839919E+00 +3.698111E+02 -1.088284E+01 +4.496484E-01 -1.088284E+01 +9.715850E+02 
 +3.454783E+02 +2.158886E+00 +2.111907E+00 +2.158886E+00 +3.714112E+02 -1.343308E+00 +2.111907E+00 -1.343308E+00 +9.593780E+02 
 +3.449547E+02 -1.302672E+00 -2.939456E+00 -1.302672E+00 +3.737118E+02 -3.111125E+00 -2.939456E+00 -3.111125E+00 +9.583496E+02 
 +3.662948E+02 +2.515847E+01 +6.531642E+00 +2.515847E+01 +3.716416E+02 -1.825432E-01 +6.531642E+00 -1.825432E-01 +9.757617E+02 
 +3.744736E+02 +2.638455E+01 +1.093854E+01 +2.638455E+01 +3.579977E+02 -3.384229E-01 +1.093854E+01 -3.384229E-01 +9.814349E+02 
 +3.675215E+02 +1.918703E+01 +1.068880E+01 +1.918703E+01 +3.510570E+02 -4.477046E+00 +1.068880E+01 -4.477046E+00 +9.787630E+02 
 +3.663368E+02 +1.570295E+01 +1.062438E+01 +1.570295E+01 +3.446217E+02 -7.924430E+00 +1.062438E+01 -7.924430E+00 +9.792442E+02 
 +3.629309E+02 +1.412573E+01 +1.488127E+01 +1.412573E+01 +3.398143E+02 -8.350522E+00 +1.488127E+01 -8.350522E+00 +9.814305E+02 
 +3.575543E+02 +1.436539E+01 +1.700911E+01 +1.436539E+01 +3.345111E+02 -6.693950E+00 +1.700911E+01 -6.693950E+00 +9.867954E+02 
 +3.462256E+02 +1.897390E+01 +9.751336E+00 +1.897390E+01 +3.158014E+02 +1.443946E+00 +9.751336E+00 +1.443946E+00 +9.773093E+02 
 +3.648119E+02 +1.372997E+00 +2.897107E+00 +1.372997E+00 +3.244629E+02 +7.232569E+00 +2.897107E+00 +7.232569E+00 +9.699122E+02 
 +3.977031E+02 -1.224951E+01 +5.464448E+00 -1.224951E+01 +3.594997E+02 +3.050359E+00 +5.464448E+00 +3.050359E+00 +9.787559E+02 
 +3.675711E+02 -1.623074E+01 +4.425531E+00 -1.623074E+01 +3.635808E+02 -3.392258E+00 +4.425531E+00 -3.392258E+00 +9.772739E+02 
 +3.646395E+02 -9.326468E+00 +8.178613E+00 -9.326468E+00 +3.766175E+02 -7.664688E+00 +8.178613E+00 -7.664688E+00 +9.838600E+02 
 +3.505630E+02 -8.191894E+00 +9.122155E+00 -8.191894E+00 +3.655121E+02 -1.565772E+01 +9.122155E+00 -1.565772E+01 +9.769617E+02 
 +3.316521E+02 -7.599901E+00 +9.720836E+00 -7.599901E+00 +3.545082E+02 -2.705254E+01 +9.720836E+00 -2.705254E+01 +9.772276E+02 
 +3.074202E+02 -7.742702E+00 +9.716382E+00 -7.742702E+00 +3.119973E+02 -3.375745E+01 +9.716382E+00 -3.375745E+01 +9.689353E+02 
 +3.208116E+02 -3.046665E+00 -2.709450E-01 -3.046665E+00 +2.859837E+02 -3.230913E+01 -2.709450E-01 -3.230913E+01 +9.663615E+02 
 +3.656237E+02 -3.798433E-01 -8.536462E+00 -3.798433E-01 +3.159462E+02 -2.393647E+01 -8.536462E+00 -2.393647E+01 +9.726503E+02 
 +3.813870E+02 -4.259415E-01 -5.675220E+00 -4.259415E-01 +3.392008E+02 -1.480569E+01 -5.675220E+00 -1.480569E+01 +9.681654E+02 
 +3.707197E+02 +3.560866E+00 -8.090423E+00 +3.560866E+00 +3.509627E+02 -1.000354E+01 -8.090423E+00 -1.000354E+01 +9.587128E+02 
 +3.773144E+02 +9.938217E+00 -8.046091E+00 +9.938217E+00 +3.706031E+02 -5.871118E+00 -8.046091E+00 -5.871118E+00 +9.625805E+02 
 +3.646972E+02 +7.178355E+00 -6.576851E+00 +7.178355E+00 +3.748592E+02 +2.615786E+00 -6.576851E+00 +2.615786E+00 +9.641046E+02 
 +3.544333E+02 -4.591805E+00 -5.622375E+00 -4.591805E+00 +3.707588E+02 +3.633040E+00 -5.622375E+00 +3.633040E+00 +9.674805E+02 
 +3.673875E+02 +1.800374E+01 +7.047093E+00 +1.800374E+01 +3.700065E+02 +4.956672E+00 +7.047093E+00 +4.956672E+00 +9.839725E+02 
 +3.702123E+02 +2.277433E+01 +1.316202E+01 +2.277433E+01 +3.609999E+02 +3.661179E+00 +1.316202E+01 +3.661179E+00 +9.847404E+02 
 +3.678049E+02 +1.782391E+01 +8.770091E+00 +1.782391E+01 +3.523552E+02 +8.220916E-01 +8.770091E+00 +8.220916E-01 +9.786663E+02 
 +3.556588E+02 +1.739587E+01 +8.439066E+00 +1.739587E+01 +3.407003E+02 -4.202115E+00 +8.439066E+00 -4.202115E+00 +9.771366E+02 
 +3.532125E+02 +1.523706E+01 +9.868140E+00 +1.523706E+01 +3.367593E+02 -5.651244E+00 +9.868140E+00 -5.651244E+00 +9.809262E+02 
 +3.463598E+02 +1.551224E+01 +1.027864E+01 +1.551224E+01 +3.284173E+02 -2.949647E+00 +1.027864E+01 -2.949647E+00 +9.811792E+02 
 +3.494361E+02 +1.761523E+01 +6.644792E+00 +1.761523E+01 +3.207759E+02 +3.451799E+00 +6.644792E+00 +3.451799E+00 +9.786766E+02 
 +3.484725E+02 +9.942960E+00 +5.817879E-01 +9.942960E+00 +3.064484E+02 +1.020451E+01 +5.817879E-01 +1.020451E+01 +9.704609E+02 
 +3.412839E+02 +6.544666E+00 +3.336612E+00 +6.544666E+00 +2.967839E+02 +5.478174E+00 +3.336612E+00 +5.478174E+00 +9.643140E+02 
 +3.350240E+02 +1.085922E+01 +6.818491E+00 +1.085922E+01 +2.924570E+02 -3.114494E+00 +6.818491E+00 -3.114494E+00 +9.610591E+02 
 +3.479537E+02 +1.333619E+01 +9.126318E+00 +1.333619E+01 +3.059579E+02 -7.128089E+00 +9.126318E+00 -7.128089E+00 +9.679798E+02 
 +3.291727E+02 +6.059495E+00 +1.375558E+01 +6.059495E+00 +3.221928E+02 -1.217831E+01 +1.375558E+01 -1.217831E+01 +9.680595E+02 
 +3.284102E+02 +3.130538E+00 +1.533607E+01 +3.130538E+00 +3.299741E+02 -2.360313E+01 +1.533607E+01 -2.360313E+01 +9.726486E+02 
 +3.065559E+02 +1.017039E+00 +1.429813E+01 +1.017039E+00 +3.031274E+02 -2.535873E+01 +1.429813E+01 -2.535873E+01 +9.625795E+02 
 +3.250767E+02 +1.096498E+01 +4.135691E+00 +1.096498E+01 +3.081628E+02 -1.508513E+01 +4.135691E+00 -1.508513E+01 +9.682493E+02 
 +3.566578E+02 +4.891943E+00 -1.104071E+01 +4.891943E+00 +3.268590E+02 -1.387400E+01 -1.104071E+01 -1.387400E+01 +9.705609E+02 
 +3.711806E+02 -3.541902E-01 -1.400272E+01 -3.541902E-01 +3.354094E+02 -1.204292E+01 -1.400272E+01 -1.204292E+01 +9.603376E+02 
 +3.670867E+02 +3.690974E+00 -6.023139E+00 +3.690974E+00 +3.368104E+02 -6.554311E+00 -6.023139E+00 -6.554311E+00 +9.549163E+02 
 +3.776090E+02 +4.355875E+00 -2.838203E+00 +4.355875E+00 +3.465623E+02 -5.680638E+00 -2.838203E+00 -5.680638E+00 +9.686427E+02 
 +3.799711E+02 +8.327270E+00 -1.118540E+01 +8.327270E+00 +3.570833E+02 -2.296827E+00 -1.118540E+01 -2.296827E+00 +9.744466E+02 
 +3.753486E+02 +6.771327E-01 -1.254813E+01 +6.771327E-01 +3.867536E+02 +1.575565E+00 -1.254813E+01 +1.575565E+00 +9.817491E+02 
 +3.753335E+02 +1.009363E+01 -4.884178E+00 +1.009363E+01 +3.894192E+02 +5.027172E+00 -4.884178E+00 +5.027172E+00 +9.901793E+02 
 +3.677159E+02 +1.916649E+01 +8.435759E+00 +1.916649E+01 +3.616201E+02 +5.149519E+00 +8.435759E+00 +5.149519E+00 +9.812582E+02 
 +3.567780E+02 +2.072995E+01 -6.455896E-01 +2.072995E+01 +3.458912E+02 +3.744605E+00 -6.455896E-01 +3.744605E+00 +9.710498E+02 
 +3.587289E+02 +1.738505E+01 +3.656815E+00 +1.738505E+01 +3.489961E+02 -3.994133E+00 +3.656815E+00 -3.994133E+00 +9.771661E+02 
 +3.432568E+02 +1.820269E+01 +1.970118E+00 +1.820269E+01 +3.349293E+02 -7.495166E+00 +1.970118E+00 -7.495166E+00 +9.774570E+02 
 +3.406035E+02 +1.767216E+01 -1.698335E+00 +1.767216E+01 +3.248096E+02 -3.574824E+00 -1.698335E+00 -3.574824E+00 +9.799587E+02 
 +3.326134E+02 +1.515043E+01 -2.702138E+00 +1.515043E+01 +3.011524E+02 +3.794754E+00 -2.702138E+00 +3.794754E+00 +9.719897E+02 
 +3.330681E+02 +5.660870E+00 +2.011814E-01 +5.660870E+00 +2.865767E+02 +6.602858E+00 +2.011814E-01 +6.602858E+00 +9.655774E+02 
 +3.350141E+02 +6.430825E+00 +3.641927E+00 +6.430825E+00 +2.915708E+02 +4.453677E+00 +3.641927E+00 +4.453677E+00 +9.656722E+02 
 +3.456040E+02 +4.896461E+00 +4.888064E+00 +4.896461E+00 +2.986267E+02 +3.291275E-01 +4.888064E+00 +3.291275E-01 +9.696220E+02 
 +3.454655E+02 +1.080444E+01 +5.486075E+00 +1.080444E+01 +2.926172E+02 -2.770297E+00 +5.486075E+00 -2.770297E+00 +9.708540E+02 
 +3.338860E+02 +1.676715E+01 +8.111844E+00 +1.676715E+01 +2.772238E+02 -6.087283E+00 +8.111844E+00 -6.087283E+00 +9.679120E+02 
 +3.059879E+02 +1.592502E+01 +1.808279E+01 +1.592502E+01 +2.590152E+02 -7.824554E+00 +1.808279E+01 -7.824554E+00 +9.552924E+02 
 +2.899192E+02 +1.410721E+01 +2.684844E+01 +1.410721E+01 +2.874419E+02 -3.057487E+00 +2.684844E+01 -3.057487E+00 +9.581007E+02 
 +3.067620E+02 +8.670876E+00 +1.634353E+01 +8.670876E+00 +3.214123E+02 -9.770118E-01 +1.634353E+01 -9.770118E-01 +9.704500E+02 
 +3.338636E+02 +1.100008E+01 +8.495057E-01 +1.100008E+01 +3.339792E+02 -2.001484E+00 +8.495057E-01 -2.001484E+00 +9.716811E+02 
 +3.816523E+02 +2.756062E+00 -1.192048E+01 +2.756062E+00 +3.634969E+02 -5.782995E+00 -1.192048E+01 -5.782995E+00 +9.759791E+02 
 +3.747195E+02 +6.066159E+00 -2.779573E+00 +6.066159E+00 +3.570033E+02 -7.585681E+00 -2.779573E+00 -7.585681E+00 +9.765088E+02 
 +4.050969E+02 +3.074456E+00 -2.604320E+00 +3.074456E+00 +3.696821E+02 -7.216309E+00 -2.604320E+00 -7.216309E+00 +9.939327E+02 
 +4.014173E+02 +1.218915E+01 -2.002817E+01 +1.218915E+01 +3.719328E+02 -1.133841E+01 -2.002817E+01 -1.133841E+01 +9.651948E+02 
 +4.082376E+02 +1.030589E+01 -2.171866E+01 +1.030589E+01 +4.096244E+02 -1.241687E+01 -2.171866E+01 -1.241687E+01 +9.624959E+02 
 +4.050367E+02 +7.129614E+00 -1.593014E+01 +7.129614E+00 +4.302015E+02 +1.902533E+00 -1.593014E+01 +1.902533E+00 +9.860760E+02 
 +3.657171E+02 +1.691248E+01 -2.645073E+00 +1.691248E+01 +3.751837E+02 +9.782315E+00 -2.645073E+00 +9.782315E+00 +9.772901E+02 
 +3.684196E+02 +1.433284E+01 -8.951182E+00 +1.433284E+01 +3.626976E+02 +4.916078E+00 -8.951182E+00 +4.916078E+00 +9.707514E+02 
 +3.507244E+02 +1.920991E+01 -6.476435E+00 +1.920991E+01 +3.365320E+02 -2.998241E+00 -6.476435E+00 -2.998241E+00 +9.651897E+02 
 +3.619103E+02 +2.563059E+01 -6.668559E+00 +2.563059E+01 +3.481109E+02 -6.840961E+00 -6.668559E+00 -6.840961E+00 +9.753011E+02 
 +3.306335E+02 +2.451357E+01 -9.967378E+00 +2.451357E+01 +3.257384E+02 -4.558157E+00 -9.967378E+00 -4.558157E+00 +9.707712E+02 
 +2.949918E+02 +1.283846E+01 -1.190286E+01 +1.283846E+01 +2.878554E+02 -2.828462E+00 -1.190286E+01 -2.828462E+00 +9.606754E+02 
 +3.131511E+02 +2.396745E+00 -3.696875E+00 +2.396745E+00 +2.913595E+02 -9.009659E-01 -3.696875E+00 -9.009659E-01 +9.637401E+02 
 +3.546168E+02 +2.089447E+00 +2.785100E+00 +2.089447E+00 +3.082231E+02 +4.510177E+00 +2.785100E+00 +4.510177E+00 +9.720465E+02 
 +3.480575E+02 +5.989818E+00 +4.324646E+00 +5.989818E+00 +2.988689E+02 +3.759779E+00 +4.324646E+00 +3.759779E+00 +9.641895E+02 
 +3.511512E+02 +9.548454E+00 +5.621012E+00 +9.548454E+00 +2.927683E+02 +2.206371E+00 +5.621012E+00 +2.206371E+00 +9.638959E+02 
 +3.614905E+02 +7.408798E+00 +9.011811E+00 +7.408798E+00 +3.087121E+02 -1.182844E+00 +9.011811E+00 -1.182844E+00 +9.762406E+02 
 +3.204347E+02 -1.346456E+01 +1.991967E+01 -1.346456E+01 +3.329883E+02 -5.979553E+00 +1.991967E+01 -5.979553E+00 +9.788470E+02 
 +3.212228E+02 -1.961845E+01 +2.739931E+01 -1.961845E+01 +3.567595E+02 -8.885242E+00 +2.739931E+01 -8.885242E+00 +9.881930E+02 
 +3.208846E+02 -2.496132E+01 +2.338897E+01 -2.496132E+01 +3.548580E+02 -9.682366E+00 +2.338897E+01 -9.682366E+00 +9.831525E+02 
 +3.339444E+02 -1.346922E+01 +1.603379E+01 -1.346922E+01 +3.412228E+02 -5.952201E+00 +1.603379E+01 -5.952201E+00 +9.735639E+02 
 +3.706826E+02 -5.539588E+00 +1.695313E+00 -5.539588E+00 +3.446801E+02 -6.656336E+00 +1.695313E+00 -6.656336E+00 +9.662438E+02 
 +3.672591E+02 -8.673036E-01 -6.336757E-01 -8.673036E-01 +3.437148E+02 -1.303010E+01 -6.336757E-01 -1.303010E+01 +9.641797E+02 
 +3.766450E+02 -4.018621E+00 -9.165901E+00 -4.018621E+00 +3.500242E+02 -1.405098E+01 -9.165901E+00 -1.405098E+01 +9.678930E+02 
 +3.962954E+02 +4.774167E-01 -1.932985E+01 +4.774167E-01 +3.663014E+02 -1.703060E+01 -1.932985E+01 -1.703060E+01 +9.446776E+02 
 +4.020837E+02 -6.461527E+00 -1.858013E+01 -6.461527E+00 +3.744510E+02 -1.793956E+01 -1.858013E+01 -1.793956E+01 +9.356008E+02 
 +4.122741E+02 -2.434049E+01 -1.120990E+01 -2.434049E+01 +3.969463E+02 -1.981304E+00 -1.120990E+01 -1.981304E+00 +9.689784E+02 
 +4.012942E+02 -1.498901E+01 -1.027444E+01 -1.498901E+01 +4.015588E+02 +1.089862E+01 -1.027444E+01 +1.089862E+01 +9.852282E+02 
 +4.066006E+02 -1.782762E+01 -1.068847E+01 -1.782762E+01 +3.851899E+02 +6.682828E+00 -1.068847E+01 +6.682828E+00 +9.819290E+02 
 +3.705114E+02 +3.924939E-01 -9.438990E+00 +3.924939E-01 +3.437221E+02 -4.315212E+00 -9.438990E+00 -4.315212E+00 +9.692556E+02 
 +3.681709E+02 +1.685228E+01 -3.984747E+00 +1.685228E+01 +3.550502E+02 -5.871074E+00 -3.984747E+00 -5.871074E+00 +9.710842E+02 
 +3.346075E+02 -4.417823E+00 -3.628778E+00 -4.417823E+00 +3.744210E+02 -3.959113E+00 -3.628778E+00 -3.959113E+00 +9.731748E+02 
 +3.248373E+02 -1.362254E+01 -7.599300E+00 -1.362254E+01 +3.776709E+02 -6.160165E+00 -7.599300E+00 -6.160165E+00 +9.775739E+02 
 +3.243695E+02 -9.499116E+00 -7.192851E+00 -9.499116E+00 +3.653750E+02 -5.941489E+00 -7.192851E+00 -5.941489E+00 +9.727006E+02 
 +3.712296E+02 -2.661384E+01 -6.463618E+00 -2.661384E+01 +3.666385E+02 +4.477504E+00 -6.463618E+00 +4.477504E+00 +9.819029E+02 
 +3.729739E+02 -2.854157E+01 -7.001548E-01 -2.854157E+01 +3.462548E+02 +8.360593E+00 -7.001548E-01 +8.360593E+00 +9.725507E+02 
 +3.869568E+02 -2.958486E+01 +5.340777E+00 -2.958486E+01 +3.647862E+02 +7.278846E+00 +5.340777E+00 +7.278846E+00 +9.769855E+02 
 +3.663764E+02 -2.408026E+01 +1.229746E+01 -2.408026E+01 +3.691944E+02 +4.356476E+00 +1.229746E+01 +4.356476E+00 +9.738616E+02 
 +3.253068E+02 -2.033644E+01 +1.581077E+01 -2.033644E+01 +3.526737E+02 +1.180052E+00 +1.581077E+01 +1.180052E+00 +9.678821E+02 
 +3.350506E+02 -1.839456E+01 +1.764649E+01 -1.839456E+01 +3.625299E+02 -2.176658E+00 +1.764649E+01 -2.176658E+00 +9.804785E+02 
 +3.395787E+02 -1.946566E+01 +2.035939E+01 -1.946566E+01 +3.666274E+02 -4.513858E+00 +2.035939E+01 -4.513858E+00 +9.813146E+02 
 +3.517282E+02 -2.091643E+01 +1.948704E+01 -2.091643E+01 +3.703504E+02 -4.014815E-01 +1.948704E+01 -4.014815E-01 +9.746944E+02 
 +3.840417E+02 -1.118575E+01 +7.518577E+00 -1.118575E+01 +3.756108E+02 -7.771632E+00 +7.518577E+00 -7.771632E+00 +9.591794E+02 
 +4.441543E+02 +3.457818E+00 -2.753282E+00 +3.457818E+00 +4.260005E+02 -1.887967E+01 -2.753282E+00 -1.887967E+01 +9.714087E+02 
 +4.084939E+02 +1.516889E+01 -1.390788E+01 +1.516889E+01 +4.293654E+02 -1.132682E+01 -1.390788E+01 -1.132682E+01 +9.658084E+02 
 +3.833934E+02 +1.491393E+01 -1.085238E+01 +1.491393E+01 +3.983998E+02 -5.376801E+00 -1.085238E+01 -5.376801E+00 +9.538309E+02 
 +4.002905E+02 -2.008458E+00 -7.853596E+00 -2.008458E+00 +3.843102E+02 -4.867733E+00 -7.853596E+00 -4.867733E+00 +9.544512E+02 
 +4.224829E+02 -2.129527E+01 -9.463203E+00 -2.129527E+01 +3.895699E+02 +7.540187E+00 -9.463203E+00 +7.540187E+00 +9.654915E+02 
 +4.252729E+02 -2.676275E+01 -1.393260E+01 -2.676275E+01 +3.974512E+02 +1.718021E+01 -1.393260E+01 +1.718021E+01 +9.768307E+02 
 +4.134399E+02 -2.025804E+01 -1.496395E+01 -2.025804E+01 +3.870058E+02 +9.012658E+00 -1.496395E+01 +9.012658E+00 +9.849948E+02 
 +4.014076E+02 -2.338830E+01 -6.436979E+00 -2.338830E+01 +3.791271E+02 -2.170529E+00 -6.436979E+00 -2.170529E+00 +9.837138E+02 
 +3.657580E+02 +9.422475E+00 +7.891063E+00 +9.422475E+00 +3.576498E+02 -4.428965E+00 +7.891063E+00 -4.428965E+00 +9.626679E+02 
 +3.378879E+02 +6.336574E+00 +6.836250E+00 +6.336574E+00 +3.667343E+02 -2.868341E+00 +6.836250E+00 -2.868341E+00 +9.578501E+02 
 +3.214706E+02 -3.736919E+00 -1.454326E+00 -3.736919E+00 +3.807960E+02 -5.619392E+00 -1.454326E+00 -5.619392E+00 +9.602998E+02 
 +3.237873E+02 -3.713976E+00 -3.719040E+00 -3.713976E+00 +3.820266E+02 -6.974943E+00 -3.719040E+00 -6.974943E+00 +9.602946E+02 
 +3.453798E+02 -1.131483E+01 -8.538192E+00 -1.131483E+01 +3.913648E+02 -2.328854E+00 -8.538192E+00 -2.328854E+00 +9.668505E+02 
 +3.720239E+02 -1.546463E+01 -6.640940E+00 -1.546463E+01 +3.959812E+02 +5.836967E-01 -6.640940E+00 +5.836967E-01 +9.707439E+02 
 +3.817451E+02 -1.220077E+01 +1.051344E+00 -1.220077E+01 +3.949409E+02 +1.612907E+00 +1.051344E+00 +1.612907E+00 +9.667440E+02 
 +3.646839E+02 -1.837650E+01 +8.348355E+00 -1.837650E+01 +3.796836E+02 +3.467031E+00 +8.348355E+00 +3.467031E+00 +9.586085E+02 
 +3.627324E+02 -1.372056E+01 +1.290181E+01 -1.372056E+01 +3.660510E+02 +3.016185E+00 +1.290181E+01 +3.016185E+00 +9.659848E+02 
 +3.525685E+02 -1.684089E+01 +1.815445E+01 -1.684089E+01 +3.658020E+02 +1.632648E+00 +1.815445E+01 +1.632648E+00 +9.733355E+02 
 +3.552947E+02 -1.783101E+01 +1.874913E+01 -1.783101E+01 +3.724144E+02 +7.283496E-01 +1.874913E+01 +7.283496E-01 +9.751395E+02 
 +3.560047E+02 -1.692586E+01 +1.375585E+01 -1.692586E+01 +3.733292E+02 +3.376322E+00 +1.375585E+01 +3.376322E+00 +9.681769E+02 
 +3.744060E+02 -5.509443E+00 +5.054645E+00 -5.509443E+00 +3.767717E+02 -2.565759E-01 +5.054645E+00 -2.565759E-01 +9.574859E+02 
 +4.318503E+02 -1.109343E+00 -1.033890E+00 -1.109343E+00 +3.877094E+02 -4.596255E+00 -1.033890E+00 -4.596255E+00 +9.508001E+02 
 +4.200766E+02 -9.217217E-01 -1.261655E+01 -9.217217E-01 +3.899148E+02 +2.723610E-01 -1.261655E+01 +2.723610E-01 +9.451175E+02 
 +3.745569E+02 +9.018231E+00 -1.058028E+01 +9.018231E+00 +3.880154E+02 -8.865267E-01 -1.058028E+01 -8.865267E-01 +9.522406E+02 
 +3.639472E+02 +5.758561E+00 -7.559335E+00 +5.758561E+00 +3.687935E+02 +2.599748E+00 -7.559335E+00 +2.599748E+00 +9.519982E+02 
 +4.125460E+02 -1.422147E+01 -1.242175E+01 -1.422147E+01 +3.808895E+02 +1.978014E+01 -1.242175E+01 +1.978014E+01 +9.630384E+02 
 +4.164438E+02 -2.107934E+01 -1.745053E+01 -2.107934E+01 +3.817362E+02 +2.316810E+01 -1.745053E+01 +2.316810E+01 +9.697877E+02 
 +4.056347E+02 -1.598496E+01 -1.814156E+01 -1.598496E+01 +3.811678E+02 +1.135564E+01 -1.814156E+01 +1.135564E+01 +9.811583E+02 
 +3.944502E+02 -1.712249E+01 -6.868312E+00 -1.712249E+01 +3.797562E+02 +1.998953E-01 -6.868312E+00 +1.998953E-01 +9.755695E+02 
 +3.758864E+02 +1.921970E+01 +1.241986E+01 +1.921970E+01 +3.744087E+02 -4.046606E+00 +1.241986E+01 -4.046606E+00 +9.560568E+02 
 +3.702256E+02 +6.938717E+00 +1.240281E+01 +6.938717E+00 +3.871559E+02 -2.559879E+00 +1.240281E+01 -2.559879E+00 +9.556370E+02 
 +3.182079E+02 -1.048278E+01 +2.142125E+00 -1.048278E+01 +3.745271E+02 -5.876794E+00 +2.142125E+00 -5.876794E+00 +9.469945E+02 
 +3.294061E+02 -1.125822E+01 +2.953848E+00 -1.125822E+01 +3.859594E+02 -5.114642E+00 +2.953848E+00 -5.114642E+00 +9.550131E+02 
 +3.277679E+02 -1.418755E+01 -5.551305E-01 -1.418755E+01 +3.848674E+02 -2.610876E+00 -5.551305E-01 -2.610876E+00 +9.525334E+02 
 +3.357772E+02 -1.551868E+01 -3.495581E+00 -1.551868E+01 +3.914699E+02 -5.755812E+00 -3.495581E+00 -5.755812E+00 +9.534551E+02 
 +3.361042E+02 -8.865976E+00 -2.755229E+00 -8.865976E+00 +3.802701E+02 -3.492730E+00 -2.755229E+00 -3.492730E+00 +9.348834E+02 
 +3.657134E+02 -2.070103E+01 -6.109099E-01 -2.070103E+01 +3.752852E+02 +3.575092E+00 -6.109099E-01 +3.575092E+00 +9.262688E+02 
 +3.810657E+02 -7.000584E+00 +6.203989E+00 -7.000584E+00 +3.721782E+02 +4.494741E+00 +6.203989E+00 +4.494741E+00 +9.383186E+02 
 +3.914509E+02 +3.230145E+00 +1.295414E+01 +3.230145E+00 +3.850698E+02 +3.480233E+00 +1.295414E+01 +3.480233E+00 +9.658046E+02 
 +3.697768E+02 +3.804248E-01 +1.206703E+01 +3.804248E-01 +3.825289E+02 +1.102917E+00 +1.206703E+01 +1.102917E+00 +9.736687E+02 
 +3.623441E+02 -3.550760E+00 +5.879112E+00 -3.550760E+00 +3.785447E+02 +4.356435E+00 +5.879112E+00 +4.356435E+00 +9.778390E+02 
 +3.623178E+02 -1.092477E+00 +4.759822E+00 -1.092477E+00 +3.788274E+02 +4.219591E+00 +4.759822E+00 +4.219591E+00 +9.715448E+02 
 +4.159842E+02 +3.324157E+00 +2.563737E+00 +3.324157E+00 +4.017574E+02 +2.276982E+00 +2.563737E+00 +2.276982E+00 +9.667058E+02 
 +4.183370E+02 -4.026210E-01 -7.370088E+00 -4.026210E-01 +3.793152E+02 +2.168440E+00 -7.370088E+00 +2.168440E+00 +9.479645E+02 
 +4.042306E+02 -7.261262E+00 -9.881936E+00 -7.261262E+00 +3.589130E+02 -5.007769E+00 -9.881936E+00 -5.007769E+00 +9.519230E+02 
 +3.485344E+02 -1.831110E+00 -1.088757E+01 -1.831110E+00 +3.469919E+02 +2.018448E+00 -1.088757E+01 +2.018448E+00 +9.474515E+02 
 +3.919532E+02 -1.461459E+01 -1.342908E+01 -1.461459E+01 +3.737776E+02 +2.121828E+01 -1.342908E+01 +2.121828E+01 +9.682386E+02 
 +4.092095E+02 -2.048338E+01 -1.852657E+01 -2.048338E+01 +3.751243E+02 +2.226658E+01 -1.852657E+01 +2.226658E+01 +9.743131E+02 
 +4.022972E+02 -1.560878E+01 -1.596376E+01 -1.560878E+01 +3.711576E+02 +1.259351E+01 -1.596376E+01 +1.259351E+01 +9.792091E+02 
 +4.043302E+02 -1.424262E+01 -5.415066E+00 -1.424262E+01 +3.900008E+02 -1.782383E+00 -5.415066E+00 -1.782383E+00 +9.801715E+02 
 +3.868619E+02 +2.579175E+01 +1.307996E+01 +2.579175E+01 +4.087883E+02 -8.896626E+00 +1.307996E+01 -8.896626E+00 +9.623385E+02 
 +3.809691E+02 +8.761643E+00 +1.273942E+01 +8.761643E+00 +4.091897E+02 -4.525751E+00 +1.273942E+01 -4.525751E+00 +9.568970E+02 
 +3.331774E+02 -7.950560E+00 +4.697764E+00 -7.950560E+00 +3.767984E+02 -5.685448E+00 +4.697764E+00 -5.685448E+00 +9.468590E+02 
 +3.320637E+02 -1.100138E+01 +4.491691E+00 -1.100138E+01 +3.815306E+02 -5.164326E+00 +4.491691E+00 -5.164326E+00 +9.523702E+02 
 +3.246511E+02 -1.098585E+01 +1.943431E-01 -1.098585E+01 +3.829788E+02 -4.523060E+00 +1.943431E-01 -4.523060E+00 +9.486283E+02 
 +3.128397E+02 -1.011040E+01 -1.267635E+00 -1.011040E+01 +3.819470E+02 -4.156118E+00 -1.267635E+00 -4.156118E+00 +9.327894E+02 
 +3.154912E+02 +2.781244E-01 -3.325403E+00 +2.781244E-01 +3.724292E+02 +3.109112E+00 -3.325403E+00 +3.109112E+00 +9.018222E+02 
 +3.922897E+02 +1.591019E+00 -5.907711E+00 +1.591019E+00 +4.036991E+02 +6.359030E+00 -5.907711E+00 +6.359030E+00 +9.105118E+02 
 +4.053845E+02 +8.125481E+00 +8.161420E-01 +8.125481E+00 +4.015921E+02 +1.084673E+01 +8.161420E-01 +1.084673E+01 +9.111844E+02 
 +4.283578E+02 +1.678567E+01 +5.045716E+00 +1.678567E+01 +4.126643E+02 +1.303598E+01 +5.045716E+00 +1.303598E+01 +9.439142E+02 
 +3.615927E+02 -1.073563E+00 +6.437515E+00 -1.073563E+00 +3.818279E+02 +1.128088E+01 +6.437515E+00 +1.128088E+01 +9.616344E+02 
 +3.603503E+02 -3.312143E+00 +6.120640E+00 -3.312143E+00 +3.842745E+02 +8.728524E+00 +6.120640E+00 +8.728524E+00 +9.812198E+02 
 +3.399851E+02 +3.222442E-01 +1.133400E+01 +3.222442E-01 +3.652082E+02 +4.376871E+00 +1.133400E+01 +4.376871E+00 +9.596568E+02 
 +4.006266E+02 +9.956064E+00 +9.224769E+00 +9.956064E+00 +3.856982E+02 +2.888769E+00 +9.224769E+00 +2.888769E+00 +9.633462E+02 
 +4.004421E+02 +8.934477E+00 +2.462979E+00 +8.934477E+00 +3.792241E+02 +5.473169E-01 +2.462979E+00 +5.473169E-01 +9.541608E+02 
 +4.086034E+02 +5.035230E-01 -4.274439E+00 +5.035230E-01 +3.765126E+02 -4.695793E+00 -4.274439E+00 -4.695793E+00 +9.628357E+02 
 +3.742408E+02 -8.265812E+00 -9.690386E+00 -8.265812E+00 +3.450352E+02 -2.231563E-01 -9.690386E+00 -2.231563E-01 +9.578418E+02 
 +3.675222E+02 -2.111223E+01 -1.236560E+01 -2.111223E+01 +3.452350E+02 +1.742153E+01 -1.236560E+01 +1.742153E+01 +9.627161E+02 
 +3.996945E+02 -2.201473E+01 -1.600700E+01 -2.201473E+01 +3.711685E+02 +2.171268E+01 -1.600700E+01 +2.171268E+01 +9.772753E+02 
 +3.956223E+02 -1.500562E+01 -6.320957E+00 -1.500562E+01 +3.679834E+02 +1.137645E+01 -6.320957E+00 +1.137645E+01 +9.798782E+02 
 +4.044234E+02 -1.204624E+01 +2.910890E+00 -1.204624E+01 +3.971575E+02 -7.506136E-01 +2.910890E+00 -7.506136E-01 +9.870463E+02 
 +3.979790E+02 +2.671467E+01 +1.305237E+01 +2.671467E+01 +4.229488E+02 -1.463854E+01 +1.305237E+01 -1.463854E+01 +9.772528E+02 
 +3.687915E+02 -1.490772E+01 +8.374880E+00 -1.490772E+01 +4.034892E+02 -1.565965E+01 +8.374880E+00 -1.565965E+01 +9.622896E+02 
 +3.375509E+02 -2.336257E+01 +6.871279E+00 -2.336257E+01 +3.647186E+02 -1.158555E+01 +6.871279E+00 -1.158555E+01 +9.509392E+02 
 +3.253262E+02 -2.784617E+01 +8.338168E+00 -2.784617E+01 +3.573952E+02 -6.654919E+00 +8.338168E+00 -6.654919E+00 +9.467742E+02 
 +3.160127E+02 -2.414211E+01 +4.017005E+00 -2.414211E+01 +3.573124E+02 -4.951292E+00 +4.017005E+00 -4.951292E+00 +9.409465E+02 
 +3.001033E+02 -1.724474E+01 +1.153759E+00 -1.724474E+01 +3.543340E+02 +1.955644E-01 +1.153759E+00 +1.955644E-01 +9.123263E+02 
 +3.561918E+02 -1.029543E+00 -1.749254E+00 -1.029543E+00 +3.922537E+02 +6.050592E+00 -1.749254E+00 +6.050592E+00 +9.025066E+02 
 +4.017613E+02 -1.583384E+00 -1.711938E+00 -1.583384E+00 +4.207748E+02 +8.161338E+00 -1.711938E+00 +8.161338E+00 +9.141372E+02 
 +4.144809E+02 -3.256429E+00 +1.357704E+00 -3.256429E+00 +4.191744E+02 +9.878757E+00 +1.357704E+00 +9.878757E+00 +9.112047E+02 
 +4.200949E+02 +1.585471E+00 +5.453747E+00 +1.585471E+00 +4.078881E+02 +9.316929E+00 +5.453747E+00 +9.316929E+00 +9.204116E+02 
 +3.701885E+02 -7.836898E+00 +1.316812E+01 -7.836898E+00 +3.816633E+02 +8.856676E+00 +1.316812E+01 +8.856676E+00 +9.526774E+02 
 +3.693171E+02 +8.057902E-01 +1.509458E+01 +8.057902E-01 +3.908666E+02 +6.357329E+00 +1.509458E+01 +6.357329E+00 +9.926835E+02 
 +3.454756E+02 +3.113457E+00 +1.787510E+01 +3.113457E+00 +3.740601E+02 +6.269074E+00 +1.787510E+01 +6.269074E+00 +9.746537E+02 
 +4.021416E+02 +1.309440E+01 +2.000265E+01 +1.309440E+01 +3.964388E+02 +7.965670E+00 +2.000265E+01 +7.965670E+00 +9.790408E+02 
 +3.984744E+02 +8.462018E+00 +1.923193E+01 +8.462018E+00 +3.872648E+02 +4.333552E+00 +1.923193E+01 +4.333552E+00 +9.700203E+02 
 +3.896025E+02 +4.528983E+00 +6.714823E+00 +4.528983E+00 +3.788924E+02 +1.041650E+00 +6.714823E+00 +1.041650E+00 +9.654132E+02 
 +3.891726E+02 -3.109567E+00 -3.893022E+00 -3.109567E+00 +3.704941E+02 +1.654990E+00 -3.893022E+00 +1.654990E+00 +9.712157E+02 
 +3.652340E+02 -1.602548E+01 -6.933480E+00 -1.602548E+01 +3.505925E+02 +1.204857E+01 -6.933480E+00 +1.204857E+01 +9.674052E+02 
 +3.838175E+02 -2.652577E+01 -6.581785E+00 -2.652577E+01 +3.547294E+02 +1.612100E+01 -6.581785E+00 +1.612100E+01 +9.724979E+02 
 +3.635192E+02 -7.034134E+00 +3.118163E+00 -7.034134E+00 +3.548436E+02 +8.549837E+00 +3.118163E+00 +8.549837E+00 +9.757868E+02 
 +3.890557E+02 -1.024289E+01 +6.109383E+00 -1.024289E+01 +3.929713E+02 -1.429959E+00 +6.109383E+00 -1.429959E+00 +9.902876E+02 
 +3.960434E+02 +2.677696E+01 +2.925445E+00 +2.677696E+01 +4.038679E+02 -1.235416E+01 +2.925445E+00 -1.235416E+01 +9.909541E+02 
 +3.492074E+02 -2.124463E+01 -2.262277E+00 -2.124463E+01 +3.771267E+02 -1.989875E+01 -2.262277E+00 -1.989875E+01 +9.706921E+02 
 +3.414286E+02 -2.582877E+01 -2.676058E-01 -2.582877E+01 +3.631702E+02 -1.563395E+01 -2.676058E-01 -1.563395E+01 +9.557000E+02 
 +3.275223E+02 -2.555962E+01 +5.855281E+00 -2.555962E+01 +3.483942E+02 -3.599479E+00 +5.855281E+00 -3.599479E+00 +9.436900E+02 
 +3.097454E+02 -2.434468E+01 +4.411534E+00 -2.434468E+01 +3.393274E+02 -1.230553E+00 +4.411534E+00 -1.230553E+00 +9.395765E+02 
 +3.297494E+02 -1.184912E+01 +7.258901E+00 -1.184912E+01 +3.616954E+02 -4.562309E+00 +7.258901E+00 -4.562309E+00 +9.343481E+02 
 +4.062831E+02 -3.078402E+00 +3.609977E+00 -3.078402E+00 +4.209697E+02 -3.323410E+00 +3.609977E+00 -3.323410E+00 +9.410724E+02 
 +4.072378E+02 -8.348932E+00 +1.393064E+00 -8.348932E+00 +4.201477E+02 +8.365565E-01 +1.393064E+00 +8.365565E-01 +9.313462E+02 
 +4.087347E+02 -6.392891E+00 +3.594946E+00 -6.392891E+00 +4.178227E+02 +6.238125E+00 +3.594946E+00 +6.238125E+00 +9.278198E+02 
 +4.123178E+02 -8.614558E+00 +8.204871E+00 -8.614558E+00 +4.095929E+02 +8.276696E+00 +8.204871E+00 +8.276696E+00 +9.238466E+02 
 +3.929277E+02 -1.474997E+01 +1.586756E+01 -1.474997E+01 +3.918649E+02 +3.687930E+00 +1.586756E+01 +3.687930E+00 +9.357014E+02 
 +3.663930E+02 -1.227474E+01 +1.718198E+01 -1.227474E+01 +3.853155E+02 +2.177076E+00 +1.718198E+01 +2.177076E+00 +9.617491E+02 
 +3.670089E+02 -6.347719E+00 +1.903712E+01 -6.347719E+00 +3.854976E+02 +9.916901E+00 +1.903712E+01 +9.916901E+00 +9.687078E+02 
 +3.962678E+02 +9.723122E+00 +2.045537E+01 +9.723122E+00 +3.970096E+02 +1.352784E+01 +2.045537E+01 +1.352784E+01 +9.774307E+02 
 +3.953802E+02 +1.188146E+01 +2.418443E+01 +1.188146E+01 +3.972708E+02 +8.225816E+00 +2.418443E+01 +8.225816E+00 +9.819503E+02 
 +3.984941E+02 +4.186283E+00 +1.580801E+01 +4.186283E+00 +3.859430E+02 +7.850601E+00 +1.580801E+01 +7.850601E+00 +9.765499E+02 
 +3.758750E+02 +1.917512E+00 +5.722749E+00 +1.917512E+00 +3.632058E+02 +6.503877E+00 +5.722749E+00 +6.503877E+00 +9.676378E+02 
 +3.591236E+02 -5.743210E+00 +4.912547E+00 -5.743210E+00 +3.575905E+02 +8.962447E+00 +4.912547E+00 +8.962447E+00 +9.673287E+02 
 +3.614866E+02 -2.266235E+01 +6.582226E+00 -2.266235E+01 +3.493700E+02 +1.160641E+01 +6.582226E+00 +1.160641E+01 +9.681133E+02 
 +3.413179E+02 +2.560232E+01 +8.323593E+00 +2.560232E+01 +3.655975E+02 +6.196097E+00 +8.323593E+00 +6.196097E+00 +9.754404E+02 
 +3.608650E+02 +1.919725E+01 +3.991214E-01 +1.919725E+01 +4.008918E+02 -5.595679E+00 +3.991214E-01 -5.595679E+00 +9.940180E+02 
 +3.880679E+02 +2.869053E+01 -9.512050E+00 +2.869053E+01 +4.004487E+02 -1.254912E+01 -9.512050E+00 -1.254912E+01 +1.005292E+03 
 +3.705327E+02 -4.635408E+00 -1.247276E+01 -4.635408E+00 +3.786286E+02 -2.297960E+01 -1.247276E+01 -2.297960E+01 +9.870797E+02 
 +3.464736E+02 -1.501835E+01 -4.010673E+00 -1.501835E+01 +3.677530E+02 -1.611035E+01 -4.010673E+00 -1.611035E+01 +9.606002E+02 
 +3.268756E+02 -1.105932E+01 +3.808105E+00 -1.105932E+01 +3.428124E+02 +9.797128E-01 +3.808105E+00 +9.797128E-01 +9.518885E+02 
 +3.280339E+02 -6.789097E+00 +3.625503E+00 -6.789097E+00 +3.425842E+02 -7.636520E-01 +3.625503E+00 -7.636520E-01 +9.525036E+02 
 +3.544045E+02 +1.774373E+01 +1.073730E+01 +1.774373E+01 +3.552329E+02 -3.423567E+00 +1.073730E+01 -3.423567E+00 +9.451563E+02 
 +3.714474E+02 +1.743488E+01 +8.531703E+00 +1.743488E+01 +3.664030E+02 -1.340060E+00 +8.531703E+00 -1.340060E+00 +9.354556E+02 
 +4.053087E+02 -6.631026E-01 +1.848300E+00 -6.631026E-01 +4.085664E+02 -1.271149E+00 +1.848300E+00 -1.271149E+00 +9.479352E+02 
 +4.108345E+02 -6.797264E+00 +4.696798E+00 -6.797264E+00 +4.223025E+02 +9.337594E-01 +4.696798E+00 +9.337594E-01 +9.477485E+02 
 +4.053498E+02 -7.858933E+00 +9.019297E+00 -7.858933E+00 +4.125292E+02 +1.387510E+00 +9.019297E+00 +1.387510E+00 +9.304555E+02 
 +4.023217E+02 -1.355731E+01 +9.558681E+00 -1.355731E+01 +4.086054E+02 +2.624023E+00 +9.558681E+00 +2.624023E+00 +9.236494E+02 
 +3.845100E+02 -4.081058E+00 +7.859846E+00 -4.081058E+00 +3.985165E+02 +6.055347E+00 +7.859846E+00 +6.055347E+00 +9.202089E+02 
 +3.927145E+02 +6.525303E-01 +1.347315E+01 +6.525303E-01 +4.103929E+02 +7.875060E+00 +1.347315E+01 +7.875060E+00 +9.362854E+02 
 +3.938440E+02 +8.221252E+00 +1.451860E+01 +8.221252E+00 +4.155238E+02 +4.661852E+00 +1.451860E+01 +4.661852E+00 +9.654825E+02 
 +3.817276E+02 +1.371460E+00 +1.770848E+01 +1.371460E+00 +3.908003E+02 +1.102343E+01 +1.770848E+01 +1.102343E+01 +9.748316E+02 
 +3.810602E+02 -1.139818E+01 +1.075185E+01 -1.139818E+01 +3.655004E+02 +1.375775E+01 +1.075185E+01 +1.375775E+01 +9.655874E+02 
 +3.648683E+02 -9.481237E+00 +6.601545E+00 -9.481237E+00 +3.443173E+02 +8.178389E+00 +6.601545E+00 +8.178389E+00 +9.553855E+02 
 +3.583995E+02 -9.555884E+00 +1.190058E+01 -9.555884E+00 +3.390730E+02 +8.782376E+00 +1.190058E+01 +8.782376E+00 +9.555673E+02 
 +3.630807E+02 -1.354557E+01 +1.830953E+01 -1.354557E+01 +3.540077E+02 +1.136357E+01 +1.830953E+01 +1.136357E+01 +9.680492E+02 
 +3.500596E+02 +1.119594E+01 +4.940800E+00 +1.119594E+01 +4.051169E+02 +6.446193E+00 +4.940800E+00 +6.446193E+00 +9.751673E+02 
 +3.506703E+02 +1.012303E+01 +2.939249E-01 +1.012303E+01 +4.091529E+02 -4.728372E+00 +2.939249E-01 -4.728372E+00 +9.863067E+02 
 +3.807853E+02 +2.383726E+01 -1.284044E+01 +2.383726E+01 +3.894868E+02 -1.035500E+01 -1.284044E+01 -1.035500E+01 +9.957300E+02 
 +3.543821E+02 +1.359094E+01 -1.381969E+01 +1.359094E+01 +3.484176E+02 -1.701108E+01 -1.381969E+01 -1.701108E+01 +9.613785E+02 
 +3.405466E+02 -1.483642E+01 +2.960057E+00 -1.483642E+01 +3.478196E+02 -1.080110E+01 +2.960057E+00 -1.080110E+01 +9.445305E+02 
 +3.478659E+02 -3.917405E+00 +4.707399E+00 -3.917405E+00 +3.516568E+02 +2.925561E+00 +4.707399E+00 +2.925561E+00 +9.592797E+02 
 +3.608918E+02 +1.290228E+01 +7.078727E+00 +1.290228E+01 +3.593524E+02 +2.882923E+00 +7.078727E+00 +2.882923E+00 +9.637707E+02 
 +3.597293E+02 +2.045335E+01 +1.063778E+01 +2.045335E+01 +3.612464E+02 +2.066517E+00 +1.063778E+01 +2.066517E+00 +9.466465E+02 
 +3.494260E+02 +2.010269E+01 +8.276609E+00 +2.010269E+01 +3.458831E+02 +4.313962E-01 +8.276609E+00 +4.313962E-01 +9.301629E+02 
 +3.602879E+02 +1.758527E+01 +4.872183E+00 +1.758527E+01 +3.593826E+02 -6.680863E-01 +4.872183E+00 -6.680863E-01 +9.331494E+02 
 +4.031955E+02 +9.640223E-01 +2.903967E+00 +9.640223E-01 +4.135734E+02 +4.077999E-01 +2.903967E+00 +4.077999E-01 +9.531806E+02 
 +4.085978E+02 -6.731473E+00 +4.386908E+00 -6.731473E+00 +4.226911E+02 +3.293494E+00 +4.386908E+00 +3.293494E+00 +9.422514E+02 
 +4.026980E+02 -8.136394E+00 +2.770874E+00 -8.136394E+00 +4.143418E+02 +7.138890E+00 +2.770874E+00 +7.138890E+00 +9.230087E+02 
 +4.014931E+02 -1.197637E+01 +1.815457E-01 -1.197637E+01 +4.077914E+02 +1.420515E+01 +1.815457E-01 +1.420515E+01 +9.194176E+02 
 +3.654613E+02 -1.732948E+01 +1.302469E+01 -1.732948E+01 +3.716566E+02 +1.385871E+01 +1.302469E+01 +1.385871E+01 +9.229091E+02 
 +3.556208E+02 -1.182942E+01 +1.394106E+01 -1.182942E+01 +3.569288E+02 +7.317610E+00 +1.394106E+01 +7.317610E+00 +9.436434E+02 
 +3.579065E+02 -1.327849E+01 +9.326191E+00 -1.327849E+01 +3.473908E+02 +1.016050E+01 +9.326191E+00 +1.016050E+01 +9.553140E+02 
 +3.641093E+02 -1.258685E+01 +1.848466E+00 -1.258685E+01 +3.419572E+02 +1.027706E+01 +1.848466E+00 +1.027706E+01 +9.548039E+02 
 +3.671739E+02 -6.693531E+00 +3.491629E+00 -6.693531E+00 +3.401381E+02 +7.991554E+00 +3.491629E+00 +7.991554E+00 +9.529739E+02 
 +3.658180E+02 -8.898936E+00 +8.689256E+00 -8.898936E+00 +3.375320E+02 +9.426097E+00 +8.689256E+00 +9.426097E+00 +9.538300E+02 
 +3.744073E+02 -1.557725E+01 +1.240204E+01 -1.557725E+01 +3.745187E+02 +1.140808E+01 +1.240204E+01 +1.140808E+01 +9.696379E+02 
 +3.629945E+02 +1.491534E+01 -1.594612E+00 +1.491534E+01 +4.250606E+02 +1.456476E+00 -1.594612E+00 +1.456476E+00 +9.772657E+02 
 +3.716555E+02 +1.216762E+01 +1.323762E-02 +1.216762E+01 +4.131676E+02 -3.020578E+00 +1.323762E-02 -3.020578E+00 +9.855492E+02 
 +3.960558E+02 +9.610131E+00 -8.472355E+00 +9.610131E+00 +4.165729E+02 -4.618228E+00 -8.472355E+00 -4.618228E+00 +9.906450E+02 
 +3.754354E+02 +1.166006E+01 -1.608656E+01 +1.166006E+01 +3.819561E+02 -7.204917E+00 -1.608656E+01 -7.204917E+00 +9.512614E+02 
 +3.581120E+02 +2.723862E+00 -1.733716E+00 +2.723862E+00 +3.629610E+02 -1.248901E+01 -1.733716E+00 -1.248901E+01 +9.183852E+02 
 +3.898070E+02 +5.459134E+00 +4.556579E+00 +5.459134E+00 +3.932766E+02 -3.344225E+00 +4.556579E+00 -3.344225E+00 +9.460644E+02 
 +3.651254E+02 +1.285190E+01 +3.130321E+00 +1.285190E+01 +3.759002E+02 +2.752708E+00 +3.130321E+00 +2.752708E+00 +9.543009E+02 
 +3.452145E+02 +1.963912E+01 +5.722786E+00 +1.963912E+01 +3.504825E+02 +3.410386E+00 +5.722786E+00 +3.410386E+00 +9.418771E+02 
 +3.537088E+02 +2.149725E+01 +2.411188E+00 +2.149725E+01 +3.518391E+02 +3.486907E+00 +2.411188E+00 +3.486907E+00 +9.393809E+02 
 +3.486145E+02 +2.506523E+01 +2.345105E+00 +2.506523E+01 +3.459214E+02 -6.952628E-01 +2.345105E+00 -6.952628E-01 +9.355311E+02 
 +3.583364E+02 +2.000061E+01 +2.173631E+00 +2.000061E+01 +3.623832E+02 -1.941433E+00 +2.173631E+00 -1.941433E+00 +9.409280E+02 
 +3.992370E+02 +7.379766E-01 -8.781758E-01 +7.379766E-01 +4.164048E+02 -7.585381E-01 -8.781758E-01 -7.585381E-01 +9.489675E+02 
 +4.118097E+02 -6.148160E+00 -1.849710E+00 -6.148160E+00 +4.271584E+02 +6.294634E+00 -1.849710E+00 +6.294634E+00 +9.293116E+02 
 +3.856008E+02 -1.267356E+01 +4.731430E+00 -1.267356E+01 +3.961299E+02 +1.452687E+01 +4.731430E+00 +1.452687E+01 +9.217661E+02 
 +3.495762E+02 -1.807233E+01 +1.836245E+01 -1.807233E+01 +3.614097E+02 +1.100115E+01 +1.836245E+01 +1.100115E+01 +9.381908E+02 
 +3.510937E+02 -1.067103E+01 +1.619337E+01 -1.067103E+01 +3.398656E+02 +1.003871E+00 +1.619337E+01 +1.003871E+00 +9.493070E+02 
 +3.698086E+02 -1.163706E+01 +3.596709E+00 -1.163706E+01 +3.372941E+02 +4.984055E+00 +3.596709E+00 +4.984055E+00 +9.618259E+02 
 +3.638262E+02 -9.069557E+00 +3.095764E+00 -9.069557E+00 +3.302828E+02 +4.843098E+00 +3.095764E+00 +4.843098E+00 +9.588109E+02 
 +3.520192E+02 -5.804194E+00 +6.927391E+00 -5.804194E+00 +3.281594E+02 +3.035814E+00 +6.927391E+00 +3.035814E+00 +9.470386E+02 
 +3.729589E+02 -7.522194E+00 +4.600403E+00 -7.522194E+00 +3.683408E+02 +4.051997E+00 +4.600403E+00 +4.051997E+00 +9.554960E+02 
 +3.838419E+02 +1.152598E+00 +9.717199E-01 +1.152598E+00 +4.237201E+02 +1.996789E+00 +9.717199E-01 +1.996789E+00 +9.736921E+02 
 +3.866532E+02 +1.795625E+01 -5.500994E-01 +1.795625E+01 +4.375092E+02 -7.001298E+00 -5.500994E-01 -7.001298E+00 +9.942585E+02 
 +4.069906E+02 +1.317715E+01 -2.938974E+00 +1.317715E+01 +4.400311E+02 -1.233864E+01 -2.938974E+00 -1.233864E+01 +1.014959E+03 
 +3.953682E+02 +2.259885E+01 -6.161168E+00 +2.259885E+01 +4.160537E+02 -1.303612E+01 -6.161168E+00 -1.303612E+01 +9.989337E+02 
 +4.117741E+02 +1.756974E+01 -1.557061E+01 +1.756974E+01 +4.103505E+02 -3.510817E+00 -1.557061E+01 -3.510817E+00 +9.781982E+02 
 +3.685895E+02 +6.155665E+00 -5.901911E+00 +6.155665E+00 +3.746392E+02 +3.205868E+00 -5.901911E+00 +3.205868E+00 +9.245104E+02 
 +4.004048E+02 -3.711151E-01 +3.782753E+00 -3.711151E-01 +3.978264E+02 +2.454130E+00 +3.782753E+00 +2.454130E+00 +9.339728E+02 
 +3.592270E+02 +6.026746E+00 -1.874609E+00 +6.026746E+00 +3.702795E+02 +9.064713E-01 -1.874609E+00 +9.064713E-01 +9.380342E+02 
 +3.461495E+02 +1.978069E+01 -5.671336E+00 +1.978069E+01 +3.524485E+02 +7.537731E+00 -5.671336E+00 +7.537731E+00 +9.414937E+02 
 +3.493939E+02 +2.408956E+01 -6.487116E+00 +2.408956E+01 +3.502247E+02 +8.770722E+00 -6.487116E+00 +8.770722E+00 +9.432183E+02 
 +3.550134E+02 +2.583932E+01 -4.644605E+00 +2.583932E+01 +3.586971E+02 +4.873062E+00 -4.644605E+00 +4.873062E+00 +9.485852E+02 
 +3.531970E+02 +2.483667E+01 -1.670153E+00 +2.483667E+01 +3.577065E+02 +2.062604E+00 -1.670153E+00 +2.062604E+00 +9.490370E+02 
 +3.638274E+02 +1.984859E+01 -9.742904E+00 +1.984859E+01 +3.640580E+02 +4.496271E+00 -9.742904E+00 +4.496271E+00 +9.409571E+02 
 +3.941774E+02 +5.522559E-01 -1.375822E+01 +5.522559E-01 +3.849550E+02 +5.799045E+00 -1.375822E+01 +5.799045E+00 +9.427916E+02 
 +3.669809E+02 -8.835092E+00 +9.954557E-01 -8.835092E+00 +3.641171E+02 +8.877948E+00 +9.954557E-01 +8.877948E+00 +9.455045E+02 
 +3.558451E+02 -7.035596E+00 +3.801225E+00 -7.035596E+00 +3.582618E+02 +4.061368E+00 +3.801225E+00 +4.061368E+00 +9.609422E+02 
 +3.400215E+02 -5.293809E+00 +8.153419E+00 -5.293809E+00 +3.334711E+02 -3.230937E+00 +8.153419E+00 -3.230937E+00 +9.583156E+02 
 +3.397231E+02 -1.159891E+01 +1.388297E+00 -1.159891E+01 +3.034196E+02 -5.521461E-01 +1.388297E+00 -5.521461E-01 +9.546013E+02 
 +3.648800E+02 -6.855520E+00 +1.698496E+00 -6.855520E+00 +3.309762E+02 -5.739086E+00 +1.698496E+00 -5.739086E+00 +9.580130E+02 
 +3.742851E+02 +3.415733E+00 +2.303081E+00 +3.415733E+00 +3.847793E+02 -1.084775E+01 +2.303081E+00 -1.084775E+01 +9.575650E+02 
 +3.965353E+02 +6.450724E+00 +1.113048E-01 +6.450724E+00 +4.311840E+02 -7.708239E+00 +1.113048E-01 -7.708239E+00 +9.668528E+02 
 +3.871090E+02 +1.250652E+01 +1.852569E+00 +1.250652E+01 +4.326271E+02 -5.567664E+00 +1.852569E+00 -5.567664E+00 +9.719364E+02 
 +3.877973E+02 +1.311643E+01 +1.252809E+00 +1.311643E+01 +4.163087E+02 -1.056539E+01 +1.252809E+00 -1.056539E+01 +1.011479E+03 
 +3.888067E+02 +3.679249E+00 -3.409363E+00 +3.679249E+00 +3.977486E+02 -8.844713E+00 -3.409363E+00 -8.844713E+00 +9.874031E+02 
 +3.967266E+02 +4.592131E+00 -4.750947E+00 +4.592131E+00 +3.900686E+02 -4.696620E+00 -4.750947E+00 -4.696620E+00 +9.449682E+02 
 +4.028472E+02 +4.576709E+00 -5.934553E+00 +4.576709E+00 +3.886204E+02 -7.117730E+00 -5.934553E+00 -7.117730E+00 +9.310873E+02 
 +3.915713E+02 +6.659633E+00 -5.270527E+00 +6.659633E+00 +3.924281E+02 -6.332397E+00 -5.270527E+00 -6.332397E+00 +9.336521E+02 
 +4.022242E+02 +3.434021E+00 +8.552702E+00 +3.434021E+00 +4.015396E+02 -4.833095E-01 +8.552702E+00 -4.833095E-01 +9.585518E+02 
 +3.854002E+02 +5.289944E+00 -2.953334E+00 +5.289944E+00 +3.902231E+02 +5.571580E+00 -2.953334E+00 +5.571580E+00 +9.685651E+02 
 +3.537836E+02 +1.194839E+01 -4.001509E+00 +1.194839E+01 +3.697689E+02 +4.046048E+00 -4.001509E+00 +4.046048E+00 +9.489853E+02 
 +3.396488E+02 +1.462196E+01 -2.974151E+00 +1.462196E+01 +3.503398E+02 +5.490448E+00 -2.974151E+00 +5.490448E+00 +9.405598E+02 
 +3.440280E+02 +2.011153E+01 -8.978770E+00 +2.011153E+01 +3.456651E+02 +7.780303E+00 -8.978770E+00 +7.780303E+00 +9.480168E+02 
 +3.474285E+02 +2.174786E+01 -6.773195E+00 +2.174786E+01 +3.432604E+02 +6.825766E+00 -6.773195E+00 +6.825766E+00 +9.519694E+02 
 +3.395783E+02 +1.230396E+01 -4.188193E+00 +1.230396E+01 +3.230755E+02 +6.335607E+00 -4.188193E+00 +6.335607E+00 +9.583293E+02 
 +3.557081E+02 -2.839438E+00 -4.746532E+00 -2.839438E+00 +3.246907E+02 +3.365641E+00 -4.746532E+00 +3.365641E+00 +9.758331E+02 
 +3.614429E+02 -5.723766E-01 -2.024326E+00 -5.723766E-01 +3.340323E+02 +4.743321E+00 -2.024326E+00 +4.743321E+00 +9.707525E+02 
 +3.623952E+02 +3.869414E-01 -1.025194E+01 +3.869414E-01 +3.502253E+02 +1.529779E+00 -1.025194E+01 +1.529779E+00 +9.681411E+02 
 +3.243502E+02 -1.466014E+01 -2.362441E+00 -1.466014E+01 +3.263692E+02 -4.939337E+00 -2.362441E+00 -4.939337E+00 +9.526350E+02 
 +3.428075E+02 -4.696815E+00 +3.264530E-01 -4.696815E+00 +3.351101E+02 -2.976016E+00 +3.264530E-01 -2.976016E+00 +9.604340E+02 
 +3.709507E+02 +4.807091E+00 +9.797316E-02 +4.807091E+00 +3.755906E+02 -8.630249E-01 +9.797316E-02 -8.630249E-01 +9.777618E+02 
 +3.801140E+02 +1.061316E+01 -6.282128E-01 +1.061316E+01 +3.933414E+02 -6.556317E+00 -6.282128E-01 -6.556317E+00 +9.779445E+02 
 +3.726329E+02 +8.115083E+00 -4.747373E+00 +8.115083E+00 +3.933424E+02 -8.878215E+00 -4.747373E+00 -8.878215E+00 +9.649596E+02 
 +3.946704E+02 +1.725448E+01 +5.028525E+00 +1.725448E+01 +4.233004E+02 -9.028813E+00 +5.028525E+00 -9.028813E+00 +9.913876E+02 
 +3.813521E+02 +1.893727E+00 +6.055281E+00 +1.893727E+00 +3.906851E+02 -2.943999E+00 +6.055281E+00 -2.943999E+00 +1.000710E+03 
 +3.769368E+02 +5.771187E+00 +1.127462E+00 +5.771187E+00 +3.898564E+02 -4.616684E+00 +1.127462E+00 -4.616684E+00 +9.961760E+02 
 +3.943819E+02 +7.541910E-01 -4.337355E+00 +7.541910E-01 +3.845273E+02 -5.817247E+00 -4.337355E+00 -5.817247E+00 +9.657256E+02 
 +4.219900E+02 +9.807501E+00 -4.578222E+00 +9.807501E+00 +3.946096E+02 -8.144188E+00 -4.578222E+00 -8.144188E+00 +9.498181E+02 
 +4.137446E+02 +3.832449E+00 +9.769891E+00 +3.832449E+00 +3.937287E+02 -4.942304E+00 +9.769891E+00 -4.942304E+00 +9.511854E+02 
 +4.082117E+02 -4.579535E+00 +1.795870E+01 -4.579535E+00 +4.026808E+02 -1.647105E+00 +1.795870E+01 -1.647105E+00 +9.635279E+02 
 +4.116573E+02 -2.908700E+00 +9.282809E+00 -2.908700E+00 +4.186097E+02 -1.500436E+00 +9.282809E+00 -1.500436E+00 +9.747407E+02 
 +3.737926E+02 +1.200687E+01 +6.142341E+00 +1.200687E+01 +3.900212E+02 +4.829600E+00 +6.142341E+00 +4.829600E+00 +9.605016E+02 
 +3.420052E+02 +2.003498E+01 +2.205707E+00 +2.003498E+01 +3.572689E+02 +1.125932E+01 +2.205707E+00 +1.125932E+01 +9.496766E+02 
 +3.239314E+02 +2.567126E+01 -8.210037E+00 +2.567126E+01 +3.294631E+02 +6.494168E+00 -8.210037E+00 +6.494168E+00 +9.456329E+02 
 +3.340096E+02 +1.624935E+01 -1.722542E+01 +1.624935E+01 +3.165681E+02 +8.572284E-01 -1.722542E+01 +8.572284E-01 +9.526960E+02 
 +3.449132E+02 +7.977881E+00 -1.463355E+01 +7.977881E+00 +3.110644E+02 -9.067552E-01 -1.463355E+01 -9.067552E-01 +9.660282E+02 
 +3.533302E+02 +4.320456E+00 -1.219592E+01 +4.320456E+00 +3.160875E+02 +6.330375E-01 -1.219592E+01 +6.330375E-01 +9.740459E+02 
 +3.570221E+02 +6.955098E+00 -1.027409E+01 +6.955098E+00 +3.254150E+02 +8.142230E+00 -1.027409E+01 +8.142230E+00 +9.647624E+02 
 +3.684848E+02 +8.179364E+00 -1.546783E+01 +8.179364E+00 +3.560002E+02 +4.892354E+00 -1.546783E+01 +4.892354E+00 +9.694919E+02 
 +3.046427E+02 -1.849909E+01 -6.581301E+00 -1.849909E+01 +3.404714E+02 -5.495100E+00 -6.581301E+00 -5.495100E+00 +9.531842E+02 
 +3.371256E+02 -2.655126E+00 +2.630549E-01 -2.655126E+00 +3.555265E+02 +1.208363E+00 +2.630549E-01 +1.208363E+00 +9.707256E+02 
 +3.583247E+02 +1.120712E+01 +6.671545E+00 +1.120712E+01 +3.697571E+02 +9.396890E+00 +6.671545E+00 +9.396890E+00 +9.792133E+02 
 +3.638687E+02 +1.121255E+01 +4.269689E+00 +1.121255E+01 +3.711904E+02 +1.745758E+00 +4.269689E+00 +1.745758E+00 +9.749542E+02 
 +3.674096E+02 +1.182280E+01 +2.923513E+00 +1.182280E+01 +3.649924E+02 -4.205452E+00 +2.923513E+00 -4.205452E+00 +9.667625E+02 
 +3.711492E+02 +1.617205E+01 +1.654415E+01 +1.617205E+01 +3.748091E+02 -6.191168E+00 +1.654415E+01 -6.191168E+00 +9.763812E+02 
 +3.878291E+02 +3.822519E+00 +5.972839E+00 +3.822519E+00 +3.917432E+02 -1.080353E+01 +5.972839E+00 -1.080353E+01 +9.662716E+02 
 +3.676484E+02 +4.072989E-01 -1.624313E+00 +4.072989E-01 +3.823518E+02 -1.173051E+01 -1.624313E+00 -1.173051E+01 +9.624665E+02 
 +4.094705E+02 +5.749673E+00 -6.865060E+00 +5.749673E+00 +4.071765E+02 -7.862644E+00 -6.865060E+00 -7.862644E+00 +9.632612E+02 
 +4.399962E+02 +1.056382E+01 -2.518311E+00 +1.056382E+01 +4.182169E+02 -4.352961E+00 -2.518311E+00 -4.352961E+00 +9.642445E+02 
 +4.160355E+02 +2.364745E+00 +1.648329E+01 +2.364745E+00 +3.970716E+02 -3.622499E+00 +1.648329E+01 -3.622499E+00 +9.575808E+02 
 +4.134004E+02 +1.150488E+00 +1.926892E+01 +1.150488E+00 +4.035839E+02 -2.923392E+00 +1.926892E+01 -2.923392E+00 +9.547295E+02 
 +4.084726E+02 -5.972365E+00 +1.407727E+01 -5.972365E+00 +4.074782E+02 -2.853952E+00 +1.407727E+01 -2.853952E+00 +9.550985E+02 
 +3.959822E+02 -4.979901E+00 +1.415724E+01 -4.979901E+00 +4.030118E+02 -1.063926E+00 +1.415724E+01 -1.063926E+00 +9.649727E+02 
 +3.466335E+02 -4.860385E+00 +4.734789E+00 -4.860385E+00 +3.683266E+02 -4.363407E+00 +4.734789E+00 -4.363407E+00 +9.574645E+02 
 +3.248659E+02 +3.925386E+00 -7.345355E+00 +3.925386E+00 +3.345851E+02 -1.035838E+01 -7.345355E+00 -1.035838E+01 +9.510080E+02 
 +3.447058E+02 +1.122184E+01 -2.048135E+01 +1.122184E+01 +3.209851E+02 -3.167861E+00 -2.048135E+01 -3.167861E+00 +9.593599E+02 
 +3.550514E+02 +8.540811E+00 -2.195282E+01 +8.540811E+00 +3.193527E+02 +1.204910E+00 -2.195282E+01 +1.204910E+00 +9.675440E+02 
 +3.492729E+02 +4.833599E-01 -1.144483E+01 +4.833599E-01 +3.249993E+02 -2.054539E+00 -1.144483E+01 -2.054539E+00 +9.673609E+02 
 +3.578497E+02 -4.843764E-01 -7.123248E+00 -4.843764E-01 +3.434480E+02 +2.445409E+00 -7.123248E+00 +2.445409E+00 +9.688139E+02 
 +3.589046E+02 +2.476895E+00 -8.186984E+00 +2.476895E+00 +3.586801E+02 +2.002929E+00 -8.186984E+00 +2.002929E+00 +9.698585E+02 
 +3.058832E+02 -2.602488E+01 -3.927059E+00 -2.602488E+01 +3.613684E+02 -9.822994E+00 -3.927059E+00 -9.822994E+00 +9.570594E+02 
 +3.314190E+02 -1.955852E+01 -1.817241E+00 -1.955852E+01 +3.823815E+02 -3.259170E+00 -1.817241E+00 -3.259170E+00 +9.722460E+02 
 +3.686671E+02 +7.183391E+00 +7.487380E+00 +7.183391E+00 +3.778976E+02 +1.092269E+01 +7.487380E+00 +1.092269E+01 +9.771694E+02 
 +3.636440E+02 +1.016871E+01 +9.545970E+00 +1.016871E+01 +3.696280E+02 +3.930350E+00 +9.545970E+00 +3.930350E+00 +9.692271E+02 
 +3.589566E+02 +1.047004E+01 +1.265682E+01 +1.047004E+01 +3.665729E+02 -8.317723E+00 +1.265682E+01 -8.317723E+00 +9.634670E+02 
 +3.577442E+02 +1.694613E+01 +2.528795E+01 +1.694613E+01 +3.641934E+02 -1.520369E+01 +2.528795E+01 -1.520369E+01 +9.524774E+02 
 +3.862125E+02 +6.590453E+00 +8.657180E+00 +6.590453E+00 +3.900295E+02 -1.360277E+01 +8.657180E+00 -1.360277E+01 +9.516272E+02 
 +3.952969E+02 +4.782439E-01 -3.634039E-01 +4.782439E-01 +4.140771E+02 -4.920695E+00 -3.634039E-01 -4.920695E+00 +9.597914E+02 
 +4.356064E+02 +4.677254E+00 -6.168578E+00 +4.677254E+00 +4.314502E+02 -1.277022E+00 -6.168578E+00 -1.277022E+00 +9.653013E+02 
 +4.285064E+02 +3.901544E+00 +2.842092E+00 +3.901544E+00 +4.144896E+02 -1.398130E+00 +2.842092E+00 -1.398130E+00 +9.621292E+02 
 +4.261123E+02 +3.697860E+00 +1.465960E+01 +3.697860E+00 +4.093402E+02 +9.385603E-01 +1.465960E+01 +9.385603E-01 +9.676961E+02 
 +4.125394E+02 -1.391873E+00 +1.448764E+01 -1.391873E+00 +3.965502E+02 -7.902970E-01 +1.448764E+01 -7.902970E-01 +9.611434E+02 
 +3.927166E+02 -9.767435E+00 +1.076838E+01 -9.767435E+00 +3.826470E+02 -6.355047E-01 +1.076838E+01 -6.355047E-01 +9.616855E+02 
 +3.827716E+02 -9.826659E+00 +9.940420E+00 -9.826659E+00 +3.742843E+02 +1.937739E+00 +9.940420E+00 +1.937739E+00 +9.636605E+02 
 +3.437231E+02 -5.521604E+00 +7.875521E-01 -5.521604E+00 +3.546461E+02 -5.399418E+00 +7.875521E-01 -5.399418E+00 +9.576364E+02 
 +3.492224E+02 -2.737195E+00 -5.655141E+00 -2.737195E+00 +3.587007E+02 -1.284914E+01 -5.655141E+00 -1.284914E+01 +9.662724E+02 
 +3.712659E+02 -4.114170E+00 -7.634585E+00 -4.114170E+00 +3.682190E+02 -9.827768E+00 -7.634585E+00 -9.827768E+00 +9.725101E+02 
 +3.743297E+02 -9.674030E+00 -9.471161E+00 -9.674030E+00 +3.780162E+02 -4.022506E+00 -9.471161E+00 -4.022506E+00 +9.775459E+02 
 +3.761573E+02 -1.294277E+01 -6.976691E+00 -1.294277E+01 +3.920004E+02 -5.353475E+00 -6.976691E+00 -5.353475E+00 +9.839559E+02 
 +3.856371E+02 -1.084230E+01 -1.919118E+00 -1.084230E+01 +4.071107E+02 -1.079980E+01 -1.919118E+00 -1.079980E+01 +9.921055E+02 
 +3.730031E+02 -5.061377E+00 -1.955546E+00 -5.061377E+00 +4.037114E+02 -7.089745E+00 -1.955546E+00 -7.089745E+00 +9.856123E+02 
 +3.314634E+02 -1.891874E+01 -6.865707E-01 -1.891874E+01 +3.869957E+02 -9.589432E+00 -6.865707E-01 -9.589432E+00 +9.701659E+02 
 +3.436212E+02 -1.977385E+01 -4.637090E-01 -1.977385E+01 +3.969172E+02 -6.996525E+00 -4.637090E-01 -6.996525E+00 +9.752429E+02 
 +3.730411E+02 +5.149710E+00 +1.280494E+01 +5.149710E+00 +3.900353E+02 +4.861733E+00 +1.280494E+01 +4.861733E+00 +9.755022E+02 
 +3.636525E+02 +9.693445E+00 +2.411105E+01 +9.693445E+00 +3.696382E+02 +2.801832E+00 +2.411105E+01 +2.801832E+00 +9.721826E+02 
 +3.456647E+02 +8.241941E+00 +2.552475E+01 +8.241941E+00 +3.613687E+02 -1.045154E+01 +2.552475E+01 -1.045154E+01 +9.592837E+02 
 +3.563518E+02 +1.781843E+01 +3.064964E+01 +1.781843E+01 +3.646459E+02 -1.901781E+01 +3.064964E+01 -1.901781E+01 +9.441324E+02 
 +3.884050E+02 +8.231254E+00 +4.009519E+00 +8.231254E+00 +3.716881E+02 -1.575009E+01 +4.009519E+00 -1.575009E+01 +9.686917E+02 
 +3.888761E+02 +7.587162E+00 -3.461271E+00 +7.587162E+00 +3.663682E+02 -4.313349E+00 -3.461271E+00 -4.313349E+00 +9.705793E+02 
 +4.198629E+02 +1.781611E+00 -6.976061E+00 +1.781611E+00 +3.995789E+02 +6.036448E+00 -6.976061E+00 +6.036448E+00 +9.796426E+02 
 +4.320267E+02 -2.399086E+00 +8.726474E+00 -2.399086E+00 +4.150904E+02 +7.248822E+00 +8.726474E+00 +7.248822E+00 +9.822544E+02 
 +4.246774E+02 -4.030638E+00 +1.045110E+01 -4.030638E+00 +4.023009E+02 +4.157084E+00 +1.045110E+01 +4.157084E+00 +9.741525E+02 
 +4.086579E+02 -4.450726E+00 +6.324538E+00 -4.450726E+00 +3.880533E+02 -1.210150E-01 +6.324538E+00 -1.210150E-01 +9.695743E+02 
 +3.953587E+02 -1.085335E+01 +9.995357E+00 -1.085335E+01 +3.834562E+02 +1.552771E+00 +9.995357E+00 +1.552771E+00 +9.710262E+02 
 +3.832913E+02 -1.159039E+01 +9.279654E+00 -1.159039E+01 +3.762945E+02 +1.666177E-01 +9.279654E+00 +1.666177E-01 +9.710102E+02 
 +3.526228E+02 -9.935845E+00 +1.770770E+00 -9.935845E+00 +3.591863E+02 -6.704619E+00 +1.770770E+00 -6.704619E+00 +9.701914E+02 
 +3.476033E+02 -1.086942E+01 -8.623768E-02 -1.086942E+01 +3.588748E+02 -1.049889E+01 -8.623768E-02 -1.049889E+01 +9.719098E+02 
 +3.530446E+02 -9.854902E+00 +2.752265E+00 -9.854902E+00 +3.602839E+02 -1.384742E+01 +2.752265E+00 -1.384742E+01 +9.649411E+02 
 +3.650323E+02 -4.652538E+00 +3.448897E+00 -4.652538E+00 +3.717554E+02 -1.914055E+01 +3.448897E+00 -1.914055E+01 +9.726170E+02 
 +3.766667E+02 -7.355640E+00 -3.862081E+00 -7.355640E+00 +3.895590E+02 -2.007682E+01 -3.862081E+00 -2.007682E+01 +9.843347E+02 
 +3.696547E+02 -5.182893E+00 +2.125020E+00 -5.182893E+00 +3.942281E+02 -1.770892E+01 +2.125020E+00 -1.770892E+01 +9.807942E+02 
 +3.643339E+02 -4.144019E+00 +8.170898E+00 -4.144019E+00 +3.958445E+02 -1.278949E+01 +8.170898E+00 -1.278949E+01 +9.786555E+02 
 +3.815226E+02 -9.941923E+00 +9.012113E+00 -9.941923E+00 +4.151678E+02 -1.439911E+01 +9.012113E+00 -1.439911E+01 +9.890315E+02 
 +3.654253E+02 -1.605687E+01 +9.832912E+00 -1.605687E+01 +4.160012E+02 -1.493725E+01 +9.832912E+00 -1.493725E+01 +9.763509E+02 
 +3.630171E+02 -9.368161E-01 +1.824374E+01 -9.368161E-01 +4.082471E+02 -2.121890E+00 +1.824374E+01 -2.121890E+00 +9.680349E+02 
 +3.641463E+02 +6.653503E+00 +2.765094E+01 +6.653503E+00 +3.823213E+02 +4.830122E+00 +2.765094E+01 +4.830122E+00 +9.707356E+02 
 +3.362506E+02 +1.345964E+01 +2.996578E+01 +1.345964E+01 +3.499049E+02 -5.217100E+00 +2.996578E+01 -5.217100E+00 +9.540911E+02 
 +3.438480E+02 +1.902085E+01 +2.554654E+01 +1.902085E+01 +3.575045E+02 -1.963963E+01 +2.554654E+01 -1.963963E+01 +9.487323E+02 
 +3.688025E+02 +2.014677E+01 -1.152114E+00 +2.014677E+01 +3.239982E+02 -1.794758E+01 -1.152114E+00 -1.794758E+01 +9.767007E+02 
 +3.714257E+02 +1.926031E+01 -3.716519E+00 +1.926031E+01 +3.204037E+02 -1.221297E+01 -3.716519E+00 -1.221297E+01 +9.760901E+02 
 +3.783648E+02 +1.829677E+01 +4.472578E+00 +1.829677E+01 +3.260577E+02 +5.627276E-01 +4.472578E+00 +5.627276E-01 +9.792058E+02 
 +3.982567E+02 +1.334461E+01 +1.254699E+01 +1.334461E+01 +3.583873E+02 +9.735682E+00 +1.254699E+01 +9.735682E+00 +9.853800E+02 
 +4.274615E+02 +7.861177E+00 +1.686877E+00 +7.861177E+00 +4.100840E+02 +4.012100E+00 +1.686877E+00 +4.012100E+00 +9.813215E+02 
 +4.258613E+02 -3.264487E+00 +1.039931E+00 -3.264487E+00 +4.190024E+02 +4.042898E+00 +1.039931E+00 +4.042898E+00 +9.730466E+02 
 +3.872550E+02 -1.120482E+01 +8.589438E+00 -1.120482E+01 +3.793248E+02 +5.669626E+00 +8.589438E+00 +5.669626E+00 +9.570880E+02 
 +3.759796E+02 -1.129643E+01 +1.049114E+01 -1.129643E+01 +3.714383E+02 -1.376612E+00 +1.049114E+01 -1.376612E+00 +9.657282E+02 
 +3.501714E+02 -9.316738E+00 +5.393326E+00 -9.316738E+00 +3.639387E+02 -7.433156E+00 +5.393326E+00 -7.433156E+00 +9.726365E+02 
 +3.447071E+02 -1.055615E+01 +5.035008E+00 -1.055615E+01 +3.613035E+02 -1.193211E+01 +5.035008E+00 -1.193211E+01 +9.726073E+02 
 +3.484505E+02 -1.201224E+01 +4.897406E+00 -1.201224E+01 +3.598555E+02 -1.466840E+01 +4.897406E+00 -1.466840E+01 +9.685186E+02 
 +3.508050E+02 -9.212360E+00 +7.206566E+00 -9.212360E+00 +3.541691E+02 -2.097931E+01 +7.206566E+00 -2.097931E+01 +9.762902E+02 
 +3.587847E+02 -1.170950E+01 +2.350000E+00 -1.170950E+01 +3.647348E+02 -2.189107E+01 +2.350000E+00 -2.189107E+01 +9.832344E+02 
 +3.790272E+02 -7.537597E+00 +8.587544E+00 -7.537597E+00 +3.977856E+02 -1.814449E+01 +8.587544E+00 -1.814449E+01 +9.906899E+02 
 +3.672033E+02 -8.268503E+00 +1.580298E+01 -8.268503E+00 +3.819957E+02 -1.581928E+01 +1.580298E+01 -1.581928E+01 +9.838505E+02 
 +4.007627E+02 -1.379264E+00 +1.476420E+01 -1.379264E+00 +3.805657E+02 -8.409491E+00 +1.476420E+01 -8.409491E+00 +9.863466E+02 
 +3.673306E+02 +1.213007E+00 +1.240630E+01 +1.213007E+00 +3.951178E+02 -9.982970E-01 +1.240630E+01 -9.982970E-01 +9.716054E+02 
 +3.628699E+02 +5.975589E+00 +1.078396E+01 +5.975589E+00 +4.203001E+02 +6.537766E+00 +1.078396E+01 +6.537766E+00 +9.754422E+02 
 +3.536131E+02 +4.919185E+00 +1.303891E+01 +4.919185E+00 +3.945985E+02 +1.477994E+01 +1.303891E+01 +1.477994E+01 +9.704396E+02 
 +3.463183E+02 +1.888630E+01 +1.947769E+01 +1.888630E+01 +3.740691E+02 +1.190943E+01 +1.947769E+01 +1.190943E+01 +9.693355E+02 
 +3.508393E+02 +2.276552E+01 +9.889697E+00 +2.276552E+01 +3.442280E+02 -7.642972E+00 +9.889697E+00 -7.642972E+00 +9.682169E+02 
 +3.660405E+02 +2.218957E+01 +5.723692E+00 +2.218957E+01 +3.416377E+02 -1.102276E+01 +5.723692E+00 -1.102276E+01 +9.844811E+02 
 +3.701028E+02 +1.790927E+01 +5.030452E+00 +1.790927E+01 +3.313548E+02 -1.245416E+01 +5.030452E+00 -1.245416E+01 +9.783128E+02 
 +3.769776E+02 +1.808750E+01 +1.536296E+01 +1.808750E+01 +3.346624E+02 -6.040393E+00 +1.536296E+01 -6.040393E+00 +9.875753E+02 
 +3.832591E+02 +1.533801E+01 +1.646496E+01 +1.533801E+01 +3.458849E+02 +4.132490E+00 +1.646496E+01 +4.132490E+00 +1.000629E+03 
 +3.938202E+02 +1.353420E+01 +2.875723E+00 +1.353420E+01 +3.603298E+02 +6.493038E+00 +2.875723E+00 +6.493038E+00 +9.912064E+02 
 +3.939553E+02 -1.346321E+01 +2.596567E+00 -1.346321E+01 +3.669983E+02 +4.195426E+00 +2.596567E+00 +4.195426E+00 +9.678050E+02 
 +3.856662E+02 -1.607344E+01 +7.984644E+00 -1.607344E+01 +3.709457E+02 +1.904934E+00 +7.984644E+00 +1.904934E+00 +9.577526E+02 
 +3.802327E+02 -9.561097E+00 +1.021419E+01 -9.561097E+00 +3.813040E+02 -3.171839E+00 +1.021419E+01 -3.171839E+00 +9.696450E+02 
 +3.502973E+02 -7.767615E+00 +7.640279E+00 -7.767615E+00 +3.733412E+02 -1.043589E+01 +7.640279E+00 -1.043589E+01 +9.720836E+02 
 +3.417049E+02 -1.180809E+01 +8.026361E+00 -1.180809E+01 +3.670067E+02 -1.498394E+01 +8.026361E+00 -1.498394E+01 +9.731795E+02 
 +3.397870E+02 -1.464421E+01 +9.508472E+00 -1.464421E+01 +3.531358E+02 -1.718331E+01 +9.508472E+00 -1.718331E+01 +9.731793E+02 
 +3.335159E+02 -1.070254E+01 +1.321761E+01 -1.070254E+01 +3.398838E+02 -2.775806E+01 +1.321761E+01 -2.775806E+01 +9.798270E+02 
 +3.387360E+02 -3.396180E+00 +9.097108E+00 -3.396180E+00 +3.320364E+02 -3.086567E+01 +9.097108E+00 -3.086567E+01 +9.791042E+02 
 +3.740718E+02 +5.869158E+00 +9.575624E+00 +5.869158E+00 +3.372819E+02 -2.268996E+01 +9.575624E+00 -2.268996E+01 +9.803444E+02 
 +3.573068E+02 +5.886476E-01 +8.156475E+00 +5.886476E-01 +3.267022E+02 -1.310874E+01 +8.156475E+00 -1.310874E+01 +9.669136E+02 
 +3.617213E+02 -3.487688E+00 +3.242774E+00 -3.487688E+00 +3.332187E+02 -5.810907E+00 +3.242774E+00 -5.810907E+00 +9.636617E+02 
 +3.516185E+02 -3.105012E+00 +3.599053E-01 -3.105012E+00 +3.305921E+02 -6.845697E+00 +3.599053E-01 -6.845697E+00 +9.595361E+02 
 +3.467189E+02 -1.792306E+00 +2.796958E+00 -1.792306E+00 +3.519737E+02 -6.215999E+00 +2.796958E+00 -6.215999E+00 +9.682229E+02 
 +3.329820E+02 +8.902519E-01 +5.151379E+00 +8.902519E-01 +3.542101E+02 +5.317087E+00 +5.151379E+00 +5.317087E+00 +9.710019E+02 
 +3.438608E+02 +3.520018E+01 +1.416090E+01 +3.520018E+01 +3.450352E+02 +1.268491E+01 +1.416090E+01 +1.268491E+01 +9.769299E+02 
 +3.598781E+02 +2.667402E+01 +8.374840E+00 +2.667402E+01 +3.464045E+02 +3.078365E-02 +8.374840E+00 +3.078365E-02 +9.839254E+02 
 +3.561456E+02 +2.000241E+01 +1.743249E+01 +2.000241E+01 +3.421003E+02 -5.691626E+00 +1.743249E+01 -5.691626E+00 +9.750331E+02 
 +3.517952E+02 +2.058362E+01 +1.628967E+01 +2.058362E+01 +3.282532E+02 -1.162963E+01 +1.628967E+01 -1.162963E+01 +9.740767E+02 
 +3.472941E+02 +1.910642E+01 +1.607323E+01 +1.910642E+01 +3.171625E+02 -9.354867E+00 +1.607323E+01 -9.354867E+00 +9.743867E+02 
 +3.569846E+02 +1.780246E+01 +1.747429E+01 +1.780246E+01 +3.251415E+02 -7.179965E-01 +1.747429E+01 -7.179965E-01 +9.920241E+02 
 +3.700181E+02 +1.394332E+01 +4.916376E+00 +1.394332E+01 +3.418253E+02 +5.990505E+00 +4.916376E+00 +5.990505E+00 +9.981189E+02 
 +3.768601E+02 -1.458918E+01 +2.246436E+00 -1.458918E+01 +3.469377E+02 +2.993623E+00 +2.246436E+00 +2.993623E+00 +9.774608E+02 
 +3.846730E+02 -1.853544E+01 +7.836889E+00 -1.853544E+01 +3.587153E+02 -8.405309E-01 +7.836889E+00 -8.405309E-01 +9.670675E+02 
 +3.839099E+02 -1.428438E+01 +8.608937E+00 -1.428438E+01 +3.742236E+02 -6.015475E+00 +8.608937E+00 -6.015475E+00 +9.732063E+02 
 +3.733740E+02 -5.261390E+00 +7.954480E+00 -5.261390E+00 +3.877801E+02 -1.422817E+01 +7.954480E+00 -1.422817E+01 +9.856718E+02 
 +3.531331E+02 -7.809695E+00 +9.199681E+00 -7.809695E+00 +3.788473E+02 -1.738601E+01 +9.199681E+00 -1.738601E+01 +9.843690E+02 
 +3.287946E+02 -9.912604E+00 +1.225835E+01 -9.912604E+00 +3.511310E+02 -2.050042E+01 +1.225835E+01 -2.050042E+01 +9.735597E+02 
 +3.157086E+02 -7.822940E+00 +1.596887E+01 -7.822940E+00 +3.237374E+02 -2.999941E+01 +1.596887E+01 -2.999941E+01 +9.677325E+02 
 +3.283870E+02 -2.461767E-01 +1.205579E+01 -2.461767E-01 +3.106365E+02 -3.283331E+01 +1.205579E+01 -3.283331E+01 +9.627188E+02 
 +3.668706E+02 -5.813438E-01 +5.676589E+00 -5.813438E-01 +3.192493E+02 -2.048533E+01 +5.676589E+00 -2.048533E+01 +9.628595E+02 
 +3.740782E+02 -6.111785E+00 -1.245714E+00 -6.111785E+00 +3.320311E+02 -6.304052E+00 -1.245714E+00 -6.304052E+00 +9.633236E+02 
 +3.478554E+02 -1.915951E+00 -6.930918E+00 -1.915951E+00 +3.408763E+02 +5.300035E-01 -6.930918E+00 +5.300035E-01 +9.571465E+02 
 +3.673337E+02 +2.120791E+00 -4.575312E+00 +2.120791E+00 +3.479627E+02 +9.475639E-01 -4.575312E+00 +9.475639E-01 +9.614417E+02 
 +3.489822E+02 +3.649256E+00 -5.332054E+00 +3.649256E+00 +3.238583E+02 +1.412923E+00 -5.332054E+00 +1.412923E+00 +9.509699E+02 
 +3.514250E+02 -5.863017E+00 -1.486024E+00 -5.863017E+00 +3.326230E+02 +9.232822E+00 -1.486024E+00 +9.232822E+00 +9.636873E+02 
 +3.580473E+02 +2.496383E+01 +8.505530E+00 +2.496383E+01 +3.429300E+02 +1.300534E+01 +8.505530E+00 +1.300534E+01 +9.732287E+02 
 +3.515186E+02 +2.292784E+01 +1.439369E+01 +2.292784E+01 +3.441370E+02 +4.342740E+00 +1.439369E+01 +4.342740E+00 +9.712274E+02 
 +3.559881E+02 +8.128495E+00 +2.073577E+01 +8.128495E+00 +3.518154E+02 -3.337129E-01 +2.073577E+01 -3.337129E-01 +9.764356E+02 
 +3.472640E+02 +1.063469E+01 +1.907922E+01 +1.063469E+01 +3.463206E+02 -8.631463E+00 +1.907922E+01 -8.631463E+00 +9.807534E+02 
 +3.407758E+02 +8.637778E+00 +1.244956E+01 +8.637778E+00 +3.313206E+02 -1.052251E+01 +1.244956E+01 -1.052251E+01 +9.838886E+02 
 +3.447208E+02 +2.067021E+01 +9.998743E+00 +2.067021E+01 +3.195294E+02 -6.481341E+00 +9.998743E+00 -6.481341E+00 +9.880779E+02 
 +3.422314E+02 +2.202726E+01 +1.087441E-01 +2.202726E+01 +3.076205E+02 +7.873181E+00 +1.087441E-01 +7.873181E+00 +9.799827E+02 
 +3.487122E+02 +1.271362E-01 -3.533854E+00 +1.271362E-01 +3.022782E+02 +7.870401E+00 -3.533854E+00 +7.870401E+00 +9.657165E+02 
 +3.549493E+02 +1.514725E+00 +2.707821E+00 +1.514725E+00 +3.055774E+02 -4.884737E-01 +2.707821E+00 -4.884737E-01 +9.583691E+02 
 +3.533164E+02 +5.000322E+00 +6.435754E+00 +5.000322E+00 +3.074658E+02 -5.213554E+00 +6.435754E+00 -5.213554E+00 +9.571929E+02 
 +3.546865E+02 +8.884436E+00 +6.607191E+00 +8.884436E+00 +3.148977E+02 -8.706602E+00 +6.607191E+00 -8.706602E+00 +9.684850E+02 
 +3.414880E+02 +3.178361E+00 +8.816727E+00 +3.178361E+00 +3.363079E+02 -1.333947E+01 +8.816727E+00 -1.333947E+01 +9.753340E+02 
 +3.247685E+02 -4.272824E+00 +1.056165E+01 -4.272824E+00 +3.449748E+02 -2.368980E+01 +1.056165E+01 -2.368980E+01 +9.698287E+02 
 +3.150787E+02 +2.423914E+00 +1.461379E+01 +2.423914E+00 +3.308599E+02 -2.326101E+01 +1.461379E+01 -2.326101E+01 +9.626718E+02 
 +3.422952E+02 +1.438717E+01 +1.329104E+01 +1.438717E+01 +3.423982E+02 -8.341421E+00 +1.329104E+01 -8.341421E+00 +9.705260E+02 
 +3.536528E+02 +1.056883E+01 +4.478317E+00 +1.056883E+01 +3.427346E+02 +1.152668E+00 +4.478317E+00 +1.152668E+00 +9.656749E+02 
 +3.528395E+02 -2.069961E+00 -4.918490E+00 -2.069961E+00 +3.185487E+02 -5.174946E+00 -4.918490E+00 -5.174946E+00 +9.535147E+02 
 +3.369022E+02 -3.014221E+00 -4.429555E+00 -3.014221E+00 +2.981109E+02 -4.561805E+00 -4.429555E+00 -4.561805E+00 +9.389486E+02 
 +3.663354E+02 -2.084299E+00 -4.078867E+00 -2.084299E+00 +3.349160E+02 +3.832167E+00 -4.078867E+00 +3.832167E+00 +9.431287E+02 
 +3.839748E+02 +9.884217E+00 -1.607667E+01 +9.884217E+00 +3.689626E+02 +2.365913E+00 -1.607667E+01 +2.365913E+00 +9.404668E+02 
 +3.969801E+02 +2.038359E+00 -1.488983E+01 +2.038359E+00 +4.038817E+02 +2.752898E+00 -1.488983E+01 +2.752898E+00 +9.546149E+02 
 +3.848309E+02 +1.074756E+01 -6.681243E+00 +1.074756E+01 +3.897476E+02 +6.329600E+00 -6.681243E+00 +6.329600E+00 +9.643837E+02 
 +3.687887E+02 +1.758639E+01 +1.503606E+01 +1.758639E+01 +3.571439E+02 +6.274477E+00 +1.503606E+01 +6.274477E+00 +9.706597E+02 
 +3.467523E+02 +7.413348E+00 +8.932579E+00 +7.413348E+00 +3.480709E+02 +4.214194E+00 +8.932579E+00 +4.214194E+00 +9.600184E+02 
 +3.416556E+02 +9.708511E+00 +8.602504E+00 +9.708511E+00 +3.437557E+02 -4.636260E+00 +8.602504E+00 -4.636260E+00 +9.748319E+02 
 +3.362026E+02 +1.051322E+01 +3.314568E+00 +1.051322E+01 +3.373131E+02 -1.032852E+01 +3.314568E+00 -1.032852E+01 +9.857960E+02 
 +3.295406E+02 +1.250060E+01 +2.751459E-03 +1.250060E+01 +3.205404E+02 -9.506797E+00 +2.751459E-03 -9.506797E+00 +9.870821E+02 
 +3.441762E+02 +9.042605E+00 -5.381329E+00 +9.042605E+00 +2.930035E+02 -6.037509E-01 -5.381329E+00 -6.037509E-01 +9.813647E+02 
 +3.500249E+02 +3.551014E+00 -6.098132E+00 +3.551014E+00 +2.866974E+02 +1.577313E+00 -6.098132E+00 +1.577313E+00 +9.682043E+02 
 +3.500018E+02 +4.826649E+00 -9.119562E-01 +4.826649E+00 +3.033002E+02 -2.802188E+00 -9.119562E-01 -2.802188E+00 +9.612414E+02 
 +3.553628E+02 +3.130107E+00 +3.737844E+00 +3.130107E+00 +3.111119E+02 -5.996714E+00 +3.737844E+00 -5.996714E+00 +9.616393E+02 
 +3.573889E+02 +8.207922E+00 +4.991370E+00 +8.207922E+00 +3.107010E+02 -8.677361E+00 +4.991370E+00 -8.677361E+00 +9.649454E+02 
 +3.501211E+02 +1.270326E+01 +7.096001E+00 +1.270326E+01 +3.023529E+02 -8.565517E+00 +7.096001E+00 -8.565517E+00 +9.625814E+02 
 +3.090192E+02 +8.688804E+00 +7.663250E+00 +8.688804E+00 +2.869126E+02 -7.665468E+00 +7.663250E+00 -7.665468E+00 +9.491106E+02 
 +3.078187E+02 +1.937423E+01 +1.030598E+01 +1.937423E+01 +3.266240E+02 -3.984311E+00 +1.030598E+01 -3.984311E+00 +9.639848E+02 
 +3.310160E+02 +1.337681E+01 +7.569771E+00 +1.337681E+01 +3.550270E+02 -1.817809E+00 +7.569771E+00 -1.817809E+00 +9.757386E+02 
 +3.399123E+02 +1.255943E+01 +5.592216E+00 +1.255943E+01 +3.522475E+02 +9.366973E-01 +5.592216E+00 +9.366973E-01 +9.700171E+02 
 +3.541937E+02 +2.146767E+00 -2.159749E+00 +2.146767E+00 +3.681176E+02 +1.179095E+00 -2.159749E+00 +1.179095E+00 +9.682496E+02 
 +3.637492E+02 +5.217995E+00 +1.818812E+00 +5.217995E+00 +3.695953E+02 +2.911161E+00 +1.818812E+00 +2.911161E+00 +9.571576E+02 
 +4.130319E+02 +5.408470E+00 -1.401030E+01 +5.408470E+00 +3.938277E+02 +6.757378E+00 -1.401030E+01 +6.757378E+00 +9.524505E+02 
 +4.056504E+02 +7.359044E+00 -2.356906E+01 +7.359044E+00 +3.922034E+02 +2.701760E+00 -2.356906E+01 +2.701760E+00 +9.341895E+02 
 +4.075350E+02 +5.160732E+00 -2.144530E+01 +5.160732E+00 +4.047798E+02 -2.320203E+00 -2.144530E+01 -2.320203E+00 +9.397708E+02 
 +4.060262E+02 +3.442482E+00 -1.490643E+01 +3.442482E+00 +4.154019E+02 +2.539192E+00 -1.490643E+01 +2.539192E+00 +9.581222E+02 
 +3.763478E+02 +1.127810E+01 +1.894261E+00 +1.127810E+01 +3.796411E+02 +9.169120E+00 +1.894261E+00 +9.169120E+00 +9.620689E+02 
 +3.520151E+02 +1.395741E+00 -2.614388E-01 +1.395741E+00 +3.560892E+02 +1.125805E+01 -2.614388E-01 +1.125805E+01 +9.521611E+02 
 +3.397988E+02 +1.137684E+01 -1.572247E+00 +1.137684E+01 +3.340726E+02 +9.173770E-01 -1.572247E+00 +9.173770E-01 +9.655123E+02 
 +3.350075E+02 +1.584815E+01 -5.959894E+00 +1.584815E+01 +3.351210E+02 -7.403714E+00 -5.959894E+00 -7.403714E+00 +9.717222E+02 
 +3.114544E+02 +2.278624E+01 -9.459932E+00 +2.278624E+01 +3.129050E+02 -5.801147E+00 -9.459932E+00 -5.801147E+00 +9.668874E+02 
 +3.215971E+02 +9.302428E+00 -1.454959E+01 +9.302428E+00 +2.865526E+02 -5.573146E+00 -1.454959E+01 -5.573146E+00 +9.643317E+02 
 +3.370470E+02 +7.531374E+00 -9.470922E+00 +7.531374E+00 +2.822258E+02 -3.715041E+00 -9.470922E+00 -3.715041E+00 +9.577837E+02 
 +3.632238E+02 +1.003857E+00 -1.717426E+00 +1.003857E+00 +3.109922E+02 -4.475296E-01 -1.717426E+00 -4.475296E-01 +9.630696E+02 
 +3.587555E+02 +5.249307E+00 +2.141101E+00 +5.249307E+00 +3.128910E+02 -1.914246E+00 +2.141101E+00 -1.914246E+00 +9.586095E+02 
 +3.570835E+02 +6.725171E+00 +1.039315E+00 +6.725171E+00 +3.052727E+02 -5.496927E+00 +1.039315E+00 -5.496927E+00 +9.567631E+02 
 +3.680422E+02 +7.582062E+00 +3.476974E+00 +7.582062E+00 +3.181406E+02 -5.954980E+00 +3.476974E+00 -5.954980E+00 +9.656163E+02 
 +3.155770E+02 -1.371348E+01 +7.612615E+00 -1.371348E+01 +3.346747E+02 -7.718192E+00 +7.612615E+00 -7.718192E+00 +9.625017E+02 
 +3.211393E+02 -1.861082E+01 +8.684638E+00 -1.861082E+01 +3.602366E+02 -1.639490E+01 +8.684638E+00 -1.639490E+01 +9.761474E+02 
 +3.269909E+02 -2.316187E+01 +5.493315E+00 -2.316187E+01 +3.585432E+02 -1.518497E+01 +5.493315E+00 -1.518497E+01 +9.688035E+02 
 +3.421896E+02 -9.919957E+00 +8.057458E+00 -9.919957E+00 +3.572111E+02 -4.013402E+00 +8.057458E+00 -4.013402E+00 +9.648661E+02 
 +3.450048E+02 -7.791115E+00 +1.761862E+00 -7.791115E+00 +3.524777E+02 +2.593985E+00 +1.761862E+00 +2.593985E+00 +9.631907E+02 
 +3.531693E+02 +3.697010E+00 +2.177091E+00 +3.697010E+00 +3.622699E+02 +3.799085E+00 +2.177091E+00 +3.799085E+00 +9.514953E+02 
 +4.023499E+02 +7.443148E+00 -1.788079E+01 +7.443148E+00 +3.876809E+02 +1.783289E+00 -1.788079E+01 +1.783289E+00 +9.431623E+02 
 +4.048869E+02 +2.654574E+00 -1.815071E+01 +2.654574E+00 +3.882279E+02 +1.817769E+00 -1.815071E+01 +1.817769E+00 +9.384849E+02 
 +4.134009E+02 -1.416342E+00 -1.241741E+01 -1.416342E+00 +3.949412E+02 -7.863775E-01 -1.241741E+01 -7.863775E-01 +9.465022E+02 
 +4.200813E+02 -9.402585E+00 -8.431558E+00 -9.402585E+00 +4.177048E+02 +5.190251E-01 -8.431558E+00 +5.190251E-01 +9.498337E+02 
 +4.106915E+02 -8.037060E+00 -1.040451E+01 -8.037060E+00 +4.212897E+02 +1.087461E+01 -1.040451E+01 +1.087461E+01 +9.579029E+02 
 +3.882362E+02 -2.334694E+01 -2.964063E+00 -2.334694E+01 +3.678741E+02 +2.044977E+01 -2.964063E+00 +2.044977E+01 +9.770068E+02 
 +3.635295E+02 +4.080355E+00 -1.035947E+01 +4.080355E+00 +3.451314E+02 +1.136124E+01 -1.035947E+01 +1.136124E+01 +9.755069E+02 
 +3.336702E+02 +1.494802E+01 -7.154615E+00 +1.494802E+01 +3.346996E+02 +4.495468E-01 -7.154615E+00 +4.495468E-01 +9.553523E+02 
 +3.581026E+02 +1.440324E+01 -7.071366E-01 +1.440324E+01 +3.774353E+02 -1.482925E+00 -7.071366E-01 -1.482925E+00 +9.726551E+02 
 +3.326078E+02 -1.966581E+00 -7.688806E+00 -1.966581E+00 +3.821223E+02 -2.356722E+00 -7.688806E+00 -2.356722E+00 +9.761679E+02 
 +3.335343E+02 -1.448133E+00 -5.678814E+00 -1.448133E+00 +3.679291E+02 -2.778917E+00 -5.678814E+00 -2.778917E+00 +9.732061E+02 
 +3.757517E+02 -2.762844E+01 -2.145276E+00 -2.762844E+01 +3.568825E+02 +4.307426E+00 -2.145276E+00 +4.307426E+00 +9.758876E+02 
 +3.922334E+02 -3.102115E+01 +1.542398E+00 -3.102115E+01 +3.533123E+02 +8.066145E+00 +1.542398E+00 +8.066145E+00 +9.731989E+02 
 +3.918163E+02 -2.952167E+01 +1.926542E+00 -2.952167E+01 +3.614321E+02 +3.058842E+00 +1.926542E+00 +3.058842E+00 +9.718338E+02 
 +3.615330E+02 -2.170558E+01 +5.410834E+00 -2.170558E+01 +3.582737E+02 -1.144926E+00 +5.410834E+00 -1.144926E+00 +9.666120E+02 
 +3.155986E+02 -2.016668E+01 +8.468417E+00 -2.016668E+01 +3.461547E+02 -1.574733E+00 +8.468417E+00 -1.574733E+00 +9.601543E+02 
 +3.329084E+02 -1.894488E+01 +1.018693E+01 -1.894488E+01 +3.633021E+02 -3.620113E+00 +1.018693E+01 -3.620113E+00 +9.731593E+02 
 +3.445794E+02 -2.013544E+01 +1.019385E+01 -2.013544E+01 +3.693101E+02 -4.364699E+00 +1.019385E+01 -4.364699E+00 +9.734939E+02 
 +3.515768E+02 -2.093525E+01 +4.803043E+00 -2.093525E+01 +3.705601E+02 -4.819803E+00 +4.803043E+00 -4.819803E+00 +9.738499E+02 
 +3.500559E+02 -2.176518E+01 -8.440637E+00 -2.176518E+01 +3.571556E+02 -8.759635E+00 -8.440637E+00 -8.759635E+00 +9.685672E+02 
 +3.974826E+02 -3.428119E+00 -8.090415E+00 -3.428119E+00 +3.818702E+02 -1.049228E+01 -8.090415E+00 -1.049228E+01 +9.713529E+02 
 +3.984330E+02 +7.839770E+00 -1.366134E+01 +7.839770E+00 +3.873835E+02 -2.829136E+00 -1.366134E+01 -2.829136E+00 +9.511289E+02 
 +3.901266E+02 +2.809942E+00 -9.766688E+00 +2.809942E+00 +3.769618E+02 +1.078269E+01 -9.766688E+00 +1.078269E+01 +9.412440E+02 
 +3.949997E+02 -3.941847E+00 -2.264432E+00 -3.941847E+00 +3.742185E+02 +9.972288E+00 -2.264432E+00 +9.972288E+00 +9.481653E+02 
 +3.946915E+02 -1.058583E+01 +1.928037E-01 -1.058583E+01 +3.693989E+02 +9.414367E+00 +1.928037E-01 +9.414367E+00 +9.464433E+02 
 +4.181954E+02 -2.944133E+01 -4.046593E+00 -2.944133E+01 +3.808221E+02 +1.924967E+01 -4.046593E+00 +1.924967E+01 +9.638884E+02 
 +4.074690E+02 -2.624269E+01 -6.845461E+00 -2.624269E+01 +3.727214E+02 +1.447627E+01 -6.845461E+00 +1.447627E+01 +9.860813E+02 
 +3.848588E+02 -2.458344E+01 -1.021550E+01 -2.458344E+01 +3.505945E+02 +1.164611E+01 -1.021550E+01 +1.164611E+01 +9.776381E+02 
 +3.452836E+02 +1.489480E+01 +3.668022E+00 +1.489480E+01 +3.324769E+02 +2.509672E+00 +3.668022E+00 +2.509672E+00 +9.495425E+02 
 +3.698233E+02 +1.325195E+01 +1.157167E+01 +1.325195E+01 +3.819168E+02 -4.743634E+00 +1.157167E+01 -4.743634E+00 +9.630409E+02 
 +3.088487E+02 -1.494095E+00 +9.252299E-01 -1.494095E+00 +3.685941E+02 -4.070344E+00 +9.252299E-01 -4.070344E+00 +9.542295E+02 
 +3.132293E+02 +4.204869E+00 -7.630787E-02 +4.204869E+00 +3.771455E+02 -2.271746E+00 -7.630787E-02 -2.271746E+00 +9.631357E+02 
 +3.354396E+02 -4.288356E+00 -2.994318E+00 -4.288356E+00 +3.821861E+02 +3.352705E+00 -2.994318E+00 +3.352705E+00 +9.653456E+02 
 +3.760478E+02 -2.359391E+01 -5.419200E+00 -2.359391E+01 +3.737331E+02 +6.653282E+00 -5.419200E+00 +6.653282E+00 +9.640072E+02 
 +3.938326E+02 -2.027612E+01 -1.305972E+00 -2.027612E+01 +3.770002E+02 +2.402931E+00 -1.305972E+00 +2.402931E+00 +9.587191E+02 
 +3.652482E+02 -1.704427E+01 +6.847288E+00 -1.704427E+01 +3.779304E+02 +1.034914E+00 +6.847288E+00 +1.034914E+00 +9.551631E+02 
 +3.592196E+02 -1.217015E+01 +7.761740E+00 -1.217015E+01 +3.677037E+02 +1.026639E-01 +7.761740E+00 +1.026639E-01 +9.661045E+02 
 +3.525626E+02 -1.538678E+01 +8.797451E+00 -1.538678E+01 +3.669842E+02 -2.609654E+00 +8.797451E+00 -2.609654E+00 +9.726092E+02 
 +3.520606E+02 -1.687281E+01 +9.337608E+00 -1.687281E+01 +3.722079E+02 -2.823675E+00 +9.337608E+00 -2.823675E+00 +9.772594E+02 
 +3.523116E+02 -1.435824E+01 +3.472892E-01 -1.435824E+01 +3.708447E+02 -1.050199E+00 +3.472892E-01 -1.050199E+00 +9.801132E+02 
 +3.450469E+02 -1.501800E+01 -1.169832E+01 -1.501800E+01 +3.531935E+02 +1.867847E+00 -1.169832E+01 +1.867847E+00 +9.655708E+02 
 +3.939750E+02 +6.901340E-02 -1.277794E+01 +6.901340E-02 +3.626214E+02 +1.063417E+00 -1.277794E+01 +1.063417E+00 +9.634581E+02 
 +4.025830E+02 -1.140419E+00 -1.671895E+01 -1.140419E+00 +3.748161E+02 -1.898906E+00 -1.671895E+01 -1.898906E+00 +9.547340E+02 
 +4.087094E+02 -3.341178E+00 -1.704545E+01 -3.341178E+00 +3.828355E+02 +2.696204E+00 -1.704545E+01 +2.696204E+00 +9.576573E+02 
 +3.715497E+02 +1.980397E+00 -6.456597E+00 +1.980397E+00 +3.527273E+02 +3.822744E+00 -6.456597E+00 +3.822744E+00 +9.542369E+02 
 +3.804752E+02 -4.634064E+00 -4.608332E-01 -4.634064E+00 +3.563077E+02 +8.332207E+00 -4.608332E-01 +8.332207E+00 +9.672035E+02 
 +4.224093E+02 -2.489505E+01 -3.100136E+00 -2.489505E+01 +3.757195E+02 +1.583658E+01 -3.100136E+00 +1.583658E+01 +9.839231E+02 
 +3.984067E+02 -1.915668E+01 -9.144832E+00 -1.915668E+01 +3.644359E+02 +1.343587E+01 -9.144832E+00 +1.343587E+01 +9.747139E+02 
 +3.956873E+02 -2.175302E+01 -6.667477E+00 -2.175302E+01 +3.637001E+02 +7.548427E+00 -6.667477E+00 +7.548427E+00 +9.750627E+02 
 +3.736033E+02 +2.414954E+01 +8.454750E+00 +2.414954E+01 +3.599095E+02 -2.102207E+00 +8.454750E+00 -2.102207E+00 +9.583504E+02 
 +3.754293E+02 +1.105500E+01 +1.118159E+01 +1.105500E+01 +3.791876E+02 -7.770862E+00 +1.118159E+01 -7.770862E+00 +9.593004E+02 
 +3.098673E+02 -5.098179E+00 +7.686891E-01 -5.098179E+00 +3.605724E+02 -5.574063E+00 +7.686891E-01 -5.574063E+00 +9.472561E+02 
 +3.171880E+02 -4.942005E+00 +9.659031E-01 -4.942005E+00 +3.748191E+02 +8.402284E-01 +9.659031E-01 +8.402284E-01 +9.590667E+02 
 +3.221283E+02 -5.756299E+00 -7.626943E-01 -5.756299E+00 +3.825188E+02 +7.539643E+00 -7.626943E-01 +7.539643E+00 +9.540251E+02 
 +3.520887E+02 -9.334658E+00 -3.021444E+00 -9.334658E+00 +4.085687E+02 +6.845380E+00 -3.021444E+00 +6.845380E+00 +9.555265E+02 
 +3.589472E+02 -1.532081E+00 -3.726222E+00 -1.532081E+00 +4.018041E+02 -2.933779E+00 -3.726222E+00 -2.933779E+00 +9.384967E+02 
 +3.716873E+02 -1.940372E+01 +5.564729E-01 -1.940372E+01 +3.814092E+02 -8.787584E+00 +5.564729E-01 -8.787584E+00 +9.339699E+02 
 +3.727937E+02 -1.553193E+01 +1.706925E+00 -1.553193E+01 +3.692589E+02 -9.712638E+00 +1.706925E+00 -9.712638E+00 +9.438962E+02 
 +3.847173E+02 -8.520916E+00 +5.268087E+00 -8.520916E+00 +3.777805E+02 -8.249290E+00 +5.268087E+00 -8.249290E+00 +9.632140E+02 
 +3.696158E+02 -7.589413E+00 +8.389453E+00 -7.589413E+00 +3.792688E+02 +5.347019E-02 +8.389453E+00 +5.347019E-02 +9.780944E+02 
 +3.466359E+02 -1.034695E+01 +3.089923E+00 -1.034695E+01 +3.608025E+02 +5.360655E+00 +3.089923E+00 +5.360655E+00 +9.752577E+02 
 +3.578537E+02 -9.648708E+00 +1.032355E+00 -9.648708E+00 +3.663321E+02 +5.155697E+00 +1.032355E+00 +5.155697E+00 +9.684838E+02 
 +3.904150E+02 +9.651428E+00 -4.972162E+00 +9.651428E+00 +3.929055E+02 +3.423978E+00 -4.972162E+00 +3.423978E+00 +9.719960E+02 
 +3.792444E+02 +3.160592E+00 -1.585838E+01 +3.160592E+00 +3.591398E+02 -2.402042E+00 -1.585838E+01 -2.402042E+00 +9.512959E+02 
 +4.106655E+02 -1.668379E+01 -2.106750E+01 -1.668379E+01 +3.454331E+02 -9.619657E+00 -2.106750E+01 -9.619657E+00 +9.532996E+02 
 +3.589634E+02 -4.150475E+00 -1.686612E+01 -4.150475E+00 +3.317033E+02 -1.106664E+01 -1.686612E+01 -1.106664E+01 +9.476599E+02 
 +3.806822E+02 -8.570930E+00 -8.522712E+00 -8.570930E+00 +3.578632E+02 +2.630071E+00 -8.522712E+00 +2.630071E+00 +9.691290E+02 
 +4.194519E+02 -2.472880E+01 -7.581558E+00 -2.472880E+01 +3.749272E+02 +1.478601E+01 -7.581558E+00 +1.478601E+01 +9.808783E+02 
 +4.064246E+02 -2.034398E+01 -8.346324E+00 -2.034398E+01 +3.630980E+02 +7.938998E+00 -8.346324E+00 +7.938998E+00 +9.759378E+02 
 +3.993537E+02 -1.830273E+01 -5.333027E+00 -1.830273E+01 +3.723433E+02 -8.879128E-01 -5.333027E+00 -8.879128E-01 +9.747600E+02 
 +3.751945E+02 +2.852809E+01 +7.368434E+00 +2.852809E+01 +3.778120E+02 -6.252604E+00 +7.368434E+00 -6.252604E+00 +9.575918E+02 
 +3.782073E+02 +1.211911E+01 +8.580574E+00 +1.211911E+01 +3.848380E+02 -8.263896E+00 +8.580574E+00 -8.263896E+00 +9.542359E+02 
 +3.150015E+02 -6.541773E+00 -3.064068E+00 -6.541773E+00 +3.570551E+02 -5.115093E+00 -3.064068E+00 -5.115093E+00 +9.420505E+02 
 +3.179045E+02 -6.410476E+00 -3.132548E+00 -6.410476E+00 +3.707819E+02 +2.091895E+00 -3.132548E+00 +2.091895E+00 +9.540422E+02 
 +3.259753E+02 -1.154653E+01 -2.800959E+00 -1.154653E+01 +3.773600E+02 +9.898233E+00 -2.800959E+00 +9.898233E+00 +9.517077E+02 
 +3.198178E+02 -1.680074E+01 -3.044703E+00 -1.680074E+01 +3.771447E+02 +6.365132E+00 -3.044703E+00 +6.365132E+00 +9.330794E+02 
 +3.145709E+02 -3.287843E+00 -4.495378E+00 -3.287843E+00 +3.649316E+02 -7.685020E+00 -4.495378E+00 -7.685020E+00 +9.013920E+02 
 +3.745800E+02 +4.629814E+00 -3.722148E+00 +4.629814E+00 +3.830871E+02 -1.183411E+01 -3.722148E+00 -1.183411E+01 +9.102532E+02 
 +3.806641E+02 +9.121398E+00 -3.883374E+00 +9.121398E+00 +3.794443E+02 -8.821162E+00 -3.883374E+00 -8.821162E+00 +9.140765E+02 
 +4.044761E+02 +9.595721E+00 +3.881489E+00 +9.595721E+00 +3.871444E+02 -1.001368E+01 +3.881489E+00 -1.001368E+01 +9.329054E+02 
 +3.647718E+02 +1.859364E+00 +1.007609E+01 +1.859364E+00 +3.679244E+02 +4.680255E+00 +1.007609E+01 +4.680255E+00 +9.413009E+02 
 +3.658448E+02 -6.453123E-01 +9.740639E+00 -6.453123E-01 +3.728515E+02 +1.212120E+01 +9.740639E+00 +1.212120E+01 +9.593834E+02 
 +3.617541E+02 +1.564599E+01 +1.214565E+01 +1.564599E+01 +3.844028E+02 +8.731869E+00 +1.214565E+01 +8.731869E+00 +9.644119E+02 
 +3.879726E+02 +1.870687E+01 +5.516569E+00 +1.870687E+01 +4.022855E+02 +7.370872E+00 +5.516569E+00 +7.370872E+00 +9.745337E+02 
 +3.791952E+02 +1.456669E+01 -1.652870E+00 +1.456669E+01 +3.817757E+02 +2.764211E+00 -1.652870E+00 +2.764211E+00 +9.590208E+02 
 +4.091023E+02 +3.772949E+00 -7.795876E+00 +3.772949E+00 +3.994255E+02 -6.582585E+00 -7.795876E+00 -6.582585E+00 +9.669159E+02 
 +3.813765E+02 +1.845654E+00 -1.558061E+01 +1.845654E+00 +3.684104E+02 -1.270426E+01 -1.558061E+01 -1.270426E+01 +9.592377E+02 
 +3.765501E+02 -9.947842E+00 -1.520728E+01 -9.947842E+00 +3.491142E+02 -9.577518E-01 -1.520728E+01 -9.577518E-01 +9.627782E+02 
 +4.204170E+02 -2.601924E+01 -1.000164E+01 -2.601924E+01 +3.743122E+02 +1.266869E+01 -1.000164E+01 +1.266869E+01 +9.821994E+02 
 +4.089046E+02 -1.992496E+01 -6.640094E+00 -1.992496E+01 +3.643302E+02 +4.175024E+00 -6.640094E+00 +4.175024E+00 +9.753313E+02 
 +3.979213E+02 -1.474061E+01 -1.988125E+00 -1.474061E+01 +3.861920E+02 +6.746387E+00 -1.988125E+00 +6.746387E+00 +9.768217E+02 
 +3.896395E+02 +2.523911E+01 +8.157222E+00 +2.523911E+01 +4.074886E+02 +2.862790E+00 +8.157222E+00 +2.862790E+00 +9.707103E+02 
 +3.808290E+02 -1.346009E+00 +6.064759E+00 -1.346009E+00 +3.961787E+02 -4.922329E+00 +6.064759E+00 -4.922329E+00 +9.621940E+02 
 +3.220669E+02 -9.618425E+00 -4.373394E+00 -9.618425E+00 +3.534176E+02 -3.909027E+00 -4.373394E+00 -3.909027E+00 +9.441814E+02 
 +3.174326E+02 -1.134210E+01 -3.584082E+00 -1.134210E+01 +3.587453E+02 +1.892196E+00 -3.584082E+00 +1.892196E+00 +9.501556E+02 
 +3.047693E+02 -1.956750E+01 -4.118096E+00 -1.956750E+01 +3.510056E+02 +7.612311E+00 -4.118096E+00 +7.612311E+00 +9.358732E+02 
 +2.987847E+02 -1.383110E+01 -1.037428E+01 -1.383110E+01 +3.437373E+02 +2.752660E+00 -1.037428E+01 +2.752660E+00 +8.999335E+02 
 +3.597734E+02 -1.652250E+00 -9.201217E+00 -1.652250E+00 +3.830704E+02 -8.707544E+00 -9.201217E+00 -8.707544E+00 +9.029713E+02 
 +3.855020E+02 +1.674106E+00 -3.900391E+00 +1.674106E+00 +3.991968E+02 -9.391020E+00 -3.900391E+00 -9.391020E+00 +9.131776E+02 
 +3.879144E+02 +2.129729E+00 -1.605877E+00 +2.129729E+00 +3.919735E+02 -5.227612E+00 -1.605877E+00 -5.227612E+00 +9.088843E+02 
 +3.942453E+02 +2.320824E+00 +1.028466E+01 +2.320824E+00 +3.876345E+02 -7.895674E+00 +1.028466E+01 -7.895674E+00 +9.064502E+02 
 +3.774924E+02 +6.915024E-01 +1.852349E+01 +6.915024E-01 +3.762458E+02 +1.191029E+00 +1.852349E+01 +1.191029E+00 +9.015364E+02 
 +4.033238E+02 +3.600689E+00 +1.744589E+01 +3.600689E+00 +4.066632E+02 +1.417976E+01 +1.744589E+01 +1.417976E+01 +9.248516E+02 
 +3.567025E+02 +1.697478E+01 +2.007477E+01 +1.697478E+01 +3.900268E+02 +1.554132E+01 +2.007477E+01 +1.554132E+01 +9.361902E+02 
 +3.666603E+02 +1.794264E+01 +1.645584E+01 +1.794264E+01 +3.876152E+02 +1.012998E+01 +1.645584E+01 +1.012998E+01 +9.652543E+02 
 +3.883917E+02 +1.219059E+01 +1.294694E+01 +1.219059E+01 +3.991975E+02 +6.446576E+00 +1.294694E+01 +6.446576E+00 +9.718342E+02 
 +3.769079E+02 +6.938398E+00 +8.886944E+00 +6.938398E+00 +3.930955E+02 +4.054409E+00 +8.886944E+00 +4.054409E+00 +9.604279E+02 
 +3.773467E+02 +2.798944E+00 -1.311002E+00 +2.798944E+00 +3.822078E+02 -6.837580E-01 -1.311002E+00 -6.837580E-01 +9.644604E+02 
 +3.647151E+02 -2.657356E+00 -8.696793E+00 -2.657356E+00 +3.603842E+02 +1.599522E+00 -8.696793E+00 +1.599522E+00 +9.647445E+02 
 +4.169503E+02 -3.004630E+01 -1.021039E+01 -3.004630E+01 +3.719798E+02 +7.861415E+00 -1.021039E+01 +7.861415E+00 +9.820857E+02 
 +3.710859E+02 -1.780011E+01 +3.307667E+00 -1.780011E+01 +3.523238E+02 +7.834928E+00 +3.307667E+00 +7.834928E+00 +9.658459E+02 
 +3.905863E+02 -1.505916E+01 +3.658344E+00 -1.505916E+01 +3.949370E+02 +1.878985E+01 +3.658344E+00 +1.878985E+01 +9.736158E+02 
 +3.941630E+02 +1.748302E+01 +6.195158E+00 +1.748302E+01 +4.085791E+02 +9.148863E+00 +6.195158E+00 +9.148863E+00 +9.638254E+02 
 +3.663965E+02 -1.570252E+01 +1.002421E+00 -1.570252E+01 +3.818030E+02 -5.373731E+00 +1.002421E+00 -5.373731E+00 +9.569153E+02 
 +3.210359E+02 -2.244752E+01 -2.824720E+00 -2.244752E+01 +3.449692E+02 -4.078703E+00 -2.824720E+00 -4.078703E+00 +9.462866E+02 
 +3.060057E+02 -2.395267E+01 +1.075147E+00 -2.395267E+01 +3.305288E+02 +2.869476E+00 +1.075147E+00 +2.869476E+00 +9.400447E+02 
 +3.037258E+02 -2.728693E+01 -3.549321E+00 -2.728693E+01 +3.294682E+02 +6.647119E+00 -3.549321E+00 +6.647119E+00 +9.207932E+02 
 +3.307595E+02 -8.794725E+00 -3.022505E+00 -8.794725E+00 +3.530304E+02 -1.597340E+00 -3.022505E+00 -1.597340E+00 +9.001916E+02 
 +3.888894E+02 -9.666258E-01 -1.141086E+00 -9.666258E-01 +4.037196E+02 -4.330896E+00 -1.141086E+00 -4.330896E+00 +9.250793E+02 
 +4.022642E+02 -5.852286E+00 -2.635439E+00 -5.852286E+00 +4.150101E+02 -3.782554E+00 -2.635439E+00 -3.782554E+00 +9.371171E+02 
 +3.989785E+02 -1.589163E+00 +2.902325E+00 -1.589163E+00 +4.094885E+02 -9.707860E-01 +2.902325E+00 -9.707860E-01 +9.267441E+02 
 +4.008212E+02 -2.501933E+00 +1.370458E+01 -2.501933E+00 +4.068023E+02 -2.020767E-01 +1.370458E+01 -2.020767E-01 +9.202499E+02 
 +4.074112E+02 -5.720610E+00 +1.987155E+01 -5.720610E+00 +4.071968E+02 -3.168297E+00 +1.987155E+01 -3.168297E+00 +9.115055E+02 
 +4.006330E+02 -9.817001E+00 +1.815468E+01 -9.817001E+00 +4.099075E+02 -5.313062E-01 +1.815468E+01 -5.313062E-01 +9.029948E+02 
 +3.907825E+02 -8.040430E+00 +2.682958E+01 -8.040430E+00 +4.077388E+02 +8.198766E+00 +2.682958E+01 +8.198766E+00 +9.319077E+02 
 +3.651367E+02 +4.267239E+00 +2.915838E+01 +4.267239E+00 +3.861984E+02 +1.658767E+01 +2.915838E+01 +1.658767E+01 +9.694394E+02 
 +3.774089E+02 +1.282937E+01 +2.358315E+01 +1.282937E+01 +3.936923E+02 +1.624822E+01 +2.358315E+01 +1.624822E+01 +9.843807E+02 
 +3.972921E+02 +7.079217E+00 +1.823383E+01 +7.079217E+00 +4.046888E+02 +1.357932E+01 +1.823383E+01 +1.357932E+01 +9.821131E+02 
 +3.819845E+02 +8.911315E+00 +1.003432E+01 +8.911315E+00 +3.916826E+02 +8.059107E+00 +1.003432E+01 +8.059107E+00 +9.754831E+02 
 +3.483041E+02 +8.059064E+00 +3.077164E+00 +8.059064E+00 +3.651399E+02 +5.710937E+00 +3.077164E+00 +5.710937E+00 +9.649892E+02 
 +3.733877E+02 -2.630022E+01 +2.140493E+00 -2.630022E+01 +3.547425E+02 +6.590923E+00 +2.140493E+00 +6.590923E+00 +9.674294E+02 
 +3.529130E+02 +1.471755E+01 +5.315033E+00 +1.471755E+01 +3.973033E+02 +7.800018E+00 +5.315033E+00 +7.800018E+00 +9.746785E+02 
 +3.782603E+02 +1.316831E+01 +1.349234E+00 +1.316831E+01 +4.296614E+02 +1.310841E+01 +1.349234E+00 +1.310841E+01 +9.665466E+02 
 +4.014686E+02 +2.075468E+01 +2.078636E+00 +2.075468E+01 +4.179254E+02 +7.218712E-01 +2.078636E+00 +7.218712E-01 +9.365111E+02 
 +3.648671E+02 -2.230724E+00 -1.385824E+00 -2.230724E+00 +3.807212E+02 -9.806460E+00 -1.385824E+00 -9.806460E+00 +9.326098E+02 
 +3.211668E+02 -6.129723E+00 -2.792839E+00 -6.129723E+00 +3.548926E+02 +6.765439E+00 -2.792839E+00 +6.765439E+00 +9.383794E+02 
 +3.254045E+02 -1.293431E+00 -2.136776E+00 -1.293431E+00 +3.430460E+02 +1.720330E+01 -2.136776E+00 +1.720330E+01 +9.347076E+02 
 +3.463360E+02 +2.316685E+00 -7.427093E+00 +2.316685E+00 +3.460135E+02 +1.419725E+01 -7.427093E+00 +1.419725E+01 +9.363912E+02 
 +3.449569E+02 +1.751628E+01 +5.976205E+00 +1.751628E+01 +3.400136E+02 +9.528746E-01 +5.976205E+00 +9.528746E-01 +9.287225E+02 
 +3.496318E+02 +1.748593E+01 +8.306423E+00 +1.748593E+01 +3.510829E+02 -4.532076E+00 +8.306423E+00 -4.532076E+00 +9.277149E+02 
 +3.989023E+02 +1.161792E+00 +9.493370E-01 +1.161792E+00 +4.058204E+02 -2.852868E+00 +9.493370E-01 -2.852868E+00 +9.467602E+02 
 +4.060628E+02 -3.108840E+00 +3.280057E+00 -3.108840E+00 +4.180687E+02 -7.725292E-01 +3.280057E+00 -7.725292E-01 +9.405938E+02 
 +4.001442E+02 -3.489039E+00 +9.957084E+00 -3.489039E+00 +4.099538E+02 -5.966550E-01 +9.957084E+00 -5.966550E-01 +9.334280E+02 
 +3.997069E+02 -7.096842E+00 +9.195166E+00 -7.096842E+00 +4.066533E+02 -1.042350E+00 +9.195166E+00 -1.042350E+00 +9.177852E+02 
 +3.897568E+02 -9.384329E+00 +1.155313E+01 -9.384329E+00 +3.922550E+02 -3.310574E+00 +1.155313E+01 -3.310574E+00 +9.082842E+02 
 +3.892812E+02 -2.070329E+01 +2.469542E+01 -2.070329E+01 +3.824881E+02 +8.757427E-01 +2.469542E+01 +8.757427E-01 +9.463183E+02 
 +3.763030E+02 -1.467271E+01 +2.618517E+01 -1.467271E+01 +3.734031E+02 +9.927023E+00 +2.618517E+01 +9.927023E+00 +9.776037E+02 
 +3.530147E+02 -1.211097E+00 +2.256222E+01 -1.211097E+00 +3.597966E+02 +1.826928E+01 +2.256222E+01 +1.826928E+01 +9.750261E+02 
 +3.711275E+02 -2.186499E+01 +1.325804E+01 -2.186499E+01 +3.493469E+02 +1.575236E+01 +1.325804E+01 +1.575236E+01 +9.705757E+02 
 +3.461485E+02 -2.007791E+01 +9.000526E+00 -2.007791E+01 +3.173050E+02 +9.119189E+00 +9.000526E+00 +9.119189E+00 +9.528453E+02 
 +3.396343E+02 -1.535950E+01 +6.866869E+00 -1.535950E+01 +3.120413E+02 +7.802647E+00 +6.866869E+00 +7.802647E+00 +9.493511E+02 
 +3.551385E+02 -1.894964E+01 +1.144814E+01 -1.894964E+01 +3.494661E+02 +7.195002E+00 +1.144814E+01 +7.195002E+00 +9.598349E+02 
 +3.634823E+02 +3.324896E+00 -2.674339E+00 +3.324896E+00 +4.167520E+02 +7.225006E+00 -2.674339E+00 +7.225006E+00 +9.841124E+02 
 +3.557508E+02 +8.358632E+00 -1.151748E+00 +8.358632E+00 +4.125731E+02 +7.023794E+00 -1.151748E+00 +7.023794E+00 +9.567650E+02 
 +4.053697E+02 +2.135864E+01 -2.734858E+00 +2.135864E+01 +4.059545E+02 +3.306091E+00 -2.734858E+00 +3.306091E+00 +9.282201E+02 
 +3.329808E+02 +2.250203E+00 -2.282061E+00 +2.250203E+00 +3.491251E+02 +1.896076E+00 -2.282061E+00 +1.896076E+00 +9.082179E+02 
 +3.282433E+02 -7.991672E+00 +8.921164E-01 -7.991672E+00 +3.430348E+02 +4.390132E+00 +8.921164E-01 +4.390132E+00 +9.132433E+02 
 +3.480069E+02 +3.129800E+00 -5.615859E+00 +3.129800E+00 +3.440645E+02 +1.031078E+01 -5.615859E+00 +1.031078E+01 +9.117448E+02 
 +3.702007E+02 +6.287443E+00 -9.895335E+00 +6.287443E+00 +3.579972E+02 +1.148402E+01 -9.895335E+00 +1.148402E+01 +9.435527E+02 
 +3.507475E+02 +1.406375E+01 +6.671361E+00 +1.406375E+01 +3.554099E+02 +2.412736E+00 +6.671361E+00 +2.412736E+00 +9.494095E+02 
 +3.376636E+02 +2.200940E+01 +7.215639E+00 +2.200940E+01 +3.421934E+02 -4.717500E+00 +7.215639E+00 -4.717500E+00 +9.315954E+02 
 +3.530731E+02 +1.873939E+01 +3.591826E+00 +1.873939E+01 +3.571998E+02 -2.524757E+00 +3.591826E+00 -2.524757E+00 +9.289894E+02 
 +3.949579E+02 +2.569646E+00 +1.967713E+00 +2.569646E+00 +4.081563E+02 -1.360371E+00 +1.967713E+00 -1.360371E+00 +9.448533E+02 
 +4.051237E+02 -3.310417E+00 +2.503834E+00 -3.310417E+00 +4.213143E+02 -5.814618E-01 +2.503834E+00 -5.814618E-01 +9.403000E+02 
 +3.968648E+02 -1.951103E+00 +3.297657E+00 -1.951103E+00 +4.106340E+02 +6.541037E-01 +3.297657E+00 +6.541037E-01 +9.220483E+02 
 +3.924352E+02 -1.389522E+01 +1.265539E+01 -1.389522E+01 +3.967944E+02 +2.406635E+00 +1.265539E+01 +2.406635E+00 +9.326821E+02 
 +3.686275E+02 -2.459068E+01 +2.149880E+01 -2.459068E+01 +3.665996E+02 +4.759966E+00 +2.149880E+01 +4.759966E+00 +9.529128E+02 
 +3.674234E+02 -1.489284E+01 +1.540979E+01 -1.489284E+01 +3.592097E+02 +5.961556E+00 +1.540979E+01 +5.961556E+00 +9.628165E+02 
 +3.457195E+02 -7.979126E+00 +1.312254E+01 -7.979126E+00 +3.335570E+02 +8.931223E+00 +1.312254E+01 +8.931223E+00 +9.561732E+02 
 +3.570978E+02 -1.711985E+01 +2.946944E+00 -1.711985E+01 +3.323915E+02 +1.296427E+01 +2.946944E+00 +1.296427E+01 +9.628525E+02 
 +3.555159E+02 -1.129833E+01 +3.015792E+00 -1.129833E+01 +3.259741E+02 +1.095031E+01 +3.015792E+00 +1.095031E+01 +9.576976E+02 
 +3.443511E+02 -1.480432E+01 -2.508698E-01 -1.480432E+01 +3.136965E+02 +1.181387E+01 -2.508698E-01 +1.181387E+01 +9.440825E+02 
 +3.663561E+02 -2.176178E+01 +1.113760E+00 -2.176178E+01 +3.650789E+02 +1.129522E+01 +1.113760E+00 +1.129522E+01 +9.593379E+02 
 +3.841473E+02 +1.035381E+01 -5.372673E+00 +1.035381E+01 +4.343837E+02 -4.159013E+00 -5.372673E+00 -4.159013E+00 +9.931250E+02 
 +3.805805E+02 +6.475405E+00 -2.040578E+00 +6.475405E+00 +4.104176E+02 -3.478499E+00 -2.040578E+00 -3.478499E+00 +9.604489E+02 
 +4.113243E+02 +1.068086E+01 -2.259605E+00 +1.068086E+01 +4.114153E+02 +3.358110E+00 -2.259605E+00 +3.358110E+00 +9.407870E+02 
 +3.511678E+02 +7.660703E+00 -6.433157E+00 +7.660703E+00 +3.740544E+02 -7.520906E-01 -6.433157E+00 -7.520906E-01 +9.263523E+02 
 +3.677824E+02 +5.915220E+00 -2.962184E+00 +5.915220E+00 +3.809464E+02 -1.303378E+01 -2.962184E+00 -1.303378E+01 +9.209242E+02 
 +3.798859E+02 +4.465523E+00 -1.801484E-01 +4.465523E+00 +3.816813E+02 -5.170780E+00 -1.801484E-01 -5.170780E+00 +9.121720E+02 
 +3.758026E+02 +3.928635E+00 -1.149872E+01 +3.928635E+00 +3.775390E+02 +8.754845E+00 -1.149872E+01 +8.754845E+00 +9.371338E+02 
 +3.485320E+02 +1.418614E+01 +5.628305E-01 +1.418614E+01 +3.565975E+02 +2.202806E+00 +5.628305E-01 +2.202806E+00 +9.403259E+02 
 +3.455815E+02 +1.990313E+01 +1.653172E+00 +1.990313E+01 +3.535758E+02 -2.410057E+00 +1.653172E+00 -2.410057E+00 +9.370203E+02 
 +3.415972E+02 +2.262300E+01 +1.156784E+00 +2.262300E+01 +3.451830E+02 -1.905767E+00 +1.156784E+00 -1.905767E+00 +9.307706E+02 
 +3.515636E+02 +1.962787E+01 +2.820338E+00 +1.962787E+01 +3.596146E+02 +9.112595E-01 +2.820338E+00 +9.112595E-01 +9.344011E+02 
 +3.986901E+02 +3.897459E+00 -3.335488E+00 +3.897459E+00 +4.127749E+02 +2.125488E+00 -3.335488E+00 +2.125488E+00 +9.481008E+02 
 +3.984516E+02 -6.108305E+00 +3.709587E+00 -6.108305E+00 +4.055646E+02 +2.834914E-01 +3.709587E+00 +2.834914E-01 +9.461202E+02 
 +3.726553E+02 -1.752905E+01 +1.826547E+01 -1.752905E+01 +3.699457E+02 -1.165119E+00 +1.826547E+01 -1.165119E+00 +9.535533E+02 
 +3.599729E+02 -2.153820E+01 +1.984050E+01 -2.153820E+01 +3.609530E+02 -1.399275E+00 +1.984050E+01 -1.399275E+00 +9.563249E+02 
 +3.497308E+02 -1.213203E+01 +1.346260E+01 -1.213203E+01 +3.443936E+02 -2.599876E+00 +1.346260E+01 -2.599876E+00 +9.460505E+02 
 +3.549220E+02 -7.599865E+00 +7.541485E+00 -7.599865E+00 +3.306038E+02 -4.919677E-01 +7.541485E+00 -4.919677E-01 +9.523732E+02 
 +3.544725E+02 -1.623486E+01 -3.392666E+00 -1.623486E+01 +3.200230E+02 +7.775121E+00 -3.392666E+00 +7.775121E+00 +9.531676E+02 
 +3.568264E+02 -9.370967E+00 -1.054929E+00 -9.370967E+00 +3.353915E+02 +7.219491E+00 -1.054929E+00 +7.219491E+00 +9.476032E+02 
 +3.681583E+02 -6.025865E-01 -6.659632E+00 -6.025865E-01 +3.888773E+02 +2.294862E+00 -6.659632E+00 +2.294862E+00 +9.539343E+02 
 +3.837273E+02 +3.272326E+00 -6.285892E+00 +3.272326E+00 +4.359944E+02 -1.620959E+00 -6.285892E+00 -1.620959E+00 +9.772428E+02 
 +3.897324E+02 +1.536606E+01 -4.178401E+00 +1.536606E+01 +4.341366E+02 -9.890672E+00 -4.178401E+00 -9.890672E+00 +9.962562E+02 
 +4.057276E+02 +1.040283E+01 -7.107904E+00 +1.040283E+01 +4.260604E+02 -8.200599E+00 -7.107904E+00 -8.200599E+00 +9.698342E+02 
 +3.943236E+02 +1.434551E+01 -3.921360E+00 +1.434551E+01 +3.978769E+02 -6.381166E+00 -3.921360E+00 -6.381166E+00 +9.293720E+02 
 +3.953716E+02 +1.320258E+01 -7.916113E+00 +1.320258E+01 +3.929800E+02 +4.874517E-01 -7.916113E+00 +4.874517E-01 +9.351877E+02 
 +3.656616E+02 +6.795921E+00 -9.860437E+00 +6.795921E+00 +3.794415E+02 +4.603203E+00 -9.860437E+00 +4.603203E+00 +9.219554E+02 
 +3.918415E+02 +1.821249E+00 +2.804164E+00 +1.821249E+00 +3.978033E+02 +4.711268E+00 +2.804164E+00 +4.711268E+00 +9.338420E+02 
 +3.805017E+02 +4.414295E-01 -9.897930E+00 +4.414295E-01 +3.886163E+02 +6.727229E+00 -9.897930E+00 +6.727229E+00 +9.461827E+02 
 +3.570855E+02 +1.056535E+01 -2.691571E+00 +1.056535E+01 +3.675880E+02 +2.362173E+00 -2.691571E+00 +2.362173E+00 +9.424157E+02 
 +3.419107E+02 +1.944037E+01 -2.236924E+00 +1.944037E+01 +3.496235E+02 +2.991808E-01 -2.236924E+00 +2.991808E-01 +9.380072E+02 
 +3.471128E+02 +1.972248E+01 -5.502224E+00 +1.972248E+01 +3.503453E+02 +2.398602E+00 -5.502224E+00 +2.398602E+00 +9.441475E+02 
 +3.378321E+02 +2.286555E+01 +8.808098E-01 +2.286555E+01 +3.408372E+02 +4.384891E+00 +8.808098E-01 +4.384891E+00 +9.395251E+02 
 +3.537714E+02 +1.148625E+01 -2.727665E+00 +1.148625E+01 +3.454761E+02 +7.442967E+00 -2.727665E+00 +7.442967E+00 +9.465996E+02 
 +3.758477E+02 -1.040486E+01 +1.594729E+00 -1.040486E+01 +3.591419E+02 +2.490907E+00 +1.594729E+00 +2.490907E+00 +9.682452E+02 
 +3.700230E+02 -1.524363E+01 +1.196591E+01 -1.524363E+01 +3.620687E+02 -2.041188E+00 +1.196591E+01 -2.041188E+00 +9.736062E+02 
 +3.606579E+02 -1.566949E+01 +6.883766E+00 -1.566949E+01 +3.612843E+02 -4.821028E+00 +6.883766E+00 -4.821028E+00 +9.662202E+02 
 +3.505341E+02 -1.320441E+01 +8.188162E+00 -1.320441E+01 +3.407141E+02 -4.580970E+00 +8.188162E+00 -4.580970E+00 +9.549829E+02 
 +3.381442E+02 -7.607093E+00 +2.711954E+00 -7.607093E+00 +3.121524E+02 -1.855194E+00 +2.711954E+00 -1.855194E+00 +9.451448E+02 
 +3.656427E+02 -7.919325E+00 -7.283017E+00 -7.919325E+00 +3.450493E+02 -1.094557E+00 -7.283017E+00 -1.094557E+00 +9.590129E+02 
 +3.880181E+02 +5.060191E+00 -5.644873E+00 +5.060191E+00 +4.044171E+02 -6.278777E+00 -5.644873E+00 -6.278777E+00 +9.677609E+02 
 +3.835723E+02 +5.483438E+00 -8.407660E+00 +5.483438E+00 +4.205304E+02 -7.431925E+00 -8.407660E+00 -7.431925E+00 +9.596042E+02 
 +3.700684E+02 +7.559546E+00 -2.262367E+00 +7.559546E+00 +4.165153E+02 -6.399761E+00 -2.262367E+00 -6.399761E+00 +9.692258E+02 
 +3.861579E+02 +1.114086E+01 +4.004819E-02 +1.114086E+01 +3.944335E+02 -2.630701E+00 +4.004819E-02 -2.630701E+00 +9.456212E+02 
 +3.885061E+02 +1.038985E+01 -3.773025E+00 +1.038985E+01 +3.872921E+02 -3.468070E+00 -3.773025E+00 -3.468070E+00 +9.203156E+02 
 +4.017288E+02 +1.017808E+01 -6.358359E+00 +1.017808E+01 +3.948570E+02 -2.614651E+00 -6.358359E+00 -2.614651E+00 +9.282076E+02 
 +4.029653E+02 +9.866548E+00 -8.663056E+00 +9.866548E+00 +3.959296E+02 -8.004658E+00 -8.663056E+00 -8.004658E+00 +9.326751E+02 
 +3.901087E+02 +8.396640E+00 -1.091313E+01 +8.396640E+00 +3.973415E+02 -7.241270E+00 -1.091313E+01 -7.241270E+00 +9.388570E+02 
 +3.847601E+02 +9.413165E+00 +8.873558E+00 +9.413165E+00 +3.973325E+02 +1.866370E+00 +8.873558E+00 +1.866370E+00 +9.521960E+02 
 +3.686677E+02 +7.627288E+00 -1.784115E+01 +7.627288E+00 +3.803628E+02 +7.302922E+00 -1.784115E+01 +7.302922E+00 +9.325413E+02 
 +3.572501E+02 +5.700249E+00 -1.366918E+01 +5.700249E+00 +3.759889E+02 +9.521176E+00 -1.366918E+01 +9.521176E+00 +9.281522E+02 
 +3.503545E+02 +5.843902E+00 -8.062081E+00 +5.843902E+00 +3.666735E+02 +6.674038E+00 -8.062081E+00 +6.674038E+00 +9.411492E+02 
 +3.374621E+02 +1.205091E+01 -5.406236E+00 +1.205091E+01 +3.408434E+02 +4.321807E+00 -5.406236E+00 +4.321807E+00 +9.373180E+02 
 +3.393202E+02 +2.049609E+01 -4.134074E+00 +2.049609E+01 +3.284873E+02 +5.531447E+00 -4.134074E+00 +5.531447E+00 +9.460794E+02 
 +3.462854E+02 -2.872983E+00 +4.238736E+00 -2.872983E+00 +3.294427E+02 -2.882347E+00 +4.238736E+00 -2.882347E+00 +9.537879E+02 
 +3.550657E+02 -7.101073E+00 +2.302759E+00 -7.101073E+00 +3.435990E+02 -6.338787E+00 +2.302759E+00 -6.338787E+00 +9.598919E+02 
 +3.620381E+02 -5.950031E+00 +3.326510E+00 -5.950031E+00 +3.561652E+02 -4.959214E+00 +3.326510E+00 -4.959214E+00 +9.627933E+02 
 +3.606971E+02 -6.771725E+00 +3.217981E+00 -6.771725E+00 +3.593209E+02 -6.915251E+00 +3.217981E+00 -6.915251E+00 +9.632817E+02 
 +3.524164E+02 -1.192099E+01 +5.407694E+00 -1.192099E+01 +3.423356E+02 -3.979555E+00 +5.407694E+00 -3.979555E+00 +9.558884E+02 
 +3.558947E+02 +7.637765E+00 +1.048486E+00 +7.637765E+00 +3.460266E+02 -4.954758E-01 +1.048486E+00 -4.954758E-01 +9.570893E+02 
 +3.650434E+02 +8.610294E+00 -2.960029E+00 +8.610294E+00 +3.711423E+02 +1.941807E+00 -2.960029E+00 +1.941807E+00 +9.719839E+02 
 +3.582763E+02 +9.328863E+00 -2.161201E+00 +9.328863E+00 +3.718778E+02 -6.992799E-02 -2.161201E+00 -6.992799E-02 +9.742942E+02 
 +3.471802E+02 +1.197118E+01 -1.959427E+00 +1.197118E+01 +3.676623E+02 -3.824510E+00 -1.959427E+00 -3.824510E+00 +9.713248E+02 
 +3.644431E+02 +1.772055E+01 +1.233839E+01 +1.772055E+01 +3.854925E+02 -3.340050E+00 +1.233839E+01 -3.340050E+00 +9.715208E+02 
 +3.762582E+02 +8.702995E+00 +2.997673E-01 +8.702995E+00 +3.786457E+02 -7.167079E+00 +2.997673E-01 -7.167079E+00 +9.371827E+02 
 +3.776502E+02 +9.691153E+00 -2.494924E+00 +9.691153E+00 +3.804905E+02 -8.070962E+00 -2.494924E+00 -8.070962E+00 +9.076202E+02 
 +3.921752E+02 +6.850721E+00 -8.548316E+00 +6.850721E+00 +3.844627E+02 -7.616187E+00 -8.548316E+00 -7.616187E+00 +9.169978E+02 
 +4.049052E+02 +1.032309E+01 -1.277761E+01 +1.032309E+01 +3.902782E+02 -9.745545E+00 -1.277761E+01 -9.745545E+00 +9.350033E+02 
 +4.069506E+02 +8.163328E+00 -7.539041E+00 +8.163328E+00 +3.885202E+02 -6.493149E+00 -7.539041E+00 -6.493149E+00 +9.340136E+02 
 +4.051626E+02 +5.018460E+00 +9.576229E+00 +5.018460E+00 +4.018082E+02 -4.808604E+00 +9.576229E+00 -4.808604E+00 +9.467741E+02 
 +3.897595E+02 +5.249755E+00 -3.030216E+00 +5.249755E+00 +4.085014E+02 -4.173783E+00 -3.030216E+00 -4.173783E+00 +9.574205E+02 
 +3.582088E+02 +1.671415E+01 -3.995971E+00 +1.671415E+01 +3.912376E+02 +6.893570E+00 -3.995971E+00 +6.893570E+00 +9.523405E+02 
 +3.544989E+02 +1.544842E+01 -4.052352E+00 +1.544842E+01 +3.801320E+02 +1.588957E+01 -4.052352E+00 +1.588957E+01 +9.544713E+02 
 +3.393583E+02 +1.943021E+01 -3.004163E+00 +1.943021E+01 +3.429389E+02 +1.315697E+01 -3.004163E+00 +1.315697E+01 +9.443922E+02 
 +3.116928E+02 +2.166109E+01 -7.400184E+00 +2.166109E+01 +3.032517E+02 +6.320281E+00 -7.400184E+00 +6.320281E+00 +9.431986E+02 
 +3.356373E+02 -6.981008E-01 -2.041081E+00 -6.981008E-01 +3.135164E+02 -3.722802E+00 -2.041081E+00 -3.722802E+00 +9.606920E+02 
 +3.552399E+02 -4.424868E-01 -6.026908E+00 -4.424868E-01 +3.269461E+02 -3.584790E+00 -6.026908E+00 -3.584790E+00 +9.684763E+02 
 +3.588711E+02 +5.029886E+00 -1.037948E+01 +5.029886E+00 +3.341752E+02 +7.276600E-01 -1.037948E+01 +7.276600E-01 +9.693807E+02 
 +3.663049E+02 +4.031061E+00 -1.560741E+01 +4.031061E+00 +3.550693E+02 -4.089346E+00 -1.560741E+01 -4.089346E+00 +9.687403E+02 
 +3.407862E+02 -1.538973E+01 -6.584716E+00 -1.538973E+01 +3.490117E+02 -3.736633E+00 -6.584716E+00 -3.736633E+00 +9.520878E+02 
 +3.557413E+02 +9.878579E+00 -3.510976E+00 +9.878579E+00 +3.626819E+02 +5.088123E+00 -3.510976E+00 +5.088123E+00 +9.607091E+02 
 +3.563581E+02 +8.643389E+00 -4.395921E-01 +8.643389E+00 +3.728344E+02 +5.556117E+00 -4.395921E-01 +5.556117E+00 +9.702617E+02 
 +3.582044E+02 +8.684038E+00 +4.198061E+00 +8.684038E+00 +3.730232E+02 -1.314045E+00 +4.198061E+00 -1.314045E+00 +9.766596E+02 
 +3.509562E+02 +1.306133E+01 +5.330151E+00 +1.306133E+01 +3.637064E+02 -4.249840E+00 +5.330151E+00 -4.249840E+00 +9.725168E+02 
 +3.577300E+02 +1.867589E+01 +1.742623E+01 +1.867589E+01 +3.654874E+02 -6.103019E+00 +1.742623E+01 -6.103019E+00 +9.633095E+02 
 +3.816060E+02 +9.364232E+00 +1.536506E+00 +9.364232E+00 +3.830672E+02 -1.639716E+01 +1.536506E+00 -1.639716E+01 +9.415685E+02 
 +3.805441E+02 +5.011574E+00 -3.714657E+00 +5.011574E+00 +3.809908E+02 -1.620039E+01 -3.714657E+00 -1.620039E+01 +9.182221E+02 
 +4.004029E+02 +6.050777E+00 -9.811434E+00 +6.050777E+00 +3.931172E+02 -1.384486E+01 -9.811434E+00 -1.384486E+01 +9.332272E+02 
 +4.175428E+02 +7.174275E+00 -8.753145E+00 +7.174275E+00 +3.967075E+02 -9.513656E+00 -8.753145E+00 -9.513656E+00 +9.519289E+02 
 +4.199661E+02 +7.322379E+00 -6.259668E+00 +7.322379E+00 +3.953462E+02 -9.020013E+00 -6.259668E+00 -9.020013E+00 +9.456804E+02 
 +4.097992E+02 +1.804646E+00 +9.296007E+00 +1.804646E+00 +3.972397E+02 -9.093244E+00 +9.296007E+00 -9.093244E+00 +9.582873E+02 
 +3.894952E+02 -1.190523E+01 +8.293172E+00 -1.190523E+01 +3.897032E+02 -7.695561E+00 +8.293172E+00 -7.695561E+00 +9.830180E+02 
 +3.596571E+02 -5.969770E+00 +6.924402E+00 -5.969770E+00 +3.734360E+02 -2.153053E+00 +6.924402E+00 -2.153053E+00 +9.743247E+02 
 +3.425629E+02 -1.221117E+01 +2.315131E+00 -1.221117E+01 +3.526829E+02 +1.577175E+00 +2.315131E+00 +1.577175E+00 +9.567599E+02 
 +3.372244E+02 -6.144902E+00 +1.148667E+00 -6.144902E+00 +3.417381E+02 -4.933510E+00 +1.148667E+00 -4.933510E+00 +9.550383E+02 
 +3.072587E+02 +3.351430E+00 -8.216710E+00 +3.351430E+00 +3.068874E+02 -6.721070E+00 -8.216710E+00 -6.721070E+00 +9.534129E+02 
 +3.422628E+02 +3.843776E+00 -1.202146E+01 +3.843776E+00 +3.028833E+02 -3.207985E+00 -1.202146E+01 -3.207985E+00 +9.726531E+02 
 +3.461428E+02 +3.733984E+00 -9.806201E+00 +3.733984E+00 +3.078436E+02 -7.147426E-01 -9.806201E+00 -7.147426E-01 +9.716050E+02 
 +3.592307E+02 +5.833573E+00 -1.566166E+01 +5.833573E+00 +3.308933E+02 +1.247635E+00 -1.566166E+01 +1.247635E+00 +9.695630E+02 
 +3.763103E+02 +7.832841E+00 -2.304468E+01 +7.832841E+00 +3.667437E+02 -3.386370E+00 -2.304468E+01 -3.386370E+00 +9.721840E+02 
 +3.230830E+02 -1.734609E+01 -1.104787E+01 -1.734609E+01 +3.669298E+02 -5.289962E+00 -1.104787E+01 -5.289962E+00 +9.539107E+02 
 +3.650373E+02 +5.592807E+00 +1.208543E+00 +5.592807E+00 +3.905811E+02 +4.549632E+00 +1.208543E+00 +4.549632E+00 +9.659820E+02 
 +3.690234E+02 +1.121377E+01 +1.280847E+01 +1.121377E+01 +3.830650E+02 +6.296494E+00 +1.280847E+01 +6.296494E+00 +9.664598E+02 
 +3.636091E+02 +1.218726E+01 +1.463435E+01 +1.218726E+01 +3.780028E+02 -1.221612E+00 +1.463435E+01 -1.221612E+00 +9.744178E+02 
 +3.303338E+02 +1.284365E+01 +1.365342E+01 +1.284365E+01 +3.449626E+02 -6.788475E+00 +1.365342E+01 -6.788475E+00 +9.584486E+02 
 +3.405133E+02 +2.025274E+01 +2.225212E+01 +2.025274E+01 +3.499354E+02 -1.436582E+01 +2.225212E+01 -1.436582E+01 +9.494507E+02 
 +3.835840E+02 +8.563772E+00 -1.570662E+00 +8.563772E+00 +3.789372E+02 -1.536444E+01 -1.570662E+00 -1.536444E+01 +9.398615E+02 
 +4.006416E+02 +3.579796E+00 -6.792736E+00 +3.579796E+00 +3.999262E+02 -1.240309E+01 -6.792736E+00 -1.240309E+01 +9.328643E+02 
 +4.142487E+02 +1.510855E+00 -1.300053E+01 +1.510855E+00 +4.042939E+02 -9.784136E+00 -1.300053E+01 -9.784136E+00 +9.451073E+02 
 +4.188883E+02 +1.348070E+00 -8.287456E+00 +1.348070E+00 +3.997394E+02 -6.465411E+00 -8.287456E+00 -6.465411E+00 +9.562729E+02 
 +4.130828E+02 +1.327998E+00 -1.025783E+01 +1.327998E+00 +3.829430E+02 -6.218873E+00 -1.025783E+01 -6.218873E+00 +9.445829E+02 
 +3.824449E+02 -6.270416E+00 +3.027837E+00 -6.270416E+00 +3.578485E+02 -4.100951E+00 +3.027837E+00 -4.100951E+00 +9.443038E+02 
 +3.706690E+02 -1.262842E+01 +8.777525E+00 -1.262842E+01 +3.674906E+02 -4.747174E+00 +8.777525E+00 -4.747174E+00 +9.723974E+02 
 +3.670632E+02 -9.078039E+00 +9.613271E+00 -9.078039E+00 +3.668946E+02 +2.512385E+00 +9.613271E+00 +2.512385E+00 +9.761750E+02 
 +3.579369E+02 -9.592762E+00 +4.118451E+00 -9.592762E+00 +3.591128E+02 +1.866396E+00 +4.118451E+00 +1.866396E+00 +9.695120E+02 
 +3.411384E+02 -3.304423E+00 -3.465650E+00 -3.304423E+00 +3.510997E+02 -7.745229E+00 -3.465650E+00 -7.745229E+00 +9.668382E+02 
 +3.394357E+02 -3.740788E+00 -5.346623E+00 -3.740788E+00 +3.450385E+02 -1.341783E+01 -5.346623E+00 -1.341783E+01 +9.723076E+02 
 +3.732003E+02 -6.581888E+00 -1.501447E+01 -6.581888E+00 +3.736619E+02 -1.117839E+01 -1.501447E+01 -1.117839E+01 +9.857429E+02 
 +3.780842E+02 -8.413710E+00 -1.544179E+01 -8.413710E+00 +3.898260E+02 -7.986319E+00 -1.544179E+01 -7.986319E+00 +9.717794E+02 
 +3.947792E+02 -3.381850E+00 -1.744733E+01 -3.381850E+00 +4.007680E+02 -8.520430E+00 -1.744733E+01 -8.520430E+00 +9.592108E+02 
 +3.830433E+02 +2.291038E+00 -1.671202E+01 +2.291038E+00 +3.982231E+02 -1.285334E+01 -1.671202E+01 -1.285334E+01 +9.567160E+02 
 +3.377083E+02 -1.645706E+01 -2.996660E+00 -1.645706E+01 +3.898749E+02 -1.367730E+01 -2.996660E+00 -1.367730E+01 +9.549142E+02 
 +3.762245E+02 +2.190739E+00 +5.550485E+00 +2.190739E+00 +4.051956E+02 -2.901011E+00 +5.550485E+00 -2.901011E+00 +9.596558E+02 
 +3.871238E+02 +1.615284E+01 +2.591311E+01 +1.615284E+01 +3.966150E+02 +5.161613E+00 +2.591311E+01 +5.161613E+00 +9.659802E+02 
 +3.580859E+02 +7.982969E+00 +2.221309E+01 +7.982969E+00 +3.860483E+02 -2.527122E+00 +2.221309E+01 -2.527122E+00 +9.771064E+02 
 +3.206054E+02 +7.315402E-01 +1.406458E+01 +7.315402E-01 +3.665982E+02 -1.142156E+01 +1.406458E+01 -1.142156E+01 +9.664364E+02 
 +3.389061E+02 +1.284746E+01 +1.735952E+01 +1.284746E+01 +3.604105E+02 -1.787112E+01 +1.735952E+01 -1.787112E+01 +9.523026E+02 
 +4.134953E+02 +6.906905E+00 -3.174894E-01 +6.906905E+00 +4.055874E+02 -1.306787E+01 -3.174894E-01 -1.306787E+01 +9.669098E+02 
 +4.156123E+02 +2.525316E-01 -6.216122E+00 +2.525316E-01 +4.018617E+02 -5.498915E+00 -6.216122E+00 -5.498915E+00 +9.508635E+02 
 +4.234865E+02 -5.327849E+00 -1.134245E+01 -5.327849E+00 +4.090430E+02 -1.278745E+00 -1.134245E+01 -1.278745E+00 +9.567618E+02 
 +4.237904E+02 -4.400193E+00 -9.660019E+00 -4.400193E+00 +4.004388E+02 -1.731417E+00 -9.660019E+00 -1.731417E+00 +9.498995E+02 
 +4.071081E+02 -8.428222E-01 -1.009730E+01 -8.428222E-01 +3.814518E+02 -2.208188E+00 -1.009730E+01 -2.208188E+00 +9.365181E+02 
 +3.955331E+02 +1.550967E-01 -3.308889E+00 +1.550967E-01 +3.849905E+02 -3.754179E+00 -3.308889E+00 -3.754179E+00 +9.482322E+02 
 +3.728662E+02 -7.910085E+00 +1.331093E+01 -7.910085E+00 +3.730161E+02 -7.320246E-01 +1.331093E+01 -7.320246E-01 +9.610632E+02 
 +3.739322E+02 -9.012426E+00 +1.095328E+01 -9.012426E+00 +3.667787E+02 +1.868632E+00 +1.095328E+01 +1.868632E+00 +9.715665E+02 
 +3.657740E+02 -1.056878E+01 +3.869984E+00 -1.056878E+01 +3.640313E+02 -3.705444E-01 +3.869984E+00 -3.705444E-01 +9.756599E+02 
 +3.383520E+02 -1.122394E+01 -5.074491E+00 -1.122394E+01 +3.501019E+02 -7.976536E+00 -5.074491E+00 -7.976536E+00 +9.679429E+02 
 +3.406932E+02 -9.575121E+00 +2.202711E+00 -9.575121E+00 +3.539386E+02 -1.522609E+01 +2.202711E+00 -1.522609E+01 +9.732899E+02 
 +3.421458E+02 -4.996415E+00 -6.753364E+00 -4.996415E+00 +3.503180E+02 -1.864850E+01 -6.753364E+00 -1.864850E+01 +9.589088E+02 
 +3.676550E+02 +2.906902E+00 -1.801154E+01 +2.906902E+00 +3.650760E+02 -1.794700E+01 -1.801154E+01 -1.794700E+01 +9.350966E+02 
 +3.773986E+02 +2.514504E+00 -1.534631E+01 +2.514504E+00 +3.857077E+02 -1.743294E+01 -1.534631E+01 -1.743294E+01 +9.302461E+02 
 +3.689369E+02 +4.800764E+00 -9.211735E+00 +4.800764E+00 +3.833419E+02 -1.913496E+01 -9.211735E+00 -1.913496E+01 +9.308025E+02 
 +3.724379E+02 -6.300633E-02 -4.191536E+00 -6.300633E-02 +3.988342E+02 -2.089107E+01 -4.191536E+00 -2.089107E+01 +9.413548E+02 
 +3.784419E+02 +5.892768E-01 +3.130697E+00 +5.892768E-01 +4.162237E+02 -9.101151E+00 +3.130697E+00 -9.101151E+00 +9.477540E+02 
 +3.826350E+02 +7.056468E+00 +2.560203E+01 +7.056468E+00 +4.130465E+02 +4.380300E+00 +2.560203E+01 +4.380300E+00 +9.721123E+02 
 +3.420761E+02 -1.396614E+00 +1.784073E+01 -1.396614E+00 +3.857481E+02 +3.727354E-01 +1.784073E+01 +3.727354E-01 +9.821783E+02 
 +3.198476E+02 +7.673437E-01 +1.324103E+01 +7.673437E-01 +3.742851E+02 -7.878565E+00 +1.324103E+01 -7.878565E+00 +9.744557E+02 
 +3.256324E+02 +5.790371E+00 +1.179418E+01 +5.790371E+00 +3.710053E+02 -1.600711E+01 +1.179418E+01 -1.600711E+01 +9.595701E+02 
 +3.971865E+02 +2.417964E+01 -1.074167E+00 +2.417964E+01 +3.583818E+02 -1.527680E+01 -1.074167E+00 -1.527680E+01 +9.833921E+02 
 +3.868302E+02 +1.637147E+01 -6.238560E+00 +1.637147E+01 +3.325542E+02 -1.206488E+01 -6.238560E+00 -1.206488E+01 +9.700771E+02 
 +3.916200E+02 +1.251840E+01 -2.849669E+00 +1.251840E+01 +3.435552E+02 -3.904984E+00 -2.849669E+00 -3.904984E+00 +9.558209E+02 
 +4.049569E+02 +2.647981E+00 -8.395398E+00 +2.647981E+00 +3.705420E+02 +9.812910E-02 -8.395398E+00 +9.812910E-02 +9.283588E+02 
 +4.084431E+02 +3.677079E+00 -8.514218E+00 +3.677079E+00 +3.920443E+02 -1.963187E+00 -8.514218E+00 -1.963187E+00 +9.300766E+02 
 +4.065773E+02 +1.117581E+00 -5.270482E+00 +1.117581E+00 +3.978280E+02 -1.364615E-01 -5.270482E+00 -1.364615E-01 +9.488927E+02 
 +3.729205E+02 -1.041484E+01 +1.434126E+01 -1.041484E+01 +3.735343E+02 +2.629097E+00 +1.434126E+01 +2.629097E+00 +9.542577E+02 
 +3.750161E+02 -9.088863E+00 +1.116657E+01 -9.088863E+00 +3.734869E+02 -7.193121E-01 +1.116657E+01 -7.193121E-01 +9.725584E+02 
 +3.639023E+02 -1.052788E+01 +5.281402E+00 -1.052788E+01 +3.700613E+02 -3.555172E+00 +5.281402E+00 -3.555172E+00 +9.789823E+02 
 +3.351212E+02 -1.360167E+01 -1.868541E+00 -1.360167E+01 +3.526901E+02 -1.014828E+01 -1.868541E+00 -1.014828E+01 +9.694543E+02 
 +3.340614E+02 -1.278845E+01 +7.436500E+00 -1.278845E+01 +3.466519E+02 -1.564464E+01 +7.436500E+00 -1.564464E+01 +9.731240E+02 
 +3.410180E+02 -8.391279E+00 +3.956837E+00 -8.391279E+00 +3.470719E+02 -1.587242E+01 +3.956837E+00 -1.587242E+01 +9.674286E+02 
 +3.739293E+02 +6.862679E-01 -1.249481E+01 +6.862679E-01 +3.640209E+02 -1.676481E+01 -1.249481E+01 -1.676481E+01 +9.455717E+02 
 +3.649386E+02 +1.141525E+00 -9.251779E+00 +1.141525E+00 +3.657170E+02 -2.077803E+01 -9.251779E+00 -2.077803E+01 +9.294759E+02 
 +3.739148E+02 +2.578705E+00 -5.517062E+00 +2.578705E+00 +3.770177E+02 -2.189632E+01 -5.517062E+00 -2.189632E+01 +9.317158E+02 
 +3.964356E+02 +1.926176E+00 -4.486225E+00 +1.926176E+00 +3.973580E+02 -1.228058E+01 -4.486225E+00 -1.228058E+01 +9.487817E+02 
 +3.766261E+02 -2.162990E-01 +1.645529E+00 -2.162990E-01 +4.179096E+02 +2.346268E+00 +1.645529E+00 +2.346268E+00 +9.598909E+02 
 +3.747307E+02 +8.533370E-01 +1.107119E+01 +8.533370E-01 +4.272329E+02 +1.243068E+01 +1.107119E+01 +1.243068E+01 +9.772194E+02 
 +3.269703E+02 -8.687838E-01 +7.793302E+00 -8.687838E-01 +3.753489E+02 +8.921792E+00 +7.793302E+00 +8.921792E+00 +9.731710E+02 
 +3.188772E+02 +7.416087E+00 +1.329574E+01 +7.416087E+00 +3.692908E+02 +1.942887E+00 +1.329574E+01 +1.942887E+00 +9.795483E+02 
 +3.300904E+02 +9.623010E+00 +5.425796E+00 +9.623010E+00 +3.608866E+02 -1.032563E+01 +5.425796E+00 -1.032563E+01 +9.746480E+02 
 +3.664017E+02 +3.150615E+01 +5.217016E+00 +3.150615E+01 +3.353122E+02 -1.149941E+01 +5.217016E+00 -1.149941E+01 +9.786696E+02 
 +3.610918E+02 +2.394912E+01 +2.869019E+00 +2.394912E+01 +3.109805E+02 -1.262503E+01 +2.869019E+00 -1.262503E+01 +9.757495E+02 
 +3.601449E+02 +2.455339E+01 +9.833612E+00 +2.455339E+01 +3.144914E+02 -7.635677E+00 +9.833612E+00 -7.635677E+00 +9.621664E+02 
 +3.833533E+02 +1.052801E+01 +1.697218E-01 +1.052801E+01 +3.501588E+02 -3.392755E+00 +1.697218E-01 -3.392755E+00 +9.359403E+02 
 +3.991159E+02 +8.188991E+00 -1.102031E+01 +8.188991E+00 +3.783319E+02 -3.420950E+00 -1.102031E+01 -3.420950E+00 +9.199279E+02 
 +3.938469E+02 -3.263918E+00 -6.614275E+00 -3.263918E+00 +3.787379E+02 -1.001386E+00 -6.614275E+00 -1.001386E+00 +9.315357E+02 
 +3.686226E+02 -1.525037E+01 +1.080036E+01 -1.525037E+01 +3.637823E+02 +1.937604E+00 +1.080036E+01 +1.937604E+00 +9.503328E+02 
 +3.727874E+02 -9.320899E+00 +1.072738E+01 -9.320899E+00 +3.735993E+02 -5.493364E+00 +1.072738E+01 -5.493364E+00 +9.700755E+02 
 +3.627811E+02 -9.715050E+00 +6.665031E+00 -9.715050E+00 +3.757572E+02 -9.511492E+00 +6.665031E+00 -9.511492E+00 +9.781158E+02 
 +3.369070E+02 -1.302364E+01 +3.739657E+00 -1.302364E+01 +3.619101E+02 -1.651208E+01 +3.739657E+00 -1.651208E+01 +9.730049E+02 
 +3.369745E+02 -1.181063E+01 +1.320451E+01 -1.181063E+01 +3.583226E+02 -2.217505E+01 +1.320451E+01 -2.217505E+01 +9.792822E+02 
 +3.380032E+02 -7.707460E+00 +1.022099E+01 -7.707460E+00 +3.466863E+02 -1.991903E+01 +1.022099E+01 -1.991903E+01 +9.720052E+02 
 +3.592948E+02 +4.009064E+00 -5.746328E+00 +4.009064E+00 +3.408382E+02 -1.893943E+01 -5.746328E+00 -1.893943E+01 +9.438041E+02 
 +3.695736E+02 +9.524951E+00 -6.340867E+00 +9.524951E+00 +3.474150E+02 -2.426664E+01 -6.340867E+00 -2.426664E+01 +9.337758E+02 
 +3.687612E+02 +5.646339E+00 -4.837991E+00 +5.646339E+00 +3.547830E+02 -1.781382E+01 -4.837991E+00 -1.781382E+01 +9.449136E+02 
 +3.603653E+02 -4.694141E+00 +5.318344E-01 -4.694141E+00 +3.472647E+02 -5.668260E+00 +5.318344E-01 -5.668260E+00 +9.595217E+02 
 +3.377541E+02 -7.207695E+00 -1.294792E+00 -7.207695E+00 +3.232135E+02 -9.970990E-01 -1.294792E+00 -9.970990E-01 +9.515679E+02 
 +3.405032E+02 -4.808493E+00 -2.899414E-02 -4.808493E+00 +3.315599E+02 +3.997025E+00 -2.899414E-02 +3.997025E+00 +9.501455E+02 
 +3.164076E+02 +3.254098E+00 +1.007535E-01 +3.254098E+00 +3.301605E+02 +7.102835E+00 +1.007535E-01 +7.102835E+00 +9.557402E+02 
 +3.134577E+02 +3.693600E+01 +6.115470E+00 +3.693600E+01 +3.217032E+02 +4.994550E+00 +6.115470E+00 +4.994550E+00 +9.634042E+02 
 +3.387862E+02 +3.237635E+01 +3.894378E-01 +3.237635E+01 +3.337360E+02 -3.535562E+00 +3.894378E-01 -3.535562E+00 +9.693878E+02 
 +3.503398E+02 +1.637008E+01 +1.626566E+01 +1.637008E+01 +3.399416E+02 -2.067122E+00 +1.626566E+01 -2.067122E+00 +9.719172E+02 
 +3.353571E+02 +2.269736E+01 +1.282445E+01 +2.269736E+01 +3.184716E+02 -3.768834E+00 +1.282445E+01 -3.768834E+00 +9.726568E+02 
 +3.224342E+02 +2.120911E+01 +1.138882E+01 +2.120911E+01 +2.974389E+02 -1.716723E+00 +1.138882E+01 -1.716723E+00 +9.729169E+02 
 +3.535018E+02 +1.998994E+01 +5.995804E+00 +1.998994E+01 +3.140878E+02 -9.275178E-01 +5.995804E+00 -9.275178E-01 +9.703025E+02 
 +3.876681E+02 +5.727447E+00 -1.164301E+01 +5.727447E+00 +3.567050E+02 -5.635635E+00 -1.164301E+01 -5.635635E+00 +9.471929E+02 
 +3.703079E+02 -2.154683E+01 +6.501314E-01 -2.154683E+01 +3.438251E+02 -1.933647E-01 +6.501314E-01 -1.933647E-01 +9.342893E+02 
 +3.702249E+02 -2.072613E+01 +9.955700E+00 -2.072613E+01 +3.501691E+02 +2.193750E+00 +9.955700E+00 +2.193750E+00 +9.584786E+02 
 +3.827352E+02 -1.395146E+01 +1.044714E+01 -1.395146E+01 +3.756721E+02 -5.915693E+00 +1.044714E+01 -5.915693E+00 +9.759261E+02 
 +3.782794E+02 -7.367250E+00 +7.561620E+00 -7.367250E+00 +3.848317E+02 -1.604759E+01 +7.561620E+00 -1.604759E+01 +9.842510E+02 
 +3.457348E+02 -1.007057E+01 +7.379347E+00 -1.007057E+01 +3.732268E+02 -2.383665E+01 +7.379347E+00 -2.383665E+01 +9.764466E+02 
 +3.339718E+02 -1.011155E+01 +1.514675E+01 -1.011155E+01 +3.581444E+02 -2.524373E+01 +1.514675E+01 -2.524373E+01 +9.764052E+02 
 +3.322643E+02 -4.472015E+00 +9.504541E+00 -4.472015E+00 +3.446927E+02 -2.635386E+01 +9.504541E+00 -2.635386E+01 +9.656432E+02 
 +3.491191E+02 +5.599446E+00 -9.729340E-01 +5.599446E+00 +3.357793E+02 -2.824275E+01 -9.729340E-01 -2.824275E+01 +9.340772E+02 
 +3.474183E+02 +6.472710E+00 +2.728567E+00 +6.472710E+00 +3.171458E+02 -2.387620E+01 +2.728567E+00 -2.387620E+01 +9.225287E+02 
 +3.574014E+02 -1.882923E+00 +3.386523E+00 -1.882923E+00 +3.230636E+02 -1.084927E+01 +3.386523E+00 -1.084927E+01 +9.538379E+02 
 +3.436412E+02 -5.478753E-01 -1.411039E+00 -5.478753E-01 +3.307058E+02 +3.099402E+00 -1.411039E+00 +3.099402E+00 +9.668571E+02 
 +3.413353E+02 -6.242386E+00 +6.063921E-01 -6.242386E+00 +3.202801E+02 +1.156779E+01 +6.063921E-01 +1.156779E+01 +9.545350E+02 
 +3.320967E+02 -2.815029E+00 -4.524105E+00 -2.815029E+00 +2.940656E+02 +1.089941E+01 -4.524105E+00 +1.089941E+01 +9.338773E+02 
 +3.449885E+02 -4.528295E+00 -5.412367E+00 -4.528295E+00 +3.087913E+02 +6.723579E+00 -5.412367E+00 +6.723579E+00 +9.406109E+02 
 +3.490443E+02 +2.385085E+01 -2.000462E+00 +2.385085E+01 +3.259009E+02 +4.060895E+00 -2.000462E+00 +4.060895E+00 +9.531461E+02 
 +3.588329E+02 +2.424992E+01 +7.135679E+00 +2.424992E+01 +3.485422E+02 +1.413771E+00 +7.135679E+00 +1.413771E+00 +9.672118E+02 
 +3.385523E+02 -3.300845E+00 +1.299602E+01 -3.300845E+00 +3.509871E+02 +2.195530E+00 +1.299602E+01 +2.195530E+00 +9.629036E+02 
 +3.394823E+02 +5.145430E+00 +1.217356E+01 +5.145430E+00 +3.599959E+02 -5.969470E-01 +1.217356E+01 -5.969470E-01 +9.879917E+02 
 +3.285119E+02 +3.409190E+00 +3.966242E+00 +3.409190E+00 +3.357667E+02 +1.305235E+00 +3.966242E+00 +1.305235E+00 +9.919823E+02 
 +3.440525E+02 +2.202889E+01 +2.708043E+00 +2.202889E+01 +3.114222E+02 +3.564060E-01 +2.708043E+00 +3.564060E-01 +9.973535E+02 
 +3.598860E+02 +1.993990E+01 -1.127985E+01 +1.993990E+01 +3.088243E+02 +3.327060E+00 -1.127985E+01 +3.327060E+00 +9.816159E+02 
 +3.603281E+02 -1.380591E+01 -5.051376E-01 -1.380591E+01 +3.193739E+02 +6.863768E+00 -5.051376E-01 +6.863768E+00 +9.561158E+02 
 +3.702590E+02 -4.796491E+00 +4.684944E+00 -4.796491E+00 +3.277555E+02 +2.158246E+00 +4.684944E+00 +2.158246E+00 +9.568963E+02 
 +3.651856E+02 -2.177968E+00 +5.360046E+00 -2.177968E+00 +3.292614E+02 -3.691205E+00 +5.360046E+00 -3.691205E+00 +9.603079E+02 
 +3.727142E+02 +3.593106E+00 +3.581672E+00 +3.593106E+00 +3.479823E+02 -1.285978E+01 +3.581672E+00 -1.285978E+01 +9.693111E+02 
 +3.552276E+02 +5.984806E-01 +3.474053E+00 +5.984806E-01 +3.630620E+02 -2.060622E+01 +3.474053E+00 -2.060622E+01 +9.709544E+02 
 +3.190797E+02 -8.571590E+00 +7.173788E+00 -8.571590E+00 +3.460351E+02 -2.823944E+01 +7.173788E+00 -2.823944E+01 +9.645662E+02 
 +3.231699E+02 +2.415381E+00 +6.991284E+00 +2.415381E+00 +3.397365E+02 -2.317405E+01 +6.991284E+00 -2.317405E+01 +9.478163E+02 
 +3.510346E+02 +1.014324E+01 +4.383825E+00 +1.014324E+01 +3.581314E+02 -2.944277E+00 +4.383825E+00 -2.944277E+00 +9.250330E+02 
 +3.443264E+02 +9.581743E+00 +5.427399E+00 +9.581743E+00 +3.446046E+02 +7.139941E+00 +5.427399E+00 +7.139941E+00 +9.254328E+02 
 +3.346613E+02 -2.052806E+00 +3.377742E+00 -2.052806E+00 +3.159624E+02 +5.492759E+00 +3.377742E+00 +5.492759E+00 +9.481708E+02 
 +3.261528E+02 -5.789434E+00 +9.863672E-01 -5.789434E+00 +2.906146E+02 +1.094693E+01 +9.863672E-01 +1.094693E+01 +9.366612E+02 
 +3.542999E+02 -5.548117E+00 +1.034609E+00 -5.548117E+00 +3.289339E+02 +1.227461E+01 +1.034609E+00 +1.227461E+01 +9.296872E+02 
 +3.861535E+02 +9.336557E+00 -1.538888E+01 +9.336557E+00 +3.879255E+02 +7.488190E+00 -1.538888E+01 +7.488190E+00 +9.390535E+02 
 +4.121055E+02 +3.679582E+00 -1.176492E+01 +3.679582E+00 +4.189860E+02 +2.081465E+00 -1.176492E+01 +2.081465E+00 +9.503026E+02 
 +3.989624E+02 +8.048393E+00 -3.862716E+00 +8.048393E+00 +3.892454E+02 +2.981610E+00 -3.862716E+00 +2.981610E+00 +9.541966E+02 
 +3.828171E+02 +1.838139E+01 +1.124387E+01 +1.838139E+01 +3.587632E+02 +6.626031E+00 +1.124387E+01 +6.626031E+00 +9.584565E+02 
 +3.215609E+02 -5.622396E+00 +1.078490E+01 -5.622396E+00 +3.393171E+02 +4.414057E-01 +1.078490E+01 +4.414057E-01 +9.434362E+02 
 +3.290468E+02 +3.909385E+00 +9.517971E+00 +3.909385E+00 +3.425156E+02 +9.412781E-01 +9.517971E+00 +9.412781E-01 +9.780489E+02 
 +3.279967E+02 +4.984534E+00 +2.545624E+00 +4.984534E+00 +3.406797E+02 +1.140227E+00 +2.545624E+00 +1.140227E+00 +9.884744E+02 
 +3.243797E+02 +6.728152E+00 -1.644575E+00 +6.728152E+00 +3.277860E+02 -2.043126E+00 -1.644575E+00 -2.043126E+00 +9.926660E+02 
 +3.796193E+02 +1.078250E+01 -1.137335E+01 +1.078250E+01 +3.134137E+02 +5.981661E-01 -1.137335E+01 +5.981661E-01 +9.971879E+02 
 +3.622128E+02 +1.475998E-01 -8.436420E+00 +1.475998E-01 +2.905823E+02 +4.900645E+00 -8.436420E+00 +4.900645E+00 +9.595282E+02 
 +3.600534E+02 +4.164834E+00 -5.273343E-01 +4.164834E+00 +3.118550E+02 -3.033867E-01 -5.273343E-01 -3.033867E-01 +9.516904E+02 
 +3.634032E+02 +2.516886E+00 +1.754587E+00 +2.516886E+00 +3.217482E+02 -5.255199E+00 +1.754587E+00 -5.255199E+00 +9.571632E+02 
 +3.608974E+02 +7.483735E+00 +2.695281E+00 +7.483735E+00 +3.166230E+02 -9.693015E+00 +2.695281E+00 -9.693015E+00 +9.561526E+02 
 +3.605729E+02 +1.032949E+01 +1.525244E+00 +1.032949E+01 +3.223983E+02 -1.246422E+01 +1.525244E+00 -1.246422E+01 +9.621744E+02 
 +2.891810E+02 -3.458622E+00 -9.066795E-01 -3.458622E+00 +3.111812E+02 -9.650082E+00 -9.066795E-01 -9.650082E+00 +9.412508E+02 
 +3.325844E+02 +1.448859E+01 +2.501439E-01 +1.448859E+01 +3.596797E+02 +2.733069E+00 +2.501439E-01 +2.733069E+00 +9.452015E+02 
 +3.343459E+02 +1.136961E+01 -6.317968E-01 +1.136961E+01 +3.566071E+02 +7.843017E+00 -6.317968E-01 +7.843017E+00 +9.254038E+02 
 +3.471237E+02 +7.222007E+00 -5.859309E+00 +7.222007E+00 +3.597896E+02 +5.272922E+00 -5.859309E+00 +5.272922E+00 +9.372761E+02 
 +3.436285E+02 +4.215165E+00 -8.218852E+00 +4.215165E+00 +3.723386E+02 +7.844211E+00 -8.218852E+00 +7.844211E+00 +9.546929E+02 
 +3.535194E+02 +4.390014E+00 +6.875716E+00 +4.390014E+00 +3.805322E+02 +1.426326E+01 +6.875716E+00 +1.426326E+01 +9.462043E+02 
 +4.187992E+02 +8.065865E+00 -6.604800E+00 +8.065865E+00 +4.168944E+02 +1.206275E+01 -6.604800E+00 +1.206275E+01 +9.447428E+02 
 +4.103908E+02 +5.088027E+00 -1.858463E+01 +5.088027E+00 +4.109762E+02 +8.075718E+00 -1.858463E+01 +8.075718E+00 +9.305139E+02 
 +4.001826E+02 +2.229071E+00 -1.758497E+01 +2.229071E+00 +4.022916E+02 +6.633975E+00 -1.758497E+01 +6.633975E+00 +9.266000E+02 
 +4.094945E+02 -3.090282E+00 -4.407380E+00 -3.090282E+00 +4.096839E+02 +3.904834E+00 -4.407380E+00 +3.904834E+00 +9.379243E+02 
 +3.987279E+02 +6.649897E+00 +4.528182E+00 +6.649897E+00 +3.894847E+02 +2.443210E+00 +4.528182E+00 +2.443210E+00 +9.451803E+02 
 +3.302969E+02 -8.520390E+00 -3.651802E-01 -8.520390E+00 +3.415634E+02 +4.729198E+00 -3.651802E-01 +4.729198E+00 +9.425817E+02 
 +3.354140E+02 -9.318964E-02 -6.396907E+00 -9.318964E-02 +3.382309E+02 -6.550974E-01 -6.396907E+00 -6.550974E-01 +9.633371E+02 
 +3.147650E+02 +8.322555E+00 -7.396405E+00 +8.322555E+00 +3.313759E+02 -5.795752E+00 -7.396405E+00 -5.795752E+00 +9.734177E+02 
 +3.125087E+02 +1.361842E+01 -8.941423E+00 +1.361842E+01 +3.261282E+02 -6.380623E+00 -8.941423E+00 -6.380623E+00 +9.676337E+02 
 +3.705320E+02 +7.619924E+00 -9.341705E+00 +7.619924E+00 +3.133678E+02 -1.872978E+00 -9.341705E+00 -1.872978E+00 +9.661782E+02 
 +3.566899E+02 +6.191021E+00 -4.540098E+00 +6.191021E+00 +2.838812E+02 +1.850396E+00 -4.540098E+00 +1.850396E+00 +9.489456E+02 
 +3.711920E+02 +1.059021E+00 -4.701269E-01 +1.059021E+00 +3.139140E+02 -1.768053E+00 -4.701269E-01 -1.768053E+00 +9.562511E+02 
 +3.618139E+02 +4.262686E+00 +2.461762E+00 +4.262686E+00 +3.184406E+02 -5.762179E+00 +2.461762E+00 -5.762179E+00 +9.516588E+02 
 +3.613363E+02 +2.615507E+00 +3.813833E+00 +2.615507E+00 +3.186347E+02 -9.199976E+00 +3.813833E+00 -9.199976E+00 +9.548417E+02 
 +3.555312E+02 +2.578692E+00 -9.486214E-01 +2.578692E+00 +3.238130E+02 -1.010663E+01 -9.486214E-01 -1.010663E+01 +9.642879E+02 
 +2.964391E+02 -1.326981E+01 -5.679371E+00 -1.326981E+01 +3.305484E+02 -1.026798E+01 -5.679371E+00 -1.026798E+01 +9.502473E+02 
 +3.298980E+02 -1.478501E+01 -5.648048E+00 -1.478501E+01 +3.685604E+02 -1.421638E+01 -5.648048E+00 -1.421638E+01 +9.557421E+02 
 +3.299239E+02 -2.031809E+01 -8.348450E+00 -2.031809E+01 +3.575671E+02 -1.371991E+01 -8.348450E+00 -1.371991E+01 +9.490610E+02 
 +3.501548E+02 -1.427541E+01 -9.929297E+00 -1.427541E+01 +3.592473E+02 -5.929523E+00 -9.929297E+00 -5.929523E+00 +9.564674E+02 
 +3.496008E+02 -6.253098E+00 -1.087846E+01 -6.253098E+00 +3.601664E+02 +7.316555E+00 -1.087846E+01 +7.316555E+00 +9.504891E+02 
 +3.443368E+02 +4.354587E+00 +1.270499E+00 +4.354587E+00 +3.766736E+02 +1.034602E+01 +1.270499E+00 +1.034602E+01 +9.386446E+02 
 +4.268393E+02 +1.318829E+01 -1.328983E+01 +1.318829E+01 +4.237030E+02 +1.029625E+01 -1.328983E+01 +1.029625E+01 +9.553342E+02 
 +4.188261E+02 +7.796439E+00 -9.941818E+00 +7.796439E+00 +4.107926E+02 +1.046766E+01 -9.941818E+00 +1.046766E+01 +9.465251E+02 
 +4.090678E+02 +2.182244E+00 -1.247994E+01 +2.182244E+00 +4.025641E+02 +1.282429E+01 -1.247994E+01 +1.282429E+01 +9.434264E+02 
 +4.061403E+02 -5.073180E+00 -3.615793E+00 -5.073180E+00 +4.034694E+02 +6.268140E+00 -3.615793E+00 +6.268140E+00 +9.455469E+02 
 +4.009802E+02 -1.988242E+00 -4.775557E+00 -1.988242E+00 +3.979037E+02 +1.972252E+00 -4.775557E+00 +1.972252E+00 +9.581288E+02 
 +3.570193E+02 -1.039028E+01 -1.045256E+01 -1.039028E+01 +3.442198E+02 +1.915091E+01 -1.045256E+01 +1.915091E+01 +9.596751E+02 
 +3.499014E+02 +1.596340E+00 -2.014126E+01 +1.596340E+00 +3.388104E+02 +1.423456E+01 -2.014126E+01 +1.423456E+01 +9.586293E+02 
 +3.150714E+02 +2.186359E+01 -1.400888E+01 +2.186359E+01 +3.193032E+02 +2.581430E+00 -1.400888E+01 +2.581430E+00 +9.519847E+02 
 +3.654763E+02 +3.017223E+01 -4.359491E+00 +3.017223E+01 +3.618626E+02 +1.591830E+00 -4.359491E+00 +1.591830E+00 +9.681818E+02 
 +3.589139E+02 +1.483382E+01 -1.564609E+00 +1.483382E+01 +3.870616E+02 +4.110587E+00 -1.564609E+00 +4.110587E+00 +9.683699E+02 
 +3.462233E+02 +2.804464E+00 +2.437680E+00 +2.804464E+00 +3.773206E+02 +5.512803E+00 +2.437680E+00 +5.512803E+00 +9.653673E+02 
 +3.862442E+02 -2.515586E+01 +1.085331E+00 -2.515586E+01 +3.672971E+02 +3.847938E+00 +1.085331E+00 +3.847938E+00 +9.687822E+02 
 +4.005982E+02 -3.142909E+01 -2.883133E-01 -3.142909E+01 +3.698492E+02 +1.882982E+00 -2.883133E-01 +1.882982E+00 +9.685527E+02 
 +3.953720E+02 -2.841974E+01 -2.209575E+00 -2.841974E+01 +3.762487E+02 -5.741012E-01 -2.209575E+00 -5.741012E-01 +9.721751E+02 
 +3.476722E+02 -1.789899E+01 -2.237118E+00 -1.789899E+01 +3.601635E+02 -1.792932E+00 -2.237118E+00 -1.792932E+00 +9.651301E+02 
 +3.249683E+02 -1.669680E+01 -2.959628E+00 -1.669680E+01 +3.560900E+02 -4.236885E+00 -2.959628E+00 -4.236885E+00 +9.616704E+02 
 +3.304348E+02 -1.813607E+01 -1.222787E+00 -1.813607E+01 +3.634371E+02 -5.841007E+00 -1.222787E+00 -5.841007E+00 +9.658569E+02 
 +3.467986E+02 -1.623698E+01 -3.176060E+00 -1.623698E+01 +3.713062E+02 -6.178342E+00 -3.176060E+00 -6.178342E+00 +9.771414E+02 
 +3.492578E+02 -1.843046E+01 -6.389675E+00 -1.843046E+01 +3.664653E+02 -7.430040E+00 -6.389675E+00 -7.430040E+00 +9.784163E+02 
 +3.426652E+02 -1.936689E+01 -1.379458E+01 -1.936689E+01 +3.450138E+02 -7.214056E+00 -1.379458E+01 -7.214056E+00 +9.674957E+02 
 +3.682448E+02 -9.082900E+00 -8.634142E+00 -9.082900E+00 +3.425014E+02 -2.763321E+00 -8.634142E+00 -2.763321E+00 +9.636629E+02 
 +3.921098E+02 -1.698127E+00 -7.440810E+00 -1.698127E+00 +3.488912E+02 +5.141127E+00 -7.440810E+00 +5.141127E+00 +9.571511E+02 
 +3.842331E+02 -5.940831E+00 -1.680578E+00 -5.940831E+00 +3.437017E+02 +1.732025E+01 -1.680578E+00 +1.732025E+01 +9.479210E+02 
 +3.850355E+02 -1.335181E+01 -1.814021E+00 -1.335181E+01 +3.436213E+02 +2.307474E+01 -1.814021E+00 +2.307474E+01 +9.499384E+02 
 +3.821781E+02 -1.272089E+01 +2.766852E+00 -1.272089E+01 +3.461489E+02 +1.034650E+01 +2.766852E+00 +1.034650E+01 +9.624377E+02 
 +3.904385E+02 -1.515244E+01 -1.287662E+00 -1.515244E+01 +3.574092E+02 +4.351002E+00 -1.287662E+00 +4.351002E+00 +9.781594E+02 
 +3.798877E+02 -1.652222E+01 -3.341629E+00 -1.652222E+01 +3.398012E+02 +3.694016E+00 -3.341629E+00 +3.694016E+00 +9.812921E+02 
 +3.577300E+02 -1.707450E+01 -1.214087E+01 -1.707450E+01 +3.124866E+02 +4.956352E+00 -1.214087E+01 +4.956352E+00 +9.677810E+02 
 +3.399642E+02 +2.130551E+01 -3.611969E+00 +2.130551E+01 +3.149799E+02 +2.702587E+00 -3.611969E+00 +2.702587E+00 +9.509571E+02 
 +3.694323E+02 +1.465181E+01 +5.633715E+00 +1.465181E+01 +3.654732E+02 -1.075861E+00 +5.633715E+00 -1.075861E+00 +9.623722E+02 
 +3.191209E+02 +4.744900E+00 +3.301149E+00 +4.744900E+00 +3.611260E+02 +2.581912E+00 +3.301149E+00 +2.581912E+00 +9.538066E+02 
 +3.156550E+02 +5.892778E+00 +5.108975E+00 +5.892778E+00 +3.754620E+02 +8.958624E+00 +5.108975E+00 +8.958624E+00 +9.610148E+02 
 +3.320681E+02 +1.755508E+00 +4.984247E+00 +1.755508E+00 +3.841621E+02 +8.564567E+00 +4.984247E+00 +8.564567E+00 +9.572248E+02 
 +3.787188E+02 -2.573253E+01 -9.944052E-02 -2.573253E+01 +3.773817E+02 +9.941787E+00 -9.944052E-02 +9.941787E+00 +9.568054E+02 
 +3.861226E+02 -2.675339E+01 -4.307972E+00 -2.675339E+01 +3.638127E+02 +4.812184E+00 -4.307972E+00 +4.812184E+00 +9.544026E+02 
 +3.512416E+02 -1.707618E+01 -5.365704E-01 -1.707618E+01 +3.619539E+02 -7.819625E-01 -5.365704E-01 -7.819625E-01 +9.525619E+02 
 +3.594065E+02 -1.267526E+01 +2.678478E+00 -1.267526E+01 +3.699979E+02 -2.428491E+00 +2.678478E+00 -2.428491E+00 +9.647748E+02 
 +3.569078E+02 -1.644897E+01 +4.750418E+00 -1.644897E+01 +3.728475E+02 -7.041217E+00 +4.750418E+00 -7.041217E+00 +9.719604E+02 
 +3.517128E+02 -1.674833E+01 +6.246641E+00 -1.674833E+01 +3.749379E+02 -9.911784E+00 +6.246641E+00 -9.911784E+00 +9.794657E+02 
 +3.531146E+02 -1.239439E+01 +6.446880E-01 -1.239439E+01 +3.770438E+02 -5.424947E+00 +6.446880E-01 -5.424947E+00 +9.881348E+02 
 +3.282790E+02 -1.281779E+01 -1.439147E+01 -1.281779E+01 +3.400174E+02 +4.758155E+00 -1.439147E+01 +4.758155E+00 +9.729259E+02 
 +3.579003E+02 -7.361322E+00 -1.337554E+01 -7.361322E+00 +3.175815E+02 +8.281409E+00 -1.337554E+01 +8.281409E+00 +9.674470E+02 
 +3.727965E+02 -1.062839E+01 -6.031376E+00 -1.062839E+01 +3.236439E+02 +2.429686E+00 -6.031376E+00 +2.429686E+00 +9.618697E+02 
 +4.102879E+02 -1.345661E+01 -3.859213E+00 -1.345661E+01 +3.496601E+02 +4.581896E+00 -3.859213E+00 +4.581896E+00 +9.714277E+02 
 +3.956127E+02 -9.629908E+00 -2.625555E+00 -9.629908E+00 +3.408106E+02 +8.661177E+00 -2.625555E+00 +8.661177E+00 +9.649005E+02 
 +3.839438E+02 -8.373860E+00 +4.212935E+00 -8.373860E+00 +3.477484E+02 -1.795918E+00 +4.212935E+00 -1.795918E+00 +9.742987E+02 
 +4.017491E+02 -1.564151E+01 +4.698712E+00 -1.564151E+01 +3.600396E+02 -5.887265E+00 +4.698712E+00 -5.887265E+00 +9.899260E+02 
 +3.923467E+02 -1.674058E+01 +2.851504E+00 -1.674058E+01 +3.516304E+02 +5.282281E+00 +2.851504E+00 +5.282281E+00 +9.873646E+02 
 +3.890313E+02 -1.880857E+01 -3.529426E+00 -1.880857E+01 +3.459513E+02 +5.836044E+00 -3.529426E+00 +5.836044E+00 +9.845630E+02 
 +3.601489E+02 +2.350165E+01 +4.156534E+00 +2.350165E+01 +3.402887E+02 +1.400966E+00 +4.156534E+00 +1.400966E+00 +9.593287E+02 
 +3.585935E+02 +1.153430E+01 +5.840162E+00 +1.153430E+01 +3.614176E+02 -5.368358E+00 +5.840162E+00 -5.368358E+00 +9.568888E+02 
 +3.165575E+02 +3.980198E+00 -5.644532E-01 +3.980198E+00 +3.504394E+02 -1.785835E+00 -5.644532E-01 -1.785835E+00 +9.481904E+02 
 +3.241753E+02 -1.908452E+00 +3.445798E+00 -1.908452E+00 +3.661752E+02 +7.169546E+00 +3.445798E+00 +7.169546E+00 +9.587400E+02 
 +3.143625E+02 +2.729476E+00 +4.295601E+00 +2.729476E+00 +3.782153E+02 +1.442200E+01 +4.295601E+00 +1.442200E+01 +9.496796E+02 
 +3.609271E+02 -8.886936E+00 -9.325297E-01 -8.886936E+00 +4.127180E+02 +1.733793E+01 -9.325297E-01 +1.733793E+01 +9.556363E+02 
 +3.596847E+02 -2.564588E+00 -4.420572E+00 -2.564588E+00 +3.924236E+02 +1.079444E+00 -4.420572E+00 +1.079444E+00 +9.466005E+02 
 +3.606513E+02 -6.242885E+00 +5.056825E+00 -6.242885E+00 +3.696803E+02 -1.183370E+01 +5.056825E+00 -1.183370E+01 +9.568199E+02 
 +3.761034E+02 -1.191324E+01 +8.406073E+00 -1.191324E+01 +3.757729E+02 -1.095700E+01 +8.406073E+00 -1.095700E+01 +9.758195E+02 
 +3.746713E+02 -1.585900E+01 +9.232599E+00 -1.585900E+01 +3.772040E+02 -1.008254E+01 +9.232599E+00 -1.008254E+01 +9.676255E+02 
 +3.775517E+02 -1.203302E+01 +1.126295E+01 -1.203302E+01 +3.911276E+02 -4.759813E+00 +1.126295E+01 -4.759813E+00 +9.657505E+02 
 +3.584935E+02 -1.141103E+01 +5.000410E+00 -1.141103E+01 +3.759778E+02 +3.227205E+00 +5.000410E+00 +3.227205E+00 +9.690834E+02 
 +3.565842E+02 -8.735405E+00 -5.978880E+00 -8.735405E+00 +3.720662E+02 +7.861050E+00 -5.978880E+00 +7.861050E+00 +9.729963E+02 
 +3.772784E+02 +1.043682E+01 -8.571369E+00 +1.043682E+01 +4.017446E+02 +5.598458E+00 -8.571369E+00 +5.598458E+00 +9.814811E+02 
 +3.636844E+02 +6.874062E+00 -8.514917E+00 +6.874062E+00 +3.682877E+02 -2.877972E+00 -8.514917E+00 -2.877972E+00 +9.636242E+02 
 +4.050622E+02 -1.874552E+01 -8.229902E+00 -1.874552E+01 +3.382545E+02 -5.471023E+00 -8.229902E+00 -5.471023E+00 +9.600107E+02 
 +3.911723E+02 -1.354676E+01 -5.112153E+00 -1.354676E+01 +3.278716E+02 -3.032172E+00 -5.112153E+00 -3.032172E+00 +9.500849E+02 
 +4.053451E+02 -1.236807E+01 +4.990962E+00 -1.236807E+01 +3.574060E+02 -7.697729E+00 +4.990962E+00 -7.697729E+00 +9.701572E+02 
 +4.094641E+02 -1.611835E+01 +6.172631E+00 -1.611835E+01 +3.641352E+02 -4.322087E+00 +6.172631E+00 -4.322087E+00 +9.850274E+02 
 +4.089138E+02 -2.189190E+01 +4.267412E+00 -2.189190E+01 +3.550588E+02 +4.102682E+00 +4.267412E+00 +4.102682E+00 +9.801566E+02 
 +3.860137E+02 -1.369028E+01 -4.413585E-01 -1.369028E+01 +3.534869E+02 +6.990495E+00 -4.413585E-01 +6.990495E+00 +9.765975E+02 
 +3.645168E+02 +2.736840E+01 +6.267487E+00 +2.736840E+01 +3.570359E+02 +4.554134E+00 +6.267487E+00 +4.554134E+00 +9.636359E+02 
 +3.529625E+02 +1.520860E+01 +9.033673E+00 +1.520860E+01 +3.525524E+02 -4.335439E+00 +9.033673E+00 -4.335439E+00 +9.563108E+02 
 +3.115280E+02 +1.721002E+00 +9.439046E-01 +1.721002E+00 +3.432646E+02 -2.930493E+00 +9.439046E-01 -2.930493E+00 +9.453239E+02 
 +3.176850E+02 -1.642984E+00 -8.846517E-01 -1.642984E+00 +3.702771E+02 +7.980589E+00 -8.846517E-01 +7.980589E+00 +9.551687E+02 
 +3.306234E+02 -1.341805E+01 -3.231022E+00 -1.341805E+01 +3.731713E+02 +1.642973E+01 -3.231022E+00 +1.642973E+01 +9.514653E+02 
 +3.332231E+02 -2.505872E+01 -6.333328E+00 -2.505872E+01 +3.659652E+02 +1.159105E+01 -6.333328E+00 +1.159105E+01 +9.423176E+02 
 +3.175878E+02 -1.795817E+01 -7.462951E+00 -1.795817E+01 +3.495953E+02 -8.733117E+00 -7.462951E+00 -8.733117E+00 +9.321922E+02 
 +3.618457E+02 +1.120169E+01 +8.731157E+00 +1.120169E+01 +3.597024E+02 -1.460220E+01 +8.731157E+00 -1.460220E+01 +9.568899E+02 
 +3.743591E+02 +1.332620E+01 +1.322726E+01 +1.332620E+01 +3.658571E+02 -5.363873E+00 +1.322726E+01 -5.363873E+00 +9.794246E+02 
 +3.803988E+02 +1.088825E+01 +1.839444E+01 +1.088825E+01 +3.654187E+02 +1.493473E+00 +1.839444E+01 +1.493473E+00 +9.712108E+02 
 +3.874873E+02 +1.256828E+01 +2.053568E+01 +1.256828E+01 +3.752941E+02 +5.025733E+00 +2.053568E+01 +5.025733E+00 +9.500318E+02 
 +3.816106E+02 +3.259325E+00 +1.130423E+01 +3.259325E+00 +3.837574E+02 +9.890920E+00 +1.130423E+01 +9.890920E+00 +9.509392E+02 
 +3.691661E+02 +1.829350E+01 +4.880224E+00 +1.829350E+01 +3.962051E+02 +1.548148E+01 +4.880224E+00 +1.548148E+01 +9.630768E+02 
 +3.724408E+02 +1.900852E+01 -3.166695E-01 +1.900852E+01 +4.024208E+02 +8.935105E+00 -3.166695E-01 +8.935105E+00 +9.694664E+02 
 +3.599034E+02 +1.768154E+01 -1.463356E+00 +1.768154E+01 +3.822933E+02 +9.474142E-01 -1.463356E+00 +9.474142E-01 +9.576699E+02 
 +3.928235E+02 +8.787935E+00 -4.874044E+00 +8.787935E+00 +4.060928E+02 -1.367267E+00 -4.874044E+00 -1.367267E+00 +9.661180E+02 
 +3.914947E+02 +2.396148E+00 -2.795038E+00 +2.396148E+00 +3.787473E+02 -6.505643E+00 -2.795038E+00 -6.505643E+00 +9.547690E+02 
 +4.115678E+02 -1.085637E+01 +5.356078E+00 -1.085637E+01 +3.591393E+02 -1.252530E+01 +5.356078E+00 -1.252530E+01 +9.608696E+02 
 +4.284768E+02 -2.170158E+01 +5.554677E+00 -2.170158E+01 +3.713318E+02 -4.603318E+00 +5.554677E+00 -4.603318E+00 +9.792520E+02 
 +4.184883E+02 -2.422021E+01 +4.349420E+00 -2.422021E+01 +3.669202E+02 +6.299353E+00 +4.349420E+00 +6.299353E+00 +9.660246E+02 
 +3.831140E+02 -1.127540E+01 -3.635111E-01 -1.127540E+01 +3.899480E+02 +1.090553E+01 -3.635111E-01 +1.090553E+01 +9.505905E+02 
 +3.833189E+02 +8.173330E+00 +1.499212E+00 +8.173330E+00 +4.087924E+02 +5.988146E+00 +1.499212E+00 +5.988146E+00 +9.478664E+02 
 +3.633334E+02 -3.865955E-01 -8.028196E-01 -3.865955E-01 +3.864214E+02 -4.512207E+00 -8.028196E-01 -4.512207E+00 +9.408579E+02 
 +3.245577E+02 -3.840800E+00 -9.774822E+00 -3.840800E+00 +3.662361E+02 -1.553380E+00 -9.774822E+00 -1.553380E+00 +9.403305E+02 
 +3.112654E+02 -3.040368E+00 -1.053895E+01 -3.040368E+00 +3.572989E+02 +8.600269E+00 -1.053895E+01 +8.600269E+00 +9.436130E+02 
 +3.214868E+02 -1.902193E+01 -9.176590E+00 -1.902193E+01 +3.485850E+02 +9.719295E+00 -9.176590E+00 +9.719295E+00 +9.431890E+02 
 +3.211001E+02 -1.807759E+01 -1.185842E+01 -1.807759E+01 +3.428237E+02 -2.378361E+00 -1.185842E+01 -2.378361E+00 +9.420833E+02 
 +3.518941E+02 -1.824309E+01 -7.761548E+00 -1.824309E+01 +3.692309E+02 -1.449311E+01 -7.761548E+00 -1.449311E+01 +9.423659E+02 
 +3.945836E+02 +5.478150E+00 +2.385363E+00 +5.478150E+00 +3.924489E+02 -1.565165E+01 +2.385363E+00 -1.565165E+01 +9.451152E+02 
 +3.809094E+02 +6.854817E+00 +1.006579E+01 +6.854817E+00 +3.749162E+02 -3.017523E+00 +1.006579E+01 -3.017523E+00 +9.538858E+02 
 +3.860159E+02 +8.728370E+00 +2.080473E+01 +8.728370E+00 +3.750043E+02 -4.183616E-01 +2.080473E+01 -4.183616E-01 +9.608226E+02 
 +3.911792E+02 +1.233616E+01 +2.561456E+01 +1.233616E+01 +3.743772E+02 -1.969847E-01 +2.561456E+01 -1.969847E-01 +9.328519E+02 
 +4.292962E+02 +5.477000E+00 +1.588374E+01 +5.477000E+00 +4.194775E+02 +1.435510E+00 +1.588374E+01 +1.435510E+00 +9.460187E+02 
 +3.826707E+02 +1.826226E+01 +1.479472E+01 +1.826226E+01 +4.153896E+02 +1.035653E+01 +1.479472E+01 +1.035653E+01 +9.654916E+02 
 +3.597714E+02 +1.850467E+01 +6.896788E+00 +1.850467E+01 +3.922559E+02 +1.197883E+01 +6.896788E+00 +1.197883E+01 +9.707331E+02 
 +3.718373E+02 +1.489356E+01 +8.022895E+00 +1.489356E+01 +3.958930E+02 +7.472512E+00 +8.022895E+00 +7.472512E+00 +9.663392E+02 
 +3.657261E+02 +1.055754E+01 +6.225646E+00 +1.055754E+01 +3.974132E+02 +1.480397E+00 +6.225646E+00 +1.480397E+00 +9.585860E+02 
 +3.704952E+02 +6.230966E+00 +5.508576E+00 +6.230966E+00 +3.965261E+02 -6.655382E+00 +5.508576E+00 -6.655382E+00 +9.571737E+02 
 +3.890356E+02 +5.685271E+00 +7.506653E+00 +5.685271E+00 +3.958099E+02 -1.149480E+01 +7.506653E+00 -1.149480E+01 +9.652491E+02 
 +4.501093E+02 -2.560293E+01 +5.257624E+00 -2.560293E+01 +3.970698E+02 -3.254120E+00 +5.257624E+00 -3.254120E+00 +9.869416E+02 
 +3.784090E+02 -2.027797E+01 +1.625635E+00 -2.027797E+01 +3.672792E+02 +2.032913E+01 +1.625635E+00 +2.032913E+01 +9.235389E+02 
 +3.689359E+02 -5.350372E+00 -4.935266E+00 -5.350372E+00 +3.862559E+02 +2.450018E+01 -4.935266E+00 +2.450018E+01 +8.882166E+02 
 +3.597188E+02 +5.324917E+00 -2.584158E+00 +5.324917E+00 +3.915315E+02 +1.216960E+01 -2.584158E+00 +1.216960E+01 +8.813038E+02 
 +3.610151E+02 -1.262542E+00 -7.059143E+00 -1.262542E+00 +3.873811E+02 +2.888342E+00 -7.059143E+00 +2.888342E+00 +9.042786E+02 
 +3.123732E+02 -9.520075E+00 -1.781918E+01 -9.520075E+00 +3.510212E+02 +1.433023E+01 -1.781918E+01 +1.433023E+01 +9.249732E+02 
 +3.008682E+02 -1.695902E+01 -1.230443E+01 -1.695902E+01 +3.231223E+02 +1.394598E+01 -1.230443E+01 +1.394598E+01 +9.285251E+02 
 +3.234348E+02 -2.763366E+01 -1.046003E+01 -2.763366E+01 +3.328913E+02 +3.304741E+00 -1.046003E+01 +3.304741E+00 +9.345793E+02 
 +3.465357E+02 -1.854425E+01 -1.255356E+01 -1.854425E+01 +3.586611E+02 -1.594223E+00 -1.255356E+01 -1.594223E+00 +9.470831E+02 
 +3.836474E+02 -4.903063E+00 -5.526117E+00 -4.903063E+00 +3.979320E+02 -7.624845E+00 -5.526117E+00 -7.624845E+00 +9.400015E+02 
 +4.108403E+02 +2.128570E+00 -1.562509E+00 +2.128570E+00 +4.196176E+02 -1.011067E+01 -1.562509E+00 -1.011067E+01 +9.314754E+02 
 +3.921781E+02 +2.906904E+00 +7.229922E+00 +2.906904E+00 +4.022134E+02 -7.249320E+00 +7.229922E+00 -7.249320E+00 +9.245531E+02 
 +3.951178E+02 +3.016354E+00 +1.531655E+01 +3.016354E+00 +4.028779E+02 -5.129773E+00 +1.531655E+01 -5.129773E+00 +9.273875E+02 
 +4.047680E+02 +6.452271E+00 +1.812327E+01 +6.452271E+00 +4.056829E+02 -4.051005E+00 +1.812327E+01 -4.051005E+00 +9.202585E+02 
 +4.204890E+02 -7.427936E+00 +1.532641E+01 -7.427936E+00 +4.140854E+02 -5.834418E+00 +1.532641E+01 -5.834418E+00 +9.362865E+02 
 +4.055779E+02 -1.382512E+01 +1.853713E+01 -1.382512E+01 +4.009855E+02 -5.876666E+00 +1.853713E+01 -5.876666E+00 +9.724744E+02 
 +3.684015E+02 +7.672244E-01 +1.315193E+01 +7.672244E-01 +3.833264E+02 +4.216074E+00 +1.315193E+01 +4.216074E+00 +9.788096E+02 
 +3.717903E+02 +1.251716E+01 +1.570074E+01 +1.251716E+01 +3.983713E+02 +9.247391E+00 +1.570074E+01 +9.247391E+00 +9.775783E+02 
 +3.881659E+02 +1.129837E+01 +1.427097E+01 +1.129837E+01 +4.125012E+02 +4.643488E+00 +1.427097E+01 +4.643488E+00 +9.820168E+02 
 +3.809846E+02 +9.436545E+00 +9.747813E+00 +9.436545E+00 +4.117219E+02 -1.424269E+00 +9.747813E+00 -1.424269E+00 +9.762717E+02 
 +3.442770E+02 +1.105962E+01 +9.550904E+00 +1.105962E+01 +3.771900E+02 -8.440746E+00 +9.550904E+00 -8.440746E+00 +9.589234E+02 
 +3.944154E+02 -2.542000E+01 +7.472017E+00 -2.542000E+01 +3.760692E+02 +1.110327E+00 +7.472017E+00 +1.110327E+00 +9.676014E+02 
 +3.632457E+02 +3.526879E+00 -5.520636E+00 +3.526879E+00 +4.085974E+02 +2.133893E+01 -5.520636E+00 +2.133893E+01 +9.118856E+02 
 +3.837451E+02 +1.148223E+01 -6.102544E+00 +1.148223E+01 +4.191903E+02 +2.320382E+01 -6.102544E+00 +2.320382E+01 +8.856931E+02 
 +3.834841E+02 +1.291319E+01 +3.428010E-01 +1.291319E+01 +4.083316E+02 +1.341726E+01 +3.428010E-01 +1.341726E+01 +8.984924E+02 
 +3.697761E+02 +7.271923E+00 -6.769390E-01 +7.271923E+00 +3.958381E+02 +7.537953E+00 -6.769390E-01 +7.537953E+00 +9.294685E+02 
 +3.172793E+02 +6.520920E-01 -5.807034E+00 +6.520920E-01 +3.556187E+02 +1.524322E+01 -5.807034E+00 +1.524322E+01 +9.360361E+02 
 +3.173204E+02 -4.573802E-01 -9.921851E-01 -4.573802E-01 +3.406781E+02 +1.330273E+01 -9.921851E-01 +1.330273E+01 +9.336007E+02 
 +3.581644E+02 +2.353526E+00 -1.413212E+01 +2.353526E+00 +3.553489E+02 +1.036518E+01 -1.413212E+01 +1.036518E+01 +9.366136E+02 
 +3.621429E+02 +6.769070E+00 -9.074903E+00 +6.769070E+00 +3.550000E+02 +5.811918E+00 -9.074903E+00 +5.811918E+00 +9.352448E+02 
 +3.587257E+02 +1.821834E+01 -1.975041E+00 +1.821834E+01 +3.613687E+02 -4.384721E+00 -1.975041E+00 -4.384721E+00 +9.270461E+02 
 +3.935329E+02 +5.171414E+00 -1.569025E-01 +5.171414E+00 +4.081161E+02 -7.453105E+00 -1.569025E-01 -7.453105E+00 +9.315701E+02 
 +4.047604E+02 +2.847156E-02 +4.833192E+00 +2.847156E-02 +4.229840E+02 -3.648361E+00 +4.833192E+00 -3.648361E+00 +9.311360E+02 
 +3.968087E+02 +1.715280E+00 +1.120571E+01 +1.715280E+00 +4.140551E+02 -3.900214E+00 +1.120571E+01 -3.900214E+00 +9.206488E+02 
 +4.005459E+02 -3.997997E-01 +1.036903E+01 -3.997997E-01 +4.099512E+02 -5.710746E+00 +1.036903E+01 -5.710746E+00 +9.307797E+02 
 +3.860923E+02 -1.566345E+01 +1.966943E+01 -1.566345E+01 +3.791524E+02 -8.839211E+00 +1.966943E+01 -8.839211E+00 +9.542261E+02 
 +3.890462E+02 -2.579308E+01 +2.218810E+01 -2.579308E+01 +3.644426E+02 -8.007515E+00 +2.218810E+01 -8.007515E+00 +9.736889E+02 
 +3.673115E+02 -2.120390E+01 +1.437036E+01 -2.120390E+01 +3.459157E+02 -2.629841E+00 +1.437036E+01 -2.629841E+00 +9.671060E+02 
 +3.458058E+02 -1.339063E+01 +1.671336E+01 -1.339063E+01 +3.351978E+02 -1.903572E-01 +1.671336E+01 -1.903572E-01 +9.631594E+02 
 +3.502062E+02 -2.661155E+01 +1.190419E+01 -2.661155E+01 +3.334881E+02 +4.145168E+00 +1.190419E+01 +4.145168E+00 +9.678008E+02 
 +3.358325E+02 -2.693805E+01 +5.835395E+00 -2.693805E+01 +3.138431E+02 +4.595724E+00 +5.835395E+00 +4.595724E+00 +9.546689E+02 
 +3.219885E+02 -2.354105E+01 +3.971202E+00 -2.354105E+01 +3.021490E+02 -4.192308E+00 +3.971202E+00 -4.192308E+00 +9.406071E+02 
 +3.416707E+02 -2.171067E+01 +2.924144E+00 -2.171067E+01 +3.508266E+02 +5.218828E+00 +2.924144E+00 +5.218828E+00 +9.425371E+02 
 +3.673630E+02 +5.017478E-01 -8.295017E+00 +5.017478E-01 +3.997936E+02 +2.093145E+01 -8.295017E+00 +2.093145E+01 +9.143370E+02 
 +3.718216E+02 +7.240676E+00 -6.645875E+00 +7.240676E+00 +4.000685E+02 +1.673039E+01 -6.645875E+00 +1.673039E+01 +8.883843E+02 
 +4.113299E+02 +1.675569E+01 +5.370560E-01 +1.675569E+01 +4.164454E+02 +1.044936E+01 +5.370560E-01 +1.044936E+01 +9.298575E+02 
 +3.554134E+02 +5.656680E+00 +7.900711E-01 +5.656680E+00 +3.796962E+02 +1.238818E+01 +7.900711E-01 +1.238818E+01 +9.398887E+02 
 +3.283568E+02 -2.623527E+00 +5.573239E-01 -2.623527E+00 +3.500518E+02 +8.515349E+00 +5.573239E-01 +8.515349E+00 +9.294036E+02 
 +3.322281E+02 +1.264903E+00 +4.197221E+00 +1.264903E+00 +3.443321E+02 +5.459168E+00 +4.197221E+00 +5.459168E+00 +9.271861E+02 
 +3.809009E+02 +1.365632E+00 -1.567941E+01 +1.365632E+00 +3.670714E+02 +1.024083E+01 -1.567941E+01 +1.024083E+01 +9.385356E+02 
 +3.713864E+02 +1.960088E+00 -8.218012E+00 +1.960088E+00 +3.644543E+02 +6.311511E+00 -8.218012E+00 +6.311511E+00 +9.338232E+02 
 +3.407953E+02 +1.946865E+01 +1.677001E+00 +1.946865E+01 +3.472724E+02 -7.694305E+00 +1.677001E+00 -7.694305E+00 +9.276021E+02 
 +3.429739E+02 +2.118682E+01 +4.393896E+00 +2.118682E+01 +3.541289E+02 -6.022528E+00 +4.393896E+00 -6.022528E+00 +9.219793E+02 
 +3.933043E+02 +3.823659E+00 +4.749517E-01 +3.823659E+00 +4.107492E+02 -9.283767E-01 +4.749517E-01 -9.283767E-01 +9.389467E+02 
 +4.030271E+02 -5.069351E-01 +2.216451E+00 -5.069351E-01 +4.217669E+02 -2.710945E+00 +2.216451E+00 -2.710945E+00 +9.377987E+02 
 +3.926910E+02 -6.026067E+00 +9.577436E+00 -6.026067E+00 +3.991508E+02 -7.049288E+00 +9.577436E+00 -7.049288E+00 +9.515489E+02 
 +3.813891E+02 -2.033290E+01 +2.332225E+01 -2.033290E+01 +3.789158E+02 -7.360347E+00 +2.332225E+01 -7.360347E+00 +9.804255E+02 
 +3.711306E+02 -1.942159E+01 +2.418091E+01 -1.942159E+01 +3.620306E+02 -3.568649E+00 +2.418091E+01 -3.568649E+00 +9.767129E+02 
 +3.637300E+02 -1.455206E+01 +1.627494E+01 -1.455206E+01 +3.492327E+02 +3.064241E-01 +1.627494E+01 +3.064241E-01 +9.657672E+02 
 +3.464558E+02 -8.815733E+00 +1.452459E+01 -8.815733E+00 +3.263824E+02 -3.325562E+00 +1.452459E+01 -3.325562E+00 +9.617943E+02 
 +3.425856E+02 -1.783526E+01 +7.283980E-01 -1.783526E+01 +3.223718E+02 +1.677922E+00 +7.283980E-01 +1.677922E+00 +9.674084E+02 
 +3.404538E+02 -2.106614E+01 -4.633889E+00 -2.106614E+01 +3.178696E+02 +9.459690E+00 -4.633889E+00 +9.459690E+00 +9.587952E+02 
 +3.329494E+02 -2.530854E+01 -6.235118E+00 -2.530854E+01 +3.147026E+02 +6.907980E+00 -6.235118E+00 +6.907980E+00 +9.384802E+02 
 +3.478055E+02 -1.837068E+01 -2.777746E+00 -1.837068E+01 +3.591234E+02 +1.232172E+01 -2.777746E+00 +1.232172E+01 +9.374994E+02 
 +3.929558E+02 +6.999016E+00 -4.514221E+00 +6.999016E+00 +4.138607E+02 +7.998723E+00 -4.514221E+00 +7.998723E+00 +9.326471E+02 
 +3.875911E+02 +5.218146E+00 -5.254000E+00 +5.218146E+00 +3.944748E+02 +3.873928E+00 -5.254000E+00 +3.873928E+00 +9.077930E+02 
 +4.094651E+02 +1.020232E+01 +1.623231E+00 +1.020232E+01 +3.965374E+02 +4.270005E+00 +1.623231E+00 +4.270005E+00 +9.314185E+02 
 +3.553600E+02 +8.141706E+00 -3.008339E+00 +8.141706E+00 +3.617553E+02 +3.786401E+00 -3.008339E+00 +3.786401E+00 +9.300113E+02 
 +3.450128E+02 +5.600837E+00 -4.414976E+00 +5.600837E+00 +3.620925E+02 +3.772900E+00 -4.414976E+00 +3.772900E+00 +9.425005E+02 
 +3.486869E+02 +2.810808E+00 +4.297500E+00 +2.810808E+00 +3.635910E+02 +5.168882E+00 +4.297500E+00 +5.168882E+00 +9.446897E+02 
 +3.912781E+02 -2.057084E+00 -1.335534E+01 -2.057084E+00 +3.814870E+02 +9.735453E+00 -1.335534E+01 +9.735453E+00 +9.450388E+02 
 +3.776698E+02 +1.262960E+00 -9.027212E+00 +1.262960E+00 +3.701823E+02 +7.380777E+00 -9.027212E+00 +7.380777E+00 +9.346426E+02 
 +3.455095E+02 +1.391171E+01 +1.055602E+00 +1.391171E+01 +3.541714E+02 -3.860900E+00 +1.055602E+00 -3.860900E+00 +9.309822E+02 
 +3.308406E+02 +2.217169E+01 +4.605114E+00 +2.217169E+01 +3.392080E+02 -5.870162E+00 +4.605114E+00 -5.870162E+00 +9.273399E+02 
 +3.473887E+02 +2.151594E+01 -5.906249E-02 +2.151594E+01 +3.552192E+02 +2.887074E+00 -5.906249E-02 +2.887074E+00 +9.245712E+02 
 +3.873748E+02 -3.778728E-01 -3.055112E+00 -3.778728E-01 +3.880174E+02 +1.392803E+00 -3.055112E+00 +1.392803E+00 +9.440653E+02 
 +3.723739E+02 -1.178230E+01 +1.199502E+01 -1.178230E+01 +3.634702E+02 -5.453338E+00 +1.199502E+01 -5.453338E+00 +9.656741E+02 
 +3.623658E+02 -1.798515E+01 +2.045918E+01 -1.798515E+01 +3.525289E+02 -8.279338E+00 +2.045918E+01 -8.279338E+00 +9.743542E+02 
 +3.602515E+02 -1.596322E+01 +1.958390E+01 -1.596322E+01 +3.561841E+02 -5.995869E+00 +1.958390E+01 -5.995869E+00 +9.664243E+02 
 +3.555264E+02 -1.128014E+01 +1.646678E+01 -1.128014E+01 +3.477224E+02 -2.859112E+00 +1.646678E+01 -2.859112E+00 +9.611337E+02 
 +3.465983E+02 -7.551095E+00 +1.265708E+01 -7.551095E+00 +3.280343E+02 -5.441368E+00 +1.265708E+01 -5.441368E+00 +9.562505E+02 
 +3.382294E+02 -1.067460E+01 -4.625621E+00 -1.067460E+01 +3.182207E+02 -9.726326E-01 -4.625621E+00 -9.726326E-01 +9.519849E+02 
 +3.663988E+02 -1.006043E+01 -1.102257E+01 -1.006043E+01 +3.572503E+02 +6.216755E+00 -1.102257E+01 +6.216755E+00 +9.591347E+02 
 +3.549982E+02 +1.269743E+00 -1.305848E+01 +1.269743E+00 +3.904316E+02 +6.619783E-01 -1.305848E+01 +6.619783E-01 +9.543164E+02 
 +3.663400E+02 +5.874387E+00 -2.321840E+00 +5.874387E+00 +4.149360E+02 +2.294538E+00 -2.321840E+00 +2.294538E+00 +9.542489E+02 
 +3.983051E+02 +1.079621E+01 -1.026006E+00 +1.079621E+01 +4.152357E+02 +4.449906E-02 -1.026006E+00 +4.449906E-02 +9.452977E+02 
 +4.005812E+02 +9.896516E+00 -4.140230E+00 +9.896516E+00 +3.993159E+02 -1.446445E+00 -4.140230E+00 -1.446445E+00 +9.290767E+02 
 +4.050031E+02 +9.098221E+00 -6.886516E-01 +9.098221E+00 +3.941291E+02 -4.120716E+00 -6.886516E-01 -4.120716E+00 +9.354440E+02 
 +3.972352E+02 +8.040648E+00 -5.689657E+00 +8.040648E+00 +3.899071E+02 -1.074737E+00 -5.689657E+00 -1.074737E+00 +9.398268E+02 
 +3.578111E+02 +3.968309E+00 -1.033951E+01 +3.968309E+00 +3.773834E+02 +1.096678E+01 -1.033951E+01 +1.096678E+01 +9.459973E+02 
 +3.628344E+02 +4.400371E+00 +6.106630E+00 +4.400371E+00 +3.837142E+02 +1.807628E+01 +6.106630E+00 +1.807628E+01 +9.598924E+02 
 +3.897686E+02 +2.830633E-01 -1.670802E+01 +2.830633E-01 +3.882531E+02 +1.422500E+01 -1.670802E+01 +1.422500E+01 +9.468115E+02 
 +3.764267E+02 -5.126774E-02 -1.213297E+01 -5.126774E-02 +3.752946E+02 +8.066669E+00 -1.213297E+01 +8.066669E+00 +9.320018E+02 
 +3.456007E+02 +1.104547E+01 -4.227342E+00 +1.104547E+01 +3.554284E+02 +3.943311E-01 -4.227342E+00 +3.943311E-01 +9.325823E+02 
 +3.393699E+02 +1.606964E+01 +2.110658E-01 +1.606964E+01 +3.460774E+02 -2.372086E+00 +2.110658E-01 -2.372086E+00 +9.375065E+02 
 +3.355195E+02 +2.267775E+01 +5.352705E-01 +2.267775E+01 +3.356397E+02 +4.039699E+00 +5.352705E-01 +4.039699E+00 +9.349617E+02 
 +3.558749E+02 -4.830683E+00 +1.803483E+00 -4.830683E+00 +3.371354E+02 -5.226109E-01 +1.803483E+00 -5.226109E-01 +9.470296E+02 
 +3.594603E+02 -1.297738E+01 +1.035578E+01 -1.297738E+01 +3.441255E+02 -6.801748E+00 +1.035578E+01 -6.801748E+00 +9.669958E+02 
 +3.617078E+02 -1.197205E+01 +1.517544E+01 -1.197205E+01 +3.578381E+02 -7.418723E+00 +1.517544E+01 -7.418723E+00 +9.721637E+02 
 +3.572717E+02 -1.321122E+01 +1.507534E+01 -1.321122E+01 +3.582029E+02 -7.833847E+00 +1.507534E+01 -7.833847E+00 +9.645076E+02 
 +3.526848E+02 -1.289155E+01 +1.218086E+01 -1.289155E+01 +3.434369E+02 -6.711850E+00 +1.218086E+01 -6.711850E+00 +9.565772E+02 
 +3.481911E+02 -4.415928E+00 +7.066309E+00 -4.415928E+00 +3.328929E+02 -8.270017E+00 +7.066309E+00 -8.270017E+00 +9.494082E+02 
 +3.602464E+02 +4.173705E+00 -3.057728E+00 +4.173705E+00 +3.555034E+02 -4.551634E+00 -3.057728E+00 -4.551634E+00 +9.593907E+02 
 +3.834872E+02 +4.761245E+00 -6.714369E+00 +4.761245E+00 +3.963598E+02 -1.716404E+00 -6.714369E+00 -1.716404E+00 +9.730943E+02 
 +3.629754E+02 +4.873768E+00 -8.960232E+00 +4.873768E+00 +4.045475E+02 -6.030300E+00 -8.960232E+00 -6.030300E+00 +9.680760E+02 
 +3.559157E+02 +8.686148E+00 +5.011360E+00 +8.686148E+00 +4.048786E+02 -4.010974E+00 +5.011360E+00 -4.010974E+00 +9.584314E+02 
 +3.962435E+02 +7.376676E+00 -2.642533E+00 +7.376676E+00 +3.934755E+02 +2.753425E+00 -2.642533E+00 +2.753425E+00 +9.477984E+02 
 +4.013781E+02 +1.224393E+01 -6.556538E+00 +1.224393E+01 +3.933712E+02 +2.628485E-01 -6.556538E+00 +2.628485E-01 +9.294181E+02 
 +3.982387E+02 +1.199073E+01 -9.689951E+00 +1.199073E+01 +3.896383E+02 -1.636384E+00 -9.689951E+00 -1.636384E+00 +9.280182E+02 
 +3.957316E+02 +1.126667E+01 -7.329787E+00 +1.126667E+01 +3.902600E+02 -5.732086E+00 -7.329787E+00 -5.732086E+00 +9.377986E+02 
 +3.806111E+02 +1.125609E+01 -5.530044E+00 +1.125609E+01 +3.891452E+02 -8.624667E+00 -5.530044E+00 -8.624667E+00 +9.442261E+02 
 +3.710214E+02 +1.078701E+01 +1.414259E+01 +1.078701E+01 +3.876986E+02 -1.968377E+00 +1.414259E+01 -1.968377E+00 +9.461476E+02 
 +3.720073E+02 +4.023232E+00 -1.587842E+01 +4.023232E+00 +3.890522E+02 +1.150994E+01 -1.587842E+01 +1.150994E+01 +9.502627E+02 
 +3.583294E+02 +4.040383E+00 -1.143760E+00 +4.040383E+00 +3.826760E+02 +1.840691E+01 -1.143760E+00 +1.840691E+01 +9.463862E+02 
 +3.585247E+02 -7.475922E+00 -1.370395E+01 -7.475922E+00 +3.736105E+02 +1.243709E+01 -1.370395E+01 +1.243709E+01 +9.344259E+02 
 +3.390445E+02 +6.824395E+00 -5.106081E+00 +6.824395E+00 +3.419900E+02 +5.006241E+00 -5.106081E+00 +5.006241E+00 +9.261976E+02 
 +3.429736E+02 +1.574491E+01 -3.857470E+00 +1.574491E+01 +3.290257E+02 +4.570207E-01 -3.857470E+00 +4.570207E-01 +9.394706E+02 
 +3.569712E+02 -1.148378E+01 +2.072141E+00 -1.148378E+01 +3.398213E+02 -5.189853E+00 +2.072141E+00 -5.189853E+00 +9.466733E+02 
 +3.559420E+02 -7.728917E+00 +1.606795E+00 -7.728917E+00 +3.493688E+02 -6.153272E+00 +1.606795E+00 -6.153272E+00 +9.517425E+02 
 +3.620402E+02 -8.354820E+00 +6.357715E+00 -8.354820E+00 +3.582409E+02 -8.431190E+00 +6.357715E+00 -8.431190E+00 +9.609515E+02 
 +3.606759E+02 -6.489670E+00 +9.029403E+00 -6.489670E+00 +3.596364E+02 -8.541031E+00 +9.029403E+00 -8.541031E+00 +9.622225E+02 
 +3.601911E+02 -7.803508E+00 +7.128346E+00 -7.803508E+00 +3.541424E+02 -5.500885E+00 +7.128346E+00 -5.500885E+00 +9.572758E+02 
 +3.615406E+02 +1.150031E+01 +1.906414E+00 +1.150031E+01 +3.616556E+02 -2.874248E+00 +1.906414E+00 -2.874248E+00 +9.603652E+02 
 +3.626015E+02 +1.204785E+01 -2.225307E+00 +1.204785E+01 +3.728456E+02 -1.108675E+00 -2.225307E+00 -1.108675E+00 +9.725080E+02 
 +3.530060E+02 +7.442598E+00 -2.518082E+00 +7.442598E+00 +3.621934E+02 +3.009982E+00 -2.518082E+00 +3.009982E+00 +9.774420E+02 
 +3.394999E+02 +1.058949E+01 +8.799794E-01 +1.058949E+01 +3.561463E+02 +3.283743E+00 +8.799794E-01 +3.283743E+00 +9.752027E+02 
 +3.568493E+02 +1.364660E+01 +1.521265E+01 +1.364660E+01 +3.708583E+02 +9.758241E-01 +1.521265E+01 +9.758241E-01 +9.645684E+02 
 +3.879342E+02 +1.004768E+01 -4.345099E+00 +1.004768E+01 +3.838683E+02 -4.150266E+00 -4.345099E+00 -4.150266E+00 +9.408395E+02 
 +3.972881E+02 +1.031307E+01 -6.860097E+00 +1.031307E+01 +3.931664E+02 -6.378002E+00 -6.860097E+00 -6.378002E+00 +9.260051E+02 
 +3.995796E+02 +1.052877E+01 -1.176238E+01 +1.052877E+01 +3.931620E+02 -7.817367E+00 -1.176238E+01 -7.817367E+00 +9.290346E+02 
 +3.989143E+02 +1.200420E+01 -9.714298E+00 +1.200420E+01 +3.898571E+02 -7.914904E+00 -9.714298E+00 -7.914904E+00 +9.432988E+02 
 +3.999888E+02 +1.158457E+01 -2.032639E+00 +1.158457E+01 +3.858497E+02 -5.192877E+00 -2.032639E+00 -5.192877E+00 +9.496626E+02 
 +4.062236E+02 +1.072352E+01 +1.709641E+01 +1.072352E+01 +4.020095E+02 -2.780386E+00 +1.709641E+01 -2.780386E+00 +9.677883E+02 
 +3.819732E+02 +8.051965E+00 -4.738730E+00 +8.051965E+00 +4.042689E+02 +5.700425E+00 -4.738730E+00 +5.700425E+00 +9.833355E+02 
 +3.557555E+02 +1.669288E+01 -1.850480E+00 +1.669288E+01 +3.901911E+02 +1.469835E+01 -1.850480E+00 +1.469835E+01 +9.689178E+02 
 +3.626392E+02 +1.007491E+01 -6.055365E+00 +1.007491E+01 +3.897508E+02 +1.435966E+01 -6.055365E+00 +1.435966E+01 +9.524954E+02 
 +3.534644E+02 +1.613863E+01 -3.296941E+00 +1.613863E+01 +3.566874E+02 +1.202177E+01 -3.296941E+00 +1.202177E+01 +9.451981E+02 
 +3.086467E+02 +2.165645E+01 -6.742958E+00 +2.165645E+01 +3.011921E+02 +8.228744E+00 -6.742958E+00 +8.228744E+00 +9.361276E+02 
 +3.413129E+02 -5.486810E+00 -3.078898E+00 -5.486810E+00 +3.283506E+02 +1.558505E+00 -3.078898E+00 +1.558505E+00 +9.570068E+02 
 +3.546330E+02 -6.610122E+00 -3.039820E+00 -6.610122E+00 +3.447414E+02 -5.783088E-01 -3.039820E+00 -5.783088E-01 +9.579275E+02 
 +3.558983E+02 -4.335708E+00 -5.895864E+00 -4.335708E+00 +3.418487E+02 -1.872425E+00 -5.895864E+00 -1.872425E+00 +9.490969E+02 
 +3.595178E+02 -3.976309E+00 -7.543894E+00 -3.976309E+00 +3.494945E+02 -5.763078E+00 -7.543894E+00 -5.763078E+00 +9.515415E+02 
 +3.676043E+02 -1.057255E+01 -3.399938E+00 -1.057255E+01 +3.638824E+02 -4.501128E+00 -3.399938E+00 -4.501128E+00 +9.560592E+02 
 +3.653404E+02 +1.206899E+01 -2.872935E+00 +1.206899E+01 +3.745097E+02 -3.483027E+00 -2.872935E+00 -3.483027E+00 +9.575129E+02 
 +3.583098E+02 +1.043812E+01 -2.162435E-01 +1.043812E+01 +3.737608E+02 -3.802292E+00 -2.162435E-01 -3.802292E+00 +9.644233E+02 
 +3.591704E+02 +8.357093E+00 +2.699243E+00 +8.357093E+00 +3.731885E+02 -3.680502E+00 +2.699243E+00 -3.680502E+00 +9.796963E+02 
 +3.367634E+02 +1.547248E+01 +2.360691E-01 +1.547248E+01 +3.580959E+02 -4.751868E+00 +2.360691E-01 -4.751868E+00 +9.772578E+02 
 +3.612539E+02 +1.940022E+01 +1.326190E+01 +1.940022E+01 +3.665856E+02 -6.114337E+00 +1.326190E+01 -6.114337E+00 +9.635507E+02 
 +3.818517E+02 +9.782613E+00 -6.531417E+00 +9.782613E+00 +3.784765E+02 -1.086266E+01 -6.531417E+00 -1.086266E+01 +9.417306E+02 
 +3.968374E+02 +6.566195E+00 -8.468815E+00 +6.566195E+00 +3.908513E+02 -1.370265E+01 -8.468815E+00 -1.370265E+01 +9.295511E+02 
 +3.990947E+02 +5.114234E+00 -1.258197E+01 +5.114234E+00 +3.889329E+02 -1.376242E+01 -1.258197E+01 -1.376242E+01 +9.355157E+02 
 +3.999259E+02 +3.902406E+00 -9.099494E+00 +3.902406E+00 +3.812433E+02 -9.154871E+00 -9.099494E+00 -9.154871E+00 +9.459435E+02 
 +4.159844E+02 +8.749576E+00 -5.697234E+00 +8.749576E+00 +3.929139E+02 -6.487564E+00 -5.697234E+00 -6.487564E+00 +9.588859E+02 
 +4.092784E+02 +1.812543E+00 +1.531445E+01 +1.812543E+00 +3.942426E+02 -5.053917E+00 +1.531445E+01 -5.053917E+00 +9.720616E+02 
 +3.721369E+02 -1.278744E+01 +4.933413E+00 -1.278744E+01 +3.723103E+02 -1.028303E+00 +4.933413E+00 -1.028303E+00 +9.788098E+02 
 +3.439017E+02 -2.441696E+00 +2.584335E+00 -2.441696E+00 +3.615884E+02 +1.560628E+00 +2.584335E+00 +1.560628E+00 +9.699083E+02 
 +3.477783E+02 -1.737630E+01 +1.594451E+00 -1.737630E+01 +3.527020E+02 -1.446821E+00 +1.594451E+00 -1.446821E+00 +9.568961E+02 
 +3.428265E+02 -1.411382E+01 -3.777422E+00 -1.411382E+01 +3.453789E+02 -7.525401E+00 -3.777422E+00 -7.525401E+00 +9.567086E+02 
 +2.896194E+02 -3.782369E+00 -8.599741E+00 -3.782369E+00 +3.059379E+02 -5.605817E+00 -8.599741E+00 -5.605817E+00 +9.475921E+02 
 +3.392710E+02 -2.102341E+00 -1.633834E+01 -2.102341E+00 +3.105998E+02 -1.790007E+00 -1.633834E+01 -1.790007E+00 +9.618675E+02 
 +3.494240E+02 +1.727240E+00 -1.248546E+01 +1.727240E+00 +3.266317E+02 -1.892583E-01 -1.248546E+01 -1.892583E-01 +9.505554E+02 
 +3.664259E+02 +5.044603E+00 -1.824246E+01 +5.044603E+00 +3.592034E+02 -2.208851E+00 -1.824246E+01 -2.208851E+00 +9.455835E+02 
 +3.814633E+02 +5.208701E+00 -2.030857E+01 +5.208701E+00 +3.827080E+02 -7.562635E+00 -2.030857E+01 -7.562635E+00 +9.489558E+02 
 +3.671473E+02 +6.928427E-01 -9.930904E+00 +6.928427E-01 +3.842245E+02 -1.630857E+00 -9.930904E+00 -1.630857E+00 +9.455376E+02 
 +3.736399E+02 +1.919813E+01 -6.720233E+00 +1.919813E+01 +3.869662E+02 -1.132079E+00 -6.720233E+00 -1.132079E+00 +9.489140E+02 
 +3.700032E+02 +1.716901E+01 +3.500598E+00 +1.716901E+01 +3.851489E+02 -5.943030E+00 +3.500598E+00 -5.943030E+00 +9.609541E+02 
 +3.559378E+02 +1.236061E+01 +6.196348E+00 +1.236061E+01 +3.740468E+02 -2.821520E+00 +6.196348E+00 -2.821520E+00 +9.745242E+02 
 +3.165071E+02 +1.508860E+01 +3.200890E+00 +1.508860E+01 +3.326313E+02 -4.459113E+00 +3.200890E+00 -4.459113E+00 +9.613038E+02 
 +3.305303E+02 +2.124343E+01 +1.176615E+01 +2.124343E+01 +3.367776E+02 -9.257672E+00 +1.176615E+01 -9.257672E+00 +9.492449E+02 
 +3.971581E+02 +5.311229E+00 -8.682484E+00 +5.311229E+00 +3.839599E+02 -1.514667E+01 -8.682484E+00 -1.514667E+01 +9.504280E+02 
 +4.020628E+02 +8.829142E-01 -8.918300E+00 +8.829142E-01 +3.886947E+02 -1.534621E+01 -8.918300E+00 -1.534621E+01 +9.376210E+02 
 +4.001668E+02 -8.895134E-02 -1.120551E+01 -8.895134E-02 +3.842611E+02 -1.211550E+01 -1.120551E+01 -1.211550E+01 +9.445590E+02 
 +4.024154E+02 -6.448999E-01 -8.785043E+00 -6.448999E-01 +3.841928E+02 -7.743561E+00 -8.785043E+00 -7.743561E+00 +9.475009E+02 
 +4.060555E+02 -1.060063E-01 -7.696027E+00 -1.060063E-01 +3.727099E+02 -6.264678E+00 -7.696027E+00 -6.264678E+00 +9.458394E+02 
 +3.738221E+02 -7.296701E+00 +1.194997E+01 -7.296701E+00 +3.447340E+02 -3.091007E+00 +1.194997E+01 -3.091007E+00 +9.453228E+02 
 +3.671258E+02 -1.189273E+01 +1.222762E+01 -1.189273E+01 +3.614135E+02 -2.820331E+00 +1.222762E+01 -2.820331E+00 +9.701559E+02 
 +3.526231E+02 -7.316805E+00 +7.627162E+00 -7.316805E+00 +3.548802E+02 +7.553285E-01 +7.627162E+00 +7.553285E-01 +9.761763E+02 
 +3.594899E+02 -1.379441E+01 +3.182996E+00 -1.379441E+01 +3.556403E+02 -2.173041E+00 +3.182996E+00 -2.173041E+00 +9.749096E+02 
 +3.408437E+02 -5.425947E+00 -7.113768E+00 -5.425947E+00 +3.555942E+02 -7.938278E+00 -7.113768E+00 -7.938278E+00 +9.712046E+02 
 +3.041572E+02 -6.220739E+00 -8.119005E+00 -6.220739E+00 +3.288385E+02 -7.677970E+00 -8.119005E+00 -7.677970E+00 +9.611283E+02 
 +3.625857E+02 -4.666747E+00 -2.853973E+01 -4.666747E+00 +3.563544E+02 -6.718332E+00 -2.853973E+01 -6.718332E+00 +9.634325E+02 
 +3.713982E+02 -6.482038E-01 -1.753615E+01 -6.482038E-01 +3.685156E+02 -7.916868E+00 -1.753615E+01 -7.916868E+00 +9.431238E+02 
 +3.853150E+02 -2.294231E+00 -1.729194E+01 -2.294231E+00 +3.807675E+02 -7.583797E+00 -1.729194E+01 -7.583797E+00 +9.444794E+02 
 +3.851726E+02 +4.981052E-01 -1.532186E+01 +4.981052E-01 +3.862903E+02 -1.433130E+01 -1.532186E+01 -1.433130E+01 +9.397613E+02 
 +3.718890E+02 -4.104905E+00 -9.308507E+00 -4.104905E+00 +3.970865E+02 -1.267028E+01 -9.308507E+00 -1.267028E+01 +9.323752E+02 
 +3.839019E+02 +9.620495E+00 -1.353442E+01 +9.620495E+00 +4.020504E+02 -1.055846E+01 -1.353442E+01 -1.055846E+01 +9.373034E+02 
 +3.923757E+02 +1.689314E+01 +1.197207E+01 +1.689314E+01 +4.053152E+02 -1.072912E+01 +1.197207E+01 -1.072912E+01 +9.648998E+02 
 +3.447975E+02 +3.462338E+00 +7.967191E+00 +3.462338E+00 +3.905874E+02 -5.241902E+00 +7.967191E+00 -5.241902E+00 +9.769110E+02 
 +3.166704E+02 -3.914079E+00 +5.100417E+00 -3.914079E+00 +3.772852E+02 -8.503710E+00 +5.100417E+00 -8.503710E+00 +9.713742E+02 
 +3.251759E+02 +2.886400E+00 +7.290798E+00 +2.886400E+00 +3.601803E+02 -1.348824E+01 +7.290798E+00 -1.348824E+01 +9.550338E+02 
 +4.168418E+02 +7.593996E+00 -1.445968E+00 +7.593996E+00 +4.036922E+02 -9.942243E+00 -1.445968E+00 -9.942243E+00 +9.454253E+02 
 +4.101859E+02 -2.366854E+00 -3.124581E+00 -2.366854E+00 +3.903207E+02 -8.165087E+00 -3.124581E+00 -8.165087E+00 +9.263666E+02 
 +4.030265E+02 -2.040935E+00 -8.697145E+00 -2.040935E+00 +3.848448E+02 -3.002126E+00 -8.697145E+00 -3.002126E+00 +9.323516E+02 
 +4.016164E+02 -2.634156E-01 -1.175196E+01 -2.634156E-01 +3.780120E+02 -4.566112E+00 -1.175196E+01 -4.566112E+00 +9.309009E+02 
 +4.068445E+02 +2.824437E+00 -4.216754E+00 +2.824437E+00 +3.812249E+02 -1.810038E+00 -4.216754E+00 -1.810038E+00 +9.352954E+02 
 +4.048720E+02 +4.767464E+00 +3.731365E+00 +4.767464E+00 +3.956829E+02 -4.339631E+00 +3.731365E+00 -4.339631E+00 +9.565627E+02 
 +3.730851E+02 -4.500516E+00 +1.910642E+01 -4.500516E+00 +3.762736E+02 -3.362902E+00 +1.910642E+01 -3.362902E+00 +9.714957E+02 
 +3.651404E+02 -8.357735E+00 +9.629709E+00 -8.357735E+00 +3.612417E+02 -1.836026E+00 +9.629709E+00 -1.836026E+00 +9.804090E+02 
 +3.716837E+02 -1.247296E+01 +4.604185E+00 -1.247296E+01 +3.689446E+02 -2.948865E+00 +4.604185E+00 -2.948865E+00 +9.853226E+02 
 +3.390042E+02 -1.100813E+01 -1.244085E+01 -1.100813E+01 +3.565752E+02 -2.297346E+00 -1.244085E+01 -2.297346E+00 +9.777115E+02 
 +3.181496E+02 -9.661930E+00 -6.642026E+00 -9.661930E+00 +3.470785E+02 -1.684146E+00 -6.642026E+00 -1.684146E+00 +9.710627E+02 
 +3.420450E+02 -3.120866E+00 -2.766653E+01 -3.120866E+00 +3.426996E+02 -2.545340E+00 -2.766653E+01 -2.545340E+00 +9.456204E+02 
 +3.581940E+02 +1.099584E+01 -1.634119E+01 +1.099584E+01 +3.369324E+02 -4.697655E+00 -1.634119E+01 -4.697655E+00 +9.234452E+02 
 +3.748163E+02 +6.667101E+00 -1.355668E+01 +6.667101E+00 +3.607751E+02 -5.793431E+00 -1.355668E+01 -5.793431E+00 +9.333084E+02 
 +3.792907E+02 +6.770312E+00 -1.241397E+01 +6.770312E+00 +3.785126E+02 -1.353962E+01 -1.241397E+01 -1.353962E+01 +9.332614E+02 
 +3.817562E+02 +5.035743E+00 -1.450609E+01 +5.035743E+00 +3.931302E+02 -1.830343E+01 -1.450609E+01 -1.830343E+01 +9.354534E+02 
 +3.885860E+02 +5.370721E+00 -1.548287E+01 +5.370721E+00 +4.034675E+02 -1.111478E+01 -1.548287E+01 -1.111478E+01 +9.414661E+02 
 +3.852497E+02 +1.009428E+01 +1.782582E+01 +1.009428E+01 +4.037966E+02 -7.795740E+00 +1.782582E+01 -7.795740E+00 +9.674043E+02 
 +3.156644E+02 -6.492915E+00 +6.976759E+00 -6.492915E+00 +3.775558E+02 -7.971575E+00 +6.976759E+00 -7.971575E+00 +9.776670E+02 
 +3.137782E+02 -2.761069E+00 +7.679821E+00 -2.761069E+00 +3.848382E+02 -6.070847E+00 +7.679821E+00 -6.070847E+00 +9.843270E+02 
 +3.153040E+02 +3.283849E-01 +6.461887E+00 +3.283849E-01 +3.717759E+02 -7.421880E+00 +6.461887E+00 -7.421880E+00 +9.524286E+02 
 +4.071949E+02 +1.637690E+01 +7.940664E+00 +1.637690E+01 +3.955609E+02 -4.605249E+00 +7.940664E+00 -4.605249E+00 +9.389557E+02 
 +3.977961E+02 +6.494867E+00 +1.587902E+00 +6.494867E+00 +3.685019E+02 -8.128089E+00 +1.587902E+00 -8.128089E+00 +9.172118E+02 
 +3.928981E+02 +3.417628E+00 -7.509308E+00 +3.417628E+00 +3.675435E+02 -6.383709E+00 -7.509308E+00 -6.383709E+00 +9.174525E+02 
 +4.080376E+02 +3.074794E-01 -1.782886E+01 +3.074794E-01 +3.794466E+02 -2.824837E+00 -1.782886E+01 -2.824837E+00 +9.198823E+02 
 +4.055947E+02 +4.459591E+00 -6.191479E+00 +4.459591E+00 +3.804870E+02 +1.344798E+00 -6.191479E+00 +1.344798E+00 +9.215838E+02 
 +4.002369E+02 +4.459784E+00 -2.217592E+00 +4.459784E+00 +3.841488E+02 -1.608147E+00 -2.217592E+00 -1.608147E+00 +9.421630E+02 
 +3.693471E+02 -1.061105E+01 +2.143249E+01 -1.061105E+01 +3.698193E+02 -1.150466E+00 +2.143249E+01 -1.150466E+00 +9.635436E+02 
 +3.663499E+02 -7.165481E+00 +1.076689E+01 -7.165481E+00 +3.681408E+02 -3.509528E+00 +1.076689E+01 -3.509528E+00 +9.800589E+02 
 +3.692178E+02 -9.082012E+00 +6.001131E+00 -9.082012E+00 +3.737161E+02 -4.933918E+00 +6.001131E+00 -4.933918E+00 +9.868860E+02 
 +3.308779E+02 -1.251522E+01 -1.123983E+01 -1.251522E+01 +3.491890E+02 +1.270223E-01 -1.123983E+01 +1.270223E-01 +9.777745E+02 
 +3.148823E+02 -1.403647E+01 -8.625074E-01 -1.403647E+01 +3.287501E+02 +3.507174E+00 -8.625074E-01 +3.507174E+00 +9.683465E+02 
 +3.502257E+02 -5.560873E+00 -1.837826E+01 -5.560873E+00 +3.499661E+02 -1.738340E-01 -1.837826E+01 -1.738340E-01 +9.488693E+02 
 +3.767077E+02 +6.119855E+00 -1.552747E+01 +6.119855E+00 +3.693215E+02 -6.423072E+00 -1.552747E+01 -6.423072E+00 +9.377776E+02 
 +3.738079E+02 +6.283796E+00 -1.348390E+01 +6.283796E+00 +3.672279E+02 -1.167720E+01 -1.348390E+01 -1.167720E+01 +9.348156E+02 
 +3.802006E+02 +6.338054E+00 -1.521899E+01 +6.338054E+00 +3.776523E+02 -1.501059E+01 -1.521899E+01 -1.501059E+01 +9.334837E+02 
 +3.831519E+02 +3.647236E+00 -1.734962E+01 +3.647236E+00 +3.863544E+02 -1.439869E+01 -1.734962E+01 -1.439869E+01 +9.375303E+02 
 +3.842286E+02 +1.686024E+00 -1.758665E+01 +1.686024E+00 +4.093677E+02 -9.537456E+00 -1.758665E+01 -9.537456E+00 +9.394585E+02 
 +3.760889E+02 +1.157298E+00 +5.820079E+00 +1.157298E+00 +4.212805E+02 -9.103817E+00 +5.820079E+00 -9.103817E+00 +9.614790E+02 
 +3.075260E+02 -8.441525E+00 +5.032453E+00 -8.441525E+00 +3.679786E+02 -8.503628E+00 +5.032453E+00 -8.503628E+00 +9.701644E+02 
 +3.178565E+02 +3.367701E+00 +9.530342E+00 +3.367701E+00 +3.728481E+02 -4.938982E+00 +9.530342E+00 -4.938982E+00 +9.856157E+02 
 +3.225601E+02 +4.480960E+00 +7.179619E+00 +4.480960E+00 +3.754402E+02 -5.088324E+00 +7.179619E+00 -5.088324E+00 +9.542871E+02 
 +3.625213E+02 +3.362751E+01 +1.029917E+01 +3.362751E+01 +3.305759E+02 -4.174618E-02 +1.029917E+01 -4.174618E-02 +9.514021E+02 
 +3.391272E+02 +2.696242E+01 +2.330776E+00 +2.696242E+01 +2.927523E+02 -2.787226E-01 +2.330776E+00 -2.787226E-01 +9.375077E+02 
 +3.274124E+02 +1.724441E+01 -6.279009E+00 +1.724441E+01 +2.915842E+02 -1.449721E+00 -6.279009E+00 -1.449721E+00 +9.199882E+02 
 +3.973459E+02 +5.527084E+00 -2.173737E+01 +5.527084E+00 +3.549537E+02 -1.122551E+00 -2.173737E+01 -1.122551E+00 +9.196327E+02 
 +4.126927E+02 +7.758602E+00 -1.298752E+01 +7.758602E+00 +3.906237E+02 +6.089511E-02 -1.298752E+01 +6.089511E-02 +9.204569E+02 
 +4.048303E+02 +2.391823E+00 -2.035036E-01 +2.391823E+00 +3.909628E+02 -8.242060E-01 -2.035036E-01 -8.242060E-01 +9.415595E+02 
 +3.707528E+02 -1.385438E+01 +1.665662E+01 -1.385438E+01 +3.658122E+02 -4.152318E-01 +1.665662E+01 -4.152318E-01 +9.594890E+02 
 +3.660451E+02 -6.594887E+00 +1.111574E+01 -6.594887E+00 +3.674731E+02 -7.150358E+00 +1.111574E+01 -7.150358E+00 +9.789574E+02 
 +3.673217E+02 -7.252631E+00 +9.922627E+00 -7.252631E+00 +3.730443E+02 -9.341721E+00 +9.922627E+00 -9.341721E+00 +9.883169E+02 
 +3.362998E+02 -9.520428E+00 -2.741185E+00 -9.520428E+00 +3.575716E+02 -7.056775E+00 -2.741185E+00 -7.056775E+00 +9.808077E+02 
 +3.225459E+02 -8.087652E+00 +7.304758E+00 -8.087652E+00 +3.509423E+02 -6.718426E+00 +7.304758E+00 -6.718426E+00 +9.715629E+02 
 +3.570773E+02 -1.944232E-01 -7.927220E+00 -1.944232E-01 +3.628710E+02 -8.259183E+00 -7.927220E+00 -8.259183E+00 +9.528417E+02 
 +3.656785E+02 +4.961407E+00 -1.309064E+01 +4.961407E+00 +3.599887E+02 -9.755347E+00 -1.309064E+01 -9.755347E+00 +9.331689E+02 
 +3.735441E+02 +9.067531E+00 -1.440006E+01 +9.067531E+00 +3.656099E+02 -1.377500E+01 -1.440006E+01 -1.377500E+01 +9.376140E+02 
 +3.738611E+02 +7.344482E+00 -1.528130E+01 +7.344482E+00 +3.680900E+02 -1.523634E+01 -1.528130E+01 -1.523634E+01 +9.333022E+02 
 +3.662147E+02 +3.262917E+00 -1.498761E+01 +3.262917E+00 +3.716259E+02 -1.379569E+01 -1.498761E+01 -1.379569E+01 +9.251711E+02 
 +3.511731E+02 +1.319846E+00 -1.547940E+01 +1.319846E+00 +3.584841E+02 -6.237519E+00 -1.547940E+01 -6.237519E+00 +9.202698E+02 
 +3.402409E+02 +1.208717E+00 -4.229083E+00 +1.208717E+00 +3.421783E+02 +4.218869E+00 -4.229083E+00 +4.218869E+00 +9.309388E+02 
 +3.056270E+02 -1.222862E-01 -1.383765E+00 -1.222862E-01 +3.290294E+02 +7.574397E+00 -1.383765E+00 +7.574397E+00 +9.428479E+02 
 +3.145351E+02 +2.795750E+01 -2.119518E+00 +2.795750E+01 +3.324007E+02 +4.067441E-01 -2.119518E+00 +4.067441E-01 +9.596780E+02 
 +3.424664E+02 +3.474020E+01 -1.425105E+00 +3.474020E+01 +3.426147E+02 -3.237263E+00 -1.425105E+00 -3.237263E+00 +9.589191E+02 
 +3.511491E+02 +5.400736E+00 +5.869423E+00 +5.400736E+00 +3.505802E+02 +7.235742E+00 +5.869423E+00 +7.235742E+00 +9.797737E+02 
 +3.403829E+02 +1.198309E+01 -1.635827E+00 +1.198309E+01 +3.426352E+02 +1.166368E+01 -1.635827E+00 +1.166368E+01 +9.894596E+02 
 +3.181462E+02 +1.124483E+01 -5.901667E+00 +1.124483E+01 +3.210725E+02 +8.205301E+00 -5.901667E+00 +8.205301E+00 +9.589577E+02 
 +3.750869E+02 +1.198141E+01 -1.701503E+01 +1.198141E+01 +3.385039E+02 -1.761571E+00 -1.701503E+01 -1.761571E+00 +9.273338E+02 
 +4.058998E+02 +5.720244E+00 -1.986407E+01 +5.720244E+00 +3.640402E+02 -4.003090E+00 -1.986407E+01 -4.003090E+00 +9.170880E+02 
 +3.765249E+02 -1.297061E+01 +6.828427E+00 -1.297061E+01 +3.460850E+02 +6.836113E-01 +6.828427E+00 +6.836113E-01 +9.235295E+02 
 +3.666736E+02 -1.784676E+01 +1.356382E+01 -1.784676E+01 +3.474763E+02 -2.617800E+00 +1.356382E+01 -2.617800E+00 +9.482249E+02 
 +3.735609E+02 -9.736831E+00 +1.468606E+01 -9.736831E+00 +3.657153E+02 -1.082275E+01 +1.468606E+01 -1.082275E+01 +9.731971E+02 
 +3.748812E+02 -3.464089E+00 +1.445292E+01 -3.464089E+00 +3.716121E+02 -1.565206E+01 +1.445292E+01 -1.565206E+01 +9.831135E+02 
 +3.455182E+02 -4.239267E+00 +9.058302E+00 -4.239267E+00 +3.655550E+02 -1.348154E+01 +9.058302E+00 -1.348154E+01 +9.749545E+02 
 +3.104510E+02 -6.880633E+00 +1.649636E+01 -6.880633E+00 +3.442389E+02 -1.258502E+01 +1.649636E+01 -1.258502E+01 +9.574427E+02 
 +3.494410E+02 +4.707233E+00 -5.423389E+00 +4.707233E+00 +3.572767E+02 -1.662874E+01 -5.423389E+00 -1.662874E+01 +9.514430E+02 
 +3.597891E+02 +9.033372E+00 -1.013549E+01 +9.033372E+00 +3.576789E+02 -2.007267E+01 -1.013549E+01 -2.007267E+01 +9.388727E+02 
 +3.584876E+02 +1.111466E+01 -4.984059E+00 +1.111466E+01 +3.496646E+02 -2.005810E+01 -4.984059E+00 -2.005810E+01 +9.328916E+02 
 +3.565341E+02 +1.025842E+01 -3.111849E+00 +1.025842E+01 +3.472202E+02 -1.190410E+01 -3.111849E+00 -1.190410E+01 +9.211974E+02 
 +3.475686E+02 +8.825638E+00 -1.082730E+01 +8.825638E+00 +3.471643E+02 -2.105787E+00 -1.082730E+01 -2.105787E+00 +9.241058E+02 
 +3.372934E+02 -4.746820E+00 -6.844085E+00 -4.746820E+00 +3.271431E+02 +4.586157E+00 -6.844085E+00 +4.586157E+00 +9.325433E+02 
 +3.270616E+02 -8.399561E-01 -7.968332E+00 -8.399561E-01 +3.036220E+02 +6.758340E+00 -7.968332E+00 +6.758340E+00 +9.245834E+02 
 +3.294312E+02 -3.693086E+00 -9.372054E+00 -3.693086E+00 +3.110385E+02 +1.502390E+00 -9.372054E+00 +1.502390E+00 +9.256937E+02 
 +3.462215E+02 +1.744560E+01 -1.306489E+01 +1.744560E+01 +3.260483E+02 -6.492589E+00 -1.306489E+01 -6.492589E+00 +9.480493E+02 
 +3.807223E+02 +2.861139E+01 -8.088471E+00 +2.861139E+01 +3.585909E+02 -3.010618E+00 -8.088471E+00 -3.010618E+00 +9.767611E+02 
 +3.165874E+02 -4.533291E+00 +3.893289E+00 -4.533291E+00 +3.336159E+02 +7.843403E-01 +3.893289E+00 +7.843403E-01 +9.623886E+02 
 +3.266691E+02 +6.594841E+00 -1.055274E+00 +6.594841E+00 +3.494474E+02 +7.499307E+00 -1.055274E+00 +7.499307E+00 +9.908879E+02 
 +3.341885E+02 +7.621168E+00 -2.622481E+00 +7.621168E+00 +3.464194E+02 +1.471916E+01 -2.622481E+00 +1.471916E+01 +9.908514E+02 
 +3.471376E+02 +1.038086E+01 -7.580625E+00 +1.038086E+01 +3.313954E+02 +1.435751E+01 -7.580625E+00 +1.435751E+01 +9.549148E+02 
 +3.995913E+02 +9.533760E+00 -2.378379E+01 +9.533760E+00 +3.446381E+02 +5.672529E+00 -2.378379E+01 +5.672529E+00 +9.280853E+02 
 +3.787792E+02 -1.561110E+01 +2.723431E+00 -1.561110E+01 +3.431164E+02 +3.483667E+00 +2.723431E+00 +3.483667E+00 +9.268587E+02 
 +3.837508E+02 -1.020095E+01 +1.405133E+01 -1.020095E+01 +3.528373E+02 -3.418040E+00 +1.405133E+01 -3.418040E+00 +9.510474E+02 
 +3.730489E+02 -8.025472E+00 +1.763027E+01 -8.025472E+00 +3.514064E+02 -1.221103E+01 +1.763027E+01 -1.221103E+01 +9.572323E+02 
 +3.759919E+02 -3.003169E+00 +1.244477E+01 -3.003169E+00 +3.657504E+02 -1.847560E+01 +1.244477E+01 -1.847560E+01 +9.698629E+02 
 +3.623903E+02 -5.515782E+00 +9.523999E+00 -5.515782E+00 +3.759069E+02 -1.727509E+01 +9.523999E+00 -1.727509E+01 +9.741648E+02 
 +3.109739E+02 -1.171329E+01 +1.166843E+01 -1.171329E+01 +3.452991E+02 -1.868910E+01 +1.166843E+01 -1.868910E+01 +9.544993E+02 
 +3.388605E+02 +5.424069E+00 -7.012212E+00 +5.424069E+00 +3.528593E+02 -1.750223E+01 -7.012212E+00 -1.750223E+01 +9.433710E+02 
 +3.540276E+02 +6.509120E+00 -1.690801E+00 +6.509120E+00 +3.660577E+02 -4.053919E+00 -1.690801E+00 -4.053919E+00 +9.288507E+02 
 +3.490164E+02 +5.968399E+00 +3.908163E+00 +5.968399E+00 +3.578740E+02 +6.659957E+00 +3.908163E+00 +6.659957E+00 +9.144116E+02 
 +3.384377E+02 +6.611630E+00 +6.044705E+00 +6.611630E+00 +3.410078E+02 +1.315865E+01 +6.044705E+00 +1.315865E+01 +9.042335E+02 
 +3.409058E+02 -2.029593E+00 -2.241139E-01 -2.029593E+00 +3.255285E+02 +1.459453E+01 -2.241139E-01 +1.459453E+01 +9.233573E+02 
 +3.426025E+02 -3.097050E+00 -5.914276E+00 -3.097050E+00 +3.320577E+02 +9.830100E+00 -5.914276E+00 +9.830100E+00 +9.287491E+02 
 +3.667151E+02 +7.412385E+00 -1.690982E+01 +7.412385E+00 +3.726200E+02 +5.816541E+00 -1.690982E+01 +5.816541E+00 +9.313277E+02 
 +3.849369E+02 +2.779981E+00 -1.498626E+01 +2.779981E+00 +3.882473E+02 +8.903509E-01 -1.498626E+01 +8.903509E-01 +9.326563E+02 
 +3.861454E+02 +2.528895E+00 -9.127824E+00 +2.528895E+00 +3.694963E+02 -9.393155E+00 -9.127824E+00 -9.393155E+00 +9.348067E+02 
 +3.864269E+02 +2.142892E+01 -3.593815E+00 +2.142892E+01 +3.547034E+02 -9.647306E+00 -3.593815E+00 -9.647306E+00 +9.555462E+02 
 +3.135252E+02 -6.324100E+00 +8.769633E+00 -6.324100E+00 +3.301998E+02 -7.096592E+00 +8.769633E+00 -7.096592E+00 +9.578615E+02 
 +3.172346E+02 +2.422914E+00 +3.630568E+00 +2.422914E+00 +3.384190E+02 -6.798062E-01 +3.630568E+00 -6.798062E-01 +9.817656E+02 
 +3.459138E+02 +9.909351E+00 +1.657548E+00 +9.909351E+00 +3.567754E+02 +9.226937E+00 +1.657548E+00 +9.226937E+00 +1.011139E+03 
 +3.411070E+02 +1.008402E+01 +1.039083E+00 +1.008402E+01 +3.487506E+02 +1.269980E+01 +1.039083E+00 +1.269980E+01 +9.820744E+02 
 +4.122412E+02 +1.616160E+01 -3.867380E+00 +1.616160E+01 +3.518353E+02 +2.464808E+00 -3.867380E+00 +2.464808E+00 +9.528800E+02 
 +3.755938E+02 +3.764274E-02 +3.038321E+00 +3.764274E-02 +3.059526E+02 -1.819988E-01 +3.038321E+00 -1.819988E-01 +9.335824E+02 
 +3.640051E+02 +5.755909E+00 +1.136915E+01 +5.755909E+00 +3.124457E+02 -2.534487E+00 +1.136915E+01 -2.534487E+00 +9.457909E+02 
 +3.588389E+02 +1.267805E-02 +1.296899E+01 +1.267805E-02 +3.300387E+02 -8.333437E+00 +1.296899E+01 -8.333437E+00 +9.485491E+02 
 +3.617265E+02 +3.901513E+00 +5.168719E+00 +3.901513E+00 +3.350345E+02 -1.376316E+01 +5.168719E+00 -1.376316E+01 +9.554916E+02 
 +3.499577E+02 +4.854447E+00 -1.206577E+00 +4.854447E+00 +3.316521E+02 -1.536466E+01 -1.206577E+00 -1.536466E+01 +9.601715E+02 
 +2.955058E+02 -9.413483E+00 -4.273002E+00 -9.413483E+00 +3.301983E+02 -9.032099E+00 -4.273002E+00 -9.032099E+00 +9.418571E+02 
 +3.376348E+02 +3.080659E+00 -6.461953E+00 +3.080659E+00 +3.683248E+02 +2.431263E+00 -6.461953E+00 +2.431263E+00 +9.390881E+02 
 +3.389773E+02 +3.808951E+00 -4.070207E+00 +3.808951E+00 +3.586261E+02 +1.060622E+01 -4.070207E+00 +1.060622E+01 +9.189602E+02 
 +3.445363E+02 +2.517972E+00 -7.222926E+00 +2.517972E+00 +3.609430E+02 +1.653303E+01 -7.222926E+00 +1.653303E+01 +9.135672E+02 
 +3.356229E+02 +3.416255E+00 -6.677388E+00 +3.416255E+00 +3.470355E+02 +1.766874E+01 -6.677388E+00 +1.766874E+01 +9.103084E+02 
 +3.438163E+02 -4.087229E+00 -5.063451E-01 -4.087229E+00 +3.455902E+02 +1.260711E+01 -5.063451E-01 +1.260711E+01 +9.205704E+02 
 +3.855773E+02 +7.251735E+00 -1.229298E+01 +7.251735E+00 +3.930342E+02 +1.154165E+01 -1.229298E+01 +1.154165E+01 +9.351587E+02 
 +3.937687E+02 +1.576795E+00 -1.721568E+01 +1.576795E+00 +4.016040E+02 +9.315026E+00 -1.721568E+01 +9.315026E+00 +9.283679E+02 
 +3.922090E+02 +1.254739E+00 -1.588899E+01 +1.254739E+00 +3.889778E+02 +5.493651E+00 -1.588899E+01 +5.493651E+00 +9.251194E+02 
 +3.993775E+02 -5.777297E+00 -4.388619E+00 -5.777297E+00 +3.963475E+02 -2.152751E+00 -4.388619E+00 -2.152751E+00 +9.416716E+02 
 +3.992916E+02 +7.238041E+00 -1.735149E+00 +7.238041E+00 +3.831652E+02 -8.706373E+00 -1.735149E+00 -8.706373E+00 +9.654514E+02 
 +3.295419E+02 -7.008082E+00 +1.541837E+00 -7.008082E+00 +3.370536E+02 -4.176316E+00 +1.541837E+00 -4.176316E+00 +9.655623E+02 
 +3.194236E+02 -3.865078E+00 -8.817377E-01 -3.865078E+00 +3.314761E+02 -1.009814E+01 -8.817377E-01 -1.009814E+01 +9.691473E+02 
 +3.399617E+02 +1.059658E+01 +3.280931E+00 +1.059658E+01 +3.448990E+02 -6.636727E+00 +3.280931E+00 -6.636727E+00 +9.906345E+02 
 +3.393280E+02 +9.173279E+00 +8.694153E+00 +9.173279E+00 +3.277456E+02 -1.030304E+00 +8.694153E+00 -1.030304E+00 +9.673581E+02 
 +3.887060E+02 +8.645101E+00 +2.010024E+01 +8.645101E+00 +3.152748E+02 +3.966686E+00 +2.010024E+01 +3.966686E+00 +9.501473E+02 
 +3.720273E+02 -1.847210E+00 +1.358648E+01 -1.847210E+00 +3.085647E+02 +4.586017E-01 +1.358648E+01 +4.586017E-01 +9.482557E+02 
 +3.747320E+02 -1.687049E+00 +4.999190E+00 -1.687049E+00 +3.331809E+02 -5.507461E+00 +4.999190E+00 -5.507461E+00 +9.603878E+02 
 +3.577937E+02 -1.677263E+00 +9.754233E-01 -1.677263E+00 +3.266202E+02 -6.006381E+00 +9.754233E-01 -6.006381E+00 +9.519380E+02 
 +3.610969E+02 -3.329756E+00 -3.877801E+00 -3.329756E+00 +3.366331E+02 -6.911207E+00 -3.877801E+00 -6.911207E+00 +9.575145E+02 
 +3.365851E+02 -7.773156E+00 -7.518086E+00 -7.773156E+00 +3.391655E+02 -9.624547E+00 -7.518086E+00 -9.624547E+00 +9.570751E+02 
 +3.104638E+02 -1.325506E+01 -9.430203E+00 -1.325506E+01 +3.514323E+02 -1.214679E+01 -9.430203E+00 -1.214679E+01 +9.483431E+02 
 +3.197663E+02 -1.595786E+01 -8.633462E+00 -1.595786E+01 +3.646732E+02 -1.310003E+01 -8.633462E+00 -1.310003E+01 +9.415016E+02 
 +3.376785E+02 -1.641902E+01 -1.115635E+01 -1.641902E+01 +3.612330E+02 -9.605318E+00 -1.115635E+01 -9.605318E+00 +9.386961E+02 
 +3.485832E+02 -1.224806E+01 -1.245175E+01 -1.224806E+01 +3.517488E+02 +6.705711E+00 -1.245175E+01 +6.705711E+00 +9.316306E+02 
 +3.608336E+02 -4.161833E+00 -1.351704E+01 -4.161833E+00 +3.632612E+02 +1.491662E+01 -1.351704E+01 +1.491662E+01 +9.349880E+02 
 +3.674689E+02 +2.424908E+00 -9.996069E+00 +2.424908E+00 +3.978777E+02 +1.086749E+01 -9.996069E+00 +1.086749E+01 +9.423170E+02 
 +4.259402E+02 +1.432883E+01 -1.819897E+01 +1.432883E+01 +4.293428E+02 +1.362195E+01 -1.819897E+01 +1.362195E+01 +9.603754E+02 
 +4.105069E+02 +5.167989E+00 -1.034814E+01 +5.167989E+00 +4.045614E+02 +1.307503E+01 -1.034814E+01 +1.307503E+01 +9.493530E+02 
 +3.977160E+02 -6.028479E-01 -1.159545E+01 -6.028479E-01 +3.878419E+02 +7.093342E+00 -1.159545E+01 +7.093342E+00 +9.576430E+02 
 +3.866216E+02 -1.043230E+01 -4.020081E+00 -1.043230E+01 +3.686436E+02 +5.053358E+00 -4.020081E+00 +5.053358E+00 +9.727066E+02 
 +3.736610E+02 -6.276438E-01 -8.411224E+00 -6.276438E-01 +3.590747E+02 +6.101340E+00 -8.411224E+00 +6.101340E+00 +9.780886E+02 
 +3.403534E+02 +4.923761E-01 -1.278872E+01 +4.923761E-01 +3.315016E+02 +1.076164E+01 -1.278872E+01 +1.076164E+01 +9.540102E+02 
 +3.317113E+02 +3.478356E+00 -1.241635E+01 +3.478356E+00 +3.143836E+02 +6.771999E+00 -1.241635E+01 +6.771999E+00 +9.516493E+02 
 +3.183734E+02 +2.933714E+01 -1.430810E-01 +2.933714E+01 +2.892348E+02 -6.224978E+00 -1.430810E-01 -6.224978E+00 +9.501530E+02 
 +3.509095E+02 +2.740388E+01 +6.760969E+00 +2.740388E+01 +3.183893E+02 -8.054379E+00 +6.760969E+00 -8.054379E+00 +9.597836E+02 
 +3.863374E+02 +1.853786E+01 +1.260747E+01 +1.853786E+01 +3.731972E+02 +4.548281E+00 +1.260747E+01 +4.548281E+00 +9.690485E+02 
 +3.434240E+02 +2.954707E-02 +1.141356E+01 +2.954707E-02 +3.626353E+02 +1.017889E+01 +1.141356E+01 +1.017889E+01 +9.509242E+02 
 +3.796740E+02 -2.150407E+01 +7.158816E+00 -2.150407E+01 +3.703839E+02 +7.275392E+00 +7.158816E+00 +7.275392E+00 +9.602160E+02 
 +3.850374E+02 -2.782275E+01 -7.101749E-01 -2.782275E+01 +3.695548E+02 +2.883635E+00 -7.101749E-01 +2.883635E+00 +9.618522E+02 
 +3.746524E+02 -2.502666E+01 -6.542541E+00 -2.502666E+01 +3.716021E+02 +8.811611E-01 -6.542541E+00 +8.811611E-01 +9.674328E+02 
 +3.355111E+02 -1.677045E+01 -8.325420E+00 -1.677045E+01 +3.591056E+02 -4.058096E+00 -8.325420E+00 -4.058096E+00 +9.586338E+02 
 +3.353552E+02 -1.497509E+01 -5.993590E+00 -1.497509E+01 +3.666963E+02 -9.056622E+00 -5.993590E+00 -9.056622E+00 +9.602386E+02 
 +3.284768E+02 -1.681936E+01 -5.924470E+00 -1.681936E+01 +3.696134E+02 -6.349558E+00 -5.924470E+00 -6.349558E+00 +9.561812E+02 
 +3.486262E+02 -8.771997E+00 -5.501488E+00 -8.771997E+00 +3.747385E+02 +3.501987E+00 -5.501488E+00 +3.501987E+00 +9.555649E+02 
 +3.485444E+02 -1.085732E+01 -5.770632E+00 -1.085732E+01 +3.601478E+02 +1.177867E+01 -5.770632E+00 +1.177867E+01 +9.425295E+02 
 +3.498974E+02 -1.165383E+01 -6.511626E+00 -1.165383E+01 +3.497761E+02 +1.397404E+01 -6.511626E+00 +1.397404E+01 +9.466989E+02 
 +3.691792E+02 -9.257602E+00 -7.378304E+00 -9.257602E+00 +3.412893E+02 +9.769727E+00 -7.378304E+00 +9.769727E+00 +9.616474E+02 
 +3.848295E+02 -5.406880E+00 -1.166031E+01 -5.406880E+00 +3.292979E+02 +1.448303E+01 -1.166031E+01 +1.448303E+01 +9.562939E+02 
 +3.777267E+02 -1.283332E+01 -9.445847E-01 -1.283332E+01 +3.215790E+02 +1.717637E+01 -9.445847E-01 +1.717637E+01 +9.531074E+02 
 +3.724034E+02 -1.800674E+01 -2.223573E+00 -1.800674E+01 +3.289453E+02 +1.000313E+01 -2.223573E+00 +1.000313E+01 +9.681602E+02 
 +3.810395E+02 -1.516732E+01 -4.710359E+00 -1.516732E+01 +3.478327E+02 +7.911176E+00 -4.710359E+00 +7.911176E+00 +9.786550E+02 
 +3.557828E+02 -1.364862E+00 -1.469423E+01 -1.364862E+00 +3.401629E+02 +1.079911E+01 -1.469423E+01 +1.079911E+01 +9.628208E+02 
 +3.526894E+02 -1.909363E+00 -1.354928E+01 -1.909363E+00 +3.214744E+02 +1.098072E+01 -1.354928E+01 +1.098072E+01 +9.395660E+02 
 +3.510763E+02 -8.164660E+00 -1.865530E+01 -8.164660E+00 +3.103701E+02 +1.156166E+01 -1.865530E+01 +1.156166E+01 +9.438077E+02 
 +3.504081E+02 +1.982239E+01 -7.832630E+00 +1.982239E+01 +3.241928E+02 +2.242913E-01 -7.832630E+00 +2.242913E-01 +9.611614E+02 
 +3.589212E+02 +1.464003E+01 +3.232647E-01 +1.464003E+01 +3.467410E+02 -8.558247E+00 +3.232647E-01 -8.558247E+00 +9.661546E+02 
 +3.581904E+02 +1.671543E+01 +3.284530E+00 +1.671543E+01 +3.738715E+02 -2.501945E+00 +3.284530E+00 -2.501945E+00 +9.622612E+02 
 +3.370657E+02 +7.673425E+00 +5.343663E+00 +7.673425E+00 +3.875065E+02 +9.388993E+00 +5.343663E+00 +9.388993E+00 +9.574851E+02 
 +3.393972E+02 +2.765902E+00 +8.062916E+00 +2.765902E+00 +3.900265E+02 +1.048810E+01 +8.062916E+00 +1.048810E+01 +9.524373E+02 
 +3.754951E+02 -1.908237E+01 +6.166132E+00 -1.908237E+01 +3.941428E+02 +7.460926E+00 +6.166132E+00 +7.460926E+00 +9.623926E+02 
 +3.630962E+02 -2.346966E+01 -1.978629E-01 -2.346966E+01 +3.644479E+02 +2.449593E+00 -1.978629E-01 +2.449593E+00 +9.614131E+02 
 +3.414366E+02 -1.600677E+01 -1.498500E+00 -1.600677E+01 +3.535267E+02 -5.939589E+00 -1.498500E+00 -5.939589E+00 +9.546562E+02 
 +3.622606E+02 -1.158503E+01 +1.503465E+00 -1.158503E+01 +3.734630E+02 -9.077823E+00 +1.503465E+00 -9.077823E+00 +9.646279E+02 
 +3.665919E+02 -1.016805E+01 +2.448204E+00 -1.016805E+01 +3.814862E+02 -8.631605E+00 +2.448204E+00 -8.631605E+00 +9.711991E+02 
 +3.595782E+02 -8.164079E+00 +8.709667E+00 -8.164079E+00 +3.828151E+02 -2.039302E+00 +8.709667E+00 -2.039302E+00 +9.680551E+02 
 +3.537012E+02 -3.626092E+00 +6.425691E+00 -3.626092E+00 +3.806220E+02 +1.106556E+01 +6.425691E+00 +1.106556E+01 +9.676021E+02 
 +3.133323E+02 -8.835173E+00 -3.241369E+00 -8.835173E+00 +3.263245E+02 +1.766295E+01 -3.241369E+00 +1.766295E+01 +9.562807E+02 
 +3.458438E+02 -1.519958E+01 -3.528337E+00 -1.519958E+01 +3.015608E+02 +1.686804E+01 -3.528337E+00 +1.686804E+01 +9.669345E+02 
 +3.702068E+02 -1.803406E+01 +1.312080E+00 -1.803406E+01 +3.096182E+02 +1.524912E+01 +1.312080E+00 +1.524912E+01 +9.632265E+02 
 +4.108312E+02 -1.877792E+01 +9.766888E+00 -1.877792E+01 +3.416628E+02 +1.041411E+01 +9.766888E+00 +1.041411E+01 +9.756898E+02 
 +4.001283E+02 -1.552888E+01 +6.838228E+00 -1.552888E+01 +3.462505E+02 +4.773354E+00 +6.838228E+00 +4.773354E+00 +9.769868E+02 
 +3.909445E+02 -1.348821E+01 -1.835921E+00 -1.348821E+01 +3.517926E+02 +3.577470E+00 -1.835921E+00 +3.577470E+00 +9.698215E+02 
 +3.612011E+02 -2.088947E+00 -1.216619E+01 -2.088947E+00 +3.357238E+02 +7.651588E+00 -1.216619E+01 +7.651588E+00 +9.489174E+02 
 +3.726060E+02 -8.006639E+00 -6.292483E+00 -8.006639E+00 +3.329851E+02 +1.828549E+01 -6.292483E+00 +1.828549E+01 +9.421579E+02 
 +3.747527E+02 -1.139084E+01 -1.353125E+01 -1.139084E+01 +3.318597E+02 +1.917643E+01 -1.353125E+01 +1.917643E+01 +9.511088E+02 
 +3.503648E+02 +2.304960E+01 -6.564712E-01 +2.304960E+01 +3.315509E+02 +2.849899E+00 -6.564712E-01 +2.849899E+00 +9.603067E+02 
 +3.464613E+02 +1.338320E+01 +4.478590E+00 +1.338320E+01 +3.506138E+02 -1.032298E+01 +4.478590E+00 -1.032298E+01 +9.666450E+02 
 +3.226903E+02 +1.474180E+01 +2.131041E+00 +1.474180E+01 +3.327178E+02 -7.210331E+00 +2.131041E+00 -7.210331E+00 +9.469180E+02 
 +3.329463E+02 -1.126143E+00 +1.737980E+00 -1.126143E+00 +3.446211E+02 +5.424179E+00 +1.737980E+00 +5.424179E+00 +9.531053E+02 
 +3.075275E+02 +6.965279E-02 -1.564082E+00 +6.965279E-02 +3.625663E+02 +7.655662E+00 -1.564082E+00 +7.655662E+00 +9.465148E+02 
 +3.459379E+02 -1.607477E+01 -2.260132E+00 -1.607477E+01 +3.872940E+02 +8.678655E+00 -2.260132E+00 +8.678655E+00 +9.615161E+02 
 +3.354025E+02 -1.339346E+01 -6.730942E+00 -1.339346E+01 +3.536618E+02 +3.742366E+00 -6.730942E+00 +3.742366E+00 +9.523435E+02 
 +3.443270E+02 +5.107770E+00 +6.565733E+00 +5.107770E+00 +3.407906E+02 -5.034419E+00 +6.565733E+00 -5.034419E+00 +9.468454E+02 
 +3.711756E+02 +1.972908E+00 +1.230141E+01 +1.972908E+00 +3.626267E+02 -1.315124E+01 +1.230141E+01 -1.315124E+01 +9.618639E+02 
 +3.629847E+02 -1.019953E+01 +1.440826E+01 -1.019953E+01 +3.678556E+02 -2.068289E+01 +1.440826E+01 -2.068289E+01 +9.671234E+02 
 +3.756170E+02 -9.937748E+00 +2.267253E+01 -9.937748E+00 +3.887612E+02 -1.570292E+01 +2.267253E+01 -1.570292E+01 +9.678451E+02 
 +3.626902E+02 -1.084068E+01 +1.927494E+01 -1.084068E+01 +3.838333E+02 -3.049749E+00 +1.927494E+01 -3.049749E+00 +9.651063E+02 
 +3.410488E+02 -1.292118E+01 -5.245504E-01 -1.292118E+01 +3.665239E+02 +6.021812E+00 -5.245504E-01 +6.021812E+00 +9.733668E+02 
 +3.657023E+02 +7.591001E+00 -6.329151E+00 +7.591001E+00 +3.899760E+02 +1.382830E+01 -6.329151E+00 +1.382830E+01 +9.854450E+02 
 +3.751165E+02 +3.178802E-01 +2.441702E+00 +3.178802E-01 +3.694058E+02 +1.361499E+01 +2.441702E+00 +1.361499E+01 +9.712734E+02 
 +4.046843E+02 -1.645350E+01 +1.417206E+01 -1.645350E+01 +3.388253E+02 +7.796201E+00 +1.417206E+01 +7.796201E+00 +9.628447E+02 
 +4.118828E+02 -1.656045E+01 +1.785005E+01 -1.656045E+01 +3.380709E+02 +3.430699E+00 +1.785005E+01 +3.430699E+00 +9.639084E+02 
 +4.074762E+02 -1.323948E+01 +7.400194E+00 -1.323948E+01 +3.508273E+02 +2.074241E+00 +7.400194E+00 +2.074241E+00 +9.658831E+02 
 +3.763769E+02 -3.127068E+00 -6.779113E+00 -3.127068E+00 +3.394615E+02 +9.850615E+00 -6.779113E+00 +9.850615E+00 +9.467193E+02 
 +3.988658E+02 -1.225441E+01 -5.841120E-01 -1.225441E+01 +3.440105E+02 +2.188358E+01 -5.841120E-01 +2.188358E+01 +9.374644E+02 
 +3.759103E+02 -8.837765E+00 -5.786699E+00 -8.837765E+00 +3.488570E+02 +2.911192E+01 -5.786699E+00 +2.911192E+01 +9.450812E+02 
 +3.539439E+02 +1.638749E+01 +3.615618E+00 +1.638749E+01 +3.584474E+02 +1.648545E+01 +3.615618E+00 +1.648545E+01 +9.534159E+02 
 +3.359866E+02 +1.035712E+01 +3.377714E+00 +1.035712E+01 +3.505921E+02 +3.820789E-02 +3.377714E+00 +3.820789E-02 +9.504243E+02 
 +3.233401E+02 +8.974466E+00 -4.295337E+00 +8.974466E+00 +3.522284E+02 -3.252779E+00 -4.295337E+00 -3.252779E+00 +9.461475E+02 
 +3.160557E+02 +6.455142E-01 -6.856324E+00 +6.455142E-01 +3.680310E+02 +4.464582E-01 -6.856324E+00 +4.464582E-01 +9.528863E+02 
 +3.404566E+02 -2.000599E+01 -1.122544E+01 -2.000599E+01 +3.680736E+02 +3.125204E+00 -1.122544E+01 +3.125204E+00 +9.596817E+02 
 +3.331659E+02 -2.453643E+01 -1.217579E+01 -2.453643E+01 +3.498534E+02 +4.104825E+00 -1.217579E+01 +4.104825E+00 +9.497992E+02 
 +3.285137E+02 -2.109924E+01 -1.624144E+01 -2.109924E+01 +3.450617E+02 +7.223128E-01 -1.624144E+01 +7.223128E-01 +9.463570E+02 
 +3.647290E+02 +1.516534E+01 +7.890158E+00 +1.516534E+01 +3.557279E+02 -6.086491E+00 +7.890158E+00 -6.086491E+00 +9.633345E+02 
 +3.657785E+02 +1.095789E+01 +1.415733E+01 +1.095789E+01 +3.557910E+02 -9.853027E+00 +1.415733E+01 -9.853027E+00 +9.666462E+02 
 +3.606944E+02 +1.100409E+01 +1.778828E+01 +1.100409E+01 +3.536747E+02 -8.268577E+00 +1.778828E+01 -8.268577E+00 +9.572068E+02 
 +3.771293E+02 +1.759365E+01 +2.173213E+01 +1.759365E+01 +3.693466E+02 -4.524863E+00 +2.173213E+01 -4.524863E+00 +9.484208E+02 
 +3.769108E+02 +1.285796E+01 +1.939389E+01 +1.285796E+01 +3.787111E+02 +2.801397E+00 +1.939389E+01 +2.801397E+00 +9.497852E+02 
 +3.754293E+02 +1.448643E+01 +9.582296E+00 +1.448643E+01 +4.039212E+02 +9.105532E+00 +9.582296E+00 +9.105532E+00 +9.765692E+02 
 +3.502007E+02 +1.832417E+01 -5.002943E+00 +1.832417E+01 +3.869784E+02 +9.387905E+00 -5.002943E+00 +9.387905E+00 +9.696205E+02 
 +3.560664E+02 +9.021833E+00 -4.855210E+00 +9.021833E+00 +3.685069E+02 +2.728597E+00 -4.855210E+00 +2.728597E+00 +9.622474E+02 
 +3.682063E+02 +4.751562E+00 +4.844625E+00 +4.751562E+00 +3.651822E+02 -6.708406E-01 +4.844625E+00 -6.708406E-01 +9.569502E+02 
 +4.015227E+02 -8.822061E+00 +1.948615E+01 -8.822061E+00 +3.539046E+02 -2.376712E-01 +1.948615E+01 -2.376712E-01 +9.576801E+02 
 +4.127174E+02 -1.293653E+01 +1.502155E+01 -1.293653E+01 +3.488453E+02 +2.364923E+00 +1.502155E+01 +2.364923E+00 +9.546665E+02 
 +4.048441E+02 -1.104873E+01 -2.574293E-01 -1.104873E+01 +3.531734E+02 +1.217962E+01 -2.574293E-01 +1.217962E+01 +9.402248E+02 
 +4.057325E+02 -1.497914E+01 +2.146492E+00 -1.497914E+01 +3.593775E+02 +2.396923E+01 +2.146492E+00 +2.396923E+01 +9.315065E+02 
 +3.696267E+02 -1.126805E+01 -2.640708E+00 -1.126805E+01 +3.877576E+02 +2.225413E+01 -2.640708E+00 +2.225413E+01 +9.494537E+02 
 +3.714259E+02 -5.496845E+00 +6.387990E-01 -5.496845E+00 +4.105877E+02 +1.537344E+01 +6.387990E-01 +1.537344E+01 +9.625793E+02 
 +3.573378E+02 -8.840739E+00 -1.171830E+00 -8.840739E+00 +3.961089E+02 +5.771150E+00 -1.171830E+00 +5.771150E+00 +9.551925E+02 
 +3.398007E+02 -8.099530E+00 -7.707308E+00 -8.099530E+00 +3.888028E+02 -1.734250E+00 -7.707308E+00 -1.734250E+00 +9.539621E+02 
 +3.115657E+02 -3.388802E+00 -1.216796E+01 -3.388802E+00 +3.590108E+02 -3.225029E+00 -1.216796E+01 -3.225029E+00 +9.449188E+02 
 +3.500094E+02 -1.974932E+01 -1.331264E+01 -1.974932E+01 +3.555685E+02 -1.760854E+00 -1.331264E+01 -1.760854E+00 +9.529244E+02 
 +3.479869E+02 -1.650336E+01 -1.362552E+01 -1.650336E+01 +3.484419E+02 -1.331944E+00 -1.362552E+01 -1.331944E+00 +9.517625E+02 
 +3.542004E+02 -2.435159E+01 -1.007718E+01 -2.435159E+01 +3.608714E+02 -3.508692E+00 -1.007718E+01 -3.508692E+00 +9.604520E+02 
 +3.935000E+02 +1.411652E+01 +1.033066E+01 +1.411652E+01 +3.800775E+02 -5.908342E+00 +1.033066E+01 -5.908342E+00 +9.790565E+02 
 +3.778568E+02 +1.484018E+01 +1.812180E+01 +1.484018E+01 +3.639603E+02 -6.375520E+00 +1.812180E+01 -6.375520E+00 +9.732305E+02 
 +3.803755E+02 +1.451753E+01 +2.076041E+01 +1.451753E+01 +3.647607E+02 -5.291020E+00 +2.076041E+01 -5.291020E+00 +9.678105E+02 
 +3.868720E+02 +1.563530E+01 +2.151448E+01 +1.563530E+01 +3.712664E+02 -7.256045E+00 +2.151448E+01 -7.256045E+00 +9.642914E+02 
 +4.097963E+02 +7.511348E+00 +2.083028E+01 +7.511348E+00 +3.990939E+02 -4.358848E+00 +2.083028E+01 -4.358848E+00 +9.816567E+02 
 +3.951838E+02 +1.263190E+01 +2.194249E+01 +1.263190E+01 +4.058521E+02 +6.345870E+00 +2.194249E+01 +6.345870E+00 +9.813710E+02 
 +3.539493E+02 +1.773818E+01 +4.602545E+00 +1.773818E+01 +3.852036E+02 +8.965485E+00 +4.602545E+00 +8.965485E+00 +9.652029E+02 
 +3.553982E+02 +1.746015E+01 -4.200062E-01 +1.746015E+01 +3.876206E+02 -2.727854E-01 -4.200062E-01 -2.727854E-01 +9.683742E+02 
 +3.588047E+02 +1.406259E+01 +8.482091E-01 +1.406259E+01 +3.939392E+02 -9.218345E+00 +8.482091E-01 -9.218345E+00 +9.589532E+02 
 +3.859371E+02 +8.485717E+00 +1.003013E+01 +8.485717E+00 +4.102339E+02 -6.403273E+00 +1.003013E+01 -6.403273E+00 +9.628531E+02 
 +4.130584E+02 +7.026430E+00 +1.376142E+01 +7.026430E+00 +4.087901E+02 +1.653151E+00 +1.376142E+01 +1.653151E+00 +9.605448E+02 
 +4.376138E+02 -9.875012E+00 +7.404902E+00 -9.875012E+00 +3.811141E+02 +1.403799E+01 +7.404902E+00 +1.403799E+01 +9.406340E+02 
 +3.824756E+02 -1.778869E+01 +2.184841E-01 -1.778869E+01 +3.872731E+02 +2.507745E+01 +2.184841E-01 +2.507745E+01 +9.211867E+02 
 +3.643781E+02 -8.447412E+00 -4.506445E+00 -8.447412E+00 +3.968152E+02 +2.019817E+01 -4.506445E+00 +2.019817E+01 +9.336884E+02 
 +3.661225E+02 -3.184930E+00 -2.651338E-01 -3.184930E+00 +4.043364E+02 +1.601500E+01 -2.651338E-01 +1.601500E+01 +9.522397E+02 
 +3.644236E+02 +5.453238E-01 -1.538073E+00 +5.453238E-01 +4.022135E+02 +1.300815E+01 -1.538073E+00 +1.300815E+01 +9.563006E+02 
 +3.290594E+02 +1.598155E+00 -6.852219E+00 +1.598155E+00 +3.677888E+02 +7.294628E+00 -6.852219E+00 +7.294628E+00 +9.369707E+02 
 +3.178859E+02 -9.860685E+00 -1.057926E+01 -9.860685E+00 +3.302588E+02 +2.487576E+00 -1.057926E+01 +2.487576E+00 +9.306855E+02 
 +3.428955E+02 -2.405819E+01 -9.528699E+00 -2.405819E+01 +3.361231E+02 -4.246030E+00 -9.528699E+00 -4.246030E+00 +9.390126E+02 
 +3.587376E+02 -2.160990E+01 -5.260005E+00 -2.160990E+01 +3.528314E+02 +7.767508E-02 -5.260005E+00 +7.767508E-02 +9.542277E+02 
 +3.835183E+02 -1.647332E+01 -6.619405E+00 -1.647332E+01 +3.830524E+02 +2.663980E+00 -6.619405E+00 +2.663980E+00 +9.614107E+02 
 +4.157252E+02 +5.306246E+00 +7.808349E+00 +5.306246E+00 +4.103938E+02 -4.654666E+00 +7.808349E+00 -4.654666E+00 +9.563407E+02 
 +3.881571E+02 +6.130798E+00 +2.144733E+01 +6.130798E+00 +3.839828E+02 -1.661558E+00 +2.144733E+01 -1.661558E+00 +9.549676E+02 
 +3.840658E+02 +2.900161E+00 +2.306584E+01 +2.900161E+00 +3.790835E+02 -3.371649E+00 +2.306584E+01 -3.371649E+00 +9.648336E+02 
 +3.831620E+02 +3.637875E+00 +1.861684E+01 +3.637875E+00 +3.779575E+02 -8.637809E+00 +1.861684E+01 -8.637809E+00 +9.657680E+02 
 +3.981138E+02 -1.204426E+01 +2.080162E+01 -1.204426E+01 +3.825246E+02 -1.296484E+01 +2.080162E+01 -1.296484E+01 +9.855312E+02 
 +3.924583E+02 -1.648103E+01 +2.149734E+01 -1.648103E+01 +3.627674E+02 -7.642742E+00 +2.149734E+01 -7.642742E+00 +9.753565E+02 
 +3.815925E+02 -1.015160E+01 +1.418095E+01 -1.015160E+01 +3.631006E+02 -2.217899E+00 +1.418095E+01 -2.217899E+00 +9.656654E+02 
 +3.572044E+02 +7.340030E+00 +8.806029E+00 +7.340030E+00 +3.825329E+02 +2.256773E+00 +8.806029E+00 +2.256773E+00 +9.669923E+02 
 +3.762597E+02 +1.162586E+01 +7.600974E+00 +1.162586E+01 +4.095252E+02 +1.133677E-01 +7.600974E+00 +1.133677E-01 +9.688224E+02 
 +3.667473E+02 +1.073025E+01 +7.728704E+00 +1.073025E+01 +4.069882E+02 -3.929167E+00 +7.728704E+00 -3.929167E+00 +9.635343E+02 
 +3.564674E+02 +6.239191E+00 +8.967653E+00 +6.239191E+00 +3.802055E+02 -4.893394E+00 +8.967653E+00 -4.893394E+00 +9.458711E+02 
 +4.051572E+02 -1.407428E+01 +7.908827E+00 -1.407428E+01 +3.851777E+02 +1.153691E+01 +7.908827E+00 +1.153691E+01 +9.341664E+02 
 +3.785629E+02 -7.045077E+00 -8.242287E+00 -7.045077E+00 +4.078745E+02 +2.038726E+01 -8.242287E+00 +2.038726E+01 +9.123078E+02 
 +3.708324E+02 +3.168567E+00 -9.468809E+00 +3.168567E+00 +4.012196E+02 +1.755478E+01 -9.468809E+00 +1.755478E+01 +9.027785E+02 
 +3.728058E+02 +8.160624E+00 -6.555323E+00 +8.160624E+00 +4.002693E+02 +1.010193E+01 -6.555323E+00 +1.010193E+01 +9.207333E+02 
 +3.690375E+02 +1.255634E+01 -3.473484E+00 +1.255634E+01 +3.964103E+02 +3.918998E+00 -3.473484E+00 +3.918998E+00 +9.285250E+02 
 +3.364107E+02 +1.072702E+01 -4.531010E+00 +1.072702E+01 +3.613590E+02 -1.764020E+00 -4.531010E+00 -1.764020E+00 +9.165350E+02 
 +3.113745E+02 +2.544861E+00 -3.229755E+00 +2.544861E+00 +3.345656E+02 +4.591067E+00 -3.229755E+00 +4.591067E+00 +9.193949E+02 
 +3.639114E+02 +8.862729E-01 -1.046960E+01 +8.862729E-01 +3.621837E+02 +2.615164E+00 -1.046960E+01 +2.615164E+00 +9.424102E+02 
 +3.767371E+02 -1.098040E+00 +6.048094E+00 -1.098040E+00 +3.700342E+02 +8.689470E-01 +6.048094E+00 +8.689470E-01 +9.459381E+02 
 +3.809607E+02 +1.013384E+01 -6.584472E+00 +1.013384E+01 +3.808076E+02 +5.440635E+00 -6.584472E+00 +5.440635E+00 +9.318825E+02 
 +3.950246E+02 +1.020068E+01 +1.653903E+00 +1.020068E+01 +4.080179E+02 +1.608730E+00 +1.653903E+00 +1.608730E+00 +9.209296E+02 
 +3.916564E+02 +2.325949E-01 +1.014971E+01 +2.325949E-01 +4.106113E+02 -2.241854E+00 +1.014971E+01 -2.241854E+00 +9.272733E+02 
 +3.865957E+02 +1.235347E+00 +1.212027E+01 +1.235347E+00 +4.087247E+02 -7.811106E+00 +1.212027E+01 -7.811106E+00 +9.410680E+02 
 +3.896139E+02 -3.744141E+00 +1.073204E+01 -3.744141E+00 +4.045010E+02 -1.015112E+01 +1.073204E+01 -1.015112E+01 +9.663290E+02 
 +3.827590E+02 -1.642017E+01 +1.904461E+01 -1.642017E+01 +3.715406E+02 -7.219194E+00 +1.904461E+01 -7.219194E+00 +9.787274E+02 
 +3.849422E+02 -1.721962E+01 +1.865580E+01 -1.721962E+01 +3.574949E+02 -3.536360E+00 +1.865580E+01 -3.536360E+00 +9.751543E+02 
 +3.852952E+02 -1.922806E+01 +1.946237E+01 -1.922806E+01 +3.540271E+02 -4.968311E+00 +1.946237E+01 -4.968311E+00 +9.696603E+02 
 +3.574141E+02 -1.932198E+01 +1.553868E+01 -1.932198E+01 +3.334190E+02 -3.687352E+00 +1.553868E+01 -3.687352E+00 +9.551239E+02 
 +3.464745E+02 -2.170531E+01 +1.627176E+01 -2.170531E+01 +3.334648E+02 +7.154561E-01 +1.627176E+01 +7.154561E-01 +9.513938E+02 
 +3.276824E+02 -2.394129E+01 +1.080487E+01 -2.394129E+01 +3.304847E+02 -1.108380E+00 +1.080487E+01 -1.108380E+00 +9.491568E+02 
 +3.197630E+02 -2.600461E+01 +2.568676E+00 -2.600461E+01 +3.244311E+02 -6.456125E+00 +2.568676E+00 -6.456125E+00 +9.310077E+02 
 +3.398549E+02 -1.598131E+01 +2.479016E+00 -1.598131E+01 +3.588468E+02 +4.984441E+00 +2.479016E+00 +4.984441E+00 +9.144331E+02 
 +3.907797E+02 -4.459912E+00 -1.267917E+01 -4.459912E+00 +4.083619E+02 +1.975622E+01 -1.267917E+01 +1.975622E+01 +9.185627E+02 
 +3.881160E+02 +2.510203E+00 -1.455881E+01 +2.510203E+00 +4.024526E+02 +1.772016E+01 -1.455881E+01 +1.772016E+01 +9.075376E+02 
 +3.857011E+02 +1.538621E+01 -7.787511E+00 +1.538621E+01 +3.958830E+02 +6.824492E+00 -7.787511E+00 +6.824492E+00 +9.101477E+02 
 +3.744687E+02 +1.504680E+01 -3.987009E+00 +1.504680E+01 +3.837410E+02 +7.756345E-01 -3.987009E+00 +7.756345E-01 +9.160900E+02 
 +3.296444E+02 +2.120990E+00 -4.753225E+00 +2.120990E+00 +3.486534E+02 +2.727939E-01 -4.753225E+00 +2.727939E-01 +9.172347E+02 
 +3.182624E+02 -3.316438E+00 +2.507917E+00 -3.316438E+00 +3.392905E+02 -3.420045E-01 +2.507917E+00 -3.420045E-01 +9.239308E+02 
 +3.737955E+02 -3.364705E+00 -1.209726E+01 -3.364705E+00 +3.693783E+02 +3.156866E+00 -1.209726E+01 +3.156866E+00 +9.366474E+02 
 +3.838648E+02 -5.049455E+00 -3.307041E-01 -5.049455E+00 +3.776039E+02 +4.875069E+00 -3.307041E-01 +4.875069E+00 +9.290770E+02 
 +3.682987E+02 +7.052458E+00 -3.543557E+00 +7.052458E+00 +3.662733E+02 +3.529904E+00 -3.543557E+00 +3.529904E+00 +9.186268E+02 
 +3.459512E+02 +1.997421E+01 +3.966837E+00 +1.997421E+01 +3.577289E+02 +2.751641E+00 +3.966837E+00 +2.751641E+00 +9.105829E+02 
 +3.776861E+02 +4.453920E+00 +2.938942E+00 +4.453920E+00 +4.041041E+02 -7.614490E-01 +2.938942E+00 -7.614490E-01 +9.294743E+02 
 +3.839011E+02 -1.213416E+00 +3.515309E+00 -1.213416E+00 +4.057081E+02 -7.558925E+00 +3.515309E+00 -7.558925E+00 +9.516473E+02 
 +3.759944E+02 -1.034928E+01 +1.227648E+01 -1.034928E+01 +3.700137E+02 -1.036791E+01 +1.227648E+01 -1.036791E+01 +9.785551E+02 
 +3.704804E+02 -1.677012E+01 +1.940809E+01 -1.677012E+01 +3.548620E+02 -7.509458E+00 +1.940809E+01 -7.509458E+00 +9.817566E+02 
 +3.730738E+02 -1.316117E+01 +2.040595E+01 -1.316117E+01 +3.558904E+02 -5.265840E+00 +2.040595E+01 -5.265840E+00 +9.735811E+02 
 +3.650578E+02 -1.177619E+01 +2.251986E+01 -1.177619E+01 +3.475150E+02 -4.459039E+00 +2.251986E+01 -4.459039E+00 +9.686568E+02 
 +3.570842E+02 -1.185145E+01 +2.249831E+01 -1.185145E+01 +3.342297E+02 -5.023307E+00 +2.249831E+01 -5.023307E+00 +9.599423E+02 
 +3.503369E+02 -1.383548E+01 +2.155059E+01 -1.383548E+01 +3.322042E+02 -3.733795E+00 +2.155059E+01 -3.733795E+00 +9.581166E+02 
 +3.252024E+02 -2.468880E+01 +1.250109E+01 -2.468880E+01 +3.287734E+02 +2.014527E+00 +1.250109E+01 +2.014527E+00 +9.492435E+02 
 +3.354996E+02 -2.791626E+01 +2.573977E+00 -2.791626E+01 +3.495910E+02 +9.652464E+00 +2.573977E+00 +9.652464E+00 +9.361353E+02 
 +3.385518E+02 -9.504733E+00 +3.922707E+00 -9.504733E+00 +3.711119E+02 +1.459449E+01 +3.922707E+00 +1.459449E+01 +9.157735E+02 
 +4.026946E+02 +2.766299E+00 -7.319574E+00 +2.766299E+00 +4.067868E+02 +9.439824E+00 -7.319574E+00 +9.439824E+00 +9.376420E+02 
 +4.052389E+02 +5.155714E+00 -1.255809E+01 +5.155714E+00 +3.989727E+02 +4.540139E+00 -1.255809E+01 +4.540139E+00 +9.271717E+02 
 +3.955912E+02 +9.898128E+00 -4.647530E+00 +9.898128E+00 +3.840057E+02 +3.027579E+00 -4.647530E+00 +3.027579E+00 +9.233302E+02 
 +3.807967E+02 +1.012627E+01 -8.495215E+00 +1.012627E+01 +3.689524E+02 -2.386884E+00 -8.495215E+00 -2.386884E+00 +9.299419E+02 
 +3.252244E+02 +4.193742E+00 -7.635644E+00 +4.193742E+00 +3.484694E+02 -3.967344E+00 -7.635644E+00 -3.967344E+00 +9.296256E+02 
 +3.268788E+02 -1.242034E+00 +1.254004E+00 -1.242034E+00 +3.523239E+02 -4.151268E-01 +1.254004E+00 -4.151268E-01 +9.329200E+02 
 +3.803120E+02 -4.724040E+00 -1.201770E+01 -4.724040E+00 +3.750726E+02 +3.677636E+00 -1.201770E+01 +3.677636E+00 +9.354665E+02 
 +3.827614E+02 -4.976150E+00 -9.078097E+00 -4.976150E+00 +3.725904E+02 +8.642818E+00 -9.078097E+00 +8.642818E+00 +9.219862E+02 
 +3.684010E+02 +3.931044E-01 -4.482155E+00 +3.931044E-01 +3.652183E+02 +6.246307E+00 -4.482155E+00 +6.246307E+00 +9.252093E+02 
 +3.368115E+02 +1.802433E+01 +2.767275E+00 +1.802433E+01 +3.430575E+02 -7.403632E-01 +2.767275E+00 -7.403632E-01 +9.236769E+02 
 +3.417364E+02 +1.535599E+01 +1.972295E+00 +1.535599E+01 +3.481498E+02 -2.990203E+00 +1.972295E+00 -2.990203E+00 +9.361011E+02 
 +3.680208E+02 -8.201916E+00 +3.006547E+00 -8.201916E+00 +3.617846E+02 -7.014715E+00 +3.006547E+00 -7.014715E+00 +9.700943E+02 
 +3.648422E+02 -1.181809E+01 +1.331074E+01 -1.181809E+01 +3.505091E+02 -6.943437E+00 +1.331074E+01 -6.943437E+00 +9.810339E+02 
 +3.659503E+02 -1.107633E+01 +1.608782E+01 -1.107633E+01 +3.560181E+02 -6.307241E+00 +1.608782E+01 -6.307241E+00 +9.770849E+02 
 +3.638644E+02 -1.064753E+01 +1.940365E+01 -1.064753E+01 +3.551425E+02 -5.924045E+00 +1.940365E+01 -5.924045E+00 +9.695758E+02 
 +3.627279E+02 -8.657673E+00 +2.141682E+01 -8.657673E+00 +3.498069E+02 -6.348551E+00 +2.141682E+01 -6.348551E+00 +9.677689E+02 
 +3.489659E+02 -8.914668E+00 +2.100758E+01 -8.914668E+00 +3.341826E+02 -7.802825E+00 +2.100758E+01 -7.802825E+00 +9.576254E+02 
 +3.476081E+02 +4.821205E-01 +1.533842E+01 +4.821205E-01 +3.387394E+02 -4.690722E+00 +1.533842E+01 -4.690722E+00 +9.568325E+02 
 +3.462705E+02 -7.296751E+00 +5.618565E+00 -7.296751E+00 +3.631352E+02 +5.173899E+00 +5.618565E+00 +5.173899E+00 +9.584225E+02 
 +3.494037E+02 -3.805986E+00 +1.340728E+00 -3.805986E+00 +3.877293E+02 +1.456517E+01 +1.340728E+00 +1.456517E+01 +9.506224E+02 
 +3.544436E+02 +4.720342E+00 +8.243536E+00 +4.720342E+00 +3.942224E+02 +1.475223E+01 +8.243536E+00 +1.475223E+01 +9.374205E+02 
 +4.054962E+02 +7.063045E+00 -2.988190E+00 +7.063045E+00 +4.051394E+02 +4.921339E+00 -2.988190E+00 +4.921339E+00 +9.524757E+02 
 +4.031052E+02 +1.059887E+01 -8.406594E+00 +1.059887E+01 +3.913356E+02 +6.170204E-01 -8.406594E+00 +6.170204E-01 +9.299299E+02 
 +4.011899E+02 +9.992567E+00 -5.768513E+00 +9.992567E+00 +3.889705E+02 -4.630296E+00 -5.768513E+00 -4.630296E+00 +9.298461E+02 
 +3.991374E+02 +8.822277E+00 -8.313600E+00 +8.822277E+00 +3.900035E+02 -5.809952E+00 -8.313600E+00 -5.809952E+00 +9.403629E+02 
 +3.411975E+02 +4.079314E+00 -8.119529E+00 +4.079314E+00 +3.616788E+02 +5.570914E-02 -8.119529E+00 +5.570914E-02 +9.312609E+02 
 +3.379585E+02 +2.124039E+00 +5.041348E+00 +2.124039E+00 +3.641933E+02 +1.008415E+01 +5.041348E+00 +1.008415E+01 +9.329774E+02 
 +3.784441E+02 -4.828696E-01 -1.630563E+01 -4.828696E-01 +3.788288E+02 +1.309259E+01 -1.630563E+01 +1.309259E+01 +9.350705E+02 
 +3.729457E+02 -3.498951E+00 -4.869247E+00 -3.498951E+00 +3.729007E+02 +1.421662E+01 -4.869247E+00 +1.421662E+01 +9.271451E+02 
 +3.650647E+02 -5.696839E+00 -1.004326E+01 -5.696839E+00 +3.673877E+02 +9.057226E+00 -1.004326E+01 +9.057226E+00 +9.280401E+02 
 +3.359322E+02 +1.046214E+01 -3.380600E+00 +1.046214E+01 +3.411451E+02 -2.500760E-01 -3.380600E+00 -2.500760E-01 +9.244081E+02 
 +3.399349E+02 +1.136752E+01 -1.001319E+00 +1.136752E+01 +3.392656E+02 -3.408286E+00 -1.001319E+00 -3.408286E+00 +9.395472E+02 
 +3.645884E+02 -1.547294E+01 +3.084607E+00 -1.547294E+01 +3.487620E+02 -7.477452E+00 +3.084607E+00 -7.477452E+00 +9.600832E+02 
 +3.610258E+02 -8.405585E+00 +7.027649E+00 -8.405585E+00 +3.499280E+02 -5.832900E+00 +7.027649E+00 -5.832900E+00 +9.642816E+02 
 +3.598591E+02 -6.790189E+00 +1.065737E+01 -6.790189E+00 +3.560344E+02 -7.186733E+00 +1.065737E+01 -7.186733E+00 +9.646407E+02 
 +3.584032E+02 -8.683279E+00 +1.483288E+01 -8.683279E+00 +3.572627E+02 -7.518703E+00 +1.483288E+01 -7.518703E+00 +9.642457E+02 
 +3.523038E+02 -1.013808E+01 +1.486566E+01 -1.013808E+01 +3.441866E+02 -8.955310E+00 +1.486566E+01 -8.955310E+00 +9.582993E+02 
 +3.572438E+02 -5.055241E+00 +1.212105E+01 -5.055241E+00 +3.475462E+02 -1.017395E+01 +1.212105E+01 -1.017395E+01 +9.601548E+02 
 +3.585780E+02 +9.250364E+00 +3.827782E+00 +9.250364E+00 +3.595677E+02 -4.248221E+00 +3.827782E+00 -4.248221E+00 +9.672683E+02 
 +3.526846E+02 +3.670486E+00 -3.441622E+00 +3.670486E+00 +3.634922E+02 +5.224747E+00 -3.441622E+00 +5.224747E+00 +9.687394E+02 
 +3.482277E+02 +6.164143E+00 +1.800761E-01 +6.164143E+00 +3.754279E+02 +8.876265E+00 +1.800761E-01 +8.876265E+00 +9.666157E+02 
 +3.516887E+02 +1.286953E+01 +1.346687E+01 +1.286953E+01 +3.852934E+02 +7.026948E+00 +1.346687E+01 +7.026948E+00 +9.574353E+02 
 +3.915219E+02 +6.560919E+00 -1.157136E+01 +6.560919E+00 +3.895133E+02 -4.718269E-01 -1.157136E+01 -4.718269E-01 +9.475289E+02 
 +3.985276E+02 +1.240108E+01 -7.775892E+00 +1.240108E+01 +3.923390E+02 -1.383192E+00 -7.775892E+00 -1.383192E+00 +9.341460E+02 
 +3.985678E+02 +1.238201E+01 -7.882440E+00 +1.238201E+01 +3.915156E+02 -3.557417E+00 -7.882440E+00 -3.557417E+00 +9.316702E+02 
 +3.920791E+02 +1.174903E+01 -6.945534E+00 +1.174903E+01 +3.895433E+02 -8.211100E+00 -6.945534E+00 -8.211100E+00 +9.367805E+02 
 +3.726856E+02 +1.250201E+01 -7.414357E+00 +1.250201E+01 +3.833502E+02 -1.496144E+01 -7.414357E+00 -1.496144E+01 +9.356355E+02 
 +3.605840E+02 +1.018562E+01 +1.281478E+01 +1.018562E+01 +3.789077E+02 -9.214784E+00 +1.281478E+01 -9.214784E+00 +9.317588E+02 
 +3.554891E+02 +8.999099E-01 -1.670659E+01 +8.999099E-01 +3.699569E+02 +9.046231E+00 -1.670659E+01 +9.046231E+00 +9.311241E+02 
 +3.377048E+02 +2.174410E-01 -4.959084E+00 +2.174410E-01 +3.595094E+02 +1.411114E+01 -4.959084E+00 +1.411114E+01 +9.246956E+02 
 +3.571172E+02 -1.178463E+01 -7.557775E+00 -1.178463E+01 +3.682263E+02 +1.037765E+01 -7.557775E+00 +1.037765E+01 +9.426985E+02 
 +3.439109E+02 +3.301498E+00 +2.090057E+00 +3.301498E+00 +3.403803E+02 +6.711816E+00 +2.090057E+00 +6.711816E+00 +9.339015E+02 
 +3.515257E+02 +8.956257E+00 +1.664862E+00 +8.956257E+00 +3.366562E+02 -2.818095E+00 +1.664862E+00 -2.818095E+00 +9.330020E+02 
 +3.634522E+02 -9.441577E+00 +2.656696E+00 -9.441577E+00 +3.487047E+02 -7.534332E+00 +2.656696E+00 -7.534332E+00 +9.466169E+02 
 +3.580641E+02 -6.784661E+00 +3.705090E+00 -6.784661E+00 +3.485684E+02 -4.024712E+00 +3.705090E+00 -4.024712E+00 +9.475711E+02 
 +3.610502E+02 -5.981758E+00 +4.826282E+00 -5.981758E+00 +3.548518E+02 -4.179503E+00 +4.826282E+00 -4.179503E+00 +9.529470E+02 
 +3.629520E+02 -4.324667E+00 +8.080420E+00 -4.324667E+00 +3.593921E+02 -5.937518E+00 +8.080420E+00 -5.937518E+00 +9.567233E+02 
 +3.602419E+02 -4.903096E+00 +6.204872E+00 -4.903096E+00 +3.584199E+02 -7.471121E+00 +6.204872E+00 -7.471121E+00 +9.578317E+02 
 +3.617131E+02 +1.122389E+01 +5.915272E+00 +1.122389E+01 +3.714589E+02 -7.851557E+00 +5.915272E+00 -7.851557E+00 +9.665977E+02 
 +3.633660E+02 +1.386299E+01 +2.978978E+00 +1.386299E+01 +3.757525E+02 -5.595165E+00 +2.978978E+00 -5.595165E+00 +9.780426E+02 
 +3.501001E+02 +8.936165E+00 +3.229464E+00 +8.936165E+00 +3.563891E+02 +4.542126E+00 +3.229464E+00 +4.542126E+00 +9.767712E+02 
 +3.449736E+02 +8.806606E+00 +7.054419E-01 +8.806606E+00 +3.550232E+02 +6.575779E+00 +7.054419E-01 +6.575779E+00 +9.706796E+02 
 +3.627566E+02 +1.450457E+01 +6.532157E+00 +1.450457E+01 +3.704871E+02 -1.899406E+00 +6.532157E+00 -1.899406E+00 +9.585849E+02 
 +3.879029E+02 +8.339910E+00 -1.168319E+01 +8.339910E+00 +3.826293E+02 -1.865079E+00 -1.168319E+01 -1.865079E+00 +9.435748E+02 
 +3.941732E+02 +1.007114E+01 -9.293158E+00 +1.007114E+01 +3.891143E+02 -4.269669E+00 -9.293158E+00 -4.269669E+00 +9.358869E+02 
 +3.964460E+02 +1.098447E+01 -8.117768E+00 +1.098447E+01 +3.883300E+02 -5.023229E+00 -8.117768E+00 -5.023229E+00 +9.348933E+02 
 +3.978083E+02 +1.351056E+01 -1.018428E+01 +1.351056E+01 +3.883403E+02 -4.713088E+00 -1.018428E+01 -4.713088E+00 +9.443187E+02 
 +3.922823E+02 +1.301021E+01 -1.195771E+01 +1.301021E+01 +3.848087E+02 -3.682849E+00 -1.195771E+01 -3.682849E+00 +9.492084E+02 
 +3.837091E+02 +1.071016E+01 +1.685187E+01 +1.071016E+01 +3.903777E+02 -2.790716E+00 +1.685187E+01 -2.790716E+00 +9.496191E+02 
 +3.801337E+02 +5.337105E+00 +1.283212E-01 +5.337105E+00 +4.031222E+02 +4.508971E+00 +1.283212E-01 +4.508971E+00 +9.596423E+02 
 +3.505478E+02 +1.498511E+01 -3.093627E+00 +1.498511E+01 +3.849540E+02 +1.115668E+01 -3.093627E+00 +1.115668E+01 +9.565086E+02 
 +3.590829E+02 +2.319724E+00 -3.765304E+00 +2.319724E+00 +3.814073E+02 +1.277701E+01 -3.765304E+00 +1.277701E+01 +9.644931E+02 
 +3.424572E+02 +6.671815E+00 -7.302706E-01 +6.671815E+00 +3.476618E+02 +1.210273E+01 -7.302706E-01 +1.210273E+01 +9.477206E+02 
 +3.118535E+02 +9.687906E+00 -8.107163E+00 +9.687906E+00 +3.061098E+02 +8.348911E+00 -8.107163E+00 +8.348911E+00 +9.234233E+02 
 +3.469655E+02 -1.077299E+01 -1.048211E+01 -1.077299E+01 +3.348708E+02 +2.766301E+00 -1.048211E+01 +2.766301E+00 +9.360530E+02 
 +3.536944E+02 -1.128906E+01 -6.679191E+00 -1.128906E+01 +3.510861E+02 +2.363849E+00 -6.679191E+00 +2.363849E+00 +9.362144E+02 
 +3.580683E+02 -1.191488E+01 -7.461183E+00 -1.191488E+01 +3.525823E+02 +1.265857E+00 -7.461183E+00 +1.265857E+00 +9.365003E+02 
 +3.724073E+02 -9.159676E+00 -2.422842E+00 -9.159676E+00 +3.621104E+02 -4.976533E+00 -2.422842E+00 -4.976533E+00 +9.478058E+02 
 +3.819252E+02 -4.937511E+00 -3.084003E+00 -4.937511E+00 +3.817241E+02 -8.641010E+00 -3.084003E+00 -8.641010E+00 +9.565766E+02 
 +3.671352E+02 +1.405895E+01 +2.960393E+00 +1.405895E+01 +3.834277E+02 -8.162372E+00 +2.960393E+00 -8.162372E+00 +9.572256E+02 
 +3.570868E+02 +1.355759E+01 +4.108441E-01 +1.355759E+01 +3.736458E+02 -6.533993E+00 +4.108441E-01 -6.533993E+00 +9.657927E+02 
 +3.570442E+02 +9.339503E+00 +6.706473E+00 +9.339503E+00 +3.701508E+02 -1.358833E+00 +6.706473E+00 -1.358833E+00 +9.770410E+02 
 +3.529006E+02 +9.625488E+00 +4.290934E+00 +9.625488E+00 +3.655545E+02 -7.434443E-01 +4.290934E+00 -7.434443E-01 +9.740920E+02 
 +3.581693E+02 +1.722316E+01 +1.033723E+01 +1.722316E+01 +3.647739E+02 -3.744310E+00 +1.033723E+01 -3.744310E+00 +9.527743E+02 
 +3.840615E+02 +5.953462E+00 -1.265043E+01 +5.953462E+00 +3.797141E+02 -4.688556E+00 -1.265043E+01 -4.688556E+00 +9.437084E+02 
 +3.906448E+02 +5.917485E+00 -9.026618E+00 +5.917485E+00 +3.842568E+02 -9.408207E+00 -9.026618E+00 -9.408207E+00 +9.372125E+02 
 +3.971675E+02 +5.525785E+00 -7.972125E+00 +5.525785E+00 +3.846861E+02 -7.984692E+00 -7.972125E+00 -7.984692E+00 +9.399908E+02 
 +4.012881E+02 +6.822469E+00 -8.715983E+00 +6.822469E+00 +3.819636E+02 -5.400162E+00 -8.715983E+00 -5.400162E+00 +9.462637E+02 
 +4.050795E+02 +9.300762E+00 -6.953972E+00 +9.300762E+00 +3.900138E+02 -2.512600E+00 -6.953972E+00 -2.512600E+00 +9.614567E+02 
 +3.919901E+02 +3.369077E+00 +1.904154E+01 +3.369077E+00 +3.845601E+02 -1.065726E+00 +1.904154E+01 -1.065726E+00 +9.723484E+02 
 +3.654215E+02 -1.306988E+01 +7.600161E+00 -1.306988E+01 +3.646647E+02 -2.466770E+00 +7.600161E+00 -2.466770E+00 +9.676681E+02 
 +3.438547E+02 -1.211111E+01 +1.199059E+00 -1.211111E+01 +3.535006E+02 -6.628135E+00 +1.199059E+00 -6.628135E+00 +9.654080E+02 
 +3.385041E+02 -2.256016E+01 -1.371992E+00 -2.256016E+01 +3.457475E+02 -9.808832E+00 -1.371992E+00 -9.808832E+00 +9.659688E+02 
 +3.263865E+02 -1.403591E+01 -8.934253E+00 -1.403591E+01 +3.434336E+02 -7.700401E+00 -8.934253E+00 -7.700401E+00 +9.549598E+02 
 +3.013402E+02 -2.216713E+00 -1.322364E+01 -2.216713E+00 +3.277282E+02 -6.124882E+00 -1.322364E+01 -6.124882E+00 +9.342382E+02 
 +3.554148E+02 -3.344705E+00 -2.425865E+01 -3.344705E+00 +3.495150E+02 -5.427749E+00 -2.425865E+01 -5.427749E+00 +9.396242E+02 
 +3.747453E+02 +2.338364E+00 -1.483582E+01 +2.338364E+00 +3.779629E+02 -5.725751E+00 -1.483582E+01 -5.725751E+00 +9.379978E+02 
 +3.836494E+02 +1.002021E+00 -1.930513E+01 +1.002021E+00 +3.960847E+02 -6.085030E+00 -1.930513E+01 -6.085030E+00 +9.413349E+02 
 +3.935618E+02 +3.971342E+00 -1.460991E+01 +3.971342E+00 +3.995824E+02 -9.879159E+00 -1.460991E+01 -9.879159E+00 +9.431874E+02 
 +3.970781E+02 +7.150386E+00 -1.106695E+01 +7.150386E+00 +4.035389E+02 -4.787550E+00 -1.106695E+01 -4.787550E+00 +9.426487E+02 
 +3.727790E+02 +1.538369E+01 -5.208005E+00 +1.538369E+01 +3.881172E+02 -7.602698E+00 -5.208005E+00 -7.602698E+00 +9.423444E+02 
 +3.595163E+02 +1.551253E+01 +3.252281E+00 +1.551253E+01 +3.794762E+02 -9.208936E+00 +3.252281E+00 -9.208936E+00 +9.564217E+02 
 +3.538851E+02 +1.208613E+01 +3.369499E+00 +1.208613E+01 +3.714882E+02 -5.060667E-01 +3.369499E+00 -5.060667E-01 +9.663028E+02 
 +3.246463E+02 +1.075851E+01 -1.149909E+00 +1.075851E+01 +3.380586E+02 +3.319482E+00 -1.149909E+00 +3.319482E+00 +9.501575E+02 
 +3.402762E+02 +1.680624E+01 +5.876022E+00 +1.680624E+01 +3.450786E+02 -2.298243E-01 +5.876022E+00 -2.298243E-01 +9.401648E+02 
 +3.858104E+02 +1.245197E+00 -8.512759E+00 +1.245197E+00 +3.761073E+02 -7.781248E+00 -8.512759E+00 -7.781248E+00 +9.411369E+02 
 +3.934624E+02 -3.571099E-01 -6.027013E+00 -3.571099E-01 +3.820270E+02 -1.149403E+01 -6.027013E+00 -1.149403E+01 +9.362144E+02 
 +3.976265E+02 +1.293106E+00 -6.711346E+00 +1.293106E+00 +3.805007E+02 -7.535149E+00 -6.711346E+00 -7.535149E+00 +9.406688E+02 
 +3.979902E+02 +2.505584E+00 -1.041301E+01 +2.505584E+00 +3.801812E+02 -3.318490E+00 -1.041301E+01 -3.318490E+00 +9.387062E+02 
 +3.891438E+02 -1.134289E+00 -3.590770E+00 -1.134289E+00 +3.630055E+02 -6.697082E-01 -3.590770E+00 -6.697082E-01 +9.380803E+02 
 +3.718350E+02 -7.771085E+00 +1.833797E+01 -7.771085E+00 +3.473552E+02 -5.427743E+00 +1.833797E+01 -5.427743E+00 +9.595981E+02 
 +3.629240E+02 -1.099632E+01 +1.241707E+01 -1.099632E+01 +3.582750E+02 -5.864437E+00 +1.241707E+01 -5.864437E+00 +9.785358E+02 
 +3.626054E+02 -1.096652E+01 +6.558709E+00 -1.096652E+01 +3.608894E+02 -8.369381E+00 +6.558709E+00 -8.369381E+00 +9.816496E+02 
 +3.524006E+02 -1.363746E+01 +6.986829E-01 -1.363746E+01 +3.601845E+02 -1.254962E+01 +6.986829E-01 -1.254962E+01 +9.786655E+02 
 +3.273542E+02 -3.948213E+00 -1.213073E+01 -3.948213E+00 +3.611486E+02 -1.269453E+01 -1.213073E+01 -1.269453E+01 +9.680974E+02 
 +3.065860E+02 -3.974617E+00 -1.104274E+01 -3.974617E+00 +3.416647E+02 -8.817118E+00 -1.104274E+01 -8.817118E+00 +9.472327E+02 
 +3.604309E+02 -3.752519E+00 -3.085182E+01 -3.752519E+00 +3.482002E+02 -6.976586E+00 -3.085182E+01 -6.976586E+00 +9.468492E+02 
 +3.758513E+02 +9.082999E+00 -1.340133E+01 +9.082999E+00 +3.556963E+02 -1.096798E+01 -1.340133E+01 -1.096798E+01 +9.438988E+02 
 +3.870220E+02 -2.274551E+00 -1.843136E+01 -2.274551E+00 +3.846711E+02 -7.256752E+00 -1.843136E+01 -7.256752E+00 +9.493821E+02 
 +3.905281E+02 -9.190972E-01 -1.803581E+01 -9.190972E-01 +3.930081E+02 -7.072757E+00 -1.803581E+01 -7.072757E+00 +9.381982E+02 
 +3.892534E+02 +6.359573E+00 -1.578601E+01 +6.359573E+00 +3.950152E+02 -7.609248E+00 -1.578601E+01 -7.609248E+00 +9.304676E+02 
 +3.836550E+02 +9.241964E+00 -1.609891E+01 +9.241964E+00 +3.978705E+02 -9.835935E+00 -1.609891E+01 -9.835935E+00 +9.435866E+02 
 +3.792706E+02 +1.598617E+01 +1.352197E+01 +1.598617E+01 +3.933892E+02 -1.025280E+01 +1.352197E+01 -1.025280E+01 +9.621339E+02 
 +3.484759E+02 +9.384509E+00 +6.144968E+00 +9.384509E+00 +3.792783E+02 -2.765247E+00 +6.144968E+00 -2.765247E+00 +9.695834E+02 
 +3.121719E+02 +1.050383E+00 +2.335896E+00 +1.050383E+00 +3.635365E+02 +4.713755E-01 +2.335896E+00 +4.713755E-01 +9.633166E+02 
 +3.318666E+02 +7.670747E+00 +6.415727E+00 +7.670747E+00 +3.573226E+02 -3.614629E+00 +6.415727E+00 -3.614629E+00 +9.458758E+02 
 +3.904596E+02 +2.123209E+00 -1.870157E+00 +2.123209E+00 +3.884828E+02 -6.651700E+00 -1.870157E+00 -6.651700E+00 +9.405295E+02 
 +3.989620E+02 -3.512412E+00 -1.494938E+00 -3.512412E+00 +3.777281E+02 -6.164175E+00 -1.494938E+00 -6.164175E+00 +9.274571E+02 
 +4.007651E+02 +1.521408E+00 -6.283171E+00 +1.521408E+00 +3.788709E+02 -1.220560E+00 -6.283171E+00 -1.220560E+00 +9.307993E+02 
 +3.919162E+02 +3.622880E+00 -1.263073E+01 +3.622880E+00 +3.726828E+02 +5.218034E-01 -1.263073E+01 +5.218034E-01 +9.261852E+02 
 +3.859356E+02 -5.343806E-01 -6.258834E+00 -5.343806E-01 +3.651887E+02 +1.242957E+00 -6.258834E+00 +1.242957E+00 +9.222348E+02 
 +3.954079E+02 +2.385579E+00 +7.559509E+00 +2.385579E+00 +3.809898E+02 -6.172404E+00 +7.559509E+00 -6.172404E+00 +9.570172E+02 
 +3.767713E+02 -5.572634E+00 +2.148495E+01 -5.572634E+00 +3.733294E+02 -5.467949E+00 +2.148495E+01 -5.467949E+00 +9.826511E+02 
 +3.762754E+02 -1.209333E+01 +1.207764E+01 -1.209333E+01 +3.699491E+02 -6.550226E+00 +1.207764E+01 -6.550226E+00 +9.918005E+02 
 +3.589505E+02 -1.200429E+01 +4.681819E+00 -1.200429E+01 +3.683991E+02 -8.510075E+00 +4.681819E+00 -8.510075E+00 +9.828975E+02 
 +3.189807E+02 -5.336377E+00 -1.320094E+01 -5.336377E+00 +3.535567E+02 -7.645352E+00 -1.320094E+01 -7.645352E+00 +9.677203E+02 
 +3.114055E+02 -6.235441E+00 -1.031025E+01 -6.235441E+00 +3.443846E+02 -2.621061E+00 -1.031025E+01 -2.621061E+00 +9.573032E+02 
 +3.669737E+02 -4.900951E+00 -3.402509E+01 -4.900951E+00 +3.601472E+02 +1.917304E+00 -3.402509E+01 +1.917304E+00 +9.571609E+02 
 +3.731017E+02 +1.329279E+01 -1.532929E+01 +1.329279E+01 +3.432937E+02 -2.049970E+00 -1.532929E+01 -2.049970E+00 +9.450065E+02 
 +3.685317E+02 +9.633272E+00 -1.550191E+01 +9.633272E+00 +3.378503E+02 -2.302639E+00 -1.550191E+01 -2.302639E+00 +9.402347E+02 
 +3.764803E+02 +5.442714E+00 -1.639517E+01 +5.442714E+00 +3.672057E+02 -5.501138E+00 -1.639517E+01 -5.501138E+00 +9.392106E+02 
 +3.832591E+02 +7.481542E+00 -1.635346E+01 +7.481542E+00 +3.859523E+02 -9.559576E+00 -1.635346E+01 -9.559576E+00 +9.378742E+02 
 +3.849924E+02 +6.538851E+00 -1.806426E+01 +6.538851E+00 +3.892970E+02 -3.521060E+00 -1.806426E+01 -3.521060E+00 +9.451120E+02 
 +3.791038E+02 +5.802248E+00 +1.875965E+01 +5.802248E+00 +3.967751E+02 -7.328062E+00 +1.875965E+01 -7.328062E+00 +9.574599E+02 
 +3.254183E+02 -6.459254E+00 +7.103687E+00 -6.459254E+00 +3.811958E+02 -1.221389E+01 +7.103687E+00 -1.221389E+01 +9.619834E+02 
 +3.226522E+02 -5.050060E+00 +8.351298E+00 -5.050060E+00 +3.892140E+02 -9.986655E+00 +8.351298E+00 -9.986655E+00 +9.739230E+02 
 +3.347215E+02 +2.202209E+00 +6.788941E+00 +2.202209E+00 +3.846348E+02 -8.413335E+00 +6.788941E+00 -8.413335E+00 +9.530144E+02 
 +3.773505E+02 +1.025573E+01 +8.904214E+00 +1.025573E+01 +3.831834E+02 -8.165236E+00 +8.904214E+00 -8.165236E+00 +9.395927E+02 
 +3.958914E+02 +3.284885E+00 +5.066671E+00 +3.284885E+00 +3.802028E+02 +2.704891E+00 +5.066671E+00 +2.704891E+00 +9.320234E+02 
 +3.915550E+02 +4.427788E-01 -9.759773E+00 +4.427788E-01 +3.671683E+02 +8.027267E+00 -9.759773E+00 +8.027267E+00 +9.247496E+02 
 +3.870276E+02 -1.999736E-02 -1.923533E+01 -1.999736E-02 +3.548381E+02 +3.391009E+00 -1.923533E+01 +3.391009E+00 +9.105904E+02 
 +3.876676E+02 +1.427333E+00 -1.051530E+01 +1.427333E+00 +3.608424E+02 -1.050815E+00 -1.051530E+01 -1.050815E+00 +9.089787E+02 
 +3.981593E+02 +3.182643E+00 -2.730487E-01 +3.182643E+00 +3.797656E+02 -6.074046E+00 -2.730487E-01 -6.074046E+00 +9.430653E+02 
 +3.786527E+02 -8.548899E+00 +2.273271E+01 -8.548899E+00 +3.729117E+02 -5.321066E+00 +2.273271E+01 -5.321066E+00 +9.733685E+02 
 +3.801551E+02 -7.114662E+00 +1.299632E+01 -7.114662E+00 +3.777357E+02 -5.864798E+00 +1.299632E+01 -5.864798E+00 +9.917108E+02 
 +3.575607E+02 -6.305660E+00 +9.024248E+00 -6.305660E+00 +3.715494E+02 -6.767196E+00 +9.024248E+00 -6.767196E+00 +9.840429E+02 
 +3.176132E+02 -4.030724E+00 -6.085733E+00 -4.030724E+00 +3.472161E+02 -5.273264E+00 -6.085733E+00 -5.273264E+00 +9.692871E+02 
 +3.142679E+02 -8.012594E+00 -3.920947E+00 -8.012594E+00 +3.369948E+02 +1.974710E+00 -3.920947E+00 +1.974710E+00 +9.577841E+02 
 +3.710666E+02 -5.349169E+00 -2.859430E+01 -5.349169E+00 +3.616659E+02 +6.183418E+00 -2.859430E+01 +6.183418E+00 +9.570824E+02 
 +3.758367E+02 +9.252921E+00 -1.633407E+01 +9.252921E+00 +3.572716E+02 -2.127899E+00 -1.633407E+01 -2.127899E+00 +9.446784E+02 
 +3.743063E+02 +9.967418E+00 -1.717812E+01 +9.967418E+00 +3.597854E+02 -6.648357E+00 -1.717812E+01 -6.648357E+00 +9.408589E+02 
 +3.734313E+02 +5.490506E+00 -1.584013E+01 +5.490506E+00 +3.692797E+02 -7.872746E+00 -1.584013E+01 -7.872746E+00 +9.384675E+02 
 +3.718537E+02 +3.090716E+00 -1.468286E+01 +3.090716E+00 +3.727090E+02 -5.137137E+00 -1.468286E+01 -5.137137E+00 +9.338472E+02 
 +3.777011E+02 +3.406448E+00 -1.880873E+01 +3.406448E+00 +3.917379E+02 -2.811329E+00 -1.880873E+01 -2.811329E+00 +9.367800E+02 
 +3.610587E+02 +9.553399E-02 +7.633642E+00 +9.553399E-02 +3.965380E+02 -1.338068E+01 +7.633642E+00 -1.338068E+01 +9.401341E+02 
 +3.140989E+02 -6.070800E+00 +9.326063E+00 -6.070800E+00 +3.646959E+02 -2.314544E+01 +9.326063E+00 -2.314544E+01 +9.404437E+02 
 +3.221981E+02 +4.106920E+00 +1.237536E+01 +4.106920E+00 +3.642721E+02 -1.966635E+01 +1.237536E+01 -1.966635E+01 +9.472604E+02 
 +3.306773E+02 +8.508503E+00 +1.002762E+01 +8.508503E+00 +3.679489E+02 -1.686066E+01 +1.002762E+01 -1.686066E+01 +9.393218E+02 
 +3.628754E+02 +1.550786E+01 +5.747182E+00 +1.550786E+01 +3.593443E+02 -5.392661E+00 +5.747182E+00 -5.392661E+00 +9.484821E+02 
 +3.540168E+02 +1.379995E+01 -1.077754E+00 +1.379995E+01 +3.413520E+02 +1.184517E+01 -1.077754E+00 +1.184517E+01 +9.436219E+02 
 +3.448465E+02 +1.148656E+00 -1.705966E+01 +1.148656E+00 +3.288484E+02 +1.614526E+01 -1.705966E+01 +1.614526E+01 +9.276534E+02 
 +3.964284E+02 +3.493177E-01 -3.289495E+01 +3.493177E-01 +3.507669E+02 +8.586855E+00 -3.289495E+01 +8.586855E+00 +9.112134E+02 
 +3.989860E+02 +7.704166E+00 -2.022317E+01 +7.704166E+00 +3.683966E+02 -1.653894E+00 -2.022317E+01 -1.653894E+00 +9.054459E+02 
 +4.054682E+02 +1.658101E+00 -2.501886E+00 +1.658101E+00 +3.858580E+02 -4.097461E+00 -2.501886E+00 -4.097461E+00 +9.383841E+02 
 +3.855935E+02 -1.096232E+01 +1.840152E+01 -1.096232E+01 +3.719870E+02 -3.508810E+00 +1.840152E+01 -3.508810E+00 +9.634187E+02 
 +3.820853E+02 -2.356252E+00 +1.561885E+01 -2.356252E+00 +3.777979E+02 -6.882086E+00 +1.561885E+01 -6.882086E+00 +9.848562E+02 
 +3.639248E+02 -1.627520E+00 +1.495041E+01 -1.627520E+00 +3.758704E+02 -6.704405E+00 +1.495041E+01 -6.704405E+00 +9.865028E+02 
 +3.181745E+02 +8.605110E-02 -1.986401E-01 +8.605110E-02 +3.483541E+02 -7.144631E+00 -1.986401E-01 -7.144631E+00 +9.726841E+02 
 +3.155506E+02 -4.205484E+00 +1.484269E+00 -4.205484E+00 +3.400858E+02 -2.576302E+00 +1.484269E+00 -2.576302E+00 +9.610685E+02 
 +3.797013E+02 -2.187597E+00 -1.902535E+01 -2.187597E+00 +3.787572E+02 -2.418538E+00 -1.902535E+01 -2.418538E+00 +9.641251E+02 
 +3.785585E+02 +4.952001E+00 -1.568348E+01 +4.952001E+00 +3.857268E+02 -1.108637E+01 -1.568348E+01 -1.108637E+01 +9.506539E+02 
 +3.705200E+02 +9.275150E+00 -1.670379E+01 +9.275150E+00 +3.735859E+02 -1.145277E+01 -1.670379E+01 -1.145277E+01 +9.364586E+02 
 +3.688347E+02 +6.315352E+00 -1.389990E+01 +6.315352E+00 +3.671259E+02 -6.093082E+00 -1.389990E+01 -6.093082E+00 +9.277901E+02 
 +3.677815E+02 +4.994111E+00 -1.271607E+01 +4.994111E+00 +3.777026E+02 -4.157820E+00 -1.271607E+01 -4.157820E+00 +9.277769E+02 
 +3.591093E+02 +7.330440E+00 -1.643466E+01 +7.330440E+00 +3.752531E+02 +9.158843E-01 -1.643466E+01 +9.158843E-01 +9.166413E+02 
 +3.436598E+02 +6.308867E+00 -5.423288E+00 +6.308867E+00 +3.598797E+02 -1.525391E+00 -5.423288E+00 -1.525391E+00 +9.117749E+02 
 +3.181573E+02 -2.519616E-03 +8.077402E+00 -2.519616E-03 +3.472536E+02 -1.364994E+01 +8.077402E+00 -1.364994E+01 +9.251183E+02 
 +3.242312E+02 +1.099110E+01 +6.525968E+00 +1.099110E+01 +3.458000E+02 -1.832761E+01 +6.525968E+00 -1.832761E+01 +9.357255E+02 
 +3.509125E+02 +1.846232E+01 +2.472865E+00 +1.846232E+01 +3.614413E+02 -1.983142E+01 +2.472865E+00 -1.983142E+01 +9.474704E+02 
 +3.579818E+02 +2.296307E+00 -4.348098E+00 +2.296307E+00 +3.612922E+02 +6.599711E-01 -4.348098E+00 +6.599711E-01 +9.807985E+02 
 +3.546332E+02 +7.593074E+00 -6.198980E+00 +7.593074E+00 +3.606102E+02 +1.065910E+01 -6.198980E+00 +1.065910E+01 +9.864553E+02 
 +3.473854E+02 +6.519102E+00 -1.109743E+01 +6.519102E+00 +3.576762E+02 +1.018643E+01 -1.109743E+01 +1.018643E+01 +9.649061E+02 
 +3.994323E+02 +7.148000E+00 -2.792415E+01 +7.148000E+00 +3.685919E+02 +7.396722E+00 -2.792415E+01 +7.396722E+00 +9.329289E+02 
 +4.056205E+02 +1.394019E+01 -2.376712E+01 +1.394019E+01 +3.566202E+02 -7.519444E-01 -2.376712E+01 -7.519444E-01 +9.063816E+02 
 +3.826206E+02 +5.800974E-01 +4.707367E+00 +5.800974E-01 +3.456323E+02 -4.905934E-01 +4.707367E+00 -4.905934E-01 +9.182857E+02 
 +3.775335E+02 -1.181739E+01 +1.096527E+01 -1.181739E+01 +3.565456E+02 -1.834958E+00 +1.096527E+01 -1.834958E+00 +9.473064E+02 
 +3.833821E+02 -5.321126E+00 +1.248593E+01 -5.321126E+00 +3.697801E+02 -6.140380E+00 +1.248593E+01 -6.140380E+00 +9.713525E+02 
 +3.834356E+02 -1.063095E+00 +1.645193E+01 -1.063095E+00 +3.726143E+02 -9.567577E+00 +1.645193E+01 -9.567577E+00 +9.880655E+02 
 +3.334525E+02 +8.654558E+00 +5.469157E+00 +8.654558E+00 +3.584119E+02 -1.462984E+01 +5.469157E+00 -1.462984E+01 +9.810487E+02 
 +3.024401E+02 -4.159896E-01 +8.868777E+00 -4.159896E-01 +3.405650E+02 -1.071816E+01 +8.868777E+00 -1.071816E+01 +9.577186E+02 
 +3.619783E+02 +7.597573E+00 -1.685360E+01 +7.597573E+00 +3.709054E+02 -1.271085E+01 -1.685360E+01 -1.271085E+01 +9.612232E+02 
 +3.642107E+02 +8.301506E+00 -1.840643E+01 +8.301506E+00 +3.756726E+02 -2.014969E+01 -1.840643E+01 -2.014969E+01 +9.520999E+02 
 +3.663726E+02 +1.144251E+01 -1.480338E+01 +1.144251E+01 +3.726392E+02 -1.717083E+01 -1.480338E+01 -1.717083E+01 +9.438199E+02 
 +3.667461E+02 +1.261509E+01 -1.156732E+01 +1.261509E+01 +3.756657E+02 -1.098541E+01 -1.156732E+01 -1.098541E+01 +9.292030E+02 
 +3.573496E+02 +1.058083E+01 -1.240060E+01 +1.058083E+01 +3.728906E+02 -8.289507E+00 -1.240060E+01 -8.289507E+00 +9.147997E+02 
 +3.439614E+02 +5.061828E+00 -1.703600E+01 +5.061828E+00 +3.522557E+02 -3.787735E+00 -1.703600E+01 -3.787735E+00 +8.926874E+02 
 +3.291032E+02 +2.595262E+00 -1.678848E+01 +2.595262E+00 +3.312836E+02 -5.907456E+00 -1.678848E+01 -5.907456E+00 +8.863819E+02 
 +3.286230E+02 -2.770174E+00 -5.729847E+00 -2.770174E+00 +3.369584E+02 -1.914649E+01 -5.729847E+00 -1.914649E+01 +9.169261E+02 
 +3.379517E+02 +4.903639E+00 -5.020482E+00 +4.903639E+00 +3.363372E+02 -1.971223E+01 -5.020482E+00 -1.971223E+01 +9.392308E+02 
 +3.697669E+02 +2.365090E+01 -1.464267E+01 +2.365090E+01 +3.553530E+02 -1.116331E+01 -1.464267E+01 -1.116331E+01 +9.676839E+02 
 +3.317129E+02 +2.749502E+00 +2.349291E+00 +2.749502E+00 +3.374876E+02 -6.490664E+00 +2.349291E+00 -6.490664E+00 +9.845745E+02 
 +3.448225E+02 +7.237600E+00 -1.301699E-01 +7.237600E+00 +3.516145E+02 +5.044470E+00 -1.301699E-01 +5.044470E+00 +9.940501E+02 
 +3.617132E+02 +1.034497E+01 +7.696793E+00 +1.034497E+01 +3.630614E+02 +7.743104E+00 +7.696793E+00 +7.743104E+00 +9.716377E+02 
 +3.735777E+02 +4.230830E+00 -1.578549E+00 +4.230830E+00 +3.697724E+02 +8.954532E+00 -1.578549E+00 +8.954532E+00 +9.335444E+02 
 +4.177569E+02 +8.460500E+00 -7.794153E+00 +8.460500E+00 +3.749544E+02 +7.195538E-01 -7.794153E+00 +7.195538E-01 +9.240549E+02 
 +3.920721E+02 -3.968273E+00 +1.452910E+01 -3.968273E+00 +3.516513E+02 -3.171904E+00 +1.452910E+01 -3.171904E+00 +9.290262E+02 
 +3.901914E+02 -3.475893E+00 +1.283599E+01 -3.475893E+00 +3.553833E+02 -6.446036E+00 +1.283599E+01 -6.446036E+00 +9.511811E+02 
 +3.744270E+02 +1.653832E+00 +1.521482E+01 +1.653832E+00 +3.510246E+02 -7.134531E+00 +1.521482E+01 -7.134531E+00 +9.584833E+02 
 +3.728910E+02 -3.638648E+00 +1.674499E+01 -3.638648E+00 +3.599689E+02 -1.177542E+01 +1.674499E+01 -1.177542E+01 +9.764207E+02 
 +3.381507E+02 -7.568050E+00 +9.016713E+00 -7.568050E+00 +3.505717E+02 -1.417144E+01 +9.016713E+00 -1.417144E+01 +9.741041E+02 
 +3.111999E+02 -1.360538E+01 +9.267542E+00 -1.360538E+01 +3.413926E+02 -1.293922E+01 +9.267542E+00 -1.293922E+01 +9.587132E+02 
 +3.491407E+02 +7.713465E+00 -1.541182E+01 +7.713465E+00 +3.657407E+02 -1.689670E+01 -1.541182E+01 -1.689670E+01 +9.680495E+02 
 +3.483092E+02 +6.731782E+00 -1.342242E+01 +6.731782E+00 +3.642875E+02 -1.838305E+01 -1.342242E+01 -1.838305E+01 +9.521694E+02 
 +3.507368E+02 +7.268954E+00 -1.180905E+01 +7.268954E+00 +3.626547E+02 -1.676818E+01 -1.180905E+01 -1.676818E+01 +9.314306E+02 
 +3.592819E+02 +1.419650E+01 -4.404855E+00 +1.419650E+01 +3.703690E+02 -1.373986E+01 -4.404855E+00 -1.373986E+01 +9.211377E+02 
 +3.533261E+02 +8.130914E+00 -9.754131E+00 +8.130914E+00 +3.635642E+02 -5.984614E+00 -9.754131E+00 -5.984614E+00 +9.103809E+02 
 +3.358292E+02 +5.739158E+00 -2.647406E+01 +5.739158E+00 +3.470696E+02 +8.956795E-01 -2.647406E+01 +8.956795E-01 +8.927730E+02 
 +3.415552E+02 +2.108985E+00 -2.562356E+01 +2.108985E+00 +3.506549E+02 -3.586000E+00 -2.562356E+01 -3.586000E+00 +8.990451E+02 
 +3.589960E+02 +1.308366E+00 -1.973636E+01 +1.308366E+00 +3.563769E+02 -1.513142E+01 -1.973636E+01 -1.513142E+01 +9.271462E+02 
 +3.605832E+02 -2.101110E+00 -6.955094E+00 -2.101110E+00 +3.514683E+02 -2.358904E+01 -6.955094E+00 -2.358904E+01 +9.452285E+02 
 +3.759948E+02 +2.126656E+01 -9.709334E+00 +2.126656E+01 +3.521642E+02 -1.856586E+01 -9.709334E+00 -1.856586E+01 +9.713069E+02 
 +3.361289E+02 +2.555254E+00 +6.859673E+00 +2.555254E+00 +3.385964E+02 -6.886441E+00 +6.859673E+00 -6.886441E+00 +9.731078E+02 
 +3.270687E+02 +4.131093E+00 +6.789066E+00 +4.131093E+00 +3.398366E+02 -4.605131E+00 +6.789066E+00 -4.605131E+00 +9.726433E+02 
 +3.713073E+02 +1.706510E+01 +1.814135E+01 +1.706510E+01 +3.639357E+02 -4.936432E+00 +1.814135E+01 -4.936432E+00 +9.546469E+02 
 +3.831815E+02 +1.477422E+01 +1.496134E+01 +1.477422E+01 +3.869532E+02 -1.001940E+01 +1.496134E+01 -1.001940E+01 +9.362886E+02 
 +4.319226E+02 +1.475409E+01 +1.600554E+01 +1.475409E+01 +4.015819E+02 -1.209578E+01 +1.600554E+01 -1.209578E+01 +9.544614E+02 
 +3.917367E+02 +9.243710E+00 +2.213700E+01 +9.243710E+00 +3.326812E+02 -7.361796E+00 +2.213700E+01 -7.361796E+00 +9.358496E+02 
 +3.720109E+02 +1.111383E+01 +2.126349E+01 +1.111383E+01 +3.177948E+02 -1.000951E+01 +2.126349E+01 -1.000951E+01 +9.411877E+02 
 +3.483280E+02 +2.705782E+00 +2.111534E+01 +2.705782E+00 +3.359933E+02 -1.109226E+01 +2.111534E+01 -1.109226E+01 +9.493531E+02 
 +3.453367E+02 -4.316233E+00 +1.374872E+01 -4.316233E+00 +3.510549E+02 -1.014897E+01 +1.374872E+01 -1.014897E+01 +9.575705E+02 
 +3.346551E+02 -4.262688E+00 +3.490416E+00 -4.262688E+00 +3.446970E+02 -9.771060E+00 +3.490416E+00 -9.771060E+00 +9.561380E+02 
 +3.292069E+02 -1.272296E+01 -2.386531E+00 -1.272296E+01 +3.546858E+02 -8.680976E+00 -2.386531E+00 -8.680976E+00 +9.603785E+02 
 +3.310807E+02 -9.642086E+00 -1.090223E+01 -9.642086E+00 +3.647993E+02 -1.633607E+00 -1.090223E+01 -1.633607E+00 +9.565201E+02 
 +3.417771E+02 -5.974225E+00 -8.120361E+00 -5.974225E+00 +3.665354E+02 +9.928731E+00 -8.120361E+00 +9.928731E+00 +9.298631E+02 
 +3.531719E+02 -1.202562E+00 -1.075252E+01 -1.202562E+00 +3.783520E+02 +9.983786E+00 -1.075252E+01 +9.983786E+00 +9.172206E+02 
 +3.526096E+02 +2.563209E+00 -6.476391E+00 +2.563209E+00 +3.620225E+02 +5.310641E+00 -6.476391E+00 +5.310641E+00 +9.164009E+02 
 +3.450340E+02 -3.844559E+00 -1.254208E+01 -3.844559E+00 +3.414548E+02 +4.500605E+00 -1.254208E+01 +4.500605E+00 +9.087287E+02 
 +3.538841E+02 +4.698505E+00 -2.927517E+01 +4.698505E+00 +3.633616E+02 +7.982696E+00 -2.927517E+01 +7.982696E+00 +9.111807E+02 
 +3.732863E+02 -2.120760E+00 -2.416779E+01 -2.120760E+00 +3.761402E+02 +2.436029E+00 -2.416779E+01 +2.436029E+00 +9.230827E+02 
 +3.741360E+02 -4.543884E-03 -1.907057E+01 -4.543884E-03 +3.624341E+02 +3.223311E+00 -1.907057E+01 +3.223311E+00 +9.392252E+02 
 +3.710101E+02 -3.902047E+00 -9.693946E+00 -3.902047E+00 +3.648518E+02 +1.078771E+01 -9.693946E+00 +1.078771E+01 +9.594154E+02 
 +3.746691E+02 +8.534741E+00 -8.368651E+00 +8.534741E+00 +3.614152E+02 +5.121616E+00 -8.368651E+00 +5.121616E+00 +9.703341E+02 
 +3.420510E+02 +2.556078E+00 -1.373311E+00 +2.556078E+00 +3.339423E+02 +5.337419E+00 -1.373311E+00 +5.337419E+00 +9.578780E+02 
 +3.204844E+02 +4.153336E+00 +1.064068E+01 +4.153336E+00 +3.280308E+02 -8.547694E+00 +1.064068E+01 -8.547694E+00 +9.513040E+02 
 +3.765734E+02 +1.591862E+01 +2.539274E+01 +1.591862E+01 +3.526421E+02 -1.221967E+01 +2.539274E+01 -1.221967E+01 +9.582598E+02 
 +3.615254E+02 +8.428484E+00 +2.044351E+01 +8.428484E+00 +3.083954E+02 -5.921203E+00 +2.044351E+01 -5.921203E+00 +9.397912E+02 
 +3.837961E+02 +1.611010E+00 +2.590034E+01 +1.611010E+00 +3.164021E+02 -5.368918E+00 +2.590034E+01 -5.368918E+00 +9.513266E+02 
 +3.991031E+02 -9.772733E+00 +2.409288E+01 -9.772733E+00 +3.631787E+02 -9.578949E+00 +2.409288E+01 -9.578949E+00 +9.592320E+02 
 +3.697918E+02 -1.084938E+01 +1.848065E+01 -1.084938E+01 +3.638239E+02 -1.422560E+01 +1.848065E+01 -1.422560E+01 +9.568339E+02 
 +3.442257E+02 -1.123128E+01 +8.760470E+00 -1.123128E+01 +3.438543E+02 -1.247568E+01 +8.760470E+00 -1.247568E+01 +9.528597E+02 
 +3.425363E+02 -1.245111E+01 +1.140249E+00 -1.245111E+01 +3.471442E+02 -7.370470E+00 +1.140249E+00 -7.370470E+00 +9.542207E+02 
 +3.324816E+02 -1.500448E+01 -2.470603E+00 -1.500448E+01 +3.517351E+02 -9.601314E+00 -2.470603E+00 -9.601314E+00 +9.504999E+02 
 +3.351299E+02 -1.474033E+01 -4.775675E+00 -1.474033E+01 +3.691143E+02 -1.076502E+01 -4.775675E+00 -1.076502E+01 +9.556826E+02 
 +3.101773E+02 -1.383051E+01 -5.559390E+00 -1.383051E+01 +3.651711E+02 -4.470798E+00 -5.559390E+00 -4.470798E+00 +9.380862E+02 
 +3.484591E+02 -9.712028E+00 -4.473816E+00 -9.712028E+00 +3.770137E+02 +3.128088E+00 -4.473816E+00 +3.128088E+00 +9.298840E+02 
 +3.585809E+02 -6.217715E+00 -9.205808E+00 -6.217715E+00 +3.677603E+02 +3.888912E+00 -9.205808E+00 +3.888912E+00 +9.259283E+02 
 +3.607349E+02 -2.863603E+00 -1.439172E+01 -2.863603E+00 +3.665246E+02 +8.206076E+00 -1.439172E+01 +8.206076E+00 +9.292983E+02 
 +3.700903E+02 +4.743571E+00 -1.811659E+01 +4.743571E+00 +3.839039E+02 +1.659787E+01 -1.811659E+01 +1.659787E+01 +9.272112E+02 
 +4.034378E+02 +1.120047E+01 -2.212487E+01 +1.120047E+01 +3.999541E+02 +2.029639E+01 -2.212487E+01 +2.029639E+01 +9.438706E+02 
 +3.929299E+02 -4.282952E+00 -1.513611E+01 -4.282952E+00 +3.798048E+02 +1.995182E+01 -1.513611E+01 +1.995182E+01 +9.542598E+02 
 +3.712453E+02 -7.075710E+00 -1.319890E+01 -7.075710E+00 +3.580850E+02 +2.241508E+01 -1.319890E+01 +2.241508E+01 +9.583350E+02 
 +3.617886E+02 -6.841941E+00 -1.344184E+01 -6.841941E+00 +3.470440E+02 +2.464694E+01 -1.344184E+01 +2.464694E+01 +9.601662E+02 
 +3.527145E+02 +1.941225E+00 -1.527516E+01 +1.941225E+00 +3.417215E+02 +1.983750E+01 -1.527516E+01 +1.983750E+01 +9.574335E+02 
 +3.440535E+02 +3.481435E+00 -7.953905E+00 +3.481435E+00 +3.330396E+02 +1.278735E+01 -7.953905E+00 +1.278735E+01 +9.493393E+02 
 +3.260839E+02 +6.676133E+00 -2.521348E+00 +6.676133E+00 +3.010952E+02 +1.161231E+01 -2.521348E+00 +1.161231E+01 +9.358391E+02 
 +3.397728E+02 +1.547108E+01 +1.459477E+01 +1.547108E+01 +2.747446E+02 -9.685041E-01 +1.459477E+01 -9.685041E-01 +9.376668E+02 
 +3.493150E+02 +1.125480E+01 +1.643516E+01 +1.125480E+01 +2.904385E+02 -9.367678E+00 +1.643516E+01 -9.367678E+00 +9.564360E+02 
 +3.790348E+02 +7.082399E+00 +1.645667E+01 +7.082399E+00 +3.360002E+02 -6.735035E+00 +1.645667E+01 -6.735035E+00 +9.708949E+02 
 +3.503958E+02 -2.575568E+00 +1.707067E+01 -2.575568E+00 +3.359143E+02 -6.363806E+00 +1.707067E+01 -6.363806E+00 +9.472937E+02 
 +3.444053E+02 -1.389836E+01 +1.616609E+01 -1.389836E+01 +3.532022E+02 -4.358749E+00 +1.616609E+01 -4.358749E+00 +9.520503E+02 
 +3.568738E+02 -1.705614E+01 +2.155151E+00 -1.705614E+01 +3.634637E+02 -2.259628E+00 +2.155151E+00 -2.259628E+00 +9.657961E+02 
 +3.447437E+02 -2.004814E+01 -1.584713E+00 -2.004814E+01 +3.537688E+02 -2.724859E+00 -1.584713E+00 -2.724859E+00 +9.618901E+02 
 +3.326950E+02 -1.922803E+01 -3.427218E+00 -1.922803E+01 +3.535085E+02 -1.040064E+01 -3.427218E+00 -1.040064E+01 +9.546276E+02 
 +3.286737E+02 -1.946449E+01 -2.238191E+00 -1.946449E+01 +3.593608E+02 -1.649797E+01 -2.238191E+00 -1.649797E+01 +9.514772E+02 
 +3.283023E+02 -1.427909E+01 -7.240011E+00 -1.427909E+01 +3.725697E+02 -7.658321E+00 -7.240011E+00 -7.658321E+00 +9.420309E+02 
 +3.617432E+02 -9.163948E+00 -2.653427E+00 -9.163948E+00 +3.898143E+02 +5.670756E+00 -2.653427E+00 +5.670756E+00 +9.401038E+02 
 +3.586852E+02 -7.329382E+00 -2.965081E+00 -7.329382E+00 +3.678046E+02 +9.063041E+00 -2.965081E+00 +9.063041E+00 +9.375016E+02 
 +3.574173E+02 -6.625939E+00 -5.323650E+00 -6.625939E+00 +3.564253E+02 +1.326462E+01 -5.323650E+00 +1.326462E+01 +9.403613E+02 
 +3.730368E+02 -2.527467E-01 -1.059137E+01 -2.527467E-01 +3.523432E+02 +2.238687E+01 -1.059137E+01 +2.238687E+01 +9.381907E+02 
 +3.857163E+02 -4.666645E+00 -8.722606E+00 -4.666645E+00 +3.385554E+02 +2.661144E+01 -8.722606E+00 +2.661144E+01 +9.493171E+02 
 +3.773837E+02 -1.407515E+01 -3.058149E+00 -1.407515E+01 +3.336353E+02 +2.393722E+01 -3.058149E+00 +2.393722E+01 +9.608820E+02 
 +3.619569E+02 -1.348765E+01 -1.255572E+01 -1.348765E+01 +3.402187E+02 +2.535716E+01 -1.255572E+01 +2.535716E+01 +9.526619E+02 
 +3.611592E+02 -7.082865E+00 -1.460599E+01 -7.082865E+00 +3.451504E+02 +2.471289E+01 -1.460599E+01 +2.471289E+01 +9.472667E+02 
 +3.502640E+02 +2.480266E+00 -1.455716E+01 +2.480266E+00 +3.395803E+02 +1.818252E+01 -1.455716E+01 +1.818252E+01 +9.472770E+02 
 +3.571753E+02 +6.060344E+00 -7.125085E+00 +6.060344E+00 +3.368782E+02 +1.311831E+01 -7.125085E+00 +1.311831E+01 +9.455454E+02 
 +3.526422E+02 +2.499970E-01 -1.141553E+01 +2.499970E-01 +3.220694E+02 +1.792526E+01 -1.141553E+01 +1.792526E+01 +9.407153E+02 
 +3.589001E+02 +5.263838E+00 -1.372412E+00 +5.263838E+00 +3.225355E+02 +1.095550E+01 -1.372412E+00 +1.095550E+01 +9.484302E+02 
 +3.532094E+02 +1.302657E+01 +6.828030E+00 +1.302657E+01 +3.249491E+02 -4.323327E+00 +6.828030E+00 -4.323327E+00 +9.573953E+02 
 +3.854754E+02 +1.753978E+01 +8.926518E+00 +1.753978E+01 +3.760309E+02 -1.102963E+01 +8.926518E+00 -1.102963E+01 +9.759218E+02 
 +3.587668E+02 +7.407569E+00 +6.630318E+00 +7.407569E+00 +3.944403E+02 -1.004841E+01 +6.630318E+00 -1.004841E+01 +9.632431E+02 
 +3.416475E+02 -5.909952E+00 +6.116027E+00 -5.909952E+00 +3.794566E+02 -3.452129E+00 +6.116027E+00 -3.452129E+00 +9.574967E+02 
 +3.463323E+02 -1.534610E+01 +5.229584E+00 -1.534610E+01 +3.725935E+02 -8.737655E-01 +5.229584E+00 -8.737655E-01 +9.678139E+02 
 +3.407378E+02 -1.851542E+01 +1.077127E+00 -1.851542E+01 +3.600333E+02 -1.587396E+00 +1.077127E+00 -1.587396E+00 +9.696700E+02 
 +3.299755E+02 -1.791347E+01 -3.234775E+00 -1.791347E+01 +3.489935E+02 -1.259219E+01 -3.234775E+00 -1.259219E+01 +9.624938E+02 
 +3.401050E+02 -1.371471E+01 -5.682200E+00 -1.371471E+01 +3.569697E+02 -2.269302E+01 -5.682200E+00 -2.269302E+01 +9.582663E+02 
 +3.677588E+02 +2.463203E+00 -1.087334E+01 +2.463203E+00 +3.703105E+02 -1.623281E+01 -1.087334E+01 -1.623281E+01 +9.499495E+02 
 +3.675585E+02 +2.473307E+00 +4.056433E-01 +2.473307E+00 +3.782688E+02 +3.640143E+00 +4.056433E-01 +3.640143E+00 +9.422516E+02 
 +3.575811E+02 +9.547009E-02 +7.387910E+00 +9.547009E-02 +3.813663E+02 +1.345214E+01 +7.387910E+00 +1.345214E+01 +9.585775E+02 
 +3.330502E+02 -4.244311E+00 +7.993501E-01 -4.244311E+00 +3.392600E+02 +1.667319E+01 +7.993501E-01 +1.667319E+01 +9.601171E+02 
 +3.521036E+02 -7.556319E+00 -1.152239E+00 -7.556319E+00 +3.164600E+02 +1.957650E+01 -1.152239E+00 +1.957650E+01 +9.549943E+02 
 +3.804409E+02 -2.055942E+01 +6.710407E+00 -2.055942E+01 +3.257306E+02 +1.743861E+01 +6.710407E+00 +1.743861E+01 +9.601980E+02 
 +3.945785E+02 -1.699509E+01 +7.647728E+00 -1.699509E+01 +3.394250E+02 +1.095073E+01 +7.647728E+00 +1.095073E+01 +9.622731E+02 
 +3.793284E+02 -1.453577E+01 -2.361927E+00 -1.453577E+01 +3.387467E+02 +1.561867E+01 -2.361927E+00 +1.561867E+01 +9.464790E+02 
 +3.633420E+02 -7.410773E+00 -9.418130E+00 -7.410773E+00 +3.355911E+02 +1.795810E+01 -9.418130E+00 +1.795810E+01 +9.386697E+02 
 +3.549207E+02 +4.117509E+00 -1.068709E+01 +4.117509E+00 +3.363478E+02 +1.483773E+01 -1.068709E+01 +1.483773E+01 +9.408946E+02 
 +3.744399E+02 +1.133789E+00 -3.316194E+00 +1.133789E+00 +3.391824E+02 +1.259388E+01 -3.316194E+00 +1.259388E+01 +9.412116E+02 
 +3.791332E+02 -2.045133E-01 -6.185275E+00 -2.045133E-01 +3.376304E+02 +1.532278E+01 -6.185275E+00 +1.532278E+01 +9.464313E+02 
 +3.428366E+02 +1.849310E+01 +3.638446E+00 +1.849310E+01 +3.318471E+02 +6.591986E+00 +3.638446E+00 +6.591986E+00 +9.433657E+02 
 +3.419201E+02 +1.311083E+01 +1.250078E+00 +1.311083E+01 +3.515759E+02 -3.709266E+00 +1.250078E+00 -3.709266E+00 +9.543872E+02 
 +3.348143E+02 +1.092553E+01 -1.494731E+00 +1.092553E+01 +3.364570E+02 -1.075478E+01 -1.494731E+00 -1.075478E+01 +9.493170E+02 
 +3.297211E+02 -1.599927E+00 -6.656204E+00 -1.599927E+00 +3.327588E+02 -7.665630E+00 -6.656204E+00 -7.665630E+00 +9.425509E+02 
 +3.226988E+02 -8.973242E+00 -1.196243E+01 -8.973242E+00 +3.587324E+02 -2.063002E+00 -1.196243E+01 -2.063002E+00 +9.473174E+02 
 +3.358218E+02 -1.637464E+01 -1.682221E+00 -1.637464E+01 +3.734146E+02 +1.534824E+00 -1.682221E+00 +1.534824E+00 +9.645530E+02 
 +3.303428E+02 -1.692938E+01 -6.445920E+00 -1.692938E+01 +3.518315E+02 +2.509224E+00 -6.445920E+00 +2.509224E+00 +9.675365E+02 
 +3.360363E+02 -2.274165E+00 -2.958967E+00 -2.274165E+00 +3.390922E+02 -1.195897E+01 -2.958967E+00 -1.195897E+01 +9.657300E+02 
 +3.708084E+02 +1.088560E+01 -6.733973E+00 +1.088560E+01 +3.599171E+02 -2.833979E+01 -6.733973E+00 -2.833979E+01 +9.661850E+02 
 +3.675426E+02 +6.811361E+00 -1.620063E+00 +6.811361E+00 +3.569587E+02 -2.830249E+01 -1.620063E+00 -2.830249E+01 +9.514856E+02 
 +3.621431E+02 +3.481571E+00 +1.069064E+01 +3.481571E+00 +3.599376E+02 -2.273834E+01 +1.069064E+01 -2.273834E+01 +9.532055E+02 
 +3.539061E+02 -7.742514E+00 +2.121312E+01 -7.742514E+00 +3.780940E+02 -1.587476E+01 +2.121312E+01 -1.587476E+01 +9.731641E+02 
 +3.608666E+02 -1.257759E+01 +4.295857E+00 -1.257759E+01 +3.865574E+02 +6.399768E-01 +4.295857E+00 +6.399768E-01 +9.924980E+02 
 +3.522175E+02 +1.801511E+00 +8.389309E-01 +1.801511E+00 +3.655471E+02 +1.687468E+01 +8.389309E-01 +1.687468E+01 +9.796561E+02 
 +3.909022E+02 -1.222558E+01 +1.340050E+01 -1.222558E+01 +3.536449E+02 +1.618858E+01 +1.340050E+01 +1.618858E+01 +9.763270E+02 
 +3.894941E+02 -1.099316E+01 +1.546458E+01 -1.099316E+01 +3.233650E+02 +1.078755E+01 +1.546458E+01 +1.078755E+01 +9.604363E+02 
 +3.936999E+02 -1.269374E+01 +1.316461E+01 -1.269374E+01 +3.226407E+02 +9.711052E+00 +1.316461E+01 +9.711052E+00 +9.523349E+02 
 +3.688635E+02 -4.906046E+00 -1.845069E+00 -4.906046E+00 +3.249283E+02 +1.356982E+01 -1.845069E+00 +1.356982E+01 +9.343630E+02 
 +3.670206E+02 +2.693460E+00 -5.635364E+00 +2.693460E+00 +3.375460E+02 +1.348138E+01 -5.635364E+00 +1.348138E+01 +9.352531E+02 
 +3.973157E+02 -2.153206E+00 +2.550444E+00 -2.153206E+00 +3.466874E+02 +1.362852E+01 +2.550444E+00 +1.362852E+01 +9.420075E+02 
 +3.893712E+02 -6.892873E+00 -4.025148E+00 -6.892873E+00 +3.655254E+02 +2.135782E+01 -4.025148E+00 +2.135782E+01 +9.502408E+02 
 +3.437556E+02 +3.838211E-01 +9.671549E-01 +3.838211E-01 +3.755641E+02 +1.720599E+01 +9.671549E-01 +1.720599E+01 +9.489760E+02 
 +3.370287E+02 -2.017609E+00 -5.072439E+00 -2.017609E+00 +3.834266E+02 +3.715200E+00 -5.072439E+00 +3.715200E+00 +9.500458E+02 
 +3.319212E+02 +1.466881E+00 -1.363674E+01 +1.466881E+00 +3.763974E+02 -4.709637E+00 -1.363674E+01 -4.709637E+00 +9.500503E+02 
 +3.369822E+02 -2.700058E+00 -1.340428E+01 -2.700058E+00 +3.741439E+02 -8.900229E+00 -1.340428E+01 -8.900229E+00 +9.556045E+02 
 +3.543916E+02 -2.066151E+01 -1.321582E+01 -2.066151E+01 +3.686124E+02 -5.455641E+00 -1.321582E+01 -5.455641E+00 +9.583326E+02 
 +3.391544E+02 -1.766594E+01 -9.981951E+00 -1.766594E+01 +3.533240E+02 +2.303359E+00 -9.981951E+00 +2.303359E+00 +9.546085E+02 
 +3.380290E+02 -1.568749E+01 -1.632897E+01 -1.568749E+01 +3.465910E+02 +6.969806E+00 -1.632897E+01 +6.969806E+00 +9.590965E+02 
 +3.686605E+02 +1.071607E+01 +2.355740E+00 +1.071607E+01 +3.591293E+02 -3.931458E+00 +2.355740E+00 -3.931458E+00 +9.646880E+02 
 +3.828352E+02 +1.546804E+01 +6.909950E+00 +1.546804E+01 +3.720310E+02 -1.565924E+01 +6.909950E+00 -1.565924E+01 +9.620533E+02 
 +3.593878E+02 +1.127307E+01 +1.289174E+01 +1.127307E+01 +3.579971E+02 -1.527593E+01 +1.289174E+01 -1.527593E+01 +9.510803E+02 
 +3.595337E+02 +1.814209E+01 +1.469775E+01 +1.814209E+01 +3.572427E+02 -1.159177E+01 +1.469775E+01 -1.159177E+01 +9.553646E+02 
 +3.558010E+02 +1.551443E+01 +2.000589E+01 +1.551443E+01 +3.541786E+02 -7.326366E+00 +2.000589E+01 -7.326366E+00 +9.594049E+02 
 +3.723992E+02 +1.301758E+01 +9.797685E+00 +1.301758E+01 +3.837892E+02 +4.407049E+00 +9.797685E+00 +4.407049E+00 +9.816608E+02 
 +3.239121E+02 +1.063803E+01 -1.342904E+00 +1.063803E+01 +3.511520E+02 +1.127537E+01 -1.342904E+00 +1.127537E+01 +9.674341E+02 
 +3.661275E+02 -5.231173E+00 +8.156240E+00 -5.231173E+00 +3.441374E+02 +5.793079E+00 +8.156240E+00 +5.793079E+00 +9.735370E+02 
 +3.624656E+02 -4.258039E+00 +1.539198E+01 -4.258039E+00 +3.230224E+02 +4.808244E+00 +1.539198E+01 +4.808244E+00 +9.595538E+02 
 +3.918905E+02 -1.120253E+01 +2.191105E+01 -1.120253E+01 +3.297729E+02 +8.985123E+00 +2.191105E+01 +8.985123E+00 +9.550231E+02 
 +3.879034E+02 -3.996462E+00 +7.384444E+00 -3.996462E+00 +3.347046E+02 +1.382198E+01 +7.384444E+00 +1.382198E+01 +9.321862E+02 
 +3.859149E+02 -2.227517E+00 +3.362387E+00 -2.227517E+00 +3.418273E+02 +1.265664E+01 +3.362387E+00 +1.265664E+01 +9.309463E+02 
 +3.916344E+02 -4.582913E+00 +6.270684E+00 -4.582913E+00 +3.572024E+02 +1.601698E+01 +6.270684E+00 +1.601698E+01 +9.407431E+02 
 +3.572448E+02 -8.258514E+00 -4.851432E+00 -8.258514E+00 +3.752700E+02 +1.767083E+01 -4.851432E+00 +1.767083E+01 +9.455309E+02 
 +3.445958E+02 -5.227688E+00 -4.251384E+00 -5.227688E+00 +3.903391E+02 +1.805943E+01 -4.251384E+00 +1.805943E+01 +9.521615E+02 
 +3.430948E+02 -7.643824E+00 -2.306072E+00 -7.643824E+00 +3.897004E+02 +1.341706E+01 -2.306072E+00 +1.341706E+01 +9.503005E+02 
 +3.342546E+02 -6.188662E+00 -6.213559E+00 -6.188662E+00 +3.838361E+02 +2.361191E+00 -6.213559E+00 +2.361191E+00 +9.469889E+02 
 +3.183582E+02 +1.478400E-01 -1.036828E+01 +1.478400E-01 +3.598889E+02 -9.084922E+00 -1.036828E+01 -9.084922E+00 +9.400157E+02 
 +3.691299E+02 -1.552022E+01 -1.447885E+01 -1.552022E+01 +3.655695E+02 -5.708502E+00 -1.447885E+01 -5.708502E+00 +9.546458E+02 
 +3.668389E+02 -1.253599E+01 -1.595055E+01 -1.253599E+01 +3.537308E+02 +3.672805E-01 -1.595055E+01 +3.672805E-01 +9.531676E+02 
 +3.668380E+02 -1.773138E+01 -1.945711E+01 -1.773138E+01 +3.572107E+02 +4.478893E+00 -1.945711E+01 +4.478893E+00 +9.626036E+02 
 +3.869151E+02 +1.365538E+01 +2.446634E+00 +1.365538E+01 +3.730663E+02 -2.423508E-01 +2.446634E+00 -2.423508E-01 +9.735089E+02 
 +3.772697E+02 +1.288104E+01 +1.249895E+01 +1.288104E+01 +3.665046E+02 -9.602908E+00 +1.249895E+01 -9.602908E+00 +9.650154E+02 
 +3.668230E+02 +9.648309E+00 +1.134594E+01 +9.648309E+00 +3.577149E+02 -1.045702E+01 +1.134594E+01 -1.045702E+01 +9.615829E+02 
 +3.676832E+02 +1.525338E+01 +1.034724E+01 +1.525338E+01 +3.569279E+02 -9.787794E+00 +1.034724E+01 -9.787794E+00 +9.674650E+02 
 +3.798925E+02 +1.091404E+01 +1.315215E+01 +1.091404E+01 +3.653758E+02 -4.728289E+00 +1.315215E+01 -4.728289E+00 +9.717834E+02 
 +3.871386E+02 +1.274813E+01 +1.059093E+01 +1.274813E+01 +3.809087E+02 +2.660525E+00 +1.059093E+01 +2.660525E+00 +9.784569E+02 
 +3.465139E+02 +1.062814E+01 -5.317184E+00 +1.062814E+01 +3.672097E+02 +4.627597E+00 -5.317184E+00 +4.627597E+00 +9.691483E+02 
 +3.521836E+02 +1.227615E+01 -2.558719E+00 +1.227615E+01 +3.754621E+02 -1.283670E+00 -2.558719E+00 -1.283670E+00 +9.704981E+02 
 +3.665637E+02 +1.147529E+01 +4.359574E+00 +1.147529E+01 +3.857228E+02 -4.771048E+00 +4.359574E+00 -4.771048E+00 +9.688672E+02 
 +3.808547E+02 +9.201461E+00 +1.709256E+01 +9.201461E+00 +3.822797E+02 +3.304160E+00 +1.709256E+01 +3.304160E+00 +9.543605E+02 
 +4.062021E+02 +6.441743E+00 +1.144604E+01 +6.441743E+00 +3.708343E+02 +1.217511E+01 +1.144604E+01 +1.217511E+01 +9.312985E+02 
 +4.081258E+02 +1.784083E+00 +1.155379E+01 +1.784083E+00 +3.515680E+02 +1.337765E+01 +1.155379E+01 +1.337765E+01 +9.258706E+02 
 +3.757327E+02 -1.154146E+01 +2.233047E+00 -1.154146E+01 +3.812195E+02 +1.098624E+01 +2.233047E+00 +1.098624E+01 +9.379391E+02 
 +3.350923E+02 -1.136929E+01 -3.375695E+00 -1.136929E+01 +3.735412E+02 +1.182092E+01 -3.375695E+00 +1.182092E+01 +9.503549E+02 
 +3.622517E+02 -5.778683E+00 +2.989970E+00 -5.778683E+00 +3.908774E+02 +1.649623E+01 +2.989970E+00 +1.649623E+01 +9.623054E+02 
 +3.552694E+02 -3.070144E+00 +1.011620E+01 -3.070144E+00 +3.892752E+02 +1.544570E+01 +1.011620E+01 +1.544570E+01 +9.491595E+02 
 +3.429828E+02 +3.855134E+00 +1.359442E+01 +3.855134E+00 +3.757636E+02 +5.660000E+00 +1.359442E+01 +5.660000E+00 +9.455575E+02 
 +3.170219E+02 +1.021402E+00 -1.392505E+00 +1.021402E+00 +3.437786E+02 -1.895231E+00 -1.392505E+00 -1.895231E+00 +9.329784E+02 
 +3.587213E+02 -1.429267E+01 -1.491442E+01 -1.429267E+01 +3.559040E+02 -2.682579E+00 -1.491442E+01 -2.682579E+00 +9.422552E+02 
 +3.783619E+02 -1.673867E+01 -1.374349E+01 -1.673867E+01 +3.573554E+02 -4.412865E-01 -1.374349E+01 -4.412865E-01 +9.424740E+02 
 +3.933190E+02 -1.552945E+01 -1.739765E+01 -1.552945E+01 +3.767477E+02 +3.852468E+00 -1.739765E+01 +3.852468E+00 +9.647131E+02 
 +4.031532E+02 +1.774517E+00 -2.744733E+00 +1.774517E+00 +3.967413E+02 +2.280655E+00 -2.744733E+00 +2.280655E+00 +9.983393E+02 
 +3.843947E+02 +8.984511E-01 +3.757647E+00 +8.984511E-01 +3.750463E+02 -5.572435E+00 +3.757647E+00 -5.572435E+00 +9.921225E+02 
 +3.773060E+02 -3.447419E+00 -7.853008E-01 -3.447419E+00 +3.718128E+02 -1.120669E+01 -7.853008E-01 -1.120669E+01 +9.937078E+02 
 +3.699102E+02 -7.404134E+00 +2.204069E+00 -7.404134E+00 +3.641146E+02 -1.719323E+01 +2.204069E+00 -1.719323E+01 +9.977231E+02 
 +3.773541E+02 -1.544424E+01 +1.452385E+01 -1.544424E+01 +3.538130E+02 -1.688403E+01 +1.452385E+01 -1.688403E+01 +9.827676E+02 
 +3.828094E+02 -1.519598E+01 +1.269247E+01 -1.519598E+01 +3.415314E+02 -9.896300E+00 +1.269247E+01 -9.896300E+00 +9.688637E+02 
 +3.859472E+02 -1.765938E+01 +5.095831E-01 -1.765938E+01 +3.507439E+02 -5.866571E+00 +5.095831E-01 -5.866571E+00 +9.678215E+02 
 +3.510167E+02 +2.039869E-01 -4.527578E+00 +2.039869E-01 +3.639950E+02 -5.806785E+00 -4.527578E+00 -5.806785E+00 +9.553256E+02 
 +3.598363E+02 +7.825388E+00 -5.965758E-01 +7.825388E+00 +3.834254E+02 -9.755505E+00 -5.965758E-01 -9.755505E+00 +9.594009E+02 
 +3.393073E+02 +1.431347E+01 +5.958436E+00 +1.431347E+01 +3.651251E+02 -4.329700E+00 +5.958436E+00 -4.329700E+00 +9.388688E+02 
 +3.699479E+02 +4.691610E+00 +2.636282E+00 +4.691610E+00 +3.645990E+02 +9.723179E+00 +2.636282E+00 +9.723179E+00 +9.235054E+02 
 +3.968792E+02 -8.542747E+00 +1.518800E+00 -8.542747E+00 +3.708139E+02 +1.457402E+01 +1.518800E+00 +1.457402E+01 +9.197267E+02 
 +3.941922E+02 -1.338602E+01 -1.241276E+01 -1.338602E+01 +3.984538E+02 +6.115221E+00 -1.241276E+01 +6.115221E+00 +9.340269E+02 
 +3.303526E+02 -7.177603E+00 -7.189739E+00 -7.177603E+00 +3.691869E+02 +6.485778E+00 -7.189739E+00 +6.485778E+00 +9.382391E+02 
 +3.844138E+02 +3.371359E+00 +3.768003E+00 +3.371359E+00 +3.873144E+02 +6.820060E+00 +3.768003E+00 +6.820060E+00 +9.546816E+02 
 +3.660034E+02 +8.170071E+00 +1.306864E+01 +8.170071E+00 +3.666136E+02 +3.299998E+00 +1.306864E+01 +3.299998E+00 +9.344210E+02 
 +3.591746E+02 +1.240653E+01 +1.769918E+01 +1.240653E+01 +3.700639E+02 +1.226042E+00 +1.769918E+01 +1.226042E+00 +9.454154E+02 
 +3.085900E+02 +6.128610E+00 +3.293699E+00 +6.128610E+00 +3.370275E+02 +5.784047E+00 +3.293699E+00 +5.784047E+00 +9.233423E+02 
 +3.722551E+02 +4.297938E+00 -1.254204E+01 +4.297938E+00 +3.660694E+02 +9.276569E+00 -1.254204E+01 +9.276569E+00 +9.404270E+02 
 +3.757568E+02 -2.327575E-01 -3.191583E+00 -2.327575E-01 +3.703203E+02 +6.083576E+00 -3.191583E+00 +6.083576E+00 +9.325177E+02 
 +3.961919E+02 +3.845191E+00 -1.166325E+01 +3.845191E+00 +3.904744E+02 +1.192206E+01 -1.166325E+01 +1.192206E+01 +9.460815E+02 
 +3.914225E+02 +5.876117E+00 -1.596205E+00 +5.876117E+00 +3.992060E+02 +1.157258E+01 -1.596205E+00 +1.157258E+01 +9.778970E+02 
 +3.875146E+02 +1.830510E+00 -1.139077E+00 +1.830510E+00 +3.968667E+02 -1.467251E+00 -1.139077E+00 -1.467251E+00 +1.005546E+03 
 +3.805116E+02 -2.202927E+00 -3.686256E-02 -2.202927E+00 +3.926649E+02 -1.008636E+01 -3.686256E-02 -1.008636E+01 +1.021241E+03 
 +3.765320E+02 -8.234863E+00 +5.454122E+00 -8.234863E+00 +3.842807E+02 -7.836862E+00 +5.454122E+00 -7.836862E+00 +1.015298E+03 
 +3.882891E+02 -1.059508E+01 +1.414847E+01 -1.059508E+01 +3.675556E+02 -3.631557E+00 +1.414847E+01 -3.631557E+00 +9.920860E+02 
 +3.877411E+02 -1.163837E+01 +1.318082E+01 -1.163837E+01 +3.500145E+02 -2.818614E+00 +1.318082E+01 -2.818614E+00 +9.724859E+02 
 +3.986261E+02 -1.714199E+01 +1.332819E+01 -1.714199E+01 +3.559724E+02 -5.703078E+00 +1.332819E+01 -5.703078E+00 +9.700750E+02 
 +3.761305E+02 -1.710841E+01 +1.125621E+01 -1.710841E+01 +3.465284E+02 -1.120173E+01 +1.125621E+01 -1.120173E+01 +9.512032E+02 
 +3.562590E+02 -1.345826E+01 +1.276692E+01 -1.345826E+01 +3.536879E+02 -1.461551E+01 +1.276692E+01 -1.461551E+01 +9.443752E+02 
 +3.201741E+02 -9.506864E+00 +3.359886E+00 -9.506864E+00 +3.530300E+02 -1.023089E+01 +3.359886E+00 -1.023089E+01 +9.367130E+02 
 +3.373673E+02 -1.611386E+01 -7.532382E+00 -1.611386E+01 +3.658840E+02 -1.636113E+00 -7.532382E+00 -1.636113E+00 +9.370986E+02 
 +3.385006E+02 -2.122496E+01 -1.495386E+01 -2.122496E+01 +3.644226E+02 +2.352464E+00 -1.495386E+01 +2.352464E+00 +9.075453E+02 
 +4.101979E+02 -5.619952E+00 -2.104053E+01 -5.619952E+00 +4.130517E+02 +4.480935E+00 -2.104053E+01 +4.480935E+00 +9.317868E+02 
 +3.731369E+02 +1.644379E+00 -1.211137E+01 +1.644379E+00 +3.841458E+02 +1.131299E+01 -1.211137E+01 +1.131299E+01 +9.246846E+02 
 +3.934447E+02 +1.252809E+01 -1.695048E+00 +1.252809E+01 +3.919201E+02 +5.906536E+00 -1.695048E+00 +5.906536E+00 +9.298466E+02 
 +3.958417E+02 +1.440903E+01 +7.578964E+00 +1.440903E+01 +3.926060E+02 -6.074698E-01 +7.578964E+00 -6.074698E-01 +9.365328E+02 
 +3.508902E+02 +6.597164E+00 +4.435856E+00 +6.597164E+00 +3.609651E+02 +1.059253E+00 +4.435856E+00 +1.059253E+00 +9.372457E+02 
 +3.225987E+02 -1.038799E+00 +4.677015E+00 -1.038799E+00 +3.380874E+02 +3.700491E+00 +4.677015E+00 +3.700491E+00 +9.216595E+02 
 +3.733315E+02 -4.587497E+00 -1.047089E+01 -4.587497E+00 +3.689741E+02 +8.825638E+00 -1.047089E+01 +8.825638E+00 +9.327766E+02 
 +3.617580E+02 -1.244306E+01 -6.562478E-01 -1.244306E+01 +3.655173E+02 +9.504281E+00 -6.562478E-01 +9.504281E+00 +9.219877E+02 
 +3.756797E+02 -6.811430E+00 -6.518324E+00 -6.811430E+00 +3.700361E+02 +1.410799E+01 -6.518324E+00 +1.410799E+01 +9.223098E+02 
 +3.705734E+02 +4.609505E+00 -4.552711E+00 +4.609505E+00 +3.737884E+02 +1.332569E+01 -4.552711E+00 +1.332569E+01 +9.347279E+02 
 +3.673984E+02 +1.269580E+00 -1.752220E+00 +1.269580E+00 +3.935178E+02 +2.090685E+00 -1.752220E+00 +2.090685E+00 +9.818801E+02 
 +3.707934E+02 -1.360133E+00 +3.621476E+00 -1.360133E+00 +3.896060E+02 -2.507357E-01 +3.621476E+00 -2.507357E-01 +1.015258E+03 
 +3.725284E+02 -6.077381E+00 +1.097013E+01 -6.077381E+00 +3.628570E+02 -3.394851E+00 +1.097013E+01 -3.394851E+00 +9.979790E+02 
 +3.774728E+02 -6.912811E+00 +1.290410E+01 -6.912811E+00 +3.545561E+02 -3.792472E+00 +1.290410E+01 -3.792472E+00 +9.802374E+02 
 +3.832458E+02 -8.323961E+00 +1.490338E+01 -8.323961E+00 +3.578897E+02 -4.123285E+00 +1.490338E+01 -4.123285E+00 +9.729467E+02 
 +3.808894E+02 -9.208117E+00 +2.092863E+01 -9.208117E+00 +3.537306E+02 -5.559385E+00 +2.092863E+01 -5.559385E+00 +9.623135E+02 
 +3.905659E+02 -1.003805E+01 +2.702855E+01 -1.003805E+01 +3.616028E+02 -6.511264E+00 +2.702855E+01 -6.511264E+00 +9.602091E+02 
 +3.697606E+02 -8.066657E+00 +2.661091E+01 -8.066657E+00 +3.658477E+02 -9.904429E+00 +2.661091E+01 -9.904429E+00 +9.549542E+02 
 +3.154896E+02 -1.485064E+01 +8.626302E+00 -1.485064E+01 +3.552594E+02 -8.444676E+00 +8.626302E+00 -8.444676E+00 +9.469686E+02 
 +3.349035E+02 -1.611268E+01 -6.408291E+00 -1.611268E+01 +3.816557E+02 +2.261354E+00 -6.408291E+00 +2.261354E+00 +9.598055E+02 
 +3.214046E+02 -1.260605E+01 -1.557223E+01 -1.260605E+01 +3.753410E+02 +3.046995E+00 -1.557223E+01 +3.046995E+00 +9.196336E+02 
 +4.167251E+02 +2.015144E+00 -1.865691E+01 +2.015144E+00 +4.184962E+02 +3.584094E+00 -1.865691E+01 +3.584094E+00 +9.423596E+02 
 +4.070229E+02 +8.439552E+00 -9.101328E+00 +8.439552E+00 +3.981817E+02 +1.712610E+00 -9.101328E+00 +1.712610E+00 +9.278891E+02 
 +3.918151E+02 +9.853774E+00 -2.811997E+00 +9.853774E+00 +3.853856E+02 -4.272665E-02 -2.811997E+00 -4.272665E-02 +9.120778E+02 
 +3.950128E+02 +1.328791E+01 +9.323954E-01 +1.328791E+01 +3.840849E+02 -5.598636E+00 +9.323954E-01 -5.598636E+00 +9.185419E+02 
 +3.304931E+02 +5.746198E+00 -2.744939E+00 +5.746198E+00 +3.495079E+02 -8.245020E+00 -2.744939E+00 -8.245020E+00 +9.183307E+02 
 +3.287854E+02 -1.540479E+00 +2.720447E+00 -1.540479E+00 +3.482300E+02 +8.947088E-02 +2.720447E+00 +8.947088E-02 +9.197754E+02 
 +3.629522E+02 -9.299172E+00 -9.991095E+00 -9.299172E+00 +3.647256E+02 +9.460947E+00 -9.991095E+00 +9.460947E+00 +9.227201E+02 
 +3.549416E+02 -1.197020E+01 -6.409945E+00 -1.197020E+01 +3.582320E+02 +1.126235E+01 -6.409945E+00 +1.126235E+01 +9.182221E+02 
 +3.687985E+02 -1.059257E+01 -9.187387E+00 -1.059257E+01 +3.629800E+02 +1.160658E+01 -9.187387E+00 +1.160658E+01 +9.249192E+02 
 +3.667451E+02 +2.865009E+00 -1.152788E+01 +2.865009E+00 +3.574947E+02 +5.437847E+00 -1.152788E+01 +5.437847E+00 +9.227469E+02 
 +3.395562E+02 +8.232576E-01 +1.453316E+00 +8.232576E-01 +3.461531E+02 -1.083328E+01 +1.453316E+00 -1.083328E+01 +9.403367E+02 
 +3.511357E+02 -4.232952E+00 +4.018424E+00 -4.232952E+00 +3.515258E+02 -1.078385E+01 +4.018424E+00 -1.078385E+01 +9.754386E+02 
 +3.672639E+02 -4.345995E+00 +9.208652E+00 -4.345995E+00 +3.548423E+02 -5.452350E+00 +9.208652E+00 -5.452350E+00 +9.773917E+02 
 +3.700880E+02 -4.603407E+00 +1.284282E+01 -4.603407E+00 +3.564490E+02 -5.931628E+00 +1.284282E+01 -5.931628E+00 +9.714146E+02 
 +3.697691E+02 -6.917545E+00 +1.726426E+01 -6.917545E+00 +3.536763E+02 -6.147922E+00 +1.726426E+01 -6.147922E+00 +9.668909E+02 
 +3.750532E+02 -7.769167E+00 +2.251721E+01 -7.769167E+00 +3.553917E+02 -6.978241E+00 +2.251721E+01 -6.978241E+00 +9.641484E+02 
 +3.745806E+02 -9.322405E+00 +2.498868E+01 -9.322405E+00 +3.555910E+02 -5.964967E+00 +2.498868E+01 -5.964967E+00 +9.633810E+02 
 +3.653570E+02 -1.790031E+00 +2.036413E+01 -1.790031E+00 +3.677865E+02 -4.966114E+00 +2.036413E+01 -4.966114E+00 +9.714685E+02 
 +3.312955E+02 -1.087458E+01 +5.541775E+00 -1.087458E+01 +3.743404E+02 -3.680279E+00 +5.541775E+00 -3.680279E+00 +9.761674E+02 
 +3.408379E+02 -9.168626E+00 -4.821666E+00 -9.168626E+00 +3.912276E+02 +1.459418E+00 -4.821666E+00 +1.459418E+00 +9.780850E+02 
 +3.478797E+02 -5.501216E+00 -9.746092E+00 -5.501216E+00 +3.962982E+02 +4.247681E+00 -9.746092E+00 +4.247681E+00 +9.486595E+02 
 +4.050961E+02 +7.993698E+00 -1.466308E+01 +7.993698E+00 +4.000703E+02 +4.154067E+00 -1.466308E+01 +4.154067E+00 +9.491861E+02 
 +4.025940E+02 +1.159185E+01 -6.776264E+00 +1.159185E+01 +3.950149E+02 +2.476556E-01 -6.776264E+00 +2.476556E-01 +9.318428E+02 
 +3.984737E+02 +1.165446E+01 -4.555841E+00 +1.165446E+01 +3.884847E+02 -3.932346E+00 -4.555841E+00 -3.932346E+00 +9.224311E+02 
 +3.948218E+02 +9.349628E+00 -3.065090E+00 +9.349628E+00 +3.855424E+02 -6.909749E+00 -3.065090E+00 -6.909749E+00 +9.254402E+02 
 +3.382812E+02 +2.569352E+00 -2.013693E+00 +2.569352E+00 +3.591527E+02 -6.537353E+00 -2.013693E+00 -6.537353E+00 +9.197593E+02 
 +3.339227E+02 +2.434967E+00 +3.586998E+00 +2.434967E+00 +3.570342E+02 +4.515627E+00 +3.586998E+00 +4.515627E+00 +9.195471E+02 
 +3.619846E+02 -1.493357E+00 -1.830550E+01 -1.493357E+00 +3.642462E+02 +1.397920E+01 -1.830550E+01 +1.397920E+01 +9.238507E+02 
 +3.475332E+02 -5.637033E+00 -5.689792E+00 -5.637033E+00 +3.545437E+02 +1.245247E+01 -5.689792E+00 +1.245247E+01 +9.186964E+02 
 +3.598394E+02 -9.420942E+00 -1.120241E+01 -9.420942E+00 +3.597325E+02 +1.030773E+01 -1.120241E+01 +1.030773E+01 +9.316133E+02 
 +3.501350E+02 +8.153008E-01 -9.414165E+00 +8.153008E-01 +3.435187E+02 +3.027693E+00 -9.414165E+00 +3.027693E+00 +9.237269E+02 
 +3.504601E+02 -3.615717E+00 +2.861405E+00 -3.615717E+00 +3.436418E+02 -1.222447E+01 +2.861405E+00 -1.222447E+01 +9.323366E+02 
 +3.635797E+02 -1.211574E+01 +5.767956E+00 -1.211574E+01 +3.546215E+02 -1.265171E+01 +5.767956E+00 -1.265171E+01 +9.567893E+02 
 +3.626696E+02 -5.824297E+00 +7.838822E+00 -5.824297E+00 +3.529856E+02 -6.090880E+00 +7.838822E+00 -6.090880E+00 +9.588581E+02 
 +3.628369E+02 -4.926412E+00 +1.094433E+01 -4.926412E+00 +3.562139E+02 -6.702090E+00 +1.094433E+01 -6.702090E+00 +9.617195E+02 
 +3.642004E+02 -6.234009E+00 +1.476059E+01 -6.234009E+00 +3.596718E+02 -8.346468E+00 +1.476059E+01 -8.346468E+00 +9.622939E+02 
 +3.611539E+02 -9.345984E+00 +1.651100E+01 -9.345984E+00 +3.527425E+02 -1.074495E+01 +1.651100E+01 -1.074495E+01 +9.614309E+02 
 +3.616980E+02 -6.152178E+00 +1.431169E+01 -6.152178E+00 +3.544797E+02 -1.078153E+01 +1.431169E+01 -1.078153E+01 +9.680290E+02 
 +3.598371E+02 +7.739943E+00 +9.888880E+00 +7.739943E+00 +3.619298E+02 -4.915864E+00 +9.888880E+00 -4.915864E+00 +9.798534E+02 
 +3.339129E+02 +7.344907E-01 -7.953650E-01 +7.344907E-01 +3.524944E+02 +4.295951E-01 -7.953650E-01 +4.295951E-01 +9.773255E+02 
 +3.309536E+02 +5.528128E+00 -6.563281E+00 +5.528128E+00 +3.514343E+02 +2.263936E+00 -6.563281E+00 +2.263936E+00 +9.666336E+02 
 +3.525113E+02 +1.499836E+01 -3.151456E+00 +1.499836E+01 +3.657136E+02 +3.208296E+00 -3.151456E+00 +3.208296E+00 +9.527267E+02 
 +3.922081E+02 +5.400344E+00 -1.595666E+01 +5.400344E+00 +3.925163E+02 +5.141145E-02 -1.595666E+01 +5.141145E-02 +9.422812E+02 
 +3.958232E+02 +1.102078E+01 -7.973219E+00 +1.102078E+01 +3.938613E+02 -1.517478E-01 -7.973219E+00 -1.517478E-01 +9.310646E+02 
 +3.919755E+02 +1.205792E+01 -4.058452E+00 +1.205792E+01 +3.922089E+02 -2.465408E+00 -4.058452E+00 -2.465408E+00 +9.289725E+02 
 +3.841932E+02 +9.306516E+00 -3.318350E+00 +9.306516E+00 +3.864153E+02 -8.848809E+00 -3.318350E+00 -8.848809E+00 +9.275610E+02 
 +3.666084E+02 +7.709312E+00 -1.966176E+00 +7.709312E+00 +3.770847E+02 -2.079678E+01 -1.966176E+00 -2.079678E+01 +9.269973E+02 
 +3.553729E+02 +7.235139E+00 +1.549155E+01 +7.235139E+00 +3.684110E+02 -2.009702E+01 +1.549155E+01 -2.009702E+01 +9.270386E+02 
 +3.410229E+02 -2.929061E+00 -3.473039E+00 -2.929061E+00 +3.464792E+02 -2.112446E+00 -3.473039E+00 -2.112446E+00 +9.304374E+02 
 +3.377259E+02 -5.886789E+00 +4.505259E+00 -5.886789E+00 +3.485356E+02 +7.719345E+00 +4.505259E+00 +7.719345E+00 +9.474679E+02 
 +3.626515E+02 -1.252283E+01 +3.909453E+00 -1.252283E+01 +3.633465E+02 +6.998924E+00 +3.909453E+00 +6.998924E+00 +9.617757E+02 
 +3.516985E+02 -7.718084E+00 +5.014778E+00 -7.718084E+00 +3.407981E+02 +4.458532E+00 +5.014778E+00 +4.458532E+00 +9.493011E+02 
 +3.525096E+02 +2.250827E-01 +1.124992E+01 +2.250827E-01 +3.365114E+02 -4.891578E+00 +1.124992E+01 -4.891578E+00 +9.367123E+02 
 +3.519284E+02 -6.063099E+00 +7.624371E+00 -6.063099E+00 +3.410934E+02 -6.573082E+00 +7.624371E+00 -6.573082E+00 +9.352391E+02 
 +3.588181E+02 -7.028891E+00 +5.561377E+00 -7.028891E+00 +3.511347E+02 -4.129478E+00 +5.561377E+00 -4.129478E+00 +9.448802E+02 
 +3.632950E+02 -5.731227E+00 +5.023519E+00 -5.731227E+00 +3.570933E+02 -6.072858E+00 +5.023519E+00 -6.072858E+00 +9.482903E+02 
 +3.631149E+02 -5.901318E+00 +8.123121E+00 -5.901318E+00 +3.615374E+02 -8.515870E+00 +8.123121E+00 -8.515870E+00 +9.488284E+02 
 +3.640520E+02 -2.824056E+00 +3.307939E+00 -2.824056E+00 +3.711904E+02 -7.620097E+00 +3.307939E+00 -7.620097E+00 +9.547047E+02 
 +3.712505E+02 +7.634365E+00 +7.131996E+00 +7.634365E+00 +3.915341E+02 -7.349862E+00 +7.131996E+00 -7.349862E+00 +9.704934E+02 
 +3.679968E+02 +1.260668E+01 +6.206934E+00 +1.260668E+01 +3.825034E+02 -1.153618E+01 +6.206934E+00 -1.153618E+01 +9.765621E+02 
 +3.436389E+02 +1.006320E+01 +5.054066E+00 +1.006320E+01 +3.512345E+02 -8.930896E+00 +5.054066E+00 -8.930896E+00 +9.671608E+02 
 +3.497115E+02 +1.075393E+01 -5.193129E+00 +1.075393E+01 +3.523147E+02 -5.220430E+00 -5.193129E+00 -5.220430E+00 +9.597462E+02 
 +3.629970E+02 +1.880800E+01 -1.511356E-01 +1.880800E+01 +3.674540E+02 -5.645562E+00 -1.511356E-01 -5.645562E+00 +9.468016E+02 
 +3.872774E+02 +5.811439E+00 -1.642932E+01 +5.811439E+00 +3.822819E+02 -1.387636E+00 -1.642932E+01 -1.387636E+00 +9.434074E+02 
 +3.902678E+02 +9.423095E+00 -9.759668E+00 +9.423095E+00 +3.856285E+02 -2.342396E+00 -9.759668E+00 -2.342396E+00 +9.343059E+02 
 +3.928531E+02 +1.138128E+01 -6.230517E+00 +1.138128E+01 +3.886512E+02 -1.289841E+00 -6.230517E+00 -1.289841E+00 +9.378282E+02 
 +3.915653E+02 +1.102725E+01 -5.746961E+00 +1.102725E+01 +3.899655E+02 -4.120108E+00 -5.746961E+00 -4.120108E+00 +9.394565E+02 
 +3.867297E+02 +8.852377E+00 -4.677094E+00 +8.852377E+00 +3.897998E+02 -1.090677E+01 -4.677094E+00 -1.090677E+01 +9.444500E+02 
 +3.805455E+02 +7.793581E+00 +1.990023E+01 +7.793581E+00 +3.939982E+02 -1.484374E+01 +1.990023E+01 -1.484374E+01 +9.497337E+02 
 +3.793738E+02 +3.352276E+00 +5.434353E+00 +3.352276E+00 +4.034269E+02 -4.596911E+00 +5.434353E+00 -4.596911E+00 +9.569033E+02 
 +3.445545E+02 +9.139838E+00 -3.428275E+00 +9.139838E+00 +3.795003E+02 +8.088951E+00 -3.428275E+00 +8.088951E+00 +9.553277E+02 
 +3.468566E+02 -9.976505E+00 -8.776912E+00 -9.976505E+00 +3.623099E+02 +1.378816E+01 -8.776912E+00 +1.378816E+01 +9.613545E+02 
 +3.289848E+02 -9.607416E+00 -1.076478E+01 -9.607416E+00 +3.337532E+02 +1.392356E+01 -1.076478E+01 +1.392356E+01 +9.410586E+02 
 +3.284319E+02 -8.024796E+00 -6.083518E+00 -8.024796E+00 +3.235901E+02 +6.168900E+00 -6.083518E+00 +6.168900E+00 +9.174422E+02 
 +3.475221E+02 -1.358619E+01 -6.551783E+00 -1.358619E+01 +3.384793E+02 +2.467025E+00 -6.551783E+00 +2.467025E+00 +9.186887E+02 
 +3.592308E+02 -1.395206E+01 -3.024092E+00 -1.395206E+01 +3.550549E+02 -2.334244E+00 -3.024092E+00 -2.334244E+00 +9.297304E+02 
 +3.710504E+02 -1.062426E+01 -2.719378E+00 -1.062426E+01 +3.692595E+02 -8.169179E+00 -2.719378E+00 -8.169179E+00 +9.377957E+02 
 +3.726974E+02 -7.140582E+00 -1.854904E+00 -7.140582E+00 +3.758584E+02 -9.810120E+00 -1.854904E+00 -9.810120E+00 +9.316841E+02 
 +3.766285E+02 +1.304515E+00 -1.225114E+01 +1.304515E+00 +3.879504E+02 -4.607330E+00 -1.225114E+01 -4.607330E+00 +9.353009E+02 
 +3.741770E+02 +1.056793E+01 +3.042238E-01 +1.056793E+01 +3.934138E+02 -4.652120E+00 +3.042238E-01 -4.652120E+00 +9.536705E+02 
 +3.613661E+02 +9.161998E+00 +1.759507E+00 +9.161998E+00 +3.802406E+02 -6.548000E+00 +1.759507E+00 -6.548000E+00 +9.626633E+02 
 +3.621274E+02 +9.288222E+00 +8.353473E+00 +9.288222E+00 +3.769869E+02 -8.733682E+00 +8.353473E+00 -8.733682E+00 +9.596046E+02 
 +3.738227E+02 +1.040716E+00 -5.530042E+00 +1.040716E+00 +3.857563E+02 -6.805805E+00 -5.530042E+00 -6.805805E+00 +9.488074E+02 
 +3.504209E+02 +1.353755E+01 +2.356674E+00 +1.353755E+01 +3.668310E+02 -6.894988E+00 +2.356674E+00 -6.894988E+00 +9.325985E+02 
 +3.812372E+02 +3.220496E+00 -1.763569E+01 +3.220496E+00 +3.808718E+02 -6.444195E+00 -1.763569E+01 -6.444195E+00 +9.390679E+02 
 +3.872705E+02 +5.490087E+00 -9.164206E+00 +5.490087E+00 +3.819834E+02 -5.860583E+00 -9.164206E+00 -5.860583E+00 +9.385389E+02 
 +3.942946E+02 +6.792243E+00 -8.076643E+00 +6.792243E+00 +3.834046E+02 -3.939427E+00 -8.076643E+00 -3.939427E+00 +9.422042E+02 
 +4.023314E+02 +8.210744E+00 -6.815351E+00 +8.210744E+00 +3.920492E+02 -4.333236E+00 -6.815351E+00 -4.333236E+00 +9.513092E+02 
 +4.066736E+02 +6.260203E+00 -8.622649E-01 +6.260203E+00 +4.074765E+02 -4.572224E+00 -8.622649E-01 -4.572224E+00 +9.746121E+02 
 +3.982826E+02 +2.587332E+00 +2.239605E+01 +2.587332E+00 +4.027221E+02 -4.288934E+00 +2.239605E+01 -4.288934E+00 +9.813192E+02 
 +3.761501E+02 -1.231572E+01 +1.407675E+01 -1.231572E+01 +3.836937E+02 -6.543050E+00 +1.407675E+01 -6.543050E+00 +9.763506E+02 
 +3.350746E+02 -1.504864E+01 +1.615841E+00 -1.504864E+01 +3.508506E+02 -7.378906E+00 +1.615841E+00 -7.378906E+00 +9.649957E+02 
 +3.288724E+02 -1.850358E+01 -8.960454E+00 -1.850358E+01 +3.461599E+02 -4.135962E+00 -8.960454E+00 -4.135962E+00 +9.637234E+02 
 +3.212058E+02 -6.657501E+00 -1.738799E+01 -6.657501E+00 +3.576141E+02 -3.642913E+00 -1.738799E+01 -3.642913E+00 +9.507504E+02 
 +3.298899E+02 -9.751322E-01 -1.316603E+01 -9.751322E-01 +3.608830E+02 -6.312474E+00 -1.316603E+01 -6.312474E+00 +9.278887E+02 
 +3.802660E+02 +1.082340E+00 -2.099572E+01 +1.082340E+00 +3.846762E+02 -9.061644E+00 -2.099572E+01 -9.061644E+00 +9.385617E+02 
 +3.923595E+02 +4.203415E+00 -1.085094E+01 +4.203415E+00 +4.071467E+02 -1.277607E+01 -1.085094E+01 -1.277607E+01 +9.459685E+02 
 +3.930891E+02 -2.686486E-01 -1.451184E+01 -2.686486E-01 +4.091843E+02 -1.091846E+01 -1.451184E+01 -1.091846E+01 +9.390174E+02 
 +3.894042E+02 +2.791415E+00 -1.278077E+01 +2.791415E+00 +3.979750E+02 -6.966577E+00 -1.278077E+01 -6.966577E+00 +9.289709E+02 
 +3.876626E+02 +7.900761E+00 -1.711384E+01 +7.900761E+00 +3.974370E+02 -2.784670E+00 -1.711384E+01 -2.784670E+00 +9.286924E+02 
 +3.770306E+02 +1.267221E+01 -8.790324E+00 +1.267221E+01 +3.912568E+02 -4.553523E+00 -8.790324E+00 -4.553523E+00 +9.401919E+02 
 +3.668009E+02 +1.004444E+01 +5.896737E+00 +1.004444E+01 +3.860615E+02 -9.225761E+00 +5.896737E+00 -9.225761E+00 +9.616827E+02 
 +3.575350E+02 +1.470468E+01 +8.406722E+00 +1.470468E+01 +3.688799E+02 -1.921935E+00 +8.406722E+00 -1.921935E+00 +9.605099E+02 
 +3.458008E+02 +9.918283E+00 +1.597605E+00 +9.918283E+00 +3.500642E+02 +6.648925E+00 +1.597605E+00 +6.648925E+00 +9.426361E+02 
 +3.473435E+02 +1.342767E+01 +2.661027E+00 +1.342767E+01 +3.572615E+02 +7.619468E-01 +2.661027E+00 +7.619468E-01 +9.352959E+02 
 +3.628090E+02 -8.981679E-01 -1.561316E+01 -8.981679E-01 +3.672036E+02 -7.831499E+00 -1.561316E+01 -7.831499E+00 +9.325160E+02 
 +3.895587E+02 -8.653668E-01 -8.794492E+00 -8.653668E-01 +3.827663E+02 -8.099256E+00 -8.794492E+00 -8.099256E+00 +9.402647E+02 
 +3.922253E+02 +1.883138E+00 -1.036999E+01 +1.883138E+00 +3.791249E+02 -4.236419E+00 -1.036999E+01 -4.236419E+00 +9.304647E+02 
 +3.989998E+02 +3.086314E+00 -8.861819E+00 +3.086314E+00 +3.794405E+02 -4.545633E+00 -8.861819E+00 -4.545633E+00 +9.467706E+02 
 +3.864220E+02 -4.789201E+00 +5.008035E+00 -4.789201E+00 +3.659896E+02 -1.177523E+01 +5.008035E+00 -1.177523E+01 +9.811222E+02 
 +3.803485E+02 -1.000550E+01 +2.098342E+01 -1.000550E+01 +3.614646E+02 -1.572450E+01 +2.098342E+01 -1.572450E+01 +9.871826E+02 
 +3.745400E+02 -1.468850E+01 +2.126092E+01 -1.468850E+01 +3.694173E+02 -1.339508E+01 +2.126092E+01 -1.339508E+01 +9.854168E+02 
 +3.673366E+02 -1.477702E+01 +1.143429E+01 -1.477702E+01 +3.724111E+02 -6.726990E+00 +1.143429E+01 -6.726990E+00 +9.914084E+02 
 +3.384057E+02 -1.191884E+01 -4.387293E+00 -1.191884E+01 +3.670323E+02 -5.301818E+00 -4.387293E+00 -5.301818E+00 +9.794731E+02 
 +3.216634E+02 -4.810345E+00 -1.466058E+01 -4.810345E+00 +3.650579E+02 -5.268521E+00 -1.466058E+01 -5.268521E+00 +9.596641E+02 
 +3.247828E+02 -2.402929E+00 -1.001935E+01 -2.402929E+00 +3.588878E+02 -8.679288E+00 -1.001935E+01 -8.679288E+00 +9.341675E+02 
 +3.742931E+02 -1.899881E+00 -2.775355E+01 -1.899881E+00 +3.667209E+02 -8.732139E+00 -2.775355E+01 -8.732139E+00 +9.431991E+02 
 +3.767491E+02 +1.084230E+01 -1.387050E+01 +1.084230E+01 +3.635846E+02 -1.156252E+01 -1.387050E+01 -1.156252E+01 +9.404045E+02 
 +3.884487E+02 +8.293272E-01 -2.103661E+01 +8.293272E-01 +3.913945E+02 -7.448204E+00 -2.103661E+01 -7.448204E+00 +9.394878E+02 
 +3.899898E+02 +3.049458E+00 -2.066062E+01 +3.049458E+00 +3.927925E+02 -2.574850E+00 -2.066062E+01 -2.574850E+00 +9.365063E+02 
 +3.853986E+02 +1.209520E+01 -1.759473E+01 +1.209520E+01 +3.837051E+02 -1.764716E+00 -1.759473E+01 -1.764716E+00 +9.318101E+02 
 +3.851176E+02 +1.556515E+01 -1.362039E+01 +1.556515E+01 +3.901558E+02 -2.778217E+00 -1.362039E+01 -2.778217E+00 +9.427328E+02 
 +3.651577E+02 +1.158066E+01 +1.753182E+01 +1.158066E+01 +3.780911E+02 -4.657758E+00 +1.753182E+01 -4.657758E+00 +9.548985E+02 
 +3.548029E+02 +1.125663E+01 +9.303892E+00 +1.125663E+01 +3.688619E+02 -1.378481E+00 +9.303892E+00 -1.378481E+00 +9.590703E+02 
 +3.307154E+02 +6.309899E+00 +5.045845E+00 +6.309899E+00 +3.568061E+02 +2.683156E+00 +5.045845E+00 +2.683156E+00 +9.509841E+02 
 +3.387983E+02 +1.228795E+01 -2.168376E+00 +1.228795E+01 +3.566516E+02 -2.454110E+00 -2.168376E+00 -2.454110E+00 +9.408241E+02 
 +3.530172E+02 -1.115509E+00 -7.242084E+00 -1.115509E+00 +3.614217E+02 -1.046818E+01 -7.242084E+00 -1.046818E+01 +9.468840E+02 
 +3.805770E+02 -3.283071E+00 -8.040742E+00 -3.283071E+00 +3.649408E+02 -4.527352E+00 -8.040742E+00 -4.527352E+00 +9.395514E+02 
 +3.980712E+02 +3.682733E+00 -9.259985E+00 +3.682733E+00 +3.687276E+02 -1.838532E+00 -9.259985E+00 -1.838532E+00 +9.248924E+02 
 +4.019810E+02 +5.905443E+00 -4.482372E+00 +5.905443E+00 +3.777420E+02 -4.413708E-01 -4.482372E+00 -4.413708E-01 +9.525910E+02 
 +3.870504E+02 -6.279712E-01 +7.289465E+00 -6.279712E-01 +3.776911E+02 -4.754618E+00 +7.289465E+00 -4.754618E+00 +9.928015E+02 
 +3.979346E+02 +1.093132E+00 +1.627822E+01 +1.093132E+00 +3.884041E+02 -7.835013E+00 +1.627822E+01 -7.835013E+00 +1.006656E+03 
 +4.021258E+02 -1.068474E+01 +2.609374E+01 -1.068474E+01 +3.892004E+02 -8.077648E+00 +2.609374E+01 -8.077648E+00 +9.990650E+02 
 +3.794580E+02 -1.583975E+01 +1.148427E+01 -1.583975E+01 +3.805571E+02 -7.118023E+00 +1.148427E+01 -7.118023E+00 +9.944265E+02 
 +3.378343E+02 -8.969399E+00 -7.676358E+00 -8.969399E+00 +3.676481E+02 -4.930308E+00 -7.676358E+00 -4.930308E+00 +9.809830E+02 
 +3.208198E+02 -2.694869E+00 -1.475314E+01 -2.694869E+00 +3.606355E+02 -2.498423E+00 -1.475314E+01 -2.498423E+00 +9.629185E+02 
 +3.256241E+02 -1.177714E+00 -9.309078E+00 -1.177714E+00 +3.545953E+02 -2.971066E+00 -9.309078E+00 -2.971066E+00 +9.432258E+02 
 +3.742072E+02 -5.156900E+00 -2.975770E+01 -5.156900E+00 +3.680733E+02 +2.112286E-01 -2.975770E+01 +2.112286E-01 +9.542394E+02 
 +3.739944E+02 +1.458237E+01 -1.460765E+01 +1.458237E+01 +3.436476E+02 -4.751716E+00 -1.460765E+01 -4.751716E+00 +9.449073E+02 
 +3.718200E+02 +1.412994E+01 -1.568123E+01 +1.412994E+01 +3.394585E+02 -5.202324E+00 -1.568123E+01 -5.202324E+00 +9.351763E+02 
 +3.735385E+02 +5.987645E+00 -2.196420E+01 +5.987645E+00 +3.651027E+02 -2.931090E+00 -2.196420E+01 -2.931090E+00 +9.355778E+02 
 +3.807331E+02 +1.176329E+01 -1.685616E+01 +1.176329E+01 +3.790267E+02 -3.953025E+00 -1.685616E+01 -3.953025E+00 +9.348056E+02 
 +3.859771E+02 +1.135871E+01 -1.486132E+01 +1.135871E+01 +3.896320E+02 -1.395441E+00 -1.486132E+01 -1.395441E+00 +9.462407E+02 
 +3.604349E+02 -2.822232E+00 +2.039794E+01 -2.822232E+00 +3.872970E+02 -9.549957E+00 +2.039794E+01 -9.549957E+00 +9.468350E+02 
 +3.430619E+02 -5.303929E+00 +9.155623E+00 -5.303929E+00 +3.812782E+02 -1.705622E+01 +9.155623E+00 -1.705622E+01 +9.414430E+02 
 +3.359936E+02 -4.105711E+00 +3.974702E+00 -4.105711E+00 +3.781833E+02 -1.561022E+01 +3.974702E+00 -1.561022E+01 +9.399382E+02 
 +3.420836E+02 +3.075875E+00 -2.786472E+00 +3.075875E+00 +3.709793E+02 -1.224873E+01 -2.786472E+00 -1.224873E+01 +9.431055E+02 
 +3.490207E+02 +5.310623E+00 -2.414011E+00 +5.310623E+00 +3.572014E+02 -7.061226E+00 -2.414011E+00 -7.061226E+00 +9.538028E+02 
 +3.602391E+02 +3.198779E-01 -3.257792E+00 +3.198779E-01 +3.479348E+02 +6.671149E-01 -3.257792E+00 +6.671149E-01 +9.366022E+02 
 +4.018699E+02 +3.673400E+00 -6.108704E+00 +3.673400E+00 +3.557629E+02 +7.322573E+00 -6.108704E+00 +7.322573E+00 +9.360721E+02 
 +3.926894E+02 +9.148494E-01 -2.884322E+00 +9.148494E-01 +3.541401E+02 +1.028281E+00 -2.884322E+00 +1.028281E+00 +9.644321E+02 
 +3.954852E+02 -1.573537E-01 +4.880891E+00 -1.573537E-01 +3.770911E+02 -2.944677E+00 +4.880891E+00 -2.944677E+00 +1.001670E+03 
 +3.999816E+02 +1.443166E+00 +1.219839E+01 +1.443166E+00 +3.902243E+02 -3.701462E+00 +1.219839E+01 -3.701462E+00 +1.007089E+03 
 +4.126591E+02 -7.195046E+00 +2.450103E+01 -7.195046E+00 +3.975369E+02 -5.372407E+00 +2.450103E+01 -5.372407E+00 +9.982685E+02 
 +3.924128E+02 -7.840812E+00 +1.402662E+01 -7.840812E+00 +3.935173E+02 -4.464374E+00 +1.402662E+01 -4.464374E+00 +9.918596E+02 
 +3.408846E+02 -1.118775E+00 -2.858956E+00 -1.118775E+00 +3.722658E+02 -1.479158E+00 -2.858956E+00 -1.479158E+00 +9.805794E+02 
 +3.281645E+02 -8.033081E-01 -1.061840E+01 -8.033081E-01 +3.647348E+02 +1.650270E+00 -1.061840E+01 +1.650270E+00 +9.693291E+02 
 +3.292238E+02 -1.419313E+00 -9.332368E+00 -1.419313E+00 +3.555035E+02 +7.281712E-01 -9.332368E+00 +7.281712E-01 +9.523085E+02 
 +3.831244E+02 -5.067034E+00 -2.773308E+01 -5.067034E+00 +3.748299E+02 +5.333120E+00 -2.773308E+01 +5.333120E+00 +9.623865E+02 
 +3.803867E+02 +9.829175E+00 -1.553213E+01 +9.829175E+00 +3.560683E+02 +1.078767E+00 -1.553213E+01 +1.078767E+00 +9.501029E+02 
 +3.678408E+02 +1.682203E+01 -1.338962E+01 +1.682203E+01 +3.425660E+02 -5.162687E+00 -1.338962E+01 -5.162687E+00 +9.397263E+02 
 +3.646466E+02 +6.792090E+00 -1.861345E+01 +6.792090E+00 +3.582686E+02 -4.629798E+00 -1.861345E+01 -4.629798E+00 +9.349177E+02 
 +3.728078E+02 +6.961492E+00 -1.390242E+01 +6.961492E+00 +3.764927E+02 -2.477873E+00 -1.390242E+01 -2.477873E+00 +9.312845E+02 
 +3.725647E+02 +1.020991E+01 -1.443051E+01 +1.020991E+01 +3.833425E+02 +1.700809E+00 -1.443051E+01 +1.700809E+00 +9.396371E+02 
 +3.425255E+02 -2.684551E+00 +1.999886E+01 -2.684551E+00 +3.740300E+02 -9.098388E+00 +1.999886E+01 -9.098388E+00 +9.407754E+02 
 +3.377315E+02 -8.485827E-01 +1.432848E+01 -8.485827E-01 +3.703183E+02 -1.837661E+01 +1.432848E+01 -1.837661E+01 +9.396392E+02 
 +3.371748E+02 +3.546148E+00 +3.892851E+00 +3.546148E+00 +3.645158E+02 -1.778988E+01 +3.892851E+00 -1.778988E+01 +9.355695E+02 
 +3.421039E+02 +5.713346E+00 -1.819447E+00 +5.713346E+00 +3.609467E+02 -1.433169E+01 -1.819447E+00 -1.433169E+01 +9.440099E+02 
 +3.539159E+02 -6.112391E-01 +1.555830E+00 -6.112391E-01 +3.618970E+02 -1.028673E+01 +1.555830E+00 -1.028673E+01 +9.433362E+02 
 +3.553025E+02 +1.257893E+00 +5.254912E+00 +1.257893E+00 +3.581510E+02 -4.305799E-01 +5.254912E+00 -4.305799E-01 +9.194165E+02 
 +3.873202E+02 -1.748275E-01 -9.398674E-02 -1.748275E-01 +3.607663E+02 -8.458040E-02 -9.398674E-02 -8.458040E-02 +9.239839E+02 
 +3.846153E+02 +1.192082E+00 -7.188326E+00 +1.192082E+00 +3.428326E+02 -1.032276E+00 -7.188326E+00 -1.032276E+00 +9.553190E+02 
 +3.950637E+02 +9.711184E+00 +1.316934E+00 +9.711184E+00 +3.632442E+02 -3.556219E+00 +1.316934E+00 -3.556219E+00 +9.866979E+02 
 +4.087609E+02 +2.886533E+00 +1.222857E+01 +2.886533E+00 +3.874910E+02 -3.050963E+00 +1.222857E+01 -3.050963E+00 +9.895670E+02 
 +4.069731E+02 -2.470512E+00 +2.006620E+01 -2.470512E+00 +3.831652E+02 -9.199857E-01 +2.006620E+01 -9.199857E-01 +9.718881E+02 
 +4.036060E+02 -3.878700E-01 +1.794050E+01 -3.878700E-01 +3.957821E+02 -1.403864E+00 +1.794050E+01 -1.403864E+00 +9.808014E+02 
 +3.539366E+02 +5.177384E+00 +6.015961E+00 +5.177384E+00 +3.848092E+02 -6.285329E-01 +6.015961E+00 -6.285329E-01 +9.869117E+02 
 +3.233225E+02 +3.164364E+00 -5.031799E+00 +3.164364E+00 +3.611041E+02 +2.249461E+00 -5.031799E+00 +2.249461E+00 +9.796455E+02 
 +3.272680E+02 -1.618229E+00 -8.513264E+00 -1.618229E+00 +3.496323E+02 -1.284452E+00 -8.513264E+00 -1.284452E+00 +9.666767E+02 
 +3.879544E+02 -5.261023E+00 -2.783909E+01 -5.261023E+00 +3.829204E+02 +2.566935E-01 -2.783909E+01 +2.566935E-01 +9.703550E+02 
 +3.863176E+02 +1.487390E+00 -1.924091E+01 +1.487390E+00 +3.939017E+02 -6.061831E+00 -1.924091E+01 -6.061831E+00 +9.560720E+02 
 +3.755151E+02 +9.583721E+00 -1.563615E+01 +9.583721E+00 +3.840811E+02 -1.123523E+01 -1.563615E+01 -1.123523E+01 +9.442409E+02 
 +3.690964E+02 +8.349784E+00 -1.425167E+01 +8.349784E+00 +3.705979E+02 -7.293830E+00 -1.425167E+01 -7.293830E+00 +9.325684E+02 
 +3.657503E+02 +5.954688E+00 -9.693181E+00 +5.954688E+00 +3.715188E+02 -1.132685E+00 -9.693181E+00 -1.132685E+00 +9.250840E+02 
 +3.600379E+02 +1.055776E+01 -9.115687E+00 +1.055776E+01 +3.732087E+02 +4.953686E+00 -9.115687E+00 +4.953686E+00 +9.239930E+02 
 +3.433597E+02 +1.891860E-01 +1.673462E+01 +1.891860E-01 +3.677860E+02 -4.644224E+00 +1.673462E+01 -4.644224E+00 +9.333243E+02 
 +3.428190E+02 +7.047037E-01 +1.307615E+01 +7.047037E-01 +3.682680E+02 -1.484678E+01 +1.307615E+01 -1.484678E+01 +9.430976E+02 
 +3.384922E+02 +8.631009E-01 +1.143859E+00 +8.631009E-01 +3.613032E+02 -1.568223E+01 +1.143859E+00 -1.568223E+01 +9.404086E+02 
 +3.441841E+02 -6.897119E-01 -3.017607E+00 -6.897119E-01 +3.615496E+02 -1.751880E+01 -3.017607E+00 -1.751880E+01 +9.480223E+02 
 +3.644370E+02 +5.748020E+00 +9.796091E+00 +5.748020E+00 +3.649145E+02 -1.490466E+01 +9.796091E+00 -1.490466E+01 +9.305560E+02 
 +3.597296E+02 +9.825576E+00 +1.202846E+01 +9.825576E+00 +3.581533E+02 -8.968074E+00 +1.202846E+01 -8.968074E+00 +9.036874E+02 
 +3.688329E+02 +6.722337E+00 +5.660447E+00 +6.722337E+00 +3.665812E+02 -9.248318E+00 +5.660447E+00 -9.248318E+00 +9.024529E+02 
 +3.957662E+02 +5.802061E+00 -5.373088E+00 +5.802061E+00 +3.774305E+02 -6.015434E+00 -5.373088E+00 -6.015434E+00 +9.410944E+02 
 +3.997029E+02 +2.312591E+01 -1.958743E+00 +2.312591E+01 +3.627859E+02 -2.996227E+00 -1.958743E+00 -2.996227E+00 +9.740706E+02 
 +3.956445E+02 +1.232585E+01 +1.352921E+01 +1.232585E+01 +3.572726E+02 -2.260771E+00 +1.352921E+01 -2.260771E+00 +9.685462E+02 
 +3.882830E+02 -3.241194E+00 +1.486368E+01 -3.241194E+00 +3.622096E+02 +4.012835E-01 +1.486368E+01 +4.012835E-01 +9.560103E+02 
 +3.997647E+02 -9.143449E-01 +1.637739E+01 -9.143449E-01 +3.801786E+02 -1.137383E+00 +1.637739E+01 -1.137383E+00 +9.731127E+02 
 +3.875828E+02 +7.108143E-01 +1.360950E+01 +7.108143E-01 +3.812019E+02 -5.830495E-01 +1.360950E+01 -5.830495E-01 +9.922249E+02 
 +3.292370E+02 +1.258084E+01 +9.195472E-01 +1.258084E+01 +3.573379E+02 -6.818269E+00 +9.195472E-01 -6.818269E+00 +9.906309E+02 
 +3.139745E+02 +7.619756E+00 -3.516149E+00 +7.619756E+00 +3.485757E+02 -1.231695E+01 -3.516149E+00 -1.231695E+01 +9.758467E+02 
 +3.568618E+02 +4.874430E+00 -2.561784E+01 +4.874430E+00 +3.678486E+02 -1.020923E+01 -2.561784E+01 -1.020923E+01 +9.653040E+02 
 +3.612090E+02 +7.163282E+00 -2.019651E+01 +7.163282E+00 +3.747116E+02 -1.128415E+01 -2.019651E+01 -1.128415E+01 +9.490641E+02 
 +3.636126E+02 +1.080924E+01 -1.569236E+01 +1.080924E+01 +3.750352E+02 -1.000403E+01 -1.569236E+01 -1.000403E+01 +9.355003E+02 
 +3.632595E+02 +1.049358E+01 -1.183525E+01 +1.049358E+01 +3.724478E+02 -7.719308E+00 -1.183525E+01 -7.719308E+00 +9.262591E+02 
 +3.592949E+02 +7.802202E+00 -6.620923E+00 +7.802202E+00 +3.701063E+02 -3.341078E+00 -6.620923E+00 -3.341078E+00 +9.180942E+02 
 +3.594091E+02 +1.205954E+01 -9.166202E+00 +1.205954E+01 +3.713474E+02 -5.424520E-01 -9.166202E+00 -5.424520E-01 +9.100350E+02 
 +3.445305E+02 -1.055120E+00 +9.094328E+00 -1.055120E+00 +3.668719E+02 -1.151074E+01 +9.094328E+00 -1.151074E+01 +9.219499E+02 
 +3.434577E+02 -3.086966E+00 +3.853420E+00 -3.086966E+00 +3.672784E+02 -2.412190E+01 +3.853420E+00 -2.412190E+01 +9.440485E+02 
 +3.421268E+02 -1.788083E+00 +1.293661E+00 -1.788083E+00 +3.589072E+02 -2.149326E+01 +1.293661E+00 -2.149326E+01 +9.424594E+02 
 +3.401954E+02 +4.300833E+00 -1.138519E-01 +4.300833E+00 +3.529077E+02 -1.854223E+01 -1.138519E-01 -1.854223E+01 +9.392741E+02 
 +3.636330E+02 +6.964169E+00 +1.893063E+01 +6.964169E+00 +3.525979E+02 -2.269765E+01 +1.893063E+01 -2.269765E+01 +9.225012E+02 
 +3.614039E+02 +7.723961E+00 +1.620019E+01 +7.723961E+00 +3.522067E+02 -1.440645E+01 +1.620019E+01 -1.440645E+01 +9.051342E+02 
 +3.701092E+02 +9.965307E+00 +1.283258E+01 +9.965307E+00 +3.668447E+02 -1.319553E+01 +1.283258E+01 -1.319553E+01 +8.994460E+02 
 +3.886240E+02 +3.919270E+00 +1.646537E+00 +3.919270E+00 +3.814866E+02 -1.086477E+01 +1.646537E+00 -1.086477E+01 +9.112483E+02 
 +3.963739E+02 +1.659440E+01 +1.135463E+00 +1.659440E+01 +3.710389E+02 -5.546919E+00 +1.135463E+00 -5.546919E+00 +9.477509E+02 
 +3.829324E+02 +1.242542E+01 +1.441284E+01 +1.242542E+01 +3.445865E+02 -2.577895E+00 +1.441284E+01 -2.577895E+00 +9.555294E+02 
 +3.840871E+02 +7.484298E+00 +9.178123E+00 +7.484298E+00 +3.417805E+02 -1.772854E+00 +9.178123E+00 -1.772854E+00 +9.595772E+02 
 +3.869417E+02 +1.833036E+01 +9.792406E+00 +1.833036E+01 +3.535069E+02 +1.670091E+00 +9.792406E+00 +1.670091E+00 +9.709651E+02 
 +3.756452E+02 -1.083313E-01 +1.610631E+01 -1.083313E-01 +3.563262E+02 +1.819926E+00 +1.610631E+01 +1.819926E+00 +9.783418E+02 
 +3.199613E+02 -7.375180E+00 +8.239645E+00 -7.375180E+00 +3.352476E+02 -8.279991E+00 +8.239645E+00 -8.279991E+00 +9.748692E+02 
 +3.147992E+02 -1.305639E+01 -5.236154E-01 -1.305639E+01 +3.433388E+02 -1.334662E+01 -5.236154E-01 -1.334662E+01 +9.669819E+02 
 +3.448112E+02 +4.575525E+00 -2.144244E+01 +4.575525E+00 +3.682039E+02 -1.457003E+01 -2.144244E+01 -1.457003E+01 +9.650538E+02 
 +3.453563E+02 +9.096338E+00 -1.835878E+01 +9.096338E+00 +3.690538E+02 -1.613327E+01 -1.835878E+01 -1.613327E+01 +9.600366E+02 
 +3.524307E+02 +1.046764E+01 -1.399758E+01 +1.046764E+01 +3.670186E+02 -1.388972E+01 -1.399758E+01 -1.388972E+01 +9.425395E+02 
 +3.576282E+02 +1.292808E+01 -5.188204E+00 +1.292808E+01 +3.712195E+02 -1.040191E+01 -5.188204E+00 -1.040191E+01 +9.239056E+02 
 +3.559475E+02 +1.270668E+01 -8.062827E+00 +1.270668E+01 +3.765966E+02 -6.561385E+00 -8.062827E+00 -6.561385E+00 +9.108063E+02 
 +3.489984E+02 +9.052396E+00 -2.191572E+01 +9.052396E+00 +3.695012E+02 -5.416993E+00 -2.191572E+01 -5.416993E+00 +9.018364E+02 
 +3.417310E+02 -7.288153E+00 -7.204919E+00 -7.288153E+00 +3.587771E+02 -1.558961E+01 -7.204919E+00 -1.558961E+01 +9.193175E+02 
 +3.511165E+02 -6.525171E+00 -1.128948E+01 -6.525171E+00 +3.579183E+02 -2.725723E+01 -1.128948E+01 -2.725723E+01 +9.549761E+02 
 +3.533241E+02 -1.534084E+00 -5.145081E+00 -1.534084E+00 +3.521066E+02 -2.613814E+01 -5.145081E+00 -2.613814E+01 +9.610516E+02 
 +3.468285E+02 +6.617187E+00 +2.084602E+00 +6.617187E+00 +3.465458E+02 -2.559672E+01 +2.084602E+00 -2.559672E+01 +9.441412E+02 
 +3.588747E+02 +8.888743E+00 +2.118079E+01 +8.888743E+00 +3.436464E+02 -2.287907E+01 +2.118079E+01 -2.287907E+01 +9.214177E+02 
 +3.591580E+02 +8.378323E+00 +2.403873E+01 +8.378323E+00 +3.474594E+02 -2.204509E+01 +2.403873E+01 -2.204509E+01 +9.070506E+02 
 +3.880523E+02 +1.465364E+01 +2.038263E+01 +1.465364E+01 +3.762906E+02 -1.437485E+01 +2.038263E+01 -1.437485E+01 +9.225027E+02 
 +4.183615E+02 +4.704899E+00 +5.813779E+00 +4.704899E+00 +4.195691E+02 -1.900194E+01 +5.813779E+00 -1.900194E+01 +9.407305E+02 
 +4.190058E+02 +8.844965E+00 +3.792528E+00 +8.844965E+00 +4.143980E+02 -1.497607E+01 +3.792528E+00 -1.497607E+01 +9.486761E+02 
 +3.989739E+02 +1.611386E+01 +9.985696E+00 +1.611386E+01 +3.618960E+02 -4.515889E+00 +9.985696E+00 -4.515889E+00 +9.476166E+02 
 +3.799017E+02 +1.527547E+01 +4.546093E+00 +1.527547E+01 +3.345517E+02 -5.396265E+00 +4.546093E+00 -5.396265E+00 +9.536404E+02 
 +3.599551E+02 +1.713869E+01 +4.692561E+00 +1.713869E+01 +3.426008E+02 -9.859344E-01 +4.692561E+00 -9.859344E-01 +9.618583E+02 
 +3.289033E+02 -1.167112E+01 +1.279216E+01 -1.167112E+01 +3.472021E+02 -6.661604E-01 +1.279216E+01 -6.661604E-01 +9.616549E+02 
 +3.266167E+02 -1.068037E+01 +9.765956E+00 -1.068037E+01 +3.507236E+02 -9.994655E+00 +9.765956E+00 -9.994655E+00 +9.643280E+02 
 +3.373162E+02 -1.420185E+01 +7.762697E-01 -1.420185E+01 +3.626502E+02 -1.043591E+01 +7.762697E-01 -1.043591E+01 +9.617532E+02 
 +3.412661E+02 -1.173340E+01 -1.048417E+01 -1.173340E+01 +3.737030E+02 -5.667692E+00 -1.048417E+01 -5.667692E+00 +9.622145E+02 
 +3.446337E+02 -9.828009E+00 -8.712583E+00 -9.828009E+00 +3.795609E+02 -1.139251E+00 -8.712583E+00 -1.139251E+00 +9.633991E+02 
 +3.628533E+02 +7.258344E-01 -9.654787E+00 +7.258344E-01 +3.900745E+02 +7.941620E+00 -9.654787E+00 +7.941620E+00 +9.448381E+02 
 +3.528046E+02 +2.261430E+00 -2.781448E+00 +2.261430E+00 +3.741294E+02 +6.032476E+00 -2.781448E+00 +6.032476E+00 +9.128718E+02 
 +3.587363E+02 +7.764825E+00 -1.363992E+01 +7.764825E+00 +3.790446E+02 -2.167188E+00 -1.363992E+01 -2.167188E+00 +9.133272E+02 
 +3.575923E+02 +2.898249E+00 -2.752495E+01 +2.898249E+00 +3.771349E+02 -1.904346E+00 -2.752495E+01 -1.904346E+00 +9.205601E+02 
 +3.565846E+02 -3.167847E+00 -1.865368E+01 -3.167847E+00 +3.537452E+02 +9.859927E-02 -1.865368E+01 +9.859927E-02 +9.342943E+02 
 +3.538674E+02 +4.391726E-01 -1.461946E+01 +4.391726E-01 +3.425334E+02 +6.188564E+00 -1.461946E+01 +6.188564E+00 +9.570102E+02 
 +3.523551E+02 +3.327133E+00 -1.017734E+01 +3.327133E+00 +3.423362E+02 +1.239315E+01 -1.017734E+01 +1.239315E+01 +9.633405E+02 
 +3.509515E+02 +8.824123E+00 -1.339612E+00 +8.824123E+00 +3.389991E+02 +1.491514E+00 -1.339612E+00 +1.491514E+00 +9.474068E+02 
 +3.490901E+02 +6.380955E+00 +6.165068E+00 +6.380955E+00 +3.310495E+02 -2.066849E+00 +6.165068E+00 -2.066849E+00 +9.231526E+02 
 +3.626420E+02 +9.623948E+00 +2.237699E+01 +9.623948E+00 +3.451358E+02 -1.975726E+01 +2.237699E+01 -1.975726E+01 +9.156001E+02 
 +3.958682E+02 +1.325043E+01 +2.769652E+01 +1.325043E+01 +3.710928E+02 -1.244374E+01 +2.769652E+01 -1.244374E+01 +9.443437E+02 
 +3.929151E+02 +1.607627E+00 +1.144060E+01 +1.607627E+00 +3.471514E+02 -2.546516E+00 +1.144060E+01 -2.546516E+00 +9.541669E+02 
 +3.927988E+02 -1.724878E+00 +5.216202E+00 -1.724878E+00 +3.410122E+02 -5.748720E+00 +5.216202E+00 -5.748720E+00 +9.520737E+02 
 +4.042583E+02 -3.021536E+00 +9.052191E+00 -3.021536E+00 +3.707598E+02 -1.148530E+01 +9.052191E+00 -1.148530E+01 +9.609167E+02 
 +3.611742E+02 -8.443323E+00 +1.134656E+01 -8.443323E+00 +3.649118E+02 -1.452762E+01 +1.134656E+01 -1.452762E+01 +9.585002E+02 
 +3.368746E+02 -4.336299E+00 +1.036188E+01 -4.336299E+00 +3.499379E+02 -8.881542E+00 +1.036188E+01 -8.881542E+00 +9.579466E+02 
 +3.171793E+02 -1.759819E+01 +1.129025E+01 -1.759819E+01 +3.395197E+02 -5.024337E+00 +1.129025E+01 -5.024337E+00 +9.538378E+02 
 +3.314641E+02 -1.748785E+01 +6.976752E+00 -1.748785E+01 +3.534169E+02 -8.191808E+00 +6.976752E+00 -8.191808E+00 +9.588605E+02 
 +3.350933E+02 -1.788582E+01 +2.728311E+00 -1.788582E+01 +3.608477E+02 -8.567401E+00 +2.728311E+00 -8.567401E+00 +9.548171E+02 
 +3.295255E+02 -1.177237E+01 +1.073127E+00 -1.177237E+01 +3.713750E+02 -7.489681E+00 +1.073127E+00 -7.489681E+00 +9.517054E+02 
 +3.452513E+02 -9.203692E+00 +2.305822E+00 -9.203692E+00 +3.847241E+02 -6.096984E+00 +2.305822E+00 -6.096984E+00 +9.508542E+02 
 +3.569438E+02 -5.447630E+00 -4.549442E+00 -5.447630E+00 +3.796490E+02 +1.575093E+00 -4.549442E+00 +1.575093E+00 +9.316132E+02 
 +3.469485E+02 -5.759816E+00 -9.656259E+00 -5.759816E+00 +3.574215E+02 +5.202785E+00 -9.656259E+00 +5.202785E+00 +9.156899E+02 
 +3.635049E+02 +1.208849E+01 -1.861634E+01 +1.208849E+01 +3.581994E+02 +9.269334E+00 -1.861634E+01 +9.269334E+00 +9.320283E+02 
 +3.791964E+02 +4.089967E-01 -1.734495E+01 +4.089967E-01 +3.631018E+02 +1.692594E+01 -1.734495E+01 +1.692594E+01 +9.523180E+02 
 +3.747726E+02 -9.045342E+00 -1.607790E+01 -9.045342E+00 +3.583245E+02 +2.089931E+01 -1.607790E+01 +2.089931E+01 +9.570685E+02 
 +3.592245E+02 -4.090591E+00 -9.926432E+00 -4.090591E+00 +3.523898E+02 +2.316671E+01 -9.926432E+00 +2.316671E+01 +9.541133E+02 
 +3.571276E+02 -4.968201E-02 -8.388428E+00 -4.968201E-02 +3.525524E+02 +1.975093E+01 -8.388428E+00 +1.975093E+01 +9.553000E+02 
 +3.564468E+02 +5.608145E+00 -4.854636E+00 +5.608145E+00 +3.464916E+02 +1.433193E+01 -4.854636E+00 +1.433193E+01 +9.487451E+02 
 +3.529092E+02 +6.285389E+00 -5.091466E+00 +6.285389E+00 +3.417884E+02 +1.096501E+01 -5.091466E+00 +1.096501E+01 +9.379946E+02 
 +3.439715E+02 +5.332974E+00 +5.725992E+00 +5.332974E+00 +3.117277E+02 +5.346710E+00 +5.725992E+00 +5.346710E+00 +9.240659E+02 
 +3.636224E+02 +3.286459E+00 +2.258443E+01 +3.286459E+00 +2.934630E+02 +4.175886E+00 +2.258443E+01 +4.175886E+00 +9.385209E+02 
 +3.797301E+02 -4.953095E+00 +1.740967E+01 -4.953095E+00 +3.109232E+02 +1.359219E+00 +1.740967E+01 +1.359219E+00 +9.612246E+02 
 +3.848430E+02 -4.094150E+00 +1.386571E+01 -4.094150E+00 +3.350227E+02 -9.348250E+00 +1.386571E+01 -9.348250E+00 +9.695136E+02 
 +3.674008E+02 -6.825132E+00 +1.147502E+01 -6.825132E+00 +3.472665E+02 -1.526642E+01 +1.147502E+01 -1.526642E+01 +9.638313E+02 
 +3.286266E+02 -1.281744E+01 +1.247391E+01 -1.281744E+01 +3.537841E+02 -1.571868E+01 +1.247391E+01 -1.571868E+01 +9.574559E+02 
 +3.349838E+02 -1.265394E+01 +9.397851E+00 -1.265394E+01 +3.587104E+02 -9.095090E+00 +9.397851E+00 -9.095090E+00 +9.663639E+02 
 +3.291713E+02 -2.062078E+01 +9.197069E+00 -2.062078E+01 +3.451479E+02 -4.577956E+00 +9.197069E+00 -4.577956E+00 +9.622832E+02 
 +3.285546E+02 -2.350512E+01 +5.527253E+00 -2.350512E+01 +3.496496E+02 -7.310193E+00 +5.527253E+00 -7.310193E+00 +9.639646E+02 
 +3.210081E+02 -2.408111E+01 +3.729114E+00 -2.408111E+01 +3.485612E+02 -1.162737E+01 +3.729114E+00 -1.162737E+01 +9.526991E+02 
 +3.316039E+02 -1.895702E+01 -1.485494E+00 -1.895702E+01 +3.652803E+02 -1.825966E+01 -1.485494E+00 -1.825966E+01 +9.472392E+02 
 +3.585021E+02 -1.719363E+01 -4.903291E-02 -1.719363E+01 +3.893614E+02 -1.384270E+01 -4.903291E-02 -1.384270E+01 +9.538425E+02 
 +3.656450E+02 -9.093655E+00 -2.643433E+00 -9.093655E+00 +3.803438E+02 +4.066675E+00 -2.643433E+00 +4.066675E+00 +9.484066E+02 
 +3.687678E+02 -5.704501E+00 -7.529584E+00 -5.704501E+00 +3.695909E+02 +1.253999E+01 -7.529584E+00 +1.253999E+01 +9.492580E+02 
 +3.892036E+02 +1.096255E+01 -1.615194E+01 +1.096255E+01 +3.694965E+02 +1.450479E+01 -1.615194E+01 +1.450479E+01 +9.562649E+02 
 +3.896131E+02 -2.729372E+00 -7.992364E+00 -2.729372E+00 +3.573481E+02 +1.623638E+01 -7.992364E+00 +1.623638E+01 +9.607826E+02 
 +3.769601E+02 -7.682354E+00 -1.228840E+01 -7.682354E+00 +3.575393E+02 +1.898858E+01 -1.228840E+01 +1.898858E+01 +9.603859E+02 
 +3.720117E+02 -4.305964E+00 -1.131365E+01 -4.305964E+00 +3.654356E+02 +2.079688E+01 -1.131365E+01 +2.079688E+01 +9.581718E+02 
 +3.616544E+02 -2.121818E+00 -8.220124E+00 -2.121818E+00 +3.528958E+02 +1.830577E+01 -8.220124E+00 +1.830577E+01 +9.532055E+02 
 +3.561988E+02 +5.294962E+00 -6.847877E+00 +5.294962E+00 +3.445956E+02 +1.415351E+01 -6.847877E+00 +1.415351E+01 +9.468361E+02 
 +3.588487E+02 +1.060949E+01 -4.377396E+00 +1.060949E+01 +3.367856E+02 +1.120726E+01 -4.377396E+00 +1.120726E+01 +9.407009E+02 
 +3.494726E+02 +5.859565E+00 -1.524388E+00 +5.859565E+00 +3.186155E+02 +8.867269E+00 -1.524388E+00 +8.867269E+00 +9.420577E+02 
 +3.603123E+02 +8.551910E+00 +1.169701E+01 +8.551910E+00 +3.078255E+02 +1.317210E+01 +1.169701E+01 +1.317210E+01 +9.581474E+02 
 +3.699157E+02 +1.004200E+00 +1.169302E+01 +1.004200E+00 +3.145087E+02 +1.111731E+01 +1.169302E+01 +1.111731E+01 +9.637318E+02 
 +3.769588E+02 +1.354828E+00 +8.739415E+00 +1.354828E+00 +3.531495E+02 -3.218509E+00 +8.739415E+00 -3.218509E+00 +9.658374E+02 
 +3.527171E+02 -3.784928E+00 +4.273140E-01 -3.784928E+00 +3.764829E+02 -8.535543E+00 +4.273140E-01 -8.535543E+00 +9.642432E+02 
 +3.385456E+02 -1.115853E+01 -2.198531E+00 -1.115853E+01 +3.703744E+02 -9.289876E+00 -2.198531E+00 -9.289876E+00 +9.629361E+02 
 +3.301104E+02 -1.336945E+01 +1.507393E+00 -1.336945E+01 +3.590302E+02 -4.258752E+00 +1.507393E+00 -4.258752E+00 +9.650659E+02 
 +3.312445E+02 -1.795782E+01 +3.047651E+00 -1.795782E+01 +3.553922E+02 -2.460698E+00 +3.047651E+00 -2.460698E+00 +9.700452E+02 
 +3.179985E+02 -2.393717E+01 +3.227051E+00 -2.393717E+01 +3.416387E+02 -7.844583E+00 +3.227051E+00 -7.844583E+00 +9.651073E+02 
 +3.160147E+02 -2.029138E+01 +1.382822E+00 -2.029138E+01 +3.384136E+02 -1.610920E+01 +1.382822E+00 -1.610920E+01 +9.517663E+02 
 +3.515320E+02 -6.463789E-02 -9.145239E+00 -6.463789E-02 +3.569478E+02 -2.542758E+01 -9.145239E+00 -2.542758E+01 +9.478121E+02 
 +3.685829E+02 +3.218932E+00 -7.086886E+00 +3.218932E+00 +3.720576E+02 -1.857767E+01 -7.086886E+00 -1.857767E+01 +9.493462E+02 
 +3.629894E+02 -1.170898E+00 -3.408453E+00 -1.170898E+00 +3.715822E+02 +4.117355E+00 -3.408453E+00 +4.117355E+00 +9.356838E+02 
 +3.640449E+02 -1.299810E+00 -2.337725E+00 -1.299810E+00 +3.649644E+02 +1.471344E+01 -2.337725E+00 +1.471344E+01 +9.341690E+02 
 +3.779868E+02 +1.040904E+00 -7.881028E+00 +1.040904E+00 +3.545597E+02 +8.988224E+00 -7.881028E+00 +8.988224E+00 +9.529443E+02 
 +3.724647E+02 -1.691196E+01 -8.990467E-01 -1.691196E+01 +3.266031E+02 +2.603926E+00 -8.990467E-01 +2.603926E+00 +9.570134E+02 
 +3.643611E+02 -1.283721E+01 -3.388981E+00 -1.283721E+01 +3.103076E+02 -2.493426E+00 -3.388981E+00 -2.493426E+00 +9.542580E+02 
 +3.646254E+02 -3.409403E+00 -3.780365E+00 -3.409403E+00 +3.207217E+02 +3.309019E+00 -3.780365E+00 +3.309019E+00 +9.513914E+02 
 +3.587261E+02 -1.898709E+00 -8.063042E+00 -1.898709E+00 +3.401637E+02 +1.558151E+01 -8.063042E+00 +1.558151E+01 +9.464671E+02 
 +3.602977E+02 +4.050770E+00 -8.651892E+00 +4.050770E+00 +3.439582E+02 +1.354005E+01 -8.651892E+00 +1.354005E+01 +9.418699E+02 
 +3.705292E+02 +4.845144E+00 -5.747475E+00 +4.845144E+00 +3.375949E+02 +7.652567E+00 -5.747475E+00 +7.652567E+00 +9.377070E+02 
 +3.917250E+02 +3.428416E+00 -4.893786E+00 +3.428416E+00 +3.538446E+02 +9.269400E+00 -4.893786E+00 +9.269400E+00 +9.573278E+02 
 +3.451972E+02 +1.179698E+01 +3.756546E+00 +1.179698E+01 +3.509363E+02 +1.276084E+01 +3.756546E+00 +1.276084E+01 +9.571554E+02 
 +3.469768E+02 -1.387488E+00 -3.023567E+00 -1.387488E+00 +3.662228E+02 +1.138760E+01 -3.023567E+00 +1.138760E+01 +9.600290E+02 
 +3.573973E+02 -7.028023E+00 -6.840607E+00 -7.028023E+00 +3.663567E+02 +3.509494E+00 -6.840607E+00 +3.509494E+00 +9.529878E+02 
 +3.444701E+02 -6.834053E+00 -8.073438E+00 -6.834053E+00 +3.577420E+02 -2.346412E+00 -8.073438E+00 -2.346412E+00 +9.442762E+02 
 +3.441936E+02 -1.063856E+01 -1.160144E+01 -1.063856E+01 +3.723968E+02 -1.220987E+00 -1.160144E+01 -1.220987E+00 +9.534586E+02 
 +3.392662E+02 -1.378149E+01 -3.484612E+00 -1.378149E+01 +3.725249E+02 +1.266100E+00 -3.484612E+00 +1.266100E+00 +9.627935E+02 
 +3.349292E+02 -1.530947E+01 -4.990866E+00 -1.530947E+01 +3.625524E+02 -3.904265E+00 -4.990866E+00 -3.904265E+00 +9.741514E+02 
 +3.183637E+02 -1.391625E+01 -2.253195E+00 -1.391625E+01 +3.388163E+02 -1.266286E+01 -2.253195E+00 -1.266286E+01 +9.663573E+02 
 +3.493507E+02 +4.830944E+00 -9.322895E+00 +4.830944E+00 +3.477824E+02 -2.538699E+01 -9.322895E+00 -2.538699E+01 +9.630233E+02 
 +3.733035E+02 +1.518504E+01 -1.251350E+01 +1.518504E+01 +3.592200E+02 -2.840190E+01 -1.251350E+01 -2.840190E+01 +9.615991E+02 
 +3.610609E+02 +1.396078E+01 -9.516763E+00 +1.396078E+01 +3.566843E+02 -2.856557E+01 -9.516763E+00 -2.856557E+01 +9.514083E+02 
 +3.560154E+02 +3.256915E+00 +2.997766E+00 +3.256915E+00 +3.698183E+02 -2.477659E+01 +2.997766E+00 -2.477659E+01 +9.306788E+02 
 +3.715460E+02 -1.539376E+00 +4.503167E+00 -1.539376E+00 +3.847827E+02 -4.151340E+00 +4.503167E+00 -4.151340E+00 +9.386704E+02 
 +3.643322E+02 -8.200605E+00 +2.622630E+00 -8.200605E+00 +3.554255E+02 +5.816877E+00 +2.622630E+00 +5.816877E+00 +9.651297E+02 
 +3.758559E+02 -1.371683E+01 +7.287728E+00 -1.371683E+01 +3.301404E+02 +2.368043E+00 +7.287728E+00 +2.368043E+00 +9.754961E+02 
 +3.799428E+02 -9.380029E+00 +5.573658E+00 -9.380029E+00 +3.193333E+02 -2.237315E+00 +5.573658E+00 -2.237315E+00 +9.699719E+02 
 +3.728523E+02 +2.073677E+00 +3.555450E+00 +2.073677E+00 +3.119135E+02 +1.259168E+00 +3.555450E+00 +1.259168E+00 +9.500569E+02 
 +3.569254E+02 +4.800998E+00 -5.860093E+00 +4.800998E+00 +3.218180E+02 +1.448790E+01 -5.860093E+00 +1.448790E+01 +9.316120E+02 
 +3.678650E+02 +1.318900E+00 -4.955169E+00 +1.318900E+00 +3.445003E+02 +1.248787E+01 -4.955169E+00 +1.248787E+01 +9.377441E+02 
 +3.916826E+02 +1.635383E-01 -4.658980E+00 +1.635383E-01 +3.458735E+02 +1.094585E+01 -4.658980E+00 +1.094585E+01 +9.382467E+02 
 +3.776315E+02 +3.464148E+00 -3.529323E+00 +3.464148E+00 +3.549000E+02 +1.349054E+01 -3.529323E+00 +1.349054E+01 +9.427971E+02 
 +3.228151E+02 -2.952213E+00 -2.934494E+00 -2.952213E+00 +3.645586E+02 +1.273161E+01 -2.934494E+00 +1.273161E+01 +9.452143E+02 
 +3.207297E+02 -5.012059E+00 -8.388007E+00 -5.012059E+00 +3.789644E+02 +3.473023E+00 -8.388007E+00 +3.473023E+00 +9.494402E+02 
 +3.272642E+02 -6.648470E+00 -9.521832E+00 -6.648470E+00 +3.700969E+02 -2.288998E+00 -9.521832E+00 -2.288998E+00 +9.435046E+02 
 +3.539537E+02 -7.924002E+00 -1.081235E+01 -7.924002E+00 +3.690274E+02 -4.989743E+00 -1.081235E+01 -4.989743E+00 +9.454889E+02 
 +3.667492E+02 -1.476207E+01 -1.638630E+01 -1.476207E+01 +3.768770E+02 -1.180391E+00 -1.638630E+01 -1.180391E+00 +9.530865E+02 
 +3.569932E+02 -1.472599E+01 -1.160553E+01 -1.472599E+01 +3.736534E+02 +9.314705E-01 -1.160553E+01 +9.314705E-01 +9.608247E+02 
 +3.481174E+02 -1.277666E+01 -1.746610E+01 -1.277666E+01 +3.589936E+02 -2.545199E+00 -1.746610E+01 -2.545199E+00 +9.754984E+02 
 +3.509534E+02 -3.954033E+00 -1.601397E+01 -3.954033E+00 +3.521594E+02 -1.284211E+01 -1.601397E+01 -1.284211E+01 +9.760372E+02 
 +3.827435E+02 +1.524556E+01 -1.942544E+01 +1.524556E+01 +3.701116E+02 -2.850300E+01 -1.942544E+01 -2.850300E+01 +9.736500E+02 
 +3.665325E+02 +1.685137E+01 -1.281462E+01 +1.685137E+01 +3.546166E+02 -3.006574E+01 -1.281462E+01 -3.006574E+01 +9.656779E+02 
 +3.498818E+02 +2.489737E+01 -4.379918E+00 +2.489737E+01 +3.407874E+02 -2.296831E+01 -4.379918E+00 -2.296831E+01 +9.579620E+02 
 +3.531044E+02 +1.909714E+01 +1.316352E+01 +1.909714E+01 +3.442878E+02 -1.098808E+01 +1.316352E+01 -1.098808E+01 +9.552884E+02 
 +3.611962E+02 +1.363396E+01 +1.299700E+01 +1.363396E+01 +3.573636E+02 +1.969342E+00 +1.299700E+01 +1.969342E+00 +9.655363E+02 
 +3.529789E+02 -6.528238E+00 +6.706269E+00 -6.528238E+00 +3.501109E+02 +3.381310E+00 +6.706269E+00 +3.381310E+00 +9.725358E+02 
 +3.695220E+02 -8.578925E+00 +1.184716E+01 -8.578925E+00 +3.388172E+02 +2.000175E+00 +1.184716E+01 +2.000175E+00 +9.756580E+02 
 +3.732321E+02 -8.767326E+00 +1.213751E+01 -8.767326E+00 +3.260242E+02 -6.740812E-01 +1.213751E+01 -6.740812E-01 +9.688320E+02 
 +3.751897E+02 +4.245065E+00 +9.597983E+00 +4.245065E+00 +3.221398E+02 +7.666957E-02 +9.597983E+00 +7.666957E-02 +9.513741E+02 
 +3.679978E+02 +7.702329E+00 -2.931250E-01 +7.702329E+00 +3.232160E+02 +1.317573E+01 -2.931250E-01 +1.317573E+01 +9.317950E+02 
 +3.767940E+02 -1.245562E+00 -3.230641E-01 -1.245562E+00 +3.397175E+02 +1.677187E+01 -3.230641E-01 +1.677187E+01 +9.374747E+02 
 +3.868165E+02 -8.331508E+00 -1.697995E+00 -8.331508E+00 +3.555928E+02 +1.822700E+01 -1.697995E+00 +1.822700E+01 +9.444206E+02 
 +3.538351E+02 -2.500267E+00 +6.932501E-01 -2.500267E+00 +3.718545E+02 +1.737163E+01 +6.932501E-01 +1.737163E+01 +9.472695E+02 
 +3.291622E+02 -1.434011E+00 +3.821724E-02 -1.434011E+00 +3.764111E+02 +1.477975E+01 +3.821724E-02 +1.477975E+01 +9.475449E+02 
 +3.315810E+02 -2.815278E+00 +1.450073E+00 -2.815278E+00 +3.827347E+02 +7.853431E+00 +1.450073E+00 +7.853431E+00 +9.451188E+02 
 +3.229532E+02 -1.638493E+00 -1.137302E-01 -1.638493E+00 +3.754898E+02 -1.784378E+00 -1.137302E-01 -1.784378E+00 +9.382989E+02 
 +3.358852E+02 +9.128645E+00 -5.162699E+00 +9.128645E+00 +3.683230E+02 -8.242659E+00 -5.162699E+00 -8.242659E+00 +9.408928E+02 
 +3.696872E+02 -2.477011E+00 -1.394567E+01 -2.477011E+00 +3.682557E+02 -1.015157E+00 -1.394567E+01 -1.015157E+00 +9.513196E+02 
 +3.725766E+02 -1.345896E+01 -1.796989E+01 -1.345896E+01 +3.590935E+02 +3.864347E+00 -1.796989E+01 +3.864347E+00 +9.559517E+02 
 +3.685120E+02 -1.474081E+01 -2.695576E+01 -1.474081E+01 +3.562161E+02 +4.659814E+00 -2.695576E+01 +4.659814E+00 +9.704594E+02 
 +3.742461E+02 -4.100688E+00 -2.455460E+01 -4.100688E+00 +3.664184E+02 -2.949964E+00 -2.455460E+01 -2.949964E+00 +9.805788E+02 
 +3.840149E+02 +4.182487E+00 -1.954738E+01 +4.182487E+00 +3.761356E+02 -1.580128E+01 -1.954738E+01 -1.580128E+01 +9.813209E+02 
 +3.768513E+02 +7.159183E-01 -1.122747E+01 +7.159183E-01 +3.698401E+02 -1.611792E+01 -1.122747E+01 -1.611792E+01 +9.805818E+02 
 +3.734166E+02 +1.494357E+01 +5.379090E-01 +1.494357E+01 +3.603314E+02 -4.971519E+00 +5.379090E-01 -4.971519E+00 +9.789317E+02 
 +3.640721E+02 +1.010254E+01 +7.039233E+00 +1.010254E+01 +3.467615E+02 +3.771364E-01 +7.039233E+00 +3.771364E-01 +9.749897E+02 
 +3.662962E+02 +9.788448E+00 +7.560142E+00 +9.788448E+00 +3.473483E+02 -1.021709E+00 +7.560142E+00 -1.021709E+00 +9.770122E+02 
 +3.586734E+02 -6.791435E+00 -4.537456E+00 -6.791435E+00 +3.488740E+02 -3.515626E+00 -4.537456E+00 -3.515626E+00 +9.729214E+02 
 +3.579961E+02 -1.626180E+00 +5.305951E-01 -1.626180E+00 +3.532476E+02 -1.728577E+00 +5.305951E-01 -1.728577E+00 +9.719368E+02 
 +3.686309E+02 -2.101675E+00 +7.960511E+00 -2.101675E+00 +3.530088E+02 -3.833460E+00 +7.960511E+00 -3.833460E+00 +9.730589E+02 
 +3.682887E+02 +1.185686E+01 +1.428011E+01 +1.185686E+01 +3.381496E+02 -2.536857E+00 +1.428011E+01 -2.536857E+00 +9.535749E+02 
 +3.693334E+02 +1.167391E+01 +1.390959E+00 +1.167391E+01 +3.229389E+02 +9.196421E+00 +1.390959E+00 +9.196421E+00 +9.309902E+02 
 +3.810081E+02 +4.346123E+00 +8.724804E-01 +4.346123E+00 +3.267713E+02 +1.634221E+01 +8.724804E-01 +1.634221E+01 +9.329432E+02 
 +3.640369E+02 -7.826347E+00 +4.414691E+00 -7.826347E+00 +3.651127E+02 +8.610551E+00 +4.414691E+00 +8.610551E+00 +9.492782E+02 
 +3.446152E+02 -7.359115E+00 +2.219258E-01 -7.359115E+00 +3.700470E+02 +9.299431E+00 +2.219258E-01 +9.299431E+00 +9.651174E+02 
 +3.563837E+02 -9.002829E-01 +5.718903E+00 -9.002829E-01 +3.777479E+02 +1.097892E+01 +5.718903E+00 +1.097892E+01 +9.637596E+02 
 +3.626357E+02 +3.707727E-01 +7.329951E+00 +3.707727E-01 +3.917574E+02 +9.966349E+00 +7.329951E+00 +9.966349E+00 +9.606978E+02 
 +3.551626E+02 +4.854751E+00 +1.159990E+01 +4.854751E+00 +3.852373E+02 +3.544788E+00 +1.159990E+01 +3.544788E+00 +9.522830E+02 
 +3.317404E+02 +1.657450E+01 +6.952979E+00 +1.657450E+01 +3.666519E+02 -4.275586E+00 +6.952979E+00 -4.275586E+00 +9.408559E+02 
 +3.531847E+02 +8.827494E+00 +5.600720E-01 +8.827494E+00 +3.679930E+02 -2.448613E+00 +5.600720E-01 -2.448613E+00 +9.449945E+02 
 +3.850892E+02 -2.723646E+00 -7.137188E+00 -2.723646E+00 +3.703929E+02 +5.702740E+00 -7.137188E+00 +5.702740E+00 +9.494759E+02 
 +3.831512E+02 -5.973504E+00 -1.909541E+01 -5.973504E+00 +3.739753E+02 +6.974885E+00 -1.909541E+01 +6.974885E+00 +9.624914E+02 
 +3.717055E+02 -6.794213E+00 -1.590560E+01 -6.794213E+00 +3.737235E+02 -4.399764E+00 -1.590560E+01 -4.399764E+00 +9.820487E+02 
 +3.717299E+02 -2.225138E-01 -9.600893E+00 -2.225138E-01 +3.671805E+02 -1.393979E+01 -9.600893E+00 -1.393979E+01 +9.934644E+02 
 +3.817312E+02 -2.553755E+00 -4.269074E+00 -2.553755E+00 +3.798895E+02 -1.081512E+01 -4.269074E+00 -1.081512E+01 +1.002311E+03 
 +3.829254E+02 -6.120908E+00 +7.520576E-01 -6.120908E+00 +3.744464E+02 -6.856876E+00 +7.520576E-01 -6.856876E+00 +1.002409E+03 
 +3.647131E+02 -1.315080E+01 +7.864248E-01 -1.315080E+01 +3.443919E+02 -6.005536E+00 +7.864248E-01 -6.005536E+00 +9.814566E+02 
 +3.806495E+02 -1.304122E+01 +4.693717E+00 -1.304122E+01 +3.363596E+02 -1.015015E+01 +4.693717E+00 -1.015015E+01 +9.730697E+02 
 +3.799410E+02 -1.786719E+01 -8.361087E+00 -1.786719E+01 +3.414520E+02 -8.965248E+00 -8.361087E+00 -8.965248E+00 +9.691346E+02 
 +3.686937E+02 -9.038208E+00 -1.167455E+01 -9.038208E+00 +3.564419E+02 -7.749961E+00 -1.167455E+01 -7.749961E+00 +9.650999E+02 
 +3.477389E+02 -4.656735E+00 -4.166668E+00 -4.656735E+00 +3.438156E+02 -1.010596E+01 -4.166668E+00 -1.010596E+01 +9.541570E+02 
 +3.421737E+02 +1.436248E+01 +6.966435E+00 +1.436248E+01 +3.289544E+02 -4.588088E+00 +6.966435E+00 -4.588088E+00 +9.313815E+02 
 +3.494202E+02 +9.974415E+00 +8.770024E-01 +9.974415E+00 +3.229856E+02 +1.249410E+01 +8.770024E-01 +1.249410E+01 +9.112709E+02 
 +3.640490E+02 -3.791428E+00 -2.745753E+00 -3.791428E+00 +3.336976E+02 +1.585434E+01 -2.745753E+00 +1.585434E+01 +9.172528E+02 
 +3.882127E+02 -7.321053E+00 +1.326723E+01 -7.321053E+00 +3.857163E+02 +8.905752E-02 +1.326723E+01 +8.905752E-02 +9.558630E+02 
 +3.355183E+02 -7.671326E+00 +5.655468E+00 -7.671326E+00 +3.626489E+02 -6.466258E+00 +5.655468E+00 -6.466258E+00 +9.570612E+02 
 +3.819875E+02 +2.367343E+00 +1.323008E+01 +2.367343E+00 +3.684988E+02 -3.203467E+00 +1.323008E+01 -3.203467E+00 +9.725583E+02 
 +3.655590E+02 +3.907896E+00 +9.776469E+00 +3.907896E+00 +3.428967E+02 -4.288863E-01 +9.776469E+00 -4.288863E-01 +9.562091E+02 
 +3.737073E+02 +8.987722E+00 +1.752091E+01 +8.987722E+00 +3.697847E+02 -1.963958E+00 +1.752091E+01 -1.963958E+00 +9.510983E+02 
 +3.131544E+02 +6.459012E+00 +1.047038E+01 +6.459012E+00 +3.439211E+02 -5.772550E+00 +1.047038E+01 -5.772550E+00 +9.219911E+02 
 +3.615329E+02 +6.309405E+00 +2.884229E+00 +6.309405E+00 +3.581197E+02 +2.633028E+00 +2.884229E+00 +2.633028E+00 +9.393049E+02 
 +3.654624E+02 +4.917248E-01 +3.536986E+00 +4.917248E-01 +3.592265E+02 +1.299577E+01 +3.536986E+00 +1.299577E+01 +9.372382E+02 
 +3.790397E+02 +2.255235E+00 -7.552271E+00 +2.255235E+00 +3.759744E+02 +1.566247E+01 -7.552271E+00 +1.566247E+01 +9.544442E+02 
 +3.520678E+02 -6.854935E+00 -3.313226E+00 -6.854935E+00 +3.663119E+02 +1.362400E+00 -3.313226E+00 +1.362400E+00 +9.731884E+02 
 +3.652604E+02 +2.588930E+00 -2.327864E+00 +2.588930E+00 +3.704206E+02 -8.696358E+00 -2.327864E+00 -8.696358E+00 +1.002159E+03 
 +3.608632E+02 +1.019488E+00 +3.051791E-01 +1.019488E+00 +3.638639E+02 -7.017713E+00 +3.051791E-01 -7.017713E+00 +1.005369E+03 
 +3.633161E+02 -5.574699E+00 +2.143075E+00 -5.574699E+00 +3.617500E+02 -1.552383E-01 +2.143075E+00 -1.552383E-01 +1.001735E+03 
 +3.842451E+02 -7.444257E+00 +4.702332E+00 -7.444257E+00 +3.622748E+02 +5.442143E+00 +4.702332E+00 +5.442143E+00 +9.940470E+02 
 +4.030522E+02 -9.746713E+00 +8.095662E+00 -9.746713E+00 +3.551606E+02 -2.911905E+00 +8.095662E+00 -2.911905E+00 +9.804973E+02 
 +3.936010E+02 -1.132690E+01 +5.286223E+00 -1.132690E+01 +3.475680E+02 -1.062686E+01 +5.286223E+00 -1.062686E+01 +9.616934E+02 
 +3.950382E+02 -1.381109E+01 -3.997057E+00 -1.381109E+01 +3.622022E+02 -1.137002E+01 -3.997057E+00 -1.137002E+01 +9.580097E+02 
 +3.599870E+02 -1.055721E+01 -3.042567E+00 -1.055721E+01 +3.740169E+02 -1.317346E+01 -3.042567E+00 -1.317346E+01 +9.512534E+02 
 +3.559007E+02 +1.120952E+00 -1.961770E+00 +1.120952E+00 +3.910911E+02 -8.814371E+00 -1.961770E+00 -8.814371E+00 +9.476197E+02 
 +3.518312E+02 -6.472950E+00 -1.190111E+00 -6.472950E+00 +3.831632E+02 +8.674421E-02 -1.190111E+00 +8.674421E-02 +9.369962E+02 
 +3.380425E+02 -1.983448E+01 -6.292042E+00 -1.983448E+01 +3.609140E+02 +6.252963E+00 -6.292042E+00 +6.252963E+00 +9.206435E+02 
 +4.028559E+02 -2.473250E+00 +1.185116E+01 -2.473250E+00 +4.010203E+02 +3.299645E+00 +1.185116E+01 +3.299645E+00 +9.441768E+02 
 +3.658473E+02 -4.347629E-01 +6.753936E+00 -4.347629E-01 +3.664070E+02 -3.103555E+00 +6.753936E+00 -3.103555E+00 +9.336325E+02 
 +3.970922E+02 +9.083623E+00 +9.688694E+00 +9.083623E+00 +3.837565E+02 -4.816859E+00 +9.688694E+00 -4.816859E+00 +9.542619E+02 
 +3.988989E+02 +1.171526E+01 +1.608588E+01 +1.171526E+01 +3.902569E+02 -2.190268E+00 +1.608588E+01 -2.190268E+00 +9.528652E+02 
 +3.698720E+02 +8.204415E+00 +1.390076E+01 +8.204415E+00 +3.661965E+02 -5.521679E-01 +1.390076E+01 -5.521679E-01 +9.254560E+02 
 +3.229456E+02 +2.240579E+00 +1.032025E+01 +2.240579E+00 +3.358715E+02 -1.686600E+00 +1.032025E+01 -1.686600E+00 +9.077413E+02 
 +3.719879E+02 -4.979475E-02 -1.742926E+00 -4.979475E-02 +3.671897E+02 +3.884696E+00 -1.742926E+00 +3.884696E+00 +9.468717E+02 
 +3.486664E+02 -1.368941E+01 +7.338708E+00 -1.368941E+01 +3.487537E+02 +9.098288E+00 +7.338708E+00 +9.098288E+00 +9.513339E+02 
 +3.651662E+02 -8.701715E+00 +1.201031E+00 -8.701715E+00 +3.548477E+02 +2.002386E+01 +1.201031E+00 +2.002386E+01 +9.578744E+02 
 +3.556666E+02 -1.241423E+01 +2.166519E+00 -1.241423E+01 +3.637199E+02 +1.020134E+01 +2.166519E+00 +1.020134E+01 +9.656685E+02 
 +3.524487E+02 -6.853469E-01 +3.024407E+00 -6.853469E-01 +3.700908E+02 -2.317704E+00 +3.024407E+00 -2.317704E+00 +9.871133E+02 
 +3.571909E+02 +5.403296E+00 +4.396167E+00 +5.403296E+00 +3.685159E+02 +4.065191E+00 +4.396167E+00 +4.065191E+00 +1.000612E+03 
 +3.674802E+02 +1.950830E+00 +3.686511E+00 +1.950830E+00 +3.649985E+02 +9.709816E+00 +3.686511E+00 +9.709816E+00 +9.987761E+02 
 +3.866367E+02 -1.614103E+00 +8.130588E+00 -1.614103E+00 +3.562325E+02 +4.254586E+00 +8.130588E+00 +4.254586E+00 +9.855472E+02 
 +3.894295E+02 -6.410681E+00 +1.008014E+01 -6.410681E+00 +3.517157E+02 -2.822478E+00 +1.008014E+01 -2.822478E+00 +9.710177E+02 
 +3.909652E+02 -8.085591E+00 +1.256721E+01 -8.085591E+00 +3.546932E+02 -7.243959E+00 +1.256721E+01 -7.243959E+00 +9.553463E+02 
 +4.081844E+02 -1.034511E+01 +8.413836E+00 -1.034511E+01 +3.766803E+02 -1.012580E+01 +8.413836E+00 -1.012580E+01 +9.564704E+02 
 +3.539389E+02 -7.586426E+00 +2.999906E+00 -7.586426E+00 +3.723324E+02 -1.469737E+01 +2.999906E+00 -1.469737E+01 +9.482140E+02 
 +3.403218E+02 -4.616964E+00 -5.091489E+00 -4.616964E+00 +3.859588E+02 -1.516517E+01 -5.091489E+00 -1.516517E+01 +9.576152E+02 
 +3.425271E+02 -6.276174E+00 -3.678872E+00 -6.276174E+00 +3.934174E+02 -9.107687E+00 -3.678872E+00 -9.107687E+00 +9.630355E+02 
 +3.228297E+02 -1.343669E+01 -4.387520E+00 -1.343669E+01 +3.743386E+02 +8.771033E-01 -4.387520E+00 +8.771033E-01 +9.308761E+02 
 +4.110263E+02 +3.191491E+00 +7.206769E-01 +3.191491E+00 +4.169467E+02 +6.328722E+00 +7.206769E-01 +6.328722E+00 +9.382618E+02 
 +4.022342E+02 +7.169667E+00 +1.845368E-01 +7.169667E+00 +3.933063E+02 +8.587824E-01 +1.845368E-01 +8.587824E-01 +9.262564E+02 
 +3.950496E+02 +8.507919E+00 -4.838280E-01 +8.507919E+00 +3.884193E+02 -2.719906E+00 -4.838280E-01 -2.719906E+00 +9.251339E+02 
 +3.991536E+02 +1.330778E+01 +1.398863E+01 +1.330778E+01 +3.892244E+02 -4.897785E+00 +1.398863E+01 -4.897785E+00 +9.347146E+02 
 +3.458464E+02 +5.001254E+00 +5.872700E+00 +5.001254E+00 +3.505409E+02 -5.269937E+00 +5.872700E+00 -5.269937E+00 +9.156515E+02 
 +3.425182E+02 -2.656138E+00 +8.457237E+00 -2.656138E+00 +3.459284E+02 -2.275565E+00 +8.457237E+00 -2.275565E+00 +9.202529E+02 
 +3.593908E+02 -1.456866E+01 +4.139082E+00 -1.456866E+01 +3.606654E+02 -1.094089E+00 +4.139082E+00 -1.094089E+00 +9.516282E+02 
 +3.501754E+02 -1.967488E+01 +1.444027E+01 -1.967488E+01 +3.576990E+02 +2.258730E+00 +1.444027E+01 +2.258730E+00 +9.700378E+02 
 +3.619999E+02 -1.415104E+01 +1.107042E+01 -1.415104E+01 +3.576721E+02 +8.449969E+00 +1.107042E+01 +8.449969E+00 +9.677260E+02 
 +3.764079E+02 -1.167410E+01 +4.363255E+00 -1.167410E+01 +3.617985E+02 +5.002805E+00 +4.363255E+00 +5.002805E+00 +9.656659E+02 
 +3.462590E+02 -3.415883E+00 +1.175642E+01 -3.415883E+00 +3.551688E+02 -3.573132E+00 +1.175642E+01 -3.573132E+00 +9.641155E+02 
 +3.554950E+02 +5.400233E+00 +7.125403E+00 +5.400233E+00 +3.553494E+02 -3.306112E+00 +7.125403E+00 -3.306112E+00 +9.784523E+02 
 +3.608187E+02 +1.856856E+00 +6.892642E+00 +1.856856E+00 +3.434477E+02 -2.985444E-01 +6.892642E+00 -2.985444E-01 +9.788743E+02 
 +3.735965E+02 -1.520575E+00 +1.157814E+01 -1.520575E+00 +3.509973E+02 -2.407086E+00 +1.157814E+01 -2.407086E+00 +9.744448E+02 
 +3.762556E+02 -4.581193E+00 +1.328523E+01 -4.581193E+00 +3.579982E+02 -7.030501E+00 +1.328523E+01 -7.030501E+00 +9.679046E+02 
 +3.853208E+02 -7.140593E+00 +1.392421E+01 -7.140593E+00 +3.637919E+02 -7.251125E+00 +1.392421E+01 -7.251125E+00 +9.607732E+02 
 +3.952485E+02 -1.063446E+01 +1.457919E+01 -1.063446E+01 +3.760130E+02 -7.812278E+00 +1.457919E+01 -7.812278E+00 +9.677187E+02 
 +3.668438E+02 -3.196487E+00 +7.215373E+00 -3.196487E+00 +3.906815E+02 -1.158510E+01 +7.215373E+00 -1.158510E+01 +9.789468E+02 
 +3.488527E+02 -7.743330E+00 -3.779212E-01 -7.743330E+00 +3.983936E+02 -1.407897E+01 -3.779212E-01 -1.407897E+01 +9.860706E+02 
 +3.386122E+02 -8.058486E+00 +4.680490E-01 -8.058486E+00 +3.896089E+02 -1.061805E+01 +4.680490E-01 -1.061805E+01 +9.791236E+02 
 +3.461770E+02 -8.701728E+00 +1.349354E+00 -8.701728E+00 +3.971055E+02 -8.455352E-01 +1.349354E+00 -8.455352E-01 +9.483710E+02 
 +4.035451E+02 +8.340912E+00 -1.119330E+01 +8.340912E+00 +4.028236E+02 +4.058162E+00 -1.119330E+01 +4.058162E+00 +9.385756E+02 
 +4.005608E+02 +1.183110E+01 -5.249559E+00 +1.183110E+01 +3.994720E+02 -9.660930E-01 -5.249559E+00 -9.660930E-01 +9.271186E+02 
 +3.967008E+02 +1.195722E+01 -3.004304E+00 +1.195722E+01 +3.948233E+02 -4.591615E+00 -3.004304E+00 -4.591615E+00 +9.240194E+02 
 +3.934513E+02 +8.854856E+00 +2.878974E+00 +8.854856E+00 +3.872316E+02 -8.442235E+00 +2.878974E+00 -8.442235E+00 +9.300421E+02 
 +3.400912E+02 -2.654263E-01 +1.305581E+00 -2.654263E-01 +3.504345E+02 -1.374843E+01 +1.305581E+00 -1.374843E+01 +9.147682E+02 
 +3.350155E+02 +9.665555E-01 +8.766740E+00 +9.665555E-01 +3.405761E+02 -4.822428E+00 +8.766740E+00 -4.822428E+00 +9.170207E+02 
 +3.575286E+02 -6.692342E+00 -3.428416E-01 -6.692342E+00 +3.547714E+02 +2.744204E+00 -3.428416E-01 +2.744204E+00 +9.493457E+02 
 +3.458804E+02 -1.343897E+01 +1.185487E+01 -1.343897E+01 +3.539837E+02 +1.678262E+00 +1.185487E+01 +1.678262E+00 +9.634240E+02 
 +3.602009E+02 -8.317010E+00 +1.034791E+01 -8.317010E+00 +3.562508E+02 +5.662319E+00 +1.034791E+01 +5.662319E+00 +9.634918E+02 
 +3.707520E+02 -7.641576E+00 +7.766442E+00 -7.641576E+00 +3.537531E+02 +4.327512E-01 +7.766442E+00 +4.327512E-01 +9.619200E+02 
 +3.529121E+02 -3.956371E+00 +1.727283E+01 -3.956371E+00 +3.422352E+02 -9.364224E+00 +1.727283E+01 -9.364224E+00 +9.529655E+02 
 +3.562367E+02 -4.199898E+00 +8.676223E+00 -4.199898E+00 +3.435877E+02 -9.440173E+00 +8.676223E+00 -9.440173E+00 +9.566828E+02 
 +3.591282E+02 -4.072360E+00 +8.533221E+00 -4.072360E+00 +3.451879E+02 -7.847546E+00 +8.533221E+00 -7.847546E+00 +9.595710E+02 
 +3.632202E+02 -3.700088E+00 +1.104497E+01 -3.700088E+00 +3.525515E+02 -8.203203E+00 +1.104497E+01 -8.203203E+00 +9.585595E+02 
 +3.681331E+02 -4.532554E+00 +1.423444E+01 -4.532554E+00 +3.601031E+02 -8.730691E+00 +1.423444E+01 -8.730691E+00 +9.608253E+02 
 +3.682831E+02 -7.378309E+00 +1.500754E+01 -7.378309E+00 +3.641571E+02 -9.361245E+00 +1.500754E+01 -9.361245E+00 +9.629948E+02 
 +3.735603E+02 -7.101620E+00 +1.404390E+01 -7.101620E+00 +3.762789E+02 -1.267730E+01 +1.404390E+01 -1.267730E+01 +9.766444E+02 
 +3.754850E+02 +5.521498E+00 +9.535285E+00 +5.521498E+00 +3.889359E+02 -1.586306E+01 +9.535285E+00 -1.586306E+01 +9.934711E+02 
 +3.476088E+02 -4.815764E+00 +1.083347E+00 -4.815764E+00 +3.862520E+02 -1.405174E+01 +1.083347E+00 -1.405174E+01 +9.940372E+02 
 +3.480184E+02 -1.081324E+00 -5.439966E-01 -1.081324E+00 +3.834920E+02 -9.267979E+00 -5.439966E-01 -9.267979E+00 +9.882535E+02 
 +3.729449E+02 +1.088446E+01 +2.393009E+00 +1.088446E+01 +3.854965E+02 -2.195494E+00 +2.393009E+00 -2.195494E+00 +9.590931E+02 
 +3.912156E+02 +3.380970E+00 -1.704552E+01 +3.380970E+00 +3.874917E+02 +5.811583E+00 -1.704552E+01 +5.811583E+00 +9.322552E+02 
 +3.849851E+02 +8.296587E+00 -3.230154E+00 +8.296587E+00 +3.880828E+02 +2.328343E+00 -3.230154E+00 +2.328343E+00 +9.214517E+02 
 +3.801998E+02 +9.984883E+00 +5.610469E-01 +9.984883E+00 +3.880125E+02 -6.619695E-01 +5.610469E-01 -6.619695E-01 +9.239093E+02 
 +3.758698E+02 +9.331994E+00 -3.407991E-01 +9.331994E+00 +3.835812E+02 -3.227600E+00 -3.407991E-01 -3.227600E+00 +9.316816E+02 
 +3.608662E+02 +4.062691E+00 -2.770207E+00 +4.062691E+00 +3.810574E+02 -4.219508E+00 -2.770207E+00 -4.219508E+00 +9.433411E+02 
 +3.582258E+02 +1.676345E+00 +2.726756E-01 +1.676345E+00 +3.726518E+02 -3.367526E+00 +2.726756E-01 -3.367526E+00 +9.403323E+02 
 +3.465185E+02 -8.724701E+00 -7.395131E+00 -8.724701E+00 +3.445135E+02 +1.038699E+00 -7.395131E+00 +1.038699E+00 +9.334993E+02 
 +3.444543E+02 -1.325592E+01 -5.508868E-01 -1.325592E+01 +3.392494E+02 +6.341523E+00 -5.508868E-01 +6.341523E+00 +9.460618E+02 
 +3.521116E+02 -1.838159E+01 +4.344876E+00 -1.838159E+01 +3.413802E+02 +7.668706E+00 +4.344876E+00 +7.668706E+00 +9.513777E+02 
 +3.562955E+02 -1.807573E+01 +3.002849E+00 -1.807573E+01 +3.390367E+02 +9.939866E+00 +3.002849E+00 +9.939866E+00 +9.579724E+02 
 +3.395167E+02 -1.025124E+01 -8.171281E-01 -1.025124E+01 +3.190795E+02 +4.903984E+00 -8.171281E-01 +4.903984E+00 +9.446041E+02 
 +3.367920E+02 -9.520677E+00 +6.034010E+00 -9.520677E+00 +3.182755E+02 -6.751066E+00 +6.034010E+00 -6.751066E+00 +9.374993E+02 
 +3.440314E+02 -1.170726E+01 +2.429553E+00 -1.170726E+01 +3.288459E+02 -1.075620E+01 +2.429553E+00 -1.075620E+01 +9.388182E+02 
 +3.534236E+02 -8.046393E+00 +1.965546E+00 -8.046393E+00 +3.373576E+02 -1.257079E+01 +1.965546E+00 -1.257079E+01 +9.355422E+02 
 +3.680715E+02 -6.426348E+00 +6.229991E+00 -6.426348E+00 +3.679848E+02 -1.378621E+01 +6.229991E+00 -1.378621E+01 +9.407099E+02 
 +3.688911E+02 -1.796507E+00 +8.246650E+00 -1.796507E+00 +3.912732E+02 -1.363679E+01 +8.246650E+00 -1.363679E+01 +9.403206E+02 
 +3.635746E+02 +6.169890E+00 +1.124098E+01 +6.169890E+00 +3.931315E+02 -1.270733E+01 +1.124098E+01 -1.270733E+01 +9.388012E+02 
 +3.598546E+02 +1.493760E+01 +1.008369E+01 +1.493760E+01 +3.753340E+02 -1.311614E+01 +1.008369E+01 -1.311614E+01 +9.437429E+02 
 +3.504781E+02 +1.051341E+01 +8.059036E+00 +1.051341E+01 +3.589113E+02 -1.106100E+01 +8.059036E+00 -1.106100E+01 +9.439481E+02 
 +3.541870E+02 +7.581090E+00 -7.081762E-01 +7.581090E+00 +3.546600E+02 -6.816723E+00 -7.081762E-01 -6.816723E+00 +9.430080E+02 
 +3.626870E+02 +1.605533E+01 -1.511852E+00 +1.605533E+01 +3.616105E+02 -1.152025E-01 -1.511852E+00 -1.152025E-01 +9.386033E+02 
 +3.822121E+02 +1.724402E+00 -1.865574E+01 +1.724402E+00 +3.791905E+02 -4.540458E+00 -1.865574E+01 -4.540458E+00 +9.386066E+02 
 +3.864612E+02 +6.290227E+00 -8.069360E+00 +6.290227E+00 +3.866684E+02 +4.122576E-02 -8.069360E+00 +4.122576E-02 +9.362076E+02 
 +3.870829E+02 +8.226491E+00 -5.500154E+00 +8.226491E+00 +3.872675E+02 -1.543684E+00 -5.500154E+00 -1.543684E+00 +9.362517E+02 
 +3.870044E+02 +9.132818E+00 -5.492169E+00 +9.132818E+00 +3.908947E+02 -1.652566E+00 -5.492169E+00 -1.652566E+00 +9.422549E+02 
 +3.745179E+02 +5.224239E+00 -5.065155E+00 +5.224239E+00 +3.917060E+02 +3.157034E+00 -5.065155E+00 +3.157034E+00 +9.619494E+02 
 +3.697448E+02 +1.020104E+00 -1.294650E-01 +1.020104E+00 +3.909600E+02 +5.111609E+00 -1.294650E-01 +5.111609E+00 +9.584527E+02 
 +3.611220E+02 -4.380985E+00 -5.917390E+00 -4.380985E+00 +3.798752E+02 +8.801144E+00 -5.917390E+00 +8.801144E+00 +9.421905E+02 
 +3.372816E+02 -8.297670E+00 -6.146103E+00 -8.297670E+00 +3.509710E+02 +1.047945E+01 -6.146103E+00 +1.047945E+01 +9.392414E+02 
 +3.352385E+02 -1.816234E+01 -2.529455E+00 -1.816234E+01 +3.360741E+02 +1.461775E+01 -2.529455E+00 +1.461775E+01 +9.402464E+02 
 +3.324647E+02 -1.735154E+01 -2.967751E+00 -1.735154E+01 +3.294652E+02 +1.950524E+01 -2.967751E+00 +1.950524E+01 +9.365733E+02 
 +3.351009E+02 -1.698527E+01 -8.696089E+00 -1.698527E+01 +3.306060E+02 +1.419543E+01 -8.696089E+00 +1.419543E+01 +9.245172E+02 
 +3.508618E+02 -1.438031E+01 -4.564469E+00 -1.438031E+01 +3.440437E+02 -1.520961E+00 -4.564469E+00 -1.520961E+00 +9.261022E+02 
 +3.598641E+02 -1.574813E+01 -7.789343E+00 -1.574813E+01 +3.585079E+02 -1.614066E+01 -7.789343E+00 -1.614066E+01 +9.295467E+02 
 +3.692370E+02 -4.524414E+00 -1.527469E+01 -4.524414E+00 +3.731249E+02 -1.970711E+01 -1.527469E+01 -1.970711E+01 +9.173036E+02 
 +3.726394E+02 -3.445018E-01 -9.564885E+00 -3.445018E-01 +3.817924E+02 -1.671822E+01 -9.564885E+00 -1.671822E+01 +9.098000E+02 
 +3.747506E+02 +2.010142E+00 +3.483814E+00 +2.010142E+00 +3.914596E+02 -1.353905E+01 +3.483814E+00 -1.353905E+01 +9.250136E+02 
 +3.780904E+02 +3.300241E+00 +1.481115E+01 +3.300241E+00 +3.984147E+02 -1.478709E+01 +1.481115E+01 -1.478709E+01 +9.410717E+02 
 +3.649230E+02 +3.916773E+00 +1.259980E+01 +3.916773E+00 +3.832104E+02 -1.151275E+01 +1.259980E+01 -1.151275E+01 +9.443052E+02 
 +3.630697E+02 +7.335427E+00 +7.623421E+00 +7.335427E+00 +3.757021E+02 -1.117065E+01 +7.623421E+00 -1.117065E+01 +9.459023E+02 
 +3.788128E+02 -2.224153E+00 -4.478023E+00 -2.224153E+00 +3.877421E+02 -1.035595E+01 -4.478023E+00 -1.035595E+01 +9.497660E+02 
 +3.642797E+02 +9.191532E+00 +8.057021E+00 +9.191532E+00 +3.735494E+02 -1.314572E+01 +8.057021E+00 -1.314572E+01 +9.431043E+02 
 +3.635991E+02 +2.171457E+00 -2.369843E+01 +2.171457E+00 +3.729799E+02 -8.691351E+00 -2.369843E+01 -8.691351E+00 +9.335671E+02 
 +3.858257E+02 +1.285833E+00 -1.327901E+01 +1.285833E+00 +3.818211E+02 -7.521565E+00 -1.327901E+01 -7.521565E+00 +9.356589E+02 
 +3.992899E+02 +4.999589E+00 -1.161009E+01 +4.999589E+00 +3.921363E+02 -7.244947E+00 -1.161009E+01 -7.244947E+00 +9.459466E+02 
 +4.001140E+02 +5.386185E+00 -4.098241E+00 +5.386185E+00 +4.007957E+02 -2.985364E+00 -4.098241E+00 -2.985364E+00 +9.638556E+02 
 +3.942808E+02 +2.317422E+00 -2.072174E+00 +2.317422E+00 +4.053018E+02 +9.144134E+00 -2.072174E+00 +9.144134E+00 +9.851779E+02 
 +3.913349E+02 -5.299457E-02 +4.133438E+00 -5.299457E-02 +4.047206E+02 +1.530424E+01 +4.133438E+00 +1.530424E+01 +9.788147E+02 
 +3.763124E+02 -8.393360E+00 +6.162508E-01 -8.393360E+00 +3.910351E+02 +8.324417E+00 +6.162508E-01 +8.324417E+00 +9.606737E+02 
 +3.402279E+02 -7.537026E+00 -4.233625E+00 -7.537026E+00 +3.691069E+02 -4.848641E+00 -4.233625E+00 -4.848641E+00 +9.566735E+02 
 +3.511077E+02 -6.978418E+00 -4.156345E+00 -6.978418E+00 +3.765460E+02 -3.888485E+00 -4.156345E+00 -3.888485E+00 +9.648748E+02 
 +3.456111E+02 -8.738336E-01 -4.529378E+00 -8.738336E-01 +3.776818E+02 -2.507251E+00 -4.529378E+00 -2.507251E+00 +9.505928E+02 
 +3.323936E+02 +1.397393E+00 -4.184567E+00 +1.397393E+00 +3.727176E+02 -5.671860E+00 -4.184567E+00 -5.671860E+00 +9.254257E+02 
 +3.775148E+02 -1.322078E+00 -1.675924E+01 -1.322078E+00 +3.913526E+02 -1.121132E+01 -1.675924E+01 -1.121132E+01 +9.339253E+02 
 +3.828428E+02 +8.668368E-01 -2.025618E+01 +8.668368E-01 +3.960675E+02 -2.231389E+01 -2.025618E+01 -2.231389E+01 +9.290239E+02 
 +3.814846E+02 +2.245813E+00 -2.439892E+01 +2.245813E+00 +3.959070E+02 -2.075903E+01 -2.439892E+01 -2.075903E+01 +9.138766E+02 
 +3.786452E+02 +5.463053E+00 -1.767578E+01 +5.463053E+00 +3.844811E+02 -1.092558E+01 -1.767578E+01 -1.092558E+01 +9.111622E+02 
 +3.799239E+02 +9.292929E+00 -9.490602E+00 +9.292929E+00 +3.864973E+02 -6.963071E+00 -9.490602E+00 -6.963071E+00 +9.242293E+02 
 +3.802145E+02 +7.774578E+00 +8.966534E+00 +7.774578E+00 +3.930658E+02 -1.309675E+01 +8.966534E+00 -1.309675E+01 +9.421072E+02 
 +3.763419E+02 +5.574261E+00 +1.565207E+01 +5.574261E+00 +3.886811E+02 -1.023247E+01 +1.565207E+01 -1.023247E+01 +9.494781E+02 
 +3.630190E+02 +1.358376E+01 +9.725066E+00 +1.358376E+01 +3.632766E+02 -2.343589E+00 +9.725066E+00 -2.343589E+00 +9.433940E+02 
 +3.588214E+02 +1.165380E+01 +1.657957E+00 +1.165380E+01 +3.543452E+02 +4.568069E+00 +1.657957E+00 +4.568069E+00 +9.414107E+02 
 +3.488545E+02 +1.487176E+01 +7.046030E-01 +1.487176E+01 +3.614013E+02 -2.032675E+00 +7.046030E-01 -2.032675E+00 +9.365258E+02 
 +3.448660E+02 -1.186445E+00 -2.286794E+01 -1.186445E+00 +3.584612E+02 -1.222284E+01 -2.286794E+01 -1.222284E+01 +9.394174E+02 
 +3.857012E+02 +2.332549E+00 -1.635903E+01 +2.332549E+00 +3.782644E+02 -7.682597E+00 -1.635903E+01 -7.682597E+00 +9.460978E+02 
 +4.013912E+02 +3.340598E+00 -1.245722E+01 +3.340598E+00 +3.871003E+02 -1.041541E+01 -1.245722E+01 -1.041541E+01 +9.555968E+02 
 +3.968073E+02 +4.345372E-01 +6.414109E-01 +4.345372E-01 +3.792563E+02 -1.447520E+01 +6.414109E-01 -1.447520E+01 +9.774122E+02 
 +3.740799E+02 -3.924213E+00 +3.620841E+00 -3.924213E+00 +3.584199E+02 -1.350654E+01 +3.620841E+00 -1.350654E+01 +9.796166E+02 
 +3.695320E+02 -1.009253E+01 +8.200939E+00 -1.009253E+01 +3.575932E+02 -1.415489E+01 +8.200939E+00 -1.415489E+01 +9.710249E+02 
 +3.897856E+02 -2.059438E+01 +1.271638E+01 -2.059438E+01 +3.822717E+02 -1.584516E+01 +1.271638E+01 -1.584516E+01 +9.832546E+02 
 +3.621679E+02 -1.602453E+01 +1.838327E+00 -1.602453E+01 +3.801846E+02 -1.051345E+01 +1.838327E+00 -1.051345E+01 +9.842075E+02 
 +3.533995E+02 -1.307356E+01 -1.479245E+00 -1.307356E+01 +3.860325E+02 -8.440390E+00 -1.479245E+00 -8.440390E+00 +9.804845E+02 
 +3.446258E+02 -7.775393E+00 -3.618786E+00 -7.775393E+00 +3.849171E+02 -9.860814E+00 -3.618786E+00 -9.860814E+00 +9.613002E+02 
 +3.178723E+02 -2.185686E+00 -6.428945E+00 -2.185686E+00 +3.643613E+02 -5.481111E+00 -6.428945E+00 -5.481111E+00 +9.224021E+02 
 +3.719348E+02 -3.918208E+00 -2.416840E+01 -3.918208E+00 +3.855454E+02 -5.931294E+00 -2.416840E+01 -5.931294E+00 +9.309885E+02 
 +3.868434E+02 +9.066981E+00 -2.324902E+01 +9.066981E+00 +3.943948E+02 -1.307781E+01 -2.324902E+01 -1.307781E+01 +9.334223E+02 
 +3.932911E+02 +7.933420E+00 -2.518072E+01 +7.933420E+00 +4.055163E+02 -8.595808E+00 -2.518072E+01 -8.595808E+00 +9.318959E+02 
 +3.954661E+02 +9.410793E+00 -2.141836E+01 +9.410793E+00 +3.979025E+02 -4.142653E+00 -2.141836E+01 -4.142653E+00 +9.358649E+02 
 +3.811990E+02 +1.895303E+01 -1.870592E+01 +1.895303E+01 +3.784039E+02 -1.678823E+00 -1.870592E+01 -1.678823E+00 +9.262857E+02 
 +3.800497E+02 +1.775559E+01 -4.655814E+00 +1.775559E+01 +3.856069E+02 -4.681974E+00 -4.655814E+00 -4.681974E+00 +9.425063E+02 
 +3.731098E+02 +5.808283E+00 +1.654516E+01 +5.808283E+00 +3.846691E+02 -1.116950E+01 +1.654516E+01 -1.116950E+01 +9.510465E+02 
 +3.677464E+02 +2.263453E+00 +1.062759E+01 +2.263453E+00 +3.784512E+02 -1.003223E+01 +1.062759E+01 -1.003223E+01 +9.457366E+02 
 +3.638278E+02 +1.851822E+00 +1.980831E-01 +1.851822E+00 +3.805349E+02 -1.303105E+01 +1.980831E-01 -1.303105E+01 +9.479512E+02 
 +3.431744E+02 +4.881247E+00 -1.410696E+01 +4.881247E+00 +3.664162E+02 -1.545033E+01 -1.410696E+01 -1.545033E+01 +9.401896E+02 
 +3.449583E+02 -2.241440E+00 -1.373788E+01 -2.241440E+00 +3.528938E+02 -9.038954E+00 -1.373788E+01 -9.038954E+00 +9.501669E+02 
 +3.696702E+02 +7.889748E-01 -1.304507E+01 +7.889748E-01 +3.529568E+02 -8.157273E+00 -1.304507E+01 -8.157273E+00 +9.615895E+02 
 +4.017416E+02 +6.232992E+00 -6.405921E+00 +6.232992E+00 +3.630838E+02 -5.194129E+00 -6.405921E+00 -5.194129E+00 +9.745208E+02 
 +4.051205E+02 +7.250518E+00 -2.974450E-01 +7.250518E+00 +3.763179E+02 -2.010731E+00 -2.974450E-01 -2.010731E+00 +9.892058E+02 
 +3.795229E+02 +4.921094E+00 +1.261238E+00 +4.921094E+00 +3.773560E+02 +1.735528E+00 +1.261238E+00 +1.735528E+00 +9.890883E+02 
 +3.790887E+02 +1.448235E+00 +6.311132E+00 +1.448235E+00 +3.882932E+02 -1.802444E+00 +6.311132E+00 -1.802444E+00 +9.821424E+02 
 +4.157415E+02 -1.596487E+01 +1.938764E+01 -1.596487E+01 +4.122847E+02 -8.365865E+00 +1.938764E+01 -8.365865E+00 +9.970143E+02 
 +3.787477E+02 -1.594283E+01 +2.420766E+00 -1.594283E+01 +3.967908E+02 -6.947488E+00 +2.420766E+00 -6.947488E+00 +9.947459E+02 
 +3.588111E+02 -1.408492E+01 -6.138805E+00 -1.408492E+01 +3.917218E+02 -6.069022E+00 -6.138805E+00 -6.069022E+00 +9.835778E+02 
 +3.427240E+02 -6.020164E+00 -4.945000E+00 -6.020164E+00 +3.804166E+02 -8.588709E+00 -4.945000E+00 -8.588709E+00 +9.593451E+02 
 +3.262579E+02 +2.313073E-01 -8.369611E+00 +2.313073E-01 +3.608445E+02 -1.960562E+00 -8.369611E+00 -1.960562E+00 +9.333472E+02 
 +3.761202E+02 +3.274221E-01 -2.427071E+01 +3.274221E-01 +3.730685E+02 +3.811571E+00 -2.427071E+01 +3.811571E+00 +9.459302E+02 
 +3.659231E+02 +1.705079E+01 -1.762500E+01 +1.705079E+01 +3.404068E+02 -7.581396E+00 -1.762500E+01 -7.581396E+00 +9.291744E+02 
 +3.677088E+02 +2.367820E+01 -1.604314E+01 +2.367820E+01 +3.420126E+02 -9.563827E+00 -1.604314E+01 -9.563827E+00 +9.213278E+02 
 +3.770978E+02 +1.230263E+01 -2.526467E+01 +1.230263E+01 +3.721913E+02 -2.722257E+00 -2.526467E+01 -2.722257E+00 +9.295190E+02 
 +3.794062E+02 +1.841451E+01 -1.674078E+01 +1.841451E+01 +3.778436E+02 -1.409495E+00 -1.674078E+01 -1.409495E+00 +9.272305E+02 
 +3.758474E+02 +1.613630E+01 -9.756954E+00 +1.613630E+01 +3.836199E+02 -2.622699E+00 -9.756954E+00 -2.622699E+00 +9.426811E+02 
 +3.536141E+02 -1.679992E+00 +1.774558E+01 -1.679992E+00 +3.790463E+02 -1.009189E+01 +1.774558E+01 -1.009189E+01 +9.470319E+02 
 +3.560482E+02 -1.165997E+00 +9.279072E+00 -1.165997E+00 +3.812319E+02 -1.324009E+01 +9.279072E+00 -1.324009E+01 +9.430024E+02 
 +3.526068E+02 +1.850795E-01 -2.870709E+00 +1.850795E-01 +3.768227E+02 -1.456309E+01 -2.870709E+00 -1.456309E+01 +9.397067E+02 
 +3.464275E+02 +1.383360E+00 -1.258150E+01 +1.383360E+00 +3.631015E+02 -1.171936E+01 -1.258150E+01 -1.171936E+01 +9.407173E+02 
 +3.512289E+02 -2.956911E+00 -5.325764E+00 -2.956911E+00 +3.586885E+02 -6.872941E+00 -5.325764E+00 -6.872941E+00 +9.544293E+02 
 +3.544298E+02 -5.028685E+00 -7.090953E+00 -5.028685E+00 +3.465479E+02 -3.338792E+00 -7.090953E+00 -3.338792E+00 +9.484847E+02 
 +4.071746E+02 +3.468582E+00 -2.822688E+00 +3.468582E+00 +3.602769E+02 +2.246863E+00 -2.822688E+00 +2.246863E+00 +9.713837E+02 
 +4.022937E+02 +5.964762E+00 -9.857445E+00 +5.964762E+00 +3.718264E+02 +9.340769E+00 -9.857445E+00 +9.340769E+00 +9.898639E+02 
 +3.935922E+02 +1.250931E+00 -9.179961E+00 +1.250931E+00 +3.934519E+02 +1.013819E+01 -9.179961E+00 +1.013819E+01 +1.003929E+03 
 +3.828595E+02 -7.439911E-01 +8.679079E-01 -7.439911E-01 +3.910286E+02 +8.674439E+00 +8.679079E-01 +8.674439E+00 +9.927960E+02 
 +4.307098E+02 -8.834754E+00 +1.391766E+01 -8.834754E+00 +4.264568E+02 +5.148292E-01 +1.391766E+01 +5.148292E-01 +1.001161E+03 
 +3.934596E+02 -6.779710E+00 +5.102027E+00 -6.779710E+00 +4.149694E+02 -5.489774E+00 +5.102027E+00 -5.489774E+00 +9.912958E+02 
 +3.557136E+02 -4.622193E+00 -6.628512E+00 -4.622193E+00 +3.877535E+02 -3.987283E+00 -6.628512E+00 -3.987283E+00 +9.779174E+02 
 +3.486568E+02 -2.351585E+00 -5.206603E+00 -2.351585E+00 +3.769868E+02 -3.376816E+00 -5.206603E+00 -3.376816E+00 +9.644972E+02 
 +3.371112E+02 +4.412768E-01 -5.623276E+00 +4.412768E-01 +3.569444E+02 -1.771969E+00 -5.623276E+00 -1.771969E+00 +9.477697E+02 
 +3.877463E+02 -4.559207E-01 -2.396779E+01 -4.559207E-01 +3.800364E+02 +1.252634E+00 -2.396779E+01 +1.252634E+00 +9.585792E+02 
 +3.783115E+02 +4.165949E+00 -1.891713E+01 +4.165949E+00 +3.651540E+02 -1.510828E+00 -1.891713E+01 -1.510828E+00 +9.340449E+02 
 +3.652830E+02 +2.103763E+01 -1.101263E+01 +2.103763E+01 +3.432307E+02 -8.503129E+00 -1.101263E+01 -8.503129E+00 +9.213651E+02 
 +3.562133E+02 +1.100315E+01 -2.418972E+01 +1.100315E+01 +3.510444E+02 -4.712547E+00 -2.418972E+01 -4.712547E+00 +9.237811E+02 
 +3.687616E+02 +1.149841E+01 -1.491446E+01 +1.149841E+01 +3.740262E+02 +1.249082E+00 -1.491446E+01 +1.249082E+00 +9.246660E+02 
 +3.686074E+02 +1.299685E+01 -9.747523E+00 +1.299685E+01 +3.801643E+02 +8.944147E-02 -9.747523E+00 +8.944147E-02 +9.390544E+02 
 +3.461710E+02 -2.347848E+00 +1.908194E+01 -2.347848E+00 +3.749272E+02 -7.423887E+00 +1.908194E+01 -7.423887E+00 +9.486918E+02 
 +3.482672E+02 +1.443758E+00 +1.131718E+01 +1.443758E+00 +3.761812E+02 -9.788818E+00 +1.131718E+01 -9.788818E+00 +9.479936E+02 
 +3.491076E+02 +6.639895E-01 +2.468570E+00 +6.639895E-01 +3.714506E+02 -1.042351E+01 +2.468570E+00 -1.042351E+01 +9.465703E+02 
 +3.510938E+02 -7.499301E-01 -4.038009E+00 -7.499301E-01 +3.640162E+02 -9.052090E+00 -4.038009E+00 -9.052090E+00 +9.511565E+02 
 +3.525545E+02 -4.882120E+00 +2.416932E+00 -4.882120E+00 +3.545656E+02 -8.378100E+00 +2.416932E+00 -8.378100E+00 +9.405481E+02 
 +3.617630E+02 -2.709576E+00 +1.201485E-01 -2.709576E+00 +3.601221E+02 -9.988187E-01 +1.201485E-01 -9.988187E-01 +9.244242E+02 
 +3.970779E+02 +3.785642E+00 -4.593823E+00 +3.785642E+00 +3.634288E+02 -2.423169E-01 -4.593823E+00 -2.423169E-01 +9.366060E+02 
 +3.643807E+02 +1.764819E+01 -1.575232E+01 +1.764819E+01 +3.145540E+02 +2.556805E+00 -1.575232E+01 +2.556805E+00 +9.477227E+02 
 +3.586875E+02 +2.134281E+01 -8.314596E+00 +2.134281E+01 +3.175465E+02 +5.303653E+00 -8.314596E+00 +5.303653E+00 +9.740416E+02 
 +3.738207E+02 +1.210770E+01 +5.508809E+00 +1.210770E+01 +3.446418E+02 +3.346903E+00 +5.508809E+00 +3.346903E+00 +9.870811E+02 
 +3.986911E+02 +7.892218E+00 +9.918504E+00 +7.892218E+00 +3.684515E+02 +2.611814E+00 +9.918504E+00 +2.611814E+00 +9.843397E+02 
 +3.968494E+02 -4.164857E-01 +9.855050E+00 -4.164857E-01 +3.940924E+02 +4.049372E+00 +9.855050E+00 +4.049372E+00 +9.864457E+02 
 +3.591624E+02 +8.093780E-01 -1.950009E+00 +8.093780E-01 +3.962623E+02 -1.063669E+00 -1.950009E+00 -1.063669E+00 +9.877881E+02 
 +3.613918E+02 -2.760165E-01 -6.173760E+00 -2.760165E-01 +3.944556E+02 -3.857570E+00 -6.173760E+00 -3.857570E+00 +9.879351E+02 
 +3.513740E+02 -3.113342E+00 -6.211532E+00 -3.113342E+00 +3.731944E+02 -3.888404E+00 -6.211532E+00 -3.888404E+00 +9.691103E+02 
 +3.841150E+02 -6.219654E-01 -2.639647E+01 -6.219654E-01 +3.795009E+02 -1.847487E+00 -2.639647E+01 -1.847487E+00 +9.633908E+02 
 +3.765466E+02 +2.060754E+00 -2.190217E+01 +2.060754E+00 +3.815950E+02 -3.343506E+00 -2.190217E+01 -3.343506E+00 +9.409520E+02 
 +3.746729E+02 +1.032425E+01 -1.419023E+01 +1.032425E+01 +3.823094E+02 -1.016403E+01 -1.419023E+01 -1.016403E+01 +9.357263E+02 
 +3.622700E+02 +1.001891E+01 -1.624229E+01 +1.001891E+01 +3.642332E+02 -9.442827E+00 -1.624229E+01 -9.442827E+00 +9.289041E+02 
 +3.627417E+02 +1.122268E+01 -1.165458E+01 +1.122268E+01 +3.653699E+02 -1.555098E-01 -1.165458E+01 -1.555098E-01 +9.221751E+02 
 +3.674664E+02 +1.587941E+01 -1.114829E+01 +1.587941E+01 +3.772647E+02 +6.936704E-02 -1.114829E+01 +6.936704E-02 +9.341587E+02 
 +3.416625E+02 -2.150597E+00 +1.792270E+01 -2.150597E+00 +3.689598E+02 -9.221620E+00 +1.792270E+01 -9.221620E+00 +9.447098E+02 
 +3.446325E+02 +1.267654E+00 +1.111644E+01 +1.267654E+00 +3.711831E+02 -1.261591E+01 +1.111644E+01 -1.261591E+01 +9.528540E+02 
 +3.456806E+02 -1.352013E+00 +5.154859E+00 -1.352013E+00 +3.699838E+02 -1.281584E+01 +5.154859E+00 -1.281584E+01 +9.523838E+02 
 +3.446089E+02 -6.265381E+00 -2.587791E-01 -6.265381E+00 +3.600250E+02 -1.132663E+01 -2.587791E-01 -1.132663E+01 +9.489239E+02 
 +3.762866E+02 +3.300715E+00 +1.061938E+01 +3.300715E+00 +3.736402E+02 -8.445275E+00 +1.061938E+01 -8.445275E+00 +9.284191E+02 
 +3.908389E+02 +9.542371E+00 +9.446578E+00 +9.542371E+00 +3.833142E+02 -2.555472E+00 +9.446578E+00 -2.555472E+00 +9.184213E+02 
 +4.027268E+02 +6.867415E+00 -3.547109E+00 +6.867415E+00 +3.954186E+02 -4.766069E+00 -3.547109E+00 -4.766069E+00 +9.247457E+02 
 +3.832867E+02 +1.089499E+01 -7.885498E+00 +1.089499E+01 +3.671971E+02 -5.568542E+00 -7.885498E+00 -5.568542E+00 +9.301646E+02 
 +3.660883E+02 +2.684071E+01 +1.423686E+00 +2.684071E+01 +3.346374E+02 +5.372140E+00 +1.423686E+00 +5.372140E+00 +9.540076E+02 
 +3.821967E+02 +1.358001E+01 +1.146813E+01 +1.358001E+01 +3.495368E+02 +5.720325E+00 +1.146813E+01 +5.720325E+00 +9.816046E+02 
 +3.825652E+02 +7.621189E+00 +1.305459E+01 +7.621189E+00 +3.521820E+02 +3.389064E+00 +1.305459E+01 +3.389064E+00 +9.758403E+02 
 +3.905669E+02 +9.724144E+00 +1.045335E+01 +9.724144E+00 +3.733205E+02 -3.372794E-01 +1.045335E+01 -3.372794E-01 +9.882717E+02 
 +3.886229E+02 +6.132451E+00 +9.783530E-02 +6.132451E+00 +4.057859E+02 -6.180911E+00 +9.783530E-02 -6.180911E+00 +1.008112E+03 
 +3.780002E+02 +5.414543E+00 -9.217998E+00 +5.414543E+00 +4.023658E+02 -7.458619E+00 -9.217998E+00 -7.458619E+00 +1.007070E+03 
 +3.520212E+02 +1.181253E+01 -9.535969E+00 +1.181253E+01 +3.816341E+02 -9.291879E+00 -9.535969E+00 -9.291879E+00 +9.861713E+02 
 +3.628745E+02 +3.474223E+00 -2.120579E+01 +3.474223E+00 +3.826125E+02 -5.761660E+00 -2.120579E+01 -5.761660E+00 +9.774375E+02 
 +3.594505E+02 +8.220145E+00 -2.267893E+01 +8.220145E+00 +3.737969E+02 -4.858993E+00 -2.267893E+01 -4.858993E+00 +9.541256E+02 
 +3.581315E+02 +9.279244E+00 -1.577038E+01 +9.279244E+00 +3.720618E+02 -6.993367E+00 -1.577038E+01 -6.993367E+00 +9.318575E+02 
 +3.587142E+02 +1.075509E+01 -1.130926E+01 +1.075509E+01 +3.667827E+02 -8.953954E+00 -1.130926E+01 -8.953954E+00 +9.213492E+02 
 +3.637133E+02 +1.045784E+01 -7.027922E+00 +1.045784E+01 +3.666427E+02 -6.965386E+00 -7.027922E+00 -6.965386E+00 +9.201219E+02 
 +3.678624E+02 +1.444054E+01 -1.162822E+01 +1.444054E+01 +3.739406E+02 -5.071612E+00 -1.162822E+01 -5.071612E+00 +9.332470E+02 
 +3.318418E+02 -6.408528E+00 +1.264461E+01 -6.408528E+00 +3.620320E+02 -1.258365E+01 +1.264461E+01 -1.258365E+01 +9.385062E+02 
 +3.387150E+02 -4.796457E+00 +3.406302E+00 -4.796457E+00 +3.665117E+02 -1.914916E+01 +3.406302E+00 -1.914916E+01 +9.508780E+02 
 +3.525907E+02 -4.714909E+00 +5.099711E+00 -4.714909E+00 +3.741128E+02 -2.069105E+01 +5.099711E+00 -2.069105E+01 +9.558259E+02 
 +3.452179E+02 -7.891864E+00 +4.935383E+00 -7.891864E+00 +3.637058E+02 -1.475610E+01 +4.935383E+00 -1.475610E+01 +9.402438E+02 
 +3.953832E+02 +7.417429E+00 +2.152859E+01 +7.417429E+00 +3.778014E+02 -1.528696E+01 +2.152859E+01 -1.528696E+01 +9.299139E+02 
 +3.971953E+02 +9.842213E+00 +1.480560E+01 +9.842213E+00 +3.802344E+02 -1.306468E+01 +1.480560E+01 -1.306468E+01 +9.121818E+02 
 +4.010587E+02 +8.087982E+00 +1.447708E+00 +8.087982E+00 +3.979419E+02 -1.255016E+01 +1.447708E+00 -1.255016E+01 +9.202136E+02 
 +3.863692E+02 +8.147499E-01 -2.809629E+00 +8.147499E-01 +3.875789E+02 -1.220852E+01 -2.809629E+00 -1.220852E+01 +9.221404E+02 
 +3.724436E+02 +2.250513E+01 +2.369815E+00 +2.250513E+01 +3.568619E+02 -4.513173E+00 +2.369815E+00 -4.513173E+00 +9.421903E+02 
 +3.715706E+02 +1.721474E+01 +9.072412E+00 +1.721474E+01 +3.408990E+02 +2.243999E+00 +9.072412E+00 +2.243999E+00 +9.610371E+02 
 +3.843284E+02 +1.174022E+01 +9.374715E+00 +1.174022E+01 +3.497418E+02 +3.751571E+00 +9.374715E+00 +3.751571E+00 +9.655961E+02 
 +3.880987E+02 +2.380153E+01 +3.840556E+00 +2.380153E+01 +3.579789E+02 +5.385538E-03 +3.840556E+00 +5.385538E-03 +9.755686E+02 
 +3.689826E+02 +1.436752E+01 +3.572555E+00 +1.436752E+01 +3.482480E+02 -4.123745E-01 +3.572555E+00 -4.123745E-01 +9.813137E+02 
 +3.470904E+02 -5.098044E+00 +7.071649E-01 -5.098044E+00 +3.531047E+02 -5.291032E+00 +7.071649E-01 -5.291032E+00 +9.883437E+02 
 +3.433158E+02 -5.076359E+00 -5.605130E+00 -5.076359E+00 +3.689211E+02 -1.090838E+01 -5.605130E+00 -1.090838E+01 +9.863754E+02 
 +3.365470E+02 -5.779290E+00 -1.209078E+01 -5.779290E+00 +3.706663E+02 -1.175634E+01 -1.209078E+01 -1.175634E+01 +9.739969E+02 
 +3.436476E+02 +8.033088E+00 -2.200179E+01 +8.033088E+00 +3.682644E+02 -1.261642E+01 -2.200179E+01 -1.261642E+01 +9.634181E+02 
 +3.479695E+02 +1.041931E+01 -2.065954E+01 +1.041931E+01 +3.651752E+02 -1.344299E+01 -2.065954E+01 -1.344299E+01 +9.450059E+02 
 +3.570420E+02 +9.524413E+00 -1.124280E+01 +9.524413E+00 +3.723553E+02 -1.409322E+01 -1.124280E+01 -1.409322E+01 +9.316774E+02 
 +3.539318E+02 +1.002841E+01 -9.390503E+00 +1.002841E+01 +3.692325E+02 -1.144655E+01 -9.390503E+00 -1.144655E+01 +9.146200E+02 
 +3.541147E+02 +7.194944E+00 -1.600727E+01 +7.194944E+00 +3.700352E+02 -1.132857E+01 -1.600727E+01 -1.132857E+01 +9.233608E+02 
 +3.403095E+02 -1.281193E+01 +4.547360E+00 -1.281193E+01 +3.648866E+02 -1.935762E+01 +4.547360E+00 -1.935762E+01 +9.463777E+02 
 +3.458676E+02 -8.073428E+00 +1.467170E+00 -8.073428E+00 +3.600847E+02 -2.115538E+01 +1.467170E+00 -2.115538E+01 +9.665370E+02 
 +3.571159E+02 +1.211958E+00 +8.245037E+00 +1.211958E+00 +3.532225E+02 -1.661172E+01 +8.245037E+00 -1.661172E+01 +9.691755E+02 
 +3.524266E+02 -2.304568E+00 +1.487831E+01 -2.304568E+00 +3.541213E+02 -1.902951E+01 +1.487831E+01 -1.902951E+01 +9.483694E+02 
 +3.888311E+02 +8.657444E+00 +2.171249E+01 +8.657444E+00 +3.667483E+02 -2.075162E+01 +2.171249E+01 -2.075162E+01 +9.367905E+02 
 +4.015652E+02 +9.628473E+00 +1.888996E+01 +9.628473E+00 +3.806790E+02 -2.084575E+01 +1.888996E+01 -2.084575E+01 +9.198558E+02 
 +3.992188E+02 +8.922586E+00 +9.695974E+00 +8.922586E+00 +3.893051E+02 -1.500887E+01 +9.695974E+00 -1.500887E+01 +9.170553E+02 
 +3.984480E+02 -5.361545E+00 +2.439780E+00 -5.361545E+00 +4.049148E+02 -1.130644E+01 +2.439780E+00 -1.130644E+01 +9.320741E+02 
 +3.903437E+02 +6.706882E+00 -1.973430E+00 +6.706882E+00 +3.920219E+02 -6.986556E+00 -1.973430E+00 -6.986556E+00 +9.582753E+02 
 +3.939866E+02 +1.392155E+01 -2.301437E+00 +1.392155E+01 +3.653862E+02 -3.405819E+00 -2.301437E+00 -3.405819E+00 +9.690441E+02 
 +3.819855E+02 +1.472304E+01 -4.149113E+00 +1.472304E+01 +3.434056E+02 +1.263002E+00 -4.149113E+00 +1.263002E+00 +9.575324E+02 
 +3.866501E+02 +2.329491E+01 -2.767876E+00 +2.329491E+01 +3.592343E+02 -9.908729E-01 -2.767876E+00 -9.908729E-01 +9.701309E+02 
 +3.427626E+02 -5.135541E+00 +7.607318E+00 -5.135541E+00 +3.471670E+02 -3.259373E+00 +7.607318E+00 -3.259373E+00 +9.661560E+02 
 +3.221693E+02 -1.285888E+01 +1.098234E+01 -1.285888E+01 +3.400887E+02 -8.038430E+00 +1.098234E+01 -8.038430E+00 +9.647216E+02 
 +3.362393E+02 -1.401672E+01 +2.957079E+00 -1.401672E+01 +3.592826E+02 -9.832035E+00 +2.957079E+00 -9.832035E+00 +9.684756E+02 
 +3.409351E+02 -1.367296E+01 -5.446894E+00 -1.367296E+01 +3.741587E+02 -7.102502E+00 -5.446894E+00 -7.102502E+00 +9.653795E+02 
 +3.394587E+02 -8.557108E+00 -1.138619E+01 -8.557108E+00 +3.757411E+02 -9.690233E+00 -1.138619E+01 -9.690233E+00 +9.622098E+02 
 +3.511141E+02 +7.478718E+00 -1.802414E+01 +7.478718E+00 +3.720359E+02 -1.107328E+01 -1.802414E+01 -1.107328E+01 +9.553444E+02 
 +3.408396E+02 +4.518792E+00 -6.516752E+00 +4.518792E+00 +3.612861E+02 -1.118071E+01 -6.516752E+00 -1.118071E+01 +9.314373E+02 
 +3.493371E+02 +1.074073E+01 -1.323123E+01 +1.074073E+01 +3.758945E+02 -1.168649E+01 -1.323123E+01 -1.168649E+01 +9.219856E+02 
 +3.589248E+02 +2.707076E+00 -1.854959E+01 +2.707076E+00 +3.727432E+02 -6.579523E+00 -1.854959E+01 -6.579523E+00 +9.376258E+02 
 +3.489810E+02 -2.896845E+00 -3.489307E+00 -2.896845E+00 +3.386039E+02 -8.329075E-01 -3.489307E+00 -8.329075E-01 +9.586616E+02 
 +3.508884E+02 +6.071972E-01 +4.267238E+00 +6.071972E-01 +3.385838E+02 -9.500394E-01 +4.267238E+00 -9.500394E-01 +9.732846E+02 
 +3.564876E+02 +5.796176E+00 +8.517863E+00 +5.796176E+00 +3.403714E+02 -2.190214E+00 +8.517863E+00 -2.190214E+00 +9.728527E+02 
 +3.563679E+02 +7.783667E+00 +1.352963E+01 +7.783667E+00 +3.391571E+02 -9.565720E+00 +1.352963E+01 -9.565720E+00 +9.554408E+02 
 +3.686899E+02 +4.200084E+00 +3.301895E+00 +4.200084E+00 +3.519087E+02 +6.141320E-01 +3.301895E+00 +6.141320E-01 +9.285288E+02 
 +3.988971E+02 +7.667635E+00 +1.381928E+01 +7.667635E+00 +3.755910E+02 -1.492063E+01 +1.381928E+01 -1.492063E+01 +9.315023E+02 
 +4.109062E+02 +3.615903E+00 +1.644611E+01 +3.615903E+00 +3.979384E+02 -1.448247E+01 +1.644611E+01 -1.448247E+01 +9.308415E+02 
 +4.085669E+02 -7.672392E+00 +1.003832E+01 -7.672392E+00 +4.001497E+02 -2.837521E+00 +1.003832E+01 -2.837521E+00 +9.335599E+02 
 +4.098591E+02 +1.152906E-01 -3.885036E+00 +1.152906E-01 +3.878953E+02 +4.101066E-01 -3.885036E+00 +4.101066E-01 +9.600780E+02 
 +3.956465E+02 +1.692952E+01 -8.995283E+00 +1.692952E+01 +3.610938E+02 -6.191345E+00 -8.995283E+00 -6.191345E+00 +9.679978E+02 
 +3.633028E+02 +1.243717E+01 -1.556037E+00 +1.243717E+01 +3.448539E+02 -4.671482E+00 -1.556037E+00 -4.671482E+00 +9.581204E+02 
 +3.431880E+02 +1.532160E+01 +3.775697E+00 +1.532160E+01 +3.404020E+02 -4.103658E+00 +3.775697E+00 -4.103658E+00 +9.604923E+02 
 +3.086953E+02 -1.577358E+01 +1.046374E+01 -1.577358E+01 +3.298746E+02 -4.342571E+00 +1.046374E+01 -4.342571E+00 +9.541732E+02 
 +3.252756E+02 -1.907408E+01 +1.007779E+01 -1.907408E+01 +3.472217E+02 -2.784355E+00 +1.007779E+01 -2.784355E+00 +9.613459E+02 
 +3.313984E+02 -2.086608E+01 +6.881377E+00 -2.086608E+01 +3.521361E+02 -3.406323E+00 +6.881377E+00 -3.406323E+00 +9.586007E+02 
 +3.416965E+02 -1.516655E+01 +1.055602E+00 -1.516655E+01 +3.663328E+02 -5.367619E+00 +1.055602E+00 -5.367619E+00 +9.589596E+02 
 +3.440678E+02 -1.269062E+01 +2.819526E+00 -1.269062E+01 +3.817935E+02 -9.408910E+00 +2.819526E+00 -9.408910E+00 +9.592012E+02 
 +3.504092E+02 -3.947406E+00 -2.646538E-01 -3.947406E+00 +3.864965E+02 -7.502501E+00 -2.646538E-01 -7.502501E+00 +9.529247E+02 
 +3.349780E+02 -7.995643E+00 -1.564598E+00 -7.995643E+00 +3.599677E+02 +2.172023E+00 -1.564598E+00 +2.172023E+00 +9.290113E+02 
 +3.470063E+02 +1.107620E+01 -1.446168E+01 +1.107620E+01 +3.503940E+02 +1.273913E+00 -1.446168E+01 +1.273913E+00 +9.326035E+02 
 +3.718355E+02 -7.481453E+00 -1.474164E+01 -7.481453E+00 +3.494887E+02 +1.865287E+00 -1.474164E+01 +1.865287E+00 +9.581303E+02 
 +3.649904E+02 -5.385440E+00 -1.635616E+01 -5.385440E+00 +3.479499E+02 +1.117465E+01 -1.635616E+01 +1.117465E+01 +9.629944E+02 
 +3.689634E+02 -1.963149E+00 -4.026968E+00 -1.963149E+00 +3.615968E+02 +1.402435E+01 -4.026968E+00 +1.402435E+01 +9.590049E+02 
 +3.664438E+02 +3.549630E-01 +1.706907E+00 +3.549630E-01 +3.611328E+02 +1.148786E+01 +1.706907E+00 +1.148786E+01 +9.563581E+02 
 +3.630787E+02 +6.188582E+00 +1.161437E+00 +6.188582E+00 +3.566862E+02 +8.966488E+00 +1.161437E+00 +8.966488E+00 +9.464200E+02 
 +3.585676E+02 +7.601009E+00 -3.988512E+00 +7.601009E+00 +3.432989E+02 +1.165224E+01 -3.988512E+00 +1.165224E+01 +9.260106E+02 
 +3.523427E+02 +9.967201E+00 +8.409072E+00 +9.967201E+00 +3.180909E+02 +1.570334E+01 +8.409072E+00 +1.570334E+01 +9.200734E+02 
 +3.727421E+02 +6.376886E+00 +1.880821E+01 +6.376886E+00 +3.126684E+02 +1.228982E+01 +1.880821E+01 +1.228982E+01 +9.286702E+02 
 +4.010959E+02 -7.498210E+00 +7.957180E+00 -7.498210E+00 +3.405881E+02 +9.664619E+00 +7.957180E+00 +9.664619E+00 +9.438166E+02 
 +4.035641E+02 -1.732987E+01 -4.589362E+00 -1.732987E+01 +3.653646E+02 +2.503706E+00 -4.589362E+00 +2.503706E+00 +9.617706E+02 
 +3.752136E+02 -1.435222E+01 -9.932825E+00 -1.435222E+01 +3.757008E+02 -6.474420E+00 -9.932825E+00 -6.474420E+00 +9.658896E+02 
 +3.546129E+02 -1.991447E+01 +1.605220E+00 -1.991447E+01 +3.833597E+02 -9.326976E+00 +1.605220E+00 -9.326976E+00 +9.659610E+02 
 +3.332718E+02 -1.684772E+01 +6.693408E+00 -1.684772E+01 +3.607811E+02 -7.714398E+00 +6.693408E+00 -7.714398E+00 +9.637223E+02 
 +3.200972E+02 -2.469280E+01 +8.464930E+00 -2.469280E+01 +3.390931E+02 -3.750994E+00 +8.464930E+00 -3.750994E+00 +9.622498E+02 
 +3.250651E+02 -2.536274E+01 +9.806789E+00 -2.536274E+01 +3.445185E+02 -3.853160E+00 +9.806789E+00 -3.853160E+00 +9.641722E+02 
 +3.293048E+02 -2.499963E+01 +9.533872E+00 -2.499963E+01 +3.492055E+02 -5.786945E+00 +9.533872E+00 -5.786945E+00 +9.619748E+02 
 +3.312258E+02 -2.517704E+01 +7.840437E+00 -2.517704E+01 +3.533474E+02 -1.289045E+01 +7.840437E+00 -1.289045E+01 +9.568143E+02 
 +3.512810E+02 -2.118271E+01 +1.456553E+01 -2.118271E+01 +3.776034E+02 -1.511969E+01 +1.456553E+01 -1.511969E+01 +9.607889E+02 
 +3.582841E+02 -1.088027E+01 +1.517148E+01 -1.088027E+01 +3.890313E+02 -6.048735E+00 +1.517148E+01 -6.048735E+00 +9.534642E+02 
 +3.663321E+02 -3.885332E+00 +3.741074E+00 -3.885332E+00 +3.850990E+02 +8.632743E+00 +3.741074E+00 +8.632743E+00 +9.442500E+02 
 +3.753088E+02 +1.121129E+01 -1.313489E+01 +1.121129E+01 +3.681176E+02 +8.911036E+00 -1.313489E+01 +8.911036E+00 +9.557340E+02 
 +3.851725E+02 -5.639268E+00 -9.652423E+00 -5.639268E+00 +3.544942E+02 -4.323627E+00 -9.652423E+00 -4.323627E+00 +9.693946E+02 
 +3.659928E+02 +3.840183E+00 -1.760698E+01 +3.840183E+00 +3.439773E+02 +2.294661E+00 -1.760698E+01 +2.294661E+00 +9.503190E+02 
 +3.710547E+02 +5.248280E+00 -1.071541E+01 +5.248280E+00 +3.571923E+02 +1.685900E+01 -1.071541E+01 +1.685900E+01 +9.445140E+02 
 +3.681027E+02 +5.770488E-01 -6.954374E+00 +5.770488E-01 +3.637656E+02 +1.654064E+01 -6.954374E+00 +1.654064E+01 +9.476081E+02 
 +3.610597E+02 +6.477835E+00 -4.105417E+00 +6.477835E+00 +3.538425E+02 +1.163902E+01 -4.105417E+00 +1.163902E+01 +9.402078E+02 
 +3.688799E+02 +6.954857E+00 -4.799305E+00 +6.954857E+00 +3.478596E+02 +7.468792E+00 -4.799305E+00 +7.468792E+00 +9.399388E+02 
 +3.581744E+02 +7.454815E+00 +3.532167E+00 +7.454815E+00 +3.286886E+02 +1.212154E+01 +3.532167E+00 +1.212154E+01 +9.368712E+02 
 +3.725677E+02 +2.055115E+01 +1.623540E+01 +2.055115E+01 +3.271335E+02 +2.051991E+01 +1.623540E+01 +2.051991E+01 +9.540228E+02 
 +3.949439E+02 -5.042763E+00 +5.606279E+00 -5.042763E+00 +3.421439E+02 +2.299869E+01 +5.606279E+00 +2.299869E+01 +9.660799E+02 
 +3.613963E+02 -1.488219E+01 -4.183612E+00 -1.488219E+01 +3.505087E+02 +1.268357E+01 -4.183612E+00 +1.268357E+01 +9.572139E+02 
 +3.513010E+02 -1.328836E+01 -1.146700E+01 -1.328836E+01 +3.768858E+02 +1.969326E+00 -1.146700E+01 +1.969326E+00 +9.607519E+02 
 +3.437227E+02 -1.092901E+01 -8.015544E+00 -1.092901E+01 +3.752224E+02 -2.248577E+00 -8.015544E+00 -2.248577E+00 +9.588172E+02 
 +3.358592E+02 -1.256004E+01 +8.321519E-01 -1.256004E+01 +3.658403E+02 -5.202621E+00 +8.321519E-01 -5.202621E+00 +9.608317E+02 
 +3.323455E+02 -2.095090E+01 +3.032301E+00 -2.095090E+01 +3.528123E+02 -4.906957E+00 +3.032301E+00 -4.906957E+00 +9.673892E+02 
 +3.287458E+02 -2.495323E+01 +6.993135E+00 -2.495323E+01 +3.470403E+02 -5.707847E+00 +6.993135E+00 -5.707847E+00 +9.674934E+02 
 +3.239274E+02 -2.634559E+01 +1.008760E+01 -2.634559E+01 +3.433145E+02 -1.129404E+01 +1.008760E+01 -1.129404E+01 +9.633744E+02 
 +3.308972E+02 -1.564108E+01 +8.047542E+00 -1.564108E+01 +3.461202E+02 -2.170531E+01 +8.047542E+00 -2.170531E+01 +9.553849E+02 
 +3.688338E+02 +2.207067E-01 +2.420733E+01 +2.207067E-01 +3.724351E+02 -2.138009E+01 +2.420733E+01 -2.138009E+01 +9.584748E+02 
 +3.693743E+02 +1.959558E+00 +2.068081E+01 +1.959558E+00 +3.734271E+02 -1.112857E+01 +2.068081E+01 -1.112857E+01 +9.477594E+02 
 +3.762342E+02 +1.016071E-02 +1.351443E+01 +1.016071E-02 +3.777862E+02 -2.345717E+00 +1.351443E+01 -2.345717E+00 +9.458790E+02 
 +3.814697E+02 -2.729546E+00 -4.902628E+00 -2.729546E+00 +3.664229E+02 +3.691798E+00 -4.902628E+00 +3.691798E+00 +9.642757E+02 
 +3.741503E+02 -1.318745E+01 -4.953673E+00 -1.318745E+01 +3.355866E+02 -1.002752E+01 -4.953673E+00 -1.002752E+01 +9.685033E+02 
 +3.579787E+02 -2.646979E+00 -6.262122E+00 -2.646979E+00 +3.023765E+02 -1.472267E+01 -6.262122E+00 -1.472267E+01 +9.493758E+02 
 +3.463580E+02 +1.247829E+01 -9.988153E+00 +1.247829E+01 +3.011237E+02 -5.638706E-01 -9.988153E+00 -5.638706E-01 +9.363075E+02 
 +3.567739E+02 +5.319756E+00 -1.203302E+01 +5.319756E+00 +3.428767E+02 +1.150455E+01 -1.203302E+01 +1.150455E+01 +9.433539E+02 
 +3.673738E+02 +3.474677E-01 -7.514780E+00 +3.474677E-01 +3.562921E+02 +1.297677E+01 -7.514780E+00 +1.297677E+01 +9.484387E+02 
 +3.616842E+02 +7.026657E+00 -6.520566E+00 +7.026657E+00 +3.329179E+02 +5.082101E+00 -6.520566E+00 +5.082101E+00 +9.350167E+02 
 +3.907969E+02 +2.777508E+00 -4.903431E+00 +2.777508E+00 +3.594808E+02 +1.200995E+01 -4.903431E+00 +1.200995E+01 +9.634223E+02 
 +3.592982E+02 +1.259274E+01 +4.890755E+00 +1.259274E+01 +3.566909E+02 +2.534075E+01 +4.890755E+00 +2.534075E+01 +9.675050E+02 
 +3.445069E+02 -1.989176E+01 +3.131503E+00 -1.989176E+01 +3.517736E+02 +2.887439E+01 +3.131503E+00 +2.887439E+01 +9.597251E+02 
 +3.549598E+02 -1.795941E+01 +1.666260E+00 -1.795941E+01 +3.621169E+02 +1.666680E+01 +1.666260E+00 +1.666680E+01 +9.551139E+02 
 +3.550482E+02 -1.040416E+01 -3.812089E+00 -1.040416E+01 +3.714505E+02 +6.827935E+00 -3.812089E+00 +6.827935E+00 +9.547222E+02 
 +3.510439E+02 -9.040077E+00 -9.718706E+00 -9.040077E+00 +3.803945E+02 +1.733593E+00 -9.718706E+00 +1.733593E+00 +9.589038E+02 
 +3.427385E+02 -1.456707E+01 -2.070551E+00 -1.456707E+01 +3.733700E+02 -1.080880E+00 -2.070551E+00 -1.080880E+00 +9.607020E+02 
 +3.405591E+02 -1.756608E+01 -8.714844E-01 -1.756608E+01 +3.626634E+02 -8.283983E+00 -8.714844E-01 -8.283983E+00 +9.708013E+02 
 +3.335109E+02 -1.110238E+01 +2.444665E+00 -1.110238E+01 +3.482388E+02 -1.098221E+01 +2.444665E+00 -1.098221E+01 +9.723489E+02 
 +3.206842E+02 -1.293501E+01 +6.145335E+00 -1.293501E+01 +3.294665E+02 -1.607689E+01 +6.145335E+00 -1.607689E+01 +9.645390E+02 
 +3.495220E+02 +4.303442E+00 -5.133245E-02 +4.303442E+00 +3.433295E+02 -2.572860E+01 -5.133245E-02 -2.572860E+01 +9.600623E+02 
 +3.784543E+02 +1.094847E+01 +1.741650E+01 +1.094847E+01 +3.683909E+02 -2.521566E+01 +1.741650E+01 -2.521566E+01 +9.618685E+02 
 +3.817133E+02 +7.436431E+00 +2.019871E+01 +7.436431E+00 +3.785018E+02 -2.019810E+01 +2.019871E+01 -2.019810E+01 +9.657596E+02 
 +3.778588E+02 +2.842411E+00 +2.120015E+01 +2.842411E+00 +3.774863E+02 -1.283110E+01 +2.120015E+01 -1.283110E+01 +9.630519E+02 
 +3.807416E+02 -1.212908E+01 +3.239382E+00 -1.212908E+01 +3.613883E+02 -5.753420E+00 +3.239382E+00 -5.753420E+00 +9.740593E+02 
 +3.748374E+02 -1.454917E+01 -1.876340E+00 -1.454917E+01 +3.340466E+02 -1.176111E+01 -1.876340E+00 -1.176111E+01 +9.730529E+02 
 +3.749889E+02 -5.430143E+00 +2.308914E+00 -5.430143E+00 +3.228720E+02 -1.376288E+01 +2.308914E+00 -1.376288E+01 +9.660057E+02 
 +3.577199E+02 +1.606939E+01 -6.615199E+00 +1.606939E+01 +3.070471E+02 -5.765057E+00 -6.615199E+00 -5.765057E+00 +9.519114E+02 
 +3.536792E+02 +1.585528E+01 -1.051512E+01 +1.585528E+01 +3.152107E+02 -1.179973E+00 -1.051512E+01 -1.179973E+00 +9.462541E+02 
 +3.572416E+02 +3.383298E+00 -8.613503E+00 +3.383298E+00 +3.335776E+02 +3.717665E+00 -8.613503E+00 +3.717665E+00 +9.401567E+02 
 +3.781049E+02 +4.794022E-01 -7.517187E+00 +4.794022E-01 +3.375436E+02 +7.777287E+00 -7.517187E+00 +7.777287E+00 +9.420796E+02 
 +3.672619E+02 +1.538715E+01 -4.217669E+00 +1.538715E+01 +3.468327E+02 +9.260521E+00 -4.217669E+00 +9.260521E+00 +9.600384E+02 
 +3.275231E+02 +7.713557E+00 -2.769662E+00 +7.713557E+00 +3.561552E+02 +1.611211E+01 -2.769662E+00 +1.611211E+01 +9.627101E+02 
 +3.064300E+02 -8.955700E+00 -6.050068E-01 -8.955700E+00 +3.495913E+02 +1.233836E+01 -6.050068E-01 +1.233836E+01 +9.502042E+02 
 +3.273518E+02 -1.254842E+01 +2.137992E+00 -1.254842E+01 +3.518566E+02 +6.604521E+00 +2.137992E+00 +6.604521E+00 +9.436227E+02 
 +3.444645E+02 -1.522371E+01 -2.609274E+00 -1.522371E+01 +3.548504E+02 +5.790091E+00 -2.609274E+00 +5.790091E+00 +9.420572E+02 
 +3.729393E+02 -1.441755E+01 -1.269033E+01 -1.441755E+01 +3.860015E+02 +4.592113E+00 -1.269033E+01 +4.592113E+00 +9.598058E+02 
 +3.690405E+02 -1.848799E+01 -8.600511E+00 -1.848799E+01 +3.850322E+02 +7.640706E-01 -8.600511E+00 +7.640706E-01 +9.658162E+02 
 +3.552033E+02 -1.757095E+01 -9.558978E+00 -1.757095E+01 +3.674367E+02 -1.030134E+01 -9.558978E+00 -1.030134E+01 +9.745595E+02 
 +3.414804E+02 -1.569627E+01 -8.651489E+00 -1.569627E+01 +3.447392E+02 -1.386837E+01 -8.651489E+00 -1.386837E+01 +9.767977E+02 
 +3.400791E+02 -7.395590E+00 -5.083087E+00 -7.395590E+00 +3.363354E+02 -1.807484E+01 -5.083087E+00 -1.807484E+01 +9.690438E+02 
 +3.585603E+02 +1.061725E+01 -8.629720E+00 +1.061725E+01 +3.431485E+02 -2.572358E+01 -8.629720E+00 -2.572358E+01 +9.595027E+02 
 +3.676279E+02 +2.127665E+01 -7.217644E-01 +2.127665E+01 +3.459007E+02 -2.428204E+01 -7.217644E-01 -2.428204E+01 +9.623895E+02 
 +3.839862E+02 +1.780274E+01 +1.382944E+01 +1.780274E+01 +3.679611E+02 -1.796417E+01 +1.382944E+01 -1.796417E+01 +9.780747E+02 
 +3.777096E+02 +1.012616E+01 +1.896040E+01 +1.012616E+01 +3.686914E+02 -1.234968E+01 +1.896040E+01 -1.234968E+01 +9.730697E+02 
 +3.792584E+02 -1.113890E+01 +5.615864E+00 -1.113890E+01 +3.603934E+02 -7.376099E+00 +5.615864E+00 -7.376099E+00 +9.769644E+02 
 +3.748163E+02 -1.248374E+01 -4.123939E-01 -1.248374E+01 +3.456740E+02 -1.065591E+01 -4.123939E-01 -1.065591E+01 +9.727855E+02 
 +3.728359E+02 -6.510545E+00 +4.196088E+00 -6.510545E+00 +3.331287E+02 -1.347608E+01 +4.196088E+00 -1.347608E+01 +9.631232E+02 
 +3.629445E+02 +1.487120E+01 -4.542868E+00 +1.487120E+01 +3.150512E+02 -9.420442E+00 -4.542868E+00 -9.420442E+00 +9.561524E+02 
 +3.593224E+02 +1.710768E+01 -6.492122E+00 +1.710768E+01 +3.133971E+02 -6.391496E+00 -6.492122E+00 -6.391496E+00 +9.578392E+02 
 +3.669172E+02 +6.555337E-01 -5.747701E+00 +6.555337E-01 +3.331915E+02 +2.942965E+00 -5.747701E+00 +2.942965E+00 +9.474214E+02 
 +3.861915E+02 -1.061164E+01 -4.569643E+00 -1.061164E+01 +3.515462E+02 +8.880061E+00 -4.569643E+00 +8.880061E+00 +9.405605E+02 
 +3.490389E+02 +5.675967E+00 +8.858119E-01 +5.675967E+00 +3.586701E+02 +1.343570E+01 +8.858119E-01 +1.343570E+01 +9.417225E+02 
 +3.198915E+02 +3.648836E+00 -1.045171E+00 +3.648836E+00 +3.446851E+02 +8.239111E+00 -1.045171E+00 +8.239111E+00 +9.492694E+02 
 +3.134069E+02 +2.921812E+00 +3.973317E+00 +2.921812E+00 +3.483745E+02 -1.167586E+00 +3.973317E+00 -1.167586E+00 +9.471080E+02 
 +3.135337E+02 +8.324228E+00 +8.043830E+00 +8.324228E+00 +3.606873E+02 -7.743752E-01 +8.043830E+00 -7.743752E-01 +9.398337E+02 
 +3.480723E+02 +2.310794E+01 +2.535229E+00 +2.310794E+01 +3.759505E+02 +4.660648E+00 +2.535229E+00 +4.660648E+00 +9.465073E+02 
 +3.622088E+02 +1.635285E+01 -7.807482E+00 +1.635285E+01 +3.725947E+02 +4.881110E+00 -7.807482E+00 +4.881110E+00 +9.488427E+02 
 +3.785834E+02 -1.186059E+01 -1.028066E+01 -1.186059E+01 +3.802834E+02 +6.695308E-01 -1.028066E+01 +6.695308E-01 +9.633697E+02 
 +3.686557E+02 -1.787860E+01 -1.403058E+01 -1.787860E+01 +3.663213E+02 -8.422126E+00 -1.403058E+01 -8.422126E+00 +9.779963E+02 
 +3.529650E+02 -1.274327E+01 -1.290845E+01 -1.274327E+01 +3.448314E+02 -6.405730E+00 -1.290845E+01 -6.405730E+00 +9.834280E+02 
 +3.668420E+02 +2.643182E+00 -6.424002E+00 +2.643182E+00 +3.580392E+02 -1.635819E+00 -6.424002E+00 -1.635819E+00 +9.771635E+02 
 +3.801453E+02 +9.772937E+00 -2.628356E+00 +9.772937E+00 +3.777200E+02 +5.593349E-01 -2.628356E+00 +5.593349E-01 +9.751630E+02 
 +3.850699E+02 +1.648308E+01 -4.704351E+00 +1.648308E+01 +3.780459E+02 +1.388054E+00 -4.704351E+00 +1.388054E+00 +9.852916E+02 
 +3.717357E+02 +8.399399E+00 +9.035408E-01 +8.399399E+00 +3.566053E+02 -2.337653E+00 +9.035408E-01 -2.337653E+00 +9.850795E+02 
 +3.863486E+02 -2.261776E+00 +7.629188E+00 -2.261776E+00 +3.530469E+02 -6.904884E+00 +7.629188E+00 -6.904884E+00 +9.836128E+02 
 +3.818555E+02 -1.721126E+01 +3.430918E+00 -1.721126E+01 +3.531882E+02 -6.568023E+00 +3.430918E+00 -6.568023E+00 +9.766413E+02 
 +3.752880E+02 -1.231289E+01 +2.226692E+00 -1.231289E+01 +3.576292E+02 -5.922266E+00 +2.226692E+00 -5.922266E+00 +9.752948E+02 
 +3.659063E+02 -9.761224E+00 +4.183975E+00 -9.761224E+00 +3.361597E+02 -8.982518E+00 +4.183975E+00 -8.982518E+00 +9.611144E+02 
 +3.507756E+02 +1.396659E+01 -3.438976E+00 +1.396659E+01 +3.121595E+02 -8.548679E+00 -3.438976E+00 -8.548679E+00 +9.496121E+02 
 +3.493326E+02 +1.615290E+01 -7.481102E+00 +1.615290E+01 +3.077536E+02 -8.892502E+00 -7.481102E+00 -8.892502E+00 +9.614749E+02 
 +3.681190E+02 +6.423006E+00 -6.503283E+00 +6.423006E+00 +3.167325E+02 -3.841208E+00 -6.503283E+00 -3.841208E+00 +9.558550E+02 
 +3.602957E+02 -7.107692E+00 +8.117404E+00 -7.107692E+00 +3.533368E+02 +2.009920E+00 +8.117404E+00 +2.009920E+00 +9.202301E+02 
 +3.564538E+02 -4.451115E-01 +8.072947E+00 -4.451115E-01 +3.630867E+02 +6.179580E+00 +8.072947E+00 +6.179580E+00 +9.268461E+02 
 +3.519282E+02 +2.748327E+00 +9.660793E+00 +2.748327E+00 +3.698253E+02 +1.287245E+00 +9.660793E+00 +1.287245E+00 +9.553678E+02 
 +3.526526E+02 +2.230946E+00 +1.124978E+01 +2.230946E+00 +3.796713E+02 -5.428355E+00 +1.124978E+01 -5.428355E+00 +9.562827E+02 
 +3.442401E+02 +9.720123E+00 +1.379542E+01 +9.720123E+00 +3.710264E+02 -2.428404E-01 +1.379542E+01 -2.428404E-01 +9.353852E+02 
 +3.597402E+02 +2.642597E+01 +6.294248E+00 +2.642597E+01 +3.819210E+02 +7.449664E+00 +6.294248E+00 +7.449664E+00 +9.422022E+02 
 +3.517511E+02 +2.860188E+01 +2.500761E+00 +2.860188E+01 +3.658526E+02 +5.273545E+00 +2.500761E+00 +5.273545E+00 +9.467380E+02 
 +3.672771E+02 +2.157315E+01 +2.238210E+00 +2.157315E+01 +3.683352E+02 +1.595501E+00 +2.238210E+00 +1.595501E+00 +9.648174E+02 
 +3.552897E+02 -4.412364E+00 -1.512693E+00 -4.412364E+00 +3.690045E+02 -5.533492E+00 -1.512693E+00 -5.533492E+00 +9.817422E+02 
 +3.553181E+02 -1.445323E+01 -3.193712E+00 -1.445323E+01 +3.603879E+02 -1.085659E+01 -3.193712E+00 -1.085659E+01 +9.898209E+02 
 +3.665934E+02 +5.172183E-02 +2.724897E-01 +5.172183E-02 +3.581405E+02 -5.704392E+00 +2.724897E-01 -5.704392E+00 +9.811074E+02 
 +3.711993E+02 +3.792115E+00 +6.623507E+00 +3.792115E+00 +3.696963E+02 -1.083680E-01 +6.623507E+00 -1.083680E-01 +9.843382E+02 
 +3.720575E+02 -1.194966E+00 +1.699253E-01 -1.194966E+00 +3.671892E+02 -1.889481E+00 +1.699253E-01 -1.889481E+00 +9.919512E+02 
 +3.589041E+02 -2.103464E+00 -3.510988E+00 -2.103464E+00 +3.459960E+02 -3.620953E+00 -3.510988E+00 -3.620953E+00 +9.897421E+02 
 +4.036019E+02 -1.300804E+01 +2.668048E+00 -1.300804E+01 +3.554062E+02 -4.592952E+00 +2.668048E+00 -4.592952E+00 +9.939267E+02 
 +3.902527E+02 -1.959870E+01 -4.274896E-01 -1.959870E+01 +3.443778E+02 -6.710235E+00 -4.274896E-01 -6.710235E+00 +9.695699E+02 
 +3.807670E+02 -1.855261E+01 +8.043871E-01 -1.855261E+01 +3.537909E+02 -2.038974E+00 +8.043871E-01 -2.038974E+00 +9.669982E+02 
 +3.641095E+02 -1.946494E+01 +2.388694E+00 -1.946494E+01 +3.428802E+02 -1.349242E+00 +2.388694E+00 -1.349242E+00 +9.495686E+02 
 +3.426237E+02 +1.487601E+01 -4.002552E+00 +1.487601E+01 +3.239730E+02 -1.765409E+00 -4.002552E+00 -1.765409E+00 +9.264907E+02 
 +3.366844E+02 +1.381500E+01 -1.259417E+01 +1.381500E+01 +3.153506E+02 -1.529270E+00 -1.259417E+01 -1.529270E+00 +9.314425E+02 
 +3.524869E+02 +4.960454E+00 -1.562473E+01 +4.960454E+00 +3.260832E+02 -2.107210E+00 -1.562473E+01 -2.107210E+00 +9.371150E+02 
 +3.616068E+02 +2.229254E+00 +1.462819E+01 +2.229254E+00 +3.654732E+02 -1.124748E+00 +1.462819E+01 -1.124748E+00 +9.227127E+02 
 +3.621883E+02 -2.755133E+00 +1.104316E+01 -2.755133E+00 +3.675848E+02 -9.018840E+00 +1.104316E+01 -9.018840E+00 +9.347259E+02 
 +3.610942E+02 +1.436235E+00 +1.944469E+01 +1.436235E+00 +3.571176E+02 -9.376496E+00 +1.944469E+01 -9.376496E+00 +9.406975E+02 
 +3.675082E+02 +4.855878E+00 +1.643633E+01 +4.855878E+00 +3.579324E+02 -7.901952E+00 +1.643633E+01 -7.901952E+00 +9.368743E+02 
 +3.682385E+02 +1.172092E+01 +1.180153E+01 +1.172092E+01 +3.748342E+02 -6.772250E+00 +1.180153E+01 -6.772250E+00 +9.308161E+02 
 +3.393797E+02 +9.434819E+00 +3.719626E+00 +9.434819E+00 +3.563116E+02 +6.399851E-01 +3.719626E+00 +6.399851E-01 +9.245307E+02 
 +3.591734E+02 -2.916878E+00 -5.265273E-01 -2.916878E+00 +3.500148E+02 +4.492109E+00 -5.265273E-01 +4.492109E+00 +9.536964E+02 
 +3.555014E+02 -3.787750E+00 +2.755532E+00 -3.787750E+00 +3.418355E+02 +9.716302E+00 +2.755532E+00 +9.716302E+00 +9.639175E+02 
 +3.368983E+02 -9.490353E+00 +3.604021E+00 -9.490353E+00 +3.531848E+02 +5.698012E+00 +3.604021E+00 +5.698012E+00 +9.749599E+02 
 +3.358063E+02 -1.641160E+01 +6.403950E+00 -1.641160E+01 +3.615827E+02 -6.789113E+00 +6.403950E+00 -6.789113E+00 +9.852532E+02 
 +3.600333E+02 +6.358790E+00 +5.237929E+00 +6.358790E+00 +3.652459E+02 -3.341884E+00 +5.237929E+00 -3.341884E+00 +9.875706E+02 
 +3.556474E+02 +6.845658E+00 +7.405433E+00 +6.845658E+00 +3.595534E+02 +6.344853E-01 +7.405433E+00 +6.344853E-01 +9.882509E+02 
 +3.566151E+02 -1.851022E+00 +4.126458E+00 -1.851022E+00 +3.552508E+02 -1.780150E+00 +4.126458E+00 -1.780150E+00 +9.909495E+02 
 +3.760458E+02 -1.321106E+00 +5.118765E+00 -1.321106E+00 +3.566030E+02 +3.044965E+00 +5.118765E+00 +3.044965E+00 +9.950133E+02 
 +4.103401E+02 -9.983745E+00 +1.388247E+00 -9.983745E+00 +3.572507E+02 +3.283267E+00 +1.388247E+00 +3.283267E+00 +9.931300E+02 
 +3.938105E+02 -1.013930E+01 -2.547049E+00 -1.013930E+01 +3.453237E+02 -3.935792E+00 -2.547049E+00 -3.935792E+00 +9.678606E+02 
 +3.890436E+02 -1.487710E+01 -4.279340E+00 -1.487710E+01 +3.550212E+02 -2.991076E+00 -4.279340E+00 -2.991076E+00 +9.619543E+02 
 +3.760585E+02 -1.810571E+01 -3.246566E-01 -1.810571E+01 +3.723761E+02 -5.855257E-02 -3.246566E-01 -5.855257E-02 +9.449571E+02 
 +3.579160E+02 +7.754581E+00 -2.109858E+00 +7.754581E+00 +3.782319E+02 +6.363818E+00 -2.109858E+00 +6.363818E+00 +9.097931E+02 
 +3.403860E+02 +2.043515E+00 -6.263558E+00 +2.043515E+00 +3.672090E+02 +1.337027E+01 -6.263558E+00 +1.337027E+01 +8.917463E+02 
 +3.382161E+02 +4.450896E-01 -1.774422E+01 +4.450896E-01 +3.580591E+02 +1.012188E+01 -1.774422E+01 +1.012188E+01 +9.027357E+02 
 +3.680944E+02 +9.674086E-01 +1.605091E+01 +9.674086E-01 +3.748692E+02 +2.955821E+00 +1.605091E+01 +2.955821E+00 +9.256510E+02 
 +3.683692E+02 +3.784346E-01 +1.241960E+01 +3.784346E-01 +3.675343E+02 -4.495494E+00 +1.241960E+01 -4.495494E+00 +9.414444E+02 
 +3.789980E+02 +4.380214E+00 +1.429538E+01 +4.380214E+00 +3.661865E+02 -5.450467E+00 +1.429538E+01 -5.450467E+00 +9.445421E+02 
 +3.892845E+02 +5.631308E+00 +1.800169E+01 +5.631308E+00 +3.731233E+02 +7.536862E-01 +1.800169E+01 +7.536862E-01 +9.502575E+02 
 +3.657229E+02 +4.514959E-01 +2.279762E+00 +4.514959E-01 +3.598135E+02 +1.423748E+00 +2.279762E+00 +1.423748E+00 +9.388676E+02 
 +3.359840E+02 -1.392447E+00 -6.476444E-01 -1.392447E+00 +3.385730E+02 -1.324847E+00 -6.476444E-01 -1.324847E+00 +9.249483E+02 
 +3.545490E+02 -4.482051E+00 -9.590168E+00 -4.482051E+00 +3.494063E+02 +2.821333E+00 -9.590168E+00 +2.821333E+00 +9.524555E+02 
 +3.459714E+02 -9.732319E+00 -5.679523E+00 -9.732319E+00 +3.336176E+02 +1.650242E+01 -5.679523E+00 +1.650242E+01 +9.572664E+02 
 +3.511956E+02 -1.016506E+01 -5.697122E+00 -1.016506E+01 +3.372921E+02 +2.156601E+01 -5.697122E+00 +2.156601E+01 +9.653258E+02 
 +3.303426E+02 -2.241763E+01 +9.859254E+00 -2.241763E+01 +3.508078E+02 +2.483574E+00 +9.859254E+00 +2.483574E+00 +9.715097E+02 
 +3.509181E+02 +5.663218E+00 +1.537118E+01 +5.663218E+00 +3.663350E+02 -2.951919E+00 +1.537118E+01 -2.951919E+00 +9.827388E+02 
 +3.515667E+02 +1.250868E+01 +1.426641E+01 +1.250868E+01 +3.597955E+02 +3.737090E+00 +1.426641E+01 +3.737090E+00 +9.818243E+02 
 +3.567419E+02 +9.039207E+00 +9.866781E+00 +9.039207E+00 +3.567903E+02 +2.421870E+00 +9.866781E+00 +2.421870E+00 +9.851475E+02 
 +3.742509E+02 +3.620581E+00 +9.442195E+00 +3.620581E+00 +3.440553E+02 +4.551106E-01 +9.442195E+00 +4.551106E-01 +9.855320E+02 
 +3.889836E+02 -8.219560E+00 +1.233666E-01 -8.219560E+00 +3.417952E+02 +3.116136E+00 +1.233666E-01 +3.116136E+00 +9.805598E+02 
 +3.935821E+02 -7.998140E+00 -2.367128E+00 -7.998140E+00 +3.523857E+02 -2.771276E-01 -2.367128E+00 -2.771276E-01 +9.722622E+02 
 +3.869669E+02 -1.550452E+01 -5.505794E+00 -1.550452E+01 +3.581437E+02 -5.175074E+00 -5.505794E+00 -5.175074E+00 +9.602416E+02 
 +3.522610E+02 -1.350689E+01 -2.633670E+00 -1.350689E+01 +3.612094E+02 -6.853012E+00 -2.633670E+00 -6.853012E+00 +9.280105E+02 
 +3.543232E+02 +4.832797E-01 -1.862665E+00 +4.832797E-01 +3.852649E+02 +1.936021E+00 -1.862665E+00 +1.936021E+00 +9.063702E+02 
 +3.402536E+02 -3.689889E+00 -3.193151E+00 -3.689889E+00 +3.779815E+02 +1.324575E+01 -3.193151E+00 +1.324575E+01 +8.912988E+02 
 +3.354367E+02 -5.499623E+00 -1.498516E+01 -5.499623E+00 +3.669106E+02 +1.355774E+01 -1.498516E+01 +1.355774E+01 +8.949717E+02 
 +3.849184E+02 +1.838048E+00 +1.066296E+01 +1.838048E+00 +3.915328E+02 +1.059062E+01 +1.066296E+01 +1.059062E+01 +9.309080E+02 
 +3.849745E+02 +5.192548E+00 +1.234999E+01 +5.192548E+00 +3.780331E+02 +4.354791E+00 +1.234999E+01 +4.354791E+00 +9.409564E+02 
 +3.822231E+02 +6.385546E+00 +8.209981E+00 +6.385546E+00 +3.731992E+02 -1.553816E+00 +8.209981E+00 -1.553816E+00 +9.420048E+02 
 +3.833010E+02 +1.052581E+01 +1.468857E+01 +1.052581E+01 +3.748557E+02 -2.545614E+00 +1.468857E+01 -2.545614E+00 +9.485634E+02 
 +3.565956E+02 +1.074250E+00 -5.195942E+00 +1.074250E+00 +3.531410E+02 -2.436046E+00 -5.195942E+00 -2.436046E+00 +9.360822E+02 
 +3.538608E+02 -4.577146E+00 -6.019185E+00 -4.577146E+00 +3.436943E+02 -3.124329E+00 -6.019185E+00 -3.124329E+00 +9.355860E+02 
 +3.481194E+02 -1.283898E+01 -1.036382E+01 -1.283898E+01 +3.437065E+02 -9.812244E-01 -1.036382E+01 -9.812244E-01 +9.442827E+02 
 +3.416196E+02 -1.661424E+01 -2.178845E+00 -1.661424E+01 +3.425918E+02 +8.089765E+00 -2.178845E+00 +8.089765E+00 +9.522494E+02 
 +3.577485E+02 -1.385036E+01 -2.181231E+00 -1.385036E+01 +3.413471E+02 +1.509120E+01 -2.181231E+00 +1.509120E+01 +9.616002E+02 
 +3.505261E+02 -1.878874E+01 +8.051254E+00 -1.878874E+01 +3.387370E+02 +8.175117E+00 +8.051254E+00 +8.175117E+00 +9.626400E+02 
 +3.390886E+02 +2.958530E+00 +2.260394E+01 +2.958530E+00 +3.511914E+02 +1.742562E+00 +2.260394E+01 +1.742562E+00 +9.668201E+02 
 +3.570045E+02 +9.002030E+00 +1.718321E+01 +9.002030E+00 +3.568000E+02 +2.675065E+00 +1.718321E+01 +2.675065E+00 +9.761669E+02 
 +3.604957E+02 +4.232465E+00 +1.241463E+01 +4.232465E+00 +3.423891E+02 -8.835117E-01 +1.241463E+01 -8.835117E-01 +9.782324E+02 
 +3.656991E+02 +2.244722E+00 +9.810908E+00 +2.244722E+00 +3.469255E+02 -1.479755E-01 +9.810908E+00 -1.479755E-01 +9.777444E+02 
 +3.784874E+02 -3.138647E+00 +6.962915E+00 -3.138647E+00 +3.628982E+02 -3.104765E+00 +6.962915E+00 -3.104765E+00 +9.747301E+02 
 +3.827168E+02 -6.481409E+00 +4.032378E+00 -6.481409E+00 +3.621900E+02 -4.914681E+00 +4.032378E+00 -4.914681E+00 +9.687087E+02 
 +3.802120E+02 -1.108212E+01 +5.600598E-01 -1.108212E+01 +3.716219E+02 -1.620171E+00 +5.600598E-01 -1.620171E+00 +9.572237E+02 
 +3.660133E+02 +2.324887E+00 -7.551789E+00 +2.324887E+00 +4.022254E+02 -3.201721E+00 -7.551789E+00 -3.201721E+00 +9.373001E+02 
 +3.640776E+02 +1.859049E+00 -7.545000E+00 +1.859049E+00 +4.062801E+02 +1.537340E-01 -7.545000E+00 +1.537340E-01 +9.206052E+02 
 +3.468959E+02 -1.871600E+00 -5.304058E+00 -1.871600E+00 +3.823612E+02 +5.157077E+00 -5.304058E+00 +5.157077E+00 +9.083920E+02 
 +3.482696E+02 -4.863356E+00 -1.204284E+01 -4.863356E+00 +3.826362E+02 +1.041488E+01 -1.204284E+01 +1.041488E+01 +9.077695E+02 
 +4.019858E+02 +2.368115E+00 -5.809371E+00 +2.368115E+00 +4.063924E+02 +1.073666E+01 -5.809371E+00 +1.073666E+01 +9.323901E+02 
 +3.904302E+02 +8.086075E+00 +4.894891E+00 +8.086075E+00 +3.929676E+02 +2.213767E+00 +4.894891E+00 +2.213767E+00 +9.284346E+02 
 +3.829816E+02 +9.900427E+00 +5.753857E+00 +9.900427E+00 +3.890565E+02 -7.033698E-01 +5.753857E+00 -7.033698E-01 +9.276926E+02 
 +3.741291E+02 +9.621757E+00 +7.741240E+00 +9.621757E+00 +3.767767E+02 -5.472389E+00 +7.741240E+00 -5.472389E+00 +9.294208E+02 
 +3.379809E+02 -4.007033E+00 -2.255151E+00 -4.007033E+00 +3.395332E+02 -1.177374E+01 -2.255151E+00 -1.177374E+01 +9.175122E+02 
 +3.436858E+02 -4.631097E+00 -1.767734E+00 -4.631097E+00 +3.356419E+02 -8.139437E+00 -1.767734E+00 -8.139437E+00 +9.243781E+02 
 +3.505332E+02 -1.053728E+01 -7.885147E+00 -1.053728E+01 +3.419447E+02 +1.252082E+00 -7.885147E+00 +1.252082E+00 +9.395997E+02 
 +3.400806E+02 -1.541031E+01 +7.603240E-01 -1.541031E+01 +3.362820E+02 +8.740775E+00 +7.603240E-01 +8.740775E+00 +9.471301E+02 
 +3.563519E+02 -1.396222E+01 +5.964816E+00 -1.396222E+01 +3.401651E+02 +9.575790E+00 +5.964816E+00 +9.575790E+00 +9.570532E+02 
 +3.729613E+02 -1.490360E+01 +7.789095E+00 -1.490360E+01 +3.516093E+02 +7.818944E+00 +7.789095E+00 +7.818944E+00 +9.703996E+02 
 +3.389146E+02 +1.240611E-01 +1.736668E+01 +1.240611E-01 +3.370270E+02 +3.392143E+00 +1.736668E+01 +3.392143E+00 +9.612578E+02 
 +3.482851E+02 -2.085133E+00 +1.264596E+01 -2.085133E+00 +3.320630E+02 -4.670213E+00 +1.264596E+01 -4.670213E+00 +9.643241E+02 
 +3.559915E+02 -4.043158E+00 +1.007004E+01 -4.043158E+00 +3.318600E+02 -7.015578E+00 +1.007004E+01 -7.015578E+00 +9.673137E+02 
 +3.605786E+02 -3.255195E+00 +1.139584E+01 -3.255195E+00 +3.423176E+02 -6.553481E+00 +1.139584E+01 -6.553481E+00 +9.658265E+02 
 +3.637509E+02 -4.260349E+00 +1.358269E+01 -4.260349E+00 +3.544004E+02 -6.697236E+00 +1.358269E+01 -6.697236E+00 +9.620625E+02 
 +3.687742E+02 -4.688236E+00 +9.533189E+00 -4.688236E+00 +3.766378E+02 -1.282281E+01 +9.533189E+00 -1.282281E+01 +9.594959E+02 
 +3.733651E+02 -1.496735E+00 +7.069754E+00 -1.496735E+00 +4.008782E+02 -1.482509E+01 +7.069754E+00 -1.482509E+01 +9.537412E+02 
 +3.757751E+02 +7.041759E+00 -9.799628E-01 +7.041759E+00 +4.097000E+02 -1.304459E+01 -9.799628E-01 -1.304459E+01 +9.468277E+02 
 +3.659227E+02 -3.249891E+00 -1.717658E+00 -3.249891E+00 +4.047465E+02 -2.789782E+00 -1.717658E+00 -2.789782E+00 +9.404570E+02 
 +3.636863E+02 -2.074588E+00 +5.491375E-01 -2.074588E+00 +3.976566E+02 +5.288002E+00 +5.491375E-01 +5.288002E+00 +9.387298E+02 
 +3.724318E+02 +1.426343E+00 -7.465753E+00 +1.426343E+00 +3.947606E+02 +1.060293E+01 -7.465753E+00 +1.060293E+01 +9.282439E+02 
 +3.831925E+02 +5.821546E+00 -2.597071E+01 +5.821546E+00 +3.829771E+02 +1.515915E+01 -2.597071E+01 +1.515915E+01 +9.460280E+02 
 +3.813487E+02 +6.365255E+00 -1.240972E+01 +6.365255E+00 +3.884328E+02 +1.927931E+01 -1.240972E+01 +1.927931E+01 +9.494751E+02 
 +3.768815E+02 +7.933790E+00 -9.824471E+00 +7.933790E+00 +3.887352E+02 +1.563372E+01 -9.824471E+00 +1.563372E+01 +9.578915E+02 
 +3.713612E+02 +7.457323E+00 -8.681987E+00 +7.457323E+00 +3.821617E+02 +7.043146E+00 -8.681987E+00 +7.043146E+00 +9.613499E+02 
 +3.604282E+02 +1.690686E-01 -5.176235E+00 +1.690686E-01 +3.823609E+02 -1.191497E+00 -5.176235E+00 -1.191497E+00 +9.561154E+02 
 +3.555936E+02 -5.296494E+00 +1.069572E+00 -5.296494E+00 +3.729965E+02 +1.408090E+00 +1.069572E+00 +1.408090E+00 +9.438303E+02 
 +3.507998E+02 -1.372199E+01 +1.648719E+00 -1.372199E+01 +3.466320E+02 +2.772929E+00 +1.648719E+00 +2.772929E+00 +9.354178E+02 
 +3.559253E+02 -1.771801E+01 -1.181255E+00 -1.771801E+01 +3.363000E+02 +8.189071E+00 -1.181255E+00 +8.189071E+00 +9.430942E+02 
 +3.528414E+02 -2.071320E+01 -1.198778E+00 -2.071320E+01 +3.308439E+02 +1.353943E+01 -1.198778E+00 +1.353943E+01 +9.493660E+02 
 +3.521507E+02 -1.886961E+01 +1.791493E+00 -1.886961E+01 +3.303135E+02 +1.588280E+01 +1.791493E+00 +1.588280E+01 +9.559195E+02 
 +3.429756E+02 -1.725613E+01 +8.944284E-01 -1.725613E+01 +3.129303E+02 +4.669068E+00 +8.944284E-01 +4.669068E+00 +9.561136E+02 
 +3.304890E+02 -1.529581E+01 +1.158156E+01 -1.529581E+01 +2.993103E+02 -9.981411E+00 +1.158156E+01 -9.981411E+00 +9.413700E+02 
 +3.401902E+02 -1.134933E+01 +9.945156E+00 -1.134933E+01 +3.179367E+02 -8.913924E+00 +9.945156E+00 -8.913924E+00 +9.352576E+02 
 +3.593401E+02 -6.026010E+00 +1.186977E+01 -6.026010E+00 +3.453022E+02 -9.292961E+00 +1.186977E+01 -9.292961E+00 +9.350004E+02 
 +3.688564E+02 -5.518330E+00 +1.169221E+01 -5.518330E+00 +3.759434E+02 -1.321486E+01 +1.169221E+01 -1.321486E+01 +9.306046E+02 
 +3.685721E+02 -8.861215E-01 +1.046377E+01 -8.861215E-01 +3.979511E+02 -1.505940E+01 +1.046377E+01 -1.505940E+01 +9.309798E+02 
 +3.606618E+02 +5.610829E+00 +1.687799E+01 +5.610829E+00 +3.936217E+02 -1.196915E+01 +1.687799E+01 -1.196915E+01 +9.264615E+02 
 +3.623577E+02 +1.120157E+01 +2.285470E+01 +1.120157E+01 +3.827918E+02 -1.681204E+01 +2.285470E+01 -1.681204E+01 +9.216276E+02 
 +3.649066E+02 +8.867099E+00 +1.506930E+01 +8.867099E+00 +3.773549E+02 -2.360914E+01 +1.506930E+01 -2.360914E+01 +9.212262E+02 
 +3.638548E+02 +4.025151E+00 +6.791543E+00 +4.025151E+00 +3.697225E+02 -1.956454E+01 +6.791543E+00 -1.956454E+01 +9.291117E+02 
 +3.652725E+02 +9.730074E+00 -9.662167E-01 +9.730074E+00 +3.680212E+02 -3.700289E+00 -9.662167E-01 -3.700289E+00 +9.388704E+02 
 +3.855640E+02 +1.554677E+00 -2.570982E+01 +1.554677E+00 +3.867997E+02 -5.434272E-02 -2.570982E+01 -5.434272E-02 +9.650140E+02 
 +3.887681E+02 +4.936513E+00 -1.608112E+01 +4.936513E+00 +3.939422E+02 +1.535793E+01 -1.608112E+01 +1.535793E+01 +9.705606E+02 
 +3.873089E+02 +3.873449E+00 -1.662408E+01 +3.873449E+00 +3.936255E+02 +1.496794E+01 -1.662408E+01 +1.496794E+01 +9.695279E+02 
 +3.851080E+02 +5.378783E+00 -1.540293E+01 +5.378783E+00 +3.925973E+02 +7.463042E+00 -1.540293E+01 +7.463042E+00 +9.734231E+02 
 +3.658455E+02 +2.877983E+00 -5.770345E+00 +2.877983E+00 +3.839782E+02 +5.348210E+00 -5.770345E+00 +5.348210E+00 +9.622540E+02 
 +3.553800E+02 -4.195190E+00 +2.867758E+00 -4.195190E+00 +3.811376E+02 +5.457216E+00 +2.867758E+00 +5.457216E+00 +9.523867E+02 
 +3.546631E+02 -1.172124E+01 +5.925836E+00 -1.172124E+01 +3.719922E+02 +1.129560E+01 +5.925836E+00 +1.129560E+01 +9.414697E+02 
 +3.439618E+02 -1.967031E+01 +2.382734E+00 -1.967031E+01 +3.402136E+02 +1.830349E+01 +2.382734E+00 +1.830349E+01 +9.216343E+02 
 +3.423457E+02 -1.915661E+01 -4.548330E-01 -1.915661E+01 +3.274062E+02 +2.138001E+01 -4.548330E-01 +2.138001E+01 +9.175417E+02 
 +3.362120E+02 -1.663007E+01 +1.769896E+00 -1.663007E+01 +3.211301E+02 +1.505132E+01 +1.769896E+00 +1.505132E+01 +9.239362E+02 
 +3.326689E+02 -1.281921E+01 -4.054724E+00 -1.281921E+01 +3.224398E+02 +1.036028E+01 -4.054724E+00 +1.036028E+01 +9.271825E+02 
 +3.570926E+02 -9.041144E+00 +9.351318E+00 -9.041144E+00 +3.523116E+02 +6.032259E+00 +9.351318E+00 +6.032259E+00 +9.218751E+02 
 +3.562835E+02 -7.253655E+00 +6.681766E+00 -7.253655E+00 +3.605350E+02 +4.577998E+00 +6.681766E+00 +4.577998E+00 +9.005999E+02 
 +3.642016E+02 -5.770207E-01 +9.563795E+00 -5.770207E-01 +3.693390E+02 -4.942143E-01 +9.563795E+00 -4.942143E-01 +8.966781E+02 
 +3.746724E+02 -9.771681E-02 +1.672047E+01 -9.771681E-02 +3.823132E+02 -1.133625E+01 +1.672047E+01 -1.133625E+01 +9.150769E+02 
 +3.745688E+02 +4.234228E-01 +1.788406E+01 +4.234228E-01 +3.912447E+02 -1.757871E+01 +1.788406E+01 -1.757871E+01 +9.330138E+02 
 +3.701465E+02 +1.579211E+00 +1.776827E+01 +1.579211E+00 +3.935470E+02 -1.515075E+01 +1.776827E+01 -1.515075E+01 +9.364378E+02 
 +3.665525E+02 +2.832698E+00 +1.852451E+01 +2.832698E+00 +3.852220E+02 -1.374614E+01 +1.852451E+01 -1.374614E+01 +9.307295E+02 
 +3.632063E+02 +3.644447E+00 +1.041997E+01 +3.644447E+00 +3.740480E+02 -1.527095E+01 +1.041997E+01 -1.527095E+01 +9.275043E+02 
 +3.709739E+02 -2.646223E+00 +5.368371E-01 -2.646223E+00 +3.800101E+02 -1.454181E+01 +5.368371E-01 -1.454181E+01 +9.409676E+02 
 +3.727377E+02 +1.439453E+00 +3.952627E+00 +1.439453E+00 +3.801425E+02 -1.086757E+01 +3.952627E+00 -1.086757E+01 +9.498651E+02 
 +3.645543E+02 +1.186261E+00 -2.365265E+01 +1.186261E+00 +3.703229E+02 -8.579300E+00 -2.365265E+01 -8.579300E+00 +9.588173E+02 
 +3.863830E+02 +2.840488E+00 -1.143081E+01 +2.840488E+00 +3.792726E+02 -7.764836E+00 -1.143081E+01 -7.764836E+00 +9.792141E+02 
 +3.975448E+02 +2.638125E+00 -1.500738E+01 +2.638125E+00 +3.916605E+02 +4.519159E-01 -1.500738E+01 +4.519159E-01 +9.865976E+02 
 +3.947529E+02 +3.034874E+00 -1.109442E+01 +3.034874E+00 +3.944111E+02 +4.655075E+00 -1.109442E+01 +4.655075E+00 +9.889241E+02 
 +3.762926E+02 +2.174424E+00 -2.523601E+00 +2.174424E+00 +3.831615E+02 +6.855746E+00 -2.523601E+00 +6.855746E+00 +9.724744E+02 
 +3.657511E+02 -3.026198E+00 +3.401954E+00 -3.026198E+00 +3.810735E+02 +1.430407E+01 +3.401954E+00 +1.430407E+01 +9.587534E+02 
 +3.603477E+02 -9.573635E+00 +3.756295E+00 -9.573635E+00 +3.804222E+02 +2.144080E+01 +3.756295E+00 +2.144080E+01 +9.398809E+02 
 +3.525508E+02 -1.009990E+01 -2.390187E+00 -1.009990E+01 +3.800792E+02 +2.512955E+01 -2.390187E+00 +2.512955E+01 +9.178338E+02 
 +3.652492E+02 -4.713358E+00 -6.585097E+00 -4.713358E+00 +3.837801E+02 +2.106324E+01 -6.585097E+00 +2.106324E+01 +9.085828E+02 
 +3.667386E+02 -3.983809E+00 -4.452528E+00 -3.983809E+00 +3.790298E+02 +9.324268E+00 -4.452528E+00 +9.324268E+00 +9.132849E+02 
 +3.305773E+02 +6.882336E+00 +3.230325E+00 +6.882336E+00 +3.718856E+02 +1.729775E+00 +3.230325E+00 +1.729775E+00 +9.157484E+02 
 +3.676638E+02 -1.428900E+00 +6.950221E+00 -1.428900E+00 +3.858939E+02 +4.151756E+00 +6.950221E+00 +4.151756E+00 +9.236917E+02 
 +3.610677E+02 +1.985120E+00 +4.829698E+00 +1.985120E+00 +3.675768E+02 +4.148695E+00 +4.829698E+00 +4.148695E+00 +8.972580E+02 
 +3.589110E+02 +4.122144E+00 +6.357154E+00 +4.122144E+00 +3.677659E+02 +6.020735E+00 +6.357154E+00 +6.020735E+00 +8.857033E+02 
 +3.679141E+02 +4.150608E+00 +1.501636E+01 +4.150608E+00 +3.723689E+02 +2.585449E+00 +1.501636E+01 +2.585449E+00 +8.975068E+02 
 +3.794000E+02 +5.323282E+00 +1.450298E+01 +5.323282E+00 +3.877686E+02 -8.888363E+00 +1.450298E+01 -8.888363E+00 +9.296269E+02 
 +3.755421E+02 +3.137906E+00 +1.892754E+01 +3.137906E+00 +3.930156E+02 -1.512107E+01 +1.892754E+01 -1.512107E+01 +9.450948E+02 
 +3.727751E+02 +2.594333E+00 +1.891350E+01 +2.594333E+00 +3.864732E+02 -7.136824E+00 +1.891350E+01 -7.136824E+00 +9.394823E+02 
 +3.669627E+02 +6.246667E+00 +8.420631E+00 +6.246667E+00 +3.728488E+02 +4.601708E+00 +8.420631E+00 +4.601708E+00 +9.290079E+02 
 +3.600373E+02 +7.196964E+00 -1.077643E+01 +7.196964E+00 +3.688677E+02 +2.108621E+01 -1.077643E+01 +2.108621E+01 +9.245371E+02 
 +3.611943E+02 +6.299463E+00 -1.105179E+01 +6.299463E+00 +3.729839E+02 +1.456231E+01 -1.105179E+01 +1.456231E+01 +9.338035E+02 
 +3.465166E+02 -2.823722E+00 -2.292941E+01 -2.823722E+00 +3.584692E+02 -7.739207E+00 -2.292941E+01 -7.739207E+00 +9.455214E+02 
 +3.855849E+02 +5.803934E+00 -1.037239E+01 +5.803934E+00 +3.723749E+02 -6.310644E+00 -1.037239E+01 -6.310644E+00 +9.734443E+02 
 +3.902599E+02 +5.909948E+00 -9.230716E+00 +5.909948E+00 +3.703741E+02 -1.181774E+01 -9.230716E+00 -1.181774E+01 +9.859362E+02 
 +3.812683E+02 +2.927629E+00 -1.836765E+00 +2.927629E+00 +3.643618E+02 -1.439912E+01 -1.836765E+00 -1.439912E+01 +9.769783E+02 
 +3.665017E+02 +1.707249E+00 +3.632715E+00 +1.707249E+00 +3.571237E+02 -1.246059E+01 +3.632715E+00 -1.246059E+01 +9.605043E+02 
 +3.514465E+02 -6.814122E+00 +6.096979E+00 -6.814122E+00 +3.536018E+02 -1.040546E+01 +6.096979E+00 -1.040546E+01 +9.471879E+02 
 +3.580320E+02 -1.939630E+01 +3.960198E+00 -1.939630E+01 +3.672918E+02 +4.279528E+00 +3.960198E+00 +4.279528E+00 +9.348647E+02 
 +3.667082E+02 -1.867359E+01 -9.834410E+00 -1.867359E+01 +3.826034E+02 +1.232248E+01 -9.834410E+00 +1.232248E+01 +9.188501E+02 
 +3.663999E+02 -1.438999E+01 -9.424040E+00 -1.438999E+01 +3.831036E+02 +9.549114E+00 -9.424040E+00 +9.549114E+00 +9.049432E+02 
 +3.564152E+02 -1.227344E+01 -5.400031E+00 -1.227344E+01 +3.840105E+02 +6.559224E+00 -5.400031E+00 +6.559224E+00 +9.133641E+02 
 +3.191056E+02 -1.599501E+00 +5.330798E-01 -1.599501E+00 +3.681016E+02 -1.204999E+00 +5.330798E-01 -1.204999E+00 +9.188486E+02 
 +3.565342E+02 -1.010072E+01 -1.839222E+00 -1.010072E+01 +3.763808E+02 -2.353136E+00 -1.839222E+00 -2.353136E+00 +9.251198E+02 
 +3.742183E+02 +6.236300E+00 +3.881928E+00 +6.236300E+00 +3.790895E+02 -4.183458E-02 +3.881928E+00 -4.183458E-02 +9.151854E+02 
 +3.775376E+02 +1.177060E+01 +3.458532E+00 +1.177060E+01 +3.850105E+02 +9.131233E+00 +3.458532E+00 +9.131233E+00 +9.124383E+02 
 +3.661456E+02 +1.059999E+01 -5.807087E-01 +1.059999E+01 +3.737436E+02 +6.989598E+00 -5.807087E-01 +6.989598E+00 +9.011407E+02 
 +3.679300E+02 +1.360249E+01 -7.914724E+00 +1.360249E+01 +3.736242E+02 -1.554318E+00 -7.914724E+00 -1.554318E+00 +9.141501E+02 
 +3.818899E+02 +8.370293E+00 +1.027841E+01 +8.370293E+00 +3.921454E+02 -1.099587E+01 +1.027841E+01 -1.099587E+01 +9.472363E+02 
 +3.780138E+02 +3.060303E+00 +1.812257E+01 +3.060303E+00 +3.897244E+02 -9.120467E+00 +1.812257E+01 -9.120467E+00 +9.503944E+02 
 +3.684834E+02 +2.546362E+00 +9.494374E+00 +2.546362E+00 +3.804874E+02 -5.493758E-01 +9.494374E+00 -5.493758E-01 +9.354455E+02 
 +3.634513E+02 +1.838775E+00 -1.021712E+01 +1.838775E+00 +3.766332E+02 +8.781589E+00 -1.021712E+01 +8.781589E+00 +9.281977E+02 
 +3.515212E+02 -2.690206E+00 -1.790461E+01 -2.690206E+00 +3.669807E+02 -2.483766E+00 -1.790461E+01 -2.483766E+00 +9.316554E+02 
 +3.521874E+02 -4.140636E+00 -1.320278E+01 -4.140636E+00 +3.591685E+02 -4.144918E+00 -1.320278E+01 -4.144918E+00 +9.480300E+02 
 +3.725267E+02 +1.461275E+00 -1.230394E+01 +1.461275E+00 +3.559307E+02 -1.319802E+00 -1.230394E+01 -1.319802E+00 +9.606376E+02 
 +3.864657E+02 +7.293369E+00 -8.714466E+00 +7.293369E+00 +3.574869E+02 -1.727017E+00 -8.714466E+00 -1.727017E+00 +9.728887E+02 
 +3.825775E+02 +1.021841E+01 -9.457152E-01 +1.021841E+01 +3.624755E+02 -3.403401E+00 -9.457152E-01 -3.403401E+00 +9.616578E+02 
 +3.739204E+02 +9.366493E+00 +8.145609E+00 +9.366493E+00 +3.750283E+02 -2.091082E+00 +8.145609E+00 -2.091082E+00 +9.605070E+02 
 +3.674249E+02 +7.949419E-01 +6.487822E+00 +7.949419E-01 +3.904787E+02 -8.559637E-01 +6.487822E+00 -8.559637E-01 +9.717784E+02 
 +3.670579E+02 -1.391224E+01 +1.093688E+01 -1.391224E+01 +3.924736E+02 +2.223420E+00 +1.093688E+01 +2.223420E+00 +9.591110E+02 
 +3.881754E+02 -1.980705E+01 -5.130358E+00 -1.980705E+01 +3.973246E+02 +1.101583E+01 -5.130358E+00 +1.101583E+01 +9.443674E+02 
 +3.888205E+02 -2.251437E+01 -8.141665E+00 -2.251437E+01 +3.962901E+02 +6.221288E+00 -8.141665E+00 +6.221288E+00 +9.366614E+02 
 +3.449313E+02 -1.068013E+01 -4.000298E-02 -1.068013E+01 +3.772021E+02 -3.921223E+00 -4.000298E-02 -3.921223E+00 +9.362315E+02 
 +3.366615E+02 -8.187395E-01 -1.485763E+00 -8.187395E-01 +3.642492E+02 -1.500494E+00 -1.485763E+00 -1.500494E+00 +9.425830E+02 
 +3.680820E+02 +3.641147E+00 -1.261870E+01 +3.641147E+00 +3.708302E+02 +2.308457E+00 -1.261870E+01 +2.308457E+00 +9.304446E+02 
 +3.667870E+02 +1.782883E+01 -4.302828E+00 +1.782883E+01 +3.562621E+02 -4.125638E+00 -4.302828E+00 -4.125638E+00 +9.119347E+02 
 +3.632991E+02 +2.688949E+01 +4.461349E-01 +2.688949E+01 +3.463632E+02 -5.996303E+00 +4.461349E-01 -5.996303E+00 +9.146784E+02 
 +3.568297E+02 +2.057120E+01 -1.853203E+01 +2.057120E+01 +3.590632E+02 -3.494638E-01 -1.853203E+01 -3.494638E-01 +9.126039E+02 
 +3.636047E+02 +2.637035E+01 -1.841134E+01 +2.637035E+01 +3.727320E+02 +1.850766E+00 -1.841134E+01 +1.850766E+00 +9.155600E+02 
 +3.754451E+02 +1.722120E+01 +5.927700E-01 +1.722120E+01 +3.848746E+02 -3.429212E+00 +5.927700E-01 -3.429212E+00 +9.461617E+02 
 +3.627561E+02 +4.926596E+00 +1.695003E+01 +4.926596E+00 +3.824542E+02 -1.048062E+01 +1.695003E+01 -1.048062E+01 +9.559307E+02 
 +3.620776E+02 +3.094617E+00 +1.052533E+01 +3.094617E+00 +3.808508E+02 -7.608545E+00 +1.052533E+01 -7.608545E+00 +9.488025E+02 
 +3.593298E+02 +1.556087E+00 -1.790423E+00 +1.556087E+00 +3.729212E+02 -6.006605E+00 -1.790423E+00 -6.006605E+00 +9.467776E+02 
 +3.545258E+02 -1.916726E+00 -8.703133E+00 -1.916726E+00 +3.664713E+02 -5.801949E+00 -8.703133E+00 -5.801949E+00 +9.479736E+02 
 +3.593001E+02 -5.525826E+00 -6.044797E+00 -5.525826E+00 +3.645472E+02 -4.993562E+00 -6.044797E+00 -4.993562E+00 +9.526099E+02 
 +3.613368E+02 -5.755801E+00 -1.103248E+01 -5.755801E+00 +3.583237E+02 -3.591531E+00 -1.103248E+01 -3.591531E+00 +9.541887E+02 
 +3.852231E+02 +4.832502E-02 -7.939160E-01 +4.832502E-02 +3.576598E+02 +3.475317E+00 -7.939160E-01 +3.475317E+00 +9.652373E+02 
 +3.924592E+02 +7.908883E+00 -4.168379E+00 +7.908883E+00 +3.755201E+02 +9.261723E+00 -4.168379E+00 +9.261723E+00 +9.649525E+02 
 +3.881020E+02 +2.284700E+00 +4.431080E+00 +2.284700E+00 +3.978504E+02 +8.025254E+00 +4.431080E+00 +8.025254E+00 +9.765658E+02 
 +3.832028E+02 -2.290501E+00 +2.343168E+00 -2.290501E+00 +4.024981E+02 +5.574610E+00 +2.343168E+00 +5.574610E+00 +9.890171E+02 
 +3.966761E+02 -7.297001E+00 +7.650069E+00 -7.297001E+00 +4.208500E+02 +2.251830E+00 +7.650069E+00 +2.251830E+00 +9.943257E+02 
 +4.087463E+02 -9.729213E+00 +1.457327E+00 -9.729213E+00 +4.282582E+02 -1.007275E+01 +1.457327E+00 -1.007275E+01 +9.886034E+02 
 +3.971779E+02 -1.479853E+01 -4.905348E+00 -1.479853E+01 +4.079674E+02 -1.168494E+01 -4.905348E+00 -1.168494E+01 +9.609369E+02 
 +3.607054E+02 -4.265872E+00 +1.794750E+00 -4.265872E+00 +3.798695E+02 -7.598760E+00 +1.794750E+00 -7.598760E+00 +9.419940E+02 
 +3.542775E+02 +1.754447E+00 +2.450509E+00 +1.754447E+00 +3.684959E+02 -9.131714E+00 +2.450509E+00 -9.131714E+00 +9.452046E+02 
 +3.825074E+02 +5.321470E+00 -1.829163E+01 +5.321470E+00 +3.779059E+02 -5.157651E+00 -1.829163E+01 -5.157651E+00 +9.494276E+02 
 +3.793553E+02 +6.099204E+00 -1.392585E+01 +6.099204E+00 +3.750713E+02 -2.280660E+00 -1.392585E+01 -2.280660E+00 +9.320658E+02 
 +3.585843E+02 +1.878983E+01 +1.240934E+00 +1.878983E+01 +3.580665E+02 -5.587841E+00 +1.240934E+00 -5.587841E+00 +9.152812E+02 
 +3.574961E+02 +1.476249E+01 -2.208979E+01 +1.476249E+01 +3.570423E+02 -2.666530E+00 -2.208979E+01 -2.666530E+00 +9.209216E+02 
 +3.602759E+02 +1.778596E+01 -1.565973E+01 +1.778596E+01 +3.671285E+02 +3.050975E+00 -1.565973E+01 +3.050975E+00 +9.247593E+02 
 +3.616307E+02 +8.509522E+00 +2.326736E+00 +8.509522E+00 +3.790287E+02 -6.842669E+00 +2.326736E+00 -6.842669E+00 +9.455011E+02 
 +3.564608E+02 +1.270855E+00 +1.730902E+01 +1.270855E+00 +3.810741E+02 -1.070634E+01 +1.730902E+01 -1.070634E+01 +9.594934E+02 
 +3.562329E+02 +2.867976E+00 +1.003325E+01 +2.867976E+00 +3.772898E+02 -7.408914E+00 +1.003325E+01 -7.408914E+00 +9.550816E+02 
 +3.559781E+02 +9.107503E-01 +3.672220E+00 +9.107503E-01 +3.733038E+02 -7.375559E+00 +3.672220E+00 -7.375559E+00 +9.565534E+02 
 +3.549511E+02 -2.280015E+00 -2.769204E+00 -2.280015E+00 +3.654795E+02 -6.499050E+00 -2.769204E+00 -6.499050E+00 +9.540059E+02 
 +3.599229E+02 -7.275001E+00 -1.444504E+00 -7.275001E+00 +3.650206E+02 -1.115254E+01 -1.444504E+00 -1.115254E+01 +9.504629E+02 
 +3.653288E+02 -4.737218E+00 -6.048292E+00 -4.737218E+00 +3.658475E+02 -5.301454E+00 -6.048292E+00 -5.301454E+00 +9.450069E+02 
 +3.797710E+02 +3.521748E+00 +3.521891E+00 +3.521748E+00 +3.577291E+02 +4.097127E-01 +3.521891E+00 +4.097127E-01 +9.553122E+02 
 +3.699029E+02 +2.863426E+01 -8.671027E+00 +2.863426E+01 +3.258295E+02 +3.337939E+00 -8.671027E+00 +3.337939E+00 +9.524619E+02 
 +3.537637E+02 +2.435133E+01 -3.746479E+00 +2.435133E+01 +3.144612E+02 +2.318172E+00 -3.746479E+00 +2.318172E+00 +9.565576E+02 
 +3.538737E+02 +1.979440E+01 +3.339568E-01 +1.979440E+01 +3.218310E+02 +2.750025E+00 +3.339568E-01 +2.750025E+00 +9.684734E+02 
 +3.732713E+02 +1.390207E+01 +6.449265E+00 +1.390207E+01 +3.511664E+02 +5.047651E+00 +6.449265E+00 +5.047651E+00 +9.878508E+02 
 +3.874912E+02 +1.075195E+00 +4.579282E+00 +1.075195E+00 +3.925495E+02 -7.743756E-01 +4.579282E+00 -7.743756E-01 +9.880980E+02 
 +3.802283E+02 -7.209822E+00 -3.975946E-01 -7.209822E+00 +4.057482E+02 -4.946674E+00 -3.975946E-01 -4.946674E+00 +9.362859E+02 
 +3.737563E+02 -2.801432E+00 +3.811228E+00 -2.801432E+00 +3.998380E+02 -5.301467E+00 +3.811228E+00 -5.301467E+00 +9.060342E+02 
 +3.625933E+02 -3.422250E+00 +4.322646E+00 -3.422250E+00 +3.827763E+02 -4.149389E+00 +4.322646E+00 -4.149389E+00 +9.082208E+02 
 +3.698135E+02 +3.458575E+00 -1.505648E+01 +3.458575E+00 +3.753361E+02 -4.021618E+00 -1.505648E+01 -4.021618E+00 +9.357376E+02 
 +3.659498E+02 +6.585374E+00 -1.979179E+01 +6.585374E+00 +3.732486E+02 +2.470585E-01 -1.979179E+01 +2.470585E-01 +9.371220E+02 
 +3.548364E+02 +1.039415E+01 -5.754029E+00 +1.039415E+01 +3.645808E+02 -4.551122E+00 -5.754029E+00 -4.551122E+00 +9.182309E+02 
 +3.568861E+02 +1.266106E+01 -1.318619E+01 +1.266106E+01 +3.584313E+02 -9.620659E+00 -1.318619E+01 -9.620659E+00 +9.278617E+02 
 +3.554977E+02 +1.697839E+01 -1.493759E+01 +1.697839E+01 +3.575051E+02 +2.701042E-01 -1.493759E+01 +2.701042E-01 +9.275034E+02 
 +3.575165E+02 +1.296733E+01 -2.558706E+00 +1.296733E+01 +3.710941E+02 -1.837818E+00 -2.558706E+00 -1.837818E+00 +9.424039E+02 
 +3.549038E+02 +1.168980E+00 +1.810633E+01 +1.168980E+00 +3.778884E+02 -1.161358E+01 +1.810633E+01 -1.161358E+01 +9.588911E+02 
 +3.545594E+02 +2.582804E+00 +1.160243E+01 +2.582804E+00 +3.768688E+02 -9.844765E+00 +1.160243E+01 -9.844765E+00 +9.598578E+02 
 +3.520518E+02 -1.034332E+00 +7.071444E+00 -1.034332E+00 +3.759719E+02 -1.005123E+01 +7.071444E+00 -1.005123E+01 +9.615650E+02 
 +3.568226E+02 -5.801104E+00 +1.567144E+00 -5.801104E+00 +3.718900E+02 -1.030835E+01 +1.567144E+00 -1.030835E+01 +9.593074E+02 
 +3.734405E+02 -1.921458E+00 +3.633826E+00 -1.921458E+00 +3.734456E+02 -1.334717E+01 +3.633826E+00 -1.334717E+01 +9.509540E+02 
 +4.006254E+02 +9.813319E+00 +2.058574E+00 +9.813319E+00 +3.924963E+02 -6.922732E+00 +2.058574E+00 -6.922732E+00 +9.397647E+02 
 +4.066753E+02 +9.752928E+00 -3.227515E+00 +9.752928E+00 +4.042774E+02 -3.494112E+00 -3.227515E+00 -3.494112E+00 +9.531362E+02 
 +3.815196E+02 +2.309602E+01 -1.217192E+01 +2.309602E+01 +3.621523E+02 +3.221434E+00 -1.217192E+01 +3.221434E+00 +9.609913E+02 
 +3.677741E+02 +2.485240E+01 -1.816118E+00 +2.485240E+01 +3.298199E+02 +8.347377E+00 -1.816118E+00 +8.347377E+00 +9.608875E+02 
 +3.685648E+02 +1.416178E+01 +1.459647E+00 +1.416178E+01 +3.365488E+02 +7.799724E+00 +1.459647E+00 +7.799724E+00 +9.720415E+02 
 +3.662770E+02 +1.416230E+01 +7.169329E+00 +1.416230E+01 +3.412019E+02 +8.167901E+00 +7.169329E+00 +8.167901E+00 +9.850437E+02 
 +3.758597E+02 +1.402556E+01 +4.270920E+00 +1.402556E+01 +3.756591E+02 +4.359048E+00 +4.270920E+00 +4.359048E+00 +9.885579E+02 
 +3.868818E+02 +1.237330E+00 -6.012890E-01 +1.237330E+00 +4.143801E+02 -9.399120E-01 -6.012890E-01 -9.399120E-01 +9.489693E+02 
 +3.825755E+02 -2.477728E+00 +5.247379E-01 -2.477728E+00 +4.031688E+02 -1.524163E+00 +5.247379E-01 -1.524163E+00 +8.991051E+02 
 +3.738366E+02 +6.895004E+00 -1.907806E+00 +6.895004E+00 +3.948255E+02 +6.889474E-01 -1.907806E+00 +6.889474E-01 +8.998258E+02 
 +3.542979E+02 -6.152848E-01 -1.027934E+01 -6.152848E-01 +3.884017E+02 +3.667413E+00 -1.027934E+01 +3.667413E+00 +9.354095E+02 
 +3.433541E+02 +7.359003E+00 -2.576032E+01 +7.359003E+00 +3.652065E+02 +2.229780E+00 -2.576032E+01 +2.229780E+00 +9.453177E+02 
 +3.513434E+02 +7.758624E+00 -1.533835E+01 +7.758624E+00 +3.591908E+02 -5.279608E+00 -1.533835E+01 -5.279608E+00 +9.352104E+02 
 +3.474744E+02 +1.004414E+01 -8.789794E+00 +1.004414E+01 +3.529957E+02 -1.079335E+01 -8.789794E+00 -1.079335E+01 +9.307156E+02 
 +3.491426E+02 +1.399909E+01 -1.315704E+01 +1.399909E+01 +3.522582E+02 -7.030455E+00 -1.315704E+01 -7.030455E+00 +9.247431E+02 
 +3.619147E+02 +1.118116E+01 -1.246860E+01 +1.118116E+01 +3.694441E+02 -4.606676E+00 -1.246860E+01 -4.606676E+00 +9.420348E+02 
 +3.465738E+02 -7.340548E+00 +1.501154E+01 -7.340548E+00 +3.719473E+02 -1.388627E+01 +1.501154E+01 -1.388627E+01 +9.574555E+02 
 +3.528016E+02 -4.303951E+00 +1.134139E+01 -4.303951E+00 +3.769507E+02 -1.913155E+01 +1.134139E+01 -1.913155E+01 +9.677030E+02 
 +3.624893E+02 -5.975369E+00 +1.181317E+01 -5.975369E+00 +3.841316E+02 -2.146557E+01 +1.181317E+01 -2.146557E+01 +9.744701E+02 
 +3.632944E+02 -8.289775E+00 +6.725007E+00 -8.289775E+00 +3.772850E+02 -1.815425E+01 +6.725007E+00 -1.815425E+01 +9.659575E+02 
 +3.918591E+02 +7.344225E+00 +9.473378E+00 +7.344225E+00 +3.805387E+02 -1.322222E+01 +9.473378E+00 -1.322222E+01 +9.490574E+02 
 +4.102824E+02 +1.357239E+01 +9.093673E+00 +1.357239E+01 +3.940448E+02 -9.491427E+00 +9.093673E+00 -9.491427E+00 +9.288467E+02 
 +4.159709E+02 +7.502362E+00 -1.325997E+00 +7.502362E+00 +4.161439E+02 -7.489213E-01 -1.325997E+00 -7.489213E-01 +9.472966E+02 
 +3.803060E+02 +3.152060E+00 -1.245137E+01 +3.152060E+00 +3.916449E+02 +8.130487E+00 -1.245137E+01 +8.130487E+00 +9.590242E+02 
 +3.736981E+02 +2.227876E+01 +1.767731E+00 +2.227876E+01 +3.530767E+02 +9.229978E+00 +1.767731E+00 +9.229978E+00 +9.570224E+02 
 +3.709664E+02 +1.485830E+01 +2.214076E+00 +1.485830E+01 +3.437414E+02 +5.444291E+00 +2.214076E+00 +5.444291E+00 +9.612326E+02 
 +3.782201E+02 +1.573212E+01 +1.332634E+00 +1.573212E+01 +3.530788E+02 +4.157001E+00 +1.332634E+00 +4.157001E+00 +9.704335E+02 
 +3.655251E+02 +2.646214E+01 -2.380367E-01 +2.646214E+01 +3.428296E+02 +2.788761E+00 -2.380367E-01 +2.788761E+00 +9.726355E+02 
 +3.791257E+02 +2.267617E+01 -2.424808E+00 +2.267617E+01 +3.625952E+02 +9.748210E-02 -2.424808E+00 +9.748210E-02 +9.704149E+02 
 +3.791559E+02 +9.917743E-01 -1.926506E+00 +9.917743E-01 +3.805251E+02 -5.623449E-01 -1.926506E+00 -5.623449E-01 +9.355647E+02 
 +3.620362E+02 +5.340512E+00 -4.428168E+00 +5.340512E+00 +3.799703E+02 -2.647255E+00 -4.428168E+00 -2.647255E+00 +9.296477E+02 
 +3.267753E+02 -1.103692E+01 -6.027856E+00 -1.103692E+01 +3.707093E+02 -5.667533E+00 -6.027856E+00 -5.667533E+00 +9.540736E+02 
 +3.371022E+02 +2.477285E+00 -2.036176E+01 +2.477285E+00 +3.674291E+02 -4.597284E+00 -2.036176E+01 -4.597284E+00 +9.620429E+02 
 +3.347871E+02 +7.524776E+00 -1.753142E+01 +7.524776E+00 +3.524672E+02 -1.001164E+01 -1.753142E+01 -1.001164E+01 +9.387980E+02 
 +3.309037E+02 +5.686711E+00 -1.189573E+01 +5.686711E+00 +3.435587E+02 -1.631201E+01 -1.189573E+01 -1.631201E+01 +9.239551E+02 
 +3.397688E+02 +1.244954E+01 -1.381401E+01 +1.244954E+01 +3.419417E+02 -1.438462E+01 -1.381401E+01 -1.438462E+01 +9.259405E+02 
 +3.545464E+02 +1.299815E+01 -1.163588E+01 +1.299815E+01 +3.579876E+02 -1.087708E+01 -1.163588E+01 -1.087708E+01 +9.522296E+02 
 +3.472544E+02 -8.872166E+00 +1.229643E+01 -8.872166E+00 +3.630671E+02 -1.545500E+01 +1.229643E+01 -1.545500E+01 +9.671630E+02 
 +3.530836E+02 -2.451441E+00 +1.263294E+01 -2.451441E+00 +3.557223E+02 -1.152432E+01 +1.263294E+01 -1.152432E+01 +9.710466E+02 
 +3.541183E+02 +3.758309E+00 +1.384615E+01 +3.758309E+00 +3.439748E+02 -1.011869E+01 +1.384615E+01 -1.011869E+01 +9.688623E+02 
 +3.594571E+02 +1.039618E+00 +1.082090E+01 +1.039618E+00 +3.533809E+02 -1.065681E+01 +1.082090E+01 -1.065681E+01 +9.600896E+02 
 +3.798974E+02 +7.890408E+00 +8.863399E+00 +7.890408E+00 +3.667040E+02 -1.947550E+01 +8.863399E+00 -1.947550E+01 +9.317789E+02 
 +4.062319E+02 +5.361952E+00 +9.864955E+00 +5.361952E+00 +3.940498E+02 -1.623550E+01 +9.864955E+00 -1.623550E+01 +9.187057E+02 
 +4.191729E+02 +6.701428E+00 +5.132616E+00 +6.701428E+00 +4.129190E+02 -6.018258E+00 +5.132616E+00 -6.018258E+00 +9.406923E+02 
 +3.867553E+02 -9.974100E+00 -1.065478E+01 -9.974100E+00 +4.083932E+02 +8.678820E+00 -1.065478E+01 +8.678820E+00 +9.591651E+02 
 +3.767081E+02 +4.170990E+00 -3.587170E+00 +4.170990E+00 +3.797967E+02 +1.333141E+01 -3.587170E+00 +1.333141E+01 +9.570161E+02 
 +3.868469E+02 +1.053345E+01 -2.445793E+00 +1.053345E+01 +3.572794E+02 +1.056357E+01 -2.445793E+00 +1.056357E+01 +9.617863E+02 
 +3.880149E+02 +1.374308E+01 -2.269604E+00 +1.374308E+01 +3.506463E+02 +5.242783E+00 -2.269604E+00 +5.242783E+00 +9.614286E+02 
 +3.912176E+02 +2.533586E+01 +8.006346E-01 +2.533586E+01 +3.570132E+02 -2.989293E-01 +8.006346E-01 -2.989293E-01 +9.714865E+02 
 +3.605116E+02 +1.640758E+01 +4.110540E+00 +1.640758E+01 +3.351458E+02 -3.718144E+00 +4.110540E+00 -3.718144E+00 +9.673708E+02 
 +3.221588E+02 -1.103402E+01 +5.196629E+00 -1.103402E+01 +3.210586E+02 -6.321063E+00 +5.196629E+00 -6.321063E+00 +9.470195E+02 
 +3.322225E+02 -1.628613E+01 +6.073603E-01 -1.628613E+01 +3.458505E+02 -9.181969E+00 +6.073603E-01 -9.181969E+00 +9.540698E+02 
 +3.310999E+02 -2.011060E+01 -2.824185E+00 -2.011060E+01 +3.609964E+02 -8.996074E+00 -2.824185E+00 -8.996074E+00 +9.630488E+02 
 +3.338755E+02 -1.189480E+01 -7.050841E+00 -1.189480E+01 +3.672675E+02 -8.911730E+00 -7.050841E+00 -8.911730E+00 +9.569099E+02 
 +3.288427E+02 +6.157503E+00 -1.602379E+01 +6.157503E+00 +3.551393E+02 -6.503171E+00 -1.602379E+01 -6.503171E+00 +9.424275E+02 
 +3.235296E+02 +3.444560E+00 -1.023521E+01 +3.444560E+00 +3.484243E+02 -1.183244E+01 -1.023521E+01 -1.183244E+01 +9.367453E+02 
 +3.360171E+02 +9.040303E+00 -1.142591E+01 +9.040303E+00 +3.457053E+02 -1.986893E+01 -1.142591E+01 -1.986893E+01 +9.434060E+02 
 +3.505539E+02 +1.010732E+01 -1.523373E+00 +1.010732E+01 +3.385805E+02 -9.299494E+00 -1.523373E+00 -9.299494E+00 +9.635192E+02 
 +3.513770E+02 +1.016324E-01 +6.714554E+00 +1.016324E-01 +3.304265E+02 +1.865947E+00 +6.714554E+00 +1.865947E+00 +9.702086E+02 
 +3.598553E+02 +2.076939E+00 +1.092502E+01 +2.076939E+00 +3.441559E+02 -2.630647E+00 +1.092502E+01 -2.630647E+00 +9.708859E+02 
 +3.644524E+02 +3.856602E+00 +1.424791E+01 +3.856602E+00 +3.472121E+02 -4.481020E+00 +1.424791E+01 -4.481020E+00 +9.726604E+02 
 +3.515003E+02 +5.147910E+00 +6.159804E+00 +5.147910E+00 +3.348422E+02 -1.095556E+01 +6.159804E+00 -1.095556E+01 +9.493234E+02 
 +3.694194E+02 +8.848770E+00 +4.760373E+00 +8.848770E+00 +3.544831E+02 -4.673285E+00 +4.760373E+00 -4.673285E+00 +9.261959E+02 
 +3.831992E+02 +7.138989E+00 +1.251651E+01 +7.138989E+00 +3.647647E+02 -6.048013E+00 +1.251651E+01 -6.048013E+00 +9.212665E+02 
 +4.121042E+02 +6.270611E-01 +1.061198E+01 +6.270611E-01 +3.998395E+02 -4.965510E-02 +1.061198E+01 -4.965510E-02 +9.437712E+02 
 +4.078377E+02 -1.494496E+01 -7.066519E+00 -1.494496E+01 +4.155286E+02 +1.040171E+01 -7.066519E+00 +1.040171E+01 +9.634142E+02 
 +4.170990E+02 -7.128294E-01 -1.482662E+01 -7.128294E-01 +4.110739E+02 +1.393623E+01 -1.482662E+01 +1.393623E+01 +9.684814E+02 
 +4.072205E+02 +2.409706E+01 -1.239599E+01 +2.409706E+01 +3.709860E+02 +9.861346E+00 -1.239599E+01 +9.861346E+00 +9.635539E+02 
 +3.700561E+02 +2.430170E+01 -2.451275E+00 +2.430170E+01 +3.353964E+02 +3.228116E+00 -2.451275E+00 +3.228116E+00 +9.530513E+02 
 +3.604793E+02 +2.151272E+01 +4.188785E-01 +2.151272E+01 +3.423447E+02 -2.878830E+00 +4.188785E-01 -2.878830E+00 +9.583196E+02 
 +3.225049E+02 -1.324840E+01 +7.374847E+00 -1.324840E+01 +3.348321E+02 -5.519862E+00 +7.374847E+00 -5.519862E+00 +9.555985E+02 
 +3.220897E+02 -2.124662E+01 +7.418937E+00 -2.124662E+01 +3.380842E+02 -4.208265E+00 +7.418937E+00 -4.208265E+00 +9.629006E+02 
 +3.358594E+02 -1.986018E+01 +4.442137E+00 -1.986018E+01 +3.501860E+02 -3.032195E+00 +4.442137E+00 -3.032195E+00 +9.661473E+02 
 +3.453444E+02 -1.754855E+01 +3.181606E+00 -1.754855E+01 +3.591751E+02 -3.450313E+00 +3.181606E+00 -3.450313E+00 +9.622215E+02 
 +3.461235E+02 -1.391575E+01 +2.824420E+00 -1.391575E+01 +3.757981E+02 -4.766527E+00 +2.824420E+00 -4.766527E+00 +9.593020E+02 
 +3.368244E+02 -4.288418E-01 -3.708365E+00 -4.288418E-01 +3.826731E+02 +1.530694E+00 -3.708365E+00 +1.530694E+00 +9.596530E+02 
 +3.385713E+02 -6.798197E+00 -7.843925E-01 -6.798197E+00 +3.808210E+02 +1.481562E+00 -7.843925E-01 +1.481562E+00 +9.653228E+02 
 +3.383390E+02 -1.165513E+00 -5.525498E+00 -1.165513E+00 +3.660497E+02 -1.185783E+01 -5.525498E+00 -1.185783E+01 +9.596417E+02 
 +3.854474E+02 -5.468011E-01 +1.629854E+00 -5.468011E-01 +3.580441E+02 -7.710709E+00 +1.629854E+00 -7.710709E+00 +9.734273E+02 
 +3.687713E+02 +1.948276E+00 -1.421643E+00 +1.948276E+00 +3.372567E+02 +1.279434E+00 -1.421643E+00 +1.279434E+00 +9.741999E+02 
 +3.702596E+02 +1.638898E+00 +6.597994E+00 +1.638898E+00 +3.511285E+02 +6.396491E-01 +6.597994E+00 +6.396491E-01 +9.721537E+02 
 +3.724775E+02 -9.321941E-01 +1.459274E+01 -9.321941E-01 +3.616088E+02 +4.393551E+00 +1.459274E+01 +4.393551E+00 +9.685812E+02 
 +3.611807E+02 +1.885263E+00 -1.803549E+00 +1.885263E+00 +3.600420E+02 +2.814163E+00 -1.803549E+00 +2.814163E+00 +9.492750E+02 
 +3.634247E+02 +9.486400E+00 +6.035397E+00 +9.486400E+00 +3.413435E+02 +1.022940E+01 +6.035397E+00 +1.022940E+01 +9.357804E+02 
 +3.598870E+02 +1.879554E+01 +1.912519E+01 +1.879554E+01 +3.318218E+02 +1.455704E+01 +1.912519E+01 +1.455704E+01 +9.460790E+02 
 +3.791419E+02 +1.404461E+01 +1.787464E+01 +1.404461E+01 +3.390526E+02 +1.484381E+01 +1.787464E+01 +1.484381E+01 +9.461063E+02 
 +4.089714E+02 +7.914758E+00 +1.976286E+00 +7.914758E+00 +3.757469E+02 +1.259550E+01 +1.976286E+00 +1.259550E+01 +9.552946E+02 
 +4.198159E+02 -1.732574E+01 -1.444856E+01 -1.732574E+01 +4.059105E+02 +1.498001E+01 -1.444856E+01 +1.498001E+01 +9.670758E+02 
 +3.970509E+02 -1.769170E+01 -1.654804E+01 -1.769170E+01 +4.002407E+02 +8.451851E+00 -1.654804E+01 +8.451851E+00 +9.635975E+02 
 +3.756744E+02 -2.448907E+01 -3.574679E+00 -2.448907E+01 +4.003157E+02 -4.439009E+00 -3.574679E+00 -4.439009E+00 +9.679121E+02 
 +3.418301E+02 -1.986060E+01 +8.073533E-01 -1.986060E+01 +3.653220E+02 -8.140273E+00 +8.073533E-01 -8.140273E+00 +9.606039E+02 
 +3.226096E+02 -2.560954E+01 +3.687245E+00 -2.560954E+01 +3.374609E+02 -6.527847E+00 +3.687245E+00 -6.527847E+00 +9.563410E+02 
 +3.365558E+02 -2.376760E+01 +6.937163E+00 -2.376760E+01 +3.473967E+02 -4.830505E+00 +6.937163E+00 -4.830505E+00 +9.630463E+02 
 +3.421993E+02 -2.503172E+01 +9.463864E+00 -2.503172E+01 +3.511068E+02 -4.030074E+00 +9.463864E+00 -4.030074E+00 +9.638955E+02 
 +3.451578E+02 -2.621181E+01 +1.097869E+01 -2.621181E+01 +3.552463E+02 -1.018238E+01 +1.097869E+01 -1.018238E+01 +9.646498E+02 
 +3.565713E+02 -1.712177E+01 +1.686598E+01 -1.712177E+01 +3.787552E+02 -1.259439E+01 +1.686598E+01 -1.259439E+01 +9.650436E+02 
 +3.463556E+02 -7.520011E+00 +1.773786E+01 -7.520011E+00 +3.913507E+02 -6.011335E+00 +1.773786E+01 -6.011335E+00 +9.597205E+02 
 +3.521822E+02 -3.011532E+00 +1.150042E+01 -3.011532E+00 +3.921605E+02 -4.226999E+00 +1.150042E+01 -4.226999E+00 +9.628576E+02 
 +3.419226E+02 +3.076950E-01 +3.731604E-01 +3.076950E-01 +3.627645E+02 -1.330734E+01 +3.731604E-01 -1.330734E+01 +9.551077E+02 
 +3.937071E+02 -4.689380E+00 -1.435694E+00 -4.689380E+00 +3.537469E+02 -1.384789E+01 -1.435694E+00 -1.384789E+01 +9.688974E+02 
 +3.606146E+02 +9.425029E+00 -5.050562E+00 +9.425029E+00 +3.199879E+02 -4.739034E+00 -5.050562E+00 -4.739034E+00 +9.571113E+02 
 +3.682093E+02 +1.088100E+01 +1.423870E+00 +1.088100E+01 +3.402624E+02 +1.144923E+00 +1.423870E+00 +1.144923E+00 +9.623214E+02 
 +3.718034E+02 +5.101400E+00 +5.516927E+00 +5.101400E+00 +3.619248E+02 +3.642123E+00 +5.516927E+00 +3.642123E+00 +9.572454E+02 
 +3.652747E+02 +7.793657E+00 -3.891361E-01 +7.793657E+00 +3.579680E+02 +4.571843E+00 -3.891361E-01 +4.571843E+00 +9.402387E+02 
 +3.719320E+02 +1.317643E+00 +6.817067E+00 +1.317643E+00 +3.540296E+02 +1.964577E+00 +6.817067E+00 +1.964577E+00 +9.575740E+02 
 +3.780611E+02 +1.299579E+01 +1.485612E+01 +1.299579E+01 +3.526953E+02 +4.832156E+00 +1.485612E+01 +4.832156E+00 +9.744409E+02 
 +3.940854E+02 +1.670870E+01 +1.488149E+01 +1.670870E+01 +3.603241E+02 +6.788130E+00 +1.488149E+01 +6.788130E+00 +9.701730E+02 
 +3.982174E+02 +5.151921E+00 +3.117047E+00 +5.151921E+00 +3.710551E+02 +1.397277E+01 +3.117047E+00 +1.397277E+01 +9.642692E+02 
 +3.578229E+02 -2.549351E+01 -8.484894E+00 -2.549351E+01 +3.637943E+02 +1.885853E+01 -8.484894E+00 +1.885853E+01 +9.543169E+02 
 +3.605615E+02 -1.569483E+01 -1.070645E+01 -1.569483E+01 +3.869496E+02 +9.897707E+00 -1.070645E+01 +9.897707E+00 +9.571441E+02 
 +3.524789E+02 -1.164097E+01 -7.237730E+00 -1.164097E+01 +3.842504E+02 +2.835259E+00 -7.237730E+00 +2.835259E+00 +9.566583E+02 
 +3.435869E+02 -1.287492E+01 +2.683652E+00 -1.287492E+01 +3.706733E+02 -4.191202E+00 +2.683652E+00 -4.191202E+00 +9.609762E+02 
 +3.367901E+02 -2.421468E+01 +3.960319E+00 -2.421468E+01 +3.485526E+02 -5.954313E+00 +3.960319E+00 -5.954313E+00 +9.602927E+02 
 +3.434390E+02 -2.538079E+01 +4.123430E+00 -2.538079E+01 +3.488729E+02 -6.979844E+00 +4.123430E+00 -6.979844E+00 +9.620719E+02 
 +3.476254E+02 -2.923248E+01 +1.107903E+01 -2.923248E+01 +3.523354E+02 -9.230397E+00 +1.107903E+01 -9.230397E+00 +9.660957E+02 
 +3.429320E+02 -2.415964E+01 +1.307527E+01 -2.415964E+01 +3.474133E+02 -1.548212E+01 +1.307527E+01 -1.548212E+01 +9.668889E+02 
 +3.720358E+02 -1.700158E+00 +2.942366E+01 -1.700158E+00 +3.760169E+02 -1.616761E+01 +2.942366E+01 -1.616761E+01 +9.697516E+02 
 +3.610166E+02 +1.781460E-01 +2.652075E+01 +1.781460E-01 +3.762086E+02 -7.730801E+00 +2.652075E+01 -7.730801E+00 +9.582786E+02 
 +3.516981E+02 -2.048040E+00 +2.083898E+01 -2.048040E+00 +3.653809E+02 -7.504941E+00 +2.083898E+01 -7.504941E+00 +9.494821E+02 
 +3.499149E+02 -7.083912E+00 +1.084271E+01 -7.083912E+00 +3.495709E+02 -1.273765E+01 +1.084271E+01 -1.273765E+01 +9.432863E+02 
 +3.814908E+02 -1.047622E+01 -1.761837E-01 -1.047622E+01 +3.490398E+02 -1.594498E+01 -1.761837E-01 -1.594498E+01 +9.586214E+02 
 +3.634322E+02 +9.064251E+00 -3.830700E+00 +9.064251E+00 +3.226657E+02 -1.169567E+01 -3.830700E+00 -1.169567E+01 +9.483263E+02 
 +3.528416E+02 +1.713075E+01 -4.582910E+00 +1.713075E+01 +3.116077E+02 -1.080235E+01 -4.582910E+00 -1.080235E+01 +9.468596E+02 
 +3.567905E+02 +1.338140E+01 -2.673297E+00 +1.338140E+01 +3.297872E+02 -9.749961E+00 -2.673297E+00 -9.749961E+00 +9.519967E+02 
 +3.638144E+02 +1.019642E+00 +2.197970E+00 +1.019642E+00 +3.450520E+02 -4.652552E-01 +2.197970E+00 -4.652552E-01 +9.476107E+02 
 +3.600299E+02 +1.279748E+01 +6.897883E+00 +1.279748E+01 +3.354251E+02 -1.150339E+01 +6.897883E+00 -1.150339E+01 +9.706157E+02 
 +3.778146E+02 +9.422318E+00 +7.745512E+00 +9.422318E+00 +3.557865E+02 +4.163127E+00 +7.745512E+00 +4.163127E+00 +9.809872E+02 
 +3.744932E+02 +1.395953E+01 +4.908582E+00 +1.395953E+01 +3.630921E+02 +1.116807E+01 +4.908582E+00 +1.116807E+01 +9.707292E+02 
 +3.544763E+02 -1.526088E+01 -3.171444E+00 -1.526088E+01 +3.512314E+02 +2.327383E+01 -3.171444E+00 +2.327383E+01 +9.589520E+02 
 +3.454531E+02 -2.488215E+01 -5.799369E+00 -2.488215E+01 +3.462096E+02 +2.311324E+01 -5.799369E+00 +2.311324E+01 +9.571087E+02 
 +3.518543E+02 -9.853930E+00 -4.365004E+00 -9.853930E+00 +3.680022E+02 +9.395441E+00 -4.365004E+00 +9.395441E+00 +9.574889E+02 
 +3.504599E+02 -1.038610E+01 -7.812272E+00 -1.038610E+01 +3.815191E+02 +4.057232E+00 -7.812272E+00 +4.057232E+00 +9.590937E+02 
 +3.462346E+02 -1.618607E+01 +7.217960E-01 -1.618607E+01 +3.783623E+02 -2.648840E+00 +7.217960E-01 -2.648840E+00 +9.630356E+02 
 +3.461960E+02 -2.030659E+01 +1.012862E+00 -2.030659E+01 +3.630094E+02 -8.571996E+00 +1.012862E+00 -8.571996E+00 +9.628244E+02 
 +3.511205E+02 -6.806300E+00 -3.274474E+00 -6.806300E+00 +3.535230E+02 -1.586550E+01 -3.274474E+00 -1.586550E+01 +9.651345E+02 
 +3.332546E+02 -2.245470E+01 +7.735098E+00 -2.245470E+01 +3.364865E+02 -1.346583E+01 +7.735098E+00 -1.346583E+01 +9.625614E+02 
 +3.430418E+02 -1.597846E+01 +8.792677E+00 -1.597846E+01 +3.390057E+02 -1.650339E+01 +8.792677E+00 -1.650339E+01 +9.666446E+02 
 +3.878299E+02 +3.914583E+00 +2.848833E+01 +3.914583E+00 +3.685517E+02 -1.748487E+01 +2.848833E+01 -1.748487E+01 +9.768251E+02 
 +3.763114E+02 +7.877173E-02 +2.316009E+01 +7.877173E-02 +3.705542E+02 -8.258642E+00 +2.316009E+01 -8.258642E+00 +9.702615E+02 
 +3.634568E+02 -4.274982E+00 +2.451191E+01 -4.274982E+00 +3.651380E+02 -6.544410E+00 +2.451191E+01 -6.544410E+00 +9.550716E+02 
 +3.700445E+02 -1.461596E+01 +1.901226E+01 -1.461596E+01 +3.604504E+02 -1.153466E+01 +1.901226E+01 -1.153466E+01 +9.480782E+02 
 +3.811084E+02 -1.787582E+01 +1.626494E+00 -1.787582E+01 +3.525022E+02 -1.471342E+01 +1.626494E+00 -1.471342E+01 +9.577652E+02 
 +3.628061E+02 +5.034115E+00 -1.209284E+00 +5.034115E+00 +3.269808E+02 -1.067519E+01 -1.209284E+00 -1.067519E+01 +9.492423E+02 
 +3.565686E+02 +1.439126E+01 -5.356372E+00 +1.439126E+01 +3.141311E+02 -1.217667E+01 -5.356372E+00 -1.217667E+01 +9.507294E+02 
 +3.556014E+02 +1.857702E+01 -5.884730E+00 +1.857702E+01 +3.120784E+02 -2.040438E+01 -5.884730E+00 -2.040438E+01 +9.583676E+02 
 +3.575875E+02 +9.417706E+00 -3.195883E+00 +9.417706E+00 +3.200505E+02 -2.054180E+01 -3.195883E+00 -2.054180E+01 +9.638356E+02 
 +3.629799E+02 +6.248416E+00 -3.473307E-01 +6.248416E+00 +3.391439E+02 -8.607300E+00 -3.473307E-01 -8.607300E+00 +9.813062E+02 
 +3.641282E+02 +1.378221E+01 -1.504461E+00 +1.378221E+01 +3.525168E+02 +4.434961E+00 -1.504461E+00 +4.434961E+00 +9.804394E+02 
 +3.470615E+02 +2.012849E+01 -1.648452E+00 +2.012849E+01 +3.569959E+02 +9.438389E+00 -1.648452E+00 +9.438389E+00 +9.711576E+02 
 +3.243875E+02 -7.521063E+00 +1.219380E+00 -7.521063E+00 +3.372122E+02 +1.952430E+01 +1.219380E+00 +1.952430E+01 +9.592429E+02 
 +3.185575E+02 -1.768382E+01 +2.734126E+00 -1.768382E+01 +3.360097E+02 +2.066100E+01 +2.734126E+00 +2.066100E+01 +9.491484E+02 
 +3.398386E+02 -2.037576E+01 +8.135805E-02 -2.037576E+01 +3.569160E+02 +1.244274E+01 +8.135805E-02 +1.244274E+01 +9.504458E+02 
 +3.707032E+02 -1.597830E+01 -5.626253E+00 -1.597830E+01 +3.896663E+02 +6.773569E+00 -5.626253E+00 +6.773569E+00 +9.659969E+02 
 +3.694879E+02 -2.247141E+01 -2.349344E+00 -2.247141E+01 +3.875572E+02 +1.820453E-01 -2.349344E+00 +1.820453E-01 +9.704189E+02 
 +3.607381E+02 -2.337453E+01 -4.704798E+00 -2.337453E+01 +3.694806E+02 -7.378330E+00 -4.704798E+00 -7.378330E+00 +9.696029E+02 
 +3.533297E+02 -1.758105E+01 -9.502568E+00 -1.758105E+01 +3.521961E+02 -1.276160E+01 -9.502568E+00 -1.276160E+01 +9.740039E+02 
 +3.273707E+02 -2.156357E+01 -2.207614E+00 -2.156357E+01 +3.264561E+02 -1.684524E+01 -2.207614E+00 -1.684524E+01 +9.681892E+02 
 +3.443114E+02 -8.162028E+00 +2.643774E+00 -8.162028E+00 +3.405227E+02 -1.946679E+01 +2.643774E+00 -1.946679E+01 +9.670562E+02 
 +3.867735E+02 +8.851057E+00 +1.684508E+01 +8.851057E+00 +3.601679E+02 -1.905576E+01 +1.684508E+01 -1.905576E+01 +9.725977E+02 
 +3.872382E+02 +7.150341E+00 +1.930822E+01 +7.150341E+00 +3.650295E+02 -9.112257E+00 +1.930822E+01 -9.112257E+00 +9.708314E+02 
 +3.869807E+02 -3.997286E-01 +1.713952E+01 -3.997286E-01 +3.738732E+02 -4.555348E+00 +1.713952E+01 -4.555348E+00 +9.564859E+02 
 +3.791556E+02 -1.307093E+01 +1.363892E+01 -1.307093E+01 +3.621535E+02 -1.032246E+01 +1.363892E+01 -1.032246E+01 +9.450896E+02 
 +3.700185E+02 -2.104272E+01 +1.110107E+00 -2.104272E+01 +3.445581E+02 -1.243899E+01 +1.110107E+00 -1.243899E+01 +9.497610E+02 
 +3.569870E+02 -2.849635E-01 -8.652537E-01 -2.849635E-01 +3.261633E+02 -6.459366E+00 -8.652537E-01 -6.459366E+00 +9.497247E+02 
 +3.603568E+02 +9.653668E+00 -5.900773E+00 +9.653668E+00 +3.168794E+02 -6.716980E+00 -5.900773E+00 -6.716980E+00 +9.581839E+02 
 +3.614870E+02 +1.639031E+01 -7.106117E+00 +1.639031E+01 +3.124739E+02 -1.761413E+01 -7.106117E+00 -1.761413E+01 +9.611550E+02 
 +3.709512E+02 +5.072638E+00 -7.800024E+00 +5.072638E+00 +3.335085E+02 -2.065211E+01 -7.800024E+00 -2.065211E+01 +9.741436E+02 
 +3.751585E+02 +4.551668E+00 -6.854977E+00 +4.551668E+00 +3.523948E+02 -9.600088E+00 -6.854977E+00 -9.600088E+00 +9.656791E+02 
 +3.461305E+02 +1.526878E+01 -1.104493E-01 +1.526878E+01 +3.394800E+02 -1.986207E+00 -1.104493E-01 -1.986207E+00 +9.520912E+02 
 +3.201131E+02 +1.666371E+01 +1.859334E+00 +1.666371E+01 +3.065358E+02 +1.198094E+00 +1.859334E+00 +1.198094E+00 +9.395773E+02 
 +2.945688E+02 +4.996889E+00 +6.352914E+00 +4.996889E+00 +2.879868E+02 +3.337088E+00 +6.352914E+00 +3.337088E+00 +9.389363E+02 
 +2.985244E+02 +2.493418E+01 +9.952184E+00 +2.493418E+01 +3.280531E+02 +9.229131E+00 +9.952184E+00 +9.229131E+00 +9.416767E+02 
 +3.445413E+02 +2.808399E+01 +4.009487E+00 +2.808399E+01 +3.783382E+02 +1.259298E+01 +4.009487E+00 +1.259298E+01 +9.523699E+02 
 +3.573739E+02 +2.365482E+01 -4.469829E+00 +2.365482E+01 +3.764997E+02 +2.796230E+00 -4.469829E+00 +2.796230E+00 +9.562574E+02 
 +3.748889E+02 -1.053281E+01 -4.947979E+00 -1.053281E+01 +3.873620E+02 -3.003589E+00 -4.947979E+00 -3.003589E+00 +9.740394E+02 
 +3.664930E+02 -2.076553E+01 -5.439299E+00 -2.076553E+01 +3.674849E+02 -5.660083E+00 -5.439299E+00 -5.660083E+00 +9.797754E+02 
 +3.499264E+02 -1.058833E+01 -1.070133E+01 -1.058833E+01 +3.342118E+02 -6.436614E-01 -1.070133E+01 -6.436614E-01 +9.804914E+02 
 +3.527758E+02 -4.250108E+00 -9.772188E+00 -4.250108E+00 +3.378298E+02 +5.078707E-01 -9.772188E+00 +5.078707E-01 +9.843165E+02 
 +3.584599E+02 +1.442001E+01 +2.955486E+00 +1.442001E+01 +3.610222E+02 +1.874057E+00 +2.955486E+00 +1.874057E+00 +9.803021E+02 
 +3.813414E+02 +1.485031E+01 +8.044607E+00 +1.485031E+01 +3.774093E+02 +5.200711E+00 +8.044607E+00 +5.200711E+00 +9.788109E+02 
 +3.840324E+02 +1.285433E+01 +1.713907E+01 +1.285433E+01 +3.693259E+02 +8.263874E+00 +1.713907E+01 +8.263874E+00 +9.724695E+02 
 +4.120776E+02 -8.408978E+00 +9.117146E+00 -8.408978E+00 +3.770299E+02 +5.795197E+00 +9.117146E+00 +5.795197E+00 +9.698917E+02 
 +3.979003E+02 -1.866794E+01 +5.068224E+00 -1.866794E+01 +3.685639E+02 +1.368821E+00 +5.068224E+00 +1.368821E+00 +9.548335E+02 
 +3.925450E+02 -1.947441E+01 -5.546754E-01 -1.947441E+01 +3.836158E+02 -2.671500E+00 -5.546754E-01 -2.671500E+00 +9.603641E+02 
 +3.630308E+02 -3.889342E+00 +1.587675E-01 -3.889342E+00 +3.441157E+02 -2.967946E+00 +1.587675E-01 -2.967946E+00 +9.496552E+02 
 +3.345536E+02 +1.134358E+01 -3.583848E+00 +1.134358E+01 +3.019270E+02 -6.472034E+00 -3.583848E+00 -6.472034E+00 +9.436787E+02 
 +3.480532E+02 +1.106451E+01 -5.469178E+00 +1.106451E+01 +3.129941E+02 -1.257685E+01 -5.469178E+00 -1.257685E+01 +9.510363E+02 
 +3.746996E+02 +7.704157E+00 -1.427027E+01 +7.704157E+00 +3.354480E+02 -1.634321E+01 -1.427027E+01 -1.634321E+01 +9.582381E+02 
 +3.841246E+02 -3.593840E+00 +2.328209E+00 -3.593840E+00 +3.723360E+02 -7.277746E+00 +2.328209E+00 -7.277746E+00 +9.424630E+02 
 +3.684893E+02 +3.664631E+00 +9.753239E+00 +3.664631E+00 +3.665240E+02 -4.832157E+00 +9.753239E+00 -4.832157E+00 +9.276199E+02 
 +3.656952E+02 +1.216161E+01 +1.124410E+01 +1.216161E+01 +3.715125E+02 -4.226508E+00 +1.124410E+01 -4.226508E+00 +9.313346E+02 
 +3.379121E+02 +1.196399E+00 +9.831083E+00 +1.196399E+00 +3.702732E+02 -2.228184E+00 +9.831083E+00 -2.228184E+00 +9.436336E+02 
 +3.461447E+02 +2.226814E+01 +8.798324E+00 +2.226814E+01 +3.699722E+02 +4.504683E+00 +8.798324E+00 +4.504683E+00 +9.563678E+02 
 +3.622917E+02 +2.164152E+01 +3.542675E+00 +2.164152E+01 +3.783677E+02 +1.230846E+01 +3.542675E+00 +1.230846E+01 +9.538893E+02 
 +3.569908E+02 +3.086325E+01 -5.650061E+00 +3.086325E+01 +3.647468E+02 +4.431231E+00 -5.650061E+00 +4.431231E+00 +9.536159E+02 
 +3.510462E+02 +3.194275E+01 -6.774706E+00 +3.194275E+01 +3.625495E+02 -6.090320E-01 -6.774706E+00 -6.090320E-01 +9.694041E+02 
 +3.369890E+02 -6.352416E+00 -2.609880E+00 -6.352416E+00 +3.660785E+02 -3.403286E+00 -2.609880E+00 -3.403286E+00 +9.835945E+02 
 +3.390492E+02 -1.482984E+01 -6.451041E+00 -1.482984E+01 +3.448626E+02 -1.688191E+00 -6.451041E+00 -1.688191E+00 +9.852585E+02 
 +3.677832E+02 -8.462036E+00 -6.043247E+00 -8.462036E+00 +3.546119E+02 -1.726161E+00 -6.043247E+00 -1.726161E+00 +9.896628E+02 
 +3.626533E+02 +6.530933E+00 +7.074503E+00 +6.530933E+00 +3.633742E+02 -3.220090E-01 +7.074503E+00 -3.220090E-01 +9.826369E+02 
 +3.598725E+02 +2.473473E+00 +7.467490E+00 +2.473473E+00 +3.606552E+02 +6.866897E-01 +7.467490E+00 +6.866897E-01 +9.761269E+02 
 +3.617828E+02 +1.109462E+01 +1.336128E+01 +1.109462E+01 +3.504352E+02 +8.249472E-01 +1.336128E+01 +8.249472E-01 +9.727842E+02 
 +4.082755E+02 -1.498964E+01 +6.786722E+00 -1.498964E+01 +3.566786E+02 -1.720563E+00 +6.786722E+00 -1.720563E+00 +9.810138E+02 
 +3.967912E+02 -2.128975E+01 +2.481486E+00 -2.128975E+01 +3.412145E+02 -3.050446E+00 +2.481486E+00 -3.050446E+00 +9.628126E+02 
 +3.865199E+02 -2.497385E+01 -4.653727E-01 -2.497385E+01 +3.493135E+02 -1.250555E+00 -4.653727E-01 -1.250555E+00 +9.537035E+02 
 +3.819386E+02 -2.567467E+01 +1.165301E+00 -2.567467E+01 +3.528866E+02 -2.287702E+00 +1.165301E+00 -2.287702E+00 +9.520588E+02 
 +3.352381E+02 +1.778589E+01 +4.257520E-01 +1.778589E+01 +3.401821E+02 -6.110940E+00 +4.257520E-01 -6.110940E+00 +9.504107E+02 
 +3.471935E+02 +1.139955E+01 -7.457695E+00 +1.139955E+01 +3.517536E+02 -1.002025E+01 -7.457695E+00 -1.002025E+01 +9.635777E+02 
 +3.754293E+02 +6.339032E+00 -2.050226E+01 +6.339032E+00 +3.560480E+02 -1.206533E+01 -2.050226E+01 -1.206533E+01 +9.569938E+02 
 +3.785930E+02 +6.583693E+00 +1.030346E+01 +6.583693E+00 +3.773020E+02 -5.685159E+00 +1.030346E+01 -5.685159E+00 +9.349867E+02 
 +3.778458E+02 -6.114452E-01 +8.173494E+00 -6.114452E-01 +3.755261E+02 -1.015827E+01 +8.173494E+00 -1.015827E+01 +9.250231E+02 
 +3.693612E+02 -1.057669E+00 +8.885158E+00 -1.057669E+00 +3.672899E+02 -1.349984E+01 +8.885158E+00 -1.349984E+01 +9.216596E+02 
 +3.732502E+02 +6.334650E-01 +1.174187E+01 +6.334650E-01 +3.795095E+02 -5.902581E+00 +1.174187E+01 -5.902581E+00 +9.441434E+02 
 +3.591828E+02 +2.104963E+01 +3.771273E+00 +2.104963E+01 +3.821295E+02 -9.475375E-02 +3.771273E+00 -9.475375E-02 +9.603519E+02 
 +3.558720E+02 +8.772351E+00 +5.134196E-01 +8.772351E+00 +3.578158E+02 +5.441902E+00 +5.134196E-01 +5.441902E+00 +9.513375E+02 
 +3.566900E+02 -1.269145E+01 -7.063745E+00 -1.269145E+01 +3.383786E+02 +7.073538E+00 -7.063745E+00 +7.073538E+00 +9.525450E+02 
 +3.474973E+02 -8.836960E+00 -9.095856E+00 -8.836960E+00 +3.293995E+02 +5.940238E+00 -9.095856E+00 +5.940238E+00 +9.672407E+02 
 +3.108339E+02 -1.954092E+01 -2.369289E+00 -1.954092E+01 +3.389394E+02 +1.583294E+00 -2.369289E+00 +1.583294E+00 +9.731433E+02 
 +3.235117E+02 -1.810658E+01 +2.681829E+00 -1.810658E+01 +3.560743E+02 +3.057655E+00 +2.681829E+00 +3.057655E+00 +9.799490E+02 
 +3.619505E+02 +1.020462E+01 +4.771538E+00 +1.020462E+01 +3.699197E+02 +5.725439E+00 +4.771538E+00 +5.725439E+00 +9.881359E+02 
 +3.605674E+02 +1.147258E+01 +1.047937E+01 +1.147258E+01 +3.673894E+02 +1.856045E+00 +1.047937E+01 +1.856045E+00 +9.835172E+02 
 +3.555814E+02 +4.759495E+00 +1.117612E+01 +4.759495E+00 +3.514662E+02 +1.433029E+00 +1.117612E+01 +1.433029E+00 +9.793097E+02 
 +3.592035E+02 +9.308278E+00 +1.269361E+01 +9.308278E+00 +3.424305E+02 +8.209718E+00 +1.269361E+01 +8.209718E+00 +9.797096E+02 
 +4.031490E+02 -1.333351E+01 +4.561809E+00 -1.333351E+01 +3.516972E+02 +8.069191E+00 +4.561809E+00 +8.069191E+00 +9.880373E+02 
 +3.971157E+02 -1.412444E+01 +1.851745E+00 -1.412444E+01 +3.452121E+02 +2.617516E+00 +1.851745E+00 +2.617516E+00 +9.742313E+02 
 +3.897233E+02 -1.765115E+01 +2.519486E+00 -1.765115E+01 +3.460019E+02 +1.630890E+00 +2.519486E+00 +1.630890E+00 +9.577819E+02 
 +4.035221E+02 -2.528832E+01 +1.423275E+00 -2.528832E+01 +3.735211E+02 -7.597313E-01 +1.423275E+00 -7.597313E-01 +9.541524E+02 
 +3.525442E+02 +1.791949E+01 +7.260670E-01 +1.791949E+01 +3.694652E+02 -1.748590E+00 +7.260670E-01 -1.748590E+00 +9.445918E+02 
 +3.554782E+02 +1.103972E+01 -3.401303E+00 +1.103972E+01 +3.814636E+02 -2.978114E+00 -3.401303E+00 -2.978114E+00 +9.570274E+02 
 +3.500709E+02 +1.692377E+01 -1.527213E+01 +1.692377E+01 +3.745264E+02 -6.082630E+00 -1.527213E+01 -6.082630E+00 +9.448126E+02 
 +3.667152E+02 +5.459335E+00 +6.478778E+00 +5.459335E+00 +3.782672E+02 -4.970284E+00 +6.478778E+00 -4.970284E+00 +9.306776E+02 
 +3.756270E+02 +4.231429E+00 +5.181767E+00 +4.231429E+00 +3.811603E+02 -7.007077E+00 +5.181767E+00 -7.007077E+00 +9.345719E+02 
 +3.746930E+02 +3.199527E+00 +4.231751E+00 +3.199527E+00 +3.671202E+02 -6.854543E+00 +4.231751E+00 -6.854543E+00 +9.342477E+02 
 +3.843691E+02 +2.790753E-02 +1.669023E+01 +2.790753E-02 +3.721151E+02 -2.056750E+00 +1.669023E+01 -2.056750E+00 +9.458632E+02 
 +3.404132E+02 -7.390112E+00 -1.072654E+00 -7.390112E+00 +3.456348E+02 +5.614827E+00 -1.072654E+00 +5.614827E+00 +9.408277E+02 
 +3.393746E+02 -8.443303E+00 -2.731008E+00 -8.443303E+00 +3.314827E+02 +3.914009E+00 -2.731008E+00 +3.914009E+00 +9.424763E+02 
 +3.426338E+02 -1.182988E+01 -6.905331E+00 -1.182988E+01 +3.308119E+02 +4.183363E+00 -6.905331E+00 +4.183363E+00 +9.497395E+02 
 +3.465656E+02 -9.946410E+00 -4.763904E+00 -9.946410E+00 +3.232729E+02 +1.078796E+01 -4.763904E+00 +1.078796E+01 +9.599364E+02 
 +3.485165E+02 -1.368448E+01 -6.544800E+00 -1.368448E+01 +3.312098E+02 +1.239779E+01 -6.544800E+00 +1.239779E+01 +9.701605E+02 
 +3.294184E+02 -2.729189E+01 +7.388013E+00 -2.729189E+01 +3.518284E+02 +5.624784E+00 +7.388013E+00 +5.624784E+00 +9.727435E+02 
 +3.513711E+02 +9.465315E+00 +1.312410E+01 +9.465315E+00 +3.683426E+02 +4.500759E+00 +1.312410E+01 +4.500759E+00 +9.843514E+02 
 +3.528134E+02 +1.205875E+01 +1.208051E+01 +1.205875E+01 +3.585158E+02 +2.924320E+00 +1.208051E+01 +2.924320E+00 +9.804659E+02 
 +3.539971E+02 +1.079550E+01 +1.168849E+01 +1.079550E+01 +3.513668E+02 +2.826983E+00 +1.168849E+01 +2.826983E+00 +9.795778E+02 
 +3.506595E+02 +9.821129E+00 +1.080222E+01 +9.821129E+00 +3.310426E+02 +8.835818E+00 +1.080222E+01 +8.835818E+00 +9.761049E+02 
 +3.878792E+02 -1.198563E+01 +3.670900E+00 -1.198563E+01 +3.394659E+02 +8.760306E+00 +3.670900E+00 +8.760306E+00 +9.841794E+02 
 +3.871187E+02 -1.007014E+01 +2.053022E+00 -1.007014E+01 +3.428855E+02 +2.500271E+00 +2.053022E+00 +2.500271E+00 +9.765721E+02 
 +3.779373E+02 -1.818671E+01 +3.367832E+00 -1.818671E+01 +3.437255E+02 +2.074790E+00 +3.367832E+00 +2.074790E+00 +9.595317E+02 
 +3.835150E+02 -2.171507E+01 +6.034518E-01 -2.171507E+01 +3.745603E+02 +2.588581E+00 +6.034518E-01 +2.588581E+00 +9.393360E+02 
 +3.660014E+02 +2.868290E+00 +1.413513E-01 +2.868290E+00 +3.932049E+02 +4.071115E+00 +1.413513E-01 +4.071115E+00 +9.160837E+02 
 +3.703899E+02 -8.172208E+00 +1.477898E+00 -8.172208E+00 +4.018645E+02 +1.040067E+01 +1.477898E+00 +1.040067E+01 +9.260130E+02 
 +3.501600E+02 -2.231368E+00 -1.743615E+01 -2.231368E+00 +3.804372E+02 +4.347737E+00 -1.743615E+01 +4.347737E+00 +9.276469E+02 
 +3.638219E+02 +9.257860E+00 -2.405619E+00 +9.257860E+00 +3.761221E+02 +5.045039E+00 -2.405619E+00 +5.045039E+00 +9.120830E+02 
 +3.793505E+02 +6.066616E+00 +1.901506E+00 +6.066616E+00 +3.776306E+02 +4.940866E+00 +1.901506E+00 +4.940866E+00 +9.295077E+02 
 +3.731790E+02 +4.749992E+00 +2.256168E+00 +4.749992E+00 +3.735394E+02 +3.197251E+00 +2.256168E+00 +3.197251E+00 +9.409886E+02 
 +3.580744E+02 +5.825593E+00 +1.630191E+01 +5.825593E+00 +3.631968E+02 +4.239042E-01 +1.630191E+01 +4.239042E-01 +9.329688E+02 
 +3.423946E+02 -3.458762E+00 -2.587237E+00 -3.458762E+00 +3.417869E+02 +1.575666E+00 -2.587237E+00 +1.575666E+00 +9.320607E+02 
 +3.502592E+02 -6.678601E+00 -6.520594E+00 -6.678601E+00 +3.355231E+02 +3.814942E+00 -6.520594E+00 +3.814942E+00 +9.408667E+02 
 +3.528901E+02 -1.166340E+01 -7.009756E+00 -1.166340E+01 +3.402139E+02 +1.007548E+00 -7.009756E+00 +1.007548E+00 +9.489077E+02 
 +3.464333E+02 -1.422239E+01 +2.075762E+00 -1.422239E+01 +3.414332E+02 -7.688415E-01 +2.075762E+00 -7.688415E-01 +9.540914E+02 
 +3.641902E+02 -1.342762E+01 -5.726485E+00 -1.342762E+01 +3.376746E+02 +7.683008E+00 -5.726485E+00 +7.683008E+00 +9.619187E+02 
 +3.546175E+02 -2.063273E+01 +2.931083E+00 -2.063273E+01 +3.403524E+02 +1.343191E+01 +2.931083E+00 +1.343191E+01 +9.673073E+02 
 +3.398235E+02 +6.054013E+00 +1.802704E+01 +6.054013E+00 +3.520795E+02 +8.383748E+00 +1.802704E+01 +8.383748E+00 +9.710075E+02 
 +3.507624E+02 +8.670749E+00 +1.418711E+01 +8.670749E+00 +3.526170E+02 +2.238797E+00 +1.418711E+01 +2.238797E+00 +9.718807E+02 
 +3.632235E+02 +7.306497E+00 +1.016780E+01 +7.306497E+00 +3.514958E+02 +2.366125E+00 +1.016780E+01 +2.366125E+00 +9.764281E+02 
 +3.478384E+02 +9.264200E+00 +4.214281E+00 +9.264200E+00 +3.367856E+02 +5.545949E+00 +4.214281E+00 +5.545949E+00 +9.725756E+02 
 +3.733297E+02 -6.696572E+00 +5.289939E+00 -6.696572E+00 +3.478209E+02 -1.499256E-01 +5.289939E+00 -1.499256E-01 +9.791251E+02 
 +3.689677E+02 -6.520553E+00 +4.603807E+00 -6.520553E+00 +3.446349E+02 -2.210052E+00 +4.603807E+00 -2.210052E+00 +9.632473E+02 
 +3.724211E+02 -6.911436E+00 +6.281950E+00 -6.911436E+00 +3.722809E+02 +3.587066E+00 +6.281950E+00 +3.587066E+00 +9.506040E+02 
 +3.849632E+02 +1.749961E-01 +9.941824E-01 +1.749961E-01 +4.233622E+02 +3.706239E+00 +9.941824E-01 +3.706239E+00 +9.444455E+02 
 +3.780426E+02 +5.355732E+00 -5.362449E+00 +5.355732E+00 +4.154474E+02 +1.082614E+00 -5.362449E+00 +1.082614E+00 +9.160711E+02 
 +3.744401E+02 +7.873409E-01 -1.356872E+00 +7.873409E-01 +3.957447E+02 +2.488700E+00 -1.356872E+00 +2.488700E+00 +9.147508E+02 
 +3.715976E+02 -3.618615E+00 -2.238658E+01 -3.618615E+00 +3.908679E+02 +2.970109E+00 -2.238658E+01 +2.970109E+00 +9.270152E+02 
 +3.838580E+02 +7.335992E+00 -1.265118E+01 +7.335992E+00 +3.947831E+02 +1.532174E+01 -1.265118E+01 +1.532174E+01 +9.257405E+02 
 +3.813276E+02 +3.870880E+00 -4.572299E+00 +3.870880E+00 +3.832592E+02 +1.115878E+01 -4.572299E+00 +1.115878E+01 +9.344759E+02 
 +3.698130E+02 +5.686092E+00 -4.213161E+00 +5.686092E+00 +3.809196E+02 +1.100706E+01 -4.213161E+00 +1.100706E+01 +9.494642E+02 
 +3.618570E+02 +3.848441E+00 +3.607639E+00 +3.848441E+00 +3.702551E+02 +6.622326E+00 +3.607639E+00 +6.622326E+00 +9.478003E+02 
 +3.428561E+02 -8.865791E+00 -2.261898E+00 -8.865791E+00 +3.456360E+02 -1.160470E-01 -2.261898E+00 -1.160470E-01 +9.403282E+02 
 +3.492252E+02 -8.942919E+00 -3.291511E+00 -8.942919E+00 +3.411581E+02 -1.626340E+00 -3.291511E+00 -1.626340E+00 +9.380267E+02 
 +3.517359E+02 -1.228555E+01 -4.135161E+00 -1.228555E+01 +3.391477E+02 +3.373536E+00 -4.135161E+00 +3.373536E+00 +9.393602E+02 
 +3.471813E+02 -1.541829E+01 -4.956458E-01 -1.541829E+01 +3.313196E+02 +6.927482E+00 -4.956458E-01 +6.927482E+00 +9.446196E+02 
 +3.572413E+02 -1.710063E+01 -1.893441E+00 -1.710063E+01 +3.313700E+02 +8.936926E+00 -1.893441E+00 +8.936926E+00 +9.533160E+02 
 +3.747345E+02 -1.825608E+01 +5.865330E-02 -1.825608E+01 +3.477677E+02 +1.451010E+01 +5.865330E-02 +1.451010E+01 +9.681223E+02 
 +3.476867E+02 -4.355697E+00 +1.560022E+01 -4.355697E+00 +3.441741E+02 +1.012009E+01 +1.560022E+01 +1.012009E+01 +9.667217E+02 
 +3.421510E+02 -1.440073E+00 +1.538394E+01 -1.440073E+00 +3.315697E+02 +8.579564E-03 +1.538394E+01 +8.579564E-03 +9.649712E+02 
 +3.560883E+02 -1.554481E+00 +1.129187E+01 -1.554481E+00 +3.277168E+02 -6.574393E+00 +1.129187E+01 -6.574393E+00 +9.690170E+02 
 +3.492952E+02 +1.036901E+00 +6.445202E+00 +1.036901E+00 +3.292823E+02 -6.453870E+00 +6.445202E+00 -6.453870E+00 +9.634773E+02 
 +3.631838E+02 -4.331671E+00 +6.970216E+00 -4.331671E+00 +3.600992E+02 -1.008319E+01 +6.970216E+00 -1.008319E+01 +9.577668E+02 
 +3.728985E+02 -1.138531E-01 +6.615809E+00 -1.138531E-01 +3.955493E+02 -1.270398E+01 +6.615809E+00 -1.270398E+01 +9.492218E+02 
 +3.750491E+02 +5.825353E+00 +1.264105E+01 +5.825353E+00 +4.124757E+02 -1.203316E+01 +1.264105E+01 -1.203316E+01 +9.376945E+02 
 +3.696713E+02 +1.008288E+01 +1.521321E+01 +1.008288E+01 +4.072562E+02 -1.139203E+01 +1.521321E+01 -1.139203E+01 +9.287801E+02 
 +3.770208E+02 +8.988945E+00 +4.399628E+00 +8.988945E+00 +4.024900E+02 -3.293041E+00 +4.399628E+00 -3.293041E+00 +9.246433E+02 
 +3.772128E+02 +6.589818E+00 +1.652556E+00 +6.589818E+00 +3.933719E+02 +6.411403E+00 +1.652556E+00 +6.411403E+00 +9.273535E+02 
 +3.793124E+02 +7.139511E-01 -1.322789E+01 +7.139511E-01 +3.984023E+02 +7.418049E+00 -1.322789E+01 +7.418049E+00 +9.353131E+02 
 +3.641032E+02 +5.915216E+00 -2.236781E+01 +5.915216E+00 +3.851371E+02 +4.394177E+00 -2.236781E+01 +4.394177E+00 +9.451774E+02 
 +3.570153E+02 +7.151963E+00 -6.479204E+00 +7.151963E+00 +3.739640E+02 +1.147522E+01 -6.479204E+00 +1.147522E+01 +9.479262E+02 
 +3.591519E+02 +7.085920E+00 -5.881748E+00 +7.085920E+00 +3.740422E+02 +7.905696E+00 -5.881748E+00 +7.905696E+00 +9.576707E+02 
 +3.606532E+02 +3.912968E+00 -4.765061E+00 +3.912968E+00 +3.692901E+02 +2.395365E+00 -4.765061E+00 +2.395365E+00 +9.605218E+02 
 +3.598524E+02 -3.229398E+00 -5.051737E+00 -3.229398E+00 +3.699504E+02 +1.141718E+00 -5.051737E+00 +1.141718E+00 +9.586769E+02 
 +3.506984E+02 -9.109670E+00 -2.957489E+00 -9.109670E+00 +3.618377E+02 +3.402922E-01 -2.957489E+00 +3.402922E-01 +9.487423E+02 
 +3.472347E+02 -1.394612E+01 +1.316808E+00 -1.394612E+01 +3.415539E+02 +5.271294E+00 +1.316808E+00 +5.271294E+00 +9.363868E+02 
 +3.559316E+02 -1.656053E+01 -3.840225E-01 -1.656053E+01 +3.340133E+02 +1.207242E+01 -3.840225E-01 +1.207242E+01 +9.363783E+02 
 +3.556094E+02 -1.830284E+01 -8.923604E-01 -1.830284E+01 +3.315145E+02 +1.862337E+01 -8.923604E-01 +1.862337E+01 +9.458241E+02 
 +3.523881E+02 -1.529577E+01 -3.919547E+00 -1.529577E+01 +3.282371E+02 +2.232299E+01 -3.919547E+00 +2.232299E+01 +9.549184E+02 
 +3.613335E+02 -1.163950E+01 -9.861720E+00 -1.163950E+01 +3.269985E+02 +1.126856E+01 -9.861720E+00 +1.126856E+01 +9.566544E+02 
 +3.589470E+02 -5.935891E+00 -1.746255E+00 -5.935891E+00 +3.226573E+02 -5.507186E+00 -1.746255E+00 -5.507186E+00 +9.410639E+02 
 +3.539861E+02 -6.560169E-01 +7.946985E+00 -6.560169E-01 +3.324227E+02 -1.164327E+01 +7.946985E+00 -1.164327E+01 +9.229782E+02 
 +3.532583E+02 -3.845949E+00 +7.893372E+00 -3.845949E+00 +3.463044E+02 -1.648859E+01 +7.893372E+00 -1.648859E+01 +9.210997E+02 
 +3.585736E+02 -4.339665E+00 +7.592471E+00 -4.339665E+00 +3.678844E+02 -1.760262E+01 +7.592471E+00 -1.760262E+01 +9.265853E+02 
 +3.619810E+02 -8.576848E-01 +1.330027E+01 -8.576848E-01 +3.889838E+02 -1.156731E+01 +1.330027E+01 -1.156731E+01 +9.289452E+02 
 +3.688277E+02 +1.049215E+00 +1.891736E+01 +1.049215E+00 +3.956607E+02 -7.658984E+00 +1.891736E+01 -7.658984E+00 +9.287844E+02 
 +3.765719E+02 -3.827478E-01 +2.458840E+01 -3.827478E-01 +3.991920E+02 -1.000034E+01 +2.458840E+01 -1.000034E+01 +9.239956E+02 
 +3.793280E+02 +4.810772E-01 +2.199867E+01 +4.810772E-01 +3.971261E+02 -1.734988E+01 +2.199867E+01 -1.734988E+01 +9.250936E+02 
 +3.746640E+02 -3.451977E+00 +1.335262E+01 -3.451977E+00 +3.878966E+02 -1.829231E+01 +1.335262E+01 -1.829231E+01 +9.263539E+02 
 +3.707406E+02 -4.452857E+00 +4.646154E+00 -4.452857E+00 +3.898090E+02 -7.504137E+00 +4.646154E+00 -7.504137E+00 +9.353767E+02 
 +3.813099E+02 +6.287693E+00 -2.094193E+01 +6.287693E+00 +3.853560E+02 -1.012641E-01 -2.094193E+01 -1.012641E-01 +9.497035E+02 
 +3.725836E+02 +7.153611E+00 -1.181897E+01 +7.153611E+00 +3.807086E+02 +1.281762E+01 -1.181897E+01 +1.281762E+01 +9.615709E+02 
 +3.677079E+02 +2.806650E+00 -7.189711E+00 +2.806650E+00 +3.786860E+02 +1.060764E+01 -7.189711E+00 +1.060764E+01 +9.737769E+02 
 +3.695839E+02 +1.001631E+00 -9.637730E+00 +1.001631E+00 +3.744683E+02 +4.697180E+00 -9.637730E+00 +4.697180E+00 +9.735030E+02 
 +3.664854E+02 -1.158530E-01 -3.790015E+00 -1.158530E-01 +3.733496E+02 +2.512845E+00 -3.790015E+00 +2.512845E+00 +9.649303E+02 
 +3.544126E+02 -5.363630E+00 +6.536446E-02 -5.363630E+00 +3.734402E+02 +1.030107E+01 +6.536446E-02 +1.030107E+01 +9.512212E+02 
 +3.512796E+02 -1.023155E+01 +5.637992E+00 -1.023155E+01 +3.690171E+02 +1.338253E+01 +5.637992E+00 +1.338253E+01 +9.364337E+02 
 +3.516701E+02 -1.787486E+01 +5.222760E+00 -1.787486E+01 +3.456572E+02 +1.396676E+01 +5.222760E+00 +1.396676E+01 +9.236103E+02 
 +3.504692E+02 -1.719551E+01 +2.464407E+00 -1.719551E+01 +3.295727E+02 +1.237113E+01 +2.464407E+00 +1.237113E+01 +9.220025E+02 
 +3.543529E+02 -1.350959E+01 +2.087464E+00 -1.350959E+01 +3.293109E+02 +9.645065E+00 +2.087464E+00 +9.645065E+00 +9.307507E+02 
 +3.670368E+02 -3.518813E+00 -5.522504E+00 -3.518813E+00 +3.407293E+02 +6.098377E+00 -5.522504E+00 +6.098377E+00 +9.371914E+02 
 +3.684279E+02 +2.039783E+00 +7.433932E+00 +2.039783E+00 +3.556758E+02 +2.113035E+00 +7.433932E+00 +2.113035E+00 +9.315079E+02 
 +3.538829E+02 +2.817232E+00 +6.222046E+00 +2.817232E+00 +3.485252E+02 -7.575037E+00 +6.222046E+00 -7.575037E+00 +9.084165E+02 
 +3.488121E+02 -3.329019E+00 +6.373026E+00 -3.329019E+00 +3.527308E+02 -2.004909E+01 +6.373026E+00 -2.004909E+01 +9.088591E+02 
 +3.610626E+02 -4.044686E+00 +9.962722E+00 -4.044686E+00 +3.742528E+02 -2.408231E+01 +9.962722E+00 -2.408231E+01 +9.291537E+02 
 +3.642046E+02 -1.809853E+00 +1.407119E+01 -1.809853E+00 +3.824979E+02 -1.584093E+01 +1.407119E+01 -1.584093E+01 +9.346951E+02 
 +3.676434E+02 -5.272737E-01 +1.706382E+01 -5.272737E-01 +3.891390E+02 -1.238265E+01 +1.706382E+01 -1.238265E+01 +9.334142E+02 
 +3.715479E+02 -1.486354E+00 +1.890538E+01 -1.486354E+00 +3.915836E+02 -1.137515E+01 +1.890538E+01 -1.137515E+01 +9.276707E+02 
 +3.733819E+02 -2.122248E+00 +1.275513E+01 -2.122248E+00 +3.895456E+02 -1.046402E+01 +1.275513E+01 -1.046402E+01 +9.273725E+02 
 +3.695066E+02 -4.228968E+00 +4.891042E+00 -4.228968E+00 +3.887575E+02 -1.300471E+01 +4.891042E+00 -1.300471E+01 +9.348804E+02 
 +3.635804E+02 -2.163596E+00 +4.824903E+00 -2.163596E+00 +3.834431E+02 -1.279938E+01 +4.824903E+00 -1.279938E+01 +9.378546E+02 
 +3.663121E+02 +2.590806E+00 -1.350247E+01 +2.590806E+00 +3.603707E+02 -9.160498E+00 -1.350247E+01 -9.160498E+00 +9.481333E+02 
 +3.632525E+02 +5.743784E+00 -1.052647E+01 +5.743784E+00 +3.522059E+02 -8.110734E+00 -1.052647E+01 -8.110734E+00 +9.593279E+02 
 +3.680125E+02 +2.664545E+00 -2.832938E-01 +2.664545E+00 +3.615790E+02 -5.713982E+00 -2.832938E-01 -5.713982E+00 +9.788416E+02 
 +3.730162E+02 +3.346237E+00 -6.886061E+00 +3.346237E+00 +3.734526E+02 +1.272424E+00 -6.886061E+00 +1.272424E+00 +9.775929E+02 
 +3.713576E+02 +5.638851E-01 +3.671152E-02 +5.638851E-01 +3.775865E+02 +7.272958E+00 +3.671152E-02 +7.272958E+00 +9.601694E+02 
 +3.629722E+02 -4.583880E+00 +2.979493E+00 -4.583880E+00 +3.766820E+02 +9.944958E+00 +2.979493E+00 +9.944958E+00 +9.490560E+02 
 +3.580054E+02 -1.017547E+01 +9.742701E+00 -1.017547E+01 +3.793492E+02 +1.864464E+01 +9.742701E+00 +1.864464E+01 +9.347355E+02 
 +3.644417E+02 -1.365333E+01 +4.861066E+00 -1.365333E+01 +3.880051E+02 +1.906672E+01 +4.861066E+00 +1.906672E+01 +9.190093E+02 
 +3.767270E+02 -8.001790E+00 -1.270991E+00 -8.001790E+00 +3.871657E+02 +1.143223E+01 -1.270991E+00 +1.143223E+01 +9.079423E+02 
 +3.845711E+02 -5.864757E+00 +8.398006E-01 -5.864757E+00 +3.762964E+02 +8.152919E+00 +8.398006E-01 +8.152919E+00 +9.129135E+02 
 +3.598597E+02 +6.475731E+00 +5.192469E+00 +6.475731E+00 +3.631171E+02 +7.586982E+00 +5.192469E+00 +7.586982E+00 +9.095461E+02 
 +3.555109E+02 +1.935970E+00 +8.768760E+00 +1.935970E+00 +3.564141E+02 +3.014325E+00 +8.768760E+00 +3.014325E+00 +9.073158E+02 
 +3.485486E+02 +8.154947E+00 +4.850108E+00 +8.154947E+00 +3.502910E+02 -2.226118E+00 +4.850108E+00 -2.226118E+00 +9.062378E+02 
 +3.424896E+02 +6.777060E+00 +3.631797E-01 +6.777060E+00 +3.574373E+02 -6.067772E+00 +3.631797E-01 -6.067772E+00 +9.063134E+02 
 +3.490404E+02 +3.101488E+00 +7.096574E+00 +3.101488E+00 +3.648978E+02 -1.208619E+01 +7.096574E+00 -1.208619E+01 +9.113287E+02 
 +3.644020E+02 +2.467668E+00 +1.015153E+01 +2.467668E+00 +3.797476E+02 -1.617455E+01 +1.015153E+01 -1.617455E+01 +9.298675E+02 
 +3.712855E+02 +1.315915E+00 +1.449120E+01 +1.315915E+00 +3.895918E+02 -1.290467E+01 +1.449120E+01 -1.290467E+01 +9.403774E+02 
 +3.733032E+02 -6.806033E-01 +1.699604E+01 -6.806033E-01 +3.898624E+02 -7.707201E+00 +1.699604E+01 -7.707201E+00 +9.357338E+02 
 +3.731132E+02 -8.207905E-01 +1.266455E+01 -8.207905E-01 +3.894144E+02 -4.306735E+00 +1.266455E+01 -4.306735E+00 +9.320925E+02 
 +3.694306E+02 +9.435375E-01 +3.449252E+00 +9.435375E-01 +3.907905E+02 -4.516309E+00 +3.449252E+00 -4.516309E+00 +9.400932E+02 
 +3.682817E+02 -1.458908E+00 +1.099957E+00 -1.458908E+00 +3.805980E+02 -6.863311E+00 +1.099957E+00 -6.863311E+00 +9.451916E+02 
 +3.579711E+02 -2.388920E+00 -1.682985E+01 -2.388920E+00 +3.652526E+02 -5.076705E+00 -1.682985E+01 -5.076705E+00 +9.491757E+02 
 +3.770658E+02 +4.444955E+00 -9.319507E+00 +4.444955E+00 +3.601433E+02 -3.113786E+00 -9.319507E+00 -3.113786E+00 +9.667864E+02 
 +3.709182E+02 +5.520004E+00 +3.878890E-01 +5.520004E+00 +3.508190E+02 -9.445854E+00 +3.878890E-01 -9.445854E+00 +9.724011E+02 
 +3.607441E+02 +7.932439E+00 -3.459717E-01 +7.932439E+00 +3.506226E+02 -1.345904E+01 -3.459717E-01 -1.345904E+01 +9.626808E+02 
 +3.593363E+02 +3.791287E+00 +4.290906E+00 +3.791287E+00 +3.559122E+02 -1.163891E+01 +4.290906E+00 -1.163891E+01 +9.489014E+02 
 +3.488440E+02 -3.762131E+00 +6.502556E+00 -3.762131E+00 +3.565681E+02 -1.073174E+01 +6.502556E+00 -1.073174E+01 +9.409511E+02 
 +3.451678E+02 -1.606278E+01 +1.802669E+01 -1.606278E+01 +3.619782E+02 -5.688498E+00 +1.802669E+01 -5.688498E+00 +9.323217E+02 
 +3.831432E+02 -2.145363E+01 +1.156103E+00 -2.145363E+01 +3.905437E+02 +2.928075E+00 +1.156103E+00 +2.928075E+00 +9.265875E+02 
 +3.868559E+02 -1.776303E+01 -1.064032E+00 -1.776303E+01 +3.886909E+02 +7.255679E+00 -1.064032E+00 +7.255679E+00 +9.086147E+02 
 +3.826515E+02 -1.432471E+01 +4.143523E+00 -1.432471E+01 +3.866896E+02 +1.114536E+01 +4.143523E+00 +1.114536E+01 +9.147944E+02 
 +3.445448E+02 -2.712704E+00 +8.499491E+00 -2.712704E+00 +3.631045E+02 -2.184024E+00 +8.499491E+00 -2.184024E+00 +9.065407E+02 
 +3.458958E+02 -6.504529E+00 +3.429426E+00 -6.504529E+00 +3.527460E+02 -1.028073E+01 +3.429426E+00 -1.028073E+01 +9.049940E+02 
 +3.533780E+02 +7.585113E+00 +1.238204E+01 +7.585113E+00 +3.529024E+02 -4.896637E+00 +1.238204E+01 -4.896637E+00 +9.022944E+02 
 +3.448835E+02 +1.164261E+01 +8.297915E+00 +1.164261E+01 +3.490172E+02 +6.136225E+00 +8.297915E+00 +6.136225E+00 +8.979695E+02 
 +3.276001E+02 +1.161656E+01 +3.901954E+00 +1.161656E+01 +3.474156E+02 +5.323246E+00 +3.901954E+00 +5.323246E+00 +9.006854E+02 
 +3.453323E+02 +7.815949E+00 +1.552774E+00 +7.815949E+00 +3.700335E+02 -5.385682E+00 +1.552774E+00 -5.385682E+00 +9.235806E+02 
 +3.836583E+02 +1.983064E+00 +1.406007E+01 +1.983064E+00 +3.954717E+02 -1.169032E+01 +1.406007E+01 -1.169032E+01 +9.472700E+02 
 +3.779188E+02 +1.795165E+00 +1.651500E+01 +1.795165E+00 +3.890486E+02 -4.680573E+00 +1.651500E+01 -4.680573E+00 +9.449989E+02 
 +3.708075E+02 +3.555826E+00 +1.356208E+01 +3.555826E+00 +3.835649E+02 -2.405586E+00 +1.356208E+01 -2.405586E+00 +9.376144E+02 
 +3.657838E+02 +2.738524E+00 +2.523628E+00 +2.738524E+00 +3.775070E+02 -1.013672E+01 +2.523628E+00 -1.013672E+01 +9.361012E+02 
 +3.612545E+02 -3.825135E+00 -6.719571E+00 -3.825135E+00 +3.728598E+02 -9.951799E+00 -6.719571E+00 -9.951799E+00 +9.404991E+02 
 +3.543088E+02 -4.294778E+00 -1.401707E+01 -4.294778E+00 +3.619195E+02 -9.874053E-01 -1.401707E+01 -9.874053E-01 +9.505670E+02 
 +3.771102E+02 +4.524949E-01 -8.877140E+00 +4.524949E-01 +3.600338E+02 +1.239613E+00 -8.877140E+00 +1.239613E+00 +9.616526E+02 
 +3.735087E+02 +5.683820E+00 -7.380135E+00 +5.683820E+00 +3.488628E+02 -2.165940E+00 -7.380135E+00 -2.165940E+00 +9.591294E+02 
 +3.628208E+02 +1.129416E+01 -2.895159E+00 +1.129416E+01 +3.453684E+02 -6.386409E+00 -2.895159E+00 -6.386409E+00 +9.455433E+02 
 +3.601280E+02 +1.058537E+01 +9.332862E+00 +1.058537E+01 +3.585436E+02 -8.332086E+00 +9.332862E+00 -8.332086E+00 +9.421020E+02 
 +3.512529E+02 +1.858223E+00 +1.110366E+01 +1.858223E+00 +3.751381E+02 -7.688337E+00 +1.110366E+01 -7.688337E+00 +9.533835E+02 
 +3.306423E+02 -1.208693E+01 +1.952668E+01 -1.208693E+01 +3.713135E+02 -6.468676E+00 +1.952668E+01 -6.468676E+00 +9.430801E+02 
 +4.077884E+02 -2.358415E+01 +6.432212E+00 -2.358415E+01 +3.994153E+02 +4.598556E-01 +6.432212E+00 +4.598556E-01 +9.370242E+02 
 +4.027657E+02 -2.358556E+01 +1.487254E+00 -2.358556E+01 +3.870090E+02 +3.183971E+00 +1.487254E+00 +3.183971E+00 +9.158691E+02 
 +3.601461E+02 -1.246395E+01 +1.177172E+01 -1.246395E+01 +3.754718E+02 -4.112220E+00 +1.177172E+01 -4.112220E+00 +9.046084E+02 
 +3.669635E+02 -2.992728E+00 +1.179224E+01 -2.992728E+00 +3.754128E+02 -2.600317E+00 +1.179224E+01 -2.600317E+00 +9.029664E+02 
 +3.522886E+02 +1.069864E+01 +4.937035E+00 +1.069864E+01 +3.605658E+02 -1.336791E+00 +4.937035E+00 -1.336791E+00 +8.981895E+02 
 +3.579813E+02 +2.202413E+01 +1.668304E+01 +2.202413E+01 +3.598529E+02 +2.674334E+00 +1.668304E+01 +2.674334E+00 +9.015628E+02 
 +3.411992E+02 +1.944050E+01 +1.615384E+01 +1.944050E+01 +3.395625E+02 +3.451790E+00 +1.615384E+01 +3.451790E+00 +8.952000E+02 
 +3.290069E+02 +2.280799E+01 -5.753364E+00 +2.280799E+01 +3.457820E+02 +2.453980E+00 -5.753364E+00 +2.453980E+00 +9.181588E+02 
 +3.420676E+02 +2.681026E+01 -9.495757E+00 +2.681026E+01 +3.685819E+02 -8.572125E-01 -9.495757E+00 -8.572125E-01 +9.398110E+02 
 +3.740212E+02 +1.650152E+01 +9.730860E+00 +1.650152E+01 +3.877719E+02 -1.952510E+00 +9.730860E+00 -1.952510E+00 +9.484174E+02 
 +3.730458E+02 +6.940661E+00 +1.493358E+01 +6.940661E+00 +3.869482E+02 -4.690313E+00 +1.493358E+01 -4.690313E+00 +9.535381E+02 
 +3.709419E+02 +3.849079E+00 +1.105708E+01 +3.849079E+00 +3.820144E+02 -7.830321E+00 +1.105708E+01 -7.830321E+00 +9.533773E+02 
 +3.643614E+02 +5.994098E-01 +2.648776E+00 +5.994098E-01 +3.727153E+02 -9.873506E+00 +2.648776E+00 -9.873506E+00 +9.499286E+02 
 +3.602229E+02 -3.435450E+00 -6.423461E+00 -3.435450E+00 +3.705310E+02 -6.794687E+00 -6.423461E+00 -6.794687E+00 +9.540687E+02 
 +3.624284E+02 -5.124785E+00 -7.710674E+00 -5.124785E+00 +3.682461E+02 -4.219589E+00 -7.710674E+00 -4.219589E+00 +9.586118E+02 
 +3.687828E+02 -4.543517E+00 -5.454681E+00 -4.543517E+00 +3.641283E+02 -4.459131E+00 -5.454681E+00 -4.459131E+00 +9.627618E+02 
 +3.796423E+02 +2.726482E+00 +2.583503E+00 +2.726482E+00 +3.610961E+02 +3.251753E+00 +2.583503E+00 +3.251753E+00 +9.609479E+02 
 +3.739704E+02 +9.009997E+00 -5.025941E+00 +9.009997E+00 +3.696919E+02 +9.870519E+00 -5.025941E+00 +9.870519E+00 +9.473672E+02 
 +3.825204E+02 +2.868108E+00 +9.064785E+00 +2.868108E+00 +3.943469E+02 +5.018761E+00 +9.064785E+00 +5.018761E+00 +9.547622E+02 
 +3.725580E+02 -2.175950E+00 +9.764592E+00 -2.175950E+00 +4.020990E+02 +1.775603E+00 +9.764592E+00 +1.775603E+00 +9.762630E+02 
 +3.527483E+02 -6.107317E+00 +1.147909E+01 -6.107317E+00 +3.925632E+02 -6.475766E+00 +1.147909E+01 -6.475766E+00 +9.622642E+02 
 +4.146435E+02 -1.460127E+01 +1.130403E+01 -1.460127E+01 +4.095250E+02 -1.487505E+01 +1.130403E+01 -1.487505E+01 +9.331444E+02 
 +4.025360E+02 -1.398749E+01 +4.051577E+00 -1.398749E+01 +4.003070E+02 -1.439313E+01 +4.051577E+00 -1.439313E+01 +8.999906E+02 
 +3.715951E+02 -5.210178E+00 +1.229080E+01 -5.210178E+00 +3.864710E+02 -1.072535E+01 +1.229080E+01 -1.072535E+01 +8.830687E+02 
 +3.770618E+02 -3.526351E+00 +1.620213E+01 -3.526351E+00 +3.848298E+02 -8.979667E+00 +1.620213E+01 -8.979667E+00 +8.808904E+02 
 +3.706886E+02 +2.662841E+00 +7.139796E+00 +2.662841E+00 +3.760917E+02 -1.587056E+00 +7.139796E+00 -1.587056E+00 +8.923597E+02 
 +3.515589E+02 +1.045213E+01 +1.494961E+00 +1.045213E+01 +3.620182E+02 -1.946648E+00 +1.494961E+00 -1.946648E+00 +9.118732E+02 
 +3.291070E+02 +8.459210E+00 +8.462945E+00 +8.459210E+00 +3.488949E+02 -1.038530E+01 +8.462945E+00 -1.038530E+01 +9.128499E+02 
 +3.468191E+02 +1.415488E+01 -1.562333E+01 +1.415488E+01 +3.543902E+02 -7.498835E+00 -1.562333E+01 -7.498835E+00 +9.272301E+02 
 +3.494550E+02 +1.880782E+01 -1.814454E+01 +1.880782E+01 +3.601783E+02 -5.311070E+00 -1.814454E+01 -5.311070E+00 +9.415643E+02 
 +3.521166E+02 +1.086807E+01 +5.030897E+00 +1.086807E+01 +3.732310E+02 -7.681589E+00 +5.030897E+00 -7.681589E+00 +9.491229E+02 
 +3.668686E+02 +5.424671E+00 +1.455352E+01 +5.424671E+00 +3.862301E+02 -5.937661E+00 +1.455352E+01 -5.937661E+00 +9.605113E+02 
 +3.691294E+02 +4.312326E+00 +1.093137E+01 +4.312326E+00 +3.842060E+02 -7.247852E+00 +1.093137E+01 -7.247852E+00 +9.632692E+02 
 +3.662611E+02 +1.389507E+00 +6.112495E+00 +1.389507E+00 +3.789528E+02 -6.399701E+00 +6.112495E+00 -6.399701E+00 +9.638807E+02 
 +3.621022E+02 -1.841910E+00 -1.583799E+00 -1.841910E+00 +3.724035E+02 -5.644126E+00 -1.583799E+00 -5.644126E+00 +9.636459E+02 
 +3.617373E+02 -6.208796E+00 -3.511247E+00 -6.208796E+00 +3.686869E+02 -1.226875E+01 -3.511247E+00 -1.226875E+01 +9.603161E+02 
 +3.661429E+02 -5.784694E+00 -1.150065E-01 -5.784694E+00 +3.682717E+02 -1.436647E+01 -1.150065E-01 -1.436647E+01 +9.531584E+02 
 +3.715663E+02 +4.718487E+00 +1.388896E+01 +4.718487E+00 +3.587738E+02 -8.720371E+00 +1.388896E+01 -8.720371E+00 +9.494560E+02 
 +3.598080E+02 +2.565554E+01 -2.027881E+00 +2.565554E+01 +3.426418E+02 +3.245902E-01 -2.027881E+00 +3.245902E-01 +9.422763E+02 
 +3.622851E+02 +1.994159E+01 +2.385854E+00 +1.994159E+01 +3.392754E+02 -3.122235E-01 +2.385854E+00 -3.122235E-01 +9.464560E+02 
 +3.505134E+02 +1.837361E+01 +6.977005E+00 +1.837361E+01 +3.261667E+02 -3.323895E+00 +6.977005E+00 -3.323895E+00 +9.575646E+02 
 +3.500690E+02 +1.543168E+01 +8.490216E+00 +1.543168E+01 +3.375196E+02 -5.097676E+00 +8.490216E+00 -5.097676E+00 +9.508186E+02 
 +3.836776E+02 -4.649956E-01 +5.820777E+00 -4.649956E-01 +3.847059E+02 -1.150455E+01 +5.820777E+00 -1.150455E+01 +9.195908E+02 
 +3.926019E+02 -3.332538E+00 +4.383493E+00 -3.332538E+00 +4.076837E+02 -1.641599E+01 +4.383493E+00 -1.641599E+01 +8.984112E+02 
 +3.925080E+02 -3.284172E+00 +9.803901E+00 -3.284172E+00 +4.073324E+02 -1.215660E+01 +9.803901E+00 -1.215660E+01 +8.901343E+02 
 +3.771491E+02 -4.086546E+00 +1.098481E+01 -4.086546E+00 +3.936593E+02 -8.406044E+00 +1.098481E+01 -8.406044E+00 +8.830517E+02 
 +3.710133E+02 -2.441967E+00 +4.314355E+00 -2.441967E+00 +3.820159E+02 -9.043153E-01 +4.314355E+00 -9.043153E-01 +9.011317E+02 
 +3.388341E+02 +4.770689E+00 -1.490927E+01 +4.770689E+00 +3.580011E+02 +2.382166E+00 -1.490927E+01 +2.382166E+00 +9.178338E+02 
 +3.231490E+02 +7.375790E+00 -6.177124E+00 +7.375790E+00 +3.431661E+02 -8.630922E+00 -6.177124E+00 -8.630922E+00 +9.197456E+02 
 +3.477966E+02 +1.658400E+01 -1.419323E+01 +1.658400E+01 +3.533792E+02 -1.046315E+01 -1.419323E+01 -1.046315E+01 +9.264051E+02 
 +3.595770E+02 +2.000783E+01 -1.796784E+01 +2.000783E+01 +3.647703E+02 -3.274418E+00 -1.796784E+01 -3.274418E+00 +9.421456E+02 
 +3.463063E+02 +1.194139E+01 +2.768462E+00 +1.194139E+01 +3.668622E+02 -8.448537E+00 +2.768462E+00 -8.448537E+00 +9.528456E+02 
 +3.672285E+02 +3.584763E+00 +1.393277E+01 +3.584763E+00 +3.844103E+02 -8.703234E+00 +1.393277E+01 -8.703234E+00 +9.638946E+02 
 +3.717964E+02 +2.778616E+00 +1.435539E+01 +2.778616E+00 +3.876186E+02 -8.709335E+00 +1.435539E+01 -8.709335E+00 +9.671666E+02 
 +3.641587E+02 +8.862335E-01 +1.001283E+01 +8.862335E-01 +3.820624E+02 -9.991036E+00 +1.001283E+01 -9.991036E+00 +9.731608E+02 
 +3.654660E+02 -3.576846E+00 +3.611751E+00 -3.576846E+00 +3.773719E+02 -1.057058E+01 +3.611751E+00 -1.057058E+01 +9.748855E+02 
 +3.665746E+02 -2.061609E+00 -1.716958E+00 -2.061609E+00 +3.678487E+02 -1.688016E+01 -1.716958E+00 -1.688016E+01 +9.579733E+02 
 +3.935649E+02 +6.907170E+00 +1.685652E+00 +6.907170E+00 +3.959663E+02 -1.129701E+01 +1.685652E+00 -1.129701E+01 +9.449436E+02 
 +3.848487E+02 +9.191521E+00 +6.359266E+00 +9.191521E+00 +3.927928E+02 -7.968960E+00 +6.359266E+00 -7.968960E+00 +9.403534E+02 
 +3.721115E+02 +2.806121E+01 -3.091328E+00 +2.806121E+01 +3.580908E+02 +3.062687E-01 -3.091328E+00 +3.062687E-01 +9.475814E+02 
 +3.694252E+02 +1.949010E+01 +2.011076E+00 +1.949010E+01 +3.386269E+02 +2.902760E+00 +2.011076E+00 +2.902760E+00 +9.545337E+02 
 +3.697530E+02 +1.450754E+01 +5.781980E+00 +1.450754E+01 +3.466546E+02 +1.522125E+00 +5.781980E+00 +1.522125E+00 +9.683614E+02 
 +3.729669E+02 +1.220299E+01 +7.999878E+00 +1.220299E+01 +3.664887E+02 +1.067277E+00 +7.999878E+00 +1.067277E+00 +9.730304E+02 
 +3.839965E+02 +3.624843E+00 +1.739795E+00 +3.624843E+00 +3.946337E+02 -3.677243E+00 +1.739795E+00 -3.677243E+00 +9.386091E+02 
 +3.945709E+02 -3.395853E+00 +1.214734E+00 -3.395853E+00 +4.128747E+02 -9.420181E+00 +1.214734E+00 -9.420181E+00 +9.062058E+02 
 +3.921055E+02 -1.669846E+00 +6.983960E+00 -1.669846E+00 +4.072803E+02 -6.472736E+00 +6.983960E+00 -6.472736E+00 +8.937312E+02 
 +3.851201E+02 -7.957166E-01 +4.398529E+00 -7.957166E-01 +4.044178E+02 -1.827674E+00 +4.398529E+00 -1.827674E+00 +8.946352E+02 
 +3.594353E+02 -5.763866E+00 +1.795724E-01 -5.763866E+00 +3.903783E+02 +5.850657E+00 +1.795724E-01 +5.850657E+00 +9.052943E+02 
 +3.297442E+02 +1.748728E+00 -1.987472E+01 +1.748728E+00 +3.589578E+02 +6.654760E+00 -1.987472E+01 +6.654760E+00 +9.216701E+02 
 +3.246144E+02 +5.273458E+00 -1.850888E+01 +5.273458E+00 +3.414781E+02 -2.775078E+00 -1.850888E+01 -2.775078E+00 +9.268350E+02 
 +3.395966E+02 +1.221371E+01 -1.165548E+01 +1.221371E+01 +3.414916E+02 -8.384214E+00 -1.165548E+01 -8.384214E+00 +9.339468E+02 
 +3.520128E+02 +1.900816E+01 -8.020418E+00 +1.900816E+01 +3.506857E+02 -6.611432E+00 -8.020418E+00 -6.611432E+00 +9.528439E+02 
 +3.577393E+02 +1.255102E+01 +7.641065E+00 +1.255102E+01 +3.657682E+02 -1.160214E+01 +7.641065E+00 -1.160214E+01 +9.685071E+02 
 +3.615173E+02 +5.975350E+00 +1.968766E+01 +5.975350E+00 +3.741625E+02 -1.103774E+01 +1.968766E+01 -1.103774E+01 +9.681574E+02 
 +3.667738E+02 -1.274904E-01 +2.112559E+01 -1.274904E-01 +3.795053E+02 -1.335359E+01 +2.112559E+01 -1.335359E+01 +9.769014E+02 
 +3.716807E+02 -1.541838E+00 +1.732698E+01 -1.541838E+00 +3.858642E+02 -1.938514E+01 +1.732698E+01 -1.938514E+01 +9.965073E+02 
 +3.625232E+02 -7.473731E+00 +7.235888E+00 -7.473731E+00 +3.736375E+02 -2.052208E+01 +7.235888E+00 -2.052208E+01 +9.863792E+02 
 +3.868492E+02 +9.094404E+00 -3.885550E+00 +9.094404E+00 +3.860451E+02 -1.929316E+01 -3.885550E+00 -1.929316E+01 +9.500412E+02 
 +4.031559E+02 +1.409832E+01 +1.696183E-01 +1.409832E+01 +4.042134E+02 -7.057286E+00 +1.696183E-01 -7.057286E+00 +9.286293E+02 
 +4.107362E+02 +7.089936E+00 +4.818008E+00 +7.089936E+00 +4.215324E+02 -1.250119E+00 +4.818008E+00 -1.250119E+00 +9.418480E+02 
 +3.694616E+02 +1.401353E+01 -4.449963E+00 +1.401353E+01 +3.781763E+02 +7.029445E+00 -4.449963E+00 +7.029445E+00 +9.466980E+02 
 +3.689827E+02 +1.838429E+01 +5.319221E+00 +1.838429E+01 +3.521872E+02 +1.117247E+01 +5.319221E+00 +1.117247E+01 +9.553875E+02 
 +3.720654E+02 +1.363089E+01 +2.512200E+00 +1.363089E+01 +3.493481E+02 +6.504667E+00 +2.512200E+00 +6.504667E+00 +9.602114E+02 
 +3.629178E+02 +2.141570E+01 +4.176013E+00 +2.141570E+01 +3.369705E+02 +1.157288E+00 +4.176013E+00 +1.157288E+00 +9.654646E+02 
 +3.669535E+02 +2.119289E+01 +3.332851E+00 +2.119289E+01 +3.487957E+02 -3.758152E+00 +3.332851E+00 -3.758152E+00 +9.531212E+02 
 +4.037666E+02 +1.025139E+01 +2.230450E-01 +1.025139E+01 +3.965426E+02 -5.842817E+00 +2.230450E-01 -5.842817E+00 +9.339604E+02 
 +4.028908E+02 +4.400320E+00 -8.968194E-02 +4.400320E+00 +4.087283E+02 -9.142895E-01 -8.968194E-02 -9.142895E-01 +9.256271E+02 
 +3.780673E+02 +9.279831E+00 -1.052939E+00 +9.279831E+00 +3.976994E+02 +4.440671E+00 -1.052939E+00 +4.440671E+00 +9.222729E+02 
 +3.482953E+02 -1.633231E+00 -1.266628E+00 -1.633231E+00 +3.910905E+02 +3.945870E+00 -1.266628E+00 +3.945870E+00 +9.170219E+02 
 +3.336582E+02 -2.455325E-01 -1.341553E+01 -2.455325E-01 +3.722140E+02 +2.783886E+00 -1.341553E+01 +2.783886E+00 +9.307674E+02 
 +3.052866E+02 +8.250618E+00 -1.847651E+01 +8.250618E+00 +3.337715E+02 -5.494966E+00 -1.847651E+01 -5.494966E+00 +9.309113E+02 
 +3.223853E+02 +8.230029E+00 -6.348686E+00 +8.230029E+00 +3.288953E+02 -8.897052E+00 -6.348686E+00 -8.897052E+00 +9.465710E+02 
 +3.480665E+02 +1.738600E+01 +4.985550E+00 +1.738600E+01 +3.332428E+02 -5.913124E+00 +4.985550E+00 -5.913124E+00 +9.764219E+02 
 +3.605567E+02 +1.529659E+01 +1.232589E+01 +1.529659E+01 +3.472528E+02 -9.308462E+00 +1.232589E+01 -9.308462E+00 +9.930005E+02 
 +3.552829E+02 +2.624997E+00 +2.246203E+01 +2.624997E+00 +3.596895E+02 -1.328226E+01 +2.246203E+01 -1.328226E+01 +9.813029E+02 
 +3.607536E+02 -4.397344E+00 +2.430875E+01 -4.397344E+00 +3.603532E+02 -1.521461E+01 +2.430875E+01 -1.521461E+01 +9.778446E+02 
 +3.630044E+02 +2.044431E+00 +2.023595E+01 +2.044431E+00 +3.545809E+02 -1.878241E+01 +2.023595E+01 -1.878241E+01 +9.873650E+02 
 +3.533777E+02 -1.185437E+00 +5.261073E+00 -1.185437E+00 +3.565460E+02 -2.436984E+01 +5.261073E+00 -2.436984E+01 +9.733758E+02 
 +3.676600E+02 +1.383948E+01 -1.385812E+00 +1.383948E+01 +3.643153E+02 -1.396204E+01 -1.385812E+00 -1.396204E+01 +9.431217E+02 
 +3.917435E+02 +6.373369E+00 +1.558310E-01 +6.373369E+00 +3.918855E+02 -4.398849E+00 +1.558310E-01 -4.398849E+00 +9.348851E+02 
 +4.246441E+02 -2.044894E+00 +8.646513E+00 -2.044894E+00 +4.301149E+02 -1.422186E+00 +8.646513E+00 -1.422186E+00 +9.607782E+02 
 +3.870963E+02 -1.821997E+01 -6.916357E+00 -1.821997E+01 +4.147466E+02 +4.957410E+00 -6.916357E+00 +4.957410E+00 +9.646762E+02 
 +3.992401E+02 +8.357715E+00 +5.412664E+00 +8.357715E+00 +3.944053E+02 +1.777892E+01 +5.412664E+00 +1.777892E+01 +9.706103E+02 
 +3.934370E+02 +8.281984E+00 +8.260592E+00 +8.281984E+00 +3.649138E+02 +1.212720E+01 +8.260592E+00 +1.212720E+01 +9.615843E+02 
 +3.762920E+02 +1.985761E+01 +6.470535E+00 +1.985761E+01 +3.382797E+02 -4.466360E-02 +6.470535E+00 -4.466360E-02 +9.600695E+02 
 +3.734621E+02 +3.269249E+01 +5.029955E+00 +3.269249E+01 +3.320179E+02 -2.996549E+00 +5.029955E+00 -2.996549E+00 +9.642060E+02 
 +3.738957E+02 +2.291705E+01 +1.204329E+00 +2.291705E+01 +3.353056E+02 -9.069932E+00 +1.204329E+00 -9.069932E+00 +9.570544E+02 
 +3.521163E+02 -4.632600E+00 -8.023659E-01 -4.632600E+00 +3.450726E+02 -8.270498E+00 -8.023659E-01 -8.270498E+00 +9.510229E+02 
 +3.537474E+02 -1.053728E+01 +2.954704E-01 -1.053728E+01 +3.639159E+02 -4.410961E+00 +2.954704E-01 -4.410961E+00 +9.558306E+02 
 +3.276708E+02 -2.169026E+01 -4.626020E-01 -2.169026E+01 +3.450422E+02 -5.894536E+00 -4.626020E-01 -5.894536E+00 +9.392438E+02 
 +3.226883E+02 -2.035314E+01 -3.903757E+00 -2.035314E+01 +3.491182E+02 -3.590099E+00 -3.903757E+00 -3.590099E+00 +9.446941E+02 
 +3.196335E+02 -5.271145E+00 -1.025682E+01 -5.271145E+00 +3.643318E+02 -1.325310E+00 -1.025682E+01 -1.325310E+00 +9.612687E+02 
 +3.243741E+02 -4.031582E+00 -1.846515E+00 -4.031582E+00 +3.551754E+02 -2.255909E+00 -1.846515E+00 -2.255909E+00 +9.709168E+02 
 +3.490389E+02 +6.915874E+00 +5.962029E+00 +6.915874E+00 +3.388134E+02 -6.943107E+00 +5.962029E+00 -6.943107E+00 +9.900977E+02 
 +3.533368E+02 +1.311644E+01 +1.112185E+01 +1.311644E+01 +3.287695E+02 -8.707588E+00 +1.112185E+01 -8.707588E+00 +9.963666E+02 
 +3.512167E+02 +5.308235E+00 +1.063153E+01 +5.308235E+00 +3.221248E+02 -1.370197E+00 +1.063153E+01 -1.370197E+00 +9.821122E+02 
 +3.576682E+02 +1.699966E+00 +1.291300E+01 +1.699966E+00 +3.303669E+02 -6.091882E+00 +1.291300E+01 -6.091882E+00 +9.691030E+02 
 +3.580357E+02 +4.611259E+00 +1.864086E+01 +4.611259E+00 +3.383955E+02 -1.271605E+01 +1.864086E+01 -1.271605E+01 +9.642440E+02 
 +3.453462E+02 +6.688064E+00 +6.701633E-02 +6.688064E+00 +3.332936E+02 -1.359843E+01 +6.701633E-02 -1.359843E+01 +9.549705E+02 
 +3.703957E+02 +1.608688E+01 +7.318985E+00 +1.608688E+01 +3.564185E+02 +5.482086E+00 +7.318985E+00 +5.482086E+00 +9.835892E+02 
 +3.752085E+02 +1.609674E+01 +7.807994E+00 +1.609674E+01 +3.542650E+02 +1.485926E+01 +7.807994E+00 +1.485926E+01 +9.771750E+02 
 +3.845866E+02 +1.322388E+01 +1.333064E+01 +1.322388E+01 +3.709252E+02 +1.330933E+01 +1.333064E+01 +1.330933E+01 +9.733285E+02 
 +3.867528E+02 -1.261722E+01 +7.259603E-02 -1.261722E+01 +3.888996E+02 +4.243449E+00 +7.259603E-02 +4.243449E+00 +9.657614E+02 
 +4.397659E+02 +8.912030E+00 +1.821593E+00 +8.912030E+00 +4.212525E+02 +1.389998E+01 +1.821593E+00 +1.389998E+01 +9.812242E+02 
 +4.163603E+02 +5.483354E+00 +1.741305E+00 +5.483354E+00 +3.900530E+02 +1.203592E+01 +1.741305E+00 +1.203592E+01 +9.681826E+02 
 +3.753855E+02 +1.261183E+01 -3.217302E+00 +1.261183E+01 +3.509548E+02 -1.148260E-01 -3.217302E+00 -1.148260E-01 +9.532086E+02 
 +3.712505E+02 +1.208832E+01 -6.466203E+00 +1.208832E+01 +3.495227E+02 -3.876464E+00 -6.466203E+00 -3.876464E+00 +9.589031E+02 
 +3.442596E+02 -1.336142E+01 -1.287314E+00 -1.336142E+01 +3.398354E+02 -8.929752E+00 -1.287314E+00 -8.929752E+00 +9.563905E+02 
 +3.358149E+02 -2.189032E+01 +2.816788E+00 -2.189032E+01 +3.397224E+02 -1.134726E+01 +2.816788E+00 -1.134726E+01 +9.567267E+02 
 +3.471234E+02 -1.885732E+01 +4.831380E+00 -1.885732E+01 +3.516215E+02 -6.396510E+00 +4.831380E+00 -6.396510E+00 +9.617010E+02 
 +3.520669E+02 -2.239018E+01 +3.662034E+00 -2.239018E+01 +3.594842E+02 -1.590591E+00 +3.662034E+00 -1.590591E+00 +9.670277E+02 
 +3.377335E+02 -1.068098E+01 -1.355467E+00 -1.068098E+01 +3.721893E+02 +2.949193E+00 -1.355467E+00 +2.949193E+00 +9.682422E+02 
 +3.358288E+02 -3.075547E+00 -2.407967E+00 -3.075547E+00 +3.860075E+02 +5.392507E+00 -2.407967E+00 +5.392507E+00 +9.733999E+02 
 +3.375513E+02 -1.094014E+01 +9.535761E-01 -1.094014E+01 +3.874476E+02 -5.368416E-01 +9.535761E-01 -5.368416E-01 +9.775826E+02 
 +3.430403E+02 -6.783722E+00 +4.161632E+00 -6.783722E+00 +3.675750E+02 -4.748687E+00 +4.161632E+00 -4.748687E+00 +9.803451E+02 
 +3.689048E+02 +7.618980E+00 +1.056119E+01 +7.618980E+00 +3.370136E+02 -8.053370E+00 +1.056119E+01 -8.053370E+00 +9.826884E+02 
 +3.634994E+02 +4.085493E+00 -2.066796E+00 +4.085493E+00 +3.134108E+02 -7.431819E+00 -2.066796E+00 -7.431819E+00 +9.746643E+02 
 +3.621682E+02 +4.249076E+00 -2.378090E+00 +4.249076E+00 +3.231961E+02 -7.848334E+00 -2.378090E+00 -7.848334E+00 +9.738821E+02 
 +3.649699E+02 +2.676660E-01 +1.601858E+01 +2.676660E-01 +3.418782E+02 -8.342344E+00 +1.601858E+01 -8.342344E+00 +9.705860E+02 
 +3.641918E+02 +2.190715E+00 -3.197917E-01 +2.190715E+00 +3.561721E+02 -2.803631E+00 -3.197917E-01 -2.803631E+00 +9.773740E+02 
 +3.760131E+02 +1.465490E+01 +1.244261E+01 +1.465490E+01 +3.545465E+02 +4.917338E+00 +1.244261E+01 +4.917338E+00 +9.995629E+02 
 +3.754675E+02 +1.887992E+01 +1.509506E+01 +1.887992E+01 +3.530083E+02 +1.396171E+01 +1.509506E+01 +1.396171E+01 +9.930110E+02 
 +3.757777E+02 +1.952001E+01 +1.222193E+01 +1.952001E+01 +3.497567E+02 +1.219676E+01 +1.222193E+01 +1.219676E+01 +9.753081E+02 
 +4.023384E+02 +1.435556E+01 +4.827979E+00 +1.435556E+01 +3.869183E+02 +3.483394E+00 +4.827979E+00 +3.483394E+00 +9.701562E+02 
 +4.290697E+02 +5.902033E+00 -3.393463E+00 +5.902033E+00 +4.293594E+02 +1.339740E+01 -3.393463E+00 +1.339740E+01 +9.753002E+02 
 +3.982397E+02 -2.072136E+01 -1.202708E+01 -2.072136E+01 +4.088150E+02 +1.982253E+01 -1.202708E+01 +1.982253E+01 +9.676344E+02 
 +3.776949E+02 -2.202901E+01 -1.127092E+01 -2.202901E+01 +3.990878E+02 +1.499701E+00 -1.127092E+01 +1.499701E+00 +9.676993E+02 
 +3.517944E+02 -1.741550E+01 -8.246976E+00 -1.741550E+01 +3.682145E+02 -7.307035E+00 -8.246976E+00 -7.307035E+00 +9.551776E+02 
 +3.429407E+02 -2.160378E+01 -2.809553E+00 -2.160378E+01 +3.450270E+02 -7.596568E+00 -2.809553E+00 -7.596568E+00 +9.491165E+02 
 +3.512682E+02 -2.111046E+01 +2.337654E+00 -2.111046E+01 +3.491576E+02 -4.805053E+00 +2.337654E+00 -4.805053E+00 +9.557360E+02 
 +3.552287E+02 -2.426626E+01 +6.612437E+00 -2.426626E+01 +3.514309E+02 -2.052172E+00 +6.612437E+00 -2.052172E+00 +9.581893E+02 
 +3.692525E+02 -2.765927E+01 +8.779507E+00 -2.765927E+01 +3.657224E+02 -3.920744E+00 +8.779507E+00 -3.920744E+00 +9.718890E+02 
 +3.427169E+02 -1.031262E+01 +5.625579E+00 -1.031262E+01 +3.704292E+02 -4.987844E+00 +5.625579E+00 -4.987844E+00 +9.716284E+02 
 +3.430733E+02 -7.064745E+00 +7.708751E+00 -7.064745E+00 +3.862375E+02 -4.204513E+00 +7.708751E+00 -4.204513E+00 +9.719705E+02 
 +3.410572E+02 -9.125200E+00 +9.491346E+00 -9.125200E+00 +3.876578E+02 -8.066556E+00 +9.491346E+00 -8.066556E+00 +9.717921E+02 
 +3.297169E+02 -1.194626E+01 +9.224398E+00 -1.194626E+01 +3.667385E+02 -1.139668E+01 +9.224398E+00 -1.139668E+01 +9.624149E+02 
 +3.821080E+02 -1.195591E+00 +2.552424E+00 -1.195591E+00 +3.539222E+02 -1.074942E+01 +2.552424E+00 -1.074942E+01 +9.662115E+02 
 +3.763426E+02 +7.790986E+00 -6.184078E+00 +7.790986E+00 +3.264098E+02 -7.483221E+00 -6.184078E+00 -7.483221E+00 +9.593273E+02 
 +3.669940E+02 +1.139934E+01 -2.410038E+00 +1.139934E+01 +3.260156E+02 -5.717372E+00 -2.410038E+00 -5.717372E+00 +9.670951E+02 
 +3.689584E+02 +1.038768E+01 +7.912704E+00 +1.038768E+01 +3.348407E+02 -1.466634E+01 +7.912704E+00 -1.466634E+01 +9.737634E+02 
 +3.663832E+02 +1.459286E+01 +5.936736E+00 +1.459286E+01 +3.469765E+02 -1.416826E+01 +5.936736E+00 -1.416826E+01 +9.841978E+02 
 +3.629825E+02 +9.498801E+00 +1.330537E+01 +9.498801E+00 +3.453290E+02 -1.779890E+00 +1.330537E+01 -1.779890E+00 +9.845667E+02 
 +3.725740E+02 +1.581379E+01 +1.292553E+01 +1.581379E+01 +3.531566E+02 +3.980523E+00 +1.292553E+01 +3.980523E+00 +9.823090E+02 
 +3.849943E+02 +1.071053E+01 +2.743497E+00 +1.071053E+01 +3.594115E+02 +1.514394E+00 +2.743497E+00 +1.514394E+00 +9.760385E+02 
 +3.932072E+02 +7.650858E+00 -4.620915E+00 +7.650858E+00 +3.832774E+02 +1.667200E+00 -4.620915E+00 +1.667200E+00 +9.709781E+02 
 +3.765244E+02 -1.830722E+01 -8.915262E+00 -1.830722E+01 +3.848843E+02 +1.745861E+01 -8.915262E+00 +1.745861E+01 +9.565612E+02 
 +3.572316E+02 -2.218332E+01 -8.571376E+00 -2.218332E+01 +3.812797E+02 +2.388916E+01 -8.571376E+00 +2.388916E+01 +9.547131E+02 
 +3.548090E+02 -1.279960E+01 -6.037278E+00 -1.279960E+01 +3.869086E+02 +6.954539E+00 -6.037278E+00 +6.954539E+00 +9.634115E+02 
 +3.484273E+02 -1.385653E+01 +1.929742E+00 -1.385653E+01 +3.710646E+02 -5.087096E+00 +1.929742E+00 -5.087096E+00 +9.595885E+02 
 +3.521119E+02 -2.118192E+01 +3.486343E+00 -2.118192E+01 +3.544651E+02 -8.361373E+00 +3.486343E+00 -8.361373E+00 +9.563842E+02 
 +3.582657E+02 -2.382959E+01 +5.854757E+00 -2.382959E+01 +3.527990E+02 -8.105882E+00 +5.854757E+00 -8.105882E+00 +9.627077E+02 
 +3.650432E+02 -2.750906E+01 +8.076672E+00 -2.750906E+01 +3.565738E+02 -7.643456E+00 +8.076672E+00 -7.643456E+00 +9.667364E+02 
 +3.688040E+02 -2.982425E+01 +6.922740E+00 -2.982425E+01 +3.595657E+02 -7.765244E+00 +6.922740E+00 -7.765244E+00 +9.756104E+02 
 +3.625714E+02 -5.790524E+00 +1.282584E+01 -5.790524E+00 +3.738023E+02 -5.733151E+00 +1.282584E+01 -5.733151E+00 +9.860768E+02 
 +3.665766E+02 -7.048592E+00 +1.506226E+01 -7.048592E+00 +3.888840E+02 -3.111425E+00 +1.506226E+01 -3.111425E+00 +9.825554E+02 
 +3.624901E+02 -6.228224E+00 +1.570409E+01 -6.228224E+00 +3.890733E+02 -4.245321E+00 +1.570409E+01 -4.245321E+00 +9.768962E+02 
 +3.451723E+02 -1.028121E+01 +1.273375E+01 -1.028121E+01 +3.704475E+02 -7.517338E+00 +1.273375E+01 -7.517338E+00 +9.592725E+02 
 +3.712889E+02 -2.557959E+00 -2.936917E-01 -2.557959E+00 +3.556035E+02 -9.816205E+00 -2.936917E-01 -9.816205E+00 +9.504011E+02 
 +3.762983E+02 +1.289589E+01 -1.561117E+00 +1.289589E+01 +3.368245E+02 -9.567865E+00 -1.561117E+00 -9.567865E+00 +9.505273E+02 
 +3.672126E+02 +1.116113E+01 +2.256074E+00 +1.116113E+01 +3.259351E+02 -1.274603E+01 +2.256074E+00 -1.274603E+01 +9.545059E+02 
 +3.667261E+02 +1.043828E+01 +1.129819E+00 +1.043828E+01 +3.292964E+02 -1.904526E+01 +1.129819E+00 -1.904526E+01 +9.620181E+02 
 +3.644516E+02 +8.488425E+00 +6.804009E+00 +8.488425E+00 +3.357476E+02 -1.655733E+01 +6.804009E+00 -1.655733E+01 +9.737262E+02 
 +3.552913E+02 +1.679107E+01 +4.870017E+00 +1.679107E+01 +3.378106E+02 -5.161936E+00 +4.870017E+00 -5.161936E+00 +9.782133E+02 
 +3.659622E+02 +1.264777E+01 +5.581913E+00 +1.264777E+01 +3.534384E+02 +2.390161E+00 +5.581913E+00 +2.390161E+00 +9.836262E+02 
 +3.717829E+02 +1.028112E+01 +2.278519E+00 +1.028112E+01 +3.668644E+02 -4.110626E-01 +2.278519E+00 -4.110626E-01 +9.781568E+02 
 +3.606045E+02 +5.529669E+00 -4.977929E+00 +5.529669E+00 +3.621887E+02 +1.096887E+00 -4.977929E+00 +1.096887E+00 +9.644618E+02 
 +3.579261E+02 -1.975169E+01 -1.031959E+01 -1.975169E+01 +3.521687E+02 +1.774559E+01 -1.031959E+01 +1.774559E+01 +9.567386E+02 
 +3.514869E+02 -1.622075E+01 -7.461650E+00 -1.622075E+01 +3.653065E+02 +2.003742E+01 -7.461650E+00 +2.003742E+01 +9.566637E+02 
 +3.516975E+02 -1.516633E+01 -7.169408E+00 -1.516633E+01 +3.851367E+02 +5.386902E+00 -7.169408E+00 +5.386902E+00 +9.628425E+02 
 +3.494450E+02 -1.835343E+01 +2.838290E+00 -1.835343E+01 +3.801643E+02 -5.643292E+00 +2.838290E+00 -5.643292E+00 +9.631670E+02 
 +3.523303E+02 -2.015637E+01 +2.686358E+00 -2.015637E+01 +3.668662E+02 -8.003490E+00 +2.686358E+00 -8.003490E+00 +9.607560E+02 
 +3.609911E+02 -1.633814E+01 +2.159722E+00 -1.633814E+01 +3.578695E+02 -8.867509E+00 +2.159722E+00 -8.867509E+00 +9.689739E+02 
 +3.604752E+02 -2.581375E+01 +3.218141E+00 -2.581375E+01 +3.501427E+02 -1.018680E+01 +3.218141E+00 -1.018680E+01 +9.726621E+02 
 +3.519082E+02 -3.044182E+01 -9.554182E-01 -3.044182E+01 +3.417812E+02 -1.201169E+01 -9.554182E-01 -1.201169E+01 +9.721087E+02 
 +3.764505E+02 -1.737786E+00 +1.608804E+01 -1.737786E+00 +3.584003E+02 -1.417469E+01 +1.608804E+01 -1.417469E+01 +9.826689E+02 
 +3.762188E+02 -6.277591E+00 +1.760516E+01 -6.277591E+00 +3.680538E+02 -1.355140E+01 +1.760516E+01 -1.355140E+01 +9.696084E+02 
 +3.725463E+02 -9.230330E+00 +1.968179E+01 -9.230330E+00 +3.719269E+02 -1.266931E+01 +1.968179E+01 -1.266931E+01 +9.588508E+02 
 +3.574839E+02 -2.280069E+01 +1.928945E+01 -2.280069E+01 +3.534137E+02 -1.422436E+01 +1.928945E+01 -1.422436E+01 +9.393615E+02 
 +3.541831E+02 -1.526631E+01 +4.171173E+00 -1.526631E+01 +3.402267E+02 -1.371377E+01 +4.171173E+00 -1.371377E+01 +9.357725E+02 
 +3.583083E+02 +5.360324E+00 +4.403636E-01 +5.360324E+00 +3.314452E+02 -1.574629E+01 +4.403636E-01 -1.574629E+01 +9.470170E+02 
 +3.670847E+02 +8.426916E+00 -8.256476E-01 +8.426916E+00 +3.283938E+02 -1.790658E+01 -8.256476E-01 -1.790658E+01 +9.548494E+02 
 +3.645180E+02 +1.081434E+01 -3.591240E+00 +1.081434E+01 +3.268765E+02 -2.088042E+01 -3.591240E+00 -2.088042E+01 +9.574187E+02 
 +3.652550E+02 +1.228000E+01 -2.743114E+00 +1.228000E+01 +3.291656E+02 -1.803175E+01 -2.743114E+00 -1.803175E+01 +9.666440E+02 
 +3.561136E+02 +1.251272E+01 -3.657020E+00 +1.251272E+01 +3.465112E+02 -3.823932E+00 -3.657020E+00 -3.823932E+00 +9.774051E+02 
 +3.595746E+02 +1.023635E+01 +8.903588E-01 +1.023635E+01 +3.524796E+02 -7.884855E-01 +8.903588E-01 -7.884855E-01 +9.776503E+02 
 +3.581453E+02 +2.006968E+01 +4.195692E+00 +2.006968E+01 +3.582900E+02 -3.751915E+00 +4.195692E+00 -3.751915E+00 +9.706659E+02 
 +3.476796E+02 +1.053489E+01 +3.288535E-01 +1.053489E+01 +3.436768E+02 +2.280583E+00 +3.288535E-01 +2.280583E+00 +9.622814E+02 
 +3.164267E+02 -9.633939E+00 -7.700196E-01 -9.633939E+00 +3.259186E+02 +1.559816E+01 -7.700196E-01 +1.559816E+01 +9.499342E+02 
 +3.316439E+02 -1.488874E+01 -3.983909E-01 -1.488874E+01 +3.535966E+02 +1.585357E+01 -3.983909E-01 +1.585357E+01 +9.538940E+02 
 +3.681885E+02 -1.733029E+01 -3.855400E+00 -1.733029E+01 +3.929079E+02 +8.190389E+00 -3.855400E+00 +8.190389E+00 +9.696326E+02 
 +3.675264E+02 -2.520672E+01 +1.922061E+00 -2.520672E+01 +3.922672E+02 -1.670560E+00 +1.922061E+00 -1.670560E+00 +9.729604E+02 
 +3.555881E+02 -2.312805E+01 -3.314417E+00 -2.312805E+01 +3.682647E+02 -4.603896E+00 -3.314417E+00 -4.603896E+00 +9.678297E+02 
 +3.625639E+02 -2.003496E+01 -7.260444E+00 -2.003496E+01 +3.608086E+02 -8.083280E+00 -7.260444E+00 -8.083280E+00 +9.770037E+02 
 +3.417873E+02 -2.520525E+01 -5.937586E+00 -2.520525E+01 +3.324851E+02 -1.547484E+01 -5.937586E+00 -1.547484E+01 +9.745911E+02 
 +3.401039E+02 -2.251838E+01 -6.155072E+00 -2.251838E+01 +3.323785E+02 -1.635235E+01 -6.155072E+00 -1.635235E+01 +9.734489E+02 
 +3.889918E+02 +1.325763E+00 +1.317859E+01 +1.325763E+00 +3.623457E+02 -1.423715E+01 +1.317859E+01 -1.423715E+01 +9.808930E+02 
 +3.940140E+02 -2.022920E+00 +1.883043E+01 -2.022920E+00 +3.690317E+02 -1.145251E+01 +1.883043E+01 -1.145251E+01 +9.673499E+02 
 +4.006606E+02 -1.058935E+01 +1.699710E+01 -1.058935E+01 +3.843428E+02 -1.025688E+01 +1.699710E+01 -1.025688E+01 +9.614212E+02 
 +3.870583E+02 -2.659622E+01 +1.624426E+01 -2.659622E+01 +3.769884E+02 -1.976376E+01 +1.624426E+01 -1.976376E+01 +9.435104E+02 
 +3.620259E+02 -2.079078E+01 +2.789037E+00 -2.079078E+01 +3.610012E+02 -1.735103E+01 +2.789037E+00 -1.735103E+01 +9.388747E+02 
 +3.547604E+02 -5.875340E+00 -6.227778E-01 -5.875340E+00 +3.437004E+02 -1.475623E+01 -6.227778E-01 -1.475623E+01 +9.500600E+02 
 +3.683960E+02 +3.162798E+00 -5.371100E+00 +3.162798E+00 +3.276369E+02 -1.930240E+01 -5.371100E+00 -1.930240E+01 +9.563604E+02 
 +3.664086E+02 +1.136920E+01 -9.625340E+00 +1.136920E+01 +3.208557E+02 -1.873204E+01 -9.625340E+00 -1.873204E+01 +9.573923E+02 
 +3.667815E+02 +1.058908E+01 -1.093071E+01 +1.058908E+01 +3.391613E+02 -1.204263E+01 -1.093071E+01 -1.204263E+01 +9.698472E+02 
 +3.725325E+02 +1.577347E+01 -1.173879E+01 +1.577347E+01 +3.610156E+02 -1.023671E+01 -1.173879E+01 -1.023671E+01 +9.809318E+02 
 +3.607311E+02 +1.689399E+01 +1.688945E+00 +1.689399E+01 +3.434249E+02 -1.217251E+01 +1.688945E+00 -1.217251E+01 +9.658980E+02 
 +3.401146E+02 +2.855406E+01 +3.679264E+00 +2.855406E+01 +3.228381E+02 -8.813435E+00 +3.679264E+00 -8.813435E+00 +9.551237E+02 
 +3.280259E+02 +8.584290E+00 +7.463091E-01 +8.584290E+00 +3.061563E+02 +4.691293E+00 +7.463091E-01 +4.691293E+00 +9.496157E+02 
 +3.019500E+02 +2.535166E+01 +1.618316E+00 +2.535166E+01 +3.237979E+02 +1.113518E+01 +1.618316E+00 +1.113518E+01 +9.452835E+02 
 +3.302531E+02 +2.019666E+01 +1.436388E+00 +2.019666E+01 +3.696957E+02 +9.411557E+00 +1.436388E+00 +9.411557E+00 +9.582772E+02 
 +3.526733E+02 +1.913366E+01 -1.124240E+00 +1.913366E+01 +3.757758E+02 +8.121831E+00 -1.124240E+00 +8.121831E+00 +9.658796E+02 
 +3.706472E+02 -1.337456E+01 -3.661190E-01 -1.337456E+01 +3.909624E+02 +2.248401E+00 -3.661190E-01 +2.248401E+00 +9.829992E+02 
 +3.572664E+02 -1.935366E+01 -1.395934E+00 -1.935366E+01 +3.640743E+02 +7.145416E-01 -1.395934E+00 +7.145416E-01 +9.766473E+02 
 +3.523536E+02 -1.135230E+01 -6.395610E+00 -1.135230E+01 +3.373893E+02 +3.569017E+00 -6.395610E+00 +3.569017E+00 +9.735900E+02 
 +3.485179E+02 -1.204242E+01 -1.015236E+01 -1.204242E+01 +3.331733E+02 +2.310687E+00 -1.015236E+01 +2.310687E+00 +9.800922E+02 
 +3.529235E+02 +1.004989E+01 +6.363529E-02 +1.004989E+01 +3.557600E+02 +7.491190E+00 +6.363529E-02 +7.491190E+00 +9.834623E+02 
 +3.806811E+02 +1.385146E+01 +6.773146E+00 +1.385146E+01 +3.750992E+02 +1.222292E+01 +6.773146E+00 +1.222292E+01 +9.794428E+02 
 +3.956850E+02 +1.342378E+01 +1.733772E+01 +1.342378E+01 +3.734193E+02 +9.028984E+00 +1.733772E+01 +9.028984E+00 +9.688360E+02 
 +4.276216E+02 -9.303104E+00 +1.107360E+01 -9.303104E+00 +3.937409E+02 +3.419796E+00 +1.107360E+01 +3.419796E+00 +9.757226E+02 
 +4.115299E+02 -2.240165E+01 +6.632724E+00 -2.240165E+01 +3.939237E+02 -2.169201E+00 +6.632724E+00 -2.169201E+00 +9.611765E+02 
 +3.883577E+02 -2.094740E+01 -3.682819E+00 -2.094740E+01 +3.922123E+02 -3.975135E+00 -3.682819E+00 -3.975135E+00 +9.550070E+02 
 +3.652208E+02 -5.626092E+00 -6.221435E+00 -5.626092E+00 +3.587334E+02 -4.984139E+00 -6.221435E+00 -4.984139E+00 +9.552962E+02 
 +3.441890E+02 +2.554565E+00 -1.061552E+01 +2.554565E+00 +3.230883E+02 -1.645554E+01 -1.061552E+01 -1.645554E+01 +9.483022E+02 
 +3.663441E+02 +8.297393E+00 -1.362157E+01 +8.297393E+00 +3.362282E+02 -1.784375E+01 -1.362157E+01 -1.784375E+01 +9.566600E+02 
 +3.792557E+02 +1.181339E+01 -1.568604E+01 +1.181339E+01 +3.591155E+02 -1.192898E+01 -1.568604E+01 -1.192898E+01 +9.759622E+02 
 +3.868129E+02 +1.008342E+01 -9.309524E+00 +1.008342E+01 +3.708646E+02 -1.210746E+01 -9.309524E+00 -1.210746E+01 +9.722266E+02 
 +3.834633E+02 +5.149121E+00 +5.725222E+00 +5.149121E+00 +3.688965E+02 -1.088321E+01 +5.725222E+00 -1.088321E+01 +9.557651E+02 
 +3.685547E+02 +2.465117E+01 -4.981675E-01 +2.465117E+01 +3.623813E+02 -1.056587E+01 -4.981675E-01 -1.056587E+01 +9.548558E+02 
 +3.470753E+02 +6.256701E+00 +3.497937E+00 +6.256701E+00 +3.670183E+02 +4.238574E+00 +3.497937E+00 +4.238574E+00 +9.552036E+02 
 +3.491104E+02 +2.648990E+01 +1.552941E+00 +2.648990E+01 +3.716238E+02 +1.461439E+01 +1.552941E+00 +1.461439E+01 +9.594227E+02 
 +3.518480E+02 +1.390501E+01 -3.914819E+00 +1.390501E+01 +3.697132E+02 +8.963472E+00 -3.914819E+00 +8.963472E+00 +9.594284E+02 
 +3.413535E+02 +2.659289E+01 -7.862946E+00 +2.659289E+01 +3.527648E+02 +7.629737E+00 -7.862946E+00 +7.629737E+00 +9.603244E+02 
 +3.447714E+02 +1.878320E+01 -9.539316E+00 +1.878320E+01 +3.529740E+02 +2.883417E+00 -9.539316E+00 +2.883417E+00 +9.772214E+02 
 +3.344911E+02 -5.255972E+00 -3.408926E+00 -5.255972E+00 +3.598986E+02 +6.041156E-01 -3.408926E+00 +6.041156E-01 +9.800539E+02 
 +3.302725E+02 -1.412708E+01 -2.227112E+00 -1.412708E+01 +3.378142E+02 +2.356592E+00 -2.227112E+00 +2.356592E+00 +9.720135E+02 
 +3.627495E+02 -1.458056E+01 -4.819407E+00 -1.458056E+01 +3.515392E+02 +3.699277E+00 -4.819407E+00 +3.699277E+00 +9.852652E+02 
 +3.650069E+02 +6.246581E+00 +8.100478E+00 +6.246581E+00 +3.667936E+02 +9.336659E+00 +8.100478E+00 +9.336659E+00 +9.837717E+02 
 +3.648739E+02 +5.838667E+00 +6.838858E+00 +5.838667E+00 +3.637837E+02 +8.039392E+00 +6.838858E+00 +8.039392E+00 +9.734205E+02 
 +3.679729E+02 +1.557189E+01 +1.402630E+01 +1.557189E+01 +3.520223E+02 +2.339106E+00 +1.402630E+01 +2.339106E+00 +9.651493E+02 
 +4.068443E+02 -1.559057E+01 +7.160979E+00 -1.559057E+01 +3.488460E+02 -4.045893E+00 +7.160979E+00 -4.045893E+00 +9.714636E+02 
 +3.957893E+02 -1.800048E+01 +5.973653E+00 -1.800048E+01 +3.366410E+02 -1.764226E+00 +5.973653E+00 -1.764226E+00 +9.570807E+02 
 +3.837386E+02 -2.155126E+01 -1.881074E+00 -2.155126E+01 +3.547345E+02 +1.950661E+00 -1.881074E+00 +1.950661E+00 +9.525827E+02 
 +3.759711E+02 -2.322071E+01 -1.197456E+01 -2.322071E+01 +3.557494E+02 +3.422809E+00 -1.197456E+01 +3.422809E+00 +9.551324E+02 
 +3.394339E+02 +1.162488E+01 -1.416671E+01 +1.162488E+01 +3.535231E+02 -6.301618E+00 -1.416671E+01 -6.301618E+00 +9.500748E+02 
 +3.664834E+02 +1.379689E+01 -1.239453E+01 +1.379689E+01 +3.816324E+02 -1.405350E+01 -1.239453E+01 -1.405350E+01 +9.643297E+02 
 +3.879848E+02 +1.248196E+01 -1.792986E+01 +1.248196E+01 +3.731076E+02 -1.489351E+01 -1.792986E+01 -1.489351E+01 +9.776804E+02 
 +3.843683E+02 +1.184984E+01 +4.476752E+00 +1.184984E+01 +3.828853E+02 -1.037235E+01 +4.476752E+00 -1.037235E+01 +9.513588E+02 
 +3.765490E+02 +1.989943E-01 +5.860361E+00 +1.989943E-01 +3.803572E+02 -7.240248E+00 +5.860361E+00 -7.240248E+00 +9.356426E+02 
 +3.761134E+02 -1.710509E-01 -4.571373E+00 -1.710509E-01 +3.776681E+02 -8.436744E+00 -4.571373E+00 -8.436744E+00 +9.383550E+02 
 +3.616221E+02 -5.730234E-01 +2.197263E+00 -5.730234E-01 +3.706767E+02 +6.753949E+00 +2.197263E+00 +6.753949E+00 +9.427798E+02 
 +3.485954E+02 +1.163300E+01 -8.414374E+00 +1.163300E+01 +3.640418E+02 +1.699525E+01 -8.414374E+00 +1.699525E+01 +9.528696E+02 
 +3.457658E+02 -6.676864E+00 -1.155439E+01 -6.676864E+00 +3.378494E+02 +1.152805E+01 -1.155439E+01 +1.152805E+01 +9.492455E+02 
 +3.433793E+02 -1.564229E+01 -1.397774E+01 -1.564229E+01 +3.236617E+02 +9.533662E+00 -1.397774E+01 +9.533662E+00 +9.515370E+02 
 +3.467722E+02 -1.265731E+01 -1.565708E+01 -1.265731E+01 +3.280729E+02 +1.441450E+00 -1.565708E+01 +1.441450E+00 +9.734750E+02 
 +3.233924E+02 -1.485570E+01 -8.812611E+00 -1.485570E+01 +3.441004E+02 -2.680311E+00 -8.812611E+00 -2.680311E+00 +9.783636E+02 
 +3.168960E+02 -1.751427E+01 +1.410919E+00 -1.751427E+01 +3.491875E+02 +7.447614E+00 +1.410919E+00 +7.447614E+00 +9.723872E+02 
 +3.603025E+02 +7.493747E+00 +3.296217E+00 +7.493747E+00 +3.725035E+02 +1.412822E+01 +3.296217E+00 +1.412822E+01 +9.861721E+02 
 +3.700494E+02 +1.179818E+01 +9.512865E+00 +1.179818E+01 +3.747282E+02 +1.135244E+01 +9.512865E+00 +1.135244E+01 +9.845465E+02 
 +3.627979E+02 +8.386000E+00 +1.083226E+01 +8.386000E+00 +3.540394E+02 +5.355567E+00 +1.083226E+01 +5.355567E+00 +9.762239E+02 
 +3.547142E+02 +1.412155E+01 +1.329199E+01 +1.412155E+01 +3.410039E+02 +2.124635E+00 +1.329199E+01 +2.124635E+00 +9.709214E+02 
 +4.008283E+02 -1.646962E+01 +6.245803E+00 -1.646962E+01 +3.504521E+02 -5.844963E-01 +6.245803E+00 -5.844963E-01 +9.839231E+02 
 +3.985622E+02 -1.379823E+01 +4.769814E+00 -1.379823E+01 +3.399885E+02 +2.815099E+00 +4.769814E+00 +2.815099E+00 +9.742078E+02 
 +3.952857E+02 -1.705053E+01 +1.536716E+00 -1.705053E+01 +3.453413E+02 +9.225684E+00 +1.536716E+00 +9.225684E+00 +9.612710E+02 
 +3.891816E+02 -2.426806E+01 -9.404005E+00 -2.426806E+01 +3.629988E+02 +8.603191E+00 -9.404005E+00 +8.603191E+00 +9.601602E+02 
 +3.548265E+02 +2.243154E+01 -1.502931E+01 +2.243154E+01 +3.724306E+02 -3.360991E+00 -1.502931E+01 -3.360991E+00 +9.548483E+02 
 +3.668669E+02 +1.258067E+01 -1.347522E+01 +1.258067E+01 +3.903350E+02 -1.358902E+01 -1.347522E+01 -1.358902E+01 +9.605576E+02 
 +3.617051E+02 +1.999465E+01 -1.617292E+01 +1.999465E+01 +3.825600E+02 -1.509533E+01 -1.617292E+01 -1.509533E+01 +9.589459E+02 
 +3.643087E+02 +1.252026E+01 +6.727577E+00 +1.252026E+01 +3.803868E+02 -1.024583E+01 +6.727577E+00 -1.024583E+01 +9.412390E+02 
 +3.678433E+02 +7.194517E+00 +4.955512E+00 +7.194517E+00 +3.868690E+02 -8.508667E+00 +4.955512E+00 -8.508667E+00 +9.300439E+02 
 +3.589097E+02 +5.250830E+00 -1.057309E+01 +5.250830E+00 +3.703801E+02 -4.102297E+00 -1.057309E+01 -4.102297E+00 +9.233541E+02 
 +3.674222E+02 +3.782004E+00 -5.356313E+00 +3.782004E+00 +3.713555E+02 +4.652504E+00 -5.356313E+00 +4.652504E+00 +9.337857E+02 
 +3.419892E+02 -1.148303E+01 -2.029209E+01 -1.148303E+01 +3.422083E+02 +1.008791E+01 -2.029209E+01 +1.008791E+01 +9.402540E+02 
 +3.376914E+02 -1.042155E+01 -1.706990E+01 -1.042155E+01 +3.227295E+02 +3.744929E+00 -1.706990E+01 +3.744929E+00 +9.458144E+02 
 +3.478492E+02 -1.365460E+01 -1.588922E+01 -1.365460E+01 +3.271288E+02 +4.552446E+00 -1.588922E+01 +4.552446E+00 +9.513219E+02 
 +3.490876E+02 -1.353976E+01 -1.250416E+01 -1.353976E+01 +3.210226E+02 +6.575925E+00 -1.250416E+01 +6.575925E+00 +9.583357E+02 
 +3.511094E+02 -1.263554E+01 -1.149446E+01 -1.263554E+01 +3.312535E+02 +5.629835E+00 -1.149446E+01 +5.629835E+00 +9.713842E+02 
 +3.317447E+02 -2.559200E+01 +1.853595E+00 -2.559200E+01 +3.527398E+02 +8.046677E+00 +1.853595E+00 +8.046677E+00 +9.753676E+02 
 +3.570702E+02 +5.564936E+00 +1.001203E+01 +5.564936E+00 +3.748104E+02 +1.334440E+01 +1.001203E+01 +1.334440E+01 +9.855348E+02 
 +3.581813E+02 +7.630603E+00 +9.202568E+00 +7.630603E+00 +3.606868E+02 +8.705311E+00 +9.202568E+00 +8.705311E+00 +9.776422E+02 
 +3.587217E+02 +1.119695E+01 +1.396347E+01 +1.119695E+01 +3.548721E+02 +5.377779E+00 +1.396347E+01 +5.377779E+00 +9.796608E+02 
 +3.528575E+02 +1.175288E+01 +1.461594E+01 +1.175288E+01 +3.385727E+02 +5.776013E+00 +1.461594E+01 +5.776013E+00 +9.797239E+02 
 +3.978702E+02 -1.471469E+01 +7.940825E+00 -1.471469E+01 +3.541606E+02 +1.541794E+00 +7.940825E+00 +1.541794E+00 +9.944165E+02 
 +3.889459E+02 -6.226714E+00 +2.916732E+00 -6.226714E+00 +3.491457E+02 +3.033596E+00 +2.916732E+00 +3.033596E+00 +9.770434E+02 
 +3.853806E+02 -1.501983E+01 +2.772816E+00 -1.501983E+01 +3.419630E+02 +8.856010E+00 +2.772816E+00 +8.856010E+00 +9.515285E+02 
 +3.945686E+02 -2.190154E+01 -1.943503E+00 -2.190154E+01 +3.778054E+02 +7.373463E+00 -1.943503E+00 +7.373463E+00 +9.576642E+02 
 +3.631076E+02 +1.128204E+01 -6.227537E+00 +1.128204E+01 +3.927769E+02 +1.341382E+00 -6.227537E+00 +1.341382E+00 +9.493200E+02 
 +3.824959E+02 -8.570882E+00 -3.433249E+00 -8.570882E+00 +4.102998E+02 +2.100701E+00 -3.433249E+00 +2.100701E+00 +9.485594E+02 
 +3.653026E+02 -1.359807E+00 -1.495886E+01 -1.359807E+00 +3.896913E+02 -1.287107E+00 -1.495886E+01 -1.287107E+00 +9.467313E+02 
 +3.440857E+02 +2.105259E+01 -5.447712E-01 +2.105259E+01 +3.737693E+02 -3.850902E+00 -5.447712E-01 -3.850902E+00 +9.493141E+02 
 +3.744011E+02 +5.650818E+00 +2.487863E+00 +5.650818E+00 +3.869166E+02 -1.482058E+00 +2.487863E+00 -1.482058E+00 +9.382308E+02 
 +3.560957E+02 +5.224085E+00 -1.494112E+01 +5.224085E+00 +3.717943E+02 +4.785429E+00 -1.494112E+01 +4.785429E+00 +9.250386E+02 
 +3.325671E+02 +7.281444E+00 -7.153918E+00 +7.281444E+00 +3.443215E+02 +5.532127E+00 -7.153918E+00 +5.532127E+00 +9.147094E+02 
 +3.428538E+02 -8.140697E+00 -1.329926E+01 -8.140697E+00 +3.330235E+02 +4.759253E+00 -1.329926E+01 +4.759253E+00 +9.255928E+02 
 +3.488291E+02 -7.798714E+00 -1.164433E+01 -7.798714E+00 +3.329399E+02 +2.210169E+00 -1.164433E+01 +2.210169E+00 +9.421312E+02 
 +3.535724E+02 -1.395690E+01 -1.503798E+01 -1.395690E+01 +3.349669E+02 +2.183805E+00 -1.503798E+01 +2.183805E+00 +9.503183E+02 
 +3.509322E+02 -1.521436E+01 -1.013799E+01 -1.521436E+01 +3.352048E+02 +3.934606E+00 -1.013799E+01 +3.934606E+00 +9.503167E+02 
 +3.582804E+02 -1.451396E+01 -1.066379E+01 -1.451396E+01 +3.304358E+02 +9.337161E+00 -1.066379E+01 +9.337161E+00 +9.583117E+02 
 +3.540428E+02 -1.874935E+01 -6.415721E+00 -1.874935E+01 +3.391022E+02 +1.513886E+01 -6.415721E+00 +1.513886E+01 +9.687107E+02 
 +3.558664E+02 +2.019350E-01 +8.514312E+00 +2.019350E-01 +3.594772E+02 +1.395325E+01 +8.514312E+00 +1.395325E+01 +9.768116E+02 
 +3.571276E+02 +4.580825E+00 +9.516517E+00 +4.580825E+00 +3.563708E+02 +7.375371E+00 +9.516517E+00 +7.375371E+00 +9.744353E+02 
 +3.578030E+02 +1.028904E+01 +1.307169E+01 +1.028904E+01 +3.508552E+02 +3.792018E+00 +1.307169E+01 +3.792018E+00 +9.748407E+02 
 +3.548158E+02 +1.159921E+01 +9.760725E+00 +1.159921E+01 +3.406992E+02 -5.614834E-01 +9.760725E+00 -5.614834E-01 +9.770130E+02 
 +3.809987E+02 -8.760072E+00 +1.102930E+01 -8.760072E+00 +3.496250E+02 -3.497252E+00 +1.102930E+01 -3.497252E+00 +9.781076E+02 
 +3.741174E+02 -9.108122E-01 +7.904576E+00 -9.108122E-01 +3.528743E+02 +1.078899E+00 +7.904576E+00 +1.078899E+00 +9.503550E+02 
 +3.795325E+02 -3.642812E+00 +1.261658E+01 -3.642812E+00 +3.858040E+02 +1.247954E+00 +1.261658E+01 +1.247954E+00 +9.347492E+02 
 +3.895492E+02 -5.571004E+00 +1.023184E+01 -5.571004E+00 +4.232577E+02 +9.768397E-01 +1.023184E+01 +9.768397E-01 +9.402409E+02 
 +3.748375E+02 +7.449500E+00 +6.904288E+00 +7.449500E+00 +4.065631E+02 +2.735855E+00 +6.904288E+00 +2.735855E+00 +9.340715E+02 
 +3.754737E+02 +5.100777E+00 +1.513139E+01 +5.100777E+00 +3.893037E+02 +8.818533E-01 +1.513139E+01 +8.818533E-01 +9.285052E+02 
 +3.961171E+02 -4.545248E-01 -7.257785E+00 -4.545248E-01 +4.007090E+02 -3.957024E+00 -7.257785E+00 -3.957024E+00 +9.587375E+02 
 +3.434235E+02 +2.401784E+01 -9.674222E+00 +2.401784E+01 +3.770450E+02 +1.918563E+00 -9.674222E+00 +1.918563E+00 +9.536291E+02 
 +3.585452E+02 +1.031313E+01 -1.506478E+00 +1.031313E+01 +3.735106E+02 +3.945058E+00 -1.506478E+00 +3.945058E+00 +9.410142E+02 
 +3.556154E+02 +5.275539E+00 -8.820661E+00 +5.275539E+00 +3.706191E+02 +7.810309E+00 -8.820661E+00 +7.810309E+00 +9.428821E+02 
 +3.480280E+02 +2.272191E+00 -4.326884E+00 +2.272191E+00 +3.585186E+02 +6.930950E+00 -4.326884E+00 +6.930950E+00 +9.405343E+02 
 +3.469404E+02 -8.607525E+00 -6.980798E+00 -8.607525E+00 +3.485456E+02 +2.405589E+00 -6.980798E+00 +2.405589E+00 +9.337347E+02 
 +3.470704E+02 -1.022459E+01 -7.610798E+00 -1.022459E+01 +3.394171E+02 +1.776713E+00 -7.610798E+00 +1.776713E+00 +9.381302E+02 
 +3.531697E+02 -1.367871E+01 -8.260621E+00 -1.367871E+01 +3.381011E+02 +4.199866E+00 -8.260621E+00 +4.199866E+00 +9.443588E+02 
 +3.533237E+02 -1.572712E+01 -6.254660E+00 -1.572712E+01 +3.359123E+02 +9.055850E+00 -6.254660E+00 +9.055850E+00 +9.452187E+02 
 +3.577782E+02 -1.700357E+01 -5.835493E+00 -1.700357E+01 +3.333514E+02 +1.285272E+01 -5.835493E+00 +1.285272E+01 +9.528454E+02 
 +3.634069E+02 -1.723625E+01 -1.110506E+01 -1.723625E+01 +3.360895E+02 +1.724461E+01 -1.110506E+01 +1.724461E+01 +9.626769E+02 
 +3.566306E+02 -1.189568E+01 -2.538627E+00 -1.189568E+01 +3.353295E+02 +1.496415E+01 -2.538627E+00 +1.496415E+01 +9.616578E+02 
 +3.562577E+02 -2.877071E+00 +2.064606E+00 -2.877071E+00 +3.377041E+02 +6.002864E+00 +2.064606E+00 +6.002864E+00 +9.569730E+02 
 +3.580386E+02 +5.743065E+00 +8.595891E+00 +5.743065E+00 +3.397695E+02 +1.350249E+00 +8.595891E+00 +1.350249E+00 +9.515009E+02 
 +3.504209E+02 +6.780896E+00 +4.038345E+00 +6.780896E+00 +3.367364E+02 -2.942077E+00 +4.038345E+00 -2.942077E+00 +9.412238E+02 
 +3.676609E+02 -4.839377E+00 +8.592851E+00 -4.839377E+00 +3.671154E+02 -1.039174E+01 +8.592851E+00 -1.039174E+01 +9.416178E+02 
 +3.764565E+02 +2.427826E+00 +1.114982E+01 +2.427826E+00 +3.965884E+02 -8.954382E+00 +1.114982E+01 -8.954382E+00 +9.364221E+02 
 +3.745947E+02 +2.589244E+00 +1.853588E+01 +2.589244E+00 +4.027148E+02 -4.106325E+00 +1.853588E+01 -4.106325E+00 +9.243413E+02 
 +3.634113E+02 +5.052157E+00 +2.337379E+01 +5.052157E+00 +3.952417E+02 -3.412085E+00 +2.337379E+01 -3.412085E+00 +9.122415E+02 
 +3.789779E+02 +1.540702E+01 +2.019816E+01 +1.540702E+01 +3.960233E+02 +2.253612E+00 +2.019816E+01 +2.253612E+00 +9.236844E+02 
 +3.803620E+02 +1.117061E+01 +2.031347E+01 +1.117061E+01 +3.840071E+02 +6.185290E+00 +2.031347E+01 +6.185290E+00 +9.291229E+02 
 +3.939725E+02 +2.696542E+00 +3.533704E+00 +2.696542E+00 +4.012011E+02 +1.313400E+00 +3.533704E+00 +1.313400E+00 +9.590898E+02 
 +3.403177E+02 +4.629565E+00 -2.067331E+01 +4.629565E+00 +3.798689E+02 -6.153622E-01 -2.067331E+01 -6.153622E-01 +9.322264E+02 
 +3.310942E+02 +8.827347E+00 -7.936931E+00 +8.827347E+00 +3.662301E+02 +7.477191E+00 -7.936931E+00 +7.477191E+00 +9.462582E+02 
 +3.514719E+02 +7.895464E+00 -6.992942E+00 +7.895464E+00 +3.650005E+02 +7.881626E+00 -6.992942E+00 +7.881626E+00 +9.569502E+02 
 +3.548655E+02 +6.363726E+00 -4.824978E+00 +6.363726E+00 +3.603123E+02 +3.522150E+00 -4.824978E+00 +3.522150E+00 +9.558799E+02 
 +3.549157E+02 -1.167908E+00 -4.065235E+00 -1.167908E+00 +3.606248E+02 +2.623956E+00 -4.065235E+00 +2.623956E+00 +9.565383E+02 
 +3.516945E+02 -8.716679E+00 -1.408720E+00 -8.716679E+00 +3.600374E+02 +2.464322E+00 -1.408720E+00 +2.464322E+00 +9.553416E+02 
 +3.446569E+02 -1.111660E+01 -1.040184E+00 -1.111660E+01 +3.457656E+02 +6.244078E+00 -1.040184E+00 +6.244078E+00 +9.404047E+02 
 +3.488220E+02 -1.053841E+01 -2.960689E+00 -1.053841E+01 +3.366921E+02 +1.282169E+01 -2.960689E+00 +1.282169E+01 +9.353397E+02 
 +3.533784E+02 -1.297726E+01 -6.538081E+00 -1.297726E+01 +3.325811E+02 +2.114303E+01 -6.538081E+00 +2.114303E+01 +9.459022E+02 
 +3.629851E+02 -1.007019E+01 -9.995296E+00 -1.007019E+01 +3.343790E+02 +2.051493E+01 -9.995296E+00 +2.051493E+01 +9.501398E+02 
 +3.768477E+02 -2.578312E+00 -1.184790E+01 -2.578312E+00 +3.442941E+02 +4.579163E+00 -1.184790E+01 +4.579163E+00 +9.480154E+02 
 +3.899586E+02 +2.406896E+00 -1.160741E+01 +2.406896E+00 +3.547035E+02 -1.620191E+01 -1.160741E+01 -1.620191E+01 +9.559503E+02 
 +3.795648E+02 +3.730113E+00 -1.329420E+01 +3.730113E+00 +3.490782E+02 -3.762965E+01 -1.329420E+01 -3.762965E+01 +9.503464E+02 
 +3.590063E+02 -2.064659E+00 -6.115258E-01 -2.064659E+00 +3.383832E+02 -3.715470E+01 -6.115258E-01 -3.715470E+01 +9.234509E+02 
 +3.516673E+02 -2.574140E+00 +1.142253E+01 -2.574140E+00 +3.545241E+02 -2.287017E+01 +1.142253E+01 -2.287017E+01 +9.249563E+02 
 +3.573448E+02 -3.835630E+00 +1.170409E+01 -3.835630E+00 +3.783960E+02 -1.107838E+01 +1.170409E+01 -1.107838E+01 +9.341968E+02 
 +3.676497E+02 -5.181686E+00 +1.586628E+01 -5.181686E+00 +3.872465E+02 -5.152773E+00 +1.586628E+01 -5.152773E+00 +9.264966E+02 
 +3.794593E+02 -6.858657E+00 +1.928718E+01 -6.858657E+00 +3.963700E+02 -4.508653E+00 +1.928718E+01 -4.508653E+00 +9.231049E+02 
 +3.817127E+02 -8.896896E+00 +1.988941E+01 -8.896896E+00 +3.954138E+02 -7.204974E+00 +1.988941E+01 -7.204974E+00 +9.205541E+02 
 +3.792657E+02 -1.463656E+01 +1.213100E+01 -1.463656E+01 +3.940287E+02 -1.045705E+01 +1.213100E+01 -1.045705E+01 +9.300733E+02 
 +3.682268E+02 -1.680617E+01 +4.184550E+00 -1.680617E+01 +3.936593E+02 -6.316455E+00 +4.184550E+00 -6.316455E+00 +9.336487E+02 
 +3.619439E+02 +1.412491E+01 -1.208873E+01 +1.412491E+01 +3.785949E+02 +2.436139E+00 -1.208873E+01 +2.436139E+00 +9.321089E+02 
 +3.583634E+02 +8.431937E+00 -8.142042E+00 +8.431937E+00 +3.684697E+02 +1.612110E+01 -8.142042E+00 +1.612110E+01 +9.510372E+02 
 +3.554160E+02 +4.349144E+00 -6.945417E+00 +4.349144E+00 +3.629571E+02 +1.330319E+01 -6.945417E+00 +1.330319E+01 +9.644749E+02 
 +3.557698E+02 +2.256780E+00 -9.061884E+00 +2.256780E+00 +3.612451E+02 +9.145524E+00 -9.061884E+00 +9.145524E+00 +9.659565E+02 
 +3.569790E+02 -1.868030E+00 -4.314183E+00 -1.868030E+00 +3.628413E+02 +6.590652E+00 -4.314183E+00 +6.590652E+00 +9.633260E+02 
 +3.589683E+02 -7.965685E+00 -2.254103E+00 -7.965685E+00 +3.706364E+02 +9.842080E+00 -2.254103E+00 +9.842080E+00 +9.577644E+02 
 +3.503479E+02 -1.039887E+01 +8.417430E-01 -1.039887E+01 +3.646826E+02 +1.496550E+01 +8.417430E-01 +1.496550E+01 +9.402919E+02 
 +3.479286E+02 -1.271281E+01 +1.969007E+00 -1.271281E+01 +3.408003E+02 +1.286056E+01 +1.969007E+00 +1.286056E+01 +9.257607E+02 
 +3.611363E+02 -1.037426E+01 +2.826556E+00 -1.037426E+01 +3.351434E+02 +8.184634E+00 +2.826556E+00 +8.184634E+00 +9.370677E+02 
 +3.796712E+02 -5.921266E+00 +1.752853E+00 -5.921266E+00 +3.498797E+02 +9.711429E-01 +1.752853E+00 +9.711429E-01 +9.503903E+02 
 +3.901172E+02 -1.088074E+00 -1.468302E+01 -1.088074E+00 +3.555217E+02 -5.236774E+00 -1.468302E+01 -5.236774E+00 +9.577057E+02 
 +3.778401E+02 +4.975519E+00 -1.579754E+01 +4.975519E+00 +3.489243E+02 -1.789803E+01 -1.579754E+01 -1.789803E+01 +9.560263E+02 
 +3.626294E+02 +5.463513E+00 -1.511792E+01 +5.463513E+00 +3.413990E+02 -3.135302E+01 -1.511792E+01 -3.135302E+01 +9.487526E+02 
 +3.300000E+02 -3.257416E+00 -7.975600E-01 -3.257416E+00 +3.333553E+02 -3.366332E+01 -7.975600E-01 -3.366332E+01 +9.296747E+02 
 +3.435651E+02 -7.012039E+00 +5.829287E+00 -7.012039E+00 +3.607998E+02 -2.601150E+01 +5.829287E+00 -2.601150E+01 +9.301511E+02 
 +3.707707E+02 -8.203892E+00 +9.479491E+00 -8.203892E+00 +3.831071E+02 -1.535298E+01 +9.479491E+00 -1.535298E+01 +9.371722E+02 
 +3.705924E+02 -4.812856E+00 +1.260789E+01 -4.812856E+00 +3.860138E+02 -8.800040E+00 +1.260789E+01 -8.800040E+00 +9.320924E+02 
 +3.747610E+02 -7.169773E+00 +1.521645E+01 -7.169773E+00 +3.928909E+02 -6.389074E+00 +1.521645E+01 -6.389074E+00 +9.296618E+02 
 +3.773217E+02 -8.936172E+00 +1.367357E+01 -8.936172E+00 +3.942978E+02 -7.959522E+00 +1.367357E+01 -7.959522E+00 +9.306261E+02 
 +3.721851E+02 -8.954376E+00 +1.022005E+01 -8.954376E+00 +3.907944E+02 -1.014625E+01 +1.022005E+01 -1.014625E+01 +9.388306E+02 
 +3.612509E+02 -3.666212E+00 +8.539421E+00 -3.666212E+00 +3.839763E+02 -1.030053E+01 +8.539421E+00 -1.030053E+01 +9.342045E+02 
 +3.591990E+02 +6.178813E+00 -5.891934E+00 +6.178813E+00 +3.562944E+02 -1.071767E+01 -5.891934E+00 -1.071767E+01 +9.391180E+02 
 +3.581725E+02 +4.044390E+00 -7.230598E+00 +4.044390E+00 +3.469630E+02 -9.188257E+00 -7.230598E+00 -9.188257E+00 +9.527194E+02 
 +3.485226E+02 +2.656012E+00 -1.483021E+00 +2.656012E+00 +3.443713E+02 -6.226444E+00 -1.483021E+00 -6.226444E+00 +9.548369E+02 
 +3.443687E+02 +4.511769E+00 -1.544913E+01 +4.511769E+00 +3.490038E+02 +1.396336E+00 -1.544913E+01 +1.396336E+00 +9.536001E+02 
 +3.588013E+02 -5.074510E-01 -3.980682E+00 -5.074510E-01 +3.635550E+02 +5.509582E+00 -3.980682E+00 +5.509582E+00 +9.538923E+02 
 +3.576309E+02 -4.107447E+00 -1.267262E+00 -4.107447E+00 +3.621561E+02 +8.423500E+00 -1.267262E+00 +8.423500E+00 +9.402939E+02 
 +3.520641E+02 -9.401146E+00 -2.848395E-01 -9.401146E+00 +3.583335E+02 +1.129833E+01 -2.848395E-01 +1.129833E+01 +9.236378E+02 
 +3.562071E+02 -1.102787E+01 -5.569048E+00 -1.102787E+01 +3.622983E+02 +8.997899E+00 -5.569048E+00 +8.997899E+00 +9.110917E+02 
 +3.817480E+02 -6.624682E+00 +6.081842E-01 -6.624682E+00 +3.713247E+02 +4.792268E+00 +6.081842E-01 +4.792268E+00 +9.235320E+02 
 +3.911973E+02 -3.566754E+00 +1.057238E+01 -3.566754E+00 +3.612275E+02 -1.364154E+00 +1.057238E+01 -1.364154E+00 +9.431996E+02 
 +3.750917E+02 +1.323676E+00 -8.393212E+00 +1.323676E+00 +3.473135E+02 -4.696110E+00 -8.393212E+00 -4.696110E+00 +9.407306E+02 
 +3.641531E+02 +3.328990E+00 -1.162137E+01 +3.328990E+00 +3.426685E+02 -1.030398E+01 -1.162137E+01 -1.030398E+01 +9.289051E+02 
 +3.547660E+02 +9.953949E+00 -5.677433E+00 +9.953949E+00 +3.539656E+02 -1.267668E+01 -5.677433E+00 -1.267668E+01 +9.376778E+02 
 +3.267531E+02 +1.319577E+01 -6.290335E+00 +1.319577E+01 +3.616195E+02 -1.014503E+01 -6.290335E+00 -1.014503E+01 +9.509660E+02 
 +3.312706E+02 +1.114746E+01 -6.330106E+00 +1.114746E+01 +3.632306E+02 -9.541572E+00 -6.330106E+00 -9.541572E+00 +9.511937E+02 
 +3.702131E+02 -2.518674E+00 +1.059061E+00 -2.518674E+00 +3.794613E+02 -1.431558E+01 +1.059061E+00 -1.431558E+01 +9.423567E+02 
 +3.765652E+02 -3.981356E+00 +8.813017E+00 -3.981356E+00 +3.887963E+02 -1.548698E+01 +8.813017E+00 -1.548698E+01 +9.327943E+02 
 +3.777043E+02 -6.308179E+00 +1.215064E+01 -6.308179E+00 +3.937607E+02 -7.853894E+00 +1.215064E+01 -7.853894E+00 +9.323679E+02 
 +3.799503E+02 -7.271883E+00 +9.492938E+00 -7.271883E+00 +3.934059E+02 -4.823492E+00 +9.492938E+00 -4.823492E+00 +9.314832E+02 
 +3.735592E+02 -5.015937E+00 +7.202598E+00 -5.015937E+00 +3.890556E+02 -5.309887E+00 +7.202598E+00 -5.309887E+00 +9.362423E+02 
 +3.597625E+02 -2.214254E+00 +2.504470E+00 -2.214254E+00 +3.756453E+02 -9.161019E+00 +2.504470E+00 -9.161019E+00 +9.372446E+02 
 +3.633997E+02 +9.278073E-01 -9.378450E+00 +9.278073E-01 +3.682590E+02 -4.362856E+00 -9.378450E+00 -4.362856E+00 +9.526809E+02 
 +3.734074E+02 +4.191261E+00 -4.882641E+00 +4.191261E+00 +3.562998E+02 -4.439523E+00 -4.882641E+00 -4.439523E+00 +9.589332E+02 
 +3.676621E+02 +6.026260E+00 +1.727234E+00 +6.026260E+00 +3.525616E+02 -8.888097E+00 +1.727234E+00 -8.888097E+00 +9.604183E+02 
 +3.394814E+02 +1.188633E+01 -9.589777E+00 +1.188633E+01 +3.419397E+02 -1.117146E+01 -9.589777E+00 -1.117146E+01 +9.521193E+02 
 +3.532655E+02 +5.172558E+00 +3.351550E+00 +5.172558E+00 +3.489466E+02 -1.199972E+01 +3.351550E+00 -1.199972E+01 +9.460803E+02 
 +3.460207E+02 -1.102489E+00 +8.295060E+00 -1.102489E+00 +3.446993E+02 -1.015140E+01 +8.295060E+00 -1.015140E+01 +9.293692E+02 
 +3.431939E+02 -1.127925E+01 +1.427688E+01 -1.127925E+01 +3.451342E+02 -6.168018E+00 +1.427688E+01 -6.168018E+00 +9.117244E+02 
 +3.627485E+02 -1.486954E+01 -2.895828E+00 -1.486954E+01 +3.617847E+02 +2.088182E+00 -2.895828E+00 +2.088182E+00 +9.064607E+02 
 +3.826781E+02 -1.632666E+01 +5.488521E-01 -1.632666E+01 +3.711901E+02 +9.266125E+00 +5.488521E-01 +9.266125E+00 +9.048210E+02 
 +4.021839E+02 -9.656855E+00 +1.232997E+01 -9.656855E+00 +3.814350E+02 +1.298001E+01 +1.232997E+01 +1.298001E+01 +9.139958E+02 
 +3.728431E+02 +7.532947E-01 +6.346235E+00 +7.532947E-01 +3.685664E+02 +4.881488E+00 +6.346235E+00 +4.881488E+00 +9.107761E+02 
 +3.576478E+02 +3.456483E+00 -2.100678E+00 +3.456483E+00 +3.614785E+02 -6.601060E+00 -2.100678E+00 -6.601060E+00 +9.212696E+02 
 +3.579400E+02 +1.312330E+01 +1.134588E+00 +1.312330E+01 +3.684933E+02 -1.439235E+01 +1.134588E+00 -1.439235E+01 +9.492370E+02 
 +3.409799E+02 +1.410033E+01 -4.268750E+00 +1.410033E+01 +3.625018E+02 -6.661264E+00 -4.268750E+00 -6.661264E+00 +9.601123E+02 
 +3.254176E+02 +2.062896E+01 -1.014302E+01 +2.062896E+01 +3.568767E+02 +5.830293E+00 -1.014302E+01 +5.830293E+00 +9.586145E+02 
 +3.376629E+02 +1.699064E+01 -7.336912E+00 +1.699064E+01 +3.702741E+02 -9.558541E-01 -7.336912E+00 -9.558541E-01 +9.508810E+02 
 +3.745342E+02 +7.454305E+00 +6.706939E+00 +7.454305E+00 +3.941594E+02 -7.203312E+00 +6.706939E+00 -7.203312E+00 +9.427487E+02 
 +3.908379E+02 -2.322985E+00 +1.406028E+01 -2.322985E+00 +4.003619E+02 -2.357753E+00 +1.406028E+01 -2.357753E+00 +9.380601E+02 
 +3.850237E+02 -2.056580E+00 +9.238417E+00 -2.056580E+00 +3.934183E+02 -6.607942E-01 +9.238417E+00 -6.607942E-01 +9.352802E+02 
 +3.776915E+02 -9.230011E-01 +6.097976E+00 -9.230011E-01 +3.912704E+02 -8.372218E-01 +6.097976E+00 -8.372218E-01 +9.383153E+02 
 +3.633886E+02 -1.194903E+00 -3.658169E+00 -1.194903E+00 +3.831677E+02 -3.043087E+00 -3.658169E+00 -3.043087E+00 +9.446973E+02 
 +3.603030E+02 -7.437953E-01 -7.889353E+00 -7.437953E-01 +3.672136E+02 -9.246228E-01 -7.889353E+00 -9.246228E-01 +9.576865E+02 
 +3.795018E+02 +4.567205E+00 -4.300072E-01 +4.567205E+00 +3.612989E+02 +1.473797E+00 -4.300072E-01 +1.473797E+00 +9.582417E+02 
 +3.655657E+02 +6.256770E+00 -2.563733E+00 +6.256770E+00 +3.454176E+02 -2.676496E+00 -2.563733E+00 -2.676496E+00 +9.539592E+02 
 +3.482896E+02 +7.887738E+00 -3.148665E+00 +7.887738E+00 +3.400919E+02 -1.054374E+01 -3.148665E+00 -1.054374E+01 +9.557729E+02 
 +3.545965E+02 +5.042218E+00 +7.148611E+00 +5.042218E+00 +3.540725E+02 -1.535729E+01 +7.148611E+00 -1.535729E+01 +9.484473E+02 
 +3.549968E+02 -2.262040E+00 +1.983340E+01 -2.262040E+00 +3.682632E+02 -1.361859E+01 +1.983340E+01 -1.361859E+01 +9.393304E+02 
 +3.413525E+02 -1.405283E+01 +2.532311E+01 -1.405283E+01 +3.651666E+02 -1.616787E+01 +2.532311E+01 -1.616787E+01 +9.229469E+02 
 +3.947856E+02 -1.778708E+01 +1.548300E+01 -1.778708E+01 +3.872684E+02 -1.261304E+01 +1.548300E+01 -1.261304E+01 +9.254008E+02 
 +3.967126E+02 -1.699103E+01 +6.737929E+00 -1.699103E+01 +3.834697E+02 -5.483789E+00 +6.737929E+00 -5.483789E+00 +9.038099E+02 
 +3.990387E+02 -8.889322E+00 +1.258321E+01 -8.889322E+00 +3.935522E+02 -5.023709E+00 +1.258321E+01 -5.023709E+00 +8.825519E+02 
 +4.055586E+02 -2.880252E+00 +1.520699E+01 -2.880252E+00 +4.019033E+02 -4.745340E+00 +1.520699E+01 -4.745340E+00 +8.958714E+02 
 +3.615314E+02 +1.257382E+01 +5.945845E+00 +1.257382E+01 +3.770823E+02 -6.594854E+00 +5.945845E+00 -6.594854E+00 +9.208825E+02 
 +3.454964E+02 +2.605137E+01 +4.031003E+00 +2.605137E+01 +3.653489E+02 -7.879280E+00 +4.031003E+00 -7.879280E+00 +9.478872E+02 
 +3.316665E+02 +1.990437E+01 +2.601032E-01 +1.990437E+01 +3.494065E+02 -2.908019E+00 +2.601032E-01 -2.908019E+00 +9.441058E+02 
 +3.310374E+02 +2.201098E+01 -8.879580E+00 +2.201098E+01 +3.554621E+02 -2.977084E-01 -8.879580E+00 -2.977084E-01 +9.467197E+02 
 +3.298119E+02 +2.202944E+01 -9.513665E+00 +2.202944E+01 +3.679031E+02 -1.067649E+00 -9.513665E+00 -1.067649E+00 +9.635407E+02 
 +3.510505E+02 +2.124509E+01 +2.888825E+00 +2.124509E+01 +3.847212E+02 +5.708948E+00 +2.888825E+00 +5.708948E+00 +9.605312E+02 
 +4.009009E+02 +2.539839E+00 +1.603061E+01 +2.539839E+00 +4.061270E+02 +6.265647E+00 +1.603061E+01 +6.265647E+00 +9.571704E+02 
 +3.849818E+02 +1.833690E+00 +1.106242E+01 +1.833690E+00 +3.933227E+02 -3.235006E+00 +1.106242E+01 -3.235006E+00 +9.502007E+02 
 +3.799409E+02 -5.040905E-01 +6.962783E+00 -5.040905E-01 +3.913821E+02 -3.780823E+00 +6.962783E+00 -3.780823E+00 +9.548031E+02 
 +3.694002E+02 -1.847882E+00 -9.649774E-01 -1.847882E+00 +3.807891E+02 -2.985397E+00 -9.649774E-01 -2.985397E+00 +9.583524E+02 
 +3.675788E+02 -1.455029E+00 -1.056151E+00 -1.455029E+00 +3.714380E+02 -3.486652E+00 -1.056151E+00 -3.486652E+00 +9.636362E+02 
 +3.726881E+02 +4.182521E-01 +3.799298E+00 +4.182521E-01 +3.684991E+02 +6.469705E+00 +3.799298E+00 +6.469705E+00 +9.539366E+02 
 +3.601515E+02 +5.458581E+00 -2.726568E+00 +5.458581E+00 +3.594403E+02 +1.704340E+01 -2.726568E+00 +1.704340E+01 +9.344216E+02 
 +3.571745E+02 +4.864459E+00 -2.317803E+00 +4.864459E+00 +3.683948E+02 +1.654057E+01 -2.317803E+00 +1.654057E+01 +9.379006E+02 
 +3.629066E+02 -1.542936E+00 +2.672226E+00 -1.542936E+00 +3.825844E+02 +4.971726E+00 +2.672226E+00 +4.971726E+00 +9.396890E+02 
 +3.832221E+02 -7.496022E+00 +2.197911E+01 -7.496022E+00 +4.035868E+02 -7.133064E+00 +2.197911E+01 -7.133064E+00 +9.521997E+02 
 +3.717544E+02 -1.086223E+01 +1.779890E+01 -1.086223E+01 +3.997049E+02 -1.591263E+01 +1.779890E+01 -1.591263E+01 +9.544688E+02 
 +4.206473E+02 -1.409713E+01 +1.449651E+01 -1.409713E+01 +4.079120E+02 -2.145081E+01 +1.449651E+01 -2.145081E+01 +9.370484E+02 
 +4.002574E+02 -8.208612E+00 +8.989765E+00 -8.208612E+00 +3.950557E+02 -2.029189E+01 +8.989765E+00 -2.029189E+01 +8.958901E+02 
 +3.971382E+02 -5.135766E+00 +1.244044E+01 -5.135766E+00 +4.011115E+02 -1.632319E+01 +1.244044E+01 -1.632319E+01 +8.757036E+02 
 +4.096376E+02 -9.983843E+00 +1.517043E+01 -9.983843E+00 +4.093408E+02 -9.719722E+00 +1.517043E+01 -9.719722E+00 +8.785853E+02 
 +3.949520E+02 -5.374825E+00 +1.077719E+01 -5.374825E+00 +4.045509E+02 -4.273353E+00 +1.077719E+01 -4.273353E+00 +9.104282E+02 
 +3.205418E+02 +9.527307E+00 +4.684957E+00 +9.527307E+00 +3.590026E+02 -9.414015E+00 +4.684957E+00 -9.414015E+00 +9.266367E+02 
 +3.258043E+02 +7.615923E+00 +6.059633E+00 +7.615923E+00 +3.569608E+02 -9.007466E+00 +6.059633E+00 -9.007466E+00 +9.453888E+02 
 +3.387060E+02 +1.834255E+01 -5.217213E+00 +1.834255E+01 +3.622305E+02 -4.987913E+00 -5.217213E+00 -4.987913E+00 +9.548087E+02 
 +3.436258E+02 +1.595104E+01 -9.494923E+00 +1.595104E+01 +3.717978E+02 -3.651895E+00 -9.494923E+00 -3.651895E+00 +9.800173E+02 
 +3.418926E+02 +1.906145E+01 -3.273611E+00 +1.906145E+01 +3.722521E+02 +3.299852E+00 -3.273611E+00 +3.299852E+00 +9.737851E+02 
 +3.861723E+02 -6.418962E-02 +9.038274E+00 -6.418962E-02 +3.927624E+02 -1.271543E+00 +9.038274E+00 -1.271543E+00 +9.643979E+02 
 +3.811838E+02 +3.235512E+00 +1.032039E+01 +3.235512E+00 +3.900166E+02 -7.521191E+00 +1.032039E+01 -7.521191E+00 +9.613630E+02 
 +3.815371E+02 -1.250517E+00 +7.664504E+00 -1.250517E+00 +3.877062E+02 -5.661259E+00 +7.664504E+00 -5.661259E+00 +9.710668E+02 
 +3.764185E+02 -7.314199E-01 +1.916220E+00 -7.314199E-01 +3.796990E+02 -6.868069E+00 +1.916220E+00 -6.868069E+00 +9.725144E+02 
 +3.740136E+02 +8.579427E-01 +3.026178E+00 +8.579427E-01 +3.761204E+02 -1.076302E+01 +3.026178E+00 -1.076302E+01 +9.772992E+02 
 +3.561460E+02 -2.531596E-01 +5.069967E+00 -2.531596E-01 +3.676798E+02 -4.282979E+00 +5.069967E+00 -4.282979E+00 +9.611292E+02 
 +3.541881E+02 +7.003887E+00 +2.166474E+00 +7.003887E+00 +3.602027E+02 +1.035163E+01 +2.166474E+00 +1.035163E+01 +9.304980E+02 
 +3.416626E+02 +1.214714E+01 -1.020071E+00 +1.214714E+01 +3.507431E+02 +1.364976E+01 -1.020071E+00 +1.364976E+01 +9.162536E+02 
 +3.563432E+02 +1.260219E+01 -2.947052E+00 +1.260219E+01 +3.508468E+02 +3.772179E+00 -2.947052E+00 +3.772179E+00 +9.315746E+02 
 +3.703901E+02 +1.389014E+01 +1.417735E+01 +1.389014E+01 +3.464415E+02 -9.647483E+00 +1.417735E+01 -9.647483E+00 +9.371460E+02 
 +3.656210E+02 +7.988275E+00 +8.747309E+00 +7.988275E+00 +3.494589E+02 -2.072909E+01 +8.747309E+00 -2.072909E+01 +9.344417E+02 
 +3.968064E+02 -2.531279E+00 -7.839681E-02 -2.531279E+00 +3.894832E+02 -2.048236E+01 -7.839681E-02 -2.048236E+01 +9.220985E+02 
 +3.941488E+02 -7.168484E-01 +6.109722E+00 -7.168484E-01 +3.990777E+02 -1.815366E+01 +6.109722E+00 -1.815366E+01 +8.919044E+02 
 +3.911530E+02 -2.916176E+00 +1.068092E+01 -2.916176E+00 +3.972267E+02 -1.449470E+01 +1.068092E+01 -1.449470E+01 +8.778639E+02 
 +3.874933E+02 -6.162987E+00 +1.426887E+01 -6.162987E+00 +3.975444E+02 -7.076720E+00 +1.426887E+01 -7.076720E+00 +8.766491E+02 
 +3.949203E+02 -1.131792E+01 +1.393494E+01 -1.131792E+01 +4.009134E+02 -3.931355E-01 +1.393494E+01 -3.931355E-01 +9.008155E+02 
 +3.221585E+02 +2.152896E+00 +3.946608E+00 +2.152896E+00 +3.568089E+02 +2.547530E-01 +3.946608E+00 +2.547530E-01 +9.175665E+02 
 +3.181983E+02 +9.713653E+00 +7.032747E+00 +9.713653E+00 +3.519007E+02 -1.581589E+00 +7.032747E+00 -1.581589E+00 +9.527543E+02 
 +3.561851E+02 +2.103359E+01 +2.257337E+00 +2.103359E+01 +3.765826E+02 +1.683288E+00 +2.257337E+00 +1.683288E+00 +9.764233E+02 
 +3.636594E+02 +1.972443E+01 -3.524263E+00 +1.972443E+01 +3.837941E+02 +3.291672E+00 -3.524263E+00 +3.291672E+00 +9.972863E+02 
 +3.415871E+02 +2.214175E+01 -4.360067E-01 +2.214175E+01 +3.623897E+02 +3.994104E-01 -4.360067E-01 +3.994104E-01 +9.860978E+02 
 +3.749897E+02 +7.604573E+00 +8.435761E+00 +7.604573E+00 +3.814005E+02 -7.460627E+00 +8.435761E+00 -7.460627E+00 +9.725798E+02 
 +3.852889E+02 +8.227134E+00 +1.598991E+01 +8.227134E+00 +3.934518E+02 -9.034722E+00 +1.598991E+01 -9.034722E+00 +9.715461E+02 
 +3.806233E+02 +1.291902E+00 +1.136132E+01 +1.291902E+00 +3.869211E+02 -7.899165E+00 +1.136132E+01 -7.899165E+00 +9.812736E+02 
 +3.815107E+02 +2.654631E-01 +5.915492E+00 +2.654631E-01 +3.814991E+02 -1.116571E+01 +5.915492E+00 -1.116571E+01 +9.848360E+02 
 +3.745281E+02 +5.621973E+00 +6.762045E+00 +5.621973E+00 +3.771831E+02 -2.093623E+01 +6.762045E+00 -2.093623E+01 +9.755135E+02 
 +3.505871E+02 +8.531897E+00 +8.086263E+00 +8.531897E+00 +3.747113E+02 -1.412997E+01 +8.086263E+00 -1.412997E+01 +9.546620E+02 
 +3.470872E+02 +9.592430E+00 +4.241136E+00 +9.592430E+00 +3.609830E+02 +3.626817E+00 +4.241136E+00 +3.626817E+00 +9.350010E+02 
 +3.604525E+02 +1.986609E+01 -1.288409E-01 +1.986609E+01 +3.467593E+02 +7.530305E+00 -1.288409E-01 +7.530305E+00 +9.344549E+02 
 +3.727927E+02 +1.541178E+01 -2.139712E+00 +1.541178E+01 +3.483491E+02 -3.261023E+00 -2.139712E+00 -3.261023E+00 +9.471222E+02 
 +3.756533E+02 +1.460910E+01 +1.021629E+01 +1.460910E+01 +3.615949E+02 -7.456153E+00 +1.021629E+01 -7.456153E+00 +9.413864E+02 
 +3.913354E+02 +1.724832E+00 +9.911682E+00 +1.724832E+00 +3.925041E+02 -1.313671E+01 +9.911682E+00 -1.313671E+01 +9.315464E+02 
 +3.941195E+02 -3.044928E+00 -2.501207E+00 -3.044928E+00 +4.005278E+02 -1.873238E+01 -2.501207E+00 -1.873238E+01 +9.101082E+02 
 +3.916170E+02 +2.031980E-01 +2.099590E-01 +2.031980E-01 +3.994787E+02 -1.554287E+01 +2.099590E-01 -1.554287E+01 +8.946543E+02 
 +3.882247E+02 +2.186354E+00 +7.680938E+00 +2.186354E+00 +3.983485E+02 -9.718194E+00 +7.680938E+00 -9.718194E+00 +8.893469E+02 
 +3.803960E+02 -2.170656E+00 +1.229568E+01 -2.170656E+00 +3.974772E+02 -2.261383E+00 +1.229568E+01 -2.261383E+00 +8.923178E+02 
 +3.662016E+02 -1.060027E+01 +9.165560E+00 -1.060027E+01 +3.928564E+02 +1.790501E+00 +9.165560E+00 +1.790501E+00 +8.940815E+02 
 +3.495929E+02 -7.095589E+00 -1.486017E+00 -7.095589E+00 +3.755243E+02 +2.759192E+00 -1.486017E+00 +2.759192E+00 +9.147007E+02 
 +3.067751E+02 +4.931445E+00 +1.132175E+00 +4.931445E+00 +3.425616E+02 +3.503987E+00 +1.132175E+00 +3.503987E+00 +9.462850E+02 
 +3.496349E+02 +1.608363E+01 +5.907370E+00 +1.608363E+01 +3.484746E+02 +5.974838E+00 +5.907370E+00 +5.974838E+00 +9.787613E+02 
 +3.638471E+02 +2.027980E+01 +5.637208E+00 +2.027980E+01 +3.501634E+02 +1.154164E+00 +5.637208E+00 +1.154164E+00 +9.938008E+02 
 +3.508737E+02 +2.373078E+01 +1.127639E+01 +2.373078E+01 +3.521197E+02 -4.900988E+00 +1.127639E+01 -4.900988E+00 +1.002223E+03 
 +3.594809E+02 +2.201755E+01 +1.488004E+01 +2.201755E+01 +3.659323E+02 -7.233696E+00 +1.488004E+01 -7.233696E+00 +9.887820E+02 
 +3.811642E+02 +6.780813E+00 +2.678769E+01 +6.780813E+00 +3.854669E+02 -7.877880E+00 +2.678769E+01 -7.877880E+00 +9.878076E+02 
 +3.889524E+02 +3.669395E+00 +2.184435E+01 +3.669395E+00 +3.919064E+02 -8.863491E+00 +2.184435E+01 -8.863491E+00 +1.007064E+03 
 +3.814814E+02 +5.162439E-01 +1.240041E+01 +5.162439E-01 +3.855470E+02 -1.575779E+01 +1.240041E+01 -1.575779E+01 +1.001145E+03 
 +3.719962E+02 +7.467662E+00 +1.033741E+01 +7.467662E+00 +3.916991E+02 -2.115157E+01 +1.033741E+01 -2.115157E+01 +9.714505E+02 
 +3.759339E+02 +9.281124E+00 +9.732262E+00 +9.281124E+00 +4.049345E+02 -1.626842E+01 +9.732262E+00 -1.626842E+01 +9.546855E+02 
 +3.834165E+02 +8.249958E+00 +1.058222E+01 +8.249958E+00 +3.988282E+02 -5.550612E+00 +1.058222E+01 -5.550612E+00 +9.416490E+02 
 +3.649120E+02 +2.170968E+01 +1.603269E+00 +2.170968E+01 +3.589240E+02 +3.103567E+00 +1.603269E+00 +3.103567E+00 +9.400272E+02 
 +3.687324E+02 +1.576560E+01 +1.989300E+00 +1.576560E+01 +3.601192E+02 -1.387490E-01 +1.989300E+00 -1.387490E-01 +9.505400E+02 
 +3.751650E+02 +1.277705E+01 +9.868015E+00 +1.277705E+01 +3.582060E+02 -2.008880E+00 +9.868015E+00 -2.008880E+00 +9.478512E+02 
 +3.706760E+02 +1.573621E+01 +1.476229E+01 +1.573621E+01 +3.434735E+02 -8.097972E+00 +1.476229E+01 -8.097972E+00 +9.373658E+02 
 +3.869412E+02 +8.610463E+00 +3.090897E+00 +8.610463E+00 +3.776851E+02 -1.292502E+01 +3.090897E+00 -1.292502E+01 +9.201304E+02 
 +3.997664E+02 +1.983382E+00 -1.173670E+00 +1.983382E+00 +4.009389E+02 -8.622829E+00 -1.173670E+00 -8.622829E+00 +9.035351E+02 
 +3.865701E+02 +6.386319E+00 +2.810317E+00 +6.386319E+00 +3.930891E+02 +2.543113E+00 +2.810317E+00 +2.543113E+00 +8.911023E+02 
 +3.780507E+02 +8.650801E+00 +4.454320E+00 +8.650801E+00 +4.002931E+02 +1.029059E+01 +4.454320E+00 +1.029059E+01 +9.013692E+02 
 +3.632404E+02 +3.603653E+00 -4.127288E+00 +3.603653E+00 +4.042023E+02 +9.630451E+00 -4.127288E+00 +9.630451E+00 +9.168602E+02 
 +3.562970E+02 -3.292333E+00 -1.274910E+01 -3.292333E+00 +3.839745E+02 +6.284515E+00 -1.274910E+01 +6.284515E+00 +9.328136E+02 
 +2.907928E+02 +8.185483E+00 -6.526142E+00 +8.185483E+00 +3.224580E+02 +4.432827E+00 -6.526142E+00 +4.432827E+00 +9.419298E+02 
 +3.381141E+02 +1.165406E+01 +6.268729E+00 +1.165406E+01 +3.391270E+02 +6.986336E+00 +6.268729E+00 +6.986336E+00 +9.863369E+02 
 +3.630877E+02 +1.287573E+01 +1.128466E+01 +1.287573E+01 +3.423033E+02 +2.805223E+00 +1.128466E+01 +2.805223E+00 +9.937625E+02 
 +3.659800E+02 +1.106269E+01 +1.557861E+01 +1.106269E+01 +3.460936E+02 -4.394043E+00 +1.557861E+01 -4.394043E+00 +1.005482E+03 
 +3.537790E+02 +1.662797E+01 +1.602602E+01 +1.662797E+01 +3.551651E+02 -8.647398E+00 +1.602602E+01 -8.647398E+00 +1.004304E+03 
 +3.734617E+02 +7.434564E-02 +2.775257E+01 +7.434564E-02 +3.707906E+02 -1.527785E+01 +2.775257E+01 -1.527785E+01 +1.001858E+03 
 +3.908760E+02 +9.291987E-01 +3.008091E+01 +9.291987E-01 +3.820836E+02 -2.322795E+01 +3.008091E+01 -2.322795E+01 +1.014489E+03 
 +3.784565E+02 -6.282433E-01 +1.727171E+01 -6.282433E-01 +3.829117E+02 -2.489171E+01 +1.727171E+01 -2.489171E+01 +9.997035E+02 
 +3.532482E+02 +1.282943E+01 +7.844855E+00 +1.282943E+01 +3.627337E+02 +1.837834E+00 +7.844855E+00 +1.837834E+00 +9.877693E+02 
 +3.687462E+02 +6.841469E+00 +8.145093E+00 +6.841469E+00 +3.754046E+02 +1.552701E+00 +8.145093E+00 +1.552701E+00 +9.769502E+02 
 +4.064552E+02 -7.527946E+00 +1.989659E+01 -7.527946E+00 +4.162846E+02 -1.932958E+00 +1.989659E+01 -1.932958E+00 +9.671660E+02 
 +3.973358E+02 -1.486928E+01 +6.276272E+00 -1.486928E+01 +4.233342E+02 +7.578408E+00 +6.276272E+00 +7.578408E+00 +9.679120E+02 
 +4.155892E+02 +1.406579E+01 +5.097584E+00 +1.406579E+01 +3.978954E+02 +6.177406E+00 +5.097584E+00 +6.177406E+00 +9.712330E+02 
 +3.850107E+02 +1.527798E+01 +1.187261E+01 +1.527798E+01 +3.523395E+02 -1.875694E+00 +1.187261E+01 -1.875694E+00 +9.503376E+02 
 +3.740729E+02 +2.549377E+01 +1.642638E+01 +2.549377E+01 +3.363891E+02 -6.370387E+00 +1.642638E+01 -6.370387E+00 +9.595652E+02 
 +3.644047E+02 +2.800494E+01 +6.717517E+00 +2.800494E+01 +3.327317E+02 -1.541371E+01 +6.717517E+00 -1.541371E+01 +9.406416E+02 
 +3.736350E+02 +1.426157E+01 -3.485524E-01 +1.426157E+01 +3.573974E+02 -1.204359E+01 -3.485524E-01 -1.204359E+01 +9.081581E+02 
 +3.723420E+02 +5.935031E+00 +3.580292E-01 +5.935031E+00 +3.779897E+02 -1.427188E+00 +3.580292E-01 -1.427188E+00 +8.937600E+02 
 +3.680668E+02 +2.106089E+00 +2.342316E+00 +2.106089E+00 +3.848530E+02 +4.806720E+00 +2.342316E+00 +4.806720E+00 +9.141832E+02 
 +3.395523E+02 -1.469878E+01 -4.710886E+00 -1.469878E+01 +3.623013E+02 +2.945142E+00 -4.710886E+00 +2.945142E+00 +9.380633E+02 
 +3.431677E+02 -2.149414E+01 -1.087778E+01 -2.149414E+01 +3.707884E+02 +1.455247E+00 -1.087778E+01 +1.455247E+00 +9.593038E+02 
 +3.076645E+02 -1.283393E+01 -7.474400E+00 -1.283393E+01 +3.607865E+02 +1.453807E+00 -7.474400E+00 +1.453807E+00 +9.600037E+02 
 +3.261638E+02 -4.158488E+00 +3.749081E+00 -4.158488E+00 +3.474971E+02 +5.002593E+00 +3.749081E+00 +5.002593E+00 +9.779110E+02 
 +3.466070E+02 +2.176154E+00 +1.134550E+01 +2.176154E+00 +3.330956E+02 +3.107397E+00 +1.134550E+01 +3.107397E+00 +9.820947E+02 
 +3.603041E+02 +5.853302E+00 +1.504871E+01 +5.853302E+00 +3.367193E+02 -3.413246E+00 +1.504871E+01 -3.413246E+00 +9.954772E+02 
 +3.522594E+02 +4.816258E+00 +1.217273E+01 +4.816258E+00 +3.182274E+02 -4.018163E+00 +1.217273E+01 -4.018163E+00 +9.963835E+02 
 +3.540169E+02 -1.042169E+00 +1.306713E+01 -1.042169E+00 +3.095473E+02 -7.079665E+00 +1.306713E+01 -7.079665E+00 +9.865815E+02 
 +3.521564E+02 +5.254845E-01 +2.680399E+01 +5.254845E-01 +3.134780E+02 -1.489731E+01 +2.680399E+01 -1.489731E+01 +9.778730E+02 
 +3.494041E+02 +5.711419E+00 +1.308891E+01 +5.711419E+00 +3.290253E+02 -9.024846E+00 +1.308891E+01 -9.024846E+00 +9.780399E+02 
 +3.616266E+02 +1.958684E+01 +9.273162E+00 +1.958684E+01 +3.527655E+02 +1.298218E+01 +9.273162E+00 +1.298218E+01 +1.006175E+03 
 +3.578060E+02 +1.392017E+01 +9.859374E+00 +1.392017E+01 +3.466011E+02 +1.500299E+01 +9.859374E+00 +1.500299E+01 +9.907058E+02 
 +3.697004E+02 +2.552814E+01 +1.757509E+01 +2.552814E+01 +3.543812E+02 +6.387609E+00 +1.757509E+01 +6.387609E+00 +9.713789E+02 
 +3.943707E+02 +8.934899E+00 +1.196761E+01 +8.934899E+00 +3.904019E+02 +1.221789E+01 +1.196761E+01 +1.221789E+01 +9.713810E+02 
 +4.517710E+02 +1.026582E+01 +5.664041E+00 +1.026582E+01 +4.393904E+02 +8.060264E+00 +5.664041E+00 +8.060264E+00 +9.907994E+02 
 +4.054871E+02 -1.235350E+01 +2.885346E+00 -1.235350E+01 +4.065266E+02 -2.385491E+00 +2.885346E+00 -2.385491E+00 +9.653657E+02 
 +3.849486E+02 -8.191104E+00 +2.672632E+00 -8.191104E+00 +3.788350E+02 -1.736202E+00 +2.672632E+00 -1.736202E+00 +9.601765E+02 
 +3.719579E+02 -6.437459E+00 -9.884497E-01 -6.437459E+00 +3.563431E+02 -1.111559E+01 -9.884497E-01 -1.111559E+01 +9.530791E+02 
 +3.530543E+02 -1.510839E+01 -2.383116E+00 -1.510839E+01 +3.385228E+02 -1.753008E+01 -2.383116E+00 -1.753008E+01 +9.299342E+02 
 +3.555540E+02 -2.028892E+01 +1.420148E-01 -2.028892E+01 +3.437940E+02 -1.338930E+01 +1.420148E-01 -1.338930E+01 +9.230827E+02 
 +3.541311E+02 -2.020558E+01 +3.640778E+00 -2.020558E+01 +3.492786E+02 -7.698789E+00 +3.640778E+00 -7.698789E+00 +9.367287E+02 
 +3.509041E+02 -2.608577E+01 +2.691472E+00 -2.608577E+01 +3.585906E+02 -3.192719E-01 +2.691472E+00 -3.192719E-01 +9.582561E+02 
 +3.385835E+02 -1.171584E+01 -1.984085E+00 -1.171584E+01 +3.774868E+02 +4.929488E+00 -1.984085E+00 +4.929488E+00 +9.681548E+02 
 +3.299647E+02 -1.348244E+01 -5.331507E-01 -1.348244E+01 +3.905307E+02 +1.674725E+00 -5.331507E-01 +1.674725E+00 +9.698223E+02 
 +3.352734E+02 -1.198942E+01 +3.084024E+00 -1.198942E+01 +3.800397E+02 +1.589546E+00 +3.084024E+00 +1.589546E+00 +9.711569E+02 
 +3.484958E+02 -2.731783E+00 +1.258298E+01 -2.731783E+00 +3.535288E+02 +5.448608E+00 +1.258298E+01 +5.448608E+00 +9.760020E+02 
 +3.338450E+02 +4.863893E+00 +1.707833E+01 +4.863893E+00 +3.088095E+02 +8.898001E-01 +1.707833E+01 +8.898001E-01 +9.726502E+02 
 +3.564136E+02 -2.638202E-01 +5.213228E+00 -2.638202E-01 +2.993457E+02 -8.251845E+00 +5.213228E+00 -8.251845E+00 +9.784762E+02 
 +3.583093E+02 -8.823492E-01 +2.222346E+00 -8.823492E-01 +2.991336E+02 -1.239574E+01 +2.222346E+00 -1.239574E+01 +9.746893E+02 
 +3.611363E+02 -2.234037E+00 +1.921138E+01 -2.234037E+00 +3.162900E+02 -1.411851E+01 +1.921138E+01 -1.411851E+01 +9.780505E+02 
 +3.556396E+02 +1.340747E+01 +8.309622E+00 +1.340747E+01 +3.365564E+02 -6.461140E+00 +8.309622E+00 -6.461140E+00 +9.912464E+02 
 +3.583816E+02 +2.042018E+01 +9.021449E+00 +2.042018E+01 +3.397143E+02 +1.066620E+01 +9.021449E+00 +1.066620E+01 +9.979304E+02 
 +3.704084E+02 +8.688453E+00 +8.270728E+00 +8.688453E+00 +3.556603E+02 +1.084709E+01 +8.270728E+00 +1.084709E+01 +9.964634E+02 
 +3.868440E+02 +1.715151E+01 +6.999368E+00 +1.715151E+01 +3.650437E+02 +3.027132E+00 +6.999368E+00 +3.027132E+00 +9.881203E+02 
 +3.999131E+02 +1.106827E+01 +3.012872E+00 +1.106827E+01 +3.875839E+02 +1.260556E+01 +3.012872E+00 +1.260556E+01 +9.797531E+02 
 +4.107477E+02 +8.615464E+00 -3.843098E+00 +8.615464E+00 +4.220564E+02 +1.367411E+01 -3.843098E+00 +1.367411E+01 +9.797252E+02 
 +3.778229E+02 -1.897570E+01 -8.987038E+00 -1.897570E+01 +4.031282E+02 +5.528166E+00 -8.987038E+00 +5.528166E+00 +9.681500E+02 
 +3.747390E+02 -1.529879E+01 -7.859356E+00 -1.529879E+01 +3.895894E+02 +2.802253E+00 -7.859356E+00 +2.802253E+00 +9.666871E+02 
 +3.626855E+02 -1.345231E+01 -3.395354E+00 -1.345231E+01 +3.691042E+02 -6.133800E+00 -3.395354E+00 -6.133800E+00 +9.551431E+02 
 +3.650031E+02 -1.644584E+01 -1.094106E+00 -1.644584E+01 +3.556994E+02 -1.100431E+01 -1.094106E+00 -1.100431E+01 +9.526439E+02 
 +3.646144E+02 -1.851236E+01 -8.830474E-01 -1.851236E+01 +3.499099E+02 -9.998379E+00 -8.830474E-01 -9.998379E+00 +9.535892E+02 
 +3.724536E+02 -2.109429E+01 +3.187042E-01 -2.109429E+01 +3.569197E+02 -3.866834E+00 +3.187042E-01 -3.866834E+00 +9.611198E+02 
 +3.822102E+02 -2.726409E+01 +2.645387E+00 -2.726409E+01 +3.737706E+02 +3.167951E+00 +2.645387E+00 +3.167951E+00 +9.739691E+02 
 +3.421107E+02 -8.769717E+00 +2.060034E+00 -8.769717E+00 +3.715760E+02 +6.545193E+00 +2.060034E+00 +6.545193E+00 +9.702276E+02 
 +3.492602E+02 -1.059376E+01 +8.984326E+00 -1.059376E+01 +3.935356E+02 +4.699300E+00 +8.984326E+00 +4.699300E+00 +9.789994E+02 
 +3.485779E+02 -1.092539E+01 +1.283205E+01 -1.092539E+01 +3.995434E+02 +8.240120E-01 +1.283205E+01 +8.240120E-01 +9.719224E+02 
 +3.575984E+02 -7.495805E+00 +2.134216E+01 -7.495805E+00 +3.892573E+02 +5.668757E+00 +2.134216E+01 +5.668757E+00 +9.718888E+02 
 +3.426466E+02 -1.552208E+00 +2.257144E+01 -1.552208E+00 +3.373111E+02 +9.964242E-01 +2.257144E+01 +9.964242E-01 +9.646829E+02 
 +3.695909E+02 +6.400812E+00 +7.593666E+00 +6.400812E+00 +3.197908E+02 -1.295643E+01 +7.593666E+00 -1.295643E+01 +9.674517E+02 
 +3.713817E+02 +1.014074E+01 +4.660928E+00 +1.014074E+01 +3.189287E+02 -1.561502E+01 +4.660928E+00 -1.561502E+01 +9.662475E+02 
 +3.736061E+02 +1.124820E+01 +9.127725E+00 +1.124820E+01 +3.290935E+02 -1.646978E+01 +9.127725E+00 -1.646978E+01 +9.795625E+02 
 +3.536379E+02 +2.175961E+01 +6.025169E+00 +2.175961E+01 +3.289593E+02 -8.274042E+00 +6.025169E+00 -8.274042E+00 +9.885081E+02 
 +3.558636E+02 +1.973080E+01 +3.312849E+00 +1.973080E+01 +3.392081E+02 +5.213521E+00 +3.312849E+00 +5.213521E+00 +9.905071E+02 
 +3.682301E+02 +1.296078E+01 +4.207602E+00 +1.296078E+01 +3.537754E+02 +5.748128E+00 +4.207602E+00 +5.748128E+00 +9.922401E+02 
 +3.823636E+02 +1.135062E+01 +5.669967E-01 +1.135062E+01 +3.684022E+02 +3.705258E+00 +5.669967E-01 +3.705258E+00 +9.883653E+02 
 +3.905428E+02 +9.183334E+00 -6.581238E+00 +9.183334E+00 +3.839315E+02 +9.341236E+00 -6.581238E+00 +9.341236E+00 +9.780732E+02 
 +3.827811E+02 -5.709607E+00 -1.016083E+01 -5.709607E+00 +3.896277E+02 +1.003236E+01 -1.016083E+01 +1.003236E+01 +9.676599E+02 
 +3.662807E+02 -2.455287E+01 -8.806338E+00 -2.455287E+01 +3.882219E+02 +6.030069E+00 -8.806338E+00 +6.030069E+00 +9.681686E+02 
 +3.606631E+02 -1.425160E+01 -2.533792E+00 -1.425160E+01 +3.887030E+02 -1.632333E-02 -2.533792E+00 -1.632333E-02 +9.739112E+02 
 +3.531434E+02 -1.337224E+01 +3.961605E+00 -1.337224E+01 +3.708906E+02 -8.246249E+00 +3.961605E+00 -8.246249E+00 +9.639887E+02 
 +3.649040E+02 -1.678919E+01 +3.324490E+00 -1.678919E+01 +3.640258E+02 -1.151980E+01 +3.324490E+00 -1.151980E+01 +9.591531E+02 
 +3.686842E+02 -1.866366E+01 +1.432798E-01 -1.866366E+01 +3.618040E+02 -1.116880E+01 +1.432798E-01 -1.116880E+01 +9.598636E+02 
 +3.768600E+02 -2.434357E+01 -4.885389E-01 -2.434357E+01 +3.633380E+02 -5.371706E+00 -4.885389E-01 -5.371706E+00 +9.694486E+02 
 +3.765715E+02 -3.279044E+01 -3.375648E-01 -3.279044E+01 +3.612729E+02 -7.682765E-01 -3.375648E-01 -7.682765E-01 +9.776331E+02 
 +3.592930E+02 -1.315804E+01 +4.747871E+00 -1.315804E+01 +3.606595E+02 +2.333413E+00 +4.747871E+00 +2.333413E+00 +9.739378E+02 
 +3.624111E+02 -1.546539E+01 +1.524012E+01 -1.546539E+01 +3.732328E+02 +8.252400E-01 +1.524012E+01 +8.252400E-01 +9.699207E+02 
 +3.619357E+02 -1.194023E+01 +2.221088E+01 -1.194023E+01 +3.858594E+02 -2.126041E+00 +2.221088E+01 -2.126041E+00 +9.651840E+02 
 +3.549816E+02 -1.350222E+01 +2.409410E+01 -1.350222E+01 +3.804198E+02 +7.413288E-01 +2.409410E+01 +7.413288E-01 +9.632980E+02 
 +3.473884E+02 -9.869810E+00 +2.199815E+01 -9.869810E+00 +3.472394E+02 -7.844785E-01 +2.199815E+01 -7.844785E-01 +9.580483E+02 
 +3.687261E+02 +6.851017E+00 +1.089175E+01 +6.851017E+00 +3.354353E+02 -1.275324E+01 +1.089175E+01 -1.275324E+01 +9.597551E+02 
 +3.710525E+02 +6.450025E+00 +3.916021E+00 +6.450025E+00 +3.287574E+02 -1.906559E+01 +3.916021E+00 -1.906559E+01 +9.598440E+02 
 +3.745068E+02 +6.389859E+00 -1.197179E+00 +6.389859E+00 +3.340463E+02 -1.556267E+01 -1.197179E+00 -1.556267E+01 +9.717247E+02 
 +3.580476E+02 +1.835900E+01 +2.067657E+00 +1.835900E+01 +3.348467E+02 -5.787402E+00 +2.067657E+00 -5.787402E+00 +9.818157E+02 
 +3.619656E+02 +1.600318E+01 -3.769067E-02 +1.600318E+01 +3.490698E+02 +1.956368E+00 -3.769067E-02 +1.956368E+00 +9.823805E+02 
 +3.663253E+02 +1.187591E+01 +2.262855E+00 +1.187591E+01 +3.554454E+02 +2.401144E+00 +2.262855E+00 +2.401144E+00 +9.837912E+02 
 +3.653894E+02 +1.018117E+01 +1.192594E+00 +1.018117E+01 +3.622296E+02 +4.524165E+00 +1.192594E+00 +4.524165E+00 +9.825386E+02 
 +3.683103E+02 +1.572554E+01 -1.829312E+00 +1.572554E+01 +3.700324E+02 +7.197332E+00 -1.829312E+00 +7.197332E+00 +9.733015E+02 
 +3.552314E+02 -8.263576E+00 -5.798497E+00 -8.263576E+00 +3.506384E+02 +7.374925E+00 -5.798497E+00 +7.374925E+00 +9.573846E+02 
 +3.598213E+02 -1.857076E+01 -7.251341E+00 -1.857076E+01 +3.589293E+02 +5.493817E+00 -7.251341E+00 +5.493817E+00 +9.617563E+02 
 +3.502404E+02 -1.857330E+01 -3.441613E-01 -1.857330E+01 +3.804893E+02 -3.689356E+00 -3.441613E-01 -3.689356E+00 +9.659868E+02 
 +3.530848E+02 -1.813413E+01 +6.462784E+00 -1.813413E+01 +3.830877E+02 -9.207190E+00 +6.462784E+00 -9.207190E+00 +9.691836E+02 
 +3.578921E+02 -1.937346E+01 +3.373160E+00 -1.937346E+01 +3.745879E+02 -1.019646E+01 +3.373160E+00 -1.019646E+01 +9.674941E+02 
 +3.659252E+02 -2.129349E+01 +1.051447E+00 -2.129349E+01 +3.656459E+02 -6.631090E+00 +1.051447E+00 -6.631090E+00 +9.682509E+02 
 +3.703072E+02 -2.812452E+01 -2.427718E-01 -2.812452E+01 +3.558671E+02 -2.838664E+00 -2.427718E-01 -2.838664E+00 +9.753626E+02 
 +3.618540E+02 -3.081670E+01 -3.128692E+00 -3.081670E+01 +3.452117E+02 -3.455602E+00 -3.128692E+00 -3.455602E+00 +9.782012E+02 
 +3.786203E+02 -7.874375E+00 +9.571108E+00 -7.874375E+00 +3.522983E+02 -1.105913E+01 +9.571108E+00 -1.105913E+01 +9.737006E+02 
 +3.714323E+02 -1.180905E+01 +1.646070E+01 -1.180905E+01 +3.523523E+02 -1.865688E+01 +1.646070E+01 -1.865688E+01 +9.544360E+02 
 +3.716345E+02 -1.189290E+01 +2.270223E+01 -1.189290E+01 +3.617638E+02 -2.063969E+01 +2.270223E+01 -2.063969E+01 +9.577669E+02 
 +3.571238E+02 -2.619632E+01 +1.962400E+01 -2.619632E+01 +3.468830E+02 -1.223661E+01 +1.962400E+01 -1.223661E+01 +9.569877E+02 
 +3.354326E+02 -1.809312E+01 +1.540284E+01 -1.809312E+01 +3.301648E+02 -7.549902E+00 +1.540284E+01 -7.549902E+00 +9.454384E+02 
 +3.527449E+02 -2.238330E+00 +7.409327E+00 -2.238330E+00 +3.390064E+02 -1.083630E+01 +7.409327E+00 -1.083630E+01 +9.514001E+02 
 +3.654060E+02 +1.730220E+00 -3.606525E-01 +1.730220E+00 +3.372950E+02 -1.958774E+01 -3.606525E-01 -1.958774E+01 +9.575891E+02 
 +3.771165E+02 +6.280596E+00 -6.587445E+00 +6.280596E+00 +3.389875E+02 -2.204911E+01 -6.587445E+00 -2.204911E+01 +9.661571E+02 
 +3.597497E+02 +2.013023E+01 -2.132178E+00 +2.013023E+01 +3.369168E+02 -8.502020E+00 -2.132178E+00 -8.502020E+00 +9.719201E+02 
 +3.685085E+02 +1.441330E+01 -4.406452E+00 +1.441330E+01 +3.581673E+02 -3.033892E+00 -4.406452E+00 -3.033892E+00 +9.793282E+02 
 +3.661312E+02 +1.110067E+01 +8.974800E-01 +1.110067E+01 +3.565114E+02 -1.319415E+00 +8.974800E-01 -1.319415E+00 +9.765803E+02 
 +3.644997E+02 +1.604325E+01 +2.244497E+00 +1.604325E+01 +3.611447E+02 +1.030514E+00 +2.244497E+00 +1.030514E+00 +9.763302E+02 
 +3.563742E+02 +2.096755E+01 -1.534961E+00 +2.096755E+01 +3.517316E+02 +5.715686E+00 -1.534961E+00 +5.715686E+00 +9.640795E+02 
 +3.308366E+02 -3.321073E+00 -5.279249E+00 -3.321073E+00 +3.344417E+02 +5.523195E+00 -5.279249E+00 +5.523195E+00 +9.527335E+02 
 +3.361100E+02 -8.864400E+00 -6.194154E+00 -8.864400E+00 +3.606393E+02 +8.589617E-01 -6.194154E+00 +8.589617E-01 +9.620823E+02 
 +3.623287E+02 -2.377295E+01 -2.355438E+00 -2.377295E+01 +3.914276E+02 -6.312473E+00 -2.355438E+00 -6.312473E+00 +9.709777E+02 
 +3.648432E+02 -2.472553E+01 +5.607875E+00 -2.472553E+01 +3.914693E+02 -7.804383E+00 +5.607875E+00 -7.804383E+00 +9.735520E+02 
 +3.488604E+02 -2.209065E+01 +8.222722E-01 -2.209065E+01 +3.708841E+02 -4.634654E+00 +8.222722E-01 -4.634654E+00 +9.697560E+02 
 +3.630438E+02 -2.066634E+01 -2.398360E+00 -2.066634E+01 +3.636221E+02 -2.913562E+00 -2.398360E+00 -2.913562E+00 +9.769370E+02 
 +3.593197E+02 -2.773546E+01 -1.678485E+00 -2.773546E+01 +3.450412E+02 -3.936982E+00 -1.678485E+00 -3.936982E+00 +9.808237E+02 
 +3.556308E+02 -2.580480E+01 -2.578254E+00 -2.580480E+01 +3.398649E+02 -2.833350E+00 -2.578254E+00 -2.833350E+00 +9.832800E+02 
 +3.979530E+02 -8.759669E+00 +1.491707E+01 -8.759669E+00 +3.656621E+02 -8.791786E+00 +1.491707E+01 -8.791786E+00 +9.862573E+02 
 +4.027619E+02 -1.046985E+01 +2.447178E+01 -1.046985E+01 +3.707643E+02 -1.728322E+01 +2.447178E+01 -1.728322E+01 +9.650143E+02 
 +3.958179E+02 -1.424132E+01 +2.446868E+01 -1.424132E+01 +3.721805E+02 -2.138824E+01 +2.446868E+01 -2.138824E+01 +9.644482E+02 
 +3.806752E+02 -3.224734E+01 +1.546509E+01 -3.224734E+01 +3.697359E+02 -1.894051E+01 +1.546509E+01 -1.894051E+01 +9.702499E+02 
 +3.670431E+02 -2.000076E+01 +1.099103E+01 -2.000076E+01 +3.830885E+02 -1.240676E+01 +1.099103E+01 -1.240676E+01 +9.655867E+02 
 +3.598916E+02 -1.598205E+01 +6.997353E+00 -1.598205E+01 +3.700405E+02 -7.904978E+00 +6.997353E+00 -7.904978E+00 +9.567518E+02 
 +3.668716E+02 -3.027543E+00 -3.163743E+00 -3.027543E+00 +3.420529E+02 -1.184164E+01 -3.163743E+00 -1.184164E+01 +9.530093E+02 
 +3.749897E+02 +4.673627E+00 -1.333920E+01 +4.673627E+00 +3.431158E+02 -2.077524E+01 -1.333920E+01 -2.077524E+01 +9.632060E+02 
 +3.652102E+02 +2.128150E+01 -1.068190E+01 +2.128150E+01 +3.495835E+02 -1.411311E+01 -1.068190E+01 -1.411311E+01 +9.743709E+02 
 +3.825548E+02 +1.873390E+01 -1.195547E+01 +1.873390E+01 +3.674044E+02 -1.192690E+01 -1.195547E+01 -1.192690E+01 +9.841875E+02 
 +3.718807E+02 +1.497168E+01 -1.351044E-01 +1.497168E+01 +3.563946E+02 -1.036316E+01 -1.351044E-01 -1.036316E+01 +9.757140E+02 
 +3.570039E+02 +2.529866E+01 +7.125067E-01 +2.529866E+01 +3.479063E+02 -7.258442E+00 +7.125067E-01 -7.258442E+00 +9.633991E+02 
 +3.658447E+02 +1.975363E+01 -3.531047E+00 +1.975363E+01 +3.559246E+02 -2.336357E-01 -3.531047E+00 -2.336357E-01 +9.612844E+02 
 +3.251933E+02 +1.265460E+01 -8.472694E+00 +1.265460E+01 +3.534550E+02 +3.765215E+00 -8.472694E+00 +3.765215E+00 +9.533615E+02 
 +3.234353E+02 +1.200847E+01 -1.122164E+01 +1.200847E+01 +3.676680E+02 +3.333835E+00 -1.122164E+01 +3.333835E+00 +9.611289E+02 
 +3.466128E+02 +1.125175E+00 -9.343064E+00 +1.125175E+00 +3.755664E+02 -2.592635E+00 -9.343064E+00 -2.592635E+00 +9.666510E+02 
 +3.796657E+02 -1.068421E+01 -1.566832E+00 -1.068421E+01 +4.000285E+02 -4.805723E+00 -1.566832E+00 -4.805723E+00 +9.880535E+02 
 +3.565120E+02 -1.569786E+01 -1.708419E+00 -1.569786E+01 +3.749510E+02 +6.013887E+00 -1.708419E+00 +6.013887E+00 +9.777358E+02 
 +3.506241E+02 -1.262030E+01 -4.258584E+00 -1.262030E+01 +3.468705E+02 +1.019006E+01 -4.258584E+00 +1.019006E+01 +9.699113E+02 
 +3.539913E+02 -1.540405E+01 -1.153899E+01 -1.540405E+01 +3.428525E+02 +1.185147E+01 -1.153899E+01 +1.185147E+01 +9.785998E+02 
 +3.615128E+02 -1.917529E+00 -4.546622E+00 -1.917529E+00 +3.627438E+02 +1.622017E+01 -4.546622E+00 +1.622017E+01 +9.864036E+02 
 +3.848869E+02 -7.792092E-01 +4.013232E+00 -7.792092E-01 +3.728308E+02 +1.086799E+01 +4.013232E+00 +1.086799E+01 +9.815422E+02 
 +4.087775E+02 -4.918516E+00 +2.039464E+01 -4.918516E+00 +3.710987E+02 -9.230067E+00 +2.039464E+01 -9.230067E+00 +9.634920E+02 
 +4.362471E+02 -1.419573E+01 +2.047306E+01 -1.419573E+01 +3.988599E+02 -1.747472E+01 +2.047306E+01 -1.747472E+01 +9.743141E+02 
 +4.064033E+02 -2.317732E+01 +7.523461E+00 -2.317732E+01 +4.083321E+02 -1.300023E+01 +7.523461E+00 -1.300023E+01 +9.805492E+02 
 +3.742251E+02 -1.633841E+01 +1.537111E+00 -1.633841E+01 +3.869786E+02 -6.617346E+00 +1.537111E+00 -6.617346E+00 +9.679364E+02 
 +3.694623E+02 -1.423467E+01 +5.109493E-01 -1.423467E+01 +3.735239E+02 -1.922879E+00 +5.109493E-01 -1.922879E+00 +9.606177E+02 
 +3.589660E+02 -7.801041E+00 -5.947561E+00 -7.801041E+00 +3.588208E+02 -3.970105E+00 -5.947561E+00 -3.970105E+00 +9.514022E+02 
 +3.747638E+02 +4.997306E+00 -1.690159E+01 +4.997306E+00 +3.569235E+02 -1.342213E+01 -1.690159E+01 -1.342213E+01 +9.634225E+02 
 +3.781262E+02 +2.277368E+01 -1.619235E+01 +2.277368E+01 +3.636718E+02 -1.532144E+01 -1.619235E+01 -1.532144E+01 +9.790373E+02 
 +3.867937E+02 +2.261194E+01 -1.571431E+01 +2.261194E+01 +3.646548E+02 -1.679326E+01 -1.571431E+01 -1.679326E+01 +9.868834E+02 
 +3.849763E+02 +1.108428E+01 -2.807018E-01 +1.108428E+01 +3.688374E+02 -1.127949E+01 -2.807018E-01 -1.127949E+01 +9.858290E+02 
 +3.568698E+02 +2.417045E+01 -6.664333E+00 +2.417045E+01 +3.492827E+02 -1.419006E+01 -6.664333E+00 -1.419006E+01 +9.666996E+02 
 +3.661955E+02 +1.774984E+01 -5.023779E+00 +1.774984E+01 +3.635439E+02 -6.731003E+00 -5.023779E+00 -6.731003E+00 +9.660845E+02 
 +3.412374E+02 +1.597647E+01 -1.063319E+01 +1.597647E+01 +3.687693E+02 +6.450205E+00 -1.063319E+01 +6.450205E+00 +9.587477E+02 
 +3.472409E+02 +9.726648E+00 -1.986838E+01 +9.726648E+00 +3.751867E+02 +7.713488E+00 -1.986838E+01 +7.713488E+00 +9.674191E+02 
 +3.296922E+02 +8.186085E+00 -1.909301E+01 +8.186085E+00 +3.526673E+02 +5.289282E-01 -1.909301E+01 +5.289282E-01 +9.640038E+02 
 +3.530325E+02 +2.808039E+00 -1.626274E+01 +2.808039E+00 +3.530142E+02 -1.517846E+00 -1.626274E+01 -1.517846E+00 +9.814473E+02 
 +3.488286E+02 -5.194900E+00 -1.269426E+01 -5.194900E+00 +3.521361E+02 +8.762616E+00 -1.269426E+01 +8.762616E+00 +9.747925E+02 
 +3.175571E+02 -1.396193E+01 -2.582861E+00 -1.396193E+01 +3.323309E+02 +1.192712E+01 -2.582861E+00 +1.192712E+01 +9.582461E+02 
 +3.611846E+02 -1.257327E+01 -1.291344E+01 -1.257327E+01 +3.577301E+02 +1.683787E+01 -1.291344E+01 +1.683787E+01 +9.822514E+02 
 +3.668539E+02 +1.548984E+00 -7.383083E-01 +1.548984E+00 +3.653212E+02 +1.690208E+01 -7.383083E-01 +1.690208E+01 +9.806972E+02 
 +3.689683E+02 +7.276343E+00 +1.532391E+00 +7.276343E+00 +3.597684E+02 +9.213067E+00 +1.532391E+00 +9.213067E+00 +9.705466E+02 
 +3.831568E+02 +1.172029E+01 +1.393824E+01 +1.172029E+01 +3.594854E+02 -1.451613E+00 +1.393824E+01 -1.451613E+00 +9.616350E+02 
 +4.186127E+02 -1.077702E+01 +1.189422E+01 -1.077702E+01 +3.585856E+02 -1.111237E+01 +1.189422E+01 -1.111237E+01 +9.685911E+02 
 +3.993206E+02 -1.293075E+01 +1.232788E+00 -1.293075E+01 +3.539024E+02 -6.925993E+00 +1.232788E+00 -6.925993E+00 +9.628695E+02 
 +3.768675E+02 -1.400015E+01 -4.939934E+00 -1.400015E+01 +3.737135E+02 -2.449050E+00 -4.939934E+00 -2.449050E+00 +9.621861E+02 
 +3.615496E+02 -1.536757E+01 -9.787937E+00 -1.536757E+01 +3.640705E+02 +2.899813E+00 -9.787937E+00 +2.899813E+00 +9.584690E+02 
 +3.545836E+02 -2.627149E+00 -1.221623E+01 -2.627149E+00 +3.687481E+02 +6.464041E-01 -1.221623E+01 +6.464041E-01 +9.519327E+02 
 +3.846346E+02 +1.152042E+01 -1.739075E+01 +1.152042E+01 +3.984440E+02 -1.102600E+01 -1.739075E+01 -1.102600E+01 +9.689197E+02 
 +3.926779E+02 +2.285551E+01 -2.037587E+01 +2.285551E+01 +3.785766E+02 -1.770404E+01 -2.037587E+01 -1.770404E+01 +9.806315E+02 
 +3.783884E+02 +1.885421E+01 -8.341110E+00 +1.885421E+01 +3.829680E+02 -9.749213E+00 -8.341110E+00 -9.749213E+00 +9.940980E+02 
 +3.827729E+02 +2.155567E+00 -4.214863E+00 +2.155567E+00 +3.860272E+02 -3.510607E+00 -4.214863E+00 -3.510607E+00 +9.970054E+02 
 +3.721730E+02 +1.747116E+00 -1.287599E+01 +1.747116E+00 +3.840093E+02 -5.002785E+00 -1.287599E+01 -5.002785E+00 +9.906045E+02 
 +3.579545E+02 +1.764112E+00 -9.964078E+00 +1.764112E+00 +3.724386E+02 +2.041771E+00 -9.964078E+00 +2.041771E+00 +9.704413E+02 
 +3.457426E+02 -9.338484E+00 -2.047507E+01 -9.338484E+00 +3.528211E+02 +1.439357E+01 -2.047507E+01 +1.439357E+01 +9.518609E+02 
 +3.445227E+02 -2.185011E+01 -2.599061E+01 -2.185011E+01 +3.276912E+02 +1.615159E+01 -2.599061E+01 +1.615159E+01 +9.521242E+02 
 +3.323215E+02 -1.730966E+01 -2.211099E+01 -1.730966E+01 +3.122827E+02 +7.719011E+00 -2.211099E+01 +7.719011E+00 +9.540993E+02 
 +3.451940E+02 -1.213787E+01 -2.197673E+01 -1.213787E+01 +3.284365E+02 -2.096299E+00 -2.197673E+01 -2.096299E+00 +9.693567E+02 
 +3.554593E+02 -7.767426E+00 -2.212245E+01 -7.767426E+00 +3.553938E+02 +3.217364E+00 -2.212245E+01 +3.217364E+00 +9.805558E+02 
 +3.111325E+02 -1.739912E+01 -6.754502E+00 -1.739912E+01 +3.396114E+02 +1.618163E+01 -6.754502E+00 +1.618163E+01 +9.649987E+02 
 +3.637023E+02 +3.074687E+00 -3.628598E+00 +3.074687E+00 +3.695568E+02 +2.365202E+01 -3.628598E+00 +2.365202E+01 +9.859779E+02 
 +3.783563E+02 +6.013434E+00 +9.113439E+00 +6.013434E+00 +3.729331E+02 +1.582021E+01 +9.113439E+00 +1.582021E+01 +9.849892E+02 
 +3.711255E+02 +7.452490E+00 +1.424510E+01 +7.452490E+00 +3.556012E+02 +4.046323E+00 +1.424510E+01 +4.046323E+00 +9.727642E+02 
 +3.664640E+02 +1.231863E+01 +2.164095E+01 +1.231863E+01 +3.486681E+02 -5.813908E+00 +2.164095E+01 -5.813908E+00 +9.692541E+02 
 +4.002605E+02 -1.049307E+01 +1.478240E+01 -1.049307E+01 +3.515761E+02 -7.560058E+00 +1.478240E+01 -7.560058E+00 +9.819885E+02 
 +3.903318E+02 -2.011091E+00 +3.071514E+00 -2.011091E+00 +3.348382E+02 +4.735950E+00 +3.071514E+00 +4.735950E+00 +9.623726E+02 
 +3.882682E+02 -1.389878E+01 -4.318776E+00 -1.389878E+01 +3.506017E+02 +9.351175E+00 -4.318776E+00 +9.351175E+00 +9.599193E+02 
 +3.550370E+02 -1.491140E+01 -1.147439E+01 -1.491140E+01 +3.500649E+02 +1.236119E+01 -1.147439E+01 +1.236119E+01 +9.548344E+02 
 +3.649248E+02 +1.691719E+01 -1.814498E+01 +1.691719E+01 +3.790612E+02 -8.547414E-01 -1.814498E+01 -8.547414E-01 +9.542361E+02 
 +3.933550E+02 +1.732293E+01 -1.172202E+01 +1.732293E+01 +4.097414E+02 -2.080087E+01 -1.172202E+01 -2.080087E+01 +9.656696E+02 
 +3.848539E+02 +2.500223E+01 -1.357113E+01 +2.500223E+01 +3.984397E+02 -1.957541E+01 -1.357113E+01 -1.957541E+01 +9.811620E+02 
 +3.518898E+02 +2.236994E+01 +5.057653E-01 +2.236994E+01 +3.797752E+02 -7.804591E+00 +5.057653E-01 -7.804591E+00 +9.887578E+02 
 +3.689965E+02 +1.502401E+01 -6.105286E+00 +1.502401E+01 +3.986895E+02 -1.240399E+01 -6.105286E+00 -1.240399E+01 +1.004815E+03 
 +3.581270E+02 +9.182149E+00 -1.285745E+01 +9.182149E+00 +3.878462E+02 -8.209892E+00 -1.285745E+01 -8.209892E+00 +9.994332E+02 
 +3.426267E+02 +1.036814E+01 -1.158469E+01 +1.036814E+01 +3.635147E+02 -2.597759E+00 -1.158469E+01 -2.597759E+00 +9.743008E+02 
 +3.544473E+02 -7.872807E+00 -2.378328E+01 -7.872807E+00 +3.420746E+02 +6.680162E+00 -2.378328E+01 +6.680162E+00 +9.502024E+02 
 +3.564095E+02 -1.360735E+01 -2.455590E+01 -1.360735E+01 +3.258708E+02 +8.313592E+00 -2.455590E+01 +8.313592E+00 +9.488245E+02 
 +3.558441E+02 -1.442075E+01 -1.787551E+01 -1.442075E+01 +3.262086E+02 +1.883996E+00 -1.787551E+01 +1.883996E+00 +9.556953E+02 
 +3.507061E+02 -1.566894E+01 -1.713210E+01 -1.566894E+01 +3.278920E+02 -1.341209E-01 -1.713210E+01 -1.341209E-01 +9.570689E+02 
 +3.563244E+02 -1.196349E+01 -2.007754E+01 -1.196349E+01 +3.398875E+02 +2.881533E+00 -2.007754E+01 +2.881533E+00 +9.729026E+02 
 +3.436396E+02 -2.113548E+01 -1.160967E+01 -2.113548E+01 +3.532118E+02 +1.136716E+01 -1.160967E+01 +1.136716E+01 +9.806746E+02 
 +3.696038E+02 -6.194876E-01 +2.191470E+00 -6.194876E-01 +3.728146E+02 +1.646915E+01 +2.191470E+00 +1.646915E+01 +9.834005E+02 
 +3.650973E+02 +1.828141E+00 +8.427978E+00 +1.828141E+00 +3.604096E+02 +1.049218E+01 +8.427978E+00 +1.049218E+01 +9.730034E+02 
 +3.697360E+02 +4.665849E+00 +1.966092E+01 +4.665849E+00 +3.589062E+02 +2.596647E+00 +1.966092E+01 +2.596647E+00 +9.736070E+02 
 +3.612824E+02 +8.934534E+00 +2.357936E+01 +8.934534E+00 +3.395804E+02 -4.630635E+00 +2.357936E+01 -4.630635E+00 +9.671379E+02 
 +3.919081E+02 -1.163243E+01 +1.386470E+01 -1.163243E+01 +3.569687E+02 -8.485580E+00 +1.386470E+01 -8.485580E+00 +9.706621E+02 
 +3.855153E+02 +6.120027E+00 +4.501883E+00 +6.120027E+00 +3.587966E+02 -1.699590E+00 +4.501883E+00 -1.699590E+00 +9.494676E+02 
 +3.954479E+02 -6.588555E+00 +5.021463E+00 -6.588555E+00 +3.558063E+02 +1.020713E+01 +5.021463E+00 +1.020713E+01 +9.466872E+02 
 +3.792189E+02 -8.077213E+00 -1.902668E+00 -8.077213E+00 +3.677359E+02 +1.142289E+01 -1.902668E+00 +1.142289E+01 +9.448012E+02 
 +3.549636E+02 +1.813453E+01 -6.884889E+00 +1.813453E+01 +3.838417E+02 -3.111235E+00 -6.884889E+00 -3.111235E+00 +9.387804E+02 
 +3.968235E+02 +4.373293E-01 +1.002293E+01 +4.373293E-01 +4.109752E+02 -1.371950E+01 +1.002293E+01 -1.371950E+01 +9.583567E+02 
 +3.724924E+02 +8.470857E+00 +5.758073E+00 +8.470857E+00 +3.892038E+02 -9.019130E+00 +5.758073E+00 -9.019130E+00 +9.658761E+02 
 +3.278611E+02 +2.201187E+01 +1.449611E+00 +2.201187E+01 +3.675608E+02 -1.303500E+00 +1.449611E+00 -1.303500E+00 +9.738254E+02 
 +3.523216E+02 +1.310526E+01 -2.684011E+00 +1.310526E+01 +3.887373E+02 -8.696910E+00 -2.684011E+00 -8.696910E+00 +9.986901E+02 
 +3.541637E+02 +1.118944E+01 -9.053472E+00 +1.118944E+01 +3.845259E+02 -3.846988E+00 -9.053472E+00 -3.846988E+00 +9.900594E+02 
 +3.303398E+02 +1.768903E+01 -5.287804E+00 +1.768903E+01 +3.431086E+02 -1.575750E+00 -5.287804E+00 -1.575750E+00 +9.626248E+02 
 +3.478546E+02 +2.298980E-01 -1.097663E+01 +2.298980E-01 +3.254520E+02 +3.325115E+00 -1.097663E+01 +3.325115E+00 +9.434427E+02 
 +3.529080E+02 -9.336602E+00 -1.618122E+01 -9.336602E+00 +3.267524E+02 +3.516682E+00 -1.618122E+01 +3.516682E+00 +9.425045E+02 
 +3.509357E+02 -1.274619E+01 -1.395540E+01 -1.274619E+01 +3.279478E+02 -9.295193E-01 -1.395540E+01 -9.295193E-01 +9.461163E+02 
 +3.487064E+02 -1.269992E+01 -1.303492E+01 -1.269992E+01 +3.283804E+02 +2.926685E+00 -1.303492E+01 +2.926685E+00 +9.457654E+02 
 +3.494204E+02 -1.427301E+01 -1.366592E+01 -1.427301E+01 +3.270821E+02 +1.056667E+01 -1.366592E+01 +1.056667E+01 +9.583218E+02 
 +3.593080E+02 -1.913071E+01 -1.563155E+01 -1.913071E+01 +3.372432E+02 +1.028664E+01 -1.563155E+01 +1.028664E+01 +9.754020E+02 
 +3.715774E+02 -9.910768E+00 +3.576047E+00 -9.910768E+00 +3.536144E+02 +1.362781E+00 +3.576047E+00 +1.362781E+00 +9.746616E+02 
 +3.671734E+02 +8.222860E-01 +3.662600E+00 +8.222860E-01 +3.549497E+02 +3.589207E+00 +3.662600E+00 +3.589207E+00 +9.659847E+02 
 +3.617176E+02 +3.433872E+00 +1.717207E+01 +3.433872E+00 +3.526512E+02 -6.392335E+00 +1.717207E+01 -6.392335E+00 +9.631544E+02 
 +3.756117E+02 +8.827963E+00 +1.271750E+01 +8.827963E+00 +3.592283E+02 -2.857168E+01 +1.271750E+01 -2.857168E+01 +9.595795E+02 
 +3.882653E+02 +1.192607E+00 +1.008697E+01 +1.192607E+00 +3.704752E+02 -2.396124E+01 +1.008697E+01 -2.396124E+01 +9.430482E+02 
 +3.848850E+02 +1.061865E+01 +3.702245E+00 +1.061865E+01 +3.730034E+02 -7.952359E+00 +3.702245E+00 -7.952359E+00 +9.279697E+02 
 +3.893037E+02 -2.743057E+00 +1.571376E+01 -2.743057E+00 +3.892915E+02 +2.016466E+00 +1.571376E+01 +2.016466E+00 +9.324411E+02 
 +3.840615E+02 -6.205494E+00 +1.499034E+01 -6.205494E+00 +4.044972E+02 +9.356168E+00 +1.499034E+01 +9.356168E+00 +9.296018E+02 
 +3.711513E+02 +8.290014E+00 +1.896246E+01 +8.290014E+00 +3.954191E+02 +1.016977E+01 +1.896246E+01 +1.016977E+01 +9.325490E+02 
 +3.835008E+02 +5.038289E+00 +2.369143E+01 +5.038289E+00 +3.941711E+02 -2.841892E-01 +2.369143E+01 -2.841892E-01 +9.452428E+02 
 +3.788864E+02 +7.045833E+00 +1.186154E+01 +7.045833E+00 +3.885318E+02 -2.038557E+00 +1.186154E+01 -2.038557E+00 +9.521251E+02 
 +3.160254E+02 +2.564074E+01 -1.109671E+01 +2.564074E+01 +3.632850E+02 -6.356487E-01 -1.109671E+01 -6.356487E-01 +9.506059E+02 
 +3.281058E+02 +1.842087E+01 -4.466199E+00 +1.842087E+01 +3.721185E+02 -5.531406E+00 -4.466199E+00 -5.531406E+00 +9.728540E+02 
 +3.528415E+02 +7.017612E+00 -6.324381E+00 +7.017612E+00 +3.744519E+02 +3.355354E+00 -6.324381E+00 +3.355354E+00 +9.639022E+02 
 +3.482610E+02 +5.620551E+00 -3.869979E+00 +5.620551E+00 +3.563527E+02 +5.028540E+00 -3.869979E+00 +5.028540E+00 +9.512924E+02 
 +3.489087E+02 -2.839848E+00 -3.709517E+00 -2.839848E+00 +3.480344E+02 +3.157364E+00 -3.709517E+00 +3.157364E+00 +9.480190E+02 
 +3.483883E+02 -9.937662E+00 -6.491851E+00 -9.937662E+00 +3.398466E+02 +3.398236E+00 -6.491851E+00 +3.398236E+00 +9.468553E+02 
 +3.476636E+02 -1.283735E+01 -9.239756E+00 -1.283735E+01 +3.329482E+02 +1.726228E+00 -9.239756E+00 +1.726228E+00 +9.420107E+02 
 +3.447602E+02 -1.362888E+01 -9.597054E+00 -1.362888E+01 +3.290612E+02 +8.264704E+00 -9.597054E+00 +8.264704E+00 +9.377578E+02 
 +3.482584E+02 -1.719614E+01 -1.121295E+01 -1.719614E+01 +3.290849E+02 +1.497438E+01 -1.121295E+01 +1.497438E+01 +9.489139E+02 
 +3.616405E+02 -1.982569E+01 -1.649937E+01 -1.982569E+01 +3.343603E+02 +1.512785E+01 -1.649937E+01 +1.512785E+01 +9.636619E+02 
 +3.684958E+02 -1.753695E+01 -3.545567E+00 -1.753695E+01 +3.349757E+02 +2.591310E+00 -3.545567E+00 +2.591310E+00 +9.575814E+02 
 +3.792689E+02 -7.528698E+00 -2.866376E+00 -7.528698E+00 +3.424404E+02 -9.331277E+00 -2.866376E+00 -9.331277E+00 +9.533595E+02 
 +3.688558E+02 +3.376116E+00 +2.482340E+00 +3.376116E+00 +3.502157E+02 -2.117509E+01 +2.482340E+00 -2.117509E+01 +9.476641E+02 
 +3.781750E+02 +8.196099E+00 -2.987632E-01 +8.196099E+00 +3.609720E+02 -3.462826E+01 -2.987632E-01 -3.462826E+01 +9.374389E+02 
 +3.723767E+02 +3.023047E-01 +1.197741E+01 +3.023047E-01 +3.625255E+02 -2.291708E+01 +1.197741E+01 -2.291708E+01 +9.281052E+02 
 +3.687521E+02 +1.426058E+00 +9.674417E+00 +1.426058E+00 +3.746432E+02 -7.653184E+00 +9.674417E+00 -7.653184E+00 +9.278991E+02 
 +3.694013E+02 -6.422671E+00 +1.846907E+01 -6.422671E+00 +3.875611E+02 -9.047372E-01 +1.846907E+01 -9.047372E-01 +9.240769E+02 
 +3.726532E+02 -3.651087E+00 +2.248664E+01 -3.651087E+00 +3.974362E+02 +5.241299E+00 +2.248664E+01 +5.241299E+00 +9.184278E+02 
 +3.906212E+02 +6.470306E+00 +2.717992E+01 +6.470306E+00 +4.004277E+02 +9.519797E+00 +2.717992E+01 +9.519797E+00 +9.255717E+02 
 +3.856622E+02 +5.492144E-01 +1.802546E+01 +5.492144E-01 +3.909581E+02 +6.727845E+00 +1.802546E+01 +6.727845E+00 +9.329001E+02 
 +3.716949E+02 +3.123336E+00 +5.018804E+00 +3.123336E+00 +3.866012E+02 +6.435514E+00 +5.018804E+00 +6.435514E+00 +9.374447E+02 
 +3.263012E+02 +1.391490E+01 -1.195588E+01 +1.391490E+01 +3.704494E+02 -5.268914E+00 -1.195588E+01 -5.268914E+00 +9.718233E+02 
 +3.345163E+02 +1.170796E+01 -6.093858E+00 +1.170796E+01 +3.751382E+02 -4.495609E+00 -6.093858E+00 -4.495609E+00 +9.854678E+02 
 +3.397189E+02 +1.344227E+01 -3.258767E+00 +1.344227E+01 +3.540667E+02 +1.310509E+00 -3.258767E+00 +1.310509E+00 +9.610711E+02 
 +3.461449E+02 +1.097951E+01 -4.308134E+00 +1.097951E+01 +3.488528E+02 +7.389021E+00 -4.308134E+00 +7.389021E+00 +9.555916E+02 
 +3.525218E+02 +4.202331E+00 -6.948656E+00 +4.202331E+00 +3.510632E+02 +5.215734E+00 -6.948656E+00 +5.215734E+00 +9.488315E+02 
 +3.496204E+02 -4.801130E+00 -9.194436E-01 -4.801130E+00 +3.522972E+02 +4.641413E+00 -9.194436E-01 +4.641413E+00 +9.353489E+02 
 +3.409109E+02 -6.919158E+00 +2.804886E+00 -6.919158E+00 +3.446845E+02 +2.657231E+00 +2.804886E+00 +2.657231E+00 +9.204686E+02 
 +3.396790E+02 -7.089726E-01 +2.239345E+01 -7.089726E-01 +3.349908E+02 +4.106448E+00 +2.239345E+01 +4.106448E+00 +9.277081E+02 
 +3.504247E+02 -6.089410E+00 +1.698300E+01 -6.089410E+00 +3.335869E+02 +9.029698E+00 +1.698300E+01 +9.029698E+00 +9.411332E+02 
 +3.655469E+02 -6.527821E+00 +5.597604E+00 -6.527821E+00 +3.396726E+02 +8.244283E+00 +5.597604E+00 +8.244283E+00 +9.438366E+02 
 +3.830017E+02 -4.853178E+00 -9.661850E+00 -4.853178E+00 +3.527937E+02 -2.341189E+00 -9.661850E+00 -2.341189E+00 +9.559185E+02 
 +3.910928E+02 +3.840485E-01 -9.898629E+00 +3.840485E-01 +3.594747E+02 -1.670739E+01 -9.898629E+00 -1.670739E+01 +9.564334E+02 
 +3.882032E+02 -3.156231E-01 -1.449906E+01 -3.156231E-01 +3.534152E+02 -3.140968E+01 -1.449906E+01 -3.140968E+01 +9.521119E+02 
 +3.804872E+02 +2.445325E+00 -1.749445E+01 +2.445325E+00 +3.460802E+02 -3.677318E+01 -1.749445E+01 -3.677318E+01 +9.424471E+02 
 +3.611727E+02 -1.120771E+00 +2.866151E+00 -1.120771E+00 +3.531025E+02 -2.618887E+01 +2.866151E+00 -2.618887E+01 +9.319895E+02 
 +3.580978E+02 -4.823599E+00 +2.272092E+00 -4.823599E+00 +3.706645E+02 -1.371066E+01 +2.272092E+00 -1.371066E+01 +9.329936E+02 
 +3.648152E+02 -1.144036E+01 +1.032776E+01 -1.144036E+01 +3.794917E+02 -3.494740E+00 +1.032776E+01 -3.494740E+00 +9.267125E+02 
 +3.726263E+02 -1.150456E+01 +1.262088E+01 -1.150456E+01 +3.881588E+02 -1.753349E+00 +1.262088E+01 -1.753349E+00 +9.239319E+02 
 +3.829112E+02 -1.304861E+01 +1.367588E+01 -1.304861E+01 +3.905798E+02 -4.113552E+00 +1.367588E+01 -4.113552E+00 +9.259296E+02 
 +3.900335E+02 -1.926329E+01 +1.242932E+01 -1.926329E+01 +4.006513E+02 -1.019916E+01 +1.242932E+01 -1.019916E+01 +9.399775E+02 
 +3.620848E+02 -9.177900E+00 +2.233312E+00 -9.177900E+00 +3.843076E+02 -9.025261E+00 +2.233312E+00 -9.025261E+00 +9.484072E+02 
 +3.391820E+02 +2.014507E+01 +3.236179E-01 +2.014507E+01 +3.758727E+02 -2.977656E+00 +3.236179E-01 -2.977656E+00 +9.575609E+02 
 +3.569077E+02 +6.623481E+00 -1.267289E-01 +6.623481E+00 +3.723251E+02 +7.280688E+00 -1.267289E-01 +7.280688E+00 +9.655157E+02 
 +3.499186E+02 +8.572445E+00 +1.125460E+00 +8.572445E+00 +3.556492E+02 +1.038279E+01 +1.125460E+00 +1.038279E+01 +9.527309E+02 
 +3.525590E+02 +6.309891E+00 -1.340150E-01 +6.309891E+00 +3.569114E+02 +7.888393E+00 -1.340150E-01 +7.888393E+00 +9.662583E+02 
 +3.544477E+02 +1.999201E+00 +1.856390E+00 +1.999201E+00 +3.578092E+02 +5.353268E+00 +1.856390E+00 +5.353268E+00 +9.662638E+02 
 +3.597659E+02 -4.087690E+00 +8.572881E+00 -4.087690E+00 +3.612646E+02 +8.613891E+00 +8.572881E+00 +8.613891E+00 +9.581510E+02 
 +3.552295E+02 -9.268779E+00 +1.257506E+01 -9.268779E+00 +3.546207E+02 +9.213937E+00 +1.257506E+01 +9.213937E+00 +9.411911E+02 
 +3.485901E+02 -4.909736E+00 +3.292505E+01 -4.909736E+00 +3.400577E+02 +3.855364E+00 +3.292505E+01 +3.855364E+00 +9.348162E+02 
 +3.614577E+02 -3.041734E+00 +2.515326E+01 -3.041734E+00 +3.437482E+02 -2.246143E+00 +2.515326E+01 -2.246143E+00 +9.461850E+02 
 +3.737003E+02 -2.282175E+00 +8.987655E+00 -2.282175E+00 +3.512452E+02 -1.720012E+00 +8.987655E+00 -1.720012E+00 +9.514216E+02 
 +3.829610E+02 -2.304513E+00 -1.468693E+01 -2.304513E+00 +3.518744E+02 -4.940465E+00 -1.468693E+01 -4.940465E+00 +9.554328E+02 
 +3.820574E+02 +4.096677E+00 -1.455332E+01 +4.096677E+00 +3.494336E+02 -1.551727E+01 -1.455332E+01 -1.551727E+01 +9.554853E+02 
 +3.746502E+02 +5.241632E+00 -1.736213E+01 +5.241632E+00 +3.491824E+02 -2.682859E+01 -1.736213E+01 -2.682859E+01 +9.599017E+02 
 +3.330576E+02 +6.692835E+00 -1.246826E+01 +6.692835E+00 +3.364595E+02 -2.983509E+01 -1.246826E+01 -2.983509E+01 +9.419857E+02 
 +3.380728E+02 -3.612017E+00 +4.458884E-01 -3.612017E+00 +3.544600E+02 -2.551329E+01 +4.458884E-01 -2.551329E+01 +9.353694E+02 
 +3.704924E+02 -1.151649E+01 +6.409866E+00 -1.151649E+01 +3.765441E+02 -1.966469E+01 +6.409866E+00 -1.966469E+01 +9.371677E+02 
 +3.741930E+02 -9.754133E+00 +8.958232E+00 -9.754133E+00 +3.824137E+02 -9.038139E+00 +8.958232E+00 -9.038139E+00 +9.329405E+02 
 +3.755502E+02 -1.171759E+01 +1.010529E+01 -1.171759E+01 +3.907623E+02 -5.587659E+00 +1.010529E+01 -5.587659E+00 +9.316588E+02 
 +3.822966E+02 -1.641013E+01 +1.182426E+01 -1.641013E+01 +3.956818E+02 -7.965123E+00 +1.182426E+01 -7.965123E+00 +9.323846E+02 
 +3.811195E+02 -1.625105E+01 +1.330550E+01 -1.625105E+01 +3.951466E+02 -1.188976E+01 +1.330550E+01 -1.188976E+01 +9.358582E+02 
 +3.826394E+02 -1.051861E+01 +1.186567E+01 -1.051861E+01 +3.993095E+02 -1.243238E+01 +1.186567E+01 -1.243238E+01 +9.496410E+02 
 +3.534473E+02 +8.627938E+00 +1.667174E+00 +8.627938E+00 +3.617473E+02 -1.288650E+01 +1.667174E+00 -1.288650E+01 +9.374823E+02 
 +3.519501E+02 +4.274467E+00 -5.254317E-01 +4.274467E+00 +3.424577E+02 -1.252981E+01 -5.254317E-01 -1.252981E+01 +9.441394E+02 
 +3.434021E+02 +4.018386E+00 +5.659578E+00 +4.018386E+00 +3.374399E+02 -1.214193E+01 +5.659578E+00 -1.214193E+01 +9.446338E+02 
 +3.385854E+02 +3.617369E+00 +5.451081E+00 +3.617369E+00 +3.338024E+02 -1.104826E+01 +5.451081E+00 -1.104826E+01 +9.518807E+02 
 +3.495257E+02 +1.226340E+00 +1.385350E+01 +1.226340E+00 +3.419945E+02 -1.146709E+01 +1.385350E+01 -1.146709E+01 +9.618382E+02 
 +3.514599E+02 -2.587196E+00 +2.010144E+01 -2.587196E+00 +3.403673E+02 -7.535154E+00 +2.010144E+01 -7.535154E+00 +9.516797E+02 
 +3.527593E+02 -9.501698E+00 +2.302816E+01 -9.501698E+00 +3.375867E+02 -3.078152E+00 +2.302816E+01 -3.078152E+00 +9.398813E+02 
 +3.609729E+02 -4.514563E+00 +2.712892E+01 -4.514563E+00 +3.419877E+02 -2.371602E+00 +2.712892E+01 -2.371602E+00 +9.449129E+02 
 +3.785916E+02 +5.029483E-01 +2.521309E+01 +5.029483E-01 +3.541631E+02 -4.499574E+00 +2.521309E+01 -4.499574E+00 +9.613622E+02 
 +3.870567E+02 +1.241703E+00 +2.289279E+01 +1.241703E+00 +3.564081E+02 -4.110193E+00 +2.289279E+01 -4.110193E+00 +9.638994E+02 
 +3.629652E+02 +1.798521E+00 -8.834181E+00 +1.798521E+00 +3.394027E+02 -6.158902E+00 -8.834181E+00 -6.158902E+00 +9.445441E+02 
 +3.681310E+02 +2.972357E+00 -1.119013E+01 +2.972357E+00 +3.401328E+02 -1.245685E+01 -1.119013E+01 -1.245685E+01 +9.457733E+02 
 +3.657466E+02 +6.913430E+00 -1.270023E+01 +6.913430E+00 +3.566338E+02 -1.535660E+01 -1.270023E+01 -1.535660E+01 +9.560982E+02 
 +3.144750E+02 +1.845708E+01 -3.033797E+00 +1.845708E+01 +3.559475E+02 -8.176665E+00 -3.033797E+00 -8.176665E+00 +9.509418E+02 
 +3.173465E+02 +1.740467E+01 -1.846272E+00 +1.740467E+01 +3.582981E+02 -7.454656E+00 -1.846272E+00 -7.454656E+00 +9.524523E+02 
 +3.593141E+02 -1.797915E+00 +2.670190E+00 -1.797915E+00 +3.703360E+02 -1.375764E+01 +2.670190E+00 -1.375764E+01 +9.459640E+02 
 +3.787254E+02 -7.735479E+00 +6.283514E+00 -7.735479E+00 +3.860790E+02 -1.524825E+01 +6.283514E+00 -1.524825E+01 +9.387974E+02 
 +3.892793E+02 -1.374115E+01 +9.561395E+00 -1.374115E+01 +3.992662E+02 -9.806168E+00 +9.561395E+00 -9.806168E+00 +9.379282E+02 
 +3.842579E+02 -1.316146E+01 +7.511403E+00 -1.316146E+01 +3.955960E+02 -6.569175E+00 +7.511403E+00 -6.569175E+00 +9.307131E+02 
 +3.836100E+02 -1.047192E+01 +9.188549E+00 -1.047192E+01 +3.949359E+02 -7.876825E+00 +9.188549E+00 -7.876825E+00 +9.301494E+02 
 +3.716207E+02 -8.264963E+00 +5.204920E+00 -8.264963E+00 +3.909459E+02 -1.074546E+01 +5.204920E+00 -1.074546E+01 +9.349932E+02 
 +3.707609E+02 +9.258963E+00 +1.487132E+00 +9.258963E+00 +3.650048E+02 -3.574427E+00 +1.487132E+00 -3.574427E+00 +9.460939E+02 
 +3.656612E+02 +9.575390E+00 +4.918430E+00 +9.575390E+00 +3.491993E+02 -7.539661E+00 +4.918430E+00 -7.539661E+00 +9.501736E+02 
 +3.508290E+02 +9.086547E+00 +1.109856E+01 +9.086547E+00 +3.407504E+02 -1.303342E+01 +1.109856E+01 -1.303342E+01 +9.455999E+02 
 +3.404144E+02 +1.103646E+01 +9.356414E+00 +1.103646E+01 +3.376811E+02 -1.777509E+01 +9.356414E+00 -1.777509E+01 +9.443856E+02 
 +3.474954E+02 +5.047576E+00 +1.792032E+01 +5.047576E+00 +3.408214E+02 -1.837786E+01 +1.792032E+01 -1.837786E+01 +9.476332E+02 
 +3.503115E+02 -1.008981E+00 +2.286499E+01 -1.008981E+00 +3.409348E+02 -1.536913E+01 +2.286499E+01 -1.536913E+01 +9.377349E+02 
 +3.568819E+02 -1.045421E+01 +2.744422E+01 -1.045421E+01 +3.433952E+02 -1.387108E+01 +2.744422E+01 -1.387108E+01 +9.266174E+02 
 +3.688845E+02 -7.829572E+00 +2.324959E+01 -7.829572E+00 +3.475827E+02 -1.083196E+01 +2.324959E+01 -1.083196E+01 +9.278578E+02 
 +3.881081E+02 -2.219578E+00 +2.788891E+01 -2.219578E+00 +3.562982E+02 -2.446083E+00 +2.788891E+01 -2.446083E+00 +9.407089E+02 
 +4.025252E+02 +1.485402E+00 +3.289013E+01 +1.485402E+00 +3.719855E+02 -1.178752E+00 +3.289013E+01 -1.178752E+00 +9.426759E+02 
 +3.696126E+02 +6.506920E+00 +6.487488E+00 +6.506920E+00 +3.728571E+02 +2.065705E+00 +6.487488E+00 +2.065705E+00 +9.263362E+02 
 +3.626122E+02 +3.808264E+00 -3.390668E+00 +3.808264E+00 +3.744309E+02 +1.824696E+00 -3.390668E+00 +1.824696E+00 +9.348961E+02 
 +3.487881E+02 +1.674751E+01 -4.123592E+00 +1.674751E+01 +3.717641E+02 -4.048523E+00 -4.123592E+00 -4.048523E+00 +9.478671E+02 
 +3.284227E+02 +1.763776E+01 -2.238574E+00 +1.763776E+01 +3.660506E+02 -3.540280E+00 -2.238574E+00 -3.540280E+00 +9.552390E+02 
 +3.208667E+02 +2.246739E+01 -5.392373E+00 +2.246739E+01 +3.552156E+02 -7.376378E-01 -5.392373E+00 -7.376378E-01 +9.579069E+02 
 +3.332148E+02 +2.231983E+01 -3.635184E+00 +2.231983E+01 +3.667704E+02 +1.776031E+00 -3.635184E+00 +1.776031E+00 +9.602295E+02 
 +3.590873E+02 +1.762857E+01 +2.015112E+00 +1.762857E+01 +3.904363E+02 -3.039794E+00 +2.015112E+00 -3.039794E+00 +9.542429E+02 
 +4.024960E+02 -5.190925E+00 +1.175346E+01 -5.190925E+00 +4.091933E+02 -5.691233E+00 +1.175346E+01 -5.691233E+00 +9.452898E+02 
 +3.917226E+02 -6.731243E+00 +5.655349E+00 -6.731243E+00 +3.946026E+02 -1.707422E+00 +5.655349E+00 -1.707422E+00 +9.302474E+02 
 +3.907458E+02 -4.304136E+00 +6.350133E+00 -4.304136E+00 +3.966686E+02 -1.123805E+00 +6.350133E+00 -1.123805E+00 +9.362803E+02 
 +3.648286E+02 +1.836507E+00 +1.850782E+00 +1.836507E+00 +3.792285E+02 -4.203708E+00 +1.850782E+00 -4.203708E+00 +9.363261E+02 
 +3.830100E+02 +9.370425E+00 +6.658438E+00 +9.370425E+00 +3.829473E+02 -4.137881E+00 +6.658438E+00 -4.137881E+00 +9.642289E+02 
 +3.707979E+02 +9.962303E+00 +1.227980E+01 +9.962303E+00 +3.635064E+02 -5.082365E+00 +1.227980E+01 -5.082365E+00 +9.559690E+02 
 +3.577598E+02 +7.474080E+00 +1.122082E+01 +7.474080E+00 +3.502834E+02 -1.296224E+01 +1.122082E+01 -1.296224E+01 +9.556447E+02 
 +3.482679E+02 +4.972031E+00 +1.245171E+01 +4.972031E+00 +3.478740E+02 -2.134355E+01 +1.245171E+01 -2.134355E+01 +9.604753E+02 
 +3.468747E+02 -8.755298E-01 +1.656591E+01 -8.755298E-01 +3.515081E+02 -2.661224E+01 +1.656591E+01 -2.661224E+01 +9.572273E+02 
 +3.549243E+02 -9.119753E+00 +2.554201E+01 -9.119753E+00 +3.526859E+02 -2.602585E+01 +2.554201E+01 -2.602585E+01 +9.362709E+02 
 +3.655995E+02 -1.468518E+01 +2.463133E+01 -1.468518E+01 +3.585902E+02 -2.469720E+01 +2.463133E+01 -2.469720E+01 +9.159579E+02 
 +3.980572E+02 -1.034243E+01 +2.427817E+01 -1.034243E+01 +3.893379E+02 -1.970729E+01 +2.427817E+01 -1.970729E+01 +9.235690E+02 
 +4.116399E+02 -9.020767E+00 +2.422338E+01 -9.020767E+00 +4.024469E+02 -1.186248E+01 +2.422338E+01 -1.186248E+01 +9.214384E+02 
 +4.071434E+02 -7.011645E+00 +2.152224E+01 -7.011645E+00 +4.042938E+02 -7.771846E+00 +2.152224E+01 -7.771846E+00 +9.017535E+02 
 +3.919331E+02 -6.252347E+00 +1.232950E+01 -6.252347E+00 +3.991503E+02 -5.318366E+00 +1.232950E+01 -5.318366E+00 +8.942410E+02 
 +3.493347E+02 -6.175448E+00 -2.303715E+00 -6.175448E+00 +3.754107E+02 -8.335955E+00 -2.303715E+00 -8.335955E+00 +9.077772E+02 
 +3.261664E+02 +2.159866E+01 -6.436838E+00 +2.159866E+01 +3.644773E+02 -2.395273E+00 -6.436838E+00 -2.395273E+00 +9.354369E+02 
 +3.366562E+02 +2.117674E+01 -5.357432E+00 +2.117674E+01 +3.672066E+02 +2.830673E+00 -5.357432E+00 +2.830673E+00 +9.544842E+02 
 +3.339089E+02 +2.156598E+01 -6.536102E+00 +2.156598E+01 +3.637056E+02 -2.538939E+00 -6.536102E+00 -2.538939E+00 +9.574118E+02 
 +3.309128E+02 +2.059036E+01 -5.381628E+00 +2.059036E+01 +3.693498E+02 -2.476955E+00 -5.381628E+00 -2.476955E+00 +9.682510E+02 
 +3.317543E+02 +2.475396E+01 +5.481632E-01 +2.475396E+01 +3.754256E+02 +8.095581E-01 +5.481632E-01 +8.095581E-01 +9.623784E+02 
 +3.977521E+02 +2.921013E+00 +1.510769E+01 +2.921013E+00 +4.064705E+02 +3.849627E+00 +1.510769E+01 +3.849627E+00 +9.598889E+02 
 +3.967341E+02 +6.333556E-01 +6.154520E+00 +6.333556E-01 +4.005902E+02 +8.359186E-01 +6.154520E+00 +8.359186E-01 +9.456776E+02 
 +3.982690E+02 -3.271346E-01 +6.241131E+00 -3.271346E-01 +3.998657E+02 -4.233213E+00 +6.241131E+00 -4.233213E+00 +9.526471E+02 
 +3.957538E+02 +2.475902E+00 +8.955635E+00 +2.475902E+00 +3.952613E+02 -6.100273E+00 +8.955635E+00 -6.100273E+00 +9.632490E+02 
 +3.895516E+02 +3.840500E+00 +1.187215E+01 +3.840500E+00 +3.864962E+02 -3.995440E+00 +1.187215E+01 -3.995440E+00 +9.760925E+02 
 +3.627917E+02 +3.409357E+00 +1.297720E+01 +3.409357E+00 +3.709891E+02 +2.567657E+00 +1.297720E+01 +2.567657E+00 +9.621714E+02 
 +3.592532E+02 +2.865722E+00 +1.105789E+01 +2.865722E+00 +3.713219E+02 -6.867283E+00 +1.105789E+01 -6.867283E+00 +9.647840E+02 
 +3.592794E+02 -7.865473E-01 +1.930985E+01 -7.865473E-01 +3.742591E+02 -1.289705E+01 +1.930985E+01 -1.289705E+01 +9.726981E+02 
 +3.442834E+02 -6.613265E+00 +1.923799E+01 -6.613265E+00 +3.673036E+02 -1.638779E+01 +1.923799E+01 -1.638779E+01 +9.590337E+02 
 +3.787985E+02 -1.305700E+01 +3.014324E+01 -1.305700E+01 +3.898884E+02 -2.420880E+01 +3.014324E+01 -2.420880E+01 +9.312589E+02 
 +4.018118E+02 -1.305781E+01 +1.969849E+01 -1.305781E+01 +4.008507E+02 -2.368151E+01 +1.969849E+01 -2.368151E+01 +9.064596E+02 
 +4.040035E+02 -9.594092E+00 +1.723211E+01 -9.594092E+00 +3.916151E+02 -2.584968E+01 +1.723211E+01 -2.584968E+01 +9.137973E+02 
 +3.924071E+02 -7.299806E+00 +1.377659E+01 -7.299806E+00 +3.826365E+02 -2.325825E+01 +1.377659E+01 -2.325825E+01 +9.002905E+02 
 +3.835900E+02 -2.320020E+00 +8.842895E+00 -2.320020E+00 +3.833118E+02 -8.083408E+00 +8.842895E+00 -8.083408E+00 +8.748454E+02 
 +3.903332E+02 -9.592006E+00 +5.657054E+00 -9.592006E+00 +3.951278E+02 +2.811148E+00 +5.657054E+00 +2.811148E+00 +8.746636E+02 
 +3.825227E+02 -1.383678E+01 -1.031360E+00 -1.383678E+01 +4.016037E+02 -2.575982E+00 -1.031360E+00 -2.575982E+00 +9.029377E+02 
 +3.116313E+02 +1.315824E+01 -8.312639E+00 +1.315824E+01 +3.561752E+02 -4.770291E+00 -8.312639E+00 -4.770291E+00 +9.201131E+02 
 +3.381747E+02 +1.538541E+01 -7.965874E+00 +1.538541E+01 +3.613135E+02 -7.859840E-01 -7.965874E+00 -7.859840E-01 +9.517032E+02 
 +3.260246E+02 +2.060881E+01 -7.084533E+00 +2.060881E+01 +3.647877E+02 -5.243927E+00 -7.084533E+00 -5.243927E+00 +9.557226E+02 
 +3.298913E+02 +1.573168E+01 -4.031701E+00 +1.573168E+01 +3.734028E+02 -7.158498E+00 -4.031701E+00 -7.158498E+00 +9.732565E+02 
 +3.383883E+02 +2.021571E+01 +1.342141E+00 +2.021571E+01 +3.719234E+02 -7.109152E+00 +1.342141E+00 -7.109152E+00 +9.788326E+02 
 +3.821611E+02 -3.116461E+00 +1.167397E+01 -3.116461E+00 +3.911285E+02 -8.262775E+00 +1.167397E+01 -8.262775E+00 +9.818422E+02 
 +4.066641E+02 +6.968082E-01 +9.282313E+00 +6.968082E-01 +4.122526E+02 -6.686183E+00 +9.282313E+00 -6.686183E+00 +9.807372E+02 
 +4.194057E+02 -4.654919E+00 +1.018145E+01 -4.654919E+00 +4.170496E+02 -8.278174E+00 +1.018145E+01 -8.278174E+00 +9.800737E+02 
 +4.089329E+02 +1.324495E+00 +1.406328E+01 +1.324495E+00 +3.982768E+02 -1.094045E+01 +1.406328E+01 -1.094045E+01 +9.760371E+02 
 +3.934273E+02 +4.340231E+00 +1.100895E+01 +4.340231E+00 +3.887318E+02 -8.368567E+00 +1.100895E+01 -8.368567E+00 +9.795776E+02 
 +3.542727E+02 +6.004692E+00 +1.348894E+01 +6.004692E+00 +3.717983E+02 -5.519016E+00 +1.348894E+01 -5.519016E+00 +9.742812E+02 
 +3.471530E+02 +5.880914E+00 +1.927913E+01 +5.880914E+00 +3.696392E+02 -1.330138E+01 +1.927913E+01 -1.330138E+01 +9.633362E+02 
 +3.447556E+02 +2.186243E+00 +2.744379E+01 +2.186243E+00 +3.695330E+02 -1.707158E+01 +2.744379E+01 -1.707158E+01 +9.536709E+02 
 +3.511769E+02 +2.600510E+00 +1.971038E+01 +2.600510E+00 +3.704299E+02 -1.307057E+01 +1.971038E+01 -1.307057E+01 +9.418673E+02 
 +3.834828E+02 +5.528878E+00 +1.791777E+01 +5.528878E+00 +3.767802E+02 -2.021937E+01 +1.791777E+01 -2.021937E+01 +9.143852E+02 
 +4.025374E+02 -3.095406E+00 +1.092374E+01 -3.095406E+00 +3.794791E+02 -2.636246E+01 +1.092374E+01 -2.636246E+01 +8.919087E+02 
 +3.945678E+02 -4.965884E+00 +4.831773E+00 -4.965884E+00 +3.818298E+02 -2.552536E+01 +4.831773E+00 -2.552536E+01 +9.018236E+02 
 +3.830676E+02 +3.108512E-01 +7.740021E+00 +3.108512E-01 +3.820738E+02 -2.219802E+01 +7.740021E+00 -2.219802E+01 +8.944436E+02 
 +3.752199E+02 +5.079059E-01 +8.091672E+00 +5.079059E-01 +3.788984E+02 -1.110478E+01 +8.091672E+00 -1.110478E+01 +8.774555E+02 
 +3.766602E+02 -3.373445E+00 +6.658860E+00 -3.373445E+00 +3.840400E+02 +6.558226E+00 +6.658860E+00 +6.558226E+00 +8.771066E+02 
 +3.937501E+02 -1.579148E+01 +2.683505E+00 -1.579148E+01 +4.054179E+02 +1.004057E+01 +2.683505E+00 +1.004057E+01 +9.025357E+02 
 +3.245244E+02 -8.202921E-01 -5.870261E+00 -8.202921E-01 +3.657265E+02 -5.015623E+00 -5.870261E+00 -5.015623E+00 +9.145274E+02 
 +3.362292E+02 +1.557628E+01 -8.924808E+00 +1.557628E+01 +3.737601E+02 -5.450038E+00 -8.924808E+00 -5.450038E+00 +9.551685E+02 
 +3.493460E+02 +2.025462E+01 -8.749230E+00 +2.025462E+01 +3.884881E+02 -3.131543E+00 -8.749230E+00 -3.131543E+00 +9.791458E+02 
 +3.398741E+02 +1.828481E+01 -1.000367E+00 +1.828481E+01 +3.716656E+02 -8.046159E+00 -1.000367E+00 -8.046159E+00 +9.841611E+02 
 +3.417725E+02 +3.065262E+01 +4.325287E+00 +3.065262E+01 +3.550730E+02 -9.272929E+00 +4.325287E+00 -9.272929E+00 +9.889446E+02 
 +3.682507E+02 +1.630664E+01 +1.023796E+01 +1.630664E+01 +3.696640E+02 -9.668807E+00 +1.023796E+01 -9.668807E+00 +9.984263E+02 
 +3.870904E+02 +2.083718E+01 +1.287311E+01 +2.083718E+01 +3.934669E+02 -4.177846E+00 +1.287311E+01 -4.177846E+00 +9.952077E+02 
 +4.195612E+02 -5.527461E+00 +8.170466E+00 -5.527461E+00 +4.111017E+02 -4.299472E+00 +8.170466E+00 -4.299472E+00 +9.861452E+02 
 +4.046804E+02 -3.103501E-01 +8.864478E+00 -3.103501E-01 +3.933251E+02 -1.027463E+01 +8.864478E+00 -1.027463E+01 +9.664706E+02 
 +3.870006E+02 +1.148702E+01 +3.539310E+00 +1.148702E+01 +3.931402E+02 -1.532963E+01 +3.539310E+00 -1.532963E+01 +9.799997E+02 
 +3.417890E+02 +9.817835E+00 +1.572886E+01 +9.817835E+00 +3.711684E+02 -2.104112E+01 +1.572886E+01 -2.104112E+01 +9.853775E+02 
 +3.246980E+02 +3.469375E+00 +2.671980E+01 +3.469375E+00 +3.557650E+02 -1.828041E+01 +2.671980E+01 -1.828041E+01 +9.611590E+02 
 +3.440555E+02 +4.867580E+00 +2.463547E+01 +4.867580E+00 +3.530228E+02 -1.513250E+01 +2.463547E+01 -1.513250E+01 +9.458574E+02 
 +3.733341E+02 +1.102210E+01 +7.451375E+00 +1.102210E+01 +3.652549E+02 -1.004795E+01 +7.451375E+00 -1.004795E+01 +9.411501E+02 
 +3.858663E+02 +8.755530E+00 +4.315866E+00 +8.755530E+00 +3.761954E+02 -1.456049E+01 +4.315866E+00 -1.456049E+01 +9.195789E+02 
 +4.180133E+02 -4.200245E+00 +1.017721E+01 -4.200245E+00 +3.968706E+02 -2.119854E+01 +1.017721E+01 -2.119854E+01 +9.145616E+02 
 +3.951093E+02 -2.857961E+00 +3.282833E+00 -2.857961E+00 +3.860422E+02 -2.284530E+01 +3.282833E+00 -2.284530E+01 +9.057010E+02 
 +3.706586E+02 +4.716477E+00 +4.573614E+00 +4.716477E+00 +3.763808E+02 -1.860416E+01 +4.573614E+00 -1.860416E+01 +8.873803E+02 
 +3.679891E+02 +5.131934E+00 +6.423582E+00 +5.131934E+00 +3.779648E+02 -8.350245E+00 +6.423582E+00 -8.350245E+00 +8.784171E+02 
 +3.679296E+02 +1.249362E+00 +6.997807E+00 +1.249362E+00 +3.834739E+02 +5.127700E+00 +6.997807E+00 +5.127700E+00 +8.869787E+02 
 +3.829372E+02 -1.199770E+01 +1.232323E+00 -1.199770E+01 +4.041784E+02 +1.024096E+01 +1.232323E+00 +1.024096E+01 +9.109327E+02 
 +3.430849E+02 -1.357811E+01 -6.596466E+00 -1.357811E+01 +3.763407E+02 -1.881306E+00 -6.596466E+00 -1.881306E+00 +9.145951E+02 
 +3.152620E+02 +1.165501E+01 -7.127563E+00 +1.165501E+01 +3.438234E+02 -3.292263E+00 -7.127563E+00 -3.292263E+00 +9.407334E+02 
 +3.388404E+02 +1.495181E+01 -8.820015E+00 +1.495181E+01 +3.378797E+02 +3.865395E+00 -8.820015E+00 +3.865395E+00 +9.749021E+02 
 +3.521002E+02 +1.733015E+01 +1.347500E+00 +1.733015E+01 +3.379920E+02 -4.136602E+00 +1.347500E+00 -4.136602E+00 +9.835422E+02 
 +3.509118E+02 +2.978416E+01 +7.884520E+00 +2.978416E+01 +3.477618E+02 -4.859380E+00 +7.884520E+00 -4.859380E+00 +9.923330E+02 
 +3.582243E+02 +2.073679E+01 +1.029544E+01 +2.073679E+01 +3.671672E+02 -8.831065E+00 +1.029544E+01 -8.831065E+00 +1.007671E+03 
 +3.653189E+02 +2.127051E+01 +1.345219E+01 +2.127051E+01 +3.804375E+02 -3.470564E+00 +1.345219E+01 -3.470564E+00 +1.001298E+03 
 +4.169531E+02 +2.109322E+00 +1.005555E+00 +2.109322E+00 +4.065048E+02 +6.291608E+00 +1.005555E+00 +6.291608E+00 +9.789278E+02 
 +4.092812E+02 +1.015343E+01 -1.829707E+00 +1.015343E+01 +4.037366E+02 -3.886398E+00 -1.829707E+00 -3.886398E+00 +9.552854E+02 
 +3.471288E+02 +2.491577E+00 +6.610270E+00 +2.491577E+00 +3.760952E+02 -1.177825E+01 +6.610270E+00 -1.177825E+01 +9.896638E+02 
 +3.583842E+02 +7.340988E+00 +1.523322E+01 +7.340988E+00 +3.909263E+02 -1.617777E+01 +1.523322E+01 -1.617777E+01 +1.013294E+03 
 +3.516083E+02 +1.035690E+01 +2.500245E+01 +1.035690E+01 +3.749607E+02 -9.073935E+00 +2.500245E+01 -9.073935E+00 +9.894677E+02 
 +3.539449E+02 +1.835065E+01 +1.805263E+01 +1.835065E+01 +3.496029E+02 -4.029095E+00 +1.805263E+01 -4.029095E+00 +9.590795E+02 
 +3.764061E+02 +2.040418E+01 +6.121846E+00 +2.040418E+01 +3.564480E+02 -5.238420E+00 +6.121846E+00 -5.238420E+00 +9.508506E+02 
 +3.752644E+02 +1.635216E+01 +1.398734E+01 +1.635216E+01 +3.530541E+02 -8.727981E+00 +1.398734E+01 -8.727981E+00 +9.143363E+02 
 +3.880444E+02 +4.791169E+00 +2.279473E+01 +4.791169E+00 +3.621357E+02 -1.576520E+01 +2.279473E+01 -1.576520E+01 +8.856489E+02 
 +3.917097E+02 +2.163559E+00 +9.339140E+00 +2.163559E+00 +3.862262E+02 -1.762057E+01 +9.339140E+00 -1.762057E+01 +8.975238E+02 
 +3.769196E+02 +6.967344E+00 +3.658243E+00 +6.967344E+00 +3.841773E+02 -1.093539E+01 +3.658243E+00 -1.093539E+01 +8.944717E+02 
 +3.634615E+02 +1.202940E+01 +5.385599E+00 +1.202940E+01 +3.785605E+02 -8.063424E-01 +5.385599E+00 -8.063424E-01 +8.811495E+02 
 +3.640274E+02 +9.537048E+00 +3.984124E+00 +9.537048E+00 +3.910830E+02 +1.043852E+01 +3.984124E+00 +1.043852E+01 +8.955662E+02 
 +3.652383E+02 -1.353711E+00 -7.440817E+00 -1.353711E+00 +3.929769E+02 +1.607807E+01 -7.440817E+00 +1.607807E+01 +9.033939E+02 
 +3.371590E+02 -1.245282E+01 -1.134974E+01 -1.245282E+01 +3.695821E+02 +1.194359E+01 -1.134974E+01 +1.194359E+01 +9.020356E+02 
 +3.192354E+02 +9.686622E+00 -6.656501E+00 +9.686622E+00 +3.454203E+02 +5.833739E+00 -6.656501E+00 +5.833739E+00 +9.414207E+02 
 +3.411052E+02 +7.636418E+00 -7.480402E+00 +7.636418E+00 +3.430250E+02 +5.555134E+00 -7.480402E+00 +5.555134E+00 +9.796082E+02 
 +3.600331E+02 +4.745218E+00 +6.825424E-01 +4.745218E+00 +3.425552E+02 -4.901289E-01 +6.825424E-01 -4.901289E-01 +9.845190E+02 
 +3.690389E+02 +1.171042E+01 +8.784064E+00 +1.171042E+01 +3.476411E+02 -5.666226E-01 +8.784064E+00 -5.666226E-01 +9.948811E+02 
 +3.567537E+02 +1.721612E+01 +5.974980E+00 +1.721612E+01 +3.567707E+02 -7.083888E+00 +5.974980E+00 -7.083888E+00 +1.008636E+03 
 +3.638935E+02 +2.156030E+01 +1.093128E+01 +2.156030E+01 +3.657831E+02 -1.200434E+01 +1.093128E+01 -1.200434E+01 +1.013122E+03 
 +4.173669E+02 +7.160316E+00 +4.416500E+00 +7.160316E+00 +3.961596E+02 -5.437338E+00 +4.416500E+00 -5.437338E+00 +9.987455E+02 
 +4.242315E+02 +6.916094E+00 -5.061757E-01 +6.916094E+00 +4.100890E+02 -6.558591E+00 -5.061757E-01 -6.558591E+00 +9.882810E+02 
 +3.275428E+02 -1.552254E+00 +9.998584E+00 -1.552254E+00 +3.500023E+02 +3.063159E+00 +9.998584E+00 +3.063159E+00 +9.864995E+02 
 +3.580649E+02 +4.888093E-02 +1.273220E+01 +4.888093E-02 +3.732298E+02 -2.847724E-01 +1.273220E+01 -2.847724E-01 +1.000450E+03 
 +3.877979E+02 +1.196432E+00 +2.597120E+01 +1.196432E+00 +3.965308E+02 +2.105403E+00 +2.597120E+01 +2.105403E+00 +1.004188E+03 
 +4.052795E+02 -1.213707E-02 +2.380332E+01 -1.213707E-02 +4.291773E+02 +6.049520E-01 +2.380332E+01 +6.049520E-01 +9.926292E+02 
 +4.192234E+02 +1.055279E+01 +1.253472E+01 +1.055279E+01 +4.073795E+02 -7.248973E+00 +1.253472E+01 -7.248973E+00 +9.781015E+02 
 +3.791653E+02 +1.639074E+01 +1.099458E+01 +1.639074E+01 +3.525426E+02 -8.450317E+00 +1.099458E+01 -8.450317E+00 +9.256673E+02 
 +3.653796E+02 +9.689905E+00 +1.620499E+01 +9.689905E+00 +3.456117E+02 -1.131465E+01 +1.620499E+01 -1.131465E+01 +8.783462E+02 
 +3.828147E+02 +9.699932E+00 +9.175003E+00 +9.699932E+00 +3.732233E+02 -1.765342E+01 +9.175003E+00 -1.765342E+01 +8.933337E+02 
 +3.859011E+02 +7.985576E+00 +3.163559E+00 +7.985576E+00 +3.933248E+02 -1.205935E+01 +3.163559E+00 -1.205935E+01 +9.116586E+02 
 +3.737982E+02 +1.486908E+01 +4.781697E+00 +1.486908E+01 +3.951414E+02 -1.023209E+00 +4.781697E+00 -1.023209E+00 +9.053564E+02 
 +3.785739E+02 +1.302392E+01 +3.044630E+00 +1.302392E+01 +4.061027E+02 +8.633869E+00 +3.044630E+00 +8.633869E+00 +9.207523E+02 
 +3.550761E+02 -1.070902E+00 -8.903305E+00 -1.070902E+00 +3.861364E+02 +1.369147E+01 -8.903305E+00 +1.369147E+01 +9.067550E+02 
 +3.272849E+02 -1.077022E+01 -1.167336E+01 -1.077022E+01 +3.671401E+02 +1.370919E+01 -1.167336E+01 +1.370919E+01 +9.038748E+02 
 +3.093831E+02 -4.792941E+00 -4.843311E+00 -4.792941E+00 +3.548463E+02 +8.475996E+00 -4.843311E+00 +8.475996E+00 +9.430497E+02 
 +3.359533E+02 -1.435316E+00 -1.322910E+00 -1.435316E+00 +3.511810E+02 +7.081508E+00 -1.322910E+00 +7.081508E+00 +9.755991E+02 
 +3.444453E+02 -1.031676E+00 +4.455689E+00 -1.031676E+00 +3.415619E+02 +2.129367E+00 +4.455689E+00 +2.129367E+00 +9.751654E+02 
 +3.611770E+02 +3.990704E+00 +1.032594E+01 +3.990704E+00 +3.398581E+02 +6.448702E-02 +1.032594E+01 +6.448702E-02 +9.869526E+02 
 +3.557139E+02 -3.622916E+00 +9.045290E-01 -3.622916E+00 +3.172022E+02 -4.002077E+00 +9.045290E-01 -4.002077E+00 +9.913125E+02 
 +3.472137E+02 +1.549065E+00 +2.132069E+00 +1.549065E+00 +2.938654E+02 -8.678569E+00 +2.132069E+00 -8.678569E+00 +9.964885E+02 
 +3.586207E+02 -3.418415E+00 +9.628610E+00 -3.418415E+00 +2.887629E+02 -3.975755E+00 +9.628610E+00 -3.975755E+00 +9.950799E+02 
 +3.644714E+02 -4.634890E-01 +7.175978E+00 -4.634890E-01 +3.153695E+02 +2.807955E+00 +7.175978E+00 +2.807955E+00 +9.910166E+02 
 +3.521217E+02 +1.758258E+01 +4.668597E+00 +1.758258E+01 +3.476683E+02 +1.061950E+01 +4.668597E+00 +1.061950E+01 +9.870963E+02 
 +3.484448E+02 +1.094894E-01 +9.514817E+00 +1.094894E-01 +3.497961E+02 +1.378939E+01 +9.514817E+00 +1.378939E+01 +9.712740E+02 
 +3.738092E+02 +2.355664E+01 +1.901470E+01 +2.355664E+01 +3.606162E+02 +9.300297E+00 +1.901470E+01 +9.300297E+00 +9.743128E+02 
 +4.089830E+02 +2.270195E+01 +1.278345E+01 +2.270195E+01 +4.112735E+02 +6.912016E+00 +1.278345E+01 +6.912016E+00 +9.843577E+02 
 +4.235862E+02 -7.322792E+00 +1.716560E+00 -7.322792E+00 +4.400918E+02 -5.235646E-01 +1.716560E+00 -5.235646E-01 +9.865060E+02 
 +3.958170E+02 -1.085169E+01 -4.826136E-01 -1.085169E+01 +4.022924E+02 -5.282556E+00 -4.826136E-01 -5.282556E+00 +9.607571E+02 
 +3.806597E+02 -1.571198E+01 +4.643832E+00 -1.571198E+01 +3.747191E+02 -6.054057E+00 +4.643832E+00 -6.054057E+00 +9.350134E+02 
 +3.785395E+02 -1.919893E+01 +7.730454E+00 -1.919893E+01 +3.655783E+02 -1.561659E+01 +7.730454E+00 -1.561659E+01 +9.301057E+02 
 +3.672465E+02 -2.202816E+01 +4.197685E+00 -2.202816E+01 +3.603535E+02 -1.917727E+01 +4.197685E+00 -1.917727E+01 +9.294009E+02 
 +3.695178E+02 -1.800576E+01 +1.818463E+00 -1.800576E+01 +3.613844E+02 -1.311920E+01 +1.818463E+00 -1.311920E+01 +9.307571E+02 
 +3.637556E+02 -1.537536E+01 -7.187115E-01 -1.537536E+01 +3.550289E+02 -6.647824E+00 -7.187115E-01 -6.647824E+00 +9.342027E+02 
 +3.662062E+02 -2.371276E+01 -1.706226E+00 -2.371276E+01 +3.686244E+02 +3.141420E+00 -1.706226E+00 +3.141420E+00 +9.398200E+02 
 +3.402739E+02 -1.674160E+01 -2.150076E+00 -1.674160E+01 +3.863590E+02 +1.009229E+01 -2.150076E+00 +1.009229E+01 +9.435121E+02 
 +3.350069E+02 -1.288975E+01 +5.167952E+00 -1.288975E+01 +3.985659E+02 +1.080885E+01 +5.167952E+00 +1.080885E+01 +9.646097E+02 
 +3.360529E+02 -5.152566E+00 +1.137387E+01 -5.152566E+00 +3.698277E+02 +8.355214E+00 +1.137387E+01 +8.355214E+00 +9.685406E+02 
 +3.370062E+02 +1.024850E+00 +1.362799E+01 +1.024850E+00 +3.451643E+02 +5.757617E+00 +1.362799E+01 +5.757617E+00 +9.675377E+02 
 +3.284341E+02 +2.597320E+00 +1.356593E+01 +2.597320E+00 +3.188673E+02 +2.550553E+00 +1.356593E+01 +2.550553E+00 +9.682145E+02 
 +3.574761E+02 -3.549461E+00 -1.247459E+00 -3.549461E+00 +3.035846E+02 -5.659328E+00 -1.247459E+00 -5.659328E+00 +9.792657E+02 
 +3.562211E+02 -4.334754E-01 -2.563324E-01 -4.334754E-01 +2.849674E+02 -1.092877E+01 -2.563324E-01 -1.092877E+01 +9.867749E+02 
 +3.596130E+02 -3.904942E+00 +8.818214E+00 -3.904942E+00 +2.956753E+02 -6.999188E+00 +8.818214E+00 -6.999188E+00 +9.995242E+02 
 +3.538351E+02 +1.799124E+01 +5.241026E+00 +1.799124E+01 +3.232437E+02 -1.017556E-01 +5.241026E+00 -1.017556E-01 +9.975725E+02 
 +3.612394E+02 +1.868991E+01 +1.216132E+00 +1.868991E+01 +3.504819E+02 +1.427939E+01 +1.216132E+00 +1.427939E+01 +9.951333E+02 
 +3.675395E+02 -8.485890E+00 +1.637950E+00 -8.485890E+00 +3.635156E+02 +1.365013E+01 +1.637950E+00 +1.365013E+01 +9.831763E+02 
 +3.982812E+02 +1.037330E+01 +1.408606E+00 +1.037330E+01 +3.853913E+02 +4.618212E+00 +1.408606E+00 +4.618212E+00 +9.858578E+02 
 +4.097783E+02 +2.064477E+01 -5.553983E+00 +2.064477E+01 +4.024883E+02 +9.104214E+00 -5.553983E+00 +9.104214E+00 +9.886100E+02 
 +3.804871E+02 -1.144572E+01 -5.730297E+00 -1.144572E+01 +4.068100E+02 +5.079058E+00 -5.730297E+00 +5.079058E+00 +9.745162E+02 
 +3.756359E+02 -1.097913E+01 -1.440659E+00 -1.097913E+01 +4.025371E+02 -5.323969E+00 -1.440659E+00 -5.323969E+00 +9.663419E+02 
 +3.798095E+02 -1.310485E+01 +3.658474E+00 -1.310485E+01 +3.870599E+02 -5.067270E+00 +3.658474E+00 -5.067270E+00 +9.633233E+02 
 +3.751990E+02 -1.368620E+01 +8.846074E+00 -1.368620E+01 +3.748200E+02 -1.103932E+01 +8.846074E+00 -1.103932E+01 +9.611259E+02 
 +3.687020E+02 -1.415777E+01 +6.584736E+00 -1.415777E+01 +3.642803E+02 -1.667163E+01 +6.584736E+00 -1.667163E+01 +9.570405E+02 
 +3.741155E+02 -1.538280E+01 +3.324241E-01 -1.538280E+01 +3.606320E+02 -1.656626E+01 +3.324241E-01 -1.656626E+01 +9.581250E+02 
 +3.770169E+02 -1.679598E+01 -5.663650E+00 -1.679598E+01 +3.617364E+02 -9.990806E+00 -5.663650E+00 -9.990806E+00 +9.610144E+02 
 +3.952790E+02 -2.445572E+01 -4.730660E+00 -2.445572E+01 +3.817380E+02 +3.134344E+00 -4.730660E+00 +3.134344E+00 +9.728953E+02 
 +3.660807E+02 -1.464444E+01 -1.309137E+00 -1.464444E+01 +3.850365E+02 +9.017102E+00 -1.309137E+00 +9.017102E+00 +9.672249E+02 
 +3.656295E+02 -1.581422E+01 +8.553691E+00 -1.581422E+01 +4.073415E+02 +7.457815E+00 +8.553691E+00 +7.457815E+00 +9.760072E+02 
 +3.570913E+02 -1.475783E+01 +1.580673E+01 -1.475783E+01 +4.042277E+02 +6.054024E+00 +1.580673E+01 +6.054024E+00 +9.745310E+02 
 +3.585926E+02 +4.475340E+00 +2.090536E+01 +4.475340E+00 +3.761794E+02 +2.858497E+00 +2.090536E+01 +2.858497E+00 +9.722411E+02 
 +3.286363E+02 +8.292030E+00 +2.322908E+01 +8.292030E+00 +3.203984E+02 +2.180190E+00 +2.322908E+01 +2.180190E+00 +9.651816E+02 
 +3.265936E+02 +1.971684E+00 +9.195576E+00 +1.971684E+00 +2.838208E+02 -4.230356E+00 +9.195576E+00 -4.230356E+00 +9.642659E+02 
 +3.533147E+02 +4.209027E+00 +3.962978E+00 +4.209027E+00 +2.913408E+02 -1.391540E+01 +3.962978E+00 -1.391540E+01 +9.735322E+02 
 +3.680649E+02 +1.100584E+01 +2.624653E+00 +1.100584E+01 +3.258843E+02 -1.362722E+01 +2.624653E+00 -1.362722E+01 +9.905707E+02 
 +3.615721E+02 +2.647029E+01 +8.802139E-01 +2.647029E+01 +3.435493E+02 -9.381057E-01 +8.802139E-01 -9.381057E-01 +9.973812E+02 
 +3.577144E+02 +2.680592E+01 +1.186470E+00 +2.680592E+01 +3.403082E+02 +1.100968E+01 +1.186470E+00 +1.100968E+01 +9.899886E+02 
 +3.668295E+02 +5.517189E+00 -1.450377E+00 +5.517189E+00 +3.544609E+02 +8.866393E+00 -1.450377E+00 +8.866393E+00 +9.908026E+02 
 +3.879670E+02 +1.528341E+01 -5.844639E+00 +1.528341E+01 +3.803791E+02 +3.562025E+00 -5.844639E+00 +3.562025E+00 +9.895582E+02 
 +3.917866E+02 +1.932227E+01 -9.822042E+00 +1.932227E+01 +3.876438E+02 +1.462829E+01 -9.822042E+00 +1.462829E+01 +9.836509E+02 
 +3.647826E+02 -2.021898E+01 -1.044524E+01 -2.021898E+01 +3.785048E+02 +6.362597E+00 -1.044524E+01 +6.362597E+00 +9.695643E+02 
 +3.899136E+02 -1.822345E+01 -7.019718E+00 -1.822345E+01 +4.065615E+02 -6.233334E+00 -7.019718E+00 -6.233334E+00 +9.778563E+02 
 +3.691517E+02 -1.545878E+01 +1.397188E+00 -1.545878E+01 +3.901093E+02 -6.547172E+00 +1.397188E+00 -6.547172E+00 +9.660699E+02 
 +3.604297E+02 -1.128311E+01 +7.994724E+00 -1.128311E+01 +3.732862E+02 -1.182092E+01 +7.994724E+00 -1.182092E+01 +9.624448E+02 
 +3.668406E+02 -1.567068E+01 +8.072360E+00 -1.567068E+01 +3.737554E+02 -1.341422E+01 +8.072360E+00 -1.341422E+01 +9.679899E+02 
 +3.698095E+02 -1.569977E+01 +1.362104E+00 -1.569977E+01 +3.727644E+02 -1.421932E+01 +1.362104E+00 -1.421932E+01 +9.689278E+02 
 +3.815604E+02 -1.933562E+01 -4.809574E+00 -1.933562E+01 +3.736336E+02 -7.563918E+00 -4.809574E+00 -7.563918E+00 +9.731268E+02 
 +3.836106E+02 -2.756136E+01 -7.150577E+00 -2.756136E+01 +3.649196E+02 +2.004658E+00 -7.150577E+00 +2.004658E+00 +9.748864E+02 
 +3.779186E+02 -2.163739E+01 -3.588571E+00 -2.163739E+01 +3.588305E+02 +3.665013E+00 -3.588571E+00 +3.665013E+00 +9.731502E+02 
 +3.636220E+02 -2.499485E+01 +3.849363E+00 -2.499485E+01 +3.547376E+02 -1.051657E+00 +3.849363E+00 -1.051657E+00 +9.690620E+02 
 +3.644477E+02 -2.446922E+01 +1.145482E+01 -2.446922E+01 +3.734451E+02 -3.379255E+00 +1.145482E+01 -3.379255E+00 +9.705037E+02 
 +3.655134E+02 -2.167549E+01 +1.821060E+01 -2.167549E+01 +3.668784E+02 -8.254070E+00 +1.821060E+01 -8.254070E+00 +9.659876E+02 
 +3.445994E+02 -1.443884E+01 +2.575279E+01 -1.443884E+01 +3.327416E+02 -1.753629E+00 +2.575279E+01 -1.753629E+00 +9.625611E+02 
 +3.281073E+02 -8.230977E+00 +1.765402E+01 -8.230977E+00 +3.291475E+02 +3.617164E-01 +1.765402E+01 +3.617164E-01 +9.643601E+02 
 +3.634390E+02 +2.202681E-01 +4.728622E+00 +2.202681E-01 +3.394319E+02 -1.385080E+01 +4.728622E+00 -1.385080E+01 +9.736035E+02 
 +3.671641E+02 +1.402656E+01 -4.992690E+00 +1.402656E+01 +3.294215E+02 -1.603101E+01 -4.992690E+00 -1.603101E+01 +9.795176E+02 
 +3.519501E+02 +3.046467E+01 -1.033355E+00 +3.046467E+01 +3.304487E+02 -3.585346E+00 -1.033355E+00 -3.585346E+00 +9.845787E+02 
 +3.663243E+02 +1.846172E+01 -2.387911E+00 +1.846172E+01 +3.492268E+02 +6.380834E+00 -2.387911E+00 +6.380834E+00 +9.843447E+02 
 +3.707714E+02 +2.468646E+00 -9.035194E-02 +2.468646E+00 +3.607994E+02 +3.548540E+00 -9.035194E-02 +3.548540E+00 +9.889943E+02 
 +3.753952E+02 +1.333182E+01 -3.909523E+00 +1.333182E+01 +3.733010E+02 +1.241268E+00 -3.909523E+00 +1.241268E+00 +9.882081E+02 
 +3.766095E+02 +2.419178E+01 -7.934364E+00 +2.419178E+01 +3.752708E+02 +1.424311E+01 -7.934364E+00 +1.424311E+01 +9.810889E+02 
 +3.416782E+02 -1.048356E+01 -7.317341E+00 -1.048356E+01 +3.358023E+02 +6.106344E+00 -7.317341E+00 +6.106344E+00 +9.536070E+02 
 +3.726165E+02 -2.241306E+00 -2.228594E+00 -2.241306E+00 +3.476332E+02 -7.645775E+00 -2.228594E+00 -7.645775E+00 +9.607014E+02 
 +3.386990E+02 -1.529108E+01 +4.320434E+00 -1.529108E+01 +3.632392E+02 -9.926122E+00 +4.320434E+00 -9.926122E+00 +9.595580E+02 
 +3.525677E+02 -1.558205E+01 +8.888242E+00 -1.558205E+01 +3.838712E+02 -1.229277E+01 +8.888242E+00 -1.229277E+01 +9.701734E+02 
 +3.587066E+02 -1.885949E+01 +8.116036E+00 -1.885949E+01 +3.788008E+02 -1.058971E+01 +8.116036E+00 -1.058971E+01 +9.718299E+02 
 +3.595022E+02 -1.745616E+01 +3.664688E+00 -1.745616E+01 +3.712398E+02 -9.458111E+00 +3.664688E+00 -9.458111E+00 +9.711945E+02 
 +3.745531E+02 -2.299623E+01 -9.700060E-01 -2.299623E+01 +3.649650E+02 -3.733091E+00 -9.700060E-01 -3.733091E+00 +9.741751E+02 
 +3.781093E+02 -2.409916E+01 -6.668255E+00 -2.409916E+01 +3.575554E+02 +2.079996E+00 -6.668255E+00 +2.079996E+00 +9.844432E+02 
 +3.970303E+02 -1.419111E+01 -4.332067E+00 -1.419111E+01 +3.651910E+02 -1.752250E+00 -4.332067E+00 -1.752250E+00 +9.977005E+02 
 +3.887249E+02 -1.868201E+01 +7.058734E-01 -1.868201E+01 +3.631395E+02 -8.854093E+00 +7.058734E-01 -8.854093E+00 +9.921180E+02 
 +3.816077E+02 -2.096282E+01 +9.848927E+00 -2.096282E+01 +3.623688E+02 -1.355793E+01 +9.848927E+00 -1.355793E+01 +9.806947E+02 
 +3.825106E+02 -2.791842E+01 +1.250662E+01 -2.791842E+01 +3.648291E+02 -1.806114E+01 +1.250662E+01 -1.806114E+01 +9.702844E+02 
 +3.443470E+02 -1.613736E+01 +1.540626E+01 -1.613736E+01 +3.508744E+02 -5.884981E+00 +1.540626E+01 -5.884981E+00 +9.549746E+02 
 +3.462496E+02 -1.321641E+01 +1.327217E+01 -1.321641E+01 +3.579171E+02 +5.552782E+00 +1.327217E+01 +5.552782E+00 +9.575876E+02 
 +3.606452E+02 -1.084473E+01 +5.922912E+00 -1.084473E+01 +3.626566E+02 -5.105487E+00 +5.922912E+00 -5.105487E+00 +9.645625E+02 
 +3.713562E+02 +4.863489E+00 -7.972401E+00 +4.863489E+00 +3.447133E+02 -1.254013E+01 -7.972401E+00 -1.254013E+01 +9.749326E+02 
 +3.561164E+02 +3.090839E+01 -6.460822E+00 +3.090839E+01 +3.310160E+02 -6.063852E+00 -6.460822E+00 -6.063852E+00 +9.771076E+02 
 +3.713454E+02 +1.953498E+01 -7.297318E+00 +1.953498E+01 +3.525626E+02 -1.857814E-01 -7.297318E+00 -1.857814E-01 +9.745115E+02 
 +3.722806E+02 +1.186055E+01 +4.629566E-01 +1.186055E+01 +3.592851E+02 +1.876406E-01 +4.629566E-01 +1.876406E-01 +9.763680E+02 
 +3.734553E+02 +1.805137E+01 -1.559049E-01 +1.805137E+01 +3.688734E+02 -1.622199E+00 -1.559049E-01 -1.622199E+00 +9.803226E+02 
 +3.706126E+02 +2.545565E+01 -2.314018E+00 +2.545565E+01 +3.640829E+02 +6.790608E+00 -2.314018E+00 +6.790608E+00 +9.742760E+02 
 +3.474717E+02 -1.896407E+01 -2.220376E+00 -1.896407E+01 +3.614215E+02 +1.080634E+00 -2.220376E+00 +1.080634E+00 +9.579623E+02 
 +3.636345E+02 -1.606338E+01 -2.858000E+00 -1.606338E+01 +3.894825E+02 -1.271574E+01 -2.858000E+00 -1.271574E+01 +9.675341E+02 
 +3.415837E+02 -3.180805E+01 +3.142297E-01 -3.180805E+01 +3.711819E+02 -1.644494E+01 +3.142297E-01 -1.644494E+01 +9.613173E+02 
 +3.601686E+02 -1.999301E+01 +9.426672E+00 -1.999301E+01 +3.840174E+02 -1.371087E+01 +9.426672E+00 -1.371087E+01 +9.685861E+02 
 +3.540523E+02 -2.150734E+01 +9.645714E+00 -2.150734E+01 +3.828978E+02 -7.997121E+00 +9.645714E+00 -7.997121E+00 +9.712847E+02 
 +3.541858E+02 -1.719928E+01 +6.347346E+00 -1.719928E+01 +3.662356E+02 -5.519757E+00 +6.347346E+00 -5.519757E+00 +9.758335E+02 
 +3.708506E+02 -2.376602E+01 +1.491736E+00 -2.376602E+01 +3.612329E+02 -2.701917E-01 +1.491736E+00 -2.701917E-01 +9.833395E+02 
 +3.805395E+02 -2.459155E+01 -5.282712E+00 -2.459155E+01 +3.582670E+02 +3.645338E+00 -5.282712E+00 +3.645338E+00 +9.990145E+02 
 +4.083136E+02 -1.747131E+01 -8.113958E-01 -1.747131E+01 +3.680614E+02 -4.762974E-02 -8.113958E-01 -4.762974E-02 +1.015556E+03 
 +4.105786E+02 -1.451676E+01 +2.976457E+00 -1.451676E+01 +3.715213E+02 -4.958029E+00 +2.976457E+00 -4.958029E+00 +1.009401E+03 
 +3.953782E+02 -2.057571E+01 +7.790043E+00 -2.057571E+01 +3.630513E+02 -1.265397E+01 +7.790043E+00 -1.265397E+01 +9.892361E+02 
 +3.825427E+02 -3.051395E+01 +6.881297E+00 -3.051395E+01 +3.597688E+02 -1.621709E+01 +6.881297E+00 -1.621709E+01 +9.715369E+02 
 +3.516439E+02 -1.904338E+01 +7.122380E+00 -1.904338E+01 +3.661464E+02 -5.492503E+00 +7.122380E+00 -5.492503E+00 +9.595726E+02 
 +3.568293E+02 -1.747040E+01 +8.437320E+00 -1.747040E+01 +3.696979E+02 +4.946721E+00 +8.437320E+00 +4.946721E+00 +9.568326E+02 
 +3.628789E+02 -1.129060E+01 +4.142728E+00 -1.129060E+01 +3.666400E+02 +4.835132E+00 +4.142728E+00 +4.835132E+00 +9.589520E+02 
 +3.636796E+02 -6.688364E+00 -8.792314E+00 -6.688364E+00 +3.627124E+02 -6.902336E+00 -8.792314E+00 -6.902336E+00 +9.698821E+02 
 +3.793629E+02 +3.307878E+01 -1.298179E+01 +3.307878E+01 +3.599268E+02 -9.845015E+00 -1.298179E+01 -9.845015E+00 +9.808412E+02 
 +3.856951E+02 +2.248143E+01 -9.178584E+00 +2.248143E+01 +3.607842E+02 -9.255766E+00 -9.178584E+00 -9.255766E+00 +9.819394E+02 
 +3.733537E+02 +1.517314E+01 +7.187021E-01 +1.517314E+01 +3.583296E+02 -6.811547E+00 +7.187021E-01 -6.811547E+00 +9.836058E+02 
 +3.705277E+02 +1.780630E+01 +6.778298E-01 +1.780630E+01 +3.582983E+02 -5.435609E+00 +6.778298E-01 -5.435609E+00 +9.768817E+02 
 +3.722308E+02 +2.811121E+01 -4.812598E+00 +2.811121E+01 +3.647880E+02 +2.259571E-01 -4.812598E+00 +2.259571E-01 +9.724776E+02 
 +3.304157E+02 -4.012383E-01 -8.406149E+00 -4.012383E-01 +3.628919E+02 +6.736835E-01 -8.406149E+00 +6.736835E-01 +9.536650E+02 
 +3.337145E+02 +4.749506E+00 -1.081911E+01 +4.749506E+00 +3.839961E+02 -8.033591E+00 -1.081911E+01 -8.033591E+00 +9.590357E+02 
 +3.376041E+02 -2.098398E+01 -7.772639E+00 -2.098398E+01 +3.694140E+02 -1.384749E+01 -7.772639E+00 -1.384749E+01 +9.536675E+02 
 +3.791249E+02 -1.356042E+00 +4.662600E+00 -1.356042E+00 +3.849929E+02 -5.398531E+00 +4.662600E+00 -5.398531E+00 +9.647953E+02 
 +3.569444E+02 -1.678874E+01 +4.225279E+00 -1.678874E+01 +3.819621E+02 +2.678069E-03 +4.225279E+00 +2.678069E-03 +9.691132E+02 
 +3.417883E+02 -1.449558E+01 +2.839570E+00 -1.449558E+01 +3.583742E+02 +3.804013E+00 +2.839570E+00 +3.804013E+00 +9.716974E+02 
 +3.610890E+02 -2.062650E+01 -6.659370E+00 -2.062650E+01 +3.585365E+02 +1.045122E+01 -6.659370E+00 +1.045122E+01 +9.875254E+02 
 +3.730579E+02 -2.371654E+01 -4.997117E+00 -2.371654E+01 +3.612318E+02 +7.898940E+00 -4.997117E+00 +7.898940E+00 +1.002448E+03 
 +3.950203E+02 -2.116186E+01 -2.207898E+00 -2.116186E+01 +3.643881E+02 +3.110082E+00 -2.207898E+00 +3.110082E+00 +1.007808E+03 
 +4.190523E+02 -2.350845E+01 +3.887379E+00 -2.350845E+01 +3.686239E+02 -1.289174E+00 +3.887379E+00 -1.289174E+00 +1.004675E+03 
 +4.435628E+02 -2.198650E+01 +4.463695E+00 -2.198650E+01 +3.970200E+02 -9.086244E+00 +4.463695E+00 -9.086244E+00 +1.003689E+03 
 +3.939634E+02 -1.976300E+01 -1.692452E+00 -1.976300E+01 +3.974617E+02 -1.184310E+01 -1.692452E+00 -1.184310E+01 +9.811827E+02 
 +3.690369E+02 -1.325643E+01 +3.232064E-01 -1.325643E+01 +3.783275E+02 -5.261361E+00 +3.232064E-01 -5.261361E+00 +9.667967E+02 
 +3.658381E+02 -1.603466E+01 +3.764303E+00 -1.603466E+01 +3.698129E+02 +1.329956E+00 +3.764303E+00 +1.329956E+00 +9.589713E+02 
 +3.620446E+02 -9.509783E+00 +1.624870E+00 -9.509783E+00 +3.694498E+02 +7.093723E+00 +1.624870E+00 +7.093723E+00 +9.604200E+02 
 +3.554897E+02 -5.656509E+00 -6.882634E+00 -5.656509E+00 +3.663647E+02 -1.377772E+00 -6.882634E+00 -1.377772E+00 +9.678617E+02 
 +3.965364E+02 +3.357527E+01 -1.359795E+01 +3.357527E+01 +3.794163E+02 -1.146967E+01 -1.359795E+01 -1.146967E+01 +9.844904E+02 
 +3.867112E+02 +2.702519E+01 -1.292443E+01 +2.702519E+01 +3.625697E+02 -1.667578E+01 -1.292443E+01 -1.667578E+01 +9.931702E+02 
 +3.740647E+02 +1.700063E+01 -2.931530E+00 +1.700063E+01 +3.579146E+02 -1.368060E+01 -2.931530E+00 -1.368060E+01 +9.960331E+02 
 +3.593511E+02 +1.736774E+01 -5.177582E+00 +1.736774E+01 +3.496595E+02 -1.189412E+01 -5.177582E+00 -1.189412E+01 +9.846670E+02 
 +3.592649E+02 +1.933553E+01 -1.210834E+01 +1.933553E+01 +3.535211E+02 -7.120582E+00 -1.210834E+01 -7.120582E+00 +9.789697E+02 
 +3.396128E+02 -1.268427E+00 -1.801701E+01 -1.268427E+00 +3.679839E+02 -8.995434E-01 -1.801701E+01 -8.995434E-01 +9.683928E+02 
 +3.478535E+02 -4.021283E+00 -2.013163E+01 -4.021283E+00 +3.840508E+02 -3.624518E+00 -2.013163E+01 -3.624518E+00 +9.695774E+02 
 +3.301695E+02 -2.034307E+01 -1.440481E+01 -2.034307E+01 +3.654550E+02 -1.243607E+01 -1.440481E+01 -1.243607E+01 +9.517775E+02 
 +3.686819E+02 +8.960408E-01 -7.113871E+00 +8.960408E-01 +3.677510E+02 -5.183798E+00 -7.113871E+00 -5.183798E+00 +9.587332E+02 
 +3.604848E+02 -9.276923E+00 -1.317943E+01 -9.276923E+00 +3.551507E+02 +6.762750E+00 -1.317943E+01 +6.762750E+00 +9.675449E+02 
 +3.162605E+02 -1.299657E+01 -4.259182E+00 -1.299657E+01 +3.393917E+02 +1.187495E+01 -4.259182E+00 +1.187495E+01 +9.622005E+02 
 +3.648282E+02 -8.151381E+00 -9.252011E+00 -8.151381E+00 +3.605498E+02 +1.548491E+01 -9.252011E+00 +1.548491E+01 +9.874923E+02 
 +3.753839E+02 -4.424847E+00 +3.485428E+00 -4.424847E+00 +3.585206E+02 +4.125554E+00 +3.485428E+00 +4.125554E+00 +9.928907E+02 
 +3.806773E+02 +1.507966E+01 +4.941354E+00 +1.507966E+01 +3.581561E+02 +3.649937E-01 +4.941354E+00 +3.649937E-01 +9.872265E+02 
 +4.059058E+02 +1.117350E+01 +1.201168E+01 +1.117350E+01 +3.708550E+02 +7.515781E-01 +1.201168E+01 +7.515781E-01 +9.855220E+02 
 +4.330425E+02 +3.321808E+00 +1.179281E+01 +3.321808E+00 +3.786137E+02 -3.895080E+00 +1.179281E+01 -3.895080E+00 +9.837909E+02 
 +3.871074E+02 -6.656741E+00 -5.181606E+00 -6.656741E+00 +3.719851E+02 -6.748114E+00 -5.181606E+00 -6.748114E+00 +9.663502E+02 
 +3.785755E+02 -1.092985E+01 -7.136115E+00 -1.092985E+01 +3.831489E+02 -6.488810E+00 -7.136115E+00 -6.488810E+00 +9.644773E+02 
 +3.607227E+02 -9.041638E+00 -2.627007E+00 -9.041638E+00 +3.653481E+02 -2.508111E+00 -2.627007E+00 -2.508111E+00 +9.547580E+02 
 +3.567439E+02 -6.804978E+00 -2.261883E+00 -6.804978E+00 +3.666376E+02 +2.557671E-01 -2.261883E+00 +2.557671E-01 +9.606083E+02 
 +3.755311E+02 +4.336174E+00 -6.041554E+00 +4.336174E+00 +3.930890E+02 -3.747033E+00 -6.041554E+00 -3.747033E+00 +9.778063E+02 
 +4.054467E+02 +2.678502E+01 -1.117127E+01 +2.678502E+01 +3.939104E+02 -1.299197E+01 -1.117127E+01 -1.299197E+01 +9.910631E+02 
 +3.714696E+02 +2.366572E+01 -9.972246E+00 +2.366572E+01 +3.834733E+02 -5.577762E+00 -9.972246E+00 -5.577762E+00 +9.997974E+02 
 +3.789901E+02 +6.255515E+00 -2.573296E+00 +6.255515E+00 +3.831119E+02 -3.093922E+00 -2.573296E+00 -3.093922E+00 +1.003097E+03 
 +3.558708E+02 +5.270892E+00 -6.985469E+00 +5.270892E+00 +3.761409E+02 -2.853911E+00 -6.985469E+00 -2.853911E+00 +9.983532E+02 
 +3.459091E+02 +5.480922E+00 -7.397869E+00 +5.480922E+00 +3.608590E+02 -5.578851E+00 -7.397869E+00 -5.578851E+00 +9.877590E+02 
 +3.371680E+02 -1.640295E+00 -1.426018E+01 -1.640295E+00 +3.477587E+02 +1.644746E+00 -1.426018E+01 +1.644746E+00 +9.689220E+02 
 +3.552452E+02 -2.619013E+01 -2.500957E+01 -2.619013E+01 +3.443036E+02 +8.285988E+00 -2.500957E+01 +8.285988E+00 +9.610620E+02 
 +3.376891E+02 -2.147043E+01 -2.059702E+01 -2.147043E+01 +3.277950E+02 -1.609310E+00 -2.059702E+01 -1.609310E+00 +9.461249E+02 
 +3.582531E+02 -5.897872E+00 -1.585308E+01 -5.897872E+00 +3.479353E+02 -3.138938E+00 -1.585308E+01 -3.138938E+00 +9.631442E+02 
 +3.705512E+02 -3.740302E+00 -1.917161E+01 -3.740302E+00 +3.563099E+02 +6.677301E+00 -1.917161E+01 +6.677301E+00 +9.814797E+02 
 +3.218717E+02 -1.411169E+01 -6.339905E+00 -1.411169E+01 +3.300392E+02 +1.169382E+01 -6.339905E+00 +1.169382E+01 +9.672748E+02 
 +3.724281E+02 -1.284253E+00 +2.248827E+00 -1.284253E+00 +3.535555E+02 +7.340850E+00 +2.248827E+00 +7.340850E+00 +9.847255E+02 
 +3.919225E+02 -2.513096E+00 +1.749692E+01 -2.513096E+00 +3.695912E+02 -1.818508E+00 +1.749692E+01 -1.818508E+00 +9.904950E+02 
 +3.826573E+02 +9.101775E+00 +2.105037E+01 +9.101775E+00 +3.587151E+02 -6.762885E+00 +2.105037E+01 -6.762885E+00 +9.810586E+02 
 +3.815721E+02 +8.797230E+00 +2.808038E+01 +8.797230E+00 +3.520973E+02 -8.831749E+00 +2.808038E+01 -8.831749E+00 +9.696486E+02 
 +3.933731E+02 +5.899763E+00 +2.105916E+01 +5.899763E+00 +3.510088E+02 -2.201060E+00 +2.105916E+01 -2.201060E+00 +9.621536E+02 
 +3.633869E+02 +1.526585E+01 +8.252379E-01 +1.526585E+01 +3.372612E+02 +4.432291E+00 +8.252379E-01 +4.432291E+00 +9.447779E+02 
 +3.731423E+02 -8.772431E+00 -6.999671E+00 -8.772431E+00 +3.664455E+02 +2.225073E+00 -6.999671E+00 +2.225073E+00 +9.505943E+02 
 +3.616421E+02 -6.668642E+00 -9.857694E+00 -6.668642E+00 +3.659972E+02 +7.319960E-01 -9.857694E+00 +7.319960E-01 +9.467135E+02 
 +3.692969E+02 +9.935827E+00 -1.189581E+01 +9.935827E+00 +3.797453E+02 -6.194537E+00 -1.189581E+01 -6.194537E+00 +9.570605E+02 
 +3.973241E+02 +2.310342E+01 -6.856820E+00 +2.310342E+01 +4.048678E+02 -1.356369E+01 -6.856820E+00 -1.356369E+01 +9.777550E+02 
 +3.836885E+02 +2.890872E+01 -9.760377E+00 +2.890872E+01 +3.966532E+02 -1.078143E+01 -9.760377E+00 -1.078143E+01 +9.897045E+02 
 +3.410190E+02 +2.559001E+01 -9.144852E+00 +2.559001E+01 +3.758241E+02 +2.563123E+00 -9.144852E+00 +2.563123E+00 +9.917298E+02 
 +3.538279E+02 +1.850385E+01 -6.058671E+00 +1.850385E+01 +3.833821E+02 -2.964257E-01 -6.058671E+00 -2.964257E-01 +9.990019E+02 
 +3.423292E+02 +1.446232E+01 -2.794078E+00 +1.446232E+01 +3.755374E+02 -1.347678E+00 -2.794078E+00 -1.347678E+00 +9.947015E+02 
 +3.283825E+02 +1.061120E+01 +1.374817E+00 +1.061120E+01 +3.537756E+02 -7.551436E+00 +1.374817E+00 -7.551436E+00 +9.794403E+02 
 +3.350774E+02 +7.841659E+00 -4.280663E+00 +7.841659E+00 +3.329458E+02 -2.242830E+00 -4.280663E+00 -2.242830E+00 +9.659784E+02 
 +3.720234E+02 -2.105739E+01 -1.870835E+01 -2.105739E+01 +3.300602E+02 +7.294999E+00 -1.870835E+01 +7.294999E+00 +9.615930E+02 
 +3.553900E+02 -1.201089E+01 -1.794345E+01 -1.201089E+01 +3.214322E+02 +1.494060E+00 -1.794345E+01 +1.494060E+00 +9.472460E+02 
 +3.548021E+02 -1.259325E+01 -1.498157E+01 -1.259325E+01 +3.359363E+02 -1.063936E+00 -1.498157E+01 -1.063936E+00 +9.610901E+02 
 +3.594371E+02 -1.038472E+01 -6.879232E+00 -1.038472E+01 +3.388139E+02 -4.332626E+00 -6.879232E+00 -4.332626E+00 +9.738374E+02 
 +3.547705E+02 -1.660604E+01 -9.698485E-01 -1.660604E+01 +3.383333E+02 -2.319577E+00 -9.698485E-01 -2.319577E+00 +9.749514E+02 
 +3.741744E+02 -9.079363E+00 +7.555538E+00 -9.079363E+00 +3.546016E+02 -2.642180E+00 +7.555538E+00 -2.642180E+00 +9.787155E+02 
 +3.840472E+02 -6.611592E+00 +1.549565E+01 -6.611592E+00 +3.665190E+02 -8.678435E+00 +1.549565E+01 -8.678435E+00 +9.774015E+02 
 +3.846282E+02 -8.152702E+00 +2.729645E+01 -8.152702E+00 +3.612584E+02 -1.352631E+01 +2.729645E+01 -1.352631E+01 +9.728425E+02 
 +3.735278E+02 +7.014734E+00 +2.812707E+01 +7.014734E+00 +3.433365E+02 -1.456171E+01 +2.812707E+01 -1.456171E+01 +9.553078E+02 
 +3.875565E+02 -2.481777E+00 +1.271444E+01 -2.481777E+00 +3.682474E+02 -1.546301E+01 +1.271444E+01 -1.546301E+01 +9.503498E+02 
 +3.746617E+02 +1.016249E+01 +3.663277E+00 +1.016249E+01 +3.616498E+02 -1.077491E+01 +3.663277E+00 -1.077491E+01 +9.370658E+02 
 +3.751845E+02 +1.041625E+00 -1.805261E+00 +1.041625E+00 +3.560699E+02 -1.004616E+01 -1.805261E+00 -1.004616E+01 +9.315763E+02 
 +3.877714E+02 +7.550321E+00 -1.064523E+01 +7.550321E+00 +3.824827E+02 -1.307010E+01 -1.064523E+01 -1.307010E+01 +9.390186E+02 
 +3.646431E+02 +1.949993E+01 -6.712252E+00 +1.949993E+01 +3.883711E+02 -1.322002E+01 -6.712252E+00 -1.322002E+01 +9.348718E+02 
 +3.957644E+02 +9.810473E+00 +2.414051E+00 +9.810473E+00 +4.023457E+02 -1.188351E+01 +2.414051E+00 -1.188351E+01 +9.623941E+02 
 +3.469059E+02 +2.188040E+01 -6.601244E+00 +2.188040E+01 +3.738400E+02 -2.463424E+00 -6.601244E+00 -2.463424E+00 +9.744307E+02 
 +3.341763E+02 +1.866113E+01 -1.250710E+01 +1.866113E+01 +3.727442E+02 +7.831265E+00 -1.250710E+01 +7.831265E+00 +9.850258E+02 
 +3.330068E+02 +1.962335E+01 -1.236602E+01 +1.962335E+01 +3.757952E+02 +2.289839E+00 -1.236602E+01 +2.289839E+00 +9.954925E+02 
 +3.404578E+02 +1.695626E+01 -5.504035E+00 +1.695626E+01 +3.783571E+02 -3.941633E+00 -5.504035E+00 -3.941633E+00 +9.983400E+02 
 +3.362418E+02 +1.728209E+01 -4.874555E+00 +1.728209E+01 +3.558846E+02 -9.396499E+00 -4.874555E+00 -9.396499E+00 +9.770068E+02 
 +3.253418E+02 +1.465537E+01 -6.492026E+00 +1.465537E+01 +3.118204E+02 -6.195699E+00 -6.492026E+00 -6.195699E+00 +9.494764E+02 
 +3.587403E+02 -1.155182E+01 -1.185132E+01 -1.155182E+01 +3.156764E+02 -5.713623E-01 -1.185132E+01 -5.713623E-01 +9.467716E+02 
 +3.485625E+02 -8.244276E+00 -1.075322E+01 -8.244276E+00 +3.204844E+02 +1.101434E+00 -1.075322E+01 +1.101434E+00 +9.404138E+02 
 +3.467779E+02 -1.074572E+01 -8.933224E+00 -1.074572E+01 +3.252545E+02 +4.862701E+00 -8.933224E+00 +4.862701E+00 +9.520433E+02 
 +3.554601E+02 -1.452948E+01 +5.157277E+00 -1.452948E+01 +3.302619E+02 -1.046517E+00 +5.157277E+00 -1.046517E+00 +9.637237E+02 
 +3.674180E+02 -1.949295E+01 +2.787858E+00 -1.949295E+01 +3.383656E+02 -5.791623E+00 +2.787858E+00 -5.791623E+00 +9.736827E+02 
 +3.716780E+02 -1.664132E+01 +6.465727E+00 -1.664132E+01 +3.459519E+02 -7.844542E+00 +6.465727E+00 -7.844542E+00 +9.696107E+02 
 +3.801619E+02 -4.898729E+00 +5.107711E+00 -4.898729E+00 +3.537615E+02 -1.213230E+01 +5.107711E+00 -1.213230E+01 +9.604412E+02 
 +3.885294E+02 -9.240859E+00 +2.180550E+01 -9.240859E+00 +3.681960E+02 -2.419527E+01 +2.180550E+01 -2.419527E+01 +9.603612E+02 
 +3.880079E+02 +7.561856E+00 +9.469948E+00 +7.561856E+00 +3.770996E+02 -3.408662E+01 +9.469948E+00 -3.408662E+01 +9.517295E+02 
 +3.854980E+02 +6.986038E+00 -9.113147E-01 +6.986038E+00 +3.771919E+02 -2.510860E+01 -9.113147E-01 -2.510860E+01 +9.384441E+02 
 +3.902060E+02 +1.210957E+01 -5.041231E+00 +1.210957E+01 +3.780307E+02 -1.513093E+01 -5.041231E+00 -1.513093E+01 +9.355545E+02 
 +3.937522E+02 +9.950040E-01 +7.931260E-01 +9.950040E-01 +3.815433E+02 -1.176503E+01 +7.931260E-01 -1.176503E+01 +9.302478E+02 
 +3.902699E+02 -3.653355E+00 +2.779839E+00 -3.653355E+00 +3.943782E+02 -2.556892E+00 +2.779839E+00 -2.556892E+00 +9.285604E+02 
 +3.652867E+02 +3.665863E+00 +1.414719E+01 +3.665863E+00 +3.892938E+02 +6.043390E+00 +1.414719E+01 +6.043390E+00 +9.238853E+02 
 +3.795462E+02 -3.143488E+00 +8.147536E+00 -3.143488E+00 +3.954883E+02 +3.743516E+00 +8.147536E+00 +3.743516E+00 +9.515125E+02 
 +3.431330E+02 +1.759572E+01 -7.473676E+00 +1.759572E+01 +3.753901E+02 +4.037054E+00 -7.473676E+00 +4.037054E+00 +9.721043E+02 
 +3.257297E+02 +2.121118E+01 -1.642724E+01 +2.121118E+01 +3.684915E+02 +2.428539E+00 -1.642724E+01 +2.428539E+00 +9.748131E+02 
 +3.244859E+02 +1.801317E+01 -1.327866E+01 +1.801317E+01 +3.764751E+02 -5.053752E+00 -1.327866E+01 -5.053752E+00 +9.937062E+02 
 +3.423966E+02 +1.113556E+01 -8.640930E+00 +1.113556E+01 +3.744485E+02 -2.816230E+00 -8.640930E+00 -2.816230E+00 +9.897970E+02 
 +3.503305E+02 +6.097155E+00 -8.347391E+00 +6.097155E+00 +3.569989E+02 +1.698700E+00 -8.347391E+00 +1.698700E+00 +9.670317E+02 
 +3.424607E+02 +6.788627E-01 -7.495154E+00 +6.788627E-01 +3.373931E+02 +3.136702E+00 -7.495154E+00 +3.136702E+00 +9.441683E+02 
 +3.468726E+02 -8.756922E+00 -4.457916E+00 -8.756922E+00 +3.352891E+02 +5.109273E-01 -4.457916E+00 +5.109273E-01 +9.313693E+02 
 +3.346374E+02 -9.904772E+00 -4.247118E+00 -9.904772E+00 +3.212886E+02 +1.421355E+00 -4.247118E+00 +1.421355E+00 +9.230974E+02 
 +3.379550E+02 -1.202828E+01 +2.497436E+00 -1.202828E+01 +3.210183E+02 +3.536079E+00 +2.497436E+00 +3.536079E+00 +9.401029E+02 
 +3.534601E+02 -1.952221E+01 +9.381973E+00 -1.952221E+01 +3.335653E+02 -1.046917E+00 +9.381973E+00 -1.046917E+00 +9.551053E+02 
 +3.674378E+02 -2.214451E+01 +4.806528E+00 -2.214451E+01 +3.405280E+02 -1.043370E+00 +4.806528E+00 -1.043370E+00 +9.604664E+02 
 +3.748607E+02 -2.056757E+01 +1.278051E+00 -2.056757E+01 +3.430783E+02 -3.572825E+00 +1.278051E+00 -3.572825E+00 +9.598805E+02 
 +3.835840E+02 -1.302531E+01 -2.803395E+00 -1.302531E+01 +3.419892E+02 -1.776994E+01 -2.803395E+00 -1.776994E+01 +9.503076E+02 
 +3.890926E+02 -8.512842E+00 +1.586850E+00 -8.512842E+00 +3.562939E+02 -3.335659E+01 +1.586850E+00 -3.335659E+01 +9.484474E+02 
 +3.935642E+02 +8.793692E+00 -8.989658E+00 +8.793692E+00 +3.729796E+02 -3.702105E+01 -8.989658E+00 -3.702105E+01 +9.496409E+02 
 +3.866532E+02 +8.150843E+00 +1.125321E-01 +8.150843E+00 +3.711306E+02 -2.580440E+01 +1.125321E-01 -2.580440E+01 +9.433924E+02 
 +3.743608E+02 +5.616327E+00 -6.063528E+00 +5.616327E+00 +3.733563E+02 -1.528016E+01 -6.063528E+00 -1.528016E+01 +9.354602E+02 
 +3.759063E+02 -8.110698E+00 +6.213230E+00 -8.110698E+00 +3.845580E+02 -4.006684E+00 +6.213230E+00 -4.006684E+00 +9.257190E+02 
 +3.726280E+02 -1.129772E+01 +1.318821E+01 -1.129772E+01 +3.876537E+02 +2.886405E+00 +1.318821E+01 +2.886405E+00 +9.195569E+02 
 +3.819764E+02 -8.489431E+00 +1.757046E+01 -8.489431E+00 +3.914667E+02 +2.371405E+00 +1.757046E+01 +2.371405E+00 +9.258708E+02 
 +3.873298E+02 -1.404933E+01 +6.319816E+00 -1.404933E+01 +3.984694E+02 -3.123645E+00 +6.319816E+00 -3.123645E+00 +9.471640E+02 
 +3.453494E+02 +1.242212E+01 -9.811302E+00 +1.242212E+01 +3.766189E+02 +6.159135E-01 -9.811302E+00 +6.159135E-01 +9.579688E+02 
 +3.298688E+02 +2.377695E+01 -1.185686E+01 +2.377695E+01 +3.618784E+02 +6.678953E+00 -1.185686E+01 +6.678953E+00 +9.756172E+02 
 +3.439901E+02 +1.558753E+01 -9.932886E+00 +1.558753E+01 +3.727399E+02 -5.314628E+00 -9.932886E+00 -5.314628E+00 +9.898747E+02 
 +3.328050E+02 +1.855536E+01 +1.772537E+00 +1.855536E+01 +3.538532E+02 -5.722534E+00 +1.772537E+00 -5.722534E+00 +9.873808E+02 
 +3.510161E+02 +9.219043E+00 -4.684303E-01 +9.219043E+00 +3.497589E+02 -8.424013E-01 -4.684303E-01 -8.424013E-01 +9.766113E+02 
 +3.460928E+02 +6.705870E+00 -5.232171E-01 +6.705870E+00 +3.378406E+02 +2.841085E+00 -5.232171E-01 +2.841085E+00 +9.478000E+02 
 +3.378194E+02 +7.254635E-01 -1.267103E+00 +7.254635E-01 +3.299439E+02 +5.720153E+00 -1.267103E+00 +5.720153E+00 +9.261091E+02 
 +3.428742E+02 -2.653227E+00 +5.214938E+00 -2.653227E+00 +3.332033E+02 +2.883414E+00 +5.214938E+00 +2.883414E+00 +9.348908E+02 
 +3.557514E+02 +4.064886E+00 +2.361850E+01 +4.064886E+00 +3.418263E+02 +8.663873E-01 +2.361850E+01 +8.663873E-01 +9.562470E+02 
 +3.574695E+02 +3.057374E-01 +1.437734E+01 +3.057374E-01 +3.420956E+02 +2.400915E+00 +1.437734E+01 +2.400915E+00 +9.517038E+02 
 +3.606696E+02 -4.028654E+00 +1.105343E+01 -4.028654E+00 +3.456062E+02 +1.558328E+00 +1.105343E+01 +1.558328E+00 +9.531009E+02 
 +3.676625E+02 -1.064937E+01 -1.642365E+00 -1.064937E+01 +3.445343E+02 -4.783766E+00 -1.642365E+00 -4.783766E+00 +9.586850E+02 
 +3.825686E+02 -4.618207E+00 -1.423625E+01 -4.618207E+00 +3.551564E+02 -1.098364E+01 -1.423625E+01 -1.098364E+01 +9.587568E+02 
 +3.906251E+02 -6.642137E+00 -1.701320E+01 -6.642137E+00 +3.564109E+02 -1.657262E+01 -1.701320E+01 -1.657262E+01 +9.504205E+02 
 +3.881801E+02 -1.192049E+00 -1.508685E+01 -1.192049E+00 +3.476630E+02 -2.871834E+01 -1.508685E+01 -2.871834E+01 +9.605848E+02 
 +3.771512E+02 +3.959207E+00 -5.829860E+00 +3.959207E+00 +3.609908E+02 -3.090809E+01 -5.829860E+00 -3.090809E+01 +9.567524E+02 
 +3.890493E+02 -4.618384E+00 -4.682981E+00 -4.618384E+00 +3.868830E+02 -1.795235E+01 -4.682981E+00 -1.795235E+01 +9.415825E+02 
 +3.630400E+02 -1.345127E+01 +8.923651E+00 -1.345127E+01 +3.794580E+02 -4.811263E+00 +8.923651E+00 -4.811263E+00 +9.292540E+02 
 +3.618775E+02 -1.349723E+01 +8.310655E+00 -1.349723E+01 +3.874835E+02 -1.859675E+00 +8.310655E+00 -1.859675E+00 +9.333946E+02 
 +3.729636E+02 -1.354601E+01 +5.229709E-01 -1.354601E+01 +3.887886E+02 -9.228025E-01 +5.229709E-01 -9.228025E-01 +9.298126E+02 
 +4.048574E+02 -1.715800E+01 +3.109055E+00 -1.715800E+01 +4.118202E+02 -2.850669E+00 +3.109055E+00 -2.850669E+00 +9.538184E+02 
 +3.581175E+02 +1.218370E+01 -6.852505E+00 +1.218370E+01 +3.816068E+02 +2.686862E+00 -6.852505E+00 +2.686862E+00 +9.659298E+02 
 +3.266317E+02 +1.354101E+01 -5.201351E+00 +1.354101E+01 +3.579819E+02 -3.230443E+00 -5.201351E+00 -3.230443E+00 +9.494052E+02 
 +3.463334E+02 -6.821351E-01 -8.457090E+00 -6.821351E-01 +3.596044E+02 -2.753451E+00 -8.457090E+00 -2.753451E+00 +9.550856E+02 
 +3.372005E+02 +8.322930E+00 +3.160549E+00 +8.322930E+00 +3.405457E+02 +2.264571E+00 +3.160549E+00 +2.264571E+00 +9.507760E+02 
 +3.537496E+02 +9.692831E+00 -8.785142E-01 +9.692831E+00 +3.465336E+02 +3.450749E+00 -8.785142E-01 +3.450749E+00 +9.611877E+02 
 +3.514302E+02 +9.755235E+00 +6.769838E-01 +9.755235E+00 +3.455773E+02 +5.440912E+00 +6.769838E-01 +5.440912E+00 +9.577396E+02 
 +3.506862E+02 +3.744098E+00 +2.223055E+00 +3.744098E+00 +3.384468E+02 +7.339571E+00 +2.223055E+00 +7.339571E+00 +9.392355E+02 
 +3.545512E+02 -1.084502E+00 +8.608530E+00 -1.084502E+00 +3.366625E+02 +7.886401E+00 +8.608530E+00 +7.886401E+00 +9.350282E+02 
 +3.598652E+02 +3.780977E+00 +2.722509E+01 +3.780977E+00 +3.435884E+02 +1.706148E+00 +2.722509E+01 +1.706148E+00 +9.534423E+02 
 +3.553735E+02 +3.554580E+00 +1.973605E+01 +3.554580E+00 +3.484661E+02 -4.256358E+00 +1.973605E+01 -4.256358E+00 +9.512385E+02 
 +3.557031E+02 -8.709661E-01 +1.540448E+01 -8.709661E-01 +3.517721E+02 -6.527833E-01 +1.540448E+01 -6.527833E-01 +9.483406E+02 
 +3.698373E+02 -2.556373E+00 -1.175406E+01 -2.556373E+00 +3.555361E+02 -5.303435E+00 -1.175406E+01 -5.303435E+00 +9.533044E+02 
 +3.748757E+02 +9.786526E+00 -2.119751E+01 +9.786526E+00 +3.527870E+02 -9.484698E+00 -2.119751E+01 -9.484698E+00 +9.541126E+02 
 +3.884028E+02 +3.532006E+00 -2.339919E+01 +3.532006E+00 +3.543310E+02 -1.366833E+01 -2.339919E+01 -1.366833E+01 +9.579315E+02 
 +3.504818E+02 +1.315874E+01 -5.374936E+00 +1.315874E+01 +3.475764E+02 -1.919598E+01 -5.374936E+00 -1.919598E+01 +9.654639E+02 
 +3.415278E+02 +1.016756E+01 -6.307025E+00 +1.016756E+01 +3.584689E+02 -1.685282E+01 -6.307025E+00 -1.685282E+01 +9.684017E+02 
 +3.725724E+02 -1.349132E+01 -2.642334E+00 -1.349132E+01 +3.705010E+02 -1.584079E+01 -2.642334E+00 -1.584079E+01 +9.493741E+02 
 +3.796077E+02 -1.701984E+01 +8.243469E+00 -1.701984E+01 +3.813025E+02 -1.417668E+01 +8.243469E+00 -1.417668E+01 +9.376974E+02 
 +3.699822E+02 -1.625402E+01 +7.599146E+00 -1.625402E+01 +3.866923E+02 -8.511313E+00 +7.599146E+00 -8.511313E+00 +9.367851E+02 
 +3.808121E+02 -1.786109E+01 +3.147984E+00 -1.786109E+01 +3.908847E+02 -7.538682E+00 +3.147984E+00 -7.538682E+00 +9.360897E+02 
 +3.938362E+02 -1.922703E+01 +5.274102E+00 -1.922703E+01 +4.023946E+02 -1.096781E+01 +5.274102E+00 -1.096781E+01 +9.404606E+02 
 +3.859742E+02 -1.167175E+01 +2.095321E+00 -1.167175E+01 +3.996032E+02 -6.460468E+00 +2.095321E+00 -6.460468E+00 +9.571001E+02 
 +3.471467E+02 +1.082995E+01 -2.453969E-03 +1.082995E+01 +3.540420E+02 -1.597698E+01 -2.453969E-03 -1.597698E+01 +9.340059E+02 
 +3.371465E+02 +7.565155E+00 -2.902276E+00 +7.565155E+00 +3.272689E+02 -1.986785E+01 -2.902276E+00 -1.986785E+01 +9.277234E+02 
 +3.480715E+02 +9.196643E+00 +1.459520E+00 +9.196643E+00 +3.312942E+02 -1.798868E+01 +1.459520E+00 -1.798868E+01 +9.380623E+02 
 +3.457668E+02 +6.747829E+00 +2.325211E+00 +6.747829E+00 +3.260017E+02 -1.788694E+01 +2.325211E+00 -1.788694E+01 +9.444022E+02 
 +3.436838E+02 +5.555600E+00 +7.661725E+00 +5.555600E+00 +3.228931E+02 -1.515738E+01 +7.661725E+00 -1.515738E+01 +9.452827E+02 
 +3.484536E+02 +1.454693E+00 +1.444361E+01 +1.454693E+00 +3.240521E+02 -1.021269E+01 +1.444361E+01 -1.021269E+01 +9.387161E+02 
 +3.559141E+02 -3.856553E+00 +1.924281E+01 -3.856553E+00 +3.283729E+02 -1.282587E+00 +1.924281E+01 -1.282587E+00 +9.386802E+02 
 +3.623711E+02 +4.729295E+00 +2.200157E+01 +4.729295E+00 +3.372968E+02 +2.550526E+00 +2.200157E+01 +2.550526E+00 +9.538428E+02 
 +3.599847E+02 +8.781223E+00 +1.721343E+01 +8.781223E+00 +3.442183E+02 -1.855710E+00 +1.721343E+01 -1.855710E+00 +9.584994E+02 
 +3.667550E+02 +7.524220E+00 +1.660993E+01 +7.524220E+00 +3.526763E+02 -2.331306E+00 +1.660993E+01 -2.331306E+00 +9.507854E+02 
 +3.683155E+02 +4.553095E+00 -1.073169E+01 +4.553095E+00 +3.571166E+02 -4.338694E+00 -1.073169E+01 -4.338694E+00 +9.483155E+02 
 +3.557764E+02 +8.379059E+00 -7.932141E+00 +8.379059E+00 +3.404738E+02 -5.930248E+00 -7.932141E+00 -5.930248E+00 +9.472528E+02 
 +3.696700E+02 +2.309075E+00 -1.064071E+01 +2.309075E+00 +3.526590E+02 -8.117393E+00 -1.064071E+01 -8.117393E+00 +9.571162E+02 
 +3.247677E+02 +1.855957E+01 +5.213544E+00 +1.855957E+01 +3.593684E+02 -1.105537E+01 +5.213544E+00 -1.105537E+01 +9.579138E+02 
 +3.211986E+02 +2.239179E+01 -3.489256E+00 +2.239179E+01 +3.613966E+02 -5.716482E+00 -3.489256E+00 -5.716482E+00 +9.708063E+02 
 +3.424501E+02 +1.029035E+01 -3.736509E+00 +1.029035E+01 +3.607522E+02 -4.226858E+00 -3.736509E+00 -4.226858E+00 +9.647175E+02 
 +3.767023E+02 -2.085061E+00 +6.033636E+00 -2.085061E+00 +3.844875E+02 -9.293644E+00 +6.033636E+00 -9.293644E+00 +9.500083E+02 
 +3.953005E+02 -1.630979E+01 +1.188376E+01 -1.630979E+01 +3.986423E+02 -1.060346E+01 +1.188376E+01 -1.060346E+01 +9.431944E+02 
 +3.852405E+02 -1.608706E+01 +6.618088E+00 -1.608706E+01 +3.926965E+02 -1.030885E+01 +6.618088E+00 -1.030885E+01 +9.345772E+02 
 +3.791283E+02 -1.252470E+01 +5.667669E+00 -1.252470E+01 +3.873846E+02 -8.670851E+00 +5.667669E+00 -8.670851E+00 +9.246304E+02 
 +3.773679E+02 -7.008064E+00 +4.611446E+00 -7.008064E+00 +3.874113E+02 -6.507899E+00 +4.611446E+00 -6.507899E+00 +9.345119E+02 
 +3.820131E+02 +1.723436E+01 +2.704823E+00 +1.723436E+01 +3.717013E+02 -7.381116E+00 +2.704823E+00 -7.381116E+00 +9.396223E+02 
 +3.567051E+02 +1.348908E+01 +6.006401E+00 +1.348908E+01 +3.481727E+02 -1.477295E+01 +6.006401E+00 -1.477295E+01 +9.443158E+02 
 +3.524718E+02 +1.196656E+01 +5.739572E+00 +1.196656E+01 +3.388844E+02 -1.956873E+01 +5.739572E+00 -1.956873E+01 +9.534868E+02 
 +3.514473E+02 +9.439547E+00 +6.439639E+00 +9.439547E+00 +3.349048E+02 -1.918737E+01 +6.439639E+00 -1.918737E+01 +9.538608E+02 
 +3.477592E+02 +4.205588E+00 +1.325699E+01 +4.205588E+00 +3.305441E+02 -1.741725E+01 +1.325699E+01 -1.741725E+01 +9.498647E+02 
 +3.612129E+02 -2.329039E+00 +2.593961E+01 -2.329039E+00 +3.382629E+02 -1.459985E+01 +2.593961E+01 -1.459985E+01 +9.486698E+02 
 +3.611085E+02 -1.152930E+01 +2.644905E+01 -1.152930E+01 +3.362945E+02 -1.107243E+01 +2.644905E+01 -1.107243E+01 +9.434189E+02 
 +3.706243E+02 -2.205759E+00 +1.671355E+01 -2.205759E+00 +3.335919E+02 -6.976285E+00 +1.671355E+01 -6.976285E+00 +9.412143E+02 
 +3.828764E+02 +1.210261E+01 +1.291664E+01 +1.210261E+01 +3.420422E+02 -3.487830E+00 +1.291664E+01 -3.487830E+00 +9.456367E+02 
 +3.824096E+02 +1.415016E+01 +1.622358E+01 +1.415016E+01 +3.599127E+02 -3.723156E+00 +1.622358E+01 -3.723156E+00 +9.517020E+02 
 +3.631078E+02 +8.279093E+00 +2.115741E+00 +8.279093E+00 +3.761536E+02 -3.202429E-01 +2.115741E+00 -3.202429E-01 +9.504482E+02 
 +3.550572E+02 -3.282951E+00 +1.804404E+00 -3.282951E+00 +3.786040E+02 +6.910298E+00 +1.804404E+00 +6.910298E+00 +9.493226E+02 
 +3.438365E+02 +6.526869E+00 -2.625038E+00 +6.526869E+00 +3.766397E+02 +1.386572E+00 -2.625038E+00 +1.386572E+00 +9.494423E+02 
 +3.298250E+02 +1.784866E+01 -3.406019E-01 +1.784866E+01 +3.739844E+02 -8.784524E+00 -3.406019E-01 -8.784524E+00 +9.494358E+02 
 +3.333968E+02 +1.671842E+01 -3.015411E+00 +1.671842E+01 +3.665383E+02 -7.129219E+00 -3.015411E+00 -7.129219E+00 +9.615205E+02 
 +3.306874E+02 +1.982462E+01 -3.302042E+00 +1.982462E+01 +3.643705E+02 +9.895386E-01 -3.302042E+00 +9.895386E-01 +9.706659E+02 
 +3.341564E+02 +1.885771E+01 -1.008142E+00 +1.885771E+01 +3.663483E+02 +1.330431E-01 -1.008142E+00 +1.330431E-01 +9.583267E+02 
 +3.912440E+02 -8.077398E+00 +1.111966E+01 -8.077398E+00 +3.945802E+02 -7.080593E+00 +1.111966E+01 -7.080593E+00 +9.551023E+02 
 +4.003643E+02 -1.246621E+01 +9.317864E+00 -1.246621E+01 +3.940623E+02 -6.619582E+00 +9.317864E+00 -6.619582E+00 +9.381280E+02 
 +3.846114E+02 -6.078829E+00 +8.149232E+00 -6.078829E+00 +3.815653E+02 -3.351160E+00 +8.149232E+00 -3.351160E+00 +9.181292E+02 
 +3.750511E+02 +4.688124E+00 +8.715852E+00 +4.688124E+00 +3.741512E+02 -2.097632E+00 +8.715852E+00 -2.097632E+00 +9.202381E+02 
 +4.001895E+02 +1.502607E+01 -1.788437E+00 +1.502607E+01 +3.883302E+02 +6.409083E-01 -1.788437E+00 +6.409083E-01 +9.366585E+02 
 +3.564008E+02 +8.321997E+00 +6.287178E+00 +8.321997E+00 +3.609906E+02 -5.560855E+00 +6.287178E+00 -5.560855E+00 +9.537668E+02 
 +3.590948E+02 +6.412986E+00 +5.344451E+00 +6.412986E+00 +3.570729E+02 -1.645690E+01 +5.344451E+00 -1.645690E+01 +9.684250E+02 
 +3.545737E+02 +2.944504E+00 +8.714669E+00 +2.944504E+00 +3.505594E+02 -2.214902E+01 +8.714669E+00 -2.214902E+01 +9.666376E+02 
 +3.505124E+02 -1.565871E+00 +1.506610E+01 -1.565871E+00 +3.474605E+02 -2.251420E+01 +1.506610E+01 -2.251420E+01 +9.628043E+02 
 +3.634362E+02 -9.059721E+00 +2.733232E+01 -9.059721E+00 +3.507750E+02 -2.384475E+01 +2.733232E+01 -2.384475E+01 +9.476304E+02 
 +3.686817E+02 -1.741021E+01 +2.396324E+01 -1.741021E+01 +3.525932E+02 -2.579927E+01 +2.396324E+01 -2.579927E+01 +9.234548E+02 
 +4.044965E+02 -6.667332E+00 +1.607301E+01 -6.667332E+00 +3.776668E+02 -1.916180E+01 +1.607301E+01 -1.916180E+01 +9.249051E+02 
 +4.276650E+02 +1.886567E+00 +1.489962E+01 +1.886567E+00 +3.962792E+02 -8.583937E+00 +1.489962E+01 -8.583937E+00 +9.452946E+02 
 +3.935294E+02 -1.426613E+00 +1.680841E+01 -1.426613E+00 +4.017513E+02 -7.323068E+00 +1.680841E+01 -7.323068E+00 +9.681785E+02 
 +3.756056E+02 -1.452010E+01 +1.006048E+01 -1.452010E+01 +4.093886E+02 -8.005835E+00 +1.006048E+01 -8.005835E+00 +9.714993E+02 
 +3.456477E+02 -2.555189E+01 +1.308822E+00 -2.555189E+01 +3.850855E+02 -1.272049E+00 +1.308822E+00 -1.272049E+00 +9.436674E+02 
 +3.326177E+02 +4.469848E+00 -6.306791E+00 +4.469848E+00 +3.782427E+02 -3.805787E+00 -6.306791E+00 -3.805787E+00 +9.398449E+02 
 +3.541753E+02 +1.819977E+01 -9.630673E+00 +1.819977E+01 +3.880628E+02 -1.003321E+01 -9.630673E+00 -1.003321E+01 +9.561965E+02 
 +3.317208E+02 +1.809594E+01 -6.978567E+00 +1.809594E+01 +3.656657E+02 -7.451738E+00 -6.978567E+00 -7.451738E+00 +9.577641E+02 
 +3.337553E+02 +1.904179E+01 -5.459658E+00 +1.904179E+01 +3.675291E+02 -6.685490E+00 -5.459658E+00 -6.685490E+00 +9.674485E+02 
 +3.329748E+02 +2.235972E+01 -5.233469E+00 +2.235972E+01 +3.704223E+02 -1.028493E+00 -5.233469E+00 -1.028493E+00 +9.736461E+02 
 +3.705487E+02 +1.003136E+01 +4.251108E+00 +1.003136E+01 +3.915872E+02 +4.840831E+00 +4.251108E+00 +4.840831E+00 +9.728652E+02 
 +4.173585E+02 -1.148660E+00 +6.936063E+00 -1.148660E+00 +4.108879E+02 +1.047550E+00 +6.936063E+00 +1.047550E+00 +9.487568E+02 
 +3.967211E+02 +1.136533E+00 +9.988525E+00 +1.136533E+00 +3.919803E+02 -3.703460E+00 +9.988525E+00 -3.703460E+00 +9.140815E+02 
 +4.026342E+02 +6.961399E+00 +5.344380E+00 +6.961399E+00 +3.932868E+02 -9.018627E-01 +5.344380E+00 -9.018627E-01 +9.155874E+02 
 +3.958913E+02 +5.200313E+00 -2.851081E+00 +5.200313E+00 +3.822456E+02 +1.168348E+00 -2.851081E+00 +1.168348E+00 +9.306076E+02 
 +3.605495E+02 +2.816670E+00 +2.625906E+00 +2.816670E+00 +3.687883E+02 -2.606482E+00 +2.625906E+00 -2.606482E+00 +9.525135E+02 
 +3.512906E+02 +2.384200E+00 +8.713910E+00 +2.384200E+00 +3.654045E+02 -1.218740E+01 +8.713910E+00 -1.218740E+01 +9.629442E+02 
 +3.490888E+02 +8.955652E-01 +1.426622E+01 +8.955652E-01 +3.600159E+02 -1.888662E+01 +1.426622E+01 -1.888662E+01 +9.614609E+02 
 +3.503794E+02 -3.365911E+00 +2.039875E+01 -3.365911E+00 +3.626917E+02 -2.040245E+01 +2.039875E+01 -2.040245E+01 +9.615612E+02 
 +3.623476E+02 -1.035420E+01 +2.440050E+01 -1.035420E+01 +3.703915E+02 -2.082567E+01 +2.440050E+01 -2.082567E+01 +9.407685E+02 
 +4.007763E+02 -1.694129E+01 +1.804649E+01 -1.694129E+01 +3.867625E+02 -2.446092E+01 +1.804649E+01 -2.446092E+01 +9.121589E+02 
 +4.164077E+02 -7.292402E+00 +1.419814E+01 -7.292402E+00 +3.951733E+02 -2.654304E+01 +1.419814E+01 -2.654304E+01 +9.150089E+02 
 +4.188149E+02 -5.976196E+00 +1.030518E+01 -5.976196E+00 +4.067078E+02 -1.713607E+01 +1.030518E+01 -1.713607E+01 +9.468356E+02 
 +3.849741E+02 +3.613714E-01 +1.091521E+01 +3.613714E-01 +4.023973E+02 -7.331720E-01 +1.091521E+01 -7.331720E-01 +9.656338E+02 
 +3.884801E+02 -1.145516E+01 +3.804196E+00 -1.145516E+01 +4.177360E+02 +5.266545E+00 +3.804196E+00 +5.266545E+00 +9.832890E+02 
 +3.770852E+02 -2.019917E+01 -3.971884E-02 -2.019917E+01 +4.172114E+02 +3.428296E+00 -3.971884E-02 +3.428296E+00 +9.710608E+02 
 +3.317807E+02 +3.359890E+00 -7.069242E+00 +3.359890E+00 +3.654758E+02 -4.393775E+00 -7.069242E+00 -4.393775E+00 +9.349440E+02 
 +3.479357E+02 +1.633648E+01 -1.459008E+01 +1.633648E+01 +3.549600E+02 -1.144439E+01 -1.459008E+01 -1.144439E+01 +9.437147E+02 
 +3.197630E+02 +1.492484E+01 -1.021292E+01 +1.492484E+01 +3.597712E+02 -1.062388E+01 -1.021292E+01 -1.062388E+01 +9.570000E+02 
 +3.280488E+02 +1.388370E+01 -5.144548E+00 +1.388370E+01 +3.673234E+02 -1.173925E+01 -5.144548E+00 -1.173925E+01 +9.687125E+02 
 +3.482601E+02 +1.586454E+01 +2.993898E-01 +1.586454E+01 +3.758337E+02 -9.505708E+00 +2.993898E-01 -9.505708E+00 +9.885753E+02 
 +3.683966E+02 +2.864606E+00 +2.502177E+00 +2.864606E+00 +3.890544E+02 -3.514260E+00 +2.502177E+00 -3.514260E+00 +9.951318E+02 
 +4.175103E+02 -1.089265E+00 +2.539954E+00 -1.089265E+00 +4.208747E+02 -9.700273E-01 +2.539954E+00 -9.700273E-01 +9.647635E+02 
 +4.236280E+02 -3.526097E+00 +5.289590E+00 -3.526097E+00 +4.184575E+02 -3.291951E+00 +5.289590E+00 -3.291951E+00 +9.235589E+02 
 +4.059866E+02 +2.523089E+00 +6.280789E-01 +2.523089E+00 +3.905723E+02 -1.978725E+00 +6.280789E-01 -1.978725E+00 +9.091483E+02 
 +3.950516E+02 +2.461544E+00 +1.802551E+00 +2.461544E+00 +3.879648E+02 -8.257343E+00 +1.802551E+00 -8.257343E+00 +9.336033E+02 
 +3.786598E+02 +6.255677E+00 +6.713035E-01 +6.255677E+00 +3.826320E+02 -7.854388E+00 +6.713035E-01 -7.854388E+00 +9.437982E+02 
 +3.342966E+02 +1.115149E+00 +1.621448E+01 +1.115149E+00 +3.638956E+02 -9.891424E+00 +1.621448E+01 -9.891424E+00 +9.459419E+02 
 +3.428010E+02 +2.423215E+00 +2.341682E+01 +2.423215E+00 +3.715060E+02 -1.581134E+01 +2.341682E+01 -1.581134E+01 +9.536494E+02 
 +3.517835E+02 -8.582213E-01 +2.808663E+01 -8.582213E-01 +3.782733E+02 -2.244438E+01 +2.808663E+01 -2.244438E+01 +9.445909E+02 
 +3.603434E+02 -2.476197E+00 +1.912478E+01 -2.476197E+00 +3.768680E+02 -2.616238E+01 +1.912478E+01 -2.616238E+01 +9.180392E+02 
 +4.157232E+02 -1.195520E+01 +1.048794E+01 -1.195520E+01 +3.973729E+02 -2.780460E+01 +1.048794E+01 -2.780460E+01 +9.010025E+02 
 +4.233969E+02 -3.934367E+00 +7.645025E+00 -3.934367E+00 +3.943212E+02 -2.537942E+01 +7.645025E+00 -2.537942E+01 +9.176258E+02 
 +3.831680E+02 +7.961394E+00 +3.752505E+00 +7.961394E+00 +3.822905E+02 -1.130554E+01 +3.752505E+00 -1.130554E+01 +9.467804E+02 
 +3.805070E+02 +7.109701E+00 +6.260268E+00 +7.109701E+00 +3.882258E+02 +9.082264E+00 +6.260268E+00 +9.082264E+00 +9.663405E+02 
 +3.840579E+02 -1.875464E+00 -6.347984E-01 -1.875464E+00 +4.001544E+02 +1.964245E+01 -6.347984E-01 +1.964245E+01 +9.716435E+02 
 +3.873815E+02 -1.929221E+01 -3.440033E+00 -1.929221E+01 +4.210379E+02 +1.458841E+01 -3.440033E+00 +1.458841E+01 +9.704103E+02 
 +3.511277E+02 -1.296280E+01 -8.046843E+00 -1.296280E+01 +3.920231E+02 -2.746689E+00 -8.046843E+00 -2.746689E+00 +9.482276E+02 
 +3.662826E+02 +1.762031E+01 -1.319084E+01 +1.762031E+01 +3.981260E+02 -1.163586E+01 -1.319084E+01 -1.163586E+01 +9.609497E+02 
 +3.466628E+02 +1.639131E+01 -1.071097E+01 +1.639131E+01 +3.896410E+02 -1.273961E+01 -1.071097E+01 -1.273961E+01 +9.705680E+02 
 +3.334807E+02 +1.662813E+01 -3.283304E+00 +1.662813E+01 +3.633340E+02 -1.644253E+01 -3.283304E+00 -1.644253E+01 +9.714274E+02 
 +3.443511E+02 +3.269033E+01 -1.666924E+00 +3.269033E+01 +3.520335E+02 -1.632440E+01 -1.666924E+00 -1.632440E+01 +9.799022E+02 
 +3.500665E+02 +2.342070E+01 +1.299890E+00 +2.342070E+01 +3.543778E+02 -6.383824E+00 +1.299890E+00 -6.383824E+00 +9.939110E+02 
 +3.876546E+02 +2.270094E+01 +1.207886E+00 +2.270094E+01 +3.872847E+02 -3.856388E+00 +1.207886E+00 -3.856388E+00 +9.824477E+02 
 +4.258507E+02 -4.157891E+00 -1.535681E+00 -4.157891E+00 +4.094480E+02 -5.774929E+00 -1.535681E+00 -5.774929E+00 +9.409388E+02 
 +4.065925E+02 +8.877589E-01 +1.213667E+00 +8.877589E-01 +3.941734E+02 -6.427876E+00 +1.213667E+00 -6.427876E+00 +9.191128E+02 
 +3.979471E+02 +1.179326E+01 +3.869009E+00 +1.179326E+01 +3.948063E+02 -1.249295E+01 +3.869009E+00 -1.249295E+01 +9.653609E+02 
 +3.640519E+02 +9.405885E+00 +5.065750E+00 +9.405885E+00 +3.726846E+02 -1.473592E+01 +5.065750E+00 -1.473592E+01 +9.574320E+02 
 +3.154659E+02 -4.914222E+00 +2.417477E+01 -4.914222E+00 +3.545891E+02 -1.555376E+01 +2.417477E+01 -1.555376E+01 +9.476384E+02 
 +3.393171E+02 -2.015217E+00 +3.093460E+01 -2.015217E+00 +3.707207E+02 -1.727801E+01 +3.093460E+01 -1.727801E+01 +9.504996E+02 
 +3.714722E+02 +3.929031E+00 +3.015630E+01 +3.929031E+00 +3.871417E+02 -2.356518E+01 +3.015630E+01 -2.356518E+01 +9.383013E+02 
 +3.734717E+02 +4.621939E+00 +1.433656E+01 +4.621939E+00 +3.871265E+02 -2.462271E+01 +1.433656E+01 -2.462271E+01 +9.114912E+02 
 +4.131326E+02 -7.445792E+00 +7.658267E+00 -7.445792E+00 +3.907033E+02 -2.220778E+01 +7.658267E+00 -2.220778E+01 +8.921133E+02 
 +4.277442E+02 -1.194829E+00 +4.983338E+00 -1.194829E+00 +3.989598E+02 -1.831331E+01 +4.983338E+00 -1.831331E+01 +9.233388E+02 
 +3.750060E+02 +1.235313E+01 +3.565383E+00 +1.235313E+01 +3.850360E+02 -2.808663E+00 +3.565383E+00 -2.808663E+00 +9.604348E+02 
 +3.764842E+02 +9.639425E+00 +4.876867E+00 +9.639425E+00 +3.890156E+02 +1.299919E+01 +4.876867E+00 +1.299919E+01 +9.842271E+02 
 +3.703121E+02 +6.720308E+00 -3.734980E-01 +6.720308E+00 +3.868895E+02 +2.289518E+01 -3.734980E-01 +2.289518E+01 +9.623309E+02 
 +3.999850E+02 -9.090017E+00 -5.599304E+00 -9.090017E+00 +4.197735E+02 +2.278173E+01 -5.599304E+00 +2.278173E+01 +9.586421E+02 
 +3.327666E+02 -1.869479E+01 -6.632924E+00 -1.869479E+01 +3.854485E+02 +4.953223E+00 -6.632924E+00 +4.953223E+00 +9.492532E+02 
 +3.547068E+02 +1.375108E+01 -7.261292E+00 +1.375108E+01 +3.733069E+02 -4.124568E+00 -7.261292E+00 -4.124568E+00 +9.609039E+02 
 +3.425629E+02 +9.321038E+00 -1.164183E+01 +9.321038E+00 +3.455817E+02 -6.246922E+00 -1.164183E+01 -6.246922E+00 +9.555598E+02 
 +3.512231E+02 +1.340895E+01 -4.657761E+00 +1.340895E+01 +3.464985E+02 -1.366130E+01 -4.657761E+00 -1.366130E+01 +9.727241E+02 
 +3.547056E+02 +2.884653E+01 -3.535929E+00 +2.884653E+01 +3.523664E+02 -1.789018E+01 -3.535929E+00 -1.789018E+01 +9.795954E+02 
 +3.412488E+02 +2.047285E+01 -5.782304E-01 +2.047285E+01 +3.554861E+02 -8.827856E+00 -5.782304E-01 -8.827856E+00 +9.955448E+02 
 +3.745538E+02 +2.659019E+01 -5.954230E-01 +2.659019E+01 +3.846599E+02 -8.702002E+00 -5.954230E-01 -8.702002E+00 +1.000698E+03 
 +4.332713E+02 +3.319490E+00 -6.720881E+00 +3.319490E+00 +4.169666E+02 -1.058914E+01 -6.720881E+00 -1.058914E+01 +9.674197E+02 
 +4.242420E+02 +1.131056E+01 +4.300018E-01 +1.131056E+01 +4.121620E+02 -8.883793E+00 +4.300018E-01 -8.883793E+00 +9.509945E+02 
 +3.623809E+02 +4.177768E+00 +2.249344E+00 +4.177768E+00 +3.726777E+02 -1.039618E+01 +2.249344E+00 -1.039618E+01 +9.888601E+02 
 +3.407647E+02 +5.172386E+00 +9.855514E+00 +5.172386E+00 +3.640202E+02 -1.193349E+01 +9.855514E+00 -1.193349E+01 +9.843461E+02 
 +3.362366E+02 +4.846095E+00 +2.612125E+01 +4.846095E+00 +3.699435E+02 -9.497116E+00 +2.612125E+01 -9.497116E+00 +9.788070E+02 
 +3.570863E+02 +9.724000E+00 +3.073208E+01 +9.724000E+00 +3.677387E+02 -5.456306E+00 +3.073208E+01 -5.456306E+00 +9.649826E+02 
 +3.883988E+02 +2.406987E+01 +3.039218E+01 +2.406987E+01 +3.611858E+02 -9.224579E+00 +3.039218E+01 -9.224579E+00 +9.453498E+02 
 +3.645562E+02 +2.591587E+01 +1.769904E+01 +2.591587E+01 +3.514128E+02 -1.056793E+01 +1.769904E+01 -1.056793E+01 +9.146335E+02 
 +3.894696E+02 +7.758028E-01 +1.056963E+01 +7.758028E-01 +3.811117E+02 -1.141258E+01 +1.056963E+01 -1.141258E+01 +8.979992E+02 
 +4.222332E+02 +2.959929E+00 +9.638501E+00 +2.959929E+00 +4.098761E+02 -1.343045E+01 +9.638501E+00 -1.343045E+01 +9.183713E+02 
 +3.718123E+02 +1.390398E+01 +5.241026E+00 +1.390398E+01 +3.809944E+02 -4.834319E+00 +5.241026E+00 -4.834319E+00 +9.480943E+02 
 +3.650300E+02 +1.978375E+01 +4.002398E+00 +1.978375E+01 +3.865266E+02 +8.368462E+00 +4.002398E+00 +8.368462E+00 +9.834692E+02 
 +3.656427E+02 +1.585759E+01 -4.639999E-01 +1.585759E+01 +3.877916E+02 +1.911565E+01 -4.639999E-01 +1.911565E+01 +9.550943E+02 
 +3.872590E+02 +8.398383E-01 -4.714094E+00 +8.398383E-01 +3.994415E+02 +2.525890E+01 -4.714094E+00 +2.525890E+01 +9.409126E+02 
 +3.271104E+02 -2.053132E+01 -3.541437E+00 -2.053132E+01 +3.898834E+02 +1.776777E+01 -3.541437E+00 +1.776777E+01 +9.547684E+02 
 +3.707787E+02 +1.012687E+01 -4.329002E+00 +1.012687E+01 +3.978962E+02 +5.431030E+00 -4.329002E+00 +5.431030E+00 +9.751342E+02 
 +3.512906E+02 +5.695982E+00 -1.077291E+01 +5.695982E+00 +3.550909E+02 -1.985371E+00 -1.077291E+01 -1.985371E+00 +9.579319E+02 
 +3.583390E+02 +7.504488E-01 -5.676790E+00 +7.504488E-01 +3.513247E+02 -8.077356E+00 -5.676790E+00 -8.077356E+00 +9.764652E+02 
 +3.622112E+02 +1.090371E+01 -2.867909E+00 +1.090371E+01 +3.516859E+02 -1.513213E+01 -2.867909E+00 -1.513213E+01 +9.805267E+02 
 +3.607108E+02 +1.755930E+01 -3.821786E+00 +1.755930E+01 +3.624265E+02 -9.744544E+00 -3.821786E+00 -9.744544E+00 +1.002200E+03 
 +3.767883E+02 +3.196495E+01 -4.126305E+00 +3.196495E+01 +3.732956E+02 -1.020146E+01 -4.126305E+00 -1.020146E+01 +1.011679E+03 
 +4.315563E+02 +1.202575E+01 -9.769626E+00 +1.202575E+01 +4.031796E+02 -7.476413E+00 -9.769626E+00 -7.476413E+00 +9.943848E+02 
 +4.470045E+02 +1.086884E+01 -4.221134E+00 +1.086884E+01 +4.197228E+02 -5.061820E+00 -4.221134E+00 -5.061820E+00 +9.979047E+02 
 +3.249136E+02 -7.301010E+00 -9.823893E-02 -7.301010E+00 +3.503842E+02 -8.818706E+00 -9.823893E-02 -8.818706E+00 +9.760677E+02 
 +3.495940E+02 -3.055662E+00 +1.115111E+01 -3.055662E+00 +3.738624E+02 -8.465173E+00 +1.115111E+01 -8.465173E+00 +9.830289E+02 
 +3.678803E+02 +6.646562E+00 +2.267073E+01 +6.646562E+00 +3.766972E+02 -4.190646E+00 +2.267073E+01 -4.190646E+00 +9.841809E+02 
 +4.106345E+02 +5.890609E+00 +2.477297E+01 +5.890609E+00 +4.187937E+02 -8.398867E+00 +2.477297E+01 -8.398867E+00 +9.958580E+02 
 +4.178433E+02 +3.566528E+00 +2.528837E+01 +3.566528E+00 +4.218575E+02 -8.728006E+00 +2.528837E+01 -8.728006E+00 +9.810791E+02 
 +3.837467E+02 -1.157518E+00 +1.380281E+01 -1.157518E+00 +3.817200E+02 -5.682820E+00 +1.380281E+01 -5.682820E+00 +9.491029E+02 
 +3.799509E+02 -1.317064E+01 +7.425356E+00 -1.317064E+01 +3.792906E+02 -8.307028E+00 +7.425356E+00 -8.307028E+00 +9.237991E+02 
 +4.179141E+02 -5.827896E+00 +8.967778E+00 -5.827896E+00 +4.142497E+02 -9.815847E+00 +8.967778E+00 -9.815847E+00 +9.159246E+02 
 +3.952019E+02 -8.872620E-01 +4.554466E+00 -8.872620E-01 +4.072154E+02 -6.909062E+00 +4.554466E+00 -6.909062E+00 +9.376767E+02 
 +3.603329E+02 +2.044059E+01 +2.835522E+00 +2.044059E+01 +3.868486E+02 +6.332036E-01 +2.835522E+00 +6.332036E-01 +9.667060E+02 
 +3.865511E+02 +2.100926E+01 -2.978386E+00 +2.100926E+01 +4.083219E+02 +1.270794E+01 -2.978386E+00 +1.270794E+01 +9.512426E+02 
 +3.739471E+02 +1.041164E+01 -5.590079E+00 +1.041164E+01 +3.999240E+02 +2.500712E+01 -5.590079E+00 +2.500712E+01 +9.322216E+02 
 +3.309099E+02 -5.373149E-01 -5.232461E+00 -5.373149E-01 +3.792878E+02 +2.506911E+01 -5.232461E+00 +2.506911E+01 +9.484869E+02 
 +3.414215E+02 +4.009897E+00 -6.912592E-01 +4.009897E+00 +3.852705E+02 +1.250567E+01 -6.912592E-01 +1.250567E+01 +9.580610E+02 
 +3.468029E+02 +6.883814E-01 -2.312455E+00 +6.883814E-01 +3.678558E+02 +2.036820E+00 -2.312455E+00 +2.036820E+00 +9.600429E+02 
 +3.417010E+02 -6.587471E-01 -3.598446E-01 -6.587471E-01 +3.532969E+02 -1.036692E+00 -3.598446E-01 -1.036692E+00 +9.717275E+02 
 +3.405104E+02 +2.523142E+00 +1.526270E+00 +2.523142E+00 +3.317584E+02 -9.016374E+00 +1.526270E+00 -9.016374E+00 +9.674669E+02 
 +3.637769E+02 -2.543231E+00 -4.946012E+00 -2.543231E+00 +3.216119E+02 -1.189980E+01 -4.946012E+00 -1.189980E+01 +9.884059E+02 
 +3.593051E+02 +6.232820E+00 -5.528595E+00 +6.232820E+00 +3.024884E+02 -8.779237E+00 -5.528595E+00 -8.779237E+00 +9.986217E+02 
 +3.777974E+02 -1.855059E+00 -1.787846E+00 -1.855059E+00 +2.982044E+02 -6.872538E-01 -1.787846E+00 -6.872538E-01 +9.923449E+02 
 +4.016875E+02 -7.787486E-02 -3.253036E+00 -7.787486E-02 +3.389800E+02 +1.813729E+00 -3.253036E+00 +1.813729E+00 +1.000551E+03 
 +3.427546E+02 +1.553270E+00 -2.202081E+00 +1.553270E+00 +3.509003E+02 +6.774483E+00 -2.202081E+00 +6.774483E+00 +9.648223E+02 
 +3.553860E+02 -2.849331E+00 +7.588059E+00 -2.849331E+00 +3.616210E+02 +1.208004E+01 +7.588059E+00 +1.208004E+01 +9.618676E+02 
 +3.739484E+02 +8.055425E+00 +1.575579E+01 +8.055425E+00 +3.681775E+02 +1.339536E+01 +1.575579E+01 +1.339536E+01 +9.648205E+02 
 +4.148569E+02 +1.162413E+01 +1.004447E+01 +1.162413E+01 +4.209298E+02 -1.004157E+00 +1.004447E+01 -1.004157E+00 +9.860005E+02 
 +3.866490E+02 -1.642911E+01 +9.482480E+00 -1.642911E+01 +4.159382E+02 -3.499386E+00 +9.482480E+00 -3.499386E+00 +9.760192E+02 
 +3.831850E+02 -9.968873E+00 +6.809960E+00 -9.968873E+00 +3.858410E+02 -3.110692E+00 +6.809960E+00 -3.110692E+00 +9.611380E+02 
 +3.883446E+02 -1.609113E+01 +5.842482E+00 -1.609113E+01 +3.837241E+02 -7.802332E+00 +5.842482E+00 -7.802332E+00 +9.456470E+02 
 +3.919049E+02 -1.973565E+01 +7.403597E+00 -1.973565E+01 +3.840304E+02 -9.338601E+00 +7.403597E+00 -9.338601E+00 +9.297317E+02 
 +3.867581E+02 -2.560450E+01 +5.851808E+00 -2.560450E+01 +3.899237E+02 -1.006271E+01 +5.851808E+00 -1.006271E+01 +9.428038E+02 
 +3.677015E+02 -1.611919E+01 +1.105310E+00 -1.611919E+01 +3.759606E+02 -1.120537E+01 +1.105310E+00 -1.120537E+01 +9.584534E+02 
 +3.881120E+02 -3.401049E-01 -4.412455E+00 -3.401049E-01 +3.749593E+02 -3.081003E-02 -4.412455E+00 -3.081003E-02 +9.512644E+02 
 +3.966508E+02 -1.342915E+01 -1.351304E+00 -1.342915E+01 +3.996921E+02 +1.441076E+01 -1.351304E+00 +1.441076E+01 +9.516552E+02 
 +3.623193E+02 -9.623623E+00 -2.358908E-01 -9.623623E+00 +4.097043E+02 +1.997184E+01 -2.358908E-01 +1.997184E+01 +9.587027E+02 
 +3.525500E+02 -2.297109E+00 +9.812418E+00 -2.297109E+00 +4.067843E+02 +1.615065E+01 +9.812418E+00 +1.615065E+01 +9.651409E+02 
 +3.271278E+02 +1.471608E+00 +9.320020E+00 +1.471608E+00 +3.667656E+02 +7.754069E+00 +9.320020E+00 +7.754069E+00 +9.631434E+02 
 +3.240559E+02 +3.355864E+00 +9.174404E+00 +3.355864E+00 +3.485197E+02 +2.705120E+00 +9.174404E+00 +2.705120E+00 +9.687402E+02 
 +3.253244E+02 +3.108745E+00 +1.037527E+01 +3.108745E+00 +3.328003E+02 -4.501065E+00 +1.037527E+01 -4.501065E+00 +9.639468E+02 
 +3.493985E+02 -1.418651E+00 -6.479107E+00 -1.418651E+00 +3.083365E+02 -1.049408E+01 -6.479107E+00 -1.049408E+01 +9.773816E+02 
 +3.600193E+02 +2.470476E+00 -7.344435E+00 +2.470476E+00 +2.806533E+02 -8.874093E+00 -7.344435E+00 -8.874093E+00 +9.911584E+02 
 +3.682355E+02 -3.085994E+00 +1.900397E+00 -3.085994E+00 +2.914983E+02 -2.757015E+00 +1.900397E+00 -2.757015E+00 +9.988725E+02 
 +3.806198E+02 +1.116753E+01 -1.439138E+00 +1.116753E+01 +3.417098E+02 +5.698084E+00 -1.439138E+00 +5.698084E+00 +9.986943E+02 
 +3.655323E+02 +5.446981E+00 -1.559372E+00 +5.446981E+00 +3.642532E+02 +1.421604E+01 -1.559372E+00 +1.421604E+01 +9.712740E+02 
 +3.679529E+02 -1.379533E+01 +1.110374E-01 -1.379533E+01 +3.673416E+02 +1.252212E+01 +1.110374E-01 +1.252212E+01 +9.637179E+02 
 +3.871640E+02 +8.598915E-02 +4.203118E+00 +8.598915E-02 +3.786251E+02 +9.357524E+00 +4.203118E+00 +9.357524E+00 +9.686439E+02 
 +4.100512E+02 +2.303369E+01 -4.369968E+00 +2.303369E+01 +4.077382E+02 -5.424082E+00 -4.369968E+00 -5.424082E+00 +9.833090E+02 
 +3.695240E+02 -1.844314E+01 -4.223851E+00 -1.844314E+01 +3.992771E+02 -7.941344E+00 -4.223851E+00 -7.941344E+00 +9.703020E+02 
 +3.783611E+02 -1.075272E+01 +2.096561E+00 -1.075272E+01 +3.992633E+02 -6.479660E+00 +2.096561E+00 -6.479660E+00 +9.633919E+02 
 +3.846900E+02 -1.575030E+01 +7.562061E+00 -1.575030E+01 +3.901735E+02 -1.126205E+01 +7.562061E+00 -1.126205E+01 +9.533971E+02 
 +3.818213E+02 -1.617280E+01 +1.029221E+01 -1.617280E+01 +3.843922E+02 -1.557963E+01 +1.029221E+01 -1.557963E+01 +9.537940E+02 
 +3.725415E+02 -1.376551E+01 +9.606786E+00 -1.376551E+01 +3.797396E+02 -1.843676E+01 +9.606786E+00 -1.843676E+01 +9.590696E+02 
 +3.801331E+02 -1.316840E+01 +4.092657E+00 -1.316840E+01 +3.829726E+02 -2.096595E+01 +4.092657E+00 -2.096595E+01 +9.717147E+02 
 +3.876001E+02 -4.538778E+00 -2.946206E+00 -4.538778E+00 +3.787077E+02 -9.863125E+00 -2.946206E+00 -9.863125E+00 +9.727162E+02 
 +4.027313E+02 -2.663789E+01 -1.613786E+00 -2.663789E+01 +3.794816E+02 +5.414130E+00 -1.613786E+00 +5.414130E+00 +9.683431E+02 
 +3.742091E+02 -2.709022E+01 +4.613721E-01 -2.709022E+01 +3.713248E+02 +7.935165E+00 +4.613721E-01 +7.935165E+00 +9.571923E+02 
 +3.726997E+02 -2.840590E+01 +8.871911E+00 -2.840590E+01 +3.883377E+02 +8.452445E+00 +8.871911E+00 +8.452445E+00 +9.706401E+02 
 +3.509668E+02 -1.865432E+01 +1.289344E+01 -1.865432E+01 +3.864350E+02 +1.145773E+01 +1.289344E+01 +1.145773E+01 +9.790840E+02 
 +3.355950E+02 +3.407614E+00 +1.432107E+01 +3.407614E+00 +3.545019E+02 +7.462389E+00 +1.432107E+01 +7.462389E+00 +9.739863E+02 
 +3.234583E+02 +1.423130E+01 +1.165478E+01 +1.423130E+01 +3.184757E+02 -9.096191E-01 +1.165478E+01 -9.096191E-01 +9.600682E+02 
 +3.128641E+02 +9.963575E-01 -6.219134E+00 +9.963575E-01 +2.908562E+02 -4.363696E-01 -6.219134E+00 -4.363696E-01 +9.605094E+02 
 +3.255758E+02 +1.910874E+00 -8.544822E+00 +1.910874E+00 +2.755598E+02 -1.455214E+00 -8.544822E+00 -1.455214E+00 +9.748237E+02 
 +3.681613E+02 +9.033519E+00 -7.664633E+00 +9.033519E+00 +3.125401E+02 -3.224286E-01 -7.664633E+00 -3.224286E-01 +9.944143E+02 
 +3.685701E+02 +3.105746E+01 -2.644741E+00 +3.105746E+01 +3.465592E+02 +1.188726E+01 -2.644741E+00 +1.188726E+01 +9.862986E+02 
 +3.680976E+02 +2.509652E+01 -1.203647E+00 +2.509652E+01 +3.517189E+02 +1.383126E+01 -1.203647E+00 +1.383126E+01 +9.833321E+02 
 +3.676728E+02 -3.147767E+00 -2.791498E+00 -3.147767E+00 +3.603389E+02 +9.671987E+00 -2.791498E+00 +9.671987E+00 +9.722982E+02 
 +3.876805E+02 +1.536627E+01 -3.113900E+00 +1.536627E+01 +3.793306E+02 +5.976353E+00 -3.113900E+00 +5.976353E+00 +9.769441E+02 
 +3.973843E+02 +2.118834E+01 -5.501466E+00 +2.118834E+01 +4.022786E+02 -4.401794E+00 -5.501466E+00 -4.401794E+00 +9.869437E+02 
 +3.670471E+02 -2.808479E+01 -5.369745E+00 -2.808479E+01 +3.898534E+02 -7.722645E+00 -5.369745E+00 -7.722645E+00 +9.686542E+02 
 +3.930049E+02 -1.425806E+01 -5.160382E-01 -1.425806E+01 +4.098498E+02 -9.079360E+00 -5.160382E-01 -9.079360E+00 +9.714644E+02 
 +3.760808E+02 -1.406439E+01 +3.529619E+00 -1.406439E+01 +3.900764E+02 -1.130697E+01 +3.529619E+00 -1.130697E+01 +9.608407E+02 
 +3.684718E+02 -1.181739E+01 +7.419267E+00 -1.181739E+01 +3.794782E+02 -1.265314E+01 +7.419267E+00 -1.265314E+01 +9.596885E+02 
 +3.683200E+02 -1.428340E+01 +9.015326E+00 -1.428340E+01 +3.818592E+02 -1.612316E+01 +9.015326E+00 -1.612316E+01 +9.665427E+02 
 +3.706082E+02 -1.577319E+01 +5.881954E+00 -1.577319E+01 +3.854585E+02 -1.743201E+01 +5.881954E+00 -1.743201E+01 +9.774605E+02 
 +3.665218E+02 -1.085522E+01 -1.460977E+00 -1.085522E+01 +3.742359E+02 -7.996825E+00 -1.460977E+00 -7.996825E+00 +9.744913E+02 
 +4.015264E+02 -2.303379E+01 -5.743080E+00 -2.303379E+01 +3.776245E+02 +3.918822E+00 -5.743080E+00 +3.918822E+00 +9.782958E+02 
 +3.922939E+02 -2.550930E+01 -3.614242E+00 -2.550930E+01 +3.671120E+02 +2.088590E+00 -3.614242E+00 +2.088590E+00 +9.739636E+02 
 +3.788774E+02 -3.061471E+01 +1.940144E+00 -3.061471E+01 +3.625759E+02 -9.971858E-01 +1.940144E+00 -9.971858E-01 +9.732324E+02 
 +3.775344E+02 -3.065636E+01 +8.394726E+00 -3.065636E+01 +3.728525E+02 +4.792798E+00 +8.394726E+00 +4.792798E+00 +9.779184E+02 
 +3.664538E+02 -3.055016E+01 +1.413145E+01 -3.055016E+01 +3.505565E+02 +7.769445E+00 +1.413145E+01 +7.769445E+00 +9.698517E+02 
 +3.405153E+02 -1.515527E+00 +1.258164E+01 -1.515527E+00 +3.236322E+02 +2.794509E+00 +1.258164E+01 +2.794509E+00 +9.579492E+02 
 +3.165032E+02 -1.076534E+01 +2.100216E+00 -1.076534E+01 +3.373810E+02 +5.998819E+00 +2.100216E+00 +5.998819E+00 +9.635874E+02 
 +3.374707E+02 -3.541441E+00 +1.553025E+00 -3.541441E+00 +3.452954E+02 +4.132706E+00 +1.553025E+00 +4.132706E+00 +9.797102E+02 
 +3.677336E+02 +2.554854E+01 -4.937240E+00 +2.554854E+01 +3.421299E+02 +1.762491E+00 -4.937240E+00 +1.762491E+00 +9.919215E+02 
 +3.558140E+02 +4.049375E+01 -4.438457E+00 +4.049375E+01 +3.303360E+02 +1.069584E+01 -4.438457E+00 +1.069584E+01 +9.836538E+02 
 +3.692387E+02 +2.452552E+01 -5.294088E+00 +2.452552E+01 +3.471088E+02 +3.615180E+00 -5.294088E+00 +3.615180E+00 +9.848838E+02 
 +3.719880E+02 -1.426896E+01 -3.124158E+00 -1.426896E+01 +3.700609E+02 -7.985967E-01 -3.124158E+00 -7.985967E-01 +9.806611E+02 
 +4.000336E+02 +1.133785E+01 -5.578558E+00 +1.133785E+01 +4.030418E+02 +1.478483E+00 -5.578558E+00 +1.478483E+00 +9.929394E+02 
 +3.849266E+02 +2.527052E+01 -8.116557E+00 +2.527052E+01 +3.889613E+02 +5.384798E-01 -8.116557E+00 +5.384798E-01 +9.833327E+02 
 +3.585276E+02 -1.331762E+01 -6.142752E+00 -1.331762E+01 +3.478531E+02 -1.266804E+00 -6.142752E+00 -1.266804E+00 +9.536997E+02 
 +3.661248E+02 +2.278383E+00 -2.659027E+00 +2.278383E+00 +3.445361E+02 -5.187228E+00 -2.659027E+00 -5.187228E+00 +9.510914E+02 
 +3.409215E+02 -1.111255E+01 -1.483822E+00 -1.111255E+01 +3.624937E+02 -1.305154E+01 -1.483822E+00 -1.305154E+01 +9.547127E+02 
 +3.552243E+02 -1.338737E+01 +5.325294E+00 -1.338737E+01 +3.847922E+02 -1.434421E+01 +5.325294E+00 -1.434421E+01 +9.661228E+02 
 +3.599257E+02 -1.657427E+01 +8.771607E+00 -1.657427E+01 +3.834020E+02 -1.471012E+01 +8.771607E+00 -1.471012E+01 +9.695099E+02 
 +3.549232E+02 -1.503800E+01 +6.032895E+00 -1.503800E+01 +3.771288E+02 -1.256606E+01 +6.032895E+00 -1.256606E+01 +9.740977E+02 
 +3.605703E+02 -1.290519E+01 +1.262480E+00 -1.290519E+01 +3.675655E+02 -4.777910E+00 +1.262480E+00 -4.777910E+00 +9.770751E+02 
 +4.006198E+02 -2.074357E+01 -4.386751E+00 -2.074357E+01 +3.740133E+02 +2.218253E+00 -4.386751E+00 +2.218253E+00 +9.887737E+02 
 +3.980571E+02 -2.055783E+01 -2.177072E+00 -2.055783E+01 +3.657319E+02 -5.495102E-01 -2.177072E+00 -5.495102E-01 +9.890518E+02 
 +3.910125E+02 -2.410082E+01 +3.768195E+00 -2.410082E+01 +3.638860E+02 -3.134643E+00 +3.768195E+00 -3.134643E+00 +9.881061E+02 
 +3.860876E+02 -2.759228E+01 +6.870919E+00 -2.759228E+01 +3.568508E+02 -1.671485E+00 +6.870919E+00 -1.671485E+00 +9.767229E+02 
 +4.051404E+02 -3.304497E+01 +9.418990E+00 -3.304497E+01 +3.770012E+02 -4.535801E-02 +9.418990E+00 -4.535801E-02 +9.785104E+02 
 +3.502765E+02 -1.280529E+01 +1.030982E+01 -1.280529E+01 +3.599190E+02 +2.308868E-01 +1.030982E+01 +2.308868E-01 +9.602978E+02 
 +3.354570E+02 -2.134875E+01 +6.188357E+00 -2.134875E+01 +3.538647E+02 +3.183902E+00 +6.188357E+00 +3.183902E+00 +9.591220E+02 
 +3.472207E+02 -2.264095E+01 +5.926451E+00 -2.264095E+01 +3.688870E+02 +3.284328E+00 +5.926451E+00 +3.284328E+00 +9.704826E+02 
 +3.561582E+02 +5.608438E+00 +1.252360E+00 +5.608438E+00 +3.550724E+02 +6.035942E+00 +1.252360E+00 +6.035942E+00 +9.808105E+02 
 +3.653852E+02 +3.462043E+01 -4.372071E+00 +3.462043E+01 +3.397258E+02 +7.638848E+00 -4.372071E+00 +7.638848E+00 +9.864241E+02 
 +3.660692E+02 +2.832709E+01 -3.265953E+00 +2.832709E+01 +3.377472E+02 +2.637787E+00 -3.265953E+00 +2.637787E+00 +9.756524E+02 
 +3.669901E+02 +1.461683E+01 +3.831928E-01 +1.461683E+01 +3.477379E+02 +4.950718E+00 +3.831928E-01 +4.950718E+00 +9.768069E+02 
 +3.847339E+02 +2.316517E+01 -1.742585E+00 +2.316517E+01 +3.764860E+02 +5.448687E-01 -1.742585E+00 +5.448687E-01 +9.855640E+02 
 +3.927683E+02 +3.104518E+01 -6.772629E+00 +3.104518E+01 +3.838927E+02 -2.060945E+00 -6.772629E+00 -2.060945E+00 +9.816241E+02 
 +3.693513E+02 -2.813678E+01 -3.617384E+00 -2.813678E+01 +3.870512E+02 -2.936306E+00 -3.617384E+00 -2.936306E+00 +9.638361E+02 
 +3.647323E+02 -2.039412E+01 -1.345999E-02 -2.039412E+01 +3.898483E+02 -8.514459E+00 -1.345999E-02 -8.514459E+00 +9.646192E+02 
 +3.363043E+02 -2.754742E+01 +4.268498E-01 -2.754742E+01 +3.631571E+02 -1.633553E+01 +4.268498E-01 -1.633553E+01 +9.589864E+02 
 +3.593037E+02 -1.580027E+01 +8.623381E+00 -1.580027E+01 +3.852486E+02 -1.829887E+01 +8.623381E+00 -1.829887E+01 +9.706323E+02 
 +3.558179E+02 -1.869339E+01 +1.117539E+01 -1.869339E+01 +3.878612E+02 -1.387495E+01 +1.117539E+01 -1.387495E+01 +9.701592E+02 
 +3.525285E+02 -1.378977E+01 +7.940233E+00 -1.378977E+01 +3.728722E+02 -7.220567E+00 +7.940233E+00 -7.220567E+00 +9.730082E+02 
 +3.525957E+02 -1.544789E+01 +3.375122E+00 -1.544789E+01 +3.614826E+02 -2.095843E-01 +3.375122E+00 -2.095843E-01 +9.780447E+02 
 +3.984707E+02 -2.465160E+01 -3.796841E+00 -2.465160E+01 +3.683875E+02 +4.122977E+00 -3.796841E+00 +4.122977E+00 +9.993881E+02 
 +4.003239E+02 -2.058776E+01 -1.897982E+00 -2.058776E+01 +3.554939E+02 +1.752491E+00 -1.897982E+00 +1.752491E+00 +1.002977E+03 
 +4.005310E+02 -1.691252E+01 +5.324140E+00 -1.691252E+01 +3.597427E+02 -1.172156E+00 +5.324140E+00 -1.172156E+00 +1.002037E+03 
 +3.970335E+02 -2.842960E+01 +7.525609E+00 -2.842960E+01 +3.593009E+02 -4.190982E+00 +7.525609E+00 -4.190982E+00 +9.869806E+02 
 +3.907658E+02 -3.137687E+01 +4.179039E+00 -3.137687E+01 +3.618706E+02 -4.588035E+00 +4.179039E+00 -4.588035E+00 +9.738812E+02 
 +3.414327E+02 -1.580962E+01 +2.121711E+00 -1.580962E+01 +3.496995E+02 -2.216640E+00 +2.121711E+00 -2.216640E+00 +9.548428E+02 
 +3.545083E+02 -1.705474E+01 +3.555202E+00 -1.705474E+01 +3.601443E+02 +1.137927E+00 +3.555202E+00 +1.137927E+00 +9.618334E+02 
 +3.468026E+02 -1.740601E+01 +1.678961E+00 -1.740601E+01 +3.638803E+02 -7.254761E-01 +1.678961E+00 -7.254761E-01 +9.642518E+02 
 +3.508384E+02 -1.883468E+00 +2.719057E-01 -1.883468E+00 +3.623630E+02 +6.394575E+00 +2.719057E-01 +6.394575E+00 +9.709570E+02 
 +3.866183E+02 +3.578125E+01 -1.188943E+00 +3.578125E+01 +3.659319E+02 +7.135788E+00 -1.188943E+00 +7.135788E+00 +9.857577E+02 
 +3.820129E+02 +2.592272E+01 +3.587130E+00 +2.592272E+01 +3.507522E+02 -4.262593E+00 +3.587130E+00 -4.262593E+00 +9.848313E+02 
 +3.738449E+02 +1.505714E+01 +4.852825E+00 +1.505714E+01 +3.524700E+02 -3.758489E+00 +4.852825E+00 -3.758489E+00 +9.896673E+02 
 +3.746496E+02 +1.609292E+01 +2.314465E+00 +1.609292E+01 +3.590284E+02 -3.207096E+00 +2.314465E+00 -3.207096E+00 +9.872514E+02 
 +3.784108E+02 +3.021482E+01 -1.695407E+00 +3.021482E+01 +3.648873E+02 -1.799948E+00 -1.695407E+00 -1.799948E+00 +9.778278E+02 
 +3.319547E+02 -1.402486E+01 -1.450674E-02 -1.402486E+01 +3.602383E+02 -5.672654E+00 -1.450674E-02 -5.672654E+00 +9.511477E+02 
 +3.401918E+02 -8.711079E+00 +4.137183E+00 -8.711079E+00 +3.860253E+02 -1.599306E+01 +4.137183E+00 -1.599306E+01 +9.582419E+02 
 +3.388852E+02 -2.251496E+01 +3.867852E+00 -2.251496E+01 +3.674757E+02 -1.146781E+01 +3.867852E+00 -1.146781E+01 +9.565599E+02 
 +3.697750E+02 -1.679154E+00 +1.047284E+01 -1.679154E+00 +3.778366E+02 -4.346332E+00 +1.047284E+01 -4.346332E+00 +9.625338E+02 
 +3.531667E+02 -1.736894E+01 +1.013365E+01 -1.736894E+01 +3.821394E+02 -8.161941E+00 +1.013365E+01 -8.161941E+00 +9.622985E+02 
 +3.412204E+02 -1.603398E+01 +6.864085E+00 -1.603398E+01 +3.708721E+02 -1.276900E+00 +6.864085E+00 -1.276900E+00 +9.699681E+02 
 +3.544437E+02 -2.052163E+01 +4.105415E+00 -2.052163E+01 +3.652410E+02 +5.309971E+00 +4.105415E+00 +5.309971E+00 +9.846082E+02 
 +3.862502E+02 -3.330665E+01 +2.819067E+00 -3.330665E+01 +3.597142E+02 +8.566043E+00 +2.819067E+00 +8.566043E+00 +1.001131E+03 
 +3.874813E+02 -2.655711E+01 +4.352696E+00 -2.655711E+01 +3.445009E+02 +5.805314E+00 +4.352696E+00 +5.805314E+00 +1.000600E+03 
 +4.038628E+02 -2.696215E+01 +9.331578E+00 -2.696215E+01 +3.491952E+02 +2.002324E+00 +9.331578E+00 +2.002324E+00 +1.001093E+03 
 +4.361516E+02 -2.609062E+01 +8.873002E+00 -2.609062E+01 +3.854536E+02 -1.784709E-01 +8.873002E+00 -1.784709E-01 +1.004832E+03 
 +3.908634E+02 -1.821285E+01 +2.616353E+00 -1.821285E+01 +3.884504E+02 -3.194374E+00 +2.616353E+00 -3.194374E+00 +9.820142E+02 
 +3.694637E+02 -1.116110E+01 +9.742628E-01 -1.116110E+01 +3.715543E+02 -4.684549E+00 +9.742628E-01 -4.684549E+00 +9.675445E+02 
 +3.589662E+02 -1.461826E+01 +2.417815E+00 -1.461826E+01 +3.572014E+02 -2.028152E+00 +2.417815E+00 -2.028152E+00 +9.628048E+02 
 +3.522275E+02 -1.095017E+01 -3.402660E-02 -1.095017E+01 +3.607533E+02 -3.655230E+00 -3.402660E-02 -3.655230E+00 +9.670418E+02 
 +3.600988E+02 -1.534060E+00 -5.165574E-02 -1.534060E+00 +3.748621E+02 +3.899571E+00 -5.165574E-02 +3.899571E+00 +9.725438E+02 
 +3.905435E+02 +3.387412E+01 +1.564830E+00 +3.387412E+01 +3.734315E+02 +4.933246E+00 +1.564830E+00 +4.933246E+00 +9.822289E+02 
 +3.825590E+02 +2.613409E+01 +1.535039E+00 +2.613409E+01 +3.670607E+02 -3.344682E+00 +1.535039E+00 -3.344682E+00 +9.901270E+02 
 +3.691940E+02 +1.508896E+01 +8.476651E-01 +1.508896E+01 +3.587473E+02 -5.650550E+00 +8.476651E-01 -5.650550E+00 +9.951025E+02 
 +3.634403E+02 +1.106471E+01 -3.516216E+00 +1.106471E+01 +3.592645E+02 -3.007272E+00 -3.516216E+00 -3.007272E+00 +9.940369E+02 
 +3.555284E+02 +8.743417E+00 -6.473638E+00 +8.743417E+00 +3.509301E+02 +7.710451E-01 -6.473638E+00 +7.710451E-01 +9.854188E+02 
 +3.528595E+02 -1.713854E+01 -4.118648E+00 -1.713854E+01 +3.661459E+02 -6.250820E+00 -4.118648E+00 -6.250820E+00 +9.717885E+02 
 +3.440927E+02 -1.944614E+01 +2.009868E+00 -1.944614E+01 +3.809273E+02 -1.944867E+01 +2.009868E+00 -1.944867E+01 +9.615648E+02 
 +3.380600E+02 -2.657805E+01 +2.081062E+00 -2.657805E+01 +3.740511E+02 -1.094265E+01 +2.081062E+00 -1.094265E+01 +9.523436E+02 
 +3.665261E+02 -1.635562E+00 +7.163416E+00 -1.635562E+00 +3.724537E+02 +3.448286E+00 +7.163416E+00 +3.448286E+00 +9.450777E+02 
 +3.494187E+02 -1.110359E+01 +3.793345E+00 -1.110359E+01 +3.604730E+02 +4.472498E+00 +3.793345E+00 +4.472498E+00 +9.479876E+02 
 +3.292491E+02 -1.395559E+01 +2.837978E+00 -1.395559E+01 +3.526610E+02 +6.969192E+00 +2.837978E+00 +6.969192E+00 +9.625701E+02 
 +3.714835E+02 -4.729813E+00 +5.278139E+00 -4.729813E+00 +3.511732E+02 +6.506225E+00 +5.278139E+00 +6.506225E+00 +9.843919E+02 
 +3.777598E+02 -5.243999E+00 +1.144229E+01 -5.243999E+00 +3.466329E+02 +8.681049E+00 +1.144229E+01 +8.681049E+00 +9.898881E+02 
 +3.837235E+02 +1.587768E+01 +1.171618E+01 +1.587768E+01 +3.520953E+02 +1.030789E+01 +1.171618E+01 +1.030789E+01 +9.899439E+02 
 +4.035751E+02 +1.546044E+01 +1.292031E+01 +1.546044E+01 +3.573019E+02 +7.671175E+00 +1.292031E+01 +7.671175E+00 +9.897311E+02 
 +4.274603E+02 +1.298815E+01 +1.131479E+01 +1.298815E+01 +3.764054E+02 +6.997002E+00 +1.131479E+01 +6.997002E+00 +9.906825E+02 
 +3.740358E+02 -1.588786E+00 -8.687145E-01 -1.588786E+00 +3.747657E+02 +8.686541E-02 -8.687145E-01 +8.686541E-02 +9.659804E+02 
 +3.739503E+02 -1.021658E+01 -1.565047E-01 -1.021658E+01 +3.788093E+02 -5.335579E+00 -1.565047E-01 -5.335579E+00 +9.628322E+02 
 +3.609565E+02 -8.159108E+00 -7.831089E-01 -8.159108E+00 +3.590955E+02 -6.561607E+00 -7.831089E-01 -6.561607E+00 +9.587351E+02 
 +3.619770E+02 -1.249958E+00 -1.558688E+00 -1.249958E+00 +3.670764E+02 -8.383343E+00 -1.558688E+00 -8.383343E+00 +9.661414E+02 
 +3.819271E+02 +1.047921E+01 +6.024190E-01 +1.047921E+01 +3.965942E+02 -3.220414E+00 +6.024190E-01 -3.220414E+00 +9.799019E+02 
 +3.932158E+02 +2.252059E+01 +1.775929E+00 +2.252059E+01 +3.942460E+02 +9.636234E-01 +1.775929E+00 +9.636234E-01 +9.861673E+02 
 +3.771037E+02 +2.470445E+01 -2.769911E+00 +2.470445E+01 +3.918155E+02 +7.026539E+00 -2.769911E+00 +7.026539E+00 +9.960864E+02 
 +3.725802E+02 +1.206300E+01 -3.365294E+00 +1.206300E+01 +3.877347E+02 +6.424968E+00 -3.365294E+00 +6.424968E+00 +1.002893E+03 
 +3.504617E+02 +1.186934E+01 -5.346888E+00 +1.186934E+01 +3.736969E+02 +4.137922E+00 -5.346888E+00 +4.137922E+00 +9.947610E+02 
 +3.366652E+02 +1.061728E+01 -5.779192E+00 +1.061728E+01 +3.470667E+02 +8.257319E-01 -5.779192E+00 +8.257319E-01 +9.890593E+02 
 +3.478118E+02 +2.012496E+00 -6.280701E+00 +2.012496E+00 +3.522255E+02 -8.779922E+00 -6.280701E+00 -8.779922E+00 +9.795989E+02 
 +3.608527E+02 -2.782481E+01 -4.417353E+00 -2.782481E+01 +3.718553E+02 -1.462096E+01 -4.417353E+00 -1.462096E+01 +9.680286E+02 
 +3.573391E+02 -2.656005E+01 -2.491234E+00 -2.656005E+01 +3.680555E+02 -6.842809E+00 -2.491234E+00 -6.842809E+00 +9.534657E+02 
 +3.727579E+02 -3.820928E+00 +3.632091E+00 -3.820928E+00 +3.696065E+02 +7.080747E+00 +3.632091E+00 +7.080747E+00 +9.505335E+02 
 +3.467267E+02 -3.472980E+00 -1.554830E+00 -3.472980E+00 +3.358586E+02 +1.157626E+01 -1.554830E+00 +1.157626E+01 +9.492689E+02 
 +3.417633E+02 -9.755518E+00 +1.492614E+00 -9.755518E+00 +3.187445E+02 +4.818490E+00 +1.492614E+00 +4.818490E+00 +9.604965E+02 
 +3.810371E+02 -3.034628E+00 +5.950811E+00 -3.034628E+00 +3.409553E+02 +4.153134E+00 +5.950811E+00 +4.153134E+00 +9.810077E+02 
 +3.916464E+02 -6.294296E+00 +1.294859E+01 -6.294296E+00 +3.581532E+02 +8.966492E+00 +1.294859E+01 +8.966492E+00 +9.839042E+02 
 +3.899371E+02 +5.468541E+00 +1.572406E+01 +5.468541E+00 +3.574049E+02 +9.707580E+00 +1.572406E+01 +9.707580E+00 +9.770429E+02 
 +3.926796E+02 +8.107444E+00 +1.839976E+01 +8.107444E+00 +3.558864E+02 +8.061463E+00 +1.839976E+01 +8.061463E+00 +9.704123E+02 
 +3.849791E+02 +1.603971E+01 +9.845284E+00 +1.603971E+01 +3.502774E+02 +6.631603E+00 +9.845284E+00 +6.631603E+00 +9.572200E+02 
 +3.483245E+02 +2.389240E+01 -3.367090E+00 +2.389240E+01 +3.441644E+02 -6.381299E-03 -3.367090E+00 -6.381299E-03 +9.386467E+02 
 +3.596702E+02 -4.014779E+00 +1.123920E+00 -4.014779E+00 +3.717692E+02 -4.936881E+00 +1.123920E+00 -4.936881E+00 +9.443089E+02 
 +3.676348E+02 +7.330718E-01 -8.078876E-01 +7.330718E-01 +3.721172E+02 -1.412459E+01 -8.078876E-01 -1.412459E+01 +9.442111E+02 
 +3.732656E+02 +1.331431E+01 -4.452545E+00 +1.331431E+01 +3.810540E+02 -1.479507E+01 -4.452545E+00 -1.479507E+01 +9.603430E+02 
 +3.808627E+02 +1.916845E+01 -2.505926E+00 +1.916845E+01 +3.915405E+02 -5.748326E+00 -2.505926E+00 -5.748326E+00 +9.804280E+02 
 +3.733954E+02 +2.112194E+01 -1.579733E+00 +2.112194E+01 +3.882251E+02 +4.117216E+00 -1.579733E+00 +4.117216E+00 +9.829545E+02 
 +3.542227E+02 +2.166256E+01 -6.635737E+00 +2.166256E+01 +3.845048E+02 +1.183984E+01 -6.635737E+00 +1.183984E+01 +9.879024E+02 
 +3.534835E+02 +1.711517E+01 -5.252746E+00 +1.711517E+01 +3.798733E+02 +1.013248E+01 -5.252746E+00 +1.013248E+01 +9.930570E+02 
 +3.436376E+02 +1.468926E+01 -3.625525E-01 +1.468926E+01 +3.703257E+02 +4.325969E+00 -3.625525E-01 +4.325969E+00 +9.920810E+02 
 +3.351291E+02 +9.315119E+00 +2.340076E+00 +9.315119E+00 +3.558089E+02 -1.659222E+00 +2.340076E+00 -1.659222E+00 +9.896968E+02 
 +3.174822E+02 +1.341602E+01 -3.438980E-01 +1.341602E+01 +3.273248E+02 -1.162592E+01 -3.438980E-01 -1.162592E+01 +9.690094E+02 
 +3.599488E+02 -1.475036E+01 -1.225260E+01 -1.475036E+01 +3.341999E+02 -4.498178E+00 -1.225260E+01 -4.498178E+00 +9.605664E+02 
 +3.587833E+02 -1.555784E+01 -1.033910E+01 -1.555784E+01 +3.348878E+02 +1.747675E+00 -1.033910E+01 +1.747675E+00 +9.459613E+02 
 +3.660196E+02 -9.617888E+00 +1.311943E+00 -9.617888E+00 +3.375621E+02 -6.675856E+00 +1.311943E+00 -6.675856E+00 +9.576529E+02 
 +3.558517E+02 -9.895420E+00 +1.806344E+00 -9.895420E+00 +3.209237E+02 -5.143078E+00 +1.806344E+00 -5.143078E+00 +9.645257E+02 
 +3.658103E+02 -1.430017E+01 +3.613396E+00 -1.430017E+01 +3.284818E+02 -3.453645E+00 +3.613396E+00 -3.453645E+00 +9.729098E+02 
 +3.742302E+02 -1.244527E+01 +6.033325E+00 -1.244527E+01 +3.417270E+02 +1.435837E+00 +6.033325E+00 +1.435837E+00 +9.758256E+02 
 +3.910189E+02 -1.184855E+01 +1.057232E+01 -1.184855E+01 +3.627539E+02 +2.229179E+00 +1.057232E+01 +2.229179E+00 +9.752021E+02 
 +3.917222E+02 -1.473211E+01 +1.651005E+01 -1.473211E+01 +3.590954E+02 +1.477861E+00 +1.651005E+01 +1.477861E+00 +9.610452E+02 
 +3.854400E+02 +1.398943E+00 +1.483822E+01 +1.398943E+00 +3.536992E+02 -3.689442E+00 +1.483822E+01 -3.689442E+00 +9.490357E+02 
 +3.869199E+02 +2.799911E+00 -9.831562E-01 +2.799911E+00 +3.786560E+02 -2.026390E+01 -9.831562E-01 -2.026390E+01 +9.501206E+02 
 +3.696758E+02 +8.339459E+00 -1.903549E+00 +8.339459E+00 +3.626795E+02 -2.330247E+01 -1.903549E+00 -2.330247E+01 +9.379180E+02 
 +3.625924E+02 +1.008880E+00 +2.574590E+00 +1.008880E+00 +3.561283E+02 -2.428733E+01 +2.574590E+00 -2.428733E+01 +9.266072E+02 
 +3.839394E+02 +9.394721E+00 -1.658369E+00 +9.394721E+00 +3.890311E+02 -2.914898E+01 -1.658369E+00 -2.914898E+01 +9.383182E+02 
 +3.665399E+02 +2.064529E+01 -8.112594E+00 +2.064529E+01 +3.870053E+02 -2.029544E+01 -8.112594E+00 -2.029544E+01 +9.630577E+02 
 +3.609930E+02 +1.365026E+01 -7.277184E+00 +1.365026E+01 +3.752398E+02 -3.006194E+00 -7.277184E+00 -3.006194E+00 +9.821217E+02 
 +3.472484E+02 +2.406494E+01 -6.082691E+00 +2.406494E+01 +3.704785E+02 +8.301189E+00 -6.082691E+00 +8.301189E+00 +9.778771E+02 
 +3.459428E+02 +1.855483E+01 -1.241047E+01 +1.855483E+01 +3.766973E+02 +1.174954E+01 -1.241047E+01 +1.174954E+01 +9.870593E+02 
 +3.455377E+02 +1.831456E+01 -9.251236E+00 +1.831456E+01 +3.748140E+02 +8.103045E+00 -9.251236E+00 +8.103045E+00 +9.923581E+02 
 +3.362569E+02 +1.546799E+01 -1.956650E+00 +1.546799E+01 +3.664215E+02 -1.804204E+00 -1.956650E+00 -1.804204E+00 +9.956018E+02 
 +3.393869E+02 +1.105570E+01 -1.907141E-01 +1.105570E+01 +3.628603E+02 -1.121021E+01 -1.907141E-01 -1.121021E+01 +9.946573E+02 
 +3.193171E+02 +1.250551E+01 -2.935675E+00 +1.250551E+01 +3.192245E+02 -1.910268E+01 -2.935675E+00 -1.910268E+01 +9.601510E+02 
 +3.451640E+02 -4.741399E+00 -1.220807E+01 -4.741399E+00 +3.109478E+02 -5.540801E+00 -1.220807E+01 -5.540801E+00 +9.425007E+02 
 +3.585057E+02 -1.100421E+01 -7.574466E+00 -1.100421E+01 +3.275657E+02 +7.290468E+00 -7.574466E+00 +7.290468E+00 +9.456887E+02 
 +3.632035E+02 -1.105552E+01 +5.432903E+00 -1.105552E+01 +3.331279E+02 -2.886528E+00 +5.432903E+00 -2.886528E+00 +9.631057E+02 
 +3.700554E+02 -1.492686E+01 +8.148283E+00 -1.492686E+01 +3.360892E+02 -4.705734E+00 +8.148283E+00 -4.705734E+00 +9.739090E+02 
 +3.682091E+02 -1.875838E+01 +4.159672E+00 -1.875838E+01 +3.398757E+02 -4.589347E+00 +4.159672E+00 -4.589347E+00 +9.710152E+02 
 +3.774974E+02 -1.742286E+01 +5.921618E+00 -1.742286E+01 +3.517543E+02 -3.871488E+00 +5.921618E+00 -3.871488E+00 +9.716540E+02 
 +3.893078E+02 -1.188472E+01 +8.077151E+00 -1.188472E+01 +3.574016E+02 -3.890089E+00 +8.077151E+00 -3.890089E+00 +9.660455E+02 
 +3.963393E+02 -1.496546E+01 +9.875670E+00 -1.496546E+01 +3.683281E+02 -8.399399E+00 +9.875670E+00 -8.399399E+00 +9.512098E+02 
 +3.884312E+02 +1.914715E+00 +4.943546E-02 +1.914715E+00 +3.760066E+02 -2.273049E+01 +4.943546E-02 -2.273049E+01 +9.425997E+02 
 +3.797543E+02 +7.301761E+00 -6.044770E+00 +7.301761E+00 +3.711085E+02 -2.579811E+01 -6.044770E+00 -2.579811E+01 +9.407577E+02 
 +3.904954E+02 +7.277948E+00 -2.751964E+00 +7.277948E+00 +3.725545E+02 -1.972377E+01 -2.751964E+00 -1.972377E+01 +9.375950E+02 
 +3.885808E+02 +3.779892E-01 -1.209953E+00 +3.779892E-01 +3.735314E+02 -2.168878E+01 -1.209953E+00 -2.168878E+01 +9.275646E+02 
 +3.834019E+02 -5.704692E+00 -9.388193E-01 -5.704692E+00 +3.908129E+02 -1.666788E+01 -9.388193E-01 -1.666788E+01 +9.364220E+02 
 +3.615493E+02 -6.762070E-01 -6.616762E+00 -6.762070E-01 +3.962500E+02 -3.679918E+00 -6.616762E+00 -3.679918E+00 +9.589656E+02 
 +3.544124E+02 -6.451715E+00 -1.054814E+01 -6.451715E+00 +3.822979E+02 +8.146504E+00 -1.054814E+01 +8.146504E+00 +9.687124E+02 
 +3.360477E+02 +2.474697E+01 -1.258688E+01 +2.474697E+01 +3.661255E+02 +1.310472E+01 -1.258688E+01 +1.310472E+01 +9.715510E+02 
 +3.409586E+02 +2.041479E+01 -1.575934E+01 +2.041479E+01 +3.701255E+02 +9.438184E+00 -1.575934E+01 +9.438184E+00 +9.849681E+02 
 +3.379045E+02 +1.548064E+01 -1.137650E+01 +1.548064E+01 +3.705273E+02 +2.265433E+00 -1.137650E+01 +2.265433E+00 +9.933488E+02 
 +3.397699E+02 +1.374851E+01 -4.136652E+00 +1.374851E+01 +3.680521E+02 -6.372618E+00 -4.136652E+00 -6.372618E+00 +1.003478E+03 
 +3.460998E+02 +1.162048E+01 -2.050347E+00 +1.162048E+01 +3.561388E+02 -9.011389E+00 -2.050347E+00 -9.011389E+00 +9.913465E+02 
 +3.391875E+02 +7.690804E+00 -4.999130E+00 +7.690804E+00 +3.315290E+02 -9.223939E+00 -4.999130E+00 -9.223939E+00 +9.491383E+02 
 +3.313095E+02 +3.137855E+00 -6.007978E+00 +3.137855E+00 +3.182210E+02 +3.726524E-01 -6.007978E+00 +3.726524E-01 +9.222723E+02 
 +3.422071E+02 -9.771162E+00 +1.915637E+00 -9.771162E+00 +3.201280E+02 +5.202871E+00 +1.915637E+00 +5.202871E+00 +9.356383E+02 
 +3.537030E+02 -1.464871E+01 +1.396920E+01 -1.464871E+01 +3.305459E+02 -4.658094E+00 +1.396920E+01 -4.658094E+00 +9.569082E+02 
 +3.636931E+02 -1.998232E+01 +9.869513E+00 -1.998232E+01 +3.406279E+02 -5.547664E+00 +9.869513E+00 -5.547664E+00 +9.642602E+02 
 +3.673761E+02 -1.958001E+01 +6.543498E+00 -1.958001E+01 +3.407271E+02 -5.107951E+00 +6.543498E+00 -5.107951E+00 +9.631833E+02 
 +3.725556E+02 -1.985660E+01 +6.093683E+00 -1.985660E+01 +3.416942E+02 -4.270649E+00 +6.093683E+00 -4.270649E+00 +9.643953E+02 
 +3.836569E+02 -1.735782E+01 +1.156006E+00 -1.735782E+01 +3.453675E+02 -8.272142E+00 +1.156006E+00 -8.272142E+00 +9.590731E+02 
 +3.944724E+02 -1.604306E+01 -3.019749E+00 -1.604306E+01 +3.604849E+02 -1.804130E+01 -3.019749E+00 -1.804130E+01 +9.472230E+02 
 +3.939960E+02 +1.811799E+00 -1.102137E+01 +1.811799E+00 +3.714878E+02 -3.021482E+01 -1.102137E+01 -3.021482E+01 +9.504553E+02 
 +3.931846E+02 +1.007587E+01 -3.660849E+00 +1.007587E+01 +3.731935E+02 -2.633085E+01 -3.660849E+00 -2.633085E+01 +9.517087E+02 
 +3.927467E+02 +6.622936E+00 -7.746639E+00 +6.622936E+00 +3.830313E+02 -1.726848E+01 -7.746639E+00 -1.726848E+01 +9.374823E+02 
 +3.744348E+02 -6.494220E+00 +6.035698E-01 -6.494220E+00 +3.834401E+02 -1.509366E+01 +6.035698E-01 -1.509366E+01 +9.225348E+02 
 +3.625120E+02 -1.331927E+01 +5.551469E+00 -1.331927E+01 +3.800291E+02 -7.865993E+00 +5.551469E+00 -7.865993E+00 +9.235012E+02 
 +3.572496E+02 -1.166035E+01 -1.686686E+00 -1.166035E+01 +3.797813E+02 -6.648046E+00 -1.686686E+00 -6.648046E+00 +9.297276E+02 
 +3.720153E+02 -1.389068E+01 -6.861514E+00 -1.389068E+01 +3.896792E+02 -1.325688E+00 -6.861514E+00 -1.325688E+00 +9.500864E+02 
 +3.364541E+02 +2.456886E+01 -1.753670E+01 +2.456886E+01 +3.677056E+02 +6.710673E+00 -1.753670E+01 +6.710673E+00 +9.643411E+02 
 +3.732052E+02 +2.217893E+01 -1.932478E+01 +2.217893E+01 +3.785494E+02 +8.680101E+00 -1.932478E+01 +8.680101E+00 +9.847283E+02 
 +3.640303E+02 +1.567098E+01 -1.135738E+01 +1.567098E+01 +3.717023E+02 -4.040542E+00 -1.135738E+01 -4.040542E+00 +1.000054E+03 
 +3.354111E+02 +1.768364E+01 -1.070855E+00 +1.768364E+01 +3.517656E+02 -8.319369E+00 -1.070855E+00 -8.319369E+00 +9.873770E+02 
 +3.546885E+02 +4.701466E+00 -4.831305E+00 +4.701466E+00 +3.519914E+02 -4.804291E+00 -4.831305E+00 -4.804291E+00 +9.748503E+02 
 +3.396764E+02 +3.334294E+00 -3.767329E+00 +3.334294E+00 +3.338021E+02 +1.239862E+00 -3.767329E+00 +1.239862E+00 +9.546658E+02 
 +3.312686E+02 +2.591955E+00 -7.117550E-01 +2.591955E+00 +3.173684E+02 -2.934109E-01 -7.117550E-01 -2.934109E-01 +9.510232E+02 
 +3.534865E+02 -1.442466E+00 +1.705117E+01 -1.442466E+00 +3.330024E+02 -5.429377E+00 +1.705117E+01 -5.429377E+00 +9.771122E+02 
 +3.696946E+02 +5.231210E+00 +2.182282E+01 +5.231210E+00 +3.506431E+02 -4.946083E+00 +2.182282E+01 -4.946083E+00 +9.768582E+02 
 +3.665850E+02 +2.829349E+00 +1.609307E+01 +2.829349E+00 +3.502214E+02 -1.376647E+00 +1.609307E+01 -1.376647E+00 +9.632390E+02 
 +3.668854E+02 -5.596251E-01 +1.108003E+01 -5.596251E-01 +3.568786E+02 +5.053736E-01 +1.108003E+01 +5.053736E-01 +9.604502E+02 
 +3.660092E+02 -9.385164E+00 +8.003879E+00 -9.385164E+00 +3.478991E+02 +5.659754E-01 +8.003879E+00 +5.659754E-01 +9.561718E+02 
 +3.717177E+02 -1.130931E+01 +7.701901E-01 -1.130931E+01 +3.450107E+02 -3.774862E+00 +7.701901E-01 -3.774862E+00 +9.640354E+02 
 +3.964840E+02 -1.458021E+01 +2.003924E+00 -1.458021E+01 +3.579445E+02 -9.959223E+00 +2.003924E+00 -9.959223E+00 +9.727857E+02 
 +3.948772E+02 -8.983607E+00 +7.615643E+00 -8.983607E+00 +3.513789E+02 -1.388146E+01 +7.615643E+00 -1.388146E+01 +9.711742E+02 
 +3.850186E+02 +8.352877E+00 +5.484930E-01 +8.352877E+00 +3.691388E+02 -1.995812E+01 +5.484930E-01 -1.995812E+01 +9.599436E+02 
 +4.020981E+02 -1.161750E+00 +2.315842E+00 -1.161750E+00 +4.026341E+02 -1.579125E+01 +2.315842E+00 -1.579125E+01 +9.593530E+02 
 +3.560731E+02 -8.285551E+00 +3.029381E+00 -8.285551E+00 +3.876731E+02 +2.921692E-01 +3.029381E+00 +2.921692E-01 +9.575105E+02 
 +3.675892E+02 -8.645961E+00 -4.500048E+00 -8.645961E+00 +4.045877E+02 +9.435033E+00 -4.500048E+00 +9.435033E+00 +9.792694E+02 
 +3.571828E+02 -8.811096E+00 -1.598688E+01 -8.811096E+00 +3.865742E+02 +5.348944E+00 -1.598688E+01 +5.348944E+00 +9.652143E+02 
 +3.847339E+02 -9.008851E+00 -1.168649E+01 -9.008851E+00 +3.905104E+02 -2.231335E-01 -1.168649E+01 -2.231335E-01 +9.611252E+02 
 +3.600687E+02 +3.095950E+01 -1.718261E+01 +3.095950E+01 +3.763255E+02 +6.153780E+00 -1.718261E+01 +6.153780E+00 +9.599673E+02 
 +3.549822E+02 -1.771177E+00 -1.082653E+01 -1.771177E+00 +3.525255E+02 -6.131377E+00 -1.082653E+01 -6.131377E+00 +9.606447E+02 
 +3.496684E+02 -7.579380E+00 -1.043466E+01 -7.579380E+00 +3.436987E+02 -1.299377E+01 -1.043466E+01 -1.299377E+01 +9.800588E+02 
 +3.296415E+02 +2.284571E+00 +2.935663E+00 +2.284571E+00 +3.193478E+02 -1.093527E+01 +2.935663E+00 -1.093527E+01 +9.625645E+02 
 +3.487909E+02 +1.103869E+01 -3.649774E-01 +1.103869E+01 +3.307237E+02 -2.689627E+00 -3.649774E-01 -2.689627E+00 +9.514807E+02 
 +3.549765E+02 +1.552013E+01 -9.986969E-01 +1.552013E+01 +3.406437E+02 +7.899596E+00 -9.986969E-01 +7.899596E+00 +9.435519E+02 
 +3.513454E+02 +1.014033E+01 +2.252626E+00 +1.014033E+01 +3.274440E+02 +6.775779E+00 +2.252626E+00 +6.775779E+00 +9.373622E+02 
 +3.557987E+02 +9.343336E+00 +2.159057E+01 +9.343336E+00 +3.292610E+02 +2.263131E+00 +2.159057E+01 +2.263131E+00 +9.604795E+02 
 +3.617971E+02 +1.223323E+01 +2.568875E+01 +1.223323E+01 +3.429117E+02 +1.037405E-01 +2.568875E+01 +1.037405E-01 +9.645267E+02 
 +3.625523E+02 +9.723724E+00 +1.905467E+01 +9.723724E+00 +3.534696E+02 -1.881023E+00 +1.905467E+01 -1.881023E+00 +9.567100E+02 
 +3.555866E+02 +9.191083E+00 +1.371034E+01 +9.191083E+00 +3.579475E+02 +5.608290E-01 +1.371034E+01 +5.608290E-01 +9.429483E+02 
 +3.539846E+02 -3.380436E+00 +8.374642E+00 -3.380436E+00 +3.542688E+02 +2.258481E+00 +8.374642E+00 +2.258481E+00 +9.483783E+02 
 +3.561628E+02 +1.043164E+01 -4.480208E+00 +1.043164E+01 +3.526464E+02 -8.986940E-01 -4.480208E+00 -8.986940E-01 +9.685521E+02 
 +3.984377E+02 -4.813708E+00 -1.546515E+01 -4.813708E+00 +3.575027E+02 -9.370749E+00 -1.546515E+01 -9.370749E+00 +9.739229E+02 
 +3.637240E+02 +6.052662E+00 +4.061884E+00 +6.052662E+00 +3.415769E+02 -1.103211E+01 +4.061884E+00 -1.103211E+01 +9.652304E+02 
 +3.454222E+02 +1.610942E+01 -3.306321E+00 +1.610942E+01 +3.565426E+02 -4.746185E+00 -3.306321E+00 -4.746185E+00 +9.659941E+02 
 +3.800174E+02 -9.538200E+00 +8.962134E+00 -9.538200E+00 +3.745888E+02 -4.097909E+00 +8.962134E+00 -4.097909E+00 +9.651041E+02 
 +3.570371E+02 -1.431669E+01 +1.135042E+01 -1.431669E+01 +3.723698E+02 -6.340870E+00 +1.135042E+01 -6.340870E+00 +9.492306E+02 
 +3.774717E+02 -1.683919E+01 +7.630978E+00 -1.683919E+01 +3.900776E+02 -6.154900E+00 +7.630978E+00 -6.154900E+00 +9.617987E+02 
 +3.642338E+02 -1.225112E+01 -3.603716E+00 -1.225112E+01 +3.781551E+02 -2.689067E+00 -3.603716E+00 -2.689067E+00 +9.494773E+02 
 +3.816775E+02 -1.439985E+01 -5.003779E+00 -1.439985E+01 +3.951927E+02 -7.917148E+00 -5.003779E+00 -7.917148E+00 +9.476292E+02 
 +3.652603E+02 +4.888991E+00 -6.459111E+00 +4.888991E+00 +3.760151E+02 -7.163436E+00 -6.459111E+00 -7.163436E+00 +9.469973E+02 
 +3.490339E+02 +5.943724E+00 -5.413993E+00 +5.943724E+00 +3.430326E+02 -7.227746E+00 -5.413993E+00 -7.227746E+00 +9.393722E+02 
 +3.501512E+02 +6.799210E+00 -6.031186E+00 +6.799210E+00 +3.339077E+02 -1.836171E+01 -6.031186E+00 -1.836171E+01 +9.526057E+02 
 +3.540620E+02 +1.227206E+01 +1.106816E+00 +1.227206E+01 +3.286009E+02 -2.097337E+01 +1.106816E+00 -2.097337E+01 +9.485213E+02 
 +3.515627E+02 +1.276557E+01 +3.630312E+00 +1.276557E+01 +3.138216E+02 -2.071607E+01 +3.630312E+00 -2.071607E+01 +9.410471E+02 
 +3.554366E+02 +9.714413E+00 +7.729913E+00 +9.714413E+00 +3.086349E+02 -1.521146E+01 +7.729913E+00 -1.521146E+01 +9.371004E+02 
 +3.496032E+02 +1.142142E+00 +1.912407E+01 +1.142142E+00 +3.104724E+02 -9.980801E+00 +1.912407E+01 -9.980801E+00 +9.315142E+02 
 +3.498170E+02 +5.786852E+00 +2.707216E+01 +5.786852E+00 +3.216322E+02 -1.133343E+00 +2.707216E+01 -1.133343E+00 +9.460821E+02 
 +3.554799E+02 +1.029061E+01 +2.331910E+01 +1.029061E+01 +3.367275E+02 +2.391251E+00 +2.331910E+01 +2.391251E+00 +9.574264E+02 
 +3.678942E+02 +1.096574E+01 +1.506494E+01 +1.096574E+01 +3.644288E+02 -1.745419E+00 +1.506494E+01 -1.745419E+00 +9.674467E+02 
 +3.685286E+02 +6.933136E+00 +1.014349E+01 +6.933136E+00 +3.694479E+02 -5.198748E-01 +1.014349E+01 -5.198748E-01 +9.525067E+02 
 +3.859538E+02 +1.848537E+00 +5.559473E+00 +1.848537E+00 +3.824095E+02 +6.742286E-01 +5.559473E+00 +6.742286E-01 +9.653294E+02 
 +3.439034E+02 +1.681908E+01 -2.738825E+00 +1.681908E+01 +3.481624E+02 -1.817386E+00 -2.738825E+00 -1.817386E+00 +9.653284E+02 
 +3.597434E+02 -1.014863E+00 -1.498991E+01 -1.014863E+00 +3.436234E+02 -7.858299E+00 -1.498991E+01 -7.858299E+00 +9.628346E+02 
 +3.264993E+02 +2.042143E+01 -9.156532E-01 +2.042143E+01 +3.565525E+02 -9.060810E+00 -9.156532E-01 -9.060810E+00 +9.620795E+02 
 +3.417500E+02 +2.153357E+01 -6.567621E+00 +2.153357E+01 +3.670433E+02 -4.368448E+00 -6.567621E+00 -4.368448E+00 +9.756316E+02 
 +3.484929E+02 +1.406042E+01 +2.851084E+00 +1.406042E+01 +3.568877E+02 +5.260274E+00 +2.851084E+00 +5.260274E+00 +9.733424E+02 
 +3.577014E+02 +6.611758E+00 +1.139976E+01 +6.611758E+00 +3.639732E+02 +4.353227E+00 +1.139976E+01 +4.353227E+00 +9.664361E+02 
 +3.881450E+02 -1.203165E+01 +1.959455E+01 -1.203165E+01 +3.757092E+02 -6.454335E+00 +1.959455E+01 -6.454335E+00 +9.584582E+02 
 +3.683583E+02 -9.462790E+00 +1.272878E+01 -9.462790E+00 +3.677684E+02 -8.950382E+00 +1.272878E+01 -8.950382E+00 +9.421171E+02 
 +3.676951E+02 -6.145094E+00 +7.834548E+00 -6.145094E+00 +3.747872E+02 -6.179568E+00 +7.834548E+00 -6.179568E+00 +9.407387E+02 
 +3.538408E+02 +9.986712E+00 +5.745998E+00 +9.986712E+00 +3.616571E+02 -5.959140E-01 +5.745998E+00 -5.959140E-01 +9.326156E+02 
 +3.792883E+02 +1.056520E+01 -9.485412E+00 +1.056520E+01 +3.652676E+02 -7.083107E+00 -9.485412E+00 -7.083107E+00 +9.293677E+02 
 +3.604163E+02 +1.237587E+01 +1.026049E+00 +1.237587E+01 +3.446464E+02 -2.045192E+01 +1.026049E+00 -2.045192E+01 +9.411058E+02 
 +3.511167E+02 +1.405959E+01 +1.508458E+00 +1.405959E+01 +3.280682E+02 -2.060929E+01 +1.508458E+00 -2.060929E+01 +9.465608E+02 
 +3.521518E+02 +9.811694E+00 +4.966539E+00 +9.811694E+00 +3.210404E+02 -2.145313E+01 +4.966539E+00 -2.145313E+01 +9.508408E+02 
 +3.591285E+02 +5.297183E+00 +8.392999E+00 +5.297183E+00 +3.145047E+02 -2.174670E+01 +8.392999E+00 -2.174670E+01 +9.460836E+02 
 +3.692044E+02 -1.396433E+00 +2.386871E+01 -1.396433E+00 +3.337287E+02 -1.859777E+01 +2.386871E+01 -1.859777E+01 +9.481865E+02 
 +3.702935E+02 -4.895378E+00 +2.829064E+01 -4.895378E+00 +3.518018E+02 -1.063654E+01 +2.829064E+01 -1.063654E+01 +9.654504E+02 
 +3.790783E+02 +4.586637E+00 +1.661078E+01 +4.586637E+00 +3.525067E+02 -7.496664E+00 +1.661078E+01 -7.496664E+00 +9.845968E+02 
 +3.753543E+02 +1.860960E+01 +3.408412E+00 +1.860960E+01 +3.487659E+02 -5.633113E+00 +3.408412E+00 -5.633113E+00 +9.841157E+02 
 +3.876799E+02 +1.519883E+01 +1.575895E+00 +1.519883E+01 +3.596303E+02 -4.170615E+00 +1.575895E+00 -4.170615E+00 +9.698650E+02 
 +3.737694E+02 +8.673375E+00 +3.183724E+00 +8.673375E+00 +3.716186E+02 -2.854510E+00 +3.183724E+00 -2.854510E+00 +9.626766E+02 
 +3.313219E+02 -9.143856E+00 +2.110838E+00 -9.143856E+00 +3.687524E+02 +1.990388E+00 +2.110838E+00 +1.990388E+00 +9.584345E+02 
 +3.404859E+02 -1.627761E+01 -3.495978E+00 -1.627761E+01 +3.834185E+02 -1.134149E+00 -3.495978E+00 -1.134149E+00 +9.645047E+02 
 +3.157524E+02 +1.566628E+01 -4.464059E+00 +1.566628E+01 +3.613505E+02 -1.100011E+01 -4.464059E+00 -1.100011E+01 +9.559740E+02 
 +3.392134E+02 +1.306858E+01 -7.820850E+00 +1.306858E+01 +3.582058E+02 -1.184241E+01 -7.820850E+00 -1.184241E+01 +9.671950E+02 
 +3.444170E+02 +1.509658E+01 -4.349320E+00 +1.509658E+01 +3.590908E+02 -2.158316E+00 -4.349320E+00 -2.158316E+00 +9.744562E+02 
 +3.430482E+02 +1.081758E+01 +6.949399E+00 +1.081758E+01 +3.553801E+02 +8.066944E-01 +6.949399E+00 +8.066944E-01 +9.761451E+02 
 +3.743621E+02 -9.162327E+00 +2.190128E+01 -9.162327E+00 +3.752808E+02 -7.024203E+00 +2.190128E+01 -7.024203E+00 +9.707221E+02 
 +3.857190E+02 -1.410477E+01 +1.751485E+01 -1.410477E+01 +3.763860E+02 -1.155529E+01 +1.751485E+01 -1.155529E+01 +9.414480E+02 
 +3.674485E+02 -6.942156E+00 +1.145570E+01 -6.942156E+00 +3.594569E+02 -9.358900E+00 +1.145570E+01 -9.358900E+00 +9.155895E+02 
 +3.565738E+02 +4.876756E+00 +6.345127E+00 +4.876756E+00 +3.553991E+02 -2.757775E+00 +6.345127E+00 -2.757775E+00 +9.086004E+02 
 +4.139113E+02 +9.822434E+00 -6.710196E+00 +9.822434E+00 +3.910789E+02 -4.383602E+00 -6.710196E+00 -4.383602E+00 +9.390273E+02 
 +3.719267E+02 +6.077563E+00 +3.198143E+00 +6.077563E+00 +3.715002E+02 -1.541016E+01 +3.198143E+00 -1.541016E+01 +9.452676E+02 
 +3.586920E+02 +6.911921E+00 +4.860426E+00 +6.911921E+00 +3.611272E+02 -2.246662E+01 +4.860426E+00 -2.246662E+01 +9.576448E+02 
 +3.622905E+02 +2.490329E+00 +6.561920E+00 +2.490329E+00 +3.563797E+02 -2.640067E+01 +6.561920E+00 -2.640067E+01 +9.645067E+02 
 +3.683692E+02 -2.600313E+00 +7.949308E+00 -2.600313E+00 +3.543577E+02 -2.859897E+01 +7.949308E+00 -2.859897E+01 +9.585614E+02 
 +3.821526E+02 -4.769001E-01 +1.527123E+01 -4.769001E-01 +3.617147E+02 -2.486877E+01 +1.527123E+01 -2.486877E+01 +9.613852E+02 
 +3.813706E+02 -1.435134E+01 +2.041796E+01 -1.435134E+01 +3.618328E+02 -2.061638E+01 +2.041796E+01 -2.061638E+01 +9.697011E+02 
 +4.091966E+02 -5.446346E+00 +1.692013E+01 -5.446346E+00 +3.680348E+02 -2.194508E+01 +1.692013E+01 -2.194508E+01 +9.888957E+02 
 +4.123516E+02 +1.435886E+01 +6.245384E+00 +1.435886E+01 +3.669972E+02 -1.483819E+01 +6.245384E+00 -1.483819E+01 +9.906946E+02 
 +3.897922E+02 +7.237381E+00 +6.614631E+00 +7.237381E+00 +3.831495E+02 -1.455737E+01 +6.614631E+00 -1.455737E+01 +9.819896E+02 
 +3.420303E+02 -1.566042E+01 +5.438540E+00 -1.566042E+01 +3.876049E+02 -1.528031E+01 +5.438540E+00 -1.528031E+01 +9.644237E+02 
 +3.288599E+02 -2.774705E+01 +6.478954E+00 -2.774705E+01 +3.836129E+02 -7.448948E-01 +6.478954E+00 -7.448948E-01 +9.546393E+02 
 +3.335419E+02 -1.735556E+01 +1.696051E-01 -1.735556E+01 +3.854862E+02 -1.746447E-01 +1.696051E-01 -1.746447E-01 +9.513048E+02 
 +3.418603E+02 +1.118697E+01 -8.809353E+00 +1.118697E+01 +3.812345E+02 -1.489868E+01 -8.809353E+00 -1.489868E+01 +9.555807E+02 
 +3.320552E+02 +1.548731E+01 -1.193355E+01 +1.548731E+01 +3.644053E+02 -1.567973E+01 -1.193355E+01 -1.567973E+01 +9.580049E+02 
 +3.438526E+02 +1.305735E+01 -9.580135E+00 +1.305735E+01 +3.609081E+02 -1.123104E+01 -9.580135E+00 -1.123104E+01 +9.710819E+02 
 +3.403853E+02 +1.157702E+01 +5.078324E-01 +1.157702E+01 +3.553047E+02 -7.021088E+00 +5.078324E-01 -7.021088E+00 +9.707014E+02 
 +3.584747E+02 +7.104305E+00 +7.168265E+00 +7.104305E+00 +3.731302E+02 -3.965454E+00 +7.168265E+00 -3.965454E+00 +9.548136E+02 
 +4.001024E+02 -2.339538E+00 +6.372079E+00 -2.339538E+00 +3.935468E+02 -9.976262E+00 +6.372079E+00 -9.976262E+00 +9.253320E+02 
 +3.770563E+02 +6.285148E+00 +7.818669E+00 +6.285148E+00 +3.789604E+02 -8.972282E+00 +7.818669E+00 -8.972282E+00 +8.907600E+02 
 +3.890647E+02 +1.104246E+01 +1.283027E+00 +1.104246E+01 +3.834201E+02 -5.802700E-01 +1.283027E+00 -5.802700E-01 +9.052819E+02 
 +4.126555E+02 +3.596404E+00 -8.798439E-02 +3.596404E+00 +3.936581E+02 -9.070203E+00 -8.798439E-02 -9.070203E+00 +9.357976E+02 
 +3.929035E+02 +6.210657E+00 -6.976293E-01 +6.210657E+00 +3.912886E+02 -1.777314E+01 -6.976293E-01 -1.777314E+01 +9.405680E+02 
 +3.455109E+02 +2.313246E+00 +9.058381E+00 +2.313246E+00 +3.681679E+02 -2.286805E+01 +9.058381E+00 -2.286805E+01 +9.441142E+02 
 +3.526552E+02 +2.760914E+00 +8.795212E+00 +2.760914E+00 +3.610445E+02 -2.596078E+01 +8.795212E+00 -2.596078E+01 +9.563692E+02 
 +3.629307E+02 +5.441172E-02 +1.234881E+01 +5.441172E-02 +3.638760E+02 -3.051682E+01 +1.234881E+01 -3.051682E+01 +9.500353E+02 
 +3.764250E+02 +3.002065E+00 +1.154390E+01 +3.002065E+00 +3.803309E+02 -2.218443E+01 +1.154390E+01 -2.218443E+01 +9.663626E+02 
 +3.959267E+02 -2.289218E+01 +7.341688E+00 -2.289218E+01 +3.874959E+02 -1.585266E+01 +7.341688E+00 -1.585266E+01 +9.743581E+02 
 +4.331585E+02 -1.435316E+01 +1.309598E+01 -1.435316E+01 +3.998920E+02 -1.993477E+01 +1.309598E+01 -1.993477E+01 +9.583030E+02 
 +4.345417E+02 -1.193356E+00 +1.376418E+01 -1.193356E+00 +4.175177E+02 -1.694656E+01 +1.376418E+01 -1.694656E+01 +9.677479E+02 
 +3.728484E+02 -3.340717E+00 +1.141015E+01 -3.340717E+00 +4.072502E+02 -1.595106E+01 +1.141015E+01 -1.595106E+01 +9.767135E+02 
 +3.479856E+02 -1.596341E+01 +4.321820E+00 -1.596341E+01 +4.003483E+02 -1.130958E+01 +4.321820E+00 -1.130958E+01 +9.733968E+02 
 +3.510353E+02 -2.085325E+01 +6.352398E+00 -2.085325E+01 +4.002556E+02 +1.419331E+00 +6.352398E+00 +1.419331E+00 +9.642317E+02 
 +3.450725E+02 -1.715035E+01 +1.846070E+00 -1.715035E+01 +3.840428E+02 +2.489067E+00 +1.846070E+00 +2.489067E+00 +9.463878E+02 
 +3.478992E+02 +9.084685E+00 -9.888698E+00 +9.084685E+00 +3.752660E+02 -1.025208E+01 -9.888698E+00 -1.025208E+01 +9.472544E+02 
 +3.324286E+02 +1.500597E+01 -1.229980E+01 +1.500597E+01 +3.694618E+02 -1.673700E+01 -1.229980E+01 -1.673700E+01 +9.556164E+02 
 +3.390686E+02 +1.121550E+01 -8.223834E+00 +1.121550E+01 +3.710435E+02 -1.732568E+01 -8.223834E+00 -1.732568E+01 +9.734365E+02 
 +3.417894E+02 +1.370038E+01 -1.941257E+00 +1.370038E+01 +3.705492E+02 -1.776299E+01 -1.941257E+00 -1.776299E+01 +9.711577E+02 
 +3.803007E+02 +4.797255E+00 -3.913267E+00 +4.797255E+00 +3.835890E+02 -1.056828E+01 -3.913267E+00 -1.056828E+01 +9.500144E+02 
 +3.988564E+02 +1.016857E+00 +1.917554E+00 +1.016857E+00 +3.925251E+02 -7.386446E+00 +1.917554E+00 -7.386446E+00 +9.200408E+02 
 +3.937126E+02 +7.840602E+00 +1.117693E+01 +7.840602E+00 +3.945484E+02 -4.404031E+00 +1.117693E+01 -4.404031E+00 +9.094949E+02 
 +4.043804E+02 +4.566567E+00 +3.658938E+00 +4.566567E+00 +3.929581E+02 -2.577471E+00 +3.658938E+00 -2.577471E+00 +9.214182E+02 
 +4.042066E+02 +3.949471E+00 +2.769196E+00 +3.949471E+00 +3.911748E+02 -1.362303E+01 +2.769196E+00 -1.362303E+01 +9.313785E+02 
 +4.094703E+02 +7.070531E+00 -2.136262E-01 +7.070531E+00 +3.971120E+02 -1.329261E+01 -2.136262E-01 -1.329261E+01 +9.455338E+02 
 +3.390546E+02 -2.873980E+00 +1.316203E+01 -2.873980E+00 +3.657361E+02 -1.669946E+01 +1.316203E+01 -1.669946E+01 +9.401867E+02 
 +3.491491E+02 +1.407565E+00 +1.088559E+01 +1.407565E+00 +3.735427E+02 -2.608893E+01 +1.088559E+01 -2.608893E+01 +9.478482E+02 
 +3.568155E+02 +1.114130E+00 +1.521671E+01 +1.114130E+00 +3.765368E+02 -3.208857E+01 +1.521671E+01 -3.208857E+01 +9.400025E+02 
 +3.614512E+02 +5.380373E+00 +1.103219E+01 +5.380373E+00 +3.859831E+02 -1.998531E+01 +1.103219E+01 -1.998531E+01 +9.576797E+02 
 +4.016815E+02 -2.284529E+01 +1.664549E-01 -2.284529E+01 +4.002566E+02 -1.343037E+01 +1.664549E-01 -1.343037E+01 +9.686656E+02 
 +4.386260E+02 -5.355767E+00 +5.529636E+00 -5.355767E+00 +4.036029E+02 -1.335006E+01 +5.529636E+00 -1.335006E+01 +9.416386E+02 
 +3.772707E+02 +8.253515E+00 +5.913516E+00 +8.253515E+00 +3.730564E+02 -7.116692E+00 +5.913516E+00 -7.116692E+00 +9.305365E+02 
 +3.618398E+02 +9.310757E+00 +2.725828E+00 +9.310757E+00 +3.791572E+02 +1.820416E+00 +2.725828E+00 +1.820416E+00 +9.624368E+02 
 +3.710607E+02 -6.324451E+00 -2.049776E+00 -6.324451E+00 +4.051199E+02 +1.563145E+00 -2.049776E+00 +1.563145E+00 +9.786512E+02 
 +3.613607E+02 -1.805662E+01 +5.332808E-01 -1.805662E+01 +4.091904E+02 +2.192699E+00 +5.332808E-01 +2.192699E+00 +9.717048E+02 
 +3.585786E+02 -2.232592E+01 -1.065220E+00 -2.232592E+01 +3.979976E+02 +7.320805E+00 -1.065220E+00 +7.320805E+00 +9.532367E+02 
 +3.664753E+02 +8.461282E+00 -8.386665E+00 +8.461282E+00 +3.970122E+02 -2.728851E+00 -8.386665E+00 -2.728851E+00 +9.544947E+02 
 +3.517758E+02 +1.452841E+01 -8.872865E+00 +1.452841E+01 +3.854061E+02 -1.663795E+01 -8.872865E+00 -1.663795E+01 +9.633623E+02 
 +3.303586E+02 +1.361239E+01 -4.518651E+00 +1.361239E+01 +3.591839E+02 -1.939670E+01 -4.518651E+00 -1.939670E+01 +9.626498E+02 
 +3.355041E+02 +2.997879E+01 +1.053685E-02 +2.997879E+01 +3.503080E+02 -1.840616E+01 +1.053685E-02 -1.840616E+01 +9.721303E+02 
 +3.761834E+02 +2.091656E+01 -6.419807E-01 +2.091656E+01 +3.737646E+02 -9.643510E+00 -6.419807E-01 -9.643510E+00 +9.730918E+02 
 +4.016738E+02 +1.056451E+01 -5.494225E+00 +1.056451E+01 +3.947532E+02 -6.924526E+00 -5.494225E+00 -6.924526E+00 +9.386781E+02 
 +4.058122E+02 +6.766035E+00 +1.348897E+00 +6.766035E+00 +3.979453E+02 -1.123141E+01 +1.348897E+00 -1.123141E+01 +9.302529E+02 
 +4.084448E+02 +5.248799E+00 +4.323388E+00 +5.248799E+00 +3.964139E+02 -1.123519E+01 +4.323388E+00 -1.123519E+01 +9.394336E+02 
 +4.092581E+02 +1.045452E+01 +1.671780E+00 +1.045452E+01 +3.914895E+02 -1.067040E+01 +1.671780E+00 -1.067040E+01 +9.463317E+02 
 +3.951042E+02 +1.261380E+01 +3.824204E+00 +1.261380E+01 +3.860264E+02 -8.654269E+00 +3.824204E+00 -8.654269E+00 +9.654664E+02 
 +3.419830E+02 -7.577108E-01 +1.715262E+01 -7.577108E-01 +3.683195E+02 -1.426274E+01 +1.715262E+01 -1.426274E+01 +9.567000E+02 
 +3.529425E+02 +1.707137E+00 +1.864604E+01 +1.707137E+00 +3.875840E+02 -2.295125E+01 +1.864604E+01 -2.295125E+01 +9.394251E+02 
 +3.633595E+02 +4.881708E+00 +2.268617E+01 +4.881708E+00 +3.961200E+02 -2.586094E+01 +2.268617E+01 -2.586094E+01 +9.318834E+02 
 +3.631570E+02 +1.631642E+01 +1.117167E+01 +1.631642E+01 +3.955542E+02 -1.298627E+01 +1.117167E+01 -1.298627E+01 +9.513441E+02 
 +4.012273E+02 -1.916878E+01 -2.797520E+00 -1.916878E+01 +4.026569E+02 -6.382918E+00 -2.797520E+00 -6.382918E+00 +9.575596E+02 
 +4.326530E+02 -3.253139E-01 +2.800914E+00 -3.253139E-01 +4.050753E+02 -5.929341E+00 +2.800914E+00 -5.929341E+00 +9.394712E+02 
 +3.702893E+02 +1.486025E+01 -1.399252E+00 +1.486025E+01 +3.761612E+02 +1.497666E+00 -1.399252E+00 +1.497666E+00 +9.471699E+02 
 +3.696869E+02 +2.071854E+01 -3.122173E+00 +2.071854E+01 +3.765045E+02 +1.528440E+01 -3.122173E+00 +1.528440E+01 +9.800813E+02 
 +3.592329E+02 +7.447819E+00 -6.123026E+00 +7.447819E+00 +3.790592E+02 +1.846083E+01 -6.123026E+00 +1.846083E+01 +9.803149E+02 
 +3.769114E+02 -9.540767E+00 -9.670174E+00 -9.540767E+00 +4.164583E+02 +1.010670E+01 -9.670174E+00 +1.010670E+01 +9.930434E+02 
 +3.600825E+02 -2.314620E+01 -6.180560E+00 -2.314620E+01 +4.108528E+02 +1.416092E+01 -6.180560E+00 +1.416092E+01 +9.672581E+02 
 +3.721186E+02 +4.700787E+00 -5.041257E+00 +4.700787E+00 +4.003922E+02 +7.606494E+00 -5.041257E+00 +7.606494E+00 +9.571496E+02 
 +3.596231E+02 +4.775893E+00 -8.852399E+00 +4.775893E+00 +3.774199E+02 -5.330625E+00 -8.852399E+00 -5.330625E+00 +9.593742E+02 
 +3.447011E+02 +6.313120E+00 -1.218474E+01 +6.313120E+00 +3.568942E+02 -9.903144E+00 -1.218474E+01 -9.903144E+00 +9.590654E+02 
 +3.487186E+02 +2.166701E+01 -5.643215E+00 +2.166701E+01 +3.522048E+02 -1.480984E+01 -5.643215E+00 -1.480984E+01 +9.819715E+02 
 +3.562128E+02 +2.306634E+01 -3.497665E+00 +2.306634E+01 +3.633060E+02 -1.235934E+01 -3.497665E+00 -1.235934E+01 +9.875572E+02 
 +3.950344E+02 +1.342222E+01 -2.005606E+01 +1.342222E+01 +3.819542E+02 -1.456953E+01 -2.005606E+01 -1.456953E+01 +9.437368E+02 
 +3.995571E+02 +8.353578E+00 -1.530100E+01 +8.353578E+00 +3.763907E+02 -1.999916E+01 -1.530100E+01 -1.999916E+01 +9.280828E+02 
 +4.080673E+02 +9.339127E+00 -1.625517E+00 +9.339127E+00 +3.888587E+02 -1.541029E+01 -1.625517E+00 -1.541029E+01 +9.497644E+02 
 +3.991578E+02 +1.092992E+01 -3.989386E+00 +1.092992E+01 +3.822607E+02 -7.147104E+00 -3.989386E+00 -7.147104E+00 +9.555960E+02 
 +3.549130E+02 +3.159788E+00 +6.556748E+00 +3.159788E+00 +3.721213E+02 -1.112847E+01 +6.556748E+00 -1.112847E+01 +9.696285E+02 
 +3.479775E+02 -3.590849E+00 +1.702370E+01 -3.590849E+00 +3.788629E+02 -1.161499E+01 +1.702370E+01 -1.161499E+01 +9.680396E+02 
 +3.754219E+02 +7.680429E-01 +1.815421E+01 +7.680429E-01 +3.911429E+02 -2.646563E+00 +1.815421E+01 -2.646563E+00 +9.371561E+02 
 +3.875530E+02 +1.374270E+01 +2.118024E+01 +1.374270E+01 +3.923154E+02 +2.483564E+00 +2.118024E+01 +2.483564E+00 +9.282615E+02 
 +3.628751E+02 +2.828774E+01 +6.984953E+00 +2.828774E+01 +3.785107E+02 +3.292976E+00 +6.984953E+00 +3.292976E+00 +9.469726E+02 
 +3.765859E+02 -5.669732E+00 -7.733002E+00 -5.669732E+00 +3.913442E+02 +7.581459E-01 -7.733002E+00 +7.581459E-01 +9.519973E+02 
 +4.349329E+02 +8.368792E+00 +2.737174E+00 +8.368792E+00 +4.273436E+02 -4.171552E+00 +2.737174E+00 -4.171552E+00 +9.592818E+02 
 +3.730805E+02 +1.873669E+01 +1.835479E+00 +1.873669E+01 +3.807142E+02 -9.821307E-01 +1.835479E+00 -9.821307E-01 +9.680012E+02 
 +3.692612E+02 +2.599113E+01 -2.787288E+00 +2.599113E+01 +3.783220E+02 +1.159385E+01 -2.787288E+00 +1.159385E+01 +9.948274E+02 
 +3.658798E+02 +1.744043E+01 -1.021897E+01 +1.744043E+01 +3.792017E+02 +1.460014E+01 -1.021897E+01 +1.460014E+01 +9.927167E+02 
 +3.688593E+02 +9.435156E+00 -1.279353E+01 +9.435156E+00 +3.925537E+02 +9.982326E+00 -1.279353E+01 +9.982326E+00 +9.935586E+02 
 +3.529732E+02 -1.220465E+01 -3.627894E+00 -1.220465E+01 +4.090562E+02 +1.279956E+01 -3.627894E+00 +1.279956E+01 +9.704927E+02 
 +3.700120E+02 +4.926099E+00 -7.776789E-01 +4.926099E+00 +4.076101E+02 +1.089782E+01 -7.776789E-01 +1.089782E+01 +9.609926E+02 
 +3.579355E+02 +5.238614E+00 -8.000515E+00 +5.238614E+00 +3.745359E+02 +1.091246E+00 -8.000515E+00 +1.091246E+00 +9.572472E+02 
 +3.521378E+02 -5.982603E-02 -1.465803E+01 -5.982603E-02 +3.644297E+02 -1.911041E+00 -1.465803E+01 -1.911041E+00 +9.624758E+02 
 +3.513144E+02 +6.942453E+00 -1.081482E+01 +6.942453E+00 +3.619716E+02 -8.879051E+00 -1.081482E+01 -8.879051E+00 +9.799403E+02 
 +3.686040E+02 +2.187136E+01 -1.023277E+01 +2.187136E+01 +3.615300E+02 -1.507764E+01 -1.023277E+01 -1.507764E+01 +9.824081E+02 
 +3.968425E+02 +1.697825E+01 -2.285996E+01 +1.697825E+01 +3.734838E+02 -1.454706E+01 -2.285996E+01 -1.454706E+01 +9.536956E+02 
 +4.181793E+02 +1.065142E+01 -2.347058E+01 +1.065142E+01 +3.966860E+02 -1.394155E+01 -2.347058E+01 -1.394155E+01 +9.600155E+02 
 +4.237801E+02 +1.243539E+01 -1.405788E+01 +1.243539E+01 +3.959725E+02 -8.841947E+00 -1.405788E+01 -8.841947E+00 +9.671258E+02 
 +3.549335E+02 -1.655193E+00 -1.153701E+01 -1.655193E+00 +3.667625E+02 -1.476752E+01 -1.153701E+01 -1.476752E+01 +9.470779E+02 
 +3.411348E+02 -7.761065E+00 +3.346286E+00 -7.761065E+00 +3.710634E+02 -1.711883E+01 +3.346286E+00 -1.711883E+01 +9.668639E+02 
 +3.650421E+02 +4.832247E-01 +8.918988E+00 +4.832247E-01 +3.809832E+02 -1.569746E+01 +8.918988E+00 -1.569746E+01 +9.697959E+02 
 +4.138362E+02 +2.530869E+00 +6.060670E+00 +2.530869E+00 +4.059703E+02 -5.112296E+00 +6.060670E+00 -5.112296E+00 +9.648060E+02 
 +4.058193E+02 -9.919643E-01 +1.417307E+01 -9.919643E-01 +4.068520E+02 +4.476987E+00 +1.417307E+01 +4.476987E+00 +9.625160E+02 
 +3.731795E+02 -7.161871E+00 +8.038515E+00 -7.161871E+00 +3.810686E+02 +4.687622E+00 +8.038515E+00 +4.687622E+00 +9.629936E+02 
 +3.665484E+02 -2.060005E+01 -1.754121E+00 -2.060005E+01 +3.776155E+02 +2.350627E+00 -1.754121E+00 +2.350627E+00 +9.523230E+02 
 +4.160303E+02 -1.057687E+01 +8.130251E-01 -1.057687E+01 +4.224794E+02 -2.406253E+00 +8.130251E-01 -2.406253E+00 +9.764592E+02 
 +3.902889E+02 -7.387420E+00 +2.969094E-01 -7.387420E+00 +4.041336E+02 -5.595951E-01 +2.969094E-01 -5.595951E-01 +9.903483E+02 
 +3.817205E+02 +1.967457E+01 -9.145561E+00 +1.967457E+01 +3.800041E+02 +6.996804E+00 -9.145561E+00 +6.996804E+00 +9.913513E+02 
 +3.794043E+02 +2.110084E+01 -1.861560E+01 +2.110084E+01 +3.889056E+02 +7.385798E+00 -1.861560E+01 +7.385798E+00 +9.859595E+02 
 +3.731421E+02 +1.275990E+01 -1.187694E+01 +1.275990E+01 +3.992143E+02 +1.103827E+01 -1.187694E+01 +1.103827E+01 +9.784453E+02 
 +3.532282E+02 +2.298032E+00 -7.285715E+00 +2.298032E+00 +3.962156E+02 +1.550979E+01 -7.285715E+00 +1.550979E+01 +9.555004E+02 
 +3.487759E+02 +1.291497E+00 -5.947479E-01 +1.291497E+00 +3.994825E+02 +1.213771E+01 -5.947479E-01 +1.213771E+01 +9.532213E+02 
 +3.491298E+02 +2.663910E+00 -3.785897E+00 +2.663910E+00 +3.806960E+02 +7.712946E+00 -3.785897E+00 +7.712946E+00 +9.599907E+02 
 +3.371007E+02 +1.841883E+00 -6.824608E+00 +1.841883E+00 +3.634306E+02 +6.013717E+00 -6.824608E+00 +6.013717E+00 +9.625457E+02 
 +3.259420E+02 +6.098215E-01 -6.066809E+00 +6.098215E-01 +3.369810E+02 -2.204772E+00 -6.066809E+00 -2.204772E+00 +9.593864E+02 
 +3.591598E+02 +7.381940E+00 -8.179277E+00 +7.381940E+00 +3.260029E+02 -1.169025E+01 -8.179277E+00 -1.169025E+01 +9.639674E+02 
 +3.943511E+02 +7.156446E+00 -1.672237E+01 +7.156446E+00 +3.381601E+02 -1.009288E+01 -1.672237E+01 -1.009288E+01 +9.731283E+02 
 +3.972424E+02 +6.827501E-01 -1.869169E+01 +6.827501E-01 +3.382764E+02 -4.642021E+00 -1.869169E+01 -4.642021E+00 +9.631594E+02 
 +4.111235E+02 +5.783357E+00 -2.684267E+01 +5.783357E+00 +3.647293E+02 -4.937400E+00 -2.684267E+01 -4.937400E+00 +9.536741E+02 
 +3.458982E+02 -8.625048E+00 -1.041919E+01 -8.625048E+00 +3.611644E+02 +2.910255E-01 -1.041919E+01 +2.910255E-01 +9.407584E+02 
 +3.570002E+02 -1.680087E+00 -1.239838E+00 -1.680087E+00 +3.691665E+02 +6.164616E+00 -1.239838E+00 +6.164616E+00 +9.609002E+02 
 +3.750287E+02 +6.416937E-01 +2.904129E+00 +6.416937E-01 +3.771269E+02 +3.936016E+00 +2.904129E+00 +3.936016E+00 +9.623130E+02 
 +4.135136E+02 -1.308683E+00 +5.524772E-01 -1.308683E+00 +4.071000E+02 -2.060861E+00 +5.524772E-01 -2.060861E+00 +9.788078E+02 
 +3.831605E+02 -1.373103E+01 +1.107554E+01 -1.373103E+01 +3.953359E+02 -8.218130E+00 +1.107554E+01 -8.218130E+00 +9.768260E+02 
 +3.735300E+02 -1.748860E+01 +8.541553E+00 -1.748860E+01 +3.785714E+02 -6.565974E+00 +8.541553E+00 -6.565974E+00 +9.653057E+02 
 +3.821779E+02 -2.217038E+01 +7.177862E+00 -2.217038E+01 +3.878385E+02 -4.530208E+00 +7.177862E+00 -4.530208E+00 +9.525940E+02 
 +3.859581E+02 -1.724678E+01 +4.957671E+00 -1.724678E+01 +3.981736E+02 +5.022539E-01 +4.957671E+00 +5.022539E-01 +9.555390E+02 
 +3.959531E+02 -1.455026E+01 +3.868828E+00 -1.455026E+01 +4.110843E+02 -7.041347E-01 +3.868828E+00 -7.041347E-01 +9.783393E+02 
 +3.923056E+02 -7.931016E+00 -4.727638E+00 -7.931016E+00 +3.919199E+02 -2.994850E+00 -4.727638E+00 -2.994850E+00 +9.805876E+02 
 +4.001122E+02 +1.473393E+01 -1.502167E+01 +1.473393E+01 +3.904817E+02 +4.182432E+00 -1.502167E+01 +4.182432E+00 +9.721513E+02 
 +4.096351E+02 +5.288360E+00 -1.188475E+01 +5.288360E+00 +4.215204E+02 +1.094390E+01 -1.188475E+01 +1.094390E+01 +9.731258E+02 
 +3.844014E+02 +5.403080E+00 -1.070582E+01 +5.403080E+00 +4.153527E+02 +1.359438E+01 -1.070582E+01 +1.359438E+01 +9.629817E+02 
 +3.417667E+02 +1.158241E+00 -2.582701E+00 +1.158241E+00 +3.948010E+02 +1.304208E+01 -2.582701E+00 +1.304208E+01 +9.566311E+02 
 +3.247620E+02 +2.365040E+00 -5.271443E+00 +2.365040E+00 +3.777290E+02 +1.289409E+01 -5.271443E+00 +1.289409E+01 +9.594426E+02 
 +3.260366E+02 +2.675560E+00 -2.168708E+00 +2.675560E+00 +3.591390E+02 +1.085555E+01 -2.168708E+00 +1.085555E+01 +9.625045E+02 
 +3.240607E+02 +3.097762E+00 +1.009447E+00 +3.097762E+00 +3.441293E+02 +5.570707E+00 +1.009447E+00 +5.570707E+00 +9.583863E+02 
 +3.309941E+02 +5.240352E+00 -1.868346E+00 +5.240352E+00 +3.154704E+02 +7.306622E-01 -1.868346E+00 +7.306622E-01 +9.589969E+02 
 +3.769166E+02 +3.986701E+00 -9.587746E+00 +3.986701E+00 +3.008423E+02 -3.685651E+00 -9.587746E+00 -3.685651E+00 +9.805153E+02 
 +3.860918E+02 -2.175827E+00 -1.300947E+01 -2.175827E+00 +3.131869E+02 -4.943975E+00 -1.300947E+01 -4.943975E+00 +9.656492E+02 
 +3.926396E+02 +5.846933E+00 -2.394550E+01 +5.846933E+00 +3.612585E+02 -3.164688E+00 -2.394550E+01 -3.164688E+00 +9.468042E+02 
 +3.655526E+02 -3.305380E+00 -1.576471E+00 -3.305380E+00 +3.662707E+02 +6.462683E+00 -1.576471E+00 +6.462683E+00 +9.490496E+02 
 +3.702815E+02 -6.763857E+00 +1.195138E+00 -6.763857E+00 +3.722161E+02 +8.338040E+00 +1.195138E+00 +8.338040E+00 +9.540795E+02 
 +3.822319E+02 -2.374698E+00 +3.176021E+00 -2.374698E+00 +3.777377E+02 +7.196757E+00 +3.176021E+00 +7.196757E+00 +9.539775E+02 
 +4.029732E+02 +1.040229E+01 +2.505703E+00 +1.040229E+01 +4.067198E+02 -6.745911E+00 +2.505703E+00 -6.745911E+00 +9.712408E+02 
 +3.741032E+02 -1.132515E+01 +1.229934E+00 -1.132515E+01 +3.991603E+02 -1.266874E+01 +1.229934E+00 -1.266874E+01 +9.739342E+02 
 +3.732741E+02 -1.507969E+01 -2.425707E-01 -1.507969E+01 +3.883224E+02 -8.321012E+00 -2.425707E-01 -8.321012E+00 +9.618304E+02 
 +3.798385E+02 -1.755330E+01 +7.737433E+00 -1.755330E+01 +3.879665E+02 -7.688098E+00 +7.737433E+00 -7.688098E+00 +9.493445E+02 
 +3.802897E+02 -1.802888E+01 +1.008044E+01 -1.802888E+01 +3.900424E+02 -7.559971E+00 +1.008044E+01 -7.559971E+00 +9.484063E+02 
 +3.813280E+02 -1.303357E+01 +1.032178E+01 -1.303357E+01 +3.946604E+02 -1.049066E+01 +1.032178E+01 -1.049066E+01 +9.597854E+02 
 +3.858061E+02 -1.279847E+01 +6.738654E+00 -1.279847E+01 +3.967060E+02 -1.316278E+01 +6.738654E+00 -1.316278E+01 +9.726881E+02 
 +4.037769E+02 +1.341712E+01 -5.445200E-01 +1.341712E+01 +3.933829E+02 -5.824264E+00 -5.445200E-01 -5.824264E+00 +9.739512E+02 
 +4.013617E+02 -2.076947E+01 +8.227916E-01 -2.076947E+01 +3.813393E+02 +7.408464E+00 +8.227916E-01 +7.408464E+00 +9.648937E+02 
 +3.812948E+02 -3.332316E+01 +2.214523E+00 -3.332316E+01 +3.679299E+02 +1.242917E+01 +2.214523E+00 +1.242917E+01 +9.597370E+02 
 +3.660871E+02 -2.605223E+01 +4.063732E+00 -2.605223E+01 +3.729219E+02 +1.353884E+01 +4.063732E+00 +1.353884E+01 +9.675137E+02 
 +3.420799E+02 -8.485482E+00 +1.122766E+00 -8.485482E+00 +3.810898E+02 +1.817502E+01 +1.122766E+00 +1.817502E+01 +9.720816E+02 
 +3.297610E+02 +3.059968E-01 +1.123893E+00 +3.059968E-01 +3.630667E+02 +1.637478E+01 +1.123893E+00 +1.637478E+01 +9.698947E+02 
 +3.174796E+02 +7.420539E+00 +6.947325E-01 +7.420539E+00 +3.319860E+02 +1.008689E+01 +6.947325E-01 +1.008689E+01 +9.565284E+02 
 +3.227208E+02 +4.289407E+00 -5.141590E+00 +4.289407E+00 +3.236730E+02 +9.829577E+00 -5.141590E+00 +9.829577E+00 +9.577498E+02 
 +3.330114E+02 +5.917741E+00 -5.276085E+00 +5.917741E+00 +3.113759E+02 +1.483618E+01 -5.276085E+00 +1.483618E+01 +9.647904E+02 
 +3.839343E+02 +6.920230E+00 -8.017112E+00 +6.920230E+00 +3.281955E+02 +1.586600E+01 -8.017112E+00 +1.586600E+01 +9.753267E+02 
 +3.738660E+02 +2.631483E+01 -9.117829E+00 +2.631483E+01 +3.438589E+02 +1.082340E+01 -9.117829E+00 +1.082340E+01 +9.562884E+02 
 +3.814981E+02 +1.469045E+01 +5.934458E-01 +1.469045E+01 +3.681450E+02 +9.818260E+00 +5.934458E-01 +9.818260E+00 +9.647354E+02 
 +3.799893E+02 -2.106190E+00 +2.145688E+00 -2.106190E+00 +3.775612E+02 +1.531432E+01 +2.145688E+00 +1.531432E+01 +9.528936E+02 
 +3.792218E+02 +1.045464E+01 +3.360478E+00 +1.045464E+01 +3.747188E+02 +1.492331E+01 +3.360478E+00 +1.492331E+01 +9.433278E+02 
 +3.938706E+02 +1.329089E+01 +5.887032E+00 +1.329089E+01 +4.069356E+02 -1.511690E+00 +5.887032E+00 -1.511690E+00 +9.592813E+02 
 +3.653770E+02 -1.784577E+01 -1.441421E+00 -1.784577E+01 +3.960929E+02 -1.486172E+01 -1.441421E+00 -1.486172E+01 +9.612192E+02 
 +3.751879E+02 -1.437550E+01 -2.453457E+00 -1.437550E+01 +3.923115E+02 -1.205510E+01 -2.453457E+00 -1.205510E+01 +9.619948E+02 
 +3.701227E+02 -1.229426E+01 +3.601121E+00 -1.229426E+01 +3.818171E+02 -7.364636E+00 +3.601121E+00 -7.364636E+00 +9.539945E+02 
 +3.716231E+02 -1.464942E+01 +4.806498E+00 -1.464942E+01 +3.842424E+02 -7.957043E+00 +4.806498E+00 -7.957043E+00 +9.578258E+02 
 +3.747872E+02 -1.382023E+01 +7.290063E+00 -1.382023E+01 +3.882858E+02 -1.199898E+01 +7.290063E+00 -1.199898E+01 +9.642291E+02 
 +3.805143E+02 -1.742469E+01 +7.507603E+00 -1.742469E+01 +4.023686E+02 -1.405408E+01 +7.507603E+00 -1.405408E+01 +9.781371E+02 
 +3.688545E+02 -5.846136E+00 +3.963619E+00 -5.846136E+00 +3.850260E+02 -7.345284E+00 +3.963619E+00 -7.345284E+00 +9.753454E+02 
 +4.041648E+02 -2.367403E+01 +3.365212E+00 -2.367403E+01 +3.769250E+02 +6.719496E+00 +3.365212E+00 +6.719496E+00 +9.795206E+02 
 +3.968160E+02 -3.022891E+01 +4.710911E+00 -3.022891E+01 +3.705196E+02 +9.214998E+00 +4.710911E+00 +9.214998E+00 +9.740477E+02 
 +3.932786E+02 -3.158985E+01 +7.257528E+00 -3.158985E+01 +3.711512E+02 +1.014571E+01 +7.257528E+00 +1.014571E+01 +9.778434E+02 
 +3.736651E+02 -3.092886E+01 +9.740251E+00 -3.092886E+01 +3.572605E+02 +1.268143E+01 +9.740251E+00 +1.268143E+01 +9.759501E+02 
 +3.559025E+02 -2.554087E+01 +6.303068E+00 -2.554087E+01 +3.439732E+02 +1.586538E+01 +6.303068E+00 +1.586538E+01 +9.758291E+02 
 +3.255538E+02 +2.428083E+00 +1.975262E-01 +2.428083E+00 +3.274104E+02 +1.255685E+01 +1.975262E-01 +1.255685E+01 +9.622544E+02 
 +3.188734E+02 +1.422008E-01 -6.881625E+00 +1.422008E-01 +3.320517E+02 +7.444869E+00 -6.881625E+00 +7.444869E+00 +9.595531E+02 
 +3.096885E+02 +2.680024E+00 -3.302921E+00 +2.680024E+00 +3.247344E+02 +2.074488E+01 -3.302921E+00 +2.074488E+01 +9.621870E+02 
 +3.766028E+02 +2.445095E+01 -3.286510E+00 +2.445095E+01 +3.642642E+02 +2.759915E+01 -3.286510E+00 +2.759915E+01 +9.936401E+02 
 +3.761041E+02 +3.353438E+01 -3.173853E+00 +3.353438E+01 +3.552029E+02 +1.668852E+01 -3.173853E+00 +1.668852E+01 +9.802128E+02 
 +3.723557E+02 +2.086090E+01 -3.596516E+00 +2.086090E+01 +3.468228E+02 -5.712381E+00 -3.596516E+00 -5.712381E+00 +9.774055E+02 
 +3.727814E+02 -1.832923E+01 +2.101462E+00 -1.832923E+01 +3.605236E+02 -7.600278E+00 +2.101462E+00 -7.600278E+00 +9.601949E+02 
 +3.915250E+02 +4.670385E+00 +6.131174E+00 +4.670385E+00 +3.952392E+02 +8.242180E+00 +6.131174E+00 +8.242180E+00 +9.585934E+02 
 +3.977874E+02 +1.318365E+01 +1.507058E+00 +1.318365E+01 +4.075869E+02 +4.874046E+00 +1.507058E+00 +4.874046E+00 +9.616259E+02 
 +3.638475E+02 -1.687872E+01 -5.883016E+00 -1.687872E+01 +3.756514E+02 -6.338309E+00 -5.883016E+00 -6.338309E+00 +9.502871E+02 
 +3.615194E+02 -8.819620E+00 -6.898583E+00 -8.819620E+00 +3.674408E+02 -9.525592E+00 -6.898583E+00 -9.525592E+00 +9.519324E+02 
 +3.561702E+02 -9.363477E+00 -3.168830E+00 -9.363477E+00 +3.746352E+02 -1.133805E+01 -3.168830E+00 -1.133805E+01 +9.548737E+02 
 +3.591762E+02 -1.041496E+01 +1.845723E+00 -1.041496E+01 +3.830702E+02 -1.304495E+01 +1.845723E+00 -1.304495E+01 +9.615954E+02 
 +3.651962E+02 -1.223713E+01 +7.155695E+00 -1.223713E+01 +3.905772E+02 -1.335528E+01 +7.155695E+00 -1.335528E+01 +9.682366E+02 
 +3.600796E+02 -1.080843E+01 +8.066332E+00 -1.080843E+01 +3.893284E+02 -9.790659E+00 +8.066332E+00 -9.790659E+00 +9.740532E+02 
 +3.513586E+02 -5.011798E+00 +4.635134E+00 -5.011798E+00 +3.732798E+02 -3.414829E+00 +4.635134E+00 -3.414829E+00 +9.736993E+02 
 +4.144660E+02 -1.877064E+01 -2.794498E-01 -1.877064E+01 +3.850596E+02 +4.824726E+00 -2.794498E-01 +4.824726E+00 +9.921201E+02 
 +4.017928E+02 -2.377324E+01 +6.479205E-01 -2.377324E+01 +3.664349E+02 +8.204705E+00 +6.479205E-01 +8.204705E+00 +9.839735E+02 
 +3.904280E+02 -2.570122E+01 +2.847090E+00 -2.570122E+01 +3.602655E+02 +7.543055E+00 +2.847090E+00 +7.543055E+00 +9.822930E+02 
 +3.892562E+02 -2.942250E+01 +4.483734E+00 -2.942250E+01 +3.536383E+02 +7.397782E+00 +4.483734E+00 +7.397782E+00 +9.816447E+02 
 +3.961250E+02 -3.507735E+01 +2.950551E+00 -3.507735E+01 +3.567236E+02 +1.099937E+01 +2.950551E+00 +1.099937E+01 +9.873084E+02 
 +3.343992E+02 -2.104559E+01 +1.323670E+00 -2.104559E+01 +3.319119E+02 +5.868172E+00 +1.323670E+00 +5.868172E+00 +9.643181E+02 
 +3.161298E+02 -2.346703E+01 -2.849493E+00 -2.346703E+01 +3.282178E+02 -3.793349E+00 -2.849493E+00 -3.793349E+00 +9.600034E+02 
 +3.288662E+02 -1.662342E+01 -8.171694E-01 -1.662342E+01 +3.403159E+02 +6.865422E+00 -8.171694E-01 +6.865422E+00 +9.719708E+02 
 +3.557039E+02 +1.775062E+01 +3.618558E+00 +1.775062E+01 +3.579965E+02 +2.364147E+01 +3.618558E+00 +2.364147E+01 +9.849563E+02 
 +3.674541E+02 +2.760499E+01 +1.561331E+00 +2.760499E+01 +3.547434E+02 +1.633818E+01 +1.561331E+00 +1.633818E+01 +9.867775E+02 
 +3.667449E+02 +2.735405E+01 +3.443850E-01 +2.735405E+01 +3.460346E+02 +1.429896E+00 +3.443850E-01 +1.429896E+00 +9.865256E+02 
 +3.740059E+02 +1.594734E+01 +3.037199E+00 +1.594734E+01 +3.557796E+02 -2.100555E+00 +3.037199E+00 -2.100555E+00 +9.792827E+02 
 +3.898771E+02 +2.641916E+01 +5.756180E+00 +2.641916E+01 +3.784131E+02 -5.472703E-01 +5.756180E+00 -5.472703E-01 +9.795515E+02 
 +4.024503E+02 +2.810833E+01 -4.343297E+00 +2.810833E+01 +3.894731E+02 -5.937210E+00 -4.343297E+00 -5.937210E+00 +9.798566E+02 
 +3.622796E+02 -2.063795E+01 -8.947657E+00 -2.063795E+01 +3.778176E+02 -8.457117E+00 -8.947657E+00 -8.457117E+00 +9.607008E+02 
 +3.530318E+02 -1.485727E+01 -5.096932E+00 -1.485727E+01 +3.730979E+02 -9.542394E+00 -5.096932E+00 -9.542394E+00 +9.556088E+02 
 +3.500720E+02 -1.507542E+01 -8.694172E-02 -1.507542E+01 +3.720596E+02 -1.683837E+01 -8.694172E-02 -1.683837E+01 +9.586347E+02 
 +3.540642E+02 -1.143148E+01 +6.885266E+00 -1.143148E+01 +3.819392E+02 -2.009750E+01 +6.885266E+00 -2.009750E+01 +9.689562E+02 
 +3.524827E+02 -1.243929E+01 +1.248739E+01 -1.243929E+01 +3.844764E+02 -1.485059E+01 +1.248739E+01 -1.485059E+01 +9.700111E+02 
 +3.501993E+02 -1.023115E+01 +9.080649E+00 -1.023115E+01 +3.794388E+02 -4.385797E+00 +9.080649E+00 -4.385797E+00 +9.715036E+02 
 +3.462983E+02 -1.194012E+01 +6.790064E+00 -1.194012E+01 +3.659683E+02 +2.974756E+00 +6.790064E+00 +2.974756E+00 +9.731725E+02 
 +4.108632E+02 -2.441142E+01 +4.478362E+00 -2.441142E+01 +3.799409E+02 +8.236948E+00 +4.478362E+00 +8.236948E+00 +9.983203E+02 
 +4.042163E+02 -2.036973E+01 +2.831198E+00 -2.036973E+01 +3.580228E+02 +9.174871E+00 +2.831198E+00 +9.174871E+00 +9.958635E+02 
 +4.017708E+02 -1.748214E+01 +4.126928E+00 -1.748214E+01 +3.591290E+02 +7.263319E+00 +4.126928E+00 +7.263319E+00 +9.972591E+02 
 +3.913606E+02 -2.763209E+01 +3.043832E+00 -2.763209E+01 +3.534444E+02 +6.488388E+00 +3.043832E+00 +6.488388E+00 +9.891341E+02 
 +3.814751E+02 -3.011380E+01 +3.340577E-02 -3.011380E+01 +3.498893E+02 +5.978255E+00 +3.340577E-02 +5.978255E+00 +9.815786E+02 
 +3.421364E+02 -1.597122E+01 -8.128953E-01 -1.597122E+01 +3.429509E+02 +2.099335E+00 -8.128953E-01 +2.099335E+00 +9.658196E+02 
 +3.425227E+02 -1.954323E+01 -1.254756E+00 -1.954323E+01 +3.465869E+02 -4.503914E+00 -1.254756E+00 -4.503914E+00 +9.669476E+02 
 +3.406578E+02 -1.172348E+01 +2.257683E+00 -1.172348E+01 +3.474158E+02 +1.495864E+00 +2.257683E+00 +1.495864E+00 +9.667124E+02 
 +3.626673E+02 +1.817200E+01 +9.515725E+00 +1.817200E+01 +3.581146E+02 +1.914813E+01 +9.515725E+00 +1.914813E+01 +9.743280E+02 
 +3.713079E+02 +2.825202E+01 +9.905392E+00 +2.825202E+01 +3.598924E+02 +1.706330E+01 +9.905392E+00 +1.706330E+01 +9.863864E+02 
 +3.697791E+02 +2.465654E+01 +8.858146E+00 +2.465654E+01 +3.537498E+02 +7.421204E+00 +8.858146E+00 +7.421204E+00 +9.817700E+02 
 +3.802484E+02 +1.310315E+01 +4.505703E+00 +1.310315E+01 +3.682167E+02 +1.712986E+00 +4.505703E+00 +1.712986E+00 +9.891221E+02 
 +3.911736E+02 +1.548722E+01 +2.404371E-02 +1.548722E+01 +3.783302E+02 +6.671751E-01 +2.404371E-02 +6.671751E-01 +9.934790E+02 
 +3.918587E+02 +2.256233E+01 -5.740752E+00 +2.256233E+01 +3.753855E+02 -9.102211E+00 -5.740752E+00 -9.102211E+00 +9.822215E+02 
 +3.395460E+02 -1.674410E+01 -3.937587E+00 -1.674410E+01 +3.624690E+02 -1.450706E+01 -3.937587E+00 -1.450706E+01 +9.553401E+02 
 +3.432751E+02 -1.768008E+01 +3.163102E+00 -1.768008E+01 +3.783348E+02 -1.204612E+01 +3.163102E+00 -1.204612E+01 +9.586872E+02 
 +3.471210E+02 -1.535397E+01 +6.020713E+00 -1.535397E+01 +3.712632E+02 -1.342564E+01 +6.020713E+00 -1.342564E+01 +9.632752E+02 
 +3.554647E+02 -8.997620E+00 +1.082764E+01 -8.997620E+00 +3.801061E+02 -1.752254E+01 +1.082764E+01 -1.752254E+01 +9.764328E+02 
 +3.457334E+02 -1.286851E+01 +1.317887E+01 -1.286851E+01 +3.804703E+02 -1.484396E+01 +1.317887E+01 -1.484396E+01 +9.724150E+02 
 +3.417147E+02 -1.335479E+01 +8.307919E+00 -1.335479E+01 +3.740859E+02 -2.438277E+00 +8.307919E+00 -2.438277E+00 +9.692678E+02 
 +3.605130E+02 -1.385672E+01 +1.173166E+01 -1.385672E+01 +3.662462E+02 +3.991002E+00 +1.173166E+01 +3.991002E+00 +9.783542E+02 
 +3.991228E+02 -2.426601E+01 +1.390809E+01 -2.426601E+01 +3.655531E+02 +1.015187E+01 +1.390809E+01 +1.015187E+01 +9.956481E+02 
 +3.901793E+02 -2.383645E+01 +1.198943E+01 -2.383645E+01 +3.473241E+02 +1.151184E+01 +1.198943E+01 +1.151184E+01 +9.947257E+02 
 +4.006393E+02 -2.205065E+01 +1.143303E+01 -2.205065E+01 +3.469989E+02 +8.461587E+00 +1.143303E+01 +8.461587E+00 +9.974806E+02 
 +4.272626E+02 -2.480234E+01 +9.582403E+00 -2.480234E+01 +3.802239E+02 +5.777669E+00 +9.582403E+00 +5.777669E+00 +1.007811E+03 
 +3.807392E+02 -1.705423E+01 +3.352547E+00 -1.705423E+01 +3.793387E+02 +8.206917E-02 +3.352547E+00 +8.206917E-02 +9.872501E+02 
 +3.604037E+02 -1.026494E+01 +2.467264E-01 -1.026494E+01 +3.612040E+02 -4.288806E+00 +2.467264E-01 -4.288806E+00 +9.712425E+02 
 +3.514305E+02 -1.572946E+01 +1.914015E+00 -1.572946E+01 +3.485374E+02 -7.794093E+00 +1.914015E+00 -7.794093E+00 +9.651867E+02 
 +3.585048E+02 -4.755303E+00 +4.825217E+00 -4.755303E+00 +3.615010E+02 -1.610276E+00 +4.825217E+00 -1.610276E+00 +9.674535E+02 
 +3.804161E+02 +1.866998E+01 +9.902727E+00 +1.866998E+01 +3.735162E+02 +1.452027E+01 +9.902727E+00 +1.452027E+01 +9.742342E+02 
 +3.668763E+02 +2.964881E+01 +1.270285E+01 +2.964881E+01 +3.523355E+02 +1.773235E+01 +1.270285E+01 +1.773235E+01 +9.742207E+02 
 +3.741660E+02 +2.086101E+01 +7.073319E+00 +2.086101E+01 +3.781334E+02 +1.726331E+01 +7.073319E+00 +1.726331E+01 +9.845450E+02 
 +3.772880E+02 +1.053316E+01 +4.484706E+00 +1.053316E+01 +3.845981E+02 +1.306580E+01 +4.484706E+00 +1.306580E+01 +9.903502E+02 
 +3.718562E+02 +2.487251E+00 +2.708335E+00 +2.487251E+00 +3.777982E+02 +5.456055E+00 +2.708335E+00 +5.456055E+00 +9.876154E+02 
 +3.681850E+02 -5.381474E+00 -7.404653E-01 -5.381474E+00 +3.578633E+02 -2.395278E+00 -7.404653E-01 -2.395278E+00 +9.718983E+02 
 +3.653549E+02 -2.124070E+01 -1.660802E+00 -2.124070E+01 +3.601963E+02 -1.003032E+01 -1.660802E+00 -1.003032E+01 +9.631920E+02 
 +3.342365E+02 -2.176898E+01 +7.833528E+00 -2.176898E+01 +3.658289E+02 -1.476926E+01 +7.833528E+00 -1.476926E+01 +9.529522E+02 
 +3.410629E+02 -1.872321E+01 +8.060536E+00 -1.872321E+01 +3.730961E+02 -1.305129E+01 +8.060536E+00 -1.305129E+01 +9.607282E+02 
 +3.505233E+02 -1.009297E+01 +7.322926E+00 -1.009297E+01 +3.743890E+02 -1.139538E+01 +7.322926E+00 -1.139538E+01 +9.749263E+02 
 +3.476251E+02 -1.159227E+01 +7.340896E+00 -1.159227E+01 +3.742838E+02 -9.077890E+00 +7.340896E+00 -9.077890E+00 +9.750937E+02 
 +3.543788E+02 -9.863249E+00 +8.326603E+00 -9.863249E+00 +3.608535E+02 -7.553868E-01 +8.326603E+00 -7.553868E-01 +9.703517E+02 
 +3.817922E+02 -2.633585E+00 +1.481158E+01 -2.633585E+00 +3.473994E+02 +2.820156E+00 +1.481158E+01 +2.820156E+00 +9.780713E+02 
 +3.809071E+02 -2.171381E+00 +1.683639E+01 -2.171381E+00 +3.451034E+02 +7.031820E+00 +1.683639E+01 +7.031820E+00 +9.807477E+02 
 +3.859927E+02 +4.534995E+00 +1.655832E+01 +4.534995E+00 +3.518516E+02 +1.125357E+01 +1.655832E+01 +1.125357E+01 +9.852305E+02 
 +3.993209E+02 +1.387406E+01 +1.464446E+01 +1.387406E+01 +3.541703E+02 +1.355720E+01 +1.464446E+01 +1.355720E+01 +9.884610E+02 
 +4.266440E+02 +8.767151E+00 +1.473783E+01 +8.767151E+00 +3.791826E+02 +1.106103E+01 +1.473783E+01 +1.106103E+01 +9.969476E+02 
 +3.611468E+02 -3.623899E-01 +1.901269E+00 -3.623899E-01 +3.669626E+02 +4.088998E-01 +1.901269E+00 +4.088998E-01 +9.682050E+02 
 +3.599716E+02 -9.230309E+00 +3.437607E+00 -9.230309E+00 +3.666633E+02 -7.504512E+00 +3.437607E+00 -7.504512E+00 +9.635155E+02 
 +3.578809E+02 -4.724076E+00 +7.399405E+00 -4.724076E+00 +3.543865E+02 -1.185863E+01 +7.399405E+00 -1.185863E+01 +9.574997E+02 
 +3.786061E+02 +8.262003E+00 +7.481399E+00 +8.262003E+00 +3.805054E+02 -9.388216E+00 +7.481399E+00 -9.388216E+00 +9.673958E+02 
 +3.885849E+02 +1.858173E+01 +7.565362E+00 +1.858173E+01 +3.980153E+02 +6.235046E-01 +7.565362E+00 +6.235046E-01 +9.799329E+02 
 +3.779240E+02 +1.818034E+01 +6.902496E+00 +1.818034E+01 +3.861949E+02 +1.256658E+01 +6.902496E+00 +1.256658E+01 +9.838897E+02 
 +3.700427E+02 +2.120930E+01 -3.434105E-01 +2.120930E+01 +3.846046E+02 +2.493175E+01 -3.434105E-01 +2.493175E+01 +9.886386E+02 
 +3.672755E+02 +1.148218E+01 +1.400415E+00 +1.148218E+01 +3.762298E+02 +2.126207E+01 +1.400415E+00 +2.126207E+01 +9.910879E+02 
 +3.467071E+02 +1.066713E+01 +8.575428E+00 +1.066713E+01 +3.623668E+02 +9.511365E+00 +8.575428E+00 +9.511365E+00 +9.855522E+02 
 +3.433181E+02 +8.677804E+00 +9.560138E+00 +8.677804E+00 +3.509262E+02 -3.012553E+00 +9.560138E+00 -3.012553E+00 +9.762613E+02 
 +3.738949E+02 -1.239724E+01 +2.491749E+00 -1.239724E+01 +3.632448E+02 -1.079891E+01 +2.491749E+00 -1.079891E+01 +9.748782E+02 
 +3.525985E+02 -2.557612E+01 +9.209133E+00 -2.557612E+01 +3.702464E+02 -1.750085E+01 +9.209133E+00 -1.750085E+01 +9.631791E+02 
 +3.493808E+02 -2.859154E+01 +9.979601E+00 -2.859154E+01 +3.768929E+02 -1.462533E+01 +9.979601E+00 -1.462533E+01 +9.668445E+02 
 +3.647408E+02 -6.552119E+00 +6.024118E+00 -6.552119E+00 +3.742548E+02 -5.948361E+00 +6.024118E+00 -5.948361E+00 +9.781264E+02 
 +3.500071E+02 -4.008557E+00 +2.571402E+00 -4.008557E+00 +3.411577E+02 -3.213760E+00 +2.571402E+00 -3.213760E+00 +9.672218E+02 
 +3.734101E+02 -4.102501E+00 +6.872244E+00 -4.102501E+00 +3.320055E+02 -1.091214E+00 +6.872244E+00 -1.091214E+00 +9.694298E+02 
 +3.860035E+02 -3.585332E+00 +7.969967E+00 -3.585332E+00 +3.427575E+02 +5.338155E+00 +7.969967E+00 +5.338155E+00 +9.774488E+02 
 +3.874163E+02 -5.533340E+00 +1.013462E+01 -5.533340E+00 +3.500769E+02 +9.751673E+00 +1.013462E+01 +9.751673E+00 +9.771626E+02 
 +3.961840E+02 -3.473437E+00 +1.246890E+01 -3.473437E+00 +3.587057E+02 +1.317667E+01 +1.246890E+01 +1.317667E+01 +9.725079E+02 
 +3.953476E+02 +6.060333E+00 +1.196721E+01 +6.060333E+00 +3.582549E+02 +1.717834E+01 +1.196721E+01 +1.717834E+01 +9.649819E+02 
 +3.865190E+02 +1.148953E+01 +8.947183E+00 +1.148953E+01 +3.494272E+02 +1.134635E+01 +8.947183E+00 +1.134635E+01 +9.565268E+02 
 +3.393715E+02 +1.981191E+01 -1.779471E+00 +1.981191E+01 +3.389314E+02 -4.918112E+00 -1.779471E+00 -4.918112E+00 +9.362947E+02 
 +3.566711E+02 -3.486618E-01 +2.282423E+00 -3.486618E-01 +3.687509E+02 -1.314455E+01 +2.282423E+00 -1.314455E+01 +9.455301E+02 
 +3.620243E+02 +6.618355E+00 +4.544035E+00 +6.618355E+00 +3.728104E+02 -1.515880E+01 +4.544035E+00 -1.515880E+01 +9.513095E+02 
 +3.689434E+02 +1.507778E+01 +3.175494E+00 +1.507778E+01 +3.791082E+02 -1.115239E+01 +3.175494E+00 -1.115239E+01 +9.632850E+02 
 +3.654770E+02 +1.662764E+01 +1.099671E+00 +1.662764E+01 +3.809662E+02 +8.542377E-01 +1.099671E+00 +8.542377E-01 +9.745389E+02 
 +3.672611E+02 +1.898189E+01 -1.826786E-01 +1.898189E+01 +3.849851E+02 +1.746371E+01 -1.826786E-01 +1.746371E+01 +9.831062E+02 
 +3.674468E+02 +1.954805E+01 -5.757966E+00 +1.954805E+01 +3.851761E+02 +2.622007E+01 -5.757966E+00 +2.622007E+01 +9.868635E+02 
 +3.557663E+02 +1.382509E+01 +2.795671E+00 +1.382509E+01 +3.681440E+02 +1.701566E+01 +2.795671E+00 +1.701566E+01 +9.889509E+02 
 +3.493131E+02 +1.169511E+01 +7.883287E+00 +1.169511E+01 +3.624354E+02 +7.587761E+00 +7.883287E+00 +7.587761E+00 +9.956837E+02 
 +3.380595E+02 +7.406099E+00 +1.125208E+01 +7.406099E+00 +3.524975E+02 -2.029789E+00 +1.125208E+01 -2.029789E+00 +9.880502E+02 
 +3.470122E+02 +6.211384E+00 +9.359301E+00 +6.211384E+00 +3.534503E+02 -1.416752E+01 +9.359301E+00 -1.416752E+01 +9.735412E+02 
 +3.574851E+02 -1.534157E+00 +9.153414E+00 -1.534157E+00 +3.657048E+02 -1.783239E+01 +9.153414E+00 -1.783239E+01 +9.683124E+02 
 +3.520531E+02 -2.314934E+01 +8.604096E+00 -2.314934E+01 +3.554233E+02 -1.723808E+01 +8.604096E+00 -1.723808E+01 +9.661802E+02 
 +3.716382E+02 -5.818815E+00 +1.227699E+01 -5.818815E+00 +3.389437E+02 -1.766338E+01 +1.227699E+01 -1.766338E+01 +9.687036E+02 
 +3.579112E+02 -5.738007E+00 +7.248849E+00 -5.738007E+00 +3.177367E+02 -1.226779E+01 +7.248849E+00 -1.226779E+01 +9.624763E+02 
 +3.768129E+02 -9.233091E+00 +6.449169E+00 -9.233091E+00 +3.341462E+02 -2.593677E+00 +6.449169E+00 -2.593677E+00 +9.740653E+02 
 +3.776702E+02 -9.889703E+00 +3.735250E+00 -9.889703E+00 +3.409583E+02 +4.409331E+00 +3.735250E+00 +4.409331E+00 +9.744255E+02 
 +3.886336E+02 -1.109622E+01 +6.433876E+00 -1.109622E+01 +3.538168E+02 +5.931841E+00 +6.433876E+00 +5.931841E+00 +9.738735E+02 
 +3.964813E+02 -1.273848E+01 +9.993273E+00 -1.273848E+01 +3.611423E+02 +7.755614E+00 +9.993273E+00 +7.755614E+00 +9.624920E+02 
 +3.940909E+02 -7.660878E+00 +9.822028E+00 -7.660878E+00 +3.605087E+02 +2.627715E+00 +9.822028E+00 +2.627715E+00 +9.481115E+02 
 +3.874798E+02 -9.282415E-01 -1.112097E+00 -9.282415E-01 +3.690088E+02 -1.531322E+01 -1.112097E+00 -1.531322E+01 +9.466155E+02 
 +3.559257E+02 +5.715106E+00 -2.742991E+00 +5.715106E+00 +3.489629E+02 -2.998220E+01 -2.742991E+00 -2.998220E+01 +9.260254E+02 
 +3.709687E+02 -1.224750E-01 -3.935908E+00 -1.224750E-01 +3.688715E+02 -2.887940E+01 -3.935908E+00 -2.887940E+01 +9.356946E+02 
 +3.592251E+02 +2.129821E+00 -6.070139E+00 +2.129821E+00 +3.896662E+02 -1.560859E+01 -6.070139E+00 -1.560859E+01 +9.612895E+02 
 +3.558434E+02 +1.222239E+01 -7.608310E+00 +1.222239E+01 +3.820531E+02 -5.580766E+00 -7.608310E+00 -5.580766E+00 +9.739793E+02 
 +3.424582E+02 +1.439512E+01 -5.485378E+00 +1.439512E+01 +3.622126E+02 +7.282547E+00 -5.485378E+00 +7.282547E+00 +9.705180E+02 
 +3.573015E+02 +2.122544E+01 -4.779811E+00 +2.122544E+01 +3.753742E+02 +2.430804E+01 -4.779811E+00 +2.430804E+01 +9.799319E+02 
 +3.601127E+02 +1.558649E+01 -1.081693E+01 +1.558649E+01 +3.758321E+02 +2.459562E+01 -1.081693E+01 +2.459562E+01 +9.786058E+02 
 +3.515253E+02 +5.686701E+00 -2.066621E+00 +5.686701E+00 +3.711028E+02 +1.365161E+01 -2.066621E+00 +1.365161E+01 +9.887578E+02 
 +3.514703E+02 +1.102866E+01 -1.235203E+00 +1.102866E+01 +3.632414E+02 +1.653740E+00 -1.235203E+00 +1.653740E+00 +1.000092E+03 
 +3.434708E+02 +8.306725E+00 +6.083036E+00 +8.306725E+00 +3.533266E+02 -9.846517E+00 +6.083036E+00 -9.846517E+00 +9.953714E+02 
 +3.475396E+02 +7.379596E+00 +1.083016E+01 +7.379596E+00 +3.478012E+02 -1.973909E+01 +1.083016E+01 -1.973909E+01 +9.851019E+02 
 +3.314647E+02 +1.293146E+00 +1.293767E+01 +1.293146E+00 +3.251762E+02 -1.717980E+01 +1.293767E+01 -1.717980E+01 +9.622366E+02 
 +3.524966E+02 -2.108856E+01 +1.184642E+01 -2.108856E+01 +3.291665E+02 -1.623606E+01 +1.184642E+01 -1.623606E+01 +9.584118E+02 
 +3.693502E+02 -9.962254E+00 +1.533943E+01 -9.962254E+00 +3.346797E+02 -1.448548E+01 +1.533943E+01 -1.448548E+01 +9.620318E+02 
 +3.705859E+02 -1.309807E+01 +1.106019E+01 -1.309807E+01 +3.363386E+02 -9.553127E+00 +1.106019E+01 -9.553127E+00 +9.699627E+02 
 +3.743554E+02 -1.615116E+01 +8.597014E+00 -1.615116E+01 +3.434228E+02 -4.864603E+00 +8.597014E+00 -4.864603E+00 +9.765909E+02 
 +3.843353E+02 -1.369516E+01 +5.706287E+00 -1.369516E+01 +3.500790E+02 -3.368700E-02 +5.706287E+00 -3.368700E-02 +9.785876E+02 
 +3.871573E+02 -1.246573E+01 +4.764713E+00 -1.246573E+01 +3.522308E+02 +1.086212E+00 +4.764713E+00 +1.086212E+00 +9.704588E+02 
 +3.920965E+02 -1.216826E+01 +6.168531E+00 -1.216826E+01 +3.592820E+02 +8.462866E-01 +6.168531E+00 +8.462866E-01 +9.581404E+02 
 +3.954765E+02 -7.521523E+00 +7.176136E+00 -7.521523E+00 +3.670060E+02 -7.700142E+00 +7.176136E+00 -7.700142E+00 +9.523732E+02 
 +3.861115E+02 +5.254450E+00 -2.856054E+00 +5.254450E+00 +3.676085E+02 -2.189093E+01 -2.856054E+00 -2.189093E+01 +9.459171E+02 
 +3.802929E+02 +6.538606E+00 -4.117606E+00 +6.538606E+00 +3.675314E+02 -2.673420E+01 -4.117606E+00 -2.673420E+01 +9.331871E+02 
 +3.797454E+02 -3.012046E-02 -6.823492E+00 -3.012046E-02 +3.766611E+02 -1.996836E+01 -6.823492E+00 -1.996836E+01 +9.473506E+02 
 +3.540433E+02 -9.305874E+00 -8.982169E+00 -9.305874E+00 +3.860991E+02 -4.936225E+00 -8.982169E+00 -4.936225E+00 +9.713559E+02 
 +3.544160E+02 -4.553041E+00 -1.538651E+01 -4.553041E+00 +4.001435E+02 +3.156171E+00 -1.538651E+01 +3.156171E+00 +9.805005E+02 
 +3.374169E+02 -4.861070E+00 -1.414093E+01 -4.861070E+00 +3.718608E+02 +1.552893E+01 -1.414093E+01 +1.552893E+01 +9.685713E+02 
 +3.671590E+02 +2.127192E+01 -1.294837E+01 +2.127192E+01 +3.747712E+02 +2.652319E+01 -1.294837E+01 +2.652319E+01 +9.795335E+02 
 +3.638041E+02 +1.576035E+01 -1.819193E+01 +1.576035E+01 +3.746050E+02 +1.950919E+01 -1.819193E+01 +1.950919E+01 +9.836492E+02 
 +3.515496E+02 +1.088569E+01 -1.021372E+01 +1.088569E+01 +3.646162E+02 +9.137472E+00 -1.021372E+01 +9.137472E+00 +9.898695E+02 
 +3.552645E+02 +1.458975E+01 -6.330711E+00 +1.458975E+01 +3.662175E+02 -4.663827E+00 -6.330711E+00 -4.663827E+00 +9.984528E+02 
 +3.526744E+02 +1.187058E+01 -1.555355E+00 +1.187058E+01 +3.538143E+02 -1.496235E+01 -1.555355E+00 -1.496235E+01 +9.897502E+02 
 +3.400924E+02 +1.323356E+01 +4.021667E+00 +1.323356E+01 +3.312675E+02 -1.661822E+01 +4.021667E+00 -1.661822E+01 +9.787940E+02 
 +3.197399E+02 +7.166836E+00 +1.018559E+01 +7.166836E+00 +3.101573E+02 -1.136250E+01 +1.018559E+01 -1.136250E+01 +9.650614E+02 
 +3.551262E+02 -1.899541E+01 +1.572832E+01 -1.899541E+01 +3.322454E+02 -1.439114E+01 +1.572832E+01 -1.439114E+01 +9.701743E+02 
 +3.690841E+02 -1.414081E+01 +1.753051E+01 -1.414081E+01 +3.487838E+02 -1.323308E+01 +1.753051E+01 -1.323308E+01 +9.704502E+02 
 +3.689046E+02 -1.416828E+01 +1.292855E+01 -1.416828E+01 +3.467000E+02 -7.762939E+00 +1.292855E+01 -7.762939E+00 +9.708793E+02 
 +3.721177E+02 -1.702561E+01 +1.071290E+01 -1.702561E+01 +3.407460E+02 -4.366545E+00 +1.071290E+01 -4.366545E+00 +9.709668E+02 
 +3.785227E+02 -1.576361E+01 +7.802954E+00 -1.576361E+01 +3.426213E+02 -1.052271E+00 +7.802954E+00 -1.052271E+00 +9.682300E+02 
 +3.871880E+02 -1.442505E+01 +3.951093E+00 -1.442505E+01 +3.493978E+02 -2.236919E+00 +3.951093E+00 -2.236919E+00 +9.667297E+02 
 +3.904630E+02 -1.364125E+01 +5.654650E+00 -1.364125E+01 +3.565507E+02 -6.965692E+00 +5.654650E+00 -6.965692E+00 +9.639118E+02 
 +3.991425E+02 -9.122214E+00 +6.821155E+00 -9.122214E+00 +3.675308E+02 -1.400149E+01 +6.821155E+00 -1.400149E+01 +9.663214E+02 
 +3.982909E+02 +6.298978E+00 +4.442675E-01 +6.298978E+00 +3.715348E+02 -2.323892E+01 +4.442675E-01 -2.323892E+01 +9.525836E+02 
 +3.895598E+02 +5.600332E+00 -5.953489E+00 +5.600332E+00 +3.844769E+02 -2.014336E+01 -5.953489E+00 -2.014336E+01 +9.438389E+02 
 +3.665395E+02 -5.656111E+00 -4.936465E+00 -5.656111E+00 +3.896336E+02 -4.736450E+00 -4.936465E+00 -4.736450E+00 +9.631021E+02 
 +3.578391E+02 -1.078887E+01 -8.090998E+00 -1.078887E+01 +3.914592E+02 +3.744879E+00 -8.090998E+00 +3.744879E+00 +9.782838E+02 
 +3.460553E+02 -7.840613E+00 -1.822879E+01 -7.840613E+00 +3.873987E+02 +1.978319E+00 -1.822879E+01 +1.978319E+00 +9.702111E+02 
 +3.565565E+02 -6.782808E+00 -1.697296E+01 -6.782808E+00 +3.821476E+02 +7.614329E+00 -1.697296E+01 +7.614329E+00 +9.686675E+02 
 +3.692171E+02 +2.628945E+01 -2.049528E+01 +2.628945E+01 +3.795478E+02 +1.725842E+01 -2.049528E+01 +1.725842E+01 +9.770361E+02 
 +4.055925E+02 +1.190730E+01 -3.242294E+01 +1.190730E+01 +3.815027E+02 +5.557729E+00 -3.242294E+01 +5.557729E+00 +9.778575E+02 
 +3.723349E+02 +1.074432E+01 -2.483928E+01 +1.074432E+01 +3.511807E+02 -4.438094E+00 -2.483928E+01 -4.438094E+00 +9.666322E+02 
 +3.520932E+02 +1.671585E+01 -1.706326E+01 +1.671585E+01 +3.458825E+02 -1.016228E+01 -1.706326E+01 -1.016228E+01 +9.689692E+02 
 +3.527323E+02 +1.574948E+01 -1.544786E+01 +1.574948E+01 +3.468247E+02 -2.342963E+00 -1.544786E+01 -2.342963E+00 +9.761330E+02 
 +3.434560E+02 +1.002236E+01 -1.356805E+01 +1.002236E+01 +3.369626E+02 +4.016891E+00 -1.356805E+01 +4.016891E+00 +9.663659E+02 
 +3.471055E+02 +6.620010E+00 +7.618037E+00 +6.620010E+00 +3.375915E+02 -1.476077E+00 +7.618037E+00 -1.476077E+00 +9.837749E+02 
 +3.701412E+02 +1.757751E+00 +9.307642E+00 +1.757751E+00 +3.546632E+02 -2.007167E+00 +9.307642E+00 -2.007167E+00 +9.934506E+02 
 +3.787958E+02 +6.777423E+00 +1.386010E+01 +6.777423E+00 +3.604298E+02 -1.559056E+00 +1.386010E+01 -1.559056E+00 +9.725226E+02 
 +3.737362E+02 +2.168826E+00 +1.762097E+01 +2.168826E+00 +3.559266E+02 -3.475199E+00 +1.762097E+01 -3.475199E+00 +9.693336E+02 
 +3.731108E+02 +1.788785E+00 +8.281008E+00 +1.788785E+00 +3.646930E+02 -2.725879E+00 +8.281008E+00 -2.725879E+00 +9.704183E+02 
 +3.812600E+02 -6.695402E+00 +7.995199E+00 -6.695402E+00 +3.621449E+02 -7.237926E-01 +7.995199E+00 -7.237926E-01 +9.626213E+02 
 +3.774097E+02 -1.100126E+01 +4.244709E+00 -1.100126E+01 +3.432423E+02 -9.833215E-01 +4.244709E+00 -9.833215E-01 +9.563046E+02 
 +3.896000E+02 -1.439627E+01 +6.682332E+00 -1.439627E+01 +3.471272E+02 -6.437767E+00 +6.682332E+00 -6.437767E+00 +9.732755E+02 
 +3.944274E+02 -1.129076E+01 +1.131349E+01 -1.129076E+01 +3.489137E+02 -7.738813E+00 +1.131349E+01 -7.738813E+00 +9.721958E+02 
 +3.900683E+02 +9.328943E+00 -2.425061E+00 +9.328943E+00 +3.794564E+02 -7.755938E+00 -2.425061E+00 -7.755938E+00 +9.786312E+02 
 +3.692648E+02 +6.451959E+00 -5.857713E+00 +6.451959E+00 +3.980187E+02 -4.352307E+00 -5.857713E+00 -4.352307E+00 +9.908880E+02 
 +3.439009E+02 -4.768746E+00 -4.389029E+00 -4.768746E+00 +3.872790E+02 -9.626673E-01 -4.389029E+00 -9.626673E-01 +9.758722E+02 
 +3.520595E+02 -6.028245E+00 -6.401306E+00 -6.028245E+00 +3.939027E+02 +6.055121E-01 -6.401306E+00 +6.055121E-01 +9.738177E+02 
 +3.427056E+02 -3.116161E+00 -1.644638E+01 -3.116161E+00 +3.822527E+02 +4.133145E+00 -1.644638E+01 +4.133145E+00 +9.841687E+02 
 +3.437993E+02 -2.371952E+00 -1.915250E+01 -2.371952E+00 +3.696785E+02 +6.024432E+00 -1.915250E+01 +6.024432E+00 +9.851846E+02 
 +3.795568E+02 +3.729789E+01 -2.551583E+01 +3.729789E+01 +3.834684E+02 +1.000172E+01 -2.551583E+01 +1.000172E+01 +9.796938E+02 
 +3.887666E+02 -1.003243E+01 -1.980297E+01 -1.003243E+01 +3.624504E+02 -3.981636E+00 -1.980297E+01 -3.981636E+00 +9.702487E+02 
 +3.619724E+02 -6.422384E+00 -1.923917E+01 -6.422384E+00 +3.343824E+02 -1.255131E+01 -1.923917E+01 -1.255131E+01 +9.619460E+02 
 +3.484127E+02 -4.619966E-02 -8.792044E+00 -4.619966E-02 +3.198960E+02 -1.447020E+01 -8.792044E+00 -1.447020E+01 +9.642295E+02 
 +3.508604E+02 +1.258883E+01 -1.935536E+00 +1.258883E+01 +3.230034E+02 -4.313351E+00 -1.935536E+00 -4.313351E+00 +9.661995E+02 
 +3.670089E+02 +1.701358E+01 -5.275313E+00 +1.701358E+01 +3.369627E+02 +8.802097E+00 -5.275313E+00 +8.802097E+00 +9.653705E+02 
 +3.633182E+02 +1.243520E+01 +1.044513E+01 +1.243520E+01 +3.288891E+02 +1.646146E+01 +1.044513E+01 +1.646146E+01 +9.808663E+02 
 +3.557879E+02 +1.113177E+01 +1.513197E+01 +1.113177E+01 +3.232348E+02 +9.212032E+00 +1.513197E+01 +9.212032E+00 +9.883532E+02 
 +3.592283E+02 +1.687696E+01 +1.315799E+01 +1.687696E+01 +3.382567E+02 +2.231838E+00 +1.315799E+01 +2.231838E+00 +9.754347E+02 
 +3.683609E+02 +1.460359E+01 +1.154971E+01 +1.460359E+01 +3.575699E+02 -2.582294E+00 +1.154971E+01 -2.582294E+00 +9.686751E+02 
 +3.642854E+02 +1.903389E+01 -3.569502E-01 +1.903389E+01 +3.648877E+02 -2.002464E+00 -3.569502E-01 -2.002464E+00 +9.594865E+02 
 +3.593539E+02 -1.004459E+00 +5.610335E+00 -1.004459E+00 +3.582536E+02 +7.603687E-01 +5.610335E+00 +7.603687E-01 +9.466205E+02 
 +3.566886E+02 +1.793079E+00 +6.296621E+00 +1.793079E+00 +3.495295E+02 +6.020462E-01 +6.296621E+00 +6.020462E-01 +9.476441E+02 
 +3.745916E+02 -1.489700E+01 +7.850004E+00 -1.489700E+01 +3.369703E+02 -6.016453E+00 +7.850004E+00 -6.016453E+00 +9.760553E+02 
 +3.644340E+02 -4.383991E+00 +1.649308E+01 -4.383991E+00 +3.340010E+02 -4.073683E+00 +1.649308E+01 -4.073683E+00 +9.715668E+02 
 +3.625687E+02 +1.183976E+01 -2.321890E+00 +1.183976E+01 +3.615388E+02 +3.151468E+00 -2.321890E+00 +3.151468E+00 +9.678556E+02 
 +3.655567E+02 +3.984644E+00 -5.761584E-01 +3.984644E+00 +3.707050E+02 +5.555391E+00 -5.761584E-01 +5.555391E+00 +9.859381E+02 
 +3.308234E+02 -2.474022E+00 -1.100638E+00 -2.474022E+00 +3.697303E+02 -8.110772E-02 -1.100638E+00 -8.110772E-02 +9.781277E+02 
 +3.793702E+02 -1.206105E+01 -2.247031E+00 -1.206105E+01 +3.966586E+02 -4.242900E+00 -2.247031E+00 -4.242900E+00 +9.904524E+02 
 +3.563383E+02 -3.539486E+00 -1.834484E+01 -3.539486E+00 +3.713850E+02 -1.185279E+00 -1.834484E+01 -1.185279E+00 +9.856753E+02 
 +3.603354E+02 -2.888254E+00 -1.689485E+01 -2.888254E+00 +3.797393E+02 +3.587730E+00 -1.689485E+01 +3.587730E+00 +9.942728E+02 
 +3.678901E+02 +2.744682E+01 -1.538275E+01 +2.744682E+01 +3.735267E+02 +1.458123E+00 -1.538275E+01 +1.458123E+00 +9.794601E+02 
 +3.689388E+02 -4.291213E+00 -3.562596E+00 -4.291213E+00 +3.490930E+02 -3.358590E+00 -3.562596E+00 -3.358590E+00 +9.666098E+02 
 +3.663528E+02 +3.337588E+00 -5.694489E+00 +3.337588E+00 +3.363086E+02 -1.591261E+01 -5.694489E+00 -1.591261E+01 +9.663536E+02 
 +3.559716E+02 +8.373358E+00 -3.794912E+00 +8.373358E+00 +3.149313E+02 -1.729172E+01 -3.794912E+00 -1.729172E+01 +9.632996E+02 
 +3.533722E+02 +1.606742E+01 +8.670875E-01 +1.606742E+01 +2.931130E+02 -1.628543E+01 +8.670875E-01 -1.628543E+01 +9.574244E+02 
 +3.718133E+02 +1.378597E+01 -5.323518E+00 +1.378597E+01 +3.018443E+02 -7.252162E+00 -5.323518E+00 -7.252162E+00 +9.691623E+02 
 +3.655656E+02 -5.955252E-01 -5.117753E-01 -5.955252E-01 +3.129208E+02 +3.646705E+00 -5.117753E-01 +3.646705E+00 +9.737598E+02 
 +3.514324E+02 +6.470611E+00 +1.000157E+01 +6.470611E+00 +3.222765E+02 +5.517371E+00 +1.000157E+01 +5.517371E+00 +9.653173E+02 
 +3.561505E+02 +9.861967E+00 +1.219844E+01 +9.861967E+00 +3.373984E+02 -1.376175E+00 +1.219844E+01 -1.376175E+00 +9.679567E+02 
 +3.717086E+02 +1.402499E+01 +7.534649E+00 +1.402499E+01 +3.687707E+02 -3.680520E+00 +7.534649E+00 -3.680520E+00 +9.747931E+02 
 +3.828359E+02 +1.059405E+01 +1.253421E-01 +1.059405E+01 +3.875752E+02 -2.637455E+00 +1.253421E-01 -2.637455E+00 +9.725985E+02 
 +3.786931E+02 +1.920206E+00 +3.199599E+00 +1.920206E+00 +3.774358E+02 -1.036092E+00 +3.199599E+00 -1.036092E+00 +9.612966E+02 
 +3.325960E+02 +9.262194E+00 -8.314131E-01 +9.262194E+00 +3.370130E+02 -4.418656E+00 -8.314131E-01 -4.418656E+00 +9.416278E+02 
 +3.293508E+02 -1.150007E+01 -2.615597E+00 -1.150007E+01 +3.293480E+02 -3.251892E+00 -2.615597E+00 -3.251892E+00 +9.619319E+02 
 +3.213602E+02 +1.512300E+01 +6.230941E+00 +1.512300E+01 +3.481723E+02 +9.522121E-01 +6.230941E+00 +9.522121E-01 +9.693315E+02 
 +3.802554E+02 +1.364959E+01 -3.269581E+00 +1.364959E+01 +3.791900E+02 +3.399287E+00 -3.269581E+00 +3.399287E+00 +9.834580E+02 
 +3.552286E+02 +1.383016E+01 -9.281689E-01 +1.383016E+01 +3.564212E+02 +1.294298E+01 -9.281689E-01 +1.294298E+01 +9.746311E+02 
 +3.321992E+02 +8.179707E+00 +2.783725E+00 +8.179707E+00 +3.356357E+02 +1.287932E+01 +2.783725E+00 +1.287932E+01 +9.775963E+02 
 +3.653310E+02 -3.265033E+00 +3.000778E+00 -3.265033E+00 +3.444525E+02 +3.317710E+00 +3.000778E+00 +3.317710E+00 +9.958956E+02 
 +3.568400E+02 -1.093278E-01 -9.430207E+00 -1.093278E-01 +3.472503E+02 -3.253613E+00 -9.430207E+00 -3.253613E+00 +9.810407E+02 
 +3.565703E+02 +4.290259E+00 -1.001955E+01 +4.290259E+00 +3.607211E+02 -1.560393E+00 -1.001955E+01 -1.560393E+00 +9.766753E+02 
 +3.475197E+02 +2.809409E+01 -7.204140E+00 +2.809409E+01 +3.554767E+02 +5.205871E+00 -7.204140E+00 +5.205871E+00 +9.682730E+02 
 +3.902583E+02 -5.400296E+00 -8.937038E-01 -5.400296E+00 +3.593306E+02 -7.648213E+00 -8.937038E-01 -7.648213E+00 +9.785390E+02 
 +3.787645E+02 +9.261430E+00 +3.752211E+00 +9.261430E+00 +3.468079E+02 -1.590473E+01 +3.752211E+00 -1.590473E+01 +9.719478E+02 
 +3.641063E+02 +1.111607E+01 +3.039529E-01 +1.111607E+01 +3.330517E+02 -1.675449E+01 +3.039529E-01 -1.675449E+01 +9.666311E+02 
 +3.590545E+02 +1.164314E+01 -1.299038E+00 +1.164314E+01 +3.184517E+02 -2.208959E+01 -1.299038E+00 -2.208959E+01 +9.648494E+02 
 +3.699510E+02 +8.416591E+00 -5.872877E+00 +8.416591E+00 +3.075087E+02 -1.569193E+01 -5.872877E+00 -1.569193E+01 +9.723244E+02 
 +3.879021E+02 +3.336745E+00 -1.726487E+00 +3.336745E+00 +3.439289E+02 -5.187053E+00 -1.726487E+00 -5.187053E+00 +9.771455E+02 
 +3.804217E+02 +1.389274E+00 +7.912063E+00 +1.389274E+00 +3.723834E+02 +3.469409E+00 +7.912063E+00 +3.469409E+00 +9.520223E+02 
 +3.818258E+02 +4.218109E+00 +1.188707E+01 +4.218109E+00 +3.740736E+02 +1.494608E+00 +1.188707E+01 +1.494608E+00 +9.632393E+02 
 +3.701973E+02 +1.831864E+01 +3.571675E+00 +1.831864E+01 +3.565326E+02 -6.535400E+00 +3.571675E+00 -6.535400E+00 +9.842487E+02 
 +3.942826E+02 +1.478015E+01 -1.372358E+00 +1.478015E+01 +3.596578E+02 -5.261172E+00 -1.372358E+00 -5.261172E+00 +9.861005E+02 
 +3.657529E+02 +3.952868E+00 -2.299248E+00 +3.952868E+00 +3.596623E+02 -1.059236E+00 -2.299248E+00 -1.059236E+00 +9.640050E+02 
 +3.186485E+02 -1.255376E+01 -7.132336E+00 -1.255376E+01 +3.629006E+02 -2.890585E+00 -7.132336E+00 -2.890585E+00 +9.512172E+02 
 +3.305954E+02 -2.561027E+01 -6.033803E+00 -2.561027E+01 +3.908607E+02 +2.161446E+00 -6.033803E+00 +2.161446E+00 +9.697144E+02 
 +3.003641E+02 +9.407753E+00 -3.971386E+00 +9.407753E+00 +3.469245E+02 -4.507986E+00 -3.971386E+00 -4.507986E+00 +9.610843E+02 
 +3.419890E+02 +1.123835E+01 -8.124897E+00 +1.123835E+01 +3.418012E+02 -7.505709E+00 -8.124897E+00 -7.505709E+00 +9.715398E+02 
 +3.600231E+02 +9.820037E+00 -6.827714E+00 +9.820037E+00 +3.458264E+02 +6.344559E+00 -6.827714E+00 +6.344559E+00 +9.685437E+02 
 +3.583632E+02 +2.160704E+00 +2.856642E+00 +2.160704E+00 +3.382001E+02 +7.443124E+00 +2.856642E+00 +7.443124E+00 +9.748627E+02 
 +3.603721E+02 -1.507305E+00 +4.506523E+00 -1.507305E+00 +3.581786E+02 +2.211415E+00 +4.506523E+00 +2.211415E+00 +9.925162E+02 
 +3.723184E+02 -7.138094E+00 -4.021040E-01 -7.138094E+00 +3.696442E+02 -5.829994E+00 -4.021040E-01 -5.829994E+00 +9.858375E+02 
 +3.604790E+02 -2.135303E-01 -7.721040E-01 -2.135303E-01 +3.593084E+02 -8.615241E+00 -7.721040E-01 -8.615241E+00 +9.683815E+02 
 +3.515868E+02 +1.051628E+01 -7.064290E-01 +1.051628E+01 +3.493857E+02 -1.217510E+00 -7.064290E-01 -1.217510E+00 +9.627743E+02 
 +4.109753E+02 +2.738556E+00 -1.048407E+00 +2.738556E+00 +3.804014E+02 -9.033708E+00 -1.048407E+00 -9.033708E+00 +9.576261E+02 
 +3.963038E+02 +6.654221E+00 +3.775565E+00 +6.654221E+00 +3.824080E+02 -1.851980E+01 +3.775565E+00 -1.851980E+01 +9.550121E+02 
 +3.723637E+02 +5.413524E+00 +4.974430E+00 +5.413524E+00 +3.687679E+02 -2.618640E+01 +4.974430E+00 -2.618640E+01 +9.649241E+02 
 +3.663829E+02 +5.258190E+00 -1.161566E+00 +5.258190E+00 +3.568098E+02 -3.237419E+01 -1.161566E+00 -3.237419E+01 +9.657333E+02 
 +3.623234E+02 +1.665217E+00 -2.337664E+00 +1.665217E+00 +3.412674E+02 -2.866083E+01 -2.337664E+00 -2.866083E+01 +9.586765E+02 
 +3.837155E+02 +1.045194E+01 -4.845266E-01 +1.045194E+01 +3.479130E+02 -1.747512E+01 -4.845266E-01 -1.747512E+01 +9.678374E+02 
 +3.923911E+02 -2.997144E+00 +5.316309E+00 -2.997144E+00 +3.557710E+02 -8.937359E+00 +5.316309E+00 -8.937359E+00 +9.628881E+02 
 +3.998778E+02 -4.220782E-01 +1.073492E+01 -4.220782E-01 +3.666037E+02 -7.600088E+00 +1.073492E+01 -7.600088E+00 +9.785674E+02 
 +4.022853E+02 +1.237402E+01 +4.123325E+00 +1.237402E+01 +3.723989E+02 -1.672778E+01 +4.123325E+00 -1.672778E+01 +1.003850E+03 
 +3.938042E+02 +1.020711E+01 -2.652180E+00 +1.020711E+01 +3.787123E+02 -1.368344E+01 -2.652180E+00 -1.368344E+01 +9.959826E+02 
 +3.271908E+02 -1.180239E+01 -4.738711E+00 -1.180239E+01 +3.697593E+02 -7.218247E+00 -4.738711E+00 -7.218247E+00 +9.617290E+02 
 +3.196000E+02 -2.259580E+01 -2.291246E+00 -2.259580E+01 +3.808063E+02 -4.354418E+00 -2.291246E+00 -4.354418E+00 +9.572864E+02 
 +3.278304E+02 -2.379731E+01 -1.927888E+00 -2.379731E+01 +3.898682E+02 +3.259465E+00 -1.927888E+00 +3.259465E+00 +9.576960E+02 
 +3.240109E+02 -6.587261E+00 -5.184060E+00 -6.587261E+00 +3.761751E+02 -5.950830E+00 -5.184060E+00 -5.950830E+00 +9.588796E+02 
 +3.202193E+02 +1.854554E+01 -8.246123E+00 +1.854554E+01 +3.530795E+02 -1.156258E+01 -8.246123E+00 -1.156258E+01 +9.574294E+02 
 +3.618214E+02 +4.456961E+00 -7.745442E+00 +4.456961E+00 +3.489680E+02 -3.551777E+00 -7.745442E+00 -3.551777E+00 +9.699976E+02 
 +3.646538E+02 +1.161198E-01 -7.219602E-01 +1.161198E-01 +3.444514E+02 -1.943532E+00 -7.219602E-01 -1.943532E+00 +9.697777E+02 
 +3.738982E+02 +5.564219E-01 -7.234586E-01 +5.564219E-01 +3.690307E+02 -2.863584E+00 -7.234586E-01 -2.863584E+00 +9.790414E+02 
 +3.902332E+02 -2.157725E+00 +1.648782E+00 -2.157725E+00 +3.814714E+02 -8.886941E+00 +1.648782E+00 -8.886941E+00 +9.889155E+02 
 +3.730341E+02 +1.616382E+01 +1.258709E+01 +1.616382E+01 +3.791904E+02 -6.447896E+00 +1.258709E+01 -6.447896E+00 +9.823000E+02 
 +3.860278E+02 +1.691899E+01 +5.358054E+00 +1.691899E+01 +3.769364E+02 -2.309725E+00 +5.358054E+00 -2.309725E+00 +9.703132E+02 
 +4.029811E+02 +2.447450E+00 -1.718576E+00 +2.447450E+00 +3.855308E+02 -1.328571E+01 -1.718576E+00 -1.328571E+01 +9.256351E+02 
 +4.092526E+02 +7.084952E+00 -8.303354E-01 +7.084952E+00 +3.999260E+02 -2.666389E+01 -8.303354E-01 -2.666389E+01 +9.364524E+02 
 +3.626898E+02 +1.448511E+00 +1.021416E+01 +1.448511E+00 +3.761216E+02 -3.355130E+01 +1.021416E+01 -3.355130E+01 +9.490779E+02 
 +3.636289E+02 +3.814755E+00 +3.500307E+00 +3.814755E+00 +3.669219E+02 -3.291442E+01 +3.500307E+00 -3.291442E+01 +9.557436E+02 
 +3.614835E+02 +6.101719E+00 +5.026976E+00 +6.101719E+00 +3.722258E+02 -2.889943E+01 +5.026976E+00 -2.889943E+01 +9.552589E+02 
 +3.922704E+02 +1.807888E+01 +5.998800E-01 +1.807888E+01 +4.088119E+02 -1.927328E+01 +5.998800E-01 -1.927328E+01 +9.793013E+02 
 +4.249931E+02 -1.946962E+01 -5.757309E+00 -1.946962E+01 +4.116652E+02 -1.048160E+01 -5.757309E+00 -1.048160E+01 +1.001611E+03 
 +4.257644E+02 -2.090843E+01 +2.266483E+00 -2.090843E+01 +3.821375E+02 -9.430526E+00 +2.266483E+00 -9.430526E+00 +1.008765E+03 
 +4.356133E+02 -7.414181E+00 +9.731181E+00 -7.414181E+00 +4.032614E+02 -1.322634E+01 +9.731181E+00 -1.322634E+01 +1.014612E+03 
 +3.575458E+02 -8.121229E+00 +2.837486E+00 -8.121229E+00 +3.906534E+02 -1.731456E+01 +2.837486E+00 -1.731456E+01 +9.788743E+02 
 +3.297169E+02 -1.506503E+01 -1.209030E+00 -1.506503E+01 +3.836413E+02 -1.016131E+01 -1.209030E+00 -1.016131E+01 +9.647811E+02 
 +3.380040E+02 -2.024435E+01 +1.954344E+00 -2.024435E+01 +3.869189E+02 -2.863325E+00 +1.954344E+00 -2.863325E+00 +9.615535E+02 
 +3.394137E+02 -2.108747E+01 -5.883615E-01 -2.108747E+01 +3.887918E+02 +4.561097E+00 -5.883615E-01 +4.561097E+00 +9.533729E+02 
 +3.375289E+02 -9.929483E+00 -3.436660E+00 -9.929483E+00 +3.864589E+02 -2.392296E+00 -3.436660E+00 -2.392296E+00 +9.500008E+02 
 +3.367970E+02 +2.120394E+01 -2.482503E+00 +2.120394E+01 +3.754779E+02 -1.131123E+01 -2.482503E+00 -1.131123E+01 +9.538942E+02 
 +3.534596E+02 +8.769384E+00 -3.216769E+00 +8.769384E+00 +3.819035E+02 -8.305669E+00 -3.216769E+00 -8.305669E+00 +9.743702E+02 
 +3.682506E+02 +1.150939E+01 -2.232413E+00 +1.150939E+01 +3.809590E+02 -1.081016E+01 -2.232413E+00 -1.081016E+01 +9.708226E+02 
 +4.068514E+02 +3.986688E+00 -4.209250E+00 +3.986688E+00 +3.798056E+02 -1.225856E+01 -4.209250E+00 -1.225856E+01 +9.626543E+02 
 +4.038738E+02 +4.781263E+00 +8.309694E-01 +4.781263E+00 +3.808350E+02 -8.839593E+00 +8.309694E-01 -8.839593E+00 +9.678874E+02 
 +3.690213E+02 +2.131290E+01 +1.329868E+01 +2.131290E+01 +3.784083E+02 -4.037278E+00 +1.329868E+01 -4.037278E+00 +9.637406E+02 
 +4.025373E+02 +6.203730E+00 +2.632763E+00 +6.203730E+00 +3.920271E+02 -3.640481E+00 +2.632763E+00 -3.640481E+00 +9.570271E+02 
 +4.068764E+02 +5.218398E+00 -1.907294E+00 +5.218398E+00 +3.901800E+02 -1.099297E+01 -1.907294E+00 -1.099297E+01 +9.335479E+02 
 +4.094187E+02 +4.099559E+00 -8.832503E-01 +4.099559E+00 +3.953759E+02 -1.519187E+01 -8.832503E-01 -1.519187E+01 +9.433303E+02 
 +3.673669E+02 -3.012420E+00 +7.469021E+00 -3.012420E+00 +3.788435E+02 -2.667834E+01 +7.469021E+00 -2.667834E+01 +9.391910E+02 
 +3.551856E+02 +3.075185E+00 +5.412285E+00 +3.075185E+00 +3.813796E+02 -3.020850E+01 +5.412285E+00 -3.020850E+01 +9.398308E+02 
 +3.631360E+02 +6.108038E+00 +6.689442E+00 +6.108038E+00 +3.959856E+02 -2.263502E+01 +6.689442E+00 -2.263502E+01 +9.558621E+02 
 +3.649768E+02 +1.766115E+01 +1.476848E+00 +1.766115E+01 +3.985965E+02 -1.638646E+01 +1.476848E+00 -1.638646E+01 +9.634925E+02 
 +3.987873E+02 -2.579436E+01 -1.162841E+01 -2.579436E+01 +3.990567E+02 -8.993605E+00 -1.162841E+01 -8.993605E+00 +9.869539E+02 
 +4.336038E+02 -1.510388E+01 -3.920011E+00 -1.510388E+01 +4.089093E+02 +6.335111E-01 -3.920011E+00 +6.335111E-01 +1.011679E+03 
 +4.053710E+02 -6.379308E+00 +5.483786E+00 -6.379308E+00 +3.880786E+02 -1.130653E+00 +5.483786E+00 -1.130653E+00 +9.870107E+02 
 +3.556332E+02 +3.773065E+00 +6.491091E-01 +3.773065E+00 +3.747134E+02 -7.640380E+00 +6.491091E-01 -7.640380E+00 +9.639326E+02 
 +3.636947E+02 -8.603467E+00 -2.348508E+00 -8.603467E+00 +4.009214E+02 -4.826625E+00 -2.348508E+00 -4.826625E+00 +9.773066E+02 
 +3.478915E+02 -1.436791E+01 -1.100295E+00 -1.436791E+01 +3.929015E+02 +1.096558E+00 -1.100295E+00 +1.096558E+00 +9.662854E+02 
 +3.459549E+02 -2.172254E+01 -2.537892E+00 -2.172254E+01 +3.880094E+02 +6.969684E+00 -2.537892E+00 +6.969684E+00 +9.534049E+02 
 +3.574849E+02 -1.118750E+01 -3.050780E+00 -1.118750E+01 +3.933141E+02 -1.558181E+00 -3.050780E+00 -1.558181E+00 +9.525397E+02 
 +3.607210E+02 +1.373981E+01 -9.183793E-01 +1.373981E+01 +3.928766E+02 -1.140583E+01 -9.183793E-01 -1.140583E+01 +9.609127E+02 
 +3.347451E+02 +1.062709E+01 -9.168143E-01 +1.062709E+01 +3.653361E+02 -1.229514E+01 -9.168143E-01 -1.229514E+01 +9.623512E+02 
 +3.390335E+02 +1.830320E+01 +5.471826E-01 +1.830320E+01 +3.557073E+02 -1.439035E+01 +5.471826E-01 -1.439035E+01 +9.436468E+02 
 +4.029369E+02 +8.561217E+00 -5.699902E+00 +8.561217E+00 +3.881230E+02 -1.146151E+01 -5.699902E+00 -1.146151E+01 +9.265994E+02 
 +4.227680E+02 +2.949131E+00 -6.636141E+00 +2.949131E+00 +4.214539E+02 -9.022463E+00 -6.636141E+00 -9.022463E+00 +9.491228E+02 
 +3.992348E+02 +1.130533E+01 +1.228036E+00 +1.130533E+01 +4.073870E+02 -7.104883E+00 +1.228036E+00 -7.104883E+00 +9.632774E+02 
 +4.009402E+02 +5.320845E+00 -2.183212E+00 +5.320845E+00 +3.879542E+02 -8.288481E+00 -2.183212E+00 -8.288481E+00 +9.467901E+02 
 +4.076466E+02 +5.023642E+00 -3.475895E+00 +5.023642E+00 +3.881658E+02 -1.000563E+01 -3.475895E+00 -1.000563E+01 +9.381423E+02 
 +4.046351E+02 +8.998073E+00 -2.070268E+00 +8.998073E+00 +3.933997E+02 -1.194411E+01 -2.070268E+00 -1.194411E+01 +9.381376E+02 
 +3.932380E+02 +5.896411E+00 -1.699035E+00 +5.896411E+00 +4.071821E+02 -1.704250E+01 -1.699035E+00 -1.704250E+01 +9.360889E+02 
 +3.538215E+02 +8.924852E+00 +3.882805E+00 +8.924852E+00 +4.040974E+02 -2.248706E+01 +3.882805E+00 -2.248706E+01 +9.329409E+02 
 +3.519867E+02 +1.088319E+01 +3.960694E+00 +1.088319E+01 +4.018407E+02 -1.618391E+01 +3.960694E+00 -1.618391E+01 +9.517590E+02 
 +3.542930E+02 +2.156521E+01 -1.389120E+00 +2.156521E+01 +3.863483E+02 -8.959112E+00 -1.389120E+00 -8.959112E+00 +9.533455E+02 
 +3.891626E+02 -2.551584E+01 -1.246762E+01 -2.551584E+01 +3.954892E+02 -2.364801E+00 -1.246762E+01 -2.364801E+00 +9.821662E+02 
 +3.933889E+02 -1.049736E+01 -2.512342E+00 -1.049736E+01 +3.884891E+02 +5.925105E-01 -2.512342E+00 +5.925105E-01 +9.946503E+02 
 +3.861375E+02 +3.203040E+00 -4.195479E+00 +3.203040E+00 +3.773351E+02 +1.970532E+00 -4.195479E+00 +1.970532E+00 +9.687691E+02 
 +3.789691E+02 +2.451934E+01 -1.268753E+01 +2.451934E+01 +3.757182E+02 +7.870940E+00 -1.268753E+01 +7.870940E+00 +9.603365E+02 
 +3.553952E+02 -3.636958E-01 -1.409450E+01 -3.636958E-01 +3.771684E+02 +7.586721E+00 -1.409450E+01 +7.586721E+00 +9.696389E+02 
 +3.568441E+02 -7.879134E+00 -7.394455E+00 -7.879134E+00 +3.996447E+02 +8.442187E+00 -7.394455E+00 +8.442187E+00 +9.758856E+02 
 +3.641810E+02 -2.032860E+01 -3.838711E+00 -2.032860E+01 +4.060352E+02 +1.128446E+01 -3.838711E+00 +1.128446E+01 +9.627596E+02 
 +3.745743E+02 -3.006555E+00 -1.677952E+00 -3.006555E+00 +4.099671E+02 +7.370881E+00 -1.677952E+00 +7.370881E+00 +9.583436E+02 
 +3.646249E+02 +3.601741E+00 -6.184990E-01 +3.601741E+00 +3.966000E+02 -5.221977E-01 -6.184990E-01 -5.221977E-01 +9.604696E+02 
 +3.431901E+02 +1.254463E+00 -4.005140E+00 +1.254463E+00 +3.708975E+02 -3.835870E+00 -4.005140E+00 -3.835870E+00 +9.628301E+02 
 +3.315809E+02 +8.043649E+00 -1.366494E-01 +8.043649E+00 +3.540227E+02 -5.497152E+00 -1.366494E-01 -5.497152E+00 +9.431853E+02 
 +3.897899E+02 +1.096257E+01 -1.385170E+01 +1.096257E+01 +3.824610E+02 -1.180637E+01 -1.385170E+01 -1.180637E+01 +9.205517E+02 
 +3.967464E+02 +7.593710E+00 -2.068522E+01 +7.593710E+00 +3.795253E+02 -1.146793E+01 -2.068522E+01 -1.146793E+01 +9.296699E+02 
 +3.974599E+02 +6.804058E+00 -9.743086E+00 +6.804058E+00 +3.651999E+02 -7.572359E+00 -9.743086E+00 -7.572359E+00 +9.605782E+02 
 +3.994681E+02 +6.915463E+00 -7.949635E+00 +6.915463E+00 +3.733263E+02 -8.138238E+00 -7.949635E+00 -8.138238E+00 +9.499392E+02 
 +4.100354E+02 +1.023698E+01 -1.204606E+01 +1.023698E+01 +3.868998E+02 -5.500782E+00 -1.204606E+01 -5.500782E+00 +9.327944E+02 
 +3.808099E+02 +7.015102E+00 -4.421741E+00 +7.015102E+00 +3.850294E+02 -5.513741E+00 -4.421741E+00 -5.513741E+00 +9.254542E+02 
 +3.759843E+02 -5.536178E+00 -1.242220E-01 -5.536178E+00 +3.914562E+02 -3.754717E+00 -1.242220E-01 -3.754717E+00 +9.253040E+02 
 +3.688312E+02 -4.173038E+00 +5.017983E+00 -4.173038E+00 +3.989202E+02 -4.774800E+00 +5.017983E+00 -4.774800E+00 +9.359507E+02 
 +3.644625E+02 +7.316772E+00 +2.327075E+00 +7.316772E+00 +4.045384E+02 -3.517203E+00 +2.327075E+00 -3.517203E+00 +9.523596E+02 
 +3.585031E+02 +2.191909E+01 -6.854549E+00 +2.191909E+01 +3.817259E+02 +8.190646E-01 -6.854549E+00 +8.190646E-01 +9.422577E+02 
 +3.658174E+02 -1.280538E+01 -1.874884E+01 -1.280538E+01 +3.774357E+02 +5.753817E+00 -1.874884E+01 +5.753817E+00 +9.643952E+02 
 +3.781371E+02 +3.121958E+00 -6.548056E+00 +3.121958E+00 +3.934283E+02 +1.793951E+00 -6.548056E+00 +1.793951E+00 +9.924715E+02 
 +3.934082E+02 +2.234841E+01 -9.363791E+00 +2.234841E+01 +3.988397E+02 -5.673785E+00 -9.363791E+00 -5.673785E+00 +9.733084E+02 
 +3.816962E+02 +2.947208E+01 -2.191453E+01 +2.947208E+01 +3.811919E+02 -3.151444E+00 -2.191453E+01 -3.151444E+00 +9.507427E+02 
 +3.603094E+02 +1.735559E+01 -2.205373E+01 +1.735559E+01 +3.669353E+02 -3.513364E+00 -2.205373E+01 -3.513364E+00 +9.605742E+02 
 +3.504472E+02 +1.665660E+01 -1.091341E+01 +1.665660E+01 +3.780104E+02 +1.739175E+00 -1.091341E+01 +1.739175E+00 +9.685936E+02 
 +3.694273E+02 -1.789865E+00 -4.632968E+00 -1.789865E+00 +4.099527E+02 +5.393959E+00 -4.632968E+00 +5.393959E+00 +9.640301E+02 
 +3.635803E+02 +1.463404E+00 +9.521664E-01 +1.463404E+00 +4.090926E+02 +5.225400E+00 +9.521664E-01 +5.225400E+00 +9.549246E+02 
 +3.525488E+02 +3.226542E+00 +1.337243E+00 +3.226542E+00 +3.868486E+02 +1.601693E+00 +1.337243E+00 +1.601693E+00 +9.555046E+02 
 +3.426437E+02 +3.273823E+00 -4.233084E+00 +3.273823E+00 +3.748640E+02 +6.136551E-01 -4.233084E+00 +6.136551E-01 +9.620971E+02 
 +3.276161E+02 +7.574360E+00 -2.439313E+00 +7.574360E+00 +3.546746E+02 -3.480285E+00 -2.439313E+00 -3.480285E+00 +9.487449E+02 
 +3.836046E+02 +1.350812E+01 -1.513575E+01 +1.350812E+01 +3.648074E+02 -1.333885E+01 -1.513575E+01 -1.333885E+01 +9.361497E+02 
 +4.082120E+02 +3.865526E+00 -2.528892E+01 +3.865526E+00 +3.801933E+02 -1.058703E+01 -2.528892E+01 -1.058703E+01 +9.406579E+02 
 +4.165863E+02 +6.868997E+00 -2.058531E+01 +6.868997E+00 +3.969909E+02 -3.822688E+00 -2.058531E+01 -3.822688E+00 +9.574775E+02 
 +4.099480E+02 +1.167725E+01 -1.914207E+01 +1.167725E+01 +3.848319E+02 -4.112810E+00 -1.914207E+01 -4.112810E+00 +9.430879E+02 
 +3.922248E+02 +4.578272E+00 -1.628525E+01 +4.578272E+00 +3.891146E+02 -1.255339E+01 -1.628525E+01 -1.255339E+01 +9.250120E+02 
 +3.460954E+02 -8.508831E+00 -5.303020E-01 -8.508831E+00 +3.707599E+02 -1.458919E+01 -5.303020E-01 -1.458919E+01 +9.275467E+02 
 +3.663097E+02 -1.025636E+01 +4.404511E+00 -1.025636E+01 +3.782802E+02 -6.094749E+00 +4.404511E+00 -6.094749E+00 +9.400049E+02 
 +3.932936E+02 -8.650533E+00 +1.862356E+00 -8.650533E+00 +3.923232E+02 +1.751951E+00 +1.862356E+00 +1.751951E+00 +9.520555E+02 
 +3.887411E+02 -2.746854E+00 -9.803387E-02 -2.746854E+00 +3.910807E+02 +7.398217E+00 -9.803387E-02 +7.398217E+00 +9.562928E+02 
 +3.814364E+02 +3.167571E+00 -6.122098E+00 +3.167571E+00 +3.809418E+02 +3.450482E+00 -6.122098E+00 +3.450482E+00 +9.491795E+02 
 +3.555628E+02 -1.324201E+01 -1.149255E+01 -1.324201E+01 +3.797985E+02 +3.516864E+00 -1.149255E+01 +3.516864E+00 +9.581244E+02 
 +3.702194E+02 -8.444957E+00 -3.535122E+00 -8.444957E+00 +4.112830E+02 +7.170812E-01 -3.535122E+00 +7.170812E-01 +9.879733E+02 
 +3.755408E+02 +2.781359E+00 -4.690166E+00 +2.781359E+00 +3.958317E+02 +2.601029E+00 -4.690166E+00 +2.601029E+00 +9.713986E+02 
 +4.013044E+02 +1.835292E+01 -2.066485E+01 +1.835292E+01 +3.817422E+02 +3.922977E+00 -2.066485E+01 +3.922977E+00 +9.500677E+02 
 +3.765523E+02 +2.027799E+01 -1.925561E+01 +2.027799E+01 +3.769744E+02 +7.080321E-01 -1.925561E+01 +7.080321E-01 +9.570925E+02 
 +3.632033E+02 +1.339130E+01 -8.512659E+00 +1.339130E+01 +3.890115E+02 +2.981538E-01 -8.512659E+00 +2.981538E-01 +9.660072E+02 
 +3.706187E+02 +3.303359E+00 -7.554008E+00 +3.303359E+00 +4.093063E+02 +2.532411E+00 -7.554008E+00 +2.532411E+00 +9.599606E+02 
 +3.489567E+02 -1.926191E+00 +7.616998E-01 -1.926191E+00 +4.012167E+02 +5.033581E+00 +7.616998E-01 +5.033581E+00 +9.527010E+02 
 +3.427130E+02 +2.875548E+00 +1.819708E+00 +2.875548E+00 +3.856806E+02 +6.841957E+00 +1.819708E+00 +6.841957E+00 +9.554134E+02 
 +3.340610E+02 +3.440124E+00 -3.149031E-01 +3.440124E+00 +3.724150E+02 +6.052996E+00 -3.149031E-01 +6.052996E+00 +9.575035E+02 
 +3.266232E+02 +4.937841E+00 -8.516120E-02 +4.937841E+00 +3.506438E+02 +3.903020E+00 -8.516120E-02 +3.903020E+00 +9.487402E+02 
 +3.484344E+02 +8.763199E+00 -3.418135E+00 +8.763199E+00 +3.405373E+02 +8.363760E-01 -3.418135E+00 +8.363760E-01 +9.386588E+02 
 +4.154901E+02 +4.091298E+00 -2.150787E+01 +4.091298E+00 +3.691822E+02 -5.566383E-01 -2.150787E+01 -5.566383E-01 +9.407014E+02 
 +4.025284E+02 +4.703231E+00 -2.801732E+01 +4.703231E+00 +3.640121E+02 +1.482007E+00 -2.801732E+01 +1.482007E+00 +9.161152E+02 
 +4.038156E+02 +8.883078E+00 -3.330772E+01 +8.883078E+00 +3.772291E+02 -2.657526E+00 -3.330772E+01 -2.657526E+00 +9.185512E+02 
 +3.607322E+02 -3.230194E-01 -5.756668E+00 -3.230194E-01 +3.689261E+02 +3.780189E+00 -5.756668E+00 +3.780189E+00 +9.195705E+02 
 +3.505135E+02 -2.011271E+00 +1.043199E+00 -2.011271E+00 +3.669625E+02 +8.163816E+00 +1.043199E+00 +8.163816E+00 +9.346369E+02 
 +3.672555E+02 -1.395108E-01 +2.311037E+00 -1.395108E-01 +3.784402E+02 +4.015921E+00 +2.311037E+00 +4.015921E+00 +9.483311E+02 
 +3.926069E+02 -6.595444E+00 -4.033739E+00 -6.595444E+00 +3.868876E+02 +1.019792E+00 -4.033739E+00 +1.019792E+00 +9.595558E+02 
 +4.117823E+02 -4.479120E+00 +7.115221E-01 -4.479120E+00 +4.003187E+02 +7.333895E-01 +7.115221E-01 +7.333895E-01 +9.727155E+02 
 +3.819512E+02 -1.894802E+01 +1.352117E-01 -1.894802E+01 +3.823911E+02 -4.753562E+00 +1.352117E-01 -4.753562E+00 +9.624930E+02 
 +3.527014E+02 -2.720117E+01 +8.125052E-01 -2.720117E+01 +3.708435E+02 -5.904005E+00 +8.125052E-01 -5.904005E+00 +9.508459E+02 
 +3.583203E+02 -1.564260E+01 +5.863704E+00 -1.564260E+01 +3.926641E+02 -3.750665E+00 +5.863704E+00 -3.750665E+00 +9.647171E+02 
 +3.784232E+02 +2.778721E-01 +4.180455E+00 +2.778721E-01 +4.036570E+02 -1.958113E+00 +4.180455E+00 -1.958113E+00 +9.718492E+02 
 +4.214944E+02 +8.041533E+00 -9.686074E+00 +8.041533E+00 +4.052475E+02 +6.701033E+00 -9.686074E+00 +6.701033E+00 +9.639290E+02 
 +3.951113E+02 +1.632818E+01 -1.325773E+01 +1.632818E+01 +3.914606E+02 +7.523719E+00 -1.325773E+01 +7.523719E+00 +9.609895E+02 
 +3.977025E+02 +1.522732E+01 -1.252260E+01 +1.522732E+01 +4.166768E+02 +1.295647E+00 -1.252260E+01 +1.295647E+00 +9.742604E+02 
 +3.935022E+02 +7.997848E+00 -1.406383E+01 +7.997848E+00 +4.173233E+02 +6.409668E+00 -1.406383E+01 +6.409668E+00 +9.667285E+02 
 +3.328516E+02 -1.623053E+00 -4.169348E+00 -1.623053E+00 +3.871250E+02 +1.043317E+01 -4.169348E+00 +1.043317E+01 +9.467627E+02 
 +3.314681E+02 -8.786133E-01 -1.561066E+00 -8.786133E-01 +3.875340E+02 +1.087922E+01 -1.561066E+00 +1.087922E+01 +9.548577E+02 
 +3.322137E+02 +1.954561E-01 +8.394084E-01 +1.954561E-01 +3.690453E+02 +7.783594E+00 +8.394084E-01 +7.783594E+00 +9.564343E+02 
 +3.320869E+02 +4.099837E+00 +1.320188E+00 +4.099837E+00 +3.563818E+02 +8.624545E+00 +1.320188E+00 +8.624545E+00 +9.550211E+02 
 +3.245140E+02 +9.818981E+00 +3.456613E+00 +9.818981E+00 +3.348058E+02 +7.535557E+00 +3.456613E+00 +7.535557E+00 +9.421182E+02 
 +3.882144E+02 +7.240633E+00 -1.356579E+01 +7.240633E+00 +3.422202E+02 +3.019861E-01 -1.356579E+01 +3.019861E-01 +9.308468E+02 
 +3.962082E+02 +3.424078E+00 -2.333135E+01 +3.424078E+00 +3.476976E+02 -3.321900E+00 -2.333135E+01 -3.321900E+00 +9.055975E+02 
 +3.981305E+02 +5.224251E+00 -2.739495E+01 +5.224251E+00 +3.762139E+02 -1.598785E+00 -2.739495E+01 -1.598785E+00 +9.166491E+02 
 +3.682276E+02 +2.442785E+00 +1.511356E+00 +2.442785E+00 +3.695171E+02 +1.104789E+01 +1.511356E+00 +1.104789E+01 +9.346503E+02 
 +3.693596E+02 -8.824796E-01 +1.778749E+00 -8.824796E-01 +3.762050E+02 +1.029479E+01 +1.778749E+00 +1.029479E+01 +9.419674E+02 
 +3.745406E+02 +1.270608E+00 -1.812209E+00 +1.270608E+00 +3.816803E+02 +6.511808E+00 -1.812209E+00 +6.511808E+00 +9.434245E+02 
 +3.915802E+02 +2.915333E+00 -1.027797E+00 +2.915333E+00 +4.020107E+02 +1.622239E-01 -1.027797E+00 +1.622239E-01 +9.570999E+02 
 +4.003631E+02 -2.154635E+00 +1.269692E+00 -2.154635E+00 +4.070218E+02 -1.839265E+00 +1.269692E+00 -1.839265E+00 +9.682214E+02 
 +3.538094E+02 -2.067348E+01 -1.426370E-01 -2.067348E+01 +3.714846E+02 -5.483128E+00 -1.426370E-01 -5.483128E+00 +9.506272E+02 
 +3.574813E+02 -2.161459E+01 +1.505971E+00 -2.161459E+01 +3.741915E+02 -5.559274E+00 +1.505971E+00 -5.559274E+00 +9.494328E+02 
 +3.675465E+02 -2.122957E+01 +7.778598E-01 -2.122957E+01 +3.869553E+02 -2.695551E+00 +7.778598E-01 -2.695551E+00 +9.542973E+02 
 +3.840739E+02 -1.686940E+01 -1.733395E+00 -1.686940E+01 +4.023902E+02 -4.228537E+00 -1.733395E+00 -4.228537E+00 +9.632842E+02 
 +4.146132E+02 -8.982683E+00 -2.080739E+00 -8.982683E+00 +4.125466E+02 +6.516210E+00 -2.080739E+00 +6.516210E+00 +9.723206E+02 
 +4.256808E+02 +1.513609E+01 -5.730536E+00 +1.513609E+01 +4.150032E+02 +1.007209E+01 -5.730536E+00 +1.007209E+01 +9.790215E+02 
 +4.025142E+02 +1.137548E+00 -5.615663E+00 +1.137548E+00 +4.025072E+02 +5.198603E+00 -5.615663E+00 +5.198603E+00 +9.693805E+02 
 +3.964860E+02 -1.913725E+01 -3.352313E+00 -1.913725E+01 +3.931927E+02 +1.332424E+01 -3.352313E+00 +1.332424E+01 +9.659205E+02 
 +3.603483E+02 -6.752892E+00 -8.561713E-01 -6.752892E+00 +3.887688E+02 +1.872956E+01 -8.561713E-01 +1.872956E+01 +9.617576E+02 
 +3.443654E+02 -1.648382E+00 -3.160379E+00 -1.648382E+00 +3.908412E+02 +1.334683E+01 -3.160379E+00 +1.334683E+01 +9.658119E+02 
 +3.229717E+02 +2.190630E+00 -1.697004E+00 +2.190630E+00 +3.655455E+02 +1.013147E+01 -1.697004E+00 +1.013147E+01 +9.569553E+02 
 +3.238297E+02 +1.646803E+00 -3.407237E+00 +1.646803E+00 +3.493513E+02 +1.171927E+01 -3.407237E+00 +1.171927E+01 +9.541207E+02 
 +3.322835E+02 +6.856145E+00 -1.475351E+00 +6.856145E+00 +3.358122E+02 +9.408845E+00 -1.475351E+00 +9.408845E+00 +9.514613E+02 
 +3.459763E+02 +1.307139E+01 -3.470082E+00 +1.307139E+01 +3.340435E+02 +1.465876E+01 -3.470082E+00 +1.465876E+01 +9.354719E+02 
 +3.850717E+02 +1.069812E+01 -6.925595E+00 +1.069812E+01 +3.497178E+02 +2.523234E+01 -6.925595E+00 +2.523234E+01 +9.235634E+02 
 +3.825721E+02 +1.288065E+01 -7.437744E+00 +1.288065E+01 +3.589620E+02 +2.047626E+01 -7.437744E+00 +2.047626E+01 +9.226946E+02 
 +3.845898E+02 +9.663742E+00 +3.203437E+00 +9.663742E+00 +3.761394E+02 +1.222799E+01 +3.203437E+00 +1.222799E+01 +9.473582E+02 
 +3.867967E+02 +2.403014E+00 -4.001973E-01 +2.403014E+00 +3.841559E+02 +1.085585E+01 -4.001973E-01 +1.085585E+01 +9.537215E+02 
 +3.767232E+02 +7.283607E+00 -5.461787E+00 +7.283607E+00 +3.804770E+02 +7.528480E+00 -5.461787E+00 +7.528480E+00 +9.463972E+02 
 +3.872720E+02 +2.557104E+00 -2.087753E+00 +2.557104E+00 +4.060148E+02 -5.615167E+00 -2.087753E+00 -5.615167E+00 +9.553258E+02 
 +3.604661E+02 -1.433002E+01 -6.715993E+00 -1.433002E+01 +3.866690E+02 -1.166889E+01 -6.715993E+00 -1.166889E+01 +9.498298E+02 
 +3.474367E+02 -2.060544E+01 -7.987133E+00 -2.060544E+01 +3.684627E+02 -2.888252E+00 -7.987133E+00 -2.888252E+00 +9.464312E+02 
 +3.596588E+02 -1.785805E+01 -4.048097E+00 -1.785805E+01 +3.759676E+02 -3.967819E+00 -4.048097E+00 -3.967819E+00 +9.527718E+02 
 +3.679896E+02 -9.424969E+00 -5.135289E+00 -9.424969E+00 +3.819800E+02 -5.045542E+00 -5.135289E+00 -5.045542E+00 +9.562759E+02 
 +3.778405E+02 -7.137207E+00 -4.313542E+00 -7.137207E+00 +3.918056E+02 -5.003820E+00 -4.313542E+00 -5.003820E+00 +9.585240E+02 
 +3.976668E+02 -9.986736E+00 +1.696129E+00 -9.986736E+00 +4.125206E+02 -5.904755E-01 +1.696129E+00 -5.904755E-01 +9.738011E+02 
 +4.044571E+02 -6.909708E+00 +1.341210E+00 -6.909708E+00 +4.123190E+02 +9.415496E+00 +1.341210E+00 +9.415496E+00 +9.814732E+02 
 +3.982595E+02 -2.853098E+01 +3.831043E+00 -2.853098E+01 +3.785766E+02 +1.196048E+01 +3.831043E+00 +1.196048E+01 +9.724604E+02 
 +3.923076E+02 -3.762477E+01 +5.454076E+00 -3.762477E+01 +3.645034E+02 +1.333955E+01 +5.454076E+00 +1.333955E+01 +9.719292E+02 
 +3.798357E+02 -3.296053E+01 +3.918151E+00 -3.296053E+01 +3.540241E+02 +1.544293E+01 +3.918151E+00 +1.544293E+01 +9.719551E+02 
 +3.671181E+02 -3.351336E+01 +2.606414E+00 -3.351336E+01 +3.466945E+02 +1.068521E+01 +2.606414E+00 +1.068521E+01 +9.723092E+02 
 +3.421373E+02 -9.252349E+00 +1.802357E+00 -9.252349E+00 +3.545665E+02 +1.412614E+01 +1.802357E+00 +1.412614E+01 +9.727923E+02 
 +3.329979E+02 -6.539377E-01 -4.336484E+00 -6.539377E-01 +3.485143E+02 +1.610470E+01 -4.336484E+00 +1.610470E+01 +9.711040E+02 
 +3.087229E+02 +3.350992E+00 -5.798790E+00 +3.350992E+00 +3.165566E+02 +9.226306E+00 -5.798790E+00 +9.226306E+00 +9.568450E+02 
 +3.241602E+02 +1.129694E+01 -1.119026E+00 +1.129694E+01 +3.300167E+02 +2.054113E+01 -1.119026E+00 +2.054113E+01 +9.568262E+02 
 +3.823262E+02 +1.407610E+01 +2.871355E+00 +1.407610E+01 +3.770430E+02 +3.354216E+01 +2.871355E+00 +3.354216E+01 +9.606289E+02 
 +3.823707E+02 +1.589153E+01 +3.820627E+00 +1.589153E+01 +3.702140E+02 +2.330659E+01 +3.820627E+00 +2.330659E+01 +9.421309E+02 
 +3.751255E+02 +9.123358E+00 +7.837976E+00 +9.123358E+00 +3.611047E+02 +8.294437E+00 +7.837976E+00 +8.294437E+00 +9.522214E+02 
 +3.747435E+02 -9.375124E+00 +3.357855E+00 -9.375124E+00 +3.538426E+02 -2.306558E+00 +3.357855E+00 -2.306558E+00 +9.513029E+02 
 +3.766447E+02 +4.997063E+00 +1.746839E+00 +4.997063E+00 +3.787156E+02 +5.459210E+00 +1.746839E+00 +5.459210E+00 +9.489020E+02 
 +3.853986E+02 +3.431157E+00 -4.223516E+00 +3.431157E+00 +4.031185E+02 -1.956998E+00 -4.223516E+00 -1.956998E+00 +9.552534E+02 
 +3.581010E+02 -1.544029E+01 -1.143122E+01 -1.544029E+01 +3.843463E+02 -1.080428E+01 -1.143122E+01 -1.080428E+01 +9.553617E+02 
 +3.571521E+02 -6.976938E+00 -8.491061E+00 -6.976938E+00 +3.736543E+02 -6.609761E+00 -8.491061E+00 -6.609761E+00 +9.549486E+02 
 +3.616967E+02 -5.005918E+00 -3.471791E+00 -5.005918E+00 +3.771357E+02 -9.716774E+00 -3.471791E+00 -9.716774E+00 +9.558677E+02 
 +3.678481E+02 -2.582028E+00 -4.557897E-03 -2.582028E+00 +3.848025E+02 -1.125627E+01 -4.557897E-03 -1.125627E+01 +9.631046E+02 
 +3.671701E+02 -4.777321E+00 +4.988884E+00 -4.777321E+00 +3.896324E+02 -5.815512E+00 +4.988884E+00 -5.815512E+00 +9.627691E+02 
 +3.653372E+02 -2.258115E+00 +1.038567E+01 -2.258115E+00 +3.963937E+02 -1.137714E+00 +1.038567E+01 -1.137714E+00 +9.662151E+02 
 +3.599531E+02 +3.414933E+00 +7.915976E+00 +3.414933E+00 +3.856605E+02 +7.889917E+00 +7.915976E+00 +7.889917E+00 +9.687466E+02 
 +4.141982E+02 -2.045925E+01 +3.271574E+00 -2.045925E+01 +3.905565E+02 +1.270722E+01 +3.271574E+00 +1.270722E+01 +9.925138E+02 
 +4.001469E+02 -2.249469E+01 +8.609337E-01 -2.249469E+01 +3.659917E+02 +1.132156E+01 +8.609337E-01 +1.132156E+01 +9.882639E+02 
 +3.903472E+02 -2.540515E+01 +1.118248E-01 -2.540515E+01 +3.552551E+02 +1.235572E+01 +1.118248E-01 +1.235572E+01 +9.839132E+02 
 +3.932622E+02 -3.127812E+01 +2.980526E+00 -3.127812E+01 +3.540607E+02 +1.129404E+01 +2.980526E+00 +1.129404E+01 +9.883480E+02 
 +3.674705E+02 -3.328038E+01 +2.622131E+00 -3.328038E+01 +3.240807E+02 +1.278272E+01 +2.622131E+00 +1.278272E+01 +9.840056E+02 
 +3.211180E+02 -3.176259E+01 -3.013134E+00 -3.176259E+01 +3.008871E+02 +7.531253E+00 -3.013134E+00 +7.531253E+00 +9.688192E+02 
 +2.902782E+02 -2.386852E+01 -5.124656E+00 -2.386852E+01 +2.998813E+02 -2.767550E+00 -5.124656E+00 -2.767550E+00 +9.544256E+02 
 +3.307004E+02 +1.065404E+01 +5.098472E-01 +1.065404E+01 +3.225055E+02 +1.085587E+01 +5.098472E-01 +1.085587E+01 +9.663584E+02 
 +3.610133E+02 +2.215596E+01 +5.962232E+00 +2.215596E+01 +3.543285E+02 +2.464846E+01 +5.962232E+00 +2.464846E+01 +9.716211E+02 
 +3.797849E+02 +1.737820E+01 +9.407433E+00 +1.737820E+01 +3.776139E+02 +2.199980E+01 +9.407433E+00 +2.199980E+01 +9.646397E+02 
 +3.616490E+02 +1.567910E+01 +1.184907E+01 +1.567910E+01 +3.605580E+02 +1.305448E+01 +1.184907E+01 +1.305448E+01 +9.564721E+02 
 +3.766613E+02 +1.072058E+01 +9.259756E+00 +1.072058E+01 +3.791582E+02 +8.839536E+00 +9.259756E+00 +8.839536E+00 +9.522776E+02 
 +3.918369E+02 +2.101404E+01 +7.842131E+00 +2.101404E+01 +3.929720E+02 +1.100433E+01 +7.842131E+00 +1.100433E+01 +9.533766E+02 
 +3.968497E+02 +1.459983E+01 -4.594616E+00 +1.459983E+01 +3.927714E+02 -3.008472E+00 -4.594616E+00 -3.008472E+00 +9.608974E+02 
 +3.516257E+02 -9.759321E+00 -6.488607E+00 -9.759321E+00 +3.684369E+02 -1.771864E+01 -6.488607E+00 -1.771864E+01 +9.528308E+02 
 +3.516267E+02 -7.850738E+00 -6.275435E-02 -7.850738E+00 +3.685628E+02 -1.488094E+01 -6.275435E-02 -1.488094E+01 +9.539424E+02 
 +3.530000E+02 -7.945426E+00 +2.930753E+00 -7.945426E+00 +3.710627E+02 -1.540011E+01 +2.930753E+00 -1.540011E+01 +9.572534E+02 
 +3.520215E+02 -4.724897E+00 +7.047433E+00 -4.724897E+00 +3.742954E+02 -1.524145E+01 +7.047433E+00 -1.524145E+01 +9.643057E+02 
 +3.527505E+02 -2.241302E+00 +1.372883E+01 -2.241302E+00 +3.797366E+02 -8.887266E+00 +1.372883E+01 -8.887266E+00 +9.697441E+02 
 +3.473479E+02 -1.668940E+00 +1.633375E+01 -1.668940E+00 +3.835231E+02 +5.331359E-01 +1.633375E+01 +5.331359E-01 +9.697551E+02 
 +3.586842E+02 -5.720904E+00 +1.715470E+01 -5.720904E+00 +3.772541E+02 +1.094275E+01 +1.715470E+01 +1.094275E+01 +9.722407E+02 
 +4.034938E+02 -2.327318E+01 +1.245935E+01 -2.327318E+01 +3.781538E+02 +1.528804E+01 +1.245935E+01 +1.528804E+01 +9.927111E+02 
 +4.056171E+02 -1.737692E+01 +4.464798E+00 -1.737692E+01 +3.666758E+02 +1.404797E+01 +4.464798E+00 +1.404797E+01 +9.963836E+02 
 +4.008863E+02 -1.857336E+01 +1.207525E+00 -1.857336E+01 +3.619662E+02 +1.206154E+01 +1.207525E+00 +1.206154E+01 +9.953535E+02 
 +3.863023E+02 -2.202061E+01 -1.809925E-01 -2.202061E+01 +3.498634E+02 +1.258699E+01 -1.809925E-01 +1.258699E+01 +9.912258E+02 
 +3.761773E+02 -2.685325E+01 -8.185167E-01 -2.685325E+01 +3.426911E+02 +1.246562E+01 -8.185167E-01 +1.246562E+01 +9.903859E+02 
 +3.440451E+02 -1.600003E+01 -2.991658E+00 -1.600003E+01 +3.406890E+02 +4.950211E+00 -2.991658E+00 +4.950211E+00 +9.804460E+02 
 +3.301549E+02 -2.382325E+01 -1.513955E+00 -2.382325E+01 +3.334584E+02 -2.608436E+00 -1.513955E+00 -2.608436E+00 +9.657672E+02 
 +3.570017E+02 +1.111878E+01 +5.733977E+00 +1.111878E+01 +3.423980E+02 +1.009402E+01 +5.733977E+00 +1.009402E+01 +9.693501E+02 
 +3.658800E+02 +2.542318E+01 +1.098499E+01 +2.542318E+01 +3.472300E+02 +1.692478E+01 +1.098499E+01 +1.692478E+01 +9.751619E+02 
 +3.674371E+02 +2.954206E+01 +1.643641E+01 +2.954206E+01 +3.538180E+02 +1.280182E+01 +1.643641E+01 +1.280182E+01 +9.718070E+02 
 +3.439589E+02 +1.475231E+01 +1.127327E+01 +1.475231E+01 +3.515100E+02 +1.541773E+01 +1.127327E+01 +1.541773E+01 +9.553292E+02 
 +3.689076E+02 +8.511925E+00 +6.356385E+00 +8.511925E+00 +3.837604E+02 +1.711842E+01 +6.356385E+00 +1.711842E+01 +9.503976E+02 
 +3.926606E+02 +7.173765E+00 -2.182686E+00 +7.173765E+00 +3.922963E+02 +1.301603E+01 -2.182686E+00 +1.301603E+01 +9.574013E+02 
 +3.998823E+02 +6.233656E-01 -1.153619E+01 +6.233656E-01 +3.791966E+02 -7.658974E+00 -1.153619E+01 -7.658974E+00 +9.685486E+02 
 +3.573749E+02 -1.582549E+01 -2.803424E+00 -1.582549E+01 +3.674247E+02 -2.126569E+01 -2.803424E+00 -2.126569E+01 +9.590067E+02 
 +3.438753E+02 -1.302851E+01 +8.308542E+00 -1.302851E+01 +3.713952E+02 -1.872858E+01 +8.308542E+00 -1.872858E+01 +9.554794E+02 
 +3.440514E+02 -1.029641E+01 +9.785999E+00 -1.029641E+01 +3.659417E+02 -1.846116E+01 +9.785999E+00 -1.846116E+01 +9.588173E+02 
 +3.390397E+02 -7.188309E+00 +1.494584E+01 -7.188309E+00 +3.639742E+02 -1.869565E+01 +1.494584E+01 -1.869565E+01 +9.655836E+02 
 +3.372692E+02 -3.938338E+00 +2.079452E+01 -3.938338E+00 +3.733947E+02 -1.076312E+01 +2.079452E+01 -1.076312E+01 +9.718593E+02 
 +3.420488E+02 -4.798808E+00 +2.252212E+01 -4.798808E+00 +3.716297E+02 +5.005361E-01 +2.252212E+01 +5.005361E-01 +9.692435E+02 
 +3.716202E+02 -7.512276E+00 +2.785273E+01 -7.512276E+00 +3.548071E+02 +5.179609E+00 +2.785273E+01 +5.179609E+00 +9.714152E+02 
 +3.850463E+02 -1.132966E+01 +2.481156E+01 -1.132966E+01 +3.513845E+02 +7.897698E+00 +2.481156E+01 +7.897698E+00 +9.826313E+02 
 +3.925113E+02 -1.405274E+01 +1.374001E+01 -1.405274E+01 +3.576772E+02 +1.563725E+01 +1.374001E+01 +1.563725E+01 +9.937479E+02 
 +4.025952E+02 -1.500472E+01 +1.010993E+01 -1.500472E+01 +3.566118E+02 +1.285918E+01 +1.010993E+01 +1.285918E+01 +9.967889E+02 
 +4.243513E+02 -1.309861E+01 +8.265161E+00 -1.309861E+01 +3.850116E+02 +1.104452E+01 +8.265161E+00 +1.104452E+01 +1.009501E+03 
 +3.767366E+02 -1.439189E+01 +4.616706E+00 -1.439189E+01 +3.809040E+02 +1.129629E+01 +4.616706E+00 +1.129629E+01 +9.955186E+02 
 +3.432833E+02 -1.208753E+01 +5.757218E-01 -1.208753E+01 +3.485751E+02 +2.404251E+00 +5.757218E-01 +2.404251E+00 +9.728949E+02 
 +3.510063E+02 -1.715432E+01 +3.797506E+00 -1.715432E+01 +3.456351E+02 -3.635593E+00 +3.797506E+00 -3.635593E+00 +9.606666E+02 
 +3.800331E+02 +1.645236E+01 +9.503792E+00 +1.645236E+01 +3.641913E+02 +5.799061E+00 +9.503792E+00 +5.799061E+00 +9.677753E+02 
 +3.739555E+02 +2.778310E+01 +1.308619E+01 +2.778310E+01 +3.500864E+02 +1.484236E+01 +1.308619E+01 +1.484236E+01 +9.704795E+02 
 +3.618676E+02 +3.134656E+01 +1.633373E+01 +3.134656E+01 +3.468460E+02 +1.547949E+01 +1.633373E+01 +1.547949E+01 +9.719290E+02 
 +3.520740E+02 +1.085752E+01 +2.896305E+00 +1.085752E+01 +3.729421E+02 +1.850723E+01 +2.896305E+00 +1.850723E+01 +9.742639E+02 
 +3.725902E+02 +6.654381E+00 -5.726376E-01 +6.654381E+00 +3.867833E+02 +1.616277E+01 -5.726376E-01 +1.616277E+01 +9.710713E+02 
 +3.749588E+02 -4.974353E+00 -5.319086E-01 -4.974353E+00 +3.693936E+02 +9.761457E+00 -5.319086E-01 +9.761457E+00 +9.600284E+02 
 +3.788745E+02 -9.761626E+00 -1.398509E+00 -9.761626E+00 +3.603533E+02 -2.482957E+00 -1.398509E+00 -2.482957E+00 +9.606966E+02 
 +3.812161E+02 -1.813422E+01 -2.930395E+00 -1.813422E+01 +3.730259E+02 -1.434745E+01 -2.930395E+00 -1.434745E+01 +9.683201E+02 
 +3.430662E+02 -2.277903E+01 +6.688730E+00 -2.277903E+01 +3.699536E+02 -1.941108E+01 +6.688730E+00 -1.941108E+01 +9.578467E+02 
 +3.334409E+02 -2.435895E+01 +1.203623E+01 -2.435895E+01 +3.659471E+02 -1.834126E+01 +1.203623E+01 -1.834126E+01 +9.616812E+02 
 +3.348879E+02 -1.548859E+01 +1.645912E+01 -1.548859E+01 +3.675535E+02 -1.688210E+01 +1.645912E+01 -1.688210E+01 +9.700834E+02 
 +3.353423E+02 -6.917031E+00 +2.268585E+01 -6.917031E+00 +3.625965E+02 -7.915010E+00 +2.268585E+01 -7.915010E+00 +9.630076E+02 
 +3.651580E+02 -4.232974E+00 +2.676078E+01 -4.232974E+00 +3.494050E+02 +6.993902E-01 +2.676078E+01 +6.993902E-01 +9.640287E+02 
 +3.860954E+02 -4.107177E+00 +2.616857E+01 -4.107177E+00 +3.466488E+02 +2.049531E+00 +2.616857E+01 +2.049531E+00 +9.735935E+02 
 +3.825903E+02 -2.484451E+00 +2.308977E+01 -2.484451E+00 +3.477509E+02 +3.827047E+00 +2.308977E+01 +3.827047E+00 +9.781719E+02 
 +3.827433E+02 -1.473085E+00 +1.798777E+01 -1.473085E+00 +3.484197E+02 +1.050821E+01 +1.798777E+01 +1.050821E+01 +9.804721E+02 
 +3.994457E+02 +4.902498E+00 +1.424476E+01 +4.902498E+00 +3.584530E+02 +1.167816E+01 +1.424476E+01 +1.167816E+01 +9.817043E+02 
 +4.157813E+02 +2.048183E+00 +1.332547E+01 +2.048183E+00 +3.707478E+02 +1.190099E+01 +1.332547E+01 +1.190099E+01 +9.851038E+02 
 +3.504555E+02 -2.560122E+00 +6.367708E+00 -2.560122E+00 +3.485390E+02 +9.940040E+00 +6.367708E+00 +9.940040E+00 +9.694495E+02 
 +3.416100E+02 -5.315471E+00 +6.816920E+00 -5.315471E+00 +3.486322E+02 -2.252519E+00 +6.816920E+00 -2.252519E+00 +9.612164E+02 
 +3.628365E+02 +4.075256E+00 +1.054429E+01 +4.075256E+00 +3.614409E+02 -8.104710E+00 +1.054429E+01 -8.104710E+00 +9.528556E+02 
 +3.855934E+02 +1.521103E+01 +1.076942E+01 +1.521103E+01 +3.875009E+02 -4.637286E+00 +1.076942E+01 -4.637286E+00 +9.688392E+02 
 +3.794016E+02 +1.763691E+01 +9.815252E+00 +1.763691E+01 +3.882573E+02 +2.816209E+00 +9.815252E+00 +2.816209E+00 +9.806088E+02 
 +3.660043E+02 +1.842495E+01 +6.587052E+00 +1.842495E+01 +3.769187E+02 +1.298039E+01 +6.587052E+00 +1.298039E+01 +9.827409E+02 
 +3.530823E+02 +1.528358E+01 -2.864049E+00 +1.528358E+01 +3.750023E+02 +2.477910E+01 -2.864049E+00 +2.477910E+01 +9.737286E+02 
 +3.641241E+02 +4.169853E+00 -5.292579E+00 +4.169853E+00 +3.551651E+02 +1.456601E+01 -5.292579E+00 +1.456601E+01 +9.667923E+02 
 +3.572232E+02 +7.050848E-01 +4.232679E+00 +7.050848E-01 +3.517847E+02 +7.471018E+00 +4.232679E+00 +7.471018E+00 +9.618302E+02 
 +3.692066E+02 -1.162774E+00 +1.018231E+01 -1.162774E+00 +3.699693E+02 -1.102121E+00 +1.018231E+01 -1.102121E+00 +9.609783E+02 
 +3.784612E+02 -1.312883E+01 +3.624715E+00 -1.312883E+01 +3.732158E+02 -4.590586E+00 +3.624715E+00 -4.590586E+00 +9.599755E+02 
 +3.437579E+02 -2.018439E+01 +6.371665E+00 -2.018439E+01 +3.625638E+02 -8.854448E+00 +6.371665E+00 -8.854448E+00 +9.550891E+02 
 +3.241819E+02 -2.774039E+01 +1.248926E+01 -2.774039E+01 +3.605461E+02 -1.631951E+01 +1.248926E+01 -1.631951E+01 +9.641949E+02 
 +3.510149E+02 -5.592312E+00 +1.700855E+01 -5.592312E+00 +3.690638E+02 -9.536468E+00 +1.700855E+01 -9.536468E+00 +9.762169E+02 
 +3.614753E+02 -5.408993E-01 +2.112450E+01 -5.408993E-01 +3.508100E+02 +3.379839E-01 +2.112450E+01 +3.379839E-01 +9.643273E+02 
 +3.869338E+02 -2.310487E+00 +2.028132E+01 -2.310487E+00 +3.466052E+02 +4.533203E+00 +2.028132E+01 +4.533203E+00 +9.716940E+02 
 +3.857362E+02 -5.273899E+00 +1.335764E+01 -5.273899E+00 +3.458080E+02 +4.710591E+00 +1.335764E+01 +4.710591E+00 +9.763264E+02 
 +3.876197E+02 -5.463333E+00 +1.088501E+01 -5.463333E+00 +3.480349E+02 +7.100131E+00 +1.088501E+01 +7.100131E+00 +9.764057E+02 
 +3.950376E+02 -6.097537E+00 +1.063268E+01 -6.097537E+00 +3.565828E+02 +1.161795E+01 +1.063268E+01 +1.161795E+01 +9.730751E+02 
 +3.977019E+02 +2.731706E-01 +9.278936E+00 +2.731706E-01 +3.614027E+02 +1.590937E+01 +9.278936E+00 +1.590937E+01 +9.615492E+02 
 +3.990350E+02 +3.566599E+00 +7.938855E+00 +3.566599E+00 +3.604000E+02 +1.052551E+01 +7.938855E+00 +1.052551E+01 +9.595465E+02 
 +3.461814E+02 +8.771437E+00 -2.295422E-01 +8.771437E+00 +3.393915E+02 -2.867993E+00 -2.295422E-01 -2.867993E+00 +9.510119E+02 
 +3.541208E+02 -7.639037E-01 +4.273371E+00 -7.639037E-01 +3.697426E+02 -7.124428E+00 +4.273371E+00 -7.124428E+00 +9.581408E+02 
 +3.604411E+02 +6.960650E-01 +6.880596E+00 +6.960650E-01 +3.841574E+02 -4.115170E+00 +6.880596E+00 -4.115170E+00 +9.570685E+02 
 +3.546046E+02 +1.012266E+01 +5.972291E+00 +1.012266E+01 +3.722246E+02 -1.846422E+00 +5.972291E+00 -1.846422E+00 +9.600565E+02 
 +3.565882E+02 +1.898508E+01 +4.774462E+00 +1.898508E+01 +3.742463E+02 +6.850081E+00 +4.774462E+00 +6.850081E+00 +9.711888E+02 
 +3.586536E+02 +2.371915E+01 +6.299727E-01 +2.371915E+01 +3.856169E+02 +2.067019E+01 +6.299727E-01 +2.067019E+01 +9.816411E+02 
 +3.658887E+02 +9.014100E+00 -1.225151E+01 +9.014100E+00 +3.727856E+02 +2.476825E+01 -1.225151E+01 +2.476825E+01 +9.681691E+02 
 +3.447404E+02 -5.756488E-01 -8.692349E+00 -5.756488E-01 +3.414815E+02 +1.057315E+01 -8.692349E+00 +1.057315E+01 +9.609180E+02 
 +3.554299E+02 +4.646553E+00 -7.693708E+00 +4.646553E+00 +3.512601E+02 +3.239859E+00 -7.693708E+00 +3.239859E+00 +9.700709E+02 
 +3.623069E+02 -3.643368E+00 +1.885450E-01 -3.643368E+00 +3.641595E+02 +1.364256E+00 +1.885450E-01 +1.364256E+00 +9.637377E+02 
 +3.818925E+02 -2.706346E+00 +1.494665E+00 -2.706346E+00 +3.829988E+02 -1.923501E+00 +1.494665E+00 -1.923501E+00 +9.630486E+02 
 +3.581002E+02 -5.937274E+00 +1.052272E+01 -5.937274E+00 +3.857218E+02 -1.095759E+01 +1.052272E+01 -1.095759E+01 +9.671322E+02 
 +3.332010E+02 -2.297918E+01 +1.680675E+01 -2.297918E+01 +3.608767E+02 -2.020341E+01 +1.680675E+01 -2.020341E+01 +9.726258E+02 
 +3.638126E+02 -9.175082E-01 +2.060856E+01 -9.175082E-01 +3.447021E+02 -1.783142E+01 +2.060856E+01 -1.783142E+01 +9.744950E+02 
 +3.751418E+02 -1.817939E+00 +1.759815E+01 -1.817939E+00 +3.368526E+02 -5.783812E+00 +1.759815E+01 -5.783812E+00 +9.721050E+02 
 +3.784081E+02 -5.149034E+00 +1.160632E+01 -5.149034E+00 +3.415731E+02 +2.714505E+00 +1.160632E+01 +2.714505E+00 +9.800913E+02 
 +3.837066E+02 -7.768464E+00 +4.580188E+00 -7.768464E+00 +3.464456E+02 +4.430686E+00 +4.580188E+00 +4.430686E+00 +9.812061E+02 
 +3.903087E+02 -8.931078E+00 +3.637585E+00 -8.931078E+00 +3.509810E+02 +5.320279E+00 +3.637585E+00 +5.320279E+00 +9.754943E+02 
 +3.953927E+02 -8.215113E+00 +6.069241E+00 -8.215113E+00 +3.561662E+02 +6.442705E+00 +6.069241E+00 +6.442705E+00 +9.662687E+02 
 +4.012259E+02 -6.567142E+00 +8.434647E+00 -6.567142E+00 +3.590357E+02 +7.555454E+00 +8.434647E+00 +7.555454E+00 +9.557890E+02 
 +4.091510E+02 -3.198437E+00 +7.282765E+00 -3.198437E+00 +3.708610E+02 -3.207606E-01 +7.282765E+00 -3.207606E-01 +9.669446E+02 
 +3.502339E+02 +2.092631E+00 -2.511492E+00 +2.092631E+00 +3.528817E+02 -1.352624E+01 -2.511492E+00 -1.352624E+01 +9.599932E+02 
 +3.589554E+02 -1.277159E+00 -4.220734E+00 -1.277159E+00 +3.750304E+02 -1.206663E+01 -4.220734E+00 -1.206663E+01 +9.696654E+02 
 +3.470854E+02 -5.877387E+00 -3.254253E+00 -5.877387E+00 +3.880724E+02 -1.862012E+00 -3.254253E+00 -1.862012E+00 +9.703482E+02 
 +3.493440E+02 -1.184278E+00 -1.912917E+00 -1.184278E+00 +3.849346E+02 +2.565631E+00 -1.912917E+00 +2.565631E+00 +9.732474E+02 
 +3.497285E+02 +1.404717E+01 -2.564463E+00 +1.404717E+01 +3.741708E+02 +1.152442E+01 -2.564463E+00 +1.152442E+01 +9.743496E+02 
 +3.469495E+02 +2.029042E+01 -8.102328E+00 +2.029042E+01 +3.738654E+02 +2.690390E+01 -8.102328E+00 +2.690390E+01 +9.699068E+02 
 +3.649578E+02 +2.793065E+00 -2.539324E+01 +2.793065E+00 +3.659514E+02 +2.648111E+01 -2.539324E+01 +2.648111E+01 +9.616675E+02 
 +3.474424E+02 -1.358258E+01 -1.844970E+01 -1.358258E+01 +3.610836E+02 +1.096441E+01 -1.844970E+01 +1.096441E+01 +9.715879E+02 
 +3.711803E+02 +9.163469E+00 -2.004088E+01 +9.163469E+00 +3.606093E+02 -2.541528E+00 -2.004088E+01 -2.541528E+00 +9.800014E+02 
 +3.590424E+02 +7.058933E+00 -1.203259E+01 +7.058933E+00 +3.469169E+02 -7.215841E+00 -1.203259E+01 -7.215841E+00 +9.600569E+02 
 +3.643331E+02 +3.993783E+00 -7.272614E+00 +3.993783E+00 +3.552292E+02 -9.428798E+00 -7.272614E+00 -9.428798E+00 +9.579063E+02 
 +3.353250E+02 -8.213175E+00 +6.609797E+00 -8.213175E+00 +3.339869E+02 -1.326710E+01 +6.609797E+00 -1.326710E+01 +9.625629E+02 
 +3.351064E+02 -2.503931E+01 +1.376608E+01 -2.503931E+01 +3.279499E+02 -1.560696E+01 +1.376608E+01 -1.560696E+01 +9.739593E+02 
 +3.647100E+02 -6.919413E+00 +2.140638E+01 -6.919413E+00 +3.403143E+02 -1.193254E+01 +2.140638E+01 -1.193254E+01 +9.715090E+02 
 +3.789360E+02 -8.541505E+00 +2.020359E+01 -8.541505E+00 +3.441700E+02 -6.567251E+00 +2.020359E+01 -6.567251E+00 +9.758852E+02 
 +3.788395E+02 -1.060562E+01 +1.235607E+01 -1.060562E+01 +3.456560E+02 -1.840025E+00 +1.235607E+01 -1.840025E+00 +9.890123E+02 
 +3.836736E+02 -9.580373E+00 +2.965323E+00 -9.580373E+00 +3.481243E+02 +1.014101E+00 +2.965323E+00 +1.014101E+00 +9.860037E+02 
 +3.898840E+02 -9.858935E+00 +2.966213E-01 -9.858935E+00 +3.517388E+02 +1.930623E+00 +2.966213E-01 +1.930623E+00 +9.733668E+02 
 +3.950656E+02 -9.067433E+00 +3.271506E+00 -9.067433E+00 +3.545372E+02 -7.700354E-01 +3.271506E+00 -7.700354E-01 +9.653277E+02 
 +4.017819E+02 -9.415204E+00 +7.027698E+00 -9.415204E+00 +3.572325E+02 -3.059483E+00 +7.027698E+00 -3.059483E+00 +9.600501E+02 
 +4.128025E+02 -2.090939E+00 +6.721749E+00 -2.090939E+00 +3.740689E+02 -6.571204E+00 +6.721749E+00 -6.571204E+00 +9.780127E+02 
 +3.543355E+02 +4.312864E+00 -2.940178E+00 +4.312864E+00 +3.623234E+02 -7.877298E+00 -2.940178E+00 -7.877298E+00 +9.771041E+02 
 +3.573174E+02 -1.468963E+00 -5.826915E+00 -1.468963E+00 +3.806484E+02 -4.190882E+00 -5.826915E+00 -4.190882E+00 +9.863247E+02 
 +3.394978E+02 -9.071573E+00 -6.113753E+00 -9.071573E+00 +3.820093E+02 +3.475369E-01 -6.113753E+00 +3.475369E-01 +9.789309E+02 
 +3.400327E+02 -9.300197E+00 -7.094396E+00 -9.300197E+00 +3.911118E+02 +3.550587E+00 -7.094396E+00 +3.550587E+00 +9.805461E+02 
 +3.325016E+02 +1.625017E+00 -7.717288E+00 +1.625017E+00 +3.718384E+02 +1.554726E+01 -7.717288E+00 +1.554726E+01 +9.716847E+02 
 +3.612757E+02 +1.678344E+01 -1.977318E+01 +1.678344E+01 +3.627014E+02 +3.034449E+01 -1.977318E+01 +3.034449E+01 +9.620540E+02 
 +3.700308E+02 +8.236733E+00 -3.105262E+01 +8.236733E+00 +3.598251E+02 +2.137392E+01 -3.105262E+01 +2.137392E+01 +9.613459E+02 
 +3.619950E+02 +6.140898E+00 -2.362589E+01 +6.140898E+00 +3.565052E+02 +2.489848E+00 -2.362589E+01 +2.489848E+00 +9.688299E+02 
 +3.731911E+02 +1.759093E+01 -2.220714E+01 +1.759093E+01 +3.631538E+02 -1.017041E+01 -2.220714E+01 -1.017041E+01 +9.774072E+02 
 +3.594482E+02 +1.126582E+01 -2.156473E+01 +1.126582E+01 +3.467429E+02 -9.474153E+00 -2.156473E+01 -9.474153E+00 +9.670973E+02 
 +3.353773E+02 +5.819551E+00 -1.555829E+01 +5.819551E+00 +3.258674E+02 -9.780161E+00 -1.555829E+01 -9.780161E+00 +9.567178E+02 
 +3.290203E+02 -1.068755E+01 +6.370847E-01 -1.068755E+01 +3.201626E+02 -1.403322E+01 +6.370847E-01 -1.403322E+01 +9.740106E+02 
 +3.582798E+02 -2.818773E+01 +5.800616E+00 -2.818773E+01 +3.444407E+02 -9.876081E+00 +5.800616E+00 -9.876081E+00 +9.876411E+02 
 +3.752034E+02 -1.257378E+01 +1.829581E+01 -1.257378E+01 +3.546785E+02 -5.746425E+00 +1.829581E+01 -5.746425E+00 +9.687291E+02 
 +3.765214E+02 -8.795881E+00 +2.269232E+01 -8.795881E+00 +3.502755E+02 -6.386945E+00 +2.269232E+01 -6.386945E+00 +9.694764E+02 
 +3.742099E+02 -1.257308E+01 +1.501328E+01 -1.257308E+01 +3.444495E+02 -5.139872E+00 +1.501328E+01 -5.139872E+00 +9.797012E+02 
 +3.833554E+02 -1.062708E+01 +6.029976E+00 -1.062708E+01 +3.477681E+02 -2.282797E+00 +6.029976E+00 -2.282797E+00 +9.771520E+02 
 +3.930779E+02 -9.982908E+00 +5.848310E-01 -9.982908E+00 +3.522791E+02 -1.173193E+00 +5.848310E-01 -1.173193E+00 +9.701727E+02 
 +3.912929E+02 -8.713531E+00 +1.850892E+00 -8.713531E+00 +3.508276E+02 -3.867293E+00 +1.850892E+00 -3.867293E+00 +9.664002E+02 
 +3.954543E+02 -1.155117E+01 +5.034534E+00 -1.155117E+01 +3.527824E+02 -8.344422E+00 +5.034534E+00 -8.344422E+00 +9.618021E+02 
 +4.084893E+02 +2.544632E-01 +1.768797E+00 +2.544632E-01 +3.733984E+02 -1.136709E+01 +1.768797E+00 -1.136709E+01 +9.775257E+02 
 +3.535157E+02 +4.785286E+00 -6.660880E+00 +4.785286E+00 +3.742102E+02 -5.316685E+00 -6.660880E+00 -5.316685E+00 +9.806791E+02 
 +3.509625E+02 -6.185637E+00 -5.452541E+00 -6.185637E+00 +3.876587E+02 +1.863641E+00 -5.452541E+00 +1.863641E+00 +9.863287E+02 
 +3.408359E+02 -8.766251E+00 -6.495004E+00 -8.766251E+00 +3.849283E+02 +2.296625E+00 -6.495004E+00 +2.296625E+00 +9.807437E+02 
 +3.366929E+02 -8.061785E+00 -8.059642E+00 -8.061785E+00 +3.903273E+02 +2.302589E+00 -8.059642E+00 +2.302589E+00 +9.842858E+02 
 +3.193354E+02 -2.865825E+00 -1.136514E+01 -2.865825E+00 +3.590219E+02 +1.078778E+01 -1.136514E+01 +1.078778E+01 +9.680522E+02 
 +3.778803E+02 +2.052139E+01 -2.640578E+01 +2.052139E+01 +3.682670E+02 +2.444283E+01 -2.640578E+01 +2.444283E+01 +9.689802E+02 
 +4.138121E+02 +3.705666E+00 -1.209184E+01 +3.705666E+00 +3.738683E+02 -5.953039E-01 -1.209184E+01 -5.953039E-01 +9.867331E+02 
 +3.871545E+02 +6.134874E+00 -1.353158E+01 +6.134874E+00 +3.465725E+02 -2.967427E+00 -1.353158E+01 -2.967427E+00 +9.657968E+02 
 +3.725106E+02 +1.795210E+01 -1.293039E+01 +1.795210E+01 +3.463233E+02 -2.872286E+00 -1.293039E+01 -2.872286E+00 +9.635471E+02 
 +3.559252E+02 +2.919399E+01 -1.207799E+01 +2.919399E+01 +3.381252E+02 +2.822392E+00 -1.207799E+01 +2.822392E+00 +9.722929E+02 
 +3.572779E+02 +2.183499E+01 -1.159821E+01 +2.183499E+01 +3.459407E+02 +3.446582E+00 -1.159821E+01 +3.446582E+00 +9.960376E+02 
 +3.638052E+02 +1.327399E+01 +1.102000E+01 +1.327399E+01 +3.548620E+02 +9.875126E-01 +1.102000E+01 +9.875126E-01 +9.958124E+02 
 +3.659232E+02 +6.117706E+00 +6.030968E+00 +6.117706E+00 +3.470460E+02 +1.775207E+00 +6.030968E+00 +1.775207E+00 +9.804602E+02 
 +3.745861E+02 +9.119569E+00 +1.238046E+01 +9.119569E+00 +3.509300E+02 -9.142013E-01 +1.238046E+01 -9.142013E-01 +9.788492E+02 
 +3.835054E+02 +9.522602E+00 +1.269526E+01 +9.522602E+00 +3.628192E+02 -3.947851E+00 +1.269526E+01 -3.947851E+00 +9.717564E+02 
 +3.831438E+02 +6.196043E+00 +1.107225E+01 +6.196043E+00 +3.654757E+02 -4.787718E+00 +1.107225E+01 -4.787718E+00 +9.696835E+02 
 +3.816108E+02 -5.392286E+00 +8.660428E+00 -5.392286E+00 +3.563667E+02 -3.446315E-01 +8.660428E+00 -3.446315E-01 +9.672902E+02 
 +3.822329E+02 -1.013510E+01 +5.643289E+00 -1.013510E+01 +3.460054E+02 +4.060212E+00 +5.643289E+00 +4.060212E+00 +9.616626E+02 
 +3.858846E+02 -1.073987E+01 +4.243373E+00 -1.073987E+01 +3.412274E+02 +2.621390E+00 +4.243373E+00 +2.621390E+00 +9.654502E+02 
 +3.967985E+02 -9.516236E+00 +3.062519E+00 -9.516236E+00 +3.530255E+02 -3.036543E+00 +3.062519E+00 -3.036543E+00 +9.788603E+02 
 +3.482664E+02 +1.562026E+01 -1.223377E+01 +1.562026E+01 +3.592975E+02 -1.185788E+01 -1.223377E+01 -1.185788E+01 +9.773796E+02 
 +3.337517E+02 +1.281745E+01 -1.273893E+01 +1.281745E+01 +3.689602E+02 -1.416503E+01 -1.273893E+01 -1.416503E+01 +9.828544E+02 
 +3.374995E+02 -2.270568E+00 -5.518342E+00 -2.270568E+00 +3.767685E+02 -7.585844E+00 -5.518342E+00 -7.585844E+00 +9.860721E+02 
 +3.330884E+02 -1.139054E+01 -4.607391E+00 -1.139054E+01 +3.837490E+02 -2.970778E+00 -4.607391E+00 -2.970778E+00 +9.868527E+02 
 +3.335478E+02 -5.874771E+00 -1.342920E+01 -5.874771E+00 +3.821118E+02 -2.662067E+00 -1.342920E+01 -2.662067E+00 +9.930265E+02 
 +3.335207E+02 +5.520999E+00 -1.013843E+01 +5.520999E+00 +3.670154E+02 +1.605987E+00 -1.013843E+01 +1.605987E+00 +9.909801E+02 
 +3.856038E+02 +3.615225E+01 -4.962713E+00 +3.615225E+01 +3.794795E+02 +3.726237E+00 -4.962713E+00 +3.726237E+00 +9.955177E+02 
 +3.973640E+02 -9.870451E+00 -5.750315E+00 -9.870451E+00 +3.646144E+02 -1.198563E+01 -5.750315E+00 -1.198563E+01 +9.816908E+02 
 +3.823993E+02 -4.507333E+00 -8.398150E+00 -4.507333E+00 +3.387504E+02 -1.096806E+01 -8.398150E+00 -1.096806E+01 +9.657043E+02 
 +3.685547E+02 +1.842175E+00 -8.381775E+00 +1.842175E+00 +3.257806E+02 -8.140932E+00 -8.381775E+00 -8.140932E+00 +9.640721E+02 
 +3.610104E+02 +1.263915E+01 -5.195779E+00 +1.263915E+01 +3.204594E+02 -5.464602E-01 -5.195779E+00 -5.464602E-01 +9.749391E+02 
 +3.698304E+02 +1.228605E+01 -1.035208E+01 +1.228605E+01 +3.222469E+02 +9.250614E+00 -1.035208E+01 +9.250614E+00 +1.000655E+03 
 +3.577805E+02 +5.954284E+00 +5.598877E+00 +5.954284E+00 +3.159304E+02 +1.297869E+01 +5.598877E+00 +1.297869E+01 +9.962695E+02 
 +3.589195E+02 -1.474721E+00 +3.964502E+00 -1.474721E+00 +3.235967E+02 +6.831137E+00 +3.964502E+00 +6.831137E+00 +9.778814E+02 
 +3.594893E+02 +1.159755E+01 +1.147900E+01 +1.159755E+01 +3.378387E+02 -1.208450E+00 +1.147900E+01 -1.208450E+00 +9.695407E+02 
 +3.639361E+02 +1.907263E+01 +4.710421E+00 +1.907263E+01 +3.542995E+02 -1.008021E+00 +4.710421E+00 -1.008021E+00 +9.592810E+02 
 +3.642677E+02 +1.743565E+01 +2.853673E+00 +1.743565E+01 +3.588918E+02 -1.892172E-01 +2.853673E+00 -1.892172E-01 +9.479559E+02 
 +3.666233E+02 +2.355928E+00 +8.950837E+00 +2.355928E+00 +3.558852E+02 +2.034888E+00 +8.950837E+00 +2.034888E+00 +9.495238E+02 
 +3.720591E+02 -3.771354E+00 +7.757483E+00 -3.771354E+00 +3.507197E+02 +7.088945E+00 +7.757483E+00 +7.088945E+00 +9.579271E+02 
 +3.611301E+02 -1.772999E+01 +3.934903E+00 -1.772999E+01 +3.235760E+02 +7.511717E+00 +3.934903E+00 +7.511717E+00 +9.570594E+02 
 +3.742070E+02 -1.017610E+01 +1.254423E+01 -1.017610E+01 +3.444181E+02 +1.508260E+00 +1.254423E+01 +1.508260E+00 +9.638229E+02 
 +3.430012E+02 +1.435349E+01 +3.643821E+00 +1.435349E+01 +3.623107E+02 -2.103541E+00 +3.643821E+00 -2.103541E+00 +9.635729E+02 
 +3.272143E+02 +1.322898E+01 -1.534766E+00 +1.322898E+01 +3.560831E+02 -5.766541E+00 -1.534766E+00 -5.766541E+00 +9.704119E+02 
 +3.200237E+02 +7.351229E+00 -2.543209E+00 +7.351229E+00 +3.635947E+02 -6.767685E+00 -2.543209E+00 -6.767685E+00 +9.847023E+02 
 +3.407502E+02 -5.444226E+00 -4.524038E+00 -5.444226E+00 +3.741460E+02 -5.057172E+00 -4.524038E+00 -5.057172E+00 +9.968250E+02 
 +3.511164E+02 +8.221180E+00 -1.452103E+01 +8.221180E+00 +3.524662E+02 -8.874133E+00 -1.452103E+01 -8.874133E+00 +9.915174E+02 
 +3.480070E+02 +1.512717E+01 -5.160573E+00 +1.512717E+01 +3.518294E+02 -5.489172E+00 -5.160573E+00 -5.489172E+00 +9.932141E+02 
 +3.620560E+02 +3.306550E+01 -1.979647E-01 +3.306550E+01 +3.646149E+02 -6.236214E+00 -1.979647E-01 -6.236214E+00 +9.897202E+02 
 +3.760036E+02 -9.875242E+00 -5.254552E+00 -9.875242E+00 +3.504806E+02 -9.379797E+00 -5.254552E+00 -9.379797E+00 +9.742812E+02 
 +3.688814E+02 +8.239232E-01 -4.558663E+00 +8.239232E-01 +3.314446E+02 -1.342576E+01 -4.558663E+00 -1.342576E+01 +9.593533E+02 
 +3.549212E+02 +5.126189E+00 -6.312019E+00 +5.126189E+00 +3.043688E+02 -9.825066E+00 -6.312019E+00 -9.825066E+00 +9.587519E+02 
 +3.547474E+02 +1.380231E+01 -3.012615E+00 +1.380231E+01 +2.825739E+02 -5.238924E+00 -3.012615E+00 -5.238924E+00 +9.604896E+02 
 +3.733932E+02 +1.341998E+01 -5.089853E+00 +1.341998E+01 +3.032825E+02 -1.263934E+00 -5.089853E+00 -1.263934E+00 +9.856404E+02 
 +3.758619E+02 +4.234833E+00 -9.529109E+00 +4.234833E+00 +3.263686E+02 +1.979600E+00 -9.529109E+00 +1.979600E+00 +1.000579E+03 
 +3.762403E+02 -4.938127E-01 -5.542579E+00 -4.938127E-01 +3.482495E+02 -7.937441E-01 -5.542579E+00 -7.937441E-01 +9.884594E+02 
 +3.780963E+02 +6.693229E+00 +4.381761E+00 +6.693229E+00 +3.639382E+02 +1.340031E+00 +4.381761E+00 +1.340031E+00 +9.697949E+02 
 +3.760157E+02 +1.657601E+01 +4.871827E-01 +1.657601E+01 +3.648512E+02 +9.882880E-01 +4.871827E-01 +9.882880E-01 +9.603206E+02 
 +3.808325E+02 +1.977564E+01 +5.464247E-01 +1.977564E+01 +3.740990E+02 +4.921113E-01 +5.464247E-01 +4.921113E-01 +9.647053E+02 
 +3.613277E+02 +6.200429E+00 +6.489197E+00 +6.200429E+00 +3.575434E+02 -3.227902E-01 +6.489197E+00 -3.227902E-01 +9.561475E+02 
 +3.366445E+02 +1.681320E+00 +3.939943E+00 +1.681320E+00 +3.336387E+02 +1.349569E+00 +3.939943E+00 +1.349569E+00 +9.493200E+02 
 +3.118442E+02 -2.071795E+01 -1.370339E+00 -2.071795E+01 +3.217029E+02 +7.949070E+00 -1.370339E+00 +7.949070E+00 +9.422894E+02 
 +3.338711E+02 +1.052644E+00 +1.497495E+01 +1.052644E+00 +3.448912E+02 +1.148394E+01 +1.497495E+01 +1.148394E+01 +9.401593E+02 
 +3.737431E+02 +1.000610E+01 +1.681464E+01 +1.000610E+01 +3.697351E+02 +1.443577E+01 +1.681464E+01 +1.443577E+01 +9.603435E+02 
 +3.380012E+02 +1.436805E+01 +4.660924E+00 +1.436805E+01 +3.611997E+02 +1.007651E+01 +4.660924E+00 +1.007651E+01 +9.699195E+02 
 +3.232615E+02 +1.058731E+01 +3.688668E+00 +1.058731E+01 +3.438672E+02 +3.309470E+00 +3.688668E+00 +3.309470E+00 +9.825948E+02 
 +3.433728E+02 +4.271974E+00 -2.432158E+00 +4.271974E+00 +3.331623E+02 +7.367982E-01 -2.432158E+00 +7.367982E-01 +9.905280E+02 
 +3.576282E+02 +5.936346E+00 -4.884206E+00 +5.936346E+00 +3.482133E+02 -9.536560E+00 -4.884206E+00 -9.536560E+00 +9.917608E+02 
 +3.453399E+02 +1.569457E+01 +2.100532E+00 +1.569457E+01 +3.499068E+02 -9.351434E+00 +2.100532E+00 -9.351434E+00 +9.895047E+02 
 +3.491122E+02 +3.005806E+01 +1.140486E-01 +3.005806E+01 +3.526739E+02 -5.360958E+00 +1.140486E-01 -5.360958E+00 +9.869304E+02 
 +3.905162E+02 -1.046915E+01 -4.583172E+00 -1.046915E+01 +3.643097E+02 -6.343175E-01 -4.583172E+00 -6.343175E-01 +9.797762E+02 
 +3.804769E+02 +6.039939E+00 -3.176899E+00 +6.039939E+00 +3.613303E+02 +4.237753E-01 -3.176899E+00 +4.237753E-01 +9.619002E+02 
 +3.755498E+02 +5.356982E+00 -7.093491E+00 +5.356982E+00 +3.537407E+02 +3.657940E+00 -7.093491E+00 +3.657940E+00 +9.626211E+02 
 +3.682462E+02 +1.010658E+01 -1.070684E+01 +1.010658E+01 +3.312761E+02 +2.539033E+00 -1.070684E+01 +2.539033E+00 +9.629020E+02 
 +3.822094E+02 +1.064142E+01 -4.384535E+00 +1.064142E+01 +3.170637E+02 -5.112593E+00 -4.384535E+00 -5.112593E+00 +9.769482E+02 
 +3.884603E+02 +9.240627E+00 -1.095974E+01 +9.240627E+00 +3.378637E+02 -6.338125E+00 -1.095974E+01 -6.338125E+00 +9.954238E+02 
 +3.928884E+02 +3.944695E+00 -8.317346E+00 +3.944695E+00 +3.739932E+02 -7.755264E+00 -8.317346E+00 -7.755264E+00 +9.932820E+02 
 +3.931814E+02 +5.467720E+00 +4.599850E+00 +5.467720E+00 +3.839946E+02 -1.571713E+00 +4.599850E+00 -1.571713E+00 +9.613584E+02 
 +3.916805E+02 +9.887799E+00 +4.552205E+00 +9.887799E+00 +3.755323E+02 +2.914263E+00 +4.552205E+00 +2.914263E+00 +9.508182E+02 
 +4.054299E+02 +1.727613E+01 +4.437709E-02 +1.727613E+01 +3.827294E+02 +2.972424E+00 +4.437709E-02 +2.972424E+00 +9.850552E+02 
 +3.469839E+02 -6.428845E+00 -4.455257E+00 -6.428845E+00 +3.668185E+02 +7.960467E-01 -4.455257E+00 +7.960467E-01 +9.691625E+02 
 +3.286260E+02 -1.510556E+01 -4.462750E+00 -1.510556E+01 +3.747663E+02 +3.081966E-01 -4.462750E+00 +3.081966E-01 +9.592835E+02 
 +3.143797E+02 -2.597570E+01 -3.744769E+00 -2.597570E+01 +3.813962E+02 +7.750682E+00 -3.744769E+00 +7.750682E+00 +9.553440E+02 
 +3.204530E+02 -1.206527E-01 +1.369019E+01 -1.206527E-01 +3.538763E+02 +1.169558E+01 +1.369019E+01 +1.169558E+01 +9.403115E+02 
 +3.291354E+02 +5.357886E+00 +1.562372E+01 +5.357886E+00 +3.266151E+02 +1.267286E+01 +1.562372E+01 +1.267286E+01 +9.435230E+02 
 +3.495819E+02 +2.049398E+00 +5.097776E+00 +2.049398E+00 +3.219333E+02 +1.332127E+01 +5.097776E+00 +1.332127E+01 +9.641790E+02 
 +3.371353E+02 -2.061787E+00 +3.316414E+00 -2.061787E+00 +3.074239E+02 +1.056418E+01 +3.316414E+00 +1.056418E+01 +9.682053E+02 
 +3.539949E+02 +1.307710E+00 -6.587222E+00 +1.307710E+00 +3.431242E+02 +2.652178E+00 -6.587222E+00 +2.652178E+00 +9.876093E+02 
 +3.624894E+02 -9.045295E-01 -5.189239E+00 -9.045295E-01 +3.608030E+02 -6.607527E+00 -5.189239E+00 -6.607527E+00 +9.940326E+02 
 +3.448281E+02 +1.426333E+01 +5.946685E+00 +1.426333E+01 +3.511556E+02 -8.465888E+00 +5.946685E+00 -8.465888E+00 +9.847144E+02 
 +3.539610E+02 +2.125008E+01 +6.724431E+00 +2.125008E+01 +3.497936E+02 -4.970691E+00 +6.724431E+00 -4.970691E+00 +9.830042E+02 
 +3.867260E+02 +1.458542E+00 -3.030502E+00 +1.458542E+00 +3.595451E+02 -3.360230E-01 -3.030502E+00 -3.360230E-01 +9.702733E+02 
 +3.918894E+02 +5.271656E+00 -6.452202E-01 +5.271656E+00 +3.797216E+02 +1.615897E+00 -6.452202E-01 +1.615897E+00 +9.648706E+02 
 +3.769510E+02 +1.450384E+00 -5.704696E+00 +1.450384E+00 +3.665728E+02 +2.208881E+00 -5.704696E+00 +2.208881E+00 +9.497151E+02 
 +3.538047E+02 +5.779152E+00 -1.680426E+01 +5.779152E+00 +3.376146E+02 -3.319855E+00 -1.680426E+01 -3.319855E+00 +9.438413E+02 
 +3.613267E+02 +4.520800E+00 -7.590609E+00 +4.520800E+00 +3.226488E+02 -1.069724E+01 -7.590609E+00 -1.069724E+01 +9.620583E+02 
 +3.835817E+02 +1.274488E+01 -5.825138E+00 +1.274488E+01 +3.360968E+02 -1.299424E+01 -5.825138E+00 -1.299424E+01 +9.773624E+02 
 +4.080576E+02 +4.383904E+00 -8.038795E+00 +4.383904E+00 +3.691702E+02 -1.288962E+01 -8.038795E+00 -1.288962E+01 +9.828529E+02 
 +4.134968E+02 +1.219511E+01 +7.241011E-01 +1.219511E+01 +3.901509E+02 -6.027589E+00 +7.241011E-01 -6.027589E+00 +9.712314E+02 
 +4.091116E+02 +4.329311E+00 +3.324442E+00 +4.329311E+00 +3.890542E+02 -6.580541E+00 +3.324442E+00 -6.580541E+00 +9.699176E+02 
 +3.824114E+02 +1.017089E+01 -3.793375E+00 +1.017089E+01 +3.718280E+02 -7.372556E+00 -3.793375E+00 -7.372556E+00 +9.860919E+02 
 +3.122362E+02 -1.241300E+01 -1.096024E+01 -1.241300E+01 +3.561986E+02 -3.249735E+00 -1.096024E+01 -3.249735E+00 +9.624447E+02 
 +3.181716E+02 -1.838568E+01 -5.800600E+00 -1.838568E+01 +3.778967E+02 -2.815053E-01 -5.800600E+00 -2.815053E-01 +9.559925E+02 
 +3.208485E+02 -2.185488E+01 -3.298978E+00 -2.185488E+01 +3.864644E+02 +3.018101E+00 -3.298978E+00 +3.018101E+00 +9.575327E+02 
 +3.266961E+02 -1.771977E+01 +3.397739E+00 -1.771977E+01 +3.804320E+02 +6.718812E+00 +3.397739E+00 +6.718812E+00 +9.566013E+02 
 +3.052700E+02 +7.538838E+00 +7.905411E+00 +7.538838E+00 +3.339774E+02 +5.107688E+00 +7.905411E+00 +5.107688E+00 +9.468573E+02 
 +3.718096E+02 -1.288999E+00 +5.473879E+00 -1.288999E+00 +3.399785E+02 +5.555671E+00 +5.473879E+00 +5.555671E+00 +9.721309E+02 
 +3.729814E+02 -2.137124E+00 -3.378926E+00 -2.137124E+00 +3.416142E+02 +1.068993E+01 -3.378926E+00 +1.068993E+01 +9.723067E+02 
 +3.745275E+02 -2.224273E+00 -1.113219E+01 -2.224273E+00 +3.567968E+02 +1.782258E+00 -1.113219E+01 +1.782258E+00 +9.818904E+02 
 +3.802077E+02 -1.445000E+00 -1.008845E+01 -1.445000E+00 +3.625664E+02 -2.789313E+00 -1.008845E+01 -2.789313E+00 +9.935593E+02 
 +3.502988E+02 +2.094689E+01 +6.773394E+00 +2.094689E+01 +3.527773E+02 -9.041317E-01 +6.773394E+00 -9.041317E-01 +9.798477E+02 
 +3.666375E+02 +2.316432E+01 +5.293865E+00 +2.316432E+01 +3.493198E+02 -5.763750E-01 +5.293865E+00 -5.763750E-01 +9.735952E+02 
 +3.799073E+02 +2.895226E+00 -6.902631E+00 +2.895226E+00 +3.589241E+02 -1.083566E+00 -6.902631E+00 -1.083566E+00 +9.468039E+02 
 +3.892395E+02 +9.712940E+00 +4.003279E-01 +9.712940E+00 +3.674126E+02 -1.341120E+00 +4.003279E-01 -1.341120E+00 +9.506582E+02 
 +3.717977E+02 +3.630186E+00 +1.213107E+00 +3.630186E+00 +3.593543E+02 -2.863680E+00 +1.213107E+00 -2.863680E+00 +9.357657E+02 
 +3.606742E+02 +8.263110E+00 -9.205707E+00 +8.263110E+00 +3.617057E+02 -4.712949E+00 -9.205707E+00 -4.712949E+00 +9.387438E+02 
 +3.671655E+02 +1.255271E+01 -5.276621E+00 +1.255271E+01 +3.893954E+02 -1.120690E+01 -5.276621E+00 -1.120690E+01 +9.706554E+02 
 +4.021410E+02 +2.294223E+01 -4.538860E+00 +2.294223E+01 +4.256500E+02 -1.527493E+01 -4.538860E+00 -1.527493E+01 +9.930015E+02 
 +4.350236E+02 -1.449298E+01 -1.152169E+01 -1.449298E+01 +4.181205E+02 -1.550226E+01 -1.152169E+01 -1.550226E+01 +1.000172E+03 
 +4.097290E+02 -1.779330E+01 -9.081387E+00 -1.779330E+01 +3.587363E+02 -1.184847E+01 -9.081387E+00 -1.184847E+01 +9.851040E+02 
 +4.035969E+02 -2.414834E+01 -4.012425E+00 -2.414834E+01 +3.627149E+02 -1.122608E+01 -4.012425E+00 -1.122608E+01 +9.865993E+02 
 +3.487018E+02 -1.120831E+01 -5.254219E+00 -1.120831E+01 +3.664406E+02 -1.157136E+01 -5.254219E+00 -1.157136E+01 +9.719284E+02 
 +3.255067E+02 -1.481618E+01 -4.508471E+00 -1.481618E+01 +3.696974E+02 -4.028265E+00 -4.508471E+00 -4.028265E+00 +9.638195E+02 
 +3.274194E+02 -2.069890E+01 -2.126245E+00 -2.069890E+01 +3.773255E+02 +7.649805E-01 -2.126245E+00 +7.649805E-01 +9.608183E+02 
 +3.280637E+02 -1.859844E+01 -3.573639E+00 -1.859844E+01 +3.812790E+02 +1.624951E+00 -3.573639E+00 +1.624951E+00 +9.575584E+02 
 +3.211198E+02 -1.908634E+01 -5.113659E+00 -1.908634E+01 +3.713773E+02 +6.734976E+00 -5.113659E+00 +6.734976E+00 +9.483958E+02 
 +3.312639E+02 +1.264625E+01 +1.370300E+00 +1.264625E+01 +3.665682E+02 +3.374055E+00 +1.370300E+00 +3.374055E+00 +9.573585E+02 
 +3.671220E+02 +6.400435E+00 +2.587657E+00 +6.400435E+00 +3.818651E+02 -5.898457E-01 +2.587657E+00 -5.898457E-01 +9.754601E+02 
 +3.936968E+02 +7.658086E+00 -7.661210E+00 +7.658086E+00 +3.767239E+02 +2.827619E+00 -7.661210E+00 +2.827619E+00 +9.735424E+02 
 +3.905781E+02 +3.021002E+00 -1.563255E+01 +3.021002E+00 +3.566894E+02 -2.959661E+00 -1.563255E+01 -2.959661E+00 +9.677644E+02 
 +3.949734E+02 +2.279064E+00 -1.601924E+01 +2.279064E+00 +3.662199E+02 -3.696622E+00 -1.601924E+01 -3.696622E+00 +9.750118E+02 
 +3.558962E+02 +2.064965E+01 -1.879287E-01 +2.064965E+01 +3.560445E+02 -7.295689E+00 -1.879287E-01 -7.295689E+00 +9.583235E+02 
 +3.892275E+02 +7.957233E+00 -3.458054E+00 +7.957233E+00 +3.718645E+02 -5.204019E+00 -3.458054E+00 -5.204019E+00 +9.624918E+02 
 +3.981500E+02 +2.395276E+00 -5.941522E+00 +2.395276E+00 +3.802878E+02 -3.113540E-01 -5.941522E+00 -3.113540E-01 +9.414246E+02 
 +3.989949E+02 +3.017047E+00 -7.157727E-01 +3.017047E+00 +3.839558E+02 +3.244494E+00 -7.157727E-01 +3.244494E+00 +9.471118E+02 
 +3.941825E+02 -5.850948E-01 -1.453583E+00 -5.850948E-01 +3.817589E+02 -5.604479E+00 -1.453583E+00 -5.604479E+00 +9.394454E+02 
 +3.519486E+02 +7.740756E+00 +9.766141E-01 +7.740756E+00 +3.781037E+02 -1.444312E+01 +9.766141E-01 -1.444312E+01 +9.373187E+02 
 +3.554483E+02 +6.150870E+00 -1.483178E+00 +6.150870E+00 +3.989457E+02 -1.512066E+01 -1.483178E+00 -1.512066E+01 +9.642777E+02 
 +3.596804E+02 +1.952388E+01 -5.725602E+00 +1.952388E+01 +3.956720E+02 -1.939511E+01 -5.725602E+00 -1.939511E+01 +9.679310E+02 
 +3.981635E+02 -2.027610E+01 -1.411444E+01 -2.027610E+01 +3.929203E+02 -1.421814E+01 -1.411444E+01 -1.421814E+01 +9.891078E+02 
 +4.017871E+02 -1.555013E+01 -1.148677E+01 -1.555013E+01 +3.741882E+02 -1.585018E+00 -1.148677E+01 -1.585018E+00 +9.989582E+02 
 +4.015220E+02 -1.527997E+01 -4.731722E+00 -1.527997E+01 +3.702050E+02 +3.808012E+00 -4.731722E+00 +3.808012E+00 +9.914594E+02 
 +3.555955E+02 +1.232114E+00 -2.809987E+00 +1.232114E+00 +3.622084E+02 -6.574440E-01 -2.809987E+00 -6.574440E-01 +9.639606E+02 
 +3.519943E+02 -6.586440E+00 -1.829020E+00 -6.586440E+00 +3.783395E+02 +1.962490E+00 -1.829020E+00 +1.962490E+00 +9.670618E+02 
 +3.380931E+02 -1.371327E+01 -3.943136E+00 -1.371327E+01 +3.791574E+02 +5.113058E+00 -3.943136E+00 +5.113058E+00 +9.628144E+02 
 +3.337754E+02 -1.953322E+01 -5.270515E+00 -1.953322E+01 +3.764656E+02 +3.812240E+00 -5.270515E+00 +3.812240E+00 +9.534345E+02 
 +3.469264E+02 -1.831690E+01 -2.157291E+00 -1.831690E+01 +3.849561E+02 +4.938581E+00 -2.157291E+00 +4.938581E+00 +9.530933E+02 
 +3.613789E+02 +1.004954E+01 +2.466167E+00 +1.004954E+01 +3.964447E+02 -1.268578E+00 +2.466167E+00 -1.268578E+00 +9.685222E+02 
 +3.438070E+02 +1.005534E+01 +1.180821E-01 +1.005534E+01 +3.676975E+02 -1.242550E+01 +1.180821E-01 -1.242550E+01 +9.598508E+02 
 +3.653755E+02 +7.842717E+00 -7.248305E+00 +7.842717E+00 +3.607350E+02 -1.161798E+01 -7.248305E+00 -1.161798E+01 +9.484477E+02 
 +3.952911E+02 +3.105710E+00 -1.876334E+01 +3.105710E+00 +3.758509E+02 -4.858596E+00 -1.876334E+01 -4.858596E+00 +9.473792E+02 
 +4.070918E+02 +1.500177E+00 -1.713032E+01 +1.500177E+00 +4.012598E+02 -2.426424E+00 -1.713032E+01 -2.426424E+00 +9.488943E+02 
 +3.869728E+02 +1.159958E+01 -9.203465E+00 +1.159958E+01 +3.880749E+02 -7.908289E+00 -9.203465E+00 -7.908289E+00 +9.394478E+02 
 +3.922108E+02 +5.921452E+00 -9.835217E+00 +5.921452E+00 +3.734508E+02 -6.818503E+00 -9.835217E+00 -6.818503E+00 +9.380376E+02 
 +4.013825E+02 +2.602568E+00 -4.921667E+00 +2.602568E+00 +3.856867E+02 -5.642044E+00 -4.921667E+00 -5.642044E+00 +9.388097E+02 
 +4.081759E+02 +4.885543E+00 -3.912239E+00 +4.885543E+00 +3.956430E+02 -1.332255E+01 -3.912239E+00 -1.332255E+01 +9.333107E+02 
 +4.139083E+02 +3.828736E+00 -1.283716E+01 +3.828736E+00 +4.143485E+02 -2.128475E+01 -1.283716E+01 -2.128475E+01 +9.338118E+02 
 +3.410554E+02 +1.070117E+01 -3.236928E+00 +1.070117E+01 +3.914686E+02 -1.909813E+01 -3.236928E+00 -1.909813E+01 +9.376873E+02 
 +3.394266E+02 +7.878393E+00 -4.120966E+00 +7.878393E+00 +3.908544E+02 -1.516705E+01 -4.120966E+00 -1.516705E+01 +9.582476E+02 
 +3.443857E+02 +1.537301E+01 -8.650570E+00 +1.537301E+01 +3.739928E+02 -1.849239E+01 -8.650570E+00 -1.849239E+01 +9.544699E+02 
 +3.788133E+02 -2.530930E+01 -1.563305E+01 -2.530930E+01 +3.807144E+02 -1.193921E+01 -1.563305E+01 -1.193921E+01 +9.802253E+02 
 +3.616104E+02 -1.829731E+01 -5.889161E+00 -1.829731E+01 +3.599929E+02 +1.340701E+00 -5.889161E+00 +1.340701E+00 +9.776951E+02 
 +3.790788E+02 -8.096690E+00 +6.024577E-01 -8.096690E+00 +3.622073E+02 +1.027891E+01 +6.024577E-01 +1.027891E+01 +9.693116E+02 
 +3.780505E+02 +1.128323E+01 -4.153703E+00 +1.128323E+01 +3.714379E+02 +1.063522E+01 -4.153703E+00 +1.063522E+01 +9.619858E+02 
 +3.600584E+02 -6.070109E+00 -8.993192E+00 -6.070109E+00 +3.723202E+02 +1.086994E+01 -8.993192E+00 +1.086994E+01 +9.556805E+02 
 +3.668659E+02 -3.967386E+00 -7.705584E+00 -3.967386E+00 +3.928495E+02 +1.259978E+01 -7.705584E+00 +1.259978E+01 +9.615645E+02 
 +3.510869E+02 -1.312864E+01 -3.333311E+00 -1.312864E+01 +3.873925E+02 +9.346616E+00 -3.333311E+00 +9.346616E+00 +9.547352E+02 
 +3.645972E+02 -1.208969E+00 +5.952602E+00 -1.208969E+00 +3.993207E+02 +8.384651E+00 +5.952602E+00 +8.384651E+00 +9.599080E+02 
 +3.619139E+02 +4.098770E+00 +8.173008E+00 +4.098770E+00 +3.987540E+02 +2.661435E+00 +8.173008E+00 +2.661435E+00 +9.653250E+02 
 +3.471840E+02 +6.153810E-01 +4.518848E+00 +6.153810E-01 +3.816603E+02 -5.088905E+00 +4.518848E+00 -5.088905E+00 +9.632048E+02 
 +3.409726E+02 -1.989918E+00 +1.005343E+00 -1.989918E+00 +3.749434E+02 -6.131165E+00 +1.005343E+00 -6.131165E+00 +9.384136E+02 
 +4.138702E+02 +2.380387E+00 -1.889447E+01 +2.380387E+00 +4.080839E+02 +5.201194E-01 -1.889447E+01 +5.201194E-01 +9.393257E+02 
 +3.958191E+02 +9.723295E+00 -1.650731E+01 +9.723295E+00 +3.873870E+02 +1.999482E+00 -1.650731E+01 +1.999482E+00 +9.221752E+02 
 +3.936424E+02 +7.675241E+00 -1.531580E+01 +7.675241E+00 +3.710483E+02 -2.369770E-01 -1.531580E+01 -2.369770E-01 +9.183763E+02 
 +3.963252E+02 +5.139713E+00 -1.592775E+01 +5.139713E+00 +3.723298E+02 -2.555143E+00 -1.592775E+01 -2.555143E+00 +9.252654E+02 
 +4.001216E+02 +3.432356E+00 -1.032786E+01 +3.432356E+00 +3.825629E+02 -5.305837E+00 -1.032786E+01 -5.305837E+00 +9.217027E+02 
 +4.004807E+02 +4.914958E+00 -5.210111E+00 +4.914958E+00 +3.914722E+02 -1.024455E+01 -5.210111E+00 -1.024455E+01 +9.008093E+02 
 +3.984519E+02 -3.922124E-01 -1.174996E+01 -3.922124E-01 +4.116433E+02 -1.110262E+01 -1.174996E+01 -1.110262E+01 +9.131098E+02 
 +3.492116E+02 +1.758516E+00 -7.427437E+00 +1.758516E+00 +3.950172E+02 -1.024101E+01 -7.427437E+00 -1.024101E+01 +9.398965E+02 
 +3.446658E+02 +8.443254E+00 -7.467497E+00 +8.443254E+00 +3.861185E+02 -9.398897E+00 -7.467497E+00 -9.398897E+00 +9.522756E+02 
 +3.385629E+02 +1.689153E+01 -9.896311E+00 +1.689153E+01 +3.627287E+02 -1.263351E+01 -9.896311E+00 -1.263351E+01 +9.365965E+02 
 +3.557883E+02 -8.856476E+00 -1.660997E+01 -8.856476E+00 +3.665054E+02 -3.623557E+00 -1.660997E+01 -3.623557E+00 +9.562589E+02 
 +3.361546E+02 -7.629849E+00 -6.961857E+00 -7.629849E+00 +3.581282E+02 +7.618148E+00 -6.961857E+00 +7.618148E+00 +9.598020E+02 
 +3.799724E+02 +1.724044E+01 -7.130148E+00 +1.724044E+01 +3.843427E+02 +2.454685E+00 -7.130148E+00 +2.454685E+00 +9.582496E+02 
 +3.913639E+02 +2.916251E+01 -1.285256E+01 +2.916251E+01 +3.880199E+02 -5.357918E+00 -1.285256E+01 -5.357918E+00 +9.484398E+02 
 +3.762978E+02 +2.033635E+01 -1.563900E+01 +2.033635E+01 +3.728361E+02 -5.988694E+00 -1.563900E+01 -5.988694E+00 +9.386672E+02 
 +3.815003E+02 +2.031186E+01 -9.219015E+00 +2.031186E+01 +3.889864E+02 +1.735592E-01 -9.219015E+00 +1.735592E-01 +9.499723E+02 
 +3.697835E+02 -1.844595E+00 -8.911381E-01 -1.844595E+00 +4.073238E+02 +4.875752E+00 -8.911381E-01 +4.875752E+00 +9.625705E+02 
 +3.615412E+02 +1.846571E+00 +1.177861E+01 +1.846571E+00 +4.095721E+02 +4.664801E+00 +1.177861E+01 +4.664801E+00 +9.587874E+02 
 +3.453346E+02 +1.935091E+00 +1.193651E+01 +1.935091E+00 +3.903820E+02 +2.372037E+00 +1.193651E+01 +2.372037E+00 +9.537048E+02 
 +3.379041E+02 +4.496658E+00 +8.320867E+00 +4.496658E+00 +3.827833E+02 -1.095500E+00 +8.320867E+00 -1.095500E+00 +9.600292E+02 
 +3.243232E+02 +6.302926E+00 +4.357099E+00 +6.302926E+00 +3.632391E+02 -7.419217E+00 +4.357099E+00 -7.419217E+00 +9.380805E+02 
 +3.976630E+02 +7.045244E+00 -1.410840E+01 +7.045244E+00 +3.896759E+02 -4.284117E+00 -1.410840E+01 -4.284117E+00 +9.401514E+02 
 +4.096257E+02 +4.733349E+00 -1.947002E+01 +4.733349E+00 +3.872078E+02 +3.582832E+00 -1.947002E+01 +3.582832E+00 +9.317946E+02 
 +4.065896E+02 +5.169645E+00 -2.054969E+01 +5.169645E+00 +3.826453E+02 +4.238623E+00 -2.054969E+01 +4.238623E+00 +9.259777E+02 
 +4.035971E+02 +7.107366E+00 -1.791944E+01 +7.107366E+00 +3.817860E+02 +5.419488E-01 -1.791944E+01 +5.419488E-01 +9.259901E+02 
 +3.914844E+02 +5.321175E+00 -1.279018E+01 +5.321175E+00 +3.883630E+02 -9.623915E+00 -1.279018E+01 -9.623915E+00 +9.137932E+02 
 +3.696792E+02 -3.831117E+00 +6.382993E-01 -3.831117E+00 +3.815877E+02 -1.113664E+01 +6.382993E-01 -1.113664E+01 +8.945758E+02 
 +3.735622E+02 -1.389876E+01 -1.563429E+00 -1.389876E+01 +3.857764E+02 -1.666669E+00 -1.563429E+00 -1.666669E+00 +9.246338E+02 
 +3.689121E+02 -1.678615E+01 -6.212741E+00 -1.678615E+01 +3.869714E+02 +4.096002E+00 -6.212741E+00 +4.096002E+00 +9.501465E+02 
 +3.700666E+02 -5.427760E+00 -9.664751E+00 -5.427760E+00 +3.843815E+02 -3.371669E+00 -9.664751E+00 -3.371669E+00 +9.322582E+02 
 +3.760237E+02 +4.676474E+00 -1.227529E+01 +4.676474E+00 +3.795695E+02 -5.946557E+00 -1.227529E+01 -5.946557E+00 +9.238889E+02 
 +3.597813E+02 +2.507535E+00 -1.318630E+01 +2.507535E+00 +3.816229E+02 -7.595176E-01 -1.318630E+01 -7.595176E-01 +9.454721E+02 
 +3.199656E+02 -3.350840E+00 -7.538844E-01 -3.350840E+00 +3.799305E+02 +4.745536E+00 -7.538844E-01 +4.745536E+00 +9.508010E+02 
 +3.807336E+02 +1.974143E+01 -9.202847E+00 +1.974143E+01 +4.051690E+02 +1.840564E+00 -9.202847E+00 +1.840564E+00 +9.473777E+02 
 +4.010833E+02 +2.346554E+01 -1.570825E+01 +2.346554E+01 +3.960551E+02 +1.159348E+00 -1.570825E+01 +1.159348E+00 +9.324011E+02 
 +4.009794E+02 +2.066616E+01 -1.652347E+01 +2.066616E+01 +3.908150E+02 -1.506042E+00 -1.652347E+01 -1.506042E+00 +9.364229E+02 
 +3.769414E+02 +1.596867E+01 -9.912778E+00 +1.596867E+01 +3.858475E+02 +1.949828E-01 -9.912778E+00 +1.949828E-01 +9.492379E+02 
 +3.742282E+02 +4.275127E+00 -3.824922E+00 +4.275127E+00 +4.055747E+02 +7.124248E-01 -3.824922E+00 +7.124248E-01 +9.649342E+02 
 +3.464847E+02 -1.983988E+00 +1.284062E+01 -1.983988E+00 +4.017432E+02 +3.911286E+00 +1.284062E+01 +3.911286E+00 +9.480281E+02 
 +3.374038E+02 +2.723521E-01 +1.163358E+01 +2.723521E-01 +3.902334E+02 +6.179780E+00 +1.163358E+01 +6.179780E+00 +9.515905E+02 
 +3.324007E+02 +2.906076E+00 +7.214530E+00 +2.906076E+00 +3.776524E+02 +3.703277E+00 +7.214530E+00 +3.703277E+00 +9.554490E+02 
 +3.344830E+02 +7.316238E+00 +2.472351E+00 +7.316238E+00 +3.671022E+02 +1.368370E+00 +2.472351E+00 +1.368370E+00 +9.479138E+02 
 +3.481757E+02 +8.383898E+00 -2.709009E+00 +8.383898E+00 +3.628496E+02 +5.796718E+00 -2.709009E+00 +5.796718E+00 +9.334037E+02 
 +4.214719E+02 +4.376080E+00 -2.051339E+01 +4.376080E+00 +3.898687E+02 +1.135996E+01 -2.051339E+01 +1.135996E+01 +9.381839E+02 
 +4.155950E+02 +7.637725E+00 -2.238895E+01 +7.637725E+00 +3.832713E+02 +9.147803E+00 -2.238895E+01 +9.147803E+00 +9.229088E+02 
 +4.067308E+02 +9.584790E+00 -2.256064E+01 +9.584790E+00 +3.858837E+02 +1.184363E+00 -2.256064E+01 +1.184363E+00 +9.235176E+02 
 +3.700213E+02 +6.005398E+00 -2.194389E+00 +6.005398E+00 +3.778606E+02 +9.262904E+00 -2.194389E+00 +9.262904E+00 +9.175242E+02 
 +3.604488E+02 +2.290290E+00 +2.163002E+00 +2.290290E+00 +3.793874E+02 +6.633467E+00 +2.163002E+00 +6.633467E+00 +9.213540E+02 
 +3.607077E+02 -5.244232E-01 +1.404086E+00 -5.244232E-01 +3.838530E+02 +8.540199E-01 +1.404086E+00 +8.540199E-01 +9.439557E+02 
 +3.756010E+02 -8.906174E+00 -7.107952E+00 -8.906174E+00 +3.856606E+02 -8.845085E-01 -7.107952E+00 -8.845085E-01 +9.486549E+02 
 +4.081797E+02 -1.069013E+00 -1.115235E+01 -1.069013E+00 +3.950578E+02 -7.280139E+00 -1.115235E+01 -7.280139E+00 +9.280846E+02 
 +3.884468E+02 -9.660061E+00 -9.578234E+00 -9.660061E+00 +3.823409E+02 -1.036848E+01 -9.578234E+00 -1.036848E+01 +9.248642E+02 
 +3.361033E+02 -2.279042E+01 -9.235468E+00 -2.279042E+01 +3.595549E+02 -6.904046E+00 -9.235468E+00 -6.904046E+00 +9.403458E+02 
 +3.215718E+02 -2.054043E+01 +1.942154E+00 -2.054043E+01 +3.744088E+02 -4.916392E+00 +1.942154E+00 -4.916392E+00 +9.473831E+02 
 +3.786755E+02 +4.188983E+00 -7.097565E+00 +4.188983E+00 +4.028996E+02 -9.141433E-01 -7.097565E+00 -9.141433E-01 +9.434899E+02 
 +4.074914E+02 +1.453266E+01 -1.631876E+01 +1.453266E+01 +4.001155E+02 +5.190566E+00 -1.631876E+01 +5.190566E+00 +9.290208E+02 
 +4.080256E+02 +1.155842E+01 -1.714196E+01 +1.155842E+01 +4.027439E+02 +2.551039E+00 -1.714196E+01 +2.551039E+00 +9.367460E+02 
 +3.907054E+02 +1.049564E+01 -1.324107E+01 +1.049564E+01 +4.042456E+02 -3.510656E+00 -1.324107E+01 -3.510656E+00 +9.574928E+02 
 +3.887891E+02 +3.577800E+00 -1.079047E+01 +3.577800E+00 +4.112311E+02 -1.292904E+00 -1.079047E+01 -1.292904E+00 +9.637635E+02 
 +3.360605E+02 -6.480169E+00 +5.052028E+00 -6.480169E+00 +3.889408E+02 +8.192598E+00 +5.052028E+00 +8.192598E+00 +9.374290E+02 
 +3.359164E+02 -6.609319E+00 +6.894127E+00 -6.609319E+00 +3.912507E+02 +8.067544E+00 +6.894127E+00 +8.067544E+00 +9.520793E+02 
 +3.360468E+02 -1.718362E+00 +4.169900E+00 -1.718362E+00 +3.750969E+02 +5.796809E+00 +4.169900E+00 +5.796809E+00 +9.578485E+02 
 +3.340250E+02 +4.118278E+00 +7.036754E-01 +4.118278E+00 +3.615008E+02 +5.621257E+00 +7.036754E-01 +5.621257E+00 +9.494339E+02 
 +3.301209E+02 +1.065228E+01 +2.130667E+00 +1.065228E+01 +3.508593E+02 +5.982665E+00 +2.130667E+00 +5.982665E+00 +9.347952E+02 
 +4.109488E+02 +1.003486E+01 -1.954077E+01 +1.003486E+01 +3.859088E+02 +5.668430E+00 -1.954077E+01 +5.668430E+00 +9.444440E+02 
 +4.151623E+02 +9.803345E+00 -1.931505E+01 +9.803345E+00 +3.839118E+02 -8.344684E-01 -1.931505E+01 -8.344684E-01 +9.212592E+02 
 +4.069993E+02 +7.110169E+00 -1.727329E+01 +7.110169E+00 +3.874074E+02 +1.478037E+00 -1.727329E+01 +1.478037E+00 +9.213088E+02 
 +3.744894E+02 +6.780656E+00 +4.180066E+00 +6.780656E+00 +3.793727E+02 +1.472629E+01 +4.180066E+00 +1.472629E+01 +9.335446E+02 
 +3.703004E+02 +3.431756E+00 -5.836617E-01 +3.431756E+00 +3.821972E+02 +8.910042E+00 -5.836617E-01 +8.910042E+00 +9.428799E+02 
 +3.632535E+02 +3.876848E+00 -3.505496E+00 +3.876848E+00 +3.806130E+02 +5.759058E+00 -3.505496E+00 +5.759058E+00 +9.472748E+02 
 +3.672246E+02 +2.698564E+00 -6.984364E+00 +2.698564E+00 +3.863511E+02 +2.825614E+00 -6.984364E+00 +2.825614E+00 +9.380477E+02 
 +4.107207E+02 -3.096131E+00 -1.220342E+01 -3.096131E+00 +4.043386E+02 -8.110732E+00 -1.220342E+01 -8.110732E+00 +9.363985E+02 
 +3.532115E+02 -2.340479E+01 -7.776844E+00 -2.340479E+01 +3.705079E+02 -1.036889E+01 -7.776844E+00 -1.036889E+01 +9.343100E+02 
 +3.182547E+02 -3.167884E+01 -8.329047E+00 -3.167884E+01 +3.502735E+02 -7.244721E+00 -8.329047E+00 -7.244721E+00 +9.431140E+02 
 +3.477553E+02 -1.874954E+01 -4.957978E+00 -1.874954E+01 +3.730076E+02 -5.021240E+00 -4.957978E+00 -5.021240E+00 +9.559019E+02 
 +3.803614E+02 -1.914140E+01 -1.086339E+01 -1.914140E+01 +3.987521E+02 -1.337252E+00 -1.086339E+01 -1.337252E+00 +9.553687E+02 
 +4.171268E+02 -4.237848E+00 -1.656383E+01 -4.237848E+00 +4.072897E+02 +4.498535E+00 -1.656383E+01 +4.498535E+00 +9.378382E+02 
 +4.355244E+02 +3.834870E+00 -2.031828E+01 +3.834870E+00 +4.235148E+02 +6.511208E+00 -2.031828E+01 +6.511208E+00 +9.475030E+02 
 +4.110185E+02 +7.125374E+00 -1.611083E+01 +7.125374E+00 +4.198682E+02 -7.914033E-01 -1.611083E+01 -7.914033E-01 +9.637012E+02 
 +3.934045E+02 -2.112248E+00 -1.370226E+01 -2.112248E+00 +4.071564E+02 +5.445408E+00 -1.370226E+01 +5.445408E+00 +9.640999E+02 
 +3.614772E+02 -1.720511E+00 -8.853667E+00 -1.720511E+00 +3.972565E+02 +1.356967E+01 -8.853667E+00 +1.356967E+01 +9.556440E+02 
 +3.451829E+02 -6.259811E+00 -6.428036E+00 -6.259811E+00 +3.881720E+02 +9.993190E+00 -6.428036E+00 +9.993190E+00 +9.556110E+02 
 +3.255158E+02 -4.571314E-01 -2.890587E+00 -4.571314E-01 +3.692808E+02 +7.314190E+00 -2.890587E+00 +7.314190E+00 +9.508800E+02 
 +3.281211E+02 -8.349512E-01 -2.921359E+00 -8.349512E-01 +3.583558E+02 +7.114236E+00 -2.921359E+00 +7.114236E+00 +9.474402E+02 
 +3.454677E+02 +7.849161E+00 -2.228912E+00 +7.849161E+00 +3.458011E+02 +9.587385E+00 -2.228912E+00 +9.587385E+00 +9.464171E+02 
 +3.774292E+02 +1.571513E+01 -1.363068E+01 +1.571513E+01 +3.597606E+02 +1.355016E+01 -1.363068E+01 +1.355016E+01 +9.431090E+02 
 +3.931063E+02 +1.393174E+01 -9.729173E+00 +1.393174E+01 +3.738214E+02 +1.824897E+01 -9.729173E+00 +1.824897E+01 +9.258537E+02 
 +3.940945E+02 +7.521819E+00 -1.971009E+00 +7.521819E+00 +3.810930E+02 +2.012960E+01 -1.971009E+00 +2.012960E+01 +9.260993E+02 
 +3.852562E+02 +9.388755E+00 +5.064491E+00 +9.388755E+00 +3.848897E+02 +1.391872E+01 +5.064491E+00 +1.391872E+01 +9.452801E+02 
 +3.818080E+02 +4.638586E+00 +5.269732E-01 +4.638586E+00 +3.826221E+02 +1.364855E+01 +5.269732E-01 +1.364855E+01 +9.510125E+02 
 +3.653075E+02 +6.224072E+00 -6.544296E+00 +6.224072E+00 +3.771760E+02 +9.816693E+00 -6.544296E+00 +9.816693E+00 +9.521752E+02 
 +3.658497E+02 +7.366706E-01 -7.008019E+00 +7.366706E-01 +3.896866E+02 +5.612575E+00 -7.008019E+00 +5.612575E+00 +9.430782E+02 
 +3.537521E+02 -1.652033E+01 -8.768806E+00 -1.652033E+01 +3.732865E+02 -2.894628E+00 -8.768806E+00 -2.894628E+00 +9.242954E+02 
 +3.287403E+02 -2.114981E+01 -8.330285E+00 -2.114981E+01 +3.524584E+02 -6.554577E+00 -8.330285E+00 -6.554577E+00 +9.326672E+02 
 +3.472255E+02 -2.280123E+01 -6.011490E+00 -2.280123E+01 +3.707295E+02 -5.612261E+00 -6.011490E+00 -5.612261E+00 +9.529626E+02 
 +3.648106E+02 +3.361736E+00 -4.830561E+00 +3.361736E+00 +3.796132E+02 -7.978348E+00 -4.830561E+00 -7.978348E+00 +9.547758E+02 
 +3.713271E+02 +3.889372E+00 -7.054267E+00 +3.889372E+00 +3.879690E+02 -5.956636E+00 -7.054267E+00 -5.956636E+00 +9.527838E+02 
 +3.894273E+02 +4.966064E+00 -8.236450E+00 +4.966064E+00 +3.976199E+02 +5.624063E-01 -8.236450E+00 +5.624063E-01 +9.427402E+02 
 +4.267934E+02 -5.364583E+00 -1.326893E+01 -5.364583E+00 +4.200236E+02 +3.852207E+00 -1.326893E+01 +3.852207E+00 +9.567123E+02 
 +4.113352E+02 -2.934675E+01 -8.037861E+00 -2.934675E+01 +4.028885E+02 +6.971410E+00 -8.037861E+00 +6.971410E+00 +9.702585E+02 
 +3.881315E+02 -3.218612E+01 -7.071609E+00 -3.218612E+01 +3.708529E+02 +1.101309E+01 -7.071609E+00 +1.101309E+01 +9.726753E+02 
 +3.708504E+02 -2.905414E+01 -9.068267E+00 -2.905414E+01 +3.522663E+02 +9.577159E+00 -9.068267E+00 +9.577159E+00 +9.675572E+02 
 +3.636522E+02 -2.909155E+01 -1.174953E+01 -2.909155E+01 +3.555784E+02 +9.609582E+00 -1.174953E+01 +9.609582E+00 +9.641985E+02 
 +3.449533E+02 -2.974351E+00 -8.565755E+00 -2.974351E+00 +3.699908E+02 +1.370878E+01 -8.565755E+00 +1.370878E+01 +9.638134E+02 
 +3.467020E+02 +1.303444E-01 -9.349821E+00 +1.303444E-01 +3.677145E+02 +1.590709E+01 -9.349821E+00 +1.590709E+01 +9.676739E+02 
 +3.133731E+02 +2.729307E+00 -6.427181E+00 +2.729307E+00 +3.196597E+02 +1.822775E+01 -6.427181E+00 +1.822775E+01 +9.420929E+02 
 +3.548432E+02 +1.416748E+01 -3.320884E+00 +1.416748E+01 +3.452575E+02 +1.813469E+01 -3.320884E+00 +1.813469E+01 +9.399315E+02 
 +3.855071E+02 +1.040848E+01 +6.908397E-01 +1.040848E+01 +3.804420E+02 +1.633893E+01 +6.908397E-01 +1.633893E+01 +9.374742E+02 
 +3.820706E+02 +9.463032E+00 +5.645463E+00 +9.463032E+00 +3.793218E+02 +1.392157E+01 +5.645463E+00 +1.392157E+01 +9.355975E+02 
 +3.816318E+02 +6.828364E+00 +9.740422E+00 +6.828364E+00 +3.811074E+02 +9.411203E+00 +9.740422E+00 +9.411203E+00 +9.567960E+02 
 +3.681375E+02 -1.219198E+00 +2.307061E+00 -1.219198E+00 +3.579719E+02 +7.023085E+00 +2.307061E+00 +7.023085E+00 +9.491389E+02 
 +3.666436E+02 +6.456320E+00 -5.519241E+00 +6.456320E+00 +3.795707E+02 +6.366268E+00 -5.519241E+00 +6.366268E+00 +9.547486E+02 
 +3.659438E+02 -1.140765E-01 -6.139550E+00 -1.140765E-01 +3.924844E+02 +9.210990E+00 -6.139550E+00 +9.210990E+00 +9.502684E+02 
 +3.405109E+02 -1.696180E+01 -6.908248E+00 -1.696180E+01 +3.634553E+02 +1.901308E+00 -6.908248E+00 +1.901308E+00 +9.313213E+02 
 +3.430289E+02 +3.672892E-02 -8.358491E+00 +3.672892E-02 +3.536056E+02 -9.672638E+00 -8.358491E+00 -9.672638E+00 +9.418598E+02 
 +3.585384E+02 -1.345142E+00 -2.924116E+00 -1.345142E+00 +3.712942E+02 -1.041734E+01 -2.924116E+00 -1.041734E+01 +9.554125E+02 
 +3.687038E+02 +5.234586E+00 -2.180241E+00 +5.234586E+00 +3.825098E+02 -9.386923E+00 -2.180241E+00 -9.386923E+00 +9.563385E+02 
 +3.647447E+02 +4.258861E+00 -4.254867E-01 +4.258861E+00 +3.831829E+02 -3.780471E+00 -4.254867E-01 -3.780471E+00 +9.563915E+02 
 +3.595144E+02 +7.637921E+00 +2.449412E+00 +7.637921E+00 +3.877575E+02 +3.509774E-01 +2.449412E+00 +3.509774E-01 +9.533651E+02 
 +3.731799E+02 +1.269747E+01 +2.008671E+00 +1.269747E+01 +3.938976E+02 +3.177020E+00 +2.008671E+00 +3.177020E+00 +9.600162E+02 
 +4.150353E+02 -2.142229E+01 +2.642301E+00 -2.142229E+01 +4.006020E+02 +7.716079E+00 +2.642301E+00 +7.716079E+00 +9.894884E+02 
 +4.003692E+02 -1.880639E+01 -6.239953E-01 -1.880639E+01 +3.722704E+02 +1.041495E+01 -6.239953E-01 +1.041495E+01 +9.899964E+02 
 +3.919658E+02 -2.248434E+01 -1.647618E+00 -2.248434E+01 +3.590251E+02 +1.180797E+01 -1.647618E+00 +1.180797E+01 +9.873931E+02 
 +3.887307E+02 -2.664285E+01 -2.821023E+00 -2.664285E+01 +3.577709E+02 +1.287509E+01 -2.821023E+00 +1.287509E+01 +9.878100E+02 
 +3.636833E+02 -2.488627E+01 -1.902975E+00 -2.488627E+01 +3.305762E+02 +1.134490E+01 -1.902975E+00 +1.134490E+01 +9.776553E+02 
 +3.357778E+02 -2.669582E+01 -7.048993E+00 -2.669582E+01 +3.162859E+02 +1.186210E+01 -7.048993E+00 +1.186210E+01 +9.688627E+02 
 +2.833875E+02 -2.332424E+01 -4.197800E+00 -2.332424E+01 +2.961539E+02 +8.925361E+00 -4.197800E+00 +8.925361E+00 +9.423080E+02 
 +3.476678E+02 +2.153638E+01 +7.018778E-01 +2.153638E+01 +3.324622E+02 +4.932384E+00 +7.018778E-01 +4.932384E+00 +9.515416E+02 
 +3.748935E+02 +1.253741E+01 +4.811703E+00 +1.253741E+01 +3.642537E+02 +9.797714E+00 +4.811703E+00 +9.797714E+00 +9.466960E+02 
 +3.982709E+02 +1.388720E+01 +1.148126E+01 +1.388720E+01 +3.976877E+02 +1.249315E+01 +1.148126E+01 +1.249315E+01 +9.585577E+02 
 +3.635170E+02 +6.188730E+00 +1.147640E+01 +6.188730E+00 +3.776623E+02 -5.589245E+00 +1.147640E+01 -5.589245E+00 +9.653221E+02 
 +3.700479E+02 +5.929824E+00 +3.780823E+00 +5.929824E+00 +3.932970E+02 -5.044906E+00 +3.780823E+00 -5.044906E+00 +9.731100E+02 
 +3.856745E+02 +1.139000E+01 -3.160746E+00 +1.139000E+01 +4.051819E+02 +3.340691E+00 -3.160746E+00 +3.340691E+00 +9.677319E+02 
 +3.985269E+02 +3.350792E+00 -1.233642E+01 +3.350792E+00 +4.034536E+02 +4.162476E+00 -1.233642E+01 +4.162476E+00 +9.612721E+02 
 +3.554384E+02 -1.066953E+01 -1.339884E+01 -1.066953E+01 +3.699927E+02 -1.110531E+01 -1.339884E+01 -1.110531E+01 +9.431922E+02 
 +3.473041E+02 -5.564714E-01 -8.076846E+00 -5.564714E-01 +3.625009E+02 -1.864920E+01 -8.076846E+00 -1.864920E+01 +9.504451E+02 
 +3.492881E+02 -4.617235E+00 -2.938397E+00 -4.617235E+00 +3.637378E+02 -1.427713E+01 -2.938397E+00 -1.427713E+01 +9.577610E+02 
 +3.535277E+02 +2.649123E+00 +2.248186E+00 +2.649123E+00 +3.682107E+02 -1.264565E+01 +2.248186E+00 -1.264565E+01 +9.602190E+02 
 +3.543735E+02 +8.631417E+00 +8.375687E+00 +8.631417E+00 +3.747970E+02 -6.827439E+00 +8.375687E+00 -6.827439E+00 +9.635268E+02 
 +3.554783E+02 +1.024929E+01 +1.125261E+01 +1.024929E+01 +3.882097E+02 -2.463514E+00 +1.125261E+01 -2.463514E+00 +9.670035E+02 
 +3.641848E+02 +8.968622E+00 +1.575399E+01 +8.968622E+00 +3.830073E+02 +3.782669E+00 +1.575399E+01 +3.782669E+00 +9.755260E+02 
 +3.967230E+02 -1.794094E+01 +1.132874E+01 -1.794094E+01 +3.764914E+02 +1.231182E+01 +1.132874E+01 +1.231182E+01 +9.912839E+02 
 +4.042542E+02 -1.117893E+01 +4.994130E+00 -1.117893E+01 +3.760830E+02 +1.555115E+01 +4.994130E+00 +1.555115E+01 +9.932254E+02 
 +3.914123E+02 -1.846508E+01 +2.412295E+00 -1.846508E+01 +3.607143E+02 +1.536538E+01 +2.412295E+00 +1.536538E+01 +9.857094E+02 
 +3.809137E+02 -1.569068E+01 -2.275858E-03 -1.569068E+01 +3.463286E+02 +1.549878E+01 -2.275858E-03 +1.549878E+01 +9.791436E+02 
 +3.797844E+02 -2.126037E+01 +3.294076E+00 -2.126037E+01 +3.478756E+02 +1.727252E+01 +3.294076E+00 +1.727252E+01 +9.861102E+02 
 +3.562286E+02 -1.266455E+01 +2.200867E+00 -1.266455E+01 +3.459907E+02 +1.757002E+01 +2.200867E+00 +1.757002E+01 +9.820358E+02 
 +3.204715E+02 -2.336961E+01 +4.897582E+00 -2.336961E+01 +3.270719E+02 +1.232676E+01 +4.897582E+00 +1.232676E+01 +9.588488E+02 
 +3.663736E+02 +3.050949E+01 +7.997226E+00 +3.050949E+01 +3.420350E+02 +5.268954E+00 +7.997226E+00 +5.268954E+00 +9.675226E+02 
 +3.643541E+02 +2.640721E+01 +1.287463E+01 +2.640721E+01 +3.339965E+02 -1.253335E+00 +1.287463E+01 -1.253335E+00 +9.540690E+02 
 +3.850866E+02 +3.652932E+01 +1.843752E+01 +3.652932E+01 +3.638412E+02 -3.108766E+00 +1.843752E+01 -3.108766E+00 +9.608971E+02 
 +3.354326E+02 +7.946972E-01 +1.008100E+01 +7.946972E-01 +3.598501E+02 +6.054707E-01 +1.008100E+01 +6.054707E-01 +9.578941E+02 
 +3.580971E+02 +3.957960E+00 +4.096506E+00 +3.957960E+00 +3.997703E+02 -3.237606E+00 +4.096506E+00 -3.237606E+00 +9.737398E+02 
 +3.878363E+02 -4.876082E-01 -5.180745E+00 -4.876082E-01 +4.035345E+02 -4.250142E+00 -5.180745E+00 -4.250142E+00 +9.701393E+02 
 +4.104631E+02 -1.277055E+01 -1.639859E+01 -1.277055E+01 +3.838097E+02 -5.239610E+00 -1.639859E+01 -5.239610E+00 +9.623030E+02 
 +3.829092E+02 -2.151754E+01 -1.254453E+01 -2.151754E+01 +3.734678E+02 -1.326017E+01 -1.254453E+01 -1.326017E+01 +9.519311E+02 
 +3.424441E+02 -6.765550E-01 +1.891305E+00 -6.765550E-01 +3.643894E+02 -2.053834E+01 +1.891305E+00 -2.053834E+01 +9.484048E+02 
 +3.351167E+02 -1.017075E+00 +4.805008E+00 -1.017075E+00 +3.557959E+02 -1.965965E+01 +4.805008E+00 -1.965965E+01 +9.542277E+02 
 +3.338621E+02 +2.800470E+00 +1.084984E+01 +2.800470E+00 +3.503914E+02 -1.831348E+01 +1.084984E+01 -1.831348E+01 +9.532344E+02 
 +3.429539E+02 +9.739272E+00 +2.020907E+01 +9.739272E+00 +3.696243E+02 -1.404298E+01 +2.020907E+01 -1.404298E+01 +9.626840E+02 
 +3.569949E+02 +9.952632E+00 +2.668327E+01 +9.952632E+00 +3.788047E+02 -6.790051E+00 +2.668327E+01 -6.790051E+00 +9.751939E+02 
 +3.701238E+02 +4.088566E+00 +2.865723E+01 +4.088566E+00 +3.525177E+02 +2.397262E+00 +2.865723E+01 +2.397262E+00 +9.799173E+02 
 +3.800484E+02 -2.518734E+00 +2.229762E+01 -2.518734E+00 +3.519755E+02 +9.194983E+00 +2.229762E+01 +9.194983E+00 +9.835757E+02 
 +3.933151E+02 +3.859599E-03 +1.628442E+01 +3.859599E-03 +3.692176E+02 +1.432768E+01 +1.628442E+01 +1.432768E+01 +9.886956E+02 
 +3.952525E+02 -9.071570E+00 +7.941412E+00 -9.071570E+00 +3.676493E+02 +1.500513E+01 +7.941412E+00 +1.500513E+01 +9.848555E+02 
 +4.128052E+02 +1.635471E+00 +9.331073E-01 +1.635471E+00 +3.882969E+02 +1.006167E+01 +9.331073E-01 +1.006167E+01 +9.863329E+02 
 +3.833972E+02 -9.569107E+00 +5.171245E+00 -9.569107E+00 +3.852863E+02 +1.632028E+01 +5.171245E+00 +1.632028E+01 +9.877151E+02 
 +3.461174E+02 -1.218536E+01 +5.492316E+00 -1.218536E+01 +3.440402E+02 +1.680383E+01 +5.492316E+00 +1.680383E+01 +9.750779E+02 
 +3.383069E+02 -1.927191E+01 +8.092205E+00 -1.927191E+01 +3.356205E+02 +1.189157E+01 +8.092205E+00 +1.189157E+01 +9.562107E+02 
 +3.869598E+02 +1.962649E+01 +9.148617E+00 +1.962649E+01 +3.642792E+02 +8.157815E+00 +9.148617E+00 +8.157815E+00 +9.687970E+02 
 +3.712096E+02 +1.683627E+01 +1.206351E+01 +1.683627E+01 +3.422410E+02 +3.852908E+00 +1.206351E+01 +3.852908E+00 +9.619036E+02 
 +3.750201E+02 +3.101633E+01 +1.455318E+01 +3.101633E+01 +3.573327E+02 +3.837519E+00 +1.455318E+01 +3.837519E+00 +9.665965E+02 
 +3.443975E+02 -2.079926E+00 +4.563334E+00 -2.079926E+00 +3.765628E+02 +7.358787E+00 +4.563334E+00 +7.358787E+00 +9.706052E+02 
 +3.616608E+02 -2.428514E+00 +1.874282E+00 -2.428514E+00 +3.856912E+02 +1.354824E+00 +1.874282E+00 +1.354824E+00 +9.727557E+02 
 +3.831022E+02 -5.376197E+00 -4.511204E+00 -5.376197E+00 +3.664869E+02 -1.244283E+00 -4.511204E+00 -1.244283E+00 +9.632693E+02 
 +3.907506E+02 -7.223751E+00 -8.654126E+00 -7.223751E+00 +3.667173E+02 -1.920185E+00 -8.654126E+00 -1.920185E+00 +9.556063E+02 
 +4.054921E+02 -1.987770E+01 -6.599032E+00 -1.987770E+01 +3.970195E+02 -1.141688E+01 -6.599032E+00 -1.141688E+01 +9.649163E+02 
 +3.514132E+02 -2.827723E+01 +6.272179E+00 -2.827723E+01 +3.818260E+02 -1.933461E+01 +6.272179E+00 -1.933461E+01 +9.566915E+02 
 +3.294981E+02 -3.327990E+01 +1.025166E+01 -3.327990E+01 +3.637656E+02 -1.516992E+01 +1.025166E+01 -1.516992E+01 +9.555707E+02 
 +3.431779E+02 -1.705050E+01 +1.496143E+01 -1.705050E+01 +3.701604E+02 -1.104511E+01 +1.496143E+01 -1.104511E+01 +9.619703E+02 
 +3.356956E+02 -1.614194E+00 +2.039310E+01 -1.614194E+00 +3.573427E+02 -1.282437E+01 +2.039310E+01 -1.282437E+01 +9.591490E+02 
 +3.705062E+02 -7.366238E+00 +2.903506E+01 -7.366238E+00 +3.443121E+02 -7.239042E+00 +2.903506E+01 -7.239042E+00 +9.719992E+02 
 +3.760522E+02 -6.824252E+00 +2.458198E+01 -6.824252E+00 +3.327512E+02 +3.376738E+00 +2.458198E+01 +3.376738E+00 +9.768377E+02 
 +3.841890E+02 -3.948037E+00 +2.266337E+01 -3.948037E+00 +3.452802E+02 +7.276402E+00 +2.266337E+01 +7.276402E+00 +9.832335E+02 
 +3.851936E+02 -3.165160E-01 +1.893430E+01 -3.165160E-01 +3.523907E+02 +1.041553E+01 +1.893430E+01 +1.041553E+01 +9.818257E+02 
 +3.960534E+02 -2.886520E+00 +1.129813E+01 -2.886520E+00 +3.662588E+02 +1.397398E+01 +1.129813E+01 +1.397398E+01 +9.809515E+02 
 +3.938922E+02 -6.343566E-01 +8.253206E+00 -6.343566E-01 +3.585212E+02 +1.629073E+01 +8.253206E+00 +1.629073E+01 +9.724530E+02 
 +3.670055E+02 -2.104820E+00 +8.839257E+00 -2.104820E+00 +3.439156E+02 +1.288534E+01 +8.839257E+00 +1.288534E+01 +9.689954E+02 
 +3.279869E+02 -2.026464E+00 +3.905132E+00 -2.026464E+00 +3.334733E+02 +5.089445E+00 +3.905132E+00 +5.089445E+00 +9.602865E+02 
 +3.437972E+02 +7.617288E+00 +5.604821E+00 +7.617288E+00 +3.511651E+02 +2.118966E+00 +5.604821E+00 +2.118966E+00 +9.549607E+02 
 +3.730580E+02 +1.810186E+01 +5.753769E+00 +1.810186E+01 +3.756031E+02 +3.482648E+00 +5.753769E+00 +3.482648E+00 +9.629067E+02 
 +3.750545E+02 +1.626161E+01 +6.475353E+00 +1.626161E+01 +3.833222E+02 +1.258938E+00 +6.475353E+00 +1.258938E+00 +9.741851E+02 
 +3.626631E+02 +1.938332E+01 +5.559741E+00 +1.938332E+01 +3.760144E+02 +3.452313E+00 +5.559741E+00 +3.452313E+00 +9.756705E+02 
 +3.462920E+02 +1.513916E+01 +6.838446E+00 +1.513916E+01 +3.719986E+02 +1.135935E+01 +6.838446E+00 +1.135935E+01 +9.746847E+02 
 +3.590508E+02 -2.226620E+00 +5.269860E+00 -2.226620E+00 +3.449487E+02 +8.176229E+00 +5.269860E+00 +8.176229E+00 +9.709718E+02 
 +3.800757E+02 -3.167108E+00 +1.290229E+00 -3.167108E+00 +3.572275E+02 +2.419584E+00 +1.290229E+00 +2.419584E+00 +9.643044E+02 
 +3.889133E+02 -8.372374E+00 -2.126741E+00 -8.372374E+00 +3.818651E+02 -3.955491E-01 -2.126741E+00 -3.955491E-01 +9.571385E+02 
 +3.898292E+02 -1.174345E+01 -5.109108E+00 -1.174345E+01 +3.943708E+02 -5.125221E+00 -5.109108E+00 -5.125221E+00 +9.584659E+02 
 +3.366440E+02 -1.930315E+01 +4.637190E+00 -1.930315E+01 +3.749856E+02 -1.121518E+01 +4.637190E+00 -1.121518E+01 +9.516585E+02 
 +3.285176E+02 -2.634019E+01 +1.036692E+01 -2.634019E+01 +3.663089E+02 -1.250588E+01 +1.036692E+01 -1.250588E+01 +9.578012E+02 
 +3.640341E+02 -4.270425E+00 +1.375071E+01 -4.270425E+00 +3.816045E+02 -8.710384E+00 +1.375071E+01 -8.710384E+00 +9.733750E+02 
 +3.567199E+02 +1.099602E-01 +1.141672E+01 +1.099602E-01 +3.572700E+02 -1.646870E+00 +1.141672E+01 -1.646870E+00 +9.656494E+02 
 +3.874074E+02 -6.956983E+00 +1.410570E+01 -6.956983E+00 +3.448442E+02 -1.336094E+00 +1.410570E+01 -1.336094E+00 +9.743052E+02 
 +3.856073E+02 -3.273857E+00 +1.118747E+01 -3.273857E+00 +3.393724E+02 -1.377711E+00 +1.118747E+01 -1.377711E+00 +9.769332E+02 
 +3.872592E+02 -4.343176E+00 +1.217077E+01 -4.343176E+00 +3.443570E+02 +4.109429E+00 +1.217077E+01 +4.109429E+00 +9.793608E+02 
 +3.897585E+02 -6.304311E+00 +9.172330E+00 -6.304311E+00 +3.451554E+02 +1.042491E+01 +9.172330E+00 +1.042491E+01 +9.760879E+02 
 +3.910140E+02 -6.527640E+00 +7.098502E+00 -6.527640E+00 +3.497900E+02 +1.446676E+01 +7.098502E+00 +1.446676E+01 +9.682731E+02 
 +3.941875E+02 -4.097494E+00 +9.343308E+00 -4.097494E+00 +3.514709E+02 +9.894064E+00 +9.343308E+00 +9.894064E+00 +9.664129E+02 
 +3.679338E+02 +5.275475E-01 +3.098008E+00 +5.275475E-01 +3.374725E+02 +1.177626E+00 +3.098008E+00 +1.177626E+00 +9.608592E+02 
 +3.277795E+02 -7.620937E+00 -3.611816E-01 -7.620937E+00 +3.492682E+02 -1.202425E-01 -3.611816E-01 -1.202425E-01 +9.565248E+02 
 +3.455537E+02 -8.737925E+00 +3.091418E+00 -8.737925E+00 +3.772306E+02 +2.787060E+00 +3.091418E+00 +2.787060E+00 +9.639864E+02 
 +3.478745E+02 +6.526115E+00 +6.943965E+00 +6.526115E+00 +3.667769E+02 +6.187801E+00 +6.943965E+00 +6.187801E+00 +9.622368E+02 
 +3.515729E+02 +1.828442E+01 +7.730440E+00 +1.828442E+01 +3.721483E+02 +7.644790E+00 +7.730440E+00 +7.644790E+00 +9.709561E+02 
 +3.560982E+02 +2.898395E+01 +4.546693E+00 +2.898395E+01 +3.880576E+02 +9.197024E+00 +4.546693E+00 +9.197024E+00 +9.781959E+02 
 +3.591834E+02 -1.136861E+01 +5.574746E+00 -1.136861E+01 +3.682419E+02 +1.193458E+01 +5.574746E+00 +1.193458E+01 +9.847113E+02 
 +3.484965E+02 -1.833470E+01 +6.279469E+00 -1.833470E+01 +3.387422E+02 +8.518973E+00 +6.279469E+00 +8.518973E+00 +9.738961E+02 
 +3.745412E+02 -5.841317E+00 -1.105515E+00 -5.841317E+00 +3.594527E+02 +5.838787E+00 -1.105515E+00 +5.838787E+00 +9.643367E+02 
 +3.930457E+02 -9.475823E+00 -7.244925E-01 -9.475823E+00 +3.842169E+02 -2.877565E-01 -7.244925E-01 -2.877565E-01 +9.576728E+02 
 +3.996899E+02 -9.343432E+00 -4.260105E+00 -9.343432E+00 +3.990599E+02 -3.168727E+00 -4.260105E+00 -3.168727E+00 +9.652068E+02 
 +3.514425E+02 -1.283805E+01 +5.937577E+00 -1.283805E+01 +3.850626E+02 -6.895840E+00 +5.937577E+00 -6.895840E+00 +9.610329E+02 
 +3.371913E+02 -2.236538E+01 +1.186908E+01 -2.236538E+01 +3.730463E+02 -1.015477E+01 +1.186908E+01 -1.015477E+01 +9.637389E+02 
 +3.532020E+02 +2.299677E+00 +1.300816E+01 +2.299677E+00 +3.562536E+02 -9.004368E+00 +1.300816E+01 -9.004368E+00 +9.649176E+02 
 +3.797653E+02 -3.976358E+00 +1.458831E+01 -3.976358E+00 +3.523493E+02 -5.115672E+00 +1.458831E+01 -5.115672E+00 +9.744943E+02 
 +3.929257E+02 -5.148334E+00 +9.578010E+00 -5.148334E+00 +3.569588E+02 -3.553651E+00 +9.578010E+00 -3.553651E+00 +9.907486E+02 
 +3.934503E+02 -1.615154E-01 +3.897929E+00 -1.615154E-01 +3.578321E+02 -1.322798E+00 +3.897929E+00 -1.322798E+00 +9.882113E+02 
 +3.884113E+02 -4.166733E+00 +3.393178E+00 -4.166733E+00 +3.511972E+02 +4.101202E+00 +3.393178E+00 +4.101202E+00 +9.750774E+02 
 +3.924144E+02 -6.290014E+00 +2.790264E+00 -6.290014E+00 +3.496883E+02 +6.565679E+00 +2.790264E+00 +6.565679E+00 +9.716178E+02 
 +4.040218E+02 -3.855004E+00 +1.464191E+00 -3.855004E+00 +3.517494E+02 +5.780218E+00 +1.464191E+00 +5.780218E+00 +9.684240E+02 
 +4.176955E+02 -5.923353E+00 +2.405967E+00 -5.923353E+00 +3.687937E+02 -1.562290E-01 +2.405967E+00 -1.562290E-01 +9.755380E+02 
 +3.444864E+02 -2.269397E+00 -8.497242E+00 -2.269397E+00 +3.522338E+02 -6.159792E+00 -8.497242E+00 -6.159792E+00 +9.621729E+02 
 +3.300454E+02 -5.268359E+00 -3.240314E+00 -5.268359E+00 +3.603493E+02 -4.611331E+00 -3.240314E+00 -4.611331E+00 +9.668318E+02 
 +3.400463E+02 -1.137799E+01 +1.252473E+00 -1.137799E+01 +3.802443E+02 -3.060675E-03 +1.252473E+00 -3.060675E-03 +9.719126E+02 
 +3.416977E+02 -5.384202E+00 +4.538733E+00 -5.384202E+00 +3.788431E+02 +5.648697E+00 +4.538733E+00 +5.648697E+00 +9.727835E+02 
 +3.468054E+02 +1.211487E+01 +5.429182E+00 +1.211487E+01 +3.715463E+02 +1.063126E+01 +5.429182E+00 +1.063126E+01 +9.741697E+02 
 +3.517667E+02 +2.126290E+01 +2.963340E+00 +2.126290E+01 +3.820123E+02 +1.406742E+01 +2.963340E+00 +1.406742E+01 +9.774129E+02 
 +3.604928E+02 -1.851302E+01 -6.313468E+00 -1.851302E+01 +3.648347E+02 +1.438460E+01 -6.313468E+00 +1.438460E+01 +9.855755E+02 
 +3.628173E+02 -2.286100E+01 -4.968006E+00 -2.286100E+01 +3.652966E+02 +5.481896E+00 -4.968006E+00 +5.481896E+00 +9.782702E+02 
 +3.910618E+02 +1.876385E+00 -1.225164E+01 +1.876385E+00 +3.638385E+02 -1.701019E+00 -1.225164E+01 -1.701019E+00 +9.686463E+02 
 +3.932514E+02 +5.977708E+00 -9.608086E+00 +5.977708E+00 +3.678818E+02 -7.430498E+00 -9.608086E+00 -7.430498E+00 +9.617488E+02 
 +3.774368E+02 -9.033808E+00 -2.617310E+00 -9.033808E+00 +3.683585E+02 -7.032378E+00 -2.617310E+00 -7.032378E+00 +9.672437E+02 
 +3.485615E+02 -1.738194E+01 +3.457915E+00 -1.738194E+01 +3.426430E+02 -4.347289E+00 +3.457915E+00 -4.347289E+00 +9.617632E+02 
 +3.496767E+02 -2.573104E+01 +8.097488E+00 -2.573104E+01 +3.502342E+02 -1.328685E+00 +8.097488E+00 -1.328685E+00 +9.704629E+02 
 +3.535650E+02 -2.342623E+00 +1.146434E+01 -2.342623E+00 +3.522566E+02 -8.828749E-01 +1.146434E+01 -8.828749E-01 +9.732349E+02 
 +3.906408E+02 -6.788699E+00 +2.274156E+01 -6.788699E+00 +3.581095E+02 -6.271229E+00 +2.274156E+01 -6.271229E+00 +9.863193E+02 
 +3.972625E+02 -6.080358E+00 +1.422816E+01 -6.080358E+00 +3.659629E+02 -8.735154E+00 +1.422816E+01 -8.735154E+00 +1.003028E+03 
 +3.923367E+02 -2.770608E+00 +1.018447E+00 -2.770608E+00 +3.652333E+02 -2.360238E+00 +1.018447E+00 -2.360238E+00 +9.917229E+02 
 +3.888916E+02 -6.038143E+00 +3.428071E-01 -6.038143E+00 +3.546413E+02 +3.563056E+00 +3.428071E-01 +3.563056E+00 +9.728071E+02 
 +3.907688E+02 -9.388548E+00 +7.234687E-01 -9.388548E+00 +3.468256E+02 +2.758346E+00 +7.234687E-01 +2.758346E+00 +9.689008E+02 
 +4.041623E+02 -1.002925E+01 -2.035458E+00 -1.002925E+01 +3.471965E+02 -2.405027E+00 -2.035458E+00 -2.405027E+00 +9.706646E+02 
 +4.186566E+02 -7.319833E+00 -2.491645E+00 -7.319833E+00 +3.661127E+02 -8.197233E+00 -2.491645E+00 -8.197233E+00 +9.858435E+02 
 +3.167253E+02 +1.405632E+00 -1.368265E+01 +1.405632E+00 +3.382874E+02 -8.984473E+00 -1.368265E+01 -8.984473E+00 +9.656440E+02 
 +3.302821E+02 -5.507440E+00 -2.451738E+00 -5.507440E+00 +3.666549E+02 -3.832966E+00 -2.451738E+00 -3.832966E+00 +9.794838E+02 
 +3.367824E+02 -1.170550E+01 +1.763399E+00 -1.170550E+01 +3.803553E+02 +1.231954E+00 +1.763399E+00 +1.231954E+00 +9.800857E+02 
 +3.287944E+02 -1.234987E+01 +3.519378E+00 -1.234987E+01 +3.799482E+02 +4.072098E+00 +3.519378E+00 +4.072098E+00 +9.784238E+02 
 +3.363929E+02 +8.835100E+00 +6.391699E+00 +8.835100E+00 +3.752126E+02 +1.141580E+01 +6.391699E+00 +1.141580E+01 +9.779595E+02 
 +3.438159E+02 +1.814697E+01 -3.012212E+00 +1.814697E+01 +3.601893E+02 +1.977508E+01 -3.012212E+00 +1.977508E+01 +9.755330E+02 
 +3.722843E+02 -8.949053E-01 -1.260077E+01 -8.949053E-01 +3.510483E+02 +1.236396E+01 -1.260077E+01 +1.236396E+01 +9.747830E+02 
 +3.786360E+02 +5.732174E+00 -1.321418E+01 +5.732174E+00 +3.593910E+02 -1.216437E+00 -1.321418E+01 -1.216437E+00 +9.702733E+02 
 +3.900773E+02 +1.774260E+01 -1.721535E+01 +1.774260E+01 +3.640331E+02 -5.551358E+00 -1.721535E+01 -5.551358E+00 +9.708267E+02 
 +3.736256E+02 +1.727466E+01 -1.688377E+01 +1.727466E+01 +3.504206E+02 -2.327851E+00 -1.688377E+01 -2.327851E+00 +9.687604E+02 
 +3.474326E+02 -5.527837E+00 -6.317960E+00 -5.527837E+00 +3.431455E+02 -3.959896E+00 -6.317960E+00 -3.959896E+00 +9.747428E+02 
 +3.572922E+02 -1.918476E+01 +3.476345E+00 -1.918476E+01 +3.491168E+02 -6.017233E+00 +3.476345E+00 -6.017233E+00 +9.785986E+02 
 +3.673337E+02 -3.040805E+01 +2.847081E+00 -3.040805E+01 +3.518771E+02 +3.616194E-01 +2.847081E+00 +3.616194E-01 +9.799391E+02 
 +3.667418E+02 -2.071903E+01 +8.603842E+00 -2.071903E+01 +3.425904E+02 -3.777460E-01 +8.603842E+00 -3.777460E-01 +9.769250E+02 
 +3.865137E+02 -1.087471E+01 +1.981743E+01 -1.087471E+01 +3.495162E+02 -7.850343E+00 +1.981743E+01 -7.850343E+00 +9.802060E+02 
 +3.974618E+02 -4.539195E+00 +1.517231E+01 -4.539195E+00 +3.698815E+02 -7.585091E+00 +1.517231E+01 -7.585091E+00 +9.969236E+02 
 +3.942461E+02 -4.881845E+00 +4.195770E+00 -4.881845E+00 +3.678326E+02 +8.038572E-01 +4.195770E+00 +8.038572E-01 +9.886085E+02 
 +3.878486E+02 -8.420948E+00 +1.587554E+00 -8.420948E+00 +3.517575E+02 +3.732370E+00 +1.587554E+00 +3.732370E+00 +9.696416E+02 
 +3.891056E+02 -8.976126E+00 +5.723503E-01 -8.976126E+00 +3.479918E+02 +3.991557E-01 +5.723503E-01 +3.991557E-01 +9.680247E+02 
 +3.907400E+02 -1.387783E+01 -4.912879E+00 -1.387783E+01 +3.403180E+02 -7.716808E+00 -4.912879E+00 -7.716808E+00 +9.706299E+02 
 +3.867162E+02 -5.248789E+00 -1.060397E+01 -5.248789E+00 +3.477974E+02 -1.472268E+01 -1.060397E+01 -1.472268E+01 +9.821262E+02 
 +3.204678E+02 -6.895254E-01 -1.562218E+01 -6.895254E-01 +3.500623E+02 -1.027324E+01 -1.562218E+01 -1.027324E+01 +9.752159E+02 
 +3.374641E+02 -1.098186E+01 -3.608018E+00 -1.098186E+01 +3.785101E+02 -2.296668E+00 -3.608018E+00 -2.296668E+00 +9.861593E+02 
 +3.358984E+02 -1.015890E+01 -6.799176E-01 -1.015890E+01 +3.794333E+02 +4.032058E-01 -6.799176E-01 +4.032058E-01 +9.841532E+02 
 +3.256142E+02 -1.153349E+01 -1.738329E+00 -1.153349E+01 +3.864237E+02 +1.279225E+00 -1.738329E+00 +1.279225E+00 +9.879730E+02 
 +3.085294E+02 -3.368283E+00 -5.464242E-01 -3.368283E+00 +3.590689E+02 +8.992195E+00 -5.464242E-01 +8.992195E+00 +9.748539E+02 
 +3.654571E+02 +1.316528E+01 -8.599059E+00 +1.316528E+01 +3.549279E+02 +1.905782E+01 -8.599059E+00 +1.905782E+01 +9.817769E+02 
 +4.118936E+02 +2.082980E+00 -6.557282E+00 +2.082980E+00 +3.699930E+02 -7.013118E+00 -6.557282E+00 -7.013118E+00 +1.000684E+03 
 +3.895943E+02 +6.163677E+00 -8.443701E+00 +6.163677E+00 +3.443324E+02 -4.687982E+00 -8.443701E+00 -4.687982E+00 +9.734586E+02 
 +3.779910E+02 +2.067733E+01 -8.317325E+00 +2.067733E+01 +3.451504E+02 +2.396173E+00 -8.317325E+00 +2.396173E+00 +9.652523E+02 
 +3.606192E+02 +3.075992E+01 -7.977160E+00 +3.075992E+01 +3.376580E+02 +7.750048E+00 -7.977160E+00 +7.750048E+00 +9.679037E+02 
 +3.525344E+02 +2.215878E+01 -1.001207E+01 +2.215878E+01 +3.372646E+02 +4.121718E+00 -1.001207E+01 +4.121718E+00 +9.918046E+02 
 +3.675978E+02 +1.268829E+01 -3.965817E+00 +1.268829E+01 +3.431507E+02 +3.779458E+00 -3.965817E+00 +3.779458E+00 +1.006762E+03 
 +3.648903E+02 +4.006650E+00 -5.012801E+00 +4.006650E+00 +3.316191E+02 +3.346350E+00 -5.012801E+00 +3.346350E+00 +9.887470E+02 
 +3.743165E+02 +1.254532E+01 +4.143129E+00 +1.254532E+01 +3.473464E+02 +1.062339E+00 +4.143129E+00 +1.062339E+00 +9.805917E+02 
 +3.875724E+02 +2.267360E+01 +7.119575E+00 +2.267360E+01 +3.612443E+02 +2.196984E+00 +7.119575E+00 +2.196984E+00 +9.688202E+02 
 +3.767673E+02 +1.660518E+01 +6.420206E+00 +1.660518E+01 +3.423679E+02 +6.158719E+00 +6.420206E+00 +6.158719E+00 +9.466241E+02 
 +3.749763E+02 -5.580894E+00 +4.216022E+00 -5.580894E+00 +3.367953E+02 +1.286266E+01 +4.216022E+00 +1.286266E+01 +9.502656E+02 
 +3.751392E+02 -1.361544E+01 +4.544654E+00 -1.361544E+01 +3.422120E+02 +1.169092E+01 +4.544654E+00 +1.169092E+01 +9.633715E+02 
 +3.800462E+02 -9.955996E+00 -3.685182E-01 -9.955996E+00 +3.409212E+02 +5.854687E+00 -3.685182E-01 +5.854687E+00 +9.650272E+02 
 +3.823650E+02 -9.669905E+00 -4.547424E+00 -9.669905E+00 +3.504832E+02 +3.454320E+00 -4.547424E+00 +3.454320E+00 +9.716307E+02 
 +3.187639E+02 +1.664872E+01 -1.155673E+01 +1.664872E+01 +3.465213E+02 -1.911768E+00 -1.155673E+01 -1.911768E+00 +9.663600E+02 
 +3.232947E+02 +1.330694E+01 -8.836664E+00 +1.330694E+01 +3.538579E+02 -1.211087E+01 -8.836664E+00 -1.211087E+01 +9.763245E+02 
 +3.238306E+02 +5.787695E+00 -4.653629E+00 +5.787695E+00 +3.567486E+02 -1.385686E+01 -4.653629E+00 -1.385686E+01 +9.783364E+02 
 +3.166804E+02 -7.679519E+00 +5.172726E+00 -7.679519E+00 +3.688782E+02 -5.172333E+00 +5.172726E+00 -5.172333E+00 +9.903366E+02 
 +3.357800E+02 -5.743418E+00 +6.404229E+00 -5.743418E+00 +3.728297E+02 -2.128110E+00 +6.404229E+00 -2.128110E+00 +1.002549E+03 
 +3.407235E+02 +1.869544E+01 +8.822321E+00 +1.869544E+01 +3.565299E+02 -4.784879E+00 +8.822321E+00 -4.784879E+00 +9.962049E+02 
 +3.809398E+02 +3.502163E+01 +2.419825E+00 +3.502163E+01 +3.697974E+02 -5.534745E+00 +2.419825E+00 -5.534745E+00 +1.005532E+03 
 +3.903188E+02 -1.119013E+01 -6.596540E+00 -1.119013E+01 +3.566475E+02 -1.544516E+01 -6.596540E+00 -1.544516E+01 +9.877995E+02 
 +3.784065E+02 -5.502082E+00 -5.922801E+00 -5.502082E+00 +3.283436E+02 -1.061009E+01 -5.922801E+00 -1.061009E+01 +9.609488E+02 
 +3.675618E+02 +4.039460E+00 -5.957392E+00 +4.039460E+00 +3.161850E+02 -2.512935E+00 -5.957392E+00 -2.512935E+00 +9.550155E+02 
 +3.701155E+02 +1.129301E+01 +2.835006E+00 +1.129301E+01 +3.190397E+02 +5.009756E+00 +2.835006E+00 +5.009756E+00 +9.767435E+02 
 +3.588890E+02 +9.090045E+00 -6.083118E+00 +9.090045E+00 +3.122010E+02 +9.505909E+00 -6.083118E+00 +9.505909E+00 +1.001935E+03 
 +3.658630E+02 +4.423661E+00 -7.752339E+00 +4.423661E+00 +3.255862E+02 +7.242770E+00 -7.752339E+00 +7.242770E+00 +1.007681E+03 
 +3.833962E+02 -5.147829E+00 -1.119839E+01 -5.147829E+00 +3.521734E+02 +7.092306E+00 -1.119839E+01 +7.092306E+00 +9.899189E+02 
 +3.782965E+02 +7.948909E+00 -1.773602E-01 +7.948909E+00 +3.618029E+02 +1.274965E+01 -1.773602E-01 +1.274965E+01 +9.647483E+02 
 +3.777050E+02 +2.019498E+01 +1.600915E+00 +2.019498E+01 +3.643205E+02 +6.696861E+00 +1.600915E+00 +6.696861E+00 +9.540834E+02 
 +3.595635E+02 +2.424852E+01 +4.837009E+00 +2.424852E+01 +3.471779E+02 +9.656356E+00 +4.837009E+00 +9.656356E+00 +9.475922E+02 
 +3.675788E+02 +4.541083E+00 +8.117546E+00 +4.541083E+00 +3.428274E+02 +1.710976E+01 +8.117546E+00 +1.710976E+01 +9.608569E+02 
 +3.716676E+02 -5.713350E+00 +8.487425E+00 -5.713350E+00 +3.410098E+02 +1.709541E+01 +8.487425E+00 +1.709541E+01 +9.648280E+02 
 +3.743242E+02 -1.442399E+01 +8.754191E+00 -1.442399E+01 +3.361768E+02 +1.348298E+01 +8.754191E+00 +1.348298E+01 +9.539879E+02 
 +3.754798E+02 -4.437951E+00 +4.434921E+00 -4.437951E+00 +3.631109E+02 +7.723347E+00 +4.434921E+00 +7.723347E+00 +9.608785E+02 
 +3.166775E+02 +1.637149E+01 -5.402530E+00 +1.637149E+01 +3.596660E+02 +9.822312E-01 -5.402530E+00 +9.822312E-01 +9.579827E+02 
 +3.073416E+02 +1.292002E+01 -3.513283E+00 +1.292002E+01 +3.483827E+02 -5.580118E+00 -3.513283E+00 -5.580118E+00 +9.640253E+02 
 +3.129969E+02 +1.096429E+01 +4.143173E+00 +1.096429E+01 +3.537507E+02 -7.130512E+00 +4.143173E+00 -7.130512E+00 +9.728235E+02 
 +3.182563E+02 +4.036807E+00 +1.022193E+01 +4.036807E+00 +3.516807E+02 -6.475209E+00 +1.022193E+01 -6.475209E+00 +9.880184E+02 
 +3.620193E+02 +1.285518E+01 +9.003561E+00 +1.285518E+01 +3.550408E+02 -1.039136E+01 +9.003561E+00 -1.039136E+01 +1.009282E+03 
 +3.598981E+02 +2.299121E+01 +8.849537E+00 +2.299121E+01 +3.534033E+02 -1.255523E+01 +8.849537E+00 -1.255523E+01 +1.006456E+03 
 +3.484077E+02 +2.775007E+01 +6.676158E-02 +2.775007E+01 +3.518009E+02 -1.349298E+01 +6.676158E-02 -1.349298E+01 +9.946498E+02 
 +3.819844E+02 -1.000626E+01 -8.936248E+00 -1.000626E+01 +3.673436E+02 -5.034405E+00 -8.936248E+00 -5.034405E+00 +9.824004E+02 
 +3.826431E+02 +6.617976E-01 +9.058282E-01 +6.617976E-01 +3.576827E+02 -5.744175E+00 +9.058282E-01 -5.744175E+00 +9.665988E+02 
 +3.658748E+02 +6.617845E+00 -3.932193E+00 +6.617845E+00 +3.256049E+02 +1.179778E+00 -3.932193E+00 +1.179778E+00 +9.515025E+02 
 +3.740987E+02 +9.105139E+00 +7.377979E+00 +9.105139E+00 +3.035879E+02 -6.769357E-01 +7.377979E+00 -6.769357E-01 +9.700698E+02 
 +3.787137E+02 +9.911706E+00 +1.487346E+00 +9.911706E+00 +3.174958E+02 -2.111172E-01 +1.487346E+00 -2.111172E-01 +1.004798E+03 
 +3.858353E+02 +6.170404E+00 -1.056817E+01 +6.170404E+00 +3.435508E+02 +1.450403E+00 -1.056817E+01 +1.450403E+00 +1.011699E+03 
 +3.881023E+02 -6.630534E-02 -1.365838E+01 -6.630534E-02 +3.613653E+02 +1.851742E+00 -1.365838E+01 +1.851742E+00 +9.892899E+02 
 +3.936238E+02 +8.064811E+00 -3.473994E+00 +8.064811E+00 +3.819037E+02 +9.155355E+00 -3.473994E+00 +9.155355E+00 +9.637708E+02 
 +3.970926E+02 +1.043037E+01 -1.581718E+00 +1.043037E+01 +3.809962E+02 +1.052390E+01 -1.581718E+00 +1.052390E+01 +9.454368E+02 
 +3.756010E+02 +2.065684E+01 +4.645712E+00 +2.065684E+01 +3.585337E+02 +1.007898E+01 +4.645712E+00 +1.007898E+01 +9.422513E+02 
 +3.473475E+02 +8.911051E+00 +5.354498E+00 +8.911051E+00 +3.358082E+02 +1.322481E+01 +5.354498E+00 +1.322481E+01 +9.516109E+02 
 +3.405424E+02 +2.816800E+00 +7.893898E+00 +2.816800E+00 +3.346763E+02 +1.508546E+01 +7.893898E+00 +1.508546E+01 +9.548904E+02 
 +3.327983E+02 -2.352913E+01 +7.792866E+00 -2.352913E+01 +3.419798E+02 +1.954956E+01 +7.792866E+00 +1.954956E+01 +9.440400E+02 
 +3.494141E+02 -1.032922E+01 +1.061841E+01 -1.032922E+01 +3.593307E+02 +2.264462E+01 +1.061841E+01 +2.264462E+01 +9.444692E+02 
 +3.454813E+02 -1.218775E+00 +6.699225E+00 -1.218775E+00 +3.594673E+02 +1.343723E+01 +6.699225E+00 +1.343723E+01 +9.513070E+02 
 +3.110147E+02 +9.860125E+00 -3.280578E+00 +9.860125E+00 +3.527317E+02 -1.209440E+00 -3.280578E+00 -1.209440E+00 +9.614435E+02 
 +3.132007E+02 +1.347354E+01 +1.864774E+00 +1.347354E+01 +3.473314E+02 -5.911470E+00 +1.864774E+00 -5.911470E+00 +9.710067E+02 
 +3.585849E+02 +4.956814E+00 -1.793496E+00 +4.956814E+00 +3.500927E+02 -4.997280E+00 -1.793496E+00 -4.997280E+00 +9.891255E+02 
 +3.640782E+02 +7.987441E+00 -6.902131E-01 +7.987441E+00 +3.582407E+02 -9.987293E+00 -6.902131E-01 -9.987293E+00 +1.001431E+03 
 +3.428411E+02 +2.154049E+01 +2.795404E+00 +2.154049E+01 +3.524558E+02 -1.449245E+01 +2.795404E+00 -1.449245E+01 +9.954881E+02 
 +3.468845E+02 +2.855585E+01 -1.223922E+00 +2.855585E+01 +3.544561E+02 -1.000870E+01 -1.223922E+00 -1.000870E+01 +9.877828E+02 
 +3.876474E+02 -7.781034E+00 -1.017185E+01 -7.781034E+00 +3.738953E+02 -5.660685E+00 -1.017185E+01 -5.660685E+00 +9.796504E+02 
 +3.824799E+02 +4.564164E+00 +8.905976E-01 +4.564164E+00 +3.776040E+02 -1.369356E+00 +8.905976E-01 -1.369356E+00 +9.653241E+02 
 +3.832784E+02 +2.540366E+00 +1.754235E+00 +2.540366E+00 +3.705659E+02 +2.997898E+00 +1.754235E+00 +2.997898E+00 +9.613784E+02 
 +3.879688E+02 +3.307524E+00 +3.713153E+00 +3.307524E+00 +3.556855E+02 +2.434683E+00 +3.713153E+00 +2.434683E+00 +9.783354E+02 
 +4.011652E+02 +7.967194E+00 +1.949053E+00 +7.967194E+00 +3.400739E+02 -4.871163E+00 +1.949053E+00 -4.871163E+00 +1.005406E+03 
 +3.912935E+02 +9.416044E+00 -1.369808E+01 +9.416044E+00 +3.343888E+02 -5.631146E+00 -1.369808E+01 -5.631146E+00 +1.006979E+03 
 +3.905403E+02 +7.767866E+00 -1.596093E+01 +7.767866E+00 +3.620705E+02 -1.183243E+00 -1.596093E+01 -1.183243E+00 +9.917151E+02 
 +4.006610E+02 +1.091128E+01 -4.582506E+00 +1.091128E+01 +3.868244E+02 +5.519307E+00 -4.582506E+00 +5.519307E+00 +9.660842E+02 
 +4.063692E+02 +3.809262E+00 +8.425118E-01 +3.809262E+00 +3.871757E+02 +1.145360E+01 +8.425118E-01 +1.145360E+01 +9.406984E+02 
 +4.153304E+02 +1.321565E+01 +1.432161E+00 +1.321565E+01 +3.979270E+02 +1.599276E+01 +1.432161E+00 +1.599276E+01 +9.512819E+02 
 +3.342396E+02 -1.188041E+01 -5.501222E+00 -1.188041E+01 +3.711081E+02 +1.122005E+01 -5.501222E+00 +1.122005E+01 +9.520412E+02 
 +3.311661E+02 -1.801431E+01 +3.630715E-01 -1.801431E+01 +3.777679E+02 +1.236606E+01 +3.630715E-01 +1.236606E+01 +9.661767E+02 
 +3.156835E+02 -2.916744E+01 -4.373487E-01 -2.916744E+01 +3.708233E+02 +2.169759E+01 -4.373487E-01 +2.169759E+01 +9.520867E+02 
 +3.396161E+02 -8.812225E+00 +8.533949E+00 -8.812225E+00 +3.630818E+02 +2.814379E+01 +8.533949E+00 +2.814379E+01 +9.442314E+02 
 +3.215981E+02 -8.121265E+00 +8.085329E+00 -8.121265E+00 +3.285738E+02 +1.780656E+01 +8.085329E+00 +1.780656E+01 +9.322654E+02 
 +3.202694E+02 -7.603267E+00 -3.358248E+00 -7.603267E+00 +3.098724E+02 +1.717154E+00 -3.358248E+00 +1.717154E+00 +9.510887E+02 
 +3.220250E+02 +1.091674E+00 -8.712054E+00 +1.091674E+00 +3.057315E+02 -1.005387E+00 -8.712054E+00 -1.005387E+00 +9.625780E+02 
 +3.647759E+02 -3.213765E+00 -1.399440E+01 -3.213765E+00 +3.481999E+02 -3.080134E+00 -1.399440E+01 -3.080134E+00 +9.831870E+02 
 +3.686856E+02 +4.739690E-01 -1.143341E+01 +4.739690E-01 +3.606433E+02 -6.874395E+00 -1.143341E+01 -6.874395E+00 +9.929762E+02 
 +3.398348E+02 +1.916206E+01 +5.522349E-01 +1.916206E+01 +3.468274E+02 -1.108400E+01 +5.522349E-01 -1.108400E+01 +9.835265E+02 
 +3.451920E+02 +2.766005E+01 +2.342850E+00 +2.766005E+01 +3.468188E+02 -1.253861E+01 +2.342850E+00 -1.253861E+01 +9.765723E+02 
 +3.642853E+02 +3.604187E+00 -9.890558E+00 +3.604187E+00 +3.449335E+02 -8.866393E+00 -9.890558E+00 -8.866393E+00 +9.618385E+02 
 +3.802416E+02 +6.286182E+00 -3.587050E-01 +6.286182E+00 +3.748158E+02 -3.243672E+00 -3.587050E-01 -3.243672E+00 +9.639927E+02 
 +3.826920E+02 +1.066524E+00 +2.449119E+00 +1.066524E+00 +3.705563E+02 -6.140126E-01 +2.449119E+00 -6.140126E-01 +9.594614E+02 
 +3.570987E+02 +1.609354E+00 +1.055663E-01 +1.609354E+00 +3.352570E+02 -5.387301E+00 +1.055663E-01 -5.387301E+00 +9.615508E+02 
 +3.696466E+02 +1.619456E-02 -2.028253E+00 +1.619456E-02 +3.181676E+02 -1.490729E+01 -2.028253E+00 -1.490729E+01 +9.782584E+02 
 +3.890755E+02 +9.516316E+00 -1.289954E+01 +9.516316E+00 +3.367444E+02 -1.640501E+01 -1.289954E+01 -1.640501E+01 +9.909433E+02 
 +4.139643E+02 +6.729499E+00 -1.640841E+01 +6.729499E+00 +3.718348E+02 -5.125187E+00 -1.640841E+01 -5.125187E+00 +9.908874E+02 
 +4.102667E+02 +1.536796E+01 -6.084995E+00 +1.536796E+01 +3.757930E+02 +3.250199E+00 -6.084995E+00 +3.250199E+00 +9.656900E+02 
 +4.043922E+02 +4.476749E+00 +2.258444E+00 +4.476749E+00 +3.798750E+02 +6.339139E+00 +2.258444E+00 +6.339139E+00 +9.541896E+02 
 +3.809529E+02 +7.145960E+00 -2.208339E+00 +7.145960E+00 +3.711165E+02 +8.180081E+00 -2.208339E+00 +8.180081E+00 +9.512300E+02 
 +2.964389E+02 -1.485739E+01 -1.183825E+01 -1.485739E+01 +3.458630E+02 +4.783471E+00 -1.183825E+01 +4.783471E+00 +9.420100E+02 
 +3.141041E+02 -1.569341E+01 -5.982469E+00 -1.569341E+01 +3.713703E+02 +8.713975E+00 -5.982469E+00 +8.713975E+00 +9.638849E+02 
 +3.175512E+02 -2.328823E+01 -3.790419E+00 -2.328823E+01 +3.725003E+02 +1.400139E+01 -3.790419E+00 +1.400139E+01 +9.594288E+02 
 +3.271819E+02 -2.046634E+01 +2.826520E+00 -2.046634E+01 +3.731094E+02 +1.783712E+01 +2.826520E+00 +1.783712E+01 +9.584236E+02 
 +3.032299E+02 -1.628398E+01 +6.662191E+00 -1.628398E+01 +3.250787E+02 +1.230413E+01 +6.662191E+00 +1.230413E+01 +9.392081E+02 
 +3.570967E+02 -7.607000E+00 -2.454118E+00 -7.607000E+00 +3.345132E+02 +4.673160E+00 -2.454118E+00 +4.673160E+00 +9.665983E+02 
 +3.757921E+02 -7.580179E-01 -1.587581E+01 -7.580179E-01 +3.485884E+02 +2.703487E+00 -1.587581E+01 +2.703487E+00 +9.846799E+02 
 +3.717498E+02 -5.097349E+00 -1.945191E+01 -5.097349E+00 +3.489201E+02 -2.913133E+00 -1.945191E+01 -2.913133E+00 +9.817932E+02 
 +3.833854E+02 -4.146743E-01 -1.745353E+01 -4.146743E-01 +3.646379E+02 -3.002783E+00 -1.745353E+01 -3.002783E+00 +9.880755E+02 
 +3.597112E+02 +1.671480E+01 -4.300530E+00 +1.671480E+01 +3.546411E+02 -4.113433E+00 -4.300530E+00 -4.113433E+00 +9.753657E+02 
 +3.487875E+02 +2.743107E+01 -4.805049E+00 +2.743107E+01 +3.323286E+02 -9.786904E+00 -4.805049E+00 -9.786904E+00 +9.585726E+02 
 +3.559900E+02 +3.328028E+00 -9.673721E+00 +3.328028E+00 +3.332374E+02 -8.575978E+00 -9.673721E+00 -8.575978E+00 +9.507788E+02 
 +3.726842E+02 +1.376796E+01 +1.528529E+00 +1.376796E+01 +3.406080E+02 -9.705602E+00 +1.528529E+00 -9.705602E+00 +9.601348E+02 
 +3.807047E+02 +5.663132E+00 -5.649517E-02 +5.663132E+00 +3.536526E+02 -7.137395E+00 -5.649517E-02 -7.137395E+00 +9.590113E+02 
 +3.653297E+02 +8.980515E+00 -1.533678E-01 +8.980515E+00 +3.658939E+02 -1.038754E+01 -1.533678E-01 -1.038754E+01 +9.690597E+02 
 +3.779212E+02 +1.162257E+01 -6.052403E+00 +1.162257E+01 +3.994054E+02 -1.334204E+01 -6.052403E+00 -1.334204E+01 +9.873266E+02 
 +4.019065E+02 +2.240329E+01 -9.859560E+00 +2.240329E+01 +4.196425E+02 -1.615463E+01 -9.859560E+00 -1.615463E+01 +9.978901E+02 
 +4.329820E+02 -1.033052E+01 -1.128498E+01 -1.033052E+01 +4.058796E+02 -1.145730E+01 -1.128498E+01 -1.145730E+01 +1.003480E+03 
 +4.045163E+02 -1.381320E+01 -7.474245E+00 -1.381320E+01 +3.547746E+02 -8.483170E+00 -7.474245E+00 -8.483170E+00 +9.770376E+02 
 +3.875552E+02 -2.749302E+01 -6.187279E+00 -2.749302E+01 +3.453591E+02 -6.987440E+00 -6.187279E+00 -6.987440E+00 +9.687727E+02 
 +3.492685E+02 -1.359110E+01 -5.252146E+00 -1.359110E+01 +3.460642E+02 -4.167157E+00 -5.252146E+00 -4.167157E+00 +9.590229E+02 
 +3.181619E+02 -1.797558E+01 -6.152971E+00 -1.797558E+01 +3.522333E+02 -4.091719E-01 -6.152971E+00 -4.091719E-01 +9.559368E+02 
 +3.169397E+02 -2.003980E+01 -4.612193E+00 -2.003980E+01 +3.644340E+02 +4.297000E+00 -4.612193E+00 +4.297000E+00 +9.611107E+02 
 +3.176204E+02 -1.909032E+01 -4.323987E+00 -1.909032E+01 +3.705382E+02 +6.297088E+00 -4.323987E+00 +6.297088E+00 +9.626540E+02 
 +3.022056E+02 -1.651197E+01 -5.462408E+00 -1.651197E+01 +3.515803E+02 +9.437266E+00 -5.462408E+00 +9.437266E+00 +9.544105E+02 
 +3.196288E+02 -9.554868E+00 +3.134827E+00 -9.554868E+00 +3.457251E+02 +6.988428E+00 +3.134827E+00 +6.988428E+00 +9.544345E+02 
 +3.862206E+02 +6.166831E+00 -1.153922E+00 +6.166831E+00 +3.758118E+02 +3.746974E+00 -1.153922E+00 +3.746974E+00 +9.783750E+02 
 +3.882768E+02 +7.423574E+00 -1.320987E+01 +7.423574E+00 +3.632068E+02 +1.210413E+00 -1.320987E+01 +1.210413E+00 +9.821761E+02 
 +3.839653E+02 +3.294204E+00 -2.348617E+01 +3.294204E+00 +3.577103E+02 -3.650185E+00 -2.348617E+01 -3.650185E+00 +9.848469E+02 
 +3.829367E+02 +2.111769E-01 -2.372690E+01 +2.111769E-01 +3.619830E+02 -5.965665E+00 -2.372690E+01 -5.965665E+00 +9.779580E+02 
 +3.684328E+02 +1.046168E+01 -1.449533E+01 +1.046168E+01 +3.510757E+02 -1.056086E+01 -1.449533E+01 -1.056086E+01 +9.518913E+02 
 +3.816463E+02 +1.146336E+01 -1.457714E+01 +1.146336E+01 +3.548870E+02 -1.080417E+01 -1.457714E+01 -1.080417E+01 +9.486123E+02 
 +3.825607E+02 -3.710096E-01 -8.413198E+00 -3.710096E-01 +3.604630E+02 +5.492095E+00 -8.413198E+00 +5.492095E+00 +9.436434E+02 
 +3.921316E+02 +5.854828E+00 -3.878284E+00 +5.854828E+00 +3.697454E+02 +3.735549E+00 -3.878284E+00 +3.735549E+00 +9.466764E+02 
 +4.023247E+02 +5.213004E-01 -5.364558E+00 +5.213004E-01 +3.746076E+02 -3.434291E+00 -5.364558E+00 -3.434291E+00 +9.543559E+02 
 +3.447600E+02 +7.515506E+00 +1.266206E+00 +7.515506E+00 +3.660240E+02 -1.053373E+01 +1.266206E+00 -1.053373E+01 +9.543821E+02 
 +3.494314E+02 +1.704083E+00 -6.831990E+00 +1.704083E+00 +3.867624E+02 -1.278726E+01 -6.831990E+00 -1.278726E+01 +9.689874E+02 
 +3.527712E+02 +1.425952E+01 -7.166154E+00 +1.425952E+01 +3.815246E+02 -1.904621E+01 -7.166154E+00 -1.904621E+01 +9.727865E+02 
 +3.917686E+02 -1.776904E+01 -1.079248E+01 -1.776904E+01 +3.852485E+02 -1.621384E+01 -1.079248E+01 -1.621384E+01 +9.931427E+02 
 +3.936836E+02 -1.230246E+01 -1.128496E+01 -1.230246E+01 +3.613024E+02 -5.368253E+00 -1.128496E+01 -5.368253E+00 +9.884602E+02 
 +3.882352E+02 -1.539595E+01 -9.794163E+00 -1.539595E+01 +3.481524E+02 +4.510143E-03 -9.794163E+00 +4.510143E-03 +9.772227E+02 
 +3.509328E+02 +1.658459E+00 -6.433545E+00 +1.658459E+00 +3.410657E+02 +4.524872E+00 -6.433545E+00 +4.524872E+00 +9.595981E+02 
 +3.484145E+02 -7.329553E+00 -4.254097E+00 -7.329553E+00 +3.617692E+02 +7.149487E+00 -4.254097E+00 +7.149487E+00 +9.625298E+02 
 +3.404021E+02 -1.307810E+01 -4.075892E+00 -1.307810E+01 +3.746531E+02 +6.727373E+00 -4.075892E+00 +6.727373E+00 +9.616618E+02 
 +3.180994E+02 -1.728010E+01 -2.654012E+00 -1.728010E+01 +3.610960E+02 +3.206343E+00 -2.654012E+00 +3.206343E+00 +9.519691E+02 
 +3.248139E+02 -1.129645E+01 -3.212658E+00 -1.129645E+01 +3.627640E+02 +5.486965E+00 -3.212658E+00 +5.486965E+00 +9.558982E+02 
 +3.458483E+02 +3.943925E+00 +4.545709E+00 +3.943925E+00 +3.776228E+02 +1.841492E+00 +4.545709E+00 +1.841492E+00 +9.624082E+02 
 +3.708206E+02 +1.105828E+01 +1.326773E+00 +1.105828E+01 +3.702587E+02 -7.606271E+00 +1.326773E+00 -7.606271E+00 +9.633820E+02 
 +3.720039E+02 +8.816044E+00 -7.694285E+00 +8.816044E+00 +3.541215E+02 -4.257618E+00 -7.694285E+00 -4.257618E+00 +9.660225E+02 
 +3.779575E+02 +7.709816E+00 -2.245560E+01 +7.709816E+00 +3.625552E+02 -3.466215E+00 -2.245560E+01 -3.466215E+00 +9.773971E+02 
 +3.833486E+02 +3.817631E+00 -2.301692E+01 +3.817631E+00 +3.703246E+02 -5.665350E+00 -2.301692E+01 -5.665350E+00 +9.637300E+02 
 +3.800583E+02 +1.329395E+01 -1.731308E+01 +1.329395E+01 +3.639093E+02 -6.756973E+00 -1.731308E+01 -6.756973E+00 +9.304317E+02 
 +3.916816E+02 +1.040691E+01 -1.499251E+01 +1.040691E+01 +3.600386E+02 -2.628432E+00 -1.499251E+01 -2.628432E+00 +9.305355E+02 
 +3.962064E+02 +5.019312E+00 -8.065035E+00 +5.019312E+00 +3.764075E+02 -3.634884E+00 -8.065035E+00 -3.634884E+00 +9.270213E+02 
 +4.028609E+02 +6.188003E+00 -9.898297E+00 +6.188003E+00 +3.802562E+02 -7.368884E+00 -9.898297E+00 -7.368884E+00 +9.327368E+02 
 +3.936432E+02 -6.282521E-01 -8.764408E+00 -6.282521E-01 +3.868597E+02 -6.480159E+00 -8.764408E+00 -6.480159E+00 +9.551864E+02 
 +3.387305E+02 +5.068211E+00 -6.457623E-01 +5.068211E+00 +3.744078E+02 -8.673977E+00 -6.457623E-01 -8.673977E+00 +9.537933E+02 
 +3.406787E+02 +2.642803E+00 -6.499866E+00 +2.642803E+00 +3.794559E+02 -1.384027E+01 -6.499866E+00 -1.384027E+01 +9.585851E+02 
 +3.293866E+02 +8.784152E+00 -5.773005E+00 +8.784152E+00 +3.552655E+02 -2.251263E+01 -5.773005E+00 -2.251263E+01 +9.584597E+02 
 +3.564990E+02 -1.545518E+01 -1.065743E+01 -1.545518E+01 +3.608482E+02 -1.501051E+01 -1.065743E+01 -1.501051E+01 +9.705373E+02 
 +3.818103E+02 -1.629658E+01 -8.756453E+00 -1.629658E+01 +3.674264E+02 +1.202564E+00 -8.756453E+00 +1.202564E+00 +9.761890E+02 
 +3.733984E+02 -9.773160E+00 -3.645008E+00 -9.773160E+00 +3.544074E+02 +6.685748E+00 -3.645008E+00 +6.685748E+00 +9.664836E+02 
 +3.641099E+02 +5.032399E+00 -3.868449E+00 +5.032399E+00 +3.592470E+02 +1.008660E+01 -3.868449E+00 +1.008660E+01 +9.559597E+02 
 +3.746487E+02 -1.037693E+00 -5.326744E+00 -1.037693E+00 +3.710746E+02 +1.043733E+01 -5.326744E+00 +1.043733E+01 +9.558023E+02 
 +3.670344E+02 -3.092907E+00 -5.250888E+00 -3.092907E+00 +3.814147E+02 +7.571346E+00 -5.250888E+00 +7.571346E+00 +9.522328E+02 
 +3.473773E+02 -9.196545E+00 -2.049552E+00 -9.196545E+00 +3.775279E+02 +7.070573E+00 -2.049552E+00 +7.070573E+00 +9.434590E+02 
 +3.524634E+02 +5.585020E+00 +7.957317E+00 +5.585020E+00 +3.868830E+02 +1.088217E+01 +7.957317E+00 +1.088217E+01 +9.581141E+02 
 +3.591944E+02 +5.484324E+00 +1.299349E+01 +5.484324E+00 +4.000538E+02 +7.221091E+00 +1.299349E+01 +7.221091E+00 +9.700018E+02 
 +3.613042E+02 +1.450613E+00 +7.089314E+00 +1.450613E+00 +3.991057E+02 -1.922074E-01 +7.089314E+00 -1.922074E-01 +9.646827E+02 
 +3.629606E+02 +1.375741E-01 -5.601233E-01 +1.375741E-01 +3.855370E+02 +1.480345E+00 -5.601233E-01 +1.480345E+00 +9.591844E+02 
 +3.940360E+02 +6.020032E+00 -1.518205E+01 +6.020032E+00 +3.881843E+02 +3.062935E+00 -1.518205E+01 +3.062935E+00 +9.637445E+02 
 +3.874924E+02 +1.071952E+01 -1.406412E+01 +1.071952E+01 +3.854095E+02 +2.254873E+00 -1.406412E+01 +2.254873E+00 +9.379568E+02 
 +3.978931E+02 +1.139935E+01 -1.543479E+01 +1.139935E+01 +3.856704E+02 +7.022467E-01 -1.543479E+01 +7.022467E-01 +9.199211E+02 
 +3.987102E+02 +7.577077E+00 -1.367140E+01 +7.577077E+00 +3.755642E+02 -1.777569E+00 -1.367140E+01 -1.777569E+00 +9.217041E+02 
 +4.014404E+02 +4.879760E+00 -9.865540E+00 +4.879760E+00 +3.796473E+02 -4.574223E+00 -9.865540E+00 -4.574223E+00 +9.154158E+02 
 +4.091135E+02 +2.873057E-01 -5.057935E+00 +2.873057E-01 +3.952813E+02 -5.968545E+00 -5.057935E+00 -5.968545E+00 +9.335973E+02 
 +3.818567E+02 +2.446008E+00 -4.608179E+00 +2.446008E+00 +4.029375E+02 -4.645665E+00 -4.608179E+00 -4.645665E+00 +9.529016E+02 
 +3.526915E+02 +8.473881E+00 -4.172438E+00 +8.473881E+00 +3.875220E+02 -7.667572E+00 -4.172438E+00 -7.667572E+00 +9.468513E+02 
 +3.455105E+02 +8.196783E+00 -6.889126E+00 +8.196783E+00 +3.749006E+02 -1.408731E+01 -6.889126E+00 -1.408731E+01 +9.409968E+02 
 +3.318959E+02 +1.192251E+01 -5.162395E+00 +1.192251E+01 +3.612014E+02 -2.086486E+01 -5.162395E+00 -2.086486E+01 +9.426944E+02 
 +3.296546E+02 +3.475625E+00 -3.879658E+00 +3.475625E+00 +3.523390E+02 -1.257774E+01 -3.879658E+00 -1.257774E+01 +9.403346E+02 
 +3.534811E+02 -1.093428E+01 -9.658721E-01 -1.093428E+01 +3.601901E+02 +5.053090E+00 -9.658721E-01 +5.053090E+00 +9.495103E+02 
 +3.701145E+02 +1.113424E+01 -2.150024E+00 +1.113424E+01 +3.725400E+02 +4.228189E+00 -2.150024E+00 +4.228189E+00 +9.597078E+02 
 +3.869952E+02 +2.705503E+01 -2.864195E+00 +2.705503E+01 +3.817524E+02 -6.883828E+00 -2.864195E+00 -6.883828E+00 +9.511031E+02 
 +3.835268E+02 +1.932134E+01 -6.401886E+00 +1.932134E+01 +3.705101E+02 -9.029685E+00 -6.401886E+00 -9.029685E+00 +9.343479E+02 
 +3.786050E+02 +1.444299E+01 -7.957814E+00 +1.444299E+01 +3.693466E+02 -5.317881E+00 -7.957814E+00 -5.317881E+00 +9.270624E+02 
 +3.805317E+02 +1.441241E+00 -2.751701E+00 +1.441241E+00 +3.926335E+02 -1.610340E+00 -2.751701E+00 -1.610340E+00 +9.308710E+02 
 +3.374728E+02 +3.572944E+00 +1.711121E+01 +3.572944E+00 +3.852456E+02 +4.397080E+00 +1.711121E+01 +4.397080E+00 +9.422092E+02 
 +3.394726E+02 +1.535826E+00 +1.688079E+01 +1.535826E+00 +3.868368E+02 +5.474205E+00 +1.688079E+01 +5.474205E+00 +9.622046E+02 
 +3.423641E+02 +4.152228E-01 +1.258558E+01 +4.152228E-01 +3.900197E+02 +1.586217E+00 +1.258558E+01 +1.586217E+00 +9.579991E+02 
 +3.413318E+02 +1.981964E+00 +4.458157E+00 +1.981964E+00 +3.877321E+02 -1.761287E+00 +4.458157E+00 -1.761287E+00 +9.459479E+02 
 +4.010283E+02 +4.483508E+00 -9.431387E+00 +4.483508E+00 +4.126027E+02 +4.698284E+00 -9.431387E+00 +4.698284E+00 +9.528881E+02 
 +4.055020E+02 +7.544956E+00 -1.269939E+01 +7.544956E+00 +3.988031E+02 +7.147882E+00 -1.269939E+01 +7.147882E+00 +9.316080E+02 
 +4.050560E+02 +8.050975E+00 -1.811531E+01 +8.050975E+00 +3.871222E+02 +2.397699E+00 -1.811531E+01 +2.397699E+00 +9.178737E+02 
 +4.012463E+02 +7.478953E+00 -1.437138E+01 +7.478953E+00 +3.811763E+02 -6.314098E-01 -1.437138E+01 -6.314098E-01 +9.156307E+02 
 +3.951520E+02 +5.466787E+00 -5.028366E+00 +5.466787E+00 +3.875606E+02 -2.316265E+00 -5.028366E+00 -2.316265E+00 +9.229869E+02 
 +3.749548E+02 -4.315010E+00 +7.991415E+00 -4.315010E+00 +3.904391E+02 +5.533170E+00 +7.991415E+00 +5.533170E+00 +9.268015E+02 
 +3.756709E+02 -1.222298E+01 +9.508996E-01 -1.222298E+01 +3.995701E+02 +4.703778E+00 +9.508996E-01 +4.703778E+00 +9.260678E+02 
 +3.658208E+02 -1.224659E+01 -5.426850E+00 -1.224659E+01 +3.895875E+02 -2.218213E+00 -5.426850E+00 -2.218213E+00 +9.172469E+02 
 +3.588420E+02 -6.124708E+00 -7.509615E+00 -6.124708E+00 +3.794199E+02 -1.098185E+01 -7.509615E+00 -1.098185E+01 +9.269612E+02 
 +3.528654E+02 -4.339608E+00 -8.770717E+00 -4.339608E+00 +3.682904E+02 -1.386170E+01 -8.770717E+00 -1.386170E+01 +9.275702E+02 
 +3.552061E+02 +6.971132E+00 -8.422502E+00 +6.971132E+00 +3.681116E+02 -1.049911E+01 -8.422502E+00 -1.049911E+01 +9.268581E+02 
 +3.201594E+02 +5.474296E+00 +9.518107E-01 +5.474296E+00 +3.612773E+02 -2.994520E+00 +9.518107E-01 -2.994520E+00 +9.188607E+02 
 +3.732022E+02 +2.468267E+01 -6.076967E+00 +2.468267E+01 +3.990513E+02 -1.142790E+00 -6.076967E+00 -1.142790E+00 +9.426711E+02 
 +3.959592E+02 +2.365749E+01 -7.113758E+00 +2.365749E+01 +3.984787E+02 -4.755081E+00 -7.113758E+00 -4.755081E+00 +9.409135E+02 
 +3.924607E+02 +1.736063E+01 -1.151064E+01 +1.736063E+01 +3.845872E+02 -3.447344E+00 -1.151064E+01 -3.447344E+00 +9.295996E+02 
 +3.860133E+02 +1.116124E+01 -1.256798E+01 +1.116124E+01 +3.793976E+02 -4.105582E+00 -1.256798E+01 -4.105582E+00 +9.173272E+02 
 +3.910764E+02 +1.931475E+00 -1.029600E+01 +1.931475E+00 +3.950010E+02 -7.246052E+00 -1.029600E+01 -7.246052E+00 +9.230788E+02 
 +3.206000E+02 -4.985144E+00 +1.757117E+01 -4.985144E+00 +3.769560E+02 -3.319096E+00 +1.757117E+01 -3.319096E+00 +9.301612E+02 
 +3.313250E+02 -1.453507E+00 +1.459785E+01 -1.453507E+00 +3.843716E+02 +2.664935E+00 +1.459785E+01 +2.664935E+00 +9.559177E+02 
 +3.367212E+02 -6.203522E-01 +1.060409E+01 -6.203522E-01 +3.806192E+02 +3.189251E+00 +1.060409E+01 +3.189251E+00 +9.560422E+02 
 +3.345491E+02 +5.623943E+00 +4.307810E+00 +5.623943E+00 +3.742656E+02 +3.460702E+00 +4.307810E+00 +3.460702E+00 +9.475486E+02 
 +3.528783E+02 +8.921964E+00 -5.069851E+00 +8.921964E+00 +3.765542E+02 +1.044864E+01 -5.069851E+00 +1.044864E+01 +9.339807E+02 
 +4.226990E+02 +6.512413E+00 -1.927584E+01 +6.512413E+00 +4.010552E+02 +1.110919E+01 -1.927584E+01 +1.110919E+01 +9.399859E+02 
 +4.146478E+02 +8.373855E+00 -1.745598E+01 +8.373855E+00 +3.856034E+02 +5.616005E+00 -1.745598E+01 +5.616005E+00 +9.238162E+02 
 +4.078922E+02 +1.051826E+01 -1.574183E+01 +1.051826E+01 +3.853150E+02 -8.474214E-01 -1.574183E+01 -8.474214E-01 +9.210000E+02 
 +3.773209E+02 +5.275545E+00 +7.408929E+00 +5.275545E+00 +3.830675E+02 +1.309049E+01 +7.408929E+00 +1.309049E+01 +9.293737E+02 
 +3.596142E+02 +7.030426E+00 +9.114461E+00 +7.030426E+00 +3.867721E+02 +1.286964E+01 +9.114461E+00 +1.286964E+01 +9.348011E+02 
 +3.551800E+02 +5.053696E+00 +4.231962E+00 +5.053696E+00 +3.839772E+02 +3.448981E+00 +4.231962E+00 +3.448981E+00 +9.211952E+02 
 +3.715118E+02 -6.525167E+00 -4.021052E+00 -6.525167E+00 +3.882913E+02 -3.693679E+00 -4.021052E+00 -3.693679E+00 +9.121287E+02 
 +3.761153E+02 -7.030074E+00 -7.786242E+00 -7.030074E+00 +3.837854E+02 -8.932956E+00 -7.786242E+00 -8.932956E+00 +9.162810E+02 
 +3.715572E+02 -3.911007E+00 -1.004492E+01 -3.911007E+00 +3.752859E+02 -1.122933E+01 -1.004492E+01 -1.122933E+01 +9.137384E+02 
 +3.421990E+02 -1.515557E+01 -1.251033E+01 -1.515557E+01 +3.577102E+02 -1.015087E+01 -1.251033E+01 -1.015087E+01 +9.146495E+02 
 +3.115615E+02 -2.200714E+01 -2.388701E+00 -2.200714E+01 +3.635666E+02 -9.807800E-01 -2.388701E+00 -9.807800E-01 +9.210828E+02 
 +3.852426E+02 -4.001534E+00 -1.158904E+01 -4.001534E+00 +4.089375E+02 +3.237165E+00 -1.158904E+01 +3.237165E+00 +9.378645E+02 
 +3.914438E+02 +1.107274E+01 -1.207559E+01 +1.107274E+01 +3.951157E+02 -1.708176E+00 -1.207559E+01 -1.708176E+00 +9.285494E+02 
 +4.042913E+02 +9.496262E+00 -1.478677E+01 +9.496262E+00 +4.031308E+02 -2.942275E+00 -1.478677E+01 -2.942275E+00 +9.349586E+02 
 +3.970789E+02 +4.756115E+00 -1.712846E+01 +4.756115E+00 +3.944015E+02 -6.743582E+00 -1.712846E+01 -6.743582E+00 +9.231976E+02 
 +3.843291E+02 +2.356692E-01 -1.377028E+01 +2.356692E-01 +3.913156E+02 -1.073298E+01 -1.377028E+01 -1.073298E+01 +9.287547E+02 
 +3.259730E+02 -1.195247E+01 +9.051086E+00 -1.195247E+01 +3.740317E+02 -7.392638E+00 +9.051086E+00 -7.392638E+00 +9.361734E+02 
 +3.361164E+02 -1.077475E+01 +8.218909E+00 -1.077475E+01 +3.824622E+02 -4.723409E+00 +8.218909E+00 -4.723409E+00 +9.546413E+02 
 +3.380281E+02 -3.637981E+00 +6.303489E+00 -3.637981E+00 +3.732558E+02 +1.266691E+00 +6.303489E+00 +1.266691E+00 +9.551304E+02 
 +3.389602E+02 +3.010529E+00 +1.888052E+00 +3.010529E+00 +3.708921E+02 +5.327886E+00 +1.888052E+00 +5.327886E+00 +9.545579E+02 
 +3.354867E+02 +9.408247E+00 -2.846950E+00 +9.408247E+00 +3.616750E+02 +8.478101E+00 -2.846950E+00 +8.478101E+00 +9.329343E+02 
 +4.247089E+02 +1.003173E+01 -2.671286E+01 +1.003173E+01 +3.972447E+02 +7.549682E+00 -2.671286E+01 +7.549682E+00 +9.391038E+02 
 +4.111995E+02 +1.179539E+01 -1.529728E+01 +1.179539E+01 +3.849102E+02 -4.603043E-01 -1.529728E+01 -4.603043E-01 +9.250054E+02 
 +4.104312E+02 +8.204743E+00 -9.057860E+00 +8.204743E+00 +3.891520E+02 +1.774185E+00 -9.057860E+00 +1.774185E+00 +9.317113E+02 
 +3.780015E+02 +8.522360E+00 +1.066600E+01 +8.522360E+00 +3.834533E+02 +1.178983E+01 +1.066600E+01 +1.178983E+01 +9.356891E+02 
 +3.677076E+02 +8.014199E+00 +4.790275E+00 +8.014199E+00 +3.843030E+02 +8.621992E+00 +4.790275E+00 +8.621992E+00 +9.416471E+02 
 +3.640318E+02 +9.498360E+00 +4.240566E+00 +9.498360E+00 +3.854754E+02 +8.091188E+00 +4.240566E+00 +8.091188E+00 +9.414948E+02 
 +3.594145E+02 +4.871973E+00 +4.754511E-01 +4.871973E+00 +3.866884E+02 +6.469615E+00 +4.754511E-01 +6.469615E+00 +9.310754E+02 
 +3.625363E+02 -1.376212E+01 -7.102683E+00 -1.376212E+01 +3.765002E+02 -2.462146E+00 -7.102683E+00 -2.462146E+00 +9.156625E+02 
 +3.475240E+02 -2.239103E+01 -9.030592E+00 -2.239103E+01 +3.613437E+02 -1.007860E+01 -9.030592E+00 -1.007860E+01 +9.069904E+02 
 +3.022750E+02 -3.652138E+01 -1.044530E+01 -3.652138E+01 +3.355715E+02 -1.030531E+01 -1.044530E+01 -1.030531E+01 +9.145265E+02 
 +3.331590E+02 -7.408767E+00 -3.482079E+00 -7.408767E+00 +3.541300E+02 -8.232305E+00 -3.482079E+00 -8.232305E+00 +9.383592E+02 
 +3.754501E+02 -1.262629E+01 -1.025149E+01 -1.262629E+01 +3.844172E+02 -5.171821E+00 -1.025149E+01 -5.171821E+00 +9.341690E+02 
 +3.995837E+02 -3.407518E+00 -1.020339E+01 -3.407518E+00 +3.986269E+02 -1.924918E+00 -1.020339E+01 -1.924918E+00 +9.363769E+02 
 +4.236428E+02 -4.129420E+00 -1.770847E+01 -4.129420E+00 +4.130745E+02 -3.358400E+00 -1.770847E+01 -3.358400E+00 +9.473897E+02 
 +4.125299E+02 -4.542307E+00 -2.364185E+01 -4.542307E+00 +4.075938E+02 -6.048319E+00 -2.364185E+01 -6.048319E+00 +9.388923E+02 
 +3.723194E+02 -9.269195E+00 -1.608173E+01 -9.269195E+00 +3.887976E+02 -2.634640E+00 -1.608173E+01 -2.634640E+00 +9.385529E+02 
 +3.585279E+02 -1.216938E+01 -1.061863E+01 -1.216938E+01 +3.829529E+02 -5.224289E+00 -1.061863E+01 -5.224289E+00 +9.504267E+02 
 +3.430944E+02 -1.175209E+01 -8.823127E+00 -1.175209E+01 +3.738580E+02 -9.950429E+00 -8.823127E+00 -9.950429E+00 +9.491642E+02 
 +3.383800E+02 -5.813763E+00 -4.309337E+00 -5.813763E+00 +3.699143E+02 -8.417714E+00 -4.309337E+00 -8.417714E+00 +9.499414E+02 
 +3.374225E+02 +6.036104E-01 -2.592422E+00 +6.036104E-01 +3.646061E+02 +9.368365E-01 -2.592422E+00 +9.368365E-01 +9.474503E+02 
 +3.425364E+02 +6.768002E+00 -6.923604E+00 +6.768002E+00 +3.527677E+02 +5.751935E+00 -6.923604E+00 +5.751935E+00 +9.288009E+02 
 +4.118029E+02 +9.895527E+00 -2.564860E+01 +9.895527E+00 +3.826877E+02 +8.967156E+00 -2.564860E+01 +8.967156E+00 +9.276411E+02 
 +3.878138E+02 +1.088945E+01 -8.968725E+00 +1.088945E+01 +3.723990E+02 +1.649022E+01 -8.968725E+00 +1.649022E+01 +9.180969E+02 
 +3.951611E+02 +7.305616E+00 +1.424188E+00 +7.305616E+00 +3.836515E+02 +1.844164E+01 +1.424188E+00 +1.844164E+01 +9.349338E+02 
 +3.926178E+02 +1.117031E+01 +1.032583E+01 +1.117031E+01 +3.958103E+02 +7.143734E+00 +1.032583E+01 +7.143734E+00 +9.507446E+02 
 +3.825848E+02 +8.202485E+00 +5.638014E+00 +8.202485E+00 +3.894552E+02 +9.144964E+00 +5.638014E+00 +9.144964E+00 +9.619025E+02 
 +3.694936E+02 +1.108512E+01 -4.559987E-01 +1.108512E+01 +3.842988E+02 +1.220195E+01 -4.559987E-01 +1.220195E+01 +9.550271E+02 
 +3.554977E+02 +3.494688E-01 +5.858756E-01 +3.494688E-01 +3.888862E+02 +1.007987E+01 +5.858756E-01 +1.007987E+01 +9.470828E+02 
 +3.293110E+02 -2.292704E+01 -2.547165E+00 -2.292704E+01 +3.643745E+02 -6.247789E-01 -2.547165E+00 -6.247789E-01 +9.345814E+02 
 +3.237328E+02 -1.057100E+01 -4.735639E+00 -1.057100E+01 +3.395602E+02 -1.165030E+01 -4.735639E+00 -1.165030E+01 +9.264698E+02 
 +3.392298E+02 -1.047598E+01 -4.776681E+00 -1.047598E+01 +3.608847E+02 -1.377470E+01 -4.776681E+00 -1.377470E+01 +9.422421E+02 
 +3.659172E+02 +1.066586E+01 -1.498391E+00 +1.066586E+01 +3.826950E+02 -1.131287E+01 -1.498391E+00 -1.131287E+01 +9.542917E+02 
 +3.585654E+02 +7.531813E+00 -4.047960E+00 +7.531813E+00 +3.746662E+02 -7.769150E+00 -4.047960E+00 -7.769150E+00 +9.402046E+02 
 +3.733238E+02 +1.039452E+01 -4.482243E+00 +1.039452E+01 +3.867348E+02 -6.565463E-02 -4.482243E+00 -6.565463E-02 +9.443328E+02 
 +4.192251E+02 -5.383368E+00 -1.499174E+01 -5.383368E+00 +4.123781E+02 -5.425303E+00 -1.499174E+01 -5.425303E+00 +9.571336E+02 
 +4.087479E+02 -2.129107E+01 -1.952772E+01 -2.129107E+01 +4.022771E+02 -8.107472E+00 -1.952772E+01 -8.107472E+00 +9.427943E+02 
 +3.745134E+02 -2.053326E+01 -1.679636E+01 -2.053326E+01 +3.681633E+02 -1.049761E+01 -1.679636E+01 -1.049761E+01 +9.322998E+02 
 +3.737864E+02 -1.840471E+01 -1.840150E+01 -1.840471E+01 +3.635968E+02 -1.580034E+01 -1.840150E+01 -1.580034E+01 +9.420086E+02 
 +3.467859E+02 -2.020447E+01 -1.863458E+01 -2.020447E+01 +3.569324E+02 -9.842159E+00 -1.863458E+01 -9.842159E+00 +9.394319E+02 
 +3.503918E+02 -8.126294E+00 -1.668995E+01 -8.126294E+00 +3.682780E+02 -2.688240E+00 -1.668995E+01 -2.688240E+00 +9.423332E+02 
 +3.526114E+02 +2.861736E+00 -1.224148E+01 +2.861736E+00 +3.655950E+02 +1.097202E+01 -1.224148E+01 +1.097202E+01 +9.385767E+02 
 +3.347973E+02 +4.420903E+00 -1.119215E+01 +4.420903E+00 +3.355699E+02 +2.315847E+01 -1.119215E+01 +2.315847E+01 +9.233080E+02 
 +3.836261E+02 +1.179907E+01 -1.490282E+01 +1.179907E+01 +3.602151E+02 +2.165706E+01 -1.490282E+01 +2.165706E+01 +9.279235E+02 
 +3.835593E+02 +8.626956E+00 -4.613534E+00 +8.626956E+00 +3.788104E+02 +1.312251E+01 -4.613534E+00 +1.312251E+01 +9.273259E+02 
 +3.833433E+02 +8.661642E+00 +3.938156E+00 +8.661642E+00 +3.854019E+02 +7.158142E+00 +3.938156E+00 +7.158142E+00 +9.344827E+02 
 +3.797655E+02 +8.443844E+00 +1.138709E+01 +8.443844E+00 +3.803142E+02 +4.905681E+00 +1.138709E+01 +4.905681E+00 +9.566210E+02 
 +3.699911E+02 +1.713007E+00 +4.355962E+00 +1.713007E+00 +3.630279E+02 -2.675087E-01 +4.355962E+00 -2.675087E-01 +9.739380E+02 
 +3.598097E+02 +9.990514E+00 -5.198785E+00 +9.990514E+00 +3.778449E+02 +7.903979E+00 -5.198785E+00 +7.903979E+00 +9.687043E+02 
 +3.598925E+02 -3.796708E+00 -2.802946E+00 -3.796708E+00 +3.908055E+02 +1.187814E+01 -2.802946E+00 +1.187814E+01 +9.537197E+02 
 +3.290525E+02 -2.945940E+01 -3.628383E-01 -2.945940E+01 +3.628887E+02 -6.170416E-01 -3.628383E-01 -6.170416E-01 +9.417537E+02 
 +3.473768E+02 -6.345113E+00 -4.446838E+00 -6.345113E+00 +3.588530E+02 -1.665960E+01 -4.446838E+00 -1.665960E+01 +9.498925E+02 
 +3.555025E+02 +9.305256E-01 -3.910413E+00 +9.305256E-01 +3.661922E+02 -1.657671E+01 -3.910413E+00 -1.657671E+01 +9.507752E+02 
 +3.592709E+02 +6.205389E+00 -1.994871E+00 +6.205389E+00 +3.749507E+02 -7.704449E+00 -1.994871E+00 -7.704449E+00 +9.535773E+02 
 +3.628344E+02 +1.082953E+01 -1.459123E+00 +1.082953E+01 +3.813186E+02 -5.045352E+00 -1.459123E+00 -5.045352E+00 +9.576513E+02 
 +3.551936E+02 +1.362131E+01 -1.273147E+00 +1.362131E+01 +3.810181E+02 -2.425590E+00 -1.273147E+00 -2.425590E+00 +9.552245E+02 
 +3.715729E+02 +1.220740E+01 -4.865281E+00 +1.220740E+01 +3.917499E+02 -7.015995E+00 -4.865281E+00 -7.015995E+00 +9.551484E+02 
 +4.047324E+02 -1.374144E+01 -9.252664E+00 -1.374144E+01 +3.958149E+02 -1.341172E+01 -9.252664E+00 -1.341172E+01 +9.507504E+02 
 +3.895519E+02 -1.444506E+01 -1.060450E+01 -1.444506E+01 +3.677276E+02 -1.413455E+01 -1.060450E+01 -1.413455E+01 +9.355346E+02 
 +3.762816E+02 -1.734561E+01 -1.077987E+01 -1.734561E+01 +3.554523E+02 -1.409328E+01 -1.077987E+01 -1.409328E+01 +9.367930E+02 
 +3.599645E+02 -1.655452E+01 -1.264544E+01 -1.655452E+01 +3.477903E+02 -1.181572E+01 -1.264544E+01 -1.181572E+01 +9.360865E+02 
 +3.591836E+02 -1.066791E+01 -1.458496E+01 -1.066791E+01 +3.450402E+02 -1.049093E+01 -1.458496E+01 -1.049093E+01 +9.284065E+02 
 +3.593093E+02 -4.608711E+00 -1.500235E+01 -4.608711E+00 +3.489590E+02 -3.412057E+00 -1.500235E+01 -3.412057E+00 +9.317665E+02 
 +3.156752E+02 -1.534543E+01 -8.401851E+00 -1.534543E+01 +3.248303E+02 +1.051094E+01 -8.401851E+00 +1.051094E+01 +9.276761E+02 
 +3.605384E+02 +9.075392E+00 -5.063382E+00 +9.075392E+00 +3.500328E+02 +1.078730E+01 -5.063382E+00 +1.078730E+01 +9.360704E+02 
 +3.878252E+02 +4.580820E+00 -5.303210E-01 +4.580820E+00 +3.767072E+02 +5.575487E+00 -5.303210E-01 +5.575487E+00 +9.371550E+02 
 +4.028849E+02 +1.300710E+01 +7.609961E+00 +1.300710E+01 +4.002839E+02 +7.300525E+00 +7.609961E+00 +7.300525E+00 +9.503037E+02 
 +3.617582E+02 +1.461555E+00 +8.770035E+00 +1.461555E+00 +3.859659E+02 -1.238458E+01 +8.770035E+00 -1.238458E+01 +9.638185E+02 
 +3.654670E+02 +4.420667E+00 +2.038391E+00 +4.420667E+00 +3.991604E+02 -1.099152E+01 +2.038391E+00 -1.099152E+01 +9.904925E+02 
 +3.667913E+02 +7.381851E+00 -7.485815E+00 +7.381851E+00 +4.006380E+02 -4.799692E-01 -7.485815E+00 -4.799692E-01 +9.831360E+02 
 +3.972381E+02 -4.014281E+00 -1.179588E+01 -4.014281E+00 +4.034700E+02 +6.775832E+00 -1.179588E+01 +6.775832E+00 +9.667078E+02 
 +3.498714E+02 -2.596669E+01 -1.109330E+01 -2.596669E+01 +3.725603E+02 -3.671962E+00 -1.109330E+01 -3.671962E+00 +9.430405E+02 
 +3.493634E+02 -5.694649E+00 -1.133358E+01 -5.694649E+00 +3.684980E+02 -1.650634E+01 -1.133358E+01 -1.650634E+01 +9.500357E+02 
 +3.551614E+02 +1.606555E+00 -8.956707E+00 +1.606555E+00 +3.655339E+02 -1.683613E+01 -8.956707E+00 -1.683613E+01 +9.536159E+02 
 +3.579385E+02 +7.144874E+00 -1.680792E+00 +7.144874E+00 +3.679622E+02 -9.062329E+00 -1.680792E+00 -9.062329E+00 +9.579164E+02 
 +3.555753E+02 +1.492606E+01 +2.655190E+00 +1.492606E+01 +3.740430E+02 -6.140388E+00 +2.655190E+00 -6.140388E+00 +9.613189E+02 
 +3.625998E+02 +1.578454E+01 +2.720234E+00 +1.578454E+01 +3.907230E+02 -4.446375E+00 +2.720234E+00 -4.446375E+00 +9.741228E+02 
 +3.578500E+02 +1.379177E+01 +2.275532E+00 +1.379177E+01 +3.819846E+02 -8.780951E+00 +2.275532E+00 -8.780951E+00 +9.672912E+02 
 +3.935449E+02 -8.401785E+00 -6.377696E+00 -8.401785E+00 +3.798304E+02 -1.330428E+01 -6.377696E+00 -1.330428E+01 +9.555861E+02 
 +3.881258E+02 -5.130375E+00 -6.666270E+00 -5.130375E+00 +3.685729E+02 -1.157709E+01 -6.666270E+00 -1.157709E+01 +9.420027E+02 
 +3.761588E+02 -1.025858E+01 -6.543237E+00 -1.025858E+01 +3.556719E+02 -9.007604E+00 -6.543237E+00 -9.007604E+00 +9.393649E+02 
 +3.693589E+02 -1.004724E+01 -7.323146E+00 -1.004724E+01 +3.467094E+02 -8.339373E+00 -7.323146E+00 -8.339373E+00 +9.381350E+02 
 +3.656289E+02 -1.284325E+01 -7.265335E+00 -1.284325E+01 +3.413747E+02 -8.683724E+00 -7.265335E+00 -8.683724E+00 +9.321528E+02 
 +3.664925E+02 -3.579920E+00 -8.361627E+00 -3.579920E+00 +3.431543E+02 -3.121052E+00 -8.361627E+00 -3.121052E+00 +9.415382E+02 
 +3.253014E+02 -1.192993E+01 -4.052269E-01 -1.192993E+01 +3.227166E+02 +8.469796E+00 -4.052269E-01 +8.469796E+00 +9.406928E+02 
 +3.566460E+02 +3.235211E+01 +8.409832E+00 +3.235211E+01 +3.290299E+02 +6.136849E+00 +8.409832E+00 +6.136849E+00 +9.412956E+02 
 +3.545596E+02 +2.909708E+01 +9.752532E+00 +2.909708E+01 +3.175336E+02 -7.941371E+00 +9.752532E+00 -7.941371E+00 +9.266294E+02 
 +3.886474E+02 +3.924508E+01 +9.254408E+00 +3.924508E+01 +3.685083E+02 -1.224123E+01 +9.254408E+00 -1.224123E+01 +9.510440E+02 
 +3.343361E+02 -8.381804E+00 +4.881420E+00 -8.381804E+00 +3.669080E+02 -1.045756E+01 +4.881420E+00 -1.045756E+01 +9.560261E+02 
 +3.431061E+02 +1.884109E+00 +5.308530E-01 +1.884109E+00 +3.987683E+02 -8.629937E+00 +5.308530E-01 -8.629937E+00 +9.785335E+02 
 +3.714525E+02 +6.862536E-01 -7.317925E+00 +6.862536E-01 +3.994160E+02 -2.816804E+00 -7.317925E+00 -2.816804E+00 +9.775229E+02 
 +4.125732E+02 -9.759184E+00 -1.667244E+01 -9.759184E+00 +3.840773E+02 +6.759453E-01 -1.667244E+01 +6.759453E-01 +9.643338E+02 
 +3.838083E+02 -2.353559E+01 -1.826511E+01 -2.353559E+01 +3.739501E+02 -1.769330E+00 -1.826511E+01 -1.769330E+00 +9.499833E+02 
 +3.545487E+02 -8.845461E-01 -1.113640E+01 -8.845461E-01 +3.767176E+02 -1.400706E+01 -1.113640E+01 -1.400706E+01 +9.530227E+02 
 +3.433533E+02 +7.737447E+00 -9.410860E+00 +7.737447E+00 +3.604504E+02 -2.025172E+01 -9.410860E+00 -2.025172E+01 +9.513868E+02 
 +3.426489E+02 +1.130523E+01 +7.619299E-01 +1.130523E+01 +3.545208E+02 -1.527775E+01 +7.619299E-01 -1.527775E+01 +9.529490E+02 
 +3.518620E+02 +1.792530E+01 +7.620217E+00 +1.792530E+01 +3.704020E+02 -1.344545E+01 +7.620217E+00 -1.344545E+01 +9.638540E+02 
 +3.674351E+02 +2.032168E+01 +9.199774E+00 +2.032168E+01 +3.877143E+02 -9.816024E+00 +9.199774E+00 -9.816024E+00 +9.858559E+02 
 +3.760315E+02 +1.515400E+01 +4.244093E+00 +1.515400E+01 +3.788242E+02 -7.225870E+00 +4.244093E+00 -7.225870E+00 +9.872156E+02 
 +3.881649E+02 +2.443926E+00 -3.412153E+00 +2.443926E+00 +3.738456E+02 -8.930084E+00 -3.412153E+00 -8.930084E+00 +9.640240E+02 
 +3.805327E+02 +4.700990E+00 -6.127189E+00 +4.700990E+00 +3.688422E+02 -9.458496E+00 -6.127189E+00 -9.458496E+00 +9.428972E+02 
 +3.777343E+02 -3.433445E+00 -9.454528E+00 -3.433445E+00 +3.648224E+02 -8.053883E+00 -9.454528E+00 -8.053883E+00 +9.420160E+02 
 +3.835810E+02 -2.659183E-01 -1.097870E+01 -2.659183E-01 +3.689150E+02 -9.424577E+00 -1.097870E+01 -9.424577E+00 +9.537823E+02 
 +3.711772E+02 -6.467453E+00 -8.096575E+00 -6.467453E+00 +3.594955E+02 -1.189717E+01 -8.096575E+00 -1.189717E+01 +9.434588E+02 
 +3.612936E+02 -5.719408E+00 -7.573951E+00 -5.719408E+00 +3.386085E+02 -4.956596E+00 -7.573951E+00 -4.956596E+00 +9.402601E+02 
 +3.393366E+02 -1.832775E+01 +1.242553E+00 -1.832775E+01 +3.335570E+02 +4.271349E+00 +1.242553E+00 +4.271349E+00 +9.507040E+02 
 +3.733380E+02 -1.566638E+00 +1.035247E+01 -1.566638E+00 +3.622596E+02 -3.216521E-01 +1.035247E+01 -3.216521E-01 +9.614506E+02 
 +3.707733E+02 -6.009841E+00 +8.264752E+00 -6.009841E+00 +3.516542E+02 -1.085515E+01 +8.264752E+00 -1.085515E+01 +9.476138E+02 
 +3.853288E+02 +2.657761E+01 +4.601743E+00 +2.657761E+01 +3.680622E+02 -1.092345E+01 +4.601743E+00 -1.092345E+01 +9.577228E+02 
 +3.437840E+02 -8.745974E+00 +3.999215E+00 -8.745974E+00 +3.813684E+02 -1.172721E+01 +3.999215E+00 -1.172721E+01 +9.646819E+02 
 +3.560631E+02 -5.429636E+00 +5.912536E-01 -5.429636E+00 +3.919204E+02 -8.156038E+00 +5.912536E-01 -8.156038E+00 +9.752350E+02 
 +3.836685E+02 -2.379600E+00 -6.004209E+00 -2.379600E+00 +3.720696E+02 -2.406712E+00 -6.004209E+00 -2.406712E+00 +9.690951E+02 
 +3.984582E+02 -6.027118E+00 -1.222949E+01 -6.027118E+00 +3.730818E+02 -4.359247E-01 -1.222949E+01 -4.359247E-01 +9.575304E+02 
 +4.105930E+02 -2.118293E+01 -1.505981E+01 -2.118293E+01 +4.003625E+02 -7.270333E-01 -1.505981E+01 -7.270333E-01 +9.616837E+02 
 +3.511954E+02 -3.071444E+01 -3.514624E+00 -3.071444E+01 +3.854735E+02 -9.538916E+00 -3.514624E+00 -9.538916E+00 +9.507170E+02 
 +3.378284E+02 -3.265794E+01 -3.376499E+00 -3.265794E+01 +3.729630E+02 -1.260603E+01 -3.376499E+00 -1.260603E+01 +9.520257E+02 
 +3.541631E+02 -1.468982E+01 +2.681396E+00 -1.468982E+01 +3.743801E+02 -5.108123E+00 +2.681396E+00 -5.108123E+00 +9.591444E+02 
 +3.456565E+02 -2.877932E+00 +1.172921E+01 -2.877932E+00 +3.600740E+02 -7.506684E+00 +1.172921E+01 -7.506684E+00 +9.621659E+02 
 +3.754715E+02 -1.473656E+00 +1.949735E+01 -1.473656E+00 +3.518849E+02 -9.353139E+00 +1.949735E+01 -9.353139E+00 +9.818135E+02 
 +3.795052E+02 -4.398176E-01 +1.141495E+01 -4.398176E-01 +3.396847E+02 +7.455996E-02 +1.141495E+01 +7.455996E-02 +9.846157E+02 
 +3.861570E+02 -7.735704E-01 +4.408594E+00 -7.735704E-01 +3.540829E+02 +2.551328E+00 +4.408594E+00 +2.551328E+00 +9.775249E+02 
 +3.859855E+02 +4.165886E+00 -5.450025E+00 +4.165886E+00 +3.700562E+02 -3.046012E+00 -5.450025E+00 -3.046012E+00 +9.626963E+02 
 +3.886728E+02 +8.843362E-02 -1.031618E+01 +8.843362E-02 +3.800317E+02 -4.195485E+00 -1.031618E+01 -4.195485E+00 +9.627109E+02 
 +3.809042E+02 -1.451027E+00 -1.124412E+01 -1.451027E+00 +3.662628E+02 -4.279349E+00 -1.124412E+01 -4.279349E+00 +9.580261E+02 
 +3.726386E+02 +1.755865E+00 -1.562339E+01 +1.755865E+00 +3.503259E+02 -1.058209E+01 -1.562339E+01 -1.058209E+01 +9.390453E+02 
 +3.440071E+02 +2.505036E+00 -1.553580E+01 +2.505036E+00 +3.361328E+02 -1.012317E+01 -1.553580E+01 -1.012317E+01 +9.328244E+02 
 +3.239370E+02 +5.291997E+00 -8.309974E-01 +5.291997E+00 +3.303874E+02 -6.163032E-01 -8.309974E-01 -6.163032E-01 +9.453755E+02 
 +3.413980E+02 +1.804362E+01 +5.937091E+00 +1.804362E+01 +3.491040E+02 +2.885393E+00 +5.937091E+00 +2.885393E+00 +9.532705E+02 
 +3.740805E+02 +1.377324E+01 +3.479741E+00 +1.377324E+01 +3.847387E+02 -3.984886E+00 +3.479741E+00 -3.984886E+00 +9.647371E+02 
 +3.759209E+02 +2.099657E+01 +2.787402E+00 +2.099657E+01 +3.866748E+02 -1.076604E+01 +2.787402E+00 -1.076604E+01 +9.669897E+02 
 +3.420323E+02 +1.236191E+01 +3.709613E+00 +1.236191E+01 +3.687307E+02 -7.055882E+00 +3.709613E+00 -7.055882E+00 +9.671469E+02 
 +3.592276E+02 -1.716085E+00 -1.844078E+00 -1.716085E+00 +3.468223E+02 -6.322566E-01 -1.844078E+00 -6.322566E-01 +9.617130E+02 
 +3.828295E+02 -1.959918E+00 -6.221545E+00 -1.959918E+00 +3.614880E+02 +3.049671E+00 -6.221545E+00 +3.049671E+00 +9.606871E+02 
 +3.918858E+02 -8.513480E+00 -9.488529E+00 -8.513480E+00 +3.825599E+02 +6.673706E-01 -9.488529E+00 +6.673706E-01 +9.579494E+02 
 +3.976289E+02 -1.531180E+01 -1.189154E+01 -1.531180E+01 +4.012704E+02 -2.793917E+00 -1.189154E+01 -2.793917E+00 +9.611170E+02 
 +3.323718E+02 -2.082510E+01 +3.477157E+00 -2.082510E+01 +3.806617E+02 -8.297711E+00 +3.477157E+00 -8.297711E+00 +9.438107E+02 
 +3.325713E+02 -2.642373E+01 +4.023237E+00 -2.642373E+01 +3.762712E+02 -9.870592E+00 +4.023237E+00 -9.870592E+00 +9.469103E+02 
 +3.673437E+02 -6.195403E+00 +3.777385E+00 -6.195403E+00 +3.855218E+02 -5.676321E+00 +3.777385E+00 -5.676321E+00 +9.617893E+02 
 +3.528298E+02 -6.979518E+00 +9.129245E+00 -6.979518E+00 +3.584547E+02 -2.297138E+00 +9.129245E+00 -2.297138E+00 +9.629473E+02 
 +3.914208E+02 -7.897072E+00 +1.390789E+01 -7.897072E+00 +3.416912E+02 -9.577463E-01 +1.390789E+01 -9.577463E-01 +9.719341E+02 
 +3.876675E+02 -1.991700E-01 +1.053273E+01 -1.991700E-01 +3.295483E+02 +2.748372E+00 +1.053273E+01 +2.748372E+00 +9.674839E+02 
 +3.917566E+02 -1.046989E+00 +9.374869E+00 -1.046989E+00 +3.504178E+02 +5.584322E+00 +9.374869E+00 +5.584322E+00 +9.804541E+02 
 +3.895102E+02 -5.673886E+00 +1.169749E+00 -5.673886E+00 +3.516798E+02 +8.107118E+00 +1.169749E+00 +8.107118E+00 +9.776803E+02 
 +3.829535E+02 -7.279319E+00 -2.618332E+00 -7.279319E+00 +3.470115E+02 +7.218176E+00 -2.618332E+00 +7.218176E+00 +9.714323E+02 
 +3.801338E+02 -9.165715E+00 -4.612712E+00 -9.165715E+00 +3.442651E+02 +2.670331E+00 -4.612712E+00 +2.670331E+00 +9.615071E+02 
 +3.725811E+02 +2.853740E-01 -1.806041E+01 +2.853740E-01 +3.425511E+02 -2.468653E+00 -1.806041E+01 -2.468653E+00 +9.509487E+02 
 +3.372876E+02 -6.831721E+00 -1.578529E+01 -6.831721E+00 +3.508360E+02 +2.320751E+00 -1.578529E+01 +2.320751E+00 +9.512071E+02 
 +3.231671E+02 -1.522111E+01 +8.800924E-01 -1.522111E+01 +3.527974E+02 +4.888299E+00 +8.800924E-01 +4.888299E+00 +9.577309E+02 
 +3.408279E+02 +3.404308E+00 +7.173822E+00 +3.404308E+00 +3.581756E+02 +4.991916E+00 +7.173822E+00 +4.991916E+00 +9.680812E+02 
 +3.498780E+02 +1.138356E+01 +4.250447E+00 +1.138356E+01 +3.720229E+02 +9.094594E-01 +4.250447E+00 +9.094594E-01 +9.711699E+02 
 +3.576981E+02 +2.914652E+01 +2.098233E+00 +2.914652E+01 +3.894001E+02 -6.128240E+00 +2.098233E+00 -6.128240E+00 +9.744153E+02 
 +3.530326E+02 -1.679486E+01 +5.668969E+00 -1.679486E+01 +3.615485E+02 -2.136361E+00 +5.668969E+00 -2.136361E+00 +9.788377E+02 
 +3.579227E+02 -1.524886E+01 +2.645184E+00 -1.524886E+01 +3.426629E+02 +4.727084E+00 +2.645184E+00 +4.727084E+00 +9.619526E+02 
 +3.797465E+02 -8.540376E+00 -3.323502E+00 -8.540376E+00 +3.654415E+02 +7.293087E+00 -3.323502E+00 +7.293087E+00 +9.580411E+02 
 +3.967383E+02 -8.802940E+00 -5.523492E+00 -8.802940E+00 +3.876065E+02 +5.664096E-01 -5.523492E+00 +5.664096E-01 +9.617460E+02 
 +3.974742E+02 -1.166488E+01 -7.997602E+00 -1.166488E+01 +3.990711E+02 -2.328281E+00 -7.997602E+00 -2.328281E+00 +9.653286E+02 
 +3.492256E+02 -1.249841E+01 +2.192429E+00 -1.249841E+01 +3.865107E+02 -5.494761E+00 +2.192429E+00 -5.494761E+00 +9.541181E+02 
 +3.426928E+02 -2.062354E+01 +4.877031E+00 -2.062354E+01 +3.885405E+02 -4.871030E+00 +4.877031E+00 -4.871030E+00 +9.542329E+02 
 +3.576368E+02 +1.766712E+00 +6.951830E+00 +1.766712E+00 +3.805388E+02 -3.730730E+00 +6.951830E+00 -3.730730E+00 +9.644758E+02 
 +3.795776E+02 -3.146811E+00 +8.941659E+00 -3.146811E+00 +3.708698E+02 -1.205281E+00 +8.941659E+00 -1.205281E+00 +9.690347E+02 
 +4.079729E+02 -1.529935E-01 +9.120822E-01 -1.529935E-01 +3.756336E+02 +1.103548E+01 +9.120822E-01 +1.103548E+01 +9.559918E+02 
 +4.002142E+02 +8.384585E+00 -1.846419E+00 +8.384585E+00 +3.708361E+02 +1.643444E+01 -1.846419E+00 +1.643444E+01 +9.519363E+02 
 +3.871008E+02 -1.829820E+00 +3.149074E+00 -1.829820E+00 +3.529603E+02 +1.274622E+01 +3.149074E+00 +1.274622E+01 +9.694666E+02 
 +3.875096E+02 -1.013447E+01 +4.273145E-01 -1.013447E+01 +3.403866E+02 +1.099507E+01 +4.273145E-01 +1.099507E+01 +9.792596E+02 
 +3.931484E+02 -9.344928E+00 -4.313857E+00 -9.344928E+00 +3.378200E+02 +8.418422E+00 -4.313857E+00 +8.418422E+00 +9.772971E+02 
 +4.036196E+02 -1.280085E+01 -5.048473E+00 -1.280085E+01 +3.525830E+02 +5.633797E+00 -5.048473E+00 +5.633797E+00 +9.801225E+02 
 +3.465466E+02 -5.156880E+00 -1.496082E+01 -5.156880E+00 +3.414772E+02 +2.881452E+00 -1.496082E+01 +2.881452E+00 +9.638949E+02 
 +3.289390E+02 -7.462429E+00 -6.792814E+00 -7.462429E+00 +3.489137E+02 +1.853458E+00 -6.792814E+00 +1.853458E+00 +9.641578E+02 
 +3.210686E+02 -1.553622E+01 +3.390051E+00 -1.553622E+01 +3.627814E+02 +5.190158E-01 +3.390051E+00 +5.190158E-01 +9.650722E+02 
 +3.345497E+02 +2.765276E-01 +8.035981E+00 +2.765276E-01 +3.665153E+02 +2.815792E+00 +8.035981E+00 +2.815792E+00 +9.718075E+02 
 +3.420357E+02 +9.554670E+00 +5.466521E+00 +9.554670E+00 +3.635623E+02 +2.398146E+00 +5.466521E+00 +2.398146E+00 +9.726492E+02 
 +3.537359E+02 +2.207755E+01 +1.514556E+00 +2.207755E+01 +3.831790E+02 -1.110231E+00 +1.514556E+00 -1.110231E+00 +9.826587E+02 
 +3.563480E+02 -2.984787E+01 +5.756990E+00 -2.984787E+01 +3.659857E+02 -4.993164E+00 +5.756990E+00 -4.993164E+00 +9.828415E+02 
 +3.744114E+02 -2.442089E+01 +4.676931E+00 -2.442089E+01 +3.673251E+02 -1.440745E+00 +4.676931E+00 -1.440745E+00 +9.739719E+02 
 +3.994059E+02 -9.376532E+00 -3.758604E+00 -9.376532E+00 +3.687606E+02 +4.659428E+00 -3.758604E+00 +4.659428E+00 +9.671682E+02 
 +4.054668E+02 -2.855761E+00 -6.751507E+00 -2.855761E+00 +3.817730E+02 -1.576467E+00 -6.751507E+00 -1.576467E+00 +9.707924E+02 
 +3.757905E+02 -1.683262E+01 -2.715729E+00 -1.683262E+01 +3.721025E+02 -3.678847E+00 -2.715729E+00 -3.678847E+00 +9.639850E+02 
 +3.497537E+02 -1.920668E+01 -8.670274E-01 -1.920668E+01 +3.491461E+02 +4.354119E-01 -8.670274E-01 +4.354119E-01 +9.522743E+02 
 +3.540422E+02 -2.503884E+01 +1.815303E+00 -2.503884E+01 +3.606316E+02 +1.774489E+00 +1.815303E+00 +1.774489E+00 +9.575335E+02 
 +3.439316E+02 -6.782805E+00 +3.437333E+00 -6.782805E+00 +3.515722E+02 -3.067194E+00 +3.437333E+00 -3.067194E+00 +9.655688E+02 
 +3.893016E+02 -3.468744E+00 +1.153209E+01 -3.468744E+00 +3.607617E+02 -5.587364E+00 +1.153209E+01 -5.587364E+00 +9.692442E+02 
 +3.949984E+02 +1.641948E+00 -5.831369E-01 +1.641948E+00 +3.698277E+02 +1.010726E+01 -5.831369E-01 +1.010726E+01 +9.298393E+02 
 +3.872711E+02 +4.399193E+00 -5.479773E+00 +4.399193E+00 +3.681757E+02 +1.626699E+01 -5.479773E+00 +1.626699E+01 +9.291693E+02 
 +3.811000E+02 -5.144926E+00 -3.431797E-01 -5.144926E+00 +3.546291E+02 +1.106552E+01 -3.431797E-01 +1.106552E+01 +9.646984E+02 
 +3.863298E+02 -9.793550E+00 -4.782871E+00 -9.793550E+00 +3.434213E+02 +6.079071E+00 -4.782871E+00 +6.079071E+00 +9.823253E+02 
 +3.943623E+02 -1.289101E+01 -9.659940E+00 -1.289101E+01 +3.344988E+02 +2.682912E+00 -9.659940E+00 +2.682912E+00 +9.807632E+02 
 +4.097778E+02 -1.019025E+01 -5.743732E+00 -1.019025E+01 +3.516356E+02 -1.602425E+00 -5.743732E+00 -1.602425E+00 +9.911627E+02 
 +3.135525E+02 -9.885330E-01 -1.370714E+01 -9.885330E-01 +3.280702E+02 -4.729950E+00 -1.370714E+01 -4.729950E+00 +9.633443E+02 
 +3.232767E+02 -8.727163E+00 -5.957509E+00 -8.727163E+00 +3.537363E+02 -2.697522E+00 -5.957509E+00 -2.697522E+00 +9.722511E+02 
 +3.307564E+02 -1.789167E+01 +4.084050E+00 -1.789167E+01 +3.747333E+02 +9.545670E-01 +4.084050E+00 +9.545670E-01 +9.756825E+02 
 +3.303902E+02 -1.431522E+01 +9.873642E+00 -1.431522E+01 +3.805784E+02 +4.025184E+00 +9.873642E+00 +4.025184E+00 +9.767896E+02 
 +3.384157E+02 +7.257170E+00 +7.280373E+00 +7.257170E+00 +3.769605E+02 +6.478838E+00 +7.280373E+00 +6.478838E+00 +9.789717E+02 
 +3.386493E+02 +1.783859E+01 +1.699798E+00 +1.783859E+01 +3.657008E+02 +1.166996E+00 +1.699798E+00 +1.166996E+00 +9.793703E+02 
 +3.663188E+02 -5.350563E+00 -2.832707E+00 -5.350563E+00 +3.453535E+02 -2.737315E+00 -2.832707E+00 -2.737315E+00 +9.771547E+02 
 +3.843883E+02 +7.670707E+00 -4.386394E+00 +7.670707E+00 +3.596508E+02 -5.102182E+00 -4.386394E+00 -5.102182E+00 +9.734692E+02 
 +3.919208E+02 +1.598445E+01 -9.719183E+00 +1.598445E+01 +3.580639E+02 -1.137967E+00 -9.719183E+00 -1.137967E+00 +9.655934E+02 
 +3.791488E+02 +1.264727E+01 -1.138644E+01 +1.264727E+01 +3.533932E+02 -1.063312E+00 -1.138644E+01 -1.063312E+00 +9.656555E+02 
 +3.568328E+02 -9.387785E+00 -4.049550E+00 -9.387785E+00 +3.566038E+02 -1.779690E+00 -4.049550E+00 -1.779690E+00 +9.747821E+02 
 +3.767050E+02 -1.660820E+01 -8.948311E-01 -1.660820E+01 +3.746217E+02 +1.109497E+00 -8.948311E-01 +1.109497E+00 +9.886468E+02 
 +3.713464E+02 -2.907301E+01 -5.772224E-01 -2.907301E+01 +3.571436E+02 -2.602191E-01 -5.772224E-01 -2.602191E-01 +9.817507E+02 
 +3.558398E+02 -2.443794E+01 +2.056793E+00 -2.443794E+01 +3.312660E+02 -6.414872E+00 +2.056793E+00 -6.414872E+00 +9.748265E+02 
 +3.976866E+02 -1.970824E+00 +1.162585E+01 -1.970824E+00 +3.597319E+02 -1.968647E+00 +1.162585E+01 -1.968647E+00 +9.747896E+02 
 +4.081913E+02 +7.915061E+00 +4.972017E+00 +7.915061E+00 +3.859010E+02 +1.776560E+01 +4.972017E+00 +1.776560E+01 +9.479320E+02 
 +3.958352E+02 -5.059865E-01 -1.478159E+00 -5.059865E-01 +3.787981E+02 +2.421168E+01 -1.478159E+00 +2.421168E+01 +9.435695E+02 
 +3.775945E+02 -1.049244E+01 +1.483076E+00 -1.049244E+01 +3.518196E+02 +1.199387E+01 +1.483076E+00 +1.199387E+01 +9.623327E+02 
 +3.813615E+02 -1.015991E+01 -4.410411E+00 -1.015991E+01 +3.459809E+02 +2.148475E+00 -4.410411E+00 +2.148475E+00 +9.775623E+02 
 +3.780158E+02 -1.796409E+01 -7.662837E+00 -1.796409E+01 +3.286539E+02 -1.373952E+00 -7.662837E+00 -1.373952E+00 +9.755325E+02 
 +3.650027E+02 -1.038990E+01 -5.560073E+00 -1.038990E+01 +3.273017E+02 -6.898648E+00 -5.560073E+00 -6.898648E+00 +9.790936E+02 
 +3.104148E+02 -8.097479E+00 -1.290042E+01 -8.097479E+00 +3.354238E+02 -1.222193E+01 -1.290042E+01 -1.222193E+01 +9.713090E+02 
 +3.272556E+02 -1.544336E+01 -9.246761E+00 -1.544336E+01 +3.658581E+02 -1.046096E+01 -9.246761E+00 -1.046096E+01 +9.823036E+02 
 +3.357920E+02 -1.414515E+01 +2.207430E-01 -1.414515E+01 +3.778929E+02 -1.931603E+00 +2.207430E-01 -1.931603E+00 +9.871111E+02 
 +3.261416E+02 -1.756520E+01 +4.328452E+00 -1.756520E+01 +3.887947E+02 +5.679831E+00 +4.328452E+00 +5.679831E+00 +9.895816E+02 
 +3.259642E+02 -7.696826E+00 +5.590643E+00 -7.696826E+00 +3.796510E+02 +6.918213E+00 +5.590643E+00 +6.918213E+00 +9.854788E+02 
 +3.650071E+02 +6.578078E+00 -5.263536E-01 +6.578078E+00 +3.588054E+02 +2.884414E+00 -5.263536E-01 +2.884414E+00 +9.881916E+02 
 +4.116111E+02 +3.996433E+00 -1.020914E+00 +3.996433E+00 +3.836926E+02 -1.813063E+01 -1.020914E+00 -1.813063E+01 +9.973997E+02 
 +3.871682E+02 +6.889881E+00 -1.703385E+00 +6.889881E+00 +3.488608E+02 -7.356564E+00 -1.703385E+00 -7.356564E+00 +9.734295E+02 
 +3.682845E+02 +1.786563E+01 -4.309238E+00 +1.786563E+01 +3.377406E+02 +3.533911E+00 -4.309238E+00 +3.533911E+00 +9.613164E+02 
 +3.547345E+02 +1.535052E+01 +1.075027E+00 +1.535052E+01 +3.372267E+02 +2.842902E+00 +1.075027E+00 +2.842902E+00 +9.690708E+02 
 +3.740500E+02 +1.440987E+01 +6.858545E+00 +1.440987E+01 +3.479085E+02 -2.435602E+00 +6.858545E+00 -2.435602E+00 +1.009030E+03 
 +3.630477E+02 +1.496117E+01 -4.931629E-01 +1.496117E+01 +3.317885E+02 -2.502810E+00 -4.931629E-01 -2.502810E+00 +1.006382E+03 
 +3.720435E+02 +7.079118E+00 -5.232915E+00 +7.079118E+00 +3.420736E+02 +1.029000E+00 -5.232915E+00 +1.029000E+00 +9.817339E+02 
 +3.791427E+02 +1.612902E+01 -1.736878E+00 +1.612902E+01 +3.589615E+02 +1.069712E+01 -1.736878E+00 +1.069712E+01 +9.497224E+02 
 +3.739683E+02 +2.604252E+01 +6.301806E+00 +2.604252E+01 +3.445484E+02 +1.183517E+01 +6.301806E+00 +1.183517E+01 +9.321946E+02 
 +3.672629E+02 +2.229549E+01 +4.596800E+00 +2.229549E+01 +3.282095E+02 +9.115554E+00 +4.596800E+00 +9.115554E+00 +9.358806E+02 
 +3.770215E+02 -7.251163E-01 +3.165408E+00 -7.251163E-01 +3.353602E+02 +1.193258E+01 +3.165408E+00 +1.193258E+01 +9.444035E+02 
 +3.777991E+02 -6.945903E+00 +1.750099E+00 -6.945903E+00 +3.440424E+02 +2.084418E+01 +1.750099E+00 +2.084418E+01 +9.565249E+02 
 +3.696226E+02 -1.645896E+01 -6.350309E-01 -1.645896E+01 +3.394136E+02 +1.676751E+01 -6.350309E-01 +1.676751E+01 +9.637470E+02 
 +3.520259E+02 -1.385385E+01 -3.863962E+00 -1.385385E+01 +3.330659E+02 +1.214938E+01 -3.863962E+00 +1.214938E+01 +9.594867E+02 
 +3.211602E+02 +1.657746E+00 -6.528519E+00 +1.657746E+00 +3.430353E+02 +8.490650E+00 -6.528519E+00 +8.490650E+00 +9.564491E+02 
 +3.096296E+02 -1.001169E+00 -3.345654E+00 -1.001169E+00 +3.403371E+02 -5.943103E+00 -3.345654E+00 -5.943103E+00 +9.593872E+02 
 +3.011217E+02 -1.749918E+00 +1.282468E+00 -1.749918E+00 +3.365909E+02 -1.580058E+01 +1.282468E+00 -1.580058E+01 +9.619873E+02 
 +3.076139E+02 +9.004063E-01 +1.052737E+01 +9.004063E-01 +3.496101E+02 -1.273288E+01 +1.052737E+01 -1.273288E+01 +9.766386E+02 
 +3.569200E+02 -6.839765E-01 +6.872580E+00 -6.839765E-01 +3.710069E+02 -7.609825E+00 +6.872580E+00 -7.609825E+00 +1.001222E+03 
 +3.541545E+02 +2.003959E+01 +1.688542E+01 +2.003959E+01 +3.648810E+02 -1.365808E+01 +1.688542E+01 -1.365808E+01 +1.002065E+03 
 +3.842778E+02 +2.731469E+01 +9.321148E+00 +2.731469E+01 +3.884665E+02 -1.911377E+01 +9.321148E+00 -1.911377E+01 +1.009574E+03 
 +3.955027E+02 -1.009327E+01 -5.020161E+00 -1.009327E+01 +3.743252E+02 -1.976482E+01 -5.020161E+00 -1.976482E+01 +9.959966E+02 
 +3.788054E+02 -2.079752E+00 -5.622423E-01 -2.079752E+00 +3.438962E+02 -1.002981E+01 -5.622423E-01 -1.002981E+01 +9.662580E+02 
 +3.638559E+02 +4.640834E+00 -3.761973E+00 +4.640834E+00 +3.247336E+02 -1.151788E+00 -3.761973E+00 -1.151788E+00 +9.558189E+02 
 +3.796412E+02 +8.896361E+00 +5.583810E+00 +8.896361E+00 +3.320870E+02 +3.289716E+00 +5.583810E+00 +3.289716E+00 +9.812975E+02 
 +3.933619E+02 +5.493719E+00 +3.882401E+00 +5.493719E+00 +3.486952E+02 -7.412891E-01 +3.882401E+00 -7.412891E-01 +1.020364E+03 
 +3.835588E+02 +1.028450E+01 -5.792923E+00 +1.028450E+01 +3.534738E+02 -3.312631E+00 -5.792923E+00 -3.312631E+00 +1.019539E+03 
 +3.867043E+02 +3.798025E+00 -1.447217E+01 +3.798025E+00 +3.645233E+02 +6.051707E+00 -1.447217E+01 +6.051707E+00 +9.913849E+02 
 +3.862056E+02 +1.284504E+01 -9.706558E+00 +1.284504E+01 +3.703088E+02 +1.619395E+01 -9.706558E+00 +1.619395E+01 +9.473422E+02 
 +3.876913E+02 +1.735320E+01 +1.654964E+00 +1.735320E+01 +3.720791E+02 +1.756961E+01 +1.654964E+00 +1.756961E+01 +9.396063E+02 
 +3.641169E+02 +3.214485E+01 +4.460363E+00 +3.214485E+01 +3.491506E+02 +1.430717E+01 +4.460363E+00 +1.430717E+01 +9.581681E+02 
 +3.809968E+02 +8.994788E+00 +1.083937E+01 +8.994788E+00 +3.484771E+02 +1.784814E+01 +1.083937E+01 +1.784814E+01 +9.683478E+02 
 +3.764927E+02 +9.255214E-01 +6.654277E+00 +9.255214E-01 +3.406534E+02 +2.754676E+01 +6.654277E+00 +2.754676E+01 +9.564257E+02 
 +3.655354E+02 -1.343074E+01 -1.909767E+00 -1.343074E+01 +3.414633E+02 +2.582120E+01 -1.909767E+00 +2.582120E+01 +9.590321E+02 
 +3.451258E+02 +3.122403E+00 -1.263628E+01 +3.122403E+00 +3.649790E+02 +1.550099E+01 -1.263628E+01 +1.550099E+01 +9.699636E+02 
 +3.130478E+02 +6.214207E+00 -1.402964E+01 +6.214207E+00 +3.533691E+02 +7.170433E+00 -1.402964E+01 +7.170433E+00 +9.646872E+02 
 +2.977879E+02 +4.037545E+00 -1.161130E+01 +4.037545E+00 +3.331712E+02 -1.115495E+00 -1.161130E+01 -1.115495E+00 +9.592408E+02 
 +3.018069E+02 +3.175733E+00 -4.154567E+00 +3.175733E+00 +3.424031E+02 -1.208779E+01 -4.154567E+00 -1.208779E+01 +9.648924E+02 
 +3.310318E+02 +1.018180E+01 +1.240401E+00 +1.018180E+01 +3.572791E+02 -1.895635E+01 +1.240401E+00 -1.895635E+01 +9.855241E+02 
 +3.807915E+02 +6.123633E+00 -5.168860E+00 +6.123633E+00 +3.759222E+02 -1.516862E+01 -5.168860E+00 -1.516862E+01 +1.009622E+03 
 +3.717692E+02 +1.729972E+01 +4.143415E+00 +1.729972E+01 +3.714467E+02 -1.395031E+01 +4.143415E+00 -1.395031E+01 +1.010335E+03 
 +3.641226E+02 +2.081475E+01 -3.573117E-01 +2.081475E+01 +3.722120E+02 -1.855308E+01 -3.573117E-01 -1.855308E+01 +1.007416E+03 
 +3.870632E+02 -6.647444E+00 -9.053298E+00 -6.647444E+00 +3.836710E+02 -5.816794E+00 -9.053298E+00 -5.816794E+00 +9.857629E+02 
 +3.845889E+02 +3.473589E+00 +1.474203E+00 +3.473589E+00 +3.783065E+02 +5.488543E+00 +1.474203E+00 +5.488543E+00 +9.650251E+02 
 +3.737986E+02 +4.989050E+00 -4.370641E-02 +4.989050E+00 +3.499228E+02 +7.097647E+00 -4.370641E-02 +7.097647E+00 +9.536252E+02 
 +3.988309E+02 +4.667374E+00 +1.721605E+01 +4.667374E+00 +3.407329E+02 -4.541384E-01 +1.721605E+01 -4.541384E-01 +9.866802E+02 
 +4.119053E+02 +3.352904E+00 +8.762225E+00 +3.352904E+00 +3.566983E+02 -5.506917E+00 +8.762225E+00 -5.506917E+00 +1.021342E+03 
 +3.969632E+02 +8.039768E+00 -8.888935E+00 +8.039768E+00 +3.659339E+02 -2.481282E+00 -8.888935E+00 -2.481282E+00 +1.016948E+03 
 +3.951871E+02 +5.779427E+00 -1.948183E+01 +5.779427E+00 +3.734315E+02 +5.280641E+00 -1.948183E+01 +5.280641E+00 +9.931692E+02 
 +3.904271E+02 +1.291150E+01 -1.213798E+01 +1.291150E+01 +3.752494E+02 +1.100470E+01 -1.213798E+01 +1.100470E+01 +9.512821E+02 
 +4.022044E+02 +7.415877E+00 -3.385609E+00 +7.415877E+00 +3.829552E+02 +1.278877E+01 -3.385609E+00 +1.278877E+01 +9.404091E+02 
 +3.805568E+02 +1.556720E+01 +3.398503E+00 +1.556720E+01 +3.626037E+02 +1.389489E+01 +3.398503E+00 +1.389489E+01 +9.514958E+02 
 +3.582792E+02 +8.466502E+00 +3.236206E+00 +8.466502E+00 +3.427694E+02 +2.572947E+01 +3.236206E+00 +2.572947E+01 +9.541629E+02 
 +3.567693E+02 -6.611261E+00 +1.705667E+00 -6.611261E+00 +3.474795E+02 +3.225998E+01 +1.705667E+00 +3.225998E+01 +9.539027E+02 
 +3.398847E+02 -2.944956E+01 -7.416745E+00 -2.944956E+01 +3.554794E+02 +3.078222E+01 -7.416745E+00 +3.078222E+01 +9.619003E+02 
 +3.322256E+02 -2.061928E+01 -1.185070E+01 -2.061928E+01 +3.594471E+02 +2.341388E+01 -1.185070E+01 +2.341388E+01 +9.772599E+02 
 +3.240263E+02 -1.764562E+01 -1.069654E+01 -1.764562E+01 +3.475555E+02 +1.081968E+01 -1.069654E+01 +1.081968E+01 +9.733419E+02 
 +2.986197E+02 +1.556277E+00 -1.375736E+01 +1.556277E+00 +3.340270E+02 +4.790148E-01 -1.375736E+01 +4.790148E-01 +9.576331E+02 
 +3.013516E+02 +6.733651E+00 -8.647347E+00 +6.733651E+00 +3.309579E+02 -1.330311E+01 -8.647347E+00 -1.330311E+01 +9.560351E+02 
 +3.581374E+02 +1.047517E+01 -1.468519E+01 +1.047517E+01 +3.489055E+02 -1.936145E+01 -1.468519E+01 -1.936145E+01 +9.803993E+02 
 +3.667606E+02 +9.396616E+00 -1.620600E+01 +9.396616E+00 +3.545947E+02 -1.634086E+01 -1.620600E+01 -1.634086E+01 +9.887079E+02 
 +3.521499E+02 +2.384175E+01 -1.526842E+00 +2.384175E+01 +3.545658E+02 -1.602354E+01 -1.526842E+00 -1.602354E+01 +9.906050E+02 
 +3.579025E+02 +2.899606E+01 -2.447785E+00 +2.899606E+01 +3.618455E+02 -1.460002E+01 -2.447785E+00 -1.460002E+01 +9.901734E+02 
 +3.743608E+02 -4.531918E+00 -1.274859E+01 -4.531918E+00 +3.642389E+02 -5.246649E+00 -1.274859E+01 -5.246649E+00 +9.686082E+02 
 +3.703858E+02 +4.765708E+00 -2.765514E+00 +4.765708E+00 +3.656298E+02 +3.802668E+00 -2.765514E+00 +3.802668E+00 +9.593524E+02 
 +3.752142E+02 +8.276364E-01 -1.032976E+00 +8.276364E-01 +3.639471E+02 +9.366283E+00 -1.032976E+00 +9.366283E+00 +9.524506E+02 
 +3.974109E+02 -1.346216E+00 +1.278058E+01 -1.346216E+00 +3.679682E+02 +1.150815E+01 +1.278058E+01 +1.150815E+01 +9.844507E+02 
 +4.341946E+02 +1.098793E+00 +1.283747E+01 +1.098793E+00 +3.745750E+02 +3.292899E+00 +1.283747E+01 +3.292899E+00 +1.032337E+03 
 +4.138253E+02 +1.107693E+01 -7.414165E+00 +1.107693E+01 +3.632492E+02 +8.148561E-01 -7.414165E+00 +8.148561E-01 +1.021081E+03 
 +4.077170E+02 +1.278870E+01 -1.579727E+01 +1.278870E+01 +3.822313E+02 +3.816131E+00 -1.579727E+01 +3.816131E+00 +1.004067E+03 
 +4.021894E+02 +1.412739E+01 -1.026519E+01 +1.412739E+01 +3.905720E+02 +7.180022E+00 -1.026519E+01 +7.180022E+00 +9.775086E+02 
 +3.971966E+02 +5.462402E+00 -2.994245E+00 +5.462402E+00 +3.802085E+02 +1.344714E+01 -2.994245E+00 +1.344714E+01 +9.455294E+02 
 +4.151169E+02 +1.160677E+01 +3.161961E+00 +1.160677E+01 +3.999807E+02 +2.180003E+01 +3.161961E+00 +2.180003E+01 +9.578131E+02 
 +3.421186E+02 -5.680576E+00 -6.160403E+00 -5.680576E+00 +3.711803E+02 +2.873637E+01 -6.160403E+00 +2.873637E+01 +9.547348E+02 
 +3.262276E+02 -2.234719E+01 -6.725823E+00 -2.234719E+01 +3.613455E+02 +2.791020E+01 -6.725823E+00 +2.791020E+01 +9.615256E+02 
 +3.184489E+02 -2.958220E+01 -7.979223E+00 -2.958220E+01 +3.595760E+02 +2.511194E+01 -7.979223E+00 +2.511194E+01 +9.675445E+02 
 +3.236908E+02 -1.933398E+01 -7.303815E+00 -1.933398E+01 +3.537557E+02 +2.475273E+01 -7.303815E+00 +2.475273E+01 +9.743428E+02 
 +3.221936E+02 -2.219249E+01 -9.473558E+00 -2.219249E+01 +3.423824E+02 +1.311512E+01 -9.473558E+00 +1.311512E+01 +9.619589E+02 
 +3.075994E+02 -1.738198E+01 -1.485287E+01 -1.738198E+01 +3.194754E+02 +3.420619E+00 -1.485287E+01 +3.420619E+00 +9.453058E+02 
 +3.343798E+02 -3.092353E+00 -1.990127E+01 -3.092353E+00 +3.284648E+02 -7.937026E+00 -1.990127E+01 -7.937026E+00 +9.584890E+02 
 +3.739583E+02 +3.895807E-01 -2.458488E+01 +3.895807E-01 +3.573559E+02 -1.466871E+01 -2.458488E+01 -1.466871E+01 +9.784066E+02 
 +3.781034E+02 +4.410161E+00 -1.946346E+01 +4.410161E+00 +3.634876E+02 -1.134488E+01 -1.946346E+01 -1.134488E+01 +9.827485E+02 
 +3.545976E+02 +1.747376E+01 -4.471074E+00 +1.747376E+01 +3.544545E+02 -1.416158E+01 -4.471074E+00 -1.416158E+01 +9.811659E+02 
 +3.451250E+02 +2.766829E+01 -1.939158E+00 +2.766829E+01 +3.457243E+02 -1.513599E+01 -1.939158E+00 -1.513599E+01 +9.694667E+02 
 +3.551352E+02 +8.910886E-01 -1.643366E+01 +8.910886E-01 +3.413435E+02 -5.114230E+00 -1.643366E+01 -5.114230E+00 +9.497507E+02 
 +3.662571E+02 +2.418238E+00 -1.163480E+01 +2.418238E+00 +3.609300E+02 +4.558285E+00 -1.163480E+01 +4.558285E+00 +9.540244E+02 
 +3.726498E+02 -6.398405E-01 -9.821028E+00 -6.398405E-01 +3.616470E+02 +1.027678E+01 -9.821028E+00 +1.027678E+01 +9.489460E+02 
 +3.744226E+02 -3.996492E+00 +4.801411E-01 -3.996492E+00 +3.510379E+02 +1.230633E+01 +4.801411E-01 +1.230633E+01 +9.645961E+02 
 +3.967207E+02 -7.177986E+00 +3.817317E+00 -7.177986E+00 +3.427763E+02 +8.534491E-01 +3.817317E+00 +8.534491E-01 +1.005340E+03 
 +3.988134E+02 +1.828880E+00 -7.536227E+00 +1.828880E+00 +3.372796E+02 -6.807816E+00 -7.536227E+00 -6.807816E+00 +1.006670E+03 
 +4.208754E+02 +1.158517E+00 -1.030292E+01 +1.158517E+00 +3.603513E+02 -4.576046E+00 -1.030292E+01 -4.576046E+00 +1.011377E+03 
 +3.997976E+02 +8.854179E+00 -9.157814E+00 +8.854179E+00 +3.556607E+02 +3.311439E+00 -9.157814E+00 +3.311439E+00 +9.943922E+02 
 +3.923824E+02 +6.717987E+00 -3.587463E+00 +6.717987E+00 +3.661599E+02 +1.598097E+01 -3.587463E+00 +1.598097E+01 +9.602079E+02 
 +3.825952E+02 +6.560741E+00 -2.654153E+00 +6.560741E+00 +3.786608E+02 +2.238803E+01 -2.654153E+00 +2.238803E+01 +9.503239E+02 
 +3.116416E+02 -1.591102E+01 -9.224249E+00 -1.591102E+01 +3.550368E+02 +2.223679E+01 -9.224249E+00 +2.223679E+01 +9.500254E+02 
 +3.104403E+02 -2.019509E+01 -6.421689E+00 -2.019509E+01 +3.582312E+02 +1.923649E+01 -6.421689E+00 +1.923649E+01 +9.666698E+02 
 +3.153244E+02 -2.384233E+01 -1.119205E+00 -2.384233E+01 +3.574836E+02 +1.747192E+01 -1.119205E+00 +1.747192E+01 +9.709316E+02 
 +3.128226E+02 -2.260542E+01 -8.459440E-01 -2.260542E+01 +3.569885E+02 +1.661535E+01 -8.459440E-01 +1.661535E+01 +9.690165E+02 
 +2.974824E+02 -2.377964E+01 -3.675263E+00 -2.377964E+01 +3.278273E+02 +1.181854E+01 -3.675263E+00 +1.181854E+01 +9.458216E+02 
 +3.431206E+02 -1.055676E+01 -9.097282E+00 -1.055676E+01 +3.432352E+02 +7.141058E+00 -9.097282E+00 +7.141058E+00 +9.603009E+02 
 +3.935910E+02 +3.412504E-01 -2.086923E+01 +3.412504E-01 +3.698413E+02 -2.287125E+00 -2.086923E+01 -2.287125E+00 +9.908526E+02 
 +3.799962E+02 +1.365707E+00 -2.743527E+01 +1.365707E+00 +3.575025E+02 -9.596284E+00 -2.743527E+01 -9.596284E+00 +9.814392E+02 
 +3.808432E+02 +3.512990E+00 -2.207546E+01 +3.512990E+00 +3.643172E+02 -8.753468E+00 -2.207546E+01 -8.753468E+00 +9.758046E+02 
 +3.677520E+02 +1.222548E+01 -1.464890E+01 +1.222548E+01 +3.553055E+02 -1.258317E+01 -1.464890E+01 -1.258317E+01 +9.657950E+02 
 +3.402865E+02 +2.575724E+01 -1.225570E+01 +2.575724E+01 +3.285692E+02 -1.686254E+01 -1.225570E+01 -1.686254E+01 +9.460133E+02 
 +3.485330E+02 +6.744309E+00 -1.714495E+01 +6.744309E+00 +3.297458E+02 -5.492522E+00 -1.714495E+01 -5.492522E+00 +9.325639E+02 
 +3.633167E+02 +1.252978E+01 -1.913407E+01 +1.252978E+01 +3.420943E+02 +3.387409E+00 -1.913407E+01 +3.387409E+00 +9.405773E+02 
 +3.690696E+02 +9.601324E+00 -2.007302E+01 +9.601324E+00 +3.448648E+02 +7.822915E+00 -2.007302E+01 +7.822915E+00 +9.396945E+02 
 +3.722478E+02 +6.615208E+00 -9.195382E+00 +6.615208E+00 +3.535854E+02 +1.172913E+01 -9.195382E+00 +1.172913E+01 +9.548837E+02 
 +3.730118E+02 +5.113356E+00 -6.195285E+00 +5.113356E+00 +3.737403E+02 -1.877344E+00 -6.195285E+00 -1.877344E+00 +9.831234E+02 
 +3.907394E+02 +1.612940E+01 -5.461409E+00 +1.612940E+01 +3.867864E+02 -1.503808E+01 -5.461409E+00 -1.503808E+01 +1.001814E+03 
 +4.390265E+02 -4.255001E+00 -7.097597E+00 -4.255001E+00 +3.909868E+02 -1.170105E+01 -7.097597E+00 -1.170105E+01 +1.017097E+03 
 +3.946385E+02 -1.173779E+01 -8.196085E+00 -1.173779E+01 +3.493001E+02 -1.438716E+00 -8.196085E+00 -1.438716E+00 +9.930035E+02 
 +3.811432E+02 -1.964072E+01 -7.570506E+00 -1.964072E+01 +3.370006E+02 +4.153912E+00 -7.570506E+00 +4.153912E+00 +9.721730E+02 
 +3.427729E+02 -9.920824E+00 -6.805850E+00 -9.920824E+00 +3.215618E+02 +5.388090E+00 -6.805850E+00 +5.388090E+00 +9.539097E+02 
 +3.263344E+02 -1.171657E+01 -3.491995E+00 -1.171657E+01 +3.390301E+02 +9.615865E+00 -3.491995E+00 +9.615865E+00 +9.625966E+02 
 +3.078740E+02 -1.932334E+01 -3.790751E-02 -1.932334E+01 +3.511825E+02 +1.089629E+01 -3.790751E-02 +1.089629E+01 +9.658928E+02 
 +3.095641E+02 -1.839244E+01 +1.856722E+00 -1.839244E+01 +3.580215E+02 +9.151804E+00 +1.856722E+00 +9.151804E+00 +9.710218E+02 
 +3.001116E+02 -1.543810E+01 +3.574309E+00 -1.543810E+01 +3.461597E+02 +9.302085E+00 +3.574309E+00 +9.302085E+00 +9.657268E+02 
 +2.980766E+02 -1.839555E+01 +7.897696E+00 -1.839555E+01 +3.298486E+02 +9.793645E+00 +7.897696E+00 +9.793645E+00 +9.493727E+02 
 +3.867294E+02 +3.962640E+00 -2.021835E+00 +3.962640E+00 +3.702125E+02 +7.427012E+00 -2.021835E+00 +7.427012E+00 +9.802164E+02 
 +4.007949E+02 +6.320988E+00 -1.382199E+01 +6.320988E+00 +3.745939E+02 -2.688206E+00 -1.382199E+01 -2.688206E+00 +9.964087E+02 
 +3.850928E+02 +8.671276E+00 -2.371711E+01 +8.671276E+00 +3.653364E+02 -6.289886E+00 -2.371711E+01 -6.289886E+00 +9.859010E+02 
 +3.706964E+02 +4.889123E+00 -2.136850E+01 +4.889123E+00 +3.582445E+02 -7.101234E+00 -2.136850E+01 -7.101234E+00 +9.724802E+02 
 +3.732115E+02 +7.517740E+00 -2.267271E+01 +7.517740E+00 +3.581873E+02 -1.317415E+01 -2.267271E+01 -1.317415E+01 +9.591345E+02 
 +3.724881E+02 +1.320553E+01 -2.183064E+01 +1.320553E+01 +3.485838E+02 -1.557643E+01 -2.183064E+01 -1.557643E+01 +9.393152E+02 
 +3.676863E+02 +7.335129E+00 -1.483731E+01 +7.335129E+00 +3.369775E+02 +4.963668E+00 -1.483731E+01 +4.963668E+00 +9.287079E+02 
 +3.781351E+02 +8.670165E+00 -1.944292E+01 +8.670165E+00 +3.515388E+02 +9.595668E+00 -1.944292E+01 +9.595668E+00 +9.427305E+02 
 +3.925561E+02 +3.669506E+00 -1.713056E+01 +3.669506E+00 +3.605520E+02 +7.507885E+00 -1.713056E+01 +7.507885E+00 +9.551648E+02 
 +3.619284E+02 +5.861249E+00 -3.349346E+00 +5.861249E+00 +3.619044E+02 +3.407206E+00 -3.349346E+00 +3.407206E+00 +9.591382E+02 
 +3.510092E+02 -1.908525E+00 -3.536448E+00 -1.908525E+00 +3.785100E+02 -4.366317E+00 -3.536448E+00 -4.366317E+00 +9.707632E+02 
 +3.465753E+02 +4.652505E+00 -3.662373E+00 +4.652505E+00 +3.731277E+02 -1.500762E+01 -3.662373E+00 -1.500762E+01 +9.756355E+02 
 +3.988155E+02 -1.533820E+01 -7.687664E+00 -1.533820E+01 +3.860918E+02 -1.311408E+01 -7.687664E+00 -1.311408E+01 +9.923251E+02 
 +3.908679E+02 -1.247497E+01 -5.408526E+00 -1.247497E+01 +3.598592E+02 -6.377919E+00 -5.408526E+00 -6.377919E+00 +9.826896E+02 
 +3.802952E+02 -1.113093E+01 -6.282249E+00 -1.113093E+01 +3.376919E+02 +5.135260E-01 -6.282249E+00 +5.135260E-01 +9.782690E+02 
 +3.459193E+02 -1.775295E+00 -5.092038E+00 -1.775295E+00 +3.204474E+02 +3.256562E+00 -5.092038E+00 +3.256562E+00 +9.626844E+02 
 +3.445803E+02 -1.020714E+01 -1.220927E+00 -1.020714E+01 +3.350371E+02 +2.136628E+00 -1.220927E+00 +2.136628E+00 +9.529886E+02 
 +3.347410E+02 -1.586381E+01 +9.859490E-01 -1.586381E+01 +3.577186E+02 +4.052996E+00 +9.859490E-01 +4.052996E+00 +9.538929E+02 
 +3.080085E+02 -1.653104E+01 +2.864206E+00 -1.653104E+01 +3.508867E+02 +1.352722E+00 +2.864206E+00 +1.352722E+00 +9.600579E+02 
 +3.111127E+02 -6.757028E+00 +3.609236E+00 -6.757028E+00 +3.470728E+02 +4.999714E+00 +3.609236E+00 +4.999714E+00 +9.652605E+02 
 +3.374792E+02 -1.547282E-01 +1.058614E+01 -1.547282E-01 +3.679132E+02 +1.109467E+01 +1.058614E+01 +1.109467E+01 +9.655339E+02 
 +3.918816E+02 +1.210930E+01 +3.303444E+00 +1.210930E+01 +3.837117E+02 +7.362065E+00 +3.303444E+00 +7.362065E+00 +9.811426E+02 
 +3.893556E+02 +1.197733E+01 -7.822153E+00 +1.197733E+01 +3.740146E+02 -2.267340E-01 -7.822153E+00 -2.267340E-01 +9.871782E+02 
 +3.814786E+02 +1.130829E+01 -1.955796E+01 +1.130829E+01 +3.727752E+02 -4.465325E+00 -1.955796E+01 -4.465325E+00 +9.856692E+02 
 +3.693607E+02 +8.946438E+00 -2.122292E+01 +8.946438E+00 +3.599738E+02 -7.485251E+00 -2.122292E+01 -7.485251E+00 +9.803951E+02 
 +3.648706E+02 +1.495256E+01 -2.476324E+01 +1.495256E+01 +3.452683E+02 -1.104294E+01 -2.476324E+01 -1.104294E+01 +9.571406E+02 
 +3.780634E+02 +1.584315E+01 -1.903484E+01 +1.584315E+01 +3.376689E+02 -6.262089E+00 -1.903484E+01 -6.262089E+00 +9.297944E+02 
 +3.819543E+02 +1.166248E+01 -1.514974E+01 +1.166248E+01 +3.524156E+02 -6.693531E+00 -1.514974E+01 -6.693531E+00 +9.235714E+02 
 +3.873804E+02 +8.555497E+00 -1.770775E+01 +8.555497E+00 +3.552470E+02 +2.916143E+00 -1.770775E+01 +2.916143E+00 +9.395094E+02 
 +3.847565E+02 +1.833311E-01 -1.008677E+01 +1.833311E-01 +3.668512E+02 +8.993145E+00 -1.008677E+01 +8.993145E+00 +9.600521E+02 
 +3.559458E+02 +1.212085E+00 +2.125341E+00 +1.212085E+00 +3.690437E+02 -1.489937E-01 +2.125341E+00 -1.489937E-01 +9.638649E+02 
 +3.357507E+02 -8.559583E-01 -3.417365E-02 -8.559583E-01 +3.666752E+02 -1.046050E+01 -3.417365E-02 -1.046050E+01 +9.620780E+02 
 +3.297621E+02 +4.870958E+00 -1.785849E+00 +4.870958E+00 +3.543808E+02 -1.482794E+01 -1.785849E+00 -1.482794E+01 +9.617610E+02 
 +3.596741E+02 +1.290135E+00 -3.414507E+00 +1.290135E+00 +3.637355E+02 -1.352786E+01 -3.414507E+00 -1.352786E+01 +9.732071E+02 
 +3.770943E+02 -1.254305E+01 -1.057016E+00 -1.254305E+01 +3.565074E+02 -5.433055E+00 -1.057016E+00 -5.433055E+00 +9.677774E+02 
 +3.646102E+02 -6.938370E+00 +4.969694E-02 -6.938370E+00 +3.348257E+02 +2.442076E+00 +4.969694E-02 +2.442076E+00 +9.511208E+02 
 +3.453296E+02 +5.400335E+00 -1.296024E+00 +5.400335E+00 +3.320983E+02 -9.121238E-03 -1.296024E+00 -9.121238E-03 +9.382968E+02 
 +3.546127E+02 +7.182998E+00 -6.533302E+00 +7.182998E+00 +3.329749E+02 -9.954621E+00 -6.533302E+00 -9.954621E+00 +9.223769E+02 
 +3.528551E+02 +3.188698E+00 -4.343356E+00 +3.188698E+00 +3.420560E+02 -7.833785E+00 -4.343356E+00 -7.833785E+00 +9.194233E+02 
 +3.183532E+02 -1.037074E+01 +1.702928E+00 -1.037074E+01 +3.461886E+02 -3.018510E+00 +1.702928E+00 -3.018510E+00 +9.357587E+02 
 +3.353020E+02 +4.210151E+00 +2.613320E+00 +4.210151E+00 +3.612550E+02 +3.937903E+00 +2.613320E+00 +3.937903E+00 +9.602626E+02 
 +3.522385E+02 +5.042712E+00 +6.565112E+00 +5.042712E+00 +3.687467E+02 +8.828307E+00 +6.565112E+00 +8.828307E+00 +9.625794E+02 
 +3.628146E+02 +5.181175E+00 +9.023902E+00 +5.181175E+00 +3.794757E+02 +6.789783E+00 +9.023902E+00 +6.789783E+00 +9.658933E+02 
 +3.748777E+02 +1.226968E+01 +3.308258E+00 +1.226968E+01 +3.775776E+02 +3.880986E+00 +3.308258E+00 +3.880986E+00 +9.627674E+02 
 +3.780311E+02 +1.436971E+01 -8.412319E+00 +1.436971E+01 +3.725718E+02 +1.413968E+00 -8.412319E+00 +1.413968E+00 +9.628977E+02 
 +3.698402E+02 +1.464124E+01 -1.428833E+01 +1.464124E+01 +3.729921E+02 -3.533093E+00 -1.428833E+01 -3.533093E+00 +9.634397E+02 
 +3.745378E+02 +1.371081E+01 -1.808550E+01 +1.371081E+01 +3.653679E+02 -9.797637E+00 -1.808550E+01 -9.797637E+00 +9.390172E+02 
 +3.783661E+02 +1.661133E+01 -1.396214E+01 +1.661133E+01 +3.523001E+02 -1.261812E+01 -1.396214E+01 -1.261812E+01 +9.180256E+02 
 +3.953188E+02 +1.364836E+01 -1.727349E+01 +1.364836E+01 +3.692322E+02 -8.380431E+00 -1.727349E+01 -8.380431E+00 +9.237441E+02 
 +3.936600E+02 +6.719514E+00 -1.125784E+01 +6.719514E+00 +3.771605E+02 -4.126550E+00 -1.125784E+01 -4.126550E+00 +9.448245E+02 
 +3.650766E+02 +3.803236E+00 -4.490010E+00 +3.803236E+00 +3.721011E+02 -4.527959E+00 -4.490010E+00 -4.527959E+00 +9.494127E+02 
 +3.614219E+02 +7.259542E+00 -4.493222E-01 +7.259542E+00 +3.745265E+02 -8.139173E+00 -4.493222E-01 -8.139173E+00 +9.523091E+02 
 +3.352257E+02 +5.067566E+00 -2.641596E+00 +5.067566E+00 +3.568200E+02 -1.339077E+01 -2.641596E+00 -1.339077E+01 +9.441765E+02 
 +3.336350E+02 +5.627218E+00 -3.243012E+00 +5.627218E+00 +3.470652E+02 -2.115048E+01 -3.243012E+00 -2.115048E+01 +9.457797E+02 
 +3.187707E+02 +7.942541E+00 +4.252640E+00 +7.942541E+00 +3.312445E+02 -2.061152E+01 +4.252640E+00 -2.061152E+01 +9.380053E+02 
 +3.399357E+02 -1.044003E+01 +6.605908E+00 -1.044003E+01 +3.385147E+02 -1.052208E+01 +6.605908E+00 -1.052208E+01 +9.304433E+02 
 +3.665340E+02 +1.392823E+01 +1.894461E+00 +1.392823E+01 +3.581791E+02 -1.041378E+01 +1.894461E+00 -1.041378E+01 +9.254476E+02 
 +3.703794E+02 +2.336140E+01 +1.014244E+00 +2.336140E+01 +3.656220E+02 -1.758264E+01 +1.014244E+00 -1.758264E+01 +9.295204E+02 
 +3.797859E+02 +1.699134E+01 -1.963913E+00 +1.699134E+01 +3.680145E+02 -1.937337E+01 -1.963913E+00 -1.937337E+01 +9.323174E+02 
 +3.711946E+02 +9.985779E+00 -7.206855E+00 +9.985779E+00 +3.564971E+02 -1.328966E+01 -7.206855E+00 -1.328966E+01 +9.156046E+02 
 +3.607295E+02 +2.239558E+00 -4.171147E+00 +2.239558E+00 +3.662586E+02 -1.055820E+01 -4.171147E+00 -1.055820E+01 +9.254677E+02 
 +3.354098E+02 +2.936160E+00 +6.984931E+00 +2.936160E+00 +3.721345E+02 -6.978217E+00 +6.984931E+00 -6.978217E+00 +9.466131E+02 
 +3.505938E+02 +1.013226E+00 +6.978023E+00 +1.013226E+00 +3.861780E+02 -8.117498E+00 +6.978023E+00 -8.117498E+00 +9.633630E+02 
 +3.524275E+02 -1.915204E+00 +9.592251E+00 -1.915204E+00 +3.908751E+02 -5.898742E+00 +9.592251E+00 -5.898742E+00 +9.612166E+02 
 +3.629468E+02 +1.016459E-01 +6.825756E+00 +1.016459E-01 +3.901086E+02 +4.023501E+00 +6.825756E+00 +4.023501E+00 +9.491742E+02 
 +3.922808E+02 +4.336529E+00 +5.737047E-01 +4.336529E+00 +4.087327E+02 +1.525643E+01 +5.737047E-01 +1.525643E+01 +9.499663E+02 
 +3.927909E+02 +1.341302E+00 -5.207667E+00 +1.341302E+00 +4.053651E+02 +1.227284E+01 -5.207667E+00 +1.227284E+01 +9.430871E+02 
 +3.828606E+02 +5.602444E+00 -1.403132E+01 +5.602444E+00 +3.791969E+02 -3.774469E+00 -1.403132E+01 -3.774469E+00 +9.189828E+02 
 +3.859189E+02 +1.417234E+01 -1.445485E+01 +1.417234E+01 +3.677070E+02 -9.836311E+00 -1.445485E+01 -9.836311E+00 +9.102732E+02 
 +3.975894E+02 +1.508552E+01 -7.942439E+00 +1.508552E+01 +3.808259E+02 -3.861363E+00 -7.942439E+00 -3.861363E+00 +9.319578E+02 
 +3.710573E+02 +6.617197E+00 +9.276900E+00 +6.617197E+00 +3.813869E+02 +9.388823E+00 +9.276900E+00 +9.388823E+00 +9.374540E+02 
 +3.637487E+02 -2.012064E+00 +7.406702E+00 -2.012064E+00 +3.821563E+02 -2.110531E-01 +7.406702E+00 -2.110531E-01 +9.278321E+02 
 +3.578286E+02 +8.755205E-01 +3.943191E+00 +8.755205E-01 +3.749866E+02 -1.070419E+01 +3.943191E+00 -1.070419E+01 +9.194782E+02 
 +3.505257E+02 -4.324562E+00 +7.743094E-01 -4.324562E+00 +3.726468E+02 -1.428020E+01 +7.743094E-01 -1.428020E+01 +9.283015E+02 
 +3.353528E+02 -9.390518E+00 -4.096178E+00 -9.390518E+00 +3.603954E+02 -2.128430E+01 -4.096178E+00 -2.128430E+01 +9.272412E+02 
 +3.228291E+02 -2.066274E+00 -2.659492E+00 -2.066274E+00 +3.332013E+02 -2.450362E+01 -2.659492E+00 -2.450362E+01 +9.088115E+02 
 +3.425951E+02 +5.410252E+00 -9.027904E-01 +5.410252E+00 +3.536495E+02 -1.786563E+01 -9.027904E-01 -1.786563E+01 +9.102576E+02 
 +3.668546E+02 +1.907020E+01 -5.825698E+00 +1.907020E+01 +3.862624E+02 -1.170559E+01 -5.825698E+00 -1.170559E+01 +9.245360E+02 
 +3.816332E+02 +1.683154E+01 -3.085326E+00 +1.683154E+01 +3.844708E+02 -1.109657E+01 -3.085326E+00 -1.109657E+01 +9.321110E+02 
 +3.829991E+02 +1.369685E+01 -1.128971E+00 +1.369685E+01 +3.792262E+02 -1.129719E+01 -1.128971E+00 -1.129719E+01 +9.345757E+02 
 +3.855895E+02 +6.687980E+00 -9.523282E+00 +6.687980E+00 +3.754493E+02 -7.916996E+00 -9.523282E+00 -7.916996E+00 +9.205572E+02 
 +3.861322E+02 -2.456857E+00 -8.721538E+00 -2.456857E+00 +3.785222E+02 -5.725946E+00 -8.721538E+00 -5.725946E+00 +9.263801E+02 
 +3.196113E+02 -8.833743E+00 +1.067219E+01 -8.833743E+00 +3.580865E+02 -5.619075E+00 +1.067219E+01 -5.619075E+00 +9.358239E+02 
 +3.368336E+02 -4.080237E+00 +7.093421E+00 -4.080237E+00 +3.767416E+02 -7.570412E+00 +7.093421E+00 -7.570412E+00 +9.548242E+02 
 +3.479035E+02 -1.460483E+00 +9.230109E+00 -1.460483E+00 +3.859746E+02 -6.413746E+00 +9.230109E+00 -6.413746E+00 +9.562941E+02 
 +3.572436E+02 +6.235158E+00 +7.097552E+00 +6.235158E+00 +3.953341E+02 +2.536813E+00 +7.097552E+00 +2.536813E+00 +9.567470E+02 
 +3.658780E+02 +1.313350E+01 +6.939062E-01 +1.313350E+01 +3.916138E+02 +1.941535E+01 +6.939062E-01 +1.941535E+01 +9.393818E+02 
 +4.146157E+02 +1.116683E+00 -7.943065E+00 +1.116683E+00 +4.044486E+02 +1.808988E+01 -7.943065E+00 +1.808988E+01 +9.380684E+02 
 +4.036837E+02 +6.789957E+00 -1.152846E+01 +6.789957E+00 +3.906279E+02 -1.285523E+00 -1.152846E+01 -1.285523E+00 +9.252095E+02 
 +3.983040E+02 +1.527411E+01 -1.422822E+01 +1.527411E+01 +3.794792E+02 -1.066599E+01 -1.422822E+01 -1.066599E+01 +9.189292E+02 
 +3.887127E+02 +1.119155E+01 +1.346752E+01 +1.119155E+01 +3.814835E+02 +6.406844E+00 +1.346752E+01 +6.406844E+00 +9.397062E+02 
 +3.675874E+02 +1.591325E+01 +2.513854E+01 +1.591325E+01 +3.834466E+02 +1.148084E+01 +2.513854E+01 +1.148084E+01 +9.384393E+02 
 +3.499939E+02 +6.011365E+00 +1.728090E+01 +6.011365E+00 +3.880879E+02 +5.298716E+00 +1.728090E+01 +5.298716E+00 +9.196456E+02 
 +3.677617E+02 +3.199239E-01 +7.206470E+00 +3.199239E-01 +3.959140E+02 -5.112310E+00 +7.206470E+00 -5.112310E+00 +9.170487E+02 
 +3.514751E+02 -8.324880E+00 +5.457678E+00 -8.324880E+00 +3.736891E+02 -9.602190E+00 +5.457678E+00 -9.602190E+00 +9.268057E+02 
 +3.394628E+02 -9.310300E+00 +1.059079E+00 -9.310300E+00 +3.620119E+02 -1.046130E+01 +1.059079E+00 -1.046130E+01 +9.306012E+02 
 +3.281701E+02 -1.728380E+01 -6.064186E+00 -1.728380E+01 +3.478676E+02 -1.269128E+01 -6.064186E+00 -1.269128E+01 +9.096372E+02 
 +3.332508E+02 -1.034656E+01 -7.614353E+00 -1.034656E+01 +3.517189E+02 -1.400833E+01 -7.614353E+00 -1.400833E+01 +9.029943E+02 
 +3.693372E+02 -3.905755E+00 -1.201127E+01 -3.905755E+00 +3.823996E+02 -9.042602E+00 -1.201127E+01 -9.042602E+00 +9.282653E+02 
 +3.833592E+02 +7.531919E+00 -8.606735E+00 +7.531919E+00 +3.865499E+02 -6.787858E+00 -8.606735E+00 -6.787858E+00 +9.352385E+02 
 +3.902579E+02 +6.412200E+00 -5.611004E+00 +6.412200E+00 +3.872379E+02 -7.862283E+00 -5.611004E+00 -7.862283E+00 +9.344275E+02 
 +4.006630E+02 +9.510412E-01 -1.098378E+01 +9.510412E-01 +3.888767E+02 -7.224356E+00 -1.098378E+01 -7.224356E+00 +9.300399E+02 
 +3.744294E+02 -5.744543E+00 -7.336869E+00 -5.744543E+00 +3.765053E+02 -6.206900E+00 -7.336869E+00 -6.206900E+00 +9.313373E+02 
 +3.275548E+02 -1.424232E+01 +4.515087E+00 -1.424232E+01 +3.622711E+02 -7.214816E+00 +4.515087E+00 -7.214816E+00 +9.434042E+02 
 +3.417531E+02 -1.209826E+01 +2.339487E+00 -1.209826E+01 +3.730467E+02 -9.761727E+00 +2.339487E+00 -9.761727E+00 +9.532154E+02 
 +3.497935E+02 -5.196304E+00 +5.899725E+00 -5.196304E+00 +3.747060E+02 -4.665833E+00 +5.899725E+00 -4.665833E+00 +9.509580E+02 
 +3.541767E+02 +3.601547E+00 +6.023599E+00 +3.601547E+00 +3.863142E+02 +5.699068E+00 +6.023599E+00 +5.699068E+00 +9.571697E+02 
 +3.486852E+02 +6.871406E+00 -3.537208E+00 +6.871406E+00 +3.748520E+02 +1.463034E+01 -3.537208E+00 +1.463034E+01 +9.319000E+02 
 +4.228793E+02 +1.025010E+00 -2.048474E+01 +1.025010E+00 +3.954702E+02 +1.019735E+01 -2.048474E+01 +1.019735E+01 +9.322730E+02 
 +4.075626E+02 +4.738538E+00 -8.083957E+00 +4.738538E+00 +3.869409E+02 -1.491808E+00 -8.083957E+00 -1.491808E+00 +9.284618E+02 
 +4.114816E+02 +5.330868E+00 -4.973264E+00 +5.330868E+00 +3.932371E+02 -1.917770E+00 -4.973264E+00 -1.917770E+00 +9.406509E+02 
 +3.895158E+02 +3.715026E+00 +1.742509E+01 +3.715026E+00 +3.866671E+02 +1.192158E+00 +1.742509E+01 +1.192158E+00 +9.414385E+02 
 +3.873651E+02 +1.405597E+01 +2.208801E+01 +1.405597E+01 +3.933584E+02 +4.618060E+00 +2.208801E+01 +4.618060E+00 +9.544175E+02 
 +3.562558E+02 +1.020809E+01 +1.195281E+01 +1.020809E+01 +3.882769E+02 +9.829659E+00 +1.195281E+01 +9.829659E+00 +9.381979E+02 
 +3.570532E+02 +3.112529E+00 +5.208004E+00 +3.112529E+00 +3.899103E+02 +5.639178E+00 +5.208004E+00 +5.639178E+00 +9.365624E+02 
 +3.330247E+02 -1.644564E+01 +5.698365E+00 -1.644564E+01 +3.665086E+02 +5.626127E+00 +5.698365E+00 +5.626127E+00 +9.494703E+02 
 +3.357184E+02 -2.135501E+01 +8.724355E+00 -2.135501E+01 +3.587917E+02 +1.135590E+00 +8.724355E+00 +1.135590E+00 +9.545053E+02 
 +3.221177E+02 -2.818893E+01 +2.729330E+00 -2.818893E+01 +3.549826E+02 -8.925919E+00 +2.729330E+00 -8.925919E+00 +9.312355E+02 
 +3.354545E+02 -4.395702E+00 -5.439568E+00 -4.395702E+00 +3.620803E+02 -2.085059E+01 -5.439568E+00 -2.085059E+01 +9.228098E+02 
 +3.802804E+02 -4.574668E+00 -1.499004E+01 -4.574668E+00 +3.824350E+02 -2.009489E+01 -1.499004E+01 -2.009489E+01 +9.380962E+02 
 +3.860120E+02 -3.580916E+00 -8.889594E+00 -3.580916E+00 +3.912073E+02 -7.028417E+00 -8.889594E+00 -7.028417E+00 +9.404475E+02 
 +4.045747E+02 -8.155648E+00 -9.270976E+00 -8.155648E+00 +3.971288E+02 -6.168517E+00 -9.270976E+00 -6.168517E+00 +9.467185E+02 
 +4.104016E+02 -1.180598E+01 -1.052390E+01 -1.180598E+01 +3.955647E+02 -3.505730E+00 -1.052390E+01 -3.505730E+00 +9.502037E+02 
 +3.603329E+02 -2.056744E+01 -3.895928E+00 -2.056744E+01 +3.736348E+02 +3.347752E+00 -3.895928E+00 +3.347752E+00 +9.384941E+02 
 +3.566542E+02 -1.905284E+01 -6.756012E+00 -1.905284E+01 +3.741146E+02 -2.525791E+00 -6.756012E+00 -2.525791E+00 +9.500481E+02 
 +3.466606E+02 -1.530186E+01 -6.855069E+00 -1.530186E+01 +3.658771E+02 -9.619579E+00 -6.855069E+00 -9.619579E+00 +9.493003E+02 
 +3.494733E+02 -8.064459E+00 -5.310793E+00 -8.064459E+00 +3.687279E+02 -8.636345E+00 -5.310793E+00 -8.636345E+00 +9.490939E+02 
 +3.463918E+02 -1.061175E+00 -6.362053E+00 -1.061175E+00 +3.646564E+02 -2.513928E+00 -6.362053E+00 -2.513928E+00 +9.492113E+02 
 +3.520153E+02 +5.250044E-01 -1.545762E+01 +5.250044E-01 +3.526890E+02 +5.013768E+00 -1.545762E+01 +5.013768E+00 +9.277335E+02 
 +4.260579E+02 +9.573419E-01 -2.548301E+01 +9.573419E-01 +3.901967E+02 +1.334331E+01 -2.548301E+01 +1.334331E+01 +9.353691E+02 
 +3.971722E+02 +4.416601E+00 -5.205084E+00 +4.416601E+00 +3.797459E+02 +1.792214E+01 -5.205084E+00 +1.792214E+01 +9.317958E+02 
 +4.008566E+02 +1.246996E+00 +1.043183E+00 +1.246996E+00 +3.887348E+02 +1.329810E+01 +1.043183E+00 +1.329810E+01 +9.425210E+02 
 +3.895403E+02 +4.557941E+00 +9.794497E+00 +4.557941E+00 +3.890346E+02 -3.519407E+00 +9.794497E+00 -3.519407E+00 +9.410715E+02 
 +3.940275E+02 +1.349755E+01 +9.606020E+00 +1.349755E+01 +3.924506E+02 +4.634289E+00 +9.606020E+00 +4.634289E+00 +9.601058E+02 
 +3.776400E+02 +1.016975E+01 -1.702546E+00 +1.016975E+01 +3.928684E+02 +1.219581E+01 -1.702546E+00 +1.219581E+01 +9.622435E+02 
 +3.432230E+02 -1.005442E+01 +8.775635E-01 -1.005442E+01 +3.857630E+02 -5.307331E-01 +8.775635E-01 -5.307331E-01 +9.555260E+02 
 +3.219752E+02 -2.271565E+01 +6.122038E+00 -2.271565E+01 +3.681218E+02 +1.911603E+00 +6.122038E+00 +1.911603E+00 +9.537148E+02 
 +3.256453E+02 -1.333212E+01 +8.470596E+00 -1.333212E+01 +3.518463E+02 +7.628335E-01 +8.470596E+00 +7.628335E-01 +9.494438E+02 
 +3.411033E+02 -3.965508E-01 +7.460900E-01 -3.965508E-01 +3.636650E+02 -1.245014E+01 +7.460900E-01 -1.245014E+01 +9.482698E+02 
 +3.491281E+02 +6.201759E+00 -6.555640E+00 +6.201759E+00 +3.735858E+02 -2.100337E+01 -6.555640E+00 -2.100337E+01 +9.456253E+02 
 +3.625973E+02 +1.351478E+01 -1.140698E+01 +1.351478E+01 +3.754840E+02 -1.614545E+01 -1.140698E+01 -1.614545E+01 +9.446784E+02 
 +3.653513E+02 +1.130313E+01 -5.005174E+00 +1.130313E+01 +3.826451E+02 -7.820887E-01 -5.005174E+00 -7.820887E-01 +9.438890E+02 
 +4.047451E+02 -8.253103E+00 -9.408937E+00 -8.253103E+00 +4.042803E+02 -1.798314E+00 -9.408937E+00 -1.798314E+00 +9.583102E+02 
 +4.032042E+02 -1.581492E+01 -5.820878E+00 -1.581492E+01 +3.964061E+02 -5.719567E+00 -5.820878E+00 -5.719567E+00 +9.555967E+02 
 +3.735155E+02 -1.591178E+01 -4.111814E+00 -1.591178E+01 +3.690751E+02 -1.074744E+01 -4.111814E+00 -1.074744E+01 +9.386652E+02 
 +3.780316E+02 -1.200827E+01 -1.159768E+01 -1.200827E+01 +3.729186E+02 -1.360586E+01 -1.159768E+01 -1.360586E+01 +9.446580E+02 
 +3.458013E+02 -1.542233E+01 -1.226672E+01 -1.542233E+01 +3.584671E+02 -1.165606E+01 -1.226672E+01 -1.165606E+01 +9.354221E+02 
 +3.447013E+02 -4.386595E+00 -1.166943E+01 -4.386595E+00 +3.514531E+02 -8.238763E+00 -1.166943E+01 -8.238763E+00 +9.289631E+02 
 +3.475947E+02 +5.491411E+00 -1.139187E+01 +5.491411E+00 +3.430935E+02 -4.396664E+00 -1.139187E+01 -4.396664E+00 +9.253925E+02 
 +3.620419E+02 +1.009504E+01 -1.774587E+01 +1.009504E+01 +3.474369E+02 +8.391882E+00 -1.774587E+01 +8.391882E+00 +9.205466E+02 
 +4.042048E+02 +5.469356E+00 -2.132557E+01 +5.469356E+00 +3.744069E+02 +2.121100E+01 -2.132557E+01 +2.121100E+01 +9.307917E+02 
 +3.879371E+02 +4.936601E+00 -6.338392E+00 +4.936601E+00 +3.780585E+02 +1.267367E+01 -6.338392E+00 +1.267367E+01 +9.303603E+02 
 +3.816181E+02 +1.507710E+00 -3.656422E-01 +1.507710E+00 +3.821303E+02 +2.358278E+00 -3.656422E-01 +2.358278E+00 +9.306931E+02 
 +3.861919E+02 +9.695073E+00 +1.075246E+01 +9.695073E+00 +3.910345E+02 -2.518266E+00 +1.075246E+01 -2.518266E+00 +9.482378E+02 
 +3.853410E+02 +1.498958E+01 +5.819103E+00 +1.498958E+01 +3.846633E+02 +9.286189E+00 +5.819103E+00 +9.286189E+00 +9.636516E+02 
 +3.712961E+02 +1.545955E+01 -7.909793E+00 +1.545955E+01 +3.899205E+02 +1.467975E+01 -7.909793E+00 +1.467975E+01 +9.749338E+02 
 +3.420281E+02 -1.128509E+01 -6.118344E+00 -1.128509E+01 +3.879639E+02 -2.708437E+00 -6.118344E+00 -2.708437E+00 +9.650112E+02 
 +3.361870E+02 -2.661518E+01 +3.105850E+00 -2.661518E+01 +3.783918E+02 -2.218311E+00 +3.105850E+00 -2.218311E+00 +9.499873E+02 
 +3.405162E+02 -2.041613E+01 +9.928255E-02 -2.041613E+01 +3.668905E+02 +4.050357E-01 +9.928255E-02 +4.050357E-01 +9.469355E+02 
 +3.520139E+02 +8.495403E-01 -6.754303E+00 +8.495403E-01 +3.695423E+02 -9.209721E+00 -6.754303E+00 -9.209721E+00 +9.519199E+02 
 +3.506328E+02 -5.362724E-01 -6.117499E+00 -5.362724E-01 +3.709056E+02 -1.661340E+01 -6.117499E+00 -1.661340E+01 +9.505670E+02 
 +3.606863E+02 +1.596037E+01 -4.746325E+00 +1.596037E+01 +3.819323E+02 -1.492589E+01 -4.746325E+00 -1.492589E+01 +9.544585E+02 
 +3.557395E+02 +1.640294E+01 -1.996455E+00 +1.640294E+01 +3.813588E+02 -3.022367E+00 -1.996455E+00 -3.022367E+00 +9.571690E+02 
 +3.745900E+02 +4.640092E+00 -6.229116E+00 +4.640092E+00 +3.924077E+02 +9.105319E-01 -6.229116E+00 +9.105319E-01 +9.636777E+02 
 +4.015524E+02 -8.092308E+00 -6.668009E+00 -8.092308E+00 +3.956898E+02 -6.754180E+00 -6.668009E+00 -6.754180E+00 +9.550335E+02 
 +3.919114E+02 -9.313772E+00 -6.014737E+00 -9.313772E+00 +3.758677E+02 -1.176154E+01 -6.014737E+00 -1.176154E+01 +9.378092E+02 
 +3.775959E+02 -1.060857E+01 -7.670116E+00 -1.060857E+01 +3.657338E+02 -1.246249E+01 -7.670116E+00 -1.246249E+01 +9.348975E+02 
 +3.575453E+02 -1.151522E+01 -8.536692E+00 -1.151522E+01 +3.536147E+02 -1.689508E+01 -8.536692E+00 -1.689508E+01 +9.267191E+02 
 +3.572355E+02 -9.436393E-01 -7.996730E+00 -9.436393E-01 +3.488682E+02 -1.999489E+01 -7.996730E+00 -1.999489E+01 +9.214037E+02 
 +3.615716E+02 +6.880234E+00 -7.670120E+00 +6.880234E+00 +3.477606E+02 -2.096240E+01 -7.670120E+00 -2.096240E+01 +9.183279E+02 
 +3.464818E+02 +4.274112E+00 -1.185284E+01 +4.274112E+00 +3.368924E+02 -1.182871E+01 -1.185284E+01 -1.182871E+01 +9.033998E+02 
 +3.657233E+02 -6.381116E-01 -1.218500E+01 -6.381116E-01 +3.524291E+02 -3.452525E+00 -1.218500E+01 -3.452525E+00 +9.155576E+02 
 +3.826016E+02 +2.043500E+00 -3.858513E+00 +2.043500E+00 +3.676945E+02 +1.162745E+00 -3.858513E+00 +1.162745E+00 +9.312817E+02 
 +3.947151E+02 +8.478671E+00 +2.552330E+00 +8.478671E+00 +3.885553E+02 +1.791553E+00 +2.552330E+00 +1.791553E+00 +9.403506E+02 
 +3.671123E+02 -1.414224E+00 +4.141279E+00 -1.414224E+00 +3.860900E+02 -2.348807E+01 +4.141279E+00 -2.348807E+01 +9.553952E+02 
 +3.864483E+02 +6.119858E+00 +4.435648E+00 +6.119858E+00 +4.142339E+02 -5.825136E+00 +4.435648E+00 -5.825136E+00 +9.916911E+02 
 +3.688248E+02 +2.483995E+00 -6.834876E+00 +2.483995E+00 +4.092967E+02 +2.346614E+00 -6.834876E+00 +2.346614E+00 +9.899365E+02 
 +3.800467E+02 -1.579340E+01 -1.107898E+01 -1.579340E+01 +4.054768E+02 -6.629360E+00 -1.107898E+01 -6.629360E+00 +9.764582E+02 
 +3.520148E+02 -2.771242E+01 -3.839217E+00 -2.771242E+01 +3.855325E+02 -4.532653E+00 -3.839217E+00 -4.532653E+00 +9.550144E+02 
 +3.461288E+02 -2.121806E+01 -4.296959E+00 -2.121806E+01 +3.752927E+02 +1.009388E-01 -4.296959E+00 +1.009388E-01 +9.516264E+02 
 +3.574106E+02 +1.763961E+00 -7.943396E+00 +1.763961E+00 +3.728367E+02 -7.339780E+00 -7.943396E+00 -7.339780E+00 +9.526326E+02 
 +3.565789E+02 +1.734033E+00 -7.683908E+00 +1.734033E+00 +3.717494E+02 -1.591464E+01 -7.683908E+00 -1.591464E+01 +9.524484E+02 
 +3.612193E+02 +1.953913E+01 -4.650405E+00 +1.953913E+01 +3.823207E+02 -1.322157E+01 -4.650405E+00 -1.322157E+01 +9.612639E+02 
 +3.625553E+02 +1.594098E+01 -4.830910E-01 +1.594098E+01 +3.903029E+02 -2.869512E+00 -4.830910E-01 -2.869512E+00 +9.726919E+02 
 +3.664753E+02 +7.900693E+00 -4.784060E+00 +7.900693E+00 +3.858098E+02 -6.717762E+00 -4.784060E+00 -6.717762E+00 +9.657834E+02 
 +3.953260E+02 -3.328792E+00 -1.002537E+01 -3.328792E+00 +3.893382E+02 -1.341816E+01 -1.002537E+01 -1.341816E+01 +9.520771E+02 
 +3.906321E+02 -2.376213E+00 -5.805561E+00 -2.376213E+00 +3.791004E+02 -1.219766E+01 -5.805561E+00 -1.219766E+01 +9.374489E+02 
 +3.830308E+02 -3.296172E+00 -5.721276E+00 -3.296172E+00 +3.700154E+02 -1.290199E+01 -5.721276E+00 -1.290199E+01 +9.360993E+02 
 +3.767296E+02 -7.479705E+00 -6.364780E+00 -7.479705E+00 +3.669433E+02 -1.564444E+01 -6.364780E+00 -1.564444E+01 +9.392337E+02 
 +3.737886E+02 -7.776407E+00 -7.949995E+00 -7.776407E+00 +3.657060E+02 -1.779170E+01 -7.949995E+00 -1.779170E+01 +9.384628E+02 
 +3.762708E+02 -2.500137E-01 -1.072337E+01 -2.500137E-01 +3.622383E+02 -2.191532E+01 -1.072337E+01 -2.191532E+01 +9.327144E+02 
 +3.594722E+02 +4.755735E+00 -1.474708E+01 +4.755735E+00 +3.423758E+02 -1.202332E+01 -1.474708E+01 -1.202332E+01 +9.159150E+02 
 +3.503243E+02 +1.792018E+01 -7.373917E+00 +1.792018E+01 +3.246492E+02 -5.870119E-01 -7.373917E+00 -5.870119E-01 +9.170526E+02 
 +3.446674E+02 +2.080555E+01 -5.915783E+00 +2.080555E+01 +3.142499E+02 -7.914347E+00 -5.915783E+00 -7.914347E+00 +9.207976E+02 
 +3.751140E+02 +2.713782E+01 -5.409884E+00 +2.713782E+01 +3.576594E+02 -2.095476E+01 -5.409884E+00 -2.095476E+01 +9.376299E+02 
 +3.458735E+02 -3.307179E+00 -7.253368E+00 -3.307179E+00 +3.751558E+02 -2.650883E+01 -7.253368E+00 -2.650883E+01 +9.575379E+02 
 +3.646343E+02 +5.193393E+00 -5.399301E+00 +5.193393E+00 +4.094338E+02 -1.363987E+01 -5.399301E+00 -1.363987E+01 +9.906939E+02 
 +3.768279E+02 +2.394226E+00 -8.126947E+00 +2.394226E+00 +4.039429E+02 -2.231367E+00 -8.126947E+00 -2.231367E+00 +9.879446E+02 
 +4.056804E+02 -1.143417E+01 -1.548844E+01 -1.143417E+01 +3.957304E+02 -3.652533E-01 -1.548844E+01 -3.652533E-01 +9.752271E+02 
 +3.716034E+02 -2.029563E+01 -1.199234E+01 -2.029563E+01 +3.810981E+02 -3.582737E+00 -1.199234E+01 -3.582737E+00 +9.590431E+02 
 +3.568473E+02 -1.575681E+01 -1.038600E+01 -1.575681E+01 +3.850511E+02 -3.116127E+00 -1.038600E+01 -3.116127E+00 +9.584900E+02 
 +3.551658E+02 +6.174396E+00 -1.534600E+01 +6.174396E+00 +3.738704E+02 -7.567593E+00 -1.534600E+01 -7.567593E+00 +9.523848E+02 
 +3.468364E+02 +5.923873E+00 -1.230727E+01 +5.923873E+00 +3.644440E+02 -1.802872E+01 -1.230727E+01 -1.802872E+01 +9.508079E+02 
 +3.614520E+02 +2.115070E+01 -5.480090E+00 +2.115070E+01 +3.837014E+02 -1.592918E+01 -5.480090E+00 -1.592918E+01 +9.750815E+02 
 +3.684774E+02 +1.523729E+01 -4.571189E+00 +1.523729E+01 +3.934379E+02 -8.361844E+00 -4.571189E+00 -8.361844E+00 +9.845992E+02 
 +3.856401E+02 +7.535415E+00 -1.370534E+01 +7.535415E+00 +3.911239E+02 -1.802001E+01 -1.370534E+01 -1.802001E+01 +9.653955E+02 
 +3.892011E+02 +2.321479E+00 -1.543218E+01 +2.321479E+00 +3.841047E+02 -1.736492E+01 -1.543218E+01 -1.736492E+01 +9.472019E+02 
 +3.884179E+02 +2.465011E+00 -1.119450E+01 +2.465011E+00 +3.824119E+02 -1.165113E+01 -1.119450E+01 -1.165113E+01 +9.426257E+02 
 +3.868682E+02 -1.496743E+00 -8.195847E+00 -1.496743E+00 +3.784144E+02 -1.328197E+01 -8.195847E+00 -1.328197E+01 +9.444899E+02 
 +3.761826E+02 -5.341845E+00 -7.238140E+00 -5.341845E+00 +3.683375E+02 -1.437934E+01 -7.238140E+00 -1.437934E+01 +9.476531E+02 
 +3.706890E+02 -4.675154E+00 -1.037184E+01 -4.675154E+00 +3.601617E+02 -1.293491E+01 -1.037184E+01 -1.293491E+01 +9.445584E+02 
 +3.702497E+02 -7.153937E-01 -1.462448E+01 -7.153937E-01 +3.470115E+02 -1.690584E+01 -1.462448E+01 -1.690584E+01 +9.281966E+02 
 +3.616549E+02 -5.114696E+00 -1.431602E+01 -5.114696E+00 +3.398715E+02 -1.309851E+01 -1.431602E+01 -1.309851E+01 +9.197122E+02 
 +3.547308E+02 -1.433871E+01 -3.826856E+00 -1.433871E+01 +3.506826E+02 -8.130827E+00 -3.826856E+00 -8.130827E+00 +9.400658E+02 
 +3.626857E+02 -1.507857E+01 -6.186528E+00 -1.507857E+01 +3.591871E+02 -1.318975E+01 -6.186528E+00 -1.318975E+01 +9.497701E+02 
 +3.729045E+02 +1.608755E+01 -1.094676E+01 +1.608755E+01 +3.654207E+02 -2.311429E+01 -1.094676E+01 -2.311429E+01 +9.473410E+02 
 +3.452691E+02 +4.538628E+00 -1.579173E+00 +4.538628E+00 +3.745298E+02 -3.001059E+01 -1.579173E+00 -3.001059E+01 +9.602340E+02 
 +3.573853E+02 +7.393163E+00 -2.968908E+00 +7.393163E+00 +3.871948E+02 -1.729981E+01 -2.968908E+00 -1.729981E+01 +9.704803E+02 
 +3.860317E+02 +4.799099E+00 -7.315643E+00 +4.799099E+00 +3.787655E+02 -1.873464E+00 -7.315643E+00 -1.873464E+00 +9.695972E+02 
 +3.910139E+02 -1.115996E+01 -1.598286E+01 -1.115996E+01 +3.722063E+02 +6.272480E+00 -1.598286E+01 +6.272480E+00 +9.610891E+02 
 +3.880171E+02 -1.962983E+01 -1.584395E+01 -1.962983E+01 +3.804232E+02 +2.173653E+00 -1.584395E+01 +2.173653E+00 +9.627291E+02 
 +3.455676E+02 -2.806835E+01 -7.088483E+00 -2.806835E+01 +3.786317E+02 -4.121303E+00 -7.088483E+00 -4.121303E+00 +9.539883E+02 
 +3.445747E+02 -2.366610E+01 -1.230786E+01 -2.366610E+01 +3.806547E+02 -2.874091E+00 -1.230786E+01 -2.874091E+00 +9.511072E+02 
 +3.588044E+02 -1.228629E+01 -9.083005E+00 -1.228629E+01 +3.804316E+02 -6.674247E+00 -9.083005E+00 -6.674247E+00 +9.572951E+02 
 +3.605067E+02 +9.509836E+00 -1.545279E+00 +9.509836E+00 +3.774956E+02 -8.510144E+00 -1.545279E+00 -8.510144E+00 +9.725436E+02 
 +3.807553E+02 +1.099417E+01 -4.159080E+00 +1.099417E+01 +3.756914E+02 -5.301045E+00 -4.159080E+00 -5.301045E+00 +9.776706E+02 
 +3.943849E+02 +5.490619E+00 -1.404086E+01 +5.490619E+00 +3.758218E+02 -1.271801E+01 -1.404086E+01 -1.271801E+01 +9.601233E+02 
 +3.850032E+02 +3.366250E+00 -2.099435E+01 +3.366250E+00 +3.742691E+02 -1.296136E+01 -2.099435E+01 -1.296136E+01 +9.443924E+02 
 +3.887809E+02 +3.521129E+00 -2.081626E+01 +3.521129E+00 +3.846981E+02 -1.313386E+01 -2.081626E+01 -1.313386E+01 +9.480465E+02 
 +3.880423E+02 +8.028818E-01 -1.612650E+01 +8.028818E-01 +3.844371E+02 -1.421214E+01 -1.612650E+01 -1.421214E+01 +9.541120E+02 
 +3.808561E+02 -1.913534E+00 -1.489247E+01 -1.913534E+00 +3.736142E+02 -1.217568E+01 -1.489247E+01 -1.217568E+01 +9.502660E+02 
 +3.759179E+02 +1.620944E+00 -1.586418E+01 +1.620944E+00 +3.621661E+02 -1.334862E+01 -1.586418E+01 -1.334862E+01 +9.404777E+02 
 +3.663234E+02 +5.292809E+00 -1.642345E+01 +5.292809E+00 +3.494428E+02 -1.901471E+01 -1.642345E+01 -1.901471E+01 +9.254418E+02 
 +3.261385E+02 +6.135135E+00 -9.350921E+00 +6.135135E+00 +3.252563E+02 -1.063524E+01 -9.350921E+00 -1.063524E+01 +9.182698E+02 
 +3.288448E+02 +6.800486E+00 -1.883569E+00 +6.800486E+00 +3.399529E+02 +9.328064E-01 -1.883569E+00 +9.328064E-01 +9.483779E+02 
 +3.679673E+02 +5.581845E+00 -1.934186E+00 +5.581845E+00 +3.820189E+02 -6.131748E+00 -1.934186E+00 -6.131748E+00 +9.679351E+02 
 +3.766999E+02 +1.640616E+01 -3.152227E+00 +1.640616E+01 +3.843283E+02 -2.401688E+01 -3.152227E+00 -2.401688E+01 +9.623796E+02 
 +3.463575E+02 +1.200122E+01 +4.610575E+00 +1.200122E+01 +3.712692E+02 -2.745060E+01 +4.610575E+00 -2.745060E+01 +9.634326E+02 
 +3.684221E+02 +4.261185E+00 -1.158509E+00 +4.261185E+00 +3.604873E+02 -8.124021E+00 -1.158509E+00 -8.124021E+00 +9.589155E+02 
 +3.812115E+02 +2.730188E+00 -8.361886E+00 +2.730188E+00 +3.669266E+02 +8.012151E+00 -8.361886E+00 +8.012151E+00 +9.586889E+02 
 +3.868659E+02 -1.337119E+01 -1.431494E+01 -1.337119E+01 +3.792386E+02 +9.195647E+00 -1.431494E+01 +9.195647E+00 +9.607267E+02 
 +3.925979E+02 -1.856092E+01 -1.506390E+01 -1.856092E+01 +3.923396E+02 -1.328209E+00 -1.506390E+01 -1.328209E+00 +9.660968E+02 
 +3.305312E+02 -2.188734E+01 -6.408725E-01 -2.188734E+01 +3.736618E+02 -7.759052E+00 -6.408725E-01 -7.759052E+00 +9.466794E+02 
 +3.295985E+02 -2.245135E+01 -1.679689E+00 -2.245135E+01 +3.762645E+02 -4.642422E+00 -1.679689E+00 -4.642422E+00 +9.449137E+02 
 +3.600854E+02 -1.063943E+01 -9.357763E-01 -1.063943E+01 +3.844436E+02 -3.664060E+00 -9.357763E-01 -3.664060E+00 +9.492847E+02 
 +3.695752E+02 -5.852791E-01 +4.825987E+00 -5.852791E-01 +3.774430E+02 +4.646323E+00 +4.825987E+00 +4.646323E+00 +9.499695E+02 
 +4.027459E+02 -1.804572E+00 +1.268156E+00 -1.804572E+00 +3.721144E+02 +1.616876E+01 +1.268156E+00 +1.616876E+01 +9.609830E+02 
 +3.991138E+02 -1.862662E+00 -2.419361E+00 -1.862662E+00 +3.608739E+02 +1.717714E+00 -2.419361E+00 +1.717714E+00 +9.595278E+02 
 +3.973809E+02 +1.132673E+00 -1.370138E+01 +1.132673E+00 +3.762801E+02 -8.865642E+00 -1.370138E+01 -8.865642E+00 +9.603532E+02 
 +3.957706E+02 -1.591224E+00 -1.927422E+01 -1.591224E+00 +3.809171E+02 -1.077512E+01 -1.927422E+01 -1.077512E+01 +9.596547E+02 
 +3.910868E+02 -1.518204E+00 -1.936416E+01 -1.518204E+00 +3.775978E+02 -1.231992E+01 -1.936416E+01 -1.231992E+01 +9.634152E+02 
 +3.797663E+02 -5.778543E+00 -2.188380E+01 -5.778543E+00 +3.665535E+02 -7.518237E+00 -2.188380E+01 -7.518237E+00 +9.513930E+02 
 +3.627726E+02 -6.006001E+00 -2.593148E+01 -6.006001E+00 +3.456084E+02 -7.763927E+00 -2.593148E+01 -7.763927E+00 +9.269575E+02 
 +3.589019E+02 -2.939678E+00 -1.957805E+01 -2.939678E+00 +3.504002E+02 -1.263187E+01 -1.957805E+01 -1.263187E+01 +9.266312E+02 
 +3.045634E+02 -7.727359E+00 -5.309381E+00 -7.727359E+00 +3.326854E+02 +6.183294E-01 -5.309381E+00 +6.183294E-01 +9.346491E+02 
 +3.418766E+02 -1.460273E+00 -3.267812E+00 -1.460273E+00 +3.590592E+02 +5.161632E+00 -3.267812E+00 +5.161632E+00 +9.713802E+02 
 +3.496390E+02 +3.076820E+00 -4.404716E+00 +3.076820E+00 +3.688173E+02 -8.102715E+00 -4.404716E+00 -8.102715E+00 +9.692300E+02 
 +3.576194E+02 +1.754797E+01 -7.775272E-01 +1.754797E+01 +3.836715E+02 -2.537690E+01 -7.775272E-01 -2.537690E+01 +9.722157E+02 
 +3.569332E+02 +1.472266E+00 +5.503680E+00 +1.472266E+00 +3.617008E+02 -2.368717E+01 +5.503680E+00 -2.368717E+01 +9.695991E+02 
 +3.687905E+02 +1.185437E+00 -3.543393E+00 +1.185437E+00 +3.537880E+02 -2.126925E+00 -3.543393E+00 -2.126925E+00 +9.597741E+02 
 +3.799292E+02 +2.066802E-01 -1.070759E+01 +2.066802E-01 +3.668879E+02 +1.029448E+01 -1.070759E+01 +1.029448E+01 +9.617099E+02 
 +3.872005E+02 -1.493297E+01 -1.150590E+01 -1.493297E+01 +3.783262E+02 +7.649504E+00 -1.150590E+01 +7.649504E+00 +9.651580E+02 
 +3.887728E+02 -1.476651E+01 -1.164470E+01 -1.476651E+01 +3.887213E+02 -2.611099E+00 -1.164470E+01 -2.611099E+00 +9.673682E+02 
 +3.414127E+02 -1.370757E+01 -2.928152E+00 -1.370757E+01 +3.773153E+02 -9.841648E+00 -2.928152E+00 -9.841648E+00 +9.511128E+02 
 +3.369758E+02 -1.689939E+01 -2.183741E+00 -1.689939E+01 +3.871833E+02 -5.959837E+00 -2.183741E+00 -5.959837E+00 +9.560162E+02 
 +3.455631E+02 -5.679249E+00 -4.500322E+00 -5.679249E+00 +3.798843E+02 +1.616115E+00 -4.500322E+00 +1.616115E+00 +9.449481E+02 
 +3.804081E+02 +6.782070E+00 -3.061076E+00 +6.782070E+00 +3.716672E+02 +9.912574E+00 -3.061076E+00 +9.912574E+00 +9.278456E+02 
 +4.121054E+02 +5.775735E+00 -3.005652E+00 +5.775735E+00 +3.842790E+02 +2.337671E+01 -3.005652E+00 +2.337671E+01 +9.391751E+02 
 +4.184964E+02 +3.172573E+00 -3.003527E-01 +3.172573E+00 +3.966552E+02 +2.089603E+01 -3.003527E-01 +2.089603E+01 +9.674751E+02 
 +4.003590E+02 -5.066027E+00 -1.775397E+00 -5.066027E+00 +3.715228E+02 +8.464811E+00 -1.775397E+00 +8.464811E+00 +9.742462E+02 
 +3.877264E+02 -1.309739E+01 -9.963036E+00 -1.309739E+01 +3.478384E+02 +4.192794E+00 -9.963036E+00 +4.192794E+00 +9.715444E+02 
 +3.865106E+02 -1.230538E+01 -1.454638E+01 -1.230538E+01 +3.437875E+02 +8.368425E-01 -1.454638E+01 +8.368425E-01 +9.750199E+02 
 +3.796404E+02 -1.347726E+01 -1.964318E+01 -1.347726E+01 +3.417816E+02 +2.224635E+00 -1.964318E+01 +2.224635E+00 +9.648384E+02 
 +3.410643E+02 -9.488713E+00 -2.862386E+01 -9.488713E+00 +3.300685E+02 -7.539454E+00 -2.862386E+01 -7.539454E+00 +9.333838E+02 
 +3.394525E+02 -5.148155E+00 -1.816161E+01 -5.148155E+00 +3.430547E+02 -1.942124E+01 -1.816161E+01 -1.942124E+01 +9.360991E+02 
 +3.026945E+02 -7.749820E+00 -2.979158E+00 -7.749820E+00 +3.432950E+02 -3.551745E+00 -2.979158E+00 -3.551745E+00 +9.487429E+02 
 +3.391366E+02 -2.045912E+00 +5.197982E-01 -2.045912E+00 +3.657975E+02 +6.027483E+00 +5.197982E-01 +6.027483E+00 +9.769494E+02 
 +3.449243E+02 +3.324615E+00 +1.599759E+00 +3.324615E+00 +3.656310E+02 -7.235004E+00 +1.599759E+00 -7.235004E+00 +9.746101E+02 
 +3.465281E+02 +1.439195E+01 +3.704075E+00 +1.439195E+01 +3.744104E+02 -2.600026E+01 +3.704075E+00 -2.600026E+01 +9.773732E+02 
 +3.642656E+02 -1.499643E+01 +1.062103E+01 -1.499643E+01 +3.717045E+02 -2.971291E+01 +1.062103E+01 -2.971291E+01 +9.791812E+02 
 +3.742115E+02 -1.549357E+01 +4.444318E+00 -1.549357E+01 +3.635959E+02 -8.364739E+00 +4.444318E+00 -8.364739E+00 +9.688302E+02 
 +3.988823E+02 -4.318098E+00 -3.881442E+00 -4.318098E+00 +3.692694E+02 +6.074978E+00 -3.881442E+00 +6.074978E+00 +9.705411E+02 
 +3.922864E+02 -1.363167E+01 -2.474992E+00 -1.363167E+01 +3.717689E+02 +3.316970E+00 -2.474992E+00 +3.316970E+00 +9.748920E+02 
 +3.708188E+02 -1.478085E+01 -1.785366E+00 -1.478085E+01 +3.671971E+02 -6.998255E+00 -1.785366E+00 -6.998255E+00 +9.668378E+02 
 +3.375499E+02 -1.882599E+01 -3.277219E+00 -1.882599E+01 +3.514431E+02 -7.482345E+00 -3.277219E+00 -7.482345E+00 +9.499873E+02 
 +3.374991E+02 -2.196646E+01 -6.636860E+00 -2.196646E+01 +3.558963E+02 -3.756908E+00 -6.636860E+00 -3.756908E+00 +9.627727E+02 
 +3.479306E+02 -9.507349E+00 -1.090193E+01 -9.507349E+00 +3.506907E+02 +2.416371E-01 -1.090193E+01 +2.416371E-01 +9.528210E+02 
 +3.817626E+02 +1.200480E+01 -1.202620E+01 +1.200480E+01 +3.558317E+02 +7.829226E+00 -1.202620E+01 +7.829226E+00 +9.151228E+02 
 +3.903186E+02 +1.112106E+01 -9.552240E+00 +1.112106E+01 +3.700757E+02 +1.597873E+01 -9.552240E+00 +1.597873E+01 +9.044211E+02 
 +4.055049E+02 +3.261948E+00 -2.324496E+00 +3.261948E+00 +3.868342E+02 +1.625795E+01 -2.324496E+00 +1.625795E+01 +9.446929E+02 
 +3.979309E+02 -8.128765E+00 +3.273885E+00 -8.128765E+00 +3.753521E+02 +1.168251E+01 +3.273885E+00 +1.168251E+01 +9.768756E+02 
 +3.920887E+02 -1.043691E+01 -7.508353E+00 -1.043691E+01 +3.563710E+02 +1.049812E+01 -7.508353E+00 +1.049812E+01 +9.902007E+02 
 +3.905525E+02 -1.354051E+01 -1.136636E+01 -1.354051E+01 +3.417956E+02 +7.849054E+00 -1.136636E+01 +7.849054E+00 +9.897430E+02 
 +3.963840E+02 -1.214330E+01 -1.389301E+01 -1.214330E+01 +3.476939E+02 +7.521078E+00 -1.389301E+01 +7.521078E+00 +9.891239E+02 
 +3.230911E+02 -1.154042E+01 -2.378744E+01 -1.154042E+01 +3.313144E+02 +1.262976E+00 -2.378744E+01 +1.262976E+00 +9.627781E+02 
 +3.309490E+02 -1.346135E+01 -1.615273E+01 -1.346135E+01 +3.539562E+02 -9.161206E+00 -1.615273E+01 -9.161206E+00 +9.692851E+02 
 +3.246794E+02 -1.164304E+01 -2.537246E+00 -1.164304E+01 +3.635605E+02 -2.449789E+00 -2.537246E+00 -2.449789E+00 +9.670540E+02 
 +3.375263E+02 -1.593526E+01 +5.338984E+00 -1.593526E+01 +3.784901E+02 +4.630228E+00 +5.338984E+00 +4.630228E+00 +9.768710E+02 
 +3.406223E+02 -5.832431E-02 +9.277931E+00 -5.832431E-02 +3.769053E+02 -4.898174E+00 +9.277931E+00 -4.898174E+00 +9.764127E+02 
 +3.442760E+02 +7.932403E+00 +1.110055E+01 +7.932403E+00 +3.715869E+02 -2.817332E+01 +1.110055E+01 -2.817332E+01 +9.758135E+02 
 +3.717121E+02 +1.831454E+00 +7.392330E+00 +1.831454E+00 +3.581711E+02 -2.615790E+01 +7.392330E+00 -2.615790E+01 +9.778938E+02 
 +3.815017E+02 +1.071762E+01 +5.763912E+00 +1.071762E+01 +3.547126E+02 -1.399985E+01 +5.763912E+00 -1.399985E+01 +9.709146E+02 
 +3.877768E+02 +1.664918E+01 +2.291031E+00 +1.664918E+01 +3.485515E+02 -2.699895E+00 +2.291031E+00 -2.699895E+00 +9.660256E+02 
 +3.675029E+02 -5.928428E+00 +6.702912E+00 -5.928428E+00 +3.466821E+02 -2.646648E+00 +6.702912E+00 -2.646648E+00 +9.717021E+02 
 +3.675471E+02 -1.064539E+01 +7.175667E+00 -1.064539E+01 +3.654154E+02 -6.510516E+00 +7.175667E+00 -6.510516E+00 +9.870818E+02 
 +3.622020E+02 -1.406266E+01 -3.233679E-01 -1.406266E+01 +3.678596E+02 -3.348669E+00 -3.233679E-01 -3.348669E+00 +9.858346E+02 
 +3.664254E+02 -1.650544E+01 -3.831095E+00 -1.650544E+01 +3.571924E+02 -4.415649E+00 -3.831095E+00 -4.415649E+00 +9.821564E+02 
 +3.698869E+02 -8.288758E+00 -3.987544E+00 -8.288758E+00 +3.481879E+02 +3.665059E-01 -3.987544E+00 +3.665059E-01 +9.595875E+02 
 +3.931239E+02 +1.757434E+01 -2.286252E+00 +1.757434E+01 +3.654572E+02 +1.439514E+01 -2.286252E+00 +1.439514E+01 +9.308362E+02 
 +3.939450E+02 +1.883732E+01 -3.761774E+00 +1.883732E+01 +3.736194E+02 +2.242542E+01 -3.761774E+00 +2.242542E+01 +9.154534E+02 
 +3.941945E+02 +7.464535E+00 -2.724175E+00 +7.464535E+00 +3.741041E+02 +2.274719E+01 -2.724175E+00 +2.274719E+01 +9.351946E+02 
 +3.907579E+02 -8.494994E+00 +2.814913E+00 -8.494994E+00 +3.668190E+02 +1.601493E+01 +2.814913E+00 +1.601493E+01 +9.665919E+02 
 +3.833257E+02 -1.001233E+01 -3.691695E+00 -1.001233E+01 +3.541286E+02 +8.958765E+00 -3.691695E+00 +8.958765E+00 +9.819515E+02 
 +3.721541E+02 -1.411760E+01 -3.687568E+00 -1.411760E+01 +3.293719E+02 +8.009779E+00 -3.687568E+00 +8.009779E+00 +9.742096E+02 
 +3.548381E+02 -9.133639E+00 -4.613541E+00 -9.133639E+00 +3.262145E+02 +4.642864E+00 -4.613541E+00 +4.642864E+00 +9.699848E+02 
 +3.077677E+02 -1.178320E+01 -9.246967E+00 -1.178320E+01 +3.341369E+02 -1.043946E+01 -9.246967E+00 -1.043946E+01 +9.692797E+02 
 +3.238966E+02 -1.518228E+01 -5.345222E+00 -1.518228E+01 +3.611331E+02 -1.893882E+01 -5.345222E+00 -1.893882E+01 +9.824373E+02 
 +3.240008E+02 -1.236272E+01 +4.009102E+00 -1.236272E+01 +3.654068E+02 -6.650466E+00 +4.009102E+00 -6.650466E+00 +9.761277E+02 
 +3.440504E+02 -2.252070E+01 +9.037514E+00 -2.252070E+01 +3.901610E+02 +2.571431E+00 +9.037514E+00 +2.571431E+00 +9.879739E+02 
 +3.422176E+02 -1.175943E+01 +1.842220E+01 -1.175943E+01 +3.863678E+02 -5.118247E+00 +1.842220E+01 -5.118247E+00 +9.868525E+02 
 +3.683204E+02 -5.142597E-01 +1.400672E+01 -5.142597E-01 +3.722246E+02 -2.247110E+01 +1.400672E+01 -2.247110E+01 +9.860769E+02 
TENSORS Strain float 
 +1.510939E-04 +9.779547E-05 +3.636291E-05 +9.779547E-05 +1.247404E-04 -2.026580E-04 +3.636291E-05 -2.026580E-04 +5.072247E-03 
 +1.445601E-04 +2.372870E-05 +1.662386E-05 +2.372870E-05 -1.328356E-04 -5.820578E-05 +1.662386E-05 -5.820578E-05 +5.092194E-03 
 +9.723693E-05 +7.864688E-05 +1.229200E-07 +7.864688E-05 -2.553494E-04 +1.679427E-05 +1.229200E-07 +1.679427E-05 +5.113298E-03 
 -5.443312E-05 -1.726763E-04 +1.334391E-04 -1.726763E-04 -2.480353E-04 -1.174080E-05 +1.334391E-04 -1.174080E-05 +5.089693E-03 
 +1.909658E-04 +9.275947E-05 +1.963376E-04 +9.275947E-05 -2.453813E-04 +1.069183E-05 +1.963376E-04 +1.069183E-05 +5.108131E-03 
 +8.414483E-05 +1.909524E-04 +2.565789E-05 +1.909524E-04 -2.695048E-04 -1.622201E-06 +2.565789E-05 -1.622201E-06 +5.240120E-03 
 +8.998594E-05 +2.529944E-04 -1.001046E-04 +2.529944E-04 -1.516293E-04 -4.542206E-05 -1.001046E-04 -4.542206E-05 +5.255497E-03 
 +8.711588E-05 +2.432766E-04 -8.972768E-05 +2.432766E-04 -4.981264E-05 +8.652154E-07 -8.972768E-05 +8.652154E-07 +5.198264E-03 
 +1.588411E-04 +2.790897E-04 -1.666576E-05 +2.790897E-04 -7.103951E-05 +3.407430E-05 -1.666576E-05 +3.407430E-05 +5.101802E-03 
 +2.066657E-04 +2.973843E-04 -3.295432E-05 +2.973843E-04 -1.142755E-04 +4.737236E-05 -3.295432E-05 +4.737236E-05 +5.006683E-03 
 +2.044302E-04 +2.305383E-04 -5.012228E-05 +2.305383E-04 -1.430649E-04 +1.075563E-04 -5.012228E-05 +1.075563E-04 +5.001475E-03 
 +2.196410E-04 +1.561032E-04 -8.601757E-05 +1.561032E-04 -1.320286E-04 +1.726883E-04 -8.601757E-05 +1.726883E-04 +4.991860E-03 
 +1.203832E-04 -2.404912E-04 -1.128583E-04 -2.404912E-04 -1.281059E-04 +1.497284E-04 -1.128583E-04 +1.497284E-04 +5.031470E-03 
 -2.562801E-05 -1.618815E-04 -9.380949E-05 -1.618815E-04 -1.471657E-04 +1.708857E-04 -9.380949E-05 +1.708857E-04 +5.046398E-03 
 -2.526655E-04 -2.163697E-04 -3.172589E-05 -2.163697E-04 -4.746621E-05 +1.285930E-04 -3.172589E-05 +1.285930E-04 +5.027686E-03 
 -3.906415E-04 -2.797378E-04 -1.132368E-05 -2.797378E-04 +3.176485E-06 -1.987352E-05 -1.132368E-05 -1.987352E-05 +5.067173E-03 
 -5.239170E-04 -2.999286E-04 +4.715349E-05 -2.999286E-04 +2.414884E-05 -1.441226E-04 +4.715349E-05 -1.441226E-04 +5.066217E-03 
 -2.871401E-04 +4.911776E-05 +2.958755E-04 +4.911776E-05 -2.009085E-05 -1.574847E-04 +2.958755E-04 -1.574847E-04 +5.022766E-03 
 -8.762075E-05 -1.174350E-06 +2.581970E-04 -1.174350E-06 +1.755124E-05 -1.479195E-04 +2.581970E-04 -1.479195E-04 +5.004991E-03 
 -6.153161E-06 +1.569713E-04 +3.118912E-04 +1.569713E-04 +1.729606E-04 -2.268668E-04 +3.118912E-04 -2.268668E-04 +4.979097E-03 
 -1.268166E-04 +1.888140E-04 +1.955330E-04 +1.888140E-04 +3.129818E-04 -2.781618E-04 +1.955330E-04 -2.781618E-04 +5.013735E-03 
 +4.947978E-05 -2.456615E-05 -9.282286E-05 -2.456615E-05 +1.218470E-04 -1.944864E-04 -9.282286E-05 -1.944864E-04 +5.074694E-03 
 +7.756476E-05 +5.891594E-05 -4.771621E-05 +5.891594E-05 -3.093027E-05 -9.740382E-05 -4.771621E-05 -9.740382E-05 +5.100299E-03 
 +1.152919E-04 +7.157647E-05 -4.048159E-05 +7.157647E-05 -1.915201E-04 -2.944251E-05 -4.048159E-05 -2.944251E-05 +5.043543E-03 
 +2.119316E-04 +6.275401E-05 +1.956300E-04 +6.275401E-05 -2.142791E-04 +8.676778E-06 +1.956300E-04 +8.676778E-06 +4.932946E-03 
 +4.014360E-04 +3.898193E-05 +1.574623E-04 +3.898193E-05 -1.797526E-04 +4.360018E-07 +1.574623E-04 +4.360018E-07 +4.985223E-03 
 +1.910046E-04 +1.174593E-04 -3.823840E-05 +1.174593E-04 -1.526544E-04 -7.196968E-05 -3.823840E-05 -7.196968E-05 +5.205838E-03 
 +3.985710E-05 +1.486762E-04 -1.982445E-04 +1.486762E-04 -7.936194E-05 -6.691671E-05 -1.982445E-04 -6.691671E-05 +5.298054E-03 
 +8.541245E-05 +2.383038E-04 -1.998943E-04 +2.383038E-04 -7.419729E-05 -1.605009E-05 -1.998943E-04 -1.605009E-05 +5.299038E-03 
 +1.383018E-04 +2.363207E-04 -8.562272E-05 +2.363207E-04 -4.558896E-05 +1.885922E-05 -8.562272E-05 +1.885922E-05 +5.207115E-03 
 +1.916343E-04 +3.301845E-04 -4.448132E-05 +3.301845E-04 -9.121273E-05 +5.864758E-05 -4.448132E-05 +5.864758E-05 +5.040133E-03 
 +2.733334E-04 +2.382802E-04 -3.064421E-05 +2.382802E-04 -7.193493E-05 +1.747913E-04 -3.064421E-05 +1.747913E-04 +5.027213E-03 
 +1.170749E-04 +9.411669E-06 -1.019125E-04 +9.411669E-06 -1.716470E-04 +2.602325E-04 -1.019125E-04 +2.602325E-04 +5.098174E-03 
 -9.505284E-05 -2.976378E-04 -1.757480E-04 -2.976378E-04 -2.063279E-04 +2.563882E-04 -1.757480E-04 +2.563882E-04 +5.133429E-03 
 -2.767467E-04 -1.200795E-04 -1.365128E-04 -1.200795E-04 -1.821360E-06 +2.476489E-04 -1.365128E-04 +2.476489E-04 +5.125135E-03 
 -4.026561E-04 -1.516463E-04 -5.856572E-05 -1.516463E-04 +9.216036E-06 +1.730348E-04 -5.856572E-05 +1.730348E-04 +5.147897E-03 
 -4.885082E-04 -1.380692E-04 -6.855831E-05 -1.380692E-04 -2.819197E-06 +6.970336E-05 -6.855831E-05 +6.970336E-05 +5.185114E-03 
 -5.253665E-04 -1.690128E-04 -2.795119E-05 -1.690128E-04 -4.669322E-06 -8.287323E-05 -2.795119E-05 -8.287323E-05 +5.115077E-03 
 -1.044788E-04 +8.491909E-05 +1.750820E-04 +8.491909E-05 -1.431591E-07 -1.929809E-04 +1.750820E-04 -1.929809E-04 +4.999462E-03 
 +2.111407E-05 -6.064619E-05 +1.271497E-04 -6.064619E-05 +3.843699E-05 -1.816797E-04 +1.271497E-04 -1.816797E-04 +4.987153E-03 
 +2.405306E-05 +3.558863E-05 +1.419127E-04 +3.558863E-05 +1.100979E-04 -1.826269E-04 +1.419127E-04 -1.826269E-04 +4.936054E-03 
 -4.477618E-05 +1.172200E-04 +8.604916E-05 +1.172200E-04 +1.861447E-04 -2.314904E-04 +8.604916E-05 -2.314904E-04 +4.967977E-03 
 +4.249701E-05 -4.393502E-05 -1.470950E-04 -4.393502E-05 +2.851463E-05 -1.657078E-04 -1.470950E-04 -1.657078E-04 +5.148313E-03 
 +3.877937E-05 +5.603931E-05 -1.424318E-05 +5.603931E-05 -1.071272E-07 -5.319243E-05 -1.424318E-05 -5.319243E-05 +5.165948E-03 
 +1.389865E-04 +2.783353E-05 +2.929505E-05 +2.783353E-05 -1.229826E-04 -3.605399E-05 +2.929505E-05 -3.605399E-05 +5.073871E-03 
 +3.518305E-04 +3.786819E-05 +3.063739E-04 +3.786819E-05 -2.077576E-04 -3.435231E-05 +3.063739E-04 -3.435231E-05 +4.913910E-03 
 +4.501012E-04 -3.342482E-05 +1.671439E-04 -3.342482E-05 -1.440855E-04 -2.351357E-05 +1.671439E-04 -2.351357E-05 +4.934429E-03 
 +2.129295E-04 +1.170233E-04 -6.192928E-05 +1.170233E-04 -7.284487E-05 -5.245437E-05 -6.192928E-05 -5.245437E-05 +5.147127E-03 
 +1.137501E-04 +1.294297E-04 -2.396665E-04 +1.294297E-04 -2.299161E-05 -6.460631E-05 -2.396665E-04 -6.460631E-05 +5.274968E-03 
 +1.190441E-04 +1.686367E-04 -2.369854E-04 +1.686367E-04 -2.065002E-05 -5.606184E-05 -2.369854E-04 -5.606184E-05 +5.316685E-03 
 +1.579805E-04 +2.164651E-04 -1.508290E-04 +2.164651E-04 -5.526587E-05 -2.766208E-05 -1.508290E-04 -2.766208E-05 +5.288654E-03 
 +1.533215E-04 +1.945941E-04 -8.597651E-05 +1.945941E-04 -6.821258E-05 +6.541893E-05 -8.597651E-05 +6.541893E-05 +5.141894E-03 
 +1.537846E-04 +1.676018E-04 -1.117842E-04 +1.676018E-04 -3.109374E-05 +2.565867E-04 -1.117842E-04 +2.565867E-04 +5.087456E-03 
 -6.826021E-05 -3.359532E-04 -1.798324E-04 -3.359532E-04 -9.143819E-05 +3.153463E-04 -1.798324E-04 +3.153463E-04 +5.141889E-03 
 -2.572157E-04 -3.605743E-04 -2.155065E-04 -3.605743E-04 -8.831729E-05 +2.608686E-04 -2.155065E-04 +2.608686E-04 +5.183716E-03 
 -3.752908E-04 -2.993586E-04 -1.481323E-04 -2.993586E-04 -7.919177E-06 +2.520272E-04 -1.481323E-04 +2.520272E-04 +5.202951E-03 
 -3.922930E-04 -2.712561E-04 -8.240114E-05 -2.712561E-04 -4.772643E-05 +2.095403E-04 -8.240114E-05 +2.095403E-04 +5.211755E-03 
 -4.493786E-04 -1.274969E-04 -9.561984E-05 -1.274969E-04 -2.318486E-05 +1.274011E-04 -9.561984E-05 +1.274011E-04 +5.186551E-03 
 -4.780342E-04 -1.341083E-04 -8.702868E-05 -1.341083E-04 -3.104634E-05 -7.484004E-05 -8.702868E-05 -7.484004E-05 +5.120524E-03 
 -5.522487E-05 +2.011858E-04 -8.811379E-05 +2.011858E-04 -8.784820E-05 -2.084411E-04 -8.811379E-05 -2.084411E-04 +5.085748E-03 
 +4.075234E-05 +1.130164E-04 -1.435442E-04 +1.130164E-04 -9.079334E-05 -1.821279E-04 -1.435442E-04 -1.821279E-04 +5.103984E-03 
 +3.161578E-05 +2.417200E-04 -9.917007E-05 +2.417200E-04 -7.816977E-05 -1.671643E-04 -9.917007E-05 -1.671643E-04 +5.046546E-03 
 +7.015853E-05 +2.646925E-04 -8.543507E-05 +2.646925E-04 -3.406304E-05 -2.255727E-04 -8.543507E-05 -2.255727E-04 +5.062438E-03 
 +4.103894E-05 +1.356094E-06 -1.492846E-04 +1.356094E-06 -6.491716E-05 -1.798882E-04 -1.492846E-04 -1.798882E-04 +5.123704E-03 
 +2.711115E-05 +5.495370E-05 -3.700908E-05 +5.495370E-05 -5.772493E-05 -9.990762E-05 -3.700908E-05 -9.990762E-05 +5.170637E-03 
 +1.006524E-04 -2.051588E-06 +7.156594E-06 -2.051588E-06 -5.101026E-05 -5.186534E-05 +7.156594E-06 -5.186534E-05 +5.072842E-03 
 +2.956637E-04 -8.162257E-06 +3.275748E-04 -8.162257E-06 -9.917634E-05 +1.189826E-05 +3.275748E-04 +1.189826E-05 +4.938920E-03 
 +5.336377E-04 -5.700811E-05 +2.357538E-04 -5.700811E-05 -1.270798E-04 +5.563779E-05 +2.357538E-04 +5.563779E-05 +4.944230E-03 
 +3.737829E-04 +1.055910E-04 -6.266689E-05 +1.055910E-04 -5.735605E-05 -2.406036E-06 -6.266689E-05 -2.406036E-06 +5.154247E-03 
 +1.740096E-04 +1.723517E-04 -2.474570E-04 +1.723517E-04 -5.071974E-05 -4.493880E-05 -2.474570E-04 -4.493880E-05 +5.293225E-03 
 +1.063951E-04 +1.802308E-04 -2.429244E-04 +1.802308E-04 -3.861888E-05 -4.083917E-05 -2.429244E-04 -4.083917E-05 +5.311547E-03 
 +1.411088E-04 +1.620120E-04 -1.726191E-04 +1.620120E-04 -2.928008E-05 -6.573201E-06 -1.726191E-04 -6.573201E-06 +5.331519E-03 
 +1.562157E-04 +2.556670E-04 -6.834863E-05 +2.556670E-04 +5.625226E-05 +1.089881E-04 -6.834863E-05 +1.089881E-04 +5.227643E-03 
 -6.351894E-05 +1.495674E-04 -8.515143E-05 +1.495674E-04 -1.430156E-07 +2.631359E-04 -8.515143E-05 +2.631359E-04 +5.125723E-03 
 -3.179168E-04 -3.297031E-04 -9.842765E-05 -3.297031E-04 -5.307184E-05 +2.665960E-04 -9.842765E-05 +2.665960E-04 +5.153411E-03 
 -3.904938E-04 -3.145605E-04 -7.789519E-05 -3.145605E-04 +4.315803E-05 +2.018991E-04 -7.789519E-05 +2.018991E-04 +5.212041E-03 
 -4.315399E-04 -3.147234E-04 -2.748124E-05 -3.147234E-04 -1.141336E-06 +2.289051E-04 -2.748124E-05 +2.289051E-04 +5.241873E-03 
 -4.207522E-04 -3.364998E-04 -1.899762E-05 -3.364998E-04 -2.206128E-05 +1.983442E-04 -1.899762E-05 +1.983442E-04 +5.199084E-03 
 -3.455812E-04 -2.727969E-04 -3.501219E-05 -2.727969E-04 -5.788715E-05 +1.192185E-04 -3.501219E-05 +1.192185E-04 +5.054897E-03 
 -1.995264E-04 -2.011826E-04 -6.192761E-05 -2.011826E-04 -5.536565E-05 -3.780851E-05 -6.192761E-05 -3.780851E-05 +5.018803E-03 
 +8.831925E-05 +1.909186E-04 -2.192825E-04 +1.909186E-04 -1.009633E-04 -1.542155E-04 -2.192825E-04 -1.542155E-04 +5.074657E-03 
 +6.662668E-05 +1.882719E-04 -2.199561E-04 +1.882719E-04 -1.522232E-04 -1.601012E-04 -2.199561E-04 -1.601012E-04 +5.091502E-03 
 +4.877610E-05 +2.646377E-04 -1.737560E-04 +2.646377E-04 -1.381859E-04 -1.831601E-04 -1.737560E-04 -1.831601E-04 +5.054187E-03 
 +1.585233E-05 +3.340985E-04 -1.527045E-04 +3.340985E-04 -1.118754E-04 -2.197533E-04 -1.527045E-04 -2.197533E-04 +5.036958E-03 
 -1.834739E-05 -5.643749E-05 -1.543763E-04 -5.643749E-05 -9.749131E-05 -2.060724E-04 -1.543763E-04 -2.060724E-04 +5.113064E-03 
 +4.233469E-06 -7.795334E-05 -1.077411E-04 -7.795334E-05 -4.169426E-05 -1.137735E-04 -1.077411E-04 -1.137735E-04 +5.164418E-03 
 +9.730574E-05 -7.865206E-05 -6.275547E-05 -7.865206E-05 -3.329424E-05 -6.115018E-05 -6.275547E-05 -6.115018E-05 +5.069667E-03 
 +2.482532E-04 -9.875016E-05 +2.026815E-04 -9.875016E-05 -2.598753E-05 -2.157577E-06 +2.026815E-04 -2.157577E-06 +4.979557E-03 
 +4.280271E-04 -1.904189E-04 +1.657669E-04 -1.904189E-04 -1.721047E-04 +4.822174E-05 +1.657669E-04 +4.822174E-05 +5.035082E-03 
 +4.616114E-04 -1.628877E-04 -3.887937E-05 -1.628877E-04 -3.650984E-04 -1.165938E-05 -3.887937E-05 -1.165938E-05 +5.225299E-03 
 +3.729502E-04 -1.009200E-04 -1.259384E-04 -1.009200E-04 -3.607113E-04 -5.754141E-05 -1.259384E-04 -5.754141E-05 +5.303113E-03 
 +1.791248E-04 +8.819872E-05 -1.873390E-04 +8.819872E-05 -2.105050E-04 -8.182086E-06 -1.873390E-04 -8.182086E-06 +5.262771E-03 
 +1.383235E-04 +1.292928E-04 -1.580723E-04 +1.292928E-04 -5.518950E-05 +5.711341E-05 -1.580723E-04 +5.711341E-05 +5.270794E-03 
 +3.752925E-05 +2.009752E-04 -5.409976E-05 +2.009752E-04 +1.077334E-04 +1.499722E-04 -5.409976E-05 +1.499722E-04 +5.204569E-03 
 -2.523866E-04 -2.098456E-04 -4.064677E-05 -2.098456E-04 +1.246219E-04 +1.872894E-04 -4.064677E-05 +1.872894E-04 +5.129097E-03 
 -4.033562E-04 -3.757387E-04 -2.741701E-05 -3.757387E-04 +4.039212E-05 +1.707642E-04 -2.741701E-05 +1.707642E-04 +5.180017E-03 
 -4.438701E-04 -2.956800E-04 +8.633595E-06 -2.956800E-04 +4.223629E-05 +1.698438E-04 +8.633595E-06 +1.698438E-04 +5.237873E-03 
 -5.010246E-04 -2.703326E-04 +4.068338E-05 -2.703326E-04 +7.470387E-05 +1.912113E-04 +4.068338E-05 +1.912113E-04 +5.240189E-03 
 -5.047855E-04 -2.850337E-04 +2.812535E-05 -2.850337E-04 +2.531618E-05 +1.831437E-04 +2.812535E-05 +1.831437E-04 +5.115140E-03 
 -1.558002E-04 -8.961964E-05 +9.232990E-05 -8.961964E-05 -2.409831E-06 +1.698471E-04 +9.232990E-05 +1.698471E-04 +4.863280E-03 
 +1.379654E-04 -2.707832E-05 +7.158145E-05 -2.707832E-05 -8.365348E-06 +7.192864E-05 +7.158145E-05 +7.192864E-05 +4.880305E-03 
 +1.136378E-04 +1.733088E-04 -1.789300E-04 +1.733088E-04 -8.627452E-05 -6.832839E-05 -1.789300E-04 -6.832839E-05 +5.040507E-03 
 +4.327176E-05 +1.508711E-04 -1.746729E-04 +1.508711E-04 -1.184642E-04 -1.233427E-04 -1.746729E-04 -1.233427E-04 +5.059244E-03 
 +4.518544E-05 +1.808818E-04 -1.688854E-04 +1.808818E-04 -1.254249E-04 -1.906853E-04 -1.688854E-04 -1.906853E-04 +5.033344E-03 
 -2.797882E-05 +2.771856E-04 -1.548245E-04 +2.771856E-04 -1.588856E-04 -2.533924E-04 -1.548245E-04 -2.533924E-04 +5.029983E-03 
 +3.506857E-05 +2.058034E-04 -7.972958E-05 +2.058034E-04 -2.174038E-04 -1.926026E-04 -7.972958E-05 -1.926026E-04 +5.177429E-03 
 +4.422394E-05 +2.158262E-04 -1.027907E-04 +2.158262E-04 -1.387997E-04 -1.461508E-04 -1.027907E-04 -1.461508E-04 +5.167883E-03 
 +1.263481E-04 +2.339905E-04 -5.876120E-05 +2.339905E-04 -1.727065E-04 -7.861035E-05 -5.876120E-05 -7.861035E-05 +5.128167E-03 
 +2.328802E-04 +1.693508E-04 +3.001365E-05 +1.693508E-04 -2.758612E-04 +1.898552E-05 +3.001365E-05 +1.898552E-05 +5.088895E-03 
 +1.617837E-04 +2.249871E-05 +1.761174E-05 +2.249871E-05 -3.414636E-04 +6.296155E-05 +1.761174E-05 +6.296155E-05 +5.151291E-03 
 +2.094896E-04 +1.493381E-05 -1.789670E-05 +1.493381E-05 -3.182099E-04 -2.432651E-06 -1.789670E-05 -2.432651E-06 +5.218574E-03 
 +3.739983E-04 -8.103804E-05 -2.817055E-05 -8.103804E-05 -2.540180E-04 -3.381207E-05 -2.817055E-05 -3.381207E-05 +5.229393E-03 
 +2.424940E-04 -1.762578E-04 -1.104156E-04 -1.762578E-04 -2.732830E-04 +2.070535E-05 -1.104156E-04 +2.070535E-05 +5.215440E-03 
 +1.526759E-04 -2.013157E-04 -1.000261E-04 -2.013157E-04 -3.204401E-04 +5.622792E-05 -1.000261E-04 +5.622792E-05 +5.189158E-03 
 +1.692446E-05 +7.724539E-06 -5.488358E-05 +7.724539E-06 -3.649750E-04 +1.140554E-04 -5.488358E-05 +1.140554E-04 +5.157647E-03 
 -1.202898E-04 -4.658926E-05 -5.129116E-05 -4.658926E-05 -1.755673E-04 +1.265614E-04 -5.129116E-05 +1.265614E-04 +5.146698E-03 
 -4.484802E-04 -2.700223E-04 -1.768730E-05 -2.700223E-04 +4.747922E-05 +8.123091E-05 -1.768730E-05 +8.123091E-05 +5.197005E-03 
 -4.543412E-04 -2.388667E-04 +3.912535E-05 -2.388667E-04 +4.828910E-05 +8.548671E-05 +3.912535E-05 +8.548671E-05 +5.227253E-03 
 -4.667340E-04 -1.624155E-04 +8.789502E-05 -1.624155E-04 +8.379403E-05 +1.250246E-04 +8.789502E-05 +1.250246E-04 +5.219109E-03 
 -4.877546E-04 -1.750746E-04 +9.672907E-05 -1.750746E-04 +7.962045E-05 +1.731688E-04 +9.672907E-05 +1.731688E-04 +5.064920E-03 
 +1.223197E-04 +6.643193E-05 +2.250243E-04 +6.643193E-05 +2.688200E-05 +1.908584E-04 +2.250243E-04 +1.908584E-04 +4.817831E-03 
 +2.033002E-04 +6.571828E-06 +1.841799E-04 +6.571828E-06 -2.075421E-05 +7.153914E-05 +1.841799E-04 +7.153914E-05 +4.844899E-03 
 +1.610292E-05 +1.728206E-04 -1.092979E-04 +1.728206E-04 -1.210020E-05 -5.272308E-05 -1.092979E-04 -5.272308E-05 +5.060550E-03 
 +1.944548E-05 +1.483145E-04 -1.618054E-04 +1.483145E-04 -6.619770E-05 -1.027747E-04 -1.618054E-04 -1.027747E-04 +5.094479E-03 
 +4.273160E-06 +2.091332E-04 -1.699432E-04 +2.091332E-04 -1.496280E-04 -1.962047E-04 -1.699432E-04 -1.962047E-04 +5.059552E-03 
 +1.622471E-05 +2.904697E-04 -1.186704E-04 +2.904697E-04 -2.125648E-04 -2.394633E-04 -1.186704E-04 -2.394633E-04 +5.139096E-03 
 +1.662279E-04 +2.229557E-04 +3.353708E-06 +2.229557E-04 -2.771979E-04 -1.245047E-04 +3.353708E-06 -1.245047E-04 +5.206460E-03 
 +1.248254E-04 +1.588216E-04 -4.957638E-05 +1.588216E-04 -2.220768E-04 -1.488251E-04 -4.957638E-05 -1.488251E-04 +5.186981E-03 
 +1.703056E-04 +1.217229E-04 -2.792726E-05 +1.217229E-04 -2.265318E-04 -8.666818E-05 -2.792726E-05 -8.666818E-05 +5.182087E-03 
 +1.775090E-04 +1.141569E-04 -8.331635E-06 +1.141569E-04 -1.694857E-04 +9.387751E-06 -8.331635E-06 +9.387751E-06 +5.114956E-03 
 -1.073910E-04 -7.360411E-07 -1.785968E-05 -7.360411E-07 +1.256815E-05 +7.989061E-05 -1.785968E-05 +7.989061E-05 +5.131634E-03 
 -1.698795E-04 -4.015378E-05 +1.096227E-06 -4.015378E-05 +5.652631E-05 +5.775507E-05 +1.096227E-06 +5.775507E-05 +5.144580E-03 
 +1.849037E-04 -1.062666E-04 -7.666211E-06 -1.062666E-04 -1.213146E-04 -6.003084E-06 -7.666211E-06 -6.003084E-06 +5.123154E-03 
 +1.972189E-04 -1.065273E-04 -1.847593E-05 -1.065273E-04 -2.966793E-04 -1.016911E-05 -1.847593E-05 -1.016911E-05 +5.144993E-03 
 +1.431924E-04 -6.722025E-05 -3.467794E-05 -6.722025E-05 -3.724556E-04 +2.868719E-05 -3.467794E-05 +2.868719E-05 +5.150544E-03 
 +1.113235E-04 -1.403139E-05 -1.861211E-05 -1.403139E-05 -4.604310E-04 +5.816422E-05 -1.861211E-05 +5.816422E-05 +5.159701E-03 
 +7.851440E-05 -3.470454E-05 +1.493326E-05 -3.470454E-05 -3.999650E-04 +5.025770E-05 +1.493326E-05 +5.025770E-05 +5.172309E-03 
 -3.479008E-04 -2.670552E-04 +6.452934E-05 -2.670552E-04 -5.242832E-05 -1.117338E-05 +6.452934E-05 -1.117338E-05 +5.196714E-03 
 -4.394022E-04 -2.228585E-04 +6.305905E-05 -2.228585E-04 +6.532081E-05 -1.296418E-05 +6.305905E-05 -1.296418E-05 +5.218914E-03 
 -4.205246E-04 -1.065264E-04 +5.712563E-05 -1.065264E-04 -1.518282E-05 +7.043275E-05 +5.712563E-05 +7.043275E-05 +5.229878E-03 
 -2.162277E-04 -5.086419E-05 +1.030761E-04 -5.086419E-05 +8.444783E-05 +1.610495E-04 +1.030761E-04 +1.610495E-04 +5.104861E-03 
 +2.122427E-04 +1.153425E-04 +2.725130E-04 +1.153425E-04 +9.355572E-06 +2.168172E-04 +2.725130E-04 +2.168172E-04 +4.914136E-03 
 +7.152118E-05 +9.608554E-05 +1.976225E-04 +9.608554E-05 -8.696312E-07 +1.158834E-04 +1.976225E-04 +1.158834E-04 +4.901614E-03 
 -4.971635E-05 +1.724143E-04 -6.853429E-05 +1.724143E-04 +8.714461E-05 +7.542681E-06 -6.853429E-05 +7.542681E-06 +5.043979E-03 
 -5.368263E-05 +4.990571E-05 -1.660319E-04 +4.990571E-05 -1.035869E-05 -4.612794E-05 -1.660319E-04 -4.612794E-05 +5.136160E-03 
 -2.795670E-06 +1.135055E-04 -2.132352E-04 +1.135055E-04 -1.742894E-04 -1.270866E-04 -2.132352E-04 -1.270866E-04 +5.167940E-03 
 +1.696291E-04 +2.654070E-04 -5.523422E-05 +2.654070E-04 -3.019343E-04 -1.272522E-04 -5.523422E-05 -1.272522E-04 +5.227909E-03 
 +1.803014E-04 +2.377633E-04 -7.161330E-07 +2.377633E-04 -2.099015E-04 -1.177030E-04 -7.161330E-07 -1.177030E-04 +5.209480E-03 
 +1.758019E-04 +1.411836E-04 -1.648004E-05 +1.411836E-04 -2.279981E-04 -9.850085E-05 -1.648004E-05 -9.850085E-05 +5.188862E-03 
 +1.562918E-04 +7.241404E-05 -1.639020E-05 +7.241404E-05 -1.672349E-04 -2.345175E-05 -1.639020E-05 -2.345175E-05 +5.137093E-03 
 +8.126771E-05 +4.314183E-05 -5.572348E-06 +4.314183E-05 -7.695628E-05 -1.684569E-05 -5.572348E-06 -1.684569E-05 +5.074243E-03 
 -2.634474E-04 -1.316448E-05 +1.017241E-05 -1.316448E-05 +4.214529E-06 -2.946004E-05 +1.017241E-05 -2.946004E-05 +5.122653E-03 
 -2.103592E-04 +1.592837E-05 +1.923877E-05 +1.592837E-05 +2.823516E-06 -3.957083E-05 +1.923877E-05 -3.957083E-05 +5.139314E-03 
 +4.911591E-05 +4.596507E-05 +1.681705E-05 +4.596507E-05 -1.147093E-04 -7.532001E-05 +1.681705E-05 -7.532001E-05 +5.077136E-03 
 +8.599636E-05 -3.921756E-05 +6.074519E-05 -3.921756E-05 -2.610101E-04 -1.287696E-05 +6.074519E-05 -1.287696E-05 +5.084506E-03 
 +1.115056E-04 -1.207390E-05 +5.601379E-05 -1.207390E-05 -3.531913E-04 +3.839489E-05 +5.601379E-05 +3.839489E-05 +5.087308E-03 
 +6.191318E-05 +3.666098E-05 +4.017509E-05 +3.666098E-05 -3.855649E-04 -2.046583E-05 +4.017509E-05 -2.046583E-05 +5.068048E-03 
 +9.134249E-05 +1.240292E-04 +2.401226E-05 +1.240292E-04 -4.900839E-04 -3.178876E-05 +2.401226E-05 -3.178876E-05 +5.093995E-03 
 -3.997550E-05 +1.881949E-05 +1.509879E-05 +1.881949E-05 -3.742851E-04 -5.745346E-05 +1.509879E-05 -5.745346E-05 +5.140942E-03 
 -4.021778E-04 -1.891647E-04 +3.244006E-05 -1.891647E-04 -6.953510E-05 -6.181221E-05 +3.244006E-05 -6.181221E-05 +5.189292E-03 
 -3.253766E-04 -7.833198E-05 +8.859550E-06 -7.833198E-05 -1.133476E-04 +3.561294E-05 +8.859550E-06 +3.561294E-05 +5.180550E-03 
 +9.654988E-05 +2.626480E-05 +6.096835E-05 +2.626480E-05 -3.358525E-04 +1.310522E-04 +6.096835E-05 +1.310522E-04 +5.086319E-03 
 +1.629855E-04 +1.107463E-04 +2.089090E-04 +1.107463E-04 -2.319580E-04 +1.640042E-04 +2.089090E-04 +1.640042E-04 +5.007974E-03 
 +6.318847E-05 +2.882265E-04 +1.576083E-04 +2.882265E-04 +1.130794E-05 +9.899592E-05 +1.576083E-04 +9.899592E-05 +5.020746E-03 
 -8.470434E-05 +3.576429E-04 -7.427286E-06 +3.576429E-04 +1.441925E-04 +6.513972E-05 -7.427286E-06 +6.513972E-05 +5.075602E-03 
 -9.485999E-05 +2.512121E-04 -1.204890E-04 +2.512121E-04 +1.362883E-04 -2.616261E-05 -1.204890E-04 -2.616261E-05 +5.135402E-03 
 -4.735395E-05 +2.549633E-04 -1.547022E-04 +2.549633E-04 -4.472678E-05 -1.493716E-04 -1.547022E-04 -1.493716E-04 +5.201639E-03 
 +1.518957E-04 +3.555124E-04 -3.176196E-06 +3.555124E-04 -1.804431E-04 -1.356462E-04 -3.176196E-06 -1.356462E-04 +5.229096E-03 
 +2.013743E-04 +2.660437E-04 -1.259696E-07 +2.660437E-04 -1.499721E-04 -6.734584E-05 -1.259696E-07 -6.734584E-05 +5.237967E-03 
 +1.370420E-04 +1.978561E-04 +4.257118E-05 +1.978561E-04 -1.348892E-04 -6.663722E-05 +4.257118E-05 -6.663722E-05 +5.204845E-03 
 +8.050383E-05 +1.140882E-04 +4.040438E-05 +1.140882E-04 -8.522381E-05 -6.001273E-05 +4.040438E-05 -6.001273E-05 +5.124587E-03 
 +3.152872E-05 +1.383932E-04 +3.379942E-05 +1.383932E-04 -1.881631E-05 -9.556906E-05 +3.379942E-05 -9.556906E-05 +5.087210E-03 
 -2.939795E-04 +4.254497E-05 +1.199278E-05 +4.254497E-05 -1.139177E-04 -1.683312E-04 +1.199278E-05 -1.683312E-04 +5.078388E-03 
 -9.845528E-05 +1.761572E-05 -4.207997E-06 +1.761572E-05 -2.888373E-04 -2.183577E-04 -4.207997E-06 -2.183577E-04 +5.076504E-03 
 -8.118053E-05 +4.121375E-05 +5.031214E-05 +4.121375E-05 -2.370222E-04 -2.196036E-04 +5.031214E-05 -2.196036E-04 +5.076152E-03 
 -5.795770E-05 -2.641718E-05 +8.106962E-05 -2.641718E-05 -2.160720E-04 -1.049878E-04 +8.106962E-05 -1.049878E-04 +5.046672E-03 
 +6.531499E-05 +1.339057E-04 +4.641744E-05 +1.339057E-04 -2.211629E-04 -7.301533E-05 +4.641744E-05 -7.301533E-05 +4.956396E-03 
 +7.098405E-05 +1.866623E-04 +1.431206E-05 +1.866623E-04 -8.935932E-05 -1.749685E-04 +1.431206E-05 -1.749685E-04 +4.879992E-03 
 +1.042448E-04 +1.979948E-04 -3.253541E-05 +1.979948E-04 -9.439479E-07 -1.431208E-04 -3.253541E-05 -1.431208E-04 +4.868109E-03 
 +1.221896E-04 +1.680139E-04 -1.061819E-04 +1.680139E-04 -8.441601E-05 -1.185423E-04 -1.061819E-04 -1.185423E-04 +4.936097E-03 
 -2.466958E-04 +6.864234E-06 +2.192277E-05 +6.864234E-06 -1.488117E-04 -1.356222E-04 +2.192277E-05 -1.356222E-04 +5.102644E-03 
 -2.002953E-04 +5.460349E-06 +4.856346E-05 +5.460349E-06 -8.462294E-05 -9.055552E-05 +4.856346E-05 -9.055552E-05 +5.096954E-03 
 -1.759415E-06 +7.233749E-06 +4.739316E-05 +7.233749E-06 +4.648447E-05 -4.750322E-05 +4.739316E-05 -4.750322E-05 +4.982882E-03 
 +1.600712E-05 -1.773563E-05 +1.246615E-04 -1.773563E-05 +9.934596E-05 +3.156440E-05 +1.246615E-04 +3.156440E-05 +4.963049E-03 
 +1.600574E-04 -1.214750E-05 +1.471931E-04 -1.214750E-05 -2.273450E-05 +1.343280E-04 +1.471931E-04 +1.343280E-04 +4.999999E-03 
 -2.971377E-05 +2.121104E-04 +9.231149E-05 +2.121104E-04 +1.206833E-04 +2.211931E-04 +9.231149E-05 +2.211931E-04 +5.085661E-03 
 -4.404559E-05 -9.388408E-05 -3.320412E-06 -9.388408E-05 +2.829990E-04 +2.341738E-04 -3.320412E-06 +2.341738E-04 +5.104605E-03 
 -6.991761E-05 -8.015622E-05 -6.090248E-05 -8.015622E-05 +9.529843E-05 +9.165800E-05 -6.090248E-05 +9.165800E-05 +5.106900E-03 
 +1.347913E-04 +2.662346E-04 +1.698593E-05 +2.662346E-04 -6.661220E-05 -3.187905E-05 +1.698593E-05 -3.187905E-05 +5.174674E-03 
 +1.774737E-04 +3.339142E-04 +5.470391E-05 +3.339142E-04 -1.342900E-04 -2.538917E-05 +5.470391E-05 -2.538917E-05 +5.208437E-03 
 +1.628077E-04 +3.005578E-04 +1.212074E-04 +3.005578E-04 -2.752214E-05 +1.893559E-06 +1.212074E-04 +1.893559E-06 +5.134830E-03 
 +4.843166E-05 +2.351173E-04 +1.396336E-04 +2.351173E-04 -6.356792E-05 -5.675307E-05 +1.396336E-04 -5.675307E-05 +5.134860E-03 
 -1.157239E-04 +2.762548E-04 +1.754015E-04 +2.762548E-04 -6.954607E-05 -1.261280E-04 +1.754015E-04 -1.261280E-04 +5.153247E-03 
 -2.850002E-04 -3.150548E-06 +8.787416E-05 -3.150548E-06 +6.322701E-05 -1.764691E-04 +8.787416E-05 -1.764691E-04 +5.029491E-03 
 -1.774467E-04 -5.813640E-05 +5.266456E-05 -5.813640E-05 +3.301625E-05 -2.062159E-04 +5.266456E-05 -2.062159E-04 +5.022898E-03 
 -1.897671E-04 -4.498048E-05 +1.309994E-04 -4.498048E-05 -2.157903E-04 -1.993857E-04 +1.309994E-04 -1.993857E-04 +5.120742E-03 
 -5.726087E-05 -1.385344E-05 +8.563393E-05 -1.385344E-05 -1.723581E-04 -1.458837E-04 +8.563393E-05 -1.458837E-04 +5.041080E-03 
 +8.045322E-06 +1.182993E-04 -6.365947E-05 +1.182993E-04 +1.191180E-05 -1.208890E-04 -6.365947E-05 -1.208890E-04 +4.855875E-03 
 +6.730527E-05 +1.898368E-04 -4.951122E-05 +1.898368E-04 +8.485200E-06 -1.416128E-04 -4.951122E-05 -1.416128E-04 +4.777470E-03 
 +1.489124E-04 +1.712659E-04 -4.708194E-05 +1.712659E-04 +2.570021E-06 -1.103944E-04 -4.708194E-05 -1.103944E-04 +4.745203E-03 
 +2.373309E-04 +1.066146E-04 -8.909752E-05 +1.066146E-04 -1.441657E-05 -7.374863E-05 -8.909752E-05 -7.374863E-05 +4.790309E-03 
 -1.467069E-04 -7.139634E-05 +1.026739E-04 -7.139634E-05 +2.071125E-07 -8.710246E-05 +1.026739E-04 -8.710246E-05 +5.027119E-03 
 -2.071932E-04 -1.288812E-04 +9.412605E-05 -1.288812E-04 +1.194893E-04 -1.053112E-04 +9.412605E-05 -1.053112E-04 +5.057430E-03 
 -1.856018E-04 -1.065782E-04 +5.710771E-06 -1.065782E-04 +1.871360E-04 -9.123624E-05 +5.710771E-06 -9.123624E-05 +4.934789E-03 
 -5.594658E-05 -4.981868E-06 +3.549760E-05 -4.981868E-06 +1.825067E-04 -4.732645E-05 +3.549760E-05 -4.732645E-05 +4.902596E-03 
 +8.348877E-05 +4.019387E-05 +9.906100E-05 +4.019387E-05 +2.668635E-04 +4.508339E-05 +9.906100E-05 +4.508339E-05 +4.862722E-03 
 +5.585783E-05 +2.645189E-04 +9.376956E-05 +2.645189E-04 +2.171114E-04 +1.968637E-04 +9.376956E-05 +1.968637E-04 +4.932682E-03 
 +1.389066E-04 -3.670848E-05 +4.364216E-05 -3.670848E-05 +1.706610E-04 +2.577717E-04 +4.364216E-05 +2.577717E-04 +5.065516E-03 
 +1.145205E-04 +2.728956E-05 -2.465199E-05 +2.728956E-05 +2.262498E-04 +1.351272E-04 -2.465199E-05 +1.351272E-04 +5.110359E-03 
 +1.775996E-04 +2.755816E-04 +1.075906E-05 +2.755816E-04 -5.248323E-06 -5.593939E-06 +1.075906E-05 -5.593939E-06 +5.162340E-03 
 +2.425404E-04 +2.669785E-04 +1.478346E-04 +2.669785E-04 -8.811374E-05 -3.681549E-05 +1.478346E-04 -3.681549E-05 +5.052376E-03 
 +2.390730E-04 +3.809309E-04 +2.491142E-04 +3.809309E-04 -3.327760E-05 -6.536544E-05 +2.491142E-04 -6.536544E-05 +4.930923E-03 
 -1.758026E-04 +1.140611E-04 +2.282245E-04 +1.140611E-04 +2.728982E-04 -6.981875E-05 +2.282245E-04 -6.981875E-05 +5.012956E-03 
 -3.028648E-04 +2.980570E-05 +2.204435E-04 +2.980570E-05 +2.925043E-04 -5.709432E-05 +2.204435E-04 -5.709432E-05 +5.126586E-03 
 -2.555431E-04 -1.194056E-04 +1.576283E-04 -1.194056E-04 +1.237217E-04 -4.241174E-05 +1.576283E-04 -4.241174E-05 +5.107851E-03 
 -2.780907E-04 -2.056469E-04 +1.293397E-04 -2.056469E-04 +1.516656E-04 -3.845138E-05 +1.293397E-04 -3.845138E-05 +5.106436E-03 
 -3.248160E-04 -2.709894E-04 +1.414277E-04 -2.709894E-04 +1.388003E-04 -9.453927E-08 +1.414277E-04 -9.453927E-08 +5.119056E-03 
 -1.007027E-04 -9.216159E-05 +4.935055E-05 -9.216159E-05 +6.001854E-06 -3.702218E-05 +4.935055E-05 -3.702218E-05 +4.996601E-03 
 +2.918906E-05 +1.764927E-05 -1.254254E-04 +1.764927E-05 +4.571957E-05 -1.341416E-04 -1.254254E-04 -1.341416E-04 +4.830502E-03 
 +9.171137E-05 +8.171565E-05 -8.183048E-05 +8.171565E-05 +1.046319E-04 -1.212537E-04 -8.183048E-05 -1.212537E-04 +4.780067E-03 
 +1.887706E-04 +5.609568E-05 -6.579533E-05 +5.609568E-05 +3.084625E-05 -8.140933E-05 -6.579533E-05 -8.140933E-05 +4.758324E-03 
 +2.887493E-04 -3.317225E-05 -6.547215E-05 -3.317225E-05 +4.022180E-06 -9.612405E-06 -6.547215E-05 -9.612405E-06 +4.823236E-03 
 -1.716484E-04 -1.762537E-04 +1.073498E-04 -1.762537E-04 +6.967008E-05 +2.885774E-05 +1.073498E-04 +2.885774E-05 +5.025273E-03 
 -2.086432E-04 -1.872021E-04 +6.227509E-05 -1.872021E-04 +1.227106E-04 -3.891931E-05 +6.227509E-05 -3.891931E-05 +5.033183E-03 
 -1.598734E-04 -1.468671E-04 -7.709915E-06 -1.468671E-04 +1.744152E-04 -8.521668E-05 -7.709915E-06 -8.521668E-05 +4.938004E-03 
 -8.651683E-05 -1.036039E-04 -3.490563E-05 -1.036039E-04 +1.966166E-04 -6.784603E-05 -3.490563E-05 -6.784603E-05 +4.892037E-03 
 +2.782313E-05 +3.344612E-05 -1.119870E-05 +3.344612E-05 +3.018947E-04 +6.482523E-06 -1.119870E-05 +6.482523E-06 +4.801711E-03 
 +1.307894E-04 +7.136360E-05 -2.754914E-05 +7.136360E-05 +2.276558E-04 +8.117140E-05 -2.754914E-05 +8.117140E-05 +4.817465E-03 
 +3.232159E-04 -1.392214E-04 -2.563916E-05 -1.392214E-04 -5.487781E-05 +8.937964E-05 -2.563916E-05 +8.937964E-05 +5.026075E-03 
 +2.622297E-04 -1.590260E-04 +4.425243E-05 -1.590260E-04 -2.295377E-05 +5.526746E-05 +4.425243E-05 +5.526746E-05 +5.151577E-03 
 +2.404000E-04 -5.761914E-05 +6.259897E-05 -5.761914E-05 +5.249333E-05 +4.624586E-06 +6.259897E-05 +4.624586E-06 +5.147202E-03 
 +2.830412E-04 -1.064930E-04 +1.384790E-04 -1.064930E-04 +6.605097E-05 -1.003123E-04 +1.384790E-04 -1.003123E-04 +4.889016E-03 
 +2.815504E-04 +1.865743E-04 +2.744985E-04 +1.865743E-04 +1.723049E-04 -9.247580E-05 +2.744985E-04 -9.247580E-05 +4.798872E-03 
 -2.961953E-04 +1.911698E-05 +1.219800E-04 +1.911698E-05 +3.558346E-04 -3.458920E-05 +1.219800E-04 -3.458920E-05 +4.941936E-03 
 -3.142424E-04 -5.569475E-05 +1.067230E-04 -5.569475E-05 +2.967739E-04 +4.607392E-06 +1.067230E-04 +4.607392E-06 +5.027030E-03 
 -3.079302E-04 -1.646928E-04 +1.177426E-04 -1.646928E-04 +2.110835E-04 +4.706574E-05 +1.177426E-04 +4.706574E-05 +5.051954E-03 
 -3.427131E-04 -2.293029E-04 +1.422580E-04 -2.293029E-04 +1.683801E-04 +5.641695E-05 +1.422580E-04 +5.641695E-05 +5.062070E-03 
 -3.438885E-04 -2.358189E-04 +1.284487E-04 -2.358189E-04 +2.611533E-04 +4.931578E-05 +1.284487E-04 +4.931578E-05 +5.014050E-03 
 -2.767900E-04 -1.326492E-04 +3.286814E-05 -1.326492E-04 +2.709565E-04 -3.748916E-05 +3.286814E-05 -3.748916E-05 +4.916871E-03 
 +2.440556E-05 -1.243371E-06 -1.153248E-04 -1.243371E-06 +1.127111E-04 -1.334739E-04 -1.153248E-04 -1.334739E-04 +4.826188E-03 
 +1.171374E-04 -2.808964E-05 -6.102117E-05 -2.808964E-05 +8.882857E-05 -1.152481E-04 -6.102117E-05 -1.152481E-04 +4.802283E-03 
 +2.084374E-04 -9.544456E-05 -5.900133E-05 -9.544456E-05 +8.242887E-05 -5.600136E-05 -5.900133E-05 -5.600136E-05 +4.788013E-03 
 +2.197796E-04 -1.705101E-04 -5.307531E-05 -1.705101E-04 +3.449097E-05 +2.290702E-05 -5.307531E-05 +2.290702E-05 +4.864143E-03 
 -9.909997E-05 -2.803296E-04 +4.429521E-05 -2.803296E-04 +4.885909E-05 +4.764962E-05 +4.429521E-05 +4.764962E-05 +4.997757E-03 
 -1.390094E-04 -2.868901E-04 -2.589514E-05 -2.868901E-04 +7.631870E-05 -4.010085E-05 -2.589514E-05 -4.010085E-05 +4.988299E-03 
 -1.110163E-04 -2.104515E-04 -7.662645E-05 -2.104515E-04 +1.052449E-04 -7.371414E-05 -7.662645E-05 -7.371414E-05 +4.917345E-03 
 -1.119944E-04 -1.306495E-04 -7.297660E-05 -1.306495E-04 +2.077194E-04 -5.761451E-05 -7.297660E-05 -5.761451E-05 +4.888478E-03 
 +1.750823E-05 +3.042234E-05 -4.568937E-05 +3.042234E-05 +1.645153E-04 +8.520792E-06 -4.568937E-05 +8.520792E-06 +4.847204E-03 
 +2.696899E-04 -1.066184E-04 -1.147170E-04 -1.066184E-04 -3.619318E-05 +9.129067E-05 -1.147170E-04 +9.129067E-05 +4.856482E-03 
 +3.818448E-04 -1.500180E-04 -1.061870E-04 -1.500180E-04 -7.832248E-05 +1.035125E-04 -1.061870E-04 +1.035125E-04 +5.009138E-03 
 +2.708846E-04 -9.909661E-05 +1.935528E-05 -9.909661E-05 -3.536865E-05 +8.790950E-05 +1.935528E-05 +8.790950E-05 +5.072575E-03 
 +2.684267E-04 -1.368857E-04 +4.456846E-05 -1.368857E-04 +4.793895E-05 +1.962942E-06 +4.456846E-05 +1.962942E-06 +5.030369E-03 
 +1.812828E-04 -7.398304E-05 +9.237612E-05 -7.398304E-05 +7.915182E-05 -1.445878E-04 +9.237612E-05 -1.445878E-04 +4.773034E-03 
 +2.941765E-04 +2.633029E-04 +1.745272E-04 +2.633029E-04 +1.610350E-04 -7.332428E-05 +1.745272E-04 -7.332428E-05 +4.718235E-03 
 -5.254167E-05 +6.510342E-05 +2.769655E-05 +6.510342E-05 +2.588215E-04 -8.522272E-06 +2.769655E-05 -8.522272E-06 +4.906583E-03 
 -3.602678E-04 -1.519599E-04 +3.680046E-05 -1.519599E-04 +3.366569E-04 -2.409405E-06 +3.680046E-05 -2.409405E-06 +4.977941E-03 
 -3.676811E-04 -2.048298E-04 +9.129209E-05 -2.048298E-04 +2.960164E-04 -2.199608E-06 +9.129209E-05 -2.199608E-06 +4.954847E-03 
 -3.363338E-04 -2.457581E-04 +1.155527E-04 -2.457581E-04 +2.346435E-04 +5.304969E-05 +1.155527E-04 +5.304969E-05 +4.970909E-03 
 -2.875541E-04 -1.178463E-04 +9.082920E-05 -1.178463E-04 +2.104139E-04 +2.599027E-05 +9.082920E-05 +2.599027E-05 +4.976999E-03 
 -3.060308E-04 -8.486105E-05 +2.208202E-05 -8.486105E-05 +1.983295E-04 -7.131293E-05 +2.208202E-05 -7.131293E-05 +4.951822E-03 
 -8.979637E-05 +2.130601E-04 -6.498196E-05 +2.130601E-04 +1.747930E-04 -8.981954E-05 -6.498196E-05 -8.981954E-05 +4.878943E-03 
 -4.290233E-05 +1.210623E-04 -2.384448E-05 +1.210623E-04 +1.849355E-04 -8.360651E-05 -2.384448E-05 -8.360651E-05 +4.832940E-03 
 +1.822233E-04 -8.502371E-05 -7.535795E-05 -8.502371E-05 +1.460343E-04 -5.440210E-05 -7.535795E-05 -5.440210E-05 +4.837753E-03 
 +1.518705E-04 -1.642889E-04 -4.379072E-05 -1.642889E-04 +7.860545E-05 -4.506692E-05 -4.379072E-05 -4.506692E-05 +4.861748E-03 
 +5.923936E-05 -1.791435E-04 -3.142724E-06 -1.791435E-04 +2.857517E-05 -1.081746E-04 -3.142724E-06 -1.081746E-04 +4.897872E-03 
 -1.490597E-05 -1.780645E-04 -8.340241E-05 -1.780645E-04 +1.849690E-05 -1.882199E-04 -8.340241E-05 -1.882199E-04 +4.872187E-03 
 -2.999137E-05 -7.538024E-05 -1.101633E-04 -7.538024E-05 -7.134759E-05 -1.579073E-04 -1.101633E-04 -1.579073E-04 +4.838773E-03 
 +8.499519E-06 +1.064884E-04 -2.553051E-05 +1.064884E-04 -1.416431E-04 -4.087481E-05 -2.553051E-05 -4.087481E-05 +4.922423E-03 
 +6.572175E-05 +2.178423E-04 +8.152082E-06 +2.178423E-04 -1.605001E-04 +8.846705E-05 +8.152082E-06 +8.846705E-05 +4.942621E-03 
 +2.670786E-04 +1.378521E-04 -6.659074E-05 +1.378521E-04 -9.339808E-05 +1.625757E-04 -6.659074E-05 +1.625757E-04 +4.878115E-03 
 +3.436199E-04 -7.535862E-05 -1.144263E-04 -7.535862E-05 -5.483259E-05 +1.184012E-04 -1.144263E-04 +1.184012E-04 +4.912468E-03 
 +2.196339E-04 -3.793571E-05 -4.477494E-05 -3.793571E-05 +3.371678E-06 +1.269951E-05 -4.477494E-05 +1.269951E-05 +4.958507E-03 
 +1.146207E-04 -1.379645E-04 -2.349950E-05 -1.379645E-04 +4.721436E-05 -1.170210E-04 -2.349950E-05 -1.170210E-04 +4.925737E-03 
 +1.554081E-04 +2.128242E-04 +1.002331E-04 +2.128242E-04 +3.398829E-04 -6.469741E-05 +1.002331E-04 -6.469741E-05 +4.683645E-03 
 +1.812050E-04 +4.019111E-04 +1.224364E-04 +4.019111E-04 +3.203089E-04 +2.112269E-05 +1.224364E-04 +2.112269E-05 +4.633492E-03 
 +1.190459E-05 +2.121368E-04 +1.425210E-05 +2.121368E-04 +2.933829E-04 +4.443908E-05 +1.425210E-05 +4.443908E-05 +4.834002E-03 
 -4.383490E-04 -1.892564E-04 -1.891539E-05 -1.892564E-04 +3.671909E-04 -1.495127E-07 -1.891539E-05 -1.495127E-07 +4.968006E-03 
 -3.404034E-04 -2.402399E-04 +7.999470E-05 -2.402399E-04 +3.237476E-04 -2.220715E-05 +7.999470E-05 -2.220715E-05 +4.964501E-03 
 -2.960787E-04 -2.971473E-04 +5.149207E-05 -2.971473E-04 +2.341978E-04 +5.773399E-05 +5.149207E-05 +5.773399E-05 +4.972581E-03 
 -2.465919E-04 -1.134382E-04 +9.359928E-06 -1.134382E-04 +1.910437E-04 +6.204738E-05 +9.359928E-06 +6.204738E-05 +4.990323E-03 
 -2.244486E-04 -1.564877E-04 -2.353979E-05 -1.564877E-04 +1.804782E-04 -4.056601E-05 -2.353979E-05 -4.056601E-05 +4.972442E-03 
 -1.594855E-04 +1.751904E-04 -4.720989E-05 +1.751904E-04 +2.181307E-04 -7.248143E-05 -4.720989E-05 -7.248143E-05 +4.939253E-03 
 -1.804166E-04 +1.583394E-04 -4.016186E-05 +1.583394E-04 +2.523866E-04 -7.523286E-05 -4.016186E-05 -7.523286E-05 +4.907567E-03 
 +1.053403E-04 +1.930943E-05 -1.311774E-04 +1.930943E-05 +2.051236E-04 -6.997077E-05 -1.311774E-04 -6.997077E-05 +4.838766E-03 
 +1.634674E-04 -5.791577E-05 -9.135760E-05 -5.791577E-05 +1.079385E-04 -6.673147E-05 -9.135760E-05 -6.673147E-05 +4.812333E-03 
 +1.675100E-04 -7.144929E-05 -3.360396E-05 -7.144929E-05 +4.358530E-05 -8.151083E-05 -3.360396E-05 -8.151083E-05 +4.830867E-03 
 +1.217294E-04 -1.083933E-04 -4.395336E-05 -1.083933E-04 +2.621518E-05 -1.467532E-04 -4.395336E-05 -1.467532E-04 +4.801834E-03 
 +8.402484E-05 -9.181622E-05 -4.476684E-05 -9.181622E-05 -2.162786E-05 -1.839176E-04 -4.476684E-05 -1.839176E-04 +4.805646E-03 
 +9.047236E-05 +8.676922E-05 -3.988290E-07 +8.676922E-05 -1.444037E-04 -1.048458E-04 -3.988290E-07 -1.048458E-04 +4.905641E-03 
 +1.364802E-04 +1.492292E-04 -7.178679E-06 +1.492292E-04 -2.024915E-04 +5.859949E-05 -7.178679E-06 +5.859949E-05 +4.922389E-03 
 +1.559828E-04 +1.145343E-04 -4.616940E-05 +1.145343E-04 -1.653646E-04 +1.043288E-04 -4.616940E-05 +1.043288E-04 +4.864002E-03 
 +1.816147E-04 -1.169681E-04 -6.616044E-05 -1.169681E-04 -8.293474E-05 +2.664664E-05 -6.616044E-05 +2.664664E-05 +4.881002E-03 
 +1.795479E-04 -1.745380E-05 -4.892343E-05 -1.745380E-05 -5.884763E-05 -2.423256E-05 -4.892343E-05 -2.423256E-05 +4.920068E-03 
 +1.511303E-04 +9.856264E-06 -1.960266E-05 +9.856264E-06 +9.214991E-05 -8.373917E-05 -1.960266E-05 -8.373917E-05 +4.859640E-03 
 +1.049402E-04 -2.210325E-05 +6.387077E-05 -2.210325E-05 +6.001082E-05 -2.105562E-04 +6.387077E-05 -2.105562E-04 +4.706026E-03 
 +1.197073E-04 +1.670948E-04 +1.314053E-04 +1.670948E-04 +2.886867E-04 -5.283825E-05 +1.314053E-04 -5.283825E-05 +4.686978E-03 
 -9.088324E-05 +1.980053E-05 +5.019821E-06 +1.980053E-05 +4.104785E-04 -7.550778E-06 +5.019821E-06 -7.550778E-06 +4.886545E-03 
 -3.238451E-04 -2.916956E-04 -7.302442E-05 -2.916956E-04 +3.540113E-04 -4.095182E-05 -7.302442E-05 -4.095182E-05 +4.999591E-03 
 -2.852368E-04 -3.060997E-04 +2.505666E-05 -3.060997E-04 +2.927742E-04 -3.987538E-05 +2.505666E-05 -3.987538E-05 +4.978872E-03 
 -2.566020E-04 -3.228875E-04 -9.027871E-06 -3.228875E-04 +2.220736E-04 +5.995383E-05 -9.027871E-06 +5.995383E-05 +4.979933E-03 
 -2.035651E-04 -1.242367E-04 -2.977181E-05 -1.242367E-04 +1.826737E-04 +8.226446E-05 -2.977181E-05 +8.226446E-05 +4.982662E-03 
 -2.172239E-04 -1.357201E-04 -5.508041E-05 -1.357201E-04 +1.894779E-04 -9.260674E-06 -5.508041E-05 -9.260674E-06 +4.952260E-03 
 -1.572817E-04 +2.235628E-04 -4.310003E-05 +2.235628E-04 +2.197292E-04 -6.572872E-05 -4.310003E-05 -6.572872E-05 +4.957966E-03 
 -1.059786E-04 +2.118203E-04 -5.643521E-05 +2.118203E-04 +2.249801E-04 -1.031001E-04 -5.643521E-05 -1.031001E-04 +4.947153E-03 
 +6.987779E-05 +6.496299E-05 -1.618196E-04 +6.496299E-05 +1.842113E-04 -1.351893E-04 -1.618196E-04 -1.351893E-04 +4.826077E-03 
 +1.492073E-04 -8.051459E-06 -1.472504E-04 -8.051459E-06 +1.336598E-04 -1.078374E-04 -1.472504E-04 -1.078374E-04 +4.786643E-03 
 +1.800752E-04 -4.169333E-05 -9.179069E-05 -4.169333E-05 +8.092778E-05 -1.056257E-04 -9.179069E-05 -1.056257E-04 +4.766780E-03 
 +1.942925E-04 -7.573614E-05 -2.266605E-05 -7.573614E-05 +6.787828E-05 -1.612508E-04 -2.266605E-05 -1.612508E-04 +4.742283E-03 
 +1.311389E-04 -1.228098E-04 -2.995665E-05 -1.228098E-04 +1.164777E-04 -1.797969E-04 -2.995665E-05 -1.797969E-04 +4.789141E-03 
 +7.477120E-05 -4.106740E-05 -5.032554E-05 -4.106740E-05 +9.101970E-05 -1.561716E-04 -5.032554E-05 -1.561716E-04 +4.838171E-03 
 +9.757275E-05 +4.069240E-05 -9.475434E-05 +4.069240E-05 -2.749130E-06 -6.113353E-05 -9.475434E-05 -6.113353E-05 +4.816409E-03 
 +1.948455E-04 +5.444897E-05 -1.370135E-04 +5.444897E-05 -7.750326E-05 -1.550515E-05 -1.370135E-04 -1.550515E-05 +4.798313E-03 
 +1.186141E-04 -5.759476E-05 -9.936892E-05 -5.759476E-05 -1.137534E-04 -1.362538E-05 -9.936892E-05 -1.362538E-05 +4.863281E-03 
 +8.784058E-05 +9.596625E-09 -1.305550E-04 +9.596625E-09 -1.066076E-04 -3.926573E-05 -1.305550E-04 -3.926573E-05 +4.884013E-03 
 +1.176477E-04 -1.506605E-05 -1.030776E-04 -1.506605E-05 -5.457259E-05 -1.989272E-04 -1.030776E-04 -1.989272E-04 +4.830782E-03 
 -1.260002E-05 +1.309888E-04 -1.925779E-06 +1.309888E-04 +2.285823E-04 -2.520625E-04 -1.925779E-06 -2.520625E-04 +4.792836E-03 
 +3.697716E-05 +1.360013E-04 +6.128502E-05 +1.360013E-04 +3.066304E-04 -1.623600E-04 +6.128502E-05 -1.623600E-04 +4.807520E-03 
 +5.166434E-05 +2.460736E-05 +2.937553E-05 +2.460736E-05 +2.585013E-04 -1.004554E-04 +2.937553E-05 -1.004554E-04 +4.934115E-03 
 -1.328352E-04 -2.748494E-04 -1.179184E-04 -2.748494E-04 +2.809387E-04 -4.287766E-05 -1.179184E-04 -4.287766E-05 +5.015938E-03 
 -1.657921E-04 -2.971487E-04 -8.152684E-05 -2.971487E-04 +2.288672E-04 -4.968619E-05 -8.152684E-05 -4.968619E-05 +5.016143E-03 
 -2.184196E-04 -3.031249E-04 -9.037106E-05 -3.031249E-04 +1.973592E-04 +3.183172E-05 -9.037106E-05 +3.183172E-05 +5.008192E-03 
 -1.863276E-04 -9.905064E-05 -1.167439E-04 -9.905064E-05 +1.636816E-04 +6.815249E-05 -1.167439E-04 +6.815249E-05 +4.999999E-03 
 -2.265741E-04 -1.116751E-04 -9.874259E-05 -1.116751E-04 +1.761803E-04 -6.290829E-06 -9.874259E-05 -6.290829E-06 +4.994945E-03 
 -1.851776E-04 +2.200682E-04 -3.191821E-05 +2.200682E-04 +2.436662E-04 -9.143307E-05 -3.191821E-05 -9.143307E-05 +4.961023E-03 
 -1.279211E-05 +1.106745E-04 -8.340119E-05 +1.106745E-04 +2.376514E-04 -1.692260E-04 -8.340119E-05 -1.692260E-04 +4.885731E-03 
 +1.264435E-04 -1.475018E-05 -1.640904E-04 -1.475018E-05 +1.479724E-04 -1.616926E-04 -1.640904E-04 -1.616926E-04 +4.823729E-03 
 +1.657958E-04 +4.669087E-06 -1.630185E-04 +4.669087E-06 +1.146053E-04 -1.042516E-04 -1.630185E-04 -1.042516E-04 +4.806690E-03 
 +1.789135E-04 -1.140496E-05 -1.566144E-04 -1.140496E-05 +1.011100E-04 -8.220510E-05 -1.566144E-04 -8.220510E-05 +4.758767E-03 
 +1.980424E-04 -1.463185E-05 -6.548494E-05 -1.463185E-05 +8.910702E-05 -9.196674E-05 -6.548494E-05 -9.196674E-05 +4.762115E-03 
 +1.300387E-04 -5.191203E-05 -6.459019E-05 -5.191203E-05 +1.434631E-04 -1.084151E-04 -6.459019E-05 -1.084151E-04 +4.798668E-03 
 +4.310984E-05 -3.338540E-05 -8.486535E-05 -3.338540E-05 +1.740907E-04 -1.242624E-04 -8.486535E-05 -1.242624E-04 +4.824998E-03 
 +9.146764E-05 +3.184840E-05 -1.842083E-04 +3.184840E-05 +9.422637E-06 -9.785697E-05 -1.842083E-04 -9.785697E-05 +4.809797E-03 
 +1.302359E-04 +5.146574E-05 -1.764633E-04 +5.146574E-05 -1.205387E-04 -4.683895E-05 -1.764633E-04 -4.683895E-05 +4.814528E-03 
 +3.995442E-05 -1.645755E-04 -1.459323E-04 -1.645755E-04 -4.341963E-05 -1.166118E-05 -1.459323E-04 -1.166118E-05 +4.899479E-03 
 -1.528850E-05 -1.457995E-04 -1.963694E-04 -1.457995E-04 +2.098559E-05 -3.158571E-05 -1.963694E-04 -3.158571E-05 +4.932401E-03 
 -3.684374E-05 -3.741418E-05 -1.704013E-04 -3.741418E-05 +2.881366E-05 -1.996985E-04 -1.704013E-04 -1.996985E-04 +4.877343E-03 
 -6.235423E-05 +3.709376E-04 -2.181814E-05 +3.709376E-04 +2.990638E-05 -2.914755E-04 -2.181814E-05 -2.914755E-04 +4.931989E-03 
 -2.614509E-05 +2.781971E-04 -1.414272E-05 +2.781971E-04 +6.177973E-05 -2.244279E-04 -1.414272E-05 -2.244279E-04 +4.933331E-03 
 +1.342730E-04 +2.249433E-04 -2.033548E-05 +2.249433E-04 +2.977155E-05 -9.392757E-05 -2.033548E-05 -9.392757E-05 +4.963048E-03 
 -3.231907E-05 -2.785328E-04 -1.560398E-04 -2.785328E-04 +2.982034E-05 +3.102355E-05 -1.560398E-04 +3.102355E-05 +4.996548E-03 
 -2.323713E-05 -2.811804E-04 -1.782615E-04 -2.811804E-04 +4.119714E-05 +1.611886E-05 -1.782615E-04 +1.611886E-05 +5.033428E-03 
 -2.656615E-04 -3.184053E-04 -1.295261E-04 -3.184053E-04 +1.332451E-04 +1.980342E-05 -1.295261E-04 +1.980342E-05 +5.033295E-03 
 -2.400065E-04 -2.125884E-04 -1.541066E-04 -2.125884E-04 +1.903914E-04 +5.000173E-05 -1.541066E-04 +5.000173E-05 +5.009871E-03 
 -2.295575E-04 -2.003019E-04 -1.242806E-04 -2.003019E-04 +1.916685E-04 +5.469991E-06 -1.242806E-04 +5.469991E-06 +5.013625E-03 
 -1.603079E-04 +2.192659E-04 -7.608030E-05 +2.192659E-04 +2.330740E-04 -9.865209E-05 -7.608030E-05 -9.865209E-05 +4.987437E-03 
 +1.270592E-04 +1.043417E-04 -1.460470E-04 +1.043417E-04 +2.021188E-04 -2.013920E-04 -1.460470E-04 -2.013920E-04 +4.906766E-03 
 +2.172445E-04 +2.842493E-05 -1.755492E-04 +2.842493E-05 +1.396622E-04 -1.672826E-04 -1.755492E-04 -1.672826E-04 +4.825551E-03 
 +1.980422E-04 +2.167444E-05 -1.955588E-04 +2.167444E-05 +1.178427E-04 -9.500089E-05 -1.955588E-04 -9.500089E-05 +4.797516E-03 
 +1.879460E-04 -1.848249E-05 -1.755043E-04 -1.848249E-05 +1.022949E-04 -9.902177E-05 -1.755043E-04 -9.902177E-05 +4.805089E-03 
 +1.912896E-04 -1.744301E-05 -1.149673E-04 -1.744301E-05 +7.567185E-05 -1.035899E-04 -1.149673E-04 -1.035899E-04 +4.833027E-03 
 +1.815930E-04 +3.864493E-05 -1.245636E-04 +3.864493E-05 +8.938235E-05 -8.160716E-05 -1.245636E-04 -8.160716E-05 +4.837659E-03 
 +1.318113E-04 +4.692340E-05 -1.279362E-04 +4.692340E-05 +6.890278E-05 -8.626225E-05 -1.279362E-04 -8.626225E-05 +4.842525E-03 
 +8.717094E-05 +7.812333E-05 -1.548104E-04 +7.812333E-05 -3.595661E-05 -7.618759E-05 -1.548104E-04 -7.618759E-05 +4.892033E-03 
 -2.127962E-04 +1.700613E-04 -7.385381E-05 +1.700613E-04 -1.962784E-05 +6.256019E-05 -7.385381E-05 +6.256019E-05 +4.984526E-03 
 -7.557072E-05 -7.244867E-05 -1.279247E-04 -7.244867E-05 +3.143821E-05 +1.134953E-04 -1.279247E-04 +1.134953E-04 +5.034798E-03 
 -7.255070E-05 -4.370521E-05 -1.410442E-04 -4.370521E-05 +5.227387E-05 +2.336367E-05 -1.410442E-04 +2.336367E-05 +5.022668E-03 
 -5.592255E-05 +4.473432E-06 -9.265532E-05 +4.473432E-06 +1.976884E-05 -1.748387E-04 -9.265532E-05 -1.748387E-04 +4.982803E-03 
 -6.372421E-05 +3.458650E-04 +1.686937E-05 +3.458650E-04 +3.953137E-05 -3.179636E-04 +1.686937E-05 -3.179636E-04 +5.043527E-03 
 +3.207484E-05 +1.740453E-04 -1.862694E-05 +1.740453E-04 -1.292819E-05 -1.966005E-04 -1.862694E-05 -1.966005E-04 +5.028994E-03 
 +5.886866E-05 +2.050276E-04 -9.599316E-05 +2.050276E-04 -1.333720E-05 -1.216586E-05 -9.599316E-05 -1.216586E-05 +5.025967E-03 
 +2.461841E-05 -2.928938E-04 -1.765940E-04 -2.928938E-04 -2.217157E-05 +9.078796E-05 -1.765940E-04 +9.078796E-05 +5.007363E-03 
 +4.617013E-05 -2.868321E-04 -1.961594E-04 -2.868321E-04 -1.009603E-06 +3.047229E-05 -1.961594E-04 +3.047229E-05 +5.031085E-03 
 -3.415214E-04 -2.889552E-04 -9.486823E-05 -2.889552E-04 +1.211574E-04 -9.602796E-06 -9.486823E-05 -9.602796E-06 +5.047835E-03 
 -3.301612E-04 -2.336562E-04 -1.160607E-04 -2.336562E-04 +1.923775E-04 +1.414294E-05 -1.160607E-04 +1.414294E-05 +5.025882E-03 
 -2.412641E-04 -2.132819E-04 -1.305983E-04 -2.132819E-04 +2.079502E-04 -1.043087E-05 -1.305983E-04 -1.043087E-05 +5.004475E-03 
 +4.918857E-05 +2.011008E-04 -6.874784E-05 +2.011008E-04 +1.889558E-04 -1.084523E-04 -6.874784E-05 -1.084523E-04 +4.991226E-03 
 +2.821454E-04 +4.205125E-05 -1.298426E-04 +4.205125E-05 +7.850114E-05 -2.190943E-04 -1.298426E-04 -2.190943E-04 +4.964767E-03 
 +2.543874E-04 +1.441988E-05 -1.430976E-04 +1.441988E-05 +4.969023E-05 -2.254791E-04 -1.430976E-04 -2.254791E-04 +4.888563E-03 
 +2.220170E-04 +3.198623E-07 -2.197242E-04 +3.198623E-07 +1.121252E-04 -1.432672E-04 -2.197242E-04 -1.432672E-04 +4.841116E-03 
 +2.143135E-04 -3.506587E-05 -2.150146E-04 -3.506587E-05 +8.938613E-05 -1.158307E-04 -2.150146E-04 -1.158307E-04 +4.849971E-03 
 +1.940078E-04 -2.618600E-05 -2.010504E-04 -2.618600E-05 +3.700462E-05 -9.702421E-05 -2.010504E-04 -9.702421E-05 +4.868997E-03 
 +1.823956E-04 +2.415398E-06 -2.109628E-04 +2.415398E-06 +8.161674E-06 +1.457437E-05 -2.109628E-04 +1.457437E-05 +4.886210E-03 
 +1.375065E-04 -2.289634E-04 -1.931763E-04 -2.289634E-04 -1.215212E-04 +1.424727E-04 -1.931763E-04 +1.424727E-04 +4.932443E-03 
 +6.378710E-05 -1.761052E-04 -1.427053E-04 -1.761052E-04 -1.760279E-04 +1.168509E-04 -1.427053E-04 +1.168509E-04 +5.012416E-03 
 -4.164026E-04 +1.101677E-04 -2.120874E-05 +1.101677E-04 -1.733385E-05 +1.415328E-04 -2.120874E-05 +1.415328E-04 +5.073697E-03 
 -1.340077E-04 -1.140470E-04 -1.047231E-04 -1.140470E-04 +6.488469E-05 +1.299873E-04 -1.047231E-04 +1.299873E-04 +5.075629E-03 
 -1.146750E-04 -3.848939E-05 -9.171167E-05 -3.848939E-05 +4.879173E-05 +4.482393E-06 -9.171167E-05 +4.482393E-06 +5.062866E-03 
 -1.195180E-04 -3.222244E-05 -2.412126E-05 -3.222244E-05 +6.239913E-05 -2.103709E-04 -2.412126E-05 -2.103709E-04 +5.067727E-03 
 -5.256267E-05 +3.156309E-04 +4.655137E-05 +3.156309E-04 +3.057295E-05 -3.135726E-04 +4.655137E-05 -3.135726E-04 +5.066628E-03 
 +2.587045E-05 +1.754775E-04 -4.767093E-05 +1.754775E-04 -3.746282E-05 -1.427223E-04 -4.767093E-05 -1.427223E-04 +5.046308E-03 
 +8.258628E-05 +1.995109E-04 -1.230902E-04 +1.995109E-04 -6.873547E-05 +2.170114E-05 -1.230902E-04 +2.170114E-05 +5.055861E-03 
 +5.812793E-05 -3.028444E-04 -1.670144E-04 -3.028444E-04 -6.870585E-05 +8.722574E-05 -1.670144E-04 +8.722574E-05 +5.052043E-03 
 +4.347735E-05 -2.561341E-04 -1.743409E-04 -2.561341E-04 -1.936519E-05 +2.689163E-05 -1.743409E-04 +2.689163E-05 +5.044090E-03 
 -3.485577E-04 -2.293720E-04 -9.829167E-05 -2.293720E-04 +7.277477E-05 -3.283153E-05 -9.829167E-05 -3.283153E-05 +5.075240E-03 
 -3.867648E-04 -2.132127E-04 -1.205744E-04 -2.132127E-04 +1.513380E-04 -2.564427E-05 -1.205744E-04 -2.564427E-05 +5.067390E-03 
 -1.817402E-04 -1.170280E-04 -1.194355E-04 -1.170280E-04 +1.783186E-04 +7.537741E-06 -1.194355E-04 +7.537741E-06 +5.004471E-03 
 +1.923394E-04 +1.988628E-04 -7.098687E-05 +1.988628E-04 +8.498965E-05 -7.064596E-05 -7.098687E-05 -7.064596E-05 +4.981430E-03 
 +3.235759E-04 +1.710300E-05 -1.138088E-04 +1.710300E-05 +8.094420E-05 -2.016075E-04 -1.138088E-04 -2.016075E-04 +4.985489E-03 
 +2.983449E-04 -4.005733E-05 -8.364924E-05 -4.005733E-05 +1.357509E-04 -2.112220E-04 -8.364924E-05 -2.112220E-04 +4.970171E-03 
 +2.431617E-04 -8.098237E-05 -1.599753E-04 -8.098237E-05 +3.935959E-05 -1.248412E-04 -1.599753E-04 -1.248412E-04 +4.910540E-03 
 +2.396081E-04 -1.596686E-04 -2.340305E-04 -1.596686E-04 -3.851131E-05 -9.419091E-05 -2.340305E-04 -9.419091E-05 +4.879515E-03 
 +1.944224E-04 -1.475830E-04 -2.730202E-04 -1.475830E-04 -9.386591E-05 -1.059189E-04 -2.730202E-04 -1.059189E-04 +4.911026E-03 
 +1.649664E-04 -7.299338E-05 -3.015744E-04 -7.299338E-05 -1.536463E-04 +8.076560E-06 -3.015744E-04 +8.076560E-06 +4.942334E-03 
 +3.754519E-05 -2.449477E-04 -2.871729E-04 -2.449477E-04 -1.565208E-04 +1.269300E-04 -2.871729E-04 +1.269300E-04 +5.035738E-03 
 -3.175095E-05 -1.247086E-04 -2.130533E-04 -1.247086E-04 -1.060383E-04 +5.744661E-05 -2.130533E-04 +5.744661E-05 +5.111387E-03 
 -4.194675E-04 +1.498887E-04 -6.346332E-05 +1.498887E-04 -1.028964E-05 +7.320438E-05 -6.346332E-05 +7.320438E-05 +5.107092E-03 
 -1.573394E-04 -1.669058E-04 -5.421094E-05 -1.669058E-04 +5.620699E-05 +1.117856E-04 -5.421094E-05 +1.117856E-04 +5.090506E-03 
 -1.466732E-04 -5.988729E-05 +4.539312E-06 -5.988729E-05 +7.661883E-05 +1.691448E-06 +4.539312E-06 +1.691448E-06 +5.081790E-03 
 -1.789959E-04 -5.919492E-05 +5.487868E-05 -5.919492E-05 +9.302499E-05 -2.353915E-04 +5.487868E-05 -2.353915E-04 +5.085040E-03 
 -7.670312E-05 +2.140296E-04 +1.094971E-04 +2.140296E-04 +5.688329E-05 -3.068000E-04 +1.094971E-04 -3.068000E-04 +5.108538E-03 
 +5.180417E-05 +6.839298E-05 +2.136875E-05 +6.839298E-05 -6.135553E-05 -1.402123E-04 +2.136875E-05 -1.402123E-04 +5.088045E-03 
 +1.510489E-04 +1.769507E-04 -5.124448E-05 +1.769507E-04 -1.712264E-04 -1.008545E-05 -5.124448E-05 -1.008545E-05 +5.111038E-03 
 +1.103452E-04 -2.620729E-04 -9.439544E-05 -2.620729E-04 -2.026353E-04 +5.298651E-05 -9.439544E-05 +5.298651E-05 +5.108051E-03 
 +2.348304E-05 -1.474744E-04 -1.010014E-04 -1.474744E-04 -9.277999E-05 +1.806725E-05 -1.010014E-04 +1.806725E-05 +5.078673E-03 
 -4.088956E-04 -2.161940E-04 -4.602247E-05 -2.161940E-04 -1.637370E-05 -4.651077E-05 -4.602247E-05 -4.651077E-05 +5.127094E-03 
 -2.759951E-04 -1.382850E-04 -5.897486E-05 -1.382850E-04 +6.751003E-06 -4.742423E-05 -5.897486E-05 -4.742423E-05 +5.097277E-03 
 +7.894394E-05 +2.933373E-05 -7.655312E-05 +2.933373E-05 +4.563163E-05 +7.793672E-06 -7.655312E-05 +7.793672E-06 +4.987311E-03 
 +2.034411E-04 +3.386690E-04 -1.291773E-04 +3.386690E-04 +6.350150E-06 -4.429823E-05 -1.291773E-04 -4.429823E-05 +5.002746E-03 
 +2.294246E-04 +2.482108E-04 -1.072952E-04 +2.482108E-04 +5.423751E-06 -1.637214E-04 -1.072952E-04 -1.637214E-04 +5.023449E-03 
 +2.777715E-04 +7.103555E-05 -2.114731E-05 +7.103555E-05 +1.108633E-04 -1.943863E-04 -2.114731E-05 -1.943863E-04 +4.980828E-03 
 +2.410937E-04 -1.106013E-04 -5.571673E-05 -1.106013E-04 +8.111628E-05 -1.187989E-04 -5.571673E-05 -1.187989E-04 +4.908137E-03 
 +2.190318E-04 -1.393839E-04 -2.173185E-04 -1.393839E-04 -6.550922E-05 -8.217129E-05 -2.173185E-04 -8.217129E-05 +4.875651E-03 
 +1.830962E-04 -1.596613E-04 -2.688465E-04 -1.596613E-04 -1.460711E-04 -9.482910E-05 -2.688465E-04 -9.482910E-05 +4.917956E-03 
 +1.331062E-04 -1.371100E-04 -2.861963E-04 -1.371100E-04 -2.280658E-04 +4.974201E-06 -2.861963E-04 +4.974201E-06 +4.962891E-03 
 -8.666734E-05 -3.189121E-04 -2.980472E-04 -3.189121E-04 -1.710682E-04 +1.122580E-04 -2.980472E-04 +1.122580E-04 +5.023984E-03 
 -1.232584E-04 -2.204265E-04 -2.103353E-04 -2.204265E-04 -4.660080E-05 +2.492729E-05 -2.103353E-04 +2.492729E-05 +5.074425E-03 
 -4.385625E-04 +1.248374E-04 -4.581269E-05 +1.248374E-04 +1.564590E-05 +1.599184E-05 -4.581269E-05 +1.599184E-05 +5.127072E-03 
 -1.376121E-04 -2.303530E-04 +8.776625E-06 -2.303530E-04 +5.380990E-05 +7.719807E-05 +8.776625E-06 +7.719807E-05 +5.125060E-03 
 -1.749931E-04 -8.042062E-05 +1.119148E-04 -8.042062E-05 +9.550436E-05 -1.924617E-05 +1.119148E-04 -1.924617E-05 +5.101319E-03 
 -1.799412E-04 -9.587124E-05 +1.564074E-04 -9.587124E-05 +1.117311E-04 -2.575811E-04 +1.564074E-04 -2.575811E-04 +5.120916E-03 
 +5.404409E-05 +2.621258E-04 +1.500566E-04 +2.621258E-04 +3.366878E-05 -2.779497E-04 +1.500566E-04 -2.779497E-04 +5.142482E-03 
 +1.351883E-04 +2.205710E-04 +1.102160E-04 +2.205710E-04 -1.509945E-04 -1.522675E-04 +1.102160E-04 -1.522675E-04 +5.132367E-03 
 +1.657191E-04 +3.200586E-04 +6.158399E-05 +3.200586E-04 -2.569518E-04 -3.835467E-05 +6.158399E-05 -3.835467E-05 +5.165139E-03 
 -1.769545E-05 -2.265291E-04 +5.684030E-05 -2.265291E-04 -2.584691E-04 -6.353277E-06 +5.684030E-05 -6.353277E-06 +5.154432E-03 
 -1.373016E-05 -1.355335E-04 +7.790554E-05 -1.355335E-04 -1.604099E-04 +3.804006E-05 +7.790554E-05 +3.804006E-05 +5.139649E-03 
 -2.474671E-04 -1.739813E-04 +4.810522E-05 -1.739813E-04 -8.714896E-05 +1.048870E-05 +4.810522E-05 +1.048870E-05 +5.202525E-03 
 +2.464473E-05 +1.220575E-04 -3.955029E-06 +1.220575E-04 -8.064960E-05 -7.386527E-05 -3.955029E-06 -7.386527E-05 +5.150602E-03 
 +1.678853E-04 +1.643427E-04 -3.142658E-05 +1.643427E-04 -3.198858E-05 -2.769882E-05 -3.142658E-05 -2.769882E-05 +5.040915E-03 
 +2.108052E-04 +3.005397E-04 -6.611257E-05 +3.005397E-04 -1.649010E-05 +1.521619E-05 -6.611257E-05 +1.521619E-05 +5.026604E-03 
 +1.888788E-04 +2.896467E-04 -6.064570E-05 +2.896467E-04 -5.892146E-05 +3.485498E-05 -6.064570E-05 +3.485498E-05 +5.025799E-03 
 +1.655373E-04 +2.304212E-04 -4.092383E-05 +2.304212E-04 -4.690828E-05 +3.385338E-05 -4.092383E-05 +3.385338E-05 +4.986283E-03 
 +2.425805E-04 -3.381063E-05 -7.387990E-05 -3.381063E-05 +6.221189E-05 -1.106205E-05 -7.387990E-05 -1.106205E-05 +4.910463E-03 
 +2.297724E-04 -1.183201E-04 -1.877200E-04 -1.183201E-04 -1.834638E-05 -4.590141E-05 -1.877200E-04 -4.590141E-05 +4.920125E-03 
 +1.557204E-04 -3.864957E-05 -2.021932E-04 -3.864957E-05 -1.800668E-04 -1.084120E-05 -2.021932E-04 -1.084120E-05 +4.967881E-03 
 -3.676760E-05 -4.621353E-06 -1.489831E-04 -4.621353E-06 -1.416061E-04 -5.222526E-05 -1.489831E-04 -5.222526E-05 +4.961590E-03 
 -2.610950E-04 -9.136942E-05 -1.201052E-04 -9.136942E-05 -6.233395E-06 -1.999038E-04 -1.201052E-04 -1.999038E-04 +4.971636E-03 
 -3.157639E-04 -1.486719E-04 -4.736715E-05 -1.486719E-04 +9.582054E-05 -2.431895E-04 -4.736715E-05 -2.431895E-04 +5.014443E-03 
 -4.675224E-04 +5.139147E-05 +1.389931E-04 +5.139147E-05 +3.517997E-05 -6.228218E-05 +1.389931E-04 -6.228218E-05 +5.104081E-03 
 -1.514477E-04 -2.870182E-04 +1.485784E-04 -2.870182E-04 +1.391119E-05 +3.748030E-05 +1.485784E-04 +3.748030E-05 +5.118341E-03 
 -1.212732E-04 -1.556469E-04 +2.580909E-04 -1.556469E-04 +3.210699E-05 -4.308530E-05 +2.580909E-04 -4.308530E-05 +5.099589E-03 
 -1.080256E-04 -9.450336E-05 +2.208518E-04 -9.450336E-05 +7.139449E-05 -2.109931E-04 +2.208518E-04 -2.109931E-04 +5.140526E-03 
 -7.730000E-06 +8.767285E-05 +2.182723E-05 +8.767285E-05 +3.467250E-04 -1.249958E-04 +2.182723E-05 -1.249958E-04 +5.035122E-03 
 +6.813981E-05 -7.856113E-05 +3.325632E-06 -7.856113E-05 +5.853351E-05 -9.750393E-05 +3.325632E-06 -9.750393E-05 +5.078169E-03 
 +6.895847E-05 -1.377497E-04 -5.758202E-06 -1.377497E-04 -1.587073E-04 -1.599231E-04 -5.758202E-06 -1.599231E-04 +5.102360E-03 
 -3.243665E-05 -3.730671E-04 +8.380656E-05 -3.730671E-04 -2.197429E-04 -1.354146E-04 +8.380656E-05 -1.354146E-04 +5.104832E-03 
 +2.019760E-04 -3.353577E-06 +1.785263E-04 -3.353577E-06 -1.297176E-04 +2.755767E-05 +1.785263E-04 +2.755767E-05 +4.990506E-03 
 +1.675379E-04 +7.057766E-06 +9.082829E-05 +7.057766E-06 -1.041889E-04 +8.514595E-05 +9.082829E-05 +8.514595E-05 +4.995309E-03 
 +4.037753E-05 +2.567053E-04 -1.096961E-04 +2.567053E-04 -6.902107E-05 +3.367304E-05 -1.096961E-04 +3.367304E-05 +5.201184E-03 
 +2.617385E-06 +2.819165E-04 -1.217416E-04 +2.819165E-04 -5.942055E-05 -1.696660E-05 -1.217416E-04 -1.696660E-05 +5.228798E-03 
 +6.626803E-05 +3.023137E-04 -6.359451E-05 +3.023137E-04 +3.019581E-06 -1.657393E-05 -6.359451E-05 -1.657393E-05 +5.091881E-03 
 +1.459297E-04 +3.304488E-04 -4.615967E-05 +3.304488E-04 +3.880216E-05 +4.405828E-06 -4.615967E-05 +4.405828E-06 +4.984629E-03 
 +1.601477E-04 +4.251123E-04 -6.673603E-05 +4.251123E-04 +1.698281E-05 +8.995623E-05 -6.673603E-05 +8.995623E-05 +4.953102E-03 
 +2.332157E-04 +1.804087E-04 -8.480043E-05 +1.804087E-04 -4.850377E-05 +6.057642E-05 -8.480043E-05 +6.057642E-05 +4.934258E-03 
 +1.817858E-04 -6.329189E-05 -6.192098E-05 -6.329189E-05 -3.750466E-05 -1.293347E-05 -6.192098E-05 -1.293347E-05 +4.837392E-03 
 -1.293874E-05 -6.126219E-05 -4.736207E-05 -6.126219E-05 +7.387512E-06 +1.121127E-05 -4.736207E-05 +1.121127E-05 +4.844739E-03 
 -2.537817E-04 -2.646226E-04 -3.127386E-05 -2.646226E-04 +5.302133E-06 +5.941918E-05 -3.127386E-05 +5.941918E-05 +4.976924E-03 
 -3.836430E-04 -3.681588E-04 -2.463075E-05 -3.681588E-04 +2.433018E-05 +8.473323E-05 -2.463075E-05 +8.473323E-05 +5.056373E-03 
 -4.514166E-04 -4.019054E-04 +6.883911E-06 -4.019054E-04 -1.086213E-05 -1.672201E-05 +6.883911E-06 -1.672201E-05 +5.059552E-03 
 -5.211199E-05 +3.974594E-05 +2.174932E-04 +3.974594E-05 -9.130396E-05 -1.788521E-04 +2.174932E-04 -1.788521E-04 +5.023477E-03 
 +5.204280E-05 +2.205618E-05 +2.009952E-04 +2.205618E-05 +2.153947E-05 -2.257252E-04 +2.009952E-04 -2.257252E-04 +4.978463E-03 
 +3.949321E-05 +1.393782E-04 +2.706144E-04 +1.393782E-04 +2.425402E-04 -1.807221E-04 +2.706144E-04 -1.807221E-04 +4.928512E-03 
 -2.343556E-04 +1.145150E-04 +1.830859E-04 +1.145150E-04 +4.629017E-04 -1.525798E-04 +1.830859E-04 -1.525798E-04 +4.945813E-03 
 -1.430834E-04 -1.029715E-05 -4.974418E-05 -1.029715E-05 +2.536650E-04 -5.337657E-05 -4.974418E-05 -5.337657E-05 +5.005407E-03 
 +9.338367E-07 +6.777061E-05 -5.891686E-05 +6.777061E-05 +7.632301E-05 -6.375889E-05 -5.891686E-05 -6.375889E-05 +5.064622E-03 
 +9.378020E-05 -7.653970E-06 -9.707117E-05 -7.653970E-06 -7.188938E-05 -8.916258E-05 -9.707117E-05 -8.916258E-05 +5.026647E-03 
 +2.479106E-04 +1.798188E-05 +9.153678E-05 +1.798188E-05 -2.882051E-05 -5.070240E-05 +9.153678E-05 -5.070240E-05 +4.988538E-03 
 +3.841158E-04 +5.508244E-05 +8.595194E-05 +5.508244E-05 -1.025687E-05 +5.433578E-05 +8.595194E-05 +5.433578E-05 +4.840811E-03 
 +3.342222E-04 -9.053964E-06 -1.778030E-05 -9.053964E-06 -3.342657E-05 +3.886655E-05 -1.778030E-05 +3.886655E-05 +4.874733E-03 
 +1.778771E-05 +1.344565E-04 -2.035384E-04 +1.344565E-04 +2.298134E-05 -2.343174E-05 -2.035384E-04 -2.343174E-05 +5.195420E-03 
 +1.939688E-05 +1.846786E-04 -1.719984E-04 +1.846786E-04 -4.036090E-05 -4.841135E-05 -1.719984E-04 -4.841135E-05 +5.330007E-03 
 +7.085744E-05 +2.576793E-04 -8.923108E-05 +2.576793E-04 -4.803261E-05 -3.257995E-05 -8.923108E-05 -3.257995E-05 +5.178499E-03 
 +1.816218E-04 +2.715330E-04 -3.546355E-05 +2.715330E-04 -3.524018E-05 +7.257271E-06 -3.546355E-05 +7.257271E-06 +5.025056E-03 
 +2.141445E-04 +3.304492E-04 -8.220743E-05 +3.304492E-04 +2.918947E-05 +8.845438E-05 -8.220743E-05 +8.845438E-05 +5.003719E-03 
 +1.582532E-04 -1.979243E-04 -1.052617E-04 -1.979243E-04 -6.316336E-05 +6.898598E-05 -1.052617E-04 +6.898598E-05 +5.043263E-03 
 -3.570578E-05 -2.794465E-04 -5.815121E-05 -2.794465E-04 -1.590105E-04 +7.830682E-05 -5.815121E-05 +7.830682E-05 +5.020664E-03 
 -2.725122E-04 -2.555845E-04 +3.455642E-05 -2.555845E-04 -4.724278E-05 +1.593610E-04 +3.455642E-05 +1.593610E-04 +5.033554E-03 
 -4.205844E-04 -2.732782E-04 +4.587550E-05 -2.732782E-04 +1.428717E-05 +1.254668E-04 +4.587550E-05 +1.254668E-04 +5.113536E-03 
 -4.840851E-04 -2.565121E-04 +1.958673E-05 -2.565121E-04 +4.945331E-05 +6.980392E-05 +1.958673E-05 +6.980392E-05 +5.139303E-03 
 -4.638223E-04 -3.403254E-04 +1.622919E-05 -3.403254E-04 -1.102388E-05 -2.060153E-05 +1.622919E-05 -2.060153E-05 +5.049100E-03 
 +1.109450E-04 -4.739451E-06 +2.193481E-04 -4.739451E-06 -2.788466E-05 -1.577079E-04 +2.193481E-04 -1.577079E-04 +4.929717E-03 
 +6.755542E-05 -1.009913E-04 +1.880343E-04 -1.009913E-04 +5.938703E-05 -2.331617E-04 +1.880343E-04 -2.331617E-04 +4.864062E-03 
 +6.822872E-05 -5.351813E-05 +2.246963E-04 -5.351813E-05 +1.810399E-04 -1.969202E-04 +2.246963E-04 -1.969202E-04 +4.825719E-03 
 -1.500824E-04 +4.443220E-05 +2.106528E-04 +4.443220E-05 +2.997520E-04 -9.745476E-05 +2.106528E-04 -9.745476E-05 +4.855716E-03 
 -1.995338E-06 -3.529983E-05 -1.050932E-04 -3.529983E-05 +6.118536E-06 -8.056215E-05 -1.050932E-04 -8.056215E-05 +5.097061E-03 
 +5.674522E-06 +9.734933E-05 -6.603478E-05 +9.734933E-05 -3.807688E-05 -3.475574E-05 -6.603478E-05 -3.475574E-05 +5.141201E-03 
 +1.489885E-04 +4.702082E-05 -8.535650E-05 +4.702082E-05 -4.672869E-05 -7.863112E-06 -8.535650E-05 -7.863112E-06 +5.088996E-03 
 +3.333821E-04 +4.733683E-05 +1.283261E-04 +4.733683E-05 -4.287456E-05 -1.599160E-05 +1.283261E-04 -1.599160E-05 +5.002062E-03 
 +3.945699E-04 -1.719062E-05 +3.561286E-05 -1.719062E-05 -7.191380E-06 +3.233044E-05 +3.561286E-05 +3.233044E-05 +4.815025E-03 
 +3.665709E-04 +1.722113E-05 -4.209216E-05 +1.722113E-05 +2.857904E-05 +3.905902E-05 -4.209216E-05 +3.905902E-05 +4.850845E-03 
 +1.083484E-04 +1.397422E-04 -2.009963E-04 +1.397422E-04 +1.659287E-05 -3.539879E-05 -2.009963E-04 -3.539879E-05 +5.184416E-03 
 +1.434323E-05 +1.893745E-04 -2.132919E-04 +1.893745E-04 -5.764711E-06 -5.575143E-05 -2.132919E-04 -5.575143E-05 +5.337230E-03 
 +8.478735E-05 +2.961717E-04 -1.307075E-04 +2.961717E-04 -4.957652E-05 -1.725465E-05 -1.307075E-04 -1.725465E-05 +5.240251E-03 
 +1.220277E-04 +2.272063E-04 -3.642699E-05 +2.272063E-04 -3.063499E-05 +4.186132E-05 -3.642699E-05 +4.186132E-05 +5.118629E-03 
 +1.341328E-04 +2.867943E-04 -3.016187E-05 +2.867943E-04 -6.482170E-06 +8.177952E-05 -3.016187E-05 +8.177952E-05 +5.090870E-03 
 +7.694286E-06 -3.784582E-04 -4.831043E-05 -3.784582E-04 -9.747274E-05 +9.067385E-05 -4.831043E-05 +9.067385E-05 +5.138533E-03 
 -2.201375E-04 -2.492401E-04 -1.726009E-05 -2.492401E-04 -1.011109E-04 +1.349729E-04 -1.726009E-05 +1.349729E-04 +5.154929E-03 
 -3.391395E-04 -2.622993E-04 +2.475899E-05 -2.622993E-04 -2.161550E-05 +1.956606E-04 +2.475899E-05 +1.956606E-04 +5.171270E-03 
 -4.029122E-04 -2.508605E-04 +5.475901E-05 -2.508605E-04 +1.337717E-06 +1.750752E-04 +5.475901E-05 +1.750752E-04 +5.171818E-03 
 -4.577206E-04 -2.333571E-04 +3.504864E-05 -2.333571E-04 +3.888892E-05 +9.483166E-05 +3.504864E-05 +9.483166E-05 +5.164552E-03 
 -4.938749E-04 -3.071932E-04 +7.250997E-06 -3.071932E-04 +6.345434E-05 +1.803149E-05 +7.250997E-06 +1.803149E-05 +5.042440E-03 
 -6.542840E-06 +8.580051E-05 +1.232617E-04 +8.580051E-05 +5.770709E-05 -1.173223E-04 +1.232617E-04 -1.173223E-04 +4.892095E-03 
 +3.553542E-05 +4.292727E-06 +1.203661E-04 +4.292727E-06 +5.165235E-05 -2.081410E-04 +1.203661E-04 -2.081410E-04 +4.871098E-03 
 +8.258560E-05 +6.357840E-05 +1.172911E-04 +6.357840E-05 +1.495610E-05 -1.752624E-04 +1.172911E-04 -1.752624E-04 +4.839379E-03 
 +8.349746E-05 +1.433364E-04 +1.317757E-04 +1.433364E-04 +4.936090E-06 -1.219393E-04 +1.317757E-04 -1.219393E-04 +4.901849E-03 
 +4.617112E-05 -3.122018E-05 -1.303353E-04 -3.122018E-05 -1.086522E-04 -1.403892E-04 -1.303353E-04 -1.403892E-04 +5.141468E-03 
 +4.479177E-05 -2.673427E-06 -9.605073E-05 -2.673427E-06 -8.446977E-05 -5.598462E-05 -9.605073E-05 -5.598462E-05 +5.160221E-03 
 +1.699638E-04 -2.224010E-05 -1.039723E-04 -2.224010E-05 -8.936952E-05 -2.622086E-05 -1.039723E-04 -2.622086E-05 +5.120639E-03 
 +3.159378E-04 +5.088807E-06 +1.685247E-04 +5.088807E-06 -5.847647E-05 -1.668540E-05 +1.685247E-04 -1.668540E-05 +5.033424E-03 
 +4.462521E-04 -1.966169E-05 +5.284027E-05 -1.966169E-05 +1.160451E-05 +2.352330E-05 +5.284027E-05 +2.352330E-05 +4.835288E-03 
 +4.468504E-04 -3.536869E-05 -4.449809E-05 -3.536869E-05 +6.882925E-05 +2.448327E-05 -4.449809E-05 +2.448327E-05 +4.839884E-03 
 +1.900320E-04 +6.232550E-05 -2.222678E-04 +6.232550E-05 +1.901826E-05 -2.228248E-05 -2.222678E-04 -2.228248E-05 +5.181676E-03 
 +4.162491E-05 +1.360884E-04 -2.349850E-04 +1.360884E-04 +2.718649E-06 +1.413759E-07 -2.349850E-04 +1.413759E-07 +5.313718E-03 
 +7.849626E-05 +2.178997E-04 -1.319532E-04 +2.178997E-04 +2.760704E-06 +4.311184E-05 -1.319532E-04 +4.311184E-05 +5.235136E-03 
 +1.204401E-04 +3.483356E-04 -1.993266E-05 +3.483356E-04 +5.774158E-05 +7.324699E-05 -1.993266E-05 +7.324699E-05 +5.174949E-03 
 +4.360316E-05 +2.696599E-04 +2.500802E-05 +2.696599E-04 -7.663419E-05 +6.594685E-05 +2.500802E-05 +6.594685E-05 +5.161859E-03 
 -2.596531E-04 -3.152775E-04 -3.934001E-06 -3.152775E-04 -1.323263E-04 +7.971856E-05 -3.934001E-06 +7.971856E-05 +5.203589E-03 
 -3.608586E-04 -2.548939E-04 -6.349372E-06 -2.548939E-04 +1.184102E-05 +1.540513E-04 -6.349372E-06 +1.540513E-04 +5.205481E-03 
 -3.627875E-04 -2.624527E-04 +3.276535E-05 -2.624527E-04 -1.047767E-05 +1.949856E-04 +3.276535E-05 +1.949856E-04 +5.193236E-03 
 -4.093744E-04 -2.605603E-04 +6.505421E-05 -2.605603E-04 +1.283750E-06 +1.791241E-04 +6.505421E-05 +1.791241E-04 +5.194925E-03 
 -4.151926E-04 -2.530152E-04 +3.643655E-05 -2.530152E-04 +2.021215E-05 +5.375505E-05 +3.643655E-05 +5.375505E-05 +5.167676E-03 
 -3.537521E-04 -2.873712E-04 +4.793091E-05 -2.873712E-04 +6.286745E-05 -1.689247E-06 +4.793091E-05 -1.689247E-06 +5.029896E-03 
 +6.402485E-06 +1.645750E-04 -6.506423E-05 +1.645750E-04 -3.252646E-05 -7.638991E-05 -6.506423E-05 -7.638991E-05 +4.984484E-03 
 +6.373674E-05 +2.252318E-04 -5.850661E-05 +2.252318E-04 -1.762646E-04 -2.023945E-04 -5.850661E-05 -2.023945E-04 +5.052120E-03 
 +6.761778E-05 +2.673177E-04 -5.416711E-05 +2.673177E-04 -2.118761E-04 -2.258909E-04 -5.416711E-05 -2.258909E-04 +5.007421E-03 
 +7.941026E-05 +3.073977E-04 -2.643281E-05 +3.073977E-04 -1.885117E-04 -2.177922E-04 -2.643281E-05 -2.177922E-04 +5.030083E-03 
 -3.442285E-05 +3.053049E-05 -6.921474E-05 +3.053049E-05 -1.305960E-04 -1.805094E-04 -6.921474E-05 -1.805094E-04 +5.162733E-03 
 +4.109562E-05 -1.704619E-05 -5.953588E-05 -1.704619E-05 -9.459646E-05 -1.117085E-04 -5.953588E-05 -1.117085E-04 +5.150480E-03 
 +1.531853E-04 -3.131882E-05 -6.766242E-05 -3.131882E-05 -7.206502E-05 -3.719836E-05 -6.766242E-05 -3.719836E-05 +5.110277E-03 
 +2.838961E-04 -6.580271E-05 +1.846701E-04 -6.580271E-05 +1.870839E-06 -3.845483E-06 +1.846701E-04 -3.845483E-06 +5.053632E-03 
 +4.202777E-04 -1.389853E-04 +1.095555E-04 -1.389853E-04 +2.328948E-05 +1.247719E-05 +1.095555E-04 +1.247719E-05 +4.923412E-03 
 +5.361773E-04 -2.236596E-04 -1.512131E-05 -2.236596E-04 -2.426684E-05 +1.797278E-05 -1.512131E-05 +1.797278E-05 +4.941022E-03 
 +3.026750E-04 -1.120333E-04 -2.133946E-04 -1.120333E-04 -4.140752E-05 -2.091525E-05 -2.133946E-04 -2.091525E-05 +5.151442E-03 
 +1.516520E-04 +7.962963E-05 -2.560172E-04 +7.962963E-05 -6.741872E-06 -6.680903E-06 -2.560172E-04 -6.680903E-06 +5.177262E-03 
 +1.126406E-04 +1.761787E-04 -1.028157E-04 +1.761787E-04 +4.324511E-05 +5.286943E-05 -1.028157E-04 +5.286943E-05 +5.150547E-03 
 +9.421057E-05 +3.111490E-04 +1.039273E-05 +3.111490E-04 +1.690464E-04 +7.831106E-05 +1.039273E-05 +7.831106E-05 +5.166772E-03 
 -2.180066E-04 -2.224148E-04 +3.540968E-05 -2.224148E-04 +6.996958E-05 +2.489819E-05 +3.540968E-05 +2.489819E-05 +5.177613E-03 
 -3.560190E-04 -3.802515E-04 -1.689567E-05 -3.802515E-04 -4.689957E-05 +3.941596E-05 -1.689567E-05 +3.941596E-05 +5.224348E-03 
 -3.819896E-04 -2.769056E-04 -1.409178E-05 -2.769056E-04 +2.164398E-05 +1.031049E-04 -1.409178E-05 +1.031049E-04 +5.231959E-03 
 -4.024308E-04 -2.172171E-04 +6.190010E-05 -2.172171E-04 +3.956061E-05 +1.375494E-04 +6.190010E-05 +1.375494E-04 +5.197737E-03 
 -4.084523E-04 -2.286276E-04 +5.689539E-05 -2.286276E-04 +5.056064E-05 +1.529061E-04 +5.689539E-05 +1.529061E-04 +5.173180E-03 
 -2.780887E-04 -1.252983E-04 +4.298274E-05 -1.252983E-04 +6.524830E-05 +9.980736E-05 +4.298274E-05 +9.980736E-05 +5.071887E-03 
 +7.801847E-06 -6.843983E-05 +1.076769E-04 -6.843983E-05 +6.045015E-05 +3.005711E-05 +1.076769E-04 +3.005711E-05 +4.884469E-03 
 +6.363942E-05 +2.729690E-04 -7.161678E-05 +2.729690E-04 -6.124214E-05 -5.688643E-05 -7.161678E-05 -5.688643E-05 +4.935086E-03 
 -1.882335E-05 +3.035420E-04 -9.020844E-05 +3.035420E-04 -1.640998E-04 -1.794144E-04 -9.020844E-05 -1.794144E-04 +5.102628E-03 
 -2.099293E-05 +2.564674E-04 -1.018906E-04 +2.564674E-04 -1.902804E-04 -2.750905E-04 -1.018906E-04 -2.750905E-04 +5.108747E-03 
 -4.829343E-05 +3.341225E-04 -4.538208E-05 +3.341225E-04 -1.962462E-04 -2.743802E-04 -4.538208E-05 -2.743802E-04 +5.120450E-03 
 +1.247574E-05 +2.915465E-04 +2.807215E-05 +2.915465E-04 -2.449859E-04 -1.898867E-04 +2.807215E-05 -1.898867E-04 +5.225783E-03 
 +3.795237E-05 +2.750643E-04 +1.263216E-05 +2.750643E-04 -1.986905E-04 -1.347597E-04 +1.263216E-05 -1.347597E-04 +5.188792E-03 
 +1.048409E-04 +2.920633E-04 +1.522551E-05 +2.920633E-04 -2.103821E-04 -4.894017E-05 +1.522551E-05 -4.894017E-05 +5.155861E-03 
 +1.979111E-04 +2.498829E-04 +1.204215E-04 +2.498829E-04 -3.100957E-04 -1.058932E-05 +1.204215E-04 -1.058932E-05 +5.121238E-03 
 +2.686387E-04 +1.343457E-04 +1.141171E-04 +1.343457E-04 -3.995553E-04 +3.834915E-05 +1.141171E-04 +3.834915E-05 +5.104241E-03 
 +3.533854E-04 -1.130816E-04 +2.961422E-06 -1.130816E-04 -4.058304E-04 +6.353002E-05 +2.961422E-06 +6.353002E-05 +5.153746E-03 
 +2.636222E-04 -1.460630E-04 -7.562987E-05 -1.460630E-04 -2.691386E-04 +1.160081E-05 -7.562987E-05 +1.160081E-05 +5.146093E-03 
 +2.206645E-04 -2.038201E-04 -1.456556E-04 -2.038201E-04 -1.773780E-04 +3.151306E-05 -1.456556E-04 +3.151306E-05 +5.043081E-03 
 +1.426272E-04 -1.693869E-04 -4.052163E-05 -1.693869E-04 -2.524898E-04 +6.216364E-05 -4.052163E-05 +6.216364E-05 +5.086412E-03 
 +7.238912E-05 +9.734479E-05 +3.421828E-06 +9.734479E-05 -3.112774E-04 +8.236953E-05 +3.421828E-06 +8.236953E-05 +5.166282E-03 
 -2.207054E-04 -1.547213E-04 -1.694958E-05 -1.547213E-04 -6.850597E-05 +2.112929E-05 -1.694958E-05 +2.112929E-05 +5.192935E-03 
 -3.357102E-04 -2.902742E-04 -4.607246E-05 -2.902742E-04 +4.425119E-05 -2.717716E-05 -4.607246E-05 -2.717716E-05 +5.231758E-03 
 -3.499103E-04 -2.173258E-04 -9.684109E-06 -2.173258E-04 -3.540482E-05 +3.047005E-05 -9.684109E-06 +3.047005E-05 +5.230990E-03 
 -3.615863E-04 -1.329497E-04 +5.300148E-05 -1.329497E-04 +5.816206E-05 +6.782796E-05 +5.300148E-05 +6.782796E-05 +5.187697E-03 
 -3.807008E-04 -1.137725E-04 +4.430309E-06 -1.137725E-04 +1.089893E-04 +1.372962E-04 +4.430309E-06 +1.372962E-04 +5.105600E-03 
 +8.225400E-05 +4.650414E-05 +6.727456E-05 +4.650414E-05 +1.281310E-04 +1.811863E-04 +6.727456E-05 +1.811863E-04 +4.979513E-03 
 +1.372633E-04 -5.824469E-05 +1.116965E-04 -5.824469E-05 +8.599103E-05 +1.006930E-04 +1.116965E-04 +1.006930E-04 +4.826181E-03 
 -3.126292E-05 +1.196732E-04 +3.706210E-05 +1.196732E-04 +1.199442E-04 -4.918352E-06 +3.706210E-05 -4.918352E-06 +4.862205E-03 
 -7.331676E-05 +1.406206E-04 -8.725586E-05 +1.406206E-04 +4.548055E-05 -1.227683E-04 -8.725586E-05 -1.227683E-04 +5.037515E-03 
 -8.942185E-05 +2.363569E-04 -1.135734E-04 +2.363569E-04 -1.866930E-04 -2.602901E-04 -1.135734E-04 -2.602901E-04 +5.129396E-03 
 -5.155762E-05 +4.426933E-04 +1.581622E-05 +4.426933E-04 -2.714533E-04 -2.701810E-04 +1.581622E-05 -2.701810E-04 +5.201778E-03 
 +1.020277E-04 +2.482509E-04 +1.391338E-05 +2.482509E-04 -2.526138E-04 -1.609660E-04 +1.391338E-05 -1.609660E-04 +5.227118E-03 
 +7.606225E-05 +1.875938E-04 +4.921558E-07 +1.875938E-04 -2.166229E-04 -1.243749E-04 +4.921558E-07 -1.243749E-04 +5.212532E-03 
 +8.289863E-05 +1.726261E-04 +1.023775E-05 +1.726261E-04 -2.302306E-04 -7.858074E-05 +1.023775E-05 -7.858074E-05 +5.190364E-03 
 +1.467643E-04 +1.407091E-04 +2.258288E-05 +1.407091E-04 -2.442370E-04 -3.731896E-05 +2.258288E-05 -3.731896E-05 +5.159084E-03 
 +4.445879E-05 +9.317743E-05 +4.413360E-05 +9.317743E-05 -1.931750E-04 +5.046457E-05 +4.413360E-05 +5.046457E-05 +5.177101E-03 
 +3.922132E-05 -9.668857E-05 +1.761114E-05 -9.668857E-05 -1.567917E-04 +8.288127E-05 +1.761114E-05 +8.288127E-05 +5.209151E-03 
 +1.258842E-04 -1.415370E-05 +3.084900E-05 -1.415370E-05 -2.713900E-04 +2.709880E-05 +3.084900E-05 +2.709880E-05 +5.182671E-03 
 +1.532094E-04 -3.620899E-05 -8.117106E-06 -3.620899E-05 -3.682826E-04 +3.139587E-05 -8.117106E-06 +3.139587E-05 +5.129082E-03 
 +1.117801E-04 -3.848928E-05 +1.368450E-05 -3.848928E-05 -3.394809E-04 +4.148570E-05 +1.368450E-05 +4.148570E-05 +5.135255E-03 
 +1.496626E-04 +7.091346E-05 -6.971690E-06 +7.091346E-05 -5.090365E-04 +5.937579E-05 -6.971690E-06 +5.937579E-05 +5.184657E-03 
 +1.158193E-04 +9.127025E-05 -5.647134E-05 +9.127025E-05 -4.768785E-04 +2.369730E-05 -5.647134E-05 +2.369730E-05 +5.242811E-03 
 -4.274828E-04 -2.526720E-04 -2.345537E-05 -2.526720E-04 -9.679331E-05 -8.098747E-05 -2.345537E-05 -8.098747E-05 +5.276765E-03 
 -4.172648E-04 -1.881599E-04 -1.381150E-05 -1.881599E-04 +1.712511E-05 -4.006121E-05 -1.381150E-05 -4.006121E-05 +5.234965E-03 
 -3.083282E-04 -1.526020E-04 +1.335917E-05 -1.526020E-04 +7.877323E-06 +6.461771E-05 +1.335917E-05 +6.461771E-05 +5.161663E-03 
 -1.196529E-04 -9.439882E-05 -5.249632E-06 -9.439882E-05 +2.337818E-05 +1.384211E-04 -5.249632E-06 +1.384211E-04 +5.090559E-03 
 +3.323483E-04 +1.550711E-05 +8.574668E-05 +1.550711E-05 -1.176198E-04 +1.900668E-04 +8.574668E-05 +1.900668E-04 +5.040132E-03 
 -1.424073E-05 -1.603095E-05 +4.893074E-05 -1.603095E-05 -1.219609E-05 +1.289561E-04 +4.893074E-05 +1.289561E-04 +4.978849E-03 
 -1.458588E-04 +1.426391E-04 -1.265029E-06 +1.426391E-04 +2.072849E-04 +6.654052E-06 -1.265029E-06 +6.654052E-06 +4.977666E-03 
 -1.257410E-04 -3.980616E-05 -1.016707E-04 -3.980616E-05 +1.513317E-04 -2.557725E-05 -1.016707E-04 -2.557725E-05 +5.045855E-03 
 -4.331604E-05 -5.942055E-06 -1.484971E-04 -5.942055E-06 -2.896008E-05 -1.032661E-04 -1.484971E-04 -1.032661E-04 +5.113950E-03 
 +1.216847E-04 +3.473426E-04 -1.551809E-06 +3.473426E-04 -2.188376E-04 -1.901354E-04 -1.551809E-06 -1.901354E-04 +5.197275E-03 
 +1.096740E-04 +2.610444E-04 +4.800526E-07 +2.610444E-04 -1.967613E-04 -1.245473E-04 +4.800526E-07 -1.245473E-04 +5.210809E-03 
 +1.047809E-04 +1.847223E-04 +1.708688E-05 +1.847223E-04 -2.102166E-04 -1.077372E-04 +1.708688E-05 -1.077372E-04 +5.208428E-03 
 +7.131651E-05 +1.546614E-04 +1.588824E-05 +1.546614E-04 -1.899868E-04 -7.461199E-05 +1.588824E-05 -7.461199E-05 +5.182809E-03 
 +4.692313E-05 +9.032608E-05 -1.841375E-06 +9.032608E-05 -1.821012E-04 -5.133467E-05 -1.841375E-06 -5.133467E-05 +5.154757E-03 
 -6.928375E-05 +7.438462E-05 +3.540664E-05 +7.438462E-05 -1.831667E-04 -1.702896E-05 +3.540664E-05 -1.702896E-05 +5.155871E-03 
 -3.518506E-05 -4.766524E-05 +4.111536E-05 -4.766524E-05 -2.000749E-04 -1.486928E-05 +4.111536E-05 -1.486928E-05 +5.155468E-03 
 +6.354775E-05 +1.287133E-05 +5.368535E-05 +1.287133E-05 -2.856289E-04 +4.597733E-07 +5.368535E-05 +4.597733E-07 +5.163518E-03 
 +6.925941E-05 +5.745979E-05 +4.413741E-05 +5.745979E-05 -3.438689E-04 +3.462138E-05 +4.413741E-05 +3.462138E-05 +5.171768E-03 
 +5.648232E-05 +6.081928E-05 +2.652007E-05 +6.081928E-05 -3.619776E-04 +2.556108E-05 +2.652007E-05 +2.556108E-05 +5.153372E-03 
 +7.221594E-05 +2.165544E-05 -1.288765E-05 +2.165544E-05 -4.534357E-04 +4.816932E-07 -1.288765E-05 +4.816932E-07 +5.161332E-03 
 +1.218433E-04 +7.500243E-05 -6.902707E-05 +7.500243E-05 -5.864760E-04 -2.634474E-05 -6.902707E-05 -2.634474E-05 +5.198034E-03 
 -3.229117E-04 -2.002407E-04 -5.236887E-05 -2.002407E-04 -3.347066E-04 -7.714782E-05 -5.236887E-05 -7.714782E-05 +5.250868E-03 
 -3.734307E-04 -2.279997E-04 -2.002967E-05 -2.279997E-04 -1.241291E-05 -6.210828E-05 -2.002967E-05 -6.210828E-05 +5.247153E-03 
 -1.806116E-04 -8.934864E-05 +3.735048E-05 -8.934864E-05 -2.030033E-04 +6.147682E-05 +3.735048E-05 +6.147682E-05 +5.173396E-03 
 +2.363047E-04 +3.399017E-05 +9.062293E-05 +3.399017E-05 -4.384500E-04 +1.547509E-04 +9.062293E-05 +1.547509E-04 +5.076149E-03 
 +3.463984E-04 +1.455183E-04 +1.081234E-04 +1.455183E-04 -2.464575E-04 +1.603343E-04 +1.081234E-04 +1.603343E-04 +5.021092E-03 
 +2.590901E-05 +2.859813E-04 +9.002140E-06 +2.859813E-04 +9.238184E-05 +1.028244E-04 +9.002140E-06 +1.028244E-04 +5.047992E-03 
 -1.862866E-04 +3.865650E-04 -8.698846E-05 +3.865650E-04 +2.412475E-04 +8.728988E-06 -8.698846E-05 +8.728988E-06 +5.089899E-03 
 -1.612224E-04 +2.444406E-04 -1.334929E-04 +2.444406E-04 +2.116471E-04 -1.044211E-04 -1.334929E-04 -1.044211E-04 +5.123971E-03 
 -1.057952E-04 +2.206578E-04 -1.615968E-04 +2.206578E-04 +2.389623E-05 -1.837352E-04 -1.615968E-04 -1.837352E-04 +5.157877E-03 
 +1.100720E-04 +4.300365E-04 -1.370529E-05 +4.300365E-04 -1.400414E-04 -1.683608E-04 -1.370529E-05 -1.683608E-04 +5.188411E-03 
 +1.384569E-04 +2.930061E-04 -1.554331E-06 +2.930061E-04 -1.981126E-04 -7.248424E-05 -1.554331E-06 -7.248424E-05 +5.226792E-03 
 +9.145872E-05 +2.635691E-04 +4.268349E-05 +2.635691E-04 -1.945081E-04 -6.978393E-05 +4.268349E-05 -6.978393E-05 +5.210597E-03 
 +5.480939E-05 +2.052362E-04 +5.280895E-05 +2.052362E-04 -1.652227E-04 -4.475467E-05 +5.280895E-05 -4.475467E-05 +5.171766E-03 
 +2.214734E-05 +2.127839E-04 +1.753076E-05 +2.127839E-04 -1.418070E-04 -8.183922E-05 +1.753076E-05 -8.183922E-05 +5.169549E-03 
 -2.114611E-04 +1.230793E-04 +4.574111E-05 +1.230793E-04 -2.875917E-04 -1.580617E-04 +4.574111E-05 -1.580617E-04 +5.232376E-03 
 -5.244546E-05 -1.453170E-07 +5.979564E-05 -1.453170E-07 -4.134787E-04 -1.663243E-04 +5.979564E-05 -1.663243E-04 +5.234814E-03 
 -1.003088E-05 +9.391109E-06 +6.915311E-05 +9.391109E-06 -3.385647E-04 -9.382511E-05 +6.915311E-05 -9.382511E-05 +5.166305E-03 
 +3.549906E-06 +8.304799E-05 +2.656840E-05 +8.304799E-05 -3.433549E-04 -2.172626E-05 +2.656840E-05 -2.172626E-05 +5.147895E-03 
 -1.390803E-05 +8.313684E-05 -8.187040E-06 +8.313684E-05 -3.681296E-04 -7.919551E-06 -8.187040E-06 -7.919551E-06 +5.181166E-03 
 -8.599399E-06 +7.499350E-05 -3.675214E-05 +7.499350E-05 -2.629725E-04 -5.935699E-05 -3.675214E-05 -5.935699E-05 +5.150042E-03 
 -6.188573E-06 +1.563138E-04 -1.341828E-04 +1.563138E-04 -2.335409E-04 -1.357142E-04 -1.341828E-04 -1.357142E-04 +5.035517E-03 
 -3.971393E-05 +1.785318E-04 -1.264846E-04 +1.785318E-04 -3.746469E-04 -1.432218E-04 -1.264846E-04 -1.432218E-04 +5.100059E-03 
 -1.914240E-04 +2.588723E-06 +5.789524E-05 +2.588723E-06 -5.006017E-04 -8.722201E-05 +5.789524E-05 -8.722201E-05 +5.239652E-03 
 -7.552440E-05 -9.362590E-06 +8.341505E-05 -9.362590E-06 -4.858000E-04 +6.077083E-06 +8.341505E-05 +6.077083E-06 +5.201885E-03 
 +1.445267E-04 -1.892097E-05 +1.123106E-04 -1.892097E-05 -2.818902E-04 +1.059607E-04 +1.123106E-04 +1.059607E-04 +5.060082E-03 
 +2.693435E-04 -1.535313E-05 +1.173954E-04 -1.535313E-05 -1.154051E-04 +1.591871E-04 +1.173954E-04 +1.591871E-04 +4.956059E-03 
 +2.442408E-04 +4.039435E-05 +7.301471E-05 +4.039435E-05 -7.536355E-05 +1.961407E-04 +7.301471E-05 +1.961407E-04 +5.009435E-03 
 -7.569410E-05 +2.714895E-04 -5.801065E-05 +2.714895E-04 +1.337618E-04 +1.407689E-04 -5.801065E-05 +1.407689E-04 +5.112027E-03 
 -1.553095E-04 -6.099143E-05 -1.506365E-04 -6.099143E-05 +2.984156E-04 +7.028355E-05 -1.506365E-04 +7.028355E-05 +5.162586E-03 
 -1.913745E-04 -1.572980E-04 -1.484936E-04 -1.572980E-04 +1.325249E-04 +2.898725E-05 -1.484936E-04 +2.898725E-05 +5.190655E-03 
 +6.309649E-05 +3.018422E-04 -1.182648E-06 +3.018422E-04 -8.002089E-05 -4.557760E-05 -1.182648E-06 -4.557760E-05 +5.212300E-03 
 +1.117640E-04 +3.921312E-04 +1.884165E-05 +3.921312E-04 -2.373540E-04 +1.910914E-05 +1.884165E-05 +1.910914E-05 +5.208713E-03 
 +1.377125E-04 +3.433441E-04 +3.112330E-05 +3.433441E-04 -1.652484E-04 -2.508285E-07 +3.112330E-05 -2.508285E-07 +5.169430E-03 
 +1.404109E-04 +3.562603E-04 +2.616697E-05 +3.562603E-04 -2.029380E-04 +6.732003E-06 +2.616697E-05 +6.732003E-06 +5.143798E-03 
 -4.419321E-05 +3.865365E-04 +3.062499E-05 +3.865365E-04 -1.635362E-04 -4.420440E-05 +3.062499E-05 -4.420440E-05 +5.198036E-03 
 -4.063187E-04 +9.173333E-05 +5.992352E-05 +9.173333E-05 -1.113719E-04 -1.329027E-04 +5.992352E-05 -1.329027E-04 +5.290142E-03 
 -1.457971E-04 +6.279353E-05 +1.181701E-04 +6.279353E-05 -2.316335E-04 -1.126482E-04 +1.181701E-04 -1.126482E-04 +5.265154E-03 
 -1.678633E-04 +4.286040E-05 +1.176118E-04 +4.286040E-05 -3.705184E-04 -5.700700E-05 +1.176118E-04 -5.700700E-05 +5.171174E-03 
 -1.203411E-04 +1.209955E-05 +2.304969E-05 +1.209955E-05 -3.860065E-04 -8.003418E-06 +2.304969E-05 -8.003418E-06 +5.132483E-03 
 -2.240424E-05 +4.774928E-05 -4.604502E-05 +4.774928E-05 -3.489260E-04 +5.621421E-06 -4.604502E-05 +5.621421E-06 +5.133912E-03 
 -9.649810E-07 +1.581110E-04 -4.339775E-06 +1.581110E-04 -2.886095E-04 -3.143669E-05 -4.339775E-06 -3.143669E-05 +5.095478E-03 
 +8.244727E-05 +1.850185E-04 -1.126842E-04 +1.850185E-04 -2.444359E-04 -9.642977E-05 -1.126842E-04 -9.642977E-05 +4.935459E-03 
 +1.434539E-04 +1.413866E-04 -1.117096E-04 +1.413866E-04 -2.555915E-04 -1.437012E-04 -1.117096E-04 -1.437012E-04 +4.963840E-03 
 -1.792866E-04 -9.416085E-05 +1.096795E-04 -9.416085E-05 -1.668762E-04 -1.285671E-04 +1.096795E-04 -1.285671E-04 +5.129397E-03 
 -1.274492E-04 -1.107441E-04 +8.657661E-05 -1.107441E-04 +2.396870E-05 -8.044885E-05 +8.657661E-05 -8.044885E-05 +5.105929E-03 
 -1.224278E-04 -8.144088E-05 +7.472648E-05 -8.144088E-05 +4.173549E-05 +6.011142E-06 +7.472648E-05 +6.011142E-06 +5.016722E-03 
 +1.763415E-04 -1.584059E-05 +6.359938E-05 -1.584059E-05 -4.972766E-05 +1.020137E-04 +6.359938E-05 +1.020137E-04 +4.936705E-03 
 +2.842219E-04 +7.795899E-07 +6.680501E-05 +7.795899E-07 +1.067585E-05 +1.898003E-04 +6.680501E-05 +1.898003E-04 +4.915129E-03 
 +1.814964E-04 +1.721265E-04 +3.042359E-05 +1.721265E-04 +4.280870E-05 +1.510570E-04 +3.042359E-05 +1.510570E-04 +5.012478E-03 
 +4.453427E-06 -1.747394E-05 -5.083152E-05 -1.747394E-05 +1.202631E-04 +9.580555E-05 -5.083152E-05 +9.580555E-05 +5.122457E-03 
 -9.958560E-06 -1.804732E-05 -1.170252E-04 -1.804732E-05 +2.470570E-04 +1.166101E-04 -1.170252E-04 +1.166101E-04 +5.170906E-03 
 +8.463295E-05 +3.033512E-04 -1.523028E-05 +3.033512E-04 -4.264697E-05 +6.443988E-05 -1.523028E-05 +6.443988E-05 +5.203096E-03 
 +2.374067E-04 +3.094848E-04 +1.463753E-05 +3.094848E-04 -2.042986E-04 +5.929989E-05 +1.463753E-05 +5.929989E-05 +5.097448E-03 
 +2.726822E-04 +4.664799E-04 +6.457204E-05 +4.664799E-04 -2.049478E-04 +2.753536E-05 +6.457204E-05 +2.753536E-05 +5.021594E-03 
 -1.620547E-05 +2.791115E-04 +6.474665E-05 +2.791115E-04 +1.557145E-05 +9.431831E-06 +6.474665E-05 +9.431831E-06 +5.067731E-03 
 -3.406646E-04 +1.039284E-04 +1.226474E-04 +1.039284E-04 +8.991881E-05 -1.003857E-05 +1.226474E-04 -1.003857E-05 +5.173666E-03 
 -4.149847E-04 -1.465607E-04 +1.527884E-04 -1.465607E-04 +1.371808E-04 -6.547670E-06 +1.527884E-04 -6.547670E-06 +5.177408E-03 
 -2.986385E-04 -1.985874E-04 +1.533748E-04 -1.985874E-04 +2.472890E-04 +3.435828E-05 +1.533748E-04 +3.435828E-05 +5.118515E-03 
 -3.328072E-04 -2.170872E-04 +1.327553E-04 -2.170872E-04 +2.199328E-04 +7.823890E-05 +1.327553E-04 +7.823890E-05 +5.087783E-03 
 -1.910949E-04 -1.215436E-04 +6.557580E-05 -1.215436E-04 +3.374045E-05 +5.963186E-05 +6.557580E-05 +5.963186E-05 +5.049894E-03 
 -1.799619E-05 -2.473964E-06 -2.031048E-05 -2.473964E-06 -6.807239E-05 -2.766553E-05 -2.031048E-05 -2.766553E-05 +4.970661E-03 
 +5.344087E-05 +7.808516E-05 +3.279623E-05 +7.808516E-05 -5.662456E-05 -1.311232E-04 +3.279623E-05 -1.311232E-04 +4.918504E-03 
 +1.033319E-04 +2.767550E-05 -4.842741E-05 +2.767550E-05 -6.175549E-05 -1.522416E-04 -4.842741E-05 -1.522416E-04 +4.870214E-03 
 +7.925927E-05 -1.316136E-04 -1.009718E-04 -1.316136E-04 -7.607780E-05 -1.036497E-04 -1.009718E-04 -1.036497E-04 +4.933398E-03 
 -1.325243E-04 -2.631152E-04 +9.514903E-06 -2.631152E-04 -5.162221E-05 -9.164843E-05 +9.514903E-06 -9.164843E-05 +5.039542E-03 
 -1.164730E-04 -1.882447E-04 +1.985622E-05 -1.882447E-04 +5.757973E-06 -9.392266E-05 +1.985622E-05 -9.392266E-05 +5.014927E-03 
 -9.327384E-05 -1.121190E-04 +3.983491E-05 -1.121190E-04 +1.086059E-04 -7.154457E-05 +3.983491E-05 -7.154457E-05 +4.950837E-03 
 -2.195491E-05 -7.262540E-05 +3.146113E-05 -7.262540E-05 +1.609037E-04 -4.695543E-06 +3.146113E-05 -4.695543E-06 +4.880698E-03 
 +2.588396E-04 +4.078367E-05 +3.405820E-05 +4.078367E-05 +2.029407E-04 +8.002815E-05 +3.405820E-05 +8.002815E-05 +4.810102E-03 
 +3.417406E-04 +1.718304E-05 +1.005808E-05 +1.718304E-05 +7.141444E-05 +4.758019E-05 +1.005808E-05 +4.758019E-05 +4.890831E-03 
 +2.555247E-04 -1.908482E-04 -4.082889E-05 -1.908482E-04 -1.987574E-04 +4.829229E-06 -4.082889E-05 +4.829229E-06 +5.087348E-03 
 +1.973455E-04 -2.979733E-04 -7.079176E-05 -2.979733E-04 -1.213326E-04 +5.253820E-05 -7.079176E-05 +5.253820E-05 +5.172681E-03 
 +1.769881E-04 -1.478337E-04 -3.877402E-06 -1.478337E-04 -1.784041E-05 +8.466783E-05 -3.877402E-06 +8.466783E-05 +5.157219E-03 
 +3.560077E-04 -1.932742E-04 -3.088268E-06 -1.932742E-04 -3.713395E-05 +7.162749E-05 -3.088268E-06 +7.162749E-05 +4.942602E-03 
 +3.676143E-04 +1.720999E-04 +1.843599E-04 +1.720999E-04 +1.125732E-04 +3.962381E-05 +1.843599E-04 +3.962381E-05 +4.794882E-03 
 -2.872056E-04 -8.659341E-05 +1.542551E-04 -8.659341E-05 +4.163141E-04 +1.371659E-06 +1.542551E-04 +1.371659E-06 +4.856980E-03 
 -4.208093E-04 -1.136469E-04 +1.533345E-04 -1.136469E-04 +3.298727E-04 +4.085584E-07 +1.533345E-04 +4.085584E-07 +5.029183E-03 
 -3.548985E-04 -1.711902E-04 +1.685558E-04 -1.711902E-04 +2.576212E-04 +4.662581E-05 +1.685558E-04 +4.662581E-05 +5.036826E-03 
 -3.675565E-04 -1.950818E-04 +1.376946E-04 -1.950818E-04 +2.789359E-04 +5.282661E-05 +1.376946E-04 +5.282661E-05 +5.005225E-03 
 -3.372195E-04 -1.808911E-04 +1.153489E-04 -1.808911E-04 +2.751103E-04 +5.575732E-05 +1.153489E-04 +5.575732E-05 +5.015634E-03 
 -2.596298E-04 -1.525916E-04 +9.993455E-05 -1.525916E-04 +2.447549E-04 +7.368067E-05 +9.993455E-05 +7.368067E-05 +5.014937E-03 
 -1.521311E-04 -8.114365E-05 +3.489436E-05 -8.114365E-05 +1.563084E-04 +1.610603E-05 +3.489436E-05 +1.610603E-05 +4.974123E-03 
 +2.728771E-05 -6.670373E-05 -6.671429E-06 -6.670373E-05 +5.319461E-05 -7.618983E-05 -6.671429E-06 -7.618983E-05 +4.872406E-03 
 +7.793466E-05 -9.754289E-05 -7.456853E-05 -9.754289E-05 +3.794096E-05 -5.638077E-05 -7.456853E-05 -5.638077E-05 +4.836128E-03 
 +7.315602E-05 -1.578223E-04 -7.723855E-05 -1.578223E-04 +6.248365E-05 -6.774095E-05 -7.723855E-05 -6.774095E-05 +4.897914E-03 
 +3.894515E-06 -2.056779E-04 -2.048988E-05 -2.056779E-04 +9.204084E-05 -1.549187E-04 -2.048988E-05 -1.549187E-04 +4.925601E-03 
 -1.155087E-04 -2.213241E-04 -1.956356E-05 -2.213241E-04 +1.035117E-04 -1.444381E-04 -1.956356E-05 -1.444381E-04 +4.959152E-03 
 -5.960226E-05 -1.975904E-04 -1.163243E-05 -1.975904E-04 +1.135372E-04 -1.130560E-04 -1.163243E-05 -1.130560E-04 +4.972413E-03 
 -4.568631E-05 -1.281176E-04 +2.453531E-05 -1.281176E-04 +1.568365E-04 -9.064290E-05 +2.453531E-05 -9.064290E-05 +4.893934E-03 
 +2.679138E-04 +1.446729E-04 +6.067060E-05 +1.446729E-04 +2.006654E-04 -1.428834E-05 +6.067060E-05 -1.428834E-05 +4.794430E-03 
 +3.780179E-04 -1.691168E-04 -1.511828E-05 -1.691168E-04 +4.254629E-05 +6.807260E-06 -1.511828E-05 +6.807260E-06 +4.844801E-03 
 +3.047809E-04 -2.109053E-04 -6.192374E-05 -2.109053E-04 -1.430050E-04 +4.258236E-05 -6.192374E-05 +4.258236E-05 +5.021837E-03 
 +2.638079E-04 -2.246045E-04 -2.979689E-05 -2.246045E-04 -1.352210E-04 +1.022140E-04 -2.979689E-05 +1.022140E-04 +5.097138E-03 
 +2.796561E-04 -2.518370E-04 +3.058117E-05 -2.518370E-04 -1.341549E-05 +1.087201E-04 +3.058117E-05 +1.087201E-04 +5.056447E-03 
 +2.338975E-04 -1.736833E-04 +4.691029E-05 -1.736833E-04 +1.001806E-04 +1.817707E-05 +4.691029E-05 +1.817707E-05 +4.803232E-03 
 +3.370602E-04 +2.673902E-04 +2.118171E-04 +2.673902E-04 +2.259917E-04 -1.175634E-06 +2.118171E-04 -1.175634E-06 +4.647779E-03 
 -5.753257E-05 +5.689704E-05 +1.368515E-04 +5.689704E-05 +3.353098E-04 +1.976486E-05 +1.368515E-04 +1.976486E-05 +4.677947E-03 
 -3.991842E-04 -8.429545E-05 +7.405640E-05 -8.429545E-05 +4.154294E-04 +2.769339E-05 +7.405640E-05 +2.769339E-05 +4.882230E-03 
 -3.894438E-04 -1.500479E-04 +1.052179E-04 -1.500479E-04 +3.222433E-04 +2.872427E-05 +1.052179E-04 +2.872427E-05 +4.983942E-03 
 -3.291475E-04 -2.206763E-04 +9.729093E-05 -2.206763E-04 +2.917334E-04 +2.940089E-05 +9.729093E-05 +2.940089E-05 +4.977646E-03 
 -3.261010E-04 -2.316880E-04 +8.036151E-05 -2.316880E-04 +2.913372E-04 -2.040750E-06 +8.036151E-05 -2.040750E-06 +4.984373E-03 
 -3.201269E-04 -1.898431E-04 +6.851539E-05 -1.898431E-04 +2.639401E-04 +3.172550E-05 +6.851539E-05 +3.172550E-05 +4.993150E-03 
 -2.390403E-04 +1.961782E-05 +1.931399E-05 +1.961782E-05 +2.629208E-04 +4.471644E-05 +1.931399E-05 +4.471644E-05 +4.989799E-03 
 -1.624344E-04 -4.891500E-06 -2.263300E-05 -4.891500E-06 +2.098064E-04 -1.627989E-05 -2.263300E-05 -1.627989E-05 +4.916020E-03 
 +1.509301E-04 +2.295834E-05 -1.049554E-04 +2.295834E-05 +1.255497E-04 -2.286345E-05 -1.049554E-04 -2.286345E-05 +4.848559E-03 
 +1.442639E-04 -9.293984E-05 -6.014438E-05 -9.293984E-05 +1.036752E-04 -5.212426E-05 -6.014438E-05 -5.212426E-05 +4.835899E-03 
 +8.120237E-05 -1.449422E-04 +5.696255E-06 -1.449422E-04 +8.504301E-05 -1.467829E-04 +5.696255E-06 -1.467829E-04 +4.811647E-03 
 -2.852667E-05 -1.427215E-04 +2.340649E-05 -1.427215E-04 +3.839645E-05 -1.736046E-04 +2.340649E-05 -1.736046E-04 +4.903543E-03 
 -6.344882E-06 +5.104516E-05 +3.535487E-05 +5.104516E-05 -9.340311E-05 -1.377117E-04 +3.535487E-05 -1.377117E-04 +5.021697E-03 
 +1.221797E-04 +2.041050E-04 +3.329873E-05 +2.041050E-04 -9.563131E-05 -1.140418E-04 +3.329873E-05 -1.140418E-04 +4.939740E-03 
 +1.905874E-04 +4.028940E-04 +3.469717E-06 +4.028940E-04 -7.151840E-06 -4.840752E-06 +3.469717E-06 -4.840752E-06 +4.829682E-03 
 +3.145207E-04 -7.948231E-05 -6.291257E-05 -7.948231E-05 -6.784382E-06 +2.706305E-05 -6.291257E-05 +2.706305E-05 +4.843609E-03 
 +2.797322E-04 -1.377089E-04 -6.647119E-05 -1.377089E-04 -7.053251E-05 +3.532757E-05 -6.647119E-05 +3.532757E-05 +4.929773E-03 
 +2.377164E-04 -1.486766E-04 -2.457100E-05 -1.486766E-04 -3.566074E-05 +1.028924E-04 -2.457100E-05 +1.028924E-04 +4.987168E-03 
 +1.657085E-04 -2.097206E-04 +2.380390E-06 -2.097206E-04 -9.033200E-06 +6.761497E-05 +2.380390E-06 +6.761497E-05 +4.943295E-03 
 +1.886806E-04 +1.367061E-04 +3.112040E-05 +1.367061E-04 +3.586749E-04 +6.752886E-05 +3.112040E-05 +6.752886E-05 +4.684650E-03 
 +2.299417E-04 +4.262296E-04 +1.411547E-04 +4.262296E-04 +3.882939E-04 +2.645702E-05 +1.411547E-04 +2.645702E-05 +4.576087E-03 
 +1.148112E-04 +2.128624E-04 +1.035881E-04 +2.128624E-04 +3.691420E-04 +4.339525E-05 +1.035881E-04 +4.339525E-05 +4.636691E-03 
 -4.737572E-04 -1.916144E-04 +5.685915E-06 -1.916144E-04 +4.218095E-04 +1.036244E-05 +5.685915E-06 +1.036244E-05 +4.861375E-03 
 -4.283875E-04 -2.167075E-04 +5.317351E-05 -2.167075E-04 +3.710445E-04 -1.187378E-05 +5.317351E-05 -1.187378E-05 +4.995034E-03 
 -3.334293E-04 -2.459762E-04 +4.156036E-05 -2.459762E-04 +3.031471E-04 -2.107608E-06 +4.156036E-05 -2.107608E-06 +4.975463E-03 
 -3.130623E-04 -2.329233E-04 +2.250601E-05 -2.329233E-04 +2.748911E-04 -6.607051E-06 +2.250601E-05 -6.607051E-06 +4.971574E-03 
 -3.052548E-04 -2.184123E-04 +8.488550E-06 -2.184123E-04 +2.606624E-04 +3.890441E-05 +8.488550E-06 +3.890441E-05 +4.966025E-03 
 -2.810576E-04 -3.562304E-05 +8.013630E-06 -3.562304E-05 +2.492498E-04 +6.420779E-05 +8.013630E-06 +6.420779E-05 +4.943818E-03 
 -1.972758E-04 -4.678761E-06 -1.833577E-05 -4.678761E-06 +2.924395E-04 -1.013163E-05 -1.833577E-05 -1.013163E-05 +4.875735E-03 
 +1.987092E-04 +7.208568E-05 -1.234893E-04 +7.208568E-05 +2.289650E-04 -4.345758E-05 -1.234893E-04 -4.345758E-05 +4.806028E-03 
 +1.624544E-04 -1.696609E-05 -8.670428E-05 -1.696609E-05 +1.069505E-04 -5.164571E-05 -8.670428E-05 -5.164571E-05 +4.798695E-03 
 +1.497027E-04 -5.066773E-05 -4.131798E-05 -5.066773E-05 +8.414975E-05 -1.108822E-04 -4.131798E-05 -1.108822E-04 +4.778139E-03 
 +1.475402E-04 -1.134798E-04 +7.172376E-06 -1.134798E-04 +5.109685E-05 -1.216331E-04 +7.172376E-06 -1.216331E-04 +4.809024E-03 
 +1.206730E-04 -3.000181E-05 +5.992350E-05 -3.000181E-05 -2.814899E-05 -8.493415E-05 +5.992350E-05 -8.493415E-05 +4.916594E-03 
 +1.311193E-04 +1.636089E-04 +6.495534E-05 +1.636089E-04 -1.098395E-04 -5.360783E-05 +6.495534E-05 -5.360783E-05 +4.939689E-03 
 +1.394374E-04 +3.266498E-04 -4.374483E-05 +3.266498E-04 -1.268040E-04 +7.211642E-05 -4.374483E-05 +7.211642E-05 +4.905054E-03 
 +1.905803E-04 -1.257973E-04 -1.089390E-04 -1.257973E-04 -9.530156E-05 +6.325328E-05 -1.089390E-04 +6.325328E-05 +4.873962E-03 
 +1.925036E-04 -1.711415E-04 -6.961041E-05 -1.711415E-04 -3.563781E-05 +2.118173E-05 -6.961041E-05 +2.118173E-05 +4.869814E-03 
 +1.864453E-04 -1.211473E-04 -4.162372E-05 -1.211473E-04 -3.627334E-05 +7.664572E-05 -4.162372E-05 +7.664572E-05 +4.901133E-03 
 +1.796381E-04 -8.808973E-05 -4.938137E-05 -8.808973E-05 +9.819186E-05 +9.156094E-05 -4.938137E-05 +9.156094E-05 +4.845786E-03 
 +2.140627E-04 -3.647431E-05 +3.888524E-05 -3.647431E-05 +2.581809E-05 -5.404880E-05 +3.888524E-05 -5.404880E-05 +4.700029E-03 
 +2.278694E-04 +2.688584E-04 +1.315454E-04 +2.688584E-04 +3.306833E-04 -2.299392E-05 +1.315454E-04 -2.299392E-05 +4.588201E-03 
 +1.580201E-05 +6.537888E-05 +3.766698E-05 +6.537888E-05 +4.824841E-04 +1.672963E-05 +3.766698E-05 +1.672963E-05 +4.663099E-03 
 -4.460193E-04 -3.138666E-04 -9.879414E-05 -3.138666E-04 +3.929611E-04 -3.577575E-05 -9.879414E-05 -3.577575E-05 +4.914644E-03 
 -3.889329E-04 -3.093897E-04 -1.091551E-05 -3.093897E-04 +3.362516E-04 -4.054166E-05 -1.091551E-05 -4.054166E-05 +5.030216E-03 
 -2.900268E-04 -2.793707E-04 -9.260248E-06 -2.793707E-04 +2.860308E-04 +2.629573E-06 -9.260248E-06 +2.629573E-06 +4.990454E-03 
 -2.744669E-04 -2.295009E-04 -2.317570E-05 -2.295009E-04 +2.501051E-04 +1.482085E-05 -2.317570E-05 +1.482085E-05 +4.975732E-03 
 -3.180757E-04 -1.823626E-04 -1.452608E-05 -1.823626E-04 +2.743729E-04 +7.631904E-05 -1.452608E-05 +7.631904E-05 +4.965153E-03 
 -3.000000E-04 +1.050262E-05 +3.324912E-05 +1.050262E-05 +2.507687E-04 +3.308444E-05 +3.324912E-05 +3.308444E-05 +4.927752E-03 
 +4.001814E-06 +1.767159E-04 -4.710160E-05 +1.767159E-04 +2.638689E-04 -1.032459E-04 -4.710160E-05 -1.032459E-04 +4.818123E-03 
 +1.397402E-04 +8.145591E-05 -1.511355E-04 +8.145591E-05 +2.682487E-04 -9.745123E-05 -1.511355E-04 -9.745123E-05 +4.758806E-03 
 +1.755641E-04 +1.681118E-05 -1.288566E-04 +1.681118E-05 +1.659162E-04 -7.045769E-05 -1.288566E-04 -7.045769E-05 +4.760101E-03 
 +1.917672E-04 -3.095652E-05 -1.039907E-04 -3.095652E-05 +1.161000E-04 -1.103175E-04 -1.039907E-04 -1.103175E-04 +4.726235E-03 
 +1.964037E-04 -9.209531E-05 +5.010735E-06 -9.209531E-05 +1.816389E-04 -1.231573E-04 +5.010735E-06 -1.231573E-04 +4.689683E-03 
 +1.506254E-04 -1.212152E-04 +2.227203E-05 -1.212152E-04 +2.300616E-04 -8.368876E-05 +2.227203E-05 -8.368876E-05 +4.742580E-03 
 +7.731974E-05 +3.279389E-05 +4.555880E-05 +3.279389E-05 +9.390409E-05 -1.741376E-05 +4.555880E-05 -1.741376E-05 +4.901719E-03 
 +7.654744E-05 +1.908671E-04 -8.039377E-05 +1.908671E-04 -1.075899E-04 +7.876612E-05 -8.039377E-05 +7.876612E-05 +4.995188E-03 
 +1.549458E-04 -1.721216E-04 -7.834189E-05 -1.721216E-04 -1.626283E-04 +2.872404E-05 -7.834189E-05 +2.872404E-05 +4.976376E-03 
 +1.225636E-04 -1.891284E-04 -3.191870E-05 -1.891284E-04 -7.069159E-05 -2.562702E-05 -3.191870E-05 -2.562702E-05 +4.911626E-03 
 +1.147326E-04 -2.089339E-04 -5.417753E-05 -2.089339E-04 +5.482939E-06 +1.189639E-05 -5.417753E-05 +1.189639E-05 +4.884288E-03 
 +1.555117E-04 -2.155414E-04 -5.279695E-05 -2.155414E-04 -2.753573E-05 -1.389673E-05 -5.279695E-05 -1.389673E-05 +4.844464E-03 
 +1.152106E-04 +1.209811E-04 +7.471032E-05 +1.209811E-04 +1.602916E-04 -1.198995E-04 +7.471032E-05 -1.198995E-04 +4.802668E-03 
 +2.000759E-04 +1.664895E-04 +8.162189E-05 +1.664895E-04 +2.315219E-04 -1.631759E-04 +8.162189E-05 -1.631759E-04 +4.749492E-03 
 +1.635214E-04 +2.319765E-05 -2.197229E-05 +2.319765E-05 +2.386408E-04 -1.453829E-04 -2.197229E-05 -1.453829E-04 +4.848153E-03 
 -3.794691E-04 -3.495039E-04 -1.623940E-04 -3.495039E-04 +3.538182E-04 -1.106609E-04 -1.623940E-04 -1.106609E-04 +5.013425E-03 
 -3.234346E-04 -3.479135E-04 -1.024192E-04 -3.479135E-04 +2.734438E-04 -5.708337E-05 -1.024192E-04 -5.708337E-05 +5.061478E-03 
 -2.012244E-04 -3.378477E-04 -8.208178E-05 -3.378477E-04 +1.929949E-04 +3.112324E-06 -8.208178E-05 +3.112324E-06 +5.012573E-03 
 -2.253604E-04 -2.372352E-04 -5.802733E-05 -2.372352E-04 +1.708277E-04 +2.470376E-05 -5.802733E-05 +2.470376E-05 +4.992991E-03 
 -2.673629E-04 -1.349721E-04 +3.504328E-06 -1.349721E-04 +2.349534E-04 +9.689786E-05 +3.504328E-06 +9.689786E-05 +4.978748E-03 
 -2.982611E-04 -6.291266E-06 +5.038969E-05 -6.291266E-06 +3.010325E-04 +2.210148E-05 +5.038969E-05 +2.210148E-05 +4.937643E-03 
 +1.232240E-04 +1.036751E-04 -7.409548E-05 +1.036751E-04 +2.661536E-04 -1.318905E-04 -7.409548E-05 -1.318905E-04 +4.840749E-03 
 +1.490499E-04 -1.377608E-05 -1.439736E-04 -1.377608E-05 +2.000778E-04 -1.197148E-04 -1.439736E-04 -1.197148E-04 +4.795964E-03 
 +1.786048E-04 -5.706955E-06 -1.596737E-04 -5.706955E-06 +1.673377E-04 -9.210078E-05 -1.596737E-04 -9.210078E-05 +4.768438E-03 
 +2.214838E-04 -2.416299E-05 -1.316836E-04 -2.416299E-05 +1.194010E-04 -1.052218E-05 -1.316836E-04 -1.052218E-05 +4.717403E-03 
 +2.161684E-04 +4.828832E-07 +1.328717E-05 +4.828832E-07 +1.203933E-04 +6.582029E-05 +1.328717E-05 +6.582029E-05 +4.696069E-03 
 +1.219507E-04 -5.031452E-05 -4.730807E-05 -5.031452E-05 +2.374200E-04 +1.770408E-05 -4.730807E-05 +1.770408E-05 +4.720367E-03 
 +1.126788E-05 -1.912891E-05 -4.376147E-05 -1.912891E-05 +2.912437E-04 -2.634020E-05 -4.376147E-05 -2.634020E-05 +4.826364E-03 
 +3.987588E-05 +6.590657E-05 -1.736772E-04 +6.590657E-05 -1.283807E-05 +1.553106E-05 -1.736772E-04 +1.553106E-05 +4.967394E-03 
 +2.912588E-05 -1.027707E-04 -7.370479E-05 -1.027707E-04 -1.968636E-04 +5.325388E-06 -7.370479E-05 +5.325388E-06 +5.036639E-03 
 +9.099191E-05 -1.650868E-04 -4.334367E-05 -1.650868E-04 -5.351333E-05 -2.661327E-05 -4.334367E-05 -2.661327E-05 +4.965167E-03 
 +3.482063E-05 -1.987668E-04 -6.739394E-05 -1.987668E-04 +2.022745E-06 -4.932836E-05 -6.739394E-05 -4.932836E-05 +4.918760E-03 
 -1.989249E-07 -2.218219E-04 -5.520789E-05 -2.218219E-04 -2.921821E-05 -8.347097E-05 -5.520789E-05 -8.347097E-05 +4.913957E-03 
 +2.791115E-05 +4.691760E-04 +2.049254E-05 +4.691760E-04 -2.645176E-05 -1.202544E-04 +2.049254E-05 -1.202544E-04 +4.939373E-03 
 +8.395491E-05 +3.601510E-04 -3.391278E-05 +3.601510E-04 -2.563226E-05 -1.748886E-04 -3.391278E-05 -1.748886E-04 +4.937239E-03 
 +1.689508E-04 +2.945281E-04 -9.380626E-05 +2.945281E-04 +1.049723E-05 -1.731274E-04 -9.380626E-05 -1.731274E-04 +5.003911E-03 
 -2.492581E-04 -3.134817E-04 -1.822442E-04 -3.134817E-04 +1.991771E-04 -8.992350E-05 -1.822442E-04 -8.992350E-05 +5.077411E-03 
 -2.355423E-04 -3.410750E-04 -1.987951E-04 -3.410750E-04 +2.171641E-04 +6.926022E-07 -1.987951E-04 +6.926022E-07 +5.095151E-03 
 -2.157681E-04 -3.330096E-04 -1.718462E-04 -3.330096E-04 +1.156794E-04 +1.403622E-05 -1.718462E-04 +1.403622E-05 +5.043109E-03 
 -2.098968E-04 -2.572532E-04 -1.316054E-04 -2.572532E-04 +1.091286E-04 +1.483013E-05 -1.316054E-04 +1.483013E-05 +5.013323E-03 
 -2.929152E-04 -2.059714E-04 -4.583415E-05 -2.059714E-04 +1.767045E-04 +7.643279E-05 -4.583415E-05 +7.643279E-05 +5.005087E-03 
 -2.096615E-04 -5.336690E-05 +2.806088E-05 -5.336690E-05 +3.152828E-04 -4.035831E-06 +2.806088E-05 -4.035831E-06 +4.972376E-03 
 +2.284523E-04 +3.768978E-06 -9.021471E-05 +3.768978E-06 +2.370574E-04 -1.667931E-04 -9.021471E-05 -1.667931E-04 +4.915526E-03 
 +2.479402E-04 +1.782698E-05 -1.272436E-04 +1.782698E-05 +8.188833E-05 -1.593480E-04 -1.272436E-04 -1.593480E-04 +4.874437E-03 
 +2.050229E-04 +6.822626E-06 -1.627146E-04 +6.822626E-06 +1.041585E-04 -1.055715E-04 -1.627146E-04 -1.055715E-04 +4.826352E-03 
 +2.320120E-04 -3.307322E-05 -1.411950E-04 -3.307322E-05 +1.102259E-04 -4.334993E-05 -1.411950E-04 -4.334993E-05 +4.772093E-03 
 +2.501690E-04 -1.690533E-05 -6.662533E-05 -1.690533E-05 +7.420794E-05 -3.432745E-05 -6.662533E-05 -3.432745E-05 +4.767754E-03 
 +1.939842E-04 +9.184351E-05 -1.353006E-04 +9.184351E-05 +1.436202E-04 -6.161061E-05 -1.353006E-04 -6.161061E-05 +4.805055E-03 
 +7.616994E-05 +1.038386E-04 -1.529760E-04 +1.038386E-04 +1.691936E-04 -9.220792E-05 -1.529760E-04 -9.220792E-05 +4.868931E-03 
 +4.824306E-05 +1.181228E-04 -1.678998E-04 +1.181228E-04 -3.374882E-06 -4.881988E-05 -1.678998E-04 -4.881988E-05 +4.974877E-03 
 -3.273254E-04 +2.191233E-04 -2.725241E-05 +2.191233E-04 +8.732780E-05 +3.020763E-05 -2.725241E-05 +3.020763E-05 +5.029064E-03 
 +2.591172E-05 -1.002517E-04 -9.079410E-05 -1.002517E-04 +1.492774E-04 +3.134894E-05 -9.079410E-05 +3.134894E-05 +4.969751E-03 
 +1.021573E-09 -1.228442E-04 -7.333544E-05 -1.228442E-04 +4.495171E-05 -1.704588E-05 -7.333544E-05 -1.704588E-05 +4.959506E-03 
 -4.831114E-05 -1.614093E-04 -3.247472E-05 -1.614093E-04 -1.043738E-05 -5.613470E-05 -3.247472E-05 -5.613470E-05 +4.985008E-03 
 +4.300108E-06 +4.601295E-04 +6.723665E-06 +4.601295E-04 -8.594125E-06 -1.389300E-04 +6.723665E-06 -1.389300E-04 +5.046267E-03 
 -5.349126E-06 +2.703758E-04 -7.040668E-05 +2.703758E-04 +1.611610E-05 -1.467353E-04 -7.040668E-05 -1.467353E-04 +5.045647E-03 
 -1.961329E-05 +3.033240E-04 -1.609694E-04 +3.033240E-04 -6.900614E-06 -1.194226E-04 -1.609694E-04 -1.194226E-04 +5.064605E-03 
 -1.095940E-04 -2.408117E-04 -2.398610E-04 -2.408117E-04 -8.162641E-05 +6.149059E-06 -2.398610E-04 +6.149059E-06 +5.096060E-03 
 -1.062874E-04 -3.369777E-04 -2.631952E-04 -3.369777E-04 -2.405827E-05 +9.785074E-05 -2.631952E-04 +9.785074E-05 +5.116748E-03 
 -3.203769E-04 -3.359297E-04 -2.132201E-04 -3.359297E-04 +5.689592E-05 +4.704434E-05 -2.132201E-04 +4.704434E-05 +5.093868E-03 
 -3.031494E-04 -2.489731E-04 -2.061137E-04 -2.489731E-04 +9.188187E-05 +1.512687E-05 -2.061137E-04 +1.512687E-05 +5.043394E-03 
 -2.215042E-04 -1.241326E-04 -1.222621E-04 -1.241326E-04 +1.207675E-04 +6.628922E-05 -1.222621E-04 +6.628922E-05 +5.011230E-03 
 +5.699966E-05 +1.929057E-04 +3.174471E-06 +1.929057E-04 +1.643184E-04 -2.964516E-05 +3.174471E-06 -2.964516E-05 +4.952316E-03 
 +2.759993E-04 +4.252997E-05 -7.873863E-05 +4.252997E-05 +2.032266E-04 -1.951419E-04 -7.873863E-05 -1.951419E-04 +4.873600E-03 
 +2.752611E-04 +4.464247E-05 -6.074213E-05 +4.464247E-05 +1.545116E-04 -1.872893E-04 -6.074213E-05 -1.872893E-04 +4.857420E-03 
 +2.157600E-04 +1.395449E-05 -1.233227E-04 +1.395449E-05 +9.567229E-05 -1.256905E-04 -1.233227E-04 -1.256905E-04 +4.861629E-03 
 +2.150076E-04 -5.224708E-05 -1.402510E-04 -5.224708E-05 +4.180827E-05 -5.073751E-05 -1.402510E-04 -5.073751E-05 +4.850315E-03 
 +2.359227E-04 -5.759236E-05 -1.451846E-04 -5.759236E-05 -1.336388E-05 -6.023140E-06 -1.451846E-04 -6.023140E-06 +4.846073E-03 
 +2.368395E-04 +3.612464E-05 -1.770841E-04 +3.612464E-05 -1.320160E-05 +1.991226E-05 -1.770841E-04 +1.991226E-05 +4.880873E-03 
 +1.217501E-04 -2.549770E-04 -1.932114E-04 -2.549770E-04 -9.174279E-05 +7.334869E-05 -1.932114E-04 +7.334869E-05 +4.962944E-03 
 +3.865660E-05 -2.637302E-04 -1.242914E-04 -2.637302E-04 -1.626247E-04 +1.053248E-04 -1.242914E-04 +1.053248E-04 +5.047575E-03 
 -4.597648E-04 +1.877983E-04 +1.017119E-05 +1.877983E-04 +3.864848E-06 +7.527785E-05 +1.017119E-05 +7.527785E-05 +5.059735E-03 
 -3.867918E-05 -1.742531E-04 -7.586680E-05 -1.742531E-04 +1.106867E-04 +3.916671E-05 -7.586680E-05 +3.916671E-05 +5.004792E-03 
 -2.935663E-05 -8.795615E-05 -2.141570E-05 -8.795615E-05 +4.789969E-05 -8.113313E-06 -2.141570E-05 -8.113313E-06 +5.003530E-03 
 -6.272417E-05 -1.908001E-04 +2.991565E-05 -1.908001E-04 +9.288078E-06 -7.957923E-05 +2.991565E-05 -7.957923E-05 +5.038801E-03 
 -7.293249E-05 +4.334160E-04 +3.363337E-05 +4.334160E-04 +9.718722E-05 -1.055579E-04 +3.363337E-05 -1.055579E-04 +5.075542E-03 
 -5.473252E-05 +2.689026E-04 -5.742862E-05 +2.689026E-04 +4.207022E-05 -1.022288E-04 -5.742862E-05 -1.022288E-04 +5.096086E-03 
 -8.504694E-06 +3.142227E-04 -1.540206E-04 +3.142227E-04 -6.782118E-05 -9.914262E-05 -1.540206E-04 -9.914262E-05 +5.137259E-03 
 -4.691990E-05 -1.893407E-04 -2.575189E-04 -1.893407E-04 -1.582450E-04 +9.079707E-06 -2.575189E-04 +9.079707E-06 +5.136229E-03 
 -4.639883E-05 -2.266047E-04 -2.607155E-04 -2.266047E-04 -1.293983E-04 +1.428850E-04 -2.607155E-04 +1.428850E-04 +5.127031E-03 
 -3.990986E-04 -3.091662E-04 -1.563644E-04 -3.091662E-04 -3.854413E-05 +8.490119E-05 -1.563644E-04 +8.490119E-05 +5.148518E-03 
 -2.828579E-04 -1.110327E-04 -1.458266E-04 -1.110327E-04 +1.690170E-05 +2.015194E-05 -1.458266E-04 +2.015194E-05 +5.084255E-03 
 +4.322261E-06 +5.396000E-05 -5.024786E-05 +5.396000E-05 +7.512678E-05 +6.292345E-05 -5.024786E-05 +6.292345E-05 +4.999249E-03 
 +1.060286E-04 +2.287825E-04 +6.518661E-06 +2.287825E-04 +1.000722E-04 +2.478135E-06 +6.518661E-06 +2.478135E-06 +4.921134E-03 
 +2.254549E-04 +1.565429E-05 -2.367754E-05 +1.565429E-05 +2.340134E-04 -8.228118E-05 -2.367754E-05 -8.228118E-05 +4.799496E-03 
 +2.787902E-04 -5.983121E-05 +5.044741E-05 -5.983121E-05 +3.379758E-04 -8.932053E-05 +5.044741E-05 -8.932053E-05 +4.812098E-03 
 +2.421189E-04 -9.129156E-05 -5.433911E-05 -9.129156E-05 +1.946630E-04 -1.051957E-04 -5.433911E-05 -1.051957E-04 +4.891346E-03 
 +1.817204E-04 -1.059925E-04 -1.107544E-04 -1.059925E-04 +7.590777E-05 -6.941978E-05 -1.107544E-04 -6.941978E-05 +4.894937E-03 
 +1.536940E-04 -1.469855E-04 -1.716736E-04 -1.469855E-04 +2.284597E-05 -1.904808E-05 -1.716736E-04 -1.904808E-05 +4.887657E-03 
 +1.844082E-04 -2.221728E-05 -2.083387E-04 -2.221728E-05 -8.113462E-05 +6.086605E-06 -2.083387E-04 +6.086605E-06 +4.915627E-03 
 +9.391234E-05 -2.790629E-04 -2.015979E-04 -2.790629E-04 -1.574366E-04 +2.982987E-05 -2.015979E-04 +2.982987E-05 +4.970617E-03 
 -6.582984E-06 -1.656439E-04 -1.328899E-04 -1.656439E-04 -1.123717E-04 +8.736035E-05 -1.328899E-04 +8.736035E-05 +5.059024E-03 
 -3.619248E-04 +2.565082E-04 -1.448005E-06 +2.565082E-04 -4.999577E-05 +9.069940E-05 -1.448005E-06 +9.069940E-05 +5.097613E-03 
 -1.099121E-05 -2.173925E-04 -1.556825E-05 -2.173925E-04 -2.357280E-05 +1.804130E-05 -1.556825E-05 +1.804130E-05 +5.048038E-03 
 -5.416631E-05 -1.136500E-04 +7.169405E-05 -1.136500E-04 +3.265046E-05 -3.507967E-05 +7.169405E-05 -3.507967E-05 +5.037260E-03 
 -1.251655E-04 -2.087824E-04 +9.330067E-05 -2.087824E-04 +7.776304E-05 -7.603405E-05 +9.330067E-05 -7.603405E-05 +5.066297E-03 
 -9.297300E-05 +4.221206E-04 +3.604840E-05 +4.221206E-04 +1.309824E-04 -8.557360E-05 +3.604840E-05 -8.557360E-05 +5.120391E-03 
 -7.421683E-06 +2.517426E-04 -3.107948E-05 +2.517426E-04 +1.047695E-05 -9.849445E-05 -3.107948E-05 -9.849445E-05 +5.141938E-03 
 +2.277424E-05 +3.003508E-04 -9.599540E-05 +3.003508E-04 -1.533123E-04 -1.012789E-04 -9.599540E-05 -1.012789E-04 +5.198935E-03 
 +1.391182E-05 -1.641487E-04 -1.735784E-04 -1.641487E-04 -2.488350E-04 -3.039153E-06 -1.735784E-04 -3.039153E-06 +5.192523E-03 
 +1.356227E-05 -7.015978E-05 -1.712643E-04 -7.015978E-05 -1.923182E-04 +1.351816E-04 -1.712643E-04 +1.351816E-04 +5.170839E-03 
 -4.323795E-04 -1.661524E-04 -1.164324E-05 -1.661524E-04 -1.407263E-04 +9.788479E-05 -1.164324E-05 +9.788479E-05 +5.189485E-03 
 -1.226301E-04 +9.489129E-05 -1.224085E-06 +9.489129E-05 -4.909839E-05 +2.511013E-05 -1.224085E-06 +2.511013E-05 +5.090037E-03 
 +1.245848E-04 +1.579076E-04 +9.133726E-07 +1.579076E-04 +4.766719E-05 +3.526269E-06 +9.133726E-07 +3.526269E-06 +4.974081E-03 
 +8.014766E-05 +3.621537E-04 -4.567386E-05 +3.621537E-04 -6.881428E-06 -2.619883E-05 -4.567386E-05 -2.619883E-05 +4.961192E-03 
 +1.842937E-04 +3.164029E-04 -5.104700E-06 +3.164029E-04 -4.510287E-05 -5.184334E-05 -5.104700E-06 -5.184334E-05 +4.914452E-03 
 +2.093852E-04 +1.819636E-04 +1.326642E-04 +1.819636E-04 +1.293150E-04 -9.264009E-05 +1.326642E-04 -9.264009E-05 +4.914539E-03 
 +2.177078E-04 -8.874808E-05 +5.091754E-05 -8.874808E-05 +2.424695E-04 -1.306614E-04 +5.091754E-05 -1.306614E-04 +4.937795E-03 
 +1.340370E-04 -9.170280E-05 -9.501599E-05 -9.170280E-05 +1.368625E-04 -1.070711E-04 -9.501599E-05 -1.070711E-04 +4.906313E-03 
 +9.572921E-05 -1.190011E-04 -1.776294E-04 -1.190011E-04 +3.900495E-05 -6.474258E-05 -1.776294E-04 -6.474258E-05 +4.905409E-03 
 +8.270195E-05 -6.995534E-05 -1.686828E-04 -6.995534E-05 -1.305919E-04 -5.977223E-06 -1.686828E-04 -5.977223E-06 +4.915599E-03 
 +3.902064E-05 -3.322525E-04 -1.761505E-04 -3.322525E-04 -2.071920E-04 +8.650511E-05 -1.761505E-04 +8.650511E-05 +4.950754E-03 
 -2.894236E-05 -2.119485E-04 -1.729177E-04 -2.119485E-04 -1.379198E-04 +1.476096E-04 -1.729177E-04 +1.476096E-04 +5.062090E-03 
 -3.152566E-04 +1.916904E-04 +1.825643E-05 +1.916904E-04 -1.457289E-04 +6.963247E-05 +1.825643E-05 +6.963247E-05 +5.115202E-03 
 +9.819814E-06 -2.200233E-04 +8.533156E-05 -2.200233E-04 -1.309129E-04 -3.355685E-05 +8.533156E-05 -3.355685E-05 +5.083331E-03 
 -7.232067E-05 -1.221445E-04 +1.493498E-04 -1.221445E-04 -2.397354E-05 -4.925922E-05 +1.493498E-04 -4.925922E-05 +5.105678E-03 
 -1.557214E-04 -2.048959E-04 +1.131774E-04 -2.048959E-04 +1.058854E-04 -6.102293E-05 +1.131774E-04 -6.102293E-05 +5.135269E-03 
 +4.557087E-05 +4.182599E-04 +2.271591E-05 +4.182599E-04 +1.657888E-04 -1.225023E-04 +2.271591E-05 -1.225023E-04 +5.122941E-03 
 +7.615448E-05 +3.121954E-04 +9.645226E-06 +3.121954E-04 -5.954397E-05 -1.468045E-04 +9.645226E-06 -1.468045E-04 +5.149378E-03 
 +5.820219E-05 +3.872110E-04 +6.059924E-06 +3.872110E-04 -2.024442E-04 -1.479666E-04 +6.059924E-06 -1.479666E-04 +5.211195E-03 
 -6.808177E-05 -1.067495E-04 -1.138401E-05 -1.067495E-04 -3.245019E-04 -6.228400E-05 -1.138401E-05 -6.228400E-05 +5.211259E-03 
 +2.421645E-05 -2.500073E-05 +5.873377E-05 -2.500073E-05 -2.820453E-04 +9.961758E-05 +5.873377E-05 +9.961758E-05 +5.152295E-03 
 -2.048881E-04 -1.315956E-04 +1.260694E-04 -1.315956E-04 -1.212027E-04 +1.239110E-04 +1.260694E-04 +1.239110E-04 +5.151877E-03 
 +1.344058E-05 +2.850928E-04 +1.020756E-05 +2.850928E-04 -6.408805E-05 +2.730947E-05 +1.020756E-05 +2.730947E-05 +5.138409E-03 
 +6.846476E-05 +2.574718E-04 -8.075617E-05 +2.574718E-04 -4.332088E-06 -3.806608E-05 -8.075617E-05 -3.806608E-05 +5.056554E-03 
 +1.202558E-04 +2.709920E-04 -8.802737E-05 +2.709920E-04 -5.640738E-06 -1.074540E-05 -8.802737E-05 -1.074540E-05 +5.033994E-03 
 +1.453437E-04 +2.560415E-04 -4.410907E-05 +2.560415E-04 -3.256683E-05 +3.812079E-05 -4.410907E-05 +3.812079E-05 +5.013733E-03 
 +8.544142E-05 +2.546864E-04 +4.710072E-05 +2.546864E-04 +7.415053E-05 +2.498783E-05 +4.710072E-05 +2.498783E-05 +4.974157E-03 
 +1.941601E-04 -6.001550E-05 +2.371431E-05 -6.001550E-05 +2.387358E-04 -9.842562E-05 +2.371431E-05 -9.842562E-05 +4.916001E-03 
 +2.125886E-04 -8.671966E-05 -6.281391E-05 -8.671966E-05 +1.524330E-04 -1.493305E-04 -6.281391E-05 -1.493305E-04 +4.838965E-03 
 +1.372610E-04 +7.211095E-05 -1.467835E-04 +7.211095E-05 +7.803330E-06 -1.204400E-04 -1.467835E-04 -1.204400E-04 +4.853137E-03 
 -4.473509E-05 +1.113510E-04 -1.051059E-04 +1.113510E-04 -1.337202E-05 -1.492883E-04 -1.051059E-04 -1.492883E-04 +4.904781E-03 
 -1.718435E-04 +6.434994E-06 -9.513330E-05 +6.434994E-06 -7.402547E-06 -1.359454E-04 -9.513330E-05 -1.359454E-04 +4.976589E-03 
 -2.387435E-04 -8.715867E-05 -1.144138E-04 -8.715867E-05 +5.143442E-07 -4.568678E-05 -1.144138E-04 -4.568678E-05 +5.072959E-03 
 -2.781542E-04 +1.302671E-04 +1.080986E-04 +1.302671E-04 -1.376351E-04 -3.708002E-05 +1.080986E-04 -3.708002E-05 +5.089236E-03 
 +1.752395E-05 -1.824880E-04 +1.854109E-04 -1.824880E-04 -1.526648E-04 -6.536578E-05 +1.854109E-04 -6.536578E-05 +5.064544E-03 
 -4.552530E-05 -4.679908E-05 +2.440166E-04 -4.679908E-05 -4.684382E-06 -3.772742E-05 +2.440166E-04 -3.772742E-05 +5.064689E-03 
 -1.466166E-04 -7.676827E-05 +1.288223E-04 -7.676827E-05 +1.863512E-04 -5.558085E-05 +1.288223E-04 -5.558085E-05 +5.094447E-03 
 -1.102556E-04 +9.874533E-05 +5.584567E-05 +9.874533E-05 +4.771740E-04 -5.431316E-05 +5.584567E-05 -5.431316E-05 +5.000221E-03 
 +3.258334E-05 -1.369154E-04 +3.100962E-05 -1.369154E-04 +2.203788E-04 -7.375628E-05 +3.100962E-05 -7.375628E-05 +5.082290E-03 
 +1.941490E-05 -2.646286E-04 +5.101711E-05 -2.646286E-04 -4.715568E-07 -1.879124E-04 +5.101711E-05 -1.879124E-04 +5.146989E-03 
 +1.631523E-05 -3.720616E-04 +6.033649E-05 -3.720616E-04 -1.260575E-04 -1.933188E-04 +6.033649E-05 -1.933188E-04 +5.099722E-03 
 +1.765171E-04 -1.226496E-04 +1.204961E-04 -1.226496E-04 +1.027857E-05 -8.397421E-05 +1.204961E-04 -8.397421E-05 +4.994740E-03 
 +1.689914E-04 -1.122197E-04 +6.658281E-05 -1.122197E-04 +7.434127E-05 +4.416839E-05 +6.658281E-05 +4.416839E-05 +4.894120E-03 
 +1.010758E-04 +7.966798E-05 -1.875490E-05 +7.966798E-05 +6.207869E-05 +1.041557E-04 -1.875490E-05 +1.041557E-04 +4.912390E-03 
 -2.180326E-05 +2.610655E-04 -9.071932E-05 +2.610655E-04 -4.127022E-06 +3.638955E-05 -9.071932E-05 +3.638955E-05 +5.077286E-03 
 -5.201262E-05 +3.791892E-04 -9.748262E-05 +3.791892E-04 +9.298802E-06 -2.024700E-05 -9.748262E-05 -2.024700E-05 +5.081380E-03 
 +4.124552E-05 +3.599742E-04 -5.037614E-05 +3.599742E-04 +8.026058E-05 +2.052281E-05 -5.037614E-05 +2.052281E-05 +5.027278E-03 
 +1.227396E-04 +3.420940E-04 -6.410973E-05 +3.420940E-04 +4.062073E-05 +2.949648E-05 -6.410973E-05 +2.949648E-05 +4.972307E-03 
 +2.707303E-04 +2.600733E-05 -1.063705E-04 +2.600733E-05 -9.400877E-05 +3.522823E-05 -1.063705E-04 +3.522823E-05 +4.896838E-03 
 +3.034060E-04 +5.091948E-05 -7.843301E-05 +5.091948E-05 -8.159807E-05 +1.265413E-04 -7.843301E-05 +1.265413E-04 +4.910050E-03 
 -1.194129E-04 -1.361017E-04 +1.717964E-05 -1.361017E-04 +1.649103E-05 +1.370029E-04 +1.717964E-05 +1.370029E-04 +4.976925E-03 
 -2.534196E-04 -2.144730E-04 +1.663719E-05 -2.144730E-04 -3.488772E-06 +1.178657E-04 +1.663719E-05 +1.178657E-04 +5.032234E-03 
 -3.451467E-04 -3.302448E-04 +9.931927E-06 -3.302448E-04 +2.935721E-06 +8.224716E-05 +9.931927E-06 +8.224716E-05 +5.040012E-03 
 -3.897206E-04 -3.796691E-04 +1.462996E-05 -3.796691E-04 -4.995713E-05 -7.297551E-05 +1.462996E-05 -7.297551E-05 +5.025210E-03 
 +1.229400E-04 +1.388910E-05 +2.064709E-04 +1.388910E-05 -6.391509E-05 -2.313191E-04 +2.064709E-04 -2.313191E-04 +4.960102E-03 
 +2.092963E-04 +8.449751E-05 +1.757984E-04 +8.449751E-05 +1.240311E-04 -2.632668E-04 +1.757984E-04 -2.632668E-04 +4.900696E-03 
 -7.040837E-05 +1.754992E-04 +1.698221E-04 +1.754992E-04 +2.844101E-04 -1.966962E-04 +1.698221E-04 -1.966962E-04 +4.934310E-03 
 -2.230463E-04 +1.430949E-04 +1.188935E-04 +1.430949E-04 +5.015036E-04 -1.142044E-04 +1.188935E-04 -1.142044E-04 +4.958944E-03 
 -2.188631E-04 -1.213327E-04 +4.211839E-05 -1.213327E-04 +2.756611E-04 +4.178157E-05 +4.211839E-05 +4.178157E-05 +5.048690E-03 
 -2.567010E-05 -2.455383E-05 +4.039571E-06 -2.455383E-05 +8.408091E-05 -2.752966E-05 +4.039571E-06 -2.752966E-05 +5.076570E-03 
 +6.763420E-06 -1.478579E-04 +1.461753E-05 -1.478579E-04 -9.052209E-06 -1.138849E-04 +1.461753E-05 -1.138849E-04 +5.070255E-03 
 +2.128596E-04 -2.875711E-05 +9.127043E-05 -2.875711E-05 +2.936677E-05 -7.722337E-05 +9.127043E-05 -7.722337E-05 +4.957801E-03 
 +3.381250E-04 +5.073538E-05 +7.559912E-05 +5.073538E-05 +6.181111E-05 -1.112655E-06 +7.559912E-05 -1.112655E-06 +4.863997E-03 
 +3.498572E-04 -5.377049E-05 +2.062786E-06 -5.377049E-05 +4.336663E-05 +6.271575E-05 +2.062786E-06 +6.271575E-05 +4.783833E-03 
 +1.950250E-04 +3.016492E-05 -5.001380E-05 +3.016492E-05 +8.089704E-05 +8.091487E-05 -5.001380E-05 +8.091487E-05 +4.803230E-03 
 +9.331053E-05 +6.104652E-05 -7.691952E-05 +6.104652E-05 +4.102798E-05 -7.338717E-07 -7.691952E-05 -7.338717E-07 +5.040466E-03 
 -4.785999E-05 +3.019427E-04 -1.356054E-04 +3.019427E-04 +2.537748E-05 -3.433258E-05 -1.356054E-04 -3.433258E-05 +5.118483E-03 
 +1.515832E-05 +3.321579E-04 -7.086755E-05 +3.321579E-04 +1.742353E-05 +1.566447E-05 -7.086755E-05 +1.566447E-05 +5.095817E-03 
 +1.146632E-04 +3.025813E-04 -9.138013E-05 +3.025813E-04 -2.541541E-05 -3.350195E-05 -9.138013E-05 -3.350195E-05 +5.037855E-03 
 +3.155035E-04 -1.449622E-04 -1.167089E-04 -1.449622E-04 -1.014160E-04 -1.024443E-05 -1.167089E-04 -1.024443E-05 +4.918319E-03 
 +1.771656E-04 -4.781119E-05 -6.774228E-05 -4.781119E-05 -1.477046E-04 +1.881065E-04 -6.774228E-05 +1.881065E-04 +4.950898E-03 
 -3.701321E-04 -2.288559E-04 +7.353519E-05 -2.288559E-04 -1.972930E-05 +2.092868E-04 +7.353519E-05 +2.092868E-04 +5.084552E-03 
 -4.261714E-04 -2.276071E-04 +6.162359E-05 -2.276071E-04 +9.023145E-05 +1.055062E-04 +6.162359E-05 +1.055062E-04 +5.115222E-03 
 -4.019729E-04 -2.585745E-04 +5.744713E-05 -2.585745E-04 +8.493740E-05 +5.971650E-05 +5.744713E-05 +5.971650E-05 +5.071173E-03 
 -3.847228E-04 -3.702540E-04 +1.292821E-05 -3.702540E-04 +5.905528E-05 -2.160536E-05 +1.292821E-05 -2.160536E-05 +5.022315E-03 
 +1.638203E-04 -6.084261E-05 +1.877010E-04 -6.084261E-05 -1.385233E-05 -1.750794E-04 +1.877010E-04 -1.750794E-04 +4.900443E-03 
 +1.472728E-04 +4.864023E-06 +1.578168E-04 +4.864023E-06 +1.241788E-05 -1.899655E-04 +1.578168E-04 -1.899655E-04 +4.821726E-03 
 -1.529759E-05 +2.115278E-05 +1.376228E-04 +2.115278E-05 +1.942758E-04 -1.245317E-04 +1.376228E-04 -1.245317E-04 +4.917118E-03 
 -2.389889E-04 +7.214722E-05 +1.233269E-04 +7.214722E-05 +3.667188E-04 -4.534838E-05 +1.233269E-04 -4.534838E-05 +5.011737E-03 
 -8.247275E-05 -8.033818E-05 -6.810772E-05 -8.033818E-05 +1.530218E-05 +3.800439E-05 -6.810772E-05 +3.800439E-05 +5.173616E-03 
 +2.203014E-05 +2.502654E-05 -1.243751E-04 +2.502654E-05 +3.636967E-05 +1.193572E-05 -1.243751E-04 +1.193572E-05 +5.110592E-03 
 +9.966836E-05 -3.230908E-05 -4.406462E-05 -3.230908E-05 +8.491393E-05 -2.689626E-05 -4.406462E-05 -2.689626E-05 +5.041665E-03 
 +2.711540E-04 +5.103100E-05 +7.673287E-05 +5.103100E-05 +1.187443E-04 -2.940729E-05 +7.673287E-05 -2.940729E-05 +4.984012E-03 
 +3.716335E-04 +4.124183E-05 +1.361219E-06 +4.124183E-05 +6.497449E-05 -4.702401E-06 +1.361219E-06 -4.702401E-06 +4.875550E-03 
 +4.210877E-04 +2.523627E-06 -1.861494E-05 +2.523627E-06 +7.268132E-05 +5.299859E-05 -1.861494E-05 +5.299859E-05 +4.752843E-03 
 +2.878502E-04 +6.416388E-05 -4.494180E-05 +6.416388E-05 +3.464848E-05 +7.955260E-05 -4.494180E-05 +7.955260E-05 +4.821295E-03 
 +9.151099E-05 +1.749672E-04 -7.569537E-05 +1.749672E-04 +3.255548E-05 -5.820456E-06 -7.569537E-05 -5.820456E-06 +5.120792E-03 
 +3.207714E-05 +3.391159E-04 -7.177555E-05 +3.391159E-04 +1.236388E-05 -3.190205E-05 -7.177555E-05 -3.190205E-05 +5.189123E-03 
 +1.794521E-05 +3.280928E-04 +6.689219E-06 +3.280928E-04 -3.583267E-05 +3.231077E-05 +6.689219E-06 +3.231077E-05 +5.138271E-03 
 +9.061826E-05 +2.767765E-04 +3.936096E-05 +2.767765E-04 -7.162815E-05 -3.788246E-05 +3.936096E-05 -3.788246E-05 +5.100619E-03 
 +1.905943E-04 -1.846615E-04 +1.664920E-05 -1.846615E-04 -1.308679E-04 -4.974765E-05 +1.664920E-05 -4.974765E-05 +5.024470E-03 
 -1.310062E-04 -1.326680E-04 +7.551903E-05 -1.326680E-04 -9.598470E-05 +1.031546E-04 +7.551903E-05 +1.031546E-04 +5.061137E-03 
 -3.934050E-04 -2.612394E-04 +1.201453E-04 -2.612394E-04 -1.798348E-05 +1.511535E-04 +1.201453E-04 +1.511535E-04 +5.143503E-03 
 -4.233441E-04 -2.523262E-04 +8.378733E-05 -2.523262E-04 +5.707638E-05 +1.150450E-04 +8.378733E-05 +1.150450E-04 +5.156785E-03 
 -4.130102E-04 -2.584137E-04 +8.301810E-05 -2.584137E-04 +1.057779E-04 +7.544234E-05 +8.301810E-05 +7.544234E-05 +5.097337E-03 
 -3.934885E-04 -3.361463E-04 +4.057597E-05 -3.361463E-04 +1.643377E-04 +5.553616E-05 +4.057597E-05 +5.553616E-05 +5.018595E-03 
 -9.328626E-05 -1.359686E-04 +1.364616E-04 -1.359686E-04 +1.144171E-04 -9.162696E-05 +1.364616E-04 -9.162696E-05 +4.906929E-03 
 +6.448314E-05 -1.804431E-05 +1.198058E-04 -1.804431E-05 +2.481406E-06 -1.568221E-04 +1.198058E-04 -1.568221E-04 +4.875526E-03 
 +4.036626E-05 +2.023790E-05 +7.932051E-05 +2.023790E-05 -6.486645E-05 -4.710650E-05 +7.932051E-05 -4.710650E-05 +5.009400E-03 
 -7.114250E-05 +1.684094E-04 +1.400733E-04 +1.684094E-04 -7.857688E-05 +1.195690E-05 +1.400733E-04 +1.195690E-05 +5.126159E-03 
 -4.762050E-05 -3.025222E-06 -7.130185E-05 -3.025222E-06 -2.187017E-04 -9.960425E-05 -7.130185E-05 -9.960425E-05 +5.292211E-03 
 +5.227165E-05 -3.875508E-05 -1.262510E-04 -3.875508E-05 -1.175068E-04 -2.513924E-05 -1.262510E-04 -2.513924E-05 +5.211450E-03 
 +1.980395E-04 -2.969223E-05 -1.061465E-04 -2.969223E-05 -3.896278E-05 -3.282574E-05 -1.061465E-04 -3.282574E-05 +5.170090E-03 
 +3.071435E-04 -9.617995E-06 +8.536468E-05 -9.617995E-06 +3.298347E-05 -4.275267E-05 +8.536468E-05 -4.275267E-05 +5.076030E-03 
 +4.022314E-04 +3.634262E-05 +7.684967E-06 +3.634262E-05 +6.297477E-05 -2.466017E-05 +7.684967E-06 -2.466017E-05 +4.891166E-03 
 +4.597488E-04 -3.048622E-05 +1.176002E-05 -3.048622E-05 +8.978781E-05 +5.205949E-05 +1.176002E-05 +5.205949E-05 +4.732001E-03 
 +3.839093E-04 -4.960753E-05 -1.021784E-05 -4.960753E-05 +8.611957E-05 +6.674272E-05 -1.021784E-05 +6.674272E-05 +4.799255E-03 
 +7.359966E-05 +8.259914E-05 -1.216984E-04 +8.259914E-05 +1.266690E-04 -2.566285E-05 -1.216984E-04 -2.566285E-05 +5.107963E-03 
 +3.703759E-05 +1.388718E-04 -6.695820E-05 +1.388718E-04 +1.165315E-04 -5.049856E-05 -6.695820E-05 -5.049856E-05 +5.180634E-03 
 +8.294247E-05 +2.552406E-04 +2.215628E-05 +2.552406E-04 +6.176492E-05 -4.194752E-05 +2.215628E-05 -4.194752E-05 +5.141715E-03 
 +5.015005E-05 +1.349453E-04 +5.433109E-05 +1.349453E-04 -2.494020E-05 -7.887523E-05 +5.433109E-05 -7.887523E-05 +5.157288E-03 
 -1.627482E-04 -3.171205E-04 +1.669759E-05 -3.171205E-04 -2.298667E-05 -4.829370E-05 +1.669759E-05 -4.829370E-05 +5.147210E-03 
 -3.121840E-04 -2.556503E-04 +5.083139E-05 -2.556503E-04 +2.666756E-05 +6.054203E-05 +5.083139E-05 +6.054203E-05 +5.168563E-03 
 -3.251125E-04 -2.473259E-04 +7.942370E-05 -2.473259E-04 +6.117053E-06 +1.132719E-04 +7.942370E-05 +1.132719E-04 +5.184797E-03 
 -3.661439E-04 -2.281440E-04 +6.293310E-05 -2.281440E-04 +5.945823E-05 +9.938080E-05 +6.293310E-05 +9.938080E-05 +5.163302E-03 
 -4.015505E-04 -2.507606E-04 +5.788257E-05 -2.507606E-04 +1.105796E-04 +3.996414E-05 +5.788257E-05 +3.996414E-05 +5.157133E-03 
 -4.197153E-04 -3.318476E-04 +8.473771E-05 -3.318476E-04 +1.586385E-04 +4.328112E-05 +8.473771E-05 +4.328112E-05 +5.106778E-03 
 -2.035689E-04 -1.683272E-04 +5.096927E-05 -1.683272E-04 +1.059174E-04 -4.324983E-05 +5.096927E-05 -4.324983E-05 +5.002814E-03 
 +1.118753E-04 +1.588498E-04 +8.912621E-06 +1.588498E-04 -9.718912E-05 -2.012134E-04 +8.912621E-06 -2.012134E-04 +4.993038E-03 
 +7.161233E-05 +2.412677E-04 -1.097165E-07 +2.412677E-04 -2.728346E-04 -2.135032E-04 -1.097165E-07 -2.135032E-04 +5.109815E-03 
 +7.878238E-06 +3.357431E-04 +1.059617E-04 +3.357431E-04 -3.198984E-04 -1.823209E-04 +1.059617E-04 -1.823209E-04 +5.245351E-03 
 -3.924450E-05 +2.406759E-04 +4.937590E-05 +2.406759E-04 -2.437159E-04 -1.701350E-04 +4.937590E-05 -1.701350E-04 +5.288582E-03 
 +5.011724E-05 +1.751193E-04 +3.106316E-05 +1.751193E-04 -2.258022E-04 -1.016836E-04 +3.106316E-05 -1.016836E-04 +5.253124E-03 
 +1.332006E-04 +1.770099E-04 -1.055082E-05 +1.770099E-04 -1.589573E-04 -3.353477E-05 -1.055082E-05 -3.353477E-05 +5.236822E-03 
 +2.636854E-04 +5.141224E-06 +1.607514E-04 +5.141224E-06 -1.794433E-05 +2.063166E-06 +1.607514E-04 +2.063166E-06 +5.122716E-03 
 +3.797242E-04 -4.904652E-05 +8.758622E-05 -4.904652E-05 +7.048422E-05 +1.308462E-05 +8.758622E-05 +1.308462E-05 +4.969748E-03 
 +4.834210E-04 -1.439026E-04 +2.615597E-05 -1.439026E-04 +1.033284E-04 +6.638106E-05 +2.615597E-05 +6.638106E-05 +4.849237E-03 
 +4.158708E-04 -1.413020E-04 -4.227907E-05 -1.413020E-04 +1.595666E-04 +3.538805E-05 -4.227907E-05 +3.538805E-05 +4.883155E-03 
 +1.059559E-04 +1.729951E-05 -1.759532E-04 +1.729951E-05 +1.617130E-04 -2.567488E-05 -1.759532E-04 -2.567488E-05 +5.075769E-03 
 +8.792930E-05 +9.062126E-05 -1.082384E-04 +9.062126E-05 +1.149058E-04 -1.324258E-05 -1.082384E-04 -1.324258E-05 +5.109497E-03 
 +1.012139E-04 +2.086075E-04 -8.652248E-05 +2.086075E-04 +1.663340E-04 -7.047467E-05 -8.652248E-05 -7.047467E-05 +5.110028E-03 
 -1.989052E-04 -2.085475E-04 -2.157787E-05 -2.085475E-04 +5.172220E-05 -9.394520E-05 -2.157787E-05 -9.394520E-05 +5.182813E-03 
 -3.091477E-04 -3.336976E-04 -2.443548E-05 -3.336976E-04 -1.897497E-05 -2.897289E-05 -2.443548E-05 -2.897289E-05 +5.209079E-03 
 -2.809998E-04 -2.552831E-04 -1.714570E-05 -2.552831E-04 +2.844564E-05 +1.468456E-05 -1.714570E-05 +1.468456E-05 +5.194024E-03 
 -2.716425E-04 -1.835065E-04 +2.479940E-05 -1.835065E-04 +9.949117E-06 +6.210724E-05 +2.479940E-05 +6.210724E-05 +5.170407E-03 
 -3.092618E-04 -1.655408E-04 +1.089699E-05 -1.655408E-04 +8.295939E-05 +4.771673E-05 +1.089699E-05 +4.771673E-05 +5.165447E-03 
 -3.909476E-04 -2.212227E-04 -1.105766E-05 -2.212227E-04 +1.220295E-04 -1.022992E-06 -1.105766E-05 -1.022992E-06 +5.218381E-03 
 -1.956753E-04 -1.650013E-04 +6.969470E-06 -1.650013E-04 +7.784287E-05 -2.562840E-05 +6.969470E-06 -2.562840E-05 +5.131581E-03 
 -2.210060E-07 +1.496447E-04 -7.290263E-05 +1.496447E-04 +2.728778E-05 -9.912013E-05 -7.290263E-05 -9.912013E-05 +4.995452E-03 
 +3.444245E-05 +3.344257E-04 -1.040911E-04 +3.344257E-04 -5.039377E-05 -1.952432E-04 -1.040911E-04 -1.952432E-04 +5.022961E-03 
 -2.060150E-05 +2.833491E-04 -7.551460E-05 +2.833491E-04 -2.131476E-04 -2.548348E-04 -7.551460E-05 -2.548348E-04 +5.109252E-03 
 -3.921055E-05 +4.725608E-04 +8.902915E-05 +4.725608E-04 -2.854656E-04 -2.533743E-04 +8.902915E-05 -2.533743E-04 +5.230600E-03 
 +2.988252E-05 +2.888083E-04 +7.125935E-05 +2.888083E-04 -2.386457E-04 -1.631946E-04 +7.125935E-05 -1.631946E-04 +5.217027E-03 
 +3.880544E-05 +2.227593E-04 +8.709565E-05 +2.227593E-04 -2.013284E-04 -1.086905E-04 +8.709565E-05 -1.086905E-04 +5.220050E-03 
 +4.780466E-05 +2.734436E-04 +8.312356E-05 +2.734436E-04 -2.384449E-04 -1.939177E-05 +8.312356E-05 -1.939177E-05 +5.208184E-03 
 +1.292656E-04 +2.464782E-04 +1.476632E-04 +2.464782E-04 -2.869483E-04 +4.398147E-05 +1.476632E-04 +4.398147E-05 +5.152449E-03 
 +2.564340E-04 +1.716941E-04 +1.194615E-04 +1.716941E-04 -2.206854E-04 +4.134531E-05 +1.194615E-04 +4.134531E-05 +5.101732E-03 
 +3.699873E-04 -8.473242E-05 -1.525650E-05 -8.473242E-05 -2.310492E-04 +4.799445E-05 -1.525650E-05 +4.799445E-05 +5.082289E-03 
 +3.193713E-04 -1.408458E-04 -8.760026E-05 -1.408458E-04 -2.075453E-04 +5.541540E-05 -8.760026E-05 +5.541540E-05 +5.118488E-03 
 +1.636495E-04 -1.680209E-04 -1.237615E-04 -1.680209E-04 -1.441934E-04 +7.599638E-05 -1.237615E-04 +7.599638E-05 +5.168399E-03 
 +1.059583E-04 -1.451303E-04 -2.397740E-05 -1.451303E-04 -2.069634E-04 +7.595598E-05 -2.397740E-05 +7.595598E-05 +5.139885E-03 
 +4.961314E-05 +5.651971E-05 -9.880749E-05 +5.651971E-05 -2.074278E-04 -4.351840E-05 -9.880749E-05 -4.351840E-05 +5.148935E-03 
 -2.606496E-04 -2.174167E-04 -5.532913E-05 -2.174167E-04 +4.837952E-06 -1.262194E-04 -5.532913E-05 -1.262194E-04 +5.206269E-03 
 -2.352916E-04 -2.511154E-04 -2.428066E-05 -2.511154E-04 +4.505945E-05 -6.459563E-05 -2.428066E-05 -6.459563E-05 +5.222420E-03 
 -2.619841E-04 -2.081441E-04 -2.846396E-05 -2.081441E-04 -1.459762E-05 -1.288607E-05 -2.846396E-05 -1.288607E-05 +5.191425E-03 
 -2.827193E-04 -1.538979E-04 -2.589645E-05 -1.538979E-04 +5.141748E-05 +5.601505E-06 -2.589645E-05 +5.601505E-06 +5.141062E-03 
 -2.563343E-04 -1.287634E-04 -7.464717E-05 -1.287634E-04 +1.095655E-04 +5.082410E-05 -7.464717E-05 +5.082410E-05 +5.158465E-03 
 -1.208517E-04 -1.159277E-04 -4.986996E-05 -1.159277E-04 +1.336697E-04 +9.025019E-05 -4.986996E-05 +9.025019E-05 +5.189180E-03 
 +8.102271E-05 -6.449270E-05 -1.071507E-04 -6.449270E-05 +9.568029E-05 +1.315707E-04 -1.071507E-04 +1.315707E-04 +5.059270E-03 
 +2.363655E-05 +5.927404E-05 -1.271080E-04 +5.927404E-05 +1.713470E-04 +8.470568E-05 -1.271080E-04 +8.470568E-05 +4.917358E-03 
 -1.198612E-04 +9.620989E-05 -1.703850E-04 +9.620989E-05 +1.749233E-04 -4.064396E-05 -1.703850E-04 -4.064396E-05 +4.983471E-03 
 -9.950074E-05 +1.195515E-04 -1.395615E-04 +1.195515E-04 -5.750804E-05 -1.548181E-04 -1.395615E-04 -1.548181E-04 +5.103376E-03 
 +2.154063E-05 +4.873481E-04 +6.253321E-05 +4.873481E-04 -2.286023E-04 -2.026891E-04 +6.253321E-05 -2.026891E-04 +5.173221E-03 
 +8.020655E-05 +2.664509E-04 +2.553392E-05 +2.664509E-04 -2.243583E-04 -1.487906E-04 +2.553392E-05 -1.487906E-04 +5.192312E-03 
 +4.870991E-05 +2.098629E-04 +4.295143E-05 +2.098629E-04 -2.233234E-04 -1.209243E-04 +4.295143E-05 -1.209243E-04 +5.208144E-03 
 +5.313469E-05 +1.970300E-04 +6.143483E-05 +1.970300E-04 -2.481642E-04 -7.579801E-05 +6.143483E-05 -7.579801E-05 +5.216023E-03 
 +7.193118E-05 +1.897265E-04 +7.826822E-05 +1.897265E-04 -3.044341E-04 -8.141775E-06 +7.826822E-05 -8.141775E-06 +5.199940E-03 
 +1.196534E-04 +1.858931E-04 +9.899335E-05 +1.858931E-04 -3.390091E-04 +2.658802E-05 +9.899335E-05 +2.658802E-05 +5.163619E-03 
 +2.122685E-04 -4.340864E-05 +8.591041E-06 -4.340864E-05 -3.384874E-04 +4.787739E-05 +8.591041E-06 +4.787739E-05 +5.178169E-03 
 +1.645823E-04 +4.313897E-05 +1.784522E-05 +4.313897E-05 -3.697432E-04 +8.534583E-05 +1.784522E-05 +8.534583E-05 +5.212464E-03 
 +1.322509E-04 +2.211615E-05 +4.479680E-05 +2.211615E-05 -3.679372E-04 +9.948508E-05 +4.479680E-05 +9.948508E-05 +5.186876E-03 
 -2.130834E-06 -7.394756E-06 +7.604473E-05 -7.394756E-06 -2.672240E-04 +7.513664E-05 +7.604473E-05 +7.513664E-05 +5.167242E-03 
 +3.612354E-05 +7.692803E-05 -3.349907E-05 +7.692803E-05 -3.591588E-04 +1.994092E-06 -3.349907E-05 +1.994092E-06 +5.194984E-03 
 +2.266179E-05 +3.486092E-05 -1.239912E-04 +3.486092E-05 -3.229362E-04 -9.779338E-05 -1.239912E-04 -9.779338E-05 +5.219227E-03 
 -3.578449E-04 -2.353012E-04 -1.099231E-04 -2.353012E-04 -5.827761E-05 -8.447897E-05 -1.099231E-04 -8.447897E-05 +5.224578E-03 
 -3.495122E-04 -2.139326E-04 -7.218154E-05 -2.139326E-04 +3.816226E-05 -1.499471E-05 -7.218154E-05 -1.499471E-05 +5.177368E-03 
 -2.045898E-04 -1.782910E-04 -4.763781E-05 -1.782910E-04 +8.324163E-05 -1.096581E-05 -4.763781E-05 -1.096581E-05 +5.111711E-03 
 -2.874342E-05 -6.049002E-05 -6.192417E-05 -6.049002E-05 -6.647360E-05 +5.541615E-05 -6.192417E-05 +5.541615E-05 +5.095087E-03 
 +2.598812E-04 +2.140712E-05 +3.425549E-05 +2.140712E-05 -1.883875E-04 +1.408627E-04 +3.425549E-05 +1.408627E-04 +5.048163E-03 
 -3.954137E-07 +3.332347E-05 -5.836474E-05 +3.332347E-05 +4.592204E-05 +1.707920E-04 -5.836474E-05 +1.707920E-04 +4.953960E-03 
 -1.201395E-04 +1.042931E-04 -8.564090E-05 +1.042931E-04 +2.562781E-04 +9.194888E-05 -8.564090E-05 +9.194888E-05 +4.898456E-03 
 -1.461772E-04 +3.728750E-05 -1.277751E-04 +3.728750E-05 +2.122225E-04 +7.663778E-06 -1.277751E-04 +7.663778E-06 +4.947880E-03 
 -8.910103E-05 -1.982125E-05 -1.241653E-04 -1.982125E-05 +3.201168E-05 -6.465931E-05 -1.241653E-04 -6.465931E-05 +5.050445E-03 
 +9.715428E-05 +4.383821E-04 +3.611333E-05 +4.383821E-04 -1.569343E-04 -1.479032E-04 +3.611333E-05 -1.479032E-04 +5.136076E-03 
 +9.665136E-05 +2.737836E-04 +1.883594E-05 +2.737836E-04 -1.875744E-04 -9.064182E-05 +1.883594E-05 -9.064182E-05 +5.186964E-03 
 +7.328389E-05 +2.191695E-04 +3.906172E-05 +2.191695E-04 -2.232119E-04 -9.238897E-05 +3.906172E-05 -9.238897E-05 +5.204355E-03 
 +2.086567E-05 +1.899862E-04 +5.011385E-05 +1.899862E-04 -2.274749E-04 -7.348203E-05 +5.011385E-05 -7.348203E-05 +5.222035E-03 
 -1.057943E-06 +1.479611E-04 +8.019427E-05 +1.479611E-04 -2.713425E-04 -2.934265E-05 +8.019427E-05 -2.934265E-05 +5.221174E-03 
 +6.260943E-05 +1.663480E-04 +1.127981E-04 +1.663480E-04 -3.280215E-04 +3.610693E-05 +1.127981E-04 +3.610693E-05 +5.177990E-03 
 +1.317882E-04 -6.906667E-05 +3.431855E-05 -6.906667E-05 -3.709513E-04 +6.525895E-05 +3.431855E-05 +6.525895E-05 +5.174578E-03 
 +7.690260E-05 +1.446605E-05 +6.736249E-05 +1.446605E-05 -3.644587E-04 +7.551064E-05 +6.736249E-05 +7.551064E-05 +5.208602E-03 
 +5.275311E-06 -1.925875E-05 +6.206368E-05 -1.925875E-05 -3.135597E-04 +9.997924E-05 +6.206368E-05 +9.997924E-05 +5.202763E-03 
 -5.136022E-05 -2.810442E-06 +5.317701E-06 -2.810442E-06 -2.951483E-04 +8.402826E-05 +5.317701E-06 +8.402826E-05 +5.200704E-03 
 -1.299314E-05 +6.002831E-06 -5.797520E-05 +6.002831E-06 -3.387901E-04 +3.642776E-05 -5.797520E-05 +3.642776E-05 +5.217481E-03 
 +3.849399E-05 +2.702309E-05 -1.477457E-04 +2.702309E-05 -3.675158E-04 -5.198821E-05 -1.477457E-04 -5.198821E-05 +5.247183E-03 
 -3.653157E-04 -2.597348E-04 -1.033323E-04 -2.597348E-04 -1.418572E-04 -1.208459E-04 -1.033323E-04 -1.208459E-04 +5.265777E-03 
 -2.609170E-04 -2.000539E-04 -7.889950E-06 -2.000539E-04 -9.141806E-05 -8.685665E-05 -7.889950E-06 -8.685665E-05 +5.207960E-03 
 +4.294008E-05 +2.986399E-06 +2.689144E-05 +2.986399E-06 -3.695791E-04 -2.732642E-05 +2.689144E-05 -2.732642E-05 +5.133327E-03 
 +2.209791E-04 +6.055436E-05 +4.997312E-06 +6.055436E-05 -4.248968E-04 +1.590752E-05 +4.997312E-06 +1.590752E-05 +5.073598E-03 
 +3.281553E-04 +1.667069E-04 +4.943081E-05 +1.667069E-04 -1.514281E-04 +8.784477E-05 +4.943081E-05 +8.784477E-05 +4.991585E-03 
 -1.124653E-05 +2.138218E-04 -3.756653E-05 +2.138218E-04 +1.820116E-04 +1.747823E-04 -3.756653E-05 +1.747823E-04 +4.934402E-03 
 -1.686968E-04 +2.171093E-04 -1.381589E-04 +2.171093E-04 +2.761028E-04 +1.135354E-04 -1.381589E-04 +1.135354E-04 +4.944819E-03 
 -1.715482E-04 +1.372067E-04 -1.480800E-04 +1.372067E-04 +2.145240E-04 +3.506059E-06 -1.480800E-04 +3.506059E-06 +5.006575E-03 
 -1.209383E-04 +1.723675E-05 -1.448650E-04 +1.723675E-05 +8.626279E-05 -5.466342E-05 -1.448650E-04 -5.466342E-05 +5.068810E-03 
 +6.611814E-05 +4.358011E-04 +1.866602E-05 +4.358011E-04 -8.068444E-05 -8.992582E-05 +1.866602E-05 -8.992582E-05 +5.134884E-03 
 +1.263532E-04 +2.976661E-04 +3.872418E-06 +2.976661E-04 -1.989876E-04 -2.603825E-05 +3.872418E-06 -2.603825E-05 +5.179837E-03 
 +6.958143E-05 +2.893552E-04 +2.727349E-05 +2.893552E-04 -2.124218E-04 -4.632122E-05 +2.727349E-05 -4.632122E-05 +5.190844E-03 
 +1.189240E-05 +2.547433E-04 +3.607964E-05 +2.547433E-04 -1.897669E-04 -4.628080E-05 +3.607964E-05 -4.628080E-05 +5.196602E-03 
 -5.838617E-05 +2.058900E-04 +3.739497E-05 +2.058900E-04 -2.171516E-04 -3.840272E-05 +3.739497E-05 -3.840272E-05 +5.205930E-03 
 -5.030754E-05 +1.835291E-04 +4.604227E-05 +1.835291E-04 -3.594456E-04 -7.197035E-06 +4.604227E-05 -7.197035E-06 +5.214269E-03 
 +3.160433E-05 -1.979844E-05 +6.027589E-06 -1.979844E-05 -4.335536E-04 +3.479323E-06 +6.027589E-06 +3.479323E-06 +5.225659E-03 
 -1.414778E-05 +7.136770E-05 +4.770559E-05 +7.136770E-05 -4.150758E-04 +5.659236E-05 +4.770559E-05 +5.659236E-05 +5.224573E-03 
 -4.353711E-05 +1.232240E-04 +1.311809E-05 +1.232240E-04 -4.149968E-04 +1.256568E-04 +1.311809E-05 +1.256568E-04 +5.217183E-03 
 -3.716300E-05 +1.479086E-04 -4.718951E-05 +1.479086E-04 -4.110629E-04 +9.034654E-05 -4.718951E-05 +9.034654E-05 +5.221820E-03 
 -5.549716E-05 +1.166568E-04 -7.949862E-05 +1.166568E-04 -4.247382E-04 +2.727060E-05 -7.949862E-05 +2.727060E-05 +5.253734E-03 
 -1.101908E-04 +1.737678E-04 -7.502900E-05 +1.737678E-04 -5.414248E-04 -4.578156E-05 -7.502900E-05 -4.578156E-05 +5.362400E-03 
 -1.157055E-04 +1.375083E-04 +5.698530E-05 +1.375083E-04 -6.638790E-04 -1.416546E-04 +5.698530E-05 -1.416546E-04 +5.415629E-03 
 -4.512899E-05 -7.369614E-06 +1.517505E-04 -7.369614E-06 -6.091784E-04 -1.371704E-04 +1.517505E-04 -1.371704E-04 +5.295627E-03 
 +6.594028E-05 +1.878059E-05 +8.949076E-05 +1.878059E-05 -4.841870E-04 -1.242747E-05 +8.949076E-05 -1.242747E-05 +5.173417E-03 
 +1.592550E-04 -4.687776E-05 +3.662499E-05 -4.687776E-05 -3.628134E-04 +4.899924E-05 +3.662499E-05 +4.899924E-05 +5.093599E-03 
 +2.338243E-04 +4.230156E-05 -1.258697E-05 +4.230156E-05 -2.692719E-04 +5.227370E-05 -1.258697E-05 +5.227370E-05 +5.022883E-03 
 +2.207726E-04 +1.382252E-04 -5.757905E-05 +1.382252E-04 -7.548191E-05 +1.285172E-04 -5.757905E-05 +1.285172E-04 +5.009566E-03 
 -5.496082E-05 +1.606259E-04 -1.651287E-04 +1.606259E-04 +2.063819E-04 +1.642582E-04 -1.651287E-04 +1.642582E-04 +5.046190E-03 
 -1.858547E-04 +4.553901E-05 -2.198130E-04 +4.553901E-05 +2.822763E-04 +1.240036E-04 -2.198130E-04 +1.240036E-04 +5.123678E-03 
 -1.999811E-04 -1.294376E-04 -1.976965E-04 -1.294376E-04 +1.585384E-04 +6.267208E-05 -1.976965E-04 +6.267208E-05 +5.163177E-03 
 +5.164880E-05 +3.324950E-04 -9.505966E-06 +3.324950E-04 -4.070479E-05 +1.996228E-06 -9.505966E-06 +1.996228E-06 +5.163412E-03 
 +7.847080E-05 +4.092039E-04 -1.903671E-05 +4.092039E-04 -1.977364E-04 +4.031665E-05 -1.903671E-05 +4.031665E-05 +5.142940E-03 
 +6.058014E-05 +3.215915E-04 +5.244623E-06 +3.215915E-04 -1.584138E-04 +4.659667E-06 +5.244623E-06 +4.659667E-06 +5.146127E-03 
 +7.961707E-05 +3.289586E-04 +5.160820E-06 +3.289586E-04 -2.039626E-04 -4.952256E-06 +5.160820E-06 -4.952256E-06 +5.151414E-03 
 +2.825224E-05 +3.641701E-04 -2.400783E-05 +3.641701E-04 -1.742610E-04 -1.235405E-05 -2.400783E-05 -1.235405E-05 +5.168345E-03 
 -2.478385E-04 +2.441694E-04 +2.184296E-06 +2.441694E-04 -3.041101E-04 -3.307015E-05 +2.184296E-06 -3.307015E-05 +5.220327E-03 
 -2.063318E-04 +1.252808E-04 +1.800722E-05 +1.252808E-04 -4.646118E-04 -2.244065E-05 +1.800722E-05 -2.244065E-05 +5.250619E-03 
 -1.709660E-04 +8.101711E-05 +3.366384E-05 +8.101711E-05 -4.564803E-04 +7.182144E-05 +3.366384E-05 +7.182144E-05 +5.220709E-03 
 -5.029658E-05 +5.375395E-05 +1.149138E-05 +5.375395E-05 -4.712502E-04 +1.460797E-04 +1.149138E-05 +1.460797E-04 +5.187876E-03 
 -8.318598E-07 +7.112747E-05 +6.037835E-06 +7.112747E-05 -4.869171E-04 +1.072192E-04 +6.037835E-06 +1.072192E-04 +5.221172E-03 
 -1.307655E-05 +1.214148E-04 +3.297569E-05 +1.214148E-04 -4.915947E-04 +4.363266E-05 +3.297569E-05 +4.363266E-05 +5.247454E-03 
 -3.499181E-05 +1.806811E-04 +1.732840E-05 +1.806811E-04 -5.615491E-04 -3.462171E-05 +1.732840E-05 -3.462171E-05 +5.346928E-03 
 -1.279095E-04 +1.101319E-04 +1.238526E-04 +1.101319E-04 -6.364086E-04 -1.296073E-04 +1.238526E-04 -1.296073E-04 +5.476544E-03 
 -7.417581E-05 -1.246115E-04 +1.396339E-04 -1.246115E-04 -5.023264E-04 -1.332028E-04 +1.396339E-04 -1.332028E-04 +5.353596E-03 
 +1.070116E-05 -9.190315E-05 +6.820447E-05 -9.190315E-05 -2.800588E-04 -2.674693E-05 +6.820447E-05 -2.674693E-05 +5.181129E-03 
 +1.688325E-05 -3.670896E-05 +1.044040E-04 -3.670896E-05 -1.370324E-04 +6.902237E-05 +1.044040E-04 +6.902237E-05 +5.085940E-03 
 +1.343665E-04 +3.945509E-05 +4.273062E-05 +3.945509E-05 -8.723338E-05 +1.062867E-04 +4.273062E-05 +1.062867E-04 +5.011861E-03 
 +3.232947E-04 +5.949267E-05 -1.469790E-05 +5.949267E-05 -1.916684E-04 +6.711025E-05 -1.469790E-05 +6.711025E-05 +5.037819E-03 
 +2.372198E-04 +7.926628E-05 -3.354579E-05 +7.926628E-05 -1.685405E-04 +3.543123E-05 -3.354579E-05 +3.543123E-05 +5.114486E-03 
 -3.047952E-05 +7.317792E-06 -1.372380E-04 +7.317792E-06 +7.406203E-05 +1.037533E-04 -1.372380E-04 +1.037533E-04 +5.170683E-03 
 -6.290699E-05 -3.085405E-05 -1.830802E-04 -3.085405E-05 +2.281036E-04 +1.509175E-04 -1.830802E-04 +1.509175E-04 +5.175087E-03 
 +5.046156E-05 +3.202380E-04 -4.411278E-05 +3.202380E-04 -1.484654E-05 +1.046380E-04 -4.411278E-05 +1.046380E-04 +5.155562E-03 
 +1.886027E-04 +3.432192E-04 -5.057903E-05 +3.432192E-04 -1.617610E-04 +9.202714E-05 -5.057903E-05 +9.202714E-05 +5.102823E-03 
 +1.457246E-04 +4.458665E-04 -7.429999E-06 +4.458665E-04 -1.789800E-04 +4.550808E-05 -7.429999E-06 +4.550808E-05 +5.101391E-03 
 +4.795423E-05 +3.778634E-04 +1.302258E-05 +3.778634E-04 -1.542797E-04 +2.603131E-05 +1.302258E-05 +2.603131E-05 +5.079265E-03 
 -1.074181E-04 +2.708802E-04 +2.536872E-05 +2.708802E-04 -8.624189E-05 +1.037558E-05 +2.536872E-05 +1.037558E-05 +5.109258E-03 
 -4.741631E-04 -1.077223E-04 +5.495435E-05 -1.077223E-04 +1.597990E-04 +1.302004E-05 +5.495435E-05 +1.302004E-05 +5.154178E-03 
 -4.184976E-04 -1.609162E-04 +4.648105E-05 -1.609162E-04 +2.408570E-04 +4.971378E-05 +4.648105E-05 +4.971378E-05 +5.159350E-03 
 -2.664321E-04 -1.115111E-04 +4.450004E-05 -1.115111E-04 +2.450153E-05 +6.403583E-05 +4.450004E-05 +6.403583E-05 +5.129622E-03 
 -3.396239E-05 +5.729746E-06 +4.644368E-05 +5.729746E-06 -2.520329E-04 +8.327236E-05 +4.644368E-05 +8.327236E-05 +5.112226E-03 
 -3.214800E-06 +5.324469E-05 +8.437861E-05 +5.324469E-05 -4.232060E-04 +9.623595E-05 +8.437861E-05 +9.623595E-05 +5.203207E-03 
 +2.039354E-05 +8.052228E-05 +1.563628E-04 +8.052228E-05 -3.727666E-04 +2.801554E-05 +1.563628E-04 +2.801554E-05 +5.229939E-03 
 -1.146112E-04 -5.284572E-05 +1.111246E-04 -5.284572E-05 -1.411452E-04 -4.082687E-05 +1.111246E-04 -4.082687E-05 +5.214602E-03 
 -3.373603E-04 -2.424855E-04 +1.366361E-04 -2.424855E-04 -6.593286E-05 -5.807255E-05 +1.366361E-04 -5.807255E-05 +5.284490E-03 
 -7.842787E-05 -3.180176E-04 +4.608989E-05 -3.180176E-04 -2.293417E-04 -1.027903E-04 +4.608989E-05 -1.027903E-04 +5.186810E-03 
 +7.794341E-05 -1.942382E-04 -2.016065E-05 -1.942382E-04 -2.801821E-04 -1.089207E-04 -2.016065E-05 -1.089207E-04 +5.050556E-03 
 +9.702418E-05 -7.954064E-05 +6.793637E-05 -7.954064E-05 -1.051763E-04 +5.202018E-06 +6.793637E-05 +5.202018E-06 +5.027008E-03 
 +9.519660E-05 -1.551251E-05 +9.907919E-05 -1.551251E-05 -3.311332E-05 +8.529401E-05 +9.907919E-05 +8.529401E-05 +4.997022E-03 
 +2.300623E-04 +1.568439E-05 +4.273163E-05 +1.568439E-05 -7.989387E-05 -1.691574E-05 +4.273163E-05 -1.691574E-05 +4.999821E-03 
 +3.168297E-04 -1.302260E-05 -1.303852E-05 -1.302260E-05 -1.577303E-04 -8.525616E-05 -1.303852E-05 -8.525616E-05 +5.057771E-03 
 +2.431199E-04 -2.107599E-04 -9.982473E-05 -2.107599E-04 -2.332648E-04 -2.615081E-05 -9.982473E-05 -2.615081E-05 +5.111201E-03 
 +1.946775E-04 -3.082847E-04 -1.482140E-04 -3.082847E-04 -8.690319E-05 +5.377710E-05 -1.482140E-04 +5.377710E-05 +5.119210E-03 
 +1.765661E-04 -1.457313E-04 -6.977458E-05 -1.457313E-04 -1.663264E-06 +1.111634E-04 -6.977458E-05 +1.111634E-04 +5.099683E-03 
 +3.503031E-04 -1.730207E-04 -1.000631E-04 -1.730207E-04 -9.733817E-05 +1.423374E-04 -1.000631E-04 +1.423374E-04 +5.008047E-03 
 +3.434543E-04 +1.509593E-04 +3.864355E-05 +1.509593E-04 -5.721993E-05 +5.372779E-05 +3.864355E-05 +5.372779E-05 +4.999689E-03 
 -1.622327E-04 -3.703952E-05 +1.190456E-04 -3.703952E-05 +3.181483E-04 -2.178634E-05 +1.190456E-04 -2.178634E-05 +4.992954E-03 
 -3.862381E-04 -1.081767E-04 +1.106091E-04 -1.081767E-04 +3.157418E-04 +1.407964E-06 +1.106091E-04 +1.407964E-06 +5.040592E-03 
 -4.704896E-04 -1.862239E-04 +7.933672E-05 -1.862239E-04 +2.226966E-04 +4.921180E-05 +7.933672E-05 +4.921180E-05 +5.076915E-03 
 -3.968324E-04 -1.897662E-04 +7.543421E-05 -1.897662E-04 +2.540948E-04 +5.440262E-05 +7.543421E-05 +5.440262E-05 +5.065635E-03 
 -2.612250E-04 -1.797078E-04 +8.609473E-05 -1.797078E-04 +2.527653E-04 +1.484512E-05 +8.609473E-05 +1.484512E-05 +5.028718E-03 
 -1.096659E-04 -1.667946E-04 +7.771291E-05 -1.667946E-04 +2.406012E-04 +3.762092E-05 +7.771291E-05 +3.762092E-05 +5.019483E-03 
 -1.773205E-04 -2.278423E-04 +9.419498E-05 -2.278423E-04 +1.971320E-04 +9.857845E-05 +9.419498E-05 +9.857845E-05 +5.101368E-03 
 -1.394289E-04 -2.191691E-04 +1.255424E-04 -2.191691E-04 +8.812175E-05 +1.134345E-04 +1.255424E-04 +1.134345E-04 +5.163084E-03 
 -1.609404E-04 -2.140536E-04 +9.901948E-05 -2.140536E-04 +1.559307E-05 +5.338539E-05 +9.901948E-05 +5.338539E-05 +5.092040E-03 
 -1.236214E-04 -1.759188E-04 +8.362349E-05 -1.759188E-04 +7.329304E-05 -7.904306E-05 +8.362349E-05 -7.904306E-05 +4.978537E-03 
 -3.303287E-05 -1.529693E-04 +1.618530E-05 -1.529693E-04 +2.027805E-04 -2.261157E-04 +1.618530E-05 -2.261157E-04 +4.852082E-03 
 -3.548908E-05 -1.437168E-04 -4.825702E-05 -1.437168E-04 +1.455729E-04 -2.562610E-04 -4.825702E-05 -2.562610E-04 +4.812301E-03 
 +1.694437E-04 -1.303695E-04 -8.514788E-06 -1.303695E-04 -9.549967E-05 -1.371591E-04 -8.514788E-06 -1.371591E-04 +4.916226E-03 
 +2.210668E-04 -6.531731E-05 +1.104350E-04 -6.531731E-05 -1.123515E-04 -1.200467E-05 +1.104350E-04 -1.200467E-05 +4.960856E-03 
 +2.276229E-04 +1.109612E-04 +9.270488E-05 +1.109612E-04 +1.398368E-04 -5.690223E-05 +9.270488E-05 -5.690223E-05 +4.912738E-03 
 +1.927469E-04 -5.054636E-05 -6.683546E-05 -5.054636E-05 +1.336358E-04 -4.428870E-05 -6.683546E-05 -4.428870E-05 +4.917846E-03 
 +3.481775E-04 -1.854024E-04 -1.176545E-04 -1.854024E-04 -9.988047E-05 +6.180844E-05 -1.176545E-04 +6.180844E-05 +4.983952E-03 
 +3.051026E-04 -2.341863E-04 -9.049878E-05 -2.341863E-04 -1.477028E-04 +1.069304E-04 -9.049878E-05 +1.069304E-04 +5.031517E-03 
 +2.984236E-04 -2.733349E-04 -5.383156E-05 -2.733349E-04 -1.098657E-05 +1.445941E-04 -5.383156E-05 +1.445941E-04 +5.018122E-03 
 +2.598267E-04 -2.040362E-04 -8.769020E-05 -2.040362E-04 +1.053827E-04 +1.382924E-04 -8.769020E-05 +1.382924E-04 +4.914186E-03 
 +3.245277E-04 +1.441448E-04 +1.008465E-04 +1.441448E-04 +2.169463E-04 +4.953121E-05 +1.008465E-04 +4.953121E-05 +4.807721E-03 
 -5.982802E-05 -1.598171E-05 +1.611012E-04 -1.598171E-05 +2.957232E-04 -6.499974E-05 +1.611012E-04 -6.499974E-05 +4.848737E-03 
 -4.353453E-04 -8.015188E-05 +9.473739E-05 -8.015188E-05 +3.500141E-04 -1.972789E-05 +9.473739E-05 -1.972789E-05 +4.969035E-03 
 -3.921384E-04 -1.338124E-04 +5.222827E-05 -1.338124E-04 +2.964549E-04 +2.592961E-05 +5.222827E-05 +2.592961E-05 +5.016649E-03 
 -3.485524E-04 -2.453982E-04 +6.450419E-05 -2.453982E-04 +2.865362E-04 +4.418006E-06 +6.450419E-05 +4.418006E-06 +5.008859E-03 
 -3.146770E-04 -2.707099E-04 +6.015391E-05 -2.707099E-04 +3.041607E-04 -1.458351E-05 +6.015391E-05 -1.458351E-05 +4.985921E-03 
 -2.775553E-04 -2.339898E-04 +3.352496E-05 -2.339898E-04 +2.760442E-04 -1.275431E-05 +3.352496E-05 -1.275431E-05 +4.985125E-03 
 -2.881719E-04 -1.608729E-04 +1.273597E-05 -1.608729E-04 +2.751826E-04 +2.497207E-05 +1.273597E-05 +2.497207E-05 +5.009628E-03 
 -3.089559E-04 -1.369685E-04 +2.699799E-05 -1.369685E-04 +2.037728E-04 +8.763989E-05 +2.699799E-05 +8.763989E-05 +4.997033E-03 
 +4.733604E-05 +1.577080E-05 -2.309444E-05 +1.577080E-05 +1.453765E-04 +5.503377E-05 -2.309444E-05 +5.503377E-05 +4.896227E-03 
 +1.080573E-04 -1.040602E-04 -2.554068E-05 -1.040602E-04 +1.772127E-04 -2.494327E-05 -2.554068E-05 -2.494327E-05 +4.801717E-03 
 +1.882192E-05 -1.603024E-04 -3.810870E-05 -1.603024E-04 +1.852915E-04 -9.463253E-05 -3.810870E-05 -9.463253E-05 +4.757674E-03 
 -2.116213E-06 -1.000978E-04 -3.874459E-05 -1.000978E-04 +1.879120E-04 -2.088754E-04 -3.874459E-05 -2.088754E-04 +4.753246E-03 
 +1.742113E-04 +9.165873E-05 -2.587092E-05 +9.165873E-05 +1.268351E-04 -2.466795E-04 -2.587092E-05 -2.466795E-04 +4.789831E-03 
 +2.492256E-04 +1.924338E-04 +6.860742E-05 +1.924338E-04 +3.403133E-05 -1.337744E-04 +6.860742E-05 -1.337744E-04 +4.841191E-03 
 +2.512509E-04 +3.567720E-04 +6.767704E-05 +3.567720E-04 +9.880321E-05 -6.289770E-05 +6.767704E-05 -6.289770E-05 +4.843201E-03 
 +1.750070E-04 -7.433076E-05 -4.734891E-05 -7.433076E-05 +1.122415E-04 +5.250477E-05 -4.734891E-05 +5.250477E-05 +4.834113E-03 
 +2.981668E-04 -1.394918E-04 -7.436479E-05 -1.394918E-04 -4.528424E-05 +1.403720E-04 -7.436479E-05 +1.403720E-04 +4.898558E-03 
 +2.737359E-04 -1.772227E-04 -5.615213E-05 -1.772227E-04 -6.566710E-05 +1.216480E-04 -5.615213E-05 +1.216480E-04 +4.951983E-03 
 +2.470376E-04 -1.923792E-04 -6.690476E-05 -1.923792E-04 -1.787053E-05 +1.314522E-04 -6.690476E-05 +1.314522E-04 +4.971461E-03 
 +2.110899E-04 -6.540938E-05 -8.616790E-05 -6.540938E-05 +1.444597E-04 +1.285615E-04 -8.616790E-05 +1.285615E-04 +4.875051E-03 
 +2.545166E-04 +3.246340E-04 +9.690024E-05 +3.246340E-04 +2.438609E-04 +4.268898E-05 +9.690024E-05 +4.268898E-05 +4.690139E-03 
 +5.518543E-05 +1.587080E-04 +1.276326E-04 +1.587080E-04 +2.974785E-04 -7.621545E-05 +1.276326E-04 -7.621545E-05 +4.737492E-03 
 -4.628506E-04 -1.383176E-04 +4.458796E-06 -1.383176E-04 +3.744600E-04 -6.325311E-05 +4.458796E-06 -6.325311E-05 +4.923900E-03 
 -4.116795E-04 -1.952236E-04 -1.411818E-05 -1.952236E-04 +3.903419E-04 +2.352228E-06 -1.411818E-05 +2.352228E-06 +4.980004E-03 
 -3.500615E-04 -2.492584E-04 +3.094211E-05 -2.492584E-04 +3.597583E-04 -1.291984E-06 +3.094211E-05 -1.291984E-06 +4.966708E-03 
 -3.390267E-04 -2.580006E-04 +3.112988E-05 -2.580006E-04 +3.365512E-04 -1.889649E-05 +3.112988E-05 -1.889649E-05 +4.957492E-03 
 -3.540164E-04 -2.212202E-04 +1.013517E-05 -2.212202E-04 +3.258104E-04 -2.236090E-05 +1.013517E-05 -2.236090E-05 +4.961845E-03 
 -3.405694E-04 -1.838226E-04 +2.746974E-05 -1.838226E-04 +2.660375E-04 +3.537278E-05 +2.746974E-05 +3.537278E-05 +4.953981E-03 
 -2.047656E-04 -1.025312E-04 -7.034499E-06 -1.025312E-04 +2.729529E-04 +8.559998E-05 -7.034499E-06 +8.559998E-05 +4.869859E-03 
 +1.954237E-04 +1.169440E-04 -8.341570E-05 +1.169440E-04 +2.456605E-04 +5.175665E-05 -8.341570E-05 +5.175665E-05 +4.788112E-03 
 +1.519633E-04 +5.514416E-05 -3.857657E-05 +5.514416E-05 +1.708695E-04 -2.152465E-05 -3.857657E-05 -2.152465E-05 +4.771933E-03 
 +1.091155E-04 +2.050750E-05 -4.186297E-05 +2.050750E-05 +1.541418E-04 -1.160347E-04 -4.186297E-05 -1.160347E-04 +4.763504E-03 
 +1.256435E-04 -3.040684E-05 -2.459108E-05 -3.040684E-05 +1.162621E-04 -2.010611E-04 -2.459108E-05 -2.010611E-04 +4.735623E-03 
 +1.634615E-04 -4.213169E-06 -2.208047E-05 -4.213169E-06 +8.343599E-05 -1.703280E-04 -2.208047E-05 -1.703280E-04 +4.695465E-03 
 +1.514238E-04 +8.598110E-05 -8.022473E-07 +8.598110E-05 +2.844844E-05 -9.274520E-05 -8.022473E-07 -9.274520E-05 +4.744200E-03 
 +1.935270E-04 +3.423894E-04 -5.969181E-05 +3.423894E-04 -5.132744E-05 -9.503530E-05 -5.969181E-05 -9.503530E-05 +4.824560E-03 
 +2.097577E-04 -1.741469E-04 -7.825977E-05 -1.741469E-04 -8.366501E-05 +3.815372E-05 -7.825977E-05 +3.815372E-05 +4.843077E-03 
 +2.094945E-04 -2.071842E-04 -3.526786E-05 -2.071842E-04 -3.819703E-05 +1.494020E-04 -3.526786E-05 +1.494020E-04 +4.872805E-03 
 +2.029857E-04 -1.761639E-04 -3.466500E-05 -1.761639E-04 -2.545144E-05 +1.150506E-04 -3.466500E-05 +1.150506E-04 +4.895851E-03 
 +2.292330E-04 -1.659238E-04 -8.981916E-05 -1.659238E-04 +8.534381E-06 +1.343315E-04 -8.981916E-05 +1.343315E-04 +4.943030E-03 
 +2.066038E-04 -1.088234E-04 -8.449622E-05 -1.088234E-04 +1.064011E-05 +4.132181E-05 -8.449622E-05 +4.132181E-05 +4.857042E-03 
 +2.839206E-04 +2.411036E-04 +8.238715E-05 +2.411036E-04 +2.497979E-04 -1.755961E-05 +8.238715E-05 -1.755961E-05 +4.713256E-03 
 -8.593843E-05 +1.851202E-06 +5.264440E-05 +1.851202E-06 +4.713563E-04 -9.469484E-05 +5.264440E-05 -9.469484E-05 +4.798545E-03 
 -4.248767E-04 -2.778477E-04 -1.168880E-04 -2.778477E-04 +4.285373E-04 -1.020321E-04 -1.168880E-04 -1.020321E-04 +4.952982E-03 
 -3.616282E-04 -2.780632E-04 -8.811117E-05 -2.780632E-04 +3.471617E-04 -3.612279E-05 -8.811117E-05 -3.612279E-05 +4.982288E-03 
 -2.689777E-04 -2.990498E-04 +6.832670E-06 -2.990498E-04 +3.159571E-04 -1.136539E-05 +6.832670E-06 -1.136539E-05 +4.960131E-03 
 -3.209792E-04 -2.475584E-04 +2.079604E-05 -2.475584E-04 +3.001431E-04 -6.607870E-06 +2.079604E-05 -6.607870E-06 +4.949308E-03 
 -3.806457E-04 -1.614982E-04 +2.106756E-05 -1.614982E-04 +3.401691E-04 +5.743610E-06 +2.106756E-05 +5.743610E-06 +4.942321E-03 
 -3.825777E-04 -1.530427E-04 +6.023042E-05 -1.530427E-04 +2.679818E-04 -1.500944E-06 +6.023042E-05 -1.500944E-06 +4.897270E-03 
 +7.420139E-05 +1.027904E-04 -2.753416E-05 +1.027904E-04 +2.222219E-04 -5.323350E-05 -2.753416E-05 -5.323350E-05 +4.800007E-03 
 +2.089705E-04 +1.234950E-04 -3.992441E-05 +1.234950E-04 +2.064652E-04 -5.235922E-05 -3.992441E-05 -5.235922E-05 +4.769619E-03 
 +1.984846E-04 +5.941416E-05 -2.841069E-05 +5.941416E-05 +1.346211E-04 -1.062571E-05 -2.841069E-05 -1.062571E-05 +4.760721E-03 
 +1.288247E-04 -7.017835E-05 -4.377904E-05 -7.017835E-05 +1.349966E-04 -8.210602E-05 -4.377904E-05 -8.210602E-05 +4.736907E-03 
 +7.175639E-05 -9.964386E-05 -4.541880E-05 -9.964386E-05 +1.772285E-04 -1.546793E-04 -4.541880E-05 -1.546793E-04 +4.719359E-03 
 +6.034322E-05 -1.423125E-04 -7.050734E-05 -1.423125E-04 +1.510088E-04 -1.305645E-04 -7.050734E-05 -1.305645E-04 +4.712408E-03 
 +1.215109E-04 -2.079291E-05 -1.074119E-04 -2.079291E-05 +7.192936E-05 -1.394115E-04 -1.074119E-04 -1.394115E-04 +4.726773E-03 
 +1.655571E-04 +1.878246E-04 -1.705192E-04 +1.878246E-04 -5.809081E-05 -1.956846E-04 -1.705192E-04 -1.956846E-04 +4.789208E-03 
 +2.356974E-04 -1.896245E-04 -9.001860E-05 -1.896245E-04 -1.543114E-04 -5.167686E-05 -9.001860E-05 -5.167686E-05 +4.898373E-03 
 +1.365289E-04 -2.126849E-04 -3.933773E-05 -2.126849E-04 -7.132092E-05 +1.055440E-04 -3.933773E-05 +1.055440E-04 +4.926705E-03 
 +1.421861E-04 -2.647278E-04 -1.998975E-05 -2.647278E-04 -3.710999E-05 +9.082583E-05 -1.998975E-05 +9.082583E-05 +4.910421E-03 
 +1.909695E-04 -2.261000E-04 -6.426602E-05 -2.261000E-04 -4.974027E-05 +8.139078E-05 -6.426602E-05 +8.139078E-05 +4.941889E-03 
 +8.583546E-05 -9.086827E-05 -4.230488E-05 -9.086827E-05 +8.473232E-06 -2.235963E-05 -4.230488E-05 -2.235963E-05 +4.951445E-03 
 +2.059721E-04 +1.376671E-04 +4.848857E-05 +1.376671E-04 +1.860523E-04 -1.155184E-04 +4.848857E-05 -1.155184E-04 +4.850052E-03 
 +1.262778E-04 +6.720956E-05 -3.441248E-05 +6.720956E-05 +2.900939E-04 -1.625286E-04 -3.441248E-05 -1.625286E-04 +4.906817E-03 
 -4.054913E-04 -2.805801E-04 -1.861939E-04 -2.805801E-04 +4.082742E-04 -1.232282E-04 -1.861939E-04 -1.232282E-04 +4.998914E-03 
 -3.567465E-04 -3.367466E-04 -1.362747E-04 -3.367466E-04 +2.937655E-04 -6.422754E-05 -1.362747E-04 -6.422754E-05 +5.008658E-03 
 -1.447552E-04 -3.945417E-04 -3.301862E-05 -3.945417E-04 +1.851911E-04 -4.672549E-05 -3.301862E-05 -4.672549E-05 +4.963170E-03 
 -2.165247E-04 -2.633184E-04 -1.772870E-06 -2.633184E-04 +1.834342E-04 -9.562195E-06 -1.772870E-06 -9.562195E-06 +4.947942E-03 
 -3.278212E-04 -1.122580E-04 +3.810079E-05 -1.122580E-04 +2.705676E-04 +3.947616E-05 +3.810079E-05 +3.947616E-05 +4.962548E-03 
 -3.736420E-04 -1.902017E-04 +4.366060E-05 -1.902017E-04 +3.327519E-04 +4.775955E-05 +4.366060E-05 +4.775955E-05 +4.934687E-03 
 +1.898495E-04 +1.571461E-05 -5.199173E-05 +1.571461E-05 +2.758674E-04 -3.214152E-05 -5.199173E-05 -3.214152E-05 +4.862564E-03 
 +2.430660E-04 -3.062851E-05 -2.209872E-05 -3.062851E-05 +1.657756E-04 -1.008242E-04 -2.209872E-05 -1.008242E-04 +4.835495E-03 
 +2.032595E-04 +4.057453E-05 -5.770298E-05 +4.057453E-05 +1.136678E-04 -5.257513E-05 -5.770298E-05 -5.257513E-05 +4.791474E-03 
 +1.213161E-04 -4.700798E-05 -7.497974E-05 -4.700798E-05 +1.093849E-04 -4.034949E-05 -7.497974E-05 -4.034949E-05 +4.752286E-03 
 +8.813239E-05 -8.613672E-06 -1.150671E-04 -8.613672E-06 +1.413636E-04 -7.943010E-05 -1.150671E-04 -7.943010E-05 +4.712405E-03 
 +1.868294E-05 -2.392649E-05 -1.569911E-04 -2.392649E-05 +2.260946E-04 -1.158517E-04 -1.569911E-04 -1.158517E-04 +4.730230E-03 
 +3.113940E-05 +7.388708E-05 -1.767710E-04 +7.388708E-05 +2.382054E-04 -1.376630E-04 -1.767710E-04 -1.376630E-04 +4.795062E-03 
 +1.273448E-04 +6.582739E-05 -1.842652E-04 +6.582739E-05 -6.695623E-05 -1.240164E-04 -1.842652E-04 -1.240164E-04 +4.868633E-03 
 +1.473298E-04 -1.558739E-04 -3.854319E-05 -1.558739E-04 -2.312409E-04 -1.764462E-05 -3.854319E-05 -1.764462E-05 +4.976406E-03 
 +1.114947E-04 -2.122942E-04 -2.529024E-05 -2.122942E-04 -9.780019E-05 +6.362174E-05 -2.529024E-05 +6.362174E-05 +4.979716E-03 
 +6.944118E-05 -2.792517E-04 -2.493365E-06 -2.792517E-04 -4.651701E-05 +4.048473E-05 -2.493365E-06 +4.048473E-05 +4.954132E-03 
 +5.590266E-05 -3.127647E-04 -3.793951E-05 -3.127647E-04 -1.335570E-04 +3.579013E-05 -3.793951E-05 +3.579013E-05 +4.998989E-03 
 +9.274005E-06 +4.200937E-04 +5.157000E-06 +4.200937E-04 +1.373649E-06 -2.712136E-05 +5.157000E-06 -2.712136E-05 +5.014219E-03 
 +5.823866E-05 +4.098836E-04 -1.254787E-05 +4.098836E-04 +1.299743E-05 -1.208443E-04 -1.254787E-05 -1.208443E-04 +5.002819E-03 
 +1.253640E-04 +2.743809E-04 -1.182416E-04 +2.743809E-04 -1.532659E-05 -1.834616E-04 -1.182416E-04 -1.834616E-04 +5.034526E-03 
 -2.996522E-04 -2.682979E-04 -2.065335E-04 -2.682979E-04 +2.835083E-04 -1.324677E-04 -2.065335E-04 -1.324677E-04 +5.070517E-03 
 -3.332996E-04 -4.067570E-04 -1.671792E-04 -4.067570E-04 +3.055367E-04 -5.787214E-05 -1.671792E-04 -5.787214E-05 +5.063287E-03 
 -1.541830E-04 -3.802096E-04 -9.036777E-05 -3.802096E-04 +9.416263E-05 -4.792292E-05 -9.036777E-05 -4.792292E-05 +5.004554E-03 
 -2.022596E-04 -3.450206E-04 -7.195796E-05 -3.450206E-04 +5.515896E-05 -2.681532E-05 -7.195796E-05 -2.681532E-05 +4.951200E-03 
 -2.860533E-04 -2.060109E-04 +5.622209E-06 -2.060109E-04 +1.808940E-04 -7.237668E-06 +5.622209E-06 -7.237668E-06 +4.972139E-03 
 -1.751685E-04 -2.375343E-04 +4.952018E-05 -2.375343E-04 +4.174470E-04 -2.801369E-05 +4.952018E-05 -2.801369E-05 +4.957114E-03 
 +2.485188E-04 -3.661875E-05 -4.663352E-05 -3.661875E-05 +3.651185E-04 -1.195314E-04 -4.663352E-05 -1.195314E-04 +4.827337E-03 
 +2.901412E-04 -1.224866E-05 -1.361427E-05 -1.224866E-05 +1.981104E-04 -1.607410E-04 -1.361427E-05 -1.607410E-04 +4.806598E-03 
 +2.210870E-04 -1.575047E-05 -7.015784E-05 -1.575047E-05 +1.177394E-04 -7.451819E-05 -7.015784E-05 -7.451819E-05 +4.847841E-03 
 +1.353736E-04 -7.878337E-05 -9.582081E-05 -7.878337E-05 +6.311586E-05 -2.639124E-05 -9.582081E-05 -2.639124E-05 +4.812325E-03 
 +1.672022E-04 -2.817171E-05 -1.459564E-04 -2.817171E-05 +6.854352E-05 -5.141077E-05 -1.459564E-04 -5.141077E-05 +4.757934E-03 
 +1.382685E-04 +7.434729E-05 -2.063521E-04 +7.434729E-05 +1.792072E-04 -8.916906E-05 -2.063521E-04 -8.916906E-05 +4.813089E-03 
 +7.796915E-05 +1.840091E-04 -2.087835E-04 +1.840091E-04 +2.321446E-04 -1.013004E-04 -2.087835E-04 -1.013004E-04 +4.935786E-03 
 +5.297005E-05 +1.539474E-04 -1.577301E-04 +1.539474E-04 +6.993472E-05 -4.092147E-05 -1.577301E-04 -4.092147E-05 +4.996907E-03 
 -1.607529E-04 +1.853073E-04 -2.542335E-06 +1.853073E-04 +8.715752E-05 +4.188644E-05 -2.542335E-06 +4.188644E-05 +4.997058E-03 
 +5.304640E-05 -1.056519E-04 -2.006387E-05 -1.056519E-04 +1.206008E-04 +6.584947E-05 -2.006387E-05 +6.584947E-05 +4.956473E-03 
 +3.941181E-05 -1.739593E-04 +1.687202E-05 -1.739593E-04 +4.259239E-05 +5.432894E-05 +1.687202E-05 +5.432894E-05 +4.954022E-03 
 -5.445077E-06 -2.169010E-04 +9.987473E-06 -2.169010E-04 -3.337776E-05 +4.250115E-05 +9.987473E-06 +4.250115E-05 +5.002715E-03 
 -2.220037E-05 +4.259200E-04 +5.071756E-05 +4.259200E-04 +3.002777E-05 -5.720712E-05 +5.071756E-05 -5.720712E-05 +5.054793E-03 
 -1.088785E-04 +2.924002E-04 -3.830646E-05 +2.924002E-04 +7.895462E-05 -1.092571E-04 -3.830646E-05 -1.092571E-04 +5.109949E-03 
 -1.159487E-04 +3.031568E-04 -1.636463E-04 +3.031568E-04 -4.617170E-05 -1.490947E-04 -1.636463E-04 -1.490947E-04 +5.156120E-03 
 -1.317487E-04 +9.929869E-06 -2.029461E-04 +9.929869E-06 -1.299955E-04 -9.481932E-05 -2.029461E-04 -9.481932E-05 +5.169409E-03 
 -2.605532E-04 -3.914552E-04 -1.651058E-04 -3.914552E-04 +5.811236E-05 -3.450299E-05 -1.651058E-04 -3.450299E-05 +5.154963E-03 
 -2.900759E-04 -4.066453E-04 -1.459162E-04 -4.066453E-04 +6.768588E-05 -3.046793E-05 -1.459162E-04 -3.046793E-05 +5.067609E-03 
 -2.423404E-04 -2.410550E-04 -1.167527E-04 -2.410550E-04 +3.762800E-05 +5.340631E-06 -1.167527E-04 +5.340631E-06 +4.960336E-03 
 -5.896874E-05 +7.727697E-05 -1.056482E-05 +7.727697E-05 +4.240884E-05 -8.411220E-06 -1.056482E-05 -8.411220E-06 +4.938564E-03 
 +4.445125E-05 +1.567312E-04 +5.434899E-05 +1.567312E-04 +1.622800E-04 -5.134830E-05 +5.434899E-05 -5.134830E-05 +4.910770E-03 
 +2.467381E-04 +2.137262E-05 -4.742997E-05 +2.137262E-05 +4.441230E-04 -4.367518E-05 -4.742997E-05 -4.367518E-05 +4.781520E-03 
 +2.833340E-04 -6.378238E-05 +1.104580E-05 -6.378238E-05 +4.018148E-04 -5.712732E-05 +1.104580E-05 -5.712732E-05 +4.718342E-03 
 +2.014099E-04 -2.393382E-05 -4.682179E-05 -2.393382E-05 +1.935669E-04 -9.699652E-05 -4.682179E-05 -9.699652E-05 +4.823389E-03 
 +1.865506E-04 -3.301402E-05 -9.447150E-05 -3.301402E-05 +7.200739E-05 -7.064363E-05 -9.447150E-05 -7.064363E-05 +4.894038E-03 
 +2.062342E-04 +2.869329E-05 -1.338648E-04 +2.869329E-05 +9.691384E-07 -4.060826E-05 -1.338648E-04 -4.060826E-05 +4.866964E-03 
 +1.888785E-04 +1.147218E-04 -1.571150E-04 +1.147218E-04 +2.787571E-05 -3.253343E-05 -1.571150E-04 -3.253343E-05 +4.905060E-03 
 +1.141275E-04 -1.062889E-04 -1.820135E-04 -1.062889E-04 -3.452838E-06 +7.319403E-05 -1.820135E-04 +7.319403E-05 +4.975898E-03 
 +2.608024E-05 -2.068264E-04 -1.262283E-04 -2.068264E-04 -6.702018E-05 +1.816220E-04 -1.262283E-04 +1.816220E-04 +5.006686E-03 
 -3.157201E-04 +1.138321E-04 -2.714157E-06 +1.138321E-04 +3.191407E-05 +7.462257E-05 -2.714157E-06 +7.462257E-05 +4.995128E-03 
 +3.580967E-05 -1.491807E-04 -1.505659E-05 -1.491807E-04 +7.723679E-05 -2.814936E-06 -1.505659E-05 -2.814936E-06 +4.957010E-03 
 +2.022358E-05 -9.395250E-05 +5.237919E-05 -9.395250E-05 +1.243509E-05 +3.445020E-05 +5.237919E-05 +3.445020E-05 +4.967425E-03 
 -7.365783E-06 -2.283295E-04 +8.131035E-05 -2.283295E-04 +2.302032E-06 +7.779036E-06 +8.131035E-05 +7.779036E-06 +5.012465E-03 
 -1.584762E-04 +4.343025E-04 +7.166865E-05 +4.343025E-04 +1.126067E-04 -4.746562E-05 +7.166865E-05 -4.746562E-05 +5.136182E-03 
 -1.566936E-04 +3.146229E-04 -3.819208E-05 +3.146229E-04 +6.600170E-05 -8.592383E-05 -3.819208E-05 -8.592383E-05 +5.179883E-03 
 -9.903455E-05 +2.633202E-04 -1.253039E-04 +2.633202E-04 -3.506313E-05 -1.417178E-04 -1.253039E-04 -1.417178E-04 +5.205158E-03 
 -8.080986E-05 +7.358191E-05 -1.843197E-04 +7.358191E-05 -1.903228E-04 -6.272114E-05 -1.843197E-04 -6.272114E-05 +5.223809E-03 
 -2.160531E-04 -2.099899E-04 -1.584904E-04 -2.099899E-04 -1.930706E-04 +2.860749E-05 -1.584904E-04 +2.860749E-05 +5.236049E-03 
 -3.231362E-04 -3.030212E-04 -1.047750E-04 -3.030212E-04 -6.398736E-05 +2.612311E-05 -1.047750E-04 +2.612311E-05 +5.131316E-03 
 -6.291724E-05 +6.390994E-05 -7.815569E-05 +6.390994E-05 -6.947559E-07 +5.513198E-05 -7.815569E-05 +5.513198E-05 +5.000944E-03 
 +9.192961E-05 +2.030649E-04 -2.281400E-06 +2.030649E-04 +2.633489E-05 +5.146279E-05 -2.281400E-06 +5.146279E-05 +4.954229E-03 
 +7.271101E-05 +2.564502E-04 +1.589685E-06 +2.564502E-04 +6.653642E-06 -7.889274E-07 +1.589685E-06 -7.889274E-07 +4.942075E-03 
 +1.268585E-04 +1.735012E-04 -2.383447E-05 +1.735012E-04 +1.311398E-04 -3.945903E-05 -2.383447E-05 -3.945903E-05 +4.928394E-03 
 +2.303942E-04 -6.727166E-05 +5.830552E-05 -6.727166E-05 +3.942133E-04 +8.264491E-06 +5.830552E-05 +8.264491E-06 +4.781062E-03 
 +2.590881E-04 -1.467438E-04 +3.907555E-06 -1.467438E-04 +3.531770E-04 -5.003477E-07 +3.907555E-06 -5.003477E-07 +4.732720E-03 
 +1.427258E-04 -9.836880E-05 -4.653786E-05 -9.836880E-05 +1.704449E-04 -7.432673E-05 -4.653786E-05 -7.432673E-05 +4.872091E-03 
 +1.512653E-04 -1.248948E-04 -1.012444E-04 -1.248948E-04 +1.019193E-04 -8.545305E-05 -1.012444E-04 -8.545305E-05 +4.892406E-03 
 +1.221977E-04 -2.296981E-06 -9.130571E-05 -2.296981E-06 +1.829433E-05 -3.161870E-05 -9.130571E-05 -3.161870E-05 +4.874159E-03 
 +5.168117E-05 -2.382499E-04 -1.310337E-04 -2.382499E-04 -1.149989E-04 +5.183181E-05 -1.310337E-04 +5.183181E-05 +4.932102E-03 
 +3.930830E-05 -1.221544E-04 -9.984995E-05 -1.221544E-04 -9.296370E-05 +1.304543E-04 -9.984995E-05 +1.304543E-04 +5.004940E-03 
 -1.994647E-04 +1.547214E-04 +3.710985E-06 +1.547214E-04 -4.457705E-05 +2.700269E-05 +3.710985E-06 +2.700269E-05 +5.031648E-03 
 +7.500581E-05 -1.712304E-04 +3.521826E-05 -1.712304E-04 -1.230356E-04 -6.708159E-05 +3.521826E-05 -6.708159E-05 +5.029297E-03 
 +2.442693E-05 -9.484764E-05 +1.102351E-04 -9.484764E-05 -5.776383E-05 -9.874513E-06 +1.102351E-04 -9.874513E-06 +5.048241E-03 
 -9.082836E-05 -1.880439E-04 +1.442449E-04 -1.880439E-04 +6.333911E-05 +2.483505E-06 +1.442449E-04 +2.483505E-06 +5.083151E-03 
 -1.560117E-04 +3.573471E-04 +5.814620E-05 +3.573471E-04 +2.621888E-04 -3.888947E-05 +5.814620E-05 -3.888947E-05 +5.140457E-03 
 -1.004840E-04 +2.808381E-04 -2.830802E-05 +2.808381E-04 +9.162415E-05 -1.069703E-04 -2.830802E-05 -1.069703E-04 +5.194344E-03 
 -4.260254E-05 +2.691150E-04 -7.273405E-05 +2.691150E-04 -1.131561E-04 -1.297225E-04 -7.273405E-05 -1.297225E-04 +5.245126E-03 
 -2.839190E-06 +9.304949E-05 -1.364192E-04 +9.304949E-05 -2.714942E-04 -2.891526E-05 -1.364192E-04 -2.891526E-05 +5.292423E-03 
 -1.076309E-04 -1.607243E-05 -1.300620E-04 -1.607243E-05 -3.455771E-04 +4.629822E-05 -1.300620E-04 +4.629822E-05 +5.270614E-03 
 -2.042180E-04 -1.425712E-05 +9.712970E-07 -1.425712E-05 -1.930403E-04 +7.291243E-05 +9.712970E-07 +7.291243E-05 +5.159593E-03 
 +1.134942E-05 +1.840148E-04 -6.097955E-05 +1.840148E-04 -3.263796E-05 +8.058102E-05 -6.097955E-05 +8.058102E-05 +5.044546E-03 
 +2.559691E-05 +2.180907E-04 -2.631425E-05 +2.180907E-04 -6.210969E-05 -3.514847E-06 -2.631425E-05 -3.514847E-06 +4.980901E-03 
 +9.188894E-05 +3.225683E-04 -3.039558E-05 +3.225683E-04 -8.306221E-05 -3.537844E-05 -3.039558E-05 -3.537844E-05 +4.960807E-03 
 +1.270440E-04 +3.361728E-04 -2.714511E-05 +3.361728E-04 -9.093403E-05 -4.896117E-05 -2.714511E-05 -4.896117E-05 +4.949628E-03 
 +1.118342E-04 +2.379712E-04 +7.468567E-05 +2.379712E-04 +5.457201E-05 -4.675277E-05 +7.468567E-05 -4.675277E-05 +4.820588E-03 
 +2.143631E-04 -9.926082E-05 +3.135889E-05 -9.926082E-05 +3.074502E-04 -3.079493E-05 +3.135889E-05 -3.079493E-05 +4.739532E-03 
 +5.926291E-05 -1.079242E-04 -4.279830E-05 -1.079242E-04 +3.137596E-04 -7.369381E-05 -4.279830E-05 -7.369381E-05 +4.864077E-03 
 +6.496825E-05 -7.720576E-05 -1.049339E-04 -7.720576E-05 +1.930131E-04 -1.048550E-04 -1.049339E-04 -1.048550E-04 +4.909346E-03 
 +3.680820E-05 -3.052096E-05 -7.299775E-05 -3.052096E-05 -1.528119E-05 -9.659133E-06 -7.299775E-05 -9.659133E-06 +4.879212E-03 
 -1.873826E-05 -3.134389E-04 -1.203627E-04 -3.134389E-04 -1.918730E-04 +7.623511E-05 -1.203627E-04 +7.623511E-05 +4.928289E-03 
 +4.285918E-05 -1.628440E-04 -1.078703E-04 -1.628440E-04 -2.241271E-04 +8.061385E-05 -1.078703E-04 +8.061385E-05 +4.998996E-03 
 +7.990778E-06 +3.457724E-05 +4.744836E-05 +3.457724E-05 -2.796944E-04 -2.793962E-05 +4.744836E-05 -2.793962E-05 +5.043554E-03 
 +3.374984E-05 -1.747453E-04 +1.236040E-04 -1.747453E-04 -2.595085E-04 -9.392498E-05 +1.236040E-04 -9.392498E-05 +5.083634E-03 
 -6.505590E-05 -1.280415E-04 +1.702128E-04 -1.280415E-04 -1.630023E-04 -3.751924E-05 +1.702128E-04 -3.751924E-05 +5.109582E-03 
 -1.300193E-04 -2.001780E-04 +1.282635E-04 -2.001780E-04 +9.803448E-05 +9.628477E-06 +1.282635E-04 +9.628477E-06 +5.104615E-03 
 +6.675651E-07 +4.298087E-04 +1.888269E-05 +4.298087E-04 +3.253722E-04 -5.635627E-05 +1.888269E-05 -5.635627E-05 +5.057697E-03 
 +2.740357E-05 +3.241706E-04 -1.484570E-05 +3.241706E-04 +1.111170E-04 -1.481792E-04 -1.484570E-05 -1.481792E-04 +5.135305E-03 
 +3.246743E-05 +3.677856E-04 +2.289215E-05 +3.677856E-04 -7.854224E-05 -2.122054E-04 +2.289215E-05 -2.122054E-04 +5.218378E-03 
 -2.188717E-05 +1.097342E-04 -2.497592E-05 +1.097342E-04 -2.655209E-04 -1.221269E-04 -2.497592E-05 -1.221269E-04 +5.284536E-03 
 -8.475880E-06 +6.168465E-05 +5.208321E-06 +6.168465E-05 -2.545479E-04 -1.765109E-05 +5.208321E-06 -1.765109E-05 +5.200564E-03 
 -4.152017E-05 +6.558248E-05 +7.764122E-05 +6.558248E-05 -9.204233E-05 +8.951751E-05 +7.764122E-05 +8.951751E-05 +5.068441E-03 
 -3.109780E-05 +2.206227E-04 -2.953007E-05 +2.206227E-04 -7.107641E-05 +1.530824E-04 -2.953007E-05 +1.530824E-04 +5.033906E-03 
 -4.706499E-05 +2.734284E-04 -5.858662E-05 +2.734284E-04 -3.469617E-05 +6.314130E-05 -5.858662E-05 +6.314130E-05 +5.042464E-03 
 +5.594252E-05 +2.899904E-04 -3.282828E-05 +2.899904E-04 -3.062607E-05 -8.809215E-06 -3.282828E-05 -8.809215E-06 +4.993926E-03 
 +1.341098E-04 +2.834264E-04 -4.928829E-05 +2.834264E-04 -8.064449E-06 +2.177339E-05 -4.928829E-05 +2.177339E-05 +4.935674E-03 
 +7.250508E-05 +2.664085E-04 +2.795932E-05 +2.664085E-04 +1.317279E-04 +1.396271E-05 +2.795932E-05 +1.396271E-05 +4.868045E-03 
 +1.632639E-04 -1.393035E-05 +1.417447E-05 -1.393035E-05 +2.479299E-04 -8.262616E-05 +1.417447E-05 -8.262616E-05 +4.843185E-03 
 +1.889230E-04 +1.202995E-05 -1.260090E-05 +1.202995E-05 +2.728012E-04 -1.255600E-04 -1.260090E-05 -1.255600E-04 +4.887416E-03 
 +5.446974E-05 +1.128334E-04 -5.313253E-05 +1.128334E-04 +1.517588E-04 -1.274247E-04 -5.313253E-05 -1.274247E-04 +4.892950E-03 
 -7.135033E-05 +1.679248E-04 -2.443412E-05 +1.679248E-04 -1.434129E-06 -1.175103E-04 -2.443412E-05 -1.175103E-04 +4.930264E-03 
 -2.085947E-04 +3.269014E-05 -5.327375E-05 +3.269014E-05 -1.279609E-05 -1.537903E-04 -5.327375E-05 -1.537903E-04 +4.974053E-03 
 -1.921876E-04 -3.538294E-05 -4.690618E-05 -3.538294E-05 -1.347232E-04 -1.779749E-04 -4.690618E-05 -1.779749E-04 +4.988814E-03 
 +7.279377E-05 +1.155536E-05 +1.402326E-04 +1.155536E-05 -3.252595E-04 -1.531106E-04 +1.402326E-04 -1.531106E-04 +5.011029E-03 
 +1.252529E-04 -9.925332E-05 +1.861953E-04 -9.925332E-05 -1.789058E-04 -1.518583E-04 +1.861953E-04 -1.518583E-04 +5.033468E-03 
 -1.500380E-04 +9.004579E-05 +1.874634E-04 +9.004579E-05 +1.998958E-04 -1.638423E-04 +1.874634E-04 -1.638423E-04 +5.036697E-03 
 -1.554811E-04 +7.091119E-05 +1.061545E-04 +7.091119E-05 +4.123266E-04 -9.590837E-05 +1.061545E-04 -9.590837E-05 +5.008383E-03 
 -9.847286E-05 +1.541402E-04 +4.144758E-05 +1.541402E-04 +4.648387E-04 -3.475767E-05 +4.144758E-05 -3.475767E-05 +4.997335E-03 
 -3.188860E-05 -1.390832E-04 +2.652218E-05 -1.390832E-04 +2.262175E-04 -6.431393E-05 +2.652218E-05 -6.431393E-05 +5.105938E-03 
 -3.338700E-05 -1.755403E-04 -1.021887E-05 -1.755403E-04 +1.124783E-05 -9.065349E-05 -1.021887E-05 -9.065349E-05 +5.166800E-03 
 +3.070131E-05 -3.010392E-04 -1.118792E-04 -3.010392E-04 -1.470404E-04 -7.652967E-05 -1.118792E-04 -7.652967E-05 +5.105339E-03 
 +1.951056E-04 -1.324927E-04 +3.729140E-06 -1.324927E-04 -6.273347E-06 -1.836382E-05 +3.729140E-06 -1.836382E-05 +4.963371E-03 
 +2.024424E-04 -1.044227E-04 +1.979831E-05 -1.044227E-04 +1.384112E-04 +2.077005E-05 +1.979831E-05 +2.077005E-05 +4.857164E-03 
 +1.594989E-04 -6.264570E-05 +6.045291E-06 -6.264570E-05 +1.535582E-04 +1.579140E-05 +6.045291E-06 +1.579140E-05 +4.787406E-03 
 +4.014148E-06 +1.198000E-04 -5.051374E-05 +1.198000E-04 +5.693836E-05 +3.554904E-05 -5.051374E-05 +3.554904E-05 +4.809486E-03 
 -1.511845E-04 +3.555530E-04 -7.021439E-05 +3.555530E-04 +1.346503E-05 +4.787563E-05 -7.021439E-05 +4.787563E-05 +4.955604E-03 
 -8.104366E-05 +3.465112E-04 -3.437770E-05 +3.465112E-04 +1.009832E-04 +7.484052E-05 -3.437770E-05 +7.484052E-05 +4.998730E-03 
 +1.070378E-04 +1.827194E-04 -7.555836E-05 +1.827194E-04 +6.272064E-06 +4.981098E-05 -7.555836E-05 +4.981098E-05 +4.957843E-03 
 +2.297885E-04 +5.962913E-05 -9.874945E-05 +5.962913E-05 -2.120834E-04 +3.623939E-05 -9.874945E-05 +3.623939E-05 +4.946361E-03 
 +2.939462E-04 +5.564895E-05 -1.460722E-04 +5.564895E-05 -2.223128E-04 +9.216620E-05 -1.460722E-04 +9.216620E-05 +4.951122E-03 
 -1.035252E-04 -1.841994E-04 -3.031104E-05 -1.841994E-04 -1.167301E-04 +1.526363E-04 -3.031104E-05 +1.526363E-04 +5.024581E-03 
 -1.524683E-04 -1.175145E-04 +2.482458E-05 -1.175145E-04 -6.248260E-05 +1.679769E-04 +2.482458E-05 +1.679769E-04 +5.062689E-03 
 -3.274954E-04 -2.730675E-04 +5.485240E-05 -2.730675E-04 +2.747461E-05 +6.376592E-05 +5.485240E-05 +6.376592E-05 +5.070809E-03 
 -3.221353E-04 -3.379446E-04 +2.386405E-05 -3.379446E-04 +1.737779E-05 -9.331790E-05 +2.386405E-05 -9.331790E-05 +5.057320E-03 
 +1.885282E-04 +5.298330E-05 +1.257932E-04 +5.298330E-05 +5.046082E-05 -1.761941E-04 +1.257932E-04 -1.761941E-04 +4.959848E-03 
 +9.615639E-05 +8.972608E-05 +8.104382E-06 +8.972608E-05 +2.605455E-04 -1.667851E-04 +8.104382E-06 -1.667851E-04 +4.923619E-03 
 -5.917727E-05 +1.468148E-04 +2.282709E-05 +1.468148E-04 +3.621119E-04 -1.250827E-04 +2.282709E-05 -1.250827E-04 +4.923142E-03 
 -1.464818E-04 +1.914660E-04 +3.635250E-05 +1.914660E-04 +4.891454E-04 -6.167075E-05 +3.635250E-05 -6.167075E-05 +4.928438E-03 
 -1.440731E-04 -1.327040E-04 +1.149813E-04 -1.327040E-04 +2.426164E-04 +2.411439E-05 +1.149813E-04 +2.411439E-05 +5.075163E-03 
 -8.087272E-05 -1.068902E-04 +7.510695E-05 -1.068902E-04 +9.313620E-05 -5.983127E-05 +7.510695E-05 -5.983127E-05 +5.191109E-03 
 -1.001003E-04 -1.718718E-04 +8.783989E-07 -1.718718E-04 +2.989109E-05 -1.267464E-04 +8.783989E-07 -1.267464E-04 +5.265717E-03 
 +1.221421E-04 -6.307631E-05 -2.476882E-05 -6.307631E-05 +6.632116E-06 -4.426802E-05 -2.476882E-05 -4.426802E-05 +5.176129E-03 
 +4.054843E-04 +4.945496E-05 +6.197137E-05 +4.945496E-05 +6.517675E-05 +1.798900E-05 +6.197137E-05 +1.798900E-05 +4.932942E-03 
 +3.238891E-04 -4.086401E-05 +8.404821E-05 -4.086401E-05 +6.257331E-05 +2.545881E-05 +8.404821E-05 +2.545881E-05 +4.787718E-03 
 +2.789626E-04 -2.087544E-05 +4.121920E-05 -2.087544E-05 +1.201597E-04 +4.371784E-05 +4.121920E-05 +4.371784E-05 +4.757210E-03 
 +1.589493E-04 -1.801444E-05 -1.489045E-05 -1.801444E-05 +9.970042E-05 +4.209295E-05 -1.489045E-05 +4.209295E-05 +4.824154E-03 
 -1.318109E-04 +3.554038E-04 -1.012601E-04 +3.554038E-04 +4.357742E-05 +1.847991E-05 -1.012601E-04 +1.847991E-05 +5.057094E-03 
 -1.314770E-04 +4.388437E-04 -2.408534E-05 +4.388437E-04 +8.005087E-06 +7.208370E-06 -2.408534E-05 +7.208370E-06 +5.120800E-03 
 +1.245651E-04 +2.124192E-04 -5.712789E-05 +2.124192E-04 -1.267491E-04 -3.233842E-05 -5.712789E-05 -3.233842E-05 +5.013451E-03 
 +3.004418E-04 +9.519806E-05 -6.652527E-05 +9.519806E-05 -2.482932E-04 +7.370028E-06 -6.652527E-05 +7.370028E-06 +4.956700E-03 
 +2.436294E-04 +1.098750E-04 -4.999968E-05 +1.098750E-04 -2.632771E-04 +9.118562E-05 -4.999968E-05 +9.118562E-05 +5.005574E-03 
 -2.678415E-04 -1.530054E-04 +8.809238E-05 -1.530054E-04 -1.424959E-04 +7.122018E-05 +8.809238E-05 +7.122018E-05 +5.111656E-03 
 -3.265576E-04 -1.179357E-04 +1.092328E-04 -1.179357E-04 +1.460583E-05 +7.038171E-05 +1.092328E-04 +7.038171E-05 +5.108542E-03 
 -3.872557E-04 -2.451651E-04 +1.134477E-04 -2.451651E-04 +1.046989E-04 +4.098266E-05 +1.134477E-04 +4.098266E-05 +5.046835E-03 
 -3.962678E-04 -3.782038E-04 -2.543253E-05 -3.782038E-04 +1.331676E-04 -4.731712E-05 -2.543253E-05 -4.731712E-05 +5.020840E-03 
 +1.027805E-04 -3.743913E-05 +4.746232E-05 -3.743913E-05 -4.044960E-05 -5.797599E-05 +4.746232E-05 -5.797599E-05 +5.001171E-03 
 +7.358167E-05 +1.055369E-04 -2.610817E-06 +1.055369E-04 -6.516934E-05 -3.845775E-05 -2.610817E-06 -3.845775E-05 +5.015376E-03 
 -4.152155E-05 +7.263951E-05 +5.277276E-05 +7.263951E-05 +1.717298E-04 -8.971362E-05 +5.277276E-05 -8.971362E-05 +5.017383E-03 
 -1.267499E-04 +1.404993E-04 +1.333398E-04 +1.404993E-04 +3.710755E-04 -5.159244E-05 +1.333398E-04 -5.159244E-05 +5.016874E-03 
 -1.205529E-04 -1.196342E-04 +1.076758E-04 -1.196342E-04 +1.876535E-05 +6.358038E-05 +1.076758E-04 +6.358038E-05 +5.245182E-03 
 -1.467687E-05 -1.308076E-04 -3.549647E-05 -1.308076E-04 +8.027704E-05 -6.065092E-06 -3.549647E-05 -6.065092E-06 +5.281676E-03 
 -6.462375E-06 -1.563758E-04 -2.516864E-05 -1.563758E-04 +7.169520E-05 -5.246276E-05 -2.516864E-05 -5.246276E-05 +5.241756E-03 
 +2.687261E-04 +7.601589E-05 +2.438283E-05 +7.601589E-05 +1.730788E-04 -1.346430E-05 +2.438283E-05 -1.346430E-05 +5.051968E-03 
 +4.252782E-04 +8.566079E-05 +5.201158E-05 +8.566079E-05 +1.298238E-04 +7.260831E-06 +5.201158E-05 +7.260831E-06 +4.836987E-03 
 +3.897952E-04 +2.647329E-05 +8.503195E-05 +2.647329E-05 +9.405788E-05 -1.675320E-06 +8.503195E-05 -1.675320E-06 +4.762594E-03 
 +3.637304E-04 -1.100218E-05 +6.623422E-05 -1.100218E-05 +7.093779E-05 +3.266121E-05 +6.623422E-05 +3.266121E-05 +4.708378E-03 
 +2.703363E-04 +5.637823E-05 +3.089828E-05 +5.637823E-05 +9.550655E-05 +3.911353E-05 +3.089828E-05 +3.911353E-05 +4.798294E-03 
 -2.408019E-05 +3.444745E-04 -6.209499E-05 +3.444745E-04 +4.621756E-05 -2.791490E-05 -6.209499E-05 -2.791490E-05 +5.106788E-03 
 -7.750821E-05 +4.066742E-04 +1.396530E-05 +4.066742E-04 -1.654683E-04 -4.964939E-05 +1.396530E-05 -4.964939E-05 +5.187371E-03 
 +1.066373E-04 +1.902677E-04 +3.372688E-05 +1.902677E-04 -2.208112E-04 -6.265076E-05 +3.372688E-05 -6.265076E-05 +5.065016E-03 
 +1.747605E-04 +3.428587E-05 -2.168567E-06 +3.428587E-05 -1.870432E-04 +7.668363E-06 -2.168567E-06 +7.668363E-06 +5.006644E-03 
 -3.148337E-05 -4.090662E-05 +3.050082E-05 -4.090662E-05 -1.299529E-04 +8.466863E-05 +3.050082E-05 +8.466863E-05 +5.048987E-03 
 -3.772281E-04 -2.574091E-04 +8.764748E-05 -2.574091E-04 +3.513071E-05 +3.729655E-05 +8.764748E-05 +3.729655E-05 +5.141000E-03 
 -3.936953E-04 -2.365770E-04 +7.714691E-05 -2.365770E-04 +1.418949E-04 +3.123797E-05 +7.714691E-05 +3.123797E-05 +5.134986E-03 
 -3.692791E-04 -2.712387E-04 +6.878415E-05 -2.712387E-04 +1.504889E-04 +5.191820E-05 +6.878415E-05 +5.191820E-05 +5.054326E-03 
 -3.765684E-04 -3.589168E-04 -1.352849E-05 -3.589168E-04 +2.222981E-04 +2.408249E-05 -1.352849E-05 +2.408249E-05 +5.076009E-03 
 -2.280182E-04 -2.178034E-04 +1.906361E-05 -2.178034E-04 +8.943194E-05 -1.381495E-05 +1.906361E-05 -1.381495E-05 +5.131798E-03 
 +7.081791E-05 +8.048038E-05 +1.008529E-04 +8.048038E-05 -1.184650E-04 -7.732357E-06 +1.008529E-04 -7.732357E-06 +5.102273E-03 
 +1.421394E-05 +9.239660E-05 +1.403184E-04 +9.239660E-05 -1.410524E-04 +1.842027E-05 +1.403184E-04 +1.842027E-05 +5.084481E-03 
 -6.489364E-05 +2.335340E-04 +2.752355E-04 +2.335340E-04 -1.494337E-04 +4.541110E-05 +2.752355E-04 +4.541110E-05 +5.162252E-03 
 -9.812729E-05 +9.405685E-05 +6.897468E-05 +9.405685E-05 -1.864515E-04 -6.319602E-05 +6.897468E-05 -6.319602E-05 +5.398772E-03 
 -1.839319E-05 -7.195858E-05 -7.038614E-05 -7.195858E-05 -7.038979E-05 -3.274754E-05 -7.038614E-05 -3.274754E-05 +5.314388E-03 
 +1.812390E-04 +3.998266E-05 +6.310103E-07 +3.998266E-05 +1.168395E-04 -4.614401E-05 +6.310103E-07 -4.614401E-05 +5.178009E-03 
 +3.508705E-04 +5.897583E-05 +5.309510E-05 +5.897583E-05 +1.648405E-04 -1.303959E-05 +5.309510E-05 -1.303959E-05 +5.027904E-03 
 +4.037864E-04 +5.797872E-05 +5.438010E-05 +5.797872E-05 +8.979903E-05 +1.902978E-05 +5.438010E-05 +1.902978E-05 +4.858422E-03 
 +4.177746E-04 +1.973158E-05 +5.359553E-05 +1.973158E-05 +1.228172E-04 +2.250545E-08 +5.359553E-05 +2.250545E-08 +4.773003E-03 
 +4.603372E-04 -3.680521E-05 +8.223664E-05 -3.680521E-05 +1.267734E-04 +1.736626E-05 +8.223664E-05 +1.736626E-05 +4.685060E-03 
 +2.371980E-04 -2.221390E-06 +1.235827E-05 -2.221390E-06 +1.824880E-04 -3.456788E-05 +1.235827E-05 -3.456788E-05 +4.780616E-03 
 -4.660120E-05 +1.581743E-05 -3.888448E-05 +1.581743E-05 +1.817170E-04 -1.604660E-04 -3.888448E-05 -1.604660E-04 +5.032354E-03 
 -1.889591E-05 +3.787748E-05 +3.211220E-05 +3.787748E-05 +5.226073E-05 -2.160046E-04 +3.211220E-05 -2.160046E-04 +5.115396E-03 
 +3.448117E-05 -5.210323E-05 +4.315495E-05 -5.210323E-05 +3.470293E-05 -1.879148E-04 +4.315495E-05 -1.879148E-04 +5.085643E-03 
 -9.566565E-05 -2.913225E-04 -5.080094E-06 -2.913225E-04 +1.030695E-04 -3.513422E-05 -5.080094E-06 -3.513422E-05 +5.084534E-03 
 -2.206125E-04 -2.633115E-04 +2.385902E-05 -2.633115E-04 +5.847260E-05 +4.365197E-05 +2.385902E-05 +4.365197E-05 +5.123376E-03 
 -3.122013E-04 -2.509718E-04 +3.809905E-05 -2.509718E-04 +3.764430E-05 +1.209596E-05 +3.809905E-05 +1.209596E-05 +5.168385E-03 
 -3.358676E-04 -2.072019E-04 +2.748158E-05 -2.072019E-04 +1.050983E-04 +1.724351E-05 +2.748158E-05 +1.724351E-05 +5.159022E-03 
 -3.279753E-04 -2.468343E-04 +2.381984E-05 -2.468343E-04 +1.808938E-04 +2.798608E-05 +2.381984E-05 +2.798608E-05 +5.102815E-03 
 -3.837995E-04 -3.476601E-04 +3.817620E-05 -3.476601E-04 +2.869898E-04 +1.655783E-05 +3.817620E-05 +1.655783E-05 +5.092361E-03 
 -3.747309E-04 -3.321107E-04 +5.678766E-05 -3.321107E-04 +2.651312E-04 -1.347934E-05 +5.678766E-05 -1.347934E-05 +5.063162E-03 
 +9.670528E-05 +1.915840E-04 +1.153027E-04 +1.915840E-04 -1.436186E-05 -4.506685E-05 +1.153027E-04 -4.506685E-05 +4.983398E-03 
 +7.281295E-05 +2.506973E-04 +1.610478E-04 +2.506973E-04 -2.249940E-04 -4.888562E-05 +1.610478E-04 -4.888562E-05 +5.040220E-03 
 -2.242897E-05 +3.172507E-04 +2.636542E-04 +3.172507E-04 -2.601664E-04 -7.679837E-05 +2.636542E-04 -7.679837E-05 +5.252517E-03 
 +4.902666E-06 +3.189597E-04 +6.234791E-05 +3.189597E-04 -3.438492E-04 -1.413792E-04 +6.234791E-05 -1.413792E-04 +5.318108E-03 
 +2.584016E-05 +2.243444E-04 +1.640507E-05 +2.243444E-04 -2.920705E-04 -8.727034E-05 +1.640507E-05 -8.727034E-05 +5.291024E-03 
 +1.232697E-04 +3.179591E-04 +4.237113E-05 +3.179591E-04 -1.719732E-04 -4.271381E-05 +4.237113E-05 -4.271381E-05 +5.218056E-03 
 +2.590622E-04 +7.298613E-05 +1.354015E-04 +7.298613E-05 +1.743679E-05 +1.231528E-05 +1.354015E-04 +1.231528E-05 +5.104312E-03 
 +3.527344E-04 +1.057213E-05 +1.332719E-04 +1.057213E-05 +1.216611E-04 +7.533425E-05 +1.332719E-04 +7.533425E-05 +4.914424E-03 
 +4.473268E-04 -4.923185E-05 +9.793448E-05 -4.923185E-05 +8.831842E-05 +9.763498E-05 +9.793448E-05 +9.763498E-05 +4.777084E-03 
 +5.053606E-04 -1.013785E-04 +1.240087E-04 -1.013785E-04 +1.478500E-04 +5.596788E-05 +1.240087E-04 +5.596788E-05 +4.742260E-03 
 +3.048023E-05 -9.554355E-05 -1.896915E-05 -9.554355E-05 +1.788261E-04 -5.900149E-05 -1.896915E-05 -5.900149E-05 +4.883233E-03 
 -3.684947E-05 -7.621166E-05 -3.575615E-05 -7.621166E-05 +1.024474E-04 -1.252827E-04 -3.575615E-05 -1.252827E-04 +5.037143E-03 
 -2.159114E-05 -1.690694E-05 -5.168472E-06 -1.690694E-05 +7.288505E-05 -1.888982E-04 -5.168472E-06 -1.888982E-04 +5.069083E-03 
 -9.227232E-05 -1.186974E-04 +2.840416E-05 -1.186974E-04 +3.149047E-05 -2.235233E-04 +2.840416E-05 -2.235233E-04 +5.085973E-03 
 -2.064579E-04 -2.370830E-04 +4.220836E-06 -2.370830E-04 +4.430628E-05 -1.186486E-04 +4.220836E-06 -1.186486E-04 +5.132352E-03 
 -2.010959E-04 -2.160447E-04 +2.540323E-06 -2.160447E-04 +5.412947E-05 -4.835140E-05 +2.540323E-06 -4.835140E-05 +5.169701E-03 
 -2.215663E-04 -1.628475E-04 +1.971833E-06 -1.628475E-04 +3.793614E-05 -2.909531E-05 +1.971833E-06 -2.909531E-05 +5.171029E-03 
 -2.976069E-04 -1.819049E-04 -4.009099E-05 -1.819049E-04 +1.227711E-04 -1.941774E-05 -4.009099E-05 -1.941774E-05 +5.168200E-03 
 -3.293369E-04 -2.530899E-04 -3.798875E-05 -2.530899E-04 +1.924473E-04 -8.294500E-06 -3.798875E-05 -8.294500E-06 +5.165514E-03 
 -2.818673E-04 -2.751694E-04 +1.462220E-07 -2.751694E-04 +1.922013E-04 -2.401190E-05 +1.462220E-07 -2.401190E-05 +5.128740E-03 
 -1.973166E-04 -1.640280E-04 +3.226070E-05 -1.640280E-04 +2.239711E-04 -6.748999E-05 +3.226070E-05 -6.748999E-05 +5.046451E-03 
 +6.099406E-05 +1.603244E-04 -6.956787E-05 +1.603244E-04 +1.425098E-04 -8.060344E-05 -6.956787E-05 -8.060344E-05 +4.952012E-03 
 +3.483512E-05 +2.573503E-04 -3.666605E-06 +2.573503E-04 -1.441405E-04 -4.634716E-05 -3.666605E-06 -4.634716E-05 +5.021674E-03 
 +4.087829E-05 +4.406418E-04 +1.503057E-04 +4.406418E-04 -3.075825E-04 -9.462135E-05 +1.503057E-04 -9.462135E-05 +5.211454E-03 
 +9.425325E-05 +2.602958E-04 +5.297501E-05 +2.602958E-04 -2.701434E-04 -1.174803E-04 +5.297501E-05 -1.174803E-04 +5.191485E-03 
 +6.769247E-05 +1.760816E-04 +6.694931E-05 +1.760816E-04 -2.418072E-04 -9.350370E-05 +6.694931E-05 -9.350370E-05 +5.232954E-03 
 +3.350357E-05 +2.567161E-04 +8.666110E-05 +2.567161E-04 -2.699276E-04 -1.675796E-05 +8.666110E-05 -1.675796E-05 +5.247362E-03 
 +1.270438E-04 +2.515838E-04 +1.710691E-04 +2.515838E-04 -3.020880E-04 +4.760350E-05 +1.710691E-04 +4.760350E-05 +5.163917E-03 
 +2.357365E-04 +1.483717E-04 +2.291758E-04 +1.483717E-04 -1.154386E-04 +8.973260E-05 +2.291758E-04 +8.973260E-05 +4.972964E-03 
 +3.666259E-04 -5.041164E-05 +1.642674E-04 -5.041164E-05 -4.814148E-06 +1.317028E-04 +1.642674E-04 +1.317028E-04 +4.844882E-03 
 +3.900947E-04 -1.507326E-04 +1.241950E-04 -1.507326E-04 -1.284651E-05 +8.895787E-05 +1.241950E-04 +8.895787E-05 +4.865723E-03 
 +3.346298E-05 -1.757544E-04 +1.179640E-05 -1.757544E-04 -1.196036E-06 +4.371088E-06 +1.179640E-05 +4.371088E-06 +5.010037E-03 
 -1.729428E-05 -1.319258E-04 +2.055251E-05 -1.319258E-04 -5.485183E-05 -5.312183E-05 +2.055251E-05 -5.312183E-05 +5.105284E-03 
 -7.016434E-05 -3.924970E-05 -7.316626E-06 -3.924970E-05 -6.406476E-05 -1.737033E-04 -7.316626E-06 -1.737033E-04 +5.095796E-03 
 -1.389055E-04 -1.323056E-04 +1.382946E-05 -1.323056E-04 -2.460233E-05 -2.769801E-04 +1.382946E-05 -2.769801E-04 +5.101280E-03 
 -1.503177E-04 -1.335631E-04 +2.293398E-05 -1.335631E-04 +8.900988E-06 -1.993486E-04 +2.293398E-05 -1.993486E-04 +5.125576E-03 
 -2.668651E-04 -2.332963E-04 -2.383276E-05 -2.332963E-04 +5.312158E-05 -1.009350E-04 -2.383276E-05 -1.009350E-04 +5.155904E-03 
 -2.698329E-04 -1.810610E-04 -6.811211E-05 -1.810610E-04 +9.265949E-05 -5.783652E-05 -6.811211E-05 -5.783652E-05 +5.154355E-03 
 -1.803155E-04 -1.662664E-04 -1.023117E-04 -1.662664E-04 +1.478355E-04 -5.330814E-05 -1.023117E-04 -5.330814E-05 +5.144016E-03 
 -1.300408E-04 -1.411495E-04 -4.772290E-05 -1.411495E-04 +7.669764E-05 -9.125274E-06 -4.772290E-05 -9.125274E-06 +5.131999E-03 
 -1.062287E-05 -3.211809E-05 -3.695882E-05 -3.211809E-05 +1.475073E-05 +9.113114E-05 -3.695882E-05 +9.113114E-05 +5.080711E-03 
 -1.245236E-04 +6.006139E-05 -2.881551E-05 +6.006139E-05 +1.550701E-04 +6.649011E-05 -2.881551E-05 +6.649011E-05 +5.042274E-03 
 -9.347591E-05 +1.257765E-04 -1.563659E-04 +1.257765E-04 +1.756217E-04 -4.820576E-05 -1.563659E-04 -4.820576E-05 +4.976096E-03 
 -1.129043E-06 +1.848587E-04 -8.996770E-05 +1.848587E-04 -3.815747E-05 -3.235273E-05 -8.996770E-05 -3.235273E-05 +5.013517E-03 
 +1.048939E-04 +4.263665E-04 +8.085713E-05 +4.263665E-04 -2.098277E-04 -4.144338E-05 +8.085713E-05 -4.144338E-05 +5.138899E-03 
 +1.035040E-04 +2.651937E-04 +5.707198E-05 +2.651937E-04 -2.028281E-04 -9.803001E-05 +5.707198E-05 -9.803001E-05 +5.149841E-03 
 +5.871406E-05 +2.154330E-04 +7.858493E-05 +2.154330E-04 -2.313133E-04 -8.705230E-05 +7.858493E-05 -8.705230E-05 +5.184862E-03 
 +6.438017E-05 +2.050452E-04 +1.231510E-04 +2.050452E-04 -2.723218E-04 -5.010602E-05 +1.231510E-04 -5.010602E-05 +5.221922E-03 
 +6.561158E-05 +2.142957E-04 +1.478005E-04 +2.142957E-04 -3.350985E-04 -1.480826E-05 +1.478005E-04 -1.480826E-05 +5.222393E-03 
 +1.058009E-04 +2.128343E-04 +1.624947E-04 +2.128343E-04 -3.687152E-04 +2.785743E-05 +1.624947E-04 +2.785743E-05 +5.135967E-03 
 +2.579956E-04 -1.828685E-05 +8.709598E-05 -1.828685E-05 -3.499174E-04 +8.524115E-05 +8.709598E-05 +8.524115E-05 +5.059222E-03 
 +3.241090E-04 +1.041678E-05 +7.600422E-05 +1.041678E-05 -3.480901E-04 +1.147649E-04 +7.600422E-05 +1.147649E-04 +5.078003E-03 
 +8.800435E-05 +2.308775E-05 +5.499000E-05 +2.308775E-05 -3.037417E-04 +8.257883E-05 +5.499000E-05 +8.257883E-05 +5.139912E-03 
 -1.615317E-04 -2.806766E-05 +8.440041E-05 -2.806766E-05 -1.372930E-04 -3.616889E-07 +8.440041E-05 -3.616889E-07 +5.152448E-03 
 -1.099388E-04 -1.968584E-05 +2.553407E-05 -1.968584E-05 -8.206835E-05 -1.385441E-04 +2.553407E-05 -1.385441E-04 +5.112479E-03 
 -1.193471E-04 -1.030259E-04 -4.688577E-05 -1.030259E-04 -9.723049E-05 -2.902522E-04 -4.688577E-05 -2.902522E-04 +5.107855E-03 
 -2.527054E-04 -1.854837E-04 -5.631799E-05 -1.854837E-04 -2.862832E-05 -2.499743E-04 -5.631799E-05 -2.499743E-04 +5.129218E-03 
 -2.587005E-04 -2.770326E-04 -6.826610E-05 -2.770326E-04 +4.507300E-05 -1.431886E-04 -6.826610E-05 -1.431886E-04 +5.158220E-03 
 -1.642782E-04 -1.322082E-04 -5.862758E-05 -1.322082E-04 -3.078626E-05 -1.171701E-04 -5.862758E-05 -1.171701E-04 +5.159225E-03 
 +1.123199E-04 +2.461681E-05 -5.688201E-05 +2.461681E-05 -2.607484E-04 -7.512277E-05 -5.688201E-05 -7.512277E-05 +5.119243E-03 
 +1.808135E-04 +9.103697E-05 -1.301630E-05 +9.103697E-05 -2.119964E-04 -1.703131E-05 -1.301630E-05 -1.703131E-05 +5.035411E-03 
 +5.281339E-06 +1.025271E-04 -3.962087E-05 +1.025271E-04 +8.759342E-05 +5.790007E-05 -3.962087E-05 +5.790007E-05 +4.954481E-03 
 -1.598597E-04 +7.603181E-05 -3.847457E-05 +7.603181E-05 +2.495325E-04 +6.266580E-05 -3.847457E-05 +6.266580E-05 +4.947547E-03 
 -1.560546E-04 +7.247200E-05 -1.172015E-04 +7.247200E-05 +2.127139E-04 -3.764541E-05 -1.172015E-04 -3.764541E-05 +4.935856E-03 
 -6.894456E-05 +1.203748E-04 -8.102544E-05 +1.203748E-04 +5.182033E-05 -2.383705E-05 -8.102544E-05 -2.383705E-05 +5.005810E-03 
 +8.486010E-05 +4.213093E-04 +6.979929E-05 +4.213093E-04 -1.237390E-04 -1.422987E-05 +6.979929E-05 -1.422987E-05 +5.113704E-03 
 +8.507877E-05 +2.693747E-04 +5.580065E-05 +2.693747E-04 -1.874523E-04 -5.280650E-05 +5.580065E-05 -5.280650E-05 +5.146067E-03 
 +6.888716E-05 +2.244927E-04 +7.614003E-05 +2.244927E-04 -2.347182E-04 -6.849395E-05 +7.614003E-05 -6.849395E-05 +5.183256E-03 
 +8.780060E-06 +1.972981E-04 +1.073480E-04 +1.972981E-04 -2.617103E-04 -5.919597E-05 +1.073480E-04 -5.919597E-05 +5.221266E-03 
 +1.546527E-05 +1.939660E-04 +1.138038E-04 +1.939660E-04 -3.108096E-04 -2.381635E-05 +1.138038E-04 -2.381635E-05 +5.243664E-03 
 +4.593735E-05 +2.175916E-04 +8.227731E-05 +2.175916E-04 -3.860213E-04 +1.988450E-05 +8.227731E-05 +1.988450E-05 +5.213684E-03 
 +1.617258E-04 +1.132604E-07 +2.848487E-06 +1.132604E-07 -4.375036E-04 +9.445874E-05 +2.848487E-06 +9.445874E-05 +5.167610E-03 
 +2.200373E-04 -5.389560E-05 +2.835385E-05 -5.389560E-05 -3.381584E-04 +1.394171E-04 +2.835385E-05 +1.394171E-04 +5.186688E-03 
 -6.633785E-05 -1.708904E-04 +2.451888E-05 -1.708904E-04 -1.620541E-04 +1.315120E-04 +2.451888E-05 +1.315120E-04 +5.207720E-03 
 -1.223599E-04 -1.388906E-04 +4.913833E-05 -1.388906E-04 -1.000553E-04 +7.245357E-05 +4.913833E-05 +7.245357E-05 +5.192310E-03 
 -1.052931E-04 -6.503809E-05 +2.991661E-05 -6.503809E-05 -1.237575E-04 -7.802319E-05 +2.991661E-05 -7.802319E-05 +5.178690E-03 
 -1.582896E-04 -3.848539E-05 -5.018740E-05 -3.848539E-05 -6.765764E-05 -2.563534E-04 -5.018740E-05 -2.563534E-04 +5.193649E-03 
 -3.023283E-04 -1.591391E-04 -7.285253E-05 -1.591391E-04 -1.529177E-04 -3.331670E-04 -7.285253E-05 -3.331670E-04 +5.216659E-03 
 -5.976212E-05 -1.006234E-04 -2.874335E-05 -1.006234E-04 -4.193184E-04 -2.361819E-04 -2.874335E-05 -2.361819E-04 +5.207994E-03 
 +9.813615E-05 +3.806428E-05 +6.505850E-06 +3.806428E-05 -4.836865E-04 -1.316126E-04 +6.505850E-06 -1.316126E-04 +5.167930E-03 
 +2.076976E-04 +4.675448E-05 -5.040004E-05 +4.675448E-05 -4.020937E-04 -7.041983E-05 -5.040004E-05 -7.041983E-05 +5.102882E-03 
 +2.671531E-04 +1.231996E-04 -4.603214E-05 +1.231996E-04 -1.990734E-04 -9.913693E-06 -4.603214E-05 -9.913693E-06 +5.000595E-03 
 -3.872315E-06 +1.645504E-04 -7.196582E-05 +1.645504E-04 +1.318519E-04 +5.439004E-05 -7.196582E-05 +5.439004E-05 +4.925763E-03 
 -1.401334E-04 +9.065284E-05 -8.748759E-05 +9.065284E-05 +2.877954E-04 +9.163770E-05 -8.748759E-05 +9.163770E-05 +4.950768E-03 
 -1.788110E-04 +2.149814E-05 -1.361064E-04 +2.149814E-05 +2.342150E-04 +1.919488E-05 -1.361064E-04 +1.919488E-05 +4.968066E-03 
 -1.019717E-04 +1.737059E-05 -1.138215E-04 +1.737059E-05 +9.752458E-05 +3.948423E-05 -1.138215E-04 +3.948423E-05 +5.029952E-03 
 +6.028387E-05 +3.652778E-04 +5.367746E-05 +3.652778E-04 -7.040041E-05 +4.375026E-05 +5.367746E-05 +4.375026E-05 +5.118257E-03 
 +9.729463E-05 +2.819639E-04 +3.663178E-05 +2.819639E-04 -1.760256E-04 +3.653126E-06 +3.663178E-05 +3.653126E-06 +5.140983E-03 
 +3.236085E-05 +2.701997E-04 +4.531376E-05 +2.701997E-04 -2.083195E-04 -3.210475E-05 +4.531376E-05 -3.210475E-05 +5.171820E-03 
 -1.206902E-05 +2.373022E-04 +6.104327E-05 +2.373022E-04 -2.097033E-04 -5.504432E-05 +6.104327E-05 -5.504432E-05 +5.204547E-03 
 -7.257427E-05 +1.970070E-04 +8.247536E-05 +1.970070E-04 -2.741985E-04 -3.038492E-05 +8.247536E-05 -3.038492E-05 +5.229278E-03 
 -1.527230E-06 +1.981501E-04 +8.456263E-05 +1.981501E-04 -3.808193E-04 +2.104146E-05 +8.456263E-05 +2.104146E-05 +5.212975E-03 
 +9.034000E-05 +4.217768E-05 +4.569821E-06 +4.217768E-05 -4.435133E-04 +1.109933E-04 +4.569821E-06 +1.109933E-04 +5.194455E-03 
 +9.345457E-06 +1.310206E-04 +1.119615E-05 +1.310206E-04 -4.760557E-04 +1.566926E-04 +1.119615E-05 +1.566926E-04 +5.213631E-03 
 -7.075343E-05 +1.678449E-04 +1.201397E-05 +1.678449E-04 -4.973934E-04 +1.181257E-04 +1.201397E-05 +1.181257E-04 +5.226891E-03 
 +6.858673E-06 +2.102808E-04 +3.045120E-05 +2.102808E-04 -4.603128E-04 +9.204965E-05 +3.045120E-05 +9.204965E-05 +5.222924E-03 
 -1.138123E-04 +1.518919E-04 +3.585141E-05 +1.518919E-04 -4.037037E-04 +2.554471E-05 +3.585141E-05 +2.554471E-05 +5.260053E-03 
 -1.346083E-04 +1.584490E-04 +2.040620E-05 +1.584490E-04 -5.164952E-04 -1.102680E-04 +2.040620E-05 -1.102680E-04 +5.334950E-03 
 -1.622469E-04 +4.060963E-05 +5.044674E-05 +4.060963E-05 -6.230978E-04 -2.748324E-04 +5.044674E-05 -2.748324E-04 +5.373153E-03 
 -3.258483E-05 +4.009045E-05 +2.815639E-05 +4.009045E-05 -5.315355E-04 -2.801970E-04 +2.815639E-05 -2.801970E-04 +5.309401E-03 
 +1.035520E-04 +3.989388E-05 -3.734670E-05 +3.989388E-05 -3.914805E-04 -1.469702E-04 -3.734670E-05 -1.469702E-04 +5.173877E-03 
 +1.443922E-04 -3.311799E-05 -9.423227E-05 -3.311799E-05 -2.945453E-04 -4.108721E-05 -9.423227E-05 -4.108721E-05 +5.074973E-03 
 +1.415526E-04 +9.694584E-05 -5.852473E-05 +9.694584E-05 -2.653734E-04 +8.639848E-06 -5.852473E-05 +8.639848E-06 +5.029504E-03 
 +2.125102E-04 +1.425038E-04 -4.321667E-05 +1.425038E-04 -1.903440E-04 +2.230888E-05 -4.321667E-05 +2.230888E-05 +5.020411E-03 
 +1.856699E-05 +9.443959E-05 -1.155570E-04 +9.443959E-05 +1.918781E-05 +8.507794E-05 -1.155570E-04 +8.507794E-05 +5.072466E-03 
 -1.568114E-04 +5.610979E-05 -1.698028E-04 +5.610979E-05 +1.856986E-04 +9.738614E-05 -1.698028E-04 +9.738614E-05 +5.108472E-03 
 -1.578512E-04 -1.398210E-05 -1.566523E-04 -1.398210E-05 +1.313407E-04 +1.129895E-04 -1.566523E-04 +1.129895E-04 +5.119032E-03 
 +5.815725E-05 +3.145927E-04 +2.737963E-05 +3.145927E-04 -4.808887E-05 +9.374297E-05 +2.737963E-05 +9.374297E-05 +5.131084E-03 
 +1.761753E-05 +3.678175E-04 -1.971620E-05 +3.678175E-04 -1.763868E-04 +4.802298E-05 -1.971620E-05 +4.802298E-05 +5.123539E-03 
 +2.821574E-05 +2.981107E-04 +2.858283E-06 +2.981107E-04 -1.530860E-04 -3.268947E-07 +2.858283E-06 -3.268947E-07 +5.143474E-03 
 -1.521243E-05 +2.954447E-04 +7.914247E-06 +2.954447E-04 -2.029955E-04 -1.362400E-05 +7.914247E-06 -1.362400E-05 +5.158200E-03 
 -5.726763E-06 +3.170311E-04 -8.339417E-06 +3.170311E-04 -2.284119E-04 -2.907936E-05 -8.339417E-06 -2.907936E-05 +5.178080E-03 
 -1.243253E-04 +3.049476E-04 -3.396457E-05 +3.049476E-04 -4.171201E-04 +2.330569E-06 -3.396457E-05 +2.330569E-06 +5.220563E-03 
 -1.522092E-04 +1.125920E-04 -3.152165E-05 +1.125920E-04 -5.715092E-04 +9.265781E-05 -3.152165E-05 +9.265781E-05 +5.263826E-03 
 -7.478176E-05 +9.405354E-05 +4.973075E-05 +9.405354E-05 -5.249118E-04 +1.471469E-04 +4.973075E-05 +1.471469E-04 +5.254809E-03 
 +3.944737E-05 +6.360830E-05 +6.414494E-05 +6.360830E-05 -5.299819E-04 +1.119654E-04 +6.414494E-05 +1.119654E-04 +5.244925E-03 
 +4.506729E-05 +1.245405E-04 +6.822786E-05 +1.245405E-04 -5.716813E-04 +8.285792E-05 +6.822786E-05 +8.285792E-05 +5.263869E-03 
 +4.915272E-05 +1.894983E-04 +9.509273E-05 +1.894983E-04 -6.307480E-04 +7.542937E-05 +9.509273E-05 +7.542937E-05 +5.310622E-03 
 -1.095957E-04 +2.010431E-04 +1.516016E-04 +2.010431E-04 -7.319445E-04 -9.054169E-06 +1.516016E-04 -9.054169E-06 +5.416718E-03 
 -2.690375E-04 +7.451861E-05 +2.328068E-04 +7.451861E-05 -6.732098E-04 -1.091445E-04 +2.328068E-04 -1.091445E-04 +5.474060E-03 
 -2.183639E-04 -4.230617E-05 +1.481439E-04 -4.230617E-05 -4.867554E-04 -1.550546E-04 +1.481439E-04 -1.550546E-04 +5.393719E-03 
 +1.270761E-05 +6.900544E-06 -1.270892E-05 +6.900544E-06 -3.599438E-04 -1.195729E-04 -1.270892E-05 -1.195729E-04 +5.218261E-03 
 +1.753343E-04 +7.529638E-06 -7.912172E-05 +7.529638E-06 -1.768182E-04 -2.484142E-05 -7.912172E-05 -2.484142E-05 +5.071789E-03 
 +2.305482E-05 +1.001434E-04 -2.802675E-05 +1.001434E-04 -6.268120E-05 +2.869567E-05 -2.802675E-05 +2.869567E-05 +5.056429E-03 
 +3.169229E-04 +7.343564E-05 +1.456393E-05 +7.343564E-05 -2.684208E-04 -3.732630E-05 +1.456393E-05 -3.732630E-05 +5.150887E-03 
 +2.760996E-04 +1.602094E-04 -5.974106E-05 +1.602094E-04 -2.650136E-04 -6.844409E-05 -5.974106E-05 -6.844409E-05 +5.205080E-03 
 +3.318807E-05 +9.626674E-05 -1.543195E-04 +9.626674E-05 +1.121548E-04 +3.839438E-05 -1.543195E-04 +3.839438E-05 +5.165561E-03 
 -5.368744E-05 +2.631382E-05 -1.676822E-04 +2.631382E-05 +2.979648E-04 +1.564872E-04 -1.676822E-04 +1.564872E-04 +5.127600E-03 
 +6.236121E-06 +2.928901E-04 -3.202922E-05 +2.928901E-04 +3.244621E-05 +1.472898E-04 -3.202922E-05 +1.472898E-04 +5.114317E-03 
 +1.165739E-04 +3.141454E-04 -9.683016E-05 +3.141454E-04 -1.016811E-04 +7.159307E-05 -9.683016E-05 +7.159307E-05 +5.073260E-03 
 +5.371757E-05 +3.603104E-04 -6.179667E-05 +3.603104E-04 -1.697256E-04 -2.071548E-06 -6.179667E-05 -2.071548E-06 +5.085014E-03 
 +5.167847E-05 +4.022093E-04 -1.337764E-05 +4.022093E-04 -1.645855E-04 +2.459181E-05 -1.337764E-05 +2.459181E-05 +5.096628E-03 
 -4.826624E-05 +3.213625E-04 -4.634464E-05 +3.213625E-04 -1.371569E-04 +1.786765E-05 -4.634464E-05 +1.786765E-05 +5.118877E-03 
 -4.374718E-04 +4.720996E-05 -9.390471E-05 +4.720996E-05 -3.367643E-05 -7.591838E-06 -9.390471E-05 -7.591838E-06 +5.188985E-03 
 -4.126802E-04 -8.890089E-05 -2.895861E-05 -8.890089E-05 -4.549872E-05 +4.711243E-05 -2.895861E-05 +4.711243E-05 +5.231250E-03 
 -4.622211E-05 +8.415832E-07 +7.826600E-05 +8.415832E-07 -3.346331E-04 +9.210194E-05 +7.826600E-05 +9.210194E-05 +5.198500E-03 
 +8.031700E-05 +9.419678E-05 +1.023016E-04 +9.419678E-05 -5.548963E-04 +9.859980E-05 +1.023016E-04 +9.859980E-05 +5.195839E-03 
 +9.952308E-05 +1.271926E-04 +1.105933E-04 +1.271926E-04 -6.564753E-04 +7.175520E-05 +1.105933E-04 +7.175520E-05 +5.232380E-03 
 +9.440165E-05 +9.524189E-05 +1.481062E-04 +9.524189E-05 -5.544120E-04 +6.686710E-05 +1.481062E-04 +6.686710E-05 +5.287349E-03 
 -3.125992E-04 -1.379109E-04 +2.199042E-04 -1.379109E-04 -1.780708E-04 +4.652538E-05 +2.199042E-04 +4.652538E-05 +5.375344E-03 
 -4.364779E-04 -2.563601E-04 +3.389961E-04 -2.563601E-04 +2.584858E-05 +1.009167E-05 +3.389961E-04 +1.009167E-05 +5.366232E-03 
 -3.049935E-04 -3.200558E-04 +2.777868E-04 -3.200558E-04 -1.012743E-04 -3.816682E-06 +2.777868E-04 -3.816682E-06 +5.274850E-03 
 +2.138381E-05 -2.163484E-04 +9.615360E-05 -2.163484E-04 -3.133997E-04 -3.878247E-05 +9.615360E-05 -3.878247E-05 +5.158694E-03 
 +2.685769E-04 -5.633184E-05 +1.192099E-06 -5.633184E-05 -2.817474E-04 -6.130407E-05 +1.192099E-06 -6.130407E-05 +5.044006E-03 
 +1.453430E-04 -3.026681E-05 -2.199676E-05 -3.026681E-05 -2.511156E-04 -6.810529E-05 -2.199676E-05 -6.810529E-05 +5.044153E-03 
 +1.226311E-04 -9.148458E-05 -4.377923E-05 -9.148458E-05 -2.932990E-04 -1.370385E-04 -4.377923E-05 -1.370385E-04 +5.132307E-03 
 +3.037156E-04 +8.143094E-06 -6.047882E-05 +8.143094E-06 -2.200235E-04 -1.760171E-04 -6.047882E-05 -1.760171E-04 +5.137309E-03 
 +2.779843E-04 -1.861846E-04 -1.168123E-04 -1.861846E-04 -1.640722E-04 -6.397426E-05 -1.168123E-04 -6.397426E-05 +5.047035E-03 
 +2.113008E-04 -3.514814E-04 -1.416465E-04 -3.514814E-04 -4.758522E-05 +9.229959E-05 -1.416465E-04 +9.229959E-05 +5.032434E-03 
 +1.514771E-04 -1.865791E-04 -1.024616E-04 -1.865791E-04 +5.028302E-06 +1.338930E-04 -1.024616E-04 +1.338930E-04 +5.067345E-03 
 +3.044674E-04 -1.426696E-04 -1.523092E-04 -1.426696E-04 -3.312678E-05 +9.871350E-05 -1.523092E-04 +9.871350E-05 +5.031048E-03 
 +2.322352E-04 +8.601133E-06 -9.156387E-05 +8.601133E-06 -1.549356E-04 -3.177055E-05 -9.156387E-05 -3.177055E-05 +5.039634E-03 
 +2.861366E-05 +1.381697E-04 +2.704027E-05 +1.381697E-04 +5.156498E-05 -2.792057E-05 +2.704027E-05 -2.792057E-05 +5.027565E-03 
 -4.023125E-04 -1.219811E-04 +2.356858E-05 -1.219811E-04 +2.283713E-04 +3.043210E-05 +2.356858E-05 +3.043210E-05 +5.094935E-03 
 -5.059583E-04 -1.962933E-04 -3.996485E-05 -1.962933E-04 +1.965299E-04 -2.266916E-05 -3.996485E-05 -2.266916E-05 +5.142149E-03 
 -3.936174E-04 -1.833194E-04 -2.486799E-05 -1.833194E-04 +1.898094E-04 -5.524498E-06 -2.486799E-05 -5.524498E-06 +5.116146E-03 
 -1.288078E-04 -2.472608E-04 -3.589877E-06 -2.472608E-04 +1.639547E-04 +3.498884E-05 -3.589877E-06 +3.498884E-05 +5.077121E-03 
 -1.275620E-05 -2.661803E-04 +2.426806E-05 -2.661803E-04 +6.107765E-05 +7.313840E-05 +2.426806E-05 +7.313840E-05 +5.075395E-03 
 -1.030981E-05 -3.314890E-04 +7.354821E-05 -3.314890E-04 +7.128707E-05 +1.095518E-04 +7.354821E-05 +1.095518E-04 +5.104131E-03 
 -1.307379E-04 -3.107879E-04 +1.285756E-04 -3.107879E-04 +8.356797E-05 +1.359663E-04 +1.285756E-04 +1.359663E-04 +5.149197E-03 
 -2.932983E-04 -2.791151E-04 +1.932118E-04 -2.791151E-04 +2.416261E-05 +1.221859E-04 +1.932118E-04 +1.221859E-04 +5.203095E-03 
 -2.523578E-04 -2.182629E-04 +2.660445E-04 -2.182629E-04 +3.911101E-05 +5.408725E-05 +2.660445E-04 +5.408725E-05 +5.203483E-03 
 -2.371066E-04 -2.090357E-04 +2.336960E-04 -2.090357E-04 +1.355586E-04 +3.353718E-05 +2.336960E-04 +3.353718E-05 +5.161258E-03 
 -1.206867E-04 -2.258134E-04 +1.602591E-04 -2.258134E-04 +7.186502E-05 +5.826254E-06 +1.602591E-04 +5.826254E-06 +5.044335E-03 
 +3.354471E-04 -6.063153E-05 +7.413345E-05 -6.063153E-05 -1.653874E-04 -4.193137E-05 +7.413345E-05 -4.193137E-05 +4.883961E-03 
 +4.874887E-04 +3.344935E-05 +3.277810E-05 +3.344935E-05 -1.594161E-05 -3.562388E-05 +3.277810E-05 -3.562388E-05 +4.882318E-03 
 +6.169075E-05 +1.376916E-04 -8.502099E-06 +1.376916E-04 +3.172990E-04 -6.798342E-05 -8.502099E-06 -6.798342E-05 +4.966702E-03 
 -1.911785E-05 +1.797989E-04 -6.364749E-05 +1.797989E-04 +2.469409E-04 -7.777068E-05 -6.364749E-05 -7.777068E-05 +4.959478E-03 
 +3.612483E-04 -1.363423E-04 -1.288251E-04 -1.363423E-04 -2.717940E-05 +5.719585E-05 -1.288251E-04 +5.719585E-05 +4.917292E-03 
 +3.832552E-04 -2.863545E-04 -1.342739E-04 -2.863545E-04 -1.290293E-04 +1.439969E-04 -1.342739E-04 +1.439969E-04 +4.952287E-03 
 +3.124388E-04 -2.800490E-04 -1.312175E-04 -2.800490E-04 -5.742932E-07 +1.308769E-04 -1.312175E-04 +1.308769E-04 +4.996750E-03 
 +2.608388E-04 -1.779747E-04 -1.869924E-04 -1.779747E-04 +4.623745E-06 +1.417802E-04 -1.869924E-04 +1.417802E-04 +5.033702E-03 
 +2.509417E-04 -1.138260E-04 -8.131636E-05 -1.138260E-04 +7.428467E-05 -5.008079E-05 -8.131636E-05 -5.008079E-05 +5.062715E-03 
 +2.964480E-05 -9.674663E-06 +8.385420E-05 -9.674663E-06 +1.016602E-04 -1.381102E-04 +8.385420E-05 -1.381102E-04 +5.028309E-03 
 -4.289923E-04 -3.254383E-05 +6.760534E-05 -3.254383E-05 +1.909030E-04 -6.671564E-06 +6.760534E-05 -6.671564E-06 +5.069645E-03 
 -4.069910E-04 -1.022646E-04 -1.655504E-05 -1.022646E-04 +2.998900E-04 -1.542605E-05 -1.655504E-05 -1.542605E-05 +5.056711E-03 
 -3.638895E-04 -1.936460E-04 -2.524306E-05 -1.936460E-04 +2.994246E-04 -4.482142E-05 -2.524306E-05 -4.482142E-05 +5.008202E-03 
 -3.022339E-04 -2.510150E-04 -3.233650E-05 -2.510150E-04 +3.119543E-04 -3.920852E-05 -3.233650E-05 -3.920852E-05 +4.998215E-03 
 -2.359898E-04 -2.223550E-04 -2.346564E-05 -2.223550E-04 +2.873502E-04 -2.709554E-05 -2.346564E-05 -2.709554E-05 +4.997987E-03 
 -1.907494E-04 -1.688373E-04 +1.817721E-06 -1.688373E-04 +2.513533E-04 +5.069754E-05 +1.817721E-06 +5.069754E-05 +5.004093E-03 
 -2.213372E-04 -2.218743E-04 +6.713951E-05 -2.218743E-04 +1.433690E-04 +1.184695E-04 +6.713951E-05 +1.184695E-04 +4.992099E-03 
 -3.842785E-05 -1.375866E-04 +1.169399E-04 -1.375866E-04 +6.313455E-05 +1.097733E-04 +1.169399E-04 +1.097733E-04 +4.996331E-03 
 -4.111795E-05 -2.055287E-04 +1.527088E-04 -2.055287E-04 +1.096359E-04 +9.365914E-05 +1.527088E-04 +9.365914E-05 +5.022588E-03 
 -9.455726E-05 -2.246678E-04 +1.305062E-04 -2.246678E-04 +1.497569E-04 +7.681170E-05 +1.305062E-04 +7.681170E-05 +5.024498E-03 
 -1.006251E-04 -1.921840E-04 +9.797094E-05 -1.921840E-04 +2.030981E-04 -1.351472E-05 +9.797094E-05 -1.351472E-05 +4.894420E-03 
 +2.728168E-04 +8.516781E-05 -3.271307E-06 +8.516781E-05 +1.824969E-04 -5.973229E-05 -3.271307E-06 -5.973229E-05 +4.711971E-03 
 +4.934723E-04 +6.407949E-05 +3.282952E-05 +6.407949E-05 -3.714552E-05 +9.099485E-06 +3.282952E-05 +9.099485E-06 +4.721624E-03 
 +3.577136E-04 +1.053313E-04 +5.362920E-05 +1.053313E-04 +4.005933E-06 +1.190256E-05 +5.362920E-05 +1.190256E-05 +4.837408E-03 
 -9.415066E-05 +1.457730E-04 -7.408125E-07 +1.457730E-04 +1.979238E-04 +2.898338E-05 -7.408125E-07 +2.898338E-05 +4.897516E-03 
 +1.964476E-04 -7.004974E-05 -1.098357E-04 -7.004974E-05 +5.083058E-05 +1.606361E-04 -1.098357E-04 +1.606361E-04 +4.884855E-03 
 +3.639370E-04 -2.161076E-04 -1.304446E-04 -2.161076E-04 -6.621837E-05 +1.971346E-04 -1.304446E-04 +1.971346E-04 +4.902461E-03 
 +2.930910E-04 -2.038846E-04 -1.337726E-04 -2.038846E-04 -3.573744E-05 +1.565192E-04 -1.337726E-04 +1.565192E-04 +4.950610E-03 
 +2.351217E-04 -1.597452E-04 -1.882233E-04 -1.597452E-04 -8.856314E-06 +1.461572E-04 -1.882233E-04 +1.461572E-04 +5.035775E-03 
 +1.786300E-04 +3.363351E-05 -9.352999E-05 +3.363351E-05 +6.595825E-05 -4.997271E-05 -9.352999E-05 -4.997271E-05 +5.080155E-03 
 +1.180074E-06 +1.414682E-04 +5.674051E-05 +1.414682E-04 +1.313206E-04 -1.696767E-04 +5.674051E-05 -1.696767E-04 +5.029606E-03 
 -2.822672E-04 -4.307216E-06 +4.214589E-05 -4.307216E-06 +2.644415E-04 -5.460811E-05 +4.214589E-05 -5.460811E-05 +4.998690E-03 
 -3.940892E-04 -1.742055E-04 +3.508724E-07 -1.742055E-04 +3.729429E-04 -1.511394E-05 +3.508724E-07 -1.511394E-05 +4.961622E-03 
 -3.465329E-04 -2.163009E-04 +3.399281E-05 -2.163009E-04 +3.850143E-04 -3.203622E-05 +3.399281E-05 -3.203622E-05 +4.937011E-03 
 -3.729041E-04 -2.423439E-04 +2.060974E-05 -2.423439E-04 +3.638146E-04 -4.025654E-05 +2.060974E-05 -4.025654E-05 +4.957197E-03 
 -3.871993E-04 -2.333017E-04 +1.049437E-05 -2.333017E-04 +3.602732E-04 -4.172956E-05 +1.049437E-05 -4.172956E-05 +4.951135E-03 
 -3.333729E-04 -1.812022E-04 +1.545257E-05 -1.812022E-04 +2.725216E-04 +4.376253E-05 +1.545257E-05 +4.376253E-05 +4.914869E-03 
 -1.399736E-04 -1.850711E-04 -1.523064E-05 -1.850711E-04 +1.926777E-04 +1.059144E-04 -1.523064E-05 +1.059144E-04 +4.857948E-03 
 +1.658746E-04 +4.031508E-05 -1.595382E-05 +4.031508E-05 +1.361186E-04 +5.735518E-05 -1.595382E-05 +5.735518E-05 +4.813098E-03 
 +1.420898E-04 +1.249943E-04 +4.664725E-05 +1.249943E-04 +1.439653E-04 +7.208555E-06 +4.664725E-05 +7.208555E-06 +4.814924E-03 
 +2.339277E-05 +9.262585E-05 +5.018325E-05 +9.262585E-05 +1.786630E-04 -4.701332E-05 +5.018325E-05 -4.701332E-05 +4.852598E-03 
 -8.366771E-06 +3.208520E-05 +1.697356E-05 +3.208520E-05 +1.814295E-04 -9.761577E-05 +1.697356E-05 -9.761577E-05 +4.832391E-03 
 +5.265831E-05 +6.632817E-05 -4.951858E-05 +6.632817E-05 +1.941222E-04 -3.384474E-05 -4.951858E-05 -3.384474E-05 +4.781063E-03 
 +2.374514E-04 -8.729536E-06 -3.969088E-05 -8.729536E-06 +1.229992E-04 +6.132243E-05 -3.969088E-05 +6.132243E-05 +4.761072E-03 
 +4.259778E-04 +1.148276E-04 -4.976616E-05 +1.148276E-04 -4.372204E-05 +1.288781E-05 -4.976616E-05 +1.288781E-05 +4.786148E-03 
 +2.328915E-04 -4.590411E-05 -2.058886E-05 -4.590411E-05 -1.639181E-04 +4.669969E-05 -2.058886E-05 +4.669969E-05 +4.890991E-03 
 +9.294810E-05 -1.761349E-04 -5.904650E-05 -1.761349E-04 -6.992362E-05 +2.198412E-04 -5.904650E-05 +2.198412E-04 +4.926949E-03 
 +2.271324E-04 -2.190563E-04 -8.681933E-05 -2.190563E-04 -2.965582E-05 +2.295927E-04 -8.681933E-05 +2.295927E-04 +4.929180E-03 
 +2.491162E-04 -2.016253E-04 -1.159881E-04 -2.016253E-04 -7.996966E-05 +1.647630E-04 -1.159881E-04 +1.647630E-04 +4.963459E-03 
 +2.091077E-04 -1.764107E-04 -1.527741E-04 -1.764107E-04 -9.030651E-05 +1.192045E-04 -1.527741E-04 +1.192045E-04 +5.030843E-03 
 +2.353851E-04 +1.711938E-05 -3.480633E-05 +1.711938E-05 +9.856911E-05 -8.694657E-05 -3.480633E-05 -8.694657E-05 +4.973118E-03 
 -1.163429E-04 +1.238986E-04 +9.276543E-05 +1.238986E-04 +4.437610E-04 -1.843978E-04 +9.276543E-05 -1.843978E-04 +4.891984E-03 
 -2.712082E-04 -6.191694E-05 +3.823678E-05 -6.191694E-05 +4.555464E-04 -7.049916E-05 +3.823678E-05 -7.049916E-05 +4.932068E-03 
 -2.950321E-04 -1.941150E-04 +2.587314E-05 -1.941150E-04 +3.201572E-04 -3.497436E-05 +2.587314E-05 -3.497436E-05 +4.946120E-03 
 -2.469042E-04 -2.506390E-04 +8.931388E-05 -2.506390E-04 +3.130311E-04 -3.435694E-05 +8.931388E-05 -3.435694E-05 +4.929456E-03 
 -3.925085E-04 -1.952940E-04 +6.008527E-05 -1.952940E-04 +3.528896E-04 -1.639027E-05 +6.008527E-05 -1.639027E-05 +4.941678E-03 
 -4.517719E-04 -1.430955E-04 +5.302889E-05 -1.430955E-04 +3.959359E-04 +1.494182E-05 +5.302889E-05 +1.494182E-05 +4.937576E-03 
 -4.029195E-04 -1.270709E-04 +4.647371E-05 -1.270709E-04 +2.936191E-04 +5.405460E-05 +4.647371E-05 +5.405460E-05 +4.876161E-03 
 +1.104902E-04 +3.602946E-05 -5.383551E-05 +3.602946E-05 +2.028821E-04 +2.182339E-05 -5.383551E-05 +2.182339E-05 +4.760810E-03 
 +2.993606E-04 +1.294226E-04 +1.916581E-06 +1.294226E-04 +1.480260E-04 -5.383469E-06 +1.916581E-06 -5.383469E-06 +4.725438E-03 
 +2.856428E-04 +1.942013E-04 +1.500201E-05 +1.942013E-04 +1.335996E-04 +5.075014E-05 +1.500201E-05 +5.075014E-05 +4.814956E-03 
 -2.083170E-05 -6.856088E-05 +6.187302E-05 -6.856088E-05 +1.623241E-04 +8.820712E-05 +6.187302E-05 +8.820712E-05 +4.932189E-03 
 -1.316496E-04 -1.142495E-04 +4.383014E-05 -1.142495E-04 +1.777577E-04 +8.473136E-05 +4.383014E-05 +8.473136E-05 +5.017467E-03 
 -1.707359E-04 -1.554245E-04 +3.044899E-07 -1.554245E-04 +5.035554E-05 +5.284092E-05 +3.044899E-07 +5.284092E-05 +5.001452E-03 
 +2.163899E-04 -2.410317E-05 -4.238191E-05 -2.410317E-05 -5.554413E-05 +1.557591E-05 -4.238191E-05 +1.557591E-05 +4.892698E-03 
 +3.248811E-04 +1.029252E-04 -3.494842E-05 +1.029252E-04 -5.185300E-05 -4.239883E-05 -3.494842E-05 -4.239883E-05 +4.857369E-03 
 +3.286955E-04 -3.824707E-05 -2.733705E-05 -3.824707E-05 -1.504832E-04 +1.756344E-05 -2.733705E-05 +1.756344E-05 +4.915215E-03 
 +1.592404E-04 -2.164285E-04 -4.907520E-05 -2.164285E-04 -1.623147E-04 +1.827311E-04 -4.907520E-05 +1.827311E-04 +4.951913E-03 
 +1.523404E-04 -3.253191E-04 -2.985133E-05 -3.253191E-04 -1.176289E-04 +2.015405E-04 -2.985133E-05 +2.015405E-04 +4.974603E-03 
 +1.782503E-04 -2.394026E-04 -6.495664E-05 -2.394026E-04 -8.447112E-05 +1.517673E-04 -6.495664E-05 +1.517673E-04 +4.998278E-03 
 +1.081191E-04 -2.146685E-04 -3.588784E-05 -2.146685E-04 -7.293498E-05 +9.513434E-05 -3.588784E-05 +9.513434E-05 +5.026859E-03 
 +1.752265E-04 +1.296394E-05 +9.534766E-05 +1.296394E-05 +1.915239E-04 -9.478389E-05 +9.534766E-05 -9.478389E-05 +4.902300E-03 
 +5.647211E-05 +2.089688E-04 +1.158244E-04 +2.089688E-04 +4.160549E-04 -2.052650E-04 +1.158244E-04 -2.052650E-04 +4.860575E-03 
 -3.453460E-04 -2.350072E-04 -2.287811E-05 -2.350072E-04 +4.410385E-04 -1.451743E-04 -2.287811E-05 -1.451743E-04 +4.948719E-03 
 -2.531883E-04 -3.534376E-04 +6.522111E-07 -3.534376E-04 +2.289137E-04 -1.160070E-04 +6.522111E-07 -1.160070E-04 +4.972699E-03 
 -1.830128E-04 -4.313522E-04 +6.318183E-05 -4.313522E-04 +1.234866E-04 -7.482199E-05 +6.318183E-05 -7.482199E-05 +4.950485E-03 
 -2.528933E-04 -3.050331E-04 +4.779690E-05 -3.050331E-04 +1.600184E-04 -2.033728E-05 +4.779690E-05 -2.033728E-05 +4.941668E-03 
 -4.302533E-04 -2.166750E-04 +7.274839E-05 -2.166750E-04 +2.669800E-04 +2.771166E-05 +7.274839E-05 +2.771166E-05 +4.942897E-03 
 -2.994950E-04 -1.746109E-04 +4.674383E-05 -1.746109E-04 +3.831425E-04 +1.108813E-04 +4.674383E-05 +1.108813E-04 +4.816559E-03 
 +2.358351E-04 -5.308155E-05 -5.713777E-06 -5.308155E-05 +3.918986E-04 +1.681013E-04 -5.713777E-06 +1.681013E-04 +4.596444E-03 
 +3.298529E-04 -6.131107E-05 +7.308684E-05 -6.131107E-05 +2.693690E-04 +8.521235E-05 +7.308684E-05 +8.521235E-05 +4.574603E-03 
 +3.055080E-04 +9.519091E-05 +4.562757E-05 +9.519091E-05 +1.328046E-04 +4.628619E-05 +4.562757E-05 +4.628619E-05 +4.800713E-03 
 -7.179695E-05 -8.684353E-05 +1.165339E-04 -8.684353E-05 +8.445968E-05 +1.131596E-04 +1.165339E-04 +1.131596E-04 +5.047927E-03 
 -1.523125E-04 -9.038732E-06 +5.157035E-05 -9.038732E-06 +1.066847E-04 +1.145335E-04 +5.157035E-05 +1.145335E-04 +5.153387E-03 
 -1.888885E-04 -3.972424E-05 -2.762059E-05 -3.972424E-05 +1.476804E-04 +1.033920E-05 -2.762059E-05 +1.033920E-05 +5.062639E-03 
 +1.653033E-04 +1.419000E-04 -5.983375E-05 +1.419000E-04 +1.298222E-04 -6.456075E-05 -5.983375E-05 -6.456075E-05 +4.894075E-03 
 +2.516931E-04 +7.993136E-05 +3.705485E-05 +7.993136E-05 -4.247379E-05 -4.315431E-05 +3.705485E-05 -4.315431E-05 +4.893814E-03 
 +2.518001E-04 -6.053456E-06 +3.010344E-05 -6.053456E-06 -1.312519E-04 +1.866482E-05 +3.010344E-05 +1.866482E-05 +4.962430E-03 
 +1.535743E-04 -1.626031E-04 -1.191056E-05 -1.626031E-04 -1.214953E-04 +8.952038E-05 -1.191056E-05 +8.952038E-05 +4.991142E-03 
 +8.347211E-05 -2.969413E-04 +2.656074E-05 -2.969413E-04 -9.599795E-05 +1.145134E-04 +2.656074E-05 +1.145134E-04 +5.024038E-03 
 +6.028989E-05 -3.469006E-04 +2.744346E-05 -3.469006E-04 -1.673222E-04 +1.142906E-04 +2.744346E-05 +1.142906E-04 +5.048201E-03 
 -1.077668E-05 +2.178365E-04 +1.613165E-05 +2.178365E-04 -3.256252E-05 +4.985449E-05 +1.613165E-05 +4.985449E-05 +5.052412E-03 
 +3.440653E-05 +2.345015E-04 +5.453587E-05 +2.345015E-04 +6.915775E-05 -7.953375E-05 +5.453587E-05 -7.953375E-05 +5.042481E-03 
 +4.570279E-05 +3.121851E-04 -2.153525E-05 +3.121851E-04 +4.525328E-05 -1.422729E-04 -2.153525E-05 -1.422729E-04 +5.064581E-03 
 -2.954937E-04 -2.631194E-04 -1.119421E-04 -2.631194E-04 +2.403580E-04 -1.633510E-04 -1.119421E-04 -1.633510E-04 +5.050762E-03 
 -2.415118E-04 -3.994825E-04 -7.828201E-05 -3.994825E-04 +2.353548E-04 -1.407538E-04 -7.828201E-05 -1.407538E-04 +5.013079E-03 
 -1.789864E-04 -3.530623E-04 -8.237233E-06 -3.530623E-04 +8.246136E-05 -3.780022E-05 -8.237233E-06 -3.780022E-05 +4.987551E-03 
 -2.662328E-04 -3.334722E-04 -1.829462E-05 -3.334722E-04 +3.597515E-05 -1.370133E-05 -1.829462E-05 -1.370133E-05 +4.969292E-03 
 -3.219069E-04 -2.267915E-04 +4.210032E-05 -2.267915E-04 +1.617564E-04 -6.823005E-05 +4.210032E-05 -6.823005E-05 +4.901887E-03 
 +2.162021E-05 -1.326584E-04 +3.880909E-05 -1.326584E-04 +4.413645E-04 -2.012585E-05 +3.880909E-05 -2.012585E-05 +4.720495E-03 
 +2.405130E-04 -7.410797E-05 +1.215408E-05 -7.410797E-05 +4.698488E-04 +6.020482E-05 +1.215408E-05 +6.020482E-05 +4.567798E-03 
 +2.812440E-04 -9.756100E-05 +7.971596E-05 -9.756100E-05 +3.849243E-04 +8.087064E-05 +7.971596E-05 +8.087064E-05 +4.518587E-03 
 +3.010372E-04 -9.984346E-05 +6.374203E-05 -9.984346E-05 +2.230614E-04 +1.401234E-04 +6.374203E-05 +1.401234E-04 +4.666925E-03 
 +1.975675E-05 -1.725997E-04 +9.509243E-05 -1.725997E-04 +7.273416E-05 +1.554406E-04 +9.509243E-05 +1.554406E-04 +4.975901E-03 
 -6.729199E-05 -8.746760E-05 +1.148540E-05 -8.746760E-05 +6.995811E-05 +1.151877E-04 +1.148540E-05 +1.151877E-04 +5.101476E-03 
 -3.819839E-05 -2.280088E-05 -1.002925E-04 -2.280088E-05 +1.231015E-04 +1.099557E-05 -1.002925E-04 +1.099557E-05 +5.006404E-03 
 +1.694986E-04 +2.271681E-04 -1.713819E-04 +2.271681E-04 +2.226642E-04 -8.988559E-05 -1.713819E-04 -8.988559E-05 +4.859925E-03 
 +1.173825E-04 +1.738836E-04 -3.428416E-05 +1.738836E-04 +1.798346E-04 -5.674674E-05 -3.428416E-05 -5.674674E-05 +4.873290E-03 
 +1.127769E-04 +1.137407E-04 +6.868760E-05 +1.137407E-04 +2.888628E-06 -4.914292E-07 +6.868760E-05 -4.914292E-07 +4.973081E-03 
 +7.026184E-05 -8.316003E-05 +4.696660E-05 -8.316003E-05 -7.018130E-05 +2.443475E-05 +4.696660E-05 +2.443475E-05 +5.012549E-03 
 +2.793902E-05 -1.802008E-04 +9.577877E-05 -1.802008E-04 -4.101662E-05 +5.306809E-05 +9.577877E-05 +5.306809E-05 +5.036782E-03 
 -2.172646E-05 -2.632909E-04 +8.836986E-05 -2.632909E-04 -1.060281E-04 +7.737556E-05 +8.836986E-05 +7.737556E-05 +5.060002E-03 
 -9.805415E-05 +3.992157E-04 +6.510166E-05 +3.992157E-04 +2.771178E-05 +1.085753E-05 +6.510166E-05 +1.085753E-05 +5.115695E-03 
 -2.045581E-04 +3.016249E-04 +2.767597E-07 +3.016249E-04 +1.220746E-04 -1.217796E-04 +2.767597E-07 -1.217796E-04 +5.200141E-03 
 -1.684590E-04 +3.582165E-04 -1.244778E-04 +3.582165E-04 -5.347566E-05 -1.131258E-04 -1.244778E-04 -1.131258E-04 +5.229087E-03 
 -8.305566E-05 +7.131069E-05 -1.651658E-04 +7.131069E-05 -8.992625E-05 -1.177199E-04 -1.651658E-04 -1.177199E-04 +5.153030E-03 
 -2.440363E-04 -3.559711E-04 -7.577922E-05 -3.559711E-04 +9.987084E-05 -1.337097E-04 -7.577922E-05 -1.337097E-04 +5.088850E-03 
 -2.889744E-04 -3.423249E-04 -2.924367E-05 -3.423249E-04 +2.394163E-05 -3.104443E-05 -2.924367E-05 -3.104443E-05 +5.049454E-03 
 -2.410953E-04 -2.000528E-04 -3.640207E-05 -2.000528E-04 +1.209463E-05 +8.094932E-06 -3.640207E-05 +8.094932E-06 +4.989123E-03 
 +9.502753E-07 +1.832397E-04 +1.544655E-05 +1.832397E-04 +2.960355E-05 -4.776328E-05 +1.544655E-05 -4.776328E-05 +4.897896E-03 
 +8.916904E-05 +2.214180E-04 +4.591184E-05 +2.214180E-04 +9.835629E-05 -4.954152E-05 +4.591184E-05 -4.954152E-05 +4.799110E-03 
 +2.141612E-04 -1.363515E-05 -2.017543E-05 -1.363515E-05 +3.794934E-04 +2.148706E-05 -2.017543E-05 +2.148706E-05 +4.756137E-03 
 +2.198828E-04 -1.185853E-04 +5.536592E-05 -1.185853E-04 +4.403314E-04 +5.741622E-05 +5.536592E-05 +5.741622E-05 +4.686050E-03 
 +2.231465E-04 -1.164214E-04 +6.663428E-05 -1.164214E-04 +2.967989E-04 +1.008790E-04 +6.663428E-05 +1.008790E-04 +4.632194E-03 
 +1.767472E-04 -1.220128E-04 +2.591634E-05 -1.220128E-04 +1.803362E-04 +1.145103E-04 +2.591634E-05 +1.145103E-04 +4.743447E-03 
 +8.751262E-05 +4.280638E-05 -4.420965E-05 +4.280638E-05 +9.786272E-05 +4.564146E-05 -4.420965E-05 +4.564146E-05 +4.880715E-03 
 +1.060129E-04 +1.844890E-04 -8.041469E-05 +1.844890E-04 +2.049751E-04 -6.315991E-05 -8.041469E-05 -6.315991E-05 +4.903843E-03 
 +8.673434E-05 +1.681299E-04 -1.515426E-04 +1.681299E-04 +2.570097E-04 -2.955776E-05 -1.515426E-04 -2.955776E-05 +4.874250E-03 
 +2.466608E-05 -9.554219E-05 -5.782478E-05 -9.554219E-05 +8.772195E-05 +1.023660E-04 -5.782478E-05 +1.023660E-04 +4.925084E-03 
 -1.394611E-05 -3.036089E-05 +5.166181E-05 -3.036089E-05 -6.519148E-06 +2.942391E-05 +5.166181E-05 +2.942391E-05 +4.972511E-03 
 +6.248021E-05 -8.540249E-05 +4.972341E-05 -8.540249E-05 -4.333070E-05 -2.811247E-05 +4.972341E-05 -2.811247E-05 +4.979735E-03 
 +4.829397E-05 -8.599831E-05 +1.247538E-04 -8.599831E-05 -6.909640E-05 +4.391274E-05 +1.247538E-04 +4.391274E-05 +5.004996E-03 
 +2.487820E-06 -2.193204E-04 +1.503395E-04 -2.193204E-04 -4.236728E-05 +7.172547E-05 +1.503395E-04 +7.172547E-05 +5.050566E-03 
 -2.631889E-04 +3.315186E-04 +1.079807E-04 +3.315186E-04 +2.130931E-04 +1.950747E-05 +1.079807E-04 +1.950747E-05 +5.143503E-03 
 -2.624724E-04 +2.548967E-04 +2.479743E-05 +2.548967E-04 +1.940421E-04 -9.781056E-05 +2.479743E-05 -9.781056E-05 +5.226224E-03 
 -1.639528E-04 +2.576838E-04 -1.201044E-04 +2.576838E-04 +1.215043E-06 -1.320355E-04 -1.201044E-04 -1.320355E-04 +5.245509E-03 
 -1.878846E-05 +2.427070E-04 -1.667817E-04 +2.427070E-04 -1.882239E-04 -8.695277E-05 -1.667817E-04 -8.695277E-05 +5.193966E-03 
 -2.514034E-04 -2.523944E-04 -2.199940E-05 -2.523944E-04 -1.443277E-04 -4.995887E-05 -2.199940E-05 -4.995887E-05 +5.221361E-03 
 -2.657131E-04 -1.812159E-04 -4.036143E-05 -1.812159E-04 -6.449613E-05 +2.110906E-05 -4.036143E-05 +2.110906E-05 +5.156558E-03 
 +1.649610E-05 +1.635346E-04 -4.917982E-05 +1.635346E-04 -1.357256E-05 +6.640902E-05 -4.917982E-05 +6.640902E-05 +4.987862E-03 
 +9.668240E-05 +2.367402E-04 -3.341005E-06 +2.367402E-04 +1.880663E-05 +4.442129E-05 -3.341005E-06 +4.442129E-05 +4.916823E-03 
 +2.146534E-05 +2.625278E-04 +8.756535E-06 +2.625278E-04 -5.172983E-05 -1.126382E-05 +8.756535E-06 -1.126382E-05 +4.905232E-03 
 +7.889556E-05 +2.348423E-04 -3.918195E-05 +2.348423E-04 +1.581495E-06 -3.968454E-05 -3.918195E-05 -3.968454E-05 +4.883499E-03 
 +1.747684E-04 -2.409290E-05 +8.927030E-07 -2.409290E-05 +3.023221E-04 +2.095128E-05 +8.927030E-07 +2.095128E-05 +4.815040E-03 
 +2.144338E-04 -1.435665E-04 +1.919627E-05 -1.435665E-04 +3.905763E-04 +1.061851E-04 +1.919627E-05 +1.061851E-04 +4.685468E-03 
 +1.859160E-04 -1.557758E-04 -1.641728E-05 -1.557758E-04 +2.932017E-04 +1.700861E-04 -1.641728E-05 +1.700861E-04 +4.592109E-03 
 +1.802175E-04 -1.497750E-04 -8.789202E-05 -1.497750E-04 +2.316379E-04 +1.269927E-04 -8.789202E-05 +1.269927E-04 +4.633990E-03 
 +4.620252E-05 -4.229789E-05 -2.190923E-05 -4.229789E-05 +1.381687E-04 +2.041406E-05 -2.190923E-05 +2.041406E-05 +4.770649E-03 
 -3.119188E-05 -1.673106E-04 -3.574153E-05 -1.673106E-04 -5.068252E-05 +7.212642E-05 -3.574153E-05 +7.212642E-05 +4.928804E-03 
 +5.061085E-05 -1.651756E-04 -1.851715E-05 -1.651756E-04 -1.378568E-04 +9.882209E-05 -1.851715E-05 +9.882209E-05 +5.009234E-03 
 +2.617437E-05 -3.466700E-05 +2.088415E-05 -3.466700E-05 -1.177657E-04 -3.603548E-05 +2.088415E-05 -3.603548E-05 +4.991298E-03 
 +1.047553E-04 -1.001105E-04 +5.041198E-05 -1.001105E-04 -1.743991E-04 -3.687609E-05 +5.041198E-05 -3.687609E-05 +4.987355E-03 
 +9.983600E-05 -7.389515E-05 +1.315974E-04 -7.389515E-05 -1.440654E-04 +4.091934E-05 +1.315974E-04 +4.091934E-05 +5.029661E-03 
 -3.966207E-05 -1.698636E-04 +1.792627E-04 -1.698636E-04 +5.007155E-05 +6.574973E-05 +1.792627E-04 +6.574973E-05 +5.086002E-03 
 -2.661512E-04 +2.597423E-04 +7.628684E-05 +2.597423E-04 +4.310882E-04 +2.278481E-05 +7.628684E-05 +2.278481E-05 +5.060226E-03 
 -1.818622E-04 +2.557633E-04 +1.825618E-05 +2.557633E-04 +2.264150E-04 -5.254895E-05 +1.825618E-05 -5.254895E-05 +5.167636E-03 
 -1.067931E-04 +1.736345E-04 -8.836151E-05 +1.736345E-04 +5.712500E-05 -5.432369E-05 -8.836151E-05 -5.432369E-05 +5.203219E-03 
 +8.718293E-05 +2.168289E-04 -1.491608E-04 +2.168289E-04 -1.608026E-04 -7.745318E-06 -1.491608E-04 -7.745318E-06 +5.138523E-03 
 -1.315759E-04 -7.639573E-06 -1.600093E-05 -7.639573E-06 -2.690671E-04 +9.298741E-06 -1.600093E-05 +9.298741E-06 +5.210601E-03 
 -5.573936E-05 +1.119782E-04 +2.112577E-06 +1.119782E-04 -4.865743E-05 +3.059154E-05 +2.112577E-06 +3.059154E-05 +5.177788E-03 
 +2.758285E-06 +2.000141E-04 -8.067094E-05 +2.000141E-04 +3.962972E-05 +6.038739E-05 -8.067094E-05 +6.038739E-05 +5.006326E-03 
 -6.066328E-06 +2.506183E-04 -2.564672E-05 +2.506183E-04 -8.368833E-05 +2.685819E-05 -2.564672E-05 +2.685819E-05 +4.965396E-03 
 +4.656950E-05 +3.077267E-04 -4.333463E-05 +3.077267E-04 -1.045090E-04 -1.586878E-05 -4.333463E-05 -1.586878E-05 +4.962816E-03 
 +4.519244E-05 +3.447551E-04 -8.105106E-05 +3.447551E-04 -9.211973E-05 -5.444978E-05 -8.105106E-05 -5.444978E-05 +4.948851E-03 
 +3.763693E-05 +2.662179E-04 -2.695649E-05 +2.662179E-04 +3.882288E-05 -5.098254E-05 -2.695649E-05 -5.098254E-05 +4.882651E-03 
 +1.555684E-04 -6.063734E-05 -2.384268E-05 -6.063734E-05 +3.264414E-04 +5.736676E-05 -2.384268E-05 +5.736676E-05 +4.732840E-03 
 +1.385060E-04 -1.382805E-04 -3.913402E-05 -1.382805E-04 +4.050908E-04 +1.551255E-04 -3.913402E-05 +1.551255E-04 +4.591065E-03 
 +9.509737E-05 -1.032229E-04 -8.200561E-05 -1.032229E-04 +3.156888E-04 +1.514236E-04 -8.200561E-05 +1.514236E-04 +4.604523E-03 
 -8.726154E-05 -8.873322E-05 -3.840638E-06 -8.873322E-05 +7.241130E-05 +7.445373E-05 -3.840638E-06 +7.445373E-05 +4.777920E-03 
 -3.401960E-05 -2.284544E-04 -3.965999E-07 -2.284544E-04 -2.161443E-04 +9.688993E-05 -3.965999E-07 +9.688993E-05 +4.981124E-03 
 +1.611799E-04 -1.633950E-04 +1.176223E-05 -1.633950E-04 -3.171419E-04 +7.707739E-05 +1.176223E-05 +7.707739E-05 +5.051260E-03 
 +1.330275E-04 -5.258132E-05 +6.073021E-05 -5.258132E-05 -3.101163E-04 -6.208523E-05 +6.073021E-05 -6.208523E-05 +5.028017E-03 
 +6.183677E-05 -1.144387E-04 +6.925564E-05 -1.144387E-04 -2.623878E-04 -3.140690E-05 +6.925564E-05 -3.140690E-05 +5.042933E-03 
 -5.472844E-06 -1.290078E-04 +1.330554E-04 -1.290078E-04 -1.807779E-04 +4.112498E-05 +1.330554E-04 +4.112498E-05 +5.051935E-03 
 -8.958731E-05 -1.084932E-04 +1.188345E-04 -1.084932E-04 +2.070561E-04 +5.955424E-05 +1.188345E-04 +5.955424E-05 +5.035464E-03 
 -8.057247E-05 +3.343151E-04 +4.959795E-05 +3.343151E-04 +4.797181E-04 -3.186469E-05 +4.959795E-05 -3.186469E-05 +4.969209E-03 
 -4.848625E-05 +2.514329E-04 -8.056400E-06 +2.514329E-04 +3.145400E-04 -1.185608E-04 -8.056400E-06 -1.185608E-04 +5.097838E-03 
 -3.595692E-05 +3.526236E-04 -5.738526E-05 +3.526236E-04 +1.289522E-04 -1.125791E-04 -5.738526E-05 -1.125791E-04 +5.132890E-03 
 +1.069400E-04 +2.130604E-04 -1.629233E-04 +2.130604E-04 -8.989750E-06 -3.303186E-05 -1.629233E-04 -3.303186E-05 +5.025719E-03 
 -1.014540E-05 +4.441097E-05 -5.453033E-05 +4.441097E-05 -3.873817E-05 +6.351758E-05 -5.453033E-05 +6.351758E-05 +5.024571E-03 
 +8.511354E-05 +1.152445E-04 +7.180763E-06 +1.152445E-04 +4.258942E-05 +7.305555E-05 +7.180763E-06 +7.305555E-05 +5.018494E-03 
 -2.887781E-05 +1.688862E-04 -5.548860E-05 +1.688862E-04 -1.140954E-05 +8.026728E-05 -5.548860E-05 +8.026728E-05 +4.921098E-03 
 -3.711882E-05 +2.972175E-04 -4.843579E-05 +2.972175E-04 -6.243235E-05 +9.833241E-05 -4.843579E-05 +9.833241E-05 +4.926016E-03 
 -5.173074E-05 +3.455071E-04 -3.367495E-05 +3.455071E-04 -6.236394E-05 +5.072278E-05 -3.367495E-05 +5.072278E-05 +4.971538E-03 
 +4.557434E-05 +3.594498E-04 -7.100272E-05 +3.594498E-04 +1.669316E-05 +3.919313E-05 -7.100272E-05 +3.919313E-05 +4.954343E-03 
 +3.227802E-05 +3.333727E-04 -4.196996E-05 +3.333727E-04 +8.376973E-05 +3.555721E-05 -4.196996E-05 +3.555721E-05 +4.913485E-03 
 +1.035102E-04 +1.817533E-04 -5.994128E-05 +1.817533E-04 +1.470725E-04 +5.031795E-05 -5.994128E-05 +5.031795E-05 +4.852654E-03 
 +2.277952E-04 +7.642020E-05 -1.206321E-04 +7.642020E-05 +2.813680E-04 +3.848543E-05 -1.206321E-04 +3.848543E-05 +4.757454E-03 
 +5.368778E-07 +4.252472E-05 -8.802245E-05 +4.252472E-05 +1.791789E-04 +9.530253E-06 -8.802245E-05 +9.530253E-06 +4.808226E-03 
 -9.947885E-05 +1.002537E-04 -1.582354E-05 +1.002537E-04 -1.793860E-06 -4.380266E-05 -1.582354E-05 -4.380266E-05 +4.933385E-03 
 -1.843685E-04 +1.628292E-05 +7.342235E-06 +1.628292E-05 -9.983047E-05 -9.441977E-05 +7.342235E-06 -9.441977E-05 +5.025998E-03 
 -3.645571E-05 -9.145804E-05 +5.576616E-05 -9.145804E-05 -3.302829E-04 -1.081553E-04 +5.576616E-05 -1.081553E-04 +5.084296E-03 
 +1.794991E-04 -1.275343E-05 +1.473749E-04 -1.275343E-05 -3.830776E-04 -1.100957E-04 +1.473749E-04 -1.100957E-04 +5.046329E-03 
 +8.244689E-05 -2.939886E-05 +7.328878E-05 -2.939886E-05 -8.106033E-05 -8.220453E-05 +7.328878E-05 -8.220453E-05 +5.014187E-03 
 -1.296644E-04 +1.171824E-04 +6.335023E-05 +1.171824E-04 +3.568737E-04 -1.002025E-04 +6.335023E-05 -1.002025E-04 +4.976151E-03 
 -1.207726E-04 +1.791670E-04 +6.732974E-05 +1.791670E-04 +5.307798E-04 -5.017403E-05 +6.732974E-05 -5.017403E-05 +4.929953E-03 
 -1.318516E-04 +1.700225E-04 +2.546458E-05 +1.700225E-04 +3.625588E-04 -9.224369E-05 +2.546458E-05 -9.224369E-05 +5.087526E-03 
 -6.558474E-05 -6.788473E-05 -1.909715E-05 -6.788473E-05 +1.416180E-04 -9.675297E-05 -1.909715E-05 -9.675297E-05 +5.197756E-03 
 +2.125574E-05 -3.405142E-05 -2.817950E-05 -3.405142E-05 -1.590685E-05 -7.447237E-05 -2.817950E-05 -7.447237E-05 +5.199312E-03 
 +1.518239E-04 -1.355934E-04 -4.106631E-05 -1.355934E-04 -1.050751E-04 -4.217617E-05 -4.106631E-05 -4.217617E-05 +5.102454E-03 
 +2.048483E-04 -1.451294E-05 +4.512207E-05 -1.451294E-05 +4.817324E-06 -6.503552E-06 +4.512207E-05 -6.503552E-06 +4.919998E-03 
 +2.546952E-04 -6.338033E-05 +8.931535E-05 -6.338033E-05 +1.059999E-04 -1.007814E-05 +8.931535E-05 -1.007814E-05 +4.802122E-03 
 +9.443767E-05 -4.743024E-05 +3.429220E-05 -4.743024E-05 +1.305731E-04 -4.822958E-06 +3.429220E-05 -4.822958E-06 +4.843921E-03 
 -5.764536E-05 +1.430048E-04 -5.262747E-05 +1.430048E-04 +6.070891E-05 +8.784183E-05 -5.262747E-05 +8.784183E-05 +4.901782E-03 
 -1.183659E-04 +2.718065E-04 -8.348885E-05 +2.718065E-04 -2.560690E-05 +1.334029E-04 -8.348885E-05 +1.334029E-04 +4.960726E-03 
 -1.256146E-04 +3.269714E-04 -3.113278E-05 +3.269714E-04 +2.587139E-05 +8.947224E-05 -3.113278E-05 +8.947224E-05 +4.991910E-03 
 +2.855108E-05 +2.172489E-04 -3.502728E-05 +2.172489E-04 -2.540784E-05 +6.625477E-05 -3.502728E-05 +6.625477E-05 +4.997472E-03 
 +7.587521E-05 +1.928169E-04 -1.385881E-04 +1.928169E-04 -2.885036E-04 +6.454808E-05 -1.385881E-04 +6.454808E-05 +5.022542E-03 
 +1.431136E-04 +2.867071E-05 -1.884382E-04 +2.867071E-05 -4.110847E-04 +8.869356E-05 -1.884382E-04 +8.869356E-05 +5.078302E-03 
 +5.309474E-05 -6.384098E-05 -5.524715E-05 -6.384098E-05 -3.234937E-04 +1.467223E-04 -5.524715E-05 +1.467223E-04 +5.117572E-03 
 -4.219648E-06 +1.655297E-05 -6.335468E-05 +1.655297E-05 -1.434428E-04 +1.553993E-04 -6.335468E-05 +1.553993E-04 +5.111923E-03 
 -3.360773E-04 -2.141950E-04 -2.566371E-06 -2.141950E-04 -3.801174E-05 +4.022806E-05 -2.566371E-06 +4.022806E-05 +5.124614E-03 
 -2.100007E-04 -2.362830E-04 -6.565390E-05 -2.362830E-04 -5.602834E-05 -4.778568E-05 -6.565390E-05 -4.778568E-05 +5.163119E-03 
 +5.810954E-05 +5.669568E-05 -3.648264E-05 +5.669568E-05 +7.568810E-05 -1.152973E-04 -3.648264E-05 -1.152973E-04 +5.092192E-03 
 +1.680257E-05 +8.978605E-05 -3.155975E-05 +8.978605E-05 +2.394253E-04 -1.265180E-04 -3.155975E-05 -1.265180E-04 +4.952681E-03 
 +1.577080E-05 +9.524243E-05 +1.465653E-05 +9.524243E-05 +3.243081E-04 -6.950485E-05 +1.465653E-05 -6.950485E-05 +4.888869E-03 
 -6.908063E-05 +2.136120E-04 +5.403781E-05 +2.136120E-04 +4.494571E-04 -5.838869E-05 +5.403781E-05 -5.838869E-05 +4.945393E-03 
 -1.002513E-04 -6.283585E-05 +6.639297E-05 -6.283585E-05 +1.390799E-04 -1.435169E-05 +6.639297E-05 -1.435169E-05 +5.191682E-03 
 -1.419297E-04 -4.935870E-05 +7.931071E-06 -4.935870E-05 +8.097234E-05 -5.724852E-05 +7.931071E-06 -5.724852E-05 +5.236483E-03 
 -4.167035E-05 -8.041841E-05 +4.025124E-06 -8.041841E-05 +3.121433E-05 -9.738054E-05 +4.025124E-06 -9.738054E-05 +5.205788E-03 
 +2.441164E-04 +3.883895E-05 +8.448679E-05 +3.883895E-05 +7.623852E-06 -4.275099E-05 +8.448679E-05 -4.275099E-05 +5.050795E-03 
 +3.919889E-04 +4.049664E-05 +1.680472E-04 +4.049664E-05 +5.077389E-05 +1.639545E-05 +1.680472E-04 +1.639545E-05 +4.880642E-03 
 +3.009177E-04 -8.201542E-05 +1.859584E-04 -8.201542E-05 +6.873675E-05 -9.764757E-06 +1.859584E-04 -9.764757E-06 +4.828314E-03 
 +2.035474E-04 -5.655117E-05 +1.187647E-04 -5.655117E-05 +1.672138E-04 -1.834936E-05 +1.187647E-04 -1.834936E-05 +4.833826E-03 
 +1.099272E-04 +4.514564E-05 +9.595497E-05 +4.514564E-05 +1.220801E-04 +7.397554E-05 +9.595497E-05 +7.397554E-05 +4.834973E-03 
 -1.081654E-04 +3.281215E-04 +3.193453E-05 +3.281215E-04 +1.170642E-05 +1.113480E-04 +3.193453E-05 +1.113480E-04 +4.942007E-03 
 -2.085507E-04 +4.558702E-04 -1.741377E-05 +4.558702E-04 -6.792724E-05 +3.722766E-07 -1.741377E-05 +3.722766E-07 +5.079206E-03 
 +8.801566E-05 +1.820804E-04 -8.319489E-05 +1.820804E-04 -2.363316E-04 -1.778446E-05 -8.319489E-05 -1.778446E-05 +5.074843E-03 
 +1.740317E-04 +1.821081E-04 -1.023615E-04 +1.821081E-04 -3.647953E-04 +4.001385E-05 -1.023615E-04 +4.001385E-05 +5.087276E-03 
 +1.162458E-04 +1.056766E-04 -8.974762E-05 +1.056766E-04 -3.754747E-04 +2.711678E-05 -8.974762E-05 +2.711678E-05 +5.138835E-03 
 -1.332479E-05 -9.616700E-06 -1.906300E-05 -9.616700E-06 -3.062525E-04 +3.705637E-05 -1.906300E-05 +3.705637E-05 +5.107876E-03 
 -1.073727E-04 +2.743520E-05 -8.350499E-06 +2.743520E-05 -1.163903E-04 +8.747825E-05 -8.350499E-06 +8.747825E-05 +5.072413E-03 
 -5.033687E-04 -2.536878E-04 +2.784995E-05 -2.536878E-04 +9.312738E-05 -1.310556E-06 +2.784995E-05 -1.310556E-06 +5.094419E-03 
 -3.979361E-04 -2.937250E-04 -6.876887E-05 -2.937250E-04 +9.310158E-05 -3.266671E-05 -6.876887E-05 -3.266671E-05 +5.158531E-03 
 -3.703949E-05 +9.951496E-05 +2.254392E-06 +9.951496E-05 -4.154173E-05 +6.983765E-05 +2.254392E-06 +6.983765E-05 +5.161114E-03 
 +1.055634E-05 +1.621147E-04 +1.298935E-05 +1.621147E-04 -5.508900E-05 +6.662651E-05 +1.298935E-05 +6.662651E-05 +5.063548E-03 
 +4.370066E-05 +1.409455E-04 +6.778157E-05 +1.409455E-04 +3.403259E-05 -1.135731E-06 +6.778157E-05 -1.135731E-06 +4.993494E-03 
 -2.349599E-05 +1.963943E-04 +1.560509E-04 +1.963943E-04 +1.861663E-04 -1.026591E-05 +1.560509E-04 -1.026591E-05 +5.059705E-03 
 -3.921185E-05 -5.852851E-05 +1.018127E-04 -5.852851E-05 +5.650467E-05 -2.220314E-05 +1.018127E-04 -2.220314E-05 +5.187091E-03 
 -1.186949E-04 -1.006469E-04 +1.399326E-05 -1.006469E-04 +1.161456E-04 -5.879040E-05 +1.399326E-05 -5.879040E-05 +5.270214E-03 
 +4.172544E-05 -6.852321E-05 +5.651800E-05 -6.852321E-05 +1.087736E-04 -3.314940E-05 +5.651800E-05 -3.314940E-05 +5.234314E-03 
 +3.559487E-04 +1.266262E-04 +1.343975E-04 +1.266262E-04 +1.590433E-04 +2.955350E-05 +1.343975E-04 +2.955350E-05 +4.994536E-03 
 +3.607908E-04 +5.098273E-05 +1.911755E-04 +5.098273E-05 +1.095905E-04 +2.077171E-05 +1.911755E-04 +2.077171E-05 +4.818992E-03 
 +3.627529E-04 +3.989426E-06 +1.701611E-04 +3.989426E-06 +1.309372E-04 -7.518361E-06 +1.701611E-04 -7.518361E-06 +4.781124E-03 
 +2.985253E-04 -3.107083E-05 +1.373203E-04 -3.107083E-05 +1.708333E-04 -4.027642E-05 +1.373203E-04 -4.027642E-05 +4.747308E-03 
 +2.739082E-04 +6.314900E-06 +1.626404E-04 +6.314900E-06 +2.004386E-04 +8.904793E-06 +1.626404E-04 +8.904793E-06 +4.746470E-03 
 -7.977461E-05 +1.585206E-04 +3.695778E-05 +1.585206E-04 +1.208083E-04 +1.565170E-05 +3.695778E-05 +1.565170E-05 +4.883753E-03 
 -1.625199E-04 +2.574968E-04 -9.430135E-05 +2.574968E-04 -1.853889E-04 -6.946383E-05 -9.430135E-05 -6.946383E-05 +5.081240E-03 
 +1.171440E-04 +1.604866E-04 -1.312804E-04 +1.604866E-04 -3.437713E-04 -2.800762E-05 -1.312804E-04 -2.800762E-05 +5.096882E-03 
 +1.233970E-04 +1.334706E-04 -8.519894E-05 +1.334706E-04 -2.694177E-04 +5.234225E-05 -8.519894E-05 +5.234225E-05 +5.057417E-03 
 -4.633213E-05 -4.169589E-05 +2.254853E-06 -4.169589E-05 -1.347559E-04 +2.786315E-05 +2.254853E-06 +2.786315E-05 +5.089276E-03 
 -1.784282E-04 -1.667285E-04 +3.991982E-05 -1.667285E-04 +6.182966E-05 -1.069188E-05 +3.991982E-05 -1.069188E-05 +5.101097E-03 
 -2.621383E-04 -1.480318E-04 +3.925698E-05 -1.480318E-04 +1.208774E-04 +1.825557E-05 +3.925698E-05 +1.825557E-05 +5.082998E-03 
 -4.216224E-04 -3.039291E-04 +5.170925E-05 -3.039291E-04 +1.943814E-04 +7.517596E-07 +5.170925E-05 +7.517596E-07 +5.094472E-03 
 -4.864875E-04 -3.959714E-04 -1.519833E-05 -3.959714E-04 +2.743746E-04 -3.499804E-05 -1.519833E-05 -3.499804E-05 +5.115069E-03 
 -1.571129E-04 -3.096333E-05 +4.742679E-05 -3.096333E-05 +5.496340E-05 +7.242641E-05 +4.742679E-05 +7.242641E-05 +5.128994E-03 
 +1.629391E-05 +1.348610E-04 +1.022998E-04 +1.348610E-04 -9.066291E-05 +8.059028E-05 +1.022998E-04 +8.059028E-05 +5.086319E-03 
 +1.924204E-05 +1.438640E-04 +1.341388E-04 +1.438640E-04 -3.685872E-05 -1.035273E-05 +1.341388E-04 -1.035273E-05 +5.027561E-03 
 -1.748125E-05 +2.325244E-04 +2.861305E-04 +2.325244E-04 -6.925986E-05 -1.925953E-05 +2.861305E-04 -1.925953E-05 +5.079193E-03 
 +8.609616E-06 +7.668178E-05 +1.124611E-04 +7.668178E-05 +6.572086E-05 -1.009300E-04 +1.124611E-04 -1.009300E-04 +5.113358E-03 
 -6.198693E-05 -8.640501E-05 +1.414716E-05 -8.640501E-05 +1.507273E-04 -2.879745E-05 +1.414716E-05 -2.879745E-05 +5.268301E-03 
 +2.467667E-04 +8.626254E-05 +1.027938E-04 +8.626254E-05 +2.405898E-04 +2.868392E-05 +1.027938E-04 +2.868392E-05 +5.244480E-03 
 +3.335054E-04 +8.703649E-05 +1.307969E-04 +8.703649E-05 +2.173444E-04 +4.953307E-05 +1.307969E-04 +4.953307E-05 +4.980279E-03 
 +3.572215E-04 +5.487671E-05 +1.576463E-04 +5.487671E-05 +1.414617E-04 +5.992996E-05 +1.576463E-04 +5.992996E-05 +4.815631E-03 
 +3.817319E-04 +5.882277E-06 +1.227661E-04 +5.882277E-06 +1.503715E-04 +2.934523E-05 +1.227661E-04 +2.934523E-05 +4.739737E-03 
 +3.687053E-04 -4.811529E-05 +1.542350E-04 -4.811529E-05 +1.126585E-04 +2.057831E-05 +1.542350E-04 +2.057831E-05 +4.675747E-03 
 +2.592211E-04 -7.242678E-05 +1.311255E-04 -7.242678E-05 +9.926651E-05 +1.530728E-05 +1.311255E-04 +1.530728E-05 +4.758666E-03 
 -1.485066E-04 -4.018161E-05 -4.061197E-05 -4.018161E-05 +9.538448E-05 -6.214715E-05 -4.061197E-05 -6.214715E-05 +4.958469E-03 
 -7.253043E-05 -6.735413E-05 -5.870655E-05 -6.735413E-05 +3.159506E-05 -1.512585E-04 -5.870655E-05 -1.512585E-04 +5.069716E-03 
 +3.507700E-05 -1.105351E-04 -1.565020E-05 -1.105351E-04 +3.266944E-05 -1.328451E-04 -1.565020E-05 -1.328451E-04 +5.064983E-03 
 -3.563031E-05 -2.040585E-04 -3.750634E-06 -2.040585E-04 +8.908935E-05 -1.872355E-05 -3.750634E-06 -1.872355E-05 +5.075722E-03 
 -1.554373E-04 -2.353825E-04 +4.432225E-05 -2.353825E-04 +8.456317E-05 +3.844258E-07 +4.432225E-05 +3.844258E-07 +5.126265E-03 
 -2.383594E-04 -2.276107E-04 +5.002085E-05 -2.276107E-04 +1.089888E-04 -6.852626E-05 +5.002085E-05 -6.852626E-05 +5.150714E-03 
 -2.707113E-04 -1.656312E-04 +1.980179E-05 -1.656312E-04 +1.738573E-04 -4.820458E-05 +1.980179E-05 -4.820458E-05 +5.118219E-03 
 -3.189461E-04 -2.333603E-04 +1.733331E-05 -2.333603E-04 +2.483316E-04 +9.432457E-06 +1.733331E-05 +9.432457E-06 +5.075669E-03 
 -4.168566E-04 -3.911072E-04 -3.004168E-06 -3.911072E-04 +3.646932E-04 -5.489522E-05 -3.004168E-06 -5.489522E-05 +5.059700E-03 
 -2.935075E-04 -1.963578E-04 +5.973670E-06 -1.963578E-04 +2.610745E-04 -4.177132E-05 +5.973670E-06 -4.177132E-05 +5.075911E-03 
 +1.572589E-06 +1.643338E-04 +8.053584E-05 +1.643338E-04 -1.705773E-05 +7.671054E-06 +8.053584E-05 +7.671054E-06 +5.061868E-03 
 +3.658217E-05 +1.956329E-04 +1.699920E-04 +1.956329E-04 -8.022094E-05 -4.529400E-05 +1.699920E-04 -4.529400E-05 +5.023281E-03 
 -1.655308E-05 +2.325498E-04 +3.109725E-04 +2.325498E-04 -2.426600E-05 -8.462303E-05 +3.109725E-04 -8.462303E-05 +5.040369E-03 
 +9.819297E-05 +2.341950E-04 +6.190960E-05 +2.341950E-04 -3.355637E-04 -1.403785E-04 +6.190960E-05 -1.403785E-04 +5.227837E-03 
 +6.917306E-05 +1.666192E-04 +2.117586E-05 +1.666192E-04 -3.035958E-04 -5.122450E-05 +2.117586E-05 -5.122450E-05 +5.285417E-03 
 +1.902603E-04 +2.391097E-04 +4.385748E-05 +2.391097E-04 -1.136849E-04 +5.363099E-05 +4.385748E-05 +5.363099E-05 +5.238130E-03 
 +2.593284E-04 +6.062908E-05 +1.215137E-04 +6.062908E-05 +7.848190E-05 +9.772248E-05 +1.215137E-04 +9.772248E-05 +5.085241E-03 
 +3.456631E-04 +6.433116E-06 +1.055827E-04 +6.433116E-06 +1.440371E-04 +1.384550E-04 +1.055827E-04 +1.384550E-04 +4.944135E-03 
 +4.181097E-04 -3.392904E-05 +7.286750E-05 -3.392904E-05 +7.564142E-05 +1.157534E-04 +7.286750E-05 +1.157534E-04 +4.785809E-03 
 +3.853133E-04 -8.693568E-05 +1.237547E-04 -8.693568E-05 +8.608690E-05 +6.895514E-05 +1.237547E-04 +6.895514E-05 +4.739931E-03 
 +4.901851E-05 -1.673494E-04 +7.271868E-05 -1.673494E-04 +7.190993E-05 -1.287702E-05 +7.271868E-05 -1.287702E-05 +4.905863E-03 
 -1.349797E-04 -1.442992E-04 +2.249260E-06 -1.442992E-04 +1.636243E-05 -5.814885E-05 +2.249260E-06 -5.814885E-05 +5.088459E-03 
 -1.048385E-04 -1.425750E-04 +3.492378E-05 -1.425750E-04 +7.692913E-06 -8.209490E-05 +3.492378E-05 -8.209490E-05 +5.106773E-03 
 -6.985432E-05 -9.152723E-05 +8.546585E-05 -9.152723E-05 +8.239634E-06 -1.593675E-04 +8.546585E-05 -1.593675E-04 +5.054408E-03 
 -7.926949E-05 -9.648531E-05 +8.676961E-05 -9.648531E-05 +5.814784E-05 -1.755079E-04 +8.676961E-05 -1.755079E-04 +5.073517E-03 
 -1.604998E-04 -1.789714E-04 +5.017340E-05 -1.789714E-04 +8.727082E-05 -1.251112E-04 +5.017340E-05 -1.251112E-04 +5.147147E-03 
 -2.384214E-04 -1.463060E-04 +9.632612E-06 -1.463060E-04 +1.141247E-04 -1.168443E-04 +9.632612E-06 -1.168443E-04 +5.169783E-03 
 -2.857168E-04 -1.767805E-04 -2.745393E-05 -1.767805E-04 +1.973877E-04 -8.333808E-05 -2.745393E-05 -8.333808E-05 +5.143722E-03 
 -1.956572E-04 -2.336021E-04 -4.875588E-06 -2.336021E-04 +2.791758E-04 -3.600653E-05 -4.875588E-06 -3.600653E-05 +5.096585E-03 
 -2.544790E-04 -3.254381E-04 +2.023222E-05 -3.254381E-04 +3.418838E-04 -1.145251E-04 +2.023222E-05 -1.145251E-04 +5.102701E-03 
 -3.395251E-04 -2.040206E-04 +2.313845E-05 -2.040206E-04 +3.607369E-04 -1.067606E-04 +2.313845E-05 -1.067606E-04 +5.074750E-03 
 -2.076518E-05 +7.944574E-05 +2.330825E-05 +7.944574E-05 +1.371528E-04 -3.281973E-05 +2.330825E-05 -3.281973E-05 +5.020600E-03 
 +3.292688E-05 +2.793838E-04 +1.557266E-04 +2.793838E-04 -1.529105E-04 -6.965450E-05 +1.557266E-04 -6.965450E-05 +5.068980E-03 
 +3.587942E-05 +3.624342E-04 +2.228366E-04 +3.624342E-04 -2.263585E-04 -9.878731E-05 +2.228366E-04 -9.878731E-05 +5.163082E-03 
 +1.366250E-04 +2.317990E-04 +4.860524E-05 +2.317990E-04 -3.376509E-04 -1.074683E-04 +4.860524E-05 -1.074683E-04 +5.215604E-03 
 +1.269480E-04 +1.927147E-04 +5.154554E-05 +1.927147E-04 -3.012233E-04 -8.979215E-05 +5.154554E-05 -8.979215E-05 +5.227282E-03 
 +1.109926E-04 +2.554303E-04 +8.013702E-05 +2.554303E-04 -3.366489E-04 +1.385373E-05 +8.013702E-05 +1.385373E-05 +5.216781E-03 
 +1.872993E-04 +2.649373E-04 +1.540167E-04 +2.649373E-04 -3.491736E-04 +1.125516E-04 +1.540167E-04 +1.125516E-04 +5.253253E-03 
 +2.856602E-04 +1.814725E-04 +1.017624E-04 +1.814725E-04 -7.424500E-05 +1.619547E-04 +1.017624E-04 +1.619547E-04 +5.182948E-03 
 +3.528730E-04 -5.512488E-05 +8.879671E-05 -5.512488E-05 +1.023696E-04 +1.499396E-04 +8.879671E-05 +1.499396E-04 +4.957720E-03 
 +2.974351E-04 -1.723075E-04 +9.405374E-05 -1.723075E-04 +2.246911E-05 +3.776007E-05 +9.405374E-05 +3.776007E-05 +4.891334E-03 
 -2.075291E-05 -1.849089E-04 +7.650524E-05 -1.849089E-04 +3.479936E-05 -6.095646E-05 +7.650524E-05 -6.095646E-05 +5.018011E-03 
 -1.277105E-04 -1.183151E-04 +4.838523E-05 -1.183151E-04 +4.243483E-05 -5.699779E-05 +4.838523E-05 -5.699779E-05 +5.101230E-03 
 -1.466936E-04 -1.199482E-04 +4.037357E-05 -1.199482E-04 +1.762485E-05 -7.996599E-05 +4.037357E-05 -7.996599E-05 +5.089232E-03 
 -9.925893E-05 -1.289496E-04 +6.165392E-05 -1.289496E-04 -2.124017E-05 -1.701379E-04 +6.165392E-05 -1.701379E-04 +5.070979E-03 
 -9.260116E-05 -7.981371E-05 +6.593847E-05 -7.981371E-05 -3.244643E-05 -2.182771E-04 +6.593847E-05 -2.182771E-04 +5.106602E-03 
 -3.005182E-04 -2.548832E-04 +8.279525E-06 -2.548832E-04 +5.555833E-05 -1.681308E-04 +8.279525E-06 -1.681308E-04 +5.182207E-03 
 -2.066330E-04 -1.761563E-04 -3.198941E-05 -1.761563E-04 +1.814066E-04 -1.140926E-04 -3.198941E-05 -1.140926E-04 +5.182854E-03 
 -1.836876E-04 -1.821712E-04 -3.242176E-05 -1.821712E-04 +1.141288E-04 -1.329819E-04 -3.242176E-05 -1.329819E-04 +5.151813E-03 
 +9.478776E-05 -4.232741E-05 +1.452161E-05 -4.232741E-05 -1.138115E-04 -1.292798E-04 +1.452161E-05 -1.292798E-04 +5.126205E-03 
 -3.700155E-05 +1.981326E-05 +6.515171E-05 +1.981326E-05 +3.055565E-06 -5.476268E-05 +6.515171E-05 -5.476268E-05 +5.146110E-03 
 -3.168591E-04 +9.771451E-05 +7.508802E-05 +9.771451E-05 +2.877581E-04 +1.328329E-05 +7.508802E-05 +1.328329E-05 +5.107585E-03 
 -1.609708E-04 +1.077255E-04 +1.451043E-06 +1.077255E-04 +2.223269E-04 -2.398988E-06 +1.451043E-06 -2.398988E-06 +5.032480E-03 
 -1.181640E-06 +3.475895E-04 +9.720387E-05 +3.475895E-04 -1.181817E-05 -1.406996E-05 +9.720387E-05 -1.406996E-05 +5.095890E-03 
 +1.011506E-04 +3.797298E-04 +1.197728E-04 +3.797298E-04 -2.246348E-04 -3.501939E-05 +1.197728E-04 -3.501939E-05 +5.182061E-03 
 +9.600608E-05 +2.643057E-04 +8.562823E-05 +2.643057E-04 -2.442051E-04 -5.696804E-05 +8.562823E-05 -5.696804E-05 +5.137203E-03 
 +9.865315E-05 +2.278275E-04 +9.212895E-05 +2.278275E-04 -2.958092E-04 -7.034909E-05 +9.212895E-05 -7.034909E-05 +5.167860E-03 
 +1.305750E-04 +2.024219E-04 +1.615803E-04 +2.024219E-04 -3.427565E-04 -4.633526E-05 +1.615803E-04 -4.633526E-05 +5.198461E-03 
 +1.000561E-04 +1.996886E-04 +1.934471E-04 +1.996886E-04 -3.783384E-04 -1.962320E-06 +1.934471E-04 -1.962320E-06 +5.277580E-03 
 +1.172510E-04 +2.014811E-04 +1.283565E-04 +2.014811E-04 -3.587061E-04 +7.559956E-05 +1.283565E-04 +7.559956E-05 +5.247352E-03 
 +2.477233E-04 -1.560399E-04 +9.999859E-05 -1.560399E-04 -2.586481E-04 +7.590623E-05 +9.999859E-05 +7.590623E-05 +5.064034E-03 
 +3.338277E-04 -1.384950E-04 +8.082617E-05 -1.384950E-04 -1.536355E-04 +4.542960E-06 +8.082617E-05 +4.542960E-06 +4.973740E-03 
 +2.457746E-05 -6.137257E-05 +4.925110E-05 -6.137257E-05 -7.581800E-05 -4.497195E-05 +4.925110E-05 -4.497195E-05 +5.058011E-03 
 -2.203864E-04 -7.692676E-05 +3.813197E-05 -7.692676E-05 +3.613167E-05 -5.875729E-05 +3.813197E-05 -5.875729E-05 +5.120867E-03 
 -1.944575E-04 -1.287517E-04 +2.430126E-05 -1.287517E-04 +7.250355E-05 -1.084732E-04 +2.430126E-05 -1.084732E-04 +5.104546E-03 
 -1.878054E-04 -1.864867E-04 +3.903968E-05 -1.864867E-04 -2.589155E-05 -2.040393E-04 +3.903968E-05 -2.040393E-04 +5.125679E-03 
 -2.118293E-04 -1.246888E-04 +6.253813E-05 -1.246888E-04 -8.299068E-05 -2.685929E-04 +6.253813E-05 -2.685929E-04 +5.198663E-03 
 -2.767132E-04 -2.171578E-04 -1.453749E-05 -2.171578E-04 -9.703362E-05 -2.581249E-04 -1.453749E-05 -2.581249E-04 +5.261971E-03 
 +1.251936E-05 -2.138474E-05 -4.266204E-05 -2.138474E-05 -2.872321E-04 -1.608443E-04 -4.266204E-05 -1.608443E-04 +5.210216E-03 
 +1.325113E-04 +3.122428E-05 -1.366079E-05 +3.122428E-05 -4.077977E-04 -1.506575E-04 -1.366079E-05 -1.506575E-04 +5.129315E-03 
 +1.660893E-04 +7.035645E-05 -2.509879E-05 +7.035645E-05 -2.440029E-04 -1.812859E-04 -2.509879E-05 -1.812859E-04 +5.078651E-03 
 +5.216651E-05 +6.464273E-05 +2.602982E-06 +6.464273E-05 -3.425224E-05 -7.946932E-05 +2.602982E-06 -7.946932E-05 +5.045867E-03 
 -2.120466E-04 +2.898718E-05 +1.894462E-05 +2.898718E-05 +1.352349E-04 +2.837929E-05 +1.894462E-05 +2.837929E-05 +5.020010E-03 
 -2.245243E-04 -1.785274E-05 -3.234144E-05 -1.785274E-05 +1.598698E-04 +1.067856E-05 -3.234144E-05 +1.067856E-05 +5.009898E-03 
 -5.341196E-05 +3.362017E-04 +6.557100E-05 +3.362017E-04 +1.854191E-05 +2.155165E-05 +6.557100E-05 +2.155165E-05 +5.087907E-03 
 +6.937963E-05 +3.529028E-04 +1.099015E-04 +3.529028E-04 -1.498526E-04 +1.948472E-05 +1.099015E-04 +1.948472E-05 +5.134799E-03 
 +4.218694E-05 +2.568585E-04 +1.068181E-04 +2.568585E-04 -1.775293E-04 -2.190531E-05 +1.068181E-04 -2.190531E-05 +5.141667E-03 
 +5.902576E-05 +2.103809E-04 +1.058671E-04 +2.103809E-04 -2.312885E-04 -5.657764E-05 +1.058671E-04 -5.657764E-05 +5.158107E-03 
 +4.538720E-05 +1.896615E-04 +1.485509E-04 +1.896615E-04 -2.636316E-04 -6.064097E-05 +1.485509E-04 -6.064097E-05 +5.187002E-03 
 +1.025863E-05 +1.930108E-04 +1.699404E-04 +1.930108E-04 -2.974892E-04 -4.352979E-05 +1.699404E-04 -4.352979E-05 +5.241325E-03 
 +5.457705E-06 +2.538996E-04 +9.721812E-05 +2.538996E-04 -3.996382E-04 +3.827970E-05 +9.721812E-05 +3.827970E-05 +5.233258E-03 
 +1.476659E-04 +1.844546E-05 +2.694620E-05 +1.844546E-05 -3.891043E-04 +9.536424E-05 +2.694620E-05 +9.536424E-05 +5.136748E-03 
 +2.768693E-04 -1.632109E-04 +5.293585E-05 -1.632109E-04 -2.323217E-04 +4.659720E-05 +5.293585E-05 +4.659720E-05 +5.072958E-03 
 -9.231242E-06 -2.162596E-04 +4.304642E-05 -2.162596E-04 -6.243879E-05 -1.021754E-05 +4.304642E-05 -1.021754E-05 +5.109722E-03 
 -1.032852E-04 -1.240135E-04 +8.078031E-05 -1.240135E-04 +5.606606E-05 -5.976831E-05 +8.078031E-05 -5.976831E-05 +5.134169E-03 
 -1.688128E-04 -1.087931E-04 +9.032897E-05 -1.087931E-04 +2.931736E-05 -1.399081E-04 +9.032897E-05 -1.399081E-04 +5.133261E-03 
 -2.907606E-04 -1.008221E-04 +9.636906E-05 -1.008221E-04 +1.165192E-05 -2.538510E-04 +9.636906E-05 -2.538510E-04 +5.187575E-03 
 -3.089307E-04 -1.027067E-04 +9.623848E-05 -1.027067E-04 -2.512041E-04 -3.210119E-04 +9.623848E-05 -3.210119E-04 +5.251548E-03 
 -6.975237E-05 -4.050532E-05 -5.856845E-06 -4.050532E-05 -5.400302E-04 -2.926886E-04 -5.856845E-06 -2.926886E-04 +5.257170E-03 
 +1.910922E-04 -5.819270E-06 -8.868195E-05 -5.819270E-06 -4.758158E-04 -2.110377E-04 -8.868195E-05 -2.110377E-04 +5.166242E-03 
 +2.385736E-04 -6.214714E-06 -5.975364E-05 -6.214714E-06 -3.265099E-04 -1.201606E-04 -5.975364E-05 -1.201606E-04 +5.068291E-03 
 +1.075561E-04 +4.670372E-05 -8.352263E-05 +4.670372E-05 -1.573110E-04 -7.128766E-05 -8.352263E-05 -7.128766E-05 +5.004861E-03 
 +7.410856E-05 +1.317757E-04 -8.233512E-05 +1.317757E-04 -1.585124E-05 -2.965155E-05 -8.233512E-05 -2.965155E-05 +4.983974E-03 
 -6.320415E-05 +9.476289E-05 -6.787918E-05 +9.476289E-05 +7.455185E-05 +6.657782E-05 -6.787918E-05 +6.657782E-05 +5.011262E-03 
 -1.440482E-04 -6.215478E-05 -5.986397E-05 -6.215478E-05 +7.625292E-05 +7.809816E-05 -5.986397E-05 +7.809816E-05 +5.059160E-03 
 -5.170926E-05 +2.407229E-04 +7.016980E-05 +2.407229E-04 -1.535399E-05 +7.353515E-05 +7.016980E-05 +7.353515E-05 +5.143148E-03 
 +1.160764E-05 +3.048659E-04 +1.320093E-04 +3.048659E-04 -1.100441E-04 +6.018202E-05 +1.320093E-04 +6.018202E-05 +5.159034E-03 
 +3.864346E-05 +2.384836E-04 +8.741552E-05 +2.384836E-04 -1.667436E-04 +3.141014E-05 +8.741552E-05 +3.141014E-05 +5.138658E-03 
 -1.676368E-05 +2.327798E-04 +8.401172E-05 +2.327798E-04 -2.163621E-04 -1.865741E-05 +8.401172E-05 -1.865741E-05 +5.170582E-03 
 -2.824886E-05 +2.040889E-04 +9.819405E-05 +2.040889E-04 -2.479920E-04 -3.298688E-05 +9.819405E-05 -3.298688E-05 +5.206685E-03 
 -5.448819E-05 +2.077736E-04 +1.023109E-04 +2.077736E-04 -2.936813E-04 -5.532534E-06 +1.023109E-04 -5.532534E-06 +5.235602E-03 
 +1.009219E-05 +2.355157E-04 +6.587287E-05 +2.355157E-04 -3.711996E-04 +5.843237E-05 +6.587287E-05 +5.843237E-05 +5.227845E-03 
 +7.747529E-05 +1.326150E-04 +4.233183E-06 +1.326150E-04 -4.812103E-04 +1.258971E-04 +4.233183E-06 +1.258971E-04 +5.201745E-03 
 +6.543300E-05 +8.762163E-05 +3.327140E-05 +8.762163E-05 -5.263325E-04 +8.514453E-05 +3.327140E-05 +8.514453E-05 +5.191922E-03 
 +3.498349E-05 +1.455634E-04 +6.873527E-05 +1.455634E-04 -5.326656E-04 -1.076177E-06 +6.873527E-05 -1.076177E-06 +5.188514E-03 
 +8.105599E-05 +1.788558E-04 +9.221517E-05 +1.788558E-04 -4.797601E-04 -4.179955E-05 +9.221517E-05 -4.179955E-05 +5.186445E-03 
 -1.576875E-04 +8.165249E-05 +1.376532E-04 +8.165249E-05 -2.518028E-04 -1.048134E-04 +1.376532E-04 -1.048134E-04 +5.190188E-03 
 -2.055360E-04 +4.268673E-05 +1.534050E-04 +4.268673E-05 -1.868736E-04 -2.194754E-04 +1.534050E-04 -2.194754E-04 +5.207137E-03 
 -2.676037E-04 +1.442773E-05 +1.428095E-04 +1.442773E-05 -3.157654E-04 -2.368048E-04 +1.428095E-04 -2.368048E-04 +5.227646E-03 
 -1.337273E-04 +1.466074E-04 +4.038073E-05 +1.466074E-04 -3.607137E-04 -1.353334E-04 +4.038073E-05 -1.353334E-04 +5.223520E-03 
 +6.513252E-05 +6.419428E-05 -1.132537E-04 +6.419428E-05 -3.345198E-04 -1.090270E-04 -1.132537E-04 -1.090270E-04 +5.150167E-03 
 +1.766849E-04 -6.122077E-06 -1.435219E-04 -6.122077E-06 -3.023710E-04 -9.206823E-05 -1.435219E-04 -9.206823E-05 +5.042217E-03 
 +1.425072E-04 +4.862123E-05 -6.276964E-05 +4.862123E-05 -2.619922E-04 -3.682303E-05 -6.276964E-05 -3.682303E-05 +5.011958E-03 
 +1.702961E-04 +5.780863E-05 -3.066550E-05 +5.780863E-05 -2.442497E-04 -2.792569E-05 -3.066550E-05 -2.792569E-05 +5.065994E-03 
 +1.350371E-04 +1.099310E-04 -1.142270E-04 +1.099310E-04 -1.700836E-04 +6.430677E-06 -1.142270E-04 +6.430677E-06 +5.081573E-03 
 -5.015645E-05 +7.237937E-06 -1.288723E-04 +7.237937E-06 +1.038165E-04 +5.664350E-05 -1.288723E-04 +5.664350E-05 +5.086826E-03 
 -7.550213E-05 +1.342445E-04 -5.042121E-05 +1.342445E-04 +1.137189E-04 +7.439662E-05 -5.042121E-05 +7.439662E-05 +5.135271E-03 
 -7.525491E-06 +2.563454E-04 +8.419619E-05 +2.563454E-04 -8.742410E-05 +7.519728E-05 +8.419619E-05 +7.519728E-05 +5.139684E-03 
 -1.931917E-05 +2.765230E-04 -7.093282E-06 +2.765230E-04 -1.634939E-04 +6.103125E-05 -7.093282E-06 +6.103125E-05 +5.120126E-03 
 -2.521412E-05 +2.322675E-04 +3.593115E-05 +2.322675E-04 -1.551144E-04 -1.660931E-05 +3.593115E-05 -1.660931E-05 +5.150600E-03 
 -1.035094E-04 +2.430729E-04 +1.896782E-05 +2.430729E-04 -2.152032E-04 -5.113203E-05 +1.896782E-05 -5.113203E-05 +5.204814E-03 
 -8.835948E-05 +2.356836E-04 -1.804388E-05 +2.356836E-04 -2.991369E-04 -1.160452E-05 -1.804388E-05 -1.160452E-05 +5.244298E-03 
 -4.424492E-05 +2.019018E-04 -2.842231E-05 +2.019018E-04 -4.629813E-04 +6.230477E-05 -2.842231E-05 +6.230477E-05 +5.248938E-03 
 +3.336686E-05 +7.551470E-05 +1.612622E-06 +7.551470E-05 -5.847526E-04 +9.693689E-05 +1.612622E-06 +9.693689E-05 +5.233137E-03 
 +2.936059E-05 +8.613523E-05 +3.632319E-05 +8.613523E-05 -5.484950E-04 +7.528083E-05 +3.632319E-05 +7.528083E-05 +5.221172E-03 
 +8.766306E-05 +6.579508E-05 +4.871431E-05 +6.579508E-05 -5.381666E-04 +3.333891E-05 +4.871431E-05 +3.333891E-05 +5.215238E-03 
 +1.107924E-04 +1.446995E-04 +5.530139E-05 +1.446995E-04 -5.939837E-04 +2.091074E-06 +5.530139E-05 +2.091074E-06 +5.233941E-03 
 +7.913217E-05 +2.245352E-04 +8.229268E-05 +2.245352E-04 -6.771662E-04 -3.088225E-05 +8.229268E-05 -3.088225E-05 +5.262306E-03 
 -7.023447E-05 +2.142877E-04 +1.825462E-04 +2.142877E-04 -6.975100E-04 -4.724957E-05 +1.825462E-04 -4.724957E-05 +5.261391E-03 
 -3.431936E-04 +1.896450E-04 +2.690434E-04 +1.896450E-04 -3.760261E-04 -1.344936E-05 +2.690434E-04 -1.344936E-05 +5.256898E-03 
 -3.612362E-04 +1.165407E-04 +1.631599E-04 +1.165407E-04 -1.653791E-04 +7.547509E-06 +1.631599E-04 +7.547509E-06 +5.247664E-03 
 -1.739049E-04 +1.468388E-04 +7.408286E-06 +1.468388E-04 -1.723089E-04 -3.682931E-06 +7.408286E-06 -3.682931E-06 +5.185186E-03 
 +1.201482E-04 +3.554240E-05 -1.221593E-04 +3.554240E-05 -1.225437E-04 -2.849977E-05 -1.221593E-04 -2.849977E-05 +5.076857E-03 
 +8.523863E-05 +8.065121E-05 -2.986608E-05 +8.065121E-05 -1.518038E-04 -4.622331E-05 -2.986608E-05 -4.622331E-05 +5.103971E-03 
 +2.725744E-04 +4.074504E-05 -2.845203E-05 +4.074504E-05 -2.005639E-04 -4.367826E-05 -2.845203E-05 -4.367826E-05 +5.141664E-03 
 +2.815712E-04 +1.621097E-04 -2.014616E-04 +1.621097E-04 -1.125864E-04 -1.060462E-04 -2.014616E-04 -1.060462E-04 +4.954375E-03 
 +1.840867E-04 +1.369258E-04 -2.184929E-04 +1.369258E-04 +2.018963E-04 -1.168489E-04 -2.184929E-04 -1.168489E-04 +4.857459E-03 
 +2.327337E-05 +9.468672E-05 -1.603449E-04 +9.468672E-05 +3.592966E-04 +2.777824E-05 -1.603449E-04 +2.777824E-05 +4.981639E-03 
 -7.788369E-05 +2.253834E-04 -2.738209E-05 +2.253834E-04 +5.045432E-05 +1.220013E-04 -2.738209E-05 +1.220013E-04 +5.093529E-03 
 +1.291490E-05 +1.905072E-04 -9.108193E-05 +1.905072E-04 -6.227989E-05 +7.243142E-05 -9.108193E-05 +7.243142E-05 +5.067693E-03 
 -2.191419E-05 +2.558366E-04 -6.590250E-05 +2.558366E-04 -2.113182E-04 -6.818784E-06 -6.590250E-05 -6.818784E-06 +5.108612E-03 
 +1.096415E-05 +3.415346E-04 -6.733522E-05 +3.415346E-04 -1.737871E-04 -4.558637E-05 -6.733522E-05 -4.558637E-05 +5.134121E-03 
 -1.656514E-04 +3.263572E-04 -1.006702E-04 +3.263572E-04 -2.312508E-04 -2.130220E-05 -1.006702E-04 -2.130220E-05 +5.200101E-03 
 -3.042333E-04 +1.703867E-04 -1.211541E-04 +1.703867E-04 -3.994836E-04 -2.732429E-06 -1.211541E-04 -2.732429E-06 +5.264882E-03 
 -1.622738E-04 +3.159271E-05 -3.791369E-05 +3.159271E-05 -4.522927E-04 +2.301321E-05 -3.791369E-05 +2.301321E-05 +5.247278E-03 
 +1.221744E-04 +2.811876E-05 +2.728615E-05 +2.811876E-05 -4.950599E-04 +7.504022E-05 +2.728615E-05 +7.504022E-05 +5.198454E-03 
 +1.178474E-04 +8.032018E-05 +4.315981E-05 +8.032018E-05 -5.368244E-04 +6.737781E-05 +4.315981E-05 +6.737781E-05 +5.175148E-03 
 +1.729490E-04 +1.279395E-04 +5.654268E-05 +1.279395E-04 -6.047105E-04 +5.135678E-05 +5.654268E-05 +5.135678E-05 +5.178404E-03 
 +1.753344E-04 +9.973210E-05 +9.046361E-05 +9.973210E-05 -5.281888E-04 +1.746042E-05 +9.046361E-05 +1.746042E-05 +5.212252E-03 
 -3.035632E-04 -1.777961E-04 +1.972934E-04 -1.777961E-04 -1.360633E-04 -2.802994E-05 +1.972934E-04 -2.802994E-05 +5.258574E-03 
 -4.159191E-04 -2.591856E-04 +2.720525E-04 -2.591856E-04 +5.780598E-05 -5.631332E-05 +2.720525E-04 -5.631332E-05 +5.275854E-03 
 -4.016013E-04 -3.308602E-04 +2.311935E-04 -3.308602E-04 +5.105792E-05 -6.456794E-05 +2.311935E-04 -6.456794E-05 +5.246713E-03 
 -2.082782E-04 -1.782278E-04 +1.582250E-04 -1.782278E-04 -1.112328E-04 -2.885279E-05 +1.582250E-04 -2.885279E-05 +5.185220E-03 
 +1.205218E-04 -7.376989E-05 +1.396567E-05 -7.376989E-05 -2.268373E-04 -3.728110E-05 +1.396567E-05 -3.728110E-05 +5.065802E-03 
 +9.858427E-05 -1.160805E-05 -8.992987E-06 -1.160805E-05 -2.172998E-04 -1.012900E-04 -8.992987E-06 -1.012900E-04 +5.059416E-03 
 +1.492655E-04 -5.451442E-05 -9.516892E-05 -5.451442E-05 -2.080191E-04 -1.119412E-04 -9.516892E-05 -1.119412E-04 +5.055797E-03 
 +2.966836E-04 +5.821239E-06 -1.947711E-04 +5.821239E-06 -1.046078E-04 -1.635325E-04 -1.947711E-04 -1.635325E-04 +4.838763E-03 
 +3.295809E-04 -8.676897E-05 -1.874213E-04 -8.676897E-05 -4.024827E-05 -1.728888E-04 -1.874213E-04 -1.728888E-04 +4.754406E-03 
 +2.629290E-04 -3.257437E-04 -1.164062E-04 -3.257437E-04 +5.846871E-05 +1.803572E-06 -1.164062E-04 +1.803572E-06 +4.916560E-03 
 +1.135269E-04 -2.009487E-04 -1.062659E-04 -2.009487E-04 +1.192148E-04 +1.327417E-04 -1.062659E-04 +1.327417E-04 +5.035567E-03 
 +2.387817E-04 -2.388388E-04 -1.107286E-04 -2.388388E-04 -4.546192E-05 +8.960244E-05 -1.107286E-04 +8.960244E-05 +5.033256E-03 
 +1.179253E-04 +4.494482E-06 -9.716219E-05 +4.494482E-06 -2.398383E-04 -2.083783E-05 -9.716219E-05 -2.083783E-05 +5.087185E-03 
 +4.457227E-05 +2.245852E-04 -4.096043E-05 +2.245852E-04 -1.309442E-04 -3.619629E-05 -4.096043E-05 -3.619629E-05 +5.083024E-03 
 -3.457300E-04 -5.924813E-05 -3.699504E-05 -5.924813E-05 +1.855502E-04 -1.337729E-05 -3.699504E-05 -1.337729E-05 +5.122226E-03 
 -4.553597E-04 -1.824031E-04 -7.768195E-05 -1.824031E-04 +2.493279E-04 -3.466369E-05 -7.768195E-05 -3.466369E-05 +5.162515E-03 
 -3.978743E-04 -1.275054E-04 -7.494580E-05 -1.275054E-04 +1.489939E-04 -2.556434E-05 -7.494580E-05 -2.556434E-05 +5.153964E-03 
 +5.301873E-08 -3.559626E-04 -7.054239E-05 -3.559626E-04 -5.913615E-05 +7.954098E-05 -7.054239E-05 +7.954098E-05 +5.130260E-03 
 +1.202117E-04 -3.810685E-04 -1.284462E-05 -3.810685E-04 -2.332741E-04 +1.174085E-04 -1.284462E-05 +1.174085E-04 +5.102470E-03 
 +1.579124E-04 -3.943005E-04 +4.790805E-05 -3.943005E-04 -1.350459E-04 +1.060318E-04 +4.790805E-05 +1.060318E-04 +5.073494E-03 
 -3.981311E-05 -3.202391E-04 +1.197012E-04 -3.202391E-04 -4.012503E-07 +7.308652E-05 +1.197012E-04 +7.308652E-05 +5.080687E-03 
 -3.267050E-04 -2.699284E-04 +1.554079E-04 -2.699284E-04 +3.975703E-05 +4.352697E-05 +1.554079E-04 +4.352697E-05 +5.143660E-03 
 -3.037194E-04 -2.438210E-04 +1.740592E-04 -2.438210E-04 +6.362765E-05 +9.862741E-06 +1.740592E-04 +9.862741E-06 +5.191068E-03 
 -2.818944E-04 -2.578417E-04 +2.012669E-04 -2.578417E-04 +7.928876E-05 -1.384887E-05 +2.012669E-04 -1.384887E-05 +5.180948E-03 
 -1.775004E-04 -2.773072E-04 +1.923726E-04 -2.773072E-04 +7.199308E-05 +2.636738E-05 +1.923726E-04 +2.636738E-05 +5.109662E-03 
 +1.193309E-04 -1.485534E-04 +7.288818E-05 -1.485534E-04 +6.230047E-06 -5.089636E-05 +7.288818E-05 -5.089636E-05 +4.940285E-03 
 +4.210961E-04 +4.606121E-05 -2.834457E-05 +4.606121E-05 +1.771666E-04 -1.776367E-04 -2.834457E-05 -1.776367E-04 +4.822542E-03 
 +9.493065E-05 +2.014144E-04 -1.409000E-04 +2.014144E-04 +3.719992E-04 -9.261237E-05 -1.409000E-04 -9.261237E-05 +4.844038E-03 
 +2.404209E-05 +1.981953E-04 -1.102729E-04 +1.981953E-04 +2.238053E-04 -3.225999E-05 -1.102729E-04 -3.225999E-05 +4.865695E-03 
 +2.361757E-04 -2.741546E-05 -8.150957E-05 -2.741546E-05 +2.253774E-05 -2.821708E-05 -8.150957E-05 -2.821708E-05 +4.864773E-03 
 +3.918998E-04 -2.850218E-04 -9.862367E-05 -2.850218E-04 -4.571726E-05 +9.666250E-05 -9.862367E-05 +9.666250E-05 +4.889413E-03 
 +3.614249E-04 -3.583965E-04 -1.440282E-04 -3.583965E-04 -6.770189E-06 +1.940989E-04 -1.440282E-04 +1.940989E-04 +4.945638E-03 
 +2.867332E-04 -2.716248E-04 -1.539510E-04 -2.716248E-04 -6.423049E-05 +1.127885E-04 -1.539510E-04 +1.127885E-04 +5.038181E-03 
 +2.162634E-04 -3.126599E-04 -6.841701E-05 -3.126599E-04 -8.093183E-05 +8.671705E-07 -6.841701E-05 +8.671705E-07 +5.064240E-03 
 +2.529122E-05 +1.266641E-04 +7.901011E-05 +1.266641E-04 -8.250322E-05 -7.605932E-06 +7.901011E-05 -7.605932E-06 +5.029094E-03 
 -2.567635E-04 +8.535105E-05 +6.809163E-05 +8.535105E-05 +1.288918E-04 +1.074570E-05 +6.809163E-05 +1.074570E-05 +5.031189E-03 
 -4.689030E-04 -5.003305E-05 -1.650838E-05 -5.003305E-05 +3.225254E-04 -2.243991E-05 -1.650838E-05 -2.243991E-05 +5.050311E-03 
 -4.531598E-04 -4.994912E-05 -3.929490E-05 -4.994912E-05 +3.234734E-04 -3.623164E-05 -3.929490E-05 -3.623164E-05 +5.043828E-03 
 -3.117148E-04 -1.518881E-04 -8.856671E-05 -1.518881E-04 +3.022761E-04 +9.387903E-06 -8.856671E-05 +9.387903E-06 +5.032287E-03 
 -9.928823E-05 -2.070855E-04 -6.991690E-05 -2.070855E-04 +2.213611E-04 +3.690735E-05 -6.991690E-05 +3.690735E-05 +5.002457E-03 
 -3.092278E-07 -1.627573E-04 +7.820996E-06 -1.627573E-04 +1.770183E-04 +4.623888E-05 +7.820996E-06 +4.623888E-05 +4.960811E-03 
 -7.328707E-05 -2.444960E-04 +8.060051E-05 -2.444960E-04 +1.284403E-04 +6.368934E-05 +8.060051E-05 +6.368934E-05 +4.964886E-03 
 -4.474254E-05 -1.819298E-04 +1.267847E-04 -1.819298E-04 +1.093739E-06 +5.935683E-05 +1.267847E-04 +5.935683E-05 +5.040949E-03 
 -1.480640E-04 -2.230607E-04 +1.793343E-04 -2.230607E-04 +2.989290E-05 +4.657832E-05 +1.793343E-04 +4.657832E-05 +5.107555E-03 
 -1.553125E-04 -2.362111E-04 +1.852449E-04 -2.362111E-04 +7.433481E-05 +3.751392E-05 +1.852449E-04 +3.751392E-05 +5.102674E-03 
 -1.408738E-04 -2.246232E-04 +1.351083E-04 -2.246232E-04 +9.194315E-05 +6.376090E-05 +1.351083E-04 +6.376090E-05 +5.054393E-03 
 +2.944539E-05 -7.308548E-05 +4.865927E-05 -7.308548E-05 +6.182673E-05 +2.531852E-05 +4.865927E-05 +2.531852E-05 +4.945034E-03 
 +5.119244E-04 -1.490064E-05 -1.231955E-05 -1.490064E-05 -7.736044E-05 -2.640133E-05 -1.231955E-05 -2.640133E-05 +4.778636E-03 
 +4.057760E-04 -1.342866E-05 -1.289012E-04 -1.342866E-05 +3.753037E-06 +2.439867E-05 -1.289012E-04 +2.439867E-05 +4.759026E-03 
 -8.116851E-06 +1.194989E-04 -1.080260E-04 +1.194989E-04 +1.716838E-04 +1.324509E-05 -1.080260E-04 +1.324509E-05 +4.889828E-03 
 -2.014843E-05 +7.619819E-05 -7.797770E-05 +7.619819E-05 +4.531117E-05 +4.864154E-05 -7.797770E-05 +4.864154E-05 +4.941581E-03 
 +3.430025E-04 -1.909261E-04 -1.278508E-04 -1.909261E-04 -7.593998E-05 +2.201056E-04 -1.278508E-04 +2.201056E-04 +4.907487E-03 
 +3.619954E-04 -2.828635E-04 -1.790147E-04 -2.828635E-04 -9.718466E-05 +2.542785E-04 -1.790147E-04 +2.542785E-04 +4.943632E-03 
 +2.483681E-04 -2.148646E-04 -1.855915E-04 -2.148646E-04 -7.600836E-05 +1.365527E-04 -1.855915E-04 +1.365527E-04 +5.037509E-03 
 +1.651037E-04 -2.290889E-04 -7.222466E-05 -2.290889E-04 -3.048250E-05 +2.477788E-05 -7.222466E-05 +2.477788E-05 +5.022274E-03 
 +5.543118E-05 +2.579457E-04 +1.258855E-04 +2.579457E-04 +3.620379E-05 -4.765326E-06 +1.258855E-04 -4.765326E-06 +4.937836E-03 
 -5.040422E-05 +9.407825E-05 +1.242463E-04 +9.407825E-05 +1.763371E-04 +1.112190E-05 +1.242463E-04 +1.112190E-05 +4.922674E-03 
 -4.473252E-04 -1.396830E-04 +1.901539E-05 -1.396830E-04 +3.039609E-04 -2.557998E-05 +1.901539E-05 -2.557998E-05 +4.979927E-03 
 -4.105542E-04 -1.499520E-04 +2.711792E-05 -1.499520E-04 +3.440164E-04 -1.811508E-05 +2.711792E-05 -1.811508E-05 +4.992326E-03 
 -4.165323E-04 -1.894102E-04 -8.486675E-06 -1.894102E-04 +3.457953E-04 +7.057416E-06 -8.486675E-06 +7.057416E-06 +4.981202E-03 
 -3.742301E-04 -2.074536E-04 -3.819799E-05 -2.074536E-04 +3.686458E-04 -2.500729E-05 -3.819799E-05 -2.500729E-05 +4.960915E-03 
 -2.899362E-04 -1.186160E-04 -3.006726E-05 -1.186160E-04 +2.995732E-04 -3.542082E-06 -3.006726E-05 -3.542082E-06 +4.858638E-03 
 +1.268291E-05 -2.763678E-04 -9.702263E-06 -2.763678E-04 +1.418553E-04 +6.300278E-05 -9.702263E-06 +6.300278E-05 +4.758753E-03 
 +1.427743E-04 -9.290016E-05 +6.011334E-05 -9.290016E-05 +2.588151E-05 +7.156992E-05 +6.011334E-05 +7.156992E-05 +4.816051E-03 
 +1.314743E-04 +4.427054E-05 +1.289778E-04 +4.427054E-05 +4.793548E-05 +6.217819E-05 +1.289778E-04 +6.217819E-05 +4.954815E-03 
 -6.627004E-05 +6.170537E-06 +1.197705E-04 +6.170537E-06 +1.050720E-04 +4.023466E-05 +1.197705E-04 +4.023466E-05 +5.049306E-03 
 -1.237812E-04 -4.689827E-05 +5.710553E-05 -4.689827E-05 +9.414020E-05 +7.366000E-05 +5.710553E-05 +7.366000E-05 +5.097361E-03 
 -1.140123E-04 -1.419949E-05 +4.609679E-05 -1.419949E-05 +1.079846E-04 +7.196236E-05 +4.609679E-05 +7.196236E-05 +5.055599E-03 
 +2.788868E-04 +4.451019E-05 +2.427787E-05 +4.451019E-05 +8.997727E-05 +4.462667E-05 +2.427787E-05 +4.462667E-05 +4.886791E-03 
 +4.309374E-04 -6.022357E-06 -7.603109E-05 -6.022357E-06 -8.901687E-05 +4.222082E-05 -7.603109E-05 +4.222082E-05 +4.799641E-03 
 +3.864034E-04 -9.771047E-05 -1.019536E-04 -9.771047E-05 -2.187377E-04 -2.923091E-05 -1.019536E-04 -2.923091E-05 +4.886442E-03 
 -5.605013E-05 -2.533861E-05 -1.121363E-04 -2.533861E-05 -7.598229E-05 +4.322475E-05 -1.121363E-04 +4.322475E-05 +4.977969E-03 
 +1.790629E-04 -1.962616E-04 -1.380395E-04 -1.962616E-04 -5.974344E-05 +2.359367E-04 -1.380395E-04 +2.359367E-04 +4.991045E-03 
 +3.176379E-04 -2.749908E-04 -1.898299E-04 -2.749908E-04 -1.333812E-04 +2.457252E-04 -1.898299E-04 +2.457252E-04 +4.997898E-03 
 +2.651053E-04 -2.096797E-04 -1.636833E-04 -2.096797E-04 -1.480942E-04 +1.489544E-04 -1.636833E-04 +1.489544E-04 +5.048564E-03 
 +2.016092E-04 -1.905296E-04 -5.735459E-05 -1.905296E-04 +1.058732E-05 +4.580117E-06 -5.735459E-05 +4.580117E-06 +5.016473E-03 
 -5.244943E-06 +3.457414E-04 +1.334548E-04 +3.457414E-04 +2.865621E-04 -5.329439E-05 +1.334548E-04 -5.329439E-05 +4.897661E-03 
 -5.118777E-05 +1.184539E-04 +1.279339E-04 +1.184539E-04 +3.256754E-04 -9.017504E-06 +1.279339E-04 -9.017504E-06 +4.872309E-03 
 -3.222143E-04 -1.056343E-04 +4.498309E-05 -1.056343E-04 +2.596818E-04 -2.480981E-05 +4.498309E-05 -2.480981E-05 +4.948336E-03 
 -3.626870E-04 -1.463685E-04 +4.260570E-05 -1.463685E-04 +2.973266E-04 -1.906526E-05 +4.260570E-05 -1.906526E-05 +4.978118E-03 
 -4.291351E-04 -1.466003E-04 -6.134105E-07 -1.466003E-04 +3.491997E-04 -1.219617E-05 -6.134105E-07 -1.219617E-05 +4.964283E-03 
 -5.028322E-04 -1.350678E-04 -1.518271E-05 -1.350678E-04 +4.193899E-04 -8.440041E-06 -1.518271E-05 -8.440041E-06 +4.883275E-03 
 -3.836188E-04 +3.310915E-06 -3.479127E-05 +3.310915E-06 +3.776251E-04 +6.251304E-05 -3.479127E-05 +6.251304E-05 +4.693074E-03 
 +1.530788E-04 +2.001401E-05 -6.170779E-05 +2.001401E-05 +3.096008E-04 +1.081348E-04 -6.170779E-05 +1.081348E-04 +4.561510E-03 
 +2.776835E-04 +1.082746E-04 +7.065117E-06 +1.082746E-04 +2.330888E-04 +1.514363E-04 +7.065117E-06 +1.514363E-04 +4.547024E-03 
 +3.774365E-04 +2.244810E-04 +5.099575E-05 +2.244810E-04 +1.750053E-04 +1.736447E-04 +5.099575E-05 +1.736447E-04 +4.701578E-03 
 -1.175168E-04 -1.364837E-05 +6.445413E-05 -1.364837E-05 +1.559708E-04 +1.463416E-04 +6.445413E-05 +1.463416E-04 +4.987854E-03 
 -1.737885E-04 -4.355149E-05 +6.101798E-05 -4.355149E-05 +1.484064E-04 +1.219376E-04 +6.101798E-05 +1.219376E-04 +5.113948E-03 
 -2.352089E-04 +5.508742E-06 +1.138763E-04 +5.508742E-06 +1.033827E-04 +7.820917E-05 +1.138763E-04 +7.820917E-05 +5.042172E-03 
 +2.162534E-04 +1.335454E-04 +9.179074E-05 +1.335454E-04 +1.817324E-05 +5.127990E-05 +9.179074E-05 +5.127990E-05 +4.920676E-03 
 +2.593744E-04 +1.193832E-04 +2.366735E-05 +1.193832E-04 -2.310957E-05 +2.724131E-05 +2.366735E-05 +2.724131E-05 +4.872111E-03 
 +3.298567E-04 +6.361067E-06 -4.485973E-05 +6.361067E-06 -9.864971E-05 -2.564345E-05 -4.485973E-05 -2.564345E-05 +4.918921E-03 
 +1.655398E-04 -1.111329E-04 -1.001520E-04 -1.111329E-04 -2.237868E-04 +2.079303E-05 -1.001520E-04 +2.079303E-05 +5.003763E-03 
 +9.336805E-05 -2.828691E-04 -1.279348E-04 -2.828691E-04 -2.008783E-04 +1.985657E-04 -1.279348E-04 +1.985657E-04 +5.048779E-03 
 +2.439439E-04 -2.952252E-04 -1.646134E-04 -2.952252E-04 -1.329358E-04 +2.408041E-04 -1.646134E-04 +2.408041E-04 +5.041248E-03 
 +2.177319E-04 -2.008615E-04 -6.661552E-05 -2.008615E-04 -1.488251E-04 +1.370948E-04 -6.661552E-05 +1.370948E-04 +5.070326E-03 
 +1.589801E-04 -1.605666E-04 +2.660864E-05 -1.605666E-04 +6.248560E-05 +1.535125E-05 +2.660864E-05 +1.535125E-05 +5.048708E-03 
 +7.904558E-06 +3.580814E-04 +1.332942E-04 +3.580814E-04 +3.388957E-04 -1.107689E-04 +1.332942E-04 -1.107689E-04 +4.949775E-03 
 -1.434144E-04 -1.979775E-04 +8.230471E-05 -1.979775E-04 +3.171871E-04 -1.234616E-04 +8.230471E-05 -1.234616E-04 +4.937824E-03 
 -2.368344E-04 -3.109665E-04 +6.620868E-05 -3.109665E-04 +1.242346E-04 -8.136779E-05 +6.620868E-05 -8.136779E-05 +4.988491E-03 
 -3.085363E-04 -3.706348E-04 +8.047073E-05 -3.706348E-04 +1.190457E-04 -3.112827E-05 +8.047073E-05 -3.112827E-05 +4.996551E-03 
 -3.819351E-04 -3.216944E-04 +3.740117E-05 -3.216944E-04 +1.691828E-04 -1.352928E-05 +3.740117E-05 -1.352928E-05 +4.975254E-03 
 -4.621337E-04 -2.299856E-04 +9.373896E-06 -2.299856E-04 +2.626333E-04 +3.786937E-05 +9.373896E-06 +3.786937E-05 +4.821689E-03 
 -1.079011E-04 -1.423090E-05 -2.025040E-05 -1.423090E-05 +3.774783E-04 +1.087237E-04 -2.025040E-05 +1.087237E-04 +4.593689E-03 
 +1.573127E-04 -2.162748E-05 -1.990533E-05 -2.162748E-05 +4.159230E-04 +1.259969E-04 -1.990533E-05 +1.259969E-04 +4.538265E-03 
 +2.835315E-04 -4.343481E-05 +1.069447E-05 -4.343481E-05 +3.517533E-04 +1.412702E-04 +1.069447E-05 +1.412702E-04 +4.499417E-03 
 +3.667175E-04 +2.184876E-05 +5.261391E-05 +2.184876E-05 +2.094594E-04 +1.352261E-04 +5.261391E-05 +1.352261E-04 +4.569822E-03 
 -2.305409E-05 -1.031694E-04 +1.314643E-04 -1.031694E-04 +1.330066E-04 +1.207329E-04 +1.314643E-04 +1.207329E-04 +4.913777E-03 
 -1.417099E-04 +1.236409E-05 +1.517717E-04 +1.236409E-05 +1.483071E-04 +9.813388E-05 +1.517717E-04 +9.813388E-05 +5.161192E-03 
 -2.512482E-04 +4.345598E-05 +1.800040E-04 +4.345598E-05 +1.326277E-04 +9.783319E-05 +1.800040E-04 +9.783319E-05 +5.115254E-03 
 +1.546393E-04 +1.762618E-04 +2.004941E-04 +1.762618E-04 +8.063786E-05 +1.030889E-04 +2.004941E-04 +1.030889E-04 +5.002189E-03 
 +1.779825E-04 +1.144030E-04 +1.923548E-04 +1.144030E-04 +2.989524E-05 +6.626949E-05 +1.923548E-04 +6.626949E-05 +4.965562E-03 
 +1.431205E-04 +6.092906E-05 +6.607261E-05 +6.092906E-05 +1.014714E-06 +3.339234E-05 +6.607261E-05 +3.339234E-05 +4.965836E-03 
 +1.653432E-04 -4.186688E-05 -4.134133E-05 -4.186688E-05 -8.312768E-05 +3.973072E-05 -4.134133E-05 +3.973072E-05 +5.019736E-03 
 +4.180220E-05 -2.145247E-04 -7.286147E-05 -2.145247E-04 -1.511937E-04 +1.449179E-04 -7.286147E-05 +1.449179E-04 +5.073603E-03 
 +1.815696E-04 -3.546490E-04 -7.017228E-05 -3.546490E-04 -2.035768E-04 +1.850810E-04 -7.017228E-05 +1.850810E-04 +5.066904E-03 
 -6.612328E-06 -9.371865E-05 +2.898662E-05 -9.371865E-05 -1.204223E-04 +1.102000E-04 +2.898662E-05 +1.102000E-04 +5.123726E-03 
 +3.311254E-05 -1.362444E-04 +5.892579E-05 -1.362444E-04 +8.577908E-05 +9.517546E-06 +5.892579E-05 +9.517546E-06 +5.104706E-03 
 +4.888821E-05 +3.575686E-04 +3.051020E-05 +3.575686E-04 +1.520873E-04 -1.046011E-04 +3.051020E-05 -1.046011E-04 +5.076185E-03 
 -2.195043E-04 -2.837155E-04 -2.548085E-05 -2.837155E-04 +1.497321E-04 -1.645417E-04 -2.548085E-05 -1.645417E-04 +5.074303E-03 
 -2.029763E-04 -3.446656E-04 -5.918933E-06 -3.446656E-04 +8.477702E-05 -1.221818E-04 -5.918933E-06 -1.221818E-04 +5.015116E-03 
 -2.447236E-04 -3.404053E-04 +5.573098E-05 -3.404053E-04 +3.412751E-05 -9.916316E-07 +5.573098E-05 -9.916316E-07 +4.988780E-03 
 -3.584860E-04 -3.243578E-04 +4.133541E-05 -3.243578E-04 +3.712806E-05 +2.391904E-05 +4.133541E-05 +2.391904E-05 +5.009877E-03 
 -2.656069E-04 -1.573033E-04 +7.140428E-05 -1.573033E-04 +1.607689E-04 -1.110564E-05 +7.140428E-05 -1.110564E-05 +4.899716E-03 
 +1.521097E-04 -4.055111E-05 +3.326699E-05 -4.055111E-05 +3.492982E-04 +1.234685E-05 +3.326699E-05 +1.234685E-05 +4.704643E-03 
 +1.805400E-04 -1.112683E-04 +1.009191E-05 -1.112683E-04 +3.553641E-04 +5.320060E-05 +1.009191E-05 +5.320060E-05 +4.641291E-03 
 +2.089510E-04 -8.485640E-05 +3.259825E-05 -8.485640E-05 +3.346725E-04 +1.068942E-04 +3.259825E-05 +1.068942E-04 +4.620540E-03 
 +2.834359E-04 -1.137235E-04 +7.858781E-05 -1.137235E-04 +2.523761E-04 +1.262777E-04 +7.858781E-05 +1.262777E-04 +4.603024E-03 
 +1.657798E-04 -1.942133E-04 +1.545360E-04 -1.942133E-04 +1.556002E-04 +8.317908E-05 +1.545360E-04 +8.317908E-05 +4.746197E-03 
 -8.812126E-05 -1.619492E-04 +1.713807E-04 -1.619492E-04 +1.659011E-04 +5.446827E-05 +1.713807E-04 +5.446827E-05 +4.972812E-03 
 -9.706532E-05 -8.266773E-05 +1.906860E-04 -8.266773E-05 +1.528481E-04 +1.326576E-04 +1.906860E-04 +1.326576E-04 +5.017926E-03 
 +1.014456E-04 +1.312730E-04 +2.047958E-04 +1.312730E-04 +1.143507E-04 +1.593722E-04 +2.047958E-04 +1.593722E-04 +5.001534E-03 
 +8.493036E-05 +1.604095E-04 +2.424787E-04 +1.604095E-04 +1.123632E-04 +1.062766E-04 +2.424787E-04 +1.062766E-04 +5.031829E-03 
 +1.718424E-04 +5.704445E-05 +1.575309E-04 +5.704445E-05 +6.382451E-06 +1.019249E-04 +1.575309E-04 +1.019249E-04 +5.011037E-03 
 +8.301336E-05 +2.596324E-05 +5.581588E-05 +2.596324E-05 -8.435526E-05 +8.903292E-05 +5.581588E-05 +8.903292E-05 +5.033252E-03 
 -4.311235E-05 -7.635105E-05 +4.718835E-05 -7.635105E-05 -6.152396E-05 +1.143119E-04 +4.718835E-05 +1.143119E-04 +5.071198E-03 
 +1.213352E-05 -3.020244E-04 +6.260938E-05 -3.020244E-04 -1.470770E-04 +1.407513E-04 +6.260938E-05 +1.407513E-04 +5.086977E-03 
 -2.518811E-04 +3.422037E-04 +8.472542E-05 +3.422037E-04 +7.341807E-05 +8.373849E-05 +8.472542E-05 +8.373849E-05 +5.141184E-03 
 -2.610376E-04 +2.562279E-04 +4.600115E-06 +2.562279E-04 +2.728207E-04 -3.471973E-05 +4.600115E-06 -3.471973E-05 +5.164666E-03 
 -3.354829E-05 +3.822854E-04 -9.452569E-05 +3.822854E-04 +1.303844E-04 -1.057100E-04 -9.452569E-05 -1.057100E-04 +5.190534E-03 
 -6.269422E-05 -6.322871E-05 -1.264019E-04 -6.322871E-05 +4.133093E-05 -1.964117E-04 -1.264019E-04 -1.964117E-04 +5.140827E-03 
 -1.860991E-04 -2.008355E-04 -4.238369E-05 -2.008355E-04 +9.537299E-05 -1.270270E-04 -4.238369E-05 -1.270270E-04 +5.030076E-03 
 -2.417181E-04 -1.471568E-04 +3.673609E-05 -1.471568E-04 -2.767912E-05 +4.544764E-05 +3.673609E-05 +4.544764E-05 +5.054208E-03 
 -2.310916E-04 -9.019604E-05 +3.537382E-05 -9.019604E-05 -3.594271E-05 +2.783724E-05 +3.537382E-05 +2.783724E-05 +5.056383E-03 
 -3.408208E-05 +2.374277E-04 +1.074331E-04 +2.374277E-04 -2.300450E-05 -1.717012E-05 +1.074331E-04 -1.717012E-05 +4.936824E-03 
 +8.791283E-05 +2.331662E-04 +8.527956E-05 +2.331662E-04 +2.082009E-05 +2.858225E-06 +8.527956E-05 +2.858225E-06 +4.823129E-03 
 +1.843413E-04 -8.659662E-06 +1.581035E-05 -8.659662E-06 +2.298097E-04 +3.323281E-05 +1.581035E-05 +3.323281E-05 +4.773937E-03 
 +1.742428E-04 -9.001280E-05 +4.354505E-05 -9.001280E-05 +3.299933E-04 +5.523128E-05 +4.354505E-05 +5.523128E-05 +4.738738E-03 
 +1.979973E-04 -1.034385E-04 +8.691511E-05 -1.034385E-04 +2.967434E-04 +5.862756E-05 +8.691511E-05 +5.862756E-05 +4.652403E-03 
 +1.995765E-04 -1.793643E-04 +9.138738E-05 -1.793643E-04 +2.867927E-04 +7.076687E-05 +9.138738E-05 +7.076687E-05 +4.620318E-03 
 +8.822059E-05 -5.329462E-05 +7.587852E-05 -5.329462E-05 +2.796226E-04 +1.068565E-04 +7.587852E-05 +1.068565E-04 +4.648129E-03 
 +8.135467E-05 +1.078021E-05 +1.331992E-04 +1.078021E-05 +3.224963E-04 +1.258996E-04 +1.331992E-04 +1.258996E-04 +4.718169E-03 
 +1.932738E-05 +1.114946E-04 +1.434200E-04 +1.114946E-04 +3.120172E-04 +8.789367E-05 +1.434200E-04 +8.789367E-05 +4.896420E-03 
 +2.457714E-06 +1.961294E-05 +1.764810E-04 +1.961294E-05 +1.261089E-04 +1.349259E-04 +1.764810E-04 +1.349259E-04 +5.021227E-03 
 +1.220991E-04 -1.513008E-04 +1.051792E-04 -1.513008E-04 -8.227423E-05 +1.639500E-04 +1.051792E-04 +1.639500E-04 +5.007415E-03 
 +8.726107E-05 -1.260495E-04 +6.353289E-05 -1.260495E-04 -1.847517E-04 +1.080466E-04 +6.353289E-05 +1.080466E-04 +5.006523E-03 
 +5.137481E-05 -1.265826E-04 +1.168309E-04 -1.265826E-04 -2.041142E-04 +1.144764E-04 +1.168309E-04 +1.144764E-04 +5.028586E-03 
 +6.064779E-06 -1.792758E-04 +1.809981E-04 -1.792758E-04 -1.120503E-04 +1.410128E-04 +1.809981E-04 +1.410128E-04 +5.075762E-03 
 -3.440241E-04 +1.496535E-04 +4.950919E-05 +1.496535E-04 +3.917547E-04 +8.216780E-05 +4.950919E-05 +8.216780E-05 +5.053162E-03 
 -3.749470E-04 +1.351199E-04 +2.689875E-06 +1.351199E-04 +4.053355E-04 -2.991204E-05 +2.689875E-06 -2.991204E-05 +5.117355E-03 
 -3.470602E-05 +3.172896E-04 -1.283399E-04 +3.172896E-04 +8.039726E-05 -8.374132E-05 -1.283399E-04 -8.374132E-05 +5.160437E-03 
 -3.220546E-05 +1.804954E-04 -1.388896E-04 +1.804954E-04 -1.137172E-04 -1.510977E-04 -1.388896E-04 -1.510977E-04 +5.054704E-03 
 -1.252159E-04 -1.976364E-04 +2.778460E-05 -1.976364E-04 -2.944176E-05 -7.453791E-05 +2.778460E-05 -7.453791E-05 +4.971273E-03 
 -1.046517E-04 -5.176157E-05 +4.658187E-05 -5.176157E-05 -5.225564E-05 +6.383163E-05 +4.658187E-05 +6.383163E-05 +5.049795E-03 
 -2.726576E-05 +1.725636E-04 +7.029627E-05 +1.725636E-04 -4.708494E-05 +4.662527E-05 +7.029627E-05 +4.662527E-05 +5.040461E-03 
 -1.541736E-05 +2.735544E-04 +1.066063E-04 +2.735544E-04 +5.491983E-06 +3.792341E-05 +1.066063E-04 +3.792341E-05 +4.926761E-03 
 -1.195512E-05 +2.687456E-04 +8.282284E-05 +2.687456E-04 -5.879666E-05 +2.124374E-05 +8.282284E-05 +2.124374E-05 +4.864219E-03 
 +2.199117E-05 +2.349552E-04 +4.845850E-05 +2.349552E-04 +1.018027E-05 +9.965509E-06 +4.845850E-05 +9.965509E-06 +4.840414E-03 
 +1.337811E-04 +1.320540E-05 +2.673533E-05 +1.320540E-05 +2.748310E-04 +5.103661E-05 +2.673533E-05 +5.103661E-05 +4.803529E-03 
 +1.616107E-04 -8.921076E-05 +4.047491E-05 -8.921076E-05 +3.531573E-04 +7.877916E-05 +4.047491E-05 +7.877916E-05 +4.706361E-03 
 +1.780569E-04 -1.082612E-04 +2.401533E-05 -1.082612E-04 +3.381571E-04 +1.162116E-04 +2.401533E-05 +1.162116E-04 +4.606093E-03 
 +2.001626E-04 -1.599925E-04 -2.735890E-06 -1.599925E-04 +2.913246E-04 +1.868933E-04 -2.735890E-06 +1.868933E-04 +4.597619E-03 
 +2.906284E-05 -2.296441E-04 +1.281617E-04 -2.296441E-04 +1.166221E-04 +1.746504E-04 +1.281617E-04 +1.746504E-04 +4.746207E-03 
 -3.127891E-05 -1.561288E-04 +1.380204E-04 -1.561288E-04 -1.049624E-05 +1.107743E-04 +1.380204E-04 +1.107743E-04 +4.925193E-03 
 +1.108487E-05 -1.764958E-04 +9.064199E-05 -1.764958E-04 -1.266213E-04 +1.285462E-04 +9.064199E-05 +1.285462E-04 +5.013146E-03 
 +9.143699E-05 -1.679265E-04 +1.542150E-05 -1.679265E-04 -2.016333E-04 +1.291558E-04 +1.542150E-05 +1.291558E-04 +5.008486E-03 
 +1.304959E-04 -8.912127E-05 +3.246801E-05 -8.912127E-05 -2.281316E-04 +1.057967E-04 +3.246801E-05 +1.057967E-04 +4.994036E-03 
 +1.278685E-04 -1.181030E-04 +8.456169E-05 -1.181030E-04 -2.471169E-04 +1.203252E-04 +8.456169E-05 +1.203252E-04 +5.006801E-03 
 +1.614900E-05 -2.069085E-04 +1.214573E-04 -2.069085E-04 +2.051335E-05 +1.411631E-04 +1.214573E-04 +1.411631E-04 +5.029561E-03 
 -3.175141E-04 +1.989615E-04 -1.601387E-05 +1.989615E-04 +5.112320E-04 +3.171544E-05 -1.601387E-05 +3.171544E-05 +5.008169E-03 
 -2.022533E-04 +1.623879E-04 -2.864715E-08 +1.623879E-04 +3.517121E-04 -1.358186E-05 -2.864715E-08 -1.358186E-05 +5.067996E-03 
 -6.298682E-06 +1.278093E-04 -8.555567E-05 +1.278093E-04 +2.672394E-04 -3.047680E-05 -8.555567E-05 -3.047680E-05 +5.051880E-03 
 +2.871694E-05 +1.547930E-04 -1.613084E-04 +1.547930E-04 +1.152277E-04 -5.761086E-05 -1.613084E-04 -5.761086E-05 +4.891642E-03 
 +1.385406E-05 +3.633394E-05 -1.765820E-05 +3.633394E-05 +7.813695E-05 -1.204402E-04 -1.765820E-05 -1.204402E-04 +4.740360E-03 
 +1.179942E-04 +7.294919E-05 +4.567785E-05 +7.294919E-05 +1.642160E-04 -2.850965E-05 +4.567785E-05 -2.850965E-05 +4.811758E-03 
 -4.415231E-05 +1.716618E-04 +3.066058E-05 +1.716618E-04 +1.003064E-04 +4.504375E-05 +3.066058E-05 +4.504375E-05 +4.941382E-03 
 -9.096060E-05 +2.623923E-04 +5.709216E-05 +2.623923E-04 -1.988561E-05 +5.182453E-05 +5.709216E-05 +5.182453E-05 +4.940568E-03 
 -1.593707E-05 +2.869972E-04 +2.388439E-05 +2.869972E-04 -4.015368E-05 +5.213636E-05 +2.388439E-05 +5.213636E-05 +4.906688E-03 
 -2.886288E-05 +3.346349E-04 +2.341945E-05 +3.346349E-04 -6.455835E-05 +1.008367E-05 +2.341945E-05 +1.008367E-05 +4.900773E-03 
 -2.233077E-05 +2.670392E-04 +2.144121E-05 +2.670392E-04 +3.177326E-05 -2.491524E-06 +2.144121E-05 -2.491524E-06 +4.889510E-03 
 +9.371347E-05 +9.558105E-06 -1.133418E-05 +9.558105E-06 +3.248387E-04 +3.956538E-05 -1.133418E-05 +3.956538E-05 +4.777715E-03 
 +1.934867E-04 -8.252007E-05 -2.212467E-05 -8.252007E-05 +4.026073E-04 +1.075298E-04 -2.212467E-05 +1.075298E-04 +4.608281E-03 
 +1.033690E-04 -1.685229E-04 +4.289037E-05 -1.685229E-04 +2.512255E-04 +1.920259E-04 +4.289037E-05 +1.920259E-04 +4.662209E-03 
 -9.615666E-05 -2.388772E-04 +1.817588E-04 -2.388772E-04 +6.600242E-05 +1.481975E-04 +1.817588E-04 +1.481975E-04 +4.892676E-03 
 -6.829820E-06 -1.403731E-04 +1.607928E-04 -1.403731E-04 -1.548490E-04 +4.761727E-05 +1.607928E-04 +4.761727E-05 +4.999975E-03 
 +1.512161E-04 -1.550630E-04 +3.303924E-05 -1.550630E-04 -2.810419E-04 +7.574988E-05 +3.303924E-05 +7.574988E-05 +5.052205E-03 
 +1.331941E-04 -1.208439E-04 +2.820781E-05 -1.208439E-04 -3.128228E-04 +7.445158E-05 +2.820781E-05 +7.445158E-05 +5.055543E-03 
 +5.731900E-05 -7.691795E-05 +6.709895E-05 -7.691795E-05 -2.597462E-04 +5.647942E-05 +6.709895E-05 +5.647942E-05 +5.002915E-03 
 +5.615502E-05 -1.000546E-04 +4.367940E-05 -1.000546E-04 -4.007137E-06 +6.643956E-05 +4.367940E-05 +6.643956E-05 +4.949721E-03 
 -1.176957E-04 +1.541509E-05 +9.064922E-06 +1.541509E-05 +4.149925E-04 +3.621241E-05 +9.064922E-06 +3.621241E-05 +4.950038E-03 
 -1.881306E-04 +2.396265E-04 -5.356835E-06 +2.396265E-04 +4.901105E-04 -5.373973E-05 -5.356835E-06 -5.373973E-05 +5.054909E-03 
 -5.238310E-05 +1.757320E-04 -2.968506E-05 +1.757320E-04 +3.875107E-04 -1.076560E-04 -2.968506E-05 -1.076560E-04 +5.149726E-03 
 -2.428836E-05 +3.013075E-04 -6.162683E-05 +3.013075E-04 +2.506199E-04 -1.149442E-04 -6.162683E-05 -1.149442E-04 +5.107920E-03 
 +1.844068E-04 +2.344007E-04 -1.566049E-04 +2.344007E-04 +1.653543E-04 -3.341557E-05 -1.566049E-04 -3.341557E-05 +4.953057E-03 
 +4.563367E-05 +8.185073E-05 -5.911980E-05 +8.185073E-05 +1.269241E-04 +4.659300E-05 -5.911980E-05 +4.659300E-05 +4.741931E-03 
 +2.149814E-04 -4.887173E-06 +3.779236E-05 -4.887173E-06 +1.806931E-04 +2.957748E-05 +3.779236E-05 +2.957748E-05 +4.705621E-03 
 -4.371215E-05 +8.029054E-05 -2.006567E-05 +8.029054E-05 +1.041770E-04 +2.620633E-05 -2.006567E-05 +2.620633E-05 +4.855093E-03 
 -9.074973E-05 +2.635921E-04 -5.753124E-05 +2.635921E-04 -5.558265E-06 +9.331274E-05 -5.753124E-05 +9.331274E-05 +4.933211E-03 
 -5.506075E-05 +3.210440E-04 -6.550532E-05 +3.210440E-04 -4.271421E-05 +1.055685E-04 -6.550532E-05 +1.055685E-04 +4.942786E-03 
 -5.046963E-05 +3.445259E-04 -4.685110E-05 +3.445259E-04 -4.833976E-07 +6.636641E-05 -4.685110E-05 +6.636641E-05 +4.952666E-03 
 -6.307389E-05 +3.313340E-04 -1.698645E-05 +3.313340E-04 -2.362228E-06 +3.818408E-05 -1.698645E-05 +3.818408E-05 +4.960436E-03 
 +1.921840E-05 +2.642775E-04 -9.846320E-05 +2.642775E-04 +2.301115E-05 +6.204062E-05 -9.846320E-05 +6.204062E-05 +4.877412E-03 
 +1.939130E-04 +4.815688E-06 -1.412557E-04 +4.815688E-06 +7.506264E-05 +1.044338E-04 -1.412557E-04 +1.044338E-04 +4.803524E-03 
 +3.618410E-05 -1.178105E-04 +8.103440E-06 -1.178105E-04 +1.612437E-06 +1.256626E-04 +8.103440E-06 +1.256626E-04 +4.904603E-03 
 -6.523059E-05 -9.343586E-05 +3.654144E-05 -9.343586E-05 -3.049241E-05 +7.916489E-05 +3.654144E-05 +7.916489E-05 +5.035561E-03 
 -9.397198E-05 -6.962941E-05 +8.052499E-05 -6.962941E-05 -1.806510E-04 +6.514074E-06 +8.052499E-05 +6.514074E-06 +5.089689E-03 
 +4.109523E-05 -1.547141E-04 +1.071233E-05 -1.547141E-04 -4.427080E-04 +2.114206E-05 +1.071233E-05 +2.114206E-05 +5.118162E-03 
 +1.425525E-04 -9.135126E-05 +1.434462E-05 -9.135126E-05 -3.101610E-04 -3.210495E-05 +1.434462E-05 -3.210495E-05 +5.046228E-03 
 -4.826622E-06 +4.572769E-05 +2.252108E-05 +4.572769E-05 +1.343398E-04 -9.351481E-05 +2.252108E-05 -9.351481E-05 +4.929821E-03 
 -2.286405E-05 +8.610846E-05 +7.080551E-07 +8.610846E-05 +4.389877E-04 -6.206359E-05 +7.080551E-07 -6.206359E-05 +4.868772E-03 
 -1.232214E-04 +1.670168E-04 +1.855053E-05 +1.670168E-04 +4.839372E-04 -3.999843E-05 +1.855053E-05 -3.999843E-05 +4.916438E-03 
 -1.160939E-04 +1.751386E-04 +1.244974E-05 +1.751386E-04 +2.635733E-04 -8.939492E-05 +1.244974E-05 -8.939492E-05 +5.203343E-03 
 +1.625784E-05 +4.886595E-05 -3.431683E-05 +4.886595E-05 +1.347923E-04 -6.791021E-05 -3.431683E-05 -6.791021E-05 +5.076975E-03 
 +1.961705E-04 +6.126063E-05 -4.784164E-05 +6.126063E-05 +1.072433E-04 -4.541028E-05 -4.784164E-05 -4.541028E-05 +4.797952E-03 
 +2.822824E-04 +6.104744E-05 -5.974794E-05 +6.104744E-05 +9.229914E-05 -6.985143E-05 -5.974794E-05 -6.985143E-05 +4.698586E-03 
 +1.596554E-04 +8.885276E-05 -5.305234E-05 +8.885276E-05 +1.710056E-04 -6.187678E-05 -5.305234E-05 -6.187678E-05 +4.728697E-03 
 +1.715127E-04 +4.609081E-05 +8.546538E-05 +4.609081E-05 +1.624672E-04 +3.628069E-06 +8.546538E-05 +3.628069E-06 +4.857006E-03 
 +5.053712E-05 +7.036773E-05 -3.099573E-05 +7.036773E-05 +1.158236E-04 +7.313716E-05 -3.099573E-05 +7.313716E-05 +4.973594E-03 
 -1.102705E-04 +1.591788E-04 -4.114557E-05 +1.591788E-04 +1.038028E-04 +5.833454E-05 -4.114557E-05 +5.833454E-05 +4.937728E-03 
 -1.382729E-04 +1.949123E-04 -3.069451E-05 +1.949123E-04 +5.326180E-06 +7.298779E-05 -3.069451E-05 +7.298779E-05 +4.942265E-03 
 -9.200771E-05 +2.678122E-04 -9.083488E-05 +2.678122E-04 -6.903873E-05 +9.596043E-05 -9.083488E-05 +9.596043E-05 +4.991878E-03 
 -5.790131E-05 +2.897849E-04 -6.857407E-05 +2.897849E-04 -1.124941E-04 +8.628435E-05 -6.857407E-05 +8.628435E-05 +5.015960E-03 
 -5.218220E-05 +1.638989E-04 -4.321415E-05 +1.638989E-04 -2.714140E-04 +8.170047E-05 -4.321415E-05 +8.170047E-05 +5.107517E-03 
 +5.355697E-05 -3.853046E-05 -5.108415E-05 -3.853046E-05 -3.585352E-04 +6.718703E-05 -5.108415E-05 +6.718703E-05 +5.192460E-03 
 +7.343618E-05 -7.993237E-06 -2.336184E-05 -7.993237E-06 -2.901986E-04 +8.046954E-05 -2.336184E-05 +8.046954E-05 +5.132406E-03 
 +1.694084E-05 +3.938917E-06 -1.059377E-04 +3.938917E-06 -1.441971E-04 +4.829277E-05 -1.059377E-04 +4.829277E-05 +5.084458E-03 
 -1.937570E-04 -1.959167E-04 -2.649555E-05 -1.959167E-04 -1.665780E-04 -9.675647E-06 -2.649555E-05 -9.675647E-06 +5.092789E-03 
 -7.982131E-05 -6.264972E-05 +1.819063E-06 -6.264972E-05 -1.817827E-04 +8.986279E-06 +1.819063E-06 +8.986279E-06 +5.095765E-03 
 -3.354662E-05 +6.410137E-05 +2.801099E-07 +6.410137E-05 +2.964666E-05 +3.040844E-05 +2.801099E-07 +3.040844E-05 +5.087651E-03 
 -2.728182E-05 +1.414997E-04 -6.235084E-06 +1.414997E-04 +1.489917E-04 -2.728068E-05 -6.235084E-06 -2.728068E-05 +5.040149E-03 
 -7.020973E-05 +1.080663E-04 -4.815614E-05 +1.080663E-04 +2.054641E-04 -7.334181E-05 -4.815614E-05 -7.334181E-05 +4.966161E-03 
 -4.896575E-05 +2.305627E-04 +5.070028E-05 +2.305627E-04 +3.324584E-04 -7.471147E-05 +5.070028E-05 -7.471147E-05 +5.046960E-03 
 -4.451013E-05 +2.569302E-05 +6.078037E-05 +2.569302E-05 +8.010030E-05 -7.764427E-06 +6.078037E-05 -7.764427E-06 +5.190529E-03 
 -7.363937E-05 +7.708892E-05 +9.810475E-06 +7.708892E-05 +9.908672E-05 -6.502461E-06 +9.810475E-06 -6.502461E-06 +5.171915E-03 
 +1.621284E-04 +9.761667E-06 -4.385869E-05 +9.761667E-06 +3.022084E-05 -3.875425E-05 -4.385869E-05 -3.875425E-05 +4.948593E-03 
 +3.952939E-04 +1.308729E-04 -4.606983E-05 +1.308729E-04 +2.973482E-05 -8.020523E-05 -4.606983E-05 -8.020523E-05 +4.776718E-03 
 +3.224771E-04 +5.145709E-05 +9.771138E-05 +5.145709E-05 +5.515194E-05 -4.167871E-05 +9.771138E-05 -4.167871E-05 +4.801944E-03 
 +2.116522E-04 -6.057309E-05 +1.798421E-04 -6.057309E-05 +1.378989E-04 -8.115503E-06 +1.798421E-04 -8.115503E-06 +4.876899E-03 
 +1.535292E-04 -3.853962E-05 +9.262270E-05 -3.853962E-05 +2.463560E-04 -6.439109E-06 +9.262270E-05 -6.439109E-06 +4.916003E-03 
 -3.869008E-05 +1.605489E-04 +6.094905E-05 +1.605489E-04 +1.788298E-04 +6.591761E-05 +6.094905E-05 +6.591761E-05 +4.941618E-03 
 -1.639190E-04 +2.674260E-04 +2.174042E-05 +2.674260E-04 +4.144186E-05 +1.312530E-04 +2.174042E-05 +1.312530E-04 +4.985870E-03 
 -1.982018E-04 +3.420642E-04 -8.281383E-05 +3.420642E-04 -1.233896E-04 +8.362832E-05 -8.281383E-05 +8.362832E-05 +5.040748E-03 
 -6.348542E-05 +2.158825E-04 -1.729071E-04 +2.158825E-04 -2.959187E-04 +2.602313E-05 -1.729071E-04 +2.602313E-05 +5.091671E-03 
 +3.501065E-05 +1.056394E-04 -1.473189E-04 +1.056394E-04 -4.165826E-04 +8.136620E-06 -1.473189E-04 +8.136620E-06 +5.169403E-03 
 +7.317974E-05 +5.621770E-05 -1.253208E-04 +5.621770E-05 -4.227037E-04 +3.952827E-05 -1.253208E-04 +3.952827E-05 +5.200037E-03 
 +8.117499E-05 +9.151783E-05 -1.055868E-04 +9.151783E-05 -3.378613E-04 +1.144122E-04 -1.055868E-04 +1.144122E-04 +5.116776E-03 
 +4.373496E-05 +1.073176E-04 -1.575555E-04 +1.073176E-04 -1.209692E-04 +8.173857E-05 -1.575555E-04 +8.173857E-05 +5.072625E-03 
 -4.325828E-04 -2.475015E-04 -6.828825E-05 -2.475015E-04 +4.534498E-05 -2.243099E-05 -6.828825E-05 -2.243099E-05 +5.105239E-03 
 -2.388520E-04 -3.544990E-05 +9.660010E-07 -3.544990E-05 +8.517028E-06 +5.361971E-05 +9.660010E-07 +5.361971E-05 +5.137768E-03 
 -1.265486E-04 +1.502878E-04 +6.725735E-05 +1.502878E-04 +2.998341E-05 +1.347654E-04 +6.725735E-05 +1.347654E-04 +5.131419E-03 
 -7.372956E-05 +1.500868E-04 +4.308975E-05 +1.500868E-04 +2.595546E-05 +5.701470E-05 +4.308975E-05 +5.701470E-05 +5.090012E-03 
 +8.465558E-07 +1.580830E-04 +2.961075E-05 +1.580830E-04 -3.095913E-05 -3.920308E-06 +2.961075E-05 -3.920308E-06 +5.040173E-03 
 -2.487111E-05 +2.178652E-04 +1.672721E-04 +2.178652E-04 +2.402258E-05 -2.335846E-05 +1.672721E-04 -2.335846E-05 +5.078834E-03 
 +7.096148E-05 +5.106296E-05 +6.003628E-05 +5.106296E-05 +1.230636E-04 -1.067224E-04 +6.003628E-05 -1.067224E-04 +4.950472E-03 
 -6.265330E-05 +5.327175E-06 -1.657950E-05 +5.327175E-06 +1.323650E-04 -9.693215E-05 -1.657950E-05 -9.693215E-05 +4.978233E-03 
 +2.040726E-04 +7.669701E-05 -6.910230E-05 +7.669701E-05 +1.733481E-04 -7.723887E-05 -6.910230E-05 -7.723887E-05 +4.864803E-03 
 +4.291404E-04 +1.409806E-04 -2.533931E-05 +1.409806E-04 +1.383918E-04 -4.207325E-05 -2.533931E-05 -4.207325E-05 +4.797336E-03 
 +3.171318E-04 +3.207079E-05 +1.652044E-04 +3.207079E-05 +6.396095E-05 -2.832675E-05 +1.652044E-04 -2.832675E-05 +4.833893E-03 
 +2.701544E-04 +1.594818E-05 +1.932100E-04 +1.594818E-05 +1.391290E-04 -2.122932E-05 +1.932100E-04 -2.122932E-05 +4.808311E-03 
 +2.082193E-04 -7.927912E-05 +1.407696E-04 -7.927912E-05 +1.949192E-04 -2.036297E-05 +1.407696E-04 -2.036297E-05 +4.812585E-03 
 +9.751986E-05 -6.603502E-05 +1.415901E-04 -6.603502E-05 +1.914283E-04 -1.929042E-06 +1.415901E-04 -1.929042E-06 +4.907573E-03 
 -1.826836E-04 -6.460868E-05 +4.641484E-05 -6.460868E-05 +1.066615E-04 -2.666137E-05 +4.641484E-05 -2.666137E-05 +5.008024E-03 
 -2.200702E-04 +5.200094E-05 -7.470263E-05 +5.200094E-05 -9.126306E-05 -8.665768E-05 -7.470263E-05 -8.665768E-05 +5.064134E-03 
 +2.123334E-06 +1.486068E-04 -2.059543E-04 +1.486068E-04 -3.145786E-04 -1.468031E-05 -2.059543E-04 -1.468031E-05 +5.108256E-03 
 +8.740318E-05 +1.127351E-04 -2.209231E-04 +1.127351E-04 -3.886663E-04 +2.907859E-05 -2.209231E-04 +2.907859E-05 +5.146695E-03 
 +1.032821E-05 +5.124869E-06 -1.180808E-04 +5.124869E-06 -3.130926E-04 +1.270821E-05 -1.180808E-04 +1.270821E-05 +5.147220E-03 
 +4.075140E-06 -7.354761E-06 -7.458689E-05 -7.354761E-06 -1.865777E-04 +5.777500E-05 -7.458689E-05 +5.777500E-05 +5.109112E-03 
 -5.433839E-05 +3.204757E-05 -8.486967E-05 +3.204757E-05 -5.594517E-05 +5.363295E-05 -8.486967E-05 +5.363295E-05 +5.086933E-03 
 -5.183953E-04 -3.476648E-04 -4.230053E-05 -3.476648E-04 +2.209852E-04 -6.540547E-05 -4.230053E-05 -6.540547E-05 +5.090821E-03 
 -4.077904E-04 -2.611758E-04 -2.043532E-05 -2.611758E-04 +2.725131E-04 -1.058519E-07 -2.043532E-05 -1.058519E-07 +5.108258E-03 
 -6.543494E-05 +9.670140E-05 +7.497645E-05 +9.670140E-05 +6.209342E-05 +1.491864E-04 +7.497645E-05 +1.491864E-04 +5.085274E-03 
 -5.920827E-05 +1.368266E-04 +9.607232E-05 +1.368266E-04 +2.322384E-05 +7.858593E-05 +9.607232E-05 +7.858593E-05 +5.055872E-03 
 -7.543453E-05 +1.412998E-04 +1.274267E-04 +1.412998E-04 +2.565771E-05 -4.460121E-05 +1.274267E-04 -4.460121E-05 +5.030201E-03 
 -5.507641E-05 +2.293544E-04 +2.554099E-04 +2.293544E-04 +2.876738E-05 -1.145640E-04 +2.554099E-04 -1.145640E-04 +4.963483E-03 
 +8.993169E-05 +8.802589E-05 +8.706238E-05 +8.802589E-05 +1.407012E-04 -1.349306E-04 +8.706238E-05 -1.349306E-04 +4.860331E-03 
 +5.263279E-05 +6.381910E-06 -3.726112E-06 +6.381910E-06 +3.032308E-04 -4.756739E-05 -3.726112E-06 -4.756739E-05 +4.855003E-03 
 +3.302180E-04 +6.238623E-05 -6.209936E-05 +6.238623E-05 +2.747274E-04 -1.107989E-05 -6.209936E-05 -1.107989E-05 +4.788559E-03 
 +3.456230E-04 +5.209389E-05 +2.854336E-05 +5.209389E-05 +1.585255E-04 -1.229700E-05 +2.854336E-05 -1.229700E-05 +4.810551E-03 
 +3.363428E-04 +4.979636E-05 +1.469031E-04 +4.979636E-05 +1.126971E-04 +1.755899E-05 +1.469031E-04 +1.755899E-05 +4.860636E-03 
 +2.814502E-04 -1.813659E-05 +1.450079E-04 -1.813659E-05 +6.814802E-05 +3.126358E-07 +1.450079E-04 +3.126358E-07 +4.864503E-03 
 +1.621283E-04 -1.297693E-04 +1.065589E-04 -1.297693E-04 +2.803290E-05 +9.509821E-06 +1.065589E-04 +9.509821E-06 +4.928434E-03 
 +1.051796E-04 -1.306177E-04 +9.820267E-05 -1.306177E-04 -7.509911E-06 +3.578843E-05 +9.820267E-05 +3.578843E-05 +4.974121E-03 
 -1.496736E-04 -7.364796E-05 +6.630696E-06 -7.364796E-05 -4.205427E-06 -3.711699E-05 +6.630696E-06 -3.711699E-05 +5.038624E-03 
 -1.324942E-04 -3.681764E-05 -5.804661E-05 -3.681764E-05 -7.168101E-06 -1.120074E-04 -5.804661E-05 -1.120074E-04 +5.077862E-03 
 +1.325735E-05 -5.531393E-05 -7.804027E-05 -5.531393E-05 -2.826328E-05 -8.226212E-05 -7.804027E-05 -8.226212E-05 +5.062798E-03 
 -1.129493E-05 -1.297271E-04 -9.604094E-05 -1.297271E-04 +3.776180E-05 -2.067035E-05 -9.604094E-05 -2.067035E-05 +5.073445E-03 
 -6.685306E-05 -1.731877E-04 -7.115311E-05 -1.731877E-04 +1.442715E-04 -3.373142E-05 -7.115311E-05 -3.373142E-05 +5.087268E-03 
 -6.127429E-05 -1.448678E-04 -2.061298E-05 -1.448678E-04 +2.240279E-04 -7.854496E-05 -2.061298E-05 -7.854496E-05 +5.097217E-03 
 -1.492558E-04 -6.773252E-05 -2.041242E-05 -6.773252E-05 +2.600019E-04 -4.067460E-05 -2.041242E-05 -4.067460E-05 +5.083543E-03 
 -4.227577E-04 -2.525227E-04 -8.990978E-06 -2.525227E-04 +3.172879E-04 -6.379070E-05 -8.990978E-06 -6.379070E-05 +5.085670E-03 
 -3.658202E-04 -2.639139E-04 -6.829550E-06 -2.639139E-04 +3.448822E-04 -3.816261E-05 -6.829550E-06 -3.816261E-05 +5.079936E-03 
 -7.456434E-05 +7.027667E-05 +1.282786E-04 +7.027667E-05 +1.550173E-04 +8.803248E-05 +1.282786E-04 +8.803248E-05 +5.044086E-03 
 -6.424786E-05 +1.323569E-04 +2.426072E-04 +1.323569E-04 +1.805363E-05 +6.744000E-05 +2.426072E-04 +6.744000E-05 +5.075019E-03 
 -1.646518E-04 +1.132303E-04 +2.566656E-04 +1.132303E-04 +4.392518E-05 -6.514623E-05 +2.566656E-04 -6.514623E-05 +5.035359E-03 
 -5.394653E-05 +2.416973E-04 +3.095101E-04 +2.416973E-04 +5.356298E-05 -1.533344E-04 +3.095101E-04 -1.533344E-04 +4.909848E-03 
 +1.590198E-04 +1.098949E-04 +4.030975E-05 +1.098949E-04 -6.431106E-05 -1.565120E-04 +4.030975E-05 -1.565120E-04 +5.000960E-03 
 +1.825344E-04 +1.009697E-04 -3.637218E-05 +1.009697E-04 -1.180246E-04 -2.153218E-05 -3.637218E-05 -2.153218E-05 +5.022835E-03 
 +3.013529E-04 +2.373023E-05 -7.025054E-05 +2.373023E-05 +3.070208E-05 +6.258391E-05 -7.025054E-05 +6.258391E-05 +4.967368E-03 
 +3.384127E-04 -3.177660E-05 +8.701400E-05 -3.177660E-05 +1.129362E-04 +8.118766E-05 +8.701400E-05 +8.118766E-05 +4.935589E-03 
 +3.423680E-04 -5.349207E-05 +1.043044E-04 -5.349207E-05 +4.409951E-05 +5.004782E-05 +1.043044E-04 +5.004782E-05 +4.918172E-03 
 +2.680865E-04 -5.906413E-05 +6.213305E-05 -5.906413E-05 -6.591514E-06 +1.426126E-05 +6.213305E-05 +1.426126E-05 +4.942243E-03 
 +1.655858E-04 -1.443153E-04 +9.869979E-05 -1.443153E-04 +7.272653E-06 +3.169754E-05 +9.869979E-05 +3.169754E-05 +4.983696E-03 
 +8.820425E-05 -1.541866E-04 +9.144477E-05 -1.541866E-04 -4.795075E-06 +1.819777E-05 +9.144477E-05 +1.819777E-05 +5.017729E-03 
 -1.115044E-04 -1.325030E-04 +1.626313E-05 -1.325030E-04 -2.435243E-05 -5.019766E-05 +1.626313E-05 -5.019766E-05 +5.096984E-03 
 -1.580690E-04 -1.450528E-04 -2.472715E-06 -1.450528E-04 -8.513124E-06 -8.810238E-05 -2.472715E-06 -8.810238E-05 +5.117529E-03 
 -1.025173E-04 -1.313449E-04 +2.615363E-05 -1.313449E-04 -7.131076E-06 -1.222096E-04 +2.615363E-05 -1.222096E-04 +5.059425E-03 
 -5.762692E-05 -6.185719E-05 +3.345667E-05 -6.185719E-05 +3.028973E-05 -1.756298E-04 +3.345667E-05 -1.756298E-04 +5.067724E-03 
 -5.056784E-05 -9.852278E-05 -3.983218E-05 -9.852278E-05 +1.184149E-04 -1.719522E-04 -3.983218E-05 -1.719522E-04 +5.092496E-03 
 -1.280260E-04 -6.894697E-05 +2.063560E-05 -6.894697E-05 +1.973014E-04 -1.476829E-04 +2.063560E-05 -1.476829E-04 +5.073681E-03 
 -1.798888E-04 -5.449826E-05 +8.158140E-05 -5.449826E-05 +2.389796E-04 -9.787044E-05 +8.158140E-05 -9.787044E-05 +5.066746E-03 
 -1.272811E-04 -1.317834E-04 +8.948598E-05 -1.317834E-04 +3.197505E-04 -1.144204E-04 +8.948598E-05 -1.144204E-04 +5.069658E-03 
 -2.531540E-04 -2.133020E-04 +9.715840E-05 -2.133020E-04 +4.196939E-04 -1.192326E-04 +9.715840E-05 -1.192326E-04 +5.013586E-03 
 -2.292500E-04 -1.019313E-05 +1.814962E-04 -1.019313E-05 +3.754301E-04 +1.951085E-05 +1.814962E-04 +1.951085E-05 +4.979602E-03 
 -1.126855E-04 +9.224293E-05 +2.778948E-04 +9.224293E-05 +1.327803E-04 +8.806444E-05 +2.778948E-04 +8.806444E-05 +5.042317E-03 
 -1.914448E-04 +1.833912E-04 +3.020180E-04 +1.833912E-04 -8.824716E-06 -1.225343E-05 +3.020180E-04 -1.225343E-05 +5.039150E-03 
 -1.435853E-04 +2.570878E-04 +2.582765E-04 +2.570878E-04 +3.529834E-05 -1.582366E-04 +2.582765E-04 -1.582366E-04 +4.974986E-03 
 +1.765545E-04 +2.688504E-04 -1.239687E-05 +2.688504E-04 -4.235881E-04 -1.580345E-04 -1.239687E-05 -1.580345E-04 +5.173007E-03 
 +2.161890E-04 +2.567840E-04 -3.828792E-05 +2.567840E-04 -4.660861E-04 -1.005852E-04 -3.828792E-05 -1.005852E-04 +5.171207E-03 
 +2.470035E-04 +2.444655E-04 +4.405001E-05 +2.444655E-04 -4.503496E-04 +2.774295E-05 +4.405001E-05 +2.774295E-05 +5.170202E-03 
 +2.735666E-04 +1.789348E-04 +1.250399E-04 +1.789348E-04 -2.562979E-04 +1.196543E-04 +1.250399E-04 +1.196543E-04 +5.118448E-03 
 +3.162096E-04 +1.048700E-04 +1.415519E-05 +1.048700E-04 +8.830663E-05 +8.609444E-05 +1.415519E-05 +8.609444E-05 +4.951845E-03 
 +2.775701E-04 -4.352826E-05 +7.418619E-06 -4.352826E-05 +1.901514E-04 +8.804818E-05 +7.418619E-06 +8.804818E-05 +4.884872E-03 
 +1.350196E-04 -1.491024E-04 +8.455988E-05 -1.491024E-04 +3.016941E-05 +7.300719E-05 +8.455988E-05 +7.300719E-05 +4.914290E-03 
 +5.300538E-05 -1.501886E-04 +1.036528E-04 -1.501886E-04 -7.386416E-06 +2.777595E-06 +1.036528E-04 +2.777595E-06 +5.004637E-03 
 -1.585100E-04 -1.240381E-04 +5.275454E-05 -1.240381E-04 +2.472934E-05 -5.729453E-05 +5.275454E-05 -5.729453E-05 +5.108875E-03 
 -1.958179E-04 -1.405846E-04 +4.907787E-05 -1.405846E-04 +2.468192E-05 -1.023466E-04 +4.907787E-05 -1.023466E-04 +5.122838E-03 
 -1.483153E-04 -1.600163E-04 +4.761349E-05 -1.600163E-04 +2.593552E-06 -1.301653E-04 +4.761349E-05 -1.301653E-04 +5.091775E-03 
 -1.157092E-04 -1.225007E-04 +7.097081E-05 -1.225007E-04 -7.279143E-05 -1.936063E-04 +7.097081E-05 -1.936063E-04 +5.148306E-03 
 -1.015347E-04 -1.560143E-04 +2.224420E-05 -1.560143E-04 -2.550688E-05 -1.894237E-04 +2.224420E-05 -1.894237E-04 +5.161115E-03 
 -7.665535E-05 -9.973785E-05 +8.543614E-05 -9.973785E-05 +1.710066E-04 -1.521935E-04 +8.543614E-05 -1.521935E-04 +5.115537E-03 
 -1.027186E-04 -1.087893E-04 +1.579706E-04 -1.087893E-04 +9.249522E-05 -1.285920E-04 +1.579706E-04 -1.285920E-04 +5.120053E-03 
 +1.999390E-04 -1.691642E-05 +1.459908E-04 -1.691642E-05 -7.011305E-05 -5.545540E-05 +1.459908E-04 -5.545540E-05 +5.079965E-03 
 -1.400065E-04 +1.771967E-05 +1.229219E-04 +1.771967E-05 +2.321770E-04 +3.022095E-05 +1.229219E-04 +3.022095E-05 +5.018922E-03 
 -2.978298E-04 +8.099462E-05 +1.073560E-04 +8.099462E-05 +4.717735E-04 +1.074132E-04 +1.073560E-04 +1.074132E-04 +5.008264E-03 
 -2.623801E-04 +6.713039E-05 +1.298040E-04 +6.713039E-05 +2.900286E-04 +1.901792E-04 +1.298040E-04 +1.901792E-04 +5.038798E-03 
 -2.364178E-04 +2.543376E-04 +1.963281E-04 +2.543376E-04 +1.387928E-04 +1.612863E-04 +1.963281E-04 +1.612863E-04 +5.080661E-03 
 -5.918519E-05 +3.045753E-04 +9.907780E-05 +3.045753E-04 -1.479041E-04 -5.331724E-05 +9.907780E-05 -5.331724E-05 +5.114080E-03 
 +6.038066E-05 +2.965919E-04 +5.701803E-05 +2.965919E-04 -2.663384E-04 -8.761267E-05 +5.701803E-05 -8.761267E-05 +5.198085E-03 
 +1.527647E-04 +2.394268E-04 +4.967457E-05 +2.394268E-04 -3.656278E-04 -1.026467E-04 +4.967457E-05 -1.026467E-04 +5.168575E-03 
 +1.830035E-04 +2.425534E-04 +1.536310E-04 +2.425534E-04 -3.818636E-04 -3.811087E-05 +1.536310E-04 -3.811087E-05 +5.211658E-03 
 +1.663567E-04 +2.058747E-04 +1.645149E-04 +2.058747E-04 -3.309911E-04 +6.457808E-05 +1.645149E-04 +6.457808E-05 +5.266951E-03 
 +2.152352E-04 +1.807449E-04 +2.773609E-05 +1.807449E-04 -2.301250E-04 +8.756451E-05 +2.773609E-05 +8.756451E-05 +5.160922E-03 
 +2.299510E-04 -1.795751E-04 +2.406550E-05 -1.795751E-04 -1.290451E-04 +5.805531E-05 +2.406550E-05 +5.805531E-05 +4.994534E-03 
 +1.562604E-04 -2.140980E-04 +7.817244E-05 -2.140980E-04 -3.964160E-05 +3.514164E-05 +7.817244E-05 +3.514164E-05 +4.936165E-03 
 +4.163044E-05 -1.270365E-04 +1.009838E-04 -1.270365E-04 +5.594015E-05 -1.523872E-05 +1.009838E-04 -1.523872E-05 +5.005103E-03 
 -1.969780E-04 -1.032292E-04 +7.547194E-05 -1.032292E-04 +1.097497E-04 -8.741393E-05 +7.547194E-05 -8.741393E-05 +5.088115E-03 
 -2.483785E-04 -1.571182E-04 +7.912122E-05 -1.571182E-04 +8.798781E-05 -1.328281E-04 +7.912122E-05 -1.328281E-04 +5.121600E-03 
 -2.052074E-04 -1.948808E-04 +9.384233E-05 -1.948808E-04 -2.859818E-05 -1.550293E-04 +9.384233E-05 -1.550293E-04 +5.149558E-03 
 -2.150284E-04 -1.420356E-04 +1.313365E-04 -1.420356E-04 -1.327225E-04 -2.611201E-04 +1.313365E-04 -2.611201E-04 +5.227275E-03 
 -1.323872E-04 -4.474046E-05 +9.025909E-05 -4.474046E-05 -2.248519E-04 -2.927471E-04 +9.025909E-05 -2.927471E-04 +5.227040E-03 
 +1.605470E-04 +7.939170E-05 +9.430711E-05 +7.939170E-05 -3.338577E-04 -1.983271E-04 +9.430711E-05 -1.983271E-04 +5.163688E-03 
 +7.796487E-05 +8.708861E-06 +7.951431E-05 +8.708861E-06 -3.319864E-04 -1.015361E-04 +7.951431E-05 -1.015361E-04 +5.125280E-03 
 +9.406952E-05 -4.624022E-05 +2.970188E-05 -4.624022E-05 -2.864445E-04 -2.847688E-05 +2.970188E-05 -2.847688E-05 +5.085296E-03 
 +2.204308E-05 -4.141760E-05 +7.470480E-07 -4.141760E-05 -2.589615E-04 -3.836843E-05 +7.470480E-07 -3.836843E-05 +5.080810E-03 
 -1.304844E-04 -2.365929E-05 +2.551032E-05 -2.365929E-05 -6.062589E-05 -3.072059E-05 +2.551032E-05 -3.072059E-05 +5.108529E-03 
 -2.720180E-04 +1.240198E-05 +4.922303E-05 +1.240198E-05 +1.438934E-05 +9.698359E-05 +4.922303E-05 +9.698359E-05 +5.150121E-03 
 -1.434743E-04 +4.707064E-04 +1.429980E-04 +4.707064E-04 -1.251028E-04 +1.518639E-04 +1.429980E-04 +1.518639E-04 +5.183830E-03 
 -1.614251E-05 +3.565655E-04 +8.407820E-05 +3.565655E-04 -1.952750E-04 +2.397488E-05 +8.407820E-05 +2.397488E-05 +5.197798E-03 
 -1.456447E-05 +2.682654E-04 +1.747189E-04 +2.682654E-04 -2.020841E-04 -3.374663E-05 +1.747189E-04 -3.374663E-05 +5.153240E-03 
 +8.824309E-06 +2.759746E-04 +1.631982E-04 +2.759746E-04 -3.063539E-04 -9.349430E-05 +1.631982E-04 -9.349430E-05 +5.178881E-03 
 +1.564340E-05 +2.562280E-04 +1.608536E-04 +2.562280E-04 -3.871214E-04 -7.050648E-05 +1.608536E-04 -7.050648E-05 +5.208846E-03 
 +3.579529E-05 +2.388734E-04 +1.748180E-04 +2.388734E-04 -3.884572E-04 +1.664691E-05 +1.748180E-04 +1.664691E-05 +5.293790E-03 
 +6.906097E-05 +1.863627E-04 +4.821211E-05 +1.863627E-04 -3.056269E-04 +8.389867E-05 +4.821211E-05 +8.389867E-05 +5.281515E-03 
 +1.461040E-04 -1.946179E-04 +2.040730E-05 -1.946179E-04 -2.525949E-04 +4.675889E-05 +2.040730E-05 +4.675889E-05 +5.123915E-03 
 +1.841070E-04 -2.469536E-04 +7.648664E-05 -2.469536E-04 -1.620712E-04 +7.700739E-06 +7.648664E-05 +7.700739E-06 +5.020632E-03 
 +9.940528E-05 -1.901528E-04 +8.453168E-05 -1.901528E-04 -3.018972E-05 -4.396935E-05 +8.453168E-05 -4.396935E-05 +5.034356E-03 
 -7.579460E-05 -6.975075E-05 +7.876809E-05 -6.975075E-05 +1.152334E-04 -1.259975E-04 +7.876809E-05 -1.259975E-04 +5.110271E-03 
 -2.166304E-04 -1.036822E-04 +9.114951E-05 -1.036822E-04 +1.249828E-04 -1.570307E-04 +9.114951E-05 -1.570307E-04 +5.153451E-03 
 -2.958574E-04 -1.315695E-04 +1.217725E-04 -1.315695E-04 +3.582120E-07 -1.879541E-04 +1.217725E-04 -1.879541E-04 +5.174979E-03 
 -2.834986E-04 -1.034448E-04 +1.591687E-04 -1.034448E-04 -1.792539E-04 -2.834554E-04 +1.591687E-04 -2.834554E-04 +5.208218E-03 
 -1.032800E-04 -2.530161E-06 +1.201816E-04 -2.530161E-06 -3.434317E-04 -3.128385E-04 +1.201816E-04 -3.128385E-04 +5.175926E-03 
 +2.048209E-04 -7.095321E-06 +5.439070E-05 -7.095321E-06 -4.337414E-04 -1.768616E-04 +5.439070E-05 -1.768616E-04 +5.094145E-03 
 +2.111682E-04 -8.170597E-05 -1.576123E-05 -8.170597E-05 -3.502629E-04 -3.443882E-05 -1.576123E-05 -3.443882E-05 +5.063166E-03 
 -5.225666E-05 -2.593836E-05 -6.995630E-05 -2.593836E-05 -1.450935E-04 +2.141297E-05 -6.995630E-05 +2.141297E-05 +5.052849E-03 
 +8.349461E-05 +2.775550E-05 -4.831393E-05 +2.775550E-05 -1.739405E-04 +3.922216E-05 -4.831393E-05 +3.922216E-05 +5.035271E-03 
 +4.152046E-05 +4.806996E-05 -5.584830E-05 +4.806996E-05 -2.925850E-04 +4.424896E-05 -5.584830E-05 +4.424896E-05 +5.042203E-03 
 +1.553876E-06 -7.853548E-05 -1.810663E-05 -7.853548E-05 -2.465366E-04 +1.236589E-04 -1.810663E-05 +1.236589E-04 +5.106501E-03 
 -4.716043E-08 +3.336635E-04 +8.528811E-05 +3.336635E-04 -1.991295E-04 +1.541225E-04 +8.528811E-05 +1.541225E-04 +5.138108E-03 
 -5.948321E-05 +3.070040E-04 +1.444008E-04 +3.070040E-04 -1.565774E-04 +6.732933E-05 +1.444008E-04 +6.732933E-05 +5.133714E-03 
 -6.132337E-05 +1.100208E-04 +2.070948E-04 +1.100208E-04 -1.162251E-04 +2.046246E-05 +2.070948E-04 +2.046246E-05 +5.145843E-03 
 -1.226893E-04 +1.433962E-04 +1.905845E-04 +1.433962E-04 -1.357814E-04 -6.242121E-05 +1.905845E-04 -6.242121E-05 +5.198822E-03 
 -1.212922E-04 +1.162501E-04 +1.236399E-04 +1.162501E-04 -2.483480E-04 -8.116988E-05 +1.236399E-04 -8.116988E-05 +5.257527E-03 
 -4.250153E-05 +2.766104E-04 +9.981907E-05 +2.766104E-04 -3.789696E-04 -4.086873E-05 +9.981907E-05 -4.086873E-05 +5.299310E-03 
 -4.721064E-07 +2.938630E-04 +3.812295E-07 +2.938630E-04 -4.605805E-04 +1.031385E-04 +3.812295E-07 +1.031385E-04 +5.273050E-03 
 +1.055935E-04 +1.299560E-06 -3.649722E-05 +1.299560E-06 -5.115511E-04 +1.088423E-04 -3.649722E-05 +1.088423E-04 +5.178382E-03 
 +1.617884E-04 +2.045611E-05 +2.646474E-05 +2.045611E-05 -4.961943E-04 +2.397105E-05 +2.646474E-05 +2.397105E-05 +5.112307E-03 
 +1.417082E-04 +6.734997E-05 +6.433082E-05 +6.734997E-05 -4.702018E-04 -2.345937E-05 +6.433082E-05 -2.345937E-05 +5.103637E-03 
 +1.021999E-04 +1.192064E-04 +6.643840E-05 +1.192064E-04 -4.295004E-04 -5.796442E-05 +6.643840E-05 -5.796442E-05 +5.161701E-03 
 -1.210739E-04 +4.329465E-05 +8.815284E-05 +4.329465E-05 -1.918502E-04 -1.027103E-04 +8.815284E-05 -1.027103E-04 +5.191559E-03 
 -2.984460E-04 -5.638292E-05 +1.050058E-04 -5.638292E-05 -3.102345E-05 -2.200664E-04 +1.050058E-04 -2.200664E-04 +5.168445E-03 
 -3.116785E-04 +3.321513E-05 +1.461281E-04 +3.321513E-05 -1.032381E-04 -2.157352E-04 +1.461281E-04 -2.157352E-04 +5.163865E-03 
 -1.320325E-04 +1.927157E-04 +1.327855E-04 +1.927157E-04 -1.311259E-04 -6.775191E-05 +1.327855E-04 -6.775191E-05 +5.147217E-03 
 -2.335064E-05 +1.412533E-04 +4.392645E-05 +1.412533E-04 -1.686607E-04 +2.719547E-05 +4.392645E-05 +2.719547E-05 +5.095148E-03 
 +9.580633E-05 -2.815340E-05 -5.231821E-05 -2.815340E-05 -3.619449E-04 -2.225727E-05 -5.231821E-05 -2.225727E-05 +5.060780E-03 
 +6.691262E-05 -4.070922E-05 -4.753145E-05 -4.070922E-05 -4.507593E-04 -1.605022E-05 -4.753145E-05 -1.605022E-05 +5.030025E-03 
 +1.633167E-04 -2.832851E-05 -4.374543E-05 -2.832851E-05 -2.543173E-04 +6.708785E-05 -4.374543E-05 +6.708785E-05 +4.940407E-03 
 +1.808057E-04 +1.314473E-04 -1.617589E-04 +1.314473E-04 -1.938154E-05 +3.182455E-05 -1.617589E-04 +3.182455E-05 +4.828921E-03 
 +1.210090E-04 +2.676403E-05 -1.500303E-04 +2.676403E-05 +2.133257E-04 +3.587042E-05 -1.500303E-04 +3.587042E-05 +4.836471E-03 
 +5.548556E-05 +1.432412E-04 -6.720598E-05 +1.432412E-04 +1.215409E-04 +7.218055E-05 -6.720598E-05 +7.218055E-05 +4.947400E-03 
 +4.028546E-05 +2.357578E-04 +1.505011E-04 +2.357578E-04 -1.134105E-04 +8.596034E-05 +1.505011E-04 +8.596034E-05 +5.076252E-03 
 -9.949225E-05 +9.954079E-05 +8.832886E-05 +9.954079E-05 -8.058398E-05 +6.604293E-05 +8.832886E-05 +6.604293E-05 +5.061696E-03 
 -1.519462E-04 +1.302048E-04 +8.511233E-05 +1.302048E-04 -1.239562E-04 -2.217409E-05 +8.511233E-05 -2.217409E-05 +5.174920E-03 
 -1.918796E-04 +1.405763E-04 +3.189854E-05 +1.405763E-04 -1.780284E-04 -7.878219E-05 +3.189854E-05 -7.878219E-05 +5.267600E-03 
 -1.813925E-04 +1.668377E-04 -1.357611E-06 +1.668377E-04 -3.023800E-04 -7.036278E-05 -1.357611E-06 -7.036278E-05 +5.317833E-03 
 +7.846537E-05 +1.201087E-04 -5.424830E-05 +1.201087E-04 -6.035671E-04 +2.453904E-05 -5.424830E-05 +2.453904E-05 +5.304772E-03 
 +1.816063E-04 +4.675171E-05 -6.200241E-05 +4.675171E-05 -6.622134E-04 +4.522243E-05 -6.200241E-05 +4.522243E-05 +5.219454E-03 
 +1.223798E-04 +6.429922E-05 -9.641216E-06 +6.429922E-05 -5.004382E-04 +1.169950E-06 -9.641216E-06 +1.169950E-06 +5.143790E-03 
 +1.365046E-04 +4.212891E-05 +3.699605E-05 +4.212891E-05 -4.542259E-04 -3.118047E-05 +3.699605E-05 -3.118047E-05 +5.122605E-03 
 +1.510527E-04 +1.100192E-04 +5.010547E-05 +1.100192E-04 -4.727173E-04 -5.815165E-05 +5.010547E-05 -5.815165E-05 +5.141139E-03 
 +1.260611E-04 +1.702132E-04 +7.171940E-05 +1.702132E-04 -5.120844E-04 -5.678168E-05 +7.171940E-05 -5.678168E-05 +5.153435E-03 
 -1.530765E-04 +1.166969E-04 +7.704212E-05 +1.166969E-04 -4.485894E-04 -4.557911E-05 +7.704212E-05 -4.557911E-05 +5.165826E-03 
 -3.626017E-04 +2.590979E-04 +1.030016E-04 +2.590979E-04 -1.116657E-04 -2.292035E-05 +1.030016E-04 -2.292035E-05 +5.193975E-03 
 -2.982172E-04 +1.789031E-04 +7.522274E-05 +1.789031E-04 +2.238317E-05 -1.386995E-06 +7.522274E-05 -1.386995E-06 +5.179394E-03 
 -1.960868E-04 +1.678784E-04 +5.527877E-05 +1.678784E-04 -3.105682E-05 +2.578604E-05 +5.527877E-05 +2.578604E-05 +5.131138E-03 
 -1.349625E-04 +2.831740E-05 -2.342141E-05 +2.831740E-05 +5.230071E-05 +4.793281E-05 -2.342141E-05 +4.793281E-05 +5.068096E-03 
 -3.590833E-05 +6.974808E-05 +1.700841E-05 +6.974808E-05 +4.399302E-05 +6.383647E-05 +1.700841E-05 +6.383647E-05 +4.975825E-03 
 +3.128633E-04 +7.176600E-05 -1.410938E-04 +7.176600E-05 +5.698462E-05 +7.568788E-05 -1.410938E-04 +7.568788E-05 +4.811726E-03 
 +2.861416E-04 +9.752446E-05 -2.371933E-04 +9.752446E-05 +1.068452E-04 +3.476325E-05 -2.371933E-04 +3.476325E-05 +4.707864E-03 
 +2.387742E-04 +6.825140E-05 -2.158845E-04 +6.825140E-05 +2.018901E-04 -1.563290E-05 -2.158845E-04 -1.563290E-05 +4.718589E-03 
 +1.461743E-04 +4.550445E-05 -1.501507E-04 +4.550445E-05 +2.714994E-04 +3.364009E-05 -1.501507E-04 +3.364009E-05 +4.822881E-03 
 +2.562102E-05 +1.505450E-04 +1.792383E-05 +1.505450E-04 +7.152366E-05 +1.146995E-04 +1.792383E-05 +1.146995E-04 +4.966734E-03 
 -7.376315E-05 +1.848090E-05 -4.578942E-06 +1.848090E-05 -1.714021E-05 +1.364422E-04 -4.578942E-06 +1.364422E-04 +4.987146E-03 
 -1.106534E-04 +1.516505E-04 -1.715368E-05 +1.516505E-04 -1.863985E-04 +3.325069E-05 -1.715368E-05 +3.325069E-05 +5.134835E-03 
 -1.683865E-04 +2.110418E-04 -6.097149E-05 +2.110418E-04 -1.675297E-04 -4.993123E-05 -6.097149E-05 -4.993123E-05 +5.181601E-03 
 -2.755214E-04 +3.033520E-04 -9.572311E-05 +3.033520E-04 -2.566095E-04 -3.301757E-05 -9.572311E-05 -3.301757E-05 +5.231497E-03 
 -6.568342E-05 +1.226833E-04 -1.464624E-04 +1.226833E-04 -5.335373E-04 -2.472795E-05 -1.464624E-04 -2.472795E-05 +5.244218E-03 
 +1.035661E-04 +9.954744E-05 -9.553797E-05 +9.954744E-05 -6.278125E-04 -7.657826E-06 -9.553797E-05 -7.657826E-06 +5.181613E-03 
 +2.043979E-04 +1.320151E-05 -1.811864E-05 +1.320151E-05 -4.917638E-04 +2.410632E-05 -1.811864E-05 +2.410632E-05 +5.118792E-03 
 +1.640915E-04 +7.023904E-05 +2.114362E-05 +7.023904E-05 -4.473790E-04 +9.497176E-06 +2.114362E-05 +9.497176E-06 +5.093942E-03 
 +1.859612E-04 +8.983400E-05 +1.018877E-05 +8.983400E-05 -5.055704E-04 -2.667570E-05 +1.018877E-05 -2.667570E-05 +5.097996E-03 
 +2.130464E-04 +1.015108E-04 +3.481260E-05 +1.015108E-04 -4.530884E-04 -3.139259E-05 +3.481260E-05 -3.139259E-05 +5.113612E-03 
 -3.252176E-04 -1.822799E-04 +7.348529E-05 -1.822799E-04 -7.088489E-05 -4.594004E-05 +7.348529E-05 -4.594004E-05 +5.156878E-03 
 -4.091498E-04 -2.474793E-04 +8.387098E-05 -2.474793E-04 +1.104208E-04 -1.323843E-04 +8.387098E-05 -1.323843E-04 +5.190141E-03 
 -3.362089E-04 -3.085206E-04 +5.132987E-05 -3.085206E-04 +8.286025E-05 -1.210264E-04 +5.132987E-05 -1.210264E-04 +5.134688E-03 
 -1.875898E-04 -1.319859E-04 +7.896097E-05 -1.319859E-04 +1.280808E-05 -2.406583E-05 +7.896097E-05 -2.406583E-05 +5.084191E-03 
 -1.410461E-04 -1.038400E-04 +1.484831E-05 -1.038400E-04 -3.946794E-05 +6.235518E-05 +1.484831E-05 +6.235518E-05 +5.079258E-03 
 -8.942846E-05 +4.948895E-05 +2.043573E-05 +4.948895E-05 +3.411476E-05 +7.320339E-05 +2.043573E-05 +7.320339E-05 +4.970664E-03 
 +2.601507E-04 +9.881452E-05 -1.799713E-04 +9.881452E-05 +6.450409E-05 +2.570739E-05 -1.799713E-04 +2.570739E-05 +4.780597E-03 
 +2.889343E-04 +3.489411E-05 -1.828246E-04 +3.489411E-05 +6.672801E-05 +2.593305E-05 -1.828246E-04 +2.593305E-05 +4.744434E-03 
 +3.222746E-04 -1.926921E-05 -1.252642E-04 -1.926921E-05 +7.589364E-05 -2.891853E-07 -1.252642E-04 -2.891853E-07 +4.769842E-03 
 +2.775401E-04 -1.257452E-04 -8.538250E-05 -1.257452E-04 +2.459038E-04 +1.289673E-05 -8.538250E-05 +1.289673E-05 +4.739349E-03 
 +1.626045E-04 -1.075885E-04 -1.051909E-04 -1.075885E-04 +3.047437E-04 +1.174362E-04 -1.051909E-04 +1.174362E-04 +4.802920E-03 
 +1.556939E-04 -3.119659E-04 -3.347713E-05 -3.119659E-04 -1.122777E-04 +2.287496E-04 -3.347713E-05 +2.287496E-04 +5.065564E-03 
 +3.594470E-05 +5.353072E-05 -1.061416E-04 +5.353072E-05 -2.074349E-04 +1.375236E-04 -1.061416E-04 +1.375236E-04 +5.139384E-03 
 -1.518425E-04 +1.984900E-04 -7.177344E-05 +1.984900E-04 -1.366207E-04 +4.343694E-05 -7.177344E-05 +4.343694E-05 +5.079850E-03 
 -1.478648E-04 +1.920345E-04 -6.849385E-06 +1.920345E-04 +1.111219E-04 +2.393004E-05 -6.849385E-06 +2.393004E-05 +5.073496E-03 
 -4.031626E-04 -2.706031E-05 -7.912107E-05 -2.706031E-05 +2.579585E-04 +1.035741E-05 -7.912107E-05 +1.035741E-05 +5.132616E-03 
 -3.278590E-04 -1.993628E-05 -5.889355E-05 -1.993628E-05 +1.314461E-04 +5.561552E-06 -5.889355E-05 +5.561552E-06 +5.136736E-03 
 +9.385132E-05 -3.690137E-04 -2.723987E-05 -3.690137E-04 -1.558299E-04 +7.684886E-05 -2.723987E-05 +7.684886E-05 +5.100036E-03 
 +2.618503E-04 -4.138983E-04 +9.453737E-06 -4.138983E-04 -2.544998E-04 +1.129914E-04 +9.453737E-06 +1.129914E-04 +5.059791E-03 
 +2.261542E-04 -3.938061E-04 +1.354379E-05 -3.938061E-04 -1.774144E-04 +6.277256E-05 +1.354379E-05 +6.277256E-05 +5.036529E-03 
 -2.273874E-05 -2.890897E-04 +4.954258E-05 -2.890897E-04 -6.524167E-05 +2.269971E-05 +4.954258E-05 +2.269971E-05 +5.061316E-03 
 -3.716077E-04 -2.683473E-04 +8.154270E-05 -2.683473E-04 +3.680202E-05 +1.601437E-05 +8.154270E-05 +1.601437E-05 +5.121616E-03 
 -3.130890E-04 -2.518671E-04 +9.896827E-05 -2.518671E-04 +9.277849E-05 -4.845420E-06 +9.896827E-05 -4.845420E-06 +5.145386E-03 
 -2.345907E-04 -2.677487E-04 +9.893553E-05 -2.677487E-04 +9.555644E-05 -1.305413E-05 +9.893553E-05 -1.305413E-05 +5.116029E-03 
 -1.775743E-04 -2.789328E-04 +4.460645E-05 -2.789328E-04 +7.572244E-05 -1.810553E-05 +4.460645E-05 -1.810553E-05 +5.103666E-03 
 -1.230339E-04 -2.912478E-04 -8.878922E-05 -2.912478E-04 -2.921856E-05 -5.816540E-05 -8.878922E-05 -5.816540E-05 +5.095255E-03 
 +1.920892E-04 -4.612353E-05 -8.244338E-05 -4.612353E-05 -1.713339E-05 -9.195652E-05 -8.244338E-05 -9.195652E-05 +4.984172E-03 
 +2.118003E-04 +1.035539E-04 -1.391601E-04 +1.035539E-04 +6.417727E-05 -7.762447E-06 -1.391601E-04 -7.762447E-06 +4.841025E-03 
 +1.982442E-04 +3.661581E-05 -1.003598E-04 +3.661581E-05 +2.452853E-05 +1.291299E-04 -1.003598E-04 +1.291299E-04 +4.810563E-03 
 +2.417776E-04 -5.291155E-05 -2.544123E-05 -5.291155E-05 -3.357914E-05 +1.209753E-04 -2.544123E-05 +1.209753E-04 +4.852049E-03 
 +2.630565E-04 -1.413862E-04 -1.245193E-06 -1.413862E-04 -7.255045E-05 +1.152865E-04 -1.245193E-06 +1.152865E-04 +4.849812E-03 
 +3.926854E-04 -3.933733E-04 -4.479109E-05 -3.933733E-04 -1.025370E-04 +2.145458E-04 -4.479109E-05 +2.145458E-04 +4.903032E-03 
 +2.923837E-04 -3.508821E-04 -7.279334E-05 -3.508821E-04 -1.685577E-04 +1.679503E-04 -7.279334E-05 +1.679503E-04 +5.081761E-03 
 +2.003111E-04 -3.289897E-04 -1.066191E-04 -3.289897E-04 -2.546560E-04 +1.401319E-04 -1.066191E-04 +1.401319E-04 +5.105782E-03 
 -2.771009E-05 +1.991161E-04 +3.714476E-05 +1.991161E-04 -1.964932E-04 +6.259379E-05 +3.714476E-05 +6.259379E-05 +5.025183E-03 
 -4.405598E-05 +1.782190E-04 +1.166244E-04 +1.782190E-04 +1.176209E-04 -1.049616E-05 +1.166244E-04 -1.049616E-05 +4.981032E-03 
 -5.189939E-04 -1.987230E-05 +7.646840E-06 -1.987230E-05 +2.783863E-04 -6.465694E-06 +7.646840E-06 -6.465694E-06 +5.054830E-03 
 -5.328318E-04 +5.606314E-05 -1.848083E-06 +5.606314E-05 +3.205619E-04 +1.191142E-05 -1.848083E-06 +1.191142E-05 +5.090443E-03 
 -3.595835E-04 -5.759588E-05 -3.208454E-05 -5.759588E-05 +2.657929E-04 +6.700153E-05 -3.208454E-05 +6.700153E-05 +5.057026E-03 
 +4.413294E-05 -3.155640E-04 -5.957896E-05 -3.155640E-04 +1.578164E-05 +1.001004E-04 -5.957896E-05 +1.001004E-04 +4.991851E-03 
 +2.002163E-04 -2.707954E-04 -1.780031E-05 -2.707954E-04 -2.276541E-05 +5.553490E-05 -1.780031E-05 +5.553490E-05 +4.919107E-03 
 -5.409195E-05 -2.268470E-04 +6.562328E-05 -2.268470E-04 +1.162244E-04 +3.896643E-05 +6.562328E-05 +3.896643E-05 +4.944160E-03 
 -8.331017E-05 -1.617138E-04 +7.521820E-05 -1.617138E-04 +3.084298E-05 +3.034230E-05 +7.521820E-05 +3.034230E-05 +5.044789E-03 
 -1.513020E-04 -2.045240E-04 +8.531868E-05 -2.045240E-04 +4.159110E-05 +3.884288E-06 +8.531868E-05 +3.884288E-06 +5.100329E-03 
 -1.867549E-04 -2.243016E-04 +9.062274E-05 -2.243016E-04 +8.251239E-05 +2.119418E-06 +9.062274E-05 +2.119418E-06 +5.122413E-03 
 -1.838997E-04 -1.916141E-04 +3.771337E-07 -1.916141E-04 +6.406552E-05 +2.003658E-05 +3.771337E-07 +2.003658E-05 +5.143349E-03 
 -1.471616E-04 -2.015834E-04 -1.209279E-04 -2.015834E-04 -3.738473E-05 +4.883317E-05 -1.209279E-04 +4.883317E-05 +5.092647E-03 
 +2.567899E-04 -1.160142E-07 -1.310628E-04 -1.160142E-07 -1.611682E-04 +3.180018E-05 -1.310628E-04 +3.180018E-05 +4.974212E-03 
 +2.972220E-04 -1.653096E-05 -1.707120E-04 -1.653096E-05 -7.340080E-05 +1.353653E-06 -1.707120E-04 +1.353653E-06 +4.879753E-03 
 +3.117991E-04 -4.596260E-05 -1.741362E-04 -4.596260E-05 -3.286804E-05 +4.748156E-05 -1.741362E-04 +4.748156E-05 +4.874125E-03 
 +1.139348E-04 +2.585084E-05 -6.729375E-05 +2.585084E-05 -1.362639E-04 +6.034340E-05 -6.729375E-05 +6.034340E-05 +4.971411E-03 
 +1.550981E-04 -6.200178E-05 -7.514477E-06 -6.200178E-05 -1.656420E-04 +1.058077E-04 -7.514477E-06 +1.058077E-04 +5.034527E-03 
 +4.175329E-04 -3.326088E-04 -3.499896E-05 -3.326088E-04 -2.025302E-04 +1.806678E-04 -3.499896E-05 +1.806678E-04 +5.035758E-03 
 +2.671530E-04 -2.564932E-04 -9.536167E-05 -2.564932E-04 -1.836171E-04 +1.573872E-04 -9.536167E-05 +1.573872E-04 +5.037989E-03 
 +2.459647E-04 -2.909118E-04 -7.064138E-05 -2.909118E-04 -1.792332E-04 +9.834937E-05 -7.064138E-05 +9.834937E-05 +5.045926E-03 
 +9.335670E-05 +3.232176E-04 +8.652784E-05 +3.232176E-04 -8.839850E-05 +1.473816E-05 +8.652784E-05 +1.473816E-05 +4.983047E-03 
 +2.551579E-05 +1.488742E-04 +1.124167E-04 +1.488742E-04 +7.521250E-05 -4.179371E-05 +1.124167E-04 -4.179371E-05 +4.950956E-03 
 -4.623349E-04 -6.797265E-05 +5.690341E-06 -6.797265E-05 +2.140995E-04 -2.220127E-05 +5.690341E-06 -2.220127E-05 +5.021376E-03 
 -4.803396E-04 -6.590343E-05 +7.710482E-06 -6.590343E-05 +2.898222E-04 +4.268138E-05 +7.710482E-06 +4.268138E-05 +5.061158E-03 
 -4.613704E-04 -7.697997E-05 -9.725198E-06 -7.697997E-05 +3.469371E-04 +1.095838E-04 -9.725198E-06 +1.095838E-04 +5.006295E-03 
 -3.073074E-04 -1.249530E-04 -3.274921E-05 -1.249530E-04 +4.486169E-04 +1.009080E-04 -3.274921E-05 +1.009080E-04 +4.916354E-03 
 -1.843055E-04 -2.085272E-05 -3.904157E-05 -2.085272E-05 +3.878153E-04 +9.039649E-07 -3.904157E-05 +9.039649E-07 +4.803395E-03 
 +2.799483E-05 -2.588731E-04 +2.162318E-06 -2.588731E-04 +1.568289E-04 -6.128826E-05 +2.162318E-06 -6.128826E-05 +4.786502E-03 
 +7.317128E-05 -2.070927E-04 +1.402186E-05 -2.070927E-04 +2.495862E-05 -7.045619E-05 +1.402186E-05 -7.045619E-05 +4.871185E-03 
 +1.088832E-04 -1.132050E-04 +5.049188E-05 -1.132050E-04 +1.560681E-05 -5.552028E-05 +5.049188E-05 -5.552028E-05 +4.961658E-03 
 -6.128061E-05 -1.005269E-04 +8.197439E-05 -1.005269E-04 +6.847038E-05 +2.988865E-05 +8.197439E-05 +2.988865E-05 +5.084352E-03 
 -1.837052E-04 -1.378619E-04 +2.833736E-05 -1.378619E-04 +7.249871E-06 +8.446827E-05 +2.833736E-05 +8.446827E-05 +5.140094E-03 
 -9.462398E-05 -1.287381E-04 +7.729656E-06 -1.287381E-04 +2.034363E-05 +8.134453E-05 +7.729656E-06 +8.134453E-05 +5.065820E-03 
 +7.771142E-05 +1.283406E-04 -5.162797E-05 +1.283406E-04 +1.118968E-04 +5.652991E-05 -5.162797E-05 +5.652991E-05 +4.982795E-03 
 +1.613685E-04 +4.093587E-05 -1.617683E-04 +4.093587E-05 -1.070491E-04 -2.753746E-06 -1.617683E-04 -2.753746E-06 +4.926591E-03 
 +5.010337E-04 -2.243272E-04 -2.153454E-04 -2.243272E-04 -3.707510E-04 -7.615067E-05 -2.153454E-04 -7.615067E-05 +4.907690E-03 
 +1.054442E-04 -5.664117E-05 -1.725896E-04 -5.664117E-05 -2.597876E-04 -8.925292E-05 -1.725896E-04 -8.925292E-05 +4.986980E-03 
 +1.474845E-04 -1.151088E-04 -8.893442E-05 -1.151088E-04 -1.562577E-04 +4.856816E-05 -8.893442E-05 +4.856816E-05 +5.043637E-03 
 +3.999105E-04 -3.307381E-04 -8.006978E-05 -3.307381E-04 -1.914785E-04 +1.701405E-04 -8.006978E-05 +1.701405E-04 +5.022398E-03 
 +3.436435E-04 -2.722426E-04 -8.744209E-05 -2.722426E-04 -2.328421E-04 +1.016329E-04 -8.744209E-05 +1.016329E-04 +5.033665E-03 
 +2.430137E-04 -2.447117E-04 -5.690736E-05 -2.447117E-04 -1.170917E-04 +1.337786E-05 -5.690736E-05 +1.337786E-05 +5.021325E-03 
 +3.213390E-05 +3.815253E-04 +7.620989E-05 +3.815253E-04 +6.694604E-05 -2.674186E-05 +7.620989E-05 -2.674186E-05 +4.942824E-03 
 +3.512836E-05 +1.627519E-04 +8.640297E-05 +1.627519E-04 +1.229802E-04 -4.720380E-05 +8.640297E-05 -4.720380E-05 +4.902654E-03 
 -3.916319E-04 -8.762664E-05 -3.303300E-05 -8.762664E-05 +1.693997E-04 -1.833934E-05 -3.303300E-05 -1.833934E-05 +4.984403E-03 
 -4.475981E-04 -8.592080E-05 -3.368645E-05 -8.592080E-05 +2.593338E-04 +5.486441E-05 -3.368645E-05 +5.486441E-05 +5.034255E-03 
 -4.005783E-04 -1.544641E-04 -3.084352E-05 -1.544641E-04 +2.880094E-04 +1.327957E-04 -3.084352E-05 +1.327957E-04 +4.993680E-03 
 -4.213368E-04 -2.245807E-04 -3.377116E-05 -2.245807E-04 +3.458011E-04 +9.677927E-05 -3.377116E-05 +9.677927E-05 +4.882424E-03 
 -3.568732E-04 -4.433398E-05 -4.695907E-05 -4.433398E-05 +3.144071E-04 -4.615748E-05 -4.695907E-05 -4.615748E-05 +4.704094E-03 
 +8.834024E-05 +6.109818E-05 -3.931949E-05 +6.109818E-05 +2.000576E-04 -7.326618E-05 -3.931949E-05 -7.326618E-05 +4.624887E-03 
 +1.512868E-04 +1.209494E-04 -4.023671E-05 +1.209494E-04 +1.343007E-04 -4.362185E-05 -4.023671E-05 -4.362185E-05 +4.646160E-03 
 +2.988411E-04 +1.286557E-04 +4.036545E-05 +1.286557E-04 +6.669460E-05 -5.586570E-05 +4.036545E-05 -5.586570E-05 +4.713468E-03 
 +9.205909E-06 +2.569730E-05 +9.991612E-05 +2.569730E-05 +5.307696E-05 +7.465821E-05 +9.991612E-05 +7.465821E-05 +4.872203E-03 
 -3.583997E-05 -7.802376E-06 +9.626957E-05 -7.802376E-06 +6.089687E-05 +1.504456E-04 +9.626957E-05 +1.504456E-04 +4.980915E-03 
 -1.305807E-04 +2.096005E-04 +1.211011E-04 +2.096005E-04 +1.737173E-04 +1.111396E-04 +1.211011E-04 +1.111396E-04 +4.999470E-03 
 +9.962305E-06 +2.499559E-04 +5.465479E-05 +2.499559E-04 +2.026928E-04 +9.656632E-05 +5.465479E-05 +9.656632E-05 +4.987325E-03 
 +4.820365E-05 +1.941950E-04 -1.784991E-05 +1.941950E-04 +8.354099E-05 +4.981725E-05 -1.784991E-05 +4.981725E-05 +4.937369E-03 
 +2.278769E-04 +4.975759E-05 -8.046188E-05 +4.975759E-05 +9.810100E-05 -4.528751E-05 -8.046188E-05 -4.528751E-05 +4.903824E-03 
 +1.273875E-04 +2.349187E-05 -1.590555E-04 +2.349187E-05 -4.732719E-05 -1.060307E-04 -1.590555E-04 -1.060307E-04 +4.957576E-03 
 +1.600368E-04 -1.339644E-04 -1.563223E-04 -1.339644E-04 -2.059750E-04 +1.233205E-05 -1.563223E-04 +1.233205E-05 +5.024667E-03 
 +4.091853E-04 -3.481384E-04 -1.045318E-04 -3.481384E-04 -2.036525E-04 +1.488334E-04 -1.045318E-04 +1.488334E-04 +5.030281E-03 
 +3.621597E-04 -2.664938E-04 -7.023699E-05 -2.664938E-04 -2.315567E-04 +6.361145E-05 -7.023699E-05 +6.361145E-05 +5.022755E-03 
 +1.653545E-04 -1.969544E-04 -2.290815E-05 -1.969544E-04 +1.042115E-05 +9.056707E-05 -2.290815E-05 +9.056707E-05 +5.013370E-03 
 +8.208313E-06 +3.376939E-04 +8.381094E-05 +3.376939E-04 +2.485066E-04 +6.521744E-05 +8.381094E-05 +6.521744E-05 +4.951529E-03 
 -5.324304E-06 -1.723573E-05 +5.942889E-05 -1.723573E-05 +1.996687E-04 -1.295286E-05 +5.942889E-05 -1.295286E-05 +4.930475E-03 
 -3.162134E-04 -1.288208E-04 -4.655078E-05 -1.288208E-04 +1.022294E-04 -6.718992E-06 -4.655078E-05 -6.718992E-06 +4.992411E-03 
 -3.926293E-04 -1.517732E-04 -3.876975E-05 -1.517732E-04 +1.599400E-04 +5.244488E-05 -3.876975E-05 +5.244488E-05 +5.030997E-03 
 -4.484939E-04 -2.616176E-04 -4.495360E-05 -2.616176E-04 +1.709239E-04 +1.100957E-04 -4.495360E-05 +1.100957E-04 +4.974223E-03 
 -4.060111E-04 -1.856769E-04 -1.072541E-04 -1.856769E-04 +1.951799E-04 +5.958466E-05 -1.072541E-04 +5.958466E-05 +4.761510E-03 
 -3.269402E-05 -2.365922E-05 -9.548699E-05 -2.365922E-05 +2.772498E-04 -4.044953E-05 -9.548699E-05 -4.044953E-05 +4.604151E-03 
 +1.109225E-04 +2.162158E-05 -4.152921E-05 +2.162158E-05 +2.926245E-04 -4.925883E-05 -4.152921E-05 -4.925883E-05 +4.596329E-03 
 +1.705194E-04 +2.804855E-05 -1.838350E-05 +2.804855E-05 +2.251571E-04 -8.374038E-06 -1.838350E-05 -8.374038E-06 +4.577410E-03 
 +2.512805E-04 +3.273493E-05 +1.036012E-04 +3.273493E-05 +1.627864E-04 -3.555890E-05 +1.036012E-04 -3.555890E-05 +4.557483E-03 
 +1.562324E-04 +1.223170E-05 +1.840018E-04 +1.223170E-05 +1.427185E-04 +5.633751E-05 +1.840018E-04 +5.633751E-05 +4.576716E-03 
 +2.117677E-04 +5.072088E-05 +1.737171E-04 +5.072088E-05 +2.638233E-04 +1.866943E-04 +1.737171E-04 +1.866943E-04 +4.631855E-03 
 -1.510814E-04 +2.278852E-04 +2.011523E-04 +2.278852E-04 +2.968293E-04 +1.788973E-04 +2.011523E-04 +1.788973E-04 +4.813787E-03 
 -1.020431E-04 +2.405675E-04 +1.646542E-04 +2.405675E-04 +1.799301E-04 +1.249820E-04 +1.646542E-04 +1.249820E-04 +4.990621E-03 
 +3.203540E-05 +1.635676E-04 +1.289145E-04 +1.635676E-04 +1.779399E-04 +8.713915E-05 +1.289145E-04 +8.713915E-05 +4.974228E-03 
 -2.424666E-05 +9.318556E-05 +8.769170E-05 +9.318556E-05 +1.930482E-04 +6.324228E-05 +8.769170E-05 +6.324228E-05 +4.930544E-03 
 +2.040911E-05 +3.720370E-05 -1.532466E-05 +3.720370E-05 +8.566773E-05 +1.556278E-05 -1.532466E-05 +1.556278E-05 +4.975301E-03 
 +7.162917E-07 -3.619518E-05 -9.017295E-05 -3.619518E-05 -5.645356E-05 +3.897031E-05 -9.017295E-05 +3.897031E-05 +5.038730E-03 
 +3.889006E-04 -4.018689E-04 -1.069575E-04 -4.018689E-04 -2.095603E-04 +1.006682E-04 -1.069575E-04 +1.006682E-04 +5.039461E-03 
 +9.023707E-05 -2.373730E-04 +3.005151E-05 -2.373730E-04 -1.583013E-04 +1.021491E-04 +3.005151E-05 +1.021491E-04 +5.049463E-03 
 +6.554777E-05 -2.008293E-04 +3.394468E-05 -2.008293E-04 +1.271728E-04 +2.121895E-04 +3.394468E-05 +2.121895E-04 +4.990798E-03 
 +5.525509E-05 +2.339331E-04 +6.311800E-05 +2.339331E-04 +2.512709E-04 +1.276215E-04 +6.311800E-05 +1.276215E-04 +4.897168E-03 
 -6.304039E-05 -2.094176E-04 +8.003196E-06 -2.094176E-04 +1.424410E-04 -2.064223E-05 +8.003196E-06 -2.064223E-05 +4.946636E-03 
 -2.927895E-04 -2.998474E-04 -3.128173E-05 -2.998474E-04 +2.679742E-05 -5.183204E-06 -3.128173E-05 -5.183204E-06 +5.023429E-03 
 -3.555033E-04 -3.195043E-04 +7.794115E-06 -3.195043E-04 -2.647197E-05 +6.529397E-05 +7.794115E-06 +6.529397E-05 +5.035758E-03 
 -3.377775E-04 -3.645146E-04 -3.910758E-05 -3.645146E-04 +8.323309E-06 +1.023405E-04 -3.910758E-05 +1.023405E-04 +4.915819E-03 
 -1.605633E-04 -1.179515E-04 -3.464143E-05 -1.179515E-04 +1.383489E-04 +3.360624E-05 -3.464143E-05 +3.360624E-05 +4.692432E-03 
 +9.918816E-05 -1.318373E-05 -1.422594E-05 -1.318373E-05 +2.978513E-04 +2.430991E-06 -1.422594E-05 +2.430991E-06 +4.661266E-03 
 +1.489901E-04 -7.861034E-05 -3.010992E-05 -7.861034E-05 +3.200128E-04 +7.710927E-06 -3.010992E-05 +7.710927E-06 +4.696444E-03 
 +1.611109E-04 -2.083029E-05 +2.639894E-05 -2.083029E-05 +3.033553E-04 +3.524899E-05 +2.639894E-05 +3.524899E-05 +4.644462E-03 
 +2.006955E-04 -3.116922E-05 +1.350232E-04 -3.116922E-05 +2.829869E-04 +4.207090E-05 +1.350232E-04 +4.207090E-05 +4.603329E-03 
 +2.746899E-04 -7.301615E-05 +1.966030E-04 -7.301615E-05 +2.734060E-04 +1.064045E-05 +1.966030E-04 +1.064045E-05 +4.532833E-03 
 +2.164127E-04 -1.279725E-04 +1.787004E-04 -1.279725E-04 +3.425314E-04 +3.743969E-05 +1.787004E-04 +3.743969E-05 +4.484702E-03 
 +8.314333E-05 -1.028936E-04 +2.662124E-04 -1.028936E-04 +3.150229E-04 +1.290202E-04 +2.662124E-04 +1.290202E-04 +4.697518E-03 
 -1.178710E-04 +5.897946E-05 +2.914046E-04 +5.897946E-05 +1.667211E-04 +1.902903E-04 +2.914046E-04 +1.902903E-04 +5.023720E-03 
 -6.647117E-05 +1.728215E-04 +2.359205E-04 +1.728215E-04 +1.542171E-04 +1.867969E-04 +2.359205E-04 +1.867969E-04 +5.086578E-03 
 +6.914954E-05 +9.569926E-05 +1.816998E-04 +9.569926E-05 +1.707341E-04 +1.589056E-04 +1.816998E-04 +1.589056E-04 +5.016571E-03 
 +3.116771E-07 +1.195686E-04 +9.930643E-05 +1.195686E-04 +1.316410E-04 +1.037867E-04 +9.930643E-05 +1.037867E-04 +5.023099E-03 
 -1.686474E-04 +1.076824E-04 +2.917383E-05 +1.076824E-04 +5.748104E-05 +8.131038E-05 +2.917383E-05 +8.131038E-05 +5.061314E-03 
 +9.779247E-05 -3.508939E-04 +1.763814E-05 -3.508939E-04 -1.493962E-04 +8.965034E-05 +1.763814E-05 +8.965034E-05 +5.051355E-03 
 -2.836390E-04 +1.966697E-04 +5.344255E-05 +1.966697E-04 +3.099225E-04 +9.555385E-05 +5.344255E-05 +9.555385E-05 +5.058853E-03 
 -1.819580E-04 +1.757678E-04 +1.353011E-05 +1.757678E-04 +5.056963E-04 +1.480601E-04 +1.353011E-05 +1.480601E-04 +4.903147E-03 
 +1.289602E-04 +2.769199E-04 +1.998412E-05 +2.769199E-04 +3.511701E-04 +5.321454E-05 +1.998412E-05 +5.321454E-05 +4.689545E-03 
 -2.937570E-05 -3.008041E-05 -1.921661E-05 -3.008041E-05 +1.811684E-04 -4.908137E-05 -1.921661E-05 -4.908137E-05 +4.793761E-03 
 -3.204964E-04 -8.195518E-05 -2.847271E-05 -8.195518E-05 +1.305541E-04 +8.445729E-05 -2.847271E-05 +8.445729E-05 +4.952612E-03 
 -2.251903E-04 -1.737685E-05 -2.162508E-05 -1.737685E-05 +1.226634E-05 +1.890573E-04 -2.162508E-05 +1.890573E-04 +4.942624E-03 
 -5.189992E-05 +3.062970E-05 -7.487538E-05 +3.062970E-05 -5.503532E-05 +1.538530E-04 -7.487538E-05 +1.538530E-04 +4.910542E-03 
 -2.417358E-05 +2.340894E-04 +5.951054E-05 +2.340894E-04 -8.966832E-05 +2.658816E-05 +5.951054E-05 +2.658816E-05 +4.873212E-03 
 -2.787741E-05 +2.338516E-04 +8.299819E-05 +2.338516E-04 -8.652742E-06 -2.869069E-05 +8.299819E-05 -2.869069E-05 +4.838239E-03 
 +1.411003E-04 +1.554312E-05 +7.067148E-06 +1.554312E-05 +2.348459E-04 +1.795412E-05 +7.067148E-06 +1.795412E-05 +4.782279E-03 
 +1.628861E-04 -4.103935E-05 +2.992213E-05 -4.103935E-05 +3.251868E-04 +3.787362E-05 +2.992213E-05 +3.787362E-05 +4.707520E-03 
 +1.575194E-04 -4.497354E-05 +9.707698E-05 -4.497354E-05 +2.907174E-04 +3.949490E-05 +9.707698E-05 +3.949490E-05 +4.685444E-03 
 +1.959537E-04 -9.321721E-05 +8.884702E-05 -9.321721E-05 +2.907357E-04 +3.358727E-05 +8.884702E-05 +3.358727E-05 +4.589296E-03 
 +1.863853E-04 -1.233037E-04 +1.121568E-04 -1.233037E-04 +2.211169E-04 +1.074092E-05 +1.121568E-04 +1.074092E-05 +4.569887E-03 
 +1.573015E-04 -2.731544E-04 +2.451781E-04 -2.731544E-04 +6.837728E-05 +4.358948E-05 +2.451781E-04 +4.358948E-05 +4.836364E-03 
 +2.234582E-05 -1.925322E-04 +2.608761E-04 -1.925322E-04 -1.225041E-05 +1.376910E-04 +2.608761E-04 +1.376910E-04 +5.082204E-03 
 -1.224650E-04 -1.464910E-05 +2.244476E-04 -1.464910E-05 -2.827146E-05 +2.077507E-04 +2.244476E-04 +2.077507E-04 +5.129121E-03 
 +9.365820E-05 -2.907712E-04 +1.293892E-04 -2.907712E-04 -1.933275E-04 +1.846852E-04 +1.293892E-04 +1.846852E-04 +5.086745E-03 
 +4.041711E-05 -2.672556E-04 +8.663514E-05 -2.672556E-04 -3.420392E-04 +1.182290E-04 +8.663514E-05 +1.182290E-04 +5.071333E-03 
 +1.103844E-05 -2.044693E-04 +6.557507E-05 -2.044693E-04 -3.549887E-04 +1.051393E-04 +6.557507E-05 +1.051393E-04 +5.069266E-03 
 -3.049489E-05 -2.519694E-04 +1.114924E-04 -2.519694E-04 -1.040589E-04 +9.919436E-05 +1.114924E-04 +9.919436E-05 +5.043755E-03 
 -2.896941E-04 +4.419777E-05 -2.752199E-05 +4.419777E-05 +4.222646E-04 +8.985331E-05 -2.752199E-05 +8.985331E-05 +5.067318E-03 
 -2.924675E-04 +1.114613E-04 -1.189822E-05 +1.114613E-04 +4.668826E-04 +8.732516E-05 -1.189822E-05 +8.732516E-05 +4.909113E-03 
 +2.301517E-04 +2.841017E-04 -2.848156E-05 +2.841017E-04 +2.413594E-04 +7.745388E-05 -2.848156E-05 +7.745388E-05 +4.650006E-03 
 -1.350224E-04 +2.991340E-05 -2.290132E-05 +2.991340E-05 +8.086502E-05 +3.411909E-05 -2.290132E-05 +3.411909E-05 +4.743749E-03 
 -1.603621E-04 -1.066155E-04 +8.507029E-06 -1.066155E-04 +3.773322E-05 +5.946777E-05 +8.507029E-06 +5.946777E-05 +4.796110E-03 
 +1.568517E-05 +4.155273E-05 -5.661386E-05 +4.155273E-05 -3.605684E-05 +1.142091E-04 -5.661386E-05 +1.142091E-04 +4.749230E-03 
 +9.830993E-05 +8.353668E-05 -9.955985E-05 +8.353668E-05 -6.360729E-05 +1.260990E-04 -9.955985E-05 +1.260990E-04 +4.893633E-03 
 -7.586681E-05 +1.880438E-04 +6.630243E-05 +1.880438E-04 -1.297936E-05 +4.186105E-05 +6.630243E-05 +4.186105E-05 +4.971298E-03 
 -1.038997E-04 +2.941586E-04 +7.225297E-05 +2.941586E-04 -4.361253E-05 -3.002968E-05 +7.225297E-05 -3.002968E-05 +4.900803E-03 
 -2.590498E-05 +2.502935E-04 +3.565496E-05 +2.502935E-04 +2.920992E-05 -8.544778E-06 +3.565496E-05 -8.544778E-06 +4.829742E-03 
 +9.846186E-05 +3.448030E-05 +1.759987E-05 +3.448030E-05 +2.765005E-04 +3.339038E-05 +1.759987E-05 +3.339038E-05 +4.772892E-03 
 +1.408319E-04 -4.386198E-05 +2.210109E-05 -4.386198E-05 +3.589923E-04 +4.001686E-05 +2.210109E-05 +4.001686E-05 +4.701527E-03 
 +1.450644E-04 -2.560586E-05 +3.035772E-05 -2.560586E-05 +3.313251E-04 +5.149649E-05 +3.035772E-05 +5.149649E-05 +4.615642E-03 
 +1.457127E-04 -1.833461E-04 +1.223924E-04 -1.833461E-04 +2.073281E-04 +7.026553E-05 +1.223924E-04 +7.026553E-05 +4.718269E-03 
 +2.781022E-05 -3.254354E-04 +2.124838E-04 -3.254354E-04 +3.479563E-06 +8.468856E-05 +2.124838E-04 +8.468856E-05 +4.945273E-03 
 +3.116380E-05 -1.968140E-04 +1.523877E-04 -1.968140E-04 -7.539884E-05 +9.731215E-05 +1.523877E-04 +9.731215E-05 +5.025753E-03 
 -4.162323E-05 -1.048658E-04 +1.302041E-04 -1.048658E-04 -2.001016E-04 +1.281439E-04 +1.302041E-04 +1.281439E-04 +5.066906E-03 
 +5.514675E-05 -2.283405E-04 +2.600898E-05 -2.283405E-04 -2.715025E-04 +1.568861E-04 +2.600898E-05 +1.568861E-04 +5.091042E-03 
 +7.822932E-05 -1.506341E-04 +2.720186E-05 -1.506341E-04 -3.133040E-04 +1.363356E-04 +2.720186E-05 +1.363356E-04 +5.071271E-03 
 +5.516457E-05 -1.977143E-04 -5.978702E-06 -1.977143E-04 -3.511130E-04 +1.449458E-04 -5.978702E-06 +1.449458E-04 +5.023775E-03 
 +3.046417E-06 -2.904345E-04 +7.319468E-06 -2.904345E-04 -1.129140E-05 +1.399609E-04 +7.319468E-06 +1.399609E-04 +4.993187E-03 
 -1.953270E-04 +1.378979E-04 -5.428501E-05 +1.378979E-04 +4.749184E-04 -2.508900E-05 -5.428501E-05 -2.508900E-05 +5.057667E-03 
 -6.525171E-05 +8.631098E-05 -2.096827E-05 +8.631098E-05 +3.328237E-04 -1.927238E-05 -2.096827E-05 -1.927238E-05 +4.892345E-03 
 +2.422062E-04 +1.425423E-04 -2.273219E-05 +1.425423E-04 +2.434687E-04 +3.556109E-05 -2.273219E-05 +3.556109E-05 +4.706647E-03 
 -1.116303E-04 +1.019110E-04 -6.438694E-05 +1.019110E-04 +1.939675E-04 +7.517926E-06 -6.438694E-05 +7.517926E-06 +4.785842E-03 
 +1.828134E-05 +7.890694E-05 -2.994797E-05 +7.890694E-05 +1.935219E-04 -1.259658E-04 -2.994797E-05 -1.259658E-04 +4.707807E-03 
 +1.393954E-04 +5.960168E-05 -1.983724E-06 +5.960168E-05 +1.631949E-04 -4.711678E-05 -1.983724E-06 -4.711678E-05 +4.627716E-03 
 +7.543208E-05 +5.199697E-05 -1.157649E-04 +5.199697E-05 +9.935870E-05 +9.851676E-05 -1.157649E-04 +9.851676E-05 +4.806695E-03 
 -8.477106E-05 +1.893214E-04 +4.883354E-06 +1.893214E-04 +2.343751E-05 +3.958539E-05 +4.883354E-06 +3.958539E-05 +4.913566E-03 
 -9.190739E-05 +2.657101E-04 +1.618767E-05 +2.657101E-04 +1.482365E-05 -6.855688E-06 +1.618767E-05 -6.855688E-06 +4.902220E-03 
 -8.024538E-05 +3.019780E-04 +1.133929E-05 +3.019780E-04 -3.229805E-05 -1.915333E-06 +1.133929E-05 -1.915333E-06 +4.883281E-03 
 -5.992686E-05 +2.620868E-04 +2.794181E-05 +2.620868E-04 +4.795897E-05 +2.628158E-05 +2.794181E-05 +2.628158E-05 +4.863846E-03 
 +1.053262E-04 +5.125161E-05 -3.555893E-05 +5.125161E-05 +2.962679E-04 +6.838938E-05 -3.555893E-05 +6.838938E-05 +4.780005E-03 
 +1.384467E-04 -8.098803E-05 +3.362598E-05 -8.098803E-05 +2.359161E-04 +4.955919E-05 +3.362598E-05 +4.955919E-05 +4.779870E-03 
 +4.957398E-05 -2.316072E-04 +1.808311E-04 -2.316072E-04 +1.463215E-05 +2.481657E-05 +1.808311E-04 +2.481657E-05 +4.935567E-03 
 -3.046665E-05 -2.849004E-04 +1.961638E-04 -2.849004E-04 -1.619986E-05 +2.365241E-05 +1.961638E-04 +2.365241E-05 +4.992341E-03 
 -3.223835E-05 -1.601996E-04 +1.331380E-04 -1.601996E-04 -1.025914E-04 +1.142094E-05 +1.331380E-04 +1.142094E-05 +4.972502E-03 
 +6.267561E-05 -1.004815E-04 +7.406944E-05 -1.004815E-04 -2.604073E-04 +3.213283E-05 +7.406944E-05 +3.213283E-05 +5.029592E-03 
 +1.032000E-04 -2.170552E-04 -3.773461E-05 -2.170552E-04 -3.544716E-04 +1.041745E-04 -3.773461E-05 +1.041745E-04 +5.053749E-03 
 +6.763385E-05 -1.252472E-04 -1.351006E-05 -1.252472E-04 -2.164445E-04 +9.841926E-05 -1.351006E-05 +9.841926E-05 +4.985631E-03 
 -7.240272E-05 -8.416206E-06 -6.784818E-05 -8.416206E-06 +2.045699E-04 +3.890955E-05 -6.784818E-05 +3.890955E-05 +4.910377E-03 
 -1.780524E-04 +4.333088E-05 -6.382054E-05 +4.333088E-05 +5.195546E-04 +5.829363E-08 -6.382054E-05 +5.829363E-08 +4.951516E-03 
 -1.490711E-04 +2.048729E-04 -4.201247E-05 +2.048729E-04 +4.427356E-04 -8.291038E-05 -4.201247E-05 -8.291038E-05 +5.068384E-03 
 +7.664999E-05 +1.388017E-04 -7.151050E-05 +1.388017E-04 +3.479226E-04 -8.056880E-05 -7.151050E-05 -8.056880E-05 +4.880976E-03 
 +1.683766E-04 +1.914463E-04 -3.942545E-05 +1.914463E-04 +2.157173E-04 -6.239121E-05 -3.942545E-05 -6.239121E-05 +4.686037E-03 
 +1.886674E-04 +1.761625E-04 -7.962387E-05 +1.761625E-04 +1.567521E-04 +6.717671E-06 -7.962387E-05 +6.717671E-06 +4.731076E-03 
 +2.849371E-06 +9.019210E-05 -9.891310E-05 +9.019210E-05 +1.874502E-04 +6.075265E-05 -9.891310E-05 +6.075265E-05 +4.721915E-03 
 +1.381554E-04 +2.435410E-05 +2.798970E-05 +2.435410E-05 +2.179356E-04 +5.240505E-05 +2.798970E-05 +5.240505E-05 +4.720083E-03 
 +5.363515E-05 +5.515414E-06 -9.978718E-05 +5.515414E-06 +1.625416E-04 +7.825203E-05 -9.978718E-05 +7.825203E-05 +4.837900E-03 
 -5.922950E-05 +1.408069E-04 -2.804134E-05 +1.408069E-04 +8.148419E-05 +4.102270E-05 -2.804134E-05 +4.102270E-05 +4.892528E-03 
 -1.097823E-04 +2.592913E-04 -2.299425E-05 +2.592913E-04 -6.532436E-06 +2.054764E-05 -2.299425E-05 +2.054764E-05 +4.922447E-03 
 -7.719614E-05 +2.628534E-04 -5.585190E-05 +2.628534E-04 -3.352820E-05 +4.162518E-05 -5.585190E-05 +4.162518E-05 +4.952331E-03 
 -1.114196E-04 +3.051635E-04 +8.538217E-06 +3.051635E-04 -7.048326E-05 +6.175033E-05 +8.538217E-06 +6.175033E-05 +4.955527E-03 
 -9.317879E-07 +1.530664E-04 -2.845337E-05 +1.530664E-04 -1.104939E-04 +9.212466E-05 -2.845337E-05 +9.212466E-05 +4.965522E-03 
 +9.832175E-05 -1.386628E-04 +1.388763E-05 -1.386628E-04 -1.224912E-04 +6.192009E-05 +1.388763E-05 +6.192009E-05 +5.046070E-03 
 +2.450021E-05 -2.019060E-04 +1.176679E-04 -2.019060E-04 -8.061628E-05 +1.736044E-05 +1.176679E-04 +1.736044E-05 +5.085803E-03 
 -4.268842E-05 -2.082196E-04 +6.647581E-05 -2.082196E-04 -3.405336E-05 -1.018599E-05 +6.647581E-05 -1.018599E-05 +5.055064E-03 
 -2.456214E-05 -1.751664E-04 +7.989310E-05 -1.751664E-04 -1.552311E-04 -8.093687E-06 +7.989310E-05 -8.093687E-06 +5.036003E-03 
 +4.876893E-06 -1.011823E-04 +2.543903E-05 -1.011823E-04 -3.408850E-04 +1.908239E-05 +2.543903E-05 +1.908239E-05 +5.044739E-03 
 +8.591226E-05 -1.063701E-04 -7.605838E-05 -1.063701E-04 -1.884821E-04 +1.488498E-05 -7.605838E-05 +1.488498E-05 +5.026879E-03 
 +1.499638E-05 +6.723983E-05 -5.733694E-05 +6.723983E-05 +2.334075E-04 -4.761353E-05 -5.733694E-05 -4.761353E-05 +4.937603E-03 
 -8.040444E-05 +7.274561E-05 -8.505933E-05 +7.274561E-05 +4.122493E-04 -5.907043E-05 -8.505933E-05 -5.907043E-05 +4.863288E-03 
 -2.017526E-04 +1.007768E-04 -2.313517E-05 +1.007768E-04 +4.176945E-04 -4.791205E-05 -2.313517E-05 -4.791205E-05 +4.957612E-03 
 +8.087661E-05 +1.486992E-04 +4.034816E-07 +1.486992E-04 +1.912995E-04 -2.456341E-05 +4.034816E-07 -2.456341E-05 +4.813284E-03 
 +1.780653E-04 +1.386498E-04 -3.796059E-05 +1.386498E-04 +1.618160E-04 -3.310050E-05 -3.796059E-05 -3.310050E-05 +4.655839E-03 
 +2.501948E-04 +1.358055E-04 -6.397177E-05 +1.358055E-04 +1.584411E-04 -2.454544E-05 -6.397177E-05 -2.454544E-05 +4.670627E-03 
 +2.487769E-04 +1.316333E-04 -8.716050E-05 +1.316333E-04 +1.547620E-04 -7.875979E-05 -8.716050E-05 -7.875979E-05 +4.695782E-03 
 +1.158937E-04 +1.119988E-04 -1.098069E-04 +1.119988E-04 +2.123305E-04 -7.098727E-05 -1.098069E-04 -7.098727E-05 +4.756690E-03 
 +4.385268E-05 +1.258194E-04 +8.902105E-05 +1.258194E-04 +2.118041E-04 +2.482107E-05 +8.902105E-05 +2.482107E-05 +4.853850E-03 
 +7.188920E-06 +1.011271E-04 -1.794321E-04 +1.011271E-04 +1.639123E-04 +8.404787E-05 -1.794321E-04 +8.404787E-05 +4.784193E-03 
 -6.892259E-05 +7.556083E-05 -1.375295E-04 +7.556083E-05 +1.819835E-04 +1.065756E-04 -1.375295E-04 +1.065756E-04 +4.783583E-03 
 -1.139813E-04 +7.745585E-05 -8.234391E-05 +7.745585E-05 +1.048042E-04 +8.468106E-05 -8.234391E-05 +8.468106E-05 +4.898122E-03 
 -1.108292E-04 +1.604629E-04 -5.534428E-05 +1.604629E-04 -6.494983E-05 +6.112384E-05 -5.534428E-05 +6.112384E-05 +4.941730E-03 
 -5.613814E-05 +2.732401E-04 -4.213114E-05 +2.732401E-04 -1.997995E-04 +7.327110E-05 -4.213114E-05 +7.327110E-05 +5.017944E-03 
 -1.208682E-05 -3.782328E-05 +4.142173E-05 -3.782328E-05 -2.360348E-04 +8.987517E-06 +4.142173E-05 +8.987517E-06 +5.056034E-03 
 -4.685160E-06 -9.446959E-05 +2.141949E-05 -9.446959E-05 -1.577970E-04 -2.583239E-05 +2.141949E-05 -2.583239E-05 +5.054794E-03 
 -1.902869E-06 -7.898671E-05 +3.188746E-05 -7.898671E-05 -8.004072E-05 -1.210632E-05 +3.188746E-05 -1.210632E-05 +5.039216E-03 
 -2.815915E-05 -8.995824E-05 +3.069827E-05 -8.995824E-05 -4.679495E-05 -3.152556E-05 +3.069827E-05 -3.152556E-05 +5.038936E-03 
 -1.638308E-05 -1.583941E-04 +5.206982E-05 -1.583941E-04 -1.503980E-04 -2.129349E-06 +5.206982E-05 -2.129349E-06 +5.035792E-03 
 -3.994062E-06 +1.019888E-04 +1.017095E-05 +1.019888E-04 -1.342657E-04 +3.337805E-05 +1.017095E-05 +3.337805E-05 +5.031482E-03 
 -5.767561E-05 +1.144400E-04 -3.000787E-05 +1.144400E-04 +2.567375E-05 +5.867766E-05 -3.000787E-05 +5.867766E-05 +5.068567E-03 
 -1.255086E-04 +1.241381E-04 -2.187211E-05 +1.241381E-04 +5.744446E-05 +3.929476E-05 -2.187211E-05 +3.929476E-05 +5.094212E-03 
 -2.010631E-04 +1.594342E-04 -1.950052E-05 +1.594342E-04 +7.274079E-05 +2.313968E-06 -1.950052E-05 +2.313968E-06 +5.101503E-03 
 -1.235128E-04 +2.379746E-04 +1.251932E-04 +2.379746E-04 +1.580724E-04 +5.953835E-06 +1.251932E-04 +5.953835E-06 +5.040268E-03 
 +7.539713E-05 +1.161638E-04 +2.998235E-06 +1.161638E-04 +1.071698E-04 -7.020140E-05 +2.998235E-06 -7.020140E-05 +4.803602E-03 
 +1.325116E-04 +1.293341E-04 -2.510613E-05 +1.293341E-04 +1.703145E-04 -7.940483E-05 -2.510613E-05 -7.940483E-05 +4.603952E-03 
 +2.293353E-04 +9.138136E-05 -8.602618E-05 +9.138136E-05 +1.262913E-04 -7.486650E-05 -8.602618E-05 -7.486650E-05 +4.632557E-03 
 +2.866708E-04 +1.376994E-04 -1.285530E-04 +1.376994E-04 +9.130684E-05 -9.628427E-05 -1.285530E-04 -9.628427E-05 +4.717643E-03 
 +3.144481E-04 +1.089074E-04 -7.586606E-05 +1.089074E-04 +6.836651E-05 -6.358039E-05 -7.586606E-05 -6.358039E-05 +4.710662E-03 
 +2.179549E-04 +6.718930E-05 +9.600012E-05 +6.718930E-05 +1.730485E-04 -4.270059E-05 +9.600012E-05 -4.270059E-05 +4.773884E-03 
 +3.125594E-05 +7.000817E-05 -3.081710E-05 +7.000817E-05 +2.812554E-04 -3.591062E-05 -3.081710E-05 -3.591062E-05 +4.859240E-03 
 -1.698287E-04 +2.227832E-04 -4.081096E-05 +2.227832E-04 +2.719643E-04 +8.615061E-05 -4.081096E-05 +8.615061E-05 +4.913751E-03 
 -1.595588E-04 +2.058364E-04 -4.149733E-05 +2.058364E-04 +1.845285E-04 +1.767429E-04 -4.149733E-05 +1.767429E-04 +4.954610E-03 
 -1.162629E-04 +2.590391E-04 -3.075659E-05 +2.590391E-04 -6.665908E-05 +1.501201E-04 -3.075659E-05 +1.501201E-04 +4.981559E-03 
 -1.901881E-04 +2.885917E-04 -7.499154E-05 +2.885917E-04 -3.018622E-04 +8.204899E-05 -7.499154E-05 +8.204899E-05 +5.093179E-03 
 -5.095466E-05 -9.594165E-06 -2.155012E-05 -9.594165E-06 -3.455287E-04 +1.587824E-06 -2.155012E-05 +1.587824E-06 +5.148591E-03 
 +5.384750E-05 -6.623251E-06 -6.366017E-05 -6.623251E-06 -3.234576E-04 -3.070626E-06 -6.366017E-05 -3.070626E-06 +5.140218E-03 
 +5.282462E-05 +6.588374E-05 -1.068254E-04 +6.588374E-05 -2.756144E-04 +4.016936E-05 -1.068254E-04 +4.016936E-05 +5.127349E-03 
 +3.102167E-05 +5.202994E-05 -1.594164E-04 +5.202994E-05 -1.189804E-04 -8.443334E-06 -1.594164E-04 -8.443334E-06 +5.072208E-03 
 -1.433246E-04 -2.061847E-04 -6.904552E-05 -2.061847E-04 -3.309846E-05 +1.397907E-06 -6.904552E-05 +1.397907E-06 +5.019760E-03 
 -8.522738E-05 +1.312774E-04 -3.538402E-05 +1.312774E-04 +1.014671E-05 +9.025069E-05 -3.538402E-05 +9.025069E-05 +5.026633E-03 
 -1.408692E-04 +1.151885E-04 -4.615367E-06 +1.151885E-04 +8.188816E-05 +9.582936E-05 -4.615367E-06 +9.582936E-05 +5.070207E-03 
 -1.351078E-04 +1.163550E-04 +4.205173E-05 +1.163550E-04 +6.382807E-05 +2.698511E-05 +4.205173E-05 +2.698511E-05 +5.107631E-03 
 -1.519515E-04 +1.749152E-04 +5.399136E-05 +1.749152E-04 +1.864948E-05 -2.375696E-06 +5.399136E-05 -2.375696E-06 +5.109547E-03 
 -8.193722E-05 +2.513847E-04 +1.764826E-04 +2.513847E-04 +2.165030E-05 -2.228050E-05 +1.764826E-04 -2.228050E-05 +5.033561E-03 
 +9.663024E-05 +1.250003E-04 +1.544477E-05 +1.250003E-04 +1.159146E-04 -1.630656E-04 +1.544477E-05 -1.630656E-04 +4.814922E-03 
 +1.376185E-04 +6.686919E-05 -3.741046E-05 +6.686919E-05 +1.433623E-04 -1.611653E-04 -3.741046E-05 -1.611653E-04 +4.667390E-03 
 +2.370068E-04 +8.069756E-05 -9.874003E-05 +8.069756E-05 +1.395740E-04 -1.375019E-04 -9.874003E-05 -1.375019E-04 +4.708922E-03 
 +3.424026E-04 +9.569900E-05 -8.808858E-05 +9.569900E-05 +6.418192E-05 -9.394767E-05 -8.808858E-05 -9.394767E-05 +4.794733E-03 
 +3.812432E-04 +9.769255E-05 -6.300179E-05 +9.769255E-05 +5.251617E-05 -8.901856E-05 -6.300179E-05 -8.901856E-05 +4.751865E-03 
 +2.592042E-04 +2.429559E-05 +9.309527E-05 +2.429559E-05 +9.125600E-05 -8.577002E-05 +9.309527E-05 -8.577002E-05 +4.849179E-03 
 +6.513938E-05 -1.584109E-04 +8.151270E-05 -1.584109E-04 +6.740343E-05 -6.064519E-05 +8.151270E-05 -6.064519E-05 +5.061139E-03 
 -1.178436E-04 -7.929631E-05 +6.806934E-05 -7.929631E-05 +6.615876E-05 -4.059925E-06 +6.806934E-05 -4.059925E-06 +5.086489E-03 
 -1.506583E-04 -1.628705E-04 +2.132908E-05 -1.628705E-04 -1.510727E-05 +3.346759E-05 +2.132908E-05 +3.346759E-05 +5.038857E-03 
 -1.475417E-04 -8.194745E-05 +9.906489E-06 -8.194745E-05 -8.755386E-05 -3.200575E-05 +9.906489E-06 -3.200575E-05 +5.056157E-03 
 -2.628682E-04 +4.428018E-05 -8.356341E-05 +4.428018E-05 -2.683250E-04 -4.957303E-05 -8.356341E-05 -4.957303E-05 +5.160733E-03 
 +3.400344E-05 +4.990919E-05 -1.236830E-04 +4.990919E-05 -4.912114E-04 +1.445888E-06 -1.236830E-04 +1.445888E-06 +5.233677E-03 
 +4.883357E-05 +4.866457E-05 -1.013675E-04 +4.866457E-05 -4.613922E-04 +2.625367E-05 -1.013675E-04 +2.625367E-05 +5.211322E-03 
 +6.991792E-05 +7.602583E-05 -1.599217E-04 +7.602583E-05 -3.070899E-04 +4.529061E-05 -1.599217E-04 +4.529061E-05 +5.133855E-03 
 +6.418862E-05 +1.019411E-04 -2.338036E-04 +1.019411E-04 -6.353429E-05 -1.786029E-06 -2.338036E-04 -1.786029E-06 +5.056350E-03 
 -3.827760E-04 -2.325514E-04 -1.131103E-04 -2.325514E-04 +2.021523E-04 -2.116874E-05 -1.131103E-04 -2.116874E-05 +5.030098E-03 
 -1.319333E-04 +7.470429E-05 +1.164487E-05 +7.470429E-05 +2.115224E-04 +8.506540E-05 +1.164487E-05 +8.506540E-05 +4.994906E-03 
 -6.464760E-05 +1.511786E-04 +1.290925E-04 +1.511786E-04 +1.258993E-04 +1.020341E-04 +1.290925E-04 +1.020341E-04 +5.004498E-03 
 -1.041059E-04 +1.644330E-04 +1.475628E-04 +1.644330E-04 +8.925764E-05 +2.735144E-05 +1.475628E-04 +2.735144E-05 +5.074379E-03 
 -2.306838E-04 +1.730883E-04 +1.377275E-04 +1.730883E-04 -3.558537E-05 -2.731399E-05 +1.377275E-04 -2.731399E-05 +5.086963E-03 
 -1.430835E-04 +2.730779E-04 +2.252519E-04 +2.730779E-04 -1.935787E-05 -1.050341E-04 +2.252519E-04 -1.050341E-04 +4.999844E-03 
 +1.354054E-04 +1.142951E-04 -1.582070E-05 +1.142951E-04 +7.317880E-05 -1.526985E-04 -1.582070E-05 -1.526985E-04 +4.807562E-03 
 +2.102050E-04 +4.773715E-05 -6.838606E-05 +4.773715E-05 +2.004881E-04 -1.229889E-04 -6.838606E-05 -1.229889E-04 +4.694015E-03 
 +2.919271E-04 +2.007991E-05 -1.308545E-04 +2.007991E-05 +1.589232E-04 -9.666276E-05 -1.308545E-04 -9.666276E-05 +4.742357E-03 
 +3.335853E-04 +1.793826E-05 -8.344315E-05 +1.793826E-05 +7.791410E-05 -6.326680E-05 -8.344315E-05 -6.326680E-05 +4.815457E-03 
 +3.728710E-04 +1.585661E-05 -1.072205E-04 +1.585661E-05 -2.915172E-05 -1.907123E-05 -1.072205E-04 -1.907123E-05 +4.782953E-03 
 +2.086190E-04 -8.351888E-05 +2.884151E-05 -8.351888E-05 -1.198089E-04 -2.573579E-05 +2.884151E-05 -2.573579E-05 +4.876648E-03 
 +1.077273E-05 -1.680482E-04 +8.631318E-05 -1.680482E-04 -3.181791E-05 -3.074245E-05 +8.631318E-05 -3.074245E-05 +5.064667E-03 
 -2.646268E-05 -1.206481E-04 +9.491575E-05 -1.206481E-04 -2.805751E-05 +4.253490E-05 +9.491575E-05 +4.253490E-05 +5.097348E-03 
 -6.290009E-05 -1.278245E-04 +3.959906E-05 -1.278245E-04 -4.666921E-05 +3.614625E-05 +3.959906E-05 +3.614625E-05 +5.083714E-03 
 -1.737061E-04 -4.428421E-05 -3.606299E-05 -4.428421E-05 -4.135399E-05 -6.038868E-05 -3.606299E-05 -6.038868E-05 +5.109770E-03 
 -1.719498E-04 -5.019336E-05 -5.503632E-05 -5.019336E-05 -9.840095E-05 -1.172946E-04 -5.503632E-05 -1.172946E-04 +5.159139E-03 
 -1.639061E-05 -8.865147E-05 -1.524379E-04 -8.865147E-05 -1.128018E-05 -9.547646E-05 -1.524379E-04 -9.547646E-05 +5.136420E-03 
 -1.811885E-05 -1.132952E-04 -1.560288E-04 -1.132952E-04 +1.379116E-04 -6.076449E-05 -1.560288E-04 -6.076449E-05 +5.007654E-03 
 +1.070987E-04 -4.577670E-05 -1.760369E-04 -4.577670E-05 +1.864675E-04 -7.522479E-05 -1.760369E-04 -7.522479E-05 +4.875752E-03 
 +1.718742E-05 +2.997088E-05 -1.684261E-04 +2.997088E-05 +2.189061E-04 -1.185514E-04 -1.684261E-04 -1.185514E-04 +4.884627E-03 
 -3.512492E-04 -2.198951E-04 -3.199051E-05 -2.198951E-04 +3.430540E-04 -1.061046E-04 -3.199051E-05 -1.061046E-04 +4.968933E-03 
 -8.188978E-05 +2.990419E-05 +5.496396E-05 +2.990419E-05 +3.053764E-04 +9.016244E-06 +5.496396E-05 +9.016244E-06 +4.906400E-03 
 +4.055139E-05 +2.187619E-04 +2.616581E-04 +2.187619E-04 +1.701742E-04 +8.914125E-05 +2.616581E-04 +8.914125E-05 +4.944744E-03 
 -1.932976E-04 +1.093157E-04 +2.233331E-04 +1.093157E-04 +1.808360E-04 +1.520179E-05 +2.233331E-04 +1.520179E-05 +5.087339E-03 
 -4.250494E-04 +1.116934E-05 +1.414790E-04 +1.116934E-05 +1.873527E-04 -8.121082E-05 +1.414790E-04 -8.121082E-05 +5.116711E-03 
 -2.073928E-04 +1.736643E-04 +1.750870E-04 +1.736643E-04 +7.659094E-05 -1.396094E-04 +1.750870E-04 -1.396094E-04 +5.002333E-03 
 +2.407752E-04 +9.218858E-05 -3.224540E-06 +9.218858E-05 +1.350536E-04 -1.296163E-04 -3.224540E-06 -1.296163E-04 +4.884360E-03 
 +3.044839E-04 +3.329758E-06 -6.261076E-05 +3.329758E-06 +1.208790E-04 -5.354193E-05 -6.261076E-05 -5.354193E-05 +4.782038E-03 
 +3.336400E-04 -7.118820E-05 -1.142211E-04 -7.118820E-05 +1.408404E-04 -1.109403E-05 -1.142211E-04 -1.109403E-05 +4.793972E-03 
 +3.826947E-04 -6.050860E-05 -1.020442E-04 -6.050860E-05 +7.272343E-05 +2.584233E-05 -1.020442E-04 +2.584233E-05 +4.768373E-03 
 +3.388882E-04 -1.312774E-05 -1.059043E-04 -1.312774E-05 -1.986493E-06 +2.130756E-05 -1.059043E-04 +2.130756E-05 +4.744022E-03 
 +1.987803E-04 +1.351535E-06 -3.739561E-05 +1.351535E-06 +5.923365E-05 +8.461713E-06 -3.739561E-05 +8.461713E-06 +4.834944E-03 
 +2.636216E-05 -1.048377E-04 +1.322329E-04 -1.048377E-04 +2.867524E-05 +9.266663E-06 +1.322329E-04 +9.266663E-06 +4.976796E-03 
 +4.413602E-05 -1.196939E-04 +1.084051E-04 -1.196939E-04 -5.074454E-05 +3.561921E-05 +1.084051E-04 +3.561921E-05 +5.055056E-03 
 -2.445129E-05 -1.408551E-04 +3.703923E-05 -1.408551E-04 -4.742747E-05 +1.354498E-05 +3.703923E-05 +1.354498E-05 +5.101213E-03 
 -1.964020E-04 -1.500678E-04 -5.268929E-05 -1.500678E-04 -4.021294E-05 -6.254987E-05 -5.268929E-05 -6.254987E-05 +5.123743E-03 
 -2.008912E-04 -1.276371E-04 +2.061797E-05 -1.276371E-04 -2.549379E-05 -1.353835E-04 +2.061797E-05 -1.353835E-04 +5.147380E-03 
 -1.461874E-04 -6.701116E-05 -6.922499E-05 -6.701116E-05 -3.894052E-05 -1.703502E-04 -6.922499E-05 -1.703502E-04 +5.056737E-03 
 +6.139996E-05 +3.814938E-05 -1.814929E-04 +3.814938E-05 +2.571730E-05 -1.700398E-04 -1.814929E-04 -1.700398E-04 +4.828976E-03 
 +6.809450E-05 +3.301048E-05 -1.546705E-04 +3.301048E-05 +1.777730E-04 -1.650762E-04 -1.546705E-04 -1.650762E-04 +4.743140E-03 
 +1.297575E-06 +6.375446E-05 -9.286754E-05 +6.375446E-05 +1.922280E-04 -1.819651E-04 -9.286754E-05 -1.819651E-04 +4.765978E-03 
 -5.315791E-05 -9.722456E-07 -4.253303E-05 -9.722456E-07 +2.977004E-04 -1.993950E-04 -4.253303E-05 -1.993950E-04 +4.801325E-03 
 -8.671722E-05 +7.989237E-06 +3.117099E-05 +7.989237E-06 +4.169938E-04 -8.069561E-05 +3.117099E-05 -8.069561E-05 +4.802128E-03 
 -8.195535E-05 +9.736049E-05 +2.574076E-04 +9.736049E-05 +3.265863E-04 +8.264699E-05 +2.574076E-04 +8.264699E-05 +4.963640E-03 
 -3.447823E-04 -1.685658E-05 +1.792682E-04 -1.685658E-05 +2.390089E-04 +3.699280E-05 +1.792682E-04 +3.699280E-05 +5.148913E-03 
 -4.800848E-04 +1.156310E-05 +1.331957E-04 +1.156310E-05 +2.457187E-04 -4.492532E-05 +1.331957E-04 -4.492532E-05 +5.157372E-03 
 -3.859809E-04 +7.844991E-05 +1.191396E-04 +7.844991E-05 +2.172128E-04 -1.279924E-04 +1.191396E-04 -1.279924E-04 +5.054380E-03 
 +2.705330E-04 +3.226596E-04 -1.118451E-05 +3.226596E-04 -2.491515E-04 -1.320476E-04 -1.118451E-05 -1.320476E-04 +5.105407E-03 
 +3.127981E-04 +2.180383E-04 -6.382284E-05 +2.180383E-04 -4.129301E-04 -1.000358E-04 -6.382284E-05 -1.000358E-04 +5.082746E-03 
 +3.325349E-04 +1.668232E-04 -2.991332E-05 +1.668232E-04 -3.090225E-04 -1.860031E-05 -2.991332E-05 -1.860031E-05 +4.961751E-03 
 +3.807908E-04 +3.368966E-05 -8.822707E-05 +3.368966E-05 -7.608373E-05 +4.360173E-05 -8.822707E-05 +4.360173E-05 +4.714093E-03 
 +3.163916E-04 +4.742934E-05 -8.903253E-05 +4.742934E-05 +9.907612E-05 +2.335438E-05 -8.903253E-05 +2.335438E-05 +4.680478E-03 
 +2.404019E-04 +1.380780E-05 -5.687451E-05 +1.380780E-05 +1.259039E-04 +4.389762E-05 -5.687451E-05 +4.389762E-05 +4.797362E-03 
 +3.641378E-05 -1.382225E-04 +1.424755E-04 -1.382225E-04 +4.530205E-05 +4.289260E-05 +1.424755E-04 +4.289260E-05 +4.931331E-03 
 +2.321897E-05 -1.206910E-04 +1.105655E-04 -1.206910E-04 +3.109802E-06 +9.650001E-06 +1.105655E-04 +9.650001E-06 +5.047545E-03 
 -7.312927E-05 -1.402164E-04 +5.125620E-05 -1.402164E-04 +9.006916E-06 -1.823670E-05 +5.125620E-05 -1.823670E-05 +5.115414E-03 
 -2.392369E-04 -1.816175E-04 -2.055828E-05 -1.816175E-04 -5.604975E-06 -8.417492E-05 -2.055828E-05 -8.417492E-05 +5.134665E-03 
 -2.286214E-04 -1.702330E-04 +7.308571E-05 -1.702330E-04 -6.197408E-05 -1.393905E-04 +7.308571E-05 -1.393905E-04 +5.171015E-03 
 -1.576572E-04 -1.117384E-04 +3.832422E-05 -1.117384E-04 -7.830005E-05 -1.421558E-04 +3.832422E-05 -1.421558E-04 +5.120528E-03 
 +1.037616E-04 +8.714230E-06 -1.260831E-04 +8.714230E-06 -2.964125E-05 -1.581303E-04 -1.260831E-04 -1.581303E-04 +4.888434E-03 
 +4.431978E-05 +1.491633E-05 -9.342285E-05 +1.491633E-05 +5.325906E-05 -1.985431E-04 -9.342285E-05 -1.985431E-04 +4.795681E-03 
 +7.211809E-05 +3.423812E-05 -5.578763E-05 +3.423812E-05 +1.120071E-04 -2.099194E-04 -5.578763E-05 -2.099194E-04 +4.774250E-03 
 +1.555890E-04 +2.555415E-05 -4.543788E-05 +2.555415E-05 +1.670925E-04 -1.133379E-04 -4.543788E-05 -1.133379E-04 +4.810303E-03 
 -1.350030E-04 -2.773318E-06 +1.458875E-05 -2.773318E-06 +4.178928E-04 +6.277205E-05 +1.458875E-05 +6.277205E-05 +4.885419E-03 
 -2.255092E-04 +1.264792E-05 +1.095967E-04 +1.264792E-05 +4.798702E-04 +1.658320E-04 +1.095967E-04 +1.658320E-04 +4.987244E-03 
 -4.223529E-04 -1.073514E-05 +7.616780E-05 -1.073514E-05 +2.271477E-04 +1.336476E-04 +7.616780E-05 +1.336476E-04 +5.137744E-03 
 -4.777399E-04 +1.002855E-04 +1.344086E-04 +1.002855E-04 +1.963439E-04 +5.409368E-05 +1.344086E-04 +5.409368E-05 +5.202434E-03 
 -3.296540E-04 +1.289534E-04 +5.542774E-05 +1.289534E-04 +8.018361E-05 -7.062739E-05 +5.542774E-05 -7.062739E-05 +5.163982E-03 
 +1.015086E-04 +4.208894E-04 +5.262087E-05 +4.208894E-04 -3.145290E-04 -9.283368E-05 +5.262087E-05 -9.283368E-05 +5.170536E-03 
 +1.647159E-04 +3.198651E-04 +2.830250E-05 +3.198651E-04 -5.053716E-04 -1.043145E-04 +2.830250E-05 -1.043145E-04 +5.204055E-03 
 +1.645056E-04 +3.284303E-04 +9.849834E-05 +3.284303E-04 -4.452412E-04 -5.455782E-05 +9.849834E-05 -5.455782E-05 +5.110735E-03 
 +2.620440E-04 +1.402900E-04 -8.702649E-07 +1.402900E-04 -1.793789E-04 +1.116916E-05 -8.702649E-07 +1.116916E-05 +4.838022E-03 
 +3.104238E-04 +1.072063E-04 -1.135512E-04 +1.072063E-04 +3.405164E-05 +8.449430E-06 -1.135512E-04 +8.449430E-06 +4.654684E-03 
 +2.398260E-04 -4.484840E-05 -7.119333E-05 -4.484840E-05 +4.015576E-05 +3.469376E-05 -7.119333E-05 +3.469376E-05 +4.739978E-03 
 +4.713115E-05 -2.029549E-04 +1.065572E-04 -2.029549E-04 -1.687899E-05 +3.590889E-05 +1.065572E-04 +3.590889E-05 +4.930559E-03 
 +7.505390E-06 -1.237923E-04 +1.061409E-04 -1.237923E-04 +1.809860E-05 -3.834890E-05 +1.061409E-04 -3.834890E-05 +5.034745E-03 
 -1.059000E-04 -1.292649E-04 +6.524423E-05 -1.292649E-04 +6.655685E-05 -7.806508E-05 +6.524423E-05 -7.806508E-05 +5.101234E-03 
 -2.689868E-04 -1.735727E-04 +3.591497E-05 -1.735727E-04 +6.319844E-05 -1.480575E-04 +3.591497E-05 -1.480575E-04 +5.137987E-03 
 -2.634935E-04 -1.568432E-04 +1.311899E-04 -1.568432E-04 +1.935207E-05 -2.048939E-04 +1.311899E-04 -2.048939E-04 +5.185065E-03 
 -1.909281E-04 -1.022533E-04 +1.013803E-04 -1.022533E-04 -7.688496E-05 -1.826081E-04 +1.013803E-04 -1.826081E-04 +5.156344E-03 
 +7.598182E-05 +5.331591E-05 -5.808388E-05 +5.331591E-05 -1.716500E-04 -1.798109E-04 -5.808388E-05 -1.798109E-04 +4.944024E-03 
 +1.581016E-04 +1.269202E-04 -6.384976E-05 +1.269202E-04 -1.393408E-04 -2.338499E-04 -6.384976E-05 -2.338499E-04 +4.848055E-03 
 +9.859047E-05 +7.520039E-05 -4.887330E-05 +7.520039E-05 -8.918619E-05 -1.686284E-04 -4.887330E-05 -1.686284E-04 +4.909694E-03 
 +2.823714E-05 -6.261352E-05 +2.405006E-06 -6.261352E-05 -1.467819E-04 -2.683354E-05 +2.405006E-06 -2.683354E-05 +5.035585E-03 
 -5.746355E-05 -9.637800E-05 -1.630637E-05 -9.637800E-05 -2.507613E-04 +2.100028E-05 -1.630637E-05 +2.100028E-05 +5.066988E-03 
 -6.721247E-05 -6.427385E-05 -3.270338E-06 -6.427385E-05 -1.847985E-04 +7.110800E-05 -3.270338E-06 +7.110800E-05 +5.038422E-03 
 -2.899949E-04 +4.324996E-05 -1.363549E-06 +4.324996E-05 -1.029261E-04 +1.148727E-04 -1.363549E-06 +1.148727E-04 +5.122610E-03 
 -2.902144E-04 +4.932704E-04 +6.288538E-05 +4.932704E-04 -1.793011E-04 +6.835588E-05 +6.288538E-05 +6.835588E-05 +5.189508E-03 
 -1.243642E-04 +4.321196E-04 +5.024531E-06 +4.321196E-04 -1.918634E-04 -1.821520E-05 +5.024531E-06 -1.821520E-05 +5.161797E-03 
 -5.234188E-05 +2.196763E-04 +1.627088E-04 +2.196763E-04 -1.906490E-04 +2.924090E-06 +1.627088E-04 +2.924090E-06 +5.147276E-03 
 -9.508730E-05 +3.038623E-04 +1.284722E-04 +3.038623E-04 -3.202638E-04 -1.367324E-05 +1.284722E-04 -1.367324E-05 +5.216891E-03 
 -1.207915E-04 +2.838755E-04 +1.138184E-04 +2.838755E-04 -4.538863E-04 +7.409407E-06 +1.138184E-04 +7.409407E-06 +5.279204E-03 
 +9.117564E-05 +2.671880E-04 +5.951185E-05 +2.671880E-04 -4.343166E-04 +1.367013E-05 +5.951185E-05 +1.367013E-05 +5.177223E-03 
 +2.530687E-04 +7.428479E-05 -1.206563E-04 +7.428479E-05 -1.596679E-04 -1.065521E-05 -1.206563E-04 -1.065521E-05 +4.892344E-03 
 +1.777458E-04 -2.875510E-04 +4.045664E-06 -2.875510E-04 -1.754377E-04 +1.370265E-05 +4.045664E-06 +1.370265E-05 +4.857749E-03 
 +1.061688E-04 -2.760844E-04 +9.768587E-05 -2.760844E-04 -1.608814E-04 +3.851047E-05 +9.768587E-05 +3.851047E-05 +5.005379E-03 
 +7.768541E-05 -1.856065E-04 +1.030451E-04 -1.856065E-04 -1.687150E-05 -4.281689E-05 +1.030451E-04 -4.281689E-05 +5.051708E-03 
 -1.613231E-05 -9.785242E-05 +7.439857E-05 -9.785242E-05 +6.985987E-05 -1.442147E-04 +7.439857E-05 -1.442147E-04 +5.097363E-03 
 -2.441668E-04 -1.339354E-04 +7.271389E-05 -1.339354E-04 +1.204500E-04 -2.218941E-04 +7.271389E-05 -2.218941E-04 +5.124283E-03 
 -2.843705E-04 -1.340496E-04 +1.508314E-04 -1.340496E-04 +3.584447E-05 -2.357257E-04 +1.508314E-04 -2.357257E-04 +5.171670E-03 
 -2.220583E-04 -5.909071E-05 +9.435978E-05 -5.909071E-05 -5.874528E-05 -2.473129E-04 +9.435978E-05 -2.473129E-04 +5.128002E-03 
 +2.419012E-05 +7.473212E-05 -9.996412E-06 +7.473212E-05 -1.558285E-04 -2.733410E-04 -9.996412E-06 -2.733410E-04 +4.906962E-03 
 +1.101139E-04 +8.651874E-05 +2.726502E-05 +8.651874E-05 -2.955674E-04 -2.297413E-04 +2.726502E-05 -2.297413E-04 +4.867555E-03 
 +1.175659E-04 -2.477126E-05 +3.129444E-05 -2.477126E-05 -3.418368E-04 -7.957345E-05 +3.129444E-05 -7.957345E-05 +5.046068E-03 
 -6.487503E-05 -7.554790E-06 -1.682788E-05 -7.554790E-06 -2.359106E-04 +6.266431E-05 -1.682788E-05 +6.266431E-05 +5.143925E-03 
 -1.976347E-05 -8.340465E-05 +2.892037E-06 -8.340465E-05 -2.974138E-04 +1.471862E-04 +2.892037E-06 +1.471862E-04 +5.086617E-03 
 +4.780367E-05 -3.818357E-05 -4.845228E-05 -3.818357E-05 -4.565947E-04 +1.394852E-04 -4.845228E-05 +1.394852E-04 +5.014149E-03 
 +8.859716E-05 -6.110141E-05 -5.752559E-05 -6.110141E-05 -3.921986E-04 +9.716204E-05 -5.752559E-05 +9.716204E-05 +5.008726E-03 
 +3.027373E-05 +3.181895E-04 -1.948877E-05 +3.181895E-04 -2.778846E-04 +5.721882E-05 -1.948877E-05 +5.721882E-05 +5.051388E-03 
 -4.758422E-06 +3.240232E-04 +7.247132E-05 +3.240232E-04 -1.416350E-04 +3.084742E-05 +7.247132E-05 +3.084742E-05 +5.085778E-03 
 -1.918418E-04 -4.271828E-05 +1.284523E-04 -4.271828E-05 -2.418154E-05 +5.646195E-05 +1.284523E-04 +5.646195E-05 +5.091054E-03 
 -2.668035E-04 +6.991209E-05 +1.210474E-04 +6.991209E-05 +8.075458E-06 +2.987797E-05 +1.210474E-04 +2.987797E-05 +5.237683E-03 
 -2.677848E-04 +4.584160E-05 +3.814146E-05 +4.584160E-05 -1.694839E-04 +4.959577E-05 +3.814146E-05 +4.959577E-05 +5.326813E-03 
 -3.061920E-05 +2.941348E-04 +2.648884E-05 +2.941348E-04 -4.654006E-04 +2.817922E-05 +2.648884E-05 +2.817922E-05 +5.376379E-03 
 +1.509118E-04 +2.651645E-04 -1.144000E-04 +2.651645E-04 -5.295979E-04 +5.644789E-05 -1.144000E-04 +5.644789E-05 +5.249911E-03 
 +1.546452E-04 -1.843357E-04 -7.260960E-06 -1.843357E-04 -3.908743E-04 +8.544383E-05 -7.260960E-06 +8.544383E-05 +5.062603E-03 
 +2.055342E-04 -6.357282E-05 +4.577793E-05 -6.357282E-05 -3.602892E-04 +4.983490E-05 +4.577793E-05 +4.983490E-05 +5.036172E-03 
 +1.481458E-04 -2.854828E-05 +5.283115E-05 -2.854828E-05 -3.310278E-04 -8.408316E-06 +5.283115E-05 -8.408316E-06 +5.064306E-03 
 +1.200184E-04 +4.831127E-05 +3.552659E-05 +4.831127E-05 -2.116290E-04 -1.003549E-04 +3.552659E-05 -1.003549E-04 +5.075708E-03 
 -1.050512E-04 +8.230015E-06 +3.398690E-05 +8.230015E-06 -2.461377E-06 -1.901226E-04 +3.398690E-05 -1.901226E-04 +5.089648E-03 
 -3.445057E-04 -1.139270E-04 +7.069794E-05 -1.139270E-04 +1.246703E-05 -2.657154E-04 +7.069794E-05 -2.657154E-04 +5.141911E-03 
 -2.509519E-04 +3.268113E-05 +6.947791E-05 +3.268113E-05 -3.207979E-05 -2.155313E-04 +6.947791E-05 -2.155313E-04 +5.036261E-03 
 -4.099912E-05 +1.354963E-04 +4.357393E-05 +1.354963E-04 +5.365027E-05 -2.217090E-05 +4.357393E-05 -2.217090E-05 +4.805348E-03 
 -4.374850E-05 +1.280007E-04 +5.403267E-05 +1.280007E-04 -3.957809E-05 +7.934434E-05 +5.403267E-05 +7.934434E-05 +4.844237E-03 
 -4.881481E-05 -2.716993E-05 +3.121452E-05 -2.716993E-05 -2.962092E-04 +8.614217E-05 +3.121452E-05 +8.614217E-05 +5.063761E-03 
 +4.289896E-06 -7.731739E-05 +6.678493E-06 -7.731739E-05 -4.667362E-04 +1.405296E-04 +6.678493E-06 +1.405296E-04 +5.049107E-03 
 +1.035275E-04 -7.409854E-05 +7.406414E-06 -7.409854E-05 -2.315464E-04 +1.521405E-04 +7.406414E-06 +1.521405E-04 +4.885147E-03 
 +1.203233E-04 +1.241525E-04 -1.548392E-04 +1.241525E-04 +1.444517E-04 +8.340667E-05 -1.548392E-04 +8.340667E-05 +4.782199E-03 
 +1.992663E-04 +4.876155E-05 -1.185323E-04 +4.876155E-05 +2.912665E-04 +2.879904E-05 -1.185323E-04 +2.879904E-05 +4.754386E-03 
 +2.031657E-04 +1.073019E-04 -3.892700E-05 +1.073019E-04 +7.371412E-05 +3.801926E-05 -3.892700E-05 +3.801926E-05 +4.856232E-03 
 +1.812419E-04 +2.460755E-04 +1.124361E-04 +2.460755E-04 -1.380725E-04 +8.818676E-05 +1.124361E-04 +8.818676E-05 +4.968395E-03 
 -2.591602E-04 -7.392333E-05 +1.059792E-04 -7.392333E-05 -2.091270E-05 +3.888694E-05 +1.059792E-04 +3.888694E-05 +5.014165E-03 
 -2.673996E-04 +5.312108E-05 +9.414857E-05 +5.312108E-05 -8.621872E-05 +4.525886E-05 +9.414857E-05 +4.525886E-05 +5.222335E-03 
 -2.874707E-04 +6.671016E-05 +2.405254E-05 +6.671016E-05 -1.168032E-04 +4.788682E-05 +2.405254E-05 +4.788682E-05 +5.295958E-03 
 -2.709730E-04 +8.954214E-05 -1.800417E-05 +8.954214E-05 -2.248135E-04 +1.609181E-05 -1.800417E-05 +1.609181E-05 +5.352525E-03 
 +2.805696E-04 +1.427309E-04 -1.143762E-04 +1.427309E-04 -6.018735E-04 +3.515114E-05 -1.143762E-04 +3.515114E-05 +5.309285E-03 
 +2.894066E-04 +1.096404E-06 -8.585597E-05 +1.096404E-06 -6.645877E-04 +7.735393E-05 -8.585597E-05 +7.735393E-05 +5.134253E-03 
 +1.923541E-04 +5.549974E-05 -5.809807E-06 +5.549974E-05 -4.499684E-04 +2.522167E-05 -5.809807E-06 +2.522167E-05 +5.048249E-03 
 +1.705686E-04 +3.374842E-05 +1.700164E-05 +3.374842E-05 -3.854052E-04 -2.434170E-05 +1.700164E-05 -2.434170E-05 +5.060066E-03 
 +1.727468E-04 +1.001319E-04 +2.695056E-05 +1.001319E-04 -4.190492E-04 -6.896349E-05 +2.695056E-05 -6.896349E-05 +5.066557E-03 
 +1.344522E-04 +1.379978E-04 +1.546093E-05 +1.379978E-04 -3.764965E-04 -9.638339E-05 +1.546093E-05 -9.638339E-05 +5.096085E-03 
 -4.226852E-04 -4.623680E-05 -1.127626E-05 -4.623680E-05 -1.300860E-04 -6.502346E-05 -1.127626E-05 -6.502346E-05 +5.106122E-03 
 -2.499325E-04 +1.933704E-04 +2.084300E-06 +1.933704E-04 +1.119089E-04 +3.558603E-05 +2.084300E-06 +3.558603E-05 +4.967862E-03 
 -1.857111E-04 +1.517047E-04 -6.847609E-06 +1.517047E-04 +1.118668E-04 +8.668108E-05 -6.847609E-06 +8.668108E-05 +4.840488E-03 
 -1.055109E-04 +9.621911E-05 -5.956489E-05 +9.621911E-05 +6.383723E-05 +6.075793E-05 -5.956489E-05 +6.075793E-05 +4.889908E-03 
 -2.254310E-04 +5.517240E-05 -8.407837E-05 +5.517240E-05 +1.605689E-04 +1.151941E-04 -8.407837E-05 +1.151941E-04 +4.991289E-03 
 -1.580318E-04 +5.921327E-05 +6.791888E-05 +5.921327E-05 +2.069726E-04 +1.785604E-04 +6.791888E-05 +1.785604E-04 +4.904045E-03 
 +2.780464E-04 +1.074453E-04 -6.648988E-05 +1.074453E-04 +2.533855E-04 +1.289564E-04 -6.648988E-05 +1.289564E-04 +4.710034E-03 
 +2.535587E-04 +6.735383E-05 -1.870968E-04 +6.735383E-05 +2.618734E-04 +8.878471E-05 -1.870968E-04 +8.878471E-05 +4.642088E-03 
 +2.064112E-04 +2.922650E-05 -1.771260E-04 +2.922650E-05 +2.349805E-04 +7.440100E-05 -1.771260E-04 +7.440100E-05 +4.649982E-03 
 +2.381038E-04 -4.138137E-05 -4.470937E-05 -4.138137E-05 +2.409206E-04 +4.695963E-05 -4.470937E-05 +4.695963E-05 +4.694441E-03 
 +2.160760E-04 +8.888276E-05 +4.545496E-05 +8.888276E-05 +9.293331E-05 +3.247291E-05 +4.545496E-05 +3.247291E-05 +4.797062E-03 
 -1.894353E-04 -1.138271E-04 -6.544726E-06 -1.138271E-04 -3.700902E-05 +8.129628E-05 -6.544726E-06 +8.129628E-05 +4.989558E-03 
 -1.649492E-04 -1.998263E-06 -6.643207E-05 -1.998263E-06 -1.264811E-04 +2.774849E-05 -6.643207E-05 +2.774849E-05 +5.122003E-03 
 -3.381740E-04 +1.102206E-04 -7.562137E-05 +1.102206E-04 -1.167340E-04 -2.185904E-05 -7.562137E-05 -2.185904E-05 +5.236567E-03 
 -3.252957E-04 +1.807231E-04 -9.060094E-05 +1.807231E-04 -1.439212E-04 -2.803900E-05 -9.060094E-05 -2.803900E-05 +5.211914E-03 
 +2.545698E-04 +1.007376E-04 -9.419428E-05 +1.007376E-04 -5.077388E-04 +9.397965E-06 -9.419428E-05 +9.397965E-06 +5.121818E-03 
 +2.880961E-04 +8.213448E-05 -4.604478E-05 +8.213448E-05 -6.822080E-04 +4.638930E-05 -4.604478E-05 +4.638930E-05 +5.086250E-03 
 +2.757943E-04 +1.406501E-05 -5.550151E-06 +1.406501E-05 -4.879777E-04 +9.919265E-06 -5.550151E-06 +9.919265E-06 +5.054518E-03 
 +1.805029E-04 +5.711608E-05 +2.429247E-05 +5.711608E-05 -3.984993E-04 -2.968018E-05 +2.429247E-05 -2.968018E-05 +5.032611E-03 
 +1.702207E-04 +3.527880E-05 +3.773167E-05 +3.527880E-05 -4.004873E-04 -6.404883E-05 +3.773167E-05 -6.404883E-05 +5.053641E-03 
 +7.879487E-05 +3.431884E-05 -1.019727E-05 +3.431884E-05 -3.455411E-04 -7.211933E-05 -1.019727E-05 -7.211933E-05 +5.116667E-03 
 -4.573571E-04 -1.776120E-04 -6.018909E-05 -1.776120E-04 -3.346521E-06 -7.086809E-05 -6.018909E-05 -7.086809E-05 +5.117726E-03 
 -3.303863E-04 -1.978033E-04 -5.990672E-05 -1.978033E-04 +1.835940E-04 -1.119943E-04 -5.990672E-05 -1.119943E-04 +5.026145E-03 
 -2.705865E-04 -2.718990E-04 -8.763814E-05 -2.718990E-04 +9.641046E-05 -1.075352E-04 -8.763814E-05 -1.075352E-04 +5.001893E-03 
 -1.100929E-04 -1.914590E-04 -1.030087E-04 -1.914590E-04 +1.082019E-05 -3.031014E-05 -1.030087E-04 -3.031014E-05 +5.012255E-03 
 -1.088392E-04 -8.394251E-05 -1.097590E-04 -8.394251E-05 +3.300241E-05 +8.715011E-05 -1.097590E-04 +8.715011E-05 +4.971917E-03 
 -2.097547E-04 +5.811718E-05 +1.151923E-05 +5.811718E-05 +2.253048E-04 +1.394325E-04 +1.151923E-05 +1.394325E-04 +4.877228E-03 
 +3.020946E-04 +1.756197E-04 -1.335975E-04 +1.756197E-04 +2.608788E-04 +1.112020E-04 -1.335975E-04 +1.112020E-04 +4.753037E-03 
 +3.016998E-04 +1.037532E-04 -1.000763E-04 +1.037532E-04 +1.951391E-04 +1.128972E-04 -1.000763E-04 +1.128972E-04 +4.732485E-03 
 +2.549996E-04 +2.874441E-05 -1.257786E-04 +2.874441E-05 +1.689898E-04 +1.367339E-04 -1.257786E-04 +1.367339E-04 +4.744235E-03 
 +2.212340E-04 -6.782624E-05 -3.681218E-05 -6.782624E-05 +1.860160E-04 +7.089087E-05 -3.681218E-05 +7.089087E-05 +4.761529E-03 
 +1.767700E-04 -2.668144E-05 -4.840024E-05 -2.668144E-05 +1.358869E-04 +2.794545E-05 -4.840024E-05 +2.794545E-05 +4.863001E-03 
 +1.030713E-05 -1.390864E-04 -1.056829E-04 -1.390864E-04 -1.589239E-04 +2.041932E-04 -1.056829E-04 +2.041932E-04 +5.047677E-03 
 -2.811833E-05 +2.052467E-05 -2.026992E-04 +2.052467E-05 -1.749306E-04 +1.548764E-04 -2.026992E-04 +1.548764E-04 +5.062910E-03 
 -2.462113E-04 +2.901375E-04 -1.406888E-04 +2.901375E-04 -1.882512E-04 +6.078137E-05 -1.406888E-04 +6.078137E-05 +5.117853E-03 
 -6.498898E-06 +4.019608E-04 -4.170779E-05 +4.019608E-04 -5.294628E-05 +5.333838E-05 -4.170779E-05 +5.333838E-05 +5.059133E-03 
 -1.749266E-04 +1.977121E-04 -1.577315E-05 +1.977121E-04 +2.024210E-04 +7.293304E-05 -1.577315E-05 +7.293304E-05 +5.026448E-03 
 -2.417673E-04 +3.759009E-05 +2.326683E-05 +3.759009E-05 +1.752787E-04 +8.773112E-05 +2.326683E-05 +8.773112E-05 +5.046816E-03 
 +1.558302E-04 -3.356524E-04 +5.628318E-06 -3.356524E-04 -9.497163E-05 +7.112755E-05 +5.628318E-06 +7.112755E-05 +5.016091E-03 
 +2.747347E-04 -4.194952E-04 -8.910414E-06 -4.194952E-04 -1.340220E-04 +5.020473E-05 -8.910414E-06 +5.020473E-05 +4.984247E-03 
 +1.938858E-04 -3.795370E-04 -2.787506E-05 -3.795370E-04 -6.032350E-05 +2.629569E-05 -2.787506E-05 +2.629569E-05 +5.005666E-03 
 -1.524857E-04 -2.391046E-04 -2.596480E-05 -2.391046E-04 +1.467291E-05 +1.195843E-05 -2.596480E-05 +1.195843E-05 +5.072253E-03 
 -3.326696E-04 -2.231175E-04 -3.310057E-05 -2.231175E-04 +8.263737E-05 -1.120008E-05 -3.310057E-05 -1.120008E-05 +5.096998E-03 
 -3.225800E-04 -2.421487E-04 -1.574663E-05 -2.421487E-04 +1.175349E-04 -2.737040E-05 -1.574663E-05 -2.737040E-05 +5.101485E-03 
 -2.294710E-04 -2.169909E-04 -3.524117E-05 -2.169909E-04 +9.719991E-05 -3.126435E-05 -3.524117E-05 -3.126435E-05 +5.132357E-03 
 -1.883876E-04 -2.465607E-04 -6.781857E-05 -2.465607E-04 +4.059550E-05 -4.406368E-05 -6.781857E-05 -4.406368E-05 +5.144852E-03 
 -1.351569E-04 -2.597643E-04 -1.424797E-04 -2.597643E-04 -1.044989E-04 -4.239210E-05 -1.424797E-04 -4.239210E-05 +5.123182E-03 
 +1.129799E-04 -1.216441E-04 -8.824484E-05 -1.216441E-04 -2.307066E-04 -1.369936E-05 -8.824484E-05 -1.369936E-05 +5.056187E-03 
 +3.102152E-04 -2.333805E-05 -7.698956E-05 -2.333805E-05 -2.652356E-04 +7.362902E-05 -7.698956E-05 +7.362902E-05 +4.960994E-03 
 +2.767259E-04 -7.957032E-05 -1.935085E-05 -7.957032E-05 -2.608330E-04 +1.961828E-04 -1.935085E-05 +1.961828E-04 +4.924687E-03 
 +2.799838E-04 -1.785180E-04 -2.129678E-05 -1.785180E-04 -2.684292E-04 +2.541480E-04 -2.129678E-05 +2.541480E-04 +4.937124E-03 
 +2.226163E-04 -1.696505E-04 +2.482025E-05 -1.696505E-04 -2.559142E-04 +1.268611E-04 +2.482025E-05 +1.268611E-04 +5.018612E-03 
 +2.208555E-04 -2.023890E-04 -1.618273E-05 -2.023890E-04 -2.186505E-04 +6.690878E-05 -1.618273E-05 +6.690878E-05 +5.086533E-03 
 +1.968898E-04 -2.208219E-04 -3.687096E-05 -2.208219E-04 -3.369428E-04 +6.036520E-05 -3.687096E-05 +6.036520E-05 +5.157107E-03 
 +1.399522E-04 -2.288957E-04 -1.255093E-04 -2.288957E-04 -4.625956E-04 +7.339778E-05 -1.255093E-04 +7.339778E-05 +5.156679E-03 
 -2.193243E-06 +2.837430E-04 -3.540011E-05 +2.837430E-04 -3.334555E-04 +6.462850E-05 -3.540011E-05 +6.462850E-05 +5.075162E-03 
 +2.429347E-05 +1.961384E-04 +5.696941E-05 +1.961384E-04 -2.734399E-05 +2.592806E-05 +5.696941E-05 +2.592806E-05 +5.007125E-03 
 -3.943953E-04 +6.358598E-05 +3.214893E-05 +6.358598E-05 +1.676318E-04 +5.941077E-05 +3.214893E-05 +5.941077E-05 +5.047742E-03 
 -5.016964E-04 +7.905198E-05 +5.050416E-05 +7.905198E-05 +2.991955E-04 +1.245218E-04 +5.050416E-05 +1.245218E-04 +5.076366E-03 
 -3.848936E-04 +2.383497E-05 +4.885721E-05 +2.383497E-05 +3.129712E-04 +1.192738E-04 +4.885721E-05 +1.192738E-04 +5.006735E-03 
 +6.457665E-05 -3.435277E-04 -6.229942E-06 -3.435277E-04 +5.007543E-05 +1.326279E-04 -6.229942E-06 +1.326279E-04 +4.933679E-03 
 +1.953343E-04 -3.575808E-04 -4.879090E-05 -3.575808E-04 -1.002317E-04 +7.991470E-05 -4.879090E-05 +7.991470E-05 +4.928302E-03 
 -1.058964E-04 -2.279672E-04 -8.731503E-06 -2.279672E-04 +3.771634E-05 +2.126704E-05 -8.731503E-06 +2.126704E-05 +4.980335E-03 
 -8.883163E-05 -1.689240E-04 +2.403002E-05 -1.689240E-04 +5.289712E-05 +4.851477E-06 +2.403002E-05 +4.851477E-06 +5.031426E-03 
 -1.358169E-04 -2.190581E-04 +4.451337E-05 -2.190581E-04 +7.643507E-05 -4.091934E-05 +4.451337E-05 -4.091934E-05 +5.077480E-03 
 -2.046066E-04 -2.228942E-04 +5.953399E-05 -2.228942E-04 +1.043455E-04 -6.898589E-05 +5.953399E-05 -6.898589E-05 +5.131961E-03 
 -2.172239E-04 -1.653544E-04 +3.558624E-06 -1.653544E-04 +1.019248E-04 -2.350807E-05 +3.558624E-06 -2.350807E-05 +5.183080E-03 
 -2.544292E-04 -1.724984E-04 -1.478794E-04 -1.724984E-04 -9.617447E-05 +7.923183E-05 -1.478794E-04 +7.923183E-05 +5.194524E-03 
 +1.194952E-04 -9.941461E-05 -1.373020E-04 -9.941461E-05 -4.167875E-04 +1.072817E-04 -1.373020E-04 +1.072817E-04 +5.145465E-03 
 +2.379199E-04 -1.423852E-04 -6.363952E-05 -1.423852E-04 -4.171161E-04 +4.737668E-05 -6.363952E-05 +4.737668E-05 +5.071025E-03 
 +4.451712E-04 -1.799655E-04 -4.196518E-05 -1.799655E-04 -3.626469E-04 +6.755222E-05 -4.196518E-05 +6.755222E-05 +5.020855E-03 
 +3.625899E-04 -1.288242E-04 -2.924438E-05 -1.288242E-04 -3.668072E-04 +1.090528E-04 -2.924438E-05 +1.090528E-04 +5.020243E-03 
 +2.119704E-04 -1.114467E-04 +3.968441E-05 -1.114467E-04 -2.707041E-04 +5.108998E-06 +3.968441E-05 +5.108998E-06 +5.089403E-03 
 +2.915806E-04 -2.083699E-04 +4.397077E-05 -2.083699E-04 -2.653325E-04 -3.624293E-05 +4.397077E-05 -3.624293E-05 +5.138007E-03 
 +2.466606E-04 -2.232553E-04 +2.544839E-05 -2.232553E-04 -2.952582E-04 +7.603278E-05 +2.544839E-05 +7.603278E-05 +5.153810E-03 
 +2.464122E-04 -2.513608E-04 -3.893457E-05 -2.513608E-04 -3.270377E-04 +8.160375E-05 -3.893457E-05 +8.160375E-05 +5.151524E-03 
 +5.498140E-05 +3.140189E-04 +4.311980E-05 +3.140189E-04 -2.081837E-04 +5.080657E-05 +4.311980E-05 +5.080657E-05 +5.048861E-03 
 -4.507539E-05 +1.545911E-04 +5.866908E-05 +1.545911E-04 -7.271248E-06 -1.664345E-05 +5.866908E-05 -1.664345E-05 +4.997115E-03 
 -3.603682E-04 +5.301334E-05 -6.857306E-06 +5.301334E-05 +9.233569E-05 +1.514740E-05 -6.857306E-06 +1.514740E-05 +5.034033E-03 
 -3.803295E-04 -2.520645E-05 +3.293246E-05 -2.520645E-05 +1.825613E-04 +1.055658E-04 +3.293246E-05 +1.055658E-04 +5.062611E-03 
 -5.059585E-04 +3.672987E-05 +4.204463E-05 +3.672987E-05 +3.500011E-04 +1.790532E-04 +4.204463E-05 +1.790532E-04 +4.999974E-03 
 -2.476141E-04 -1.188229E-04 -1.167253E-05 -1.188229E-04 +4.478809E-04 +2.058438E-04 -1.167253E-05 +2.058438E-04 +4.895050E-03 
 -1.520052E-04 -3.472353E-05 -4.619606E-05 -3.472353E-05 +2.859247E-04 +4.143938E-05 -4.619606E-05 +4.143938E-05 +4.872383E-03 
 -6.068384E-05 -8.280613E-05 +4.859558E-05 -8.280613E-05 +5.841837E-05 -9.028599E-05 +4.859558E-05 -9.028599E-05 +4.976624E-03 
 +1.799585E-05 -1.581598E-04 +8.170920E-05 -1.581598E-04 +1.241888E-05 -8.150693E-05 +8.170920E-05 -8.150693E-05 +5.062993E-03 
 +1.335009E-05 -2.107391E-04 +8.968383E-05 -2.107391E-04 +4.614572E-05 -7.296073E-05 +8.968383E-05 -7.296073E-05 +5.009316E-03 
 -1.863433E-05 -1.595204E-04 +1.105468E-04 -1.595204E-04 +1.625519E-04 -1.945907E-05 +1.105468E-04 -1.945907E-05 +4.967622E-03 
 -1.315383E-04 -1.518653E-04 +4.753312E-05 -1.518653E-04 +1.032799E-04 +6.214215E-05 +4.753312E-05 +6.214215E-05 +5.051232E-03 
 -1.393727E-04 -1.172351E-04 -6.272361E-05 -1.172351E-04 +6.949099E-05 +1.089897E-04 -6.272361E-05 +1.089897E-04 +5.087797E-03 
 -9.607380E-05 +1.385291E-04 -8.774420E-05 +1.385291E-04 +2.316677E-04 +7.970406E-05 -8.774420E-05 +7.970406E-05 +5.052882E-03 
 -4.036043E-05 +9.105540E-05 -8.756158E-05 +9.105540E-05 +2.101731E-05 -5.998462E-06 -8.756158E-05 -5.998462E-06 +5.018791E-03 
 +4.692587E-04 -2.508350E-04 -8.638378E-05 -2.508350E-04 -4.227081E-04 -3.389453E-05 -8.638378E-05 -3.389453E-05 +4.974733E-03 
 +4.066591E-04 -1.812212E-04 -5.459203E-05 -1.812212E-04 -4.380748E-04 -9.123227E-06 -5.459203E-05 -9.123227E-06 +4.953004E-03 
 +3.708143E-04 -1.646490E-04 +4.722173E-05 -1.646490E-04 -2.695401E-04 -5.558146E-05 +4.722173E-05 -5.558146E-05 +5.006442E-03 
 +3.517710E-04 -2.146238E-04 +5.878942E-05 -2.146238E-04 -2.531819E-04 -2.111404E-05 +5.878942E-05 -2.111404E-05 +5.084968E-03 
 +3.938968E-04 -2.918809E-04 +3.930462E-05 -2.918809E-04 -3.235468E-04 +6.293608E-05 +3.930462E-05 +6.293608E-05 +5.070821E-03 
 +2.005503E-04 -1.828181E-04 -7.394201E-06 -1.828181E-04 -2.318545E-04 +9.317445E-05 -7.394201E-06 +9.317445E-05 +5.091305E-03 
 +1.331715E-05 +3.658574E-04 +6.489964E-05 +3.658574E-04 -8.388464E-05 +8.281469E-05 +6.489964E-05 +8.281469E-05 +5.039929E-03 
 -5.646673E-05 +2.040064E-04 +9.124137E-05 +2.040064E-04 -6.151099E-05 -6.006394E-06 +9.124137E-05 -6.006394E-06 +5.019258E-03 
 -3.692119E-04 +2.302556E-05 +8.076479E-06 +2.302556E-05 +5.465277E-05 +3.732422E-06 +8.076479E-06 +3.732422E-06 +5.036822E-03 
 -4.503263E-04 -2.210736E-05 -1.058478E-05 -2.210736E-05 +2.540199E-04 +1.141365E-04 -1.058478E-05 +1.141365E-04 +5.043548E-03 
 -3.411473E-04 -1.795165E-04 -3.538194E-05 -1.795165E-04 +2.308421E-04 +1.980284E-04 -3.538194E-05 +1.980284E-04 +4.991963E-03 
 -2.683098E-04 -3.349172E-04 -6.591532E-05 -3.349172E-04 +1.709054E-04 +1.404220E-04 -6.591532E-05 +1.404220E-04 +4.938435E-03 
 -3.175473E-04 -2.402223E-04 -7.674869E-05 -2.402223E-04 +1.087844E-04 -6.378200E-05 -7.674869E-05 -6.378200E-05 +4.927359E-03 
 -6.485190E-06 +1.499217E-04 +8.711562E-05 +1.499217E-04 -3.610764E-05 -1.341570E-04 +8.711562E-05 -1.341570E-04 +4.991879E-03 
 +3.871419E-05 +1.784320E-04 +1.324032E-04 +1.784320E-04 -7.494422E-05 -4.108170E-05 +1.324032E-04 -4.108170E-05 +5.106868E-03 
 +1.091385E-04 +1.460881E-04 +1.842965E-04 +1.460881E-04 -9.035276E-05 +2.752262E-05 +1.842965E-04 +2.752262E-05 +5.043314E-03 
 +1.675007E-04 +1.685891E-04 +2.059810E-04 +1.685891E-04 +5.516788E-06 +6.243018E-05 +2.059810E-04 +6.243018E-05 +4.874368E-03 
 +7.410832E-05 +4.446619E-05 +1.124308E-04 +4.446619E-05 +1.055590E-04 +1.266228E-04 +1.124308E-04 +1.266228E-04 +4.877789E-03 
 -1.135082E-04 +2.443252E-04 +4.826635E-05 +2.443252E-04 +2.502815E-04 +1.787158E-04 +4.826635E-05 +1.787158E-04 +4.957116E-03 
 -1.215992E-04 +2.535243E-04 -3.966569E-06 +2.535243E-04 +2.803600E-04 +1.130208E-04 -3.966569E-06 +1.130208E-04 +4.981665E-03 
 -1.251037E-04 +2.357922E-04 -1.566298E-05 +2.357922E-04 +1.743287E-04 +3.261837E-05 -1.566298E-05 +3.261837E-05 +4.961782E-03 
 +5.315641E-05 +1.168644E-04 -5.060402E-05 +1.168644E-04 +2.304495E-04 +8.183050E-06 -5.060402E-05 +8.183050E-06 +4.916097E-03 
 +1.807596E-04 +3.176360E-05 -3.029553E-05 +3.176360E-05 +1.010376E-05 -4.428476E-05 -3.029553E-05 -4.428476E-05 +4.892240E-03 
 +4.364501E-04 -1.444144E-04 +5.104663E-05 -1.444144E-04 -2.646014E-04 -1.049042E-04 +5.104663E-05 -1.049042E-04 +4.930937E-03 
 +5.020052E-04 -2.891796E-04 +5.215003E-05 -2.891796E-04 -2.607066E-04 -2.521883E-05 +5.215003E-05 -2.521883E-05 +5.000404E-03 
 +4.534692E-04 -3.229575E-04 +4.003128E-05 -3.229575E-04 -2.331271E-04 +8.407624E-05 +4.003128E-05 +8.407624E-05 +4.940138E-03 
 +6.154481E-05 -1.505917E-04 -6.036465E-06 -1.505917E-04 +1.553430E-04 +1.349665E-04 -6.036465E-06 +1.349665E-04 +4.861680E-03 
 -1.291470E-05 +1.091367E-04 +1.450870E-05 +1.091367E-04 +3.287587E-04 +8.563254E-05 +1.450870E-05 +8.563254E-05 +4.809439E-03 
 -8.175860E-05 -5.245629E-06 -9.463016E-06 -5.245629E-06 +2.262112E-04 -1.932657E-05 -9.463016E-06 -1.932657E-05 +4.837894E-03 
 -3.429461E-04 -5.228380E-05 -1.002595E-04 -5.228380E-05 +2.137139E-04 +1.682644E-05 -1.002595E-04 +1.682644E-05 +4.940171E-03 
 -4.312628E-04 -4.173622E-05 -1.078966E-04 -4.173622E-05 +1.855835E-04 +1.199794E-04 -1.078966E-04 +1.199794E-04 +5.002377E-03 
 -2.998162E-04 -2.545675E-04 -9.407905E-05 -2.545675E-04 +6.380112E-05 +1.220266E-04 -9.407905E-05 +1.220266E-04 +4.995825E-03 
 -2.748758E-04 -2.421557E-04 -1.209968E-04 -2.421557E-04 +1.517760E-05 +2.146948E-07 -1.209968E-04 +2.146948E-07 +4.998553E-03 
 -1.114015E-04 -2.440411E-04 -7.977247E-05 -2.440411E-04 +1.182601E-04 -1.230213E-04 -7.977247E-05 -1.230213E-04 +4.897633E-03 
 +1.665564E-04 +7.348817E-05 +2.216520E-05 +7.348817E-05 +1.352418E-04 -1.108542E-04 +2.216520E-05 -1.108542E-04 +4.800707E-03 
 +1.036221E-04 +9.191705E-05 +1.003951E-04 +9.191705E-05 +2.361478E-05 -1.815979E-05 +1.003951E-04 -1.815979E-05 +4.911706E-03 
 +1.366764E-04 +1.173726E-04 +2.085004E-04 +1.173726E-04 -9.997568E-06 +7.967043E-06 +2.085004E-04 +7.967043E-06 +4.948033E-03 
 +2.356295E-04 +1.657304E-04 +2.570989E-04 +1.657304E-04 +1.172185E-05 +9.372385E-06 +2.570989E-04 +9.372385E-06 +4.756490E-03 
 +3.556123E-04 +7.560902E-05 +1.582283E-04 +7.560902E-05 +2.277936E-04 +5.744411E-05 +1.582283E-04 +5.744411E-05 +4.699407E-03 
 -7.897045E-05 +2.447062E-04 +1.481102E-04 +2.447062E-04 +3.599883E-04 +1.267799E-04 +1.481102E-04 +1.267799E-04 +4.914286E-03 
 -1.941567E-04 +2.473241E-04 +6.853156E-05 +2.473241E-04 +2.418167E-04 +1.442787E-04 +6.853156E-05 +1.442787E-04 +5.030799E-03 
 -9.297147E-05 +1.992559E-04 +7.960627E-05 +1.992559E-04 +2.298379E-04 +9.814576E-05 +7.960627E-05 +9.814576E-05 +4.973653E-03 
 -1.400699E-04 +1.413022E-04 +6.124330E-05 +1.413022E-04 +2.836355E-04 +3.798308E-05 +6.124330E-05 +3.798308E-05 +4.930500E-03 
 -8.979780E-05 +8.357409E-05 +5.368788E-05 +8.357409E-05 +2.571690E-04 -4.417725E-05 +5.368788E-05 -4.417725E-05 +4.913681E-03 
 +6.642028E-05 +7.648300E-05 +7.367804E-05 +7.648300E-05 +1.556959E-04 -9.364549E-05 +7.367804E-05 -9.364549E-05 +4.934524E-03 
 +5.711503E-04 -3.412821E-04 +4.909127E-05 -3.412821E-04 -1.365903E-04 -1.257702E-05 +4.909127E-05 -1.257702E-05 +4.966622E-03 
 +1.649986E-04 -2.706431E-04 +1.312167E-05 -2.706431E-04 +2.022464E-05 +2.259003E-04 +1.312167E-05 +2.259003E-04 +4.733305E-03 
 +5.333216E-05 -7.289578E-05 -5.496502E-05 -7.289578E-05 +2.949247E-04 +2.915803E-04 -5.496502E-05 +2.915803E-04 +4.491313E-03 
 -3.688045E-05 +7.011978E-05 -2.929530E-05 +7.011978E-05 +3.938256E-04 +1.682253E-04 -2.929530E-05 +1.682253E-04 +4.450693E-03 
 -4.571145E-05 -1.835898E-05 -7.578327E-05 -1.835898E-05 +3.090886E-04 +7.675419E-05 -7.578327E-05 +7.675419E-05 +4.605089E-03 
 -3.595959E-04 -1.279776E-04 -1.798282E-04 -1.279776E-04 +1.579142E-04 +1.605067E-04 -1.798282E-04 +1.605067E-04 +4.887622E-03 
 -3.482790E-04 -2.269769E-04 -1.247299E-04 -2.269769E-04 -4.959566E-05 +1.568852E-04 -1.247299E-04 +1.568852E-04 +4.981005E-03 
 -1.980352E-04 -3.695849E-04 -1.076543E-04 -3.695849E-04 -7.083005E-05 +5.679137E-05 -1.076543E-04 +5.679137E-05 +4.963291E-03 
 -1.236590E-04 -2.484367E-04 -1.280224E-04 -2.484367E-04 +3.840901E-05 +7.060880E-06 -1.280224E-04 +7.060880E-06 +4.957956E-03 
 +5.134578E-05 -6.640835E-05 -5.916641E-05 -6.640835E-05 +2.416048E-04 -2.884143E-05 -5.916641E-05 -2.884143E-05 +4.778404E-03 
 +2.179705E-04 +2.808996E-05 -1.790376E-05 +2.808996E-05 +3.338720E-04 -5.746993E-05 -1.790376E-05 -5.746993E-05 +4.634723E-03 
 +1.370084E-04 +3.993957E-05 +7.070526E-05 +3.993957E-05 +2.708844E-04 -2.748707E-05 +7.070526E-05 -2.748707E-05 +4.654009E-03 
 +1.549302E-04 +4.275671E-05 +1.521355E-04 +4.275671E-05 +2.593503E-04 -6.282664E-06 +1.521355E-04 -6.282664E-06 +4.666484E-03 
 +2.420746E-04 +8.905671E-05 +1.810221E-04 +8.905671E-05 +2.555619E-04 +2.716647E-06 +1.810221E-04 +2.716647E-06 +4.597593E-03 
 +3.190248E-04 -9.654089E-05 +1.504382E-04 -9.654089E-05 +2.342511E-04 -1.542413E-05 +1.504382E-04 -1.542413E-05 +4.659537E-03 
 +1.784363E-04 -1.821405E-04 +1.840502E-04 -1.821405E-04 +1.171646E-04 -2.370732E-05 +1.840502E-04 -2.370732E-05 +4.945186E-03 
 -9.115981E-05 +1.115034E-05 +1.300118E-04 +1.115034E-05 +1.093997E-04 +6.599612E-05 +1.300118E-04 +6.599612E-05 +5.083639E-03 
 -1.244043E-04 +1.681117E-04 +1.566492E-04 +1.681117E-04 +2.325092E-04 +1.165144E-04 +1.566492E-04 +1.165144E-04 +5.043136E-03 
 -4.569233E-05 +1.517757E-04 +1.422098E-04 +1.517757E-04 +2.805191E-04 +6.965155E-05 +1.422098E-04 +6.965155E-05 +5.017604E-03 
 -9.599466E-05 +1.266337E-04 +9.658573E-05 +1.266337E-04 +3.146538E-04 +8.812467E-06 +9.658573E-05 +8.812467E-06 +4.993640E-03 
 -2.447764E-04 +1.483346E-04 +9.464665E-05 +1.483346E-04 +1.938478E-04 -6.086913E-05 +9.464665E-05 -6.086913E-05 +5.006062E-03 
 +1.948385E-04 -3.386924E-04 +7.142337E-05 -3.386924E-04 -4.918137E-05 +3.359589E-05 +7.142337E-05 +3.359589E-05 +4.976611E-03 
 -1.362072E-04 +4.545754E-05 -5.922194E-05 +4.545754E-05 +4.782285E-04 +2.633817E-04 -5.922194E-05 +2.633817E-04 +4.616562E-03 
 +4.868461E-05 +1.514503E-04 -6.339470E-05 +1.514503E-04 +5.314376E-04 +2.772723E-04 -6.339470E-05 +2.772723E-04 +4.389385E-03 
 +7.315481E-05 +1.718147E-04 +1.466763E-06 +1.718147E-04 +4.114877E-04 +1.796302E-04 +1.466763E-06 +1.796302E-04 +4.491377E-03 
 -4.980250E-05 +9.648203E-05 -1.019354E-05 +9.648203E-05 +3.028488E-04 +1.247767E-04 -1.019354E-05 +1.247767E-04 +4.740535E-03 
 -3.551580E-04 +8.400550E-06 -5.844994E-05 +8.400550E-06 +1.583359E-04 +1.698423E-04 -5.844994E-05 +1.698423E-04 +4.943324E-03 
 -2.854015E-04 -6.159025E-06 -1.006611E-05 -6.159025E-06 +2.794516E-05 +1.500857E-04 -1.006611E-05 +1.500857E-04 +4.953752E-03 
 +1.386576E-05 +3.087509E-05 -1.423282E-04 +3.087509E-05 -2.284192E-05 +1.150390E-04 -1.423282E-04 +1.150390E-04 +4.874205E-03 
 +5.389670E-05 +8.999992E-05 -9.128478E-05 +8.999992E-05 -4.089880E-05 +6.908413E-05 -9.128478E-05 +6.908413E-05 +4.858588E-03 
 +1.051883E-05 +2.430243E-04 -2.036953E-05 +2.430243E-04 +4.554910E-05 -2.751778E-05 -2.036953E-05 -2.751778E-05 +4.799436E-03 
 +1.111602E-04 +6.888565E-05 -3.281904E-06 +6.888565E-05 +3.054934E-04 -2.889755E-05 -3.281904E-06 -2.889755E-05 +4.687200E-03 
 +1.474899E-04 +1.103511E-06 +4.618494E-05 +1.103511E-06 +3.917274E-04 +8.440606E-06 +4.618494E-05 +8.440606E-06 +4.638441E-03 
 +1.333982E-04 +2.469244E-05 +1.106414E-04 +2.469244E-05 +3.646311E-04 +5.683530E-06 +1.106414E-04 +5.683530E-06 +4.599557E-03 
 +1.672369E-04 -3.645959E-06 +1.017605E-04 -3.645959E-06 +2.932927E-04 -1.224807E-05 +1.017605E-04 -1.224807E-05 +4.666419E-03 
 +1.308892E-04 -2.065175E-04 +1.952064E-04 -2.065175E-04 +3.755855E-05 -5.339064E-05 +1.952064E-04 -5.339064E-05 +4.898623E-03 
 +1.864698E-04 -3.413567E-04 +2.192211E-04 -3.413567E-04 -1.422551E-04 -4.441184E-05 +2.192211E-04 -4.441184E-05 +5.047394E-03 
 +8.190206E-05 -2.811256E-04 +1.410953E-04 -2.811256E-04 -2.026851E-04 +1.084793E-05 +1.410953E-04 +1.084793E-05 +5.076646E-03 
 -5.863472E-05 -1.765910E-04 +1.656572E-04 -1.765910E-04 -1.986351E-04 +3.691723E-05 +1.656572E-04 +3.691723E-05 +5.108473E-03 
 -1.928199E-05 -3.541568E-04 +1.153018E-04 -3.541568E-04 -2.407602E-04 +6.896537E-05 +1.153018E-04 +6.896537E-05 +5.132952E-03 
 -4.003873E-05 -3.590526E-04 +5.416955E-05 -3.590526E-04 -3.318586E-04 +7.349991E-05 +5.416955E-05 +7.349991E-05 +5.107432E-03 
 -8.763707E-05 -3.138266E-04 +3.571636E-05 -3.138266E-04 -3.523447E-04 -1.484466E-05 +3.571636E-05 -1.484466E-05 +5.059836E-03 
 -1.265526E-04 -2.895527E-04 +2.556012E-05 -2.895527E-04 -2.710052E-06 +7.948611E-05 +2.556012E-05 +7.948611E-05 +4.951702E-03 
 -5.621558E-05 +6.634705E-06 -8.351577E-05 +6.634705E-06 +3.769227E-04 +2.124793E-04 -8.351577E-05 +2.124793E-04 +4.632175E-03 
 +2.893995E-05 +9.659235E-05 -6.687553E-05 +9.659235E-05 +4.061822E-04 +1.700978E-04 -6.687553E-05 +1.700978E-04 +4.453514E-03 
 +2.334353E-04 +2.231459E-04 +3.790021E-06 +2.231459E-04 +3.076293E-04 +1.491109E-04 +3.790021E-06 +1.491109E-04 +4.632656E-03 
 -1.230570E-04 +7.553307E-05 +8.183498E-06 +7.553307E-05 +2.025330E-04 +1.399658E-04 +8.183498E-06 +1.399658E-04 +4.857745E-03 
 -2.189074E-04 -3.498851E-05 +5.413878E-06 -3.498851E-05 +7.175255E-05 +1.014757E-04 +5.413878E-06 +1.014757E-04 +4.889648E-03 
 -1.550195E-04 +1.709544E-05 +4.223443E-05 +1.709544E-05 +7.322938E-06 +7.045060E-05 +4.223443E-05 +7.045060E-05 +4.878224E-03 
 +1.642236E-04 +1.763255E-05 -1.579294E-04 +1.763255E-05 -1.949939E-05 +1.132617E-04 -1.579294E-04 +1.132617E-04 +4.825502E-03 
 +9.854471E-05 +2.584733E-05 -8.283777E-05 +2.584733E-05 +6.599423E-06 +7.389504E-05 -8.283777E-05 +7.389504E-05 +4.816018E-03 
 -9.037415E-05 +2.599423E-04 +1.640706E-05 +2.599423E-04 -4.512486E-06 -6.016267E-05 +1.640706E-05 -6.016267E-05 +4.859849E-03 
 -9.069406E-05 +2.830234E-04 +4.388691E-05 +2.830234E-04 +5.781936E-05 -4.353800E-05 +4.388691E-05 -4.353800E-05 +4.806976E-03 
 +8.276888E-05 +5.094928E-05 +2.838333E-06 +5.094928E-05 +3.175380E-04 +3.751045E-05 +2.838333E-06 +3.751045E-05 +4.732524E-03 
 +1.250282E-04 -6.495554E-06 +1.970503E-05 -6.495554E-06 +3.764521E-04 +1.864918E-05 +1.970503E-05 +1.864918E-05 +4.687658E-03 
 +1.066364E-04 -7.881925E-05 +9.265214E-05 -7.881925E-05 +1.930545E-04 -2.315743E-05 +9.265214E-05 -2.315743E-05 +4.835867E-03 
 +4.257615E-05 -2.683646E-04 +2.313498E-04 -2.683646E-04 +9.297465E-06 -3.632136E-05 +2.313498E-04 -3.632136E-05 +5.079574E-03 
 +2.938365E-05 -2.561085E-04 +2.400829E-04 -2.561085E-04 -9.132945E-05 +2.106667E-06 +2.400829E-04 +2.106667E-06 +5.104052E-03 
 +3.706790E-05 -1.921431E-04 +1.611140E-04 -1.921431E-04 -1.547295E-04 +4.071646E-05 +1.611140E-04 +4.071646E-05 +5.068719E-03 
 -1.146698E-05 -1.158182E-04 +1.441846E-04 -1.158182E-04 -2.785538E-04 +4.974378E-06 +1.441846E-04 +4.974378E-06 +5.113641E-03 
 -3.854545E-05 -2.380098E-04 +3.571603E-06 -2.380098E-04 -3.072462E-04 +4.437751E-05 +3.571603E-06 +4.437751E-05 +5.163578E-03 
 -2.390608E-05 -2.816492E-04 -5.066074E-05 -2.816492E-04 -3.229432E-04 +1.223350E-04 -5.066074E-05 +1.223350E-04 +5.119632E-03 
 -4.118328E-05 -3.383860E-04 -6.708357E-05 -3.383860E-04 -2.828282E-04 +9.621127E-05 -6.708357E-05 +9.621127E-05 +5.005120E-03 
 -9.934125E-05 -2.455304E-04 -3.146837E-05 -2.455304E-04 +5.451695E-05 +1.504153E-04 -3.146837E-05 +1.504153E-04 +4.893657E-03 
 +8.064525E-05 +9.338375E-05 -4.543663E-05 +9.338375E-05 +3.597755E-04 +8.232027E-05 -4.543663E-05 +8.232027E-05 +4.681620E-03 
 +1.608215E-04 +6.961037E-05 -5.289143E-05 +6.961037E-05 +2.527531E-04 +4.073501E-05 -5.289143E-05 +4.073501E-05 +4.562612E-03 
 +3.067571E-04 +1.361812E-04 +1.632563E-05 +1.361812E-04 +1.342724E-04 +4.468960E-05 +1.632563E-05 +4.468960E-05 +4.674982E-03 
 -2.734058E-05 +1.085056E-04 -2.990710E-05 +1.085056E-04 +5.862973E-05 +5.296615E-05 -2.990710E-05 +5.296615E-05 +4.824507E-03 
 -1.441819E-04 +7.452205E-05 -4.419089E-05 +7.452205E-05 +8.439087E-05 +5.358608E-05 -4.419089E-05 +5.358608E-05 +4.924240E-03 
 -1.216220E-04 +3.773281E-05 +4.332325E-05 +3.773281E-05 +7.806100E-05 +6.755859E-05 +4.332325E-05 +6.755859E-05 +4.929469E-03 
 +1.834846E-04 -2.796257E-05 -1.346702E-04 -2.796257E-05 +5.362596E-05 +1.081236E-04 -1.346702E-04 +1.081236E-04 +4.824027E-03 
 +1.287108E-04 +1.651201E-05 -9.100273E-05 +1.651201E-05 +2.942979E-05 +8.453282E-05 -9.100273E-05 +8.453282E-05 +4.800066E-03 
 -8.426304E-05 +1.857215E-04 +9.844595E-06 +1.857215E-04 +3.119818E-05 -2.159200E-05 +9.844595E-06 -2.159200E-05 +4.861596E-03 
 -1.446736E-04 +2.961782E-04 +4.600448E-05 +2.961782E-04 -3.333362E-05 -4.148370E-05 +4.600448E-05 -4.148370E-05 +4.890287E-03 
 -6.110065E-05 +2.871060E-04 -9.035788E-07 +2.871060E-04 +4.403847E-05 +4.597957E-05 -9.035788E-07 +4.597957E-05 +4.814754E-03 
 +1.182383E-04 -5.721713E-06 -3.361367E-05 -5.721713E-06 +1.296946E-04 +6.128161E-05 -3.361367E-05 +6.128161E-05 +4.817683E-03 
 +5.439196E-05 -1.557103E-04 +1.184089E-04 -1.557103E-04 -6.427327E-05 -1.768151E-05 +1.184089E-04 -1.768151E-05 +5.026604E-03 
 -3.146185E-06 -2.373986E-04 +2.027913E-04 -2.373986E-04 -1.348849E-04 -4.483287E-05 +2.027913E-04 -4.483287E-05 +5.120499E-03 
 -2.435852E-05 -2.105374E-04 +1.942568E-04 -2.105374E-04 -7.856808E-05 -2.208664E-05 +1.942568E-04 -2.208664E-05 +5.066016E-03 
 -2.135028E-05 -1.484552E-04 +1.634646E-04 -1.484552E-04 -1.246401E-04 +9.328855E-06 +1.634646E-04 +9.328855E-06 +5.055201E-03 
 -7.053669E-06 -9.917387E-05 +1.255581E-04 -9.917387E-05 -2.545595E-04 -1.664268E-05 +1.255581E-04 -1.664268E-05 +5.073786E-03 
 -3.189092E-05 -1.429065E-04 -4.963507E-05 -1.429065E-04 -2.984079E-04 +1.717334E-05 -4.963507E-05 +1.717334E-05 +5.077319E-03 
 +3.852354E-05 -1.353204E-04 -1.138139E-04 -1.353204E-04 -8.190694E-05 +8.863209E-05 -1.138139E-04 +8.863209E-05 +5.005321E-03 
 -1.981686E-04 +1.623735E-05 -1.321177E-04 +1.623735E-05 +2.749783E-04 +2.305115E-05 -1.321177E-04 +2.305115E-05 +4.933465E-03 
 -2.025277E-04 +7.825782E-05 -2.380057E-05 +7.825782E-05 +4.465193E-04 +3.927547E-05 -2.380057E-05 +3.927547E-05 +4.869302E-03 
 +1.004105E-04 +1.440913E-04 -1.031998E-05 +1.440913E-04 +3.263898E-04 +2.315634E-06 -1.031998E-05 +2.315634E-06 +4.752570E-03 
 +2.189335E-04 +1.320622E-04 -4.165757E-05 +1.320622E-04 +2.020276E-04 -1.277699E-05 -4.165757E-05 -1.277699E-05 +4.670445E-03 
 +2.699778E-04 +1.214314E-04 -6.941107E-06 +1.214314E-04 +1.247886E-04 -3.968937E-05 -6.941107E-06 -3.968937E-05 +4.713545E-03 
 +2.105590E-04 +1.072811E-04 -5.726135E-05 +1.072811E-04 +1.127356E-04 -8.995023E-06 -5.726135E-05 -8.995023E-06 +4.763640E-03 
 -1.021793E-04 +5.242789E-05 -1.038810E-04 +5.242789E-05 +1.603936E-04 +1.257092E-04 -1.038810E-04 +1.257092E-04 +4.897587E-03 
 -1.097521E-04 +5.903796E-05 +6.160790E-05 +5.903796E-05 +1.710118E-04 +1.974741E-04 +6.160790E-05 +1.974741E-04 +4.968907E-03 
 +1.370891E-04 +3.142364E-06 -1.683099E-04 +3.142364E-06 +1.180115E-04 +1.534206E-04 -1.683099E-04 +1.534206E-04 +4.826481E-03 
 +9.997132E-05 -1.144677E-06 -1.222934E-04 -1.144677E-06 +8.555930E-05 +9.146032E-05 -1.222934E-04 +9.146032E-05 +4.775891E-03 
 -9.212534E-05 +1.471356E-04 -4.347560E-05 +1.471356E-04 +3.933447E-05 +2.129059E-05 -4.347560E-05 +2.129059E-05 +4.869985E-03 
 -1.161253E-04 +2.144631E-04 +1.427486E-06 +2.144631E-04 -2.657613E-05 -6.250416E-06 +1.427486E-06 -6.250416E-06 +4.929815E-03 
 -1.015111E-04 +3.026388E-04 +5.044162E-06 +3.026388E-04 -9.912036E-05 +5.817766E-05 +5.044162E-06 +5.817766E-05 +4.938936E-03 
 +5.244217E-05 -6.425572E-05 +1.668505E-05 -6.425572E-05 -1.962674E-04 +3.155094E-05 +1.668505E-05 +3.155094E-05 +4.981205E-03 
 +2.001076E-05 -1.718587E-04 +1.017233E-04 -1.718587E-04 -1.847709E-04 -3.041982E-05 +1.017233E-04 -3.041982E-05 +5.092566E-03 
 -2.837246E-05 -1.578370E-04 +1.503812E-04 -1.578370E-04 -8.031734E-05 -3.612766E-05 +1.503812E-04 -3.612766E-05 +5.097971E-03 
 -5.616438E-05 -1.743816E-04 +1.492322E-04 -1.743816E-04 -4.417193E-05 -4.035815E-05 +1.492322E-04 -4.035815E-05 +5.054924E-03 
 -1.944653E-05 -1.704838E-04 +1.201216E-04 -1.704838E-04 -1.429982E-04 -2.955586E-05 +1.201216E-04 -2.955586E-05 +5.037493E-03 
 -1.043262E-06 -5.803868E-05 +6.969932E-05 -5.803868E-05 -2.057412E-04 -4.557422E-05 +6.969932E-05 -4.557422E-05 +5.017030E-03 
 -9.233108E-06 +5.526282E-05 -3.158162E-05 +5.526282E-05 -7.221148E-05 -7.415670E-06 -3.158162E-05 -7.415670E-06 +5.021432E-03 
 -2.325229E-06 +6.262206E-05 -6.822479E-05 +6.262206E-05 +1.703838E-04 +2.084206E-05 -6.822479E-05 +2.084206E-05 +4.997605E-03 
 -2.116016E-04 +6.457477E-05 -9.068746E-05 +6.457477E-05 +3.427887E-04 -4.406551E-05 -9.068746E-05 -4.406551E-05 +4.984025E-03 
 -2.596189E-04 +1.161919E-04 +5.010645E-05 +1.161919E-04 +3.937031E-04 -2.373350E-05 +5.010645E-05 -2.373350E-05 +4.932806E-03 
 +1.719072E-04 +9.843856E-05 -2.661095E-05 +9.843856E-05 +1.350021E-04 +2.955674E-05 -2.661095E-05 +2.955674E-05 +4.811365E-03 
 +2.513082E-04 +1.633765E-04 -6.595198E-05 +1.633765E-04 +1.444437E-04 +4.406606E-06 -6.595198E-05 +4.406606E-06 +4.681853E-03 
 +2.417727E-04 +1.599763E-04 -9.747742E-05 +1.599763E-04 +1.269582E-04 -1.469420E-05 -9.747742E-05 -1.469420E-05 +4.684885E-03 
 +1.991465E-04 +1.503293E-04 -7.373932E-05 +1.503293E-04 +1.260383E-04 -5.584922E-05 -7.373932E-05 -5.584922E-05 +4.752353E-03 
 +5.645977E-05 +1.502011E-04 -5.563357E-05 +1.502011E-04 +1.702485E-04 -8.484833E-05 -5.563357E-05 -8.484833E-05 +4.823367E-03 
 -2.709891E-05 +1.442741E-04 +1.420570E-04 +1.442741E-04 +1.954932E-04 -1.364451E-05 +1.420570E-04 -1.364451E-05 +4.855664E-03 
 -3.226620E-05 +5.309433E-05 -1.598222E-04 +5.309433E-05 +1.961775E-04 +1.266934E-04 -1.598222E-04 +1.266934E-04 +4.879189E-03 
 -1.219604E-04 +5.372970E-05 -1.283356E-05 +5.372970E-05 +2.052630E-04 +2.017624E-04 -1.283356E-05 +2.017624E-04 +4.890363E-03 
 -5.844729E-05 -1.003014E-04 -1.383738E-04 -1.003014E-04 +1.439211E-04 +1.359866E-04 -1.383738E-04 +1.359866E-04 +4.826809E-03 
 -8.183667E-05 +9.072373E-05 -5.259478E-05 +9.072373E-05 -4.169571E-05 +6.763938E-05 -5.259478E-05 +6.763938E-05 +4.863969E-03 
 -1.336143E-05 +2.098751E-04 -3.960993E-05 +2.098751E-04 -1.991919E-04 +2.188735E-05 -3.960993E-05 +2.188735E-05 +4.966821E-03 
 +5.220430E-05 -1.529766E-04 +1.855682E-05 -1.529766E-04 -1.764736E-04 -1.542791E-05 +1.855682E-05 -1.542791E-05 +4.971515E-03 
 -7.348556E-06 -1.029340E-04 +1.435921E-05 -1.029340E-04 -9.515241E-05 -2.442852E-05 +1.435921E-05 -2.442852E-05 +4.989497E-03 
 -6.932185E-06 -1.106810E-04 +6.210104E-05 -1.106810E-04 -5.826747E-05 -4.708247E-05 +6.210104E-05 -4.708247E-05 +5.022961E-03 
 -2.751921E-05 -8.545915E-05 +8.922875E-05 -8.545915E-05 -4.204257E-05 -4.793550E-05 +8.922875E-05 -4.793550E-05 +5.031229E-03 
 +1.862452E-07 -1.032363E-04 +6.992507E-05 -1.032363E-04 -8.042151E-05 -1.778658E-05 +6.992507E-05 -1.778658E-05 +5.009813E-03 
 -2.636693E-05 +1.536443E-04 +1.934127E-05 +1.536443E-04 -2.406109E-05 +9.532807E-06 +1.934127E-05 +9.532807E-06 +5.014770E-03 
 -8.737830E-05 +1.604119E-04 -2.216595E-05 +1.604119E-04 +5.050420E-05 +2.831049E-05 -2.216595E-05 +2.831049E-05 +5.072914E-03 
 -1.371487E-04 +9.891117E-05 -2.574052E-05 +9.891117E-05 -1.227886E-05 +7.074416E-05 -2.574052E-05 +7.074416E-05 +5.141926E-03 
 -2.285638E-04 +1.413311E-04 +8.863002E-06 +1.413311E-04 -4.058675E-06 +7.451483E-05 +8.863002E-06 +7.451483E-05 +5.162092E-03 
 -1.168343E-04 +1.839685E-04 +1.535759E-04 +1.839685E-04 +7.195635E-05 +4.925920E-05 +1.535759E-04 +4.925920E-05 +5.034793E-03 
 +1.512893E-04 +1.340791E-04 -4.372185E-05 +1.340791E-04 +9.696614E-05 -3.989262E-05 -4.372185E-05 -3.989262E-05 +4.797547E-03 
 +2.215182E-04 +1.376049E-04 -6.901831E-05 +1.376049E-04 +1.664189E-04 -6.239295E-05 -6.901831E-05 -6.239295E-05 +4.667062E-03 
 +2.367945E-04 +1.404509E-04 -1.183362E-04 +1.404509E-04 +1.510293E-04 -7.687491E-05 -1.183362E-04 -7.687491E-05 +4.682853E-03 
 +2.197889E-04 +1.601576E-04 -9.772447E-05 +1.601576E-04 +9.879324E-05 -7.780723E-05 -9.772447E-05 -7.780723E-05 +4.783466E-03 
 +2.355863E-04 +1.545818E-04 -2.067293E-05 +1.545818E-04 +4.668308E-05 -4.653407E-05 -2.067293E-05 -4.653407E-05 +4.830432E-03 
 +1.891772E-04 +1.434906E-04 +1.717595E-04 +1.434906E-04 +1.329081E-04 -2.208865E-05 +1.717595E-04 -2.208865E-05 +4.909494E-03 
 -6.753737E-05 +1.071409E-04 -4.882692E-05 +1.071409E-04 +2.308738E-04 +7.422726E-05 -4.882692E-05 +7.422726E-05 +5.051522E-03 
 -2.175495E-04 +2.225733E-04 -1.927498E-05 +2.225733E-04 +2.439149E-04 +1.652395E-04 -1.927498E-05 +1.652395E-04 +5.029156E-03 
 -1.244002E-04 +1.340187E-04 -6.190970E-05 +1.340187E-04 +2.392228E-04 +1.610902E-04 -6.190970E-05 +1.610902E-04 +4.909973E-03 
 -5.031429E-05 +2.150990E-04 -3.385525E-05 +2.150990E-04 -5.626436E-06 +1.382754E-04 -3.385525E-05 +1.382754E-04 +4.937212E-03 
 -1.962581E-04 +2.885580E-04 -6.836358E-05 +2.885580E-04 -2.945375E-04 +1.011435E-04 -6.836358E-05 +1.011435E-04 +5.055995E-03 
 -5.871379E-05 -7.363113E-05 -3.256376E-05 -7.363113E-05 -2.297977E-04 +5.432737E-05 -3.256376E-05 +5.432737E-05 +5.088576E-03 
 -1.116278E-05 -8.860724E-05 -3.228623E-05 -8.860724E-05 -1.418432E-04 +3.204557E-05 -3.228623E-05 +3.204557E-05 +5.041413E-03 
 +2.878351E-05 -5.861670E-05 -6.074109E-05 -5.861670E-05 -1.577339E-04 +1.823698E-05 -6.074109E-05 +1.823698E-05 +4.986184E-03 
 +2.459102E-05 -5.401797E-05 -7.727352E-05 -5.401797E-05 -1.092021E-04 -2.087708E-05 -7.727352E-05 -2.087708E-05 +4.981658E-03 
 +2.663447E-05 -1.415088E-04 -3.637407E-05 -1.415088E-04 -2.275692E-05 -8.264540E-06 -3.637407E-05 -8.264540E-06 +4.971435E-03 
 -4.273431E-05 +1.606227E-04 -2.864490E-05 +1.606227E-04 +8.015235E-05 +3.196998E-06 -2.864490E-05 +3.196998E-06 +4.966329E-03 
 -1.150398E-04 +1.392044E-04 -2.125124E-06 +1.392044E-04 +9.162408E-05 +1.139976E-06 -2.125124E-06 +1.139976E-06 +5.025500E-03 
 -1.320656E-04 +1.118110E-04 +2.691567E-05 +1.118110E-04 +5.557282E-05 +3.297775E-06 +2.691567E-05 +3.297775E-06 +5.125235E-03 
 -2.629459E-04 +2.064443E-04 +8.168699E-07 +2.064443E-04 +2.169976E-05 -1.572159E-05 +8.168699E-07 -1.572159E-05 +5.174729E-03 
 -5.539840E-05 +2.605153E-04 +1.346598E-04 +2.605153E-04 +1.578082E-05 -2.270402E-05 +1.346598E-04 -2.270402E-05 +5.026924E-03 
 +1.184393E-04 +1.305283E-04 -6.571976E-05 +1.305283E-04 +7.324290E-05 -1.073943E-04 -6.571976E-05 -1.073943E-04 +4.823756E-03 
 +2.212878E-04 +8.758597E-05 -8.522902E-05 +8.758597E-05 +1.412050E-04 -1.360690E-04 -8.522902E-05 -1.360690E-04 +4.695186E-03 
 +2.393351E-04 +6.817859E-05 -1.266201E-04 +6.817859E-05 +1.035151E-04 -1.366634E-04 -1.266201E-04 -1.366634E-04 +4.733704E-03 
 +2.616260E-04 +5.202652E-05 -9.159657E-05 +5.202652E-05 +1.214163E-05 -9.028829E-05 -9.159657E-05 -9.028829E-05 +4.814326E-03 
 +3.324453E-04 +1.167446E-04 -5.733600E-05 +1.167446E-04 +2.443425E-05 -6.347720E-05 -5.733600E-05 -6.347720E-05 +4.849900E-03 
 +2.428942E-04 +2.452177E-05 +1.536284E-04 +2.452177E-05 +4.208656E-05 -4.498550E-05 +1.536284E-04 -4.498550E-05 +4.945856E-03 
 -8.678441E-06 -1.704030E-04 +4.762814E-05 -1.704030E-04 -6.146838E-06 +6.853207E-06 +4.762814E-05 +6.853207E-06 +5.095778E-03 
 -2.006681E-04 -3.248220E-05 +2.417067E-05 -3.248220E-05 +3.586694E-05 +3.337807E-05 +2.417067E-05 +3.337807E-05 +5.106849E-03 
 -1.037630E-04 -2.318329E-04 +1.378166E-05 -2.318329E-04 -3.791072E-05 +2.843585E-06 +1.378166E-05 +2.843585E-06 +5.030260E-03 
 -1.156568E-04 -1.885684E-04 -4.010260E-05 -1.885684E-04 -8.217957E-05 -5.819840E-05 -4.010260E-05 -5.819840E-05 +5.050535E-03 
 -4.072841E-04 -5.095385E-05 -8.779026E-05 -5.095385E-05 -1.898741E-04 -3.775075E-05 -8.779026E-05 -3.775075E-05 +5.155697E-03 
 -7.441153E-06 -2.991511E-05 -1.676665E-04 -2.991511E-05 -3.895596E-04 +1.558244E-05 -1.676665E-04 +1.558244E-05 +5.154698E-03 
 +3.422903E-05 +2.159468E-05 -1.283271E-04 +2.159468E-05 -2.690659E-04 +3.052245E-05 -1.283271E-04 +3.052245E-05 +5.033985E-03 
 +5.627612E-05 +6.665051E-05 -1.837497E-04 +6.665051E-05 -4.021291E-05 -1.152352E-05 -1.837497E-04 -1.152352E-05 +4.911006E-03 
 +8.386280E-05 +6.877143E-05 -2.045124E-04 +6.877143E-05 +9.997737E-05 -6.556195E-05 -2.045124E-04 -6.556195E-05 +4.864351E-03 
 -4.764180E-05 +7.929511E-06 -1.010841E-04 +7.929511E-06 +1.811234E-04 +2.116222E-05 -1.010841E-04 +2.116222E-05 +4.867492E-03 
 -7.214375E-06 +2.552387E-04 -6.640054E-05 +2.552387E-04 +1.716603E-04 +2.575247E-05 -6.640054E-05 +2.575247E-05 +4.873248E-03 
 -5.258950E-05 +2.294958E-04 +3.618400E-05 +2.294958E-04 +1.494520E-04 -2.150032E-05 +3.618400E-05 -2.150032E-05 +4.961302E-03 
 -1.558520E-04 +1.656712E-04 +6.264659E-05 +1.656712E-04 +8.661058E-05 +1.192057E-05 +6.264659E-05 +1.192057E-05 +5.095620E-03 
 -3.071759E-04 +2.016896E-04 +3.277178E-05 +2.016896E-04 -9.158415E-05 -2.672413E-06 +3.277178E-05 -2.672413E-06 +5.152668E-03 
 -1.764821E-04 +2.849286E-04 +1.198001E-04 +2.849286E-04 -9.387395E-05 -5.305312E-05 +1.198001E-04 -5.305312E-05 +5.040450E-03 
 +2.169926E-04 +7.083473E-05 -8.739164E-05 +7.083473E-05 +4.062829E-05 -1.505337E-04 -8.739164E-05 -1.505337E-04 +4.843786E-03 
 +2.633633E-04 +1.172793E-05 -8.979151E-05 +1.172793E-05 +8.472794E-05 -1.526044E-04 -8.979151E-05 -1.526044E-04 +4.742642E-03 
 +2.531793E-04 -1.260087E-06 -1.128101E-04 -1.260087E-06 +4.071655E-05 -1.200738E-04 -1.128101E-04 -1.200738E-04 +4.799429E-03 
 +2.684394E-04 -8.665183E-06 -8.846367E-05 -8.665183E-06 +2.511450E-05 -7.609201E-05 -8.846367E-05 -7.609201E-05 +4.814875E-03 
 +3.517433E-04 -2.838516E-06 -8.177157E-05 -2.838516E-06 -9.294332E-05 -1.884809E-05 -8.177157E-05 -1.884809E-05 +4.821939E-03 
 +1.860350E-04 -9.671790E-05 +1.185147E-04 -9.671790E-05 -2.021463E-04 -1.532353E-05 +1.185147E-04 -1.532353E-05 +4.922030E-03 
 +9.083353E-06 -1.580435E-04 +1.210556E-04 -1.580435E-04 -6.707800E-05 -1.134708E-05 +1.210556E-04 -1.134708E-05 +5.067180E-03 
 -1.041231E-04 -9.724726E-05 +7.500558E-05 -9.724726E-05 -7.355257E-05 +2.533802E-05 +7.500558E-05 +2.533802E-05 +5.144334E-03 
 -4.308424E-05 -1.839362E-04 +2.992508E-05 -1.839362E-04 -9.438486E-05 -4.423761E-06 +2.992508E-05 -4.423761E-06 +5.122299E-03 
 -2.036321E-04 -7.280517E-05 -7.317785E-05 -7.280517E-05 -7.428059E-06 -6.174748E-05 -7.317785E-05 -6.174748E-05 +5.130966E-03 
 -3.997851E-04 -8.346342E-05 -8.306317E-05 -8.346342E-05 -7.099050E-05 -5.854539E-05 -8.306317E-05 -5.854539E-05 +5.177753E-03 
 +2.590913E-06 -6.334021E-05 -2.877235E-04 -6.334021E-05 -8.102764E-05 -5.644120E-05 -2.877235E-04 -5.644120E-05 +5.039816E-03 
 +6.529510E-05 -9.295697E-06 -1.768449E-04 -9.295697E-06 +2.630609E-05 -6.905502E-05 -1.768449E-04 -6.905502E-05 +4.869237E-03 
 +1.349321E-04 -3.125608E-05 -1.744411E-04 -3.125608E-05 +7.374513E-05 -6.597896E-05 -1.744411E-04 -6.597896E-05 +4.831585E-03 
 +1.184428E-04 +6.094811E-06 -1.545078E-04 +6.094811E-06 +1.323711E-04 -1.339060E-04 -1.545078E-04 -1.339060E-04 +4.790802E-03 
 -3.500466E-05 -5.511935E-05 -9.415880E-05 -5.511935E-05 +3.004490E-04 -1.168605E-04 -9.415880E-05 -1.168605E-04 +4.746841E-03 
 +4.269376E-05 +1.279100E-04 -1.361672E-04 +1.279100E-04 +2.842116E-04 -9.584592E-05 -1.361672E-04 -9.584592E-05 +4.749050E-03 
 +5.520304E-05 +2.269230E-04 +1.214543E-04 +2.269230E-04 +2.266181E-04 -7.103678E-05 +1.214543E-04 -7.103678E-05 +4.910731E-03 
 -3.310329E-04 +4.699679E-05 +8.039527E-05 +4.699679E-05 +2.798741E-04 -1.986662E-05 +8.039527E-05 -1.986662E-05 +5.100307E-03 
 -5.161269E-04 -5.172012E-05 +5.080732E-05 -5.172012E-05 +2.919703E-04 -5.105892E-05 +5.080732E-05 -5.105892E-05 +5.137411E-03 
 -3.354011E-04 +3.924750E-05 +7.352706E-05 +3.924750E-05 +1.299348E-04 -1.030951E-04 +7.352706E-05 -1.030951E-04 +5.044959E-03 
 +3.173213E-04 +1.013508E-04 -1.457031E-05 +1.013508E-04 +1.416791E-04 -9.826853E-05 -1.457031E-05 -9.826853E-05 +4.740895E-03 
 +3.493724E-04 -3.160979E-05 -3.152507E-05 -3.160979E-05 +8.412119E-05 -8.043942E-05 -3.152507E-05 -8.043942E-05 +4.651538E-03 
 +2.980070E-04 -2.729894E-05 -8.758655E-05 -2.729894E-05 +5.529194E-05 -2.844725E-05 -8.758655E-05 -2.844725E-05 +4.713305E-03 
 +3.150334E-04 -5.645438E-06 -1.224485E-04 -5.645438E-06 +6.733388E-07 -2.312093E-06 -1.224485E-04 -2.312093E-06 +4.722670E-03 
 +3.395410E-04 +3.677957E-05 -4.606213E-05 +3.677957E-05 -5.426555E-07 +2.518270E-05 -4.606213E-05 +2.518270E-05 +4.736846E-03 
 +2.217155E-04 +6.407599E-05 +3.430327E-05 +6.407599E-05 +1.002220E-04 +2.419087E-06 +3.430327E-05 +2.419087E-06 +4.853717E-03 
 -4.161229E-06 -5.899565E-05 +1.907224E-04 -5.899565E-05 +3.846261E-05 -1.687444E-05 +1.907224E-04 -1.687444E-05 +5.038861E-03 
 -2.637252E-05 -1.110157E-04 +9.509492E-05 -1.110157E-04 -7.823515E-05 -1.072549E-06 +9.509492E-05 -1.072549E-06 +5.138343E-03 
 -9.559284E-06 -1.662165E-04 +4.430800E-05 -1.662165E-04 -4.611530E-05 -1.229799E-05 +4.430800E-05 -1.229799E-05 +5.145182E-03 
 -2.367404E-04 -1.477859E-04 -1.263116E-04 -1.477859E-04 -2.129910E-06 -2.881635E-07 -1.263116E-04 -2.881635E-07 +5.175798E-03 
 -3.712385E-04 -1.293284E-04 -6.837255E-05 -1.293284E-04 +1.491397E-05 +1.668395E-06 -6.837255E-05 +1.668395E-06 +5.185907E-03 
 -9.156832E-05 -4.268105E-05 -2.788766E-04 -4.268105E-05 -8.297048E-05 -1.432528E-05 -2.788766E-04 -1.432528E-05 +4.983985E-03 
 +1.179443E-04 +1.452960E-04 -1.643586E-04 +1.452960E-04 -1.660366E-04 -2.288999E-05 -1.643586E-04 -2.288999E-05 +4.820872E-03 
 +1.470298E-04 +8.848443E-05 -1.365390E-04 +8.848443E-05 -4.072216E-05 -4.805586E-05 -1.365390E-04 -4.805586E-05 +4.812624E-03 
 +1.107921E-04 +8.991500E-05 -1.250213E-04 +8.991500E-05 +9.948456E-05 -1.259695E-04 -1.250213E-04 -1.259695E-04 +4.772498E-03 
 +6.586725E-05 +6.669310E-05 -1.461209E-04 +6.669310E-05 +2.163895E-04 -1.738014E-04 -1.461209E-04 -1.738014E-04 +4.756302E-03 
 +7.133551E-05 +7.111792E-05 -1.559308E-04 +7.111792E-05 +2.692027E-04 -1.014800E-04 -1.559308E-04 -1.014800E-04 +4.765479E-03 
 -7.423776E-06 +1.369485E-04 +1.794998E-04 +1.369485E-04 +2.396262E-04 -4.066513E-05 +1.794998E-04 -4.066513E-05 +4.942945E-03 
 -5.376513E-04 -8.594496E-05 +6.943051E-05 -8.594496E-05 +2.875996E-04 -4.529097E-05 +6.943051E-05 -4.529097E-05 +5.180067E-03 
 -5.984113E-04 -3.607743E-05 +7.688018E-05 -3.607743E-05 +3.495720E-04 -2.551786E-05 +7.688018E-05 -2.551786E-05 +5.214366E-03 
 -4.709300E-04 +5.027484E-06 +6.493537E-05 +5.027484E-06 +2.820785E-04 -4.118645E-05 +6.493537E-05 -4.118645E-05 +5.025448E-03 
 +2.772474E-04 +2.186394E-04 +7.992210E-05 +2.186394E-04 +1.219123E-04 -4.456292E-05 +7.992210E-05 -4.456292E-05 +4.730125E-03 
 +3.489015E-04 +8.670064E-05 +1.594177E-05 +8.670064E-05 -4.219705E-05 -8.006907E-05 +1.594177E-05 -8.006907E-05 +4.652347E-03 
 +3.085243E-04 +4.556616E-05 -7.560040E-05 +4.556616E-05 -2.997424E-05 -6.249379E-05 -7.560040E-05 -6.249379E-05 +4.664358E-03 
 +3.858727E-04 +9.181977E-07 -1.834591E-04 +9.181977E-07 +5.354631E-06 +1.340564E-05 -1.834591E-04 +1.340564E-05 +4.636682E-03 
 +3.551511E-04 +5.821346E-05 -6.556497E-05 +5.821346E-05 +2.285848E-05 +5.579898E-05 -6.556497E-05 +5.579898E-05 +4.650927E-03 
 +2.550421E-04 +5.892552E-05 -2.565268E-05 +5.892552E-05 +4.225607E-05 +2.878568E-05 -2.565268E-05 +2.878568E-05 +4.788545E-03 
 +4.173235E-06 -1.404261E-04 +2.137815E-04 -1.404261E-04 +1.081261E-05 +5.258068E-06 +2.137815E-04 +5.258068E-06 +5.004955E-03 
 -4.468202E-05 -9.503243E-05 +1.066259E-04 -9.503243E-05 -2.079141E-05 -1.789072E-05 +1.066259E-04 -1.789072E-05 +5.121515E-03 
 -5.509508E-05 -1.208733E-04 +5.856851E-05 -1.208733E-04 +4.729761E-06 -3.206777E-05 +5.856851E-05 -3.206777E-05 +5.151212E-03 
 -2.781980E-04 -1.678180E-04 -1.143372E-04 -1.678180E-04 -3.336290E-05 +2.443401E-05 -1.143372E-04 +2.443401E-05 +5.203995E-03 
 -3.170268E-04 -1.873982E-04 -1.003719E-05 -1.873982E-04 -1.309872E-04 +5.865246E-05 -1.003719E-05 +5.865246E-05 +5.207220E-03 
 -5.540858E-05 -7.490569E-05 -1.855168E-04 -7.490569E-05 -5.881120E-05 +9.421323E-06 -1.855168E-04 +9.421323E-06 +4.977892E-03 
 +1.190186E-04 +8.110822E-05 -1.563818E-04 +8.110822E-05 +2.003615E-05 -5.428765E-05 -1.563818E-04 -5.428765E-05 +4.823347E-03 
 +1.075799E-04 +8.337930E-05 -1.358151E-04 +8.337930E-05 +1.897295E-05 -1.071356E-04 -1.358151E-04 -1.071356E-04 +4.812596E-03 
 +1.224123E-04 +8.404370E-05 -1.532594E-04 +8.404370E-05 +8.736193E-05 -1.407962E-04 -1.532594E-04 -1.407962E-04 +4.773814E-03 
 +1.039467E-04 +4.805023E-05 -1.747895E-04 +4.805023E-05 +1.456893E-04 -1.345727E-04 -1.747895E-04 -1.345727E-04 +4.779651E-03 
 +9.958044E-06 +2.185912E-05 -1.772241E-04 +2.185912E-05 +3.448409E-04 -8.547168E-05 -1.772241E-04 -8.547168E-05 +4.749632E-03 
 -1.543095E-04 +1.565208E-05 +5.809575E-05 +1.565208E-05 +4.483643E-04 -8.149933E-05 +5.809575E-05 -8.149933E-05 +4.887321E-03 
 -5.558888E-04 -1.121416E-04 +4.966846E-05 -1.121416E-04 +2.500552E-04 -5.061008E-05 +4.966846E-05 -5.061008E-05 +5.162324E-03 
 -5.121077E-04 +4.588995E-05 +9.611079E-05 +4.588995E-05 +2.216937E-04 -1.465008E-05 +9.611079E-05 -1.465008E-05 +5.237014E-03 
 -4.251899E-04 +6.051056E-05 +7.257372E-05 +6.051056E-05 +2.803525E-04 -1.810478E-05 +7.257372E-05 -1.810478E-05 +5.018441E-03 
 +1.342986E-04 +4.495123E-04 +1.040029E-04 +4.495123E-04 -2.913530E-04 +2.146508E-05 +1.040029E-04 +2.146508E-05 +5.007872E-03 
 +1.127387E-04 +3.599536E-04 +2.319439E-05 +3.599536E-04 -5.056138E-04 +1.933020E-05 +2.319439E-05 +1.933020E-05 +5.025709E-03 
 +4.370042E-05 +2.296119E-04 -6.410965E-05 +2.296119E-04 -4.342118E-04 +7.593068E-06 -6.410965E-05 +7.593068E-06 +4.933677E-03 
 +3.958753E-04 +6.984520E-05 -2.221675E-04 +6.984520E-05 -1.681957E-04 +3.092024E-05 -2.221675E-04 +3.092024E-05 +4.698128E-03 
 +3.774831E-04 +1.010854E-04 -1.333363E-04 +1.010854E-04 +8.504999E-05 +4.217186E-05 -1.333363E-04 +4.217186E-05 +4.612665E-03 
 +2.676969E-04 +3.167491E-05 -5.655584E-06 +3.167491E-05 +8.482920E-05 +3.629345E-05 -5.655584E-06 +3.629345E-05 +4.764350E-03 
 +4.139408E-05 -1.839842E-04 +1.655418E-04 -1.839842E-04 -2.416733E-05 +1.243645E-05 +1.655418E-04 +1.243645E-05 +4.983052E-03 
 -4.224635E-05 -8.738210E-05 +1.101680E-04 -8.738210E-05 -2.360656E-05 -5.454642E-05 +1.101680E-04 -5.454642E-05 +5.115804E-03 
 -7.141314E-05 -9.621859E-05 +9.812286E-05 -9.621859E-05 +4.288891E-06 -7.629927E-05 +9.812286E-05 -7.629927E-05 +5.164889E-03 
 -2.704117E-04 -1.272476E-04 -2.861144E-05 -1.272476E-04 +1.294873E-05 -4.789034E-05 -2.861144E-05 -4.789034E-05 +5.198789E-03 
 -3.489197E-04 -1.075318E-04 +7.204230E-05 -1.075318E-04 +2.966201E-05 -4.910742E-05 +7.204230E-05 -4.910742E-05 +5.174151E-03 
 -5.638892E-05 -2.882339E-06 -8.016340E-05 -2.882339E-06 +2.042692E-05 -7.194130E-05 -8.016340E-05 -7.194130E-05 +4.968470E-03 
 +6.865774E-05 +6.574168E-05 -1.319118E-04 +6.574168E-05 -7.922517E-06 -8.765527E-05 -1.319118E-04 -8.765527E-05 +4.829211E-03 
 +1.073771E-04 +1.205019E-04 -1.449328E-04 +1.205019E-04 +5.385896E-07 -1.281947E-04 -1.449328E-04 -1.281947E-04 +4.834217E-03 
 +1.072138E-04 +9.747415E-05 -1.538571E-04 +9.747415E-05 +2.913398E-05 -1.429663E-04 -1.538571E-04 -1.429663E-04 +4.800905E-03 
 +3.739747E-05 +4.300763E-05 -1.510419E-04 +4.300763E-05 +1.086710E-04 -1.283756E-04 -1.510419E-04 -1.283756E-04 +4.754944E-03 
 -3.264788E-05 +1.704540E-05 -1.560676E-04 +1.704540E-05 +6.454176E-05 -5.210367E-05 -1.560676E-04 -5.210367E-05 +4.773231E-03 
 -8.148563E-05 +1.559562E-05 -4.478237E-05 +1.559562E-05 -5.393559E-05 +7.252814E-05 -4.478237E-05 +7.252814E-05 +4.894017E-03 
 -3.592469E-04 -1.997523E-06 -1.668178E-05 -1.997523E-06 -4.335628E-05 +1.198332E-04 -1.668178E-05 +1.198332E-04 +5.059300E-03 
 -3.199483E-04 +3.729984E-04 -2.044184E-05 +3.729984E-04 -8.118621E-05 +2.219727E-05 -2.044184E-05 +2.219727E-05 +5.143871E-03 
 -1.111913E-04 +4.635680E-04 -1.307789E-05 +4.635680E-04 -1.092935E-04 -1.557176E-05 -1.307789E-05 -1.557176E-05 +5.070804E-03 
 -1.075555E-04 +7.258636E-05 +5.759697E-05 +7.258636E-05 -1.123930E-04 +1.069811E-04 +5.759697E-05 +1.069811E-04 +5.180659E-03 
 -1.879708E-04 +1.595752E-04 -1.727916E-05 +1.595752E-04 -1.542710E-04 +1.527427E-04 -1.727916E-05 +1.527427E-04 +5.278095E-03 
 -2.396091E-04 +1.492860E-04 -6.026511E-05 +1.492860E-04 -1.977371E-04 +1.175970E-04 -6.026511E-05 +1.175970E-04 +5.155569E-03 
 +2.532217E-04 +1.567363E-04 -1.736969E-04 +1.567363E-04 -2.333385E-04 +2.742391E-05 -1.736969E-04 +2.742391E-05 +4.817572E-03 
 +4.387672E-04 +7.278511E-05 -2.031810E-04 +7.278511E-05 -1.191682E-04 +9.363836E-07 -2.031810E-04 +9.363836E-07 +4.649413E-03 
 +2.429598E-04 -1.727465E-04 +6.671632E-05 -1.727465E-04 -1.628912E-04 +2.192609E-05 +6.671632E-05 +2.192609E-05 +4.772110E-03 
 +1.045576E-04 -2.374320E-04 +1.341672E-04 -2.374320E-04 -1.515499E-04 -1.008435E-05 +1.341672E-04 -1.008435E-05 +4.948930E-03 
 +4.361933E-05 -1.290980E-04 +1.459127E-04 -1.290980E-04 -6.189490E-05 -9.199848E-05 +1.459127E-04 -9.199848E-05 +5.067539E-03 
 +1.267149E-05 -4.537387E-05 +1.439161E-04 -4.537387E-05 -3.230811E-05 -1.402992E-04 +1.439161E-04 -1.402992E-04 +5.119460E-03 
 -2.110299E-04 -5.603290E-05 +8.962105E-05 -5.603290E-05 +5.523731E-05 -1.174863E-04 +8.962105E-05 -1.174863E-04 +5.129124E-03 
 -4.030712E-04 -9.089630E-05 +1.646036E-04 -9.089630E-05 +4.687724E-05 -1.080960E-04 +1.646036E-04 -1.080960E-04 +5.114609E-03 
 -9.786294E-05 +6.264297E-05 -5.479391E-05 +6.264297E-05 +5.592660E-06 -1.559982E-04 -5.479391E-05 -1.559982E-04 +4.982505E-03 
 +1.611832E-05 +1.202127E-04 -1.020346E-04 +1.202127E-04 -1.344242E-05 -1.911914E-04 -1.020346E-04 -1.911914E-04 +4.880803E-03 
 +4.985228E-05 +1.481822E-04 -5.013378E-05 +1.481822E-04 -6.928668E-05 -1.911915E-04 -5.013378E-05 -1.911915E-04 +4.858140E-03 
 +6.321633E-05 +1.368126E-04 -3.132311E-05 +1.368126E-04 -6.186630E-05 -1.093509E-04 -3.132311E-05 -1.093509E-04 +4.789577E-03 
 -2.299221E-05 +1.173900E-04 -1.089990E-04 +1.173900E-04 -2.845490E-05 -1.046131E-05 -1.089990E-04 -1.046131E-05 +4.825096E-03 
 -4.564825E-05 -6.414384E-05 -7.179585E-05 -6.414384E-05 -1.793488E-04 +7.625236E-05 -7.179585E-05 +7.625236E-05 +4.936618E-03 
 -2.179721E-05 -1.214263E-05 -8.280815E-05 -1.214263E-05 -3.323971E-04 +9.793279E-05 -8.280815E-05 +9.793279E-05 +4.944714E-03 
 -3.380772E-05 -5.031470E-05 -9.718815E-05 -5.031470E-05 -2.781549E-04 +4.512467E-05 -9.718815E-05 +4.512467E-05 +4.934034E-03 
 +1.420623E-05 +2.321176E-04 -1.311566E-04 +2.321176E-04 -2.555194E-04 -4.895834E-05 -1.311566E-04 -4.895834E-05 +5.022133E-03 
 +1.320606E-04 +3.814049E-04 -8.046776E-05 +3.814049E-04 -1.633974E-04 -1.421377E-05 -8.046776E-05 -1.421377E-05 +5.091364E-03 
 -3.129882E-04 -6.014147E-05 +3.665422E-05 -6.014147E-05 -8.442559E-05 +4.368620E-05 +3.665422E-05 +4.368620E-05 +5.157629E-03 
 -3.428523E-04 +8.776632E-05 -1.197197E-05 +8.776632E-05 -3.614892E-05 +1.122937E-04 -1.197197E-05 +1.122937E-04 +5.299301E-03 
 -2.631610E-04 +1.012448E-04 -2.765660E-05 +1.012448E-04 -9.565732E-05 +1.841958E-04 -2.765660E-05 +1.841958E-04 +5.291883E-03 
 -1.725473E-05 +1.375381E-04 -7.722865E-05 +1.375381E-04 -2.232134E-04 +1.770489E-04 -7.722865E-05 +1.770489E-04 +5.059722E-03 
 +4.439536E-04 +1.228372E-04 -2.422729E-04 +1.228372E-04 -2.853603E-04 +9.925253E-05 -2.422729E-04 +9.925253E-05 +4.769246E-03 
 +2.699858E-04 -2.082302E-04 +2.524690E-05 -2.082302E-04 -2.052884E-04 +5.006720E-05 +2.524690E-05 +5.006720E-05 +4.795401E-03 
 +2.300611E-04 -1.353587E-04 +1.394984E-04 -1.353587E-04 -1.825026E-04 -1.876819E-05 +1.394984E-04 -1.876819E-05 +4.927466E-03 
 +1.296895E-04 -1.060859E-04 +1.756203E-04 -1.060859E-04 -1.600969E-04 -1.065970E-04 +1.756203E-04 -1.065970E-04 +4.989091E-03 
 +7.196437E-05 -3.932315E-05 +1.237461E-04 -3.932315E-05 -6.641072E-05 -1.692181E-04 +1.237461E-04 -1.692181E-04 +5.040837E-03 
 -1.023602E-04 -7.302673E-05 +9.425452E-05 -7.302673E-05 +7.645838E-05 -1.562803E-04 +9.425452E-05 -1.562803E-04 +5.075275E-03 
 -3.971984E-04 -1.556400E-04 +1.157687E-04 -1.556400E-04 +5.921458E-05 -1.695812E-04 +1.157687E-04 -1.695812E-04 +5.092149E-03 
 -1.595153E-04 +7.215262E-05 -7.074789E-05 +7.215262E-05 +2.612875E-05 -1.646731E-04 -7.074789E-05 -1.646731E-04 +4.956212E-03 
 -5.522632E-05 +8.683821E-05 -1.762424E-05 +8.683821E-05 +1.051758E-04 -3.328792E-05 -1.762424E-05 -3.328792E-05 +4.810951E-03 
 -3.954216E-05 +7.973591E-05 +3.869731E-05 +7.973591E-05 +7.910191E-05 +7.435711E-05 +3.869731E-05 +7.435711E-05 +4.739996E-03 
 -4.366843E-05 +8.835801E-05 +6.019352E-05 +8.835801E-05 -8.595590E-06 +1.397137E-04 +6.019352E-05 +1.397137E-04 +4.722233E-03 
 +8.642570E-06 -2.729340E-05 -4.875013E-06 -2.729340E-05 -1.926904E-04 +1.760938E-04 -4.875013E-06 +1.760938E-04 +4.873787E-03 
 -1.326287E-05 -4.207588E-05 -6.223266E-05 -4.207588E-05 -1.511644E-04 +1.284743E-04 -6.223266E-05 +1.284743E-04 +4.894066E-03 
 +2.563303E-05 +9.842803E-05 -1.702011E-04 +9.842803E-05 +1.048237E-04 +6.681897E-05 -1.702011E-04 +6.681897E-05 +4.793287E-03 
 +1.196546E-04 +3.666156E-05 -1.509767E-04 +3.666156E-05 +1.639295E-04 +1.696970E-05 -1.509767E-04 +1.696970E-05 +4.741631E-03 
 +2.086332E-04 +3.349281E-05 -9.206172E-05 +3.349281E-05 -1.407788E-05 -8.659926E-05 -9.206172E-05 -8.659926E-05 +4.786619E-03 
 +2.386217E-04 +2.858074E-04 -3.562662E-05 +2.858074E-04 -1.855744E-04 -8.186509E-05 -3.562662E-05 -8.186509E-05 +4.948578E-03 
 -3.163425E-04 -8.345795E-05 +8.553526E-05 -8.345795E-05 -9.414732E-05 -3.564775E-05 +8.553526E-05 -3.564775E-05 +5.138531E-03 
 -3.622881E-04 +3.265839E-05 +3.472015E-05 +3.265839E-05 -7.856233E-05 +3.007267E-05 +3.472015E-05 +3.007267E-05 +5.274917E-03 
 -2.377904E-04 +1.322753E-04 +1.562979E-05 +1.322753E-04 -8.967507E-05 +1.293467E-04 +1.562979E-05 +1.293467E-04 +5.385042E-03 
 -1.950275E-04 +1.345188E-04 +9.490854E-06 +1.345188E-04 -8.914723E-05 +1.628430E-04 +9.490854E-06 +1.628430E-04 +5.217557E-03 
 +4.830697E-04 +2.146615E-04 -4.075874E-05 +2.146615E-04 -3.194215E-04 +6.772209E-05 -4.075874E-05 +6.772209E-05 +4.895804E-03 
 +3.901192E-04 +7.788763E-07 +2.966864E-05 +7.788763E-07 -5.383270E-04 +2.418924E-05 +2.966864E-05 +2.418924E-05 +4.912259E-03 
 +2.362027E-04 +7.791372E-05 +1.140729E-04 +7.791372E-05 -4.513552E-04 +2.179617E-06 +1.140729E-04 +2.179617E-06 +5.001183E-03 
 +1.092840E-04 +1.449276E-06 +1.296408E-04 +1.449276E-06 -2.757143E-04 -5.520988E-05 +1.296408E-04 -5.520988E-05 +4.996567E-03 
 +1.020706E-04 +5.258617E-05 +5.152672E-05 +5.258617E-05 -2.559081E-04 -1.095914E-04 +5.152672E-05 -1.095914E-04 +5.027547E-03 
 +2.723450E-06 +6.467598E-05 -1.254291E-05 +6.467598E-05 -2.436796E-04 -1.246267E-04 -1.254291E-05 -1.246267E-04 +5.085088E-03 
 -4.492038E-04 -1.258952E-04 -4.488332E-05 -1.258952E-04 +1.298575E-05 -6.910173E-05 -4.488332E-05 -6.910173E-05 +5.064374E-03 
 -2.311243E-04 +4.093720E-05 -6.571303E-05 +4.093720E-05 +1.786406E-04 +3.244595E-05 -6.571303E-05 +3.244595E-05 +4.903414E-03 
 -1.414305E-04 +5.069669E-05 -4.162409E-05 +5.069669E-05 +1.214028E-04 +1.143315E-04 -4.162409E-05 +1.143315E-04 +4.786480E-03 
 -9.209002E-05 +3.336813E-05 -7.336578E-05 +3.336813E-05 +1.277586E-04 +1.737881E-04 -7.336578E-05 +1.737881E-04 +4.737268E-03 
 -1.061687E-04 +4.536828E-05 -6.787427E-05 +4.536828E-05 +4.708724E-05 +1.852679E-04 -6.787427E-05 +1.852679E-04 +4.756521E-03 
 -4.698122E-05 -5.476169E-05 -7.793436E-06 -5.476169E-05 -1.987550E-05 +1.561881E-04 -7.793436E-06 +1.561881E-04 +4.814402E-03 
 +9.968431E-05 +9.641307E-05 -1.237471E-04 +9.641307E-05 +1.999329E-04 +1.241738E-04 -1.237471E-04 +1.241738E-04 +4.748713E-03 
 +1.483876E-04 +2.052860E-05 -1.734297E-04 +2.052860E-05 +2.535426E-04 +1.015430E-04 -1.734297E-04 +1.015430E-04 +4.674293E-03 
 +1.951485E-04 +1.627306E-05 -1.601003E-04 +1.627306E-05 +1.523810E-04 +6.300415E-05 -1.601003E-04 +6.300415E-05 +4.678103E-03 
 +1.985681E-04 -7.723771E-05 -4.461021E-05 -7.723771E-05 +1.580623E-04 -1.377494E-05 -4.461021E-05 -1.377494E-05 +4.760555E-03 
 +2.130531E-04 +9.656093E-05 -1.755764E-05 +9.656093E-05 -2.622312E-06 -7.943713E-05 -1.755764E-05 -7.943713E-05 +4.939919E-03 
 -2.160960E-04 -9.338580E-05 +1.270792E-05 -9.338580E-05 -1.156331E-04 -7.026589E-06 +1.270792E-05 -7.026589E-06 +5.148710E-03 
 -2.883531E-04 -5.167189E-05 -1.137062E-05 -5.167189E-05 -1.285956E-04 -6.568521E-05 -1.137062E-05 -6.568521E-05 +5.199535E-03 
 -2.006064E-04 +1.417255E-04 +3.205440E-05 +1.417255E-04 -1.349770E-04 -3.115967E-05 +3.205440E-05 -3.115967E-05 +5.280417E-03 
 -9.133208E-05 +1.232847E-04 +8.637369E-05 +1.232847E-04 -2.448761E-04 +2.356739E-05 +8.637369E-05 +2.356739E-05 +5.159932E-03 
 +4.375236E-04 +1.173132E-04 +2.022081E-04 +1.173132E-04 -5.405742E-04 +6.594643E-05 +2.022081E-04 +6.594643E-05 +4.981385E-03 
 +3.204220E-04 -2.333253E-05 +1.356188E-04 -2.333253E-05 -5.253702E-04 +3.173124E-05 +1.356188E-04 +3.173124E-05 +5.010279E-03 
 +2.172097E-04 -2.202784E-05 +4.925055E-05 -2.202784E-05 -3.374194E-04 -2.732592E-05 +4.925055E-05 -2.732592E-05 +5.040664E-03 
 +1.083367E-04 -2.229375E-05 +8.767210E-06 -2.229375E-05 -3.079295E-04 -3.161811E-05 +8.767210E-06 -3.161811E-05 +5.027025E-03 
 +8.481103E-05 -4.482212E-05 -4.022449E-05 -4.482212E-05 -2.421255E-04 -4.046402E-05 -4.022449E-05 -4.046402E-05 +5.039833E-03 
 -1.453413E-04 -1.042109E-04 -7.747056E-05 -1.042109E-04 -1.118249E-04 -7.650085E-05 -7.747056E-05 -7.650085E-05 +5.075106E-03 
 -4.180960E-04 -1.777606E-04 -9.785085E-05 -1.777606E-04 +1.270200E-04 -9.046895E-05 -9.785085E-05 -9.046895E-05 +5.042922E-03 
 -3.795169E-04 -2.137448E-04 -9.002228E-05 -2.137448E-04 +2.179593E-04 -1.007982E-04 -9.002228E-05 -1.007982E-04 +4.957800E-03 
 -1.988362E-04 -2.201587E-04 -1.154833E-04 -2.201587E-04 +1.143306E-04 -6.718943E-05 -1.154833E-04 -6.718943E-05 +4.913978E-03 
 -4.783813E-05 -1.640245E-04 -1.258543E-04 -1.640245E-04 -4.819912E-06 +8.051896E-05 -1.258543E-04 +8.051896E-05 +4.864979E-03 
 +5.897559E-06 -5.614961E-05 -1.362117E-04 -5.614961E-05 +3.979429E-05 +1.628851E-04 -1.362117E-04 +1.628851E-04 +4.845106E-03 
 -1.001575E-04 +3.106333E-05 -1.020337E-04 +3.106333E-05 +3.091186E-04 +1.433576E-04 -1.020337E-04 +1.433576E-04 +4.822503E-03 
 +2.603817E-04 +1.906950E-04 -1.829510E-04 +1.906950E-04 +3.066248E-04 +1.447922E-04 -1.829510E-04 +1.447922E-04 +4.777776E-03 
 +2.487227E-04 +6.865693E-05 -1.042459E-04 +6.865693E-05 +1.701837E-04 +1.393242E-04 -1.042459E-04 +1.393242E-04 +4.776998E-03 
 +1.917258E-04 -8.395991E-06 -1.169793E-04 -8.395991E-06 +6.040246E-05 +7.946557E-05 -1.169793E-04 +7.946557E-05 +4.883686E-03 
 +1.473316E-04 -1.396217E-04 -4.321883E-05 -1.396217E-04 -9.124194E-05 +7.415193E-05 -4.321883E-05 +7.415193E-05 +5.037641E-03 
 +6.362159E-05 -8.704067E-06 -8.477092E-05 -8.704067E-06 -1.304580E-04 +7.290660E-05 -8.477092E-05 +7.290660E-05 +5.111888E-03 
 -7.390215E-05 +6.074386E-06 -1.287697E-04 +6.074386E-06 -1.910897E-04 +1.200707E-04 -1.287697E-04 +1.200707E-04 +5.062461E-03 
 -7.290527E-05 +4.594318E-05 -1.249126E-04 +4.594318E-05 -3.035224E-04 +8.000070E-05 -1.249126E-04 +8.000070E-05 +5.092643E-03 
 -8.125020E-05 +3.914255E-04 +2.724889E-07 +3.914255E-04 -4.702673E-04 -2.858764E-05 +2.724889E-07 -2.858764E-05 +5.152406E-03 
 +6.823081E-05 +3.663920E-04 +6.958927E-05 +3.663920E-04 -3.662786E-04 -4.850007E-05 +6.958927E-05 -4.850007E-05 +5.105503E-03 
 +1.305672E-04 +2.486738E-04 +1.275947E-04 +2.486738E-04 -4.259847E-05 +7.712556E-05 +1.275947E-04 +7.712556E-05 +5.007042E-03 
 -1.782400E-04 +1.447152E-06 +1.132977E-04 +1.447152E-06 +8.123323E-05 +1.338091E-04 +1.132977E-04 +1.338091E-04 +4.983613E-03 
 +9.792064E-05 -2.862700E-04 +6.723224E-05 -2.862700E-04 -2.316934E-05 +1.057224E-04 +6.723224E-05 +1.057224E-04 +4.966438E-03 
 +1.476882E-04 -3.714303E-04 -1.269638E-05 -3.714303E-04 -5.714611E-05 +6.120299E-05 -1.269638E-05 +6.120299E-05 +4.968646E-03 
 +3.698811E-05 -3.344543E-04 -6.872143E-05 -3.344543E-04 -3.284871E-06 +2.814477E-05 -6.872143E-05 +2.814477E-05 +5.018296E-03 
 -2.454533E-04 -2.246124E-04 -8.709472E-05 -2.246124E-04 +6.936744E-05 -1.027595E-05 -8.709472E-05 -1.027595E-05 +5.052980E-03 
 -2.819367E-04 -2.004029E-04 -6.342971E-05 -2.004029E-04 +1.353281E-04 -6.031353E-05 -6.342971E-05 -6.031353E-05 +5.049765E-03 
 -3.497055E-04 -2.250225E-04 -6.287500E-05 -2.250225E-04 +1.987891E-04 -3.270297E-05 -6.287500E-05 -3.270297E-05 +5.030472E-03 
 -1.896793E-04 -1.173214E-04 -5.577261E-05 -1.173214E-04 +1.593182E-04 +4.907043E-05 -5.577261E-05 +4.907043E-05 +4.980841E-03 
 -1.044170E-04 -1.451662E-04 -5.857374E-05 -1.451662E-04 +5.167211E-05 +1.318904E-04 -5.857374E-05 +1.318904E-04 +4.921830E-03 
 -5.475329E-05 -1.558300E-04 -6.606549E-05 -1.558300E-04 -5.495190E-05 +1.539248E-04 -6.606549E-05 +1.539248E-04 +4.965324E-03 
 +1.282013E-04 -1.242458E-04 -7.698833E-05 -1.242458E-04 -2.419217E-04 +1.217323E-04 -7.698833E-05 +1.217323E-04 +5.045235E-03 
 +3.301251E-04 -7.323112E-05 -1.198270E-04 -7.323112E-05 -4.081828E-04 +1.676979E-04 -1.198270E-04 +1.676979E-04 +5.004013E-03 
 +3.050064E-04 -1.714929E-04 -1.261643E-05 -1.714929E-04 -4.409521E-04 +1.950154E-04 -1.261643E-05 +1.950154E-04 +5.009646E-03 
 +1.991963E-04 -2.405919E-04 -2.591029E-05 -2.405919E-04 -3.785750E-04 +1.239903E-04 -2.591029E-05 +1.239903E-04 +5.104175E-03 
 +1.765066E-04 -2.028862E-04 -5.065898E-05 -2.028862E-04 -2.648293E-04 +1.031625E-04 -5.065898E-05 +1.031625E-04 +5.123882E-03 
 +1.170304E-05 -1.878684E-05 -1.480125E-04 -1.878684E-05 -1.958144E-04 +1.202361E-04 -1.480125E-04 +1.202361E-04 +5.077392E-03 
 +1.064004E-04 -2.601016E-05 -1.365150E-04 -2.601016E-05 -3.092491E-04 +1.215298E-04 -1.365150E-04 +1.215298E-04 +4.963621E-03 
 +1.325332E-04 -1.096942E-04 -1.881302E-04 -1.096942E-04 -4.097480E-04 +1.274167E-04 -1.881302E-04 +1.274167E-04 +5.014092E-03 
 +3.468337E-05 +2.635992E-04 -7.808919E-05 +2.635992E-04 -3.140186E-04 +3.505849E-05 -7.808919E-05 +3.505849E-05 +5.106122E-03 
 +6.016853E-06 +1.953777E-04 +3.480919E-06 +1.953777E-04 -1.572709E-04 -5.315202E-05 +3.480919E-06 -5.315202E-05 +5.082546E-03 
 -1.124505E-04 +2.233688E-04 +3.361275E-05 +2.233688E-04 +9.735044E-05 +8.245408E-06 +3.361275E-05 +8.245408E-06 +5.010687E-03 
 -3.550165E-04 +1.028359E-04 +5.308197E-05 +1.028359E-04 +3.209536E-04 +1.272272E-04 +5.308197E-05 +1.272272E-04 +4.993673E-03 
 -3.361574E-04 +3.762034E-05 +7.997190E-05 +3.762034E-05 +3.425696E-04 +1.379131E-04 +7.997190E-05 +1.379131E-04 +4.952015E-03 
 -4.504462E-05 -2.543273E-04 +5.961955E-05 -2.543273E-04 +2.052114E-04 +9.441773E-05 +5.961955E-05 +9.441773E-05 +4.944017E-03 
 -2.543242E-05 -3.132708E-04 -4.782139E-06 -3.132708E-04 -6.700001E-06 +4.419477E-05 -4.782139E-06 +4.419477E-05 +5.012182E-03 
 -1.605358E-04 -2.137593E-04 -1.834296E-05 -2.137593E-04 +4.805353E-07 -2.996052E-05 -1.834296E-05 -2.996052E-05 +5.026027E-03 
 -7.692758E-05 -1.544488E-04 +1.232037E-05 -1.544488E-04 +7.166746E-05 -6.218588E-05 +1.232037E-05 -6.218588E-05 +5.018555E-03 
 -8.454425E-05 -1.354528E-04 +2.197345E-05 -1.354528E-04 +1.134146E-04 -5.753144E-05 +2.197345E-05 -5.753144E-05 +5.039717E-03 
 -1.488555E-04 -1.081522E-04 +8.520070E-05 -1.081522E-04 +1.617601E-04 +9.161308E-06 +8.520070E-05 +9.161308E-06 +5.029835E-03 
 -1.914909E-04 -4.811153E-05 +6.445498E-05 -4.811153E-05 +1.689750E-04 +1.253214E-04 +6.445498E-05 +1.253214E-04 +5.040649E-03 
 -2.993772E-04 -1.180656E-04 -3.303984E-05 -1.180656E-04 -1.242152E-04 +1.922993E-04 -3.303984E-05 +1.922993E-04 +5.135124E-03 
 +8.033346E-05 -2.032798E-04 -3.890527E-05 -2.032798E-04 -5.073349E-04 +1.941604E-04 -3.890527E-05 +1.941604E-04 +5.192736E-03 
 +2.714686E-04 -2.407052E-04 +9.590193E-06 -2.407052E-04 -5.340170E-04 +1.763499E-04 +9.590193E-06 +1.763499E-04 +5.110528E-03 
 +4.764346E-04 -2.499196E-04 +9.466425E-05 -2.499196E-04 -4.442428E-04 +1.262606E-04 +9.466425E-05 +1.262606E-04 +5.062483E-03 
 +3.585632E-04 -2.067613E-04 +6.548821E-05 -2.067613E-04 -3.590003E-04 +7.030624E-05 +6.548821E-05 +7.030624E-05 +5.081427E-03 
 +2.647462E-04 -1.802185E-04 -2.156652E-05 -1.802185E-04 -2.566040E-04 +5.863435E-05 -2.156652E-05 +5.863435E-05 +5.040863E-03 
 +1.046919E-04 -2.835254E-05 -1.226051E-04 -2.835254E-05 -2.346331E-04 +8.809182E-05 -1.226051E-04 +8.809182E-05 +4.984329E-03 
 +2.306523E-04 -1.071125E-04 -6.373873E-05 -1.071125E-04 -2.966234E-04 +1.945707E-04 -6.373873E-05 +1.945707E-04 +4.925001E-03 
 +2.388893E-04 -1.525589E-04 -1.366991E-04 -1.525589E-04 -3.319922E-04 +2.036414E-04 -1.366991E-04 +2.036414E-04 +4.981930E-03 
 +3.409789E-06 +3.074337E-04 -5.488527E-06 +3.074337E-04 -2.459019E-04 +6.158623E-05 -5.488527E-06 +6.158623E-05 +5.087761E-03 
 -1.235522E-04 +1.790682E-04 +4.518639E-05 +1.790682E-04 -6.924575E-05 -6.971291E-05 +4.518639E-05 -6.971291E-05 +5.100849E-03 
 -2.252407E-04 +1.969268E-04 +2.171663E-05 +1.969268E-04 -9.188380E-05 -3.794394E-05 +2.171663E-05 -3.794394E-05 +5.045967E-03 
 -1.962271E-04 -1.497705E-05 +1.587198E-05 -1.497705E-05 -3.934672E-05 +7.448678E-05 +1.587198E-05 +7.448678E-05 +5.046766E-03 
 -4.928253E-04 +6.789392E-07 -1.724460E-05 +6.789392E-07 +2.440969E-04 +1.110312E-04 -1.724460E-05 +1.110312E-04 +5.018549E-03 
 -2.803050E-04 -2.147113E-04 -2.424591E-05 -2.147113E-04 +2.734364E-04 +1.114815E-04 -2.424591E-05 +1.114815E-04 +5.003561E-03 
 -2.121747E-04 -1.792620E-04 -6.904849E-05 -1.792620E-04 +3.258259E-05 +6.152218E-05 -6.904849E-05 +6.152218E-05 +5.021597E-03 
 -6.481635E-05 +6.845732E-05 +6.504618E-05 +6.845732E-05 -1.122278E-04 -3.769794E-05 +6.504618E-05 -3.769794E-05 +4.991251E-03 
 +5.585407E-05 +2.689649E-05 +1.226304E-04 +2.689649E-05 -5.910896E-05 -1.196959E-04 +1.226304E-04 -1.196959E-04 +5.002752E-03 
 -4.881044E-05 -1.346628E-04 +1.422780E-04 -1.346628E-04 +1.323745E-05 -1.789689E-04 +1.422780E-04 -1.789689E-04 +5.042381E-03 
 -2.790703E-05 -1.304092E-04 +2.255451E-04 -1.304092E-04 +1.455681E-04 -1.293423E-04 +2.255451E-04 -1.293423E-04 +4.987860E-03 
 -1.198848E-04 -1.428560E-04 +1.912745E-04 -1.428560E-04 +1.627134E-04 -1.341696E-06 +1.912745E-04 -1.341696E-06 +5.002968E-03 
 -2.555699E-04 -1.725617E-04 -8.242072E-06 -1.725617E-04 +8.637144E-05 +9.157382E-05 -8.242072E-06 +9.157382E-05 +5.127544E-03 
 -1.572244E-04 +1.006535E-04 -6.546764E-05 +1.006535E-04 +1.692507E-04 +1.631640E-04 -6.546764E-05 +1.631640E-04 +5.121074E-03 
 +4.208661E-05 +4.261987E-06 +2.214501E-05 +4.261987E-06 -3.148790E-05 +1.596099E-04 +2.214501E-05 +1.596099E-04 +5.047857E-03 
 +4.566043E-04 -2.185283E-04 +1.392138E-04 -2.185283E-04 -4.202836E-04 +9.970727E-05 +1.392138E-04 +9.970727E-05 +4.993955E-03 
 +5.233310E-04 -2.196320E-04 +1.761962E-04 -2.196320E-04 -4.603464E-04 +5.537483E-05 +1.761962E-04 +5.537483E-05 +4.989067E-03 
 +4.249446E-04 -1.761454E-04 +7.137537E-05 -1.761454E-04 -3.300409E-04 +4.229212E-05 +7.137537E-05 +4.229212E-05 +4.987122E-03 
 +2.288577E-04 -4.200178E-05 -6.844640E-05 -4.200178E-05 -2.629562E-04 +1.097466E-04 -6.844640E-05 +1.097466E-04 +4.936348E-03 
 +4.273039E-04 -1.635881E-04 -6.469060E-06 -1.635881E-04 -3.030243E-04 +2.299800E-04 -6.469060E-06 +2.299800E-04 +4.828024E-03 
 +1.856016E-04 -1.181900E-04 -5.867803E-05 -1.181900E-04 -1.731058E-04 +3.035795E-04 -5.867803E-05 +3.035795E-04 +4.910496E-03 
 -7.119378E-05 +2.189463E-04 +3.688528E-05 +2.189463E-04 -6.391526E-06 +1.987110E-04 +3.688528E-05 +1.987110E-04 +4.989831E-03 
 -1.906233E-04 +1.385251E-04 +3.382618E-05 +1.385251E-04 +5.396589E-06 +3.447882E-05 +3.382618E-05 +3.447882E-05 +5.014295E-03 
 -3.033860E-04 +1.192523E-04 -4.351963E-05 +1.192523E-04 +8.243165E-05 +2.254057E-06 -4.351963E-05 +2.254057E-06 +5.005509E-03 
 -4.499696E-04 +7.865482E-06 -7.045166E-05 +7.865482E-06 +2.445527E-04 +3.829837E-05 -7.045166E-05 +3.829837E-05 +5.034704E-03 
 -2.422524E-04 -2.678486E-04 -1.147671E-04 -2.678486E-04 +1.272837E-04 +5.555291E-05 -1.147671E-04 +5.555291E-05 +5.035053E-03 
 -2.112823E-04 -3.283821E-04 -1.246805E-04 -3.283821E-04 +1.254339E-05 +6.514745E-05 -1.246805E-04 +6.514745E-05 +5.015699E-03 
 -2.258247E-04 -2.828160E-04 -1.653302E-04 -2.828160E-04 -4.381894E-06 +3.117676E-05 -1.653302E-04 +3.117676E-05 +5.009661E-03 
 +2.470219E-05 +2.027524E-04 +7.879651E-05 +2.027524E-04 -9.572327E-05 -4.849381E-05 +7.879651E-05 -4.849381E-05 +5.036477E-03 
 +2.822512E-05 +1.468812E-04 +1.416616E-04 +1.468812E-04 -1.056369E-04 -8.632790E-05 +1.416616E-04 -8.632790E-05 +5.056023E-03 
 +8.329647E-06 +1.476474E-04 +1.782121E-04 +1.476474E-04 -8.575904E-05 -7.045012E-05 +1.782121E-04 -7.045012E-05 +5.006976E-03 
 +1.035881E-04 +2.357501E-04 +2.182270E-04 +2.357501E-04 -3.374927E-07 -3.341462E-05 +2.182270E-04 -3.341462E-05 +4.892377E-03 
 +5.802891E-05 +1.724152E-04 +1.945263E-04 +1.724152E-04 +8.261182E-05 +4.043275E-05 +1.945263E-04 +4.043275E-05 +4.885395E-03 
 -1.139109E-04 +1.939277E-04 +9.526755E-05 +1.939277E-04 +2.683793E-04 +1.149058E-04 +9.526755E-05 +1.149058E-04 +5.020203E-03 
 -2.550685E-04 +2.440290E-04 -5.123107E-05 +2.440290E-04 +2.376156E-04 +1.186501E-04 -5.123107E-05 +1.186501E-04 +5.049822E-03 
 -1.081236E-04 +1.199514E-04 -5.055110E-05 +1.199514E-04 +5.875859E-05 +5.078518E-05 -5.055110E-05 +5.078518E-05 +5.023346E-03 
 +2.540739E-05 +6.373054E-05 +4.670332E-05 +6.373054E-05 -1.445872E-05 +1.563761E-05 +4.670332E-05 +1.563761E-05 +4.972546E-03 
 +3.728451E-04 -1.162066E-04 +1.933935E-04 -1.162066E-04 -2.618514E-04 +1.909382E-05 +1.933935E-04 +1.909382E-05 +4.938154E-03 
 +5.006501E-04 -1.714901E-04 +1.481084E-04 -1.714901E-04 -3.506004E-04 +4.437873E-05 +1.481084E-04 +4.437873E-05 +4.907705E-03 
 +4.369925E-04 -1.474798E-04 -3.134373E-06 -1.474798E-04 -2.515775E-04 +1.323104E-04 -3.134373E-06 +1.323104E-04 +4.818801E-03 
 +4.328436E-04 -1.998500E-04 +2.090364E-05 -1.998500E-04 -1.838741E-04 +2.507666E-04 +2.090364E-05 +2.507666E-04 +4.749475E-03 
 -4.990683E-05 -1.507520E-04 -2.893903E-05 -1.507520E-04 +1.966407E-04 +2.499574E-04 -2.893903E-05 +2.499574E-04 +4.883201E-03 
 -1.552759E-04 -7.341235E-05 +4.623782E-06 -7.341235E-05 +3.707392E-04 +1.816458E-04 +4.623782E-06 +1.816458E-04 +4.924830E-03 
 -2.047500E-04 -1.181486E-04 -1.391584E-05 -1.181486E-04 +3.143386E-04 +8.542276E-05 -1.391584E-05 +8.542276E-05 +4.926337E-03 
 -3.276645E-04 -1.087994E-04 -7.962269E-05 -1.087994E-04 +3.265727E-04 +1.093434E-05 -7.962269E-05 +1.093434E-05 +4.961832E-03 
 -4.361677E-04 -4.632462E-05 -1.241535E-04 -4.632462E-05 +1.970016E-04 -3.133343E-06 -1.241535E-04 -3.133343E-06 +5.005678E-03 
 -8.933318E-05 -2.645762E-04 -1.357581E-04 -2.645762E-04 -1.491740E-05 +5.360956E-06 -1.357581E-04 +5.360956E-06 +4.995583E-03 
 -7.457289E-05 -2.212818E-04 -1.386650E-04 -2.212818E-04 -6.820634E-05 +9.627023E-06 -1.386650E-04 +9.627023E-06 +5.004276E-03 
 -8.782820E-05 -3.257485E-04 -1.035520E-04 -3.257485E-04 +1.170815E-06 -1.207691E-05 -1.035520E-04 -1.207691E-05 +5.027928E-03 
 +1.499601E-04 +1.888584E-04 +1.033231E-04 +1.888584E-04 -2.944341E-05 -4.707770E-05 +1.033231E-04 -4.707770E-05 +5.045087E-03 
 +8.952259E-05 +1.988526E-04 +1.817157E-04 +1.988526E-04 -9.618262E-05 -5.153879E-05 +1.817157E-04 -5.153879E-05 +5.063326E-03 
 +1.182870E-04 +1.946553E-04 +2.082605E-04 +1.946553E-04 -9.023846E-05 -4.082581E-05 +2.082605E-04 -4.082581E-05 +5.021908E-03 
 +1.549061E-04 +2.096142E-04 +2.159170E-04 +2.096142E-04 -5.366294E-05 -6.083380E-05 +2.159170E-04 -6.083380E-05 +4.975601E-03 
 +2.093188E-04 +1.011465E-04 +2.087156E-04 +1.011465E-04 +6.643270E-05 -3.177039E-05 +2.087156E-04 -3.177039E-05 +4.999341E-03 
 +4.819808E-05 +1.694928E-04 +2.201607E-04 +1.694928E-04 +1.914661E-04 +7.644526E-05 +2.201607E-04 +7.644526E-05 +5.011920E-03 
 -2.057325E-04 +2.369445E-04 +4.537656E-05 +2.369445E-04 +2.133269E-04 +1.139795E-04 +4.537656E-05 +1.139795E-04 +5.017211E-03 
 -2.077140E-04 +2.329261E-04 -5.185663E-06 +2.329261E-04 +2.227769E-04 +2.113058E-05 -5.185663E-06 +2.113058E-05 +5.030440E-03 
 -1.866565E-04 +1.877548E-04 +7.387505E-06 +1.877548E-04 +2.813425E-04 -6.930068E-05 +7.387505E-06 -6.930068E-05 +4.950603E-03 
 -2.046627E-05 +1.140077E-04 +9.939124E-05 +1.140077E-04 +3.034641E-04 -4.212028E-05 +9.939124E-05 -4.212028E-05 +4.899040E-03 
 +2.331084E-04 +9.475333E-05 +1.367796E-04 +9.475333E-05 +1.771054E-04 +3.720549E-05 +1.367796E-04 +3.720549E-05 +4.838796E-03 
 +6.097969E-04 -1.315208E-04 +7.400567E-05 -1.315208E-04 -1.430812E-04 +1.502662E-04 +7.400567E-05 +1.502662E-04 +4.713548E-03 
 +1.178113E-04 -2.375271E-04 -6.866923E-07 -2.375271E-04 +1.869181E-04 +2.761810E-04 -6.866923E-07 +2.761810E-04 +4.675972E-03 
 -1.081291E-04 -1.132653E-04 -4.738216E-05 -1.132653E-04 +3.289277E-04 +2.290697E-04 -4.738216E-05 +2.290697E-04 +4.772811E-03 
 -1.575501E-04 -4.264335E-05 -4.258940E-06 -4.264335E-05 +3.559142E-04 +1.878527E-04 -4.258940E-06 +1.878527E-04 +4.877624E-03 
 -1.704389E-04 +7.037804E-06 -1.675553E-05 +7.037804E-06 +3.368284E-04 +1.578528E-04 -1.675553E-05 +1.578528E-04 +4.910798E-03 
 -3.041063E-04 +2.064464E-05 -7.018307E-05 +2.064464E-05 +2.146490E-04 +1.012522E-04 -7.018307E-05 +1.012522E-04 +4.907706E-03 
 -2.295297E-04 -1.324059E-04 -1.075063E-04 -1.324059E-04 -6.352805E-05 +4.868264E-05 -1.075063E-04 +4.868264E-05 +4.952244E-03 
 -4.386984E-05 -3.217905E-04 -9.801675E-05 -3.217905E-04 -1.343925E-04 -2.008880E-05 -9.801675E-05 -2.008880E-05 +4.951380E-03 
 -1.409010E-06 -2.887982E-04 -5.487738E-05 -2.887982E-04 -7.970821E-05 +2.334755E-05 -5.487738E-05 +2.334755E-05 +4.993602E-03 
 +7.734540E-05 -2.203540E-04 -6.815170E-05 -2.203540E-04 +7.202384E-05 +4.868118E-05 -6.815170E-05 +4.868118E-05 +4.943043E-03 
 +2.560592E-04 +7.201070E-05 +7.678541E-05 +7.201070E-05 +1.859387E-04 -1.411290E-06 +7.678541E-05 -1.411290E-06 +4.806616E-03 
 +1.274518E-04 +8.273676E-05 +2.148927E-04 +8.273676E-05 +7.192708E-05 -4.647842E-06 +2.148927E-04 -4.647842E-06 +4.889789E-03 
 +9.445786E-05 +3.969477E-05 +2.310051E-04 +3.969477E-05 +2.801924E-05 -2.152561E-05 +2.310051E-04 -2.152561E-05 +4.970412E-03 
 +8.990980E-05 +4.937103E-05 +1.862705E-04 +4.937103E-05 +2.001889E-05 -7.446600E-05 +1.862705E-04 -7.446600E-05 +4.979935E-03 
 +1.694838E-04 -1.580765E-04 +2.070115E-04 -1.580765E-04 -4.022567E-05 -9.391784E-05 +2.070115E-04 -9.391784E-05 +5.076115E-03 
 +2.214169E-04 -2.172005E-04 +2.134323E-04 -2.172005E-04 -1.750940E-04 -4.104061E-05 +2.134323E-04 -4.104061E-05 +5.055288E-03 
 +1.383663E-04 -1.336866E-04 +1.406101E-04 -1.336866E-04 -1.074094E-04 +1.393833E-05 +1.406101E-04 +1.393833E-05 +5.011192E-03 
 -1.672320E-04 +9.855203E-05 +8.684803E-05 +9.855203E-05 +1.717920E-04 +4.641316E-05 +8.684803E-05 +4.641316E-05 +5.027338E-03 
 -1.159050E-04 +1.556751E-04 +7.517736E-05 +1.556751E-04 +3.286787E-04 +2.420844E-05 +7.517736E-05 +2.420844E-05 +4.957230E-03 
 -1.806311E-04 +1.437654E-04 +7.641642E-05 +1.437654E-04 +3.564284E-04 -1.613726E-05 +7.641642E-05 -1.613726E-05 +4.943662E-03 
 -1.253096E-04 +8.393289E-05 +8.846446E-05 +8.393289E-05 +1.913868E-04 -2.634204E-05 +8.846446E-05 -2.634204E-05 +4.893657E-03 
 +3.116017E-04 -1.875468E-04 +7.891949E-05 -1.875468E-04 +4.595657E-05 +1.259845E-04 +7.891949E-05 +1.259845E-04 +4.721543E-03 
 +4.344460E-06 -9.600005E-05 -8.852459E-05 -9.600005E-05 +4.043843E-04 +2.519489E-04 -8.852459E-05 +2.519489E-04 +4.593157E-03 
 -1.859334E-05 +4.007015E-05 -9.909250E-05 +4.007015E-05 +3.947593E-04 +2.232110E-04 -9.909250E-05 +2.232110E-04 +4.555734E-03 
 -2.678829E-05 +1.072821E-04 -6.909615E-05 +1.072821E-04 +3.451778E-04 +1.495054E-04 -6.909615E-05 +1.495054E-04 +4.670427E-03 
 -5.625047E-05 +1.665490E-04 -3.742815E-05 +1.665490E-04 +3.125308E-04 +8.832509E-05 -3.742815E-05 +8.832509E-05 +4.734032E-03 
 -1.750087E-04 +1.420608E-04 -4.864959E-05 +1.420608E-04 +1.595198E-04 +3.319013E-05 -4.864959E-05 +3.319013E-05 +4.774996E-03 
 -2.864033E-04 +3.379671E-05 -3.242362E-05 +3.379671E-05 +2.382172E-05 +6.223373E-05 -3.242362E-05 +6.223373E-05 +4.881557E-03 
 +2.605024E-05 +1.143459E-05 -1.055342E-04 +1.143459E-05 +3.290181E-06 +3.707620E-05 -1.055342E-04 +3.707620E-05 +4.889536E-03 
 +1.011278E-04 -1.439916E-05 +5.981367E-05 -1.439916E-05 +1.196223E-05 +2.148065E-05 +5.981367E-05 +2.148065E-05 +4.875915E-03 
 +1.172047E-04 +1.350016E-04 -6.608958E-05 +1.350016E-04 +1.156713E-04 +6.494503E-05 -6.608958E-05 +6.494503E-05 +4.757128E-03 
 +1.415977E-04 +1.361873E-04 +1.586880E-05 +1.361873E-04 +3.178071E-04 +6.101801E-05 +1.586880E-05 +6.101801E-05 +4.616422E-03 
 +8.968291E-05 +4.716579E-06 +9.970625E-05 +4.716579E-06 +3.442938E-04 +2.352012E-05 +9.970625E-05 +2.352012E-05 +4.658710E-03 
 +2.914502E-05 +1.847953E-05 +1.196381E-04 +1.847953E-05 +3.243040E-04 -3.065322E-05 +1.196381E-04 -3.065322E-05 +4.760693E-03 
 +3.015468E-05 -4.815761E-05 +1.046355E-04 -4.815761E-05 +2.280019E-04 -5.243873E-05 +1.046355E-04 -5.243873E-05 +4.928336E-03 
 +8.992591E-05 -2.166984E-04 +1.887727E-04 -2.166984E-04 -6.001749E-05 -3.536381E-05 +1.887727E-04 -3.536381E-05 +5.079147E-03 
 +1.761931E-04 -2.274242E-04 +1.847329E-04 -2.274242E-04 -1.893514E-04 +8.395979E-07 +1.847329E-04 +8.395979E-07 +5.077296E-03 
 +2.044969E-04 -2.541157E-04 +1.925984E-04 -2.541157E-04 -2.123905E-04 -1.404919E-05 +1.925984E-04 -1.404919E-05 +5.046589E-03 
 +6.860576E-05 -2.558665E-04 +1.530877E-04 -2.558665E-04 -2.509254E-04 +4.367696E-08 +1.530877E-04 +4.367696E-08 +5.037749E-03 
 -2.429700E-05 -2.875855E-04 +1.601793E-04 -2.875855E-04 -1.961415E-04 +4.516120E-05 +1.601793E-04 +4.516120E-05 +5.033264E-03 
 -1.750909E-04 -3.185845E-04 +1.045555E-04 -3.185845E-04 -1.370242E-04 +1.673328E-05 +1.045555E-04 +1.673328E-05 +5.055603E-03 
 -1.870223E-04 -3.468094E-04 +2.153653E-05 -3.468094E-04 -1.251224E-04 -3.745906E-05 +2.153653E-05 -3.745906E-05 +4.960965E-03 
 -1.290980E-04 -2.129773E-04 +2.170214E-05 -2.129773E-04 +1.270037E-04 +8.769827E-05 +2.170214E-05 +8.769827E-05 +4.758001E-03 
 +1.098738E-04 -5.961859E-05 -1.276559E-04 -5.961859E-05 +3.448094E-04 +2.005612E-04 -1.276559E-04 +2.005612E-04 +4.602986E-03 
 +1.311984E-04 +3.340019E-05 -1.465180E-04 +3.340019E-05 +3.227861E-04 +1.800419E-04 -1.465180E-04 +1.800419E-04 +4.545914E-03 
 +1.281284E-04 +2.035099E-04 -8.027616E-05 +2.035099E-04 +2.683568E-04 +1.135640E-04 -8.027616E-05 +1.135640E-04 +4.585111E-03 
 +7.065240E-05 +1.997388E-04 -4.225642E-05 +1.997388E-04 +1.968692E-04 +5.434050E-05 -4.225642E-05 +5.434050E-05 +4.664672E-03 
 -1.789257E-04 +2.806221E-05 -4.777165E-05 +2.806221E-05 +7.503278E-05 +1.816046E-05 -4.777165E-05 +1.816046E-05 +4.809582E-03 
 -2.525927E-04 -4.413429E-05 +2.500279E-05 -4.413429E-05 +2.825877E-05 +1.250809E-05 +2.500279E-05 +1.250809E-05 +4.890380E-03 
 +9.400293E-05 -4.536292E-05 -1.220627E-04 -4.536292E-05 +3.538323E-05 +4.218854E-05 -1.220627E-04 +4.218854E-05 +4.821376E-03 
 +1.622885E-04 -6.741238E-05 -3.737986E-06 -6.741238E-05 +7.920347E-05 +5.910252E-05 -3.737986E-06 +5.910252E-05 +4.739232E-03 
 +9.004191E-05 +9.398995E-05 -3.561156E-05 +9.398995E-05 +6.338252E-05 +4.571590E-05 -3.561156E-05 +4.571590E-05 +4.718491E-03 
 -6.004633E-05 +2.667670E-04 +3.956550E-05 +2.667670E-04 +9.779426E-05 +4.429515E-05 +3.956550E-05 +4.429515E-05 +4.721058E-03 
 -1.215686E-05 +5.977413E-05 +2.778869E-05 +5.977413E-05 +3.424092E-04 +4.016839E-05 +2.778869E-05 +4.016839E-05 +4.710044E-03 
 -9.519312E-07 -1.565584E-05 +3.250199E-05 -1.565584E-05 +2.898813E-04 -2.691049E-05 +3.250199E-05 -2.691049E-05 +4.840499E-03 
 +3.658741E-05 -1.365418E-04 +1.214146E-04 -1.365418E-04 -4.429495E-05 -6.643897E-05 +1.214146E-04 -6.643897E-05 +5.092398E-03 
 +4.643514E-05 -2.213219E-04 +1.923543E-04 -2.213219E-04 -1.622478E-04 -3.733794E-05 +1.923543E-04 -3.733794E-05 +5.150571E-03 
 +7.945097E-05 -1.730502E-04 +2.028649E-04 -1.730502E-04 -1.495647E-04 -1.554783E-05 +2.028649E-04 -1.554783E-05 +5.090750E-03 
 +5.225577E-05 -1.543077E-04 +2.243101E-04 -1.543077E-04 -1.813343E-04 -7.205948E-06 +2.243101E-04 -7.205948E-06 +5.087729E-03 
 +5.378186E-05 -1.553132E-04 +2.240725E-04 -1.553132E-04 -2.508185E-04 -1.303964E-05 +2.240725E-04 -1.303964E-05 +5.068322E-03 
 +4.831204E-06 -1.819076E-04 +2.142864E-04 -1.819076E-04 -2.364446E-04 +4.211806E-07 +2.142864E-04 +4.211806E-07 +5.072146E-03 
 -1.905763E-04 -3.284310E-04 +1.215535E-04 -3.284310E-04 -1.416756E-04 +4.829344E-05 +1.215535E-04 +4.829344E-05 +5.063911E-03 
 -1.659547E-04 -3.724247E-04 +2.151500E-05 -3.724247E-04 +2.452512E-05 +1.242297E-04 +2.151500E-05 +1.242297E-04 +4.923301E-03 
 -1.983801E-04 -1.264230E-04 +3.710632E-05 -1.264230E-04 +2.412183E-04 +1.848875E-04 +3.710632E-05 +1.848875E-04 +4.748569E-03 
 +1.901532E-04 +3.686972E-05 -7.369108E-05 +3.686972E-05 +2.448996E-04 +9.677508E-05 -7.369108E-05 +9.677508E-05 +4.709649E-03 
 +2.656831E-04 +6.872735E-05 -1.263766E-04 +6.872735E-05 +1.821062E-04 +4.741951E-05 -1.263766E-04 +4.741951E-05 +4.650321E-03 
 +2.506969E-04 +1.320790E-04 -4.676334E-05 +1.320790E-04 +9.610602E-05 +3.221647E-05 -4.676334E-05 +3.221647E-05 +4.668899E-03 
 +1.711085E-04 +1.348007E-04 -8.532753E-05 +1.348007E-04 +1.295838E-05 -1.285997E-05 -8.532753E-05 -1.285997E-05 +4.765522E-03 
 -2.396267E-04 +5.557858E-05 -7.666682E-05 +5.557858E-05 +7.043384E-05 -2.398627E-05 -7.666682E-05 -2.398627E-05 +4.898822E-03 
 -2.476238E-04 -1.651303E-05 +1.249429E-05 -1.651303E-05 +9.217022E-05 +1.181560E-05 +1.249429E-05 +1.181560E-05 +4.910819E-03 
 +1.300046E-04 -6.350302E-05 -1.213099E-04 -6.350302E-05 +6.044816E-05 +4.726288E-05 -1.213099E-04 +4.726288E-05 +4.791927E-03 
 +1.865337E-04 -6.676245E-05 -9.174079E-05 -6.676245E-05 +5.152675E-05 +9.685911E-05 -9.174079E-05 +9.685911E-05 +4.703760E-03 
 +8.367707E-05 +5.072319E-06 -4.530577E-05 +5.072319E-06 +4.177321E-05 +7.316535E-05 -4.530577E-05 +7.316535E-05 +4.763467E-03 
 -1.015846E-04 +2.406916E-04 +2.729134E-05 +2.406916E-04 -1.798130E-05 +9.807739E-06 +2.729134E-05 +9.807739E-06 +4.849110E-03 
 -1.012680E-04 +2.050454E-04 +1.911621E-05 +2.050454E-04 -1.569955E-05 -1.258886E-05 +1.911621E-05 -1.258886E-05 +4.912650E-03 
 +1.495621E-05 -1.090667E-04 +2.838118E-05 -1.090667E-04 -6.854384E-05 -3.272412E-05 +2.838118E-05 -3.272412E-05 +5.066197E-03 
 +1.575444E-05 -1.560193E-04 +1.316016E-04 -1.560193E-04 -1.756621E-04 -3.127426E-05 +1.316016E-04 -3.127426E-05 +5.163720E-03 
 +8.729184E-06 -1.457745E-04 +1.596638E-04 -1.457745E-04 -1.238088E-04 -2.509402E-05 +1.596638E-04 -2.509402E-05 +5.126093E-03 
 +7.057719E-06 -1.396369E-04 +1.931024E-04 -1.396369E-04 -1.092323E-04 -2.155497E-05 +1.931024E-04 -2.155497E-05 +5.082124E-03 
 +2.328762E-05 -1.128331E-04 +2.136075E-04 -1.128331E-04 -1.491217E-04 -2.598466E-05 +2.136075E-04 -2.598466E-05 +5.081728E-03 
 -1.442300E-05 -1.163097E-04 +2.094452E-04 -1.163097E-04 -2.120399E-04 -4.035946E-05 +2.094452E-04 -4.035946E-05 +5.067308E-03 
 -4.569808E-05 +8.366461E-06 +1.530697E-04 +8.366461E-06 -1.635698E-04 -8.173142E-06 +1.530697E-04 -8.173142E-06 +5.056915E-03 
 -1.684177E-04 -9.670853E-05 +5.432303E-05 -9.670853E-05 +5.947083E-05 +9.199814E-05 +5.432303E-05 +9.199814E-05 +5.027673E-03 
 -2.349239E-04 -5.072219E-05 +1.181432E-05 -5.072219E-05 +2.816208E-04 +1.862888E-04 +1.181432E-05 +1.862888E-04 +4.928383E-03 
 -1.942480E-04 +6.392247E-05 +8.243414E-05 +6.392247E-05 +3.417499E-04 +1.869272E-04 +8.243414E-05 +1.869272E-04 +4.821177E-03 
 +1.961930E-04 +9.424954E-05 -3.008924E-05 +9.424954E-05 +1.914994E-04 +5.135181E-05 -3.008924E-05 +5.135181E-05 +4.804849E-03 
 +2.747866E-04 +1.414071E-04 -8.457601E-05 +1.414071E-04 +1.177036E-04 +7.959795E-06 -8.457601E-05 +7.959795E-06 +4.685762E-03 
 +2.680225E-04 +1.333340E-04 -5.804043E-05 +1.333340E-04 +1.048665E-04 -4.482358E-05 -5.804043E-05 -4.482358E-05 +4.692788E-03 
 +2.263622E-04 +1.176970E-04 -8.365407E-05 +1.176970E-04 +1.043708E-04 -5.664120E-05 -8.365407E-05 -5.664120E-05 +4.763568E-03 
 -1.564344E-04 +5.402571E-05 -8.153990E-05 +5.402571E-05 +1.171498E-04 +1.603753E-05 -8.153990E-05 +1.603753E-05 +4.857841E-03 
 -2.003773E-04 +2.860419E-05 +5.077381E-05 +2.860419E-05 +1.510329E-04 +1.171274E-04 +5.077381E-05 +1.171274E-04 +4.870928E-03 
 +9.703099E-05 -7.064432E-06 -1.642890E-04 -7.064432E-06 +1.032305E-04 +1.420520E-04 -1.642890E-04 +1.420520E-04 +4.786342E-03 
 +8.731285E-05 -4.689464E-05 -4.934168E-05 -4.689464E-05 +8.787910E-05 +1.533192E-04 -4.934168E-05 +1.533192E-04 +4.754722E-03 
 +3.901964E-05 -7.641759E-05 -1.014806E-04 -7.641759E-05 +7.079928E-05 +1.016181E-04 -1.014806E-04 +1.016181E-04 +4.784225E-03 
 -1.025255E-04 +1.394034E-04 -3.501666E-05 +1.394034E-04 -3.271995E-05 +1.481879E-05 -3.501666E-05 +1.481879E-05 +4.858941E-03 
 -8.498591E-05 +1.516427E-04 -1.108216E-05 +1.516427E-04 -9.402079E-05 -1.669922E-05 -1.108216E-05 -1.669922E-05 +4.954260E-03 
 +5.851673E-05 -2.060677E-04 +2.824037E-05 -2.060677E-04 -1.530607E-04 -3.804098E-05 +2.824037E-05 -3.804098E-05 +5.029732E-03 
 +1.357083E-05 -1.112816E-04 +6.881599E-05 -1.112816E-04 -1.344684E-04 -2.086101E-05 +6.881599E-05 -2.086101E-05 +5.061767E-03 
 -2.381666E-05 -8.926789E-05 +1.055662E-04 -8.926789E-05 -7.514073E-05 -3.417371E-05 +1.055662E-04 -3.417371E-05 +5.055143E-03 
 -4.149130E-05 -1.139997E-04 +1.473593E-04 -1.139997E-04 -5.706285E-05 -3.735557E-05 +1.473593E-04 -3.735557E-05 +5.052904E-03 
 -2.876265E-05 -1.334022E-04 +1.474900E-04 -1.334022E-04 -1.377756E-04 -5.195479E-05 +1.474900E-04 -5.195479E-05 +5.047837E-03 
 -1.936481E-06 -6.592727E-05 +1.205060E-04 -6.592727E-05 -1.323613E-04 -6.449559E-05 +1.205060E-04 -6.449559E-05 +5.045076E-03 
 -5.601251E-05 +1.238767E-04 +3.837161E-05 +1.238767E-04 -4.234830E-05 -3.574379E-06 +3.837161E-05 -3.574379E-06 +5.068886E-03 
 -1.306075E-04 +4.845582E-05 -3.549428E-05 +4.845582E-05 +1.641874E-05 +9.251973E-05 -3.549428E-05 +9.251973E-05 +5.083367E-03 
 -2.194886E-04 +8.217502E-05 +1.330158E-06 +8.217502E-05 +1.472034E-04 +1.298739E-04 +1.330158E-06 +1.298739E-04 +5.056596E-03 
 -2.144394E-04 +1.733512E-04 +1.359770E-04 +1.733512E-04 +2.373086E-04 +1.105645E-04 +1.359770E-04 +1.105645E-04 +4.972294E-03 
 +1.471270E-04 +8.749086E-05 -1.164444E-04 +8.749086E-05 +1.203092E-04 -2.872073E-06 -1.164444E-04 -2.872073E-06 +4.825025E-03 
 +2.217379E-04 +1.654662E-04 -7.821880E-05 +1.654662E-04 +1.391186E-04 -1.212281E-05 -7.821880E-05 -1.212281E-05 +4.719757E-03 
 +2.301043E-04 +1.652115E-04 -7.929067E-05 +1.652115E-04 +1.359277E-04 -3.400653E-05 -7.929067E-05 -3.400653E-05 +4.704897E-03 
 +1.712145E-04 +1.567707E-04 -6.987012E-05 +1.567707E-04 +1.372573E-04 -8.077445E-05 -6.987012E-05 -8.077445E-05 +4.753430E-03 
 +2.563148E-05 +1.668195E-04 -7.458154E-05 +1.668195E-04 +1.677705E-04 -1.485960E-04 -7.458154E-05 -1.485960E-04 +4.791387E-03 
 -5.703765E-05 +1.362312E-04 +1.286906E-04 +1.362312E-04 +1.872183E-04 -8.657249E-05 +1.286906E-04 -8.657249E-05 +4.795340E-03 
 -6.383303E-05 +1.137943E-05 -1.682715E-04 +1.137943E-05 +1.300310E-04 +1.018613E-04 -1.682715E-04 +1.018613E-04 +4.816924E-03 
 -1.674183E-04 +2.703631E-06 -5.010840E-05 +2.703631E-06 +1.247646E-04 +1.531213E-04 -5.010840E-05 +1.531213E-04 +4.825174E-03 
 -6.233072E-05 -1.575782E-04 -7.670539E-05 -1.575782E-04 +8.682128E-05 +1.154301E-04 -7.670539E-05 +1.154301E-04 +4.893066E-03 
 -4.491814E-05 +4.411826E-05 +1.956733E-05 +4.411826E-05 -9.092413E-05 +8.481099E-05 +1.956733E-05 +8.481099E-05 +4.908771E-03 
 +4.228580E-05 +1.196151E-04 +1.559598E-05 +1.196151E-04 -1.561736E-04 -1.151204E-05 +1.559598E-05 -1.151204E-05 +4.895362E-03 
 +7.255348E-05 -1.256485E-04 +2.471234E-05 -1.256485E-04 -1.246751E-04 -3.940734E-05 +2.471234E-05 -3.940734E-05 +4.943465E-03 
 +2.224530E-05 -9.007705E-05 +3.560114E-05 -9.007705E-05 -1.040146E-04 -3.528434E-06 +3.560114E-05 -3.528434E-06 +4.960035E-03 
 +1.230112E-05 -7.922301E-05 +4.699109E-05 -7.922301E-05 -6.999536E-05 -4.852362E-06 +4.699109E-05 -4.852362E-06 +4.978787E-03 
 +3.325070E-06 -5.669930E-05 +7.995598E-05 -5.669930E-05 -4.419032E-05 -2.234977E-05 +7.995598E-05 -2.234977E-05 +4.991858E-03 
 -1.852558E-05 -6.464878E-05 +6.100314E-05 -6.464878E-05 -4.324361E-05 -3.746027E-05 +6.100314E-05 -3.746027E-05 +5.005498E-03 
 -7.748690E-05 +1.504917E-04 +5.967420E-05 +1.504917E-04 +5.207616E-05 -3.984590E-05 +5.967420E-05 -3.984590E-05 +5.037231E-03 
 -1.020921E-04 +1.853160E-04 +3.044493E-05 +1.853160E-04 +6.327925E-05 -1.644118E-05 +3.044493E-05 -1.644118E-05 +5.102077E-03 
 -1.372383E-04 +1.195681E-04 +3.228688E-05 +1.195681E-04 -5.058823E-05 +8.623050E-05 +3.228688E-05 +8.623050E-05 +5.153216E-03 
 -1.670051E-04 +1.175073E-04 +6.879930E-06 +1.175073E-04 -2.968816E-05 +1.067489E-04 +6.879930E-06 +1.067489E-04 +5.125088E-03 
 -5.078237E-05 +1.943165E-04 +6.631956E-05 +1.943165E-04 +5.340665E-05 +1.933292E-05 +6.631956E-05 +1.933292E-05 +4.985303E-03 
 +1.515014E-04 +1.112349E-04 -1.175580E-04 +1.112349E-04 +8.108523E-05 -1.689432E-05 -1.175580E-04 -1.689432E-05 +4.817764E-03 
 +1.934790E-04 +1.343586E-04 -9.349957E-05 +1.343586E-04 +1.258979E-04 -4.113671E-05 -9.349957E-05 -4.113671E-05 +4.744636E-03 
 +2.191236E-04 +1.465572E-04 -8.166867E-05 +1.465572E-04 +1.107287E-04 -4.873478E-05 -8.166867E-05 -4.873478E-05 +4.735466E-03 
 +2.145734E-04 +1.802591E-04 -1.024429E-04 +1.802591E-04 +8.813714E-05 -4.558902E-05 -1.024429E-04 -4.558902E-05 +4.794844E-03 
 +1.714575E-04 +1.735686E-04 -1.202887E-04 +1.735686E-04 +7.165437E-05 -3.518292E-05 -1.202887E-04 -3.518292E-05 +4.843033E-03 
 +6.933673E-05 +1.433071E-04 +1.693079E-04 +1.433071E-04 +1.583181E-04 -2.207610E-05 +1.693079E-04 -2.207610E-05 +4.851073E-03 
 -3.627652E-05 +7.122659E-05 +9.559897E-07 +7.122659E-05 +2.707805E-04 +5.159907E-05 +9.559897E-07 +5.159907E-05 +4.900692E-03 
 -2.192937E-04 +1.997325E-04 -3.185763E-05 +1.997325E-04 +2.413692E-04 +1.294219E-04 -3.185763E-05 +1.294219E-04 +4.966145E-03 
 -1.413958E-04 +3.065127E-05 -3.936557E-05 +3.065127E-05 +1.581943E-04 +1.456131E-04 -3.936557E-05 +1.456131E-04 +5.009740E-03 
 -1.147112E-04 +8.890339E-05 -8.617881E-06 +8.890339E-05 -4.353146E-05 +1.396069E-04 -8.617881E-06 +1.396069E-04 +4.989397E-03 
 -1.661473E-04 +1.287450E-04 -8.273562E-05 +1.287450E-04 -2.416011E-04 +1.019454E-04 -8.273562E-05 +1.019454E-04 +4.958220E-03 
 +9.975180E-07 -1.450945E-04 -1.077025E-04 -1.450945E-04 -1.583082E-04 +6.473222E-05 -1.077025E-04 +6.473222E-05 +4.929543E-03 
 -9.020867E-06 -1.514999E-04 -6.945978E-05 -1.514999E-04 -4.185933E-05 +6.048508E-05 -6.945978E-05 +6.048508E-05 +4.889675E-03 
 +2.356929E-05 -1.599450E-04 -7.740945E-05 -1.599450E-04 -4.795097E-05 +4.907434E-05 -7.740945E-05 +4.907434E-05 +4.880948E-03 
 +9.237041E-05 -1.225331E-04 -2.635650E-05 -1.225331E-04 -4.488208E-05 -1.411436E-05 -2.635650E-05 -1.411436E-05 +4.911791E-03 
 +7.800987E-05 -6.627246E-05 -3.245675E-05 -6.627246E-05 +7.452176E-05 -5.079541E-05 -3.245675E-05 -5.079541E-05 +4.916992E-03 
 -6.384709E-05 +1.879416E-04 +3.035292E-05 +1.879416E-04 +1.529174E-04 -4.381931E-05 +3.035292E-05 -4.381931E-05 +4.944711E-03 
 -1.274473E-04 +1.809171E-04 +4.583387E-06 +1.809171E-04 +9.331042E-05 -2.613615E-05 +4.583387E-06 -2.613615E-05 +5.036503E-03 
 -1.337613E-04 +1.254218E-04 +6.737419E-05 +1.254218E-04 +4.234656E-05 +2.659318E-05 +6.737419E-05 +2.659318E-05 +5.117298E-03 
 -1.459767E-04 +1.289251E-04 +4.309275E-05 +1.289251E-04 +2.423026E-05 +3.286742E-05 +4.309275E-05 +3.286742E-05 +5.113606E-03 
 -5.656210E-05 +2.310842E-04 +1.049651E-04 +2.310842E-04 +3.216260E-05 +6.750260E-07 +1.049651E-04 +6.750260E-07 +4.965247E-03 
 +1.293747E-04 +7.937689E-05 -1.273055E-04 +7.937689E-05 +7.128219E-05 -4.528236E-05 -1.273055E-04 -4.528236E-05 +4.830640E-03 
 +1.805128E-04 +7.892259E-05 -9.084728E-05 +7.892259E-05 +9.512178E-05 -9.281491E-05 -9.084728E-05 -9.281491E-05 +4.768211E-03 
 +2.324127E-04 +7.370129E-05 -8.024203E-05 +7.370129E-05 +6.571276E-05 -7.851776E-05 -8.024203E-05 -7.851776E-05 +4.774076E-03 
 +2.701514E-04 +9.100253E-05 -8.771846E-05 +9.100253E-05 +1.215034E-05 -5.252039E-05 -8.771846E-05 -5.252039E-05 +4.812748E-03 
 +2.422555E-04 +1.240918E-04 -6.997585E-05 +1.240918E-04 +4.113681E-05 -2.342523E-05 -6.997585E-05 -2.342523E-05 +4.891347E-03 
 +1.286693E-04 +4.536915E-05 +1.911515E-04 +4.536915E-05 +2.955831E-05 -4.621631E-06 +1.911515E-04 -4.621631E-06 +4.995798E-03 
 -1.597720E-05 -1.740160E-04 +7.444878E-05 -1.740160E-04 -2.600269E-05 -7.744203E-06 +7.444878E-05 -7.744203E-06 +5.048151E-03 
 -1.572464E-04 -1.615635E-04 +1.008690E-05 -1.615635E-04 -2.895364E-05 -4.886790E-05 +1.008690E-05 -4.886790E-05 +5.091351E-03 
 -1.724542E-04 -3.011499E-04 -1.639220E-05 -3.011499E-04 -7.660290E-05 -8.066511E-05 -1.639220E-05 -8.066511E-05 +5.118169E-03 
 -2.520759E-04 -1.878186E-04 -9.197004E-05 -1.878186E-04 -2.521063E-05 -5.931259E-05 -9.197004E-05 -5.931259E-05 +5.071794E-03 
 -3.736525E-04 -3.127785E-05 -1.372994E-04 -3.127785E-05 -2.202369E-05 -2.135308E-05 -1.372994E-04 -2.135308E-05 +5.010582E-03 
 +1.002448E-05 -4.553808E-05 -2.445915E-04 -4.553808E-05 -6.906512E-05 -4.377059E-05 -2.445915E-04 -4.377059E-05 +4.908628E-03 
 +6.338098E-05 +3.066247E-05 -1.495539E-04 +3.066247E-05 +1.059770E-04 -4.713586E-05 -1.495539E-04 -4.713586E-05 +4.812936E-03 
 +5.890783E-05 +1.266140E-05 -1.945540E-04 +1.266140E-05 +2.244899E-04 -5.079393E-05 -1.945540E-04 -5.079393E-05 +4.786736E-03 
 +1.298736E-04 +5.247151E-05 -1.472069E-04 +5.247151E-05 +2.095718E-04 -8.918977E-05 -1.472069E-04 -8.918977E-05 +4.774875E-03 
 +1.450050E-04 +9.502585E-05 -1.114403E-04 +9.502585E-05 +2.309645E-04 -3.805200E-05 -1.114403E-04 -3.805200E-05 +4.758239E-03 
 -6.957686E-06 +2.045688E-04 -5.165012E-05 +2.045688E-04 +1.970984E-04 -3.962984E-05 -5.165012E-05 -3.962984E-05 +4.828737E-03 
 -1.136451E-04 +2.073771E-04 +3.347252E-05 +2.073771E-04 +1.517948E-04 -5.375447E-05 +3.347252E-05 -5.375447E-05 +4.959910E-03 
 -1.490275E-04 +1.616371E-04 +3.417093E-05 +1.616371E-04 +8.723925E-05 +3.478963E-05 +3.417093E-05 +3.478963E-05 +5.050196E-03 
 -2.391344E-04 +1.433267E-04 -1.153691E-05 +1.433267E-04 -5.780993E-05 +7.416791E-05 -1.153691E-05 +7.416791E-05 +5.056399E-03 
 -1.103788E-04 +2.249339E-04 +5.998770E-05 +2.249339E-04 -4.482757E-05 +3.641034E-05 +5.998770E-05 +3.641034E-05 +4.949937E-03 
 +1.653953E-04 +1.656403E-05 -8.571138E-05 +1.656403E-05 +3.578006E-05 -7.641842E-05 -8.571138E-05 -7.641842E-05 +4.817057E-03 
 +2.173626E-04 -4.804270E-06 -6.071319E-05 -4.804270E-06 +6.457817E-05 -1.138191E-04 -6.071319E-05 -1.138191E-04 +4.760603E-03 
 +2.535165E-04 +1.721563E-05 -6.758787E-05 +1.721563E-05 +2.483446E-05 -7.400028E-05 -6.758787E-05 -7.400028E-05 +4.785154E-03 
 +2.616261E-04 +3.337245E-05 -1.048196E-04 +3.337245E-05 +2.387955E-05 -3.158891E-05 -1.048196E-04 -3.158891E-05 +4.772235E-03 
 +2.576846E-04 -1.516382E-05 -3.621303E-05 -1.516382E-05 -9.119393E-05 -4.921178E-06 -3.621303E-05 -4.921178E-06 +4.814436E-03 
 +1.315494E-04 -1.026798E-04 +1.827382E-04 -1.026798E-04 -1.953310E-04 -3.828651E-05 +1.827382E-04 -3.828651E-05 +5.014375E-03 
 -2.975742E-05 -1.460567E-04 +1.229868E-04 -1.460567E-04 -9.206435E-05 -4.158051E-05 +1.229868E-04 -4.158051E-05 +5.135028E-03 
 -4.929200E-05 -1.459785E-04 +6.404730E-05 -1.459785E-04 -7.278458E-05 -6.664221E-05 +6.404730E-05 -6.664221E-05 +5.151246E-03 
 -1.324126E-04 -1.819378E-04 +4.950494E-06 -1.819378E-04 -2.963848E-05 -1.083320E-04 +4.950494E-06 -1.083320E-04 +5.150866E-03 
 -3.436152E-04 -5.416093E-05 -1.264836E-04 -5.416093E-05 +1.052535E-04 -8.681498E-05 -1.264836E-04 -8.681498E-05 +5.126084E-03 
 -4.095765E-04 -5.442932E-05 -1.155295E-04 -5.442932E-05 +5.740965E-05 -4.769336E-05 -1.155295E-04 -4.769336E-05 +5.061332E-03 
 +4.813447E-05 -5.122363E-05 -3.109471E-04 -5.122363E-05 -1.155844E-04 -5.936713E-05 -3.109471E-04 -5.936713E-05 +4.949380E-03 
 +1.598610E-04 +1.200457E-04 -1.349440E-04 +1.200457E-04 -1.104315E-04 -8.586404E-05 -1.349440E-04 -8.586404E-05 +4.889649E-03 
 +1.246017E-04 -3.103615E-05 -1.859037E-04 -3.103615E-05 +9.275389E-05 -6.261120E-05 -1.859037E-04 -6.261120E-05 +4.853774E-03 
 +1.398377E-04 -1.293074E-05 -1.818580E-04 -1.293074E-05 +1.724776E-04 -6.101321E-05 -1.818580E-04 -6.101321E-05 +4.759357E-03 
 +1.334261E-04 +8.429988E-05 -1.589451E-04 +8.429988E-05 +2.098332E-04 -6.651734E-05 -1.589451E-04 -6.651734E-05 +4.707326E-03 
 +4.741010E-05 +1.227617E-04 -1.619909E-04 +1.227617E-04 +2.364824E-04 -8.848142E-05 -1.619909E-04 -8.848142E-05 +4.798168E-03 
 -6.183807E-06 +2.150180E-04 +1.369166E-04 +2.150180E-04 +1.811206E-04 -6.545269E-05 +1.369166E-04 -6.545269E-05 +4.937229E-03 
 -2.369400E-04 +1.259571E-04 +6.178458E-05 +1.259571E-04 +1.748835E-04 +1.306181E-05 +6.178458E-05 +1.306181E-05 +5.067188E-03 
 -4.839784E-04 +1.424555E-05 +2.348105E-05 +1.424555E-05 +2.024775E-04 +3.884151E-05 +2.348105E-05 +3.884151E-05 +5.117964E-03 
 -2.487391E-04 +1.031308E-04 +6.428532E-05 +1.031308E-04 +9.152173E-05 +3.978254E-06 +6.428532E-05 +3.978254E-06 +4.980161E-03 
 +1.545553E-04 +2.832772E-05 -1.887588E-05 +2.832772E-05 +1.280838E-04 -6.506335E-05 -1.887588E-05 -6.506335E-05 +4.782795E-03 
 +3.010714E-04 -4.688919E-05 -1.514020E-05 -4.688919E-05 +1.757950E-05 -6.026466E-05 -1.514020E-05 -6.026466E-05 +4.701069E-03 
 +3.063424E-04 +2.026398E-05 -6.327782E-05 +2.026398E-05 +1.410147E-05 -1.052749E-05 -6.327782E-05 -1.052749E-05 +4.717786E-03 
 +2.578990E-04 +4.596736E-05 -1.306250E-04 +4.596736E-05 +3.553444E-06 +4.945658E-05 -1.306250E-04 +4.945658E-05 +4.719429E-03 
 +2.433843E-04 -8.413526E-06 -6.720591E-05 -8.413526E-06 -3.071201E-05 +5.693701E-05 -6.720591E-05 +5.693701E-05 +4.717550E-03 
 +1.998904E-04 +3.297771E-05 +7.230354E-05 +3.297771E-05 +8.188702E-06 -1.522576E-05 +7.230354E-05 -1.522576E-05 +4.899397E-03 
 +2.214190E-05 -7.316178E-05 +2.145550E-04 -7.316178E-05 -2.393694E-05 -3.791504E-05 +2.145550E-04 -3.791504E-05 +5.110579E-03 
 +1.619097E-05 -1.607138E-04 +1.195065E-04 -1.607138E-04 -6.858162E-05 -4.852582E-05 +1.195065E-04 -4.852582E-05 +5.177469E-03 
 -1.170202E-04 -1.599338E-04 +4.513026E-05 -1.599338E-04 +8.459808E-06 -6.776295E-05 +4.513026E-05 -6.776295E-05 +5.152576E-03 
 -3.863406E-04 -7.288223E-05 -1.374733E-04 -7.288223E-05 +7.419041E-05 -3.543927E-05 -1.374733E-04 -3.543927E-05 +5.152717E-03 
 -3.971410E-04 -8.458664E-05 -1.084860E-04 -8.458664E-05 +4.339254E-05 +1.491463E-05 -1.084860E-04 +1.491463E-05 +5.114787E-03 
 +3.628009E-05 -6.668132E-05 -3.429117E-04 -6.668132E-05 -5.465755E-05 +3.021623E-05 -3.429117E-04 +3.021623E-05 +4.984471E-03 
 +1.857753E-04 +1.760287E-04 -1.540028E-04 +1.760287E-04 -2.117731E-04 +3.829136E-06 -1.540028E-04 +3.829136E-06 +4.924708E-03 
 +1.768017E-04 +1.271789E-04 -1.560629E-04 +1.271789E-04 -2.324470E-04 +1.287043E-06 -1.560629E-04 +1.287043E-06 +4.911203E-03 
 +1.235599E-04 +7.203714E-05 -1.651398E-04 +7.203714E-05 -5.596808E-07 -4.499478E-05 -1.651398E-04 -4.499478E-05 +4.836952E-03 
 +1.057659E-04 +9.925598E-05 -1.646258E-04 +9.925598E-05 +1.410729E-04 -8.589553E-05 -1.646258E-04 -8.589553E-05 +4.782618E-03 
 +9.361498E-05 +8.660239E-05 -1.818747E-04 +8.660239E-05 +1.508734E-04 -2.502835E-05 -1.818747E-04 -2.502835E-05 +4.821294E-03 
 -1.464520E-05 +7.980165E-05 +1.883540E-04 +7.980165E-05 +2.208409E-04 -3.619299E-05 +1.883540E-04 -3.619299E-05 +4.901190E-03 
 -4.370448E-04 -8.548102E-05 +7.071514E-05 -8.548102E-05 +3.057400E-04 -8.946571E-05 +7.071514E-05 -8.946571E-05 +5.052860E-03 
 -5.183768E-04 -6.655290E-05 +8.341163E-05 -6.655290E-05 +3.687749E-04 -6.604582E-05 +8.341163E-05 -6.604582E-05 +5.122093E-03 
 -3.528398E-04 +3.006521E-05 +6.841652E-05 +3.006521E-05 +3.124317E-04 -5.236244E-05 +6.841652E-05 -5.236244E-05 +4.971715E-03 
 +6.046634E-05 +1.380252E-04 +9.068441E-05 +1.380252E-04 +1.376594E-04 -4.410427E-05 +9.068441E-05 -4.410427E-05 +4.811452E-03 
 +2.544592E-04 +4.387723E-05 +5.091822E-05 +4.387723E-05 +4.510422E-05 +2.899560E-05 +5.091822E-05 +2.899560E-05 +4.732139E-03 
 +2.849298E-04 +5.841249E-06 -9.826214E-05 +5.841249E-06 -4.045515E-05 +8.251905E-05 -9.826214E-05 +8.251905E-05 +4.715375E-03 
 +3.184169E-04 -3.782843E-06 -1.978099E-04 -3.782843E-06 -1.079798E-04 +7.694717E-05 -1.978099E-04 +7.694717E-05 +4.658140E-03 
 +3.021349E-04 +1.706777E-05 -1.096887E-04 +1.706777E-05 -5.398616E-05 +3.227026E-05 -1.096887E-04 +3.227026E-05 +4.634793E-03 
 +2.549089E-04 +4.228401E-05 -6.344714E-06 +4.228401E-05 +9.924735E-06 -1.590697E-05 -6.344714E-06 -1.590697E-05 +4.805169E-03 
 +5.739764E-05 -1.128135E-04 +2.269590E-04 -1.128135E-04 -1.934209E-05 -3.678666E-05 +2.269590E-04 -3.678666E-05 +5.047088E-03 
 +1.739461E-05 -9.421865E-05 +1.290525E-04 -9.421865E-05 -1.515173E-05 -4.172850E-05 +1.290525E-04 -4.172850E-05 +5.156159E-03 
 -1.454153E-04 -8.364171E-05 +8.915125E-05 -8.364171E-05 +4.089056E-05 -5.011971E-05 +8.915125E-05 -5.011971E-05 +5.157041E-03 
 -3.744199E-04 -5.461640E-05 -6.576768E-05 -5.461640E-05 +2.054138E-05 -1.153232E-05 -6.576768E-05 -1.153232E-05 +5.176935E-03 
 -3.410746E-04 -1.075711E-04 -4.448042E-05 -1.075711E-04 -3.602256E-05 +6.072052E-05 -4.448042E-05 +6.072052E-05 +5.126505E-03 
 +6.641943E-05 -7.246784E-05 -2.882897E-04 -7.246784E-05 -5.854374E-05 +7.302685E-05 -2.882897E-04 +7.302685E-05 +4.974130E-03 
 +1.502946E-04 +1.220300E-04 -1.644368E-04 +1.220300E-04 -9.724783E-05 +3.124027E-06 -1.644368E-04 +3.124027E-06 +4.892808E-03 
 +1.333563E-04 +1.323995E-04 -1.728575E-04 +1.323995E-04 -6.087050E-05 -5.650752E-05 -1.728575E-04 -5.650752E-05 +4.864787E-03 
 +8.856042E-05 +7.269884E-05 -1.595503E-04 +7.269884E-05 +3.264116E-05 -6.876271E-05 -1.595503E-04 -6.876271E-05 +4.833719E-03 
 +6.752190E-05 +4.070878E-05 -1.479888E-04 +4.070878E-05 +7.863300E-05 -4.125514E-05 -1.479888E-04 -4.125514E-05 +4.800226E-03 
 +3.215331E-05 +4.476655E-05 -1.894701E-04 +4.476655E-05 +2.193536E-04 -1.781513E-05 -1.894701E-04 -1.781513E-05 +4.775303E-03 
 -1.439446E-04 +1.549602E-06 +7.629667E-05 +1.549602E-06 +3.288225E-04 -1.246860E-04 +7.629667E-05 -1.246860E-04 +4.817925E-03 
 -4.271018E-04 -7.972291E-05 +9.272558E-05 -7.972291E-05 +2.433721E-04 -1.885679E-04 +9.272558E-05 -1.885679E-04 +4.960627E-03 
 -3.652370E-04 +5.647124E-05 +1.247862E-04 +5.647124E-05 +1.924825E-04 -1.539745E-04 +1.247862E-04 -1.539745E-04 +4.992174E-03 
 -2.912915E-04 +1.148756E-04 +1.017543E-04 +1.148756E-04 +2.030729E-04 -1.271079E-04 +1.017543E-04 -1.271079E-04 +4.918795E-03 
 +1.717871E-05 +2.076670E-04 +5.959102E-05 +2.076670E-04 -2.974901E-05 -1.478195E-05 +5.959102E-05 -1.478195E-05 +4.938458E-03 
 +2.197685E-05 +1.838831E-04 -1.133587E-05 +1.838831E-04 -1.434109E-04 +1.507746E-04 -1.133587E-05 +1.507746E-04 +4.955307E-03 
 +2.147069E-05 +1.331251E-05 -1.735405E-04 +1.331251E-05 -1.876813E-04 +1.936742E-04 -1.735405E-04 +1.936742E-04 +4.889711E-03 
 +4.183069E-04 -1.249243E-06 -3.353617E-04 -1.249243E-06 -1.864215E-04 +1.278282E-04 -3.353617E-04 +1.278282E-04 +4.653828E-03 
 +3.777986E-04 +9.915595E-05 -2.062978E-04 +9.915595E-05 -2.906819E-05 +2.457305E-05 -2.062978E-04 +2.457305E-05 +4.577957E-03 
 +3.021332E-04 +2.154625E-05 -2.896230E-05 +2.154625E-05 +4.148488E-05 +2.831192E-06 -2.896230E-05 +2.831192E-06 +4.750904E-03 
 +1.414561E-04 -1.452746E-04 +1.832582E-04 -1.452746E-04 -4.009666E-05 -1.915648E-05 +1.832582E-04 -1.915648E-05 +4.971242E-03 
 +4.678514E-05 -3.055981E-05 +1.557203E-04 -3.055981E-05 -1.078824E-05 -5.226854E-05 +1.557203E-04 -5.226854E-05 +5.107578E-03 
 -1.112831E-04 -2.087282E-05 +1.490427E-04 -2.087282E-05 +4.781152E-05 -4.966094E-05 +1.490427E-04 -4.966094E-05 +5.154140E-03 
 -3.800336E-04 +1.061415E-06 -6.021353E-06 +1.061415E-06 +2.231942E-05 -3.020680E-05 -6.021353E-06 -3.020680E-05 +5.195880E-03 
 -3.479518E-04 -5.604894E-05 +1.039417E-05 -5.604894E-05 -1.975197E-05 +1.507519E-05 +1.039417E-05 +1.507519E-05 +5.139608E-03 
 +5.787468E-05 -2.990439E-05 -1.918910E-04 -2.990439E-05 +4.516434E-05 -1.348775E-05 -1.918910E-04 -1.348775E-05 +4.974207E-03 
 +4.177772E-05 +6.552174E-05 -1.579871E-04 +6.552174E-05 +1.367039E-04 -1.008688E-04 -1.579871E-04 -1.008688E-04 +4.875143E-03 
 +4.742608E-05 +1.231843E-04 -1.680922E-04 +1.231843E-04 +8.756847E-05 -1.047031E-04 -1.680922E-04 -1.047031E-04 +4.817924E-03 
 +7.542666E-05 +8.377745E-05 -1.399927E-04 +8.377745E-05 +5.224633E-05 -5.095228E-05 -1.399927E-04 -5.095228E-05 +4.775763E-03 
 +1.990977E-05 +6.618454E-05 -1.281199E-04 +6.618454E-05 +1.520977E-04 -3.136511E-05 -1.281199E-04 -3.136511E-05 +4.758809E-03 
 -2.800324E-05 +9.722200E-05 -1.654369E-04 +9.722200E-05 +1.876021E-04 +1.968825E-05 -1.654369E-04 +1.968825E-05 +4.705761E-03 
 -9.151718E-05 +8.399920E-05 -5.470022E-05 +8.399920E-05 +1.249548E-04 -4.641968E-06 -5.470022E-05 -4.641968E-06 +4.728567E-03 
 -2.895378E-04 +1.058043E-06 +8.096847E-05 +1.058043E-06 +9.662091E-05 -9.510702E-05 +8.096847E-05 -9.510702E-05 +4.885189E-03 
 -2.464742E-04 +1.475264E-04 +6.682525E-05 +1.475264E-04 +3.800976E-05 -1.420967E-04 +6.682525E-05 -1.420967E-04 +4.945916E-03 
 -9.477552E-05 +2.466595E-04 +2.703521E-05 +2.466595E-04 +4.198216E-05 -1.587455E-04 +2.703521E-05 -1.587455E-04 +4.947378E-03 
 -9.323440E-05 +3.009971E-05 -4.552860E-05 +3.009971E-05 -4.787668E-05 +4.059296E-05 -4.552860E-05 +4.059296E-05 +5.155469E-03 
 -1.321820E-04 +1.005112E-04 -6.359687E-05 +1.005112E-04 -4.908932E-05 +1.417186E-04 -6.359687E-05 +1.417186E-04 +5.200916E-03 
 -1.462084E-04 +8.565518E-05 -1.129421E-04 +8.565518E-05 -5.748518E-06 +1.362902E-04 -1.129421E-04 +1.362902E-04 +5.077620E-03 
 +3.295440E-04 +9.028991E-05 -2.841309E-04 +9.028991E-05 -7.770590E-05 +1.179655E-04 -2.841309E-04 +1.179655E-04 +4.759037E-03 
 +4.867218E-04 +1.817182E-04 -2.410843E-04 +1.817182E-04 -1.654976E-04 +3.231178E-05 -2.410843E-04 +3.231178E-05 +4.593444E-03 
 +3.092440E-04 +7.989219E-06 +4.614336E-05 +7.989219E-06 -1.841568E-04 +9.627724E-06 +4.614336E-05 +9.627724E-06 +4.727610E-03 
 +1.645045E-04 -1.571124E-04 +1.083840E-04 -1.571124E-04 -1.154392E-04 -2.627471E-06 +1.083840E-04 -2.627471E-06 +4.907501E-03 
 +1.172569E-04 -7.030878E-05 +1.240342E-04 -7.030878E-05 -6.457785E-05 -4.534987E-05 +1.240342E-04 -4.534987E-05 +5.031016E-03 
 +7.597970E-05 -1.324299E-05 +1.641491E-04 -1.324299E-05 -6.908852E-05 -7.931809E-05 +1.641491E-04 -7.931809E-05 +5.135287E-03 
 -2.996459E-04 +1.161842E-04 +5.207710E-05 +1.161842E-04 +3.135093E-05 -1.062554E-04 +5.207710E-05 -1.062554E-04 +5.204593E-03 
 -4.605657E-04 -4.470982E-06 +8.524543E-05 -4.470982E-06 +4.714378E-05 -6.579748E-05 +8.524543E-05 -6.579748E-05 +5.138982E-03 
 -6.181597E-05 +1.007901E-04 -1.696796E-04 +1.007901E-04 +5.646600E-05 -1.166498E-04 -1.696796E-04 -1.166498E-04 +5.000270E-03 
 -4.576340E-05 +1.101379E-04 -1.852654E-04 +1.101379E-04 +1.057910E-04 -1.916897E-04 -1.852654E-04 -1.916897E-04 +4.927692E-03 
 +1.433614E-06 +1.521897E-04 -1.488973E-04 +1.521897E-04 +8.387750E-05 -1.619747E-04 -1.488973E-04 -1.619747E-04 +4.875044E-03 
 +1.729492E-05 +1.679515E-04 -1.162828E-04 +1.679515E-04 +1.356120E-04 -1.000206E-04 -1.162828E-04 -1.000206E-04 +4.773360E-03 
 -2.977527E-05 +1.407663E-04 -1.247315E-04 +1.407663E-04 +1.771123E-04 -7.292740E-05 -1.247315E-04 -7.292740E-05 +4.700652E-03 
 -2.158508E-05 +6.692762E-05 -1.715741E-04 +6.692762E-05 +8.890286E-05 -2.784208E-05 -1.715741E-04 -2.784208E-05 +4.616329E-03 
 -5.290707E-05 +3.401907E-05 -1.691888E-04 +3.401907E-05 -2.417378E-05 -4.902644E-05 -1.691888E-04 -4.902644E-05 +4.638633E-03 
 -1.348622E-04 -3.772302E-05 -5.839507E-05 -3.772302E-05 -2.722702E-05 -1.523702E-04 -5.839507E-05 -1.523702E-04 +4.830322E-03 
 -8.783570E-05 +6.475379E-05 -5.023622E-05 +6.475379E-05 -1.130506E-04 -1.574936E-04 -5.023622E-05 -1.574936E-04 +4.961127E-03 
 +6.435369E-05 +3.148580E-04 -1.466748E-04 +3.148580E-04 -1.290286E-04 -9.604878E-05 -1.466748E-04 -9.604878E-05 +5.056623E-03 
 -2.319177E-04 +3.691569E-05 +2.182388E-05 +3.691569E-05 -1.550937E-04 -2.946285E-05 +2.182388E-05 -2.946285E-05 +5.268563E-03 
 -1.940509E-04 +9.645976E-05 -2.618739E-06 +9.645976E-05 -1.011917E-04 +8.629561E-05 -2.618739E-06 +8.629561E-05 +5.283567E-03 
 -5.223165E-05 +1.387565E-04 +7.659880E-05 +1.387565E-04 -3.138593E-05 +1.109956E-04 +7.659880E-05 +1.109956E-04 +5.086276E-03 
 +9.313481E-05 +5.616493E-05 -1.726212E-05 +5.616493E-05 +4.527739E-05 +1.202138E-04 -1.726212E-05 +1.202138E-04 +4.803418E-03 
 +4.844077E-04 +1.113161E-04 -8.114430E-05 +1.113161E-04 -8.416655E-05 +4.785405E-05 -8.114430E-05 +4.785405E-05 +4.655205E-03 
 +3.492944E-04 -5.214954E-05 +1.446937E-04 -5.214954E-05 -1.901356E-04 -1.734928E-05 +1.446937E-04 -1.734928E-05 +4.770332E-03 
 +2.770169E-04 -4.566040E-05 +1.276511E-04 -4.566040E-05 -1.878778E-04 -4.950557E-05 +1.276511E-04 -4.950557E-05 +4.912177E-03 
 +1.410864E-04 +2.293810E-05 +1.518582E-04 +2.293810E-05 -1.716355E-04 -5.559822E-05 +1.518582E-04 -5.559822E-05 +4.995834E-03 
 +5.689149E-05 -4.759085E-05 +1.669462E-04 -4.759085E-05 -1.164611E-04 -1.015541E-04 +1.669462E-04 -1.015541E-04 +5.100034E-03 
 -2.106680E-04 -1.003843E-04 +8.890764E-05 -1.003843E-04 -4.626116E-05 -1.215786E-04 +8.890764E-05 -1.215786E-04 +5.163350E-03 
 -3.861650E-04 -1.809466E-04 +9.106972E-05 -1.809466E-04 +1.558286E-05 -1.084481E-04 +9.106972E-05 -1.084481E-04 +5.126772E-03 
 -1.668588E-04 +1.023959E-04 -1.551766E-04 +1.023959E-04 +5.352774E-05 -1.582976E-04 -1.551766E-04 -1.582976E-04 +5.076907E-03 
 -1.396939E-04 +8.936965E-05 -1.351880E-04 +8.936965E-05 +7.228744E-05 -1.735457E-04 -1.351880E-04 -1.735457E-04 +4.976754E-03 
 -7.394191E-05 +9.659695E-05 -1.189239E-04 +9.659695E-05 +8.396533E-05 -1.577876E-04 -1.189239E-04 -1.577876E-04 +4.839376E-03 
 -1.239021E-05 +1.893276E-04 -4.416181E-05 +1.893276E-04 +1.346701E-04 -1.277165E-04 -4.416181E-05 -1.277165E-04 +4.743046E-03 
 -1.775715E-05 +1.081630E-04 -9.820234E-05 +1.081630E-04 +1.185325E-04 -4.978190E-05 -9.820234E-05 -4.978190E-05 +4.695504E-03 
 -7.268713E-05 +7.561111E-05 -2.665062E-04 +7.561111E-05 +7.744420E-05 +1.946738E-05 -2.665062E-04 +1.946738E-05 +4.640780E-03 
 -4.759177E-05 +2.739901E-05 -2.580167E-04 +2.739901E-05 +7.366925E-05 -2.782867E-05 -2.580167E-04 -2.782867E-05 +4.665109E-03 
 +3.510033E-05 +1.689788E-05 -1.988264E-04 +1.689788E-05 -7.111633E-07 -1.439075E-04 -1.988264E-04 -1.439075E-04 +4.807849E-03 
 +4.036494E-05 -2.895684E-05 -7.065086E-05 -2.895684E-05 -8.599862E-05 -1.979850E-04 -7.065086E-05 -1.979850E-04 +4.932656E-03 
 +1.284572E-04 +2.833227E-04 -9.718263E-05 +2.833227E-04 -1.913960E-04 -1.707131E-04 -9.718263E-05 -1.707131E-04 +5.074541E-03 
 -1.764915E-04 +3.481598E-05 +6.723323E-05 +3.481598E-05 -1.438487E-04 -3.443788E-05 +6.723323E-05 -3.443788E-05 +5.183398E-03 
 -2.630011E-04 +5.582048E-05 +6.671481E-05 +5.582048E-05 -9.241489E-05 -1.073359E-05 +6.671481E-05 -1.073359E-05 +5.194544E-03 
 +6.118367E-05 +2.305323E-04 +1.847791E-04 +2.305323E-04 -3.635023E-05 -3.044909E-06 +1.847791E-04 -3.044909E-06 +4.957012E-03 
 +1.022784E-04 +1.994746E-04 +1.524445E-04 +1.994746E-04 +1.516099E-04 -5.637286E-05 +1.524445E-04 -5.637286E-05 +4.773415E-03 
 +4.457056E-04 +1.993788E-04 +1.629361E-04 +1.993788E-04 +3.929762E-05 -8.132027E-05 +1.629361E-04 -8.132027E-05 +4.779339E-03 
 +4.164417E-04 +1.255344E-04 +2.228183E-04 +1.255344E-04 -3.720869E-04 -4.859938E-05 +2.228183E-04 -4.859938E-05 +4.850013E-03 
 +2.943933E-04 +1.504096E-04 +2.141848E-04 +1.504096E-04 -4.300572E-04 -7.376164E-05 +2.141848E-04 -7.376164E-05 +4.946396E-03 
 -1.200562E-05 +3.749981E-05 +2.113024E-04 +3.749981E-05 -1.774971E-04 -9.220658E-05 +2.113024E-04 -9.220658E-05 +5.008967E-03 
 -1.190612E-04 -5.669599E-05 +1.367622E-04 -5.669599E-05 -4.355901E-05 -8.204460E-05 +1.367622E-04 -8.204460E-05 +5.041495E-03 
 -1.850801E-04 -5.664733E-05 +3.354244E-05 -5.664733E-05 -5.190977E-05 -7.784381E-05 +3.354244E-05 -7.784381E-05 +5.062493E-03 
 -2.851607E-04 -1.699421E-04 -2.610799E-05 -1.699421E-04 +5.412212E-05 -6.628166E-05 -2.610799E-05 -6.628166E-05 +5.082335E-03 
 -3.060466E-04 -1.294060E-04 -1.115490E-04 -1.294060E-04 +1.440371E-04 +4.515885E-06 -1.115490E-04 +4.515885E-06 +5.036211E-03 
 -1.699481E-04 -7.998146E-05 -8.262406E-05 -7.998146E-05 +1.610246E-04 +1.076791E-04 -8.262406E-05 +1.076791E-04 +4.838932E-03 
 -9.620442E-05 -1.636229E-05 -1.089444E-04 -1.636229E-05 +2.403843E-04 +1.078855E-04 -1.089444E-04 +1.078855E-04 +4.714731E-03 
 -2.868675E-05 +3.402267E-05 -6.586122E-05 +3.402267E-05 +9.724063E-05 +6.076985E-05 -6.586122E-05 +6.076985E-05 +4.739265E-03 
 +4.353051E-06 -5.267626E-05 -1.288718E-04 -5.267626E-05 -4.182115E-05 +7.382601E-05 -1.288718E-04 +7.382601E-05 +4.741130E-03 
 -1.391273E-05 +6.184176E-05 -2.946771E-04 +6.184176E-05 +1.130595E-04 +8.853811E-05 -2.946771E-04 +8.853811E-05 +4.700524E-03 
 +8.432613E-05 -2.901861E-05 -2.434941E-04 -2.901861E-05 +1.225806E-04 +3.256613E-05 -2.434941E-04 +3.256613E-05 +4.721162E-03 
 +1.227610E-04 -6.253678E-07 -1.921714E-04 -6.253678E-07 -3.320081E-05 +4.062451E-05 -1.921714E-04 +4.062451E-05 +4.849925E-03 
 +4.760198E-05 -5.245760E-05 -9.779615E-05 -5.245760E-05 -3.363599E-05 +1.198052E-04 -9.779615E-05 +1.198052E-04 +4.984041E-03 
 +7.638529E-05 +1.135854E-04 -8.398820E-05 +1.135854E-04 -9.998783E-05 +6.288016E-05 -8.398820E-05 +6.288016E-05 +5.055031E-03 
 -7.577969E-05 +3.405889E-05 -1.384225E-05 +3.405889E-05 -1.834566E-04 +6.554943E-05 -1.384225E-05 +6.554943E-05 +5.080244E-03 
 -2.323490E-04 +5.656115E-05 +1.055004E-04 +5.656115E-05 -1.322624E-04 -5.132224E-05 +1.055004E-04 -5.132224E-05 +5.086781E-03 
 +1.529592E-04 +2.164194E-04 +2.575779E-04 +2.164194E-04 -1.677579E-04 -7.703489E-05 +2.575779E-04 -7.703489E-05 +4.990212E-03 
 +2.429943E-04 +1.141230E-04 +2.057087E-04 +1.141230E-04 -4.663127E-04 -3.718413E-05 +2.057087E-04 -3.718413E-05 +4.972583E-03 
 +3.881092E-04 +2.358117E-05 +2.600585E-04 +2.358117E-05 -5.114425E-04 -3.238572E-05 +2.600585E-04 -3.238572E-05 +4.994398E-03 
 +3.092952E-04 -1.288493E-04 +2.404745E-04 -1.288493E-04 -1.708145E-04 -7.877387E-05 +2.404745E-04 -7.877387E-05 +4.935121E-03 
 +4.735775E-05 -1.435620E-04 +1.839708E-04 -1.435620E-04 -3.360006E-05 -1.241046E-04 +1.839708E-04 -1.241046E-04 +4.970121E-03 
 -8.915973E-05 -1.492962E-04 +8.611190E-05 -1.492962E-04 -9.527343E-05 -1.056276E-04 +8.611190E-05 -1.056276E-04 +5.025246E-03 
 -1.215822E-04 -1.660909E-04 +9.371203E-06 -1.660909E-04 -6.064665E-05 -5.408884E-05 +9.371203E-06 -5.408884E-05 +5.031709E-03 
 -2.251887E-04 -2.003920E-04 -2.709254E-05 -2.003920E-04 +3.088589E-05 -7.607276E-05 -2.709254E-05 -7.607276E-05 +5.016893E-03 
 -2.859320E-04 -1.970109E-04 -5.022473E-05 -1.970109E-04 +1.665657E-04 -8.749158E-05 -5.022473E-05 -8.749158E-05 +5.015187E-03 
 -4.632167E-04 -1.851136E-04 -5.885748E-05 -1.851136E-04 +2.705463E-04 -1.345750E-05 -5.885748E-05 -1.345750E-05 +4.952426E-03 
 -1.553469E-04 -1.298218E-04 -4.547336E-05 -1.298218E-04 +2.262065E-04 +4.473816E-05 -4.547336E-05 +4.473816E-05 +4.808630E-03 
 -1.704044E-05 -8.339543E-05 -9.292710E-05 -8.339543E-05 +1.059858E-04 +5.185745E-05 -9.292710E-05 +5.185745E-05 +4.781172E-03 
 +1.423562E-06 -3.886090E-05 -1.449535E-04 -3.886090E-05 +7.959273E-05 +9.527943E-05 -1.449535E-04 +9.527943E-05 +4.801844E-03 
 +1.328525E-05 +6.250183E-05 -1.820893E-04 +6.250183E-05 +1.992891E-04 +1.794962E-04 -1.820893E-04 +1.794962E-04 +4.740982E-03 
 +2.145245E-04 +1.488190E-04 -2.225495E-04 +1.488190E-04 +1.692404E-04 +2.120138E-04 -2.225495E-04 +2.120138E-04 +4.762047E-03 
 +1.889842E-04 -5.763125E-05 -1.527118E-04 -5.763125E-05 +1.501617E-05 +2.088342E-04 -1.527118E-04 +2.088342E-04 +4.884707E-03 
 +8.033973E-05 -9.495476E-05 -1.331826E-04 -9.495476E-05 -9.346071E-05 +2.366928E-04 -1.331826E-04 +2.366928E-04 +4.989043E-03 
 +3.977297E-05 -9.184496E-05 -1.356207E-04 -9.184496E-05 -1.549993E-04 +2.593730E-04 -1.356207E-04 +2.593730E-04 +5.037611E-03 
 -1.364814E-05 +2.531261E-05 -1.537281E-04 +2.531261E-05 -1.587183E-04 +2.111584E-04 -1.537281E-04 +2.111584E-04 +5.045108E-03 
 -3.908391E-05 +4.615348E-05 -8.001144E-05 +4.615348E-05 -1.849707E-04 +1.402562E-04 -8.001144E-05 +1.402562E-04 +5.022585E-03 
 -3.800654E-05 +8.900138E-05 -2.523816E-05 +8.900138E-05 -3.704939E-04 +1.284316E-04 -2.523816E-05 +1.284316E-04 +5.022788E-03 
 +1.964626E-04 +2.076258E-04 +1.473826E-04 +2.076258E-04 -6.708307E-04 +1.330351E-05 +1.473826E-04 +1.330351E-05 +5.057682E-03 
 +1.818525E-04 +1.515242E-04 +1.655616E-04 +1.515242E-04 -6.046854E-04 -7.070640E-05 +1.655616E-04 -7.070640E-05 +5.135191E-03 
 +2.254756E-04 +9.583964E-05 +1.654862E-04 +9.583964E-05 -3.492440E-04 -4.466779E-05 +1.654862E-04 -4.466779E-05 +5.096286E-03 
 +9.988535E-06 -3.299854E-05 +1.709247E-04 -3.299854E-05 -1.836319E-04 -4.011093E-05 +1.709247E-04 -4.011093E-05 +4.992620E-03 
 -1.275379E-04 -1.844456E-04 +1.604857E-04 -1.844456E-04 -1.018110E-05 -2.386594E-05 +1.604857E-04 -2.386594E-05 +5.003503E-03 
 -8.450598E-05 -2.275049E-04 +1.930034E-05 -2.275049E-04 +3.549841E-06 -2.755897E-06 +1.930034E-05 -2.755897E-06 +5.053429E-03 
 -1.445972E-04 -2.676761E-04 -1.853471E-05 -2.676761E-04 -2.412969E-05 -7.081104E-06 -1.853471E-05 -7.081104E-06 +5.066631E-03 
 -2.382338E-04 -2.568175E-04 -3.699468E-05 -2.568175E-04 +3.855002E-05 -8.394131E-05 -3.699468E-05 -8.394131E-05 +5.040385E-03 
 -2.936343E-04 -2.598702E-04 -2.501706E-05 -2.598702E-04 +1.141399E-04 -1.450973E-04 -2.501706E-05 -1.450973E-04 +5.016045E-03 
 -3.387132E-04 -1.912407E-04 -7.581500E-05 -1.912407E-04 +2.512745E-04 -4.651458E-05 -7.581500E-05 -4.651458E-05 +4.932552E-03 
 -1.097168E-04 -1.224261E-04 -2.713390E-05 -1.224261E-04 +2.656088E-04 +7.021935E-05 -2.713390E-05 +7.021935E-05 +4.829372E-03 
 -3.724572E-05 -9.795524E-05 -3.018950E-05 -9.795524E-05 +8.544401E-05 +1.041760E-04 -3.018950E-05 +1.041760E-04 +4.857059E-03 
 -4.610842E-06 -8.867213E-05 -5.388880E-05 -8.867213E-05 -1.649637E-05 +1.464435E-04 -5.388880E-05 +1.464435E-04 +4.898512E-03 
 +1.569694E-04 -3.847522E-06 -1.066042E-04 -3.847522E-06 -1.170554E-04 +2.375795E-04 -1.066042E-04 +2.375795E-04 +4.864171E-03 
 +3.087946E-04 -6.319153E-05 -9.013708E-05 -6.319153E-05 -3.158258E-04 +2.895095E-04 -9.013708E-05 +2.895095E-04 +4.941193E-03 
 +2.348750E-04 -1.882780E-04 -3.394808E-05 -1.882780E-04 -3.445480E-04 +2.635939E-04 -3.394808E-05 +2.635939E-04 +5.040394E-03 
 +8.424590E-05 -1.805094E-04 -1.269616E-04 -1.805094E-04 -2.038133E-04 +2.663065E-04 -1.269616E-04 +2.663065E-04 +5.000262E-03 
 +6.527918E-05 -9.510525E-05 -1.473401E-04 -9.510525E-05 -1.463641E-04 +2.597795E-04 -1.473401E-04 +2.597795E-04 +4.957496E-03 
 -8.238002E-06 +3.253528E-05 -1.464821E-04 +3.253528E-05 -1.493097E-04 +1.943598E-04 -1.464821E-04 +1.943598E-04 +4.986593E-03 
 +6.910389E-05 +8.060513E-05 -7.157288E-05 +8.060513E-05 -2.006578E-04 +1.431470E-04 -7.157288E-05 +1.431470E-04 +4.967539E-03 
 +1.009283E-04 +2.889440E-06 -1.149647E-04 +2.889440E-06 -3.056137E-04 +1.914213E-04 -1.149647E-04 +1.914213E-04 +4.970464E-03 
 +1.419326E-04 +7.019638E-05 -1.373207E-05 +7.019638E-05 -3.424377E-04 +1.212746E-04 -1.373207E-05 +1.212746E-04 +5.008818E-03 
 +6.407608E-05 +1.745398E-04 +6.872108E-05 +1.745398E-04 -3.127884E-04 -1.108510E-05 +6.872108E-05 -1.108510E-05 +5.074484E-03 
 +1.009200E-04 +2.350215E-04 +9.043177E-05 +2.350215E-04 -2.635610E-05 -7.902152E-05 +9.043177E-05 -7.902152E-05 +5.046874E-03 
 -1.969348E-04 +9.952434E-05 +6.598525E-05 +9.952434E-05 +2.780409E-04 -6.953873E-05 +6.598525E-05 -6.953873E-05 +4.978387E-03 
 -2.761628E-04 -7.848767E-05 +5.996042E-05 -7.848767E-05 +2.284138E-04 -1.408375E-05 +5.996042E-05 -1.408375E-05 +4.997532E-03 
 -2.228004E-04 -2.044899E-04 +5.038070E-05 -2.044899E-04 +1.279935E-04 +1.190934E-05 +5.038070E-05 +1.190934E-05 +5.069264E-03 
 -2.218376E-04 -2.470534E-04 +8.354325E-06 -2.470534E-04 +3.587232E-05 +4.910577E-06 +8.354325E-06 +4.910577E-06 +5.113715E-03 
 -2.568861E-04 -2.392523E-04 -3.500358E-05 -2.392523E-04 -4.340056E-06 -1.056529E-04 -3.500358E-05 -1.056529E-04 +5.104710E-03 
 -1.917856E-04 -1.833312E-04 -5.933179E-05 -1.833312E-04 +3.068628E-05 -2.078232E-04 -5.933179E-05 -2.078232E-04 +5.044083E-03 
 +1.332220E-05 +3.150436E-05 -1.124649E-04 +3.150436E-05 +4.437693E-05 -1.253277E-04 -1.124649E-04 -1.253277E-04 +4.918334E-03 
 -1.089219E-05 +3.302728E-05 +4.159824E-06 +3.302728E-05 +1.325490E-04 +4.952544E-05 +4.159824E-06 +4.952544E-05 +4.853557E-03 
 -1.439022E-04 +1.600969E-06 +7.430194E-05 +1.600969E-06 +1.749236E-04 +1.489920E-04 +7.430194E-05 +1.489920E-04 +4.973339E-03 
 -1.848083E-04 -5.661362E-05 +7.818393E-06 -5.661362E-05 -1.002585E-04 +1.818728E-04 +7.818393E-06 +1.818728E-04 +5.102145E-03 
 +9.289709E-05 -1.011035E-04 -1.427660E-05 -1.011035E-04 -3.790317E-04 +2.207243E-04 -1.427660E-05 +2.207243E-04 +5.076956E-03 
 +2.990066E-04 -2.740116E-04 +6.403928E-05 -2.740116E-04 -4.279099E-04 +1.964157E-04 +6.403928E-05 +1.964157E-04 +5.043667E-03 
 +3.638749E-04 -2.263352E-04 +7.377501E-05 -2.263352E-04 -3.699291E-04 +1.306099E-04 +7.377501E-05 +1.306099E-04 +5.007229E-03 
 +2.586151E-04 -1.941026E-04 -2.444484E-05 -1.941026E-04 -2.816849E-04 +1.676788E-04 -2.444484E-05 +1.676788E-04 +4.931023E-03 
 +1.421562E-04 -9.927967E-05 -9.516006E-05 -9.927967E-05 -2.267216E-04 +1.915065E-04 -9.516006E-05 +1.915065E-04 +4.913956E-03 
 +5.928252E-05 +5.453714E-05 -1.074832E-04 +5.453714E-05 -1.873392E-04 +1.604147E-04 -1.074832E-04 +1.604147E-04 +4.942061E-03 
 +2.222654E-04 +1.499859E-05 -3.344161E-05 +1.499859E-05 -2.472079E-04 +1.372872E-04 -3.344161E-05 +1.372872E-04 +4.904276E-03 
 +2.618102E-04 -2.974672E-06 -6.236027E-05 -2.974672E-06 -2.908091E-04 +1.646920E-04 -6.236027E-05 +1.646920E-04 +4.933033E-03 
 -3.611307E-05 +2.470876E-04 +3.728576E-05 +2.470876E-04 -1.801905E-04 +9.892526E-05 +3.728576E-05 +9.892526E-05 +4.989883E-03 
 -1.478941E-04 +1.750533E-04 +1.270205E-05 +1.750533E-04 -1.875658E-05 -3.481683E-06 +1.270205E-05 -3.481683E-06 +5.027560E-03 
 -1.359887E-04 +1.456244E-04 -1.519487E-05 +1.456244E-04 -1.153269E-04 -7.438496E-05 -1.519487E-05 -7.438496E-05 +5.033065E-03 
 -1.536473E-04 -2.176351E-05 -6.863403E-05 -2.176351E-05 -1.137769E-04 -5.754565E-05 -6.863403E-05 -5.754565E-05 +5.003556E-03 
 -3.387467E-04 -1.205309E-04 -1.211658E-04 -1.205309E-04 +1.422506E-04 +1.274841E-07 -1.211658E-04 +1.274841E-07 +5.001480E-03 
 -3.154172E-04 -2.186744E-04 -1.920981E-05 -2.186744E-04 +1.868600E-04 +3.657434E-05 -1.920981E-05 +3.657434E-05 +5.065314E-03 
 -2.764004E-04 -2.263911E-04 -6.724937E-05 -2.263911E-04 +1.104869E-05 +4.644941E-05 -6.724937E-05 +4.644941E-05 +5.133125E-03 
 -1.651408E-04 -3.051744E-05 -3.126173E-05 -3.051744E-05 -1.255360E-04 -9.968665E-05 -3.126173E-05 -9.968665E-05 +5.132809E-03 
 +5.938032E-05 +1.445489E-04 -6.991233E-05 +1.445489E-04 -9.192797E-05 -2.466857E-04 -6.991233E-05 -2.466857E-04 +5.036268E-03 
 +6.899208E-05 +9.085789E-05 -1.889793E-05 +9.085789E-05 -7.811641E-05 -2.470143E-04 -1.889793E-05 -2.470143E-04 +4.950817E-03 
 +3.193923E-06 +4.796842E-05 +1.046164E-04 +4.796842E-05 -3.039278E-05 -1.902563E-04 +1.046164E-04 -1.902563E-04 +4.967040E-03 
 -1.864912E-04 -1.012550E-04 +2.110313E-04 -1.012550E-04 +1.343324E-04 -1.294258E-04 +2.110313E-04 -1.294258E-04 +5.080402E-03 
 -1.974265E-04 -1.674859E-04 +4.030489E-05 -1.674859E-04 +1.464235E-04 +3.733949E-05 +4.030489E-05 +3.733949E-05 +5.181555E-03 
 -1.626155E-04 +2.391121E-05 +6.112510E-06 +2.391121E-05 +1.839791E-05 +1.940196E-04 +6.112510E-06 +1.940196E-04 +5.150755E-03 
 +2.433740E-04 -1.622831E-04 +1.320458E-04 -1.622831E-04 -2.507365E-04 +1.842761E-04 +1.320458E-04 +1.842761E-04 +5.081045E-03 
 +3.911181E-04 -1.456492E-04 +1.528187E-04 -1.456492E-04 -4.890857E-04 +1.288959E-04 +1.528187E-04 +1.288959E-04 +5.032745E-03 
 +4.466826E-04 -1.685102E-04 +1.295643E-04 -1.685102E-04 -4.995137E-04 +1.174988E-04 +1.295643E-04 +1.174988E-04 +4.973328E-03 
 +2.461083E-04 -6.555704E-05 -1.887552E-05 -6.555704E-05 -3.391079E-04 +1.470167E-04 -1.887552E-05 +1.470167E-04 +4.894674E-03 
 +1.731281E-04 +3.572554E-05 -5.671303E-05 +3.572554E-05 -2.190973E-04 +1.463037E-04 -5.671303E-05 +1.463037E-04 +4.881342E-03 
 +3.941313E-04 -2.864677E-05 +2.545535E-05 -2.864677E-05 -2.804102E-04 +1.470901E-04 +2.545535E-05 +1.470901E-04 +4.855484E-03 
 +2.256661E-04 -9.216142E-05 -4.087782E-05 -9.216142E-05 -9.082928E-05 +2.254125E-04 -4.087782E-05 +2.254125E-04 +4.890422E-03 
 -2.283285E-04 +5.082600E-06 +8.378752E-06 +5.082600E-06 +1.999045E-04 +2.006501E-04 +8.378752E-06 +2.006501E-04 +4.947346E-03 
 -3.230591E-04 -2.743153E-05 -5.257660E-05 -2.743153E-05 +2.974167E-04 +6.562550E-05 -5.257660E-05 +6.562550E-05 +4.951132E-03 
 -3.373411E-04 +1.835133E-05 -1.384720E-04 +1.835133E-05 +2.559187E-04 -1.892194E-05 -1.384720E-04 -1.892194E-05 +4.972027E-03 
 -2.913044E-04 -3.721423E-05 -1.365315E-04 -3.721423E-05 +2.036102E-04 -6.118986E-05 -1.365315E-04 -6.118986E-05 +5.003077E-03 
 -1.157211E-04 -2.767386E-04 -1.348465E-04 -2.767386E-04 +7.372654E-05 -3.163245E-05 -1.348465E-04 -3.163245E-05 +4.999758E-03 
 -1.807912E-04 -2.365246E-04 -1.020866E-04 -2.365246E-04 +9.164541E-06 +4.691351E-05 -1.020866E-04 +4.691351E-05 +5.030268E-03 
 -1.702204E-04 -2.106073E-04 -1.658085E-04 -2.106073E-04 -5.439942E-05 +9.398514E-05 -1.658085E-04 +9.398514E-05 +5.074072E-03 
 +4.277869E-05 +1.431239E-04 +2.292889E-05 +1.431239E-04 -8.458250E-05 -2.686587E-05 +2.292889E-05 -2.686587E-05 +5.032429E-03 
 +1.198132E-04 +2.067893E-04 +6.898478E-05 +2.067893E-04 -2.551254E-05 -1.452787E-04 +6.898478E-05 -1.452787E-04 +4.966427E-03 
 -1.082997E-05 +1.510557E-04 +1.289870E-04 +1.510557E-04 -3.043511E-05 -1.409991E-04 +1.289870E-04 -1.409991E-04 +4.961133E-03 
 -1.411217E-05 +2.427961E-04 +1.474404E-04 +2.427961E-04 -4.540088E-05 -1.038795E-04 +1.474404E-04 -1.038795E-04 +4.990474E-03 
 -4.189110E-05 +2.079362E-04 +2.007181E-04 +2.079362E-04 -6.384539E-05 -6.077141E-05 +2.007181E-04 -6.077141E-05 +5.029237E-03 
 -6.145245E-05 +1.741268E-04 +9.793942E-05 +1.741268E-04 +9.118856E-05 +5.749969E-05 +9.793942E-05 +5.749969E-05 +5.093575E-03 
 -3.324934E-04 +1.417160E-04 -1.515862E-05 +1.417160E-04 +3.327457E-05 +1.385767E-04 -1.515862E-05 +1.385767E-04 +5.146148E-03 
 +6.782326E-05 -6.927412E-05 +7.979797E-05 -6.927412E-05 -2.241536E-04 +8.084879E-05 +7.979797E-05 +8.084879E-05 +5.122975E-03 
 +1.515471E-04 -5.573765E-05 +1.526287E-04 -5.573765E-05 -3.734129E-04 +7.025360E-05 +1.526287E-04 +7.025360E-05 +5.075209E-03 
 +3.946949E-04 -1.479479E-04 +2.177101E-04 -1.479479E-04 -4.321781E-04 +1.105193E-04 +2.177101E-04 +1.105193E-04 +4.981383E-03 
 +3.789085E-04 -5.306239E-05 +7.401763E-05 -5.306239E-05 -3.299219E-04 +1.490205E-04 +7.401763E-05 +1.490205E-04 +4.829135E-03 
 +3.323429E-04 -2.960698E-05 +3.362306E-05 -2.960698E-05 -2.549779E-04 +1.373911E-04 +3.362306E-05 +1.373911E-04 +4.811825E-03 
 +2.994127E-04 -6.093323E-05 +6.279457E-05 -6.093323E-05 -1.587769E-04 +1.713529E-04 +6.279457E-05 +1.713529E-04 +4.838688E-03 
 -9.952728E-05 -1.107640E-04 -5.094422E-05 -1.107640E-04 +1.447836E-04 +2.042697E-04 -5.094422E-05 +2.042697E-04 +4.901320E-03 
 -2.907030E-04 -7.026760E-05 -4.458263E-05 -7.026760E-05 +3.235802E-04 +2.096387E-04 -4.458263E-05 +2.096387E-04 +4.940564E-03 
 -2.974919E-04 -1.023149E-04 -2.521837E-05 -1.023149E-04 +3.274953E-04 +1.629589E-04 -2.521837E-05 +1.629589E-04 +4.931723E-03 
 -3.441787E-04 -8.318733E-05 -6.441644E-05 -8.318733E-05 +3.185272E-04 +5.208400E-05 -6.441644E-05 +5.208400E-05 +4.935167E-03 
 -3.692930E-04 +1.060007E-06 -1.057231E-04 +1.060007E-06 +1.839225E-04 -6.277459E-05 -1.057231E-04 -6.277459E-05 +4.959297E-03 
 +3.677402E-05 -2.082213E-04 -1.471696E-04 -2.082213E-04 -1.112418E-05 -3.525001E-05 -1.471696E-04 -3.525001E-05 +4.954730E-03 
 +6.947744E-05 -1.685136E-04 -1.617599E-04 -1.685136E-04 -1.049162E-04 +2.574477E-05 -1.617599E-04 +2.574477E-05 +4.970660E-03 
 +3.707384E-05 -2.381180E-04 -1.974390E-04 -2.381180E-04 -9.024584E-05 +6.754256E-05 -1.974390E-04 +6.754256E-05 +5.026703E-03 
 +1.306392E-04 +1.823429E-04 +2.397879E-05 +1.823429E-04 -5.403213E-05 +9.953225E-06 +2.397879E-05 +9.953225E-06 +5.033176E-03 
 +8.802760E-05 +1.724769E-04 +1.250861E-04 +1.724769E-04 -5.620812E-05 -8.414008E-05 +1.250861E-04 -8.414008E-05 +5.005839E-03 
 +3.832625E-05 +1.292849E-04 +1.133359E-04 +1.292849E-04 -8.387632E-05 -9.252980E-05 +1.133359E-04 -9.252980E-05 +5.017516E-03 
 +3.897981E-05 +2.040477E-04 +1.035129E-04 +2.040477E-04 -1.051555E-04 -8.572391E-05 +1.035129E-04 -8.572391E-05 +5.056001E-03 
 +1.041739E-04 +1.462324E-04 +1.315539E-04 +1.462324E-04 -8.970857E-05 -3.503959E-05 +1.315539E-04 -3.503959E-05 +5.047789E-03 
 +8.957220E-05 +1.705717E-04 +1.058932E-04 +1.705717E-04 +6.901877E-06 +3.933816E-05 +1.058932E-04 +3.933816E-05 +5.051378E-03 
 -2.009983E-04 +1.413366E-04 -5.509706E-05 +1.413366E-04 +7.634541E-05 +7.069657E-05 -5.509706E-05 +7.069657E-05 +5.088087E-03 
 -1.875040E-04 +1.635883E-04 -2.718098E-05 +1.635883E-04 +1.234452E-04 +1.107563E-05 -2.718098E-05 +1.107563E-05 +5.071670E-03 
 -9.931206E-05 +1.534570E-04 +4.241579E-05 +1.534570E-04 +1.562341E-04 -2.474500E-05 +4.241579E-05 -2.474500E-05 +5.016776E-03 
 +6.911995E-05 +1.240184E-04 +1.703801E-04 +1.240184E-04 +8.941765E-05 +5.502152E-05 +1.703801E-04 +5.502152E-05 +4.902830E-03 
 +3.883794E-04 +8.640989E-05 +1.152915E-04 +8.640989E-05 -8.259573E-05 +1.321867E-04 +1.152915E-04 +1.321867E-04 +4.726415E-03 
 +4.989757E-04 +2.424922E-05 +1.161916E-04 +2.424922E-05 -2.547227E-04 +1.439566E-04 +1.161916E-04 +1.439566E-04 +4.721713E-03 
 +5.550654E-05 -1.539123E-04 +2.007565E-05 -1.539123E-04 +1.313615E-04 +1.355336E-04 +2.007565E-05 +1.355336E-04 +4.807345E-03 
 -2.992402E-04 -1.521177E-04 -3.636607E-05 -1.521177E-04 +2.166173E-04 +1.471631E-04 -3.636607E-05 +1.471631E-04 +4.974944E-03 
 -1.519513E-04 -7.697164E-05 +2.819252E-05 -7.697164E-05 +2.336998E-04 +1.931797E-04 +2.819252E-05 +1.931797E-04 +4.974537E-03 
 -1.843154E-04 -4.019007E-05 +1.001772E-04 -4.019007E-05 +2.730062E-04 +1.824421E-04 +1.001772E-04 +1.824421E-04 +4.903437E-03 
 -2.284958E-04 +5.258211E-05 +1.357591E-04 +5.258211E-05 +2.107886E-04 +8.439406E-05 +1.357591E-04 +8.439406E-05 +4.924801E-03 
 -2.998464E-04 +1.347638E-05 -1.536607E-05 +1.347638E-05 +5.757610E-05 +8.995964E-06 -1.536607E-05 +8.995964E-06 +4.944795E-03 
 +6.744147E-06 -1.918754E-04 -1.514580E-04 -1.918754E-04 -3.078118E-05 -4.849889E-06 -1.514580E-04 -4.849889E-06 +4.909412E-03 
 +1.766058E-04 -2.244317E-04 -1.398645E-04 -2.244317E-04 -1.033269E-04 +1.656987E-05 -1.398645E-04 +1.656987E-05 +4.873478E-03 
 +1.869466E-04 -2.085755E-04 -1.765411E-04 -2.085755E-04 -3.315015E-05 +6.008178E-05 -1.765411E-04 +6.008178E-05 +4.958585E-03 
 +1.293963E-04 +2.352317E-05 -2.768132E-05 +2.352317E-05 +4.437059E-05 +3.971719E-05 -2.768132E-05 +3.971719E-05 +5.125444E-03 
 +6.650788E-05 +1.220421E-05 +3.768627E-05 +1.220421E-05 -5.858664E-05 -3.890687E-05 +3.768627E-05 -3.890687E-05 +5.156175E-03 
 +1.441309E-05 -4.605110E-05 -8.269513E-06 -4.605110E-05 -5.986971E-05 -9.526306E-05 -8.269513E-06 -9.526306E-05 +5.184608E-03 
 -2.534818E-05 -9.868520E-05 +2.157942E-05 -9.868520E-05 -1.043384E-04 -1.551330E-04 +2.157942E-05 -1.551330E-04 +5.237447E-03 
 +1.129158E-04 -2.042202E-04 +1.433508E-04 -2.042202E-04 -2.038643E-04 -1.322641E-04 +1.433508E-04 -1.322641E-04 +5.145600E-03 
 +2.387528E-04 -2.011569E-04 +1.249404E-04 -2.011569E-04 -3.129543E-04 -6.377850E-05 +1.249404E-04 -6.377850E-05 +5.067407E-03 
 +2.280959E-04 -2.355683E-04 +2.027552E-06 -2.355683E-04 -2.416300E-04 -2.336703E-05 +2.027552E-06 -2.336703E-05 +5.039139E-03 
 -1.206546E-04 +2.368460E-06 -4.791899E-05 +2.368460E-06 +5.210686E-05 -3.505494E-05 -4.791899E-05 -3.505494E-05 +4.994272E-03 
 -1.324374E-04 +1.044110E-04 -7.695572E-06 +1.044110E-04 +1.813837E-04 -7.487348E-05 -7.695572E-06 -7.487348E-05 +4.970383E-03 
 -2.018950E-04 +1.914524E-04 +5.876565E-05 +1.914524E-04 +1.425991E-04 -2.024936E-05 +5.876565E-05 -2.024936E-05 +4.905171E-03 
 +1.030905E-04 +6.271371E-05 +2.659366E-05 +6.271371E-05 +3.257403E-05 +1.083988E-04 +2.659366E-05 +1.083988E-04 +4.750800E-03 
 +3.249818E-04 -1.139659E-04 +1.484256E-05 -1.139659E-04 -2.166069E-05 +1.563721E-04 +1.484256E-05 +1.563721E-04 +4.667240E-03 
 +1.562752E-04 -1.787508E-04 -1.250408E-04 -1.787508E-04 +2.132355E-04 +6.335259E-05 -1.250408E-04 +6.335259E-05 +4.715865E-03 
 -3.006821E-04 -9.649145E-05 -7.435596E-05 -9.649145E-05 +2.193271E-04 +9.315635E-05 -7.435596E-05 +9.315635E-05 +4.911165E-03 
 +7.968047E-05 +4.506293E-05 +3.755134E-05 +4.506293E-05 +1.187275E-04 +7.454715E-05 +3.755134E-05 +7.454715E-05 +4.888703E-03 
 +4.001507E-05 +1.093103E-04 +1.312179E-04 +1.093103E-04 +4.837362E-05 +3.911069E-05 +1.312179E-04 +3.911069E-05 +4.825305E-03 
 -5.594638E-05 +1.659538E-04 +1.778891E-04 +1.659538E-04 +8.953597E-05 +1.848644E-05 +1.778891E-04 +1.848644E-05 +4.903370E-03 
 -3.292859E-04 +8.196157E-05 +3.339419E-05 +8.196157E-05 +5.108573E-05 +7.448004E-05 +3.339419E-05 +7.448004E-05 +4.908088E-03 
 +8.742906E-05 +5.688667E-05 -1.262558E-04 +5.688667E-05 +5.661518E-06 +1.038386E-04 -1.262558E-04 +1.038386E-04 +4.855032E-03 
 +1.147423E-04 -3.232745E-06 -3.234607E-05 -3.232745E-06 +4.274910E-05 +7.149937E-05 -3.234607E-05 +7.149937E-05 +4.789231E-03 
 +1.866979E-04 +5.087462E-05 -1.174225E-04 +5.087462E-05 +1.113741E-04 +1.300674E-04 -1.174225E-04 +1.300674E-04 +4.806219E-03 
 +4.863734E-05 +7.832387E-05 -1.588438E-05 +7.832387E-05 +1.541135E-04 +1.331319E-04 -1.588438E-05 +1.331319E-04 +5.008395E-03 
 -2.443305E-05 +2.436354E-05 -1.152328E-05 +2.436354E-05 +1.005132E-04 +2.922505E-06 -1.152328E-05 +2.922505E-06 +5.200099E-03 
 -9.639610E-05 -2.940015E-05 -6.679732E-07 -2.940015E-05 +6.496778E-05 -8.305698E-05 -6.679732E-07 -8.305698E-05 +5.322474E-03 
 -8.543212E-05 -1.095930E-04 +5.423512E-05 -1.095930E-04 +1.741014E-05 -6.052908E-05 +5.423512E-05 -6.052908E-05 +5.305622E-03 
 +1.324976E-04 -1.396049E-04 +1.401944E-04 -1.396049E-04 -1.434929E-04 +9.286891E-07 +1.401944E-04 +9.286891E-07 +5.164550E-03 
 +2.384827E-04 -1.536483E-04 +1.303146E-04 -1.536483E-04 -2.640617E-04 +7.384162E-06 +1.303146E-04 +7.384162E-06 +5.068220E-03 
 +3.154821E-04 -2.270522E-04 +1.311147E-04 -2.270522E-04 -2.535506E-04 -2.267405E-05 +1.311147E-04 -2.267405E-05 +5.022005E-03 
 +1.886740E-04 -2.268494E-04 +1.102837E-04 -2.268494E-04 -2.076253E-04 -7.727248E-05 +1.102837E-04 -7.727248E-05 +4.954334E-03 
 -8.460346E-06 -1.779485E-04 +1.259854E-04 -1.779485E-04 -4.495813E-05 -1.099163E-04 +1.259854E-04 -1.099163E-04 +4.931740E-03 
 -3.170647E-04 -1.266106E-04 +3.298281E-05 -1.266106E-04 +1.203692E-04 -7.822527E-05 +3.298281E-05 -7.822527E-05 +4.946204E-03 
 -2.198258E-04 -2.156298E-04 -7.712737E-05 -2.156298E-04 +1.610136E-04 +7.427999E-06 -7.712737E-05 +7.427999E-06 +4.895955E-03 
 -1.511453E-04 -2.844154E-04 -1.521955E-04 -2.844154E-04 +1.956552E-04 +4.625774E-05 -1.521955E-04 +4.625774E-05 +4.702983E-03 
 +2.409570E-04 -7.515430E-05 -2.117842E-04 -7.515430E-05 +2.790996E-04 +4.683797E-05 -2.117842E-04 +4.683797E-05 +4.646725E-03 
 +4.544064E-05 +2.186230E-05 -1.219071E-04 +2.186230E-05 +1.925279E-04 +1.156968E-04 -1.219071E-04 +1.156968E-04 +4.717536E-03 
 +1.853673E-04 +1.672007E-04 -1.704153E-05 +1.672007E-04 +1.651015E-04 +6.122539E-05 -1.704153E-05 +6.122539E-05 +4.701396E-03 
 +1.921001E-04 +1.924734E-04 +7.613793E-05 +1.924734E-04 +1.489474E-04 -5.520297E-07 +7.613793E-05 -5.520297E-07 +4.739761E-03 
 -7.680494E-05 +8.827474E-05 +4.491011E-05 +8.827474E-05 +5.800252E-05 +2.589698E-05 +4.491011E-05 +2.589698E-05 +4.881171E-03 
 -2.046102E-04 -1.362552E-05 +4.694336E-05 -1.362552E-05 +2.725004E-06 +5.292594E-05 +4.694336E-05 +5.292594E-05 +4.870123E-03 
 +9.813851E-05 -6.162724E-05 -1.057441E-04 -6.162724E-05 +4.074029E-05 +9.915269E-05 -1.057441E-04 +9.915269E-05 +4.797753E-03 
 +2.811300E-05 -1.661086E-04 -7.288898E-06 -1.661086E-04 +7.911194E-05 +1.060838E-04 -7.288898E-06 +1.060838E-04 +4.753748E-03 
 +1.329796E-04 -9.116660E-05 -6.605615E-05 -9.116660E-05 +5.881143E-05 +1.520319E-04 -6.605615E-05 +1.520319E-04 +4.723237E-03 
 +4.865972E-05 +6.133906E-05 -4.585766E-05 +6.133906E-05 +9.267238E-05 +1.445738E-04 -4.585766E-05 +1.445738E-04 +4.807064E-03 
 -1.491888E-04 +1.684061E-05 -1.771628E-05 +1.684061E-05 +1.999341E-04 +3.886016E-05 -1.771628E-05 +3.886016E-05 +5.086832E-03 
 -1.608265E-04 -1.794996E-05 +3.618937E-05 -1.794996E-05 +9.053524E-05 +1.610101E-05 +3.618937E-05 +1.610101E-05 +5.306550E-03 
 +4.552796E-07 -7.972973E-05 +1.087633E-04 -7.972973E-05 -1.278660E-04 +5.102692E-06 +1.087633E-04 +5.102692E-06 +5.239729E-03 
 +1.127011E-04 -9.063104E-05 +1.281286E-04 -9.063104E-05 -1.924694E-04 -7.783688E-07 +1.281286E-04 -7.783688E-07 +5.129187E-03 
 +1.632627E-04 -1.092060E-04 +1.480884E-04 -1.092060E-04 -1.745525E-04 -5.056552E-06 +1.480884E-04 -5.056552E-06 +5.065060E-03 
 +1.793313E-04 -1.202401E-04 +2.086300E-04 -1.202401E-04 -1.828827E-04 -2.008102E-05 +2.086300E-04 -2.008102E-05 +5.006667E-03 
 +2.362080E-04 -1.305426E-04 +2.699364E-04 -1.305426E-04 -1.503086E-04 -3.052244E-05 +2.699364E-04 -3.052244E-05 +4.961447E-03 
 +4.051070E-05 -1.042830E-04 +2.660096E-04 -1.042830E-04 -1.262914E-05 -6.283990E-05 +2.660096E-04 -6.283990E-05 +4.956041E-03 
 -3.873944E-04 -1.975174E-04 +8.555954E-05 -1.975174E-04 +1.425967E-04 -5.951766E-05 +8.555954E-05 -5.951766E-05 +5.018001E-03 
 -3.513980E-04 -2.155283E-04 -6.581612E-05 -2.155283E-04 +2.734191E-04 +4.797340E-05 -6.581612E-05 +4.797340E-05 +5.021560E-03 
 -3.740790E-04 -1.694416E-04 -1.577478E-04 -1.694416E-04 +3.467025E-04 +5.495263E-05 -1.577478E-04 +5.495263E-05 +4.793350E-03 
 +2.572693E-04 +2.676867E-05 -1.877531E-04 +2.676867E-05 +2.809504E-04 +3.782448E-05 -1.877531E-04 +3.782448E-05 +4.694764E-03 
 +2.839342E-04 +1.125814E-04 -9.157842E-05 +1.125814E-04 +1.659516E-04 +1.896459E-05 -9.157842E-05 +1.896459E-05 +4.653238E-03 
 +2.307546E-04 +1.315003E-04 -2.829535E-05 +1.315003E-04 +1.449420E-04 +1.310153E-06 -2.829535E-05 +1.310153E-06 +4.599340E-03 
 +2.537537E-04 +1.773631E-04 +9.396541E-06 +1.773631E-04 +1.078266E-04 -5.458108E-05 +9.396541E-06 -5.458108E-05 +4.638320E-03 
 -1.762631E-04 +7.655038E-05 -2.737973E-05 +7.655038E-05 +7.689684E-05 -6.752328E-05 -2.737973E-05 -6.752328E-05 +4.813281E-03 
 -1.893261E-04 -2.042090E-05 +2.723376E-05 -2.042090E-05 +7.042954E-05 +1.641515E-05 +2.723376E-05 +1.641515E-05 +4.828517E-03 
 +4.100688E-05 -1.244953E-04 -1.010888E-04 -1.244953E-04 +6.548127E-05 +1.056184E-04 -1.010888E-04 +1.056184E-04 +4.757841E-03 
 +4.993840E-06 -1.600129E-04 -6.515977E-05 -1.600129E-04 +4.985542E-05 +1.238347E-04 -6.515977E-05 +1.238347E-04 +4.754211E-03 
 +9.718465E-05 -1.417298E-04 -9.305405E-05 -1.417298E-04 +2.049417E-05 +1.270636E-04 -9.305405E-05 +1.270636E-04 +4.765052E-03 
 +1.067507E-04 +3.780265E-05 -1.161028E-04 +3.780265E-05 -1.620747E-05 +6.496705E-05 -1.161028E-04 +6.496705E-05 +4.763977E-03 
 -1.196571E-04 +1.116551E-05 +1.390925E-05 +1.116551E-05 -3.292571E-05 -7.075237E-05 +1.390925E-05 -7.075237E-05 +4.948952E-03 
 -1.013152E-04 -5.597474E-05 +3.904509E-05 -5.597474E-05 -9.730822E-05 -6.891592E-05 +3.904509E-05 -6.891592E-05 +5.149138E-03 
 +2.495322E-05 -5.684429E-05 +9.126692E-05 -5.684429E-05 -1.406225E-04 -1.665713E-05 +9.126692E-05 -1.665713E-05 +5.127990E-03 
 +5.414850E-05 -5.981973E-05 +1.278234E-04 -5.981973E-05 -1.277890E-04 -2.210298E-05 +1.278234E-04 -2.210298E-05 +5.080791E-03 
 +7.141307E-05 -9.013856E-05 +1.720355E-04 -9.013856E-05 -1.433002E-04 -2.461474E-05 +1.720355E-04 -2.461474E-05 +5.056563E-03 
 +1.165851E-04 -1.008376E-04 +2.248046E-04 -1.008376E-04 -1.459378E-04 -3.361466E-05 +2.248046E-04 -3.361466E-05 +5.025965E-03 
 +1.126309E-04 -1.212531E-04 +2.494870E-04 -1.212531E-04 -1.406593E-04 -2.341765E-05 +2.494870E-04 -2.341765E-05 +5.021542E-03 
 -3.794984E-05 -2.133889E-05 +2.039082E-04 -2.133889E-05 -5.218156E-06 -1.161696E-05 +2.039082E-04 -1.161696E-05 +5.069499E-03 
 -3.805213E-04 -1.446962E-04 +5.482947E-05 -1.446962E-04 +1.939252E-04 -1.103810E-05 +5.482947E-05 -1.103810E-05 +5.147853E-03 
 -3.719866E-04 -1.227345E-04 -4.931406E-05 -1.227345E-04 +3.012596E-04 +4.045080E-05 -4.931406E-05 +4.045080E-05 +5.113818E-03 
 -2.785633E-04 -7.417419E-05 -9.857481E-05 -7.417419E-05 +3.687753E-04 +6.696255E-05 -9.857481E-05 +6.696255E-05 +4.899444E-03 
 +2.204734E-04 +1.065921E-04 -1.475373E-04 +1.065921E-04 +1.534460E-04 +4.361539E-05 -1.475373E-04 +4.361539E-05 +4.793001E-03 
 +2.508013E-04 +1.546717E-04 -6.816700E-05 +1.546717E-04 +1.496454E-04 +4.258570E-06 -6.816700E-05 +4.258570E-06 +4.692669E-03 
 +2.588627E-04 +1.555236E-04 -4.582809E-05 +1.555236E-04 +1.254855E-04 -3.781511E-05 -4.582809E-05 -3.781511E-05 +4.649858E-03 
 +2.334453E-04 +1.247716E-04 -3.084705E-05 +1.247716E-04 +1.095015E-04 -6.774255E-05 -3.084705E-05 -6.774255E-05 +4.681301E-03 
 -1.507223E-04 +3.418838E-05 -2.018474E-05 +3.418838E-05 +1.273919E-04 -5.050880E-05 -2.018474E-05 -5.050880E-05 +4.791726E-03 
 -1.812685E-04 +3.268036E-05 +3.615777E-05 +3.268036E-05 +1.278815E-04 +6.082802E-05 +3.615777E-05 +6.082802E-05 +4.802453E-03 
 +3.210700E-05 -2.062625E-05 -1.844484E-04 -2.062625E-05 +6.342050E-05 +1.511122E-04 -1.844484E-04 +1.511122E-04 +4.768014E-03 
 -4.659412E-05 -7.546018E-05 -5.768005E-05 -7.546018E-05 +4.801001E-05 +1.359966E-04 -5.768005E-05 +1.359966E-04 +4.777109E-03 
 +1.880150E-05 -1.261663E-04 -1.132865E-04 -1.261663E-04 +1.824401E-05 +1.143602E-04 -1.132865E-04 +1.143602E-04 +4.830626E-03 
 +1.632040E-05 +1.052630E-05 -9.491979E-05 +1.052630E-05 -7.165356E-05 +4.110966E-05 -9.491979E-05 +4.110966E-05 +4.824723E-03 
 +3.941110E-06 -4.787903E-05 +2.752268E-05 -4.787903E-05 -8.868658E-05 -8.639935E-05 +2.752268E-05 -8.639935E-05 +4.881290E-03 
 +3.088654E-05 -1.609227E-04 +5.568834E-05 -1.609227E-04 -9.035289E-05 -9.004538E-05 +5.568834E-05 -9.004538E-05 +4.998788E-03 
 +2.481570E-05 -7.673807E-05 +7.731880E-05 -7.673807E-05 -1.044382E-04 -2.389692E-05 +7.731880E-05 -2.389692E-05 +5.017759E-03 
 +7.325127E-06 -6.436581E-05 +1.086919E-04 -6.436581E-05 -8.122212E-05 -2.978459E-05 +1.086919E-04 -2.978459E-05 +5.030405E-03 
 +3.885521E-06 -8.132734E-05 +1.469442E-04 -8.132734E-05 -5.711416E-05 -4.631892E-05 +1.469442E-04 -4.631892E-05 +5.025361E-03 
 +8.542200E-06 -1.226216E-04 +1.641586E-04 -1.226216E-04 -1.048474E-04 -7.038197E-05 +1.641586E-04 -7.038197E-05 +5.037143E-03 
 -5.851076E-06 -8.028575E-05 +1.424179E-04 -8.028575E-05 -1.033316E-04 -7.032957E-05 +1.424179E-04 -7.032957E-05 +5.076388E-03 
 -7.724328E-05 +1.045033E-04 +9.916291E-05 +1.045033E-04 -4.895584E-05 -9.495392E-06 +9.916291E-05 -9.495392E-06 +5.144924E-03 
 -2.662225E-04 +9.641809E-06 -9.275712E-06 +9.641809E-06 -1.663076E-05 +4.645110E-05 -9.275712E-06 +4.645110E-05 +5.192114E-03 
 -2.695587E-04 +7.285260E-05 -6.669321E-05 +7.285260E-05 +5.773065E-06 +6.442544E-05 -6.669321E-05 +6.442544E-05 +5.129370E-03 
 -1.128590E-04 +1.996412E-04 -3.107782E-05 +1.996412E-04 +6.556246E-05 +7.119496E-05 -3.107782E-05 +7.119496E-05 +4.974344E-03 
 +1.495892E-04 +7.197063E-05 -1.605687E-04 +7.197063E-05 +1.536975E-04 +2.374379E-06 -1.605687E-04 +2.374379E-06 +4.784050E-03 
 +1.962456E-04 +1.470416E-04 -8.021242E-05 +1.470416E-04 +1.700574E-04 +2.719549E-07 -8.021242E-05 +2.719549E-07 +4.701659E-03 
 +1.725292E-04 +1.609116E-04 -4.082118E-05 +1.609116E-04 +1.756130E-04 -2.299409E-05 -4.082118E-05 -2.299409E-05 +4.697704E-03 
 +1.302140E-04 +1.241950E-04 -3.339471E-05 +1.241950E-04 +1.597555E-04 -8.718504E-05 -3.339471E-05 -8.718504E-05 +4.712551E-03 
 +1.356616E-05 +1.028894E-04 -1.980305E-05 +1.028894E-04 +1.531151E-04 -2.073082E-04 -1.980305E-05 -2.073082E-04 +4.756647E-03 
 -4.959788E-05 +9.692573E-05 +1.555500E-04 +9.692573E-05 +1.236601E-04 -1.960610E-04 +1.555500E-04 -1.960610E-04 +4.792078E-03 
 -9.035170E-05 -3.927564E-05 -3.539149E-05 -3.927564E-05 -1.751688E-05 -5.744971E-06 -3.539149E-05 -5.744971E-06 +4.879689E-03 
 -1.600750E-04 -7.834484E-05 +4.471914E-05 -7.834484E-05 -1.474378E-05 +9.378732E-05 +4.471914E-05 +9.378732E-05 +4.994135E-03 
 -2.540987E-05 -1.669418E-04 +3.837746E-05 -1.669418E-04 -1.515128E-05 +8.609320E-05 +3.837746E-05 +8.609320E-05 +5.017242E-03 
 -3.669788E-06 -1.027560E-04 +4.973982E-05 -1.027560E-04 -1.484286E-04 +6.037924E-05 +4.973982E-05 +6.037924E-05 +4.994882E-03 
 +4.409148E-05 +4.401037E-06 +1.124163E-04 +4.401037E-06 -1.691090E-04 -1.276873E-05 +1.124163E-04 -1.276873E-05 +4.919993E-03 
 +2.193193E-05 -7.994923E-05 +7.514524E-05 -7.994923E-05 -1.228320E-04 -2.957681E-05 +7.514524E-05 -2.957681E-05 +4.902991E-03 
 +2.270957E-05 -9.310156E-05 +5.426322E-05 -9.310156E-05 -7.939625E-05 -4.761518E-06 +5.426322E-05 -4.761518E-06 +4.936441E-03 
 +3.145443E-05 -7.584996E-05 +4.901773E-05 -7.584996E-05 -5.137773E-05 -2.436069E-05 +4.901773E-05 -2.436069E-05 +4.939980E-03 
 +1.005968E-05 -7.772251E-05 +8.020289E-05 -7.772251E-05 -1.167575E-05 -4.875398E-05 +8.020289E-05 -4.875398E-05 +4.935590E-03 
 -3.404850E-05 -3.727316E-05 +3.213629E-05 -3.727316E-05 +6.070781E-05 -3.919177E-05 +3.213629E-05 -3.919177E-05 +4.955436E-03 
 -8.580680E-05 +1.027544E-04 +7.151179E-05 +1.027544E-04 +1.844704E-04 -3.491082E-05 +7.151179E-05 -3.491082E-05 +5.010119E-03 
 -8.588105E-05 +1.689946E-04 +6.279494E-05 +1.689946E-04 +1.062638E-04 -7.655784E-05 +6.279494E-05 -7.655784E-05 +5.071273E-03 
 -1.532101E-04 +1.348985E-04 +5.080356E-05 +1.348985E-04 -5.257515E-05 -4.942050E-05 +5.080356E-05 -4.942050E-05 +5.109015E-03 
 -9.073252E-05 +1.427857E-04 -5.223371E-05 +1.427857E-04 -5.587022E-05 -1.318372E-05 -5.223371E-05 -1.318372E-05 +5.048143E-03 
 -1.368358E-05 +2.508943E-04 -3.832402E-07 +2.508943E-04 +4.578505E-05 -1.926463E-05 -3.832402E-07 -1.926463E-05 +4.912459E-03 
 +1.476721E-04 +7.745476E-05 -1.653231E-04 +7.745476E-05 +8.097209E-05 -1.208818E-05 -1.653231E-04 -1.208818E-05 +4.818403E-03 
 +1.762553E-04 +1.257055E-04 -9.819751E-05 +1.257055E-04 +1.142999E-04 -2.173762E-05 -9.819751E-05 -2.173762E-05 +4.747429E-03 
 +1.801211E-04 +1.518653E-04 -6.267965E-05 +1.518653E-04 +1.240203E-04 -1.114574E-05 -6.267965E-05 -1.114574E-05 +4.760561E-03 
 +1.599504E-04 +1.471441E-04 -5.781718E-05 +1.471441E-04 +1.385435E-04 -3.960456E-05 -5.781718E-05 -3.960456E-05 +4.771172E-03 
 +1.083259E-04 +1.181249E-04 -4.706914E-05 +1.181249E-04 +1.491559E-04 -1.078371E-04 -4.706914E-05 -1.078371E-04 +4.812771E-03 
 +2.531972E-05 +1.044640E-04 +1.999196E-04 +1.044640E-04 +2.043480E-04 -1.432576E-04 +1.999196E-04 -1.432576E-04 +4.850739E-03 
 -3.927207E-05 +4.486253E-05 +5.429814E-05 +4.486253E-05 +2.816265E-04 -4.002171E-05 +5.429814E-05 -4.002171E-05 +4.883326E-03 
 -2.471939E-04 +1.217189E-04 -3.556149E-05 +1.217189E-04 +2.203283E-04 +9.875224E-05 -3.556149E-05 +9.875224E-05 +4.978592E-03 
 -1.629027E-04 -1.336256E-04 -8.912670E-05 -1.336256E-04 +4.500969E-05 +1.550080E-04 -8.912670E-05 +1.550080E-04 +5.044814E-03 
 -1.636520E-04 -1.288033E-04 -1.091156E-04 -1.288033E-04 -9.833287E-05 +1.562156E-04 -1.091156E-04 +1.562156E-04 +4.994303E-03 
 -8.439037E-05 -1.078830E-04 -6.306960E-05 -1.078830E-04 -1.460556E-04 +9.922834E-05 -6.306960E-05 +9.922834E-05 +4.860946E-03 
 +2.135236E-05 -1.821327E-04 -6.846450E-05 -1.821327E-04 -9.733038E-05 +6.063143E-05 -6.846450E-05 +6.063143E-05 +4.808104E-03 
 +3.607239E-05 -1.865571E-04 -3.299185E-05 -1.865571E-04 -1.886988E-05 +1.238101E-05 -3.299185E-05 +1.238101E-05 +4.829553E-03 
 +6.759530E-05 -1.421018E-04 -2.949532E-05 -1.421018E-04 +4.299767E-05 -4.654886E-05 -2.949532E-05 -4.654886E-05 +4.835360E-03 
 +6.499591E-05 -9.550771E-05 -2.033409E-05 -9.550771E-05 +1.060366E-04 -6.344398E-05 -2.033409E-05 -6.344398E-05 +4.780344E-03 
 +4.168059E-05 +1.695842E-05 -1.235763E-04 +1.695842E-05 +1.925322E-04 -3.590860E-05 -1.235763E-04 -3.590860E-05 +4.774169E-03 
 -3.815369E-05 +1.410091E-04 +3.206856E-06 +1.410091E-04 +2.187421E-04 -9.162533E-06 +3.206856E-06 -9.162533E-06 +4.891528E-03 
 -1.119666E-04 +1.224441E-04 +1.762056E-05 +1.224441E-04 +1.396729E-04 -2.670957E-05 +1.762056E-05 -2.670957E-05 +4.996585E-03 
 -8.511325E-05 +1.249830E-04 +8.400195E-05 +1.249830E-04 +1.124512E-04 -4.906356E-05 +8.400195E-05 -4.906356E-05 +4.980620E-03 
 +1.976832E-06 +1.379958E-05 -5.582878E-05 +1.379958E-05 +1.610381E-04 -6.348551E-05 -5.582878E-05 -6.348551E-05 +4.871503E-03 
 -9.863473E-05 +1.809029E-04 +2.422573E-05 +1.809029E-04 +1.199964E-04 -3.151954E-05 +2.422573E-05 -3.151954E-05 +4.842584E-03 
 +1.071923E-04 +4.286633E-05 -1.774765E-04 +4.286633E-05 +1.022219E-04 -6.294379E-05 -1.774765E-04 -6.294379E-05 +4.803159E-03 
 +1.576136E-04 +7.321615E-05 -9.223483E-05 +7.321615E-05 +8.696530E-05 -5.710524E-05 -9.223483E-05 -5.710524E-05 +4.786982E-03 
 +2.081354E-04 +9.060303E-05 -8.128535E-05 +9.060303E-05 +6.273180E-05 -3.780013E-05 -8.128535E-05 -3.780013E-05 +4.796011E-03 
 +2.267414E-04 +1.095446E-04 -6.858660E-05 +1.095446E-04 +8.944589E-05 -4.175968E-05 -6.858660E-05 -4.175968E-05 +4.826050E-03 
 +1.573624E-04 +8.355094E-05 -8.709858E-06 +8.355094E-05 +1.680208E-04 -4.408060E-05 -8.709858E-06 -4.408060E-05 +4.943711E-03 
 +9.056576E-05 +3.501159E-05 +2.248962E-04 +3.501159E-05 +1.497510E-04 -3.696664E-05 +2.248962E-04 -3.696664E-05 +5.011054E-03 
 -1.714838E-05 -1.635685E-04 +1.396875E-04 -1.635685E-04 +8.319857E-05 -4.873316E-05 +1.396875E-04 -4.873316E-05 +5.051886E-03 
 -2.239829E-04 -2.007418E-04 +1.411503E-05 -2.007418E-04 -1.395526E-05 -5.606686E-05 +1.411503E-05 -5.606686E-05 +5.108940E-03 
 -2.574473E-04 -2.474616E-04 -9.249768E-05 -2.474616E-04 -2.696895E-05 -2.325302E-05 -9.249768E-05 -2.325302E-05 +5.120216E-03 
 -3.544184E-04 -9.107343E-05 -1.796242E-04 -9.107343E-05 +1.313937E-04 +3.629236E-06 -1.796242E-04 +3.629236E-06 +5.030723E-03 
 -2.491856E-04 -1.469439E-05 -1.362664E-04 -1.469439E-05 +1.637649E-04 -2.551539E-05 -1.362664E-04 -2.551539E-05 +4.858969E-03 
 +8.311337E-05 +1.367469E-05 -2.115689E-04 +1.367469E-05 +1.413624E-04 -8.078800E-05 -2.115689E-04 -8.078800E-05 +4.794748E-03 
 +8.140827E-05 +5.571236E-05 -1.093738E-04 +5.571236E-05 +2.779061E-04 -1.181827E-04 -1.093738E-04 -1.181827E-04 +4.781680E-03 
 +9.138653E-05 -4.113325E-06 -1.463642E-04 -4.113325E-06 +3.054690E-04 -9.962873E-05 -1.463642E-04 -9.962873E-05 +4.731243E-03 
 +1.245505E-04 +3.678734E-05 -1.288383E-04 +3.678734E-05 +2.385027E-04 -6.005644E-05 -1.288383E-04 -6.005644E-05 +4.691997E-03 
 +1.114637E-04 +1.048138E-04 -1.722426E-04 +1.048138E-04 +2.417796E-04 -1.795244E-05 -1.722426E-04 -1.795244E-05 +4.694395E-03 
 +2.223102E-05 +1.688081E-04 -8.833608E-05 +1.688081E-04 +2.118586E-04 -3.527231E-05 -8.833608E-05 -3.527231E-05 +4.799648E-03 
 -8.602763E-05 +1.347602E-04 +5.939262E-05 +1.347602E-04 +1.700985E-04 -5.408883E-05 +5.939262E-05 -5.408883E-05 +4.969718E-03 
 -9.424642E-05 +1.972263E-04 +8.520847E-05 +1.972263E-04 +5.818951E-05 +1.971221E-05 +8.520847E-05 +1.971221E-05 +5.010096E-03 
 -8.805648E-05 +1.324556E-04 +1.604915E-05 +1.324556E-04 -2.797429E-05 +1.053750E-04 +1.604915E-05 +1.053750E-04 +4.948378E-03 
 -9.114548E-05 +1.794414E-04 +2.724111E-05 +1.794414E-04 +4.285354E-05 +4.570848E-05 +2.724111E-05 +4.570848E-05 +4.883839E-03 
 +1.233482E-05 -1.209188E-05 -1.571579E-04 -1.209188E-05 +7.087911E-05 -7.684549E-05 -1.571579E-04 -7.684549E-05 +4.817272E-03 
 +1.717659E-04 -1.160775E-05 -8.855871E-05 -1.160775E-05 +8.099656E-05 -7.963015E-05 -8.855871E-05 -7.963015E-05 +4.792822E-03 
 +2.289841E-04 +2.506513E-05 -1.043897E-04 +2.506513E-05 +5.407270E-05 -4.082379E-05 -1.043897E-04 -4.082379E-05 +4.730310E-03 
 +2.596004E-04 +4.113438E-05 -8.921146E-05 +4.113438E-05 -1.522904E-06 -4.391233E-05 -8.921146E-05 -4.391233E-05 +4.824638E-03 
 +1.442125E-04 -6.360737E-05 +4.878895E-05 -6.360737E-05 -1.294761E-04 -1.019304E-04 +4.878895E-05 -1.019304E-04 +5.096135E-03 
 +9.872142E-05 -1.323087E-04 +2.092054E-04 -1.323087E-04 -1.546058E-04 -1.412452E-04 +2.092054E-04 -1.412452E-04 +5.154443E-03 
 +1.482243E-05 -1.948029E-04 +2.117695E-04 -1.948029E-04 -5.458209E-05 -1.174902E-04 +2.117695E-04 -1.174902E-04 +5.139185E-03 
 -7.426296E-05 -1.965664E-04 +1.128997E-04 -1.965664E-04 -6.901839E-06 -4.988081E-05 +1.128997E-04 -4.988081E-05 +5.186416E-03 
 -2.914068E-04 -1.596514E-04 -4.957298E-05 -1.596514E-04 +9.054622E-05 -1.252098E-05 -4.957298E-05 -1.252098E-05 +5.171426E-03 
 -3.982012E-04 -6.607141E-05 -1.519327E-04 -6.607141E-05 +1.805071E-04 -1.200890E-05 -1.519327E-04 -1.200890E-05 +5.074911E-03 
 -2.972576E-04 -3.332785E-05 -1.048219E-04 -3.332785E-05 +1.567322E-04 -4.845553E-05 -1.048219E-04 -4.845553E-05 +4.912486E-03 
 +9.907261E-05 -2.637949E-05 -2.796892E-04 -2.637949E-05 -2.595339E-06 -7.735227E-05 -2.796892E-04 -7.735227E-05 +4.867756E-03 
 +1.399931E-04 +1.434841E-04 -1.394880E-04 +1.434841E-04 -3.712819E-05 -9.191986E-05 -1.394880E-04 -9.191986E-05 +4.851033E-03 
 +1.258548E-04 +1.029412E-05 -2.119855E-04 +1.029412E-05 +1.646779E-04 -6.472054E-05 -2.119855E-04 -6.472054E-05 +4.774376E-03 
 +1.386794E-04 +3.993291E-05 -2.081171E-04 +3.993291E-05 +1.759522E-04 -1.578834E-05 -2.081171E-04 -1.578834E-05 +4.749780E-03 
 +1.451268E-04 +1.607765E-04 -1.769412E-04 +1.607765E-04 +1.224609E-04 -7.682942E-06 -1.769412E-04 -7.682942E-06 +4.743340E-03 
 +9.519889E-05 +2.072377E-04 -1.368284E-04 +2.072377E-04 +1.623155E-04 -1.761039E-05 -1.368284E-04 -1.761039E-05 +4.803961E-03 
 -5.506775E-05 +1.567278E-04 +1.766919E-04 +1.567278E-04 +1.179082E-04 -8.666133E-06 +1.766919E-04 -8.666133E-06 +4.942867E-03 
 -1.163088E-04 +1.513346E-04 +9.380297E-05 +1.513346E-04 +7.248501E-05 +2.536948E-05 +9.380297E-05 +2.536948E-05 +5.005619E-03 
 -2.672257E-04 +8.477045E-05 +5.031187E-05 +8.477045E-05 +8.312125E-05 +6.776620E-05 +5.031187E-05 +6.776620E-05 +5.017514E-03 
 -1.746312E-04 +1.636296E-04 -2.152212E-05 +1.636296E-04 +6.439650E-05 +1.457589E-05 -2.152212E-05 +1.457589E-05 +4.936035E-03 
 -7.666382E-05 -1.586168E-05 -7.339550E-05 -1.586168E-05 +3.425275E-05 -6.482076E-05 -7.339550E-05 -6.482076E-05 +4.941147E-03 
 +1.695762E-04 -4.387301E-05 -8.099528E-05 -4.387301E-05 -3.918355E-05 -4.367638E-05 -8.099528E-05 -4.367638E-05 +4.835854E-03 
 +3.366702E-04 +4.909142E-05 -9.321220E-05 +4.909142E-05 -5.500896E-05 -1.676695E-05 -9.321220E-05 -1.676695E-05 +4.701877E-03 
 +2.834209E-04 +7.879022E-05 -4.513483E-05 +7.879022E-05 -4.010420E-05 -2.620392E-06 -4.513483E-05 -2.620392E-06 +4.860556E-03 
 +7.763839E-05 -7.972332E-06 +7.199057E-05 -7.972332E-06 -4.745499E-05 -3.086002E-05 +7.199057E-05 -3.086002E-05 +5.151212E-03 
 +1.046916E-04 +1.551709E-05 +1.625205E-04 +1.551709E-05 -2.295423E-05 -6.179136E-05 +1.625205E-04 -6.179136E-05 +5.203441E-03 
 +1.524775E-04 -1.411181E-04 +2.606297E-04 -1.411181E-04 -2.042602E-05 -6.457978E-05 +2.606297E-04 -6.457978E-05 +5.144714E-03 
 -5.856015E-06 -2.107450E-04 +1.133515E-04 -2.107450E-04 +8.402240E-06 -5.415315E-05 +1.133515E-04 -5.415315E-05 +5.170126E-03 
 -3.019673E-04 -1.207094E-04 -8.231568E-05 -1.207094E-04 +9.583473E-05 -8.656489E-06 -8.231568E-05 -8.656489E-06 +5.181350E-03 
 -3.929328E-04 -3.789482E-05 -1.526663E-04 -3.789482E-05 +1.387184E-04 +1.599534E-05 -1.526663E-04 +1.599534E-05 +5.106006E-03 
 -2.883001E-04 -1.697018E-05 -9.762576E-05 -1.697018E-05 +9.864232E-05 +9.327727E-06 -9.762576E-05 +9.327727E-06 +4.978809E-03 
 +7.226491E-05 -6.993664E-05 -2.999795E-04 -6.993664E-05 -9.545741E-06 +1.285161E-05 -2.999795E-04 +1.285161E-05 +4.938267E-03 
 +1.928207E-04 +1.933093E-04 -1.466281E-04 +1.933093E-04 -2.123879E-04 -2.341011E-05 -1.466281E-04 -2.341011E-05 +4.921587E-03 
 +2.088262E-04 +1.871791E-04 -1.574641E-04 +1.871791E-04 -2.233602E-04 -2.832042E-05 -1.574641E-04 -2.832042E-05 +4.869032E-03 
 +1.125292E-04 +7.910004E-05 -2.211471E-04 +7.910004E-05 -2.204878E-07 -1.914328E-05 -2.211471E-04 -1.914328E-05 +4.822207E-03 
 +1.182446E-04 +1.563769E-04 -1.695287E-04 +1.563769E-04 +9.524704E-05 -2.954181E-05 -1.695287E-04 -2.954181E-05 +4.779524E-03 
 +9.889142E-05 +1.510476E-04 -1.494725E-04 +1.510476E-04 +1.476458E-04 -3.654726E-06 -1.494725E-04 -3.654726E-06 +4.826427E-03 
 -1.223028E-04 -3.490359E-05 +2.046184E-04 -3.490359E-05 +2.351405E-04 -5.559869E-05 +2.046184E-04 -5.559869E-05 +4.881622E-03 
 -2.413858E-04 -6.952140E-05 +9.112107E-05 -6.952140E-05 +2.655020E-04 -1.298170E-04 +9.112107E-05 -1.298170E-04 +4.886876E-03 
 -2.892069E-04 -5.423607E-05 +3.913208E-05 -5.423607E-05 +2.710790E-04 -1.147303E-04 +3.913208E-05 -1.147303E-04 +4.895324E-03 
 -2.094668E-04 +4.066139E-05 -2.796631E-05 +4.066139E-05 +1.743576E-04 -8.156421E-05 -2.796631E-05 -8.156421E-05 +4.918565E-03 
 -1.073845E-04 +7.052024E-05 -2.393644E-05 +7.052024E-05 +1.505442E-06 -2.977977E-05 -2.393644E-05 -2.977977E-05 +5.001680E-03 
 +6.287365E-05 +3.813161E-06 -3.310343E-05 +3.813161E-06 -9.950225E-05 +4.527805E-05 -3.310343E-05 +4.527805E-05 +4.886359E-03 
 +4.072072E-04 +4.898571E-05 -6.151381E-05 +4.898571E-05 -2.080884E-04 +7.539736E-05 -6.151381E-05 +7.539736E-05 +4.791568E-03 
 +2.806964E-04 +1.202147E-05 -3.030372E-05 +1.202147E-05 -2.334142E-04 +2.593003E-05 -3.030372E-05 +2.593003E-05 +4.997375E-03 
 +1.402449E-04 -1.834928E-06 +4.775435E-05 -1.834928E-06 -1.052415E-04 -1.277115E-05 +4.775435E-05 -1.277115E-05 +5.195557E-03 
 +1.140880E-04 +1.994139E-05 +1.214954E-04 +1.994139E-05 -1.615438E-05 -2.026542E-05 +1.214954E-04 -2.026542E-05 +5.199663E-03 
 +2.122799E-04 -9.464483E-05 +2.448214E-04 -9.464483E-05 +1.034341E-05 -3.776421E-05 +2.448214E-04 -3.776421E-05 +5.106079E-03 
 +5.881007E-05 -1.038574E-04 +1.394184E-04 -1.038574E-04 +7.345402E-05 -2.797677E-05 +1.394184E-04 -2.797677E-05 +5.107322E-03 
 -2.945211E-04 -1.541306E-05 -3.281660E-05 -1.541306E-05 +1.251625E-04 +2.576022E-05 -3.281660E-05 +2.576022E-05 +5.165420E-03 
 -3.568523E-04 -1.220147E-05 -1.108370E-04 -1.220147E-05 +1.326316E-04 +5.751796E-05 -1.108370E-04 +5.751796E-05 +5.128170E-03 
 -2.767367E-04 -2.024670E-05 -9.795040E-05 -2.024670E-05 +7.522242E-05 +4.680114E-05 -9.795040E-05 +4.680114E-05 +5.030867E-03 
 +1.084013E-04 -6.866910E-05 -2.796082E-04 -6.866910E-05 -1.860627E-06 +6.433354E-05 -2.796082E-04 +6.433354E-05 +4.964014E-03 
 +1.863842E-04 +1.297807E-04 -1.563304E-04 +1.297807E-04 -1.373644E-04 +3.529276E-05 -1.563304E-04 +3.529276E-05 +4.922729E-03 
 +1.513976E-04 +2.233051E-04 -1.341656E-04 +2.233051E-04 -1.861923E-04 -2.738827E-05 -1.341656E-04 -2.738827E-05 +4.900436E-03 
 +6.343465E-05 +8.996334E-05 -1.874102E-04 +8.996334E-05 -2.196507E-05 -3.604444E-05 -1.874102E-04 -3.604444E-05 +4.845785E-03 
 +6.407978E-05 +9.239629E-05 -1.399877E-04 +9.239629E-05 +1.131558E-04 -1.455458E-05 -1.399877E-04 -1.455458E-05 +4.775092E-03 
 +1.703286E-05 +1.357267E-04 -1.451787E-04 +1.357267E-04 +1.610862E-04 +2.770426E-05 -1.451787E-04 +2.770426E-05 +4.818286E-03 
 -2.152486E-04 -3.312129E-05 +2.006160E-04 -3.312129E-05 +2.042750E-04 -4.999329E-05 +2.006160E-04 -4.999329E-05 +4.897467E-03 
 -2.383166E-04 -9.380646E-06 +1.437839E-04 -9.380646E-06 +1.931362E-04 -1.429924E-04 +1.437839E-04 -1.429924E-04 +4.903861E-03 
 -2.110063E-04 +4.784339E-05 +3.933015E-05 +4.784339E-05 +1.505887E-04 -1.374989E-04 +3.933015E-05 -1.374989E-04 +4.888567E-03 
 -1.669164E-04 +7.598225E-05 -1.788649E-05 +7.598225E-05 +8.224000E-05 -1.027516E-04 -1.788649E-05 -1.027516E-04 +4.942033E-03 
 -6.435190E-05 -7.947017E-06 +1.523396E-05 -7.947017E-06 +4.097407E-05 -6.332702E-05 +1.523396E-05 -6.332702E-05 +4.915424E-03 
 +4.963006E-06 +1.747808E-05 +5.273259E-05 +1.747808E-05 +4.442339E-05 +3.384683E-05 +5.273259E-05 +3.384683E-05 +4.763993E-03 
 +2.726252E-04 -2.374943E-06 -1.568193E-06 -2.374943E-06 -7.943731E-05 +4.107444E-05 -1.568193E-06 +4.107444E-05 +4.733576E-03 
 +2.735282E-04 +1.548773E-05 -7.360196E-05 +1.548773E-05 -2.840038E-04 +5.145705E-06 -7.360196E-05 +5.145705E-06 +4.971981E-03 
 +2.232988E-04 +1.296743E-04 +1.243994E-05 +1.296743E-04 -2.014678E-04 -1.956014E-05 +1.243994E-05 -1.956014E-05 +5.122715E-03 
 +2.361240E-04 +3.920446E-05 +1.219021E-04 +3.920446E-05 -4.770333E-05 -1.466490E-05 +1.219021E-04 -1.466490E-05 +5.074003E-03 
 +2.700771E-04 -3.185853E-05 +2.004841E-04 -3.185853E-05 -4.732292E-05 +6.298965E-06 +2.004841E-04 +6.298965E-06 +4.969007E-03 
 +1.691454E-04 -4.181104E-06 +1.792391E-04 -4.181104E-06 +6.500095E-05 +1.989475E-06 +1.792391E-04 +1.989475E-06 +5.011000E-03 
 -2.429636E-04 +6.967779E-05 +5.733348E-05 +6.967779E-05 +1.703639E-04 +3.373276E-05 +5.733348E-05 +3.373276E-05 +5.161370E-03 
 -4.032197E-04 +4.141479E-05 -5.421215E-05 +4.141479E-05 +1.027513E-04 +6.453088E-05 -5.421215E-05 +6.453088E-05 +5.210974E-03 
 -2.940879E-04 -2.277755E-05 -8.988517E-05 -2.277755E-05 +5.195056E-06 +2.751948E-05 -8.988517E-05 +2.751948E-05 +5.138838E-03 
 +1.028567E-04 -7.125524E-05 -2.806806E-04 -7.125524E-05 +3.573519E-05 +1.334540E-05 -2.806806E-04 +1.334540E-05 +4.993095E-03 
 +6.619035E-05 +1.914172E-05 -1.939035E-04 +1.914172E-05 +1.670307E-04 -5.036961E-05 -1.939035E-04 -5.036961E-05 +4.882533E-03 
 +3.294571E-05 +1.273420E-04 -1.573352E-04 +1.273420E-04 +1.465158E-04 -1.024227E-04 -1.573352E-04 -1.024227E-04 +4.841417E-03 
 +5.426868E-05 +1.109190E-04 -1.434562E-04 +1.109190E-04 +7.384633E-05 -6.292107E-05 -1.434562E-04 -6.292107E-05 +4.800415E-03 
 +3.310078E-05 +7.911311E-05 -9.767554E-05 +7.911311E-05 +1.100962E-04 -9.770723E-07 -9.767554E-05 -9.770723E-07 +4.755874E-03 
 -2.408004E-05 +1.405621E-04 -9.169026E-05 +1.405621E-04 +1.521664E-04 +6.040420E-05 -9.169026E-05 +6.040420E-05 +4.756111E-03 
 -1.682899E-04 +4.773335E-06 +1.681452E-04 +4.773335E-06 +1.579811E-04 -6.001155E-06 +1.681452E-04 -6.001155E-06 +4.858820E-03 
 -1.905259E-04 +1.116945E-05 +1.313826E-04 +1.116945E-05 +1.466520E-04 -1.078472E-04 +1.313826E-04 -1.078472E-04 +4.921643E-03 
 -1.942748E-04 +1.167374E-05 +1.129089E-05 +1.167374E-05 +1.074603E-04 -1.161914E-04 +1.129089E-05 -1.161914E-04 +4.924005E-03 
 -1.572888E-04 -9.602642E-06 -3.081369E-05 -9.602642E-06 +7.130259E-05 -1.347144E-04 -3.081369E-05 -1.347144E-04 +4.963141E-03 
 +4.059569E-05 +7.825110E-05 +9.896708E-05 +7.825110E-05 +4.444163E-05 -1.043896E-04 +9.896708E-05 -1.043896E-04 +4.807675E-03 
 +7.401661E-05 +1.329902E-04 +1.221198E-04 +1.329902E-04 +5.230272E-05 -4.661162E-05 +1.221198E-04 -4.661162E-05 +4.652675E-03 
 +1.216889E-04 +9.057279E-05 +5.751703E-05 +9.057279E-05 +9.081564E-05 -5.037199E-05 +5.751703E-05 -5.037199E-05 +4.613274E-03 
 +2.473228E-04 +7.651573E-05 -5.375518E-05 +7.651573E-05 +2.974270E-06 -1.760701E-05 -5.375518E-05 -1.760701E-05 +4.800190E-03 
 +2.890959E-04 +3.084462E-04 -1.868272E-05 +3.084462E-04 -2.034651E-04 -7.519036E-06 -1.868272E-05 -7.519036E-06 +5.033042E-03 
 +2.862254E-04 +1.655793E-04 +1.362810E-04 +1.655793E-04 -2.255489E-04 -1.663718E-07 +1.362810E-04 -1.663718E-07 +5.013854E-03 
 +2.209853E-04 -4.244294E-05 +1.480799E-04 -4.244294E-05 -1.265446E-04 +1.968713E-05 +1.480799E-04 +1.968713E-05 +4.935501E-03 
 +2.160006E-04 -1.129676E-05 +1.634516E-04 -1.129676E-05 -4.510817E-05 +4.421168E-06 +1.634516E-04 +4.421168E-06 +4.995185E-03 
 +6.782893E-05 +1.023377E-05 +1.356668E-04 +1.023377E-05 -1.699053E-05 +1.110309E-05 +1.356668E-04 +1.110309E-05 +5.140455E-03 
 -3.514921E-04 +1.679041E-04 +6.711264E-06 +1.679041E-04 +2.325441E-05 -2.674919E-05 +6.711264E-06 -2.674919E-05 +5.277980E-03 
 -4.234281E-04 +1.012370E-04 -3.849430E-05 +1.012370E-04 +3.656819E-05 -8.171467E-05 -3.849430E-05 -8.171467E-05 +5.223103E-03 
 -1.020001E-04 +6.411637E-05 -2.579604E-04 +6.411637E-05 +4.393507E-05 -9.127714E-05 -2.579604E-04 -9.127714E-05 +5.041687E-03 
 -6.372407E-05 +9.486781E-05 -2.033151E-04 +9.486781E-05 +1.157204E-04 -1.024799E-04 -2.033151E-04 -1.024799E-04 +4.915177E-03 
 -1.943540E-05 +1.436949E-04 -1.578551E-04 +1.436949E-04 +1.323526E-04 -8.993736E-05 -1.578551E-04 -8.993736E-05 +4.821405E-03 
 +4.932617E-06 +1.396219E-04 -1.190573E-04 +1.396219E-04 +1.270783E-04 -6.714290E-05 -1.190573E-04 -6.714290E-05 +4.766107E-03 
 -6.318960E-06 +1.038884E-04 -6.669230E-05 +1.038884E-04 +1.378284E-04 -2.315668E-05 -6.669230E-05 -2.315668E-05 +4.723936E-03 
 +3.496842E-06 +1.606117E-04 -9.213469E-05 +1.606117E-04 +1.628818E-04 +4.841961E-06 -9.213469E-05 +4.841961E-06 +4.668778E-03 
 -1.320497E-04 -1.285009E-05 +9.107617E-05 -1.285009E-05 +1.645034E-04 -7.601085E-05 +9.107617E-05 -7.601085E-05 +4.782734E-03 
 -1.802176E-04 -4.065078E-05 +3.803345E-05 -4.065078E-05 +1.327120E-04 -2.011526E-04 +3.803345E-05 -2.011526E-04 +4.927209E-03 
 -1.535878E-04 -2.367018E-05 +1.243618E-05 -2.367018E-05 +6.612587E-05 -1.749388E-04 +1.243618E-05 -1.749388E-04 +4.934430E-03 
 -1.398786E-04 +5.737222E-05 -9.130346E-07 +5.737222E-05 +2.635387E-05 -1.454673E-04 -9.130346E-07 -1.454673E-04 +4.928066E-03 
 +1.031143E-04 +9.595813E-05 +1.911193E-04 +9.595813E-05 -4.908669E-05 -1.837665E-04 +1.911193E-04 -1.837665E-04 +4.776823E-03 
 +1.136651E-04 +1.056379E-04 +1.637711E-04 +1.056379E-04 -1.142469E-05 -1.015913E-04 +1.637711E-04 -1.015913E-04 +4.668856E-03 
 +1.383878E-04 +1.349928E-04 +1.302516E-04 +1.349928E-04 +9.274975E-05 -9.047284E-05 +1.302516E-04 -9.047284E-05 +4.590101E-03 
 +2.199121E-04 +5.254046E-05 +1.665873E-05 +5.254046E-05 +1.233029E-04 -6.783668E-05 +1.665873E-05 -6.783668E-05 +4.608891E-03 
 +2.704654E-04 +2.215427E-04 +1.197658E-05 +2.215427E-04 -6.795890E-05 -3.392373E-05 +1.197658E-05 -3.392373E-05 +4.851384E-03 
 +2.500880E-04 +1.669810E-04 +1.451797E-04 +1.669810E-04 -2.613874E-04 -3.330879E-06 +1.451797E-04 -3.330879E-06 +4.973634E-03 
 +2.653658E-04 +1.006120E-04 +9.209063E-05 +1.006120E-04 -2.988577E-04 +4.829270E-06 +9.209063E-05 +4.829270E-06 +5.003211E-03 
 +2.188307E-04 +2.454890E-04 +9.750207E-05 +2.454890E-04 -2.258891E-04 +4.530800E-05 +9.750207E-05 +4.530800E-05 +5.052895E-03 
 +9.289648E-05 -5.683095E-07 +1.607018E-04 -5.683095E-07 -1.643036E-04 +3.508759E-05 +1.607018E-04 +3.508759E-05 +5.115021E-03 
 -3.098221E-04 -9.788628E-05 +8.106676E-05 -9.788628E-05 -1.064086E-04 -6.158669E-05 +8.106676E-05 -6.158669E-05 +5.228411E-03 
 -3.768715E-04 -1.742523E-04 -7.425166E-06 -1.742523E-04 +2.681986E-06 -1.124237E-04 -7.425166E-06 -1.124237E-04 +5.171159E-03 
 -2.113380E-04 +6.028781E-05 -2.159596E-04 +6.028781E-05 +9.986487E-05 -1.347997E-04 -2.159596E-04 -1.347997E-04 +5.060678E-03 
 -2.011073E-04 +1.207424E-04 -1.847636E-04 +1.207424E-04 +1.140548E-04 -1.506386E-04 -1.847636E-04 -1.506386E-04 +5.025224E-03 
 -9.757896E-05 +1.392037E-04 -1.408273E-04 +1.392037E-04 +9.617356E-05 -1.286318E-04 -1.408273E-04 -1.286318E-04 +4.901576E-03 
 -3.609027E-05 +1.723648E-04 -5.209047E-05 +1.723648E-04 +1.446400E-04 -9.402595E-05 -5.209047E-05 -9.402595E-05 +4.762760E-03 
 -5.149475E-05 +1.692980E-04 -8.100395E-05 +1.692980E-04 +2.237079E-04 -5.555199E-05 -8.100395E-05 -5.555199E-05 +4.670422E-03 
 -6.733309E-05 +1.200098E-04 -2.205094E-04 +1.200098E-04 +2.059642E-04 -4.406563E-05 -2.205094E-04 -4.406563E-05 +4.636639E-03 
 -1.165596E-04 -9.820295E-05 -7.383700E-05 -9.820295E-05 +1.082115E-04 -1.171574E-04 -7.383700E-05 -1.171574E-04 +4.784302E-03 
 -8.946272E-05 -8.856153E-05 -1.148752E-04 -8.856153E-05 -4.441567E-06 -2.329939E-04 -1.148752E-04 -2.329939E-04 +5.001526E-03 
 -5.543746E-05 -2.114501E-05 -5.236248E-05 -2.114501E-05 -7.707014E-05 -2.217203E-04 -5.236248E-05 -2.217203E-04 +5.047969E-03 
 -5.974599E-05 +8.858094E-05 +2.151773E-05 +8.858094E-05 -6.877313E-05 -2.169602E-04 +2.151773E-05 -2.169602E-04 +4.958515E-03 
 +1.010867E-04 +1.219923E-04 +2.140727E-04 +1.219923E-04 -1.070775E-04 -1.854053E-04 +2.140727E-04 -1.854053E-04 +4.794111E-03 
 +1.125291E-04 +1.156421E-04 +2.427867E-04 +1.156421E-04 -4.833249E-05 -1.781273E-04 +2.427867E-04 -1.781273E-04 +4.692602E-03 
 +2.180814E-04 +1.987471E-04 +2.070028E-04 +1.987471E-04 +5.878794E-05 -1.023168E-04 +2.070028E-04 -1.023168E-04 +4.692439E-03 
 +2.718369E-04 +6.370693E-05 +5.875646E-05 +6.370693E-05 +2.839371E-04 -1.495639E-04 +5.875646E-05 -1.495639E-04 +4.680200E-03 
 +2.848796E-04 +1.185986E-04 +3.905494E-05 +1.185986E-04 +2.207310E-04 -1.086856E-04 +3.905494E-05 -1.086856E-04 +4.741119E-03 
 +3.336755E-04 +2.158487E-04 +1.009712E-04 +2.158487E-04 -1.612405E-04 -2.388519E-05 +1.009712E-04 -2.388519E-05 +4.862206E-03 
 +2.697446E-04 +2.042606E-04 +4.435700E-05 +2.042606E-04 -3.355000E-04 -2.652459E-05 +4.435700E-05 -2.652459E-05 +4.984795E-03 
 +3.988879E-05 +2.290963E-04 +4.607860E-05 +2.290963E-04 -1.908694E-04 +2.000196E-05 +4.607860E-05 +2.000196E-05 +5.060388E-03 
 -2.584999E-04 -1.549561E-04 +1.266562E-04 -1.549561E-04 -1.387189E-05 +1.429395E-05 +1.266562E-04 +1.429395E-05 +5.105040E-03 
 -2.981902E-04 -1.418899E-04 +9.627840E-05 -1.418899E-04 +2.272026E-05 -7.929522E-05 +9.627840E-05 -7.929522E-05 +5.119759E-03 
 -2.490220E-04 -1.894666E-04 +5.634783E-06 -1.894666E-04 +8.812388E-05 -8.417872E-05 +5.634783E-06 -8.417872E-05 +5.062616E-03 
 -2.627493E-04 -1.572720E-04 -1.074712E-04 -1.572720E-04 +1.697077E-04 -3.625130E-05 -1.074712E-04 -3.625130E-05 +5.039320E-03 
 -2.604431E-04 -1.317474E-04 -8.950855E-05 -1.317474E-04 +2.058481E-04 +9.248382E-06 -8.950855E-05 +9.248382E-06 +5.030974E-03 
 -1.090191E-04 +9.409777E-06 -9.787175E-05 +9.409777E-06 +2.547135E-04 +8.758069E-05 -9.787175E-05 +8.758069E-05 +4.857731E-03 
 -7.328088E-05 +3.008834E-05 -2.866421E-05 +3.008834E-05 +2.116907E-04 +6.804958E-05 -2.866421E-05 +6.804958E-05 +4.694243E-03 
 -4.175838E-05 +1.031276E-04 -1.372971E-04 +1.031276E-04 +2.292074E-04 -1.135110E-05 -1.372971E-04 -1.135110E-05 +4.677819E-03 
 -5.663734E-05 +3.765910E-05 -2.771788E-04 +3.765910E-05 +2.040924E-04 -8.542310E-06 -2.771788E-04 -8.542310E-06 +4.730721E-03 
 +1.140934E-05 -4.283007E-05 -1.880703E-04 -4.283007E-05 -2.644601E-05 +9.462350E-06 -1.880703E-04 +9.462350E-06 +4.864170E-03 
 -5.223079E-06 +5.295734E-06 -1.471889E-04 +5.295734E-06 -1.558944E-04 +7.381322E-05 -1.471889E-04 +7.381322E-05 +5.038285E-03 
 -2.961790E-05 +4.400874E-05 -1.023877E-04 +4.400874E-05 -1.622540E-04 +1.364021E-04 -1.023877E-04 +1.364021E-04 +5.083095E-03 
 +1.244054E-06 +1.177194E-04 -1.325937E-05 +1.177194E-04 -1.580327E-04 +2.642146E-05 -1.325937E-05 +2.642146E-05 +4.986578E-03 
 +6.238383E-05 +8.540107E-05 +6.215257E-05 +8.540107E-05 -1.784221E-04 -9.874900E-06 +6.215257E-05 -9.874900E-06 +4.844803E-03 
 +1.381420E-04 +1.319856E-04 +2.262419E-04 +1.319856E-04 -9.942973E-05 -1.549246E-04 +2.262419E-04 -1.549246E-04 +4.747053E-03 
 +2.715184E-04 +1.812000E-04 +2.803800E-04 +1.812000E-04 -6.063883E-05 -8.222101E-05 +2.803800E-04 -8.222101E-05 +4.831480E-03 
 +3.312698E-04 +2.236603E-05 +1.146018E-04 +2.236603E-05 -2.792420E-04 -3.905357E-06 +1.146018E-04 -3.905357E-06 +4.942350E-03 
 +3.610182E-04 -2.260155E-05 +5.169361E-05 -2.260155E-05 -3.304096E-04 -3.630015E-05 +5.169361E-05 -3.630015E-05 +4.939492E-03 
 +3.199731E-04 -3.958470E-05 +9.022067E-05 -3.958470E-05 -1.283166E-04 -9.382331E-05 +9.022067E-05 -9.382331E-05 +4.923679E-03 
 -3.787209E-05 -1.119119E-04 +1.123539E-04 -1.119119E-04 +1.060188E-05 -1.266465E-04 +1.123539E-04 -1.266465E-04 +4.994465E-03 
 -1.911829E-04 -5.718862E-05 +1.026873E-04 -5.718862E-05 -1.751683E-05 -6.887068E-05 +1.026873E-04 -6.887068E-05 +5.061111E-03 
 -3.163253E-04 -2.341366E-04 +1.111632E-04 -2.341366E-04 -1.833499E-05 -2.930453E-05 +1.111632E-04 -2.930453E-05 +5.088008E-03 
 -2.566939E-04 -2.329294E-04 +6.779061E-05 -2.329294E-04 +3.567231E-05 -6.152289E-05 +6.779061E-05 -6.152289E-05 +5.070610E-03 
 -2.490531E-04 -2.385138E-04 +2.504883E-05 -2.385138E-04 +9.395880E-05 -6.551503E-05 +2.504883E-05 -6.551503E-05 +5.024399E-03 
 -3.394696E-04 -1.570360E-04 +8.837955E-06 -1.570360E-04 +2.184670E-04 -5.437445E-05 +8.837955E-06 -5.437445E-05 +4.995246E-03 
 -2.545005E-04 -1.226804E-04 +2.143888E-05 -1.226804E-04 +2.718991E-04 -4.100900E-05 +2.143888E-05 -4.100900E-05 +4.938010E-03 
 -9.337709E-05 -7.291001E-05 -4.604457E-05 -7.291001E-05 +2.099680E-04 +2.888594E-05 -4.604457E-05 +2.888594E-05 +4.800114E-03 
 -5.872849E-05 -7.730426E-05 -9.743872E-05 -7.730426E-05 +8.167944E-05 +6.513918E-05 -9.743872E-05 +6.513918E-05 +4.753169E-03 
 +5.705430E-05 +1.601147E-04 -1.871964E-04 +1.601147E-04 -1.230882E-05 +1.112342E-04 -1.871964E-04 +1.112342E-04 +4.830277E-03 
 +1.401559E-04 +4.304579E-06 -1.751695E-04 +4.304579E-06 -7.221126E-05 +1.882492E-04 -1.751695E-04 +1.882492E-04 +4.927230E-03 
 +1.133996E-04 -1.213529E-04 -1.622233E-04 -1.213529E-04 -1.044011E-04 +2.213155E-04 -1.622233E-04 +2.213155E-04 +4.973975E-03 
 +4.324012E-06 -5.498783E-05 -1.001440E-04 -5.498783E-05 -8.498963E-05 +2.444807E-04 -1.001440E-04 +2.444807E-04 +4.992902E-03 
 -1.716732E-05 -9.946340E-07 -8.451516E-05 -9.946340E-07 -7.658398E-05 +2.102043E-04 -8.451516E-05 +2.102043E-04 +5.003988E-03 
 +1.501937E-05 +7.465657E-05 -4.874535E-05 +7.465657E-05 -1.166190E-04 +1.555237E-04 -4.874535E-05 +1.555237E-04 +4.972769E-03 
 +2.292998E-05 +8.368776E-05 -5.110097E-05 +8.368776E-05 -1.245241E-04 +1.215018E-04 -5.110097E-05 +1.215018E-04 +4.916782E-03 
 +9.816634E-05 +7.139418E-05 +5.768923E-05 +7.139418E-05 -3.316334E-04 +6.471552E-05 +5.768923E-05 +6.471552E-05 +4.894572E-03 
 +3.277112E-04 +4.565350E-05 +2.268146E-04 +4.565350E-05 -6.072155E-04 +6.394524E-05 +2.268146E-04 +6.394524E-05 +4.987934E-03 
 +3.568372E-04 -6.471584E-05 +1.740769E-04 -6.471584E-05 -5.605080E-04 +3.588292E-05 +1.740769E-04 +3.588292E-05 +5.076910E-03 
 +2.848002E-04 -5.351642E-05 +1.385121E-04 -5.351642E-05 -3.809101E-04 -7.137254E-05 +1.385121E-04 -7.137254E-05 +5.078408E-03 
 +8.546219E-05 -9.014214E-05 +1.142693E-04 -9.014214E-05 -1.850500E-04 -1.298257E-04 +1.142693E-04 -1.298257E-04 +5.049901E-03 
 -2.805831E-04 -1.702109E-04 +1.234093E-04 -1.702109E-04 +5.362332E-05 -1.371583E-04 +1.234093E-04 -1.371583E-04 +5.065257E-03 
 -2.612658E-04 -1.682564E-04 +9.246118E-05 -1.682564E-04 +5.467857E-05 -7.047780E-05 +9.246118E-05 -7.047780E-05 +5.104075E-03 
 -2.478821E-04 -2.746131E-04 +8.989537E-05 -2.746131E-04 -3.478095E-05 -2.504094E-05 +8.989537E-05 -2.504094E-05 +5.112091E-03 
 -2.756959E-04 -3.133330E-04 +5.279570E-05 -3.133330E-04 +5.329244E-06 -5.236216E-05 +5.279570E-05 -5.236216E-05 +5.116039E-03 
 -3.184183E-04 -3.211177E-04 +3.469416E-05 -3.211177E-04 +4.821746E-05 -9.580539E-05 +3.469416E-05 -9.580539E-05 +5.057223E-03 
 -2.852448E-04 -2.530411E-04 -1.738473E-05 -2.530411E-04 +1.621965E-04 -1.630290E-04 -1.738473E-05 -1.630290E-04 +4.972374E-03 
 -1.598793E-04 -2.294323E-04 -2.776722E-06 -2.294323E-04 +2.505395E-04 -1.193963E-04 -2.776722E-06 -1.193963E-04 +4.925263E-03 
 -4.811312E-05 -1.214873E-04 -2.703165E-05 -1.214873E-04 +1.485995E-04 +5.404793E-05 -2.703165E-05 +5.404793E-05 +4.893661E-03 
 +2.460675E-05 -7.647220E-05 -7.604128E-05 -7.647220E-05 +3.688061E-05 +1.390954E-04 -7.604128E-05 +1.390954E-04 +4.913216E-03 
 +1.956888E-04 +1.452328E-04 -1.624934E-04 +1.452328E-04 -6.519502E-05 +1.635937E-04 -1.624934E-04 +1.635937E-04 +4.923768E-03 
 +2.439198E-04 -3.698379E-05 -8.129258E-05 -3.698379E-05 -1.842979E-04 +1.810051E-04 -8.129258E-05 +1.810051E-04 +4.974385E-03 
 +1.307164E-04 -1.030151E-04 -1.240467E-04 -1.030151E-04 -1.269041E-04 +2.020875E-04 -1.240467E-04 +2.020875E-04 +4.993160E-03 
 +5.569578E-05 -5.791473E-05 -1.141068E-04 -5.791473E-05 -3.035121E-05 +2.204483E-04 -1.141068E-04 +2.204483E-04 +4.973467E-03 
 +2.590873E-05 -2.864374E-05 -8.290140E-05 -2.864374E-05 -8.945578E-05 +1.954915E-04 -8.290140E-05 +1.954915E-04 +4.981527E-03 
 +2.443044E-05 +7.040007E-05 -6.881118E-05 +7.040007E-05 -1.292186E-04 +1.536818E-04 -6.881118E-05 +1.536818E-04 +4.964055E-03 
 +9.330539E-05 +1.414275E-04 -4.375322E-05 +1.414275E-04 -2.001739E-04 +1.237713E-04 -4.375322E-05 +1.237713E-04 +4.932874E-03 
 +8.554952E-05 +7.814232E-05 -1.523727E-05 +7.814232E-05 -3.254732E-04 +1.003880E-04 -1.523727E-05 +1.003880E-04 +4.990684E-03 
 +1.994745E-04 +1.150261E-04 +1.176899E-04 +1.150261E-04 -4.981908E-04 +1.557185E-04 +1.176899E-04 +1.557185E-04 +5.097813E-03 
 +2.472238E-04 +1.430465E-05 +1.170420E-04 +1.430465E-05 -4.897444E-04 +1.348147E-04 +1.170420E-04 +1.348147E-04 +5.105287E-03 
 +1.408792E-04 +1.877582E-05 +8.740537E-05 +1.877582E-05 -1.767524E-04 -9.062965E-06 +8.740537E-05 -9.062965E-06 +5.036599E-03 
 -1.750702E-04 -5.048348E-05 +3.828689E-06 -5.048348E-05 +1.413816E-04 -6.567560E-05 +3.828689E-06 -6.567560E-05 +5.027052E-03 
 -2.737184E-04 -1.490483E-04 -2.407756E-05 -1.490483E-04 +1.502277E-04 -7.257568E-05 -2.407756E-05 -7.257568E-05 +5.054535E-03 
 -3.046934E-04 -1.783369E-04 +1.303312E-05 -1.783369E-04 +8.111945E-05 -2.161748E-05 +1.303312E-05 -2.161748E-05 +5.104029E-03 
 -2.877289E-04 -2.394807E-04 +2.820961E-05 -2.394807E-04 +3.464509E-05 -3.450143E-06 +2.820961E-05 -3.450143E-06 +5.141262E-03 
 -3.379122E-04 -3.192461E-04 +2.960459E-05 -3.192461E-04 -2.300176E-05 -5.727807E-05 +2.960459E-05 -5.727807E-05 +5.156551E-03 
 -3.171802E-04 -2.706737E-04 +1.130441E-05 -2.706737E-04 -1.992940E-05 -1.408308E-04 +1.130441E-05 -1.408308E-04 +5.077752E-03 
 -6.909840E-05 -1.893862E-06 -9.547223E-05 -1.893862E-06 -2.155273E-06 -2.166521E-04 -9.547223E-05 -2.166521E-04 +4.955754E-03 
 +1.469099E-05 +4.210707E-05 -7.423856E-05 +4.210707E-05 +5.753363E-05 -1.489912E-04 -7.423856E-05 -1.489912E-04 +4.909429E-03 
 -1.132831E-05 -1.577999E-05 -3.437591E-05 -1.577999E-05 +1.038936E-04 +5.426679E-05 -3.437591E-05 +5.426679E-05 +4.830526E-03 
 +2.888090E-05 -1.745407E-05 -2.360958E-05 -1.745407E-05 +4.263282E-05 +1.607267E-04 -2.360958E-05 +1.607267E-04 +4.830980E-03 
 +1.660313E-04 +1.335751E-05 -7.992301E-05 +1.335751E-05 -1.451582E-04 +1.083597E-04 -7.992301E-05 +1.083597E-04 +4.948138E-03 
 +2.308379E-04 -2.258200E-04 -1.223280E-05 -2.258200E-04 -3.803072E-04 +4.752260E-05 -1.223280E-05 +4.752260E-05 +5.034300E-03 
 +2.341630E-04 -1.715988E-04 -3.703703E-05 -1.715988E-04 -4.870935E-04 -3.679759E-06 -3.703703E-05 -3.679759E-06 +5.059258E-03 
 +1.957383E-04 -4.584359E-05 -4.020967E-05 -4.584359E-05 -3.892039E-04 +5.467727E-05 -4.020967E-05 +5.467727E-05 +5.021910E-03 
 +6.700619E-05 -2.565887E-05 -8.131472E-05 -2.565887E-05 -1.794159E-04 +1.679298E-04 -8.131472E-05 +1.679298E-04 +4.965081E-03 
 +7.297328E-05 +5.372514E-05 -8.700839E-05 +5.372514E-05 -1.439387E-04 +1.472824E-04 -8.700839E-05 +1.472824E-04 +4.925299E-03 
 +2.004870E-04 +6.444136E-05 -5.775908E-05 +6.444136E-05 -2.383620E-04 +8.760903E-05 -5.775908E-05 +8.760903E-05 +4.890873E-03 
 +2.857143E-04 +4.556491E-05 -4.922560E-05 +4.556491E-05 -2.190235E-04 +1.037716E-04 -4.922560E-05 +1.037716E-04 +4.953010E-03 
 -1.223608E-04 +1.576562E-04 +3.733880E-05 +1.576562E-04 -4.275536E-05 +1.556814E-04 +3.733880E-05 +1.556814E-04 +5.041842E-03 
 -1.776333E-04 -1.888035E-05 -3.200555E-05 -1.888035E-05 +8.190158E-05 +1.422399E-04 -3.200555E-05 +1.422399E-04 +5.030233E-03 
 -7.013272E-05 -9.424389E-05 -6.950984E-05 -9.424389E-05 +5.025381E-05 +5.473482E-05 -6.950984E-05 +5.473482E-05 +4.963727E-03 
 -1.330015E-04 -9.173018E-05 -8.190123E-05 -9.173018E-05 +4.418161E-05 -3.938885E-06 -8.190123E-05 -3.938885E-06 +4.944521E-03 
 -2.155977E-04 -1.427332E-04 -1.176390E-04 -1.427332E-04 +1.609996E-04 +7.917586E-06 -1.176390E-04 +7.917586E-06 +4.979253E-03 
 -2.773817E-04 -1.841820E-04 -3.717922E-05 -1.841820E-04 +1.670022E-04 +3.361341E-05 -3.717922E-05 +3.361341E-05 +5.049214E-03 
 -2.928030E-04 -2.046504E-04 -5.248858E-05 -2.046504E-04 +7.569932E-05 -1.792928E-05 -5.248858E-05 -1.792928E-05 +5.148837E-03 
 -3.240931E-04 -1.858427E-04 -2.490008E-05 -1.858427E-04 -5.239316E-05 -1.058075E-04 -2.490008E-05 -1.058075E-04 +5.168819E-03 
 -7.608158E-05 +6.339469E-05 -9.679204E-05 +6.339469E-05 -1.022641E-04 -2.153050E-04 -9.679204E-05 -2.153050E-04 +5.075812E-03 
 +9.308777E-05 +2.011620E-04 -1.275120E-04 +2.011620E-04 -1.009734E-04 -2.479496E-04 -1.275120E-04 -2.479496E-04 +5.003018E-03 
 +1.206287E-05 +1.852204E-04 -9.743811E-05 +1.852204E-04 -5.247157E-05 -2.491033E-04 -9.743811E-05 -2.491033E-04 +4.962410E-03 
 -5.436620E-05 +4.401252E-05 +2.971251E-05 +4.401252E-05 +1.236318E-04 -1.968606E-04 +2.971251E-05 -1.968606E-04 +4.813796E-03 
 +4.880481E-07 -1.976418E-05 +4.403222E-05 -1.976418E-05 +1.783416E-04 +9.697265E-06 +4.403222E-05 +9.697265E-06 +4.815758E-03 
 +1.761332E-05 -1.093175E-04 +2.397467E-05 -1.093175E-04 -9.982971E-05 +8.106482E-05 +2.397467E-05 +8.106482E-05 +5.050967E-03 
 +2.131104E-04 -1.825642E-04 +7.033840E-05 -1.825642E-04 -3.960123E-04 +4.572019E-05 +7.033840E-05 +4.572019E-05 +5.143151E-03 
 +3.072171E-04 -1.247896E-04 +5.337863E-05 -1.247896E-04 -5.013850E-04 -1.267840E-06 +5.337863E-05 -1.267840E-06 +5.118513E-03 
 +3.106551E-04 +2.789358E-05 +3.396884E-05 +2.789358E-05 -5.018516E-04 +3.334632E-05 +3.396884E-05 +3.334632E-05 +5.013976E-03 
 +1.569826E-04 +6.384513E-05 -5.889615E-05 +6.384513E-05 -3.103428E-04 +1.565253E-04 -5.889615E-05 +1.565253E-04 +4.903442E-03 
 +1.461489E-04 +1.740626E-05 -4.992101E-05 +1.740626E-05 -1.646065E-04 +1.363930E-04 -4.992101E-05 +1.363930E-04 +4.883766E-03 
 +3.538071E-04 +1.998019E-06 -4.698726E-05 +1.998019E-06 -2.566275E-04 +1.201877E-04 -4.698726E-05 +1.201877E-04 +4.842182E-03 
 +1.798481E-04 +4.609264E-05 -3.549207E-05 +4.609264E-05 -1.223790E-04 +1.463756E-04 -3.549207E-05 +1.463756E-04 +4.881071E-03 
 -3.617351E-04 -3.975982E-05 -3.118895E-05 -3.975982E-05 +1.982586E-04 +1.567171E-04 -3.118895E-05 +1.567171E-04 +4.979145E-03 
 -4.492993E-04 -6.768464E-05 -8.620347E-05 -6.768464E-05 +3.290684E-04 +6.421524E-05 -8.620347E-05 +6.421524E-05 +4.984118E-03 
 -3.405961E-04 -8.959353E-05 -9.778509E-05 -8.959353E-05 +2.312002E-04 +5.363948E-06 -9.778509E-05 +5.363948E-06 +4.948790E-03 
 -9.853006E-05 -1.064511E-04 -1.095248E-04 -1.064511E-04 +1.023493E-04 -3.080576E-05 -1.095248E-04 -3.080576E-05 +4.915341E-03 
 -3.133249E-05 -1.980738E-04 -1.660496E-04 -1.980738E-04 +1.040212E-04 +7.243589E-06 -1.660496E-04 +7.243589E-06 +4.928703E-03 
 -1.191371E-04 -1.973111E-04 -1.189585E-04 -1.973111E-04 +1.036062E-04 +2.930361E-05 -1.189585E-04 +2.930361E-05 +5.002753E-03 
 -1.611258E-04 -1.716611E-04 -1.778728E-04 -1.716611E-04 -1.606016E-05 -4.941362E-06 -1.778728E-04 -4.941362E-06 +5.140681E-03 
 -1.058315E-04 -5.377799E-05 -1.627188E-04 -5.377799E-05 -9.114236E-05 -1.087836E-04 -1.627188E-04 -1.087836E-04 +5.150621E-03 
 +1.093722E-04 +2.010712E-04 -1.970749E-04 +2.010712E-04 -6.550122E-05 -2.487981E-04 -1.970749E-04 -2.487981E-04 +5.045967E-03 
 +4.517716E-05 +2.233721E-04 -1.303761E-04 +2.233721E-04 -1.203805E-04 -2.638692E-04 -1.303761E-04 -2.638692E-04 +5.049835E-03 
 -3.242772E-05 +3.317352E-04 -4.446066E-05 +3.317352E-04 -1.582863E-04 -1.918058E-04 -4.446066E-05 -1.918058E-04 +5.054358E-03 
 -1.562169E-05 +2.554743E-04 +1.320109E-04 +2.554743E-04 -1.339626E-04 -9.771869E-05 +1.320109E-04 -9.771869E-05 +5.024494E-03 
 -1.867386E-05 +1.825003E-04 +1.301147E-04 +1.825003E-04 -6.938511E-05 +3.273784E-05 +1.301147E-04 +3.273784E-05 +5.054635E-03 
 -7.442541E-05 -8.667900E-05 +6.515738E-05 -8.667900E-05 -1.115866E-04 +5.742559E-05 +6.515738E-05 +5.742559E-05 +5.129003E-03 
 +1.181477E-04 -1.136520E-04 +1.166489E-04 -1.136520E-04 -2.906536E-04 +4.251171E-05 +1.166489E-04 +4.251171E-05 +5.139992E-03 
 +2.195731E-04 -1.161286E-04 +1.195136E-04 -1.161286E-04 -4.098700E-04 +1.491417E-05 +1.195136E-04 +1.491417E-05 +5.111158E-03 
 +2.850648E-04 +5.733286E-05 +9.497171E-05 +5.733286E-05 -4.222729E-04 +2.152333E-05 +9.497171E-05 +2.152333E-05 +5.000129E-03 
 +2.503451E-04 +1.027828E-04 -2.776980E-06 +1.027828E-04 -3.461998E-04 +1.430070E-04 -2.776980E-06 +1.430070E-04 +4.882400E-03 
 +2.475321E-04 -1.664444E-05 -3.418992E-06 -1.664444E-05 -2.458966E-04 +1.791778E-04 -3.418992E-06 +1.791778E-04 +4.874792E-03 
 +2.563557E-04 -1.112717E-04 -1.752171E-05 -1.112717E-04 -1.588485E-04 +1.937924E-04 -1.752171E-05 +1.937924E-04 +4.874336E-03 
 -1.184595E-04 -3.342959E-05 +5.346228E-06 -3.342959E-05 +1.257827E-04 +2.014826E-04 +5.346228E-06 +2.014826E-04 +4.924820E-03 
 -3.605020E-04 -1.924638E-05 -1.107443E-06 -1.924638E-05 +2.733449E-04 +1.772122E-04 -1.107443E-06 +1.772122E-04 +4.962216E-03 
 -3.607482E-04 -3.752197E-05 +1.306053E-05 -3.752197E-05 +3.238557E-04 +1.059106E-04 +1.306053E-05 +1.059106E-04 +4.929900E-03 
 -3.936455E-04 -2.190579E-05 -2.630827E-06 -2.190579E-05 +3.078224E-04 +1.057828E-05 -2.630827E-06 +1.057828E-05 +4.912712E-03 
 -2.498143E-04 +1.213640E-04 -5.253403E-05 +1.213640E-04 +1.822459E-04 -5.535253E-05 -5.253403E-05 -5.535253E-05 +4.918883E-03 
 +3.549161E-05 -3.411911E-05 -1.408124E-04 -3.411911E-05 +1.671292E-05 +1.182796E-05 -1.408124E-04 +1.182796E-05 +4.927508E-03 
 +9.247390E-05 -1.809875E-04 -1.821469E-04 -1.809875E-04 -8.640090E-05 +6.078415E-05 -1.821469E-04 +6.078415E-05 +4.969448E-03 
 +4.246032E-05 -1.987761E-04 -2.726701E-04 -1.987761E-04 -1.204531E-04 +6.955550E-05 -2.726701E-04 +6.955550E-05 +5.077052E-03 
 +3.293556E-05 -5.612273E-05 -2.474556E-04 -5.612273E-05 -7.159836E-05 -1.252443E-05 -2.474556E-04 -1.252443E-05 +5.114037E-03 
 +7.849148E-05 +5.471701E-05 -1.966038E-04 +5.471701E-05 -2.818794E-05 -1.420996E-04 -1.966038E-04 -1.420996E-04 +5.083464E-03 
 +4.281223E-05 +8.521046E-06 -1.132848E-04 +8.521046E-06 -5.297333E-05 -1.342110E-04 -1.132848E-04 -1.342110E-04 +5.102960E-03 
 +5.510534E-05 +1.994725E-04 +4.790630E-06 +1.994725E-04 -1.197910E-04 -3.717374E-05 +4.790630E-06 -3.717374E-05 +5.115213E-03 
 +3.656833E-05 +1.351185E-04 +6.996671E-05 +1.351185E-04 -1.942085E-04 +1.675035E-05 +6.996671E-05 +1.675035E-05 +5.130338E-03 
 +5.053672E-05 +1.309544E-04 +7.518956E-05 +1.309544E-04 -2.022087E-04 +2.655765E-06 +7.518956E-05 +2.655765E-06 +5.138538E-03 
 -1.763606E-05 -9.099595E-05 -4.801318E-05 -9.099595E-05 -1.484681E-04 -1.229302E-05 -4.801318E-05 -1.229302E-05 +5.123122E-03 
 -4.119754E-05 -2.169298E-05 +3.394217E-06 -2.169298E-05 -1.042980E-04 +5.727547E-06 +3.394217E-06 +5.727547E-06 +5.110196E-03 
 +5.381354E-05 -2.746786E-05 +7.810027E-05 -2.746786E-05 -1.546336E-04 -1.602527E-05 +7.810027E-05 -1.602527E-05 +5.098839E-03 
 +1.497826E-04 +1.592826E-04 +1.427300E-04 +1.592826E-04 -2.521394E-04 -4.054819E-06 +1.427300E-04 -4.054819E-06 +4.998129E-03 
 +2.652435E-04 +1.558566E-04 +1.431887E-05 +1.558566E-04 -3.531307E-04 +1.029146E-04 +1.431887E-05 +1.029146E-04 +4.875077E-03 
 +3.497966E-04 +5.803215E-05 +8.820703E-06 +5.803215E-05 -3.726973E-04 +1.745261E-04 +8.820703E-06 +1.745261E-04 +4.860586E-03 
 +2.872314E-07 -1.041317E-04 +4.227810E-05 -1.041317E-04 +1.690710E-05 +1.126399E-04 +4.227810E-05 +1.126399E-04 +4.930998E-03 
 -2.242800E-04 -9.827269E-05 +1.279657E-07 -9.827269E-05 +1.174694E-04 +1.217393E-04 +1.279657E-07 +1.217393E-04 +5.060808E-03 
 -1.495982E-04 -1.160221E-05 +5.603549E-05 -1.160221E-05 +1.382118E-04 +1.378756E-04 +5.603549E-05 +1.378756E-04 +5.017366E-03 
 -1.485589E-04 +5.508181E-06 +7.241492E-05 +5.508181E-06 +2.425945E-04 +1.273825E-04 +7.241492E-05 +1.273825E-04 +4.961111E-03 
 -1.716624E-04 +6.575587E-05 +1.157828E-04 +6.575587E-05 +2.311127E-04 +6.276645E-05 +1.157828E-04 +6.276645E-05 +4.930193E-03 
 -2.803805E-04 +2.217798E-04 +7.004123E-05 +2.217798E-04 +1.855163E-04 -1.523027E-05 +7.004123E-05 -1.523027E-05 +4.929298E-03 
 -1.007551E-04 +1.178233E-04 +4.996480E-06 +1.178233E-04 +9.712432E-05 +1.920290E-06 +4.996480E-06 +1.920290E-06 +4.916084E-03 
 +1.673554E-04 -3.690156E-05 -7.232395E-05 -3.690156E-05 -2.742344E-05 +7.845733E-05 -7.232395E-05 +7.845733E-05 +4.884718E-03 
 +1.115908E-04 -8.081325E-05 -1.926276E-04 -8.081325E-05 -9.816550E-06 +8.648028E-05 -1.926276E-04 +8.648028E-05 +4.966687E-03 
 -2.415649E-05 -9.157944E-05 -1.605850E-04 -9.157944E-05 +2.556073E-06 -2.686026E-05 -1.605850E-04 -2.686026E-05 +5.115112E-03 
 -1.498925E-05 -3.509658E-06 -9.678454E-05 -3.509658E-06 -7.699418E-05 -1.225774E-04 -9.678454E-05 -1.225774E-04 +5.201019E-03 
 +3.827266E-06 -3.432200E-05 -4.326978E-05 -3.432200E-05 -2.168121E-05 -9.116399E-05 -4.326978E-05 -9.116399E-05 +5.218821E-03 
 +3.769426E-05 -8.164711E-05 +7.044711E-06 -8.164711E-05 -7.593960E-05 -5.146076E-05 +7.044711E-06 -5.146076E-05 +5.227254E-03 
 +4.148702E-05 -1.754677E-04 +6.987017E-06 -1.754677E-04 -2.300977E-04 -4.308348E-05 +6.987017E-06 -4.308348E-05 +5.175751E-03 
 +2.343181E-04 -1.734137E-04 +4.468665E-05 -1.734137E-04 -3.576652E-04 -6.599259E-05 +4.468665E-05 -6.599259E-05 +5.108061E-03 
 +2.134085E-04 -2.390994E-04 -8.609165E-05 -2.390994E-04 -3.011070E-04 -6.753944E-05 -8.609165E-05 -6.753944E-05 +5.073253E-03 
 +5.408776E-05 -1.215382E-04 -1.187076E-04 -1.215382E-04 -1.101093E-04 -5.454332E-05 -1.187076E-04 -5.454332E-05 +5.040240E-03 
 -5.996306E-05 -6.246953E-05 -4.281467E-05 -6.246953E-05 -1.133576E-04 -7.762979E-05 -4.281467E-05 -7.762979E-05 +5.028014E-03 
 -5.623067E-06 +1.921838E-04 +6.938654E-05 +1.921838E-04 -1.821428E-04 -2.419905E-05 +6.938654E-05 -2.419905E-05 +4.915268E-03 
 +1.206526E-04 +1.331529E-04 +9.088521E-06 +1.331529E-04 -2.310728E-04 +1.362908E-04 +9.088521E-06 +1.362908E-04 +4.781219E-03 
 +1.949758E-04 -5.071605E-05 -2.788767E-05 -5.071605E-05 -2.087711E-04 +1.698724E-04 -2.788767E-05 +1.698724E-04 +4.775507E-03 
 +1.157251E-04 -9.569231E-05 +1.308517E-04 -9.569231E-05 +8.466281E-05 +4.446152E-05 +1.308517E-04 +4.446152E-05 +4.896471E-03 
 -2.575389E-04 -1.018794E-04 +5.477548E-05 -1.018794E-04 +1.041416E-04 -3.673273E-05 +5.477548E-05 -3.673273E-05 +5.035824E-03 
 +1.080941E-04 +3.187428E-05 +1.326879E-04 +3.187428E-05 -7.199354E-05 -2.614218E-05 +1.326879E-04 -2.614218E-05 +5.043503E-03 
 +9.945769E-05 +5.292585E-05 +9.662244E-05 +5.292585E-05 -2.022703E-04 +2.017239E-05 +9.662244E-05 +2.017239E-05 +5.012277E-03 
 +6.609557E-05 +1.203240E-04 +1.760149E-04 +1.203240E-04 +1.375068E-05 -1.377606E-05 +1.760149E-04 -1.377606E-05 +4.915217E-03 
 -3.152080E-04 +8.711017E-05 +1.045212E-04 +8.711017E-05 +9.514750E-05 -3.026989E-05 +1.045212E-04 -3.026989E-05 +4.878918E-03 
 +2.781028E-05 +8.431236E-05 +2.901666E-05 +8.431236E-05 -1.742273E-05 +3.722707E-05 +2.901666E-05 +3.722707E-05 +4.880619E-03 
 +6.145320E-05 +6.681390E-06 +3.536851E-05 +6.681390E-06 -2.068174E-05 +1.413367E-04 +3.536851E-05 +1.413367E-04 +4.858507E-03 
 +8.017093E-05 +2.980374E-05 -7.613160E-05 +2.980374E-05 +4.053424E-05 +1.682404E-04 -7.613160E-05 +1.682404E-04 +4.917523E-03 
 -1.535046E-04 -9.167866E-05 -3.389035E-05 -9.167866E-05 +3.705052E-05 +3.161980E-05 -3.389035E-05 +3.161980E-05 +5.105461E-03 
 -1.032465E-04 +3.442199E-05 -2.344886E-05 +3.442199E-05 -3.505732E-05 -6.924568E-05 -2.344886E-05 -6.924568E-05 +5.264110E-03 
 -1.202151E-04 +1.362439E-05 +2.950864E-06 +1.362439E-05 -8.065036E-05 -5.214949E-05 +2.950864E-06 -5.214949E-05 +5.304753E-03 
 -8.309096E-05 -7.428216E-05 +2.106841E-05 -7.428216E-05 -1.036969E-04 +1.664604E-05 +2.106841E-05 +1.664604E-05 +5.280718E-03 
 +1.162343E-04 -9.909139E-05 +4.671191E-05 -9.909139E-05 -1.760591E-04 +7.180659E-05 +4.671191E-05 +7.180659E-05 +5.192441E-03 
 +3.397323E-04 -1.290487E-04 +7.935983E-05 -1.290487E-04 -2.984920E-04 +5.606377E-06 +7.935983E-05 +5.606377E-06 +5.084350E-03 
 +3.226406E-04 -1.504637E-04 +5.089872E-05 -1.504637E-04 -2.927701E-04 -7.250353E-05 +5.089872E-05 -7.250353E-05 +4.990286E-03 
 +2.793090E-04 -1.846206E-04 -4.182784E-05 -1.846206E-04 -1.601544E-04 -9.276744E-05 -4.182784E-05 -9.276744E-05 +4.936261E-03 
 -7.530973E-05 -1.411231E-04 -3.152133E-05 -1.411231E-04 +1.104135E-04 -1.092857E-04 -3.152133E-05 -1.092857E-04 +4.933137E-03 
 -1.803081E-04 +1.480804E-05 -1.973601E-05 +1.480804E-05 +2.884768E-04 -6.504993E-05 -1.973601E-05 -6.504993E-05 +4.886545E-03 
 -1.646794E-04 -8.647785E-05 -1.255981E-05 -8.647785E-05 +2.539900E-04 +2.417069E-05 -1.255981E-05 +2.417069E-05 +4.838925E-03 
 -1.638229E-04 -2.651888E-04 -6.493369E-05 -2.651888E-04 +1.428900E-04 +8.599352E-05 -6.493369E-05 +8.599352E-05 +4.796285E-03 
 +2.012412E-04 -3.125620E-05 +1.174266E-04 -3.125620E-05 +1.798810E-04 +7.453380E-05 +1.174266E-04 +7.453380E-05 +4.766876E-03 
 +3.860485E-05 -4.815745E-06 +6.634680E-05 -4.815745E-06 +4.724381E-05 +1.255717E-05 +6.634680E-05 +1.255717E-05 +4.824327E-03 
 +2.103989E-04 +1.214454E-04 +9.722705E-05 +1.214454E-04 +3.227323E-05 -4.275889E-05 +9.722705E-05 -4.275889E-05 +4.869462E-03 
 +2.008202E-04 +1.566990E-04 +1.616489E-04 +1.566990E-04 +8.547001E-05 -1.635343E-05 +1.616489E-04 -1.635343E-05 +4.845571E-03 
 +9.272774E-05 +1.097918E-04 +1.395954E-04 +1.097918E-04 +4.372629E-05 +1.942093E-07 +1.395954E-04 +1.942093E-07 +4.760282E-03 
 -1.666638E-04 +3.043325E-05 +1.038905E-04 +3.043325E-05 +5.911858E-06 -1.681943E-06 +1.038905E-04 -1.681943E-06 +4.781863E-03 
 +6.900021E-05 -7.352030E-07 -1.777204E-05 -7.352030E-07 +5.368091E-06 +4.974207E-05 -1.777204E-05 +4.974207E-05 +4.895566E-03 
 -7.104934E-05 -1.819944E-04 +7.224115E-05 -1.819944E-04 -6.730321E-05 +1.204239E-04 +7.224115E-05 +1.204239E-04 +5.001325E-03 
 +4.002937E-05 -1.160983E-04 +1.132172E-05 -1.160983E-04 -9.534946E-05 +2.168122E-04 +1.132172E-05 +2.168122E-04 +5.003011E-03 
 -9.724793E-05 -1.655678E-04 +2.092860E-05 -1.655678E-04 +1.168753E-05 +1.201254E-04 +2.092860E-05 +1.201254E-04 +5.054864E-03 
 -1.909455E-04 -8.976848E-06 +3.022225E-05 -8.976848E-06 +4.455397E-05 -4.960205E-06 +3.022225E-05 -4.960205E-06 +5.189179E-03 
 -1.659999E-04 +7.235739E-05 +4.436438E-05 +7.235739E-05 -1.407761E-05 +5.941867E-05 +4.436438E-05 +5.941867E-05 +5.272466E-03 
 -5.532111E-05 +2.623688E-05 +3.702629E-05 +2.623688E-05 -8.702852E-05 +1.156501E-04 +3.702629E-05 +1.156501E-04 +5.248705E-03 
 +1.768845E-04 -2.055695E-05 +8.074087E-05 -2.055695E-05 -2.261844E-04 +7.963517E-05 +8.074087E-05 +7.963517E-05 +5.145793E-03 
 +2.489216E-04 -8.428881E-05 +9.976828E-05 -8.428881E-05 -2.534781E-04 +7.114783E-06 +9.976828E-05 +7.114783E-06 +5.052552E-03 
 +2.786243E-04 -1.063099E-04 +1.246178E-04 -1.063099E-04 -2.056785E-04 -3.845023E-05 +1.246178E-04 -3.845023E-05 +4.941064E-03 
 +3.367760E-04 -1.369709E-04 +8.256379E-05 -1.369709E-04 -8.469924E-05 -6.843737E-05 +8.256379E-05 -6.843737E-05 +4.878236E-03 
 -1.168487E-04 -1.010083E-04 +2.950991E-05 -1.010083E-04 +1.268746E-04 -1.244022E-04 +2.950991E-05 -1.244022E-04 +4.926836E-03 
 -3.152983E-04 -6.200690E-05 -5.167442E-05 -6.200690E-05 +2.919294E-04 -1.276714E-04 -5.167442E-05 -1.276714E-04 +4.988471E-03 
 -3.382187E-04 -8.404195E-05 -3.758816E-05 -8.404195E-05 +3.400564E-04 -6.652341E-05 -3.758816E-05 -6.652341E-05 +5.007324E-03 
 -3.766495E-04 -1.796591E-04 -4.527163E-05 -1.796591E-04 +3.114162E-04 +3.347891E-05 -4.527163E-05 +3.347891E-05 +4.866173E-03 
 +2.199532E-04 +4.260021E-05 +7.201337E-06 +4.260021E-05 +2.990640E-04 +6.544939E-05 +7.201337E-06 +6.544939E-05 +4.680796E-03 
 +2.649153E-04 +9.569528E-05 +1.831734E-06 +9.569528E-05 +1.457683E-04 +1.038744E-05 +1.831734E-06 +1.038744E-05 +4.659712E-03 
 +2.234982E-04 +1.135535E-04 -4.883645E-06 +1.135535E-04 +1.349701E-04 -2.558903E-05 -4.883645E-06 -2.558903E-05 +4.673799E-03 
 +2.399764E-04 +1.779150E-04 +1.405957E-04 +1.779150E-04 +1.073262E-04 -4.380114E-05 +1.405957E-04 -4.380114E-05 +4.727856E-03 
 -3.799913E-05 +6.705035E-05 +5.928527E-05 +6.705035E-05 +2.434242E-05 -3.827046E-05 +5.928527E-05 -3.827046E-05 +4.766707E-03 
 -5.635589E-05 -3.501557E-05 +8.489417E-05 -3.501557E-05 -1.084175E-05 -7.940469E-06 +8.489417E-05 -7.940469E-06 +4.811178E-03 
 -2.522754E-05 -1.940223E-04 +3.996537E-05 -1.940223E-04 -7.602129E-06 +1.736876E-05 +3.996537E-05 +1.736876E-05 +4.961942E-03 
 -1.286019E-04 -2.611828E-04 +1.431308E-04 -2.611828E-04 -2.689677E-05 +5.264313E-05 +1.431308E-04 +5.264313E-05 +5.104751E-03 
 -1.883479E-05 -1.877982E-04 +1.097453E-04 -1.877982E-04 -7.411408E-05 +1.139168E-04 +1.097453E-04 +1.139168E-04 +5.069192E-03 
 +9.840013E-05 -1.555887E-04 +4.298106E-05 -1.555887E-04 -9.580628E-05 +6.554079E-05 +4.298106E-05 +6.554079E-05 +5.020924E-03 
 -1.408190E-04 -4.492287E-05 +1.179241E-04 -4.492287E-05 -2.200206E-05 -1.818351E-05 +1.179241E-04 -1.818351E-05 +5.075808E-03 
 -8.551034E-05 +7.292452E-05 +7.153208E-05 +7.292452E-05 -8.675269E-05 +6.141060E-06 +7.153208E-05 +6.141060E-06 +5.155316E-03 
 +1.273489E-05 +2.560990E-05 +6.871446E-05 +2.560990E-05 -2.175695E-04 +3.557482E-05 +6.871446E-05 +3.557482E-05 +5.170182E-03 
 +1.033057E-04 -1.885671E-05 +1.154644E-04 -1.885671E-05 -1.972917E-04 +1.304039E-05 +1.154644E-04 +1.304039E-05 +5.104599E-03 
 +1.094222E-04 -5.946429E-05 +1.322836E-04 -5.946429E-05 -1.344262E-04 -3.394904E-05 +1.322836E-04 -3.394904E-05 +5.043854E-03 
 +1.786410E-04 -9.353086E-05 +1.384104E-04 -9.353086E-05 -1.089399E-04 -3.736085E-05 +1.384104E-04 -3.736085E-05 +4.970542E-03 
 +2.026996E-04 -1.400630E-04 +1.445733E-04 -1.400630E-04 -5.442670E-05 -4.317399E-05 +1.445733E-04 -4.317399E-05 +4.976599E-03 
 -1.354469E-04 -4.209748E-05 +7.226560E-05 -4.209748E-05 +1.814316E-04 -9.231654E-05 +7.226560E-05 -9.231654E-05 +5.073082E-03 
 -3.432890E-04 -1.033643E-04 -4.490083E-06 -1.033643E-04 +3.162244E-04 -1.158926E-04 -4.490083E-06 -1.158926E-04 +5.137923E-03 
 -3.853826E-04 -1.075056E-04 +3.997547E-06 -1.075056E-04 +2.940976E-04 -8.089041E-05 +3.997547E-06 -8.089041E-05 +5.126491E-03 
 -2.962699E-04 -1.160245E-04 +1.282192E-05 -1.160245E-04 +3.837825E-04 +1.583477E-05 +1.282192E-05 +1.583477E-05 +4.898729E-03 
 +2.134241E-04 +1.112500E-04 -1.126254E-04 +1.112500E-04 +2.038465E-04 +4.262504E-05 -1.126254E-04 +4.262504E-05 +4.721273E-03 
 +2.215504E-04 +1.578756E-04 -5.280439E-05 +1.578756E-04 +2.070055E-04 -7.951634E-06 -5.280439E-05 -7.951634E-06 +4.657364E-03 
 +2.125460E-04 +1.595752E-04 -3.021575E-05 +1.595752E-04 +1.874262E-04 -4.442320E-05 -3.021575E-05 -4.442320E-05 +4.652148E-03 
 +2.055988E-04 +1.182085E-04 +2.894889E-05 +1.182085E-04 +1.224741E-04 -8.313361E-05 +2.894889E-05 -8.313361E-05 +4.710903E-03 
 -8.709746E-05 -3.473468E-06 +1.306439E-05 -3.473468E-06 +4.976210E-05 -1.233561E-04 +1.306439E-05 -1.233561E-04 +4.770888E-03 
 -9.469700E-05 +1.335053E-05 +8.819411E-05 +1.335053E-05 -2.074324E-05 -3.340883E-05 +8.819411E-05 -3.340883E-05 +4.812713E-03 
 -1.181619E-05 -8.934346E-05 -4.101076E-06 -8.934346E-05 -4.808595E-05 +4.305611E-05 -4.101076E-06 +4.305611E-05 +4.959853E-03 
 -1.392704E-04 -1.782144E-04 +1.177098E-04 -1.782144E-04 -2.994822E-05 +4.670938E-05 +1.177098E-04 +4.670938E-05 +5.075561E-03 
 -1.959825E-05 -1.104729E-04 +1.033691E-04 -1.104729E-04 -7.145900E-05 +7.270841E-05 +1.033691E-04 +7.270841E-05 +5.045403E-03 
 +8.946371E-05 -1.015875E-04 +7.742802E-05 -1.015875E-04 -1.371020E-04 +1.959839E-05 +7.742802E-05 +1.959839E-05 +5.020478E-03 
 -5.230725E-06 -5.061965E-05 +1.724996E-04 -5.061965E-05 -1.484954E-04 -5.654938E-05 +1.724996E-04 -5.654938E-05 +5.015157E-03 
 +1.222757E-05 -5.495045E-05 +8.593802E-05 -5.495045E-05 -1.574115E-04 -5.735812E-05 +8.593802E-05 -5.735812E-05 +5.031236E-03 
 +2.585277E-05 -5.327124E-05 +8.451252E-05 -5.327124E-05 -1.606145E-04 -4.139013E-05 +8.451252E-05 -4.139013E-05 +5.042400E-03 
 +3.260026E-05 -4.798691E-05 +1.098554E-04 -4.798691E-05 -1.103067E-04 -4.523255E-05 +1.098554E-04 -4.523255E-05 +5.015303E-03 
 +4.011272E-05 -5.869096E-05 +1.418632E-04 -5.869096E-05 -6.771054E-05 -5.065913E-05 +1.418632E-04 -5.065913E-05 +5.007894E-03 
 +2.012167E-05 -9.656090E-05 +1.492918E-04 -9.656090E-05 -3.576732E-05 -5.675245E-05 +1.492918E-04 -5.675245E-05 +5.014564E-03 
 -8.663067E-06 -9.298160E-05 +1.396301E-04 -9.298160E-05 +2.594296E-05 -8.938766E-05 +1.396301E-04 -8.938766E-05 +5.072732E-03 
 -7.567197E-05 +7.490792E-05 +9.536271E-05 +7.490792E-05 +1.013330E-04 -1.194753E-04 +9.536271E-05 -1.194753E-04 +5.156862E-03 
 -3.159446E-04 -6.418183E-05 +1.043625E-05 -6.418183E-05 +1.981543E-04 -1.154275E-04 +1.043625E-05 -1.154275E-04 +5.214008E-03 
 -2.905522E-04 -1.447216E-05 -5.648654E-06 -1.447216E-05 +1.819834E-04 -6.761424E-05 -5.648654E-06 -6.761424E-05 +5.180635E-03 
 -2.504506E-05 +1.454884E-04 +2.423402E-05 +1.454884E-04 +1.433284E-04 +1.580784E-05 +2.423402E-05 +1.580784E-05 +4.943733E-03 
 +1.802558E-04 +4.500883E-05 -1.715363E-04 +4.500883E-05 +1.306254E-04 +6.028641E-05 -1.715363E-04 +6.028641E-05 +4.729040E-03 
 +1.408486E-04 +1.107129E-04 -3.251308E-05 +1.107129E-04 +1.822278E-04 +2.523790E-05 -3.251308E-05 +2.523790E-05 +4.668187E-03 
 +9.373231E-05 +1.332733E-04 +5.639196E-06 +1.332733E-04 +1.980048E-04 -4.812187E-06 +5.639196E-06 -4.812187E-06 +4.692921E-03 
 +6.020254E-05 +1.245537E-04 -3.439956E-06 +1.245537E-04 +1.630883E-04 -3.057918E-05 -3.439956E-06 -3.057918E-05 +4.759462E-03 
 -8.459438E-05 +5.415361E-05 -2.778873E-05 +5.415361E-05 +1.847361E-04 -3.484776E-05 -2.778873E-05 -3.484776E-05 +4.867129E-03 
 -6.653143E-05 +2.238116E-05 +2.762821E-06 +2.238116E-05 +1.258955E-04 -2.631132E-05 +2.762821E-06 -2.631132E-05 +4.867067E-03 
 -3.804064E-05 -1.168336E-04 -7.515866E-05 -1.168336E-04 -6.446529E-05 +2.579853E-05 -7.515866E-05 +2.579853E-05 +4.893667E-03 
 -5.654831E-05 -1.769575E-04 -6.543738E-06 -1.769575E-04 -1.251064E-04 +7.951575E-05 -6.543738E-06 +7.951575E-05 +4.989390E-03 
 -6.435358E-06 -2.451127E-04 +4.244361E-05 -2.451127E-04 -1.486051E-04 +9.273049E-05 +4.244361E-05 +9.273049E-05 +5.006910E-03 
 +2.949156E-05 -2.411027E-04 +2.895094E-05 -2.411027E-04 -1.995585E-04 +1.155608E-04 +2.895094E-05 +1.155608E-04 +5.047016E-03 
 -1.067732E-05 -1.368687E-04 -9.080017E-06 -1.368687E-04 -2.826774E-04 +6.498156E-05 -9.080017E-06 +6.498156E-05 +5.024421E-03 
 -1.928897E-05 -1.262819E-04 +5.865960E-05 -1.262819E-04 -2.665482E-04 -3.035330E-05 +5.865960E-05 -3.035330E-05 +4.985413E-03 
 -1.555303E-06 -1.558982E-04 +2.212072E-05 -1.558982E-04 -2.054160E-04 -7.096081E-05 +2.212072E-05 -7.096081E-05 +4.961829E-03 
 +5.225236E-05 -1.071065E-04 +1.792814E-05 -1.071065E-04 -1.638421E-04 -9.012409E-05 +1.792814E-05 -9.012409E-05 +4.908192E-03 
 +4.220764E-05 -8.495060E-05 +6.110385E-05 -8.495060E-05 +3.899405E-05 -1.026024E-04 +6.110385E-05 -1.026024E-04 +4.861301E-03 
 -5.081548E-05 -2.362871E-05 +8.218737E-05 -2.362871E-05 +2.470208E-04 -1.258463E-04 +8.218737E-05 -1.258463E-04 +4.814556E-03 
 -1.041076E-04 +8.281041E-05 +1.126323E-04 +8.281041E-05 +2.895762E-04 -1.163702E-04 +1.126323E-04 -1.163702E-04 +4.810772E-03 
 -6.924941E-05 +2.005999E-04 +1.021731E-04 +2.005999E-04 +1.354437E-04 -9.404765E-05 +1.021731E-04 -9.404765E-05 +4.882906E-03 
 -8.315556E-05 +1.413023E-04 +8.117999E-05 +1.413023E-04 +2.806333E-05 -7.287069E-05 +8.117999E-05 -7.287069E-05 +4.930493E-03 
 -3.046879E-05 +1.010367E-04 -7.455796E-06 +1.010367E-04 -2.444668E-05 -3.072806E-05 -7.455796E-06 -3.072806E-05 +4.925889E-03 
 +2.239990E-05 +2.139696E-04 -1.443144E-05 +2.139696E-04 +9.434066E-06 +3.568375E-05 -1.443144E-05 +3.568375E-05 +4.870353E-03 
 +1.240734E-04 +2.289033E-05 -1.877491E-04 +2.289033E-05 +8.367635E-05 -4.380042E-05 -1.877491E-04 -4.380042E-05 +4.801404E-03 
 +1.340589E-04 +8.390152E-05 -8.121344E-05 +8.390152E-05 +1.368240E-04 +2.271795E-06 -8.121344E-05 +2.271795E-06 +4.764839E-03 
 +1.369910E-04 +1.097629E-04 -5.535305E-05 +1.097629E-04 +1.394355E-04 -1.367573E-05 -5.535305E-05 -1.367573E-05 +4.762944E-03 
 +1.098493E-04 +1.218599E-04 -5.526665E-05 +1.218599E-04 +1.617521E-04 -1.474420E-05 -5.526665E-05 -1.474420E-05 +4.796003E-03 
 -4.134955E-05 +6.959726E-05 -5.084778E-05 +6.959726E-05 +1.882780E-04 +3.939875E-05 -5.084778E-05 +3.939875E-05 +4.946144E-03 
 -7.493750E-05 +1.361133E-05 -1.299568E-06 +1.361133E-05 +2.085394E-04 +5.910693E-05 -1.299568E-06 +5.910693E-05 +4.933081E-03 
 -7.563008E-05 -5.862537E-05 -5.966769E-05 -5.862537E-05 +1.751749E-04 +9.611659E-05 -5.966769E-05 +9.611659E-05 +4.861581E-03 
 -1.602349E-04 -1.110788E-04 -6.256535E-05 -1.110788E-04 +2.379284E-05 +1.213770E-04 -6.256535E-05 +1.213770E-04 +4.936794E-03 
 -1.160478E-04 -2.425517E-04 -2.670326E-05 -2.425517E-04 -1.031288E-04 +1.629580E-04 -2.670326E-05 +1.629580E-04 +4.973748E-03 
 -1.061736E-04 -2.317582E-04 -3.107333E-05 -2.317582E-04 -1.439308E-04 +2.120615E-04 -3.107333E-05 +2.120615E-04 +4.966615E-03 
 -6.550756E-05 -2.271628E-04 -8.868155E-05 -2.271628E-04 -1.237936E-04 +1.582217E-04 -8.868155E-05 +1.582217E-04 +4.880531E-03 
 +1.483226E-05 -1.924673E-04 -4.856318E-05 -1.924673E-04 -7.515420E-05 +2.083965E-05 -4.856318E-05 +2.083965E-05 +4.840372E-03 
 +2.983136E-05 -2.110822E-04 -8.117602E-05 -2.110822E-04 +9.003279E-06 -1.264507E-04 -8.117602E-05 -1.264507E-04 +4.819264E-03 
 +7.243491E-05 -6.093017E-05 -1.542130E-04 -6.093017E-05 +1.229366E-04 -1.880629E-04 -1.542130E-04 -1.880629E-04 +4.695068E-03 
 +7.858882E-05 -4.934188E-06 -9.659910E-05 -4.934188E-06 +1.995953E-04 -1.581738E-04 -9.659910E-05 -1.581738E-04 +4.624488E-03 
 +2.836005E-05 +2.699177E-05 +3.443589E-05 +2.699177E-05 +2.504587E-04 -1.253627E-04 +3.443589E-05 -1.253627E-04 +4.703418E-03 
 -2.927525E-07 +4.465490E-05 +1.484386E-04 +4.465490E-05 +2.700232E-04 -1.376350E-04 +1.484386E-04 -1.376350E-04 +4.790345E-03 
 -5.873858E-05 +5.278845E-05 +1.261866E-04 +5.278845E-05 +1.846378E-04 -1.043600E-04 +1.261866E-04 -1.043600E-04 +4.862168E-03 
 -4.613617E-05 +9.884684E-05 +7.642902E-05 +9.884684E-05 +1.210491E-04 -7.461477E-05 +7.642902E-05 -7.461477E-05 +4.890966E-03 
 +3.666467E-05 -2.975600E-05 -4.530110E-05 -2.975600E-05 +1.555064E-04 -9.924934E-05 -4.530110E-05 -9.924934E-05 +4.865316E-03 
 -2.051709E-05 +1.236757E-04 +8.102858E-05 +1.236757E-04 +1.012955E-04 -9.485627E-05 +8.102858E-05 -9.485627E-05 +4.874009E-03 
 -7.505561E-06 +2.882416E-05 -2.384769E-04 +2.882416E-05 +1.175735E-04 -8.548860E-05 -2.384769E-04 -8.548860E-05 +4.812482E-03 
 +1.504530E-04 +1.707400E-05 -1.336594E-04 +1.707400E-05 +9.689680E-05 -7.381698E-05 -1.336594E-04 -7.381698E-05 +4.770941E-03 
 +2.085520E-04 +6.665320E-05 -1.168442E-04 +6.665320E-05 +1.129716E-04 -7.105448E-05 -1.168442E-04 -7.105448E-05 +4.796115E-03 
 +1.464491E-04 +7.186293E-05 -4.127041E-05 +7.186293E-05 +1.555087E-04 -2.812945E-05 -4.127041E-05 -2.812945E-05 +4.896729E-03 
 +3.594668E-05 +3.087640E-05 -2.081173E-05 +3.087640E-05 +1.835706E-04 +9.962386E-05 -2.081173E-05 +9.962386E-05 +5.039310E-03 
 +2.302290E-05 -6.027967E-07 +4.155974E-05 -6.027967E-07 +2.025255E-04 +1.615664E-04 +4.155974E-05 +1.615664E-04 +5.004016E-03 
 -2.021756E-05 -1.120107E-04 +5.961172E-06 -1.120107E-04 +1.767709E-04 +9.132817E-05 +5.961172E-06 +9.132817E-05 +4.935917E-03 
 -2.434552E-04 -1.011684E-04 -4.731323E-05 -1.011684E-04 +1.419282E-04 -9.612372E-06 -4.731323E-05 -9.612372E-06 +5.014896E-03 
 -1.926011E-04 -9.371823E-05 -4.647728E-05 -9.371823E-05 +1.471131E-04 -2.785661E-07 -4.647728E-05 -2.785661E-07 +5.036211E-03 
 -2.218206E-04 -1.232936E-05 -4.935255E-05 -1.232936E-05 +2.066896E-04 +1.317033E-05 -4.935255E-05 +1.317033E-05 +4.950428E-03 
 -2.737997E-04 +1.806230E-05 -4.544456E-05 +1.806230E-05 +2.640209E-04 -1.917554E-05 -4.544456E-05 -1.917554E-05 +4.817230E-03 
 +3.771339E-05 -1.825622E-05 -1.690246E-04 -1.825622E-05 +2.216408E-04 -1.023667E-04 -1.690246E-04 -1.023667E-04 +4.757267E-03 
 +7.456425E-05 +1.084407E-05 -2.041186E-04 +1.084407E-05 +2.494733E-04 -2.142741E-04 -2.041186E-04 -2.142741E-04 +4.706825E-03 
 +8.989631E-05 +2.909314E-05 -2.457356E-04 +2.909314E-05 +2.808913E-04 -1.988906E-04 -2.457356E-04 -1.988906E-04 +4.610243E-03 
 +1.182233E-04 +7.226876E-05 -1.779853E-04 +7.226876E-05 +1.953659E-04 -1.000328E-04 -1.779853E-04 -1.000328E-04 +4.618191E-03 
 +9.749391E-05 +1.236833E-04 -9.550139E-05 +1.236833E-04 +1.847988E-04 -5.994108E-05 -9.550139E-05 -5.994108E-05 +4.698177E-03 
 +4.012794E-05 +1.041401E-04 +8.979769E-05 +1.041401E-04 +2.108046E-04 -1.207313E-04 +8.979769E-05 -1.207313E-04 +4.802958E-03 
 +1.101426E-05 +7.502602E-05 +1.569571E-04 +7.502602E-05 +1.751168E-04 -9.167939E-05 +1.569571E-04 -9.167939E-05 +4.866093E-03 
 +1.004079E-05 +1.824431E-04 +9.834922E-05 +1.824431E-04 +1.441081E-05 +1.362144E-05 +9.834922E-05 +1.362144E-05 +4.897889E-03 
 +1.318530E-05 +1.556287E-04 +1.688339E-05 +1.556287E-04 -4.389294E-05 +8.317553E-05 +1.688339E-05 +8.317553E-05 +4.909220E-03 
 -9.714017E-05 +1.984704E-04 +7.743192E-06 +1.984704E-04 +7.119492E-05 +1.764325E-05 +7.743192E-06 +1.764325E-05 +4.881482E-03 
 -1.235069E-04 -1.891419E-05 -2.306896E-04 -1.891419E-05 +5.614485E-05 -8.222546E-05 -2.306896E-04 -8.222546E-05 +4.911711E-03 
 +1.462157E-04 +3.102378E-05 -1.646407E-04 +3.102378E-05 +4.684688E-05 -7.540482E-05 -1.646407E-04 -7.540482E-05 +4.845953E-03 
 +2.322156E-04 +4.450557E-05 -1.253806E-04 +4.450557E-05 +4.132822E-05 -1.029343E-04 -1.253806E-04 -1.029343E-04 +4.864604E-03 
 +1.864912E-04 +5.892468E-06 +5.628562E-06 +5.892468E-06 -4.994758E-05 -1.056921E-04 +5.628562E-06 -1.056921E-04 +5.031293E-03 
 +6.815815E-05 -5.184648E-05 +3.497556E-05 -5.184648E-05 -1.427023E-04 -9.393867E-05 +3.497556E-05 -9.393867E-05 +5.123534E-03 
 +4.679761E-05 -1.341966E-04 +8.062512E-05 -1.341966E-04 -1.137742E-04 -1.255057E-04 +8.062512E-05 -1.255057E-04 +5.074742E-03 
 +1.003201E-04 -2.740942E-04 +1.255002E-04 -2.740942E-04 -1.352296E-06 -1.426887E-04 +1.255002E-04 -1.426887E-04 +5.074895E-03 
 -1.420431E-04 -2.135923E-04 +1.261080E-05 -2.135923E-04 +9.719808E-05 -6.650365E-05 +1.261080E-05 -6.650365E-05 +5.135973E-03 
 -2.401101E-04 -1.746549E-04 -2.030441E-05 -1.746549E-04 +1.945675E-04 -4.493279E-05 -2.030441E-05 -4.493279E-05 +5.117068E-03 
 -2.797736E-04 -1.042062E-04 -4.104114E-05 -1.042062E-04 +2.566459E-04 -5.971492E-05 -4.104114E-05 -5.971492E-05 +5.008621E-03 
 -3.628951E-04 -3.002580E-05 -6.849878E-05 -3.002580E-05 +2.571873E-04 -1.623595E-05 -6.849878E-05 -1.623595E-05 +4.838202E-03 
 +1.762782E-05 -5.318817E-05 -2.436651E-04 -5.318817E-05 +1.988945E-04 -4.918852E-05 -2.436651E-04 -4.918852E-05 +4.758479E-03 
 +1.094892E-04 +1.201654E-04 -2.339305E-04 +1.201654E-04 +2.093549E-04 -1.214133E-04 -2.339305E-04 -1.214133E-04 +4.731896E-03 
 +1.216819E-04 +1.049583E-04 -2.533959E-04 +1.049583E-04 +2.842535E-04 -7.644826E-05 -2.533959E-04 -7.644826E-05 +4.690805E-03 
 +1.670155E-04 +1.248099E-04 -2.155003E-04 +1.248099E-04 +1.992809E-04 -3.169877E-05 -2.155003E-04 -3.169877E-05 +4.726680E-03 
 +1.401722E-04 +2.522647E-04 -1.878666E-04 +2.522647E-04 +1.028059E-04 -6.857232E-06 -1.878666E-04 -6.857232E-06 +4.724013E-03 
 +6.984206E-05 +2.368081E-04 -4.655964E-05 +2.368081E-04 +1.437689E-04 -3.665982E-05 -4.655964E-05 -3.665982E-05 +4.819497E-03 
 -3.954884E-06 +7.972330E-05 +1.669926E-04 +7.972330E-05 +1.488776E-04 -7.301223E-05 +1.669926E-04 -7.301223E-05 +4.891121E-03 
 -1.602337E-05 +3.162988E-05 +1.069476E-04 +3.162988E-05 +1.257025E-04 -6.156585E-05 +1.069476E-04 -6.156585E-05 +4.877068E-03 
 -6.365652E-05 +2.473440E-05 +1.910918E-06 +2.473440E-05 +1.573227E-04 -9.109421E-05 +1.910918E-06 -9.109421E-05 +4.894472E-03 
 -1.739620E-04 +6.322437E-05 -1.416767E-04 +6.322437E-05 +1.335339E-04 -1.142220E-04 -1.416767E-04 -1.142220E-04 +4.905165E-03 
 -1.183574E-04 -3.176176E-05 -1.389413E-04 -3.176176E-05 -1.329769E-05 -4.961860E-05 -1.389413E-04 -4.961860E-05 +4.992461E-03 
 +8.329149E-05 +8.761214E-06 -1.315721E-04 +8.761214E-06 -1.402648E-04 -4.254857E-05 -1.315721E-04 -4.254857E-05 +5.023389E-03 
 +3.042406E-04 +8.223922E-05 -6.453597E-05 +8.223922E-05 -2.112300E-04 -1.361945E-05 -6.453597E-05 -1.361945E-05 +5.033688E-03 
 +2.503359E-04 +9.665761E-05 -2.897906E-06 +9.665761E-05 -1.327090E-04 +1.950574E-05 -2.897906E-06 +1.950574E-05 +5.100946E-03 
 +1.732042E-05 +6.570521E-05 +1.100099E-05 +6.570521E-05 -1.106104E-05 +3.540980E-05 +1.100099E-05 +3.540980E-05 +5.141321E-03 
 -2.142184E-05 +1.967736E-05 +6.168374E-05 +1.967736E-05 +1.016023E-04 -2.110099E-07 +6.168374E-05 -2.110099E-07 +5.076820E-03 
 +1.784760E-04 -2.119634E-04 +1.929281E-04 -2.119634E-04 +1.318438E-04 -6.783136E-05 +1.929281E-04 -6.783136E-05 +5.065975E-03 
 -8.433507E-05 -2.124761E-04 +1.853562E-05 -2.124761E-04 +1.561433E-04 -3.110417E-05 +1.853562E-05 -3.110417E-05 +5.146477E-03 
 -2.220296E-04 -1.887542E-04 -6.730422E-05 -1.887542E-04 +2.168117E-04 -2.123980E-05 -6.730422E-05 -2.123980E-05 +5.117967E-03 
 -2.741123E-04 -8.096764E-05 -5.419906E-05 -8.096764E-05 +2.279160E-04 -4.700992E-05 -5.419906E-05 -4.700992E-05 +5.007373E-03 
 -2.923116E-04 +1.935289E-06 -8.786573E-05 +1.935289E-06 +1.698005E-04 +1.894355E-05 -8.786573E-05 +1.894355E-05 +4.901833E-03 
 +8.235996E-05 +3.459820E-06 -2.445619E-04 +3.459820E-06 +4.196608E-05 +4.888774E-05 -2.445619E-04 +4.888774E-05 +4.871610E-03 
 +1.626348E-04 +2.259941E-04 -1.767526E-04 +2.259941E-04 -1.786362E-04 -5.211419E-05 -1.767526E-04 -5.211419E-05 +4.838254E-03 
 +1.859804E-04 +3.145803E-04 -1.602395E-04 +3.145803E-04 -1.580417E-04 -7.252645E-05 -1.602395E-04 -7.252645E-05 +4.780547E-03 
 +1.245489E-04 +1.632617E-04 -2.541073E-04 +1.632617E-04 +5.890869E-05 -1.721430E-05 -2.541073E-04 -1.721430E-05 +4.763538E-03 
 +1.247685E-04 +2.451497E-04 -1.681165E-04 +2.451497E-04 +1.038768E-04 -4.081247E-06 -1.681165E-04 -4.081247E-06 +4.734405E-03 
 +4.021366E-05 +2.150038E-04 -9.794210E-05 +2.150038E-04 +1.438478E-04 -1.583228E-05 -9.794210E-05 -1.583228E-05 +4.831742E-03 
 -1.481371E-04 -2.002168E-05 +1.780680E-04 -2.002168E-05 +1.900958E-04 -6.056315E-05 +1.780680E-04 -6.056315E-05 +4.909695E-03 
 -1.278560E-04 -1.430260E-05 +9.291789E-05 -1.430260E-05 +2.061754E-04 -9.270195E-05 +9.291789E-05 -9.270195E-05 +4.874577E-03 
 -1.335406E-04 +2.085218E-06 -2.919965E-05 +2.085218E-06 +1.871934E-04 -1.060112E-04 -2.919965E-05 -1.060112E-04 +4.866759E-03 
 -1.320177E-04 +1.675837E-05 -1.267974E-04 +1.675837E-05 +8.886757E-05 -7.709915E-05 -1.267974E-04 -7.709915E-05 +4.909256E-03 
 -9.511428E-05 -4.017485E-05 -5.436092E-05 -4.017485E-05 +4.196787E-06 -2.802074E-05 -5.436092E-05 -2.802074E-05 +4.999238E-03 
 -3.749931E-06 -6.805793E-05 -7.241678E-05 -6.805793E-05 -1.081741E-04 +6.407015E-06 -7.241678E-05 +6.407015E-06 +4.976626E-03 
 +3.693018E-04 +4.583763E-05 -2.885572E-05 +4.583763E-05 -2.540105E-04 +6.031358E-05 -2.885572E-05 +6.031358E-05 +5.009480E-03 
 +2.442906E-04 +7.892997E-05 -1.008683E-04 +7.892997E-05 -1.610401E-04 +1.108123E-04 -1.008683E-04 +1.108123E-04 +5.116267E-03 
 +4.691457E-05 +1.605324E-05 -9.425608E-05 +1.605324E-05 +4.643771E-05 +1.199795E-04 -9.425608E-05 +1.199795E-04 +5.185587E-03 
 -1.926394E-05 -9.969067E-06 +6.762374E-06 -9.969067E-06 +9.111102E-05 +1.053878E-04 +6.762374E-06 +1.053878E-04 +5.135810E-03 
 +2.435243E-04 -1.171491E-04 +1.383193E-04 -1.171491E-04 +1.872159E-04 +2.111516E-05 +1.383193E-04 +2.111516E-05 +5.041875E-03 
 -2.493868E-05 -8.990165E-05 +4.682072E-05 -8.990165E-05 +2.621831E-04 -1.770715E-05 +4.682072E-05 -1.770715E-05 +5.065393E-03 
 -2.229974E-04 -6.258536E-05 -7.105725E-05 -6.258536E-05 +2.047219E-04 -6.019980E-07 -7.105725E-05 -6.019980E-07 +5.093672E-03 
 -2.159975E-04 -3.212130E-05 -5.646294E-05 -3.212130E-05 +1.623983E-04 +5.029619E-06 -5.646294E-05 +5.029619E-06 +5.037395E-03 
 -2.034321E-04 +5.070395E-06 -6.036785E-05 +5.070395E-06 +6.197628E-05 +2.062092E-05 -6.036785E-05 +2.062092E-05 +4.984078E-03 
 +1.344028E-04 -6.980533E-06 -2.415486E-04 -6.980533E-06 +3.164827E-05 +2.311169E-05 -2.415486E-04 +2.311169E-05 +4.921393E-03 
 +1.579191E-04 +5.489753E-05 -1.905590E-04 +5.489753E-05 -1.773555E-05 -5.020377E-06 -1.905590E-04 -5.020377E-06 +4.803621E-03 
 +1.586338E-04 +2.797803E-04 -1.098460E-04 +2.797803E-04 -1.365453E-04 -6.165736E-05 -1.098460E-04 -6.165736E-05 +4.783026E-03 
 +3.871508E-05 +1.459604E-04 -2.433528E-04 +1.459604E-04 -3.056891E-05 -3.691399E-05 -2.433528E-04 -3.691399E-05 +4.800601E-03 
 +4.992705E-05 +1.529066E-04 -1.499978E-04 +1.529066E-04 +1.203604E-04 +2.290113E-05 -1.499978E-04 +2.290113E-05 +4.743414E-03 
 -3.660199E-06 +1.730991E-04 -9.796256E-05 +1.730991E-04 +1.506849E-04 +1.156744E-05 -9.796256E-05 +1.156744E-05 +4.827089E-03 
 -2.007915E-04 -2.875497E-05 +1.914268E-04 -2.875497E-05 +1.825308E-04 -3.295124E-05 +1.914268E-04 -3.295124E-05 +4.941572E-03 
 -1.856143E-04 +2.078631E-05 +1.137799E-04 +2.078631E-05 +1.858080E-04 -5.697332E-05 +1.137799E-04 -5.697332E-05 +4.930694E-03 
 -1.548414E-04 +9.189843E-06 +2.460165E-05 +9.189843E-06 +1.420639E-04 -6.368562E-05 +2.460165E-05 -6.368562E-05 +4.928196E-03 
 -1.131588E-04 -1.055376E-05 -4.109389E-05 -1.055376E-05 +5.843528E-05 -4.999785E-05 -4.109389E-05 -4.999785E-05 +4.968199E-03 
 -4.022112E-05 -6.481346E-05 +2.332096E-05 -6.481346E-05 -1.402354E-05 -4.439803E-05 +2.332096E-05 -4.439803E-05 +4.912872E-03 
 +4.576373E-05 -3.614640E-05 +5.082156E-07 -3.614640E-05 +2.516556E-05 +2.786835E-05 +5.082156E-07 +2.786835E-05 +4.781762E-03 
 +3.264355E-04 +4.973146E-05 -4.625084E-05 +4.973146E-05 -1.203164E-04 +3.941148E-05 -4.625084E-05 +3.941148E-05 +4.794285E-03 
 +2.267760E-04 +2.342050E-04 -1.579689E-04 +2.342050E-04 -4.372250E-04 +4.861156E-05 -1.579689E-04 +4.861156E-05 +5.009413E-03 
 +1.153083E-04 +2.841083E-04 -8.285391E-05 +2.841083E-04 -4.322657E-04 +7.777398E-05 -8.285391E-05 +7.777398E-05 +5.187105E-03 
 +1.108983E-04 +1.619976E-04 +5.551913E-05 +1.619976E-04 -2.772905E-04 +5.819675E-05 +5.551913E-05 +5.819675E-05 +5.197288E-03 
 +2.363716E-04 +1.061039E-04 +9.958699E-05 +1.061039E-04 -1.660930E-04 +4.954056E-05 +9.958699E-05 +4.954056E-05 +5.092579E-03 
 +1.051476E-04 -5.041935E-06 +9.787591E-05 -5.041935E-06 +6.917606E-05 +5.728987E-05 +9.787591E-05 +5.728987E-05 +5.063412E-03 
 -2.470654E-04 +1.042276E-05 -2.328681E-05 +1.042276E-05 +2.490204E-04 +2.927142E-05 -2.328681E-05 +2.927142E-05 +5.137473E-03 
 -2.188520E-04 -4.543346E-06 -6.596065E-05 -4.543346E-06 +2.225813E-04 +9.282801E-07 -6.596065E-05 +9.282801E-07 +5.137378E-03 
 -1.831927E-04 -4.240344E-05 -6.675005E-05 -4.240344E-05 +1.082092E-04 -1.729398E-07 -6.675005E-05 -1.729398E-07 +5.069529E-03 
 +9.565738E-05 -9.282623E-06 -2.659922E-04 -9.282623E-06 +3.398663E-05 -7.881284E-06 -2.659922E-04 -7.881284E-06 +4.960248E-03 
 +5.843044E-05 +2.669183E-05 -2.206559E-04 +2.669183E-05 +1.256188E-04 -2.313515E-05 -2.206559E-04 -2.313515E-05 +4.822749E-03 
 +4.814522E-05 +1.372778E-04 -1.427563E-04 +1.372778E-04 +1.493921E-04 -9.180296E-05 -1.427563E-04 -9.180296E-05 +4.790261E-03 
 +2.710556E-05 +1.331254E-04 -1.634235E-04 +1.331254E-04 +5.268014E-05 -8.446794E-05 -1.634235E-04 -8.446794E-05 +4.799768E-03 
 +3.784473E-05 +1.493494E-04 -1.172168E-04 +1.493494E-04 +7.299693E-05 +8.826656E-06 -1.172168E-04 +8.826656E-06 +4.753127E-03 
 +7.375418E-06 +2.115198E-04 -1.119476E-04 +2.115198E-04 +1.382436E-04 +1.127572E-05 -1.119476E-04 +1.127572E-05 +4.802168E-03 
 -2.080023E-04 -2.627761E-05 +1.797827E-04 -2.627761E-05 +1.553703E-04 -5.101500E-05 +1.797827E-04 -5.101500E-05 +4.933845E-03 
 -2.047162E-04 +1.841287E-05 +1.117286E-04 +1.841287E-05 +1.477751E-04 -8.482727E-05 +1.117286E-04 -8.482727E-05 +4.977580E-03 
 -1.891929E-04 -1.734173E-05 +5.136533E-05 -1.734173E-05 +1.332476E-04 -8.701447E-05 +5.136533E-05 -8.701447E-05 +4.974739E-03 
 -1.497607E-04 -8.362610E-05 -3.797452E-06 -8.362610E-05 +5.450397E-05 -7.245927E-05 -3.797452E-06 -7.245927E-05 +4.971888E-03 
 +1.116151E-04 +4.572541E-05 +1.068748E-04 +4.572541E-05 +7.582730E-05 -4.078940E-05 +1.068748E-04 -4.078940E-05 +4.758033E-03 
 +2.170280E-04 +1.287848E-04 +9.609081E-05 +1.287848E-04 +1.179786E-04 +1.609810E-05 +9.609081E-05 +1.609810E-05 +4.650167E-03 
 +2.608186E-04 +9.101903E-05 -3.515583E-05 +9.101903E-05 +1.638745E-04 -6.658234E-06 -3.515583E-05 -6.658234E-06 +4.648573E-03 
 +1.987664E-04 +1.440469E-04 -7.823103E-05 +1.440469E-04 -1.548864E-05 -1.284035E-05 -7.823103E-05 -1.284035E-05 +4.769000E-03 
 +1.433631E-04 +3.582733E-04 +1.564534E-05 +3.582733E-04 -2.748606E-04 +7.742782E-05 +1.564534E-05 +7.742782E-05 +5.012059E-03 
 +1.744894E-04 +1.821257E-04 +1.156176E-04 +1.821257E-04 -2.597452E-04 +8.138840E-05 +1.156176E-04 +8.138840E-05 +5.137921E-03 
 +1.768774E-04 +1.027405E-04 +1.311087E-04 +1.027405E-04 -2.273538E-04 +5.773193E-05 +1.311087E-04 +5.773193E-05 +5.094537E-03 
 +1.354600E-04 +1.306027E-04 +1.051275E-04 +1.306027E-04 -9.408120E-05 +2.064270E-05 +1.051275E-04 +2.064270E-05 +5.123923E-03 
 -5.843036E-05 +8.176466E-05 -2.149661E-06 +8.176466E-05 +1.704440E-04 -2.352861E-05 -2.149661E-06 -2.352861E-05 +5.200710E-03 
 -1.370600E-04 +7.105258E-05 -9.600000E-05 +7.105258E-05 +1.873661E-04 -3.551479E-05 -9.600000E-05 -3.551479E-05 +5.218853E-03 
 -2.433479E-04 +1.564020E-04 -9.840656E-05 +1.564020E-04 +1.506322E-04 -5.344845E-05 -9.840656E-05 -5.344845E-05 +5.164669E-03 
 -1.338516E-04 +4.558583E-05 -2.136183E-04 +4.558583E-05 +1.292269E-04 -4.634999E-05 -2.136183E-04 -4.634999E-05 +5.084474E-03 
 -8.495811E-05 +1.088725E-04 -2.282548E-04 +1.088725E-04 +1.062200E-04 -3.770164E-05 -2.282548E-04 -3.770164E-05 +4.953385E-03 
 -4.955653E-05 +1.232674E-04 -1.586957E-04 +1.232674E-04 +1.359225E-04 -5.958401E-05 -1.586957E-04 -5.958401E-05 +4.812670E-03 
 -2.571427E-06 +1.431334E-04 -1.137569E-04 +1.431334E-04 +1.045371E-04 -7.957390E-05 -1.137569E-04 -7.957390E-05 +4.752019E-03 
 +4.510778E-05 +1.393222E-04 -7.069503E-05 +1.393222E-04 +8.378568E-05 -5.973798E-05 -7.069503E-05 -5.973798E-05 +4.735396E-03 
 +2.730100E-05 +1.923049E-04 -1.168326E-04 +1.923049E-04 +1.081346E-04 -4.049740E-05 -1.168326E-04 -4.049740E-05 +4.801198E-03 
 -2.545769E-04 -8.379335E-05 +1.260792E-04 -8.379335E-05 +1.464752E-04 -8.443201E-05 +1.260792E-04 -8.443201E-05 +4.922502E-03 
 -2.328139E-04 -6.352455E-05 +3.329883E-05 -6.352455E-05 +1.345300E-04 -1.501805E-04 +3.329883E-05 -1.501805E-04 +4.982565E-03 
 -1.493810E-04 -6.220615E-05 +5.035576E-05 -6.220615E-05 +1.338231E-04 -1.665734E-04 +5.035576E-05 -1.665734E-04 +4.976548E-03 
 -1.440550E-04 -1.046208E-04 +4.827545E-05 -1.046208E-04 +1.002506E-04 -1.075154E-04 +4.827545E-05 -1.075154E-04 +4.906778E-03 
 +2.645248E-04 +1.024075E-04 +2.173684E-04 +1.024075E-04 +2.731968E-05 -1.117161E-04 +2.173684E-04 -1.117161E-04 +4.725175E-03 
 +3.013843E-04 +1.336680E-04 +1.500921E-04 +1.336680E-04 +7.307398E-05 -9.100928E-05 +1.500921E-04 -9.100928E-05 +4.601553E-03 
 +2.448935E-04 +1.081197E-04 +1.533785E-05 +1.081197E-04 +2.013569E-04 -8.501619E-05 +1.533785E-05 -8.501619E-05 +4.615974E-03 
 +1.540818E-04 +1.041452E-05 -2.870721E-05 +1.041452E-05 +1.684001E-04 -7.992806E-05 -2.870721E-05 -7.992806E-05 +4.673374E-03 
 +1.263601E-04 +3.005194E-04 +2.487135E-05 +3.005194E-04 -8.171886E-05 -2.250942E-05 +2.487135E-05 -2.250942E-05 +4.882820E-03 
 +1.534000E-04 +2.304460E-04 +9.182442E-05 +2.304460E-04 -2.548913E-04 +4.605211E-05 +9.182442E-05 +4.605211E-05 +5.036985E-03 
 +2.215444E-04 +1.574087E-04 +9.442468E-05 +1.574087E-04 -2.387500E-04 +6.077307E-05 +9.442468E-05 +6.077307E-05 +5.028574E-03 
 +2.019164E-04 +3.179112E-04 +3.816432E-05 +3.179112E-04 -1.990095E-04 +2.876226E-05 +3.816432E-05 +2.876226E-05 +5.072962E-03 
 +6.190016E-05 +1.919978E-04 +3.445767E-05 +1.919978E-04 -2.138496E-04 +2.623825E-05 +3.445767E-05 +2.623825E-05 +5.161990E-03 
 -1.674133E-04 -6.799600E-05 +5.429428E-06 -6.799600E-05 -8.742429E-05 -3.218952E-05 +5.429428E-06 -3.218952E-05 +5.236981E-03 
 -2.660087E-04 -6.809103E-05 -5.802152E-05 -6.809103E-05 +7.465343E-05 -8.834991E-05 -5.802152E-05 -8.834991E-05 +5.202294E-03 
 -3.123968E-04 -7.788809E-05 -1.232836E-04 -7.788809E-05 +1.417200E-04 -9.693111E-05 -1.232836E-04 -9.693111E-05 +5.130007E-03 
 -2.192795E-04 +1.064115E-04 -2.214572E-04 +1.064115E-04 +1.084051E-04 -1.151485E-04 -2.214572E-04 -1.151485E-04 +5.051989E-03 
 -1.341454E-04 +1.383108E-04 -2.078560E-04 +1.383108E-04 +9.456373E-05 -1.239756E-04 -2.078560E-04 -1.239756E-04 +4.928997E-03 
 -5.991185E-05 +1.267173E-04 -1.131350E-04 +1.267173E-04 +1.435125E-04 -1.309791E-04 -1.131350E-04 -1.309791E-04 +4.812623E-03 
 -4.415296E-05 +1.335093E-04 -9.447087E-05 +1.335093E-04 +1.593012E-04 -1.046210E-04 -9.447087E-05 -1.046210E-04 +4.711934E-03 
 -6.154803E-05 +9.544605E-05 -1.611513E-04 +9.544605E-05 +1.501714E-04 -1.032592E-04 -1.611513E-04 -1.032592E-04 +4.767525E-03 
 -2.033383E-04 -1.703094E-04 +4.370402E-05 -1.703094E-04 +1.209856E-04 -1.528015E-04 +4.370402E-05 -1.528015E-04 +4.953044E-03 
 -1.680259E-04 -1.075042E-04 +1.331986E-05 -1.075042E-04 +1.763818E-05 -1.701908E-04 +1.331986E-05 -1.701908E-04 +5.083763E-03 
 -4.255520E-05 +1.663835E-05 +8.170114E-05 +1.663835E-05 -9.588002E-05 -1.517642E-04 +8.170114E-05 -1.517642E-04 +5.092318E-03 
 -5.115452E-05 -2.873106E-05 +1.490977E-04 -2.873106E-05 -3.200215E-05 -1.509682E-04 +1.490977E-04 -1.509682E-04 +4.963712E-03 
 +2.425843E-04 +1.189885E-04 +2.193961E-04 +1.189885E-04 -5.636174E-05 -1.656594E-04 +2.193961E-04 -1.656594E-04 +4.800795E-03 
 +3.270474E-04 +1.314892E-04 +1.911693E-04 +1.314892E-04 +4.391088E-05 -1.691381E-04 +1.911693E-04 -1.691381E-04 +4.642036E-03 
 +2.720442E-04 +1.205835E-04 +9.850747E-05 +1.205835E-04 +1.370913E-04 -1.100809E-04 +9.850747E-05 -1.100809E-04 +4.613471E-03 
 +1.696559E-04 -7.113055E-05 +2.316418E-05 -7.113055E-05 +2.543985E-04 -7.090951E-05 +2.316418E-05 -7.090951E-05 +4.686307E-03 
 +1.065022E-04 +8.934294E-05 -2.007958E-05 +8.934294E-05 +1.283224E-04 -4.716913E-05 -2.007958E-05 -4.716913E-05 +4.893715E-03 
 +2.353426E-04 +1.855863E-04 -2.286558E-05 +1.855863E-04 -1.463058E-04 -1.141849E-05 -2.286558E-05 -1.141849E-05 +5.005582E-03 
 +2.421163E-04 +1.959518E-04 -4.315926E-05 +1.959518E-04 -2.716055E-04 +4.069654E-05 -4.315926E-05 +4.069654E-05 +4.991651E-03 
 +1.932929E-04 +3.104943E-04 -2.835305E-05 +3.104943E-04 -1.718789E-04 +1.859761E-05 -2.835305E-05 +1.859761E-05 +5.037585E-03 
 -1.413137E-04 -6.805770E-05 +7.488788E-05 -6.805770E-05 -8.249995E-05 -1.236930E-05 +7.488788E-05 -1.236930E-05 +5.109808E-03 
 -2.929388E-04 -1.708939E-04 +1.083444E-04 -1.708939E-04 -5.433831E-05 -5.952005E-05 +1.083444E-04 -5.952005E-05 +5.149307E-03 
 -2.561202E-04 -1.868577E-04 +2.756420E-05 -1.868577E-04 +5.055619E-05 -7.786990E-05 +2.756420E-05 -7.786990E-05 +5.114653E-03 
 -2.732063E-04 -1.828251E-04 -5.691899E-05 -1.828251E-04 +1.696093E-04 -5.054539E-05 -5.691899E-05 -5.054539E-05 +5.059741E-03 
 -2.874561E-04 -1.149230E-04 -1.163335E-04 -1.149230E-04 +1.957933E-04 -7.660992E-05 -1.163335E-04 -7.660992E-05 +5.038611E-03 
 -1.541706E-04 +9.915807E-05 -1.814519E-04 +9.915807E-05 +1.243199E-04 -9.996611E-05 -1.814519E-04 -9.996611E-05 +4.979095E-03 
 -1.574388E-04 +6.008003E-05 -6.577970E-05 +6.008003E-05 +1.147286E-04 -1.012975E-04 -6.577970E-05 -1.012975E-04 +4.859673E-03 
 -1.275466E-04 +1.428741E-04 -1.330819E-04 +1.428741E-04 +2.261210E-04 -1.067053E-04 -1.330819E-04 -1.067053E-04 +4.756564E-03 
 -5.566034E-05 +3.544686E-05 -1.869042E-04 +3.544686E-05 +1.283507E-04 -5.531703E-05 -1.869042E-04 -5.531703E-05 +4.847901E-03 
 -3.479479E-05 -3.885308E-05 -3.658086E-05 -3.885308E-05 -1.731736E-04 +6.866704E-06 -3.658086E-05 +6.866704E-06 +5.064717E-03 
 -4.356110E-05 +8.301373E-06 +4.159981E-05 +8.301373E-06 -2.076066E-04 +5.983203E-06 +4.159981E-05 +5.983203E-06 +5.157235E-03 
 -5.965066E-08 +7.777346E-05 +8.462705E-05 +7.777346E-05 -2.150661E-04 -6.724707E-06 +8.462705E-05 -6.724707E-06 +5.141174E-03 
 +3.568726E-05 +1.045817E-04 +1.351844E-04 +1.045817E-04 -1.946297E-04 -8.139483E-05 +1.351844E-04 -8.139483E-05 +5.028929E-03 
 +1.384996E-04 +5.618259E-05 +3.326650E-05 +5.618259E-05 -8.529635E-05 +1.679309E-05 +3.326650E-05 +1.679309E-05 +4.808195E-03 
 +3.028281E-04 +1.045050E-04 +1.397827E-04 +1.045050E-04 -1.064440E-05 -1.084196E-04 +1.397827E-04 -1.084196E-04 +4.733349E-03 
 +3.150640E-04 +5.088006E-05 +1.656103E-04 +5.088006E-05 +1.395857E-04 -1.047763E-04 +1.656103E-04 -1.047763E-04 +4.667836E-03 
 +2.766420E-04 -1.007516E-04 +9.928413E-05 -1.007516E-04 +1.655951E-04 +1.294312E-05 +9.928413E-05 +1.294312E-05 +4.687899E-03 
 +2.959672E-04 +1.201551E-06 -3.987467E-05 +1.201551E-06 +3.473567E-06 +2.601351E-05 -3.987467E-05 +2.601351E-05 +4.878777E-03 
 +2.708544E-04 +2.249749E-04 -9.166089E-05 +2.249749E-04 -1.907256E-04 -3.443566E-05 -9.166089E-05 -3.443566E-05 +5.003765E-03 
 +6.750645E-05 +1.657634E-04 -1.725233E-05 +1.657634E-04 -1.787225E-04 -1.744011E-05 -1.725233E-05 -1.744011E-05 +5.025559E-03 
 -9.858809E-05 +2.047839E-04 +3.669158E-05 +2.047839E-04 -1.355806E-04 -1.014292E-05 +3.669158E-05 -1.014292E-05 +5.084884E-03 
 -3.514777E-04 -2.098423E-04 +1.029404E-04 -2.098423E-04 -6.889646E-05 -2.215114E-05 +1.029404E-04 -2.215114E-05 +5.122519E-03 
 -2.904759E-04 -2.539217E-04 +9.886980E-05 -2.539217E-04 +2.532828E-06 -6.809989E-06 +9.886980E-05 -6.809989E-06 +5.109303E-03 
 -2.517432E-04 -2.780414E-04 +6.660933E-05 -2.780414E-04 +2.502521E-05 -1.339222E-05 +6.660933E-05 -1.339222E-05 +5.071626E-03 
 -2.211226E-04 -2.023447E-04 +8.397922E-06 -2.023447E-04 +1.073668E-04 -3.345347E-05 +8.397922E-06 -3.345347E-05 +5.030285E-03 
 -2.669493E-04 -1.691695E-04 +2.635418E-05 -1.691695E-04 +2.357152E-04 -7.400937E-05 +2.635418E-05 -7.400937E-05 +4.999859E-03 
 -2.193019E-04 -5.269116E-05 -4.087773E-06 -5.269116E-05 +2.617119E-04 -5.533581E-05 -4.087773E-06 -5.533581E-05 +4.939175E-03 
 -2.010501E-04 -1.067844E-04 -1.612856E-05 -1.067844E-04 +1.328436E-04 +3.540134E-05 -1.612856E-05 +3.540134E-05 +4.857173E-03 
 -5.781233E-05 +1.468869E-04 -1.454652E-04 +1.468869E-04 -1.214753E-05 +3.153488E-05 -1.454652E-04 +3.153488E-05 +4.876759E-03 
 +1.239156E-04 -1.010013E-04 -1.507079E-04 -1.010013E-04 -1.736940E-04 +4.049290E-05 -1.507079E-04 +4.049290E-05 +5.002051E-03 
 +6.043988E-05 -7.251225E-05 -1.648858E-04 -7.251225E-05 -1.660122E-04 +1.238085E-04 -1.648858E-04 +1.238085E-04 +5.048311E-03 
 +4.385096E-05 -2.636317E-05 -4.070794E-05 -2.636317E-05 -5.326044E-05 +1.523910E-04 -4.070794E-05 +1.523910E-04 +4.990908E-03 
 +2.804329E-05 +4.797342E-06 +1.706920E-05 +4.797342E-06 -4.182311E-05 +1.268912E-04 +1.706920E-05 +1.268912E-04 +4.978752E-03 
 +3.489697E-05 +8.263686E-05 +1.180653E-05 +8.263686E-05 -4.959969E-05 +1.013869E-04 +1.180653E-05 +1.013869E-04 +4.927364E-03 
 +8.859086E-05 +1.012891E-04 -3.995134E-05 +1.012891E-04 -1.141743E-04 +1.280164E-04 -3.995134E-05 +1.280164E-04 +4.825452E-03 
 +1.523703E-04 +1.333449E-04 +8.486345E-05 +1.333449E-04 -3.034331E-04 +1.686244E-04 +8.486345E-05 +1.686244E-04 +4.842588E-03 
 +3.429301E-04 +8.657551E-05 +1.891038E-04 +8.657551E-05 -4.561307E-04 +1.449086E-04 +1.891038E-04 +1.449086E-04 +4.873590E-03 
 +4.503178E-04 -9.945816E-05 +7.881498E-05 -9.945816E-05 -3.550136E-04 +1.178796E-04 +7.881498E-05 +1.178796E-04 +4.872599E-03 
 +3.338866E-04 -2.316591E-04 -4.820572E-05 -2.316591E-04 -1.749380E-04 +4.690684E-05 -4.820572E-05 +4.690684E-05 +4.941328E-03 
 +2.772361E-05 -1.921835E-04 -1.010983E-04 -1.921835E-04 +3.374754E-05 -4.602232E-05 -1.010983E-04 -4.602232E-05 +4.999353E-03 
 -1.908545E-04 -2.656569E-04 +1.364894E-05 -2.656569E-04 +1.919804E-04 -7.343579E-05 +1.364894E-05 -7.343579E-05 +5.022659E-03 
 -2.811052E-04 -2.244068E-04 +6.499313E-05 -2.244068E-04 +8.547624E-05 -5.654482E-05 +6.499313E-05 -5.654482E-05 +5.086216E-03 
 -3.032991E-04 -3.290089E-04 +8.225381E-05 -3.290089E-04 -4.979811E-05 -1.633351E-05 +8.225381E-05 -1.633351E-05 +5.138854E-03 
 -2.855523E-04 -3.378623E-04 +9.572080E-05 -3.378623E-04 -2.594881E-05 -1.746691E-05 +9.572080E-05 -1.746691E-05 +5.132957E-03 
 -2.636333E-04 -3.330256E-04 +9.301455E-05 -3.330256E-04 +1.682719E-06 -3.714374E-05 +9.301455E-05 -3.714374E-05 +5.102528E-03 
 -2.544222E-04 -3.354723E-04 +7.598685E-05 -3.354723E-04 +3.959435E-05 -1.088148E-04 +7.598685E-05 -1.088148E-04 +5.057412E-03 
 -1.860822E-04 -2.817190E-04 +1.439635E-04 -2.817190E-04 +1.637562E-04 -1.317899E-04 +1.439635E-04 -1.317899E-04 +5.004452E-03 
 -1.605501E-04 -1.442229E-04 +1.507762E-04 -1.442229E-04 +2.495101E-04 -4.102354E-05 +1.507762E-04 -4.102354E-05 +4.924218E-03 
 -5.550521E-05 -5.169065E-05 +3.743506E-05 -5.169065E-05 +1.959083E-04 +9.990762E-05 +3.743506E-05 +9.990762E-05 +4.856929E-03 
 +7.808291E-05 +1.487568E-04 -1.321166E-04 +1.487568E-04 -1.645905E-05 +1.079749E-04 -1.321166E-04 +1.079749E-04 +4.947089E-03 
 +2.029078E-04 -7.599828E-05 -9.939152E-05 -7.599828E-05 -2.067578E-04 -2.202910E-05 -9.939152E-05 -2.202910E-05 +5.042780E-03 
 +1.098060E-04 +5.057466E-05 -1.771143E-04 +5.057466E-05 -1.837317E-04 +3.415241E-05 -1.771143E-04 +3.415241E-05 +4.970100E-03 
 +1.074243E-04 +6.962733E-05 -1.077204E-04 +6.962733E-05 -7.617424E-05 +1.805131E-04 -1.077204E-04 +1.805131E-04 +4.900095E-03 
 +4.680732E-05 +7.426565E-06 -7.005928E-05 +7.426565E-06 -9.681372E-06 +1.775186E-04 -7.005928E-05 +1.775186E-04 +4.913933E-03 
 +3.996667E-05 +8.629394E-05 -4.117059E-05 +8.629394E-05 -5.533709E-05 +1.281840E-04 -4.117059E-05 +1.281840E-04 +4.895380E-03 
 +1.370893E-04 +9.263556E-05 -4.813580E-05 +9.263556E-05 -1.427614E-04 +8.594048E-05 -4.813580E-05 +8.594048E-05 +4.890177E-03 
 +1.291654E-04 +9.962676E-05 +3.570052E-05 +9.962676E-05 -2.633052E-04 +1.328450E-04 +3.570052E-05 +1.328450E-04 +4.923393E-03 
 +2.314234E-04 +2.755304E-04 +1.623817E-04 +2.755304E-04 -3.697982E-04 +2.331609E-04 +1.623817E-04 +2.331609E-04 +5.015910E-03 
 +3.468645E-04 -6.690711E-05 +5.533959E-05 -6.690711E-05 -3.534429E-04 +2.533578E-04 +5.533959E-05 +2.533578E-04 +5.027974E-03 
 +2.625523E-05 -1.989003E-04 -4.329498E-05 -1.989003E-04 -1.170381E-04 +1.467453E-04 -4.329498E-05 +1.467453E-04 +5.013147E-03 
 -1.844097E-04 -1.780909E-04 -1.164587E-04 -1.780909E-04 +1.576543E-04 +3.996517E-05 -1.164587E-04 +3.996517E-05 +5.006675E-03 
 -2.415443E-04 -1.463774E-04 -8.157819E-05 -1.463774E-04 +1.789226E-04 -2.174177E-06 -8.157819E-05 -2.174177E-06 +5.010142E-03 
 -2.748834E-04 -1.675739E-04 +6.318041E-06 -1.675739E-04 +1.249588E-04 -3.145330E-05 +6.318041E-06 -3.145330E-05 +5.053843E-03 
 -2.616376E-04 -2.794165E-04 +2.785741E-05 -2.794165E-04 +1.129446E-05 -2.822820E-05 +2.785741E-05 -2.822820E-05 +5.126304E-03 
 -2.690870E-04 -3.325714E-04 +6.743464E-05 -3.325714E-04 -2.521439E-05 -3.616387E-05 +6.743464E-05 -3.616387E-05 +5.143592E-03 
 -2.883942E-04 -3.509295E-04 +9.848041E-05 -3.509295E-04 -3.063692E-05 -9.230161E-05 +9.848041E-05 -9.230161E-05 +5.131385E-03 
 -2.225556E-04 -2.081559E-04 +7.866630E-05 -2.081559E-04 -2.174538E-05 -1.976639E-04 +7.866630E-05 -1.976639E-04 +5.060879E-03 
 -5.131804E-07 +6.388655E-06 +2.426122E-04 +6.388655E-06 +4.346014E-05 -1.732985E-04 +2.426122E-04 -1.732985E-04 +4.967946E-03 
 +1.691001E-05 +2.905232E-05 +2.073840E-04 +2.905232E-05 +6.973894E-05 -7.102912E-05 +2.073840E-04 -7.102912E-05 +4.896397E-03 
 +6.118538E-05 +2.002994E-06 +1.349825E-04 +2.002994E-06 +8.305290E-05 +1.654453E-05 +1.349825E-04 +1.654453E-05 +4.865380E-03 
 +1.259273E-04 -3.685617E-05 -5.130366E-05 -3.685617E-05 -7.387815E-05 +5.879714E-05 -5.130366E-05 +5.879714E-05 +4.995166E-03 
 +1.880366E-04 -1.763463E-04 -5.275000E-05 -1.763463E-04 -3.276560E-04 -7.906199E-05 -5.275000E-05 -7.906199E-05 +5.089720E-03 
 +2.212824E-04 -3.575057E-05 -6.519674E-05 -3.575057E-05 -5.225134E-04 -1.267066E-04 -6.519674E-05 -1.267066E-04 +5.051757E-03 
 +1.439554E-04 +1.658993E-04 -1.004456E-04 +1.658993E-04 -4.594941E-04 +1.219388E-05 -1.004456E-04 +1.219388E-05 +4.989713E-03 
 +4.342939E-05 +7.053272E-05 -1.209768E-04 +7.053272E-05 -1.410438E-04 +1.269311E-04 -1.209768E-04 +1.269311E-04 +4.943145E-03 
 +7.144641E-05 +4.342262E-06 -7.570866E-05 +4.342262E-06 -7.533476E-05 +1.416414E-04 -7.570866E-05 +1.416414E-04 +4.933830E-03 
 +1.461142E-04 +9.352862E-05 -6.545327E-05 +9.352862E-05 -2.373023E-04 +6.192077E-05 -6.545327E-05 +6.192077E-05 +4.897181E-03 
 +2.418675E-04 +3.687600E-05 -4.934709E-05 +3.687600E-05 -1.750474E-04 +1.315402E-04 -4.934709E-05 +1.315402E-04 +4.984719E-03 
 -4.107038E-05 +1.681983E-04 +4.763031E-05 +1.681983E-04 -7.007065E-05 +2.840131E-04 +4.763031E-05 +2.840131E-04 +5.075997E-03 
 -1.373940E-04 -2.652979E-04 +2.998669E-05 -2.652979E-04 -3.629503E-05 +3.105762E-04 +2.998669E-05 +3.105762E-04 +5.058520E-03 
 -7.877548E-05 -2.395940E-04 +1.537480E-05 -2.395940E-04 +1.927395E-05 +1.872354E-04 +1.537480E-05 +1.872354E-04 +4.990439E-03 
 -1.168274E-04 -1.391085E-04 -3.925305E-05 -1.391085E-04 +1.033242E-04 +8.836891E-05 -3.925305E-05 +8.836891E-05 +4.970444E-03 
 -1.986516E-04 -1.212809E-04 -9.859088E-05 -1.212809E-04 +1.936412E-04 +3.759067E-05 -9.859088E-05 +3.759067E-05 +4.988749E-03 
 -2.458346E-04 -1.945645E-04 -2.299840E-05 -1.945645E-04 +1.631925E-04 +9.772882E-06 -2.299840E-05 +9.772882E-06 +5.027644E-03 
 -2.362027E-04 -2.344813E-04 -1.118496E-05 -2.344813E-04 +5.810888E-05 -6.237386E-05 -1.118496E-05 -6.237386E-05 +5.116329E-03 
 -2.394928E-04 -1.479920E-04 +2.255424E-05 -1.479920E-04 -4.394047E-05 -8.934038E-05 +2.255424E-05 -8.934038E-05 +5.164491E-03 
 -2.590269E-04 -1.721890E-04 +5.963677E-05 -1.721890E-04 -1.434475E-04 -1.404661E-04 +5.963677E-05 -1.404661E-04 +5.169127E-03 
 -4.991118E-05 +5.756675E-05 -3.560600E-06 +5.756675E-05 -1.376675E-04 -2.190742E-04 -3.560600E-06 -2.190742E-04 +5.063841E-03 
 +9.845150E-05 +1.485659E-04 +1.757373E-04 +1.485659E-04 -4.100729E-05 -2.128468E-04 +1.757373E-04 -2.128468E-04 +4.979726E-03 
 +7.586546E-05 +1.020850E-04 +2.032698E-04 +1.020850E-04 +2.924833E-05 -1.621307E-04 +2.032698E-04 -1.621307E-04 +4.982184E-03 
 +4.877812E-05 +4.090936E-05 +2.127108E-04 +4.090936E-05 +4.211921E-05 -8.783297E-05 +2.127108E-04 -8.783297E-05 +4.974176E-03 
 +1.249066E-04 -1.616306E-04 +2.986164E-05 -1.616306E-04 -1.336834E-04 -3.581388E-05 +2.986164E-05 -3.581388E-05 +5.068812E-03 
 +1.930061E-04 -1.942780E-04 -2.191014E-05 -1.942780E-04 -3.526273E-04 -9.637866E-05 -2.191014E-05 -9.637866E-05 +5.120929E-03 
 +2.556714E-04 -7.225456E-05 +2.085744E-05 -7.225456E-05 -4.413678E-04 -1.170382E-04 +2.085744E-05 -1.170382E-04 +5.094127E-03 
 +1.932496E-04 +2.140479E-04 -6.629776E-05 +2.140479E-04 -4.834127E-04 -4.009771E-05 -6.629776E-05 -4.009771E-05 +5.060961E-03 
 +1.310393E-04 +2.109370E-04 -1.055276E-04 +2.109370E-04 -3.821930E-04 +6.150524E-06 -1.055276E-04 +6.150524E-06 +5.016826E-03 
 +9.419019E-05 +4.482191E-05 -8.665045E-05 +4.482191E-05 -2.212331E-04 +4.843827E-05 -8.665045E-05 +4.843827E-05 +4.937571E-03 
 +2.611255E-04 +6.105099E-06 -7.573319E-05 +6.105099E-06 -2.795107E-04 +8.872580E-05 -7.573319E-05 +8.872580E-05 +4.906171E-03 
 +8.917354E-05 +2.047620E-04 -4.381847E-05 +2.047620E-04 -1.809087E-04 +1.210590E-04 -4.381847E-05 +1.210590E-04 +5.028837E-03 
 -3.144803E-04 +1.025687E-04 -2.866854E-05 +1.025687E-04 +7.116736E-05 +1.909912E-04 -2.866854E-05 +1.909912E-04 +5.100817E-03 
 -4.530885E-04 -1.196678E-04 -8.332805E-06 -1.196678E-04 +1.258007E-04 +1.538646E-04 -8.332805E-06 +1.538646E-04 +5.067648E-03 
 -2.612949E-04 -1.673413E-04 +2.047340E-05 -1.673413E-04 +6.697987E-05 +8.686549E-05 +2.047340E-05 +8.686549E-05 +4.981771E-03 
 -1.173654E-04 -2.033511E-04 -2.746501E-05 -2.033511E-04 +2.236083E-05 +7.780193E-05 -2.746501E-05 +7.780193E-05 +4.935666E-03 
 -2.777776E-05 -1.932420E-04 -1.288380E-04 -1.932420E-04 +1.474906E-04 +6.535720E-05 -1.288380E-04 +6.535720E-05 +4.945915E-03 
 -6.897272E-05 -2.473227E-04 -8.895128E-05 -2.473227E-04 +1.448503E-04 +2.735840E-05 -8.895128E-05 +2.735840E-05 +4.993784E-03 
 -1.315649E-04 -2.350999E-04 -9.860214E-05 -2.350999E-04 +3.067328E-05 -8.321342E-05 -9.860214E-05 -8.321342E-05 +5.106327E-03 
 -1.601513E-04 -2.100075E-04 -8.941795E-05 -2.100075E-04 -1.181302E-04 -1.186574E-04 -8.941795E-05 -1.186574E-04 +5.185571E-03 
 -1.220474E-04 -9.897883E-05 -5.298652E-05 -9.897883E-05 -1.739962E-04 -1.613193E-04 -5.298652E-05 -1.613193E-04 +5.151851E-03 
 +3.328626E-05 +1.406905E-04 -8.910621E-05 +1.406905E-04 -1.776821E-04 -2.200635E-04 -8.910621E-05 -2.200635E-04 +5.044477E-03 
 +9.749705E-05 +2.839199E-04 -8.136979E-06 +2.839199E-04 -1.971792E-04 -2.063275E-04 -8.136979E-06 -2.063275E-04 +5.042456E-03 
 +1.196253E-04 +2.394756E-04 +1.405587E-04 +2.394756E-04 -9.731073E-05 -1.393732E-04 +1.405587E-04 -1.393732E-04 +5.078100E-03 
 +6.763158E-05 +1.377639E-04 +1.911459E-04 +1.377639E-04 -5.420938E-05 -8.253639E-05 +1.911459E-04 -8.253639E-05 +5.055946E-03 
 +1.108870E-04 -1.482286E-04 +5.383652E-05 -1.482286E-04 -1.413991E-04 -5.195723E-05 +5.383652E-05 -5.195723E-05 +5.092138E-03 
 +1.426613E-04 -1.666100E-04 -6.970581E-06 -1.666100E-04 -2.473397E-04 -8.509028E-05 -6.970581E-06 -8.509028E-05 +5.098601E-03 
 +1.968360E-04 -8.653242E-05 +3.982348E-05 -8.653242E-05 -3.345302E-04 -1.139645E-04 +3.982348E-05 -1.139645E-04 +5.060811E-03 
 +1.983269E-04 +1.981945E-04 -4.551567E-05 +1.981945E-04 -4.416886E-04 -7.687292E-05 -4.551567E-05 -7.687292E-05 +5.064998E-03 
 +1.696065E-04 +2.279138E-04 -6.499133E-05 +2.279138E-04 -4.437714E-04 -4.619874E-05 -6.499133E-05 -4.619874E-05 +5.085654E-03 
 +1.700965E-04 +8.525754E-06 -5.792545E-05 +8.525754E-06 -2.796754E-04 +4.049862E-05 -5.792545E-05 +4.049862E-05 +4.968659E-03 
 +2.757369E-04 -1.418107E-04 -4.650093E-05 -1.418107E-04 -1.858559E-04 +9.966906E-05 -4.650093E-05 +9.966906E-05 +4.856953E-03 
 -9.396382E-05 +7.571660E-05 +7.975558E-06 +7.571660E-05 +3.764706E-05 +1.616684E-04 +7.975558E-06 +1.616684E-04 +4.920062E-03 
 -3.083594E-04 +4.851819E-05 -1.167819E-05 +4.851819E-05 +2.468149E-05 +1.114986E-04 -1.167819E-05 +1.114986E-04 +5.045895E-03 
 -3.776221E-04 +3.930748E-05 +3.878221E-05 +3.930748E-05 +8.957134E-05 +1.730182E-05 +3.878221E-05 +1.730182E-05 +5.035796E-03 
 -4.170581E-04 +1.117606E-04 +8.028780E-05 +1.117606E-04 +2.128496E-04 +2.112430E-05 +8.028780E-05 +2.112430E-05 +4.965948E-03 
 -1.857819E-04 +3.085478E-04 +2.670431E-05 +3.085478E-04 +1.883561E-04 +8.077812E-05 +2.670431E-05 +8.077812E-05 +4.922529E-03 
 -4.812236E-05 +2.172645E-04 -7.816880E-05 +2.172645E-04 +9.255144E-05 +8.185664E-05 -7.816880E-05 +8.185664E-05 +4.918721E-03 
 +4.193322E-05 -1.589826E-04 -1.054465E-04 -1.589826E-04 +6.499154E-05 +2.574624E-05 -1.054465E-04 +2.574624E-05 +4.969201E-03 
 -1.190925E-05 -2.395032E-04 -1.436373E-04 -2.395032E-04 -4.388767E-05 -6.488756E-05 -1.436373E-04 -6.488756E-05 +5.107061E-03 
 -6.970507E-05 -1.709046E-04 -1.320830E-04 -1.709046E-04 -1.787938E-04 -4.395345E-05 -1.320830E-04 -4.395345E-05 +5.208985E-03 
 +8.745990E-06 +3.494908E-05 -6.612221E-05 +3.494908E-05 -1.087475E-04 -1.640185E-06 -6.612221E-05 -1.640185E-06 +5.119674E-03 
 +4.640840E-05 +1.302799E-04 -2.751665E-05 +1.302799E-04 +1.428001E-05 +2.006009E-05 -2.751665E-05 +2.006009E-05 +5.047957E-03 
 +7.124752E-05 +2.197305E-04 -4.810814E-05 +2.197305E-04 -2.219622E-05 +2.843688E-05 -4.810814E-05 +2.843688E-05 +5.105104E-03 
 +4.488879E-05 +1.121493E-04 +9.391357E-06 +1.121493E-04 -1.570055E-04 -6.248433E-06 +9.391357E-06 -6.248433E-06 +5.165507E-03 
 +1.946981E-04 -2.958211E-05 +7.603947E-05 -2.958211E-05 -2.502055E-04 -4.643373E-05 +7.603947E-05 -4.643373E-05 +5.136339E-03 
 +1.660068E-04 -2.294186E-04 +3.262266E-05 -2.294186E-04 -2.170151E-04 -4.302932E-05 +3.262266E-05 -4.302932E-05 +5.098386E-03 
 +8.995759E-05 -1.641591E-04 +1.964411E-05 -1.641591E-04 -1.460513E-04 -3.720502E-05 +1.964411E-05 -3.720502E-05 +5.093307E-03 
 +1.243356E-04 -1.299412E-04 +3.948713E-05 -1.299412E-04 -2.734275E-04 -6.836601E-05 +3.948713E-05 -6.836601E-05 +5.054929E-03 
 +1.128869E-04 +1.861885E-04 -3.445680E-05 +1.861885E-04 -4.032021E-04 -6.776174E-05 -3.445680E-05 -6.776174E-05 +5.048952E-03 
 +9.795649E-05 +2.151150E-04 -7.501084E-05 +2.151150E-04 -4.577270E-04 -7.082730E-05 -7.501084E-05 -7.082730E-05 +5.137163E-03 
 +2.375966E-04 +8.531066E-05 -6.576702E-05 +8.531066E-05 -4.483525E-04 -2.096835E-05 -6.576702E-05 -2.096835E-05 +5.051216E-03 
 +6.801399E-05 -9.364963E-05 +7.903632E-05 -9.364963E-05 -2.206816E-05 +6.315883E-05 +7.903632E-05 +6.315883E-05 +4.770330E-03 
 -2.168363E-05 -4.802228E-06 +7.964527E-05 -4.802228E-06 +7.084519E-05 +1.063785E-04 +7.964527E-05 +1.063785E-04 +4.803934E-03 
 -1.390315E-04 +3.748499E-05 +9.601868E-05 +3.748499E-05 +1.008293E-04 +4.013498E-05 +9.601868E-05 +4.013498E-05 +4.983420E-03 
 -1.759699E-04 +3.075504E-05 +1.119960E-04 +3.075504E-05 +1.844378E-04 -2.722986E-05 +1.119960E-04 -2.722986E-05 +4.969979E-03 
 -1.776756E-04 +1.308966E-04 +1.383065E-04 +1.308966E-04 +1.805599E-04 +2.433772E-05 +1.383065E-04 +2.433772E-05 +4.863702E-03 
 -9.947796E-05 +3.532255E-04 +6.492550E-05 +3.532255E-04 +1.992707E-04 +1.077007E-04 +6.492550E-05 +1.077007E-04 +4.863164E-03 
 -1.093400E-04 +3.818485E-04 +2.692331E-05 +3.818485E-04 +8.111137E-05 +8.636461E-05 +2.692331E-05 +8.636461E-05 +4.935533E-03 
 -1.191695E-05 +2.880497E-04 +2.344686E-05 +2.880497E-04 +3.690371E-06 +4.917210E-05 +2.344686E-05 +4.917210E-05 +5.021670E-03 
 -1.509633E-04 -5.900065E-05 -1.693329E-05 -5.900065E-05 +3.174245E-05 -3.259876E-05 -1.693329E-05 -3.259876E-05 +5.150949E-03 
 -1.270614E-04 -1.930993E-04 -3.462574E-05 -1.930993E-04 -6.050443E-05 -8.593229E-05 -3.462574E-05 -8.593229E-05 +5.218832E-03 
 -6.555332E-07 +7.094779E-07 +1.114999E-06 +7.094779E-07 -1.138049E-04 -4.244429E-05 +1.114999E-06 -4.244429E-05 +5.145560E-03 
 -1.557405E-05 +5.091088E-05 +6.522860E-05 +5.091088E-05 -3.535738E-05 +1.386371E-05 +6.522860E-05 +1.386371E-05 +5.138249E-03 
 -1.045423E-05 -1.594046E-05 +1.468426E-06 -1.594046E-05 -7.533822E-05 -1.412749E-06 +1.468426E-06 -1.412749E-06 +5.191206E-03 
 -3.273252E-05 -2.827336E-05 -3.562495E-05 -2.827336E-05 -2.051106E-04 -1.857769E-05 -3.562495E-05 -1.857769E-05 +5.237728E-03 
 +3.211369E-04 -1.733893E-04 +2.525815E-05 -1.733893E-04 -3.221812E-04 -2.375555E-05 +2.525815E-05 -2.375555E-05 +5.169289E-03 
 +2.924770E-04 -2.615839E-04 -6.398687E-06 -2.615839E-04 -3.202257E-04 -4.541931E-05 -6.398687E-06 -4.541931E-05 +5.052717E-03 
 +1.702015E-04 -2.475342E-04 +6.097900E-06 -2.475342E-04 -1.895531E-04 +2.209820E-06 +6.097900E-06 +2.209820E-06 +5.036368E-03 
 +9.856414E-05 -2.595853E-04 +2.197481E-05 -2.595853E-04 -1.843874E-04 +9.265856E-06 +2.197481E-05 +9.265856E-06 +4.971146E-03 
 +2.867557E-05 +1.982761E-04 -4.001921E-05 +1.982761E-04 -2.201246E-04 +2.760000E-07 -4.001921E-05 +2.760000E-07 +4.891217E-03 
 +3.827420E-06 +1.835784E-04 -1.265481E-04 +1.835784E-04 -2.807819E-04 +2.986627E-06 -1.265481E-04 +2.986627E-06 +4.949646E-03 
 +8.944198E-05 +6.521833E-05 -1.575890E-04 +6.521833E-05 -2.629194E-04 -3.245509E-06 -1.575890E-04 -3.245509E-06 +4.939606E-03 
 +2.347162E-05 +3.192567E-05 +1.460661E-04 +3.192567E-05 +7.688963E-05 +3.204168E-05 +1.460661E-04 +3.204168E-05 +4.762129E-03 
 +1.555039E-08 -3.507531E-05 +1.091753E-04 -3.507531E-05 +7.140669E-05 -4.634354E-05 +1.091753E-04 -4.634354E-05 +4.834958E-03 
 +2.498939E-05 +2.213263E-05 +1.943427E-04 +2.213263E-05 -2.863400E-05 -4.970158E-05 +1.943427E-04 -4.970158E-05 +4.894655E-03 
 +8.727334E-05 +6.516272E-05 +1.650167E-04 +6.516272E-05 -4.077732E-05 -7.361636E-05 +1.650167E-04 -7.361636E-05 +4.853911E-03 
 +3.116560E-05 +1.566923E-04 +1.185557E-04 +1.566923E-04 +1.189896E-04 -6.226245E-05 +1.185557E-04 -6.226245E-05 +4.782844E-03 
 -1.375705E-04 +1.261085E-04 +3.763074E-05 +1.261085E-04 +8.871964E-05 +2.194973E-05 +3.763074E-05 +2.194973E-05 +4.826519E-03 
 +1.576891E-05 -3.896633E-05 -5.758870E-06 -3.896633E-05 -1.057514E-04 +6.063348E-05 -5.758870E-06 +6.063348E-05 +4.994022E-03 
 -3.758011E-07 -5.042368E-05 +2.720623E-05 -5.042368E-05 -1.814951E-04 +1.135240E-04 +2.720623E-05 +1.135240E-04 +5.082434E-03 
 -2.370389E-04 -1.264504E-04 +3.416321E-05 -1.264504E-04 -1.833141E-05 +8.093803E-05 +3.416321E-05 +8.093803E-05 +5.168171E-03 
 -3.002595E-04 -2.185586E-04 +6.183912E-05 -2.185586E-04 +4.331771E-05 -4.405687E-05 +6.183912E-05 -4.405687E-05 +5.221737E-03 
 -1.022707E-04 +8.511561E-05 +5.139878E-05 +8.511561E-05 -3.275034E-05 -1.821918E-05 +5.139878E-05 -1.821918E-05 +5.187080E-03 
 -1.185473E-04 +9.169840E-05 +7.321059E-05 +9.169840E-05 -6.605347E-05 +2.190384E-05 +7.321059E-05 +2.190384E-05 +5.209665E-03 
 -9.585209E-05 -2.447194E-05 +4.123626E-05 -2.447194E-05 -1.139491E-04 +1.928551E-07 +4.123626E-05 +1.928551E-07 +5.233361E-03 
 +6.554549E-05 -1.734594E-05 +5.124740E-05 -1.734594E-05 -1.932830E-04 +4.800936E-05 +5.124740E-05 +4.800936E-05 +5.223319E-03 
 +3.742370E-04 -1.331437E-04 +1.262048E-05 -1.331437E-04 -3.331519E-04 +5.505137E-05 +1.262048E-05 +5.505137E-05 +5.149438E-03 
 +3.231020E-04 -1.355180E-04 -2.697748E-05 -1.355180E-04 -3.240301E-04 -1.780042E-05 -2.697748E-05 -1.780042E-05 +5.033720E-03 
 +2.484720E-04 -1.988833E-04 -4.476262E-05 -1.988833E-04 -2.054936E-04 -8.071813E-06 -4.476262E-05 -8.071813E-06 +4.986283E-03 
 +8.609539E-05 -2.416621E-04 -5.181669E-06 -2.416621E-04 +3.748491E-05 +2.183080E-05 -5.181669E-06 +2.183080E-05 +4.867246E-03 
 -4.364368E-05 +1.029484E-04 -2.256950E-05 +1.029484E-04 +2.311219E-04 +1.061269E-04 -2.256950E-05 +1.061269E-04 +4.662277E-03 
 -1.230675E-04 +2.606963E-05 -6.519586E-05 +2.606963E-05 +2.405219E-04 +1.769095E-04 -6.519586E-05 +1.769095E-04 +4.595845E-03 
 -1.216977E-04 +3.045065E-06 -1.811372E-04 +3.045065E-06 +1.476303E-04 +1.450687E-04 -1.811372E-04 +1.450687E-04 +4.687770E-03 
 +3.488265E-05 +1.528984E-05 +1.602211E-04 +1.528984E-05 +1.283588E-04 +7.285878E-05 +1.602211E-04 +7.285878E-05 +4.753761E-03 
 +4.279906E-05 +6.912520E-06 +1.234902E-04 +6.912520E-06 +3.248914E-05 -1.077007E-06 +1.234902E-04 -1.077007E-06 +4.868854E-03 
 +1.390342E-04 +6.059040E-05 +1.429633E-04 +6.059040E-05 -3.132146E-05 -1.177627E-05 +1.429633E-04 -1.177627E-05 +4.872461E-03 
 +1.932383E-04 +7.553190E-05 +1.807813E-04 +7.553190E-05 -2.234283E-05 +1.332229E-05 +1.807813E-04 +1.332229E-05 +4.876111E-03 
 +5.880620E-05 +6.138515E-06 +2.266530E-05 +6.138515E-06 -1.967224E-05 +2.920364E-05 +2.266530E-05 +2.920364E-05 +4.867497E-03 
 -9.167134E-05 -1.862112E-05 -6.886807E-06 -1.862112E-05 -5.701621E-05 +2.141272E-06 -6.886807E-06 +2.141272E-06 +4.866756E-03 
 -2.087253E-05 -6.032613E-05 -9.703024E-05 -6.032613E-05 -8.898803E-05 +4.397427E-05 -9.703024E-05 +4.397427E-05 +4.995113E-03 
 -3.918967E-05 -1.302081E-04 -5.797082E-05 -1.302081E-04 -2.021056E-04 +1.819091E-04 -5.797082E-05 +1.819091E-04 +5.070765E-03 
 -2.287103E-05 -1.359896E-04 -5.817283E-05 -1.359896E-04 -2.059417E-04 +2.328982E-04 -5.817283E-05 +2.328982E-04 +5.108073E-03 
 -2.792429E-04 -2.985042E-04 +9.617278E-05 -2.985042E-04 -5.176388E-06 +4.886467E-05 +9.617278E-05 +4.886467E-05 +5.161163E-03 
 -1.805182E-04 +7.632385E-05 +1.533442E-04 +7.632385E-05 +2.533391E-05 -1.405646E-05 +1.533442E-04 -1.405646E-05 +5.169634E-03 
 -1.451518E-04 +1.675977E-04 +1.425387E-04 +1.675977E-04 -3.459351E-05 +5.308106E-05 +1.425387E-04 +5.308106E-05 +5.174462E-03 
 -9.131036E-05 +1.210851E-04 +9.807750E-05 +1.210851E-04 -9.010366E-05 +3.972337E-05 +9.807750E-05 +3.972337E-05 +5.192355E-03 
 +1.190060E-04 +4.946079E-05 +9.458177E-05 +4.946079E-05 -2.822041E-04 +4.228654E-05 +9.458177E-05 +4.228654E-05 +5.188946E-03 
 +2.714902E-04 -1.096999E-04 +3.092660E-08 -1.096999E-04 -3.571762E-04 +5.389534E-05 +3.092660E-08 +5.389534E-05 +5.132483E-03 
 +2.820897E-04 -1.069357E-04 -2.499222E-05 -1.069357E-04 -2.671709E-04 +1.931801E-05 -2.499222E-05 +1.931801E-05 +5.050739E-03 
 +2.195343E-04 -2.073495E-04 -5.714682E-05 -2.073495E-04 -1.653969E-04 -2.992881E-05 -5.714682E-05 -2.992881E-05 +4.973010E-03 
 -4.864381E-05 -1.804606E-04 -2.804367E-05 -1.804606E-04 +7.022466E-05 -4.595201E-05 -2.804367E-05 -4.595201E-05 +4.817747E-03 
 -9.935908E-05 +6.028847E-06 -2.110163E-05 +6.028847E-06 +3.158117E-04 +6.205603E-05 -2.110163E-05 +6.205603E-05 +4.632990E-03 
 -1.701862E-04 -4.995030E-05 -3.506550E-05 -4.995030E-05 +3.388801E-04 +1.760521E-04 -3.506550E-05 +1.760521E-04 +4.573909E-03 
 -1.720935E-04 -7.587387E-05 -1.541425E-04 -7.587387E-05 +2.534463E-04 +1.796875E-04 -1.541425E-04 +1.796875E-04 +4.626505E-03 
 +1.028437E-04 +2.603219E-05 +1.061513E-04 +2.603219E-05 +1.964391E-04 +1.485924E-04 +1.061513E-04 +1.485924E-04 +4.729842E-03 
 +1.454846E-04 +7.107367E-05 +1.235619E-04 +7.107367E-05 +5.639885E-05 +8.621323E-05 +1.235619E-04 +8.621323E-05 +4.818746E-03 
 +1.412483E-04 +8.638243E-05 +8.204265E-05 +8.638243E-05 +2.252853E-05 +2.703970E-05 +8.204265E-05 +2.703970E-05 +4.838220E-03 
 +1.349669E-04 +1.407948E-04 +1.475569E-04 +1.407948E-04 +2.222290E-05 -1.979041E-05 +1.475569E-04 -1.979041E-05 +4.872496E-03 
 +1.089137E-05 +1.406440E-05 -5.251858E-05 +1.406440E-05 -3.523932E-05 -9.407374E-06 -5.251858E-05 -9.407374E-06 +4.877136E-03 
 +2.824337E-05 -6.140312E-05 -6.110243E-05 -6.140312E-05 -1.075385E-04 -1.633608E-05 -6.110243E-05 -1.633608E-05 +4.895518E-03 
 -3.914590E-05 -1.718967E-04 -1.052483E-04 -1.718967E-04 -9.791972E-05 +5.702612E-06 -1.052483E-04 +5.702612E-06 +4.962879E-03 
 -1.077381E-04 -2.218654E-04 -2.309786E-05 -2.218654E-04 -9.367532E-05 +9.742865E-05 -2.309786E-05 +9.742865E-05 +5.029172E-03 
 +2.566462E-05 -1.849850E-04 -2.298723E-05 -1.849850E-04 -1.914144E-04 +1.674445E-04 -2.298723E-05 +1.674445E-04 +5.064402E-03 
 -2.931266E-05 -2.503541E-04 +7.970526E-05 -2.503541E-04 -1.855322E-04 +9.816721E-05 +7.970526E-05 +9.816721E-05 +5.088331E-03 
 -1.932849E-04 +4.055418E-05 +2.259778E-04 +4.055418E-05 -3.113247E-05 +3.306595E-05 +2.259778E-04 +3.306595E-05 +5.113411E-03 
 -7.304371E-05 +1.209444E-04 +1.717109E-04 +1.209444E-04 -7.511585E-05 +4.203240E-05 +1.717109E-04 +4.203240E-05 +5.132938E-03 
 +1.567408E-05 +5.800248E-05 +1.245920E-04 +5.800248E-05 -2.245609E-04 +2.964605E-05 +1.245920E-04 +2.964605E-05 +5.168335E-03 
 +4.355822E-05 +3.115198E-05 +9.814235E-05 +3.115198E-05 -2.054186E-04 +3.663099E-05 +9.814235E-05 +3.663099E-05 +5.147885E-03 
 +9.531537E-05 -4.102397E-05 +6.882989E-05 -4.102397E-05 -1.119711E-04 +5.894930E-06 +6.882989E-05 +5.894930E-06 +5.076487E-03 
 +1.475581E-04 -8.598750E-05 +3.891718E-05 -8.598750E-05 -1.260965E-04 -1.313128E-05 +3.891718E-05 -1.313128E-05 +5.030458E-03 
 +1.051179E-04 -1.478584E-04 +4.261840E-06 -1.478584E-04 -9.222158E-06 +6.348946E-06 +4.261840E-06 +6.348946E-06 +4.941537E-03 
 -1.216600E-04 +2.978516E-05 -7.815506E-05 +2.978516E-05 +3.622196E-04 +1.199524E-05 -7.815506E-05 +1.199524E-05 +4.784251E-03 
 -1.276808E-04 +2.354320E-05 -7.803583E-05 +2.354320E-05 +4.370645E-04 +4.478820E-05 -7.803583E-05 +4.478820E-05 +4.671398E-03 
 -1.579772E-04 -2.593649E-05 -5.611572E-05 -2.593649E-05 +3.184654E-04 +9.540416E-05 -5.611572E-05 +9.540416E-05 +4.665232E-03 
 -1.469009E-04 -6.691242E-05 -1.244013E-04 -6.691242E-05 +3.163357E-04 +1.481001E-04 -1.244013E-04 +1.481001E-04 +4.659102E-03 
 +1.948138E-04 +3.156501E-05 -5.849986E-05 +3.156501E-05 +2.537754E-04 +1.098063E-04 -5.849986E-05 +1.098063E-04 +4.677176E-03 
 +1.562279E-04 +1.079583E-04 +4.922622E-05 +1.079583E-04 +1.901307E-04 +2.408857E-05 +4.922622E-05 +2.408857E-05 +4.695606E-03 
 +1.075113E-04 +1.321813E-04 +5.787976E-05 +1.321813E-04 +1.885907E-04 -5.228382E-06 +5.787976E-05 -5.228382E-06 +4.710926E-03 
 +7.813656E-05 +1.284766E-04 +7.786933E-05 +1.284766E-04 +1.134093E-04 -5.317158E-05 +7.786933E-05 -5.317158E-05 +4.759817E-03 
 -6.378168E-05 -5.358928E-05 -2.319245E-05 -5.358928E-05 -4.405835E-05 -1.032438E-04 -2.319245E-05 -1.032438E-04 +4.812150E-03 
 -8.032969E-06 -6.189657E-05 -1.832887E-05 -6.189657E-05 -1.160004E-04 -6.677158E-05 -1.832887E-05 -6.677158E-05 +4.854155E-03 
 -1.612268E-06 -1.410506E-04 -8.018939E-05 -1.410506E-04 -1.158783E-04 +2.792091E-05 -8.018939E-05 +2.792091E-05 +4.931120E-03 
 -8.513096E-05 -2.056449E-04 +6.534482E-06 -2.056449E-04 -1.346662E-04 +1.038272E-04 +6.534482E-06 +1.038272E-04 +5.009589E-03 
 +2.676113E-05 -1.860480E-04 +5.896750E-05 -1.860480E-04 -1.880125E-04 +1.118797E-04 +5.896750E-05 +1.118797E-04 +5.038856E-03 
 +1.029749E-04 -1.985150E-04 +7.727110E-05 -1.985150E-04 -1.809144E-04 +9.402700E-05 +7.727110E-05 +9.402700E-05 +5.076385E-03 
 -1.235407E-04 +2.460533E-06 +1.731057E-04 +2.460533E-06 -1.480033E-04 +4.938776E-05 +1.731057E-04 +4.938776E-05 +5.102548E-03 
 -2.389728E-05 -2.624911E-05 +1.261300E-04 -2.624911E-05 -2.399510E-04 -8.424039E-06 +1.261300E-04 -8.424039E-06 +5.116699E-03 
 +4.149686E-05 -5.269132E-05 +9.994669E-05 -5.269132E-05 -2.806908E-04 -3.257288E-05 +9.994669E-05 -3.257288E-05 +5.122644E-03 
 +3.996086E-05 -4.201210E-05 +1.134123E-04 -4.201210E-05 -2.037974E-04 -2.818652E-05 +1.134123E-04 -2.818652E-05 +5.086145E-03 
 +2.280919E-05 -5.514705E-05 +1.353264E-04 -5.514705E-05 -1.021109E-04 -2.985450E-05 +1.353264E-04 -2.985450E-05 +5.034249E-03 
 -2.270652E-05 -6.134791E-05 +9.456107E-05 -6.134791E-05 +8.045011E-05 -9.150881E-05 +9.456107E-05 -9.150881E-05 +4.968063E-03 
 -7.606495E-05 -1.967058E-05 +7.035706E-05 -1.967058E-05 +2.901563E-04 -1.375812E-04 +7.035706E-05 -1.375812E-04 +4.877488E-03 
 -8.091964E-05 +9.379346E-05 -1.130386E-05 +9.379346E-05 +3.696121E-04 -8.717574E-05 -1.130386E-05 -8.717574E-05 +4.814456E-03 
 -1.391692E-04 -4.370914E-05 -2.025748E-05 -4.370914E-05 +3.797930E-04 +1.653880E-05 -2.025748E-05 +1.653880E-05 +4.800658E-03 
 -1.273677E-04 -2.776735E-05 +2.705914E-06 -2.776735E-05 +3.293351E-04 +9.765245E-05 +2.705914E-06 +9.765245E-05 +4.807186E-03 
 -1.857438E-05 +1.768015E-05 -7.743838E-05 +1.768015E-05 +2.842338E-04 +1.491098E-04 -7.743838E-05 +1.491098E-04 +4.728809E-03 
 +9.654518E-05 +7.336934E-05 -2.636001E-04 +7.336934E-05 +9.977305E-05 +1.953648E-04 -2.636001E-04 +1.953648E-04 +4.848489E-03 
 +4.907328E-05 +8.265641E-05 -1.269571E-04 +8.265641E-05 +1.512409E-04 +2.374840E-04 -1.269571E-04 +2.374840E-04 +4.865204E-03 
 -6.614450E-06 +1.040140E-04 -1.007272E-04 +1.040140E-04 +1.581529E-04 +2.020294E-04 -1.007272E-04 +2.020294E-04 +4.927283E-03 
 -3.191281E-05 +9.792428E-05 -8.936734E-05 +9.792428E-05 +1.162242E-04 +1.163647E-04 -8.936734E-05 +1.163647E-04 +4.970158E-03 
 -1.199111E-04 +1.326475E-06 -5.513990E-05 +1.326475E-06 +1.742766E-04 +3.453377E-05 -5.513990E-05 +3.453377E-05 +4.953584E-03 
 -9.814038E-05 -7.066484E-05 +1.060118E-05 -7.066484E-05 +1.342650E-04 +2.183475E-05 +1.060118E-05 +2.183475E-05 +4.894208E-03 
 -1.225783E-05 -1.830595E-04 +1.557261E-05 -1.830595E-04 -6.734957E-05 +4.315245E-05 +1.557261E-05 +4.315245E-05 +4.894949E-03 
 +6.466493E-05 -2.365447E-04 -1.312172E-05 -2.365447E-04 -1.961639E-04 +9.752509E-05 -1.312172E-05 +9.752509E-05 +4.954861E-03 
 +4.900517E-05 -2.765258E-04 -1.346088E-05 -2.765258E-04 -2.429227E-04 +1.515863E-04 -1.346088E-05 +1.515863E-04 +5.011487E-03 
 +3.323711E-05 -2.517673E-04 +1.671715E-05 -2.517673E-04 -2.562981E-04 +1.753594E-04 +1.671715E-05 +1.753594E-04 +5.056771E-03 
 +2.671006E-05 -2.302688E-04 +7.763585E-06 -2.302688E-04 -3.735387E-04 +6.272880E-05 +7.763585E-06 +6.272880E-05 +5.104686E-03 
 +1.425575E-08 -2.026294E-04 +1.137269E-04 -2.026294E-04 -4.169363E-04 -6.247594E-05 +1.137269E-04 -6.247594E-05 +5.055376E-03 
 +1.719225E-05 -1.501821E-04 +9.779599E-05 -1.501821E-04 -2.804608E-04 -5.259127E-05 +9.779599E-05 -5.259127E-05 +4.964949E-03 
 +7.134399E-05 -7.891236E-05 +1.178851E-04 -7.891236E-05 -1.168281E-04 -5.755841E-05 +1.178851E-04 -5.755841E-05 +4.880349E-03 
 +3.272201E-05 -7.316945E-05 +1.166894E-04 -7.316945E-05 +1.264689E-04 -1.219202E-04 +1.166894E-04 -1.219202E-04 +4.778169E-03 
 -6.599282E-05 -1.138774E-05 +1.045557E-04 -1.138774E-05 +3.251272E-04 -1.402841E-04 +1.045557E-04 -1.402841E-04 +4.741913E-03 
 -1.105571E-04 +7.556673E-05 +1.693434E-04 +7.556673E-05 +3.286303E-04 -1.091015E-04 +1.693434E-04 -1.091015E-04 +4.734162E-03 
 -3.935659E-05 +1.504302E-04 +2.296750E-04 +1.504302E-04 +2.323081E-04 -1.580789E-04 +2.296750E-04 -1.580789E-04 +4.718490E-03 
 +8.345081E-06 +1.189874E-04 +1.512440E-04 +1.189874E-04 +1.728547E-04 -2.265847E-04 +1.512440E-04 -2.265847E-04 +4.720739E-03 
 +1.776414E-05 +5.403000E-05 +6.774836E-05 +5.403000E-05 +9.471942E-05 -1.857555E-04 +6.774836E-05 -1.857555E-04 +4.788097E-03 
 +1.809139E-05 +1.296632E-04 -9.732133E-06 +1.296632E-04 +5.523762E-05 -4.046602E-07 -9.732133E-06 -4.046602E-07 +4.855600E-03 
 +7.106960E-05 +1.665093E-05 -2.617214E-04 +1.665093E-05 +8.904795E-05 +4.379325E-05 -2.617214E-04 +4.379325E-05 +4.959668E-03 
 +5.529474E-05 +6.307311E-05 -1.642320E-04 +6.307311E-05 +1.307519E-04 +1.990537E-04 -1.642320E-04 +1.990537E-04 +4.980012E-03 
 +4.547010E-05 +4.881295E-05 -1.698549E-04 +4.881295E-05 +1.360367E-04 +1.952241E-04 -1.698549E-04 +1.952241E-04 +4.976343E-03 
 +2.495707E-05 +6.916144E-05 -1.573618E-04 +6.916144E-05 +1.289089E-04 +1.202805E-04 -1.573618E-04 +1.202805E-04 +5.006459E-03 
 -8.648398E-05 +3.826365E-05 -5.800291E-05 +3.826365E-05 +1.558641E-04 +6.157687E-05 -5.800291E-05 +6.157687E-05 +4.977376E-03 
 -1.508133E-04 -5.592005E-05 +2.872034E-05 -5.592005E-05 +1.933093E-04 +6.273494E-05 +2.872034E-05 +6.273494E-05 +4.936333E-03 
 -9.835150E-05 -1.562918E-04 +5.929326E-05 -1.562918E-04 +1.335775E-04 +1.212873E-04 +5.929326E-05 +1.212873E-04 +4.882432E-03 
 -2.267606E-05 -2.624251E-04 +2.265195E-05 -2.624251E-04 -7.055024E-05 +1.992220E-04 +2.265195E-05 +1.992220E-04 +4.828973E-03 
 +2.543954E-05 -2.557201E-04 -5.878099E-06 -2.557201E-04 -1.714813E-04 +2.299783E-04 -5.878099E-06 +2.299783E-04 +4.827961E-03 
 -1.338512E-05 -2.218779E-04 +1.662978E-05 -2.218779E-04 -2.128562E-04 +1.666623E-04 +1.662978E-05 +1.666623E-04 +4.891637E-03 
 -5.636403E-05 -1.713157E-04 -4.177429E-05 -1.713157E-04 -1.915676E-04 +1.197148E-04 -4.177429E-05 +1.197148E-04 +4.916655E-03 
 +3.993977E-05 -1.193405E-04 +9.085031E-05 -1.193405E-04 -1.997543E-05 +1.028593E-04 +9.085031E-05 +1.028593E-04 +4.789037E-03 
 +3.528135E-05 -9.588092E-05 +6.436246E-05 -9.588092E-05 +9.530943E-05 +8.691961E-05 +6.436246E-05 +8.691961E-05 +4.635941E-03 
 +7.654041E-05 -6.345181E-06 +9.442179E-05 -6.345181E-06 +1.468685E-04 +3.492609E-05 +9.442179E-05 +3.492609E-05 +4.579568E-03 
 +8.491818E-05 -6.309900E-07 +1.675204E-04 -6.309900E-07 +1.862260E-04 -1.034749E-04 +1.675204E-04 -1.034749E-04 +4.654707E-03 
 +1.365241E-05 +6.386143E-06 +1.792407E-04 +6.386143E-06 +2.350720E-04 -1.658300E-04 +1.792407E-04 -1.658300E-04 +4.756391E-03 
 -4.240134E-05 +2.180107E-05 +1.781235E-04 +2.180107E-05 +2.689589E-04 -1.411834E-04 +1.781235E-04 -1.411834E-04 +4.782721E-03 
 -2.852398E-05 +3.855671E-05 +1.857737E-04 +3.855671E-05 +2.198062E-04 -1.271347E-04 +1.857737E-04 -1.271347E-04 +4.766540E-03 
 -4.268873E-06 +4.907898E-05 +1.042502E-04 +4.907898E-05 +1.394249E-04 -1.425366E-04 +1.042502E-04 -1.425366E-04 +4.771178E-03 
 +1.577491E-05 -3.526776E-05 +4.561780E-06 -3.526776E-05 +1.353776E-04 -1.350955E-04 +4.561780E-06 -1.350955E-04 +4.835115E-03 
 +1.502117E-05 +1.938571E-05 +3.907378E-05 +1.938571E-05 +1.131567E-04 -9.801370E-05 +3.907378E-05 -9.801370E-05 +4.890240E-03 
 -3.309720E-05 +1.263116E-05 -2.382743E-04 +1.263116E-05 +4.313051E-05 -4.593593E-05 -2.382743E-04 -4.593593E-05 +4.983346E-03 
 +8.791149E-05 +3.628466E-05 -1.155528E-04 +3.628466E-05 -7.413758E-06 -3.694852E-05 -1.155528E-04 -3.694852E-05 +5.062703E-03 
 +1.191543E-04 +3.273614E-05 -1.539179E-04 +3.273614E-05 +4.258706E-05 +4.934402E-05 -1.539179E-04 +4.934402E-05 +5.071310E-03 
 +7.690868E-05 +3.858247E-05 -1.144432E-04 +3.858247E-05 +7.566131E-05 +9.222375E-05 -1.144432E-04 +9.222375E-05 +5.087299E-03 
 -1.169055E-05 +2.839499E-05 -2.824433E-05 +2.839499E-05 +8.410298E-05 +1.148792E-04 -2.824433E-05 +1.148792E-04 +5.032523E-03 
 -6.884689E-05 -4.030463E-05 +3.412417E-05 -4.030463E-05 +1.364528E-04 +1.516140E-04 +3.412417E-05 +1.516140E-04 +4.959992E-03 
 -8.137476E-05 -1.276844E-04 +3.752204E-05 -1.276844E-04 +1.877153E-04 +2.232625E-04 +3.752204E-05 +2.232625E-04 +4.847176E-03 
 -1.110048E-04 -1.348663E-04 -2.432743E-05 -1.348663E-04 +2.577589E-04 +2.602301E-04 -2.432743E-05 +2.602301E-04 +4.717156E-03 
 +3.985958E-06 -6.306631E-05 -6.646265E-05 -6.306631E-05 +2.522971E-04 +2.180776E-04 -6.646265E-05 +2.180776E-04 +4.627105E-03 
 +3.007687E-05 -5.327632E-05 -4.499432E-05 -5.327632E-05 +1.945825E-04 +9.998587E-05 -4.499432E-05 +9.998587E-05 +4.663467E-03 
 -2.707573E-04 +9.206431E-05 +2.993146E-05 +9.206431E-05 +2.821993E-04 +5.472823E-05 +2.993146E-05 +5.472823E-05 +4.759284E-03 
 -1.339636E-05 -1.813482E-05 +6.797177E-05 -1.813482E-05 +2.330063E-04 +8.390924E-05 +6.797177E-05 +8.390924E-05 +4.722017E-03 
 +5.386746E-05 +2.709406E-05 +4.714184E-05 +2.709406E-05 +1.438310E-04 +8.194997E-05 +4.714184E-05 +8.194997E-05 +4.592866E-03 
 +5.380413E-05 +5.582006E-05 +6.288502E-05 +5.582006E-05 +1.756088E-04 +1.001146E-04 +6.288502E-05 +1.001146E-04 +4.520795E-03 
 +9.460321E-05 +5.751826E-05 +1.500304E-04 +5.751826E-05 +1.568142E-04 +6.559753E-05 +1.500304E-04 +6.559753E-05 +4.573431E-03 
 +7.774804E-05 +7.162825E-05 +1.454104E-04 +7.162825E-05 +1.889514E-04 -7.866337E-05 +1.454104E-04 -7.866337E-05 +4.732130E-03 
 -6.922702E-06 +4.264946E-05 +1.898312E-04 +4.264946E-05 +2.253411E-04 -1.408807E-04 +1.898312E-04 -1.408807E-04 +4.830846E-03 
 +6.085676E-06 +3.537293E-05 +1.896651E-04 +3.537293E-05 +1.885836E-04 -6.064350E-05 +1.896651E-04 -6.064350E-05 +4.810922E-03 
 +3.087617E-05 +8.367945E-05 +8.423092E-05 +8.367945E-05 +1.099683E-04 +5.728318E-05 +8.423092E-05 +5.728318E-05 +4.777308E-03 
 -7.083465E-06 +9.566600E-05 -1.081995E-04 +9.566600E-05 +1.123938E-04 +2.223389E-04 -1.081995E-04 +2.223389E-04 +4.767976E-03 
 -3.066888E-05 +8.367832E-05 -1.110024E-04 +8.367832E-05 +1.278366E-04 +1.568821E-04 -1.110024E-04 +1.568821E-04 +4.819128E-03 
 -1.205106E-04 -4.077181E-05 -2.315331E-04 -4.077181E-05 +3.845080E-05 -3.687400E-05 -2.315331E-04 -3.687400E-05 +4.949456E-03 
 +1.206325E-04 +7.596426E-05 -1.044906E-04 +7.596426E-05 -5.566258E-05 -2.287947E-05 -1.044906E-04 -2.287947E-05 +5.038741E-03 
 +1.503237E-04 +7.755349E-05 -9.301115E-05 +7.755349E-05 -1.165357E-04 -7.792052E-05 -9.301115E-05 -7.792052E-05 +5.115163E-03 
 +1.119951E-04 +3.880614E-05 -1.899264E-05 +3.880614E-05 -1.158006E-04 -1.037303E-04 -1.899264E-05 -1.037303E-04 +5.082698E-03 
 +3.941655E-05 +2.328341E-05 +3.591296E-05 +2.328341E-05 -8.738444E-05 -8.404780E-05 +3.591296E-05 -8.404780E-05 +5.014043E-03 
 -5.754100E-05 -9.006338E-05 +5.955131E-05 -9.006338E-05 -2.989875E-05 -6.279544E-05 +5.955131E-05 -6.279544E-05 +4.960041E-03 
 -3.557151E-05 -2.587801E-04 +3.932095E-05 -2.587801E-04 +8.829633E-05 +5.052188E-05 +3.932095E-05 +5.052188E-05 +4.841292E-03 
 +4.273962E-06 -2.494625E-04 -9.946813E-05 -2.494625E-04 +2.170131E-04 +1.302383E-04 -9.946813E-05 +1.302383E-04 +4.693738E-03 
 +2.416191E-05 -1.922789E-04 -9.524036E-05 -1.922789E-04 +2.475675E-04 +1.021802E-04 -9.524036E-05 +1.021802E-04 +4.602121E-03 
 -8.454435E-05 -1.639379E-04 -5.470996E-05 -1.639379E-04 +2.841008E-04 +7.237830E-05 -5.470996E-05 +7.237830E-05 +4.673428E-03 
 -3.625566E-04 -2.140072E-05 +1.708465E-06 -2.140072E-05 +2.922000E-04 +2.652242E-05 +1.708465E-06 +2.652242E-05 +4.806479E-03 
 -7.109752E-05 -1.349083E-04 -1.991946E-05 -1.349083E-04 +1.937497E-04 -8.847003E-06 -1.991946E-05 -8.847003E-06 +4.763987E-03 
 +9.130341E-05 +8.369167E-05 +3.821231E-05 +8.369167E-05 +1.581699E-04 +4.002757E-05 +3.821231E-05 +4.002757E-05 +4.665953E-03 
 +9.825575E-05 +1.573962E-04 +3.481888E-05 +1.573962E-04 +2.025477E-04 +1.318282E-04 +3.481888E-05 +1.318282E-04 +4.632889E-03 
 +6.525157E-05 +1.411900E-04 -6.023686E-06 +1.411900E-04 +1.705136E-04 +1.103717E-04 -6.023686E-06 +1.103717E-04 +4.598797E-03 
 +6.305393E-05 +1.812528E-04 -7.948969E-05 +1.812528E-04 +1.390306E-04 -5.487800E-06 -7.948969E-05 -5.487800E-06 +4.676517E-03 
 +4.995476E-05 +1.121364E-04 +1.030096E-04 +1.121364E-04 +1.861571E-04 -9.955192E-05 +1.030096E-04 -9.955192E-05 +4.835338E-03 
 +1.983327E-05 +4.156640E-05 +1.817143E-04 +4.156640E-05 +1.756458E-04 -8.050901E-05 +1.817143E-04 -8.050901E-05 +4.867311E-03 
 -1.870536E-06 +3.524044E-05 +9.558775E-05 +3.524044E-05 +1.597144E-04 +3.305829E-05 +9.558775E-05 +3.305829E-05 +4.805916E-03 
 -1.590513E-05 +2.417342E-05 -1.027643E-04 +2.417342E-05 +1.607674E-04 +9.858803E-05 -1.027643E-04 +9.858803E-05 +4.771635E-03 
 -8.877986E-05 -3.831833E-05 -1.809204E-04 -3.831833E-05 +1.183482E-04 +1.472592E-05 -1.809204E-04 +1.472592E-05 +4.835094E-03 
 -7.772783E-05 -5.703347E-05 -1.338056E-04 -5.703347E-05 +1.589873E-05 -1.123145E-06 -1.338056E-04 -1.123145E-06 +4.955062E-03 
 +9.618951E-05 +1.774361E-05 -1.245492E-04 +1.774361E-05 -1.238935E-04 +2.730607E-05 -1.245492E-04 +2.730607E-05 +5.007975E-03 
 +1.931617E-04 +9.605288E-05 -8.762616E-05 +9.605288E-05 -1.922021E-04 +2.261878E-05 -8.762616E-05 +2.261878E-05 +5.060698E-03 
 +1.568928E-04 +1.361669E-04 -8.984307E-06 +1.361669E-04 -1.104990E-04 +5.508541E-06 -8.984307E-06 +5.508541E-06 +4.984753E-03 
 +2.623436E-05 +1.260674E-04 +8.244896E-05 +1.260674E-04 +4.221921E-05 +1.995576E-05 +8.244896E-05 +1.995576E-05 +4.970450E-03 
 -1.175647E-04 +1.096311E-05 +6.348564E-05 +1.096311E-05 +1.904045E-04 +9.559329E-06 +6.348564E-05 +9.559329E-06 +5.025763E-03 
 -1.072873E-04 -1.850767E-04 +1.074363E-04 -1.850767E-04 +2.326191E-04 +4.028399E-05 +1.074363E-04 +4.028399E-05 +4.939935E-03 
 +8.823804E-05 -2.644847E-04 -5.217113E-05 -2.644847E-04 +2.108842E-04 +1.170902E-04 -5.217113E-05 +1.170902E-04 +4.796688E-03 
 +1.124166E-04 -3.006849E-04 -8.252584E-05 -3.006849E-04 +2.124275E-04 +6.875006E-05 -8.252584E-05 +6.875006E-05 +4.746728E-03 
 -2.000156E-04 -1.425939E-04 -5.282102E-06 -1.425939E-04 +2.309028E-04 -1.794045E-06 -5.282102E-06 -1.794045E-06 +4.857996E-03 
 -2.300204E-04 -1.123264E-05 -1.876763E-05 -1.123264E-05 +1.390103E-04 +2.327742E-05 -1.876763E-05 +2.327742E-05 +4.937812E-03 
 +4.734836E-05 +4.812166E-05 -1.271995E-04 +4.812166E-05 +8.428195E-05 +3.367539E-05 -1.271995E-04 +3.367539E-05 +4.788249E-03 
 +1.322734E-04 +2.377981E-04 -4.301100E-05 +2.377981E-04 -8.402009E-06 -3.151262E-05 -4.301100E-05 -3.151262E-05 +4.694801E-03 
 +1.387194E-04 +3.588695E-04 +5.992289E-06 +3.588695E-04 -8.768313E-05 -3.656829E-05 +5.992289E-06 -3.656829E-05 +4.737308E-03 
 +2.906139E-05 +2.738665E-04 -1.860605E-04 +2.738665E-04 +5.891003E-05 +6.796227E-06 -1.860605E-04 +6.796227E-06 +4.712090E-03 
 +2.529131E-05 +3.512676E-04 -1.846207E-04 +3.512676E-04 +1.473120E-04 +2.889546E-05 -1.846207E-04 +2.889546E-05 +4.695194E-03 
 +2.498935E-05 +2.298687E-04 +6.223402E-06 +2.298687E-04 +1.507080E-04 -2.385754E-05 +6.223402E-06 -2.385754E-05 +4.853009E-03 
 -9.640942E-05 +6.801374E-05 +1.709467E-04 +6.801374E-05 +1.652231E-04 -6.471329E-05 +1.709467E-04 -6.471329E-05 +4.945685E-03 
 -8.345004E-05 +4.270215E-05 +1.060324E-04 +4.270215E-05 +1.665871E-04 -3.630702E-05 +1.060324E-04 -3.630702E-05 +4.903372E-03 
 -7.049286E-05 +2.051209E-05 -1.814971E-05 +2.051209E-05 +1.108199E-04 -2.028451E-05 -1.814971E-05 -2.028451E-05 +4.909341E-03 
 -8.792250E-05 -2.675381E-05 -8.820642E-05 -2.675381E-05 +7.148806E-05 -1.782368E-05 -8.820642E-05 -1.782368E-05 +4.937279E-03 
 -4.502912E-05 -7.454731E-05 -6.194063E-05 -7.454731E-05 +2.524846E-05 -9.921542E-06 -6.194063E-05 -9.921542E-06 +4.962737E-03 
 -2.790754E-06 -7.829024E-05 -1.121844E-04 -7.829024E-05 -4.234244E-05 +3.890916E-06 -1.121844E-04 +3.890916E-06 +4.980755E-03 
 +1.937253E-04 +4.867744E-07 -8.893392E-06 +4.867744E-07 -1.712735E-04 +7.454128E-05 -8.893392E-06 +7.454128E-05 +5.013115E-03 
 +1.806131E-04 +1.048684E-04 -4.172629E-05 +1.048684E-04 -4.108130E-05 +1.324491E-04 -4.172629E-05 +1.324491E-04 +4.967393E-03 
 +2.723637E-05 +3.066749E-05 +4.287305E-05 +3.066749E-05 +1.586482E-04 +9.818387E-05 +4.287305E-05 +9.818387E-05 +5.007815E-03 
 -5.898507E-05 -3.050143E-05 +2.158378E-05 -3.050143E-05 +1.995307E-04 +7.423048E-05 +2.158378E-05 +7.423048E-05 +5.089803E-03 
 -2.655576E-05 -9.698373E-05 +7.473824E-05 -9.698373E-05 +2.967411E-04 +4.061904E-05 +7.473824E-05 +4.061904E-05 +5.067757E-03 
 +6.070363E-05 -1.296410E-04 +9.879838E-06 -1.296410E-04 +3.199079E-04 -6.505020E-05 +9.879838E-06 -6.505020E-05 +4.996275E-03 
 +9.429197E-05 -1.980386E-04 -5.477100E-05 -1.980386E-04 +2.365252E-04 -8.242744E-05 -5.477100E-05 -8.242744E-05 +4.871314E-03 
 -7.915602E-05 -5.673691E-05 +1.391516E-05 -5.673691E-05 +1.760220E-04 -3.993768E-05 +1.391516E-05 -3.993768E-05 +4.862449E-03 
 -9.308629E-05 +2.368717E-05 +2.113689E-05 +2.368717E-05 +9.576816E-05 -5.491614E-05 +2.113689E-05 -5.491614E-05 +4.915017E-03 
 +1.131424E-04 +7.034807E-05 -1.842219E-04 +7.034807E-05 +5.141439E-05 -4.142783E-05 -1.842219E-04 -4.142783E-05 +4.874222E-03 
 +1.277984E-04 +8.088645E-05 -1.402594E-04 +8.088645E-05 +7.053020E-05 -1.275544E-05 -1.402594E-04 -1.275544E-05 +4.771103E-03 
 +4.462556E-05 +2.508467E-04 +1.210137E-05 +2.508467E-04 +3.736085E-05 -3.990260E-05 +1.210137E-05 -3.990260E-05 +4.728304E-03 
 +2.917697E-05 +1.962104E-04 -2.220783E-04 +1.962104E-04 +2.297976E-05 -1.637984E-05 -2.220783E-04 -1.637984E-05 +4.768970E-03 
 +3.225352E-06 +2.367946E-04 -1.572674E-04 +2.367946E-04 +9.498633E-05 +4.121118E-05 -1.572674E-04 +4.121118E-05 +4.771466E-03 
 -7.383527E-05 +1.138385E-04 +2.423720E-05 +1.138385E-04 +1.580357E-04 -2.885199E-05 +2.423720E-05 -2.885199E-05 +4.885860E-03 
 -1.534006E-04 +1.928890E-05 +1.740651E-04 +1.928890E-05 +1.737669E-04 -6.610527E-05 +1.740651E-04 -6.610527E-05 +4.982722E-03 
 -1.318520E-04 +3.961152E-05 +1.010429E-04 +3.961152E-05 +1.487333E-04 -3.334558E-05 +1.010429E-04 -3.334558E-05 +4.961382E-03 
 -1.194749E-04 +1.264066E-05 +3.674474E-05 +1.264066E-05 +1.113331E-04 -3.299577E-05 +3.674474E-05 -3.299577E-05 +4.978607E-03 
 -9.040239E-05 -3.079937E-05 -2.852988E-05 -3.079937E-05 +4.994526E-05 -2.448150E-05 -2.852988E-05 -2.448150E-05 +4.977779E-03 
 -3.635281E-05 -9.725603E-05 -1.586938E-05 -9.725603E-05 +3.027088E-05 -7.206312E-05 -1.586938E-05 -7.206312E-05 +4.945814E-03 
 +1.722531E-05 -6.402588E-05 -6.186509E-05 -6.402588E-05 +2.430544E-05 -1.415249E-05 -6.186509E-05 -1.415249E-05 +4.899720E-03 
 +1.627042E-04 +4.743852E-05 +3.505417E-05 +4.743852E-05 -1.294842E-04 +4.357255E-05 +3.505417E-05 +4.357255E-05 +4.957097E-03 
 +2.189794E-04 +3.813907E-04 -8.580432E-05 +3.813907E-04 -3.680799E-04 +5.649289E-05 -8.580432E-05 +5.649289E-05 +5.010654E-03 
 +1.158828E-04 +3.246384E-04 -3.662138E-05 +3.246384E-04 -4.076323E-04 +4.724589E-05 -3.662138E-05 +4.724589E-05 +5.086388E-03 
 +6.359232E-05 +2.641570E-04 +4.064549E-06 +2.641570E-04 -3.629383E-04 +5.223707E-05 +4.064549E-06 +5.223707E-05 +5.151278E-03 
 +7.602959E-05 +1.860158E-04 +6.514198E-05 +1.860158E-04 -2.174753E-04 +7.548473E-05 +6.514198E-05 +7.548473E-05 +5.191848E-03 
 +2.463507E-05 +1.470392E-05 +4.535796E-05 +1.470392E-05 +9.264207E-05 +1.680161E-05 +4.535796E-05 +1.680161E-05 +5.094022E-03 
 -5.035373E-06 -9.623094E-05 -4.152489E-06 -9.623094E-05 +3.355248E-04 -4.803677E-05 -4.152489E-06 -4.803677E-05 +4.742465E-03 
 +1.619030E-05 -3.736580E-05 +3.822204E-05 -3.736580E-05 +3.642473E-04 -5.168175E-05 +3.822204E-05 -5.168175E-05 +4.566081E-03 
 -1.408724E-05 -4.564931E-05 +4.335826E-05 -4.564931E-05 +2.552534E-04 -4.005390E-05 +4.335826E-05 -4.005390E-05 +4.630636E-03 
 +3.431404E-05 +4.560308E-05 -1.517319E-04 +4.560308E-05 +1.078012E-04 -2.991615E-05 -1.517319E-04 -2.991615E-05 +4.811625E-03 
 +5.890858E-06 +8.715403E-05 -1.992588E-04 +8.715403E-05 +1.033887E-04 +1.314464E-05 -1.992588E-04 +1.314464E-05 +4.831466E-03 
 -2.262879E-05 +1.385162E-04 -5.787917E-05 +1.385162E-04 +1.071911E-04 -3.524658E-05 -5.787917E-05 -3.524658E-05 +4.742547E-03 
 +5.702098E-06 +1.685031E-04 -1.325826E-04 +1.685031E-04 +2.569328E-05 -8.617207E-05 -1.325826E-04 -8.617207E-05 +4.812820E-03 
 -2.708773E-06 +2.260467E-04 -1.500429E-04 +2.260467E-04 +2.418138E-05 +1.334984E-05 -1.500429E-04 +1.334984E-05 +4.814975E-03 
 -6.996045E-05 +1.729744E-04 -2.564733E-05 +1.729744E-04 +1.112330E-04 -7.508273E-06 -2.564733E-05 -7.508273E-06 +4.884841E-03 
 -1.523276E-04 +1.803833E-05 +1.820747E-04 +1.803833E-05 +1.528723E-04 -7.520231E-05 +1.820747E-04 -7.520231E-05 +4.987088E-03 
 -1.530950E-04 +3.602134E-05 +1.167965E-04 +3.602134E-05 +1.435608E-04 -5.734120E-05 +1.167965E-04 -5.734120E-05 +4.996121E-03 
 -1.747773E-04 -1.284815E-05 +7.069876E-05 -1.284815E-05 +1.433118E-04 -5.905553E-05 +7.069876E-05 -5.905553E-05 +5.013373E-03 
 -1.100279E-04 -7.718674E-05 +1.464620E-05 -7.718674E-05 +8.986131E-05 -6.241934E-05 +1.464620E-05 -6.241934E-05 +4.997285E-03 
 +4.836228E-05 -2.514326E-05 +3.597474E-05 -2.514326E-05 +4.643845E-05 -9.527923E-05 +3.597474E-05 -9.527923E-05 +4.909616E-03 
 +2.283053E-04 +1.312199E-04 +2.173671E-05 +1.312199E-04 +1.198050E-04 -2.692585E-05 +2.173671E-05 -2.692585E-05 +4.755780E-03 
 +2.069401E-04 +1.295573E-04 -3.149227E-05 +1.295573E-04 +1.759893E-04 +8.333237E-06 -3.149227E-05 +8.333237E-06 +4.812391E-03 
 +1.506546E-04 +3.071976E-04 -1.214252E-04 +3.071976E-04 -1.067503E-04 +5.561133E-05 -1.214252E-04 +5.561133E-05 +4.981295E-03 
 +1.668371E-04 +3.314666E-04 -1.713772E-05 +3.314666E-04 -3.376981E-04 +1.074616E-04 -1.713772E-05 +1.074616E-04 +5.063030E-03 
 +1.249411E-04 +1.890675E-04 +1.495030E-05 +1.890675E-04 -3.004134E-04 +1.025291E-04 +1.495030E-05 +1.025291E-04 +5.122770E-03 
 +6.093409E-05 +1.895387E-04 +7.239611E-05 +1.895387E-04 -2.716901E-04 +1.070179E-04 +7.239611E-05 +1.070179E-04 +5.203881E-03 
 -8.202225E-06 +1.874884E-04 +4.328216E-05 +1.874884E-04 -9.526934E-06 +6.886157E-05 +4.328216E-05 +6.886157E-05 +5.148242E-03 
 -5.233943E-06 +1.651131E-05 -6.150817E-06 +1.651131E-05 +3.617794E-04 -7.710469E-06 -6.150817E-06 -7.710469E-06 +4.798484E-03 
 +9.340831E-05 -3.306691E-05 +5.162519E-06 -3.306691E-05 +3.682544E-04 -1.374052E-05 +5.162519E-06 -1.374052E-05 +4.499049E-03 
 +4.967687E-05 +9.201636E-05 -1.925474E-05 +9.201636E-05 +3.298281E-04 +8.552928E-06 -1.925474E-05 +8.552928E-06 +4.534177E-03 
 -1.616441E-04 -8.276704E-06 -1.035294E-04 -8.276704E-06 +2.935833E-04 +3.871858E-05 -1.035294E-04 +3.871858E-05 +4.813759E-03 
 -1.772918E-04 +9.725510E-05 -2.592858E-04 +9.725510E-05 +1.145839E-04 +3.383819E-05 -2.592858E-04 +3.383819E-05 +4.939815E-03 
 -6.082239E-05 +1.029858E-04 -1.544195E-04 +1.029858E-04 +4.360225E-05 -4.218434E-05 -1.544195E-04 -4.218434E-05 +4.869702E-03 
 -6.043033E-05 +1.337404E-04 -8.845354E-05 +1.337404E-04 +1.255677E-05 -9.768197E-05 -8.845354E-05 -9.768197E-05 +4.857902E-03 
 -3.179709E-05 +1.863589E-04 -1.322416E-04 +1.863589E-04 +9.347816E-06 -6.000282E-05 -1.322416E-04 -6.000282E-05 +4.817225E-03 
 -2.237368E-05 +1.487709E-04 -1.254178E-04 +1.487709E-04 +7.786333E-05 -3.550909E-05 -1.254178E-04 -3.550909E-05 +4.877437E-03 
 -1.984960E-04 -9.590725E-05 +1.497722E-04 -9.590725E-05 +1.379669E-04 -9.744935E-05 +1.497722E-04 -9.744935E-05 +5.002780E-03 
 -1.813091E-04 -5.588329E-05 +1.132347E-04 -5.588329E-05 +1.374068E-04 -1.499882E-04 +1.132347E-04 -1.499882E-04 +5.049296E-03 
 -1.368336E-04 -7.811621E-05 +1.177578E-04 -7.811621E-05 +1.478067E-04 -1.737884E-04 +1.177578E-04 -1.737884E-04 +5.063326E-03 
 -8.538725E-05 -1.096844E-04 +6.622757E-05 -1.096844E-04 +9.803463E-05 -1.413736E-04 +6.622757E-05 -1.413736E-04 +5.018677E-03 
 +1.862450E-04 +9.948799E-05 +9.596750E-05 +9.948799E-05 +3.324968E-05 -8.880586E-05 +9.596750E-05 -8.880586E-05 +4.852673E-03 
 +3.286549E-04 +1.825001E-04 +9.318153E-05 +1.825001E-04 +1.111352E-04 -5.483773E-05 +9.318153E-05 -5.483773E-05 +4.663641E-03 
 +2.488801E-04 +9.983713E-05 -1.268743E-05 +9.983713E-05 +2.530563E-04 +3.470497E-05 -1.268743E-05 +3.470497E-05 +4.736773E-03 
 +1.280725E-05 +4.034296E-05 -1.272902E-04 +4.034296E-05 +1.672663E-04 +1.180962E-04 -1.272902E-04 +1.180962E-04 +4.920541E-03 
 +1.259363E-04 +2.974115E-04 +1.876600E-05 +2.974115E-04 -1.471442E-04 +1.162215E-04 +1.876600E-05 +1.162215E-04 +4.985806E-03 
 +1.348697E-04 +1.984310E-04 +2.262750E-05 +1.984310E-04 -2.269430E-04 +7.834767E-05 +2.262750E-05 +7.834767E-05 +5.034579E-03 
 +1.434069E-04 +2.100239E-04 +1.383159E-05 +2.100239E-04 -1.908117E-04 +6.549491E-05 +1.383159E-05 +6.549491E-05 +5.065305E-03 
 +6.926999E-05 +3.529759E-04 -2.659369E-06 +3.529759E-04 -2.320761E-04 +5.801868E-05 -2.659369E-06 +5.801868E-05 +5.121219E-03 
 +1.102808E-04 +3.022622E-04 -2.492496E-05 +3.022622E-04 -1.094085E-04 +3.023221E-05 -2.492496E-05 +3.023221E-05 +5.046981E-03 
 +9.612908E-05 +1.322561E-05 -1.949195E-05 +1.322561E-05 +1.143988E-04 -3.963267E-06 -1.949195E-05 -3.963267E-06 +4.784538E-03 
 -4.504043E-05 +7.125439E-05 -4.463040E-05 +7.125439E-05 +1.942952E-04 -2.487823E-05 -4.463040E-05 -2.487823E-05 +4.777160E-03 
 -3.657233E-04 -1.476884E-04 -6.256661E-05 -1.476884E-04 +2.202099E-04 -3.583862E-05 -6.256661E-05 -3.583862E-05 +5.017016E-03 
 -2.725964E-04 +3.230967E-05 -2.051611E-04 +3.230967E-05 +1.318988E-04 -3.431152E-05 -2.051611E-04 -3.431152E-05 +5.056410E-03 
 -1.867753E-04 +9.978964E-05 -1.764971E-04 +9.978964E-05 +4.852859E-05 -8.929432E-05 -1.764971E-04 -8.929432E-05 +4.934469E-03 
 -1.562693E-04 +7.547529E-05 -1.198638E-04 +7.547529E-05 +1.151258E-05 -1.529228E-04 -1.198638E-04 -1.529228E-04 +4.859620E-03 
 -7.307704E-05 +1.656631E-04 -1.389180E-04 +1.656631E-04 -4.505946E-05 -1.337737E-04 -1.389180E-04 -1.337737E-04 +4.859824E-03 
 -5.671731E-05 +1.730611E-04 -1.169899E-04 +1.730611E-04 -1.150366E-05 -9.827412E-05 -1.169899E-04 -9.827412E-05 +4.977548E-03 
 -1.708071E-04 -1.167062E-04 +1.222209E-04 -1.167062E-04 +3.770548E-05 -1.128737E-04 +1.222209E-04 -1.128737E-04 +5.080882E-03 
 -9.345113E-05 -3.205672E-05 +1.256734E-04 -3.205672E-05 -5.904810E-05 -1.003354E-04 +1.256734E-04 -1.003354E-04 +5.107567E-03 
 -2.933242E-05 +5.087559E-05 +1.381557E-04 +5.087559E-05 -1.653744E-04 -8.644781E-05 +1.381557E-04 -8.644781E-05 +5.112366E-03 
 -6.468410E-06 +1.444230E-05 +1.076276E-04 +1.444230E-05 -8.831082E-05 -9.218538E-05 +1.076276E-04 -9.218538E-05 +5.028575E-03 
 +1.709846E-04 +1.066888E-04 +8.991467E-05 +1.066888E-04 -9.028717E-06 -1.521302E-04 +8.991467E-05 -1.521302E-04 +4.784153E-03 
 +3.119597E-04 +7.311721E-05 +9.963895E-05 +7.311721E-05 +1.463401E-04 -1.229811E-04 +9.963895E-05 -1.229811E-04 +4.603133E-03 
 +3.048021E-04 +9.020266E-05 +5.221034E-05 +9.020266E-05 +2.215553E-04 -1.935013E-05 +5.221034E-05 -1.935013E-05 +4.692532E-03 
 -2.195841E-06 -1.345702E-04 -1.107460E-04 -1.345702E-04 +2.898210E-04 +1.235635E-04 -1.107460E-04 +1.235635E-04 +4.880213E-03 
 +3.437900E-05 +5.499841E-05 -3.800396E-05 +5.499841E-05 +8.021815E-05 +1.702946E-04 -3.800396E-05 +1.702946E-04 +4.935469E-03 
 +2.174148E-04 +1.403218E-04 -2.459553E-05 +1.403218E-04 -1.748616E-04 +1.291098E-04 -2.459553E-05 +1.291098E-04 +4.986298E-03 
 +2.573846E-04 +1.830287E-04 -2.432115E-05 +1.830287E-04 -2.393386E-04 +8.062868E-05 -2.432115E-05 +8.062868E-05 +4.993993E-03 
 +2.415187E-04 +3.380822E-04 +7.733177E-06 +3.380822E-04 -2.140345E-04 +2.520351E-05 +7.733177E-06 +2.520351E-05 +5.042336E-03 
 +6.788067E-05 +2.193053E-04 +4.006620E-05 +2.193053E-04 -2.703319E-04 -7.391344E-06 +4.006620E-05 -7.391344E-06 +5.108554E-03 
 -1.790349E-04 -1.469211E-04 +5.022539E-05 -1.469211E-04 -1.941002E-04 -4.312316E-05 +5.022539E-05 -4.312316E-05 +5.067203E-03 
 -2.083637E-04 -2.172995E-04 +3.766638E-06 -2.172995E-04 -2.728327E-05 -7.179790E-05 +3.766638E-06 -7.179790E-05 +5.051257E-03 
 -3.002483E-04 -2.685634E-04 -3.097657E-05 -2.685634E-04 +9.794726E-05 -6.933540E-05 -3.097657E-05 -6.933540E-05 +5.085236E-03 
 -2.915714E-04 -1.591901E-04 -7.293985E-05 -1.591901E-04 +1.532425E-04 -6.878185E-05 -7.293985E-05 -6.878185E-05 +5.028892E-03 
 -2.585614E-04 +8.159214E-05 -1.613778E-04 +8.159214E-05 +9.201075E-05 -5.373227E-05 -1.613778E-04 -5.373227E-05 +4.964232E-03 
 -2.668089E-04 +4.560533E-05 -1.032425E-04 +4.560533E-05 +6.467198E-05 -1.073528E-04 -1.032425E-04 -1.073528E-04 +4.948145E-03 
 -1.539593E-04 +1.202569E-04 -1.150258E-04 +1.202569E-04 -2.603472E-05 -1.884627E-04 -1.150258E-04 -1.884627E-04 +4.974142E-03 
 -2.851851E-05 +1.348392E-04 -1.616378E-05 +1.348392E-04 -1.890312E-04 -7.829534E-05 -1.616378E-05 -7.829534E-05 +5.093369E-03 
 +1.519405E-06 +1.664475E-06 +6.617702E-05 +1.664475E-06 -2.776140E-04 +3.412477E-05 +6.617702E-05 +3.412477E-05 +5.150838E-03 
 +1.734904E-05 +2.825762E-05 +1.086733E-04 +2.825762E-05 -1.921189E-04 -1.128101E-05 +1.086733E-04 -1.128101E-05 +5.115515E-03 
 +4.244174E-05 +5.218380E-05 +1.421961E-04 +5.218380E-05 -1.877501E-04 -3.000220E-05 +1.421961E-04 -3.000220E-05 +5.113424E-03 
 +2.161582E-05 +6.904106E-05 +6.090747E-05 +6.904106E-05 -2.015268E-04 -9.538386E-05 +6.090747E-05 -9.538386E-05 +5.005101E-03 
 +1.359246E-04 +1.187823E-04 +4.875198E-05 +1.187823E-04 -6.257418E-05 -2.875778E-06 +4.875198E-05 -2.875778E-06 +4.790463E-03 
 +2.245156E-04 +9.722540E-05 +1.265832E-04 +9.722540E-05 -2.111797E-05 -1.847448E-05 +1.265832E-04 -1.847448E-05 +4.714933E-03 
 +2.909069E-04 +1.004293E-05 +1.063812E-04 +1.004293E-05 +1.294688E-04 +4.136410E-05 +1.063812E-04 +4.136410E-05 +4.749659E-03 
 +1.487096E-04 -2.004592E-04 -7.525959E-05 -2.004592E-04 +2.551101E-04 +1.393567E-04 -7.525959E-05 +1.393567E-04 +4.858013E-03 
 +2.417330E-04 -1.156649E-05 -1.516582E-04 -1.156649E-05 +1.658882E-04 +1.740885E-04 -1.516582E-04 +1.740885E-04 +4.883219E-03 
 +3.375055E-04 +3.201316E-04 -1.250855E-04 +3.201316E-04 -1.433616E-04 +1.260372E-04 -1.250855E-04 +1.260372E-04 +4.938109E-03 
 +1.771600E-04 +3.239223E-04 -2.511823E-05 +3.239223E-04 -2.838154E-04 +6.090084E-05 -2.511823E-05 +6.090084E-05 +4.997940E-03 
 +5.233898E-05 +2.870501E-04 +3.524796E-06 +2.870501E-04 -1.892965E-04 +6.866566E-07 +3.524796E-06 +6.866566E-07 +5.036529E-03 
 -2.510966E-04 -1.763363E-04 +7.202485E-05 -1.763363E-04 -8.683752E-05 -3.458433E-05 +7.202485E-05 -3.458433E-05 +5.098403E-03 
 -2.820890E-04 -2.830824E-04 +7.194577E-05 -2.830824E-04 -6.871274E-05 -2.104121E-05 +7.194577E-05 -2.104121E-05 +5.141346E-03 
 -2.165770E-04 -2.647766E-04 +4.210429E-05 -2.647766E-04 -2.533828E-05 -9.630329E-06 +4.210429E-05 -9.630329E-06 +5.116697E-03 
 -1.631955E-04 -2.340051E-04 +2.960061E-05 -2.340051E-04 +2.135160E-05 -1.433113E-05 +2.960061E-05 -1.433113E-05 +5.058046E-03 
 -2.230515E-04 -1.855394E-04 +2.630269E-05 -1.855394E-04 +1.727677E-04 -2.748935E-05 +2.630269E-05 -2.748935E-05 +5.007844E-03 
 -3.380040E-04 -5.985858E-06 -3.739036E-05 -5.985858E-06 +2.745421E-04 +3.823769E-05 -3.739036E-05 +3.823769E-05 +5.015059E-03 
 -3.243198E-04 -9.078281E-05 -8.419427E-06 -9.078281E-05 +2.401928E-04 +3.782920E-05 -8.419427E-06 +3.782920E-05 +5.052434E-03 
 -2.506769E-04 -1.594300E-05 -5.572838E-05 -1.594300E-05 +1.179224E-04 -9.678423E-05 -5.572838E-05 -9.678423E-05 +5.040877E-03 
 +1.833153E-04 -7.202976E-06 +1.503812E-05 -7.202976E-06 -1.829503E-04 -6.315621E-05 +1.503812E-05 -6.315621E-05 +5.061711E-03 
 +1.214070E-04 +2.590602E-05 -1.559235E-05 +2.590602E-05 -2.988491E-04 +2.771618E-05 -1.559235E-05 +2.771618E-05 +5.133920E-03 
 +7.822696E-05 +2.218123E-05 +6.512752E-05 +2.218123E-05 -1.767539E-04 +2.132272E-05 +6.512752E-05 +2.132272E-05 +5.093102E-03 
 +5.871928E-05 -1.174902E-05 +1.454757E-04 -1.174902E-05 -8.554857E-05 +5.903308E-05 +1.454757E-04 +5.903308E-05 +5.047240E-03 
 -1.477220E-06 +2.509025E-05 -1.818850E-05 +2.509025E-05 -1.632883E-05 +3.963841E-05 -1.818850E-05 +3.963841E-05 +4.943250E-03 
 +1.235141E-04 +1.268387E-04 +6.096676E-05 +1.268387E-04 -1.702754E-04 +1.137365E-04 +6.096676E-05 +1.137365E-04 +4.884307E-03 
 +1.119336E-04 +2.524351E-04 +1.913879E-04 +2.524351E-04 -2.586082E-04 +1.738483E-04 +1.913879E-04 +1.738483E-04 +4.977402E-03 
 +2.537974E-04 +1.889161E-04 +1.783608E-04 +1.889161E-04 -2.771814E-04 +1.754883E-04 +1.783608E-04 +1.754883E-04 +4.930461E-03 
 +3.470498E-04 +1.056163E-04 +1.794212E-05 +1.056163E-04 -9.307204E-05 +1.519245E-04 +1.794212E-05 +1.519245E-04 +4.872245E-03 
 +2.937869E-04 -2.321756E-04 -1.467150E-04 -2.321756E-04 +1.104718E-04 +1.680237E-04 -1.467150E-04 +1.680237E-04 +4.875455E-03 
 +1.203129E-04 -2.371901E-04 -1.678611E-04 -2.371901E-04 +1.643081E-04 +1.033023E-04 -1.678611E-04 +1.033023E-04 +4.902804E-03 
 -7.884410E-05 -3.270645E-04 -3.873252E-05 -3.270645E-04 +2.497784E-04 -2.500310E-05 -3.873252E-05 -2.500310E-05 +4.968158E-03 
 -2.181754E-04 -2.649951E-04 +5.588739E-06 -2.649951E-04 +9.468070E-05 -6.129062E-05 +5.588739E-06 -6.129062E-05 +5.042446E-03 
 -2.627850E-04 -3.415407E-04 +3.412817E-05 -3.415407E-04 -6.500168E-05 -4.461488E-05 +3.412817E-05 -4.461488E-05 +5.098359E-03 
 -1.924967E-04 -3.167551E-04 +6.695215E-05 -3.167551E-04 -4.799017E-05 -2.788368E-05 +6.695215E-05 -2.788368E-05 +5.099945E-03 
 -1.594001E-04 -3.334656E-04 +9.229832E-05 -3.334656E-04 -4.057412E-05 -2.002957E-05 +9.229832E-05 -2.002957E-05 +5.088913E-03 
 -1.514683E-04 -3.490905E-04 +1.074721E-04 -3.490905E-04 -1.766592E-05 -8.197909E-05 +1.074721E-04 -8.197909E-05 +5.080807E-03 
 -1.512899E-04 -2.273842E-04 +1.673624E-04 -2.273842E-04 +1.436646E-04 -1.065100E-04 +1.673624E-04 -1.065100E-04 +5.021058E-03 
 -2.891766E-04 -9.910919E-05 +1.778998E-04 -9.910919E-05 +3.109161E-04 -3.801711E-05 +1.778998E-04 -3.801711E-05 +4.982534E-03 
 -2.460172E-04 -3.938061E-05 +1.154569E-04 -3.938061E-05 +2.873710E-04 -2.026061E-05 +1.154569E-04 -2.026061E-05 +4.991435E-03 
 -1.959167E-04 +4.133844E-06 +3.726837E-06 +4.133844E-06 +8.080875E-05 -1.117812E-04 +3.726837E-06 -1.117812E-04 +5.010492E-03 
 +2.849702E-04 -6.264837E-05 -1.665766E-05 -6.264837E-05 -2.499058E-04 -1.183730E-04 -1.665766E-05 -1.183730E-04 +5.024855E-03 
 +1.537466E-04 +1.254681E-04 -5.095520E-05 +1.254681E-04 -3.887069E-04 -2.955504E-05 -5.095520E-05 -2.955504E-05 +5.066959E-03 
 +1.242076E-04 +1.452910E-04 +1.430403E-05 +1.452910E-04 -2.482634E-04 +2.971102E-05 +1.430403E-05 +2.971102E-05 +5.051917E-03 
 +7.174573E-05 +6.829608E-05 +5.558309E-05 +6.829608E-05 -5.968333E-05 +4.782432E-05 +5.558309E-05 +4.782432E-05 +4.973309E-03 
 +6.036133E-05 +1.040014E-04 -3.730362E-06 +1.040014E-04 -3.667880E-05 +5.699612E-05 -3.730362E-06 +5.699612E-05 +4.880458E-03 
 +1.067162E-04 +1.784609E-05 +6.851561E-05 +1.784609E-05 -1.319323E-04 +3.088570E-05 +6.851561E-05 +3.088570E-05 +4.989213E-03 
 +1.358749E-04 +1.747194E-04 +1.478439E-04 +1.747194E-04 -2.005746E-04 +7.658433E-05 +1.478439E-04 +7.658433E-05 +5.093044E-03 
 +2.543221E-04 +2.242521E-04 +1.484987E-04 +2.242521E-04 -1.938045E-04 +9.497200E-05 +1.484987E-04 +9.497200E-05 +5.023120E-03 
 +2.544113E-04 +6.884295E-05 +2.910269E-05 +6.884295E-05 -1.045092E-04 +1.669606E-04 +2.910269E-05 +1.669606E-04 +4.958763E-03 
 -5.908332E-05 -3.408000E-04 -8.724774E-05 -3.408000E-04 +2.340604E-05 +2.091414E-04 -8.724774E-05 +2.091414E-04 +4.977287E-03 
 -1.391278E-04 -2.101644E-04 -1.089555E-04 -2.101644E-04 +2.146743E-04 +1.192773E-04 -1.089555E-04 +1.192773E-04 +4.949156E-03 
 -1.985954E-04 -1.558328E-04 -7.379305E-05 -1.558328E-04 +2.261498E-04 +4.858146E-05 -7.379305E-05 +4.858146E-05 +4.964676E-03 
 -2.266662E-04 -1.716604E-04 +2.493542E-05 -1.716604E-04 +1.346864E-04 -2.159413E-05 +2.493542E-05 -2.159413E-05 +5.032499E-03 
 -1.903868E-04 -3.229096E-04 +3.698089E-05 -3.229096E-04 -3.375510E-05 -3.927607E-05 +3.698089E-05 -3.927607E-05 +5.079345E-03 
 -1.349833E-04 -3.384574E-04 +3.853732E-05 -3.384574E-04 -6.294364E-05 -4.985855E-05 +3.853732E-05 -4.985855E-05 +5.078543E-03 
 -1.192800E-04 -3.894016E-04 +1.082710E-04 -3.894016E-04 -5.713323E-05 -7.250666E-05 +1.082710E-04 -7.250666E-05 +5.091143E-03 
 -1.409394E-04 -3.215446E-04 +1.286703E-04 -3.215446E-04 -8.263371E-05 -1.352236E-04 +1.286703E-04 -1.352236E-04 +5.113024E-03 
 -8.498146E-06 -1.852283E-05 +2.948383E-04 -1.852283E-05 +4.207500E-05 -1.202787E-04 +2.948383E-04 -1.202787E-04 +5.030636E-03 
 -8.992258E-05 +6.095582E-06 +2.659154E-04 +6.095582E-06 +1.125555E-04 -3.506883E-05 +2.659154E-04 -3.506883E-05 +4.975886E-03 
 -1.111777E-04 -2.440570E-05 +2.084000E-04 -2.440570E-05 +7.118655E-05 -3.275042E-05 +2.084000E-04 -3.275042E-05 +4.954096E-03 
 -4.640480E-05 -9.297887E-05 +1.070299E-04 -9.297887E-05 -5.271710E-05 -8.610912E-05 +1.070299E-04 -8.610912E-05 +4.944021E-03 
 +2.139679E-04 -1.397691E-04 -4.394013E-06 -1.397691E-04 -2.209976E-04 -1.392001E-04 -4.394013E-06 -1.392001E-04 +4.987391E-03 
 +1.837940E-04 +1.207449E-04 -3.869117E-05 +1.207449E-04 -3.613945E-04 -9.992367E-05 -3.869117E-05 -9.992367E-05 +4.999094E-03 
 +1.390030E-04 +2.283508E-04 -4.576786E-05 +2.283508E-04 -4.123113E-04 -9.063824E-05 -4.576786E-05 -9.063824E-05 +5.028056E-03 
 +8.634536E-05 +1.784293E-04 -2.676495E-05 +1.784293E-04 -2.749097E-04 -7.981831E-05 -2.676495E-05 -7.981831E-05 +5.022445E-03 
 +9.050663E-05 +1.369216E-05 +2.203226E-05 +1.369216E-05 -1.598108E-04 +6.408519E-06 +2.203226E-05 +6.408519E-06 +4.954182E-03 
 +5.782273E-05 +1.714575E-04 +6.766450E-05 +1.714575E-04 -2.717338E-04 -8.693785E-05 +6.766450E-05 -8.693785E-05 +5.129231E-03 
 +1.087027E-04 +1.263576E-04 +7.593715E-05 +1.263576E-04 -1.834594E-04 +7.029680E-05 +7.593715E-05 +7.029680E-05 +5.130937E-03 
 +6.431171E-05 +1.865692E-04 +4.793441E-05 +1.865692E-04 -8.476342E-05 +1.406018E-04 +4.793441E-05 +1.406018E-04 +5.057273E-03 
 -4.334422E-05 -2.038973E-04 -3.313419E-05 -2.038973E-04 -8.326739E-05 +2.536971E-04 -3.313419E-05 +2.536971E-04 +5.036295E-03 
 -9.946858E-05 -3.324710E-04 -6.019718E-05 -3.324710E-04 -8.601259E-05 +2.524101E-04 -6.019718E-05 +2.524101E-04 +5.049190E-03 
 -1.357876E-04 -1.318029E-04 -4.478339E-05 -1.318029E-04 +8.130355E-05 +1.144022E-04 -4.478339E-05 +1.144022E-04 +5.000588E-03 
 -2.093672E-04 -1.391235E-04 -7.949517E-05 -1.391235E-04 +2.060323E-04 +6.101841E-05 -7.949517E-05 +6.101841E-05 +4.989188E-03 
 -2.400437E-04 -2.159840E-04 +5.000260E-06 -2.159840E-04 +1.887718E-04 -6.019398E-06 +5.000260E-06 -6.019398E-06 +5.027729E-03 
 -1.727339E-04 -2.709321E-04 +7.610862E-06 -2.709321E-04 +5.093720E-05 -6.580980E-05 +7.610862E-06 -6.580980E-05 +5.053325E-03 
 -9.081360E-05 -9.119307E-05 -3.772471E-05 -9.119307E-05 -6.142594E-05 -1.188126E-04 -3.772471E-05 -1.188126E-04 +5.077582E-03 
 -1.730953E-04 -2.991452E-04 +7.503245E-05 -2.991452E-04 -1.312464E-04 -1.147618E-04 +7.503245E-05 -1.147618E-04 +5.121462E-03 
 -1.028871E-04 -2.126329E-04 +8.608238E-05 -2.126329E-04 -1.584207E-04 -1.456660E-04 +8.608238E-05 -1.456660E-04 +5.126134E-03 
 +1.537645E-04 +5.625675E-05 +2.861652E-04 +5.625675E-05 -1.063356E-04 -1.349940E-04 +2.861652E-04 -1.349940E-04 +5.062004E-03 
 +5.106111E-05 +4.297639E-06 +2.320190E-04 +4.297639E-06 -2.609838E-05 -4.135103E-05 +2.320190E-04 -4.135103E-05 +5.037277E-03 
 -1.444883E-05 -5.360154E-05 +2.450383E-04 -5.360154E-05 +8.100252E-06 -2.396983E-05 +2.450383E-04 -2.396983E-05 +4.970377E-03 
 +7.877965E-05 -1.923171E-04 +1.882126E-04 -1.923171E-04 -5.056567E-05 -7.550392E-05 +1.882126E-04 -7.550392E-05 +4.920351E-03 
 +1.968630E-04 -2.383914E-04 +1.320780E-05 -2.383914E-04 -1.865880E-04 -1.267221E-04 +1.320780E-05 -1.267221E-04 +4.976381E-03 
 +1.576830E-04 +6.712042E-05 -1.256066E-05 +6.712042E-05 -3.214225E-04 -8.952930E-05 -1.256066E-05 -8.952930E-05 +4.998601E-03 
 +1.548436E-04 +1.917444E-04 -5.372320E-05 +1.917444E-04 -4.127082E-04 -1.044778E-04 -5.372320E-05 -1.044778E-04 +5.042230E-03 
 +1.422606E-04 +2.475924E-04 -5.879027E-05 +2.475924E-04 -4.408035E-04 -1.869859E-04 -5.879027E-05 -1.869859E-04 +5.097170E-03 
 +1.157933E-04 +1.255208E-04 -3.230195E-05 +1.255208E-04 -3.873856E-04 -1.881565E-04 -3.230195E-05 -1.881565E-04 +5.115305E-03 
 +4.878833E-05 +8.334272E-05 -5.902378E-06 +8.334272E-05 -2.700760E-04 -5.735570E-05 -5.902378E-06 -5.735570E-05 +5.187865E-03 
 +6.560615E-07 +1.836470E-04 -1.672179E-05 +1.836470E-04 -1.526082E-04 +7.391525E-05 -1.672179E-05 +7.391525E-05 +5.157653E-03 
 -1.566565E-04 +2.682748E-04 -1.744975E-05 +2.682748E-04 -2.145564E-05 +1.250905E-04 -1.744975E-05 +1.250905E-04 +5.119678E-03 
 -2.534786E-04 -1.003165E-04 +1.154063E-05 -1.003165E-04 -7.940490E-05 +2.172995E-04 +1.154063E-05 +2.172995E-04 +5.116442E-03 
 -2.828913E-04 -2.358503E-04 +2.612991E-05 -2.358503E-04 -4.691386E-05 +2.286774E-04 +2.612991E-05 +2.286774E-04 +5.062816E-03 
 -1.835846E-04 -2.719413E-04 -7.266323E-07 -2.719413E-04 +4.631411E-05 +1.452751E-04 -7.266323E-07 +1.452751E-04 +4.995700E-03 
 -7.506702E-05 -2.136172E-04 -5.786247E-05 -2.136172E-04 +1.792485E-04 +8.767718E-05 -5.786247E-05 +8.767718E-05 +4.984129E-03 
 -8.405629E-05 -3.000778E-04 -2.631458E-05 -3.000778E-04 +1.574726E-04 +2.169070E-05 -2.631458E-05 +2.169070E-05 +5.018622E-03 
 -8.209583E-05 -3.122515E-04 -5.012379E-05 -3.122515E-04 +3.396733E-05 -5.420256E-05 -5.012379E-05 -5.420256E-05 +5.060502E-03 
 -8.099977E-05 -2.352208E-04 -9.808314E-05 -2.352208E-04 -9.747029E-05 -1.081034E-04 -9.808314E-05 -1.081034E-04 +5.132966E-03 
 -1.921582E-04 -2.878820E-04 -2.499059E-05 -2.878820E-04 -2.061618E-04 -1.484166E-04 -2.499059E-05 -1.484166E-04 +5.186513E-03 
 -9.846728E-05 -1.087013E-04 +2.472290E-05 -1.087013E-04 -1.511355E-04 -1.755392E-04 +2.472290E-05 -1.755392E-04 +5.123701E-03 
 +1.885413E-04 +1.204798E-04 +1.696393E-04 +1.204798E-04 -1.698440E-04 -1.512691E-04 +1.696393E-04 -1.512691E-04 +5.050878E-03 
 +1.725867E-04 +9.810054E-05 +1.942144E-04 +9.810054E-05 -1.243299E-04 -5.129418E-05 +1.942144E-04 -5.129418E-05 +5.031255E-03 
 +1.564764E-04 -2.946817E-06 +1.713748E-04 -2.946817E-06 -1.780337E-05 -6.195181E-06 +1.713748E-04 -6.195181E-06 +4.922473E-03 
 +1.584870E-04 -1.724658E-04 +1.343438E-04 -1.724658E-04 -6.941011E-05 -6.449030E-05 +1.343438E-04 -6.449030E-05 +4.881648E-03 
 +1.455069E-04 -2.807071E-04 +7.776910E-06 -2.807071E-04 -1.956250E-04 -1.036203E-04 +7.776910E-06 -1.036203E-04 +4.957931E-03 
 +1.075753E-04 -3.855567E-06 -9.430256E-06 -3.855567E-06 -3.042487E-04 -4.681962E-05 -9.430256E-06 -4.681962E-05 +5.013852E-03 
 +1.632117E-04 +1.284707E-04 -5.950194E-05 +1.284707E-04 -4.175357E-04 -4.944797E-05 -5.950194E-05 -4.944797E-05 +5.079856E-03 
 +1.882971E-04 +2.183262E-04 -7.122107E-05 +2.183262E-04 -4.676930E-04 -1.591025E-04 -7.122107E-05 -1.591025E-04 +5.104462E-03 
 +1.593204E-04 +6.724447E-05 -7.889337E-05 +6.724447E-05 -3.426364E-04 -1.893864E-04 -7.889337E-05 -1.893864E-04 +5.135198E-03 
 +1.288988E-04 +6.008933E-05 -7.140828E-05 +6.008933E-05 -1.760007E-04 -6.874656E-05 -7.140828E-05 -6.874656E-05 +5.040019E-03 
 -5.332122E-05 +2.036783E-04 -2.475138E-06 +2.036783E-04 -1.416111E-04 +8.961903E-06 -2.475138E-06 +8.961903E-06 +5.026244E-03 
 -1.225478E-04 +2.225165E-04 +1.945006E-05 +2.225165E-04 -3.027220E-04 +4.023508E-05 +1.945006E-05 +4.023508E-05 +5.049225E-03 
 -2.711391E-04 +6.723092E-05 +6.358534E-05 +6.723092E-05 -3.575296E-04 +6.319396E-05 +6.358534E-05 +6.319396E-05 +5.123712E-03 
 -4.161097E-04 +3.337125E-04 +1.014350E-04 +3.337125E-04 -1.879047E-05 +1.295612E-04 +1.014350E-04 +1.295612E-04 +5.064860E-03 
 -2.397582E-04 +3.750689E-04 +4.209305E-05 +3.750689E-04 +2.151406E-04 +1.612423E-04 +4.209305E-05 +1.612423E-04 +4.963957E-03 
 -1.214600E-04 +3.150771E-04 -4.376826E-05 +3.150771E-04 +1.354182E-04 +6.179583E-05 -4.376826E-05 +6.179583E-05 +4.968782E-03 
 -4.070120E-05 -1.409017E-04 -5.170242E-05 -1.409017E-04 +1.257079E-04 -1.055946E-05 -5.170242E-05 -1.055946E-05 +5.032901E-03 
 -3.989474E-05 -2.774873E-04 -5.737961E-05 -2.774873E-04 -2.704960E-05 -3.690291E-05 -5.737961E-05 -3.690291E-05 +5.120660E-03 
 -4.777896E-05 -1.426451E-04 -1.116513E-04 -1.426451E-04 -2.564106E-04 +3.113094E-05 -1.116513E-04 +3.113094E-05 +5.216431E-03 
 -4.486619E-05 -5.797412E-05 -1.015400E-04 -5.797412E-05 -2.429510E-04 +4.273035E-05 -1.015400E-04 +4.273035E-05 +5.230151E-03 
 -8.554588E-05 +1.925660E-04 +2.883269E-05 +1.925660E-04 -5.091607E-05 +3.403997E-05 +2.883269E-05 +3.403997E-05 +5.149996E-03 
 +5.165896E-05 +1.985403E-04 +8.010029E-05 +1.985403E-04 -1.791469E-08 +6.677143E-05 +8.010029E-05 +6.677143E-05 +5.070488E-03 
 +1.220272E-04 +1.723284E-04 +1.714851E-04 +1.723284E-04 -7.305646E-05 +9.724741E-05 +1.714851E-04 +9.724741E-05 +5.038593E-03 
 +3.428930E-04 -1.111490E-04 +8.767333E-05 -1.111490E-04 -1.214338E-04 +9.418584E-05 +8.767333E-05 +9.418584E-05 +4.961185E-03 
 +2.797858E-04 -2.485154E-04 +4.559356E-05 -2.485154E-04 -1.096124E-04 +4.994261E-05 +4.559356E-05 +4.994261E-05 +4.902122E-03 
 +1.572478E-04 -2.599836E-04 -1.101671E-05 -2.599836E-04 +3.893413E-05 +1.069467E-05 -1.101671E-05 +1.069467E-05 +4.920670E-03 
 +8.379467E-05 -5.190290E-05 +6.760389E-07 -5.190290E-05 -1.686635E-04 -1.173994E-05 +6.760389E-07 -1.173994E-05 +4.970925E-03 
 +2.164420E-05 +1.511683E-04 -3.608102E-05 +1.511683E-04 -4.142459E-04 -4.640941E-05 -3.608102E-05 -4.640941E-05 +5.057244E-03 
 +8.261221E-05 +1.473395E-04 -5.506420E-05 +1.473395E-04 -3.865150E-04 -1.080867E-04 -5.506420E-05 -1.080867E-04 +5.061396E-03 
 +2.125365E-04 +1.019514E-04 -1.438096E-04 +1.019514E-04 -3.130618E-04 -1.467235E-04 -1.438096E-04 -1.467235E-04 +5.021037E-03 
 +1.626848E-04 -4.761603E-05 +2.127927E-05 -4.761603E-05 +5.253665E-06 -3.068775E-05 +2.127927E-05 -3.068775E-05 +4.838486E-03 
 +7.302156E-05 +5.034256E-05 +9.718857E-05 +5.034256E-05 +4.745146E-05 -5.646347E-06 +9.718857E-05 -5.646347E-06 +4.779627E-03 
 +1.944664E-05 +1.639173E-04 +1.135222E-04 +1.639173E-04 +9.790731E-05 +1.202397E-06 +1.135222E-04 +1.202397E-06 +4.800206E-03 
 -2.457803E-04 +1.680784E-05 +9.764173E-05 +1.680784E-05 +1.864724E-04 +5.214303E-06 +9.764173E-05 +5.214303E-06 +4.930266E-03 
 -1.947368E-04 +2.980360E-04 +8.959727E-05 +2.980360E-04 +1.254020E-04 +7.980905E-05 +8.959727E-05 +7.980905E-05 +5.001263E-03 
 -8.273995E-05 +2.890548E-04 +3.665770E-05 +2.890548E-04 +1.356224E-04 +1.569652E-04 +3.665770E-05 +1.569652E-04 +4.942218E-03 
 -6.945859E-05 +4.111228E-04 -5.488456E-05 +4.111228E-04 +3.606460E-05 +7.779833E-05 -5.488456E-05 +7.779833E-05 +4.973245E-03 
 -1.406928E-04 +4.254257E-04 -6.612753E-05 +4.254257E-04 +1.373693E-05 +2.847514E-05 -6.612753E-05 +2.847514E-05 +5.090777E-03 
 -3.065494E-04 -8.498143E-05 -2.810980E-05 -8.498143E-05 +8.164803E-05 -1.010327E-05 -2.810980E-05 -1.010327E-05 +5.201050E-03 
 -1.990083E-04 -1.984037E-04 -6.745476E-05 -1.984037E-04 -1.212214E-04 +6.797021E-06 -6.745476E-05 +6.797021E-06 +5.246199E-03 
 +8.267425E-06 -1.137077E-04 -6.445694E-05 -1.137077E-04 -1.666313E-04 +1.967275E-05 -6.445694E-05 +1.967275E-05 +5.208308E-03 
 -6.200746E-05 +8.748715E-05 +6.988830E-05 +8.748715E-05 -5.212462E-05 +1.191429E-05 +6.988830E-05 +1.191429E-05 +5.153530E-03 
 -6.372571E-05 +3.334872E-05 +7.365447E-05 +3.334872E-05 -5.291708E-05 +2.199318E-05 +7.365447E-05 +2.199318E-05 +5.120665E-03 
 +3.789589E-06 +1.486965E-04 +1.333380E-04 +1.486965E-04 -1.472227E-04 +2.307296E-05 +1.333380E-04 +2.307296E-05 +5.113497E-03 
 +3.803184E-04 -1.995134E-04 +6.655636E-05 -1.995134E-04 -3.079361E-04 +4.341460E-06 +6.655636E-05 +4.341460E-06 +5.074220E-03 
 +3.766563E-04 -2.839276E-04 +2.273825E-05 -2.839276E-04 -3.649390E-04 -9.339370E-06 +2.273825E-05 -9.339370E-06 +5.002672E-03 
 +2.650101E-04 -3.333284E-04 -7.182143E-06 -3.333284E-04 -2.311618E-04 +9.168814E-06 -7.182143E-06 +9.168814E-06 +4.946941E-03 
 +2.113037E-04 -3.425504E-04 +9.178563E-06 -3.425504E-04 -1.762067E-04 -9.864344E-07 +9.178563E-06 -9.864344E-07 +4.937861E-03 
 -1.509398E-04 +2.373623E-04 +4.699909E-06 +2.373623E-04 -8.524806E-05 -2.978428E-05 +4.699909E-06 -2.978428E-05 +5.033137E-03 
 -1.163659E-04 +1.513559E-04 -7.529075E-05 +1.513559E-04 -5.666318E-05 -6.906720E-05 -7.529075E-05 -6.906720E-05 +5.077266E-03 
 +1.314350E-04 +8.333409E-05 -2.065617E-04 +8.333409E-05 -1.284742E-04 -1.034808E-04 -2.065617E-04 -1.034808E-04 +4.975220E-03 
 +1.042792E-04 +8.937237E-05 +1.031905E-04 +8.937237E-05 +8.743949E-05 -1.449558E-05 +1.031905E-04 -1.449558E-05 +4.790630E-03 
 +1.241177E-04 -6.912154E-06 +8.065827E-05 -6.912154E-06 +9.212214E-05 -6.021215E-05 +8.065827E-05 -6.021215E-05 +4.728997E-03 
 +9.027123E-05 -1.273691E-05 +8.773720E-05 -1.273691E-05 +6.058069E-05 -9.334218E-05 +8.773720E-05 -9.334218E-05 +4.736179E-03 
 +3.223799E-05 +8.705451E-06 +1.177180E-04 +8.705451E-06 +1.156083E-04 -5.341122E-05 +1.177180E-04 -5.341122E-05 +4.853040E-03 
 -1.364289E-04 +2.812429E-04 +3.889054E-05 +2.812429E-04 +1.708736E-04 +3.295156E-05 +3.889054E-05 +3.295156E-05 +4.982030E-03 
 -4.557094E-05 +1.170337E-04 +4.676970E-06 +1.170337E-04 -1.731466E-05 +8.786985E-05 +4.676970E-06 +8.786985E-05 +4.972713E-03 
 +4.579726E-05 -1.697641E-04 -7.204825E-05 -1.697641E-04 -1.976219E-04 +8.654849E-05 -7.204825E-05 +8.654849E-05 +5.011739E-03 
 -2.401858E-05 -1.184257E-04 -9.230579E-05 -1.184257E-04 -2.646993E-04 +7.581613E-05 -9.230579E-05 +7.581613E-05 +5.140406E-03 
 -4.061119E-04 -2.609951E-04 -2.668878E-05 -2.609951E-04 -3.031207E-05 +4.076924E-05 -2.668878E-05 +4.076924E-05 +5.227715E-03 
 -3.786858E-04 -2.414937E-04 +2.427156E-05 -2.414937E-04 +5.685067E-05 +5.540885E-05 +2.427156E-05 +5.540885E-05 +5.219393E-03 
 -1.070060E-04 +1.363742E-04 +4.690998E-05 +1.363742E-04 +1.817930E-07 +7.296904E-05 +4.690998E-05 +7.296904E-05 +5.179526E-03 
 -9.996745E-05 +1.535950E-04 +1.044021E-04 +1.535950E-04 -8.408680E-06 +3.394497E-05 +1.044021E-04 +3.394497E-05 +5.155965E-03 
 -6.817163E-05 +6.403535E-05 +1.110379E-04 +6.403535E-05 -1.226179E-04 +2.963611E-05 +1.110379E-04 +2.963611E-05 +5.165543E-03 
 +2.456045E-06 +1.247841E-04 +1.264863E-04 +1.247841E-04 -2.202489E-04 +9.756168E-05 +1.264863E-04 +9.756168E-05 +5.178133E-03 
 +3.420894E-04 -1.776045E-04 +4.428927E-05 -1.776045E-04 -3.426786E-04 +1.033360E-04 +4.428927E-05 +1.033360E-04 +5.139103E-03 
 +3.411894E-04 -1.883644E-04 +1.696298E-05 -1.883644E-04 -3.504852E-04 +4.818567E-05 +1.696298E-05 +4.818567E-05 +5.070363E-03 
 +3.006134E-04 -2.353745E-04 +2.342168E-05 -2.353745E-04 -2.820336E-04 +3.805557E-05 +2.342168E-05 +3.805557E-05 +4.974120E-03 
 +3.120873E-04 -3.373764E-04 +1.182231E-05 -3.373764E-04 -8.786089E-05 +1.349707E-05 +1.182231E-05 +1.349707E-05 +4.876579E-03 
 -1.126098E-04 +2.391576E-04 +7.837823E-06 +2.391576E-04 +1.137552E-04 +1.305991E-05 +7.837823E-06 +1.305991E-05 +4.912474E-03 
 -1.602386E-04 +1.469381E-04 -3.439087E-05 +1.469381E-04 +1.868010E-04 +1.424089E-06 -3.439087E-05 +1.424089E-06 +4.967382E-03 
 -1.565221E-04 +2.242570E-04 -1.532433E-04 +2.242570E-04 +1.693499E-04 -3.021031E-05 -1.532433E-04 -3.021031E-05 +4.908935E-03 
 +6.850986E-07 +7.377995E-05 +6.454351E-05 +7.377995E-05 +1.553499E-04 -6.188115E-06 +6.454351E-05 -6.188115E-06 +4.781951E-03 
 +6.190840E-05 +5.721148E-05 +5.128589E-05 +5.721148E-05 +1.356352E-04 -2.732350E-05 +5.128589E-05 -2.732350E-05 +4.786144E-03 
 +1.149582E-04 +4.329792E-05 +4.150352E-05 +4.329792E-05 +1.391181E-05 -2.617440E-05 +4.150352E-05 -2.617440E-05 +4.810719E-03 
 +1.584861E-04 +2.881806E-06 +1.664196E-04 +2.881806E-06 -3.371736E-06 +2.203771E-05 +1.664196E-04 +2.203771E-05 +4.861527E-03 
 -1.112920E-04 -9.869706E-05 -1.147903E-05 -9.869706E-05 -4.077444E-05 +7.229376E-05 -1.147903E-05 +7.229376E-05 +4.950850E-03 
 -6.196423E-05 -1.128380E-04 -2.823079E-05 -1.128380E-04 -1.666413E-04 +5.511019E-05 -2.823079E-05 +5.511019E-05 +4.988598E-03 
 -4.265334E-05 -1.582542E-04 -7.041098E-05 -1.582542E-04 -1.997595E-04 +5.788132E-05 -7.041098E-05 +5.788132E-05 +5.031653E-03 
 +6.807195E-06 -1.330120E-04 -4.877963E-05 -1.330120E-04 -3.026941E-04 +1.243531E-04 -4.877963E-05 +1.243531E-04 +5.105312E-03 
 -2.842813E-05 -1.829958E-04 -6.689185E-05 -1.829958E-04 -2.578721E-04 +1.408421E-04 -6.689185E-05 +1.408421E-04 +5.154874E-03 
 -2.945430E-04 -3.637471E-04 +7.095641E-05 -3.637471E-04 +5.911891E-06 +8.060054E-05 +7.095641E-05 +8.060054E-05 +5.169337E-03 
 -1.885920E-04 +1.269202E-04 +1.309255E-04 +1.269202E-04 +3.871218E-05 +6.094246E-05 +1.309255E-04 +6.094246E-05 +5.176226E-03 
 -1.258860E-04 +1.614905E-04 +1.205213E-04 +1.614905E-04 -4.914743E-05 +4.481094E-05 +1.205213E-04 +4.481094E-05 +5.165581E-03 
 -8.258740E-05 +1.446121E-04 +1.164878E-04 +1.446121E-04 -1.170733E-04 +4.369409E-05 +1.164878E-04 +4.369409E-05 +5.170366E-03 
 -1.862631E-05 +1.315332E-04 +1.074555E-04 +1.315332E-04 -2.792449E-04 +1.039684E-04 +1.074555E-04 +1.039684E-04 +5.189994E-03 
 +2.645201E-04 -1.596885E-04 +3.542418E-05 -1.596885E-04 -3.795832E-04 +1.108553E-04 +3.542418E-05 +1.108553E-04 +5.162801E-03 
 +2.571395E-04 -1.342429E-04 +1.930708E-05 -1.342429E-04 -3.321829E-04 +4.767230E-05 +1.930708E-05 +4.767230E-05 +5.107648E-03 
 +2.012217E-04 -2.424555E-04 +3.191551E-05 -2.424555E-04 -2.544371E-04 +4.328136E-05 +3.191551E-05 +4.328136E-05 +5.010669E-03 
 +1.534192E-04 -2.897609E-04 +3.877380E-06 -2.897609E-04 +3.486110E-05 +4.781054E-05 +3.877380E-06 +4.781054E-05 +4.813425E-03 
 -4.651518E-05 +3.812646E-05 -5.799592E-07 +3.812646E-05 +3.194723E-04 +8.316167E-05 -5.799592E-07 +8.316167E-05 +4.662104E-03 
 -6.379129E-05 -1.090164E-04 +1.122274E-05 -1.090164E-04 +3.611185E-04 +1.474743E-04 +1.122274E-05 +1.474743E-04 +4.705035E-03 
 -1.543572E-04 -3.255926E-05 -1.784258E-04 -3.255926E-05 +2.524599E-04 +8.833107E-05 -1.784258E-04 +8.833107E-05 +4.789252E-03 
 +1.473842E-05 +1.230285E-04 -2.426281E-05 +1.230285E-04 +1.823180E-04 +9.327537E-05 -2.426281E-05 +9.327537E-05 +4.670508E-03 
 +1.169143E-04 +8.112094E-05 +1.854432E-05 +8.112094E-05 +9.751643E-05 +9.183654E-05 +1.854432E-05 +9.183654E-05 +4.754482E-03 
 +5.903464E-05 +6.361971E-05 +2.186746E-05 +6.361971E-05 +6.690973E-05 +7.584055E-05 +2.186746E-05 +7.584055E-05 +4.847883E-03 
 -1.713182E-05 +8.014811E-05 +1.634359E-04 +8.014811E-05 +5.358264E-05 +4.877093E-05 +1.634359E-04 +4.877093E-05 +4.840069E-03 
 -6.080973E-05 -4.630280E-05 -2.651165E-05 -4.630280E-05 -6.851909E-05 +3.129236E-05 -2.651165E-05 +3.129236E-05 +4.896444E-03 
 +2.135135E-05 -8.948303E-05 -6.626496E-05 -8.948303E-05 -1.746920E-04 +5.367133E-05 -6.626496E-05 +5.367133E-05 +4.951482E-03 
 +1.058106E-05 -1.560344E-04 -7.144743E-05 -1.560344E-04 -1.582620E-04 +2.560063E-05 -7.144743E-05 +2.560063E-05 +4.991046E-03 
 -6.194739E-05 -1.897192E-04 +1.909150E-05 -1.897192E-04 -1.284876E-04 +8.526136E-06 +1.909150E-05 +8.526136E-06 +5.034280E-03 
 +9.964759E-05 -1.795201E-04 -5.863936E-05 -1.795201E-04 -2.531988E-04 +9.262337E-05 -5.863936E-05 +9.262337E-05 +5.061162E-03 
 -8.225615E-06 -2.752367E-04 +2.809221E-05 -2.752367E-04 -1.969528E-04 +1.510311E-04 +2.809221E-05 +1.510311E-04 +5.109083E-03 
 -1.984717E-04 +8.161037E-05 +1.800724E-04 +8.161037E-05 -3.367403E-05 +9.994773E-05 +1.800724E-04 +9.994773E-05 +5.138353E-03 
 -1.034039E-04 +1.163793E-04 +1.415526E-04 +1.163793E-04 -7.806669E-05 +3.772809E-05 +1.415526E-04 +3.772809E-05 +5.123366E-03 
 +5.559497E-06 +9.797497E-05 +1.010166E-04 +9.797497E-05 -1.504087E-04 +3.864588E-05 +1.010166E-04 +3.864588E-05 +5.133044E-03 
 -6.242519E-05 +1.237965E-04 +4.118208E-05 +1.237965E-04 -2.091342E-04 +7.095314E-05 +4.118208E-05 +7.095314E-05 +5.161515E-03 
 +1.059118E-04 -8.871428E-05 +5.150816E-05 -8.871428E-05 -2.329577E-04 +3.600164E-05 +5.150816E-05 +3.600164E-05 +5.141765E-03 
 +1.104339E-04 -8.666320E-05 +4.527461E-05 -8.666320E-05 -2.140542E-04 +8.821889E-07 +4.527461E-05 +8.821889E-07 +5.049038E-03 
 +4.325448E-05 -9.175636E-05 +6.217636E-05 -9.175636E-05 +4.252042E-05 +5.894069E-05 +6.217636E-05 +5.894069E-05 +4.911227E-03 
 -5.717814E-05 +2.328171E-06 +7.643198E-06 +2.328171E-06 +4.580840E-04 +8.052609E-05 +7.643198E-06 +8.052609E-05 +4.760715E-03 
 -3.386963E-05 +7.051259E-05 -5.547405E-05 +7.051259E-05 +4.671451E-04 +5.240161E-05 -5.547405E-05 +5.240161E-05 +4.600508E-03 
 +2.119325E-05 +1.015714E-05 -1.596956E-05 +1.015714E-05 +3.079610E-04 +6.625462E-05 -1.596956E-05 +6.625462E-05 +4.633540E-03 
 -5.145114E-06 -5.179450E-05 -2.284368E-04 -5.179450E-05 +2.542770E-04 +7.226295E-05 -2.284368E-04 +7.226295E-05 +4.728111E-03 
 +9.382797E-05 +9.782419E-05 -1.272978E-04 +9.782419E-05 +2.398511E-04 +1.559876E-04 -1.272978E-04 +1.559876E-04 +4.686497E-03 
 +1.000009E-04 +5.067451E-05 -4.840139E-05 +5.067451E-05 +1.310699E-04 +1.544810E-04 -4.840139E-05 +1.544810E-04 +4.774579E-03 
 -2.022214E-05 +7.494086E-05 -4.458507E-05 +7.494086E-05 +1.332741E-04 +1.554381E-04 -4.458507E-05 +1.554381E-04 +4.897677E-03 
 -4.159740E-05 +5.167178E-05 +3.380375E-05 +5.167178E-05 +7.461537E-05 +1.118300E-04 +3.380375E-05 +1.118300E-04 +4.919151E-03 
 -8.794883E-05 -1.184481E-04 -2.352155E-05 -1.184481E-04 -5.061956E-05 +1.453047E-05 -2.352155E-05 +1.453047E-05 +4.942913E-03 
 -6.940187E-06 -1.195295E-04 -3.388846E-05 -1.195295E-04 -1.145380E-04 -1.035875E-06 -3.388846E-05 -1.035875E-06 +4.924368E-03 
 +2.161696E-05 -1.641903E-04 -4.255346E-05 -1.641903E-04 -1.458022E-04 +4.917686E-05 -4.255346E-05 +4.917686E-05 +4.932497E-03 
 +4.965973E-06 -2.058150E-04 -6.106699E-06 -2.058150E-04 -2.057601E-04 +8.517163E-05 -6.106699E-06 +8.517163E-05 +4.989217E-03 
 +7.967758E-05 -2.283429E-04 -2.026459E-05 -2.283429E-04 -2.644319E-04 +1.052170E-04 -2.026459E-05 +1.052170E-04 +5.028380E-03 
 +1.391372E-04 -2.436678E-04 -6.830389E-07 -2.436678E-04 -2.190083E-04 +1.611641E-04 -6.830389E-07 +1.611641E-04 +5.065501E-03 
 -8.584304E-05 -5.744888E-05 +1.551199E-04 -5.744888E-05 -1.313562E-04 +1.169758E-04 +1.551199E-04 +1.169758E-04 +5.110417E-03 
 -7.704491E-05 -1.849431E-05 +1.530449E-04 -1.849431E-05 -2.178850E-04 +1.527059E-05 +1.530449E-04 +1.527059E-05 +5.130693E-03 
 +5.722809E-05 -1.933427E-05 +1.125465E-04 -1.933427E-05 -3.214054E-04 -2.815425E-05 +1.125465E-04 -2.815425E-05 +5.141081E-03 
 -8.670835E-07 +1.463070E-05 +6.410541E-05 +1.463070E-05 -2.679808E-04 -2.660467E-05 +6.410541E-05 -2.660467E-05 +5.114074E-03 
 +1.298686E-06 -5.692102E-05 +6.877986E-05 -5.692102E-05 -4.092457E-05 -6.397917E-05 +6.877986E-05 -6.397917E-05 +4.996492E-03 
 -4.920472E-05 -1.236989E-06 +6.583955E-05 -1.236989E-06 +2.522832E-04 -1.163702E-04 +6.583955E-05 -1.163702E-04 +4.858244E-03 
 -8.290922E-05 +7.826501E-05 +1.267397E-04 +7.826501E-05 +4.158659E-04 -1.097932E-04 +1.267397E-04 -1.097932E-04 +4.748709E-03 
 -9.283264E-05 +1.351875E-04 +1.527884E-04 +1.351875E-04 +4.081177E-04 -1.034176E-04 +1.527884E-04 -1.034176E-04 +4.709112E-03 
 -1.153946E-06 +1.204897E-04 +4.320914E-05 +1.204897E-04 +3.395558E-04 +8.737755E-06 +4.320914E-05 +8.737755E-06 +4.680900E-03 
 +3.303096E-05 +8.797614E-05 +1.511669E-05 +8.797614E-05 +2.524364E-04 +1.062375E-04 +1.511669E-05 +1.062375E-04 +4.716150E-03 
 +1.572971E-05 +7.339059E-06 -1.355797E-04 +7.339059E-06 +2.742660E-04 +1.169542E-04 -1.355797E-04 +1.169542E-04 +4.756017E-03 
 -8.060687E-05 +7.528653E-05 -2.272538E-04 +7.528653E-05 +2.028855E-04 +8.940294E-05 -2.272538E-04 +8.940294E-05 +4.871352E-03 
 -1.026153E-04 +9.414113E-05 -6.719298E-05 +9.414113E-05 +1.289342E-04 +1.613015E-04 -6.719298E-05 +1.613015E-04 +4.922903E-03 
 -1.002567E-04 +9.338839E-05 -6.125088E-05 +9.338839E-05 +1.027821E-04 +1.259366E-04 -6.125088E-05 +1.259366E-04 +4.982355E-03 
 -6.989758E-05 +5.129143E-05 -5.055957E-05 +5.129143E-05 +4.806901E-05 +7.044874E-05 -5.055957E-05 +7.044874E-05 +5.005964E-03 
 -7.637998E-05 -4.401715E-05 -5.452382E-05 -4.401715E-05 +6.068152E-05 +5.788938E-05 -5.452382E-05 +5.788938E-05 +4.993908E-03 
 -1.056844E-04 -1.221293E-04 -3.433262E-05 -1.221293E-04 +4.505998E-05 +4.991999E-05 -3.433262E-05 +4.991999E-05 +4.959312E-03 
 -2.422348E-05 -1.860708E-04 +1.221785E-05 -1.860708E-04 -9.924687E-05 +6.839923E-05 +1.221785E-05 +6.839923E-05 +4.916820E-03 
 +8.628936E-05 -2.210589E-04 -5.038450E-06 -2.210589E-04 -2.047391E-04 +1.363801E-04 -5.038450E-06 +1.363801E-04 +4.915078E-03 
 +7.690143E-05 -2.443455E-04 -1.025045E-05 -2.443455E-04 -2.424903E-04 +2.025260E-04 -1.025045E-05 +2.025260E-04 +4.982413E-03 
 +4.565387E-05 -2.043738E-04 -4.055750E-05 -2.043738E-04 -2.741026E-04 +2.400824E-04 -4.055750E-05 +2.400824E-04 +5.053834E-03 
 +1.293806E-04 -1.558744E-04 -1.001565E-04 -1.558744E-04 -3.274600E-04 +1.285420E-04 -1.001565E-04 +1.285420E-04 +5.050909E-03 
 +1.542071E-04 -7.951379E-05 -2.210229E-05 -7.951379E-05 -3.297950E-04 -1.631918E-05 -2.210229E-05 -1.631918E-05 +4.962245E-03 
 +1.004378E-04 -7.572393E-06 +7.785433E-05 -7.572393E-06 -1.886361E-04 -7.515316E-05 +7.785433E-05 -7.515316E-05 +4.834481E-03 
 +3.816008E-05 -5.098830E-05 +7.849597E-05 -5.098830E-05 -5.576391E-05 -1.548321E-04 +7.849597E-05 -1.548321E-04 +4.796183E-03 
 -1.742193E-05 -5.758644E-05 +7.548322E-05 -5.758644E-05 +1.056439E-04 -1.659030E-04 +7.548322E-05 -1.659030E-04 +4.784271E-03 
 -8.297314E-05 -1.090697E-05 +1.330827E-04 -1.090697E-05 +2.767202E-04 -1.050711E-04 +1.330827E-04 -1.050711E-04 +4.756382E-03 
 -5.029633E-05 +1.475248E-05 +1.896797E-04 +1.475248E-05 +3.074642E-04 -6.591227E-05 +1.896797E-04 -6.591227E-05 +4.731412E-03 
 +1.273947E-05 -4.132096E-06 +2.466886E-04 -4.132096E-06 +3.141174E-04 -8.976568E-05 +2.466886E-04 -8.976568E-05 +4.679830E-03 
 +4.502268E-05 +7.315587E-06 +2.206597E-04 +7.315587E-06 +2.814562E-04 -1.637841E-04 +2.206597E-04 -1.637841E-04 +4.685511E-03 
 +4.095136E-05 -4.551219E-05 +1.335019E-04 -4.551219E-05 +2.163333E-04 -1.731664E-04 +1.335019E-04 -1.731664E-04 +4.718480E-03 
 -1.937691E-05 -5.923862E-05 +4.586295E-05 -5.923862E-05 +2.346899E-04 -6.431423E-05 +4.586295E-05 -6.431423E-05 +4.781704E-03 
 +6.634473E-05 +8.052363E-05 -2.129101E-04 +8.052363E-05 +1.218601E-04 +4.250523E-05 -2.129101E-04 +4.250523E-05 +4.869238E-03 
 -1.636453E-05 +9.332901E-05 -1.210072E-04 +9.332901E-05 +9.778590E-05 +1.742562E-04 -1.210072E-04 +1.742562E-04 +4.972979E-03 
 -7.275884E-05 +3.607091E-05 -7.514527E-05 +3.607091E-05 +7.892586E-05 +1.535786E-04 -7.514527E-05 +1.535786E-04 +5.065021E-03 
 -3.565544E-05 +1.168073E-05 -1.001109E-04 +1.168073E-05 +3.287552E-05 +9.377157E-05 -1.001109E-04 +9.377157E-05 +5.066467E-03 
 -4.290475E-05 -2.304513E-06 -4.136548E-05 -2.304513E-06 +5.147101E-05 +7.146760E-05 -4.136548E-05 +7.146760E-05 +5.017283E-03 
 -1.242046E-04 -7.158740E-05 +4.963016E-07 -7.158740E-05 +1.303426E-04 +1.114257E-04 +4.963016E-07 +1.114257E-04 +4.944233E-03 
 -1.070125E-04 -1.364165E-04 +5.643567E-05 -1.364165E-04 +1.304736E-04 +1.422654E-04 +5.643567E-05 +1.422654E-04 +4.860771E-03 
 +1.991037E-05 -2.383100E-04 +5.132095E-05 -2.383100E-04 -5.863749E-05 +1.553961E-04 +5.132095E-05 +1.553961E-04 +4.818293E-03 
 +8.195667E-05 -2.293854E-04 +2.359240E-05 -2.293854E-04 -1.954012E-04 +1.391645E-04 +2.359240E-05 +1.391645E-04 +4.838416E-03 
 +1.027131E-04 -1.802089E-04 +1.998615E-05 -1.802089E-04 -2.302543E-04 +1.118149E-04 +1.998615E-05 +1.118149E-04 +4.889204E-03 
 +1.530427E-04 -4.791677E-05 -5.960687E-05 -4.791677E-05 -1.947197E-04 +9.976539E-05 -5.960687E-05 +9.976539E-05 +4.891934E-03 
 +1.111288E-04 +2.822150E-05 +7.317084E-05 +2.822150E-05 -5.631490E-05 +6.291201E-05 +7.317084E-05 +6.291201E-05 +4.825464E-03 
 +5.467549E-05 +3.847922E-05 +6.114790E-05 +3.847922E-05 -1.708470E-05 -3.486520E-05 +6.114790E-05 -3.486520E-05 +4.711029E-03 
 -7.787763E-06 -4.413865E-05 +6.325282E-05 -4.413865E-05 +4.311351E-05 -1.907123E-04 +6.325282E-05 -1.907123E-04 +4.712234E-03 
 -2.685606E-05 -5.353992E-05 +9.934920E-05 -5.353992E-05 +1.474937E-04 -2.310586E-04 +9.934920E-05 -2.310586E-04 +4.785088E-03 
 -4.475123E-05 -2.357401E-05 +1.407788E-04 -2.357401E-05 +1.983726E-04 -1.480672E-04 +1.407788E-04 -1.480672E-04 +4.801501E-03 
 -4.057644E-05 -6.348270E-06 +1.709508E-04 -6.348270E-06 +2.455721E-04 -1.133538E-04 +1.709508E-04 -1.133538E-04 +4.775300E-03 
 -5.888183E-06 -1.907956E-05 +1.894518E-04 -1.907956E-05 +2.608602E-04 -1.034309E-04 +1.894518E-04 -1.034309E-04 +4.726369E-03 
 +1.995774E-05 -2.780874E-05 +1.275456E-04 -2.780874E-05 +2.350679E-04 -9.434281E-05 +1.275456E-04 -9.434281E-05 +4.724830E-03 
 -2.470178E-05 -5.622635E-05 +4.833440E-05 -5.622635E-05 +2.313743E-04 -1.196326E-04 +4.833440E-05 -1.196326E-04 +4.782289E-03 
 -6.027257E-05 -2.866376E-05 +4.773784E-05 -2.866376E-05 +2.039862E-04 -1.173768E-04 +4.773784E-05 -1.173768E-04 +4.821803E-03 
 +4.498440E-05 +3.266915E-05 -1.364246E-04 +3.266915E-05 -3.518489E-05 -5.165003E-05 -1.364246E-04 -5.165003E-05 +4.927922E-03 
 +3.267491E-05 +7.514521E-05 -1.060604E-04 +7.514521E-05 -1.152479E-04 -4.020002E-05 -1.060604E-04 -4.020002E-05 +5.021551E-03 
 -4.861470E-07 +3.548729E-05 -3.390616E-06 +3.548729E-05 -8.609788E-05 -1.488914E-05 -3.390616E-06 -1.488914E-05 +5.124793E-03 
 -6.839695E-06 +4.341599E-05 -7.209172E-05 +4.341599E-05 +1.374839E-06 +5.919214E-05 -7.209172E-05 +5.919214E-05 +5.088423E-03 
 -1.008630E-05 +7.300340E-06 -2.680498E-06 +7.300340E-06 +7.732871E-05 +1.185089E-04 -2.680498E-06 +1.185089E-04 +4.970503E-03 
 -6.247759E-05 -6.094667E-05 +2.623431E-05 -6.094667E-05 +1.255926E-04 +1.455179E-04 +2.623431E-05 +1.455179E-04 +4.914504E-03 
 -8.853584E-05 -1.355633E-04 +9.773342E-05 -1.355633E-04 +1.973535E-04 +1.951042E-04 +9.773342E-05 +1.951042E-04 +4.819429E-03 
 -4.023408E-05 -1.821072E-04 +4.853338E-05 -1.821072E-04 +2.752994E-04 +1.990593E-04 +4.853338E-05 +1.990593E-04 +4.689449E-03 
 +9.408602E-05 -1.068338E-04 -1.307356E-05 -1.068338E-04 +2.339632E-04 +1.209968E-04 -1.307356E-05 +1.209968E-04 +4.596234E-03 
 +2.031940E-04 -7.826216E-05 +8.204609E-06 -7.826216E-05 +9.315895E-05 +8.787280E-05 +8.204609E-06 +8.787280E-05 +4.634142E-03 
 +3.961523E-05 +8.702888E-05 +5.140232E-05 +8.702888E-05 +8.728216E-05 +1.174530E-04 +5.140232E-05 +1.174530E-04 +4.684178E-03 
 +3.458392E-05 +2.703301E-05 +8.670271E-05 +2.703301E-05 +4.953460E-05 +7.161444E-05 +8.670271E-05 +7.161444E-05 +4.688490E-03 
 +1.631872E-06 +1.094443E-04 +4.816289E-05 +1.094443E-04 +2.617107E-05 +1.939840E-05 +4.816289E-05 +1.939840E-05 +4.703944E-03 
 -8.314755E-05 +9.041752E-05 +2.830565E-06 +9.041752E-05 +1.163407E-04 -1.827788E-05 +2.830565E-06 -1.827788E-05 +4.701953E-03 
 -6.346420E-05 +4.169440E-05 +7.080489E-05 +4.169440E-05 +1.474023E-04 -1.104742E-04 +7.080489E-05 -1.104742E-04 +4.706704E-03 
 -2.241249E-05 +3.336482E-05 +1.015114E-04 +3.336482E-05 +1.813214E-04 -1.515631E-04 +1.015114E-04 -1.515631E-04 +4.774375E-03 
 -2.210798E-05 +1.815321E-05 +1.451291E-04 +1.815321E-05 +2.214203E-04 -1.185750E-04 +1.451291E-04 -1.185750E-04 +4.813672E-03 
 +2.824172E-06 -8.409708E-06 +1.702581E-04 -8.409708E-06 +2.234511E-04 -6.643663E-05 +1.702581E-04 -6.643663E-05 +4.779349E-03 
 +9.336674E-06 -1.045850E-05 +1.266787E-04 -1.045850E-05 +2.267617E-04 -3.229996E-05 +1.266787E-04 -3.229996E-05 +4.756751E-03 
 -4.400670E-05 +1.273067E-05 +3.402784E-05 +1.273067E-05 +2.408729E-04 -3.412616E-05 +3.402784E-05 -3.412616E-05 +4.813349E-03 
 -1.899886E-05 -1.941950E-05 +1.027081E-05 -1.941950E-05 +1.449844E-04 -5.767905E-05 +1.027081E-05 -5.767905E-05 +4.866876E-03 
 -5.390767E-05 -3.415096E-05 -1.700756E-04 -3.415096E-05 +4.345382E-05 -1.084406E-05 -1.700756E-04 -1.084406E-05 +4.941310E-03 
 +1.081936E-04 +5.797138E-05 -9.409335E-05 +5.797138E-05 -1.167225E-04 +9.340623E-06 -9.409335E-05 +9.340623E-06 +5.032472E-03 
 +8.466754E-05 +7.368732E-05 +3.747230E-06 +7.368732E-05 -1.843078E-04 -5.354627E-05 +3.747230E-06 -5.354627E-05 +5.095942E-03 
 +1.213647E-05 +1.057816E-04 -3.282961E-06 +1.057816E-04 -1.248642E-04 -9.352091E-05 -3.282961E-06 -9.352091E-05 +5.050041E-03 
 +6.786974E-07 +5.117692E-05 +4.284933E-05 +5.117692E-05 -4.647819E-05 -7.589508E-05 +4.284933E-05 -7.589508E-05 +4.952928E-03 
 -8.264935E-05 -4.928822E-05 +6.407812E-05 -4.928822E-05 +1.917996E-05 -6.616695E-05 +6.407812E-05 -6.616695E-05 +4.918408E-03 
 -1.249481E-04 -2.117982E-04 +1.783946E-04 -2.117982E-04 +9.955325E-05 -1.547417E-05 +1.783946E-04 -1.547417E-05 +4.859385E-03 
 +1.043037E-04 -2.863174E-04 +1.103912E-05 -2.863174E-04 +2.032508E-04 +3.557174E-05 +1.103912E-05 +3.557174E-05 +4.700897E-03 
 +1.775984E-04 -2.371104E-04 -1.121085E-05 -2.371104E-04 +2.024549E-04 +7.882178E-05 -1.121085E-05 +7.882178E-05 +4.579814E-03 
 +1.373104E-04 -1.911042E-04 +4.125530E-05 -1.911042E-04 +1.917516E-04 +1.180879E-04 +4.125530E-05 +1.180879E-04 +4.631473E-03 
 -8.976170E-05 -3.525319E-05 +8.171232E-05 -3.525319E-05 +1.588199E-04 +1.331729E-05 +8.171232E-05 +1.331729E-05 +4.689014E-03 
 -2.777229E-05 -8.661637E-05 +3.325393E-05 -8.661637E-05 +6.284388E-05 -8.898932E-05 +3.325393E-05 -8.898932E-05 +4.692510E-03 
 +4.141700E-05 +1.029891E-04 +1.239223E-04 +1.029891E-04 +3.564442E-05 -8.236511E-06 +1.239223E-04 -8.236511E-06 +4.664314E-03 
 -1.304880E-05 +1.564309E-04 +8.342681E-05 +1.564309E-04 +4.592297E-05 +1.032083E-04 +8.342681E-05 +1.032083E-04 +4.659750E-03 
 -1.663413E-04 +1.554293E-04 +3.917517E-05 +1.554293E-04 +1.015645E-04 +9.720991E-05 +3.917517E-05 +9.720991E-05 +4.711174E-03 
 -1.413567E-04 +1.043828E-04 +1.520955E-05 +1.043828E-04 +1.880404E-04 -4.267221E-05 +1.520955E-05 -4.267221E-05 +4.784815E-03 
 +5.140310E-05 +2.703744E-05 +1.408130E-04 +2.703744E-05 +2.083644E-04 -1.065457E-04 +1.408130E-04 -1.065457E-04 +4.826457E-03 
 +3.124535E-05 +2.460669E-05 +1.654978E-04 +2.460669E-05 +1.796418E-04 -3.595317E-05 +1.654978E-04 -3.595317E-05 +4.833479E-03 
 +4.047275E-06 +4.798457E-05 +1.358608E-04 +4.798457E-05 +1.743299E-04 -1.305286E-05 +1.358608E-04 -1.305286E-05 +4.807553E-03 
 -1.238577E-05 +3.687500E-05 +2.544356E-05 +3.687500E-05 +1.428562E-04 -6.312005E-05 +2.544356E-05 -6.312005E-05 +4.818995E-03 
 -4.087040E-05 -5.194215E-05 -6.848906E-05 -5.194215E-05 +1.128506E-04 -6.060342E-05 -6.848906E-05 -6.060342E-05 +4.864253E-03 
 -7.575714E-05 -5.920360E-05 -1.420223E-04 -5.920360E-05 +2.712030E-05 +3.066954E-05 -1.420223E-04 +3.066954E-05 +4.963482E-03 
 +1.172754E-04 +4.756564E-06 -9.018949E-05 +4.756564E-06 -1.084908E-04 +5.274974E-05 -9.018949E-05 +5.274974E-05 +4.999521E-03 
 +1.385708E-04 +7.476744E-05 -7.440955E-05 +7.476744E-05 -1.891114E-04 +1.835078E-05 -7.440955E-05 +1.835078E-05 +5.008769E-03 
 +8.265924E-05 +1.502552E-04 -2.846002E-05 +1.502552E-04 -1.502261E-04 -2.404484E-05 -2.846002E-05 -2.404484E-05 +4.944232E-03 
 +7.786655E-06 +1.425130E-04 +9.456862E-05 +1.425130E-04 -1.389752E-05 -4.316083E-05 +9.456862E-05 -4.316083E-05 +4.902662E-03 
 -1.643931E-04 +2.632750E-05 +1.112015E-04 +2.632750E-05 +1.539312E-04 -3.435843E-05 +1.112015E-04 -3.435843E-05 +4.963091E-03 
 -3.139152E-04 -1.601542E-04 +1.939671E-04 -1.601542E-04 +2.286820E-04 -4.625985E-05 +1.939671E-04 -4.625985E-05 +4.936639E-03 
 +2.691578E-04 -3.146340E-04 +6.407006E-05 -3.146340E-04 +1.574699E-04 +1.047678E-05 +6.407006E-05 +1.047678E-05 +4.709663E-03 
 +3.153746E-04 -3.147649E-04 +1.432227E-05 -3.147649E-04 +1.052548E-04 +3.766036E-05 +1.432227E-05 +3.766036E-05 +4.601985E-03 
 +8.062615E-07 -1.649264E-04 +1.135378E-04 -1.649264E-04 +2.058149E-04 -7.236629E-06 +1.135378E-04 -7.236629E-06 +4.626216E-03 
 +6.657668E-05 -3.987155E-05 +1.185061E-04 -3.987155E-05 +1.793314E-04 -2.451728E-05 +1.185061E-04 -2.451728E-05 +4.601507E-03 
 +7.339843E-06 +1.429725E-04 +4.970348E-05 +1.429725E-04 +1.178404E-04 -3.258947E-06 +4.970348E-05 -3.258947E-06 +4.622882E-03 
 +5.222621E-05 +2.962030E-04 +1.694185E-04 +2.962030E-04 +8.007383E-05 +6.743683E-05 +1.694185E-04 +6.743683E-05 +4.640071E-03 
 +3.521759E-07 +2.616505E-04 +1.636449E-04 +2.616505E-04 -1.834171E-05 +7.606592E-05 +1.636449E-04 +7.606592E-05 +4.664499E-03 
 -1.745675E-04 +3.038531E-04 -5.840455E-05 +3.038531E-04 +5.012271E-05 +4.797462E-05 -5.840455E-05 +4.797462E-05 +4.822762E-03 
 -1.941310E-04 +3.569982E-04 -9.572045E-05 +3.569982E-04 +1.599582E-04 +1.511446E-05 -9.572045E-05 +1.511446E-05 +4.900747E-03 
 -4.538569E-06 +2.206158E-04 +9.781205E-05 +2.206158E-04 +1.790171E-04 -8.370382E-06 +9.781205E-05 -8.370382E-06 +4.865236E-03 
 -2.022922E-05 +9.460584E-05 +1.509244E-04 +9.460584E-05 +1.656137E-04 -7.602135E-06 +1.509244E-04 -7.602135E-06 +4.904450E-03 
 -1.680721E-05 +5.283987E-05 +1.114826E-04 +5.283987E-05 +1.304310E-04 -3.911400E-05 +1.114826E-04 -3.911400E-05 +4.915492E-03 
 -2.910756E-05 +8.352006E-06 +2.640203E-05 +8.352006E-06 +8.129833E-05 -5.948575E-05 +2.640203E-05 -5.948575E-05 +4.920867E-03 
 -6.491211E-05 -4.670729E-05 -6.546595E-05 -4.670729E-05 +7.239429E-05 -2.785447E-05 -6.546595E-05 -2.785447E-05 +4.959759E-03 
 -4.378350E-05 -6.942254E-05 -7.865616E-05 -6.942254E-05 +3.431915E-05 -1.933881E-06 -7.865616E-05 -1.933881E-06 +4.990083E-03 
 +2.394456E-05 -6.136291E-05 -5.587718E-05 -6.136291E-05 -3.771982E-05 -4.841629E-06 -5.587718E-05 -4.841629E-06 +5.013288E-03 
 +1.362647E-04 +3.668912E-05 +2.549671E-05 +3.668912E-05 -1.084870E-04 +7.268603E-05 +2.549671E-05 +7.268603E-05 +4.988747E-03 
 +7.029377E-05 +1.192471E-04 -5.196181E-05 +1.192471E-04 +1.791646E-05 +1.411497E-04 -5.196181E-05 +1.411497E-04 +4.895893E-03 
 +2.851533E-05 +3.947994E-05 +9.084283E-05 +3.947994E-05 +1.894396E-04 +9.071276E-05 +9.084283E-05 +9.071276E-05 +4.884037E-03 
 -1.300580E-04 -2.851022E-05 +9.631594E-05 -2.851022E-05 +2.648412E-04 +3.610471E-05 +9.631594E-05 +3.610471E-05 +5.025511E-03 
 -2.413150E-04 -8.082422E-05 +1.133602E-04 -8.082422E-05 +2.897496E-04 -4.652061E-05 +1.133602E-04 -4.652061E-05 +4.985384E-03 
 +2.940714E-04 -1.948101E-04 +1.135239E-04 -1.948101E-04 +2.255850E-04 -1.480854E-04 +1.135239E-04 -1.480854E-04 +4.653855E-03 
 +2.840881E-04 -1.866622E-04 +4.057068E-05 -1.866622E-04 +2.541681E-04 -1.432980E-04 +4.057068E-05 -1.432980E-04 +4.474357E-03 
 +9.570554E-05 -6.946166E-05 +1.235159E-04 -6.946166E-05 +2.941389E-04 -1.063279E-04 +1.235159E-04 -1.063279E-04 +4.443046E-03 
 +1.559088E-04 -4.696430E-05 +1.628751E-04 -4.696430E-05 +2.594960E-04 -8.880157E-05 +1.628751E-04 -8.880157E-05 +4.421964E-03 
 +1.160231E-04 +3.558526E-05 +7.173748E-05 +3.558526E-05 +1.881274E-04 -1.437662E-05 +7.173748E-05 -1.437662E-05 +4.524117E-03 
 -2.984655E-05 +1.395555E-04 +1.505634E-05 +1.395555E-04 +1.097257E-04 -9.094799E-06 +1.505634E-05 -9.094799E-06 +4.711327E-03 
 -1.761693E-04 +1.134968E-04 +8.468757E-05 +1.134968E-04 +8.695453E-05 -8.383843E-05 +8.468757E-05 -8.383843E-05 +4.780936E-03 
 -6.637309E-05 +1.883472E-04 -1.570474E-04 +1.883472E-04 +3.419753E-05 -6.458202E-05 -1.570474E-04 -6.458202E-05 +4.833863E-03 
 -9.341433E-05 +2.503521E-04 -1.822450E-04 +2.503521E-04 +4.938565E-05 -4.232966E-05 -1.822450E-04 -4.232966E-05 +4.912983E-03 
 -1.406089E-04 +1.456709E-04 +5.177005E-05 +1.456709E-04 +1.406512E-04 -3.620578E-05 +5.177005E-05 -3.620578E-05 +4.936801E-03 
 -8.489641E-05 +7.433010E-05 +1.468907E-04 +7.433010E-05 +1.734689E-04 -1.902296E-05 +1.468907E-04 -1.902296E-05 +4.962342E-03 
 -6.039835E-05 +5.900244E-05 +1.102761E-04 +5.900244E-05 +1.404442E-04 -3.230178E-05 +1.102761E-04 -3.230178E-05 +4.979838E-03 
 -6.468885E-05 +1.935612E-05 +6.137099E-05 +1.935612E-05 +1.045648E-04 -2.357947E-05 +6.137099E-05 -2.357947E-05 +4.998446E-03 
 -7.344234E-05 -2.479551E-05 -1.653997E-05 -2.479551E-05 +6.411600E-05 -1.575041E-05 -1.653997E-05 -1.575041E-05 +5.016098E-03 
 -5.326413E-05 -8.330885E-05 -3.653246E-05 -8.330885E-05 +3.778112E-05 -8.267631E-05 -3.653246E-05 -8.267631E-05 +5.000575E-03 
 +1.404474E-06 -7.718973E-05 -2.286240E-06 -7.718973E-05 +2.754976E-05 -1.047553E-04 -2.286240E-06 -1.047553E-04 +4.946172E-03 
 +9.672699E-05 +6.487919E-05 +1.395941E-04 +6.487919E-05 -7.456229E-05 -4.774963E-05 +1.395941E-04 -4.774963E-05 +4.930058E-03 
 +7.359509E-05 +3.421898E-04 -1.914533E-05 +3.421898E-04 -1.548524E-04 +2.669849E-05 -1.914533E-05 +2.669849E-05 +4.931611E-03 
 +1.031495E-04 +2.662980E-04 +2.478672E-05 +2.662980E-04 -2.033556E-04 +2.026941E-05 +2.478672E-05 +2.026941E-05 +4.960546E-03 
 +3.469902E-05 +2.457551E-04 +7.081974E-05 +2.457551E-04 -2.900932E-04 -9.031349E-06 +7.081974E-05 -9.031349E-06 +5.077439E-03 
 -6.369970E-06 +2.066234E-04 +8.584020E-05 +2.066234E-04 -1.740189E-04 -2.692252E-05 +8.584020E-05 -2.692252E-05 +5.013615E-03 
 +1.471920E-04 -6.166236E-06 +5.844421E-05 -6.166236E-06 +1.607844E-04 -1.141121E-04 +5.844421E-05 -1.141121E-04 +4.664221E-03 
 +1.654346E-04 -4.444636E-05 +4.397852E-05 -4.444636E-05 +3.665403E-04 -1.636011E-04 +4.397852E-05 -1.636011E-04 +4.468535E-03 
 +1.807977E-04 -4.376956E-05 +9.851187E-05 -4.376956E-05 +3.785237E-04 -1.207766E-04 +9.851187E-05 -1.207766E-04 +4.415068E-03 
 +1.144877E-04 -5.447334E-05 +1.103858E-04 -5.447334E-05 +3.347611E-04 -8.301219E-05 +1.103858E-04 -8.301219E-05 +4.420283E-03 
 +7.759957E-05 -3.256676E-05 +4.328136E-05 -3.256676E-05 +2.244476E-04 -7.471446E-06 +4.328136E-05 -7.471446E-06 +4.570538E-03 
 -1.378011E-04 +6.311219E-05 -1.501985E-04 +6.311219E-05 +1.182695E-04 +3.491265E-05 -1.501985E-04 +3.491265E-05 +4.780400E-03 
 -2.173363E-04 +9.822065E-05 -6.226234E-05 +9.822065E-05 +4.929018E-05 -7.551288E-05 -6.226234E-05 -7.551288E-05 +4.846796E-03 
 -5.154221E-05 +2.208251E-04 -1.425703E-04 +2.208251E-04 +2.227168E-05 -9.445925E-05 -1.425703E-04 -9.445925E-05 +4.828395E-03 
 -2.338785E-05 +2.663721E-04 -1.804212E-04 +2.663721E-04 +4.575549E-05 -2.208682E-05 -1.804212E-04 -2.208682E-05 +4.890697E-03 
 -1.717539E-04 +1.596862E-04 +2.913463E-05 +1.596862E-04 +1.018689E-04 -4.323446E-05 +2.913463E-05 -4.323446E-05 +4.982833E-03 
 -7.920820E-05 +4.970225E-05 +1.403900E-04 +4.970225E-05 +1.493384E-04 -4.668700E-05 +1.403900E-04 -4.668700E-05 +4.986759E-03 
 -5.784125E-05 +3.900400E-05 +1.445350E-04 +3.900400E-05 +1.525637E-04 -4.690201E-05 +1.445350E-04 -4.690201E-05 +4.994379E-03 
 -1.129050E-04 +1.317195E-05 +1.005609E-04 +1.317195E-05 +1.249470E-04 -5.872714E-05 +1.005609E-04 -5.872714E-05 +5.057063E-03 
 -8.372883E-05 -4.723564E-05 +3.552024E-05 -4.723564E-05 +7.393990E-05 -6.470587E-05 +3.552024E-05 -6.470587E-05 +5.074331E-03 
 -9.284658E-07 -2.773113E-05 -1.791271E-05 -2.773113E-05 +1.314404E-05 -1.297578E-04 -1.791271E-05 -1.297578E-04 +4.977409E-03 
 +1.415417E-04 +9.240280E-05 +1.751739E-05 +9.240280E-05 +1.721264E-04 -6.946131E-05 +1.751739E-05 -6.946131E-05 +4.795475E-03 
 +8.419245E-05 +1.236186E-04 +6.494400E-05 +1.236186E-04 +1.898068E-04 -3.540481E-05 +6.494400E-05 -3.540481E-05 +4.787093E-03 
 +1.078285E-04 +3.742072E-04 -2.963204E-05 +3.742072E-04 -7.865812E-05 +2.622778E-05 -2.963204E-05 +2.622778E-05 +4.917021E-03 
 +1.554559E-04 +2.602334E-04 +2.096190E-05 +2.602334E-04 -2.544609E-04 +5.248964E-05 +2.096190E-05 +5.248964E-05 +5.002258E-03 
 +9.909774E-05 +1.940516E-04 +5.849684E-05 +1.940516E-04 -2.082597E-04 +3.932951E-05 +5.849684E-05 +3.932951E-05 +5.077979E-03 
 +3.363930E-05 +1.634794E-04 +8.065978E-05 +1.634794E-04 -5.198662E-05 +3.511088E-05 +8.065978E-05 +3.511088E-05 +5.067549E-03 
 +7.302900E-05 +4.839317E-05 +1.741197E-05 +4.839317E-05 +2.149651E-04 -3.529578E-05 +1.741197E-05 -3.529578E-05 +4.770777E-03 
 +1.466790E-04 -4.531369E-05 +1.209904E-05 -4.531369E-05 +3.908711E-04 -9.319827E-05 +1.209904E-05 -9.319827E-05 +4.506965E-03 
 +1.709488E-04 -2.224254E-05 +7.015128E-05 -2.224254E-05 +3.734179E-04 -6.358227E-05 +7.015128E-05 -6.358227E-05 +4.439504E-03 
 +1.188439E-04 -1.059314E-05 +4.414572E-05 -1.059314E-05 +3.763974E-04 -1.681936E-05 +4.414572E-05 -1.681936E-05 +4.462981E-03 
 -7.043235E-05 -7.693261E-05 +1.666569E-06 -7.693261E-05 +3.426420E-04 +6.056694E-05 +1.666569E-06 +6.056694E-05 +4.603603E-03 
 -2.308615E-04 +2.258880E-05 -2.002658E-04 +2.258880E-05 +1.596034E-04 +7.824509E-05 -2.002658E-04 +7.824509E-05 +4.820206E-03 
 -2.097567E-04 +6.969581E-05 -1.864146E-04 +6.969581E-05 +1.518586E-05 -1.651819E-05 -1.864146E-04 -1.651819E-05 +4.893936E-03 
 -8.726539E-05 +1.625874E-04 -1.172162E-04 +1.625874E-04 -6.250382E-05 -7.325150E-05 -1.172162E-04 -7.325150E-05 +4.913674E-03 
 -4.914986E-05 +2.534033E-04 -8.039994E-05 +2.534033E-04 -6.724966E-05 -5.534346E-05 -8.039994E-05 -5.534346E-05 +4.999236E-03 
 -9.134141E-05 +1.684805E-04 +7.825009E-05 +1.684805E-04 +1.433937E-05 -7.508043E-05 +7.825009E-05 -7.508043E-05 +5.066748E-03 
 -9.326229E-05 +8.237543E-05 +1.986299E-04 +8.237543E-05 +7.417329E-05 -6.956899E-05 +1.986299E-04 -6.956899E-05 +5.042835E-03 
 -8.423137E-05 +1.150515E-06 +2.122785E-04 +1.150515E-06 +8.374327E-05 -9.262924E-05 +2.122785E-04 -9.262924E-05 +5.081018E-03 
 -1.013414E-04 -1.822481E-05 +1.738432E-04 -1.822481E-05 +8.440570E-05 -1.522297E-04 +1.738432E-04 -1.522297E-04 +5.188797E-03 
 -1.124164E-04 -9.872582E-05 +7.146409E-05 -9.872582E-05 +3.205159E-05 -1.637717E-04 +7.146409E-05 -1.637717E-04 +5.160265E-03 
 +1.170337E-04 +1.206993E-04 -3.824300E-05 +1.206993E-04 +1.023127E-04 -1.489522E-04 -3.824300E-05 -1.489522E-04 +4.857275E-03 
 +2.201686E-04 +1.880761E-04 +3.436781E-06 +1.880761E-04 +2.340931E-04 -2.912788E-05 +3.436781E-06 -2.912788E-05 +4.657250E-03 
 +1.882228E-04 +9.532457E-05 +4.912248E-05 +9.532457E-05 +3.339479E-04 +3.005599E-05 +4.912248E-05 +3.005599E-05 +4.700642E-03 
 -2.535959E-06 +1.866107E-04 -4.440245E-05 +1.866107E-04 +1.154642E-04 +9.438593E-05 -4.440245E-05 +9.438593E-05 +4.880782E-03 
 +9.000637E-05 +2.457237E-04 +5.418833E-05 +2.457237E-04 -1.316803E-04 +1.359866E-04 +5.418833E-05 +1.359866E-04 +4.985215E-03 
 +1.220977E-04 +1.820726E-04 +2.554009E-05 +1.820726E-04 -1.793875E-04 +8.900434E-05 +2.554009E-05 +8.900434E-05 +5.016035E-03 
 +8.482252E-05 +2.861116E-04 +4.288793E-05 +2.861116E-04 -2.606162E-04 +3.577840E-05 +4.288793E-05 +3.577840E-05 +5.088349E-03 
 +9.200157E-05 +2.830857E-04 +3.287441E-05 +2.830857E-04 -1.500835E-04 -8.794964E-06 +3.287441E-05 -8.794964E-06 +4.979284E-03 
 +2.510125E-04 +1.368302E-04 +2.193113E-06 +1.368302E-04 +1.545256E-04 -5.719139E-05 +2.193113E-06 -5.719139E-05 +4.701711E-03 
 +2.049669E-04 +5.873125E-05 -9.827614E-07 +5.873125E-05 +2.828715E-04 -7.612340E-06 -9.827614E-07 -7.612340E-06 +4.626971E-03 
 +3.531390E-05 +1.238506E-04 -1.064433E-05 +1.238506E-04 +2.974025E-04 +4.635104E-05 -1.064433E-05 +4.635104E-05 +4.668782E-03 
 -1.946607E-04 -2.180854E-05 -1.285890E-05 -2.180854E-05 +3.765818E-04 +4.149379E-05 -1.285890E-05 +4.149379E-05 +4.699057E-03 
 -2.688675E-04 -3.360321E-06 -1.350809E-04 -3.360321E-06 +2.457665E-04 +2.989153E-05 -1.350809E-04 +2.989153E-05 +4.848819E-03 
 -3.573784E-04 +1.094359E-04 -1.859838E-04 +1.094359E-04 +2.247015E-05 -4.330830E-05 -1.859838E-04 -4.330830E-05 +4.968663E-03 
 -2.099306E-04 +1.096157E-04 -6.399085E-05 +1.096157E-04 -1.235932E-04 -7.776368E-05 -6.399085E-05 -7.776368E-05 +5.049477E-03 
 -5.212249E-05 +2.325491E-04 +5.082315E-05 +2.325491E-04 -2.499122E-04 -2.213228E-05 +5.082315E-05 -2.213228E-05 +5.193973E-03 
 -2.942022E-05 +2.055623E-04 +1.244488E-04 +2.055623E-04 -2.076698E-04 -5.602977E-05 +1.244488E-04 -5.602977E-05 +5.255121E-03 
 -1.095460E-04 +3.805286E-05 +2.260842E-04 +3.805286E-05 -5.256580E-05 -9.098197E-05 +2.260842E-04 -9.098197E-05 +5.165692E-03 
 -5.660201E-05 -5.538472E-05 +2.437269E-04 -5.538472E-05 -6.428866E-05 -1.112079E-04 +2.437269E-04 -1.112079E-04 +5.131778E-03 
 -2.766196E-05 +2.835758E-05 +2.023433E-04 +2.835758E-05 -1.415580E-04 -1.733414E-04 +2.023433E-04 -1.733414E-04 +5.198566E-03 
 -9.657523E-05 -1.509183E-05 +5.242853E-05 -1.509183E-05 -5.916621E-05 -2.029392E-04 +5.242853E-05 -2.029392E-04 +5.121105E-03 
 +4.955574E-05 +1.843852E-04 -1.233027E-05 +1.843852E-04 +2.715887E-06 -9.429786E-05 -1.233027E-05 -9.429786E-05 +4.885686E-03 
 +1.590713E-04 +8.502247E-05 +2.035234E-06 +8.502247E-05 +1.617037E-04 -8.578042E-07 +2.035234E-06 -8.578042E-07 +4.741108E-03 
 +2.424496E-04 -2.591192E-05 +8.618748E-05 -2.591192E-05 +3.171307E-04 +2.849701E-05 +8.618748E-05 +2.849701E-05 +4.784802E-03 
 -3.581754E-05 -2.440927E-04 -7.413166E-05 -2.440927E-04 +3.355585E-04 +8.670784E-05 -7.413166E-05 +8.670784E-05 +4.903949E-03 
 +1.511208E-04 +1.119081E-04 +5.436159E-05 +1.119081E-04 +9.011245E-05 +2.019499E-04 +5.436159E-05 +2.019499E-04 +4.956655E-03 
 +2.437373E-04 +1.111449E-04 +8.296539E-05 +1.111449E-04 -1.342957E-04 +1.445544E-04 +8.296539E-05 +1.445544E-04 +4.959758E-03 
 +2.087591E-04 +2.655491E-04 +6.419091E-05 +2.655491E-04 -2.974471E-04 +2.796993E-05 +6.419091E-05 +2.796993E-05 +5.027323E-03 
 +2.035744E-04 +4.366986E-04 +5.092789E-05 +4.366986E-04 -3.490369E-04 -1.536645E-06 +5.092789E-05 -1.536645E-06 +5.070349E-03 
 +2.069112E-04 +3.059257E-04 +1.149719E-05 +3.059257E-04 -3.089215E-04 -6.287756E-05 +1.149719E-05 -6.287756E-05 +5.016196E-03 
 -2.055149E-05 -6.186786E-05 -9.677348E-06 -6.186786E-05 -1.152532E-04 -6.379829E-05 -9.677348E-06 -6.379829E-05 +4.997314E-03 
 -9.665855E-05 -1.406160E-04 +1.037264E-06 -1.406160E-04 +3.885696E-05 -2.459912E-05 +1.037264E-06 -2.459912E-05 +4.992679E-03 
 -2.197740E-04 -2.895050E-04 -7.313712E-06 -2.895050E-04 +1.167489E-05 -3.898934E-05 -7.313712E-06 -3.898934E-05 +4.963769E-03 
 -2.922607E-04 -2.718928E-04 -4.184446E-05 -2.718928E-04 +6.035368E-05 -1.531918E-05 -4.184446E-05 -1.531918E-05 +5.001309E-03 
 -4.156731E-04 -7.107048E-05 -1.036233E-04 -7.107048E-05 +1.811290E-04 +1.023019E-05 -1.036233E-04 +1.023019E-05 +5.088683E-03 
 -3.502986E-04 -5.393486E-05 -1.891476E-05 -5.393486E-05 +6.091892E-05 +8.225977E-07 -1.891476E-05 +8.225977E-07 +5.159758E-03 
 -9.173373E-05 +9.296892E-05 +5.938631E-05 +9.296892E-05 -2.283864E-04 -3.153374E-05 +5.938631E-05 -3.153374E-05 +5.271947E-03 
 -2.029367E-05 +1.763254E-04 +1.120063E-04 +1.763254E-04 -3.486643E-04 -4.957854E-05 +1.120063E-04 -4.957854E-05 +5.323064E-03 
 +1.520070E-05 +7.136290E-05 +1.057928E-04 +7.136290E-05 -3.728761E-04 +1.775185E-06 +1.057928E-04 +1.775185E-06 +5.243785E-03 
 +6.099390E-05 +2.334033E-05 +1.286159E-04 +2.334033E-05 -3.036447E-04 -4.621171E-05 +1.286159E-04 -4.621171E-05 +5.132053E-03 
 +3.858202E-05 +6.251039E-05 +1.864265E-04 +6.251039E-05 -2.244275E-04 -1.129155E-04 +1.864265E-04 -1.129155E-04 +5.084871E-03 
 -3.689316E-05 +8.930252E-05 -3.279097E-07 +8.930252E-05 -1.988804E-04 -1.216065E-04 -3.279097E-07 -1.216065E-04 +5.055736E-03 
 +3.433795E-05 +2.152378E-04 +7.229144E-05 +2.152378E-04 -1.501365E-04 +8.420206E-05 +7.229144E-05 +8.420206E-05 +5.160233E-03 
 +9.703613E-05 +2.153317E-04 +7.722307E-05 +2.153317E-04 -1.786021E-04 +1.777963E-04 +7.722307E-05 +1.777963E-04 +5.114345E-03 
 +1.161846E-04 +1.775411E-04 +1.326403E-04 +1.775411E-04 -6.249629E-05 +1.616905E-04 +1.326403E-04 +1.616905E-04 +5.042546E-03 
 +7.146144E-05 -1.684633E-04 -3.263256E-06 -1.684633E-04 +1.025292E-04 +7.887918E-05 -3.263256E-06 +7.887918E-05 +4.957542E-03 
 +3.809782E-04 +1.190239E-04 +1.828933E-05 +1.190239E-04 +1.367535E-04 +1.612840E-04 +1.828933E-05 +1.612840E-04 +4.906041E-03 
 +3.283565E-04 +7.315664E-05 +1.540370E-05 +7.315664E-05 -1.935775E-05 +1.480336E-04 +1.540370E-05 +1.480336E-04 +4.918366E-03 
 +1.578339E-04 +1.678869E-04 -3.390812E-05 +1.678869E-04 -1.673473E-04 +2.731553E-05 -3.390812E-05 +2.731553E-05 +4.961445E-03 
 +1.172869E-04 +1.606067E-04 -6.668678E-05 +1.606067E-04 -1.726325E-04 -9.923125E-06 -6.668678E-05 -9.923125E-06 +5.008359E-03 
 -7.802336E-05 -1.783905E-04 -1.514388E-05 -1.783905E-04 -1.378475E-04 -6.988837E-05 -1.514388E-05 -6.988837E-05 +5.055784E-03 
 -1.539207E-04 -2.919402E-04 +2.560440E-05 -2.919402E-04 -1.028270E-04 -9.373417E-05 +2.560440E-05 -9.373417E-05 +5.073039E-03 
 -1.131511E-04 -2.513525E-04 +4.608935E-05 -2.513525E-04 -5.352131E-05 -4.417779E-05 +4.608935E-05 -4.417779E-05 +5.064698E-03 
 -1.127604E-04 -2.985978E-04 +3.410537E-05 -2.985978E-04 -1.355903E-05 +4.225357E-06 +3.410537E-05 +4.225357E-06 +5.077184E-03 
 -2.997322E-04 -1.426415E-04 -1.444051E-05 -1.426415E-04 +1.609791E-04 +5.261375E-05 -1.444051E-05 +5.261375E-05 +5.088544E-03 
 -3.863441E-04 -4.121682E-05 -2.449317E-05 -4.121682E-05 +2.845432E-04 +7.769997E-05 -2.449317E-05 +7.769997E-05 +5.101364E-03 
 -3.838844E-04 -1.459369E-04 +8.775697E-06 -1.459369E-04 +2.824011E-04 +1.813741E-05 +8.775697E-06 +1.813741E-05 +5.122735E-03 
 -2.526117E-04 -9.024004E-05 +4.134459E-05 -9.024004E-05 +7.462028E-05 -2.473955E-05 +4.134459E-05 -2.473955E-05 +5.166134E-03 
 +1.083313E-04 +1.029060E-04 +1.057511E-04 +1.029060E-04 -3.176599E-04 -4.506669E-05 +1.057511E-04 -4.506669E-05 +5.190958E-03 
 +1.773041E-04 +5.439885E-05 -2.130044E-05 +5.439885E-05 -4.917391E-04 -5.628778E-05 -2.130044E-05 -5.628778E-05 +5.188486E-03 
 +1.242512E-04 +5.656359E-05 -2.440404E-05 +5.656359E-05 -3.964881E-04 -6.030468E-05 -2.440404E-05 -6.030468E-05 +5.168288E-03 
 +7.425871E-05 +4.389455E-06 +1.598175E-04 +4.389455E-06 -2.343987E-04 -6.896462E-05 +1.598175E-04 -6.896462E-05 +5.108177E-03 
 -7.215021E-06 +2.922618E-05 -3.256204E-06 +2.922618E-05 -1.143286E-04 -1.643401E-05 -3.256204E-06 -1.643401E-05 +5.128850E-03 
 +6.465319E-05 +1.966237E-04 +1.236128E-04 +1.966237E-04 -2.197586E-04 +7.887938E-05 +1.236128E-04 +7.887938E-05 +5.258265E-03 
 +7.672601E-05 +2.531762E-04 +1.507353E-04 +2.531762E-04 -2.191566E-04 +1.694957E-04 +1.507353E-04 +1.694957E-04 +5.219867E-03 
 +1.254419E-04 +2.614604E-04 +1.219440E-04 +2.614604E-04 -2.183814E-04 +1.507544E-04 +1.219440E-04 +1.507544E-04 +5.108795E-03 
 +2.137117E-04 +1.919194E-04 +4.727454E-05 +1.919194E-04 +9.497012E-06 +6.168960E-05 +4.727454E-05 +6.168960E-05 +4.960745E-03 
 +2.594694E-04 +7.823750E-05 -3.604137E-05 +7.823750E-05 +2.666085E-04 +1.606370E-04 -3.604137E-05 +1.606370E-04 +4.872433E-03 
 +8.544189E-05 -2.773407E-04 -1.225647E-04 -2.773407E-04 +2.294783E-04 +2.178873E-04 -1.225647E-04 +2.178873E-04 +4.912680E-03 
 -5.552794E-05 -2.947563E-04 -1.160147E-04 -2.947563E-04 +2.304452E-04 +3.459962E-05 -1.160147E-04 +3.459962E-05 +4.965788E-03 
 -1.314405E-04 -2.329524E-04 -8.534182E-05 -2.329524E-04 +8.705909E-05 -5.356671E-05 -8.534182E-05 -5.356671E-05 +4.984066E-03 
 -9.963149E-05 -2.884957E-04 -3.095882E-05 -2.884957E-04 -7.241402E-05 -5.654859E-05 -3.095882E-05 -5.654859E-05 +5.001276E-03 
 -5.467396E-05 -2.815906E-04 +2.085399E-05 -2.815906E-04 -8.306230E-05 -2.860598E-05 +2.085399E-05 -2.860598E-05 +5.022694E-03 
 -3.354506E-05 -3.234423E-04 +6.365976E-05 -3.234423E-04 -8.405764E-05 -9.836945E-07 +6.365976E-05 -9.836945E-07 +5.027862E-03 
 +6.437201E-06 -3.685768E-04 +8.524793E-05 -3.685768E-04 -4.072549E-05 -1.980669E-05 +8.524793E-05 -1.980669E-05 +5.067205E-03 
 -2.523778E-04 -1.372321E-04 +5.582709E-05 -1.372321E-04 +1.172217E-04 -2.740474E-05 +5.582709E-05 -2.740474E-05 +5.104432E-03 
 -3.185222E-04 -9.374053E-05 +7.701865E-05 -9.374053E-05 +2.573983E-04 -1.928773E-05 +7.701865E-05 -1.928773E-05 +5.077971E-03 
 -3.420993E-04 -1.211123E-04 +9.480994E-05 -1.211123E-04 +2.791389E-04 -5.801106E-05 +9.480994E-05 -5.801106E-05 +5.077577E-03 
 -3.362803E-04 -1.587794E-04 +9.192359E-05 -1.587794E-04 +1.566546E-04 -9.155608E-05 +9.192359E-05 -9.155608E-05 +5.073223E-03 
 +1.842395E-04 -1.578571E-05 +2.491620E-05 -1.578571E-05 -1.929050E-04 -9.027808E-05 +2.491620E-05 -9.027808E-05 +5.027614E-03 
 +2.637745E-04 +1.035957E-04 -6.246150E-05 +1.035957E-04 -4.032298E-04 -5.776320E-05 -6.246150E-05 -5.776320E-05 +5.041900E-03 
 +1.673225E-04 +1.519842E-04 -2.426844E-05 +1.519842E-04 -3.799329E-04 -3.930245E-05 -2.426844E-05 -3.930245E-05 +5.110301E-03 
 +1.356709E-04 +1.391469E-04 +7.953704E-05 +1.391469E-04 -3.210928E-04 -1.290794E-04 +7.953704E-05 -1.290794E-04 +5.134236E-03 
 +4.107506E-05 +1.953471E-04 +5.816792E-05 +1.953471E-04 -2.196373E-04 -1.133096E-04 +5.816792E-05 -1.133096E-04 +5.186216E-03 
 +1.507129E-05 +1.279636E-04 +1.318298E-04 +1.279636E-04 -2.197315E-04 +1.158915E-05 +1.318298E-04 +1.158915E-05 +5.198801E-03 
 +7.059441E-05 +2.121450E-04 +1.286627E-04 +2.121450E-04 -1.866626E-04 +6.880716E-05 +1.286627E-04 +6.880716E-05 +5.153555E-03 
 +1.668303E-04 +1.430936E-04 +2.575860E-05 +1.430936E-04 -1.733793E-04 +4.293054E-05 +2.575860E-05 +4.293054E-05 +5.079009E-03 
 +1.461595E-04 +1.015595E-04 -4.846626E-05 +1.015595E-04 +1.469783E-05 +4.412620E-05 -4.846626E-05 +4.412620E-05 +4.988790E-03 
 +1.382850E-05 -2.449194E-04 -9.110538E-05 -2.449194E-04 +1.280032E-04 +1.944858E-04 -9.110538E-05 +1.944858E-04 +4.921106E-03 
 -1.415642E-04 -2.966322E-04 -8.789348E-05 -2.966322E-04 +1.828197E-04 +2.600360E-04 -8.789348E-05 +2.600360E-04 +4.950169E-03 
 -2.015987E-04 -1.712214E-04 -6.179077E-05 -1.712214E-04 +2.280620E-04 +9.016941E-05 -6.179077E-05 +9.016941E-05 +5.000378E-03 
 -1.822272E-04 -1.848057E-04 +1.728606E-05 -1.848057E-04 +1.196242E-04 -3.088849E-05 +1.728606E-05 -3.088849E-05 +5.014027E-03 
 -7.092743E-05 -2.824547E-04 +3.242196E-05 -2.824547E-04 -4.019422E-05 -6.432584E-05 +3.242196E-05 -6.432584E-05 +5.015755E-03 
 -1.957523E-05 -3.176381E-04 +5.605535E-05 -3.176381E-04 -9.314802E-05 -6.186420E-05 +5.605535E-05 -6.186420E-05 +5.049255E-03 
 +1.782506E-05 -3.666019E-04 +7.817053E-05 -3.666019E-04 -9.574375E-05 -5.734855E-05 +7.817053E-05 -5.734855E-05 +5.056925E-03 
 +2.290812E-05 -3.975744E-04 +6.639684E-05 -3.975744E-04 -1.009447E-04 -5.841041E-05 +6.639684E-05 -5.841041E-05 +5.103117E-03 
 -1.139180E-04 -7.637437E-05 +1.285923E-04 -7.637437E-05 +3.562656E-05 -3.540917E-05 +1.285923E-04 -3.540917E-05 +5.157814E-03 
 -1.373821E-04 -9.300688E-05 +1.510084E-04 -9.300688E-05 +1.603455E-04 -9.152838E-06 +1.510084E-04 -9.152838E-06 +5.100943E-03 
 -1.647962E-04 -8.201313E-05 +1.575249E-04 -8.201313E-05 +1.898327E-04 -2.054063E-05 +1.575249E-04 -2.054063E-05 +5.070671E-03 
 -2.080801E-04 -1.363116E-04 +1.273518E-04 -1.363116E-04 +1.286301E-04 -5.344118E-05 +1.273518E-04 -5.344118E-05 +5.018785E-03 
 +1.075848E-04 -3.414739E-05 -3.778856E-06 -3.414739E-05 -1.026315E-04 -8.085455E-05 -3.778856E-06 -8.085455E-05 +4.940234E-03 
 +2.340012E-04 +1.720190E-04 -1.560066E-05 +1.720190E-04 -2.936656E-04 -7.888797E-05 -1.560066E-05 -7.888797E-05 +4.965576E-03 
 +1.927267E-04 +1.491121E-04 +2.267877E-05 +1.491121E-04 -3.593852E-04 -1.104312E-04 +2.267877E-05 -1.104312E-04 +5.027003E-03 
 +1.609932E-04 +1.394084E-04 +1.129868E-05 +1.394084E-04 -3.405553E-04 -1.734820E-04 +1.129868E-05 -1.734820E-04 +5.070756E-03 
 +9.141022E-05 +1.137345E-04 +6.826688E-05 +1.137345E-04 -2.933433E-04 -1.478670E-04 +6.826688E-05 -1.478670E-04 +5.140278E-03 
 -9.668376E-06 +2.244958E-04 +4.763357E-05 +2.244958E-04 -2.429681E-04 -2.240190E-05 +4.763357E-05 -2.240190E-05 +5.183932E-03 
 +7.768198E-06 +1.692066E-04 +5.446744E-05 +1.692066E-04 -1.579334E-04 +5.340290E-05 +5.446744E-05 +5.340290E-05 +5.173383E-03 
 +1.204675E-05 +1.373359E-04 +2.110682E-05 +1.373359E-04 -5.278371E-05 +2.481888E-05 +2.110682E-05 +2.481888E-05 +5.102985E-03 
 -4.409443E-05 +7.322232E-05 -5.231626E-05 +7.322232E-05 -2.200091E-05 +4.007719E-05 -5.231626E-05 +4.007719E-05 +5.041579E-03 
 -1.185823E-05 -2.642881E-04 -1.053453E-04 -2.642881E-04 -8.604102E-05 +1.978532E-04 -1.053453E-04 +1.978532E-04 +5.013600E-03 
 -1.269899E-04 -2.169819E-04 -7.635263E-05 -2.169819E-04 +6.039875E-05 +2.214134E-04 -7.635263E-05 +2.214134E-04 +5.001347E-03 
 -2.207437E-04 -2.028794E-04 -7.333496E-05 -2.028794E-04 +2.265915E-04 +7.451384E-05 -7.333496E-05 +7.451384E-05 +5.005230E-03 
 -2.189023E-04 -2.447595E-04 +2.615763E-05 -2.447595E-04 +1.907442E-04 -3.626501E-05 +2.615763E-05 -3.626501E-05 +5.019458E-03 
 -1.306393E-04 -2.688212E-04 +2.447046E-05 -2.688212E-04 +6.272203E-05 -6.041659E-05 +2.447046E-05 -6.041659E-05 +5.022008E-03 
 -2.813009E-05 -2.178943E-04 +1.936243E-05 -2.178943E-04 -7.053480E-05 -6.941125E-05 +1.936243E-05 -6.941125E-05 +5.076452E-03 
 -5.647562E-06 -3.442806E-04 +2.936488E-05 -3.442806E-04 -1.444463E-04 -8.260094E-05 +2.936488E-05 -8.260094E-05 +5.115219E-03 
 -4.549919E-05 -4.063100E-04 -1.309964E-05 -4.063100E-04 -1.820984E-04 -8.955953E-05 -1.309964E-05 -8.955953E-05 +5.142311E-03 
 +8.423874E-05 -2.090529E-05 +1.609239E-04 -2.090529E-05 -1.586340E-04 -1.001528E-04 +1.609239E-04 -1.001528E-04 +5.139320E-03 
 +6.341584E-05 -8.125698E-05 +1.755890E-04 -8.125698E-05 -4.744451E-05 -9.451479E-05 +1.755890E-04 -9.451479E-05 +5.036892E-03 
 +3.253521E-05 -1.203574E-04 +1.960989E-04 -1.203574E-04 +2.257011E-05 -8.590725E-05 +1.960989E-04 -8.590725E-05 +4.966049E-03 
 +1.237503E-05 -3.014514E-04 +1.902270E-04 -3.014514E-04 -4.408144E-05 -1.018695E-04 +1.902270E-04 -1.018695E-04 +4.897708E-03 
 +4.678309E-05 -2.034650E-04 +4.034935E-05 -2.034650E-04 -1.408251E-04 -1.198903E-04 +4.034935E-05 -1.198903E-04 +4.901812E-03 
 +1.022535E-04 +7.158820E-05 +4.069769E-06 +7.158820E-05 -2.578714E-04 -1.403357E-04 +4.069769E-06 -1.403357E-04 +4.983730E-03 
 +1.807911E-04 +1.124403E-04 -8.495357E-06 +1.124403E-04 -3.374590E-04 -1.622875E-04 -8.495357E-06 -1.622875E-04 +5.024778E-03 
 +1.599938E-04 +1.441365E-04 -3.617692E-05 +1.441365E-04 -3.446323E-04 -1.920203E-04 -3.617692E-05 -1.920203E-04 +5.048712E-03 
 +1.399882E-04 +1.637437E-04 -2.755877E-05 +1.637437E-04 -3.435581E-04 -1.630694E-04 -2.755877E-05 -1.630694E-04 +5.104027E-03 
 -3.877188E-05 +1.665750E-04 -3.852076E-05 +1.665750E-04 -1.668463E-04 -8.826813E-06 -3.852076E-05 -8.826813E-06 +5.161897E-03 
 -3.443752E-05 +1.366073E-04 +7.057589E-06 +1.366073E-04 -1.283939E-04 +2.160752E-05 +7.057589E-06 +2.160752E-05 +5.146981E-03 
 -5.966436E-05 +2.681715E-04 +4.133880E-05 +2.681715E-04 -5.753126E-05 -8.410506E-06 +4.133880E-05 -8.410506E-06 +5.093027E-03 
 -7.638778E-05 +1.405100E-04 +1.471629E-06 +1.405100E-04 -1.285095E-04 +5.240800E-05 +1.471629E-06 +5.240800E-05 +5.083304E-03 
 -2.591324E-04 -1.286400E-04 -8.614166E-06 -1.286400E-04 -1.300472E-04 +1.777318E-04 -8.614166E-06 +1.777318E-04 +5.089378E-03 
 -2.494233E-04 -1.987460E-04 -5.201473E-06 -1.987460E-04 +4.598547E-05 +1.800648E-04 -5.201473E-06 +1.800648E-04 +5.039041E-03 
 -1.184006E-04 -2.315475E-04 -4.013112E-05 -2.315475E-04 +2.129265E-04 +1.022266E-04 -4.013112E-05 +1.022266E-04 +5.006782E-03 
 -1.265171E-04 -3.362985E-04 +1.649722E-05 -3.362985E-04 +2.038470E-04 +3.318753E-06 +1.649722E-05 +3.318753E-06 +5.030260E-03 
 -1.203063E-04 -3.088838E-04 -3.611323E-05 -3.088838E-04 +4.863303E-05 -2.611098E-05 -3.611323E-05 -2.611098E-05 +5.060381E-03 
 -4.108930E-05 -2.678449E-04 -7.566866E-05 -2.678449E-04 -6.523449E-05 -6.127304E-05 -7.566866E-05 -6.127304E-05 +5.121193E-03 
 -1.000802E-04 -3.367306E-04 -6.276349E-05 -3.367306E-04 -2.258790E-04 -1.350416E-04 -6.276349E-05 -1.350416E-04 +5.192232E-03 
 -1.126465E-04 -3.010980E-04 -6.463489E-05 -3.010980E-04 -2.180711E-04 -1.324394E-04 -6.463489E-05 -1.324394E-04 +5.188414E-03 
 +1.832093E-04 +1.955460E-05 +1.320726E-04 +1.955460E-05 -1.744013E-04 -1.021827E-04 +1.320726E-04 -1.021827E-04 +5.098265E-03 
 +2.229421E-04 -2.432651E-05 +1.885207E-04 -2.432651E-05 -1.117090E-04 -7.551936E-05 +1.885207E-04 -7.551936E-05 +4.988892E-03 
 +2.266488E-04 -1.388731E-04 +1.688870E-04 -1.388731E-04 +7.873038E-06 -6.417129E-05 +1.688870E-04 -6.417129E-05 +4.911035E-03 
 +1.701505E-04 -3.525040E-04 +1.590585E-04 -3.525040E-04 +3.200905E-05 -1.597933E-04 +1.590585E-04 -1.597933E-04 +4.829404E-03 
 +2.199363E-05 -2.772723E-04 +2.612589E-05 -2.772723E-04 +6.503572E-06 -1.564636E-04 +2.612589E-05 -1.564636E-04 +4.871007E-03 
 +1.157130E-05 -7.843093E-05 -7.309540E-06 -7.843093E-05 -1.375269E-04 -1.299108E-04 -7.309540E-06 -1.299108E-04 +4.988268E-03 
 +1.933348E-04 +4.190485E-05 -5.456219E-05 +4.190485E-05 -3.527103E-04 -1.763426E-04 -5.456219E-05 -1.763426E-04 +5.033623E-03 
 +2.030082E-04 +1.511601E-04 -9.686570E-05 +1.511601E-04 -4.069596E-04 -1.705855E-04 -9.686570E-05 -1.705855E-04 +5.056040E-03 
 +1.040390E-04 +1.406523E-04 -1.100311E-04 +1.406523E-04 -2.657679E-04 -1.026503E-04 -1.100311E-04 -1.026503E-04 +5.104950E-03 
 +4.077636E-05 +2.093725E-04 -1.194854E-04 +2.093725E-04 -1.142382E-04 -7.411019E-05 -1.194854E-04 -7.411019E-05 +5.129413E-03 
 +3.792352E-05 +2.256304E-04 +1.571677E-05 +2.256304E-04 -1.944741E-04 -9.382887E-05 +1.571677E-05 -9.382887E-05 +5.082771E-03 
 -3.961243E-05 +3.813851E-04 +3.681132E-05 +3.813851E-04 -2.709215E-04 -5.957863E-05 +3.681132E-05 -5.957863E-05 +5.085748E-03 
 -6.803424E-05 +1.145898E-04 +7.496630E-06 +1.145898E-04 -3.582271E-04 +7.530083E-05 +7.496630E-06 +7.530083E-05 +5.102009E-03 
 -3.735343E-04 +3.383495E-04 +1.757952E-05 +3.383495E-04 -7.835579E-05 +1.485375E-04 +1.757952E-05 +1.485375E-04 +5.090264E-03 
 -3.408416E-04 +2.695544E-04 +1.528885E-05 +2.695544E-04 +1.886892E-04 +1.306504E-04 +1.528885E-05 +1.306504E-04 +5.043209E-03 
 -1.787094E-04 +2.550932E-04 -1.062025E-05 +2.550932E-04 +1.324669E-04 +1.163324E-04 -1.062025E-05 +1.163324E-04 +5.042193E-03 
 -1.110128E-04 -1.785534E-04 -5.788743E-06 -1.785534E-04 +1.607815E-04 +4.285561E-05 -5.788743E-06 +4.285561E-05 +5.093155E-03 
 -1.032308E-04 -2.584103E-04 -1.660023E-05 -2.584103E-04 -1.190459E-05 +2.752934E-05 -1.660023E-05 +2.752934E-05 +5.123044E-03 
 -2.822168E-05 -1.523569E-04 -6.835954E-05 -1.523569E-04 -2.257858E-04 +7.293417E-05 -6.835954E-05 +7.293417E-05 +5.161646E-03 
 -5.579231E-05 -1.620052E-04 -1.063008E-04 -1.620052E-04 -2.587722E-04 +6.093619E-05 -1.063008E-04 +6.093619E-05 +5.218536E-03 
 -1.185756E-04 +1.340704E-04 -4.981279E-07 +1.340704E-04 -7.976534E-05 +9.080508E-05 -4.981279E-07 +9.080508E-05 +5.190241E-03 
 +5.409300E-05 +1.851110E-04 +6.724995E-05 +1.851110E-04 -1.893058E-05 +1.374360E-04 +6.724995E-05 +1.374360E-04 +5.080284E-03 
 +2.155602E-04 +1.799347E-04 +1.735247E-04 +1.799347E-04 -8.033981E-05 +1.044494E-04 +1.735247E-04 +1.044494E-04 +4.986781E-03 
 +4.003939E-04 -1.227929E-04 +1.073104E-04 -1.227929E-04 -4.898161E-05 +6.958744E-05 +1.073104E-04 +6.958744E-05 +4.941640E-03 
 +2.818432E-04 -2.980845E-04 +6.097450E-05 -2.980845E-04 +4.800576E-05 +1.416669E-05 +6.097450E-05 +1.416669E-05 +4.873796E-03 
 +9.207642E-05 -2.800377E-04 -4.259831E-05 -2.800377E-04 +1.438937E-04 -2.090626E-06 -4.259831E-05 -2.090626E-06 +4.877516E-03 
 +3.018287E-05 -7.547549E-05 -6.360978E-05 -7.547549E-05 -5.669641E-05 -3.174038E-05 -6.360978E-05 -3.174038E-05 +4.977906E-03 
 +9.228936E-06 +3.345350E-05 -1.073538E-04 +3.345350E-05 -2.741201E-04 -1.468492E-04 -1.073538E-04 -1.468492E-04 +5.032137E-03 
 +1.368792E-04 +1.099124E-04 -1.372385E-04 +1.099124E-04 -2.669783E-04 -1.614532E-04 -1.372385E-04 -1.614532E-04 +5.024068E-03 
 +1.186735E-04 +1.561658E-04 -1.595908E-04 +1.561658E-04 -1.518183E-04 -9.189065E-05 -1.595908E-04 -9.189065E-05 +5.088081E-03 
 +1.423477E-04 +1.336952E-04 -9.550260E-05 +1.336952E-04 -7.214096E-05 -9.417314E-05 -9.550260E-05 -9.417314E-05 +5.029122E-03 
 +1.487775E-04 +6.955590E-05 +5.677214E-05 +6.955590E-05 -4.673731E-05 -6.595523E-05 +5.677214E-05 -6.595523E-05 +4.932531E-03 
 +4.548157E-05 +3.289232E-04 -5.375981E-06 +3.289232E-04 -3.811721E-05 -7.848092E-05 -5.375981E-06 -7.848092E-05 +4.962828E-03 
 -1.706342E-04 +8.374274E-05 +3.430956E-05 +8.374274E-05 +9.699451E-05 +7.007655E-05 +3.430956E-05 +7.007655E-05 +4.996285E-03 
 -1.823848E-04 +3.535155E-04 +1.714501E-05 +3.535155E-04 +1.223926E-04 +1.814317E-04 +1.714501E-05 +1.814317E-04 +5.014298E-03 
 -1.484648E-04 +1.850121E-04 -3.929012E-05 +1.850121E-04 +9.298147E-05 +1.243717E-04 -3.929012E-05 +1.243717E-04 +5.012232E-03 
 -1.707216E-04 +3.538791E-04 -7.767428E-05 +3.538791E-04 -1.570213E-05 +1.114405E-04 -7.767428E-05 +1.114405E-04 +5.066842E-03 
 -1.701405E-04 +2.495079E-04 -9.545900E-05 +2.495079E-04 -5.897840E-05 +6.443030E-05 -9.545900E-05 +6.443030E-05 +5.170723E-03 
 -2.963461E-04 -7.042502E-05 -3.608078E-05 -7.042502E-05 +4.328555E-05 +3.011217E-05 -3.608078E-05 +3.011217E-05 +5.193574E-03 
 -2.242996E-04 -1.887374E-04 -2.488684E-05 -1.887374E-04 -1.228287E-04 +4.736390E-05 -2.488684E-05 +4.736390E-05 +5.187761E-03 
 -1.689132E-05 -1.952435E-04 -5.285984E-05 -1.952435E-04 -1.643086E-04 +7.440424E-05 -5.285984E-05 +7.440424E-05 +5.194557E-03 
 -5.842804E-05 +8.369220E-05 +8.020610E-05 +8.369220E-05 -3.336922E-05 +1.090575E-04 +8.020610E-05 +1.090575E-04 +5.151190E-03 
 -2.803096E-05 +7.819359E-05 +6.750885E-05 +7.819359E-05 -4.151019E-05 +9.571758E-05 +6.750885E-05 +9.571758E-05 +5.088827E-03 
 +6.609267E-05 +2.084768E-04 +1.402671E-04 +2.084768E-04 -1.462020E-04 +3.786891E-05 +1.402671E-04 +3.786891E-05 +5.049653E-03 
 +4.187377E-04 -2.074995E-04 +7.027328E-05 -2.074995E-04 -3.553152E-04 -1.949142E-05 +7.027328E-05 -1.949142E-05 +5.027859E-03 
 +3.975421E-04 -2.397578E-04 +5.813665E-05 -2.397578E-04 -3.915055E-04 +3.338825E-06 +5.813665E-05 +3.338825E-06 +4.975090E-03 
 +2.180298E-04 -2.877703E-04 -2.114760E-05 -2.877703E-04 -1.681817E-04 +4.158375E-05 -2.114760E-05 +4.158375E-05 +4.935162E-03 
 +1.389793E-04 -3.108494E-04 -1.228407E-04 -3.108494E-04 -1.298246E-04 +5.699657E-05 -1.228407E-04 +5.699657E-05 +4.964051E-03 
 -1.704330E-04 +1.536613E-04 -1.427369E-04 +1.536613E-04 +1.710698E-05 -3.173039E-05 -1.427369E-04 -3.173039E-05 +4.999765E-03 
 -7.311787E-05 +1.828617E-04 -1.246435E-04 +1.828617E-04 +1.269797E-04 -1.104744E-04 -1.246435E-04 -1.104744E-04 +4.994253E-03 
 +1.338978E-04 +1.649005E-04 -1.820340E-04 +1.649005E-04 -6.698520E-05 -1.219891E-04 -1.820340E-04 -1.219891E-04 +5.058629E-03 
 +1.039766E-04 +1.587488E-04 +4.530872E-05 +1.587488E-04 +8.310204E-05 -6.084589E-05 +4.530872E-05 -6.084589E-05 +4.877157E-03 
 +7.183593E-05 +3.525048E-06 +5.748830E-05 +3.525048E-06 +1.224905E-04 -2.969721E-05 +5.748830E-05 -2.969721E-05 +4.792920E-03 
 +7.505478E-05 -3.013076E-06 -4.761086E-05 -3.013076E-06 +9.517656E-05 -4.155140E-05 -4.761086E-05 -4.155140E-05 +4.816164E-03 
 -3.664204E-05 -7.418690E-06 +2.045191E-05 -7.418690E-06 +8.833803E-05 +1.130741E-04 +2.045191E-05 +1.130741E-04 +4.885941E-03 
 -1.428204E-04 +1.541576E-04 -8.482519E-05 +1.541576E-04 +6.808472E-05 +2.049284E-04 -8.482519E-05 +2.049284E-04 +4.986038E-03 
 -4.474214E-05 -8.972998E-05 -1.169123E-04 -8.972998E-05 -1.489692E-04 +1.317022E-04 -1.169123E-04 +1.317022E-04 +5.010725E-03 
 -8.514648E-06 -2.095096E-04 -1.417731E-04 -2.095096E-04 -2.704533E-04 +1.116452E-04 -1.417731E-04 +1.116452E-04 +5.055137E-03 
 -3.550917E-05 -1.697506E-04 -1.585228E-04 -1.697506E-04 -2.846972E-04 +3.074722E-05 -1.585228E-04 +3.074722E-05 +5.184710E-03 
 -3.242630E-04 -1.989154E-04 -9.118930E-05 -1.989154E-04 -4.786419E-05 -2.572187E-06 -9.118930E-05 -2.572187E-06 +5.230129E-03 
 -3.953690E-04 -2.337010E-04 +1.152751E-05 -2.337010E-04 +3.717353E-05 +9.954371E-05 +1.152751E-05 +9.954371E-05 +5.194156E-03 
 -1.302075E-04 +1.000785E-04 +3.195325E-05 +1.000785E-04 +3.426199E-05 +1.575544E-04 +3.195325E-05 +1.575544E-04 +5.165419E-03 
 -4.903243E-05 +1.578447E-04 +9.471109E-05 +1.578447E-04 +1.483498E-05 +1.292204E-04 +9.471109E-05 +1.292204E-04 +5.133279E-03 
 -9.186968E-06 +1.123994E-04 +1.077660E-04 +1.123994E-04 -1.252279E-04 +6.875213E-05 +1.077660E-04 +6.875213E-05 +5.128085E-03 
 -1.566360E-05 +1.890847E-04 +1.327635E-04 +1.890847E-04 -1.980822E-04 +3.625242E-05 +1.327635E-04 +3.625242E-05 +5.130701E-03 
 +3.349945E-04 -2.193090E-04 +6.098865E-05 -2.193090E-04 -3.367839E-04 +1.624339E-05 +6.098865E-05 +1.624339E-05 +5.117739E-03 
 +3.769130E-04 -1.837809E-04 +4.634374E-05 -1.837809E-04 -4.037341E-04 +4.999208E-05 +4.634374E-05 +4.999208E-05 +5.076940E-03 
 +3.464124E-04 -2.274496E-04 +1.357471E-05 -2.274496E-04 -3.180850E-04 +1.142421E-04 +1.357471E-05 +1.142421E-04 +4.988913E-03 
 +2.168372E-04 -3.246322E-04 -9.705728E-05 -3.246322E-04 -1.306979E-04 +1.086284E-04 -9.705728E-05 +1.086284E-04 +4.961041E-03 
 -1.229192E-04 +2.977641E-04 -1.502729E-04 +2.977641E-04 +1.120999E-04 -2.749169E-06 -1.502729E-04 -2.749169E-06 +4.970335E-03 
 -1.008026E-04 +1.665205E-04 -1.356034E-04 +1.665205E-04 +2.103764E-04 -1.058342E-04 -1.356034E-04 -1.058342E-04 +4.953383E-03 
 -1.103989E-04 +2.651835E-04 -1.620137E-04 +2.651835E-04 +1.655848E-04 -1.208691E-04 -1.620137E-04 -1.208691E-04 +4.965691E-03 
 -4.775374E-05 +1.680383E-04 +6.811577E-05 +1.680383E-04 +1.657010E-04 -5.806435E-05 +6.811577E-05 -5.806435E-05 +4.850962E-03 
 -2.449348E-05 +9.671268E-05 +4.951174E-05 +9.671268E-05 +2.287437E-04 -4.167531E-05 +4.951174E-05 -4.167531E-05 +4.759895E-03 
 -2.246512E-05 +6.836533E-05 -1.071630E-04 +6.836533E-05 +1.311880E-04 +2.614779E-06 -1.071630E-04 +2.614779E-06 +4.762080E-03 
 +2.920433E-05 +4.952581E-05 -5.490196E-05 +4.952581E-05 +8.509399E-05 +9.051395E-05 -5.490196E-05 +9.051395E-05 +4.815030E-03 
 -8.155488E-05 -1.543282E-04 -2.050653E-04 -1.543282E-04 -7.737423E-05 +1.171771E-04 -2.050653E-04 +1.171771E-04 +4.950643E-03 
 -4.501739E-05 -1.399872E-04 -1.726084E-04 -1.399872E-04 -2.440955E-04 +5.347040E-05 -1.726084E-04 +5.347040E-05 +5.029068E-03 
 +1.745582E-05 -1.830758E-04 -1.608996E-04 -1.830758E-04 -2.583912E-04 +6.138486E-05 -1.608996E-04 +6.138486E-05 +5.039334E-03 
 +4.248160E-05 -1.813689E-04 -1.268446E-04 -1.813689E-04 -3.311679E-04 +8.181208E-05 -1.268446E-04 +8.181208E-05 +5.094107E-03 
 -6.899435E-06 -1.692475E-04 -1.166380E-04 -1.692475E-04 -2.710813E-04 +7.268477E-05 -1.166380E-04 +7.268477E-05 +5.157844E-03 
 -2.824916E-04 -3.414730E-04 +1.538747E-05 -3.414730E-04 -6.187548E-07 +1.049372E-04 +1.538747E-05 +1.049372E-04 +5.180999E-03 
 -1.681499E-04 +7.466704E-05 +9.944223E-05 +7.466704E-05 +7.024201E-05 +1.498113E-04 +9.944223E-05 +1.498113E-04 +5.162809E-03 
 -8.239839E-05 +1.022209E-04 +9.136136E-05 +1.022209E-04 -4.779676E-05 +1.027368E-04 +9.136136E-05 +1.027368E-04 +5.133957E-03 
 -5.562585E-05 +1.500678E-04 +1.394049E-04 +1.500678E-04 -1.061141E-04 +6.921309E-05 +1.394049E-04 +6.921309E-05 +5.156385E-03 
 -3.776251E-05 +1.575167E-04 +1.459374E-04 +1.575167E-04 -2.274755E-04 +7.326679E-05 +1.459374E-04 +7.326679E-05 +5.196247E-03 
 +2.733128E-04 -1.957589E-04 +7.817986E-05 -1.957589E-04 -3.091474E-04 +3.831038E-05 +7.817986E-05 +3.831038E-05 +5.185421E-03 
 +2.454968E-04 -8.288402E-05 +2.830871E-05 -8.288402E-05 -2.845813E-04 +5.304615E-05 +2.830871E-05 +5.304615E-05 +5.096390E-03 
 +2.892994E-04 -2.002511E-04 +2.618089E-05 -2.002511E-04 -2.881534E-04 +1.106689E-04 +2.618089E-05 +1.106689E-04 +4.948611E-03 
 +2.056222E-04 -2.924587E-04 -2.178120E-05 -2.924587E-04 -1.638567E-05 +9.607627E-05 -2.178120E-05 +9.607627E-05 +4.908614E-03 
 -1.276269E-04 +1.498643E-04 -6.275588E-05 +1.498643E-04 +2.694024E-04 +4.410306E-05 -6.275588E-05 +4.410306E-05 +4.883558E-03 
 -2.965924E-05 -1.149973E-04 -3.836087E-05 -1.149973E-04 +3.437288E-04 +6.464312E-05 -3.836087E-05 +6.464312E-05 +4.815187E-03 
 -9.092072E-05 -2.050670E-05 -1.534177E-04 -2.050670E-05 +2.357175E-04 +3.169098E-05 -1.534177E-04 +3.169098E-05 +4.870142E-03 
 -2.153389E-04 +2.808659E-04 -4.717633E-06 +2.808659E-04 +1.808280E-04 -9.817399E-06 -4.717633E-06 -9.817399E-06 +4.950362E-03 
 +1.804474E-05 +7.569967E-05 +2.440171E-05 +7.569967E-05 +1.865940E-04 +2.886491E-05 +2.440171E-05 +2.886491E-05 +4.803012E-03 
 -5.899879E-05 +6.720381E-05 -1.525706E-04 +6.720381E-05 +1.535670E-04 +9.224231E-05 -1.525706E-04 +9.224231E-05 +4.777151E-03 
 -1.334083E-04 +9.583149E-05 -7.397459E-05 +9.583149E-05 +2.698329E-05 +1.007946E-04 -7.397459E-05 +1.007946E-04 +4.800276E-03 
 -7.354894E-06 -1.093506E-04 -1.345347E-04 -1.093506E-04 -1.378431E-04 +6.302774E-05 -1.345347E-04 +6.302774E-05 +4.868978E-03 
 +1.757929E-05 -1.046977E-04 -1.178767E-04 -1.046977E-04 -1.940295E-04 +3.759169E-05 -1.178767E-04 +3.759169E-05 +4.966834E-03 
 +3.691282E-05 -1.870636E-04 -1.523454E-04 -1.870636E-04 -2.109567E-04 +3.738649E-05 -1.523454E-04 +3.738649E-05 +5.008492E-03 
 +1.196839E-05 -2.035925E-04 -1.031104E-04 -2.035925E-04 -1.972956E-04 +5.511074E-05 -1.031104E-04 +5.511074E-05 +5.012846E-03 
 +8.417126E-05 -1.942778E-04 -1.083736E-04 -1.942778E-04 -2.862477E-04 +1.093239E-04 -1.083736E-04 +1.093239E-04 +5.060993E-03 
 -1.060094E-05 -2.505892E-04 -6.585118E-05 -2.505892E-04 -2.081835E-04 +1.682480E-04 -6.585118E-05 +1.682480E-04 +5.121638E-03 
 -9.690488E-05 +3.014184E-06 +8.407555E-05 +3.014184E-06 -4.704633E-05 +1.556229E-04 +8.407555E-05 +1.556229E-04 +5.135052E-03 
 -6.733038E-05 +6.153949E-05 +9.436379E-05 +6.153949E-05 -7.639510E-05 +8.928557E-05 +9.436379E-05 +8.928557E-05 +5.122406E-03 
 -3.774795E-05 +1.379153E-04 +1.303862E-04 +1.379153E-04 -1.297523E-04 +5.313393E-05 +1.303862E-04 +5.313393E-05 +5.133473E-03 
 -2.405327E-05 +1.552622E-04 +9.709413E-05 +1.552622E-04 -2.121895E-04 +9.391279E-06 +9.709413E-05 +9.391279E-06 +5.170901E-03 
 +1.707732E-04 -1.160406E-04 +1.097416E-04 -1.160406E-04 -2.478521E-04 -1.210187E-05 +1.097416E-04 -1.210187E-05 +5.116112E-03 
 +1.435577E-04 -1.154438E-05 +7.895145E-05 -1.154438E-05 -1.391841E-04 +3.324897E-05 +7.895145E-05 +3.324897E-05 +4.940895E-03 
 +7.774770E-05 -4.813967E-05 +1.260715E-04 -4.813967E-05 +1.617414E-04 +2.341624E-05 +1.260715E-04 +2.341624E-05 +4.769405E-03 
 -4.523141E-06 -7.396660E-05 +1.020678E-04 -7.396660E-05 +4.456260E-04 +2.082166E-05 +1.020678E-04 +2.082166E-05 +4.720970E-03 
 -5.673372E-05 +1.002705E-04 +6.818431E-05 +1.002705E-04 +3.693320E-04 +7.051726E-05 +6.818431E-05 +7.051726E-05 +4.740371E-03 
 +3.451951E-05 +7.015558E-05 +1.516908E-04 +7.015558E-05 +2.211547E-04 +4.889116E-05 +1.516908E-04 +4.889116E-05 +4.732755E-03 
 +1.178647E-04 -7.242910E-06 -7.579738E-05 -7.242910E-06 +1.797291E-04 +2.527999E-06 -7.579738E-05 +2.527999E-06 +4.873871E-03 
 -2.440316E-04 +3.195592E-04 -9.630777E-05 +3.195592E-04 +2.056871E-04 +4.852805E-05 -9.630777E-05 +4.852805E-05 +4.974628E-03 
 -7.276188E-05 +1.371569E-04 -1.661971E-05 +1.371569E-04 +1.301036E-04 +8.479440E-05 -1.661971E-05 +8.479440E-05 +4.874330E-03 
 -9.081736E-05 +6.879126E-05 -9.105262E-05 +6.879126E-05 +1.136018E-04 +1.241153E-04 -9.105262E-05 +1.241153E-04 +4.897679E-03 
 -1.022470E-04 +2.942372E-05 -4.634365E-05 +2.942372E-05 +4.181848E-05 +1.156199E-04 -4.634365E-05 +1.156199E-04 +4.917163E-03 
 -5.554110E-05 -1.160683E-04 -7.477690E-05 -1.160683E-04 -3.145908E-05 +6.947638E-05 -7.477690E-05 +6.947638E-05 +4.891528E-03 
 -1.923589E-05 -1.368636E-04 -7.741326E-05 -1.368636E-04 -1.209647E-04 +3.327009E-05 -7.741326E-05 +3.327009E-05 +4.932169E-03 
 +3.011148E-05 -1.829997E-04 -8.413685E-05 -1.829997E-04 -1.703327E-04 +5.755716E-05 -8.413685E-05 +5.755716E-05 +4.964645E-03 
 +3.907866E-05 -2.102388E-04 -6.406331E-05 -2.102388E-04 -1.921210E-04 +1.064020E-04 -6.406331E-05 +1.064020E-04 +4.974168E-03 
 +7.642551E-05 -2.272568E-04 -5.991946E-05 -2.272568E-04 -2.480060E-04 +1.445971E-04 -5.991946E-05 +1.445971E-04 +5.021031E-03 
 +9.735597E-05 -2.306413E-04 -1.129539E-04 -2.306413E-04 -2.652042E-04 +1.888499E-04 -1.129539E-04 +1.888499E-04 +5.070877E-03 
 +4.164675E-05 -1.589158E-04 -2.648576E-05 -1.589158E-04 -2.408377E-04 +1.661427E-04 -2.648576E-05 +1.661427E-04 +5.077469E-03 
 +3.711485E-05 -3.835222E-05 +1.899907E-05 -3.835222E-05 -2.096865E-04 +7.490347E-05 +1.899907E-05 +7.490347E-05 +5.042595E-03 
 +5.425314E-05 +7.703807E-05 +8.515130E-05 +7.703807E-05 -1.891399E-04 +2.786940E-05 +8.515130E-05 +2.786940E-05 +4.999584E-03 
 +1.747071E-05 +9.068976E-05 +3.937173E-05 +9.068976E-05 -1.652005E-04 -1.532222E-05 +3.937173E-05 -1.532222E-05 +4.950931E-03 
 +4.054389E-05 -6.423619E-05 +8.550104E-05 -6.423619E-05 +3.263117E-05 -9.333543E-05 +8.550104E-05 -9.333543E-05 +4.868361E-03 
 +8.535121E-07 +3.285298E-05 +1.115725E-04 +3.285298E-05 +2.690354E-04 -7.901623E-05 +1.115725E-04 -7.901623E-05 +4.766253E-03 
 -2.133041E-05 +3.528262E-05 +1.859193E-04 +3.528262E-05 +3.538817E-04 -3.038219E-05 +1.859193E-04 -3.038219E-05 +4.679606E-03 
 -6.806903E-05 +6.834108E-05 +2.346965E-04 +6.834108E-05 +3.567410E-04 -2.337526E-05 +2.346965E-04 -2.337526E-05 +4.633451E-03 
 +4.518887E-05 +2.083712E-04 +2.042129E-04 +2.083712E-04 +2.751386E-04 +6.209194E-05 +2.042129E-04 +6.209194E-05 +4.683066E-03 
 +9.920941E-05 +1.518491E-04 +2.047022E-04 +1.518491E-04 +1.515504E-04 +1.015270E-04 +2.047022E-04 +1.015270E-04 +4.738292E-03 
 +9.480722E-05 +3.641129E-05 +3.454021E-05 +3.641129E-05 +1.934277E-04 +5.384164E-05 +3.454021E-05 +5.384164E-05 +4.879490E-03 
 -2.475840E-04 +5.845014E-05 -2.103100E-04 +5.845014E-05 +2.814276E-04 +4.067126E-05 -2.103100E-04 +4.067126E-05 +4.837319E-03 
 -2.984819E-04 +1.163072E-04 -8.160930E-05 +1.163072E-04 +1.744727E-04 +1.237850E-04 -8.160930E-05 +1.237850E-04 +4.971354E-03 
 -1.288715E-04 +1.040159E-04 -7.236784E-05 +1.040159E-04 +5.599386E-05 +1.262410E-04 -7.236784E-05 +1.262410E-04 +5.007440E-03 
 -7.503649E-05 +8.396242E-05 -5.082191E-05 +8.396242E-05 +7.263146E-07 +8.177010E-05 -5.082191E-05 +8.177010E-05 +5.001983E-03 
 -7.690523E-05 -1.638293E-05 -4.432991E-05 -1.638293E-05 +2.098545E-06 +7.287764E-05 -4.432991E-05 +7.287764E-05 +5.005511E-03 
 -1.011978E-04 -1.166741E-04 -1.873346E-05 -1.166741E-04 +1.295250E-05 +7.162611E-05 -1.873346E-05 +7.162611E-05 +5.004395E-03 
 -7.295356E-05 -1.484309E-04 -1.134708E-05 -1.484309E-04 -5.726328E-05 +7.844509E-05 -1.134708E-05 +7.844509E-05 +4.940325E-03 
 +1.243545E-05 -1.408209E-04 -3.064477E-05 -1.408209E-04 -1.478808E-04 +1.442029E-04 -3.064477E-05 +1.442029E-04 +4.916194E-03 
 +5.184180E-05 -1.735654E-04 -6.677429E-05 -1.735654E-04 -2.232879E-04 +2.279728E-04 -6.677429E-05 +2.279728E-04 +4.985141E-03 
 +1.230317E-04 -1.349462E-04 -1.014095E-04 -1.349462E-04 -2.563897E-04 +2.213968E-04 -1.014095E-04 +2.213968E-04 +4.992613E-03 
 +2.069530E-04 -3.622241E-05 -1.232091E-04 -3.622241E-05 -2.246918E-04 +8.430528E-05 -1.232091E-04 +8.430528E-05 +4.939003E-03 
 +2.701232E-04 +3.056149E-05 -1.201066E-04 +3.056149E-05 -2.032844E-04 -1.252663E-04 -1.201066E-04 -1.252663E-04 +4.946177E-03 
 +2.155643E-04 +4.823097E-05 -1.369112E-04 +4.823097E-05 -2.001540E-04 -3.402377E-04 -1.369112E-04 -3.402377E-04 +4.934876E-03 
 +1.214011E-04 -2.749087E-05 -7.024868E-06 -2.749087E-05 -1.566154E-04 -3.629345E-04 -7.024868E-06 -3.629345E-04 +4.814649E-03 
 -1.834674E-05 -3.385947E-05 +1.140640E-04 -3.385947E-05 +1.819093E-05 -2.188369E-04 +1.140640E-04 -2.188369E-04 +4.809416E-03 
 -8.809062E-05 -5.071632E-05 +1.168813E-04 -5.071632E-05 +1.922010E-04 -9.998692E-05 +1.168813E-04 -9.998692E-05 +4.817936E-03 
 -2.042888E-05 -6.853489E-05 +1.587272E-04 -6.853489E-05 +2.409317E-04 -4.076614E-05 +1.587272E-04 -4.076614E-05 +4.733582E-03 
 +5.224957E-05 -9.078505E-05 +1.930956E-04 -9.078505E-05 +2.778254E-04 -3.463214E-05 +1.930956E-04 -3.463214E-05 +4.674111E-03 
 +8.139157E-05 -1.179581E-04 +1.990752E-04 -1.179581E-04 +2.639225E-04 -6.188077E-05 +1.990752E-04 -6.188077E-05 +4.654961E-03 
 +4.864900E-05 -1.948574E-04 +1.207807E-04 -1.948574E-04 +2.450603E-04 -9.432504E-05 +1.207807E-04 -9.432504E-05 +4.724103E-03 
 -5.573128E-05 -2.241353E-04 +4.074923E-05 -2.241353E-04 +2.833653E-04 -5.225930E-05 +4.074923E-05 -5.225930E-05 +4.768043E-03 
 -4.792013E-05 +1.864028E-04 -1.224879E-04 +1.864028E-04 +1.766952E-04 +6.862061E-05 -1.224879E-04 +6.862061E-05 +4.800613E-03 
 -7.329650E-05 +1.109093E-04 -8.380093E-05 +1.109093E-04 +6.838410E-05 +2.079084E-04 -8.380093E-05 +2.079084E-04 +4.951475E-03 
 -9.922380E-05 +5.665498E-05 -7.249810E-05 +5.665498E-05 +7.455552E-06 +1.808621E-04 -7.249810E-05 +1.808621E-04 +5.054321E-03 
 -9.024999E-05 +2.846313E-05 -9.415359E-05 +2.846313E-05 -1.244208E-05 +1.390923E-04 -9.415359E-05 +1.390923E-04 +5.065824E-03 
 -8.100767E-05 -2.580493E-05 -4.696502E-05 -2.580493E-05 +1.268628E-06 +1.131470E-04 -4.696502E-05 +1.131470E-04 +5.043090E-03 
 -8.778405E-05 -1.068643E-04 -2.706462E-05 -1.068643E-04 +7.294939E-05 +1.454900E-04 -2.706462E-05 +1.454900E-04 +4.989640E-03 
 -1.034969E-04 -1.387729E-04 +8.177985E-06 -1.387729E-04 +8.865203E-05 +1.582367E-04 +8.177985E-06 +1.582367E-04 +4.895487E-03 
 +3.587620E-06 -1.695842E-04 +1.884909E-05 -1.695842E-04 -8.996551E-05 +1.444179E-04 +1.884909E-05 +1.444179E-04 +4.847640E-03 
 +1.273257E-04 -1.383238E-04 +2.758535E-05 -1.383238E-04 -2.184835E-04 +9.708341E-05 +2.758535E-05 +9.708341E-05 +4.908112E-03 
 +2.046018E-04 -7.890968E-05 +1.326377E-05 -7.890968E-05 -1.908757E-04 +4.810607E-05 +1.326377E-05 +4.810607E-05 +4.938929E-03 
 +2.625307E-04 -1.661634E-05 -1.515416E-04 -1.661634E-05 -1.991267E-04 -1.481882E-05 -1.515416E-04 -1.481882E-05 +4.957579E-03 
 +1.863540E-04 +6.427195E-05 -1.619549E-04 +6.427195E-05 -2.030202E-04 -1.412258E-04 -1.619549E-04 -1.412258E-04 +4.978384E-03 
 +9.792919E-05 +7.103108E-05 -1.550424E-04 +7.103108E-05 -1.925878E-04 -2.756653E-04 -1.550424E-04 -2.756653E-04 +4.969214E-03 
 -1.291813E-04 -4.342702E-05 -8.945007E-06 -4.342702E-05 -8.689018E-05 -3.268413E-04 -8.945007E-06 -3.268413E-04 +4.916166E-03 
 -1.275960E-04 -9.330043E-05 +5.762870E-05 -9.330043E-05 +1.005655E-04 -2.500212E-04 +5.762870E-05 -2.500212E-04 +4.846627E-03 
 +7.283905E-06 -1.090934E-04 +9.432737E-05 -1.090934E-04 +1.709163E-04 -1.432856E-04 +9.432737E-05 -1.432856E-04 +4.805015E-03 
 +1.687904E-06 -6.372965E-05 +1.259473E-04 -6.372965E-05 +2.070207E-04 -7.744482E-05 +1.259473E-04 -7.744482E-05 +4.767102E-03 
 +1.351779E-05 -9.509124E-05 +1.521149E-04 -9.509124E-05 +2.552002E-04 -5.330159E-05 +1.521149E-04 -5.330159E-05 +4.731600E-03 
 +2.884167E-05 -1.187228E-04 +1.365234E-04 -1.187228E-04 +2.549936E-04 -6.914199E-05 +1.365234E-04 -6.914199E-05 +4.730806E-03 
 -1.664422E-05 -1.190947E-04 +1.017617E-04 -1.190947E-04 +2.311198E-04 -9.084684E-05 +1.017617E-04 -9.084684E-05 +4.799911E-03 
 -7.722249E-05 -4.858048E-05 +8.505803E-05 -4.858048E-05 +2.254575E-04 -9.223320E-05 +8.505803E-05 -9.223320E-05 +4.801150E-03 
 +1.504464E-05 +8.160510E-05 -5.930469E-05 +8.160510E-05 -2.501140E-05 -6.732829E-05 -5.930469E-05 -6.732829E-05 +4.888433E-03 
 +2.170921E-05 +5.293684E-05 -7.311932E-05 +5.293684E-05 -1.286730E-04 -5.112141E-05 -7.311932E-05 -5.112141E-05 +4.996396E-03 
 -5.834928E-05 +3.520781E-05 -1.545872E-05 +3.520781E-05 -1.136833E-04 -2.020279E-05 -1.545872E-05 -2.020279E-05 +5.032538E-03 
 -1.158457E-04 +5.764973E-05 -1.581240E-04 +5.764973E-05 -5.176693E-05 +6.109584E-05 -1.581240E-04 +6.109584E-05 +5.025666E-03 
 -5.060663E-05 -7.589464E-06 -4.334450E-05 -7.589464E-06 +1.651963E-05 +1.013100E-04 -4.334450E-05 +1.013100E-04 +4.976447E-03 
 -3.152060E-05 -5.522579E-05 -1.650853E-05 -5.522579E-05 +3.347020E-05 +1.296550E-04 -1.650853E-05 +1.296550E-04 +4.892178E-03 
 -3.602431E-05 -1.257210E-04 -7.351783E-06 -1.257210E-04 +5.309516E-05 +1.578228E-04 -7.351783E-06 +1.578228E-04 +4.800009E-03 
 +7.036105E-06 -1.482026E-04 -6.070697E-05 -1.482026E-04 +9.290138E-05 +1.333338E-04 -6.070697E-05 +1.333338E-04 +4.702867E-03 
 +1.806048E-04 -8.840868E-05 +5.853681E-06 -8.840868E-05 +4.174165E-05 +5.421376E-05 +5.853681E-06 +5.421376E-05 +4.717572E-03 
 +2.725504E-04 -4.620431E-05 +1.047734E-04 -4.620431E-05 -1.260148E-04 +2.235925E-05 +1.047734E-04 +2.235925E-05 +4.850445E-03 
 +1.930061E-04 +1.641963E-05 -8.782877E-05 +1.641963E-05 -1.774222E-04 -9.262476E-06 -8.782877E-05 -9.262476E-06 +4.887557E-03 
 +1.369963E-04 +4.279540E-05 -1.199949E-04 +4.279540E-05 -1.510981E-04 -6.550403E-05 -1.199949E-04 -6.550403E-05 +4.836936E-03 
 -1.195902E-05 +1.319349E-04 -5.765717E-05 +1.319349E-04 -2.452718E-05 -8.385374E-05 -5.765717E-05 -8.385374E-05 +4.891167E-03 
 -3.205052E-04 +1.756333E-04 -6.459814E-05 +1.756333E-04 +1.436616E-04 -7.693073E-05 -6.459814E-05 -7.693073E-05 +5.012797E-03 
 -2.873114E-04 +1.482903E-04 -6.515707E-05 +1.482903E-04 +1.381609E-04 -7.108251E-05 -6.515707E-05 -7.108251E-05 +5.003432E-03 
 +8.823497E-06 -3.354568E-05 +9.818149E-06 -3.354568E-05 +1.312770E-04 -1.327731E-04 +9.818149E-06 -1.327731E-04 +4.846564E-03 
 +4.253526E-05 -5.276206E-05 +8.780110E-05 -5.276206E-05 +2.047464E-04 -1.448619E-04 +8.780110E-05 -1.448619E-04 +4.755866E-03 
 +3.151515E-05 -8.370747E-05 +1.213002E-04 -8.370747E-05 +2.453935E-04 -6.806704E-05 +1.213002E-04 -6.806704E-05 +4.742514E-03 
 +5.466964E-05 -9.668128E-05 +9.452333E-05 -9.668128E-05 +2.340573E-04 -3.766797E-05 +9.452333E-05 -3.766797E-05 +4.733478E-03 
 +7.593978E-06 -6.666003E-05 +7.155665E-05 -6.666003E-05 +2.141725E-04 -4.231279E-05 +7.155665E-05 -4.231279E-05 +4.783789E-03 
 -5.990406E-05 -2.944001E-05 +2.437755E-05 -2.944001E-05 +1.515082E-04 -8.073767E-05 +2.437755E-05 -8.073767E-05 +4.838622E-03 
 -2.448763E-05 +1.110396E-05 -9.462379E-05 +1.110396E-05 +4.076837E-05 -3.903042E-06 -9.462379E-05 -3.903042E-06 +4.949377E-03 
 +1.062265E-04 +5.521060E-05 -4.946060E-05 +5.521060E-05 -1.215161E-04 -4.283999E-06 -4.946060E-05 -4.283999E-06 +4.994079E-03 
 +6.903809E-05 +8.062747E-05 +1.732470E-05 +8.062747E-05 -1.331152E-04 -4.840615E-05 +1.732470E-05 -4.840615E-05 +5.020060E-03 
 -1.223477E-04 +1.581596E-04 -9.672219E-05 +1.581596E-04 -9.050293E-05 -9.639824E-05 -9.672219E-05 -9.639824E-05 +5.032256E-03 
 -1.863517E-05 +6.947439E-05 +3.357865E-05 +6.947439E-05 -7.782814E-05 -7.928647E-05 +3.357865E-05 -7.928647E-05 +4.957588E-03 
 -3.603305E-05 -1.355651E-05 +8.248606E-05 -1.355651E-05 -5.472147E-05 -6.124203E-05 +8.248606E-05 -6.124203E-05 +4.868624E-03 
 -3.277654E-05 -1.485019E-04 +1.413102E-04 -1.485019E-04 -6.849975E-06 -2.212015E-05 +1.413102E-04 -2.212015E-05 +4.757624E-03 
 +8.146369E-05 -1.985300E-04 -2.958093E-05 -1.985300E-04 +6.873235E-05 +2.709826E-05 -2.958093E-05 +2.709826E-05 +4.656315E-03 
 +2.226921E-04 -2.179040E-04 +5.043300E-06 -2.179040E-04 +6.981823E-05 +9.898924E-05 +5.043300E-06 +9.898924E-05 +4.593543E-03 
 +3.373394E-04 -1.286197E-04 +1.237165E-04 -1.286197E-04 +6.103627E-05 +1.361661E-04 +1.237165E-04 +1.361661E-04 +4.600875E-03 
 +1.323121E-04 +1.074677E-05 +6.212967E-05 +1.074677E-05 +7.787573E-05 +8.275861E-05 +6.212967E-05 +8.275861E-05 +4.657738E-03 
 +9.856531E-06 +4.582420E-05 -2.260648E-05 +4.582420E-05 +6.062797E-05 -3.075678E-05 -2.260648E-05 -3.075678E-05 +4.764862E-03 
 -6.601851E-05 +1.752827E-04 +1.010136E-05 +1.752827E-04 +7.312408E-05 -1.215086E-04 +1.010136E-05 -1.215086E-04 +4.933290E-03 
 -2.129717E-04 +1.878344E-04 -4.424327E-05 +1.878344E-04 +7.368969E-05 -4.237165E-05 -4.424327E-05 -4.237165E-05 +5.046171E-03 
 -3.274837E-04 +2.743995E-04 -1.028387E-04 +2.743995E-04 +9.365805E-05 +8.402095E-05 -1.028387E-04 +8.402095E-05 +5.075132E-03 
 -2.608386E-04 +2.261214E-04 -7.479383E-05 +2.261214E-04 +1.746444E-04 +1.495376E-05 -7.479383E-05 +1.495376E-05 +4.978178E-03 
 -1.725863E-05 +9.976184E-05 +6.705678E-05 +9.976184E-05 +2.442749E-04 -6.124688E-05 +6.705678E-05 -6.124688E-05 +4.815574E-03 
 +1.106150E-04 -3.045844E-05 +1.406665E-04 -3.045844E-05 +2.377455E-04 -1.301263E-05 +1.406665E-04 -1.301263E-05 +4.744957E-03 
 +9.328201E-05 -2.709529E-05 +9.215792E-05 -2.709529E-05 +2.054459E-04 +4.118647E-06 +9.215792E-05 +4.118647E-06 +4.749504E-03 
 +3.121699E-05 -1.208782E-05 +6.060229E-05 -1.208782E-05 +2.125447E-04 +2.607300E-06 +6.060229E-05 +2.607300E-06 +4.786279E-03 
 -7.533673E-05 -1.644580E-05 -3.731148E-05 -1.644580E-05 +1.893043E-04 +9.252335E-06 -3.731148E-05 +9.252335E-06 +4.870625E-03 
 -5.748060E-05 -1.100121E-05 -7.986320E-05 -1.100121E-05 +3.609340E-05 +3.132613E-05 -7.986320E-05 +3.132613E-05 +4.990103E-03 
 +1.393375E-04 +6.083104E-05 -4.576791E-06 +6.083104E-05 -1.013562E-04 +5.462321E-05 -4.576791E-06 +5.462321E-05 +4.970620E-03 
 +9.133910E-05 +8.308543E-05 -2.584110E-05 +8.308543E-05 -1.764524E-04 +1.359743E-05 -2.584110E-05 +1.359743E-05 +4.995040E-03 
 -4.260151E-05 +1.047851E-04 -3.150683E-05 +1.047851E-04 -1.531270E-04 -6.367403E-05 -3.150683E-05 -6.367403E-05 +5.046091E-03 
 -3.239153E-05 +6.827567E-05 +7.178936E-05 +6.827567E-05 -4.187368E-05 -1.128661E-04 +7.178936E-05 -1.128661E-04 +4.961123E-03 
 -7.450740E-05 -2.740440E-05 +1.985046E-04 -2.740440E-05 +1.005063E-04 -9.563093E-05 +1.985046E-04 -9.563093E-05 +4.875507E-03 
 -1.541380E-04 -1.839329E-04 +2.521452E-04 -1.839329E-04 +1.608894E-04 -1.210388E-04 +2.521452E-04 -1.210388E-04 +4.797414E-03 
 +2.257363E-04 -2.373069E-04 +1.555428E-04 -2.373069E-04 +1.252659E-04 -1.252874E-04 +1.555428E-04 -1.252874E-04 +4.677996E-03 
 +2.980104E-04 -2.266265E-04 +6.729659E-05 -2.266265E-04 +1.210571E-04 -4.959558E-05 +6.729659E-05 -4.959558E-05 +4.539752E-03 
 +3.128776E-04 -1.185683E-04 +1.264351E-04 -1.185683E-04 +2.395999E-04 -4.908855E-05 +1.264351E-04 -4.908855E-05 +4.378279E-03 
 +3.115986E-04 -3.834859E-05 +1.528671E-04 -3.834859E-05 +2.627681E-04 -4.626788E-05 +1.528671E-04 -4.626788E-05 +4.439182E-03 
 -2.147578E-05 +1.682659E-04 +5.864099E-05 +1.682659E-04 +1.856283E-04 -4.429891E-05 +5.864099E-05 -4.429891E-05 +4.726193E-03 
 -1.627904E-04 +3.479843E-04 +4.026632E-05 +3.479843E-04 +1.015217E-04 -5.544578E-05 +4.026632E-05 -5.544578E-05 +4.952690E-03 
 -2.119252E-04 +2.656151E-04 +1.783612E-06 +2.656151E-04 +2.492201E-05 -4.974734E-06 +1.783612E-06 -4.974734E-06 +4.981312E-03 
 -2.488268E-04 +2.929926E-04 -8.998801E-05 +2.929926E-04 +7.748924E-05 +2.151256E-05 -8.998801E-05 +2.151256E-05 +4.989096E-03 
 -3.437388E-04 +2.931945E-04 -9.635769E-05 +2.931945E-04 +1.648387E-04 +1.474467E-05 -9.635769E-05 +1.474467E-05 +5.079436E-03 
 -2.210837E-04 +2.836437E-04 +2.846090E-05 +2.836437E-04 +2.297432E-04 +8.179186E-05 +2.846090E-05 +8.179186E-05 +4.992405E-03 
 +1.416392E-04 +3.449788E-05 +1.606592E-04 +3.449788E-05 +2.120916E-04 +7.386033E-05 +1.606592E-04 +7.386033E-05 +4.842488E-03 
 +6.521001E-05 +2.594699E-05 +1.112736E-04 +2.594699E-05 +1.772052E-04 +5.735968E-06 +1.112736E-04 +5.735968E-06 +4.850119E-03 
 +2.015996E-05 -5.795378E-06 +6.968823E-05 -5.795378E-06 +1.733820E-04 +1.047647E-06 +6.968823E-05 +1.047647E-06 +4.892703E-03 
 -3.525501E-05 -2.479457E-05 -1.030241E-05 -2.479457E-05 +1.175004E-04 +1.009471E-05 -1.030241E-05 +1.009471E-05 +4.953781E-03 
 -2.038488E-05 -1.956523E-05 -1.117866E-05 -1.956523E-05 +3.180417E-05 +5.340763E-06 -1.117866E-05 +5.340763E-06 +5.008292E-03 
 +5.333171E-05 +6.055399E-06 +3.744562E-05 +6.055399E-06 +1.007964E-06 +1.055279E-04 +3.744562E-05 +1.055279E-04 +4.942408E-03 
 +1.180693E-05 +7.214092E-05 -2.931458E-05 +7.214092E-05 +9.166179E-06 +2.135752E-04 -2.931458E-05 +2.135752E-04 +4.854893E-03 
 -5.994213E-05 +6.427965E-05 -2.523312E-05 +6.427965E-05 +9.645112E-05 +2.094235E-04 -2.523312E-05 +2.094235E-04 +4.867017E-03 
 -7.046491E-05 -2.035543E-05 +2.413401E-05 -2.035543E-05 +1.954216E-04 +9.308474E-05 +2.413401E-05 +9.308474E-05 +4.841436E-03 
 +1.937194E-06 -9.695026E-05 +2.194170E-04 -9.695026E-05 +2.734292E-04 -3.144218E-05 +2.194170E-04 -3.144218E-05 +4.847695E-03 
 -8.650292E-05 -1.438492E-04 +1.766998E-04 -1.438492E-04 +2.851767E-04 -1.424442E-04 +1.766998E-04 -1.424442E-04 +4.887093E-03 
 +3.482470E-04 -1.880590E-04 +1.456426E-04 -1.880590E-04 +1.780209E-04 -2.142583E-04 +1.456426E-04 -2.142583E-04 +4.671606E-03 
 +2.937361E-04 -1.094982E-04 +9.028531E-05 -1.094982E-04 +2.240725E-04 -2.026533E-04 +9.028531E-05 -2.026533E-04 +4.460819E-03 
 +2.752173E-04 -6.846518E-05 +1.250259E-04 -6.846518E-05 +3.280633E-04 -1.627696E-04 +1.250259E-04 -1.627696E-04 +4.323226E-03 
 +3.468067E-04 -1.331592E-04 +1.524620E-04 -1.331592E-04 +3.427421E-04 -9.637363E-05 +1.524620E-04 -9.637363E-05 +4.305293E-03 
 +1.787088E-04 -7.167117E-05 +1.082852E-04 -7.167117E-05 +3.067873E-04 -4.141796E-05 +1.082852E-04 -4.141796E-05 +4.548816E-03 
 -3.218186E-04 +1.274853E-04 +4.675786E-05 +1.274853E-04 +1.906228E-04 -7.295445E-05 +4.675786E-05 -7.295445E-05 +4.868725E-03 
 -2.989982E-04 +1.020697E-04 +6.040976E-05 +1.020697E-04 +1.160414E-04 -6.849202E-05 +6.040976E-05 -6.849202E-05 +4.986029E-03 
 -2.230232E-04 +2.443606E-04 -5.342992E-05 +2.443606E-04 +9.060557E-05 -2.565686E-05 -5.342992E-05 -2.565686E-05 +5.016053E-03 
 -2.653078E-04 +2.120984E-04 -9.671495E-05 +2.120984E-04 +1.104994E-04 -1.130267E-05 -9.671495E-05 -1.130267E-05 +5.155796E-03 
 -2.726590E-04 +2.540381E-04 -3.383709E-05 +2.540381E-04 +1.335230E-04 +5.846165E-05 -3.383709E-05 +5.846165E-05 +5.117703E-03 
 +5.263109E-05 +3.505017E-07 +9.063317E-05 +3.505017E-07 +1.418300E-04 +2.634578E-05 +9.063317E-05 +2.634578E-05 +4.942469E-03 
 +2.636416E-05 +4.455415E-05 +1.039842E-04 +4.455415E-05 +1.438024E-04 -3.628125E-05 +1.039842E-04 -3.628125E-05 +4.935446E-03 
 +2.187838E-05 -1.565737E-05 +7.663690E-05 -1.565737E-05 +1.043020E-04 -1.699091E-05 +7.663690E-05 -1.699091E-05 +5.002895E-03 
 +8.223516E-06 -9.506105E-06 +1.883816E-05 -9.506105E-06 +5.178962E-05 -2.872515E-05 +1.883816E-05 -2.872515E-05 +5.035618E-03 
 -5.607867E-06 +1.185273E-05 +3.021936E-05 +1.185273E-05 +2.126888E-05 -6.741328E-05 +3.021936E-05 -6.741328E-05 +5.077135E-03 
 -1.023667E-04 -2.703001E-06 +5.064944E-05 -2.703001E-06 +5.202555E-05 -1.753489E-06 +5.064944E-05 -1.753489E-06 +5.018794E-03 
 -3.667265E-05 +9.353812E-05 +2.020289E-05 +9.353812E-05 +4.853010E-05 +1.466760E-04 +2.020289E-05 +1.466760E-04 +4.837335E-03 
 -8.372150E-05 +1.616534E-04 -1.109116E-05 +1.616534E-04 +4.327929E-05 +1.798279E-04 -1.109116E-05 +1.798279E-04 +4.783544E-03 
 +2.538476E-05 +1.679075E-04 -2.942371E-05 +1.679075E-04 -4.678221E-05 +6.132389E-05 -2.942371E-05 +6.132389E-05 +4.853268E-03 
 +1.627460E-04 +1.865284E-04 +1.429665E-04 +1.865284E-04 -1.577624E-04 -7.440285E-05 +1.429665E-04 -7.440285E-05 +4.871453E-03 
 +1.129393E-04 +1.073548E-04 +8.785792E-05 +1.073548E-04 -1.054978E-04 -1.856166E-04 +8.785792E-05 -1.856166E-04 +4.855902E-03 
 +2.402597E-04 -3.377735E-05 -9.164931E-07 -3.377735E-05 +1.422690E-04 -2.044792E-04 -9.164931E-07 -2.044792E-04 +4.648760E-03 
 +2.283393E-04 -9.523168E-06 +6.135943E-05 -9.523168E-06 +2.939128E-04 -1.811235E-04 +6.135943E-05 -1.811235E-04 +4.438405E-03 
 +2.343501E-04 -3.885154E-05 +1.073368E-04 -3.885154E-05 +3.152515E-04 -1.443452E-04 +1.073368E-04 -1.443452E-04 +4.354964E-03 
 +2.021127E-04 -8.216839E-05 +1.434138E-04 -8.216839E-05 +3.361937E-04 -6.970231E-05 +1.434138E-04 -6.970231E-05 +4.352987E-03 
 +2.112885E-04 -1.509768E-04 +1.400180E-04 -1.509768E-04 +2.912884E-04 -2.414514E-06 +1.400180E-04 -2.414514E-06 +4.492321E-03 
 -2.826364E-04 +2.898150E-05 +3.882902E-05 +2.898150E-05 +1.802808E-04 +2.388573E-05 +3.882902E-05 +2.388573E-05 +4.810955E-03 
 -3.594117E-04 +1.301042E-04 +7.032423E-05 +1.301042E-04 +9.064985E-05 +6.802590E-06 +7.032423E-05 +6.802590E-06 +5.057424E-03 
 -1.673129E-04 +2.808029E-04 +2.196091E-05 +2.808029E-04 +1.057566E-04 +4.149630E-05 +2.196091E-05 +4.149630E-05 +5.101681E-03 
 -1.686599E-04 +2.628655E-04 -3.637287E-05 +2.628655E-04 +1.010729E-04 +5.820670E-05 -3.637287E-05 +5.820670E-05 +5.212594E-03 
 -2.541547E-04 +2.953893E-04 -5.158689E-06 +2.953893E-04 +2.409569E-05 +2.961505E-05 -5.158689E-06 +2.961505E-05 +5.216311E-03 
 -1.201859E-05 +1.025896E-04 +8.558983E-05 +1.025896E-04 +7.316460E-05 -3.448831E-05 +8.558983E-05 -3.448831E-05 +5.035473E-03 
 +3.057072E-05 +1.119169E-04 +1.617222E-04 +1.119169E-04 +1.386942E-04 -5.111912E-05 +1.617222E-04 -5.111912E-05 +4.988633E-03 
 -6.717917E-07 +1.876370E-05 +1.141848E-04 +1.876370E-05 +8.290210E-05 -3.870608E-05 +1.141848E-04 -3.870608E-05 +5.072602E-03 
 +2.518754E-05 +4.338377E-06 +5.922131E-05 +4.338377E-06 +2.370387E-05 -7.155949E-05 +5.922131E-05 -7.155949E-05 +5.103603E-03 
 -2.632486E-07 +7.592865E-05 +6.846819E-05 +7.592865E-05 +3.118316E-05 -1.698793E-04 +6.846819E-05 -1.698793E-04 +5.061162E-03 
 -1.693239E-04 +1.149224E-04 +8.220770E-05 +1.149224E-04 +1.503728E-04 -1.004577E-04 +8.220770E-05 -1.004577E-04 +4.972338E-03 
 -1.104844E-04 +1.284368E-04 +4.146265E-05 +1.284368E-04 +7.794082E-05 +8.021270E-05 +4.146265E-05 +8.021270E-05 +4.877121E-03 
 +7.452229E-05 +2.650645E-04 -4.882624E-07 +2.650645E-04 -1.064025E-04 +9.889617E-05 -4.882624E-07 +9.889617E-05 +4.872434E-03 
 +1.575377E-04 +2.054865E-04 -2.110894E-05 +2.054865E-04 -1.686180E-04 -9.858957E-06 -2.110894E-05 -9.858957E-06 +4.929824E-03 
 +1.364985E-04 +1.957942E-04 +1.031906E-04 +1.957942E-04 -5.169356E-05 -5.224475E-05 +1.031906E-04 -5.224475E-05 +4.863136E-03 
 +1.610033E-04 +2.308728E-05 +9.961279E-05 +2.308728E-05 +1.764532E-04 -1.305209E-04 +9.961279E-05 -1.305209E-04 +4.715126E-03 
 +1.894019E-04 -4.064858E-05 -2.528746E-05 -4.064858E-05 +2.747058E-04 -1.868844E-04 -2.528746E-05 -1.868844E-04 +4.555267E-03 
 +1.988888E-04 +2.719745E-06 +2.010982E-06 +2.719745E-06 +3.036330E-04 -1.548370E-04 +2.010982E-06 -1.548370E-04 +4.460250E-03 
 +1.826422E-04 +2.923226E-05 +7.718503E-05 +2.923226E-05 +3.176571E-04 -9.624184E-05 +7.718503E-05 -9.624184E-05 +4.433520E-03 
 +1.105912E-04 -2.889632E-05 +1.235843E-04 -2.889632E-05 +3.385612E-04 -2.117626E-05 +1.235843E-04 -2.117626E-05 +4.468526E-03 
 -2.992820E-07 -1.414283E-04 +9.204214E-05 -1.414283E-04 +3.554978E-04 +1.965768E-05 +9.204214E-05 +1.965768E-05 +4.513590E-03 
 -1.112140E-04 -9.471615E-05 -1.510406E-05 -9.471615E-05 +2.349311E-04 +2.952327E-05 -1.510406E-05 +2.952327E-05 +4.709207E-03 
 -4.107164E-04 +6.585418E-05 +1.061771E-05 +6.585418E-05 +6.782151E-05 +5.821894E-05 +1.061771E-05 +5.821894E-05 +5.052328E-03 
 -1.105125E-04 +2.152305E-04 +5.999341E-05 +2.152305E-04 -1.231540E-04 +9.783980E-05 +5.999341E-05 +9.783980E-05 +5.180901E-03 
 -1.579728E-05 +2.712072E-04 +5.773232E-05 +2.712072E-04 -1.966755E-04 +4.899653E-05 +5.773232E-05 +4.899653E-05 +5.250668E-03 
 -1.545067E-04 +3.177491E-04 +1.126528E-04 +3.177491E-04 -1.376601E-04 -1.648808E-05 +1.126528E-04 -1.648808E-05 +5.323992E-03 
 -1.126986E-04 +2.952762E-04 +1.489007E-04 +2.952762E-04 -2.682368E-05 -4.101140E-05 +1.489007E-04 -4.101140E-05 +5.195597E-03 
 -1.154874E-06 +9.407564E-05 +2.702002E-04 +9.407564E-05 +5.586264E-05 -3.813575E-05 +2.702002E-04 -3.813575E-05 +5.117101E-03 
 +6.887355E-06 +5.189831E-05 +2.200131E-04 +5.189831E-05 +4.566610E-05 -4.731316E-05 +2.200131E-04 -4.731316E-05 +5.218016E-03 
 -2.076239E-05 +8.564262E-06 +1.245250E-04 +8.564262E-06 +3.096488E-05 -1.164662E-04 +1.245250E-04 -1.164662E-04 +5.202848E-03 
 -7.897485E-05 +1.012886E-04 +1.046881E-04 +1.012886E-04 +1.794094E-04 -1.637687E-04 +1.046881E-04 -1.637687E-04 +5.013962E-03 
 -7.224210E-05 +1.253726E-04 +9.892529E-05 +1.253726E-04 +3.116431E-04 -1.161061E-04 +9.892529E-05 -1.161061E-04 +4.874090E-03 
 +4.219286E-05 +1.117327E-04 +1.073197E-04 +1.117327E-04 +2.482113E-04 -1.058198E-05 +1.073197E-04 -1.058198E-05 +4.787805E-03 
 +5.248234E-05 +2.898208E-04 +1.710600E-05 +2.898208E-04 -2.632973E-05 +5.453436E-05 +1.710600E-05 +5.453436E-05 +4.879022E-03 
 +6.338078E-05 +2.105364E-04 +2.049054E-05 +2.105364E-04 -5.098341E-05 +2.216324E-05 +2.049054E-05 +2.216324E-05 +4.938786E-03 
 +1.346162E-04 +1.713017E-04 +9.952122E-05 +1.713017E-04 -9.138950E-05 +2.801711E-06 +9.952122E-05 +2.801711E-06 +4.912916E-03 
 +1.776209E-04 +2.112079E-04 +1.489963E-04 +2.112079E-04 -1.860552E-04 -5.888305E-05 +1.489963E-04 -5.888305E-05 +4.877798E-03 
 +2.061284E-04 +1.149490E-04 +3.103317E-05 +1.149490E-04 +8.243392E-05 -1.284296E-04 +3.103317E-05 -1.284296E-04 +4.674435E-03 
 +2.500489E-04 +2.646873E-05 -1.190022E-05 +2.646873E-05 +2.655963E-04 -8.522811E-05 -1.190022E-05 -8.522811E-05 +4.501445E-03 
 +1.873568E-04 +8.525485E-05 +2.820841E-05 +8.525485E-05 +2.744024E-04 +2.711594E-05 +2.820841E-05 +2.711594E-05 +4.457413E-03 
 +6.102406E-05 +1.154859E-04 +4.476240E-05 +1.154859E-04 +3.580293E-04 +1.051403E-04 +4.476240E-05 +1.051403E-04 +4.527136E-03 
 -1.168405E-04 +4.806899E-05 -4.160331E-05 +4.806899E-05 +4.299994E-04 +9.862640E-05 -4.160331E-05 +9.862640E-05 +4.648125E-03 
 -1.198199E-04 -4.402376E-05 -1.283936E-04 -4.402376E-05 +2.496640E-04 +6.502495E-05 -1.283936E-04 +6.502495E-05 +4.801071E-03 
 -4.613664E-04 +1.083679E-04 -6.603862E-05 +1.083679E-04 -3.649820E-05 +8.486171E-05 -6.603862E-05 +8.486171E-05 +5.090224E-03 
 -1.873454E-04 +1.561652E-04 +6.306313E-05 +1.561652E-04 -1.707104E-04 +1.093360E-04 +6.306313E-05 +1.093360E-04 +5.267919E-03 
 +1.123551E-05 +1.730838E-04 +1.136619E-04 +1.730838E-04 -2.639343E-04 +6.549813E-05 +1.136619E-04 +6.549813E-05 +5.265944E-03 
 +1.269512E-06 +1.494369E-04 +1.566440E-04 +1.494369E-04 -2.635845E-04 -6.337600E-06 +1.566440E-04 -6.337600E-06 +5.330034E-03 
 -1.447145E-04 +2.234833E-04 +1.597409E-04 +2.234833E-04 -1.266599E-04 -5.415052E-05 +1.597409E-04 -5.415052E-05 +5.326612E-03 
 -3.029916E-05 +4.739131E-06 +2.789869E-04 +4.739131E-06 -6.825552E-05 -1.111807E-04 +2.789869E-04 -1.111807E-04 +5.248151E-03 
 +5.661583E-05 +1.646783E-05 +3.025365E-04 +1.646783E-05 -6.515000E-05 -1.917418E-04 +3.025365E-04 -1.917418E-04 +5.278780E-03 
 -3.206575E-05 -6.036947E-06 +1.734032E-04 -6.036947E-06 +2.240767E-05 -2.081856E-04 +1.734032E-04 -2.081856E-04 +5.202175E-03 
 -1.543607E-04 +1.718520E-04 +7.732874E-05 +1.718520E-04 -2.641932E-05 +4.920202E-05 +7.732874E-05 +4.920202E-05 +5.206591E-03 
 -5.054396E-05 +9.198117E-05 +7.988667E-05 +9.198117E-05 +3.959073E-05 +4.495222E-05 +7.988667E-05 +4.495222E-05 +5.085420E-03 
 +1.274123E-04 -9.724337E-05 +1.985536E-04 -9.724337E-05 +2.601956E-04 +2.570422E-05 +1.985536E-04 +2.570422E-05 +4.883741E-03 
 +1.276445E-05 -1.977629E-04 +5.909564E-05 -1.977629E-04 +3.629647E-04 +1.124973E-04 +5.909564E-05 +1.124973E-04 +4.891871E-03 
 +2.835215E-04 +1.880892E-04 +5.165213E-05 +1.880892E-04 +4.900475E-05 +8.428157E-05 +5.165213E-05 +8.428157E-05 +4.924430E-03 
 +2.442868E-04 +2.048399E-04 +1.198743E-04 +2.048399E-04 -1.913685E-04 +3.509296E-06 +1.198743E-04 +3.509296E-06 +4.922143E-03 
 +1.988449E-04 +3.418194E-04 +1.649398E-04 +3.418194E-04 -3.040709E-04 -3.559811E-05 +1.649398E-04 -3.559811E-05 +5.030566E-03 
 +1.628545E-04 +3.744335E-04 +6.756789E-05 +3.744335E-04 -2.618727E-04 -1.269074E-04 +6.756789E-05 -1.269074E-04 +4.929262E-03 
 +1.957602E-04 +1.903537E-04 -3.537326E-06 +1.903537E-04 -2.110867E-05 -1.195665E-04 -3.537326E-06 -1.195665E-04 +4.655680E-03 
 +1.201718E-04 +7.921818E-05 +3.530487E-06 +7.921818E-05 +1.955370E-04 -1.277053E-05 +3.530487E-06 -1.277053E-05 +4.526987E-03 
 +1.547649E-05 +2.812228E-05 +2.346796E-05 +2.812228E-05 +2.395875E-04 +5.004120E-05 +2.346796E-05 +5.004120E-05 +4.656368E-03 
 -1.865533E-04 -1.965098E-04 -4.955577E-05 -1.965098E-04 +1.177641E-04 +4.950878E-05 -4.955577E-05 +4.950878E-05 +4.904788E-03 
 -2.285091E-04 -2.875932E-04 -1.120675E-04 -2.875932E-04 +1.405888E-04 +3.520775E-05 -1.120675E-04 +3.520775E-05 +5.022514E-03 
 -5.060831E-04 -1.718050E-04 -7.615984E-05 -1.718050E-04 +2.035337E-04 +3.874467E-05 -7.615984E-05 +3.874467E-05 +5.108202E-03 
 -3.158750E-04 -5.511007E-05 +3.587252E-05 -5.511007E-05 -2.861993E-05 +9.025971E-05 +3.587252E-05 +9.025971E-05 +5.218783E-03 
 -7.643034E-05 +3.032770E-05 +1.130067E-04 +3.032770E-05 -2.544833E-04 +6.914909E-05 +1.130067E-04 +6.914909E-05 +5.235170E-03 
 +8.511834E-06 +7.986173E-05 +1.506848E-04 +7.986173E-05 -3.054662E-04 +3.206447E-06 +1.506848E-04 +3.206447E-06 +5.291304E-03 
 +1.486114E-05 +6.568262E-05 +1.215574E-04 +6.568262E-05 -4.386525E-04 -2.552516E-06 +1.215574E-04 -2.552516E-06 +5.344446E-03 
 +8.742856E-05 -1.304995E-05 +1.307549E-04 -1.304995E-05 -5.065113E-04 -5.095589E-05 +1.307549E-04 -5.095589E-05 +5.290462E-03 
 +6.978958E-05 +8.396983E-06 +2.682452E-04 +8.396983E-06 -4.474489E-04 -1.345273E-04 +2.682452E-04 -1.345273E-04 +5.228909E-03 
 -2.325204E-05 +7.689944E-05 +1.305697E-04 +7.689944E-05 -2.957883E-04 -7.519151E-05 +1.305697E-04 -7.519151E-05 +5.207610E-03 
 -7.010189E-05 +2.620578E-04 +9.217903E-05 +2.620578E-04 -1.847951E-04 +1.613260E-04 +9.217903E-05 +1.613260E-04 +5.331282E-03 
 -5.048650E-05 +1.864792E-04 +9.757340E-05 +1.864792E-04 -1.960710E-04 +1.810837E-04 +9.757340E-05 +1.810837E-04 +5.247756E-03 
 +5.849595E-05 +3.422016E-04 +1.764510E-04 +3.422016E-04 -1.435407E-04 +9.262435E-05 +1.764510E-04 +9.262435E-05 +5.084971E-03 
 +1.233354E-04 +1.201888E-04 +1.186406E-04 +1.201888E-04 +7.374100E-05 +1.503309E-04 +1.186406E-04 +1.503309E-04 +4.977584E-03 
 +3.939798E-04 +1.374198E-04 +5.708102E-05 +1.374198E-04 +2.306639E-04 +1.025082E-04 +5.708102E-05 +1.025082E-04 +4.914700E-03 
 +1.662067E-04 -1.645541E-04 +2.759275E-05 -1.645541E-04 +1.804872E-04 +4.474197E-06 +2.759275E-05 +4.474197E-06 +4.888452E-03 
 +1.106745E-04 -1.090335E-04 +2.586785E-05 -1.090335E-04 +2.966394E-05 +1.174055E-05 +2.586785E-05 +1.174055E-05 +4.940342E-03 
 +1.057550E-04 -8.595471E-05 -1.165257E-05 -8.595471E-05 -1.037125E-04 -9.318374E-05 -1.165257E-05 -9.318374E-05 +4.955242E-03 
 +5.481356E-05 -2.017385E-04 -2.623729E-05 -2.017385E-04 -1.410422E-04 -1.577575E-04 -2.623729E-05 -1.577575E-04 +4.868339E-03 
 +6.619444E-05 -2.707307E-04 -1.134715E-06 -2.707307E-04 -9.212200E-05 -1.163645E-04 -1.134715E-06 -1.163645E-04 +4.809837E-03 
 +4.693838E-06 -2.694167E-04 +3.406384E-05 -2.694167E-04 -6.066277E-05 -5.850729E-05 +3.406384E-05 -5.850729E-05 +4.892497E-03 
 -1.038628E-04 -3.479865E-04 +2.411854E-05 -3.479865E-04 -9.164586E-07 +1.677834E-05 +2.411854E-05 +1.677834E-05 +5.023394E-03 
 -3.151491E-04 -1.564970E-04 -2.083783E-05 -1.564970E-04 +2.051919E-04 +7.256657E-05 -2.083783E-05 +7.256657E-05 +5.077179E-03 
 -4.520050E-04 -1.799705E-04 -6.361345E-06 -1.799705E-04 +3.569813E-04 +4.056337E-05 -6.361345E-06 +4.056337E-05 +5.080009E-03 
 -3.610144E-04 -1.597904E-04 +3.013773E-05 -1.597904E-04 +2.371065E-04 +3.930119E-05 +3.013773E-05 +3.930119E-05 +5.097975E-03 
 -1.377056E-04 -3.501891E-05 +1.249573E-04 -3.501891E-05 -6.778856E-05 +9.269735E-05 +1.249573E-04 +9.269735E-05 +5.155731E-03 
 -6.866408E-05 +6.688386E-05 +1.709776E-04 +6.688386E-05 -4.009462E-04 +4.679597E-05 +1.709776E-04 +4.679597E-05 +5.238860E-03 
 +1.678674E-04 -3.175400E-06 +5.177462E-05 -3.175400E-06 -5.943934E-04 -6.329796E-05 +5.177462E-05 -6.329796E-05 +5.251112E-03 
 +1.930224E-04 -1.161870E-05 +2.164310E-05 -1.161870E-05 -5.979269E-04 -1.052132E-04 +2.164310E-05 -1.052132E-04 +5.222995E-03 
 +1.380570E-04 -2.881567E-05 +1.917176E-04 -2.881567E-05 -4.614896E-04 -1.269969E-04 +1.917176E-04 -1.269969E-04 +5.209166E-03 
 -2.411908E-05 +1.796840E-04 +8.184992E-05 +1.796840E-04 -2.789708E-04 -3.483554E-05 +8.184992E-05 -3.483554E-05 +5.270896E-03 
 -2.761494E-05 +2.731753E-04 +8.967792E-05 +2.731753E-04 -2.736141E-04 +1.375764E-04 +8.967792E-05 +1.375764E-04 +5.305962E-03 
 +1.400711E-05 +1.165516E-04 +8.109494E-05 +1.165516E-04 -1.796901E-04 +1.388647E-04 +8.109494E-05 +1.388647E-04 +5.246566E-03 
 +1.372664E-04 +2.294373E-04 +6.918292E-05 +2.294373E-04 -1.520890E-04 +5.867695E-05 +6.918292E-05 +5.867695E-05 +5.145075E-03 
 +1.705357E-04 +1.477941E-04 +2.866129E-05 +1.477941E-04 +9.298096E-06 +1.541534E-04 +2.866129E-05 +1.541534E-04 +5.027785E-03 
 +1.183110E-04 +1.143987E-04 -4.034227E-05 +1.143987E-04 +2.725561E-04 +1.648350E-04 -4.034227E-05 +1.648350E-04 +4.947128E-03 
 -7.431218E-05 -2.541385E-04 -9.256035E-05 -2.541385E-04 +2.653984E-04 +8.635550E-05 -9.256035E-05 +8.635550E-05 +4.962905E-03 
 -4.025229E-05 -2.049570E-04 -8.084237E-05 -2.049570E-04 +1.594018E-04 +5.879843E-05 -8.084237E-05 +5.879843E-05 +4.982603E-03 
 -3.783730E-05 -1.798558E-04 -3.573518E-05 -1.798558E-04 +4.749063E-05 -3.120187E-05 -3.573518E-05 -3.120187E-05 +4.963825E-03 
 +4.670117E-05 -2.195325E-04 -1.335820E-05 -2.195325E-04 -7.852371E-05 -9.169419E-05 -1.335820E-05 -9.169419E-05 +4.965920E-03 
 +6.656287E-05 -2.471027E-04 -1.138921E-05 -2.471027E-04 -1.306057E-04 -8.159672E-05 -1.138921E-05 -8.159672E-05 +4.983181E-03 
 +9.266640E-05 -2.815091E-04 +5.352217E-07 -2.815091E-04 -1.147666E-04 -1.994571E-05 +5.352217E-07 -1.994571E-05 +5.006567E-03 
 +8.372932E-05 -3.637298E-04 +2.356518E-05 -3.637298E-04 -2.809305E-05 +5.103039E-05 +2.356518E-05 +5.103039E-05 +5.043977E-03 
 -2.615915E-04 -1.168944E-04 +2.006013E-05 -1.168944E-04 +1.330266E-04 +8.861024E-05 +2.006013E-05 +8.861024E-05 +5.095134E-03 
 -3.080109E-04 -1.407490E-04 +8.960478E-05 -1.407490E-04 +2.839955E-04 +7.031248E-05 +8.960478E-05 +7.031248E-05 +5.100741E-03 
 -3.272226E-04 -1.449030E-04 +1.282982E-04 -1.449030E-04 +3.535147E-04 +3.119844E-05 +1.282982E-04 +3.119844E-05 +5.044553E-03 
 -2.018126E-04 -9.853411E-05 +2.141658E-04 -9.853411E-05 +2.219530E-04 +7.927668E-05 +2.141658E-04 +7.927668E-05 +5.046934E-03 
 -9.746985E-05 -1.912572E-05 +2.269479E-04 -1.912572E-05 -1.680599E-04 +3.202706E-05 +2.269479E-04 +3.202706E-05 +5.118360E-03 
 +2.178001E-04 +8.591473E-05 +7.605930E-05 +8.591473E-05 -4.480485E-04 -1.123134E-04 +7.605930E-05 -1.123134E-04 +5.118597E-03 
 +2.400719E-04 +1.356503E-04 +4.678387E-05 +1.356503E-04 -4.615273E-04 -1.392048E-04 +4.678387E-05 -1.392048E-04 +5.108877E-03 
 +1.923298E-04 +1.507111E-04 +9.179689E-05 +1.507111E-04 -4.033807E-04 -1.473387E-04 +9.179689E-05 -1.473387E-04 +5.174109E-03 
 -3.993949E-06 +2.909349E-04 +5.962421E-05 +2.909349E-04 -3.338997E-04 -5.329594E-05 +5.962421E-05 -5.329594E-05 +5.269853E-03 
 -3.402592E-05 +2.634791E-04 +3.219993E-05 +2.634791E-04 -2.543373E-04 +8.253828E-05 +3.219993E-05 +8.253828E-05 +5.262147E-03 
 +1.088315E-05 +1.732201E-04 +4.062570E-05 +1.732201E-04 -1.799548E-04 +8.744630E-05 +4.062570E-05 +8.744630E-05 +5.225614E-03 
 +8.183406E-05 +1.514053E-04 +3.928812E-06 +1.514053E-04 -1.029023E-04 +6.596656E-05 +3.928812E-06 +6.596656E-05 +5.148816E-03 
 +1.055552E-04 +1.217503E-04 -6.806698E-05 +1.217503E-04 +1.982297E-05 +1.218717E-04 -6.806698E-05 +1.218717E-04 +5.039715E-03 
 +2.940022E-05 -7.733407E-05 -1.054107E-04 -7.733407E-05 +1.233088E-04 +1.291356E-04 -1.054107E-04 +1.291356E-04 +4.975183E-03 
 -1.136172E-04 -3.285420E-04 -9.131750E-05 -3.285420E-04 +1.813249E-04 +9.199419E-05 -9.131750E-05 +9.199419E-05 +5.010171E-03 
 -1.755461E-04 -1.904377E-04 -2.714238E-05 -1.904377E-04 +1.995599E-04 +3.193646E-05 -2.714238E-05 +3.193646E-05 +5.056351E-03 
 -1.469210E-04 -1.780346E-04 +3.830923E-05 -1.780346E-04 +8.917023E-05 -5.117531E-05 +3.830923E-05 -5.117531E-05 +5.035454E-03 
 -1.896832E-06 -2.238267E-04 +3.109102E-05 -2.238267E-04 -1.470323E-05 -9.653358E-05 +3.109102E-05 -9.653358E-05 +4.993926E-03 
 +4.049116E-05 -2.490506E-04 -1.050941E-06 -2.490506E-04 -5.239837E-05 -9.319356E-05 -1.050941E-06 -9.319356E-05 +4.995850E-03 
 +8.978946E-05 -3.249196E-04 -7.798885E-06 -3.249196E-04 -9.099284E-05 -3.491922E-05 -7.798885E-06 -3.491922E-05 +5.041842E-03 
 +8.029888E-05 -4.376022E-04 -7.108928E-06 -4.376022E-04 -1.230641E-04 +2.231832E-05 -7.108928E-06 +2.231832E-05 +5.101125E-03 
 -6.563152E-05 -1.752691E-04 +4.679310E-05 -1.752691E-04 -4.660207E-05 +4.526574E-05 +4.679310E-05 +4.526574E-05 +5.108000E-03 
 -8.485185E-05 -2.053225E-04 +1.522041E-04 -2.053225E-04 +6.014622E-05 +2.996948E-05 +1.522041E-04 +2.996948E-05 +5.053612E-03 
 -1.352151E-04 -1.577851E-04 +2.225935E-04 -1.577851E-04 +1.842156E-04 +3.272964E-07 +2.225935E-04 +3.272964E-07 +5.000700E-03 
 -1.711550E-04 -1.784987E-04 +2.414319E-04 -1.784987E-04 +1.688951E-04 +2.940041E-05 +2.414319E-04 +2.940041E-05 +5.010596E-03 
 -8.589565E-05 -1.301694E-04 +2.205951E-04 -1.301694E-04 -8.752766E-05 +1.376132E-05 +2.205951E-04 +1.376132E-05 +5.048599E-03 
 +1.557391E-04 +9.212897E-05 +1.093074E-04 +9.212897E-05 -2.897449E-04 -1.102654E-04 +1.093074E-04 -1.102654E-04 +5.041819E-03 
 +2.061518E-04 +8.635549E-05 +3.908258E-05 +8.635549E-05 -3.603213E-04 -1.739670E-04 +3.908258E-05 -1.739670E-04 +5.049746E-03 
 +1.927973E-04 +8.522532E-05 -1.237393E-05 +8.522532E-05 -3.487720E-04 -1.384361E-04 -1.237393E-05 -1.384361E-04 +5.112364E-03 
 +2.170519E-05 +2.451554E-04 +1.953926E-05 +2.451554E-04 -2.880932E-04 -2.879652E-05 +1.953926E-05 -2.879652E-05 +5.207898E-03 
 -6.937199E-06 +2.134470E-04 -1.779050E-06 +2.134470E-04 -1.777845E-04 +4.915097E-05 -1.779050E-06 +4.915097E-05 +5.180111E-03 
 +2.039556E-06 +1.585884E-04 +2.100604E-05 +1.585884E-04 -1.417835E-04 +5.354239E-05 +2.100604E-05 +5.354239E-05 +5.170280E-03 
 -3.392693E-05 +1.358518E-04 +1.013040E-05 +1.358518E-04 -7.434827E-05 +7.506222E-05 +1.013040E-05 +7.506222E-05 +5.151878E-03 
 -2.544762E-05 +2.095252E-04 -1.965290E-05 +2.095252E-04 -2.835658E-07 +1.013806E-04 -1.965290E-05 +1.013806E-04 +5.072477E-03 
 -3.064823E-05 -1.109751E-04 -6.193123E-05 -1.109751E-04 -8.979471E-05 +1.031547E-04 -6.193123E-05 +1.031547E-04 +5.025911E-03 
 -3.185643E-05 -2.483198E-04 -7.439605E-05 -2.483198E-04 -4.268274E-05 +7.477457E-05 -7.439605E-05 +7.477457E-05 +5.030282E-03 
 -2.190172E-04 -2.478802E-04 -5.548488E-06 -2.478802E-04 +1.848206E-04 -4.783025E-06 -5.548488E-06 -4.783025E-06 +5.037143E-03 
 -2.095076E-04 -2.413210E-04 +6.299797E-05 -2.413210E-04 +1.899290E-04 -6.028119E-05 +6.299797E-05 -6.028119E-05 +5.047834E-03 
 -1.261558E-04 -2.581735E-04 +3.177433E-05 -2.581735E-04 +9.550576E-05 -7.089548E-05 +3.177433E-05 -7.089548E-05 +5.043209E-03 
 -1.642194E-05 -2.841087E-04 +7.913701E-06 -2.841087E-04 -2.061754E-05 -4.705619E-05 +7.913701E-06 -4.705619E-05 +5.049248E-03 
 +5.174369E-05 -3.753277E-04 -5.686987E-06 -3.753277E-04 -1.405749E-04 +1.740507E-06 -5.686987E-06 +1.740507E-06 +5.106787E-03 
 +1.694881E-05 -4.115425E-04 -3.501103E-05 -4.115425E-04 -2.048714E-04 -3.882692E-06 -3.501103E-05 -3.882692E-06 +5.159373E-03 
 +1.455673E-04 -1.037030E-04 +9.445249E-05 -1.037030E-04 -2.068301E-04 -6.990079E-05 +9.445249E-05 -6.990079E-05 +5.087920E-03 
 +1.166520E-04 -1.552015E-04 +1.632769E-04 -1.552015E-04 -1.412939E-04 -1.469298E-04 +1.632769E-04 -1.469298E-04 +4.973031E-03 
 +7.212091E-05 -1.554321E-04 +2.261085E-04 -1.554321E-04 -6.349806E-05 -1.663516E-04 +2.261085E-04 -1.663516E-04 +4.977469E-03 
 +6.392340E-06 -3.479401E-04 +1.948435E-04 -3.479401E-04 -1.316243E-04 -9.801619E-05 +1.948435E-04 -9.801619E-05 +5.024292E-03 
 -9.633472E-05 -2.401631E-04 +1.530439E-04 -2.401631E-04 -1.672063E-04 -5.028026E-05 +1.530439E-04 -5.028026E-05 +5.017309E-03 
 +1.103924E-05 -2.939864E-05 +7.372468E-05 -2.939864E-05 -1.732788E-04 -9.040741E-05 +7.372468E-05 -9.040741E-05 +5.009236E-03 
 +1.223037E-04 +2.309934E-05 -4.222239E-06 +2.309934E-05 -2.549557E-04 -1.788910E-04 -4.222239E-06 -1.788910E-04 +5.029790E-03 
 +2.053766E-04 +8.344488E-05 -6.660198E-05 +8.344488E-05 -3.059152E-04 -2.039292E-04 -6.660198E-05 -2.039292E-04 +5.061994E-03 
 +4.608755E-05 +2.684148E-04 -2.249702E-05 +2.684148E-04 -2.594127E-04 -5.670089E-05 -2.249702E-05 -5.670089E-05 +5.136020E-03 
 +1.866503E-05 +1.918592E-04 -4.583087E-05 +1.918592E-04 -1.191433E-04 -1.483193E-06 -4.583087E-05 -1.483193E-06 +5.131781E-03 
 +9.067996E-06 +1.481473E-04 +7.232581E-06 +1.481473E-04 -1.186881E-04 +1.579967E-05 +7.232581E-06 +1.579967E-05 +5.121054E-03 
 -2.564858E-05 +2.142105E-04 +2.130016E-05 +2.142105E-04 -6.933373E-05 +3.959946E-05 +2.130016E-05 +3.959946E-05 +5.114295E-03 
 -3.679523E-05 +2.795174E-04 -1.625110E-05 +2.795174E-04 -9.683710E-05 +8.647392E-05 -1.625110E-05 +8.647392E-05 +5.065643E-03 
 -1.713820E-04 -4.495589E-05 -5.627707E-05 -4.495589E-05 -1.214576E-04 +8.573475E-05 -5.627707E-05 +8.573475E-05 +5.067473E-03 
 -2.532217E-04 -1.188308E-04 -6.420438E-05 -1.188308E-04 +7.482324E-05 +3.466435E-05 -6.420438E-05 +3.466435E-05 +5.071767E-03 
 -1.661518E-04 -3.174678E-04 -2.631812E-05 -3.174678E-04 +2.217920E-04 -3.161529E-05 -2.631812E-05 -3.161529E-05 +5.028612E-03 
 -1.480453E-04 -3.293646E-04 +5.372242E-05 -3.293646E-04 +2.066091E-04 -4.668244E-05 +5.372242E-05 -4.668244E-05 +5.040786E-03 
 -1.963001E-04 -2.946959E-04 +5.824635E-06 -2.946959E-04 +9.760174E-05 -1.419274E-05 +5.824635E-06 -1.419274E-05 +5.081328E-03 
 -4.940160E-05 -2.759784E-04 -2.677929E-05 -2.759784E-04 -4.169339E-05 -9.250972E-06 -2.677929E-05 -9.250972E-06 +5.115224E-03 
 -9.723435E-06 -3.702797E-04 -2.010765E-05 -3.702797E-04 -2.000882E-04 -8.394461E-06 -2.010765E-05 -8.394461E-06 +5.181346E-03 
 -2.500651E-05 -3.446091E-04 -2.897364E-05 -3.446091E-04 -2.349906E-04 +3.009105E-06 -2.897364E-05 +3.009105E-06 +5.213365E-03 
 +2.387201E-04 -1.147628E-04 +1.481416E-04 -1.147628E-04 -1.926478E-04 -4.788454E-05 +1.481416E-04 -4.788454E-05 +5.112397E-03 
 +2.996268E-04 -1.362045E-04 +2.441146E-04 -1.362045E-04 -1.302606E-04 -1.352203E-04 +2.441146E-04 -1.352203E-04 +4.953994E-03 
 +2.328813E-04 -1.865103E-04 +2.435564E-04 -1.865103E-04 -8.662809E-05 -1.757248E-04 +2.435564E-04 -1.757248E-04 +4.959533E-03 
 +9.644451E-05 -4.290298E-04 +1.524953E-04 -4.290298E-04 -5.203743E-05 -1.659802E-04 +1.524953E-04 -1.659802E-04 +5.028120E-03 
 -7.682158E-05 -2.660162E-04 +1.076331E-04 -2.660162E-04 +1.360057E-04 -1.005847E-04 +1.076331E-04 -1.005847E-04 +4.998509E-03 
 -6.936037E-05 -2.127243E-04 +6.774867E-05 -2.127243E-04 +6.545460E-05 -5.547221E-05 +6.774867E-05 -5.547221E-05 +4.976891E-03 
 +1.222311E-04 -4.058945E-05 -3.270958E-05 -4.058945E-05 -2.101381E-04 -1.011140E-04 -3.270958E-05 -1.011140E-04 +4.989188E-03 
 +1.734337E-04 +6.157395E-05 -1.346239E-04 +6.157395E-05 -2.542518E-04 -1.910478E-04 -1.346239E-04 -1.910478E-04 +5.039175E-03 
 +3.675585E-05 +2.830099E-04 -1.083586E-04 +2.830099E-04 -1.738214E-04 -1.131739E-04 -1.083586E-04 -1.131739E-04 +5.119350E-03 
 +9.771950E-05 +2.488725E-04 -1.213729E-04 +2.488725E-04 -1.061147E-04 -9.159027E-05 -1.213729E-04 -9.159027E-05 +5.121386E-03 
 +6.423882E-05 +1.997872E-04 -2.799378E-06 +1.997872E-04 -1.435587E-04 -7.568056E-05 -2.799378E-06 -7.568056E-05 +5.104438E-03 
 -1.137067E-05 +3.376469E-04 +6.749986E-06 +3.376469E-04 -1.333087E-04 -4.422917E-05 +6.749986E-06 -4.422917E-05 +5.065538E-03 
 +3.613643E-05 +2.631824E-04 -3.643270E-05 +2.631824E-04 -9.552108E-05 +2.588092E-05 -3.643270E-05 +2.588092E-05 +5.022395E-03 
 -3.051382E-04 +1.681473E-04 -8.538399E-05 +1.681473E-04 +7.316741E-05 +6.400638E-05 -8.538399E-05 +6.400638E-05 +5.047027E-03 
 -3.964589E-04 +1.593037E-04 -1.130683E-04 +1.593037E-04 +1.948927E-04 +6.036251E-05 -1.130683E-04 +6.036251E-05 +5.075800E-03 
 -2.311837E-04 +1.424032E-05 -9.505447E-05 +1.424032E-05 +1.553130E-04 -2.997742E-07 -9.505447E-05 -2.997742E-07 +5.056199E-03 
 -7.807173E-05 -1.427326E-04 -1.704890E-05 -1.427326E-04 +1.936147E-04 -1.674367E-05 -1.704890E-05 -1.674367E-05 +5.094630E-03 
 -1.609837E-04 -2.096563E-04 -1.899150E-05 -2.096563E-04 +8.726064E-05 +9.281885E-05 -1.899150E-05 +9.281885E-05 +5.113963E-03 
 -7.963592E-05 -1.690729E-04 -4.692054E-05 -1.690729E-04 -1.260150E-04 +1.397184E-04 -4.692054E-05 +1.397184E-04 +5.124518E-03 
 -4.764901E-05 -2.071007E-04 -1.205960E-04 -2.071007E-04 -1.922702E-04 +1.565718E-04 -1.205960E-04 +1.565718E-04 +5.182964E-03 
 -7.747175E-05 -2.592117E-05 -4.745371E-05 -2.592117E-05 -5.928682E-05 +1.785025E-04 -4.745371E-05 +1.785025E-04 +5.182297E-03 
 +9.818310E-05 -1.028334E-05 +3.874979E-05 -1.028334E-05 -6.140673E-05 +1.237501E-04 +3.874979E-05 +1.237501E-04 +5.090553E-03 
 +3.532742E-04 -6.274030E-05 +2.038585E-04 -6.274030E-05 -1.501599E-04 -5.501355E-05 +2.038585E-04 -5.501355E-05 +4.933879E-03 
 +4.626246E-04 -1.864759E-04 +2.033583E-04 -1.864759E-04 -3.929589E-05 -1.392721E-04 +2.033583E-04 -1.392721E-04 +4.905274E-03 
 +1.413449E-04 -3.086798E-04 +7.250439E-05 -3.086798E-04 +1.656418E-04 -1.079171E-04 +7.250439E-05 -1.079171E-04 +4.981645E-03 
 -3.393880E-05 -2.179196E-04 +1.279820E-05 -2.179196E-04 +1.357852E-04 -4.264658E-05 +1.279820E-05 -4.264658E-05 +4.994744E-03 
 -5.935993E-06 -1.899488E-04 +2.613867E-06 -1.899488E-04 +4.852953E-05 +4.321704E-06 +2.613867E-06 +4.321704E-06 +4.979547E-03 
 -1.990438E-05 -1.045940E-04 -6.188351E-05 -1.045940E-04 -2.196443E-05 -1.629296E-05 -6.188351E-05 -1.629296E-05 +4.963799E-03 
 +1.103281E-04 +6.565521E-05 -1.704228E-04 +6.565521E-05 -1.291648E-04 -1.168716E-04 -1.704228E-04 -1.168716E-04 +5.016920E-03 
 +8.375558E-05 +3.024056E-04 -1.636164E-04 +3.024056E-04 -1.115220E-04 -1.257796E-04 -1.636164E-04 -1.257796E-04 +5.101822E-03 
 +1.437629E-04 +3.003061E-04 -1.588699E-04 +3.003061E-04 -1.543274E-04 -1.408163E-04 -1.588699E-04 -1.408163E-04 +5.135965E-03 
 +1.096855E-04 +1.478445E-04 -3.082267E-06 +1.478445E-04 -1.070121E-04 -7.467824E-05 -3.082267E-06 -7.467824E-05 +5.126321E-03 
 -2.336636E-05 +3.219472E-04 -6.760109E-05 +3.219472E-04 -1.266077E-04 -1.137401E-04 -6.760109E-05 -1.137401E-04 +5.084358E-03 
 -1.360991E-06 +2.363594E-04 -5.161861E-05 +2.363594E-04 -3.729593E-05 -3.908097E-05 -5.161861E-05 -3.908097E-05 +5.039067E-03 
 -2.371281E-04 +2.122932E-04 -1.068324E-04 +2.122932E-04 +1.318483E-04 +9.048877E-05 -1.068324E-04 +9.048877E-05 +5.026785E-03 
 -2.265320E-04 +1.281357E-04 -2.002692E-04 +1.281357E-04 +1.481040E-04 +1.033220E-04 -2.002692E-04 +1.033220E-04 +5.061711E-03 
 -2.797352E-04 +1.076669E-04 -1.926397E-04 +1.076669E-04 +2.742160E-05 +3.162113E-05 -1.926397E-04 +3.162113E-05 +5.110008E-03 
 -1.015605E-04 +3.647845E-05 -1.638083E-04 +3.647845E-05 -1.016725E-04 +4.041263E-06 -1.638083E-04 +4.041263E-06 +5.181516E-03 
 -1.247322E-04 -7.012232E-05 -1.283882E-04 -7.012232E-05 -7.919583E-05 +1.074440E-04 -1.283882E-04 +1.074440E-04 +5.147561E-03 
 -2.915339E-04 -1.866026E-04 -2.842668E-05 -1.866026E-04 -9.216728E-05 +1.437458E-04 -2.842668E-05 +1.437458E-04 +5.130564E-03 
 -5.490553E-05 -1.695342E-04 -1.340228E-04 -1.695342E-04 -9.583857E-05 +2.066485E-04 -1.340228E-04 +2.066485E-04 +5.168260E-03 
 -3.048854E-05 +2.052664E-05 -8.949231E-06 +2.052664E-05 -4.908707E-05 +1.850238E-04 -8.949231E-06 +1.850238E-04 +5.130792E-03 
 +3.130921E-05 +9.711696E-05 +1.417720E-05 +9.711696E-05 -9.034830E-05 +1.072446E-04 +1.417720E-05 +1.072446E-04 +5.069922E-03 
 +1.769144E-04 +1.570876E-04 +1.392155E-04 +1.570876E-04 -1.388009E-04 -8.328142E-07 +1.392155E-04 -8.328142E-07 +4.986113E-03 
 +4.883706E-04 -1.428754E-04 +1.182911E-04 -1.428754E-04 -3.138692E-04 -9.125785E-05 +1.182911E-04 -9.125785E-05 +4.970138E-03 
 +3.447039E-04 -1.724667E-04 +1.084923E-05 -1.724667E-04 -2.619463E-04 -4.827198E-05 +1.084923E-05 -4.827198E-05 +4.975647E-03 
 +5.719285E-05 -1.872495E-04 -5.222686E-05 -1.872495E-04 +1.522675E-05 -1.363810E-06 -5.222686E-05 -1.363810E-06 +4.976299E-03 
 -3.286812E-05 -2.059089E-04 -1.011270E-04 -2.059089E-04 +1.708159E-06 +5.307383E-05 -1.011270E-04 +5.307383E-05 +4.996812E-03 
 -1.039741E-04 -3.606717E-05 -1.245086E-04 -3.606717E-05 +8.560284E-05 +3.058656E-05 -1.245086E-04 +3.058656E-05 +4.957832E-03 
 +8.652095E-06 +1.519613E-04 -1.751240E-04 +1.519613E-04 +1.914285E-04 -8.083715E-05 -1.751240E-04 -8.083715E-05 +4.962465E-03 
 +1.475769E-04 +3.031197E-04 -2.056397E-04 +3.031197E-04 -4.353718E-05 -1.504429E-04 -2.056397E-04 -1.504429E-04 +5.059640E-03 
 -2.598953E-05 +2.504477E-04 -8.315427E-05 +2.504477E-04 +3.406196E-05 -5.768830E-05 -8.315427E-05 -5.768830E-05 +5.167439E-03 
 -6.263363E-06 +2.816122E-05 -4.380270E-05 +2.816122E-05 +3.778223E-05 +4.986552E-06 -4.380270E-05 +4.986552E-06 +5.174094E-03 
 -8.119584E-05 +2.158759E-05 -1.310135E-04 +2.158759E-05 +7.686283E-05 -9.436036E-06 -1.310135E-04 -9.436036E-06 +5.154415E-03 
 -1.244786E-04 +2.215756E-05 -1.016734E-04 +2.215756E-05 +7.076176E-05 +6.115102E-05 -1.016734E-04 +6.115102E-05 +5.068964E-03 
 -1.148658E-04 -1.257204E-04 -2.067930E-04 -1.257204E-04 -1.868844E-05 +1.607749E-04 -2.067930E-04 +1.607749E-04 +5.001451E-03 
 -1.730141E-05 -2.929937E-04 -2.629574E-04 -2.929937E-04 -2.400572E-04 +1.782422E-04 -2.629574E-04 +1.782422E-04 +5.050160E-03 
 -6.304761E-05 -2.321848E-04 -2.236980E-04 -2.321848E-04 -3.294738E-04 +9.378109E-05 -2.236980E-04 +9.378109E-05 +5.111775E-03 
 -4.367790E-05 -1.631437E-04 -2.220762E-04 -1.631437E-04 -2.673325E-04 -4.886849E-06 -2.220762E-04 -4.886849E-06 +5.159672E-03 
 -8.871603E-05 -1.048273E-04 -2.233015E-04 -1.048273E-04 -8.904284E-05 +4.876011E-05 -2.233015E-04 +4.876011E-05 +5.167195E-03 
 -3.934859E-04 -2.327955E-04 -7.063351E-05 -2.327955E-04 -1.063461E-05 +1.872939E-04 -7.063351E-05 +1.872939E-04 +5.173687E-03 
 -8.716385E-05 +4.071346E-05 -3.794716E-05 +4.071346E-05 -6.539695E-06 +2.532194E-04 -3.794716E-05 +2.532194E-04 +5.163862E-03 
 +3.242419E-05 +8.059665E-05 +9.039335E-05 +8.059665E-05 -3.810387E-05 +1.738720E-04 +9.039335E-05 +1.738720E-04 +5.124825E-03 
 +6.524903E-05 +1.001137E-04 +1.420634E-04 +1.001137E-04 -1.411866E-04 +5.519820E-05 +1.420634E-04 +5.519820E-05 +5.087711E-03 
 +6.037712E-05 +1.654704E-04 +2.166963E-04 +1.654704E-04 -1.772598E-04 -4.400579E-05 +2.166963E-04 -4.400579E-05 +5.084772E-03 
 +3.292990E-04 -1.388644E-04 +1.473611E-04 -1.388644E-04 -3.209764E-04 -5.396033E-05 +1.473611E-04 -5.396033E-05 +5.103466E-03 
 +3.460179E-04 -2.661602E-05 +3.019286E-05 -2.661602E-05 -3.932311E-04 +6.922247E-05 +3.019286E-05 +6.922247E-05 +5.023274E-03 
 +2.627851E-04 -1.858514E-04 -4.508510E-05 -1.858514E-04 -2.378603E-04 +1.159667E-04 -4.508510E-05 +1.159667E-04 +4.983199E-03 
 -2.537594E-05 -2.000006E-04 -1.180947E-04 -2.000006E-04 -8.930096E-05 +1.482533E-04 -1.180947E-04 +1.482533E-04 +5.010280E-03 
 -6.009872E-05 +2.238518E-04 -1.821750E-04 +2.238518E-04 +1.291189E-04 +2.179540E-05 -1.821750E-04 +2.179540E-05 +4.936812E-03 
 +4.544446E-05 +2.300142E-04 -1.174469E-04 +2.300142E-04 +2.606458E-04 -1.797978E-04 -1.174469E-04 -1.797978E-04 +4.904423E-03 
 -9.806968E-06 +3.322904E-04 -1.353400E-04 +3.322904E-04 +1.682933E-04 -1.662541E-04 -1.353400E-04 -1.662541E-04 +5.041479E-03 
 -2.408306E-04 +2.985582E-04 +5.900638E-06 +2.985582E-04 +1.306531E-04 -4.810919E-05 +5.900638E-06 -4.810919E-05 +5.184184E-03 
 -1.968686E-04 +1.999335E-04 -6.130152E-05 +1.999335E-04 +1.978223E-04 -9.441647E-05 -6.130152E-05 -9.441647E-05 +5.224996E-03 
 -2.386537E-04 +1.213289E-04 -1.298066E-04 +1.213289E-04 +1.571177E-04 -5.189932E-05 -1.298066E-04 -5.189932E-05 +5.228779E-03 
 -2.286076E-04 +1.372505E-04 -1.168974E-04 +1.372505E-04 +5.036567E-05 +3.948453E-06 -1.168974E-04 +3.948453E-06 +5.135327E-03 
 +1.376008E-05 -1.063236E-04 -2.400109E-04 -1.063236E-04 -1.504749E-04 +8.265537E-05 -2.400109E-04 +8.265537E-05 +4.993784E-03 
 +1.041290E-04 -1.829005E-04 -2.480957E-04 -1.829005E-04 -3.023846E-04 +9.879049E-05 -2.480957E-04 +9.879049E-05 +5.010173E-03 
 +8.586483E-05 -1.934018E-04 -1.809288E-04 -1.934018E-04 -3.092476E-04 +3.432515E-05 -1.809288E-04 +3.432515E-05 +5.055288E-03 
 +3.001576E-05 -2.100198E-04 -1.735126E-04 -2.100198E-04 -2.742638E-04 +1.429015E-05 -1.735126E-04 +1.429015E-05 +5.070334E-03 
 +7.244518E-08 -1.607223E-04 -2.029542E-04 -1.607223E-04 -2.187841E-04 +4.496448E-05 -2.029542E-04 +4.496448E-05 +5.143022E-03 
 -1.872489E-04 -2.829886E-04 -1.197789E-04 -2.829886E-04 -5.746333E-05 +1.378533E-04 -1.197789E-04 +1.378533E-04 +5.194116E-03 
 -4.306576E-05 -8.269634E-06 +2.044159E-05 -8.269634E-06 +1.632620E-06 +1.807247E-04 +2.044159E-05 +1.807247E-04 +5.130261E-03 
 -1.081062E-05 +2.473217E-05 +8.328933E-05 +2.473217E-05 -7.204942E-05 +1.203582E-04 +8.328933E-05 +1.203582E-04 +5.091813E-03 
 +3.698129E-05 +6.319338E-05 +1.964291E-04 +6.319338E-05 -1.068847E-04 +4.073932E-05 +1.964291E-04 +4.073932E-05 +5.089728E-03 
 +5.687442E-05 +1.203930E-04 +2.360091E-04 +1.203930E-04 -2.327590E-04 -3.203861E-05 +2.360091E-04 -3.203861E-05 +5.096329E-03 
 +2.509639E-04 -1.541402E-04 +1.380571E-04 -1.541402E-04 -2.160391E-04 -6.312883E-05 +1.380571E-04 -6.312883E-05 +5.034358E-03 
 +2.205512E-04 +8.212875E-05 +4.178647E-05 +8.212875E-05 -1.344986E-04 +2.189939E-05 +4.178647E-05 +2.189939E-05 +4.906363E-03 
 +3.282647E-04 -8.755804E-05 +4.949217E-05 -8.755804E-05 -1.985898E-04 +1.236651E-04 +4.949217E-05 +1.236651E-04 +4.874402E-03 
 +1.349241E-04 -1.079172E-04 -2.022745E-05 -1.079172E-04 -1.732392E-05 +1.258483E-04 -2.022745E-05 +1.258483E-04 +4.868493E-03 
 -1.426645E-04 +2.412570E-04 -6.867086E-05 +2.412570E-04 +2.428867E-04 -8.300711E-07 -6.867086E-05 -8.300711E-07 +4.844335E-03 
 +8.272389E-05 +7.281755E-06 +9.957306E-05 +7.281755E-06 +2.694305E-04 -9.738924E-05 +9.957306E-05 -9.738924E-05 +4.849890E-03 
 -5.630628E-05 +1.138159E-04 +5.771554E-05 +1.138159E-04 +1.659440E-04 -4.755746E-05 +5.771554E-05 -4.755746E-05 +4.982154E-03 
 -3.784734E-04 +2.938401E-04 +1.538163E-05 +2.938401E-04 +1.518894E-04 +1.805474E-05 +1.538163E-05 +1.805474E-05 +5.151370E-03 
 -2.934126E-04 +1.746318E-04 -2.705528E-05 +1.746318E-04 +1.917181E-04 -5.640823E-05 -2.705528E-05 -5.640823E-05 +5.232562E-03 
 -2.438644E-04 +1.484518E-04 -9.132544E-05 +1.484518E-04 +1.613248E-04 -8.259426E-06 -9.132544E-05 -8.259426E-06 +5.180651E-03 
 -2.299815E-04 +2.355268E-04 -5.287894E-05 +2.355268E-04 -5.910683E-05 +1.410432E-05 -5.287894E-05 +1.410432E-05 +5.116986E-03 
 +3.890609E-05 +2.488222E-06 -1.107469E-04 +2.488222E-06 -2.595123E-04 +4.878958E-05 -1.107469E-04 +4.878958E-05 +4.990553E-03 
 +8.040873E-05 -1.254606E-04 -1.636092E-04 -1.254606E-04 -2.680907E-04 +5.051003E-05 -1.636092E-04 +5.051003E-05 +4.973109E-03 
 +5.139372E-05 -1.708456E-04 -1.413931E-04 -1.708456E-04 -2.552864E-04 +5.977890E-06 -1.413931E-04 +5.977890E-06 +4.997938E-03 
 +2.975517E-05 -1.701840E-04 -1.321284E-04 -1.701840E-04 -2.409941E-04 +4.485675E-05 -1.321284E-04 +4.485675E-05 +4.999043E-03 
 +1.885711E-05 -1.912196E-04 -1.385667E-04 -1.912196E-04 -2.779486E-04 +1.220145E-04 -1.385667E-04 +1.220145E-04 +5.082862E-03 
 +3.336699E-05 -2.561541E-04 -1.585996E-04 -2.561541E-04 -2.598193E-04 +1.193829E-04 -1.585996E-04 +1.193829E-04 +5.159211E-03 
 +7.250835E-05 -1.317970E-04 +3.400085E-05 -1.317970E-04 -1.652296E-04 +5.232774E-05 +3.400085E-05 +5.232774E-05 +5.105664E-03 
 +4.462124E-05 +1.111137E-05 +3.528928E-05 +1.111137E-05 -1.179196E-04 +5.060280E-05 +3.528928E-05 +5.060280E-05 +5.051468E-03 
 +1.125170E-05 +4.667626E-05 +1.713396E-04 +4.667626E-05 -1.099816E-04 -4.971205E-05 +1.713396E-04 -4.971205E-05 +5.046118E-03 
 +1.173859E-04 +1.198091E-04 +1.248053E-04 +1.198091E-04 -1.071348E-04 -2.465132E-04 +1.248053E-04 -2.465132E-04 +4.985521E-03 
 +2.109758E-04 +1.751398E-05 +9.745927E-05 +1.751398E-05 -3.115635E-05 -2.023187E-04 +9.745927E-05 -2.023187E-04 +4.835126E-03 
 +1.929628E-04 +1.421306E-04 +3.469675E-05 +1.421306E-04 +3.397499E-05 -4.213386E-05 +3.469675E-05 -4.213386E-05 +4.740135E-03 
 +1.546214E-04 -3.601214E-05 +1.572715E-04 -3.601214E-05 +1.548252E-04 +3.083074E-05 +1.572715E-04 +3.083074E-05 +4.730701E-03 
 +4.598041E-05 -8.227165E-05 +1.498971E-04 -8.227165E-05 +3.196613E-04 +1.049094E-04 +1.498971E-04 +1.049094E-04 +4.694656E-03 
 -4.023618E-05 +1.132047E-04 +1.907367E-04 +1.132047E-04 +2.883677E-04 +1.432624E-04 +1.907367E-04 +1.432624E-04 +4.757499E-03 
 +5.605060E-05 +7.055627E-05 +2.378176E-04 +7.055627E-05 +2.003183E-04 +3.768101E-05 +2.378176E-04 +3.768101E-05 +4.819431E-03 
 +2.712325E-05 +9.564727E-05 +1.189820E-04 +9.564727E-05 +1.571265E-04 +2.088023E-05 +1.189820E-04 +2.088023E-05 +4.882687E-03 
 -4.251833E-04 +3.410933E-04 -1.104848E-04 +3.410933E-04 +2.060602E-04 +2.439379E-05 -1.104848E-04 +2.439379E-05 +5.027830E-03 
 -3.937049E-04 +2.453865E-04 -4.446792E-05 +2.453865E-04 +1.933693E-04 -2.443045E-05 -4.446792E-05 -2.443045E-05 +5.136064E-03 
 -1.688743E-04 +9.245655E-05 -6.573818E-05 +9.245655E-05 +1.224352E-04 +8.144787E-05 -6.573818E-05 +8.144787E-05 +5.033076E-03 
 -1.094946E-04 +7.417851E-05 -4.131189E-05 +7.417851E-05 +2.034109E-06 +9.721576E-05 -4.131189E-05 +9.721576E-05 +4.990930E-03 
 -6.128678E-05 -3.863778E-05 -4.104846E-05 -3.863778E-05 -6.993273E-05 +7.787015E-05 -4.104846E-05 +7.787015E-05 +4.982798E-03 
 -2.489458E-05 -1.329776E-04 -6.614492E-05 -1.329776E-04 -1.383071E-04 +4.977170E-05 -6.614492E-05 +4.977170E-05 +4.986378E-03 
 +7.303009E-06 -1.718191E-04 -9.394594E-05 -1.718191E-04 -1.886851E-04 +3.277269E-05 -9.394594E-05 +3.277269E-05 +4.968074E-03 
 +5.084571E-06 -1.824084E-04 -9.758202E-05 -1.824084E-04 -2.033507E-04 +9.850710E-05 -9.758202E-05 +9.850710E-05 +4.952618E-03 
 +1.607854E-05 -2.301092E-04 -1.140322E-04 -2.301092E-04 -2.380293E-04 +1.661718E-04 -1.140322E-04 +1.661718E-04 +5.019895E-03 
 +8.738600E-05 -2.654797E-04 -1.673635E-04 -2.654797E-04 -2.749078E-04 +1.676370E-04 -1.673635E-04 +1.676370E-04 +5.083448E-03 
 +1.558728E-04 -2.344700E-04 -3.867945E-05 -2.344700E-04 -2.891591E-04 +6.332244E-05 -3.867945E-05 +6.332244E-05 +5.032415E-03 
 +2.305112E-04 -1.008127E-04 -3.066181E-05 -1.008127E-04 -2.618170E-04 -5.917276E-05 -3.066181E-05 -5.917276E-05 +4.970405E-03 
 +1.148159E-04 +4.526690E-05 +2.356455E-05 +4.526690E-05 -1.357904E-04 -1.991200E-04 +2.356455E-05 -1.991200E-04 +4.935469E-03 
 +1.738118E-04 +1.096270E-04 -6.137765E-06 +1.096270E-04 -6.381185E-05 -3.093020E-04 -6.137765E-06 -3.093020E-04 +4.831790E-03 
 +1.277374E-04 +4.553393E-06 +1.197588E-04 +4.553393E-06 -5.337080E-06 -2.198136E-04 +1.197588E-04 -2.198136E-04 +4.778986E-03 
 +4.190783E-05 +1.942169E-05 +9.666075E-05 +1.942169E-05 +1.201171E-04 -6.605097E-05 +9.666075E-05 -6.605097E-05 +4.763155E-03 
 -1.982583E-06 -8.500765E-05 +1.848682E-04 -8.500765E-05 +2.405431E-04 +1.872837E-06 +1.848682E-04 +1.872837E-06 +4.714202E-03 
 -5.931577E-06 -4.787573E-05 +2.254230E-04 -4.787573E-05 +3.254898E-04 +6.356548E-05 +2.254230E-04 +6.356548E-05 +4.654036E-03 
 +1.258865E-04 +9.011386E-05 +2.732143E-04 +9.011386E-05 +2.614065E-04 +1.341891E-04 +2.732143E-04 +1.341891E-04 +4.667902E-03 
 +1.099080E-04 +9.819562E-06 +1.801560E-04 +9.819562E-06 +1.843985E-04 +1.069468E-04 +1.801560E-04 +1.069468E-04 +4.741353E-03 
 -4.941166E-06 +4.229247E-05 +4.957824E-05 +4.229247E-05 +1.975799E-04 +1.057589E-04 +4.957824E-05 +1.057589E-04 +4.803887E-03 
 -4.008924E-04 +1.845569E-04 -1.202584E-04 +1.845569E-04 +1.879762E-04 -2.172556E-05 -1.202584E-04 -2.172556E-05 +5.135544E-03 
 -3.717169E-04 +1.556494E-04 -6.149717E-05 +1.556494E-04 +1.702990E-04 -1.377164E-05 -6.149717E-05 -1.377164E-05 +5.202145E-03 
 -1.930403E-04 +1.786502E-04 -3.401683E-05 +1.786502E-04 +8.680677E-07 +6.147277E-05 -3.401683E-05 +6.147277E-05 +5.073844E-03 
 -1.042394E-04 +1.455717E-04 -4.498226E-05 +1.455717E-04 -6.378479E-05 +1.212396E-04 -4.498226E-05 +1.212396E-04 +5.036674E-03 
 -4.382566E-05 +5.478597E-05 -7.256470E-05 +5.478597E-05 -5.971229E-05 +9.822512E-05 -7.256470E-05 +9.822512E-05 +4.976655E-03 
 -5.113473E-05 -6.438587E-05 -1.315255E-05 -6.438587E-05 -1.194421E-05 +9.185899E-05 -1.315255E-05 +9.185899E-05 +4.890952E-03 
 -6.950519E-05 -9.204586E-05 +2.405664E-05 -9.204586E-05 -1.623710E-05 +7.152289E-05 +2.405664E-05 +7.152289E-05 +4.821987E-03 
 -5.093638E-05 -6.509755E-06 +2.241445E-04 -6.509755E-06 -1.105863E-04 +8.091062E-05 +2.241445E-04 +8.091062E-05 +4.888056E-03 
 +2.693459E-05 -7.904128E-05 +1.689200E-04 -7.904128E-05 -1.935038E-04 +1.302195E-04 +1.689200E-04 +1.302195E-04 +4.960236E-03 
 +1.320286E-04 -8.641830E-05 +5.425694E-05 -8.641830E-05 -2.092902E-04 +1.211020E-04 +5.425694E-05 +1.211020E-04 +4.940117E-03 
 +2.128501E-04 -6.619165E-05 -1.015091E-04 -6.619165E-05 -1.893530E-04 +1.490178E-05 -1.015091E-04 +1.490178E-05 +4.963752E-03 
 +2.588663E-04 +3.815330E-06 -1.031471E-04 +3.815330E-06 -1.661253E-04 -1.302677E-04 -1.031471E-04 -1.302677E-04 +4.938738E-03 
 +2.700337E-04 -5.981320E-06 -1.495843E-04 -5.981320E-06 -2.013988E-04 -2.783069E-04 -1.495843E-04 -2.783069E-04 +4.924251E-03 
 +2.508036E-04 +3.050435E-05 -1.793488E-04 +3.050435E-05 -2.170992E-04 -3.323711E-04 -1.793488E-04 -3.323711E-04 +4.886889E-03 
 +6.110173E-05 -1.478658E-05 +2.801805E-05 -1.478658E-05 -4.850224E-05 -2.523852E-04 +2.801805E-05 -2.523852E-04 +4.841052E-03 
 -4.541462E-05 -6.426309E-05 +2.193429E-05 -6.426309E-05 +1.213834E-04 -1.265794E-04 +2.193429E-05 -1.265794E-04 +4.822378E-03 
 -1.273962E-05 -1.522877E-04 +1.027466E-04 -1.522877E-04 +1.830527E-04 -2.404562E-05 +1.027466E-04 -2.404562E-05 +4.753920E-03 
 +2.477116E-05 -1.530595E-04 +1.258321E-04 -1.530595E-04 +2.321341E-04 -6.747079E-06 +1.258321E-04 -6.747079E-06 +4.706431E-03 
 +1.034355E-04 -1.736201E-04 +1.363822E-04 -1.736201E-04 +2.056622E-04 -3.073813E-05 +1.363822E-04 -3.073813E-05 +4.696829E-03 
 +9.918354E-05 -2.565980E-04 +1.235955E-04 -2.565980E-04 +2.402925E-04 -9.178700E-05 +1.235955E-04 -9.178700E-05 +4.758135E-03 
 -9.649418E-05 -1.223925E-04 +2.137914E-05 -1.223925E-04 +1.995469E-04 -7.912202E-05 +2.137914E-05 -7.912202E-05 +4.892302E-03 
 -2.834349E-04 +2.688322E-04 +3.929655E-06 +2.688322E-04 +2.064204E-04 -2.263594E-07 +3.929655E-06 -2.263594E-07 +5.009543E-03 
 -1.268875E-04 +8.810631E-05 -3.437326E-06 +8.810631E-05 +8.314875E-05 +1.205016E-04 -3.437326E-06 +1.205016E-04 +5.040762E-03 
 -9.539096E-05 +1.142641E-04 +9.418627E-06 +1.142641E-04 -1.360452E-05 +1.509236E-04 +9.418627E-06 +1.509236E-04 +4.999472E-03 
 -1.006330E-04 +8.391294E-05 -3.682509E-06 +8.391294E-05 -3.798329E-05 +1.266760E-04 -3.682509E-06 +1.266760E-04 +5.080949E-03 
 -8.693789E-05 +2.674164E-05 +1.569598E-05 +2.674164E-05 -3.824689E-05 +1.010358E-04 +1.569598E-05 +1.010358E-04 +5.075588E-03 
 -4.038880E-05 -5.345975E-05 +8.244635E-05 -5.345975E-05 -1.544148E-05 +1.327253E-04 +8.244635E-05 +1.327253E-04 +5.007125E-03 
 -2.230268E-05 -1.219652E-04 +1.219954E-04 -1.219652E-04 -2.523892E-05 +1.377761E-04 +1.219954E-04 +1.377761E-04 +4.915747E-03 
 -5.342383E-06 -6.113712E-05 +3.295823E-04 -6.113712E-05 -1.162632E-04 +7.811969E-05 +3.295823E-04 +7.811969E-05 +4.909726E-03 
 +7.550845E-05 -3.723676E-05 +2.515790E-04 -3.723676E-05 -1.595437E-04 +1.630649E-05 +2.515790E-04 +1.630649E-05 +4.954009E-03 
 +1.436239E-04 -2.933415E-05 +8.660952E-05 -2.933415E-05 -1.545413E-04 +2.176124E-05 +8.660952E-05 +2.176124E-05 +4.953438E-03 
 +2.179238E-04 -3.284986E-05 -1.517489E-04 -3.284986E-05 -1.968330E-04 -1.133075E-05 -1.517489E-04 -1.133075E-05 +4.961958E-03 
 +2.225579E-04 +5.269115E-05 -1.495522E-04 +5.269115E-05 -2.156080E-04 -1.177477E-04 -1.495522E-04 -1.177477E-04 +4.966732E-03 
 +1.515296E-04 +6.770942E-05 -1.776876E-04 +6.770942E-05 -1.943225E-04 -2.304146E-04 -1.776876E-04 -2.304146E-04 +5.007786E-03 
 -1.351339E-04 +8.777649E-05 -1.281288E-04 +8.777649E-05 -9.651999E-05 -2.578748E-04 -1.281288E-04 -2.578748E-04 +4.986510E-03 
 -1.588104E-04 -4.813274E-05 +3.582682E-06 -4.813274E-05 +5.805273E-05 -2.447990E-04 +3.582682E-06 -2.447990E-04 +4.901939E-03 
 +3.356162E-05 -1.534139E-04 +6.330171E-05 -1.534139E-04 +1.129630E-04 -1.867010E-04 +6.330171E-05 -1.867010E-04 +4.816989E-03 
 +4.825175E-05 -1.298209E-04 +8.902542E-05 -1.298209E-04 +1.574420E-04 -7.995024E-05 +8.902542E-05 -7.995024E-05 +4.772663E-03 
 +2.627350E-05 -1.559909E-04 +1.005076E-04 -1.559909E-04 +2.290491E-04 -4.522893E-05 +1.005076E-04 -4.522893E-05 +4.747128E-03 
 +6.449104E-05 -2.185473E-04 +1.176241E-04 -2.185473E-04 +2.427067E-04 -6.928224E-05 +1.176241E-04 -6.928224E-05 +4.731032E-03 
 +5.027621E-05 -2.163560E-04 +1.325274E-04 -2.163560E-04 +2.367604E-04 -1.086626E-04 +1.325274E-04 -1.086626E-04 +4.756697E-03 
 +2.138833E-05 -1.399019E-04 +1.182535E-04 -1.399019E-04 +2.431009E-04 -1.138656E-04 +1.182535E-04 -1.138656E-04 +4.836970E-03 
 -5.702001E-05 +1.153415E-04 +1.714784E-05 +1.153415E-04 +5.184041E-05 -8.847042E-05 +1.714784E-05 -8.847042E-05 +4.877902E-03 
 +1.264242E-06 +5.695279E-05 -5.584747E-06 +5.695279E-05 -1.271152E-04 -8.481349E-05 -5.584747E-06 -8.481349E-05 +4.958682E-03 
 -5.489051E-05 +5.439863E-05 +5.663305E-05 +5.439863E-05 -1.360084E-04 -8.009688E-05 +5.663305E-05 -8.009688E-05 +4.986145E-03 
 -9.563125E-05 +4.901560E-05 +5.446217E-05 +4.901560E-05 -1.606821E-04 -6.815366E-05 +5.446217E-05 -6.815366E-05 +5.048947E-03 
 -5.036754E-05 +1.829109E-05 +1.387059E-04 +1.829109E-05 -1.521473E-04 -7.256969E-05 +1.387059E-04 -7.256969E-05 +5.080129E-03 
 -8.640907E-06 -3.172432E-05 +2.010783E-04 -3.172432E-05 -1.568276E-04 -3.401864E-05 +2.010783E-04 -3.401864E-05 +5.013446E-03 
 +3.519052E-05 -1.235756E-04 +2.295857E-04 -1.235756E-04 -1.661969E-04 +9.735111E-06 +2.295857E-04 +9.735111E-06 +4.939271E-03 
 +8.107490E-05 -5.662042E-05 +2.712653E-04 -5.662042E-05 -1.710146E-04 +1.496023E-05 +2.712653E-04 +1.496023E-05 +4.949632E-03 
 +1.579704E-04 +1.007172E-05 +2.526435E-04 +1.007172E-05 -1.673232E-04 -6.791775E-06 +2.526435E-04 -6.791775E-06 +5.004223E-03 
 +2.198347E-04 +1.961443E-05 +2.293815E-04 +1.961443E-05 -1.883640E-04 -3.522897E-06 +2.293815E-04 -3.522897E-06 +5.001850E-03 
 +1.116806E-04 +2.270800E-05 -9.226722E-05 +2.270800E-05 -2.028818E-04 -2.264273E-05 -9.226722E-05 -2.264273E-05 +4.948097E-03 
 +1.541913E-04 +3.811793E-05 -1.158399E-04 +3.811793E-05 -2.213417E-04 -8.643976E-05 -1.158399E-04 -8.643976E-05 +4.944775E-03 
 +4.333208E-05 +9.052220E-05 -1.304086E-04 +9.052220E-05 -8.106676E-05 -1.141507E-04 -1.304086E-04 -1.141507E-04 +4.987022E-03 
 -4.066183E-04 +2.460847E-04 -3.143219E-05 +2.460847E-04 +1.460770E-04 -5.652132E-05 -3.143219E-05 -5.652132E-05 +5.044722E-03 
 -3.937565E-04 +2.321270E-04 -1.956177E-05 +2.321270E-04 +1.521182E-04 -4.932253E-05 -1.956177E-05 -4.932253E-05 +5.045386E-03 
 -5.611135E-05 -2.386482E-05 +2.603804E-05 -2.386482E-05 +9.006889E-05 -1.268348E-04 +2.603804E-05 -1.268348E-04 +4.905867E-03 
 +6.309508E-05 -1.029664E-04 +6.219073E-05 -1.029664E-04 +1.602133E-04 -1.424168E-04 +6.219073E-05 -1.424168E-04 +4.796248E-03 
 +1.020359E-04 -1.830086E-04 +9.495742E-05 -1.830086E-04 +2.347401E-04 -8.787899E-05 +9.495742E-05 -8.787899E-05 +4.748523E-03 
 +8.541526E-05 -1.753601E-04 +7.436091E-05 -1.753601E-04 +2.363934E-04 -5.534224E-05 +7.436091E-05 -5.534224E-05 +4.716801E-03 
 +8.353058E-05 -1.393922E-04 +9.130219E-05 -1.393922E-04 +2.342530E-04 -6.844103E-05 +9.130219E-05 -6.844103E-05 +4.715372E-03 
 -1.551388E-05 -1.100872E-04 +5.133822E-05 -1.100872E-04 +2.417312E-04 -9.693699E-05 +5.133822E-05 -9.693699E-05 +4.775466E-03 
 +6.732614E-05 +1.237078E-04 +1.540861E-05 +1.237078E-04 -8.740304E-06 +4.019416E-06 +1.540861E-05 +4.019416E-06 +4.899119E-03 
 +8.358950E-05 +1.284193E-04 +4.995350E-05 +1.284193E-04 -1.363538E-04 -3.548949E-05 +4.995350E-05 -3.548949E-05 +4.962549E-03 
 -3.928966E-06 +1.227764E-04 +1.120925E-04 +1.227764E-04 -1.401944E-04 -8.971337E-05 +1.120925E-04 -8.971337E-05 +4.973199E-03 
 -8.116894E-05 +1.485608E-04 +9.482841E-05 +1.485608E-04 -1.207587E-04 -1.364530E-04 +9.482841E-05 -1.364530E-04 +4.988578E-03 
 -3.671912E-05 +6.985987E-05 +1.801964E-04 +6.985987E-05 -1.290065E-04 -1.429336E-04 +1.801964E-04 -1.429336E-04 +4.991564E-03 
 +5.131559E-06 -1.025936E-05 +2.291394E-04 -1.025936E-05 -1.223739E-04 -1.136843E-04 +2.291394E-04 -1.136843E-04 +4.921786E-03 
 +7.310142E-05 -1.356339E-04 +2.739348E-04 -1.356339E-04 -1.088349E-04 -1.000440E-04 +2.739348E-04 -1.000440E-04 +4.832909E-03 
 +1.601168E-04 -1.012124E-04 +2.320775E-04 -1.012124E-04 -1.252748E-04 -7.057796E-05 +2.320775E-04 -7.057796E-05 +4.812646E-03 
 +2.707712E-04 -2.589729E-05 +2.792529E-04 -2.589729E-05 -1.524970E-04 +1.148051E-05 +2.792529E-04 +1.148051E-05 +4.848157E-03 
 +3.287009E-04 +2.420182E-05 +3.301249E-04 +2.420182E-05 -7.727263E-05 +2.330182E-05 +3.301249E-04 +2.330182E-05 +4.807587E-03 
 +5.742087E-05 +8.754833E-05 +6.424768E-05 +8.754833E-05 +1.026612E-04 +5.586416E-05 +6.424768E-05 +5.586416E-05 +4.757613E-03 
 -2.761567E-05 +5.029720E-05 -3.552985E-05 +5.029720E-05 +1.318545E-04 +5.475199E-05 -3.552985E-05 +5.475199E-05 +4.823513E-03 
 -1.614197E-04 +2.231538E-04 -4.247826E-05 +2.231538E-04 +1.450396E-04 -1.692992E-05 -4.247826E-05 -1.692992E-05 +4.935667E-03 
 -3.331450E-04 +2.351759E-04 -2.347227E-05 +2.351759E-04 +1.689748E-04 -1.037744E-05 -2.347227E-05 -1.037744E-05 +5.030478E-03 
 -3.591960E-04 +2.993582E-04 -5.489443E-05 +2.993582E-04 +9.956267E-05 +1.815925E-05 -5.489443E-05 +1.815925E-05 +5.080969E-03 
 -3.026570E-04 +2.975068E-04 -3.718274E-05 +2.975068E-04 +1.459281E-04 +4.298669E-05 -3.718274E-05 +4.298669E-05 +5.053853E-03 
 -1.612846E-04 +2.353841E-04 +1.943251E-05 +2.353841E-04 +2.571660E-04 -6.834767E-06 +1.943251E-05 -6.834767E-06 +4.925964E-03 
 +1.645493E-04 -6.881695E-05 +1.173474E-04 -6.881695E-05 +2.536808E-04 -4.667165E-05 +1.173474E-04 -4.667165E-05 +4.755794E-03 
 +1.574665E-04 -8.962222E-05 +5.589640E-05 -8.962222E-05 +1.959288E-04 -6.635934E-06 +5.589640E-05 -6.635934E-06 +4.702438E-03 
 +1.289278E-04 -5.720292E-05 +6.297795E-05 -5.720292E-05 +2.080521E-04 -5.998129E-07 +6.297795E-05 -5.998129E-07 +4.740091E-03 
 -3.010698E-05 +2.474283E-05 +1.855122E-05 +2.474283E-05 +1.624466E-04 -3.283272E-06 +1.855122E-05 -3.283272E-06 +4.819948E-03 
 +6.766501E-05 +1.259054E-04 +6.794250E-05 +1.259054E-04 +6.734163E-05 -2.462542E-06 +6.794250E-05 -2.462542E-06 +4.964072E-03 
 +5.686501E-05 +1.346023E-04 +1.241302E-04 +1.346023E-04 -4.001416E-05 -1.047325E-05 +1.241302E-04 -1.047325E-05 +4.966294E-03 
 -8.336479E-07 +1.012809E-04 +1.130999E-04 +1.012809E-04 -1.023536E-04 -8.872075E-05 +1.130999E-04 -8.872075E-05 +5.009814E-03 
 -8.262037E-05 +6.809638E-05 +1.251325E-04 +6.809638E-05 -9.195884E-05 -1.716879E-04 +1.251325E-04 -1.716879E-04 +5.061516E-03 
 -1.039985E-04 -9.326763E-06 +1.657437E-04 -9.326763E-06 -4.772673E-05 -2.246299E-04 +1.657437E-04 -2.246299E-04 +5.035424E-03 
 +5.948373E-07 -1.180611E-04 +2.549782E-04 -1.180611E-04 -3.466682E-05 -2.210809E-04 +2.549782E-04 -2.210809E-04 +4.881458E-03 
 +1.070179E-04 -1.924399E-04 +2.450717E-04 -1.924399E-04 +8.393315E-06 -2.101709E-04 +2.450717E-04 -2.101709E-04 +4.718754E-03 
 +2.495236E-04 -1.378856E-04 +2.440716E-04 -1.378856E-04 +1.329299E-04 -1.966799E-04 +2.440716E-04 -1.966799E-04 +4.656432E-03 
 +3.185722E-04 -1.202489E-04 +2.435319E-04 -1.202489E-04 +1.957504E-04 -1.178127E-04 +2.435319E-04 -1.178127E-04 +4.595029E-03 
 +3.050449E-04 -9.345103E-05 +2.163751E-04 -9.345103E-05 +2.669378E-04 -7.669941E-05 +2.163751E-04 -7.669941E-05 +4.470666E-03 
 +2.037972E-04 -8.337366E-05 +1.238987E-04 -8.337366E-05 +3.000736E-04 -5.197538E-05 +1.238987E-04 -5.197538E-05 +4.457621E-03 
 -1.010657E-04 -8.269952E-05 -2.573071E-05 -8.269952E-05 +2.460320E-04 -4.782668E-05 -2.573071E-05 -4.782668E-05 +4.666094E-03 
 -3.114967E-04 +2.876993E-04 -6.532797E-05 +2.876993E-04 +1.998335E-04 +4.064898E-07 -6.532797E-05 +4.064898E-07 +4.907513E-03 
 -2.634631E-04 +2.821095E-04 -5.458037E-05 +2.821095E-04 +1.451466E-04 +5.316645E-05 -5.458037E-05 +5.316645E-05 +5.009359E-03 
 -2.775450E-04 +2.872548E-04 -6.644131E-05 +2.872548E-04 +1.201531E-04 -6.238633E-07 -6.644131E-05 -6.238633E-07 +5.039257E-03 
 -3.483391E-04 +2.743238E-04 -5.490601E-05 +2.743238E-04 +1.647034E-04 +7.316850E-07 -5.490601E-05 +7.316850E-07 +5.105653E-03 
 -3.571158E-04 +3.303259E-04 +5.149144E-06 +3.303259E-04 +2.263807E-04 +3.357201E-05 +5.149144E-06 +3.357201E-05 +5.055034E-03 
 +1.071109E-04 +3.955564E-05 +1.513873E-04 +3.955564E-05 +2.239808E-04 +4.970819E-05 +1.513873E-04 +4.970819E-05 +4.865213E-03 
 +1.466827E-04 +9.265913E-06 +6.171598E-05 +9.265913E-06 +1.998969E-04 +4.533667E-05 +6.171598E-05 +4.533667E-05 +4.787114E-03 
 +1.522860E-04 -3.530996E-06 +6.245241E-05 -3.530996E-06 +1.740042E-04 -5.333056E-06 +6.245241E-05 -5.333056E-06 +4.830700E-03 
 +1.311122E-04 +3.423410E-05 +9.014420E-05 +3.423410E-05 +1.244960E-04 -2.323579E-05 +9.014420E-05 -2.323579E-05 +4.912710E-03 
 +8.996848E-05 +5.283054E-05 +1.196714E-04 +5.283054E-05 +4.978699E-05 -7.683344E-07 +1.196714E-04 -7.683344E-07 +5.023978E-03 
 -5.775114E-05 +4.618333E-05 +1.297614E-04 +4.618333E-05 +5.228717E-05 +4.229291E-05 +1.297614E-04 +4.229291E-05 +5.005762E-03 
 -9.489781E-05 +3.885504E-05 +1.104192E-04 +3.885504E-05 +6.576939E-05 -5.239031E-05 +1.104192E-04 -5.239031E-05 +5.028072E-03 
 -1.210033E-04 -9.419619E-06 +1.932387E-04 -9.419619E-06 +7.791686E-05 -1.127758E-04 +1.932387E-04 -1.127758E-04 +5.074339E-03 
 -2.011837E-04 -8.717640E-05 +1.922150E-04 -8.717640E-05 +1.046631E-04 -1.477082E-04 +1.922150E-04 -1.477082E-04 +5.023570E-03 
 +6.261904E-05 -1.699493E-04 +3.008233E-04 -1.699493E-04 +2.056137E-04 -2.046209E-04 +3.008233E-04 -2.046209E-04 +4.739984E-03 
 +2.637838E-04 -1.741543E-04 +1.979889E-04 -1.741543E-04 +2.506871E-04 -2.367180E-04 +1.979889E-04 -2.367180E-04 +4.517039E-03 
 +3.106066E-04 -1.279378E-04 +1.731925E-04 -1.279378E-04 +1.449590E-04 -2.585313E-04 +1.731925E-04 -2.585313E-04 +4.577680E-03 
 +2.692150E-04 -9.733785E-05 +1.384437E-04 -9.733785E-05 +1.385364E-04 -2.324616E-04 +1.384437E-04 -2.324616E-04 +4.525713E-03 
 +2.320216E-04 -3.090848E-05 +8.884597E-05 -3.090848E-05 +2.282203E-04 -7.983781E-05 +8.884597E-05 -7.983781E-05 +4.373414E-03 
 +2.416177E-04 -1.279926E-04 +5.675422E-05 -1.279926E-04 +3.056528E-04 +2.975150E-05 +5.675422E-05 +2.975150E-05 +4.339279E-03 
 +9.292507E-05 -1.846866E-04 -1.056300E-05 -1.846866E-04 +3.475717E-04 -2.430700E-05 -1.056300E-05 -2.430700E-05 +4.527057E-03 
 -3.787223E-04 +1.749328E-04 -8.482481E-05 +1.749328E-04 +2.153840E-04 -2.330000E-05 -8.482481E-05 -2.330000E-05 +4.847454E-03 
 -2.187986E-04 +2.046482E-04 -8.130906E-05 +2.046482E-04 +9.029339E-05 +1.652396E-05 -8.130906E-05 +1.652396E-05 +4.998625E-03 
 -3.498865E-04 +2.744600E-04 -7.200738E-05 +2.744600E-04 +1.670413E-04 -2.739597E-05 -7.200738E-05 -2.739597E-05 +5.040069E-03 
 -3.834820E-04 +2.096265E-04 -4.169784E-05 +2.096265E-04 +1.965735E-04 -4.598435E-05 -4.169784E-05 -4.598435E-05 +5.132704E-03 
 -3.105128E-04 +2.698865E-04 +1.267731E-05 +2.698865E-04 +1.365027E-04 -4.583807E-05 +1.267731E-05 -4.583807E-05 +5.156749E-03 
 -6.024970E-06 -4.000819E-05 +1.167402E-04 -4.000819E-05 +1.130632E-04 -4.235454E-05 +1.167402E-04 -4.235454E-05 +5.066049E-03 
 +1.245314E-04 +1.054283E-05 +9.319445E-05 +1.054283E-05 +1.989017E-04 -2.853513E-05 +9.319445E-05 -2.853513E-05 +4.977716E-03 
 +2.199406E-04 -6.073430E-05 +1.015244E-04 -6.073430E-05 +1.878658E-04 -4.578570E-05 +1.015244E-04 -4.578570E-05 +4.941874E-03 
 +2.148867E-04 +1.956726E-05 +1.413930E-04 +1.956726E-05 +7.139262E-05 -7.230643E-05 +1.413930E-04 -7.230643E-05 +4.967095E-03 
 +1.098646E-04 +5.938647E-05 +1.110485E-04 +5.938647E-05 +4.662171E-05 -4.484502E-05 +1.110485E-04 -4.484502E-05 +5.035347E-03 
 -1.588245E-04 +8.087596E-05 +1.350378E-04 +8.087596E-05 +7.484024E-05 -3.834901E-05 +1.350378E-04 -3.834901E-05 +5.098452E-03 
 -1.934128E-04 +7.956559E-05 +1.933059E-04 +7.956559E-05 +1.056446E-04 -1.166728E-04 +1.933059E-04 -1.166728E-04 +5.042706E-03 
 -1.970273E-04 +3.071307E-05 +2.752698E-04 +3.071307E-05 +1.322509E-04 -1.547624E-04 +2.752698E-04 -1.547624E-04 +4.983518E-03 
 -1.224371E-04 +3.580789E-05 +1.975033E-04 +3.580789E-05 +1.334885E-04 -1.151140E-04 +1.975033E-04 -1.151140E-04 +4.893326E-03 
 +1.907291E-04 +7.528166E-05 +1.800102E-04 +7.528166E-05 +9.862389E-05 -1.819864E-04 +1.800102E-04 -1.819864E-04 +4.643919E-03 
 +3.890730E-04 -4.123727E-05 +1.097685E-04 -4.123727E-05 +8.100051E-05 -2.637720E-04 +1.097685E-04 -2.637720E-04 +4.458320E-03 
 +2.894671E-04 -6.624027E-05 +4.846897E-05 -6.624027E-05 +1.191484E-04 -2.552770E-04 +4.846897E-05 -2.552770E-04 +4.533350E-03 
 +1.979691E-04 +4.205304E-06 +7.776197E-05 +4.205304E-06 +1.844442E-04 -2.217735E-04 +7.776197E-05 -2.217735E-04 +4.504990E-03 
 +1.712263E-04 +6.832888E-06 +8.130436E-05 +6.832888E-06 +2.201982E-04 -1.101928E-04 +8.130436E-05 -1.101928E-04 +4.413254E-03 
 +1.623092E-04 -4.498816E-05 +6.686774E-05 -4.498816E-05 +2.608967E-04 +6.750384E-05 +6.686774E-05 +6.750384E-05 +4.399371E-03 
 +1.780271E-04 -2.107589E-04 +2.679833E-05 -2.107589E-04 +3.338864E-04 +1.025712E-04 +2.679833E-05 +1.025712E-04 +4.497743E-03 
 -2.941631E-04 -1.141996E-05 -6.128075E-05 -1.141996E-05 +2.553316E-04 -2.650540E-05 -6.128075E-05 -2.650540E-05 +4.770822E-03 
 -2.959646E-04 +2.071583E-04 -9.087716E-05 +2.071583E-04 +2.044486E-04 -2.992039E-05 -9.087716E-05 -2.992039E-05 +5.002301E-03 
 -2.848080E-04 +2.695859E-04 -8.877601E-05 +2.695859E-04 +2.374822E-04 -6.201149E-06 -8.877601E-05 -6.201149E-06 +5.110231E-03 
 -3.053801E-04 +2.439423E-04 -1.107163E-05 +2.439423E-04 +1.181853E-04 -5.512552E-05 -1.107163E-05 -5.512552E-05 +5.189463E-03 
 -2.248963E-04 +4.094599E-04 +4.350509E-05 +4.094599E-04 -4.822537E-05 -6.045461E-05 +4.350509E-05 -6.045461E-05 +5.247426E-03 
 -6.672584E-05 +2.186263E-04 +1.015703E-04 +2.186263E-04 -4.865501E-05 -6.554895E-05 +1.015703E-04 -6.554895E-05 +5.236411E-03 
 +4.394852E-06 +2.792963E-04 +1.287052E-04 +2.792963E-04 +8.981765E-05 -1.148327E-05 +1.287052E-04 -1.148327E-05 +5.139919E-03 
 +2.354911E-04 -7.265165E-05 +8.115531E-05 -7.265165E-05 +1.230801E-04 -5.534957E-06 +8.115531E-05 -5.534957E-06 +4.992606E-03 
 +2.150139E-04 -2.946263E-06 +8.884424E-05 -2.946263E-06 +6.234420E-05 -6.598384E-05 +8.884424E-05 -6.598384E-05 +4.920798E-03 
 +3.327940E-05 +1.533883E-04 +3.562073E-05 +1.533883E-04 +1.147229E-04 -1.490302E-04 +3.562073E-05 -1.490302E-04 +5.039340E-03 
 -2.869066E-04 +1.319408E-04 +1.577684E-04 +1.319408E-04 +1.032929E-04 -1.936716E-04 +1.577684E-04 -1.936716E-04 +5.193679E-03 
 -3.310201E-04 +4.780209E-05 +2.680206E-04 +4.780209E-05 +8.207282E-05 -1.660259E-04 +2.680206E-04 -1.660259E-04 +5.092757E-03 
 -1.178725E-04 +6.633938E-05 +2.471316E-04 +6.633938E-05 +5.928985E-07 -1.356554E-04 +2.471316E-04 -1.356554E-04 +4.963006E-03 
 +1.004785E-04 +1.477068E-04 +7.508571E-05 +1.477068E-04 -8.358962E-06 -7.810344E-05 +7.508571E-05 -7.810344E-05 +4.858989E-03 
 +2.047760E-04 +1.172169E-04 +4.339626E-05 +1.172169E-04 +7.391141E-05 -1.250135E-04 +4.339626E-05 -1.250135E-04 +4.675312E-03 
 +4.125000E-04 -5.599043E-05 +1.022507E-04 -5.599043E-05 +1.300583E-04 -2.117987E-04 +1.022507E-04 -2.117987E-04 +4.548456E-03 
 +2.691200E-04 -3.811612E-05 +3.289939E-05 -3.811612E-05 +1.478278E-04 -2.283000E-04 +3.289939E-05 -2.283000E-04 +4.550341E-03 
 +1.235169E-04 +6.298693E-05 +4.593444E-05 +6.298693E-05 +1.996714E-04 -1.855910E-04 +4.593444E-05 -1.855910E-04 +4.490891E-03 
 +1.084482E-04 +6.853904E-05 +6.455110E-05 +6.853904E-05 +2.415018E-04 -8.244695E-05 +6.455110E-05 -8.244695E-05 +4.434102E-03 
 +6.862099E-05 +1.671568E-05 +7.030429E-05 +1.671568E-05 +2.761644E-04 +5.318261E-05 +7.030429E-05 +5.318261E-05 +4.480645E-03 
 +7.112718E-05 -1.601318E-04 +1.222076E-05 -1.601318E-04 +3.547644E-04 +1.046623E-04 +1.222076E-05 +1.046623E-04 +4.574256E-03 
 -1.731178E-04 -1.812683E-04 -6.655571E-05 -1.812683E-04 +2.707264E-04 -1.712734E-05 -6.655571E-05 -1.712734E-05 +4.718611E-03 
 -3.302454E-04 +1.546245E-04 -7.162701E-05 +1.546245E-04 +5.131031E-05 +5.353460E-06 -7.162701E-05 +5.353460E-06 +4.999763E-03 
 -1.544010E-04 +1.983775E-04 -8.838618E-05 +1.983775E-04 -1.650016E-04 +7.711177E-05 -8.838618E-05 +7.711177E-05 +5.193476E-03 
 -4.943912E-05 +2.313611E-04 +1.419703E-05 +2.313611E-04 -2.372814E-04 -4.070932E-06 +1.419703E-05 -4.070932E-06 +5.225300E-03 
 -1.176161E-04 +3.981853E-04 +7.914498E-05 +3.981853E-04 -1.595002E-04 -1.675080E-05 +7.914498E-05 -1.675080E-05 +5.266821E-03 
 -1.627482E-04 +2.777378E-04 +1.025496E-04 +2.777378E-04 -4.401175E-05 -5.594738E-05 +1.025496E-04 -5.594738E-05 +5.319461E-03 
 -1.459993E-04 +2.851268E-04 +1.344925E-04 +2.851268E-04 +5.626417E-05 -2.631635E-06 +1.344925E-04 -2.631635E-06 +5.241921E-03 
 +2.461963E-04 +2.816577E-05 +9.969349E-06 +2.816577E-05 +1.069890E-04 +6.812557E-05 +9.969349E-06 +6.812557E-05 +4.955651E-03 
 +2.314888E-04 +1.354879E-04 -1.840677E-05 +1.354879E-04 +1.573719E-04 -3.439580E-05 -1.840677E-05 -3.439580E-05 +4.818978E-03 
 -2.686475E-04 +3.376614E-05 +6.539303E-05 +3.376614E-05 +1.167455E-04 -9.376773E-05 +6.539303E-05 -9.376773E-05 +5.204355E-03 
 -2.732969E-04 +9.914753E-05 +1.525058E-04 +9.914753E-05 +1.592412E-04 -1.375304E-04 +1.525058E-04 -1.375304E-04 +5.312565E-03 
 -2.233936E-04 +1.400973E-04 +2.510378E-04 +1.400973E-04 +8.764052E-05 -6.688334E-05 +2.510378E-04 -6.688334E-05 +5.197241E-03 
 -3.880622E-05 +2.463542E-04 +1.823107E-04 +2.463542E-04 -9.669848E-05 -1.585769E-05 +1.823107E-04 -1.585769E-05 +5.039473E-03 
 +1.485006E-04 +2.727898E-04 +6.243869E-05 +2.727898E-04 -1.180736E-04 -2.968817E-05 +6.243869E-05 -2.968817E-05 +4.933246E-03 
 +2.184057E-04 +2.193672E-04 +1.412991E-04 +2.193672E-04 -7.878361E-05 -6.632682E-05 +1.412991E-04 -6.632682E-05 +4.701442E-03 
 +3.449724E-04 +6.409371E-05 +2.292402E-04 +6.409371E-05 -1.004312E-06 -1.571373E-04 +2.292402E-04 -1.571373E-04 +4.473959E-03 
 +2.522100E-04 +2.894145E-05 +9.386089E-05 +2.894145E-05 +1.788172E-04 -1.757492E-04 +9.386089E-05 -1.757492E-04 +4.502462E-03 
 +1.333255E-04 +9.302071E-05 +3.673961E-05 +9.302071E-05 +2.300672E-04 -1.084381E-04 +3.673961E-05 -1.084381E-04 +4.512443E-03 
 +6.016706E-05 +1.605909E-04 +5.415066E-05 +1.605909E-04 +2.616933E-04 -6.524446E-06 +5.415066E-05 -6.524446E-06 +4.459065E-03 
 -1.489125E-05 +1.273118E-04 +4.003700E-05 +1.273118E-04 +3.463563E-04 +1.066641E-04 +4.003700E-05 +1.066641E-04 +4.530407E-03 
 -2.619326E-05 -1.812049E-05 -7.496976E-05 -1.812049E-05 +3.442293E-04 +1.634263E-04 -7.496976E-05 +1.634263E-04 +4.576263E-03 
 -1.748955E-04 -1.662838E-04 -1.143674E-04 -1.662838E-04 +2.579991E-04 +1.219346E-04 -1.143674E-04 +1.219346E-04 +4.658894E-03 
 -3.043345E-04 +1.283774E-04 -6.711876E-05 +1.283774E-04 +4.769499E-05 +9.686328E-05 -6.711876E-05 +9.686328E-05 +4.995490E-03 
 -1.650531E-04 +1.009225E-04 -7.577262E-05 +1.009225E-04 -1.368002E-04 +9.435754E-05 -7.577262E-05 +9.435754E-05 +5.211373E-03 
 -2.490077E-07 +6.334813E-05 +6.007009E-06 +6.334813E-05 -2.321983E-04 +3.210009E-05 +6.007009E-06 +3.210009E-05 +5.209911E-03 
 +4.028236E-05 +1.572515E-04 +8.836388E-05 +1.572515E-04 -2.439088E-04 +3.124462E-05 +8.836388E-05 +3.124462E-05 +5.252766E-03 
 -1.328232E-04 +2.303054E-04 +5.863650E-05 +2.303054E-04 -1.329173E-04 -3.840434E-05 +5.863650E-05 -3.840434E-05 +5.347148E-03 
 -1.149143E-04 +2.888213E-04 +1.089787E-04 +2.888213E-04 -9.091665E-05 -8.806192E-05 +1.089787E-04 -8.806192E-05 +5.347251E-03 
 +2.599282E-04 +9.564857E-05 +4.436119E-05 +9.564857E-05 -2.328299E-05 -4.973843E-05 +4.436119E-05 -4.973843E-05 +5.103076E-03 
 +2.798634E-04 +9.230379E-05 -5.157930E-06 +9.230379E-05 +9.090004E-05 -6.115430E-05 -5.157930E-06 -6.115430E-05 +4.997437E-03 
 -3.277635E-04 -2.001199E-05 +9.912377E-05 -2.001199E-05 -2.694118E-05 +5.613619E-05 +9.912377E-05 +5.613619E-05 +5.266040E-03 
 -1.783036E-04 +1.575448E-06 +1.267667E-04 +1.575448E-06 +2.468225E-05 +2.159755E-05 +1.267667E-04 +2.159755E-05 +5.261620E-03 
 -1.877734E-05 +1.787156E-05 +2.601066E-04 +1.787156E-05 +9.882672E-05 +4.443075E-05 +2.601066E-04 +4.443075E-05 +5.191877E-03 
 +1.757752E-05 +1.588562E-06 +2.383225E-04 +1.588562E-06 +3.372923E-04 +2.840398E-05 +2.383225E-04 +2.840398E-05 +5.026733E-03 
 +2.645240E-04 +1.418509E-04 +1.262077E-04 +1.418509E-04 +1.059257E-04 -5.053367E-05 +1.262077E-04 -5.053367E-05 +4.944976E-03 
 +2.355409E-04 +2.196370E-04 +1.111684E-04 +2.196370E-04 -1.204945E-04 -6.330743E-05 +1.111684E-04 -6.330743E-05 +4.769777E-03 
 +2.256604E-04 +1.294357E-04 +1.629731E-04 +1.294357E-04 -3.830577E-05 -1.123030E-04 +1.629731E-04 -1.123030E-04 +4.495806E-03 
 +2.360730E-04 +1.295294E-04 +9.225302E-05 +1.295294E-04 +1.078502E-04 -1.760713E-04 +9.225302E-05 -1.760713E-04 +4.513934E-03 
 +1.438827E-04 +1.066086E-04 +3.176749E-05 +1.066086E-04 +2.428260E-04 -1.197215E-04 +3.176749E-05 -1.197215E-04 +4.592908E-03 
 +3.813568E-05 +1.984888E-04 +4.809164E-05 +1.984888E-04 +3.230004E-04 -8.657048E-06 +4.809164E-05 -8.657048E-06 +4.569942E-03 
 +6.032208E-06 +1.738466E-04 +3.060463E-05 +1.738466E-04 +3.735741E-04 +8.853849E-05 +3.060463E-05 +8.853849E-05 +4.642986E-03 
 -9.392020E-05 -1.435371E-05 -8.968327E-05 -1.435371E-05 +3.208076E-04 +1.394660E-04 -8.968327E-05 +1.394660E-04 +4.628537E-03 
 -2.564693E-04 -1.438287E-04 -1.176132E-04 -1.438287E-04 +2.756432E-04 +1.397460E-04 -1.176132E-04 +1.397460E-04 +4.692876E-03 
 -4.373518E-04 -6.461519E-05 -5.056153E-05 -6.461519E-05 +1.725562E-04 +1.247708E-04 -5.056153E-05 +1.247708E-04 +5.007286E-03 
 -2.399916E-04 -1.938998E-05 -1.484116E-05 -1.938998E-05 -3.376661E-05 +1.101945E-04 -1.484116E-05 +1.101945E-04 +5.179888E-03 
 -1.200979E-04 -1.329208E-05 +4.332584E-05 -1.329208E-05 -1.566593E-04 +5.931490E-05 +4.332584E-05 +5.931490E-05 +5.178384E-03 
 +1.729721E-05 +5.443066E-05 +1.029592E-04 +5.443066E-05 -2.656770E-04 +3.765881E-05 +1.029592E-04 +3.765881E-05 +5.228671E-03 
 +6.073295E-05 -4.829600E-05 +8.215339E-06 -4.829600E-05 -4.533346E-04 -1.980654E-05 +8.215339E-06 -1.980654E-05 +5.305091E-03 
 +7.683215E-05 +2.081720E-05 +2.087031E-05 +2.081720E-05 -6.358398E-04 -6.658234E-05 +2.087031E-05 -6.658234E-05 +5.395372E-03 
 +2.034745E-04 -4.487166E-05 +9.585187E-05 -4.487166E-05 -7.287587E-04 -1.603878E-05 +9.585187E-05 -1.603878E-05 +5.375543E-03 
 +1.470034E-04 -5.643395E-06 +7.144953E-05 -5.643395E-06 -5.071993E-04 +5.212687E-05 +7.144953E-05 +5.212687E-05 +5.291690E-03 
 -9.918929E-05 +2.348940E-04 +4.572336E-05 +2.348940E-04 -1.556168E-04 +1.372224E-04 +4.572336E-05 +1.372224E-04 +5.231905E-03 
 -1.156371E-04 +2.493878E-06 +9.347976E-05 +2.493878E-06 -9.235884E-05 +1.790700E-04 +9.347976E-05 +1.790700E-04 +5.133052E-03 
 +6.274636E-05 +3.160048E-04 +1.907723E-04 +3.160048E-04 -1.103353E-04 +1.219120E-04 +1.907723E-04 +1.219120E-04 +5.086086E-03 
 +1.419403E-04 +3.040277E-04 +1.282255E-04 +3.040277E-04 +1.748650E-04 +9.683355E-05 +1.282255E-04 +9.683355E-05 +4.999015E-03 
 +1.454599E-04 -9.754506E-05 +1.635185E-05 -9.754506E-05 +3.664947E-04 +2.364067E-05 +1.635185E-05 +2.364067E-05 +4.935392E-03 
 +1.062052E-04 -1.448560E-04 -6.146734E-06 -1.448560E-04 +1.924278E-04 -2.423750E-05 -6.146734E-06 -2.423750E-05 +4.882666E-03 
 +1.354445E-04 -2.091874E-04 +4.494389E-05 -2.091874E-04 +5.583013E-05 -3.278240E-05 +4.494389E-05 -3.278240E-05 +4.789729E-03 
 +1.663113E-04 -2.553955E-04 +7.564705E-05 -2.553955E-04 -8.936653E-06 -1.292628E-04 +7.564705E-05 -1.292628E-04 +4.776546E-03 
 +8.915126E-05 -2.935073E-04 +3.980497E-05 -2.935073E-04 -5.842985E-06 -1.643305E-04 +3.980497E-05 -1.643305E-04 +4.800958E-03 
 +1.018178E-04 -2.401524E-04 +1.590918E-05 -2.401524E-04 -8.054000E-06 -1.138521E-04 +1.590918E-05 -1.138521E-04 +4.804040E-03 
 +7.076351E-05 -2.052396E-04 -9.471189E-06 -2.052396E-04 -4.620368E-05 -4.844644E-05 -9.471189E-06 -4.844644E-05 +4.848656E-03 
 +2.279100E-05 -3.166148E-04 -1.991529E-05 -3.166148E-04 +5.581922E-05 +5.032468E-05 -1.991529E-05 +5.032468E-05 +4.857623E-03 
 -2.951685E-04 -2.235814E-04 -2.285890E-05 -2.235814E-04 +3.217257E-04 +1.236364E-04 -2.285890E-05 +1.236364E-04 +4.897107E-03 
 -4.332354E-04 -1.716605E-04 +5.104559E-05 -1.716605E-04 +4.169747E-04 +1.321019E-04 +5.104559E-05 +1.321019E-04 +5.023216E-03 
 -3.077206E-04 -6.747538E-05 +1.125839E-04 -6.747538E-05 +1.463561E-04 +1.230633E-04 +1.125839E-04 +1.230633E-04 +5.100293E-03 
 -1.898082E-04 +1.522851E-05 +1.359259E-04 +1.522851E-05 -7.811023E-05 +9.611126E-05 +1.359259E-04 +9.611126E-05 +5.135581E-03 
 -1.534350E-04 +3.621494E-05 +1.354056E-04 +3.621494E-05 -2.789699E-04 +6.399969E-05 +1.354056E-04 +6.399969E-05 +5.201711E-03 
 +1.573560E-04 -4.745373E-05 -1.344124E-05 -4.745373E-05 -5.621975E-04 -3.717886E-05 -1.344124E-05 -3.717886E-05 +5.247049E-03 
 +2.140923E-04 -5.793835E-06 -3.298329E-06 -5.793835E-06 -7.378531E-04 -9.013855E-05 -3.298329E-06 -9.013855E-05 +5.331302E-03 
 +1.748483E-04 -5.142197E-05 +8.766484E-05 -5.142197E-05 -6.788583E-04 -4.620997E-05 +8.766484E-05 -4.620997E-05 +5.390386E-03 
 +5.235269E-06 +2.404972E-04 +5.129106E-05 +2.404972E-04 -4.020048E-04 +2.926077E-05 +5.129106E-05 +2.926077E-05 +5.339978E-03 
 -4.416896E-05 +2.493058E-04 +1.105180E-05 +2.493058E-04 -1.840789E-04 +1.738052E-04 +1.105180E-05 +1.738052E-04 +5.263794E-03 
 -2.444564E-05 -1.131989E-04 +1.309132E-05 -1.131989E-04 -7.304394E-05 +1.770017E-04 +1.309132E-05 +1.770017E-04 +5.152753E-03 
 +1.556937E-04 +1.384383E-04 +1.240576E-05 +1.384383E-04 -1.457688E-05 +7.419958E-05 +1.240576E-05 +7.419958E-05 +5.073862E-03 
 +1.794188E-04 +2.747967E-04 -5.658750E-05 +2.747967E-04 +8.459442E-05 +1.188641E-04 -5.658750E-05 +1.188641E-04 +5.041531E-03 
 -7.758197E-05 -1.533258E-04 -5.901755E-05 -1.533258E-04 +2.756247E-04 +8.204428E-05 -5.901755E-05 +8.204428E-05 +4.993329E-03 
 -8.648556E-05 -1.466546E-04 -1.579997E-05 -1.466546E-04 +2.723118E-04 -2.274058E-05 -1.579997E-05 -2.274058E-05 +4.954821E-03 
 +2.362248E-05 -1.744995E-04 +3.529075E-05 -1.744995E-04 +1.202635E-04 -2.099873E-05 +3.529075E-05 -2.099873E-05 +4.955150E-03 
 +4.012361E-05 -1.817232E-04 +8.743194E-05 -1.817232E-04 +3.375346E-05 -8.109230E-05 +8.743194E-05 -8.109230E-05 +4.970085E-03 
 +3.557131E-05 -1.882432E-04 +6.462346E-05 -1.882432E-04 -2.589427E-05 -1.376815E-04 +6.462346E-05 -1.376815E-04 +4.973008E-03 
 +9.811847E-05 -2.052293E-04 +1.058736E-06 -2.052293E-04 -8.359771E-05 -1.478538E-04 +1.058736E-06 -1.478538E-04 +4.976496E-03 
 +1.136466E-04 -2.245056E-04 -5.936765E-05 -2.245056E-04 -9.125121E-05 -8.173515E-05 -5.936765E-05 -8.173515E-05 +4.988794E-03 
 +1.687095E-04 -3.267266E-04 -5.045147E-05 -3.267266E-04 -1.127074E-05 +5.009583E-05 -5.045147E-05 +5.009583E-05 +4.999527E-03 
 -9.918190E-05 -1.955341E-04 -1.425290E-05 -1.955341E-04 +1.555125E-04 +1.122560E-04 -1.425290E-05 +1.122560E-04 +5.009002E-03 
 -2.155792E-04 -2.104501E-04 +8.490535E-05 -2.104501E-04 +3.425933E-04 +9.726513E-05 +8.490535E-05 +9.726513E-05 +5.027613E-03 
 -2.761414E-04 -1.958406E-04 +1.579590E-04 -1.958406E-04 +3.542297E-04 +8.351062E-05 +1.579590E-04 +8.351062E-05 +5.038562E-03 
 -1.379593E-04 +6.215151E-05 +2.096564E-04 +6.215151E-05 +9.887286E-05 +6.603519E-05 +2.096564E-04 +6.603519E-05 +5.072369E-03 
 -1.528048E-04 +1.133550E-04 +2.333548E-04 +1.133550E-04 -2.606199E-04 +6.008376E-05 +2.333548E-04 +6.008376E-05 +5.178628E-03 
 -8.290513E-06 +2.691302E-05 +9.199412E-05 +2.691302E-05 -5.792234E-04 -2.203241E-05 +9.199412E-05 -2.203241E-05 +5.238861E-03 
 +1.841174E-04 +5.644686E-05 +3.948270E-05 +5.644686E-05 -6.443661E-04 -1.204059E-04 +3.948270E-05 -1.204059E-04 +5.238051E-03 
 +1.363814E-04 +1.471563E-04 +2.431031E-05 +1.471563E-04 -4.281692E-04 -1.080861E-04 +2.431031E-05 -1.080861E-04 +5.262661E-03 
 -1.279551E-05 +3.532356E-04 +8.350144E-06 +3.532356E-04 -2.525734E-04 +2.060806E-05 +8.350144E-06 +2.060806E-05 +5.288761E-03 
 -2.207581E-05 +3.576352E-04 +1.148933E-05 +3.576352E-04 -2.513328E-04 +1.406331E-04 +1.148933E-05 +1.406331E-04 +5.254091E-03 
 -2.587866E-06 +7.331969E-05 -1.700920E-05 +7.331969E-05 -1.650940E-04 +1.189245E-04 -1.700920E-05 +1.189245E-04 +5.217825E-03 
 +7.819800E-05 +2.032732E-04 -6.014707E-05 +2.032732E-04 -2.164185E-05 +6.438006E-05 -6.014707E-05 +6.438006E-05 +5.125394E-03 
 +8.992228E-05 +2.566880E-04 -9.970797E-05 +2.566880E-04 +3.809035E-05 +1.752239E-04 -9.970797E-05 +1.752239E-04 +5.068050E-03 
 -8.745251E-05 -2.708785E-04 -1.073732E-04 -2.708785E-04 +9.789060E-05 +9.531204E-05 -1.073732E-04 +9.531204E-05 +5.039329E-03 
 +4.216259E-06 -2.438918E-04 -7.268901E-05 -2.438918E-04 +2.260054E-04 -3.231458E-05 -7.268901E-05 -3.231458E-05 +4.997688E-03 
 -9.022345E-05 -2.061402E-04 +1.229587E-05 -2.061402E-04 +1.890292E-04 -3.481756E-05 +1.229587E-05 -3.481756E-05 +4.986573E-03 
 -8.840633E-05 -1.497430E-04 +7.911067E-05 -1.497430E-04 +8.168991E-05 -8.774192E-05 +7.911067E-05 -8.774192E-05 +5.007695E-03 
 -4.235078E-05 -2.082816E-04 +7.944116E-05 -2.082816E-04 +4.813680E-05 -1.039690E-04 +7.944116E-05 -1.039690E-04 +5.031656E-03 
 -1.285996E-05 -2.093547E-04 +1.190797E-05 -2.093547E-04 +2.461389E-05 -1.122759E-04 +1.190797E-05 -1.122759E-04 +5.034204E-03 
 +8.107229E-05 -2.583545E-04 -5.093007E-05 -2.583545E-04 -2.535993E-05 -5.696024E-05 -5.093007E-05 -5.696024E-05 +5.039156E-03 
 +1.322966E-04 -3.685153E-04 -7.514060E-05 -3.685153E-04 -1.158042E-04 +4.958453E-05 -7.514060E-05 +4.958453E-05 +5.064376E-03 
 +1.108773E-04 -2.890672E-04 -3.835537E-05 -2.890672E-04 -1.426050E-04 +6.150132E-05 -3.835537E-05 +6.150132E-05 +5.073474E-03 
 +7.833239E-06 -3.332432E-04 +3.621027E-05 -3.332432E-04 -1.102461E-04 +1.474096E-05 +3.621027E-05 +1.474096E-05 +5.078966E-03 
 -6.824033E-05 -3.255884E-04 +1.128030E-04 -3.255884E-04 +5.193546E-05 -8.319373E-06 +1.128030E-04 -8.319373E-06 +5.053449E-03 
 -2.145475E-05 -2.877335E-04 +1.810126E-04 -2.877335E-04 -3.933309E-06 -5.774758E-05 +1.810126E-04 -5.774758E-05 +5.033171E-03 
 -5.624888E-05 -1.905381E-04 +2.574842E-04 -1.905381E-04 -2.140525E-04 +8.219967E-06 +2.574842E-04 +8.219967E-06 +5.109233E-03 
 -1.925097E-04 -1.084798E-04 +1.754584E-04 -1.084798E-04 -1.777992E-04 +2.922306E-05 +1.754584E-04 +2.922306E-05 +5.156793E-03 
 +6.624787E-05 +3.252544E-06 +4.687600E-05 +3.252544E-06 -2.554933E-04 -1.205264E-04 +4.687600E-05 -1.205264E-04 +5.134903E-03 
 +1.329598E-04 +1.869080E-04 -5.009907E-05 +1.869080E-04 -3.724043E-04 -1.426149E-04 -5.009907E-05 -1.426149E-04 +5.184757E-03 
 -1.932986E-05 +4.063788E-04 -1.053732E-05 +4.063788E-04 -3.060733E-04 -6.256024E-06 -1.053732E-05 -6.256024E-06 +5.244962E-03 
 +2.747037E-05 +2.459889E-04 -2.520903E-05 +2.459889E-04 -1.986394E-04 +9.340762E-05 -2.520903E-05 +9.340762E-05 +5.185423E-03 
 +9.388478E-06 +3.281875E-05 -3.571789E-06 +3.281875E-05 -1.221407E-04 +6.520996E-05 -3.571789E-06 +6.520996E-05 +5.187113E-03 
 -1.505537E-06 +1.774363E-04 -4.088059E-05 +1.774363E-04 -2.843511E-05 +4.177889E-05 -4.088059E-05 +4.177889E-05 +5.151272E-03 
 +1.162456E-05 +3.218515E-04 -8.029069E-05 +3.218515E-04 -2.815028E-06 +1.720524E-04 -8.029069E-05 +1.720524E-04 +5.100233E-03 
 -8.158359E-05 -1.406499E-04 -7.491410E-05 -1.406499E-04 -1.577842E-04 +9.275785E-05 -7.491410E-05 +9.275785E-05 +5.051749E-03 
 +1.349233E-04 -3.016735E-05 -2.375612E-05 -3.016735E-05 -1.990159E-04 -4.423170E-05 -2.375612E-05 -4.423170E-05 +5.021016E-03 
 -2.355797E-04 -2.036019E-04 +4.172395E-05 -2.036019E-04 +9.082285E-05 -6.732814E-05 +4.172395E-05 -6.732814E-05 +5.045549E-03 
 -2.188369E-04 -2.070163E-04 +8.766738E-05 -2.070163E-04 +1.973293E-04 -9.120706E-05 +8.766738E-05 -9.120706E-05 +5.053524E-03 
 -1.447763E-04 -2.508304E-04 +7.955750E-05 -2.508304E-04 +1.221616E-04 -7.458946E-05 +7.955750E-05 -7.458946E-05 +5.062665E-03 
 -1.038322E-04 -2.325599E-04 +3.490079E-05 -2.325599E-04 +5.182463E-05 -6.347557E-05 +3.490079E-05 -6.347557E-05 +5.070659E-03 
 +5.272273E-05 -3.069676E-04 -1.247983E-05 -3.069676E-04 -7.504379E-05 -7.458034E-06 -1.247983E-05 -7.458034E-06 +5.075146E-03 
 +9.770899E-05 -3.222672E-04 -6.995022E-05 -3.222672E-04 -1.752104E-04 +5.111222E-05 -6.995022E-05 +5.111222E-05 +5.149997E-03 
 +2.123121E-04 -1.897515E-04 -4.523026E-05 -1.897515E-04 -2.122323E-04 +6.943489E-06 -4.523026E-05 +6.943489E-06 +5.188720E-03 
 +1.573145E-04 -2.492509E-04 +5.091863E-06 -2.492509E-04 -1.849485E-04 -6.422770E-05 +5.091863E-06 -6.422770E-05 +5.169902E-03 
 +1.175351E-04 -2.789159E-04 +9.691216E-05 -2.789159E-04 -1.408047E-04 -1.115905E-04 +9.691216E-05 -1.115905E-04 +5.108575E-03 
 +1.341021E-04 -3.715094E-04 +1.230823E-04 -3.715094E-04 -1.042131E-04 -1.573494E-04 +1.230823E-04 -1.573494E-04 +5.033891E-03 
 -1.231745E-04 -2.141395E-04 +1.522988E-04 -2.141395E-04 -3.627507E-05 -3.459494E-05 +1.522988E-04 -3.459494E-05 +5.027138E-03 
 -1.426959E-04 -1.753828E-04 +1.310769E-04 -1.753828E-04 +1.459342E-05 +8.055914E-05 +1.310769E-04 +8.055914E-05 +5.029324E-03 
 -4.475866E-05 -1.442650E-04 +5.729817E-05 -1.442650E-04 -1.809692E-05 -2.718667E-05 +5.729817E-05 -2.718667E-05 +5.040169E-03 
 +1.121046E-04 +6.442469E-05 -8.062216E-05 +6.442469E-05 -2.447084E-04 -1.076226E-04 -8.062216E-05 -1.076226E-04 +5.120249E-03 
 +2.941406E-05 +4.118033E-04 -6.508183E-05 +4.118033E-04 -3.059426E-04 -3.186810E-05 -6.508183E-05 -3.186810E-05 +5.187314E-03 
 +7.670596E-05 +2.599016E-04 -7.445233E-05 +2.599016E-04 -1.732603E-04 +2.654469E-05 -7.445233E-05 +2.654469E-05 +5.105411E-03 
 +5.254117E-05 +1.582326E-04 +2.941861E-06 +1.582326E-04 -1.199868E-04 +3.053907E-05 +2.941861E-06 +3.053907E-05 +5.103927E-03 
 +1.471391E-05 +2.408021E-04 -2.646028E-06 +2.408021E-04 -4.589997E-05 +1.259046E-05 -2.646028E-06 +1.259046E-05 +5.110541E-03 
 +1.944218E-05 +3.393237E-04 -2.364939E-05 +3.393237E-04 -6.559320E-05 +9.695178E-05 -2.364939E-05 +9.695178E-05 +5.085320E-03 
 -1.476196E-04 -2.532894E-04 -2.447622E-05 -2.532894E-04 +3.969887E-05 +4.255907E-05 -2.447622E-05 +4.255907E-05 +5.023869E-03 
 -1.387958E-04 -2.146387E-04 -3.058838E-05 -2.146387E-04 +2.044549E-04 -9.635917E-05 -3.058838E-05 -9.635917E-05 +5.006467E-03 
 -2.461883E-04 -4.244086E-04 -2.769470E-07 -4.244086E-04 +1.463652E-04 -1.328441E-04 -2.769470E-07 -1.328441E-04 +5.037123E-03 
 -1.479887E-04 -2.658200E-04 +9.263482E-05 -2.658200E-04 +1.684054E-04 -1.061557E-04 +9.263482E-05 -1.061557E-04 +5.029156E-03 
 -2.039092E-04 -2.860086E-04 +9.468404E-05 -2.860086E-04 +1.803368E-04 -4.807644E-05 +9.468404E-05 -4.807644E-05 +5.060363E-03 
 -1.388601E-04 -2.288607E-04 +6.192080E-05 -2.288607E-04 +2.178602E-05 -2.330218E-05 +6.192080E-05 -2.330218E-05 +5.119896E-03 
 +1.872403E-05 -3.169964E-04 +1.220746E-05 -3.169964E-04 -1.087143E-04 +2.806721E-05 +1.220746E-05 +2.806721E-05 +5.148880E-03 
 +9.029569E-05 -3.287004E-04 -5.606630E-05 -3.287004E-04 -2.052183E-04 +6.745197E-05 -5.606630E-05 +6.745197E-05 +5.240178E-03 
 +2.694120E-04 -2.332335E-04 -1.009141E-05 -2.332335E-04 -2.670957E-04 +2.419395E-05 -1.009141E-05 +2.419395E-05 +5.280810E-03 
 +2.863764E-04 -1.934810E-04 +2.827852E-05 -1.934810E-04 -2.350068E-04 -2.555847E-05 +2.827852E-05 -2.555847E-05 +5.229805E-03 
 +2.232192E-04 -2.739237E-04 +7.621747E-05 -2.739237E-04 -2.096314E-04 -1.030109E-04 +7.621747E-05 -1.030109E-04 +5.138962E-03 
 +1.538981E-04 -4.066205E-04 +6.625391E-05 -4.066205E-04 -1.520775E-04 -1.388370E-04 +6.625391E-05 -1.388370E-04 +5.051226E-03 
 -1.320232E-04 -2.535804E-04 +6.875112E-05 -2.535804E-04 +6.128387E-05 -3.062919E-05 +6.875112E-05 -3.062919E-05 +5.017211E-03 
 -9.718193E-05 -2.325337E-04 +8.212391E-05 -2.325337E-04 +7.598409E-05 +7.400019E-05 +8.212391E-05 +7.400019E-05 +4.984546E-03 
 -3.318907E-05 -1.504035E-04 +3.937838E-05 -1.504035E-04 +1.837826E-05 +7.250725E-05 +3.937838E-05 +7.250725E-05 +4.993133E-03 
 -2.689989E-05 -8.995789E-05 -9.045698E-05 -8.995789E-05 -4.041025E-05 -4.524980E-05 -9.045698E-05 -4.524980E-05 +5.069490E-03 
 +1.071065E-04 +4.401776E-04 -1.303554E-04 +4.401776E-04 -1.535356E-04 -7.086740E-05 -1.303554E-04 -7.086740E-05 +5.118638E-03 
 +1.583306E-04 +2.991228E-04 -9.311087E-05 +2.991228E-04 -1.751898E-04 -6.524267E-05 -9.311087E-05 -6.524267E-05 +5.113065E-03 
 +5.450675E-05 +2.025242E-04 +5.786548E-06 +2.025242E-04 -1.464193E-04 -3.963046E-05 +5.786548E-06 -3.963046E-05 +5.150501E-03 
 +4.097184E-05 +2.376462E-04 +5.665876E-06 +2.376462E-04 -1.224064E-04 -2.594137E-05 +5.665876E-06 -2.594137E-05 +5.111608E-03 
 +3.514448E-05 +3.745811E-04 -4.853079E-05 +3.745811E-04 -6.338391E-05 +3.069814E-05 -4.853079E-05 +3.069814E-05 +5.068747E-03 
 -2.992547E-04 -6.066813E-06 -8.574814E-05 -6.066813E-06 +1.347880E-04 +3.280994E-05 -8.574814E-05 +3.280994E-05 +5.022667E-03 
 -3.696646E-04 +6.250954E-05 -1.095620E-04 +6.250954E-05 +3.005602E-04 -5.440372E-05 -1.095620E-04 -5.440372E-05 +5.013745E-03 
 -2.611247E-04 -2.808003E-04 -8.055146E-05 -2.808003E-04 +1.614536E-04 -1.068569E-04 -8.055146E-05 -1.068569E-04 +4.997446E-03 
 +2.454582E-05 -1.789776E-05 +4.562226E-05 -1.789776E-05 +1.026066E-04 -4.209210E-05 +4.562226E-05 -4.209210E-05 +4.968413E-03 
 -1.712154E-04 -2.236028E-04 +4.061737E-05 -2.236028E-04 +1.635759E-04 +3.201788E-05 +4.061737E-05 +3.201788E-05 +5.043487E-03 
 -2.104568E-04 -1.931472E-04 +2.689582E-05 -1.931472E-04 +1.262699E-05 +7.106902E-05 +2.689582E-05 +7.106902E-05 +5.129831E-03 
 -6.658800E-05 -2.759381E-04 -6.950650E-05 -2.759381E-04 -9.759367E-05 +1.368330E-04 -6.950650E-05 +1.368330E-04 +5.199677E-03 
 +3.282167E-06 -3.170010E-04 -5.310095E-05 -3.170010E-04 -1.519687E-04 +1.110712E-04 -5.310095E-05 +1.110712E-04 +5.271207E-03 
 +1.790702E-04 -2.826053E-04 -2.444691E-05 -2.826053E-04 -2.285340E-04 +5.642398E-05 -2.444691E-05 +5.642398E-05 +5.260464E-03 
 +3.831807E-04 -3.134037E-04 +3.668957E-05 -3.134037E-04 -2.893390E-04 +1.054465E-05 +3.668957E-05 +1.054465E-05 +5.189185E-03 
 +4.833029E-04 -2.930337E-04 +4.263973E-05 -2.930337E-04 -1.386949E-04 -6.901176E-05 +4.263973E-05 -6.901176E-05 +5.087865E-03 
 +7.530678E-05 -2.638531E-04 -1.998628E-05 -2.638531E-04 +1.206565E-04 -9.568728E-05 -1.998628E-05 -9.568728E-05 +5.027433E-03 
 -4.121358E-05 -1.768932E-04 +8.047050E-07 -1.768932E-04 +8.250634E-05 -2.889808E-05 +8.047050E-07 -2.889808E-05 +5.012017E-03 
 -1.992700E-05 -2.137272E-04 +3.520175E-05 -2.137272E-04 +3.393001E-05 +3.714323E-05 +3.520175E-05 +3.714323E-05 +4.982056E-03 
 -5.579078E-05 -1.268490E-04 +1.419252E-05 -1.268490E-04 +4.474288E-05 +9.537976E-05 +1.419252E-05 +9.537976E-05 +4.999450E-03 
 -1.135855E-04 -7.606223E-05 -7.113107E-05 -7.606223E-05 +3.183744E-05 +1.080570E-05 -7.113107E-05 +1.080570E-05 +5.064767E-03 
 +1.708362E-04 +4.467602E-04 -1.364221E-04 +4.467602E-04 -5.924027E-05 -8.790546E-05 -1.364221E-04 -8.790546E-05 +5.077152E-03 
 +1.408489E-04 +3.594635E-04 -1.304164E-04 +3.594635E-04 -1.838821E-04 -1.393955E-04 -1.304164E-04 -1.393955E-04 +5.181057E-03 
 +4.161949E-05 +2.266220E-04 -3.083775E-05 +2.266220E-04 -1.757001E-04 -1.081800E-04 -3.083775E-05 -1.081800E-04 +5.230858E-03 
 -3.501460E-05 +2.312892E-04 -5.337912E-05 +2.312892E-04 -1.658490E-04 -8.985833E-05 -5.337912E-05 -8.985833E-05 +5.197378E-03 
 -4.309700E-05 +2.568410E-04 -1.228788E-04 +2.568410E-04 -1.204726E-04 -4.206222E-05 -1.228788E-04 -4.206222E-05 +5.153822E-03 
 -2.645747E-04 -1.841185E-05 -1.825490E-04 -1.841185E-05 +1.143629E-04 +1.712072E-05 -1.825490E-04 +1.712072E-05 +5.093761E-03 
 -2.619208E-04 -5.530917E-05 -2.040108E-04 -5.530917E-05 +2.209909E-04 -1.046457E-05 -2.040108E-04 -1.046457E-05 +5.058048E-03 
 -3.077242E-04 -2.729264E-04 -1.472293E-04 -2.729264E-04 +1.615174E-04 -9.225816E-05 -1.472293E-04 -9.225816E-05 +5.005489E-03 
 +1.622143E-05 +1.167020E-05 -7.280006E-05 +1.167020E-05 +3.458494E-06 -3.989318E-05 -7.280006E-05 -3.989318E-05 +4.977967E-03 
 -1.979763E-05 -1.246283E-04 -1.335150E-04 -1.246283E-04 -8.984528E-05 +8.658353E-05 -1.335150E-04 +8.658353E-05 +5.073783E-03 
 -3.422282E-04 -1.738749E-04 -4.439214E-05 -1.738749E-04 -3.014698E-05 +1.533497E-04 -4.439214E-05 +1.533497E-04 +5.147642E-03 
 -4.344324E-05 -1.100857E-04 -9.665471E-05 -1.100857E-04 -9.562960E-05 +1.930689E-04 -9.665471E-05 +1.930689E-04 +5.190941E-03 
 +5.265109E-05 -5.864879E-05 +3.363766E-05 -5.864879E-05 -1.698317E-04 +7.955418E-05 +3.363766E-05 +7.955418E-05 +5.209897E-03 
 +1.145463E-04 +2.015129E-04 +4.889391E-05 +2.015129E-04 -1.856090E-04 +2.111360E-05 +4.889391E-05 +2.111360E-05 +5.161099E-03 
 +2.894976E-04 +1.497942E-04 +1.198304E-04 +1.497942E-04 -1.777687E-04 +2.398122E-05 +1.198304E-04 +2.398122E-05 +5.082411E-03 
 +5.036096E-04 +4.501754E-05 +1.171727E-04 +4.501754E-05 -2.228321E-04 -2.391607E-05 +1.171727E-04 -2.391607E-05 +5.008674E-03 
 +1.500074E-04 -8.924879E-05 -5.410369E-05 -8.924879E-05 -5.236326E-05 -4.513569E-05 -5.410369E-05 -4.513569E-05 +4.988105E-03 
 +2.802038E-05 -1.464306E-04 -7.405474E-05 -1.464306E-04 +8.851234E-05 -4.186153E-05 -7.405474E-05 -4.186153E-05 +4.971174E-03 
 -3.859904E-05 -1.208932E-04 -2.855538E-05 -1.208932E-04 +2.326936E-05 -1.435305E-06 -2.855538E-05 -1.435305E-06 +4.971178E-03 
 -9.077812E-05 -9.102911E-05 -2.470888E-05 -9.102911E-05 +4.184520E-05 +2.686920E-05 -2.470888E-05 +2.686920E-05 +5.014576E-03 
 -6.662774E-05 +5.737094E-05 -6.182102E-05 +5.737094E-05 +1.676005E-04 -1.343704E-05 -6.182102E-05 -1.343704E-05 +5.046572E-03 
 +1.766303E-04 +3.563961E-04 -1.125999E-04 +3.563961E-04 +2.081163E-05 -1.031861E-04 -1.125999E-04 -1.031861E-04 +5.078440E-03 
 -1.005809E-04 +3.148628E-04 -9.944903E-05 +3.148628E-04 +5.929651E-05 -2.652787E-05 -9.944903E-05 -2.652787E-05 +5.215431E-03 
 -3.861569E-05 +8.307379E-05 -2.676845E-05 +8.307379E-05 +1.715345E-05 +9.874811E-06 -2.676845E-05 +9.874811E-06 +5.226063E-03 
 -2.070057E-04 +6.965981E-05 -7.111500E-05 +6.965981E-05 +6.372769E-05 +1.864594E-06 -7.111500E-05 +1.864594E-06 +5.247040E-03 
 -2.110664E-04 +7.243563E-05 -7.526377E-05 +7.243563E-05 -1.183891E-05 -2.565157E-05 -7.526377E-05 -2.565157E-05 +5.222201E-03 
 -2.003682E-04 -2.326373E-05 -1.449754E-04 -2.326373E-05 -5.803360E-05 +4.648508E-05 -1.449754E-04 +4.648508E-05 +5.138225E-03 
 -8.193348E-06 -3.508578E-04 -2.533074E-04 -3.508578E-04 -1.531598E-04 +9.911788E-05 -2.533074E-04 +9.911788E-05 +5.059720E-03 
 -6.715631E-05 -2.876273E-04 -2.086674E-04 -2.876273E-04 -1.991638E-04 -3.148760E-07 -2.086674E-04 -3.148760E-07 +5.021808E-03 
 +3.314157E-07 -7.954244E-05 -1.601242E-04 -7.954244E-05 -1.374822E-04 -1.585952E-05 -1.601242E-04 -1.585952E-05 +5.060930E-03 
 +4.124806E-05 -5.092974E-05 -1.934057E-04 -5.092974E-05 -1.479102E-04 +8.298457E-05 -1.934057E-04 +8.298457E-05 +5.144955E-03 
 -2.587753E-04 -1.888725E-04 -6.627490E-05 -1.888725E-04 -1.476346E-04 +1.414614E-04 -6.627490E-05 +1.414614E-04 +5.186191E-03 
 +6.152408E-05 -1.690816E-05 +2.158526E-05 -1.690816E-05 -1.869846E-04 +1.115023E-04 +2.158526E-05 +1.115023E-04 +5.170836E-03 
 +1.588993E-04 -3.138141E-05 +1.749185E-04 -3.138141E-05 -1.379764E-04 +1.830990E-05 +1.749185E-04 +1.830990E-05 +5.144169E-03 
 +1.415352E-04 +1.227139E-04 +2.106389E-04 +1.227139E-04 -1.782536E-04 -5.082963E-05 +2.106389E-04 -5.082963E-05 +5.115594E-03 
 +1.809880E-04 +1.190728E-04 +2.813582E-04 +1.190728E-04 -2.128100E-04 -7.202520E-05 +2.813582E-04 -7.202520E-05 +5.054289E-03 
 +3.047063E-04 +7.995683E-05 +2.105486E-04 +7.995683E-05 -2.604199E-04 -6.092052E-06 +2.105486E-04 -6.092052E-06 +4.986506E-03 
 +1.234080E-04 +2.036425E-04 +6.588364E-06 +2.036425E-04 -2.232808E-04 +7.432902E-05 +6.588364E-06 +7.432902E-05 +4.952483E-03 
 +7.528170E-05 -1.176699E-04 -7.253059E-05 -1.176699E-04 -1.324643E-05 +4.525046E-05 -7.253059E-05 +4.525046E-05 +4.920214E-03 
 -1.920542E-05 -8.981441E-05 -1.011019E-04 -8.981441E-05 +3.949356E-05 +3.076439E-05 -1.011019E-04 +3.076439E-05 +4.915916E-03 
 -2.755304E-05 +1.316468E-04 -1.202751E-04 +1.316468E-04 +1.113418E-04 -3.879458E-05 -1.202751E-04 -3.879458E-05 +4.945137E-03 
 +7.964764E-05 +3.076117E-04 -6.794422E-05 +3.076117E-04 +1.783931E-04 -1.068075E-04 -6.794422E-05 -1.068075E-04 +4.986079E-03 
 -2.907476E-05 +3.848710E-04 -9.677401E-05 +3.848710E-04 +1.426300E-04 -8.000553E-05 -9.677401E-05 -8.000553E-05 +5.103482E-03 
 -3.283261E-04 +3.405833E-04 -9.092082E-05 +3.405833E-04 +1.373621E-04 +5.701729E-05 -9.092082E-05 +5.701729E-05 +5.231132E-03 
 -2.583696E-04 +2.463225E-04 -6.052920E-05 +2.463225E-04 +1.367385E-04 +2.786232E-05 -6.052920E-05 +2.786232E-05 +5.242292E-03 
 -3.200210E-04 +1.926991E-04 -2.806051E-05 +1.926991E-04 +1.236852E-04 +1.777216E-05 -2.806051E-05 +1.777216E-05 +5.248398E-03 
 -3.230114E-04 +1.417231E-04 +1.350543E-05 +1.417231E-04 +1.528651E-05 -4.478913E-05 +1.350543E-05 -4.478913E-05 +5.211206E-03 
 -1.490778E-04 +1.042152E-04 -4.370849E-05 +1.042152E-04 -1.771501E-04 +7.047211E-06 -4.370849E-05 +7.047211E-06 +5.148570E-03 
 +2.038596E-04 -2.820254E-04 -1.896574E-04 -2.820254E-04 -3.552214E-04 +8.831294E-05 -1.896574E-04 +8.831294E-05 +5.058626E-03 
 +1.175913E-04 -1.612423E-04 -1.814860E-04 -1.612423E-04 -3.352517E-04 +3.013310E-05 -1.814860E-04 +3.013310E-05 +5.009150E-03 
 +2.486891E-05 -1.688577E-04 -1.517121E-04 -1.688577E-04 -2.268093E-04 +4.968531E-06 -1.517121E-04 +4.968531E-06 +5.075058E-03 
 +3.008155E-05 -1.394614E-04 -7.131756E-05 -1.394614E-04 -2.446432E-04 -4.203522E-06 -7.131756E-05 -4.203522E-06 +5.147501E-03 
 -1.224440E-05 -2.217062E-04 -1.264165E-05 -2.217062E-04 -2.305621E-04 +1.659037E-05 -1.264165E-05 +1.659037E-05 +5.164248E-03 
 +8.518206E-05 -1.201804E-04 +7.415900E-05 -1.201804E-04 -1.750480E-04 +1.208807E-05 +7.415900E-05 +1.208807E-05 +5.125333E-03 
 +1.260076E-04 -8.629476E-05 +1.542818E-04 -8.629476E-05 -1.085182E-04 -5.084524E-05 +1.542818E-04 -5.084524E-05 +5.076851E-03 
 +1.631267E-04 -1.053756E-04 +2.728601E-04 -1.053756E-04 -1.504882E-04 -1.000938E-04 +2.728601E-04 -1.000938E-04 +5.054592E-03 
 +1.726655E-04 +9.531697E-05 +2.817355E-04 +9.531697E-05 -2.313704E-04 -1.298429E-04 +2.817355E-04 -1.298429E-04 +4.989770E-03 
 +1.993379E-04 -3.125921E-05 +1.233168E-04 -3.125921E-05 -6.054456E-05 -1.162467E-04 +1.233168E-04 -1.162467E-04 +4.889518E-03 
 +1.345945E-04 +1.360748E-04 +3.407114E-05 +1.360748E-04 -4.021985E-05 -6.905815E-05 +3.407114E-05 -6.905815E-05 +4.837885E-03 
 +1.731780E-04 +1.360798E-05 -2.229515E-05 +1.360798E-05 -8.301497E-05 -6.224230E-05 -2.229515E-05 -6.224230E-05 +4.811048E-03 
 +1.593311E-04 +9.923221E-05 -1.101583E-04 +9.923221E-05 +8.644207E-05 -9.277346E-05 -1.101583E-04 -9.277346E-05 +4.790102E-03 
 -6.657789E-05 +2.598305E-04 -6.710775E-05 +2.598305E-04 +2.486883E-04 -1.141443E-04 -6.710775E-05 -1.141443E-04 +4.791714E-03 
 +1.030402E-04 +1.312241E-04 +2.427970E-05 +1.312241E-04 +1.892275E-04 -7.882691E-05 +2.427970E-05 -7.882691E-05 +4.893967E-03 
 -2.351770E-04 +2.913403E-04 -6.564496E-05 +2.913403E-04 +1.245366E-04 +5.157957E-06 -6.564496E-05 +5.157957E-06 +5.110173E-03 
 -3.653784E-04 +2.477850E-04 -1.253894E-04 +2.477850E-04 +1.514752E-04 +1.101445E-04 -1.253894E-04 +1.101445E-04 +5.205344E-03 
 -4.069881E-04 +2.606616E-04 -1.238931E-04 +2.606616E-04 +1.651636E-04 +5.505990E-05 -1.238931E-04 +5.505990E-05 +5.270129E-03 
 -3.552091E-04 +2.257374E-04 -5.509570E-05 +2.257374E-04 +1.505935E-04 -7.959073E-06 -5.509570E-05 -7.959073E-06 +5.270344E-03 
 -2.567984E-04 +2.301680E-04 -4.875505E-05 +2.301680E-04 +4.357342E-06 -6.402579E-05 -4.875505E-05 -6.402579E-05 +5.177336E-03 
 -1.150252E-04 +1.949514E-04 -6.535092E-05 +1.949514E-04 -2.958476E-04 -3.327387E-05 -6.535092E-05 -3.327387E-05 +5.094853E-03 
 +1.737642E-04 -1.547959E-04 -1.201731E-04 -1.547959E-04 -4.008139E-04 +9.139914E-06 -1.201731E-04 +9.139914E-06 +5.010197E-03 
 +7.242762E-05 -1.105968E-04 -1.089431E-04 -1.105968E-04 -3.019699E-04 +2.625995E-05 -1.089431E-04 +2.625995E-05 +4.978142E-03 
 +1.463987E-05 -1.438909E-04 -9.076403E-05 -1.438909E-04 -2.718760E-04 +6.454505E-05 -9.076403E-05 +6.454505E-05 +5.049316E-03 
 +4.875015E-05 -1.932103E-04 +4.929840E-05 -1.932103E-04 -2.861184E-04 +2.832952E-05 +4.929840E-05 +2.832952E-05 +5.103850E-03 
 +1.044383E-04 -2.597291E-04 +2.480258E-05 -2.597291E-04 -2.830922E-04 -1.968468E-05 +2.480258E-05 -1.968468E-05 +5.132836E-03 
 +1.175337E-04 -2.212015E-04 +6.220685E-05 -2.212015E-04 -2.261546E-04 -4.082778E-05 +6.220685E-05 -4.082778E-05 +5.084719E-03 
 +1.773205E-04 -6.472305E-05 +4.993825E-05 -6.472305E-05 -1.765205E-04 -8.666566E-05 +4.993825E-05 -8.666566E-05 +4.994750E-03 
 +1.924611E-04 -1.205467E-04 +2.174868E-04 -1.205467E-04 -8.336533E-05 -2.083968E-04 +2.174868E-04 -2.083968E-04 +4.951993E-03 
 +1.666781E-04 +1.025440E-04 +9.215195E-05 +1.025440E-04 +1.347634E-05 -3.033592E-04 +9.215195E-05 -3.033592E-04 +4.879281E-03 
 +1.654539E-04 +9.326086E-05 -1.231292E-05 +9.326086E-05 +4.918134E-05 -2.137788E-04 -1.231292E-05 -2.137788E-04 +4.797869E-03 
 +2.071700E-04 +1.608833E-04 -5.313251E-05 +1.608833E-04 +4.197667E-05 -1.142259E-04 -5.313251E-05 -1.142259E-04 +4.770551E-03 
 +2.325311E-04 +1.338651E-05 +4.093289E-06 +1.338651E-05 +6.799234E-05 -8.088586E-05 +4.093289E-06 -8.088586E-05 +4.723551E-03 
 +1.464391E-04 -4.847733E-05 +2.361169E-05 -4.847733E-05 +2.022426E-04 +1.244875E-05 +2.361169E-05 +1.244875E-05 +4.697170E-03 
 -5.006438E-05 +5.084464E-05 +1.416029E-04 +5.084464E-05 +2.738168E-04 +1.015997E-04 +1.416029E-04 +1.015997E-04 +4.721396E-03 
 +2.680262E-06 -4.084964E-05 +8.016190E-05 -4.084964E-05 +2.182976E-04 +7.917888E-05 +8.016190E-05 +7.917888E-05 +4.865992E-03 
 -2.726768E-04 +2.340544E-04 -7.480880E-05 +2.340544E-04 +1.592737E-04 +7.075553E-05 -7.480880E-05 +7.075553E-05 +5.099509E-03 
 -4.039727E-04 +2.814718E-04 -1.645843E-04 +2.814718E-04 +1.677982E-04 +5.581688E-05 -1.645843E-04 +5.581688E-05 +5.160435E-03 
 -4.824004E-04 +2.391207E-04 -1.332144E-04 +2.391207E-04 +2.111561E-04 -1.825376E-05 -1.332144E-04 -1.825376E-05 +5.271660E-03 
 -3.057271E-04 +1.477663E-04 -8.720078E-05 +1.477663E-04 +1.222199E-04 +2.746458E-06 -8.720078E-05 +2.746458E-06 +5.217919E-03 
 -1.209347E-04 +7.988256E-05 -8.640675E-05 +7.988256E-05 -2.946152E-05 +6.475954E-05 -8.640675E-05 +6.475954E-05 +5.088947E-03 
 -6.627231E-05 +7.720413E-06 -7.867370E-05 +7.720413E-06 -1.309315E-04 +7.772450E-05 -7.867370E-05 +7.772450E-05 +4.988011E-03 
 +6.026303E-06 -1.176548E-04 -4.950076E-05 -1.176548E-04 -1.463411E-04 +4.979814E-05 -4.950076E-05 +4.979814E-05 +4.899396E-03 
 -2.564555E-05 -1.324196E-04 -4.355758E-05 -1.324196E-04 -2.034185E-04 +2.958274E-05 -4.355758E-05 +2.958274E-05 +4.887917E-03 
 -2.503960E-05 -1.604115E-04 +2.418009E-05 -1.604115E-04 -2.504575E-04 +5.118528E-05 +2.418009E-05 +5.118528E-05 +4.994147E-03 
 +3.176769E-05 -2.592762E-04 +9.119266E-05 -2.592762E-04 -2.323473E-04 +2.804917E-05 +9.119266E-05 +2.804917E-05 +5.044956E-03 
 +1.178314E-04 -2.948551E-04 +4.479828E-05 -2.948551E-04 -2.399071E-04 +2.723960E-05 +4.479828E-05 +2.723960E-05 +5.042840E-03 
 +1.751484E-04 -2.742663E-04 +9.487757E-06 -2.742663E-04 -2.482841E-04 +1.079133E-06 +9.487757E-06 +1.079133E-06 +5.020885E-03 
 +2.783953E-04 -1.741194E-04 -3.071218E-05 -1.741194E-04 -2.796362E-04 -1.446594E-04 -3.071218E-05 -1.446594E-04 +4.942386E-03 
 +2.722341E-04 -1.133223E-04 +1.406485E-05 -1.133223E-04 -1.723166E-04 -3.016986E-04 +1.406485E-05 -3.016986E-04 +4.892848E-03 
 +2.390732E-04 +1.164006E-04 -9.354780E-05 +1.164006E-04 -4.459881E-05 -3.338062E-04 -9.354780E-05 -3.338062E-04 +4.862840E-03 
 +1.934790E-04 +1.089538E-04 -1.952045E-06 +1.089538E-04 -1.921539E-05 -2.207417E-04 -1.952045E-06 -2.207417E-04 +4.838968E-03 
 +8.500904E-05 +7.411162E-05 -6.434723E-05 +7.411162E-05 +6.880046E-05 -1.140300E-04 -6.434723E-05 -1.140300E-04 +4.806516E-03 
 +6.690755E-05 -1.080067E-04 +6.148619E-05 -1.080067E-04 +1.822245E-04 -2.951919E-05 +6.148619E-05 -2.951919E-05 +4.718648E-03 
 +3.448129E-05 -1.502891E-04 +1.315532E-04 -1.502891E-04 +2.354442E-04 +3.983496E-05 +1.315532E-04 +3.983496E-05 +4.678819E-03 
 +9.087223E-05 -1.126356E-04 +1.757453E-04 -1.126356E-04 +2.179390E-04 +3.452404E-05 +1.757453E-04 +3.452404E-05 +4.696783E-03 
 +7.111112E-05 -1.872659E-04 +6.231948E-05 -1.872659E-04 +2.197058E-04 -2.041042E-05 +6.231948E-05 -2.041042E-05 +4.814269E-03 
 -2.323824E-04 +1.648130E-04 -9.878203E-05 +1.648130E-04 +1.857111E-04 +3.553760E-05 -9.878203E-05 +3.553760E-05 +5.000305E-03 
 -3.400524E-04 +3.161187E-04 -1.183801E-04 +3.161187E-04 +8.907052E-05 +9.816310E-05 -1.183801E-04 +9.816310E-05 +5.170503E-03 
 -2.837332E-04 +2.070656E-04 -9.979428E-05 +2.070656E-04 +9.967087E-05 -2.255079E-05 -9.979428E-05 -2.255079E-05 +5.218392E-03 
 -2.979410E-04 +2.477628E-04 +1.822747E-05 +2.477628E-04 -1.727209E-05 -2.635875E-05 +1.822747E-05 -2.635875E-05 +5.255468E-03 
 -9.987277E-05 +1.227609E-04 -6.725938E-06 +1.227609E-04 -1.146934E-04 +3.962127E-05 -6.725938E-06 +3.962127E-05 +5.163020E-03 
 -4.195701E-05 +8.919203E-05 -7.585313E-06 +8.919203E-05 -1.490315E-04 +7.456397E-05 -7.585313E-06 +7.456397E-05 +5.004450E-03 
 -4.415989E-05 +9.271924E-06 -1.591290E-05 +9.271924E-06 -1.453899E-04 +1.025627E-04 -1.591290E-05 +1.025627E-04 +4.891327E-03 
 -2.781716E-05 -3.477613E-05 +4.879043E-05 -3.477613E-05 -1.537110E-04 +7.428835E-05 +4.879043E-05 +7.428835E-05 +4.933636E-03 
 +1.388447E-05 +5.735735E-05 +2.370655E-04 +5.735735E-05 -1.698164E-04 +4.883215E-05 +2.370655E-04 +4.883215E-05 +5.034100E-03 
 +3.597775E-05 +5.955541E-06 +1.435485E-04 +5.955541E-06 -1.667258E-04 +6.378476E-05 +1.435485E-04 +6.378476E-05 +5.000989E-03 
 +4.724199E-05 -5.231594E-05 +1.095124E-04 -5.231594E-05 -1.515750E-04 +5.519329E-05 +1.095124E-04 +5.519329E-05 +4.998098E-03 
 +1.065544E-04 -1.423109E-04 -1.872559E-05 -1.423109E-04 -2.018175E-04 -1.189630E-05 -1.872559E-05 -1.189630E-05 +5.022908E-03 
 +1.955137E-04 -6.358608E-05 -1.475247E-04 -6.358608E-05 -1.718677E-04 -7.169844E-05 -1.475247E-04 -7.169844E-05 +4.977760E-03 
 +2.786807E-04 -9.090212E-05 -1.757190E-04 -9.090212E-05 -1.810856E-04 -1.293119E-04 -1.757190E-04 -1.293119E-04 +4.905664E-03 
 +2.791050E-04 -1.778859E-05 -1.557228E-04 -1.778859E-05 -2.680059E-04 -2.507921E-04 -1.557228E-04 -2.507921E-04 +4.990550E-03 
 +1.292746E-04 +5.225749E-05 -6.255800E-05 +5.225749E-05 -9.348663E-05 -2.702833E-04 -6.255800E-05 -2.702833E-04 +4.961015E-03 
 +1.482082E-04 -6.219186E-05 -5.184578E-05 -6.219186E-05 +1.157613E-04 -1.415027E-04 -5.184578E-05 -1.415027E-04 +4.796009E-03 
 -3.301478E-05 -1.791779E-04 +8.853911E-05 -1.791779E-04 +1.859106E-04 -3.717905E-05 +8.853911E-05 -3.717905E-05 +4.773758E-03 
 -8.588933E-05 -1.798230E-04 +8.238173E-05 -1.798230E-04 +2.558935E-04 -7.297130E-06 +8.238173E-05 -7.297130E-06 +4.788830E-03 
 +1.457250E-05 -1.807800E-04 +4.030582E-06 -1.807800E-04 +2.258414E-04 +1.728346E-06 +4.030582E-06 +1.728346E-06 +4.743349E-03 
 +1.590608E-04 -2.288821E-04 +2.990360E-05 -2.288821E-04 +2.519121E-04 -1.793926E-05 +2.990360E-05 -1.793926E-05 +4.802999E-03 
 -1.535777E-04 +1.618985E-04 -6.904260E-05 +1.618985E-04 +1.611047E-04 +5.593205E-05 -6.904260E-05 +5.593205E-05 +5.021113E-03 
 -3.041654E-04 +1.801898E-04 -5.231378E-05 +1.801898E-04 +1.143379E-04 -2.593483E-06 -5.231378E-05 -2.593483E-06 +5.010222E-03 
 -1.458432E-04 -1.051845E-05 -8.845480E-05 -1.051845E-05 +3.230230E-05 +1.966941E-05 -8.845480E-05 +1.966941E-05 +5.012291E-03 
 -1.389386E-04 +1.113332E-04 +2.977565E-05 +1.113332E-04 -9.138224E-05 +7.014634E-05 +2.977565E-05 +7.014634E-05 +5.034905E-03 
 -3.477394E-05 +1.289754E-04 -1.072452E-05 +1.289754E-04 -1.278261E-04 +8.111379E-05 -1.072452E-05 +8.111379E-05 +5.063308E-03 
 -4.583609E-05 +1.300252E-04 +4.963672E-06 +1.300252E-04 -1.200679E-04 +1.010960E-04 +4.963672E-06 +1.010960E-04 +5.046812E-03 
 +1.095914E-05 +5.005704E-05 +1.965520E-05 +5.005704E-05 -1.479023E-04 +1.186185E-04 +1.965520E-05 +1.186185E-04 +4.939631E-03 
 +6.084134E-05 -1.338180E-05 +8.320073E-05 -1.338180E-05 -1.730918E-04 +1.233146E-04 +8.320073E-05 +1.233146E-04 +4.908304E-03 
 +4.809067E-05 +5.405182E-05 +2.733387E-04 +5.405182E-05 -1.667445E-04 +5.670229E-05 +2.733387E-04 +5.670229E-05 +5.005319E-03 
 -8.321733E-06 +5.004747E-05 +1.979462E-04 +5.004747E-05 -9.982470E-05 -2.803064E-06 +1.979462E-04 -2.803064E-06 +4.989369E-03 
 -1.528418E-05 -9.592915E-06 +1.537665E-04 -9.592915E-06 -6.615372E-05 +3.331339E-05 +1.537665E-04 +3.331339E-05 +4.964398E-03 
 +8.774110E-05 -3.580305E-05 -1.221819E-04 -3.580305E-05 -1.031010E-04 -1.360996E-05 -1.221819E-04 -1.360996E-05 +4.964782E-03 
 +1.445383E-04 +1.276178E-04 -2.155894E-04 +1.276178E-04 -1.515693E-04 -5.637658E-05 -2.155894E-04 -5.637658E-05 +4.965504E-03 
 +2.537170E-04 +4.392062E-05 -2.386585E-04 +4.392062E-05 -2.034729E-04 -9.951026E-05 -2.386585E-04 -9.951026E-05 +4.963128E-03 
 -7.060256E-05 +1.752831E-04 -5.558541E-05 +1.752831E-04 -1.119016E-04 -1.690710E-04 -5.558541E-05 -1.690710E-04 +5.089905E-03 
 -2.040313E-04 +1.352730E-04 -6.512508E-05 +1.352730E-04 +1.987949E-05 -1.446229E-04 -6.512508E-05 -1.446229E-04 +5.105937E-03 
 +5.659886E-05 -1.801344E-04 -2.787825E-05 -1.801344E-04 +2.783642E-05 -1.480930E-04 -2.787825E-05 -1.480930E-04 +4.904281E-03 
 +9.367626E-05 -2.268082E-04 +8.153885E-05 -2.268082E-04 +1.153633E-04 -1.317022E-04 +8.153885E-05 -1.317022E-04 +4.795999E-03 
 -1.511445E-05 -2.166271E-04 +7.510454E-05 -2.166271E-04 +2.074158E-04 -7.438997E-05 +7.510454E-05 -7.438997E-05 +4.797786E-03 
 +6.535676E-05 -2.382521E-04 +3.026294E-05 -2.382521E-04 +1.993490E-04 -6.490899E-05 +3.026294E-05 -6.490899E-05 +4.766551E-03 
 +1.250410E-04 -2.563909E-04 +5.161016E-05 -2.563909E-04 +2.385659E-04 -9.961099E-05 +5.161016E-05 -9.961099E-05 +4.751425E-03 
 +3.651195E-05 -1.556891E-04 +1.989943E-05 -1.556891E-04 +2.180508E-04 -5.373171E-05 +1.989943E-05 -5.373171E-05 +4.879709E-03 
 -7.342762E-05 +1.444946E-04 +6.395618E-07 +1.444946E-04 +1.582607E-05 -1.193615E-04 +6.395618E-07 -1.193615E-04 +4.879590E-03 
 -3.521498E-05 +1.005441E-04 -2.905268E-05 +1.005441E-04 -1.708046E-04 -1.586739E-04 -2.905268E-05 -1.586739E-04 +4.903297E-03 
 +2.681811E-05 +1.229136E-04 +1.506907E-05 +1.229136E-04 -2.002618E-04 -1.400907E-04 +1.506907E-05 -1.400907E-04 +4.944778E-03 
 +1.770673E-05 +9.036353E-05 +2.342111E-05 +9.036353E-05 -2.491727E-04 -1.385078E-04 +2.342111E-05 -1.385078E-04 +4.999944E-03 
 +1.027232E-05 +7.519490E-05 +7.696703E-05 +7.519490E-05 -2.694874E-04 -1.108568E-04 +7.696703E-05 -1.108568E-04 +5.015358E-03 
 +5.880834E-05 +2.141718E-05 +1.446734E-04 +2.141718E-05 -2.677280E-04 -6.208057E-05 +1.446734E-04 -6.208057E-05 +4.962382E-03 
 +1.053334E-04 -4.879669E-05 +1.922487E-04 -4.879669E-05 -2.605815E-04 +2.706053E-05 +1.922487E-04 +2.706053E-05 +4.942439E-03 
 +9.707402E-05 +6.599779E-05 +2.208650E-04 +6.599779E-05 -2.349421E-04 +6.476809E-05 +2.208650E-04 +6.476809E-05 +5.014823E-03 
 +3.818074E-05 +1.194300E-04 +1.732257E-04 +1.194300E-04 -1.708697E-04 +2.122083E-05 +1.732257E-04 +2.122083E-05 +5.036719E-03 
 +7.628100E-05 +1.025814E-04 +1.670176E-04 +1.025814E-04 -1.104255E-04 +1.543846E-05 +1.670176E-04 +1.543846E-05 +4.958886E-03 
 +7.586781E-05 +5.917727E-05 -1.108641E-04 +5.917727E-05 -7.331010E-05 -4.137357E-06 -1.108641E-04 -4.137357E-06 +4.932055E-03 
 +3.743002E-05 +1.106212E-04 -8.227070E-05 +1.106212E-04 -1.668352E-04 -1.941980E-05 -8.227070E-05 -1.941980E-05 +4.976810E-03 
 +9.252251E-05 +2.929300E-05 -1.103568E-04 +2.929300E-05 -1.352061E-04 -4.175976E-05 -1.103568E-04 -4.175976E-05 +4.994805E-03 
 -3.409015E-04 +2.481205E-04 +5.153514E-05 +2.481205E-04 +1.197713E-04 -8.576092E-05 +5.153514E-05 -8.576092E-05 +5.065744E-03 
 -4.054148E-04 +2.985376E-04 -3.576859E-05 +2.985376E-04 +1.306623E-04 -3.130865E-05 -3.576859E-05 -3.130865E-05 +5.153581E-03 
 -2.006353E-04 +1.370108E-04 -3.921806E-05 +1.370108E-04 +4.345053E-05 -1.778340E-05 -3.921806E-05 -1.778340E-05 +5.077075E-03 
 +3.148625E-05 -2.757782E-05 +5.987962E-05 -2.757782E-05 +1.348313E-04 -8.225097E-05 +5.987962E-05 -8.225097E-05 +4.876454E-03 
 +1.496303E-04 -2.171988E-04 +1.182101E-04 -2.171988E-04 +1.935950E-04 -9.597382E-05 +1.182101E-04 -9.597382E-05 +4.773422E-03 
 +1.002103E-04 -2.144321E-04 +6.524731E-05 -2.144321E-04 +1.990808E-04 -9.293171E-05 +6.524731E-05 -9.293171E-05 +4.745405E-03 
 +8.585695E-05 -1.669258E-04 +5.579313E-05 -1.669258E-04 +1.955295E-04 -7.646473E-05 +5.579313E-05 -7.646473E-05 +4.700559E-03 
 +5.218098E-05 -9.334467E-05 +4.536973E-05 -9.334467E-05 +1.858702E-04 -5.446355E-05 +4.536973E-05 -5.446355E-05 +4.768547E-03 
 +1.519378E-04 +2.302911E-04 +2.879730E-05 +2.302911E-04 +1.399426E-05 -3.578079E-05 +2.879730E-05 -3.578079E-05 +4.824081E-03 
 +1.943775E-05 +1.808058E-04 +6.146286E-05 +1.808058E-04 -9.673533E-05 -1.077277E-04 +6.146286E-05 -1.077277E-04 +4.940833E-03 
 +6.323932E-06 +1.604693E-04 +5.853079E-05 +1.604693E-04 -1.785871E-04 -1.551064E-04 +5.853079E-05 -1.551064E-04 +5.024427E-03 
 +1.361958E-05 +1.268525E-04 +6.521604E-05 +1.268525E-04 -2.105977E-04 -1.512469E-04 +6.521604E-05 -1.512469E-04 +5.035850E-03 
 +6.072134E-06 +5.797224E-05 +1.331095E-04 +5.797224E-05 -2.265848E-04 -1.334528E-04 +1.331095E-04 -1.334528E-04 +5.024198E-03 
 +9.519626E-05 -2.744377E-05 +2.598753E-04 -2.744377E-05 -2.131402E-04 -1.064141E-04 +2.598753E-04 -1.064141E-04 +4.978989E-03 
 +1.113934E-04 -1.501250E-04 +2.637229E-04 -1.501250E-04 -2.208352E-04 -7.134580E-05 +2.637229E-04 -7.134580E-05 +4.948725E-03 
 +2.119836E-04 -2.719992E-05 +1.667086E-04 -2.719992E-05 -2.822188E-04 -3.288322E-05 +1.667086E-04 -3.288322E-05 +4.922486E-03 
 +2.770014E-04 +1.631728E-04 +1.304212E-04 +1.631728E-04 -2.670269E-04 +1.418323E-06 +1.304212E-04 +1.418323E-06 +4.915128E-03 
 +1.844691E-04 +1.909363E-04 +1.640263E-04 +1.909363E-04 -1.149525E-04 +4.954659E-08 +1.640263E-04 +4.954659E-08 +4.923909E-03 
 -5.794866E-05 +1.106551E-04 +2.040895E-05 +1.106551E-04 +1.174609E-04 +3.417715E-05 +2.040895E-05 +3.417715E-05 +4.921317E-03 
 -1.404792E-04 -4.369750E-05 +1.584988E-05 -4.369750E-05 +1.768602E-04 +1.077620E-04 +1.584988E-05 +1.077620E-04 +4.924877E-03 
 -2.306460E-04 +8.682968E-05 -2.816385E-05 +8.682968E-05 +2.078362E-04 +3.827671E-05 -2.816385E-05 +3.827671E-05 +4.946575E-03 
 -3.440116E-04 +2.381822E-04 -4.287321E-06 +2.381822E-04 +2.444752E-04 -6.331881E-05 -4.287321E-06 -6.331881E-05 +4.975347E-03 
 -3.012245E-04 +2.228751E-04 -3.139437E-05 +2.228751E-04 +1.404524E-04 -4.651006E-05 -3.139437E-05 -4.651006E-05 +5.061678E-03 
 -3.334738E-04 +2.642389E-04 -3.408089E-05 +2.642389E-04 +1.167066E-04 +3.563606E-05 -3.408089E-05 +3.563606E-05 +5.131024E-03 
 -2.887684E-04 +2.515228E-04 -1.101631E-05 +2.515228E-04 +1.414015E-04 +2.634568E-05 -1.101631E-05 +2.634568E-05 +5.040289E-03 
 +1.093559E-04 -1.073631E-04 +1.108211E-04 -1.073631E-04 +1.535198E-04 -6.022337E-05 +1.108211E-04 -6.022337E-05 +4.866115E-03 
 +2.238883E-04 -1.660079E-04 +9.250142E-05 -1.660079E-04 +1.394369E-04 -5.614364E-05 +9.250142E-05 -5.614364E-05 +4.739500E-03 
 +1.717376E-04 -8.081233E-05 +8.100612E-05 -8.081233E-05 +1.309900E-04 -2.331731E-05 +8.100612E-05 -2.331731E-05 +4.658726E-03 
 +1.140457E-04 +6.290917E-05 +8.711550E-05 +6.290917E-05 +1.020458E-04 -1.046458E-05 +8.711550E-05 -1.046458E-05 +4.702806E-03 
 +2.495796E-04 +2.005211E-04 -1.790671E-05 +2.005211E-04 +9.133796E-05 +1.104164E-05 -1.790671E-05 +1.104164E-05 +4.740474E-03 
 -5.619986E-05 +1.114118E-04 +6.271135E-05 +1.114118E-04 +4.759261E-06 -3.958333E-05 +6.271135E-05 -3.958333E-05 +4.979353E-03 
 -4.008688E-05 +8.591863E-05 +5.308325E-05 +8.591863E-05 -6.855545E-05 -1.489322E-04 +5.308325E-05 -1.489322E-04 +5.077060E-03 
 -4.883824E-05 +3.983003E-05 +8.679195E-05 +3.983003E-05 -1.044930E-04 -2.061187E-04 +8.679195E-05 -2.061187E-04 +5.084633E-03 
 -6.509785E-05 -2.001947E-05 +1.504514E-04 -2.001947E-05 -1.079050E-04 -2.097504E-04 +1.504514E-04 -2.097504E-04 +5.072186E-03 
 +6.478102E-05 -1.170170E-04 +2.729816E-04 -1.170170E-04 -1.088889E-04 -1.993017E-04 +2.729816E-04 -1.993017E-04 +4.944565E-03 
 +1.476612E-04 -2.288856E-04 +2.379386E-04 -2.288856E-04 -7.237579E-05 -2.212181E-04 +2.379386E-04 -2.212181E-04 +4.772991E-03 
 +3.558185E-04 -8.888388E-05 +1.615422E-04 -8.888388E-05 -2.498211E-06 -1.912356E-04 +1.615422E-04 -1.912356E-04 +4.674509E-03 
 +4.471717E-04 +2.527446E-05 +1.497892E-04 +2.527446E-05 +2.817213E-05 -8.484231E-05 +1.497892E-04 -8.484231E-05 +4.733980E-03 
 +7.510593E-05 -1.742122E-05 +1.673605E-04 -1.742122E-05 +1.844138E-04 -4.581164E-05 +1.673605E-04 -4.581164E-05 +4.935929E-03 
 -1.252157E-04 -1.927924E-04 +9.823874E-05 -1.927924E-04 +3.249871E-04 -5.092406E-05 +9.823874E-05 -5.092406E-05 +4.976023E-03 
 -2.408171E-04 -3.408878E-04 +9.119120E-06 -3.408878E-04 +2.860383E-04 +1.720515E-05 +9.119120E-06 +1.720515E-05 +4.890752E-03 
 -3.208762E-04 +5.913294E-05 -6.530202E-05 +5.913294E-05 +2.878410E-04 -1.362011E-05 -6.530202E-05 -1.362011E-05 +4.900339E-03 
 -1.977820E-04 +2.421528E-04 -9.772190E-05 +2.421528E-04 +2.532684E-04 -7.685250E-05 -9.772190E-05 -7.685250E-05 +4.951275E-03 
 -3.057825E-04 +2.409514E-04 -7.115149E-05 +2.409514E-04 +1.464992E-04 -4.983335E-05 -7.115149E-05 -4.983335E-05 +5.041577E-03 
 -3.128986E-04 +2.536859E-04 -5.582668E-05 +2.536859E-04 +1.372506E-04 -4.182807E-05 -5.582668E-05 -4.182807E-05 +5.098223E-03 
 -3.442152E-04 +2.979358E-04 -5.329622E-05 +2.979358E-04 +1.558546E-04 +1.540145E-05 -5.329622E-05 +1.540145E-05 +5.135585E-03 
 -9.722185E-05 +1.341072E-04 +4.124798E-05 +1.341072E-04 +1.849125E-04 +7.258398E-05 +4.124798E-05 +7.258398E-05 +5.026311E-03 
 +2.844172E-04 -1.507079E-05 +6.899310E-05 -1.507079E-05 +1.983023E-04 +2.080000E-05 +6.899310E-05 +2.080000E-05 +4.749367E-03 
 +2.427381E-04 +1.556199E-05 +9.981476E-05 +1.556199E-05 +1.793506E-04 -2.724541E-05 +9.981476E-05 -2.724541E-05 +4.592083E-03 
 +2.875791E-04 +9.300703E-05 +5.372117E-05 +9.300703E-05 +1.628192E-04 -4.680931E-06 +5.372117E-05 -4.680931E-06 +4.589078E-03 
 +2.480666E-04 +6.935739E-05 -2.876922E-05 +6.935739E-05 +6.599898E-05 +1.633402E-05 -2.876922E-05 +1.633402E-05 +4.719269E-03 
 -5.073629E-05 +3.772730E-05 +2.559453E-05 +3.772730E-05 +5.921858E-05 -9.963521E-06 +2.559453E-05 -9.963521E-06 +4.950058E-03 
 -1.371506E-04 +3.231873E-05 +8.680266E-05 +3.231873E-05 +5.021869E-05 -1.056932E-04 +8.680266E-05 -1.056932E-04 +5.040406E-03 
 -1.303667E-04 +1.277584E-05 +1.425743E-04 +1.277584E-05 +1.378017E-05 -1.730937E-04 +1.425743E-04 -1.730937E-04 +5.043780E-03 
 -1.304283E-04 -4.375979E-05 +2.040491E-04 -4.375979E-05 +3.207975E-05 -1.883478E-04 +2.040491E-04 -1.883478E-04 +5.037272E-03 
 -1.909557E-05 -1.368071E-04 +2.439793E-04 -1.368071E-04 +8.641520E-05 -1.935913E-04 +2.439793E-04 -1.935913E-04 +4.865850E-03 
 +3.055350E-04 -2.259974E-04 +1.813397E-04 -2.259974E-04 +1.182113E-04 -2.445532E-04 +1.813397E-04 -2.445532E-04 +4.581316E-03 
 +4.046731E-04 -9.723507E-05 +1.426834E-04 -9.723507E-05 +1.209460E-04 -2.655581E-04 +1.426834E-04 -2.655581E-04 +4.557229E-03 
 +3.195317E-04 -7.969521E-05 +1.035233E-04 -7.969521E-05 +1.577394E-04 -1.708156E-04 +1.035233E-04 -1.708156E-04 +4.741226E-03 
 -4.052438E-07 +5.426696E-06 +1.082690E-04 +5.426696E-06 +2.324523E-04 +9.543270E-06 +1.082690E-04 +9.543270E-06 +4.932976E-03 
 -6.853577E-05 -1.525751E-04 +3.556542E-05 -1.525751E-04 +3.237474E-04 +8.236168E-05 +3.556542E-05 +8.236168E-05 +5.016976E-03 
 -1.467784E-04 -2.696172E-04 -3.911158E-06 -2.696172E-04 +3.901520E-04 +6.415063E-05 -3.911158E-06 +6.415063E-05 +4.957808E-03 
 -2.641668E-04 +4.426530E-05 -7.311933E-05 +4.426530E-05 +1.852389E-04 -1.989497E-05 -7.311933E-05 -1.989497E-05 +4.892353E-03 
 -8.784049E-05 +2.168092E-04 -1.462027E-04 +2.168092E-04 +4.542120E-06 -9.016844E-05 -1.462027E-04 -9.016844E-05 +4.939322E-03 
 -3.860786E-04 +1.984045E-04 -1.039578E-04 +1.984045E-04 +1.465776E-04 -8.112087E-05 -1.039578E-04 -8.112087E-05 +5.068110E-03 
 -3.650151E-04 +1.849151E-04 -5.305729E-05 +1.849151E-04 +1.577624E-04 -9.222673E-05 -5.305729E-05 -9.222673E-05 +5.116625E-03 
 -2.556699E-04 +2.117567E-04 +1.809847E-06 +2.117567E-04 +1.113993E-04 -7.004677E-05 +1.809847E-06 -7.004677E-05 +5.195946E-03 
 -1.439148E-04 +3.837044E-05 +2.451334E-05 +3.837044E-05 +1.317046E-04 -1.694455E-05 +2.451334E-05 -1.694455E-05 +5.179598E-03 
 +2.141804E-04 -1.449447E-05 +2.536211E-05 -1.449447E-05 +2.590797E-04 -5.008759E-06 +2.536211E-05 -5.008759E-06 +4.836066E-03 
 +3.531194E-04 -4.696945E-05 +5.299392E-05 -4.696945E-05 +2.840235E-04 -2.883585E-05 +5.299392E-05 -2.883585E-05 +4.559195E-03 
 +3.410382E-04 +3.368712E-05 +6.195925E-06 +3.368712E-05 +1.352580E-04 -1.562661E-05 +6.195925E-06 -1.562661E-05 +4.545696E-03 
 +2.105874E-04 +3.289014E-05 +1.800257E-05 +3.289014E-05 +1.157390E-04 -7.842881E-05 +1.800257E-05 -7.842881E-05 +4.730060E-03 
 +6.803588E-05 +8.351057E-05 +6.684123E-06 +8.351057E-05 +1.208056E-04 -7.408136E-05 +6.684123E-06 -7.408136E-05 +4.835579E-03 
 -2.535405E-04 +1.578250E-05 +1.622376E-04 +1.578250E-05 +1.407932E-04 -8.237218E-05 +1.622376E-04 -8.237218E-05 +4.961912E-03 
 -2.232569E-04 +3.365228E-05 +2.347730E-04 +3.365228E-05 +1.585494E-04 -1.419797E-04 +2.347730E-04 -1.419797E-04 +4.983431E-03 
 -1.551073E-04 -9.865529E-06 +2.816050E-04 -9.865529E-06 +1.964369E-04 -2.092547E-04 +2.816050E-04 -2.092547E-04 +4.895593E-03 
 -2.436047E-05 -3.193398E-05 +1.913860E-04 -3.193398E-05 +1.937068E-04 -2.477906E-04 +1.913860E-04 -2.477906E-04 +4.708516E-03 
 +4.138827E-04 -1.594921E-04 +1.053329E-04 -1.594921E-04 +1.686318E-04 -2.782864E-04 +1.053329E-04 -2.782864E-04 +4.462666E-03 
 +4.666323E-04 -5.245539E-05 +7.677558E-05 -5.245539E-05 +7.825545E-05 -2.538791E-04 +7.677558E-05 -2.538791E-04 +4.563485E-03 
 +1.051893E-04 +1.065058E-04 +3.660733E-05 +1.065058E-04 +9.250067E-05 -9.759820E-05 +3.660733E-05 -9.759820E-05 +4.847698E-03 
 +1.880500E-05 +9.516649E-05 +6.176445E-05 +9.516649E-05 +1.232278E-04 +1.082880E-04 +6.176445E-05 +1.082880E-04 +4.971394E-03 
 -1.140857E-05 -2.520740E-05 -8.092022E-06 -2.520740E-05 +2.059606E-04 +2.147221E-04 -8.092022E-06 +2.147221E-04 +4.979317E-03 
 -7.121251E-05 -2.579077E-04 -3.803226E-05 -2.579077E-04 +3.814887E-04 +1.756726E-04 -3.803226E-05 +1.756726E-04 +4.929542E-03 
 -2.294795E-04 -1.737896E-04 -8.380338E-05 -1.737896E-04 +3.164293E-04 +2.260556E-06 -8.380338E-05 +2.260556E-06 +4.898472E-03 
 -1.407392E-04 +2.341548E-04 -1.335689E-04 +2.341548E-04 +2.827190E-04 -9.334165E-05 -1.335689E-04 -9.334165E-05 +4.942896E-03 
 -2.975206E-04 +2.179543E-04 -1.087719E-04 +2.179543E-04 +2.744215E-04 -1.029883E-04 -1.087719E-04 -1.029883E-04 +5.055912E-03 
 -3.030534E-04 +2.217236E-04 -3.416238E-05 +2.217236E-04 +9.329180E-05 -1.398486E-04 -3.416238E-05 -1.398486E-04 +5.131463E-03 
 -1.712452E-04 +4.361192E-04 -1.657796E-05 +4.361192E-04 -7.109055E-05 -1.321506E-04 -1.657796E-05 -1.321506E-04 +5.188226E-03 
 -1.558854E-04 +3.126527E-04 +1.353948E-05 +3.126527E-04 -9.875462E-05 -4.551960E-05 +1.353948E-05 -4.551960E-05 +5.265734E-03 
 +5.904603E-05 +3.029919E-04 +1.151766E-05 +3.029919E-04 +5.426468E-05 -9.126742E-06 +1.151766E-05 -9.126742E-06 +5.066342E-03 
 +3.814219E-04 -5.551954E-05 -1.569308E-05 -5.551954E-05 +1.623148E-04 -5.372082E-05 -1.569308E-05 -5.372082E-05 +4.685214E-03 
 +3.132435E-04 +1.187335E-05 +1.205703E-05 +1.187335E-05 +1.472875E-04 -6.028872E-05 +1.205703E-05 -6.028872E-05 +4.603483E-03 
 +1.505548E-04 +1.574797E-04 +3.894722E-05 +1.574797E-04 +1.082301E-04 -1.207691E-04 +3.894722E-05 -1.207691E-04 +4.920945E-03 
 -4.432942E-05 +1.256376E-04 +5.094168E-05 +1.256376E-04 +7.041162E-05 -1.430282E-04 +5.094168E-05 -1.430282E-04 +4.968549E-03 
 -3.851951E-04 -6.423484E-05 +2.419859E-04 -6.423484E-05 +1.356939E-04 -1.385758E-04 +2.419859E-04 -1.385758E-04 +5.022756E-03 
 -2.454922E-04 -2.516982E-05 +3.101757E-04 -2.516982E-05 +1.722207E-04 -1.566697E-04 +3.101757E-04 -1.566697E-04 +4.970257E-03 
 -5.089387E-06 +5.414321E-05 +3.027090E-04 +5.414321E-05 +2.019279E-04 -2.214558E-04 +3.027090E-04 -2.214558E-04 +4.803451E-03 
 +6.080031E-05 +6.253400E-05 +1.436258E-04 +6.253400E-05 +2.406959E-04 -2.329483E-04 +1.436258E-04 -2.329483E-04 +4.624056E-03 
 +4.352946E-04 -9.932407E-05 +7.689279E-05 -9.932407E-05 +1.356664E-04 -2.220073E-04 +7.689279E-05 -2.220073E-04 +4.420876E-03 
 +4.753895E-04 -1.590963E-05 +5.001458E-05 -1.590963E-05 +9.098441E-05 -1.827890E-04 +5.001458E-05 -1.827890E-04 +4.585015E-03 
 -5.279364E-06 +1.650585E-04 +3.496041E-05 +1.650585E-04 +1.285889E-04 -1.133349E-05 +3.496041E-05 -1.133349E-05 +4.947419E-03 
 -5.302245E-05 +1.288257E-04 +4.794695E-05 +1.288257E-04 +1.160754E-04 +1.484069E-04 +4.794695E-05 +1.484069E-04 +5.094721E-03 
 -6.126234E-05 +8.950917E-05 -4.981729E-06 +8.950917E-05 +1.629035E-04 +2.475638E-04 -4.981729E-06 +2.475638E-04 +4.966487E-03 
 +7.186905E-05 -1.213695E-04 -5.649721E-05 -1.213695E-04 +3.362654E-04 +2.309178E-04 -5.649721E-05 +2.309178E-04 +4.829174E-03 
 -3.692249E-04 -2.501887E-04 -7.013556E-05 -2.501887E-04 +3.354882E-04 +8.104103E-05 -7.013556E-05 +8.104103E-05 +4.950376E-03 
 -1.389108E-04 +1.825805E-04 -7.270617E-05 +1.825805E-04 +1.095101E-04 -4.668986E-06 -7.270617E-05 -4.668986E-06 +5.009254E-03 
 -1.179578E-04 +1.229562E-04 -1.173956E-04 +1.229562E-04 -7.795446E-05 -2.592699E-05 -1.173956E-04 -2.592699E-05 +5.044934E-03 
 -7.319249E-05 +1.783664E-04 -4.666070E-05 +1.783664E-04 -1.381921E-04 -1.002240E-04 -4.666070E-05 -1.002240E-04 +5.139556E-03 
 -7.867151E-05 +3.846556E-04 -3.579188E-05 +3.846556E-04 -1.126043E-04 -1.486846E-04 -3.579188E-05 -1.486846E-04 +5.167032E-03 
 -2.427695E-04 +2.732086E-04 -5.521736E-06 +2.732086E-04 -5.345364E-05 -6.963776E-05 -5.521736E-06 -6.963776E-05 +5.290030E-03 
 -7.923989E-05 +3.547529E-04 -6.326791E-06 +3.547529E-04 +5.479790E-05 -5.597414E-05 -6.326791E-06 -5.597414E-05 +5.213607E-03 
 +3.685904E-04 +4.419397E-05 -6.773429E-05 +4.419397E-05 +1.506181E-04 -1.019882E-04 -6.773429E-05 -1.019882E-04 +4.832232E-03 
 +3.373446E-04 +1.509748E-04 +4.350630E-06 +1.509748E-04 +1.758271E-04 -8.488256E-05 +4.350630E-06 -8.488256E-05 +4.749141E-03 
 -1.152169E-04 +5.593696E-05 +2.161533E-05 +5.593696E-05 +2.118771E-05 -8.085178E-05 +2.161533E-05 -8.085178E-05 +5.178141E-03 
 -2.640221E-04 +6.978610E-05 +9.822484E-05 +6.978610E-05 +4.516393E-05 -9.537568E-05 +9.822484E-05 -9.537568E-05 +5.202257E-03 
 -3.209682E-04 +6.663885E-05 +2.619046E-04 +6.663885E-05 +1.281977E-04 -7.071880E-05 +2.619046E-04 -7.071880E-05 +5.163558E-03 
 -9.955750E-05 +1.320652E-04 +3.086689E-04 +1.320652E-04 +4.256226E-05 -3.188802E-05 +3.086689E-04 -3.188802E-05 +5.039969E-03 
 +2.461654E-04 +3.236993E-04 +3.069654E-04 +3.236993E-04 -1.177566E-04 -7.070643E-05 +3.069654E-04 -7.070643E-05 +4.866965E-03 
 +1.288308E-04 +3.473034E-04 +1.794299E-04 +3.473034E-04 -4.763409E-05 -8.419590E-05 +1.794299E-04 -8.419590E-05 +4.725209E-03 
 +2.533570E-04 +1.042377E-05 +1.062301E-04 +1.042377E-05 +1.416760E-04 -1.132887E-04 +1.062301E-04 -1.132887E-04 +4.518701E-03 
 +3.871398E-04 +3.957075E-05 +9.687779E-05 +3.957075E-05 +2.220559E-04 -1.336424E-04 +9.687779E-05 -1.336424E-04 +4.542850E-03 
 +5.661822E-06 +1.858649E-04 +5.193143E-05 +1.858649E-04 +1.279971E-04 -3.199950E-05 +5.193143E-05 -3.199950E-05 +4.879212E-03 
 -1.435629E-04 +2.641888E-04 +3.973720E-05 +2.641888E-04 +1.446439E-04 +1.022253E-04 +3.973720E-05 +1.022253E-04 +5.114286E-03 
 -9.399922E-05 +2.114729E-04 -5.335625E-06 +2.114729E-04 +2.040852E-04 +2.094935E-04 -5.335625E-06 +2.094935E-04 +4.925494E-03 
 +7.714255E-05 +1.116983E-05 -4.753273E-05 +1.116983E-05 +2.400505E-04 +2.558116E-04 -4.753273E-05 +2.558116E-04 +4.771716E-03 
 -4.511645E-04 -2.744734E-04 -3.918839E-05 -2.744734E-04 +3.907245E-04 +2.107488E-04 -3.918839E-05 +2.107488E-04 +4.990022E-03 
 -1.281093E-04 +1.345325E-04 -4.358841E-05 +1.345325E-04 +2.362588E-04 +9.149280E-05 -4.358841E-05 +9.149280E-05 +5.031414E-03 
 -8.568748E-05 +7.467357E-05 -1.090637E-04 +7.467357E-05 -3.424212E-05 +1.653473E-05 -1.090637E-04 +1.653473E-05 +5.028549E-03 
 -3.778760E-05 +9.320788E-06 -5.842729E-05 +9.320788E-06 -1.320161E-04 -4.431003E-05 -5.842729E-05 -4.431003E-05 +5.143542E-03 
 -1.042211E-05 +1.451599E-04 -2.895684E-05 +1.451599E-04 -1.531549E-04 -1.154060E-04 -2.895684E-05 -1.154060E-04 +5.161756E-03 
 -1.094602E-04 +2.341398E-04 -3.833087E-05 +2.341398E-04 -8.738624E-05 -7.943840E-05 -3.833087E-05 -7.943840E-05 +5.286658E-03 
 -2.909055E-05 +4.261314E-04 -4.146809E-05 +4.261314E-04 -7.686261E-05 -7.095881E-05 -4.146809E-05 -7.095881E-05 +5.301787E-03 
 +3.649925E-04 +1.603415E-04 -9.826983E-05 +1.603415E-04 -1.399858E-05 -7.046156E-05 -9.826983E-05 -7.046156E-05 +5.036719E-03 
 +4.258733E-04 +1.449955E-04 -4.246475E-05 +1.449955E-04 +6.158730E-05 -4.628407E-05 -4.246475E-05 -4.628407E-05 +5.002936E-03 
 -3.331146E-04 -9.743545E-05 -2.875835E-06 -9.743545E-05 +6.018134E-06 -6.361343E-05 -2.875835E-06 -6.361343E-05 +5.200720E-03 
 -2.253419E-04 -3.993826E-05 +1.106738E-04 -3.993826E-05 +9.788443E-05 -6.085666E-05 +1.106738E-04 -6.085666E-05 +5.160653E-03 
 -7.559705E-05 +9.038617E-05 +2.273014E-04 +9.038617E-05 +4.215544E-05 -1.887456E-05 +2.273014E-04 -1.887456E-05 +5.130895E-03 
 +1.061866E-04 +8.047453E-05 +2.484721E-04 +8.047453E-05 +2.145271E-04 -6.255069E-05 +2.484721E-04 -6.255069E-05 +5.056147E-03 
 +1.841265E-04 +4.949960E-05 +2.535211E-04 +4.949960E-05 +2.370890E-04 -6.680201E-05 +2.535211E-04 -6.680201E-05 +4.940881E-03 
 +1.079148E-04 -1.423140E-05 +1.385928E-04 -1.423140E-05 +8.055761E-05 -3.233200E-05 +1.385928E-04 -3.233200E-05 +4.863868E-03 
 +1.297125E-04 -1.751039E-04 +7.336765E-05 -1.751039E-04 +1.200927E-04 -5.967522E-05 +7.336765E-05 -5.967522E-05 +4.708696E-03 
 +3.335739E-04 -7.772705E-05 +9.007889E-05 -7.772705E-05 +2.845556E-04 -9.725594E-05 +9.007889E-05 -9.725594E-05 +4.526730E-03 
 +1.209393E-04 -1.181193E-05 +4.570441E-05 -1.181193E-05 +2.812072E-04 -6.784659E-05 +4.570441E-05 -6.784659E-05 +4.722326E-03 
 -1.567193E-04 +2.729326E-04 +2.809067E-05 +2.729326E-04 +1.975636E-04 +2.411593E-05 +2.809067E-05 +2.411593E-05 +5.011654E-03 
 +1.393328E-05 +2.803894E-04 -2.994724E-05 +2.803894E-04 +3.046674E-04 +1.295842E-04 -2.994724E-05 +1.295842E-04 +4.824847E-03 
 -2.933560E-05 +1.389207E-04 -5.628381E-05 +1.389207E-04 +3.176847E-04 +2.533108E-04 -5.628381E-05 +2.533108E-04 +4.737536E-03 
 -3.624338E-04 -7.951126E-06 -5.391519E-05 -7.951126E-06 +2.902954E-04 +2.906154E-04 -5.391519E-05 +2.906154E-04 +4.963173E-03 
 -3.084977E-04 +5.331878E-05 -7.680665E-06 +5.331878E-05 +2.808426E-04 +1.640132E-04 -7.680665E-06 +1.640132E-04 +4.995029E-03 
 -1.860310E-04 +8.851949E-06 -2.446617E-05 +8.851949E-06 +9.664549E-05 +5.789904E-05 -2.446617E-05 +5.789904E-05 +5.028144E-03 
 -1.890176E-04 -8.877272E-06 -5.046902E-06 -8.877272E-06 -3.320015E-05 +2.781781E-05 -5.046902E-06 +2.781781E-05 +5.139447E-03 
 -9.716085E-05 +3.383777E-05 +1.425206E-05 +3.383777E-05 -2.147189E-04 -5.317460E-05 +1.425206E-05 -5.317460E-05 +5.150940E-03 
 +1.201568E-04 -3.425589E-05 -5.057459E-05 -3.425589E-05 -4.437302E-04 -9.970600E-05 -5.057459E-05 -9.970600E-05 +5.263296E-03 
 +1.444565E-04 +8.282336E-05 -5.589595E-05 +8.282336E-05 -6.145511E-04 -6.802588E-05 -5.589595E-05 -6.802588E-05 +5.372510E-03 
 +3.395923E-04 -2.491101E-05 -1.889085E-05 -2.491101E-05 -7.221049E-04 +1.591188E-05 -1.889085E-05 +1.591188E-05 +5.306955E-03 
 +3.626732E-04 -1.313676E-06 -3.344875E-05 -1.313676E-06 -4.733144E-04 +4.064272E-05 -3.344875E-05 +4.064272E-05 +5.245909E-03 
 -1.587076E-04 +2.030100E-05 -2.423231E-05 +2.030100E-05 -4.676836E-05 +1.086709E-04 -2.423231E-05 +1.086709E-04 +5.098027E-03 
 -8.735221E-05 -3.721580E-05 +7.379789E-05 -3.721580E-05 +5.726366E-07 +1.609026E-04 +7.379789E-05 +1.609026E-04 +5.037668E-03 
 +4.574945E-05 +1.093192E-04 +1.574102E-04 +1.093192E-04 -2.607001E-05 +1.725737E-04 +1.574102E-04 +1.725737E-04 +5.012395E-03 
 +1.502294E-04 +1.563076E-04 +1.005321E-04 +1.563076E-04 +2.325844E-04 +2.653512E-05 +1.005321E-04 +2.653512E-05 +4.982668E-03 
 -6.277657E-05 -2.184098E-04 +9.378066E-05 -2.184098E-04 +3.281590E-04 -8.652142E-06 +9.378066E-05 -8.652142E-06 +4.974609E-03 
 +6.317997E-05 -1.324352E-04 +6.744685E-05 -1.324352E-04 +9.876786E-05 -5.778803E-06 +6.744685E-05 -5.778803E-06 +4.936740E-03 
 +1.470542E-04 -2.142172E-04 +5.717529E-05 -2.142172E-04 +8.469085E-05 -5.407899E-05 +5.717529E-05 -5.407899E-05 +4.829251E-03 
 +2.063281E-04 -2.627137E-04 +7.256851E-05 -2.627137E-04 +1.002511E-04 -7.050383E-05 +7.256851E-05 -7.050383E-05 +4.717803E-03 
 +1.112234E-04 -3.411684E-04 +5.643511E-05 -3.411684E-04 +1.523592E-04 -7.671135E-05 +5.643511E-05 -7.671135E-05 +4.802181E-03 
 -2.741329E-05 -2.150071E-04 +9.498057E-06 -2.150071E-04 +8.152132E-05 -8.644831E-05 +9.498057E-06 -8.644831E-05 +4.963536E-03 
 +1.724479E-04 -4.848402E-06 -4.565669E-05 -4.848402E-06 -2.766138E-06 +1.768501E-05 -4.565669E-05 +1.768501E-05 +4.882231E-03 
 +1.397364E-04 -1.793956E-04 -1.562863E-05 -1.793956E-04 +1.825328E-04 +1.629507E-04 -1.562863E-05 +1.629507E-04 +4.826560E-03 
 -2.262166E-04 -1.284543E-04 -3.095974E-06 -1.284543E-04 +4.094147E-04 +2.227276E-04 -3.095974E-06 +2.227276E-04 +4.916709E-03 
 -3.150185E-04 -2.959420E-05 +9.732939E-05 -2.959420E-05 +4.138371E-04 +2.006740E-04 +9.732939E-05 +2.006740E-04 +4.983773E-03 
 -3.650438E-04 +2.066665E-05 +9.271444E-05 +2.066665E-05 +1.671007E-04 +1.174019E-04 +9.271444E-05 +1.174019E-04 +5.086162E-03 
 -3.225276E-04 +4.581136E-05 +9.140077E-05 +4.581136E-05 +5.976469E-06 +6.677029E-05 +9.140077E-05 +6.677029E-05 +5.160218E-03 
 -2.329855E-04 +4.268896E-05 +1.034119E-04 +4.268896E-05 -1.328563E-04 -6.537550E-06 +1.034119E-04 -6.537550E-06 +5.153573E-03 
 +6.784899E-05 -1.935069E-05 -6.592884E-05 -1.935069E-05 -4.811381E-04 -8.540121E-05 -6.592884E-05 -8.540121E-05 +5.240289E-03 
 +2.588828E-04 +3.239444E-05 -7.448230E-05 +3.239444E-05 -8.010805E-04 -6.571252E-05 -7.448230E-05 -6.571252E-05 +5.361389E-03 
 +2.712612E-04 -4.104466E-05 +1.811094E-05 -4.104466E-05 -7.526215E-04 -4.166523E-06 +1.811094E-05 -4.166523E-06 +5.378556E-03 
 +1.639774E-04 +1.488935E-04 -1.429784E-05 +1.488935E-04 -3.538039E-04 +8.095535E-05 -1.429784E-05 +8.095535E-05 +5.266696E-03 
 -2.459984E-05 +7.228020E-05 -1.724335E-05 +7.228020E-05 -3.650551E-05 +1.820085E-04 -1.724335E-05 +1.820085E-04 +5.076991E-03 
 -2.409310E-06 -1.842231E-04 -2.864901E-06 -1.842231E-04 -5.840832E-06 +1.644502E-04 -2.864901E-06 +1.644502E-04 +5.017345E-03 
 +1.134119E-04 +1.533996E-06 +4.012402E-05 +1.533996E-06 +3.434143E-06 +1.312432E-04 +4.012402E-05 +1.312432E-04 +4.994877E-03 
 +1.706910E-04 +3.069223E-04 -4.438760E-05 +3.069223E-04 +1.395062E-04 -2.746884E-05 -4.438760E-05 -2.746884E-05 +4.995447E-03 
 -1.339910E-04 -2.465367E-04 -4.457339E-05 -2.465367E-04 +2.623350E-04 -4.843638E-05 -4.457339E-05 -4.843638E-05 +4.997218E-03 
 -4.229836E-05 -1.432713E-04 +1.981902E-05 -1.432713E-04 +2.362124E-04 -3.481369E-05 +1.981902E-05 -3.481369E-05 +4.936310E-03 
 +7.271068E-05 -2.093973E-04 +7.430853E-05 -2.093973E-04 +1.444921E-04 -8.415709E-05 +7.430853E-05 -8.415709E-05 +4.875115E-03 
 +7.196612E-05 -2.147535E-04 +1.017375E-04 -2.147535E-04 +1.040101E-04 -1.274646E-04 +1.017375E-04 -1.274646E-04 +4.892655E-03 
 -3.189422E-07 -1.826990E-04 +9.508266E-05 -1.826990E-04 +9.290375E-05 -1.552866E-04 +9.508266E-05 -1.552866E-04 +4.951778E-03 
 +3.187009E-05 -1.752928E-04 +3.964812E-05 -1.752928E-04 +6.641787E-05 -1.805828E-04 +3.964812E-05 -1.805828E-04 +5.015209E-03 
 +1.140589E-04 -6.086574E-05 -3.030951E-05 -6.086574E-05 -5.683587E-06 -6.954925E-05 -3.030951E-05 -6.954925E-05 +5.017263E-03 
 +2.529102E-04 -3.556355E-04 -1.888450E-05 -3.556355E-04 -5.583743E-05 +7.764975E-05 -1.888450E-05 +7.764975E-05 +4.961159E-03 
 +5.107595E-05 -3.615017E-04 +1.966983E-06 -3.615017E-04 +1.453802E-05 +1.042348E-04 +1.966983E-06 +1.042348E-04 +4.953519E-03 
 -6.041144E-05 -3.783559E-04 +8.649694E-05 -3.783559E-04 +1.503486E-04 +1.104423E-04 +8.649694E-05 +1.104423E-04 +5.014193E-03 
 -2.632344E-04 -2.478888E-04 +1.277788E-04 -2.478888E-04 +2.126922E-04 +1.424156E-04 +1.277788E-04 +1.424156E-04 +5.111930E-03 
 -2.548593E-04 +4.709636E-05 +1.432052E-04 +4.709636E-05 +6.774967E-07 +1.140279E-04 +1.432052E-04 +1.140279E-04 +5.164006E-03 
 -1.813630E-04 +1.912317E-04 +1.175819E-04 +1.912317E-04 -2.465870E-04 +2.909082E-05 +1.175819E-04 +2.909082E-05 +5.157386E-03 
 -1.561410E-04 +1.287790E-05 -6.314805E-05 +1.287790E-05 -4.495099E-04 +1.680976E-05 -6.314805E-05 +1.680976E-05 +5.226429E-03 
 -9.131339E-07 +2.481697E-05 -8.657946E-05 +2.481697E-05 -6.680307E-04 +1.026763E-05 -8.657946E-05 +1.026763E-05 +5.325223E-03 
 +1.868589E-04 +1.199377E-04 -7.714458E-05 +1.199377E-04 -5.548948E-04 +2.048198E-05 -7.714458E-05 +2.048198E-05 +5.312219E-03 
 +5.497006E-05 +4.139952E-04 -2.661628E-05 +4.139952E-04 -2.356511E-04 +1.485538E-04 -2.661628E-05 +1.485538E-04 +5.199544E-03 
 +3.329848E-05 +3.345716E-04 -1.263322E-05 +3.345716E-04 -1.817732E-04 +1.681579E-04 -1.263322E-05 +1.681579E-04 +5.171922E-03 
 +1.075042E-05 -4.251674E-05 -3.078386E-05 -4.251674E-05 -8.312340E-05 +1.361138E-04 -3.078386E-05 +1.361138E-04 +5.086266E-03 
 +1.022653E-04 +2.046201E-04 -3.260487E-05 +2.046201E-04 -7.246107E-06 +8.803105E-05 -3.260487E-05 +8.803105E-05 +5.045220E-03 
 +7.373733E-05 +2.821782E-04 -5.598140E-05 +2.821782E-04 +1.389203E-04 -1.615401E-05 -5.598140E-05 -1.615401E-05 +5.051687E-03 
 -1.124742E-04 -3.753117E-04 -5.709388E-05 -3.753117E-04 +1.912050E-04 -4.633254E-05 -5.709388E-05 -4.633254E-05 +5.007614E-03 
 +2.960730E-05 -1.903115E-04 -6.830582E-06 -1.903115E-04 +2.534379E-04 -6.145827E-05 -6.830582E-06 -6.145827E-05 +4.944077E-03 
 -1.762571E-05 -1.873126E-04 +3.389873E-05 -1.873126E-04 +1.677434E-04 -8.352750E-05 +3.389873E-05 -8.352750E-05 +4.939465E-03 
 -3.784676E-05 -1.569306E-04 +7.326790E-05 -1.569306E-04 +1.073762E-04 -9.676210E-05 +7.326790E-05 -9.676210E-05 +4.964174E-03 
 -6.120819E-05 -1.896716E-04 +8.907677E-05 -1.896716E-04 +1.171148E-04 -1.312310E-04 +8.907677E-05 -1.312310E-04 +5.004811E-03 
 -7.547325E-05 -2.098706E-04 +5.738951E-05 -2.098706E-04 +1.200848E-04 -1.439125E-04 +5.738951E-05 -1.439125E-04 +5.065831E-03 
 -5.974943E-05 -1.450018E-04 -1.600785E-05 -1.450018E-04 +4.250912E-05 -4.909782E-05 -1.600785E-05 -4.909782E-05 +5.074615E-03 
 +2.326050E-04 -3.078828E-04 -6.014263E-05 -3.078828E-04 -8.509692E-05 +6.308453E-05 -6.014263E-05 +6.308453E-05 +5.031781E-03 
 +2.030900E-04 -3.407376E-04 -3.893403E-05 -3.407376E-04 -1.319887E-04 +4.489768E-05 -3.893403E-05 +4.489768E-05 +5.038340E-03 
 +1.037047E-04 -4.084001E-04 +1.652892E-05 -4.084001E-04 -1.133596E-04 +1.462655E-05 +1.652892E-05 +1.462655E-05 +5.065224E-03 
 +3.788169E-05 -4.084234E-04 +8.148310E-05 -4.084234E-04 -2.313028E-05 +7.335126E-05 +8.148310E-05 +7.335126E-05 +5.080571E-03 
 +4.891866E-05 -4.065299E-04 +1.392030E-04 -4.065299E-04 -1.612402E-04 +1.032539E-04 +1.392030E-04 +1.032539E-04 +5.087305E-03 
 -4.710311E-05 -1.877920E-05 +1.250356E-04 -1.877920E-05 -2.702454E-04 +6.482659E-05 +1.250356E-04 +6.482659E-05 +5.104361E-03 
 -3.320264E-04 -1.435638E-04 +1.879610E-05 -1.435638E-04 -5.183167E-05 +8.676790E-05 +1.879610E-05 +8.676790E-05 +5.158279E-03 
 -2.061018E-04 -4.719408E-05 +1.383080E-05 -4.719408E-05 -1.004027E-04 +6.747099E-05 +1.383080E-05 +6.747099E-05 +5.212487E-03 
 +5.818097E-05 +3.403539E-04 -5.027531E-05 +3.403539E-04 -2.823562E-04 +4.701310E-05 -5.027531E-05 +4.701310E-05 +5.244817E-03 
 +1.546966E-05 +5.397535E-04 -4.383974E-05 +5.397535E-04 -3.216645E-04 +1.369629E-04 -4.383974E-05 +1.369629E-04 +5.233677E-03 
 +6.237115E-05 +3.266526E-04 -5.389756E-05 +3.266526E-04 -2.314763E-04 +6.529655E-05 -5.389756E-05 +6.529655E-05 +5.187288E-03 
 -5.214469E-06 -1.907771E-04 -3.344113E-05 -1.907771E-04 -2.972176E-05 +2.954621E-05 -3.344113E-05 +2.954621E-05 +5.114457E-03 
 +8.271495E-05 +1.506685E-04 -5.772769E-05 +1.506685E-04 +1.238620E-04 +4.320271E-05 -5.772769E-05 +4.320271E-05 +5.085545E-03 
 +2.511158E-05 +3.363551E-04 -8.195650E-05 +3.363551E-04 +7.973409E-05 +3.397064E-05 -8.195650E-05 +3.397064E-05 +5.074403E-03 
 +1.848425E-05 -1.784256E-04 -6.437677E-05 -1.784256E-04 -1.231135E-04 +2.079928E-05 -6.437677E-05 +2.079928E-05 +5.000552E-03 
 +1.066154E-04 +3.008316E-05 -2.756277E-05 +3.008316E-05 -1.814846E-04 -1.959246E-05 -2.756277E-05 -1.959246E-05 +4.975323E-03 
 -2.032030E-04 -1.484346E-04 -1.625972E-05 -1.484346E-04 +8.293981E-05 -9.922109E-05 -1.625972E-05 -9.922109E-05 +5.010792E-03 
 -1.913749E-04 -1.780932E-04 +5.203711E-05 -1.780932E-04 +2.011986E-04 -1.122508E-04 +5.203711E-05 -1.122508E-04 +5.020355E-03 
 -1.489893E-04 -2.202669E-04 +8.639112E-05 -2.202669E-04 +1.622307E-04 -1.161538E-04 +8.639112E-05 -1.161538E-04 +5.036639E-03 
 -1.753018E-04 -2.000481E-04 +5.898291E-05 -2.000481E-04 +1.194114E-04 -9.408557E-05 +5.898291E-05 -9.408557E-05 +5.087050E-03 
 -8.948389E-05 -1.720805E-04 +1.118704E-05 -1.720805E-04 +3.854496E-06 -1.625609E-05 +1.118704E-05 -1.625609E-05 +5.114386E-03 
 +2.216908E-04 -2.772040E-04 -4.631410E-05 -2.772040E-04 -1.323718E-04 +4.642798E-05 -4.631410E-05 +4.642798E-05 +5.108412E-03 
 +2.344479E-04 -2.745366E-04 -2.407219E-05 -2.745366E-04 -1.963834E-04 +1.861414E-05 -2.407219E-05 +1.861414E-05 +5.129290E-03 
 +1.810612E-04 -3.213163E-04 +3.545601E-05 -3.213163E-04 -1.808067E-04 -6.999595E-06 +3.545601E-05 -6.999595E-06 +5.138678E-03 
 +1.873489E-04 -3.676519E-04 +6.638699E-05 -3.676519E-04 -2.024327E-04 +7.416380E-06 +6.638699E-05 +7.416380E-06 +5.085408E-03 
 +2.679749E-04 -4.402066E-04 +9.158509E-05 -4.402066E-04 -1.068973E-04 +2.298504E-05 +9.158509E-05 +2.298504E-05 +5.027493E-03 
 -1.192962E-04 -1.701061E-04 +1.012970E-04 -1.701061E-04 +1.009644E-05 +2.692071E-05 +1.012970E-04 +2.692071E-05 +5.035944E-03 
 -2.246852E-04 -2.844623E-04 +5.914359E-05 -2.844623E-04 +2.211887E-05 +5.742987E-05 +5.914359E-05 +5.742987E-05 +5.065654E-03 
 -2.042556E-04 -3.017282E-04 +5.642079E-05 -3.017282E-04 +8.604723E-05 +5.845181E-05 +5.642079E-05 +5.845181E-05 +5.092521E-03 
 -8.251524E-05 +7.488067E-05 +1.154662E-05 +7.488067E-05 -9.544039E-05 +8.563010E-05 +1.154662E-05 +8.563010E-05 +5.169197E-03 
 +5.638904E-05 +4.614130E-04 -4.370171E-05 +4.614130E-04 -2.837605E-04 +1.058879E-04 -4.370171E-05 +1.058879E-04 +5.217790E-03 
 +9.106593E-05 +3.775857E-04 -3.314023E-05 +3.775857E-04 -2.855661E-04 +5.500766E-05 -3.314023E-05 +5.500766E-05 +5.148904E-03 
 +5.355739E-05 +1.949611E-04 +2.331819E-06 +1.949611E-04 -2.015393E-04 +7.859891E-05 +2.331819E-06 +7.859891E-05 +5.137259E-03 
 +7.354580E-05 +3.088708E-04 -1.811522E-05 +3.088708E-04 -3.560672E-05 +3.392056E-05 -1.811522E-05 +3.392056E-05 +5.111528E-03 
 +1.211444E-04 +4.135670E-04 -6.792339E-05 +4.135670E-04 +3.010732E-06 +6.992244E-06 -6.792339E-05 +6.992244E-06 +5.057971E-03 
 -7.174395E-05 -3.758295E-04 -3.946419E-05 -3.758295E-04 +1.647681E-04 +1.306119E-06 -3.946419E-05 +1.306119E-06 +4.977393E-03 
 -1.259790E-04 -2.721401E-04 -2.403435E-06 -2.721401E-04 +2.083604E-04 -5.433332E-05 -2.403435E-06 -5.433332E-05 +4.985181E-03 
 -2.547411E-04 -3.675435E-04 +1.289070E-06 -3.675435E-04 +1.012068E-04 -1.316303E-04 +1.289070E-06 -1.316303E-04 +5.045527E-03 
 -1.640335E-04 -2.099514E-04 +8.497904E-05 -2.099514E-04 +1.793944E-04 -1.521005E-04 +8.497904E-05 -1.521005E-04 +5.041441E-03 
 -2.066228E-04 -2.482993E-04 +1.103679E-04 -2.482993E-04 +2.190897E-04 -1.072895E-04 +1.103679E-04 -1.072895E-04 +5.040368E-03 
 -1.772922E-04 -1.832005E-04 +7.830370E-05 -1.832005E-04 +9.367490E-05 -4.028195E-05 +7.830370E-05 -4.028195E-05 +5.092314E-03 
 -1.373224E-04 -2.057974E-04 +3.218581E-05 -2.057974E-04 -1.779436E-05 +3.024698E-05 +3.218581E-05 +3.024698E-05 +5.146267E-03 
 +2.076253E-04 -3.293101E-04 -4.071845E-05 -3.293101E-04 -1.924988E-04 +6.609599E-05 -4.071845E-05 +6.609599E-05 +5.192054E-03 
 +2.742194E-04 -2.749160E-04 -2.128810E-05 -2.749160E-04 -3.230827E-04 +4.204481E-05 -2.128810E-05 +4.204481E-05 +5.235036E-03 
 +2.596863E-04 -2.252610E-04 +5.169732E-05 -2.252610E-04 -2.841544E-04 +1.264426E-05 +5.169732E-05 +1.264426E-05 +5.220669E-03 
 +2.573181E-04 -3.787676E-04 +7.289642E-05 -3.787676E-04 -2.462564E-04 -1.814648E-05 +7.289642E-05 -1.814648E-05 +5.128634E-03 
 +2.131092E-04 -4.183785E-04 +3.898891E-05 -4.183785E-04 -1.726179E-04 -2.225447E-05 +3.898891E-05 -2.225447E-05 +5.049250E-03 
 -1.445010E-04 -2.108385E-04 +1.865178E-05 -2.108385E-04 -3.393210E-05 +2.456309E-06 +1.865178E-05 +2.456309E-06 +5.033924E-03 
 -8.500894E-05 -2.273567E-04 +3.298540E-05 -2.273567E-04 -9.004820E-06 +3.586929E-05 +3.298540E-05 +3.586929E-05 +5.038194E-03 
 -1.746770E-04 -2.321849E-04 +1.409381E-05 -2.321849E-04 +5.370901E-05 +1.776986E-05 +1.409381E-05 +1.776986E-05 +5.060984E-03 
 -1.445709E-04 -2.517937E-05 +1.143286E-06 -2.517937E-05 +1.083090E-05 +8.932004E-05 +1.143286E-06 +8.932004E-05 +5.101087E-03 
 +1.350054E-04 +4.772161E-04 -1.141115E-05 +4.772161E-04 -1.388502E-04 +9.974801E-05 -1.141115E-05 +9.974801E-05 +5.128880E-03 
 +1.627912E-04 +3.462217E-04 +3.560664E-05 +3.462217E-04 -2.542586E-04 -1.483432E-05 +3.560664E-05 -1.483432E-05 +5.156831E-03 
 +7.310275E-05 +2.013437E-04 +4.730736E-05 +2.013437E-04 -2.118980E-04 -8.773562E-06 +4.730736E-05 -8.773562E-06 +5.200094E-03 
 +5.610078E-05 +2.149178E-04 +2.191963E-05 +2.149178E-04 -1.520694E-04 -3.281255E-06 +2.191963E-05 -3.281255E-06 +5.171216E-03 
 +8.111301E-05 +4.029693E-04 -1.699844E-05 +4.029693E-04 -9.888694E-05 +1.011071E-05 -1.699844E-05 +1.011071E-05 +5.092434E-03 
 -2.689634E-04 -1.871511E-04 -1.769091E-06 -1.871511E-04 +1.082487E-04 -2.452566E-05 -1.769091E-06 -2.452566E-05 +5.008175E-03 
 -3.177615E-04 -1.158132E-04 +4.056361E-05 -1.158132E-04 +2.915179E-04 -1.280343E-04 +4.056361E-05 -1.280343E-04 +4.993049E-03 
 -2.467112E-04 -3.000422E-04 +3.643461E-05 -3.000422E-04 +1.334153E-04 -8.291054E-05 +3.643461E-05 -8.291054E-05 +5.017840E-03 
 -2.459797E-05 -2.197377E-05 +1.040550E-04 -2.197377E-05 +8.287778E-05 -3.131661E-05 +1.040550E-04 -3.131661E-05 +4.982966E-03 
 -1.925561E-04 -2.307360E-04 +1.000200E-04 -2.307360E-04 +1.933425E-04 -5.016430E-05 +1.000200E-04 -5.016430E-05 +5.004306E-03 
 -2.659439E-04 -2.132610E-04 +6.724645E-05 -2.132610E-04 +1.304447E-04 +2.019743E-05 +6.724645E-05 +2.019743E-05 +5.096706E-03 
 -1.495766E-04 -2.734303E-04 +3.901647E-05 -2.734303E-04 -3.419688E-06 +8.605668E-05 +3.901647E-05 +8.605668E-05 +5.179945E-03 
 +1.315827E-04 -4.442641E-04 +2.512259E-05 -4.442641E-04 -2.204296E-04 +1.115173E-04 +2.512259E-05 +1.115173E-04 +5.241065E-03 
 +2.100378E-04 -3.540592E-04 +4.110339E-05 -3.540592E-04 -3.618772E-04 +8.335401E-05 +4.110339E-05 +8.335401E-05 +5.262216E-03 
 +3.367490E-04 -3.590422E-04 +9.116898E-05 -3.590422E-04 -3.917646E-04 +4.413746E-05 +9.116898E-05 +4.413746E-05 +5.227585E-03 
 +4.636087E-04 -3.474465E-04 +8.665409E-05 -3.474465E-04 -2.123253E-04 +2.091986E-05 +8.665409E-05 +2.091986E-05 +5.129914E-03 
 +8.397109E-05 -2.428654E-04 +2.346249E-05 -2.428654E-04 +5.185386E-05 -8.624973E-06 +2.346249E-05 -8.624973E-06 +5.055141E-03 
 -9.359538E-06 -1.488818E-04 +7.494851E-06 -1.488818E-04 +1.837469E-05 -2.321917E-05 +7.494851E-06 -2.321917E-05 +5.028259E-03 
 -3.342855E-05 -1.949167E-04 +2.171561E-05 -1.949167E-04 -5.670399E-05 +3.721958E-06 +2.171561E-05 +3.721958E-06 +5.041608E-03 
 -1.168579E-04 -1.461525E-04 -2.654781E-06 -1.461525E-04 -3.078907E-06 -1.200696E-05 -2.654781E-06 -1.200696E-05 +5.074958E-03 
 -1.179973E-04 -2.052979E-05 -2.052351E-06 -2.052979E-05 +8.021747E-05 +6.393053E-05 -2.052351E-06 +6.393053E-05 +5.072563E-03 
 +1.443818E-04 +4.520520E-04 +1.617904E-05 +4.520520E-04 -8.215892E-05 +7.729886E-05 +1.617904E-05 +7.729886E-05 +5.085141E-03 
 +8.733354E-05 +3.488375E-04 +1.506646E-05 +3.488375E-04 -1.192434E-04 -5.035413E-06 +1.506646E-05 -5.035413E-06 +5.161694E-03 
 -5.405613E-06 +2.014010E-04 +7.033102E-06 +2.014010E-04 -1.450080E-04 -2.705383E-05 +7.033102E-06 -2.705383E-05 +5.232717E-03 
 -5.793224E-05 +1.472575E-04 -3.724570E-05 +1.472575E-04 -1.134229E-04 -4.310735E-08 -3.724570E-05 -4.310735E-08 +5.235360E-03 
 -7.811058E-05 +1.160312E-04 -6.569444E-05 +1.160312E-04 -1.385531E-04 +3.718849E-05 -6.569444E-05 +3.718849E-05 +5.208001E-03 
 -1.430853E-04 -2.291188E-04 -4.339643E-05 -2.291188E-04 +3.389256E-05 -3.076866E-05 -4.339643E-05 -3.076866E-05 +5.095805E-03 
 -2.658762E-04 -2.592765E-04 +1.805434E-05 -2.592765E-04 +2.226208E-04 -1.630330E-04 +1.805434E-05 -1.630330E-04 +5.016610E-03 
 -2.752621E-04 -3.544427E-04 +1.804310E-05 -3.544427E-04 +2.037114E-04 -7.763798E-05 +1.804310E-05 -7.763798E-05 +4.979998E-03 
 +9.584000E-08 -2.156220E-05 +7.078599E-05 -2.156220E-05 +7.970483E-05 +4.677370E-05 +7.078599E-05 +4.677370E-05 +4.884181E-03 
 -1.071139E-04 -1.480728E-04 +3.645696E-05 -1.480728E-04 +4.098076E-05 +5.762564E-05 +3.645696E-05 +5.762564E-05 +4.955079E-03 
 -2.827853E-04 -1.859437E-04 +2.693708E-05 -1.859437E-04 +3.203023E-05 +1.032884E-04 +2.693708E-05 +1.032884E-04 +5.102783E-03 
 +6.411421E-05 -6.250122E-05 +5.164272E-05 -6.250122E-05 -2.037660E-04 +1.031229E-04 +5.164272E-05 +1.031229E-04 +5.174454E-03 
 +1.300989E-04 -6.860127E-05 +1.136002E-04 -6.860127E-05 -2.815141E-04 +1.246233E-04 +1.136002E-04 +1.246233E-04 +5.207689E-03 
 +1.625341E-04 +2.125074E-04 +1.170703E-04 +2.125074E-04 -2.579241E-04 +1.209994E-04 +1.170703E-04 +1.209994E-04 +5.184859E-03 
 +3.192562E-04 +2.070240E-04 +1.291597E-04 +2.070240E-04 -2.969573E-04 +9.362943E-05 +1.291597E-04 +9.362943E-05 +5.138702E-03 
 +4.496861E-04 +1.739390E-04 +1.129095E-04 +1.739390E-04 -2.304502E-04 +8.604263E-05 +1.129095E-04 +8.604263E-05 +5.068415E-03 
 +2.005259E-05 -2.130613E-05 -1.027742E-05 -2.130613E-05 +3.036394E-05 +2.443891E-05 -1.027742E-05 +2.443891E-05 +5.004550E-03 
 +7.998060E-06 -1.363631E-04 -3.774285E-06 -1.363631E-04 +7.255282E-05 -3.012048E-05 -3.774285E-06 -3.012048E-05 +4.976399E-03 
 -1.592183E-05 -1.089503E-04 -9.965649E-06 -1.089503E-04 -4.123662E-05 -4.217211E-05 -9.965649E-06 -4.217211E-05 +5.007633E-03 
 -5.435165E-05 -1.679934E-05 -1.721117E-05 -1.679934E-05 +1.292691E-05 -6.014615E-05 -1.721117E-05 -6.014615E-05 +5.040055E-03 
 -2.786091E-05 +1.398849E-04 +5.838199E-06 +1.398849E-04 +1.678472E-04 -1.274826E-05 +5.838199E-06 -1.274826E-05 +5.042369E-03 
 +7.239001E-05 +3.006504E-04 +1.840549E-05 +3.006504E-04 +8.665617E-05 +2.891058E-05 +1.840549E-05 +2.891058E-05 +5.067836E-03 
 -8.132178E-05 +3.293428E-04 -2.684177E-05 +3.293428E-04 +1.170938E-04 +9.983202E-05 -2.684177E-05 +9.983202E-05 +5.167403E-03 
 -1.163598E-04 +1.605956E-04 -3.403698E-05 +1.605956E-04 +8.786043E-05 +9.441316E-05 -3.403698E-05 +9.441316E-05 +5.227325E-03 
 -2.397133E-04 +1.578358E-04 -5.400412E-05 +1.578358E-04 +7.190564E-05 +7.233407E-05 -5.400412E-05 +7.233407E-05 +5.238128E-03 
 -2.376487E-04 +1.411006E-04 -5.853476E-05 +1.411006E-04 -9.789287E-05 +3.920293E-05 -5.853476E-05 +3.920293E-05 +5.272358E-03 
 -1.414511E-04 +2.626945E-05 -6.435812E-05 +2.626945E-05 -8.341821E-05 -5.854967E-05 -6.435812E-05 -5.854967E-05 +5.180318E-03 
 -8.788126E-05 -3.717409E-04 -4.749122E-05 -3.717409E-04 +5.689551E-05 -1.156624E-04 -4.749122E-05 -1.156624E-04 +5.045838E-03 
 -7.831515E-05 -3.546722E-04 -2.797464E-05 -3.546722E-04 +6.421828E-05 -3.801181E-05 -2.797464E-05 -3.801181E-05 +4.964131E-03 
 +5.863159E-05 -5.089153E-05 +3.513986E-05 -5.089153E-05 +1.733901E-05 +8.321635E-05 +3.513986E-05 +8.321635E-05 +4.914117E-03 
 -2.715554E-05 -4.648268E-05 -1.711552E-05 -4.648268E-05 -1.711046E-04 +1.289477E-04 -1.711552E-05 +1.289477E-04 +5.012394E-03 
 -1.976405E-05 -1.300227E-04 +1.289840E-05 -1.300227E-04 -3.242117E-04 +8.660353E-05 +1.289840E-05 +8.660353E-05 +5.128118E-03 
 +2.009637E-04 -3.979300E-05 +5.860070E-05 -3.979300E-05 -3.313042E-04 +7.802469E-05 +5.860070E-05 +7.802469E-05 +5.153095E-03 
 +2.157211E-04 -8.242732E-05 +1.286558E-04 -8.242732E-05 -2.274246E-04 +1.260743E-04 +1.286558E-04 +1.260743E-04 +5.123185E-03 
 +2.184166E-04 +7.382515E-05 +1.568356E-04 +7.382515E-05 -2.141444E-04 +1.144041E-04 +1.568356E-04 +1.144041E-04 +5.079671E-03 
 +2.616463E-04 +1.092101E-04 +1.839203E-04 +1.092101E-04 -2.279492E-04 +9.748227E-05 +1.839203E-04 +9.748227E-05 +5.033881E-03 
 +2.403122E-04 +2.145813E-04 +9.833740E-05 +2.145813E-04 -2.216325E-04 +8.292966E-05 +9.833740E-05 +8.292966E-05 +4.970988E-03 
 -3.049782E-05 +3.183615E-04 -3.457370E-05 +3.183615E-04 -8.510601E-05 +3.064323E-05 -3.457370E-05 +3.064323E-05 +4.926352E-03 
 -5.706348E-05 -5.349855E-05 +9.637406E-06 -5.349855E-05 +1.041794E-04 -2.614774E-05 +9.637406E-06 -2.614774E-05 +4.892853E-03 
 +1.444669E-05 +9.753093E-06 -9.432359E-06 +9.753093E-06 +7.256197E-05 -1.190835E-04 -9.432359E-06 -1.190835E-04 +4.876657E-03 
 -2.348799E-06 +1.774295E-04 -4.483974E-05 +1.774295E-04 +1.000148E-04 -1.296429E-04 -4.483974E-05 -1.296429E-04 +4.956359E-03 
 -1.616961E-05 +2.556557E-04 -2.488443E-05 +2.556557E-04 +1.259533E-04 -3.820580E-05 -2.488443E-05 -3.820580E-05 +5.056543E-03 
 -7.449612E-05 +2.817557E-04 -1.544448E-05 +2.817557E-04 +1.243306E-04 +6.144930E-05 -1.544448E-05 +6.144930E-05 +5.092976E-03 
 -2.416888E-04 +2.883689E-04 -6.601107E-05 +2.883689E-04 +1.653774E-04 +1.493762E-04 -6.601107E-05 +1.493762E-04 +5.167952E-03 
 -2.371674E-04 +2.278222E-04 -5.254475E-05 +2.278222E-04 +1.176620E-04 +1.324328E-04 -5.254475E-05 +1.324328E-04 +5.211159E-03 
 -2.817754E-04 +1.959301E-04 -3.582476E-06 +1.959301E-04 +7.600268E-05 +7.451133E-05 -3.582476E-06 +7.451133E-05 +5.238692E-03 
 -2.902278E-04 +1.244921E-04 +2.307663E-05 +1.244921E-04 -1.371107E-05 +1.453668E-05 +2.307663E-05 +1.453668E-05 +5.263440E-03 
 -2.871147E-04 +1.790087E-04 -3.583640E-06 +1.790087E-04 -1.570981E-04 -8.604395E-05 -3.583640E-06 -8.604395E-05 +5.208861E-03 
 +7.995556E-05 -1.975016E-04 -1.243701E-04 -1.975016E-04 -2.639388E-04 -2.982066E-05 -1.243701E-04 -2.982066E-05 +5.065363E-03 
 +9.195542E-05 -2.081849E-04 -1.051514E-04 -2.081849E-04 -2.265541E-04 +3.266904E-05 -1.051514E-04 +3.266904E-05 +4.970752E-03 
 +1.240954E-04 -1.281641E-04 +1.124297E-05 -1.281641E-04 -2.557707E-04 -2.956835E-05 +1.124297E-05 -2.956835E-05 +5.031425E-03 
 +9.220905E-05 -1.318072E-04 +1.615138E-05 -1.318072E-04 -3.735407E-04 -1.313257E-05 +1.615138E-05 -1.313257E-05 +5.124494E-03 
 +1.337681E-04 -1.903454E-04 +3.376880E-05 -1.903454E-04 -3.635612E-04 +3.646092E-06 +3.376880E-05 +3.646092E-06 +5.148540E-03 
 +1.460969E-04 -1.653358E-04 +5.827356E-05 -1.653358E-04 -2.857348E-04 +5.106593E-05 +5.827356E-05 +5.106593E-05 +5.129488E-03 
 +2.069237E-04 -1.568109E-04 +1.040693E-04 -1.568109E-04 -1.681778E-04 +5.794859E-05 +1.040693E-04 +5.794859E-05 +5.058127E-03 
 +2.545094E-04 -1.945433E-04 +1.634865E-04 -1.945433E-04 -1.789726E-04 +4.931053E-05 +1.634865E-04 +4.931053E-05 +4.970354E-03 
 +2.450965E-04 +1.953229E-05 +1.477501E-04 +1.953229E-05 -1.784940E-04 -2.104727E-05 +1.477501E-04 -2.104727E-05 +4.909733E-03 
 +1.500006E-04 +3.733007E-05 -1.370253E-05 +3.733007E-05 +3.569476E-05 -1.642399E-04 -1.370253E-05 -1.642399E-04 +4.870106E-03 
 +8.653162E-05 +1.111455E-04 -2.221753E-05 +1.111455E-04 -1.174439E-05 -1.943750E-04 -2.221753E-05 -1.943750E-04 +4.848762E-03 
 +7.155195E-05 +1.400045E-05 +2.185422E-05 +1.400045E-05 -1.978700E-05 -2.044286E-04 +2.185422E-05 -2.044286E-04 +4.798597E-03 
 +1.011721E-04 +1.253492E-04 -1.935477E-05 +1.253492E-04 +1.624545E-04 -2.539144E-04 -1.935477E-05 -2.539144E-04 +4.778149E-03 
 -9.301539E-05 +2.750467E-04 -8.117477E-05 +2.750467E-04 +1.777970E-04 -1.844786E-04 -8.117477E-05 -1.844786E-04 +4.975185E-03 
 -1.275404E-04 +1.816913E-04 -7.327888E-05 +1.816913E-04 +6.255245E-05 -9.770455E-06 -7.327888E-05 -9.770455E-06 +5.132224E-03 
 -2.252028E-04 +3.204940E-04 -6.024008E-05 +3.204940E-04 +8.710193E-05 +1.135020E-04 -6.024008E-05 +1.135020E-04 +5.139207E-03 
 -2.808039E-04 +2.463591E-04 -1.244285E-04 +2.463591E-04 +1.325083E-04 +1.488816E-04 -1.244285E-04 +1.488816E-04 +5.191078E-03 
 -2.851843E-04 +2.434627E-04 -9.267794E-05 +2.434627E-04 +1.077560E-04 +1.124540E-04 -9.267794E-05 +1.124540E-04 +5.229547E-03 
 -3.366434E-04 +2.061988E-04 -1.956638E-05 +2.061988E-04 +6.637940E-05 +1.347527E-05 -1.956638E-05 +1.347527E-05 +5.281293E-03 
 -2.899532E-04 +1.475240E-04 -2.221834E-06 +1.475240E-04 +2.203831E-05 -8.146533E-05 -2.221834E-06 -8.146533E-05 +5.274933E-03 
 -2.185522E-04 +1.666488E-04 -2.975998E-05 +1.666488E-04 -2.225405E-04 -1.619800E-04 -2.975998E-05 -1.619800E-04 +5.161167E-03 
 +8.008282E-05 -6.391547E-05 -1.234062E-04 -6.391547E-05 -3.769271E-04 -4.047748E-05 -1.234062E-04 -4.047748E-05 +5.014483E-03 
 +1.212949E-04 -1.472725E-04 -7.710412E-05 -1.472725E-04 -2.906492E-04 +8.834432E-05 -7.710412E-05 +8.834432E-05 +4.982784E-03 
 +1.074972E-04 -1.468205E-04 +5.252401E-05 -1.468205E-04 -2.929357E-04 +9.073665E-06 +5.252401E-05 +9.073665E-06 +5.080636E-03 
 +1.374343E-04 -1.981167E-04 +7.934334E-05 -1.981167E-04 -3.153498E-04 -9.089024E-06 +7.934334E-05 -9.089024E-06 +5.133806E-03 
 +1.095169E-04 -2.497534E-04 +3.871117E-05 -2.497534E-04 -2.681109E-04 -7.812299E-06 +3.871117E-05 -7.812299E-06 +5.111388E-03 
 +1.402958E-04 -2.317080E-04 +5.663444E-05 -2.317080E-04 -2.026023E-04 -1.152306E-06 +5.663444E-05 -1.152306E-06 +5.077966E-03 
 +2.322644E-04 -1.575865E-04 +7.895253E-05 -1.575865E-04 -1.929699E-04 -4.173060E-06 +7.895253E-05 -4.173060E-06 +5.009817E-03 
 +2.754577E-04 -1.984537E-04 +9.671166E-05 -1.984537E-04 -9.897229E-05 -5.086696E-05 +9.671166E-05 -5.086696E-05 +4.879866E-03 
 +1.890579E-04 +2.570543E-05 -3.413717E-06 +2.570543E-05 +1.855423E-05 -1.898412E-04 -3.413717E-06 -1.898412E-04 +4.822371E-03 
 +1.362028E-04 +9.675178E-05 -6.401297E-05 +9.675178E-05 +1.507545E-05 -2.201044E-04 -6.401297E-05 -2.201044E-04 +4.834111E-03 
 +2.309015E-04 +9.681565E-05 -3.085704E-05 +9.681565E-05 -1.243472E-05 -1.603932E-04 -3.085704E-05 -1.603932E-04 +4.792467E-03 
 +2.277402E-04 +5.014273E-06 -1.622234E-05 +5.014273E-06 +2.243714E-05 -1.805555E-04 -1.622234E-05 -1.805555E-04 +4.727982E-03 
 +8.920757E-05 -7.617004E-05 -1.420615E-05 -7.617004E-05 +1.849923E-04 -1.282007E-04 -1.420615E-05 -1.282007E-04 +4.765340E-03 
 -1.730967E-04 -9.723854E-06 -6.821613E-05 -9.723854E-06 +2.900316E-04 -5.875436E-06 -6.821613E-05 -5.875436E-06 +4.942894E-03 
 -1.959939E-04 -8.725987E-05 -1.084438E-04 -8.725987E-05 +1.785744E-04 +1.138834E-04 -1.084438E-04 +1.138834E-04 +5.045676E-03 
 -2.965599E-04 +3.289682E-04 -1.256171E-04 +3.289682E-04 +1.079661E-04 +1.622325E-04 -1.256171E-04 +1.622325E-04 +5.125893E-03 
 -2.930716E-04 +2.708766E-04 -1.579677E-04 +2.708766E-04 +9.859824E-05 +1.257497E-04 -1.579677E-04 +1.257497E-04 +5.197718E-03 
 -3.362013E-04 +2.054719E-04 -1.143393E-04 +2.054719E-04 +1.002973E-04 +5.426292E-05 -1.143393E-04 +5.426292E-05 +5.256710E-03 
 -3.254540E-04 +1.830690E-04 -4.168050E-05 +1.830690E-04 +5.158489E-05 -3.230778E-05 -4.168050E-05 -3.230778E-05 +5.323374E-03 
 -1.947523E-04 +1.548780E-04 -2.090346E-05 +1.548780E-04 -6.164539E-05 -6.013902E-05 -2.090346E-05 -6.013902E-05 +5.253440E-03 
 -7.621878E-05 +1.017740E-04 -5.254998E-05 +1.017740E-04 -1.791468E-04 -4.605590E-05 -5.254998E-05 -4.605590E-05 +5.034914E-03 
 -4.375532E-05 +4.078315E-05 -6.333807E-05 +4.078315E-05 -2.162551E-04 +4.883343E-05 -6.333807E-05 +4.883343E-05 +4.897825E-03 
 +2.491796E-05 -1.303192E-04 +1.844485E-05 -1.303192E-04 -2.689625E-04 +6.764566E-05 +1.844485E-05 +6.764566E-05 +4.958972E-03 
 +4.457054E-05 -1.936521E-04 +1.379879E-04 -1.936521E-04 -2.639764E-04 -8.267945E-06 +1.379879E-04 -8.267945E-06 +5.061231E-03 
 +7.782663E-05 -2.653419E-04 +9.603634E-05 -2.653419E-04 -2.297480E-04 -1.742705E-05 +9.603634E-05 -1.742705E-05 +5.073618E-03 
 +1.123883E-04 -2.604056E-04 +6.261021E-05 -2.604056E-04 -2.429102E-04 -1.344838E-05 +6.261021E-05 -1.344838E-05 +5.059874E-03 
 +1.526459E-04 -2.641971E-04 +5.797580E-05 -2.641971E-04 -2.587248E-04 -6.889485E-06 +5.797580E-05 -6.889485E-06 +5.056767E-03 
 +2.469143E-04 -2.314597E-04 +8.596751E-06 -2.314597E-04 -2.646145E-04 -4.846631E-05 +8.596751E-06 -4.846631E-05 +4.995000E-03 
 +3.016901E-04 -2.144087E-04 -3.322738E-05 -2.144087E-04 -1.549492E-04 -1.481326E-04 -3.322738E-05 -1.481326E-04 +4.869770E-03 
 +2.464832E-04 +2.286755E-05 -1.150089E-04 +2.286755E-05 -6.097142E-05 -2.652923E-04 -1.150089E-04 -2.652923E-04 +4.871120E-03 
 +2.286357E-04 +1.341061E-04 -3.972477E-05 +1.341061E-04 -4.391945E-05 -2.261091E-04 -3.972477E-05 -2.261091E-04 +4.878219E-03 
 +2.053942E-04 +8.733402E-05 -8.111358E-05 +8.733402E-05 +7.232827E-05 -1.356273E-04 -8.111358E-05 -1.356273E-04 +4.769497E-03 
 +6.488400E-05 -8.650514E-05 +1.260592E-06 -8.650514E-05 +1.824115E-04 -1.126253E-04 +1.260592E-06 -1.126253E-04 +4.703505E-03 
 -2.982444E-05 -1.775395E-04 +5.462663E-05 -1.775395E-04 +2.035140E-04 -6.800700E-05 +5.462663E-05 -6.800700E-05 +4.735834E-03 
 -8.726742E-05 -1.556838E-04 -1.813653E-05 -1.556838E-04 +2.130568E-04 -5.547393E-05 -1.813653E-05 -5.547393E-05 +4.786546E-03 
 -3.387143E-05 -1.856672E-04 -7.030258E-05 -1.856672E-04 +2.018741E-04 -1.873514E-06 -7.030258E-05 -1.873514E-06 +4.876431E-03 
 -2.859823E-04 +3.261574E-04 -1.754241E-04 +3.261574E-04 +1.329612E-04 +9.756647E-05 -1.754241E-04 +9.756647E-05 +5.074448E-03 
 -3.879656E-05 +2.940898E-04 -1.936839E-04 +2.940898E-04 +3.477643E-05 +1.159292E-04 -1.936839E-04 +1.159292E-04 +5.123667E-03 
 -1.171216E-04 +2.080408E-04 -1.141658E-04 +2.080408E-04 -1.476123E-05 -1.071856E-05 -1.141658E-04 -1.071856E-05 +5.251469E-03 
 -2.650239E-04 +2.358759E-04 -1.047679E-05 +2.358759E-04 -4.749896E-05 -5.270922E-05 -1.047679E-05 -5.270922E-05 +5.254276E-03 
 -7.238680E-05 +6.187192E-05 -5.132495E-05 +6.187192E-05 -1.077405E-04 -6.796591E-07 -5.132495E-05 -6.796591E-07 +5.140343E-03 
 -9.405416E-05 +4.373259E-05 -4.082155E-05 +4.373259E-05 -1.699297E-04 +5.967872E-05 -4.082155E-05 +5.967872E-05 +5.067954E-03 
 -9.159455E-05 +3.431310E-05 -1.027292E-05 +3.431310E-05 -2.749126E-04 +4.442981E-05 -1.027292E-05 +4.442981E-05 +5.088028E-03 
 -4.082694E-06 -1.698036E-05 +1.701494E-04 -1.698036E-05 -2.769692E-04 -1.301786E-05 +1.701494E-04 -1.301786E-05 +5.189955E-03 
 +6.561817E-05 +7.269845E-05 +2.191185E-04 +7.269845E-05 -1.880288E-04 -9.380031E-06 +2.191185E-04 -9.380031E-06 +5.128024E-03 
 +6.299801E-05 +3.986993E-05 +1.611508E-04 +3.986993E-05 -1.539033E-04 +2.588031E-05 +1.611508E-04 +2.588031E-05 +5.045447E-03 
 +4.139617E-05 -6.025724E-06 +1.102605E-04 -6.025724E-06 -9.024405E-05 +4.478877E-05 +1.102605E-04 +4.478877E-05 +5.015038E-03 
 +8.010021E-05 -1.241867E-04 +7.809128E-05 -1.241867E-04 -1.596582E-04 +4.495693E-05 +7.809128E-05 +4.495693E-05 +5.004526E-03 
 +1.312583E-04 -1.508189E-04 +5.465851E-06 -1.508189E-04 -2.245915E-04 -1.779087E-06 +5.465851E-06 -1.779087E-06 +5.050074E-03 
 +2.836857E-04 -1.942896E-04 +1.747579E-05 -1.942896E-04 -2.315904E-04 -6.544963E-05 +1.747579E-05 -6.544963E-05 +5.039524E-03 
 +3.013459E-04 -1.189087E-04 +7.464274E-05 -1.189087E-04 -2.810319E-04 -1.050406E-04 +7.464274E-05 -1.050406E-04 +5.042972E-03 
 +1.565858E-04 +1.116203E-04 +2.327485E-06 +1.116203E-04 -5.914642E-05 -1.606006E-04 +2.327485E-06 -1.606006E-04 +4.954951E-03 
 +1.651130E-04 -1.511634E-05 +1.910230E-05 -1.511634E-05 +1.695479E-04 -1.194454E-04 +1.910230E-05 -1.194454E-04 +4.861562E-03 
 -1.832199E-04 -1.103087E-04 +2.806077E-05 -1.103087E-04 +2.394567E-04 +3.428885E-05 +2.806077E-05 +3.428885E-05 +4.958732E-03 
 -1.931692E-04 -1.159340E-04 -4.774960E-05 -1.159340E-04 +3.033240E-04 +1.268729E-04 -4.774960E-05 +1.268729E-04 +5.051906E-03 
 -1.829322E-04 -1.192779E-04 -1.633902E-04 -1.192779E-04 +2.110903E-04 +8.544661E-05 -1.633902E-04 +8.544661E-05 +5.009912E-03 
 +5.731938E-05 -1.207021E-04 -1.186764E-04 -1.207021E-04 +1.344692E-04 +9.050836E-06 -1.186764E-04 +9.050836E-06 +4.924785E-03 
 -1.029442E-04 +4.114736E-04 -1.712485E-04 +4.114736E-04 +1.157771E-04 +9.018112E-05 -1.712485E-04 +9.018112E-05 +4.988298E-03 
 -4.436949E-05 -2.423041E-05 -1.102972E-04 -2.423041E-05 -7.764447E-05 -4.493821E-05 -1.102972E-04 -4.493821E-05 +5.042101E-03 
 -8.782740E-05 -1.016987E-04 -1.067412E-04 -1.016987E-04 -1.687298E-04 -1.132661E-04 -1.067412E-04 -1.132661E-04 +5.194209E-03 
 -1.314232E-04 +3.067548E-05 +2.830245E-05 +3.067548E-05 -2.696970E-04 -9.253596E-05 +2.830245E-05 -9.253596E-05 +5.158478E-03 
 +7.968255E-06 +1.470745E-04 -5.419946E-06 +1.470745E-04 -2.317125E-04 +1.863236E-05 -5.419946E-06 +1.863236E-05 +5.035586E-03 
 +3.223366E-05 +2.066482E-04 -1.098997E-05 +2.066482E-04 -1.544468E-04 +1.240269E-04 -1.098997E-05 +1.240269E-04 +4.956524E-03 
 +6.811068E-05 +1.353924E-04 +2.084913E-05 +1.353924E-04 -2.464836E-04 +1.122790E-04 +2.084913E-05 +1.122790E-04 +4.945657E-03 
 +6.100712E-05 +1.275014E-04 +2.173160E-04 +1.275014E-04 -2.905797E-04 +6.277944E-05 +2.173160E-04 +6.277944E-05 +5.084376E-03 
 +4.899550E-05 +1.666173E-04 +2.589841E-04 +1.666173E-04 -2.010602E-04 +4.111136E-05 +2.589841E-04 +4.111136E-05 +5.075620E-03 
 +2.433883E-05 +1.322529E-04 +1.919159E-04 +1.322529E-04 -9.555247E-05 +2.084111E-05 +1.919159E-04 +2.084111E-05 +5.003912E-03 
 -3.377115E-05 +1.244191E-04 +1.380974E-04 +1.244191E-04 -4.031764E-07 +4.529391E-05 +1.380974E-04 +4.529391E-05 +4.918390E-03 
 -4.225874E-05 -4.403031E-05 +8.267728E-05 -4.403031E-05 -3.616149E-05 +6.285701E-05 +8.267728E-05 +6.285701E-05 +4.963704E-03 
 -4.944564E-05 +1.387859E-04 -4.531253E-05 +1.387859E-04 -9.584181E-05 +1.797986E-05 -4.531253E-05 +1.797986E-05 +5.092800E-03 
 +3.008118E-04 -6.638354E-05 -1.600317E-04 -6.638354E-05 -2.465491E-04 -5.601653E-05 -1.600317E-04 -5.601653E-05 +5.045088E-03 
 +7.347346E-05 +8.126098E-05 +4.075097E-05 +8.126098E-05 -2.233098E-04 -7.405639E-05 +4.075097E-05 -7.405639E-05 +5.077322E-03 
 -1.578065E-04 +2.147054E-04 -3.447200E-05 +2.147054E-04 -9.635265E-06 -2.325579E-05 -3.447200E-05 -2.325579E-05 +5.087602E-03 
 +7.715244E-05 -1.269523E-04 +8.900922E-05 -1.269523E-04 +4.562912E-06 -2.983871E-05 +8.900922E-05 -2.983871E-05 +4.987383E-03 
 -9.171891E-05 -1.906302E-04 +1.128817E-04 -1.906302E-04 +1.126207E-04 -5.203451E-05 +1.128817E-04 -5.203451E-05 +4.928005E-03 
 -7.040489E-06 -2.244425E-04 +7.537008E-05 -2.244425E-04 +1.608998E-04 -5.037056E-05 +7.537008E-05 -5.037056E-05 +4.942598E-03 
 -5.270329E-05 -1.636541E-04 -3.748105E-05 -1.636541E-04 +1.330034E-04 -1.546770E-05 -3.748105E-05 -1.546770E-05 +4.906717E-03 
 +3.393608E-05 -1.923730E-04 -5.162324E-05 -1.923730E-04 +2.138041E-04 -6.847968E-05 -5.162324E-05 -6.847968E-05 +4.833041E-03 
 -2.947824E-05 +6.500993E-05 -6.554245E-05 +6.500993E-05 +1.136030E-04 -6.062590E-05 -6.554245E-05 -6.062590E-05 +4.892257E-03 
 -1.874658E-05 +7.903742E-05 -5.539440E-05 +7.903742E-05 -9.941136E-05 -5.647208E-05 -5.539440E-05 -5.647208E-05 +4.929952E-03 
 +8.356451E-06 +9.046653E-05 -6.161759E-05 +9.046653E-05 -2.102283E-04 -1.682576E-04 -6.161759E-05 -1.682576E-04 +5.030362E-03 
 +7.443584E-05 +1.639022E-04 +1.192158E-05 +1.639022E-04 -2.693076E-04 -1.700868E-04 +1.192158E-05 -1.700868E-04 +5.007114E-03 
 +1.293429E-04 +1.708380E-04 +3.737218E-05 +1.708380E-04 -3.781416E-04 -1.682285E-04 +3.737218E-05 -1.682285E-04 +4.988852E-03 
 +1.925608E-04 +1.306885E-04 +7.820672E-05 +1.306885E-04 -4.342498E-04 -1.137305E-04 +7.820672E-05 -1.137305E-04 +4.966063E-03 
 +1.408771E-04 +1.790047E-05 +1.917242E-04 +1.790047E-05 -3.820770E-04 -6.081600E-05 +1.917242E-04 -6.081600E-05 +4.937254E-03 
 +6.663979E-05 +8.080342E-05 +2.720250E-04 +8.080342E-05 -3.078133E-04 +2.802446E-05 +2.720250E-04 +2.802446E-05 +5.013616E-03 
 +3.114599E-05 +1.403721E-04 +2.348719E-04 +1.403721E-04 -2.165400E-04 +6.410399E-05 +2.348719E-04 +6.410399E-05 +5.051620E-03 
 +5.701456E-06 +1.482859E-04 +1.519297E-04 +1.482859E-04 -3.923267E-05 +2.271876E-05 +1.519297E-04 +2.271876E-05 +5.045387E-03 
 +1.602046E-05 +9.381897E-05 +1.018943E-04 +9.381897E-05 +2.983093E-05 +3.408798E-05 +1.018943E-04 +3.408798E-05 +4.937443E-03 
 +9.353491E-05 +2.536099E-05 +5.506683E-05 +2.536099E-05 +4.807579E-05 +4.557310E-05 +5.506683E-05 +4.557310E-05 +4.967652E-03 
 -1.344787E-04 +2.241815E-04 -2.722337E-05 +2.241815E-04 -7.725805E-05 +9.323157E-06 -2.722337E-05 +9.323157E-06 +5.101368E-03 
 +3.213550E-05 -1.565711E-05 -1.546842E-04 -1.565711E-05 -1.836952E-04 -3.791515E-05 -1.546842E-04 -3.791515E-05 +5.066227E-03 
 -3.207218E-04 +2.724716E-04 -1.003053E-05 +2.724716E-04 +7.948167E-05 -6.569743E-05 -1.003053E-05 -6.569743E-05 +5.095217E-03 
 -2.536613E-04 +2.868335E-04 -6.683174E-05 +2.868335E-04 +8.366235E-05 -1.870182E-05 -6.683174E-05 -1.870182E-05 +5.138739E-03 
 -1.459860E-04 +1.877607E-04 +2.729357E-05 +1.877607E-04 -3.251842E-05 +7.753979E-05 +2.729357E-05 +7.753979E-05 +5.130497E-03 
 -8.147994E-05 +8.903335E-05 +1.127873E-04 +8.903335E-05 +3.639182E-06 +6.775541E-05 +1.127873E-04 +6.775541E-05 +5.056042E-03 
 +1.574128E-04 -1.598108E-04 +1.958896E-04 -1.598108E-04 -8.830920E-06 -5.391086E-05 +1.958896E-04 -5.391086E-05 +4.927213E-03 
 +4.300544E-05 -1.257860E-04 +1.269320E-04 -1.257860E-04 +3.463313E-05 -7.882829E-05 +1.269320E-04 -7.882829E-05 +4.869281E-03 
 +8.833752E-06 -8.170175E-05 +7.780011E-05 -8.170175E-05 +1.031818E-04 -5.084752E-05 +7.780011E-05 -5.084752E-05 +4.849060E-03 
 -4.474340E-05 +1.335067E-04 +5.741189E-05 +1.335067E-04 +5.969727E-05 +5.423577E-06 +5.741189E-05 +5.423577E-06 +4.844024E-03 
 +1.747820E-04 +1.408523E-04 -9.542578E-05 +1.408523E-04 -1.258669E-05 -6.653187E-05 -9.542578E-05 -6.653187E-05 +4.770727E-03 
 +7.512107E-05 +1.652754E-04 +1.116700E-05 +1.652754E-04 -1.392345E-04 -1.655851E-04 +1.116700E-05 -1.655851E-04 +4.918606E-03 
 +5.364810E-05 +1.878051E-04 +1.621802E-05 +1.878051E-04 -2.578051E-04 -1.662692E-04 +1.621802E-05 -1.662692E-04 +5.000497E-03 
 +8.601098E-05 +1.316181E-04 +5.041145E-05 +1.316181E-04 -3.332058E-04 -1.747582E-04 +5.041145E-05 -1.747582E-04 +5.039129E-03 
 +1.857281E-04 +7.186887E-05 +8.426060E-05 +7.186887E-05 -4.138375E-04 -1.790059E-04 +8.426060E-05 -1.790059E-04 +5.007041E-03 
 +1.885560E-04 -1.527910E-05 +2.391437E-04 -1.527910E-05 -2.880243E-04 -1.476691E-04 +2.391437E-04 -1.476691E-04 +4.969059E-03 
 +8.739769E-05 -6.136540E-05 +2.831833E-04 -6.136540E-05 -1.603211E-04 -6.589467E-05 +2.831833E-04 -6.589467E-05 +5.049418E-03 
 +1.287551E-04 +6.340749E-05 +1.665492E-04 +6.340749E-05 -2.259425E-04 -3.541500E-05 +1.665492E-04 -3.541500E-05 +5.158434E-03 
 +1.134870E-04 +2.485686E-04 +3.368713E-05 +2.485686E-04 -2.416664E-04 -3.881012E-05 +3.368713E-05 -3.881012E-05 +5.166536E-03 
 +2.024920E-04 +2.029319E-04 +1.511497E-05 +2.029319E-04 -1.720191E-04 -2.496196E-05 +1.511497E-05 -2.496196E-05 +5.031893E-03 
 +3.785382E-05 +1.159328E-04 +3.098637E-05 +1.159328E-04 +9.159877E-06 -1.110456E-05 +3.098637E-05 -1.110456E-05 +4.988241E-03 
 -3.256623E-04 -1.218785E-04 +1.867266E-05 -1.218785E-04 +1.750848E-04 +5.140432E-05 +1.867266E-05 +5.140432E-05 +5.042551E-03 
 -3.171690E-04 -2.175958E-04 -3.840248E-05 -2.175958E-04 +2.563243E-04 +1.994369E-05 -3.840248E-05 +1.994369E-05 +5.039677E-03 
 -4.271918E-04 +2.087516E-04 -4.603231E-05 +2.087516E-04 +1.800972E-04 -8.467990E-05 -4.603231E-05 -8.467990E-05 +5.065629E-03 
 -2.221822E-04 +1.738288E-04 -8.012160E-05 +1.738288E-04 +2.986251E-05 -9.415865E-05 -8.012160E-05 -9.415865E-05 +5.103032E-03 
 -1.933001E-04 +2.010856E-04 -4.506328E-05 +2.010856E-04 +2.686907E-06 +3.235880E-06 -4.506328E-05 +3.235880E-06 +5.140594E-03 
 -1.929175E-04 +1.448401E-04 +6.826503E-05 +1.448401E-04 -2.753305E-05 +3.318884E-05 +6.826503E-05 +3.318884E-05 +5.160861E-03 
 +1.340031E-05 -1.214237E-04 +2.191991E-04 -1.214237E-04 +2.536819E-05 -5.898508E-05 +2.191991E-04 -5.898508E-05 +5.032907E-03 
 +1.632095E-04 -1.875424E-04 +1.748712E-04 -1.875424E-04 +3.796733E-05 -1.054281E-04 +1.748712E-04 -1.054281E-04 +4.818552E-03 
 +1.181435E-04 -9.218885E-05 +1.142041E-04 -9.218885E-05 +1.094130E-05 -8.347042E-05 +1.142041E-04 -8.347042E-05 +4.711677E-03 
 +4.990513E-05 +6.533562E-05 +6.325897E-05 +6.533562E-05 +3.417482E-05 -1.694149E-05 +6.325897E-05 -1.694149E-05 +4.692689E-03 
 +3.570980E-04 +1.309853E-04 -6.751401E-05 +1.309853E-04 +5.221527E-05 -3.965784E-05 -6.751401E-05 -3.965784E-05 +4.726622E-03 
 +5.389303E-05 +8.132258E-05 +3.153983E-05 +8.132258E-05 +4.680155E-05 -1.394349E-04 +3.153983E-05 -1.394349E-04 +4.876726E-03 
 -4.162853E-05 +9.257176E-05 +4.826996E-05 +9.257176E-05 -1.127402E-05 -2.096327E-04 +4.826996E-05 -2.096327E-04 +4.999511E-03 
 -4.899806E-07 +3.366586E-05 +6.512083E-05 +3.366586E-05 -8.193669E-05 -2.492073E-04 +6.512083E-05 -2.492073E-04 +5.046333E-03 
 +7.378312E-05 -3.419189E-05 +7.880305E-05 -3.419189E-05 -1.160115E-04 -2.717567E-04 +7.880305E-05 -2.717567E-04 +4.999985E-03 
 +1.605637E-04 -5.466107E-06 +1.525909E-04 -5.466107E-06 -1.145467E-04 -2.346552E-04 +1.525909E-04 -2.346552E-04 +4.981078E-03 
 +1.378420E-04 -1.903719E-04 +2.036048E-04 -1.903719E-04 -1.247532E-04 -1.915578E-04 +2.036048E-04 -1.915578E-04 +5.037032E-03 
 +3.278795E-04 -7.034920E-05 +1.683225E-04 -7.034920E-05 -2.254061E-04 -1.830835E-04 +1.683225E-04 -1.830835E-04 +5.103264E-03 
 +3.565261E-04 +1.920578E-04 +6.198890E-05 +1.920578E-04 -2.501629E-04 -1.326726E-04 +6.198890E-05 -1.326726E-04 +5.110817E-03 
 +9.873647E-05 +9.703522E-05 +6.539383E-05 +9.703522E-05 +8.728852E-06 -1.288149E-04 +6.539383E-05 -1.288149E-04 +5.065142E-03 
 -3.191906E-04 -2.084140E-04 +5.158039E-05 -2.084140E-04 +2.869284E-04 -1.223803E-04 +5.158039E-05 -1.223803E-04 +5.027458E-03 
 -4.051941E-04 -3.696864E-04 +6.091655E-05 -3.696864E-04 +3.262199E-04 +2.431032E-05 +6.091655E-05 +2.431032E-05 +4.995286E-03 
 -3.653075E-04 -2.316311E-04 -1.559715E-06 -2.316311E-04 +3.286543E-04 +2.950180E-05 -1.559715E-06 +2.950180E-05 +4.961829E-03 
 -2.773101E-04 +1.486680E-04 -9.002599E-05 +1.486680E-04 +2.462206E-04 -1.251294E-04 -9.002599E-05 -1.251294E-04 +4.980905E-03 
 -2.967061E-04 +2.058178E-04 -1.212256E-04 +2.058178E-04 +1.329276E-04 -1.326134E-04 -1.212256E-04 -1.326134E-04 +5.044173E-03 
 -1.991407E-04 +1.735365E-04 -9.783225E-05 +1.735365E-04 +2.712376E-05 -8.808662E-05 -9.783225E-05 -8.808662E-05 +5.115529E-03 
 -2.058941E-04 +1.545353E-04 +3.532946E-06 +1.545353E-04 -7.310690E-06 -4.562275E-05 +3.532946E-06 -4.562275E-05 +5.129436E-03 
 -9.256412E-05 +9.534463E-05 +7.035090E-05 +9.534463E-05 +1.030542E-04 -1.629568E-05 +7.035090E-05 -1.629568E-05 +4.961476E-03 
 +2.465690E-04 -3.110928E-05 +6.389519E-05 -3.110928E-05 +1.587553E-04 -9.584162E-05 +6.389519E-05 -9.584162E-05 +4.656863E-03 
 +1.639284E-04 +8.402941E-05 +7.860656E-05 +8.402941E-05 +1.890640E-04 -8.580497E-05 +7.860656E-05 -8.580497E-05 +4.497082E-03 
 +2.266043E-04 +1.474060E-04 +1.293374E-05 +1.474060E-04 +1.512712E-04 -1.395488E-06 +1.293374E-05 -1.395488E-06 +4.563187E-03 
 +3.404576E-04 +4.800472E-05 -9.976426E-07 +4.800472E-05 +8.660786E-05 -8.680502E-05 -9.976426E-07 -8.680502E-05 +4.702995E-03 
 +1.646797E-04 +8.289218E-05 -7.085398E-06 +8.289218E-05 +1.425293E-04 -1.740574E-04 -7.085398E-06 -1.740574E-04 +4.773476E-03 
 -1.667717E-04 +3.142696E-05 +9.030843E-05 +3.142696E-05 +1.334476E-04 -2.133969E-04 +9.030843E-05 -2.133969E-04 +4.921651E-03 
 -9.305612E-05 +3.739740E-05 +8.763907E-05 +3.739740E-05 +1.640909E-05 -2.445497E-04 +8.763907E-05 -2.445497E-04 +5.001821E-03 
 -1.193729E-06 +1.484924E-06 +1.232561E-04 +1.484924E-06 +8.445767E-06 -2.909568E-04 +1.232561E-04 -2.909568E-04 +4.936677E-03 
 +1.905760E-05 +4.075303E-05 +1.153233E-04 +4.075303E-05 +6.911175E-05 -2.070554E-04 +1.153233E-04 -2.070554E-04 +4.990965E-03 
 +1.488980E-04 -3.049272E-04 +7.180927E-05 -3.049272E-04 +3.448133E-05 -1.372936E-04 +7.180927E-05 -1.372936E-04 +4.996517E-03 
 +4.579018E-04 -1.914854E-04 +1.315427E-04 -1.914854E-04 +1.366089E-05 -1.990087E-04 +1.315427E-04 -1.990087E-04 +4.803024E-03 
 +3.769530E-04 -1.583705E-05 +1.383488E-04 -1.583705E-05 +1.495396E-04 -1.689046E-04 +1.383488E-04 -1.689046E-04 +4.831174E-03 
 -1.488456E-04 -4.343516E-05 +1.128752E-04 -4.343516E-05 +3.081065E-04 -1.304815E-04 +1.128752E-04 -1.304815E-04 +5.018139E-03 
 -3.374857E-04 -2.125884E-04 +4.033760E-05 -2.125884E-04 +3.599688E-04 -8.216333E-05 +4.033760E-05 -8.216333E-05 +5.053457E-03 
 -2.952272E-04 -2.777178E-04 +6.032713E-05 -2.777178E-04 +3.627613E-04 +4.520636E-05 +6.032713E-05 +4.520636E-05 +4.989330E-03 
 -2.468804E-04 -2.287458E-04 +1.532507E-05 -2.287458E-04 +2.744740E-04 +5.514644E-05 +1.532507E-05 +5.514644E-05 +4.911857E-03 
 -1.827629E-04 +1.204912E-04 -1.010626E-04 +1.204912E-04 +1.812279E-04 -7.918345E-05 -1.010626E-04 -7.918345E-05 +4.926541E-03 
 -3.109214E-04 +1.993747E-04 -1.249074E-04 +1.993747E-04 +1.810333E-04 -1.432787E-04 -1.249074E-04 -1.432787E-04 +5.018758E-03 
 -2.896798E-04 +1.491119E-04 -8.426815E-05 +1.491119E-04 +1.347570E-04 -1.488164E-04 -8.426815E-05 -1.488164E-04 +5.120948E-03 
 -2.589506E-04 +1.827683E-04 -2.085571E-05 +1.827683E-04 +1.226112E-04 -1.535014E-04 -2.085571E-05 -1.535014E-04 +5.101944E-03 
 +6.766819E-05 +6.396670E-05 -3.946604E-05 +6.396670E-05 +1.112098E-04 -1.013448E-04 -3.946604E-05 -1.013448E-04 +4.871680E-03 
 +2.491328E-04 +1.360931E-05 +1.914065E-05 +1.360931E-05 +1.643981E-04 -6.982478E-05 +1.914065E-05 -6.982478E-05 +4.626245E-03 
 +2.127112E-04 +1.048458E-04 +1.124185E-04 +1.048458E-04 +2.237509E-04 -3.984375E-05 +1.124185E-04 -3.984375E-05 +4.562678E-03 
 +2.944020E-04 +6.101475E-05 +3.672069E-05 +6.101475E-05 +1.418868E-04 -2.150826E-05 +3.672069E-05 -2.150826E-05 +4.624768E-03 
 +2.831674E-04 +5.276988E-05 +2.775445E-05 +5.276988E-05 +1.087833E-04 -1.325429E-04 +2.775445E-05 -1.325429E-04 +4.693374E-03 
 +2.795725E-04 +9.437454E-05 -2.202164E-06 +9.437454E-05 +1.141877E-04 -1.291403E-04 -2.202164E-06 -1.291403E-04 +4.766296E-03 
 -2.078750E-04 -3.760035E-05 +1.313198E-04 -3.760035E-05 +1.467561E-04 -1.511911E-04 +1.313198E-04 -1.511911E-04 +4.912041E-03 
 -1.637373E-04 +1.944985E-05 +1.086477E-04 +1.944985E-05 +1.593205E-04 -2.457790E-04 +1.086477E-04 -2.457790E-04 +4.929916E-03 
 -9.325817E-05 +1.578994E-05 +1.522238E-04 +1.578994E-05 +1.668123E-04 -3.066468E-04 +1.522238E-04 -3.066468E-04 +4.859126E-03 
 -1.250348E-04 +7.245934E-05 +1.103458E-04 +7.245934E-05 +2.005341E-04 -1.844846E-04 +1.103458E-04 -1.844846E-04 +4.950728E-03 
 +1.551338E-04 -3.048580E-04 -3.738328E-07 -3.048580E-04 +1.345611E-04 -1.132885E-04 -3.738328E-07 -1.132885E-04 +4.926425E-03 
 +5.205853E-04 -7.144496E-05 +5.548166E-05 -7.144496E-05 +5.297235E-05 -1.328422E-04 +5.548166E-05 -1.328422E-04 +4.677450E-03 
 +1.207316E-04 +1.105055E-04 +5.838234E-05 +1.105055E-04 +6.401321E-05 -5.580250E-05 +5.838234E-05 -5.580250E-05 +4.768309E-03 
 -1.022542E-04 +1.243795E-04 +2.632335E-05 +1.243795E-04 +1.294015E-04 +3.582867E-05 +2.632335E-05 +3.582867E-05 +4.994725E-03 
 -1.617444E-04 -8.465334E-05 -2.287115E-05 -8.465334E-05 +2.938629E-04 +4.588894E-05 -2.287115E-05 +4.588894E-05 +5.039683E-03 
 -2.544775E-04 -2.409649E-04 +2.043017E-06 -2.409649E-04 +3.850347E-04 +5.275687E-05 +2.043017E-06 +5.275687E-05 +5.004186E-03 
 -1.988001E-04 -2.981190E-04 -1.444452E-05 -2.981190E-04 +3.294327E-04 +1.034016E-04 -1.444452E-05 +1.034016E-04 +4.908413E-03 
 -1.237803E-04 +1.122292E-04 -8.592152E-05 +1.122292E-04 +2.837076E-04 -3.963436E-06 -8.592152E-05 -3.963436E-06 +4.902878E-03 
 -2.198007E-04 +1.932693E-04 -9.042868E-05 +1.932693E-04 +2.268051E-04 -1.428669E-04 -9.042868E-05 -1.428669E-04 +5.006738E-03 
 -2.971464E-04 +1.814057E-04 -4.681279E-05 +1.814057E-04 +8.499275E-05 -1.697816E-04 -4.681279E-05 -1.697816E-04 +5.086590E-03 
 -2.292380E-04 +4.001258E-04 +7.519101E-08 +4.001258E-04 -3.444437E-05 -1.528159E-04 +7.519101E-08 -1.528159E-04 +5.155823E-03 
 +3.205701E-05 +2.790517E-04 -7.311202E-06 +2.790517E-04 -1.261850E-06 -6.721132E-05 -7.311202E-06 -6.721132E-05 +5.048857E-03 
 +2.316532E-04 +1.409126E-04 -5.526418E-05 +1.409126E-04 +1.390609E-04 -6.504326E-05 -5.526418E-05 -6.504326E-05 +4.739517E-03 
 +2.701467E-04 +9.033637E-05 +1.351828E-05 +9.033637E-05 +1.647809E-04 -1.084905E-04 +1.351828E-05 -1.084905E-04 +4.671136E-03 
 +2.841678E-04 +7.013764E-05 +4.341233E-05 +7.013764E-05 +1.232290E-04 -1.084853E-04 +4.341233E-05 -1.084853E-04 +4.729388E-03 
 +3.005975E-04 +1.395720E-04 +1.682189E-05 +1.395720E-04 +6.309323E-05 -1.027736E-04 +1.682189E-05 -1.027736E-04 +4.781955E-03 
 +1.628106E-04 +1.684282E-04 +3.850677E-05 +1.684282E-04 +4.137884E-05 -8.214522E-05 +3.850677E-05 -8.214522E-05 +4.942383E-03 
 -2.223318E-04 -9.147459E-06 +1.715610E-04 -9.147459E-06 +1.279937E-04 -1.263072E-04 +1.715610E-04 -1.263072E-04 +5.010677E-03 
 -1.758645E-04 +2.386037E-05 +1.867932E-04 +2.386037E-05 +2.843500E-04 -2.144486E-04 +1.867932E-04 -2.144486E-04 +4.843085E-03 
 -1.054975E-04 +6.645910E-05 +2.276426E-04 +6.645910E-05 +3.293163E-04 -2.442857E-04 +2.276426E-04 -2.442857E-04 +4.759712E-03 
 -1.406799E-04 +2.189826E-04 +1.127240E-04 +2.189826E-04 +2.899154E-04 -9.695800E-05 +1.127240E-04 -9.695800E-05 +4.890422E-03 
 +1.595437E-04 -2.560298E-04 -2.990578E-05 -2.560298E-04 +1.781373E-04 -4.278171E-05 -2.990578E-05 -4.278171E-05 +4.850676E-03 
 +4.641999E-04 -4.322639E-06 +2.806189E-05 -4.322639E-06 +9.605076E-05 -5.816579E-05 +2.806189E-05 -5.816579E-05 +4.671290E-03 
 +1.403760E-05 +1.982091E-04 -1.483957E-05 +1.982091E-04 +9.284670E-05 +3.167168E-05 -1.483957E-05 +3.167168E-05 +4.884879E-03 
 -5.268105E-05 +2.762152E-04 -3.193102E-05 +2.762152E-04 +4.033300E-05 +1.713535E-04 -3.193102E-05 +1.713535E-04 +5.102066E-03 
 -1.585874E-04 +9.891169E-05 -6.286324E-05 +9.891169E-05 +1.083767E-04 +2.038916E-04 -6.286324E-05 +2.038916E-04 +5.117868E-03 
 -1.852062E-04 -1.283590E-04 -9.986461E-05 -1.283590E-04 +3.452005E-04 +1.323699E-04 -9.986461E-05 +1.323699E-04 +5.104430E-03 
 -2.670699E-04 -3.095997E-04 -6.598460E-05 -3.095997E-04 +4.139089E-04 +1.730756E-04 -6.598460E-05 +1.730756E-04 +4.975580E-03 
 -9.313434E-05 +6.234480E-05 -5.221247E-05 +6.234480E-05 +2.853859E-04 +9.471062E-05 -5.221247E-05 +9.471062E-05 +4.904472E-03 
 -1.085677E-04 +6.319884E-05 -9.066350E-05 +6.319884E-05 +1.285121E-04 -3.507601E-05 -9.066350E-05 -3.507601E-05 +4.981375E-03 
 -1.527608E-04 +8.354073E-05 -1.241816E-04 +8.354073E-05 +8.938743E-06 -8.065969E-05 -1.241816E-04 -8.065969E-05 +5.042157E-03 
 -1.365769E-04 +2.886091E-04 -5.771923E-05 +2.886091E-04 -9.219022E-05 -1.170401E-04 -5.771923E-05 -1.170401E-04 +5.193924E-03 
 -1.276520E-04 +3.074738E-04 -3.594569E-05 +3.074738E-04 -3.460244E-05 -9.245299E-05 -3.594569E-05 -9.245299E-05 +5.197705E-03 
 +2.186955E-04 +1.788054E-04 -2.017203E-04 +1.788054E-04 +4.360589E-05 -1.418686E-04 -2.017203E-04 -1.418686E-04 +4.807144E-03 
 +3.115761E-04 +1.112405E-04 -1.539688E-04 +1.112405E-04 +1.679749E-06 -1.967151E-04 -1.539688E-04 -1.967151E-04 +4.706224E-03 
 +2.953286E-04 +1.246303E-04 -1.637220E-05 +1.246303E-04 +3.843631E-05 -1.504201E-04 -1.637220E-05 -1.504201E-04 +4.811182E-03 
 +2.331829E-04 +1.458161E-04 -4.013001E-05 +1.458161E-04 +7.428994E-06 -6.714153E-05 -4.013001E-05 -6.714153E-05 +4.877168E-03 
 -1.457197E-04 +4.267791E-05 +6.492925E-05 +4.267791E-05 +8.283655E-05 -8.854029E-05 +6.492925E-05 -8.854029E-05 +5.066183E-03 
 -2.345720E-04 -4.662658E-05 +1.697760E-04 -4.662658E-05 +1.765275E-04 -9.294982E-05 +1.697760E-04 -9.294982E-05 +5.056025E-03 
 +1.346830E-05 +1.107463E-05 +1.825057E-04 +1.107463E-05 +2.232466E-04 -1.371994E-05 +1.825057E-04 -1.371994E-05 +4.782947E-03 
 +1.330504E-04 +1.843751E-04 +2.135420E-04 +1.843751E-04 +1.970366E-04 +3.725017E-05 +2.135420E-04 +3.725017E-05 +4.701177E-03 
 -6.426680E-05 +3.781589E-04 +7.186941E-05 +3.781589E-04 +1.462740E-04 +6.606001E-05 +7.186941E-05 +6.606001E-05 +4.894504E-03 
 -4.378817E-06 -7.634884E-05 -7.850853E-05 -7.634884E-05 +1.933628E-04 +3.327247E-05 -7.850853E-05 +3.327247E-05 +4.879094E-03 
 +3.527284E-04 +1.117175E-04 +2.747637E-05 +1.117175E-04 +2.513880E-04 -4.040324E-05 +2.747637E-05 -4.040324E-05 +4.757561E-03 
 -1.746757E-05 +2.501439E-04 +1.788353E-05 +2.501439E-04 +8.461520E-05 +7.264514E-06 +1.788353E-05 +7.264514E-06 +5.008287E-03 
 -9.032000E-05 +3.466235E-04 -2.829414E-05 +3.466235E-04 +3.221871E-05 +1.346844E-04 -2.829414E-05 +1.346844E-04 +5.196093E-03 
 -1.210787E-04 +2.320601E-04 -1.035442E-04 +2.320601E-04 +5.858995E-05 +1.650737E-04 -1.035442E-04 +1.650737E-04 +5.186927E-03 
 -1.532703E-04 +1.251807E-04 -1.289067E-04 +1.251807E-04 +1.642841E-04 +1.180165E-04 -1.289067E-04 +1.180165E-04 +5.163005E-03 
 -3.288341E-04 -1.633386E-04 -3.925000E-05 -1.633386E-04 +4.228154E-04 +1.599797E-04 -3.925000E-05 +1.599797E-04 +5.012508E-03 
 -1.506144E-04 +6.558988E-05 -9.273385E-06 +6.558988E-05 +3.528075E-04 +1.281391E-04 -9.273385E-06 +1.281391E-04 +4.920769E-03 
 -1.080618E-04 +6.938405E-05 -8.206787E-05 +6.938405E-05 +1.138443E-04 +2.949688E-05 -8.206787E-05 +2.949688E-05 +4.975962E-03 
 -1.253627E-04 -1.715508E-06 -1.494371E-04 -1.715508E-06 +3.859532E-05 -3.642241E-07 -1.494371E-04 -3.642241E-07 +5.038414E-03 
 -1.525285E-04 +9.201565E-05 -1.104150E-04 +9.201565E-05 -1.117635E-05 -6.994150E-05 -1.104150E-04 -6.994150E-05 +5.158342E-03 
 +1.242290E-06 +2.908791E-04 -1.038591E-04 +2.908791E-04 -9.544959E-05 -1.210694E-04 -1.038591E-04 -1.210694E-04 +5.144790E-03 
 +2.540553E-04 +2.262189E-04 -2.298745E-04 +2.262189E-04 -5.822367E-05 -1.416107E-04 -2.298745E-04 -1.416107E-04 +4.884312E-03 
 +3.340920E-04 +1.417635E-04 -2.361215E-04 +1.417635E-04 +4.672869E-05 -1.356590E-04 -2.361215E-04 -1.356590E-04 +4.846544E-03 
 +3.748244E-04 +1.657351E-04 -1.413978E-04 +1.657351E-04 +3.374497E-06 -8.437053E-05 -1.413978E-04 -8.437053E-05 +4.884570E-03 
 -8.165834E-05 -2.291768E-05 -1.174593E-04 -2.291768E-05 +7.439051E-05 -1.261026E-04 -1.174593E-04 -1.261026E-04 +4.927541E-03 
 -2.595402E-04 -1.032801E-04 +3.182278E-05 -1.032801E-04 +1.378521E-04 -1.480734E-04 +3.182278E-05 -1.480734E-04 +5.074002E-03 
 -9.278448E-05 +7.155034E-06 +8.851712E-05 +7.155034E-06 +1.181886E-04 -1.349289E-04 +8.851712E-05 -1.349289E-04 +5.033112E-03 
 +2.458775E-04 +3.405442E-05 +6.090518E-05 +3.405442E-05 +1.406141E-04 -3.908240E-05 +6.090518E-05 -3.908240E-05 +4.869467E-03 
 +1.732649E-04 -1.260094E-05 +1.423665E-04 -1.260094E-05 +1.876493E-04 +5.762660E-05 +1.423665E-04 +5.762660E-05 +4.867594E-03 
 -1.055123E-05 -9.487369E-05 +8.005540E-05 -9.487369E-05 +9.625753E-05 +7.334366E-05 +8.005540E-05 +7.334366E-05 +4.975943E-03 
 -3.592948E-05 -2.750647E-04 -1.966688E-05 -2.750647E-04 +1.128569E-04 +4.974163E-05 -1.966688E-05 +4.974163E-05 +4.923678E-03 
 +1.724017E-04 -1.410778E-04 +7.057120E-06 -1.410778E-04 +2.587037E-04 +4.645366E-07 +7.057120E-06 +4.645366E-07 +4.913644E-03 
 -4.663605E-06 -9.856244E-05 +2.133622E-06 -9.856244E-05 +1.806956E-04 +2.109524E-05 +2.133622E-06 +2.109524E-05 +5.083426E-03 
 +2.115754E-05 +2.619826E-04 -9.262902E-05 +2.619826E-04 -7.441804E-07 +8.783083E-05 -9.262902E-05 +8.783083E-05 +5.147887E-03 
 -2.873621E-05 +2.805582E-04 -1.868429E-04 +2.805582E-04 +9.907399E-05 +9.114880E-05 -1.868429E-04 +9.114880E-05 +5.100748E-03 
 -1.168417E-04 +1.696019E-04 -1.194717E-04 +1.696019E-04 +2.325608E-04 +1.280899E-04 -1.194717E-04 +1.280899E-04 +5.044458E-03 
 -2.426559E-04 +3.021868E-05 -7.382179E-05 +3.021868E-05 +3.330101E-04 +1.732558E-04 -7.382179E-05 +1.732558E-04 +4.934972E-03 
 -2.927850E-04 +1.708517E-05 -7.638328E-06 +1.708517E-05 +3.857394E-04 +1.412889E-04 -7.638328E-06 +1.412889E-04 +4.922125E-03 
 -2.196187E-04 +3.523514E-05 -3.978331E-05 +3.523514E-05 +2.028853E-04 +9.671558E-05 -3.978331E-05 +9.671558E-05 +4.999064E-03 
 -2.572996E-04 +2.408947E-05 -7.048758E-05 +2.408947E-05 +9.508192E-05 +8.004934E-05 -7.048758E-05 +8.004934E-05 +5.067863E-03 
 -2.364746E-04 +7.745683E-06 -6.304822E-05 +7.745683E-06 -8.915008E-05 -2.541886E-06 -6.304822E-05 -2.541886E-06 +5.113528E-03 
 +1.029971E-04 +9.799156E-05 -8.242339E-05 +9.799156E-05 -3.406699E-04 -9.815733E-05 -8.242339E-05 -9.815733E-05 +5.103408E-03 
 +3.503892E-04 +9.523110E-05 -1.683227E-04 +9.523110E-05 -3.999396E-04 -9.671764E-05 -1.683227E-04 -9.671764E-05 +5.079109E-03 
 +3.930829E-04 +7.638842E-06 -1.886962E-04 +7.638842E-06 -3.940811E-04 -2.557815E-05 -1.886962E-04 -2.557815E-05 +5.009273E-03 
 +4.204344E-04 +7.672462E-05 -2.701440E-04 +7.672462E-05 -1.989717E-04 -4.515570E-05 -2.701440E-04 -4.515570E-05 +4.874518E-03 
 -1.307269E-04 -1.165045E-04 -1.081068E-04 -1.165045E-04 +7.434942E-05 +4.188838E-05 -1.081068E-04 +4.188838E-05 +4.915390E-03 
 -1.026275E-04 -2.270766E-05 -1.486599E-05 -2.270766E-05 +6.276560E-05 +1.013828E-04 -1.486599E-05 +1.013828E-04 +5.014276E-03 
 +2.304418E-05 +8.821175E-06 +2.715378E-05 +8.821175E-06 +5.356987E-05 +7.746283E-05 +2.715378E-05 +7.746283E-05 +4.976903E-03 
 +2.129373E-04 -1.744250E-05 +5.308674E-06 -1.744250E-05 +1.273308E-04 -8.026415E-06 +5.308674E-06 -8.026415E-06 +4.960021E-03 
 -5.505498E-06 -1.822609E-04 +1.100378E-04 -1.822609E-04 +1.562342E-04 -5.624111E-05 +1.100378E-04 -5.624111E-05 +5.022340E-03 
 +8.791243E-07 -2.326294E-04 +8.420439E-05 -2.326294E-04 +6.770715E-05 -3.981378E-05 +8.420439E-05 -3.981378E-05 +4.993893E-03 
 +6.084893E-05 -2.952281E-04 +7.007769E-05 -2.952281E-04 +1.362713E-04 -2.033574E-05 +7.007769E-05 -2.033574E-05 +4.878791E-03 
 +4.406526E-05 -2.297230E-04 +4.817470E-05 -2.297230E-04 +2.078424E-04 +3.035795E-05 +4.817470E-05 +3.035795E-05 +4.873456E-03 
 +3.754971E-05 -1.938338E-04 +3.745278E-05 -1.938338E-04 +2.400364E-04 +1.883657E-05 +3.745278E-05 +1.883657E-05 +4.982164E-03 
 +8.424794E-05 -1.062578E-04 -4.847843E-05 -1.062578E-04 +7.926301E-05 -4.226740E-06 -4.847843E-05 -4.226740E-06 +5.037308E-03 
 +1.756910E-04 +1.957907E-04 -1.510258E-04 +1.957907E-04 +4.781835E-05 +5.766583E-05 -1.510258E-04 +5.766583E-05 +4.970325E-03 
 +1.242839E-04 +6.988558E-05 -1.199337E-04 +6.988558E-05 +2.843192E-04 +1.257017E-04 -1.199337E-04 +1.257017E-04 +4.904933E-03 
 -5.827842E-05 +7.147532E-05 -1.080510E-04 +7.147532E-05 +3.565169E-04 +1.530842E-04 -1.080510E-04 +1.530842E-04 +4.894421E-03 
 -3.417022E-04 +1.517918E-05 -2.767364E-05 +1.517918E-05 +3.679760E-04 +1.507667E-04 -2.767364E-05 +1.507667E-04 +4.965367E-03 
 -4.256227E-04 +3.112120E-05 -5.472552E-05 +3.112120E-05 +2.831135E-04 +1.499395E-04 -5.472552E-05 +1.499395E-04 +5.044457E-03 
 -3.386679E-04 +3.546718E-05 -2.359649E-05 +3.546718E-05 +1.047544E-04 +1.292195E-04 -2.359649E-05 +1.292195E-04 +5.095196E-03 
 -2.834399E-04 +4.132998E-05 +8.345277E-06 +4.132998E-05 -1.456756E-05 +7.581520E-05 +8.345277E-06 +7.581520E-05 +5.098045E-03 
 -9.715972E-05 +6.978081E-05 -2.063890E-05 +6.978081E-05 -3.039235E-04 +2.641768E-05 -2.063890E-05 +2.641768E-05 +5.140411E-03 
 +3.416413E-04 +5.244276E-05 -9.689961E-05 +5.244276E-05 -6.736113E-04 -1.464950E-05 -9.689961E-05 -1.464950E-05 +5.225991E-03 
 +3.972559E-04 -3.006329E-05 -1.317824E-04 -3.006329E-05 -5.759338E-04 -2.825610E-05 -1.317824E-04 -2.825610E-05 +5.090066E-03 
 +2.812769E-04 +7.762258E-05 -2.409928E-04 +7.762258E-05 -1.376820E-04 -2.714612E-05 -2.409928E-04 -2.714612E-05 +4.868547E-03 
 +8.004068E-06 -4.443597E-05 -1.844811E-05 -4.443597E-05 +2.069299E-05 +1.026519E-04 -1.844811E-05 +1.026519E-04 +4.926444E-03 
 +1.541886E-05 -9.023630E-05 +9.012019E-06 -9.023630E-05 +4.486208E-05 +1.215722E-04 +9.012019E-06 +1.215722E-04 +4.940676E-03 
 +9.944566E-05 -3.141122E-05 +2.952780E-05 -3.141122E-05 +4.283115E-05 +1.090109E-04 +2.952780E-05 +1.090109E-04 +4.908700E-03 
 +1.324113E-04 +1.390780E-04 +2.448592E-05 +1.390780E-04 +1.821314E-04 -3.140932E-05 +2.448592E-05 -3.140932E-05 +4.931558E-03 
 -9.788941E-05 -1.510197E-04 +1.118070E-05 -1.510197E-04 +2.349548E-04 -1.004477E-04 +1.118070E-05 -1.004477E-04 +5.012286E-03 
 -3.733446E-05 -2.012560E-04 -3.968910E-06 -2.012560E-04 +1.627005E-04 -5.742364E-05 -3.968910E-06 -5.742364E-05 +4.954039E-03 
 +4.545231E-05 -2.335627E-04 +7.611704E-05 -2.335627E-04 +1.532439E-04 -5.209058E-05 +7.611704E-05 -5.209058E-05 +4.861116E-03 
 +4.215245E-05 -2.397027E-04 +9.965353E-05 -2.397027E-04 +1.716483E-04 -5.083554E-05 +9.965353E-05 -5.083554E-05 +4.850473E-03 
 +1.158677E-05 -1.730181E-04 +1.025206E-04 -1.730181E-04 +1.883469E-04 -7.977501E-05 +1.025206E-04 -7.977501E-05 +4.914793E-03 
 +2.041274E-05 -1.701948E-04 +6.648088E-05 -1.701948E-04 +1.642466E-04 -1.063264E-04 +6.648088E-05 -1.063264E-04 +4.987589E-03 
 +1.937264E-04 +1.790399E-04 -5.439139E-06 +1.790399E-04 +5.462759E-05 -4.306611E-05 -5.439139E-06 -4.306611E-05 +4.969832E-03 
 +2.383923E-04 -2.771201E-04 +6.130060E-06 -2.771201E-04 -2.695007E-05 +9.767520E-05 +6.130060E-06 +9.767520E-05 +4.937833E-03 
 +1.244903E-04 -4.445397E-04 +1.907866E-05 -4.445397E-04 -5.115221E-05 +1.490350E-04 +1.907866E-05 +1.490350E-04 +4.964031E-03 
 -4.809268E-05 -3.473560E-04 +3.829967E-05 -3.473560E-04 +4.603369E-05 +1.616146E-04 +3.829967E-05 +1.616146E-04 +5.033340E-03 
 -3.073262E-04 -1.133351E-04 +8.898491E-06 -1.133351E-04 +2.158691E-04 +2.027615E-04 +8.898491E-06 +2.027615E-04 +5.090858E-03 
 -3.358852E-04 +4.007133E-06 +9.378018E-06 +4.007133E-06 +1.109693E-04 +1.848689E-04 +9.378018E-06 +1.848689E-04 +5.130388E-03 
 -2.870665E-04 +9.897251E-05 +5.396694E-06 +9.897251E-05 -9.187706E-05 +1.213094E-04 +5.396694E-06 +1.213094E-04 +5.119465E-03 
 -2.059066E-04 +5.683042E-05 -5.357052E-05 +5.683042E-05 -1.917178E-04 +1.184188E-04 -5.357052E-05 +1.184188E-04 +5.132964E-03 
 -7.285677E-05 +7.852063E-05 -5.492559E-05 +7.852063E-05 -3.595106E-04 +1.683439E-04 -5.492559E-05 +1.683439E-04 +5.183033E-03 
 +2.928684E-04 +9.167538E-05 -8.081770E-05 +9.167538E-05 -4.479436E-04 +1.818471E-04 -8.081770E-05 +1.818471E-04 +5.132391E-03 
 +1.680071E-04 +3.501010E-04 -9.209751E-05 +3.501010E-04 -2.296821E-04 +1.359324E-04 -9.209751E-05 +1.359324E-04 +4.997964E-03 
 +1.181611E-04 +1.960284E-04 +5.200378E-06 +1.960284E-04 -5.901902E-05 +1.113667E-04 +5.200378E-06 +1.113667E-04 +4.994510E-03 
 +8.436499E-05 -2.810597E-05 +2.014632E-05 -2.810597E-05 +5.348787E-05 +1.666060E-04 +2.014632E-05 +1.666060E-04 +4.903018E-03 
 +1.068472E-04 +1.395931E-04 +3.293304E-05 +1.395931E-04 +4.825269E-05 +1.623927E-04 +3.293304E-05 +1.623927E-04 +4.846672E-03 
 +7.151646E-05 +1.776351E-04 +5.853887E-05 +1.776351E-04 +2.459741E-04 -2.781205E-06 +5.853887E-05 -2.781205E-06 +4.867166E-03 
 -1.402188E-04 -2.382766E-04 -1.650941E-05 -2.382766E-04 +2.675365E-04 -1.182717E-04 -1.650941E-05 -1.182717E-04 +4.949930E-03 
 -3.730362E-05 -1.920746E-04 -2.634312E-05 -1.920746E-04 +1.896462E-04 -9.086944E-05 -2.634312E-05 -9.086944E-05 +4.944574E-03 
 -2.383804E-05 -1.636874E-04 +3.479821E-05 -1.636874E-04 +1.316292E-04 -4.395178E-05 +3.479821E-05 -4.395178E-05 +4.920277E-03 
 -2.740191E-05 -1.950693E-04 +4.687593E-05 -1.950693E-04 +1.402890E-04 -5.391304E-05 +4.687593E-05 -5.391304E-05 +4.937995E-03 
 -2.742368E-05 -1.836700E-04 +7.176513E-05 -1.836700E-04 +1.511842E-04 -9.024381E-05 +7.176513E-05 -9.024381E-05 +4.967113E-03 
 -6.145656E-05 -2.317442E-04 +7.358771E-05 -2.317442E-04 +2.282381E-04 -1.103087E-04 +7.358771E-05 -1.103087E-04 +5.022888E-03 
 -8.722415E-05 -7.760700E-05 +3.909936E-05 -7.760700E-05 +1.280215E-04 -4.244554E-05 +3.909936E-05 -4.244554E-05 +5.056927E-03 
 +2.568431E-04 -3.156678E-04 +3.145363E-05 -3.156678E-04 -1.049078E-04 +9.112650E-05 +3.145363E-05 +9.112650E-05 +5.036596E-03 
 +2.279174E-04 -4.030335E-04 +4.444519E-05 -4.030335E-04 -1.208217E-04 +1.163604E-04 +4.444519E-05 +1.163604E-04 +5.025390E-03 
 +1.864462E-04 -4.209834E-04 +6.995560E-05 -4.209834E-04 -1.064887E-04 +1.261340E-04 +6.995560E-05 +1.261340E-04 +5.055545E-03 
 +7.323068E-05 -4.119582E-04 +9.498581E-05 -4.119582E-04 -1.428891E-04 +1.525837E-04 +9.498581E-05 +1.525837E-04 +5.102983E-03 
 -2.917916E-05 -3.403480E-04 +6.084170E-05 -3.403480E-04 -1.850377E-04 +1.855150E-04 +6.084170E-05 +1.855150E-04 +5.157744E-03 
 -2.049268E-04 +3.229649E-05 +3.561849E-08 +3.229649E-05 -1.782649E-04 +1.459267E-04 +3.561849E-08 +1.459267E-04 +5.150959E-03 
 -2.799147E-04 +1.391497E-06 -7.128872E-05 +1.391497E-06 -1.028695E-04 +9.480893E-05 -7.128872E-05 +9.480893E-05 +5.136594E-03 
 -3.367845E-04 +3.539138E-05 -3.515774E-05 +3.539138E-05 -1.331420E-04 +2.290099E-04 -3.515774E-05 +2.290099E-04 +5.184061E-03 
 +3.498398E-05 +3.256314E-04 -3.362638E-05 +3.256314E-04 -1.235705E-04 +3.067954E-04 -3.362638E-05 +3.067954E-04 +5.203485E-03 
 +9.538770E-05 +4.469551E-04 -3.162575E-05 +4.469551E-04 -1.795315E-04 +1.961379E-04 -3.162575E-05 +1.961379E-04 +5.131298E-03 
 +1.063828E-04 +2.779998E-04 -3.714256E-05 +2.779998E-04 -2.346452E-04 -2.910727E-05 -3.714256E-05 -2.910727E-05 +5.132224E-03 
 +8.111436E-05 -2.443015E-04 +1.865617E-05 -2.443015E-04 -8.293650E-05 -4.051529E-05 +1.865617E-05 -4.051529E-05 +4.994812E-03 
 +1.017628E-04 +6.254606E-05 +6.057938E-05 +6.254606E-05 +1.522782E-04 +9.533515E-05 +6.057938E-05 +9.533515E-05 +4.888083E-03 
 +9.935009E-05 +1.759818E-04 +1.446074E-05 +1.759818E-04 +2.307426E-04 +6.138551E-05 +1.446074E-05 +6.138551E-05 +4.874731E-03 
 -4.711903E-05 -2.258317E-04 -6.111501E-05 -2.258317E-04 +1.100099E-04 -3.346233E-05 -6.111501E-05 -3.346233E-05 +4.918217E-03 
 -3.485140E-05 -1.183930E-04 -7.051654E-05 -1.183930E-04 +4.313915E-05 -6.543733E-05 -7.051654E-05 -6.543733E-05 +4.947433E-03 
 -1.191980E-04 -1.252681E-04 -3.303420E-05 -1.252681E-04 +1.258115E-04 -8.292197E-05 -3.303420E-05 -8.292197E-05 +4.963261E-03 
 -1.404615E-04 -1.387857E-04 +1.732407E-05 -1.387857E-04 +1.766525E-04 -9.978045E-05 +1.732407E-05 -9.978045E-05 +4.986814E-03 
 -1.306410E-04 -1.625580E-04 +7.057575E-05 -1.625580E-04 +2.062593E-04 -1.028565E-04 +7.057575E-05 -1.028565E-04 +5.006271E-03 
 -1.822126E-04 -1.434029E-04 +7.988413E-05 -1.434029E-04 +2.070421E-04 -6.631173E-05 +7.988413E-05 -6.631173E-05 +5.056157E-03 
 -1.914303E-04 -6.640774E-05 +4.593960E-05 -6.640774E-05 +1.013597E-04 -1.868670E-06 +4.593960E-05 -1.868670E-06 +5.098617E-03 
 +2.920735E-04 -2.505347E-04 -4.813721E-06 -2.505347E-04 -9.891424E-05 +7.208909E-05 -4.813721E-06 +7.208909E-05 +5.086280E-03 
 +2.729223E-04 -3.172216E-04 +4.088810E-06 -3.172216E-04 -1.969130E-04 +1.062238E-04 +4.088810E-06 +1.062238E-04 +5.088835E-03 
 +2.004758E-04 -3.427654E-04 +2.605445E-05 -3.427654E-04 -2.001244E-04 +1.001267E-04 +2.605445E-05 +1.001267E-04 +5.108962E-03 
 +2.198789E-04 -3.922888E-04 +4.220518E-05 -3.922888E-04 -2.535417E-04 +9.859688E-05 +4.220518E-05 +9.859688E-05 +5.118573E-03 
 +2.577641E-04 -4.678862E-04 +2.630130E-05 -4.678862E-04 -2.655463E-04 +1.346895E-04 +2.630130E-05 +1.346895E-04 +5.138329E-03 
 -1.484445E-04 -2.808166E-04 +1.012482E-05 -2.808166E-04 -1.800944E-04 +8.432804E-05 +1.012482E-05 +8.432804E-05 +5.140938E-03 
 -2.879888E-04 -3.134170E-04 -3.204470E-05 -3.134170E-04 -1.266985E-04 -1.195972E-05 -3.204470E-05 -1.195972E-05 +5.150947E-03 
 -2.484977E-04 -2.219770E-04 -1.104754E-05 -2.219770E-04 -9.401115E-05 +9.514630E-05 -1.104754E-05 +9.514630E-05 +5.186133E-03 
 -1.086736E-04 +2.369379E-04 +3.546508E-05 +2.369379E-04 -7.388596E-05 +2.618018E-04 +3.546508E-05 +2.618018E-04 +5.193261E-03 
 +7.850287E-06 +3.682874E-04 +1.543910E-05 +3.682874E-04 -1.577404E-04 +1.936375E-04 +1.543910E-05 +1.936375E-04 +5.190516E-03 
 +4.196444E-05 +3.649576E-04 +3.102985E-06 +3.649576E-04 -2.332504E-04 +4.353857E-05 +3.102985E-06 +4.353857E-05 +5.204140E-03 
 +7.843652E-05 +2.130352E-04 +2.919538E-05 +2.130352E-04 -1.642799E-04 +7.430116E-06 +2.919538E-05 +7.430116E-06 +5.125963E-03 
 +1.223234E-04 +3.530231E-04 +5.768964E-05 +3.530231E-04 -2.983027E-05 +2.226221E-05 +5.768964E-05 +2.226221E-05 +5.059306E-03 
 +1.877969E-04 +3.746461E-04 -4.373113E-05 +3.746461E-04 +1.421951E-05 -3.266589E-05 -4.373113E-05 -3.266589E-05 +5.018785E-03 
 -8.885105E-05 -2.763064E-04 -9.234244E-05 -2.763064E-04 +1.176840E-04 -5.404088E-05 -9.234244E-05 -5.404088E-05 +4.985263E-03 
 -1.423726E-04 -1.987752E-04 -5.299941E-05 -1.987752E-04 +1.243708E-04 -6.460186E-05 -5.299941E-05 -6.460186E-05 +4.976604E-03 
 -1.687394E-04 -2.011696E-04 -2.604850E-06 -2.011696E-04 +1.221679E-04 -1.376130E-04 -2.604850E-06 -1.376130E-04 +5.002796E-03 
 -1.935618E-04 -1.518308E-04 +6.793327E-05 -1.518308E-04 +1.752551E-04 -1.699410E-04 +6.793327E-05 -1.699410E-04 +5.045475E-03 
 -2.215341E-04 -1.647102E-04 +1.242088E-04 -1.647102E-04 +2.033243E-04 -1.169250E-04 +1.242088E-04 -1.169250E-04 +5.051256E-03 
 -2.245446E-04 -1.355998E-04 +9.014812E-05 -1.355998E-04 +1.657026E-04 -1.151834E-05 +9.014812E-05 -1.151834E-05 +5.075205E-03 
 -2.053237E-04 -1.586430E-04 +6.691551E-05 -1.586430E-04 +5.874424E-05 +6.261629E-05 +6.691551E-05 +6.261629E-05 +5.117870E-03 
 +2.703783E-04 -3.254174E-04 +4.258060E-05 -3.254174E-04 -1.402435E-04 +1.068344E-04 +4.258060E-05 +1.068344E-04 +5.142774E-03 
 +3.099736E-04 -2.716204E-04 +2.632466E-05 -2.716204E-04 -3.042794E-04 +1.161868E-04 +2.632466E-05 +1.161868E-04 +5.177577E-03 
 +2.809175E-04 -2.329745E-04 +3.960558E-05 -2.329745E-04 -2.862526E-04 +9.719594E-05 +3.960558E-05 +9.719594E-05 +5.188950E-03 
 +2.264511E-04 -3.685152E-04 +2.785977E-05 -3.685152E-04 -2.777893E-04 +8.963422E-05 +2.785977E-05 +8.963422E-05 +5.164229E-03 
 +1.664134E-04 -4.018849E-04 -2.635846E-06 -4.018849E-04 -2.534426E-04 +8.475525E-05 -2.635846E-06 +8.475525E-05 +5.138546E-03 
 -1.289298E-04 -2.132495E-04 -1.094233E-05 -2.132495E-04 -1.171418E-04 +4.616736E-05 -1.094233E-05 +4.616736E-05 +5.117067E-03 
 -1.424308E-04 -2.609223E-04 -1.566310E-05 -2.609223E-04 -8.832980E-05 -2.015266E-05 -1.566310E-05 -2.015266E-05 +5.116763E-03 
 -1.631517E-04 -1.563156E-04 +2.030789E-05 -1.563156E-04 -7.211509E-05 +4.028396E-05 +2.030789E-05 +4.028396E-05 +5.117546E-03 
 -2.706153E-05 +2.430437E-04 +9.486406E-05 +2.430437E-04 -8.423553E-05 +2.157658E-04 +9.486406E-05 +2.157658E-04 +5.110526E-03 
 +2.178774E-05 +3.776095E-04 +9.950084E-05 +3.776095E-04 -1.272777E-04 +1.947176E-04 +9.950084E-05 +1.947176E-04 +5.170917E-03 
 +4.331913E-05 +3.297240E-04 +8.859369E-05 +3.297240E-04 -1.681397E-04 +1.035280E-04 +8.859369E-05 +1.035280E-04 +5.154323E-03 
 +6.253196E-05 +1.751872E-04 +4.373107E-05 +1.751872E-04 -9.676217E-05 +4.610504E-05 +4.373107E-05 +4.610504E-05 +5.157641E-03 
 +1.093896E-04 +2.065815E-04 -1.111093E-06 +2.065815E-04 -6.102466E-05 +3.517618E-05 -1.111093E-06 +3.517618E-05 +5.148708E-03 
 +1.498803E-04 +3.005317E-04 -5.841741E-05 +3.005317E-04 -7.096464E-05 -6.383690E-05 -5.841741E-05 -6.383690E-05 +5.077935E-03 
 -2.163635E-04 -2.238315E-04 -4.152861E-05 -2.238315E-04 +8.750474E-05 -1.137150E-04 -4.152861E-05 -1.137150E-04 +5.017249E-03 
 -2.580350E-04 -2.355974E-04 +2.984037E-05 -2.355974E-04 +2.082895E-04 -8.872310E-05 +2.984037E-05 -8.872310E-05 +5.004590E-03 
 -2.006605E-04 -2.042651E-04 +5.882986E-05 -2.042651E-04 +1.197113E-04 -1.028201E-04 +5.882986E-05 -1.028201E-04 +5.040281E-03 
 -1.867247E-04 -1.189526E-04 +1.078525E-04 -1.189526E-04 +1.394864E-04 -1.437951E-04 +1.078525E-04 -1.437951E-04 +5.095576E-03 
 -2.691854E-04 -1.703671E-04 +1.311218E-04 -1.703671E-04 +1.922900E-04 -1.162812E-04 +1.311218E-04 -1.162812E-04 +5.086183E-03 
 -2.740158E-04 -1.773617E-04 +8.205198E-05 -1.773617E-04 +1.584237E-04 +8.509341E-06 +8.205198E-05 +8.509341E-06 +5.085384E-03 
 -8.795161E-05 -1.837141E-04 +1.164460E-04 -1.837141E-04 -9.644191E-06 +7.198975E-05 +1.164460E-04 +7.198975E-05 +5.126161E-03 
 +2.316653E-04 -3.226900E-04 +1.374694E-04 -3.226900E-04 -2.139305E-04 +1.264826E-04 +1.374694E-04 +1.264826E-04 +5.171903E-03 
 +2.317761E-04 -3.171204E-04 +1.181826E-04 -3.171204E-04 -3.374994E-04 +1.403707E-04 +1.181826E-04 +1.403707E-04 +5.214336E-03 
 +3.228515E-04 -2.933312E-04 +1.127277E-04 -2.933312E-04 -3.908660E-04 +1.091167E-04 +1.127277E-04 +1.091167E-04 +5.214097E-03 
 +4.002098E-04 -3.302035E-04 +9.389555E-05 -3.302035E-04 -2.258811E-04 +8.144691E-05 +9.389555E-05 +8.144691E-05 +5.175115E-03 
 +2.266639E-05 -2.273613E-04 +3.092655E-05 -2.273613E-04 +4.600817E-06 +2.501472E-05 +3.092655E-05 +2.501472E-05 +5.123998E-03 
 -5.260714E-05 -1.369827E-04 +2.071778E-07 -1.369827E-04 -4.202413E-05 -1.870764E-05 +2.071778E-07 -1.870764E-05 +5.087105E-03 
 -6.717011E-05 -2.097590E-04 +1.652661E-05 -2.097590E-04 -1.064139E-04 -5.385837E-05 +1.652661E-05 -5.385837E-05 +5.085590E-03 
 -6.458812E-05 -6.310442E-05 +4.672791E-05 -6.310442E-05 -2.423419E-05 +8.176008E-06 +4.672791E-05 +8.176008E-06 +5.065298E-03 
 +6.655468E-05 +2.497539E-04 +9.885445E-05 +2.497539E-04 -2.265512E-05 +1.684092E-04 +9.885445E-05 +1.684092E-04 +5.050537E-03 
 +3.627963E-05 +3.964585E-04 +1.277662E-04 +3.964585E-04 -1.543572E-04 +2.010904E-04 +1.277662E-04 +2.010904E-04 +5.112473E-03 
 -2.931348E-05 +2.789288E-04 +7.183723E-05 +2.789288E-04 +2.771391E-05 +2.021889E-04 +7.183723E-05 +2.021889E-04 +5.122214E-03 
 -3.900081E-05 +1.408854E-04 +4.482940E-05 +1.408854E-04 +6.182885E-05 +1.601996E-04 +4.482940E-05 +1.601996E-04 +5.142841E-03 
 -5.239415E-05 +3.338347E-05 +2.619032E-05 +3.338347E-05 +2.874769E-05 +8.381146E-05 +2.619032E-05 +8.381146E-05 +5.145938E-03 
 +3.092381E-05 -7.186617E-05 -8.008122E-06 -7.186617E-05 -1.068084E-04 -7.110256E-06 -8.008122E-06 -7.110256E-06 +5.083119E-03 
 +1.147934E-05 -2.835717E-04 -1.815831E-05 -2.835717E-04 -5.821453E-05 -8.400817E-05 -1.815831E-05 -8.400817E-05 +5.026444E-03 
 -2.744609E-04 -2.896806E-04 +7.642050E-05 -2.896806E-04 +1.450530E-04 -1.159777E-04 +7.642050E-05 -1.159777E-04 +5.005022E-03 
 -2.586819E-04 -2.490159E-04 +7.901624E-05 -2.490159E-04 +1.670656E-04 -9.866468E-05 +7.901624E-05 -9.866468E-05 +5.031136E-03 
 -2.046803E-04 -1.339309E-04 +7.246929E-05 -1.339309E-04 +1.124316E-04 -8.197988E-05 +7.246929E-05 -8.197988E-05 +5.105326E-03 
 -2.309834E-04 -1.539373E-04 +7.249736E-05 -1.539373E-04 +1.238748E-04 -5.843092E-05 +7.249736E-05 -5.843092E-05 +5.112022E-03 
 -1.047499E-04 -1.307700E-04 +8.258773E-05 -1.307700E-04 -1.752573E-05 +2.418557E-05 +8.258773E-05 +2.418557E-05 +5.093670E-03 
 +1.852729E-04 -3.333600E-05 +1.478524E-04 -3.333600E-05 -2.713872E-04 +6.453028E-05 +1.478524E-04 +6.453028E-05 +5.120804E-03 
 +1.816793E-04 -2.692912E-05 +1.682821E-04 -2.692912E-05 -2.927365E-04 +1.070856E-04 +1.682821E-04 +1.070856E-04 +5.144579E-03 
 +1.893627E-04 +6.250393E-05 +1.663232E-04 +6.250393E-05 -2.618229E-04 +1.495102E-04 +1.663232E-04 +1.495102E-04 +5.153473E-03 
 +2.962768E-04 +1.859217E-04 +1.464105E-04 +1.859217E-04 -3.042458E-04 +1.529653E-04 +1.464105E-04 +1.529653E-04 +5.143866E-03 
 +4.187446E-04 +1.177840E-04 +1.470984E-04 +1.177840E-04 -2.129170E-04 +1.272141E-04 +1.470984E-04 +1.272141E-04 +5.106254E-03 
 -6.610283E-05 -4.721784E-06 +1.767130E-05 -4.721784E-06 +1.216860E-05 +2.842856E-05 +1.767130E-05 +2.842856E-05 +5.055989E-03 
 -6.605702E-05 -1.229060E-04 +3.243634E-05 -1.229060E-04 +2.265775E-05 -5.125902E-05 +3.243634E-05 -5.125902E-05 +5.027183E-03 
 -2.032107E-05 -6.243400E-05 +7.262974E-05 -6.243400E-05 -6.819536E-05 -9.541362E-05 +7.262974E-05 -9.541362E-05 +5.012901E-03 
 +3.499488E-05 +1.107613E-04 +7.489066E-05 +1.107613E-04 +5.954536E-05 -7.527365E-05 +7.489066E-05 -7.527365E-05 +4.994424E-03 
 +2.544969E-05 +2.484608E-04 +7.642318E-05 +2.484608E-04 +1.518132E-04 +2.557850E-05 +7.642318E-05 +2.557850E-05 +5.028433E-03 
 -2.744238E-05 +2.430228E-04 +6.970058E-05 +2.430228E-04 +8.500404E-05 +1.462294E-04 +6.970058E-05 +1.462294E-04 +5.095211E-03 
 -1.029273E-04 +2.828519E-04 -2.747167E-06 +2.828519E-04 +9.684908E-05 +2.799538E-04 -2.747167E-06 +2.799538E-04 +5.145683E-03 
 -9.530532E-05 +1.532263E-04 +1.386217E-05 +1.532263E-04 +2.897975E-05 +2.432327E-04 +1.386217E-05 +2.432327E-04 +5.181220E-03 
 -2.087258E-04 +1.430687E-04 +8.597156E-05 +1.430687E-04 +2.920840E-06 +1.259831E-04 +8.597156E-05 +1.259831E-04 +5.205020E-03 
 -1.711904E-04 +1.166676E-04 +9.567857E-05 +1.166676E-04 -6.931952E-05 -4.250387E-07 +9.567857E-05 -4.250387E-07 +5.169227E-03 
 +5.439101E-05 -1.653103E-04 +2.411687E-05 -1.653103E-04 -8.866941E-05 -9.173987E-05 +2.411687E-05 -9.173987E-05 +5.082429E-03 
 -1.461137E-04 -3.403406E-04 +8.987109E-05 -3.403406E-04 +8.676835E-05 -1.442682E-04 +8.987109E-05 -1.442682E-04 +5.031265E-03 
 -2.109279E-04 -3.805015E-04 +9.731941E-05 -3.805015E-04 +1.541733E-04 -1.147411E-04 +9.731941E-05 -1.147411E-04 +5.049526E-03 
 -8.266892E-05 -8.681815E-05 +5.975733E-05 -8.681815E-05 +4.404153E-05 -2.815911E-05 +5.975733E-05 -2.815911E-05 +5.101821E-03 
 -5.262193E-05 -5.323156E-05 +2.525962E-05 -5.323156E-05 -1.703804E-04 -8.068687E-07 +2.525962E-05 -8.068687E-07 +5.115714E-03 
 +1.928020E-04 -5.391167E-05 +6.774338E-05 -5.391167E-05 -3.584236E-04 +2.502420E-05 +6.774338E-05 +2.502420E-05 +5.105947E-03 
 +2.439640E-04 -4.689253E-05 +7.886139E-05 -4.689253E-05 -3.302314E-04 +8.928016E-05 +7.886139E-05 +8.928016E-05 +5.117824E-03 
 +2.245628E-04 -7.262645E-05 +1.004226E-04 -7.262645E-05 -2.697236E-04 +1.337192E-04 +1.004226E-04 +1.337192E-04 +5.100966E-03 
 +2.736717E-04 -4.486088E-05 +1.241942E-04 -4.486088E-05 -2.216315E-04 +1.672423E-04 +1.241942E-04 +1.672423E-04 +5.039864E-03 
 +2.842235E-04 +8.146406E-05 +1.191031E-04 +8.146406E-05 -2.083727E-04 +1.889471E-04 +1.191031E-04 +1.889471E-04 +4.989894E-03 
 +2.586727E-04 +1.537765E-04 +8.903188E-05 +1.537765E-04 -2.346277E-04 +1.302801E-04 +8.903188E-05 +1.302801E-04 +4.965508E-03 
 -8.339358E-05 +2.641304E-04 -1.903606E-05 +2.641304E-04 -8.935372E-05 -1.823380E-05 -1.903606E-05 -1.823380E-05 +4.935626E-03 
 -7.211446E-05 -4.442512E-06 +2.157312E-05 -4.442512E-06 +8.758232E-05 -1.085434E-04 +2.157312E-05 -1.085434E-04 +4.910886E-03 
 -5.164552E-05 +8.865264E-05 +4.524750E-05 +8.865264E-05 +9.073517E-05 -1.331348E-04 +4.524750E-05 -1.331348E-04 +4.931722E-03 
 -3.842632E-05 +2.014490E-04 +3.201935E-05 +2.014490E-04 +9.617803E-05 -9.271184E-05 +3.201935E-05 -9.271184E-05 +4.987036E-03 
 -9.895013E-05 +2.219601E-04 +1.122359E-05 +2.219601E-04 +1.082698E-04 +2.865095E-05 +1.122359E-05 +2.865095E-05 +5.064549E-03 
 -1.172770E-04 +2.532438E-04 -1.529643E-06 +2.532438E-04 +1.219248E-04 +1.959866E-04 -1.529643E-06 +1.959866E-04 +5.111560E-03 
 -1.257959E-04 +2.601728E-04 -5.738031E-05 +2.601728E-04 +1.164415E-04 +2.930327E-04 -5.738031E-05 +2.930327E-04 +5.137793E-03 
 -1.593885E-04 +1.846391E-04 +2.810900E-05 +1.846391E-04 +9.808597E-06 +2.010773E-04 +2.810900E-05 +2.010773E-04 +5.201664E-03 
 -2.033249E-04 +1.567297E-04 +7.907722E-05 +1.567297E-04 -2.589091E-05 +1.069364E-04 +7.907722E-05 +1.069364E-04 +5.266547E-03 
 -2.464967E-04 +9.985023E-05 +1.125699E-04 +9.985023E-05 -5.326989E-05 +1.045740E-05 +1.125699E-04 +1.045740E-05 +5.253235E-03 
 -1.424250E-04 +8.378367E-05 +9.343632E-05 +8.378367E-05 -5.825696E-05 -1.129698E-04 +9.343632E-05 -1.129698E-04 +5.139220E-03 
 -9.150590E-05 -1.957923E-05 +9.068388E-05 -1.957923E-05 +1.573116E-05 -1.505679E-04 +9.068388E-05 -1.505679E-04 +5.064096E-03 
 -9.205156E-05 -3.080199E-04 +8.402163E-05 -3.080199E-04 -4.962272E-05 -1.417554E-04 +8.402163E-05 -1.417554E-04 +5.078340E-03 
 +1.511896E-04 -7.603311E-05 +1.220880E-04 -7.603311E-05 -2.879830E-04 -1.398589E-04 +1.220880E-04 -1.398589E-04 +5.089968E-03 
 +1.296704E-04 -7.561832E-05 +7.146560E-05 -7.561832E-05 -4.079017E-04 -8.523390E-05 +7.146560E-05 -8.523390E-05 +5.112066E-03 
 +2.061746E-04 -1.224147E-04 +6.284252E-05 -1.224147E-04 -3.622633E-04 +9.957511E-06 +6.284252E-05 +9.957511E-06 +5.126300E-03 
 +1.823245E-04 -1.315323E-04 +3.545991E-05 -1.315323E-04 -3.049404E-04 +8.051815E-05 +3.545991E-05 +8.051815E-05 +5.115930E-03 
 +2.258966E-04 -1.472982E-04 +6.249389E-05 -1.472982E-04 -2.357152E-04 +9.508591E-05 +6.249389E-05 +9.508591E-05 +5.070064E-03 
 +2.846802E-04 -1.687713E-04 +9.814309E-05 -1.687713E-04 -1.834669E-04 +1.121306E-04 +9.814309E-05 +1.121306E-04 +4.968559E-03 
 +2.925392E-04 -1.010302E-04 +9.707113E-05 -1.010302E-04 -1.534736E-04 +5.982050E-05 +9.707113E-05 +5.982050E-05 +4.878895E-03 
 +2.020591E-04 -1.249765E-05 -1.560948E-05 -1.249765E-05 -4.701319E-05 -1.150223E-04 -1.560948E-05 -1.150223E-04 +4.864016E-03 
 +4.496271E-05 +7.611219E-05 -3.106830E-05 +7.611219E-05 -5.478628E-05 -2.613024E-04 -3.106830E-05 -2.613024E-04 +4.818660E-03 
 +7.651320E-05 -1.950063E-06 -4.380009E-05 -1.950063E-06 +4.193653E-05 -2.504542E-04 -4.380009E-05 -2.504542E-04 +4.820040E-03 
 -1.676889E-04 +2.784288E-05 -6.246770E-05 +2.784288E-05 +2.361970E-04 -1.257149E-04 -6.246770E-05 -1.257149E-04 +4.972731E-03 
 -1.887391E-04 +1.626221E-04 -7.667003E-05 +1.626221E-04 +1.606653E-04 -3.558394E-05 -7.667003E-05 -3.558394E-05 +5.075680E-03 
 -2.182183E-04 +1.917163E-04 -5.520093E-05 +1.917163E-04 +4.672885E-05 +9.408721E-05 -5.520093E-05 +9.408721E-05 +5.112969E-03 
 -1.602369E-04 +2.828651E-04 -4.764921E-05 +2.828651E-04 +8.448392E-05 +2.650905E-04 -4.764921E-05 +2.650905E-04 +5.126044E-03 
 -1.362970E-04 +2.068429E-04 -1.086643E-04 +2.068429E-04 +7.877199E-05 +2.766476E-04 -1.086643E-04 +2.766476E-04 +5.113166E-03 
 -2.095751E-04 +7.559733E-05 -2.156586E-05 +7.559733E-05 +5.503142E-05 +1.676329E-04 -2.156586E-05 +1.676329E-04 +5.202378E-03 
 -1.943735E-04 +1.470108E-04 -1.275472E-05 +1.470108E-04 -3.615234E-05 +4.732357E-05 -1.275472E-05 +4.732357E-05 +5.289657E-03 
 -2.132703E-04 +1.114195E-04 +6.061769E-05 +1.114195E-04 -8.268783E-05 -6.819315E-05 +6.061769E-05 -6.819315E-05 +5.289417E-03 
 -1.329268E-04 +9.953301E-05 +1.083004E-04 +9.953301E-05 -1.321910E-04 -1.686066E-04 +1.083004E-04 -1.686066E-04 +5.223636E-03 
 -1.390587E-04 +1.849846E-05 +1.289318E-04 +1.849846E-05 -2.252407E-04 -1.432479E-04 +1.289318E-04 -1.432479E-04 +5.142744E-03 
 +3.935772E-05 -2.798215E-04 +1.157825E-04 -2.798215E-04 -2.745001E-04 -1.245118E-04 +1.157825E-04 -1.245118E-04 +5.074143E-03 
 +1.603479E-04 -1.309256E-04 +1.523787E-04 -1.309256E-04 -3.043614E-04 -1.082306E-04 +1.523787E-04 -1.082306E-04 +5.058270E-03 
 +1.491398E-04 -1.733290E-04 +1.088938E-04 -1.733290E-04 -3.086473E-04 -5.815821E-05 +1.088938E-04 -5.815821E-05 +5.105850E-03 
 +1.395670E-04 -2.143928E-04 +8.370913E-05 -2.143928E-04 -2.727898E-04 -1.072785E-05 +8.370913E-05 -1.072785E-05 +5.130665E-03 
 +1.961807E-04 -1.820486E-04 +5.483408E-05 -1.820486E-04 -2.594228E-04 +3.571692E-05 +5.483408E-05 +3.571692E-05 +5.114545E-03 
 +2.265199E-04 -1.657648E-04 +4.552490E-05 -1.657648E-04 -2.377756E-04 +4.623201E-05 +4.552490E-05 +4.623201E-05 +5.052480E-03 
 +2.623823E-04 -1.616198E-04 +5.972149E-05 -1.616198E-04 -1.738256E-04 +4.272914E-05 +5.972149E-05 +4.272914E-05 +4.950236E-03 
 +2.712230E-04 -9.947142E-05 +7.046263E-05 -9.947142E-05 -1.091713E-04 -4.373187E-05 +7.046263E-05 -4.373187E-05 +4.891491E-03 
 +1.985339E-04 +6.983334E-05 -3.230002E-05 +6.983334E-05 -5.288330E-05 -1.812083E-04 -3.230002E-05 -1.812083E-04 +4.863410E-03 
 +1.702723E-04 +8.685970E-05 -4.470715E-05 +8.685970E-05 -5.989470E-06 -2.302395E-04 -4.470715E-05 -2.302395E-04 +4.789651E-03 
 +9.897818E-05 -1.259113E-06 -7.287418E-05 -1.259113E-06 +5.369272E-05 -1.607057E-04 -7.287418E-05 -1.607057E-04 +4.868404E-03 
 -2.184648E-04 -1.251123E-04 -9.296807E-05 -1.251123E-04 +2.091190E-04 -1.743787E-05 -9.296807E-05 -1.743787E-05 +5.055516E-03 
 -2.936413E-04 -6.238593E-05 -1.568993E-04 -6.238593E-05 +3.179487E-04 +6.469890E-05 -1.568993E-04 +6.469890E-05 +5.090757E-03 
 -3.045914E-04 -6.644161E-05 -1.444614E-04 -6.644161E-05 +1.589659E-04 +1.892334E-04 -1.444614E-04 +1.892334E-04 +5.094404E-03 
 -7.018244E-05 +2.825050E-04 -1.295945E-04 +2.825050E-04 +3.703952E-05 +2.955224E-04 -1.295945E-04 +2.955224E-04 +5.108790E-03 
 -1.059630E-04 +2.084965E-04 -1.828825E-04 +2.084965E-04 +4.246414E-05 +2.254348E-04 -1.828825E-04 +2.254348E-04 +5.141402E-03 
 -1.824968E-04 +1.442341E-04 -1.030901E-04 +1.442341E-04 -5.681421E-06 +1.221222E-04 -1.030901E-04 +1.221222E-04 +5.220767E-03 
 -1.692885E-04 +1.940836E-04 -6.368990E-05 +1.940836E-04 -2.321330E-05 -1.653486E-05 -6.368990E-05 -1.653486E-05 +5.266252E-03 
 -1.217594E-04 +1.582871E-04 -1.591050E-05 +1.582871E-04 -1.085187E-04 -1.206037E-04 -1.591050E-05 -1.206037E-04 +5.234810E-03 
 -1.173870E-04 +1.770025E-04 +4.029920E-05 +1.770025E-04 -2.373745E-04 -1.373458E-04 +4.029920E-05 -1.373458E-04 +5.225269E-03 
 -1.852711E-04 +9.659741E-05 +1.017414E-04 +9.659741E-05 -3.143304E-04 -8.407475E-05 +1.017414E-04 -8.407475E-05 +5.209468E-03 
 +2.832139E-05 -2.513968E-04 +1.551170E-04 -2.513968E-04 -2.790249E-04 -1.053417E-04 +1.551170E-04 -1.053417E-04 +5.141421E-03 
 +8.147162E-05 -1.863953E-04 +1.739072E-04 -1.863953E-04 -1.911701E-04 -9.462614E-05 +1.739072E-04 -9.462614E-05 +5.089055E-03 
 +8.703390E-05 -1.873699E-04 +1.275794E-04 -1.873699E-04 -2.096150E-04 -3.962424E-05 +1.275794E-04 -3.962424E-05 +5.096655E-03 
 +1.411187E-04 -2.258503E-04 +1.048093E-04 -2.258503E-04 -2.770426E-04 -7.416313E-06 +1.048093E-04 -7.416313E-06 +5.102341E-03 
 +1.948800E-04 -2.093830E-04 +7.568219E-05 -2.093830E-04 -2.829242E-04 +2.516415E-05 +7.568219E-05 +2.516415E-05 +5.070063E-03 
 +2.463862E-04 -1.919987E-04 +3.709076E-05 -1.919987E-04 -2.569542E-04 +1.249151E-05 +3.709076E-05 +1.249151E-05 +5.032563E-03 
 +2.507614E-04 -1.813156E-04 +5.435144E-05 -1.813156E-04 -2.020230E-04 -3.537590E-05 +5.435144E-05 -3.537590E-05 +4.994875E-03 
 +2.783103E-04 -1.208558E-04 +6.666823E-05 -1.208558E-04 -1.455378E-04 -1.065361E-04 +6.666823E-05 -1.065361E-04 +4.974750E-03 
 +2.795315E-04 +8.425678E-05 +1.024305E-06 +8.425678E-05 -8.227899E-05 -1.955079E-04 +1.024305E-06 -1.955079E-04 +4.878208E-03 
 +1.597173E-04 +7.398591E-05 -6.323288E-05 +7.398591E-05 +8.770966E-05 -1.636514E-04 -6.323288E-05 -1.636514E-04 +4.813884E-03 
 -1.066493E-04 -7.599980E-05 -5.185953E-05 -7.599980E-05 +2.014131E-04 -1.679593E-05 -5.185953E-05 -1.679593E-05 +4.972802E-03 
 -2.212804E-04 -1.448610E-04 -8.414919E-05 -1.448610E-04 +2.289507E-04 +7.007640E-05 -8.414919E-05 +7.007640E-05 +5.085591E-03 
 -2.950527E-04 -1.065365E-04 -1.858516E-04 -1.065365E-04 +2.577635E-04 +5.270073E-05 -1.858516E-04 +5.270073E-05 +5.060709E-03 
 -1.758582E-04 -9.232581E-05 -1.731368E-04 -9.232581E-05 +1.679109E-04 +1.083553E-04 -1.731368E-04 +1.083553E-04 +5.041811E-03 
 -6.658400E-05 +3.487972E-04 -2.050533E-04 +3.487972E-04 +7.511456E-05 +2.021335E-04 -2.050533E-04 +2.021335E-04 +5.079365E-03 
 +2.512208E-04 +1.544164E-04 -3.281449E-04 +1.544164E-04 -6.791080E-05 +9.244092E-05 -3.281449E-04 +9.244092E-05 +5.017415E-03 
 +1.054394E-04 +1.400029E-04 -2.520865E-04 +1.400029E-04 -1.769398E-04 -6.309665E-06 -2.520865E-04 -6.309665E-06 +5.055553E-03 
 -5.682698E-05 +2.207556E-04 -1.730463E-04 +2.207556E-04 -1.411300E-04 -6.185700E-05 -1.730463E-04 -6.185700E-05 +5.115537E-03 
 -6.954685E-05 +2.079867E-04 -1.569425E-04 +2.079867E-04 -1.476981E-04 +1.724974E-05 -1.569425E-04 +1.724974E-05 +5.160800E-03 
 -9.523358E-05 +1.314161E-04 -1.385114E-04 +1.314161E-04 -1.787005E-04 +8.811755E-05 -1.385114E-04 +8.811755E-05 +5.132957E-03 
 -9.414075E-05 +8.930112E-05 +7.628806E-05 +8.930112E-05 -2.196575E-04 +2.798166E-05 +7.628806E-05 +2.798166E-05 +5.237492E-03 
 +2.200940E-05 +2.466076E-05 +9.265372E-05 +2.466076E-05 -1.832307E-04 +2.142806E-05 +9.265372E-05 +2.142806E-05 +5.229453E-03 
 +1.121136E-04 +9.224403E-05 +1.392066E-04 +9.224403E-05 -1.315731E-04 +2.370376E-05 +1.392066E-04 +2.370376E-05 +5.066420E-03 
 +9.218877E-05 +3.127122E-05 +1.764398E-04 +3.127122E-05 -1.445568E-04 +4.625455E-06 +1.764398E-04 +4.625455E-06 +5.062242E-03 
 +4.643645E-05 +2.494174E-05 +8.239905E-05 +2.494174E-05 -6.488613E-05 +1.256192E-05 +8.239905E-05 +1.256192E-05 +5.055013E-03 
 +1.443438E-04 -8.829653E-05 +7.838258E-05 -8.829653E-05 -1.091885E-04 +3.124976E-05 +7.838258E-05 +3.124976E-05 +4.994121E-03 
 +2.034124E-04 -1.462839E-04 +4.047987E-05 -1.462839E-04 -2.512847E-04 +2.519190E-05 +4.047987E-05 +2.519190E-05 +4.992689E-03 
 +2.671016E-04 -1.912638E-04 +6.456789E-05 -1.912638E-04 -2.997326E-04 -2.962793E-05 +6.456789E-05 -2.962793E-05 +5.074713E-03 
 +3.049787E-04 -1.492489E-04 +1.115693E-04 -1.492489E-04 -3.027353E-04 -4.321116E-05 +1.115693E-04 -4.321116E-05 +5.055658E-03 
 +1.217093E-04 +1.241594E-04 -2.408616E-05 +1.241594E-04 -2.042340E-05 -4.176506E-05 -2.408616E-05 -4.176506E-05 +5.051328E-03 
 -1.680730E-04 +8.547283E-05 -5.995284E-05 +8.547283E-05 +2.156146E-04 -1.155536E-05 -5.995284E-05 -1.155536E-05 +5.135394E-03 
 -3.235818E-04 -6.412697E-05 -4.627980E-05 -6.412697E-05 +2.559569E-04 +2.357352E-05 -4.627980E-05 +2.357352E-05 +5.101511E-03 
 -2.754745E-04 -8.114584E-05 -6.663201E-05 -8.114584E-05 +2.838648E-04 +3.874681E-05 -6.663201E-05 +3.874681E-05 +5.061887E-03 
 -3.280736E-04 -4.332664E-05 -1.674956E-04 -4.332664E-05 +2.012567E-04 +7.523977E-05 -1.674956E-04 +7.523977E-05 +5.167638E-03 
 -2.657338E-04 -3.368145E-05 -1.947132E-04 -3.368145E-05 +8.157395E-05 +9.394568E-05 -1.947132E-04 +9.394568E-05 +5.194953E-03 
 +5.811513E-06 +4.952620E-04 -2.545523E-04 +4.952620E-04 +6.044908E-05 +1.285496E-04 -2.545523E-04 +1.285496E-04 +5.070724E-03 
 +1.994165E-04 -1.349898E-04 -2.010860E-04 -1.349898E-04 -1.521363E-04 -2.433424E-05 -2.010860E-04 -2.433424E-05 +5.027482E-03 
 +9.562020E-05 -8.674336E-05 -1.952640E-04 -8.674336E-05 -2.738640E-04 -1.099855E-04 -1.952640E-04 -1.099855E-04 +5.070142E-03 
 +3.255036E-05 -1.062565E-06 -8.984103E-05 -1.062565E-06 -3.494190E-04 -1.288407E-04 -8.984103E-05 -1.288407E-04 +5.134867E-03 
 +3.669868E-05 +1.679028E-04 -2.015510E-05 +1.679028E-04 -3.352923E-04 -2.672720E-05 -2.015510E-05 -2.672720E-05 +5.138461E-03 
 +1.174003E-04 +2.259008E-04 -5.399879E-05 +2.259008E-04 -2.786508E-04 +1.332700E-04 -5.399879E-05 +1.332700E-04 +5.085064E-03 
 +9.508260E-05 +1.664784E-04 +1.039693E-04 +1.664784E-04 -3.618969E-04 +1.842006E-04 +1.039693E-04 +1.842006E-04 +5.203423E-03 
 +3.920957E-05 +1.494119E-04 +1.510068E-04 +1.494119E-04 -3.935673E-04 +1.118099E-04 +1.510068E-04 +1.118099E-04 +5.275501E-03 
 +2.860527E-05 +2.260056E-04 +1.315984E-04 +2.260056E-04 -2.505007E-04 +4.117906E-05 +1.315984E-04 +4.117906E-05 +5.157470E-03 
 +3.766212E-05 +1.963508E-04 +1.170111E-04 +1.963508E-04 -1.052485E-04 +1.412173E-05 +1.170111E-04 +1.412173E-05 +5.064727E-03 
 -1.312561E-05 +2.539310E-04 -4.282767E-06 +2.539310E-04 -4.785521E-06 +5.142369E-06 -4.282767E-06 +5.142369E-06 +4.996874E-03 
 -7.759594E-06 -1.269645E-05 +5.518249E-05 -1.269645E-05 -2.057569E-05 +4.721075E-05 +5.518249E-05 +4.721075E-05 +4.935296E-03 
 +4.314974E-06 +2.471969E-05 +6.244039E-05 +2.471969E-05 -8.935635E-05 +4.570155E-05 +6.244039E-05 +4.570155E-05 +4.962276E-03 
 +1.710325E-04 -1.978013E-04 +7.624154E-05 -1.978013E-04 -3.309259E-04 -2.402855E-05 +7.624154E-05 -2.402855E-05 +5.137844E-03 
 +1.000888E-04 -5.646279E-05 +1.645490E-04 -5.646279E-05 -3.054269E-04 -3.904318E-06 +1.645490E-04 -3.904318E-06 +5.132003E-03 
 -3.050597E-05 +1.575972E-04 -2.486706E-05 +1.575972E-04 -4.244529E-05 +6.552092E-05 -2.486706E-05 +6.552092E-05 +5.062364E-03 
 -7.604624E-05 +5.295513E-05 -8.202406E-06 +5.295513E-05 -4.956073E-06 +9.079720E-05 -8.202406E-06 +9.079720E-05 +5.159657E-03 
 -3.692872E-04 -3.317942E-05 -1.302302E-05 -3.317942E-05 +1.508289E-04 +3.319174E-05 -1.302302E-05 +3.319174E-05 +5.170912E-03 
 -6.962203E-05 -1.610606E-04 -2.385174E-05 -1.610606E-04 +1.609167E-04 -3.056487E-05 -2.385174E-05 -3.056487E-05 +5.115557E-03 
 -1.599923E-04 -4.913743E-05 -1.867153E-04 -4.913743E-05 +4.130467E-05 +2.050632E-05 -1.867153E-04 +2.050632E-05 +5.172030E-03 
 -1.763542E-04 -4.032803E-05 -1.720495E-04 -4.032803E-05 +8.407489E-05 +6.883847E-05 -1.720495E-04 +6.883847E-05 +5.206954E-03 
 -5.475835E-05 +3.645869E-04 -1.532738E-04 +3.645869E-04 +2.163421E-05 +4.676276E-05 -1.532738E-04 +4.676276E-05 +5.107227E-03 
 +8.532215E-05 -5.747475E-05 -3.738802E-05 -5.747475E-05 -1.796662E-04 -1.750260E-05 -3.738802E-05 -1.750260E-05 +5.062628E-03 
 +1.191108E-04 +4.427523E-05 -5.845725E-05 +4.427523E-05 -2.833854E-04 -1.438763E-04 -5.845725E-05 -1.438763E-04 +5.087578E-03 
 +1.240550E-04 +1.115936E-04 -3.912095E-05 +1.115936E-04 -4.253275E-04 -1.576709E-04 -3.912095E-05 -1.576709E-04 +5.123963E-03 
 +2.057842E-04 +2.145326E-04 +8.153196E-06 +2.145326E-04 -5.999469E-04 -1.479009E-04 +8.153196E-06 -1.479009E-04 +5.128906E-03 
 +3.118516E-04 +1.834915E-04 -5.484158E-05 +1.834915E-04 -6.224838E-04 -4.795754E-05 -5.484158E-05 -4.795754E-05 +5.158787E-03 
 +1.977988E-04 -8.077504E-06 -7.636319E-06 -8.077504E-06 -5.033515E-04 +6.263483E-05 -7.636319E-06 +6.263483E-05 +5.181342E-03 
 +4.552663E-05 +8.690961E-05 +9.916809E-05 +8.690961E-05 -3.424368E-04 +7.412021E-05 +9.916809E-05 +7.412021E-05 +5.133641E-03 
 +1.630468E-05 +1.331713E-04 +1.228540E-04 +1.331713E-04 -2.324518E-04 +2.690505E-05 +1.228540E-04 +2.690505E-05 +5.117868E-03 
 +8.517021E-06 +1.880956E-04 +7.653670E-05 +1.880956E-04 -2.994914E-05 +3.489024E-06 +7.653670E-05 +3.489024E-06 +5.078837E-03 
 +3.078904E-05 +1.413218E-04 +1.546667E-06 +1.413218E-04 +9.492939E-05 +1.322412E-05 +1.546667E-06 +1.322412E-05 +5.011285E-03 
 +5.730769E-05 +2.600630E-05 +3.132115E-05 +2.600630E-05 +4.188779E-05 +2.870259E-05 +3.132115E-05 +2.870259E-05 +4.962751E-03 
 -1.464692E-04 +1.234298E-04 -8.311268E-06 +1.234298E-04 -8.707503E-05 -3.087357E-06 -8.311268E-06 -3.087357E-06 +4.987350E-03 
 -1.785246E-04 -1.537880E-04 -2.864103E-05 -1.537880E-04 -1.779084E-04 +7.028436E-06 -2.864103E-05 +7.028436E-06 +5.139749E-03 
 -3.447520E-04 +2.022391E-04 +6.139429E-05 +2.022391E-04 +1.389060E-05 +3.553800E-05 +6.139429E-05 +3.553800E-05 +5.167615E-03 
 +2.425367E-05 +1.816382E-04 -3.418637E-05 +1.816382E-04 +1.187809E-05 +6.780037E-05 -3.418637E-05 +6.780037E-05 +5.101859E-03 
 -8.815773E-05 +1.842189E-04 -1.066793E-05 +1.842189E-04 -6.820271E-05 +1.648985E-04 -1.066793E-05 +1.648985E-04 +5.130150E-03 
 -2.105382E-04 +1.092353E-04 +2.593939E-05 +1.092353E-04 -1.605451E-04 +1.659852E-04 +2.593939E-05 +1.659852E-04 +5.227599E-03 
 +1.852460E-05 -4.336214E-05 +2.674683E-05 -4.336214E-05 -2.580618E-04 +6.831734E-05 +2.674683E-05 +6.831734E-05 +5.271841E-03 
 -4.128076E-05 -1.979151E-06 -9.552242E-05 -1.979151E-06 -1.693750E-04 -1.565759E-05 -9.552242E-05 -1.565759E-05 +5.182096E-03 
 -9.459616E-05 +5.670327E-05 -1.011856E-04 +5.670327E-05 -3.912880E-05 +1.415292E-06 -1.011856E-04 +1.415292E-06 +5.130074E-03 
 -1.404793E-04 +3.740622E-04 -7.091490E-05 +3.740622E-04 -3.225741E-05 +8.509291E-05 -7.091490E-05 +8.509291E-05 +5.102605E-03 
 +2.119243E-04 -7.211191E-05 -1.060931E-05 -7.211191E-05 -2.014165E-04 -6.109889E-05 -1.060931E-05 -6.109889E-05 +5.084464E-03 
 +1.752730E-04 +1.238565E-04 +3.692550E-05 +1.238565E-04 -2.526687E-04 -1.440657E-04 +3.692550E-05 -1.440657E-04 +5.083465E-03 
 +1.126005E-04 +1.484223E-04 +2.314037E-06 +1.484223E-04 -3.034220E-04 -1.523118E-04 +2.314037E-06 -1.523118E-04 +5.099115E-03 
 +1.345523E-04 +1.551779E-04 -1.243587E-05 +1.551779E-04 -4.114727E-04 -1.809729E-04 -1.243587E-05 -1.809729E-04 +5.123316E-03 
 +2.660232E-04 +1.118493E-04 -6.082436E-05 +1.118493E-04 -5.693686E-04 -1.324302E-04 -6.082436E-05 -1.324302E-04 +5.171993E-03 
 +2.594326E-04 +4.435435E-05 -1.939166E-05 +4.435435E-05 -3.276013E-04 -2.703328E-05 -1.939166E-05 -2.703328E-05 +5.107790E-03 
 +1.134969E-04 +1.865730E-05 +7.915853E-05 +1.865730E-05 +6.362056E-06 +3.928532E-05 +7.915853E-05 +3.928532E-05 +4.904789E-03 
 +9.888555E-05 +5.647842E-05 +1.191848E-04 +5.647842E-05 -4.478213E-06 +1.949338E-05 +1.191848E-04 +1.949338E-05 +4.972814E-03 
 +3.317273E-05 +2.447001E-04 +3.534983E-05 +2.447001E-04 -1.496079E-04 -4.753746E-05 +3.534983E-05 -4.753746E-05 +5.162710E-03 
 +2.326088E-04 +1.970899E-04 -1.490654E-05 +1.970899E-04 -2.296712E-04 -2.715769E-05 -1.490654E-05 -2.715769E-05 +5.127223E-03 
 +1.509502E-05 +5.259394E-05 -2.450677E-05 +5.259394E-05 -6.601685E-05 +7.239027E-06 -2.450677E-05 +7.239027E-06 +5.032638E-03 
 -4.007365E-04 -1.682447E-04 -7.466192E-05 -1.682447E-04 +1.899918E-04 +2.791498E-06 -7.466192E-05 +2.791498E-06 +5.027745E-03 
 -4.482958E-04 -3.423983E-04 -6.481011E-05 -3.423983E-04 +3.571053E-04 +5.431347E-05 -6.481011E-05 +5.431347E-05 +5.078581E-03 
 -5.129723E-04 +1.252142E-04 -4.164770E-05 +1.252142E-04 +1.081994E-04 -1.842250E-05 -4.164770E-05 -1.842250E-05 +5.152749E-03 
 -1.347741E-04 +1.490193E-04 -8.346092E-05 +1.490193E-04 -1.379285E-04 -4.014032E-05 -8.346092E-05 -4.014032E-05 +5.157152E-03 
 +1.302431E-05 +1.301127E-04 -7.055043E-05 +1.301127E-04 -1.739572E-04 +9.753003E-05 -7.055043E-05 +9.753003E-05 +5.099802E-03 
 +1.969721E-05 +2.898295E-05 +2.597610E-05 +2.898295E-05 -2.464511E-04 +1.089831E-04 +2.597610E-05 +1.089831E-04 +5.157840E-03 
 -7.785003E-05 -1.988491E-05 +4.462604E-05 -1.988491E-05 -1.065783E-04 +3.963270E-05 +4.462604E-05 +3.963270E-05 +5.231925E-03 
 -7.525307E-06 -9.528716E-05 -5.050187E-06 -9.528716E-05 -4.357689E-05 -4.181569E-05 -5.050187E-06 -4.181569E-05 +5.146008E-03 
 -3.791678E-05 -2.885015E-06 -8.386690E-06 -2.885015E-06 -5.420991E-05 -6.996765E-05 -8.386690E-06 -6.996765E-05 +5.070805E-03 
 -6.552489E-05 +1.403064E-04 -7.143853E-06 +1.403064E-04 -9.475997E-05 +4.530668E-06 -7.143853E-06 +4.530668E-06 +5.067926E-03 
 +3.440904E-04 +3.653816E-05 -1.068860E-05 +3.653816E-05 -6.427102E-05 -8.626556E-05 -1.068860E-05 -8.626556E-05 +4.872731E-03 
 +2.085896E-04 +8.895178E-05 +3.812509E-05 +8.895178E-05 +2.191996E-05 -1.765178E-04 +3.812509E-05 -1.765178E-04 +4.877757E-03 
 +3.562923E-05 +7.259261E-05 +4.933221E-05 +7.259261E-05 -1.491281E-05 -2.473299E-04 +4.933221E-05 -2.473299E-04 +5.009123E-03 
 +3.282114E-05 +7.020604E-05 -1.244111E-05 +7.020604E-05 -9.820613E-05 -3.094436E-04 -1.244111E-05 -3.094436E-04 +5.046017E-03 
 +7.602883E-05 +2.217680E-05 -2.449481E-05 +2.217680E-05 -2.078551E-04 -2.722905E-04 -2.449481E-05 -2.722905E-04 +5.034821E-03 
 +2.227071E-04 +1.395018E-04 -6.206559E-06 +1.395018E-04 -2.574555E-04 -1.507527E-04 -6.206559E-06 -1.507527E-04 +5.045936E-03 
 +2.743050E-04 -3.951910E-05 +5.102785E-05 -3.951910E-05 -2.151914E-04 -6.545056E-05 +5.102785E-05 -6.545056E-05 +4.984782E-03 
 +2.668094E-04 -5.457898E-06 +1.074937E-04 -5.457898E-06 -1.774824E-04 -7.211367E-05 +1.074937E-04 -7.211367E-05 +5.054374E-03 
 +2.192084E-04 +1.654500E-04 +4.051609E-05 +1.654500E-04 -1.812846E-04 -1.507153E-04 +4.051609E-05 -1.507153E-04 +5.205307E-03 
 +1.291646E-04 +1.361084E-04 -2.772718E-05 +1.361084E-04 -7.359093E-05 -1.198469E-04 -2.772718E-05 -1.198469E-04 +5.157791E-03 
 -3.716884E-04 -1.579620E-04 -5.051502E-05 -1.579620E-04 +1.957697E-04 -4.070917E-05 -5.051502E-05 -4.070917E-05 +5.068844E-03 
 -4.805209E-04 -3.017726E-04 -2.685256E-05 -3.017726E-04 +3.362200E-04 -1.125735E-05 -2.685256E-05 -1.125735E-05 +5.033830E-03 
 -4.476496E-04 -3.178150E-04 -2.328020E-05 -3.178150E-04 +3.816504E-04 +6.492799E-05 -2.328020E-05 +6.492799E-05 +5.006499E-03 
 -4.232890E-04 -8.841995E-05 -5.445067E-05 -8.841995E-05 +2.724507E-04 -2.775993E-05 -5.445067E-05 -2.775993E-05 +5.044523E-03 
 -3.535668E-04 +2.468847E-04 -8.392973E-05 +2.468847E-04 +8.358687E-05 -9.071741E-05 -8.392973E-05 -9.071741E-05 +5.081928E-03 
 +1.471430E-05 +5.854097E-05 -8.037924E-05 +5.854097E-05 -1.565744E-04 -1.953264E-06 -8.037924E-05 -1.953264E-06 +5.099399E-03 
 +5.990434E-05 +1.390082E-06 -1.021574E-05 +1.390082E-06 -2.089535E-04 +1.389536E-05 -1.021574E-05 +1.389536E-05 +5.101069E-03 
 +2.120251E-05 +7.382215E-06 -7.856674E-06 +7.382215E-06 -4.380040E-05 -1.225928E-05 -7.856674E-06 -1.225928E-05 +5.099880E-03 
 +9.716662E-05 -2.869957E-05 +1.586408E-05 -2.869957E-05 -2.046145E-05 -7.311271E-05 +1.586408E-05 -7.311271E-05 +5.113096E-03 
 -3.651158E-05 +2.167616E-04 +1.269042E-04 +2.167616E-04 +4.530329E-05 -3.905413E-05 +1.269042E-04 -3.905413E-05 +5.105041E-03 
 +1.110671E-04 +2.262156E-04 +5.423239E-05 +2.262156E-04 -9.971908E-06 +1.142106E-06 +5.423239E-05 +1.142106E-06 +5.007668E-03 
 +3.068618E-04 +3.264383E-05 -1.742150E-05 +3.264383E-05 +7.351083E-05 -1.292059E-04 -1.742150E-05 -1.292059E-04 +4.667935E-03 
 +2.819074E-04 +9.456482E-05 -8.401880E-06 +9.456482E-05 +1.565187E-04 -2.637288E-04 -8.401880E-06 -2.637288E-04 +4.701872E-03 
 -5.458790E-05 +1.998508E-05 +1.018885E-04 +1.998508E-05 +1.213511E-04 -3.213588E-04 +1.018885E-04 -3.213588E-04 +4.908875E-03 
 -1.807974E-05 +5.119759E-05 +3.443084E-05 +5.119759E-05 +2.257353E-05 -3.149201E-04 +3.443084E-05 -3.149201E-04 +4.967354E-03 
 -5.991301E-05 +8.178958E-05 +4.993229E-05 +8.178958E-05 +8.060677E-05 -2.743969E-04 +4.993229E-05 -2.743969E-04 +4.958780E-03 
 +1.517536E-05 +2.413527E-04 +6.462133E-06 +2.413527E-04 +2.326920E-04 -1.607837E-04 +6.462133E-06 -1.607837E-04 +4.997744E-03 
 +2.564539E-04 -2.602694E-04 -5.973237E-05 -2.602694E-04 +7.748992E-05 -8.350796E-05 -5.973237E-05 -8.350796E-05 +5.081002E-03 
 +3.787681E-04 -2.788523E-04 +2.086640E-05 -2.788523E-04 -2.043502E-04 -7.319106E-05 +2.086640E-05 -7.319106E-05 +5.179179E-03 
 +3.657095E-04 -9.832524E-05 +9.581189E-05 -9.832524E-05 -6.722045E-05 -1.162019E-04 +9.581189E-05 -1.162019E-04 +5.161871E-03 
 -2.181675E-04 -1.080485E-04 +2.608206E-05 -1.080485E-04 +2.211724E-04 -1.432606E-04 +2.608206E-05 -1.432606E-04 +5.089025E-03 
 -4.142256E-04 -2.011414E-04 -1.525990E-05 -2.011414E-04 +3.042360E-04 -7.003381E-05 -1.525990E-05 -7.003381E-05 +5.059346E-03 
 -3.492095E-04 -2.699925E-04 +1.609016E-05 -2.699925E-04 +3.038382E-04 +2.687305E-06 +1.609016E-05 +2.687305E-06 +5.018295E-03 
 -3.311932E-04 -2.815316E-04 -9.544940E-06 -2.815316E-04 +3.294272E-04 +7.689099E-05 -9.544940E-06 +7.689099E-05 +4.959542E-03 
 -3.309704E-04 -1.328702E-04 -3.713079E-05 -1.328702E-04 +3.222923E-04 +6.804895E-06 -3.713079E-05 +6.804895E-06 +4.944237E-03 
 -2.953510E-04 +2.828122E-04 -2.559995E-05 +2.828122E-04 +2.195945E-04 -8.898055E-05 -2.559995E-05 -8.898055E-05 +4.989337E-03 
 -2.100653E-04 +1.167872E-04 -3.403533E-05 +1.167872E-04 +1.687315E-04 -5.871387E-05 -3.403533E-05 -5.871387E-05 +5.082826E-03 
 -6.618523E-05 +1.534514E-04 -2.393432E-05 +1.534514E-04 +1.022339E-04 -8.499315E-05 -2.393432E-05 -8.499315E-05 +5.034686E-03 
 +3.010395E-04 +5.299169E-05 -4.272157E-05 +5.299169E-05 -6.101872E-05 -1.085265E-04 -4.272157E-05 -1.085265E-04 +4.914047E-03 
 +2.601521E-04 +6.386528E-05 +8.030577E-06 +6.386528E-05 -4.803057E-05 -7.384393E-05 +8.030577E-06 -7.384393E-05 +4.952026E-03 
 -3.651385E-05 +2.855277E-04 +1.345360E-04 +2.855277E-04 +8.880875E-05 -1.539479E-05 +1.345360E-04 -1.539479E-05 +4.992024E-03 
 +2.185374E-04 +8.284876E-05 +2.641331E-05 +8.284876E-05 +7.816003E-05 -3.185631E-05 +2.641331E-05 -3.185631E-05 +4.863228E-03 
 +3.075950E-04 +6.962303E-05 -1.927261E-05 +6.962303E-05 +8.438548E-05 -1.061049E-04 -1.927261E-05 -1.061049E-04 +4.704674E-03 
 +2.906219E-04 +5.471037E-05 -8.990848E-06 +5.471037E-05 +1.026865E-04 -1.482716E-04 -8.990848E-06 -1.482716E-04 +4.754990E-03 
 -7.290019E-06 -3.972378E-05 +7.404779E-05 -3.972378E-05 +1.432795E-04 -2.526516E-04 +7.404779E-05 -2.526516E-04 +4.831258E-03 
 -1.288068E-04 +4.142259E-05 +5.370006E-05 +4.142259E-05 +2.177880E-04 -2.876189E-04 +5.370006E-05 -2.876189E-04 +4.852426E-03 
 -1.490980E-04 +8.232217E-05 +6.645835E-05 +8.232217E-05 +2.853327E-04 -1.936721E-04 +6.645835E-05 -1.936721E-04 +4.918240E-03 
 -1.585330E-04 +2.358603E-04 +1.527805E-05 +2.358603E-04 +2.875221E-04 -1.305405E-04 +1.527805E-05 -1.305405E-04 +4.961147E-03 
 +1.012019E-04 -3.451303E-04 -1.192934E-04 -3.451303E-04 +1.039184E-04 -6.776080E-05 -1.192934E-04 -6.776080E-05 +5.054062E-03 
 +3.266773E-04 -2.018766E-04 -4.091674E-05 -2.018766E-04 -2.249549E-06 +2.813912E-05 -4.091674E-05 +2.813912E-05 +5.137527E-03 
 +2.070931E-04 -8.471604E-05 +5.438279E-05 -8.471604E-05 -2.330606E-05 +1.073491E-05 +5.438279E-05 +1.073491E-05 +5.062867E-03 
 -1.410128E-04 +5.040489E-05 +5.186082E-06 +5.040489E-05 +1.129756E-04 -4.697155E-05 +5.186082E-06 -4.697155E-05 +5.023750E-03 
 -2.064713E-04 -1.150568E-04 -2.610470E-05 -1.150568E-04 +2.901736E-04 -1.797228E-05 -2.610470E-05 -1.797228E-05 +5.050808E-03 
 -2.951877E-04 -1.918935E-04 -1.408088E-05 -1.918935E-04 +3.064777E-04 +4.210427E-05 -1.408088E-05 +4.210427E-05 +5.021505E-03 
 -2.693217E-04 -2.902083E-04 -2.923619E-05 -2.902083E-04 +2.940086E-04 +1.006135E-04 -2.923619E-05 +1.006135E-04 +4.949750E-03 
 -1.857244E-04 -1.496243E-04 -3.337092E-05 -1.496243E-04 +2.928686E-04 +1.397282E-05 -3.337092E-05 +1.397282E-05 +4.913235E-03 
 -1.680178E-04 +1.833257E-04 -1.040727E-05 +1.833257E-04 +2.598459E-04 -9.074473E-05 -1.040727E-05 -9.074473E-05 +4.961811E-03 
 -2.847220E-04 +1.417905E-04 -1.076916E-05 +1.417905E-04 +1.221456E-04 -9.849423E-05 -1.076916E-05 -9.849423E-05 +5.066427E-03 
 -1.707474E-04 +2.443631E-04 +4.572216E-06 +2.443631E-04 +5.007346E-05 -1.208255E-04 +4.572216E-06 -1.208255E-04 +4.953031E-03 
 +2.934389E-04 +1.141739E-04 -5.736780E-05 +1.141739E-04 +9.533471E-05 -1.108385E-04 -5.736780E-05 -1.108385E-04 +4.669763E-03 
 +2.870430E-04 +3.925128E-05 -6.687838E-05 +3.925128E-05 +2.692053E-04 -8.623378E-05 -6.687838E-05 -8.623378E-05 +4.722961E-03 
 +1.110544E-04 +1.509177E-04 +1.237614E-05 +1.509177E-04 +2.196417E-04 -6.655159E-05 +1.237614E-05 -6.655159E-05 +4.882711E-03 
 +2.401914E-04 +7.098383E-05 -2.205138E-05 +7.098383E-05 +6.660039E-05 -7.870355E-05 -2.205138E-05 -7.870355E-05 +4.806093E-03 
 +3.150796E-04 +6.699561E-05 -3.505950E-05 +6.699561E-05 +5.473940E-05 -9.614797E-05 -3.505950E-05 -9.614797E-05 +4.737039E-03 
 +2.652909E-04 +1.200683E-04 -2.084588E-05 +1.200683E-04 +1.149374E-04 -1.155913E-04 -2.084588E-05 -1.155913E-04 +4.733018E-03 
 +1.065941E-04 +7.867999E-05 -1.715608E-05 +7.867999E-05 +2.921343E-04 -1.666913E-04 -1.715608E-05 -1.666913E-04 +4.715245E-03 
 -2.273481E-04 +1.195953E-04 +3.864253E-05 +1.195953E-04 +4.395685E-04 -1.925310E-04 +3.864253E-05 -1.925310E-04 +4.770011E-03 
 -2.686996E-04 +1.456970E-04 +3.958365E-05 +1.456970E-04 +3.940354E-04 -1.279379E-04 +3.958365E-05 -1.279379E-04 +4.901528E-03 
 -1.847519E-04 +2.875908E-04 -1.313752E-05 +2.875908E-04 +2.420585E-04 -5.582187E-05 -1.313752E-05 -5.582187E-05 +4.936282E-03 
 +3.776961E-05 -3.414848E-04 -1.277141E-04 -3.414848E-04 +1.223465E-04 -7.542412E-07 -1.277141E-04 -7.542412E-07 +5.046673E-03 
 +8.363333E-05 -1.402924E-04 -2.639483E-05 -1.402924E-04 +1.887876E-05 +2.911130E-05 -2.639483E-05 +2.911130E-05 +5.133734E-03 
 +1.127006E-04 +4.241258E-05 -4.226588E-05 +4.241258E-05 -3.940686E-06 +4.215956E-05 -4.226588E-05 +4.215956E-05 +4.996814E-03 
 +7.012842E-05 +3.264339E-04 -1.279102E-04 +3.264339E-04 +2.779369E-05 +9.573016E-05 -1.279102E-04 +9.573016E-05 +4.957039E-03 
 -1.662346E-04 -6.310139E-06 -1.435827E-04 -6.310139E-06 +1.264620E-04 +1.065712E-04 -1.435827E-04 +1.065712E-04 +5.058879E-03 
 -2.620579E-04 -1.059563E-04 -7.680208E-05 -1.059563E-04 +3.114727E-04 +1.159055E-04 -7.680208E-05 +1.159055E-04 +5.057331E-03 
 -2.008131E-04 -2.717574E-04 -4.216050E-05 -2.717574E-04 +3.606520E-04 +1.434880E-04 -4.216050E-05 +1.434880E-04 +4.947032E-03 
 -1.147257E-04 -4.031063E-05 -1.880083E-05 -4.031063E-05 +3.588183E-04 +9.244111E-05 -1.880083E-05 +9.244111E-05 +4.890861E-03 
 -1.492757E-04 +4.799926E-05 -7.801564E-06 +4.799926E-05 +2.777162E-04 +1.335825E-05 -7.801564E-06 +1.335825E-05 +4.945785E-03 
 -2.344881E-04 +1.648655E-05 -4.212877E-05 +1.648655E-05 +1.351118E-04 -1.921063E-05 -4.212877E-05 -1.921063E-05 +5.044958E-03 
 -2.305984E-04 +1.073419E-04 -2.794851E-06 +1.073419E-04 +6.857002E-05 -3.626737E-05 -2.794851E-06 -3.626737E-05 +4.966646E-03 
 +2.104459E-04 +1.460828E-04 -1.393357E-04 +1.460828E-04 +1.122219E-04 -1.142074E-04 -1.393357E-04 -1.142074E-04 +4.663557E-03 
 +2.695997E-04 +1.009991E-04 -2.081483E-04 +1.009991E-04 +3.934744E-05 -1.108230E-04 -2.081483E-04 -1.108230E-04 +4.716217E-03 
 +2.829234E-04 +8.991839E-05 -9.813189E-05 +8.991839E-05 -1.482687E-04 -5.153784E-05 -9.813189E-05 -5.153784E-05 +4.944045E-03 
 +2.848815E-04 +9.216655E-05 -8.004455E-05 +9.216655E-05 -6.430277E-05 -7.720026E-05 -8.004455E-05 -7.720026E-05 +4.855393E-03 
 +3.514779E-04 +1.364259E-04 -1.211875E-04 +1.364259E-04 +4.250425E-05 -5.091752E-05 -1.211875E-04 -5.091752E-05 +4.700055E-03 
 +1.095474E-04 +9.355633E-05 -4.453391E-05 +9.355633E-05 +1.656935E-04 -5.072211E-05 -4.453391E-05 -5.072211E-05 +4.707224E-03 
 +3.834320E-05 -7.389429E-05 -1.675653E-06 -7.389429E-05 +2.446687E-04 -2.516308E-05 -1.675653E-06 -2.516308E-05 +4.703609E-03 
 -7.734966E-05 -5.546689E-05 +5.012314E-05 -5.546689E-05 +3.239791E-04 -3.484432E-05 +5.012314E-05 -3.484432E-05 +4.772839E-03 
 -1.713714E-04 +9.785517E-05 +2.274249E-05 +9.785517E-05 +3.636947E-04 -1.502924E-06 +2.274249E-05 -1.502924E-06 +4.879932E-03 
 -1.087186E-04 +2.916471E-04 -6.809263E-05 +2.916471E-04 +2.023423E-04 +4.139351E-05 -6.809263E-05 +4.139351E-05 +4.865423E-03 
 -6.333732E-05 -1.723531E-04 -1.899342E-04 -1.723531E-04 +9.310155E-05 +8.128204E-05 -1.899342E-04 +8.128204E-05 +5.004437E-03 
 -7.139023E-05 +4.114872E-05 -6.594231E-05 +4.114872E-05 +1.334902E-04 +4.209846E-05 -6.594231E-05 +4.209846E-05 +5.137905E-03 
 +7.609276E-05 +2.966458E-04 -9.484247E-05 +2.966458E-04 +1.485381E-04 -1.430067E-05 -9.484247E-05 -1.430067E-05 +4.977387E-03 
 +8.697934E-05 +3.897844E-04 -2.201234E-04 +3.897844E-04 +8.061630E-05 +9.982241E-06 -2.201234E-04 +9.982241E-06 +4.882122E-03 
 -6.115978E-05 +2.281225E-04 -2.234805E-04 +2.281225E-04 +2.756795E-05 +9.282733E-06 -2.234805E-04 +9.282733E-06 +5.010169E-03 
 -2.107249E-04 +2.216834E-04 -1.095781E-04 +2.216834E-04 +1.575570E-04 +3.496957E-05 -1.095781E-04 +3.496957E-05 +5.057406E-03 
 -1.707967E-04 -2.416833E-05 -4.735169E-05 -2.416833E-05 +3.709040E-04 +7.121765E-05 -4.735169E-05 +7.121765E-05 +4.937063E-03 
 -2.036229E-04 +1.951962E-05 +7.957091E-06 +1.951962E-05 +4.047508E-04 +7.123134E-05 +7.957091E-06 +7.123134E-05 +4.889400E-03 
 -2.070110E-04 +4.309677E-05 +1.183819E-05 +4.309677E-05 +2.512936E-04 +3.501206E-05 +1.183819E-05 +3.501206E-05 +4.952180E-03 
 -2.557534E-04 +4.339395E-05 -4.427469E-05 +4.339395E-05 +1.746139E-04 +2.559254E-05 -4.427469E-05 +2.559254E-05 +5.034351E-03 
 -2.792047E-04 +1.009249E-04 -2.600133E-05 +1.009249E-04 +8.179908E-05 -1.560090E-05 -2.600133E-05 -1.560090E-05 +5.009156E-03 
 +2.037474E-04 +1.800370E-04 -1.522225E-04 +1.800370E-04 -4.759813E-05 -1.294669E-04 -1.522225E-04 -1.294669E-04 +4.808237E-03 
 +3.503515E-04 +5.115800E-05 -2.545335E-04 +5.115800E-05 -2.399231E-05 -1.020117E-04 -2.545335E-04 -1.020117E-04 +4.766717E-03 
 +3.226639E-04 +9.132319E-05 -2.071591E-04 +9.132319E-05 +6.098935E-05 -3.385810E-05 -2.071591E-04 -3.385810E-05 +4.832373E-03 
 +3.413280E-04 +1.555245E-04 -1.925559E-04 +1.555245E-04 +5.959451E-06 -3.686765E-05 -1.925559E-04 -3.686765E-05 +4.771430E-03 
 +1.955487E-04 +6.082941E-05 -1.639282E-04 +6.082941E-05 +1.536026E-04 -1.216855E-04 -1.639282E-04 -1.216855E-04 +4.676631E-03 
 -1.438601E-04 -1.135585E-04 -7.155800E-06 -1.135585E-04 +1.835924E-04 -1.244614E-04 -7.155800E-06 -1.244614E-04 +4.807996E-03 
 -1.751429E-05 -1.366851E-04 +4.366286E-05 -1.366851E-04 +1.418812E-04 -4.813880E-05 +4.366286E-05 -4.813880E-05 +4.840574E-03 
 +1.424192E-04 -1.153736E-04 +1.815848E-05 -1.153736E-04 +1.298049E-04 +3.026788E-05 +1.815848E-05 +3.026788E-05 +4.846995E-03 
 +9.889160E-05 -3.667289E-05 -1.298156E-06 -3.667289E-05 +1.309668E-04 +8.731520E-05 -1.298156E-06 +8.731520E-05 +4.885370E-03 
 +8.634334E-05 +4.106442E-05 -6.457481E-05 +4.106442E-05 +8.290307E-05 +7.987703E-05 -6.457481E-05 +7.987703E-05 +4.874232E-03 
 -1.547977E-04 -1.777327E-04 -1.170126E-04 -1.777327E-04 +1.699229E-04 +6.253342E-05 -1.170126E-04 +6.253342E-05 +4.977533E-03 
 -2.123361E-04 -1.130138E-04 -3.651238E-05 -1.130138E-04 +3.364753E-04 +3.534753E-05 -3.651238E-05 +3.534753E-05 +5.090978E-03 
 -6.807676E-05 +3.669579E-05 -4.714876E-05 +3.669579E-05 +2.038461E-04 +5.285909E-05 -4.714876E-05 +5.285909E-05 +5.000428E-03 
 +2.606754E-04 +2.415424E-04 -2.092334E-04 +2.415424E-04 +2.175514E-06 +7.897313E-05 -2.092334E-04 +7.897313E-05 +4.842814E-03 
 +4.935831E-05 +2.695574E-04 -1.933127E-04 +2.695574E-04 +5.524673E-05 +2.311642E-05 -1.933127E-04 +2.311642E-05 +4.937314E-03 
 -1.389449E-04 +1.782403E-04 -8.558674E-05 +1.782403E-04 +2.057622E-04 +1.998981E-05 -8.558674E-05 +1.998981E-05 +4.998079E-03 
 -1.497713E-04 +4.365251E-05 -7.645674E-05 +4.365251E-05 +3.670693E-04 +4.224163E-05 -7.645674E-05 +4.224163E-05 +4.909241E-03 
 -2.970918E-04 -2.572871E-05 +5.822538E-06 -2.572871E-05 +4.013147E-04 +6.984297E-05 +5.822538E-06 +6.984297E-05 +4.914842E-03 
 -2.908248E-04 +3.840712E-05 +1.668064E-05 +3.840712E-05 +2.838068E-04 +8.817907E-05 +1.668064E-05 +8.817907E-05 +4.971496E-03 
 -3.147377E-04 +4.581636E-05 -4.825160E-06 +4.581636E-05 +1.982043E-04 +8.053897E-05 -4.825160E-06 +8.053897E-05 +5.024170E-03 
 -2.713369E-04 +6.583272E-05 -2.493457E-06 +6.583272E-05 +5.005515E-05 +5.868376E-05 -2.493457E-06 +5.868376E-05 +5.018519E-03 
 -1.283401E-05 +1.167039E-04 -3.584417E-05 +1.167039E-04 -1.178423E-04 +2.631421E-05 -3.584417E-05 +2.631421E-05 +4.931379E-03 
 +4.633573E-04 +5.423094E-05 -2.164970E-04 +5.423094E-05 -1.547368E-04 -1.243845E-06 -2.164970E-04 -1.243845E-06 +4.773824E-03 
 +4.128089E-04 +6.228359E-05 -2.819669E-04 +6.228359E-05 -1.012288E-04 +1.919698E-05 -2.819669E-04 +1.919698E-05 +4.644870E-03 
 +3.627607E-04 +1.179825E-04 -3.351122E-04 +1.179825E-04 +7.798003E-06 -2.239534E-05 -3.351122E-04 -2.239534E-05 +4.634973E-03 
 +8.604535E-06 -4.598747E-06 -5.921170E-05 -4.598747E-06 +1.184025E-04 +5.037338E-05 -5.921170E-05 +5.037338E-05 +4.733583E-03 
 -1.019845E-04 -2.685399E-05 +9.094085E-06 -2.685399E-05 +1.184446E-04 +9.515863E-05 +9.094085E-06 +9.515863E-05 +4.854248E-03 
 -2.520182E-05 -1.797431E-06 +2.192254E-05 -1.797431E-06 +1.246153E-04 +5.327429E-05 +2.192254E-05 +5.327429E-05 +4.893665E-03 
 +1.465561E-04 -8.821270E-05 -4.107406E-05 -8.821270E-05 +7.048966E-05 +2.304968E-05 -4.107406E-05 +2.304968E-05 +4.907052E-03 
 +2.374494E-04 -5.975139E-05 +6.763690E-06 -5.975139E-05 +8.469718E-05 +1.993449E-05 +6.763690E-06 +1.993449E-05 +4.935338E-03 
 +6.486919E-05 -2.528472E-04 -5.131122E-07 -2.528472E-04 +7.058789E-05 -2.221753E-05 -5.131122E-07 -2.221753E-05 +4.953819E-03 
 -1.274187E-04 -3.629232E-04 +5.577191E-06 -3.629232E-04 +1.143388E-04 -3.253293E-05 +5.577191E-06 -3.253293E-05 +4.949931E-03 
 -1.965857E-04 -2.082329E-04 +5.743100E-05 -2.082329E-04 +2.617667E-04 -1.020392E-05 +5.743100E-05 -1.020392E-05 +4.992298E-03 
 -7.628620E-05 +4.072560E-06 +4.189673E-05 +4.072560E-06 +2.608021E-04 +6.975080E-06 +4.189673E-05 +6.975080E-06 +4.983898E-03 
 +3.150096E-04 +1.055773E-04 -1.001460E-04 +1.055773E-04 +1.018408E-04 +1.065681E-04 -1.001460E-04 +1.065681E-04 +4.856221E-03 
 +1.459906E-04 +2.171576E-04 -1.331715E-04 +2.171576E-04 +9.829821E-05 +9.117914E-05 -1.331715E-04 +9.117914E-05 +4.904456E-03 
 +3.670865E-05 +2.025207E-04 -1.258072E-04 +2.025207E-04 +2.902911E-04 +2.910687E-05 -1.258072E-04 +2.910687E-05 +4.941670E-03 
 +9.050467E-06 +1.059374E-04 -1.416999E-04 +1.059374E-04 +3.278736E-04 +8.054102E-05 -1.416999E-04 +8.054102E-05 +4.898889E-03 
 -3.708073E-04 -2.201936E-05 -4.380016E-05 -2.201936E-05 +3.550679E-04 +1.245460E-04 -4.380016E-05 +1.245460E-04 +4.930002E-03 
 -3.994961E-04 -1.192859E-05 -1.753528E-05 -1.192859E-05 +3.503953E-04 +1.293584E-04 -1.753528E-05 +1.293584E-04 +4.984847E-03 
 -3.149971E-04 +2.571934E-06 +6.580667E-06 +2.571934E-06 +1.778525E-04 +9.797841E-05 +6.580667E-06 +9.797841E-05 +5.026543E-03 
 -2.587025E-04 +5.470328E-05 +1.159623E-05 +5.470328E-05 +6.694525E-05 +1.062041E-04 +1.159623E-05 +1.062041E-04 +5.040079E-03 
 -2.101043E-04 +1.311682E-04 +3.338482E-05 +1.311682E-04 -7.144677E-05 +9.487159E-05 +3.338482E-05 +9.487159E-05 +5.007221E-03 
 +3.524346E-04 +9.640322E-05 -1.365475E-04 +9.640322E-05 -2.614326E-04 +7.570276E-06 -1.365475E-04 +7.570276E-06 +4.805684E-03 
 +4.456233E-04 +4.529550E-05 -2.348499E-04 +4.529550E-05 -2.019706E-04 -2.920354E-05 -2.348499E-04 -2.920354E-05 +4.616062E-03 
 +3.193421E-04 +6.925050E-05 -2.756900E-04 +6.925050E-05 +2.675397E-05 -1.168558E-05 -2.756900E-04 -1.168558E-05 +4.634433E-03 
 +4.617360E-05 +3.259956E-05 +1.399092E-05 +3.259956E-05 +6.452986E-05 +1.235701E-04 +1.399092E-05 +1.235701E-04 +4.818402E-03 
 +1.434459E-05 -1.176608E-05 +1.654055E-05 -1.176608E-05 +1.067912E-04 +1.162034E-04 +1.654055E-05 +1.162034E-04 +4.852448E-03 
 +3.487817E-05 +1.683053E-05 -1.948270E-05 +1.683053E-05 +1.308862E-04 +7.804490E-05 -1.948270E-05 +7.804490E-05 +4.842890E-03 
 +7.606999E-05 +3.884619E-05 -1.149604E-05 +3.884619E-05 +2.154485E-04 +1.408717E-05 -1.149604E-05 +1.408717E-05 +4.865806E-03 
 +1.137178E-04 -2.871035E-05 +1.137828E-05 -2.871035E-05 +2.026019E-04 -6.020596E-06 +1.137828E-05 -6.020596E-06 +4.914108E-03 
 -1.198956E-04 -2.758971E-04 -3.458433E-06 -2.758971E-04 +1.157030E-04 -2.837790E-05 -3.458433E-06 -2.837790E-05 +4.945422E-03 
 -9.645547E-05 -2.883105E-04 +1.304946E-05 -2.883105E-04 +1.262487E-04 -2.939856E-05 +1.304946E-05 -2.939856E-05 +4.926221E-03 
 -7.032325E-05 -2.832387E-04 +5.760342E-06 -2.832387E-04 +1.888908E-04 -8.135714E-07 +5.760342E-06 -8.135714E-07 +4.917765E-03 
 -4.346791E-06 -2.252735E-04 -1.912282E-05 -2.252735E-04 +2.400073E-04 -1.666009E-05 -1.912282E-05 -1.666009E-05 +4.919691E-03 
 +2.089193E-04 -1.200651E-04 -2.192494E-05 -1.200651E-04 +1.831520E-04 +8.992767E-05 -2.192494E-05 +8.992767E-05 +4.907516E-03 
 +2.866251E-04 +2.016574E-04 -5.749859E-05 +2.016574E-04 +1.454656E-04 +1.163082E-04 -5.749859E-05 +1.163082E-04 +4.926580E-03 
 +1.499154E-04 +1.484784E-05 -5.711532E-05 +1.484784E-05 +1.506325E-04 +6.788361E-05 -5.711532E-05 +6.788361E-05 +4.926516E-03 
 +1.404232E-04 -2.556959E-04 -3.573134E-05 -2.556959E-04 +9.930738E-05 +1.577617E-04 -3.573134E-05 +1.577617E-04 +4.932683E-03 
 -1.578856E-04 -9.033486E-05 -1.085836E-05 -9.033486E-05 +2.240127E-04 +2.072326E-04 -1.085836E-05 +2.072326E-04 +4.977010E-03 
 -3.174747E-04 -2.231576E-05 -3.371248E-05 -2.231576E-05 +3.047094E-04 +1.539673E-04 -3.371248E-05 +1.539673E-04 +5.028035E-03 
 -3.841438E-04 +2.902920E-05 -1.882380E-05 +2.902920E-05 +1.855985E-04 +1.219930E-04 -1.882380E-05 +1.219930E-04 +5.052803E-03 
 -3.011819E-04 +2.165642E-05 -3.613855E-05 +2.165642E-05 +4.115486E-05 +1.376211E-04 -3.613855E-05 +1.376211E-04 +5.061608E-03 
 -1.613201E-04 +9.131315E-05 -1.645637E-05 +9.131315E-05 -1.127572E-04 +1.136771E-04 -1.645637E-05 +1.136771E-04 +5.053044E-03 
 -2.401347E-06 +1.741071E-04 -3.612042E-05 +1.741071E-04 -1.595848E-04 +1.652630E-04 -3.612042E-05 +1.652630E-04 +4.927285E-03 
 +3.025954E-04 +1.423435E-04 -7.059175E-05 +1.423435E-04 -1.669467E-04 +2.652041E-04 -7.059175E-05 +2.652041E-04 +4.751629E-03 
 +2.418096E-04 +1.714727E-04 -7.561070E-05 +1.714727E-04 -7.141694E-05 +2.175022E-04 -7.561070E-05 +2.175022E-04 +4.733715E-03 
 +1.420170E-04 +1.290430E-04 +3.130786E-05 +1.290430E-04 +3.050030E-05 +1.352040E-04 +3.130786E-05 +1.352040E-04 +4.860906E-03 
 +1.158415E-04 +3.198570E-05 -5.255269E-06 +3.198570E-05 +8.170978E-05 +1.215818E-04 -5.255269E-06 +1.215818E-04 +4.884411E-03 
 +5.440324E-05 +9.691837E-05 -5.595102E-05 +9.691837E-05 +1.052771E-04 +8.822612E-05 -5.595102E-05 +8.822612E-05 +4.860710E-03 
 +2.344485E-05 +3.404571E-05 -2.215306E-05 +3.404571E-05 +2.732475E-04 -4.388663E-05 -2.215306E-05 -4.388663E-05 +4.854452E-03 
 -1.237337E-04 -1.919035E-04 -6.923126E-05 -1.919035E-04 +2.244397E-04 -8.658890E-05 -6.923126E-05 -8.658890E-05 +4.901061E-03 
 -1.570278E-04 -2.756824E-04 -8.238852E-05 -2.756824E-04 +1.237324E-04 -2.090382E-06 -8.238852E-05 -2.090382E-06 +4.934863E-03 
 -9.072797E-05 -2.386711E-04 -4.250901E-05 -2.386711E-04 +1.268951E-04 -1.335423E-05 -4.250901E-05 -1.335423E-05 +4.941241E-03 
 -4.792693E-05 -1.262287E-04 -5.270504E-05 -1.262287E-04 +1.385620E-04 -2.449584E-05 -5.270504E-05 -2.449584E-05 +4.938599E-03 
 -5.918389E-06 -9.562654E-05 -4.423131E-05 -9.562654E-05 +1.802347E-04 -2.446145E-05 -4.423131E-05 -2.446145E-05 +4.918326E-03 
 +5.480762E-05 -1.331261E-04 +1.599398E-05 -1.331261E-04 +2.536012E-04 +1.967684E-05 +1.599398E-05 +1.967684E-05 +4.946793E-03 
 +1.017755E-04 -9.210226E-05 +1.269011E-05 -9.210226E-05 +2.090348E-04 +1.202072E-04 +1.269011E-05 +1.202072E-04 +4.986322E-03 
 +2.083912E-04 -3.804520E-04 +3.574330E-05 -3.804520E-04 -5.163835E-05 +1.439592E-04 +3.574330E-05 +1.439592E-04 +4.998311E-03 
 +2.166872E-04 -5.016747E-04 +5.130055E-05 -5.016747E-04 -1.514775E-04 +1.579509E-04 +5.130055E-05 +1.579509E-04 +5.030585E-03 
 +1.495934E-04 -4.395622E-04 +3.622848E-05 -4.395622E-04 -1.916213E-04 +1.797261E-04 +3.622848E-05 +1.797261E-04 +5.071796E-03 
 +6.692068E-05 -4.470431E-04 +2.297825E-05 -4.470431E-04 -2.031805E-04 +1.325806E-04 +2.297825E-05 +1.325806E-04 +5.109390E-03 
 -1.924890E-04 -1.235025E-04 +1.555026E-05 -1.235025E-04 -2.451717E-05 +1.617014E-04 +1.555026E-05 +1.617014E-04 +5.142345E-03 
 -2.456467E-04 -9.135409E-06 -4.570338E-05 -9.135409E-06 -3.631037E-05 +1.818472E-04 -4.570338E-05 +1.818472E-04 +5.158471E-03 
 -2.993478E-04 +4.426974E-05 -6.025340E-05 +4.426974E-05 -1.933963E-04 +1.128977E-04 -6.025340E-05 +1.128977E-04 +5.164569E-03 
 -2.198878E-04 +1.505279E-04 -1.263493E-05 +1.505279E-04 -1.388906E-04 +2.261154E-04 -1.263493E-05 +2.261154E-04 +5.113713E-03 
 +9.264262E-05 +1.878178E-04 +2.813552E-05 +1.878178E-04 +2.526696E-05 +3.499954E-04 +2.813552E-05 +3.499954E-04 +4.951352E-03 
 +1.563198E-04 +2.121377E-04 +3.778509E-05 +2.121377E-04 -3.686723E-06 +2.465245E-04 +3.778509E-05 +2.465245E-04 +4.841616E-03 
 +1.137271E-04 +1.220520E-04 +7.785440E-05 +1.220520E-04 -7.243184E-05 +9.592647E-05 +7.785440E-05 +9.592647E-05 +4.936187E-03 
 +1.435151E-04 -1.248185E-04 +3.243840E-05 -1.248185E-04 -1.350921E-04 +2.112981E-06 +3.243840E-05 +2.112981E-06 +4.944291E-03 
 +5.701826E-05 +6.672668E-05 +1.646155E-05 +6.672668E-05 +8.531756E-05 +6.746400E-05 +1.646155E-05 +6.746400E-05 +4.880282E-03 
 +1.904385E-05 +4.560041E-05 -4.361063E-05 +4.560041E-05 +2.554943E-04 -7.055129E-06 -4.361063E-05 -7.055129E-06 +4.862641E-03 
 -1.449314E-04 -2.072011E-04 -1.167993E-04 -2.072011E-04 +2.039888E-04 -7.745913E-05 -1.167993E-04 -7.745913E-05 +4.945803E-03 
 -1.069846E-04 -9.396896E-05 -8.635141E-05 -9.396896E-05 +1.127924E-04 -3.546082E-05 -8.635141E-05 -3.546082E-05 +4.964259E-03 
 -8.232965E-05 -6.715299E-05 -3.563775E-05 -6.715299E-05 +1.226278E-04 -6.694862E-05 -3.563775E-05 -6.694862E-05 +4.955662E-03 
 -7.288494E-05 -3.445353E-05 -4.970223E-07 -3.445353E-05 +1.519863E-04 -8.236606E-05 -4.970223E-07 -8.236606E-05 +4.978379E-03 
 -1.002302E-04 -6.324093E-05 +4.953330E-05 -6.324093E-05 +1.992514E-04 -2.749448E-05 +4.953330E-05 -2.749448E-05 +4.969368E-03 
 -1.529741E-04 -2.907657E-05 +1.041041E-04 -2.907657E-05 +2.621537E-04 +2.003766E-05 +1.041041E-04 +2.003766E-05 +4.983708E-03 
 -1.607925E-04 +4.636606E-05 +7.982442E-05 +4.636606E-05 +1.848142E-04 +1.111615E-04 +7.982442E-05 +1.111615E-04 +5.029981E-03 
 +2.640576E-04 -2.727827E-04 +3.078322E-05 -2.727827E-04 -4.867200E-05 +1.515181E-04 +3.078322E-05 +1.515181E-04 +5.080245E-03 
 +2.519826E-04 -3.001459E-04 +6.336413E-06 -3.001459E-04 -2.012742E-04 +1.378624E-04 +6.336413E-06 +1.378624E-04 +5.120975E-03 
 +2.179950E-04 -3.390503E-04 -1.450648E-06 -3.390503E-04 -2.475885E-04 +1.485213E-04 -1.450648E-06 +1.485213E-04 +5.129077E-03 
 +2.416657E-04 -4.171833E-04 +2.691835E-05 -4.171833E-04 -2.789241E-04 +1.378321E-04 +2.691835E-05 +1.378321E-04 +5.155011E-03 
 +1.471986E-04 -4.439360E-04 +2.312299E-05 -4.439360E-04 -4.290140E-04 +1.537535E-04 +2.312299E-05 +1.537535E-04 +5.225924E-03 
 -1.416530E-04 -4.241460E-04 -3.345500E-05 -4.241460E-04 -4.096879E-04 +1.028632E-04 -3.345500E-05 +1.028632E-04 +5.249641E-03 
 -3.878580E-04 -3.189617E-04 -5.503414E-05 -3.189617E-04 -2.595692E-04 -7.632414E-07 -5.503414E-05 -7.632414E-07 +5.210898E-03 
 -1.450052E-04 +1.420879E-04 +3.550762E-06 +1.420879E-04 -2.521581E-04 +1.333888E-04 +3.550762E-06 +1.333888E-04 +5.177922E-03 
 -2.133149E-05 +2.959007E-04 +5.940423E-05 +2.959007E-04 -1.061744E-04 +2.709922E-04 +5.940423E-05 +2.709922E-04 +5.102914E-03 
 +6.092361E-05 +2.322301E-04 +9.403315E-05 +2.322301E-04 +3.413660E-05 +2.340490E-04 +9.403315E-05 +2.340490E-04 +4.980602E-03 
 -1.312136E-05 +2.097018E-04 +1.184992E-04 +2.097018E-04 -2.625437E-05 +1.443360E-04 +1.184992E-04 +1.443360E-04 +4.989218E-03 
 +4.899129E-05 +1.434294E-04 +9.229327E-05 +1.434294E-04 +8.334559E-05 +1.015254E-04 +9.229327E-05 +1.015254E-04 +4.901724E-03 
 +1.235085E-04 +2.807395E-04 +7.851454E-05 +2.807395E-04 +1.398607E-04 +1.228936E-04 +7.851454E-05 +1.228936E-04 +4.857462E-03 
 +1.571125E-04 +1.946521E-04 -4.691798E-05 +1.946521E-04 +1.025389E-04 -1.804724E-05 -4.691798E-05 -1.804724E-05 +4.897646E-03 
 -1.285411E-04 -1.308852E-04 -6.648536E-05 -1.308852E-04 +9.309540E-05 -1.469866E-04 -6.648536E-05 -1.469866E-04 +4.968302E-03 
 -1.315142E-04 -1.047626E-04 -1.623807E-06 -1.047626E-04 +9.238094E-05 -1.183826E-04 -1.623807E-06 -1.183826E-04 +4.975670E-03 
 -1.358204E-04 -1.057200E-04 +2.849172E-05 -1.057200E-04 +1.030069E-04 -1.234807E-04 +2.849172E-05 -1.234807E-04 +4.990443E-03 
 -1.712538E-04 -6.232507E-05 +7.024844E-05 -6.232507E-05 +1.238140E-04 -1.213587E-04 +7.024844E-05 -1.213587E-04 +5.032722E-03 
 -1.990186E-04 -2.850581E-05 +1.377416E-04 -2.850581E-05 +1.602402E-04 -5.709203E-05 +1.377416E-04 -5.709203E-05 +5.058100E-03 
 -2.656199E-04 -2.060834E-05 +1.640179E-04 -2.060834E-05 +2.181871E-04 +3.817844E-05 +1.640179E-04 +3.817844E-05 +5.062064E-03 
 -1.424302E-04 -7.460056E-05 +1.718602E-04 -7.460056E-05 +1.085814E-04 +1.419739E-04 +1.718602E-04 +1.419739E-04 +5.070451E-03 
 +2.208543E-04 -3.095689E-04 +1.229894E-04 -3.095689E-04 -1.140697E-04 +1.779633E-04 +1.229894E-04 +1.779633E-04 +5.122882E-03 
 +2.834433E-04 -2.315513E-04 +4.302222E-05 -2.315513E-04 -2.332119E-04 +1.652920E-04 +4.302222E-05 +1.652920E-04 +5.163523E-03 
 +2.634005E-04 -2.477879E-04 +1.014270E-05 -2.477879E-04 -2.533098E-04 +1.454893E-04 +1.014270E-05 +1.454893E-04 +5.173399E-03 
 +1.919438E-04 -2.939086E-04 -4.123571E-06 -2.939086E-04 -2.915631E-04 +1.513290E-04 -4.123571E-06 +1.513290E-04 +5.193870E-03 
 +1.334482E-04 -3.584535E-04 -1.094745E-05 -3.584535E-04 -3.106687E-04 +1.506079E-04 -1.094745E-05 +1.506079E-04 +5.219141E-03 
 -1.283122E-04 -2.138214E-04 -3.291435E-05 -2.138214E-04 -1.717356E-04 +7.529566E-05 -3.291435E-05 +7.529566E-05 +5.213899E-03 
 -1.948943E-04 -3.180703E-04 -1.864379E-05 -3.180703E-04 -1.506366E-04 -5.766880E-07 -1.864379E-05 -5.766880E-07 +5.154558E-03 
 +1.368340E-07 +1.486942E-04 +5.621148E-05 +1.486942E-04 -1.925999E-04 +1.246137E-04 +5.621148E-05 +1.246137E-04 +5.115229E-03 
 +4.790825E-05 +3.399409E-04 +1.101282E-04 +3.399409E-04 -1.977120E-04 +1.930086E-04 +1.101282E-04 +1.930086E-04 +5.129455E-03 
 +3.975935E-05 +3.953540E-04 +1.653410E-04 +3.953540E-04 -1.392742E-04 +1.513898E-04 +1.653410E-04 +1.513898E-04 +5.092581E-03 
 -1.320384E-04 +1.975482E-04 +1.134405E-04 +1.975482E-04 -2.879829E-05 +1.751774E-04 +1.134405E-04 +1.751774E-04 +5.030204E-03 
 -3.802090E-05 +1.137854E-04 +6.301600E-05 +1.137854E-04 +1.619405E-04 +1.850876E-04 +6.301600E-05 +1.850876E-04 +4.895397E-03 
 +1.265806E-04 +9.557052E-05 -2.296462E-05 +9.557052E-05 +1.230043E-04 +1.432529E-04 -2.296462E-05 +1.432529E-04 +4.883739E-03 
 +2.300554E-04 +7.670021E-06 -1.162791E-04 +7.670021E-06 -4.662243E-05 -6.129927E-05 -1.162791E-04 -6.129927E-05 +4.966481E-03 
 -8.282498E-05 -2.114531E-04 -3.002259E-05 -2.114531E-04 +4.787553E-05 -1.828108E-04 -3.002259E-05 -1.828108E-04 +5.000006E-03 
 -2.157229E-04 -1.729970E-04 +8.209409E-05 -1.729970E-04 +1.486319E-04 -1.563163E-04 +8.209409E-05 -1.563163E-04 +4.994104E-03 
 -1.964481E-04 -1.363893E-04 +9.723766E-05 -1.363893E-04 +9.285104E-05 -1.535860E-04 +9.723766E-05 -1.535860E-04 +5.025427E-03 
 -2.450416E-04 -9.438780E-05 +1.494788E-04 -9.438780E-05 +8.485287E-05 -1.552289E-04 +1.494788E-04 -1.552289E-04 +5.082226E-03 
 -3.143293E-04 -5.042814E-05 +2.086724E-04 -5.042814E-05 +1.665301E-04 -7.475359E-05 +2.086724E-04 -7.475359E-05 +5.110639E-03 
 -2.607730E-04 -6.174110E-05 +2.259699E-04 -6.174110E-05 +1.350534E-04 +3.798096E-05 +2.259699E-04 +3.798096E-05 +5.089306E-03 
 +7.293233E-05 -9.681375E-05 +2.785380E-04 -9.681375E-05 -1.485243E-04 +8.903269E-05 +2.785380E-04 +8.903269E-05 +5.082331E-03 
 +1.881440E-04 -1.481330E-04 +2.474222E-04 -1.481330E-04 -2.574407E-04 +1.157136E-04 +2.474222E-04 +1.157136E-04 +5.138472E-03 
 +2.090117E-04 -1.864157E-04 +1.366287E-04 -1.864157E-04 -2.525336E-04 +1.818501E-04 +1.366287E-04 +1.818501E-04 +5.185705E-03 
 +2.993728E-04 -1.994199E-04 +1.000147E-04 -1.994199E-04 -3.114370E-04 +1.533611E-04 +1.000147E-04 +1.533611E-04 +5.189359E-03 
 +3.495128E-04 -1.741347E-04 +8.162609E-05 -1.741347E-04 -1.729553E-04 +1.347627E-04 +8.162609E-05 +1.347627E-04 +5.183327E-03 
 -3.628023E-05 -1.917854E-04 +4.384977E-05 -1.917854E-04 +2.176189E-05 +1.384280E-04 +4.384977E-05 +1.384280E-04 +5.183511E-03 
 -1.556656E-04 -1.613122E-04 +3.340905E-06 -1.613122E-04 -8.406317E-05 +4.953782E-05 +3.340905E-06 +4.953782E-05 +5.151453E-03 
 -5.085712E-05 -2.286441E-04 +3.536735E-05 -2.286441E-04 -1.224959E-04 -1.223253E-05 +3.536735E-05 -1.223253E-05 +5.062193E-03 
 +1.161378E-04 +2.201926E-04 +9.464151E-05 +2.201926E-04 -9.373710E-05 +8.030571E-05 +9.464151E-05 +8.030571E-05 +5.024747E-03 
 +1.167810E-04 +3.716106E-04 +1.314709E-04 +3.716106E-04 -1.987833E-04 +1.714260E-04 +1.314709E-04 +1.714260E-04 +5.079096E-03 
 +1.936306E-05 +4.194079E-04 +1.644145E-04 +4.194079E-04 -1.779777E-04 +1.785310E-04 +1.644145E-04 +1.785310E-04 +5.115916E-03 
 -1.860691E-04 +1.450141E-04 +2.891713E-05 +1.450141E-04 +9.525018E-05 +2.068075E-04 +2.891713E-05 +2.068075E-04 +5.102075E-03 
 -5.555772E-05 +8.870192E-05 -6.234746E-06 +8.870192E-05 +1.363406E-04 +1.822832E-04 -6.234746E-06 +1.822832E-04 +5.019841E-03 
 +6.187633E-05 -6.643067E-05 -5.875271E-06 -6.643067E-05 -1.101069E-05 +1.146762E-04 -5.875271E-06 +1.146762E-04 +4.973409E-03 
 +1.362859E-04 -1.303614E-04 -1.487190E-05 -1.303614E-04 -1.108965E-04 -8.760877E-06 -1.487190E-05 -8.760877E-06 +4.986184E-03 
 +8.980321E-05 -2.421802E-04 -3.075357E-05 -2.421802E-04 -2.084398E-05 -1.278285E-04 -3.075357E-05 -1.278285E-04 +5.008776E-03 
 -2.208554E-04 -3.032725E-04 +6.479562E-05 -3.032725E-04 +1.349228E-04 -1.630160E-04 +6.479562E-05 -1.630160E-04 +5.013573E-03 
 -2.971168E-04 -3.238095E-04 +1.184471E-04 -3.238095E-04 +1.338783E-04 -1.513714E-04 +1.184471E-04 -1.513714E-04 +5.063122E-03 
 -3.062656E-04 -2.049930E-04 +1.638608E-04 -2.049930E-04 +1.271717E-04 -1.363298E-04 +1.638608E-04 -1.363298E-04 +5.112972E-03 
 -2.694790E-04 -8.998435E-05 +2.273995E-04 -8.998435E-05 +9.358114E-05 -4.666659E-05 +2.273995E-04 -4.666659E-05 +5.075510E-03 
 +5.224117E-05 -5.318322E-05 +2.679574E-04 -5.318322E-05 -1.561973E-04 +4.396205E-05 +2.679574E-04 +4.396205E-05 +5.054406E-03 
 +2.353884E-04 -5.158226E-05 +2.619802E-04 -5.158226E-05 -2.888426E-04 +5.605569E-05 +2.619802E-04 +5.605569E-05 +5.084947E-03 
 +1.905471E-04 -3.031932E-05 +2.311919E-04 -3.031932E-05 -2.717758E-04 +7.459675E-05 +2.311919E-04 +7.459675E-05 +5.119523E-03 
 +1.836303E-04 -1.747844E-05 +1.799647E-04 -1.747844E-05 -2.701721E-04 +1.419421E-04 +1.799647E-04 +1.419421E-04 +5.134043E-03 
 +2.880293E-04 +6.711901E-05 +1.430940E-04 +6.711901E-05 -2.545097E-04 +1.524238E-04 +1.430940E-04 +1.524238E-04 +5.094658E-03 
 +3.756263E-04 +2.892106E-05 +1.334980E-04 +2.892106E-05 -2.207987E-04 +1.536443E-04 +1.334980E-04 +1.536443E-04 +5.065996E-03 
 -8.575143E-05 -3.374246E-05 +6.238061E-05 -3.374246E-05 -1.090983E-04 +1.247088E-04 +6.238061E-05 +1.247088E-04 +5.116742E-03 
 -1.496216E-04 -7.041912E-05 +6.670975E-05 -7.041912E-05 -5.561718E-05 +2.281925E-06 +6.670975E-05 +2.281925E-06 +5.077294E-03 
 +1.571612E-06 +5.508078E-05 +1.054243E-04 +5.508078E-05 -1.766318E-05 -6.231598E-05 +1.054243E-04 -6.231598E-05 +4.961108E-03 
 +6.446064E-05 +2.037010E-04 +1.084360E-04 +2.037010E-04 +8.975594E-05 -2.770844E-05 +1.084360E-04 -2.770844E-05 +4.979323E-03 
 -1.627233E-05 +2.359906E-04 +9.898083E-05 +2.359906E-04 +1.027263E-04 +4.798933E-05 +9.898083E-05 +4.798933E-05 +5.066715E-03 
 -9.246018E-05 +2.462652E-04 +6.653002E-05 +2.462652E-04 +5.532259E-05 +1.508249E-04 +6.653002E-05 +1.508249E-04 +5.125424E-03 
 -1.856155E-04 +2.036892E-04 -2.874775E-05 +2.036892E-04 +1.105204E-04 +2.698454E-04 -2.874775E-05 +2.698454E-04 +5.093550E-03 
 +9.948427E-06 +5.464348E-05 -5.613382E-05 +5.464348E-05 -1.042932E-04 +1.858728E-04 -5.613382E-05 +1.858728E-04 +5.066540E-03 
 -2.431510E-05 +9.638945E-06 +4.237480E-05 +9.638945E-06 -9.575348E-05 +9.224742E-05 +4.237480E-05 +9.224742E-05 +5.047979E-03 
 +6.853192E-06 -1.494660E-05 +1.021401E-04 -1.494660E-05 +1.721091E-05 +5.677160E-06 +1.021401E-04 +5.677160E-06 +4.988200E-03 
 +7.816360E-05 -1.750151E-04 +3.548675E-05 -1.750151E-04 +7.928654E-06 -2.980388E-05 +3.548675E-05 -2.980388E-05 +4.959176E-03 
 -1.789245E-04 -2.690213E-04 +6.272757E-05 -2.690213E-04 +7.136265E-05 -7.143809E-05 +6.272757E-05 -7.143809E-05 +5.007578E-03 
 -3.618056E-04 -3.689688E-04 +1.228336E-04 -3.689688E-04 +1.211909E-04 -1.322083E-04 +1.228336E-04 -1.322083E-04 +5.105810E-03 
 -1.793578E-04 -7.374502E-05 +1.708108E-04 -7.374502E-05 +6.078686E-05 -7.923269E-05 +1.708108E-04 -7.923269E-05 +5.121605E-03 
 +1.253263E-05 -4.622128E-06 +2.116919E-04 -4.622128E-06 -1.281408E-04 +4.073144E-05 +2.116919E-04 +4.073144E-05 +5.060398E-03 
 +2.460366E-04 -2.834909E-05 +2.029506E-04 -2.834909E-05 -2.893822E-04 +8.082289E-05 +2.029506E-04 +8.082289E-05 +5.071403E-03 
 +2.304323E-04 -6.875012E-05 +1.328870E-04 -6.875012E-05 -2.996274E-04 +8.301029E-05 +1.328870E-04 +8.301029E-05 +5.105406E-03 
 +2.371199E-04 -7.159171E-05 +1.079802E-04 -7.159171E-05 -2.877797E-04 +1.069264E-04 +1.079802E-04 +1.069264E-04 +5.098923E-03 
 +2.718589E-04 -8.009690E-05 +1.053811E-04 -8.009690E-05 -2.368658E-04 +1.516627E-04 +1.053811E-04 +1.516627E-04 +5.049212E-03 
 +2.946376E-04 +4.724234E-06 +9.257420E-05 +4.724234E-06 -1.842994E-04 +1.939279E-04 +9.257420E-05 +1.939279E-04 +4.960795E-03 
 +3.156083E-04 +4.851489E-05 +7.949485E-05 +4.851489E-05 -1.958460E-04 +1.394832E-04 +7.949485E-05 +1.394832E-04 +4.946361E-03 
 -5.055407E-05 +1.169859E-04 -3.191557E-06 +1.169859E-04 -1.408014E-04 +1.766298E-06 -3.191557E-06 +1.766298E-06 +5.019321E-03 
 -1.228960E-04 -9.772221E-06 +4.126020E-05 -9.772221E-06 +8.509231E-05 -4.056478E-05 +4.126020E-05 -4.056478E-05 +4.997462E-03 
 -1.271549E-04 +9.957443E-06 +6.770634E-05 +9.957443E-06 +1.894705E-04 -1.053971E-05 +6.770634E-05 -1.053971E-05 +4.953815E-03 
 -1.328206E-04 +1.354712E-04 +5.983667E-05 +1.354712E-04 +1.025119E-04 +1.437796E-06 +5.983667E-05 +1.437796E-06 +5.004251E-03 
 -1.444391E-04 +2.536423E-04 +4.834716E-05 +2.536423E-04 +9.253234E-05 +8.920070E-05 +4.834716E-05 +8.920070E-05 +5.070746E-03 
 -1.952321E-04 +3.165092E-04 +6.965340E-06 +3.165092E-04 +1.677006E-04 +2.286238E-04 +6.965340E-06 +2.286238E-04 +5.116360E-03 
 -5.515397E-05 +1.182495E-04 -1.253964E-04 +1.182495E-04 +4.466083E-05 +2.888430E-04 -1.253964E-04 +2.888430E-04 +5.042541E-03 
 -9.386193E-05 -9.074518E-06 -9.101752E-05 -9.074518E-06 -1.331540E-04 +1.469535E-04 -9.101752E-05 +1.469535E-04 +5.086396E-03 
 -5.488721E-05 +6.081164E-05 -8.027964E-05 +6.081164E-05 -1.082382E-04 +7.296036E-05 -8.027964E-05 +7.296036E-05 +5.108985E-03 
 -3.515298E-05 -4.861966E-05 +1.445797E-06 -4.861966E-05 -9.982360E-06 +3.080404E-05 +1.445797E-06 +3.080404E-05 +5.029070E-03 
 +6.085888E-05 -3.603741E-05 +1.464876E-05 -3.603741E-05 +7.569050E-05 -2.921158E-06 +1.464876E-05 -2.921158E-06 +4.955982E-03 
 -1.717988E-04 -7.821369E-05 +1.051510E-04 -7.821369E-05 +1.955318E-04 -8.015718E-05 +1.051510E-04 -8.015718E-05 +5.020411E-03 
 -2.964770E-04 -3.050155E-04 +1.667362E-04 -3.050155E-04 +6.984015E-05 -1.715234E-04 +1.667362E-04 -1.715234E-04 +5.144083E-03 
 +4.549153E-05 -9.661414E-06 +2.064196E-04 -9.661414E-06 -2.123594E-04 -1.417378E-04 +2.064196E-04 -1.417378E-04 +5.131474E-03 
 +1.834823E-04 -2.208296E-05 +1.759893E-04 -2.208296E-05 -3.272856E-04 -2.203737E-05 +1.759893E-04 -2.203737E-05 +5.111146E-03 
 +1.765201E-04 -6.729687E-05 +1.152648E-04 -6.729687E-05 -3.127553E-04 +6.377493E-05 +1.152648E-04 +6.377493E-05 +5.150463E-03 
 +2.007591E-04 -1.031249E-04 +4.422647E-05 -1.031249E-04 -2.938186E-04 +8.073298E-05 +4.422647E-05 +8.073298E-05 +5.139905E-03 
 +2.505200E-04 -1.187562E-04 +3.460871E-05 -1.187562E-04 -2.714416E-04 +8.879406E-05 +3.460871E-05 +8.879406E-05 +5.082692E-03 
 +2.900070E-04 -1.089034E-04 +5.919424E-05 -1.089034E-04 -2.303429E-04 +9.912845E-05 +5.919424E-05 +9.912845E-05 +5.003986E-03 
 +3.485274E-04 -8.662364E-05 +8.322525E-05 -8.662364E-05 -2.111064E-04 +1.091452E-04 +8.322525E-05 +1.091452E-04 +4.919835E-03 
 +3.501928E-04 -4.179851E-05 +7.205369E-05 -4.179851E-05 -1.593668E-04 +3.020143E-05 +7.205369E-05 +3.020143E-05 +4.956853E-03 
 -8.695043E-05 +2.769360E-05 -2.680745E-05 +2.769360E-05 -5.344560E-05 -1.049451E-04 -2.680745E-05 -1.049451E-04 +5.045909E-03 
 -1.220557E-04 -1.745402E-05 -4.429049E-05 -1.745402E-05 +9.089199E-05 -8.992807E-05 -4.429049E-05 -8.992807E-05 +5.054587E-03 
 -2.883786E-04 -7.879994E-05 -3.495649E-05 -7.879994E-05 +2.590737E-04 +1.400672E-05 -3.495649E-05 +1.400672E-05 +5.058077E-03 
 -2.602884E-04 -1.606481E-05 -2.100673E-05 -1.606481E-05 +2.160723E-04 +5.842098E-05 -2.100673E-05 +5.842098E-05 +5.079123E-03 
 -2.119581E-04 +1.872493E-04 -2.581592E-05 +1.872493E-04 +1.161204E-04 +1.366924E-04 -2.581592E-05 +1.366924E-04 +5.104167E-03 
 -2.292970E-04 +2.701623E-04 -8.111983E-05 +2.701623E-04 +1.337580E-04 +2.913686E-04 -8.111983E-05 +2.913686E-04 +5.081579E-03 
 -2.256880E-05 +3.350526E-05 -2.585105E-04 +3.350526E-05 -1.363508E-06 +3.055799E-04 -2.585105E-04 +3.055799E-04 +5.014082E-03 
 -1.716669E-04 -1.829182E-04 -1.871810E-04 -1.829182E-04 +1.302637E-05 +1.385437E-04 -1.871810E-04 +1.385437E-04 +5.114370E-03 
 +2.987302E-05 +1.195185E-04 -2.039873E-04 +1.195185E-04 -1.106773E-04 +1.409559E-05 -2.039873E-04 +1.409559E-05 +5.128787E-03 
 +1.650455E-05 +9.254520E-05 -1.236319E-04 +9.254520E-05 -1.458569E-04 -3.340899E-05 -1.236319E-04 -3.340899E-05 +5.043156E-03 
 +3.232329E-05 +5.230181E-05 -7.605274E-05 +5.230181E-05 -9.022196E-05 -5.607798E-05 -7.605274E-05 -5.607798E-05 +5.004448E-03 
 -1.436236E-04 -1.090718E-04 +6.548011E-05 -1.090718E-04 -1.629798E-04 -1.082048E-04 +6.548011E-05 -1.082048E-04 +5.122489E-03 
 -1.393755E-04 -3.330457E-04 +1.361324E-04 -3.330457E-04 -2.367242E-04 -1.313370E-04 +1.361324E-04 -1.313370E-04 +5.208183E-03 
 +7.679217E-05 -8.965840E-05 +2.136986E-04 -8.965840E-05 -2.501064E-04 -8.279479E-05 +2.136986E-04 -8.279479E-05 +5.118855E-03 
 +1.792892E-04 -1.114653E-04 +2.013848E-04 -1.114653E-04 -2.846552E-04 -2.981969E-05 +2.013848E-04 -2.981969E-05 +5.116058E-03 
 +1.476624E-04 -1.399953E-04 +1.221273E-04 -1.399953E-04 -2.940063E-04 +1.863401E-05 +1.221273E-04 +1.863401E-05 +5.200382E-03 
 +1.852885E-04 -1.274917E-04 +2.774348E-05 -1.274917E-04 -2.873007E-04 +4.673712E-05 +2.774348E-05 +4.673712E-05 +5.168023E-03 
 +2.478611E-04 -1.315421E-04 +8.706676E-07 -1.315421E-04 -2.591895E-04 +5.462798E-05 +8.706676E-07 +5.462798E-05 +5.067705E-03 
 +2.972142E-04 -1.206034E-04 +3.092565E-05 -1.206034E-04 -2.423165E-04 +2.651414E-05 +3.092565E-05 +2.651414E-05 +5.000362E-03 
 +3.558280E-04 -1.247695E-04 +6.869775E-05 -1.247695E-04 -2.379237E-04 +2.567447E-06 +6.869775E-05 +2.567447E-06 +4.948643E-03 
 +3.506273E-04 -2.707465E-05 +6.653239E-05 -2.707465E-05 -1.663909E-04 -3.221122E-05 +6.653239E-05 -3.221122E-05 +5.016464E-03 
 -1.223906E-04 +5.724371E-05 -3.090925E-05 +5.724371E-05 -1.647165E-05 -4.734407E-05 -3.090925E-05 -4.734407E-05 +5.134679E-03 
 -1.921108E-04 -2.022251E-05 -6.049426E-05 -2.022251E-05 +1.192595E-04 -9.570453E-06 -6.049426E-05 -9.570453E-06 +5.157666E-03 
 -3.459935E-04 -1.217268E-04 -6.409927E-05 -1.217268E-04 +2.222388E-04 +3.716957E-05 -6.409927E-05 +3.716957E-05 +5.138953E-03 
 -3.840815E-04 -1.248950E-04 -7.395511E-05 -1.248950E-04 +2.991110E-04 +6.963448E-05 -7.395511E-05 +6.963448E-05 +5.132745E-03 
 -3.543101E-04 +2.075901E-05 -7.916321E-05 +2.075901E-05 +1.746228E-04 +1.899361E-04 -7.916321E-05 +1.899361E-04 +5.123592E-03 
 -4.311783E-05 +2.208572E-04 -2.001227E-04 +2.208572E-04 -1.499982E-05 +3.445940E-04 -2.001227E-04 +3.445940E-04 +5.029431E-03 
 +5.134052E-05 +1.054471E-04 -3.148277E-04 +1.054471E-04 -7.833988E-05 +2.534325E-04 -3.148277E-04 +2.534325E-04 +5.013195E-03 
 -1.610396E-05 +7.866642E-05 -2.404143E-04 +7.866642E-05 -8.763213E-05 +6.478267E-05 -2.404143E-04 +6.478267E-05 +5.079876E-03 
 +4.313357E-05 +2.317573E-04 -2.246586E-04 +2.317573E-04 -9.236052E-05 -6.303544E-05 -2.246586E-04 -6.303544E-05 +5.102615E-03 
 +8.870440E-06 +1.474446E-04 -2.190710E-04 +1.474446E-04 -1.620133E-04 -5.573702E-05 -2.190710E-04 -5.573702E-05 +5.088753E-03 
 -9.869177E-05 +7.557131E-05 -1.593896E-04 +7.557131E-05 -2.268660E-04 -5.759955E-05 -1.593896E-04 -5.759955E-05 +5.100598E-03 
 -1.606288E-04 -1.425693E-04 +5.165106E-06 -1.425693E-04 -2.804542E-04 -1.152790E-04 +5.165106E-06 -1.152790E-04 +5.233359E-03 
 -2.743510E-05 -3.757049E-04 +5.573100E-05 -3.757049E-04 -2.130714E-04 -7.426850E-05 +5.573100E-05 -7.426850E-05 +5.227831E-03 
 +1.123673E-04 -1.653192E-04 +1.812451E-04 -1.653192E-04 -1.612132E-04 -1.839191E-05 +1.812451E-04 -1.839191E-05 +5.057559E-03 
 +1.421366E-04 -1.143222E-04 +2.259917E-04 -1.143222E-04 -2.079029E-04 -2.506332E-05 +2.259917E-04 -2.506332E-05 +5.067845E-03 
 +1.284543E-04 -1.659060E-04 +1.486407E-04 -1.659060E-04 -2.683629E-04 -1.473844E-05 +1.486407E-04 -1.473844E-05 +5.149232E-03 
 +2.003853E-04 -1.410666E-04 +5.847096E-05 -1.410666E-04 -2.735344E-04 +1.302645E-05 +5.847096E-05 +1.302645E-05 +5.110689E-03 
 +2.805660E-04 -1.331515E-04 +3.759435E-06 -1.331515E-04 -2.626724E-04 +2.290834E-05 +3.759435E-06 +2.290834E-05 +5.039680E-03 
 +2.780428E-04 -1.160498E-04 +1.666328E-05 -1.160498E-04 -2.614143E-04 -4.303039E-06 +1.666328E-05 -4.303039E-06 +5.020330E-03 
 +3.160833E-04 -1.535021E-04 +4.836154E-05 -1.535021E-04 -2.539282E-04 -4.997347E-05 +4.836154E-05 -4.997347E-05 +4.978661E-03 
 +3.165121E-04 +3.615837E-06 +1.697334E-05 +3.615837E-06 -1.531207E-04 -8.008443E-05 +1.697334E-05 -8.008443E-05 +5.021539E-03 
 -1.881462E-04 +6.315622E-05 -6.826052E-05 +6.315622E-05 +8.780428E-05 -2.107271E-05 -6.826052E-05 -2.107271E-05 +5.138735E-03 
 -2.807270E-04 -8.315849E-05 -5.716368E-05 -8.315849E-05 +2.102205E-04 +5.201474E-05 -5.716368E-05 +5.201474E-05 +5.157176E-03 
 -3.501574E-04 -1.177023E-04 -6.789858E-05 -1.177023E-04 +2.395616E-04 +5.682796E-05 -6.789858E-05 +5.682796E-05 +5.143479E-03 
 -4.172046E-04 -1.084607E-04 -8.355423E-05 -1.084607E-04 +2.998309E-04 +5.751937E-05 -8.355423E-05 +5.751937E-05 +5.164502E-03 
 -4.099624E-04 -3.950985E-05 -1.163594E-04 -3.950985E-05 +1.226418E-04 +1.426507E-04 -1.163594E-04 +1.426507E-04 +5.145537E-03 
 +7.110781E-05 +2.699233E-04 -2.664294E-04 +2.699233E-04 -4.976033E-05 +2.841288E-04 -2.664294E-04 +2.841288E-04 +5.034644E-03 
 +3.436909E-04 +4.772770E-05 -1.247189E-04 +4.772770E-05 -1.881074E-04 +3.021130E-05 -1.247189E-04 +3.021130E-05 +5.073534E-03 
 +2.599899E-04 +7.997418E-05 -1.389429E-04 +7.997418E-05 -2.809696E-04 +6.830590E-06 -1.389429E-04 +6.830590E-06 +5.031925E-03 
 +1.332258E-04 +2.377147E-04 -1.312932E-04 +2.377147E-04 -2.156311E-04 +8.996205E-06 -1.312932E-04 +8.996205E-06 +5.043712E-03 
 +2.729267E-06 +3.877468E-04 -1.213140E-04 +3.877468E-04 -2.326592E-04 +6.820971E-05 -1.213140E-04 +6.820971E-05 +5.146056E-03 
 -6.147984E-05 +2.896162E-04 -1.175241E-04 +2.896162E-04 -2.104215E-04 +7.628931E-05 -1.175241E-04 +7.628931E-05 +5.285674E-03 
 -4.073840E-05 +1.785243E-04 +1.114413E-04 +1.785243E-04 -1.579591E-04 +5.233843E-05 +1.114413E-04 +5.233843E-05 +5.256314E-03 
 +3.946893E-05 +8.237460E-05 +6.026560E-05 +8.237460E-05 -2.101478E-04 +5.875183E-05 +6.026560E-05 +5.875183E-05 +5.165810E-03 
 +1.040302E-04 +1.232895E-04 +1.245896E-04 +1.232895E-04 -2.100400E-04 +3.078613E-05 +1.245896E-04 +3.078613E-05 +5.132467E-03 
 +1.460133E-04 +1.287221E-04 +1.278550E-04 +1.287221E-04 -1.292910E-04 -8.092196E-07 +1.278550E-04 -8.092196E-07 +5.048406E-03 
 +1.351040E-04 +8.412567E-05 +1.110829E-04 +8.412567E-05 -1.001810E-04 -9.272627E-06 +1.110829E-04 -9.272627E-06 +5.030602E-03 
 +1.645550E-04 -7.089932E-05 +8.563203E-05 -7.089932E-05 -1.708943E-04 +3.226752E-05 +8.563203E-05 +3.226752E-05 +5.034008E-03 
 +2.243100E-04 -1.345674E-04 +5.466052E-05 -1.345674E-04 -2.566076E-04 +7.587143E-05 +5.466052E-05 +7.587143E-05 +5.014992E-03 
 +2.714539E-04 -1.428068E-04 +4.047677E-05 -1.428068E-04 -3.222909E-04 +6.116350E-05 +4.047677E-05 +6.116350E-05 +5.041665E-03 
 +2.956952E-04 -1.266119E-04 +2.874203E-05 -1.266119E-04 -2.876610E-04 +4.392035E-06 +2.874203E-05 +4.392035E-06 +5.088490E-03 
 -1.637138E-04 +2.072107E-04 -1.248105E-04 +2.072107E-04 -1.822480E-05 -8.686264E-05 -1.248105E-04 -8.686264E-05 +5.152411E-03 
 -3.457229E-04 +1.697819E-04 -1.300978E-04 +1.697819E-04 +1.219166E-04 -1.083735E-04 -1.300978E-04 -1.083735E-04 +5.196753E-03 
 -3.526959E-04 -3.086933E-05 -5.746281E-05 -3.086933E-05 +1.706836E-04 -4.224637E-05 -5.746281E-05 -4.224637E-05 +5.197852E-03 
 -4.248402E-04 -1.525003E-04 -4.918385E-05 -1.525003E-04 +2.514941E-04 +4.772273E-06 -4.918385E-05 +4.772273E-06 +5.198894E-03 
 -4.246185E-04 -7.979405E-05 -1.374294E-04 -7.979405E-05 +2.237094E-04 +8.098329E-06 -1.374294E-04 +8.098329E-06 +5.241585E-03 
 -3.563536E-04 +7.257970E-05 -1.032181E-04 +7.257970E-05 +9.180073E-05 +5.052154E-05 -1.032181E-04 +5.052154E-05 +5.255506E-03 
 +4.987443E-05 +4.818297E-04 -4.753273E-05 +4.818297E-04 -3.009468E-05 +6.911071E-05 -4.753273E-05 +6.911071E-05 +5.170644E-03 
 +2.477184E-04 -1.320210E-04 -5.971598E-05 -1.320210E-04 -1.904584E-04 -1.048650E-04 -5.971598E-05 -1.048650E-04 +5.082864E-03 
 +2.537033E-04 -6.059385E-05 -8.609641E-05 -6.059385E-05 -3.298462E-04 -9.478197E-05 -8.609641E-05 -9.478197E-05 +5.050716E-03 
 +1.880598E-04 +2.413682E-05 -8.560742E-05 +2.413682E-05 -3.834967E-04 -6.597667E-05 -8.560742E-05 -6.597667E-05 +5.087885E-03 
 +1.232563E-04 +1.683789E-04 -5.299061E-05 +1.683789E-04 -4.177605E-04 +1.095158E-05 -5.299061E-05 +1.095158E-05 +5.182483E-03 
 +1.470623E-04 +1.629131E-04 -1.055712E-04 +1.629131E-04 -4.856716E-04 +1.200428E-04 -1.055712E-04 +1.200428E-04 +5.334199E-03 
 +7.325374E-05 +7.980010E-05 +5.438072E-05 +7.980010E-05 -4.820814E-04 +1.580980E-04 +5.438072E-05 +1.580980E-04 +5.338353E-03 
 +8.381347E-05 -1.943721E-05 +3.738418E-05 -1.943721E-05 -3.855518E-04 +9.553081E-05 +3.738418E-05 +9.553081E-05 +5.201482E-03 
 +4.159480E-05 +1.562294E-04 +1.158409E-04 +1.562294E-04 -2.457949E-04 +2.835893E-05 +1.158409E-04 +2.835893E-05 +5.121554E-03 
 +2.845286E-05 +2.550493E-04 +4.878236E-05 +2.550493E-04 -9.870219E-05 +2.964094E-05 +4.878236E-05 +2.964094E-05 +5.017024E-03 
 +3.153203E-05 +2.329574E-04 +2.990953E-05 +2.329574E-04 -3.860677E-05 +3.718482E-05 +2.990953E-05 +3.718482E-05 +4.934038E-03 
 +6.251394E-05 +3.258085E-05 +8.924050E-05 +3.258085E-05 -7.851507E-05 +5.938750E-05 +8.924050E-05 +5.938750E-05 +4.945774E-03 
 +1.178255E-04 -4.934796E-05 +7.636775E-05 -4.934796E-05 -1.632681E-04 +1.101083E-04 +7.636775E-05 +1.101083E-04 +5.001157E-03 
 +1.392201E-04 -2.361244E-04 +3.649247E-05 -2.361244E-04 -3.585123E-04 +1.117411E-04 +3.649247E-05 +1.117411E-04 +5.062781E-03 
 +1.555805E-04 -1.342493E-04 +1.241118E-04 -1.342493E-04 -2.400127E-04 +5.108300E-05 +1.241118E-04 +5.108300E-05 +5.045951E-03 
 -2.012330E-04 +1.918256E-04 +3.496415E-05 +1.918256E-04 +5.703391E-05 +1.102169E-05 +3.496415E-05 +1.102169E-05 +5.066696E-03 
 -3.278940E-04 +1.763280E-04 -1.732042E-05 +1.763280E-04 +5.709722E-05 -2.432937E-05 -1.732042E-05 -2.432937E-05 +5.150445E-03 
 -4.505363E-04 +9.780128E-05 -2.806992E-05 +9.780128E-05 +1.304357E-04 -3.283154E-05 -2.806992E-05 -3.283154E-05 +5.243561E-03 
 -3.316002E-04 -7.313323E-05 -4.782548E-05 -7.313323E-05 +1.139460E-04 -1.653801E-05 -4.782548E-05 -1.653801E-05 +5.267551E-03 
 -1.336230E-04 +1.089340E-04 -1.462872E-04 +1.089340E-04 -1.163490E-04 -7.160790E-05 -1.462872E-04 -7.160790E-05 +5.251411E-03 
 -1.629458E-04 +2.012935E-04 -5.177845E-05 +2.012935E-04 -1.120739E-04 -2.118061E-05 -5.177845E-05 -2.118061E-05 +5.270711E-03 
 -8.563939E-05 +4.411823E-04 +7.813637E-08 +4.411823E-04 -5.176398E-05 -2.981730E-05 +7.813637E-08 -2.981730E-05 +5.199893E-03 
 +1.297666E-04 -1.320687E-04 -5.473814E-05 -1.320687E-04 -2.116664E-04 -7.811727E-05 -5.473814E-05 -7.811727E-05 +5.097567E-03 
 +1.752441E-04 +1.077978E-05 -4.717039E-05 +1.077978E-05 -3.256347E-04 -1.192181E-04 -4.717039E-05 -1.192181E-04 +5.045952E-03 
 +1.679334E-04 +6.808658E-05 -6.464764E-05 +6.808658E-05 -5.075982E-04 -8.275847E-05 -6.464764E-05 -8.275847E-05 +5.115237E-03 
 +2.570498E-04 +1.838989E-04 -3.163298E-05 +1.838989E-04 -7.063061E-04 -2.730448E-05 -3.163298E-05 -2.730448E-05 +5.166738E-03 
 +2.896606E-04 +1.785847E-04 -5.257605E-05 +1.785847E-04 -6.454869E-04 +1.296222E-05 -5.257605E-05 +1.296222E-05 +5.262080E-03 
 +1.845993E-04 +5.559589E-05 -9.798991E-05 +5.559589E-05 -4.748989E-04 +4.662151E-05 -9.798991E-05 +4.662151E-05 +5.314947E-03 
 +1.149400E-04 -7.132891E-06 -5.812910E-05 -7.132891E-06 -2.580722E-04 +1.859656E-05 -5.812910E-05 +1.859656E-05 +5.195533E-03 
 +9.768864E-05 +8.939828E-05 +4.369969E-05 +8.939828E-05 -9.120426E-05 +1.799796E-05 +4.369969E-05 +1.799796E-05 +5.040482E-03 
 +8.914202E-05 +2.211652E-04 +5.956161E-06 +2.211652E-04 -5.791684E-05 +4.884367E-05 +5.956161E-06 +4.884367E-05 +4.983820E-03 
 +8.465708E-05 +2.638635E-04 +6.997872E-06 +2.638635E-04 -3.424096E-06 +4.391787E-05 +6.997872E-06 +4.391787E-05 +4.987477E-03 
 -3.669827E-06 +8.355018E-05 +6.497451E-05 +8.355018E-05 -5.255505E-05 +3.673233E-05 +6.497451E-05 +3.673233E-05 +4.995422E-03 
 -1.103130E-04 +2.290730E-05 +3.866878E-05 +2.290730E-05 -1.483418E-04 +5.497168E-05 +3.866878E-05 +5.497168E-05 +5.037427E-03 
 -2.701118E-04 -2.766526E-04 -1.722944E-05 -2.766526E-04 -1.351438E-04 +1.199186E-04 -1.722944E-05 +1.199186E-04 +5.057100E-03 
 -1.700808E-04 +1.597298E-05 +1.493661E-04 +1.597298E-05 -1.804791E-05 +1.576501E-04 +1.493661E-04 +1.576501E-04 +4.963729E-03 
 +4.443061E-05 +1.356625E-04 +1.691129E-04 +1.356625E-04 -3.230121E-06 +1.852236E-04 +1.691129E-04 +1.852236E-04 +4.981300E-03 
 -2.546735E-04 +1.919924E-04 +4.517478E-05 +1.919924E-04 +5.800918E-05 +1.342476E-04 +4.517478E-05 +1.342476E-04 +5.120517E-03 
 -3.336144E-04 +1.415111E-04 +3.482053E-05 +1.415111E-04 -5.689010E-05 +6.768480E-05 +3.482053E-05 +6.768480E-05 +5.260084E-03 
 -1.185599E-04 +5.686948E-05 -2.489887E-05 +5.686948E-05 -2.544668E-04 +2.515517E-05 -2.489887E-05 +2.515517E-05 +5.293571E-03 
 -5.691079E-05 +7.896887E-05 -4.946326E-05 +7.896887E-05 -1.833392E-04 -7.858909E-05 -4.946326E-05 -7.858909E-05 +5.248928E-03 
 -1.713856E-04 +2.096414E-04 +2.135807E-05 +2.096414E-04 -1.113252E-04 -6.005914E-05 +2.135807E-05 -6.005914E-05 +5.254087E-03 
 -1.454987E-04 +4.010799E-04 +2.881640E-06 +4.010799E-04 -9.804358E-05 -2.037098E-05 +2.881640E-06 -2.037098E-05 +5.225994E-03 
 +1.900533E-04 -1.398932E-04 -4.658808E-05 -1.398932E-04 -1.596498E-04 +3.899598E-06 -4.658808E-05 +3.899598E-06 +5.083345E-03 
 +1.443593E-04 +8.049927E-05 -3.184920E-05 +8.049927E-05 -1.110440E-04 +1.446074E-05 -3.184920E-05 +1.446074E-05 +4.989299E-03 
 +1.315094E-04 +7.124352E-05 -7.127908E-05 +7.124352E-05 -1.592014E-04 +4.708810E-05 -7.127908E-05 +4.708810E-05 +5.016417E-03 
 +1.629058E-04 +1.345069E-04 -1.074684E-04 +1.345069E-04 -3.302334E-04 +3.586280E-05 -1.074684E-04 +3.586280E-05 +5.071176E-03 
 +3.251935E-04 +1.415966E-04 -4.563129E-05 +1.415966E-04 -5.443895E-04 -2.647446E-05 -4.563129E-05 -2.647446E-05 +5.164466E-03 
 +2.584350E-04 +1.223305E-04 -1.118836E-04 +1.223305E-04 -4.172950E-04 -3.796605E-05 -1.118836E-04 -3.796605E-05 +5.237473E-03 
 +1.454107E-04 +5.190297E-05 -8.556296E-05 +5.190297E-05 -1.075097E-04 -5.188618E-05 -8.556296E-05 -5.188618E-05 +5.151091E-03 
 +1.614433E-04 +7.304939E-05 +4.590132E-05 +7.304939E-05 +3.881367E-05 -1.147534E-05 +4.590132E-05 -1.147534E-05 +4.922591E-03 
 +2.033350E-04 +1.320367E-04 +4.548912E-05 +1.320367E-04 -1.207033E-05 +3.355208E-05 +4.548912E-05 +3.355208E-05 +4.871259E-03 
 +2.342622E-04 +2.305262E-04 -1.360459E-07 +2.305262E-04 -6.802028E-05 +4.683442E-05 -1.360459E-07 +4.683442E-05 +5.059306E-03 
 -1.951727E-04 -8.627564E-05 -4.720359E-05 -8.627564E-05 +7.046703E-05 +3.869469E-05 -4.720359E-05 +3.869469E-05 +5.088408E-03 
 -3.772886E-04 -2.020576E-04 -4.802607E-05 -2.020576E-04 +2.392827E-04 +3.489053E-05 -4.802607E-05 +3.489053E-05 +5.042091E-03 
 -5.284400E-04 -3.470863E-04 -4.178708E-05 -3.470863E-04 +3.681533E-04 +1.108306E-04 -4.178708E-05 +1.108306E-04 +5.030566E-03 
 -3.301890E-04 +1.421790E-07 +1.363235E-04 +1.421790E-07 +1.207846E-04 +1.615013E-04 +1.363235E-04 +1.615013E-04 +4.972695E-03 
 -1.396537E-04 +7.349233E-05 +1.564103E-04 +7.349233E-05 -1.678978E-04 +1.697821E-04 +1.564103E-04 +1.697821E-04 +5.026963E-03 
 +2.926149E-05 +2.769364E-05 +4.847383E-05 +2.769364E-05 -3.354092E-04 +1.678488E-04 +4.847383E-05 +1.678488E-04 +5.132997E-03 
 -2.648907E-05 -2.733920E-05 +2.998563E-05 -2.733920E-05 -4.193041E-04 +1.411205E-04 +2.998563E-05 +1.411205E-04 +5.207120E-03 
 -6.116776E-05 +1.707673E-05 -6.685244E-05 +1.707673E-05 -2.056982E-04 +4.401131E-05 -6.685244E-05 +4.401131E-05 +5.237919E-03 
 -7.212394E-05 -1.235338E-05 -5.289159E-05 -1.235338E-05 -9.508923E-05 -4.910129E-05 -5.289159E-05 -4.910129E-05 +5.232949E-03 
 -1.730338E-04 +1.909418E-04 +5.993098E-05 +1.909418E-04 -8.926893E-05 -5.133681E-05 +5.993098E-05 -5.133681E-05 +5.221421E-03 
 -8.242398E-05 +2.842378E-04 +6.847985E-05 +2.842378E-04 -1.379706E-04 -1.708221E-05 +6.847985E-05 -1.708221E-05 +5.196732E-03 
 +1.935191E-04 +1.935796E-05 -3.054181E-05 +1.935796E-05 -1.691690E-04 +6.787270E-06 -3.054181E-05 +6.787270E-06 +5.036247E-03 
 +1.618603E-04 +7.033492E-05 -6.402515E-06 +7.033492E-05 -3.144934E-07 +2.633593E-05 -6.402515E-06 +2.633593E-05 +4.955804E-03 
 +1.114227E-04 +1.915308E-05 -5.744031E-05 +1.915308E-05 -2.682746E-05 +3.233221E-05 -5.744031E-05 +3.233221E-05 +4.906393E-03 
 +3.959574E-05 +7.653481E-05 -1.689610E-04 +7.653481E-05 -1.766228E-04 -2.298185E-05 -1.689610E-04 -2.298185E-05 +4.960360E-03 
 +1.402307E-04 +5.967522E-05 -7.831796E-05 +5.967522E-05 -3.771856E-04 -8.174866E-05 -7.831796E-05 -8.174866E-05 +5.093528E-03 
 +2.552517E-04 +1.695957E-04 -5.984344E-05 +1.695957E-04 -3.800759E-04 -1.054766E-04 -5.984344E-05 -1.054766E-04 +5.130149E-03 
 +3.221974E-04 +5.782620E-05 -8.273417E-05 +5.782620E-05 -1.984339E-04 -1.051580E-04 -8.273417E-05 -1.051580E-04 +5.063760E-03 
 +3.001420E-04 +1.627875E-04 +7.005809E-06 +1.627875E-04 -1.162123E-05 -5.645767E-05 +7.005809E-06 -5.645767E-05 +4.940189E-03 
 +2.677759E-04 +5.784321E-05 +3.304614E-05 +5.784321E-05 -1.042292E-07 -6.196956E-05 +3.304614E-05 -6.196956E-05 +4.941310E-03 
 +7.351375E-05 +1.355233E-04 -3.919824E-05 +1.355233E-04 -6.832749E-05 -5.622953E-05 -3.919824E-05 -5.622953E-05 +5.125839E-03 
 -4.492969E-04 -1.667352E-04 -1.132263E-04 -1.667352E-04 +1.374741E-04 +8.580215E-08 -1.132263E-04 +8.580215E-08 +5.124749E-03 
 -4.790460E-04 -2.459543E-04 -6.176790E-05 -2.459543E-04 +3.186741E-04 +2.966538E-05 -6.176790E-05 +2.966538E-05 +5.033495E-03 
 -4.953955E-04 -2.920258E-04 -3.689643E-05 -2.920258E-04 +3.815951E-04 +6.293395E-05 -3.689643E-05 +6.293395E-05 +5.023904E-03 
 -4.154733E-04 -2.362212E-04 +3.086173E-05 -2.362212E-04 +3.037794E-04 +9.952008E-05 +3.086173E-05 +9.952008E-05 +5.018447E-03 
 -3.884654E-04 +1.011245E-04 +7.768585E-05 +1.011245E-04 -3.859821E-06 +7.721830E-05 +7.768585E-05 +7.721830E-05 +5.074405E-03 
 +1.382176E-04 -1.673587E-05 +5.192848E-05 -1.673587E-05 -2.840111E-04 +8.874248E-05 +5.192848E-05 +8.874248E-05 +5.112542E-03 
 +1.428646E-04 -2.873873E-05 -3.475575E-05 -2.873873E-05 -2.743334E-04 +1.236081E-04 -3.475575E-05 +1.236081E-04 +5.106896E-03 
 +7.454915E-05 -3.030863E-05 -1.127558E-04 -3.030863E-05 -1.616576E-04 +3.438980E-05 -1.127558E-04 +3.438980E-05 +5.139502E-03 
 +8.025123E-05 -1.984220E-05 -1.022178E-04 -1.984220E-05 -1.552572E-04 -1.143939E-05 -1.022178E-04 -1.143939E-05 +5.195406E-03 
 -1.233892E-04 +2.801795E-04 +6.896298E-05 +2.801795E-04 -8.940796E-05 +2.401654E-05 +6.896298E-05 +2.401654E-05 +5.177678E-03 
 +4.980460E-05 +3.096131E-04 +5.429214E-05 +3.096131E-04 -1.803347E-04 +2.554726E-05 +5.429214E-05 +2.554726E-05 +5.113739E-03 
 +1.766269E-04 +3.839549E-05 -6.944273E-05 +3.839549E-05 -1.034022E-04 -9.869174E-07 -6.944273E-05 -9.869174E-07 +4.895523E-03 
 +2.169240E-04 +1.296498E-04 +4.274018E-06 +1.296498E-04 -7.437894E-05 -3.701231E-06 +4.274018E-06 -3.701231E-06 +4.889087E-03 
 +1.214842E-04 +4.849429E-05 +1.223645E-05 +4.849429E-05 -4.468708E-05 -1.887258E-05 +1.223645E-05 -1.887258E-05 +4.836718E-03 
 +5.933392E-06 +1.099585E-04 -9.241880E-05 +1.099585E-04 +1.946992E-05 -3.709509E-05 -9.241880E-05 -3.709509E-05 +4.871793E-03 
 -1.125334E-04 +1.669114E-04 -5.332422E-05 +1.669114E-04 +1.826439E-04 -7.841490E-05 -5.332422E-05 -7.841490E-05 +5.021280E-03 
 +5.843155E-06 +3.056486E-04 -4.468851E-05 +3.056486E-04 +3.171670E-04 -1.202424E-04 -4.468851E-05 -1.202424E-04 +5.040590E-03 
 +3.218905E-04 -1.942948E-04 -1.173467E-04 -1.942948E-04 +9.441892E-05 -1.345708E-04 -1.173467E-04 -1.345708E-04 +5.041822E-03 
 +3.784516E-04 -2.381540E-04 -9.307966E-05 -2.381540E-04 -3.033660E-04 -9.790536E-05 -9.307966E-05 -9.790536E-05 +5.093959E-03 
 +3.032274E-04 -3.225731E-04 -4.256215E-05 -3.225731E-04 -2.435512E-04 -9.114015E-05 -4.256215E-05 -9.114015E-05 +5.107652E-03 
 -1.811274E-04 -1.500588E-04 -5.572090E-05 -1.500588E-04 +5.415176E-05 -8.567436E-05 -5.572090E-05 -8.567436E-05 +5.102924E-03 
 -3.907869E-04 -1.981757E-04 -4.849262E-05 -1.981757E-04 +1.989422E-04 -8.373205E-06 -4.849262E-05 -8.373205E-06 +5.085992E-03 
 -4.020719E-04 -2.764741E-04 -2.504453E-05 -2.764741E-04 +2.648668E-04 +3.974147E-05 -2.504453E-05 +3.974147E-05 +5.049789E-03 
 -4.077579E-04 -2.485893E-04 -3.937963E-05 -2.485893E-04 +3.034823E-04 +4.824930E-05 -3.937963E-05 +4.824930E-05 +5.020311E-03 
 -4.117251E-04 -2.552785E-04 -5.493105E-05 -2.552785E-04 +2.610121E-04 +9.950145E-05 -5.493105E-05 +9.950145E-05 +4.990707E-03 
 -3.144451E-04 +1.687890E-04 +1.244215E-05 +1.687890E-04 +1.578067E-04 +5.913950E-05 +1.244215E-05 +5.913950E-05 +5.038941E-03 
 -8.980144E-05 +8.556471E-05 +2.415807E-05 +8.556471E-05 +1.074508E-04 +1.813284E-05 +2.415807E-05 +1.813284E-05 +5.066304E-03 
 +1.753346E-04 +1.017719E-04 -7.726127E-05 +1.017719E-04 -5.064178E-05 +4.406748E-05 -7.726127E-05 +4.406748E-05 +5.015231E-03 
 +2.450636E-04 +3.945937E-05 -1.577408E-04 +3.945937E-05 -2.073387E-04 -1.441596E-05 -1.577408E-04 -1.441596E-05 +5.018209E-03 
 +2.304033E-04 +2.953758E-05 -1.616668E-04 +2.953758E-05 -1.535453E-04 -2.169353E-05 -1.616668E-04 -2.169353E-05 +5.040929E-03 
 -4.746281E-05 +2.755517E-04 -1.273160E-06 +2.755517E-04 -4.606796E-05 -4.796072E-05 -1.273160E-06 -4.796072E-05 +5.019414E-03 
 +1.766264E-04 +1.061475E-04 -3.484252E-05 +1.061475E-04 -5.527743E-05 -4.743311E-05 -3.484252E-05 -4.743311E-05 +4.958588E-03 
 +2.577052E-04 +3.186546E-05 -5.991433E-05 +3.186546E-05 +1.930477E-05 +1.510217E-06 -5.991433E-05 +1.510217E-06 +4.789652E-03 
 +2.389406E-04 +4.024021E-05 -7.188871E-06 +4.024021E-05 +3.855609E-05 +4.222491E-05 -7.188871E-06 +4.222491E-05 +4.819212E-03 
 +2.192900E-04 -7.859981E-06 -1.473893E-05 -7.859981E-06 +5.318271E-05 -4.682219E-05 -1.473893E-05 -4.682219E-05 +4.781070E-03 
 -1.405590E-04 +1.034233E-04 +9.138481E-06 +1.034233E-04 +2.063033E-04 -1.118377E-04 +9.138481E-06 -1.118377E-04 +4.849306E-03 
 -2.474457E-04 +8.193638E-05 -1.578745E-05 +8.193638E-05 +3.306692E-04 -1.168585E-04 -1.578745E-05 -1.168585E-04 +4.982825E-03 
 -2.008848E-04 +2.599264E-04 -5.702083E-05 +2.599264E-04 +2.760803E-04 -1.601643E-04 -5.702083E-05 -1.601643E-04 +5.004608E-03 
 +1.190323E-04 -2.716742E-04 -1.438879E-04 -2.716742E-04 +4.737402E-05 -1.203007E-04 -1.438879E-04 -1.203007E-04 +5.079802E-03 
 +2.139455E-04 -2.084144E-04 -1.171029E-04 -2.084144E-04 -1.540840E-04 +6.637036E-06 -1.171029E-04 +6.637036E-06 +5.172325E-03 
 +2.415540E-04 -2.042925E-04 -4.911037E-05 -2.042925E-04 -1.752531E-04 +6.053167E-05 -4.911037E-05 +6.053167E-05 +5.131119E-03 
 -8.814729E-05 +1.612232E-05 -2.992414E-05 +1.612232E-05 +7.891715E-07 +2.302037E-05 -2.992414E-05 +2.302037E-05 +5.046984E-03 
 -1.965328E-04 -8.813123E-05 -2.073732E-05 -8.813123E-05 +1.562315E-04 +5.018980E-05 -2.073732E-05 +5.018980E-05 +5.045299E-03 
 -3.181385E-04 -1.834564E-04 -4.266432E-05 -1.834564E-04 +2.316269E-04 +8.277136E-05 -4.266432E-05 +8.277136E-05 +5.041065E-03 
 -3.284166E-04 -2.612395E-04 -5.656198E-05 -2.612395E-04 +2.427698E-04 +6.951456E-05 -5.656198E-05 +6.951456E-05 +4.991877E-03 
 -2.464576E-04 -2.447138E-04 -2.509227E-05 -2.447138E-04 +2.627785E-04 +8.000979E-05 -2.509227E-05 +8.000979E-05 +4.951200E-03 
 -1.923876E-04 +1.342599E-04 +2.335249E-05 +1.342599E-04 +2.759587E-04 +1.159221E-05 +2.335249E-05 +1.159221E-05 +5.005015E-03 
 -2.089308E-04 +1.342430E-04 -3.911160E-07 +1.342430E-04 +1.085064E-04 -1.004154E-04 -3.911160E-07 -1.004154E-04 +5.029668E-03 
 +3.570455E-05 +1.042873E-04 -7.308394E-05 +1.042873E-04 -2.726360E-05 -1.009549E-04 -7.308394E-05 -1.009549E-04 +4.928640E-03 
 +2.407046E-04 +4.042278E-05 -1.891873E-04 +4.042278E-05 -1.909770E-05 -3.407518E-05 -1.891873E-04 -3.407518E-05 +4.841914E-03 
 +2.338715E-04 +1.972470E-05 -1.724876E-04 +1.972470E-05 +1.559501E-04 -1.974067E-05 -1.724876E-04 -1.974067E-05 +4.785399E-03 
 +1.269743E-04 +1.546637E-04 -9.256430E-05 +1.546637E-04 +1.414220E-04 -7.475924E-05 -9.256430E-05 -7.475924E-05 +4.782581E-03 
 +2.401405E-04 +7.886572E-05 -9.902663E-05 +7.886572E-05 -1.047410E-05 -6.393224E-05 -9.902663E-05 -6.393224E-05 +4.790049E-03 
 +2.681497E-04 +3.465340E-05 -4.964742E-05 +3.465340E-05 +5.847815E-05 -5.216554E-05 -4.964742E-05 -5.216554E-05 +4.757050E-03 
 +2.960469E-04 +6.514691E-05 -3.944646E-05 +6.514691E-05 +1.283249E-04 -1.295400E-04 -3.944646E-05 -1.295400E-04 +4.691047E-03 
 +2.657207E-04 +5.089108E-05 -1.292453E-04 +5.089108E-05 +2.708622E-04 -2.096433E-04 -1.292453E-04 -2.096433E-04 +4.650722E-03 
 -2.964840E-04 +1.424806E-04 -3.286613E-05 +1.424806E-04 +3.729720E-04 -1.573756E-04 -3.286613E-05 -1.573756E-04 +4.846824E-03 
 -3.457993E-04 +1.046922E-04 -4.213940E-05 +1.046922E-04 +3.381026E-04 -1.164896E-04 -4.213940E-05 -1.164896E-04 +4.986212E-03 
 -2.206282E-04 +2.042076E-04 -8.695888E-05 +2.042076E-04 +1.713209E-04 -1.510484E-04 -8.695888E-05 -1.510484E-04 +4.982235E-03 
 +1.337349E-05 -3.389636E-04 -1.595579E-04 -3.389636E-04 +3.741307E-05 -9.677113E-05 -1.595579E-04 -9.677113E-05 +5.077883E-03 
 -4.861037E-05 -2.446469E-04 -6.098193E-05 -2.446469E-04 -6.944362E-05 +3.739159E-05 -6.098193E-05 +3.739159E-05 +5.129846E-03 
 +1.128813E-04 -1.080237E-04 +5.128598E-06 -1.080237E-04 -1.101423E-04 +1.259381E-04 +5.128598E-06 +1.259381E-04 +5.040525E-03 
 +7.707562E-05 +1.503208E-04 -4.119375E-05 +1.503208E-04 -9.505130E-06 +1.251027E-04 -4.119375E-05 +1.251027E-04 +4.977355E-03 
 -7.884881E-05 -8.198396E-05 -9.278241E-05 -8.198396E-05 +8.759968E-05 +1.384709E-04 -9.278241E-05 +1.384709E-04 +4.967916E-03 
 -1.174468E-04 -5.380996E-05 -7.955432E-05 -5.380996E-05 +2.324507E-04 +1.560788E-04 -7.955432E-05 +1.560788E-04 +4.958029E-03 
 -2.231653E-04 -1.756195E-04 -3.642406E-05 -1.756195E-04 +2.638988E-04 +1.241391E-04 -3.642406E-05 +1.241391E-04 +4.950679E-03 
 -1.612083E-04 -1.586247E-05 +5.803804E-05 -1.586247E-05 +3.036333E-04 +1.030110E-04 +5.803804E-05 +1.030110E-04 +4.937834E-03 
 -1.920069E-04 +5.514703E-05 +8.068318E-05 +5.514703E-05 +3.004184E-04 +4.569583E-05 +8.068318E-05 +4.569583E-05 +4.978770E-03 
 -2.458510E-04 +8.485268E-06 +4.364412E-05 +8.485268E-06 +2.140412E-04 -3.184389E-05 +4.364412E-05 -3.184389E-05 +5.021020E-03 
 -2.283666E-04 -2.649115E-05 +8.193943E-06 -2.649115E-05 +2.245975E-04 -4.289839E-05 +8.193943E-06 -4.289839E-05 +4.881361E-03 
 +2.821922E-04 +3.144026E-05 -1.902148E-04 +3.144026E-05 +2.049812E-04 +9.748191E-06 -1.902148E-04 +9.748191E-06 +4.698500E-03 
 +2.400624E-04 +1.294871E-04 -1.660728E-04 +1.294871E-04 +1.275923E-04 +2.463606E-05 -1.660728E-04 +2.463606E-05 +4.654971E-03 
 +2.982637E-04 +1.021738E-04 -1.541280E-04 +1.021738E-04 -3.302855E-06 +2.070262E-06 -1.541280E-04 +2.070262E-06 +4.662950E-03 
 +3.046583E-04 +6.832282E-05 -1.603307E-04 +6.832282E-05 -1.569416E-05 -2.121820E-05 -1.603307E-04 -2.121820E-05 +4.701039E-03 
 +3.007922E-04 +4.563411E-05 -1.040173E-04 +4.563411E-05 +6.626172E-05 -4.893500E-05 -1.040173E-04 -4.893500E-05 +4.652662E-03 
 +3.026213E-04 +6.551495E-05 -5.249322E-05 +6.551495E-05 +1.820439E-04 -9.878275E-05 -5.249322E-05 -9.878275E-05 +4.499050E-03 
 +1.748717E-04 -5.433632E-06 -1.183734E-04 -5.433632E-06 +3.505588E-04 -1.071945E-04 -1.183734E-04 -1.071945E-04 +4.547440E-03 
 -2.439331E-04 +2.263737E-05 -7.603809E-05 +2.263737E-05 +3.659692E-04 -6.873586E-05 -7.603809E-05 -6.873586E-05 +4.841537E-03 
 -2.684296E-04 +1.118230E-04 -7.576424E-05 +1.118230E-04 +2.836131E-04 -5.940083E-05 -7.576424E-05 -5.940083E-05 +4.946811E-03 
 -1.933209E-04 +2.242980E-04 -9.931411E-05 +2.242980E-04 +1.273024E-04 -9.294398E-05 -9.931411E-05 -9.294398E-05 +4.896059E-03 
 -9.054379E-05 -1.194791E-04 -1.681098E-04 -1.194791E-04 +5.242529E-05 -1.296131E-05 -1.681098E-04 -1.296131E-05 +4.987602E-03 
 -2.385881E-04 -1.023754E-04 -7.093771E-05 -1.023754E-04 +5.637262E-05 +1.013063E-04 -7.093771E-05 +1.013063E-04 +5.061606E-03 
 +4.300571E-05 +2.287244E-04 -7.311248E-05 +2.287244E-04 +1.037610E-04 +6.742671E-05 -7.311248E-05 +6.742671E-05 +4.929539E-03 
 +1.489539E-04 +3.870320E-04 -1.288842E-04 +3.870320E-04 +1.042685E-04 -1.326902E-05 -1.288842E-04 -1.326902E-05 +4.837121E-03 
 +9.679508E-05 +2.688818E-04 -1.582921E-04 +2.688818E-04 +5.029063E-05 -1.900477E-05 -1.582921E-04 -1.900477E-05 +4.826826E-03 
 +5.192066E-05 +2.694229E-04 -9.358383E-05 +2.694229E-04 +1.534727E-04 +4.377463E-05 -9.358383E-05 +4.377463E-05 +4.863872E-03 
 -1.546740E-04 -2.477914E-05 -1.071700E-05 -2.477914E-05 +3.480177E-04 +7.851298E-05 -1.071700E-05 +7.851298E-05 +4.932850E-03 
 -2.309164E-04 +2.529635E-05 +1.169025E-04 +2.529635E-05 +4.111476E-04 +6.581822E-05 +1.169025E-04 +6.581822E-05 +4.917405E-03 
 -2.842070E-04 +2.650177E-05 +1.184387E-04 +2.650177E-05 +3.177683E-04 +4.310489E-05 +1.184387E-04 +4.310489E-05 +4.946902E-03 
 -3.290126E-04 +6.049015E-05 +8.216536E-05 +6.049015E-05 +2.702537E-04 +8.658682E-06 +8.216536E-05 +8.658682E-06 +5.014936E-03 
 -3.267143E-04 +8.439701E-05 +4.238772E-05 +8.439701E-05 +1.921397E-04 -5.528503E-05 +4.238772E-05 -5.528503E-05 +4.929525E-03 
 +2.149123E-04 +9.378885E-05 -1.419906E-04 +9.378885E-05 +1.081650E-04 -3.842908E-05 -1.419906E-04 -3.842908E-05 +4.765401E-03 
 +3.479852E-04 +6.283334E-05 -1.959713E-04 +6.283334E-05 +4.889738E-05 +4.046750E-05 -1.959713E-04 +4.046750E-05 +4.693849E-03 
 +3.508027E-04 +6.863735E-05 -2.068255E-04 +6.863735E-05 +3.136290E-05 +4.703535E-05 -2.068255E-04 +4.703535E-05 +4.669229E-03 
 +3.276719E-04 +9.454845E-05 -1.803302E-04 +9.454845E-05 +3.657967E-05 +9.882030E-06 -1.803302E-04 +9.882030E-06 +4.676093E-03 
 +2.120243E-04 +7.080409E-05 -1.287497E-04 +7.080409E-05 +1.700353E-04 -9.230992E-05 -1.287497E-04 -9.230992E-05 +4.605757E-03 
 +7.937290E-05 -5.111671E-05 +6.193340E-06 -5.111671E-05 +2.379535E-04 -1.074273E-04 +6.193340E-06 -1.074273E-04 +4.530523E-03 
 +4.225473E-05 -1.855723E-04 -1.653774E-05 -1.855723E-04 +2.052896E-04 -4.138527E-06 -1.653774E-05 -4.138527E-06 +4.713728E-03 
 -5.060295E-05 -2.243241E-04 -6.345310E-05 -2.243241E-04 +1.909692E-04 +5.462002E-05 -6.345310E-05 +5.462002E-05 +4.887495E-03 
 +9.824782E-07 -7.407057E-05 -1.014519E-04 -7.407057E-05 +1.927748E-04 +1.150054E-05 -1.014519E-04 +1.150054E-05 +4.776191E-03 
 +9.108540E-05 +6.032963E-05 -1.261314E-04 +6.032963E-05 +1.383063E-04 -1.612940E-05 -1.261314E-04 -1.612940E-05 +4.718768E-03 
 -1.038635E-04 +3.118086E-05 -1.357197E-04 +3.118086E-05 +1.891516E-04 +3.995848E-05 -1.357197E-04 +3.995848E-05 +4.886712E-03 
 -4.629774E-04 -4.479161E-05 -8.072118E-06 -4.479161E-05 +3.387829E-04 +7.699957E-05 -8.072118E-06 +7.699957E-05 +4.992742E-03 
 -2.095555E-05 +2.617956E-04 -9.331102E-05 +2.617956E-04 +3.071699E-04 +6.096196E-05 -9.331102E-05 +6.096196E-05 +4.819644E-03 
 +2.287107E-04 +3.105268E-04 -1.583003E-04 +3.105268E-04 +1.633385E-04 +5.023681E-05 -1.583003E-04 +5.023681E-05 +4.701225E-03 
 +2.439586E-04 +2.730956E-04 -1.670092E-04 +2.730956E-04 +1.092743E-04 +2.362354E-05 -1.670092E-04 +2.362354E-05 +4.736747E-03 
 +2.833222E-05 +2.125618E-04 -9.952347E-05 +2.125618E-04 +1.474326E-04 +1.782964E-05 -9.952347E-05 +1.782964E-05 +4.869260E-03 
 -1.097653E-04 +5.683215E-05 -3.889893E-05 +5.683215E-05 +3.089191E-04 +2.387398E-05 -3.889893E-05 +2.387398E-05 +4.941966E-03 
 -3.132456E-04 -2.575659E-05 +1.273729E-04 -2.575659E-05 +4.251997E-04 +5.853117E-05 +1.273729E-04 +5.853117E-05 +4.887498E-03 
 -3.515590E-04 +4.267320E-06 +1.153082E-04 +4.267320E-06 +3.547376E-04 +8.172808E-05 +1.153082E-04 +8.172808E-05 +4.947658E-03 
 -3.485752E-04 +3.916333E-05 +7.093540E-05 +3.916333E-05 +2.562339E-04 +5.698992E-05 +7.093540E-05 +5.698992E-05 +5.004129E-03 
 -2.703583E-04 +9.774794E-05 +2.345915E-05 +9.774794E-05 +1.655092E-04 +3.299086E-05 +2.345915E-05 +3.299086E-05 +4.969648E-03 
 -1.031970E-04 +1.116533E-04 -2.859870E-05 +1.116533E-04 +9.363420E-05 +7.635928E-05 -2.859870E-05 +7.635928E-05 +4.857982E-03 
 +4.314968E-04 +5.804168E-05 -2.064768E-04 +5.804168E-05 +1.008262E-05 +1.186153E-04 -2.064768E-04 +1.186153E-04 +4.710091E-03 
 +4.344826E-04 +1.015437E-04 -2.252862E-04 +1.015437E-04 +3.372102E-06 +9.627332E-05 -2.252862E-04 +9.627332E-05 +4.632059E-03 
 +3.424652E-04 +1.275334E-04 -2.269772E-04 +1.275334E-04 +6.425497E-05 +1.629371E-05 -2.269772E-04 +1.629371E-05 +4.647027E-03 
 +5.668070E-05 +7.999461E-05 -2.306555E-05 +7.999461E-05 +1.622579E-04 +1.052212E-04 -2.306555E-05 +1.052212E-04 +4.687972E-03 
 -4.277419E-05 +3.061397E-05 +2.061672E-05 +3.061397E-05 +2.107525E-04 +7.921736E-05 +2.061672E-05 +7.921736E-05 +4.727266E-03 
 -9.965925E-05 -6.959528E-06 +1.281783E-05 -6.959528E-06 +2.095036E-04 +2.164292E-05 +1.281783E-05 +2.164292E-05 +4.866846E-03 
 +1.831752E-05 -1.191913E-04 -7.210304E-05 -1.191913E-04 +1.526665E-04 +4.225155E-06 -7.210304E-05 +4.225155E-06 +4.867905E-03 
 +3.062239E-04 -1.611051E-05 -1.157104E-04 -1.611051E-05 +1.306445E-04 -3.258294E-05 -1.157104E-04 -3.258294E-05 +4.661101E-03 
 +1.902492E-04 -1.304233E-04 -1.012850E-04 -1.304233E-04 +1.073524E-04 -6.178803E-05 -1.012850E-04 -6.178803E-05 +4.697295E-03 
 -2.089894E-04 -3.049478E-04 -9.514381E-05 -3.049478E-04 +1.034343E-04 -4.215722E-05 -9.514381E-05 -4.215722E-05 +4.930599E-03 
 -4.171244E-04 -2.739383E-04 +1.753975E-05 -2.739383E-04 +2.878138E-04 -2.055219E-05 +1.753975E-05 -2.055219E-05 +4.976389E-03 
 -2.208069E-05 +5.467077E-05 -7.441727E-05 +5.467077E-05 +3.024611E-04 +3.333645E-05 -7.441727E-05 +3.333645E-05 +4.801383E-03 
 +2.738817E-04 +1.912157E-04 -1.657193E-04 +1.912157E-04 +1.783438E-04 +9.002547E-05 -1.657193E-04 +9.002547E-05 +4.661008E-03 
 +2.541192E-04 +1.514503E-04 -1.744793E-04 +1.514503E-04 +1.857330E-04 +6.414534E-05 -1.744793E-04 +6.414534E-05 +4.705697E-03 
 +5.796607E-05 +1.393428E-04 -1.332961E-04 +1.393428E-04 +2.384846E-04 -1.956673E-05 -1.332961E-04 -1.956673E-05 +4.865976E-03 
 -9.813712E-07 +4.714581E-05 -1.090156E-04 +4.714581E-05 +2.986016E-04 +3.109002E-06 -1.090156E-04 +3.109002E-06 +4.898213E-03 
 -3.330073E-04 -8.626522E-05 +4.872101E-05 -8.626522E-05 +3.741176E-04 +1.016138E-04 +4.872101E-05 +1.016138E-04 +4.859628E-03 
 -3.704043E-04 -8.787659E-05 +6.720900E-05 -8.787659E-05 +3.694876E-04 +1.008626E-04 +6.720900E-05 +1.008626E-04 +4.951855E-03 
 -3.091115E-04 -2.275374E-05 +3.999398E-05 -2.275374E-05 +2.131473E-04 +7.794902E-05 +3.999398E-05 +7.794902E-05 +5.018081E-03 
 -2.532565E-04 +5.493207E-05 +5.436385E-06 +5.493207E-05 +1.144632E-04 +7.578961E-05 +5.436385E-06 +7.578961E-05 +4.990684E-03 
 -2.161693E-04 +1.422198E-04 +2.019366E-05 +1.422198E-04 +6.169195E-05 +7.895852E-05 +2.019366E-05 +7.895852E-05 +4.920553E-03 
 +3.429802E-04 +1.335903E-04 -1.965956E-04 +1.335903E-04 +8.969718E-06 +6.153856E-05 -1.965956E-04 +6.153856E-05 +4.776807E-03 
 +4.310101E-04 +1.305083E-04 -1.943227E-04 +1.305083E-04 +1.387910E-05 -4.159495E-06 -1.943227E-04 -4.159495E-06 +4.620685E-03 
 +3.421827E-04 +9.459655E-05 -1.738258E-04 +9.459655E-05 +8.074255E-05 +1.923175E-05 -1.738258E-04 +1.923175E-05 +4.629355E-03 
 +6.144608E-05 +9.059521E-05 +4.106362E-05 +9.059521E-05 +1.281126E-04 +1.604099E-04 +4.106362E-05 +1.604099E-04 +4.782631E-03 
 -4.738592E-06 +4.571700E-05 -7.019739E-06 +4.571700E-05 +1.549825E-04 +1.022988E-04 -7.019739E-06 +1.022988E-04 +4.846047E-03 
 -6.889666E-05 +5.154380E-05 -3.640629E-05 +5.154380E-05 +1.634306E-04 +7.092450E-05 -3.640629E-05 +7.092450E-05 +4.890100E-03 
 -4.144565E-05 +3.567935E-05 -7.141939E-05 +3.567935E-05 +2.141713E-04 +4.112634E-05 -7.141939E-05 +4.112634E-05 +4.812187E-03 
 +2.742105E-04 -4.330949E-05 -1.265891E-04 -4.330949E-05 +1.882541E-04 -4.020644E-05 -1.265891E-04 -4.020644E-05 +4.694505E-03 
 -9.130635E-05 -3.130151E-04 -8.051475E-05 -3.130151E-04 +1.383466E-04 -7.825319E-05 -8.051475E-05 -7.825319E-05 +4.840722E-03 
 -3.342555E-04 -4.234816E-04 -8.680964E-05 -4.234816E-04 +9.245399E-05 -4.440150E-05 -8.680964E-05 -4.440150E-05 +4.997029E-03 
 -1.904680E-04 -2.506475E-04 -5.174446E-05 -2.506475E-04 +1.463288E-04 -2.304357E-05 -5.174446E-05 -2.304357E-05 +4.988145E-03 
 -8.272064E-06 -2.563997E-04 -1.111942E-04 -2.563997E-04 +2.375682E-04 +1.224379E-05 -1.111942E-04 +1.224379E-05 +4.881117E-03 
 +3.139234E-04 -5.921708E-05 -1.709873E-04 -5.921708E-05 +1.853437E-04 +8.312573E-05 -1.709873E-04 +8.312573E-05 +4.688839E-03 
 +3.914675E-04 +4.789335E-05 -2.075353E-04 +4.789335E-05 +2.343807E-04 +1.024020E-04 -2.075353E-04 +1.024020E-04 +4.690936E-03 
 +1.617026E-04 +9.419771E-05 -1.623448E-04 +9.419771E-05 +2.799038E-04 +7.289787E-06 -1.623448E-04 +7.289787E-06 +4.842921E-03 
 +5.709175E-05 -2.897173E-05 -1.386362E-04 -2.897173E-05 +2.414264E-04 +7.066991E-05 -1.386362E-04 +7.066991E-05 +4.899853E-03 
 -1.731935E-04 -2.362550E-05 -9.095656E-05 -2.362550E-05 +3.061763E-04 +1.551557E-04 -9.095656E-05 +1.551557E-04 +4.919521E-03 
 -2.800382E-04 -8.403638E-05 -6.685132E-05 -8.403638E-05 +2.951553E-04 +1.198600E-04 -6.685132E-05 +1.198600E-04 +4.964223E-03 
 -3.663796E-04 -6.361507E-06 -3.095851E-05 -6.361507E-06 +2.188958E-04 +9.340421E-05 -3.095851E-05 +9.340421E-05 +5.001606E-03 
 -2.893320E-04 -1.140447E-05 -3.133906E-05 -1.140447E-05 +1.153445E-04 +9.101534E-05 -3.133906E-05 +9.101534E-05 +4.993830E-03 
 -7.704972E-05 +1.045198E-04 -2.392825E-05 +1.045198E-04 -7.112665E-05 +1.148121E-04 -2.392825E-05 +1.148121E-04 +4.978736E-03 
 +1.556056E-04 +2.087797E-04 -1.381301E-04 +2.087797E-04 -7.840679E-05 +1.531836E-04 -1.381301E-04 +1.531836E-04 +4.875648E-03 
 +2.666358E-04 +1.854114E-04 -9.858300E-05 +1.854114E-04 +1.091635E-05 +1.949455E-04 -9.858300E-05 +1.949455E-04 +4.709167E-03 
 +2.433634E-04 +1.001926E-04 -2.078453E-05 +1.001926E-04 +7.174230E-05 +2.139374E-04 -2.078453E-05 +2.139374E-04 +4.696132E-03 
 +1.135839E-04 +1.254468E-04 +5.005636E-05 +1.254468E-04 +1.101243E-04 +1.522279E-04 +5.005636E-05 +1.522279E-04 +4.830592E-03 
 +8.221892E-05 +6.185044E-05 +4.177449E-06 +6.185044E-05 +9.445165E-05 +1.497598E-04 +4.177449E-06 +1.497598E-04 +4.878371E-03 
 -4.446594E-05 +8.271866E-05 -6.690284E-05 +8.271866E-05 +1.149047E-04 +1.117423E-04 -6.690284E-05 +1.117423E-04 +4.924903E-03 
 -7.745414E-05 +9.480636E-06 -7.174189E-05 +9.480636E-06 +2.412762E-04 +6.936724E-05 -7.174189E-05 +6.936724E-05 +4.841823E-03 
 -8.112061E-05 -2.208779E-04 -9.021622E-05 -2.208779E-04 +1.794210E-04 -1.631019E-05 -9.021622E-05 -1.631019E-05 +4.768945E-03 
 -2.308357E-04 -2.829747E-04 -8.589048E-05 -2.829747E-04 +8.520586E-05 -3.862855E-05 -8.589048E-05 -3.862855E-05 +4.905992E-03 
 -1.800294E-04 -3.048087E-04 -6.270293E-05 -3.048087E-04 +1.333287E-04 -2.912924E-05 -6.270293E-05 -2.912924E-05 +4.973804E-03 
 -6.300147E-05 +4.455021E-05 -4.924909E-05 +4.455021E-05 +1.338510E-04 -6.038708E-05 -4.924909E-05 -6.038708E-05 +4.937940E-03 
 -3.728763E-05 +5.143815E-05 -7.156935E-05 +5.143815E-05 +1.843616E-04 -4.033706E-05 -7.156935E-05 -4.033706E-05 +4.898555E-03 
 +1.009505E-04 +6.570960E-05 -8.336493E-05 +6.570960E-05 +2.106811E-04 +2.408959E-05 -8.336493E-05 +2.408959E-05 +4.783740E-03 
 +3.121532E-04 -7.375300E-05 -1.380135E-04 -7.375300E-05 +2.244177E-04 +7.740719E-05 -1.380135E-04 +7.740719E-05 +4.772687E-03 
 +2.251107E-04 -3.923252E-04 -8.373220E-05 -3.923252E-04 +1.141401E-04 +9.327012E-05 -8.373220E-05 +9.327012E-05 +4.916901E-03 
 +1.505004E-04 -4.301417E-04 -7.427619E-05 -4.301417E-04 -7.762496E-05 +1.349632E-04 -7.427619E-05 +1.349632E-04 +5.031431E-03 
 +8.493867E-05 -3.885109E-04 -9.411647E-05 -3.885109E-04 -1.608424E-04 +1.210778E-04 -9.411647E-05 +1.210778E-04 +5.061573E-03 
 +1.172936E-05 -3.892347E-04 -1.210916E-04 -3.892347E-04 -9.379575E-05 +1.217879E-04 -1.210916E-04 +1.217879E-04 +5.046466E-03 
 -2.180812E-04 -4.034424E-05 -8.828008E-05 -4.034424E-05 +1.179638E-04 +1.572453E-04 -8.828008E-05 +1.572453E-04 +5.051036E-03 
 -1.995281E-04 +1.028560E-06 -9.600683E-05 +1.028560E-06 +8.305901E-05 +1.793488E-04 -9.600683E-05 +1.793488E-04 +5.077442E-03 
 -2.455611E-04 +3.587643E-05 -6.655210E-05 +3.587643E-05 -1.591779E-04 +2.028027E-04 -6.655210E-05 +2.028027E-04 +5.054582E-03 
 +2.118458E-05 +1.888379E-04 -3.419895E-05 +1.888379E-04 -1.050218E-04 +1.951540E-04 -3.419895E-05 +1.951540E-04 +4.920365E-03 
 +1.488958E-04 +1.388536E-04 +6.100916E-06 +1.388536E-04 +8.289465E-05 +1.763391E-04 +6.100916E-06 +1.763391E-04 +4.786991E-03 
 +1.263181E-04 +1.264637E-04 +5.591144E-05 +1.264637E-04 +9.106650E-05 +1.520891E-04 +5.591144E-05 +1.520891E-04 +4.782653E-03 
 +7.719324E-05 +9.150016E-05 +9.694949E-05 +9.150016E-05 +7.127796E-05 +1.072471E-04 +9.694949E-05 +1.072471E-04 +4.919073E-03 
 +7.000737E-05 -1.622209E-05 +2.175772E-05 -1.622209E-05 -6.486196E-05 +8.332277E-05 +2.175772E-05 +8.332277E-05 +4.933946E-03 
 -4.718479E-05 +8.587948E-05 -5.657892E-05 +8.587948E-05 +1.260227E-04 +7.706649E-05 -5.657892E-05 +7.706649E-05 +4.934981E-03 
 -1.018019E-04 -1.852844E-06 -6.304875E-05 -1.852844E-06 +2.533383E-04 +1.057604E-04 -6.304875E-05 +1.057604E-04 +4.884001E-03 
 -1.704568E-04 -2.267114E-04 -7.155573E-05 -2.267114E-04 +1.360402E-04 +3.245943E-05 -7.155573E-05 +3.245943E-05 +4.856290E-03 
 -1.229702E-04 -5.431207E-08 -8.499407E-05 -5.431207E-08 +1.724330E-05 -7.712039E-05 -8.499407E-05 -7.712039E-05 +4.938148E-03 
 -8.422000E-05 -1.813280E-05 -3.039687E-05 -1.813280E-05 +8.500840E-05 -8.468143E-05 -3.039687E-05 -8.468143E-05 +4.967906E-03 
 -4.317110E-05 +6.972544E-05 -2.245616E-05 +6.972544E-05 +1.402088E-04 -7.466748E-05 -2.245616E-05 -7.466748E-05 +4.936001E-03 
 -8.241627E-05 +5.680312E-05 -4.860490E-06 +5.680312E-05 +1.635413E-04 -1.804880E-05 -4.860490E-06 -1.804880E-05 +4.942583E-03 
 -1.444180E-04 +1.020780E-04 +2.431025E-05 +1.020780E-04 +2.329585E-04 +2.373443E-05 +2.431025E-05 +2.373443E-05 +4.924178E-03 
 -6.018943E-05 +1.695637E-04 +2.020718E-05 +1.695637E-04 +2.171270E-04 +5.175980E-05 +2.020718E-05 +5.175980E-05 +4.932759E-03 
 +2.340099E-04 -2.856801E-04 +2.438302E-05 -2.856801E-04 +4.331940E-05 +1.013104E-04 +2.438302E-05 +1.013104E-04 +5.040593E-03 
 +2.237529E-04 -2.510487E-04 -8.291386E-06 -2.510487E-04 -1.488396E-04 +1.289146E-04 -8.291386E-06 +1.289146E-04 +5.120696E-03 
 +2.100712E-04 -3.002187E-04 -1.890940E-05 -3.002187E-04 -2.268967E-04 +1.431236E-04 -1.890940E-05 +1.431236E-04 +5.142272E-03 
 +1.855117E-04 -3.558137E-04 -3.106566E-05 -3.558137E-04 -2.248430E-04 +1.540702E-04 -3.106566E-05 +1.540702E-04 +5.153095E-03 
 +9.639275E-05 -3.322935E-04 -2.169520E-05 -3.322935E-04 -3.428586E-04 +1.393669E-04 -2.169520E-05 +1.393669E-04 +5.179326E-03 
 -7.718656E-05 -3.568738E-04 -7.362909E-05 -3.568738E-04 -3.346598E-04 +1.457471E-04 -7.362909E-05 +1.457471E-04 +5.196809E-03 
 -4.135849E-04 -3.116799E-04 -4.563885E-05 -3.116799E-04 -2.412209E-04 +1.167134E-04 -4.563885E-05 +1.167134E-04 +5.151270E-03 
 -8.411230E-06 +2.873767E-04 +6.395089E-06 +2.873767E-04 -2.100467E-04 +7.229208E-05 +6.395089E-06 +7.229208E-05 +5.032321E-03 
 +1.076943E-04 +1.674782E-04 +4.758246E-05 +1.674782E-04 -3.323887E-05 +1.109444E-04 +4.758246E-05 +1.109444E-04 +4.894841E-03 
 +1.516200E-04 +1.857735E-04 +1.148130E-04 +1.857735E-04 +1.452033E-04 +1.378491E-04 +1.148130E-04 +1.378491E-04 +4.871659E-03 
 -8.543738E-05 +8.356807E-05 +1.159542E-04 +8.356807E-05 +1.030396E-04 -3.016169E-05 +1.159542E-04 -3.016169E-05 +5.013469E-03 
 -1.084749E-04 +7.945546E-05 +3.849600E-05 +7.945546E-05 +2.015789E-04 -2.447966E-05 +3.849600E-05 -2.447966E-05 +5.025164E-03 
 -1.000313E-05 +1.518450E-04 -3.259194E-05 +1.518450E-04 +2.507822E-04 +4.649980E-05 -3.259194E-05 +4.649980E-05 +4.940565E-03 
 +1.246683E-04 +4.414332E-05 -1.252640E-04 +4.414332E-05 +1.908349E-04 +5.419856E-05 -1.252640E-04 +5.419856E-05 +4.878484E-03 
 -8.463955E-05 -1.432681E-04 -1.363920E-04 -1.432681E-04 +1.084285E-04 -9.185859E-05 -1.363920E-04 -9.185859E-05 +4.895562E-03 
 -1.374653E-04 -7.924956E-06 -8.219598E-05 -7.924956E-06 +6.321624E-05 -1.672115E-04 -8.219598E-05 -1.672115E-04 +4.970404E-03 
 -1.384587E-04 -6.179090E-05 -3.077409E-05 -6.179090E-05 +5.286915E-05 -1.230475E-04 -3.077409E-05 -1.230475E-04 +5.012953E-03 
 -1.242679E-04 +3.552430E-05 +2.189900E-05 +3.552430E-05 +7.042065E-05 -1.067263E-04 +2.189900E-05 -1.067263E-04 +5.013668E-03 
 -1.517590E-04 +1.157524E-04 +8.396032E-05 +1.157524E-04 +1.203521E-04 -4.804789E-05 +8.396032E-05 -4.804789E-05 +5.022529E-03 
 -2.067129E-04 +1.375223E-04 +1.130407E-04 +1.375223E-04 +2.302528E-04 -3.893799E-06 +1.130407E-04 -3.893799E-06 +5.019800E-03 
 -1.215581E-04 +1.207107E-04 +1.582159E-04 +1.207107E-04 +1.306453E-04 +5.871350E-05 +1.582159E-04 +5.871350E-05 +5.069887E-03 
 +1.700483E-04 -2.385008E-04 +1.120603E-04 -2.385008E-04 -9.720344E-05 +1.483673E-04 +1.120603E-04 +1.483673E-04 +5.128272E-03 
 +2.357470E-04 -1.487968E-04 +4.888065E-05 -1.487968E-04 -1.369339E-04 +1.805276E-04 +4.888065E-05 +1.805276E-04 +5.128621E-03 
 +2.002836E-04 -2.462465E-04 +2.228349E-05 -2.462465E-04 -2.061516E-04 +1.788957E-04 +2.228349E-05 +1.788957E-04 +5.129511E-03 
 +1.799133E-04 -2.094246E-04 -1.788368E-06 -2.094246E-04 -2.783743E-04 +1.803671E-04 -1.788368E-06 +1.803671E-04 +5.130742E-03 
 +1.503900E-04 -2.834786E-04 +3.091178E-05 -2.834786E-04 -2.718690E-04 +1.986253E-04 +3.091178E-05 +1.986253E-04 +5.175857E-03 
 -4.605630E-05 -1.689561E-04 +1.960457E-05 -1.689561E-04 -1.792712E-04 +2.016291E-04 +1.960457E-05 +2.016291E-04 +5.194228E-03 
 -2.438852E-04 -3.115783E-04 +4.591333E-05 -3.115783E-04 -1.531939E-04 +1.498595E-04 +4.591333E-05 +1.498595E-04 +5.138985E-03 
 +8.990662E-05 +4.076781E-04 +8.044740E-05 +4.076781E-04 -2.334511E-04 +7.530063E-05 +8.044740E-05 +7.530063E-05 +5.086798E-03 
 +1.313448E-04 +3.533508E-04 +1.292197E-04 +3.533508E-04 -2.732666E-04 +9.171816E-06 +1.292197E-04 +9.171816E-06 +5.015879E-03 
 +1.764285E-04 +4.888719E-04 +1.860739E-04 +4.888719E-04 -1.067913E-04 -1.002500E-05 +1.860739E-04 -1.002500E-05 +4.970469E-03 
 -2.485245E-04 +1.146471E-05 +1.014513E-04 +1.146471E-05 +7.810668E-05 +3.335797E-05 +1.014513E-04 +3.335797E-05 +5.046994E-03 
 -2.455383E-04 +5.316772E-05 +4.150558E-05 +5.316772E-05 +3.106943E-04 -5.353072E-06 +4.150558E-05 -5.353072E-06 +5.039218E-03 
 +1.239793E-05 -6.950303E-06 -5.222765E-05 -6.950303E-06 +2.218005E-04 -1.761099E-05 -5.222765E-05 -1.761099E-05 +4.955855E-03 
 +3.161778E-04 -1.713640E-04 -1.659541E-04 -1.713640E-04 -3.988638E-05 -3.754448E-05 -1.659541E-04 -3.754448E-05 +4.898624E-03 
 +1.321997E-04 -2.878785E-04 -1.276687E-04 -2.878785E-04 +4.953505E-06 -1.174426E-04 -1.276687E-04 -1.174426E-04 +4.897545E-03 
 -1.856075E-04 -8.858957E-06 +1.810348E-05 -8.858957E-06 +1.049481E-04 -1.860054E-04 +1.810348E-05 -1.860054E-04 +4.962147E-03 
 -2.247098E-04 -1.321280E-05 +4.737285E-05 -1.321280E-05 +4.909118E-05 -1.767070E-04 +4.737285E-05 -1.767070E-04 +5.028728E-03 
 -2.109115E-04 +3.813312E-05 +1.084377E-04 +3.813312E-05 +7.723664E-06 -1.632246E-04 +1.084377E-04 -1.632246E-04 +5.034135E-03 
 -2.298685E-04 +1.313463E-04 +2.030939E-04 +1.313463E-04 +1.247306E-04 -1.201474E-04 +2.030939E-04 -1.201474E-04 +5.045989E-03 
 -1.663599E-04 +1.346020E-04 +2.682428E-04 +1.346020E-04 +1.243745E-04 -4.734494E-05 +2.682428E-04 -4.734494E-05 +5.087211E-03 
 +5.478266E-05 +5.807683E-05 +2.880614E-04 +5.807683E-05 -1.779197E-04 +6.165382E-05 +2.880614E-04 +6.165382E-05 +5.144512E-03 
 +1.386513E-04 -3.089037E-05 +2.232183E-04 -3.089037E-05 -2.320476E-04 +1.292991E-04 +2.232183E-04 +1.292991E-04 +5.152702E-03 
 +1.731314E-04 +2.005428E-06 +1.630313E-04 +2.005428E-06 -1.433020E-04 +1.804303E-04 +1.630313E-04 +1.804303E-04 +5.132649E-03 
 +2.063041E-04 -1.204265E-04 +7.871381E-05 -1.204265E-04 -1.588823E-04 +1.750983E-04 +7.871381E-05 +1.750983E-04 +5.104691E-03 
 +2.698794E-04 +2.161920E-05 +5.203443E-06 +2.161920E-05 -5.241180E-05 +1.408786E-04 +5.203443E-06 +1.408786E-04 +5.048981E-03 
 +1.792189E-05 -1.274035E-04 +4.984252E-05 -1.274035E-04 +4.635046E-05 +1.882811E-04 +4.984252E-05 +1.882811E-04 +5.113075E-03 
 -1.161392E-04 -1.622960E-04 +5.278267E-05 -1.622960E-04 -1.405391E-04 +1.942234E-04 +5.278267E-05 +1.942234E-04 +5.169972E-03 
 -1.156971E-04 -2.566370E-04 +7.840365E-05 -2.566370E-04 -1.489934E-04 +1.443964E-04 +7.840365E-05 +1.443964E-04 +5.074661E-03 
 +1.760188E-04 +2.625084E-04 +9.129515E-05 +2.625084E-04 -1.247712E-04 +1.036409E-04 +9.129515E-05 +1.036409E-04 +5.019152E-03 
 +1.427064E-04 +2.255242E-04 +1.203378E-04 +2.255242E-04 -2.426027E-04 +6.064982E-05 +1.203378E-04 +6.064982E-05 +5.040818E-03 
 +1.031093E-04 +4.149519E-04 +1.465292E-04 +4.149519E-04 -1.316163E-04 +6.060487E-05 +1.465292E-04 +6.060487E-05 +5.037944E-03 
 -2.639251E-04 -2.736956E-05 +4.568474E-05 -2.736956E-05 +1.672532E-04 +1.015750E-04 +4.568474E-05 +1.015750E-04 +5.085291E-03 
 -1.511757E-04 -3.224997E-05 +1.859653E-05 -3.224997E-05 +1.704046E-04 +4.029757E-05 +1.859653E-05 +4.029757E-05 +5.051881E-03 
 +1.430195E-04 -7.200956E-05 -4.593994E-05 -7.200956E-05 -7.859392E-05 +3.662070E-06 -4.593994E-05 +3.662070E-06 +4.984699E-03 
 +2.245740E-04 -9.690075E-05 -8.772558E-05 -9.690075E-05 -9.612944E-05 -3.697235E-06 -8.772558E-05 -3.697235E-06 +4.920377E-03 
 +2.099375E-04 -2.656585E-04 -6.775097E-05 -2.656585E-04 +9.583514E-05 -9.921992E-05 -6.775097E-05 -9.921992E-05 +4.900736E-03 
 -1.952287E-04 -3.767295E-04 +6.022677E-05 -3.767295E-04 +2.077223E-04 -1.645121E-04 +6.022677E-05 -1.645121E-04 +4.969905E-03 
 -3.127372E-04 -4.431059E-04 +9.978602E-05 -4.431059E-04 +1.424832E-04 -1.214087E-04 +9.978602E-05 -1.214087E-04 +5.034143E-03 
 -2.292014E-04 -2.267766E-04 +1.496147E-04 -2.267766E-04 +1.300113E-04 -9.446669E-05 +1.496147E-04 -9.446669E-05 +5.040068E-03 
 -2.357059E-04 -2.016631E-05 +2.041720E-04 -2.016631E-05 +5.201916E-05 -1.077798E-04 +2.041720E-04 -1.077798E-04 +5.057655E-03 
 +1.098274E-04 -9.468407E-05 +2.904314E-04 -9.468407E-05 -2.398659E-04 -3.600887E-05 +2.904314E-04 -3.600887E-05 +5.105212E-03 
 +1.992580E-04 -8.803634E-05 +2.456447E-04 -8.803634E-05 -3.760481E-04 +7.021765E-05 +2.456447E-04 +7.021765E-05 +5.149062E-03 
 +2.059730E-04 -4.990996E-05 +2.267049E-04 -4.990996E-05 -3.097781E-04 +1.093996E-04 +2.267049E-04 +1.093996E-04 +5.154744E-03 
 +1.860566E-04 -1.928952E-06 +1.896407E-04 -1.928952E-06 -2.474760E-04 +1.409659E-04 +1.896407E-04 +1.409659E-04 +5.131475E-03 
 +2.245054E-04 -3.717806E-05 +1.124876E-04 -3.717806E-05 -1.680736E-04 +1.760288E-04 +1.124876E-04 +1.760288E-04 +5.082176E-03 
 +2.533381E-04 -7.513713E-06 +8.211762E-05 -7.513713E-06 -2.130944E-04 +1.987673E-04 +8.211762E-05 +1.987673E-04 +5.044335E-03 
 +8.150365E-05 -2.705170E-05 +8.782259E-05 -2.705170E-05 -2.218777E-04 +1.665074E-04 +8.782259E-05 +1.665074E-04 +5.095123E-03 
 -2.056842E-04 -2.679360E-05 +3.763332E-05 -2.679360E-05 -1.310245E-04 +7.666145E-05 +3.763332E-05 +7.666145E-05 +5.123046E-03 
 -1.299826E-04 +1.019983E-04 +5.594095E-05 +1.019983E-04 -3.095230E-05 +4.140999E-05 +5.594095E-05 +4.140999E-05 +5.027801E-03 
 +1.302384E-05 +2.419296E-04 +5.814842E-05 +2.419296E-04 +4.785722E-05 +5.422938E-05 +5.814842E-05 +5.422938E-05 +4.984457E-03 
 -2.237771E-05 +2.174237E-04 +6.528779E-05 +2.174237E-04 +8.854856E-05 +3.225905E-05 +6.528779E-05 +3.225905E-05 +5.041000E-03 
 -1.050603E-04 +2.590188E-04 +5.626669E-05 +2.590188E-04 +7.399737E-05 +5.488901E-05 +5.626669E-05 +5.488901E-05 +5.085953E-03 
 -2.340543E-04 +2.024350E-04 +6.886034E-05 +2.024350E-04 +1.109371E-04 +1.351842E-04 +6.886034E-05 +1.351842E-04 +5.116304E-03 
 +5.500225E-06 -2.943013E-05 +5.263603E-05 -2.943013E-05 -1.814770E-04 +9.944941E-05 +5.263603E-05 +9.944941E-05 +5.116894E-03 
 +1.538239E-04 -4.220201E-05 +1.254928E-05 -4.220201E-05 -1.505473E-04 +4.056732E-05 +1.254928E-05 +4.056732E-05 +5.013560E-03 
 +1.393742E-04 -1.118629E-04 -2.210692E-05 -1.118629E-04 +4.553760E-05 +1.195559E-05 -2.210692E-05 +1.195559E-05 +4.906831E-03 
 +9.135602E-05 -1.570185E-04 -5.229681E-05 -1.570185E-04 +1.516578E-04 -3.546712E-05 -5.229681E-05 -3.546712E-05 +4.891382E-03 
 -2.907474E-04 -2.571389E-04 +4.463869E-05 -2.571389E-04 +2.195767E-04 -8.213525E-05 +4.463869E-05 -8.213525E-05 +4.976180E-03 
 -3.369807E-04 -3.504907E-04 +1.016151E-04 -3.504907E-04 +1.657773E-04 -9.437611E-05 +1.016151E-04 -9.437611E-05 +5.046267E-03 
 -1.116319E-04 -5.627350E-05 +1.381030E-04 -5.627350E-05 +1.222074E-04 -7.138883E-05 +1.381030E-04 -7.138883E-05 +5.057531E-03 
 -5.860925E-05 +2.065595E-06 +1.148488E-04 +2.065595E-06 -5.118497E-05 -5.242234E-07 +1.148488E-04 -5.242234E-07 +5.063553E-03 
 +2.544372E-04 -9.109662E-05 +1.402057E-04 -9.109662E-05 -3.122855E-04 +2.188028E-05 +1.402057E-04 +2.188028E-05 +5.090086E-03 
 +2.573096E-04 -4.231796E-05 +1.112771E-04 -4.231796E-05 -3.584153E-04 +2.164735E-05 +1.112771E-04 +2.164735E-05 +5.120288E-03 
 +2.451507E-04 -5.647814E-05 +1.210482E-04 -5.647814E-05 -3.247376E-04 +7.697147E-05 +1.210482E-04 +7.697147E-05 +5.125115E-03 
 +2.687971E-04 -8.303463E-05 +9.063080E-05 -8.303463E-05 -3.222410E-04 +1.400602E-04 +9.063080E-05 +1.400602E-04 +5.098589E-03 
 +2.731312E-04 -8.628300E-05 +6.975106E-05 -8.628300E-05 -2.718513E-04 +1.802071E-04 +6.975106E-05 +1.802071E-04 +5.037341E-03 
 +2.986066E-04 -5.356689E-05 +9.265109E-05 -5.356689E-05 -2.674262E-04 +1.338276E-04 +9.265109E-05 +1.338276E-04 +5.015880E-03 
 +1.346117E-04 +7.389074E-06 +3.035925E-05 +7.389074E-06 -2.700806E-04 +4.795237E-05 +3.035925E-05 +4.795237E-05 +5.050029E-03 
 -2.693622E-04 -1.017838E-04 -6.125771E-06 -1.017838E-04 +1.831030E-05 +3.146610E-05 -6.125771E-06 +3.146610E-05 +5.070991E-03 
 -2.445136E-04 -1.163546E-04 +2.858716E-05 -1.163546E-04 +1.797190E-04 +6.032946E-05 +2.858716E-05 +6.032946E-05 +5.038813E-03 
 -1.744476E-04 +8.751005E-05 +6.936786E-05 +8.751005E-05 +7.905674E-05 +8.260836E-05 +6.936786E-05 +8.260836E-05 +5.040770E-03 
 -1.801491E-04 +2.444810E-04 +7.804237E-05 +2.444810E-04 +9.588029E-05 +9.741438E-05 +7.804237E-05 +9.741438E-05 +5.081923E-03 
 -2.215466E-04 +3.870634E-04 +4.672875E-05 +3.870634E-04 +2.065923E-04 +1.132396E-04 +4.672875E-05 +1.132396E-04 +5.093171E-03 
 -1.205639E-04 -1.512359E-04 +5.476467E-05 -1.512359E-04 +3.201418E-06 +1.482376E-04 +5.476467E-05 +1.482376E-04 +5.166891E-03 
 -6.894210E-05 -2.441302E-04 +6.122020E-05 -2.441302E-04 -1.968263E-04 +1.135490E-04 +6.122020E-05 +1.135490E-04 +5.167140E-03 
 +9.397466E-05 -7.803058E-05 -1.170369E-05 -7.803058E-05 -1.064518E-04 +7.523845E-05 -1.170369E-05 +7.523845E-05 +5.019867E-03 
 +1.654007E-04 -1.265106E-04 -8.060229E-06 -1.265106E-04 +4.781391E-05 +1.290367E-05 -8.060229E-06 +1.290367E-05 +4.898803E-03 
 +1.475938E-04 -1.249410E-04 -4.362075E-05 -1.249410E-04 +1.390963E-04 -1.596423E-05 -4.362075E-05 -1.596423E-05 +4.909824E-03 
 -2.186216E-04 -1.707439E-04 +5.834754E-05 -1.707439E-04 +2.295294E-04 -3.911870E-05 +5.834754E-05 -3.911870E-05 +4.993835E-03 
 -2.990770E-04 -2.973063E-04 +1.171149E-04 -2.973063E-04 +1.782960E-04 -7.093939E-05 +1.171149E-04 -7.093939E-05 +5.058025E-03 
 -8.396081E-05 +3.137415E-05 +1.309753E-04 +3.137415E-05 -4.392208E-05 -7.442763E-05 +1.309753E-04 -7.442763E-05 +5.066416E-03 
 +1.534558E-04 -5.125738E-05 +1.454539E-04 -5.125738E-05 -2.121032E-04 -1.518146E-05 +1.454539E-04 -1.518146E-05 +5.091094E-03 
 +2.226580E-04 -6.752229E-05 +9.485774E-05 -6.752229E-05 -2.566126E-04 +4.383077E-07 +9.485774E-05 +4.383077E-07 +5.166332E-03 
 +2.276868E-04 -1.698578E-06 +3.831319E-05 -1.698578E-06 -2.464148E-04 +2.266797E-05 +3.831319E-05 +2.266797E-05 +5.147495E-03 
 +2.334793E-04 -5.521530E-05 +3.274335E-05 -5.521530E-05 -2.605844E-04 +7.668292E-05 +3.274335E-05 +7.668292E-05 +5.082795E-03 
 +2.817572E-04 -8.362659E-05 +2.641062E-05 -8.362659E-05 -2.852507E-04 +1.008199E-04 +2.641062E-05 +1.008199E-04 +5.055962E-03 
 +3.831572E-04 -5.129996E-05 +1.336837E-05 -5.129996E-05 -3.114455E-04 +9.163449E-05 +1.336837E-05 +9.163449E-05 +5.010541E-03 
 +4.207468E-04 -7.876280E-05 +2.260734E-05 -7.876280E-05 -2.303732E-04 +3.153671E-05 +2.260734E-05 +3.153671E-05 +5.001740E-03 
 -1.409144E-04 -3.116236E-05 -8.748703E-05 -3.116236E-05 -3.792748E-05 -3.027085E-05 -8.748703E-05 -3.027085E-05 +5.072422E-03 
 -3.147170E-04 -7.065737E-05 -3.484706E-05 -7.065737E-05 +8.964805E-05 -1.310698E-05 -3.484706E-05 -1.310698E-05 +5.114405E-03 
 -3.208535E-04 -1.517547E-04 +9.809295E-06 -1.517547E-04 +2.165105E-04 +3.320313E-05 +9.809295E-06 +3.320313E-05 +5.094985E-03 
 -3.023556E-04 -7.147304E-05 +4.347848E-05 -7.147304E-05 +1.954595E-04 +8.990223E-05 +4.347848E-05 +8.990223E-05 +5.100830E-03 
 -2.264755E-04 +1.619839E-04 +5.448341E-05 +1.619839E-04 +1.055237E-04 +1.278192E-04 +5.448341E-05 +1.278192E-04 +5.112772E-03 
 -2.333843E-04 +2.839010E-04 +3.028530E-05 +2.839010E-04 +1.725083E-04 +1.623646E-04 +3.028530E-05 +1.623646E-04 +5.106837E-03 
 -9.585408E-05 -2.476369E-04 -6.550316E-05 -2.476369E-04 -3.461658E-05 +1.727718E-04 -6.550316E-05 +1.727718E-04 +5.176534E-03 
 -6.268743E-05 -3.055304E-04 -5.234769E-05 -3.055304E-04 -2.789876E-05 +8.273181E-05 -5.234769E-05 +8.273181E-05 +5.122811E-03 
 +2.148806E-04 +2.331361E-05 -1.264950E-04 +2.331361E-05 -1.475041E-04 +1.990933E-05 -1.264950E-04 +1.990933E-05 +5.013083E-03 
 +2.305050E-04 +7.844544E-05 -9.928199E-05 +7.844544E-05 -1.086194E-04 -3.833878E-05 -9.928199E-05 -3.833878E-05 +4.955884E-03 
 +7.712616E-05 -1.207672E-04 -2.741331E-05 -1.207672E-04 -4.458026E-05 -4.731447E-05 -2.741331E-05 -4.731447E-05 +5.017596E-03 
 -6.173612E-05 -2.316928E-04 +3.303809E-05 -2.316928E-04 -1.408122E-04 -1.917499E-05 +3.303809E-05 -1.917499E-05 +5.079025E-03 
 -1.005308E-04 -3.427462E-04 +7.905755E-05 -3.427462E-04 -9.268557E-05 +1.162746E-05 +7.905755E-05 +1.162746E-05 +5.120853E-03 
 -7.879572E-05 -3.066489E-05 +1.151988E-04 -3.066489E-05 -9.609227E-05 +7.441361E-06 +1.151988E-04 +7.441361E-06 +5.127884E-03 
 +2.054995E-04 -8.776371E-05 +2.271556E-04 -8.776371E-05 -2.285444E-04 -2.692222E-05 +2.271556E-04 -2.692222E-05 +5.138893E-03 
 +2.017292E-04 -7.936530E-05 +1.415440E-04 -7.936530E-05 -2.165179E-04 -5.104601E-05 +1.415440E-04 -5.104601E-05 +5.222479E-03 
 +1.794807E-04 -3.686550E-05 +9.017864E-06 -3.686550E-05 -1.812854E-04 +1.277999E-05 +9.017864E-06 +1.277999E-05 +5.159226E-03 
 +2.270091E-04 -8.056215E-05 +1.818725E-06 -8.056215E-05 -2.276707E-04 +7.117483E-05 +1.818725E-06 +7.117483E-05 +5.060845E-03 
 +2.849530E-04 -1.252150E-04 +5.220891E-06 -1.252150E-04 -2.992545E-04 +6.244032E-05 +5.220891E-06 +6.244032E-05 +5.045669E-03 
 +4.017835E-04 -1.340921E-04 -2.263837E-05 -1.340921E-04 -3.574866E-04 +9.335776E-06 -2.263837E-05 +9.335776E-06 +5.032046E-03 
 +4.242338E-04 -9.798266E-05 -2.688386E-05 -9.798266E-05 -2.774829E-04 -4.882782E-05 -2.688386E-05 -4.882782E-05 +5.071405E-03 
 -3.360117E-04 +1.736610E-05 -1.393365E-04 +1.736610E-05 -4.927929E-05 -5.663605E-05 -1.393365E-04 -5.663605E-05 +5.169201E-03 
 -3.626259E-04 -7.377303E-05 -2.694531E-05 -7.377303E-05 +1.229031E-04 -4.482906E-06 -2.694531E-05 -4.482906E-06 +5.185858E-03 
 -3.654751E-04 -1.560811E-04 +1.489826E-05 -1.560811E-04 +2.171944E-04 +4.632199E-05 +1.489826E-05 +4.632199E-05 +5.154359E-03 
 -4.331150E-04 -1.645181E-04 +3.251823E-05 -1.645181E-04 +2.513125E-04 +7.542812E-05 +3.251823E-05 +7.542812E-05 +5.158699E-03 
 -3.429670E-04 +1.182725E-04 +6.396458E-05 +1.182725E-04 +1.770376E-04 +1.364320E-04 +6.396458E-05 +1.364320E-04 +5.149692E-03 
 -2.074049E-04 +2.419092E-04 -3.008566E-05 +2.419092E-04 +1.406386E-05 +2.198185E-04 -3.008566E-05 +2.198185E-04 +5.147893E-03 
 +8.751961E-05 -1.386639E-05 -1.304634E-04 -1.386639E-05 -1.912444E-04 +1.633715E-04 -1.304634E-04 +1.633715E-04 +5.111556E-03 
 +1.193227E-04 +7.462319E-05 -1.356944E-04 +7.462319E-05 -1.364883E-04 +2.599662E-05 -1.356944E-04 +2.599662E-05 +5.053912E-03 
 +2.021024E-04 +2.343884E-04 -1.743854E-04 +2.343884E-04 -1.456672E-04 -1.873695E-05 -1.743854E-04 -1.873695E-05 +5.028325E-03 
 +1.160939E-04 +2.281506E-04 -1.711724E-04 +2.281506E-04 -1.929120E-04 +1.483899E-05 -1.711724E-04 +1.483899E-05 +5.068771E-03 
 -9.723276E-05 -7.427891E-05 -6.439024E-05 -7.427891E-05 -1.544867E-04 -1.467010E-05 -6.439024E-05 -1.467010E-05 +5.165337E-03 
 -4.101453E-05 -2.557485E-04 +3.307279E-05 -2.557485E-04 -1.504670E-04 -3.569722E-05 +3.307279E-05 -3.569722E-05 +5.162271E-03 
 +3.421840E-05 -4.055832E-04 +2.584401E-05 -4.055832E-04 -1.713904E-04 +2.796053E-05 +2.584401E-05 +2.796053E-05 +5.148811E-03 
 +7.467521E-05 -2.758207E-04 +8.453756E-05 -2.758207E-04 -2.470699E-04 +2.025984E-05 +8.453756E-05 +2.025984E-05 +5.146546E-03 
 +2.168512E-04 -1.426403E-04 +1.972084E-04 -1.426403E-04 -2.771916E-04 -4.302594E-05 +1.972084E-04 -4.302594E-05 +5.121227E-03 
 +1.971713E-04 -5.868781E-05 +1.512561E-04 -5.868781E-05 -1.711780E-04 -3.979327E-05 +1.512561E-04 -3.979327E-05 +5.175228E-03 
 +1.903210E-04 -6.464782E-05 +4.074476E-05 -6.464782E-05 -1.604468E-04 +4.429206E-05 +4.074476E-05 +4.429206E-05 +5.131157E-03 
 +2.357449E-04 -1.122001E-04 +1.404984E-05 -1.122001E-04 -2.434500E-04 +7.270068E-05 +1.404984E-05 +7.270068E-05 +5.047080E-03 
 +2.669377E-04 -1.197245E-04 +3.755574E-06 -1.197245E-04 -2.801086E-04 +3.884789E-05 +3.755574E-06 +3.884789E-05 +5.040500E-03 
 +3.118998E-04 -1.857852E-04 -5.208607E-05 -1.857852E-04 -3.613789E-04 -4.296454E-05 -5.208607E-05 -4.296454E-05 +5.067306E-03 
 +2.240843E-04 -7.134183E-05 -1.082933E-04 -7.134183E-05 -2.974668E-04 -1.121067E-04 -1.082933E-04 -1.121067E-04 +5.135721E-03 
 -3.702847E-04 -1.078103E-05 -1.590484E-04 -1.078103E-05 +2.335060E-05 -6.911328E-05 -1.590484E-04 -6.911328E-05 +5.204261E-03 
 -3.615733E-04 -1.469495E-04 -3.911187E-05 -1.469495E-04 +1.866104E-04 +1.105122E-05 -3.911187E-05 +1.105122E-05 +5.195940E-03 
 -3.765385E-04 -1.356864E-04 -9.548739E-06 -1.356864E-04 +2.054354E-04 +3.824183E-05 -9.548739E-06 +3.824183E-05 +5.184191E-03 
 -5.064167E-04 -1.541417E-04 -2.030642E-05 -1.541417E-04 +3.062432E-04 +4.823255E-05 -2.030642E-05 +4.823255E-05 +5.215233E-03 
 -5.193096E-04 -4.510920E-05 -7.543518E-06 -4.510920E-05 +1.578943E-04 +1.258125E-04 -7.543518E-06 +1.258125E-04 +5.209077E-03 
 -4.641391E-06 +1.741721E-04 -8.832306E-05 +1.741721E-04 -1.386886E-04 +2.318331E-04 -8.832306E-05 +2.318331E-04 +5.163598E-03 
 +3.196533E-04 +2.687242E-05 -6.933749E-05 +2.687242E-05 -2.397752E-04 -3.326779E-05 -6.933749E-05 -3.326779E-05 +5.174483E-03 
 +2.783447E-04 +8.104406E-05 -8.779744E-05 +8.104406E-05 -3.253738E-04 -1.025789E-05 -8.779744E-05 -1.025789E-05 +5.081560E-03 
 +1.835134E-04 +2.746218E-04 -8.453165E-05 +2.746218E-04 -2.526254E-04 +6.147692E-05 -8.453165E-05 +6.147692E-05 +5.047893E-03 
 +5.381221E-05 +4.091246E-04 -7.981763E-05 +4.091246E-04 -2.490671E-04 +1.169572E-04 -7.981763E-05 +1.169572E-04 +5.110338E-03 
 -5.912801E-05 +2.941366E-04 -1.015545E-04 +2.941366E-04 -2.603193E-04 +8.302132E-05 -1.015545E-04 +8.302132E-05 +5.281867E-03 
 +2.604825E-05 +1.688839E-04 -4.117844E-05 +1.688839E-04 -2.988151E-04 +6.585043E-05 -4.117844E-05 +6.585043E-05 +5.340490E-03 
 +8.389062E-05 +5.294114E-05 -5.247395E-05 +5.294114E-05 -3.588334E-04 +6.068331E-05 -5.247395E-05 +6.068331E-05 +5.247605E-03 
 +1.136482E-04 +1.678785E-04 +4.212072E-05 +1.678785E-04 -2.441594E-04 +5.069371E-05 +4.212072E-05 +5.069371E-05 +5.151078E-03 
 +1.934186E-04 +3.034039E-04 +7.349916E-05 +3.034039E-04 -1.555581E-04 +6.025601E-05 +7.349916E-05 +6.025601E-05 +5.025571E-03 
 +2.168137E-04 +2.223324E-04 +6.564126E-05 +2.223324E-04 -2.388083E-04 +9.913509E-05 +6.564126E-05 +9.913509E-05 +4.933308E-03 
 +2.175653E-04 -7.400497E-05 +4.086396E-05 -7.400497E-05 -2.872411E-04 +1.640993E-04 +4.086396E-05 +1.640993E-04 +4.970671E-03 
 +1.723852E-04 -1.811617E-04 +4.316472E-05 -1.811617E-04 -2.625889E-04 +1.533230E-04 +4.316472E-05 +1.533230E-04 +5.046604E-03 
 +2.203538E-04 -1.329308E-04 -5.840715E-06 -1.329308E-04 -2.987951E-04 +9.421030E-05 -5.840715E-06 +9.421030E-05 +5.050275E-03 
 +1.884240E-04 -1.296268E-04 -4.785687E-05 -1.296268E-04 -2.347003E-04 +7.053374E-05 -4.785687E-05 +7.053374E-05 +5.072161E-03 
 -3.558057E-04 +2.208960E-04 -1.178626E-04 +2.208960E-04 +1.493693E-05 +1.464404E-05 -1.178626E-04 +1.464404E-05 +5.156451E-03 
 -3.630070E-04 +1.766893E-04 -9.084094E-05 +1.766893E-04 +4.315614E-05 -8.756975E-05 -9.084094E-05 -8.756975E-05 +5.199588E-03 
 -3.740606E-04 +7.679854E-05 -4.950182E-05 +7.679854E-05 +6.325979E-05 -1.049195E-04 -4.950182E-05 -1.049195E-04 +5.206459E-03 
 -5.138721E-04 -1.019784E-04 +4.955736E-05 -1.019784E-04 +1.826661E-04 -1.623895E-05 +4.955736E-05 -1.623895E-05 +5.277155E-03 
 -3.813179E-04 -7.603586E-05 +6.210467E-05 -7.603586E-05 +1.137173E-04 +1.359634E-05 +6.210467E-05 +1.359634E-05 +5.316554E-03 
 -2.543962E-04 +2.503667E-04 +8.933074E-05 +2.503667E-04 -4.333413E-05 -1.324274E-05 +8.933074E-05 -1.324274E-05 +5.294958E-03 
 +3.357921E-05 +4.675549E-04 +2.659042E-05 +4.675549E-04 -1.151957E-04 -2.332576E-05 +2.659042E-05 -2.332576E-05 +5.260853E-03 
 +2.083245E-04 -1.496664E-04 -6.833582E-05 -1.496664E-04 -2.425346E-04 -1.392790E-04 -6.833582E-05 -1.392790E-04 +5.149449E-03 
 +2.713871E-04 -7.373517E-05 -6.126569E-05 -7.373517E-05 -3.977033E-04 -9.126791E-05 -6.126569E-05 -9.126791E-05 +5.045153E-03 
 +2.364290E-04 +5.357258E-05 -6.110382E-05 +5.357258E-05 -4.493032E-04 -9.703784E-06 -6.110382E-05 -9.703784E-06 +5.047631E-03 
 +2.076914E-04 +1.508324E-04 +2.771905E-05 +1.508324E-04 -4.731140E-04 +6.649597E-05 +2.771905E-05 +6.649597E-05 +5.180927E-03 
 +8.985474E-05 +1.206376E-04 -6.293907E-05 +1.206376E-04 -5.308116E-04 +1.232535E-04 -6.293907E-05 +1.232535E-04 +5.379952E-03 
 +8.459998E-05 +5.823464E-05 -8.010750E-05 +5.823464E-05 -4.509369E-04 +1.005659E-04 -8.010750E-05 +1.005659E-04 +5.381217E-03 
 +1.586541E-04 -6.979446E-05 -1.154458E-04 -6.979446E-05 -2.561780E-04 +9.760299E-05 -1.154458E-04 +9.760299E-05 +5.186156E-03 
 +1.172332E-04 +1.060515E-04 -2.359015E-06 +1.060515E-04 -1.022207E-04 +1.354156E-04 -2.359015E-06 +1.354156E-04 +5.011213E-03 
 +1.165751E-04 +2.695760E-04 +1.766485E-05 +2.695760E-04 -5.857462E-05 +1.056085E-04 +1.766485E-05 +1.056085E-04 +4.941609E-03 
 +3.859844E-05 +3.240798E-04 +5.076154E-05 +3.240798E-04 -1.223776E-04 +1.362974E-04 +5.076154E-05 +1.362974E-04 +4.962274E-03 
 +1.044149E-04 +6.156189E-05 +8.108660E-05 +6.156189E-05 -2.194784E-04 +2.112986E-04 +8.108660E-05 +2.112986E-04 +5.043840E-03 
 +1.426999E-04 -7.525341E-05 +8.383018E-05 -7.525341E-05 -2.606209E-04 +2.080565E-04 +8.383018E-05 +2.080565E-04 +5.065184E-03 
 +2.076182E-04 -1.914308E-04 +8.543482E-05 -1.914308E-04 -2.965511E-04 +1.706523E-04 +8.543482E-05 +1.706523E-04 +4.997434E-03 
 +8.995140E-05 -5.871379E-05 +4.324964E-05 -5.871379E-05 -7.174063E-05 +1.137698E-04 +4.324964E-05 +1.137698E-04 +4.991911E-03 
 -4.172283E-04 +2.177962E-04 -5.579552E-05 +2.177962E-04 +1.574584E-04 +4.377251E-05 -5.579552E-05 +4.377251E-05 +5.082043E-03 
 -4.620148E-04 +1.720003E-04 -3.724458E-05 +1.720003E-04 +8.540955E-05 -2.138293E-05 -3.724458E-05 -2.138293E-05 +5.157684E-03 
 -4.498698E-04 +1.467007E-04 +3.958810E-05 +1.467007E-04 +9.357310E-05 -3.681222E-05 +3.958810E-05 -3.681222E-05 +5.195538E-03 
 -4.207330E-04 +5.487224E-05 +9.994067E-05 +5.487224E-05 +2.518917E-05 -2.979661E-05 +9.994067E-05 -2.979661E-05 +5.289564E-03 
 -7.859047E-05 +1.724791E-04 +9.048653E-05 +1.724791E-04 -1.727310E-04 -7.066485E-05 +9.048653E-05 -7.066485E-05 +5.344870E-03 
 -8.518862E-05 +3.077257E-04 +8.999899E-05 +3.077257E-04 -1.733302E-04 -9.249401E-05 +8.999899E-05 -9.249401E-05 +5.332779E-03 
 -1.604750E-04 +3.703131E-04 +2.142328E-06 +3.703131E-04 -1.169566E-04 -1.016950E-04 +2.142328E-06 -1.016950E-04 +5.278566E-03 
 +9.563988E-05 -1.338685E-04 -9.036586E-05 -1.338685E-04 -1.000138E-04 -4.005632E-05 -9.036586E-05 -4.005632E-05 +5.110177E-03 
 +1.716055E-04 +8.885531E-06 +7.857973E-06 +8.885531E-06 -1.618735E-04 -4.200682E-05 +7.857973E-06 -4.200682E-05 +5.022728E-03 
 +1.865483E-04 +8.818528E-05 -3.943387E-05 +8.818528E-05 -3.507268E-04 +2.199861E-05 -3.943387E-05 +2.199861E-05 +5.010664E-03 
 +3.222923E-04 +1.221032E-04 +7.256123E-05 +1.221032E-04 -6.179331E-04 +1.813724E-05 +7.256123E-05 +1.813724E-05 +5.158085E-03 
 +2.415588E-04 +1.323405E-04 +1.329803E-05 +1.323405E-04 -5.746256E-04 +2.437511E-05 +1.329803E-05 +2.437511E-05 +5.353056E-03 
 +1.800491E-04 +8.133761E-05 -1.082370E-04 +8.133761E-05 -3.833593E-04 +4.144498E-05 -1.082370E-04 +4.144498E-05 +5.339530E-03 
 +1.629577E-04 -2.162698E-06 -1.397070E-04 -2.162698E-06 -1.929811E-04 +4.467674E-05 -1.397070E-04 +4.467674E-05 +5.156823E-03 
 +1.699653E-04 +1.075713E-04 -3.528956E-05 +1.075713E-04 +1.382916E-05 +9.644529E-05 -3.528956E-05 +9.644529E-05 +4.941533E-03 
 +2.377166E-04 +1.391716E-04 -1.620301E-05 +1.391716E-04 +2.321720E-05 +1.100162E-04 -1.620301E-05 +1.100162E-04 +4.816751E-03 
 +1.431313E-04 +2.761350E-04 +4.838479E-05 +2.761350E-04 -8.024116E-05 +1.388376E-04 +4.838479E-05 +1.388376E-04 +4.878459E-03 
 -2.995282E-05 +1.195076E-04 +5.387583E-05 +1.195076E-04 -1.786335E-04 +1.734750E-04 +5.387583E-05 +1.734750E-04 +5.031183E-03 
 -9.254809E-05 +3.853423E-05 +7.861349E-05 +3.853423E-05 -1.650009E-04 +1.931241E-04 +7.861349E-05 +1.931241E-04 +5.067113E-03 
 -1.748646E-04 -3.130521E-04 +7.467974E-05 -3.130521E-04 -4.603428E-05 +2.352341E-04 +7.467974E-05 +2.352341E-04 +4.996626E-03 
 -1.028803E-04 -1.365304E-04 +1.039856E-04 -1.365304E-04 +3.742093E-05 +2.690308E-04 +1.039856E-04 +2.690308E-04 +4.940220E-03 
 -1.490945E-04 -1.547497E-05 +6.576670E-05 -1.547497E-05 +4.295728E-05 +1.773006E-04 +6.576670E-05 +1.773006E-04 +4.990575E-03 
 -4.439278E-04 +1.311475E-04 -3.517077E-05 +1.311475E-04 +1.134027E-04 +2.227894E-05 -3.517077E-05 +2.227894E-05 +5.126926E-03 
 -4.171103E-04 +1.799382E-04 +1.687247E-05 +1.799382E-04 +3.815634E-05 -2.483589E-05 +1.687247E-05 -2.483589E-05 +5.194833E-03 
 -5.216210E-05 +6.605608E-05 -1.841493E-05 +6.605608E-05 -1.657684E-04 -3.301661E-05 -1.841493E-05 -3.301661E-05 +5.226849E-03 
 -6.000960E-05 +1.065100E-04 -7.550362E-06 +1.065100E-04 -1.389416E-04 -6.710596E-05 -7.550362E-06 -6.710596E-05 +5.284079E-03 
 -2.147698E-04 +2.877432E-04 +2.895862E-05 +2.877432E-04 -8.841184E-05 -1.112045E-04 +2.895862E-05 -1.112045E-04 +5.292697E-03 
 -1.740489E-04 +3.809153E-04 -1.073510E-05 +3.809153E-04 -7.406973E-05 -6.684367E-05 -1.073510E-05 -6.684367E-05 +5.231881E-03 
 +1.230906E-04 -1.042128E-04 -1.027159E-04 -1.042128E-04 -6.075055E-05 -4.651499E-05 -1.027159E-04 -4.651499E-05 +5.070386E-03 
 +8.570625E-05 +6.094786E-05 +9.023818E-06 +6.094786E-05 +2.064388E-05 -3.442502E-06 +9.023818E-06 -3.442502E-06 +4.979174E-03 
 +1.302453E-04 +3.396601E-05 +1.763945E-05 +3.396601E-05 -3.909819E-05 +4.034253E-05 +1.763945E-05 +4.034253E-05 +4.964557E-03 
 +2.069750E-04 +4.427495E-05 +3.736773E-05 +4.427495E-05 -2.236096E-04 +3.474609E-05 +3.736773E-05 +3.474609E-05 +5.093881E-03 
 +3.451994E-04 +1.064669E-04 +1.785781E-05 +1.064669E-04 -4.701359E-04 -2.356826E-05 +1.785781E-05 -2.356826E-05 +5.276451E-03 
 +2.783662E-04 +1.244234E-04 -1.394890E-04 +1.244234E-04 -4.814444E-04 -3.058448E-05 -1.394890E-04 -3.058448E-05 +5.314512E-03 
 +1.779517E-04 +1.022001E-04 -1.621945E-04 +1.022001E-04 -2.016783E-04 +1.405007E-05 -1.621945E-04 +1.405007E-05 +5.166874E-03 
 +2.079159E-04 +1.455518E-04 -4.639604E-05 +1.455518E-04 +2.341510E-05 +5.981154E-05 -4.639604E-05 +5.981154E-05 +4.935377E-03 
 +3.027919E-04 +5.083532E-05 +8.091889E-06 +5.083532E-05 +4.699101E-05 +1.192505E-04 +8.091889E-06 +1.192505E-04 +4.758191E-03 
 +3.178242E-04 +1.763849E-04 +1.417074E-05 +1.763849E-04 +8.605872E-05 +1.649152E-04 +1.417074E-05 +1.649152E-04 +4.792609E-03 
 -2.996080E-04 -1.591840E-04 -5.816380E-05 -1.591840E-04 +1.953205E-04 +1.437630E-04 -5.816380E-05 +1.437630E-04 +4.992193E-03 
 -3.815601E-04 -2.404784E-04 +2.489772E-07 -2.404784E-04 +2.435597E-04 +1.564157E-04 +2.489772E-07 +1.564157E-04 +5.078645E-03 
 -4.671021E-04 -3.894408E-04 -8.848179E-06 -3.894408E-04 +2.737378E-04 +2.506500E-04 -8.848179E-06 +2.506500E-04 +5.027079E-03 
 -2.081168E-04 -1.166057E-04 +8.323971E-05 -1.166057E-04 +1.144422E-04 +3.254709E-04 +8.323971E-05 +3.254709E-04 +4.950253E-03 
 -1.970174E-04 -1.073970E-04 +7.872936E-05 -1.073970E-04 -9.726545E-05 +2.215352E-04 +7.872936E-05 +2.215352E-04 +4.963797E-03 
 -1.568897E-04 -1.019434E-04 -3.767805E-05 -1.019434E-04 -2.941090E-04 +5.271411E-05 -3.767805E-05 +5.271411E-05 +5.119516E-03 
 -1.417086E-04 +1.408428E-05 -8.826090E-05 +1.408428E-05 -3.590186E-04 +7.415645E-06 -8.826090E-05 +7.415645E-06 +5.196940E-03 
 +2.221065E-05 -4.366181E-05 -1.416181E-04 -4.366181E-05 -1.991263E-04 -1.417260E-05 -1.416181E-04 -1.417260E-05 +5.180382E-03 
 -1.373916E-05 +5.703172E-06 -1.156423E-04 +5.703172E-06 -1.215866E-04 -5.208595E-05 -1.156423E-04 -5.208595E-05 +5.215275E-03 
 -1.966408E-04 +2.557568E-04 +6.147299E-06 +2.557568E-04 -1.045917E-04 -7.745054E-05 +6.147299E-06 -7.745054E-05 +5.229962E-03 
 -1.357505E-04 +3.693466E-04 +2.506679E-05 +3.693466E-04 -1.156054E-04 -9.293724E-05 +2.506679E-05 -9.293724E-05 +5.174632E-03 
 +7.044427E-05 +4.775401E-05 -9.948346E-05 +4.775401E-05 -1.883603E-04 -7.867816E-05 -9.948346E-05 -7.867816E-05 +5.046526E-03 
 +8.014022E-05 +8.388735E-05 -3.484147E-06 +8.388735E-05 +7.604667E-06 -2.228338E-05 -3.484147E-06 -2.228338E-05 +4.979315E-03 
 +1.286194E-04 +1.432095E-05 +2.457840E-05 +1.432095E-05 -3.328316E-05 +3.987189E-06 +2.457840E-05 +3.987189E-06 +4.952909E-03 
 +4.809639E-05 +2.148409E-05 +1.012093E-06 +2.148409E-05 -2.436839E-04 -4.355862E-05 +1.012093E-06 -4.355862E-05 +5.074765E-03 
 +2.063087E-04 +8.223528E-08 -2.284190E-05 +8.223528E-08 -4.825858E-04 -1.239746E-04 -2.284190E-05 -1.239746E-04 +5.192546E-03 
 +2.782074E-04 +1.259093E-04 -1.313726E-04 +1.259093E-04 -4.224810E-04 -1.395023E-04 -1.313726E-04 -1.395023E-04 +5.208055E-03 
 +3.484522E-04 +8.833301E-05 -1.667699E-04 +8.833301E-05 -2.141860E-04 -2.705889E-05 -1.667699E-04 -2.705889E-05 +5.101994E-03 
 +3.430755E-04 +2.050159E-04 -6.145956E-05 +2.050159E-04 -1.169460E-04 +3.682015E-05 -6.145956E-05 +3.682015E-05 +4.935293E-03 
 +2.928319E-04 +5.977421E-05 +2.232752E-05 +5.977421E-05 -3.417694E-05 +6.790474E-05 +2.232752E-05 +6.790474E-05 +4.863092E-03 
 +1.250854E-04 +9.532839E-05 -2.256924E-05 +9.532839E-05 -5.934904E-06 +8.664984E-05 -2.256924E-05 +8.664984E-05 +4.900994E-03 
 -5.114519E-04 -1.994851E-04 -1.222597E-04 -1.994851E-04 +1.497316E-04 +8.084060E-05 -1.222597E-04 +8.084060E-05 +5.038016E-03 
 -5.027377E-04 -2.100993E-04 -6.338470E-05 -2.100993E-04 +2.639218E-04 +1.206990E-04 -6.338470E-05 +1.206990E-04 +5.105050E-03 
 -4.694779E-04 -3.112656E-04 -4.204279E-05 -3.112656E-04 +2.673010E-04 +1.734674E-04 -4.204279E-05 +1.734674E-04 +5.068184E-03 
 -3.842233E-04 -2.729931E-04 +2.481164E-05 -2.729931E-04 +2.329782E-04 +2.112715E-04 +2.481164E-05 +2.112715E-04 +5.043699E-03 
 -3.562890E-04 -2.166655E-04 +6.519761E-05 -2.166655E-04 -6.142446E-05 +1.556661E-04 +6.519761E-05 +1.556661E-04 +5.045253E-03 
 +3.953070E-05 -1.019176E-04 -2.854967E-05 -1.019176E-04 -2.596428E-04 +8.074636E-05 -2.854967E-05 +8.074636E-05 +5.112154E-03 
 +1.165504E-04 -1.100123E-05 -1.604185E-04 -1.100123E-05 -2.460018E-04 +4.358139E-05 -1.604185E-04 +4.358139E-05 +5.170216E-03 
 +8.433738E-05 -6.909952E-05 -1.966312E-04 -6.909952E-05 -2.204675E-04 -1.281845E-05 -1.966312E-04 -1.281845E-05 +5.157569E-03 
 +1.096442E-04 -6.493837E-06 -1.762559E-04 -6.493837E-06 -1.406825E-04 -1.385749E-05 -1.762559E-04 -1.385749E-05 +5.150098E-03 
 -3.821338E-05 +2.225641E-04 -4.291720E-05 +2.225641E-04 -1.057439E-04 -9.218593E-06 -4.291720E-05 -9.218593E-06 +5.127882E-03 
 -8.839377E-06 +3.655323E-04 -4.690255E-05 +3.655323E-04 -2.295333E-04 -6.687305E-05 -4.690255E-05 -6.687305E-05 +5.076239E-03 
 +6.623237E-05 +4.407581E-05 -9.731225E-05 +4.407581E-05 -2.379418E-04 -7.582371E-05 -9.731225E-05 -7.582371E-05 +5.009563E-03 
 +1.676288E-04 +1.838783E-04 +1.405109E-05 +1.838783E-04 -2.614068E-04 -6.950759E-05 +1.405109E-05 -6.950759E-05 +5.028995E-03 
 +1.853220E-04 +7.558371E-05 -4.705736E-07 +7.558371E-05 -1.761308E-04 -6.172567E-05 -4.705736E-07 -6.172567E-05 +4.983321E-03 
 -2.434593E-05 +1.198136E-04 -2.259106E-06 +1.198136E-04 -1.800026E-05 -7.066253E-05 -2.259106E-06 -7.066253E-05 +5.055978E-03 
 -8.848955E-05 +1.544250E-04 -6.125511E-05 +1.544250E-04 +1.962648E-04 -9.960139E-05 -6.125511E-05 -9.960139E-05 +5.093456E-03 
 +2.126797E-05 +2.978669E-04 -9.833828E-05 +2.978669E-04 +2.553192E-04 -1.289300E-04 -9.833828E-05 -1.289300E-04 +5.083711E-03 
 +3.502947E-04 -1.387314E-04 -1.146540E-04 -1.387314E-04 -1.265630E-05 -9.383637E-05 -1.146540E-04 -9.383637E-05 +5.089267E-03 
 +3.626826E-04 -1.849175E-04 -7.659841E-05 -1.849175E-04 -3.019213E-04 -6.413634E-05 -7.659841E-05 -6.413634E-05 +5.057640E-03 
 +2.654081E-04 -3.673812E-04 -6.470484E-05 -3.673812E-04 -2.982600E-04 -4.854826E-05 -6.470484E-05 -4.854826E-05 +5.050488E-03 
 -6.567986E-05 -1.818985E-04 -5.598237E-05 -1.818985E-04 -1.084466E-04 -1.231153E-05 -5.598237E-05 -1.231153E-05 +5.054249E-03 
 -3.675811E-04 -2.405159E-04 -6.539180E-05 -2.405159E-04 +8.779653E-05 +2.783242E-05 -6.539180E-05 +2.783242E-05 +5.078810E-03 
 -4.414888E-04 -2.679404E-04 -5.004299E-05 -2.679404E-04 +1.939343E-04 +7.579515E-05 -5.004299E-05 +7.579515E-05 +5.093688E-03 
 -4.649168E-04 -2.552541E-04 -4.702817E-05 -2.552541E-04 +2.432667E-04 +9.606404E-05 -4.702817E-05 +9.606404E-05 +5.091938E-03 
 -5.071636E-04 -2.209768E-04 -5.827624E-05 -2.209768E-04 +1.543422E-04 +1.279769E-04 -5.827624E-05 +1.279769E-04 +5.099367E-03 
 -3.246095E-04 -1.272102E-04 +3.036097E-05 -1.272102E-04 +2.588855E-05 +1.021639E-04 +3.036097E-05 +1.021639E-04 +5.078668E-03 
 +1.033063E-04 +8.222348E-05 -1.187442E-05 +8.222348E-05 -3.493540E-05 +5.376642E-05 -1.187442E-05 +5.376642E-05 +5.061897E-03 
 +1.700320E-04 +9.834124E-05 -1.331282E-04 +9.834124E-05 -1.642029E-04 +2.811572E-05 -1.331282E-04 +2.811572E-05 +5.105476E-03 
 +1.507616E-04 +4.267676E-05 -2.367566E-04 +4.267676E-05 -1.998564E-04 -2.057854E-05 -2.367566E-04 -2.057854E-05 +5.140189E-03 
 +1.354004E-04 +1.521529E-06 -2.393333E-04 +1.521529E-06 -1.447249E-04 -4.396810E-05 -2.393333E-04 -4.396810E-05 +5.089098E-03 
 +9.897306E-05 +1.388416E-04 -1.458747E-04 +1.388416E-04 -1.336238E-04 -9.047390E-05 -1.458747E-04 -9.047390E-05 +4.963048E-03 
 +2.069750E-04 +1.527535E-04 -1.466472E-04 +1.527535E-04 -1.505511E-04 -1.038633E-04 -1.466472E-04 -1.038633E-04 +4.911150E-03 
 +1.990873E-04 -5.254102E-06 -8.475562E-05 -5.254102E-06 -9.535010E-05 +6.504549E-05 -8.475562E-05 +6.504549E-05 +4.867582E-03 
 +2.396304E-04 +7.800261E-05 -3.890821E-05 +7.800261E-05 -5.878062E-05 +4.723555E-05 -3.890821E-05 +4.723555E-05 +4.853866E-03 
 +2.970106E-04 +6.766844E-06 -5.405195E-05 +6.766844E-06 -7.306123E-05 -2.499410E-05 -5.405195E-05 -2.499410E-05 +4.877184E-03 
 -1.839204E-04 +1.004255E-04 +1.193373E-05 +1.004255E-04 +9.860179E-05 -7.118573E-05 +1.193373E-05 -7.118573E-05 +4.996051E-03 
 -2.575089E-04 +2.198906E-05 -7.017563E-05 +2.198906E-05 +2.388110E-04 -9.286396E-05 -7.017563E-05 -9.286396E-05 +5.046445E-03 
 -2.103772E-04 +1.895181E-04 -7.217568E-05 +1.895181E-04 +1.700936E-04 -1.560858E-04 -7.217568E-05 -1.560858E-04 +5.074016E-03 
 +8.783395E-05 -2.379581E-04 -1.102749E-04 -2.379581E-04 -1.157265E-06 -1.399594E-04 -1.102749E-04 -1.399594E-04 +5.131143E-03 
 +2.160986E-04 -1.650539E-04 -1.148242E-04 -1.650539E-04 -2.163380E-04 -3.157775E-05 -1.148242E-04 -3.157775E-05 +5.140503E-03 
 +2.435139E-04 -2.062277E-04 -1.000655E-04 -2.062277E-04 -2.908716E-04 +2.212185E-05 -1.000655E-04 +2.212185E-05 +5.100312E-03 
 -3.029600E-05 +2.172902E-05 -6.473836E-05 +2.172902E-05 -1.610621E-04 +6.446394E-05 -6.473836E-05 +6.446394E-05 +5.063594E-03 
 -1.495140E-04 -9.831248E-05 -4.526902E-05 -9.831248E-05 +3.087990E-05 +1.020568E-04 -4.526902E-05 +1.020568E-04 +5.051968E-03 
 -2.759826E-04 -1.750028E-04 -4.395859E-05 -1.750028E-04 +1.831735E-04 +9.867764E-05 -4.395859E-05 +9.867764E-05 +5.037570E-03 
 -4.001131E-04 -2.309181E-04 -3.006004E-05 -2.309181E-04 +1.750924E-04 +6.418848E-05 -3.006004E-05 +6.418848E-05 +5.037458E-03 
 -3.542460E-04 -1.511379E-04 -3.511675E-05 -1.511379E-04 +1.540514E-04 +8.682134E-05 -3.511675E-05 +8.682134E-05 +5.048544E-03 
 -2.395812E-04 +5.286404E-05 +4.410250E-05 +5.286404E-05 +1.850996E-04 +3.783595E-05 +4.410250E-05 +3.783595E-05 +5.025798E-03 
 +1.643184E-05 +1.476642E-04 +1.336534E-05 +1.476642E-04 +8.374415E-06 -6.029351E-05 +1.336534E-05 -6.029351E-05 +5.000179E-03 
 +9.220132E-05 +1.172383E-04 -7.754874E-05 +1.172383E-04 -1.466841E-04 -2.677146E-05 -7.754874E-05 -2.677146E-05 +5.044314E-03 
 +8.887185E-05 +1.016647E-04 -2.261282E-04 +1.016647E-04 -1.168840E-04 -1.863537E-05 -2.261282E-04 -1.863537E-05 +5.093402E-03 
 +1.281692E-04 +4.969263E-05 -2.319652E-04 +4.969263E-05 -4.609671E-05 -4.127966E-05 -2.319652E-04 -4.127966E-05 +4.980212E-03 
 +1.857150E-04 +1.771362E-04 -1.741292E-04 +1.771362E-04 -3.005755E-05 -6.325860E-05 -1.741292E-04 -6.325860E-05 +4.778763E-03 
 +3.068752E-04 +1.386407E-04 -1.508372E-04 +1.386407E-04 -1.155498E-04 -2.189451E-05 -1.508372E-04 -2.189451E-05 +4.765726E-03 
 +2.827774E-04 +6.685368E-05 -8.122890E-05 +6.685368E-05 +1.840851E-05 -3.204732E-05 -8.122890E-05 -3.204732E-05 +4.705488E-03 
 +3.159024E-04 +8.242265E-05 -9.965291E-05 +8.242265E-05 +1.395076E-05 -6.963686E-05 -9.965291E-05 -6.963686E-05 +4.724222E-03 
 +1.643221E-04 -8.695941E-06 -8.829423E-05 -8.695941E-06 +7.342538E-05 -5.528314E-05 -8.829423E-05 -5.528314E-05 +4.876168E-03 
 -2.738710E-04 +6.754634E-05 -7.535252E-06 +6.754634E-05 +2.013643E-04 -5.176922E-05 -7.535252E-06 -5.176922E-05 +4.988236E-03 
 -2.858698E-04 +3.455809E-05 -6.671898E-05 +3.455809E-05 +2.295098E-04 -1.034854E-04 -6.671898E-05 -1.034854E-04 +5.006656E-03 
 -2.807754E-04 +1.166331E-04 -5.881255E-05 +1.166331E-04 +6.059568E-05 -1.903635E-04 -5.881255E-05 -1.903635E-04 +5.067991E-03 
 -8.362501E-05 -2.070699E-04 -1.087367E-04 -2.070699E-04 -2.737122E-05 -1.270595E-04 -1.087367E-04 -1.270595E-04 +5.089147E-03 
 +1.036615E-04 -2.181678E-04 -8.967642E-05 -2.181678E-04 -8.758217E-05 +3.484694E-05 -8.967642E-05 +3.484694E-05 +5.070769E-03 
 +1.010859E-04 -1.307213E-04 -3.774317E-05 -1.307213E-04 -1.507837E-04 +8.989077E-05 -3.774317E-05 +8.989077E-05 +5.045677E-03 
 +1.529979E-05 +6.691548E-05 -3.871449E-05 +6.691548E-05 -4.799478E-05 +1.199005E-04 -3.871449E-05 +1.199005E-04 +4.984290E-03 
 +5.905294E-05 -1.418669E-05 -5.376313E-05 -1.418669E-05 +1.299514E-05 +1.230748E-04 -5.376313E-05 +1.230748E-04 +4.943481E-03 
 -4.890661E-05 -4.187385E-05 -5.479314E-05 -4.187385E-05 +1.452049E-04 +1.047680E-04 -5.479314E-05 +1.047680E-04 +4.916326E-03 
 -1.933055E-04 -1.230108E-04 -2.313219E-05 -1.230108E-04 +2.111932E-04 +1.007224E-04 -2.313219E-05 +1.007224E-04 +4.900616E-03 
 -2.134749E-04 +7.491525E-05 +7.858277E-05 +7.491525E-05 +2.476469E-04 +1.284444E-04 +7.858277E-05 +1.284444E-04 +4.969935E-03 
 -2.309062E-04 +7.390206E-05 +1.292642E-04 +7.390206E-05 +3.157820E-04 +9.185243E-05 +1.292642E-04 +9.185243E-05 +5.012233E-03 
 -1.976065E-04 +1.975748E-05 +6.962260E-05 +1.975748E-05 +3.072887E-04 +1.701944E-05 +6.962260E-05 +1.701944E-05 +4.974841E-03 
 -1.141108E-04 +1.756663E-06 -7.474727E-06 +1.756663E-06 +1.876930E-04 +3.341608E-05 -7.474727E-06 +3.341608E-05 +4.960127E-03 
 +1.460308E-04 +7.949815E-05 -1.529924E-04 +7.949815E-05 +6.847032E-05 +4.627968E-05 -1.529924E-04 +4.627968E-05 +4.929999E-03 
 +1.456086E-04 +1.428262E-04 -1.414809E-04 +1.428262E-04 +1.178935E-04 +2.745490E-05 -1.414809E-04 +2.745490E-05 +4.776809E-03 
 +2.702365E-04 +1.518770E-04 -1.552539E-04 +1.518770E-04 +1.071292E-04 +1.152898E-05 -1.552539E-04 +1.152898E-05 +4.639527E-03 
 +3.183927E-04 +1.008933E-04 -1.375858E-04 +1.008933E-04 +9.406070E-06 -1.344978E-05 -1.375858E-04 -1.344978E-05 +4.667698E-03 
 +3.364954E-04 +6.496028E-05 -9.934047E-05 +6.496028E-05 +4.547307E-05 -4.166228E-05 -9.934047E-05 -4.166228E-05 +4.614282E-03 
 +3.053492E-04 +3.749351E-06 -5.105327E-05 +3.749351E-06 +1.205412E-04 -5.556497E-05 -5.105327E-05 -5.556497E-05 +4.692038E-03 
 -8.576015E-06 +3.209471E-05 -4.763028E-05 +3.209471E-05 +2.726882E-04 -1.435299E-05 -4.763028E-05 -1.435299E-05 +4.855255E-03 
 -1.929133E-04 +1.125911E-04 -4.258592E-05 +1.125911E-04 +2.711724E-04 -4.296975E-05 -4.258592E-05 -4.296975E-05 +4.894599E-03 
 -1.912106E-04 +1.086261E-04 -6.998962E-05 +1.086261E-04 +1.988232E-04 -1.075655E-04 -6.998962E-05 -1.075655E-04 +4.890704E-03 
 -2.561524E-04 +1.585699E-04 -5.224587E-05 +1.585699E-04 +1.312811E-04 -1.748043E-04 -5.224587E-05 -1.748043E-04 +4.949683E-03 
 -2.351009E-04 +4.595651E-05 -4.030737E-05 +4.595651E-05 +6.585734E-05 -9.156401E-05 -4.030737E-05 -9.156401E-05 +4.954930E-03 
 -7.292674E-05 -1.460081E-04 -1.085723E-05 -1.460081E-04 +1.792184E-05 +7.408069E-05 -1.085723E-05 +7.408069E-05 +4.959359E-03 
 +5.131699E-06 +1.484127E-04 -2.106679E-05 +1.484127E-04 +3.868376E-05 +6.538007E-05 -2.106679E-05 +6.538007E-05 +4.974606E-03 
 +1.323593E-04 +3.604179E-04 -2.871775E-05 +3.604179E-04 +6.218737E-05 -2.806725E-05 -2.871775E-05 -2.806725E-05 +4.873185E-03 
 +1.803237E-04 +2.567550E-04 -6.547081E-05 +2.567550E-04 +5.680131E-06 -5.081151E-05 -6.547081E-05 -5.081151E-05 +4.789109E-03 
 +1.532091E-04 +1.913958E-04 -8.180003E-05 +1.913958E-04 +2.974739E-05 -1.345326E-05 -8.180003E-05 -1.345326E-05 +4.752730E-03 
 +6.182317E-05 +1.867168E-05 -3.110026E-05 +1.867168E-05 +2.245330E-04 +2.484679E-05 -3.110026E-05 +2.484679E-05 +4.733336E-03 
 -3.124238E-04 +4.866283E-05 +1.706286E-04 +4.866283E-05 +3.262356E-04 +6.340453E-05 +1.706286E-04 +6.340453E-05 +4.894719E-03 
 -3.370197E-04 +2.145329E-05 +1.681228E-04 +2.145329E-05 +2.963253E-04 +7.481807E-05 +1.681228E-04 +7.481807E-05 +5.019563E-03 
 -3.169460E-04 +6.261985E-06 +1.248642E-04 +6.261985E-06 +3.197541E-04 +3.548342E-05 +1.248642E-04 +3.548342E-05 +4.980948E-03 
 -2.945137E-04 +2.669914E-05 +4.321629E-05 +2.669914E-05 +3.249123E-04 +1.430375E-06 +4.321629E-05 +1.430375E-06 +4.907646E-03 
 +1.227061E-04 +5.967310E-05 -9.497561E-05 +5.967310E-05 +2.773671E-04 +5.209671E-05 -9.497561E-05 +5.209671E-05 +4.802326E-03 
 +2.607200E-04 +1.004758E-04 -1.278002E-04 +1.004758E-04 +1.715677E-04 +7.643008E-05 -1.278002E-04 +7.643008E-05 +4.679396E-03 
 +3.320124E-04 +1.071382E-04 -1.822792E-04 +1.071382E-04 +9.273428E-05 +2.847717E-05 -1.822792E-04 +2.847717E-05 +4.610807E-03 
 +3.276165E-04 +9.957070E-05 -1.446252E-04 +9.957070E-05 +5.972585E-05 -1.987600E-06 -1.446252E-04 -1.987600E-06 +4.613392E-03 
 +2.319733E-04 +7.287829E-05 -5.066375E-05 +7.287829E-05 +1.305880E-04 -1.876171E-05 -5.066375E-05 -1.876171E-05 +4.661085E-03 
 +3.018360E-05 -5.728297E-05 +7.897836E-05 -5.728297E-05 +2.375636E-04 +6.791492E-05 +7.897836E-05 +6.791492E-05 +4.717447E-03 
 -5.478033E-06 -1.631119E-04 +4.518113E-06 -1.631119E-04 +3.169445E-04 +9.211500E-05 +4.518113E-06 +9.211500E-05 +4.699703E-03 
 -3.334456E-05 -1.643615E-04 -5.971642E-05 -1.643615E-04 +2.849429E-04 +2.264338E-05 -5.971642E-05 +2.264338E-05 +4.676065E-03 
 -6.720468E-05 -8.293102E-05 -7.985572E-05 -8.293102E-05 +2.057588E-04 -6.423219E-05 -7.985572E-05 -6.423219E-05 +4.768980E-03 
 -7.309026E-05 -5.928788E-05 -9.236359E-05 -5.928788E-05 +1.302175E-04 -9.280910E-05 -9.236359E-05 -9.280910E-05 +4.803004E-03 
 -5.080819E-05 +9.160474E-05 -8.705073E-05 +9.160474E-05 +1.199682E-04 -5.949110E-05 -8.705073E-05 -5.949110E-05 +4.795020E-03 
 -3.239121E-04 +7.303356E-05 +6.712975E-06 +7.303356E-05 +2.256682E-04 +1.590974E-05 +6.712975E-06 +1.590974E-05 +4.817763E-03 
 -5.314396E-05 +3.282176E-04 -6.112151E-05 +3.282176E-04 +2.930458E-04 +3.120273E-05 -6.112151E-05 +3.120273E-05 +4.812564E-03 
 +1.581950E-04 +3.144404E-04 -7.177627E-05 +3.144404E-04 +1.920211E-04 -7.901082E-06 -7.177627E-05 -7.901082E-06 +4.760897E-03 
 +2.068810E-04 +2.297688E-04 -1.170293E-04 +2.297688E-04 +1.023192E-04 +4.404354E-06 -1.170293E-04 +4.404354E-06 +4.717866E-03 
 +1.934066E-04 +1.469208E-04 -1.285421E-04 +1.469208E-04 +1.053782E-04 -2.507641E-06 -1.285421E-04 -2.507641E-06 +4.657952E-03 
 +1.617351E-04 +2.417339E-05 -1.069326E-04 +2.417339E-05 +2.134345E-04 -3.359103E-05 -1.069326E-04 -3.359103E-05 +4.658379E-03 
 -4.061486E-04 -6.542621E-05 +1.755485E-04 -6.542621E-05 +3.460287E-04 -1.309633E-05 +1.755485E-04 -1.309633E-05 +4.860069E-03 
 -3.882009E-04 -1.856288E-05 +1.449911E-04 -1.856288E-05 +3.206081E-04 +4.673059E-05 +1.449911E-04 +4.673059E-05 +4.997046E-03 
 -3.235814E-04 -7.690325E-06 +1.048314E-04 -7.690325E-06 +2.631412E-04 +5.169596E-05 +1.048314E-04 +5.169596E-05 +4.994996E-03 
 -3.004312E-04 +7.526089E-05 +4.186176E-05 +7.526089E-05 +2.304333E-04 +5.413154E-05 +4.186176E-05 +5.413154E-05 +4.954511E-03 
 -1.218470E-04 +1.186604E-04 -5.225714E-05 +1.186604E-04 +1.956549E-04 +1.231302E-04 -5.225714E-05 +1.231302E-04 +4.829327E-03 
 +3.907483E-04 +8.657717E-05 -1.939844E-04 +8.657717E-05 +1.022550E-04 +1.161338E-04 -1.939844E-04 +1.161338E-04 +4.699822E-03 
 +4.143046E-04 +1.114572E-04 -1.756444E-04 +1.114572E-04 +2.684629E-05 +6.077203E-05 -1.756444E-04 +6.077203E-05 +4.635478E-03 
 +3.599233E-04 +1.401127E-04 -1.583602E-04 +1.401127E-04 +5.855978E-05 -4.188243E-06 -1.583602E-04 -4.188243E-06 +4.629419E-03 
 +7.841390E-05 +7.065668E-05 +7.350369E-05 +7.065668E-05 +1.564880E-04 +1.438038E-04 +7.350369E-05 +1.438038E-04 +4.743572E-03 
 -1.067339E-04 +9.415376E-05 +9.075833E-05 +9.415376E-05 +2.571071E-04 +1.423406E-04 +9.075833E-05 +1.423406E-04 +4.804067E-03 
 -1.096491E-04 +6.760156E-05 +4.157589E-05 +6.760156E-05 +2.751952E-04 +4.738956E-05 +4.157589E-05 +4.738956E-05 +4.727277E-03 
 +3.301067E-05 -8.779719E-05 -4.464483E-05 -8.779719E-05 +2.576308E-04 +6.554836E-06 -4.464483E-05 +6.554836E-06 +4.634338E-03 
 +8.791819E-05 -9.507128E-05 -8.272028E-05 -9.507128E-05 +1.892726E-04 -4.651238E-05 -8.272028E-05 -4.651238E-05 +4.660586E-03 
 +8.887925E-05 -5.379902E-05 -1.050170E-04 -5.379902E-05 +1.368816E-04 -6.958730E-05 -1.050170E-04 -6.958730E-05 +4.666808E-03 
 -1.010643E-04 -2.042071E-04 -1.317287E-04 -2.042071E-04 +1.044771E-04 -5.548887E-05 -1.317287E-04 -5.548887E-05 +4.756718E-03 
 -4.138716E-04 -2.938956E-04 -2.616437E-05 -2.938956E-04 +2.806357E-04 +1.830064E-05 -2.616437E-05 +1.830064E-05 +4.841320E-03 
 +1.994277E-05 -5.531340E-05 -1.207593E-04 -5.531340E-05 +3.384977E-04 +7.419053E-05 -1.207593E-04 +7.419053E-05 +4.742694E-03 
 +1.535153E-04 +1.457801E-04 -1.235251E-04 +1.457801E-04 +2.034561E-04 +2.235925E-05 -1.235251E-04 +2.235925E-05 +4.694317E-03 
 +2.232678E-04 +1.243648E-04 -1.510527E-04 +1.243648E-04 +2.082921E-04 +9.239419E-06 -1.510527E-04 +9.239419E-06 +4.699049E-03 
 +2.180884E-04 +6.083534E-05 -1.753209E-04 +6.083534E-05 +1.816708E-04 -2.928879E-05 -1.753209E-04 -2.928879E-05 +4.649691E-03 
 +1.076833E-04 +1.079838E-06 -1.422229E-04 +1.079838E-06 +1.991328E-04 -6.753515E-05 -1.422229E-04 -6.753515E-05 +4.713754E-03 
 -3.553607E-04 -1.589371E-04 +8.935786E-05 -1.589371E-04 +2.855097E-04 -5.415771E-05 +8.935786E-05 -5.415771E-05 +4.894909E-03 
 -3.337898E-04 -1.432818E-04 +8.104096E-05 -1.432818E-04 +2.845579E-04 -2.708166E-05 +8.104096E-05 -2.708166E-05 +4.983182E-03 
 -2.780156E-04 -4.821307E-05 +6.134028E-05 -4.821307E-05 +1.927042E-04 +3.218483E-05 +6.134028E-05 +3.218483E-05 +4.999697E-03 
 -2.587108E-04 +4.022222E-05 +1.730880E-05 +4.022222E-05 +1.684585E-04 +7.290044E-05 +1.730880E-05 +7.290044E-05 +4.998777E-03 
 -2.117503E-04 +1.252979E-04 -2.990978E-05 +1.252979E-04 +1.390791E-04 +1.038991E-04 -2.990978E-05 +1.038991E-04 +4.879747E-03 
 +4.270645E-04 +1.334222E-04 -2.687447E-04 +1.334222E-04 +6.075324E-05 +8.027168E-05 -2.687447E-04 +8.027168E-05 +4.697179E-03 
 +3.843209E-04 +1.571661E-04 -1.538675E-04 +1.571661E-04 +3.342593E-05 -3.044954E-07 -1.538675E-04 -3.044954E-07 +4.650533E-03 
 +3.469855E-04 +1.093490E-04 -9.115879E-05 +1.093490E-04 +6.304602E-05 +2.226551E-05 -9.115879E-05 +2.226551E-05 +4.688371E-03 
 +7.171035E-05 +1.141392E-04 +1.064003E-04 +1.141392E-04 +1.457685E-04 +1.308298E-04 +1.064003E-04 +1.308298E-04 +4.783022E-03 
 -3.502581E-05 +1.071138E-04 +4.726149E-05 +1.071138E-04 +1.874293E-04 +9.946076E-05 +4.726149E-05 +9.946076E-05 +4.838789E-03 
 -7.290317E-05 +1.269006E-04 +4.180438E-05 +1.269006E-04 +2.142083E-04 +9.424747E-05 +4.180438E-05 +9.424747E-05 +4.842222E-03 
 -1.010828E-04 +6.499707E-05 +3.755474E-06 +6.499707E-05 +2.636628E-04 +7.788593E-05 +3.755474E-06 +7.788593E-05 +4.779882E-03 
 -3.241415E-06 -1.848441E-04 -7.693649E-05 -1.848441E-04 +1.841871E-04 +2.002402E-05 -7.693649E-05 +2.002402E-05 +4.694816E-03 
 -5.525506E-05 -3.001647E-04 -9.778129E-05 -3.001647E-04 +1.277873E-04 -5.584764E-05 -9.778129E-05 -5.584764E-05 +4.690418E-03 
 -3.629476E-04 -4.882886E-04 -1.085270E-04 -4.882886E-04 +8.025386E-05 -7.569012E-05 -1.085270E-04 -7.569012E-05 +4.863804E-03 
 -2.082889E-04 -9.919379E-05 -3.676285E-05 -9.919379E-05 +7.077978E-05 -5.371200E-05 -3.676285E-05 -5.371200E-05 +4.932496E-03 
 +4.670840E-05 -1.700611E-04 -1.087872E-04 -1.700611E-04 +1.663665E-04 -1.020761E-05 -1.087872E-04 -1.020761E-05 +4.778249E-03 
 +1.976321E-04 -4.711196E-05 -1.068689E-04 -4.711196E-05 +1.858187E-04 +2.015935E-05 -1.068689E-04 +2.015935E-05 +4.724881E-03 
 +3.322710E-04 -5.783424E-05 -1.825284E-04 -5.783424E-05 +1.915852E-04 +4.287397E-06 -1.825284E-04 +4.287397E-06 +4.728418E-03 
 +2.718234E-04 -6.418554E-05 -2.422882E-04 -6.418554E-05 +2.053101E-04 -2.231576E-05 -2.422882E-04 -2.231576E-05 +4.701882E-03 
 -6.913112E-06 -1.247343E-04 -1.633472E-04 -1.247343E-04 +2.128969E-04 -8.313453E-06 -1.633472E-04 -8.313453E-06 +4.802168E-03 
 -1.265746E-04 -1.630853E-04 -1.085911E-04 -1.630853E-04 +1.990151E-04 -3.335869E-05 -1.085911E-04 -3.335869E-05 +4.914810E-03 
 -2.233059E-04 -1.573861E-04 -9.051028E-05 -1.573861E-04 +1.862987E-04 -8.030846E-05 -9.051028E-05 -8.030846E-05 +4.949858E-03 
 -2.501611E-04 -7.785341E-05 -4.472672E-05 -7.785341E-05 +1.699573E-04 -6.470631E-05 -4.472672E-05 -6.470631E-05 +4.970448E-03 
 -2.321725E-04 +7.855572E-06 -2.792445E-05 +7.855572E-06 +1.310317E-04 +2.850487E-05 -2.792445E-05 +2.850487E-05 +4.965825E-03 
 -1.019678E-04 +8.983091E-05 -7.112992E-05 +8.983091E-05 +3.551206E-05 +7.590489E-05 -7.112992E-05 +7.590489E-05 +4.855789E-03 
 +3.944661E-04 +1.316219E-04 -2.580417E-04 +1.316219E-04 +6.168710E-06 +9.454718E-05 -2.580417E-04 +9.454718E-05 +4.670879E-03 
 +2.390872E-04 +1.448490E-04 -9.104650E-05 +1.448490E-04 +3.487227E-05 +1.772560E-04 -9.104650E-05 +1.772560E-04 +4.670152E-03 
 +2.262419E-04 +9.746362E-05 +1.335126E-05 +9.746362E-05 +7.441763E-05 +1.971490E-04 +1.335126E-05 +1.971490E-04 +4.747535E-03 
 +1.231521E-04 +1.494869E-04 +1.030868E-04 +1.494869E-04 +1.666455E-04 +8.404237E-05 +1.030868E-04 +8.404237E-05 +4.833571E-03 
 +4.045169E-05 +1.096612E-04 +5.575264E-05 +1.096612E-04 +1.331701E-04 +1.047270E-04 +5.575264E-05 +1.047270E-04 +4.936029E-03 
 -4.297029E-05 +1.478528E-04 -5.420641E-06 +1.478528E-04 +1.558615E-04 +1.357067E-04 -5.420641E-06 +1.357067E-04 +4.923569E-03 
 -1.746214E-04 +4.624691E-06 +4.641201E-06 +4.624691E-06 +2.720557E-04 +1.147496E-04 +4.641201E-06 +1.147496E-04 +4.888101E-03 
 -2.814894E-04 -3.061721E-04 -2.758411E-05 -3.061721E-04 +1.869059E-04 +1.870985E-05 -2.758411E-05 +1.870985E-05 +4.896619E-03 
 -2.080933E-04 -1.413759E-04 -4.924344E-05 -1.413759E-04 +1.953447E-06 -9.672193E-05 -4.924344E-05 -9.672193E-05 +4.896378E-03 
 -1.890474E-04 -1.401040E-04 -4.963510E-05 -1.401040E-04 +9.848849E-05 -1.180360E-04 -4.963510E-05 -1.180360E-04 +4.934170E-03 
 -6.522070E-05 +1.422613E-04 -1.522905E-05 +1.422613E-04 +1.575678E-04 -9.398215E-05 -1.522905E-05 -9.398215E-05 +4.927068E-03 
 -7.182662E-05 +1.002548E-04 -4.108177E-05 +1.002548E-04 +1.423770E-04 -5.855121E-05 -4.108177E-05 -5.855121E-05 +4.862284E-03 
 +4.755528E-07 +1.384077E-04 -4.524800E-05 +1.384077E-04 +1.798001E-04 +1.848775E-05 -4.524800E-05 +1.848775E-05 +4.842161E-03 
 +2.785993E-04 -7.413465E-05 -1.554308E-04 -7.413465E-05 +1.870560E-04 -1.523255E-05 -1.554308E-04 -1.523255E-05 +4.801155E-03 
 +2.543302E-04 -2.869842E-04 -2.034310E-04 -2.869842E-04 +1.668707E-04 -4.222298E-05 -2.034310E-04 -4.222298E-05 +4.743348E-03 
 +1.135564E-04 -2.763414E-04 -1.761322E-04 -2.763414E-04 +2.707609E-05 -6.597699E-05 -1.761322E-04 -6.597699E-05 +4.795634E-03 
 +1.106964E-04 -2.480988E-04 -1.921170E-04 -2.480988E-04 -2.852388E-05 -1.186778E-04 -1.921170E-04 -1.186778E-04 +4.868035E-03 
 -9.923152E-05 -2.708126E-04 -1.897959E-04 -2.708126E-04 +3.516043E-05 -7.993163E-05 -1.897959E-04 -7.993163E-05 +4.909604E-03 
 -1.219204E-04 -1.095203E-04 -1.694409E-04 -1.095203E-04 +1.166826E-04 -7.932431E-06 -1.694409E-04 -7.932431E-06 +4.902500E-03 
 -8.485860E-05 +3.733972E-05 -1.248550E-04 +3.733972E-05 +8.991950E-05 +1.284465E-04 -1.248550E-04 +1.284465E-04 +4.879533E-03 
 -8.881093E-05 +5.813187E-05 -1.142755E-04 +5.813187E-05 -7.549923E-05 +2.509863E-04 -1.142755E-04 +2.509863E-04 +4.865270E-03 
 +2.364858E-04 +1.567042E-04 -1.507731E-04 +1.567042E-04 -7.404864E-05 +2.294816E-04 -1.507731E-04 +2.294816E-04 +4.763999E-03 
 +1.567355E-04 +1.148591E-04 -4.732359E-05 +1.148591E-04 +9.462003E-05 +1.438073E-04 -4.732359E-05 +1.438073E-04 +4.726674E-03 
 +1.138151E-04 +1.157249E-04 +3.872216E-05 +1.157249E-04 +1.421144E-04 +8.404186E-05 +3.872216E-05 +8.404186E-05 +4.761958E-03 
 +6.445307E-05 +1.131545E-04 +1.135864E-04 +1.131545E-04 +7.248086E-05 +6.196632E-05 +1.135864E-04 +6.196632E-05 +4.922442E-03 
 +1.989093E-05 +2.328639E-05 +4.341453E-05 +2.328639E-05 -7.209897E-05 +2.814404E-05 +4.341453E-05 +2.814404E-05 +5.085579E-03 
 -1.261496E-04 +1.330551E-04 -5.323323E-05 +1.330551E-04 +1.153761E-04 +9.305754E-05 -5.323323E-05 +9.305754E-05 +5.041817E-03 
 -1.553184E-04 -5.086961E-05 -2.964902E-05 -5.086961E-05 +2.584465E-04 +1.328800E-04 -2.964902E-05 +1.328800E-04 +4.920499E-03 
 -2.901350E-04 -3.931732E-04 -6.128718E-06 -3.931732E-04 +1.618923E-04 +1.908091E-05 -6.128718E-06 +1.908091E-05 +4.946777E-03 
 -1.201946E-04 -8.494368E-05 -4.606448E-05 -8.494368E-05 +3.111905E-05 -1.472553E-04 -4.606448E-05 -1.472553E-04 +4.973268E-03 
 -8.049712E-05 +1.219105E-05 -4.017270E-05 +1.219105E-05 +6.033095E-05 -1.467275E-04 -4.017270E-05 -1.467275E-04 +4.951541E-03 
 -9.052323E-05 +8.268861E-05 -2.053358E-05 +8.268861E-05 +1.180931E-04 -5.746250E-05 -2.053358E-05 -5.746250E-05 +4.948243E-03 
 -9.362658E-05 +1.444290E-04 -1.482903E-05 +1.444290E-04 +1.527726E-04 -3.067728E-05 -1.482903E-05 -3.067728E-05 +4.957479E-03 
 -1.570630E-04 +1.816918E-04 -1.276362E-05 +1.816918E-04 +1.876489E-04 -4.024565E-06 -1.276362E-05 -4.024565E-06 +4.955875E-03 
 -5.559777E-05 +1.625976E-04 -4.898635E-05 +1.625976E-04 +2.131031E-04 -5.089407E-05 -4.898635E-05 -5.089407E-05 +4.906821E-03 
 +2.333081E-04 -1.846162E-04 -9.915561E-05 -1.846162E-04 +1.119438E-04 -9.648798E-05 -9.915561E-05 -9.648798E-05 +4.813068E-03 
 +2.458339E-04 -1.941861E-04 -1.130190E-04 -1.941861E-04 -4.794943E-05 -1.040748E-04 -1.130190E-04 -1.040748E-04 +4.790183E-03 
 +1.773795E-04 -2.329114E-04 -1.153028E-04 -2.329114E-04 -1.030853E-04 -1.024368E-04 -1.153028E-04 -1.024368E-04 +4.843984E-03 
 +6.449652E-05 -2.226587E-04 -1.339974E-04 -2.226587E-04 -9.987787E-05 -7.802918E-05 -1.339974E-04 -7.802918E-05 +4.882461E-03 
 +8.281935E-05 -1.444188E-04 -1.526545E-04 -1.444188E-04 -1.075241E-04 -6.536441E-05 -1.526545E-04 -6.536441E-05 +4.838555E-03 
 +5.938750E-05 -6.374644E-05 -1.559702E-04 -6.374644E-05 -7.834871E-05 +6.095145E-06 -1.559702E-04 +6.095145E-06 +4.854466E-03 
 -2.215784E-04 -2.055401E-04 -8.719771E-05 -2.055401E-04 -9.723682E-05 +1.305137E-04 -8.719771E-05 +1.305137E-04 +4.946919E-03 
 +5.909078E-05 +1.208344E-04 -5.193311E-05 +1.208344E-04 -8.005628E-05 +1.210251E-04 -5.193311E-05 +1.210251E-04 +4.876081E-03 
 +1.872957E-04 +6.107134E-05 -6.457057E-06 +6.107134E-05 +3.955390E-05 +6.796331E-05 -6.457057E-06 +6.796331E-05 +4.786929E-03 
 +1.969313E-04 +1.738821E-04 +7.585006E-05 +1.738821E-04 +1.630884E-04 +8.529225E-05 +7.585006E-05 +8.529225E-05 +4.804472E-03 
 -1.337468E-04 +2.025446E-05 +8.831878E-05 +2.025446E-05 +1.878444E-04 -9.830932E-05 +8.831878E-05 -9.830932E-05 +4.991352E-03 
 -2.053357E-04 +5.916816E-05 +2.083297E-05 +5.916816E-05 +2.430971E-04 -8.310276E-05 +2.083297E-05 -8.310276E-05 +5.136397E-03 
 -1.881316E-04 +9.786924E-05 -7.475117E-05 +9.786924E-05 +2.641296E-04 +2.224244E-05 -7.475117E-05 +2.224244E-05 +5.084089E-03 
 +1.031418E-04 -5.414368E-05 -1.201604E-04 -5.414368E-05 +1.869650E-04 +8.069278E-05 -1.201604E-04 +8.069278E-05 +4.916519E-03 
 -1.466159E-04 -3.474182E-04 -1.138219E-04 -3.474182E-04 +1.561387E-04 -1.272539E-05 -1.138219E-04 -1.272539E-05 +4.900693E-03 
 -1.444625E-04 -7.672096E-05 -1.152922E-04 -7.672096E-05 +1.090347E-04 -1.456735E-04 -1.152922E-04 -1.456735E-04 +4.953543E-03 
 -8.573164E-05 +2.087834E-05 -9.090799E-05 +2.087834E-05 +5.080080E-05 -1.492325E-04 -9.090799E-05 -1.492325E-04 +4.971952E-03 
 -7.974734E-05 +9.525156E-05 -1.733379E-05 +9.525156E-05 +5.320905E-05 -7.100666E-05 -1.733379E-05 -7.100666E-05 +4.991418E-03 
 -1.337986E-04 +1.993770E-04 +2.682191E-05 +1.993770E-04 +1.122664E-04 -4.130660E-05 +2.682191E-05 -4.130660E-05 +5.007314E-03 
 -1.659692E-04 +2.108332E-04 +2.754817E-05 +2.108332E-04 +2.091821E-04 -2.394305E-05 +2.754817E-05 -2.394305E-05 +5.049243E-03 
 -1.581674E-04 +1.842217E-04 +2.293406E-05 +1.842217E-04 +1.631733E-04 -6.766001E-05 +2.293406E-05 -6.766001E-05 +5.028130E-03 
 +1.932880E-04 -1.129789E-04 -6.963936E-05 -1.129789E-04 +8.091874E-06 -9.438243E-05 -6.963936E-05 -9.438243E-05 +4.893203E-03 
 +2.172002E-04 -6.939966E-05 -7.208503E-05 -6.939966E-05 -4.541902E-05 -7.782168E-05 -7.208503E-05 -7.782168E-05 +4.833999E-03 
 +1.695808E-04 -1.378373E-04 -7.166022E-05 -1.378373E-04 -1.047400E-04 -5.117917E-05 -7.166022E-05 -5.117917E-05 +4.861384E-03 
 +1.493061E-04 -1.351401E-04 -7.955118E-05 -1.351401E-04 -1.536810E-04 -4.408071E-05 -7.955118E-05 -4.408071E-05 +4.881510E-03 
 +1.496209E-04 -1.724277E-04 -7.936961E-05 -1.724277E-04 -1.748754E-04 -4.770096E-05 -7.936961E-05 -4.770096E-05 +4.858339E-03 
 +1.317099E-04 -4.908555E-05 -8.913869E-05 -4.908555E-05 -1.789951E-04 +8.762565E-06 -8.913869E-05 +8.762565E-06 +4.916083E-03 
 -1.486743E-04 -1.593151E-04 -6.512969E-06 -1.593151E-04 -1.812423E-04 +1.098747E-04 -6.512969E-06 +1.098747E-04 +5.018728E-03 
 +1.053973E-04 +4.322947E-04 +8.478129E-05 +4.322947E-04 -2.615758E-04 +8.333281E-05 +8.478129E-05 +8.333281E-05 +4.955263E-03 
 +1.643159E-04 +3.890609E-04 +9.803433E-05 +3.890609E-04 -3.303622E-04 -5.891266E-05 +9.803433E-05 -5.891266E-05 +4.882087E-03 
 +2.068707E-04 +5.244844E-04 +9.393508E-05 +5.244844E-04 -6.311873E-05 -1.024396E-04 +9.393508E-05 -1.024396E-04 +4.890528E-03 
 -2.842438E-04 -1.114369E-04 +4.834745E-05 -1.114369E-04 +1.493096E-04 -7.780144E-05 +4.834745E-05 -7.780144E-05 +5.023142E-03 
 -3.839645E-04 +2.518877E-05 +5.448688E-06 +2.518877E-05 +3.580408E-04 -5.839879E-05 +5.448688E-06 -5.839879E-05 +5.098661E-03 
 -1.305550E-04 +8.531887E-06 -7.363360E-05 +8.531887E-06 +2.427885E-04 -1.847523E-06 -7.363360E-05 -1.847523E-06 +5.040928E-03 
 +3.298770E-04 -1.311941E-04 -1.685403E-04 -1.311941E-04 -5.010985E-05 +2.193259E-05 -1.685403E-04 +2.193259E-05 +4.908064E-03 
 +1.406543E-04 -3.151443E-04 -1.853381E-04 -3.151443E-04 +9.132900E-06 -1.937229E-06 -1.853381E-04 -1.937229E-06 +4.882996E-03 
 -1.390569E-04 -1.252078E-05 -1.129768E-04 -1.252078E-05 +1.552678E-04 -1.205916E-04 -1.129768E-04 -1.205916E-04 +4.949457E-03 
 -1.656356E-04 +1.026800E-04 -9.507085E-05 +1.026800E-04 +6.018800E-05 -1.831497E-04 -9.507085E-05 -1.831497E-04 +4.987154E-03 
 -1.495345E-04 +1.509560E-04 +7.506337E-06 +1.509560E-04 +7.282760E-06 -1.331193E-04 +7.506337E-06 -1.331193E-04 +5.009520E-03 
 -1.551758E-04 +2.397564E-04 +7.696700E-05 +2.397564E-04 +9.091723E-05 -1.145730E-04 +7.696700E-05 -1.145730E-04 +5.036506E-03 
 -1.297058E-04 +2.718317E-04 +9.301535E-05 +2.718317E-04 +1.400947E-04 -7.785848E-05 +9.301535E-05 -7.785848E-05 +5.122563E-03 
 -1.638337E-05 +2.025275E-04 +4.278026E-05 +2.025275E-04 +2.035948E-05 -5.231599E-05 +4.278026E-05 -5.231599E-05 +5.132196E-03 
 +1.547887E-04 +3.206607E-05 -3.835770E-05 +3.206607E-05 -3.710766E-05 -4.951113E-05 -3.835770E-05 -4.951113E-05 +4.969449E-03 
 +1.456070E-04 +6.180422E-05 -6.523988E-05 +6.180422E-05 -1.149107E-05 -5.574210E-05 -6.523988E-05 -5.574210E-05 +4.853237E-03 
 +1.391376E-04 -4.721025E-05 -9.991793E-05 -4.721025E-05 -3.394725E-05 -4.138206E-05 -9.991793E-05 -4.138206E-05 +4.859865E-03 
 +1.533415E-04 -5.151079E-06 -1.148746E-04 -5.151079E-06 -4.355710E-05 -5.485973E-05 -1.148746E-04 -5.485973E-05 +4.919212E-03 
 +1.014900E-04 -8.743996E-05 -8.673337E-05 -8.743996E-05 -5.621451E-05 -7.931963E-05 -8.673337E-05 -7.931963E-05 +4.889928E-03 
 +1.073127E-04 -7.749067E-05 -8.154049E-05 -7.749067E-05 -1.951683E-04 -9.325811E-06 -8.154049E-05 -9.325811E-06 +4.924776E-03 
 -8.670199E-05 -2.445445E-04 +9.559132E-06 -2.445445E-04 -1.625588E-04 +6.740819E-05 +9.559132E-06 +6.740819E-05 +5.039772E-03 
 +7.664803E-05 -2.036224E-05 +1.030656E-04 -2.036224E-05 -7.090889E-05 +1.261655E-05 +1.030656E-04 +1.261655E-05 +4.997638E-03 
 +1.251424E-04 -7.974030E-05 +8.181695E-05 -7.974030E-05 -1.308875E-04 -9.374511E-05 +8.181695E-05 -9.374511E-05 +4.929717E-03 
 +1.669004E-04 +3.550684E-04 +4.613390E-05 +3.550684E-04 -6.461726E-05 -8.863671E-05 +4.613390E-05 -8.863671E-05 +4.941187E-03 
 -2.772244E-04 -1.163719E-04 +3.943998E-05 -1.163719E-04 +2.230004E-04 -9.054403E-05 +3.943998E-05 -9.054403E-05 +5.037262E-03 
 -2.317677E-04 -7.240745E-05 +5.430420E-06 -7.240745E-05 +2.460179E-04 -5.477055E-05 +5.430420E-06 -5.477055E-05 +5.066178E-03 
 +1.136045E-04 -3.209990E-05 -6.079133E-05 -3.209990E-05 -4.119125E-05 -7.817406E-06 -6.079133E-05 -7.817406E-06 +5.011906E-03 
 +2.627656E-04 -8.113344E-05 -1.236290E-04 -8.113344E-05 -7.570298E-05 +1.102907E-05 -1.236290E-04 +1.102907E-05 +4.908049E-03 
 +2.461525E-04 -2.835650E-04 -1.529486E-04 -2.835650E-04 +1.097792E-04 +8.039139E-06 -1.529486E-04 +8.039139E-06 +4.865147E-03 
 -2.038572E-04 -4.102009E-04 -3.849063E-05 -4.102009E-04 +2.525393E-04 -6.618758E-05 -3.849063E-05 -6.618758E-05 +4.925596E-03 
 -2.717458E-04 -4.361207E-04 -3.729245E-05 -4.361207E-04 +1.955076E-04 -9.623097E-05 -3.729245E-05 -9.623097E-05 +4.979945E-03 
 -1.440891E-04 -1.959142E-04 +2.618668E-05 -1.959142E-04 +1.254455E-04 -3.522010E-05 +2.618668E-05 -3.522010E-05 +4.994804E-03 
 -1.637117E-04 -3.779490E-05 +1.178367E-04 -3.779490E-05 +2.817568E-05 -5.908376E-05 +1.178367E-04 -5.908376E-05 +5.055080E-03 
 +1.045861E-04 -1.724342E-05 +1.951653E-04 -1.724342E-05 -2.108865E-04 -5.692486E-05 +1.951653E-04 -5.692486E-05 +5.147047E-03 
 +1.870415E-04 -4.481262E-06 +1.139126E-04 -4.481262E-06 -3.427133E-04 +3.734723E-05 +1.139126E-04 +3.734723E-05 +5.181220E-03 
 +1.965961E-04 -9.811813E-06 +4.338943E-05 -9.811813E-06 -2.292639E-04 +6.154307E-05 +4.338943E-05 +6.154307E-05 +5.097534E-03 
 +1.526883E-04 +5.466304E-05 -5.864738E-05 +5.466304E-05 -5.906815E-05 +9.660414E-06 -5.864738E-05 +9.660414E-06 +4.972273E-03 
 +1.338526E-04 -4.063305E-07 -1.081078E-04 -4.063305E-07 +1.884055E-05 -1.830063E-06 -1.081078E-04 -1.830063E-06 +4.949718E-03 
 +1.320433E-04 -2.107627E-05 -1.177634E-04 -2.107627E-05 -6.305342E-05 -2.569436E-06 -1.177634E-04 -2.569436E-06 +4.957340E-03 
 +1.620690E-04 +2.117915E-05 -1.614082E-04 +2.117915E-05 -1.373108E-04 -6.699838E-05 -1.614082E-04 -6.699838E-05 +4.874982E-03 
 -2.310959E-05 +3.117547E-05 -1.604418E-04 +3.117547E-05 -1.296960E-04 -6.012697E-05 -1.604418E-04 -6.012697E-05 +4.910551E-03 
 -2.011890E-04 +7.055500E-05 -8.986996E-06 +7.055500E-05 -1.147944E-04 +1.428583E-05 -8.986996E-06 +1.428583E-05 +5.037074E-03 
 -1.396996E-04 +2.411657E-04 +5.996182E-05 +2.411657E-04 -3.605539E-05 +4.912195E-05 +5.996182E-05 +4.912195E-05 +5.024701E-03 
 -1.994570E-05 +1.840362E-04 +3.500431E-05 +1.840362E-04 +1.221756E-04 -2.073653E-05 +3.500431E-05 -2.073653E-05 +4.977888E-03 
 -1.510583E-05 +2.804138E-04 +2.850720E-05 +2.804138E-04 +1.274066E-04 -8.896382E-05 +2.850720E-05 -8.896382E-05 +4.985484E-03 
 -2.429196E-04 +1.652247E-04 +3.720396E-05 +1.652247E-04 +1.128895E-04 -5.014426E-05 +3.720396E-05 -5.014426E-05 +5.079008E-03 
 +1.621026E-05 -2.301106E-05 -1.890590E-05 -2.301106E-05 -1.491332E-04 +1.057877E-05 -1.890590E-05 +1.057877E-05 +5.051998E-03 
 +1.664948E-04 -2.651548E-05 -6.295719E-05 -2.651548E-05 -1.177130E-04 +4.672900E-05 -6.295719E-05 +4.672900E-05 +4.977396E-03 
 +1.615828E-04 -1.141629E-04 -9.618471E-05 -1.141629E-04 +3.745532E-05 +2.254982E-05 -9.618471E-05 +2.254982E-05 +4.905693E-03 
 +1.266858E-04 -2.050272E-04 -1.207368E-04 -2.050272E-04 +1.752243E-04 -1.219184E-05 -1.207368E-04 -1.219184E-05 +4.882760E-03 
 -3.403175E-04 -2.775617E-04 +3.282415E-05 -2.775617E-04 +3.033101E-04 -5.274337E-05 +3.282415E-05 -5.274337E-05 +4.922491E-03 
 -3.247412E-04 -3.522181E-04 +3.777700E-05 -3.522181E-04 +2.573399E-04 -6.851255E-05 +3.777700E-05 -6.851255E-05 +4.950128E-03 
 -7.848298E-05 -8.248769E-05 +3.765910E-05 -8.248769E-05 +1.637776E-04 -4.127502E-05 +3.765910E-05 -4.127502E-05 +4.968845E-03 
 -9.391522E-05 -9.267253E-05 +9.146276E-05 -9.267253E-05 -1.883072E-05 -6.966778E-06 +9.146276E-05 -6.966778E-06 +5.050608E-03 
 +3.084085E-04 -1.036652E-04 +1.380921E-04 -1.036652E-04 -3.538444E-04 +2.505772E-05 +1.380921E-04 +2.505772E-05 +5.073033E-03 
 +3.345437E-04 -1.386771E-06 +1.050615E-04 -1.386771E-06 -4.387367E-04 +6.205244E-05 +1.050615E-04 +6.205244E-05 +5.072624E-03 
 +2.571006E-04 -1.285068E-05 +9.332629E-05 -1.285068E-05 -2.915854E-04 +9.159595E-05 +9.332629E-05 +9.159595E-05 +5.113684E-03 
 +2.358633E-04 -7.561211E-05 +1.017419E-05 -7.561211E-05 -2.654351E-04 +1.170523E-04 +1.017419E-05 +1.170523E-04 +5.097589E-03 
 +2.084120E-04 -9.750112E-05 -2.815000E-05 -9.750112E-05 -2.679349E-04 +1.082174E-04 -2.815000E-05 +1.082174E-04 +5.076474E-03 
 +2.135260E-04 -1.229053E-04 -4.844881E-05 -1.229053E-04 -2.630037E-04 +6.203436E-05 -4.844881E-05 +6.203436E-05 +5.020660E-03 
 +1.722755E-04 +1.092441E-06 -1.863199E-04 +1.092441E-06 -2.277818E-04 +1.526340E-05 -1.863199E-04 +1.526340E-05 +4.968320E-03 
 -1.814447E-04 -9.282838E-05 -1.612543E-04 -9.282838E-05 +5.754342E-07 +5.501051E-05 -1.612543E-04 +5.501051E-05 +5.016722E-03 
 -3.291542E-04 -2.031036E-04 +5.615056E-06 -2.031036E-04 +6.819118E-05 +8.239558E-05 +5.615056E-06 +8.239558E-05 +5.081366E-03 
 -2.108095E-04 +4.586522E-05 +7.145155E-05 +4.586522E-05 +2.179962E-05 +7.102228E-05 +7.145155E-05 +7.102228E-05 +5.106871E-03 
 -1.945554E-04 +1.521779E-04 +4.257884E-05 +1.521779E-04 +1.015230E-04 +2.977268E-05 +4.257884E-05 +2.977268E-05 +5.086118E-03 
 -2.046848E-04 +3.891220E-04 +2.211066E-05 +3.891220E-04 +2.180052E-04 -4.111788E-05 +2.211066E-05 -4.111788E-05 +5.062097E-03 
 -1.344584E-04 -2.236246E-04 +5.522832E-05 -2.236246E-04 -2.043898E-05 +6.727772E-06 +5.522832E-05 +6.727772E-06 +5.149906E-03 
 +2.162811E-05 -2.033725E-04 +2.549517E-05 -2.033725E-04 -1.811975E-04 +6.451672E-05 +2.549517E-05 +6.451672E-05 +5.063605E-03 
 +1.259005E-04 -1.141791E-04 -3.416646E-05 -1.141791E-04 -6.391411E-05 +8.952887E-05 -3.416646E-05 +8.952887E-05 +4.958741E-03 
 +1.765998E-04 -1.178020E-04 -5.630677E-05 -1.178020E-04 +5.505742E-05 +2.149554E-05 -5.630677E-05 +2.149554E-05 +4.912974E-03 
 +1.273079E-04 -1.561353E-04 -8.135572E-05 -1.561353E-04 +1.486209E-04 -7.406278E-06 -8.135572E-05 -7.406278E-06 +4.914598E-03 
 -2.327620E-04 -1.665732E-04 +2.069529E-05 -1.665732E-04 +2.645531E-04 -2.517777E-05 +2.069529E-05 -2.517777E-05 +4.949978E-03 
 -3.006877E-04 -2.747392E-04 +4.692992E-05 -2.747392E-04 +3.110149E-04 -1.835895E-05 +4.692992E-05 -1.835895E-05 +4.958816E-03 
 -1.491669E-04 +2.394329E-05 +7.001483E-05 +2.394329E-05 +1.563470E-04 -2.128974E-05 +7.001483E-05 -2.128974E-05 +5.012712E-03 
 +8.204084E-05 -4.152997E-05 +8.977631E-05 -4.152997E-05 -3.405282E-05 +3.232819E-06 +8.977631E-05 +3.232819E-06 +5.020912E-03 
 +3.400774E-04 -2.024288E-06 +9.161660E-06 -2.024288E-06 -9.108130E-05 +1.163115E-04 +9.161660E-06 +1.163115E-04 +4.876246E-03 
 +2.981151E-04 +1.118716E-04 -1.841981E-05 +1.118716E-04 -9.330504E-05 +1.706838E-04 -1.841981E-05 +1.706838E-04 +4.872097E-03 
 +2.223517E-04 -2.408925E-05 +3.059129E-05 -2.408925E-05 -2.285664E-04 +1.634335E-04 +3.059129E-05 +1.634335E-04 +5.046293E-03 
 +2.634970E-04 -1.352279E-04 +2.121735E-06 -1.352279E-04 -3.610553E-04 +1.460984E-04 +2.121735E-06 +1.460984E-04 +5.132004E-03 
 +3.294070E-04 -1.252758E-04 -4.550686E-05 -1.252758E-04 -4.053003E-04 +1.194352E-04 -4.550686E-05 +1.194352E-04 +5.113319E-03 
 +3.551009E-04 -1.714694E-04 -5.330972E-05 -1.714694E-04 -3.230602E-04 +9.100958E-05 -5.330972E-05 +9.100958E-05 +5.086557E-03 
 -8.014425E-05 -7.040004E-05 -1.528789E-04 -7.040004E-05 -1.464179E-04 +6.037389E-05 -1.528789E-04 +6.037389E-05 +5.100195E-03 
 -2.712764E-04 -1.003322E-04 -7.085968E-05 -1.003322E-04 -3.469867E-06 +5.162139E-05 -7.085968E-05 +5.162139E-05 +5.119891E-03 
 -4.037884E-04 -2.070294E-04 +3.086600E-05 -2.070294E-04 +1.539353E-04 +3.922776E-05 +3.086600E-05 +3.922776E-05 +5.115027E-03 
 -3.099654E-04 +4.185186E-06 +7.994125E-05 +4.185186E-06 +1.174555E-04 +4.970623E-05 +7.994125E-05 +4.970623E-05 +5.127500E-03 
 -2.311970E-04 +1.278440E-04 +5.467795E-05 +1.278440E-04 +5.683678E-05 +4.508190E-05 +5.467795E-05 +4.508190E-05 +5.124931E-03 
 -2.285167E-04 +2.947266E-04 +1.575248E-05 +2.947266E-04 +1.646840E-04 +9.776712E-06 +1.575248E-05 +9.776712E-06 +5.134638E-03 
 -1.306118E-04 -3.978026E-04 +5.495264E-05 -3.978026E-04 -2.129646E-06 -2.195168E-05 +5.495264E-05 -2.195168E-05 +5.162108E-03 
 +4.149546E-05 -3.254806E-04 +4.456932E-05 -3.254806E-04 -5.259175E-05 +1.213336E-05 +4.456932E-05 +1.213336E-05 +5.069697E-03 
 +2.724636E-04 -1.253610E-04 -3.859677E-05 -1.253610E-04 -1.357304E-04 +6.248007E-05 -3.859677E-05 +6.248007E-05 +4.977564E-03 
 +2.646099E-04 -3.849764E-05 -6.833548E-05 -3.849764E-05 -5.152017E-05 -2.555585E-07 -6.833548E-05 -2.555585E-07 +4.967033E-03 
 +5.142873E-05 -2.248556E-04 -2.902046E-05 -2.248556E-04 +2.189071E-06 -1.353963E-05 -2.902046E-05 -1.353963E-05 +4.992766E-03 
 -6.294534E-05 -2.563952E-04 -1.061480E-05 -2.563952E-04 -7.040437E-05 +2.857961E-05 -1.061480E-05 +2.857961E-05 +5.003484E-03 
 -8.374739E-05 -3.340138E-04 +1.591609E-05 -3.340138E-04 +5.056542E-06 +4.221085E-05 +1.591609E-05 +4.221085E-05 +5.010024E-03 
 -1.487302E-04 -9.034536E-05 +3.420526E-05 -9.034536E-05 -4.682162E-05 -1.435665E-05 +3.420526E-05 -1.435665E-05 +5.095840E-03 
 +2.122477E-04 -4.486272E-05 +1.147759E-04 -4.486272E-05 -1.684714E-04 -2.096524E-05 +1.147759E-04 -2.096524E-05 +5.024608E-03 
 +2.950446E-04 +2.190302E-05 -5.844692E-06 +2.190302E-05 -4.047217E-05 +1.068764E-04 -5.844692E-06 +1.068764E-04 +4.738112E-03 
 +2.336544E-04 +5.860606E-05 -5.505216E-05 +5.860606E-05 -2.053030E-05 +1.689510E-04 -5.505216E-05 +1.689510E-04 +4.750532E-03 
 +1.699143E-04 -6.875036E-05 -4.956948E-06 -6.875036E-05 -1.791176E-04 +1.468561E-04 -4.956948E-06 +1.468561E-04 +5.022514E-03 
 +2.351993E-04 -1.313137E-04 -5.027477E-05 -1.313137E-04 -3.343694E-04 +9.705116E-05 -5.027477E-05 +9.705116E-05 +5.148201E-03 
 +3.496933E-04 -1.732385E-04 -9.977056E-05 -1.732385E-04 -4.469708E-04 +6.177643E-05 -9.977056E-05 +6.177643E-05 +5.139087E-03 
 +3.963810E-04 -1.367045E-04 -6.000586E-05 -1.367045E-04 -3.783708E-04 +1.831945E-05 -6.000586E-05 +1.831945E-05 +5.148786E-03 
 -3.167903E-04 -1.460880E-05 -1.398591E-04 -1.460880E-05 -1.231909E-04 -1.392701E-05 -1.398591E-04 -1.392701E-05 +5.178399E-03 
 -3.568909E-04 -1.170989E-04 -6.257866E-05 -1.170989E-04 +4.992569E-05 +6.837793E-06 -6.257866E-05 +6.837793E-06 +5.174012E-03 
 -3.874346E-04 -2.383927E-04 +3.762089E-05 -2.383927E-04 +2.005973E-04 +4.368560E-05 +3.762089E-05 +4.368560E-05 +5.146163E-03 
 -4.185824E-04 -1.900994E-04 +9.627082E-05 -1.900994E-04 +2.530200E-04 +7.477035E-05 +9.627082E-05 +7.477035E-05 +5.143968E-03 
 -3.336491E-04 +9.728707E-05 +7.280419E-05 +9.728707E-05 +1.820489E-04 +8.673007E-05 +7.280419E-05 +8.673007E-05 +5.149283E-03 
 -2.828039E-04 +2.381586E-04 +1.731377E-05 +2.381586E-04 +7.878383E-05 +3.310226E-05 +1.731377E-05 +3.310226E-05 +5.171171E-03 
 +5.734886E-05 -7.186482E-05 -3.278626E-05 -7.186482E-05 -2.215362E-04 +1.216130E-05 -3.278626E-05 +1.216130E-05 +5.145711E-03 
 +1.650374E-04 +1.016890E-04 -4.661592E-05 +1.016890E-04 -1.648777E-04 -1.346058E-05 -4.661592E-05 -1.346058E-05 +5.063534E-03 
 +2.529959E-04 +2.118677E-04 -9.918538E-05 +2.118677E-04 -1.976923E-04 +2.495290E-05 -9.918538E-05 +2.495290E-05 +5.001835E-03 
 +1.581647E-04 +1.671220E-04 -1.164151E-04 +1.671220E-04 -1.844336E-04 +2.691800E-05 -1.164151E-04 +2.691800E-05 +5.033362E-03 
 -7.139463E-05 -1.256119E-04 -4.186309E-05 -1.256119E-04 -7.414780E-05 +6.917349E-06 -4.186309E-05 +6.917349E-06 +5.125092E-03 
 +4.216598E-06 -2.217212E-04 -1.069300E-05 -2.217212E-04 -2.281702E-05 +3.564637E-05 -1.069300E-05 +3.564637E-05 +5.148848E-03 
 +4.432561E-05 -3.880396E-04 -8.503089E-06 -3.880396E-04 -1.446589E-04 +2.162167E-05 -8.503089E-06 +2.162167E-05 +5.144133E-03 
 +3.019844E-05 -3.259662E-04 +1.835559E-05 -3.259662E-04 -2.981558E-04 -4.007148E-05 +1.835559E-05 -4.007148E-05 +5.171842E-03 
 +2.816190E-04 -2.487533E-05 +1.158911E-04 -2.487533E-05 -2.238109E-04 +1.494491E-05 +1.158911E-04 +1.494491E-05 +5.048363E-03 
 +3.115674E-04 +1.057409E-04 +5.016804E-05 +1.057409E-04 +1.480178E-05 +1.839754E-04 +5.016804E-05 +1.839754E-04 +4.804873E-03 
 +2.387443E-04 -6.783891E-06 -1.489193E-05 -6.783891E-06 +1.235007E-05 +2.489409E-04 -1.489193E-05 +2.489409E-04 +4.811012E-03 
 +1.545835E-04 -1.398747E-04 +1.275897E-05 -1.398747E-04 -1.849183E-04 +1.563175E-04 +1.275897E-05 +1.563175E-04 +5.018353E-03 
 +1.886124E-04 -1.361444E-04 -4.655671E-05 -1.361444E-04 -2.814988E-04 +5.776234E-05 -4.655671E-05 +5.776234E-05 +5.120725E-03 
 +2.380087E-04 -2.406662E-04 -8.029635E-05 -2.406662E-04 -4.195262E-04 +2.207530E-05 -8.029635E-05 +2.207530E-05 +5.143765E-03 
 +1.214464E-04 -1.393318E-04 -5.819090E-05 -1.393318E-04 -3.818444E-04 -3.205153E-05 -5.819090E-05 -3.205153E-05 +5.192015E-03 
 -3.899721E-04 -1.093465E-04 -1.324502E-04 -1.093465E-04 -5.787675E-05 -8.840927E-05 -1.324502E-04 -8.840927E-05 +5.222364E-03 
 -3.903716E-04 -2.070089E-04 -9.634371E-05 -2.070089E-04 +1.234968E-04 -7.072413E-05 -9.634371E-05 -7.072413E-05 +5.210509E-03 
 -3.757099E-04 -1.887747E-04 -9.051124E-07 -1.887747E-04 +1.866707E-04 +1.491143E-05 -9.051124E-07 +1.491143E-05 +5.206278E-03 
 -5.155405E-04 -2.340394E-04 +4.014174E-05 -2.340394E-04 +3.226826E-04 +9.262861E-05 +4.014174E-05 +9.262861E-05 +5.221060E-03 
 -4.703263E-04 -1.022350E-04 +5.381571E-05 -1.022350E-04 +2.485154E-04 +1.046214E-04 +5.381571E-05 +1.046214E-04 +5.210851E-03 
 -3.368367E-05 +8.752476E-05 -7.945648E-06 +8.752476E-05 -1.140535E-04 +6.985186E-05 -7.945648E-06 +6.985186E-05 +5.197287E-03 
 +2.657593E-04 +5.325350E-05 -1.322943E-05 +5.325350E-05 -1.099445E-04 -1.448973E-04 -1.322943E-05 -1.448973E-04 +5.127442E-03 
 +2.374144E-04 +9.164786E-05 -1.981357E-05 +9.164786E-05 -2.740715E-04 -3.672211E-05 -1.981357E-05 -3.672211E-05 +5.077187E-03 
 +1.350518E-04 +2.376215E-04 -4.457386E-05 +2.376215E-04 -2.700472E-04 +7.346358E-05 -4.457386E-05 +7.346358E-05 +5.052668E-03 
 +1.583302E-06 +2.047770E-04 +9.274721E-06 +2.047770E-04 -2.296161E-04 +6.845304E-05 +9.274721E-06 +6.845304E-05 +5.128485E-03 
 +6.026198E-05 +1.928583E-04 +6.790222E-05 +1.928583E-04 -2.881632E-04 +3.077094E-06 +6.790222E-05 +3.077094E-06 +5.334756E-03 
 +3.595860E-05 +1.995652E-04 -6.089050E-06 +1.995652E-04 -3.808651E-04 +2.718260E-06 -6.089050E-06 +2.718260E-06 +5.365707E-03 
 +1.157000E-04 +9.394064E-05 -5.434594E-05 +9.394064E-05 -2.833987E-04 +3.673641E-05 -5.434594E-05 +3.673641E-05 +5.170036E-03 
 +1.642146E-04 +2.152291E-04 -1.770050E-05 +2.152291E-04 -1.047999E-04 +1.119263E-04 -1.770050E-05 +1.119263E-04 +4.915989E-03 
 +2.066903E-04 +3.482048E-04 +6.575906E-05 +3.482048E-04 -1.810076E-04 +1.555280E-04 +6.575906E-05 +1.555280E-04 +4.840497E-03 
 +2.112349E-04 +2.979935E-04 +4.804025E-05 +2.979935E-04 -3.056965E-04 +1.286714E-04 +4.804025E-05 +1.286714E-04 +4.905365E-03 
 +2.528390E-04 -9.344934E-06 +3.089742E-05 -9.344934E-06 -2.986546E-04 +1.541116E-04 +3.089742E-05 +1.541116E-04 +4.930986E-03 
 +1.988181E-04 -9.254641E-05 +1.588070E-05 -9.254641E-05 -2.449828E-04 +2.447086E-04 +1.588070E-05 +2.447086E-04 +4.994867E-03 
 +1.332186E-04 -2.197597E-04 -9.325254E-06 -2.197597E-04 -2.642449E-04 +2.048713E-04 -9.325254E-06 +2.048713E-04 +5.064561E-03 
 +1.084686E-05 -1.853904E-04 -4.149828E-05 -1.853904E-04 -2.376795E-04 +1.596740E-04 -4.149828E-05 +1.596740E-04 +5.078673E-03 
 -3.031251E-04 +2.126139E-05 -6.876503E-05 +2.126139E-05 -8.659282E-06 +1.186397E-04 -6.876503E-05 +1.186397E-04 +5.094415E-03 
 -3.981661E-04 -1.374168E-05 -3.702520E-05 -1.374168E-05 +1.129277E-05 -2.549630E-05 -3.702520E-05 -2.549630E-05 +5.137457E-03 
 -4.615786E-04 -2.315672E-05 +9.442525E-06 -2.315672E-05 +9.518438E-06 -1.239040E-04 +9.442525E-06 -1.239040E-04 +5.175236E-03 
 -4.862880E-04 +1.311910E-05 +1.027622E-04 +1.311910E-05 +7.273645E-05 -9.251269E-05 +1.027622E-04 -9.251269E-05 +5.236863E-03 
 -1.793046E-04 -8.747693E-06 +6.848841E-05 -8.747693E-06 +8.184402E-06 -5.861718E-05 +6.848841E-05 -5.861718E-05 +5.271782E-03 
 -1.787434E-04 +2.691857E-04 +1.706160E-04 +2.691857E-04 -3.725844E-05 -1.030799E-04 +1.706160E-04 -1.030799E-04 +5.293610E-03 
 -2.242195E-05 +3.654974E-04 +9.528591E-05 +3.654974E-04 +3.058743E-05 -1.594945E-04 +9.528591E-05 -1.594945E-04 +5.246680E-03 
 +1.639910E-04 -1.349227E-04 -5.238081E-05 -1.349227E-04 -1.205881E-04 -1.825107E-04 -5.238081E-05 -1.825107E-04 +5.162285E-03 
 +1.979158E-04 -2.776711E-05 -7.104579E-06 -2.776711E-05 -2.688220E-04 -8.511987E-05 -7.104579E-06 -8.511987E-05 +5.051609E-03 
 +1.643831E-04 +6.171397E-05 -3.895251E-05 +6.171397E-05 -3.576305E-04 +4.272741E-06 -3.895251E-05 +4.272741E-06 +5.044356E-03 
 +2.278988E-04 +1.191311E-04 +5.459620E-05 +1.191311E-04 -4.053048E-04 +5.872922E-05 +5.459620E-05 +5.872922E-05 +5.171545E-03 
 +2.102988E-04 +7.359950E-05 +3.709950E-05 +7.359950E-05 -3.850812E-04 +1.939001E-05 +3.709950E-05 +1.939001E-05 +5.373514E-03 
 +1.031475E-04 +1.366942E-04 -5.979374E-05 +1.366942E-04 -2.982318E-04 -5.780923E-06 -5.979374E-05 -5.780923E-06 +5.376881E-03 
 +1.323515E-04 +4.930424E-05 -1.475415E-04 +4.930424E-05 -1.620568E-04 +8.715118E-05 -1.475415E-04 +8.715118E-05 +5.167833E-03 
 +1.826111E-04 +1.712658E-04 -9.791606E-05 +1.712658E-04 -2.907367E-05 +1.671653E-04 -9.791606E-05 +1.671653E-04 +4.867731E-03 
 +2.020166E-04 +2.316099E-04 +1.646351E-05 +2.316099E-04 -5.792148E-06 +1.809233E-04 +1.646351E-05 +1.809233E-04 +4.811206E-03 
 +5.354881E-05 +4.291665E-04 +4.509156E-05 +4.291665E-04 -1.427101E-04 +1.706199E-04 +4.509156E-05 +1.706199E-04 +5.018249E-03 
 +1.871775E-04 +1.213449E-04 +1.090737E-04 +1.213449E-04 -2.401404E-04 +2.179938E-04 +1.090737E-04 +2.179938E-04 +5.059119E-03 
 +2.006365E-04 +1.306875E-05 +6.621541E-05 +1.306875E-05 -2.692503E-04 +3.121265E-04 +6.621541E-05 +3.121265E-04 +5.003436E-03 
 +9.417411E-05 -1.795393E-04 -2.176364E-05 -1.795393E-04 -2.191716E-04 +2.960658E-04 -2.176364E-05 +2.960658E-04 +5.038434E-03 
 -2.078058E-04 +4.010868E-05 -1.300264E-04 +4.010868E-05 +6.097067E-05 +1.884397E-04 -1.300264E-04 +1.884397E-04 +5.102166E-03 
 -4.354548E-04 +8.130975E-05 -1.437294E-04 +8.130975E-05 +1.047360E-04 +1.066265E-04 -1.437294E-04 +1.066265E-04 +5.144471E-03 
 -4.741309E-04 +5.259800E-05 -1.197208E-04 +5.259800E-05 -1.455115E-06 +2.377881E-05 -1.197208E-04 +2.377881E-05 +5.170952E-03 
 -4.863855E-04 +4.197627E-05 -4.473789E-05 +4.197627E-05 +5.376745E-05 -8.638339E-05 -4.473789E-05 -8.638339E-05 +5.183190E-03 
 -3.235502E-04 +1.360886E-04 +1.020609E-05 +1.360886E-04 +2.384515E-05 -1.564338E-04 +1.020609E-05 -1.564338E-04 +5.239239E-03 
 -3.731884E-08 +8.146411E-05 -5.230307E-05 +8.146411E-05 -6.641837E-05 -1.353912E-04 -5.230307E-05 -1.353912E-04 +5.275249E-03 
 -6.332934E-05 +2.312943E-04 +4.208425E-05 +2.312943E-04 -6.945767E-05 -1.068439E-04 +4.208425E-05 -1.068439E-04 +5.304842E-03 
 -1.295325E-04 +2.777477E-04 -2.826281E-06 +2.777477E-04 -2.441764E-05 -1.526748E-04 -2.826281E-06 -1.526748E-04 +5.297465E-03 
 +6.449900E-05 -8.904315E-05 -9.142063E-05 -8.904315E-05 +1.891857E-05 -4.787919E-05 -9.142063E-05 -4.787919E-05 +5.094120E-03 
 +1.017922E-04 +4.641071E-05 +1.485663E-05 +4.641071E-05 +1.844646E-05 +6.549051E-05 +1.485663E-05 +6.549051E-05 +4.972467E-03 
 +1.481418E-04 +6.658261E-05 -3.653419E-07 +6.658261E-05 -1.699046E-04 +8.154314E-05 -3.653419E-07 +8.154314E-05 +4.967447E-03 
 +3.540112E-04 +6.375124E-05 +1.712714E-04 +6.375124E-05 -4.204046E-04 +2.019686E-05 +1.712714E-04 +2.019686E-05 +5.156872E-03 
 +3.413898E-04 +4.549660E-05 +8.602493E-05 +4.549660E-05 -3.954339E-04 -2.960893E-05 +8.602493E-05 -2.960893E-05 +5.332187E-03 
 +1.742261E-04 +1.064608E-04 -9.108895E-05 +1.064608E-04 -2.396683E-04 +1.793763E-06 -9.108895E-05 +1.793763E-06 +5.313938E-03 
 +1.669820E-04 +7.530885E-05 -1.977483E-04 +7.530885E-05 -1.219643E-04 +7.905009E-05 -1.977483E-04 +7.905009E-05 +5.148547E-03 
 +1.922717E-04 +1.721236E-04 -1.223749E-04 +1.721236E-04 -9.983756E-06 +1.149574E-04 -1.223749E-04 +1.149574E-04 +4.877193E-03 
 +2.841175E-04 +9.890561E-05 -3.439265E-05 +9.890561E-05 +2.760101E-05 +1.327106E-04 -3.439265E-05 +1.327106E-04 +4.771238E-03 
 +1.527993E-04 +2.080478E-04 +3.513610E-05 +2.080478E-04 -8.135938E-05 +1.774852E-04 +3.513610E-05 +1.774852E-04 +4.923602E-03 
 +3.107902E-05 +1.132431E-04 +3.250344E-05 +1.132431E-04 -1.672406E-04 +2.984736E-04 +3.250344E-05 +2.984736E-04 +5.017818E-03 
 -3.862355E-06 -8.814996E-05 +1.508691E-05 -8.814996E-05 -1.174554E-04 +3.644893E-04 +1.508691E-05 +3.644893E-04 +5.011345E-03 
 -2.015205E-04 -3.937391E-04 -7.776296E-05 -3.937391E-04 +1.345873E-05 +3.405606E-04 -7.776296E-05 +3.405606E-04 +5.076660E-03 
 -3.139356E-04 -2.763324E-04 -1.215246E-04 -2.763324E-04 +5.477307E-05 +2.678914E-04 -1.215246E-04 +2.678914E-04 +5.183273E-03 
 -3.272217E-04 -2.365280E-04 -1.096248E-04 -2.365280E-04 -1.023305E-05 +1.413781E-04 -1.096248E-04 +1.413781E-04 +5.192044E-03 
 -4.677385E-04 +1.925246E-05 -1.415560E-04 +1.925246E-05 +5.533126E-06 +3.970938E-05 -1.415560E-04 +3.970938E-05 +5.157592E-03 
 -4.247988E-04 +8.900775E-05 -8.963316E-05 +8.900775E-05 -3.164278E-05 -9.934211E-05 -8.963316E-05 -9.934211E-05 +5.146170E-03 
 -3.426702E-05 +1.390282E-04 -1.478130E-04 +1.390282E-04 -1.593726E-04 -1.777745E-04 -1.478130E-04 -1.777745E-04 +5.171722E-03 
 +3.611801E-06 +1.245443E-04 -1.631768E-04 +1.245443E-04 -1.603256E-04 -1.474475E-04 -1.631768E-04 -1.474475E-04 +5.200931E-03 
 -1.311678E-04 +3.180061E-04 -1.428924E-05 +3.180061E-04 -1.012442E-04 -1.275948E-04 -1.428924E-05 -1.275948E-04 +5.240167E-03 
 -1.104459E-04 +3.866820E-04 -2.299742E-05 +3.866820E-04 -5.986601E-05 -1.136256E-04 -2.299742E-05 -1.136256E-04 +5.214290E-03 
 +6.504384E-05 -6.093947E-05 -1.285238E-04 -6.093947E-05 -7.031697E-05 -4.226316E-05 -1.285238E-04 -4.226316E-05 +5.038795E-03 
 +3.917912E-05 +6.350594E-05 -2.775338E-05 +6.350594E-05 -2.391557E-05 +4.871967E-05 -2.775338E-05 +4.871967E-05 +4.983019E-03 
 +1.019278E-04 +1.100530E-05 -1.046248E-05 +1.100530E-05 -4.767368E-05 +1.044156E-04 -1.046248E-05 +1.044156E-04 +4.932361E-03 
 +2.272390E-04 -1.751764E-05 +1.284286E-04 -1.751764E-05 -1.647821E-04 +1.259756E-04 +1.284286E-04 +1.259756E-04 +5.095677E-03 
 +4.436213E-04 +1.571494E-05 +1.268597E-04 +1.571494E-05 -3.504832E-04 +5.824367E-05 +1.268597E-04 +5.824367E-05 +5.333608E-03 
 +3.298699E-04 +1.470982E-04 -7.603534E-05 +1.470982E-04 -3.442698E-04 +3.390476E-05 -7.603534E-05 +3.390476E-05 +5.316105E-03 
 +2.223582E-04 +1.691816E-04 -1.600638E-04 +1.691816E-04 -1.165697E-04 +6.408171E-05 -1.600638E-04 +6.408171E-05 +5.181912E-03 
 +1.850369E-04 +1.883871E-04 -1.035220E-04 +1.883871E-04 +3.018840E-05 +7.660048E-05 -1.035220E-04 +7.660048E-05 +5.000956E-03 
 +2.418406E-04 +7.283743E-05 -3.049142E-05 +7.283743E-05 +1.552532E-05 +1.394296E-04 -3.049142E-05 +1.394296E-04 +4.818624E-03 
 +2.952212E-04 +1.549285E-04 +3.154569E-05 +1.549285E-04 +9.390017E-05 +2.234031E-04 +3.154569E-05 +2.234031E-04 +4.832262E-03 
 -2.364229E-04 -7.661818E-05 -6.421214E-05 -7.661818E-05 +1.577026E-04 +3.194610E-04 -6.421214E-05 +3.194610E-04 +4.997480E-03 
 -3.487523E-04 -2.990735E-04 -7.155641E-05 -2.990735E-04 +1.260470E-04 +3.125806E-04 -7.155641E-05 +3.125806E-04 +5.087766E-03 
 -4.214802E-04 -3.955595E-04 -8.343232E-05 -3.955595E-04 +1.331211E-04 +2.855345E-04 -8.343232E-05 +2.855345E-04 +5.144004E-03 
 -3.610705E-04 -2.587386E-04 -7.564346E-05 -2.587386E-04 +4.585594E-05 +2.817363E-04 -7.564346E-05 +2.817363E-04 +5.189596E-03 
 -3.013353E-04 -2.970850E-04 -9.775925E-05 -2.970850E-04 -2.848242E-05 +1.639177E-04 -9.775925E-05 +1.639177E-04 +5.130058E-03 
 -3.021210E-04 -2.334091E-04 -1.514288E-04 -2.334091E-04 -1.420964E-04 +6.616935E-05 -1.514288E-04 +6.616935E-05 +5.086564E-03 
 -1.213473E-04 -4.235510E-05 -2.010341E-04 -4.235510E-05 -2.009549E-04 -6.267962E-05 -2.010341E-04 -6.267962E-05 +5.107313E-03 
 +7.461371E-05 +3.872707E-06 -2.479601E-04 +3.872707E-06 -1.483909E-04 -1.311786E-04 -2.479601E-04 -1.311786E-04 +5.115753E-03 
 +7.728249E-05 +5.780603E-05 -1.962087E-04 +5.780603E-05 -1.188247E-04 -9.772806E-05 -1.962087E-04 -9.772806E-05 +5.126127E-03 
 -9.213211E-05 +2.327175E-04 -4.456553E-05 +2.327175E-04 -9.600819E-05 -1.095587E-04 -4.456553E-05 -1.095587E-04 +5.174284E-03 
 -1.185114E-04 +3.690206E-04 -1.801299E-05 +3.690206E-04 -1.126686E-04 -1.194726E-04 -1.801299E-05 -1.194726E-04 +5.129808E-03 
 +2.496070E-05 +1.130883E-05 -1.654067E-04 +1.130883E-05 -1.593728E-04 -4.092942E-05 -1.654067E-04 -4.092942E-05 +4.990052E-03 
 +3.186375E-05 +3.185891E-05 -1.170686E-04 +3.185891E-05 -3.880553E-05 +5.630058E-05 -1.170686E-04 +5.630058E-05 +4.963811E-03 
 +9.501857E-05 -8.893846E-06 -9.892888E-05 -8.893846E-06 -5.099691E-05 +1.135636E-04 -9.892888E-05 +1.135636E-04 +4.918066E-03 
 +1.291063E-04 -5.332829E-05 +4.583480E-06 -5.332829E-05 -1.820109E-04 +1.341422E-04 +4.583480E-06 +1.341422E-04 +5.036505E-03 
 +2.927717E-04 -9.551688E-05 +3.534305E-05 -9.551688E-05 -4.261510E-04 +3.447827E-05 +3.534305E-05 +3.447827E-05 +5.279645E-03 
 +3.342070E-04 +2.372783E-05 -7.814934E-05 +2.372783E-05 -4.875054E-04 -4.284215E-05 -7.814934E-05 -4.284215E-05 +5.293793E-03 
 +4.239560E-04 +1.452328E-05 -1.059732E-04 +1.452328E-05 -3.839444E-04 -2.124488E-05 -1.059732E-04 -2.124488E-05 +5.244566E-03 
 +2.837204E-04 +1.172661E-04 -9.369851E-05 +1.172661E-04 -3.040926E-04 +5.861723E-05 -9.369851E-05 +5.861723E-05 +5.179726E-03 
 +2.333583E-04 +8.958255E-05 -3.646787E-05 +8.958255E-05 -1.161323E-04 +1.650480E-04 -3.646787E-05 +1.650480E-04 +4.948491E-03 
 +1.083661E-04 +8.748809E-05 -2.705370E-05 +8.748809E-05 +5.655723E-05 +2.295857E-04 -2.705370E-05 +2.295857E-04 +4.878941E-03 
 -4.313308E-04 -2.133950E-04 -9.605364E-05 -2.133950E-04 +1.527973E-04 +2.558588E-04 -9.605364E-05 +2.558588E-04 +5.048954E-03 
 -4.852159E-04 -2.702761E-04 -6.830030E-05 -2.702761E-04 +1.570437E-04 +2.267059E-04 -6.830030E-05 +2.267059E-04 +5.154301E-03 
 -4.453956E-04 -3.182895E-04 -1.384076E-05 -3.182895E-04 +1.215069E-04 +2.090483E-04 -1.384076E-05 +2.090483E-04 +5.174730E-03 
 -4.622277E-04 -3.017566E-04 -1.096923E-05 -3.017566E-04 +1.312852E-04 +2.005133E-04 -1.096923E-05 +2.005133E-04 +5.167413E-03 
 -4.316684E-04 -3.176975E-04 -3.956228E-05 -3.176975E-04 -2.353177E-05 +1.516224E-04 -3.956228E-05 +1.516224E-04 +5.093953E-03 
 -1.127736E-04 -1.417732E-04 -9.284026E-05 -1.417732E-04 -1.089773E-04 +1.021570E-04 -9.284026E-05 +1.021570E-04 +5.079777E-03 
 +1.739219E-04 +3.406589E-06 -2.105800E-04 +3.406589E-06 -1.431030E-04 -6.953616E-06 -2.105800E-04 -6.953616E-06 +5.140944E-03 
 +1.225074E-04 +1.673424E-05 -2.765905E-04 +1.673424E-05 -1.785801E-04 -8.032224E-05 -2.765905E-04 -8.032224E-05 +5.124936E-03 
 +1.104831E-04 +4.568421E-05 -2.225304E-04 +4.568421E-05 -1.108488E-04 -7.196360E-05 -2.225304E-04 -7.196360E-05 +5.074382E-03 
 +4.990165E-05 +1.623771E-04 -1.473310E-04 +1.623771E-04 -1.173731E-04 -1.103427E-04 -1.473310E-04 -1.103427E-04 +5.047819E-03 
 -4.550581E-05 +3.424495E-04 -1.220359E-04 +3.424495E-04 -2.044875E-04 -1.381171E-04 -1.220359E-04 -1.381171E-04 +5.014919E-03 
 +4.650247E-05 +8.940513E-05 -1.723540E-04 +8.940513E-05 -2.045348E-04 -4.496490E-05 -1.723540E-04 -4.496490E-05 +4.909690E-03 
 +1.112051E-04 +1.665486E-04 -1.921593E-04 +1.665486E-04 -1.717043E-04 +4.420164E-05 -1.921593E-04 +4.420164E-05 +4.914311E-03 
 +1.522866E-04 +1.274283E-04 -2.017096E-04 +1.274283E-04 -1.701140E-04 +8.866971E-05 -2.017096E-04 +8.866971E-05 +4.893523E-03 
 +1.157742E-04 +8.795924E-05 -9.237928E-05 +8.795924E-05 -1.323653E-04 +1.282311E-04 -9.237928E-05 +1.282311E-04 +4.972121E-03 
 -1.577836E-05 +6.748844E-05 -6.351226E-05 +6.748844E-05 -5.393565E-06 +1.529966E-05 -6.351226E-05 +1.529966E-05 +5.121649E-03 
 +5.617406E-05 +2.146354E-04 -5.491887E-05 +2.146354E-04 +1.165357E-06 -1.172657E-04 -5.491887E-05 -1.172657E-04 +5.187951E-03 
 +4.451219E-04 -5.738386E-05 -7.408040E-05 -5.738386E-05 -1.974101E-04 -9.326815E-05 -7.408040E-05 -9.326815E-05 +5.194566E-03 
 +2.682566E-04 -1.572836E-04 -8.371155E-05 -1.572836E-04 -3.364753E-04 +7.872744E-06 -8.371155E-05 +7.872744E-06 +5.190280E-03 
 +2.365849E-04 -2.627079E-04 -7.802294E-05 -2.627079E-04 -3.513306E-04 +6.390008E-05 -7.802294E-05 +6.390008E-05 +5.099987E-03 
 -1.009460E-05 -1.331281E-04 -7.134890E-05 -1.331281E-04 -2.913105E-04 +8.349046E-05 -7.134890E-05 +8.349046E-05 +5.076851E-03 
 -2.500539E-04 -1.567967E-04 -3.809855E-05 -1.567967E-04 -7.794126E-05 +1.280758E-04 -3.809855E-05 +1.280758E-04 +5.132446E-03 
 -4.750899E-04 -2.579784E-04 -4.003873E-06 -2.579784E-04 +1.058256E-04 +1.428159E-04 -4.003873E-06 +1.428159E-04 +5.165435E-03 
 -4.984463E-04 -2.453632E-04 +1.516490E-05 -2.453632E-04 +1.508637E-04 +1.255409E-04 +1.516490E-05 +1.255409E-04 +5.183719E-03 
 -5.226715E-04 -2.056768E-04 +3.420859E-05 -2.056768E-04 +9.454824E-05 +1.275139E-04 +3.420859E-05 +1.275139E-04 +5.186988E-03 
 -4.411168E-04 -2.447201E-04 +7.742430E-05 -2.447201E-04 -1.430809E-05 +1.314303E-04 +7.742430E-05 +1.314303E-04 +5.112380E-03 
 +1.286170E-04 +5.275100E-05 -2.073797E-05 +5.275100E-05 -9.074214E-05 +9.075503E-05 -2.073797E-05 +9.075503E-05 +5.083244E-03 
 +2.082745E-04 +8.360005E-05 -1.393502E-04 +8.360005E-05 -1.414816E-04 -1.109115E-05 -1.393502E-04 -1.109115E-05 +5.156076E-03 
 +1.261380E-04 +1.144330E-04 -2.387758E-04 +1.144330E-04 -1.380407E-04 -4.707037E-05 -2.387758E-04 -4.707037E-05 +5.131378E-03 
 +5.128457E-05 +6.408575E-05 -2.153436E-04 +6.408575E-05 -1.154871E-04 -5.507996E-05 -2.153436E-04 -5.507996E-05 +5.081530E-03 
 +9.844601E-05 +9.910873E-05 -2.283094E-04 +9.910873E-05 -1.033340E-04 -1.166686E-04 -2.283094E-04 -1.166686E-04 +4.989270E-03 
 +1.685793E-04 +1.758829E-04 -2.195891E-04 +1.758829E-04 -1.510180E-04 -1.518594E-04 -2.195891E-04 -1.518594E-04 +4.877596E-03 
 +1.938001E-04 +9.736932E-05 -1.491152E-04 +9.736932E-05 -2.156088E-04 +5.967794E-05 -1.491152E-04 +5.967794E-05 +4.837847E-03 
 +1.994093E-04 +1.150222E-04 -1.954029E-04 +1.150222E-04 -1.547840E-04 +1.063611E-04 -1.954029E-04 +1.063611E-04 +4.885500E-03 
 +2.680785E-04 +4.836269E-05 -1.723177E-04 +4.836269E-05 -1.584378E-04 +8.526115E-05 -1.723177E-04 +8.526115E-05 +4.925286E-03 
 -2.236898E-05 +7.775719E-05 -3.475231E-05 +7.775719E-05 -2.083415E-05 +6.772016E-05 -3.475231E-05 +6.772016E-05 +5.005665E-03 
 -2.121201E-04 -2.589498E-05 -3.745379E-05 -2.589498E-05 +1.549622E-04 -8.380574E-06 -3.745379E-05 -8.380574E-06 +5.070944E-03 
 -2.354948E-04 +6.169644E-05 -3.802375E-05 +6.169644E-05 +1.165683E-04 -1.149087E-04 -3.802375E-05 -1.149087E-04 +5.119152E-03 
 +1.486940E-04 -2.052811E-04 -7.884619E-05 -2.052811E-04 -2.260538E-05 -1.092242E-04 -7.884619E-05 -1.092242E-04 +5.111981E-03 
 +2.074091E-04 -1.669010E-04 -5.570531E-05 -1.669010E-04 -2.068577E-04 -4.182217E-05 -5.570531E-05 -4.182217E-05 +5.110138E-03 
 +2.155352E-04 -1.490389E-04 -6.440542E-05 -1.490389E-04 -3.523935E-04 +2.758173E-05 -6.440542E-05 +2.758173E-05 +5.139962E-03 
 +8.752114E-06 -2.401367E-05 -5.146064E-05 -2.401367E-05 -3.304231E-04 +5.176901E-05 -5.146064E-05 +5.176901E-05 +5.129363E-03 
 -5.021849E-05 -1.363899E-04 -1.511300E-05 -1.363899E-04 -1.763068E-04 +5.089141E-05 -1.511300E-05 +5.089141E-05 +5.043242E-03 
 -2.391901E-04 -2.116721E-04 +6.663658E-06 -2.116721E-04 +6.907636E-05 +7.146930E-05 +6.663658E-06 +7.146930E-05 +5.026515E-03 
 -4.607715E-04 -2.203805E-04 +2.548394E-05 -2.203805E-04 +1.125850E-04 +4.649348E-05 +2.548394E-05 +4.649348E-05 +5.126453E-03 
 -4.260809E-04 -8.990315E-05 +3.388819E-05 -8.990315E-05 +5.567857E-05 +8.306840E-05 +3.388819E-05 +8.306840E-05 +5.162210E-03 
 -2.792141E-04 -1.529974E-06 +1.045819E-04 -1.529974E-06 +1.287892E-04 +1.313160E-04 +1.045819E-04 +1.313160E-04 +5.079021E-03 
 +1.147188E-04 +1.617698E-04 +3.330470E-05 +1.617698E-04 +6.770936E-06 +9.005449E-05 +3.330470E-05 +9.005449E-05 +5.056120E-03 
 +1.240154E-04 +1.594144E-04 -7.866074E-05 +1.594144E-04 -8.050894E-05 +1.387686E-05 -7.866074E-05 +1.387686E-05 +5.117045E-03 
 +6.154217E-05 +1.498513E-04 -1.967717E-04 +1.498513E-04 -5.490562E-05 -2.848349E-05 -1.967717E-04 -2.848349E-05 +5.123150E-03 
 +1.769616E-05 +1.182442E-04 -2.136618E-04 +1.182442E-04 -1.082083E-04 -5.864618E-05 -2.136618E-04 -5.864618E-05 +5.132725E-03 
 +8.283733E-05 +1.982168E-04 -2.489500E-04 +1.982168E-04 -1.798135E-04 -9.509996E-05 -2.489500E-04 -9.509996E-05 +5.014145E-03 
 +2.828712E-04 +2.111302E-04 -1.914191E-04 +2.111302E-04 -2.564917E-04 -5.836068E-05 -1.914191E-04 -5.836068E-05 +4.824820E-03 
 +2.649182E-04 +1.553986E-04 -1.523972E-04 +1.553986E-04 -1.295640E-04 -6.275186E-05 -1.523972E-04 -6.275186E-05 +4.750841E-03 
 +2.726359E-04 +1.135558E-04 -1.779490E-04 +1.135558E-04 -1.559355E-04 +3.887626E-05 -1.779490E-04 +3.887626E-05 +4.841078E-03 
 +1.617176E-04 +2.083785E-06 -1.015747E-04 +2.083785E-06 -7.651432E-05 +1.005614E-04 -1.015747E-04 +1.005614E-04 +4.960065E-03 
 -1.150389E-04 +1.635375E-05 +1.985000E-05 +1.635375E-05 +6.085972E-05 +3.295413E-05 +1.985000E-05 +3.295413E-05 +5.034188E-03 
 -2.815797E-04 -1.142445E-05 -2.098135E-06 -1.142445E-05 +1.298688E-04 -6.914905E-05 -2.098135E-06 -6.914905E-05 +5.061466E-03 
 -2.807882E-04 +6.481987E-05 -1.913445E-05 +6.481987E-05 +4.553912E-05 -1.129082E-04 -1.913445E-05 -1.129082E-04 +5.091439E-03 
 -7.272560E-05 +1.685096E-05 -3.595530E-05 +1.685096E-05 -2.044197E-05 -1.015220E-04 -3.595530E-05 -1.015220E-04 +5.096767E-03 
 +1.243959E-04 -1.674743E-04 -1.191664E-05 -1.674743E-04 -1.506394E-04 -3.214736E-05 -1.191664E-05 -3.214736E-05 +5.042865E-03 
 +1.348694E-04 -9.260039E-05 -3.528402E-07 -9.260039E-05 -2.616946E-04 +4.677560E-05 -3.528402E-07 +4.677560E-05 +4.995033E-03 
 -3.439796E-06 +7.198983E-05 -1.281184E-05 +7.198983E-05 -1.796747E-04 +1.830625E-05 -1.281184E-05 +1.830625E-05 +4.949493E-03 
 +1.044525E-04 +9.481270E-05 -6.882274E-05 +9.481270E-05 -1.854186E-04 -5.875454E-05 -6.882274E-05 -5.875454E-05 +4.828810E-03 
 +5.399044E-05 +4.182503E-05 -4.724396E-05 +4.182503E-05 -9.061989E-05 -3.709940E-05 -4.724396E-05 -3.709940E-05 +4.796681E-03 
 -3.033006E-04 -1.382597E-04 +1.443106E-05 -1.382597E-04 +6.842751E-05 +3.804558E-07 +1.443106E-05 +3.804558E-07 +4.956515E-03 
 -2.598101E-04 +5.628499E-05 +2.461516E-05 +5.628499E-05 +8.741246E-05 +5.913713E-05 +2.461516E-05 +5.913713E-05 +5.059761E-03 
 -1.444730E-04 +6.760552E-05 +6.443375E-05 +6.760552E-05 +7.734126E-05 +1.076972E-04 +6.443375E-05 +1.076972E-04 +5.031772E-03 
 -1.015707E-04 +6.961700E-05 +8.920918E-05 +6.961700E-05 +1.220658E-04 +8.693623E-05 +8.920918E-05 +8.693623E-05 +5.015452E-03 
 +2.127666E-05 +1.639177E-04 +3.337870E-05 +1.639177E-04 +5.801606E-05 +5.516077E-05 +3.337870E-05 +5.516077E-05 +4.976561E-03 
 +7.139898E-05 +1.913084E-04 -8.443965E-05 +1.913084E-04 -1.073038E-06 +3.014712E-05 -8.443965E-05 +3.014712E-05 +4.980593E-03 
 -4.704592E-06 +1.946205E-04 -1.435416E-04 +1.946205E-04 +3.718762E-05 -1.924966E-05 -1.435416E-04 -1.924966E-05 +4.997705E-03 
 +1.144894E-04 +1.826886E-04 -1.818942E-04 +1.826886E-04 -8.240521E-06 -9.368961E-05 -1.818942E-04 -9.368961E-05 +4.842242E-03 
 +2.431423E-04 +2.214757E-04 -1.403608E-04 +2.214757E-04 -1.051941E-04 -1.223605E-04 -1.403608E-04 -1.223605E-04 +4.720948E-03 
 +3.119192E-04 +1.818684E-04 -1.737220E-04 +1.818684E-04 -3.654859E-05 -7.983989E-05 -1.737220E-04 -7.983989E-05 +4.698256E-03 
 +2.249259E-04 +8.949093E-05 -1.133256E-04 +8.949093E-05 +4.573492E-06 -3.679435E-05 -1.133256E-04 -3.679435E-05 +4.825435E-03 
 -1.957721E-05 +5.021548E-05 -4.639452E-05 +5.021548E-05 +7.419102E-05 -1.267457E-05 -4.639452E-05 -1.267457E-05 +4.917160E-03 
 -6.754976E-05 +9.680600E-05 -5.336428E-06 +9.680600E-05 +1.065923E-04 -4.846659E-05 -5.336428E-06 -4.846659E-05 +4.937915E-03 
 -2.111056E-04 +6.734139E-05 -2.766811E-05 +6.734139E-05 +7.513789E-05 -9.990116E-05 -2.766811E-05 -9.990116E-05 +4.962137E-03 
 -1.845791E-04 +7.478521E-05 -3.370669E-05 +7.478521E-05 -8.999846E-06 -1.779591E-04 -3.370669E-05 -1.779591E-04 +4.991951E-03 
 -2.359758E-04 +1.065136E-04 +4.196135E-05 +1.065136E-04 -7.294205E-05 -1.720960E-04 +4.196135E-05 -1.720960E-04 +4.995595E-03 
 -6.492002E-05 -1.388115E-04 +6.536503E-05 -1.388115E-04 -8.496271E-05 -8.291705E-05 +6.536503E-05 -8.291705E-05 +4.895686E-03 
 +9.699438E-05 +1.860573E-04 +1.723062E-05 +1.860573E-04 -1.562933E-05 -6.377482E-05 +1.723062E-05 -6.377482E-05 +4.782620E-03 
 +9.372068E-05 +3.118669E-04 +9.800352E-06 +3.118669E-04 +2.693278E-05 -1.358829E-04 +9.800352E-06 -1.358829E-04 +4.788138E-03 
 +1.634646E-04 +2.264713E-04 -2.115034E-05 +2.264713E-04 +2.486863E-06 -1.546009E-04 -2.115034E-05 -1.546009E-04 +4.785227E-03 
 +1.645315E-04 +1.321559E-04 -7.494194E-05 +1.321559E-04 -3.384261E-05 -9.401001E-05 -7.494194E-05 -9.401001E-05 +4.712361E-03 
 +9.711127E-06 +2.922849E-05 -4.546307E-05 +2.922849E-05 +8.209353E-05 -6.413598E-05 -4.546307E-05 -6.413598E-05 +4.778790E-03 
 -2.807800E-04 +3.963274E-05 +6.948044E-05 +3.963274E-05 +2.088692E-04 -5.018788E-05 +6.948044E-05 -5.018788E-05 +4.950005E-03 
 -2.347763E-04 +1.397290E-05 +6.928495E-05 +1.397290E-05 +2.395092E-04 -6.164116E-05 +6.928495E-05 -6.164116E-05 +5.007794E-03 
 -2.350727E-04 -2.495173E-05 +9.541842E-05 -2.495173E-05 +2.777241E-04 -3.940732E-05 +9.541842E-05 -3.940732E-05 +4.982231E-03 
 -1.165394E-04 +1.711142E-06 +6.689436E-05 +1.711142E-06 +2.468618E-04 +5.874329E-05 +6.689436E-05 +5.874329E-05 +4.886466E-03 
 +6.567281E-05 +5.787916E-05 +5.677930E-06 +5.787916E-05 +2.858162E-04 +1.583926E-04 +5.677930E-06 +1.583926E-04 +4.805795E-03 
 +9.721522E-05 +1.780279E-05 -5.253701E-05 +1.780279E-05 +2.654911E-04 +1.282960E-04 -5.253701E-05 +1.282960E-04 +4.765710E-03 
 +1.648152E-04 +7.453277E-05 -1.412363E-04 +7.453277E-05 +1.157913E-04 -3.333310E-05 -1.412363E-04 -3.333310E-05 +4.671547E-03 
 +2.579219E-04 +1.889120E-04 -1.453510E-04 +1.889120E-04 +1.451046E-05 -9.448785E-05 -1.453510E-04 -9.448785E-05 +4.629312E-03 
 +2.672585E-04 +2.012101E-04 -7.981956E-05 +2.012101E-04 +4.339519E-05 -3.428898E-05 -7.981956E-05 -3.428898E-05 +4.727540E-03 
 +1.519674E-05 +8.866203E-05 +9.233616E-05 +8.866203E-05 +1.541339E-04 +1.069429E-04 +9.233616E-05 +1.069429E-04 +4.810526E-03 
 -3.922136E-05 -2.581827E-05 +7.099822E-05 -2.581827E-05 +2.085886E-04 +4.359677E-05 +7.099822E-05 +4.359677E-05 +4.762677E-03 
 -4.386715E-05 +1.227508E-05 +3.657955E-05 +1.227508E-05 +1.838253E-04 -6.216986E-05 +3.657955E-05 -6.216986E-05 +4.729444E-03 
 -1.143050E-04 -5.755694E-05 +3.781766E-06 -5.755694E-05 +1.784212E-04 -9.650229E-05 +3.781766E-06 -9.650229E-05 +4.804032E-03 
 -1.940898E-04 -1.258295E-04 -4.613988E-05 -1.258295E-04 +1.352915E-04 -1.655037E-04 -4.613988E-05 -1.655037E-04 +4.844867E-03 
 -1.551712E-04 -2.786040E-05 -3.061505E-05 -2.786040E-05 -2.247797E-05 -1.989002E-04 -3.061505E-05 -1.989002E-04 +4.794077E-03 
 -7.002745E-05 +7.211170E-05 -1.206850E-05 +7.211170E-05 +7.398046E-05 -1.371553E-04 -1.206850E-05 -1.371553E-04 +4.732552E-03 
 -2.000087E-05 +2.535295E-04 -5.942262E-05 +2.535295E-04 +2.371016E-04 -7.603461E-05 -5.942262E-05 -7.603461E-05 +4.725955E-03 
 +1.071490E-04 +2.240627E-04 -3.228411E-05 +2.240627E-04 +1.434597E-04 -7.105822E-05 -3.228411E-05 -7.105822E-05 +4.752571E-03 
 +1.378390E-04 +1.825365E-04 -1.313215E-05 +1.825365E-04 +8.597072E-05 -7.316891E-05 -1.313215E-05 -7.316891E-05 +4.775599E-03 
 +2.018238E-04 +8.774807E-05 -9.862222E-05 +8.774807E-05 +6.574473E-05 -4.060131E-05 -9.862222E-05 -4.060131E-05 +4.686314E-03 
 +1.824733E-04 -3.415965E-05 -9.191605E-05 -3.415965E-05 +8.083328E-05 -1.795187E-05 -9.191605E-05 -1.795187E-05 +4.718438E-03 
 -3.429330E-04 -1.172187E-04 +1.058282E-04 -1.172187E-04 +1.702779E-04 -3.624598E-05 +1.058282E-04 -3.624598E-05 +4.932420E-03 
 -3.025281E-04 -5.399870E-05 +7.012390E-05 -5.399870E-05 +2.295338E-04 -5.585410E-05 +7.012390E-05 -5.585410E-05 +4.993097E-03 
 -2.457042E-04 -1.890416E-05 +9.180255E-05 -1.890416E-05 +2.619999E-04 -4.459760E-05 +9.180255E-05 -4.459760E-05 +4.966679E-03 
 -2.039173E-04 +8.359482E-05 +7.001135E-05 +8.359482E-05 +3.051647E-04 +4.433037E-05 +7.001135E-05 +4.433037E-05 +4.936897E-03 
 -8.070585E-05 +1.751603E-04 +6.032993E-06 +1.751603E-04 +2.654523E-04 +2.130617E-04 +6.032993E-06 +2.130617E-04 +4.815360E-03 
 +3.064516E-04 +1.475337E-05 -8.006208E-05 +1.475337E-05 +1.713967E-04 +1.864706E-04 -8.006208E-05 +1.864706E-04 +4.695709E-03 
 +2.914765E-04 +9.042464E-05 -1.160350E-04 +9.042464E-05 +1.171863E-04 -8.477120E-06 -1.160350E-04 -8.477120E-06 +4.655053E-03 
 +3.029064E-04 +2.036220E-04 -1.430505E-04 +2.036220E-04 +5.128424E-05 -1.028798E-04 -1.430505E-04 -1.028798E-04 +4.643095E-03 
 +1.699132E-04 +1.499117E-04 +1.346748E-04 +1.499117E-04 +7.427766E-05 +7.637145E-05 +1.346748E-04 +7.637145E-05 +4.793555E-03 
 -2.691800E-05 +2.134180E-04 +2.523358E-04 +2.134180E-04 +1.861531E-04 +1.281079E-04 +2.523358E-04 +1.281079E-04 +4.819516E-03 
 -1.715910E-04 +8.094682E-05 +1.729269E-04 +8.094682E-05 +3.376176E-04 +6.617623E-05 +1.729269E-04 +6.617623E-05 +4.719048E-03 
 -4.230526E-05 +5.321854E-06 +6.953850E-05 +5.321854E-06 +3.338503E-04 -6.635716E-06 +6.953850E-05 -6.635716E-06 +4.659378E-03 
 -1.088017E-04 -1.102264E-04 +5.031665E-05 -1.102264E-04 +1.867632E-04 -4.961549E-05 +5.031665E-05 -4.961549E-05 +4.791383E-03 
 -1.728256E-04 -1.240677E-04 +5.769970E-06 -1.240677E-04 +1.268833E-04 -5.684181E-05 +5.769970E-06 -5.684181E-05 +4.858461E-03 
 -1.751192E-04 -2.315370E-04 -6.719458E-05 -2.315370E-04 +8.563139E-05 -8.001827E-05 -6.719458E-05 -8.001827E-05 +4.765870E-03 
 -1.336744E-04 -1.391378E-04 -8.190846E-05 -1.391378E-04 +1.101908E-04 -9.770168E-05 -8.190846E-05 -9.770168E-05 +4.705679E-03 
 +1.187132E-05 -5.393352E-05 -1.251740E-04 -5.393352E-05 +1.849593E-04 -4.907096E-05 -1.251740E-04 -4.907096E-05 +4.753406E-03 
 +1.071196E-04 +9.912396E-05 -8.924907E-05 +9.912396E-05 +1.492736E-04 -2.749585E-05 -8.924907E-05 -2.749585E-05 +4.767076E-03 
 +1.679197E-04 +8.464687E-05 -5.926566E-05 +8.464687E-05 +1.269687E-04 -3.912173E-05 -5.926566E-05 -3.912173E-05 +4.748009E-03 
 +2.621936E-04 +1.099013E-05 -1.141455E-04 +1.099013E-05 +1.043099E-04 -3.412943E-05 -1.141455E-04 -3.412943E-05 +4.697900E-03 
 +7.712474E-05 -7.780992E-05 -7.848657E-05 -7.780992E-05 +1.046295E-04 -2.106788E-05 -7.848657E-05 -2.106788E-05 +4.775363E-03 
 -3.029188E-04 -1.897856E-04 +4.352658E-05 -1.897856E-04 +1.598818E-04 -5.236304E-05 +4.352658E-05 -5.236304E-05 +4.960479E-03 
 -2.391039E-04 -1.612998E-04 +2.177267E-05 -1.612998E-04 +1.776796E-04 -7.821820E-05 +2.177267E-05 -7.821820E-05 +4.980235E-03 
 -1.704160E-04 -6.897919E-05 +5.803458E-05 -6.897919E-05 +1.618724E-04 -2.742879E-05 +5.803458E-05 -2.742879E-05 +4.948489E-03 
 -1.934004E-04 +4.836014E-05 +5.900272E-05 +4.836014E-05 +2.366068E-04 +7.619743E-05 +5.900272E-05 +7.619743E-05 +4.961385E-03 
 -1.489029E-04 +9.135954E-05 -3.695610E-05 +9.135954E-05 +2.023733E-04 +1.653208E-04 -3.695610E-05 +1.653208E-04 +4.826426E-03 
 +4.303792E-04 +1.331606E-05 -2.062424E-04 +1.331606E-05 +6.490375E-05 +1.068695E-04 -2.062424E-04 +1.068695E-04 +4.658834E-03 
 +3.366348E-04 +6.310449E-05 -8.142097E-05 +6.310449E-05 +6.135761E-05 -1.058828E-05 -8.142097E-05 -1.058828E-05 +4.676036E-03 
 +3.228915E-04 +7.106487E-05 -5.011715E-05 +7.106487E-05 +7.933318E-05 -1.479173E-05 -5.011715E-05 -1.479173E-05 +4.737797E-03 
 +1.518930E-04 +5.032407E-05 +1.741771E-04 +5.032407E-05 +1.143014E-04 +2.400931E-05 +1.741771E-04 +2.400931E-05 +4.794008E-03 
 +8.012766E-05 +1.885280E-04 +2.215392E-04 +1.885280E-04 +1.608931E-04 +5.886238E-05 +2.215392E-04 +5.886238E-05 +4.871195E-03 
 -1.493468E-04 +1.367032E-04 +1.194545E-04 +1.367032E-04 +2.791618E-04 +1.119514E-04 +1.194545E-04 +1.119514E-04 +4.829492E-03 
 -1.460530E-04 +4.172588E-05 +5.129291E-05 +4.172588E-05 +2.931824E-04 +6.977846E-05 +5.129291E-05 +6.977846E-05 +4.814280E-03 
 -2.846126E-04 -2.190207E-04 +5.589975E-05 -2.190207E-04 +1.637204E-04 +8.201531E-05 +5.589975E-05 +8.201531E-05 +4.984408E-03 
 -2.352532E-04 -2.842935E-04 +8.595185E-05 -2.842935E-04 +7.343988E-05 +3.675384E-05 +8.595185E-05 +3.675384E-05 +5.025999E-03 
 -2.984713E-04 -3.759680E-04 +2.508735E-05 -3.759680E-04 +1.392655E-04 -6.464671E-05 +2.508735E-05 -6.464671E-05 +4.903489E-03 
 -1.929055E-04 -5.897978E-05 -5.586479E-05 -5.897978E-05 +1.600137E-04 -1.896987E-04 -5.586479E-05 -1.896987E-04 +4.810797E-03 
 +9.527459E-05 -6.314942E-05 -1.553742E-04 -6.314942E-05 +1.195020E-04 -1.607127E-04 -1.553742E-04 -1.607127E-04 +4.796691E-03 
 +1.015539E-04 -4.916459E-05 -9.374108E-05 -4.916459E-05 +1.703777E-04 -2.951398E-05 -9.374108E-05 -2.951398E-05 +4.788222E-03 
 +2.315907E-04 -1.102600E-04 -9.829565E-05 -1.102600E-04 +1.320036E-04 -2.227345E-05 -9.829565E-05 -2.227345E-05 +4.785874E-03 
 +2.840078E-04 -1.591795E-04 -1.115067E-04 -1.591795E-04 +8.658331E-05 +4.097981E-06 -1.115067E-04 +4.097981E-06 +4.801579E-03 
 -4.947379E-05 -2.747692E-04 -4.148607E-05 -2.747692E-04 +1.287970E-04 +5.228813E-05 -4.148607E-05 +5.228813E-05 +4.850447E-03 
 -1.046549E-04 -2.547163E-04 -7.018491E-05 -2.547163E-04 +1.283579E-04 -6.230985E-06 -7.018491E-05 -6.230985E-06 +4.931552E-03 
 -1.568143E-04 -2.046377E-04 -7.095829E-05 -2.046377E-04 +9.874111E-05 -7.725031E-05 -7.095829E-05 -7.725031E-05 +4.958618E-03 
 -1.436059E-04 -1.079535E-04 -5.495582E-05 -1.079535E-04 +1.125910E-04 -6.749096E-05 -5.495582E-05 -6.749096E-05 +4.947246E-03 
 -1.544766E-04 -1.457658E-05 -6.509791E-05 -1.457658E-05 +8.927791E-05 -5.826930E-06 -6.509791E-05 -5.826930E-06 +4.961154E-03 
 -1.437478E-05 +5.990341E-06 -1.565100E-04 +5.990341E-06 -4.507757E-06 +6.873469E-05 -1.565100E-04 +6.873469E-05 +4.832082E-03 
 +4.763133E-04 +1.232368E-05 -2.565325E-04 +1.232368E-05 -1.869850E-06 +1.384836E-04 -2.565325E-04 +1.384836E-04 +4.682927E-03 
 +2.669450E-04 +5.861701E-05 -5.348088E-05 +5.861701E-05 +3.604615E-05 +1.917572E-04 -5.348088E-05 +1.917572E-04 +4.730330E-03 
 +2.422892E-04 +1.660930E-05 +9.245840E-06 +1.660930E-05 +8.184042E-05 +1.454617E-04 +9.245840E-06 +1.454617E-04 +4.777888E-03 
 +1.428209E-04 +6.126152E-05 +9.745214E-05 +6.126152E-05 +1.360150E-04 -2.338029E-05 +9.745214E-05 -2.338029E-05 +4.787166E-03 
 +1.339543E-04 +1.805275E-04 +9.590991E-05 +1.805275E-04 +1.135691E-04 +5.892095E-05 +9.590991E-05 +5.892095E-05 +4.898328E-03 
 -1.969212E-05 +1.355811E-04 -1.799699E-05 +1.355811E-04 +1.847752E-04 +1.356186E-04 -1.799699E-05 +1.356186E-04 +4.941168E-03 
 -2.864303E-04 -1.341110E-04 +7.906058E-06 -1.341110E-04 +2.817637E-04 +2.003489E-05 +7.906058E-06 +2.003489E-05 +4.971205E-03 
 -3.981886E-04 -3.026598E-04 +5.966258E-05 -3.026598E-04 +2.185458E-04 +4.554800E-05 +5.966258E-05 +4.554800E-05 +5.028744E-03 
 -2.867189E-04 -1.772466E-04 +8.403910E-05 -1.772466E-04 +6.365686E-05 +3.329502E-05 +8.403910E-05 +3.329502E-05 +5.023054E-03 
 -1.951299E-04 -5.222967E-06 +6.599474E-06 -5.222967E-06 +1.047208E-04 -1.045884E-04 +6.599474E-06 -1.045884E-04 +4.965504E-03 
 -1.603684E-04 +8.237762E-05 -6.640799E-05 +8.237762E-05 +1.635976E-04 -1.910147E-04 -6.640799E-05 -1.910147E-04 +4.915648E-03 
 -4.616381E-05 +1.796385E-04 -1.147370E-04 +1.796385E-04 +1.239878E-04 -1.428734E-04 -1.147370E-04 -1.428734E-04 +4.882440E-03 
 -5.267072E-05 +1.505012E-04 -5.045293E-05 +1.505012E-04 +1.783757E-04 +1.161653E-05 -5.045293E-05 +1.161653E-05 +4.860668E-03 
 +1.804026E-04 -1.116427E-04 -9.970185E-05 -1.116427E-04 +1.752651E-04 +2.279014E-05 -9.970185E-05 +2.279014E-05 +4.849621E-03 
 +2.066128E-04 -2.119049E-04 -6.492160E-05 -2.119049E-04 +1.158249E-04 -1.854857E-05 -6.492160E-05 -1.854857E-05 +4.847650E-03 
 +8.923750E-05 -2.128840E-04 -4.782269E-05 -2.128840E-04 +2.855193E-05 -6.793167E-05 -4.782269E-05 -6.793167E-05 +4.837345E-03 
 +1.032095E-04 -1.618293E-04 -1.226441E-04 -1.618293E-04 +3.252709E-05 -9.667730E-05 -1.226441E-04 -9.667730E-05 +4.861475E-03 
 -1.074554E-04 -2.065807E-04 -1.254100E-04 -2.065807E-04 +6.037185E-05 -9.825808E-05 -1.254100E-04 -9.825808E-05 +4.882179E-03 
 -7.573661E-05 -5.927292E-05 -1.187074E-04 -5.927292E-05 +1.359801E-05 -6.417777E-05 -1.187074E-04 -6.417777E-05 +4.854470E-03 
 -7.404356E-06 +7.256214E-05 -1.153072E-04 +7.256214E-05 -6.776310E-05 -2.594036E-05 -1.153072E-04 -2.594036E-05 +4.841025E-03 
 +1.111658E-04 +1.335547E-04 -1.789357E-04 +1.335547E-04 -8.246921E-05 +1.018758E-04 -1.789357E-04 +1.018758E-04 +4.776669E-03 
 +3.550448E-04 +7.194523E-05 -2.156460E-04 +7.194523E-05 -4.083557E-05 +2.245213E-04 -2.156460E-04 +2.245213E-04 +4.720960E-03 
 +1.940493E-04 +6.553200E-05 -6.485390E-05 +6.553200E-05 +6.341494E-05 +1.392218E-04 -6.485390E-05 +1.392218E-04 +4.740113E-03 
 +1.195745E-04 +2.007841E-05 -4.893253E-06 +2.007841E-05 +1.267740E-04 +3.572871E-05 -4.893253E-06 +3.572871E-05 +4.745792E-03 
 +9.116719E-05 +1.298616E-04 +1.073087E-04 +1.298616E-04 +1.558417E-04 -1.303413E-05 +1.073087E-04 -1.303413E-05 +4.836611E-03 
 +8.295886E-05 +2.002527E-04 +5.784761E-05 +2.002527E-04 +7.495053E-05 +1.060157E-04 +5.784761E-05 +1.060157E-04 +4.951127E-03 
 -8.673636E-05 +2.058973E-04 -8.025092E-05 +2.058973E-04 +1.632201E-04 +1.610622E-04 -8.025092E-05 +1.610622E-04 +5.041081E-03 
 -3.233590E-04 -1.510925E-04 -6.258856E-05 -1.510925E-04 +2.898055E-04 -1.360399E-06 -6.258856E-05 -1.360399E-06 +5.031464E-03 
 -3.076911E-04 -3.549388E-04 +2.900420E-05 -3.549388E-04 +2.557621E-04 +3.144091E-06 +2.900420E-05 +3.144091E-06 +4.960369E-03 
 -2.136615E-04 -2.724526E-04 -7.572081E-07 -2.724526E-04 +1.389477E-04 +2.893053E-05 -7.572081E-07 +2.893053E-05 +4.953327E-03 
 -1.292535E-04 +1.089859E-05 -6.878324E-05 +1.089859E-05 +1.038062E-04 -7.234905E-05 -6.878324E-05 -7.234905E-05 +4.959821E-03 
 -1.444329E-04 -7.531166E-06 -6.246245E-05 -7.531166E-06 +1.242718E-04 -1.467779E-04 -6.246245E-05 -1.467779E-04 +4.950461E-03 
 -1.089177E-04 +2.127156E-04 -4.755569E-05 +2.127156E-04 +1.730032E-04 -1.300778E-04 -4.755569E-05 -1.300778E-04 +4.938588E-03 
 -1.570259E-04 +2.187685E-04 -1.985909E-05 +2.187685E-04 +1.848638E-04 -9.992040E-06 -1.985909E-05 -9.992040E-06 +4.967014E-03 
 -4.729423E-05 +6.149076E-05 -6.322536E-05 +6.149076E-05 +1.909695E-04 +2.901643E-05 -6.322536E-05 +2.901643E-05 +4.956788E-03 
 +1.960924E-04 -1.089835E-04 -7.235238E-05 -1.089835E-04 +1.174664E-04 -2.894804E-05 -7.235238E-05 -2.894804E-05 +4.848028E-03 
 +2.271412E-04 -1.251121E-04 -6.601776E-05 -1.251121E-04 +1.127666E-05 -8.011837E-05 -6.601776E-05 -8.011837E-05 +4.786692E-03 
 +1.475966E-04 -1.426132E-04 -8.291329E-05 -1.426132E-04 -1.270455E-05 -8.609698E-05 -8.291329E-05 -8.609698E-05 +4.811078E-03 
 +3.525092E-05 -1.547691E-04 -9.178108E-05 -1.547691E-04 -2.050126E-05 -1.294265E-04 -9.178108E-05 -1.294265E-04 +4.814086E-03 
 +6.322707E-05 -1.361167E-05 -8.486016E-05 -1.361167E-05 -5.258912E-05 -1.612631E-04 -8.486016E-05 -1.612631E-04 +4.787720E-03 
 +1.127709E-04 +9.082790E-05 -8.046550E-05 +9.082790E-05 -7.594768E-05 -1.718506E-04 -8.046550E-05 -1.718506E-04 +4.761612E-03 
 +4.871096E-05 +5.533364E-05 -1.228928E-04 +5.533364E-05 -8.122231E-05 -7.973929E-05 -1.228928E-04 -7.973929E-05 +4.711302E-03 
 +1.309760E-04 -1.036813E-05 -1.269031E-04 -1.036813E-05 -4.602416E-05 +3.825625E-06 -1.269031E-04 +3.825625E-06 +4.730384E-03 
 +1.901782E-04 +2.708156E-05 -4.006670E-05 +2.708156E-05 -8.553523E-06 +2.353964E-05 -4.006670E-05 +2.353964E-05 +4.773546E-03 
 +1.924246E-04 +1.132473E-04 +2.475630E-05 +1.132473E-04 +1.105536E-04 +2.983058E-05 +2.475630E-05 +2.983058E-05 +4.774362E-03 
 -6.960429E-05 -1.851580E-05 +4.149642E-05 -1.851580E-05 +1.802824E-04 -2.107307E-04 +4.149642E-05 -2.107307E-04 +4.925341E-03 
 -8.472609E-05 +8.204755E-05 +4.510205E-05 +8.204755E-05 +2.857346E-04 -3.219694E-05 +4.510205E-05 -3.219694E-05 +5.080541E-03 
 -2.199119E-04 +3.256283E-05 -6.861891E-05 +3.256283E-05 +3.212482E-04 +5.100734E-05 -6.861891E-05 +5.100734E-05 +5.109929E-03 
 -7.703060E-05 -2.116512E-04 -1.128645E-04 -2.116512E-04 +2.618383E-04 -4.238389E-05 -1.128645E-04 -4.238389E-05 +5.007388E-03 
 -2.048678E-04 -3.701354E-04 -4.096711E-05 -3.701354E-04 +2.422744E-04 -2.078712E-05 -4.096711E-05 -2.078712E-05 +4.952273E-03 
 -2.079342E-04 -2.835056E-04 -4.505634E-05 -2.835056E-04 +1.818484E-04 +2.586567E-05 -4.505634E-05 +2.586567E-05 +4.959135E-03 
 -9.643751E-05 +2.301758E-05 -8.068346E-05 +2.301758E-05 +1.088049E-04 -5.374836E-05 -8.068346E-05 -5.374836E-05 +4.949163E-03 
 -9.798445E-05 +2.266159E-05 -7.807715E-05 +2.266159E-05 +1.027070E-04 -1.399865E-04 -7.807715E-05 -1.399865E-04 +4.950771E-03 
 -1.180958E-04 +2.604780E-04 -4.636277E-05 +2.604780E-04 +1.621269E-04 -1.127289E-04 -4.636277E-05 -1.127289E-04 +4.981708E-03 
 -1.621581E-04 +2.127032E-04 -4.670866E-06 +2.127032E-04 +2.081705E-04 -8.135013E-06 -4.670866E-06 -8.135013E-06 +5.040803E-03 
 -9.465057E-05 +1.051252E-04 -4.848324E-05 +1.051252E-04 +1.628556E-04 -4.733234E-05 -4.848324E-05 -4.733234E-05 +4.996248E-03 
 +1.743726E-04 -4.581408E-05 -1.055093E-04 -4.581408E-05 +9.209464E-05 -9.576670E-05 -1.055093E-04 -9.576670E-05 +4.850094E-03 
 +2.023359E-04 -3.252215E-05 -6.288398E-05 -3.252215E-05 +4.654368E-05 -8.438936E-05 -6.288398E-05 -8.438936E-05 +4.780779E-03 
 +1.758893E-04 -4.477492E-05 -6.223549E-05 -4.477492E-05 +1.250550E-07 -9.100084E-05 -6.223549E-05 -9.100084E-05 +4.801550E-03 
 +1.275128E-04 -1.006407E-04 -6.934873E-05 -1.006407E-04 -5.949032E-06 -1.176850E-04 -6.934873E-05 -1.176850E-04 +4.838441E-03 
 +1.082651E-04 -1.047931E-04 -8.534932E-05 -1.047931E-04 -3.119893E-06 -1.390467E-04 -8.534932E-05 -1.390467E-04 +4.840535E-03 
 +1.568472E-04 -4.716084E-06 -1.122065E-04 -4.716084E-06 -3.518373E-05 -1.814400E-04 -1.122065E-04 -1.814400E-04 +4.803969E-03 
 +1.196047E-04 +6.134965E-05 -1.520341E-04 +6.134965E-05 -1.106069E-04 -8.204413E-05 -1.520341E-04 -8.204413E-05 +4.760544E-03 
 +1.115143E-04 +2.385462E-04 -7.505762E-05 +2.385462E-04 -2.308237E-04 +1.513271E-05 -7.505762E-05 +1.513271E-05 +4.814857E-03 
 +9.994803E-05 +2.772160E-04 -6.023292E-05 +2.772160E-04 -3.067627E-04 -5.828460E-05 -6.023292E-05 -5.828460E-05 +4.867405E-03 
 +1.571091E-04 +3.618576E-04 -5.453034E-05 +3.618576E-04 -7.859677E-05 -1.899196E-04 -5.453034E-05 -1.899196E-04 +4.845343E-03 
 -2.167418E-04 -4.475000E-05 -7.332588E-05 -4.475000E-05 +1.701565E-04 -2.398094E-04 -7.332588E-05 -2.398094E-04 +4.996405E-03 
 -2.574501E-04 +6.884527E-05 -5.394186E-05 +6.884527E-05 +3.387328E-04 -1.094855E-04 -5.394186E-05 -1.094855E-04 +5.120684E-03 
 -1.204549E-04 +3.125539E-05 -8.162914E-05 +3.125539E-05 +2.416721E-04 +4.234117E-06 -8.162914E-05 +4.234117E-06 +5.091728E-03 
 +1.979122E-04 -1.534811E-04 -1.567183E-04 -1.534811E-04 +6.533041E-05 +1.223078E-05 -1.567183E-04 +1.223078E-05 +4.970990E-03 
 -1.654653E-05 -2.718086E-04 -1.224182E-04 -2.718086E-04 +1.101449E-04 -1.236573E-05 -1.224182E-04 -1.236573E-05 +4.951803E-03 
 -1.656334E-04 -2.111092E-04 -1.058891E-04 -2.111092E-04 +2.108143E-04 -6.707676E-06 -1.058891E-04 -6.707676E-06 +4.967449E-03 
 -1.206622E-04 +8.138676E-05 -1.548687E-04 +8.138676E-05 +1.282591E-04 -5.593130E-05 -1.548687E-04 -5.593130E-05 +4.949702E-03 
 -1.508196E-04 +7.827716E-05 -1.243260E-04 +7.827716E-05 +8.209227E-05 -1.609247E-04 -1.243260E-04 -1.609247E-04 +4.970216E-03 
 -1.463095E-04 +2.819384E-04 -5.462291E-05 +2.819384E-04 +1.488776E-04 -1.394816E-04 -5.462291E-05 -1.394816E-04 +5.069294E-03 
 -1.430766E-04 +2.030567E-04 -4.586700E-05 +2.030567E-04 +1.893056E-04 -6.323026E-05 -4.586700E-05 -6.323026E-05 +5.102425E-03 
 +5.671443E-05 +9.866406E-05 -1.410661E-04 +9.866406E-05 +1.261131E-04 -1.400889E-04 -1.410661E-04 -1.400889E-04 +4.950991E-03 
 +1.515488E-04 +2.885557E-05 -1.591412E-04 +2.885557E-05 +7.988458E-05 -1.353931E-04 -1.591412E-04 -1.353931E-04 +4.837825E-03 
 +1.587128E-04 +3.128977E-05 -1.164385E-04 +3.128977E-05 +7.665034E-05 -7.823537E-05 -1.164385E-04 -7.823537E-05 +4.812978E-03 
 +1.591242E-04 -2.111549E-05 -8.687142E-05 -2.111549E-05 +4.404316E-05 -9.438999E-05 -8.687142E-05 -9.438999E-05 +4.834813E-03 
 +1.012469E-04 -7.226457E-05 -7.788220E-05 -7.226457E-05 -5.961118E-06 -1.042643E-04 -7.788220E-05 -1.042643E-04 +4.892408E-03 
 +9.248714E-05 -6.383724E-05 -1.093831E-04 -6.383724E-05 -5.017399E-05 -8.962764E-05 -1.093831E-04 -8.962764E-05 +4.896711E-03 
 +1.756895E-04 -1.155321E-05 -1.516572E-04 -1.155321E-05 -1.378283E-04 -1.312027E-04 -1.516572E-04 -1.312027E-04 +4.812969E-03 
 +1.435825E-04 -7.025534E-05 -1.491617E-04 -7.025534E-05 -1.494402E-04 -9.275040E-05 -1.491617E-04 -9.275040E-05 +4.785878E-03 
 -1.846539E-06 -1.915644E-04 -4.026911E-05 -1.915644E-04 -5.652080E-05 -6.585915E-05 -4.026911E-05 -6.585915E-05 +4.910681E-03 
 +1.599296E-05 -2.015500E-04 -6.405161E-05 -2.015500E-04 -3.191125E-05 -1.167084E-04 -6.405161E-05 -1.167084E-04 +4.944770E-03 
 +8.649578E-05 +2.139820E-04 -1.110731E-04 +2.139820E-04 -1.654960E-05 -2.109161E-04 -1.110731E-04 -2.109161E-04 +4.899047E-03 
 -2.237986E-04 +6.043703E-05 -1.555894E-05 +6.043703E-05 +1.622182E-04 -2.748857E-04 -1.555894E-05 -2.748857E-04 +5.015969E-03 
 -1.896564E-04 +9.840935E-05 -2.929894E-05 +9.840935E-05 +2.058532E-04 -1.471401E-04 -2.929894E-05 -1.471401E-04 +5.040221E-03 
 +1.048553E-04 +6.363370E-05 -7.357693E-05 +6.363370E-05 +7.941932E-06 -2.465242E-06 -7.357693E-05 -2.465242E-06 +4.999113E-03 
 +1.926258E-04 -1.498548E-04 -1.616835E-04 -1.498548E-04 -5.742003E-05 +7.894096E-05 -1.616835E-04 +7.894096E-05 +4.946598E-03 
 +1.273984E-04 -2.628839E-04 -1.607594E-04 -2.628839E-04 +2.654889E-05 +3.799724E-05 -1.607594E-04 +3.799724E-05 +4.947827E-03 
 -2.314558E-04 -3.752383E-04 -7.420343E-05 -3.752383E-04 +2.097929E-04 -1.125190E-05 -7.420343E-05 -1.125190E-05 +4.969809E-03 
 -2.442331E-04 -3.169970E-04 -1.263009E-04 -3.169970E-04 +2.374898E-04 +1.262641E-06 -1.263009E-04 +1.262641E-06 +4.949202E-03 
 -1.251715E-04 -1.644523E-04 -9.205099E-05 -1.644523E-04 +1.630167E-04 -5.114630E-05 -9.205099E-05 -5.114630E-05 +4.963564E-03 
 -1.241252E-04 +1.268209E-04 -1.581540E-05 +1.268209E-04 +1.018678E-04 -6.494349E-05 -1.581540E-05 -6.494349E-05 +5.065875E-03 
 +5.655082E-05 +1.464470E-04 -4.204176E-05 +1.464470E-04 -1.136026E-05 -3.356481E-05 -4.204176E-05 -3.356481E-05 +5.066909E-03 
 +2.100758E-04 +7.126029E-05 -1.448901E-04 +7.126029E-05 -3.984387E-05 -8.857786E-05 -1.448901E-04 -8.857786E-05 +4.928825E-03 
 +1.605083E-04 +4.193875E-05 -2.150568E-04 +4.193875E-05 +1.473230E-05 -9.117962E-05 -2.150568E-04 -9.117962E-05 +4.845121E-03 
 +1.427815E-04 +4.403364E-05 -2.131636E-04 +4.403364E-05 +8.568711E-05 -9.273768E-05 -2.131636E-04 -9.273768E-05 +4.843773E-03 
 +1.266536E-04 +8.449323E-06 -1.663882E-04 +8.449323E-06 +7.578125E-05 -1.030126E-04 -1.663882E-04 -1.030126E-04 +4.885144E-03 
 +1.153239E-04 -2.764602E-05 -1.544202E-04 -2.764602E-05 +1.656110E-05 -8.231934E-05 -1.544202E-04 -8.231934E-05 +4.892272E-03 
 +1.382710E-04 +1.938700E-05 -1.637409E-04 +1.938700E-05 -4.770751E-05 -9.470585E-05 -1.637409E-04 -9.470585E-05 +4.857044E-03 
 +1.351859E-04 +6.837774E-05 -1.688543E-04 +6.837774E-05 -9.417370E-05 -1.521941E-04 -1.688543E-04 -1.521941E-04 +4.797268E-03 
 -1.107431E-04 +8.049034E-05 -9.762253E-05 +8.049034E-05 -1.240172E-04 -6.476497E-05 -9.762253E-05 -6.476497E-05 +4.866067E-03 
 -2.040505E-04 +9.061384E-05 -1.946420E-05 +9.061384E-05 -5.530268E-05 +2.985417E-05 -1.946420E-05 +2.985417E-05 +5.031124E-03 
 -6.863598E-05 +7.436947E-05 -2.000950E-05 +7.436947E-05 +1.184650E-04 -4.192728E-05 -2.000950E-05 -4.192728E-05 +5.014458E-03 
 +1.165762E-05 +2.188064E-04 -3.155388E-05 +2.188064E-04 +1.106945E-04 -2.224781E-04 -3.155388E-05 -2.224781E-04 +4.957147E-03 
 -2.058772E-04 +1.605530E-04 +4.736259E-05 +1.605530E-04 +1.225461E-04 -2.491268E-04 +4.736259E-05 -2.491268E-04 +5.041047E-03 
 +4.527089E-05 +5.680751E-05 -1.166241E-05 +5.680751E-05 -6.126109E-05 -6.511032E-05 -1.166241E-05 -6.511032E-05 +4.992529E-03 
 +1.314248E-04 +3.595451E-05 -8.422219E-05 +3.595451E-05 -5.804965E-05 +9.672616E-05 -8.422219E-05 +9.672616E-05 +4.957788E-03 
 +1.251233E-04 -1.792743E-04 -1.450215E-04 -1.792743E-04 +2.462393E-05 +1.086086E-04 -1.450215E-04 +1.086086E-04 +4.939263E-03 
 +1.111940E-04 -2.485711E-04 -1.528454E-04 -2.485711E-04 +1.078509E-04 +2.813973E-06 -1.528454E-04 +2.813973E-06 +4.940357E-03 
 -3.316829E-04 -2.921337E-04 -8.722579E-06 -2.921337E-04 +2.432065E-04 -4.718962E-05 -8.722579E-06 -4.718962E-05 +4.957106E-03 
 -3.487042E-04 -2.997620E-04 -1.922876E-05 -2.997620E-04 +2.739571E-04 -1.580416E-05 -1.922876E-05 -1.580416E-05 +4.942865E-03 
 -1.170571E-04 -1.420462E-04 -9.993272E-06 -1.420462E-04 +2.078910E-04 -2.109064E-05 -9.993272E-06 -2.109064E-05 +4.901768E-03 
 -3.112863E-06 -7.559106E-06 +4.850326E-05 -7.559106E-06 +1.026218E-04 +6.205996E-05 +4.850326E-05 +6.205996E-05 +4.902284E-03 
 +2.992691E-04 -2.406102E-05 +1.271082E-05 -2.406102E-05 -1.088899E-04 +1.680721E-04 +1.271082E-05 +1.680721E-04 +4.924648E-03 
 +3.160162E-04 -2.518853E-05 -2.543715E-05 -2.518853E-05 -1.924158E-04 +5.091615E-05 -2.543715E-05 +5.091615E-05 +4.944137E-03 
 +2.337922E-04 +1.311367E-05 -1.420937E-04 +1.311367E-05 -4.888293E-05 -5.007255E-05 -1.420937E-04 -5.007255E-05 +4.924744E-03 
 +2.008768E-04 -2.398839E-05 -1.985181E-04 -2.398839E-05 +8.359102E-07 -6.897017E-05 -1.985181E-04 -6.897017E-05 +4.914576E-03 
 +1.667486E-04 -2.300671E-05 -1.994661E-04 -2.300671E-05 -1.550774E-05 -8.381190E-05 -1.994661E-04 -8.381190E-05 +4.953301E-03 
 +1.331540E-04 -8.027084E-05 -2.254275E-04 -8.027084E-05 -4.413278E-05 -3.544758E-05 -2.254275E-04 -3.544758E-05 +4.914989E-03 
 +1.147182E-04 -8.387436E-05 -2.662032E-04 -8.387436E-05 -1.154904E-04 -3.850696E-05 -2.662032E-04 -3.850696E-05 +4.822205E-03 
 +6.069868E-05 -4.199349E-05 -2.017468E-04 -4.199349E-05 -5.514500E-05 -8.694624E-05 -2.017468E-04 -8.694624E-05 +4.817611E-03 
 -3.675091E-04 -1.037092E-04 -5.591177E-05 -1.037092E-04 +8.765983E-06 +3.919976E-05 -5.591177E-05 +3.919976E-05 +4.998424E-03 
 -2.110810E-04 -1.973655E-05 -3.392891E-05 -1.973655E-05 +1.928279E-05 +7.281564E-05 -3.392891E-05 +7.281564E-05 +5.125120E-03 
 -1.784043E-04 +4.078282E-05 -4.505212E-05 +4.078282E-05 +7.685408E-05 -6.096057E-05 -4.505212E-05 -6.096057E-05 +5.078936E-03 
 -1.746392E-04 +2.342030E-04 -7.591005E-06 +2.342030E-04 +1.701269E-04 -2.348680E-04 -7.591005E-06 -2.348680E-04 +5.056698E-03 
 -8.107489E-05 +1.997511E-05 +5.520846E-05 +1.997511E-05 -1.981858E-05 -2.208316E-04 +5.520846E-05 -2.208316E-04 +5.079967E-03 
 +7.563008E-05 +1.561842E-05 -3.583584E-05 +1.561842E-05 -1.245524E-04 -4.852354E-06 -3.583584E-05 -4.852354E-06 +5.009781E-03 
 +1.144714E-04 +2.140956E-06 -1.079667E-04 +2.140956E-06 -5.814886E-05 +1.198334E-04 -1.079667E-04 +1.198334E-04 +4.980092E-03 
 +1.243476E-04 -1.999582E-04 -1.168496E-04 -1.999582E-04 +7.038641E-06 +9.316122E-05 -1.168496E-04 +9.316122E-05 +4.969264E-03 
 +9.032272E-05 -1.977361E-04 -1.182315E-04 -1.977361E-04 +8.960263E-05 -9.933189E-06 -1.182315E-04 -9.933189E-06 +4.961862E-03 
 -2.571649E-04 -1.831994E-04 -3.095301E-05 -1.831994E-04 +2.208639E-04 -6.865978E-05 -3.095301E-05 -6.865978E-05 +4.960104E-03 
 -3.492740E-04 -2.257227E-04 -2.376563E-05 -2.257227E-04 +3.203950E-04 -2.882206E-05 -2.376563E-05 -2.882206E-05 +4.983009E-03 
 -2.207096E-04 -7.603327E-05 -4.559680E-05 -7.603327E-05 +2.377631E-04 +3.244921E-05 -4.559680E-05 +3.244921E-05 +4.907566E-03 
 +1.592532E-04 +9.045887E-05 -3.067116E-05 +9.045887E-05 +4.301616E-05 +1.051321E-04 -3.067116E-05 +1.051321E-04 +4.747715E-03 
 +3.692548E-04 +7.702789E-05 -3.013377E-05 +7.702789E-05 -1.178653E-06 +2.402653E-04 -3.013377E-05 +2.402653E-04 +4.743480E-03 
 +3.227605E-04 +4.233753E-05 -2.969346E-06 +4.233753E-05 +3.211334E-05 +2.155597E-04 -2.969346E-06 +2.155597E-04 +4.895652E-03 
 +2.534566E-04 -6.786824E-05 -1.935201E-05 -6.786824E-05 -1.278039E-04 +1.199133E-04 -1.935201E-05 +1.199133E-04 +5.020441E-03 
 +2.481883E-04 -1.760333E-04 -1.028004E-04 -1.760333E-04 -2.816065E-04 +7.737105E-05 -1.028004E-04 +7.737105E-05 +5.066858E-03 
 +2.492891E-04 -1.660271E-04 -1.488472E-04 -1.660271E-04 -3.191815E-04 +4.384929E-05 -1.488472E-04 +4.384929E-05 +5.098624E-03 
 +2.140300E-04 -1.823002E-04 -2.002778E-04 -1.823002E-04 -2.892351E-04 +5.775820E-05 -2.002778E-04 +5.775820E-05 +5.047811E-03 
 -2.477665E-05 -1.307296E-04 -2.939564E-04 -1.307296E-04 -1.726410E-04 -3.380339E-05 -2.939564E-04 -3.380339E-05 +4.930863E-03 
 -9.791669E-05 -7.116304E-05 -1.879023E-04 -7.116304E-05 -5.410776E-05 -1.525613E-04 -1.879023E-04 -1.525613E-04 +4.926509E-03 
 -4.548514E-04 -1.037498E-04 -3.245762E-05 -1.037498E-04 +8.713320E-05 -1.611805E-06 -3.245762E-05 -1.611805E-06 +5.074894E-03 
 -2.750209E-04 -2.730885E-05 +4.151927E-06 -2.730885E-05 +8.197777E-05 +8.195319E-05 +4.151927E-06 +8.195319E-05 +5.154588E-03 
 -2.166827E-04 +4.447744E-05 +1.536559E-05 +4.447744E-05 +5.913020E-05 -5.185463E-05 +1.536559E-05 -5.185463E-05 +5.128328E-03 
 -2.433908E-04 +1.923764E-04 +3.727239E-05 +1.923764E-04 +1.257567E-04 -2.405216E-04 +3.727239E-05 -2.405216E-04 +5.126692E-03 
 -7.421313E-05 -1.991554E-04 +1.052241E-04 -1.991554E-04 +2.052252E-05 -2.712294E-04 +1.052241E-04 -2.712294E-04 +5.111505E-03 
 +6.600771E-05 -2.063615E-04 +4.302277E-05 -2.063615E-04 -7.641350E-05 -5.782257E-05 +4.302277E-05 -5.782257E-05 +5.042309E-03 
 +2.594120E-04 -5.785840E-05 -3.954793E-05 -5.785840E-05 -1.348418E-04 +7.684531E-05 -3.954793E-05 +7.684531E-05 +4.999799E-03 
 +1.816737E-04 -1.820772E-04 -2.592245E-05 -1.820772E-04 -9.149809E-05 +4.955870E-05 -2.592245E-05 +4.955870E-05 +5.035465E-03 
 +2.330706E-05 -1.973962E-04 -1.950013E-05 -1.973962E-04 -2.556861E-05 -4.658923E-05 -1.950013E-05 -4.658923E-05 +5.028783E-03 
 -1.777292E-04 -2.514980E-04 -3.483018E-05 -2.514980E-04 +7.059560E-06 -5.036175E-05 -3.483018E-05 -5.036175E-05 +5.005460E-03 
 -2.207516E-04 -2.936811E-04 -6.889033E-05 -2.936811E-04 +2.474174E-05 -1.226699E-05 -6.889033E-05 -1.226699E-05 +5.081822E-03 
 -8.701040E-05 -1.277570E-04 -1.108129E-04 -1.277570E-04 -4.957996E-05 +2.678215E-05 -1.108129E-04 +2.678215E-05 +5.007564E-03 
 +2.629384E-04 +1.599878E-04 -1.207607E-04 +1.599878E-04 -8.281715E-05 +8.394925E-05 -1.207607E-04 +8.394925E-05 +4.689987E-03 
 +2.968701E-04 +1.482416E-04 -9.588848E-05 +1.482416E-04 +2.735734E-05 +1.657528E-04 -9.588848E-05 +1.657528E-04 +4.579411E-03 
 +2.891379E-04 +4.349020E-05 -2.333115E-05 +4.349020E-05 +4.062149E-05 +1.688203E-04 -2.333115E-05 +1.688203E-04 +4.786716E-03 
 +2.096575E-04 -1.081136E-04 +3.109493E-05 -1.081136E-04 -8.728166E-05 +1.527964E-04 +3.109493E-05 +1.527964E-04 +5.035615E-03 
 +2.159426E-04 -1.402488E-04 -7.777318E-05 -1.402488E-04 -2.566004E-04 +1.418052E-04 -7.777318E-05 +1.418052E-04 +5.167155E-03 
 +2.667138E-04 -1.821312E-04 -1.170206E-04 -1.821312E-04 -3.804685E-04 +1.148909E-04 -1.170206E-04 +1.148909E-04 +5.192504E-03 
 +2.947819E-04 -1.638021E-04 -1.422678E-04 -1.638021E-04 -3.516187E-04 +1.111428E-04 -1.422678E-04 +1.111428E-04 +5.167510E-03 
 -2.449165E-04 -1.564683E-04 -2.423652E-04 -1.564683E-04 -1.342206E-04 +4.569796E-05 -2.423652E-04 +4.569796E-05 +5.152618E-03 
 -2.824425E-04 -1.812674E-04 -1.656594E-04 -1.812674E-04 +2.349272E-05 -5.891210E-05 -1.656594E-04 -5.891210E-05 +5.139868E-03 
 -3.777092E-04 -1.556623E-04 -2.839663E-05 -1.556623E-04 +1.415588E-04 +9.179167E-06 -2.839663E-05 +9.179167E-06 +5.119933E-03 
 -3.455004E-04 -2.121800E-04 +5.045387E-05 -2.121800E-04 +2.030800E-04 +8.025763E-05 +5.045387E-05 +8.025763E-05 +5.135600E-03 
 -3.078373E-04 -1.785788E-07 +9.242847E-05 -1.785788E-07 +1.762062E-04 -2.789478E-05 +9.242847E-05 -2.789478E-05 +5.127885E-03 
 -2.484166E-04 +1.066561E-04 +1.112699E-04 +1.066561E-04 +1.128699E-04 -2.623399E-04 +1.112699E-04 -2.623399E-04 +5.125320E-03 
 +5.370806E-05 +2.556013E-05 +7.115450E-05 +2.556013E-05 -1.320709E-04 -2.235883E-04 +7.115450E-05 -2.235883E-04 +5.114782E-03 
 +1.668128E-04 +1.437716E-04 +5.592594E-05 +1.437716E-04 -1.925853E-04 -1.029952E-04 +5.592594E-05 -1.029952E-04 +5.059361E-03 
 +2.564649E-04 +2.223295E-04 +2.171626E-05 +2.223295E-04 -2.659752E-04 +9.425231E-06 +2.171626E-05 +9.425231E-06 +5.028643E-03 
 +7.334010E-05 -7.858632E-05 +6.659773E-05 -7.858632E-05 -2.043312E-04 -2.775203E-06 +6.659773E-05 -2.775203E-06 +5.103458E-03 
 -3.451673E-05 -1.414928E-04 +7.098554E-05 -1.414928E-04 -6.338827E-05 -4.066745E-05 +7.098554E-05 -4.066745E-05 +5.170619E-03 
 -9.142199E-05 -1.876996E-04 -4.740405E-06 -1.876996E-04 -1.585684E-05 -8.534310E-06 -4.740405E-06 -8.534310E-06 +5.167878E-03 
 -3.908401E-07 -2.205779E-04 -4.023997E-05 -2.205779E-04 -1.237224E-04 -1.986887E-05 -4.023997E-05 -1.986887E-05 +5.155124E-03 
 +1.094609E-04 -1.109425E-04 -4.115302E-05 -1.109425E-04 -1.794854E-04 +2.690770E-05 -4.115302E-05 +2.690770E-05 +5.017321E-03 
 +2.952484E-04 +2.345188E-04 -2.266103E-05 +2.345188E-04 -7.341141E-05 +1.500336E-04 -2.266103E-05 +1.500336E-04 +4.755849E-03 
 +2.942968E-04 +2.513460E-04 -3.747975E-05 +2.513460E-04 +2.393853E-05 +2.306825E-04 -3.747975E-05 +2.306825E-04 +4.639147E-03 
 +2.593092E-04 +9.957397E-05 -2.726834E-05 +9.957397E-05 -7.895908E-06 +2.341248E-04 -2.726834E-05 +2.341248E-04 +4.767322E-03 
 +1.996095E-04 -1.130689E-04 +2.643136E-05 -1.130689E-04 -1.144072E-04 +1.961637E-04 +2.643136E-05 +1.961637E-04 +4.996661E-03 
 +1.617831E-04 -1.341047E-04 -3.929323E-05 -1.341047E-04 -2.241280E-04 +1.265746E-04 -3.929323E-05 +1.265746E-04 +5.132413E-03 
 +1.826515E-04 -1.888763E-04 -3.979793E-05 -1.888763E-04 -3.847342E-04 +1.169447E-04 -3.979793E-05 +1.169447E-04 +5.145463E-03 
 +4.864944E-05 -1.224843E-04 -4.848875E-05 -1.224843E-04 -3.306569E-04 +8.438752E-05 -4.848875E-05 +8.438752E-05 +5.153785E-03 
 -4.048917E-04 -1.581687E-04 -9.605299E-05 -1.581687E-04 -5.424456E-05 -7.038529E-05 -9.605299E-05 -7.038529E-05 +5.216222E-03 
 -3.990038E-04 -2.030816E-04 -5.707386E-05 -2.030816E-04 +9.496876E-05 -1.558313E-04 -5.707386E-05 -1.558313E-04 +5.224856E-03 
 -4.073493E-04 -1.645792E-04 +3.739022E-05 -1.645792E-04 +1.448460E-04 -3.249077E-05 +3.739022E-05 -3.249077E-05 +5.176910E-03 
 -3.568999E-04 -2.996697E-04 +8.701676E-05 -2.996697E-04 +2.599874E-04 +5.992130E-05 +8.701676E-05 +5.992130E-05 +5.175821E-03 
 -3.537400E-04 -1.550767E-04 +1.825363E-04 -1.550767E-04 +2.355393E-04 -1.748302E-05 +1.825363E-04 -1.748302E-05 +5.177604E-03 
 -5.320074E-05 -4.908891E-06 +1.375089E-04 -4.908891E-06 -5.104281E-06 -1.851623E-04 +1.375089E-04 -1.851623E-04 +5.149953E-03 
