# vtk DataFile Version 2.0
data file: MKS_results generated by Noah H. Paulson on Thu Feb 26 13:15:37 2015
ASCII
DATASET RECTILINEAR_GRID
DIMENSIONS 22 22 22
X_COORDINATES 22 float
 0.0000  0.0200  0.0400  0.0600  0.0800  0.1000  0.1200  0.1400  0.1600  0.1800  0.2000  0.2200  0.2400  0.2600  0.2800  0.3000  0.3200  0.3400  0.3600  0.3800  0.4000  0.4200 
Y_COORDINATES 22 float
 0.0000  0.0200  0.0400  0.0600  0.0800  0.1000  0.1200  0.1400  0.1600  0.1800  0.2000  0.2200  0.2400  0.2600  0.2800  0.3000  0.3200  0.3400  0.3600  0.3800  0.4000  0.4200 
Z_COORDINATES 22 float
 0.0000  0.0200  0.0400  0.0600  0.0800  0.1000  0.1200  0.1400  0.1600  0.1800  0.2000  0.2200  0.2400  0.2600  0.2800  0.3000  0.3200  0.3400  0.3600  0.3800  0.4000  0.4200 
CELL_DATA 9261
SCALARS GrainID int 1
LOOKUP_TABLE default
   39    39    39   110     4    50    50    50    50    50    50    50   210   210   210   210   210    65    65    65     7 
   39    39    39     4     4   207   207    50    50    50    50    50   210   210   210   210   210    65    65    65    65 
   39    39    39     4     4   207   207   207    50    50    50   210   210   210   210   210   210   152   152   152   152 
   39    39    39     4     4   207   207   207   207    50    50   210   210   210   210   210   210   152   152   152   152 
   39    39    39     4     4   127   127   207   207   207   210   210   210   210   210    45    45   152   152   152   152 
   16    16    16    16   216   216   216   216   216   216   216   210   210   210   210    45    45   152   152   152   152 
   16    16    16    16    43    43   216   216   216   216   216   210   210   210   210    45    45   152   152   152    16 
   16    16    16    16    43    43   216   216   216   216   216   216   210   210   218   218    78    78    78    78    16 
   16    16    16    16    43   216   216   216   216   197   197   197   178   178   178   178   218    78   196   196    16 
   16    16    16    16    41    41   216   216   197   197   197   197   178   178   178   178   178    78   196   196    16 
   16    16   147   147   147   147   147   216   197   197   197   197   178   178   178   178   178   178    98    98    98 
   98   177   147   147   147   147   147   147   197   197   197   197   178   178   178   178   178    98    98    98    98 
   98   177   147   147   147   147   147   147    97    97   217   217   217   217   217    47    47    47    98    98    98 
  177   177   177   147   147   147   147   147    97    97   217   217   217   217   217    47    47    47    98    98    98 
   98   177   147   147   147   147   147   147    97    97   217   217   217   217   217   217   217   217    98    98    98 
   19    19    19   147   147   147   147   147    97   217   217   217   217   217   217   217   217   217    59    59    59 
  125   125   125   220   220   147   147   147    97   217   217   217   217   217   217   217   217    73    59    59    59 
  125   125   125   220   220   147   147   147    97   217   217   217   217   217   217    81    81    73    59    59    59 
  125   125   125   220   220   147   147   147   109   217   217   217   172   172   217    81    81    73    59    59    59 
  125   125   125   220   220   147   147   109    50    50   172   172   172   172   172    81    81    73    59    59    59 
  125   125   125   220   220   147    50    50    50    50    50   172   172   172   172   172   172    73    59    59    59 
   39    39    39   110     4     4    50    50    50    50    50    50   172   172   210   210   210    65    65    65     7 
   39    39    39     4     4     4   207    50    50    50    50   210   210   210   210   210   210    65    65    65    65 
   39    39    39     4     4     4   207   207    50    50    50   210   210   210   210   210   210    65    65    65    65 
   39    39    39     4     4     4   207   207   207    50    50   210   210   210   210   210   210   152   152   152   152 
   39    39    39     4     4     4   207   207   207    50   210   210   210   210   210   210    45   152   152   152   152 
   16    16    16    16    16   216   216   114   216   216   210   210   210   210   210    45    45    45   152   152    16 
   16    16    16    16    16   216   216   216   216   216   216   210   210   210   210   218   196    78   196   196    16 
   16    16    16    16    16   216   216   216   216   216   216   210   210   210   218   218    78    78    78    78    16 
   16    16    16    16    16   216   216   216   216   216   197   197   218   218   218   218   218    78   196   196    16 
   16    16    16    16   147   216   216   216   216   216   197   197   178   178   178   218   218   218   196   196    16 
   16    16    16   147   147   147   147   147   197   197   197   197   178   178   178   178   218   218    98    98    98 
   98   177   147   147   147   147   147   147   147   197   197   217   217   178   178   178    47    98    98    98    98 
   98   177   177   147   147   147   147   147   147   147   217   217   217   217    47    47    47    98    98    98    98 
  177   177   177   147   147   147   147   147   147   147   217   217   217   217    47    47    47    98    98    98    98 
   98   177   177   147   147   147   147   147   147   217   217   217   217   217   217    47    47    98    98    98    98 
   19    19    19   147   147   147   147   147   147   217   217   217   217    77   217   217   217    98    98    98    98 
  125   125   125   147   147   147   147   147   147   217   217   217   217   217   217   217   217    73    59    59    59 
  125   125   125   220   220   147   147   147   109   217   217   217   217   217   217    81    81    73    59    59    59 
  125   125   125   220   220   147   147   109   109    60    60   217   172   172   172    81    81    73    59    59    59 
  125   125   125   220   220   147   109   109    50    50    50   172   172   172   172    81    81    73    59    59    59 
  125   125   125   220   220   147    50    50    50    50    50   172   172   172   172   172    81    73    59    59    59 
    7   158   110   110     4     4     4    50    50    50    50   134   134   210   210   210   210    65    65     7     7 
  158    39   110     4     4     4     4     4    50    50    50   134   134   210   210   210   210    65    65    65     7 
   39    39     4     4     4     4     4   207    50    50    50   134   210   210   210   210   210    65    65   206   206 
   39    39    39     4     4     4     4   207   207    50    50   210   210   210   210   210   210   210   152   152    16 
   16    16    16     4     4     4     4   207   207   207   210   210   210   210   210   210   210   152   152   152    16 
   16    16    16    16    16   216   216   216   216   216   210   210   210   210   210   210   196   196   196   196    16 
   16    16    16    16    16   216   216   216   216   216   216   210   210   210   210   218   196   196   196   196    16 
   16    16    16    16    16   216   216   216   216   216   216   210   210   218   218   218   196   196   196   196    16 
   16    16    16    16    16   216   216   216   216   216   216   216   218   218   218   218   218   196   196   196    16 
   16    16    16    16    16   216   216   216   216   216   216   216   218   218   218   218   218   218   196   196    16 
   16    16    16    16   147   147   147   216   216   216   197    26   218   218   218   218   218   218    98    98    98 
   98    16   147   147   147   147   147   147   147   147    26   217   217   217   218   218   218    98    98    98    98 
   98   177   147   147   147   147   147   147   147   147   217   217   217   217   217    47    47    98    98    98    98 
   98   177   177   147   147   147   147   147   147   147   217   217   217   217   217    47    47    98    98    98    98 
   98   177   147   147   147   147   147   147   147   217   217   217   217   217   217   217   217    98    98    98    98 
   98    19    19   147   147    44   147   147   147   217   217   217   217   217   217   217   217    98    98    98    98 
  125   125   125   147   147    44    44   147   147   217   217   217   217   217   217   217   217    73    59    59    59 
  125   125   125   125    44    44    44   109   109    60    60   217   217   217   217    81    81    73    59    59    59 
  125   125   125   125   125    44   109   109   109    83    60    60   172   172   172    81    81    73     8    59    59 
  125   125   125   125   125   109   109   109    83    83    83    60   172   172   172    81    81     8     8     8    59 
  125   125   125   125   125   109   109   109   109    83   109   172   172   172   172   172   172     8     8     7     7 
    7   158   110   110     4     4     4    52   109   109   134   134   134   210   210   210   210    65     7     7     7 
  158   110   110   110     4     4     4    52    50    50   134   134   134   210   210   210   210    65   206     7     7 
  158   158   110     4     4     4     4     4    50    50   134   134   134   210   210   210   210   210   206   206   206 
   16    39     4     4     4     4     4     4   180   180   180   210   210   210   210   210   210   210   206   206   206 
   16    16    16     4     4     4     4   180   180   180   180   210   210   210   210   210   210   210   196   196    16 
   16    16    16    16     4     4     4   180   180   180   180   180   210   210   210   210   196   196   196   196    16 
   16    16    16    16    16   216   216   216   180   180   180   180   210   210   218   218   196   196   196   196    16 
   16    16    16    16    16   216   216   128   128   180   180   180   218   218   218   218   196   196   196   196    16 
   16    16    16    16    16   216   216   216   216   216   216   218   218   218   218   218   218   196   196   196    16 
   16    16    16    16    16    67    67    67    67    67    67   218   218   218   218   146   218   218   196   196    16 
   16    16    16    16   147   147    67    67    67    67    26    26    26   218   218   218   218   218    98    98    98 
   98    98    16   147   147   147   147   147   147    26    26    26    26    26   218   218   132   132    98    98    98 
   98    98    98   147   147   147   147   147   147    26    26    26    26    26   217    10    10   132    98    98    98 
   98    98    98   147   147   147   147   147   147   147   217   217   217   217   217    68    10    10    98    98    98 
   98    98   147   147   147    44   147   147   147   217   217   217   204   204   204    10    10    10    98    98    98 
   98    19    19   147    44    44    44   147   147    60    60   217   204   204   204   217    10    10    98    98    98 
  125   125   125    44    44    44    44    44    60    60    60    60   204   204   204   217   217    10    98    98    98 
  125   125   125   125    44    44    44   109   109    60    60    60    60   217   217   217    81     8     8     8     8 
  125   125   125   125    44    44   109   109   109    83    60    60    60    60   172    81     8     8     8     8     8 
    7   125   125   125    44   109   109   109    83    83    83    60    60    60   172    81     8     8     8     8     8 
    7     7   125    91   168   109   109   109   109    83   109   109    60   172   172   172     8     8     8     7     7 
    7   158   158   110     4     4     4   109   109   109   109   134   134   209   209   210   210     7     7     7     7 
  158   158   158     4     4     4     4     4   109    50   134   134   134   209   209   210   210   206   206   206     7 
  158   158   158     4     4     4     4     4     4   134   134   134   210   210   210   210   210   206   206   206   206 
   91   158     4     4     4     4     4     4   180   180   180   210   210   210   210   210   210   210   206   206   206 
   16    16    16     4     4     4     4   180   180   180   180   180   210   210   210   210   210   210   196    16    16 
   16    16    16    16    16     4   124   180   180   180   180   180   210   210   210   218   218   130   196    16    16 
   16    16    16    16    16   124   124   180   180   180   180   180   210   218   218   218   218   196   196    16    16 
   16    16    16    16    16    16   124   128   180   180   180   180   218   218   218   218   218   196   196    16    16 
   16    16    16    16    16    16    67    67    67   180   180   180    36   218   218   218   218   218   196    16    16 
   16    16    16    16    16    67    67    67    67    67    67    36    36    36   218   218   218     1     1     1    16 
   16    16    16    16    16    67    67    67    67    67    26    26    26    26   218   218   218     1     1    98    98 
   98    16    16   147   147    28   191   191   191    26    26    26    26    26    26   170   132   132   132    98    98 
   98    98    74    74    28    28    28    28    28    26    26    26    26    26    26    10   211   132   132    98    98 
   98    98    74    74    28    28    28    28    28    26    26    26    26    26    26    10    10    10   132    98    98 
   98    98    74    74    28    28    28    28    28    60    60    60   204   204   204    10    10    10    10    98    98 
   98    98    74    44    44    44    44    44    60    60    60    60   204   204   204    10    10    10    10    98    98 
   98    98   125    44    44    44    44    44    60    60    60    60    60   204   204    10    10    10    10    98    98 
  125   125   125    44    44    44    44   109   109    60    60    60    60    60    60   217    10     8     8     8     8 
    7     7   125   125    44    44   109   109   109   109    60    60    60    60   198   198     8     8     8     8     8 
    7     7     7   168   184   184   109   109   109   109   109    60    60    60   198   198     8     8     8     8     7 
    7     7     7    91   168   184   109   109   109   109   109   109    60   198   198   198     8     8     7     7     7 
    7   158    91    91    91     4   109   109   109   109   109   109   209   209   209   198   198   206   206     7     7 
  158   104   158    91     4     4     4   109   109   109   134   134   209   209   209   210   206   206   206   206   206 
   91   158    91    91     4     4     4     4   180   180   134   134   209   209   209   210   210   206   206   206   206 
   91    91    91    91     4     4   124   124   180   180   180   163   163   210   210   210   210   206   206   206   206 
   91    16    91     4     4   124   124   124   180   180   180   180   210   210   210   210   210   130   206   206   206 
   16    16    16    16   190   167   124   124   180   180   180   180   210   210   210   218   130   130   130   130    16 
   16    16    16    16    16   124   124   124   180   180   180   180   180   218   218   218   218   218   196    16    16 
   16    16    16    16    16   124   124   124   180   180   180   180   180   218   218    76   218   218   218    16    16 
   16    16    16    16    16    67    67    67    67    67   180   180    36    36   218   218   218     1     1     1    16 
   16    16    16    16    67    67    67    67    67    67    67    36    36    36    96    96     1     1     1     1    16 
   16    16    16    16    67    67    67    67    67    67    26    26    26    36    96    96     1     1     1     1     1 
   98    16    74    74    28    28   191   191   191   191    26    26    26    26    26   170   132   132   132   132    98 
   98    98    74    74    28    28    28   191   191    26    26    26    26    26    26   132   132   132   132   132    98 
   98    98    74    74    28    28    28    28    28    26    26    26    26    26    26   132   132    10   132   132    98 
   98    98    74    74    28    28    28    28    28    60    60    72    26    26   132   132   132   132   132   132    98 
   98    98    74    74    28    28    28    28    60    60    60    72    60    60   132   132   132   132   132   132    98 
   98    98    74    44    44    44    44    60    60    60    60    60    60    60    60   132   132   132   132   132    98 
    7     7    64    64   168   168   145   109   109    60    60    60    60    60   198   198   132     8     8     8     8 
    7     7    64   168   168   145   145   109   109   109    60    60    60    60   198   198   198     8     8     8     8 
    7     7    91   168   184   184   145   109   109   109   109    60    60   198   198   198   198     8     8     7     7 
    7    91    91    91   168   184   145   109   109   109   109   109   198   198   198   198   198     8     7     7     7 
   91    91    91    91    91     9   145   145   109   109   109   198   198   198   198   198   206   206   206   206   206 
   91    91    91    91    91     9     9   120   120   109   109   198   209   209   209   198   206   206   206   206   206 
   91    91    91    91    91     9   124   124   124   124   180   209   209   209   209   210   206   206   206   206   206 
   91    91    91    91   190   124   124   124   124   180   180   180   163   221   221   210   206   206   206    86   206 
   91    91    91   190   190   190   124   124   124   180   180   180   221   221   221   221   221   206    86    86    86 
   16    16    16   190   190   190   124   124   124   180   180   180   221   221   221   221   130   130   130    86    86 
   16    16    16   190   190   190   124   124   124   180   180   180   221   221   221   218   218   218   196   112   112 
   16    16    16    16   190   124   124   124   124   180   180   180   221   221   218   218   218   218   218   112   112 
   88    88    88    16    16   124    67    67    67   180   180   180   175   175   218   218   218     1     1     1    16 
   88    88    88    88    67    67    67    67    67    67    26   175   175   175    96    96     1     1     1     1     1 
   88    88    88    88    67    67    67    67    67    67    26    26    26    26    25    96     1     1     1     1     1 
  123   123    88    74    28    28   191   191   191    26    26    26    26    26    26   170    10    10    10    10    10 
   98    98    74    74    28    28    28   191   191    26    26    26    26    26    26    10    10    10    10    10    10 
   98    98    74    74    28    28    28    28    28    26    26    26    26    26    26   132   132    10    10    10    10 
   98    98    74    74    28    28    28   111   111    93    93    93    93    26   132   132   132   132   132    10    10 
   98   155   155   155    28    28   111   111   111    60    93    93    93    60   132   132   132   132   132   132    98 
   98    64    64    64   168   168   111   111    60    60    60    60    60    60   198   132   132   132   132   132    98 
   64    64    64    64   168   168   145   145   109    60    60    60    60   198   198   198   198     8     8     8     8 
   91    91    64   168   168   168   145   145   109   109    60    60    60   198   198   198   198     8     8     8     8 
   91    91    91   168   168   168   145   145   109   109   109    60   198   198   198   198   198     8     8     7     7 
   91    91    91    91   168   168   145   145   109   109   109   198   198   198   198   198   198   206   206     7     7 
   91    91    91    91    91     9   145   120   145   109   109   198   198   198   198   198   206   206   206   206   206 
   91    91    91    91     9     9   120   120   120   109   109   198   198   198   198   198   206   206   206   202   206 
   91    91    91    91    91     9   124   120   124   124   180   209   209   221   221   206   206   206   206   206   206 
   91    91    91    91   190   124   124   124   124   124   180   221   221   221   221   221   221   206    86    86    86 
   91    91    91   190   190   190   124   124   124    24   180   221     3   221   221   221   221   206    86    86    86 
   91    91    91   190   190   190   124   124   124    24    24   221   221   221   221   221   221    61    86    86    86 
   16    16    16   190   190   190   124   124   124    24   180   221   221   221   221   221   221   218   196   112   112 
   88    88    88   190   190   124   124   124   124   124   180   221   221   221   221   221   218   218   218   112   112 
   88    88    88    88   190   124   124   124   124   124   180   221   175   175   175   218   218     1     1     1   112 
   88    88    88    88   190    67    67    67    67    67   219   175   175   175   175   218     1     1     1     1     1 
   88    88    88    88    67    67    67    67    67   219    26    26    26    25    25    96     1     1     1    10   123 
  123   123    35    35    35    28   191   191   219    26    26    26    25    25    25    10    10    10    10    10   123 
  123   123    35    35    35    28    28   219   219    26    26    26    26    25    25    10    10    10    10    10   123 
  123   123    35    35    35   153    28   111   111    93    93    26    26    26    26   132   132    10    10    10   123 
  123   123    35    35    35    28   111   111   111    93    93    93    93    93   132   132   132   132    10    10   123 
  123   155   155   155   155   155   111   111   111    93    93    93    93    93    93   132   132   132   132   132   123 
  155   155   155   155   155   111   111   111   111    60    93    93    93   198   198   198   132   132   132   132   123 
   64    64    64    64    64   168   145   179   145    60    60    60    60   198   198   198   198   198     8     8   206 
   91    91    64    64   168   168   145   145   145   109    60    60   198   198   198   198   198   198     8     8   206 
   91    91    91    21   168   168   145   145   145   109   109   198   198   198   198   198   198   206   206   206   206 
   91    91    91    91   168   168   145   145   145   109   109   198   198   198   198   198   198   206   206   206   206 
   91    91    91    91    91     9   145   145   145   109   109   198   198   198   198   198   206   206   206   206   206 
   91    91    91    91    91     9     9   120   120   109   109   198   198   198   198   198   206   206   206   206   206 
   91    91    91    91    91     9   124   124   124   124    55   221   221   221   221   221   206   206   206   206   206 
   91    91    91    91    91   124   124   124   124    55    55   221     3   221   221   221   221   206   206    86   206 
   91    91    91   190   190   190   124   124   124    55    55   221     3     3   221   221   221   206    86    86    86 
   79    91    91   190   190   190   124   124   124    55    55   221     3   221   221   221   221    61    79    79    79 
   79    88    88   190   190   190   124   124   124    55    55   221   221   221   221   221   221   221    79    79    79 
   88    88    88   190   190   124   124   124   124    55    55   221   221   221   221   221   221   221    79    79   112 
   88    88    88    88   190   124   124   124   124   219   219   221   221   221   221   221   221     1     1    79   112 
   88    88    63    63    63    67    67   219   219   219   219   219   175   175   175   218     1     1     1   123   123 
  123    88    63   161   161   219   219   219   219   219   219    26    25    25    25    25     1     1   123   123   123 
  123   123   161   161   161   161   219   219   219   219   219    26    25    25    25    25    10    10   123   123   123 
  123   123   123    35    35    28   219   219   219   219   219    80    25    25    25    10   122   122   123   123   123 
  123   123    35    35    35   153   117   219   219   219    80    80    80    26    26   132   122   122   122   123   123 
  123   123   155   155   155   155   111   111   111    93    93    93    93    93    93   132   122   122   122   123   123 
  123   155   155   155   155   155   111   111   111    93    93    93    93    93    93   132   132   132   132   123   123 
  155   155   155   155   155   155   111   111   111   160   160   160   160   198   198   198   132   132   132   123   123 
   91   155   108   108   108   168   145   145   145   160   160   160   160   198   198   198   198   198   182   182   182 
   91    91    91   108   168   168   145   145   145   145   160   160   198   198   198   198   198   198   182   182   182 
   91    91    91    91   168   168   145   145   145   145   198   198   198   198   198   198   198   198   182   182   182 
   91    91    91    91   168   168   145   145   145   145   198   198   198   198   198   198   198   206   206   206   206 
   91    91    91    91    91     9   115   115   115   115   198   198   198   198   198   198   206   206   206   206   206 
   91    91    91    91    91     9     9   120   115   115   198   198   198   198   198   221   206   206   206     6   206 
   91    91    91    91    91     9   124   124   124    55    55   221   221   221   221   221   221   206   206   206   206 
   91    91    91    91   124   124   124   124    55    55    55   221     3   221   221   221   221   206   206   206   206 
   79    91    91    91   124   124   124   124    55    55    55   221     3     3   221   221   221    79    79    79    79 
   79    79    91   124   124   124   124   124    55    55    55   221     3     3   221   221   221    79    79    79    79 
   79    79    63   124   124   124   124   124    55    55    55   221   221   221   221   221   221    79    79    79    79 
   63    63    63    63    12    12   124   124   124    55    55   221   221   221   221   221   221    79    79    79    79 
   63    63    63    63    12    12    12    57   124   219   219   221   221   221   221   221   221    79    79    79    79 
   63    63    63    63    63    12    57    57   219   219   219   219   219   175   175   221   221     1   123   123   123 
  123    63    63   161   161   161   219   219   219   219   219   219   219    25    25   142   142   123   123   123   123 
  123   123   161   161   161   161   219   219   219   219   219   219   219    25    25   142   142   123   123   123   123 
  123   123   161   161   161   117   219   219   219   219   219    80    80    25    25   142   122   122   122   123   123 
  123   123   155   155   117   117   117   219   219   219    80    80    80   118   118   122   122   122   122   123   123 
  123   123   155   155   155   117   117   219   219   219    80    80    80    93    93   122   122   122   122   123   123 
  123   155   155    30   155   155   111   111   111   160   160    33    93    93    93   122   122   122   122   123   123 
  155   155   155   155   155   155   155   111   160   160   160   160   160   160   198   181   181   181   122   123   123 
  203   155   108    87   108   155   145   145   145   160   160   160   160   160   198   198   181   182   182   182   182 
  203   203   108   108   108   168   145    85   115   160   160   160   160   198   198   198   198   182   182   182   182 
   91    91    91   108   168   168    85    85    85   115   160   198   198   198   198   198   198   182   182   182   182 
   91    91    91    91   168   168   115    85   115   115   198   198   198   198   198   198   198   206   182   182   206 
   91    91    91    91   162   162   115   115   115   115   115   198   198   198   198   129   129   206   206   206   206 
   91    91    91    91   162   162   162   115   115   115   115   198   198   221   221   129   129   129   206     6   206 
   91    91    91    91   162   162   162    55    55    55    55   221   221   221   221   221   129   129   206   206   206 
   79    91    91   215   215   124   124    55    55    55    55   221   221   221   221   221   221    79    79    79    79 
   79    79   215   215    29    29   124    55    55    55    55   221     3     3   221   221   221    79    79    79    79 
   79    79   215    29    29    29   124    55    55    55    55   221   221     3   221   221   221    79    79    79    79 
   79    79    63    12    12    12    12   124    55    55    55   221   221   221   221   221   221    79    79    79    79 
   63    63    63    63    12    12    12    12    55    55    55   221   221   221   221   221   221    79    79    79    79 
   63    63    63    63    12    12    12    57    57   219   219   219   221   221   221   221   221    79    79   164    79 
   63    63    63    63    12    12    57    57   219   219   219   219   219   221   221   221   221   164   164   164   164 
  123    63    63    63    12    57    57    57   219   219   219   219   219   219    25   142   122   123   123   123   123 
  123   123   161   161   161   117   219   219   219   219   219   219   219   219    25   142   122   123   123   123   123 
  123   123   195   161   117   117   117   219   219   219   219   219    32    32    32   122   122   122   102   123   123 
  123   123   195   117   117   117   117   219   219   219   219    80    32    32    32   122   122   122   102   102   123 
  123   195   155   155   117   117   117   219   219   219   219    80    80    32    32   122   122   122   102   102   123 
  123   155   155   155   155   194   194   219   219   219   137   137   137   160   181   181   122   122   102   102   102 
  203   203   155   155   155   194   194   194   193   193   137   137   160   160   181   181   181   181   102   102   102 
  203   203   203   108   108   115   115   115   193   193   137   137   160   160   181   181   181   181    31    31    31 
  203   203   203   108   115   115   115   115   115   193   137   137   137   198   181   181   181   181    31    31    31 
  203   203   203   108   115   115   115   115   115   115   137   137   198   198   198   198   181    31    31    31    31 
   91    91    91    91   115   115   115   115   115   115   137   198   198   198   198   198   129    31    31    31    31 
   46    46    46    46    46   162   115   115   115   115   115   198   198   198   129   129   129   129   129   129   206 
   46    46    46    46   162   162   162   115   115   115   115    54    54    54   129   129   129   129   129   129   129 
   79   215    46    46    46   162   162   162    66    66    55    54    54    54    54   129   129   129   129   176   176 
   79   215   215   215   215   215   162    66    66    66    55   139    54    54    54   221   129   129    79   176    79 
   79   215   215   215   215    29    29    66    66    55    55   221   221     3   221   221   221    79    79    79    79 
   79    79   215   215    29    29    29    55    55    55    55   221   221   138   221   221    79    79    79    79    79 
   79    79   215    12    12    12    12    12   113   113   113   221   221   221   221   221   221    79    79    79    79 
   79    63    63    12    12    12    12    12   113   113   113   113   221   221   221   221   221    79    79    79    79 
   63    63    63    37    12    12    12    57    57   113   113   219   221   221   221   221   221    79   164   164   164 
   63    63    63    37    37    12    57    57    57   219   219   219   219   221   221   221   164   164   164   164   164 
   63    63    63    37    37    57    57    57   219   219   219   219   219   157   157   157   164   164   164   164   123 
  123   195   195   195   117   117   219   219   219   219   219   219   219   157   157   157   122   102   102   123   123 
  123   195   195   195   117   117   117   219   219   219   219   219    32    32    32    32   122   102   102   102   123 
  195   195   195   117   117   117   117   219   219    89   219   219    32    32    32    32   122   102   102   102   102 
  195   195   195   117   117   117   117   219   219   219   219   219    32    32    32    32   122   102   102   102   102 
  195   195   116   116   194   194   194   219   219   105   105   137   137   137   141   141   141   102   102   102   102 
  203   203   203   155   194   194   194   194   193   193   105   137   137   137   181   181   181   181   189   189   102 
  203   203   203   108   194   194   115   115   193   193   137   137   137   137   181   181   181   181   189   189   189 
  203   203   203   203   115   115   115   115   115   193   137   137   137   137   181   181   181   181    31    31    31 
  203   203   203   203   115   115   115    69   115   115   137   137   137   137   198   181   181    31    31    31    31 
   91    46    46    46   115   115   115   115   115   115   137   137   198   198   198   129   129   129    31    31    31 
   46    46    46    46    46    46   115   115   115   115   115    53    54   129   129   129   129   129   129   129   129 
   46    46    46    46    46   162   162   115   115   115    53    54    54   129   129   129   129   129   129   129   129 
  215   215   215    46    46    46   162   162    66    66    54    54    54    54   129   129   129   129   129   129   129 
   79   215   215   215   215   215   215    66    66    66    55   139    54    54    54   129   129   129   129    79    79 
   79   215   215   215   215   215    29    66    66    55   113   221    54    54   156   156   129    79    79    79    79 
   79    79   215   187   215    29    29   113   113   113   113   113   221   126   221   221    79    79    79    79    79 
   79    79   215    12    12    12    12   113   113   113   113   113   221   221   221   221    79    79    79    79    79 
   79    63    63    12    12    12    12   113   113   113   113   113   221   221   221   221    79    79    79    79    79 
   63    63    63    12    12    12    12    57   113   113   113   113   113   221   221   188   188    79    79   164    79 
   63    63    63    37    12    12    57    57    57   219   219   219   219   157   157   188   188   164   164   164   164 
  195   195   195    37    12    57    57    57   219   219   219   219   157   157   157   157   188   102   102   164   123 
  195   195   195   195   195   117   219   219   219   219   219   219   157   157   157   157   102   102   102   102   195 
  195   195   195   195   117   117   117   219   219   219   219   219   157   157   157   157   102   102   102   102   102 
  195   195   195   195   117   117   117   219   219   219   219    84    38    38    38    38   102   102   102   102   102 
  195   195   195   195   117   117   117   219   219   219   219    84    38    38    38    38   102   102   102   102   102 
  195   195   195   116   194   194   194   219   219   105   105   137   137   137   141   141   141   102   102   102   195 
  195   203   195   155   194   194   194   194   193   193   105   137   137   137   181   181   181   181   189   189   195 
  203   203   203   203   194   115   115   115   193   193   137   137   137   137   181   181   181   181   189   189   189 
  203   203   203   203   115   115   115   115   115   193   137   137   137   137   181   181   181   181   189    31    31 
   82   203    46    46   115   115   115   115   115   115   137   137   137   137   181   181   129   129    31    51    31 
   82    46    46    46    46   115   115   115   115   115   115   137   137   137   129   129   129   129    51    51    51 
   46    46    46    46    46    46   115   115   115   115    53    53    53   129   129   129   129   129   129   129   129 
   46    46    46    46    46    46   162   115   115    53    53    53    53   129   129   129   129   129   129   129   129 
  215   215   215    46    46    46    46    46    66   201    53    53    54   156   156   129   129   129   129   129   129 
   79   215   215   192   215   215   215    66    66    66    56    56   156   156   156   156   129   129   129   129    79 
   79   215   215   215   215   215   215   113    66   113   113   156   156   156   156   156   156   129    79    79    79 
   79   215   187   187   187   215    29   113   113   113   113   113   126   126   156   156   156    79    79    79    79 
   79    79   187   187    12    12    12   113   113   113   113   113   126   126   156   156   156    79    79    79    79 
   79    79   187    12    12    12   113   113   113   113   113   113   113   126   188   188    94    94    79    79    79 
   63    63    63    12    12    12    12   113   113   113   113   113   113   188   188   188   188    94    79    79    79 
  195   195    63    37    12    12    57    57   113   113   113   219   219   157   188   188   188   188    90   164   164 
  195   195   195   195    12   200   200   219   219   219   219   219   157   157   157   188   188    90    90   164   195 
  195   195   195   195   195   200   200   200   219   219   219   219   157   157   157   157   157   102   102   102   195 
  195   195   195   195   195   200   200   200   219   219   219    84   157   157   157   157   157   102   102   102   195 
  195   195   195   195   195   117   200   200   200   219    84    84    38    38    38     2     2   102   102   102   195 
  195   195   195   195   195   166   200   200   200   219    84    84    38    38    38     2    23    23   102   102   195 
  195   195   195   195   166   166   166   200   200   105   105   137   137    38    38    23    23    23    23   102   195 
  195    27   195   195   166   166   166   133   133   193   105   137   137   137   181   181    23    23    23   189   195 
   27    27    27    27   115   115   115   115   115   193   137   137   137   137   181   181   181    23   189   189   189 
   82    82    82    82   115   115   115   115   115   193   137   137   137   137   181   199   181   129   189    51    51 
   82    82    82    82   115   115   115   115   115   115    62   137   137   199   199   199   129   129    51    51    51 
   82    82    46    46    46   115   115   115   115   115    62   214   137   199   129   129   129   129    51    51    51 
   82    82    46    46    46    46    46   201   201   201    53    53    53    53   129   129   129   129   129   129   129 
   82    46    46    46    46    46    46   201   201    53    53    53    53    53   129   129   129   129   129   129   129 
  215   215   215   215   215   215   215   201   201   201    53    53    53   156   156   129   129   129   129   171   129 
  215   215   215   215   215   215   215   215   201   201    56    56   156   156   156   156   156   129   171   171    79 
   79   215   215   215   215   215   215   113   113   113   113    56   156   156   156   156   156   129    79    79    79 
   79   136   136   136   136   215   113   113   113   113   113   113   156   156   156   156   156    79    79    79    79 
   79   136   136   136   136    12   113   113   113   113   113   113   156   156   156   156    94    94    94    79    79 
  100   136   136   136    12    12   113   113   113   113   113   113   113   188   188   188    94    94    94   100   100 
   99    99    99    12    12    12   113   113   113   113   113   113   113   188   188   188   188    94    94   100   100 
   99    99    99    99    12    12   113   113   113   113   113   113   113   188   188   188   188    90    90   121   121 
  195   205   195   195   200   200   200   200   200   219   219   219   157   157   188   188   188    90    90   121   195 
  195   205   195   195   200   200   200   200   200   219   219   219   157   157   157   188   188    90    90   195   195 
  195   195   195   195   200   200   200   200   200   200   219    84     2     2     2     2     2    23   102   102   195 
  195   195   195   195   200   165   200   200   200   200    84    84     2     2     2     2    23    23    23   102   195 
  195   195   195   195   200   200   200   200   200   200    84    84     2     2     2     2    23    23    23    23   195 
  195   195   195   195   166   166   200    42   200   200    84    84     2     2     2    23    23    23    23    23   195 
  195   195   195   195   166   166   200    42   133   200   105   214   119   119   119    23    23    23    23    23   195 
   82    27    82    82    82   115   115   115   115   193   214   214   119   119   119   107    23    23    23   189    82 
   82    82    82    82    82   115   115   115    62    62    62   214   214   119   199   199   199   199    18    51    82 
   82    82    82    82    82   115   115   115    62    62    62   214   214   199   199   199   199   199    51    51    82 
   82    82    82    46    46    46   115   115    62    62    62   214   214   199   199   199   129   129   129   129    82 
   82    82    82    46    46    46    46   201   201   201   214    53    53    53   199   199   129   129   129   129    82 
   82    46    46    46    46    46    46   201   201   201    53    53    53   156   156   129   129   129   129   129   129 
  215   215   215   215   215   215   215   201   201   201    53    53    53   156   156   156   129   129   129   171   171 
  215   215   215   215   215   215   215   201   201   201    56    56   156   156   156   156   156   129   171   171   171 
  100   136   136   136   136   215   215   113   113    75    75    75   156   156   156   156   156   156   171   171   100 
  100   136   136   136   136   136   113   113   113   186    75    75   156    92   156   156   156    17   100   100   100 
  100   100   136   136   136   136   113   113   186   186   186    75    75   156   156   156    94    17    94   100   100 
  100   100   136   136   136   136   113   113   186   186   186   113    75   188   188   188    94    17    94   100   100 
   99    99    99    99    12    12   113   113   186   186   186   113    75   188   188   188   188    17    94   100   100 
   99    99    99    99    99    14    14   113   113   186   113   113   188   188   188   188   188    90    90   121   121 
  205   205   205   205    14    14    14    14    14    14   219   219   157   188   188   188   188    90   121   121   121 
  205   205   205   195   200   200   200   200   200   200   200     2     2     2     2   188   188    90   121   121   195 
  195   205   195   195   200   200   200   200   200   200   200     2     2     2     2     2   188    23    23   195   195 
  195   131   195   195   165   165   200   200   200   200   200     2     2     2     2     2    23    23    23    23   195 
  195   195   195   195   200   200   200   200   200   200   200     2     2     2     2     2    23    23    23    23   195 
  195   195   195   195   200   200   200    42   200   200   200     2     2     2     2    23    23    23    23    23   195 
  195   195   195    82   200   200   200    42    42   200   214   214   119   119   119    23    23    23    23    18    18 
   82    82    82    82    82   200   200    42    42   214   214   214   119   119   119   107    23    23    18    18    18 
   82    82    82    82    82   115   115    62    62    62   214   214   214   119   199   199   199   199    18    18    82 
   82    82    82    82    82   115   115    62    62    62    62   214   214   199   199   199   199   199    71    71    82 
   82    82    82    82    46    46   115    62    62    62   214   214   214   199   199   199   199   129   129   129    82 
   82    82    82    46    46    46   201   201   201   201   201   214   214   214   199   199    71    71    71   129    82 
  174   174   174    46    46    46   201   201   201   201   201   183    53   214   156   129   129   129   129   129   129 
  174   174   215   215   215   215   201   201   201   201   201   183    53   156   156   156   156   129   129   171   171 
  100   215   215   215   215   215   215   201    95    95    95    75    75   156   156   156   156   129   171   171   171 
  100   136   136   136   136   136   136   201    95    95    75    75    75   156   156   156   156   156   100   100   100 
  100   100   136   136   136   136   150   113   113    75    75    75    75   156   156   156   156   100   100   100   100 
  100   100   136   136   136   136   150   113   186   186    75    75    75   156   156   156    94    94   100   100   100 
  100   100   136   136   136    43   150   113   186   186   186    75    75     5     5     5    94    94   100   100   100 
  100    99    99    70    70    43    14   113   186   186   186   140    75     5     5     5     5    94   100   100   100 
   99    99    99    70    70    14    14    14    14   186   140   140   140     5     5     5     5    90   100   121   100 
  205   205   205    70    14    14    14    14    14    14   140   140   140     5     5     5     5     5   121   121   100 
  205   205   205   205    14    14    14    14    14    14   140     2     2     2     5     5     5     5     5   121   195 
  154   154   154   154   200   200   200    14   200   200   200     2     2     2     2     2     5     5     5   195   195 
  195   131   154   154   200   200   200   200   200   200   200     2     2     2     2     2    23    23    23    15   195 
  195   195   195   195   200   200   200   200   200   200   200     2     2     2     2     2    23    23    23    15    15 
  195   195   195   195   200   200   200   200   200   200   200     2     2     2     2    23    23    23    23    15    15 
   82    82    82   220   220   200   200   200   200   200   214   214   214   119   119    23    23    23    18    18    18 
   82    82    82    82   220   200   200   200   200   214   214   214   214   119   119   107    23    18    18    18    18 
   82    82    82    82    82    82   200    62    62   214   214   214   214   214   199   199   199    71    18    18    18 
   82    82    82    82    82    82    62    62    62    62   214   214   214   214   199   199   199    71    71    71    82 
   82    82    82    82    82    82    62    62    62   214   214   214   214   214   199   199    71    71    71    71    82 
  213   213   213   213    46   201   201   201   201   201   201   214   214   214   214    71    71    71    71    71    82 
  174   174   174   174    46   159   159   159   201   106   201   201   214   214   151   151    71   129    71    71    49 
  174   174   174   174   127   127   159   201   201   201   201   201   214   156   151   151   151   151   152   152    49 
  174   174   174   215   127   127   103   103    95    34    95    75    75   156   151   151   151   152   152   152   152 
  100   101   136   136   136   127   127   103    95    95    75    75    75    75   156   151   151   152   152    20    20 
  100   100   136   136   136    43   150   150    95    75    75    75    75    75   156   156   156   152   152    20   100 
  100   100   136   136    43    43   150   150   150    75    75    75    75    75   156   156   156   100   100   100   100 
  100   100   100    43    43    43   150   150   150   186    75    75    75     5     5     5     5   100   100    48   100 
  100   100    70    70    43    43   150   150   197   197   197   140   140     5     5     5     5   100   100   100   100 
  100    99    70    70    70    41    14    14    14   197   140   140   140     5     5     5     5     5   100   100   100 
  154   154   154    70    70    14    14    14    14   197   140   140   140     5     5     5     5     5   100   100   100 
  154   154   154   154   154    14    14    14    14    14   140   140     2     5     5     5     5     5     5   154   154 
  154   154   154   154   200    14    14    14    14    14    14     2     2     2     2     5     5     5     5   154   154 
  154   212   154   154   200   200   200   200   200   200   200     2     2     2     2     2     2    23    15    15   154 
  154   154   154   154   200   200   200   200   200   200   200     2     2     2     2     2    23    23    15    15    15 
   18   154   154   220   200   200   200   200   200   200   214   214     2     2     2    23    23    23    15    15    15 
   18    18   220   220   220   200   200   200   200   214   214   214   214   214   214    23    23    18    18    18    18 
   18   213   220   220   220   220    40   169   214   214   214   214   214   214   214    71    71    71    18    18    18 
  213   213   213   220   220    40    40   214   214   214   214   214   214   214   214    71    71    71    71    18    18 
  213   149   213   213   213   173   173   214   214   214   214   214   214   214   214    71    71    71    71    71   213 
  213   213   213   213   213   173   173   201   201   214   214   214   214   214   214    71    71    71    71    71   213 
  213   213   213   213   213   201   201   201   201   201   214   214   214   214   208   208    71    71    71    71    49 
  174   174   174   174   127   127   127   201   201   201   201   201   214   214   208   208   208    71   152    49    49 
  174   174   174   127   127   127   127   103   201   201   201   201   214   148   148   208   208   152   152    49    49 
  101   101   101   101   127   127   127   103   103    95    75    75    75   148   148   151   151   152   152    49    49 
  101   101   101   101   127   127   127   103   103    95    75    75    75    75   156   151   152   152   152    49    49 
  101   101   101   101    43    43   150   150   150    75    75    75    75    75   156   156   152   152   152    20   100 
  100   101   101    43    43    43   150   150   150    75    75    75    75    75   156   156   152   152   100   100   100 
  100   100   100    43    43    43   150   150   150   185    75    75    75     5     5     5     5   100   100   100   100 
  100   100   100    43    43    43   150   150   197   197   197   197    75     5     5     5     5   100   100   100   100 
  100   100    70    70    41    41    41    14   197   197   197   140   140     5     5     5     5     5   100   100   100 
  154   154   154    70    41    41    14    14   197   197   197   140   140     5     5     5     5     5   100   100   100 
  154   154   154   154    41    14    14    14    14   197   197   140   140     5     5     5     5     5     5   154   154 
  154   154   154   154   154    14    14    97    97    97   197     2     2     2     2     5     5     5   154   154   154 
  154   154   154   154   154    97    97    97    97    97    97     2     2     2     2     2     2    23    15   154   154 
   11    11   154   154    97    97    97    97    97    97    97     2     2     2     2     2    23    23    15    15    15 
   11    11    11   220   220    97    97    97    97    97   214   214   214     2   217    23    23    23    15    15    15 
   11    11   220   220   220    40    40   169    97   214   214   214   214   214   214   214    23    18    18    18    18 
   18   220   220   220   220    40    40   169   169   214   214   214   214   214   214   214    71    71    18    18    18 
  149   149   220   220   220    40    40   169   214   214   214   214   214   214   214    71    71    71    71    18    18 
  149   149   213   213   173   173   173   169   214   214   214   214   214   214   214    71    71    71    71    18    18 
  213   213   213   213   173   173   173   173   214   214   214   214   214   214   214    71    71    71    71    71   213 
  213   213   213   213   213   127   127   201   201   201   214   214   214   214   208   208   208    71    71    49    49 
  174   174   174   174   127   127   127   143   201   201   201   214   214   214   208   208   208   208    49    49    49 
  101   174   101   127   127   127   127   103   103   201   201   201   214   148   148   208   208   152    49    49    49 
  101   101   101   101   127   127   127   103   103   103    75    75    75   148   148   151   152   152   152    49    49 
  101   101   101   101   127   127   127   103   103   103    75    75    75    75   210   151   152   152   152    49    49 
  101    58   101    43    43    43   150   150   150    75    75    75    75    75   210   152   152   152   152   152   100 
  101   101   101    43    43    43   150   150   150   185    75    75    75    75     5   152   152   152   152   100   100 
  100   100   101    43    43    43   150   150   150   185   185    75    75     5     5     5     5   152   100   100   100 
  100   100    43    43    43    43    43   150   150   197   197   197   197     5     5     5     5   100   100   100   100 
  100   154    41    41    41    41    41   197   197   197   197   197   197   178     5     5     5     5   100   100   100 
  154   154   154    41    41    41    41    14   197   197   197   197   197   178   178     5     5     5   100   100   100 
  154   154   154   154    41    41    14   144   197   197   197   197   178   178   178   178     5     5   100   154   154 
  154   154   154   154   147    97    97    97    97    97   197   197   217   217   178   178     5     5   154   154   154 
  154    13   154   154   147    97    97    97    97    97    97   217   217   217   217   217   217    23   154   154   154 
   11    11    11   154   147    97    97    97    97    97    97   217   217   217   217   217   217    23    15    15    15 
   11    11    11   220   220    97    97    97    97    97    97   217   217   217   217   217   217    23   135   135    15 
   11    11   220   220   220    40    40   169   169   214   214   214   217   217   217   217   217    18    18    18    18 
   18   220   220   220   220    40    40   169   169   214   214   214   214   214   214   217    71    71    18    18    18 
  149   220   220   220   220    40    40   169   169    22    22   214   214   214   214    71    71    71    18    18    18 
  149   149   220   220   173   173   173   169   214    22    22   214   214   214   214    71    71    71    71    18    18 
  213   213   213   213   173   173   173   173   214    22    22   214   214   214   214    71    71    71    71    71   213 
  213   213   213   213   127   127   127   103   201   201   214   214   214   214   208   208   208   208   152    49    49 
  174   174   174   127   127   127   127   103   103    50   201   214   214   208   208   208   208   208   152    49    49 
  101   101   101   127   127   127   127   103   103   201   201   201   210   210   210   208   208   152   152    49    49 
  101   101   101   101   127   127   127   103   103   103    75    75   210   210   210   210   152   152   152    49    49 
  101   101   101   101   127   127   127   127   103   103    75    75   210   210   210   210   152   152   152   152    49 
  101   101   101   101    43    43   127   150   150    75    75    75    75   210   210   152   152   152   152   152   100 
  101   101   101    43    43    43   150   150   150   185    75    75    75    75     5   152   152   152   152   152   100 
  100   101   101    43    43    43    43   150   150   185   197   197    75     5     5     5   152   152   152   100   100 
  100   100    43    43    43    43    43   150   197   197   197   197   197   178   178   178     5   100   100   100   100 
  100   154    41    41    41    41    41   197   197   197   197   197   197   178   178   178     5     5   100   100   100 
  154   154   154    41    41    41    41   197   197   197   197   197   197   178   178   178     5     5   100   100   100 
  154   154   154   154   147   147   147    97   197   197   197   197   178   178   178   178   178   178   100   154   154 
  154   154   154   147   147   147    97    97    97    97   197   217   217   217   178   178   178   178   154   154   154 
  154   154   154   147   147   147    97    97    97    97    97   217   217   217   217   217   217   217   217   154   154 
   11    11    11   147   147   147    97    97    97    97    97   217   217   217   217   217   217   217    15    15    15 
   11    11    11   220   147   147    97    97    97    97   217   217   217   217   217   217   217   217   135   135    15 
   11    11   220   220   220    40    40   169    97    97   217   217   217   217   217   217   217   217    18    18    18 
   11   220   220   220   220    40    40   169   169    22   214   217   217   217   217   217   217    71    18    18    18 
  220   220   220   220   220    40    40   169    22    22    22   214   214   214   214   217   217    71    18    18    18 
  149   149   220   220   173   173   173   173    22    22    22   214   214   214   214    71    71    71    71    18    18 
  213   213   213   173   173   173   173   173    22    22    22   214   214   214   214    71    71    71    71    71   213 
VECTORS Euler_phi1Phi0phi2 float 
 +4.523970E+00 +2.179550E+00 +2.367365E-02     +4.523970E+00 +2.179550E+00 +2.367365E-02     +4.523970E+00 +2.179550E+00 +2.367365E-02     +3.930640E+00 +1.465029E+00 +3.238450E+00     +4.602379E+00 +5.372560E-01 +2.793579E+00     +5.525491E+00 +1.605509E+00 +1.080820E+00     +5.525491E+00 +1.605509E+00 +1.080820E+00     +5.525491E+00 +1.605509E+00 +1.080820E+00     +5.525491E+00 +1.605509E+00 +1.080820E+00     +5.525491E+00 +1.605509E+00 +1.080820E+00     +5.525491E+00 +1.605509E+00 +1.080820E+00     +5.525491E+00 +1.605509E+00 +1.080820E+00     +4.957660E-01 +1.701850E+00 +2.498352E-01     +4.957660E-01 +1.701850E+00 +2.498352E-01     +4.957660E-01 +1.701850E+00 +2.498352E-01     +4.957660E-01 +1.701850E+00 +2.498352E-01     +4.957660E-01 +1.701850E+00 +2.498352E-01     +1.386111E+00 +2.577029E+00 +3.175319E+00     +1.386111E+00 +2.577029E+00 +3.175319E+00     +1.386111E+00 +2.577029E+00 +3.175319E+00     +3.158290E+00 +9.270875E-01 +4.146730E+00    
 +4.523970E+00 +2.179550E+00 +2.367365E-02     +4.523970E+00 +2.179550E+00 +2.367365E-02     +4.523970E+00 +2.179550E+00 +2.367365E-02     +4.602379E+00 +5.372560E-01 +2.793579E+00     +4.602379E+00 +5.372560E-01 +2.793579E+00     +5.685649E+00 +1.890691E+00 +5.557690E+00     +5.685649E+00 +1.890691E+00 +5.557690E+00     +5.525491E+00 +1.605509E+00 +1.080820E+00     +5.525491E+00 +1.605509E+00 +1.080820E+00     +5.525491E+00 +1.605509E+00 +1.080820E+00     +5.525491E+00 +1.605509E+00 +1.080820E+00     +5.525491E+00 +1.605509E+00 +1.080820E+00     +4.957660E-01 +1.701850E+00 +2.498352E-01     +4.957660E-01 +1.701850E+00 +2.498352E-01     +4.957660E-01 +1.701850E+00 +2.498352E-01     +4.957660E-01 +1.701850E+00 +2.498352E-01     +4.957660E-01 +1.701850E+00 +2.498352E-01     +1.386111E+00 +2.577029E+00 +3.175319E+00     +1.386111E+00 +2.577029E+00 +3.175319E+00     +1.386111E+00 +2.577029E+00 +3.175319E+00     +1.386111E+00 +2.577029E+00 +3.175319E+00    
 +4.523970E+00 +2.179550E+00 +2.367365E-02     +4.523970E+00 +2.179550E+00 +2.367365E-02     +4.523970E+00 +2.179550E+00 +2.367365E-02     +4.602379E+00 +5.372560E-01 +2.793579E+00     +4.602379E+00 +5.372560E-01 +2.793579E+00     +5.685649E+00 +1.890691E+00 +5.557690E+00     +5.685649E+00 +1.890691E+00 +5.557690E+00     +5.685649E+00 +1.890691E+00 +5.557690E+00     +5.525491E+00 +1.605509E+00 +1.080820E+00     +5.525491E+00 +1.605509E+00 +1.080820E+00     +5.525491E+00 +1.605509E+00 +1.080820E+00     +4.957660E-01 +1.701850E+00 +2.498352E-01     +4.957660E-01 +1.701850E+00 +2.498352E-01     +4.957660E-01 +1.701850E+00 +2.498352E-01     +4.957660E-01 +1.701850E+00 +2.498352E-01     +4.957660E-01 +1.701850E+00 +2.498352E-01     +4.957660E-01 +1.701850E+00 +2.498352E-01     +2.070980E+00 +9.549901E-01 +5.551800E+00     +2.070980E+00 +9.549901E-01 +5.551800E+00     +2.070980E+00 +9.549901E-01 +5.551800E+00     +2.070980E+00 +9.549901E-01 +5.551800E+00    
 +4.523970E+00 +2.179550E+00 +2.367365E-02     +4.523970E+00 +2.179550E+00 +2.367365E-02     +4.523970E+00 +2.179550E+00 +2.367365E-02     +4.602379E+00 +5.372560E-01 +2.793579E+00     +4.602379E+00 +5.372560E-01 +2.793579E+00     +5.685649E+00 +1.890691E+00 +5.557690E+00     +5.685649E+00 +1.890691E+00 +5.557690E+00     +5.685649E+00 +1.890691E+00 +5.557690E+00     +5.685649E+00 +1.890691E+00 +5.557690E+00     +5.525491E+00 +1.605509E+00 +1.080820E+00     +5.525491E+00 +1.605509E+00 +1.080820E+00     +4.957660E-01 +1.701850E+00 +2.498352E-01     +4.957660E-01 +1.701850E+00 +2.498352E-01     +4.957660E-01 +1.701850E+00 +2.498352E-01     +4.957660E-01 +1.701850E+00 +2.498352E-01     +4.957660E-01 +1.701850E+00 +2.498352E-01     +4.957660E-01 +1.701850E+00 +2.498352E-01     +2.070980E+00 +9.549901E-01 +5.551800E+00     +2.070980E+00 +9.549901E-01 +5.551800E+00     +2.070980E+00 +9.549901E-01 +5.551800E+00     +2.070980E+00 +9.549901E-01 +5.551800E+00    
 +4.523970E+00 +2.179550E+00 +2.367365E-02     +4.523970E+00 +2.179550E+00 +2.367365E-02     +4.523970E+00 +2.179550E+00 +2.367365E-02     +4.602379E+00 +5.372560E-01 +2.793579E+00     +4.602379E+00 +5.372560E-01 +2.793579E+00     +4.549539E+00 +1.545980E+00 +3.262760E+00     +4.549539E+00 +1.545980E+00 +3.262760E+00     +5.685649E+00 +1.890691E+00 +5.557690E+00     +5.685649E+00 +1.890691E+00 +5.557690E+00     +5.685649E+00 +1.890691E+00 +5.557690E+00     +4.957660E-01 +1.701850E+00 +2.498352E-01     +4.957660E-01 +1.701850E+00 +2.498352E-01     +4.957660E-01 +1.701850E+00 +2.498352E-01     +4.957660E-01 +1.701850E+00 +2.498352E-01     +4.957660E-01 +1.701850E+00 +2.498352E-01     +1.846120E+00 +2.636760E+00 +4.365350E+00     +1.846120E+00 +2.636760E+00 +4.365350E+00     +2.070980E+00 +9.549901E-01 +5.551800E+00     +2.070980E+00 +9.549901E-01 +5.551800E+00     +2.070980E+00 +9.549901E-01 +5.551800E+00     +2.070980E+00 +9.549901E-01 +5.551800E+00    
 +5.138010E+00 +1.343350E+00 +1.951891E+00     +5.138010E+00 +1.343350E+00 +1.951891E+00     +5.138010E+00 +1.343350E+00 +1.951891E+00     +5.138010E+00 +1.343350E+00 +1.951891E+00     +4.840150E+00 +1.948020E+00 +4.511090E+00     +4.840150E+00 +1.948020E+00 +4.511090E+00     +4.840150E+00 +1.948020E+00 +4.511090E+00     +4.840150E+00 +1.948020E+00 +4.511090E+00     +4.840150E+00 +1.948020E+00 +4.511090E+00     +4.840150E+00 +1.948020E+00 +4.511090E+00     +4.840150E+00 +1.948020E+00 +4.511090E+00     +4.957660E-01 +1.701850E+00 +2.498352E-01     +4.957660E-01 +1.701850E+00 +2.498352E-01     +4.957660E-01 +1.701850E+00 +2.498352E-01     +4.957660E-01 +1.701850E+00 +2.498352E-01     +1.846120E+00 +2.636760E+00 +4.365350E+00     +1.846120E+00 +2.636760E+00 +4.365350E+00     +2.070980E+00 +9.549901E-01 +5.551800E+00     +2.070980E+00 +9.549901E-01 +5.551800E+00     +2.070980E+00 +9.549901E-01 +5.551800E+00     +2.070980E+00 +9.549901E-01 +5.551800E+00    
 +5.138010E+00 +1.343350E+00 +1.951891E+00     +5.138010E+00 +1.343350E+00 +1.951891E+00     +5.138010E+00 +1.343350E+00 +1.951891E+00     +5.138010E+00 +1.343350E+00 +1.951891E+00     +2.906589E+00 +1.952840E+00 +5.279670E+00     +2.906589E+00 +1.952840E+00 +5.279670E+00     +4.840150E+00 +1.948020E+00 +4.511090E+00     +4.840150E+00 +1.948020E+00 +4.511090E+00     +4.840150E+00 +1.948020E+00 +4.511090E+00     +4.840150E+00 +1.948020E+00 +4.511090E+00     +4.840150E+00 +1.948020E+00 +4.511090E+00     +4.957660E-01 +1.701850E+00 +2.498352E-01     +4.957660E-01 +1.701850E+00 +2.498352E-01     +4.957660E-01 +1.701850E+00 +2.498352E-01     +4.957660E-01 +1.701850E+00 +2.498352E-01     +1.846120E+00 +2.636760E+00 +4.365350E+00     +1.846120E+00 +2.636760E+00 +4.365350E+00     +2.070980E+00 +9.549901E-01 +5.551800E+00     +2.070980E+00 +9.549901E-01 +5.551800E+00     +2.070980E+00 +9.549901E-01 +5.551800E+00     +5.138010E+00 +1.343350E+00 +1.951891E+00    
 +5.138010E+00 +1.343350E+00 +1.951891E+00     +5.138010E+00 +1.343350E+00 +1.951891E+00     +5.138010E+00 +1.343350E+00 +1.951891E+00     +5.138010E+00 +1.343350E+00 +1.951891E+00     +2.906589E+00 +1.952840E+00 +5.279670E+00     +2.906589E+00 +1.952840E+00 +5.279670E+00     +4.840150E+00 +1.948020E+00 +4.511090E+00     +4.840150E+00 +1.948020E+00 +4.511090E+00     +4.840150E+00 +1.948020E+00 +4.511090E+00     +4.840150E+00 +1.948020E+00 +4.511090E+00     +4.840150E+00 +1.948020E+00 +4.511090E+00     +4.840150E+00 +1.948020E+00 +4.511090E+00     +4.957660E-01 +1.701850E+00 +2.498352E-01     +4.957660E-01 +1.701850E+00 +2.498352E-01     +4.487301E+00 +1.771249E+00 +4.998571E+00     +4.487301E+00 +1.771249E+00 +4.998571E+00     +5.598119E+00 +2.061890E+00 +1.272050E+00     +5.598119E+00 +2.061890E+00 +1.272050E+00     +5.598119E+00 +2.061890E+00 +1.272050E+00     +5.598119E+00 +2.061890E+00 +1.272050E+00     +5.138010E+00 +1.343350E+00 +1.951891E+00    
 +5.138010E+00 +1.343350E+00 +1.951891E+00     +5.138010E+00 +1.343350E+00 +1.951891E+00     +5.138010E+00 +1.343350E+00 +1.951891E+00     +5.138010E+00 +1.343350E+00 +1.951891E+00     +2.906589E+00 +1.952840E+00 +5.279670E+00     +4.840150E+00 +1.948020E+00 +4.511090E+00     +4.840150E+00 +1.948020E+00 +4.511090E+00     +4.840150E+00 +1.948020E+00 +4.511090E+00     +4.840150E+00 +1.948020E+00 +4.511090E+00     +5.254021E+00 +2.600570E+00 +4.963440E+00     +5.254021E+00 +2.600570E+00 +4.963440E+00     +5.254021E+00 +2.600570E+00 +4.963440E+00     +3.183899E+00 +1.106230E+00 +6.516117E-01     +3.183899E+00 +1.106230E+00 +6.516117E-01     +3.183899E+00 +1.106230E+00 +6.516117E-01     +3.183899E+00 +1.106230E+00 +6.516117E-01     +4.487301E+00 +1.771249E+00 +4.998571E+00     +5.598119E+00 +2.061890E+00 +1.272050E+00     +3.868631E+00 +2.330819E+00 +3.753090E+00     +3.868631E+00 +2.330819E+00 +3.753090E+00     +5.138010E+00 +1.343350E+00 +1.951891E+00    
 +5.138010E+00 +1.343350E+00 +1.951891E+00     +5.138010E+00 +1.343350E+00 +1.951891E+00     +5.138010E+00 +1.343350E+00 +1.951891E+00     +5.138010E+00 +1.343350E+00 +1.951891E+00     +4.350031E+00 +2.797740E+00 +6.246621E+00     +4.350031E+00 +2.797740E+00 +6.246621E+00     +4.840150E+00 +1.948020E+00 +4.511090E+00     +4.840150E+00 +1.948020E+00 +4.511090E+00     +5.254021E+00 +2.600570E+00 +4.963440E+00     +5.254021E+00 +2.600570E+00 +4.963440E+00     +5.254021E+00 +2.600570E+00 +4.963440E+00     +5.254021E+00 +2.600570E+00 +4.963440E+00     +3.183899E+00 +1.106230E+00 +6.516117E-01     +3.183899E+00 +1.106230E+00 +6.516117E-01     +3.183899E+00 +1.106230E+00 +6.516117E-01     +3.183899E+00 +1.106230E+00 +6.516117E-01     +3.183899E+00 +1.106230E+00 +6.516117E-01     +5.598119E+00 +2.061890E+00 +1.272050E+00     +3.868631E+00 +2.330819E+00 +3.753090E+00     +3.868631E+00 +2.330819E+00 +3.753090E+00     +5.138010E+00 +1.343350E+00 +1.951891E+00    
 +5.138010E+00 +1.343350E+00 +1.951891E+00     +5.138010E+00 +1.343350E+00 +1.951891E+00     +3.156707E-01 +1.393139E+00 +1.170060E+00     +3.156707E-01 +1.393139E+00 +1.170060E+00     +3.156707E-01 +1.393139E+00 +1.170060E+00     +3.156707E-01 +1.393139E+00 +1.170060E+00     +3.156707E-01 +1.393139E+00 +1.170060E+00     +4.840150E+00 +1.948020E+00 +4.511090E+00     +5.254021E+00 +2.600570E+00 +4.963440E+00     +5.254021E+00 +2.600570E+00 +4.963440E+00     +5.254021E+00 +2.600570E+00 +4.963440E+00     +5.254021E+00 +2.600570E+00 +4.963440E+00     +3.183899E+00 +1.106230E+00 +6.516117E-01     +3.183899E+00 +1.106230E+00 +6.516117E-01     +3.183899E+00 +1.106230E+00 +6.516117E-01     +3.183899E+00 +1.106230E+00 +6.516117E-01     +3.183899E+00 +1.106230E+00 +6.516117E-01     +3.183899E+00 +1.106230E+00 +6.516117E-01     +4.225140E+00 +1.382261E+00 +3.163409E+00     +4.225140E+00 +1.382261E+00 +3.163409E+00     +4.225140E+00 +1.382261E+00 +3.163409E+00    
 +4.225140E+00 +1.382261E+00 +3.163409E+00     +5.404499E+00 +4.255567E-01 +5.017801E+00     +3.156707E-01 +1.393139E+00 +1.170060E+00     +3.156707E-01 +1.393139E+00 +1.170060E+00     +3.156707E-01 +1.393139E+00 +1.170060E+00     +3.156707E-01 +1.393139E+00 +1.170060E+00     +3.156707E-01 +1.393139E+00 +1.170060E+00     +3.156707E-01 +1.393139E+00 +1.170060E+00     +5.254021E+00 +2.600570E+00 +4.963440E+00     +5.254021E+00 +2.600570E+00 +4.963440E+00     +5.254021E+00 +2.600570E+00 +4.963440E+00     +5.254021E+00 +2.600570E+00 +4.963440E+00     +3.183899E+00 +1.106230E+00 +6.516117E-01     +3.183899E+00 +1.106230E+00 +6.516117E-01     +3.183899E+00 +1.106230E+00 +6.516117E-01     +3.183899E+00 +1.106230E+00 +6.516117E-01     +3.183899E+00 +1.106230E+00 +6.516117E-01     +4.225140E+00 +1.382261E+00 +3.163409E+00     +4.225140E+00 +1.382261E+00 +3.163409E+00     +4.225140E+00 +1.382261E+00 +3.163409E+00     +4.225140E+00 +1.382261E+00 +3.163409E+00    
 +4.225140E+00 +1.382261E+00 +3.163409E+00     +5.404499E+00 +4.255567E-01 +5.017801E+00     +3.156707E-01 +1.393139E+00 +1.170060E+00     +3.156707E-01 +1.393139E+00 +1.170060E+00     +3.156707E-01 +1.393139E+00 +1.170060E+00     +3.156707E-01 +1.393139E+00 +1.170060E+00     +3.156707E-01 +1.393139E+00 +1.170060E+00     +3.156707E-01 +1.393139E+00 +1.170060E+00     +2.630241E+00 +1.160670E+00 +4.955601E+00     +2.630241E+00 +1.160670E+00 +4.955601E+00     +5.858500E+00 +2.491110E+00 +6.200010E+00     +5.858500E+00 +2.491110E+00 +6.200010E+00     +5.858500E+00 +2.491110E+00 +6.200010E+00     +5.858500E+00 +2.491110E+00 +6.200010E+00     +5.858500E+00 +2.491110E+00 +6.200010E+00     +2.135199E+00 +1.930481E+00 +3.795630E+00     +2.135199E+00 +1.930481E+00 +3.795630E+00     +2.135199E+00 +1.930481E+00 +3.795630E+00     +4.225140E+00 +1.382261E+00 +3.163409E+00     +4.225140E+00 +1.382261E+00 +3.163409E+00     +4.225140E+00 +1.382261E+00 +3.163409E+00    
 +5.404499E+00 +4.255567E-01 +5.017801E+00     +5.404499E+00 +4.255567E-01 +5.017801E+00     +5.404499E+00 +4.255567E-01 +5.017801E+00     +3.156707E-01 +1.393139E+00 +1.170060E+00     +3.156707E-01 +1.393139E+00 +1.170060E+00     +3.156707E-01 +1.393139E+00 +1.170060E+00     +3.156707E-01 +1.393139E+00 +1.170060E+00     +3.156707E-01 +1.393139E+00 +1.170060E+00     +2.630241E+00 +1.160670E+00 +4.955601E+00     +2.630241E+00 +1.160670E+00 +4.955601E+00     +5.858500E+00 +2.491110E+00 +6.200010E+00     +5.858500E+00 +2.491110E+00 +6.200010E+00     +5.858500E+00 +2.491110E+00 +6.200010E+00     +5.858500E+00 +2.491110E+00 +6.200010E+00     +5.858500E+00 +2.491110E+00 +6.200010E+00     +2.135199E+00 +1.930481E+00 +3.795630E+00     +2.135199E+00 +1.930481E+00 +3.795630E+00     +2.135199E+00 +1.930481E+00 +3.795630E+00     +4.225140E+00 +1.382261E+00 +3.163409E+00     +4.225140E+00 +1.382261E+00 +3.163409E+00     +4.225140E+00 +1.382261E+00 +3.163409E+00    
 +4.225140E+00 +1.382261E+00 +3.163409E+00     +5.404499E+00 +4.255567E-01 +5.017801E+00     +3.156707E-01 +1.393139E+00 +1.170060E+00     +3.156707E-01 +1.393139E+00 +1.170060E+00     +3.156707E-01 +1.393139E+00 +1.170060E+00     +3.156707E-01 +1.393139E+00 +1.170060E+00     +3.156707E-01 +1.393139E+00 +1.170060E+00     +3.156707E-01 +1.393139E+00 +1.170060E+00     +2.630241E+00 +1.160670E+00 +4.955601E+00     +2.630241E+00 +1.160670E+00 +4.955601E+00     +5.858500E+00 +2.491110E+00 +6.200010E+00     +5.858500E+00 +2.491110E+00 +6.200010E+00     +5.858500E+00 +2.491110E+00 +6.200010E+00     +5.858500E+00 +2.491110E+00 +6.200010E+00     +5.858500E+00 +2.491110E+00 +6.200010E+00     +5.858500E+00 +2.491110E+00 +6.200010E+00     +5.858500E+00 +2.491110E+00 +6.200010E+00     +5.858500E+00 +2.491110E+00 +6.200010E+00     +4.225140E+00 +1.382261E+00 +3.163409E+00     +4.225140E+00 +1.382261E+00 +3.163409E+00     +4.225140E+00 +1.382261E+00 +3.163409E+00    
 +4.621510E+00 +6.203145E-01 +2.231161E+00     +4.621510E+00 +6.203145E-01 +2.231161E+00     +4.621510E+00 +6.203145E-01 +2.231161E+00     +3.156707E-01 +1.393139E+00 +1.170060E+00     +3.156707E-01 +1.393139E+00 +1.170060E+00     +3.156707E-01 +1.393139E+00 +1.170060E+00     +3.156707E-01 +1.393139E+00 +1.170060E+00     +3.156707E-01 +1.393139E+00 +1.170060E+00     +2.630241E+00 +1.160670E+00 +4.955601E+00     +5.858500E+00 +2.491110E+00 +6.200010E+00     +5.858500E+00 +2.491110E+00 +6.200010E+00     +5.858500E+00 +2.491110E+00 +6.200010E+00     +5.858500E+00 +2.491110E+00 +6.200010E+00     +5.858500E+00 +2.491110E+00 +6.200010E+00     +5.858500E+00 +2.491110E+00 +6.200010E+00     +5.858500E+00 +2.491110E+00 +6.200010E+00     +5.858500E+00 +2.491110E+00 +6.200010E+00     +5.858500E+00 +2.491110E+00 +6.200010E+00     +4.092329E+00 +1.967230E+00 +5.843849E+00     +4.092329E+00 +1.967230E+00 +5.843849E+00     +4.092329E+00 +1.967230E+00 +5.843849E+00    
 +2.061770E+00 +1.152230E+00 +5.173899E+00     +2.061770E+00 +1.152230E+00 +5.173899E+00     +2.061770E+00 +1.152230E+00 +5.173899E+00     +8.284624E-01 +9.850813E-01 +5.831145E-02     +8.284624E-01 +9.850813E-01 +5.831145E-02     +3.156707E-01 +1.393139E+00 +1.170060E+00     +3.156707E-01 +1.393139E+00 +1.170060E+00     +3.156707E-01 +1.393139E+00 +1.170060E+00     +2.630241E+00 +1.160670E+00 +4.955601E+00     +5.858500E+00 +2.491110E+00 +6.200010E+00     +5.858500E+00 +2.491110E+00 +6.200010E+00     +5.858500E+00 +2.491110E+00 +6.200010E+00     +5.858500E+00 +2.491110E+00 +6.200010E+00     +5.858500E+00 +2.491110E+00 +6.200010E+00     +5.858500E+00 +2.491110E+00 +6.200010E+00     +5.858500E+00 +2.491110E+00 +6.200010E+00     +5.858500E+00 +2.491110E+00 +6.200010E+00     +3.076860E+00 +1.928310E+00 +4.824630E+00     +4.092329E+00 +1.967230E+00 +5.843849E+00     +4.092329E+00 +1.967230E+00 +5.843849E+00     +4.092329E+00 +1.967230E+00 +5.843849E+00    
 +2.061770E+00 +1.152230E+00 +5.173899E+00     +2.061770E+00 +1.152230E+00 +5.173899E+00     +2.061770E+00 +1.152230E+00 +5.173899E+00     +8.284624E-01 +9.850813E-01 +5.831145E-02     +8.284624E-01 +9.850813E-01 +5.831145E-02     +3.156707E-01 +1.393139E+00 +1.170060E+00     +3.156707E-01 +1.393139E+00 +1.170060E+00     +3.156707E-01 +1.393139E+00 +1.170060E+00     +2.630241E+00 +1.160670E+00 +4.955601E+00     +5.858500E+00 +2.491110E+00 +6.200010E+00     +5.858500E+00 +2.491110E+00 +6.200010E+00     +5.858500E+00 +2.491110E+00 +6.200010E+00     +5.858500E+00 +2.491110E+00 +6.200010E+00     +5.858500E+00 +2.491110E+00 +6.200010E+00     +5.858500E+00 +2.491110E+00 +6.200010E+00     +3.911690E+00 +2.064901E+00 +5.572710E+00     +3.911690E+00 +2.064901E+00 +5.572710E+00     +3.076860E+00 +1.928310E+00 +4.824630E+00     +4.092329E+00 +1.967230E+00 +5.843849E+00     +4.092329E+00 +1.967230E+00 +5.843849E+00     +4.092329E+00 +1.967230E+00 +5.843849E+00    
 +2.061770E+00 +1.152230E+00 +5.173899E+00     +2.061770E+00 +1.152230E+00 +5.173899E+00     +2.061770E+00 +1.152230E+00 +5.173899E+00     +8.284624E-01 +9.850813E-01 +5.831145E-02     +8.284624E-01 +9.850813E-01 +5.831145E-02     +3.156707E-01 +1.393139E+00 +1.170060E+00     +3.156707E-01 +1.393139E+00 +1.170060E+00     +3.156707E-01 +1.393139E+00 +1.170060E+00     +5.400150E+00 +1.024931E+00 +1.593920E+00     +5.858500E+00 +2.491110E+00 +6.200010E+00     +5.858500E+00 +2.491110E+00 +6.200010E+00     +5.858500E+00 +2.491110E+00 +6.200010E+00     +3.008780E+00 +6.545491E-01 +1.219811E+00     +3.008780E+00 +6.545491E-01 +1.219811E+00     +5.858500E+00 +2.491110E+00 +6.200010E+00     +3.911690E+00 +2.064901E+00 +5.572710E+00     +3.911690E+00 +2.064901E+00 +5.572710E+00     +3.076860E+00 +1.928310E+00 +4.824630E+00     +4.092329E+00 +1.967230E+00 +5.843849E+00     +4.092329E+00 +1.967230E+00 +5.843849E+00     +4.092329E+00 +1.967230E+00 +5.843849E+00    
 +2.061770E+00 +1.152230E+00 +5.173899E+00     +2.061770E+00 +1.152230E+00 +5.173899E+00     +2.061770E+00 +1.152230E+00 +5.173899E+00     +8.284624E-01 +9.850813E-01 +5.831145E-02     +8.284624E-01 +9.850813E-01 +5.831145E-02     +3.156707E-01 +1.393139E+00 +1.170060E+00     +3.156707E-01 +1.393139E+00 +1.170060E+00     +5.400150E+00 +1.024931E+00 +1.593920E+00     +5.525491E+00 +1.605509E+00 +1.080820E+00     +5.525491E+00 +1.605509E+00 +1.080820E+00     +3.008780E+00 +6.545491E-01 +1.219811E+00     +3.008780E+00 +6.545491E-01 +1.219811E+00     +3.008780E+00 +6.545491E-01 +1.219811E+00     +3.008780E+00 +6.545491E-01 +1.219811E+00     +3.008780E+00 +6.545491E-01 +1.219811E+00     +3.911690E+00 +2.064901E+00 +5.572710E+00     +3.911690E+00 +2.064901E+00 +5.572710E+00     +3.076860E+00 +1.928310E+00 +4.824630E+00     +4.092329E+00 +1.967230E+00 +5.843849E+00     +4.092329E+00 +1.967230E+00 +5.843849E+00     +4.092329E+00 +1.967230E+00 +5.843849E+00    
 +2.061770E+00 +1.152230E+00 +5.173899E+00     +2.061770E+00 +1.152230E+00 +5.173899E+00     +2.061770E+00 +1.152230E+00 +5.173899E+00     +8.284624E-01 +9.850813E-01 +5.831145E-02     +8.284624E-01 +9.850813E-01 +5.831145E-02     +3.156707E-01 +1.393139E+00 +1.170060E+00     +5.525491E+00 +1.605509E+00 +1.080820E+00     +5.525491E+00 +1.605509E+00 +1.080820E+00     +5.525491E+00 +1.605509E+00 +1.080820E+00     +5.525491E+00 +1.605509E+00 +1.080820E+00     +5.525491E+00 +1.605509E+00 +1.080820E+00     +3.008780E+00 +6.545491E-01 +1.219811E+00     +3.008780E+00 +6.545491E-01 +1.219811E+00     +3.008780E+00 +6.545491E-01 +1.219811E+00     +3.008780E+00 +6.545491E-01 +1.219811E+00     +3.008780E+00 +6.545491E-01 +1.219811E+00     +3.008780E+00 +6.545491E-01 +1.219811E+00     +3.076860E+00 +1.928310E+00 +4.824630E+00     +4.092329E+00 +1.967230E+00 +5.843849E+00     +4.092329E+00 +1.967230E+00 +5.843849E+00     +4.092329E+00 +1.967230E+00 +5.843849E+00    
 +4.523970E+00 +2.179550E+00 +2.367365E-02     +4.523970E+00 +2.179550E+00 +2.367365E-02     +4.523970E+00 +2.179550E+00 +2.367365E-02     +3.930640E+00 +1.465029E+00 +3.238450E+00     +4.602379E+00 +5.372560E-01 +2.793579E+00     +4.602379E+00 +5.372560E-01 +2.793579E+00     +5.525491E+00 +1.605509E+00 +1.080820E+00     +5.525491E+00 +1.605509E+00 +1.080820E+00     +5.525491E+00 +1.605509E+00 +1.080820E+00     +5.525491E+00 +1.605509E+00 +1.080820E+00     +5.525491E+00 +1.605509E+00 +1.080820E+00     +5.525491E+00 +1.605509E+00 +1.080820E+00     +3.008780E+00 +6.545491E-01 +1.219811E+00     +3.008780E+00 +6.545491E-01 +1.219811E+00     +4.957660E-01 +1.701850E+00 +2.498352E-01     +4.957660E-01 +1.701850E+00 +2.498352E-01     +4.957660E-01 +1.701850E+00 +2.498352E-01     +1.386111E+00 +2.577029E+00 +3.175319E+00     +1.386111E+00 +2.577029E+00 +3.175319E+00     +1.386111E+00 +2.577029E+00 +3.175319E+00     +3.158290E+00 +9.270875E-01 +4.146730E+00    
 +4.523970E+00 +2.179550E+00 +2.367365E-02     +4.523970E+00 +2.179550E+00 +2.367365E-02     +4.523970E+00 +2.179550E+00 +2.367365E-02     +4.602379E+00 +5.372560E-01 +2.793579E+00     +4.602379E+00 +5.372560E-01 +2.793579E+00     +4.602379E+00 +5.372560E-01 +2.793579E+00     +5.685649E+00 +1.890691E+00 +5.557690E+00     +5.525491E+00 +1.605509E+00 +1.080820E+00     +5.525491E+00 +1.605509E+00 +1.080820E+00     +5.525491E+00 +1.605509E+00 +1.080820E+00     +5.525491E+00 +1.605509E+00 +1.080820E+00     +4.957660E-01 +1.701850E+00 +2.498352E-01     +4.957660E-01 +1.701850E+00 +2.498352E-01     +4.957660E-01 +1.701850E+00 +2.498352E-01     +4.957660E-01 +1.701850E+00 +2.498352E-01     +4.957660E-01 +1.701850E+00 +2.498352E-01     +4.957660E-01 +1.701850E+00 +2.498352E-01     +1.386111E+00 +2.577029E+00 +3.175319E+00     +1.386111E+00 +2.577029E+00 +3.175319E+00     +1.386111E+00 +2.577029E+00 +3.175319E+00     +1.386111E+00 +2.577029E+00 +3.175319E+00    
 +4.523970E+00 +2.179550E+00 +2.367365E-02     +4.523970E+00 +2.179550E+00 +2.367365E-02     +4.523970E+00 +2.179550E+00 +2.367365E-02     +4.602379E+00 +5.372560E-01 +2.793579E+00     +4.602379E+00 +5.372560E-01 +2.793579E+00     +4.602379E+00 +5.372560E-01 +2.793579E+00     +5.685649E+00 +1.890691E+00 +5.557690E+00     +5.685649E+00 +1.890691E+00 +5.557690E+00     +5.525491E+00 +1.605509E+00 +1.080820E+00     +5.525491E+00 +1.605509E+00 +1.080820E+00     +5.525491E+00 +1.605509E+00 +1.080820E+00     +4.957660E-01 +1.701850E+00 +2.498352E-01     +4.957660E-01 +1.701850E+00 +2.498352E-01     +4.957660E-01 +1.701850E+00 +2.498352E-01     +4.957660E-01 +1.701850E+00 +2.498352E-01     +4.957660E-01 +1.701850E+00 +2.498352E-01     +4.957660E-01 +1.701850E+00 +2.498352E-01     +1.386111E+00 +2.577029E+00 +3.175319E+00     +1.386111E+00 +2.577029E+00 +3.175319E+00     +1.386111E+00 +2.577029E+00 +3.175319E+00     +1.386111E+00 +2.577029E+00 +3.175319E+00    
 +4.523970E+00 +2.179550E+00 +2.367365E-02     +4.523970E+00 +2.179550E+00 +2.367365E-02     +4.523970E+00 +2.179550E+00 +2.367365E-02     +4.602379E+00 +5.372560E-01 +2.793579E+00     +4.602379E+00 +5.372560E-01 +2.793579E+00     +4.602379E+00 +5.372560E-01 +2.793579E+00     +5.685649E+00 +1.890691E+00 +5.557690E+00     +5.685649E+00 +1.890691E+00 +5.557690E+00     +5.685649E+00 +1.890691E+00 +5.557690E+00     +5.525491E+00 +1.605509E+00 +1.080820E+00     +5.525491E+00 +1.605509E+00 +1.080820E+00     +4.957660E-01 +1.701850E+00 +2.498352E-01     +4.957660E-01 +1.701850E+00 +2.498352E-01     +4.957660E-01 +1.701850E+00 +2.498352E-01     +4.957660E-01 +1.701850E+00 +2.498352E-01     +4.957660E-01 +1.701850E+00 +2.498352E-01     +4.957660E-01 +1.701850E+00 +2.498352E-01     +2.070980E+00 +9.549901E-01 +5.551800E+00     +2.070980E+00 +9.549901E-01 +5.551800E+00     +2.070980E+00 +9.549901E-01 +5.551800E+00     +2.070980E+00 +9.549901E-01 +5.551800E+00    
 +4.523970E+00 +2.179550E+00 +2.367365E-02     +4.523970E+00 +2.179550E+00 +2.367365E-02     +4.523970E+00 +2.179550E+00 +2.367365E-02     +4.602379E+00 +5.372560E-01 +2.793579E+00     +4.602379E+00 +5.372560E-01 +2.793579E+00     +4.602379E+00 +5.372560E-01 +2.793579E+00     +5.685649E+00 +1.890691E+00 +5.557690E+00     +5.685649E+00 +1.890691E+00 +5.557690E+00     +5.685649E+00 +1.890691E+00 +5.557690E+00     +5.525491E+00 +1.605509E+00 +1.080820E+00     +4.957660E-01 +1.701850E+00 +2.498352E-01     +4.957660E-01 +1.701850E+00 +2.498352E-01     +4.957660E-01 +1.701850E+00 +2.498352E-01     +4.957660E-01 +1.701850E+00 +2.498352E-01     +4.957660E-01 +1.701850E+00 +2.498352E-01     +4.957660E-01 +1.701850E+00 +2.498352E-01     +1.846120E+00 +2.636760E+00 +4.365350E+00     +2.070980E+00 +9.549901E-01 +5.551800E+00     +2.070980E+00 +9.549901E-01 +5.551800E+00     +2.070980E+00 +9.549901E-01 +5.551800E+00     +2.070980E+00 +9.549901E-01 +5.551800E+00    
 +5.138010E+00 +1.343350E+00 +1.951891E+00     +5.138010E+00 +1.343350E+00 +1.951891E+00     +5.138010E+00 +1.343350E+00 +1.951891E+00     +5.138010E+00 +1.343350E+00 +1.951891E+00     +5.138010E+00 +1.343350E+00 +1.951891E+00     +4.840150E+00 +1.948020E+00 +4.511090E+00     +4.840150E+00 +1.948020E+00 +4.511090E+00     +4.348160E+00 +2.792329E+00 +3.762061E+00     +4.840150E+00 +1.948020E+00 +4.511090E+00     +4.840150E+00 +1.948020E+00 +4.511090E+00     +4.957660E-01 +1.701850E+00 +2.498352E-01     +4.957660E-01 +1.701850E+00 +2.498352E-01     +4.957660E-01 +1.701850E+00 +2.498352E-01     +4.957660E-01 +1.701850E+00 +2.498352E-01     +4.957660E-01 +1.701850E+00 +2.498352E-01     +1.846120E+00 +2.636760E+00 +4.365350E+00     +1.846120E+00 +2.636760E+00 +4.365350E+00     +1.846120E+00 +2.636760E+00 +4.365350E+00     +2.070980E+00 +9.549901E-01 +5.551800E+00     +2.070980E+00 +9.549901E-01 +5.551800E+00     +5.138010E+00 +1.343350E+00 +1.951891E+00    
 +5.138010E+00 +1.343350E+00 +1.951891E+00     +5.138010E+00 +1.343350E+00 +1.951891E+00     +5.138010E+00 +1.343350E+00 +1.951891E+00     +5.138010E+00 +1.343350E+00 +1.951891E+00     +5.138010E+00 +1.343350E+00 +1.951891E+00     +4.840150E+00 +1.948020E+00 +4.511090E+00     +4.840150E+00 +1.948020E+00 +4.511090E+00     +4.840150E+00 +1.948020E+00 +4.511090E+00     +4.840150E+00 +1.948020E+00 +4.511090E+00     +4.840150E+00 +1.948020E+00 +4.511090E+00     +4.840150E+00 +1.948020E+00 +4.511090E+00     +4.957660E-01 +1.701850E+00 +2.498352E-01     +4.957660E-01 +1.701850E+00 +2.498352E-01     +4.957660E-01 +1.701850E+00 +2.498352E-01     +4.957660E-01 +1.701850E+00 +2.498352E-01     +4.487301E+00 +1.771249E+00 +4.998571E+00     +3.868631E+00 +2.330819E+00 +3.753090E+00     +5.598119E+00 +2.061890E+00 +1.272050E+00     +3.868631E+00 +2.330819E+00 +3.753090E+00     +3.868631E+00 +2.330819E+00 +3.753090E+00     +5.138010E+00 +1.343350E+00 +1.951891E+00    
 +5.138010E+00 +1.343350E+00 +1.951891E+00     +5.138010E+00 +1.343350E+00 +1.951891E+00     +5.138010E+00 +1.343350E+00 +1.951891E+00     +5.138010E+00 +1.343350E+00 +1.951891E+00     +5.138010E+00 +1.343350E+00 +1.951891E+00     +4.840150E+00 +1.948020E+00 +4.511090E+00     +4.840150E+00 +1.948020E+00 +4.511090E+00     +4.840150E+00 +1.948020E+00 +4.511090E+00     +4.840150E+00 +1.948020E+00 +4.511090E+00     +4.840150E+00 +1.948020E+00 +4.511090E+00     +4.840150E+00 +1.948020E+00 +4.511090E+00     +4.957660E-01 +1.701850E+00 +2.498352E-01     +4.957660E-01 +1.701850E+00 +2.498352E-01     +4.957660E-01 +1.701850E+00 +2.498352E-01     +4.487301E+00 +1.771249E+00 +4.998571E+00     +4.487301E+00 +1.771249E+00 +4.998571E+00     +5.598119E+00 +2.061890E+00 +1.272050E+00     +5.598119E+00 +2.061890E+00 +1.272050E+00     +5.598119E+00 +2.061890E+00 +1.272050E+00     +5.598119E+00 +2.061890E+00 +1.272050E+00     +5.138010E+00 +1.343350E+00 +1.951891E+00    
 +5.138010E+00 +1.343350E+00 +1.951891E+00     +5.138010E+00 +1.343350E+00 +1.951891E+00     +5.138010E+00 +1.343350E+00 +1.951891E+00     +5.138010E+00 +1.343350E+00 +1.951891E+00     +5.138010E+00 +1.343350E+00 +1.951891E+00     +4.840150E+00 +1.948020E+00 +4.511090E+00     +4.840150E+00 +1.948020E+00 +4.511090E+00     +4.840150E+00 +1.948020E+00 +4.511090E+00     +4.840150E+00 +1.948020E+00 +4.511090E+00     +4.840150E+00 +1.948020E+00 +4.511090E+00     +5.254021E+00 +2.600570E+00 +4.963440E+00     +5.254021E+00 +2.600570E+00 +4.963440E+00     +4.487301E+00 +1.771249E+00 +4.998571E+00     +4.487301E+00 +1.771249E+00 +4.998571E+00     +4.487301E+00 +1.771249E+00 +4.998571E+00     +4.487301E+00 +1.771249E+00 +4.998571E+00     +4.487301E+00 +1.771249E+00 +4.998571E+00     +5.598119E+00 +2.061890E+00 +1.272050E+00     +3.868631E+00 +2.330819E+00 +3.753090E+00     +3.868631E+00 +2.330819E+00 +3.753090E+00     +5.138010E+00 +1.343350E+00 +1.951891E+00    
 +5.138010E+00 +1.343350E+00 +1.951891E+00     +5.138010E+00 +1.343350E+00 +1.951891E+00     +5.138010E+00 +1.343350E+00 +1.951891E+00     +5.138010E+00 +1.343350E+00 +1.951891E+00     +3.156707E-01 +1.393139E+00 +1.170060E+00     +4.840150E+00 +1.948020E+00 +4.511090E+00     +4.840150E+00 +1.948020E+00 +4.511090E+00     +4.840150E+00 +1.948020E+00 +4.511090E+00     +4.840150E+00 +1.948020E+00 +4.511090E+00     +4.840150E+00 +1.948020E+00 +4.511090E+00     +5.254021E+00 +2.600570E+00 +4.963440E+00     +5.254021E+00 +2.600570E+00 +4.963440E+00     +3.183899E+00 +1.106230E+00 +6.516117E-01     +3.183899E+00 +1.106230E+00 +6.516117E-01     +3.183899E+00 +1.106230E+00 +6.516117E-01     +4.487301E+00 +1.771249E+00 +4.998571E+00     +4.487301E+00 +1.771249E+00 +4.998571E+00     +4.487301E+00 +1.771249E+00 +4.998571E+00     +3.868631E+00 +2.330819E+00 +3.753090E+00     +3.868631E+00 +2.330819E+00 +3.753090E+00     +5.138010E+00 +1.343350E+00 +1.951891E+00    
 +5.138010E+00 +1.343350E+00 +1.951891E+00     +5.138010E+00 +1.343350E+00 +1.951891E+00     +5.138010E+00 +1.343350E+00 +1.951891E+00     +3.156707E-01 +1.393139E+00 +1.170060E+00     +3.156707E-01 +1.393139E+00 +1.170060E+00     +3.156707E-01 +1.393139E+00 +1.170060E+00     +3.156707E-01 +1.393139E+00 +1.170060E+00     +3.156707E-01 +1.393139E+00 +1.170060E+00     +5.254021E+00 +2.600570E+00 +4.963440E+00     +5.254021E+00 +2.600570E+00 +4.963440E+00     +5.254021E+00 +2.600570E+00 +4.963440E+00     +5.254021E+00 +2.600570E+00 +4.963440E+00     +3.183899E+00 +1.106230E+00 +6.516117E-01     +3.183899E+00 +1.106230E+00 +6.516117E-01     +3.183899E+00 +1.106230E+00 +6.516117E-01     +3.183899E+00 +1.106230E+00 +6.516117E-01     +4.487301E+00 +1.771249E+00 +4.998571E+00     +4.487301E+00 +1.771249E+00 +4.998571E+00     +4.225140E+00 +1.382261E+00 +3.163409E+00     +4.225140E+00 +1.382261E+00 +3.163409E+00     +4.225140E+00 +1.382261E+00 +3.163409E+00    
 +4.225140E+00 +1.382261E+00 +3.163409E+00     +5.404499E+00 +4.255567E-01 +5.017801E+00     +3.156707E-01 +1.393139E+00 +1.170060E+00     +3.156707E-01 +1.393139E+00 +1.170060E+00     +3.156707E-01 +1.393139E+00 +1.170060E+00     +3.156707E-01 +1.393139E+00 +1.170060E+00     +3.156707E-01 +1.393139E+00 +1.170060E+00     +3.156707E-01 +1.393139E+00 +1.170060E+00     +3.156707E-01 +1.393139E+00 +1.170060E+00     +5.254021E+00 +2.600570E+00 +4.963440E+00     +5.254021E+00 +2.600570E+00 +4.963440E+00     +5.858500E+00 +2.491110E+00 +6.200010E+00     +5.858500E+00 +2.491110E+00 +6.200010E+00     +3.183899E+00 +1.106230E+00 +6.516117E-01     +3.183899E+00 +1.106230E+00 +6.516117E-01     +3.183899E+00 +1.106230E+00 +6.516117E-01     +2.135199E+00 +1.930481E+00 +3.795630E+00     +4.225140E+00 +1.382261E+00 +3.163409E+00     +4.225140E+00 +1.382261E+00 +3.163409E+00     +4.225140E+00 +1.382261E+00 +3.163409E+00     +4.225140E+00 +1.382261E+00 +3.163409E+00    
 +4.225140E+00 +1.382261E+00 +3.163409E+00     +5.404499E+00 +4.255567E-01 +5.017801E+00     +5.404499E+00 +4.255567E-01 +5.017801E+00     +3.156707E-01 +1.393139E+00 +1.170060E+00     +3.156707E-01 +1.393139E+00 +1.170060E+00     +3.156707E-01 +1.393139E+00 +1.170060E+00     +3.156707E-01 +1.393139E+00 +1.170060E+00     +3.156707E-01 +1.393139E+00 +1.170060E+00     +3.156707E-01 +1.393139E+00 +1.170060E+00     +3.156707E-01 +1.393139E+00 +1.170060E+00     +5.858500E+00 +2.491110E+00 +6.200010E+00     +5.858500E+00 +2.491110E+00 +6.200010E+00     +5.858500E+00 +2.491110E+00 +6.200010E+00     +5.858500E+00 +2.491110E+00 +6.200010E+00     +2.135199E+00 +1.930481E+00 +3.795630E+00     +2.135199E+00 +1.930481E+00 +3.795630E+00     +2.135199E+00 +1.930481E+00 +3.795630E+00     +4.225140E+00 +1.382261E+00 +3.163409E+00     +4.225140E+00 +1.382261E+00 +3.163409E+00     +4.225140E+00 +1.382261E+00 +3.163409E+00     +4.225140E+00 +1.382261E+00 +3.163409E+00    
 +5.404499E+00 +4.255567E-01 +5.017801E+00     +5.404499E+00 +4.255567E-01 +5.017801E+00     +5.404499E+00 +4.255567E-01 +5.017801E+00     +3.156707E-01 +1.393139E+00 +1.170060E+00     +3.156707E-01 +1.393139E+00 +1.170060E+00     +3.156707E-01 +1.393139E+00 +1.170060E+00     +3.156707E-01 +1.393139E+00 +1.170060E+00     +3.156707E-01 +1.393139E+00 +1.170060E+00     +3.156707E-01 +1.393139E+00 +1.170060E+00     +3.156707E-01 +1.393139E+00 +1.170060E+00     +5.858500E+00 +2.491110E+00 +6.200010E+00     +5.858500E+00 +2.491110E+00 +6.200010E+00     +5.858500E+00 +2.491110E+00 +6.200010E+00     +5.858500E+00 +2.491110E+00 +6.200010E+00     +2.135199E+00 +1.930481E+00 +3.795630E+00     +2.135199E+00 +1.930481E+00 +3.795630E+00     +2.135199E+00 +1.930481E+00 +3.795630E+00     +4.225140E+00 +1.382261E+00 +3.163409E+00     +4.225140E+00 +1.382261E+00 +3.163409E+00     +4.225140E+00 +1.382261E+00 +3.163409E+00     +4.225140E+00 +1.382261E+00 +3.163409E+00    
 +4.225140E+00 +1.382261E+00 +3.163409E+00     +5.404499E+00 +4.255567E-01 +5.017801E+00     +5.404499E+00 +4.255567E-01 +5.017801E+00     +3.156707E-01 +1.393139E+00 +1.170060E+00     +3.156707E-01 +1.393139E+00 +1.170060E+00     +3.156707E-01 +1.393139E+00 +1.170060E+00     +3.156707E-01 +1.393139E+00 +1.170060E+00     +3.156707E-01 +1.393139E+00 +1.170060E+00     +3.156707E-01 +1.393139E+00 +1.170060E+00     +5.858500E+00 +2.491110E+00 +6.200010E+00     +5.858500E+00 +2.491110E+00 +6.200010E+00     +5.858500E+00 +2.491110E+00 +6.200010E+00     +5.858500E+00 +2.491110E+00 +6.200010E+00     +5.858500E+00 +2.491110E+00 +6.200010E+00     +5.858500E+00 +2.491110E+00 +6.200010E+00     +2.135199E+00 +1.930481E+00 +3.795630E+00     +2.135199E+00 +1.930481E+00 +3.795630E+00     +4.225140E+00 +1.382261E+00 +3.163409E+00     +4.225140E+00 +1.382261E+00 +3.163409E+00     +4.225140E+00 +1.382261E+00 +3.163409E+00     +4.225140E+00 +1.382261E+00 +3.163409E+00    
 +4.621510E+00 +6.203145E-01 +2.231161E+00     +4.621510E+00 +6.203145E-01 +2.231161E+00     +4.621510E+00 +6.203145E-01 +2.231161E+00     +3.156707E-01 +1.393139E+00 +1.170060E+00     +3.156707E-01 +1.393139E+00 +1.170060E+00     +3.156707E-01 +1.393139E+00 +1.170060E+00     +3.156707E-01 +1.393139E+00 +1.170060E+00     +3.156707E-01 +1.393139E+00 +1.170060E+00     +3.156707E-01 +1.393139E+00 +1.170060E+00     +5.858500E+00 +2.491110E+00 +6.200010E+00     +5.858500E+00 +2.491110E+00 +6.200010E+00     +5.858500E+00 +2.491110E+00 +6.200010E+00     +5.858500E+00 +2.491110E+00 +6.200010E+00     +2.311610E+00 +2.385520E+00 +3.626490E+00     +5.858500E+00 +2.491110E+00 +6.200010E+00     +5.858500E+00 +2.491110E+00 +6.200010E+00     +5.858500E+00 +2.491110E+00 +6.200010E+00     +4.225140E+00 +1.382261E+00 +3.163409E+00     +4.225140E+00 +1.382261E+00 +3.163409E+00     +4.225140E+00 +1.382261E+00 +3.163409E+00     +4.225140E+00 +1.382261E+00 +3.163409E+00    
 +2.061770E+00 +1.152230E+00 +5.173899E+00     +2.061770E+00 +1.152230E+00 +5.173899E+00     +2.061770E+00 +1.152230E+00 +5.173899E+00     +3.156707E-01 +1.393139E+00 +1.170060E+00     +3.156707E-01 +1.393139E+00 +1.170060E+00     +3.156707E-01 +1.393139E+00 +1.170060E+00     +3.156707E-01 +1.393139E+00 +1.170060E+00     +3.156707E-01 +1.393139E+00 +1.170060E+00     +3.156707E-01 +1.393139E+00 +1.170060E+00     +5.858500E+00 +2.491110E+00 +6.200010E+00     +5.858500E+00 +2.491110E+00 +6.200010E+00     +5.858500E+00 +2.491110E+00 +6.200010E+00     +5.858500E+00 +2.491110E+00 +6.200010E+00     +5.858500E+00 +2.491110E+00 +6.200010E+00     +5.858500E+00 +2.491110E+00 +6.200010E+00     +5.858500E+00 +2.491110E+00 +6.200010E+00     +5.858500E+00 +2.491110E+00 +6.200010E+00     +3.076860E+00 +1.928310E+00 +4.824630E+00     +4.092329E+00 +1.967230E+00 +5.843849E+00     +4.092329E+00 +1.967230E+00 +5.843849E+00     +4.092329E+00 +1.967230E+00 +5.843849E+00    
 +2.061770E+00 +1.152230E+00 +5.173899E+00     +2.061770E+00 +1.152230E+00 +5.173899E+00     +2.061770E+00 +1.152230E+00 +5.173899E+00     +8.284624E-01 +9.850813E-01 +5.831145E-02     +8.284624E-01 +9.850813E-01 +5.831145E-02     +3.156707E-01 +1.393139E+00 +1.170060E+00     +3.156707E-01 +1.393139E+00 +1.170060E+00     +3.156707E-01 +1.393139E+00 +1.170060E+00     +5.400150E+00 +1.024931E+00 +1.593920E+00     +5.858500E+00 +2.491110E+00 +6.200010E+00     +5.858500E+00 +2.491110E+00 +6.200010E+00     +5.858500E+00 +2.491110E+00 +6.200010E+00     +5.858500E+00 +2.491110E+00 +6.200010E+00     +5.858500E+00 +2.491110E+00 +6.200010E+00     +5.858500E+00 +2.491110E+00 +6.200010E+00     +3.911690E+00 +2.064901E+00 +5.572710E+00     +3.911690E+00 +2.064901E+00 +5.572710E+00     +3.076860E+00 +1.928310E+00 +4.824630E+00     +4.092329E+00 +1.967230E+00 +5.843849E+00     +4.092329E+00 +1.967230E+00 +5.843849E+00     +4.092329E+00 +1.967230E+00 +5.843849E+00    
 +2.061770E+00 +1.152230E+00 +5.173899E+00     +2.061770E+00 +1.152230E+00 +5.173899E+00     +2.061770E+00 +1.152230E+00 +5.173899E+00     +8.284624E-01 +9.850813E-01 +5.831145E-02     +8.284624E-01 +9.850813E-01 +5.831145E-02     +3.156707E-01 +1.393139E+00 +1.170060E+00     +3.156707E-01 +1.393139E+00 +1.170060E+00     +5.400150E+00 +1.024931E+00 +1.593920E+00     +5.400150E+00 +1.024931E+00 +1.593920E+00     +3.382630E+00 +2.983171E+00 +5.703999E+00     +3.382630E+00 +2.983171E+00 +5.703999E+00     +5.858500E+00 +2.491110E+00 +6.200010E+00     +3.008780E+00 +6.545491E-01 +1.219811E+00     +3.008780E+00 +6.545491E-01 +1.219811E+00     +3.008780E+00 +6.545491E-01 +1.219811E+00     +3.911690E+00 +2.064901E+00 +5.572710E+00     +3.911690E+00 +2.064901E+00 +5.572710E+00     +3.076860E+00 +1.928310E+00 +4.824630E+00     +4.092329E+00 +1.967230E+00 +5.843849E+00     +4.092329E+00 +1.967230E+00 +5.843849E+00     +4.092329E+00 +1.967230E+00 +5.843849E+00    
 +2.061770E+00 +1.152230E+00 +5.173899E+00     +2.061770E+00 +1.152230E+00 +5.173899E+00     +2.061770E+00 +1.152230E+00 +5.173899E+00     +8.284624E-01 +9.850813E-01 +5.831145E-02     +8.284624E-01 +9.850813E-01 +5.831145E-02     +3.156707E-01 +1.393139E+00 +1.170060E+00     +5.400150E+00 +1.024931E+00 +1.593920E+00     +5.400150E+00 +1.024931E+00 +1.593920E+00     +5.525491E+00 +1.605509E+00 +1.080820E+00     +5.525491E+00 +1.605509E+00 +1.080820E+00     +5.525491E+00 +1.605509E+00 +1.080820E+00     +3.008780E+00 +6.545491E-01 +1.219811E+00     +3.008780E+00 +6.545491E-01 +1.219811E+00     +3.008780E+00 +6.545491E-01 +1.219811E+00     +3.008780E+00 +6.545491E-01 +1.219811E+00     +3.911690E+00 +2.064901E+00 +5.572710E+00     +3.911690E+00 +2.064901E+00 +5.572710E+00     +3.076860E+00 +1.928310E+00 +4.824630E+00     +4.092329E+00 +1.967230E+00 +5.843849E+00     +4.092329E+00 +1.967230E+00 +5.843849E+00     +4.092329E+00 +1.967230E+00 +5.843849E+00    
 +2.061770E+00 +1.152230E+00 +5.173899E+00     +2.061770E+00 +1.152230E+00 +5.173899E+00     +2.061770E+00 +1.152230E+00 +5.173899E+00     +8.284624E-01 +9.850813E-01 +5.831145E-02     +8.284624E-01 +9.850813E-01 +5.831145E-02     +3.156707E-01 +1.393139E+00 +1.170060E+00     +5.525491E+00 +1.605509E+00 +1.080820E+00     +5.525491E+00 +1.605509E+00 +1.080820E+00     +5.525491E+00 +1.605509E+00 +1.080820E+00     +5.525491E+00 +1.605509E+00 +1.080820E+00     +5.525491E+00 +1.605509E+00 +1.080820E+00     +3.008780E+00 +6.545491E-01 +1.219811E+00     +3.008780E+00 +6.545491E-01 +1.219811E+00     +3.008780E+00 +6.545491E-01 +1.219811E+00     +3.008780E+00 +6.545491E-01 +1.219811E+00     +3.008780E+00 +6.545491E-01 +1.219811E+00     +3.911690E+00 +2.064901E+00 +5.572710E+00     +3.076860E+00 +1.928310E+00 +4.824630E+00     +4.092329E+00 +1.967230E+00 +5.843849E+00     +4.092329E+00 +1.967230E+00 +5.843849E+00     +4.092329E+00 +1.967230E+00 +5.843849E+00    
 +3.158290E+00 +9.270875E-01 +4.146730E+00     +7.546524E-01 +1.219079E+00 +3.888690E+00     +3.930640E+00 +1.465029E+00 +3.238450E+00     +3.930640E+00 +1.465029E+00 +3.238450E+00     +4.602379E+00 +5.372560E-01 +2.793579E+00     +4.602379E+00 +5.372560E-01 +2.793579E+00     +4.602379E+00 +5.372560E-01 +2.793579E+00     +5.525491E+00 +1.605509E+00 +1.080820E+00     +5.525491E+00 +1.605509E+00 +1.080820E+00     +5.525491E+00 +1.605509E+00 +1.080820E+00     +5.525491E+00 +1.605509E+00 +1.080820E+00     +1.603130E+00 +9.864147E-01 +5.636260E+00     +1.603130E+00 +9.864147E-01 +5.636260E+00     +4.957660E-01 +1.701850E+00 +2.498352E-01     +4.957660E-01 +1.701850E+00 +2.498352E-01     +4.957660E-01 +1.701850E+00 +2.498352E-01     +4.957660E-01 +1.701850E+00 +2.498352E-01     +1.386111E+00 +2.577029E+00 +3.175319E+00     +1.386111E+00 +2.577029E+00 +3.175319E+00     +3.158290E+00 +9.270875E-01 +4.146730E+00     +3.158290E+00 +9.270875E-01 +4.146730E+00    
 +7.546524E-01 +1.219079E+00 +3.888690E+00     +4.523970E+00 +2.179550E+00 +2.367365E-02     +3.930640E+00 +1.465029E+00 +3.238450E+00     +4.602379E+00 +5.372560E-01 +2.793579E+00     +4.602379E+00 +5.372560E-01 +2.793579E+00     +4.602379E+00 +5.372560E-01 +2.793579E+00     +4.602379E+00 +5.372560E-01 +2.793579E+00     +4.602379E+00 +5.372560E-01 +2.793579E+00     +5.525491E+00 +1.605509E+00 +1.080820E+00     +5.525491E+00 +1.605509E+00 +1.080820E+00     +5.525491E+00 +1.605509E+00 +1.080820E+00     +1.603130E+00 +9.864147E-01 +5.636260E+00     +1.603130E+00 +9.864147E-01 +5.636260E+00     +4.957660E-01 +1.701850E+00 +2.498352E-01     +4.957660E-01 +1.701850E+00 +2.498352E-01     +4.957660E-01 +1.701850E+00 +2.498352E-01     +4.957660E-01 +1.701850E+00 +2.498352E-01     +1.386111E+00 +2.577029E+00 +3.175319E+00     +1.386111E+00 +2.577029E+00 +3.175319E+00     +1.386111E+00 +2.577029E+00 +3.175319E+00     +3.158290E+00 +9.270875E-01 +4.146730E+00    
 +4.523970E+00 +2.179550E+00 +2.367365E-02     +4.523970E+00 +2.179550E+00 +2.367365E-02     +4.602379E+00 +5.372560E-01 +2.793579E+00     +4.602379E+00 +5.372560E-01 +2.793579E+00     +4.602379E+00 +5.372560E-01 +2.793579E+00     +4.602379E+00 +5.372560E-01 +2.793579E+00     +4.602379E+00 +5.372560E-01 +2.793579E+00     +5.685649E+00 +1.890691E+00 +5.557690E+00     +5.525491E+00 +1.605509E+00 +1.080820E+00     +5.525491E+00 +1.605509E+00 +1.080820E+00     +5.525491E+00 +1.605509E+00 +1.080820E+00     +1.603130E+00 +9.864147E-01 +5.636260E+00     +4.957660E-01 +1.701850E+00 +2.498352E-01     +4.957660E-01 +1.701850E+00 +2.498352E-01     +4.957660E-01 +1.701850E+00 +2.498352E-01     +4.957660E-01 +1.701850E+00 +2.498352E-01     +4.957660E-01 +1.701850E+00 +2.498352E-01     +1.386111E+00 +2.577029E+00 +3.175319E+00     +1.386111E+00 +2.577029E+00 +3.175319E+00     +1.965630E+00 +2.237580E+00 +1.848070E+00     +1.965630E+00 +2.237580E+00 +1.848070E+00    
 +4.523970E+00 +2.179550E+00 +2.367365E-02     +4.523970E+00 +2.179550E+00 +2.367365E-02     +4.523970E+00 +2.179550E+00 +2.367365E-02     +4.602379E+00 +5.372560E-01 +2.793579E+00     +4.602379E+00 +5.372560E-01 +2.793579E+00     +4.602379E+00 +5.372560E-01 +2.793579E+00     +4.602379E+00 +5.372560E-01 +2.793579E+00     +5.685649E+00 +1.890691E+00 +5.557690E+00     +5.685649E+00 +1.890691E+00 +5.557690E+00     +5.525491E+00 +1.605509E+00 +1.080820E+00     +5.525491E+00 +1.605509E+00 +1.080820E+00     +4.957660E-01 +1.701850E+00 +2.498352E-01     +4.957660E-01 +1.701850E+00 +2.498352E-01     +4.957660E-01 +1.701850E+00 +2.498352E-01     +4.957660E-01 +1.701850E+00 +2.498352E-01     +4.957660E-01 +1.701850E+00 +2.498352E-01     +4.957660E-01 +1.701850E+00 +2.498352E-01     +4.957660E-01 +1.701850E+00 +2.498352E-01     +2.070980E+00 +9.549901E-01 +5.551800E+00     +2.070980E+00 +9.549901E-01 +5.551800E+00     +5.138010E+00 +1.343350E+00 +1.951891E+00    
 +5.138010E+00 +1.343350E+00 +1.951891E+00     +5.138010E+00 +1.343350E+00 +1.951891E+00     +5.138010E+00 +1.343350E+00 +1.951891E+00     +4.602379E+00 +5.372560E-01 +2.793579E+00     +4.602379E+00 +5.372560E-01 +2.793579E+00     +4.602379E+00 +5.372560E-01 +2.793579E+00     +4.602379E+00 +5.372560E-01 +2.793579E+00     +5.685649E+00 +1.890691E+00 +5.557690E+00     +5.685649E+00 +1.890691E+00 +5.557690E+00     +5.685649E+00 +1.890691E+00 +5.557690E+00     +4.957660E-01 +1.701850E+00 +2.498352E-01     +4.957660E-01 +1.701850E+00 +2.498352E-01     +4.957660E-01 +1.701850E+00 +2.498352E-01     +4.957660E-01 +1.701850E+00 +2.498352E-01     +4.957660E-01 +1.701850E+00 +2.498352E-01     +4.957660E-01 +1.701850E+00 +2.498352E-01     +4.957660E-01 +1.701850E+00 +2.498352E-01     +2.070980E+00 +9.549901E-01 +5.551800E+00     +2.070980E+00 +9.549901E-01 +5.551800E+00     +2.070980E+00 +9.549901E-01 +5.551800E+00     +5.138010E+00 +1.343350E+00 +1.951891E+00    
 +5.138010E+00 +1.343350E+00 +1.951891E+00     +5.138010E+00 +1.343350E+00 +1.951891E+00     +5.138010E+00 +1.343350E+00 +1.951891E+00     +5.138010E+00 +1.343350E+00 +1.951891E+00     +5.138010E+00 +1.343350E+00 +1.951891E+00     +4.840150E+00 +1.948020E+00 +4.511090E+00     +4.840150E+00 +1.948020E+00 +4.511090E+00     +4.840150E+00 +1.948020E+00 +4.511090E+00     +4.840150E+00 +1.948020E+00 +4.511090E+00     +4.840150E+00 +1.948020E+00 +4.511090E+00     +4.957660E-01 +1.701850E+00 +2.498352E-01     +4.957660E-01 +1.701850E+00 +2.498352E-01     +4.957660E-01 +1.701850E+00 +2.498352E-01     +4.957660E-01 +1.701850E+00 +2.498352E-01     +4.957660E-01 +1.701850E+00 +2.498352E-01     +4.957660E-01 +1.701850E+00 +2.498352E-01     +3.868631E+00 +2.330819E+00 +3.753090E+00     +3.868631E+00 +2.330819E+00 +3.753090E+00     +3.868631E+00 +2.330819E+00 +3.753090E+00     +3.868631E+00 +2.330819E+00 +3.753090E+00     +5.138010E+00 +1.343350E+00 +1.951891E+00    
 +5.138010E+00 +1.343350E+00 +1.951891E+00     +5.138010E+00 +1.343350E+00 +1.951891E+00     +5.138010E+00 +1.343350E+00 +1.951891E+00     +5.138010E+00 +1.343350E+00 +1.951891E+00     +5.138010E+00 +1.343350E+00 +1.951891E+00     +4.840150E+00 +1.948020E+00 +4.511090E+00     +4.840150E+00 +1.948020E+00 +4.511090E+00     +4.840150E+00 +1.948020E+00 +4.511090E+00     +4.840150E+00 +1.948020E+00 +4.511090E+00     +4.840150E+00 +1.948020E+00 +4.511090E+00     +4.840150E+00 +1.948020E+00 +4.511090E+00     +4.957660E-01 +1.701850E+00 +2.498352E-01     +4.957660E-01 +1.701850E+00 +2.498352E-01     +4.957660E-01 +1.701850E+00 +2.498352E-01     +4.957660E-01 +1.701850E+00 +2.498352E-01     +4.487301E+00 +1.771249E+00 +4.998571E+00     +3.868631E+00 +2.330819E+00 +3.753090E+00     +3.868631E+00 +2.330819E+00 +3.753090E+00     +3.868631E+00 +2.330819E+00 +3.753090E+00     +3.868631E+00 +2.330819E+00 +3.753090E+00     +5.138010E+00 +1.343350E+00 +1.951891E+00    
 +5.138010E+00 +1.343350E+00 +1.951891E+00     +5.138010E+00 +1.343350E+00 +1.951891E+00     +5.138010E+00 +1.343350E+00 +1.951891E+00     +5.138010E+00 +1.343350E+00 +1.951891E+00     +5.138010E+00 +1.343350E+00 +1.951891E+00     +4.840150E+00 +1.948020E+00 +4.511090E+00     +4.840150E+00 +1.948020E+00 +4.511090E+00     +4.840150E+00 +1.948020E+00 +4.511090E+00     +4.840150E+00 +1.948020E+00 +4.511090E+00     +4.840150E+00 +1.948020E+00 +4.511090E+00     +4.840150E+00 +1.948020E+00 +4.511090E+00     +4.957660E-01 +1.701850E+00 +2.498352E-01     +4.957660E-01 +1.701850E+00 +2.498352E-01     +4.487301E+00 +1.771249E+00 +4.998571E+00     +4.487301E+00 +1.771249E+00 +4.998571E+00     +4.487301E+00 +1.771249E+00 +4.998571E+00     +3.868631E+00 +2.330819E+00 +3.753090E+00     +3.868631E+00 +2.330819E+00 +3.753090E+00     +3.868631E+00 +2.330819E+00 +3.753090E+00     +3.868631E+00 +2.330819E+00 +3.753090E+00     +5.138010E+00 +1.343350E+00 +1.951891E+00    
 +5.138010E+00 +1.343350E+00 +1.951891E+00     +5.138010E+00 +1.343350E+00 +1.951891E+00     +5.138010E+00 +1.343350E+00 +1.951891E+00     +5.138010E+00 +1.343350E+00 +1.951891E+00     +5.138010E+00 +1.343350E+00 +1.951891E+00     +4.840150E+00 +1.948020E+00 +4.511090E+00     +4.840150E+00 +1.948020E+00 +4.511090E+00     +4.840150E+00 +1.948020E+00 +4.511090E+00     +4.840150E+00 +1.948020E+00 +4.511090E+00     +4.840150E+00 +1.948020E+00 +4.511090E+00     +4.840150E+00 +1.948020E+00 +4.511090E+00     +4.840150E+00 +1.948020E+00 +4.511090E+00     +4.487301E+00 +1.771249E+00 +4.998571E+00     +4.487301E+00 +1.771249E+00 +4.998571E+00     +4.487301E+00 +1.771249E+00 +4.998571E+00     +4.487301E+00 +1.771249E+00 +4.998571E+00     +4.487301E+00 +1.771249E+00 +4.998571E+00     +3.868631E+00 +2.330819E+00 +3.753090E+00     +3.868631E+00 +2.330819E+00 +3.753090E+00     +3.868631E+00 +2.330819E+00 +3.753090E+00     +5.138010E+00 +1.343350E+00 +1.951891E+00    
 +5.138010E+00 +1.343350E+00 +1.951891E+00     +5.138010E+00 +1.343350E+00 +1.951891E+00     +5.138010E+00 +1.343350E+00 +1.951891E+00     +5.138010E+00 +1.343350E+00 +1.951891E+00     +5.138010E+00 +1.343350E+00 +1.951891E+00     +4.840150E+00 +1.948020E+00 +4.511090E+00     +4.840150E+00 +1.948020E+00 +4.511090E+00     +4.840150E+00 +1.948020E+00 +4.511090E+00     +4.840150E+00 +1.948020E+00 +4.511090E+00     +4.840150E+00 +1.948020E+00 +4.511090E+00     +4.840150E+00 +1.948020E+00 +4.511090E+00     +4.840150E+00 +1.948020E+00 +4.511090E+00     +4.487301E+00 +1.771249E+00 +4.998571E+00     +4.487301E+00 +1.771249E+00 +4.998571E+00     +4.487301E+00 +1.771249E+00 +4.998571E+00     +4.487301E+00 +1.771249E+00 +4.998571E+00     +4.487301E+00 +1.771249E+00 +4.998571E+00     +4.487301E+00 +1.771249E+00 +4.998571E+00     +3.868631E+00 +2.330819E+00 +3.753090E+00     +3.868631E+00 +2.330819E+00 +3.753090E+00     +5.138010E+00 +1.343350E+00 +1.951891E+00    
 +5.138010E+00 +1.343350E+00 +1.951891E+00     +5.138010E+00 +1.343350E+00 +1.951891E+00     +5.138010E+00 +1.343350E+00 +1.951891E+00     +5.138010E+00 +1.343350E+00 +1.951891E+00     +3.156707E-01 +1.393139E+00 +1.170060E+00     +3.156707E-01 +1.393139E+00 +1.170060E+00     +3.156707E-01 +1.393139E+00 +1.170060E+00     +4.840150E+00 +1.948020E+00 +4.511090E+00     +4.840150E+00 +1.948020E+00 +4.511090E+00     +4.840150E+00 +1.948020E+00 +4.511090E+00     +5.254021E+00 +2.600570E+00 +4.963440E+00     +3.479920E+00 +1.666229E+00 +5.212799E+00     +4.487301E+00 +1.771249E+00 +4.998571E+00     +4.487301E+00 +1.771249E+00 +4.998571E+00     +4.487301E+00 +1.771249E+00 +4.998571E+00     +4.487301E+00 +1.771249E+00 +4.998571E+00     +4.487301E+00 +1.771249E+00 +4.998571E+00     +4.487301E+00 +1.771249E+00 +4.998571E+00     +4.225140E+00 +1.382261E+00 +3.163409E+00     +4.225140E+00 +1.382261E+00 +3.163409E+00     +4.225140E+00 +1.382261E+00 +3.163409E+00    
 +4.225140E+00 +1.382261E+00 +3.163409E+00     +5.138010E+00 +1.343350E+00 +1.951891E+00     +3.156707E-01 +1.393139E+00 +1.170060E+00     +3.156707E-01 +1.393139E+00 +1.170060E+00     +3.156707E-01 +1.393139E+00 +1.170060E+00     +3.156707E-01 +1.393139E+00 +1.170060E+00     +3.156707E-01 +1.393139E+00 +1.170060E+00     +3.156707E-01 +1.393139E+00 +1.170060E+00     +3.156707E-01 +1.393139E+00 +1.170060E+00     +3.156707E-01 +1.393139E+00 +1.170060E+00     +3.479920E+00 +1.666229E+00 +5.212799E+00     +5.858500E+00 +2.491110E+00 +6.200010E+00     +5.858500E+00 +2.491110E+00 +6.200010E+00     +5.858500E+00 +2.491110E+00 +6.200010E+00     +4.487301E+00 +1.771249E+00 +4.998571E+00     +4.487301E+00 +1.771249E+00 +4.998571E+00     +4.487301E+00 +1.771249E+00 +4.998571E+00     +4.225140E+00 +1.382261E+00 +3.163409E+00     +4.225140E+00 +1.382261E+00 +3.163409E+00     +4.225140E+00 +1.382261E+00 +3.163409E+00     +4.225140E+00 +1.382261E+00 +3.163409E+00    
 +4.225140E+00 +1.382261E+00 +3.163409E+00     +5.404499E+00 +4.255567E-01 +5.017801E+00     +3.156707E-01 +1.393139E+00 +1.170060E+00     +3.156707E-01 +1.393139E+00 +1.170060E+00     +3.156707E-01 +1.393139E+00 +1.170060E+00     +3.156707E-01 +1.393139E+00 +1.170060E+00     +3.156707E-01 +1.393139E+00 +1.170060E+00     +3.156707E-01 +1.393139E+00 +1.170060E+00     +3.156707E-01 +1.393139E+00 +1.170060E+00     +3.156707E-01 +1.393139E+00 +1.170060E+00     +5.858500E+00 +2.491110E+00 +6.200010E+00     +5.858500E+00 +2.491110E+00 +6.200010E+00     +5.858500E+00 +2.491110E+00 +6.200010E+00     +5.858500E+00 +2.491110E+00 +6.200010E+00     +5.858500E+00 +2.491110E+00 +6.200010E+00     +2.135199E+00 +1.930481E+00 +3.795630E+00     +2.135199E+00 +1.930481E+00 +3.795630E+00     +4.225140E+00 +1.382261E+00 +3.163409E+00     +4.225140E+00 +1.382261E+00 +3.163409E+00     +4.225140E+00 +1.382261E+00 +3.163409E+00     +4.225140E+00 +1.382261E+00 +3.163409E+00    
 +4.225140E+00 +1.382261E+00 +3.163409E+00     +5.404499E+00 +4.255567E-01 +5.017801E+00     +5.404499E+00 +4.255567E-01 +5.017801E+00     +3.156707E-01 +1.393139E+00 +1.170060E+00     +3.156707E-01 +1.393139E+00 +1.170060E+00     +3.156707E-01 +1.393139E+00 +1.170060E+00     +3.156707E-01 +1.393139E+00 +1.170060E+00     +3.156707E-01 +1.393139E+00 +1.170060E+00     +3.156707E-01 +1.393139E+00 +1.170060E+00     +3.156707E-01 +1.393139E+00 +1.170060E+00     +5.858500E+00 +2.491110E+00 +6.200010E+00     +5.858500E+00 +2.491110E+00 +6.200010E+00     +5.858500E+00 +2.491110E+00 +6.200010E+00     +5.858500E+00 +2.491110E+00 +6.200010E+00     +5.858500E+00 +2.491110E+00 +6.200010E+00     +2.135199E+00 +1.930481E+00 +3.795630E+00     +2.135199E+00 +1.930481E+00 +3.795630E+00     +4.225140E+00 +1.382261E+00 +3.163409E+00     +4.225140E+00 +1.382261E+00 +3.163409E+00     +4.225140E+00 +1.382261E+00 +3.163409E+00     +4.225140E+00 +1.382261E+00 +3.163409E+00    
 +4.225140E+00 +1.382261E+00 +3.163409E+00     +5.404499E+00 +4.255567E-01 +5.017801E+00     +3.156707E-01 +1.393139E+00 +1.170060E+00     +3.156707E-01 +1.393139E+00 +1.170060E+00     +3.156707E-01 +1.393139E+00 +1.170060E+00     +3.156707E-01 +1.393139E+00 +1.170060E+00     +3.156707E-01 +1.393139E+00 +1.170060E+00     +3.156707E-01 +1.393139E+00 +1.170060E+00     +3.156707E-01 +1.393139E+00 +1.170060E+00     +5.858500E+00 +2.491110E+00 +6.200010E+00     +5.858500E+00 +2.491110E+00 +6.200010E+00     +5.858500E+00 +2.491110E+00 +6.200010E+00     +5.858500E+00 +2.491110E+00 +6.200010E+00     +5.858500E+00 +2.491110E+00 +6.200010E+00     +5.858500E+00 +2.491110E+00 +6.200010E+00     +5.858500E+00 +2.491110E+00 +6.200010E+00     +5.858500E+00 +2.491110E+00 +6.200010E+00     +4.225140E+00 +1.382261E+00 +3.163409E+00     +4.225140E+00 +1.382261E+00 +3.163409E+00     +4.225140E+00 +1.382261E+00 +3.163409E+00     +4.225140E+00 +1.382261E+00 +3.163409E+00    
 +4.225140E+00 +1.382261E+00 +3.163409E+00     +4.621510E+00 +6.203145E-01 +2.231161E+00     +4.621510E+00 +6.203145E-01 +2.231161E+00     +3.156707E-01 +1.393139E+00 +1.170060E+00     +3.156707E-01 +1.393139E+00 +1.170060E+00     +6.023323E-01 +1.946630E+00 +2.772860E+00     +3.156707E-01 +1.393139E+00 +1.170060E+00     +3.156707E-01 +1.393139E+00 +1.170060E+00     +3.156707E-01 +1.393139E+00 +1.170060E+00     +5.858500E+00 +2.491110E+00 +6.200010E+00     +5.858500E+00 +2.491110E+00 +6.200010E+00     +5.858500E+00 +2.491110E+00 +6.200010E+00     +5.858500E+00 +2.491110E+00 +6.200010E+00     +5.858500E+00 +2.491110E+00 +6.200010E+00     +5.858500E+00 +2.491110E+00 +6.200010E+00     +5.858500E+00 +2.491110E+00 +6.200010E+00     +5.858500E+00 +2.491110E+00 +6.200010E+00     +4.225140E+00 +1.382261E+00 +3.163409E+00     +4.225140E+00 +1.382261E+00 +3.163409E+00     +4.225140E+00 +1.382261E+00 +3.163409E+00     +4.225140E+00 +1.382261E+00 +3.163409E+00    
 +2.061770E+00 +1.152230E+00 +5.173899E+00     +2.061770E+00 +1.152230E+00 +5.173899E+00     +2.061770E+00 +1.152230E+00 +5.173899E+00     +3.156707E-01 +1.393139E+00 +1.170060E+00     +3.156707E-01 +1.393139E+00 +1.170060E+00     +6.023323E-01 +1.946630E+00 +2.772860E+00     +6.023323E-01 +1.946630E+00 +2.772860E+00     +3.156707E-01 +1.393139E+00 +1.170060E+00     +3.156707E-01 +1.393139E+00 +1.170060E+00     +5.858500E+00 +2.491110E+00 +6.200010E+00     +5.858500E+00 +2.491110E+00 +6.200010E+00     +5.858500E+00 +2.491110E+00 +6.200010E+00     +5.858500E+00 +2.491110E+00 +6.200010E+00     +5.858500E+00 +2.491110E+00 +6.200010E+00     +5.858500E+00 +2.491110E+00 +6.200010E+00     +5.858500E+00 +2.491110E+00 +6.200010E+00     +5.858500E+00 +2.491110E+00 +6.200010E+00     +3.076860E+00 +1.928310E+00 +4.824630E+00     +4.092329E+00 +1.967230E+00 +5.843849E+00     +4.092329E+00 +1.967230E+00 +5.843849E+00     +4.092329E+00 +1.967230E+00 +5.843849E+00    
 +2.061770E+00 +1.152230E+00 +5.173899E+00     +2.061770E+00 +1.152230E+00 +5.173899E+00     +2.061770E+00 +1.152230E+00 +5.173899E+00     +2.061770E+00 +1.152230E+00 +5.173899E+00     +6.023323E-01 +1.946630E+00 +2.772860E+00     +6.023323E-01 +1.946630E+00 +2.772860E+00     +6.023323E-01 +1.946630E+00 +2.772860E+00     +5.400150E+00 +1.024931E+00 +1.593920E+00     +5.400150E+00 +1.024931E+00 +1.593920E+00     +3.382630E+00 +2.983171E+00 +5.703999E+00     +3.382630E+00 +2.983171E+00 +5.703999E+00     +5.858500E+00 +2.491110E+00 +6.200010E+00     +5.858500E+00 +2.491110E+00 +6.200010E+00     +5.858500E+00 +2.491110E+00 +6.200010E+00     +5.858500E+00 +2.491110E+00 +6.200010E+00     +3.911690E+00 +2.064901E+00 +5.572710E+00     +3.911690E+00 +2.064901E+00 +5.572710E+00     +3.076860E+00 +1.928310E+00 +4.824630E+00     +4.092329E+00 +1.967230E+00 +5.843849E+00     +4.092329E+00 +1.967230E+00 +5.843849E+00     +4.092329E+00 +1.967230E+00 +5.843849E+00    
 +2.061770E+00 +1.152230E+00 +5.173899E+00     +2.061770E+00 +1.152230E+00 +5.173899E+00     +2.061770E+00 +1.152230E+00 +5.173899E+00     +2.061770E+00 +1.152230E+00 +5.173899E+00     +2.061770E+00 +1.152230E+00 +5.173899E+00     +6.023323E-01 +1.946630E+00 +2.772860E+00     +5.400150E+00 +1.024931E+00 +1.593920E+00     +5.400150E+00 +1.024931E+00 +1.593920E+00     +5.400150E+00 +1.024931E+00 +1.593920E+00     +5.174140E+00 +1.968820E+00 +8.447324E-01     +3.382630E+00 +2.983171E+00 +5.703999E+00     +3.382630E+00 +2.983171E+00 +5.703999E+00     +3.008780E+00 +6.545491E-01 +1.219811E+00     +3.008780E+00 +6.545491E-01 +1.219811E+00     +3.008780E+00 +6.545491E-01 +1.219811E+00     +3.911690E+00 +2.064901E+00 +5.572710E+00     +3.911690E+00 +2.064901E+00 +5.572710E+00     +3.076860E+00 +1.928310E+00 +4.824630E+00     +4.284520E+00 +1.543060E+00 +3.243520E+00     +4.092329E+00 +1.967230E+00 +5.843849E+00     +4.092329E+00 +1.967230E+00 +5.843849E+00    
 +2.061770E+00 +1.152230E+00 +5.173899E+00     +2.061770E+00 +1.152230E+00 +5.173899E+00     +2.061770E+00 +1.152230E+00 +5.173899E+00     +2.061770E+00 +1.152230E+00 +5.173899E+00     +2.061770E+00 +1.152230E+00 +5.173899E+00     +5.400150E+00 +1.024931E+00 +1.593920E+00     +5.400150E+00 +1.024931E+00 +1.593920E+00     +5.400150E+00 +1.024931E+00 +1.593920E+00     +5.174140E+00 +1.968820E+00 +8.447324E-01     +5.174140E+00 +1.968820E+00 +8.447324E-01     +5.174140E+00 +1.968820E+00 +8.447324E-01     +3.382630E+00 +2.983171E+00 +5.703999E+00     +3.008780E+00 +6.545491E-01 +1.219811E+00     +3.008780E+00 +6.545491E-01 +1.219811E+00     +3.008780E+00 +6.545491E-01 +1.219811E+00     +3.911690E+00 +2.064901E+00 +5.572710E+00     +3.911690E+00 +2.064901E+00 +5.572710E+00     +4.284520E+00 +1.543060E+00 +3.243520E+00     +4.284520E+00 +1.543060E+00 +3.243520E+00     +4.284520E+00 +1.543060E+00 +3.243520E+00     +4.092329E+00 +1.967230E+00 +5.843849E+00    
 +2.061770E+00 +1.152230E+00 +5.173899E+00     +2.061770E+00 +1.152230E+00 +5.173899E+00     +2.061770E+00 +1.152230E+00 +5.173899E+00     +2.061770E+00 +1.152230E+00 +5.173899E+00     +2.061770E+00 +1.152230E+00 +5.173899E+00     +5.400150E+00 +1.024931E+00 +1.593920E+00     +5.400150E+00 +1.024931E+00 +1.593920E+00     +5.400150E+00 +1.024931E+00 +1.593920E+00     +5.400150E+00 +1.024931E+00 +1.593920E+00     +5.174140E+00 +1.968820E+00 +8.447324E-01     +5.400150E+00 +1.024931E+00 +1.593920E+00     +3.008780E+00 +6.545491E-01 +1.219811E+00     +3.008780E+00 +6.545491E-01 +1.219811E+00     +3.008780E+00 +6.545491E-01 +1.219811E+00     +3.008780E+00 +6.545491E-01 +1.219811E+00     +3.008780E+00 +6.545491E-01 +1.219811E+00     +3.008780E+00 +6.545491E-01 +1.219811E+00     +4.284520E+00 +1.543060E+00 +3.243520E+00     +4.284520E+00 +1.543060E+00 +3.243520E+00     +3.158290E+00 +9.270875E-01 +4.146730E+00     +3.158290E+00 +9.270875E-01 +4.146730E+00    
 +3.158290E+00 +9.270875E-01 +4.146730E+00     +7.546524E-01 +1.219079E+00 +3.888690E+00     +3.930640E+00 +1.465029E+00 +3.238450E+00     +3.930640E+00 +1.465029E+00 +3.238450E+00     +4.602379E+00 +5.372560E-01 +2.793579E+00     +4.602379E+00 +5.372560E-01 +2.793579E+00     +4.602379E+00 +5.372560E-01 +2.793579E+00     +1.105329E+00 +2.658210E+00 +3.355570E+00     +5.400150E+00 +1.024931E+00 +1.593920E+00     +5.400150E+00 +1.024931E+00 +1.593920E+00     +1.603130E+00 +9.864147E-01 +5.636260E+00     +1.603130E+00 +9.864147E-01 +5.636260E+00     +1.603130E+00 +9.864147E-01 +5.636260E+00     +4.957660E-01 +1.701850E+00 +2.498352E-01     +4.957660E-01 +1.701850E+00 +2.498352E-01     +4.957660E-01 +1.701850E+00 +2.498352E-01     +4.957660E-01 +1.701850E+00 +2.498352E-01     +1.386111E+00 +2.577029E+00 +3.175319E+00     +3.158290E+00 +9.270875E-01 +4.146730E+00     +3.158290E+00 +9.270875E-01 +4.146730E+00     +3.158290E+00 +9.270875E-01 +4.146730E+00    
 +7.546524E-01 +1.219079E+00 +3.888690E+00     +3.930640E+00 +1.465029E+00 +3.238450E+00     +3.930640E+00 +1.465029E+00 +3.238450E+00     +3.930640E+00 +1.465029E+00 +3.238450E+00     +4.602379E+00 +5.372560E-01 +2.793579E+00     +4.602379E+00 +5.372560E-01 +2.793579E+00     +4.602379E+00 +5.372560E-01 +2.793579E+00     +1.105329E+00 +2.658210E+00 +3.355570E+00     +5.525491E+00 +1.605509E+00 +1.080820E+00     +5.525491E+00 +1.605509E+00 +1.080820E+00     +1.603130E+00 +9.864147E-01 +5.636260E+00     +1.603130E+00 +9.864147E-01 +5.636260E+00     +1.603130E+00 +9.864147E-01 +5.636260E+00     +4.957660E-01 +1.701850E+00 +2.498352E-01     +4.957660E-01 +1.701850E+00 +2.498352E-01     +4.957660E-01 +1.701850E+00 +2.498352E-01     +4.957660E-01 +1.701850E+00 +2.498352E-01     +1.386111E+00 +2.577029E+00 +3.175319E+00     +1.965630E+00 +2.237580E+00 +1.848070E+00     +3.158290E+00 +9.270875E-01 +4.146730E+00     +3.158290E+00 +9.270875E-01 +4.146730E+00    
 +7.546524E-01 +1.219079E+00 +3.888690E+00     +7.546524E-01 +1.219079E+00 +3.888690E+00     +3.930640E+00 +1.465029E+00 +3.238450E+00     +4.602379E+00 +5.372560E-01 +2.793579E+00     +4.602379E+00 +5.372560E-01 +2.793579E+00     +4.602379E+00 +5.372560E-01 +2.793579E+00     +4.602379E+00 +5.372560E-01 +2.793579E+00     +4.602379E+00 +5.372560E-01 +2.793579E+00     +5.525491E+00 +1.605509E+00 +1.080820E+00     +5.525491E+00 +1.605509E+00 +1.080820E+00     +1.603130E+00 +9.864147E-01 +5.636260E+00     +1.603130E+00 +9.864147E-01 +5.636260E+00     +1.603130E+00 +9.864147E-01 +5.636260E+00     +4.957660E-01 +1.701850E+00 +2.498352E-01     +4.957660E-01 +1.701850E+00 +2.498352E-01     +4.957660E-01 +1.701850E+00 +2.498352E-01     +4.957660E-01 +1.701850E+00 +2.498352E-01     +4.957660E-01 +1.701850E+00 +2.498352E-01     +1.965630E+00 +2.237580E+00 +1.848070E+00     +1.965630E+00 +2.237580E+00 +1.848070E+00     +1.965630E+00 +2.237580E+00 +1.848070E+00    
 +5.138010E+00 +1.343350E+00 +1.951891E+00     +4.523970E+00 +2.179550E+00 +2.367365E-02     +4.602379E+00 +5.372560E-01 +2.793579E+00     +4.602379E+00 +5.372560E-01 +2.793579E+00     +4.602379E+00 +5.372560E-01 +2.793579E+00     +4.602379E+00 +5.372560E-01 +2.793579E+00     +4.602379E+00 +5.372560E-01 +2.793579E+00     +4.602379E+00 +5.372560E-01 +2.793579E+00     +3.410539E+00 +9.633903E-01 +6.286885E-01     +3.410539E+00 +9.633903E-01 +6.286885E-01     +3.410539E+00 +9.633903E-01 +6.286885E-01     +4.957660E-01 +1.701850E+00 +2.498352E-01     +4.957660E-01 +1.701850E+00 +2.498352E-01     +4.957660E-01 +1.701850E+00 +2.498352E-01     +4.957660E-01 +1.701850E+00 +2.498352E-01     +4.957660E-01 +1.701850E+00 +2.498352E-01     +4.957660E-01 +1.701850E+00 +2.498352E-01     +4.957660E-01 +1.701850E+00 +2.498352E-01     +1.965630E+00 +2.237580E+00 +1.848070E+00     +1.965630E+00 +2.237580E+00 +1.848070E+00     +1.965630E+00 +2.237580E+00 +1.848070E+00    
 +5.138010E+00 +1.343350E+00 +1.951891E+00     +5.138010E+00 +1.343350E+00 +1.951891E+00     +5.138010E+00 +1.343350E+00 +1.951891E+00     +4.602379E+00 +5.372560E-01 +2.793579E+00     +4.602379E+00 +5.372560E-01 +2.793579E+00     +4.602379E+00 +5.372560E-01 +2.793579E+00     +4.602379E+00 +5.372560E-01 +2.793579E+00     +3.410539E+00 +9.633903E-01 +6.286885E-01     +3.410539E+00 +9.633903E-01 +6.286885E-01     +3.410539E+00 +9.633903E-01 +6.286885E-01     +3.410539E+00 +9.633903E-01 +6.286885E-01     +4.957660E-01 +1.701850E+00 +2.498352E-01     +4.957660E-01 +1.701850E+00 +2.498352E-01     +4.957660E-01 +1.701850E+00 +2.498352E-01     +4.957660E-01 +1.701850E+00 +2.498352E-01     +4.957660E-01 +1.701850E+00 +2.498352E-01     +4.957660E-01 +1.701850E+00 +2.498352E-01     +4.957660E-01 +1.701850E+00 +2.498352E-01     +3.868631E+00 +2.330819E+00 +3.753090E+00     +3.868631E+00 +2.330819E+00 +3.753090E+00     +5.138010E+00 +1.343350E+00 +1.951891E+00    
 +5.138010E+00 +1.343350E+00 +1.951891E+00     +5.138010E+00 +1.343350E+00 +1.951891E+00     +5.138010E+00 +1.343350E+00 +1.951891E+00     +5.138010E+00 +1.343350E+00 +1.951891E+00     +4.602379E+00 +5.372560E-01 +2.793579E+00     +4.602379E+00 +5.372560E-01 +2.793579E+00     +4.602379E+00 +5.372560E-01 +2.793579E+00     +3.410539E+00 +9.633903E-01 +6.286885E-01     +3.410539E+00 +9.633903E-01 +6.286885E-01     +3.410539E+00 +9.633903E-01 +6.286885E-01     +3.410539E+00 +9.633903E-01 +6.286885E-01     +3.410539E+00 +9.633903E-01 +6.286885E-01     +4.957660E-01 +1.701850E+00 +2.498352E-01     +4.957660E-01 +1.701850E+00 +2.498352E-01     +4.957660E-01 +1.701850E+00 +2.498352E-01     +4.957660E-01 +1.701850E+00 +2.498352E-01     +3.868631E+00 +2.330819E+00 +3.753090E+00     +3.868631E+00 +2.330819E+00 +3.753090E+00     +3.868631E+00 +2.330819E+00 +3.753090E+00     +3.868631E+00 +2.330819E+00 +3.753090E+00     +5.138010E+00 +1.343350E+00 +1.951891E+00    
 +5.138010E+00 +1.343350E+00 +1.951891E+00     +5.138010E+00 +1.343350E+00 +1.951891E+00     +5.138010E+00 +1.343350E+00 +1.951891E+00     +5.138010E+00 +1.343350E+00 +1.951891E+00     +5.138010E+00 +1.343350E+00 +1.951891E+00     +4.840150E+00 +1.948020E+00 +4.511090E+00     +4.840150E+00 +1.948020E+00 +4.511090E+00     +4.840150E+00 +1.948020E+00 +4.511090E+00     +3.410539E+00 +9.633903E-01 +6.286885E-01     +3.410539E+00 +9.633903E-01 +6.286885E-01     +3.410539E+00 +9.633903E-01 +6.286885E-01     +3.410539E+00 +9.633903E-01 +6.286885E-01     +4.957660E-01 +1.701850E+00 +2.498352E-01     +4.957660E-01 +1.701850E+00 +2.498352E-01     +4.487301E+00 +1.771249E+00 +4.998571E+00     +4.487301E+00 +1.771249E+00 +4.998571E+00     +3.868631E+00 +2.330819E+00 +3.753090E+00     +3.868631E+00 +2.330819E+00 +3.753090E+00     +3.868631E+00 +2.330819E+00 +3.753090E+00     +3.868631E+00 +2.330819E+00 +3.753090E+00     +5.138010E+00 +1.343350E+00 +1.951891E+00    
 +5.138010E+00 +1.343350E+00 +1.951891E+00     +5.138010E+00 +1.343350E+00 +1.951891E+00     +5.138010E+00 +1.343350E+00 +1.951891E+00     +5.138010E+00 +1.343350E+00 +1.951891E+00     +5.138010E+00 +1.343350E+00 +1.951891E+00     +4.840150E+00 +1.948020E+00 +4.511090E+00     +4.840150E+00 +1.948020E+00 +4.511090E+00     +5.042152E-01 +1.365830E+00 +4.160519E+00     +5.042152E-01 +1.365830E+00 +4.160519E+00     +3.410539E+00 +9.633903E-01 +6.286885E-01     +3.410539E+00 +9.633903E-01 +6.286885E-01     +3.410539E+00 +9.633903E-01 +6.286885E-01     +4.487301E+00 +1.771249E+00 +4.998571E+00     +4.487301E+00 +1.771249E+00 +4.998571E+00     +4.487301E+00 +1.771249E+00 +4.998571E+00     +4.487301E+00 +1.771249E+00 +4.998571E+00     +3.868631E+00 +2.330819E+00 +3.753090E+00     +3.868631E+00 +2.330819E+00 +3.753090E+00     +3.868631E+00 +2.330819E+00 +3.753090E+00     +3.868631E+00 +2.330819E+00 +3.753090E+00     +5.138010E+00 +1.343350E+00 +1.951891E+00    
 +5.138010E+00 +1.343350E+00 +1.951891E+00     +5.138010E+00 +1.343350E+00 +1.951891E+00     +5.138010E+00 +1.343350E+00 +1.951891E+00     +5.138010E+00 +1.343350E+00 +1.951891E+00     +5.138010E+00 +1.343350E+00 +1.951891E+00     +4.840150E+00 +1.948020E+00 +4.511090E+00     +4.840150E+00 +1.948020E+00 +4.511090E+00     +4.840150E+00 +1.948020E+00 +4.511090E+00     +4.840150E+00 +1.948020E+00 +4.511090E+00     +4.840150E+00 +1.948020E+00 +4.511090E+00     +4.840150E+00 +1.948020E+00 +4.511090E+00     +4.487301E+00 +1.771249E+00 +4.998571E+00     +4.487301E+00 +1.771249E+00 +4.998571E+00     +4.487301E+00 +1.771249E+00 +4.998571E+00     +4.487301E+00 +1.771249E+00 +4.998571E+00     +4.487301E+00 +1.771249E+00 +4.998571E+00     +4.487301E+00 +1.771249E+00 +4.998571E+00     +3.868631E+00 +2.330819E+00 +3.753090E+00     +3.868631E+00 +2.330819E+00 +3.753090E+00     +3.868631E+00 +2.330819E+00 +3.753090E+00     +5.138010E+00 +1.343350E+00 +1.951891E+00    
 +5.138010E+00 +1.343350E+00 +1.951891E+00     +5.138010E+00 +1.343350E+00 +1.951891E+00     +5.138010E+00 +1.343350E+00 +1.951891E+00     +5.138010E+00 +1.343350E+00 +1.951891E+00     +5.138010E+00 +1.343350E+00 +1.951891E+00     +1.585410E+00 +1.724919E+00 +3.745440E+00     +1.585410E+00 +1.724919E+00 +3.745440E+00     +1.585410E+00 +1.724919E+00 +3.745440E+00     +1.585410E+00 +1.724919E+00 +3.745440E+00     +1.585410E+00 +1.724919E+00 +3.745440E+00     +1.585410E+00 +1.724919E+00 +3.745440E+00     +4.487301E+00 +1.771249E+00 +4.998571E+00     +4.487301E+00 +1.771249E+00 +4.998571E+00     +4.487301E+00 +1.771249E+00 +4.998571E+00     +4.487301E+00 +1.771249E+00 +4.998571E+00     +3.029000E+00 +2.128930E+00 +4.462269E+00     +4.487301E+00 +1.771249E+00 +4.998571E+00     +4.487301E+00 +1.771249E+00 +4.998571E+00     +3.868631E+00 +2.330819E+00 +3.753090E+00     +3.868631E+00 +2.330819E+00 +3.753090E+00     +5.138010E+00 +1.343350E+00 +1.951891E+00    
 +5.138010E+00 +1.343350E+00 +1.951891E+00     +5.138010E+00 +1.343350E+00 +1.951891E+00     +5.138010E+00 +1.343350E+00 +1.951891E+00     +5.138010E+00 +1.343350E+00 +1.951891E+00     +3.156707E-01 +1.393139E+00 +1.170060E+00     +3.156707E-01 +1.393139E+00 +1.170060E+00     +1.585410E+00 +1.724919E+00 +3.745440E+00     +1.585410E+00 +1.724919E+00 +3.745440E+00     +1.585410E+00 +1.724919E+00 +3.745440E+00     +1.585410E+00 +1.724919E+00 +3.745440E+00     +3.479920E+00 +1.666229E+00 +5.212799E+00     +3.479920E+00 +1.666229E+00 +5.212799E+00     +3.479920E+00 +1.666229E+00 +5.212799E+00     +4.487301E+00 +1.771249E+00 +4.998571E+00     +4.487301E+00 +1.771249E+00 +4.998571E+00     +4.487301E+00 +1.771249E+00 +4.998571E+00     +4.487301E+00 +1.771249E+00 +4.998571E+00     +4.487301E+00 +1.771249E+00 +4.998571E+00     +4.225140E+00 +1.382261E+00 +3.163409E+00     +4.225140E+00 +1.382261E+00 +3.163409E+00     +4.225140E+00 +1.382261E+00 +3.163409E+00    
 +4.225140E+00 +1.382261E+00 +3.163409E+00     +4.225140E+00 +1.382261E+00 +3.163409E+00     +5.138010E+00 +1.343350E+00 +1.951891E+00     +3.156707E-01 +1.393139E+00 +1.170060E+00     +3.156707E-01 +1.393139E+00 +1.170060E+00     +3.156707E-01 +1.393139E+00 +1.170060E+00     +3.156707E-01 +1.393139E+00 +1.170060E+00     +3.156707E-01 +1.393139E+00 +1.170060E+00     +3.156707E-01 +1.393139E+00 +1.170060E+00     +3.479920E+00 +1.666229E+00 +5.212799E+00     +3.479920E+00 +1.666229E+00 +5.212799E+00     +3.479920E+00 +1.666229E+00 +5.212799E+00     +3.479920E+00 +1.666229E+00 +5.212799E+00     +3.479920E+00 +1.666229E+00 +5.212799E+00     +4.487301E+00 +1.771249E+00 +4.998571E+00     +4.487301E+00 +1.771249E+00 +4.998571E+00     +6.061860E+00 +1.336090E+00 +1.274289E+00     +6.061860E+00 +1.336090E+00 +1.274289E+00     +4.225140E+00 +1.382261E+00 +3.163409E+00     +4.225140E+00 +1.382261E+00 +3.163409E+00     +4.225140E+00 +1.382261E+00 +3.163409E+00    
 +4.225140E+00 +1.382261E+00 +3.163409E+00     +4.225140E+00 +1.382261E+00 +3.163409E+00     +4.225140E+00 +1.382261E+00 +3.163409E+00     +3.156707E-01 +1.393139E+00 +1.170060E+00     +3.156707E-01 +1.393139E+00 +1.170060E+00     +3.156707E-01 +1.393139E+00 +1.170060E+00     +3.156707E-01 +1.393139E+00 +1.170060E+00     +3.156707E-01 +1.393139E+00 +1.170060E+00     +3.156707E-01 +1.393139E+00 +1.170060E+00     +3.479920E+00 +1.666229E+00 +5.212799E+00     +3.479920E+00 +1.666229E+00 +5.212799E+00     +3.479920E+00 +1.666229E+00 +5.212799E+00     +3.479920E+00 +1.666229E+00 +5.212799E+00     +3.479920E+00 +1.666229E+00 +5.212799E+00     +5.858500E+00 +2.491110E+00 +6.200010E+00     +4.465460E+00 +1.407840E+00 +3.380230E+00     +4.465460E+00 +1.407840E+00 +3.380230E+00     +6.061860E+00 +1.336090E+00 +1.274289E+00     +4.225140E+00 +1.382261E+00 +3.163409E+00     +4.225140E+00 +1.382261E+00 +3.163409E+00     +4.225140E+00 +1.382261E+00 +3.163409E+00    
 +4.225140E+00 +1.382261E+00 +3.163409E+00     +4.225140E+00 +1.382261E+00 +3.163409E+00     +4.225140E+00 +1.382261E+00 +3.163409E+00     +3.156707E-01 +1.393139E+00 +1.170060E+00     +3.156707E-01 +1.393139E+00 +1.170060E+00     +3.156707E-01 +1.393139E+00 +1.170060E+00     +3.156707E-01 +1.393139E+00 +1.170060E+00     +3.156707E-01 +1.393139E+00 +1.170060E+00     +3.156707E-01 +1.393139E+00 +1.170060E+00     +3.156707E-01 +1.393139E+00 +1.170060E+00     +5.858500E+00 +2.491110E+00 +6.200010E+00     +5.858500E+00 +2.491110E+00 +6.200010E+00     +5.858500E+00 +2.491110E+00 +6.200010E+00     +5.858500E+00 +2.491110E+00 +6.200010E+00     +5.858500E+00 +2.491110E+00 +6.200010E+00     +3.846859E+00 +1.844750E+00 +1.032779E+00     +4.465460E+00 +1.407840E+00 +3.380230E+00     +4.465460E+00 +1.407840E+00 +3.380230E+00     +4.225140E+00 +1.382261E+00 +3.163409E+00     +4.225140E+00 +1.382261E+00 +3.163409E+00     +4.225140E+00 +1.382261E+00 +3.163409E+00    
 +4.225140E+00 +1.382261E+00 +3.163409E+00     +4.225140E+00 +1.382261E+00 +3.163409E+00     +3.156707E-01 +1.393139E+00 +1.170060E+00     +3.156707E-01 +1.393139E+00 +1.170060E+00     +3.156707E-01 +1.393139E+00 +1.170060E+00     +6.023323E-01 +1.946630E+00 +2.772860E+00     +3.156707E-01 +1.393139E+00 +1.170060E+00     +3.156707E-01 +1.393139E+00 +1.170060E+00     +3.156707E-01 +1.393139E+00 +1.170060E+00     +5.858500E+00 +2.491110E+00 +6.200010E+00     +5.858500E+00 +2.491110E+00 +6.200010E+00     +5.858500E+00 +2.491110E+00 +6.200010E+00     +4.054313E-01 +1.877370E+00 +2.888710E+00     +4.054313E-01 +1.877370E+00 +2.888710E+00     +4.054313E-01 +1.877370E+00 +2.888710E+00     +4.465460E+00 +1.407840E+00 +3.380230E+00     +4.465460E+00 +1.407840E+00 +3.380230E+00     +4.465460E+00 +1.407840E+00 +3.380230E+00     +4.225140E+00 +1.382261E+00 +3.163409E+00     +4.225140E+00 +1.382261E+00 +3.163409E+00     +4.225140E+00 +1.382261E+00 +3.163409E+00    
 +4.225140E+00 +1.382261E+00 +3.163409E+00     +4.621510E+00 +6.203145E-01 +2.231161E+00     +4.621510E+00 +6.203145E-01 +2.231161E+00     +3.156707E-01 +1.393139E+00 +1.170060E+00     +6.023323E-01 +1.946630E+00 +2.772860E+00     +6.023323E-01 +1.946630E+00 +2.772860E+00     +6.023323E-01 +1.946630E+00 +2.772860E+00     +3.156707E-01 +1.393139E+00 +1.170060E+00     +3.156707E-01 +1.393139E+00 +1.170060E+00     +3.382630E+00 +2.983171E+00 +5.703999E+00     +3.382630E+00 +2.983171E+00 +5.703999E+00     +5.858500E+00 +2.491110E+00 +6.200010E+00     +4.054313E-01 +1.877370E+00 +2.888710E+00     +4.054313E-01 +1.877370E+00 +2.888710E+00     +4.054313E-01 +1.877370E+00 +2.888710E+00     +5.858500E+00 +2.491110E+00 +6.200010E+00     +4.465460E+00 +1.407840E+00 +3.380230E+00     +4.465460E+00 +1.407840E+00 +3.380230E+00     +4.225140E+00 +1.382261E+00 +3.163409E+00     +4.225140E+00 +1.382261E+00 +3.163409E+00     +4.225140E+00 +1.382261E+00 +3.163409E+00    
 +2.061770E+00 +1.152230E+00 +5.173899E+00     +2.061770E+00 +1.152230E+00 +5.173899E+00     +2.061770E+00 +1.152230E+00 +5.173899E+00     +6.023323E-01 +1.946630E+00 +2.772860E+00     +6.023323E-01 +1.946630E+00 +2.772860E+00     +6.023323E-01 +1.946630E+00 +2.772860E+00     +6.023323E-01 +1.946630E+00 +2.772860E+00     +6.023323E-01 +1.946630E+00 +2.772860E+00     +3.382630E+00 +2.983171E+00 +5.703999E+00     +3.382630E+00 +2.983171E+00 +5.703999E+00     +3.382630E+00 +2.983171E+00 +5.703999E+00     +3.382630E+00 +2.983171E+00 +5.703999E+00     +4.054313E-01 +1.877370E+00 +2.888710E+00     +4.054313E-01 +1.877370E+00 +2.888710E+00     +4.054313E-01 +1.877370E+00 +2.888710E+00     +5.858500E+00 +2.491110E+00 +6.200010E+00     +5.858500E+00 +2.491110E+00 +6.200010E+00     +4.465460E+00 +1.407840E+00 +3.380230E+00     +4.225140E+00 +1.382261E+00 +3.163409E+00     +4.225140E+00 +1.382261E+00 +3.163409E+00     +4.225140E+00 +1.382261E+00 +3.163409E+00    
 +2.061770E+00 +1.152230E+00 +5.173899E+00     +2.061770E+00 +1.152230E+00 +5.173899E+00     +2.061770E+00 +1.152230E+00 +5.173899E+00     +2.061770E+00 +1.152230E+00 +5.173899E+00     +6.023323E-01 +1.946630E+00 +2.772860E+00     +6.023323E-01 +1.946630E+00 +2.772860E+00     +6.023323E-01 +1.946630E+00 +2.772860E+00     +5.400150E+00 +1.024931E+00 +1.593920E+00     +5.400150E+00 +1.024931E+00 +1.593920E+00     +3.382630E+00 +2.983171E+00 +5.703999E+00     +3.382630E+00 +2.983171E+00 +5.703999E+00     +3.382630E+00 +2.983171E+00 +5.703999E+00     +3.382630E+00 +2.983171E+00 +5.703999E+00     +5.858500E+00 +2.491110E+00 +6.200010E+00     +5.858500E+00 +2.491110E+00 +6.200010E+00     +5.858500E+00 +2.491110E+00 +6.200010E+00     +3.911690E+00 +2.064901E+00 +5.572710E+00     +4.284520E+00 +1.543060E+00 +3.243520E+00     +4.284520E+00 +1.543060E+00 +3.243520E+00     +4.284520E+00 +1.543060E+00 +3.243520E+00     +4.284520E+00 +1.543060E+00 +3.243520E+00    
 +2.061770E+00 +1.152230E+00 +5.173899E+00     +2.061770E+00 +1.152230E+00 +5.173899E+00     +2.061770E+00 +1.152230E+00 +5.173899E+00     +2.061770E+00 +1.152230E+00 +5.173899E+00     +6.023323E-01 +1.946630E+00 +2.772860E+00     +6.023323E-01 +1.946630E+00 +2.772860E+00     +5.400150E+00 +1.024931E+00 +1.593920E+00     +5.400150E+00 +1.024931E+00 +1.593920E+00     +5.400150E+00 +1.024931E+00 +1.593920E+00     +5.174140E+00 +1.968820E+00 +8.447324E-01     +3.382630E+00 +2.983171E+00 +5.703999E+00     +3.382630E+00 +2.983171E+00 +5.703999E+00     +3.382630E+00 +2.983171E+00 +5.703999E+00     +3.382630E+00 +2.983171E+00 +5.703999E+00     +3.008780E+00 +6.545491E-01 +1.219811E+00     +3.911690E+00 +2.064901E+00 +5.572710E+00     +4.284520E+00 +1.543060E+00 +3.243520E+00     +4.284520E+00 +1.543060E+00 +3.243520E+00     +4.284520E+00 +1.543060E+00 +3.243520E+00     +4.284520E+00 +1.543060E+00 +3.243520E+00     +4.284520E+00 +1.543060E+00 +3.243520E+00    
 +3.158290E+00 +9.270875E-01 +4.146730E+00     +2.061770E+00 +1.152230E+00 +5.173899E+00     +2.061770E+00 +1.152230E+00 +5.173899E+00     +2.061770E+00 +1.152230E+00 +5.173899E+00     +6.023323E-01 +1.946630E+00 +2.772860E+00     +5.400150E+00 +1.024931E+00 +1.593920E+00     +5.400150E+00 +1.024931E+00 +1.593920E+00     +5.400150E+00 +1.024931E+00 +1.593920E+00     +5.174140E+00 +1.968820E+00 +8.447324E-01     +5.174140E+00 +1.968820E+00 +8.447324E-01     +5.174140E+00 +1.968820E+00 +8.447324E-01     +3.382630E+00 +2.983171E+00 +5.703999E+00     +3.382630E+00 +2.983171E+00 +5.703999E+00     +3.382630E+00 +2.983171E+00 +5.703999E+00     +3.008780E+00 +6.545491E-01 +1.219811E+00     +3.911690E+00 +2.064901E+00 +5.572710E+00     +4.284520E+00 +1.543060E+00 +3.243520E+00     +4.284520E+00 +1.543060E+00 +3.243520E+00     +4.284520E+00 +1.543060E+00 +3.243520E+00     +4.284520E+00 +1.543060E+00 +3.243520E+00     +4.284520E+00 +1.543060E+00 +3.243520E+00    
 +3.158290E+00 +9.270875E-01 +4.146730E+00     +3.158290E+00 +9.270875E-01 +4.146730E+00     +2.061770E+00 +1.152230E+00 +5.173899E+00     +2.322279E+00 +1.183578E-01 +5.142279E+00     +2.287620E-01 +8.959333E-01 +4.001450E+00     +5.400150E+00 +1.024931E+00 +1.593920E+00     +5.400150E+00 +1.024931E+00 +1.593920E+00     +5.400150E+00 +1.024931E+00 +1.593920E+00     +5.400150E+00 +1.024931E+00 +1.593920E+00     +5.174140E+00 +1.968820E+00 +8.447324E-01     +5.400150E+00 +1.024931E+00 +1.593920E+00     +5.400150E+00 +1.024931E+00 +1.593920E+00     +3.382630E+00 +2.983171E+00 +5.703999E+00     +3.008780E+00 +6.545491E-01 +1.219811E+00     +3.008780E+00 +6.545491E-01 +1.219811E+00     +3.008780E+00 +6.545491E-01 +1.219811E+00     +4.284520E+00 +1.543060E+00 +3.243520E+00     +4.284520E+00 +1.543060E+00 +3.243520E+00     +4.284520E+00 +1.543060E+00 +3.243520E+00     +3.158290E+00 +9.270875E-01 +4.146730E+00     +3.158290E+00 +9.270875E-01 +4.146730E+00    
 +3.158290E+00 +9.270875E-01 +4.146730E+00     +7.546524E-01 +1.219079E+00 +3.888690E+00     +7.546524E-01 +1.219079E+00 +3.888690E+00     +3.930640E+00 +1.465029E+00 +3.238450E+00     +4.602379E+00 +5.372560E-01 +2.793579E+00     +4.602379E+00 +5.372560E-01 +2.793579E+00     +4.602379E+00 +5.372560E-01 +2.793579E+00     +5.400150E+00 +1.024931E+00 +1.593920E+00     +5.400150E+00 +1.024931E+00 +1.593920E+00     +5.400150E+00 +1.024931E+00 +1.593920E+00     +5.400150E+00 +1.024931E+00 +1.593920E+00     +1.603130E+00 +9.864147E-01 +5.636260E+00     +1.603130E+00 +9.864147E-01 +5.636260E+00     +4.683410E+00 +1.912020E+00 +4.247760E+00     +4.683410E+00 +1.912020E+00 +4.247760E+00     +4.957660E-01 +1.701850E+00 +2.498352E-01     +4.957660E-01 +1.701850E+00 +2.498352E-01     +3.158290E+00 +9.270875E-01 +4.146730E+00     +3.158290E+00 +9.270875E-01 +4.146730E+00     +3.158290E+00 +9.270875E-01 +4.146730E+00     +3.158290E+00 +9.270875E-01 +4.146730E+00    
 +7.546524E-01 +1.219079E+00 +3.888690E+00     +7.546524E-01 +1.219079E+00 +3.888690E+00     +7.546524E-01 +1.219079E+00 +3.888690E+00     +4.602379E+00 +5.372560E-01 +2.793579E+00     +4.602379E+00 +5.372560E-01 +2.793579E+00     +4.602379E+00 +5.372560E-01 +2.793579E+00     +4.602379E+00 +5.372560E-01 +2.793579E+00     +4.602379E+00 +5.372560E-01 +2.793579E+00     +5.400150E+00 +1.024931E+00 +1.593920E+00     +5.525491E+00 +1.605509E+00 +1.080820E+00     +1.603130E+00 +9.864147E-01 +5.636260E+00     +1.603130E+00 +9.864147E-01 +5.636260E+00     +1.603130E+00 +9.864147E-01 +5.636260E+00     +4.683410E+00 +1.912020E+00 +4.247760E+00     +4.683410E+00 +1.912020E+00 +4.247760E+00     +4.957660E-01 +1.701850E+00 +2.498352E-01     +4.957660E-01 +1.701850E+00 +2.498352E-01     +1.965630E+00 +2.237580E+00 +1.848070E+00     +1.965630E+00 +2.237580E+00 +1.848070E+00     +1.965630E+00 +2.237580E+00 +1.848070E+00     +3.158290E+00 +9.270875E-01 +4.146730E+00    
 +7.546524E-01 +1.219079E+00 +3.888690E+00     +7.546524E-01 +1.219079E+00 +3.888690E+00     +7.546524E-01 +1.219079E+00 +3.888690E+00     +4.602379E+00 +5.372560E-01 +2.793579E+00     +4.602379E+00 +5.372560E-01 +2.793579E+00     +4.602379E+00 +5.372560E-01 +2.793579E+00     +4.602379E+00 +5.372560E-01 +2.793579E+00     +4.602379E+00 +5.372560E-01 +2.793579E+00     +4.602379E+00 +5.372560E-01 +2.793579E+00     +1.603130E+00 +9.864147E-01 +5.636260E+00     +1.603130E+00 +9.864147E-01 +5.636260E+00     +1.603130E+00 +9.864147E-01 +5.636260E+00     +4.957660E-01 +1.701850E+00 +2.498352E-01     +4.957660E-01 +1.701850E+00 +2.498352E-01     +4.957660E-01 +1.701850E+00 +2.498352E-01     +4.957660E-01 +1.701850E+00 +2.498352E-01     +4.957660E-01 +1.701850E+00 +2.498352E-01     +1.965630E+00 +2.237580E+00 +1.848070E+00     +1.965630E+00 +2.237580E+00 +1.848070E+00     +1.965630E+00 +2.237580E+00 +1.848070E+00     +1.965630E+00 +2.237580E+00 +1.848070E+00    
 +2.322279E+00 +1.183578E-01 +5.142279E+00     +7.546524E-01 +1.219079E+00 +3.888690E+00     +4.602379E+00 +5.372560E-01 +2.793579E+00     +4.602379E+00 +5.372560E-01 +2.793579E+00     +4.602379E+00 +5.372560E-01 +2.793579E+00     +4.602379E+00 +5.372560E-01 +2.793579E+00     +4.602379E+00 +5.372560E-01 +2.793579E+00     +4.602379E+00 +5.372560E-01 +2.793579E+00     +3.410539E+00 +9.633903E-01 +6.286885E-01     +3.410539E+00 +9.633903E-01 +6.286885E-01     +3.410539E+00 +9.633903E-01 +6.286885E-01     +4.957660E-01 +1.701850E+00 +2.498352E-01     +4.957660E-01 +1.701850E+00 +2.498352E-01     +4.957660E-01 +1.701850E+00 +2.498352E-01     +4.957660E-01 +1.701850E+00 +2.498352E-01     +4.957660E-01 +1.701850E+00 +2.498352E-01     +4.957660E-01 +1.701850E+00 +2.498352E-01     +4.957660E-01 +1.701850E+00 +2.498352E-01     +1.965630E+00 +2.237580E+00 +1.848070E+00     +1.965630E+00 +2.237580E+00 +1.848070E+00     +1.965630E+00 +2.237580E+00 +1.848070E+00    
 +5.138010E+00 +1.343350E+00 +1.951891E+00     +5.138010E+00 +1.343350E+00 +1.951891E+00     +5.138010E+00 +1.343350E+00 +1.951891E+00     +4.602379E+00 +5.372560E-01 +2.793579E+00     +4.602379E+00 +5.372560E-01 +2.793579E+00     +4.602379E+00 +5.372560E-01 +2.793579E+00     +4.602379E+00 +5.372560E-01 +2.793579E+00     +3.410539E+00 +9.633903E-01 +6.286885E-01     +3.410539E+00 +9.633903E-01 +6.286885E-01     +3.410539E+00 +9.633903E-01 +6.286885E-01     +3.410539E+00 +9.633903E-01 +6.286885E-01     +3.410539E+00 +9.633903E-01 +6.286885E-01     +4.957660E-01 +1.701850E+00 +2.498352E-01     +4.957660E-01 +1.701850E+00 +2.498352E-01     +4.957660E-01 +1.701850E+00 +2.498352E-01     +4.957660E-01 +1.701850E+00 +2.498352E-01     +4.957660E-01 +1.701850E+00 +2.498352E-01     +4.957660E-01 +1.701850E+00 +2.498352E-01     +3.868631E+00 +2.330819E+00 +3.753090E+00     +5.138010E+00 +1.343350E+00 +1.951891E+00     +5.138010E+00 +1.343350E+00 +1.951891E+00    
 +5.138010E+00 +1.343350E+00 +1.951891E+00     +5.138010E+00 +1.343350E+00 +1.951891E+00     +5.138010E+00 +1.343350E+00 +1.951891E+00     +5.138010E+00 +1.343350E+00 +1.951891E+00     +5.138010E+00 +1.343350E+00 +1.951891E+00     +4.602379E+00 +5.372560E-01 +2.793579E+00     +4.299280E+00 +9.850045E-01 +2.890799E+00     +3.410539E+00 +9.633903E-01 +6.286885E-01     +3.410539E+00 +9.633903E-01 +6.286885E-01     +3.410539E+00 +9.633903E-01 +6.286885E-01     +3.410539E+00 +9.633903E-01 +6.286885E-01     +3.410539E+00 +9.633903E-01 +6.286885E-01     +4.957660E-01 +1.701850E+00 +2.498352E-01     +4.957660E-01 +1.701850E+00 +2.498352E-01     +4.957660E-01 +1.701850E+00 +2.498352E-01     +4.487301E+00 +1.771249E+00 +4.998571E+00     +4.487301E+00 +1.771249E+00 +4.998571E+00     +3.297869E+00 +2.277210E+00 +1.561359E+00     +3.868631E+00 +2.330819E+00 +3.753090E+00     +5.138010E+00 +1.343350E+00 +1.951891E+00     +5.138010E+00 +1.343350E+00 +1.951891E+00    
 +5.138010E+00 +1.343350E+00 +1.951891E+00     +5.138010E+00 +1.343350E+00 +1.951891E+00     +5.138010E+00 +1.343350E+00 +1.951891E+00     +5.138010E+00 +1.343350E+00 +1.951891E+00     +5.138010E+00 +1.343350E+00 +1.951891E+00     +4.299280E+00 +9.850045E-01 +2.890799E+00     +4.299280E+00 +9.850045E-01 +2.890799E+00     +3.410539E+00 +9.633903E-01 +6.286885E-01     +3.410539E+00 +9.633903E-01 +6.286885E-01     +3.410539E+00 +9.633903E-01 +6.286885E-01     +3.410539E+00 +9.633903E-01 +6.286885E-01     +3.410539E+00 +9.633903E-01 +6.286885E-01     +4.957660E-01 +1.701850E+00 +2.498352E-01     +4.487301E+00 +1.771249E+00 +4.998571E+00     +4.487301E+00 +1.771249E+00 +4.998571E+00     +4.487301E+00 +1.771249E+00 +4.998571E+00     +4.487301E+00 +1.771249E+00 +4.998571E+00     +3.868631E+00 +2.330819E+00 +3.753090E+00     +3.868631E+00 +2.330819E+00 +3.753090E+00     +5.138010E+00 +1.343350E+00 +1.951891E+00     +5.138010E+00 +1.343350E+00 +1.951891E+00    
 +5.138010E+00 +1.343350E+00 +1.951891E+00     +5.138010E+00 +1.343350E+00 +1.951891E+00     +5.138010E+00 +1.343350E+00 +1.951891E+00     +5.138010E+00 +1.343350E+00 +1.951891E+00     +5.138010E+00 +1.343350E+00 +1.951891E+00     +5.138010E+00 +1.343350E+00 +1.951891E+00     +4.299280E+00 +9.850045E-01 +2.890799E+00     +5.042152E-01 +1.365830E+00 +4.160519E+00     +3.410539E+00 +9.633903E-01 +6.286885E-01     +3.410539E+00 +9.633903E-01 +6.286885E-01     +3.410539E+00 +9.633903E-01 +6.286885E-01     +3.410539E+00 +9.633903E-01 +6.286885E-01     +4.487301E+00 +1.771249E+00 +4.998571E+00     +4.487301E+00 +1.771249E+00 +4.998571E+00     +4.487301E+00 +1.771249E+00 +4.998571E+00     +4.487301E+00 +1.771249E+00 +4.998571E+00     +4.487301E+00 +1.771249E+00 +4.998571E+00     +3.868631E+00 +2.330819E+00 +3.753090E+00     +3.868631E+00 +2.330819E+00 +3.753090E+00     +5.138010E+00 +1.343350E+00 +1.951891E+00     +5.138010E+00 +1.343350E+00 +1.951891E+00    
 +5.138010E+00 +1.343350E+00 +1.951891E+00     +5.138010E+00 +1.343350E+00 +1.951891E+00     +5.138010E+00 +1.343350E+00 +1.951891E+00     +5.138010E+00 +1.343350E+00 +1.951891E+00     +5.138010E+00 +1.343350E+00 +1.951891E+00     +5.138010E+00 +1.343350E+00 +1.951891E+00     +1.585410E+00 +1.724919E+00 +3.745440E+00     +1.585410E+00 +1.724919E+00 +3.745440E+00     +1.585410E+00 +1.724919E+00 +3.745440E+00     +3.410539E+00 +9.633903E-01 +6.286885E-01     +3.410539E+00 +9.633903E-01 +6.286885E-01     +3.410539E+00 +9.633903E-01 +6.286885E-01     +5.889300E+00 +8.985828E-01 +3.240590E+00     +4.487301E+00 +1.771249E+00 +4.998571E+00     +4.487301E+00 +1.771249E+00 +4.998571E+00     +4.487301E+00 +1.771249E+00 +4.998571E+00     +4.487301E+00 +1.771249E+00 +4.998571E+00     +4.487301E+00 +1.771249E+00 +4.998571E+00     +3.868631E+00 +2.330819E+00 +3.753090E+00     +5.138010E+00 +1.343350E+00 +1.951891E+00     +5.138010E+00 +1.343350E+00 +1.951891E+00    
 +5.138010E+00 +1.343350E+00 +1.951891E+00     +5.138010E+00 +1.343350E+00 +1.951891E+00     +5.138010E+00 +1.343350E+00 +1.951891E+00     +5.138010E+00 +1.343350E+00 +1.951891E+00     +5.138010E+00 +1.343350E+00 +1.951891E+00     +1.585410E+00 +1.724919E+00 +3.745440E+00     +1.585410E+00 +1.724919E+00 +3.745440E+00     +1.585410E+00 +1.724919E+00 +3.745440E+00     +1.585410E+00 +1.724919E+00 +3.745440E+00     +1.585410E+00 +1.724919E+00 +3.745440E+00     +1.585410E+00 +1.724919E+00 +3.745440E+00     +5.889300E+00 +8.985828E-01 +3.240590E+00     +5.889300E+00 +8.985828E-01 +3.240590E+00     +5.889300E+00 +8.985828E-01 +3.240590E+00     +4.487301E+00 +1.771249E+00 +4.998571E+00     +4.487301E+00 +1.771249E+00 +4.998571E+00     +4.487301E+00 +1.771249E+00 +4.998571E+00     +2.075921E+00 +5.109731E-01 +4.872919E+00     +2.075921E+00 +5.109731E-01 +4.872919E+00     +2.075921E+00 +5.109731E-01 +4.872919E+00     +5.138010E+00 +1.343350E+00 +1.951891E+00    
 +5.138010E+00 +1.343350E+00 +1.951891E+00     +5.138010E+00 +1.343350E+00 +1.951891E+00     +5.138010E+00 +1.343350E+00 +1.951891E+00     +5.138010E+00 +1.343350E+00 +1.951891E+00     +5.138010E+00 +1.343350E+00 +1.951891E+00     +1.585410E+00 +1.724919E+00 +3.745440E+00     +1.585410E+00 +1.724919E+00 +3.745440E+00     +1.585410E+00 +1.724919E+00 +3.745440E+00     +1.585410E+00 +1.724919E+00 +3.745440E+00     +1.585410E+00 +1.724919E+00 +3.745440E+00     +3.479920E+00 +1.666229E+00 +5.212799E+00     +3.479920E+00 +1.666229E+00 +5.212799E+00     +3.479920E+00 +1.666229E+00 +5.212799E+00     +3.479920E+00 +1.666229E+00 +5.212799E+00     +4.487301E+00 +1.771249E+00 +4.998571E+00     +4.487301E+00 +1.771249E+00 +4.998571E+00     +4.487301E+00 +1.771249E+00 +4.998571E+00     +2.075921E+00 +5.109731E-01 +4.872919E+00     +2.075921E+00 +5.109731E-01 +4.872919E+00     +4.225140E+00 +1.382261E+00 +3.163409E+00     +4.225140E+00 +1.382261E+00 +3.163409E+00    
 +4.225140E+00 +1.382261E+00 +3.163409E+00     +5.138010E+00 +1.343350E+00 +1.951891E+00     +5.138010E+00 +1.343350E+00 +1.951891E+00     +3.156707E-01 +1.393139E+00 +1.170060E+00     +3.156707E-01 +1.393139E+00 +1.170060E+00     +3.045771E+00 +1.771399E+00 +5.542501E+00     +4.112849E+00 +1.965209E+00 +3.785350E+00     +4.112849E+00 +1.965209E+00 +3.785350E+00     +4.112849E+00 +1.965209E+00 +3.785350E+00     +3.479920E+00 +1.666229E+00 +5.212799E+00     +3.479920E+00 +1.666229E+00 +5.212799E+00     +3.479920E+00 +1.666229E+00 +5.212799E+00     +3.479920E+00 +1.666229E+00 +5.212799E+00     +3.479920E+00 +1.666229E+00 +5.212799E+00     +3.479920E+00 +1.666229E+00 +5.212799E+00     +3.511650E+00 +8.393515E-01 +1.924440E+00     +6.061860E+00 +1.336090E+00 +1.274289E+00     +6.061860E+00 +1.336090E+00 +1.274289E+00     +6.061860E+00 +1.336090E+00 +1.274289E+00     +4.225140E+00 +1.382261E+00 +3.163409E+00     +4.225140E+00 +1.382261E+00 +3.163409E+00    
 +4.225140E+00 +1.382261E+00 +3.163409E+00     +4.225140E+00 +1.382261E+00 +3.163409E+00     +2.387970E+00 +2.171881E+00 +4.348490E+00     +2.387970E+00 +2.171881E+00 +4.348490E+00     +3.045771E+00 +1.771399E+00 +5.542501E+00     +3.045771E+00 +1.771399E+00 +5.542501E+00     +3.045771E+00 +1.771399E+00 +5.542501E+00     +3.045771E+00 +1.771399E+00 +5.542501E+00     +3.045771E+00 +1.771399E+00 +5.542501E+00     +3.479920E+00 +1.666229E+00 +5.212799E+00     +3.479920E+00 +1.666229E+00 +5.212799E+00     +3.479920E+00 +1.666229E+00 +5.212799E+00     +3.479920E+00 +1.666229E+00 +5.212799E+00     +3.479920E+00 +1.666229E+00 +5.212799E+00     +3.479920E+00 +1.666229E+00 +5.212799E+00     +4.465460E+00 +1.407840E+00 +3.380230E+00     +4.405359E+00 +1.497121E+00 +2.885329E+00     +6.061860E+00 +1.336090E+00 +1.274289E+00     +6.061860E+00 +1.336090E+00 +1.274289E+00     +4.225140E+00 +1.382261E+00 +3.163409E+00     +4.225140E+00 +1.382261E+00 +3.163409E+00    
 +4.225140E+00 +1.382261E+00 +3.163409E+00     +4.225140E+00 +1.382261E+00 +3.163409E+00     +2.387970E+00 +2.171881E+00 +4.348490E+00     +2.387970E+00 +2.171881E+00 +4.348490E+00     +3.045771E+00 +1.771399E+00 +5.542501E+00     +3.045771E+00 +1.771399E+00 +5.542501E+00     +3.045771E+00 +1.771399E+00 +5.542501E+00     +3.045771E+00 +1.771399E+00 +5.542501E+00     +3.045771E+00 +1.771399E+00 +5.542501E+00     +3.479920E+00 +1.666229E+00 +5.212799E+00     +3.479920E+00 +1.666229E+00 +5.212799E+00     +3.479920E+00 +1.666229E+00 +5.212799E+00     +3.479920E+00 +1.666229E+00 +5.212799E+00     +3.479920E+00 +1.666229E+00 +5.212799E+00     +3.479920E+00 +1.666229E+00 +5.212799E+00     +4.465460E+00 +1.407840E+00 +3.380230E+00     +4.465460E+00 +1.407840E+00 +3.380230E+00     +4.465460E+00 +1.407840E+00 +3.380230E+00     +6.061860E+00 +1.336090E+00 +1.274289E+00     +4.225140E+00 +1.382261E+00 +3.163409E+00     +4.225140E+00 +1.382261E+00 +3.163409E+00    
 +4.225140E+00 +1.382261E+00 +3.163409E+00     +4.225140E+00 +1.382261E+00 +3.163409E+00     +2.387970E+00 +2.171881E+00 +4.348490E+00     +2.387970E+00 +2.171881E+00 +4.348490E+00     +3.045771E+00 +1.771399E+00 +5.542501E+00     +3.045771E+00 +1.771399E+00 +5.542501E+00     +3.045771E+00 +1.771399E+00 +5.542501E+00     +3.045771E+00 +1.771399E+00 +5.542501E+00     +3.045771E+00 +1.771399E+00 +5.542501E+00     +3.382630E+00 +2.983171E+00 +5.703999E+00     +3.382630E+00 +2.983171E+00 +5.703999E+00     +3.382630E+00 +2.983171E+00 +5.703999E+00     +4.054313E-01 +1.877370E+00 +2.888710E+00     +4.054313E-01 +1.877370E+00 +2.888710E+00     +4.054313E-01 +1.877370E+00 +2.888710E+00     +4.465460E+00 +1.407840E+00 +3.380230E+00     +4.465460E+00 +1.407840E+00 +3.380230E+00     +4.465460E+00 +1.407840E+00 +3.380230E+00     +4.465460E+00 +1.407840E+00 +3.380230E+00     +4.225140E+00 +1.382261E+00 +3.163409E+00     +4.225140E+00 +1.382261E+00 +3.163409E+00    
 +4.225140E+00 +1.382261E+00 +3.163409E+00     +4.225140E+00 +1.382261E+00 +3.163409E+00     +2.387970E+00 +2.171881E+00 +4.348490E+00     +6.023323E-01 +1.946630E+00 +2.772860E+00     +6.023323E-01 +1.946630E+00 +2.772860E+00     +6.023323E-01 +1.946630E+00 +2.772860E+00     +6.023323E-01 +1.946630E+00 +2.772860E+00     +6.023323E-01 +1.946630E+00 +2.772860E+00     +3.382630E+00 +2.983171E+00 +5.703999E+00     +3.382630E+00 +2.983171E+00 +5.703999E+00     +3.382630E+00 +2.983171E+00 +5.703999E+00     +3.382630E+00 +2.983171E+00 +5.703999E+00     +4.054313E-01 +1.877370E+00 +2.888710E+00     +4.054313E-01 +1.877370E+00 +2.888710E+00     +4.054313E-01 +1.877370E+00 +2.888710E+00     +4.465460E+00 +1.407840E+00 +3.380230E+00     +4.465460E+00 +1.407840E+00 +3.380230E+00     +4.465460E+00 +1.407840E+00 +3.380230E+00     +4.465460E+00 +1.407840E+00 +3.380230E+00     +4.225140E+00 +1.382261E+00 +3.163409E+00     +4.225140E+00 +1.382261E+00 +3.163409E+00    
 +4.225140E+00 +1.382261E+00 +3.163409E+00     +4.225140E+00 +1.382261E+00 +3.163409E+00     +2.061770E+00 +1.152230E+00 +5.173899E+00     +6.023323E-01 +1.946630E+00 +2.772860E+00     +6.023323E-01 +1.946630E+00 +2.772860E+00     +6.023323E-01 +1.946630E+00 +2.772860E+00     +6.023323E-01 +1.946630E+00 +2.772860E+00     +6.023323E-01 +1.946630E+00 +2.772860E+00     +3.382630E+00 +2.983171E+00 +5.703999E+00     +3.382630E+00 +2.983171E+00 +5.703999E+00     +3.382630E+00 +2.983171E+00 +5.703999E+00     +3.382630E+00 +2.983171E+00 +5.703999E+00     +3.382630E+00 +2.983171E+00 +5.703999E+00     +4.054313E-01 +1.877370E+00 +2.888710E+00     +4.054313E-01 +1.877370E+00 +2.888710E+00     +4.465460E+00 +1.407840E+00 +3.380230E+00     +4.465460E+00 +1.407840E+00 +3.380230E+00     +4.465460E+00 +1.407840E+00 +3.380230E+00     +4.465460E+00 +1.407840E+00 +3.380230E+00     +4.225140E+00 +1.382261E+00 +3.163409E+00     +4.225140E+00 +1.382261E+00 +3.163409E+00    
 +2.061770E+00 +1.152230E+00 +5.173899E+00     +2.061770E+00 +1.152230E+00 +5.173899E+00     +2.061770E+00 +1.152230E+00 +5.173899E+00     +6.023323E-01 +1.946630E+00 +2.772860E+00     +6.023323E-01 +1.946630E+00 +2.772860E+00     +6.023323E-01 +1.946630E+00 +2.772860E+00     +6.023323E-01 +1.946630E+00 +2.772860E+00     +5.400150E+00 +1.024931E+00 +1.593920E+00     +5.400150E+00 +1.024931E+00 +1.593920E+00     +3.382630E+00 +2.983171E+00 +5.703999E+00     +3.382630E+00 +2.983171E+00 +5.703999E+00     +3.382630E+00 +2.983171E+00 +5.703999E+00     +3.382630E+00 +2.983171E+00 +5.703999E+00     +3.382630E+00 +2.983171E+00 +5.703999E+00     +3.382630E+00 +2.983171E+00 +5.703999E+00     +5.858500E+00 +2.491110E+00 +6.200010E+00     +4.465460E+00 +1.407840E+00 +3.380230E+00     +4.284520E+00 +1.543060E+00 +3.243520E+00     +4.284520E+00 +1.543060E+00 +3.243520E+00     +4.284520E+00 +1.543060E+00 +3.243520E+00     +4.284520E+00 +1.543060E+00 +3.243520E+00    
 +3.158290E+00 +9.270875E-01 +4.146730E+00     +3.158290E+00 +9.270875E-01 +4.146730E+00     +2.061770E+00 +1.152230E+00 +5.173899E+00     +2.061770E+00 +1.152230E+00 +5.173899E+00     +6.023323E-01 +1.946630E+00 +2.772860E+00     +6.023323E-01 +1.946630E+00 +2.772860E+00     +5.400150E+00 +1.024931E+00 +1.593920E+00     +5.400150E+00 +1.024931E+00 +1.593920E+00     +5.400150E+00 +1.024931E+00 +1.593920E+00     +5.400150E+00 +1.024931E+00 +1.593920E+00     +3.382630E+00 +2.983171E+00 +5.703999E+00     +3.382630E+00 +2.983171E+00 +5.703999E+00     +3.382630E+00 +2.983171E+00 +5.703999E+00     +3.382630E+00 +2.983171E+00 +5.703999E+00     +1.257470E+00 +2.196211E+00 +1.616730E+00     +1.257470E+00 +2.196211E+00 +1.616730E+00     +4.284520E+00 +1.543060E+00 +3.243520E+00     +4.284520E+00 +1.543060E+00 +3.243520E+00     +4.284520E+00 +1.543060E+00 +3.243520E+00     +4.284520E+00 +1.543060E+00 +3.243520E+00     +4.284520E+00 +1.543060E+00 +3.243520E+00    
 +3.158290E+00 +9.270875E-01 +4.146730E+00     +3.158290E+00 +9.270875E-01 +4.146730E+00     +3.158290E+00 +9.270875E-01 +4.146730E+00     +2.287620E-01 +8.959333E-01 +4.001450E+00     +2.981560E+00 +3.227219E-01 +1.509530E+00     +2.981560E+00 +3.227219E-01 +1.509530E+00     +5.400150E+00 +1.024931E+00 +1.593920E+00     +5.400150E+00 +1.024931E+00 +1.593920E+00     +5.400150E+00 +1.024931E+00 +1.593920E+00     +5.400150E+00 +1.024931E+00 +1.593920E+00     +5.400150E+00 +1.024931E+00 +1.593920E+00     +3.382630E+00 +2.983171E+00 +5.703999E+00     +3.382630E+00 +2.983171E+00 +5.703999E+00     +3.382630E+00 +2.983171E+00 +5.703999E+00     +1.257470E+00 +2.196211E+00 +1.616730E+00     +1.257470E+00 +2.196211E+00 +1.616730E+00     +4.284520E+00 +1.543060E+00 +3.243520E+00     +4.284520E+00 +1.543060E+00 +3.243520E+00     +4.284520E+00 +1.543060E+00 +3.243520E+00     +4.284520E+00 +1.543060E+00 +3.243520E+00     +3.158290E+00 +9.270875E-01 +4.146730E+00    
 +3.158290E+00 +9.270875E-01 +4.146730E+00     +3.158290E+00 +9.270875E-01 +4.146730E+00     +3.158290E+00 +9.270875E-01 +4.146730E+00     +2.322279E+00 +1.183578E-01 +5.142279E+00     +2.287620E-01 +8.959333E-01 +4.001450E+00     +2.981560E+00 +3.227219E-01 +1.509530E+00     +5.400150E+00 +1.024931E+00 +1.593920E+00     +5.400150E+00 +1.024931E+00 +1.593920E+00     +5.400150E+00 +1.024931E+00 +1.593920E+00     +5.400150E+00 +1.024931E+00 +1.593920E+00     +5.400150E+00 +1.024931E+00 +1.593920E+00     +5.400150E+00 +1.024931E+00 +1.593920E+00     +3.382630E+00 +2.983171E+00 +5.703999E+00     +1.257470E+00 +2.196211E+00 +1.616730E+00     +1.257470E+00 +2.196211E+00 +1.616730E+00     +1.257470E+00 +2.196211E+00 +1.616730E+00     +4.284520E+00 +1.543060E+00 +3.243520E+00     +4.284520E+00 +1.543060E+00 +3.243520E+00     +3.158290E+00 +9.270875E-01 +4.146730E+00     +3.158290E+00 +9.270875E-01 +4.146730E+00     +3.158290E+00 +9.270875E-01 +4.146730E+00    
 +3.158290E+00 +9.270875E-01 +4.146730E+00     +7.546524E-01 +1.219079E+00 +3.888690E+00     +2.322279E+00 +1.183578E-01 +5.142279E+00     +2.322279E+00 +1.183578E-01 +5.142279E+00     +2.322279E+00 +1.183578E-01 +5.142279E+00     +4.602379E+00 +5.372560E-01 +2.793579E+00     +5.400150E+00 +1.024931E+00 +1.593920E+00     +5.400150E+00 +1.024931E+00 +1.593920E+00     +5.400150E+00 +1.024931E+00 +1.593920E+00     +5.400150E+00 +1.024931E+00 +1.593920E+00     +5.400150E+00 +1.024931E+00 +1.593920E+00     +5.400150E+00 +1.024931E+00 +1.593920E+00     +4.683410E+00 +1.912020E+00 +4.247760E+00     +4.683410E+00 +1.912020E+00 +4.247760E+00     +4.683410E+00 +1.912020E+00 +4.247760E+00     +1.257470E+00 +2.196211E+00 +1.616730E+00     +1.257470E+00 +2.196211E+00 +1.616730E+00     +1.965630E+00 +2.237580E+00 +1.848070E+00     +1.965630E+00 +2.237580E+00 +1.848070E+00     +3.158290E+00 +9.270875E-01 +4.146730E+00     +3.158290E+00 +9.270875E-01 +4.146730E+00    
 +7.546524E-01 +1.219079E+00 +3.888690E+00     +3.392670E+00 +2.230330E+00 +1.066941E+00     +7.546524E-01 +1.219079E+00 +3.888690E+00     +2.322279E+00 +1.183578E-01 +5.142279E+00     +4.602379E+00 +5.372560E-01 +2.793579E+00     +4.602379E+00 +5.372560E-01 +2.793579E+00     +4.602379E+00 +5.372560E-01 +2.793579E+00     +5.400150E+00 +1.024931E+00 +1.593920E+00     +5.400150E+00 +1.024931E+00 +1.593920E+00     +5.400150E+00 +1.024931E+00 +1.593920E+00     +1.603130E+00 +9.864147E-01 +5.636260E+00     +1.603130E+00 +9.864147E-01 +5.636260E+00     +4.683410E+00 +1.912020E+00 +4.247760E+00     +4.683410E+00 +1.912020E+00 +4.247760E+00     +4.683410E+00 +1.912020E+00 +4.247760E+00     +4.957660E-01 +1.701850E+00 +2.498352E-01     +1.965630E+00 +2.237580E+00 +1.848070E+00     +1.965630E+00 +2.237580E+00 +1.848070E+00     +1.965630E+00 +2.237580E+00 +1.848070E+00     +1.965630E+00 +2.237580E+00 +1.848070E+00     +1.965630E+00 +2.237580E+00 +1.848070E+00    
 +2.322279E+00 +1.183578E-01 +5.142279E+00     +7.546524E-01 +1.219079E+00 +3.888690E+00     +2.322279E+00 +1.183578E-01 +5.142279E+00     +2.322279E+00 +1.183578E-01 +5.142279E+00     +4.602379E+00 +5.372560E-01 +2.793579E+00     +4.602379E+00 +5.372560E-01 +2.793579E+00     +4.602379E+00 +5.372560E-01 +2.793579E+00     +4.602379E+00 +5.372560E-01 +2.793579E+00     +3.410539E+00 +9.633903E-01 +6.286885E-01     +3.410539E+00 +9.633903E-01 +6.286885E-01     +1.603130E+00 +9.864147E-01 +5.636260E+00     +1.603130E+00 +9.864147E-01 +5.636260E+00     +4.683410E+00 +1.912020E+00 +4.247760E+00     +4.683410E+00 +1.912020E+00 +4.247760E+00     +4.683410E+00 +1.912020E+00 +4.247760E+00     +4.957660E-01 +1.701850E+00 +2.498352E-01     +4.957660E-01 +1.701850E+00 +2.498352E-01     +1.965630E+00 +2.237580E+00 +1.848070E+00     +1.965630E+00 +2.237580E+00 +1.848070E+00     +1.965630E+00 +2.237580E+00 +1.848070E+00     +1.965630E+00 +2.237580E+00 +1.848070E+00    
 +2.322279E+00 +1.183578E-01 +5.142279E+00     +2.322279E+00 +1.183578E-01 +5.142279E+00     +2.322279E+00 +1.183578E-01 +5.142279E+00     +2.322279E+00 +1.183578E-01 +5.142279E+00     +4.602379E+00 +5.372560E-01 +2.793579E+00     +4.602379E+00 +5.372560E-01 +2.793579E+00     +4.299280E+00 +9.850045E-01 +2.890799E+00     +4.299280E+00 +9.850045E-01 +2.890799E+00     +3.410539E+00 +9.633903E-01 +6.286885E-01     +3.410539E+00 +9.633903E-01 +6.286885E-01     +3.410539E+00 +9.633903E-01 +6.286885E-01     +3.334225E-01 +1.138300E+00 +5.195147E-01     +3.334225E-01 +1.138300E+00 +5.195147E-01     +4.957660E-01 +1.701850E+00 +2.498352E-01     +4.957660E-01 +1.701850E+00 +2.498352E-01     +4.957660E-01 +1.701850E+00 +2.498352E-01     +4.957660E-01 +1.701850E+00 +2.498352E-01     +1.965630E+00 +2.237580E+00 +1.848070E+00     +1.965630E+00 +2.237580E+00 +1.848070E+00     +1.965630E+00 +2.237580E+00 +1.848070E+00     +1.965630E+00 +2.237580E+00 +1.848070E+00    
 +2.322279E+00 +1.183578E-01 +5.142279E+00     +5.138010E+00 +1.343350E+00 +1.951891E+00     +2.322279E+00 +1.183578E-01 +5.142279E+00     +4.602379E+00 +5.372560E-01 +2.793579E+00     +4.602379E+00 +5.372560E-01 +2.793579E+00     +4.299280E+00 +9.850045E-01 +2.890799E+00     +4.299280E+00 +9.850045E-01 +2.890799E+00     +4.299280E+00 +9.850045E-01 +2.890799E+00     +3.410539E+00 +9.633903E-01 +6.286885E-01     +3.410539E+00 +9.633903E-01 +6.286885E-01     +3.410539E+00 +9.633903E-01 +6.286885E-01     +3.410539E+00 +9.633903E-01 +6.286885E-01     +4.957660E-01 +1.701850E+00 +2.498352E-01     +4.957660E-01 +1.701850E+00 +2.498352E-01     +4.957660E-01 +1.701850E+00 +2.498352E-01     +4.957660E-01 +1.701850E+00 +2.498352E-01     +4.957660E-01 +1.701850E+00 +2.498352E-01     +3.297869E+00 +2.277210E+00 +1.561359E+00     +1.965630E+00 +2.237580E+00 +1.848070E+00     +1.965630E+00 +2.237580E+00 +1.848070E+00     +1.965630E+00 +2.237580E+00 +1.848070E+00    
 +5.138010E+00 +1.343350E+00 +1.951891E+00     +5.138010E+00 +1.343350E+00 +1.951891E+00     +5.138010E+00 +1.343350E+00 +1.951891E+00     +5.138010E+00 +1.343350E+00 +1.951891E+00     +4.881440E+00 +2.973851E+00 +5.034610E+00     +2.924950E+00 +3.077681E+00 +5.975121E+00     +4.299280E+00 +9.850045E-01 +2.890799E+00     +4.299280E+00 +9.850045E-01 +2.890799E+00     +3.410539E+00 +9.633903E-01 +6.286885E-01     +3.410539E+00 +9.633903E-01 +6.286885E-01     +3.410539E+00 +9.633903E-01 +6.286885E-01     +3.410539E+00 +9.633903E-01 +6.286885E-01     +4.957660E-01 +1.701850E+00 +2.498352E-01     +4.957660E-01 +1.701850E+00 +2.498352E-01     +4.957660E-01 +1.701850E+00 +2.498352E-01     +4.487301E+00 +1.771249E+00 +4.998571E+00     +3.297869E+00 +2.277210E+00 +1.561359E+00     +3.297869E+00 +2.277210E+00 +1.561359E+00     +3.297869E+00 +2.277210E+00 +1.561359E+00     +3.297869E+00 +2.277210E+00 +1.561359E+00     +5.138010E+00 +1.343350E+00 +1.951891E+00    
 +5.138010E+00 +1.343350E+00 +1.951891E+00     +5.138010E+00 +1.343350E+00 +1.951891E+00     +5.138010E+00 +1.343350E+00 +1.951891E+00     +5.138010E+00 +1.343350E+00 +1.951891E+00     +5.138010E+00 +1.343350E+00 +1.951891E+00     +4.299280E+00 +9.850045E-01 +2.890799E+00     +4.299280E+00 +9.850045E-01 +2.890799E+00     +4.299280E+00 +9.850045E-01 +2.890799E+00     +3.410539E+00 +9.633903E-01 +6.286885E-01     +3.410539E+00 +9.633903E-01 +6.286885E-01     +3.410539E+00 +9.633903E-01 +6.286885E-01     +3.410539E+00 +9.633903E-01 +6.286885E-01     +3.410539E+00 +9.633903E-01 +6.286885E-01     +4.487301E+00 +1.771249E+00 +4.998571E+00     +4.487301E+00 +1.771249E+00 +4.998571E+00     +4.487301E+00 +1.771249E+00 +4.998571E+00     +4.487301E+00 +1.771249E+00 +4.998571E+00     +4.487301E+00 +1.771249E+00 +4.998571E+00     +3.868631E+00 +2.330819E+00 +3.753090E+00     +5.138010E+00 +1.343350E+00 +1.951891E+00     +5.138010E+00 +1.343350E+00 +1.951891E+00    
 +5.138010E+00 +1.343350E+00 +1.951891E+00     +5.138010E+00 +1.343350E+00 +1.951891E+00     +5.138010E+00 +1.343350E+00 +1.951891E+00     +5.138010E+00 +1.343350E+00 +1.951891E+00     +5.138010E+00 +1.343350E+00 +1.951891E+00     +4.299280E+00 +9.850045E-01 +2.890799E+00     +4.299280E+00 +9.850045E-01 +2.890799E+00     +4.299280E+00 +9.850045E-01 +2.890799E+00     +3.410539E+00 +9.633903E-01 +6.286885E-01     +3.410539E+00 +9.633903E-01 +6.286885E-01     +3.410539E+00 +9.633903E-01 +6.286885E-01     +3.410539E+00 +9.633903E-01 +6.286885E-01     +3.410539E+00 +9.633903E-01 +6.286885E-01     +4.487301E+00 +1.771249E+00 +4.998571E+00     +4.487301E+00 +1.771249E+00 +4.998571E+00     +4.245705E-01 +9.192335E-01 +4.622510E+00     +4.487301E+00 +1.771249E+00 +4.998571E+00     +4.487301E+00 +1.771249E+00 +4.998571E+00     +4.487301E+00 +1.771249E+00 +4.998571E+00     +5.138010E+00 +1.343350E+00 +1.951891E+00     +5.138010E+00 +1.343350E+00 +1.951891E+00    
 +5.138010E+00 +1.343350E+00 +1.951891E+00     +5.138010E+00 +1.343350E+00 +1.951891E+00     +5.138010E+00 +1.343350E+00 +1.951891E+00     +5.138010E+00 +1.343350E+00 +1.951891E+00     +5.138010E+00 +1.343350E+00 +1.951891E+00     +1.585410E+00 +1.724919E+00 +3.745440E+00     +1.585410E+00 +1.724919E+00 +3.745440E+00     +1.585410E+00 +1.724919E+00 +3.745440E+00     +1.585410E+00 +1.724919E+00 +3.745440E+00     +1.585410E+00 +1.724919E+00 +3.745440E+00     +3.410539E+00 +9.633903E-01 +6.286885E-01     +3.410539E+00 +9.633903E-01 +6.286885E-01     +5.889300E+00 +8.985828E-01 +3.240590E+00     +5.889300E+00 +8.985828E-01 +3.240590E+00     +4.487301E+00 +1.771249E+00 +4.998571E+00     +4.487301E+00 +1.771249E+00 +4.998571E+00     +4.487301E+00 +1.771249E+00 +4.998571E+00     +2.075921E+00 +5.109731E-01 +4.872919E+00     +2.075921E+00 +5.109731E-01 +4.872919E+00     +2.075921E+00 +5.109731E-01 +4.872919E+00     +5.138010E+00 +1.343350E+00 +1.951891E+00    
 +5.138010E+00 +1.343350E+00 +1.951891E+00     +5.138010E+00 +1.343350E+00 +1.951891E+00     +5.138010E+00 +1.343350E+00 +1.951891E+00     +5.138010E+00 +1.343350E+00 +1.951891E+00     +1.585410E+00 +1.724919E+00 +3.745440E+00     +1.585410E+00 +1.724919E+00 +3.745440E+00     +1.585410E+00 +1.724919E+00 +3.745440E+00     +1.585410E+00 +1.724919E+00 +3.745440E+00     +1.585410E+00 +1.724919E+00 +3.745440E+00     +1.585410E+00 +1.724919E+00 +3.745440E+00     +1.585410E+00 +1.724919E+00 +3.745440E+00     +5.889300E+00 +8.985828E-01 +3.240590E+00     +5.889300E+00 +8.985828E-01 +3.240590E+00     +5.889300E+00 +8.985828E-01 +3.240590E+00     +3.210339E+00 +2.023261E+00 +5.578230E+00     +3.210339E+00 +2.023261E+00 +5.578230E+00     +2.075921E+00 +5.109731E-01 +4.872919E+00     +2.075921E+00 +5.109731E-01 +4.872919E+00     +2.075921E+00 +5.109731E-01 +4.872919E+00     +2.075921E+00 +5.109731E-01 +4.872919E+00     +5.138010E+00 +1.343350E+00 +1.951891E+00    
 +5.138010E+00 +1.343350E+00 +1.951891E+00     +5.138010E+00 +1.343350E+00 +1.951891E+00     +5.138010E+00 +1.343350E+00 +1.951891E+00     +5.138010E+00 +1.343350E+00 +1.951891E+00     +1.585410E+00 +1.724919E+00 +3.745440E+00     +1.585410E+00 +1.724919E+00 +3.745440E+00     +1.585410E+00 +1.724919E+00 +3.745440E+00     +1.585410E+00 +1.724919E+00 +3.745440E+00     +1.585410E+00 +1.724919E+00 +3.745440E+00     +1.585410E+00 +1.724919E+00 +3.745440E+00     +3.479920E+00 +1.666229E+00 +5.212799E+00     +3.479920E+00 +1.666229E+00 +5.212799E+00     +3.479920E+00 +1.666229E+00 +5.212799E+00     +5.889300E+00 +8.985828E-01 +3.240590E+00     +3.210339E+00 +2.023261E+00 +5.578230E+00     +3.210339E+00 +2.023261E+00 +5.578230E+00     +2.075921E+00 +5.109731E-01 +4.872919E+00     +2.075921E+00 +5.109731E-01 +4.872919E+00     +2.075921E+00 +5.109731E-01 +4.872919E+00     +2.075921E+00 +5.109731E-01 +4.872919E+00     +2.075921E+00 +5.109731E-01 +4.872919E+00    
 +4.225140E+00 +1.382261E+00 +3.163409E+00     +5.138010E+00 +1.343350E+00 +1.951891E+00     +2.387970E+00 +2.171881E+00 +4.348490E+00     +2.387970E+00 +2.171881E+00 +4.348490E+00     +3.045771E+00 +1.771399E+00 +5.542501E+00     +3.045771E+00 +1.771399E+00 +5.542501E+00     +4.112849E+00 +1.965209E+00 +3.785350E+00     +4.112849E+00 +1.965209E+00 +3.785350E+00     +4.112849E+00 +1.965209E+00 +3.785350E+00     +4.112849E+00 +1.965209E+00 +3.785350E+00     +3.479920E+00 +1.666229E+00 +5.212799E+00     +3.479920E+00 +1.666229E+00 +5.212799E+00     +3.479920E+00 +1.666229E+00 +5.212799E+00     +3.479920E+00 +1.666229E+00 +5.212799E+00     +3.479920E+00 +1.666229E+00 +5.212799E+00     +3.511650E+00 +8.393515E-01 +1.924440E+00     +6.061860E+00 +1.336090E+00 +1.274289E+00     +6.061860E+00 +1.336090E+00 +1.274289E+00     +6.061860E+00 +1.336090E+00 +1.274289E+00     +6.061860E+00 +1.336090E+00 +1.274289E+00     +4.225140E+00 +1.382261E+00 +3.163409E+00    
 +4.225140E+00 +1.382261E+00 +3.163409E+00     +4.225140E+00 +1.382261E+00 +3.163409E+00     +2.387970E+00 +2.171881E+00 +4.348490E+00     +2.387970E+00 +2.171881E+00 +4.348490E+00     +3.045771E+00 +1.771399E+00 +5.542501E+00     +3.045771E+00 +1.771399E+00 +5.542501E+00     +3.045771E+00 +1.771399E+00 +5.542501E+00     +4.112849E+00 +1.965209E+00 +3.785350E+00     +4.112849E+00 +1.965209E+00 +3.785350E+00     +3.479920E+00 +1.666229E+00 +5.212799E+00     +3.479920E+00 +1.666229E+00 +5.212799E+00     +3.479920E+00 +1.666229E+00 +5.212799E+00     +3.479920E+00 +1.666229E+00 +5.212799E+00     +3.479920E+00 +1.666229E+00 +5.212799E+00     +3.479920E+00 +1.666229E+00 +5.212799E+00     +6.061860E+00 +1.336090E+00 +1.274289E+00     +6.061860E+00 +1.336090E+00 +1.274289E+00     +6.061860E+00 +1.336090E+00 +1.274289E+00     +6.061860E+00 +1.336090E+00 +1.274289E+00     +6.061860E+00 +1.336090E+00 +1.274289E+00     +4.225140E+00 +1.382261E+00 +3.163409E+00    
 +4.225140E+00 +1.382261E+00 +3.163409E+00     +4.225140E+00 +1.382261E+00 +3.163409E+00     +2.387970E+00 +2.171881E+00 +4.348490E+00     +2.387970E+00 +2.171881E+00 +4.348490E+00     +3.045771E+00 +1.771399E+00 +5.542501E+00     +3.045771E+00 +1.771399E+00 +5.542501E+00     +3.045771E+00 +1.771399E+00 +5.542501E+00     +3.045771E+00 +1.771399E+00 +5.542501E+00     +3.045771E+00 +1.771399E+00 +5.542501E+00     +3.479920E+00 +1.666229E+00 +5.212799E+00     +3.479920E+00 +1.666229E+00 +5.212799E+00     +3.479920E+00 +1.666229E+00 +5.212799E+00     +3.479920E+00 +1.666229E+00 +5.212799E+00     +3.479920E+00 +1.666229E+00 +5.212799E+00     +3.479920E+00 +1.666229E+00 +5.212799E+00     +6.061860E+00 +1.336090E+00 +1.274289E+00     +6.061860E+00 +1.336090E+00 +1.274289E+00     +4.465460E+00 +1.407840E+00 +3.380230E+00     +6.061860E+00 +1.336090E+00 +1.274289E+00     +6.061860E+00 +1.336090E+00 +1.274289E+00     +4.225140E+00 +1.382261E+00 +3.163409E+00    
 +4.225140E+00 +1.382261E+00 +3.163409E+00     +4.225140E+00 +1.382261E+00 +3.163409E+00     +2.387970E+00 +2.171881E+00 +4.348490E+00     +2.387970E+00 +2.171881E+00 +4.348490E+00     +3.045771E+00 +1.771399E+00 +5.542501E+00     +3.045771E+00 +1.771399E+00 +5.542501E+00     +3.045771E+00 +1.771399E+00 +5.542501E+00     +3.045771E+00 +1.771399E+00 +5.542501E+00     +3.045771E+00 +1.771399E+00 +5.542501E+00     +3.382630E+00 +2.983171E+00 +5.703999E+00     +3.382630E+00 +2.983171E+00 +5.703999E+00     +4.631842E-01 +3.036829E+00 +2.060729E+00     +3.479920E+00 +1.666229E+00 +5.212799E+00     +3.479920E+00 +1.666229E+00 +5.212799E+00     +6.061860E+00 +1.336090E+00 +1.274289E+00     +6.061860E+00 +1.336090E+00 +1.274289E+00     +6.061860E+00 +1.336090E+00 +1.274289E+00     +6.061860E+00 +1.336090E+00 +1.274289E+00     +6.061860E+00 +1.336090E+00 +1.274289E+00     +6.061860E+00 +1.336090E+00 +1.274289E+00     +4.225140E+00 +1.382261E+00 +3.163409E+00    
 +4.225140E+00 +1.382261E+00 +3.163409E+00     +4.225140E+00 +1.382261E+00 +3.163409E+00     +2.387970E+00 +2.171881E+00 +4.348490E+00     +2.387970E+00 +2.171881E+00 +4.348490E+00     +3.045771E+00 +1.771399E+00 +5.542501E+00     +3.045771E+00 +1.771399E+00 +5.542501E+00     +3.045771E+00 +1.771399E+00 +5.542501E+00     +3.045771E+00 +1.771399E+00 +5.542501E+00     +3.382630E+00 +2.983171E+00 +5.703999E+00     +3.382630E+00 +2.983171E+00 +5.703999E+00     +3.382630E+00 +2.983171E+00 +5.703999E+00     +4.631842E-01 +3.036829E+00 +2.060729E+00     +3.382630E+00 +2.983171E+00 +5.703999E+00     +3.382630E+00 +2.983171E+00 +5.703999E+00     +6.061860E+00 +1.336090E+00 +1.274289E+00     +6.061860E+00 +1.336090E+00 +1.274289E+00     +6.061860E+00 +1.336090E+00 +1.274289E+00     +6.061860E+00 +1.336090E+00 +1.274289E+00     +6.061860E+00 +1.336090E+00 +1.274289E+00     +6.061860E+00 +1.336090E+00 +1.274289E+00     +4.225140E+00 +1.382261E+00 +3.163409E+00    
 +4.225140E+00 +1.382261E+00 +3.163409E+00     +4.225140E+00 +1.382261E+00 +3.163409E+00     +2.387970E+00 +2.171881E+00 +4.348490E+00     +6.023323E-01 +1.946630E+00 +2.772860E+00     +6.023323E-01 +1.946630E+00 +2.772860E+00     +6.023323E-01 +1.946630E+00 +2.772860E+00     +6.023323E-01 +1.946630E+00 +2.772860E+00     +3.382630E+00 +2.983171E+00 +5.703999E+00     +3.382630E+00 +2.983171E+00 +5.703999E+00     +3.382630E+00 +2.983171E+00 +5.703999E+00     +3.382630E+00 +2.983171E+00 +5.703999E+00     +3.382630E+00 +2.983171E+00 +5.703999E+00     +3.382630E+00 +2.983171E+00 +5.703999E+00     +3.382630E+00 +2.983171E+00 +5.703999E+00     +3.382630E+00 +2.983171E+00 +5.703999E+00     +6.061860E+00 +1.336090E+00 +1.274289E+00     +6.061860E+00 +1.336090E+00 +1.274289E+00     +6.061860E+00 +1.336090E+00 +1.274289E+00     +6.061860E+00 +1.336090E+00 +1.274289E+00     +6.061860E+00 +1.336090E+00 +1.274289E+00     +4.225140E+00 +1.382261E+00 +3.163409E+00    
 +3.158290E+00 +9.270875E-01 +4.146730E+00     +3.158290E+00 +9.270875E-01 +4.146730E+00     +5.938350E+00 +3.025460E+00 +1.453730E+00     +5.938350E+00 +3.025460E+00 +1.453730E+00     +2.287620E-01 +8.959333E-01 +4.001450E+00     +2.287620E-01 +8.959333E-01 +4.001450E+00     +1.242140E+00 +6.487214E-01 +2.650963E-01     +5.400150E+00 +1.024931E+00 +1.593920E+00     +5.400150E+00 +1.024931E+00 +1.593920E+00     +3.382630E+00 +2.983171E+00 +5.703999E+00     +3.382630E+00 +2.983171E+00 +5.703999E+00     +3.382630E+00 +2.983171E+00 +5.703999E+00     +3.382630E+00 +2.983171E+00 +5.703999E+00     +3.382630E+00 +2.983171E+00 +5.703999E+00     +1.257470E+00 +2.196211E+00 +1.616730E+00     +1.257470E+00 +2.196211E+00 +1.616730E+00     +6.061860E+00 +1.336090E+00 +1.274289E+00     +4.284520E+00 +1.543060E+00 +3.243520E+00     +4.284520E+00 +1.543060E+00 +3.243520E+00     +4.284520E+00 +1.543060E+00 +3.243520E+00     +4.284520E+00 +1.543060E+00 +3.243520E+00    
 +3.158290E+00 +9.270875E-01 +4.146730E+00     +3.158290E+00 +9.270875E-01 +4.146730E+00     +5.938350E+00 +3.025460E+00 +1.453730E+00     +2.287620E-01 +8.959333E-01 +4.001450E+00     +2.287620E-01 +8.959333E-01 +4.001450E+00     +1.242140E+00 +6.487214E-01 +2.650963E-01     +1.242140E+00 +6.487214E-01 +2.650963E-01     +5.400150E+00 +1.024931E+00 +1.593920E+00     +5.400150E+00 +1.024931E+00 +1.593920E+00     +5.400150E+00 +1.024931E+00 +1.593920E+00     +3.382630E+00 +2.983171E+00 +5.703999E+00     +3.382630E+00 +2.983171E+00 +5.703999E+00     +3.382630E+00 +2.983171E+00 +5.703999E+00     +3.382630E+00 +2.983171E+00 +5.703999E+00     +1.257470E+00 +2.196211E+00 +1.616730E+00     +1.257470E+00 +2.196211E+00 +1.616730E+00     +1.257470E+00 +2.196211E+00 +1.616730E+00     +4.284520E+00 +1.543060E+00 +3.243520E+00     +4.284520E+00 +1.543060E+00 +3.243520E+00     +4.284520E+00 +1.543060E+00 +3.243520E+00     +4.284520E+00 +1.543060E+00 +3.243520E+00    
 +3.158290E+00 +9.270875E-01 +4.146730E+00     +3.158290E+00 +9.270875E-01 +4.146730E+00     +2.322279E+00 +1.183578E-01 +5.142279E+00     +2.287620E-01 +8.959333E-01 +4.001450E+00     +2.981560E+00 +3.227219E-01 +1.509530E+00     +2.981560E+00 +3.227219E-01 +1.509530E+00     +1.242140E+00 +6.487214E-01 +2.650963E-01     +5.400150E+00 +1.024931E+00 +1.593920E+00     +5.400150E+00 +1.024931E+00 +1.593920E+00     +5.400150E+00 +1.024931E+00 +1.593920E+00     +5.400150E+00 +1.024931E+00 +1.593920E+00     +3.382630E+00 +2.983171E+00 +5.703999E+00     +3.382630E+00 +2.983171E+00 +5.703999E+00     +1.257470E+00 +2.196211E+00 +1.616730E+00     +1.257470E+00 +2.196211E+00 +1.616730E+00     +1.257470E+00 +2.196211E+00 +1.616730E+00     +1.257470E+00 +2.196211E+00 +1.616730E+00     +4.284520E+00 +1.543060E+00 +3.243520E+00     +4.284520E+00 +1.543060E+00 +3.243520E+00     +3.158290E+00 +9.270875E-01 +4.146730E+00     +3.158290E+00 +9.270875E-01 +4.146730E+00    
 +3.158290E+00 +9.270875E-01 +4.146730E+00     +2.322279E+00 +1.183578E-01 +5.142279E+00     +2.322279E+00 +1.183578E-01 +5.142279E+00     +2.322279E+00 +1.183578E-01 +5.142279E+00     +2.287620E-01 +8.959333E-01 +4.001450E+00     +2.981560E+00 +3.227219E-01 +1.509530E+00     +1.242140E+00 +6.487214E-01 +2.650963E-01     +5.400150E+00 +1.024931E+00 +1.593920E+00     +5.400150E+00 +1.024931E+00 +1.593920E+00     +5.400150E+00 +1.024931E+00 +1.593920E+00     +5.400150E+00 +1.024931E+00 +1.593920E+00     +5.400150E+00 +1.024931E+00 +1.593920E+00     +1.257470E+00 +2.196211E+00 +1.616730E+00     +1.257470E+00 +2.196211E+00 +1.616730E+00     +1.257470E+00 +2.196211E+00 +1.616730E+00     +1.257470E+00 +2.196211E+00 +1.616730E+00     +1.257470E+00 +2.196211E+00 +1.616730E+00     +4.284520E+00 +1.543060E+00 +3.243520E+00     +3.158290E+00 +9.270875E-01 +4.146730E+00     +3.158290E+00 +9.270875E-01 +4.146730E+00     +3.158290E+00 +9.270875E-01 +4.146730E+00    
 +2.322279E+00 +1.183578E-01 +5.142279E+00     +2.322279E+00 +1.183578E-01 +5.142279E+00     +2.322279E+00 +1.183578E-01 +5.142279E+00     +2.322279E+00 +1.183578E-01 +5.142279E+00     +2.322279E+00 +1.183578E-01 +5.142279E+00     +4.449281E+00 +3.704584E-01 +2.769490E+00     +1.242140E+00 +6.487214E-01 +2.650963E-01     +1.242140E+00 +6.487214E-01 +2.650963E-01     +5.400150E+00 +1.024931E+00 +1.593920E+00     +5.400150E+00 +1.024931E+00 +1.593920E+00     +5.400150E+00 +1.024931E+00 +1.593920E+00     +1.257470E+00 +2.196211E+00 +1.616730E+00     +1.257470E+00 +2.196211E+00 +1.616730E+00     +1.257470E+00 +2.196211E+00 +1.616730E+00     +1.257470E+00 +2.196211E+00 +1.616730E+00     +1.257470E+00 +2.196211E+00 +1.616730E+00     +1.965630E+00 +2.237580E+00 +1.848070E+00     +1.965630E+00 +2.237580E+00 +1.848070E+00     +1.965630E+00 +2.237580E+00 +1.848070E+00     +1.965630E+00 +2.237580E+00 +1.848070E+00     +1.965630E+00 +2.237580E+00 +1.848070E+00    
 +2.322279E+00 +1.183578E-01 +5.142279E+00     +2.322279E+00 +1.183578E-01 +5.142279E+00     +2.322279E+00 +1.183578E-01 +5.142279E+00     +2.322279E+00 +1.183578E-01 +5.142279E+00     +2.322279E+00 +1.183578E-01 +5.142279E+00     +4.449281E+00 +3.704584E-01 +2.769490E+00     +4.449281E+00 +3.704584E-01 +2.769490E+00     +5.804571E+00 +9.694606E-01 +1.866090E+00     +5.804571E+00 +9.694606E-01 +1.866090E+00     +5.400150E+00 +1.024931E+00 +1.593920E+00     +5.400150E+00 +1.024931E+00 +1.593920E+00     +1.257470E+00 +2.196211E+00 +1.616730E+00     +4.683410E+00 +1.912020E+00 +4.247760E+00     +4.683410E+00 +1.912020E+00 +4.247760E+00     +4.683410E+00 +1.912020E+00 +4.247760E+00     +1.257470E+00 +2.196211E+00 +1.616730E+00     +1.965630E+00 +2.237580E+00 +1.848070E+00     +1.965630E+00 +2.237580E+00 +1.848070E+00     +1.965630E+00 +2.237580E+00 +1.848070E+00     +1.965630E+00 +2.237580E+00 +1.848070E+00     +1.965630E+00 +2.237580E+00 +1.848070E+00    
 +2.322279E+00 +1.183578E-01 +5.142279E+00     +2.322279E+00 +1.183578E-01 +5.142279E+00     +2.322279E+00 +1.183578E-01 +5.142279E+00     +2.322279E+00 +1.183578E-01 +5.142279E+00     +2.322279E+00 +1.183578E-01 +5.142279E+00     +4.449281E+00 +3.704584E-01 +2.769490E+00     +4.299280E+00 +9.850045E-01 +2.890799E+00     +4.299280E+00 +9.850045E-01 +2.890799E+00     +4.299280E+00 +9.850045E-01 +2.890799E+00     +4.299280E+00 +9.850045E-01 +2.890799E+00     +3.410539E+00 +9.633903E-01 +6.286885E-01     +4.683410E+00 +1.912020E+00 +4.247760E+00     +4.683410E+00 +1.912020E+00 +4.247760E+00     +4.683410E+00 +1.912020E+00 +4.247760E+00     +4.683410E+00 +1.912020E+00 +4.247760E+00     +4.957660E-01 +1.701850E+00 +2.498352E-01     +1.965630E+00 +2.237580E+00 +1.848070E+00     +1.965630E+00 +2.237580E+00 +1.848070E+00     +1.965630E+00 +2.237580E+00 +1.848070E+00     +1.965630E+00 +2.237580E+00 +1.848070E+00     +1.965630E+00 +2.237580E+00 +1.848070E+00    
 +2.322279E+00 +1.183578E-01 +5.142279E+00     +2.322279E+00 +1.183578E-01 +5.142279E+00     +2.322279E+00 +1.183578E-01 +5.142279E+00     +2.322279E+00 +1.183578E-01 +5.142279E+00     +4.881440E+00 +2.973851E+00 +5.034610E+00     +4.299280E+00 +9.850045E-01 +2.890799E+00     +4.299280E+00 +9.850045E-01 +2.890799E+00     +4.299280E+00 +9.850045E-01 +2.890799E+00     +4.299280E+00 +9.850045E-01 +2.890799E+00     +3.410539E+00 +9.633903E-01 +6.286885E-01     +3.410539E+00 +9.633903E-01 +6.286885E-01     +3.410539E+00 +9.633903E-01 +6.286885E-01     +3.334225E-01 +1.138300E+00 +5.195147E-01     +2.105790E+00 +6.473322E-01 +5.527269E+00     +2.105790E+00 +6.473322E-01 +5.527269E+00     +4.957660E-01 +1.701850E+00 +2.498352E-01     +1.965630E+00 +2.237580E+00 +1.848070E+00     +1.965630E+00 +2.237580E+00 +1.848070E+00     +1.965630E+00 +2.237580E+00 +1.848070E+00     +2.593263E-01 +1.744610E+00 +1.877301E+00     +1.965630E+00 +2.237580E+00 +1.848070E+00    
 +2.322279E+00 +1.183578E-01 +5.142279E+00     +2.322279E+00 +1.183578E-01 +5.142279E+00     +2.322279E+00 +1.183578E-01 +5.142279E+00     +4.881440E+00 +2.973851E+00 +5.034610E+00     +4.881440E+00 +2.973851E+00 +5.034610E+00     +4.881440E+00 +2.973851E+00 +5.034610E+00     +4.299280E+00 +9.850045E-01 +2.890799E+00     +4.299280E+00 +9.850045E-01 +2.890799E+00     +4.299280E+00 +9.850045E-01 +2.890799E+00     +3.410539E+00 +9.633903E-01 +6.286885E-01     +3.410539E+00 +9.633903E-01 +6.286885E-01     +3.410539E+00 +9.633903E-01 +6.286885E-01     +2.105790E+00 +6.473322E-01 +5.527269E+00     +2.105790E+00 +6.473322E-01 +5.527269E+00     +2.105790E+00 +6.473322E-01 +5.527269E+00     +2.105790E+00 +6.473322E-01 +5.527269E+00     +2.105790E+00 +6.473322E-01 +5.527269E+00     +1.965630E+00 +2.237580E+00 +1.848070E+00     +2.593263E-01 +1.744610E+00 +1.877301E+00     +2.593263E-01 +1.744610E+00 +1.877301E+00     +2.593263E-01 +1.744610E+00 +1.877301E+00    
 +5.138010E+00 +1.343350E+00 +1.951891E+00     +5.138010E+00 +1.343350E+00 +1.951891E+00     +5.138010E+00 +1.343350E+00 +1.951891E+00     +4.881440E+00 +2.973851E+00 +5.034610E+00     +4.881440E+00 +2.973851E+00 +5.034610E+00     +4.881440E+00 +2.973851E+00 +5.034610E+00     +4.299280E+00 +9.850045E-01 +2.890799E+00     +4.299280E+00 +9.850045E-01 +2.890799E+00     +4.299280E+00 +9.850045E-01 +2.890799E+00     +3.410539E+00 +9.633903E-01 +6.286885E-01     +3.410539E+00 +9.633903E-01 +6.286885E-01     +3.410539E+00 +9.633903E-01 +6.286885E-01     +2.105790E+00 +6.473322E-01 +5.527269E+00     +2.105790E+00 +6.473322E-01 +5.527269E+00     +2.105790E+00 +6.473322E-01 +5.527269E+00     +2.105790E+00 +6.473322E-01 +5.527269E+00     +3.297869E+00 +2.277210E+00 +1.561359E+00     +3.297869E+00 +2.277210E+00 +1.561359E+00     +3.297869E+00 +2.277210E+00 +1.561359E+00     +2.593263E-01 +1.744610E+00 +1.877301E+00     +2.593263E-01 +1.744610E+00 +1.877301E+00    
 +5.138010E+00 +1.343350E+00 +1.951891E+00     +5.138010E+00 +1.343350E+00 +1.951891E+00     +5.138010E+00 +1.343350E+00 +1.951891E+00     +4.881440E+00 +2.973851E+00 +5.034610E+00     +4.881440E+00 +2.973851E+00 +5.034610E+00     +4.881440E+00 +2.973851E+00 +5.034610E+00     +4.299280E+00 +9.850045E-01 +2.890799E+00     +4.299280E+00 +9.850045E-01 +2.890799E+00     +4.299280E+00 +9.850045E-01 +2.890799E+00     +3.410539E+00 +9.633903E-01 +6.286885E-01     +3.410539E+00 +9.633903E-01 +6.286885E-01     +3.410539E+00 +9.633903E-01 +6.286885E-01     +2.105790E+00 +6.473322E-01 +5.527269E+00     +2.105790E+00 +6.473322E-01 +5.527269E+00     +2.105790E+00 +6.473322E-01 +5.527269E+00     +4.487301E+00 +1.771249E+00 +4.998571E+00     +4.487301E+00 +1.771249E+00 +4.998571E+00     +4.487301E+00 +1.771249E+00 +4.998571E+00     +3.868631E+00 +2.330819E+00 +3.753090E+00     +2.177860E+00 +9.589939E-01 +4.821070E+00     +2.177860E+00 +9.589939E-01 +4.821070E+00    
 +5.138010E+00 +1.343350E+00 +1.951891E+00     +5.138010E+00 +1.343350E+00 +1.951891E+00     +5.138010E+00 +1.343350E+00 +1.951891E+00     +5.138010E+00 +1.343350E+00 +1.951891E+00     +4.881440E+00 +2.973851E+00 +5.034610E+00     +4.299280E+00 +9.850045E-01 +2.890799E+00     +4.299280E+00 +9.850045E-01 +2.890799E+00     +4.299280E+00 +9.850045E-01 +2.890799E+00     +4.299280E+00 +9.850045E-01 +2.890799E+00     +3.410539E+00 +9.633903E-01 +6.286885E-01     +3.410539E+00 +9.633903E-01 +6.286885E-01     +3.410539E+00 +9.633903E-01 +6.286885E-01     +2.105790E+00 +6.473322E-01 +5.527269E+00     +2.105790E+00 +6.473322E-01 +5.527269E+00     +4.487301E+00 +1.771249E+00 +4.998571E+00     +4.487301E+00 +1.771249E+00 +4.998571E+00     +4.487301E+00 +1.771249E+00 +4.998571E+00     +4.487301E+00 +1.771249E+00 +4.998571E+00     +4.487301E+00 +1.771249E+00 +4.998571E+00     +2.177860E+00 +9.589939E-01 +4.821070E+00     +2.177860E+00 +9.589939E-01 +4.821070E+00    
 +3.436520E+00 +1.891780E+00 +5.593100E+00     +3.436520E+00 +1.891780E+00 +5.593100E+00     +3.436520E+00 +1.891780E+00 +5.593100E+00     +5.138010E+00 +1.343350E+00 +1.951891E+00     +5.138010E+00 +1.343350E+00 +1.951891E+00     +4.299280E+00 +9.850045E-01 +2.890799E+00     +1.585410E+00 +1.724919E+00 +3.745440E+00     +1.585410E+00 +1.724919E+00 +3.745440E+00     +1.585410E+00 +1.724919E+00 +3.745440E+00     +3.410539E+00 +9.633903E-01 +6.286885E-01     +3.410539E+00 +9.633903E-01 +6.286885E-01     +3.410539E+00 +9.633903E-01 +6.286885E-01     +6.194441E+00 +4.528937E-01 +4.405160E+00     +6.194441E+00 +4.528937E-01 +4.405160E+00     +4.487301E+00 +1.771249E+00 +4.998571E+00     +4.487301E+00 +1.771249E+00 +4.998571E+00     +4.487301E+00 +1.771249E+00 +4.998571E+00     +2.075921E+00 +5.109731E-01 +4.872919E+00     +2.075921E+00 +5.109731E-01 +4.872919E+00     +2.075921E+00 +5.109731E-01 +4.872919E+00     +5.138010E+00 +1.343350E+00 +1.951891E+00    
 +3.436520E+00 +1.891780E+00 +5.593100E+00     +3.436520E+00 +1.891780E+00 +5.593100E+00     +3.436520E+00 +1.891780E+00 +5.593100E+00     +3.436520E+00 +1.891780E+00 +5.593100E+00     +1.585410E+00 +1.724919E+00 +3.745440E+00     +1.585410E+00 +1.724919E+00 +3.745440E+00     +1.585410E+00 +1.724919E+00 +3.745440E+00     +1.585410E+00 +1.724919E+00 +3.745440E+00     +1.585410E+00 +1.724919E+00 +3.745440E+00     +1.585410E+00 +1.724919E+00 +3.745440E+00     +3.479920E+00 +1.666229E+00 +5.212799E+00     +6.194441E+00 +4.528937E-01 +4.405160E+00     +6.194441E+00 +4.528937E-01 +4.405160E+00     +6.194441E+00 +4.528937E-01 +4.405160E+00     +3.210339E+00 +2.023261E+00 +5.578230E+00     +3.210339E+00 +2.023261E+00 +5.578230E+00     +2.075921E+00 +5.109731E-01 +4.872919E+00     +2.075921E+00 +5.109731E-01 +4.872919E+00     +2.075921E+00 +5.109731E-01 +4.872919E+00     +2.075921E+00 +5.109731E-01 +4.872919E+00     +2.075921E+00 +5.109731E-01 +4.872919E+00    
 +3.436520E+00 +1.891780E+00 +5.593100E+00     +3.436520E+00 +1.891780E+00 +5.593100E+00     +3.436520E+00 +1.891780E+00 +5.593100E+00     +3.436520E+00 +1.891780E+00 +5.593100E+00     +1.585410E+00 +1.724919E+00 +3.745440E+00     +1.585410E+00 +1.724919E+00 +3.745440E+00     +1.585410E+00 +1.724919E+00 +3.745440E+00     +1.585410E+00 +1.724919E+00 +3.745440E+00     +1.585410E+00 +1.724919E+00 +3.745440E+00     +1.585410E+00 +1.724919E+00 +3.745440E+00     +3.479920E+00 +1.666229E+00 +5.212799E+00     +3.479920E+00 +1.666229E+00 +5.212799E+00     +3.479920E+00 +1.666229E+00 +5.212799E+00     +3.479920E+00 +1.666229E+00 +5.212799E+00     +1.447506E-01 +7.757657E-01 +9.525362E-01     +3.210339E+00 +2.023261E+00 +5.578230E+00     +2.075921E+00 +5.109731E-01 +4.872919E+00     +2.075921E+00 +5.109731E-01 +4.872919E+00     +2.075921E+00 +5.109731E-01 +4.872919E+00     +2.075921E+00 +5.109731E-01 +4.872919E+00     +2.075921E+00 +5.109731E-01 +4.872919E+00    
 +5.835107E-01 +6.701733E-01 +2.399269E-01     +5.835107E-01 +6.701733E-01 +2.399269E-01     +3.436520E+00 +1.891780E+00 +5.593100E+00     +2.387970E+00 +2.171881E+00 +4.348490E+00     +3.045771E+00 +1.771399E+00 +5.542501E+00     +3.045771E+00 +1.771399E+00 +5.542501E+00     +4.112849E+00 +1.965209E+00 +3.785350E+00     +4.112849E+00 +1.965209E+00 +3.785350E+00     +4.112849E+00 +1.965209E+00 +3.785350E+00     +3.479920E+00 +1.666229E+00 +5.212799E+00     +3.479920E+00 +1.666229E+00 +5.212799E+00     +3.479920E+00 +1.666229E+00 +5.212799E+00     +3.479920E+00 +1.666229E+00 +5.212799E+00     +3.479920E+00 +1.666229E+00 +5.212799E+00     +3.479920E+00 +1.666229E+00 +5.212799E+00     +3.511650E+00 +8.393515E-01 +1.924440E+00     +4.465460E+00 +1.407840E+00 +3.380230E+00     +4.465460E+00 +1.407840E+00 +3.380230E+00     +4.465460E+00 +1.407840E+00 +3.380230E+00     +4.465460E+00 +1.407840E+00 +3.380230E+00     +4.465460E+00 +1.407840E+00 +3.380230E+00    
 +4.225140E+00 +1.382261E+00 +3.163409E+00     +4.225140E+00 +1.382261E+00 +3.163409E+00     +2.387970E+00 +2.171881E+00 +4.348490E+00     +2.387970E+00 +2.171881E+00 +4.348490E+00     +3.045771E+00 +1.771399E+00 +5.542501E+00     +3.045771E+00 +1.771399E+00 +5.542501E+00     +3.045771E+00 +1.771399E+00 +5.542501E+00     +4.112849E+00 +1.965209E+00 +3.785350E+00     +4.112849E+00 +1.965209E+00 +3.785350E+00     +3.479920E+00 +1.666229E+00 +5.212799E+00     +3.479920E+00 +1.666229E+00 +5.212799E+00     +3.479920E+00 +1.666229E+00 +5.212799E+00     +3.479920E+00 +1.666229E+00 +5.212799E+00     +3.479920E+00 +1.666229E+00 +5.212799E+00     +3.479920E+00 +1.666229E+00 +5.212799E+00     +4.465460E+00 +1.407840E+00 +3.380230E+00     +4.465460E+00 +1.407840E+00 +3.380230E+00     +4.465460E+00 +1.407840E+00 +3.380230E+00     +4.465460E+00 +1.407840E+00 +3.380230E+00     +4.465460E+00 +1.407840E+00 +3.380230E+00     +4.465460E+00 +1.407840E+00 +3.380230E+00    
 +4.225140E+00 +1.382261E+00 +3.163409E+00     +4.225140E+00 +1.382261E+00 +3.163409E+00     +2.387970E+00 +2.171881E+00 +4.348490E+00     +2.387970E+00 +2.171881E+00 +4.348490E+00     +3.045771E+00 +1.771399E+00 +5.542501E+00     +3.045771E+00 +1.771399E+00 +5.542501E+00     +3.045771E+00 +1.771399E+00 +5.542501E+00     +3.045771E+00 +1.771399E+00 +5.542501E+00     +3.045771E+00 +1.771399E+00 +5.542501E+00     +3.479920E+00 +1.666229E+00 +5.212799E+00     +3.479920E+00 +1.666229E+00 +5.212799E+00     +3.479920E+00 +1.666229E+00 +5.212799E+00     +3.479920E+00 +1.666229E+00 +5.212799E+00     +3.479920E+00 +1.666229E+00 +5.212799E+00     +3.479920E+00 +1.666229E+00 +5.212799E+00     +6.061860E+00 +1.336090E+00 +1.274289E+00     +6.061860E+00 +1.336090E+00 +1.274289E+00     +4.465460E+00 +1.407840E+00 +3.380230E+00     +4.465460E+00 +1.407840E+00 +3.380230E+00     +4.465460E+00 +1.407840E+00 +3.380230E+00     +4.465460E+00 +1.407840E+00 +3.380230E+00    
 +4.225140E+00 +1.382261E+00 +3.163409E+00     +4.225140E+00 +1.382261E+00 +3.163409E+00     +2.387970E+00 +2.171881E+00 +4.348490E+00     +2.387970E+00 +2.171881E+00 +4.348490E+00     +3.045771E+00 +1.771399E+00 +5.542501E+00     +3.045771E+00 +1.771399E+00 +5.542501E+00     +3.045771E+00 +1.771399E+00 +5.542501E+00     +7.809755E-01 +1.321310E+00 +6.078340E+00     +7.809755E-01 +1.321310E+00 +6.078340E+00     +5.354831E+00 +7.510396E-01 +2.302220E+00     +5.354831E+00 +7.510396E-01 +2.302220E+00     +5.354831E+00 +7.510396E-01 +2.302220E+00     +5.354831E+00 +7.510396E-01 +2.302220E+00     +3.479920E+00 +1.666229E+00 +5.212799E+00     +6.061860E+00 +1.336090E+00 +1.274289E+00     +6.061860E+00 +1.336090E+00 +1.274289E+00     +6.061860E+00 +1.336090E+00 +1.274289E+00     +6.061860E+00 +1.336090E+00 +1.274289E+00     +6.061860E+00 +1.336090E+00 +1.274289E+00     +4.465460E+00 +1.407840E+00 +3.380230E+00     +4.465460E+00 +1.407840E+00 +3.380230E+00    
 +4.225140E+00 +1.382261E+00 +3.163409E+00     +3.215650E+00 +1.546719E+00 +1.366820E+00     +3.215650E+00 +1.546719E+00 +1.366820E+00     +3.215650E+00 +1.546719E+00 +1.366820E+00     +3.045771E+00 +1.771399E+00 +5.542501E+00     +3.045771E+00 +1.771399E+00 +5.542501E+00     +7.809755E-01 +1.321310E+00 +6.078340E+00     +7.809755E-01 +1.321310E+00 +6.078340E+00     +7.809755E-01 +1.321310E+00 +6.078340E+00     +3.382630E+00 +2.983171E+00 +5.703999E+00     +5.354831E+00 +7.510396E-01 +2.302220E+00     +5.354831E+00 +7.510396E-01 +2.302220E+00     +5.354831E+00 +7.510396E-01 +2.302220E+00     +3.382630E+00 +2.983171E+00 +5.703999E+00     +6.061860E+00 +1.336090E+00 +1.274289E+00     +6.061860E+00 +1.336090E+00 +1.274289E+00     +6.061860E+00 +1.336090E+00 +1.274289E+00     +6.061860E+00 +1.336090E+00 +1.274289E+00     +6.061860E+00 +1.336090E+00 +1.274289E+00     +6.061860E+00 +1.336090E+00 +1.274289E+00     +4.225140E+00 +1.382261E+00 +3.163409E+00    
 +4.225140E+00 +1.382261E+00 +3.163409E+00     +5.938350E+00 +3.025460E+00 +1.453730E+00     +5.938350E+00 +3.025460E+00 +1.453730E+00     +5.938350E+00 +3.025460E+00 +1.453730E+00     +2.287620E-01 +8.959333E-01 +4.001450E+00     +2.287620E-01 +8.959333E-01 +4.001450E+00     +7.809755E-01 +1.321310E+00 +6.078340E+00     +7.809755E-01 +1.321310E+00 +6.078340E+00     +3.382630E+00 +2.983171E+00 +5.703999E+00     +3.382630E+00 +2.983171E+00 +5.703999E+00     +3.382630E+00 +2.983171E+00 +5.703999E+00     +3.382630E+00 +2.983171E+00 +5.703999E+00     +3.382630E+00 +2.983171E+00 +5.703999E+00     +3.382630E+00 +2.983171E+00 +5.703999E+00     +1.257470E+00 +2.196211E+00 +1.616730E+00     +6.061860E+00 +1.336090E+00 +1.274289E+00     +6.061860E+00 +1.336090E+00 +1.274289E+00     +6.061860E+00 +1.336090E+00 +1.274289E+00     +6.061860E+00 +1.336090E+00 +1.274289E+00     +6.061860E+00 +1.336090E+00 +1.274289E+00     +4.225140E+00 +1.382261E+00 +3.163409E+00    
 +5.938350E+00 +3.025460E+00 +1.453730E+00     +5.938350E+00 +3.025460E+00 +1.453730E+00     +5.938350E+00 +3.025460E+00 +1.453730E+00     +5.938350E+00 +3.025460E+00 +1.453730E+00     +2.287620E-01 +8.959333E-01 +4.001450E+00     +2.287620E-01 +8.959333E-01 +4.001450E+00     +1.242140E+00 +6.487214E-01 +2.650963E-01     +1.242140E+00 +6.487214E-01 +2.650963E-01     +5.400150E+00 +1.024931E+00 +1.593920E+00     +3.382630E+00 +2.983171E+00 +5.703999E+00     +3.382630E+00 +2.983171E+00 +5.703999E+00     +3.382630E+00 +2.983171E+00 +5.703999E+00     +3.382630E+00 +2.983171E+00 +5.703999E+00     +1.257470E+00 +2.196211E+00 +1.616730E+00     +1.257470E+00 +2.196211E+00 +1.616730E+00     +1.257470E+00 +2.196211E+00 +1.616730E+00     +1.257470E+00 +2.196211E+00 +1.616730E+00     +4.284520E+00 +1.543060E+00 +3.243520E+00     +4.284520E+00 +1.543060E+00 +3.243520E+00     +4.284520E+00 +1.543060E+00 +3.243520E+00     +4.284520E+00 +1.543060E+00 +3.243520E+00    
 +2.322279E+00 +1.183578E-01 +5.142279E+00     +2.322279E+00 +1.183578E-01 +5.142279E+00     +5.938350E+00 +3.025460E+00 +1.453730E+00     +2.287620E-01 +8.959333E-01 +4.001450E+00     +2.287620E-01 +8.959333E-01 +4.001450E+00     +2.287620E-01 +8.959333E-01 +4.001450E+00     +1.242140E+00 +6.487214E-01 +2.650963E-01     +1.242140E+00 +6.487214E-01 +2.650963E-01     +5.400150E+00 +1.024931E+00 +1.593920E+00     +5.400150E+00 +1.024931E+00 +1.593920E+00     +3.382630E+00 +2.983171E+00 +5.703999E+00     +3.382630E+00 +2.983171E+00 +5.703999E+00     +3.382630E+00 +2.983171E+00 +5.703999E+00     +1.257470E+00 +2.196211E+00 +1.616730E+00     +1.257470E+00 +2.196211E+00 +1.616730E+00     +1.257470E+00 +2.196211E+00 +1.616730E+00     +1.257470E+00 +2.196211E+00 +1.616730E+00     +4.284520E+00 +1.543060E+00 +3.243520E+00     +4.284520E+00 +1.543060E+00 +3.243520E+00     +4.284520E+00 +1.543060E+00 +3.243520E+00     +4.284520E+00 +1.543060E+00 +3.243520E+00    
 +2.322279E+00 +1.183578E-01 +5.142279E+00     +2.322279E+00 +1.183578E-01 +5.142279E+00     +2.322279E+00 +1.183578E-01 +5.142279E+00     +2.287620E-01 +8.959333E-01 +4.001450E+00     +2.287620E-01 +8.959333E-01 +4.001450E+00     +2.287620E-01 +8.959333E-01 +4.001450E+00     +1.242140E+00 +6.487214E-01 +2.650963E-01     +1.242140E+00 +6.487214E-01 +2.650963E-01     +5.400150E+00 +1.024931E+00 +1.593920E+00     +5.400150E+00 +1.024931E+00 +1.593920E+00     +5.400150E+00 +1.024931E+00 +1.593920E+00     +3.382630E+00 +2.983171E+00 +5.703999E+00     +1.257470E+00 +2.196211E+00 +1.616730E+00     +1.257470E+00 +2.196211E+00 +1.616730E+00     +1.257470E+00 +2.196211E+00 +1.616730E+00     +1.257470E+00 +2.196211E+00 +1.616730E+00     +1.257470E+00 +2.196211E+00 +1.616730E+00     +4.284520E+00 +1.543060E+00 +3.243520E+00     +4.284520E+00 +1.543060E+00 +3.243520E+00     +3.158290E+00 +9.270875E-01 +4.146730E+00     +3.158290E+00 +9.270875E-01 +4.146730E+00    
 +2.322279E+00 +1.183578E-01 +5.142279E+00     +2.322279E+00 +1.183578E-01 +5.142279E+00     +2.322279E+00 +1.183578E-01 +5.142279E+00     +2.322279E+00 +1.183578E-01 +5.142279E+00     +2.287620E-01 +8.959333E-01 +4.001450E+00     +2.287620E-01 +8.959333E-01 +4.001450E+00     +1.242140E+00 +6.487214E-01 +2.650963E-01     +1.242140E+00 +6.487214E-01 +2.650963E-01     +5.400150E+00 +1.024931E+00 +1.593920E+00     +5.400150E+00 +1.024931E+00 +1.593920E+00     +5.400150E+00 +1.024931E+00 +1.593920E+00     +1.257470E+00 +2.196211E+00 +1.616730E+00     +1.257470E+00 +2.196211E+00 +1.616730E+00     +1.257470E+00 +2.196211E+00 +1.616730E+00     +1.257470E+00 +2.196211E+00 +1.616730E+00     +1.257470E+00 +2.196211E+00 +1.616730E+00     +1.257470E+00 +2.196211E+00 +1.616730E+00     +1.965630E+00 +2.237580E+00 +1.848070E+00     +1.965630E+00 +2.237580E+00 +1.848070E+00     +3.158290E+00 +9.270875E-01 +4.146730E+00     +3.158290E+00 +9.270875E-01 +4.146730E+00    
 +2.322279E+00 +1.183578E-01 +5.142279E+00     +2.322279E+00 +1.183578E-01 +5.142279E+00     +2.322279E+00 +1.183578E-01 +5.142279E+00     +2.322279E+00 +1.183578E-01 +5.142279E+00     +2.322279E+00 +1.183578E-01 +5.142279E+00     +4.449281E+00 +3.704584E-01 +2.769490E+00     +1.242140E+00 +6.487214E-01 +2.650963E-01     +5.804571E+00 +9.694606E-01 +1.866090E+00     +1.242140E+00 +6.487214E-01 +2.650963E-01     +5.400150E+00 +1.024931E+00 +1.593920E+00     +5.400150E+00 +1.024931E+00 +1.593920E+00     +1.257470E+00 +2.196211E+00 +1.616730E+00     +1.257470E+00 +2.196211E+00 +1.616730E+00     +1.257470E+00 +2.196211E+00 +1.616730E+00     +1.257470E+00 +2.196211E+00 +1.616730E+00     +1.257470E+00 +2.196211E+00 +1.616730E+00     +1.965630E+00 +2.237580E+00 +1.848070E+00     +1.965630E+00 +2.237580E+00 +1.848070E+00     +1.965630E+00 +2.237580E+00 +1.848070E+00     +1.965630E+00 +2.237580E+00 +1.848070E+00     +1.965630E+00 +2.237580E+00 +1.848070E+00    
 +2.322279E+00 +1.183578E-01 +5.142279E+00     +2.322279E+00 +1.183578E-01 +5.142279E+00     +2.322279E+00 +1.183578E-01 +5.142279E+00     +2.322279E+00 +1.183578E-01 +5.142279E+00     +4.449281E+00 +3.704584E-01 +2.769490E+00     +4.449281E+00 +3.704584E-01 +2.769490E+00     +5.804571E+00 +9.694606E-01 +1.866090E+00     +5.804571E+00 +9.694606E-01 +1.866090E+00     +5.804571E+00 +9.694606E-01 +1.866090E+00     +5.400150E+00 +1.024931E+00 +1.593920E+00     +5.400150E+00 +1.024931E+00 +1.593920E+00     +1.257470E+00 +2.196211E+00 +1.616730E+00     +1.257470E+00 +2.196211E+00 +1.616730E+00     +1.257470E+00 +2.196211E+00 +1.616730E+00     +1.257470E+00 +2.196211E+00 +1.616730E+00     +1.257470E+00 +2.196211E+00 +1.616730E+00     +1.965630E+00 +2.237580E+00 +1.848070E+00     +1.965630E+00 +2.237580E+00 +1.848070E+00     +1.965630E+00 +2.237580E+00 +1.848070E+00     +5.831260E+00 +1.723621E+00 +3.931590E+00     +1.965630E+00 +2.237580E+00 +1.848070E+00    
 +2.322279E+00 +1.183578E-01 +5.142279E+00     +2.322279E+00 +1.183578E-01 +5.142279E+00     +2.322279E+00 +1.183578E-01 +5.142279E+00     +2.322279E+00 +1.183578E-01 +5.142279E+00     +2.322279E+00 +1.183578E-01 +5.142279E+00     +4.449281E+00 +3.704584E-01 +2.769490E+00     +4.299280E+00 +9.850045E-01 +2.890799E+00     +5.804571E+00 +9.694606E-01 +1.866090E+00     +4.299280E+00 +9.850045E-01 +2.890799E+00     +4.299280E+00 +9.850045E-01 +2.890799E+00     +3.410539E+00 +9.633903E-01 +6.286885E-01     +4.683410E+00 +1.912020E+00 +4.247760E+00     +4.683410E+00 +1.912020E+00 +4.247760E+00     +2.105790E+00 +6.473322E-01 +5.527269E+00     +2.105790E+00 +6.473322E-01 +5.527269E+00     +1.965630E+00 +2.237580E+00 +1.848070E+00     +1.965630E+00 +2.237580E+00 +1.848070E+00     +1.965630E+00 +2.237580E+00 +1.848070E+00     +1.965630E+00 +2.237580E+00 +1.848070E+00     +1.965630E+00 +2.237580E+00 +1.848070E+00     +1.965630E+00 +2.237580E+00 +1.848070E+00    
 +2.322279E+00 +1.183578E-01 +5.142279E+00     +2.322279E+00 +1.183578E-01 +5.142279E+00     +2.322279E+00 +1.183578E-01 +5.142279E+00     +2.322279E+00 +1.183578E-01 +5.142279E+00     +4.881440E+00 +2.973851E+00 +5.034610E+00     +4.299280E+00 +9.850045E-01 +2.890799E+00     +4.299280E+00 +9.850045E-01 +2.890799E+00     +4.299280E+00 +9.850045E-01 +2.890799E+00     +4.299280E+00 +9.850045E-01 +2.890799E+00     +4.299280E+00 +9.850045E-01 +2.890799E+00     +3.410539E+00 +9.633903E-01 +6.286885E-01     +2.105790E+00 +6.473322E-01 +5.527269E+00     +2.105790E+00 +6.473322E-01 +5.527269E+00     +2.105790E+00 +6.473322E-01 +5.527269E+00     +2.105790E+00 +6.473322E-01 +5.527269E+00     +2.105790E+00 +6.473322E-01 +5.527269E+00     +2.105790E+00 +6.473322E-01 +5.527269E+00     +1.965630E+00 +2.237580E+00 +1.848070E+00     +2.593263E-01 +1.744610E+00 +1.877301E+00     +2.593263E-01 +1.744610E+00 +1.877301E+00     +2.593263E-01 +1.744610E+00 +1.877301E+00    
 +2.322279E+00 +1.183578E-01 +5.142279E+00     +2.322279E+00 +1.183578E-01 +5.142279E+00     +2.322279E+00 +1.183578E-01 +5.142279E+00     +4.881440E+00 +2.973851E+00 +5.034610E+00     +4.881440E+00 +2.973851E+00 +5.034610E+00     +4.881440E+00 +2.973851E+00 +5.034610E+00     +4.299280E+00 +9.850045E-01 +2.890799E+00     +4.299280E+00 +9.850045E-01 +2.890799E+00     +4.299280E+00 +9.850045E-01 +2.890799E+00     +9.651758E-01 +1.219830E+00 +2.566240E+00     +3.410539E+00 +9.633903E-01 +6.286885E-01     +2.105790E+00 +6.473322E-01 +5.527269E+00     +1.930961E+00 +1.529690E+00 +2.736430E+00     +2.105790E+00 +6.473322E-01 +5.527269E+00     +2.105790E+00 +6.473322E-01 +5.527269E+00     +2.105790E+00 +6.473322E-01 +5.527269E+00     +2.105790E+00 +6.473322E-01 +5.527269E+00     +1.965630E+00 +2.237580E+00 +1.848070E+00     +2.593263E-01 +1.744610E+00 +1.877301E+00     +2.593263E-01 +1.744610E+00 +1.877301E+00     +2.593263E-01 +1.744610E+00 +1.877301E+00    
 +2.322279E+00 +1.183578E-01 +5.142279E+00     +2.322279E+00 +1.183578E-01 +5.142279E+00     +2.322279E+00 +1.183578E-01 +5.142279E+00     +4.881440E+00 +2.973851E+00 +5.034610E+00     +4.881440E+00 +2.973851E+00 +5.034610E+00     +4.881440E+00 +2.973851E+00 +5.034610E+00     +4.299280E+00 +9.850045E-01 +2.890799E+00     +4.299280E+00 +9.850045E-01 +2.890799E+00     +4.299280E+00 +9.850045E-01 +2.890799E+00     +9.651758E-01 +1.219830E+00 +2.566240E+00     +9.651758E-01 +1.219830E+00 +2.566240E+00     +2.105790E+00 +6.473322E-01 +5.527269E+00     +2.105790E+00 +6.473322E-01 +5.527269E+00     +2.105790E+00 +6.473322E-01 +5.527269E+00     +2.105790E+00 +6.473322E-01 +5.527269E+00     +2.105790E+00 +6.473322E-01 +5.527269E+00     +2.105790E+00 +6.473322E-01 +5.527269E+00     +3.310951E+00 +5.815804E-01 +4.265421E+00     +2.593263E-01 +1.744610E+00 +1.877301E+00     +2.593263E-01 +1.744610E+00 +1.877301E+00     +2.593263E-01 +1.744610E+00 +1.877301E+00    
 +5.138010E+00 +1.343350E+00 +1.951891E+00     +5.138010E+00 +1.343350E+00 +1.951891E+00     +5.138010E+00 +1.343350E+00 +1.951891E+00     +4.881440E+00 +2.973851E+00 +5.034610E+00     +4.881440E+00 +2.973851E+00 +5.034610E+00     +4.881440E+00 +2.973851E+00 +5.034610E+00     +4.299280E+00 +9.850045E-01 +2.890799E+00     +4.299280E+00 +9.850045E-01 +2.890799E+00     +4.299280E+00 +9.850045E-01 +2.890799E+00     +9.651758E-01 +1.219830E+00 +2.566240E+00     +3.410539E+00 +9.633903E-01 +6.286885E-01     +2.105790E+00 +6.473322E-01 +5.527269E+00     +2.105790E+00 +6.473322E-01 +5.527269E+00     +2.105790E+00 +6.473322E-01 +5.527269E+00     +2.105790E+00 +6.473322E-01 +5.527269E+00     +2.105790E+00 +6.473322E-01 +5.527269E+00     +2.105790E+00 +6.473322E-01 +5.527269E+00     +4.487301E+00 +1.771249E+00 +4.998571E+00     +3.868631E+00 +2.330819E+00 +3.753090E+00     +2.177860E+00 +9.589939E-01 +4.821070E+00     +2.177860E+00 +9.589939E-01 +4.821070E+00    
 +3.436520E+00 +1.891780E+00 +5.593100E+00     +3.436520E+00 +1.891780E+00 +5.593100E+00     +3.436520E+00 +1.891780E+00 +5.593100E+00     +4.881440E+00 +2.973851E+00 +5.034610E+00     +4.881440E+00 +2.973851E+00 +5.034610E+00     +4.299280E+00 +9.850045E-01 +2.890799E+00     +4.299280E+00 +9.850045E-01 +2.890799E+00     +4.299280E+00 +9.850045E-01 +2.890799E+00     +4.299280E+00 +9.850045E-01 +2.890799E+00     +4.299280E+00 +9.850045E-01 +2.890799E+00     +3.410539E+00 +9.633903E-01 +6.286885E-01     +2.105790E+00 +6.473322E-01 +5.527269E+00     +2.105790E+00 +6.473322E-01 +5.527269E+00     +2.105790E+00 +6.473322E-01 +5.527269E+00     +2.105790E+00 +6.473322E-01 +5.527269E+00     +2.105790E+00 +6.473322E-01 +5.527269E+00     +4.487301E+00 +1.771249E+00 +4.998571E+00     +4.487301E+00 +1.771249E+00 +4.998571E+00     +4.487301E+00 +1.771249E+00 +4.998571E+00     +2.177860E+00 +9.589939E-01 +4.821070E+00     +2.177860E+00 +9.589939E-01 +4.821070E+00    
 +3.436520E+00 +1.891780E+00 +5.593100E+00     +3.436520E+00 +1.891780E+00 +5.593100E+00     +3.436520E+00 +1.891780E+00 +5.593100E+00     +3.436520E+00 +1.891780E+00 +5.593100E+00     +4.881440E+00 +2.973851E+00 +5.034610E+00     +4.299280E+00 +9.850045E-01 +2.890799E+00     +4.299280E+00 +9.850045E-01 +2.890799E+00     +4.299280E+00 +9.850045E-01 +2.890799E+00     +4.299280E+00 +9.850045E-01 +2.890799E+00     +4.299280E+00 +9.850045E-01 +2.890799E+00     +3.410539E+00 +9.633903E-01 +6.286885E-01     +2.105790E+00 +6.473322E-01 +5.527269E+00     +6.194441E+00 +4.528937E-01 +4.405160E+00     +6.194441E+00 +4.528937E-01 +4.405160E+00     +6.194441E+00 +4.528937E-01 +4.405160E+00     +4.487301E+00 +1.771249E+00 +4.998571E+00     +4.487301E+00 +1.771249E+00 +4.998571E+00     +2.075921E+00 +5.109731E-01 +4.872919E+00     +2.075921E+00 +5.109731E-01 +4.872919E+00     +2.075921E+00 +5.109731E-01 +4.872919E+00     +2.177860E+00 +9.589939E-01 +4.821070E+00    
 +3.436520E+00 +1.891780E+00 +5.593100E+00     +3.436520E+00 +1.891780E+00 +5.593100E+00     +3.436520E+00 +1.891780E+00 +5.593100E+00     +3.436520E+00 +1.891780E+00 +5.593100E+00     +4.881440E+00 +2.973851E+00 +5.034610E+00     +1.585410E+00 +1.724919E+00 +3.745440E+00     +1.585410E+00 +1.724919E+00 +3.745440E+00     +1.585410E+00 +1.724919E+00 +3.745440E+00     +1.585410E+00 +1.724919E+00 +3.745440E+00     +1.585410E+00 +1.724919E+00 +3.745440E+00     +3.758950E+00 +1.131211E+00 +3.495980E+00     +6.194441E+00 +4.528937E-01 +4.405160E+00     +6.194441E+00 +4.528937E-01 +4.405160E+00     +6.194441E+00 +4.528937E-01 +4.405160E+00     +6.194441E+00 +4.528937E-01 +4.405160E+00     +4.487301E+00 +1.771249E+00 +4.998571E+00     +2.075921E+00 +5.109731E-01 +4.872919E+00     +2.075921E+00 +5.109731E-01 +4.872919E+00     +2.075921E+00 +5.109731E-01 +4.872919E+00     +2.075921E+00 +5.109731E-01 +4.872919E+00     +2.075921E+00 +5.109731E-01 +4.872919E+00    
 +3.436520E+00 +1.891780E+00 +5.593100E+00     +3.436520E+00 +1.891780E+00 +5.593100E+00     +3.436520E+00 +1.891780E+00 +5.593100E+00     +3.436520E+00 +1.891780E+00 +5.593100E+00     +1.585410E+00 +1.724919E+00 +3.745440E+00     +1.585410E+00 +1.724919E+00 +3.745440E+00     +1.585410E+00 +1.724919E+00 +3.745440E+00     +1.585410E+00 +1.724919E+00 +3.745440E+00     +1.585410E+00 +1.724919E+00 +3.745440E+00     +3.758950E+00 +1.131211E+00 +3.495980E+00     +3.479920E+00 +1.666229E+00 +5.212799E+00     +3.479920E+00 +1.666229E+00 +5.212799E+00     +3.479920E+00 +1.666229E+00 +5.212799E+00     +1.447506E-01 +7.757657E-01 +9.525362E-01     +1.447506E-01 +7.757657E-01 +9.525362E-01     +3.210339E+00 +2.023261E+00 +5.578230E+00     +2.075921E+00 +5.109731E-01 +4.872919E+00     +2.075921E+00 +5.109731E-01 +4.872919E+00     +2.075921E+00 +5.109731E-01 +4.872919E+00     +4.465460E+00 +1.407840E+00 +3.380230E+00     +5.835107E-01 +6.701733E-01 +2.399269E-01    
 +5.835107E-01 +6.701733E-01 +2.399269E-01     +5.835107E-01 +6.701733E-01 +2.399269E-01     +2.283500E+00 +1.905899E+00 +4.867119E+00     +2.283500E+00 +1.905899E+00 +4.867119E+00     +2.283500E+00 +1.905899E+00 +4.867119E+00     +3.045771E+00 +1.771399E+00 +5.542501E+00     +4.112849E+00 +1.965209E+00 +3.785350E+00     +4.112849E+00 +1.965209E+00 +3.785350E+00     +3.758950E+00 +1.131211E+00 +3.495980E+00     +3.479920E+00 +1.666229E+00 +5.212799E+00     +3.479920E+00 +1.666229E+00 +5.212799E+00     +3.479920E+00 +1.666229E+00 +5.212799E+00     +1.447506E-01 +7.757657E-01 +9.525362E-01     +1.447506E-01 +7.757657E-01 +9.525362E-01     +1.447506E-01 +7.757657E-01 +9.525362E-01     +4.465460E+00 +1.407840E+00 +3.380230E+00     +4.465460E+00 +1.407840E+00 +3.380230E+00     +4.465460E+00 +1.407840E+00 +3.380230E+00     +4.465460E+00 +1.407840E+00 +3.380230E+00     +4.465460E+00 +1.407840E+00 +3.380230E+00     +5.835107E-01 +6.701733E-01 +2.399269E-01    
 +5.835107E-01 +6.701733E-01 +2.399269E-01     +5.835107E-01 +6.701733E-01 +2.399269E-01     +2.283500E+00 +1.905899E+00 +4.867119E+00     +2.283500E+00 +1.905899E+00 +4.867119E+00     +2.283500E+00 +1.905899E+00 +4.867119E+00     +3.045771E+00 +1.771399E+00 +5.542501E+00     +3.045771E+00 +1.771399E+00 +5.542501E+00     +3.758950E+00 +1.131211E+00 +3.495980E+00     +3.758950E+00 +1.131211E+00 +3.495980E+00     +3.479920E+00 +1.666229E+00 +5.212799E+00     +3.479920E+00 +1.666229E+00 +5.212799E+00     +3.479920E+00 +1.666229E+00 +5.212799E+00     +3.479920E+00 +1.666229E+00 +5.212799E+00     +1.447506E-01 +7.757657E-01 +9.525362E-01     +1.447506E-01 +7.757657E-01 +9.525362E-01     +4.465460E+00 +1.407840E+00 +3.380230E+00     +4.465460E+00 +1.407840E+00 +3.380230E+00     +4.465460E+00 +1.407840E+00 +3.380230E+00     +4.465460E+00 +1.407840E+00 +3.380230E+00     +4.465460E+00 +1.407840E+00 +3.380230E+00     +5.835107E-01 +6.701733E-01 +2.399269E-01    
 +5.835107E-01 +6.701733E-01 +2.399269E-01     +5.835107E-01 +6.701733E-01 +2.399269E-01     +2.283500E+00 +1.905899E+00 +4.867119E+00     +2.283500E+00 +1.905899E+00 +4.867119E+00     +2.283500E+00 +1.905899E+00 +4.867119E+00     +4.604489E+00 +1.104820E+00 +5.910870E+00     +3.045771E+00 +1.771399E+00 +5.542501E+00     +7.809755E-01 +1.321310E+00 +6.078340E+00     +7.809755E-01 +1.321310E+00 +6.078340E+00     +5.354831E+00 +7.510396E-01 +2.302220E+00     +5.354831E+00 +7.510396E-01 +2.302220E+00     +3.479920E+00 +1.666229E+00 +5.212799E+00     +3.479920E+00 +1.666229E+00 +5.212799E+00     +3.479920E+00 +1.666229E+00 +5.212799E+00     +3.479920E+00 +1.666229E+00 +5.212799E+00     +6.061860E+00 +1.336090E+00 +1.274289E+00     +6.061860E+00 +1.336090E+00 +1.274289E+00     +4.465460E+00 +1.407840E+00 +3.380230E+00     +4.465460E+00 +1.407840E+00 +3.380230E+00     +4.465460E+00 +1.407840E+00 +3.380230E+00     +5.835107E-01 +6.701733E-01 +2.399269E-01    
 +5.835107E-01 +6.701733E-01 +2.399269E-01     +5.835107E-01 +6.701733E-01 +2.399269E-01     +2.283500E+00 +1.905899E+00 +4.867119E+00     +2.283500E+00 +1.905899E+00 +4.867119E+00     +2.283500E+00 +1.905899E+00 +4.867119E+00     +3.045771E+00 +1.771399E+00 +5.542501E+00     +7.809755E-01 +1.321310E+00 +6.078340E+00     +7.809755E-01 +1.321310E+00 +6.078340E+00     +7.809755E-01 +1.321310E+00 +6.078340E+00     +5.354831E+00 +7.510396E-01 +2.302220E+00     +5.354831E+00 +7.510396E-01 +2.302220E+00     +5.354831E+00 +7.510396E-01 +2.302220E+00     +5.354831E+00 +7.510396E-01 +2.302220E+00     +5.354831E+00 +7.510396E-01 +2.302220E+00     +6.061860E+00 +1.336090E+00 +1.274289E+00     +6.061860E+00 +1.336090E+00 +1.274289E+00     +6.061860E+00 +1.336090E+00 +1.274289E+00     +6.061860E+00 +1.336090E+00 +1.274289E+00     +4.465460E+00 +1.407840E+00 +3.380230E+00     +4.465460E+00 +1.407840E+00 +3.380230E+00     +5.835107E-01 +6.701733E-01 +2.399269E-01    
 +5.835107E-01 +6.701733E-01 +2.399269E-01     +3.215650E+00 +1.546719E+00 +1.366820E+00     +3.215650E+00 +1.546719E+00 +1.366820E+00     +3.215650E+00 +1.546719E+00 +1.366820E+00     +3.215650E+00 +1.546719E+00 +1.366820E+00     +3.215650E+00 +1.546719E+00 +1.366820E+00     +7.809755E-01 +1.321310E+00 +6.078340E+00     +7.809755E-01 +1.321310E+00 +6.078340E+00     +7.809755E-01 +1.321310E+00 +6.078340E+00     +5.354831E+00 +7.510396E-01 +2.302220E+00     +5.354831E+00 +7.510396E-01 +2.302220E+00     +5.354831E+00 +7.510396E-01 +2.302220E+00     +5.354831E+00 +7.510396E-01 +2.302220E+00     +5.354831E+00 +7.510396E-01 +2.302220E+00     +5.354831E+00 +7.510396E-01 +2.302220E+00     +6.061860E+00 +1.336090E+00 +1.274289E+00     +6.061860E+00 +1.336090E+00 +1.274289E+00     +6.061860E+00 +1.336090E+00 +1.274289E+00     +6.061860E+00 +1.336090E+00 +1.274289E+00     +6.061860E+00 +1.336090E+00 +1.274289E+00     +5.835107E-01 +6.701733E-01 +2.399269E-01    
 +3.215650E+00 +1.546719E+00 +1.366820E+00     +3.215650E+00 +1.546719E+00 +1.366820E+00     +3.215650E+00 +1.546719E+00 +1.366820E+00     +3.215650E+00 +1.546719E+00 +1.366820E+00     +3.215650E+00 +1.546719E+00 +1.366820E+00     +7.809755E-01 +1.321310E+00 +6.078340E+00     +7.809755E-01 +1.321310E+00 +6.078340E+00     +7.809755E-01 +1.321310E+00 +6.078340E+00     +7.809755E-01 +1.321310E+00 +6.078340E+00     +3.382630E+00 +2.983171E+00 +5.703999E+00     +5.354831E+00 +7.510396E-01 +2.302220E+00     +5.354831E+00 +7.510396E-01 +2.302220E+00     +5.354831E+00 +7.510396E-01 +2.302220E+00     +1.257470E+00 +2.196211E+00 +1.616730E+00     +1.257470E+00 +2.196211E+00 +1.616730E+00     +1.257470E+00 +2.196211E+00 +1.616730E+00     +6.061860E+00 +1.336090E+00 +1.274289E+00     +6.061860E+00 +1.336090E+00 +1.274289E+00     +6.061860E+00 +1.336090E+00 +1.274289E+00     +6.061860E+00 +1.336090E+00 +1.274289E+00     +5.835107E-01 +6.701733E-01 +2.399269E-01    
 +5.938350E+00 +3.025460E+00 +1.453730E+00     +5.938350E+00 +3.025460E+00 +1.453730E+00     +5.938350E+00 +3.025460E+00 +1.453730E+00     +5.938350E+00 +3.025460E+00 +1.453730E+00     +5.938350E+00 +3.025460E+00 +1.453730E+00     +2.287620E-01 +8.959333E-01 +4.001450E+00     +1.242140E+00 +6.487214E-01 +2.650963E-01     +4.328380E+00 +7.867718E-01 +3.099659E+00     +1.242140E+00 +6.487214E-01 +2.650963E-01     +3.382630E+00 +2.983171E+00 +5.703999E+00     +3.382630E+00 +2.983171E+00 +5.703999E+00     +3.382630E+00 +2.983171E+00 +5.703999E+00     +3.382630E+00 +2.983171E+00 +5.703999E+00     +1.257470E+00 +2.196211E+00 +1.616730E+00     +1.257470E+00 +2.196211E+00 +1.616730E+00     +1.257470E+00 +2.196211E+00 +1.616730E+00     +1.257470E+00 +2.196211E+00 +1.616730E+00     +1.257470E+00 +2.196211E+00 +1.616730E+00     +4.284520E+00 +1.543060E+00 +3.243520E+00     +4.284520E+00 +1.543060E+00 +3.243520E+00     +1.965630E+00 +2.237580E+00 +1.848070E+00    
 +2.322279E+00 +1.183578E-01 +5.142279E+00     +2.322279E+00 +1.183578E-01 +5.142279E+00     +5.938350E+00 +3.025460E+00 +1.453730E+00     +5.938350E+00 +3.025460E+00 +1.453730E+00     +2.287620E-01 +8.959333E-01 +4.001450E+00     +2.287620E-01 +8.959333E-01 +4.001450E+00     +1.242140E+00 +6.487214E-01 +2.650963E-01     +1.242140E+00 +6.487214E-01 +2.650963E-01     +1.242140E+00 +6.487214E-01 +2.650963E-01     +5.400150E+00 +1.024931E+00 +1.593920E+00     +3.382630E+00 +2.983171E+00 +5.703999E+00     +3.382630E+00 +2.983171E+00 +5.703999E+00     +1.257470E+00 +2.196211E+00 +1.616730E+00     +1.257470E+00 +2.196211E+00 +1.616730E+00     +1.257470E+00 +2.196211E+00 +1.616730E+00     +1.257470E+00 +2.196211E+00 +1.616730E+00     +1.257470E+00 +2.196211E+00 +1.616730E+00     +1.257470E+00 +2.196211E+00 +1.616730E+00     +4.284520E+00 +1.543060E+00 +3.243520E+00     +4.284520E+00 +1.543060E+00 +3.243520E+00     +1.965630E+00 +2.237580E+00 +1.848070E+00    
 +2.322279E+00 +1.183578E-01 +5.142279E+00     +2.322279E+00 +1.183578E-01 +5.142279E+00     +2.322279E+00 +1.183578E-01 +5.142279E+00     +1.351901E+00 +7.177108E-01 +1.413870E+00     +2.287620E-01 +8.959333E-01 +4.001450E+00     +2.287620E-01 +8.959333E-01 +4.001450E+00     +1.242140E+00 +6.487214E-01 +2.650963E-01     +1.242140E+00 +6.487214E-01 +2.650963E-01     +1.242140E+00 +6.487214E-01 +2.650963E-01     +5.400150E+00 +1.024931E+00 +1.593920E+00     +5.400150E+00 +1.024931E+00 +1.593920E+00     +1.257470E+00 +2.196211E+00 +1.616730E+00     +1.257470E+00 +2.196211E+00 +1.616730E+00     +1.257470E+00 +2.196211E+00 +1.616730E+00     +1.257470E+00 +2.196211E+00 +1.616730E+00     +1.257470E+00 +2.196211E+00 +1.616730E+00     +1.257470E+00 +2.196211E+00 +1.616730E+00     +1.965630E+00 +2.237580E+00 +1.848070E+00     +1.965630E+00 +2.237580E+00 +1.848070E+00     +1.965630E+00 +2.237580E+00 +1.848070E+00     +1.965630E+00 +2.237580E+00 +1.848070E+00    
 +2.322279E+00 +1.183578E-01 +5.142279E+00     +2.322279E+00 +1.183578E-01 +5.142279E+00     +2.322279E+00 +1.183578E-01 +5.142279E+00     +2.322279E+00 +1.183578E-01 +5.142279E+00     +2.287620E-01 +8.959333E-01 +4.001450E+00     +2.287620E-01 +8.959333E-01 +4.001450E+00     +1.242140E+00 +6.487214E-01 +2.650963E-01     +1.242140E+00 +6.487214E-01 +2.650963E-01     +1.242140E+00 +6.487214E-01 +2.650963E-01     +5.400150E+00 +1.024931E+00 +1.593920E+00     +5.400150E+00 +1.024931E+00 +1.593920E+00     +1.257470E+00 +2.196211E+00 +1.616730E+00     +1.257470E+00 +2.196211E+00 +1.616730E+00     +1.257470E+00 +2.196211E+00 +1.616730E+00     +1.257470E+00 +2.196211E+00 +1.616730E+00     +1.257470E+00 +2.196211E+00 +1.616730E+00     +1.257470E+00 +2.196211E+00 +1.616730E+00     +1.965630E+00 +2.237580E+00 +1.848070E+00     +1.965630E+00 +2.237580E+00 +1.848070E+00     +1.965630E+00 +2.237580E+00 +1.848070E+00     +1.965630E+00 +2.237580E+00 +1.848070E+00    
 +2.322279E+00 +1.183578E-01 +5.142279E+00     +2.322279E+00 +1.183578E-01 +5.142279E+00     +2.322279E+00 +1.183578E-01 +5.142279E+00     +2.322279E+00 +1.183578E-01 +5.142279E+00     +2.322279E+00 +1.183578E-01 +5.142279E+00     +4.449281E+00 +3.704584E-01 +2.769490E+00     +1.242140E+00 +6.487214E-01 +2.650963E-01     +1.242140E+00 +6.487214E-01 +2.650963E-01     +1.242140E+00 +6.487214E-01 +2.650963E-01     +5.400150E+00 +1.024931E+00 +1.593920E+00     +5.400150E+00 +1.024931E+00 +1.593920E+00     +1.257470E+00 +2.196211E+00 +1.616730E+00     +1.257470E+00 +2.196211E+00 +1.616730E+00     +1.257470E+00 +2.196211E+00 +1.616730E+00     +1.257470E+00 +2.196211E+00 +1.616730E+00     +1.257470E+00 +2.196211E+00 +1.616730E+00     +1.965630E+00 +2.237580E+00 +1.848070E+00     +1.965630E+00 +2.237580E+00 +1.848070E+00     +1.965630E+00 +2.237580E+00 +1.848070E+00     +1.965630E+00 +2.237580E+00 +1.848070E+00     +1.965630E+00 +2.237580E+00 +1.848070E+00    
 +2.322279E+00 +1.183578E-01 +5.142279E+00     +2.322279E+00 +1.183578E-01 +5.142279E+00     +2.322279E+00 +1.183578E-01 +5.142279E+00     +2.322279E+00 +1.183578E-01 +5.142279E+00     +2.322279E+00 +1.183578E-01 +5.142279E+00     +4.449281E+00 +3.704584E-01 +2.769490E+00     +4.449281E+00 +3.704584E-01 +2.769490E+00     +5.804571E+00 +9.694606E-01 +1.866090E+00     +5.804571E+00 +9.694606E-01 +1.866090E+00     +5.400150E+00 +1.024931E+00 +1.593920E+00     +5.400150E+00 +1.024931E+00 +1.593920E+00     +1.257470E+00 +2.196211E+00 +1.616730E+00     +1.257470E+00 +2.196211E+00 +1.616730E+00     +1.257470E+00 +2.196211E+00 +1.616730E+00     +1.257470E+00 +2.196211E+00 +1.616730E+00     +1.257470E+00 +2.196211E+00 +1.616730E+00     +1.965630E+00 +2.237580E+00 +1.848070E+00     +1.965630E+00 +2.237580E+00 +1.848070E+00     +1.965630E+00 +2.237580E+00 +1.848070E+00     +1.965630E+00 +2.237580E+00 +1.848070E+00     +1.965630E+00 +2.237580E+00 +1.848070E+00    
 +2.322279E+00 +1.183578E-01 +5.142279E+00     +2.322279E+00 +1.183578E-01 +5.142279E+00     +2.322279E+00 +1.183578E-01 +5.142279E+00     +2.322279E+00 +1.183578E-01 +5.142279E+00     +2.322279E+00 +1.183578E-01 +5.142279E+00     +4.449281E+00 +3.704584E-01 +2.769490E+00     +4.299280E+00 +9.850045E-01 +2.890799E+00     +4.299280E+00 +9.850045E-01 +2.890799E+00     +4.299280E+00 +9.850045E-01 +2.890799E+00     +4.299280E+00 +9.850045E-01 +2.890799E+00     +6.060300E+00 +2.163990E+00 +1.847630E+00     +2.105790E+00 +6.473322E-01 +5.527269E+00     +2.105790E+00 +6.473322E-01 +5.527269E+00     +2.105790E+00 +6.473322E-01 +5.527269E+00     +2.105790E+00 +6.473322E-01 +5.527269E+00     +2.105790E+00 +6.473322E-01 +5.527269E+00     +1.965630E+00 +2.237580E+00 +1.848070E+00     +1.965630E+00 +2.237580E+00 +1.848070E+00     +1.965630E+00 +2.237580E+00 +1.848070E+00     +1.965630E+00 +2.237580E+00 +1.848070E+00     +1.965630E+00 +2.237580E+00 +1.848070E+00    
 +2.322279E+00 +1.183578E-01 +5.142279E+00     +2.322279E+00 +1.183578E-01 +5.142279E+00     +2.322279E+00 +1.183578E-01 +5.142279E+00     +2.322279E+00 +1.183578E-01 +5.142279E+00     +2.322279E+00 +1.183578E-01 +5.142279E+00     +4.299280E+00 +9.850045E-01 +2.890799E+00     +4.299280E+00 +9.850045E-01 +2.890799E+00     +4.299280E+00 +9.850045E-01 +2.890799E+00     +4.299280E+00 +9.850045E-01 +2.890799E+00     +6.060300E+00 +2.163990E+00 +1.847630E+00     +6.060300E+00 +2.163990E+00 +1.847630E+00     +2.105790E+00 +6.473322E-01 +5.527269E+00     +1.930961E+00 +1.529690E+00 +2.736430E+00     +2.105790E+00 +6.473322E-01 +5.527269E+00     +2.105790E+00 +6.473322E-01 +5.527269E+00     +2.105790E+00 +6.473322E-01 +5.527269E+00     +2.105790E+00 +6.473322E-01 +5.527269E+00     +1.965630E+00 +2.237580E+00 +1.848070E+00     +1.965630E+00 +2.237580E+00 +1.848070E+00     +2.593263E-01 +1.744610E+00 +1.877301E+00     +1.965630E+00 +2.237580E+00 +1.848070E+00    
 +2.322279E+00 +1.183578E-01 +5.142279E+00     +2.322279E+00 +1.183578E-01 +5.142279E+00     +2.322279E+00 +1.183578E-01 +5.142279E+00     +4.881440E+00 +2.973851E+00 +5.034610E+00     +4.881440E+00 +2.973851E+00 +5.034610E+00     +4.881440E+00 +2.973851E+00 +5.034610E+00     +4.299280E+00 +9.850045E-01 +2.890799E+00     +4.299280E+00 +9.850045E-01 +2.890799E+00     +4.299280E+00 +9.850045E-01 +2.890799E+00     +6.060300E+00 +2.163990E+00 +1.847630E+00     +6.060300E+00 +2.163990E+00 +1.847630E+00     +2.105790E+00 +6.473322E-01 +5.527269E+00     +1.930961E+00 +1.529690E+00 +2.736430E+00     +1.930961E+00 +1.529690E+00 +2.736430E+00     +2.105790E+00 +6.473322E-01 +5.527269E+00     +2.105790E+00 +6.473322E-01 +5.527269E+00     +2.105790E+00 +6.473322E-01 +5.527269E+00     +1.965630E+00 +2.237580E+00 +1.848070E+00     +2.593263E-01 +1.744610E+00 +1.877301E+00     +2.593263E-01 +1.744610E+00 +1.877301E+00     +2.593263E-01 +1.744610E+00 +1.877301E+00    
 +5.041506E-01 +2.354709E+00 +2.561890E+00     +2.322279E+00 +1.183578E-01 +5.142279E+00     +2.322279E+00 +1.183578E-01 +5.142279E+00     +4.881440E+00 +2.973851E+00 +5.034610E+00     +4.881440E+00 +2.973851E+00 +5.034610E+00     +4.881440E+00 +2.973851E+00 +5.034610E+00     +4.299280E+00 +9.850045E-01 +2.890799E+00     +4.299280E+00 +9.850045E-01 +2.890799E+00     +4.299280E+00 +9.850045E-01 +2.890799E+00     +6.060300E+00 +2.163990E+00 +1.847630E+00     +6.060300E+00 +2.163990E+00 +1.847630E+00     +2.105790E+00 +6.473322E-01 +5.527269E+00     +1.930961E+00 +1.529690E+00 +2.736430E+00     +2.105790E+00 +6.473322E-01 +5.527269E+00     +2.105790E+00 +6.473322E-01 +5.527269E+00     +2.105790E+00 +6.473322E-01 +5.527269E+00     +2.105790E+00 +6.473322E-01 +5.527269E+00     +3.310951E+00 +5.815804E-01 +4.265421E+00     +5.041506E-01 +2.354709E+00 +2.561890E+00     +5.041506E-01 +2.354709E+00 +2.561890E+00     +5.041506E-01 +2.354709E+00 +2.561890E+00    
 +5.041506E-01 +2.354709E+00 +2.561890E+00     +3.436520E+00 +1.891780E+00 +5.593100E+00     +3.436520E+00 +1.891780E+00 +5.593100E+00     +4.881440E+00 +2.973851E+00 +5.034610E+00     +4.881440E+00 +2.973851E+00 +5.034610E+00     +4.881440E+00 +2.973851E+00 +5.034610E+00     +4.299280E+00 +9.850045E-01 +2.890799E+00     +4.299280E+00 +9.850045E-01 +2.890799E+00     +4.299280E+00 +9.850045E-01 +2.890799E+00     +6.060300E+00 +2.163990E+00 +1.847630E+00     +6.060300E+00 +2.163990E+00 +1.847630E+00     +2.105790E+00 +6.473322E-01 +5.527269E+00     +2.105790E+00 +6.473322E-01 +5.527269E+00     +2.105790E+00 +6.473322E-01 +5.527269E+00     +2.105790E+00 +6.473322E-01 +5.527269E+00     +2.105790E+00 +6.473322E-01 +5.527269E+00     +2.105790E+00 +6.473322E-01 +5.527269E+00     +2.105790E+00 +6.473322E-01 +5.527269E+00     +5.041506E-01 +2.354709E+00 +2.561890E+00     +5.041506E-01 +2.354709E+00 +2.561890E+00     +5.041506E-01 +2.354709E+00 +2.561890E+00    
 +3.436520E+00 +1.891780E+00 +5.593100E+00     +3.436520E+00 +1.891780E+00 +5.593100E+00     +3.436520E+00 +1.891780E+00 +5.593100E+00     +4.881440E+00 +2.973851E+00 +5.034610E+00     +4.881440E+00 +2.973851E+00 +5.034610E+00     +4.299280E+00 +9.850045E-01 +2.890799E+00     +4.299280E+00 +9.850045E-01 +2.890799E+00     +4.299280E+00 +9.850045E-01 +2.890799E+00     +4.299280E+00 +9.850045E-01 +2.890799E+00     +6.060300E+00 +2.163990E+00 +1.847630E+00     +6.060300E+00 +2.163990E+00 +1.847630E+00     +2.105790E+00 +6.473322E-01 +5.527269E+00     +2.105790E+00 +6.473322E-01 +5.527269E+00     +2.105790E+00 +6.473322E-01 +5.527269E+00     +2.105790E+00 +6.473322E-01 +5.527269E+00     +2.105790E+00 +6.473322E-01 +5.527269E+00     +2.105790E+00 +6.473322E-01 +5.527269E+00     +2.105790E+00 +6.473322E-01 +5.527269E+00     +5.041506E-01 +2.354709E+00 +2.561890E+00     +5.041506E-01 +2.354709E+00 +2.561890E+00     +2.177860E+00 +9.589939E-01 +4.821070E+00    
 +3.436520E+00 +1.891780E+00 +5.593100E+00     +3.436520E+00 +1.891780E+00 +5.593100E+00     +3.436520E+00 +1.891780E+00 +5.593100E+00     +3.436520E+00 +1.891780E+00 +5.593100E+00     +4.881440E+00 +2.973851E+00 +5.034610E+00     +4.299280E+00 +9.850045E-01 +2.890799E+00     +4.299280E+00 +9.850045E-01 +2.890799E+00     +4.299280E+00 +9.850045E-01 +2.890799E+00     +4.299280E+00 +9.850045E-01 +2.890799E+00     +3.758950E+00 +1.131211E+00 +3.495980E+00     +3.758950E+00 +1.131211E+00 +3.495980E+00     +2.105790E+00 +6.473322E-01 +5.527269E+00     +2.105790E+00 +6.473322E-01 +5.527269E+00     +2.105790E+00 +6.473322E-01 +5.527269E+00     +2.105790E+00 +6.473322E-01 +5.527269E+00     +2.105790E+00 +6.473322E-01 +5.527269E+00     +2.105790E+00 +6.473322E-01 +5.527269E+00     +2.075921E+00 +5.109731E-01 +4.872919E+00     +2.075921E+00 +5.109731E-01 +4.872919E+00     +5.041506E-01 +2.354709E+00 +2.561890E+00     +2.177860E+00 +9.589939E-01 +4.821070E+00    
 +3.436520E+00 +1.891780E+00 +5.593100E+00     +3.436520E+00 +1.891780E+00 +5.593100E+00     +7.364801E-01 +2.806779E+00 +3.325250E+00     +7.364801E-01 +2.806779E+00 +3.325250E+00     +7.364801E-01 +2.806779E+00 +3.325250E+00     +1.585410E+00 +1.724919E+00 +3.745440E+00     +1.585410E+00 +1.724919E+00 +3.745440E+00     +3.758950E+00 +1.131211E+00 +3.495980E+00     +3.758950E+00 +1.131211E+00 +3.495980E+00     +3.758950E+00 +1.131211E+00 +3.495980E+00     +3.758950E+00 +1.131211E+00 +3.495980E+00     +3.758950E+00 +1.131211E+00 +3.495980E+00     +6.194441E+00 +4.528937E-01 +4.405160E+00     +6.194441E+00 +4.528937E-01 +4.405160E+00     +6.194441E+00 +4.528937E-01 +4.405160E+00     +4.487301E+00 +1.771249E+00 +4.998571E+00     +2.075921E+00 +5.109731E-01 +4.872919E+00     +2.075921E+00 +5.109731E-01 +4.872919E+00     +2.075921E+00 +5.109731E-01 +4.872919E+00     +5.835107E-01 +6.701733E-01 +2.399269E-01     +5.835107E-01 +6.701733E-01 +2.399269E-01    
 +5.835107E-01 +6.701733E-01 +2.399269E-01     +3.436520E+00 +1.891780E+00 +5.593100E+00     +7.364801E-01 +2.806779E+00 +3.325250E+00     +1.458450E+00 +1.405009E+00 +2.669589E+00     +1.458450E+00 +1.405009E+00 +2.669589E+00     +3.758950E+00 +1.131211E+00 +3.495980E+00     +3.758950E+00 +1.131211E+00 +3.495980E+00     +3.758950E+00 +1.131211E+00 +3.495980E+00     +3.758950E+00 +1.131211E+00 +3.495980E+00     +3.758950E+00 +1.131211E+00 +3.495980E+00     +3.758950E+00 +1.131211E+00 +3.495980E+00     +3.479920E+00 +1.666229E+00 +5.212799E+00     +1.447506E-01 +7.757657E-01 +9.525362E-01     +1.447506E-01 +7.757657E-01 +9.525362E-01     +1.447506E-01 +7.757657E-01 +9.525362E-01     +1.447506E-01 +7.757657E-01 +9.525362E-01     +2.075921E+00 +5.109731E-01 +4.872919E+00     +2.075921E+00 +5.109731E-01 +4.872919E+00     +5.835107E-01 +6.701733E-01 +2.399269E-01     +5.835107E-01 +6.701733E-01 +2.399269E-01     +5.835107E-01 +6.701733E-01 +2.399269E-01    
 +5.835107E-01 +6.701733E-01 +2.399269E-01     +5.835107E-01 +6.701733E-01 +2.399269E-01     +1.458450E+00 +1.405009E+00 +2.669589E+00     +1.458450E+00 +1.405009E+00 +2.669589E+00     +1.458450E+00 +1.405009E+00 +2.669589E+00     +1.458450E+00 +1.405009E+00 +2.669589E+00     +3.758950E+00 +1.131211E+00 +3.495980E+00     +3.758950E+00 +1.131211E+00 +3.495980E+00     +3.758950E+00 +1.131211E+00 +3.495980E+00     +3.758950E+00 +1.131211E+00 +3.495980E+00     +3.758950E+00 +1.131211E+00 +3.495980E+00     +3.479920E+00 +1.666229E+00 +5.212799E+00     +1.447506E-01 +7.757657E-01 +9.525362E-01     +1.447506E-01 +7.757657E-01 +9.525362E-01     +1.447506E-01 +7.757657E-01 +9.525362E-01     +1.447506E-01 +7.757657E-01 +9.525362E-01     +4.465460E+00 +1.407840E+00 +3.380230E+00     +4.465460E+00 +1.407840E+00 +3.380230E+00     +5.835107E-01 +6.701733E-01 +2.399269E-01     +5.835107E-01 +6.701733E-01 +2.399269E-01     +5.835107E-01 +6.701733E-01 +2.399269E-01    
 +5.835107E-01 +6.701733E-01 +2.399269E-01     +5.835107E-01 +6.701733E-01 +2.399269E-01     +5.835107E-01 +6.701733E-01 +2.399269E-01     +2.283500E+00 +1.905899E+00 +4.867119E+00     +2.283500E+00 +1.905899E+00 +4.867119E+00     +3.045771E+00 +1.771399E+00 +5.542501E+00     +3.758950E+00 +1.131211E+00 +3.495980E+00     +3.758950E+00 +1.131211E+00 +3.495980E+00     +3.758950E+00 +1.131211E+00 +3.495980E+00     +3.758950E+00 +1.131211E+00 +3.495980E+00     +3.758950E+00 +1.131211E+00 +3.495980E+00     +5.053200E+00 +2.278360E+00 +8.272494E-01     +1.447506E-01 +7.757657E-01 +9.525362E-01     +1.447506E-01 +7.757657E-01 +9.525362E-01     +1.447506E-01 +7.757657E-01 +9.525362E-01     +4.465460E+00 +1.407840E+00 +3.380230E+00     +4.440599E+00 +1.314250E+00 +3.000511E+00     +4.440599E+00 +1.314250E+00 +3.000511E+00     +5.835107E-01 +6.701733E-01 +2.399269E-01     +5.835107E-01 +6.701733E-01 +2.399269E-01     +5.835107E-01 +6.701733E-01 +2.399269E-01    
 +5.835107E-01 +6.701733E-01 +2.399269E-01     +5.835107E-01 +6.701733E-01 +2.399269E-01     +2.283500E+00 +1.905899E+00 +4.867119E+00     +2.283500E+00 +1.905899E+00 +4.867119E+00     +2.283500E+00 +1.905899E+00 +4.867119E+00     +4.604489E+00 +1.104820E+00 +5.910870E+00     +6.950512E-01 +1.125559E+00 +6.052470E-01     +3.758950E+00 +1.131211E+00 +3.495980E+00     +3.758950E+00 +1.131211E+00 +3.495980E+00     +3.758950E+00 +1.131211E+00 +3.495980E+00     +5.053200E+00 +2.278360E+00 +8.272494E-01     +5.053200E+00 +2.278360E+00 +8.272494E-01     +5.053200E+00 +2.278360E+00 +8.272494E-01     +3.479920E+00 +1.666229E+00 +5.212799E+00     +3.479920E+00 +1.666229E+00 +5.212799E+00     +6.061860E+00 +1.336090E+00 +1.274289E+00     +4.440599E+00 +1.314250E+00 +3.000511E+00     +4.440599E+00 +1.314250E+00 +3.000511E+00     +4.440599E+00 +1.314250E+00 +3.000511E+00     +5.835107E-01 +6.701733E-01 +2.399269E-01     +5.835107E-01 +6.701733E-01 +2.399269E-01    
 +5.835107E-01 +6.701733E-01 +2.399269E-01     +5.835107E-01 +6.701733E-01 +2.399269E-01     +3.215650E+00 +1.546719E+00 +1.366820E+00     +3.215650E+00 +1.546719E+00 +1.366820E+00     +3.215650E+00 +1.546719E+00 +1.366820E+00     +3.215650E+00 +1.546719E+00 +1.366820E+00     +7.809755E-01 +1.321310E+00 +6.078340E+00     +7.809755E-01 +1.321310E+00 +6.078340E+00     +7.809755E-01 +1.321310E+00 +6.078340E+00     +5.354831E+00 +7.510396E-01 +2.302220E+00     +5.354831E+00 +7.510396E-01 +2.302220E+00     +5.354831E+00 +7.510396E-01 +2.302220E+00     +5.354831E+00 +7.510396E-01 +2.302220E+00     +5.354831E+00 +7.510396E-01 +2.302220E+00     +5.354831E+00 +7.510396E-01 +2.302220E+00     +6.061860E+00 +1.336090E+00 +1.274289E+00     +4.440599E+00 +1.314250E+00 +3.000511E+00     +4.440599E+00 +1.314250E+00 +3.000511E+00     +4.440599E+00 +1.314250E+00 +3.000511E+00     +5.835107E-01 +6.701733E-01 +2.399269E-01     +5.835107E-01 +6.701733E-01 +2.399269E-01    
 +5.835107E-01 +6.701733E-01 +2.399269E-01     +3.215650E+00 +1.546719E+00 +1.366820E+00     +3.215650E+00 +1.546719E+00 +1.366820E+00     +3.215650E+00 +1.546719E+00 +1.366820E+00     +3.215650E+00 +1.546719E+00 +1.366820E+00     +3.215650E+00 +1.546719E+00 +1.366820E+00     +7.809755E-01 +1.321310E+00 +6.078340E+00     +7.809755E-01 +1.321310E+00 +6.078340E+00     +7.809755E-01 +1.321310E+00 +6.078340E+00     +5.354831E+00 +7.510396E-01 +2.302220E+00     +5.354831E+00 +7.510396E-01 +2.302220E+00     +5.354831E+00 +7.510396E-01 +2.302220E+00     +5.354831E+00 +7.510396E-01 +2.302220E+00     +5.354831E+00 +7.510396E-01 +2.302220E+00     +5.354831E+00 +7.510396E-01 +2.302220E+00     +6.061860E+00 +1.336090E+00 +1.274289E+00     +6.061860E+00 +1.336090E+00 +1.274289E+00     +6.061860E+00 +1.336090E+00 +1.274289E+00     +6.061860E+00 +1.336090E+00 +1.274289E+00     +5.835107E-01 +6.701733E-01 +2.399269E-01     +5.835107E-01 +6.701733E-01 +2.399269E-01    
 +3.215650E+00 +1.546719E+00 +1.366820E+00     +3.215650E+00 +1.546719E+00 +1.366820E+00     +3.215650E+00 +1.546719E+00 +1.366820E+00     +3.215650E+00 +1.546719E+00 +1.366820E+00     +3.215650E+00 +1.546719E+00 +1.366820E+00     +3.215650E+00 +1.546719E+00 +1.366820E+00     +7.809755E-01 +1.321310E+00 +6.078340E+00     +7.809755E-01 +1.321310E+00 +6.078340E+00     +7.809755E-01 +1.321310E+00 +6.078340E+00     +5.560235E-01 +9.892072E-01 +3.192029E+00     +5.560235E-01 +9.892072E-01 +3.192029E+00     +5.560235E-01 +9.892072E-01 +3.192029E+00     +5.560235E-01 +9.892072E-01 +3.192029E+00     +1.257470E+00 +2.196211E+00 +1.616730E+00     +1.257470E+00 +2.196211E+00 +1.616730E+00     +1.257470E+00 +2.196211E+00 +1.616730E+00     +6.061860E+00 +1.336090E+00 +1.274289E+00     +6.061860E+00 +1.336090E+00 +1.274289E+00     +6.061860E+00 +1.336090E+00 +1.274289E+00     +5.835107E-01 +6.701733E-01 +2.399269E-01     +5.835107E-01 +6.701733E-01 +2.399269E-01    
 +2.322279E+00 +1.183578E-01 +5.142279E+00     +3.215650E+00 +1.546719E+00 +1.366820E+00     +4.152540E+00 +3.637894E-01 +2.961279E+00     +4.152540E+00 +3.637894E-01 +2.961279E+00     +4.152540E+00 +3.637894E-01 +2.961279E+00     +2.287620E-01 +8.959333E-01 +4.001450E+00     +1.242140E+00 +6.487214E-01 +2.650963E-01     +1.242140E+00 +6.487214E-01 +2.650963E-01     +1.242140E+00 +6.487214E-01 +2.650963E-01     +5.560235E-01 +9.892072E-01 +3.192029E+00     +5.560235E-01 +9.892072E-01 +3.192029E+00     +5.560235E-01 +9.892072E-01 +3.192029E+00     +5.560235E-01 +9.892072E-01 +3.192029E+00     +1.257470E+00 +2.196211E+00 +1.616730E+00     +1.257470E+00 +2.196211E+00 +1.616730E+00     +1.257470E+00 +2.196211E+00 +1.616730E+00     +1.257470E+00 +2.196211E+00 +1.616730E+00     +1.257470E+00 +2.196211E+00 +1.616730E+00     +2.278807E-01 +1.351590E+00 +4.007510E+00     +2.278807E-01 +1.351590E+00 +4.007510E+00     +2.278807E-01 +1.351590E+00 +4.007510E+00    
 +2.322279E+00 +1.183578E-01 +5.142279E+00     +2.322279E+00 +1.183578E-01 +5.142279E+00     +2.322279E+00 +1.183578E-01 +5.142279E+00     +4.152540E+00 +3.637894E-01 +2.961279E+00     +2.287620E-01 +8.959333E-01 +4.001450E+00     +2.287620E-01 +8.959333E-01 +4.001450E+00     +1.242140E+00 +6.487214E-01 +2.650963E-01     +1.242140E+00 +6.487214E-01 +2.650963E-01     +1.242140E+00 +6.487214E-01 +2.650963E-01     +1.242140E+00 +6.487214E-01 +2.650963E-01     +5.560235E-01 +9.892072E-01 +3.192029E+00     +5.560235E-01 +9.892072E-01 +3.192029E+00     +1.257470E+00 +2.196211E+00 +1.616730E+00     +1.257470E+00 +2.196211E+00 +1.616730E+00     +1.257470E+00 +2.196211E+00 +1.616730E+00     +1.257470E+00 +2.196211E+00 +1.616730E+00     +1.257470E+00 +2.196211E+00 +1.616730E+00     +1.257470E+00 +2.196211E+00 +1.616730E+00     +2.278807E-01 +1.351590E+00 +4.007510E+00     +2.278807E-01 +1.351590E+00 +4.007510E+00     +2.278807E-01 +1.351590E+00 +4.007510E+00    
 +2.322279E+00 +1.183578E-01 +5.142279E+00     +2.322279E+00 +1.183578E-01 +5.142279E+00     +2.322279E+00 +1.183578E-01 +5.142279E+00     +2.322279E+00 +1.183578E-01 +5.142279E+00     +2.287620E-01 +8.959333E-01 +4.001450E+00     +2.287620E-01 +8.959333E-01 +4.001450E+00     +1.242140E+00 +6.487214E-01 +2.650963E-01     +1.242140E+00 +6.487214E-01 +2.650963E-01     +1.242140E+00 +6.487214E-01 +2.650963E-01     +1.242140E+00 +6.487214E-01 +2.650963E-01     +1.257470E+00 +2.196211E+00 +1.616730E+00     +1.257470E+00 +2.196211E+00 +1.616730E+00     +1.257470E+00 +2.196211E+00 +1.616730E+00     +1.257470E+00 +2.196211E+00 +1.616730E+00     +1.257470E+00 +2.196211E+00 +1.616730E+00     +1.257470E+00 +2.196211E+00 +1.616730E+00     +1.257470E+00 +2.196211E+00 +1.616730E+00     +1.257470E+00 +2.196211E+00 +1.616730E+00     +2.278807E-01 +1.351590E+00 +4.007510E+00     +2.278807E-01 +1.351590E+00 +4.007510E+00     +2.278807E-01 +1.351590E+00 +4.007510E+00    
 +2.322279E+00 +1.183578E-01 +5.142279E+00     +2.322279E+00 +1.183578E-01 +5.142279E+00     +2.322279E+00 +1.183578E-01 +5.142279E+00     +2.322279E+00 +1.183578E-01 +5.142279E+00     +2.287620E-01 +8.959333E-01 +4.001450E+00     +2.287620E-01 +8.959333E-01 +4.001450E+00     +1.242140E+00 +6.487214E-01 +2.650963E-01     +1.242140E+00 +6.487214E-01 +2.650963E-01     +1.242140E+00 +6.487214E-01 +2.650963E-01     +1.242140E+00 +6.487214E-01 +2.650963E-01     +1.257470E+00 +2.196211E+00 +1.616730E+00     +1.257470E+00 +2.196211E+00 +1.616730E+00     +1.257470E+00 +2.196211E+00 +1.616730E+00     +1.257470E+00 +2.196211E+00 +1.616730E+00     +1.257470E+00 +2.196211E+00 +1.616730E+00     +1.257470E+00 +2.196211E+00 +1.616730E+00     +1.257470E+00 +2.196211E+00 +1.616730E+00     +1.965630E+00 +2.237580E+00 +1.848070E+00     +1.965630E+00 +2.237580E+00 +1.848070E+00     +1.965630E+00 +2.237580E+00 +1.848070E+00     +1.965630E+00 +2.237580E+00 +1.848070E+00    
 +2.322279E+00 +1.183578E-01 +5.142279E+00     +2.322279E+00 +1.183578E-01 +5.142279E+00     +2.322279E+00 +1.183578E-01 +5.142279E+00     +2.322279E+00 +1.183578E-01 +5.142279E+00     +2.322279E+00 +1.183578E-01 +5.142279E+00     +4.449281E+00 +3.704584E-01 +2.769490E+00     +1.114019E+00 +9.085102E-01 +5.696470E+00     +1.114019E+00 +9.085102E-01 +5.696470E+00     +1.114019E+00 +9.085102E-01 +5.696470E+00     +1.114019E+00 +9.085102E-01 +5.696470E+00     +1.257470E+00 +2.196211E+00 +1.616730E+00     +1.257470E+00 +2.196211E+00 +1.616730E+00     +1.257470E+00 +2.196211E+00 +1.616730E+00     +1.257470E+00 +2.196211E+00 +1.616730E+00     +1.257470E+00 +2.196211E+00 +1.616730E+00     +1.257470E+00 +2.196211E+00 +1.616730E+00     +1.965630E+00 +2.237580E+00 +1.848070E+00     +1.965630E+00 +2.237580E+00 +1.848070E+00     +1.965630E+00 +2.237580E+00 +1.848070E+00     +1.965630E+00 +2.237580E+00 +1.848070E+00     +1.965630E+00 +2.237580E+00 +1.848070E+00    
 +2.322279E+00 +1.183578E-01 +5.142279E+00     +2.322279E+00 +1.183578E-01 +5.142279E+00     +2.322279E+00 +1.183578E-01 +5.142279E+00     +2.322279E+00 +1.183578E-01 +5.142279E+00     +2.322279E+00 +1.183578E-01 +5.142279E+00     +4.449281E+00 +3.704584E-01 +2.769490E+00     +4.449281E+00 +3.704584E-01 +2.769490E+00     +5.804571E+00 +9.694606E-01 +1.866090E+00     +1.114019E+00 +9.085102E-01 +5.696470E+00     +1.114019E+00 +9.085102E-01 +5.696470E+00     +1.257470E+00 +2.196211E+00 +1.616730E+00     +1.257470E+00 +2.196211E+00 +1.616730E+00     +1.257470E+00 +2.196211E+00 +1.616730E+00     +1.257470E+00 +2.196211E+00 +1.616730E+00     +1.257470E+00 +2.196211E+00 +1.616730E+00     +2.105790E+00 +6.473322E-01 +5.527269E+00     +1.965630E+00 +2.237580E+00 +1.848070E+00     +1.965630E+00 +2.237580E+00 +1.848070E+00     +1.965630E+00 +2.237580E+00 +1.848070E+00     +2.538630E+00 +2.996119E-01 +4.839250E+00     +1.965630E+00 +2.237580E+00 +1.848070E+00    
 +2.322279E+00 +1.183578E-01 +5.142279E+00     +2.322279E+00 +1.183578E-01 +5.142279E+00     +2.322279E+00 +1.183578E-01 +5.142279E+00     +2.322279E+00 +1.183578E-01 +5.142279E+00     +2.322279E+00 +1.183578E-01 +5.142279E+00     +4.449281E+00 +3.704584E-01 +2.769490E+00     +4.299280E+00 +9.850045E-01 +2.890799E+00     +4.299280E+00 +9.850045E-01 +2.890799E+00     +4.299280E+00 +9.850045E-01 +2.890799E+00     +6.060300E+00 +2.163990E+00 +1.847630E+00     +6.060300E+00 +2.163990E+00 +1.847630E+00     +2.105790E+00 +6.473322E-01 +5.527269E+00     +2.105790E+00 +6.473322E-01 +5.527269E+00     +2.105790E+00 +6.473322E-01 +5.527269E+00     +2.105790E+00 +6.473322E-01 +5.527269E+00     +2.105790E+00 +6.473322E-01 +5.527269E+00     +2.105790E+00 +6.473322E-01 +5.527269E+00     +1.965630E+00 +2.237580E+00 +1.848070E+00     +1.965630E+00 +2.237580E+00 +1.848070E+00     +1.965630E+00 +2.237580E+00 +1.848070E+00     +1.965630E+00 +2.237580E+00 +1.848070E+00    
 +2.322279E+00 +1.183578E-01 +5.142279E+00     +2.322279E+00 +1.183578E-01 +5.142279E+00     +2.322279E+00 +1.183578E-01 +5.142279E+00     +2.322279E+00 +1.183578E-01 +5.142279E+00     +4.299280E+00 +9.850045E-01 +2.890799E+00     +4.299280E+00 +9.850045E-01 +2.890799E+00     +4.299280E+00 +9.850045E-01 +2.890799E+00     +4.299280E+00 +9.850045E-01 +2.890799E+00     +6.060300E+00 +2.163990E+00 +1.847630E+00     +6.060300E+00 +2.163990E+00 +1.847630E+00     +6.060300E+00 +2.163990E+00 +1.847630E+00     +2.105790E+00 +6.473322E-01 +5.527269E+00     +1.930961E+00 +1.529690E+00 +2.736430E+00     +2.105790E+00 +6.473322E-01 +5.527269E+00     +2.105790E+00 +6.473322E-01 +5.527269E+00     +2.105790E+00 +6.473322E-01 +5.527269E+00     +2.105790E+00 +6.473322E-01 +5.527269E+00     +1.965630E+00 +2.237580E+00 +1.848070E+00     +1.965630E+00 +2.237580E+00 +1.848070E+00     +1.965630E+00 +2.237580E+00 +1.848070E+00     +1.965630E+00 +2.237580E+00 +1.848070E+00    
 +5.041506E-01 +2.354709E+00 +2.561890E+00     +2.322279E+00 +1.183578E-01 +5.142279E+00     +2.322279E+00 +1.183578E-01 +5.142279E+00     +2.322279E+00 +1.183578E-01 +5.142279E+00     +4.299280E+00 +9.850045E-01 +2.890799E+00     +4.299280E+00 +9.850045E-01 +2.890799E+00     +4.299280E+00 +9.850045E-01 +2.890799E+00     +4.299280E+00 +9.850045E-01 +2.890799E+00     +6.060300E+00 +2.163990E+00 +1.847630E+00     +6.060300E+00 +2.163990E+00 +1.847630E+00     +6.060300E+00 +2.163990E+00 +1.847630E+00     +2.105790E+00 +6.473322E-01 +5.527269E+00     +1.930961E+00 +1.529690E+00 +2.736430E+00     +1.930961E+00 +1.529690E+00 +2.736430E+00     +2.105790E+00 +6.473322E-01 +5.527269E+00     +2.105790E+00 +6.473322E-01 +5.527269E+00     +2.105790E+00 +6.473322E-01 +5.527269E+00     +5.041506E-01 +2.354709E+00 +2.561890E+00     +5.041506E-01 +2.354709E+00 +2.561890E+00     +5.041506E-01 +2.354709E+00 +2.561890E+00     +5.041506E-01 +2.354709E+00 +2.561890E+00    
 +5.041506E-01 +2.354709E+00 +2.561890E+00     +5.041506E-01 +2.354709E+00 +2.561890E+00     +2.322279E+00 +1.183578E-01 +5.142279E+00     +4.299280E+00 +9.850045E-01 +2.890799E+00     +4.299280E+00 +9.850045E-01 +2.890799E+00     +4.299280E+00 +9.850045E-01 +2.890799E+00     +4.299280E+00 +9.850045E-01 +2.890799E+00     +4.299280E+00 +9.850045E-01 +2.890799E+00     +6.060300E+00 +2.163990E+00 +1.847630E+00     +6.060300E+00 +2.163990E+00 +1.847630E+00     +6.060300E+00 +2.163990E+00 +1.847630E+00     +2.105790E+00 +6.473322E-01 +5.527269E+00     +1.930961E+00 +1.529690E+00 +2.736430E+00     +1.930961E+00 +1.529690E+00 +2.736430E+00     +2.105790E+00 +6.473322E-01 +5.527269E+00     +2.105790E+00 +6.473322E-01 +5.527269E+00     +2.105790E+00 +6.473322E-01 +5.527269E+00     +5.041506E-01 +2.354709E+00 +2.561890E+00     +5.041506E-01 +2.354709E+00 +2.561890E+00     +5.041506E-01 +2.354709E+00 +2.561890E+00     +5.041506E-01 +2.354709E+00 +2.561890E+00    
 +5.041506E-01 +2.354709E+00 +2.561890E+00     +5.041506E-01 +2.354709E+00 +2.561890E+00     +7.364801E-01 +2.806779E+00 +3.325250E+00     +4.299280E+00 +9.850045E-01 +2.890799E+00     +4.299280E+00 +9.850045E-01 +2.890799E+00     +4.299280E+00 +9.850045E-01 +2.890799E+00     +4.299280E+00 +9.850045E-01 +2.890799E+00     +4.299280E+00 +9.850045E-01 +2.890799E+00     +6.060300E+00 +2.163990E+00 +1.847630E+00     +6.060300E+00 +2.163990E+00 +1.847630E+00     +6.060300E+00 +2.163990E+00 +1.847630E+00     +2.105790E+00 +6.473322E-01 +5.527269E+00     +2.105790E+00 +6.473322E-01 +5.527269E+00     +2.105790E+00 +6.473322E-01 +5.527269E+00     +2.105790E+00 +6.473322E-01 +5.527269E+00     +2.105790E+00 +6.473322E-01 +5.527269E+00     +2.105790E+00 +6.473322E-01 +5.527269E+00     +5.041506E-01 +2.354709E+00 +2.561890E+00     +5.041506E-01 +2.354709E+00 +2.561890E+00     +5.041506E-01 +2.354709E+00 +2.561890E+00     +5.041506E-01 +2.354709E+00 +2.561890E+00    
 +7.364801E-01 +2.806779E+00 +3.325250E+00     +7.364801E-01 +2.806779E+00 +3.325250E+00     +7.364801E-01 +2.806779E+00 +3.325250E+00     +7.364801E-01 +2.806779E+00 +3.325250E+00     +1.914110E+00 +1.422990E+00 +5.496099E+00     +1.914110E+00 +1.422990E+00 +5.496099E+00     +4.299280E+00 +9.850045E-01 +2.890799E+00     +4.299280E+00 +9.850045E-01 +2.890799E+00     +4.299280E+00 +9.850045E-01 +2.890799E+00     +6.060300E+00 +2.163990E+00 +1.847630E+00     +6.060300E+00 +2.163990E+00 +1.847630E+00     +2.105790E+00 +6.473322E-01 +5.527269E+00     +2.105790E+00 +6.473322E-01 +5.527269E+00     +2.105790E+00 +6.473322E-01 +5.527269E+00     +2.105790E+00 +6.473322E-01 +5.527269E+00     +2.105790E+00 +6.473322E-01 +5.527269E+00     +2.105790E+00 +6.473322E-01 +5.527269E+00     +5.041506E-01 +2.354709E+00 +2.561890E+00     +5.041506E-01 +2.354709E+00 +2.561890E+00     +5.041506E-01 +2.354709E+00 +2.561890E+00     +5.041506E-01 +2.354709E+00 +2.561890E+00    
 +7.364801E-01 +2.806779E+00 +3.325250E+00     +7.364801E-01 +2.806779E+00 +3.325250E+00     +7.364801E-01 +2.806779E+00 +3.325250E+00     +7.364801E-01 +2.806779E+00 +3.325250E+00     +1.914110E+00 +1.422990E+00 +5.496099E+00     +1.914110E+00 +1.422990E+00 +5.496099E+00     +1.914110E+00 +1.422990E+00 +5.496099E+00     +5.157350E+00 +1.765779E+00 +1.156281E+00     +4.299280E+00 +9.850045E-01 +2.890799E+00     +3.758950E+00 +1.131211E+00 +3.495980E+00     +3.758950E+00 +1.131211E+00 +3.495980E+00     +2.105790E+00 +6.473322E-01 +5.527269E+00     +2.105790E+00 +6.473322E-01 +5.527269E+00     +2.105790E+00 +6.473322E-01 +5.527269E+00     +2.105790E+00 +6.473322E-01 +5.527269E+00     +2.105790E+00 +6.473322E-01 +5.527269E+00     +2.105790E+00 +6.473322E-01 +5.527269E+00     +5.041506E-01 +2.354709E+00 +2.561890E+00     +5.041506E-01 +2.354709E+00 +2.561890E+00     +5.041506E-01 +2.354709E+00 +2.561890E+00     +5.041506E-01 +2.354709E+00 +2.561890E+00    
 +7.364801E-01 +2.806779E+00 +3.325250E+00     +7.364801E-01 +2.806779E+00 +3.325250E+00     +7.364801E-01 +2.806779E+00 +3.325250E+00     +7.364801E-01 +2.806779E+00 +3.325250E+00     +7.364801E-01 +2.806779E+00 +3.325250E+00     +1.914110E+00 +1.422990E+00 +5.496099E+00     +5.157350E+00 +1.765779E+00 +1.156281E+00     +5.157350E+00 +1.765779E+00 +1.156281E+00     +3.758950E+00 +1.131211E+00 +3.495980E+00     +3.758950E+00 +1.131211E+00 +3.495980E+00     +3.758950E+00 +1.131211E+00 +3.495980E+00     +3.758950E+00 +1.131211E+00 +3.495980E+00     +3.758950E+00 +1.131211E+00 +3.495980E+00     +6.194441E+00 +4.528937E-01 +4.405160E+00     +6.194441E+00 +4.528937E-01 +4.405160E+00     +2.105790E+00 +6.473322E-01 +5.527269E+00     +2.105790E+00 +6.473322E-01 +5.527269E+00     +2.075921E+00 +5.109731E-01 +4.872919E+00     +5.835107E-01 +6.701733E-01 +2.399269E-01     +5.835107E-01 +6.701733E-01 +2.399269E-01     +5.835107E-01 +6.701733E-01 +2.399269E-01    
 +5.835107E-01 +6.701733E-01 +2.399269E-01     +7.364801E-01 +2.806779E+00 +3.325250E+00     +7.364801E-01 +2.806779E+00 +3.325250E+00     +1.458450E+00 +1.405009E+00 +2.669589E+00     +1.458450E+00 +1.405009E+00 +2.669589E+00     +1.458450E+00 +1.405009E+00 +2.669589E+00     +3.758950E+00 +1.131211E+00 +3.495980E+00     +3.758950E+00 +1.131211E+00 +3.495980E+00     +3.758950E+00 +1.131211E+00 +3.495980E+00     +3.758950E+00 +1.131211E+00 +3.495980E+00     +3.758950E+00 +1.131211E+00 +3.495980E+00     +3.758950E+00 +1.131211E+00 +3.495980E+00     +3.758950E+00 +1.131211E+00 +3.495980E+00     +1.447506E-01 +7.757657E-01 +9.525362E-01     +1.447506E-01 +7.757657E-01 +9.525362E-01     +2.045610E+00 +1.109190E+00 +5.290170E+00     +2.045610E+00 +1.109190E+00 +5.290170E+00     +5.835107E-01 +6.701733E-01 +2.399269E-01     +5.835107E-01 +6.701733E-01 +2.399269E-01     +5.835107E-01 +6.701733E-01 +2.399269E-01     +5.835107E-01 +6.701733E-01 +2.399269E-01    
 +5.835107E-01 +6.701733E-01 +2.399269E-01     +5.835107E-01 +6.701733E-01 +2.399269E-01     +1.458450E+00 +1.405009E+00 +2.669589E+00     +1.458450E+00 +1.405009E+00 +2.669589E+00     +1.458450E+00 +1.405009E+00 +2.669589E+00     +1.458450E+00 +1.405009E+00 +2.669589E+00     +3.758950E+00 +1.131211E+00 +3.495980E+00     +3.758950E+00 +1.131211E+00 +3.495980E+00     +3.758950E+00 +1.131211E+00 +3.495980E+00     +3.758950E+00 +1.131211E+00 +3.495980E+00     +3.758950E+00 +1.131211E+00 +3.495980E+00     +3.758950E+00 +1.131211E+00 +3.495980E+00     +3.758950E+00 +1.131211E+00 +3.495980E+00     +1.447506E-01 +7.757657E-01 +9.525362E-01     +1.447506E-01 +7.757657E-01 +9.525362E-01     +2.045610E+00 +1.109190E+00 +5.290170E+00     +2.045610E+00 +1.109190E+00 +5.290170E+00     +5.835107E-01 +6.701733E-01 +2.399269E-01     +5.835107E-01 +6.701733E-01 +2.399269E-01     +5.835107E-01 +6.701733E-01 +2.399269E-01     +5.835107E-01 +6.701733E-01 +2.399269E-01    
 +5.835107E-01 +6.701733E-01 +2.399269E-01     +5.835107E-01 +6.701733E-01 +2.399269E-01     +1.458450E+00 +1.405009E+00 +2.669589E+00     +1.458450E+00 +1.405009E+00 +2.669589E+00     +1.458450E+00 +1.405009E+00 +2.669589E+00     +6.950512E-01 +1.125559E+00 +6.052470E-01     +3.758950E+00 +1.131211E+00 +3.495980E+00     +3.758950E+00 +1.131211E+00 +3.495980E+00     +3.758950E+00 +1.131211E+00 +3.495980E+00     +3.758950E+00 +1.131211E+00 +3.495980E+00     +3.758950E+00 +1.131211E+00 +3.495980E+00     +5.053200E+00 +2.278360E+00 +8.272494E-01     +5.053200E+00 +2.278360E+00 +8.272494E-01     +1.447506E-01 +7.757657E-01 +9.525362E-01     +1.447506E-01 +7.757657E-01 +9.525362E-01     +2.045610E+00 +1.109190E+00 +5.290170E+00     +4.440599E+00 +1.314250E+00 +3.000511E+00     +4.440599E+00 +1.314250E+00 +3.000511E+00     +4.440599E+00 +1.314250E+00 +3.000511E+00     +5.835107E-01 +6.701733E-01 +2.399269E-01     +5.835107E-01 +6.701733E-01 +2.399269E-01    
 +5.835107E-01 +6.701733E-01 +2.399269E-01     +5.835107E-01 +6.701733E-01 +2.399269E-01     +3.215650E+00 +1.546719E+00 +1.366820E+00     +3.215650E+00 +1.546719E+00 +1.366820E+00     +6.950512E-01 +1.125559E+00 +6.052470E-01     +6.950512E-01 +1.125559E+00 +6.052470E-01     +6.950512E-01 +1.125559E+00 +6.052470E-01     +3.758950E+00 +1.131211E+00 +3.495980E+00     +3.758950E+00 +1.131211E+00 +3.495980E+00     +3.758950E+00 +1.131211E+00 +3.495980E+00     +5.053200E+00 +2.278360E+00 +8.272494E-01     +5.053200E+00 +2.278360E+00 +8.272494E-01     +5.053200E+00 +2.278360E+00 +8.272494E-01     +1.211759E+00 +3.141589E+00 +1.492600E+00     +1.211759E+00 +3.141589E+00 +1.492600E+00     +4.440599E+00 +1.314250E+00 +3.000511E+00     +4.440599E+00 +1.314250E+00 +3.000511E+00     +4.440599E+00 +1.314250E+00 +3.000511E+00     +4.440599E+00 +1.314250E+00 +3.000511E+00     +5.835107E-01 +6.701733E-01 +2.399269E-01     +5.835107E-01 +6.701733E-01 +2.399269E-01    
 +5.835107E-01 +6.701733E-01 +2.399269E-01     +5.835107E-01 +6.701733E-01 +2.399269E-01     +3.215650E+00 +1.546719E+00 +1.366820E+00     +3.215650E+00 +1.546719E+00 +1.366820E+00     +3.215650E+00 +1.546719E+00 +1.366820E+00     +6.950512E-01 +1.125559E+00 +6.052470E-01     +6.950512E-01 +1.125559E+00 +6.052470E-01     +3.758950E+00 +1.131211E+00 +3.495980E+00     +3.758950E+00 +1.131211E+00 +3.495980E+00     +3.758950E+00 +1.131211E+00 +3.495980E+00     +5.053200E+00 +2.278360E+00 +8.272494E-01     +5.053200E+00 +2.278360E+00 +8.272494E-01     +5.053200E+00 +2.278360E+00 +8.272494E-01     +5.354831E+00 +7.510396E-01 +2.302220E+00     +5.354831E+00 +7.510396E-01 +2.302220E+00     +4.440599E+00 +1.314250E+00 +3.000511E+00     +4.440599E+00 +1.314250E+00 +3.000511E+00     +4.440599E+00 +1.314250E+00 +3.000511E+00     +4.440599E+00 +1.314250E+00 +3.000511E+00     +5.835107E-01 +6.701733E-01 +2.399269E-01     +5.835107E-01 +6.701733E-01 +2.399269E-01    
 +5.835107E-01 +6.701733E-01 +2.399269E-01     +3.215650E+00 +1.546719E+00 +1.366820E+00     +3.215650E+00 +1.546719E+00 +1.366820E+00     +3.281540E+00 +1.465940E+00 +4.276310E+00     +3.215650E+00 +1.546719E+00 +1.366820E+00     +3.215650E+00 +1.546719E+00 +1.366820E+00     +7.809755E-01 +1.321310E+00 +6.078340E+00     +7.809755E-01 +1.321310E+00 +6.078340E+00     +7.809755E-01 +1.321310E+00 +6.078340E+00     +5.560235E-01 +9.892072E-01 +3.192029E+00     +5.560235E-01 +9.892072E-01 +3.192029E+00     +7.390335E-01 +1.618220E+00 +1.758470E+00     +5.354831E+00 +7.510396E-01 +2.302220E+00     +5.354831E+00 +7.510396E-01 +2.302220E+00     +5.354831E+00 +7.510396E-01 +2.302220E+00     +4.440599E+00 +1.314250E+00 +3.000511E+00     +4.440599E+00 +1.314250E+00 +3.000511E+00     +4.440599E+00 +1.314250E+00 +3.000511E+00     +4.440599E+00 +1.314250E+00 +3.000511E+00     +5.835107E-01 +6.701733E-01 +2.399269E-01     +5.835107E-01 +6.701733E-01 +2.399269E-01    
 +3.215650E+00 +1.546719E+00 +1.366820E+00     +3.215650E+00 +1.546719E+00 +1.366820E+00     +3.215650E+00 +1.546719E+00 +1.366820E+00     +3.215650E+00 +1.546719E+00 +1.366820E+00     +3.215650E+00 +1.546719E+00 +1.366820E+00     +3.215650E+00 +1.546719E+00 +1.366820E+00     +3.215650E+00 +1.546719E+00 +1.366820E+00     +7.809755E-01 +1.321310E+00 +6.078340E+00     +5.560235E-01 +9.892072E-01 +3.192029E+00     +5.560235E-01 +9.892072E-01 +3.192029E+00     +5.560235E-01 +9.892072E-01 +3.192029E+00     +5.560235E-01 +9.892072E-01 +3.192029E+00     +5.560235E-01 +9.892072E-01 +3.192029E+00     +5.560235E-01 +9.892072E-01 +3.192029E+00     +1.257470E+00 +2.196211E+00 +1.616730E+00     +1.224610E+00 +1.377710E+00 +3.225890E+00     +1.224610E+00 +1.377710E+00 +3.225890E+00     +1.224610E+00 +1.377710E+00 +3.225890E+00     +4.440599E+00 +1.314250E+00 +3.000511E+00     +5.835107E-01 +6.701733E-01 +2.399269E-01     +5.835107E-01 +6.701733E-01 +2.399269E-01    
 +2.072921E+00 +2.692690E+00 +2.495990E+00     +3.215650E+00 +1.546719E+00 +1.366820E+00     +4.152540E+00 +3.637894E-01 +2.961279E+00     +4.506899E+00 +1.473110E+00 +3.913939E+00     +4.152540E+00 +3.637894E-01 +2.961279E+00     +3.215650E+00 +1.546719E+00 +1.366820E+00     +1.242140E+00 +6.487214E-01 +2.650963E-01     +1.242140E+00 +6.487214E-01 +2.650963E-01     +1.242140E+00 +6.487214E-01 +2.650963E-01     +5.560235E-01 +9.892072E-01 +3.192029E+00     +5.560235E-01 +9.892072E-01 +3.192029E+00     +5.560235E-01 +9.892072E-01 +3.192029E+00     +5.560235E-01 +9.892072E-01 +3.192029E+00     +5.560235E-01 +9.892072E-01 +3.192029E+00     +1.257470E+00 +2.196211E+00 +1.616730E+00     +1.257470E+00 +2.196211E+00 +1.616730E+00     +1.224610E+00 +1.377710E+00 +3.225890E+00     +2.278807E-01 +1.351590E+00 +4.007510E+00     +2.278807E-01 +1.351590E+00 +4.007510E+00     +2.278807E-01 +1.351590E+00 +4.007510E+00     +2.278807E-01 +1.351590E+00 +4.007510E+00    
 +2.072921E+00 +2.692690E+00 +2.495990E+00     +2.072921E+00 +2.692690E+00 +2.495990E+00     +4.152540E+00 +3.637894E-01 +2.961279E+00     +4.152540E+00 +3.637894E-01 +2.961279E+00     +4.152540E+00 +3.637894E-01 +2.961279E+00     +2.287620E-01 +8.959333E-01 +4.001450E+00     +1.242140E+00 +6.487214E-01 +2.650963E-01     +6.031421E-01 +1.663569E+00 +2.653550E+00     +1.114019E+00 +9.085102E-01 +5.696470E+00     +5.560235E-01 +9.892072E-01 +3.192029E+00     +5.560235E-01 +9.892072E-01 +3.192029E+00     +5.560235E-01 +9.892072E-01 +3.192029E+00     +5.560235E-01 +9.892072E-01 +3.192029E+00     +1.257470E+00 +2.196211E+00 +1.616730E+00     +1.257470E+00 +2.196211E+00 +1.616730E+00     +1.257470E+00 +2.196211E+00 +1.616730E+00     +1.257470E+00 +2.196211E+00 +1.616730E+00     +2.278807E-01 +1.351590E+00 +4.007510E+00     +2.278807E-01 +1.351590E+00 +4.007510E+00     +2.278807E-01 +1.351590E+00 +4.007510E+00     +2.278807E-01 +1.351590E+00 +4.007510E+00    
 +2.322279E+00 +1.183578E-01 +5.142279E+00     +2.322279E+00 +1.183578E-01 +5.142279E+00     +2.322279E+00 +1.183578E-01 +5.142279E+00     +4.152540E+00 +3.637894E-01 +2.961279E+00     +2.287620E-01 +8.959333E-01 +4.001450E+00     +2.287620E-01 +8.959333E-01 +4.001450E+00     +6.031421E-01 +1.663569E+00 +2.653550E+00     +6.031421E-01 +1.663569E+00 +2.653550E+00     +6.031421E-01 +1.663569E+00 +2.653550E+00     +1.114019E+00 +9.085102E-01 +5.696470E+00     +5.560235E-01 +9.892072E-01 +3.192029E+00     +1.257470E+00 +2.196211E+00 +1.616730E+00     +1.257470E+00 +2.196211E+00 +1.616730E+00     +1.257470E+00 +2.196211E+00 +1.616730E+00     +1.257470E+00 +2.196211E+00 +1.616730E+00     +1.257470E+00 +2.196211E+00 +1.616730E+00     +1.257470E+00 +2.196211E+00 +1.616730E+00     +2.278807E-01 +1.351590E+00 +4.007510E+00     +2.278807E-01 +1.351590E+00 +4.007510E+00     +2.278807E-01 +1.351590E+00 +4.007510E+00     +2.278807E-01 +1.351590E+00 +4.007510E+00    
 +2.322279E+00 +1.183578E-01 +5.142279E+00     +2.322279E+00 +1.183578E-01 +5.142279E+00     +2.322279E+00 +1.183578E-01 +5.142279E+00     +2.322279E+00 +1.183578E-01 +5.142279E+00     +2.287620E-01 +8.959333E-01 +4.001450E+00     +2.287620E-01 +8.959333E-01 +4.001450E+00     +1.114019E+00 +9.085102E-01 +5.696470E+00     +6.031421E-01 +1.663569E+00 +2.653550E+00     +1.114019E+00 +9.085102E-01 +5.696470E+00     +1.114019E+00 +9.085102E-01 +5.696470E+00     +1.257470E+00 +2.196211E+00 +1.616730E+00     +1.257470E+00 +2.196211E+00 +1.616730E+00     +1.257470E+00 +2.196211E+00 +1.616730E+00     +1.257470E+00 +2.196211E+00 +1.616730E+00     +1.257470E+00 +2.196211E+00 +1.616730E+00     +1.257470E+00 +2.196211E+00 +1.616730E+00     +1.257470E+00 +2.196211E+00 +1.616730E+00     +1.965630E+00 +2.237580E+00 +1.848070E+00     +2.278807E-01 +1.351590E+00 +4.007510E+00     +2.278807E-01 +1.351590E+00 +4.007510E+00     +1.965630E+00 +2.237580E+00 +1.848070E+00    
 +2.322279E+00 +1.183578E-01 +5.142279E+00     +2.322279E+00 +1.183578E-01 +5.142279E+00     +2.322279E+00 +1.183578E-01 +5.142279E+00     +2.322279E+00 +1.183578E-01 +5.142279E+00     +1.865129E-01 +4.469998E-01 +4.307549E+00     +1.865129E-01 +4.469998E-01 +4.307549E+00     +1.114019E+00 +9.085102E-01 +5.696470E+00     +1.114019E+00 +9.085102E-01 +5.696470E+00     +1.114019E+00 +9.085102E-01 +5.696470E+00     +1.114019E+00 +9.085102E-01 +5.696470E+00     +1.114019E+00 +9.085102E-01 +5.696470E+00     +1.257470E+00 +2.196211E+00 +1.616730E+00     +1.257470E+00 +2.196211E+00 +1.616730E+00     +1.257470E+00 +2.196211E+00 +1.616730E+00     +1.257470E+00 +2.196211E+00 +1.616730E+00     +3.881970E+00 +6.810327E-01 +3.088199E+00     +3.881970E+00 +6.810327E-01 +3.088199E+00     +1.965630E+00 +2.237580E+00 +1.848070E+00     +1.965630E+00 +2.237580E+00 +1.848070E+00     +1.965630E+00 +2.237580E+00 +1.848070E+00     +1.965630E+00 +2.237580E+00 +1.848070E+00    
 +2.322279E+00 +1.183578E-01 +5.142279E+00     +2.322279E+00 +1.183578E-01 +5.142279E+00     +2.322279E+00 +1.183578E-01 +5.142279E+00     +2.322279E+00 +1.183578E-01 +5.142279E+00     +1.865129E-01 +4.469998E-01 +4.307549E+00     +1.865129E-01 +4.469998E-01 +4.307549E+00     +1.865129E-01 +4.469998E-01 +4.307549E+00     +1.114019E+00 +9.085102E-01 +5.696470E+00     +1.114019E+00 +9.085102E-01 +5.696470E+00     +1.114019E+00 +9.085102E-01 +5.696470E+00     +1.114019E+00 +9.085102E-01 +5.696470E+00     +1.257470E+00 +2.196211E+00 +1.616730E+00     +1.257470E+00 +2.196211E+00 +1.616730E+00     +2.105790E+00 +6.473322E-01 +5.527269E+00     +2.105790E+00 +6.473322E-01 +5.527269E+00     +3.881970E+00 +6.810327E-01 +3.088199E+00     +3.881970E+00 +6.810327E-01 +3.088199E+00     +3.881970E+00 +6.810327E-01 +3.088199E+00     +1.965630E+00 +2.237580E+00 +1.848070E+00     +2.538630E+00 +2.996119E-01 +4.839250E+00     +1.965630E+00 +2.237580E+00 +1.848070E+00    
 +2.322279E+00 +1.183578E-01 +5.142279E+00     +2.322279E+00 +1.183578E-01 +5.142279E+00     +2.322279E+00 +1.183578E-01 +5.142279E+00     +2.322279E+00 +1.183578E-01 +5.142279E+00     +1.865129E-01 +4.469998E-01 +4.307549E+00     +1.865129E-01 +4.469998E-01 +4.307549E+00     +1.865129E-01 +4.469998E-01 +4.307549E+00     +6.060300E+00 +2.163990E+00 +1.847630E+00     +6.060300E+00 +2.163990E+00 +1.847630E+00     +6.060300E+00 +2.163990E+00 +1.847630E+00     +6.060300E+00 +2.163990E+00 +1.847630E+00     +2.105790E+00 +6.473322E-01 +5.527269E+00     +2.105790E+00 +6.473322E-01 +5.527269E+00     +2.105790E+00 +6.473322E-01 +5.527269E+00     +2.105790E+00 +6.473322E-01 +5.527269E+00     +2.105790E+00 +6.473322E-01 +5.527269E+00     +3.881970E+00 +6.810327E-01 +3.088199E+00     +3.881970E+00 +6.810327E-01 +3.088199E+00     +1.965630E+00 +2.237580E+00 +1.848070E+00     +1.965630E+00 +2.237580E+00 +1.848070E+00     +1.965630E+00 +2.237580E+00 +1.848070E+00    
 +5.041506E-01 +2.354709E+00 +2.561890E+00     +2.322279E+00 +1.183578E-01 +5.142279E+00     +2.322279E+00 +1.183578E-01 +5.142279E+00     +1.198790E+00 +2.438080E+00 +8.100614E-01     +1.198790E+00 +2.438080E+00 +8.100614E-01     +4.299280E+00 +9.850045E-01 +2.890799E+00     +4.299280E+00 +9.850045E-01 +2.890799E+00     +6.060300E+00 +2.163990E+00 +1.847630E+00     +6.060300E+00 +2.163990E+00 +1.847630E+00     +6.060300E+00 +2.163990E+00 +1.847630E+00     +6.060300E+00 +2.163990E+00 +1.847630E+00     +2.105790E+00 +6.473322E-01 +5.527269E+00     +2.105790E+00 +6.473322E-01 +5.527269E+00     +2.105790E+00 +6.473322E-01 +5.527269E+00     +2.105790E+00 +6.473322E-01 +5.527269E+00     +2.105790E+00 +6.473322E-01 +5.527269E+00     +2.105790E+00 +6.473322E-01 +5.527269E+00     +5.041506E-01 +2.354709E+00 +2.561890E+00     +5.041506E-01 +2.354709E+00 +2.561890E+00     +5.041506E-01 +2.354709E+00 +2.561890E+00     +5.041506E-01 +2.354709E+00 +2.561890E+00    
 +5.041506E-01 +2.354709E+00 +2.561890E+00     +5.041506E-01 +2.354709E+00 +2.561890E+00     +1.198790E+00 +2.438080E+00 +8.100614E-01     +1.198790E+00 +2.438080E+00 +8.100614E-01     +6.237170E+00 +1.034020E+00 +5.949609E+00     +6.237170E+00 +1.034020E+00 +5.949609E+00     +4.299280E+00 +9.850045E-01 +2.890799E+00     +6.060300E+00 +2.163990E+00 +1.847630E+00     +6.060300E+00 +2.163990E+00 +1.847630E+00     +6.060300E+00 +2.163990E+00 +1.847630E+00     +6.060300E+00 +2.163990E+00 +1.847630E+00     +2.105790E+00 +6.473322E-01 +5.527269E+00     +1.930961E+00 +1.529690E+00 +2.736430E+00     +1.930961E+00 +1.529690E+00 +2.736430E+00     +2.105790E+00 +6.473322E-01 +5.527269E+00     +2.105790E+00 +6.473322E-01 +5.527269E+00     +2.105790E+00 +6.473322E-01 +5.527269E+00     +5.041506E-01 +2.354709E+00 +2.561890E+00     +5.041506E-01 +2.354709E+00 +2.561890E+00     +5.041506E-01 +2.354709E+00 +2.561890E+00     +5.041506E-01 +2.354709E+00 +2.561890E+00    
 +5.041506E-01 +2.354709E+00 +2.561890E+00     +5.041506E-01 +2.354709E+00 +2.561890E+00     +1.198790E+00 +2.438080E+00 +8.100614E-01     +6.237170E+00 +1.034020E+00 +5.949609E+00     +6.237170E+00 +1.034020E+00 +5.949609E+00     +6.237170E+00 +1.034020E+00 +5.949609E+00     +4.299280E+00 +9.850045E-01 +2.890799E+00     +6.060300E+00 +2.163990E+00 +1.847630E+00     +6.060300E+00 +2.163990E+00 +1.847630E+00     +6.060300E+00 +2.163990E+00 +1.847630E+00     +6.060300E+00 +2.163990E+00 +1.847630E+00     +2.105790E+00 +6.473322E-01 +5.527269E+00     +2.105790E+00 +6.473322E-01 +5.527269E+00     +1.930961E+00 +1.529690E+00 +2.736430E+00     +2.105790E+00 +6.473322E-01 +5.527269E+00     +2.105790E+00 +6.473322E-01 +5.527269E+00     +2.105790E+00 +6.473322E-01 +5.527269E+00     +5.041506E-01 +2.354709E+00 +2.561890E+00     +5.041506E-01 +2.354709E+00 +2.561890E+00     +5.041506E-01 +2.354709E+00 +2.561890E+00     +5.041506E-01 +2.354709E+00 +2.561890E+00    
 +5.041506E-01 +2.354709E+00 +2.561890E+00     +5.041506E-01 +2.354709E+00 +2.561890E+00     +7.364801E-01 +2.806779E+00 +3.325250E+00     +1.914110E+00 +1.422990E+00 +5.496099E+00     +1.914110E+00 +1.422990E+00 +5.496099E+00     +1.914110E+00 +1.422990E+00 +5.496099E+00     +1.914110E+00 +1.422990E+00 +5.496099E+00     +4.299280E+00 +9.850045E-01 +2.890799E+00     +6.060300E+00 +2.163990E+00 +1.847630E+00     +6.060300E+00 +2.163990E+00 +1.847630E+00     +6.060300E+00 +2.163990E+00 +1.847630E+00     +2.105790E+00 +6.473322E-01 +5.527269E+00     +2.105790E+00 +6.473322E-01 +5.527269E+00     +2.105790E+00 +6.473322E-01 +5.527269E+00     +2.105790E+00 +6.473322E-01 +5.527269E+00     +2.105790E+00 +6.473322E-01 +5.527269E+00     +2.105790E+00 +6.473322E-01 +5.527269E+00     +5.041506E-01 +2.354709E+00 +2.561890E+00     +5.041506E-01 +2.354709E+00 +2.561890E+00     +5.041506E-01 +2.354709E+00 +2.561890E+00     +5.041506E-01 +2.354709E+00 +2.561890E+00    
 +7.364801E-01 +2.806779E+00 +3.325250E+00     +7.364801E-01 +2.806779E+00 +3.325250E+00     +7.364801E-01 +2.806779E+00 +3.325250E+00     +7.364801E-01 +2.806779E+00 +3.325250E+00     +1.914110E+00 +1.422990E+00 +5.496099E+00     +1.914110E+00 +1.422990E+00 +5.496099E+00     +1.914110E+00 +1.422990E+00 +5.496099E+00     +1.914110E+00 +1.422990E+00 +5.496099E+00     +6.060300E+00 +2.163990E+00 +1.847630E+00     +6.060300E+00 +2.163990E+00 +1.847630E+00     +6.060300E+00 +2.163990E+00 +1.847630E+00     +2.105790E+00 +6.473322E-01 +5.527269E+00     +2.105790E+00 +6.473322E-01 +5.527269E+00     +2.105790E+00 +6.473322E-01 +5.527269E+00     +2.105790E+00 +6.473322E-01 +5.527269E+00     +2.105790E+00 +6.473322E-01 +5.527269E+00     +2.105790E+00 +6.473322E-01 +5.527269E+00     +5.041506E-01 +2.354709E+00 +2.561890E+00     +5.041506E-01 +2.354709E+00 +2.561890E+00     +5.041506E-01 +2.354709E+00 +2.561890E+00     +5.041506E-01 +2.354709E+00 +2.561890E+00    
 +7.364801E-01 +2.806779E+00 +3.325250E+00     +7.364801E-01 +2.806779E+00 +3.325250E+00     +7.364801E-01 +2.806779E+00 +3.325250E+00     +7.364801E-01 +2.806779E+00 +3.325250E+00     +1.914110E+00 +1.422990E+00 +5.496099E+00     +1.914110E+00 +1.422990E+00 +5.496099E+00     +1.914110E+00 +1.422990E+00 +5.496099E+00     +5.157350E+00 +1.765779E+00 +1.156281E+00     +5.157350E+00 +1.765779E+00 +1.156281E+00     +3.758950E+00 +1.131211E+00 +3.495980E+00     +3.758950E+00 +1.131211E+00 +3.495980E+00     +3.758950E+00 +1.131211E+00 +3.495980E+00     +2.105790E+00 +6.473322E-01 +5.527269E+00     +2.105790E+00 +6.473322E-01 +5.527269E+00     +2.105790E+00 +6.473322E-01 +5.527269E+00     +2.105790E+00 +6.473322E-01 +5.527269E+00     +2.105790E+00 +6.473322E-01 +5.527269E+00     +5.041506E-01 +2.354709E+00 +2.561890E+00     +5.041506E-01 +2.354709E+00 +2.561890E+00     +4.824010E+00 +8.755496E-01 +5.217430E+00     +5.041506E-01 +2.354709E+00 +2.561890E+00    
 +7.364801E-01 +2.806779E+00 +3.325250E+00     +7.364801E-01 +2.806779E+00 +3.325250E+00     +7.364801E-01 +2.806779E+00 +3.325250E+00     +7.364801E-01 +2.806779E+00 +3.325250E+00     +1.914110E+00 +1.422990E+00 +5.496099E+00     +1.914110E+00 +1.422990E+00 +5.496099E+00     +5.157350E+00 +1.765779E+00 +1.156281E+00     +5.157350E+00 +1.765779E+00 +1.156281E+00     +3.758950E+00 +1.131211E+00 +3.495980E+00     +3.758950E+00 +1.131211E+00 +3.495980E+00     +3.758950E+00 +1.131211E+00 +3.495980E+00     +3.758950E+00 +1.131211E+00 +3.495980E+00     +3.758950E+00 +1.131211E+00 +3.495980E+00     +2.105790E+00 +6.473322E-01 +5.527269E+00     +2.105790E+00 +6.473322E-01 +5.527269E+00     +2.105790E+00 +6.473322E-01 +5.527269E+00     +2.105790E+00 +6.473322E-01 +5.527269E+00     +4.824010E+00 +8.755496E-01 +5.217430E+00     +4.824010E+00 +8.755496E-01 +5.217430E+00     +4.824010E+00 +8.755496E-01 +5.217430E+00     +4.824010E+00 +8.755496E-01 +5.217430E+00    
 +5.835107E-01 +6.701733E-01 +2.399269E-01     +7.364801E-01 +2.806779E+00 +3.325250E+00     +7.364801E-01 +2.806779E+00 +3.325250E+00     +7.364801E-01 +2.806779E+00 +3.325250E+00     +1.914110E+00 +1.422990E+00 +5.496099E+00     +5.157350E+00 +1.765779E+00 +1.156281E+00     +5.157350E+00 +1.765779E+00 +1.156281E+00     +5.157350E+00 +1.765779E+00 +1.156281E+00     +3.758950E+00 +1.131211E+00 +3.495980E+00     +3.758950E+00 +1.131211E+00 +3.495980E+00     +3.758950E+00 +1.131211E+00 +3.495980E+00     +3.758950E+00 +1.131211E+00 +3.495980E+00     +3.758950E+00 +1.131211E+00 +3.495980E+00     +3.758950E+00 +1.131211E+00 +3.495980E+00     +1.447506E-01 +7.757657E-01 +9.525362E-01     +2.045610E+00 +1.109190E+00 +5.290170E+00     +4.440599E+00 +1.314250E+00 +3.000511E+00     +5.835107E-01 +6.701733E-01 +2.399269E-01     +5.835107E-01 +6.701733E-01 +2.399269E-01     +5.835107E-01 +6.701733E-01 +2.399269E-01     +5.835107E-01 +6.701733E-01 +2.399269E-01    
 +5.835107E-01 +6.701733E-01 +2.399269E-01     +5.835107E-01 +6.701733E-01 +2.399269E-01     +1.458450E+00 +1.405009E+00 +2.669589E+00     +1.458450E+00 +1.405009E+00 +2.669589E+00     +1.458450E+00 +1.405009E+00 +2.669589E+00     +6.950512E-01 +1.125559E+00 +6.052470E-01     +3.758950E+00 +1.131211E+00 +3.495980E+00     +3.758950E+00 +1.131211E+00 +3.495980E+00     +3.758950E+00 +1.131211E+00 +3.495980E+00     +3.758950E+00 +1.131211E+00 +3.495980E+00     +3.758950E+00 +1.131211E+00 +3.495980E+00     +3.758950E+00 +1.131211E+00 +3.495980E+00     +3.758950E+00 +1.131211E+00 +3.495980E+00     +3.758950E+00 +1.131211E+00 +3.495980E+00     +1.447506E-01 +7.757657E-01 +9.525362E-01     +2.045610E+00 +1.109190E+00 +5.290170E+00     +4.440599E+00 +1.314250E+00 +3.000511E+00     +5.835107E-01 +6.701733E-01 +2.399269E-01     +5.835107E-01 +6.701733E-01 +2.399269E-01     +5.835107E-01 +6.701733E-01 +2.399269E-01     +5.835107E-01 +6.701733E-01 +2.399269E-01    
 +5.835107E-01 +6.701733E-01 +2.399269E-01     +5.835107E-01 +6.701733E-01 +2.399269E-01     +5.433811E+00 +1.679949E+00 +5.185890E+00     +1.458450E+00 +1.405009E+00 +2.669589E+00     +6.950512E-01 +1.125559E+00 +6.052470E-01     +6.950512E-01 +1.125559E+00 +6.052470E-01     +6.950512E-01 +1.125559E+00 +6.052470E-01     +3.758950E+00 +1.131211E+00 +3.495980E+00     +3.758950E+00 +1.131211E+00 +3.495980E+00     +3.758950E+00 +1.131211E+00 +3.495980E+00     +3.758950E+00 +1.131211E+00 +3.495980E+00     +3.758950E+00 +1.131211E+00 +3.495980E+00     +1.521451E+00 +2.460431E+00 +1.499360E+00     +1.521451E+00 +2.460431E+00 +1.499360E+00     +1.521451E+00 +2.460431E+00 +1.499360E+00     +4.440599E+00 +1.314250E+00 +3.000511E+00     +4.440599E+00 +1.314250E+00 +3.000511E+00     +4.440599E+00 +1.314250E+00 +3.000511E+00     +2.013930E+00 +1.089689E+00 +4.875490E+00     +5.835107E-01 +6.701733E-01 +2.399269E-01     +5.835107E-01 +6.701733E-01 +2.399269E-01    
 +5.835107E-01 +6.701733E-01 +2.399269E-01     +5.835107E-01 +6.701733E-01 +2.399269E-01     +5.433811E+00 +1.679949E+00 +5.185890E+00     +6.950512E-01 +1.125559E+00 +6.052470E-01     +6.950512E-01 +1.125559E+00 +6.052470E-01     +6.950512E-01 +1.125559E+00 +6.052470E-01     +6.950512E-01 +1.125559E+00 +6.052470E-01     +3.758950E+00 +1.131211E+00 +3.495980E+00     +3.758950E+00 +1.131211E+00 +3.495980E+00     +3.758950E+00 +1.131211E+00 +3.495980E+00     +3.758950E+00 +1.131211E+00 +3.495980E+00     +5.053200E+00 +2.278360E+00 +8.272494E-01     +1.521451E+00 +2.460431E+00 +1.499360E+00     +1.521451E+00 +2.460431E+00 +1.499360E+00     +1.521451E+00 +2.460431E+00 +1.499360E+00     +4.440599E+00 +1.314250E+00 +3.000511E+00     +4.440599E+00 +1.314250E+00 +3.000511E+00     +4.440599E+00 +1.314250E+00 +3.000511E+00     +2.013930E+00 +1.089689E+00 +4.875490E+00     +2.013930E+00 +1.089689E+00 +4.875490E+00     +5.835107E-01 +6.701733E-01 +2.399269E-01    
 +5.835107E-01 +6.701733E-01 +2.399269E-01     +5.433811E+00 +1.679949E+00 +5.185890E+00     +3.215650E+00 +1.546719E+00 +1.366820E+00     +3.215650E+00 +1.546719E+00 +1.366820E+00     +6.950512E-01 +1.125559E+00 +6.052470E-01     +6.950512E-01 +1.125559E+00 +6.052470E-01     +6.950512E-01 +1.125559E+00 +6.052470E-01     +3.758950E+00 +1.131211E+00 +3.495980E+00     +3.758950E+00 +1.131211E+00 +3.495980E+00     +3.758950E+00 +1.131211E+00 +3.495980E+00     +3.758950E+00 +1.131211E+00 +3.495980E+00     +5.053200E+00 +2.278360E+00 +8.272494E-01     +5.053200E+00 +2.278360E+00 +8.272494E-01     +1.521451E+00 +2.460431E+00 +1.499360E+00     +1.521451E+00 +2.460431E+00 +1.499360E+00     +4.440599E+00 +1.314250E+00 +3.000511E+00     +4.440599E+00 +1.314250E+00 +3.000511E+00     +4.440599E+00 +1.314250E+00 +3.000511E+00     +2.013930E+00 +1.089689E+00 +4.875490E+00     +2.013930E+00 +1.089689E+00 +4.875490E+00     +5.835107E-01 +6.701733E-01 +2.399269E-01    
 +5.835107E-01 +6.701733E-01 +2.399269E-01     +3.215650E+00 +1.546719E+00 +1.366820E+00     +3.215650E+00 +1.546719E+00 +1.366820E+00     +3.215650E+00 +1.546719E+00 +1.366820E+00     +3.215650E+00 +1.546719E+00 +1.366820E+00     +2.543310E+00 +1.935980E+00 +2.518671E+00     +2.543310E+00 +1.935980E+00 +2.518671E+00     +3.758950E+00 +1.131211E+00 +3.495980E+00     +3.758950E+00 +1.131211E+00 +3.495980E+00     +3.758950E+00 +1.131211E+00 +3.495980E+00     +6.054039E+00 +8.540367E-01 +9.057613E-01     +6.054039E+00 +8.540367E-01 +9.057613E-01     +6.054039E+00 +8.540367E-01 +9.057613E-01     +5.560235E-01 +9.892072E-01 +3.192029E+00     +1.224610E+00 +1.377710E+00 +3.225890E+00     +1.224610E+00 +1.377710E+00 +3.225890E+00     +4.440599E+00 +1.314250E+00 +3.000511E+00     +4.440599E+00 +1.314250E+00 +3.000511E+00     +2.013930E+00 +1.089689E+00 +4.875490E+00     +2.013930E+00 +1.089689E+00 +4.875490E+00     +2.013930E+00 +1.089689E+00 +4.875490E+00    
 +2.072921E+00 +2.692690E+00 +2.495990E+00     +2.072921E+00 +2.692690E+00 +2.495990E+00     +3.215650E+00 +1.546719E+00 +1.366820E+00     +3.215650E+00 +1.546719E+00 +1.366820E+00     +3.215650E+00 +1.546719E+00 +1.366820E+00     +2.543310E+00 +1.935980E+00 +2.518671E+00     +2.543310E+00 +1.935980E+00 +2.518671E+00     +2.543310E+00 +1.935980E+00 +2.518671E+00     +3.612540E+00 +1.265290E+00 +3.981019E+00     +3.612540E+00 +1.265290E+00 +3.981019E+00     +6.054039E+00 +8.540367E-01 +9.057613E-01     +6.054039E+00 +8.540367E-01 +9.057613E-01     +5.560235E-01 +9.892072E-01 +3.192029E+00     +5.560235E-01 +9.892072E-01 +3.192029E+00     +1.224610E+00 +1.377710E+00 +3.225890E+00     +1.224610E+00 +1.377710E+00 +3.225890E+00     +1.224610E+00 +1.377710E+00 +3.225890E+00     +1.224610E+00 +1.377710E+00 +3.225890E+00     +2.013930E+00 +1.089689E+00 +4.875490E+00     +2.013930E+00 +1.089689E+00 +4.875490E+00     +2.013930E+00 +1.089689E+00 +4.875490E+00    
 +2.072921E+00 +2.692690E+00 +2.495990E+00     +2.072921E+00 +2.692690E+00 +2.495990E+00     +2.072921E+00 +2.692690E+00 +2.495990E+00     +4.152540E+00 +3.637894E-01 +2.961279E+00     +4.152540E+00 +3.637894E-01 +2.961279E+00     +1.114019E+00 +9.085102E-01 +5.696470E+00     +1.114019E+00 +9.085102E-01 +5.696470E+00     +1.114019E+00 +9.085102E-01 +5.696470E+00     +3.612540E+00 +1.265290E+00 +3.981019E+00     +3.612540E+00 +1.265290E+00 +3.981019E+00     +6.054039E+00 +8.540367E-01 +9.057613E-01     +6.054039E+00 +8.540367E-01 +9.057613E-01     +5.560235E-01 +9.892072E-01 +3.192029E+00     +5.560235E-01 +9.892072E-01 +3.192029E+00     +1.224610E+00 +1.377710E+00 +3.225890E+00     +1.224610E+00 +1.377710E+00 +3.225890E+00     +1.224610E+00 +1.377710E+00 +3.225890E+00     +1.224610E+00 +1.377710E+00 +3.225890E+00     +3.656170E+00 +2.634601E+00 +5.280831E+00     +3.656170E+00 +2.634601E+00 +5.280831E+00     +3.656170E+00 +2.634601E+00 +5.280831E+00    
 +2.072921E+00 +2.692690E+00 +2.495990E+00     +2.072921E+00 +2.692690E+00 +2.495990E+00     +2.072921E+00 +2.692690E+00 +2.495990E+00     +4.152540E+00 +3.637894E-01 +2.961279E+00     +1.114019E+00 +9.085102E-01 +5.696470E+00     +1.114019E+00 +9.085102E-01 +5.696470E+00     +1.114019E+00 +9.085102E-01 +5.696470E+00     +1.114019E+00 +9.085102E-01 +5.696470E+00     +1.114019E+00 +9.085102E-01 +5.696470E+00     +3.612540E+00 +1.265290E+00 +3.981019E+00     +6.054039E+00 +8.540367E-01 +9.057613E-01     +6.054039E+00 +8.540367E-01 +9.057613E-01     +6.054039E+00 +8.540367E-01 +9.057613E-01     +1.257470E+00 +2.196211E+00 +1.616730E+00     +1.224610E+00 +1.377710E+00 +3.225890E+00     +1.224610E+00 +1.377710E+00 +3.225890E+00     +1.224610E+00 +1.377710E+00 +3.225890E+00     +1.224610E+00 +1.377710E+00 +3.225890E+00     +3.656170E+00 +2.634601E+00 +5.280831E+00     +3.656170E+00 +2.634601E+00 +5.280831E+00     +3.656170E+00 +2.634601E+00 +5.280831E+00    
 +2.072921E+00 +2.692690E+00 +2.495990E+00     +2.072921E+00 +2.692690E+00 +2.495990E+00     +2.072921E+00 +2.692690E+00 +2.495990E+00     +4.152540E+00 +3.637894E-01 +2.961279E+00     +1.114019E+00 +9.085102E-01 +5.696470E+00     +1.114019E+00 +9.085102E-01 +5.696470E+00     +1.114019E+00 +9.085102E-01 +5.696470E+00     +1.114019E+00 +9.085102E-01 +5.696470E+00     +1.114019E+00 +9.085102E-01 +5.696470E+00     +1.114019E+00 +9.085102E-01 +5.696470E+00     +6.054039E+00 +8.540367E-01 +9.057613E-01     +6.054039E+00 +8.540367E-01 +9.057613E-01     +1.257470E+00 +2.196211E+00 +1.616730E+00     +1.257470E+00 +2.196211E+00 +1.616730E+00     +1.257470E+00 +2.196211E+00 +1.616730E+00     +1.257470E+00 +2.196211E+00 +1.616730E+00     +1.224610E+00 +1.377710E+00 +3.225890E+00     +3.656170E+00 +2.634601E+00 +5.280831E+00     +3.656170E+00 +2.634601E+00 +5.280831E+00     +3.656170E+00 +2.634601E+00 +5.280831E+00     +3.656170E+00 +2.634601E+00 +5.280831E+00    
 +2.322279E+00 +1.183578E-01 +5.142279E+00     +2.322279E+00 +1.183578E-01 +5.142279E+00     +2.322279E+00 +1.183578E-01 +5.142279E+00     +2.322279E+00 +1.183578E-01 +5.142279E+00     +1.114019E+00 +9.085102E-01 +5.696470E+00     +1.114019E+00 +9.085102E-01 +5.696470E+00     +1.114019E+00 +9.085102E-01 +5.696470E+00     +1.114019E+00 +9.085102E-01 +5.696470E+00     +1.114019E+00 +9.085102E-01 +5.696470E+00     +1.114019E+00 +9.085102E-01 +5.696470E+00     +6.054039E+00 +8.540367E-01 +9.057613E-01     +1.257470E+00 +2.196211E+00 +1.616730E+00     +1.257470E+00 +2.196211E+00 +1.616730E+00     +1.257470E+00 +2.196211E+00 +1.616730E+00     +1.257470E+00 +2.196211E+00 +1.616730E+00     +1.257470E+00 +2.196211E+00 +1.616730E+00     +3.881970E+00 +6.810327E-01 +3.088199E+00     +3.656170E+00 +2.634601E+00 +5.280831E+00     +3.656170E+00 +2.634601E+00 +5.280831E+00     +3.656170E+00 +2.634601E+00 +5.280831E+00     +3.656170E+00 +2.634601E+00 +5.280831E+00    
 +4.046370E+00 +2.683341E+00 +1.019586E-01     +4.046370E+00 +2.683341E+00 +1.019586E-01     +4.046370E+00 +2.683341E+00 +1.019586E-01     +4.046370E+00 +2.683341E+00 +1.019586E-01     +4.046370E+00 +2.683341E+00 +1.019586E-01     +1.865129E-01 +4.469998E-01 +4.307549E+00     +1.114019E+00 +9.085102E-01 +5.696470E+00     +1.114019E+00 +9.085102E-01 +5.696470E+00     +1.114019E+00 +9.085102E-01 +5.696470E+00     +1.114019E+00 +9.085102E-01 +5.696470E+00     +1.114019E+00 +9.085102E-01 +5.696470E+00     +1.257470E+00 +2.196211E+00 +1.616730E+00     +1.257470E+00 +2.196211E+00 +1.616730E+00     +1.257470E+00 +2.196211E+00 +1.616730E+00     +3.881970E+00 +6.810327E-01 +3.088199E+00     +3.881970E+00 +6.810327E-01 +3.088199E+00     +3.881970E+00 +6.810327E-01 +3.088199E+00     +3.881970E+00 +6.810327E-01 +3.088199E+00     +3.881970E+00 +6.810327E-01 +3.088199E+00     +3.881970E+00 +6.810327E-01 +3.088199E+00     +1.965630E+00 +2.237580E+00 +1.848070E+00    
 +4.046370E+00 +2.683341E+00 +1.019586E-01     +4.046370E+00 +2.683341E+00 +1.019586E-01     +4.046370E+00 +2.683341E+00 +1.019586E-01     +4.046370E+00 +2.683341E+00 +1.019586E-01     +1.865129E-01 +4.469998E-01 +4.307549E+00     +1.865129E-01 +4.469998E-01 +4.307549E+00     +1.865129E-01 +4.469998E-01 +4.307549E+00     +1.114019E+00 +9.085102E-01 +5.696470E+00     +1.114019E+00 +9.085102E-01 +5.696470E+00     +1.114019E+00 +9.085102E-01 +5.696470E+00     +1.114019E+00 +9.085102E-01 +5.696470E+00     +2.593730E+00 +2.615301E+00 +5.023920E+00     +2.593730E+00 +2.615301E+00 +5.023920E+00     +2.593730E+00 +2.615301E+00 +5.023920E+00     +3.881970E+00 +6.810327E-01 +3.088199E+00     +3.881970E+00 +6.810327E-01 +3.088199E+00     +3.881970E+00 +6.810327E-01 +3.088199E+00     +3.881970E+00 +6.810327E-01 +3.088199E+00     +3.881970E+00 +6.810327E-01 +3.088199E+00     +3.881970E+00 +6.810327E-01 +3.088199E+00     +3.881970E+00 +6.810327E-01 +3.088199E+00    
 +5.041506E-01 +2.354709E+00 +2.561890E+00     +1.198790E+00 +2.438080E+00 +8.100614E-01     +4.046370E+00 +2.683341E+00 +1.019586E-01     +4.046370E+00 +2.683341E+00 +1.019586E-01     +4.046370E+00 +2.683341E+00 +1.019586E-01     +1.865129E-01 +4.469998E-01 +4.307549E+00     +1.865129E-01 +4.469998E-01 +4.307549E+00     +1.865129E-01 +4.469998E-01 +4.307549E+00     +1.070719E+00 +3.908229E-01 +4.967207E-01     +1.070719E+00 +3.908229E-01 +4.967207E-01     +6.060300E+00 +2.163990E+00 +1.847630E+00     +2.593730E+00 +2.615301E+00 +5.023920E+00     +2.593730E+00 +2.615301E+00 +5.023920E+00     +2.593730E+00 +2.615301E+00 +5.023920E+00     +2.593730E+00 +2.615301E+00 +5.023920E+00     +3.881970E+00 +6.810327E-01 +3.088199E+00     +3.881970E+00 +6.810327E-01 +3.088199E+00     +3.881970E+00 +6.810327E-01 +3.088199E+00     +3.881970E+00 +6.810327E-01 +3.088199E+00     +2.247513E-01 +6.254876E-01 +4.094131E+00     +2.247513E-01 +6.254876E-01 +4.094131E+00    
 +5.041506E-01 +2.354709E+00 +2.561890E+00     +1.198790E+00 +2.438080E+00 +8.100614E-01     +1.198790E+00 +2.438080E+00 +8.100614E-01     +1.198790E+00 +2.438080E+00 +8.100614E-01     +1.198790E+00 +2.438080E+00 +8.100614E-01     +1.198790E+00 +2.438080E+00 +8.100614E-01     +1.865129E-01 +4.469998E-01 +4.307549E+00     +1.070719E+00 +3.908229E-01 +4.967207E-01     +1.070719E+00 +3.908229E-01 +4.967207E-01     +1.070719E+00 +3.908229E-01 +4.967207E-01     +6.060300E+00 +2.163990E+00 +1.847630E+00     +3.729481E+00 +8.935056E-01 +5.063010E+00     +2.593730E+00 +2.615301E+00 +5.023920E+00     +2.593730E+00 +2.615301E+00 +5.023920E+00     +2.593730E+00 +2.615301E+00 +5.023920E+00     +2.105790E+00 +6.473322E-01 +5.527269E+00     +3.881970E+00 +6.810327E-01 +3.088199E+00     +3.881970E+00 +6.810327E-01 +3.088199E+00     +5.041506E-01 +2.354709E+00 +2.561890E+00     +2.247513E-01 +6.254876E-01 +4.094131E+00     +5.041506E-01 +2.354709E+00 +2.561890E+00    
 +5.041506E-01 +2.354709E+00 +2.561890E+00     +1.198790E+00 +2.438080E+00 +8.100614E-01     +1.198790E+00 +2.438080E+00 +8.100614E-01     +1.198790E+00 +2.438080E+00 +8.100614E-01     +1.198790E+00 +2.438080E+00 +8.100614E-01     +6.237170E+00 +1.034020E+00 +5.949609E+00     +6.237170E+00 +1.034020E+00 +5.949609E+00     +1.070719E+00 +3.908229E-01 +4.967207E-01     +1.070719E+00 +3.908229E-01 +4.967207E-01     +6.060300E+00 +2.163990E+00 +1.847630E+00     +6.060300E+00 +2.163990E+00 +1.847630E+00     +2.105790E+00 +6.473322E-01 +5.527269E+00     +2.105790E+00 +6.473322E-01 +5.527269E+00     +1.930961E+00 +1.529690E+00 +2.736430E+00     +2.105790E+00 +6.473322E-01 +5.527269E+00     +2.105790E+00 +6.473322E-01 +5.527269E+00     +2.105790E+00 +6.473322E-01 +5.527269E+00     +5.041506E-01 +2.354709E+00 +2.561890E+00     +5.041506E-01 +2.354709E+00 +2.561890E+00     +5.041506E-01 +2.354709E+00 +2.561890E+00     +5.041506E-01 +2.354709E+00 +2.561890E+00    
 +5.041506E-01 +2.354709E+00 +2.561890E+00     +5.041506E-01 +2.354709E+00 +2.561890E+00     +1.198790E+00 +2.438080E+00 +8.100614E-01     +1.198790E+00 +2.438080E+00 +8.100614E-01     +6.237170E+00 +1.034020E+00 +5.949609E+00     +6.237170E+00 +1.034020E+00 +5.949609E+00     +6.237170E+00 +1.034020E+00 +5.949609E+00     +6.060300E+00 +2.163990E+00 +1.847630E+00     +6.060300E+00 +2.163990E+00 +1.847630E+00     +6.060300E+00 +2.163990E+00 +1.847630E+00     +6.060300E+00 +2.163990E+00 +1.847630E+00     +2.105790E+00 +6.473322E-01 +5.527269E+00     +2.105790E+00 +6.473322E-01 +5.527269E+00     +5.180809E+00 +1.031750E+00 +4.464411E+00     +2.105790E+00 +6.473322E-01 +5.527269E+00     +2.105790E+00 +6.473322E-01 +5.527269E+00     +5.041506E-01 +2.354709E+00 +2.561890E+00     +5.041506E-01 +2.354709E+00 +2.561890E+00     +5.041506E-01 +2.354709E+00 +2.561890E+00     +5.041506E-01 +2.354709E+00 +2.561890E+00     +5.041506E-01 +2.354709E+00 +2.561890E+00    
 +5.041506E-01 +2.354709E+00 +2.561890E+00     +5.041506E-01 +2.354709E+00 +2.561890E+00     +1.198790E+00 +2.438080E+00 +8.100614E-01     +1.914110E+00 +1.422990E+00 +5.496099E+00     +1.914110E+00 +1.422990E+00 +5.496099E+00     +1.914110E+00 +1.422990E+00 +5.496099E+00     +1.914110E+00 +1.422990E+00 +5.496099E+00     +1.914110E+00 +1.422990E+00 +5.496099E+00     +3.956649E+00 +1.065070E-01 +3.420859E+00     +3.956649E+00 +1.065070E-01 +3.420859E+00     +3.956649E+00 +1.065070E-01 +3.420859E+00     +2.105790E+00 +6.473322E-01 +5.527269E+00     +2.105790E+00 +6.473322E-01 +5.527269E+00     +2.105790E+00 +6.473322E-01 +5.527269E+00     +2.105790E+00 +6.473322E-01 +5.527269E+00     +2.105790E+00 +6.473322E-01 +5.527269E+00     +2.105790E+00 +6.473322E-01 +5.527269E+00     +5.041506E-01 +2.354709E+00 +2.561890E+00     +5.041506E-01 +2.354709E+00 +2.561890E+00     +5.041506E-01 +2.354709E+00 +2.561890E+00     +5.041506E-01 +2.354709E+00 +2.561890E+00    
 +5.041506E-01 +2.354709E+00 +2.561890E+00     +7.364801E-01 +2.806779E+00 +3.325250E+00     +7.364801E-01 +2.806779E+00 +3.325250E+00     +1.914110E+00 +1.422990E+00 +5.496099E+00     +1.914110E+00 +1.422990E+00 +5.496099E+00     +1.914110E+00 +1.422990E+00 +5.496099E+00     +1.914110E+00 +1.422990E+00 +5.496099E+00     +1.914110E+00 +1.422990E+00 +5.496099E+00     +3.956649E+00 +1.065070E-01 +3.420859E+00     +3.956649E+00 +1.065070E-01 +3.420859E+00     +3.956649E+00 +1.065070E-01 +3.420859E+00     +3.956649E+00 +1.065070E-01 +3.420859E+00     +2.105790E+00 +6.473322E-01 +5.527269E+00     +2.105790E+00 +6.473322E-01 +5.527269E+00     +2.105790E+00 +6.473322E-01 +5.527269E+00     +2.105790E+00 +6.473322E-01 +5.527269E+00     +2.105790E+00 +6.473322E-01 +5.527269E+00     +5.041506E-01 +2.354709E+00 +2.561890E+00     +5.041506E-01 +2.354709E+00 +2.561890E+00     +5.041506E-01 +2.354709E+00 +2.561890E+00     +5.041506E-01 +2.354709E+00 +2.561890E+00    
 +7.364801E-01 +2.806779E+00 +3.325250E+00     +7.364801E-01 +2.806779E+00 +3.325250E+00     +7.364801E-01 +2.806779E+00 +3.325250E+00     +3.869140E+00 +2.180499E+00 +5.555709E+00     +1.914110E+00 +1.422990E+00 +5.496099E+00     +1.914110E+00 +1.422990E+00 +5.496099E+00     +1.914110E+00 +1.422990E+00 +5.496099E+00     +5.157350E+00 +1.765779E+00 +1.156281E+00     +5.157350E+00 +1.765779E+00 +1.156281E+00     +3.956649E+00 +1.065070E-01 +3.420859E+00     +3.956649E+00 +1.065070E-01 +3.420859E+00     +3.758950E+00 +1.131211E+00 +3.495980E+00     +2.105790E+00 +6.473322E-01 +5.527269E+00     +2.105790E+00 +6.473322E-01 +5.527269E+00     +2.105790E+00 +6.473322E-01 +5.527269E+00     +2.105790E+00 +6.473322E-01 +5.527269E+00     +2.105790E+00 +6.473322E-01 +5.527269E+00     +5.041506E-01 +2.354709E+00 +2.561890E+00     +4.824010E+00 +8.755496E-01 +5.217430E+00     +4.824010E+00 +8.755496E-01 +5.217430E+00     +4.824010E+00 +8.755496E-01 +5.217430E+00    
 +7.364801E-01 +2.806779E+00 +3.325250E+00     +7.364801E-01 +2.806779E+00 +3.325250E+00     +7.364801E-01 +2.806779E+00 +3.325250E+00     +3.869140E+00 +2.180499E+00 +5.555709E+00     +3.869140E+00 +2.180499E+00 +5.555709E+00     +1.914110E+00 +1.422990E+00 +5.496099E+00     +5.157350E+00 +1.765779E+00 +1.156281E+00     +5.157350E+00 +1.765779E+00 +1.156281E+00     +5.157350E+00 +1.765779E+00 +1.156281E+00     +3.758950E+00 +1.131211E+00 +3.495980E+00     +3.758950E+00 +1.131211E+00 +3.495980E+00     +3.758950E+00 +1.131211E+00 +3.495980E+00     +3.758950E+00 +1.131211E+00 +3.495980E+00     +2.105790E+00 +6.473322E-01 +5.527269E+00     +2.105790E+00 +6.473322E-01 +5.527269E+00     +2.105790E+00 +6.473322E-01 +5.527269E+00     +4.824010E+00 +8.755496E-01 +5.217430E+00     +4.824010E+00 +8.755496E-01 +5.217430E+00     +4.824010E+00 +8.755496E-01 +5.217430E+00     +4.824010E+00 +8.755496E-01 +5.217430E+00     +4.824010E+00 +8.755496E-01 +5.217430E+00    
 +7.364801E-01 +2.806779E+00 +3.325250E+00     +7.364801E-01 +2.806779E+00 +3.325250E+00     +7.364801E-01 +2.806779E+00 +3.325250E+00     +3.869140E+00 +2.180499E+00 +5.555709E+00     +3.869140E+00 +2.180499E+00 +5.555709E+00     +5.157350E+00 +1.765779E+00 +1.156281E+00     +5.157350E+00 +1.765779E+00 +1.156281E+00     +5.157350E+00 +1.765779E+00 +1.156281E+00     +3.758950E+00 +1.131211E+00 +3.495980E+00     +3.758950E+00 +1.131211E+00 +3.495980E+00     +3.758950E+00 +1.131211E+00 +3.495980E+00     +3.758950E+00 +1.131211E+00 +3.495980E+00     +3.758950E+00 +1.131211E+00 +3.495980E+00     +1.374796E-01 +1.228949E+00 +4.301060E+00     +1.374796E-01 +1.228949E+00 +4.301060E+00     +1.374796E-01 +1.228949E+00 +4.301060E+00     +4.824010E+00 +8.755496E-01 +5.217430E+00     +4.824010E+00 +8.755496E-01 +5.217430E+00     +4.824010E+00 +8.755496E-01 +5.217430E+00     +4.824010E+00 +8.755496E-01 +5.217430E+00     +5.835107E-01 +6.701733E-01 +2.399269E-01    
 +5.835107E-01 +6.701733E-01 +2.399269E-01     +5.433811E+00 +1.679949E+00 +5.185890E+00     +5.433811E+00 +1.679949E+00 +5.185890E+00     +5.433811E+00 +1.679949E+00 +5.185890E+00     +6.950512E-01 +1.125559E+00 +6.052470E-01     +6.950512E-01 +1.125559E+00 +6.052470E-01     +3.758950E+00 +1.131211E+00 +3.495980E+00     +3.758950E+00 +1.131211E+00 +3.495980E+00     +3.758950E+00 +1.131211E+00 +3.495980E+00     +3.758950E+00 +1.131211E+00 +3.495980E+00     +3.758950E+00 +1.131211E+00 +3.495980E+00     +3.758950E+00 +1.131211E+00 +3.495980E+00     +3.758950E+00 +1.131211E+00 +3.495980E+00     +1.374796E-01 +1.228949E+00 +4.301060E+00     +1.374796E-01 +1.228949E+00 +4.301060E+00     +1.374796E-01 +1.228949E+00 +4.301060E+00     +4.440599E+00 +1.314250E+00 +3.000511E+00     +2.013930E+00 +1.089689E+00 +4.875490E+00     +2.013930E+00 +1.089689E+00 +4.875490E+00     +5.835107E-01 +6.701733E-01 +2.399269E-01     +5.835107E-01 +6.701733E-01 +2.399269E-01    
 +5.835107E-01 +6.701733E-01 +2.399269E-01     +5.433811E+00 +1.679949E+00 +5.185890E+00     +5.433811E+00 +1.679949E+00 +5.185890E+00     +5.433811E+00 +1.679949E+00 +5.185890E+00     +6.950512E-01 +1.125559E+00 +6.052470E-01     +6.950512E-01 +1.125559E+00 +6.052470E-01     +6.950512E-01 +1.125559E+00 +6.052470E-01     +3.758950E+00 +1.131211E+00 +3.495980E+00     +3.758950E+00 +1.131211E+00 +3.495980E+00     +3.758950E+00 +1.131211E+00 +3.495980E+00     +3.758950E+00 +1.131211E+00 +3.495980E+00     +3.758950E+00 +1.131211E+00 +3.495980E+00     +1.521451E+00 +2.460431E+00 +1.499360E+00     +1.521451E+00 +2.460431E+00 +1.499360E+00     +1.521451E+00 +2.460431E+00 +1.499360E+00     +1.521451E+00 +2.460431E+00 +1.499360E+00     +4.440599E+00 +1.314250E+00 +3.000511E+00     +2.013930E+00 +1.089689E+00 +4.875490E+00     +2.013930E+00 +1.089689E+00 +4.875490E+00     +2.013930E+00 +1.089689E+00 +4.875490E+00     +5.835107E-01 +6.701733E-01 +2.399269E-01    
 +5.433811E+00 +1.679949E+00 +5.185890E+00     +5.433811E+00 +1.679949E+00 +5.185890E+00     +5.433811E+00 +1.679949E+00 +5.185890E+00     +6.950512E-01 +1.125559E+00 +6.052470E-01     +6.950512E-01 +1.125559E+00 +6.052470E-01     +6.950512E-01 +1.125559E+00 +6.052470E-01     +6.950512E-01 +1.125559E+00 +6.052470E-01     +3.758950E+00 +1.131211E+00 +3.495980E+00     +3.758950E+00 +1.131211E+00 +3.495980E+00     +5.460111E+00 +2.305899E+00 +1.140930E+00     +3.758950E+00 +1.131211E+00 +3.495980E+00     +3.758950E+00 +1.131211E+00 +3.495980E+00     +1.521451E+00 +2.460431E+00 +1.499360E+00     +1.521451E+00 +2.460431E+00 +1.499360E+00     +1.521451E+00 +2.460431E+00 +1.499360E+00     +1.521451E+00 +2.460431E+00 +1.499360E+00     +4.440599E+00 +1.314250E+00 +3.000511E+00     +2.013930E+00 +1.089689E+00 +4.875490E+00     +2.013930E+00 +1.089689E+00 +4.875490E+00     +2.013930E+00 +1.089689E+00 +4.875490E+00     +2.013930E+00 +1.089689E+00 +4.875490E+00    
 +5.433811E+00 +1.679949E+00 +5.185890E+00     +5.433811E+00 +1.679949E+00 +5.185890E+00     +5.433811E+00 +1.679949E+00 +5.185890E+00     +6.950512E-01 +1.125559E+00 +6.052470E-01     +6.950512E-01 +1.125559E+00 +6.052470E-01     +6.950512E-01 +1.125559E+00 +6.052470E-01     +6.950512E-01 +1.125559E+00 +6.052470E-01     +3.758950E+00 +1.131211E+00 +3.495980E+00     +3.758950E+00 +1.131211E+00 +3.495980E+00     +3.758950E+00 +1.131211E+00 +3.495980E+00     +3.758950E+00 +1.131211E+00 +3.495980E+00     +3.758950E+00 +1.131211E+00 +3.495980E+00     +1.521451E+00 +2.460431E+00 +1.499360E+00     +1.521451E+00 +2.460431E+00 +1.499360E+00     +1.521451E+00 +2.460431E+00 +1.499360E+00     +1.521451E+00 +2.460431E+00 +1.499360E+00     +4.440599E+00 +1.314250E+00 +3.000511E+00     +2.013930E+00 +1.089689E+00 +4.875490E+00     +2.013930E+00 +1.089689E+00 +4.875490E+00     +2.013930E+00 +1.089689E+00 +4.875490E+00     +2.013930E+00 +1.089689E+00 +4.875490E+00    
 +5.433811E+00 +1.679949E+00 +5.185890E+00     +5.433811E+00 +1.679949E+00 +5.185890E+00     +1.513420E+00 +1.589400E+00 +4.202107E-01     +1.513420E+00 +1.589400E+00 +4.202107E-01     +2.543310E+00 +1.935980E+00 +2.518671E+00     +2.543310E+00 +1.935980E+00 +2.518671E+00     +2.543310E+00 +1.935980E+00 +2.518671E+00     +3.758950E+00 +1.131211E+00 +3.495980E+00     +3.758950E+00 +1.131211E+00 +3.495980E+00     +3.890700E+00 +2.090150E+00 +6.044089E+00     +3.890700E+00 +2.090150E+00 +6.044089E+00     +6.054039E+00 +8.540367E-01 +9.057613E-01     +6.054039E+00 +8.540367E-01 +9.057613E-01     +6.054039E+00 +8.540367E-01 +9.057613E-01     +4.214370E+00 +2.327639E+00 +6.006060E+00     +4.214370E+00 +2.327639E+00 +6.006060E+00     +4.214370E+00 +2.327639E+00 +6.006060E+00     +2.013930E+00 +1.089689E+00 +4.875490E+00     +2.013930E+00 +1.089689E+00 +4.875490E+00     +2.013930E+00 +1.089689E+00 +4.875490E+00     +2.013930E+00 +1.089689E+00 +4.875490E+00    
 +2.072921E+00 +2.692690E+00 +2.495990E+00     +2.072921E+00 +2.692690E+00 +2.495990E+00     +2.072921E+00 +2.692690E+00 +2.495990E+00     +3.215650E+00 +1.546719E+00 +1.366820E+00     +2.543310E+00 +1.935980E+00 +2.518671E+00     +2.543310E+00 +1.935980E+00 +2.518671E+00     +2.543310E+00 +1.935980E+00 +2.518671E+00     +2.543310E+00 +1.935980E+00 +2.518671E+00     +3.612540E+00 +1.265290E+00 +3.981019E+00     +3.612540E+00 +1.265290E+00 +3.981019E+00     +3.890700E+00 +2.090150E+00 +6.044089E+00     +6.054039E+00 +8.540367E-01 +9.057613E-01     +6.054039E+00 +8.540367E-01 +9.057613E-01     +6.054039E+00 +8.540367E-01 +9.057613E-01     +1.224610E+00 +1.377710E+00 +3.225890E+00     +1.224610E+00 +1.377710E+00 +3.225890E+00     +1.224610E+00 +1.377710E+00 +3.225890E+00     +1.224610E+00 +1.377710E+00 +3.225890E+00     +2.563601E+00 +1.783100E+00 +2.644291E+00     +2.563601E+00 +1.783100E+00 +2.644291E+00     +2.013930E+00 +1.089689E+00 +4.875490E+00    
 +2.072921E+00 +2.692690E+00 +2.495990E+00     +2.072921E+00 +2.692690E+00 +2.495990E+00     +2.072921E+00 +2.692690E+00 +2.495990E+00     +4.152540E+00 +3.637894E-01 +2.961279E+00     +2.543310E+00 +1.935980E+00 +2.518671E+00     +2.543310E+00 +1.935980E+00 +2.518671E+00     +1.114019E+00 +9.085102E-01 +5.696470E+00     +1.114019E+00 +9.085102E-01 +5.696470E+00     +3.612540E+00 +1.265290E+00 +3.981019E+00     +3.612540E+00 +1.265290E+00 +3.981019E+00     +6.054039E+00 +8.540367E-01 +9.057613E-01     +6.054039E+00 +8.540367E-01 +9.057613E-01     +6.054039E+00 +8.540367E-01 +9.057613E-01     +6.054039E+00 +8.540367E-01 +9.057613E-01     +1.224610E+00 +1.377710E+00 +3.225890E+00     +1.224610E+00 +1.377710E+00 +3.225890E+00     +1.224610E+00 +1.377710E+00 +3.225890E+00     +1.224610E+00 +1.377710E+00 +3.225890E+00     +2.563601E+00 +1.783100E+00 +2.644291E+00     +2.563601E+00 +1.783100E+00 +2.644291E+00     +2.563601E+00 +1.783100E+00 +2.644291E+00    
 +2.072921E+00 +2.692690E+00 +2.495990E+00     +2.072921E+00 +2.692690E+00 +2.495990E+00     +2.072921E+00 +2.692690E+00 +2.495990E+00     +2.072921E+00 +2.692690E+00 +2.495990E+00     +1.114019E+00 +9.085102E-01 +5.696470E+00     +1.114019E+00 +9.085102E-01 +5.696470E+00     +1.114019E+00 +9.085102E-01 +5.696470E+00     +1.114019E+00 +9.085102E-01 +5.696470E+00     +1.114019E+00 +9.085102E-01 +5.696470E+00     +3.612540E+00 +1.265290E+00 +3.981019E+00     +6.054039E+00 +8.540367E-01 +9.057613E-01     +6.054039E+00 +8.540367E-01 +9.057613E-01     +6.054039E+00 +8.540367E-01 +9.057613E-01     +6.054039E+00 +8.540367E-01 +9.057613E-01     +1.224610E+00 +1.377710E+00 +3.225890E+00     +1.224610E+00 +1.377710E+00 +3.225890E+00     +1.224610E+00 +1.377710E+00 +3.225890E+00     +1.224610E+00 +1.377710E+00 +3.225890E+00     +3.656170E+00 +2.634601E+00 +5.280831E+00     +3.656170E+00 +2.634601E+00 +5.280831E+00     +3.656170E+00 +2.634601E+00 +5.280831E+00    
 +2.072921E+00 +2.692690E+00 +2.495990E+00     +2.072921E+00 +2.692690E+00 +2.495990E+00     +2.072921E+00 +2.692690E+00 +2.495990E+00     +2.072921E+00 +2.692690E+00 +2.495990E+00     +1.114019E+00 +9.085102E-01 +5.696470E+00     +1.114019E+00 +9.085102E-01 +5.696470E+00     +1.114019E+00 +9.085102E-01 +5.696470E+00     +3.598139E+00 +9.297299E-01 +5.294648E-01     +1.114019E+00 +9.085102E-01 +5.696470E+00     +1.114019E+00 +9.085102E-01 +5.696470E+00     +6.054039E+00 +8.540367E-01 +9.057613E-01     +6.054039E+00 +8.540367E-01 +9.057613E-01     +6.054039E+00 +8.540367E-01 +9.057613E-01     +6.054039E+00 +8.540367E-01 +9.057613E-01     +1.257470E+00 +2.196211E+00 +1.616730E+00     +1.224610E+00 +1.377710E+00 +3.225890E+00     +1.224610E+00 +1.377710E+00 +3.225890E+00     +3.656170E+00 +2.634601E+00 +5.280831E+00     +3.656170E+00 +2.634601E+00 +5.280831E+00     +3.656170E+00 +2.634601E+00 +5.280831E+00     +3.656170E+00 +2.634601E+00 +5.280831E+00    
 +2.322279E+00 +1.183578E-01 +5.142279E+00     +4.046370E+00 +2.683341E+00 +1.019586E-01     +4.046370E+00 +2.683341E+00 +1.019586E-01     +4.046370E+00 +2.683341E+00 +1.019586E-01     +1.114019E+00 +9.085102E-01 +5.696470E+00     +1.114019E+00 +9.085102E-01 +5.696470E+00     +1.114019E+00 +9.085102E-01 +5.696470E+00     +1.114019E+00 +9.085102E-01 +5.696470E+00     +1.114019E+00 +9.085102E-01 +5.696470E+00     +1.114019E+00 +9.085102E-01 +5.696470E+00     +6.054039E+00 +8.540367E-01 +9.057613E-01     +6.054039E+00 +8.540367E-01 +9.057613E-01     +1.257470E+00 +2.196211E+00 +1.616730E+00     +1.257470E+00 +2.196211E+00 +1.616730E+00     +1.257470E+00 +2.196211E+00 +1.616730E+00     +3.881970E+00 +6.810327E-01 +3.088199E+00     +3.881970E+00 +6.810327E-01 +3.088199E+00     +3.881970E+00 +6.810327E-01 +3.088199E+00     +3.656170E+00 +2.634601E+00 +5.280831E+00     +3.656170E+00 +2.634601E+00 +5.280831E+00     +3.656170E+00 +2.634601E+00 +5.280831E+00    
 +4.046370E+00 +2.683341E+00 +1.019586E-01     +4.046370E+00 +2.683341E+00 +1.019586E-01     +4.046370E+00 +2.683341E+00 +1.019586E-01     +4.046370E+00 +2.683341E+00 +1.019586E-01     +4.046370E+00 +2.683341E+00 +1.019586E-01     +4.046370E+00 +2.683341E+00 +1.019586E-01     +1.114019E+00 +9.085102E-01 +5.696470E+00     +1.114019E+00 +9.085102E-01 +5.696470E+00     +1.114019E+00 +9.085102E-01 +5.696470E+00     +1.114019E+00 +9.085102E-01 +5.696470E+00     +1.114019E+00 +9.085102E-01 +5.696470E+00     +4.813019E+00 +2.408141E+00 +2.331376E-01     +2.593730E+00 +2.615301E+00 +5.023920E+00     +3.881970E+00 +6.810327E-01 +3.088199E+00     +3.881970E+00 +6.810327E-01 +3.088199E+00     +3.881970E+00 +6.810327E-01 +3.088199E+00     +3.881970E+00 +6.810327E-01 +3.088199E+00     +3.881970E+00 +6.810327E-01 +3.088199E+00     +3.881970E+00 +6.810327E-01 +3.088199E+00     +3.881970E+00 +6.810327E-01 +3.088199E+00     +3.881970E+00 +6.810327E-01 +3.088199E+00    
 +4.046370E+00 +2.683341E+00 +1.019586E-01     +4.046370E+00 +2.683341E+00 +1.019586E-01     +4.046370E+00 +2.683341E+00 +1.019586E-01     +4.046370E+00 +2.683341E+00 +1.019586E-01     +4.046370E+00 +2.683341E+00 +1.019586E-01     +1.865129E-01 +4.469998E-01 +4.307549E+00     +1.865129E-01 +4.469998E-01 +4.307549E+00     +1.114019E+00 +9.085102E-01 +5.696470E+00     +1.114019E+00 +9.085102E-01 +5.696470E+00     +1.114019E+00 +9.085102E-01 +5.696470E+00     +4.813019E+00 +2.408141E+00 +2.331376E-01     +2.593730E+00 +2.615301E+00 +5.023920E+00     +2.593730E+00 +2.615301E+00 +5.023920E+00     +3.881970E+00 +6.810327E-01 +3.088199E+00     +3.881970E+00 +6.810327E-01 +3.088199E+00     +3.881970E+00 +6.810327E-01 +3.088199E+00     +3.881970E+00 +6.810327E-01 +3.088199E+00     +3.881970E+00 +6.810327E-01 +3.088199E+00     +3.881970E+00 +6.810327E-01 +3.088199E+00     +3.881970E+00 +6.810327E-01 +3.088199E+00     +3.881970E+00 +6.810327E-01 +3.088199E+00    
 +1.198790E+00 +2.438080E+00 +8.100614E-01     +1.198790E+00 +2.438080E+00 +8.100614E-01     +1.198790E+00 +2.438080E+00 +8.100614E-01     +4.046370E+00 +2.683341E+00 +1.019586E-01     +4.046370E+00 +2.683341E+00 +1.019586E-01     +4.046370E+00 +2.683341E+00 +1.019586E-01     +1.865129E-01 +4.469998E-01 +4.307549E+00     +1.865129E-01 +4.469998E-01 +4.307549E+00     +1.070719E+00 +3.908229E-01 +4.967207E-01     +1.070719E+00 +3.908229E-01 +4.967207E-01     +2.593730E+00 +2.615301E+00 +5.023920E+00     +2.593730E+00 +2.615301E+00 +5.023920E+00     +2.593730E+00 +2.615301E+00 +5.023920E+00     +2.593730E+00 +2.615301E+00 +5.023920E+00     +3.881970E+00 +6.810327E-01 +3.088199E+00     +3.881970E+00 +6.810327E-01 +3.088199E+00     +3.881970E+00 +6.810327E-01 +3.088199E+00     +3.881970E+00 +6.810327E-01 +3.088199E+00     +3.881970E+00 +6.810327E-01 +3.088199E+00     +3.881970E+00 +6.810327E-01 +3.088199E+00     +3.881970E+00 +6.810327E-01 +3.088199E+00    
 +5.041506E-01 +2.354709E+00 +2.561890E+00     +1.198790E+00 +2.438080E+00 +8.100614E-01     +1.198790E+00 +2.438080E+00 +8.100614E-01     +1.198790E+00 +2.438080E+00 +8.100614E-01     +1.198790E+00 +2.438080E+00 +8.100614E-01     +1.198790E+00 +2.438080E+00 +8.100614E-01     +1.198790E+00 +2.438080E+00 +8.100614E-01     +1.070719E+00 +3.908229E-01 +4.967207E-01     +1.070719E+00 +3.908229E-01 +4.967207E-01     +1.070719E+00 +3.908229E-01 +4.967207E-01     +6.060300E+00 +2.163990E+00 +1.847630E+00     +3.729481E+00 +8.935056E-01 +5.063010E+00     +2.593730E+00 +2.615301E+00 +5.023920E+00     +2.593730E+00 +2.615301E+00 +5.023920E+00     +2.593730E+00 +2.615301E+00 +5.023920E+00     +3.881970E+00 +6.810327E-01 +3.088199E+00     +3.881970E+00 +6.810327E-01 +3.088199E+00     +3.881970E+00 +6.810327E-01 +3.088199E+00     +3.881970E+00 +6.810327E-01 +3.088199E+00     +5.041506E-01 +2.354709E+00 +2.561890E+00     +5.041506E-01 +2.354709E+00 +2.561890E+00    
 +5.041506E-01 +2.354709E+00 +2.561890E+00     +1.198790E+00 +2.438080E+00 +8.100614E-01     +1.198790E+00 +2.438080E+00 +8.100614E-01     +1.198790E+00 +2.438080E+00 +8.100614E-01     +1.198790E+00 +2.438080E+00 +8.100614E-01     +1.198790E+00 +2.438080E+00 +8.100614E-01     +6.237170E+00 +1.034020E+00 +5.949609E+00     +1.070719E+00 +3.908229E-01 +4.967207E-01     +1.070719E+00 +3.908229E-01 +4.967207E-01     +6.060300E+00 +2.163990E+00 +1.847630E+00     +3.956649E+00 +1.065070E-01 +3.420859E+00     +2.105790E+00 +6.473322E-01 +5.527269E+00     +2.593730E+00 +2.615301E+00 +5.023920E+00     +2.593730E+00 +2.615301E+00 +5.023920E+00     +5.915940E+00 +1.370550E+00 +4.709919E+00     +5.915940E+00 +1.370550E+00 +4.709919E+00     +3.881970E+00 +6.810327E-01 +3.088199E+00     +5.041506E-01 +2.354709E+00 +2.561890E+00     +5.041506E-01 +2.354709E+00 +2.561890E+00     +5.041506E-01 +2.354709E+00 +2.561890E+00     +5.041506E-01 +2.354709E+00 +2.561890E+00    
 +5.041506E-01 +2.354709E+00 +2.561890E+00     +5.041506E-01 +2.354709E+00 +2.561890E+00     +1.198790E+00 +2.438080E+00 +8.100614E-01     +3.622480E+00 +2.571390E+00 +3.240610E+00     +1.198790E+00 +2.438080E+00 +8.100614E-01     +6.237170E+00 +1.034020E+00 +5.949609E+00     +6.237170E+00 +1.034020E+00 +5.949609E+00     +3.956649E+00 +1.065070E-01 +3.420859E+00     +3.956649E+00 +1.065070E-01 +3.420859E+00     +3.956649E+00 +1.065070E-01 +3.420859E+00     +3.956649E+00 +1.065070E-01 +3.420859E+00     +3.956649E+00 +1.065070E-01 +3.420859E+00     +2.105790E+00 +6.473322E-01 +5.527269E+00     +3.115390E+00 +1.210260E+00 +4.526370E+00     +2.105790E+00 +6.473322E-01 +5.527269E+00     +2.105790E+00 +6.473322E-01 +5.527269E+00     +5.041506E-01 +2.354709E+00 +2.561890E+00     +5.041506E-01 +2.354709E+00 +2.561890E+00     +5.041506E-01 +2.354709E+00 +2.561890E+00     +5.041506E-01 +2.354709E+00 +2.561890E+00     +5.041506E-01 +2.354709E+00 +2.561890E+00    
 +5.041506E-01 +2.354709E+00 +2.561890E+00     +5.041506E-01 +2.354709E+00 +2.561890E+00     +1.198790E+00 +2.438080E+00 +8.100614E-01     +1.914110E+00 +1.422990E+00 +5.496099E+00     +1.914110E+00 +1.422990E+00 +5.496099E+00     +1.914110E+00 +1.422990E+00 +5.496099E+00     +1.914110E+00 +1.422990E+00 +5.496099E+00     +3.956649E+00 +1.065070E-01 +3.420859E+00     +3.956649E+00 +1.065070E-01 +3.420859E+00     +3.956649E+00 +1.065070E-01 +3.420859E+00     +3.956649E+00 +1.065070E-01 +3.420859E+00     +3.956649E+00 +1.065070E-01 +3.420859E+00     +2.105790E+00 +6.473322E-01 +5.527269E+00     +2.105790E+00 +6.473322E-01 +5.527269E+00     +2.105790E+00 +6.473322E-01 +5.527269E+00     +2.105790E+00 +6.473322E-01 +5.527269E+00     +5.041506E-01 +2.354709E+00 +2.561890E+00     +5.041506E-01 +2.354709E+00 +2.561890E+00     +5.041506E-01 +2.354709E+00 +2.561890E+00     +5.041506E-01 +2.354709E+00 +2.561890E+00     +5.041506E-01 +2.354709E+00 +2.561890E+00    
 +5.041506E-01 +2.354709E+00 +2.561890E+00     +7.364801E-01 +2.806779E+00 +3.325250E+00     +7.364801E-01 +2.806779E+00 +3.325250E+00     +1.914110E+00 +1.422990E+00 +5.496099E+00     +1.914110E+00 +1.422990E+00 +5.496099E+00     +1.914110E+00 +1.422990E+00 +5.496099E+00     +1.914110E+00 +1.422990E+00 +5.496099E+00     +3.956649E+00 +1.065070E-01 +3.420859E+00     +3.956649E+00 +1.065070E-01 +3.420859E+00     +3.956649E+00 +1.065070E-01 +3.420859E+00     +3.956649E+00 +1.065070E-01 +3.420859E+00     +3.956649E+00 +1.065070E-01 +3.420859E+00     +2.105790E+00 +6.473322E-01 +5.527269E+00     +2.105790E+00 +6.473322E-01 +5.527269E+00     +2.105790E+00 +6.473322E-01 +5.527269E+00     +2.105790E+00 +6.473322E-01 +5.527269E+00     +5.041506E-01 +2.354709E+00 +2.561890E+00     +5.041506E-01 +2.354709E+00 +2.561890E+00     +5.041506E-01 +2.354709E+00 +2.561890E+00     +5.041506E-01 +2.354709E+00 +2.561890E+00     +5.041506E-01 +2.354709E+00 +2.561890E+00    
 +7.364801E-01 +2.806779E+00 +3.325250E+00     +7.364801E-01 +2.806779E+00 +3.325250E+00     +7.364801E-01 +2.806779E+00 +3.325250E+00     +1.914110E+00 +1.422990E+00 +5.496099E+00     +1.914110E+00 +1.422990E+00 +5.496099E+00     +1.914110E+00 +1.422990E+00 +5.496099E+00     +1.914110E+00 +1.422990E+00 +5.496099E+00     +5.157350E+00 +1.765779E+00 +1.156281E+00     +3.956649E+00 +1.065070E-01 +3.420859E+00     +3.956649E+00 +1.065070E-01 +3.420859E+00     +3.956649E+00 +1.065070E-01 +3.420859E+00     +3.956649E+00 +1.065070E-01 +3.420859E+00     +3.956649E+00 +1.065070E-01 +3.420859E+00     +2.105790E+00 +6.473322E-01 +5.527269E+00     +2.105790E+00 +6.473322E-01 +5.527269E+00     +2.091821E+00 +2.086600E+00 +2.558670E+00     +2.091821E+00 +2.086600E+00 +2.558670E+00     +5.041506E-01 +2.354709E+00 +2.561890E+00     +5.041506E-01 +2.354709E+00 +2.561890E+00     +4.824010E+00 +8.755496E-01 +5.217430E+00     +5.041506E-01 +2.354709E+00 +2.561890E+00    
 +7.364801E-01 +2.806779E+00 +3.325250E+00     +7.364801E-01 +2.806779E+00 +3.325250E+00     +7.364801E-01 +2.806779E+00 +3.325250E+00     +3.869140E+00 +2.180499E+00 +5.555709E+00     +1.914110E+00 +1.422990E+00 +5.496099E+00     +1.914110E+00 +1.422990E+00 +5.496099E+00     +5.157350E+00 +1.765779E+00 +1.156281E+00     +5.157350E+00 +1.765779E+00 +1.156281E+00     +5.157350E+00 +1.765779E+00 +1.156281E+00     +3.758950E+00 +1.131211E+00 +3.495980E+00     +3.758950E+00 +1.131211E+00 +3.495980E+00     +3.758950E+00 +1.131211E+00 +3.495980E+00     +3.758950E+00 +1.131211E+00 +3.495980E+00     +1.374796E-01 +1.228949E+00 +4.301060E+00     +1.374796E-01 +1.228949E+00 +4.301060E+00     +2.091821E+00 +2.086600E+00 +2.558670E+00     +2.091821E+00 +2.086600E+00 +2.558670E+00     +4.824010E+00 +8.755496E-01 +5.217430E+00     +4.824010E+00 +8.755496E-01 +5.217430E+00     +4.824010E+00 +8.755496E-01 +5.217430E+00     +4.824010E+00 +8.755496E-01 +5.217430E+00    
 +5.433811E+00 +1.679949E+00 +5.185890E+00     +5.433811E+00 +1.679949E+00 +5.185890E+00     +5.433811E+00 +1.679949E+00 +5.185890E+00     +3.869140E+00 +2.180499E+00 +5.555709E+00     +1.914110E+00 +1.422990E+00 +5.496099E+00     +5.157350E+00 +1.765779E+00 +1.156281E+00     +5.157350E+00 +1.765779E+00 +1.156281E+00     +5.157350E+00 +1.765779E+00 +1.156281E+00     +3.758950E+00 +1.131211E+00 +3.495980E+00     +3.758950E+00 +1.131211E+00 +3.495980E+00     +3.758950E+00 +1.131211E+00 +3.495980E+00     +3.758950E+00 +1.131211E+00 +3.495980E+00     +1.374796E-01 +1.228949E+00 +4.301060E+00     +1.374796E-01 +1.228949E+00 +4.301060E+00     +1.374796E-01 +1.228949E+00 +4.301060E+00     +1.374796E-01 +1.228949E+00 +4.301060E+00     +2.091821E+00 +2.086600E+00 +2.558670E+00     +2.013930E+00 +1.089689E+00 +4.875490E+00     +2.013930E+00 +1.089689E+00 +4.875490E+00     +4.824010E+00 +8.755496E-01 +5.217430E+00     +5.835107E-01 +6.701733E-01 +2.399269E-01    
 +5.433811E+00 +1.679949E+00 +5.185890E+00     +5.433811E+00 +1.679949E+00 +5.185890E+00     +5.433811E+00 +1.679949E+00 +5.185890E+00     +5.433811E+00 +1.679949E+00 +5.185890E+00     +5.433811E+00 +1.679949E+00 +5.185890E+00     +6.950512E-01 +1.125559E+00 +6.052470E-01     +3.758950E+00 +1.131211E+00 +3.495980E+00     +3.758950E+00 +1.131211E+00 +3.495980E+00     +3.758950E+00 +1.131211E+00 +3.495980E+00     +3.758950E+00 +1.131211E+00 +3.495980E+00     +3.758950E+00 +1.131211E+00 +3.495980E+00     +3.758950E+00 +1.131211E+00 +3.495980E+00     +1.374796E-01 +1.228949E+00 +4.301060E+00     +1.374796E-01 +1.228949E+00 +4.301060E+00     +1.374796E-01 +1.228949E+00 +4.301060E+00     +1.374796E-01 +1.228949E+00 +4.301060E+00     +2.013930E+00 +1.089689E+00 +4.875490E+00     +2.013930E+00 +1.089689E+00 +4.875490E+00     +2.013930E+00 +1.089689E+00 +4.875490E+00     +2.013930E+00 +1.089689E+00 +4.875490E+00     +5.433811E+00 +1.679949E+00 +5.185890E+00    
 +5.433811E+00 +1.679949E+00 +5.185890E+00     +5.433811E+00 +1.679949E+00 +5.185890E+00     +5.433811E+00 +1.679949E+00 +5.185890E+00     +5.433811E+00 +1.679949E+00 +5.185890E+00     +6.950512E-01 +1.125559E+00 +6.052470E-01     +6.950512E-01 +1.125559E+00 +6.052470E-01     +6.950512E-01 +1.125559E+00 +6.052470E-01     +3.758950E+00 +1.131211E+00 +3.495980E+00     +3.758950E+00 +1.131211E+00 +3.495980E+00     +3.758950E+00 +1.131211E+00 +3.495980E+00     +3.758950E+00 +1.131211E+00 +3.495980E+00     +3.758950E+00 +1.131211E+00 +3.495980E+00     +1.374796E-01 +1.228949E+00 +4.301060E+00     +1.374796E-01 +1.228949E+00 +4.301060E+00     +1.374796E-01 +1.228949E+00 +4.301060E+00     +1.374796E-01 +1.228949E+00 +4.301060E+00     +2.013930E+00 +1.089689E+00 +4.875490E+00     +2.013930E+00 +1.089689E+00 +4.875490E+00     +2.013930E+00 +1.089689E+00 +4.875490E+00     +2.013930E+00 +1.089689E+00 +4.875490E+00     +2.013930E+00 +1.089689E+00 +4.875490E+00    
 +5.433811E+00 +1.679949E+00 +5.185890E+00     +5.433811E+00 +1.679949E+00 +5.185890E+00     +5.433811E+00 +1.679949E+00 +5.185890E+00     +5.433811E+00 +1.679949E+00 +5.185890E+00     +6.950512E-01 +1.125559E+00 +6.052470E-01     +6.950512E-01 +1.125559E+00 +6.052470E-01     +6.950512E-01 +1.125559E+00 +6.052470E-01     +3.758950E+00 +1.131211E+00 +3.495980E+00     +3.758950E+00 +1.131211E+00 +3.495980E+00     +3.758950E+00 +1.131211E+00 +3.495980E+00     +3.758950E+00 +1.131211E+00 +3.495980E+00     +7.389550E-01 +1.758239E+00 +3.113430E+00     +9.909788E-01 +2.469810E+00 +3.427329E+00     +9.909788E-01 +2.469810E+00 +3.427329E+00     +9.909788E-01 +2.469810E+00 +3.427329E+00     +9.909788E-01 +2.469810E+00 +3.427329E+00     +2.013930E+00 +1.089689E+00 +4.875490E+00     +2.013930E+00 +1.089689E+00 +4.875490E+00     +2.013930E+00 +1.089689E+00 +4.875490E+00     +2.013930E+00 +1.089689E+00 +4.875490E+00     +2.013930E+00 +1.089689E+00 +4.875490E+00    
 +5.433811E+00 +1.679949E+00 +5.185890E+00     +5.433811E+00 +1.679949E+00 +5.185890E+00     +5.433811E+00 +1.679949E+00 +5.185890E+00     +5.433811E+00 +1.679949E+00 +5.185890E+00     +6.950512E-01 +1.125559E+00 +6.052470E-01     +6.950512E-01 +1.125559E+00 +6.052470E-01     +6.950512E-01 +1.125559E+00 +6.052470E-01     +3.758950E+00 +1.131211E+00 +3.495980E+00     +3.758950E+00 +1.131211E+00 +3.495980E+00     +3.758950E+00 +1.131211E+00 +3.495980E+00     +3.758950E+00 +1.131211E+00 +3.495980E+00     +7.389550E-01 +1.758239E+00 +3.113430E+00     +9.909788E-01 +2.469810E+00 +3.427329E+00     +9.909788E-01 +2.469810E+00 +3.427329E+00     +9.909788E-01 +2.469810E+00 +3.427329E+00     +9.909788E-01 +2.469810E+00 +3.427329E+00     +2.013930E+00 +1.089689E+00 +4.875490E+00     +2.013930E+00 +1.089689E+00 +4.875490E+00     +2.013930E+00 +1.089689E+00 +4.875490E+00     +2.013930E+00 +1.089689E+00 +4.875490E+00     +2.013930E+00 +1.089689E+00 +4.875490E+00    
 +5.433811E+00 +1.679949E+00 +5.185890E+00     +5.433811E+00 +1.679949E+00 +5.185890E+00     +5.433811E+00 +1.679949E+00 +5.185890E+00     +1.513420E+00 +1.589400E+00 +4.202107E-01     +2.543310E+00 +1.935980E+00 +2.518671E+00     +2.543310E+00 +1.935980E+00 +2.518671E+00     +2.543310E+00 +1.935980E+00 +2.518671E+00     +3.758950E+00 +1.131211E+00 +3.495980E+00     +3.758950E+00 +1.131211E+00 +3.495980E+00     +3.890700E+00 +2.090150E+00 +6.044089E+00     +3.890700E+00 +2.090150E+00 +6.044089E+00     +6.054039E+00 +8.540367E-01 +9.057613E-01     +6.054039E+00 +8.540367E-01 +9.057613E-01     +6.054039E+00 +8.540367E-01 +9.057613E-01     +4.214370E+00 +2.327639E+00 +6.006060E+00     +4.214370E+00 +2.327639E+00 +6.006060E+00     +4.214370E+00 +2.327639E+00 +6.006060E+00     +2.013930E+00 +1.089689E+00 +4.875490E+00     +2.013930E+00 +1.089689E+00 +4.875490E+00     +2.013930E+00 +1.089689E+00 +4.875490E+00     +5.433811E+00 +1.679949E+00 +5.185890E+00    
 +5.433811E+00 +1.679949E+00 +5.185890E+00     +2.072921E+00 +2.692690E+00 +2.495990E+00     +5.433811E+00 +1.679949E+00 +5.185890E+00     +3.215650E+00 +1.546719E+00 +1.366820E+00     +2.543310E+00 +1.935980E+00 +2.518671E+00     +2.543310E+00 +1.935980E+00 +2.518671E+00     +2.543310E+00 +1.935980E+00 +2.518671E+00     +2.543310E+00 +1.935980E+00 +2.518671E+00     +3.612540E+00 +1.265290E+00 +3.981019E+00     +3.612540E+00 +1.265290E+00 +3.981019E+00     +3.890700E+00 +2.090150E+00 +6.044089E+00     +6.054039E+00 +8.540367E-01 +9.057613E-01     +6.054039E+00 +8.540367E-01 +9.057613E-01     +6.054039E+00 +8.540367E-01 +9.057613E-01     +1.224610E+00 +1.377710E+00 +3.225890E+00     +1.224610E+00 +1.377710E+00 +3.225890E+00     +1.224610E+00 +1.377710E+00 +3.225890E+00     +1.224610E+00 +1.377710E+00 +3.225890E+00     +2.563601E+00 +1.783100E+00 +2.644291E+00     +2.563601E+00 +1.783100E+00 +2.644291E+00     +5.433811E+00 +1.679949E+00 +5.185890E+00    
 +2.072921E+00 +2.692690E+00 +2.495990E+00     +2.072921E+00 +2.692690E+00 +2.495990E+00     +2.072921E+00 +2.692690E+00 +2.495990E+00     +2.072921E+00 +2.692690E+00 +2.495990E+00     +2.543310E+00 +1.935980E+00 +2.518671E+00     +1.114019E+00 +9.085102E-01 +5.696470E+00     +1.114019E+00 +9.085102E-01 +5.696470E+00     +1.114019E+00 +9.085102E-01 +5.696470E+00     +3.612540E+00 +1.265290E+00 +3.981019E+00     +3.612540E+00 +1.265290E+00 +3.981019E+00     +6.054039E+00 +8.540367E-01 +9.057613E-01     +6.054039E+00 +8.540367E-01 +9.057613E-01     +6.054039E+00 +8.540367E-01 +9.057613E-01     +6.054039E+00 +8.540367E-01 +9.057613E-01     +1.224610E+00 +1.377710E+00 +3.225890E+00     +1.224610E+00 +1.377710E+00 +3.225890E+00     +1.224610E+00 +1.377710E+00 +3.225890E+00     +1.224610E+00 +1.377710E+00 +3.225890E+00     +2.563601E+00 +1.783100E+00 +2.644291E+00     +2.563601E+00 +1.783100E+00 +2.644291E+00     +2.563601E+00 +1.783100E+00 +2.644291E+00    
 +2.072921E+00 +2.692690E+00 +2.495990E+00     +2.072921E+00 +2.692690E+00 +2.495990E+00     +2.072921E+00 +2.692690E+00 +2.495990E+00     +2.072921E+00 +2.692690E+00 +2.495990E+00     +1.114019E+00 +9.085102E-01 +5.696470E+00     +1.114019E+00 +9.085102E-01 +5.696470E+00     +1.114019E+00 +9.085102E-01 +5.696470E+00     +1.114019E+00 +9.085102E-01 +5.696470E+00     +1.114019E+00 +9.085102E-01 +5.696470E+00     +3.612540E+00 +1.265290E+00 +3.981019E+00     +6.054039E+00 +8.540367E-01 +9.057613E-01     +6.054039E+00 +8.540367E-01 +9.057613E-01     +6.054039E+00 +8.540367E-01 +9.057613E-01     +6.054039E+00 +8.540367E-01 +9.057613E-01     +1.224610E+00 +1.377710E+00 +3.225890E+00     +1.224610E+00 +1.377710E+00 +3.225890E+00     +1.224610E+00 +1.377710E+00 +3.225890E+00     +1.224610E+00 +1.377710E+00 +3.225890E+00     +2.563601E+00 +1.783100E+00 +2.644291E+00     +3.656170E+00 +2.634601E+00 +5.280831E+00     +3.656170E+00 +2.634601E+00 +5.280831E+00    
 +2.615599E+00 +1.628670E+00 +4.890741E+00     +2.072921E+00 +2.692690E+00 +2.495990E+00     +4.046370E+00 +2.683341E+00 +1.019586E-01     +4.046370E+00 +2.683341E+00 +1.019586E-01     +1.114019E+00 +9.085102E-01 +5.696470E+00     +1.114019E+00 +9.085102E-01 +5.696470E+00     +1.114019E+00 +9.085102E-01 +5.696470E+00     +1.114019E+00 +9.085102E-01 +5.696470E+00     +1.114019E+00 +9.085102E-01 +5.696470E+00     +1.114019E+00 +9.085102E-01 +5.696470E+00     +6.054039E+00 +8.540367E-01 +9.057613E-01     +6.054039E+00 +8.540367E-01 +9.057613E-01     +6.054039E+00 +8.540367E-01 +9.057613E-01     +6.054039E+00 +8.540367E-01 +9.057613E-01     +1.224610E+00 +1.377710E+00 +3.225890E+00     +1.224610E+00 +1.377710E+00 +3.225890E+00     +3.881970E+00 +6.810327E-01 +3.088199E+00     +3.881970E+00 +6.810327E-01 +3.088199E+00     +3.656170E+00 +2.634601E+00 +5.280831E+00     +2.053430E+00 +2.508590E+00 +3.670989E+00     +3.656170E+00 +2.634601E+00 +5.280831E+00    
 +2.615599E+00 +1.628670E+00 +4.890741E+00     +4.046370E+00 +2.683341E+00 +1.019586E-01     +4.046370E+00 +2.683341E+00 +1.019586E-01     +4.046370E+00 +2.683341E+00 +1.019586E-01     +4.046370E+00 +2.683341E+00 +1.019586E-01     +1.114019E+00 +9.085102E-01 +5.696470E+00     +1.114019E+00 +9.085102E-01 +5.696470E+00     +1.114019E+00 +9.085102E-01 +5.696470E+00     +1.114019E+00 +9.085102E-01 +5.696470E+00     +1.114019E+00 +9.085102E-01 +5.696470E+00     +1.114019E+00 +9.085102E-01 +5.696470E+00     +6.054039E+00 +8.540367E-01 +9.057613E-01     +6.054039E+00 +8.540367E-01 +9.057613E-01     +6.054039E+00 +8.540367E-01 +9.057613E-01     +3.881970E+00 +6.810327E-01 +3.088199E+00     +3.881970E+00 +6.810327E-01 +3.088199E+00     +3.881970E+00 +6.810327E-01 +3.088199E+00     +3.881970E+00 +6.810327E-01 +3.088199E+00     +2.053430E+00 +2.508590E+00 +3.670989E+00     +2.053430E+00 +2.508590E+00 +3.670989E+00     +2.053430E+00 +2.508590E+00 +3.670989E+00    
 +4.046370E+00 +2.683341E+00 +1.019586E-01     +4.046370E+00 +2.683341E+00 +1.019586E-01     +4.046370E+00 +2.683341E+00 +1.019586E-01     +4.046370E+00 +2.683341E+00 +1.019586E-01     +4.046370E+00 +2.683341E+00 +1.019586E-01     +4.046370E+00 +2.683341E+00 +1.019586E-01     +1.114019E+00 +9.085102E-01 +5.696470E+00     +1.114019E+00 +9.085102E-01 +5.696470E+00     +1.114019E+00 +9.085102E-01 +5.696470E+00     +1.114019E+00 +9.085102E-01 +5.696470E+00     +4.813019E+00 +2.408141E+00 +2.331376E-01     +4.813019E+00 +2.408141E+00 +2.331376E-01     +4.813019E+00 +2.408141E+00 +2.331376E-01     +3.881970E+00 +6.810327E-01 +3.088199E+00     +3.881970E+00 +6.810327E-01 +3.088199E+00     +3.881970E+00 +6.810327E-01 +3.088199E+00     +3.881970E+00 +6.810327E-01 +3.088199E+00     +3.881970E+00 +6.810327E-01 +3.088199E+00     +3.881970E+00 +6.810327E-01 +3.088199E+00     +3.881970E+00 +6.810327E-01 +3.088199E+00     +3.881970E+00 +6.810327E-01 +3.088199E+00    
 +4.046370E+00 +2.683341E+00 +1.019586E-01     +4.046370E+00 +2.683341E+00 +1.019586E-01     +4.046370E+00 +2.683341E+00 +1.019586E-01     +4.046370E+00 +2.683341E+00 +1.019586E-01     +4.046370E+00 +2.683341E+00 +1.019586E-01     +4.046370E+00 +2.683341E+00 +1.019586E-01     +1.865129E-01 +4.469998E-01 +4.307549E+00     +1.114019E+00 +9.085102E-01 +5.696470E+00     +1.114019E+00 +9.085102E-01 +5.696470E+00     +4.813019E+00 +2.408141E+00 +2.331376E-01     +4.813019E+00 +2.408141E+00 +2.331376E-01     +4.813019E+00 +2.408141E+00 +2.331376E-01     +4.813019E+00 +2.408141E+00 +2.331376E-01     +3.881970E+00 +6.810327E-01 +3.088199E+00     +3.881970E+00 +6.810327E-01 +3.088199E+00     +3.881970E+00 +6.810327E-01 +3.088199E+00     +3.881970E+00 +6.810327E-01 +3.088199E+00     +3.881970E+00 +6.810327E-01 +3.088199E+00     +3.881970E+00 +6.810327E-01 +3.088199E+00     +3.881970E+00 +6.810327E-01 +3.088199E+00     +3.881970E+00 +6.810327E-01 +3.088199E+00    
 +1.198790E+00 +2.438080E+00 +8.100614E-01     +1.198790E+00 +2.438080E+00 +8.100614E-01     +1.198790E+00 +2.438080E+00 +8.100614E-01     +4.046370E+00 +2.683341E+00 +1.019586E-01     +4.046370E+00 +2.683341E+00 +1.019586E-01     +4.046370E+00 +2.683341E+00 +1.019586E-01     +4.046370E+00 +2.683341E+00 +1.019586E-01     +4.046370E+00 +2.683341E+00 +1.019586E-01     +1.070719E+00 +3.908229E-01 +4.967207E-01     +1.666920E+00 +2.348550E+00 +2.015970E+00     +4.813019E+00 +2.408141E+00 +2.331376E-01     +4.813019E+00 +2.408141E+00 +2.331376E-01     +2.593730E+00 +2.615301E+00 +5.023920E+00     +5.915940E+00 +1.370550E+00 +4.709919E+00     +5.915940E+00 +1.370550E+00 +4.709919E+00     +3.881970E+00 +6.810327E-01 +3.088199E+00     +3.881970E+00 +6.810327E-01 +3.088199E+00     +3.881970E+00 +6.810327E-01 +3.088199E+00     +3.881970E+00 +6.810327E-01 +3.088199E+00     +3.881970E+00 +6.810327E-01 +3.088199E+00     +3.881970E+00 +6.810327E-01 +3.088199E+00    
 +5.041506E-01 +2.354709E+00 +2.561890E+00     +1.198790E+00 +2.438080E+00 +8.100614E-01     +1.198790E+00 +2.438080E+00 +8.100614E-01     +3.071980E+00 +9.047298E-01 +7.368065E-01     +1.198790E+00 +2.438080E+00 +8.100614E-01     +1.198790E+00 +2.438080E+00 +8.100614E-01     +1.198790E+00 +2.438080E+00 +8.100614E-01     +1.070719E+00 +3.908229E-01 +4.967207E-01     +1.070719E+00 +3.908229E-01 +4.967207E-01     +1.070719E+00 +3.908229E-01 +4.967207E-01     +3.084890E+00 +2.202740E+00 +4.869291E+00     +3.084890E+00 +2.202740E+00 +4.869291E+00     +5.915940E+00 +1.370550E+00 +4.709919E+00     +5.915940E+00 +1.370550E+00 +4.709919E+00     +5.915940E+00 +1.370550E+00 +4.709919E+00     +5.915940E+00 +1.370550E+00 +4.709919E+00     +3.881970E+00 +6.810327E-01 +3.088199E+00     +3.881970E+00 +6.810327E-01 +3.088199E+00     +3.881970E+00 +6.810327E-01 +3.088199E+00     +3.881970E+00 +6.810327E-01 +3.088199E+00     +5.041506E-01 +2.354709E+00 +2.561890E+00    
 +5.041506E-01 +2.354709E+00 +2.561890E+00     +1.198790E+00 +2.438080E+00 +8.100614E-01     +1.198790E+00 +2.438080E+00 +8.100614E-01     +1.198790E+00 +2.438080E+00 +8.100614E-01     +1.198790E+00 +2.438080E+00 +8.100614E-01     +1.198790E+00 +2.438080E+00 +8.100614E-01     +1.198790E+00 +2.438080E+00 +8.100614E-01     +3.956649E+00 +1.065070E-01 +3.420859E+00     +1.070719E+00 +3.908229E-01 +4.967207E-01     +3.956649E+00 +1.065070E-01 +3.420859E+00     +3.956649E+00 +1.065070E-01 +3.420859E+00     +5.915940E+00 +1.370550E+00 +4.709919E+00     +5.915940E+00 +1.370550E+00 +4.709919E+00     +5.915940E+00 +1.370550E+00 +4.709919E+00     +5.915940E+00 +1.370550E+00 +4.709919E+00     +5.915940E+00 +1.370550E+00 +4.709919E+00     +5.915940E+00 +1.370550E+00 +4.709919E+00     +3.881970E+00 +6.810327E-01 +3.088199E+00     +5.041506E-01 +2.354709E+00 +2.561890E+00     +5.041506E-01 +2.354709E+00 +2.561890E+00     +5.041506E-01 +2.354709E+00 +2.561890E+00    
 +5.041506E-01 +2.354709E+00 +2.561890E+00     +1.198790E+00 +2.438080E+00 +8.100614E-01     +3.622480E+00 +2.571390E+00 +3.240610E+00     +3.622480E+00 +2.571390E+00 +3.240610E+00     +3.622480E+00 +2.571390E+00 +3.240610E+00     +1.198790E+00 +2.438080E+00 +8.100614E-01     +6.237170E+00 +1.034020E+00 +5.949609E+00     +3.956649E+00 +1.065070E-01 +3.420859E+00     +3.956649E+00 +1.065070E-01 +3.420859E+00     +3.956649E+00 +1.065070E-01 +3.420859E+00     +3.956649E+00 +1.065070E-01 +3.420859E+00     +3.956649E+00 +1.065070E-01 +3.420859E+00     +3.115390E+00 +1.210260E+00 +4.526370E+00     +3.115390E+00 +1.210260E+00 +4.526370E+00     +5.915940E+00 +1.370550E+00 +4.709919E+00     +5.915940E+00 +1.370550E+00 +4.709919E+00     +5.915940E+00 +1.370550E+00 +4.709919E+00     +5.041506E-01 +2.354709E+00 +2.561890E+00     +5.041506E-01 +2.354709E+00 +2.561890E+00     +5.041506E-01 +2.354709E+00 +2.561890E+00     +5.041506E-01 +2.354709E+00 +2.561890E+00    
 +5.041506E-01 +2.354709E+00 +2.561890E+00     +5.041506E-01 +2.354709E+00 +2.561890E+00     +3.622480E+00 +2.571390E+00 +3.240610E+00     +3.622480E+00 +2.571390E+00 +3.240610E+00     +1.914110E+00 +1.422990E+00 +5.496099E+00     +1.914110E+00 +1.422990E+00 +5.496099E+00     +1.914110E+00 +1.422990E+00 +5.496099E+00     +3.956649E+00 +1.065070E-01 +3.420859E+00     +3.956649E+00 +1.065070E-01 +3.420859E+00     +3.956649E+00 +1.065070E-01 +3.420859E+00     +3.956649E+00 +1.065070E-01 +3.420859E+00     +3.956649E+00 +1.065070E-01 +3.420859E+00     +3.115390E+00 +1.210260E+00 +4.526370E+00     +3.115390E+00 +1.210260E+00 +4.526370E+00     +5.915940E+00 +1.370550E+00 +4.709919E+00     +5.915940E+00 +1.370550E+00 +4.709919E+00     +5.915940E+00 +1.370550E+00 +4.709919E+00     +5.041506E-01 +2.354709E+00 +2.561890E+00     +5.041506E-01 +2.354709E+00 +2.561890E+00     +5.041506E-01 +2.354709E+00 +2.561890E+00     +5.041506E-01 +2.354709E+00 +2.561890E+00    
 +5.041506E-01 +2.354709E+00 +2.561890E+00     +5.041506E-01 +2.354709E+00 +2.561890E+00     +3.622480E+00 +2.571390E+00 +3.240610E+00     +1.914110E+00 +1.422990E+00 +5.496099E+00     +1.914110E+00 +1.422990E+00 +5.496099E+00     +1.914110E+00 +1.422990E+00 +5.496099E+00     +3.956649E+00 +1.065070E-01 +3.420859E+00     +3.956649E+00 +1.065070E-01 +3.420859E+00     +3.956649E+00 +1.065070E-01 +3.420859E+00     +3.956649E+00 +1.065070E-01 +3.420859E+00     +3.956649E+00 +1.065070E-01 +3.420859E+00     +3.956649E+00 +1.065070E-01 +3.420859E+00     +3.956649E+00 +1.065070E-01 +3.420859E+00     +3.115390E+00 +1.210260E+00 +4.526370E+00     +2.091821E+00 +2.086600E+00 +2.558670E+00     +2.091821E+00 +2.086600E+00 +2.558670E+00     +5.570089E+00 +1.761910E+00 +5.651350E+00     +5.570089E+00 +1.761910E+00 +5.651350E+00     +5.041506E-01 +2.354709E+00 +2.561890E+00     +5.041506E-01 +2.354709E+00 +2.561890E+00     +5.041506E-01 +2.354709E+00 +2.561890E+00    
 +7.364801E-01 +2.806779E+00 +3.325250E+00     +7.364801E-01 +2.806779E+00 +3.325250E+00     +7.364801E-01 +2.806779E+00 +3.325250E+00     +1.914110E+00 +1.422990E+00 +5.496099E+00     +1.914110E+00 +1.422990E+00 +5.496099E+00     +1.914110E+00 +1.422990E+00 +5.496099E+00     +1.914110E+00 +1.422990E+00 +5.496099E+00     +3.956649E+00 +1.065070E-01 +3.420859E+00     +3.956649E+00 +1.065070E-01 +3.420859E+00     +3.956649E+00 +1.065070E-01 +3.420859E+00     +3.956649E+00 +1.065070E-01 +3.420859E+00     +3.956649E+00 +1.065070E-01 +3.420859E+00     +3.956649E+00 +1.065070E-01 +3.420859E+00     +2.091821E+00 +2.086600E+00 +2.558670E+00     +2.091821E+00 +2.086600E+00 +2.558670E+00     +2.091821E+00 +2.086600E+00 +2.558670E+00     +2.091821E+00 +2.086600E+00 +2.558670E+00     +5.570089E+00 +1.761910E+00 +5.651350E+00     +5.041506E-01 +2.354709E+00 +2.561890E+00     +5.041506E-01 +2.354709E+00 +2.561890E+00     +5.041506E-01 +2.354709E+00 +2.561890E+00    
 +5.433811E+00 +1.679949E+00 +5.185890E+00     +5.433811E+00 +1.679949E+00 +5.185890E+00     +7.364801E-01 +2.806779E+00 +3.325250E+00     +3.869140E+00 +2.180499E+00 +5.555709E+00     +1.914110E+00 +1.422990E+00 +5.496099E+00     +1.914110E+00 +1.422990E+00 +5.496099E+00     +5.157350E+00 +1.765779E+00 +1.156281E+00     +5.157350E+00 +1.765779E+00 +1.156281E+00     +3.956649E+00 +1.065070E-01 +3.420859E+00     +3.956649E+00 +1.065070E-01 +3.420859E+00     +3.956649E+00 +1.065070E-01 +3.420859E+00     +3.758950E+00 +1.131211E+00 +3.495980E+00     +3.758950E+00 +1.131211E+00 +3.495980E+00     +1.374796E-01 +1.228949E+00 +4.301060E+00     +2.091821E+00 +2.086600E+00 +2.558670E+00     +2.091821E+00 +2.086600E+00 +2.558670E+00     +2.091821E+00 +2.086600E+00 +2.558670E+00     +2.091821E+00 +2.086600E+00 +2.558670E+00     +1.615070E+00 +1.144740E+00 +5.368900E+00     +4.824010E+00 +8.755496E-01 +5.217430E+00     +4.824010E+00 +8.755496E-01 +5.217430E+00    
 +5.433811E+00 +1.679949E+00 +5.185890E+00     +5.433811E+00 +1.679949E+00 +5.185890E+00     +5.433811E+00 +1.679949E+00 +5.185890E+00     +5.433811E+00 +1.679949E+00 +5.185890E+00     +1.914110E+00 +1.422990E+00 +5.496099E+00     +3.680027E-01 +1.781810E+00 +2.174680E-02     +3.680027E-01 +1.781810E+00 +2.174680E-02     +3.758950E+00 +1.131211E+00 +3.495980E+00     +3.758950E+00 +1.131211E+00 +3.495980E+00     +3.758950E+00 +1.131211E+00 +3.495980E+00     +3.758950E+00 +1.131211E+00 +3.495980E+00     +3.758950E+00 +1.131211E+00 +3.495980E+00     +1.374796E-01 +1.228949E+00 +4.301060E+00     +1.374796E-01 +1.228949E+00 +4.301060E+00     +1.374796E-01 +1.228949E+00 +4.301060E+00     +2.091821E+00 +2.086600E+00 +2.558670E+00     +2.091821E+00 +2.086600E+00 +2.558670E+00     +1.615070E+00 +1.144740E+00 +5.368900E+00     +1.615070E+00 +1.144740E+00 +5.368900E+00     +4.824010E+00 +8.755496E-01 +5.217430E+00     +5.433811E+00 +1.679949E+00 +5.185890E+00    
 +5.433811E+00 +1.679949E+00 +5.185890E+00     +5.433811E+00 +1.679949E+00 +5.185890E+00     +5.433811E+00 +1.679949E+00 +5.185890E+00     +5.433811E+00 +1.679949E+00 +5.185890E+00     +5.433811E+00 +1.679949E+00 +5.185890E+00     +3.680027E-01 +1.781810E+00 +2.174680E-02     +3.680027E-01 +1.781810E+00 +2.174680E-02     +3.680027E-01 +1.781810E+00 +2.174680E-02     +3.758950E+00 +1.131211E+00 +3.495980E+00     +3.758950E+00 +1.131211E+00 +3.495980E+00     +3.758950E+00 +1.131211E+00 +3.495980E+00     +3.758950E+00 +1.131211E+00 +3.495980E+00     +1.374796E-01 +1.228949E+00 +4.301060E+00     +1.374796E-01 +1.228949E+00 +4.301060E+00     +1.374796E-01 +1.228949E+00 +4.301060E+00     +1.374796E-01 +1.228949E+00 +4.301060E+00     +1.374796E-01 +1.228949E+00 +4.301060E+00     +2.013930E+00 +1.089689E+00 +4.875490E+00     +2.013930E+00 +1.089689E+00 +4.875490E+00     +2.013930E+00 +1.089689E+00 +4.875490E+00     +5.433811E+00 +1.679949E+00 +5.185890E+00    
 +5.433811E+00 +1.679949E+00 +5.185890E+00     +5.433811E+00 +1.679949E+00 +5.185890E+00     +5.433811E+00 +1.679949E+00 +5.185890E+00     +5.433811E+00 +1.679949E+00 +5.185890E+00     +5.433811E+00 +1.679949E+00 +5.185890E+00     +3.680027E-01 +1.781810E+00 +2.174680E-02     +3.680027E-01 +1.781810E+00 +2.174680E-02     +3.680027E-01 +1.781810E+00 +2.174680E-02     +3.758950E+00 +1.131211E+00 +3.495980E+00     +3.758950E+00 +1.131211E+00 +3.495980E+00     +3.758950E+00 +1.131211E+00 +3.495980E+00     +7.389550E-01 +1.758239E+00 +3.113430E+00     +1.374796E-01 +1.228949E+00 +4.301060E+00     +1.374796E-01 +1.228949E+00 +4.301060E+00     +1.374796E-01 +1.228949E+00 +4.301060E+00     +1.374796E-01 +1.228949E+00 +4.301060E+00     +1.374796E-01 +1.228949E+00 +4.301060E+00     +2.013930E+00 +1.089689E+00 +4.875490E+00     +2.013930E+00 +1.089689E+00 +4.875490E+00     +2.013930E+00 +1.089689E+00 +4.875490E+00     +5.433811E+00 +1.679949E+00 +5.185890E+00    
 +5.433811E+00 +1.679949E+00 +5.185890E+00     +5.433811E+00 +1.679949E+00 +5.185890E+00     +5.433811E+00 +1.679949E+00 +5.185890E+00     +5.433811E+00 +1.679949E+00 +5.185890E+00     +5.433811E+00 +1.679949E+00 +5.185890E+00     +6.950512E-01 +1.125559E+00 +6.052470E-01     +3.680027E-01 +1.781810E+00 +2.174680E-02     +3.680027E-01 +1.781810E+00 +2.174680E-02     +3.680027E-01 +1.781810E+00 +2.174680E-02     +3.758950E+00 +1.131211E+00 +3.495980E+00     +7.389550E-01 +1.758239E+00 +3.113430E+00     +7.389550E-01 +1.758239E+00 +3.113430E+00     +9.909788E-01 +2.469810E+00 +3.427329E+00     +9.909788E-01 +2.469810E+00 +3.427329E+00     +9.909788E-01 +2.469810E+00 +3.427329E+00     +9.478342E-01 +1.460731E+00 +2.908085E-01     +9.478342E-01 +1.460731E+00 +2.908085E-01     +2.013930E+00 +1.089689E+00 +4.875490E+00     +2.013930E+00 +1.089689E+00 +4.875490E+00     +2.013930E+00 +1.089689E+00 +4.875490E+00     +5.433811E+00 +1.679949E+00 +5.185890E+00    
 +5.433811E+00 +1.679949E+00 +5.185890E+00     +5.433811E+00 +1.679949E+00 +5.185890E+00     +5.433811E+00 +1.679949E+00 +5.185890E+00     +5.433811E+00 +1.679949E+00 +5.185890E+00     +5.433811E+00 +1.679949E+00 +5.185890E+00     +2.764511E+00 +1.413471E+00 +1.580460E+00     +3.680027E-01 +1.781810E+00 +2.174680E-02     +3.680027E-01 +1.781810E+00 +2.174680E-02     +3.680027E-01 +1.781810E+00 +2.174680E-02     +3.758950E+00 +1.131211E+00 +3.495980E+00     +7.389550E-01 +1.758239E+00 +3.113430E+00     +7.389550E-01 +1.758239E+00 +3.113430E+00     +9.909788E-01 +2.469810E+00 +3.427329E+00     +9.909788E-01 +2.469810E+00 +3.427329E+00     +9.909788E-01 +2.469810E+00 +3.427329E+00     +9.478342E-01 +1.460731E+00 +2.908085E-01     +3.433651E+00 +1.387669E+00 +4.191160E+00     +3.433651E+00 +1.387669E+00 +4.191160E+00     +2.013930E+00 +1.089689E+00 +4.875490E+00     +2.013930E+00 +1.089689E+00 +4.875490E+00     +5.433811E+00 +1.679949E+00 +5.185890E+00    
 +5.433811E+00 +1.679949E+00 +5.185890E+00     +5.433811E+00 +1.679949E+00 +5.185890E+00     +5.433811E+00 +1.679949E+00 +5.185890E+00     +5.433811E+00 +1.679949E+00 +5.185890E+00     +2.764511E+00 +1.413471E+00 +1.580460E+00     +2.764511E+00 +1.413471E+00 +1.580460E+00     +2.764511E+00 +1.413471E+00 +1.580460E+00     +3.680027E-01 +1.781810E+00 +2.174680E-02     +3.680027E-01 +1.781810E+00 +2.174680E-02     +3.890700E+00 +2.090150E+00 +6.044089E+00     +3.890700E+00 +2.090150E+00 +6.044089E+00     +6.054039E+00 +8.540367E-01 +9.057613E-01     +6.054039E+00 +8.540367E-01 +9.057613E-01     +9.909788E-01 +2.469810E+00 +3.427329E+00     +9.909788E-01 +2.469810E+00 +3.427329E+00     +3.433651E+00 +1.387669E+00 +4.191160E+00     +3.433651E+00 +1.387669E+00 +4.191160E+00     +3.433651E+00 +1.387669E+00 +4.191160E+00     +3.433651E+00 +1.387669E+00 +4.191160E+00     +2.013930E+00 +1.089689E+00 +4.875490E+00     +5.433811E+00 +1.679949E+00 +5.185890E+00    
 +5.433811E+00 +1.679949E+00 +5.185890E+00     +2.381050E+00 +2.283360E+00 +4.075920E+00     +5.433811E+00 +1.679949E+00 +5.185890E+00     +5.433811E+00 +1.679949E+00 +5.185890E+00     +2.764511E+00 +1.413471E+00 +1.580460E+00     +2.764511E+00 +1.413471E+00 +1.580460E+00     +2.764511E+00 +1.413471E+00 +1.580460E+00     +1.044690E+00 +1.064689E+00 +5.803421E+00     +1.044690E+00 +1.064689E+00 +5.803421E+00     +3.612540E+00 +1.265290E+00 +3.981019E+00     +3.890700E+00 +2.090150E+00 +6.044089E+00     +6.054039E+00 +8.540367E-01 +9.057613E-01     +6.054039E+00 +8.540367E-01 +9.057613E-01     +6.054039E+00 +8.540367E-01 +9.057613E-01     +1.224610E+00 +1.377710E+00 +3.225890E+00     +1.224610E+00 +1.377710E+00 +3.225890E+00     +3.433651E+00 +1.387669E+00 +4.191160E+00     +3.433651E+00 +1.387669E+00 +4.191160E+00     +3.433651E+00 +1.387669E+00 +4.191160E+00     +2.563601E+00 +1.783100E+00 +2.644291E+00     +5.433811E+00 +1.679949E+00 +5.185890E+00    
 +2.381050E+00 +2.283360E+00 +4.075920E+00     +2.381050E+00 +2.283360E+00 +4.075920E+00     +2.381050E+00 +2.283360E+00 +4.075920E+00     +2.381050E+00 +2.283360E+00 +4.075920E+00     +1.114019E+00 +9.085102E-01 +5.696470E+00     +1.114019E+00 +9.085102E-01 +5.696470E+00     +1.114019E+00 +9.085102E-01 +5.696470E+00     +1.114019E+00 +9.085102E-01 +5.696470E+00     +1.114019E+00 +9.085102E-01 +5.696470E+00     +3.612540E+00 +1.265290E+00 +3.981019E+00     +6.054039E+00 +8.540367E-01 +9.057613E-01     +6.054039E+00 +8.540367E-01 +9.057613E-01     +6.054039E+00 +8.540367E-01 +9.057613E-01     +6.054039E+00 +8.540367E-01 +9.057613E-01     +1.224610E+00 +1.377710E+00 +3.225890E+00     +1.224610E+00 +1.377710E+00 +3.225890E+00     +1.224610E+00 +1.377710E+00 +3.225890E+00     +3.433651E+00 +1.387669E+00 +4.191160E+00     +2.563601E+00 +1.783100E+00 +2.644291E+00     +2.563601E+00 +1.783100E+00 +2.644291E+00     +2.563601E+00 +1.783100E+00 +2.644291E+00    
 +2.615599E+00 +1.628670E+00 +4.890741E+00     +2.615599E+00 +1.628670E+00 +4.890741E+00     +2.615599E+00 +1.628670E+00 +4.890741E+00     +2.615599E+00 +1.628670E+00 +4.890741E+00     +1.114019E+00 +9.085102E-01 +5.696470E+00     +1.114019E+00 +9.085102E-01 +5.696470E+00     +1.114019E+00 +9.085102E-01 +5.696470E+00     +1.114019E+00 +9.085102E-01 +5.696470E+00     +1.114019E+00 +9.085102E-01 +5.696470E+00     +3.612540E+00 +1.265290E+00 +3.981019E+00     +6.054039E+00 +8.540367E-01 +9.057613E-01     +6.054039E+00 +8.540367E-01 +9.057613E-01     +6.054039E+00 +8.540367E-01 +9.057613E-01     +6.054039E+00 +8.540367E-01 +9.057613E-01     +1.224610E+00 +1.377710E+00 +3.225890E+00     +5.858500E+00 +2.491110E+00 +6.200010E+00     +1.224610E+00 +1.377710E+00 +3.225890E+00     +3.881970E+00 +6.810327E-01 +3.088199E+00     +2.563601E+00 +1.783100E+00 +2.644291E+00     +2.053430E+00 +2.508590E+00 +3.670989E+00     +2.053430E+00 +2.508590E+00 +3.670989E+00    
 +2.615599E+00 +1.628670E+00 +4.890741E+00     +2.615599E+00 +1.628670E+00 +4.890741E+00     +2.615599E+00 +1.628670E+00 +4.890741E+00     +2.615599E+00 +1.628670E+00 +4.890741E+00     +1.114019E+00 +9.085102E-01 +5.696470E+00     +1.114019E+00 +9.085102E-01 +5.696470E+00     +1.114019E+00 +9.085102E-01 +5.696470E+00     +1.114019E+00 +9.085102E-01 +5.696470E+00     +1.114019E+00 +9.085102E-01 +5.696470E+00     +1.114019E+00 +9.085102E-01 +5.696470E+00     +9.955812E-01 +2.258920E+00 +2.958440E+00     +6.054039E+00 +8.540367E-01 +9.057613E-01     +6.054039E+00 +8.540367E-01 +9.057613E-01     +5.858500E+00 +2.491110E+00 +6.200010E+00     +5.858500E+00 +2.491110E+00 +6.200010E+00     +5.858500E+00 +2.491110E+00 +6.200010E+00     +3.881970E+00 +6.810327E-01 +3.088199E+00     +3.881970E+00 +6.810327E-01 +3.088199E+00     +2.053430E+00 +2.508590E+00 +3.670989E+00     +2.053430E+00 +2.508590E+00 +3.670989E+00     +2.053430E+00 +2.508590E+00 +3.670989E+00    
 +2.615599E+00 +1.628670E+00 +4.890741E+00     +2.615599E+00 +1.628670E+00 +4.890741E+00     +4.046370E+00 +2.683341E+00 +1.019586E-01     +4.046370E+00 +2.683341E+00 +1.019586E-01     +4.046370E+00 +2.683341E+00 +1.019586E-01     +1.114019E+00 +9.085102E-01 +5.696470E+00     +1.114019E+00 +9.085102E-01 +5.696470E+00     +1.114019E+00 +9.085102E-01 +5.696470E+00     +1.114019E+00 +9.085102E-01 +5.696470E+00     +1.114019E+00 +9.085102E-01 +5.696470E+00     +9.955812E-01 +2.258920E+00 +2.958440E+00     +1.275359E+00 +2.170849E+00 +8.672960E-01     +6.054039E+00 +8.540367E-01 +9.057613E-01     +5.858500E+00 +2.491110E+00 +6.200010E+00     +3.881970E+00 +6.810327E-01 +3.088199E+00     +3.881970E+00 +6.810327E-01 +3.088199E+00     +3.881970E+00 +6.810327E-01 +3.088199E+00     +3.881970E+00 +6.810327E-01 +3.088199E+00     +2.053430E+00 +2.508590E+00 +3.670989E+00     +2.053430E+00 +2.508590E+00 +3.670989E+00     +2.053430E+00 +2.508590E+00 +3.670989E+00    
 +2.615599E+00 +1.628670E+00 +4.890741E+00     +2.615599E+00 +1.628670E+00 +4.890741E+00     +4.046370E+00 +2.683341E+00 +1.019586E-01     +4.046370E+00 +2.683341E+00 +1.019586E-01     +4.046370E+00 +2.683341E+00 +1.019586E-01     +4.046370E+00 +2.683341E+00 +1.019586E-01     +4.046370E+00 +2.683341E+00 +1.019586E-01     +1.666920E+00 +2.348550E+00 +2.015970E+00     +1.666920E+00 +2.348550E+00 +2.015970E+00     +1.666920E+00 +2.348550E+00 +2.015970E+00     +4.813019E+00 +2.408141E+00 +2.331376E-01     +4.813019E+00 +2.408141E+00 +2.331376E-01     +4.813019E+00 +2.408141E+00 +2.331376E-01     +4.813019E+00 +2.408141E+00 +2.331376E-01     +3.881970E+00 +6.810327E-01 +3.088199E+00     +3.881970E+00 +6.810327E-01 +3.088199E+00     +3.881970E+00 +6.810327E-01 +3.088199E+00     +3.881970E+00 +6.810327E-01 +3.088199E+00     +3.881970E+00 +6.810327E-01 +3.088199E+00     +3.881970E+00 +6.810327E-01 +3.088199E+00     +3.881970E+00 +6.810327E-01 +3.088199E+00    
 +2.615599E+00 +1.628670E+00 +4.890741E+00     +4.046370E+00 +2.683341E+00 +1.019586E-01     +4.046370E+00 +2.683341E+00 +1.019586E-01     +4.046370E+00 +2.683341E+00 +1.019586E-01     +4.046370E+00 +2.683341E+00 +1.019586E-01     +4.046370E+00 +2.683341E+00 +1.019586E-01     +4.046370E+00 +2.683341E+00 +1.019586E-01     +1.666920E+00 +2.348550E+00 +2.015970E+00     +1.666920E+00 +2.348550E+00 +2.015970E+00     +4.813019E+00 +2.408141E+00 +2.331376E-01     +4.813019E+00 +2.408141E+00 +2.331376E-01     +4.813019E+00 +2.408141E+00 +2.331376E-01     +4.813019E+00 +2.408141E+00 +2.331376E-01     +4.813019E+00 +2.408141E+00 +2.331376E-01     +3.881970E+00 +6.810327E-01 +3.088199E+00     +3.881970E+00 +6.810327E-01 +3.088199E+00     +3.881970E+00 +6.810327E-01 +3.088199E+00     +3.881970E+00 +6.810327E-01 +3.088199E+00     +3.881970E+00 +6.810327E-01 +3.088199E+00     +3.881970E+00 +6.810327E-01 +3.088199E+00     +3.881970E+00 +6.810327E-01 +3.088199E+00    
 +1.198790E+00 +2.438080E+00 +8.100614E-01     +1.198790E+00 +2.438080E+00 +8.100614E-01     +1.198790E+00 +2.438080E+00 +8.100614E-01     +1.198790E+00 +2.438080E+00 +8.100614E-01     +1.198790E+00 +2.438080E+00 +8.100614E-01     +1.198790E+00 +2.438080E+00 +8.100614E-01     +1.198790E+00 +2.438080E+00 +8.100614E-01     +1.666920E+00 +2.348550E+00 +2.015970E+00     +1.666920E+00 +2.348550E+00 +2.015970E+00     +1.666920E+00 +2.348550E+00 +2.015970E+00     +4.813019E+00 +2.408141E+00 +2.331376E-01     +4.813019E+00 +2.408141E+00 +2.331376E-01     +4.813019E+00 +2.408141E+00 +2.331376E-01     +5.915940E+00 +1.370550E+00 +4.709919E+00     +5.915940E+00 +1.370550E+00 +4.709919E+00     +3.881970E+00 +6.810327E-01 +3.088199E+00     +3.881970E+00 +6.810327E-01 +3.088199E+00     +3.881970E+00 +6.810327E-01 +3.088199E+00     +3.881970E+00 +6.810327E-01 +3.088199E+00     +4.051160E+00 +6.849475E-01 +3.600789E-01     +3.881970E+00 +6.810327E-01 +3.088199E+00    
 +1.198790E+00 +2.438080E+00 +8.100614E-01     +1.198790E+00 +2.438080E+00 +8.100614E-01     +1.198790E+00 +2.438080E+00 +8.100614E-01     +1.198790E+00 +2.438080E+00 +8.100614E-01     +1.198790E+00 +2.438080E+00 +8.100614E-01     +1.198790E+00 +2.438080E+00 +8.100614E-01     +1.198790E+00 +2.438080E+00 +8.100614E-01     +1.198790E+00 +2.438080E+00 +8.100614E-01     +1.666920E+00 +2.348550E+00 +2.015970E+00     +1.666920E+00 +2.348550E+00 +2.015970E+00     +3.084890E+00 +2.202740E+00 +4.869291E+00     +3.084890E+00 +2.202740E+00 +4.869291E+00     +5.915940E+00 +1.370550E+00 +4.709919E+00     +5.915940E+00 +1.370550E+00 +4.709919E+00     +5.915940E+00 +1.370550E+00 +4.709919E+00     +5.915940E+00 +1.370550E+00 +4.709919E+00     +5.915940E+00 +1.370550E+00 +4.709919E+00     +3.881970E+00 +6.810327E-01 +3.088199E+00     +4.051160E+00 +6.849475E-01 +3.600789E-01     +4.051160E+00 +6.849475E-01 +3.600789E-01     +5.041506E-01 +2.354709E+00 +2.561890E+00    
 +5.041506E-01 +2.354709E+00 +2.561890E+00     +1.198790E+00 +2.438080E+00 +8.100614E-01     +1.198790E+00 +2.438080E+00 +8.100614E-01     +1.198790E+00 +2.438080E+00 +8.100614E-01     +1.198790E+00 +2.438080E+00 +8.100614E-01     +1.198790E+00 +2.438080E+00 +8.100614E-01     +1.198790E+00 +2.438080E+00 +8.100614E-01     +3.956649E+00 +1.065070E-01 +3.420859E+00     +3.956649E+00 +1.065070E-01 +3.420859E+00     +3.956649E+00 +1.065070E-01 +3.420859E+00     +3.956649E+00 +1.065070E-01 +3.420859E+00     +3.084890E+00 +2.202740E+00 +4.869291E+00     +5.915940E+00 +1.370550E+00 +4.709919E+00     +5.915940E+00 +1.370550E+00 +4.709919E+00     +5.915940E+00 +1.370550E+00 +4.709919E+00     +5.915940E+00 +1.370550E+00 +4.709919E+00     +5.915940E+00 +1.370550E+00 +4.709919E+00     +3.881970E+00 +6.810327E-01 +3.088199E+00     +5.041506E-01 +2.354709E+00 +2.561890E+00     +5.041506E-01 +2.354709E+00 +2.561890E+00     +5.041506E-01 +2.354709E+00 +2.561890E+00    
 +5.041506E-01 +2.354709E+00 +2.561890E+00     +3.539840E+00 +9.509950E-01 +4.313920E+00     +3.539840E+00 +9.509950E-01 +4.313920E+00     +3.539840E+00 +9.509950E-01 +4.313920E+00     +3.539840E+00 +9.509950E-01 +4.313920E+00     +1.198790E+00 +2.438080E+00 +8.100614E-01     +3.956649E+00 +1.065070E-01 +3.420859E+00     +3.956649E+00 +1.065070E-01 +3.420859E+00     +3.956649E+00 +1.065070E-01 +3.420859E+00     +3.956649E+00 +1.065070E-01 +3.420859E+00     +3.956649E+00 +1.065070E-01 +3.420859E+00     +3.956649E+00 +1.065070E-01 +3.420859E+00     +5.915940E+00 +1.370550E+00 +4.709919E+00     +5.915940E+00 +1.370550E+00 +4.709919E+00     +5.915940E+00 +1.370550E+00 +4.709919E+00     +5.915940E+00 +1.370550E+00 +4.709919E+00     +5.915940E+00 +1.370550E+00 +4.709919E+00     +5.041506E-01 +2.354709E+00 +2.561890E+00     +5.041506E-01 +2.354709E+00 +2.561890E+00     +5.041506E-01 +2.354709E+00 +2.561890E+00     +5.041506E-01 +2.354709E+00 +2.561890E+00    
 +5.041506E-01 +2.354709E+00 +2.561890E+00     +3.539840E+00 +9.509950E-01 +4.313920E+00     +3.539840E+00 +9.509950E-01 +4.313920E+00     +3.539840E+00 +9.509950E-01 +4.313920E+00     +3.539840E+00 +9.509950E-01 +4.313920E+00     +1.914110E+00 +1.422990E+00 +5.496099E+00     +3.956649E+00 +1.065070E-01 +3.420859E+00     +3.956649E+00 +1.065070E-01 +3.420859E+00     +3.956649E+00 +1.065070E-01 +3.420859E+00     +3.956649E+00 +1.065070E-01 +3.420859E+00     +3.956649E+00 +1.065070E-01 +3.420859E+00     +3.956649E+00 +1.065070E-01 +3.420859E+00     +5.915940E+00 +1.370550E+00 +4.709919E+00     +5.915940E+00 +1.370550E+00 +4.709919E+00     +5.915940E+00 +1.370550E+00 +4.709919E+00     +5.915940E+00 +1.370550E+00 +4.709919E+00     +5.570089E+00 +1.761910E+00 +5.651350E+00     +5.570089E+00 +1.761910E+00 +5.651350E+00     +5.570089E+00 +1.761910E+00 +5.651350E+00     +5.041506E-01 +2.354709E+00 +2.561890E+00     +5.041506E-01 +2.354709E+00 +2.561890E+00    
 +2.099771E+00 +3.043278E-01 +5.190450E+00     +3.539840E+00 +9.509950E-01 +4.313920E+00     +3.539840E+00 +9.509950E-01 +4.313920E+00     +3.539840E+00 +9.509950E-01 +4.313920E+00     +1.914110E+00 +1.422990E+00 +5.496099E+00     +1.914110E+00 +1.422990E+00 +5.496099E+00     +3.956649E+00 +1.065070E-01 +3.420859E+00     +3.956649E+00 +1.065070E-01 +3.420859E+00     +3.956649E+00 +1.065070E-01 +3.420859E+00     +3.956649E+00 +1.065070E-01 +3.420859E+00     +3.956649E+00 +1.065070E-01 +3.420859E+00     +3.956649E+00 +1.065070E-01 +3.420859E+00     +3.956649E+00 +1.065070E-01 +3.420859E+00     +2.091821E+00 +2.086600E+00 +2.558670E+00     +2.091821E+00 +2.086600E+00 +2.558670E+00     +2.091821E+00 +2.086600E+00 +2.558670E+00     +5.570089E+00 +1.761910E+00 +5.651350E+00     +5.570089E+00 +1.761910E+00 +5.651350E+00     +5.570089E+00 +1.761910E+00 +5.651350E+00     +2.099771E+00 +3.043278E-01 +5.190450E+00     +2.099771E+00 +3.043278E-01 +5.190450E+00    
 +3.310211E+00 +1.307440E+00 +3.972190E+00     +3.310211E+00 +1.307440E+00 +3.972190E+00     +3.310211E+00 +1.307440E+00 +3.972190E+00     +1.914110E+00 +1.422990E+00 +5.496099E+00     +1.914110E+00 +1.422990E+00 +5.496099E+00     +1.914110E+00 +1.422990E+00 +5.496099E+00     +3.956649E+00 +1.065070E-01 +3.420859E+00     +3.956649E+00 +1.065070E-01 +3.420859E+00     +3.956649E+00 +1.065070E-01 +3.420859E+00     +3.956649E+00 +1.065070E-01 +3.420859E+00     +3.956649E+00 +1.065070E-01 +3.420859E+00     +3.956649E+00 +1.065070E-01 +3.420859E+00     +3.956649E+00 +1.065070E-01 +3.420859E+00     +2.091821E+00 +2.086600E+00 +2.558670E+00     +2.091821E+00 +2.086600E+00 +2.558670E+00     +2.091821E+00 +2.086600E+00 +2.558670E+00     +2.091821E+00 +2.086600E+00 +2.558670E+00     +5.570089E+00 +1.761910E+00 +5.651350E+00     +5.570089E+00 +1.761910E+00 +5.651350E+00     +2.099771E+00 +3.043278E-01 +5.190450E+00     +2.099771E+00 +3.043278E-01 +5.190450E+00    
 +3.310211E+00 +1.307440E+00 +3.972190E+00     +3.310211E+00 +1.307440E+00 +3.972190E+00     +3.310211E+00 +1.307440E+00 +3.972190E+00     +3.310211E+00 +1.307440E+00 +3.972190E+00     +1.914110E+00 +1.422990E+00 +5.496099E+00     +1.914110E+00 +1.422990E+00 +5.496099E+00     +3.956649E+00 +1.065070E-01 +3.420859E+00     +3.956649E+00 +1.065070E-01 +3.420859E+00     +3.956649E+00 +1.065070E-01 +3.420859E+00     +3.956649E+00 +1.065070E-01 +3.420859E+00     +3.956649E+00 +1.065070E-01 +3.420859E+00     +3.956649E+00 +1.065070E-01 +3.420859E+00     +3.956649E+00 +1.065070E-01 +3.420859E+00     +2.091821E+00 +2.086600E+00 +2.558670E+00     +2.091821E+00 +2.086600E+00 +2.558670E+00     +2.091821E+00 +2.086600E+00 +2.558670E+00     +2.091821E+00 +2.086600E+00 +2.558670E+00     +1.615070E+00 +1.144740E+00 +5.368900E+00     +1.615070E+00 +1.144740E+00 +5.368900E+00     +1.488501E+00 +1.369720E+00 +4.647463E-02     +1.488501E+00 +1.369720E+00 +4.647463E-02    
 +5.433811E+00 +1.679949E+00 +5.185890E+00     +3.289830E+00 +2.250270E+00 +2.792970E+00     +5.433811E+00 +1.679949E+00 +5.185890E+00     +5.433811E+00 +1.679949E+00 +5.185890E+00     +3.680027E-01 +1.781810E+00 +2.174680E-02     +3.680027E-01 +1.781810E+00 +2.174680E-02     +3.680027E-01 +1.781810E+00 +2.174680E-02     +3.680027E-01 +1.781810E+00 +2.174680E-02     +3.680027E-01 +1.781810E+00 +2.174680E-02     +3.758950E+00 +1.131211E+00 +3.495980E+00     +3.758950E+00 +1.131211E+00 +3.495980E+00     +3.758950E+00 +1.131211E+00 +3.495980E+00     +1.374796E-01 +1.228949E+00 +4.301060E+00     +1.374796E-01 +1.228949E+00 +4.301060E+00     +2.091821E+00 +2.086600E+00 +2.558670E+00     +2.091821E+00 +2.086600E+00 +2.558670E+00     +2.091821E+00 +2.086600E+00 +2.558670E+00     +1.615070E+00 +1.144740E+00 +5.368900E+00     +1.615070E+00 +1.144740E+00 +5.368900E+00     +1.488501E+00 +1.369720E+00 +4.647463E-02     +5.433811E+00 +1.679949E+00 +5.185890E+00    
 +5.433811E+00 +1.679949E+00 +5.185890E+00     +3.289830E+00 +2.250270E+00 +2.792970E+00     +5.433811E+00 +1.679949E+00 +5.185890E+00     +5.433811E+00 +1.679949E+00 +5.185890E+00     +3.680027E-01 +1.781810E+00 +2.174680E-02     +3.680027E-01 +1.781810E+00 +2.174680E-02     +3.680027E-01 +1.781810E+00 +2.174680E-02     +3.680027E-01 +1.781810E+00 +2.174680E-02     +3.680027E-01 +1.781810E+00 +2.174680E-02     +3.758950E+00 +1.131211E+00 +3.495980E+00     +3.758950E+00 +1.131211E+00 +3.495980E+00     +3.758950E+00 +1.131211E+00 +3.495980E+00     +1.374796E-01 +1.228949E+00 +4.301060E+00     +1.374796E-01 +1.228949E+00 +4.301060E+00     +1.374796E-01 +1.228949E+00 +4.301060E+00     +2.091821E+00 +2.086600E+00 +2.558670E+00     +2.091821E+00 +2.086600E+00 +2.558670E+00     +1.615070E+00 +1.144740E+00 +5.368900E+00     +1.615070E+00 +1.144740E+00 +5.368900E+00     +5.433811E+00 +1.679949E+00 +5.185890E+00     +5.433811E+00 +1.679949E+00 +5.185890E+00    
 +5.433811E+00 +1.679949E+00 +5.185890E+00     +5.433811E+00 +1.679949E+00 +5.185890E+00     +5.433811E+00 +1.679949E+00 +5.185890E+00     +5.433811E+00 +1.679949E+00 +5.185890E+00     +3.680027E-01 +1.781810E+00 +2.174680E-02     +3.680027E-01 +1.781810E+00 +2.174680E-02     +3.680027E-01 +1.781810E+00 +2.174680E-02     +3.680027E-01 +1.781810E+00 +2.174680E-02     +3.680027E-01 +1.781810E+00 +2.174680E-02     +3.680027E-01 +1.781810E+00 +2.174680E-02     +3.758950E+00 +1.131211E+00 +3.495980E+00     +7.389550E-01 +1.758239E+00 +3.113430E+00     +9.478342E-01 +1.460731E+00 +2.908085E-01     +9.478342E-01 +1.460731E+00 +2.908085E-01     +9.478342E-01 +1.460731E+00 +2.908085E-01     +9.478342E-01 +1.460731E+00 +2.908085E-01     +9.478342E-01 +1.460731E+00 +2.908085E-01     +3.433651E+00 +1.387669E+00 +4.191160E+00     +2.013930E+00 +1.089689E+00 +4.875490E+00     +2.013930E+00 +1.089689E+00 +4.875490E+00     +5.433811E+00 +1.679949E+00 +5.185890E+00    
 +5.433811E+00 +1.679949E+00 +5.185890E+00     +5.433811E+00 +1.679949E+00 +5.185890E+00     +5.433811E+00 +1.679949E+00 +5.185890E+00     +5.433811E+00 +1.679949E+00 +5.185890E+00     +3.680027E-01 +1.781810E+00 +2.174680E-02     +1.730440E+00 +1.973601E+00 +5.111280E+00     +3.680027E-01 +1.781810E+00 +2.174680E-02     +3.680027E-01 +1.781810E+00 +2.174680E-02     +3.680027E-01 +1.781810E+00 +2.174680E-02     +3.680027E-01 +1.781810E+00 +2.174680E-02     +7.389550E-01 +1.758239E+00 +3.113430E+00     +7.389550E-01 +1.758239E+00 +3.113430E+00     +9.478342E-01 +1.460731E+00 +2.908085E-01     +9.478342E-01 +1.460731E+00 +2.908085E-01     +9.478342E-01 +1.460731E+00 +2.908085E-01     +9.478342E-01 +1.460731E+00 +2.908085E-01     +3.433651E+00 +1.387669E+00 +4.191160E+00     +3.433651E+00 +1.387669E+00 +4.191160E+00     +3.433651E+00 +1.387669E+00 +4.191160E+00     +2.013930E+00 +1.089689E+00 +4.875490E+00     +5.433811E+00 +1.679949E+00 +5.185890E+00    
 +5.433811E+00 +1.679949E+00 +5.185890E+00     +5.433811E+00 +1.679949E+00 +5.185890E+00     +5.433811E+00 +1.679949E+00 +5.185890E+00     +5.433811E+00 +1.679949E+00 +5.185890E+00     +3.680027E-01 +1.781810E+00 +2.174680E-02     +3.680027E-01 +1.781810E+00 +2.174680E-02     +3.680027E-01 +1.781810E+00 +2.174680E-02     +3.680027E-01 +1.781810E+00 +2.174680E-02     +3.680027E-01 +1.781810E+00 +2.174680E-02     +3.680027E-01 +1.781810E+00 +2.174680E-02     +7.389550E-01 +1.758239E+00 +3.113430E+00     +7.389550E-01 +1.758239E+00 +3.113430E+00     +9.478342E-01 +1.460731E+00 +2.908085E-01     +9.478342E-01 +1.460731E+00 +2.908085E-01     +9.478342E-01 +1.460731E+00 +2.908085E-01     +9.478342E-01 +1.460731E+00 +2.908085E-01     +3.433651E+00 +1.387669E+00 +4.191160E+00     +3.433651E+00 +1.387669E+00 +4.191160E+00     +3.433651E+00 +1.387669E+00 +4.191160E+00     +3.433651E+00 +1.387669E+00 +4.191160E+00     +5.433811E+00 +1.679949E+00 +5.185890E+00    
 +5.433811E+00 +1.679949E+00 +5.185890E+00     +5.433811E+00 +1.679949E+00 +5.185890E+00     +5.433811E+00 +1.679949E+00 +5.185890E+00     +5.433811E+00 +1.679949E+00 +5.185890E+00     +2.764511E+00 +1.413471E+00 +1.580460E+00     +2.764511E+00 +1.413471E+00 +1.580460E+00     +3.680027E-01 +1.781810E+00 +2.174680E-02     +5.872230E+00 +7.271635E-01 +1.324391E+00     +3.680027E-01 +1.781810E+00 +2.174680E-02     +3.680027E-01 +1.781810E+00 +2.174680E-02     +7.389550E-01 +1.758239E+00 +3.113430E+00     +7.389550E-01 +1.758239E+00 +3.113430E+00     +9.478342E-01 +1.460731E+00 +2.908085E-01     +9.478342E-01 +1.460731E+00 +2.908085E-01     +9.478342E-01 +1.460731E+00 +2.908085E-01     +3.433651E+00 +1.387669E+00 +4.191160E+00     +3.433651E+00 +1.387669E+00 +4.191160E+00     +3.433651E+00 +1.387669E+00 +4.191160E+00     +3.433651E+00 +1.387669E+00 +4.191160E+00     +3.433651E+00 +1.387669E+00 +4.191160E+00     +5.433811E+00 +1.679949E+00 +5.185890E+00    
 +5.433811E+00 +1.679949E+00 +5.185890E+00     +5.433811E+00 +1.679949E+00 +5.185890E+00     +5.433811E+00 +1.679949E+00 +5.185890E+00     +5.433811E+00 +1.679949E+00 +5.185890E+00     +2.764511E+00 +1.413471E+00 +1.580460E+00     +2.764511E+00 +1.413471E+00 +1.580460E+00     +3.680027E-01 +1.781810E+00 +2.174680E-02     +5.872230E+00 +7.271635E-01 +1.324391E+00     +1.044690E+00 +1.064689E+00 +5.803421E+00     +3.680027E-01 +1.781810E+00 +2.174680E-02     +3.890700E+00 +2.090150E+00 +6.044089E+00     +1.275359E+00 +2.170849E+00 +8.672960E-01     +5.176631E+00 +1.026130E+00 +2.206360E+00     +5.176631E+00 +1.026130E+00 +2.206360E+00     +5.176631E+00 +1.026130E+00 +2.206360E+00     +3.433651E+00 +1.387669E+00 +4.191160E+00     +3.433651E+00 +1.387669E+00 +4.191160E+00     +3.433651E+00 +1.387669E+00 +4.191160E+00     +3.433651E+00 +1.387669E+00 +4.191160E+00     +3.433651E+00 +1.387669E+00 +4.191160E+00     +5.433811E+00 +1.679949E+00 +5.185890E+00    
 +2.615599E+00 +1.628670E+00 +4.890741E+00     +2.381050E+00 +2.283360E+00 +4.075920E+00     +2.615599E+00 +1.628670E+00 +4.890741E+00     +2.615599E+00 +1.628670E+00 +4.890741E+00     +2.615599E+00 +1.628670E+00 +4.890741E+00     +1.114019E+00 +9.085102E-01 +5.696470E+00     +1.114019E+00 +9.085102E-01 +5.696470E+00     +1.114019E+00 +9.085102E-01 +5.696470E+00     +1.114019E+00 +9.085102E-01 +5.696470E+00     +3.612540E+00 +1.265290E+00 +3.981019E+00     +1.275359E+00 +2.170849E+00 +8.672960E-01     +1.275359E+00 +2.170849E+00 +8.672960E-01     +5.176631E+00 +1.026130E+00 +2.206360E+00     +5.176631E+00 +1.026130E+00 +2.206360E+00     +5.176631E+00 +1.026130E+00 +2.206360E+00     +5.804021E+00 +1.837120E+00 +1.865720E+00     +3.433651E+00 +1.387669E+00 +4.191160E+00     +3.433651E+00 +1.387669E+00 +4.191160E+00     +3.433651E+00 +1.387669E+00 +4.191160E+00     +2.563601E+00 +1.783100E+00 +2.644291E+00     +2.615599E+00 +1.628670E+00 +4.890741E+00    
 +2.615599E+00 +1.628670E+00 +4.890741E+00     +2.615599E+00 +1.628670E+00 +4.890741E+00     +2.615599E+00 +1.628670E+00 +4.890741E+00     +2.615599E+00 +1.628670E+00 +4.890741E+00     +2.615599E+00 +1.628670E+00 +4.890741E+00     +1.114019E+00 +9.085102E-01 +5.696470E+00     +1.114019E+00 +9.085102E-01 +5.696470E+00     +1.114019E+00 +9.085102E-01 +5.696470E+00     +9.955812E-01 +2.258920E+00 +2.958440E+00     +9.955812E-01 +2.258920E+00 +2.958440E+00     +9.955812E-01 +2.258920E+00 +2.958440E+00     +1.275359E+00 +2.170849E+00 +8.672960E-01     +1.275359E+00 +2.170849E+00 +8.672960E-01     +5.176631E+00 +1.026130E+00 +2.206360E+00     +5.858500E+00 +2.491110E+00 +6.200010E+00     +5.858500E+00 +2.491110E+00 +6.200010E+00     +5.858500E+00 +2.491110E+00 +6.200010E+00     +5.858500E+00 +2.491110E+00 +6.200010E+00     +2.765171E+00 +1.135571E+00 +5.039141E+00     +2.053430E+00 +2.508590E+00 +3.670989E+00     +2.615599E+00 +1.628670E+00 +4.890741E+00    
 +2.615599E+00 +1.628670E+00 +4.890741E+00     +2.615599E+00 +1.628670E+00 +4.890741E+00     +2.615599E+00 +1.628670E+00 +4.890741E+00     +2.615599E+00 +1.628670E+00 +4.890741E+00     +2.615599E+00 +1.628670E+00 +4.890741E+00     +1.114019E+00 +9.085102E-01 +5.696470E+00     +1.114019E+00 +9.085102E-01 +5.696470E+00     +1.114019E+00 +9.085102E-01 +5.696470E+00     +9.955812E-01 +2.258920E+00 +2.958440E+00     +9.955812E-01 +2.258920E+00 +2.958440E+00     +9.955812E-01 +2.258920E+00 +2.958440E+00     +1.275359E+00 +2.170849E+00 +8.672960E-01     +1.275359E+00 +2.170849E+00 +8.672960E-01     +5.858500E+00 +2.491110E+00 +6.200010E+00     +5.858500E+00 +2.491110E+00 +6.200010E+00     +5.858500E+00 +2.491110E+00 +6.200010E+00     +5.858500E+00 +2.491110E+00 +6.200010E+00     +5.858500E+00 +2.491110E+00 +6.200010E+00     +2.053430E+00 +2.508590E+00 +3.670989E+00     +2.053430E+00 +2.508590E+00 +3.670989E+00     +2.615599E+00 +1.628670E+00 +4.890741E+00    
 +2.615599E+00 +1.628670E+00 +4.890741E+00     +2.615599E+00 +1.628670E+00 +4.890741E+00     +2.615599E+00 +1.628670E+00 +4.890741E+00     +4.046370E+00 +2.683341E+00 +1.019586E-01     +4.046370E+00 +2.683341E+00 +1.019586E-01     +4.046370E+00 +2.683341E+00 +1.019586E-01     +1.114019E+00 +9.085102E-01 +5.696470E+00     +1.114019E+00 +9.085102E-01 +5.696470E+00     +9.955812E-01 +2.258920E+00 +2.958440E+00     +9.955812E-01 +2.258920E+00 +2.958440E+00     +9.955812E-01 +2.258920E+00 +2.958440E+00     +1.275359E+00 +2.170849E+00 +8.672960E-01     +1.275359E+00 +2.170849E+00 +8.672960E-01     +5.858500E+00 +2.491110E+00 +6.200010E+00     +5.858500E+00 +2.491110E+00 +6.200010E+00     +5.858500E+00 +2.491110E+00 +6.200010E+00     +3.881970E+00 +6.810327E-01 +3.088199E+00     +3.881970E+00 +6.810327E-01 +3.088199E+00     +3.881970E+00 +6.810327E-01 +3.088199E+00     +3.881970E+00 +6.810327E-01 +3.088199E+00     +2.615599E+00 +1.628670E+00 +4.890741E+00    
 +2.615599E+00 +1.628670E+00 +4.890741E+00     +2.615599E+00 +1.628670E+00 +4.890741E+00     +2.615599E+00 +1.628670E+00 +4.890741E+00     +4.046370E+00 +2.683341E+00 +1.019586E-01     +4.046370E+00 +2.683341E+00 +1.019586E-01     +4.046370E+00 +2.683341E+00 +1.019586E-01     +4.046370E+00 +2.683341E+00 +1.019586E-01     +1.666920E+00 +2.348550E+00 +2.015970E+00     +1.666920E+00 +2.348550E+00 +2.015970E+00     +1.666920E+00 +2.348550E+00 +2.015970E+00     +1.275359E+00 +2.170849E+00 +8.672960E-01     +4.813019E+00 +2.408141E+00 +2.331376E-01     +4.813019E+00 +2.408141E+00 +2.331376E-01     +4.813019E+00 +2.408141E+00 +2.331376E-01     +5.858500E+00 +2.491110E+00 +6.200010E+00     +5.858500E+00 +2.491110E+00 +6.200010E+00     +3.881970E+00 +6.810327E-01 +3.088199E+00     +3.881970E+00 +6.810327E-01 +3.088199E+00     +3.881970E+00 +6.810327E-01 +3.088199E+00     +3.881970E+00 +6.810327E-01 +3.088199E+00     +2.615599E+00 +1.628670E+00 +4.890741E+00    
 +2.615599E+00 +1.628670E+00 +4.890741E+00     +4.046370E+00 +2.683341E+00 +1.019586E-01     +4.046370E+00 +2.683341E+00 +1.019586E-01     +4.046370E+00 +2.683341E+00 +1.019586E-01     +4.046370E+00 +2.683341E+00 +1.019586E-01     +4.046370E+00 +2.683341E+00 +1.019586E-01     +4.046370E+00 +2.683341E+00 +1.019586E-01     +1.666920E+00 +2.348550E+00 +2.015970E+00     +1.666920E+00 +2.348550E+00 +2.015970E+00     +1.666920E+00 +2.348550E+00 +2.015970E+00     +4.813019E+00 +2.408141E+00 +2.331376E-01     +4.813019E+00 +2.408141E+00 +2.331376E-01     +4.813019E+00 +2.408141E+00 +2.331376E-01     +5.915940E+00 +1.370550E+00 +4.709919E+00     +5.915940E+00 +1.370550E+00 +4.709919E+00     +3.881970E+00 +6.810327E-01 +3.088199E+00     +3.881970E+00 +6.810327E-01 +3.088199E+00     +3.881970E+00 +6.810327E-01 +3.088199E+00     +3.881970E+00 +6.810327E-01 +3.088199E+00     +3.881970E+00 +6.810327E-01 +3.088199E+00     +3.881970E+00 +6.810327E-01 +3.088199E+00    
 +1.198790E+00 +2.438080E+00 +8.100614E-01     +1.198790E+00 +2.438080E+00 +8.100614E-01     +1.198790E+00 +2.438080E+00 +8.100614E-01     +1.198790E+00 +2.438080E+00 +8.100614E-01     +1.198790E+00 +2.438080E+00 +8.100614E-01     +1.198790E+00 +2.438080E+00 +8.100614E-01     +1.198790E+00 +2.438080E+00 +8.100614E-01     +1.666920E+00 +2.348550E+00 +2.015970E+00     +1.666920E+00 +2.348550E+00 +2.015970E+00     +1.666920E+00 +2.348550E+00 +2.015970E+00     +4.813019E+00 +2.408141E+00 +2.331376E-01     +4.813019E+00 +2.408141E+00 +2.331376E-01     +4.813019E+00 +2.408141E+00 +2.331376E-01     +5.915940E+00 +1.370550E+00 +4.709919E+00     +5.915940E+00 +1.370550E+00 +4.709919E+00     +5.915940E+00 +1.370550E+00 +4.709919E+00     +3.881970E+00 +6.810327E-01 +3.088199E+00     +3.881970E+00 +6.810327E-01 +3.088199E+00     +3.881970E+00 +6.810327E-01 +3.088199E+00     +4.051160E+00 +6.849475E-01 +3.600789E-01     +4.051160E+00 +6.849475E-01 +3.600789E-01    
 +1.198790E+00 +2.438080E+00 +8.100614E-01     +1.198790E+00 +2.438080E+00 +8.100614E-01     +1.198790E+00 +2.438080E+00 +8.100614E-01     +1.198790E+00 +2.438080E+00 +8.100614E-01     +1.198790E+00 +2.438080E+00 +8.100614E-01     +1.198790E+00 +2.438080E+00 +8.100614E-01     +1.198790E+00 +2.438080E+00 +8.100614E-01     +1.666920E+00 +2.348550E+00 +2.015970E+00     +1.666920E+00 +2.348550E+00 +2.015970E+00     +1.666920E+00 +2.348550E+00 +2.015970E+00     +3.084890E+00 +2.202740E+00 +4.869291E+00     +3.084890E+00 +2.202740E+00 +4.869291E+00     +5.915940E+00 +1.370550E+00 +4.709919E+00     +5.915940E+00 +1.370550E+00 +4.709919E+00     +5.915940E+00 +1.370550E+00 +4.709919E+00     +5.915940E+00 +1.370550E+00 +4.709919E+00     +5.915940E+00 +1.370550E+00 +4.709919E+00     +3.881970E+00 +6.810327E-01 +3.088199E+00     +4.051160E+00 +6.849475E-01 +3.600789E-01     +4.051160E+00 +6.849475E-01 +3.600789E-01     +4.051160E+00 +6.849475E-01 +3.600789E-01    
 +2.099771E+00 +3.043278E-01 +5.190450E+00     +3.539840E+00 +9.509950E-01 +4.313920E+00     +3.539840E+00 +9.509950E-01 +4.313920E+00     +3.539840E+00 +9.509950E-01 +4.313920E+00     +3.539840E+00 +9.509950E-01 +4.313920E+00     +1.198790E+00 +2.438080E+00 +8.100614E-01     +1.198790E+00 +2.438080E+00 +8.100614E-01     +3.956649E+00 +1.065070E-01 +3.420859E+00     +3.956649E+00 +1.065070E-01 +3.420859E+00     +3.483319E+00 +1.686590E+00 +5.091201E+00     +3.483319E+00 +1.686590E+00 +5.091201E+00     +3.483319E+00 +1.686590E+00 +5.091201E+00     +5.915940E+00 +1.370550E+00 +4.709919E+00     +5.915940E+00 +1.370550E+00 +4.709919E+00     +5.915940E+00 +1.370550E+00 +4.709919E+00     +5.915940E+00 +1.370550E+00 +4.709919E+00     +5.915940E+00 +1.370550E+00 +4.709919E+00     +5.915940E+00 +1.370550E+00 +4.709919E+00     +4.051160E+00 +6.849475E-01 +3.600789E-01     +4.051160E+00 +6.849475E-01 +3.600789E-01     +2.099771E+00 +3.043278E-01 +5.190450E+00    
 +2.099771E+00 +3.043278E-01 +5.190450E+00     +3.539840E+00 +9.509950E-01 +4.313920E+00     +3.539840E+00 +9.509950E-01 +4.313920E+00     +3.539840E+00 +9.509950E-01 +4.313920E+00     +3.539840E+00 +9.509950E-01 +4.313920E+00     +3.539840E+00 +9.509950E-01 +4.313920E+00     +3.956649E+00 +1.065070E-01 +3.420859E+00     +3.956649E+00 +1.065070E-01 +3.420859E+00     +3.956649E+00 +1.065070E-01 +3.420859E+00     +5.646151E+00 +1.008350E+00 +4.577880E+00     +3.483319E+00 +1.686590E+00 +5.091201E+00     +3.483319E+00 +1.686590E+00 +5.091201E+00     +5.915940E+00 +1.370550E+00 +4.709919E+00     +1.751171E+00 +1.449180E+00 +5.219191E+00     +5.915940E+00 +1.370550E+00 +4.709919E+00     +5.915940E+00 +1.370550E+00 +4.709919E+00     +5.915940E+00 +1.370550E+00 +4.709919E+00     +2.748290E+00 +1.006291E+00 +4.587360E+00     +2.099771E+00 +3.043278E-01 +5.190450E+00     +2.099771E+00 +3.043278E-01 +5.190450E+00     +2.099771E+00 +3.043278E-01 +5.190450E+00    
 +2.099771E+00 +3.043278E-01 +5.190450E+00     +2.099771E+00 +3.043278E-01 +5.190450E+00     +3.539840E+00 +9.509950E-01 +4.313920E+00     +3.539840E+00 +9.509950E-01 +4.313920E+00     +3.539840E+00 +9.509950E-01 +4.313920E+00     +3.539840E+00 +9.509950E-01 +4.313920E+00     +3.956649E+00 +1.065070E-01 +3.420859E+00     +3.956649E+00 +1.065070E-01 +3.420859E+00     +5.646151E+00 +1.008350E+00 +4.577880E+00     +5.646151E+00 +1.008350E+00 +4.577880E+00     +5.646151E+00 +1.008350E+00 +4.577880E+00     +3.483319E+00 +1.686590E+00 +5.091201E+00     +3.483319E+00 +1.686590E+00 +5.091201E+00     +5.915940E+00 +1.370550E+00 +4.709919E+00     +5.915940E+00 +1.370550E+00 +4.709919E+00     +5.915940E+00 +1.370550E+00 +4.709919E+00     +5.570089E+00 +1.761910E+00 +5.651350E+00     +2.748290E+00 +1.006291E+00 +4.587360E+00     +5.570089E+00 +1.761910E+00 +5.651350E+00     +2.099771E+00 +3.043278E-01 +5.190450E+00     +2.099771E+00 +3.043278E-01 +5.190450E+00    
 +2.099771E+00 +3.043278E-01 +5.190450E+00     +2.099771E+00 +3.043278E-01 +5.190450E+00     +3.539840E+00 +9.509950E-01 +4.313920E+00     +3.539840E+00 +9.509950E-01 +4.313920E+00     +3.539840E+00 +9.509950E-01 +4.313920E+00     +3.539840E+00 +9.509950E-01 +4.313920E+00     +3.956649E+00 +1.065070E-01 +3.420859E+00     +3.956649E+00 +1.065070E-01 +3.420859E+00     +5.646151E+00 +1.008350E+00 +4.577880E+00     +5.646151E+00 +1.008350E+00 +4.577880E+00     +5.646151E+00 +1.008350E+00 +4.577880E+00     +3.956649E+00 +1.065070E-01 +3.420859E+00     +3.483319E+00 +1.686590E+00 +5.091201E+00     +2.091821E+00 +2.086600E+00 +2.558670E+00     +2.091821E+00 +2.086600E+00 +2.558670E+00     +2.091821E+00 +2.086600E+00 +2.558670E+00     +5.570089E+00 +1.761910E+00 +5.651350E+00     +2.748290E+00 +1.006291E+00 +4.587360E+00     +5.570089E+00 +1.761910E+00 +5.651350E+00     +2.099771E+00 +3.043278E-01 +5.190450E+00     +2.099771E+00 +3.043278E-01 +5.190450E+00    
 +3.310211E+00 +1.307440E+00 +3.972190E+00     +3.310211E+00 +1.307440E+00 +3.972190E+00     +3.310211E+00 +1.307440E+00 +3.972190E+00     +3.310211E+00 +1.307440E+00 +3.972190E+00     +1.914110E+00 +1.422990E+00 +5.496099E+00     +1.914110E+00 +1.422990E+00 +5.496099E+00     +3.956649E+00 +1.065070E-01 +3.420859E+00     +3.956649E+00 +1.065070E-01 +3.420859E+00     +5.646151E+00 +1.008350E+00 +4.577880E+00     +5.646151E+00 +1.008350E+00 +4.577880E+00     +5.646151E+00 +1.008350E+00 +4.577880E+00     +3.956649E+00 +1.065070E-01 +3.420859E+00     +3.483319E+00 +1.686590E+00 +5.091201E+00     +2.091821E+00 +2.086600E+00 +2.558670E+00     +2.091821E+00 +2.086600E+00 +2.558670E+00     +2.091821E+00 +2.086600E+00 +2.558670E+00     +2.091821E+00 +2.086600E+00 +2.558670E+00     +2.748290E+00 +1.006291E+00 +4.587360E+00     +5.570089E+00 +1.761910E+00 +5.651350E+00     +2.099771E+00 +3.043278E-01 +5.190450E+00     +2.099771E+00 +3.043278E-01 +5.190450E+00    
 +3.310211E+00 +1.307440E+00 +3.972190E+00     +3.310211E+00 +1.307440E+00 +3.972190E+00     +3.310211E+00 +1.307440E+00 +3.972190E+00     +3.310211E+00 +1.307440E+00 +3.972190E+00     +3.310211E+00 +1.307440E+00 +3.972190E+00     +4.558015E-01 +1.537501E+00 +1.064860E+00     +4.558015E-01 +1.537501E+00 +1.064860E+00     +3.956649E+00 +1.065070E-01 +3.420859E+00     +3.956649E+00 +1.065070E-01 +3.420859E+00     +5.646151E+00 +1.008350E+00 +4.577880E+00     +3.956649E+00 +1.065070E-01 +3.420859E+00     +3.956649E+00 +1.065070E-01 +3.420859E+00     +2.091821E+00 +2.086600E+00 +2.558670E+00     +2.091821E+00 +2.086600E+00 +2.558670E+00     +2.091821E+00 +2.086600E+00 +2.558670E+00     +2.091821E+00 +2.086600E+00 +2.558670E+00     +2.091821E+00 +2.086600E+00 +2.558670E+00     +1.615070E+00 +1.144740E+00 +5.368900E+00     +1.615070E+00 +1.144740E+00 +5.368900E+00     +1.488501E+00 +1.369720E+00 +4.647463E-02     +1.488501E+00 +1.369720E+00 +4.647463E-02    
 +3.289830E+00 +2.250270E+00 +2.792970E+00     +3.289830E+00 +2.250270E+00 +2.792970E+00     +3.289830E+00 +2.250270E+00 +2.792970E+00     +3.289830E+00 +2.250270E+00 +2.792970E+00     +4.558015E-01 +1.537501E+00 +1.064860E+00     +4.558015E-01 +1.537501E+00 +1.064860E+00     +4.558015E-01 +1.537501E+00 +1.064860E+00     +4.558015E-01 +1.537501E+00 +1.064860E+00     +4.558015E-01 +1.537501E+00 +1.064860E+00     +4.558015E-01 +1.537501E+00 +1.064860E+00     +3.758950E+00 +1.131211E+00 +3.495980E+00     +3.758950E+00 +1.131211E+00 +3.495980E+00     +1.374796E-01 +1.228949E+00 +4.301060E+00     +2.091821E+00 +2.086600E+00 +2.558670E+00     +2.091821E+00 +2.086600E+00 +2.558670E+00     +2.091821E+00 +2.086600E+00 +2.558670E+00     +2.091821E+00 +2.086600E+00 +2.558670E+00     +1.615070E+00 +1.144740E+00 +5.368900E+00     +1.488501E+00 +1.369720E+00 +4.647463E-02     +1.488501E+00 +1.369720E+00 +4.647463E-02     +1.488501E+00 +1.369720E+00 +4.647463E-02    
 +3.289830E+00 +2.250270E+00 +2.792970E+00     +3.289830E+00 +2.250270E+00 +2.792970E+00     +3.289830E+00 +2.250270E+00 +2.792970E+00     +5.433811E+00 +1.679949E+00 +5.185890E+00     +3.680027E-01 +1.781810E+00 +2.174680E-02     +3.680027E-01 +1.781810E+00 +2.174680E-02     +3.680027E-01 +1.781810E+00 +2.174680E-02     +3.680027E-01 +1.781810E+00 +2.174680E-02     +3.680027E-01 +1.781810E+00 +2.174680E-02     +3.680027E-01 +1.781810E+00 +2.174680E-02     +3.680027E-01 +1.781810E+00 +2.174680E-02     +9.478342E-01 +1.460731E+00 +2.908085E-01     +9.478342E-01 +1.460731E+00 +2.908085E-01     +9.478342E-01 +1.460731E+00 +2.908085E-01     +9.478342E-01 +1.460731E+00 +2.908085E-01     +2.091821E+00 +2.086600E+00 +2.558670E+00     +2.091821E+00 +2.086600E+00 +2.558670E+00     +1.615070E+00 +1.144740E+00 +5.368900E+00     +1.488501E+00 +1.369720E+00 +4.647463E-02     +1.488501E+00 +1.369720E+00 +4.647463E-02     +5.433811E+00 +1.679949E+00 +5.185890E+00    
 +5.433811E+00 +1.679949E+00 +5.185890E+00     +3.289830E+00 +2.250270E+00 +2.792970E+00     +5.433811E+00 +1.679949E+00 +5.185890E+00     +5.433811E+00 +1.679949E+00 +5.185890E+00     +3.680027E-01 +1.781810E+00 +2.174680E-02     +3.680027E-01 +1.781810E+00 +2.174680E-02     +3.680027E-01 +1.781810E+00 +2.174680E-02     +3.680027E-01 +1.781810E+00 +2.174680E-02     +3.680027E-01 +1.781810E+00 +2.174680E-02     +3.680027E-01 +1.781810E+00 +2.174680E-02     +3.680027E-01 +1.781810E+00 +2.174680E-02     +9.478342E-01 +1.460731E+00 +2.908085E-01     +9.478342E-01 +1.460731E+00 +2.908085E-01     +9.478342E-01 +1.460731E+00 +2.908085E-01     +9.478342E-01 +1.460731E+00 +2.908085E-01     +9.478342E-01 +1.460731E+00 +2.908085E-01     +2.091821E+00 +2.086600E+00 +2.558670E+00     +3.433651E+00 +1.387669E+00 +4.191160E+00     +3.433651E+00 +1.387669E+00 +4.191160E+00     +5.433811E+00 +1.679949E+00 +5.185890E+00     +5.433811E+00 +1.679949E+00 +5.185890E+00    
 +5.433811E+00 +1.679949E+00 +5.185890E+00     +3.594226E-01 +2.151391E+00 +5.300430E+00     +5.433811E+00 +1.679949E+00 +5.185890E+00     +5.433811E+00 +1.679949E+00 +5.185890E+00     +1.730440E+00 +1.973601E+00 +5.111280E+00     +1.730440E+00 +1.973601E+00 +5.111280E+00     +3.680027E-01 +1.781810E+00 +2.174680E-02     +3.680027E-01 +1.781810E+00 +2.174680E-02     +3.680027E-01 +1.781810E+00 +2.174680E-02     +3.680027E-01 +1.781810E+00 +2.174680E-02     +3.680027E-01 +1.781810E+00 +2.174680E-02     +9.478342E-01 +1.460731E+00 +2.908085E-01     +9.478342E-01 +1.460731E+00 +2.908085E-01     +9.478342E-01 +1.460731E+00 +2.908085E-01     +9.478342E-01 +1.460731E+00 +2.908085E-01     +9.478342E-01 +1.460731E+00 +2.908085E-01     +3.433651E+00 +1.387669E+00 +4.191160E+00     +3.433651E+00 +1.387669E+00 +4.191160E+00     +3.433651E+00 +1.387669E+00 +4.191160E+00     +3.433651E+00 +1.387669E+00 +4.191160E+00     +5.433811E+00 +1.679949E+00 +5.185890E+00    
 +5.433811E+00 +1.679949E+00 +5.185890E+00     +5.433811E+00 +1.679949E+00 +5.185890E+00     +5.433811E+00 +1.679949E+00 +5.185890E+00     +5.433811E+00 +1.679949E+00 +5.185890E+00     +3.680027E-01 +1.781810E+00 +2.174680E-02     +3.680027E-01 +1.781810E+00 +2.174680E-02     +3.680027E-01 +1.781810E+00 +2.174680E-02     +3.680027E-01 +1.781810E+00 +2.174680E-02     +3.680027E-01 +1.781810E+00 +2.174680E-02     +3.680027E-01 +1.781810E+00 +2.174680E-02     +3.680027E-01 +1.781810E+00 +2.174680E-02     +9.478342E-01 +1.460731E+00 +2.908085E-01     +9.478342E-01 +1.460731E+00 +2.908085E-01     +9.478342E-01 +1.460731E+00 +2.908085E-01     +9.478342E-01 +1.460731E+00 +2.908085E-01     +9.478342E-01 +1.460731E+00 +2.908085E-01     +3.433651E+00 +1.387669E+00 +4.191160E+00     +3.433651E+00 +1.387669E+00 +4.191160E+00     +3.433651E+00 +1.387669E+00 +4.191160E+00     +3.433651E+00 +1.387669E+00 +4.191160E+00     +5.433811E+00 +1.679949E+00 +5.185890E+00    
 +5.433811E+00 +1.679949E+00 +5.185890E+00     +5.433811E+00 +1.679949E+00 +5.185890E+00     +5.433811E+00 +1.679949E+00 +5.185890E+00     +5.433811E+00 +1.679949E+00 +5.185890E+00     +3.680027E-01 +1.781810E+00 +2.174680E-02     +3.680027E-01 +1.781810E+00 +2.174680E-02     +3.680027E-01 +1.781810E+00 +2.174680E-02     +5.872230E+00 +7.271635E-01 +1.324391E+00     +3.680027E-01 +1.781810E+00 +2.174680E-02     +3.680027E-01 +1.781810E+00 +2.174680E-02     +3.680027E-01 +1.781810E+00 +2.174680E-02     +9.478342E-01 +1.460731E+00 +2.908085E-01     +9.478342E-01 +1.460731E+00 +2.908085E-01     +9.478342E-01 +1.460731E+00 +2.908085E-01     +9.478342E-01 +1.460731E+00 +2.908085E-01     +3.433651E+00 +1.387669E+00 +4.191160E+00     +3.433651E+00 +1.387669E+00 +4.191160E+00     +3.433651E+00 +1.387669E+00 +4.191160E+00     +3.433651E+00 +1.387669E+00 +4.191160E+00     +3.433651E+00 +1.387669E+00 +4.191160E+00     +5.433811E+00 +1.679949E+00 +5.185890E+00    
 +5.433811E+00 +1.679949E+00 +5.185890E+00     +5.433811E+00 +1.679949E+00 +5.185890E+00     +5.433811E+00 +1.679949E+00 +5.185890E+00     +2.615599E+00 +1.628670E+00 +4.890741E+00     +3.680027E-01 +1.781810E+00 +2.174680E-02     +3.680027E-01 +1.781810E+00 +2.174680E-02     +3.680027E-01 +1.781810E+00 +2.174680E-02     +5.872230E+00 +7.271635E-01 +1.324391E+00     +5.872230E+00 +7.271635E-01 +1.324391E+00     +3.680027E-01 +1.781810E+00 +2.174680E-02     +1.275359E+00 +2.170849E+00 +8.672960E-01     +1.275359E+00 +2.170849E+00 +8.672960E-01     +5.176631E+00 +1.026130E+00 +2.206360E+00     +5.176631E+00 +1.026130E+00 +2.206360E+00     +5.176631E+00 +1.026130E+00 +2.206360E+00     +3.433651E+00 +1.387669E+00 +4.191160E+00     +3.433651E+00 +1.387669E+00 +4.191160E+00     +3.433651E+00 +1.387669E+00 +4.191160E+00     +3.433651E+00 +1.387669E+00 +4.191160E+00     +2.765171E+00 +1.135571E+00 +5.039141E+00     +2.765171E+00 +1.135571E+00 +5.039141E+00    
 +2.615599E+00 +1.628670E+00 +4.890741E+00     +2.615599E+00 +1.628670E+00 +4.890741E+00     +2.615599E+00 +1.628670E+00 +4.890741E+00     +2.615599E+00 +1.628670E+00 +4.890741E+00     +2.615599E+00 +1.628670E+00 +4.890741E+00     +3.680027E-01 +1.781810E+00 +2.174680E-02     +3.680027E-01 +1.781810E+00 +2.174680E-02     +5.872230E+00 +7.271635E-01 +1.324391E+00     +5.872230E+00 +7.271635E-01 +1.324391E+00     +1.275359E+00 +2.170849E+00 +8.672960E-01     +1.275359E+00 +2.170849E+00 +8.672960E-01     +1.275359E+00 +2.170849E+00 +8.672960E-01     +5.176631E+00 +1.026130E+00 +2.206360E+00     +5.176631E+00 +1.026130E+00 +2.206360E+00     +5.176631E+00 +1.026130E+00 +2.206360E+00     +5.804021E+00 +1.837120E+00 +1.865720E+00     +3.433651E+00 +1.387669E+00 +4.191160E+00     +3.433651E+00 +1.387669E+00 +4.191160E+00     +2.765171E+00 +1.135571E+00 +5.039141E+00     +2.765171E+00 +1.135571E+00 +5.039141E+00     +2.765171E+00 +1.135571E+00 +5.039141E+00    
 +2.615599E+00 +1.628670E+00 +4.890741E+00     +2.615599E+00 +1.628670E+00 +4.890741E+00     +2.615599E+00 +1.628670E+00 +4.890741E+00     +2.615599E+00 +1.628670E+00 +4.890741E+00     +2.615599E+00 +1.628670E+00 +4.890741E+00     +1.114019E+00 +9.085102E-01 +5.696470E+00     +1.114019E+00 +9.085102E-01 +5.696470E+00     +9.955812E-01 +2.258920E+00 +2.958440E+00     +9.955812E-01 +2.258920E+00 +2.958440E+00     +9.955812E-01 +2.258920E+00 +2.958440E+00     +1.275359E+00 +2.170849E+00 +8.672960E-01     +1.275359E+00 +2.170849E+00 +8.672960E-01     +1.275359E+00 +2.170849E+00 +8.672960E-01     +5.176631E+00 +1.026130E+00 +2.206360E+00     +5.858500E+00 +2.491110E+00 +6.200010E+00     +5.858500E+00 +2.491110E+00 +6.200010E+00     +5.858500E+00 +2.491110E+00 +6.200010E+00     +5.858500E+00 +2.491110E+00 +6.200010E+00     +2.765171E+00 +1.135571E+00 +5.039141E+00     +2.765171E+00 +1.135571E+00 +5.039141E+00     +2.615599E+00 +1.628670E+00 +4.890741E+00    
 +2.615599E+00 +1.628670E+00 +4.890741E+00     +2.615599E+00 +1.628670E+00 +4.890741E+00     +2.615599E+00 +1.628670E+00 +4.890741E+00     +2.615599E+00 +1.628670E+00 +4.890741E+00     +2.615599E+00 +1.628670E+00 +4.890741E+00     +1.114019E+00 +9.085102E-01 +5.696470E+00     +1.114019E+00 +9.085102E-01 +5.696470E+00     +9.955812E-01 +2.258920E+00 +2.958440E+00     +9.955812E-01 +2.258920E+00 +2.958440E+00     +9.955812E-01 +2.258920E+00 +2.958440E+00     +9.955812E-01 +2.258920E+00 +2.958440E+00     +1.275359E+00 +2.170849E+00 +8.672960E-01     +1.275359E+00 +2.170849E+00 +8.672960E-01     +5.858500E+00 +2.491110E+00 +6.200010E+00     +5.858500E+00 +2.491110E+00 +6.200010E+00     +5.858500E+00 +2.491110E+00 +6.200010E+00     +5.858500E+00 +2.491110E+00 +6.200010E+00     +5.858500E+00 +2.491110E+00 +6.200010E+00     +3.230280E+00 +1.770179E+00 +4.852461E+00     +3.230280E+00 +1.770179E+00 +4.852461E+00     +2.615599E+00 +1.628670E+00 +4.890741E+00    
 +2.615599E+00 +1.628670E+00 +4.890741E+00     +2.615599E+00 +1.628670E+00 +4.890741E+00     +2.615599E+00 +1.628670E+00 +4.890741E+00     +2.615599E+00 +1.628670E+00 +4.890741E+00     +4.046370E+00 +2.683341E+00 +1.019586E-01     +4.046370E+00 +2.683341E+00 +1.019586E-01     +1.114019E+00 +9.085102E-01 +5.696470E+00     +9.955812E-01 +2.258920E+00 +2.958440E+00     +9.955812E-01 +2.258920E+00 +2.958440E+00     +9.955812E-01 +2.258920E+00 +2.958440E+00     +1.275359E+00 +2.170849E+00 +8.672960E-01     +1.275359E+00 +2.170849E+00 +8.672960E-01     +1.275359E+00 +2.170849E+00 +8.672960E-01     +5.858500E+00 +2.491110E+00 +6.200010E+00     +5.858500E+00 +2.491110E+00 +6.200010E+00     +5.858500E+00 +2.491110E+00 +6.200010E+00     +5.858500E+00 +2.491110E+00 +6.200010E+00     +3.881970E+00 +6.810327E-01 +3.088199E+00     +3.881970E+00 +6.810327E-01 +3.088199E+00     +3.881970E+00 +6.810327E-01 +3.088199E+00     +2.615599E+00 +1.628670E+00 +4.890741E+00    
 +2.615599E+00 +1.628670E+00 +4.890741E+00     +2.615599E+00 +1.628670E+00 +4.890741E+00     +2.615599E+00 +1.628670E+00 +4.890741E+00     +4.046370E+00 +2.683341E+00 +1.019586E-01     +4.046370E+00 +2.683341E+00 +1.019586E-01     +4.046370E+00 +2.683341E+00 +1.019586E-01     +1.666920E+00 +2.348550E+00 +2.015970E+00     +1.666920E+00 +2.348550E+00 +2.015970E+00     +1.666920E+00 +2.348550E+00 +2.015970E+00     +1.666920E+00 +2.348550E+00 +2.015970E+00     +1.666920E+00 +2.348550E+00 +2.015970E+00     +1.275359E+00 +2.170849E+00 +8.672960E-01     +1.275359E+00 +2.170849E+00 +8.672960E-01     +1.275359E+00 +2.170849E+00 +8.672960E-01     +5.858500E+00 +2.491110E+00 +6.200010E+00     +5.858500E+00 +2.491110E+00 +6.200010E+00     +3.230280E+00 +1.770179E+00 +4.852461E+00     +3.230280E+00 +1.770179E+00 +4.852461E+00     +3.230280E+00 +1.770179E+00 +4.852461E+00     +3.881970E+00 +6.810327E-01 +3.088199E+00     +2.615599E+00 +1.628670E+00 +4.890741E+00    
 +4.305530E+00 +9.631216E-01 +1.169598E-01     +4.305530E+00 +9.631216E-01 +1.169598E-01     +4.305530E+00 +9.631216E-01 +1.169598E-01     +4.046370E+00 +2.683341E+00 +1.019586E-01     +4.046370E+00 +2.683341E+00 +1.019586E-01     +4.046370E+00 +2.683341E+00 +1.019586E-01     +1.666920E+00 +2.348550E+00 +2.015970E+00     +1.666920E+00 +2.348550E+00 +2.015970E+00     +1.666920E+00 +2.348550E+00 +2.015970E+00     +1.666920E+00 +2.348550E+00 +2.015970E+00     +1.666920E+00 +2.348550E+00 +2.015970E+00     +2.403409E+00 +1.538571E+00 +4.591139E+00     +4.813019E+00 +2.408141E+00 +2.331376E-01     +1.275359E+00 +2.170849E+00 +8.672960E-01     +5.915940E+00 +1.370550E+00 +4.709919E+00     +3.881970E+00 +6.810327E-01 +3.088199E+00     +3.881970E+00 +6.810327E-01 +3.088199E+00     +3.881970E+00 +6.810327E-01 +3.088199E+00     +3.881970E+00 +6.810327E-01 +3.088199E+00     +3.881970E+00 +6.810327E-01 +3.088199E+00     +3.881970E+00 +6.810327E-01 +3.088199E+00    
 +4.305530E+00 +9.631216E-01 +1.169598E-01     +4.305530E+00 +9.631216E-01 +1.169598E-01     +1.198790E+00 +2.438080E+00 +8.100614E-01     +1.198790E+00 +2.438080E+00 +8.100614E-01     +1.198790E+00 +2.438080E+00 +8.100614E-01     +1.198790E+00 +2.438080E+00 +8.100614E-01     +1.666920E+00 +2.348550E+00 +2.015970E+00     +1.666920E+00 +2.348550E+00 +2.015970E+00     +1.666920E+00 +2.348550E+00 +2.015970E+00     +1.666920E+00 +2.348550E+00 +2.015970E+00     +1.666920E+00 +2.348550E+00 +2.015970E+00     +2.403409E+00 +1.538571E+00 +4.591139E+00     +4.813019E+00 +2.408141E+00 +2.331376E-01     +5.915940E+00 +1.370550E+00 +4.709919E+00     +5.915940E+00 +1.370550E+00 +4.709919E+00     +5.915940E+00 +1.370550E+00 +4.709919E+00     +5.915940E+00 +1.370550E+00 +4.709919E+00     +3.881970E+00 +6.810327E-01 +3.088199E+00     +3.881970E+00 +6.810327E-01 +3.088199E+00     +4.051160E+00 +6.849475E-01 +3.600789E-01     +4.051160E+00 +6.849475E-01 +3.600789E-01    
 +2.099771E+00 +3.043278E-01 +5.190450E+00     +1.198790E+00 +2.438080E+00 +8.100614E-01     +1.198790E+00 +2.438080E+00 +8.100614E-01     +1.198790E+00 +2.438080E+00 +8.100614E-01     +1.198790E+00 +2.438080E+00 +8.100614E-01     +1.198790E+00 +2.438080E+00 +8.100614E-01     +1.198790E+00 +2.438080E+00 +8.100614E-01     +1.666920E+00 +2.348550E+00 +2.015970E+00     +5.032650E+00 +1.049700E+00 +2.761570E+00     +5.032650E+00 +1.049700E+00 +2.761570E+00     +5.032650E+00 +1.049700E+00 +2.761570E+00     +3.483319E+00 +1.686590E+00 +5.091201E+00     +3.483319E+00 +1.686590E+00 +5.091201E+00     +5.915940E+00 +1.370550E+00 +4.709919E+00     +5.915940E+00 +1.370550E+00 +4.709919E+00     +5.915940E+00 +1.370550E+00 +4.709919E+00     +5.915940E+00 +1.370550E+00 +4.709919E+00     +3.881970E+00 +6.810327E-01 +3.088199E+00     +4.051160E+00 +6.849475E-01 +3.600789E-01     +4.051160E+00 +6.849475E-01 +3.600789E-01     +4.051160E+00 +6.849475E-01 +3.600789E-01    
 +2.099771E+00 +3.043278E-01 +5.190450E+00     +3.539840E+00 +9.509950E-01 +4.313920E+00     +3.539840E+00 +9.509950E-01 +4.313920E+00     +3.539840E+00 +9.509950E-01 +4.313920E+00     +3.539840E+00 +9.509950E-01 +4.313920E+00     +3.539840E+00 +9.509950E-01 +4.313920E+00     +3.539840E+00 +9.509950E-01 +4.313920E+00     +1.666920E+00 +2.348550E+00 +2.015970E+00     +5.032650E+00 +1.049700E+00 +2.761570E+00     +5.032650E+00 +1.049700E+00 +2.761570E+00     +3.483319E+00 +1.686590E+00 +5.091201E+00     +3.483319E+00 +1.686590E+00 +5.091201E+00     +3.483319E+00 +1.686590E+00 +5.091201E+00     +5.915940E+00 +1.370550E+00 +4.709919E+00     +5.915940E+00 +1.370550E+00 +4.709919E+00     +5.915940E+00 +1.370550E+00 +4.709919E+00     +5.915940E+00 +1.370550E+00 +4.709919E+00     +5.915940E+00 +1.370550E+00 +4.709919E+00     +2.099771E+00 +3.043278E-01 +5.190450E+00     +2.099771E+00 +3.043278E-01 +5.190450E+00     +2.099771E+00 +3.043278E-01 +5.190450E+00    
 +2.099771E+00 +3.043278E-01 +5.190450E+00     +2.099771E+00 +3.043278E-01 +5.190450E+00     +3.539840E+00 +9.509950E-01 +4.313920E+00     +3.539840E+00 +9.509950E-01 +4.313920E+00     +3.539840E+00 +9.509950E-01 +4.313920E+00     +3.539840E+00 +9.509950E-01 +4.313920E+00     +7.410406E-01 +1.347391E+00 +6.309173E-01     +3.956649E+00 +1.065070E-01 +3.420859E+00     +3.956649E+00 +1.065070E-01 +3.420859E+00     +3.483319E+00 +1.686590E+00 +5.091201E+00     +3.483319E+00 +1.686590E+00 +5.091201E+00     +3.483319E+00 +1.686590E+00 +5.091201E+00     +3.483319E+00 +1.686590E+00 +5.091201E+00     +5.915940E+00 +1.370550E+00 +4.709919E+00     +5.915940E+00 +1.370550E+00 +4.709919E+00     +5.915940E+00 +1.370550E+00 +4.709919E+00     +5.915940E+00 +1.370550E+00 +4.709919E+00     +2.099771E+00 +3.043278E-01 +5.190450E+00     +2.099771E+00 +3.043278E-01 +5.190450E+00     +2.099771E+00 +3.043278E-01 +5.190450E+00     +2.099771E+00 +3.043278E-01 +5.190450E+00    
 +2.099771E+00 +3.043278E-01 +5.190450E+00     +2.099771E+00 +3.043278E-01 +5.190450E+00     +3.539840E+00 +9.509950E-01 +4.313920E+00     +3.539840E+00 +9.509950E-01 +4.313920E+00     +3.539840E+00 +9.509950E-01 +4.313920E+00     +3.539840E+00 +9.509950E-01 +4.313920E+00     +7.410406E-01 +1.347391E+00 +6.309173E-01     +3.956649E+00 +1.065070E-01 +3.420859E+00     +5.646151E+00 +1.008350E+00 +4.577880E+00     +5.646151E+00 +1.008350E+00 +4.577880E+00     +3.483319E+00 +1.686590E+00 +5.091201E+00     +3.483319E+00 +1.686590E+00 +5.091201E+00     +3.483319E+00 +1.686590E+00 +5.091201E+00     +5.915940E+00 +1.370550E+00 +4.709919E+00     +5.915940E+00 +1.370550E+00 +4.709919E+00     +5.915940E+00 +1.370550E+00 +4.709919E+00     +5.570089E+00 +1.761910E+00 +5.651350E+00     +5.570089E+00 +1.761910E+00 +5.651350E+00     +2.099771E+00 +3.043278E-01 +5.190450E+00     +2.099771E+00 +3.043278E-01 +5.190450E+00     +2.099771E+00 +3.043278E-01 +5.190450E+00    
 +2.099771E+00 +3.043278E-01 +5.190450E+00     +2.099771E+00 +3.043278E-01 +5.190450E+00     +3.539840E+00 +9.509950E-01 +4.313920E+00     +3.539840E+00 +9.509950E-01 +4.313920E+00     +3.539840E+00 +9.509950E-01 +4.313920E+00     +2.906589E+00 +1.952840E+00 +5.279670E+00     +7.410406E-01 +1.347391E+00 +6.309173E-01     +3.956649E+00 +1.065070E-01 +3.420859E+00     +5.646151E+00 +1.008350E+00 +4.577880E+00     +5.646151E+00 +1.008350E+00 +4.577880E+00     +5.646151E+00 +1.008350E+00 +4.577880E+00     +3.483319E+00 +1.686590E+00 +5.091201E+00     +3.483319E+00 +1.686590E+00 +5.091201E+00     +6.149331E+00 +1.068421E+00 +1.449381E+00     +6.149331E+00 +1.068421E+00 +1.449381E+00     +6.149331E+00 +1.068421E+00 +1.449381E+00     +5.570089E+00 +1.761910E+00 +5.651350E+00     +5.570089E+00 +1.761910E+00 +5.651350E+00     +2.099771E+00 +3.043278E-01 +5.190450E+00     +2.099771E+00 +3.043278E-01 +5.190450E+00     +2.099771E+00 +3.043278E-01 +5.190450E+00    
 +2.099771E+00 +3.043278E-01 +5.190450E+00     +3.310211E+00 +1.307440E+00 +3.972190E+00     +3.310211E+00 +1.307440E+00 +3.972190E+00     +8.389483E-01 +7.921194E-01 +1.657923E-01     +8.389483E-01 +7.921194E-01 +1.657923E-01     +2.906589E+00 +1.952840E+00 +5.279670E+00     +4.558015E-01 +1.537501E+00 +1.064860E+00     +3.956649E+00 +1.065070E-01 +3.420859E+00     +5.646151E+00 +1.008350E+00 +4.577880E+00     +5.646151E+00 +1.008350E+00 +4.577880E+00     +5.646151E+00 +1.008350E+00 +4.577880E+00     +2.488949E+00 +9.638284E-01 +4.558980E+00     +3.483319E+00 +1.686590E+00 +5.091201E+00     +6.149331E+00 +1.068421E+00 +1.449381E+00     +6.149331E+00 +1.068421E+00 +1.449381E+00     +6.149331E+00 +1.068421E+00 +1.449381E+00     +6.149331E+00 +1.068421E+00 +1.449381E+00     +5.570089E+00 +1.761910E+00 +5.651350E+00     +2.099771E+00 +3.043278E-01 +5.190450E+00     +2.099771E+00 +3.043278E-01 +5.190450E+00     +2.099771E+00 +3.043278E-01 +5.190450E+00    
 +3.310211E+00 +1.307440E+00 +3.972190E+00     +3.310211E+00 +1.307440E+00 +3.972190E+00     +3.310211E+00 +1.307440E+00 +3.972190E+00     +8.389483E-01 +7.921194E-01 +1.657923E-01     +8.389483E-01 +7.921194E-01 +1.657923E-01     +4.558015E-01 +1.537501E+00 +1.064860E+00     +4.558015E-01 +1.537501E+00 +1.064860E+00     +4.558015E-01 +1.537501E+00 +1.064860E+00     +4.558015E-01 +1.537501E+00 +1.064860E+00     +5.646151E+00 +1.008350E+00 +4.577880E+00     +2.488949E+00 +9.638284E-01 +4.558980E+00     +2.488949E+00 +9.638284E-01 +4.558980E+00     +2.488949E+00 +9.638284E-01 +4.558980E+00     +6.149331E+00 +1.068421E+00 +1.449381E+00     +6.149331E+00 +1.068421E+00 +1.449381E+00     +6.149331E+00 +1.068421E+00 +1.449381E+00     +6.149331E+00 +1.068421E+00 +1.449381E+00     +1.615070E+00 +1.144740E+00 +5.368900E+00     +2.099771E+00 +3.043278E-01 +5.190450E+00     +1.488501E+00 +1.369720E+00 +4.647463E-02     +2.099771E+00 +3.043278E-01 +5.190450E+00    
 +3.289830E+00 +2.250270E+00 +2.792970E+00     +3.289830E+00 +2.250270E+00 +2.792970E+00     +3.289830E+00 +2.250270E+00 +2.792970E+00     +8.389483E-01 +7.921194E-01 +1.657923E-01     +4.558015E-01 +1.537501E+00 +1.064860E+00     +4.558015E-01 +1.537501E+00 +1.064860E+00     +4.558015E-01 +1.537501E+00 +1.064860E+00     +4.558015E-01 +1.537501E+00 +1.064860E+00     +4.558015E-01 +1.537501E+00 +1.064860E+00     +4.558015E-01 +1.537501E+00 +1.064860E+00     +2.488949E+00 +9.638284E-01 +4.558980E+00     +2.488949E+00 +9.638284E-01 +4.558980E+00     +2.488949E+00 +9.638284E-01 +4.558980E+00     +6.149331E+00 +1.068421E+00 +1.449381E+00     +6.149331E+00 +1.068421E+00 +1.449381E+00     +6.149331E+00 +1.068421E+00 +1.449381E+00     +6.149331E+00 +1.068421E+00 +1.449381E+00     +6.149331E+00 +1.068421E+00 +1.449381E+00     +1.488501E+00 +1.369720E+00 +4.647463E-02     +1.488501E+00 +1.369720E+00 +4.647463E-02     +2.099771E+00 +3.043278E-01 +5.190450E+00    
 +3.289830E+00 +2.250270E+00 +2.792970E+00     +3.289830E+00 +2.250270E+00 +2.792970E+00     +3.289830E+00 +2.250270E+00 +2.792970E+00     +3.289830E+00 +2.250270E+00 +2.792970E+00     +4.558015E-01 +1.537501E+00 +1.064860E+00     +4.558015E-01 +1.537501E+00 +1.064860E+00     +4.558015E-01 +1.537501E+00 +1.064860E+00     +4.558015E-01 +1.537501E+00 +1.064860E+00     +4.558015E-01 +1.537501E+00 +1.064860E+00     +4.558015E-01 +1.537501E+00 +1.064860E+00     +2.488949E+00 +9.638284E-01 +4.558980E+00     +9.478342E-01 +1.460731E+00 +2.908085E-01     +9.478342E-01 +1.460731E+00 +2.908085E-01     +9.478342E-01 +1.460731E+00 +2.908085E-01     +6.149331E+00 +1.068421E+00 +1.449381E+00     +6.149331E+00 +1.068421E+00 +1.449381E+00     +6.149331E+00 +1.068421E+00 +1.449381E+00     +6.149331E+00 +1.068421E+00 +1.449381E+00     +6.149331E+00 +1.068421E+00 +1.449381E+00     +1.488501E+00 +1.369720E+00 +4.647463E-02     +5.433811E+00 +1.679949E+00 +5.185890E+00    
 +6.098370E+00 +7.690217E-01 +9.597182E-01     +6.098370E+00 +7.690217E-01 +9.597182E-01     +6.098370E+00 +7.690217E-01 +9.597182E-01     +6.098370E+00 +7.690217E-01 +9.597182E-01     +3.680027E-01 +1.781810E+00 +2.174680E-02     +3.680027E-01 +1.781810E+00 +2.174680E-02     +3.680027E-01 +1.781810E+00 +2.174680E-02     +4.558015E-01 +1.537501E+00 +1.064860E+00     +3.680027E-01 +1.781810E+00 +2.174680E-02     +3.680027E-01 +1.781810E+00 +2.174680E-02     +3.680027E-01 +1.781810E+00 +2.174680E-02     +9.478342E-01 +1.460731E+00 +2.908085E-01     +9.478342E-01 +1.460731E+00 +2.908085E-01     +9.478342E-01 +1.460731E+00 +2.908085E-01     +9.478342E-01 +1.460731E+00 +2.908085E-01     +9.478342E-01 +1.460731E+00 +2.908085E-01     +6.149331E+00 +1.068421E+00 +1.449381E+00     +6.149331E+00 +1.068421E+00 +1.449381E+00     +6.149331E+00 +1.068421E+00 +1.449381E+00     +5.433811E+00 +1.679949E+00 +5.185890E+00     +5.433811E+00 +1.679949E+00 +5.185890E+00    
 +5.433811E+00 +1.679949E+00 +5.185890E+00     +3.594226E-01 +2.151391E+00 +5.300430E+00     +6.098370E+00 +7.690217E-01 +9.597182E-01     +6.098370E+00 +7.690217E-01 +9.597182E-01     +3.680027E-01 +1.781810E+00 +2.174680E-02     +3.680027E-01 +1.781810E+00 +2.174680E-02     +3.680027E-01 +1.781810E+00 +2.174680E-02     +3.680027E-01 +1.781810E+00 +2.174680E-02     +3.680027E-01 +1.781810E+00 +2.174680E-02     +3.680027E-01 +1.781810E+00 +2.174680E-02     +3.680027E-01 +1.781810E+00 +2.174680E-02     +9.478342E-01 +1.460731E+00 +2.908085E-01     +9.478342E-01 +1.460731E+00 +2.908085E-01     +9.478342E-01 +1.460731E+00 +2.908085E-01     +9.478342E-01 +1.460731E+00 +2.908085E-01     +9.478342E-01 +1.460731E+00 +2.908085E-01     +3.433651E+00 +1.387669E+00 +4.191160E+00     +3.433651E+00 +1.387669E+00 +4.191160E+00     +3.433651E+00 +1.387669E+00 +4.191160E+00     +5.490879E+00 +1.331950E+00 +1.387240E+00     +5.433811E+00 +1.679949E+00 +5.185890E+00    
 +5.433811E+00 +1.679949E+00 +5.185890E+00     +5.433811E+00 +1.679949E+00 +5.185890E+00     +5.433811E+00 +1.679949E+00 +5.185890E+00     +5.433811E+00 +1.679949E+00 +5.185890E+00     +3.680027E-01 +1.781810E+00 +2.174680E-02     +3.680027E-01 +1.781810E+00 +2.174680E-02     +3.680027E-01 +1.781810E+00 +2.174680E-02     +3.680027E-01 +1.781810E+00 +2.174680E-02     +3.680027E-01 +1.781810E+00 +2.174680E-02     +3.680027E-01 +1.781810E+00 +2.174680E-02     +3.680027E-01 +1.781810E+00 +2.174680E-02     +9.478342E-01 +1.460731E+00 +2.908085E-01     +9.478342E-01 +1.460731E+00 +2.908085E-01     +9.478342E-01 +1.460731E+00 +2.908085E-01     +9.478342E-01 +1.460731E+00 +2.908085E-01     +9.478342E-01 +1.460731E+00 +2.908085E-01     +3.433651E+00 +1.387669E+00 +4.191160E+00     +3.433651E+00 +1.387669E+00 +4.191160E+00     +3.433651E+00 +1.387669E+00 +4.191160E+00     +5.490879E+00 +1.331950E+00 +1.387240E+00     +5.490879E+00 +1.331950E+00 +1.387240E+00    
 +5.433811E+00 +1.679949E+00 +5.185890E+00     +5.433811E+00 +1.679949E+00 +5.185890E+00     +5.433811E+00 +1.679949E+00 +5.185890E+00     +5.433811E+00 +1.679949E+00 +5.185890E+00     +3.680027E-01 +1.781810E+00 +2.174680E-02     +3.680027E-01 +1.781810E+00 +2.174680E-02     +3.680027E-01 +1.781810E+00 +2.174680E-02     +3.680027E-01 +1.781810E+00 +2.174680E-02     +3.680027E-01 +1.781810E+00 +2.174680E-02     +3.680027E-01 +1.781810E+00 +2.174680E-02     +3.680027E-01 +1.781810E+00 +2.174680E-02     +9.478342E-01 +1.460731E+00 +2.908085E-01     +9.478342E-01 +1.460731E+00 +2.908085E-01     +9.478342E-01 +1.460731E+00 +2.908085E-01     +9.478342E-01 +1.460731E+00 +2.908085E-01     +3.433651E+00 +1.387669E+00 +4.191160E+00     +3.433651E+00 +1.387669E+00 +4.191160E+00     +3.433651E+00 +1.387669E+00 +4.191160E+00     +3.433651E+00 +1.387669E+00 +4.191160E+00     +5.490879E+00 +1.331950E+00 +1.387240E+00     +5.490879E+00 +1.331950E+00 +1.387240E+00    
 +2.615599E+00 +1.628670E+00 +4.890741E+00     +2.615599E+00 +1.628670E+00 +4.890741E+00     +2.615599E+00 +1.628670E+00 +4.890741E+00     +8.284624E-01 +9.850813E-01 +5.831145E-02     +8.284624E-01 +9.850813E-01 +5.831145E-02     +3.680027E-01 +1.781810E+00 +2.174680E-02     +3.680027E-01 +1.781810E+00 +2.174680E-02     +3.680027E-01 +1.781810E+00 +2.174680E-02     +3.680027E-01 +1.781810E+00 +2.174680E-02     +3.680027E-01 +1.781810E+00 +2.174680E-02     +1.275359E+00 +2.170849E+00 +8.672960E-01     +1.275359E+00 +2.170849E+00 +8.672960E-01     +1.275359E+00 +2.170849E+00 +8.672960E-01     +5.176631E+00 +1.026130E+00 +2.206360E+00     +5.176631E+00 +1.026130E+00 +2.206360E+00     +3.433651E+00 +1.387669E+00 +4.191160E+00     +3.433651E+00 +1.387669E+00 +4.191160E+00     +3.433651E+00 +1.387669E+00 +4.191160E+00     +2.765171E+00 +1.135571E+00 +5.039141E+00     +2.765171E+00 +1.135571E+00 +5.039141E+00     +2.765171E+00 +1.135571E+00 +5.039141E+00    
 +2.615599E+00 +1.628670E+00 +4.890741E+00     +2.615599E+00 +1.628670E+00 +4.890741E+00     +2.615599E+00 +1.628670E+00 +4.890741E+00     +2.615599E+00 +1.628670E+00 +4.890741E+00     +8.284624E-01 +9.850813E-01 +5.831145E-02     +3.680027E-01 +1.781810E+00 +2.174680E-02     +3.680027E-01 +1.781810E+00 +2.174680E-02     +3.680027E-01 +1.781810E+00 +2.174680E-02     +3.680027E-01 +1.781810E+00 +2.174680E-02     +1.275359E+00 +2.170849E+00 +8.672960E-01     +1.275359E+00 +2.170849E+00 +8.672960E-01     +1.275359E+00 +2.170849E+00 +8.672960E-01     +1.275359E+00 +2.170849E+00 +8.672960E-01     +5.176631E+00 +1.026130E+00 +2.206360E+00     +5.176631E+00 +1.026130E+00 +2.206360E+00     +5.804021E+00 +1.837120E+00 +1.865720E+00     +3.433651E+00 +1.387669E+00 +4.191160E+00     +2.765171E+00 +1.135571E+00 +5.039141E+00     +2.765171E+00 +1.135571E+00 +5.039141E+00     +2.765171E+00 +1.135571E+00 +5.039141E+00     +2.765171E+00 +1.135571E+00 +5.039141E+00    
 +2.615599E+00 +1.628670E+00 +4.890741E+00     +2.615599E+00 +1.628670E+00 +4.890741E+00     +2.615599E+00 +1.628670E+00 +4.890741E+00     +2.615599E+00 +1.628670E+00 +4.890741E+00     +2.615599E+00 +1.628670E+00 +4.890741E+00     +2.615599E+00 +1.628670E+00 +4.890741E+00     +3.680027E-01 +1.781810E+00 +2.174680E-02     +9.955812E-01 +2.258920E+00 +2.958440E+00     +9.955812E-01 +2.258920E+00 +2.958440E+00     +1.275359E+00 +2.170849E+00 +8.672960E-01     +1.275359E+00 +2.170849E+00 +8.672960E-01     +1.275359E+00 +2.170849E+00 +8.672960E-01     +1.275359E+00 +2.170849E+00 +8.672960E-01     +1.275359E+00 +2.170849E+00 +8.672960E-01     +5.858500E+00 +2.491110E+00 +6.200010E+00     +5.858500E+00 +2.491110E+00 +6.200010E+00     +5.858500E+00 +2.491110E+00 +6.200010E+00     +3.230280E+00 +1.770179E+00 +4.852461E+00     +2.765171E+00 +1.135571E+00 +5.039141E+00     +2.765171E+00 +1.135571E+00 +5.039141E+00     +2.765171E+00 +1.135571E+00 +5.039141E+00    
 +2.615599E+00 +1.628670E+00 +4.890741E+00     +2.615599E+00 +1.628670E+00 +4.890741E+00     +2.615599E+00 +1.628670E+00 +4.890741E+00     +2.615599E+00 +1.628670E+00 +4.890741E+00     +2.615599E+00 +1.628670E+00 +4.890741E+00     +2.615599E+00 +1.628670E+00 +4.890741E+00     +9.955812E-01 +2.258920E+00 +2.958440E+00     +9.955812E-01 +2.258920E+00 +2.958440E+00     +9.955812E-01 +2.258920E+00 +2.958440E+00     +9.955812E-01 +2.258920E+00 +2.958440E+00     +1.275359E+00 +2.170849E+00 +8.672960E-01     +1.275359E+00 +2.170849E+00 +8.672960E-01     +1.275359E+00 +2.170849E+00 +8.672960E-01     +1.275359E+00 +2.170849E+00 +8.672960E-01     +5.858500E+00 +2.491110E+00 +6.200010E+00     +5.858500E+00 +2.491110E+00 +6.200010E+00     +5.858500E+00 +2.491110E+00 +6.200010E+00     +3.230280E+00 +1.770179E+00 +4.852461E+00     +3.230280E+00 +1.770179E+00 +4.852461E+00     +3.230280E+00 +1.770179E+00 +4.852461E+00     +2.615599E+00 +1.628670E+00 +4.890741E+00    
 +2.615599E+00 +1.628670E+00 +4.890741E+00     +2.615599E+00 +1.628670E+00 +4.890741E+00     +2.615599E+00 +1.628670E+00 +4.890741E+00     +2.615599E+00 +1.628670E+00 +4.890741E+00     +2.615599E+00 +1.628670E+00 +4.890741E+00     +2.615599E+00 +1.628670E+00 +4.890741E+00     +9.955812E-01 +2.258920E+00 +2.958440E+00     +9.955812E-01 +2.258920E+00 +2.958440E+00     +9.955812E-01 +2.258920E+00 +2.958440E+00     +1.275359E+00 +2.170849E+00 +8.672960E-01     +1.275359E+00 +2.170849E+00 +8.672960E-01     +1.275359E+00 +2.170849E+00 +8.672960E-01     +1.275359E+00 +2.170849E+00 +8.672960E-01     +1.275359E+00 +2.170849E+00 +8.672960E-01     +5.858500E+00 +2.491110E+00 +6.200010E+00     +5.858500E+00 +2.491110E+00 +6.200010E+00     +3.230280E+00 +1.770179E+00 +4.852461E+00     +3.230280E+00 +1.770179E+00 +4.852461E+00     +3.230280E+00 +1.770179E+00 +4.852461E+00     +3.230280E+00 +1.770179E+00 +4.852461E+00     +2.615599E+00 +1.628670E+00 +4.890741E+00    
 +4.812670E+00 +2.299791E+00 +4.509041E+00     +4.812670E+00 +2.299791E+00 +4.509041E+00     +4.812670E+00 +2.299791E+00 +4.509041E+00     +4.812670E+00 +2.299791E+00 +4.509041E+00     +4.046370E+00 +2.683341E+00 +1.019586E-01     +1.666920E+00 +2.348550E+00 +2.015970E+00     +1.666920E+00 +2.348550E+00 +2.015970E+00     +1.666920E+00 +2.348550E+00 +2.015970E+00     +1.666920E+00 +2.348550E+00 +2.015970E+00     +1.666920E+00 +2.348550E+00 +2.015970E+00     +1.666920E+00 +2.348550E+00 +2.015970E+00     +1.275359E+00 +2.170849E+00 +8.672960E-01     +1.275359E+00 +2.170849E+00 +8.672960E-01     +1.275359E+00 +2.170849E+00 +8.672960E-01     +1.275359E+00 +2.170849E+00 +8.672960E-01     +3.230280E+00 +1.770179E+00 +4.852461E+00     +3.230280E+00 +1.770179E+00 +4.852461E+00     +3.230280E+00 +1.770179E+00 +4.852461E+00     +3.230280E+00 +1.770179E+00 +4.852461E+00     +3.230280E+00 +1.770179E+00 +4.852461E+00     +2.615599E+00 +1.628670E+00 +4.890741E+00    
 +4.305530E+00 +9.631216E-01 +1.169598E-01     +4.305530E+00 +9.631216E-01 +1.169598E-01     +4.305530E+00 +9.631216E-01 +1.169598E-01     +4.305530E+00 +9.631216E-01 +1.169598E-01     +4.046370E+00 +2.683341E+00 +1.019586E-01     +5.204900E+00 +1.079929E+00 +3.982901E+00     +5.204900E+00 +1.079929E+00 +3.982901E+00     +5.204900E+00 +1.079929E+00 +3.982901E+00     +1.666920E+00 +2.348550E+00 +2.015970E+00     +5.203431E+00 +1.491560E+00 +1.852030E+00     +1.666920E+00 +2.348550E+00 +2.015970E+00     +1.666920E+00 +2.348550E+00 +2.015970E+00     +1.275359E+00 +2.170849E+00 +8.672960E-01     +1.275359E+00 +2.170849E+00 +8.672960E-01     +4.742130E+00 +1.957270E+00 +8.167478E-01     +4.742130E+00 +1.957270E+00 +8.167478E-01     +3.230280E+00 +1.770179E+00 +4.852461E+00     +3.881970E+00 +6.810327E-01 +3.088199E+00     +3.230280E+00 +1.770179E+00 +4.852461E+00     +3.230280E+00 +1.770179E+00 +4.852461E+00     +2.421060E+00 +1.825970E+00 +4.804870E+00    
 +4.305530E+00 +9.631216E-01 +1.169598E-01     +4.305530E+00 +9.631216E-01 +1.169598E-01     +4.305530E+00 +9.631216E-01 +1.169598E-01     +4.305530E+00 +9.631216E-01 +1.169598E-01     +4.549539E+00 +1.545980E+00 +3.262760E+00     +4.549539E+00 +1.545980E+00 +3.262760E+00     +5.204900E+00 +1.079929E+00 +3.982901E+00     +1.666920E+00 +2.348550E+00 +2.015970E+00     +1.666920E+00 +2.348550E+00 +2.015970E+00     +1.666920E+00 +2.348550E+00 +2.015970E+00     +1.666920E+00 +2.348550E+00 +2.015970E+00     +1.666920E+00 +2.348550E+00 +2.015970E+00     +1.275359E+00 +2.170849E+00 +8.672960E-01     +5.915940E+00 +1.370550E+00 +4.709919E+00     +4.742130E+00 +1.957270E+00 +8.167478E-01     +4.742130E+00 +1.957270E+00 +8.167478E-01     +4.742130E+00 +1.957270E+00 +8.167478E-01     +4.742130E+00 +1.957270E+00 +8.167478E-01     +2.070980E+00 +9.549901E-01 +5.551800E+00     +2.070980E+00 +9.549901E-01 +5.551800E+00     +2.421060E+00 +1.825970E+00 +4.804870E+00    
 +4.305530E+00 +9.631216E-01 +1.169598E-01     +4.305530E+00 +9.631216E-01 +1.169598E-01     +4.305530E+00 +9.631216E-01 +1.169598E-01     +1.198790E+00 +2.438080E+00 +8.100614E-01     +4.549539E+00 +1.545980E+00 +3.262760E+00     +4.549539E+00 +1.545980E+00 +3.262760E+00     +5.848241E+00 +2.706412E-01 +1.179061E+00     +5.848241E+00 +2.706412E-01 +1.179061E+00     +5.032650E+00 +1.049700E+00 +2.761570E+00     +4.778410E+00 +1.572580E+00 +5.564960E+00     +5.032650E+00 +1.049700E+00 +2.761570E+00     +3.483319E+00 +1.686590E+00 +5.091201E+00     +3.483319E+00 +1.686590E+00 +5.091201E+00     +5.915940E+00 +1.370550E+00 +4.709919E+00     +4.742130E+00 +1.957270E+00 +8.167478E-01     +4.742130E+00 +1.957270E+00 +8.167478E-01     +4.742130E+00 +1.957270E+00 +8.167478E-01     +2.070980E+00 +9.549901E-01 +5.551800E+00     +2.070980E+00 +9.549901E-01 +5.551800E+00     +2.070980E+00 +9.549901E-01 +5.551800E+00     +2.070980E+00 +9.549901E-01 +5.551800E+00    
 +2.099771E+00 +3.043278E-01 +5.190450E+00     +5.381670E-01 +6.205536E-01 +1.011910E+00     +3.539840E+00 +9.509950E-01 +4.313920E+00     +3.539840E+00 +9.509950E-01 +4.313920E+00     +3.539840E+00 +9.509950E-01 +4.313920E+00     +4.549539E+00 +1.545980E+00 +3.262760E+00     +4.549539E+00 +1.545980E+00 +3.262760E+00     +5.848241E+00 +2.706412E-01 +1.179061E+00     +5.032650E+00 +1.049700E+00 +2.761570E+00     +5.032650E+00 +1.049700E+00 +2.761570E+00     +3.483319E+00 +1.686590E+00 +5.091201E+00     +3.483319E+00 +1.686590E+00 +5.091201E+00     +3.483319E+00 +1.686590E+00 +5.091201E+00     +3.483319E+00 +1.686590E+00 +5.091201E+00     +5.915940E+00 +1.370550E+00 +4.709919E+00     +4.742130E+00 +1.957270E+00 +8.167478E-01     +4.742130E+00 +1.957270E+00 +8.167478E-01     +2.070980E+00 +9.549901E-01 +5.551800E+00     +2.070980E+00 +9.549901E-01 +5.551800E+00     +2.518821E+00 +1.471250E+00 +4.781989E+00     +2.518821E+00 +1.471250E+00 +4.781989E+00    
 +2.099771E+00 +3.043278E-01 +5.190450E+00     +2.099771E+00 +3.043278E-01 +5.190450E+00     +3.539840E+00 +9.509950E-01 +4.313920E+00     +3.539840E+00 +9.509950E-01 +4.313920E+00     +3.539840E+00 +9.509950E-01 +4.313920E+00     +2.906589E+00 +1.952840E+00 +5.279670E+00     +7.410406E-01 +1.347391E+00 +6.309173E-01     +7.410406E-01 +1.347391E+00 +6.309173E-01     +5.032650E+00 +1.049700E+00 +2.761570E+00     +3.483319E+00 +1.686590E+00 +5.091201E+00     +3.483319E+00 +1.686590E+00 +5.091201E+00     +3.483319E+00 +1.686590E+00 +5.091201E+00     +3.483319E+00 +1.686590E+00 +5.091201E+00     +3.483319E+00 +1.686590E+00 +5.091201E+00     +5.915940E+00 +1.370550E+00 +4.709919E+00     +5.915940E+00 +1.370550E+00 +4.709919E+00     +5.915940E+00 +1.370550E+00 +4.709919E+00     +2.070980E+00 +9.549901E-01 +5.551800E+00     +2.070980E+00 +9.549901E-01 +5.551800E+00     +2.518821E+00 +1.471250E+00 +4.781989E+00     +2.099771E+00 +3.043278E-01 +5.190450E+00    
 +2.099771E+00 +3.043278E-01 +5.190450E+00     +2.099771E+00 +3.043278E-01 +5.190450E+00     +3.539840E+00 +9.509950E-01 +4.313920E+00     +3.539840E+00 +9.509950E-01 +4.313920E+00     +2.906589E+00 +1.952840E+00 +5.279670E+00     +2.906589E+00 +1.952840E+00 +5.279670E+00     +7.410406E-01 +1.347391E+00 +6.309173E-01     +7.410406E-01 +1.347391E+00 +6.309173E-01     +7.410406E-01 +1.347391E+00 +6.309173E-01     +3.483319E+00 +1.686590E+00 +5.091201E+00     +3.483319E+00 +1.686590E+00 +5.091201E+00     +3.483319E+00 +1.686590E+00 +5.091201E+00     +3.483319E+00 +1.686590E+00 +5.091201E+00     +3.483319E+00 +1.686590E+00 +5.091201E+00     +5.915940E+00 +1.370550E+00 +4.709919E+00     +5.915940E+00 +1.370550E+00 +4.709919E+00     +5.915940E+00 +1.370550E+00 +4.709919E+00     +2.099771E+00 +3.043278E-01 +5.190450E+00     +2.099771E+00 +3.043278E-01 +5.190450E+00     +2.099771E+00 +3.043278E-01 +5.190450E+00     +2.099771E+00 +3.043278E-01 +5.190450E+00    
 +2.099771E+00 +3.043278E-01 +5.190450E+00     +2.099771E+00 +3.043278E-01 +5.190450E+00     +2.099771E+00 +3.043278E-01 +5.190450E+00     +2.906589E+00 +1.952840E+00 +5.279670E+00     +2.906589E+00 +1.952840E+00 +5.279670E+00     +2.906589E+00 +1.952840E+00 +5.279670E+00     +7.410406E-01 +1.347391E+00 +6.309173E-01     +7.410406E-01 +1.347391E+00 +6.309173E-01     +7.410406E-01 +1.347391E+00 +6.309173E-01     +5.646151E+00 +1.008350E+00 +4.577880E+00     +3.483319E+00 +1.686590E+00 +5.091201E+00     +3.483319E+00 +1.686590E+00 +5.091201E+00     +3.483319E+00 +1.686590E+00 +5.091201E+00     +6.149331E+00 +1.068421E+00 +1.449381E+00     +6.149331E+00 +1.068421E+00 +1.449381E+00     +6.149331E+00 +1.068421E+00 +1.449381E+00     +6.149331E+00 +1.068421E+00 +1.449381E+00     +2.099771E+00 +3.043278E-01 +5.190450E+00     +2.099771E+00 +3.043278E-01 +5.190450E+00     +1.458401E+00 +1.573229E+00 +1.711899E+00     +2.099771E+00 +3.043278E-01 +5.190450E+00    
 +2.099771E+00 +3.043278E-01 +5.190450E+00     +2.099771E+00 +3.043278E-01 +5.190450E+00     +8.389483E-01 +7.921194E-01 +1.657923E-01     +8.389483E-01 +7.921194E-01 +1.657923E-01     +2.906589E+00 +1.952840E+00 +5.279670E+00     +2.906589E+00 +1.952840E+00 +5.279670E+00     +7.410406E-01 +1.347391E+00 +6.309173E-01     +7.410406E-01 +1.347391E+00 +6.309173E-01     +5.254021E+00 +2.600570E+00 +4.963440E+00     +5.254021E+00 +2.600570E+00 +4.963440E+00     +5.254021E+00 +2.600570E+00 +4.963440E+00     +2.488949E+00 +9.638284E-01 +4.558980E+00     +2.488949E+00 +9.638284E-01 +4.558980E+00     +6.149331E+00 +1.068421E+00 +1.449381E+00     +6.149331E+00 +1.068421E+00 +1.449381E+00     +6.149331E+00 +1.068421E+00 +1.449381E+00     +6.149331E+00 +1.068421E+00 +1.449381E+00     +2.099771E+00 +3.043278E-01 +5.190450E+00     +2.099771E+00 +3.043278E-01 +5.190450E+00     +2.099771E+00 +3.043278E-01 +5.190450E+00     +2.099771E+00 +3.043278E-01 +5.190450E+00    
 +2.099771E+00 +3.043278E-01 +5.190450E+00     +3.310211E+00 +1.307440E+00 +3.972190E+00     +8.389483E-01 +7.921194E-01 +1.657923E-01     +8.389483E-01 +7.921194E-01 +1.657923E-01     +8.389483E-01 +7.921194E-01 +1.657923E-01     +4.350031E+00 +2.797740E+00 +6.246621E+00     +4.558015E-01 +1.537501E+00 +1.064860E+00     +4.558015E-01 +1.537501E+00 +1.064860E+00     +4.558015E-01 +1.537501E+00 +1.064860E+00     +5.254021E+00 +2.600570E+00 +4.963440E+00     +2.488949E+00 +9.638284E-01 +4.558980E+00     +2.488949E+00 +9.638284E-01 +4.558980E+00     +2.488949E+00 +9.638284E-01 +4.558980E+00     +6.149331E+00 +1.068421E+00 +1.449381E+00     +6.149331E+00 +1.068421E+00 +1.449381E+00     +6.149331E+00 +1.068421E+00 +1.449381E+00     +6.149331E+00 +1.068421E+00 +1.449381E+00     +6.149331E+00 +1.068421E+00 +1.449381E+00     +2.099771E+00 +3.043278E-01 +5.190450E+00     +2.099771E+00 +3.043278E-01 +5.190450E+00     +2.099771E+00 +3.043278E-01 +5.190450E+00    
 +6.098370E+00 +7.690217E-01 +9.597182E-01     +6.098370E+00 +7.690217E-01 +9.597182E-01     +6.098370E+00 +7.690217E-01 +9.597182E-01     +8.389483E-01 +7.921194E-01 +1.657923E-01     +8.389483E-01 +7.921194E-01 +1.657923E-01     +4.558015E-01 +1.537501E+00 +1.064860E+00     +4.558015E-01 +1.537501E+00 +1.064860E+00     +4.558015E-01 +1.537501E+00 +1.064860E+00     +4.558015E-01 +1.537501E+00 +1.064860E+00     +5.254021E+00 +2.600570E+00 +4.963440E+00     +2.488949E+00 +9.638284E-01 +4.558980E+00     +2.488949E+00 +9.638284E-01 +4.558980E+00     +2.488949E+00 +9.638284E-01 +4.558980E+00     +6.149331E+00 +1.068421E+00 +1.449381E+00     +6.149331E+00 +1.068421E+00 +1.449381E+00     +6.149331E+00 +1.068421E+00 +1.449381E+00     +6.149331E+00 +1.068421E+00 +1.449381E+00     +6.149331E+00 +1.068421E+00 +1.449381E+00     +2.099771E+00 +3.043278E-01 +5.190450E+00     +2.099771E+00 +3.043278E-01 +5.190450E+00     +2.099771E+00 +3.043278E-01 +5.190450E+00    
 +6.098370E+00 +7.690217E-01 +9.597182E-01     +6.098370E+00 +7.690217E-01 +9.597182E-01     +6.098370E+00 +7.690217E-01 +9.597182E-01     +6.098370E+00 +7.690217E-01 +9.597182E-01     +6.098370E+00 +7.690217E-01 +9.597182E-01     +4.558015E-01 +1.537501E+00 +1.064860E+00     +4.558015E-01 +1.537501E+00 +1.064860E+00     +4.558015E-01 +1.537501E+00 +1.064860E+00     +4.558015E-01 +1.537501E+00 +1.064860E+00     +4.558015E-01 +1.537501E+00 +1.064860E+00     +2.488949E+00 +9.638284E-01 +4.558980E+00     +2.488949E+00 +9.638284E-01 +4.558980E+00     +9.478342E-01 +1.460731E+00 +2.908085E-01     +6.149331E+00 +1.068421E+00 +1.449381E+00     +6.149331E+00 +1.068421E+00 +1.449381E+00     +6.149331E+00 +1.068421E+00 +1.449381E+00     +6.149331E+00 +1.068421E+00 +1.449381E+00     +6.149331E+00 +1.068421E+00 +1.449381E+00     +6.149331E+00 +1.068421E+00 +1.449381E+00     +6.098370E+00 +7.690217E-01 +9.597182E-01     +6.098370E+00 +7.690217E-01 +9.597182E-01    
 +6.098370E+00 +7.690217E-01 +9.597182E-01     +6.098370E+00 +7.690217E-01 +9.597182E-01     +6.098370E+00 +7.690217E-01 +9.597182E-01     +6.098370E+00 +7.690217E-01 +9.597182E-01     +3.680027E-01 +1.781810E+00 +2.174680E-02     +4.558015E-01 +1.537501E+00 +1.064860E+00     +4.558015E-01 +1.537501E+00 +1.064860E+00     +4.558015E-01 +1.537501E+00 +1.064860E+00     +4.558015E-01 +1.537501E+00 +1.064860E+00     +4.558015E-01 +1.537501E+00 +1.064860E+00     +4.558015E-01 +1.537501E+00 +1.064860E+00     +9.478342E-01 +1.460731E+00 +2.908085E-01     +9.478342E-01 +1.460731E+00 +2.908085E-01     +9.478342E-01 +1.460731E+00 +2.908085E-01     +9.478342E-01 +1.460731E+00 +2.908085E-01     +6.149331E+00 +1.068421E+00 +1.449381E+00     +6.149331E+00 +1.068421E+00 +1.449381E+00     +6.149331E+00 +1.068421E+00 +1.449381E+00     +6.149331E+00 +1.068421E+00 +1.449381E+00     +6.098370E+00 +7.690217E-01 +9.597182E-01     +6.098370E+00 +7.690217E-01 +9.597182E-01    
 +6.098370E+00 +7.690217E-01 +9.597182E-01     +1.085890E+00 +1.555420E+00 +7.832235E-01     +6.098370E+00 +7.690217E-01 +9.597182E-01     +6.098370E+00 +7.690217E-01 +9.597182E-01     +3.680027E-01 +1.781810E+00 +2.174680E-02     +3.680027E-01 +1.781810E+00 +2.174680E-02     +3.680027E-01 +1.781810E+00 +2.174680E-02     +3.680027E-01 +1.781810E+00 +2.174680E-02     +3.680027E-01 +1.781810E+00 +2.174680E-02     +3.680027E-01 +1.781810E+00 +2.174680E-02     +3.680027E-01 +1.781810E+00 +2.174680E-02     +9.478342E-01 +1.460731E+00 +2.908085E-01     +9.478342E-01 +1.460731E+00 +2.908085E-01     +9.478342E-01 +1.460731E+00 +2.908085E-01     +9.478342E-01 +1.460731E+00 +2.908085E-01     +9.478342E-01 +1.460731E+00 +2.908085E-01     +9.478342E-01 +1.460731E+00 +2.908085E-01     +3.433651E+00 +1.387669E+00 +4.191160E+00     +5.490879E+00 +1.331950E+00 +1.387240E+00     +5.490879E+00 +1.331950E+00 +1.387240E+00     +6.098370E+00 +7.690217E-01 +9.597182E-01    
 +6.098370E+00 +7.690217E-01 +9.597182E-01     +6.098370E+00 +7.690217E-01 +9.597182E-01     +6.098370E+00 +7.690217E-01 +9.597182E-01     +6.098370E+00 +7.690217E-01 +9.597182E-01     +3.680027E-01 +1.781810E+00 +2.174680E-02     +3.680027E-01 +1.781810E+00 +2.174680E-02     +3.680027E-01 +1.781810E+00 +2.174680E-02     +3.680027E-01 +1.781810E+00 +2.174680E-02     +3.680027E-01 +1.781810E+00 +2.174680E-02     +3.680027E-01 +1.781810E+00 +2.174680E-02     +3.680027E-01 +1.781810E+00 +2.174680E-02     +9.478342E-01 +1.460731E+00 +2.908085E-01     +9.478342E-01 +1.460731E+00 +2.908085E-01     +9.478342E-01 +1.460731E+00 +2.908085E-01     +9.478342E-01 +1.460731E+00 +2.908085E-01     +9.478342E-01 +1.460731E+00 +2.908085E-01     +3.433651E+00 +1.387669E+00 +4.191160E+00     +3.433651E+00 +1.387669E+00 +4.191160E+00     +5.490879E+00 +1.331950E+00 +1.387240E+00     +5.490879E+00 +1.331950E+00 +1.387240E+00     +5.490879E+00 +1.331950E+00 +1.387240E+00    
 +2.765171E+00 +1.135571E+00 +5.039141E+00     +6.098370E+00 +7.690217E-01 +9.597182E-01     +6.098370E+00 +7.690217E-01 +9.597182E-01     +8.284624E-01 +9.850813E-01 +5.831145E-02     +3.680027E-01 +1.781810E+00 +2.174680E-02     +3.680027E-01 +1.781810E+00 +2.174680E-02     +3.680027E-01 +1.781810E+00 +2.174680E-02     +3.680027E-01 +1.781810E+00 +2.174680E-02     +3.680027E-01 +1.781810E+00 +2.174680E-02     +3.680027E-01 +1.781810E+00 +2.174680E-02     +1.275359E+00 +2.170849E+00 +8.672960E-01     +1.275359E+00 +2.170849E+00 +8.672960E-01     +9.478342E-01 +1.460731E+00 +2.908085E-01     +9.478342E-01 +1.460731E+00 +2.908085E-01     +9.478342E-01 +1.460731E+00 +2.908085E-01     +3.433651E+00 +1.387669E+00 +4.191160E+00     +3.433651E+00 +1.387669E+00 +4.191160E+00     +3.433651E+00 +1.387669E+00 +4.191160E+00     +5.490879E+00 +1.331950E+00 +1.387240E+00     +5.490879E+00 +1.331950E+00 +1.387240E+00     +5.490879E+00 +1.331950E+00 +1.387240E+00    
 +2.765171E+00 +1.135571E+00 +5.039141E+00     +2.765171E+00 +1.135571E+00 +5.039141E+00     +8.284624E-01 +9.850813E-01 +5.831145E-02     +8.284624E-01 +9.850813E-01 +5.831145E-02     +8.284624E-01 +9.850813E-01 +5.831145E-02     +3.680027E-01 +1.781810E+00 +2.174680E-02     +3.680027E-01 +1.781810E+00 +2.174680E-02     +3.680027E-01 +1.781810E+00 +2.174680E-02     +3.680027E-01 +1.781810E+00 +2.174680E-02     +1.275359E+00 +2.170849E+00 +8.672960E-01     +1.275359E+00 +2.170849E+00 +8.672960E-01     +1.275359E+00 +2.170849E+00 +8.672960E-01     +1.275359E+00 +2.170849E+00 +8.672960E-01     +1.275359E+00 +2.170849E+00 +8.672960E-01     +1.275359E+00 +2.170849E+00 +8.672960E-01     +3.433651E+00 +1.387669E+00 +4.191160E+00     +3.433651E+00 +1.387669E+00 +4.191160E+00     +2.765171E+00 +1.135571E+00 +5.039141E+00     +2.765171E+00 +1.135571E+00 +5.039141E+00     +2.765171E+00 +1.135571E+00 +5.039141E+00     +2.765171E+00 +1.135571E+00 +5.039141E+00    
 +2.765171E+00 +1.135571E+00 +5.039141E+00     +4.812670E+00 +2.299791E+00 +4.509041E+00     +8.284624E-01 +9.850813E-01 +5.831145E-02     +8.284624E-01 +9.850813E-01 +5.831145E-02     +8.284624E-01 +9.850813E-01 +5.831145E-02     +8.284624E-01 +9.850813E-01 +5.831145E-02     +3.530731E-01 +1.680461E+00 +2.640961E+00     +8.182453E-02 +9.136572E-01 +3.673201E+00     +1.275359E+00 +2.170849E+00 +8.672960E-01     +1.275359E+00 +2.170849E+00 +8.672960E-01     +1.275359E+00 +2.170849E+00 +8.672960E-01     +1.275359E+00 +2.170849E+00 +8.672960E-01     +1.275359E+00 +2.170849E+00 +8.672960E-01     +1.275359E+00 +2.170849E+00 +8.672960E-01     +1.275359E+00 +2.170849E+00 +8.672960E-01     +3.230280E+00 +1.770179E+00 +4.852461E+00     +3.230280E+00 +1.770179E+00 +4.852461E+00     +3.230280E+00 +1.770179E+00 +4.852461E+00     +2.765171E+00 +1.135571E+00 +5.039141E+00     +2.765171E+00 +1.135571E+00 +5.039141E+00     +2.765171E+00 +1.135571E+00 +5.039141E+00    
 +4.812670E+00 +2.299791E+00 +4.509041E+00     +4.812670E+00 +2.299791E+00 +4.509041E+00     +4.812670E+00 +2.299791E+00 +4.509041E+00     +8.284624E-01 +9.850813E-01 +5.831145E-02     +8.284624E-01 +9.850813E-01 +5.831145E-02     +3.530731E-01 +1.680461E+00 +2.640961E+00     +3.530731E-01 +1.680461E+00 +2.640961E+00     +1.275359E+00 +2.170849E+00 +8.672960E-01     +1.275359E+00 +2.170849E+00 +8.672960E-01     +1.275359E+00 +2.170849E+00 +8.672960E-01     +1.275359E+00 +2.170849E+00 +8.672960E-01     +1.275359E+00 +2.170849E+00 +8.672960E-01     +1.275359E+00 +2.170849E+00 +8.672960E-01     +1.275359E+00 +2.170849E+00 +8.672960E-01     +1.275359E+00 +2.170849E+00 +8.672960E-01     +3.230280E+00 +1.770179E+00 +4.852461E+00     +3.230280E+00 +1.770179E+00 +4.852461E+00     +3.230280E+00 +1.770179E+00 +4.852461E+00     +3.230280E+00 +1.770179E+00 +4.852461E+00     +2.765171E+00 +1.135571E+00 +5.039141E+00     +2.765171E+00 +1.135571E+00 +5.039141E+00    
 +4.812670E+00 +2.299791E+00 +4.509041E+00     +6.725365E-01 +1.552629E+00 +5.500213E-01     +4.812670E+00 +2.299791E+00 +4.509041E+00     +4.812670E+00 +2.299791E+00 +4.509041E+00     +4.812670E+00 +2.299791E+00 +4.509041E+00     +8.433344E-01 +1.392911E+00 +3.825851E+00     +8.433344E-01 +1.392911E+00 +3.825851E+00     +1.275359E+00 +2.170849E+00 +8.672960E-01     +1.275359E+00 +2.170849E+00 +8.672960E-01     +1.275359E+00 +2.170849E+00 +8.672960E-01     +1.275359E+00 +2.170849E+00 +8.672960E-01     +1.275359E+00 +2.170849E+00 +8.672960E-01     +1.275359E+00 +2.170849E+00 +8.672960E-01     +1.275359E+00 +2.170849E+00 +8.672960E-01     +1.275359E+00 +2.170849E+00 +8.672960E-01     +3.230280E+00 +1.770179E+00 +4.852461E+00     +3.230280E+00 +1.770179E+00 +4.852461E+00     +3.230280E+00 +1.770179E+00 +4.852461E+00     +3.230280E+00 +1.770179E+00 +4.852461E+00     +3.230280E+00 +1.770179E+00 +4.852461E+00     +4.812670E+00 +2.299791E+00 +4.509041E+00    
 +4.812670E+00 +2.299791E+00 +4.509041E+00     +4.812670E+00 +2.299791E+00 +4.509041E+00     +4.812670E+00 +2.299791E+00 +4.509041E+00     +4.812670E+00 +2.299791E+00 +4.509041E+00     +4.812670E+00 +2.299791E+00 +4.509041E+00     +8.433344E-01 +1.392911E+00 +3.825851E+00     +8.433344E-01 +1.392911E+00 +3.825851E+00     +1.666920E+00 +2.348550E+00 +2.015970E+00     +1.666920E+00 +2.348550E+00 +2.015970E+00     +1.275359E+00 +2.170849E+00 +8.672960E-01     +1.275359E+00 +2.170849E+00 +8.672960E-01     +1.275359E+00 +2.170849E+00 +8.672960E-01     +1.275359E+00 +2.170849E+00 +8.672960E-01     +1.275359E+00 +2.170849E+00 +8.672960E-01     +1.275359E+00 +2.170849E+00 +8.672960E-01     +3.230280E+00 +1.770179E+00 +4.852461E+00     +3.230280E+00 +1.770179E+00 +4.852461E+00     +3.230280E+00 +1.770179E+00 +4.852461E+00     +3.230280E+00 +1.770179E+00 +4.852461E+00     +3.230280E+00 +1.770179E+00 +4.852461E+00     +4.812670E+00 +2.299791E+00 +4.509041E+00    
 +4.812670E+00 +2.299791E+00 +4.509041E+00     +4.812670E+00 +2.299791E+00 +4.509041E+00     +4.812670E+00 +2.299791E+00 +4.509041E+00     +4.812670E+00 +2.299791E+00 +4.509041E+00     +4.812670E+00 +2.299791E+00 +4.509041E+00     +1.666920E+00 +2.348550E+00 +2.015970E+00     +1.666920E+00 +2.348550E+00 +2.015970E+00     +1.666920E+00 +2.348550E+00 +2.015970E+00     +1.666920E+00 +2.348550E+00 +2.015970E+00     +1.666920E+00 +2.348550E+00 +2.015970E+00     +1.275359E+00 +2.170849E+00 +8.672960E-01     +1.275359E+00 +2.170849E+00 +8.672960E-01     +1.275359E+00 +2.170849E+00 +8.672960E-01     +1.275359E+00 +2.170849E+00 +8.672960E-01     +5.959910E+00 +1.790221E+00 +5.827860E+00     +5.959910E+00 +1.790221E+00 +5.827860E+00     +3.230280E+00 +1.770179E+00 +4.852461E+00     +3.230280E+00 +1.770179E+00 +4.852461E+00     +3.230280E+00 +1.770179E+00 +4.852461E+00     +3.230280E+00 +1.770179E+00 +4.852461E+00     +2.421060E+00 +1.825970E+00 +4.804870E+00    
 +4.305530E+00 +9.631216E-01 +1.169598E-01     +4.305530E+00 +9.631216E-01 +1.169598E-01     +4.305530E+00 +9.631216E-01 +1.169598E-01     +4.305530E+00 +9.631216E-01 +1.169598E-01     +4.549539E+00 +1.545980E+00 +3.262760E+00     +4.549539E+00 +1.545980E+00 +3.262760E+00     +4.549539E+00 +1.545980E+00 +3.262760E+00     +1.666920E+00 +2.348550E+00 +2.015970E+00     +1.666920E+00 +2.348550E+00 +2.015970E+00     +1.666920E+00 +2.348550E+00 +2.015970E+00     +1.666920E+00 +2.348550E+00 +2.015970E+00     +1.666920E+00 +2.348550E+00 +2.015970E+00     +1.275359E+00 +2.170849E+00 +8.672960E-01     +1.275359E+00 +2.170849E+00 +8.672960E-01     +5.959910E+00 +1.790221E+00 +5.827860E+00     +5.959910E+00 +1.790221E+00 +5.827860E+00     +5.959910E+00 +1.790221E+00 +5.827860E+00     +3.230280E+00 +1.770179E+00 +4.852461E+00     +2.070980E+00 +9.549901E-01 +5.551800E+00     +2.421060E+00 +1.825970E+00 +4.804870E+00     +2.421060E+00 +1.825970E+00 +4.804870E+00    
 +4.305530E+00 +9.631216E-01 +1.169598E-01     +4.305530E+00 +9.631216E-01 +1.169598E-01     +4.305530E+00 +9.631216E-01 +1.169598E-01     +4.549539E+00 +1.545980E+00 +3.262760E+00     +4.549539E+00 +1.545980E+00 +3.262760E+00     +4.549539E+00 +1.545980E+00 +3.262760E+00     +4.549539E+00 +1.545980E+00 +3.262760E+00     +5.848241E+00 +2.706412E-01 +1.179061E+00     +1.666920E+00 +2.348550E+00 +2.015970E+00     +1.666920E+00 +2.348550E+00 +2.015970E+00     +1.666920E+00 +2.348550E+00 +2.015970E+00     +1.666920E+00 +2.348550E+00 +2.015970E+00     +1.275359E+00 +2.170849E+00 +8.672960E-01     +2.143180E+00 +2.393351E+00 +5.831759E+00     +2.143180E+00 +2.393351E+00 +5.831759E+00     +5.959910E+00 +1.790221E+00 +5.827860E+00     +5.959910E+00 +1.790221E+00 +5.827860E+00     +2.070980E+00 +9.549901E-01 +5.551800E+00     +2.070980E+00 +9.549901E-01 +5.551800E+00     +2.421060E+00 +1.825970E+00 +4.804870E+00     +2.421060E+00 +1.825970E+00 +4.804870E+00    
 +5.381670E-01 +6.205536E-01 +1.011910E+00     +5.381670E-01 +6.205536E-01 +1.011910E+00     +5.381670E-01 +6.205536E-01 +1.011910E+00     +5.381670E-01 +6.205536E-01 +1.011910E+00     +4.549539E+00 +1.545980E+00 +3.262760E+00     +4.549539E+00 +1.545980E+00 +3.262760E+00     +4.549539E+00 +1.545980E+00 +3.262760E+00     +5.848241E+00 +2.706412E-01 +1.179061E+00     +5.848241E+00 +2.706412E-01 +1.179061E+00     +5.032650E+00 +1.049700E+00 +2.761570E+00     +3.483319E+00 +1.686590E+00 +5.091201E+00     +3.483319E+00 +1.686590E+00 +5.091201E+00     +3.483319E+00 +1.686590E+00 +5.091201E+00     +2.143180E+00 +2.393351E+00 +5.831759E+00     +2.143180E+00 +2.393351E+00 +5.831759E+00     +4.742130E+00 +1.957270E+00 +8.167478E-01     +4.742130E+00 +1.957270E+00 +8.167478E-01     +2.070980E+00 +9.549901E-01 +5.551800E+00     +2.070980E+00 +9.549901E-01 +5.551800E+00     +2.421060E+00 +1.825970E+00 +4.804870E+00     +2.421060E+00 +1.825970E+00 +4.804870E+00    
 +5.381670E-01 +6.205536E-01 +1.011910E+00     +5.381670E-01 +6.205536E-01 +1.011910E+00     +5.381670E-01 +6.205536E-01 +1.011910E+00     +5.381670E-01 +6.205536E-01 +1.011910E+00     +4.549539E+00 +1.545980E+00 +3.262760E+00     +4.549539E+00 +1.545980E+00 +3.262760E+00     +4.549539E+00 +1.545980E+00 +3.262760E+00     +5.848241E+00 +2.706412E-01 +1.179061E+00     +5.848241E+00 +2.706412E-01 +1.179061E+00     +5.032650E+00 +1.049700E+00 +2.761570E+00     +3.483319E+00 +1.686590E+00 +5.091201E+00     +3.483319E+00 +1.686590E+00 +5.091201E+00     +3.483319E+00 +1.686590E+00 +5.091201E+00     +3.483319E+00 +1.686590E+00 +5.091201E+00     +5.915940E+00 +1.370550E+00 +4.709919E+00     +4.742130E+00 +1.957270E+00 +8.167478E-01     +2.070980E+00 +9.549901E-01 +5.551800E+00     +2.070980E+00 +9.549901E-01 +5.551800E+00     +2.070980E+00 +9.549901E-01 +5.551800E+00     +2.421060E+00 +1.825970E+00 +4.804870E+00     +2.421060E+00 +1.825970E+00 +4.804870E+00    
 +5.381670E-01 +6.205536E-01 +1.011910E+00     +5.381670E-01 +6.205536E-01 +1.011910E+00     +5.381670E-01 +6.205536E-01 +1.011910E+00     +5.381670E-01 +6.205536E-01 +1.011910E+00     +2.906589E+00 +1.952840E+00 +5.279670E+00     +2.906589E+00 +1.952840E+00 +5.279670E+00     +7.410406E-01 +1.347391E+00 +6.309173E-01     +7.410406E-01 +1.347391E+00 +6.309173E-01     +7.410406E-01 +1.347391E+00 +6.309173E-01     +3.483319E+00 +1.686590E+00 +5.091201E+00     +3.483319E+00 +1.686590E+00 +5.091201E+00     +3.483319E+00 +1.686590E+00 +5.091201E+00     +3.483319E+00 +1.686590E+00 +5.091201E+00     +3.483319E+00 +1.686590E+00 +5.091201E+00     +5.915940E+00 +1.370550E+00 +4.709919E+00     +5.915940E+00 +1.370550E+00 +4.709919E+00     +2.070980E+00 +9.549901E-01 +5.551800E+00     +2.070980E+00 +9.549901E-01 +5.551800E+00     +2.070980E+00 +9.549901E-01 +5.551800E+00     +2.518821E+00 +1.471250E+00 +4.781989E+00     +2.099771E+00 +3.043278E-01 +5.190450E+00    
 +2.099771E+00 +3.043278E-01 +5.190450E+00     +5.381670E-01 +6.205536E-01 +1.011910E+00     +5.381670E-01 +6.205536E-01 +1.011910E+00     +2.906589E+00 +1.952840E+00 +5.279670E+00     +2.906589E+00 +1.952840E+00 +5.279670E+00     +2.906589E+00 +1.952840E+00 +5.279670E+00     +7.410406E-01 +1.347391E+00 +6.309173E-01     +7.410406E-01 +1.347391E+00 +6.309173E-01     +7.410406E-01 +1.347391E+00 +6.309173E-01     +3.483319E+00 +1.686590E+00 +5.091201E+00     +3.483319E+00 +1.686590E+00 +5.091201E+00     +3.483319E+00 +1.686590E+00 +5.091201E+00     +3.483319E+00 +1.686590E+00 +5.091201E+00     +3.483319E+00 +1.686590E+00 +5.091201E+00     +5.915940E+00 +1.370550E+00 +4.709919E+00     +5.915940E+00 +1.370550E+00 +4.709919E+00     +2.070980E+00 +9.549901E-01 +5.551800E+00     +2.070980E+00 +9.549901E-01 +5.551800E+00     +2.099771E+00 +3.043278E-01 +5.190450E+00     +2.099771E+00 +3.043278E-01 +5.190450E+00     +2.099771E+00 +3.043278E-01 +5.190450E+00    
 +2.099771E+00 +3.043278E-01 +5.190450E+00     +2.099771E+00 +3.043278E-01 +5.190450E+00     +2.099771E+00 +3.043278E-01 +5.190450E+00     +2.906589E+00 +1.952840E+00 +5.279670E+00     +2.906589E+00 +1.952840E+00 +5.279670E+00     +2.906589E+00 +1.952840E+00 +5.279670E+00     +7.410406E-01 +1.347391E+00 +6.309173E-01     +7.410406E-01 +1.347391E+00 +6.309173E-01     +7.410406E-01 +1.347391E+00 +6.309173E-01     +3.233345E-01 +1.087000E+00 +4.007190E+00     +3.483319E+00 +1.686590E+00 +5.091201E+00     +3.483319E+00 +1.686590E+00 +5.091201E+00     +3.483319E+00 +1.686590E+00 +5.091201E+00     +6.149331E+00 +1.068421E+00 +1.449381E+00     +6.149331E+00 +1.068421E+00 +1.449381E+00     +6.149331E+00 +1.068421E+00 +1.449381E+00     +6.149331E+00 +1.068421E+00 +1.449381E+00     +2.099771E+00 +3.043278E-01 +5.190450E+00     +2.099771E+00 +3.043278E-01 +5.190450E+00     +2.099771E+00 +3.043278E-01 +5.190450E+00     +2.099771E+00 +3.043278E-01 +5.190450E+00    
 +2.099771E+00 +3.043278E-01 +5.190450E+00     +2.099771E+00 +3.043278E-01 +5.190450E+00     +2.099771E+00 +3.043278E-01 +5.190450E+00     +2.906589E+00 +1.952840E+00 +5.279670E+00     +2.906589E+00 +1.952840E+00 +5.279670E+00     +2.906589E+00 +1.952840E+00 +5.279670E+00     +7.410406E-01 +1.347391E+00 +6.309173E-01     +7.410406E-01 +1.347391E+00 +6.309173E-01     +5.254021E+00 +2.600570E+00 +4.963440E+00     +5.254021E+00 +2.600570E+00 +4.963440E+00     +5.254021E+00 +2.600570E+00 +4.963440E+00     +5.254021E+00 +2.600570E+00 +4.963440E+00     +3.483319E+00 +1.686590E+00 +5.091201E+00     +6.149331E+00 +1.068421E+00 +1.449381E+00     +6.149331E+00 +1.068421E+00 +1.449381E+00     +6.149331E+00 +1.068421E+00 +1.449381E+00     +6.149331E+00 +1.068421E+00 +1.449381E+00     +2.099771E+00 +3.043278E-01 +5.190450E+00     +2.099771E+00 +3.043278E-01 +5.190450E+00     +2.099771E+00 +3.043278E-01 +5.190450E+00     +2.099771E+00 +3.043278E-01 +5.190450E+00    
 +2.099771E+00 +3.043278E-01 +5.190450E+00     +2.099771E+00 +3.043278E-01 +5.190450E+00     +8.389483E-01 +7.921194E-01 +1.657923E-01     +8.389483E-01 +7.921194E-01 +1.657923E-01     +4.350031E+00 +2.797740E+00 +6.246621E+00     +4.350031E+00 +2.797740E+00 +6.246621E+00     +4.350031E+00 +2.797740E+00 +6.246621E+00     +4.558015E-01 +1.537501E+00 +1.064860E+00     +5.254021E+00 +2.600570E+00 +4.963440E+00     +5.254021E+00 +2.600570E+00 +4.963440E+00     +5.254021E+00 +2.600570E+00 +4.963440E+00     +2.488949E+00 +9.638284E-01 +4.558980E+00     +2.488949E+00 +9.638284E-01 +4.558980E+00     +6.149331E+00 +1.068421E+00 +1.449381E+00     +6.149331E+00 +1.068421E+00 +1.449381E+00     +6.149331E+00 +1.068421E+00 +1.449381E+00     +6.149331E+00 +1.068421E+00 +1.449381E+00     +6.149331E+00 +1.068421E+00 +1.449381E+00     +2.099771E+00 +3.043278E-01 +5.190450E+00     +2.099771E+00 +3.043278E-01 +5.190450E+00     +2.099771E+00 +3.043278E-01 +5.190450E+00    
 +6.098370E+00 +7.690217E-01 +9.597182E-01     +6.098370E+00 +7.690217E-01 +9.597182E-01     +6.098370E+00 +7.690217E-01 +9.597182E-01     +8.389483E-01 +7.921194E-01 +1.657923E-01     +4.350031E+00 +2.797740E+00 +6.246621E+00     +4.350031E+00 +2.797740E+00 +6.246621E+00     +4.558015E-01 +1.537501E+00 +1.064860E+00     +4.558015E-01 +1.537501E+00 +1.064860E+00     +5.254021E+00 +2.600570E+00 +4.963440E+00     +5.254021E+00 +2.600570E+00 +4.963440E+00     +5.254021E+00 +2.600570E+00 +4.963440E+00     +2.488949E+00 +9.638284E-01 +4.558980E+00     +2.488949E+00 +9.638284E-01 +4.558980E+00     +6.149331E+00 +1.068421E+00 +1.449381E+00     +6.149331E+00 +1.068421E+00 +1.449381E+00     +6.149331E+00 +1.068421E+00 +1.449381E+00     +6.149331E+00 +1.068421E+00 +1.449381E+00     +6.149331E+00 +1.068421E+00 +1.449381E+00     +2.099771E+00 +3.043278E-01 +5.190450E+00     +2.099771E+00 +3.043278E-01 +5.190450E+00     +2.099771E+00 +3.043278E-01 +5.190450E+00    
 +6.098370E+00 +7.690217E-01 +9.597182E-01     +6.098370E+00 +7.690217E-01 +9.597182E-01     +6.098370E+00 +7.690217E-01 +9.597182E-01     +6.098370E+00 +7.690217E-01 +9.597182E-01     +4.350031E+00 +2.797740E+00 +6.246621E+00     +4.558015E-01 +1.537501E+00 +1.064860E+00     +4.558015E-01 +1.537501E+00 +1.064860E+00     +4.558015E-01 +1.537501E+00 +1.064860E+00     +4.558015E-01 +1.537501E+00 +1.064860E+00     +5.254021E+00 +2.600570E+00 +4.963440E+00     +5.254021E+00 +2.600570E+00 +4.963440E+00     +2.488949E+00 +9.638284E-01 +4.558980E+00     +2.488949E+00 +9.638284E-01 +4.558980E+00     +6.149331E+00 +1.068421E+00 +1.449381E+00     +6.149331E+00 +1.068421E+00 +1.449381E+00     +6.149331E+00 +1.068421E+00 +1.449381E+00     +6.149331E+00 +1.068421E+00 +1.449381E+00     +6.149331E+00 +1.068421E+00 +1.449381E+00     +6.149331E+00 +1.068421E+00 +1.449381E+00     +6.098370E+00 +7.690217E-01 +9.597182E-01     +6.098370E+00 +7.690217E-01 +9.597182E-01    
 +6.098370E+00 +7.690217E-01 +9.597182E-01     +6.098370E+00 +7.690217E-01 +9.597182E-01     +6.098370E+00 +7.690217E-01 +9.597182E-01     +6.098370E+00 +7.690217E-01 +9.597182E-01     +6.098370E+00 +7.690217E-01 +9.597182E-01     +4.558015E-01 +1.537501E+00 +1.064860E+00     +4.558015E-01 +1.537501E+00 +1.064860E+00     +2.630241E+00 +1.160670E+00 +4.955601E+00     +2.630241E+00 +1.160670E+00 +4.955601E+00     +2.630241E+00 +1.160670E+00 +4.955601E+00     +5.254021E+00 +2.600570E+00 +4.963440E+00     +9.478342E-01 +1.460731E+00 +2.908085E-01     +9.478342E-01 +1.460731E+00 +2.908085E-01     +9.478342E-01 +1.460731E+00 +2.908085E-01     +9.478342E-01 +1.460731E+00 +2.908085E-01     +6.149331E+00 +1.068421E+00 +1.449381E+00     +6.149331E+00 +1.068421E+00 +1.449381E+00     +6.149331E+00 +1.068421E+00 +1.449381E+00     +6.098370E+00 +7.690217E-01 +9.597182E-01     +6.098370E+00 +7.690217E-01 +9.597182E-01     +6.098370E+00 +7.690217E-01 +9.597182E-01    
 +6.098370E+00 +7.690217E-01 +9.597182E-01     +6.098370E+00 +7.690217E-01 +9.597182E-01     +6.098370E+00 +7.690217E-01 +9.597182E-01     +6.098370E+00 +7.690217E-01 +9.597182E-01     +6.098370E+00 +7.690217E-01 +9.597182E-01     +2.630241E+00 +1.160670E+00 +4.955601E+00     +2.630241E+00 +1.160670E+00 +4.955601E+00     +2.630241E+00 +1.160670E+00 +4.955601E+00     +2.630241E+00 +1.160670E+00 +4.955601E+00     +2.630241E+00 +1.160670E+00 +4.955601E+00     +2.630241E+00 +1.160670E+00 +4.955601E+00     +9.478342E-01 +1.460731E+00 +2.908085E-01     +9.478342E-01 +1.460731E+00 +2.908085E-01     +9.478342E-01 +1.460731E+00 +2.908085E-01     +9.478342E-01 +1.460731E+00 +2.908085E-01     +9.478342E-01 +1.460731E+00 +2.908085E-01     +9.478342E-01 +1.460731E+00 +2.908085E-01     +3.433651E+00 +1.387669E+00 +4.191160E+00     +5.490879E+00 +1.331950E+00 +1.387240E+00     +6.098370E+00 +7.690217E-01 +9.597182E-01     +6.098370E+00 +7.690217E-01 +9.597182E-01    
 +1.306745E-01 +1.489879E+00 +4.005723E-01     +1.306745E-01 +1.489879E+00 +4.005723E-01     +6.098370E+00 +7.690217E-01 +9.597182E-01     +6.098370E+00 +7.690217E-01 +9.597182E-01     +2.630241E+00 +1.160670E+00 +4.955601E+00     +2.630241E+00 +1.160670E+00 +4.955601E+00     +2.630241E+00 +1.160670E+00 +4.955601E+00     +2.630241E+00 +1.160670E+00 +4.955601E+00     +2.630241E+00 +1.160670E+00 +4.955601E+00     +2.630241E+00 +1.160670E+00 +4.955601E+00     +2.630241E+00 +1.160670E+00 +4.955601E+00     +9.478342E-01 +1.460731E+00 +2.908085E-01     +9.478342E-01 +1.460731E+00 +2.908085E-01     +9.478342E-01 +1.460731E+00 +2.908085E-01     +9.478342E-01 +1.460731E+00 +2.908085E-01     +9.478342E-01 +1.460731E+00 +2.908085E-01     +3.433651E+00 +1.387669E+00 +4.191160E+00     +3.433651E+00 +1.387669E+00 +4.191160E+00     +5.490879E+00 +1.331950E+00 +1.387240E+00     +5.490879E+00 +1.331950E+00 +1.387240E+00     +5.490879E+00 +1.331950E+00 +1.387240E+00    
 +1.306745E-01 +1.489879E+00 +4.005723E-01     +1.306745E-01 +1.489879E+00 +4.005723E-01     +1.306745E-01 +1.489879E+00 +4.005723E-01     +8.284624E-01 +9.850813E-01 +5.831145E-02     +8.284624E-01 +9.850813E-01 +5.831145E-02     +2.630241E+00 +1.160670E+00 +4.955601E+00     +2.630241E+00 +1.160670E+00 +4.955601E+00     +2.630241E+00 +1.160670E+00 +4.955601E+00     +2.630241E+00 +1.160670E+00 +4.955601E+00     +2.630241E+00 +1.160670E+00 +4.955601E+00     +1.275359E+00 +2.170849E+00 +8.672960E-01     +1.275359E+00 +2.170849E+00 +8.672960E-01     +1.275359E+00 +2.170849E+00 +8.672960E-01     +9.478342E-01 +1.460731E+00 +2.908085E-01     +5.858500E+00 +2.491110E+00 +6.200010E+00     +3.433651E+00 +1.387669E+00 +4.191160E+00     +3.433651E+00 +1.387669E+00 +4.191160E+00     +3.433651E+00 +1.387669E+00 +4.191160E+00     +5.490879E+00 +1.331950E+00 +1.387240E+00     +5.490879E+00 +1.331950E+00 +1.387240E+00     +5.490879E+00 +1.331950E+00 +1.387240E+00    
 +1.306745E-01 +1.489879E+00 +4.005723E-01     +1.306745E-01 +1.489879E+00 +4.005723E-01     +8.284624E-01 +9.850813E-01 +5.831145E-02     +8.284624E-01 +9.850813E-01 +5.831145E-02     +8.284624E-01 +9.850813E-01 +5.831145E-02     +3.530731E-01 +1.680461E+00 +2.640961E+00     +3.530731E-01 +1.680461E+00 +2.640961E+00     +8.182453E-02 +9.136572E-01 +3.673201E+00     +2.630241E+00 +1.160670E+00 +4.955601E+00     +1.275359E+00 +2.170849E+00 +8.672960E-01     +1.275359E+00 +2.170849E+00 +8.672960E-01     +1.275359E+00 +2.170849E+00 +8.672960E-01     +1.275359E+00 +2.170849E+00 +8.672960E-01     +1.275359E+00 +2.170849E+00 +8.672960E-01     +1.275359E+00 +2.170849E+00 +8.672960E-01     +1.275359E+00 +2.170849E+00 +8.672960E-01     +3.433651E+00 +1.387669E+00 +4.191160E+00     +2.765171E+00 +1.135571E+00 +5.039141E+00     +2.765171E+00 +1.135571E+00 +5.039141E+00     +2.765171E+00 +1.135571E+00 +5.039141E+00     +2.765171E+00 +1.135571E+00 +5.039141E+00    
 +2.765171E+00 +1.135571E+00 +5.039141E+00     +8.284624E-01 +9.850813E-01 +5.831145E-02     +8.284624E-01 +9.850813E-01 +5.831145E-02     +8.284624E-01 +9.850813E-01 +5.831145E-02     +8.284624E-01 +9.850813E-01 +5.831145E-02     +3.530731E-01 +1.680461E+00 +2.640961E+00     +3.530731E-01 +1.680461E+00 +2.640961E+00     +8.182453E-02 +9.136572E-01 +3.673201E+00     +8.182453E-02 +9.136572E-01 +3.673201E+00     +1.275359E+00 +2.170849E+00 +8.672960E-01     +1.275359E+00 +2.170849E+00 +8.672960E-01     +1.275359E+00 +2.170849E+00 +8.672960E-01     +1.275359E+00 +2.170849E+00 +8.672960E-01     +1.275359E+00 +2.170849E+00 +8.672960E-01     +1.275359E+00 +2.170849E+00 +8.672960E-01     +1.275359E+00 +2.170849E+00 +8.672960E-01     +3.230280E+00 +1.770179E+00 +4.852461E+00     +3.230280E+00 +1.770179E+00 +4.852461E+00     +2.765171E+00 +1.135571E+00 +5.039141E+00     +2.765171E+00 +1.135571E+00 +5.039141E+00     +2.765171E+00 +1.135571E+00 +5.039141E+00    
 +6.725365E-01 +1.552629E+00 +5.500213E-01     +6.725365E-01 +1.552629E+00 +5.500213E-01     +8.284624E-01 +9.850813E-01 +5.831145E-02     +8.284624E-01 +9.850813E-01 +5.831145E-02     +8.284624E-01 +9.850813E-01 +5.831145E-02     +3.530731E-01 +1.680461E+00 +2.640961E+00     +3.530731E-01 +1.680461E+00 +2.640961E+00     +8.182453E-02 +9.136572E-01 +3.673201E+00     +1.275359E+00 +2.170849E+00 +8.672960E-01     +1.275359E+00 +2.170849E+00 +8.672960E-01     +1.275359E+00 +2.170849E+00 +8.672960E-01     +1.275359E+00 +2.170849E+00 +8.672960E-01     +1.275359E+00 +2.170849E+00 +8.672960E-01     +1.275359E+00 +2.170849E+00 +8.672960E-01     +1.275359E+00 +2.170849E+00 +8.672960E-01     +3.230280E+00 +1.770179E+00 +4.852461E+00     +3.230280E+00 +1.770179E+00 +4.852461E+00     +3.230280E+00 +1.770179E+00 +4.852461E+00     +3.230280E+00 +1.770179E+00 +4.852461E+00     +2.765171E+00 +1.135571E+00 +5.039141E+00     +2.765171E+00 +1.135571E+00 +5.039141E+00    
 +6.725365E-01 +1.552629E+00 +5.500213E-01     +6.725365E-01 +1.552629E+00 +5.500213E-01     +4.812670E+00 +2.299791E+00 +4.509041E+00     +4.812670E+00 +2.299791E+00 +4.509041E+00     +8.433344E-01 +1.392911E+00 +3.825851E+00     +8.433344E-01 +1.392911E+00 +3.825851E+00     +8.433344E-01 +1.392911E+00 +3.825851E+00     +8.182453E-02 +9.136572E-01 +3.673201E+00     +1.275359E+00 +2.170849E+00 +8.672960E-01     +1.275359E+00 +2.170849E+00 +8.672960E-01     +1.275359E+00 +2.170849E+00 +8.672960E-01     +1.275359E+00 +2.170849E+00 +8.672960E-01     +1.275359E+00 +2.170849E+00 +8.672960E-01     +1.275359E+00 +2.170849E+00 +8.672960E-01     +1.275359E+00 +2.170849E+00 +8.672960E-01     +3.230280E+00 +1.770179E+00 +4.852461E+00     +3.230280E+00 +1.770179E+00 +4.852461E+00     +3.230280E+00 +1.770179E+00 +4.852461E+00     +3.230280E+00 +1.770179E+00 +4.852461E+00     +2.765171E+00 +1.135571E+00 +5.039141E+00     +2.765171E+00 +1.135571E+00 +5.039141E+00    
 +4.812670E+00 +2.299791E+00 +4.509041E+00     +4.812670E+00 +2.299791E+00 +4.509041E+00     +4.812670E+00 +2.299791E+00 +4.509041E+00     +4.812670E+00 +2.299791E+00 +4.509041E+00     +8.433344E-01 +1.392911E+00 +3.825851E+00     +8.433344E-01 +1.392911E+00 +3.825851E+00     +8.433344E-01 +1.392911E+00 +3.825851E+00     +8.433344E-01 +1.392911E+00 +3.825851E+00     +1.275359E+00 +2.170849E+00 +8.672960E-01     +1.275359E+00 +2.170849E+00 +8.672960E-01     +1.275359E+00 +2.170849E+00 +8.672960E-01     +1.275359E+00 +2.170849E+00 +8.672960E-01     +1.275359E+00 +2.170849E+00 +8.672960E-01     +1.275359E+00 +2.170849E+00 +8.672960E-01     +1.275359E+00 +2.170849E+00 +8.672960E-01     +3.230280E+00 +1.770179E+00 +4.852461E+00     +3.230280E+00 +1.770179E+00 +4.852461E+00     +3.230280E+00 +1.770179E+00 +4.852461E+00     +3.230280E+00 +1.770179E+00 +4.852461E+00     +3.230280E+00 +1.770179E+00 +4.852461E+00     +4.812670E+00 +2.299791E+00 +4.509041E+00    
 +4.812670E+00 +2.299791E+00 +4.509041E+00     +4.812670E+00 +2.299791E+00 +4.509041E+00     +4.812670E+00 +2.299791E+00 +4.509041E+00     +4.812670E+00 +2.299791E+00 +4.509041E+00     +4.812670E+00 +2.299791E+00 +4.509041E+00     +4.549539E+00 +1.545980E+00 +3.262760E+00     +4.549539E+00 +1.545980E+00 +3.262760E+00     +1.666920E+00 +2.348550E+00 +2.015970E+00     +1.666920E+00 +2.348550E+00 +2.015970E+00     +1.666920E+00 +2.348550E+00 +2.015970E+00     +1.275359E+00 +2.170849E+00 +8.672960E-01     +1.275359E+00 +2.170849E+00 +8.672960E-01     +1.275359E+00 +2.170849E+00 +8.672960E-01     +1.275359E+00 +2.170849E+00 +8.672960E-01     +5.959910E+00 +1.790221E+00 +5.827860E+00     +5.959910E+00 +1.790221E+00 +5.827860E+00     +5.959910E+00 +1.790221E+00 +5.827860E+00     +3.230280E+00 +1.770179E+00 +4.852461E+00     +3.230280E+00 +1.770179E+00 +4.852461E+00     +2.421060E+00 +1.825970E+00 +4.804870E+00     +2.421060E+00 +1.825970E+00 +4.804870E+00    
 +4.305530E+00 +9.631216E-01 +1.169598E-01     +4.305530E+00 +9.631216E-01 +1.169598E-01     +4.305530E+00 +9.631216E-01 +1.169598E-01     +4.305530E+00 +9.631216E-01 +1.169598E-01     +4.549539E+00 +1.545980E+00 +3.262760E+00     +4.549539E+00 +1.545980E+00 +3.262760E+00     +4.549539E+00 +1.545980E+00 +3.262760E+00     +5.813969E+00 +4.335014E-01 +4.874060E+00     +1.666920E+00 +2.348550E+00 +2.015970E+00     +1.666920E+00 +2.348550E+00 +2.015970E+00     +1.666920E+00 +2.348550E+00 +2.015970E+00     +1.275359E+00 +2.170849E+00 +8.672960E-01     +1.275359E+00 +2.170849E+00 +8.672960E-01     +1.275359E+00 +2.170849E+00 +8.672960E-01     +5.959910E+00 +1.790221E+00 +5.827860E+00     +5.959910E+00 +1.790221E+00 +5.827860E+00     +5.959910E+00 +1.790221E+00 +5.827860E+00     +5.959910E+00 +1.790221E+00 +5.827860E+00     +2.421060E+00 +1.825970E+00 +4.804870E+00     +2.421060E+00 +1.825970E+00 +4.804870E+00     +2.421060E+00 +1.825970E+00 +4.804870E+00    
 +5.381670E-01 +6.205536E-01 +1.011910E+00     +4.305530E+00 +9.631216E-01 +1.169598E-01     +5.381670E-01 +6.205536E-01 +1.011910E+00     +4.549539E+00 +1.545980E+00 +3.262760E+00     +4.549539E+00 +1.545980E+00 +3.262760E+00     +4.549539E+00 +1.545980E+00 +3.262760E+00     +4.549539E+00 +1.545980E+00 +3.262760E+00     +5.848241E+00 +2.706412E-01 +1.179061E+00     +5.848241E+00 +2.706412E-01 +1.179061E+00     +1.666920E+00 +2.348550E+00 +2.015970E+00     +1.666920E+00 +2.348550E+00 +2.015970E+00     +1.666920E+00 +2.348550E+00 +2.015970E+00     +1.275359E+00 +2.170849E+00 +8.672960E-01     +2.143180E+00 +2.393351E+00 +5.831759E+00     +2.143180E+00 +2.393351E+00 +5.831759E+00     +5.959910E+00 +1.790221E+00 +5.827860E+00     +5.959910E+00 +1.790221E+00 +5.827860E+00     +2.070980E+00 +9.549901E-01 +5.551800E+00     +2.421060E+00 +1.825970E+00 +4.804870E+00     +2.421060E+00 +1.825970E+00 +4.804870E+00     +2.421060E+00 +1.825970E+00 +4.804870E+00    
 +5.381670E-01 +6.205536E-01 +1.011910E+00     +5.381670E-01 +6.205536E-01 +1.011910E+00     +5.381670E-01 +6.205536E-01 +1.011910E+00     +5.381670E-01 +6.205536E-01 +1.011910E+00     +4.549539E+00 +1.545980E+00 +3.262760E+00     +4.549539E+00 +1.545980E+00 +3.262760E+00     +4.549539E+00 +1.545980E+00 +3.262760E+00     +5.848241E+00 +2.706412E-01 +1.179061E+00     +5.848241E+00 +2.706412E-01 +1.179061E+00     +5.848241E+00 +2.706412E-01 +1.179061E+00     +3.483319E+00 +1.686590E+00 +5.091201E+00     +3.483319E+00 +1.686590E+00 +5.091201E+00     +3.483319E+00 +1.686590E+00 +5.091201E+00     +2.143180E+00 +2.393351E+00 +5.831759E+00     +2.143180E+00 +2.393351E+00 +5.831759E+00     +4.742130E+00 +1.957270E+00 +8.167478E-01     +2.070980E+00 +9.549901E-01 +5.551800E+00     +2.070980E+00 +9.549901E-01 +5.551800E+00     +2.070980E+00 +9.549901E-01 +5.551800E+00     +2.421060E+00 +1.825970E+00 +4.804870E+00     +2.421060E+00 +1.825970E+00 +4.804870E+00    
 +5.381670E-01 +6.205536E-01 +1.011910E+00     +5.381670E-01 +6.205536E-01 +1.011910E+00     +5.381670E-01 +6.205536E-01 +1.011910E+00     +5.381670E-01 +6.205536E-01 +1.011910E+00     +4.549539E+00 +1.545980E+00 +3.262760E+00     +4.549539E+00 +1.545980E+00 +3.262760E+00     +4.549539E+00 +1.545980E+00 +3.262760E+00     +5.848241E+00 +2.706412E-01 +1.179061E+00     +5.848241E+00 +2.706412E-01 +1.179061E+00     +5.848241E+00 +2.706412E-01 +1.179061E+00     +3.483319E+00 +1.686590E+00 +5.091201E+00     +3.483319E+00 +1.686590E+00 +5.091201E+00     +3.483319E+00 +1.686590E+00 +5.091201E+00     +3.483319E+00 +1.686590E+00 +5.091201E+00     +4.957660E-01 +1.701850E+00 +2.498352E-01     +4.742130E+00 +1.957270E+00 +8.167478E-01     +2.070980E+00 +9.549901E-01 +5.551800E+00     +2.070980E+00 +9.549901E-01 +5.551800E+00     +2.070980E+00 +9.549901E-01 +5.551800E+00     +2.421060E+00 +1.825970E+00 +4.804870E+00     +2.421060E+00 +1.825970E+00 +4.804870E+00    
 +5.381670E-01 +6.205536E-01 +1.011910E+00     +4.882719E+00 +1.721999E+00 +4.721451E+00     +5.381670E-01 +6.205536E-01 +1.011910E+00     +2.906589E+00 +1.952840E+00 +5.279670E+00     +2.906589E+00 +1.952840E+00 +5.279670E+00     +2.906589E+00 +1.952840E+00 +5.279670E+00     +7.410406E-01 +1.347391E+00 +6.309173E-01     +7.410406E-01 +1.347391E+00 +6.309173E-01     +7.410406E-01 +1.347391E+00 +6.309173E-01     +3.483319E+00 +1.686590E+00 +5.091201E+00     +3.483319E+00 +1.686590E+00 +5.091201E+00     +3.483319E+00 +1.686590E+00 +5.091201E+00     +3.483319E+00 +1.686590E+00 +5.091201E+00     +3.483319E+00 +1.686590E+00 +5.091201E+00     +4.957660E-01 +1.701850E+00 +2.498352E-01     +2.070980E+00 +9.549901E-01 +5.551800E+00     +2.070980E+00 +9.549901E-01 +5.551800E+00     +2.070980E+00 +9.549901E-01 +5.551800E+00     +2.070980E+00 +9.549901E-01 +5.551800E+00     +2.070980E+00 +9.549901E-01 +5.551800E+00     +2.099771E+00 +3.043278E-01 +5.190450E+00    
 +5.381670E-01 +6.205536E-01 +1.011910E+00     +5.381670E-01 +6.205536E-01 +1.011910E+00     +5.381670E-01 +6.205536E-01 +1.011910E+00     +2.906589E+00 +1.952840E+00 +5.279670E+00     +2.906589E+00 +1.952840E+00 +5.279670E+00     +2.906589E+00 +1.952840E+00 +5.279670E+00     +7.410406E-01 +1.347391E+00 +6.309173E-01     +7.410406E-01 +1.347391E+00 +6.309173E-01     +7.410406E-01 +1.347391E+00 +6.309173E-01     +3.233345E-01 +1.087000E+00 +4.007190E+00     +3.483319E+00 +1.686590E+00 +5.091201E+00     +3.483319E+00 +1.686590E+00 +5.091201E+00     +3.483319E+00 +1.686590E+00 +5.091201E+00     +3.483319E+00 +1.686590E+00 +5.091201E+00     +6.149331E+00 +1.068421E+00 +1.449381E+00     +2.070980E+00 +9.549901E-01 +5.551800E+00     +2.070980E+00 +9.549901E-01 +5.551800E+00     +2.070980E+00 +9.549901E-01 +5.551800E+00     +2.070980E+00 +9.549901E-01 +5.551800E+00     +2.099771E+00 +3.043278E-01 +5.190450E+00     +2.099771E+00 +3.043278E-01 +5.190450E+00    
 +2.099771E+00 +3.043278E-01 +5.190450E+00     +2.099771E+00 +3.043278E-01 +5.190450E+00     +5.381670E-01 +6.205536E-01 +1.011910E+00     +2.906589E+00 +1.952840E+00 +5.279670E+00     +2.906589E+00 +1.952840E+00 +5.279670E+00     +2.906589E+00 +1.952840E+00 +5.279670E+00     +7.410406E-01 +1.347391E+00 +6.309173E-01     +7.410406E-01 +1.347391E+00 +6.309173E-01     +7.410406E-01 +1.347391E+00 +6.309173E-01     +3.233345E-01 +1.087000E+00 +4.007190E+00     +3.233345E-01 +1.087000E+00 +4.007190E+00     +3.483319E+00 +1.686590E+00 +5.091201E+00     +3.483319E+00 +1.686590E+00 +5.091201E+00     +6.149331E+00 +1.068421E+00 +1.449381E+00     +6.149331E+00 +1.068421E+00 +1.449381E+00     +6.149331E+00 +1.068421E+00 +1.449381E+00     +6.149331E+00 +1.068421E+00 +1.449381E+00     +2.070980E+00 +9.549901E-01 +5.551800E+00     +2.099771E+00 +3.043278E-01 +5.190450E+00     +2.099771E+00 +3.043278E-01 +5.190450E+00     +2.099771E+00 +3.043278E-01 +5.190450E+00    
 +2.099771E+00 +3.043278E-01 +5.190450E+00     +2.099771E+00 +3.043278E-01 +5.190450E+00     +2.906589E+00 +1.952840E+00 +5.279670E+00     +2.906589E+00 +1.952840E+00 +5.279670E+00     +2.906589E+00 +1.952840E+00 +5.279670E+00     +2.906589E+00 +1.952840E+00 +5.279670E+00     +2.906589E+00 +1.952840E+00 +5.279670E+00     +7.410406E-01 +1.347391E+00 +6.309173E-01     +7.410406E-01 +1.347391E+00 +6.309173E-01     +5.254021E+00 +2.600570E+00 +4.963440E+00     +5.254021E+00 +2.600570E+00 +4.963440E+00     +5.254021E+00 +2.600570E+00 +4.963440E+00     +5.254021E+00 +2.600570E+00 +4.963440E+00     +6.149331E+00 +1.068421E+00 +1.449381E+00     +6.149331E+00 +1.068421E+00 +1.449381E+00     +6.149331E+00 +1.068421E+00 +1.449381E+00     +6.149331E+00 +1.068421E+00 +1.449381E+00     +2.099771E+00 +3.043278E-01 +5.190450E+00     +2.099771E+00 +3.043278E-01 +5.190450E+00     +2.099771E+00 +3.043278E-01 +5.190450E+00     +2.099771E+00 +3.043278E-01 +5.190450E+00    
 +2.099771E+00 +3.043278E-01 +5.190450E+00     +6.098370E+00 +7.690217E-01 +9.597182E-01     +4.350031E+00 +2.797740E+00 +6.246621E+00     +4.350031E+00 +2.797740E+00 +6.246621E+00     +4.350031E+00 +2.797740E+00 +6.246621E+00     +4.350031E+00 +2.797740E+00 +6.246621E+00     +4.350031E+00 +2.797740E+00 +6.246621E+00     +5.254021E+00 +2.600570E+00 +4.963440E+00     +5.254021E+00 +2.600570E+00 +4.963440E+00     +5.254021E+00 +2.600570E+00 +4.963440E+00     +5.254021E+00 +2.600570E+00 +4.963440E+00     +5.254021E+00 +2.600570E+00 +4.963440E+00     +5.254021E+00 +2.600570E+00 +4.963440E+00     +3.183899E+00 +1.106230E+00 +6.516117E-01     +6.149331E+00 +1.068421E+00 +1.449381E+00     +6.149331E+00 +1.068421E+00 +1.449381E+00     +6.149331E+00 +1.068421E+00 +1.449381E+00     +6.149331E+00 +1.068421E+00 +1.449381E+00     +2.099771E+00 +3.043278E-01 +5.190450E+00     +2.099771E+00 +3.043278E-01 +5.190450E+00     +2.099771E+00 +3.043278E-01 +5.190450E+00    
 +6.098370E+00 +7.690217E-01 +9.597182E-01     +6.098370E+00 +7.690217E-01 +9.597182E-01     +6.098370E+00 +7.690217E-01 +9.597182E-01     +4.350031E+00 +2.797740E+00 +6.246621E+00     +4.350031E+00 +2.797740E+00 +6.246621E+00     +4.350031E+00 +2.797740E+00 +6.246621E+00     +4.350031E+00 +2.797740E+00 +6.246621E+00     +4.558015E-01 +1.537501E+00 +1.064860E+00     +5.254021E+00 +2.600570E+00 +4.963440E+00     +5.254021E+00 +2.600570E+00 +4.963440E+00     +5.254021E+00 +2.600570E+00 +4.963440E+00     +5.254021E+00 +2.600570E+00 +4.963440E+00     +5.254021E+00 +2.600570E+00 +4.963440E+00     +3.183899E+00 +1.106230E+00 +6.516117E-01     +3.183899E+00 +1.106230E+00 +6.516117E-01     +6.149331E+00 +1.068421E+00 +1.449381E+00     +6.149331E+00 +1.068421E+00 +1.449381E+00     +6.149331E+00 +1.068421E+00 +1.449381E+00     +2.099771E+00 +3.043278E-01 +5.190450E+00     +2.099771E+00 +3.043278E-01 +5.190450E+00     +2.099771E+00 +3.043278E-01 +5.190450E+00    
 +6.098370E+00 +7.690217E-01 +9.597182E-01     +6.098370E+00 +7.690217E-01 +9.597182E-01     +6.098370E+00 +7.690217E-01 +9.597182E-01     +6.098370E+00 +7.690217E-01 +9.597182E-01     +4.350031E+00 +2.797740E+00 +6.246621E+00     +4.350031E+00 +2.797740E+00 +6.246621E+00     +4.558015E-01 +1.537501E+00 +1.064860E+00     +2.166599E+00 +1.639630E+00 +5.043501E+00     +5.254021E+00 +2.600570E+00 +4.963440E+00     +5.254021E+00 +2.600570E+00 +4.963440E+00     +5.254021E+00 +2.600570E+00 +4.963440E+00     +5.254021E+00 +2.600570E+00 +4.963440E+00     +3.183899E+00 +1.106230E+00 +6.516117E-01     +3.183899E+00 +1.106230E+00 +6.516117E-01     +3.183899E+00 +1.106230E+00 +6.516117E-01     +3.183899E+00 +1.106230E+00 +6.516117E-01     +6.149331E+00 +1.068421E+00 +1.449381E+00     +6.149331E+00 +1.068421E+00 +1.449381E+00     +2.099771E+00 +3.043278E-01 +5.190450E+00     +6.098370E+00 +7.690217E-01 +9.597182E-01     +6.098370E+00 +7.690217E-01 +9.597182E-01    
 +6.098370E+00 +7.690217E-01 +9.597182E-01     +6.098370E+00 +7.690217E-01 +9.597182E-01     +6.098370E+00 +7.690217E-01 +9.597182E-01     +6.098370E+00 +7.690217E-01 +9.597182E-01     +3.156707E-01 +1.393139E+00 +1.170060E+00     +2.630241E+00 +1.160670E+00 +4.955601E+00     +2.630241E+00 +1.160670E+00 +4.955601E+00     +2.630241E+00 +1.160670E+00 +4.955601E+00     +2.630241E+00 +1.160670E+00 +4.955601E+00     +2.630241E+00 +1.160670E+00 +4.955601E+00     +5.254021E+00 +2.600570E+00 +4.963440E+00     +5.254021E+00 +2.600570E+00 +4.963440E+00     +5.858500E+00 +2.491110E+00 +6.200010E+00     +5.858500E+00 +2.491110E+00 +6.200010E+00     +3.183899E+00 +1.106230E+00 +6.516117E-01     +3.183899E+00 +1.106230E+00 +6.516117E-01     +6.149331E+00 +1.068421E+00 +1.449381E+00     +6.149331E+00 +1.068421E+00 +1.449381E+00     +6.098370E+00 +7.690217E-01 +9.597182E-01     +6.098370E+00 +7.690217E-01 +9.597182E-01     +6.098370E+00 +7.690217E-01 +9.597182E-01    
 +6.098370E+00 +7.690217E-01 +9.597182E-01     +1.084471E+00 +1.785859E+00 +2.017539E+00     +6.098370E+00 +7.690217E-01 +9.597182E-01     +6.098370E+00 +7.690217E-01 +9.597182E-01     +3.156707E-01 +1.393139E+00 +1.170060E+00     +2.630241E+00 +1.160670E+00 +4.955601E+00     +2.630241E+00 +1.160670E+00 +4.955601E+00     +2.630241E+00 +1.160670E+00 +4.955601E+00     +2.630241E+00 +1.160670E+00 +4.955601E+00     +2.630241E+00 +1.160670E+00 +4.955601E+00     +2.630241E+00 +1.160670E+00 +4.955601E+00     +5.858500E+00 +2.491110E+00 +6.200010E+00     +5.858500E+00 +2.491110E+00 +6.200010E+00     +5.858500E+00 +2.491110E+00 +6.200010E+00     +5.858500E+00 +2.491110E+00 +6.200010E+00     +5.858500E+00 +2.491110E+00 +6.200010E+00     +5.858500E+00 +2.491110E+00 +6.200010E+00     +3.433651E+00 +1.387669E+00 +4.191160E+00     +6.098370E+00 +7.690217E-01 +9.597182E-01     +6.098370E+00 +7.690217E-01 +9.597182E-01     +6.098370E+00 +7.690217E-01 +9.597182E-01    
 +1.306745E-01 +1.489879E+00 +4.005723E-01     +1.306745E-01 +1.489879E+00 +4.005723E-01     +1.306745E-01 +1.489879E+00 +4.005723E-01     +6.098370E+00 +7.690217E-01 +9.597182E-01     +3.156707E-01 +1.393139E+00 +1.170060E+00     +2.630241E+00 +1.160670E+00 +4.955601E+00     +2.630241E+00 +1.160670E+00 +4.955601E+00     +2.630241E+00 +1.160670E+00 +4.955601E+00     +2.630241E+00 +1.160670E+00 +4.955601E+00     +2.630241E+00 +1.160670E+00 +4.955601E+00     +2.630241E+00 +1.160670E+00 +4.955601E+00     +5.858500E+00 +2.491110E+00 +6.200010E+00     +5.858500E+00 +2.491110E+00 +6.200010E+00     +5.858500E+00 +2.491110E+00 +6.200010E+00     +5.858500E+00 +2.491110E+00 +6.200010E+00     +5.858500E+00 +2.491110E+00 +6.200010E+00     +5.858500E+00 +2.491110E+00 +6.200010E+00     +3.433651E+00 +1.387669E+00 +4.191160E+00     +5.490879E+00 +1.331950E+00 +1.387240E+00     +5.490879E+00 +1.331950E+00 +1.387240E+00     +5.490879E+00 +1.331950E+00 +1.387240E+00    
 +1.306745E-01 +1.489879E+00 +4.005723E-01     +1.306745E-01 +1.489879E+00 +4.005723E-01     +1.306745E-01 +1.489879E+00 +4.005723E-01     +8.284624E-01 +9.850813E-01 +5.831145E-02     +8.284624E-01 +9.850813E-01 +5.831145E-02     +2.630241E+00 +1.160670E+00 +4.955601E+00     +2.630241E+00 +1.160670E+00 +4.955601E+00     +2.630241E+00 +1.160670E+00 +4.955601E+00     +2.630241E+00 +1.160670E+00 +4.955601E+00     +2.630241E+00 +1.160670E+00 +4.955601E+00     +2.630241E+00 +1.160670E+00 +4.955601E+00     +5.858500E+00 +2.491110E+00 +6.200010E+00     +5.858500E+00 +2.491110E+00 +6.200010E+00     +5.858500E+00 +2.491110E+00 +6.200010E+00     +5.858500E+00 +2.491110E+00 +6.200010E+00     +5.858500E+00 +2.491110E+00 +6.200010E+00     +5.858500E+00 +2.491110E+00 +6.200010E+00     +3.433651E+00 +1.387669E+00 +4.191160E+00     +3.508040E+00 +9.477399E-01 +4.114291E+00     +3.508040E+00 +9.477399E-01 +4.114291E+00     +5.490879E+00 +1.331950E+00 +1.387240E+00    
 +1.306745E-01 +1.489879E+00 +4.005723E-01     +1.306745E-01 +1.489879E+00 +4.005723E-01     +8.284624E-01 +9.850813E-01 +5.831145E-02     +8.284624E-01 +9.850813E-01 +5.831145E-02     +8.284624E-01 +9.850813E-01 +5.831145E-02     +3.530731E-01 +1.680461E+00 +2.640961E+00     +3.530731E-01 +1.680461E+00 +2.640961E+00     +8.182453E-02 +9.136572E-01 +3.673201E+00     +8.182453E-02 +9.136572E-01 +3.673201E+00     +1.275359E+00 +2.170849E+00 +8.672960E-01     +1.275359E+00 +2.170849E+00 +8.672960E-01     +1.275359E+00 +2.170849E+00 +8.672960E-01     +5.858500E+00 +2.491110E+00 +6.200010E+00     +5.858500E+00 +2.491110E+00 +6.200010E+00     +5.858500E+00 +2.491110E+00 +6.200010E+00     +5.858500E+00 +2.491110E+00 +6.200010E+00     +5.858500E+00 +2.491110E+00 +6.200010E+00     +2.765171E+00 +1.135571E+00 +5.039141E+00     +2.765171E+00 +1.135571E+00 +5.039141E+00     +2.765171E+00 +1.135571E+00 +5.039141E+00     +2.765171E+00 +1.135571E+00 +5.039141E+00    
 +2.765171E+00 +1.135571E+00 +5.039141E+00     +8.284624E-01 +9.850813E-01 +5.831145E-02     +8.284624E-01 +9.850813E-01 +5.831145E-02     +8.284624E-01 +9.850813E-01 +5.831145E-02     +8.284624E-01 +9.850813E-01 +5.831145E-02     +3.530731E-01 +1.680461E+00 +2.640961E+00     +3.530731E-01 +1.680461E+00 +2.640961E+00     +8.182453E-02 +9.136572E-01 +3.673201E+00     +8.182453E-02 +9.136572E-01 +3.673201E+00     +1.275359E+00 +2.170849E+00 +8.672960E-01     +1.275359E+00 +2.170849E+00 +8.672960E-01     +1.275359E+00 +2.170849E+00 +8.672960E-01     +1.275359E+00 +2.170849E+00 +8.672960E-01     +1.275359E+00 +2.170849E+00 +8.672960E-01     +1.275359E+00 +2.170849E+00 +8.672960E-01     +5.858500E+00 +2.491110E+00 +6.200010E+00     +3.230280E+00 +1.770179E+00 +4.852461E+00     +3.230280E+00 +1.770179E+00 +4.852461E+00     +2.765171E+00 +1.135571E+00 +5.039141E+00     +2.765171E+00 +1.135571E+00 +5.039141E+00     +2.765171E+00 +1.135571E+00 +5.039141E+00    
 +6.725365E-01 +1.552629E+00 +5.500213E-01     +8.284624E-01 +9.850813E-01 +5.831145E-02     +8.284624E-01 +9.850813E-01 +5.831145E-02     +8.284624E-01 +9.850813E-01 +5.831145E-02     +8.284624E-01 +9.850813E-01 +5.831145E-02     +3.530731E-01 +1.680461E+00 +2.640961E+00     +3.530731E-01 +1.680461E+00 +2.640961E+00     +8.182453E-02 +9.136572E-01 +3.673201E+00     +8.182453E-02 +9.136572E-01 +3.673201E+00     +1.088562E-01 +3.478947E-01 +8.269126E-01     +1.088562E-01 +3.478947E-01 +8.269126E-01     +1.275359E+00 +2.170849E+00 +8.672960E-01     +1.275359E+00 +2.170849E+00 +8.672960E-01     +1.275359E+00 +2.170849E+00 +8.672960E-01     +1.275359E+00 +2.170849E+00 +8.672960E-01     +3.230280E+00 +1.770179E+00 +4.852461E+00     +3.230280E+00 +1.770179E+00 +4.852461E+00     +3.230280E+00 +1.770179E+00 +4.852461E+00     +2.765171E+00 +1.135571E+00 +5.039141E+00     +2.765171E+00 +1.135571E+00 +5.039141E+00     +2.765171E+00 +1.135571E+00 +5.039141E+00    
 +6.725365E-01 +1.552629E+00 +5.500213E-01     +6.725365E-01 +1.552629E+00 +5.500213E-01     +8.284624E-01 +9.850813E-01 +5.831145E-02     +8.284624E-01 +9.850813E-01 +5.831145E-02     +8.433344E-01 +1.392911E+00 +3.825851E+00     +8.433344E-01 +1.392911E+00 +3.825851E+00     +8.433344E-01 +1.392911E+00 +3.825851E+00     +8.182453E-02 +9.136572E-01 +3.673201E+00     +1.275359E+00 +2.170849E+00 +8.672960E-01     +1.088562E-01 +3.478947E-01 +8.269126E-01     +1.088562E-01 +3.478947E-01 +8.269126E-01     +1.275359E+00 +2.170849E+00 +8.672960E-01     +1.275359E+00 +2.170849E+00 +8.672960E-01     +1.275359E+00 +2.170849E+00 +8.672960E-01     +1.275359E+00 +2.170849E+00 +8.672960E-01     +3.230280E+00 +1.770179E+00 +4.852461E+00     +3.230280E+00 +1.770179E+00 +4.852461E+00     +3.230280E+00 +1.770179E+00 +4.852461E+00     +3.230280E+00 +1.770179E+00 +4.852461E+00     +2.765171E+00 +1.135571E+00 +5.039141E+00     +2.765171E+00 +1.135571E+00 +5.039141E+00    
 +4.812670E+00 +2.299791E+00 +4.509041E+00     +4.812670E+00 +2.299791E+00 +4.509041E+00     +4.812670E+00 +2.299791E+00 +4.509041E+00     +4.812670E+00 +2.299791E+00 +4.509041E+00     +8.433344E-01 +1.392911E+00 +3.825851E+00     +8.433344E-01 +1.392911E+00 +3.825851E+00     +8.433344E-01 +1.392911E+00 +3.825851E+00     +8.433344E-01 +1.392911E+00 +3.825851E+00     +1.275359E+00 +2.170849E+00 +8.672960E-01     +1.088562E-01 +3.478947E-01 +8.269126E-01     +1.088562E-01 +3.478947E-01 +8.269126E-01     +1.275359E+00 +2.170849E+00 +8.672960E-01     +1.275359E+00 +2.170849E+00 +8.672960E-01     +1.275359E+00 +2.170849E+00 +8.672960E-01     +1.275359E+00 +2.170849E+00 +8.672960E-01     +3.230280E+00 +1.770179E+00 +4.852461E+00     +3.230280E+00 +1.770179E+00 +4.852461E+00     +3.230280E+00 +1.770179E+00 +4.852461E+00     +3.230280E+00 +1.770179E+00 +4.852461E+00     +3.230280E+00 +1.770179E+00 +4.852461E+00     +4.812670E+00 +2.299791E+00 +4.509041E+00    
 +4.812670E+00 +2.299791E+00 +4.509041E+00     +4.812670E+00 +2.299791E+00 +4.509041E+00     +4.812670E+00 +2.299791E+00 +4.509041E+00     +4.812670E+00 +2.299791E+00 +4.509041E+00     +4.549539E+00 +1.545980E+00 +3.262760E+00     +4.549539E+00 +1.545980E+00 +3.262760E+00     +4.549539E+00 +1.545980E+00 +3.262760E+00     +5.848241E+00 +2.706412E-01 +1.179061E+00     +1.666920E+00 +2.348550E+00 +2.015970E+00     +1.666920E+00 +2.348550E+00 +2.015970E+00     +1.275359E+00 +2.170849E+00 +8.672960E-01     +1.275359E+00 +2.170849E+00 +8.672960E-01     +1.275359E+00 +2.170849E+00 +8.672960E-01     +1.275359E+00 +2.170849E+00 +8.672960E-01     +5.959910E+00 +1.790221E+00 +5.827860E+00     +5.959910E+00 +1.790221E+00 +5.827860E+00     +5.959910E+00 +1.790221E+00 +5.827860E+00     +5.959910E+00 +1.790221E+00 +5.827860E+00     +2.070980E+00 +9.549901E-01 +5.551800E+00     +2.421060E+00 +1.825970E+00 +4.804870E+00     +2.421060E+00 +1.825970E+00 +4.804870E+00    
 +4.305530E+00 +9.631216E-01 +1.169598E-01     +4.305530E+00 +9.631216E-01 +1.169598E-01     +4.305530E+00 +9.631216E-01 +1.169598E-01     +4.549539E+00 +1.545980E+00 +3.262760E+00     +4.549539E+00 +1.545980E+00 +3.262760E+00     +4.549539E+00 +1.545980E+00 +3.262760E+00     +4.549539E+00 +1.545980E+00 +3.262760E+00     +5.848241E+00 +2.706412E-01 +1.179061E+00     +5.848241E+00 +2.706412E-01 +1.179061E+00     +5.525491E+00 +1.605509E+00 +1.080820E+00     +1.666920E+00 +2.348550E+00 +2.015970E+00     +1.275359E+00 +2.170849E+00 +8.672960E-01     +1.275359E+00 +2.170849E+00 +8.672960E-01     +5.959910E+00 +1.790221E+00 +5.827860E+00     +5.959910E+00 +1.790221E+00 +5.827860E+00     +5.959910E+00 +1.790221E+00 +5.827860E+00     +5.959910E+00 +1.790221E+00 +5.827860E+00     +5.959910E+00 +1.790221E+00 +5.827860E+00     +2.070980E+00 +9.549901E-01 +5.551800E+00     +2.421060E+00 +1.825970E+00 +4.804870E+00     +2.421060E+00 +1.825970E+00 +4.804870E+00    
 +5.381670E-01 +6.205536E-01 +1.011910E+00     +5.381670E-01 +6.205536E-01 +1.011910E+00     +5.381670E-01 +6.205536E-01 +1.011910E+00     +4.549539E+00 +1.545980E+00 +3.262760E+00     +4.549539E+00 +1.545980E+00 +3.262760E+00     +4.549539E+00 +1.545980E+00 +3.262760E+00     +4.549539E+00 +1.545980E+00 +3.262760E+00     +5.848241E+00 +2.706412E-01 +1.179061E+00     +5.848241E+00 +2.706412E-01 +1.179061E+00     +1.666920E+00 +2.348550E+00 +2.015970E+00     +1.666920E+00 +2.348550E+00 +2.015970E+00     +1.666920E+00 +2.348550E+00 +2.015970E+00     +4.957660E-01 +1.701850E+00 +2.498352E-01     +4.957660E-01 +1.701850E+00 +2.498352E-01     +4.957660E-01 +1.701850E+00 +2.498352E-01     +5.959910E+00 +1.790221E+00 +5.827860E+00     +5.959910E+00 +1.790221E+00 +5.827860E+00     +2.070980E+00 +9.549901E-01 +5.551800E+00     +2.070980E+00 +9.549901E-01 +5.551800E+00     +2.421060E+00 +1.825970E+00 +4.804870E+00     +2.421060E+00 +1.825970E+00 +4.804870E+00    
 +5.381670E-01 +6.205536E-01 +1.011910E+00     +5.381670E-01 +6.205536E-01 +1.011910E+00     +5.381670E-01 +6.205536E-01 +1.011910E+00     +5.381670E-01 +6.205536E-01 +1.011910E+00     +4.549539E+00 +1.545980E+00 +3.262760E+00     +4.549539E+00 +1.545980E+00 +3.262760E+00     +4.549539E+00 +1.545980E+00 +3.262760E+00     +5.848241E+00 +2.706412E-01 +1.179061E+00     +5.848241E+00 +2.706412E-01 +1.179061E+00     +5.848241E+00 +2.706412E-01 +1.179061E+00     +3.483319E+00 +1.686590E+00 +5.091201E+00     +3.483319E+00 +1.686590E+00 +5.091201E+00     +4.957660E-01 +1.701850E+00 +2.498352E-01     +4.957660E-01 +1.701850E+00 +2.498352E-01     +4.957660E-01 +1.701850E+00 +2.498352E-01     +4.957660E-01 +1.701850E+00 +2.498352E-01     +2.070980E+00 +9.549901E-01 +5.551800E+00     +2.070980E+00 +9.549901E-01 +5.551800E+00     +2.070980E+00 +9.549901E-01 +5.551800E+00     +2.421060E+00 +1.825970E+00 +4.804870E+00     +2.421060E+00 +1.825970E+00 +4.804870E+00    
 +5.381670E-01 +6.205536E-01 +1.011910E+00     +5.381670E-01 +6.205536E-01 +1.011910E+00     +5.381670E-01 +6.205536E-01 +1.011910E+00     +5.381670E-01 +6.205536E-01 +1.011910E+00     +4.549539E+00 +1.545980E+00 +3.262760E+00     +4.549539E+00 +1.545980E+00 +3.262760E+00     +4.549539E+00 +1.545980E+00 +3.262760E+00     +4.549539E+00 +1.545980E+00 +3.262760E+00     +5.848241E+00 +2.706412E-01 +1.179061E+00     +5.848241E+00 +2.706412E-01 +1.179061E+00     +3.483319E+00 +1.686590E+00 +5.091201E+00     +3.483319E+00 +1.686590E+00 +5.091201E+00     +4.957660E-01 +1.701850E+00 +2.498352E-01     +4.957660E-01 +1.701850E+00 +2.498352E-01     +4.957660E-01 +1.701850E+00 +2.498352E-01     +4.957660E-01 +1.701850E+00 +2.498352E-01     +2.070980E+00 +9.549901E-01 +5.551800E+00     +2.070980E+00 +9.549901E-01 +5.551800E+00     +2.070980E+00 +9.549901E-01 +5.551800E+00     +2.070980E+00 +9.549901E-01 +5.551800E+00     +2.421060E+00 +1.825970E+00 +4.804870E+00    
 +5.381670E-01 +6.205536E-01 +1.011910E+00     +5.381670E-01 +6.205536E-01 +1.011910E+00     +5.381670E-01 +6.205536E-01 +1.011910E+00     +5.381670E-01 +6.205536E-01 +1.011910E+00     +2.906589E+00 +1.952840E+00 +5.279670E+00     +2.906589E+00 +1.952840E+00 +5.279670E+00     +4.549539E+00 +1.545980E+00 +3.262760E+00     +7.410406E-01 +1.347391E+00 +6.309173E-01     +7.410406E-01 +1.347391E+00 +6.309173E-01     +3.483319E+00 +1.686590E+00 +5.091201E+00     +3.483319E+00 +1.686590E+00 +5.091201E+00     +3.483319E+00 +1.686590E+00 +5.091201E+00     +3.483319E+00 +1.686590E+00 +5.091201E+00     +4.957660E-01 +1.701850E+00 +2.498352E-01     +4.957660E-01 +1.701850E+00 +2.498352E-01     +2.070980E+00 +9.549901E-01 +5.551800E+00     +2.070980E+00 +9.549901E-01 +5.551800E+00     +2.070980E+00 +9.549901E-01 +5.551800E+00     +2.070980E+00 +9.549901E-01 +5.551800E+00     +2.070980E+00 +9.549901E-01 +5.551800E+00     +2.099771E+00 +3.043278E-01 +5.190450E+00    
 +5.381670E-01 +6.205536E-01 +1.011910E+00     +5.381670E-01 +6.205536E-01 +1.011910E+00     +5.381670E-01 +6.205536E-01 +1.011910E+00     +2.906589E+00 +1.952840E+00 +5.279670E+00     +2.906589E+00 +1.952840E+00 +5.279670E+00     +2.906589E+00 +1.952840E+00 +5.279670E+00     +7.410406E-01 +1.347391E+00 +6.309173E-01     +7.410406E-01 +1.347391E+00 +6.309173E-01     +7.410406E-01 +1.347391E+00 +6.309173E-01     +3.233345E-01 +1.087000E+00 +4.007190E+00     +3.483319E+00 +1.686590E+00 +5.091201E+00     +3.483319E+00 +1.686590E+00 +5.091201E+00     +3.483319E+00 +1.686590E+00 +5.091201E+00     +3.483319E+00 +1.686590E+00 +5.091201E+00     +6.149331E+00 +1.068421E+00 +1.449381E+00     +2.070980E+00 +9.549901E-01 +5.551800E+00     +2.070980E+00 +9.549901E-01 +5.551800E+00     +2.070980E+00 +9.549901E-01 +5.551800E+00     +2.070980E+00 +9.549901E-01 +5.551800E+00     +2.070980E+00 +9.549901E-01 +5.551800E+00     +2.099771E+00 +3.043278E-01 +5.190450E+00    
 +2.099771E+00 +3.043278E-01 +5.190450E+00     +5.381670E-01 +6.205536E-01 +1.011910E+00     +5.381670E-01 +6.205536E-01 +1.011910E+00     +2.906589E+00 +1.952840E+00 +5.279670E+00     +2.906589E+00 +1.952840E+00 +5.279670E+00     +2.906589E+00 +1.952840E+00 +5.279670E+00     +2.906589E+00 +1.952840E+00 +5.279670E+00     +7.410406E-01 +1.347391E+00 +6.309173E-01     +7.410406E-01 +1.347391E+00 +6.309173E-01     +3.233345E-01 +1.087000E+00 +4.007190E+00     +5.254021E+00 +2.600570E+00 +4.963440E+00     +5.254021E+00 +2.600570E+00 +4.963440E+00     +3.483319E+00 +1.686590E+00 +5.091201E+00     +6.149331E+00 +1.068421E+00 +1.449381E+00     +6.149331E+00 +1.068421E+00 +1.449381E+00     +6.149331E+00 +1.068421E+00 +1.449381E+00     +2.070980E+00 +9.549901E-01 +5.551800E+00     +2.070980E+00 +9.549901E-01 +5.551800E+00     +2.070980E+00 +9.549901E-01 +5.551800E+00     +2.099771E+00 +3.043278E-01 +5.190450E+00     +2.099771E+00 +3.043278E-01 +5.190450E+00    
 +2.099771E+00 +3.043278E-01 +5.190450E+00     +2.099771E+00 +3.043278E-01 +5.190450E+00     +2.906589E+00 +1.952840E+00 +5.279670E+00     +2.906589E+00 +1.952840E+00 +5.279670E+00     +2.906589E+00 +1.952840E+00 +5.279670E+00     +2.906589E+00 +1.952840E+00 +5.279670E+00     +2.906589E+00 +1.952840E+00 +5.279670E+00     +7.410406E-01 +1.347391E+00 +6.309173E-01     +5.254021E+00 +2.600570E+00 +4.963440E+00     +5.254021E+00 +2.600570E+00 +4.963440E+00     +5.254021E+00 +2.600570E+00 +4.963440E+00     +5.254021E+00 +2.600570E+00 +4.963440E+00     +5.254021E+00 +2.600570E+00 +4.963440E+00     +3.183899E+00 +1.106230E+00 +6.516117E-01     +3.183899E+00 +1.106230E+00 +6.516117E-01     +3.183899E+00 +1.106230E+00 +6.516117E-01     +6.149331E+00 +1.068421E+00 +1.449381E+00     +2.099771E+00 +3.043278E-01 +5.190450E+00     +2.099771E+00 +3.043278E-01 +5.190450E+00     +2.099771E+00 +3.043278E-01 +5.190450E+00     +2.099771E+00 +3.043278E-01 +5.190450E+00    
 +2.099771E+00 +3.043278E-01 +5.190450E+00     +6.098370E+00 +7.690217E-01 +9.597182E-01     +4.350031E+00 +2.797740E+00 +6.246621E+00     +4.350031E+00 +2.797740E+00 +6.246621E+00     +4.350031E+00 +2.797740E+00 +6.246621E+00     +4.350031E+00 +2.797740E+00 +6.246621E+00     +4.350031E+00 +2.797740E+00 +6.246621E+00     +5.254021E+00 +2.600570E+00 +4.963440E+00     +5.254021E+00 +2.600570E+00 +4.963440E+00     +5.254021E+00 +2.600570E+00 +4.963440E+00     +5.254021E+00 +2.600570E+00 +4.963440E+00     +5.254021E+00 +2.600570E+00 +4.963440E+00     +5.254021E+00 +2.600570E+00 +4.963440E+00     +3.183899E+00 +1.106230E+00 +6.516117E-01     +3.183899E+00 +1.106230E+00 +6.516117E-01     +3.183899E+00 +1.106230E+00 +6.516117E-01     +6.149331E+00 +1.068421E+00 +1.449381E+00     +6.149331E+00 +1.068421E+00 +1.449381E+00     +2.099771E+00 +3.043278E-01 +5.190450E+00     +2.099771E+00 +3.043278E-01 +5.190450E+00     +2.099771E+00 +3.043278E-01 +5.190450E+00    
 +6.098370E+00 +7.690217E-01 +9.597182E-01     +6.098370E+00 +7.690217E-01 +9.597182E-01     +6.098370E+00 +7.690217E-01 +9.597182E-01     +4.350031E+00 +2.797740E+00 +6.246621E+00     +4.350031E+00 +2.797740E+00 +6.246621E+00     +4.350031E+00 +2.797740E+00 +6.246621E+00     +4.350031E+00 +2.797740E+00 +6.246621E+00     +5.254021E+00 +2.600570E+00 +4.963440E+00     +5.254021E+00 +2.600570E+00 +4.963440E+00     +5.254021E+00 +2.600570E+00 +4.963440E+00     +5.254021E+00 +2.600570E+00 +4.963440E+00     +5.254021E+00 +2.600570E+00 +4.963440E+00     +5.254021E+00 +2.600570E+00 +4.963440E+00     +3.183899E+00 +1.106230E+00 +6.516117E-01     +3.183899E+00 +1.106230E+00 +6.516117E-01     +3.183899E+00 +1.106230E+00 +6.516117E-01     +6.149331E+00 +1.068421E+00 +1.449381E+00     +6.149331E+00 +1.068421E+00 +1.449381E+00     +2.099771E+00 +3.043278E-01 +5.190450E+00     +2.099771E+00 +3.043278E-01 +5.190450E+00     +2.099771E+00 +3.043278E-01 +5.190450E+00    
 +6.098370E+00 +7.690217E-01 +9.597182E-01     +6.098370E+00 +7.690217E-01 +9.597182E-01     +6.098370E+00 +7.690217E-01 +9.597182E-01     +6.098370E+00 +7.690217E-01 +9.597182E-01     +3.156707E-01 +1.393139E+00 +1.170060E+00     +3.156707E-01 +1.393139E+00 +1.170060E+00     +3.156707E-01 +1.393139E+00 +1.170060E+00     +2.630241E+00 +1.160670E+00 +4.955601E+00     +5.254021E+00 +2.600570E+00 +4.963440E+00     +5.254021E+00 +2.600570E+00 +4.963440E+00     +5.254021E+00 +2.600570E+00 +4.963440E+00     +5.254021E+00 +2.600570E+00 +4.963440E+00     +3.183899E+00 +1.106230E+00 +6.516117E-01     +3.183899E+00 +1.106230E+00 +6.516117E-01     +3.183899E+00 +1.106230E+00 +6.516117E-01     +3.183899E+00 +1.106230E+00 +6.516117E-01     +3.183899E+00 +1.106230E+00 +6.516117E-01     +3.183899E+00 +1.106230E+00 +6.516117E-01     +2.099771E+00 +3.043278E-01 +5.190450E+00     +6.098370E+00 +7.690217E-01 +9.597182E-01     +6.098370E+00 +7.690217E-01 +9.597182E-01    
 +6.098370E+00 +7.690217E-01 +9.597182E-01     +6.098370E+00 +7.690217E-01 +9.597182E-01     +6.098370E+00 +7.690217E-01 +9.597182E-01     +3.156707E-01 +1.393139E+00 +1.170060E+00     +3.156707E-01 +1.393139E+00 +1.170060E+00     +3.156707E-01 +1.393139E+00 +1.170060E+00     +2.630241E+00 +1.160670E+00 +4.955601E+00     +2.630241E+00 +1.160670E+00 +4.955601E+00     +2.630241E+00 +1.160670E+00 +4.955601E+00     +2.630241E+00 +1.160670E+00 +4.955601E+00     +5.254021E+00 +2.600570E+00 +4.963440E+00     +5.858500E+00 +2.491110E+00 +6.200010E+00     +5.858500E+00 +2.491110E+00 +6.200010E+00     +5.858500E+00 +2.491110E+00 +6.200010E+00     +3.183899E+00 +1.106230E+00 +6.516117E-01     +3.183899E+00 +1.106230E+00 +6.516117E-01     +3.183899E+00 +1.106230E+00 +6.516117E-01     +3.183899E+00 +1.106230E+00 +6.516117E-01     +6.098370E+00 +7.690217E-01 +9.597182E-01     +6.098370E+00 +7.690217E-01 +9.597182E-01     +6.098370E+00 +7.690217E-01 +9.597182E-01    
 +6.098370E+00 +7.690217E-01 +9.597182E-01     +6.098370E+00 +7.690217E-01 +9.597182E-01     +6.098370E+00 +7.690217E-01 +9.597182E-01     +3.156707E-01 +1.393139E+00 +1.170060E+00     +3.156707E-01 +1.393139E+00 +1.170060E+00     +3.156707E-01 +1.393139E+00 +1.170060E+00     +2.630241E+00 +1.160670E+00 +4.955601E+00     +2.630241E+00 +1.160670E+00 +4.955601E+00     +2.630241E+00 +1.160670E+00 +4.955601E+00     +2.630241E+00 +1.160670E+00 +4.955601E+00     +2.630241E+00 +1.160670E+00 +4.955601E+00     +5.858500E+00 +2.491110E+00 +6.200010E+00     +5.858500E+00 +2.491110E+00 +6.200010E+00     +5.858500E+00 +2.491110E+00 +6.200010E+00     +5.858500E+00 +2.491110E+00 +6.200010E+00     +5.858500E+00 +2.491110E+00 +6.200010E+00     +5.858500E+00 +2.491110E+00 +6.200010E+00     +5.858500E+00 +2.491110E+00 +6.200010E+00     +5.858500E+00 +2.491110E+00 +6.200010E+00     +6.098370E+00 +7.690217E-01 +9.597182E-01     +6.098370E+00 +7.690217E-01 +9.597182E-01    
 +1.306745E-01 +1.489879E+00 +4.005723E-01     +1.306745E-01 +1.489879E+00 +4.005723E-01     +1.306745E-01 +1.489879E+00 +4.005723E-01     +3.156707E-01 +1.393139E+00 +1.170060E+00     +3.156707E-01 +1.393139E+00 +1.170060E+00     +3.156707E-01 +1.393139E+00 +1.170060E+00     +2.630241E+00 +1.160670E+00 +4.955601E+00     +2.630241E+00 +1.160670E+00 +4.955601E+00     +2.630241E+00 +1.160670E+00 +4.955601E+00     +2.630241E+00 +1.160670E+00 +4.955601E+00     +2.630241E+00 +1.160670E+00 +4.955601E+00     +5.858500E+00 +2.491110E+00 +6.200010E+00     +5.858500E+00 +2.491110E+00 +6.200010E+00     +5.858500E+00 +2.491110E+00 +6.200010E+00     +5.858500E+00 +2.491110E+00 +6.200010E+00     +5.858500E+00 +2.491110E+00 +6.200010E+00     +5.858500E+00 +2.491110E+00 +6.200010E+00     +5.858500E+00 +2.491110E+00 +6.200010E+00     +5.490879E+00 +1.331950E+00 +1.387240E+00     +5.490879E+00 +1.331950E+00 +1.387240E+00     +5.490879E+00 +1.331950E+00 +1.387240E+00    
 +1.306745E-01 +1.489879E+00 +4.005723E-01     +1.306745E-01 +1.489879E+00 +4.005723E-01     +1.306745E-01 +1.489879E+00 +4.005723E-01     +8.284624E-01 +9.850813E-01 +5.831145E-02     +3.156707E-01 +1.393139E+00 +1.170060E+00     +3.156707E-01 +1.393139E+00 +1.170060E+00     +2.630241E+00 +1.160670E+00 +4.955601E+00     +2.630241E+00 +1.160670E+00 +4.955601E+00     +2.630241E+00 +1.160670E+00 +4.955601E+00     +2.630241E+00 +1.160670E+00 +4.955601E+00     +5.858500E+00 +2.491110E+00 +6.200010E+00     +5.858500E+00 +2.491110E+00 +6.200010E+00     +5.858500E+00 +2.491110E+00 +6.200010E+00     +5.858500E+00 +2.491110E+00 +6.200010E+00     +5.858500E+00 +2.491110E+00 +6.200010E+00     +5.858500E+00 +2.491110E+00 +6.200010E+00     +5.858500E+00 +2.491110E+00 +6.200010E+00     +5.858500E+00 +2.491110E+00 +6.200010E+00     +3.508040E+00 +9.477399E-01 +4.114291E+00     +3.508040E+00 +9.477399E-01 +4.114291E+00     +5.490879E+00 +1.331950E+00 +1.387240E+00    
 +1.306745E-01 +1.489879E+00 +4.005723E-01     +1.306745E-01 +1.489879E+00 +4.005723E-01     +8.284624E-01 +9.850813E-01 +5.831145E-02     +8.284624E-01 +9.850813E-01 +5.831145E-02     +8.284624E-01 +9.850813E-01 +5.831145E-02     +3.530731E-01 +1.680461E+00 +2.640961E+00     +3.530731E-01 +1.680461E+00 +2.640961E+00     +8.182453E-02 +9.136572E-01 +3.673201E+00     +2.630241E+00 +1.160670E+00 +4.955601E+00     +2.630241E+00 +1.160670E+00 +4.955601E+00     +5.858500E+00 +2.491110E+00 +6.200010E+00     +5.858500E+00 +2.491110E+00 +6.200010E+00     +5.858500E+00 +2.491110E+00 +6.200010E+00     +5.858500E+00 +2.491110E+00 +6.200010E+00     +5.858500E+00 +2.491110E+00 +6.200010E+00     +5.858500E+00 +2.491110E+00 +6.200010E+00     +5.858500E+00 +2.491110E+00 +6.200010E+00     +5.858500E+00 +2.491110E+00 +6.200010E+00     +2.765171E+00 +1.135571E+00 +5.039141E+00     +2.765171E+00 +1.135571E+00 +5.039141E+00     +2.765171E+00 +1.135571E+00 +5.039141E+00    
 +1.306745E-01 +1.489879E+00 +4.005723E-01     +8.284624E-01 +9.850813E-01 +5.831145E-02     +8.284624E-01 +9.850813E-01 +5.831145E-02     +8.284624E-01 +9.850813E-01 +5.831145E-02     +8.284624E-01 +9.850813E-01 +5.831145E-02     +3.530731E-01 +1.680461E+00 +2.640961E+00     +3.530731E-01 +1.680461E+00 +2.640961E+00     +8.182453E-02 +9.136572E-01 +3.673201E+00     +8.182453E-02 +9.136572E-01 +3.673201E+00     +1.088562E-01 +3.478947E-01 +8.269126E-01     +1.275359E+00 +2.170849E+00 +8.672960E-01     +5.858500E+00 +2.491110E+00 +6.200010E+00     +5.858500E+00 +2.491110E+00 +6.200010E+00     +5.858500E+00 +2.491110E+00 +6.200010E+00     +5.858500E+00 +2.491110E+00 +6.200010E+00     +5.858500E+00 +2.491110E+00 +6.200010E+00     +5.858500E+00 +2.491110E+00 +6.200010E+00     +3.230280E+00 +1.770179E+00 +4.852461E+00     +2.765171E+00 +1.135571E+00 +5.039141E+00     +2.765171E+00 +1.135571E+00 +5.039141E+00     +2.765171E+00 +1.135571E+00 +5.039141E+00    
 +8.284624E-01 +9.850813E-01 +5.831145E-02     +8.284624E-01 +9.850813E-01 +5.831145E-02     +8.284624E-01 +9.850813E-01 +5.831145E-02     +8.284624E-01 +9.850813E-01 +5.831145E-02     +8.284624E-01 +9.850813E-01 +5.831145E-02     +3.530731E-01 +1.680461E+00 +2.640961E+00     +3.530731E-01 +1.680461E+00 +2.640961E+00     +8.182453E-02 +9.136572E-01 +3.673201E+00     +1.088562E-01 +3.478947E-01 +8.269126E-01     +1.088562E-01 +3.478947E-01 +8.269126E-01     +1.088562E-01 +3.478947E-01 +8.269126E-01     +1.275359E+00 +2.170849E+00 +8.672960E-01     +1.275359E+00 +2.170849E+00 +8.672960E-01     +1.275359E+00 +2.170849E+00 +8.672960E-01     +1.275359E+00 +2.170849E+00 +8.672960E-01     +5.858500E+00 +2.491110E+00 +6.200010E+00     +5.858500E+00 +2.491110E+00 +6.200010E+00     +3.230280E+00 +1.770179E+00 +4.852461E+00     +2.765171E+00 +1.135571E+00 +5.039141E+00     +2.765171E+00 +1.135571E+00 +5.039141E+00     +2.765171E+00 +1.135571E+00 +5.039141E+00    
 +6.725365E-01 +1.552629E+00 +5.500213E-01     +6.725365E-01 +1.552629E+00 +5.500213E-01     +8.284624E-01 +9.850813E-01 +5.831145E-02     +8.284624E-01 +9.850813E-01 +5.831145E-02     +8.433344E-01 +1.392911E+00 +3.825851E+00     +8.433344E-01 +1.392911E+00 +3.825851E+00     +8.433344E-01 +1.392911E+00 +3.825851E+00     +8.433344E-01 +1.392911E+00 +3.825851E+00     +1.088562E-01 +3.478947E-01 +8.269126E-01     +1.088562E-01 +3.478947E-01 +8.269126E-01     +1.088562E-01 +3.478947E-01 +8.269126E-01     +1.275359E+00 +2.170849E+00 +8.672960E-01     +1.275359E+00 +2.170849E+00 +8.672960E-01     +1.275359E+00 +2.170849E+00 +8.672960E-01     +1.275359E+00 +2.170849E+00 +8.672960E-01     +3.230280E+00 +1.770179E+00 +4.852461E+00     +3.230280E+00 +1.770179E+00 +4.852461E+00     +3.230280E+00 +1.770179E+00 +4.852461E+00     +3.230280E+00 +1.770179E+00 +4.852461E+00     +2.765171E+00 +1.135571E+00 +5.039141E+00     +2.765171E+00 +1.135571E+00 +5.039141E+00    
 +4.812670E+00 +2.299791E+00 +4.509041E+00     +4.812670E+00 +2.299791E+00 +4.509041E+00     +4.812670E+00 +2.299791E+00 +4.509041E+00     +8.433344E-01 +1.392911E+00 +3.825851E+00     +8.433344E-01 +1.392911E+00 +3.825851E+00     +8.433344E-01 +1.392911E+00 +3.825851E+00     +8.433344E-01 +1.392911E+00 +3.825851E+00     +8.433344E-01 +1.392911E+00 +3.825851E+00     +1.088562E-01 +3.478947E-01 +8.269126E-01     +1.088562E-01 +3.478947E-01 +8.269126E-01     +1.088562E-01 +3.478947E-01 +8.269126E-01     +1.275359E+00 +2.170849E+00 +8.672960E-01     +1.275359E+00 +2.170849E+00 +8.672960E-01     +1.275359E+00 +2.170849E+00 +8.672960E-01     +1.275359E+00 +2.170849E+00 +8.672960E-01     +3.230280E+00 +1.770179E+00 +4.852461E+00     +3.230280E+00 +1.770179E+00 +4.852461E+00     +3.230280E+00 +1.770179E+00 +4.852461E+00     +3.230280E+00 +1.770179E+00 +4.852461E+00     +3.230280E+00 +1.770179E+00 +4.852461E+00     +4.812670E+00 +2.299791E+00 +4.509041E+00    
TENSORS Stress float 
 +8.229155E+02 -2.091794E+00 -2.566002E+01 -2.091794E+00 +4.563226E+02 +1.172345E+01 -2.566002E+01 +1.172345E+01 +3.794766E+02 
 +8.313404E+02 -2.816067E-01 -2.915807E+01 -2.816067E-01 +4.718852E+02 -7.648733E+00 -2.915807E+01 -7.648733E+00 +3.864088E+02 
 +8.387841E+02 +4.266755E-01 -3.503103E+01 +4.266755E-01 +4.861348E+02 -3.491003E+00 -3.503103E+01 -3.491003E+00 +3.713605E+02 
 +8.565320E+02 +9.404702E+00 -2.398443E+01 +9.404702E+00 +4.938273E+02 +1.149081E+01 -2.398443E+01 +1.149081E+01 +3.616566E+02 
 +8.498722E+02 +1.866222E+00 -1.639990E+01 +1.866222E+00 +4.647596E+02 +2.049772E+01 -1.639990E+01 +2.049772E+01 +3.354916E+02 
 +8.458138E+02 -7.406281E+00 -6.594832E+00 -7.406281E+00 +4.492727E+02 +2.275579E+01 -6.594832E+00 +2.275579E+01 +3.059017E+02 
 +8.467925E+02 -9.820296E+00 +2.016620E+00 -9.820296E+00 +4.530731E+02 +1.544461E+01 +2.016620E+00 +1.544461E+01 +3.083662E+02 
 +8.612864E+02 -8.813220E+00 +2.205600E+00 -8.813220E+00 +4.656538E+02 +8.386784E+00 +2.205600E+00 +8.386784E+00 +3.262039E+02 
 +8.614810E+02 -1.061492E+01 -2.467525E+00 -1.061492E+01 +4.797116E+02 +1.158225E+01 -2.467525E+00 +1.158225E+01 +3.295247E+02 
 +8.601341E+02 -1.060255E+01 -8.903017E+00 -1.060255E+01 +4.895701E+02 +1.803870E+01 -8.903017E+00 +1.803870E+01 +3.291583E+02 
 +8.546496E+02 -9.042069E+00 -5.297423E+00 -9.042069E+00 +4.940950E+02 +1.506629E+01 -5.297423E+00 +1.506629E+01 +3.283334E+02 
 +8.556323E+02 -6.714478E+00 -5.483289E+00 -6.714478E+00 +4.964845E+02 +3.296184E+00 -5.483289E+00 +3.296184E+00 +3.143475E+02 
 +8.626362E+02 +5.246432E+00 -4.928021E+00 +5.246432E+00 +4.943622E+02 +9.216768E-01 -4.928021E+00 +9.216768E-01 +2.912938E+02 
 +8.617318E+02 +8.191425E+00 -4.915412E+00 +8.191425E+00 +5.026464E+02 +1.473197E+00 -4.915412E+00 +1.473197E+00 +2.971289E+02 
 +8.721914E+02 +1.168627E+01 -1.332250E+01 +1.168627E+01 +5.223936E+02 +1.927783E+00 -1.332250E+01 +1.927783E+00 +3.394312E+02 
 +8.813361E+02 +1.366982E+01 -1.727593E+01 +1.366982E+01 +5.308982E+02 +1.157971E+01 -1.727593E+01 +1.157971E+01 +3.670668E+02 
 +8.774860E+02 +1.718728E+01 -2.097444E+01 +1.718728E+01 +5.122542E+02 +2.160171E+01 -2.097444E+01 +2.160171E+01 +3.704790E+02 
 +8.695514E+02 +2.659467E+00 +1.683957E-01 +2.659467E+00 +4.882471E+02 +2.322677E+01 +1.683957E-01 +2.322677E+01 +3.763053E+02 
 +8.538969E+02 -8.259506E+00 +9.969849E+00 -8.259506E+00 +4.678885E+02 +2.056760E+01 +9.969849E+00 +2.056760E+01 +3.883873E+02 
 +8.537692E+02 -1.059683E+01 +1.513424E+01 -1.059683E+01 +4.618285E+02 +2.885070E+01 +1.513424E+01 +2.885070E+01 +3.939713E+02 
 +8.559681E+02 -6.390011E+00 +4.681629E+00 -6.390011E+00 +4.646202E+02 +3.005548E+01 +4.681629E+00 +3.005548E+01 +3.884029E+02 
 +8.335783E+02 -1.260093E+00 -3.285465E+01 -1.260093E+00 +4.494193E+02 +7.624726E-01 -3.285465E+01 +7.624726E-01 +3.933743E+02 
 +8.342469E+02 -2.673360E+00 -3.833424E+01 -2.673360E+00 +4.630886E+02 -2.525012E+00 -3.833424E+01 -2.525012E+00 +3.754344E+02 
 +8.233297E+02 +2.889684E+00 -4.314107E+01 +2.889684E+00 +4.621169E+02 -4.845325E-01 -4.314107E+01 -4.845325E-01 +3.532761E+02 
 +8.278677E+02 +3.851898E+00 -1.919682E+01 +3.851898E+00 +4.596247E+02 +7.199991E+00 -1.919682E+01 +7.199991E+00 +3.457538E+02 
 +8.336983E+02 +2.391125E+00 -1.299935E+01 +2.391125E+00 +4.547572E+02 +1.764721E+01 -1.299935E+01 +1.764721E+01 +3.335043E+02 
 +8.337690E+02 -1.901590E+00 -6.667281E+00 -1.901590E+00 +4.450470E+02 +2.896595E+01 -6.667281E+00 +2.896595E+01 +2.961521E+02 
 +8.429366E+02 -5.601606E+00 +1.053733E+00 -5.601606E+00 +4.475257E+02 +2.741551E+01 +1.053733E+00 +2.741551E+01 +2.907839E+02 
 +8.585335E+02 -9.690181E+00 +6.122238E+00 -9.690181E+00 +4.628561E+02 +1.645745E+01 +6.122238E+00 +1.645745E+01 +3.072367E+02 
 +8.579660E+02 -1.018190E+01 +1.765010E+00 -1.018190E+01 +4.731146E+02 +1.043233E+01 +1.765010E+00 +1.043233E+01 +3.154678E+02 
 +8.540174E+02 -1.486330E+01 -5.676613E+00 -1.486330E+01 +4.880046E+02 +1.074614E+01 -5.676613E+00 +1.074614E+01 +3.221842E+02 
 +8.430644E+02 -1.297757E+01 -6.038433E+00 -1.297757E+01 +4.857070E+02 +8.950113E+00 -6.038433E+00 +8.950113E+00 +3.066456E+02 
 +8.469412E+02 -4.728558E+00 -6.157306E+00 -4.728558E+00 +4.944160E+02 +3.364190E+00 -6.157306E+00 +3.364190E+00 +2.826336E+02 
 +8.667220E+02 +6.473700E+00 +9.201087E-01 +6.473700E+00 +5.186804E+02 -9.072810E-01 +9.201087E-01 -9.072810E-01 +2.786772E+02 
 +8.705546E+02 +6.374660E+00 -1.141875E+00 +6.374660E+00 +5.206424E+02 -7.946894E-01 -1.141875E+00 -7.946894E-01 +2.924029E+02 
 +8.732695E+02 +9.830110E+00 -8.174846E+00 +9.830110E+00 +5.207699E+02 +6.530689E+00 -8.174846E+00 +6.530689E+00 +3.160332E+02 
 +8.724576E+02 +1.336110E+01 -1.377264E+01 +1.336110E+01 +5.200880E+02 +1.099025E+01 -1.377264E+01 +1.099025E+01 +3.322903E+02 
 +8.747791E+02 +1.497573E+01 -1.930793E+01 +1.497573E+01 +5.157085E+02 +1.638673E+01 -1.930793E+01 +1.638673E+01 +3.561748E+02 
 +8.641216E+02 +4.526309E+00 -6.904794E+00 +4.526309E+00 +4.905551E+02 +1.960044E+01 -6.904794E+00 +1.960044E+01 +3.741692E+02 
 +8.576349E+02 -3.952968E+00 +1.870110E-01 -3.952968E+00 +4.714485E+02 +1.464550E+01 +1.870110E-01 +1.464550E+01 +3.900250E+02 
 +8.615698E+02 -7.245640E+00 +8.335121E+00 -7.245640E+00 +4.636836E+02 +1.056022E+01 +8.335121E+00 +1.056022E+01 +4.083691E+02 
 +8.636501E+02 -6.584064E+00 +2.918034E+00 -6.584064E+00 +4.580575E+02 +5.562562E+00 +2.918034E+00 +5.562562E+00 +4.190677E+02 
 +8.424930E+02 -1.900380E+00 -2.604186E+01 -1.900380E+00 +4.633099E+02 -3.926259E+00 -2.604186E+01 -3.926259E+00 +3.804454E+02 
 +8.381388E+02 -6.783306E+00 -3.875840E+01 -6.783306E+00 +4.579367E+02 -6.113709E+00 -3.875840E+01 -6.113709E+00 +3.610321E+02 
 +8.240909E+02 -1.616430E+00 -4.611789E+01 -1.616430E+00 +4.519918E+02 -1.468785E+00 -4.611789E+01 -1.468785E+00 +3.423711E+02 
 +8.317661E+02 +1.427229E-01 -1.784021E+01 +1.427229E-01 +4.594855E+02 +2.417156E+00 -1.784021E+01 +2.417156E+00 +3.430727E+02 
 +8.262230E+02 +3.272826E+00 -1.214210E+01 +3.272826E+00 +4.529245E+02 +1.263450E+01 -1.214210E+01 +1.263450E+01 +3.273816E+02 
 +8.284236E+02 -6.732687E-01 -4.688382E+00 -6.732687E-01 +4.464811E+02 +2.485953E+01 -4.688382E+00 +2.485953E+01 +2.935094E+02 
 +8.313007E+02 -4.581555E+00 +1.713635E+00 -4.581555E+00 +4.450633E+02 +2.963334E+01 +1.713635E+00 +2.963334E+01 +2.870374E+02 
 +8.494351E+02 -7.471338E+00 +4.035533E+00 -7.471338E+00 +4.580890E+02 +3.118829E+01 +4.035533E+00 +3.118829E+01 +3.009812E+02 
 +8.521165E+02 -7.061604E+00 +4.665358E+00 -7.061604E+00 +4.704605E+02 +2.138045E+01 +4.665358E+00 +2.138045E+01 +3.062491E+02 
 +8.486442E+02 -1.047339E+01 -1.826826E+00 -1.047339E+01 +4.804520E+02 +1.089553E+01 -1.826826E+00 +1.089553E+01 +3.113392E+02 
 +8.382050E+02 -1.232893E+01 -6.169259E+00 -1.232893E+01 +4.807600E+02 +5.372086E+00 -6.169259E+00 +5.372086E+00 +3.012344E+02 
 +8.533223E+02 +2.592975E+00 -1.349492E+00 +2.592975E+00 +4.997470E+02 +3.055289E+00 -1.349492E+00 +3.055289E+00 +2.886536E+02 
 +8.623437E+02 +5.070680E+00 +3.695978E+00 +5.070680E+00 +5.136259E+02 +1.659249E+00 +3.695978E+00 +1.659249E+00 +2.869029E+02 
 +8.699391E+02 +5.914587E+00 +5.639569E+00 +5.914587E+00 +5.149170E+02 +1.436292E+00 +5.639569E+00 +1.436292E+00 +2.954648E+02 
 +8.757396E+02 +1.041905E+01 -1.698803E+00 +1.041905E+01 +5.167250E+02 +7.068932E+00 -1.698803E+00 +7.068932E+00 +3.029193E+02 
 +8.758660E+02 +1.300784E+01 -7.036582E+00 +1.300784E+01 +5.189440E+02 +1.506005E+01 -7.036582E+00 +1.506005E+01 +3.153096E+02 
 +8.773367E+02 +9.609892E+00 -1.143129E+01 +9.609892E+00 +5.203962E+02 +2.483115E+01 -1.143129E+01 +2.483115E+01 +3.371108E+02 
 +8.653950E+02 -4.953315E+00 -1.746253E+01 -4.953315E+00 +5.050709E+02 +2.265724E+01 -1.746253E+01 +2.265724E+01 +3.559708E+02 
 +8.671795E+02 -7.052703E+00 -1.494955E+01 -7.052703E+00 +4.975404E+02 +1.413131E+01 -1.494955E+01 +1.413131E+01 +3.805388E+02 
 +8.715971E+02 -1.191218E+01 -7.749347E+00 -1.191218E+01 +4.977706E+02 +1.006216E+01 -7.749347E+00 +1.006216E+01 +3.959707E+02 
 +8.654380E+02 -1.139275E+01 -3.352357E+00 -1.139275E+01 +4.868398E+02 +3.302715E+00 -3.352357E+00 +3.302715E+00 +4.001382E+02 
 +8.520341E+02 -6.507566E-01 -1.957981E+01 -6.507566E-01 +4.806564E+02 +5.304935E+00 -1.957981E+01 +5.304935E+00 +3.787150E+02 
 +8.483568E+02 -3.326739E+00 -2.902207E+01 -3.326739E+00 +4.687926E+02 +7.329278E+00 -2.902207E+01 +7.329278E+00 +3.713368E+02 
 +8.307784E+02 -2.096711E+00 -3.685595E+01 -2.096711E+00 +4.498460E+02 +6.624766E+00 -3.685595E+01 +6.624766E+00 +3.508005E+02 
 +8.455325E+02 -1.900614E-01 -1.170427E+01 -1.900614E-01 +4.537734E+02 -3.047775E-01 -1.170427E+01 -3.047775E-01 +3.491344E+02 
 +8.265011E+02 +6.991157E+00 -1.102793E+01 +6.991157E+00 +4.470271E+02 +5.161580E+00 -1.102793E+01 +5.161580E+00 +3.249896E+02 
 +8.160877E+02 +3.056152E+00 -4.166103E+00 +3.056152E+00 +4.448432E+02 +1.975323E+01 -4.166103E+00 +1.975323E+01 +2.977341E+02 
 +8.271970E+02 -4.486016E+00 +3.697439E+00 -4.486016E+00 +4.576385E+02 +2.790889E+01 +3.697439E+00 +2.790889E+01 +3.015989E+02 
 +8.472321E+02 -8.048711E+00 +3.246621E+00 -8.048711E+00 +4.710727E+02 +3.659372E+01 +3.246621E+00 +3.659372E+01 +3.073100E+02 
 +8.501042E+02 -5.649054E+00 +2.141661E+00 -5.649054E+00 +4.729074E+02 +3.392990E+01 +2.141661E+00 +3.392990E+01 +2.997250E+02 
 +8.426591E+02 -1.102963E+01 -6.958000E+00 -1.102963E+01 +4.747288E+02 +1.611152E+01 -6.958000E+00 +1.611152E+01 +3.017666E+02 
 +8.491441E+02 -1.131925E+01 -9.094312E+00 -1.131925E+01 +4.959076E+02 +6.311184E+00 -9.094312E+00 +6.311184E+00 +3.211028E+02 
 +8.672755E+02 +2.344514E+00 +9.570148E-02 +2.344514E+00 +5.133562E+02 +7.099601E+00 +9.570148E-02 +7.099601E+00 +3.276328E+02 
 +8.670679E+02 +2.023787E+00 +2.993305E+00 +2.023787E+00 +5.048869E+02 +5.733153E+00 +2.993305E+00 +5.733153E+00 +3.198445E+02 
 +8.705703E+02 +2.439360E+00 +6.233607E+00 +2.439360E+00 +5.022034E+02 +2.571631E+00 +6.233607E+00 +2.571631E+00 +3.158248E+02 
 +8.792004E+02 +8.838419E+00 +5.922316E+00 +8.838419E+00 +5.081367E+02 +4.109080E+00 +5.922316E+00 +4.109080E+00 +3.193015E+02 
 +8.882569E+02 +1.243775E+01 +6.650557E+00 +1.243775E+01 +5.238785E+02 +1.200540E+01 +6.650557E+00 +1.200540E+01 +3.340805E+02 
 +8.830323E+02 +3.540970E+00 -4.691061E-01 +3.540970E+00 +5.200516E+02 +2.244883E+01 -4.691061E-01 +2.244883E+01 +3.493735E+02 
 +8.630459E+02 -1.094388E+01 -1.834115E+01 -1.094388E+01 +4.981071E+02 +2.160897E+01 -1.834115E+01 +2.160897E+01 +3.616285E+02 
 +8.689406E+02 -8.239672E+00 -1.960824E+01 -8.239672E+00 +5.028902E+02 +1.653068E+01 -1.960824E+01 +1.653068E+01 +3.814175E+02 
 +8.760377E+02 -1.182549E+01 -1.428517E+01 -1.182549E+01 +5.145134E+02 +1.034928E+01 -1.428517E+01 +1.034928E+01 +3.954952E+02 
 +8.686022E+02 -1.382475E+01 -6.339424E+00 -1.382475E+01 +5.052972E+02 +3.826196E+00 -6.339424E+00 +3.826196E+00 +3.915240E+02 
 +8.596323E+02 -2.926235E+00 -7.790306E+00 -2.926235E+00 +4.863373E+02 +9.412785E+00 -7.790306E+00 +9.412785E+00 +3.777544E+02 
 +8.503196E+02 +1.514729E+00 -1.452047E+01 +1.514729E+00 +4.693907E+02 +1.223609E+01 -1.452047E+01 +1.223609E+01 +3.704784E+02 
 +8.367475E+02 +9.196904E-01 -2.169769E+01 +9.196904E-01 +4.543828E+02 +1.549951E+01 -2.169769E+01 +1.549951E+01 +3.600576E+02 
 +8.521562E+02 +2.584544E+00 -2.979043E+00 +2.584544E+00 +4.506546E+02 +1.124021E+01 -2.979043E+00 +1.124021E+01 +3.604327E+02 
 +8.452716E+02 +1.274763E+01 -1.007022E+01 +1.274763E+01 +4.520076E+02 +1.529501E+00 -1.007022E+01 +1.529501E+00 +3.475177E+02 
 +8.296802E+02 +1.316920E+01 -9.656013E+00 +1.316920E+01 +4.662691E+02 -1.298148E-01 -9.656013E+00 -1.298148E-01 +3.393786E+02 
 +8.335280E+02 +8.684505E+00 -5.196367E+00 +8.684505E+00 +4.863741E+02 +1.080511E+01 -5.196367E+00 +1.080511E+01 +3.428212E+02 
 +8.595069E+02 +9.217225E-01 -1.684042E+00 +9.217225E-01 +5.035764E+02 +2.745740E+01 -1.684042E+00 +2.745740E+01 +3.453263E+02 
 +8.582564E+02 +7.585215E-01 -4.564095E+00 +7.585215E-01 +4.926898E+02 +2.988520E+01 -4.564095E+00 +2.988520E+01 +3.358426E+02 
 +8.486488E+02 -3.555476E+00 -1.309421E+01 -3.555476E+00 +4.877638E+02 +2.139611E+01 -1.309421E+01 +2.139611E+01 +3.354992E+02 
 +8.630294E+02 -1.357025E+00 -1.071956E+01 -1.357025E+00 +5.118297E+02 +1.627934E+01 -1.071956E+01 +1.627934E+01 +3.585591E+02 
 +8.750615E+02 +6.394778E-01 -2.679525E+00 +6.394778E-01 +5.189855E+02 +1.628621E+01 -2.679525E+00 +1.628621E+01 +3.576327E+02 
 +8.719325E+02 -4.815884E-01 +5.268888E-01 -4.815884E-01 +5.044140E+02 +1.418203E+01 +5.268888E-01 +1.418203E+01 +3.431491E+02 
 +8.702246E+02 -1.166864E+00 +4.422851E+00 -1.166864E+00 +4.918514E+02 +9.792512E+00 +4.422851E+00 +9.792512E+00 +3.379375E+02 
 +8.761630E+02 +5.460378E+00 +9.440155E+00 +5.460378E+00 +4.886179E+02 +5.000996E+00 +9.440155E+00 +5.000996E+00 +3.496721E+02 
 +8.754929E+02 +4.885236E+00 +1.196986E+01 +4.885236E+00 +4.763910E+02 +2.661846E-02 +1.196986E+01 +2.661846E-02 +3.659070E+02 
 +8.643866E+02 -5.242858E+00 +6.358877E+00 -5.242858E+00 +4.637510E+02 +4.631214E+00 +6.358877E+00 +4.631214E+00 +3.696225E+02 
 +8.637561E+02 -1.349110E+01 -1.244914E+01 -1.349110E+01 +4.814408E+02 +1.525964E+01 -1.244914E+01 +1.525964E+01 +3.799647E+02 
 +8.677598E+02 -9.319650E+00 -1.539183E+01 -9.319650E+00 +4.972134E+02 +2.023868E+01 -1.539183E+01 +2.023868E+01 +3.848342E+02 
 +8.694413E+02 -1.103699E+01 -1.524994E+01 -1.103699E+01 +5.039239E+02 +1.606585E+01 -1.524994E+01 +1.606585E+01 +3.885239E+02 
 +8.793963E+02 -1.611054E+01 -6.153111E+00 -1.611054E+01 +5.124592E+02 +8.331712E+00 -6.153111E+00 +8.331712E+00 +3.937145E+02 
 +8.615611E+02 -1.644077E+01 +2.564555E+00 -1.644077E+01 +4.984659E+02 +1.237211E+01 +2.564555E+00 +1.237211E+01 +3.728819E+02 
 +8.652690E+02 -1.315877E+01 -5.547924E-02 -1.315877E+01 +4.934993E+02 +1.435212E+01 -5.547924E-02 +1.435212E+01 +3.774102E+02 
 +8.604980E+02 -1.468164E+01 -5.494367E+00 -1.468164E+01 +4.863920E+02 +1.574401E+01 -5.494367E+00 +1.574401E+01 +3.781350E+02 
 +8.694836E+02 -1.196902E+01 +2.285824E+00 -1.196902E+01 +4.949433E+02 +8.907532E+00 +2.285824E+00 +8.907532E+00 +3.829113E+02 
 +8.848705E+02 -1.718918E-01 -1.046393E+01 -1.718918E-01 +5.024600E+02 -2.506839E+00 -1.046393E+01 -2.506839E+00 +3.833801E+02 
 +8.688652E+02 +3.746585E+00 -1.654881E+01 +3.746585E+00 +4.911744E+02 -4.366351E+00 -1.654881E+01 -4.366351E+00 +3.708132E+02 
 +8.317348E+02 +7.273280E+00 -1.828681E+01 +7.273280E+00 +4.711668E+02 -1.684664E+00 -1.828681E+01 -1.684664E+00 +3.532520E+02 
 +8.579733E+02 +8.039571E+00 -1.302954E+01 +8.039571E+00 +4.945814E+02 +3.509494E+00 -1.302954E+01 +3.509494E+00 +3.769259E+02 
 +8.632115E+02 +9.444978E+00 -1.395075E+01 +9.444978E+00 +5.156814E+02 +1.310730E+01 -1.395075E+01 +1.310730E+01 +3.904748E+02 
 +8.700422E+02 +4.987829E+00 -1.621422E+01 +4.987829E+00 +5.333078E+02 +1.274589E+01 -1.621422E+01 +1.274589E+01 +4.028086E+02 
 +8.643447E+02 -7.521324E-01 -1.415957E+01 -7.521324E-01 +5.282765E+02 +6.474404E+00 -1.415957E+01 +6.474404E+00 +3.996153E+02 
 +8.859440E+02 -2.451867E+00 -1.900957E+00 -2.451867E+00 +5.294429E+02 +1.138422E+01 -1.900957E+00 +1.138422E+01 +3.764257E+02 
 +8.778281E+02 -3.848427E+00 -4.092363E-01 -3.848427E+00 +5.133112E+02 +1.905483E+01 -4.092363E-01 +1.905483E+01 +3.542294E+02 
 +8.696325E+02 -4.712700E+00 +5.481134E+00 -4.712700E+00 +4.934817E+02 +2.052727E+01 +5.481134E+00 +2.052727E+01 +3.475209E+02 
 +8.650768E+02 +7.909150E-01 +7.667328E+00 +7.909150E-01 +4.691728E+02 +1.392052E+01 +7.667328E+00 +1.392052E+01 +3.424104E+02 
 +8.586972E+02 -1.500634E-02 +7.667813E+00 -1.500634E-02 +4.504285E+02 +3.281510E+00 +7.667813E+00 +3.281510E+00 +3.589855E+02 
 +8.654610E+02 -3.742797E+00 +6.670254E+00 -3.742797E+00 +4.559083E+02 +4.812250E+00 +6.670254E+00 +4.812250E+00 +3.766382E+02 
 +8.638385E+02 -9.241971E+00 -8.523290E+00 -9.241971E+00 +4.652124E+02 +1.266547E+01 -8.523290E+00 +1.266547E+01 +3.756251E+02 
 +8.679962E+02 -6.490759E+00 -8.969008E+00 -6.490759E+00 +4.882102E+02 +2.085380E+01 -8.969008E+00 +2.085380E+01 +3.831567E+02 
 +8.722280E+02 -9.594767E+00 -1.314174E+01 -9.594767E+00 +5.020261E+02 +2.074477E+01 -1.314174E+01 +2.074477E+01 +3.814608E+02 
 +8.740082E+02 -1.707427E+01 -4.094385E+00 -1.707427E+01 +5.035503E+02 +1.372803E+01 -4.094385E+00 +1.372803E+01 +3.743067E+02 
 +8.554544E+02 -1.364428E+01 +6.007311E+00 -1.364428E+01 +4.973262E+02 +1.084746E+01 +6.007311E+00 +1.084746E+01 +3.707807E+02 
 +8.630314E+02 -1.089013E+01 +6.690820E+00 -1.089013E+01 +4.956019E+02 +1.543589E+01 +6.690820E+00 +1.543589E+01 +3.738107E+02 
 +8.678436E+02 -9.892611E+00 -1.860971E+00 -9.892611E+00 +4.987976E+02 +1.639031E+01 -1.860971E+00 +1.639031E+01 +3.813300E+02 
 +8.663917E+02 -7.571070E+00 -9.392207E-01 -7.571070E+00 +5.041538E+02 +4.863923E+00 -9.392207E-01 +4.863923E+00 +3.823910E+02 
 +8.933551E+02 +2.861771E+00 -5.583680E+00 +2.861771E+00 +5.112543E+02 -1.289136E+01 -5.583680E+00 -1.289136E+01 +3.644238E+02 
 +8.948149E+02 +7.682787E+00 -1.076645E+01 +7.682787E+00 +5.028777E+02 -1.463172E+01 -1.076645E+01 -1.463172E+01 +3.524275E+02 
 +8.540474E+02 +6.598690E+00 -2.087538E+01 +6.598690E+00 +4.868187E+02 -1.786442E+00 -2.087538E+01 -1.786442E+00 +3.626313E+02 
 +8.656701E+02 +4.586359E+00 -2.004847E+01 +4.586359E+00 +5.119237E+02 +7.054976E+00 -2.004847E+01 +7.054976E+00 +3.976980E+02 
 +8.655290E+02 +5.908558E+00 -1.933107E+01 +5.908558E+00 +5.258381E+02 +1.258598E+01 -1.933107E+01 +1.258598E+01 +4.102615E+02 
 +8.688817E+02 +7.379640E+00 -1.891814E+01 +7.379640E+00 +5.405527E+02 +1.205751E+01 -1.891814E+01 +1.205751E+01 +4.249058E+02 
 +8.665859E+02 +6.040308E+00 -1.673224E+01 +6.040308E+00 +5.474459E+02 +7.434672E+00 -1.673224E+01 +7.434672E+00 +4.218560E+02 
 +8.948260E+02 +4.232473E-01 -4.190432E+00 +4.232473E-01 +5.476253E+02 +1.111364E+01 -4.190432E+00 +1.111364E+01 +4.065698E+02 
 +8.896250E+02 -4.108482E+00 -1.331133E+00 -4.108482E+00 +5.226063E+02 +2.036698E+01 -1.331133E+00 +2.036698E+01 +3.740561E+02 
 +8.816840E+02 -1.163028E+00 +6.919601E+00 -1.163028E+00 +5.048939E+02 +2.309735E+01 +6.919601E+00 +2.309735E+01 +3.542213E+02 
 +8.515633E+02 -1.233782E+00 +4.693140E+00 -1.233782E+00 +4.706559E+02 +1.355683E+01 +4.693140E+00 +1.355683E+01 +3.381142E+02 
 +8.382559E+02 -4.847285E+00 +8.401460E-01 -4.847285E+00 +4.460020E+02 +2.655706E+00 +8.401460E-01 +2.655706E+00 +3.315691E+02 
 +8.688131E+02 -3.943184E+00 +4.593674E+00 -3.943184E+00 +4.562005E+02 +2.611180E+00 +4.593674E+00 +2.611180E+00 +3.484782E+02 
 +8.602850E+02 -3.813651E+00 -4.436497E+00 -3.813651E+00 +4.606632E+02 +7.539872E+00 -4.436497E+00 +7.539872E+00 +3.501465E+02 
 +8.657265E+02 -9.028099E-01 -3.611844E+00 -9.028099E-01 +4.773793E+02 +1.208229E+01 -3.611844E+00 +1.208229E+01 +3.523753E+02 
 +8.732217E+02 -5.933312E+00 -3.744638E+00 -5.933312E+00 +4.935240E+02 +1.117120E+01 -3.744638E+00 +1.117120E+01 +3.500179E+02 
 +8.568596E+02 -1.467124E+01 +6.653054E+00 -1.467124E+01 +4.953344E+02 +9.966830E+00 +6.653054E+00 +9.966830E+00 +3.517567E+02 
 +8.516473E+02 -1.455290E+01 +8.895704E+00 -1.455290E+01 +4.862979E+02 +1.394201E+01 +8.895704E+00 +1.394201E+01 +3.654108E+02 
 +8.598133E+02 -1.262209E+01 +4.295063E+00 -1.262209E+01 +4.937587E+02 +1.518897E+01 +4.295063E+00 +1.518897E+01 +3.743108E+02 
 +8.661606E+02 -7.394996E+00 -3.845984E+00 -7.394996E+00 +5.005837E+02 +1.319937E+01 -3.845984E+00 +1.319937E+01 +3.882694E+02 
 +8.677819E+02 -2.794381E+00 -3.421085E+00 -2.794381E+00 +5.052351E+02 +3.350335E+00 -3.421085E+00 +3.350335E+00 +3.794240E+02 
 +9.053562E+02 +4.761846E+00 -5.423552E+00 +4.761846E+00 +5.228873E+02 -1.164058E+01 -5.423552E+00 -1.164058E+01 +3.530190E+02 
 +8.979735E+02 +7.872851E-01 -1.149684E+01 +7.872851E-01 +5.166426E+02 -1.621619E+01 -1.149684E+01 -1.621619E+01 +3.542415E+02 
 +8.722398E+02 -3.259425E+00 -1.574018E+01 -3.259425E+00 +5.078984E+02 -4.740082E+00 -1.574018E+01 -4.740082E+00 +3.874326E+02 
 +8.678723E+02 +2.848535E+00 -1.897931E+01 +2.848535E+00 +5.179249E+02 +1.236651E+00 -1.897931E+01 +1.236651E+00 +4.062284E+02 
 +8.668720E+02 +2.236829E+00 -2.195320E+01 +2.236829E+00 +5.326591E+02 +1.010874E+00 -2.195320E+01 +1.010874E+00 +4.208320E+02 
 +8.777413E+02 +2.237361E+00 -1.659654E+01 +2.237361E+00 +5.447217E+02 +9.031607E+00 -1.659654E+01 +9.031607E+00 +4.336863E+02 
 +8.751368E+02 +2.526546E+00 -1.089704E+01 +2.526546E+00 +5.392467E+02 +1.569341E+01 -1.089704E+01 +1.569341E+01 +4.231201E+02 
 +8.836423E+02 -5.876529E-01 -1.052868E+01 -5.876529E-01 +5.331282E+02 +1.464496E+01 -1.052868E+01 +1.464496E+01 +4.154661E+02 
 +8.970296E+02 +2.254364E+00 -6.689711E+00 +2.254364E+00 +5.246355E+02 +1.243146E+01 -6.689711E+00 +1.243146E+01 +3.884357E+02 
 +8.983849E+02 +2.048890E+00 +5.514782E-01 +2.048890E+00 +5.216566E+02 +9.119688E+00 +5.514782E-01 +9.119688E+00 +3.737482E+02 
 +8.609453E+02 +1.818776E+00 -1.934336E+00 +1.818776E+00 +5.115107E+02 +1.444527E+00 -1.934336E+00 +1.444527E+00 +3.739719E+02 
 +8.479676E+02 -2.441899E+00 +5.388160E+00 -2.441899E+00 +4.926452E+02 +6.862771E+00 +5.388160E+00 +6.862771E+00 +3.547840E+02 
 +8.580388E+02 -8.048890E+00 +5.710277E+00 -8.048890E+00 +4.679754E+02 +2.083651E+01 +5.710277E+00 +2.083651E+01 +3.309392E+02 
 +8.692297E+02 -5.499791E+00 +4.240933E-01 -5.499791E+00 +4.665455E+02 +2.485236E+01 +4.240933E-01 +2.485236E+01 +3.287476E+02 
 +8.708842E+02 -1.970824E+00 +2.324244E+00 -1.970824E+00 +4.769216E+02 +3.212625E+01 +2.324244E+00 +3.212625E+01 +3.314793E+02 
 +8.794541E+02 -7.612284E+00 -3.091666E+00 -7.612284E+00 +4.892054E+02 +3.393132E+01 -3.091666E+00 +3.393132E+01 +3.355249E+02 
 +8.432609E+02 -1.801979E+01 +9.820843E+00 -1.801979E+01 +4.748510E+02 +1.968072E+01 +9.820843E+00 +1.968072E+01 +3.378112E+02 
 +8.389421E+02 -1.882852E+01 +1.212363E+01 -1.882852E+01 +4.718146E+02 +1.550861E+01 +1.212363E+01 +1.550861E+01 +3.433722E+02 
 +8.540787E+02 -1.744477E+01 -1.493400E+00 -1.744477E+01 +4.838382E+02 +2.252253E+01 -1.493400E+00 +2.252253E+01 +3.599093E+02 
 +8.628746E+02 -1.036184E+01 -8.312457E+00 -1.036184E+01 +4.997451E+02 +1.919665E+01 -8.312457E+00 +1.919665E+01 +3.884256E+02 
 +8.695650E+02 -8.439456E+00 -3.359418E+00 -8.439456E+00 +5.047285E+02 +7.299721E+00 -3.359418E+00 +7.299721E+00 +3.860786E+02 
 +9.295897E+02 -7.509053E-01 -9.037271E+00 -7.509053E-01 +5.404550E+02 +4.685705E-01 -9.037271E+00 +4.685705E-01 +3.954676E+02 
 +9.072828E+02 -3.628564E+00 -2.069179E+01 -3.628564E+00 +5.344477E+02 +2.607091E+00 -2.069179E+01 +2.607091E+00 +4.040651E+02 
 +8.802776E+02 -2.721118E+00 -1.809982E+01 -2.721118E+00 +5.179634E+02 +5.400200E+00 -1.809982E+01 +5.400200E+00 +4.104105E+02 
 +8.665140E+02 +3.256875E+00 -1.448588E+01 +3.256875E+00 +5.162293E+02 +6.556306E-01 -1.448588E+01 +6.556306E-01 +4.075830E+02 
 +8.579629E+02 -8.179258E-01 -1.347536E+01 -8.179258E-01 +5.148827E+02 +7.158743E+00 -1.347536E+01 +7.158743E+00 +4.087014E+02 
 +8.613113E+02 -1.667112E-01 -9.745073E+00 -1.667112E-01 +4.983374E+02 +2.481007E+01 -9.745073E+00 +2.481007E+01 +4.059743E+02 
 +8.596529E+02 +2.094291E+00 -5.954331E+00 +2.094291E+00 +4.795600E+02 +2.957812E+01 -5.954331E+00 +2.957812E+01 +4.016475E+02 
 +8.629313E+02 -3.295053E-01 -8.983433E+00 -3.295053E-01 +4.823453E+02 +3.057030E+01 -8.983433E+00 +3.057030E+01 +3.869439E+02 
 +8.712193E+02 +2.329795E+00 -1.009604E+01 +2.329795E+00 +4.947818E+02 +3.354495E+01 -1.009604E+01 +3.354495E+01 +3.514934E+02 
 +8.757980E+02 -5.578959E-01 -6.052316E+00 -5.578959E-01 +5.085610E+02 +3.867579E+01 -6.052316E+00 +3.867579E+01 +3.467906E+02 
 +8.568505E+02 -3.496102E-01 +4.220264E-01 -3.496102E-01 +5.020714E+02 +4.459682E+01 +4.220264E-01 +4.459682E+01 +3.449655E+02 
 +8.472701E+02 -1.435431E+00 +1.019050E+01 -1.435431E+00 +4.920441E+02 +3.666901E+01 +1.019050E+01 +3.666901E+01 +3.391550E+02 
 +8.268932E+02 +2.375369E+00 +9.014583E+00 +2.375369E+00 +4.680913E+02 +2.044950E+01 +9.014583E+00 +2.044950E+01 +3.247611E+02 
 +8.582712E+02 +3.167082E+00 +2.756560E+00 +3.167082E+00 +4.559491E+02 +7.853758E+00 +2.756560E+00 +7.853758E+00 +3.192721E+02 
 +8.597700E+02 +6.847614E+00 -2.310558E+00 +6.847614E+00 +4.444248E+02 -8.905762E+00 -2.310558E+00 -8.905762E+00 +3.228002E+02 
 +8.716369E+02 +1.172830E-01 -6.886326E+00 +1.172830E-01 +4.655193E+02 -8.414924E+00 -6.886326E+00 -8.414924E+00 +3.388006E+02 
 +8.319825E+02 -1.624136E+01 +1.209155E+01 -1.624136E+01 +4.596032E+02 +4.672497E+00 +1.209155E+01 +4.672497E+00 +3.309003E+02 
 +8.416360E+02 -2.063089E+01 +8.533676E+00 -2.063089E+01 +4.736094E+02 +1.509026E+01 +8.533676E+00 +1.509026E+01 +3.411694E+02 
 +8.340843E+02 -2.084732E+01 -1.138419E+00 -2.084732E+01 +4.747584E+02 +1.784301E+01 -1.138419E+00 +1.784301E+01 +3.390800E+02 
 +8.489695E+02 -1.764772E+01 -6.676378E+00 -1.764772E+01 +4.835484E+02 +2.159323E+01 -6.676378E+00 +2.159323E+01 +3.415200E+02 
 +8.610265E+02 -1.335749E+01 -5.220369E+00 -1.335749E+01 +4.796671E+02 +2.042273E+01 -5.220369E+00 +2.042273E+01 +3.505569E+02 
 +8.953906E+02 -1.972442E+00 -1.284439E+01 -1.972442E+00 +4.759965E+02 +1.776278E+01 -1.284439E+01 +1.776278E+01 +3.757516E+02 
 +8.724744E+02 -1.394230E+00 -2.041268E+01 -1.394230E+00 +4.646767E+02 +1.794516E+01 -2.041268E+01 +1.794516E+01 +3.716778E+02 
 +8.596814E+02 +2.085722E+00 -2.233156E+01 +2.085722E+00 +4.932065E+02 +1.912272E+01 -2.233156E+01 +1.912272E+01 +3.839104E+02 
 +8.463185E+02 +3.908576E+00 -2.066863E+01 +3.908576E+00 +4.955554E+02 +1.397411E+01 -2.066863E+01 +1.397411E+01 +3.922633E+02 
 +8.643419E+02 +1.951021E+00 -6.214227E+00 +1.951021E+00 +4.926671E+02 +1.633489E+01 -6.214227E+00 +1.633489E+01 +3.886608E+02 
 +8.626925E+02 -1.484862E-01 -2.857327E+00 -1.484862E-01 +4.880505E+02 +2.332927E+01 -2.857327E+00 +2.332927E+01 +3.856183E+02 
 +8.699520E+02 +1.437683E+00 -4.456140E+00 +1.437683E+00 +4.907808E+02 +2.443923E+01 -4.456140E+00 +2.443923E+01 +4.057303E+02 
 +8.646628E+02 -3.643812E-01 -7.132274E+00 -3.643812E-01 +4.863650E+02 +3.091172E+01 -7.132274E+00 +3.091172E+01 +3.854775E+02 
 +8.640389E+02 +1.127822E+00 -1.323377E+01 +1.127822E+00 +4.876886E+02 +4.003714E+01 -1.323377E+01 +4.003714E+01 +3.440265E+02 
 +8.610780E+02 +2.969239E+00 -1.100135E+01 +2.969239E+00 +4.909389E+02 +4.366993E+01 -1.100135E+01 +4.366993E+01 +3.375584E+02 
 +8.616620E+02 +2.996904E+00 +3.489228E+00 +2.996904E+00 +4.931589E+02 +3.907015E+01 +3.489228E+00 +3.907015E+01 +3.351163E+02 
 +8.478737E+02 -4.381235E+00 +7.681643E+00 -4.381235E+00 +4.854484E+02 +4.091924E+01 +7.681643E+00 +4.091924E+01 +3.183906E+02 
 +8.224620E+02 -3.987280E+00 +1.143272E+01 -3.987280E+00 +4.662714E+02 +4.113186E+01 +1.143272E+01 +4.113186E+01 +3.093295E+02 
 +8.314784E+02 -2.097262E-01 +5.917447E+00 -2.097262E-01 +4.562252E+02 +1.525683E+01 +5.917447E+00 +1.525683E+01 +3.095591E+02 
 +8.382082E+02 +1.701396E+00 -4.027818E-01 +1.701396E+00 +4.398375E+02 -1.438368E+01 -4.027818E-01 -1.438368E+01 +3.097571E+02 
 +8.421399E+02 -1.029006E+01 +4.170090E-01 -1.029006E+01 +4.328497E+02 -9.024480E+00 +4.170090E-01 -9.024480E+00 +3.155108E+02 
 +8.289861E+02 -1.915045E+01 +1.603466E+01 -1.915045E+01 +4.455653E+02 +7.325958E+00 +1.603466E+01 +7.325958E+00 +3.223209E+02 
 +8.427728E+02 -1.465719E+01 -2.209198E+00 -1.465719E+01 +4.762839E+02 +1.715754E+01 -2.209198E+00 +1.715754E+01 +3.577148E+02 
 +8.534243E+02 -1.721592E+01 -1.696318E+00 -1.721592E+01 +5.049940E+02 +2.104390E+01 -1.696318E+00 +2.104390E+01 +3.656148E+02 
 +8.665588E+02 -9.024986E+00 -4.444201E+00 -9.024986E+00 +4.916553E+02 +1.581558E+01 -4.444201E+00 +1.581558E+01 +3.268393E+02 
 +8.753052E+02 -1.030682E+00 -9.491019E+00 -1.030682E+00 +4.863011E+02 +5.283937E+00 -9.491019E+00 +5.283937E+00 +3.157420E+02 
 +8.883893E+02 +2.736016E+00 -1.803512E+01 +2.736016E+00 +5.071554E+02 -1.186466E+00 -1.803512E+01 -1.186466E+00 +3.425170E+02 
 +8.813057E+02 +6.172740E+00 -1.971835E+01 +6.172740E+00 +5.063165E+02 -4.283519E+00 -1.971835E+01 -4.283519E+00 +3.480913E+02 
 +8.638126E+02 +8.733055E+00 -1.855691E+01 +8.733055E+00 +4.986618E+02 -4.970398E+00 -1.855691E+01 -4.970398E+00 +3.640771E+02 
 +8.438675E+02 +4.039819E+00 -1.905538E+01 +4.039819E+00 +4.872686E+02 +5.838324E+00 -1.905538E+01 +5.838324E+00 +3.912033E+02 
 +8.756124E+02 +2.236132E-01 -6.237660E+00 +2.236132E-01 +4.874311E+02 +2.279291E+01 -6.237660E+00 +2.279291E+01 +4.042476E+02 
 +8.650589E+02 -2.279332E+00 -1.333674E+00 -2.279332E+00 +4.729187E+02 +2.626674E+01 -1.333674E+00 +2.626674E+01 +3.933828E+02 
 +8.648710E+02 +1.801671E-02 -3.233474E+00 +1.801671E-02 +4.811615E+02 +2.097266E+01 -3.233474E+00 +2.097266E+01 +4.053850E+02 
 +8.619230E+02 +5.136209E+00 -1.204918E+01 +5.136209E+00 +4.827584E+02 +2.103803E+01 -1.204918E+01 +2.103803E+01 +3.898995E+02 
 +8.756982E+02 +9.892360E+00 -1.470847E+01 +9.892360E+00 +4.960987E+02 +2.580321E+01 -1.470847E+01 +2.580321E+01 +3.666212E+02 
 +8.782630E+02 +7.713941E+00 -1.168743E+01 +7.713941E+00 +5.066388E+02 +3.076694E+01 -1.168743E+01 +3.076694E+01 +3.623570E+02 
 +8.742147E+02 +3.631749E+00 -1.140623E+00 +3.631749E+00 +5.047253E+02 +3.117523E+01 -1.140623E+00 +3.117523E+01 +3.589807E+02 
 +8.622946E+02 +3.874439E-01 +5.274669E+00 +3.874439E-01 +4.976942E+02 +3.542728E+01 +5.274669E+00 +3.542728E+01 +3.437138E+02 
 +8.421544E+02 -5.149134E+00 +1.219327E+01 -5.149134E+00 +4.879756E+02 +3.843539E+01 +1.219327E+01 +3.843539E+01 +3.347009E+02 
 +8.325649E+02 -3.287203E+00 +2.031604E+01 -3.287203E+00 +4.807948E+02 +2.761194E+01 +2.031604E+01 +2.761194E+01 +3.378769E+02 
 +8.337369E+02 +2.224642E+00 +1.896769E+01 +2.224642E+00 +4.699597E+02 +1.254682E+01 +1.896769E+01 +1.254682E+01 +3.353330E+02 
 +8.376695E+02 +1.259427E+00 +6.061921E+00 +1.259427E+00 +4.497302E+02 +1.331265E+01 +6.061921E+00 +1.331265E+01 +3.252839E+02 
 +8.297556E+02 -3.886726E+00 +1.907905E+00 -3.886726E+00 +4.389486E+02 +1.702121E+01 +1.907905E+00 +1.702121E+01 +3.237294E+02 
 +8.304128E+02 +4.751624E+00 -5.413800E+00 +4.751624E+00 +4.626639E+02 +2.056259E+01 -5.413800E+00 +2.056259E+01 +3.703496E+02 
 +8.726877E+02 -3.326599E+00 -2.284718E+00 -3.326599E+00 +4.867256E+02 +1.738888E+01 -2.284718E+00 +1.738888E+01 +3.800121E+02 
 +8.758018E+02 -2.490899E+00 -4.631689E+00 -2.490899E+00 +4.868379E+02 +1.078526E+01 -4.631689E+00 +1.078526E+01 +3.456597E+02 
 +8.828040E+02 +2.211261E-01 -1.211109E+01 +2.211261E-01 +4.979208E+02 -1.285560E+00 -1.211109E+01 -1.285560E+00 +3.379305E+02 
 +8.808994E+02 +4.949476E+00 -1.879766E+01 +4.949476E+00 +5.084925E+02 -9.561054E+00 -1.879766E+01 -9.561054E+00 +3.491982E+02 
 +8.811946E+02 +1.023107E+01 -2.122948E+01 +1.023107E+01 +5.184626E+02 -1.239955E+01 -2.122948E+01 -1.239955E+01 +3.659760E+02 
 +8.767480E+02 +1.147013E+01 -1.287084E+01 +1.147013E+01 +5.138810E+02 -1.565718E+01 -1.287084E+01 -1.565718E+01 +3.812105E+02 
 +8.690546E+02 +4.058318E+00 -2.378457E+00 +4.058318E+00 +5.051489E+02 -7.630690E+00 -2.378457E+00 -7.630690E+00 +3.980275E+02 
 +8.727951E+02 -2.863916E+00 -1.172178E+00 -2.863916E+00 +4.942188E+02 +1.223327E+01 -1.172178E+00 +1.223327E+01 +4.179929E+02 
 +8.647177E+02 -2.559385E+00 -3.507181E+00 -2.559385E+00 +4.714077E+02 +1.895331E+01 -3.507181E+00 +1.895331E+01 +4.093690E+02 
 +8.633757E+02 -7.555553E-01 -6.402287E+00 -7.555553E-01 +4.692133E+02 +1.528245E+01 -6.402287E+00 +1.528245E+01 +4.000119E+02 
 +8.723143E+02 +7.381799E+00 -1.305860E+01 +7.381799E+00 +4.849755E+02 +1.739184E+01 -1.305860E+01 +1.739184E+01 +3.958616E+02 
 +8.863044E+02 +1.460437E+01 -9.701036E+00 +1.460437E+01 +5.039303E+02 +2.504811E+01 -9.701036E+00 +2.504811E+01 +3.798175E+02 
 +8.922554E+02 +1.247881E+01 -6.573454E+00 +1.247881E+01 +5.178022E+02 +3.185845E+01 -6.573454E+00 +3.185845E+01 +3.726473E+02 
 +8.917151E+02 +8.085910E+00 -3.586749E-01 +8.085910E+00 +5.240628E+02 +2.935994E+01 -3.586749E-01 +2.935994E+01 +3.830604E+02 
 +8.778876E+02 +3.562823E+00 +3.119220E+00 +3.562823E+00 +5.153788E+02 +3.018813E+01 +3.119220E+00 +3.018813E+01 +3.827754E+02 
 +8.630869E+02 -3.964881E+00 +9.139470E+00 -3.964881E+00 +5.106765E+02 +2.723358E+01 +9.139470E+00 +2.723358E+01 +3.857796E+02 
 +8.391728E+02 -2.566174E+00 +3.062523E+01 -2.566174E+00 +4.945313E+02 +1.317175E+01 +3.062523E+01 +1.317175E+01 +3.827933E+02 
 +8.295063E+02 -8.329021E-01 +2.460370E+01 -8.329021E-01 +4.687991E+02 +5.213463E+00 +2.460370E+01 +5.213463E+00 +3.622563E+02 
 +8.392225E+02 +1.355172E+00 +6.058972E+00 +1.355172E+00 +4.617869E+02 +4.934642E+00 +6.058972E+00 +4.934642E+00 +3.573197E+02 
 +8.379472E+02 +4.137289E+00 -4.401909E+00 +4.137289E+00 +4.608107E+02 +1.199355E+01 -4.401909E+00 +1.199355E+01 +3.610340E+02 
 +8.600875E+02 +5.842695E+00 -1.979259E+00 +5.842695E+00 +4.893260E+02 +2.412764E+01 -1.979259E+00 +2.412764E+01 +3.991795E+02 
 +8.810897E+02 -4.713978E+00 -1.935731E+00 -4.713978E+00 +4.893516E+02 +1.367936E+01 -1.935731E+00 +1.367936E+01 +3.898128E+02 
 +8.770467E+02 -3.201695E+00 -1.450699E+00 -3.201695E+00 +4.885720E+02 +7.945138E+00 -1.450699E+00 +7.945138E+00 +3.634560E+02 
 +8.818717E+02 +2.573164E-01 -9.031416E+00 +2.573164E-01 +5.007504E+02 +1.635304E+00 -9.031416E+00 +1.635304E+00 +3.671457E+02 
 +8.807055E+02 +6.330826E+00 -1.419528E+01 +6.330826E+00 +5.037002E+02 -5.395549E+00 -1.419528E+01 -5.395549E+00 +3.751184E+02 
 +8.773990E+02 +8.740529E+00 -1.518648E+01 +8.740529E+00 +5.069710E+02 -7.867821E+00 -1.518648E+01 -7.867821E+00 +3.801062E+02 
 +8.741135E+02 +9.206547E+00 -8.340365E+00 +9.206547E+00 +5.067855E+02 -9.874001E+00 -8.340365E+00 -9.874001E+00 +3.809069E+02 
 +8.787622E+02 +1.908101E+00 +5.258491E-01 +1.908101E+00 +5.077428E+02 -3.635456E+00 +5.258491E-01 -3.635456E+00 +3.863789E+02 
 +8.801290E+02 -7.358197E+00 +4.340556E-01 -7.358197E+00 +5.206785E+02 +1.112177E+01 +4.340556E-01 +1.112177E+01 +4.127345E+02 
 +8.815699E+02 -5.463158E+00 -2.959225E+00 -5.463158E+00 +5.190232E+02 +1.859291E+01 -2.959225E+00 +1.859291E+01 +4.197260E+02 
 +8.809073E+02 +1.164669E+00 -4.897315E+00 +1.164669E+00 +4.971422E+02 +2.153279E+01 -4.897315E+00 +2.153279E+01 +4.021575E+02 
 +8.769171E+02 +8.738066E+00 -3.765837E+00 +8.738066E+00 +4.842810E+02 +2.460009E+01 -3.765837E+00 +2.460009E+01 +3.938943E+02 
 +8.742140E+02 +1.091113E+01 -4.054815E+00 +1.091113E+01 +4.694002E+02 +2.954643E+01 -4.054815E+00 +2.954643E+01 +3.832224E+02 
 +8.765143E+02 +1.094435E+01 -7.584970E+00 +1.094435E+01 +4.660495E+02 +3.461905E+01 -7.584970E+00 +3.461905E+01 +3.776468E+02 
 +8.834191E+02 +4.863197E+00 -5.259421E+00 +4.863197E+00 +4.935839E+02 +2.454779E+01 -5.259421E+00 +2.454779E+01 +3.956672E+02 
 +8.679195E+02 -4.127694E+00 +3.662366E+00 -4.127694E+00 +5.017957E+02 +1.940121E+00 +3.662366E+00 +1.940121E+00 +4.020514E+02 
 +8.644118E+02 -9.601227E+00 +8.162759E+00 -9.601227E+00 +5.030591E+02 -1.399914E+01 +8.162759E+00 -1.399914E+01 +4.093521E+02 
 +8.463636E+02 -1.259671E+01 +2.085666E+01 -1.259671E+01 +4.916626E+02 -2.013863E+01 +2.085666E+01 -2.013863E+01 +4.128125E+02 
 +8.411174E+02 -3.625331E+00 +1.805455E+01 -3.625331E+00 +4.853712E+02 -9.646220E+00 +1.805455E+01 -9.646220E+00 +4.070285E+02 
 +8.446863E+02 -1.466451E+00 +7.184633E+00 -1.466451E+00 +4.790688E+02 +8.045978E+00 +7.184633E+00 +8.045978E+00 +3.974028E+02 
 +8.497168E+02 +6.324035E+00 +1.466160E+00 +6.324035E+00 +4.819746E+02 +2.059514E+01 +1.466160E+00 +2.059514E+01 +3.945749E+02 
 +8.547688E+02 -3.992475E+00 -3.575918E+00 -3.992475E+00 +4.635702E+02 +2.582132E+00 -3.575918E+00 +2.582132E+00 +4.060268E+02 
 +8.733329E+02 -1.040827E+01 +3.578045E-01 -1.040827E+01 +4.715889E+02 -1.270809E+00 +3.578045E-01 -1.270809E+00 +4.027325E+02 
 +8.700894E+02 -3.718838E+00 +4.296079E+00 -3.718838E+00 +4.693499E+02 -2.828694E+00 +4.296079E+00 -2.828694E+00 +3.770674E+02 
 +8.738953E+02 +2.248201E+00 -2.887815E-01 +2.248201E+00 +4.863051E+02 -4.003896E+00 -2.887815E-01 -4.003896E+00 +3.681451E+02 
 +8.756819E+02 +3.712798E+00 -8.378111E+00 +3.712798E+00 +5.029197E+02 -5.503805E+00 -8.378111E+00 -5.503805E+00 +3.706989E+02 
 +8.729923E+02 +9.883506E+00 -6.715149E+00 +9.883506E+00 +5.006417E+02 -1.057513E+01 -6.715149E+00 -1.057513E+01 +3.686364E+02 
 +8.721250E+02 +6.858385E+00 -4.558520E+00 +6.858385E+00 +4.985108E+02 -1.638485E+01 -4.558520E+00 -1.638485E+01 +3.657132E+02 
 +8.728380E+02 +5.606074E-01 -4.007145E+00 +5.606074E-01 +4.998627E+02 -5.606961E+00 -4.007145E+00 -5.606961E+00 +3.754155E+02 
 +8.713444E+02 -5.740892E+00 -6.282250E+00 -5.740892E+00 +5.025061E+02 +1.310873E+01 -6.282250E+00 +1.310873E+01 +3.874326E+02 
 +8.713727E+02 -7.708849E+00 -4.598575E+00 -7.708849E+00 +5.014141E+02 +1.878061E+01 -4.598575E+00 +1.878061E+01 +3.891151E+02 
 +8.765900E+02 -2.495875E-01 +3.867386E+00 -2.495875E-01 +4.968267E+02 +2.021591E+01 +3.867386E+00 +2.021591E+01 +3.944308E+02 
 +8.748512E+02 +8.243889E+00 +6.638331E+00 +8.243889E+00 +4.824747E+02 +2.013450E+01 +6.638331E+00 +2.013450E+01 +3.913822E+02 
 +8.738791E+02 +7.824941E+00 +3.045742E-01 +7.824941E+00 +4.711128E+02 +2.040795E+01 +3.045742E-01 +2.040795E+01 +3.881526E+02 
 +8.708467E+02 +9.912168E+00 -9.298716E+00 +9.912168E+00 +4.628934E+02 +2.821745E+01 -9.298716E+00 +2.821745E+01 +3.823296E+02 
 +8.662108E+02 +6.719396E+00 -1.300058E+01 +6.719396E+00 +4.635815E+02 +2.901197E+01 -1.300058E+01 +2.901197E+01 +3.776666E+02 
 +8.589834E+02 -4.373543E+00 -2.038727E+00 -4.373543E+00 +4.769135E+02 +8.529071E+00 -2.038727E+00 +8.529071E+00 +3.911742E+02 
 +8.627797E+02 -6.672126E+00 +3.185034E+00 -6.672126E+00 +4.896803E+02 -1.382574E+01 +3.185034E+00 -1.382574E+01 +4.094305E+02 
 +8.646082E+02 -6.416621E+00 +8.982272E+00 -6.416621E+00 +4.961386E+02 -1.602497E+01 +8.982272E+00 -1.602497E+01 +4.199286E+02 
 +8.460522E+02 +3.667492E+00 +1.044672E+01 +3.667492E+00 +4.928656E+02 +3.766475E-01 +1.044672E+01 +3.766475E-01 +4.196915E+02 
 +8.463351E+02 +3.780720E+00 +4.513639E+00 +3.780720E+00 +5.020503E+02 +1.157069E+01 +4.513639E+00 +1.157069E+01 +4.187526E+02 
 +8.354207E+02 +4.723740E+00 -2.152349E+00 +4.723740E+00 +4.794820E+02 +1.061226E+01 -2.152349E+00 +1.061226E+01 +4.039080E+02 
 +8.771444E+02 +4.040951E+00 -6.345976E+00 +4.040951E+00 +5.256359E+02 +1.862284E+01 -6.345976E+00 +1.862284E+01 +4.330453E+02 
 +8.957801E+02 -4.384074E+00 +1.939508E+00 -4.384074E+00 +5.132810E+02 +2.080433E+00 +1.939508E+00 +2.080433E+00 +4.279455E+02 
 +8.837109E+02 +2.006602E+00 +1.493547E+01 +2.006602E+00 +5.017305E+02 -1.553304E+00 +1.493547E+01 -1.553304E+00 +3.898538E+02 
 +8.769610E+02 +7.742916E+00 +7.762915E+00 +7.742916E+00 +5.010072E+02 -2.210391E+00 +7.762915E+00 -2.210391E+00 +3.651157E+02 
 +8.714118E+02 +4.683287E+00 -4.788725E+00 +4.683287E+00 +4.992163E+02 -6.412390E+00 -4.788725E+00 -6.412390E+00 +3.571016E+02 
 +8.711064E+02 +7.636702E+00 -1.870644E+00 +7.636702E+00 +4.994394E+02 -1.238002E+01 -1.870644E+00 -1.238002E+01 +3.556110E+02 
 +8.692971E+02 +4.656233E+00 -1.780280E+00 +4.656233E+00 +4.912235E+02 -1.660771E+01 -1.780280E+00 -1.660771E+01 +3.534690E+02 
 +8.683165E+02 +7.212149E-01 -4.403188E+00 +7.212149E-01 +4.897275E+02 -3.535980E+00 -4.403188E+00 -3.535980E+00 +3.648870E+02 
 +8.661017E+02 -6.172957E+00 -1.257087E+01 -6.172957E+00 +4.873276E+02 +1.820894E+01 -1.257087E+01 +1.820894E+01 +3.717312E+02 
 +8.688391E+02 -9.510922E+00 -7.405115E+00 -9.510922E+00 +4.877114E+02 +2.550268E+01 -7.405115E+00 +2.550268E+01 +3.723982E+02 
 +8.717412E+02 -4.162382E+00 +9.203783E+00 -4.162382E+00 +4.894800E+02 +2.563085E+01 +9.203783E+00 +2.563085E+01 +3.849581E+02 
 +8.716119E+02 +4.068389E+00 +1.012084E+01 +4.068389E+00 +4.792992E+02 +2.369588E+01 +1.012084E+01 +2.369588E+01 +3.865106E+02 
 +8.703248E+02 +8.160489E+00 +3.959780E+00 +8.160489E+00 +4.727188E+02 +2.474082E+01 +3.959780E+00 +2.474082E+01 +3.877503E+02 
 +8.650973E+02 +9.394834E+00 -6.216369E+00 +9.394834E+00 +4.657277E+02 +3.126586E+01 -6.216369E+00 +3.126586E+01 +3.925774E+02 
 +8.584704E+02 +1.043368E+01 -1.537968E+01 +1.043368E+01 +4.463074E+02 +3.543572E+01 -1.537968E+01 +3.543572E+01 +3.763500E+02 
 +8.500080E+02 +4.576912E+00 -8.878262E+00 +4.576912E+00 +4.400757E+02 +3.190054E+01 -8.878262E+00 +3.190054E+01 +3.672851E+02 
 +8.574592E+02 -3.249407E-01 -5.798472E+00 -3.249407E-01 +4.577158E+02 +2.272230E+01 -5.798472E+00 +2.272230E+01 +3.817904E+02 
 +8.631218E+02 +1.417873E+00 -1.390884E+00 +1.417873E+00 +4.818293E+02 +1.207778E+01 -1.390884E+00 +1.207778E+01 +4.016083E+02 
 +8.444203E+02 +7.801026E+00 +1.032003E+00 +7.801026E+00 +5.017214E+02 +2.573216E+00 +1.032003E+00 +2.573216E+00 +4.185411E+02 
 +8.513098E+02 +7.160500E+00 -1.150148E+00 +7.160500E+00 +5.204325E+02 +7.824507E+00 -1.150148E+00 +7.824507E+00 +4.290655E+02 
 +8.524391E+02 +6.902067E+00 -7.211600E+00 +6.902067E+00 +5.217734E+02 +2.044809E+01 -7.211600E+00 +2.044809E+01 +4.213715E+02 
 +8.580583E+02 -2.048923E+00 -4.030916E+00 -2.048923E+00 +4.974266E+02 +1.437899E+01 -4.030916E+00 +1.437899E+01 +4.166716E+02 
 +8.589945E+02 +2.276747E+00 +5.063508E+00 +2.276747E+00 +4.825604E+02 +1.102511E+01 +5.063508E+00 +1.102511E+01 +4.057100E+02 
 +8.514406E+02 +9.846193E+00 +1.931963E+01 +9.846193E+00 +4.734409E+02 +5.294545E+00 +1.931963E+01 +5.294545E+00 +3.708739E+02 
 +8.618098E+02 +1.349334E+01 +8.289996E+00 +1.349334E+01 +4.880226E+02 +3.723738E-01 +8.289996E+00 +3.723738E-01 +3.546601E+02 
 +8.743230E+02 +7.396857E+00 -7.061500E+00 +7.396857E+00 +5.097243E+02 -6.447598E+00 -7.061500E+00 -6.447598E+00 +3.583049E+02 
 +8.732986E+02 +4.979876E+00 -2.657100E-01 +4.979876E+00 +5.031437E+02 -1.467460E+01 -2.657100E-01 -1.467460E+01 +3.517285E+02 
 +8.649947E+02 +1.718492E+00 +4.624058E+00 +1.718492E+00 +4.843230E+02 -1.440941E+01 +4.624058E+00 -1.440941E+01 +3.358777E+02 
 +8.645301E+02 +7.311619E-01 -2.762055E+00 +7.311619E-01 +4.776147E+02 +3.177557E+00 -2.762055E+00 +3.177557E+00 +3.407549E+02 
 +8.632979E+02 -6.843929E+00 -1.500427E+01 -6.843929E+00 +4.763886E+02 +2.261926E+01 -1.500427E+01 +2.261926E+01 +3.650156E+02 
 +8.655809E+02 -8.782696E+00 -6.269735E+00 -8.782696E+00 +4.724956E+02 +3.143598E+01 -6.269735E+00 +3.143598E+01 +3.770335E+02 
 +8.651940E+02 -4.011647E+00 +7.357516E+00 -4.011647E+00 +4.717345E+02 +2.912490E+01 +7.357516E+00 +2.912490E+01 +3.737386E+02 
 +8.636621E+02 +5.140434E-01 +6.829490E+00 +5.140434E-01 +4.708161E+02 +2.582752E+01 +6.829490E+00 +2.582752E+01 +3.718578E+02 
 +8.601372E+02 +7.545642E+00 +1.664536E+00 +7.545642E+00 +4.629371E+02 +2.350362E+01 +1.664536E+00 +2.350362E+01 +3.715098E+02 
 +8.572170E+02 +8.486119E+00 -2.971631E+00 +8.486119E+00 +4.560922E+02 +2.302508E+01 -2.971631E+00 +2.302508E+01 +3.779423E+02 
 +8.583416E+02 +9.953116E+00 -1.016685E+01 +9.953116E+00 +4.467083E+02 +2.759628E+01 -1.016685E+01 +2.759628E+01 +3.772644E+02 
 +8.577241E+02 +8.456337E+00 -9.010786E+00 +8.456337E+00 +4.390969E+02 +3.430114E+01 -9.010786E+00 +3.430114E+01 +3.683858E+02 
 +8.595865E+02 +1.635108E+00 +8.224322E-01 +1.635108E+00 +4.525261E+02 +3.644619E+01 +8.224322E-01 +3.644619E+01 +3.702009E+02 
 +8.600669E+02 +2.819544E+00 -3.607760E+00 +2.819544E+00 +4.791374E+02 +3.156843E+01 -3.607760E+00 +3.156843E+01 +3.901183E+02 
 +8.446793E+02 +1.247469E+01 -1.206324E+01 +1.247469E+01 +4.971821E+02 +1.298942E+01 -1.206324E+01 +1.298942E+01 +4.113263E+02 
 +8.522121E+02 +1.095863E+01 -5.576331E+00 +1.095863E+01 +5.175078E+02 +7.581233E-01 -5.576331E+00 +7.581233E-01 +4.192337E+02 
 +8.517099E+02 +6.613314E+00 -1.149733E+01 +6.613314E+00 +5.156171E+02 +9.542686E+00 -1.149733E+01 +9.542686E+00 +4.132093E+02 
 +8.689558E+02 -1.260029E+01 -3.825901E+00 -1.260029E+01 +5.269241E+02 +2.106302E+01 -3.825901E+00 +2.106302E+01 +4.195467E+02 
 +8.610595E+02 -4.770542E+00 +3.804888E+00 -4.770542E+00 +5.156580E+02 +1.939301E+01 +3.804888E+00 +1.939301E+01 +4.027963E+02 
 +8.471769E+02 +3.114528E+00 +5.249255E+00 +3.114528E+00 +4.935788E+02 +5.366237E+00 +5.249255E+00 +5.366237E+00 +3.744309E+02 
 +8.619476E+02 +1.951846E+01 +1.429593E+00 +1.951846E+01 +4.877346E+02 -9.019596E+00 +1.429593E+00 -9.019596E+00 +3.674178E+02 
 +8.631955E+02 +1.317749E+01 -1.082913E+01 +1.317749E+01 +4.892897E+02 -1.389998E+01 -1.082913E+01 -1.389998E+01 +3.642131E+02 
 +8.722328E+02 +7.880756E+00 -1.802357E+00 +7.880756E+00 +4.965091E+02 -1.644266E+01 -1.802357E+00 -1.644266E+01 +3.572796E+02 
 +8.655426E+02 +1.568563E+00 +4.820576E+00 +1.568563E+00 +4.838042E+02 -1.587451E+01 +4.820576E+00 -1.587451E+01 +3.395028E+02 
 +8.611845E+02 +2.972216E-01 -1.217651E+00 +2.972216E-01 +4.686567E+02 -6.649225E-01 -1.217651E+00 -6.649225E-01 +3.315715E+02 
 +8.570982E+02 -9.222433E+00 -1.042559E+01 -9.222433E+00 +4.627751E+02 +1.998003E+01 -1.042559E+01 +1.998003E+01 +3.446756E+02 
 +8.612509E+02 -1.014081E+01 -5.355959E+00 -1.014081E+01 +4.642991E+02 +3.039159E+01 -5.355959E+00 +3.039159E+01 +3.602908E+02 
 +8.551828E+02 -3.056307E+00 +2.201707E+00 -3.056307E+00 +4.584428E+02 +2.872568E+01 +2.201707E+00 +2.872568E+01 +3.548067E+02 
 +8.571920E+02 -2.984923E-01 +1.262334E+00 -2.984923E-01 +4.617671E+02 +2.446896E+01 +1.262334E+00 +2.446896E+01 +3.585808E+02 
 +8.556074E+02 +5.327790E+00 -1.430180E-01 +5.327790E+00 +4.566482E+02 +2.498529E+01 -1.430180E-01 +2.498529E+01 +3.576957E+02 
 +8.537634E+02 +8.626958E+00 +5.150551E-01 +8.626958E+00 +4.485936E+02 +2.803551E+01 +5.150551E-01 +2.803551E+01 +3.529128E+02 
 +8.575657E+02 +9.054285E+00 +2.602395E+00 +9.054285E+00 +4.521600E+02 +2.661676E+01 +2.602395E+00 +2.661676E+01 +3.645815E+02 
 +8.586915E+02 +7.764441E+00 -2.032907E+00 +7.764441E+00 +4.599960E+02 +2.735809E+01 -2.032907E+00 +2.735809E+01 +3.777827E+02 
 +8.668262E+02 +1.153262E+00 -1.456099E+00 +1.153262E+00 +4.797352E+02 +2.068674E+01 -1.456099E+00 +2.068674E+01 +3.738091E+02 
 +8.725735E+02 +1.275069E+00 -6.563911E+00 +1.275069E+00 +4.978954E+02 +1.258418E+00 -6.563911E+00 +1.258418E+00 +3.700544E+02 
 +8.522816E+02 +1.305593E+01 -1.812489E+01 +1.305593E+01 +4.989115E+02 -1.034807E+01 -1.812489E+01 -1.034807E+01 +3.817460E+02 
 +8.537841E+02 +9.345696E+00 -7.812559E+00 +9.345696E+00 +5.098876E+02 -9.503383E+00 -7.812559E+00 -9.503383E+00 +3.982258E+02 
 +8.589087E+02 +4.700784E+00 -1.139125E+01 +4.700784E+00 +5.203936E+02 +7.246950E+00 -1.139125E+01 +7.246950E+00 +4.103214E+02 
 +8.491163E+02 -1.788929E+01 -5.811802E+00 -1.788929E+01 +5.103115E+02 +1.816212E+01 -5.811802E+00 +1.816212E+01 +3.886028E+02 
 +8.438442E+02 -3.935802E+00 -5.849021E+00 -3.935802E+00 +5.015844E+02 +1.693167E+01 -5.849021E+00 +1.693167E+01 +3.752212E+02 
 +8.389485E+02 +2.608839E+00 -9.167961E+00 +2.608839E+00 +4.883489E+02 +3.984145E+00 -9.167961E+00 +3.984145E+00 +3.622218E+02 
 +8.620215E+02 +2.034993E+01 -4.273524E+00 +2.034993E+01 +4.909581E+02 -8.341821E+00 -4.273524E+00 -8.341821E+00 +3.671697E+02 
 +8.587818E+02 +1.588494E+01 -9.313555E+00 +1.588494E+01 +4.837244E+02 -1.326241E+01 -9.313555E+00 -1.326241E+01 +3.631323E+02 
 +8.703807E+02 +8.921829E+00 -1.270599E+00 +8.921829E+00 +4.878232E+02 -1.458056E+01 -1.270599E+00 -1.458056E+01 +3.632757E+02 
 +8.674151E+02 +1.270790E+00 -3.135569E+00 +1.270790E+00 +4.833768E+02 -1.042652E+01 -3.135569E+00 -1.042652E+01 +3.534023E+02 
 +8.620635E+02 -1.427733E+00 -3.295076E+00 -1.427733E+00 +4.741668E+02 +2.692113E+00 -3.295076E+00 +2.692113E+00 +3.415754E+02 
 +8.484391E+02 -1.404710E+01 -2.006967E+00 -1.404710E+01 +4.518254E+02 +1.610937E+01 -2.006967E+00 +1.610937E+01 +3.385303E+02 
 +8.644249E+02 -1.066156E+01 -7.247003E+00 -1.066156E+01 +4.556648E+02 +2.732472E+01 -7.247003E+00 +2.732472E+01 +3.501908E+02 
 +8.530066E+02 -7.654297E-01 -3.772841E+00 -7.654297E-01 +4.538821E+02 +2.747151E+01 -3.772841E+00 +2.747151E+01 +3.407331E+02 
 +8.461598E+02 +2.014507E+00 -4.153611E+00 +2.014507E+00 +4.467499E+02 +2.443384E+01 -4.153611E+00 +2.443384E+01 +3.375981E+02 
 +8.466700E+02 +5.438589E+00 +6.936322E-01 +5.438589E+00 +4.449815E+02 +2.409818E+01 +6.936322E-01 +2.409818E+01 +3.394982E+02 
 +8.508961E+02 +7.269331E+00 +4.247643E+00 +7.269331E+00 +4.471815E+02 +2.480989E+01 +4.247643E+00 +2.480989E+01 +3.370044E+02 
 +8.576556E+02 +1.025071E+01 +6.961092E+00 +1.025071E+01 +4.600395E+02 +1.164725E+01 +6.961092E+00 +1.164725E+01 +3.457542E+02 
 +8.563942E+02 +1.666335E+01 -3.293550E+00 +1.666335E+01 +4.865979E+02 -1.848025E+01 -3.293550E+00 -1.848025E+01 +3.645853E+02 
 +8.642071E+02 +1.118273E+01 -1.148999E+01 +1.118273E+01 +5.031752E+02 -2.872931E+01 -1.148999E+01 -2.872931E+01 +3.633549E+02 
 +8.793869E+02 +4.095276E+00 -8.087542E+00 +4.095276E+00 +5.047351E+02 -2.140929E+01 -8.087542E+00 -2.140929E+01 +3.590629E+02 
 +8.562497E+02 +1.374280E+01 -1.303304E+01 +1.374280E+01 +4.950452E+02 -1.714996E+01 -1.303304E+01 -1.714996E+01 +3.669476E+02 
 +8.548817E+02 +7.052858E+00 -4.997628E+00 +7.052858E+00 +5.024532E+02 -1.258230E+01 -4.997628E+00 -1.258230E+01 +3.813142E+02 
 +8.577402E+02 +2.253193E-02 -5.877876E+00 +2.253193E-02 +5.113016E+02 +3.499535E+00 -5.877876E+00 +3.499535E+00 +3.907265E+02 
 +8.452272E+02 -1.659752E+01 -1.111628E+01 -1.659752E+01 +4.966150E+02 +9.943955E+00 -1.111628E+01 +9.943955E+00 +3.780209E+02 
 +8.419099E+02 -6.001040E+00 -1.095094E+01 -6.001040E+00 +4.978665E+02 +9.006727E+00 -1.095094E+01 +9.006727E+00 +3.783649E+02 
 +8.390960E+02 -1.419178E+00 -1.111855E+01 -1.419178E+00 +4.912132E+02 +1.436090E+00 -1.111855E+01 +1.436090E+00 +3.691339E+02 
 +8.564162E+02 +1.617100E+01 -7.196778E+00 +1.617100E+01 +4.916407E+02 -6.859839E+00 -7.196778E+00 -6.859839E+00 +3.647499E+02 
 +8.544734E+02 +1.344812E+01 -6.200749E+00 +1.344812E+01 +4.824007E+02 -8.313309E+00 -6.200749E+00 -8.313309E+00 +3.568972E+02 
 +8.678638E+02 +6.539213E+00 +1.480845E+00 +6.539213E+00 +4.832080E+02 -7.894704E+00 +1.480845E+00 -7.894704E+00 +3.524250E+02 
 +8.682926E+02 +1.638152E+00 -7.980090E+00 +1.638152E+00 +4.815436E+02 -4.945325E+00 -7.980090E+00 -4.945325E+00 +3.458723E+02 
 +8.581589E+02 -4.289938E+00 -2.109935E+00 -4.289938E+00 +4.694140E+02 +2.058200E+00 -2.109935E+00 +2.058200E+00 +3.485109E+02 
 +8.422784E+02 -1.688993E+01 +6.534867E+00 -1.688993E+01 +4.442287E+02 +9.504652E+00 +6.534867E+00 +9.504652E+00 +3.463093E+02 
 +8.522345E+02 -9.313288E+00 -6.051624E+00 -9.313288E+00 +4.355852E+02 +2.457746E+01 -6.051624E+00 +2.457746E+01 +3.357062E+02 
 +8.506101E+02 -2.114485E+00 -1.026175E+01 -2.114485E+00 +4.352433E+02 +2.470759E+01 -1.026175E+01 +2.470759E+01 +3.252521E+02 
 +8.452029E+02 +1.326392E+00 -7.327754E+00 +1.326392E+00 +4.445940E+02 +1.991441E+01 -7.327754E+00 +1.991441E+01 +3.255215E+02 
 +8.459090E+02 +6.731160E+00 -3.524120E+00 +6.731160E+00 +4.532208E+02 +1.951492E+01 -3.524120E+00 +1.951492E+01 +3.247723E+02 
 +8.500074E+02 +8.257638E+00 +1.725141E+00 +8.257638E+00 +4.593117E+02 +1.846636E+01 +1.725141E+00 +1.846636E+01 +3.235589E+02 
 +8.535377E+02 +1.261066E+01 +3.491097E+00 +1.261066E+01 +4.676976E+02 +8.625618E+00 +3.491097E+00 +8.625618E+00 +3.265580E+02 
 +8.407036E+02 +1.895299E+01 -8.893449E+00 +1.895299E+01 +4.685591E+02 -1.096984E+01 -8.893449E+00 -1.096984E+01 +3.287714E+02 
 +8.440007E+02 +1.205975E+01 -9.520465E+00 +1.205975E+01 +4.811880E+02 -1.593860E+01 -9.520465E+00 -1.593860E+01 +3.309122E+02 
 +8.735165E+02 +4.351578E+00 +1.106092E+00 +4.351578E+00 +5.062280E+02 -1.448516E+01 +1.106092E+00 -1.448516E+01 +3.471306E+02 
 +8.549324E+02 +1.398484E+01 -7.019826E+00 +1.398484E+01 +4.954909E+02 -1.358769E+01 -7.019826E+00 -1.358769E+01 +3.514477E+02 
 +8.546252E+02 +6.605567E+00 -6.666593E+00 +6.605567E+00 +4.971106E+02 -1.174109E+01 -6.666593E+00 -1.174109E+01 +3.662902E+02 
 +8.555570E+02 +1.044979E+00 -8.098491E+00 +1.044979E+00 +5.000532E+02 -1.858310E-01 -8.098491E+00 -1.858310E-01 +3.789739E+02 
 +8.493742E+02 -1.638800E+01 -1.955183E+01 -1.638800E+01 +4.952620E+02 +1.505799E+01 -1.955183E+01 +1.505799E+01 +3.783352E+02 
 +8.415712E+02 -7.125838E+00 -1.634443E+01 -7.125838E+00 +5.004967E+02 +1.171252E+01 -1.634443E+01 +1.171252E+01 +3.833875E+02 
 +8.391330E+02 -6.990360E+00 -1.676625E+01 -6.990360E+00 +4.955389E+02 +1.787521E+00 -1.676625E+01 +1.787521E+00 +3.763314E+02 
 +8.606813E+02 +1.307078E+01 -1.208808E+01 +1.307078E+01 +4.999639E+02 -7.252507E+00 -1.208808E+01 -7.252507E+00 +3.757091E+02 
 +8.576266E+02 +1.102805E+01 -6.861425E+00 +1.102805E+01 +4.893241E+02 -6.786395E+00 -6.861425E+00 -6.786395E+00 +3.570841E+02 
 +8.709090E+02 +7.615505E+00 -2.546377E+00 +7.615505E+00 +4.819129E+02 -4.637224E+00 -2.546377E+00 -4.637224E+00 +3.325997E+02 
 +8.605896E+02 +3.628191E+00 -1.143711E+01 +3.628191E+00 +4.646650E+02 -4.386160E+00 -1.143711E+01 -4.386160E+00 +3.274269E+02 
 +8.440273E+02 -5.979428E+00 +6.866376E+00 -5.979428E+00 +4.535131E+02 +1.796572E+00 +6.866376E+00 +1.796572E+00 +3.483662E+02 
 +8.550328E+02 -1.677541E+01 +1.200850E+01 -1.677541E+01 +4.683572E+02 +1.223977E+01 +1.200850E+01 +1.223977E+01 +3.497624E+02 
 +8.571765E+02 -1.144875E+01 -1.782835E+00 -1.144875E+01 +4.685427E+02 +2.524344E+01 -1.782835E+00 +2.524344E+01 +3.274470E+02 
 +8.570040E+02 -5.674134E+00 -1.538403E+01 -5.674134E+00 +4.531139E+02 +3.495932E+01 -1.538403E+01 +3.495932E+01 +3.253484E+02 
 +8.537926E+02 -6.605586E-01 -1.155260E+01 -6.605586E-01 +4.512080E+02 +3.021620E+01 -1.155260E+01 +3.021620E+01 +3.267065E+02 
 +8.520357E+02 +1.205668E+00 -6.051561E+00 +1.205668E+00 +4.605640E+02 +2.422672E+01 -6.051561E+00 +2.422672E+01 +3.260648E+02 
 +8.503025E+02 +5.314952E+00 -3.140571E+00 +5.314952E+00 +4.658771E+02 +2.234434E+01 -3.140571E+00 +2.234434E+01 +3.257571E+02 
 +8.528674E+02 +1.229381E+01 -8.460162E+00 +1.229381E+01 +4.754981E+02 +5.032356E+00 -8.460162E+00 +5.032356E+00 +3.232232E+02 
 +8.559823E+02 +2.130919E+01 -1.538876E+01 +2.130919E+01 +4.874028E+02 -1.339729E+01 -1.538876E+01 -1.339729E+01 +3.382051E+02 
 +8.579261E+02 +1.864064E+01 +9.566654E-01 +1.864064E+01 +4.998048E+02 -1.397798E+01 +9.566654E-01 -1.397798E+01 +3.423418E+02 
 +8.766363E+02 +6.389687E+00 +9.557500E+00 +6.389687E+00 +5.195737E+02 -1.100241E+01 +9.557500E+00 -1.100241E+01 +3.449387E+02 
 +8.514902E+02 +1.149793E+01 -2.023547E+00 +1.149793E+01 +5.054507E+02 -1.131536E+01 -2.023547E+00 -1.131536E+01 +3.483209E+02 
 +8.545751E+02 +2.007143E+00 -1.989504E+00 +2.007143E+00 +4.948520E+02 -4.520605E+00 -1.989504E+00 -4.520605E+00 +3.567395E+02 
 +8.577760E+02 -2.550124E+00 -1.310240E+01 -2.550124E+00 +4.906251E+02 +8.789680E+00 -1.310240E+01 +8.789680E+00 +3.656080E+02 
 +8.310043E+02 -1.639032E+01 -1.902502E+01 -1.639032E+01 +4.752194E+02 +1.754615E+01 -1.902502E+01 +1.754615E+01 +3.606478E+02 
 +8.375006E+02 -1.457859E+01 -2.307017E+01 -1.457859E+01 +4.951617E+02 +1.432566E+01 -2.307017E+01 +1.432566E+01 +3.798850E+02 
 +8.419507E+02 -1.476985E+01 -2.950346E+01 -1.476985E+01 +4.962400E+02 +4.508453E+00 -2.950346E+01 +4.508453E+00 +3.749749E+02 
 +8.649561E+02 +8.995253E+00 -2.273537E+01 +8.995253E+00 +5.007597E+02 -5.229196E+00 -2.273537E+01 -5.229196E+00 +3.723927E+02 
 +8.633377E+02 +9.323453E+00 -1.255372E+01 +9.323453E+00 +4.875179E+02 -4.102065E+00 -1.255372E+01 -4.102065E+00 +3.473382E+02 
 +8.701805E+02 +3.379597E+00 -5.868942E+00 +3.379597E+00 +4.756943E+02 +5.537104E+00 -5.868942E+00 +5.537104E+00 +3.249196E+02 
 +8.537280E+02 -4.191794E+00 -6.705796E+00 -4.191794E+00 +4.606961E+02 +1.177678E+01 -6.705796E+00 +1.177678E+01 +3.257096E+02 
 +8.550896E+02 -7.408562E+00 +5.329850E+00 -7.408562E+00 +4.708726E+02 +8.272264E+00 +5.329850E+00 +8.272264E+00 +3.478899E+02 
 +8.593850E+02 -1.103443E+01 +4.881595E+00 -1.103443E+01 +4.778179E+02 +9.594137E+00 +4.881595E+00 +9.594137E+00 +3.434409E+02 
 +8.608707E+02 -8.592110E+00 -4.226725E+00 -8.592110E+00 +4.832439E+02 +1.618485E+01 -4.226725E+00 +1.618485E+01 +3.318884E+02 
 +8.605950E+02 -7.077650E+00 -9.879195E+00 -7.077650E+00 +4.836508E+02 +2.196197E+01 -9.879195E+00 +2.196197E+01 +3.365593E+02 
 +8.529507E+02 -3.869785E-01 -8.999856E+00 -3.869785E-01 +4.605080E+02 +2.476490E+01 -8.999856E+00 +2.476490E+01 +3.252358E+02 
 +8.447667E+02 +1.892216E+00 -6.800247E+00 +1.892216E+00 +4.500452E+02 +2.469069E+01 -6.800247E+00 +2.469069E+01 +3.052959E+02 
 +8.438268E+02 +4.935959E+00 -3.712749E+00 +4.935959E+00 +4.632614E+02 +2.237640E+01 -3.712749E+00 +2.237640E+01 +3.059122E+02 
 +8.490054E+02 +8.442611E+00 -1.722745E+01 +8.442611E+00 +4.741065E+02 +2.385429E+01 -1.722745E+01 +2.385429E+01 +3.255788E+02 
 +8.580077E+02 +1.106758E+01 -2.075803E+01 +1.106758E+01 +4.787616E+02 +3.575626E+01 -2.075803E+01 +3.575626E+01 +3.564082E+02 
 +8.630460E+02 +1.524674E+01 -4.802796E+00 +1.524674E+01 +4.891468E+02 +2.909545E+01 -4.802796E+00 +2.909545E+01 +3.603419E+02 
 +8.870558E+02 +4.276744E+00 +6.813974E+00 +4.276744E+00 +5.267129E+02 +6.178956E-01 +6.813974E+00 +6.178956E-01 +3.684665E+02 
 +8.686889E+02 +5.374264E+00 +4.835442E+00 +5.374264E+00 +5.234083E+02 -8.814603E+00 +4.835442E+00 -8.814603E+00 +3.827583E+02 
 +8.605427E+02 -5.885995E-02 +6.967222E+00 -5.885995E-02 +4.990906E+02 -1.313823E+00 +6.967222E+00 -1.313823E+00 +3.710176E+02 
 +8.464973E+02 -2.477041E+00 -5.425513E+00 -2.477041E+00 +4.736208E+02 +1.001184E+01 -5.425513E+00 +1.001184E+01 +3.473748E+02 
 +8.264055E+02 -5.154072E+00 -2.118797E+01 -5.154072E+00 +4.618485E+02 +1.199365E+01 -2.118797E+01 +1.199365E+01 +3.876643E+02 
 +8.317081E+02 +3.996454E-02 -3.115581E+01 +3.996454E-02 +4.693193E+02 +1.106043E+00 -3.115581E+01 +1.106043E+00 +3.876526E+02 
 +8.514127E+02 +3.116047E+00 -3.597388E+01 +3.116047E+00 +4.973620E+02 +5.113161E+00 -3.597388E+01 +5.113161E+00 +3.825616E+02 
 +8.731540E+02 +1.318654E+01 -1.845488E+01 +1.318654E+01 +5.184250E+02 +1.304793E+01 -1.845488E+01 +1.304793E+01 +3.757370E+02 
 +8.654278E+02 +6.400902E+00 -1.250307E+01 +6.400902E+00 +4.797419E+02 +1.508693E+01 -1.250307E+01 +1.508693E+01 +3.468034E+02 
 +8.578166E+02 +2.270707E+00 -6.956611E+00 +2.270707E+00 +4.535981E+02 +1.438824E+01 -6.956611E+00 +1.438824E+01 +3.256775E+02 
 +8.595201E+02 -8.103406E+00 -2.230526E+00 -8.103406E+00 +4.632770E+02 +1.534736E+01 -2.230526E+00 +1.534736E+01 +3.118846E+02 
 +8.607625E+02 -8.542761E+00 +9.348989E-01 -8.542761E+00 +4.747238E+02 +1.591840E+01 +9.348989E-01 +1.591840E+01 +3.185108E+02 
 +8.581246E+02 -8.411576E+00 +2.954452E+00 -8.411576E+00 +4.765991E+02 +1.380823E+01 +2.954452E+00 +1.380823E+01 +3.343518E+02 
 +8.474812E+02 -6.625828E+00 -1.881794E-01 -6.625828E+00 +4.716391E+02 +1.423192E+01 -1.881794E-01 +1.423192E+01 +3.339811E+02 
 +8.511002E+02 -1.050300E+01 +6.207440E+00 -1.050300E+01 +4.783318E+02 +1.157966E+01 +6.207440E+00 +1.157966E+01 +3.289956E+02 
 +8.524693E+02 -2.295924E+00 +1.523437E+00 -2.295924E+00 +4.812517E+02 +9.879085E+00 +1.523437E+00 +9.879085E+00 +3.099565E+02 
 +8.599290E+02 +6.531467E+00 -1.889213E+00 +6.531467E+00 +4.774908E+02 +1.731812E+01 -1.889213E+00 +1.731812E+01 +3.014163E+02 
 +8.694786E+02 +4.489563E+00 -4.364827E+00 +4.489563E+00 +4.907746E+02 +1.666646E+01 -4.364827E+00 +1.666646E+01 +3.222383E+02 
 +8.734655E+02 +7.664235E+00 -1.467884E+01 +7.664235E+00 +5.116270E+02 +6.667271E+00 -1.467884E+01 +6.667271E+00 +3.390337E+02 
 +8.789702E+02 +8.896702E+00 -1.829099E+01 +8.896702E+00 +5.205660E+02 -3.397515E-02 -1.829099E+01 -3.397515E-02 +3.550225E+02 
 +8.707141E+02 +1.329677E+01 -2.009673E+01 +1.329677E+01 +5.067037E+02 +5.972207E+00 -2.009673E+01 +5.972207E+00 +3.692771E+02 
 +8.537370E+02 +3.233876E+00 -3.084661E-01 +3.233876E+00 +4.791766E+02 +2.139159E+01 -3.084661E-01 +2.139159E+01 +3.721909E+02 
 +8.429023E+02 -4.246245E+00 +9.194830E+00 -4.246245E+00 +4.669120E+02 +2.342089E+01 +9.194830E+00 +2.342089E+01 +3.885702E+02 
 +8.494121E+02 -6.496938E+00 +4.718468E+00 -6.496938E+00 +4.791376E+02 +1.891775E+01 +4.718468E+00 +1.891775E+01 +4.061069E+02 
 +8.573780E+02 -5.981483E+00 -2.090374E-01 -5.981483E+00 +4.806776E+02 +1.751032E+01 -2.090374E-01 +1.751032E+01 +3.972992E+02 
 +8.348036E+02 -5.434188E+00 -3.188722E+01 -5.434188E+00 +4.651538E+02 -8.483743E+00 -3.188722E+01 -8.483743E+00 +4.006047E+02 
 +8.325640E+02 -5.753165E+00 -3.357131E+01 -5.753165E+00 +4.711686E+02 -4.881515E+00 -3.357131E+01 -4.881515E+00 +3.813547E+02 
 +8.338800E+02 +1.721293E+00 -3.198106E+01 +1.721293E+00 +4.705780E+02 +2.071035E+00 -3.198106E+01 +2.071035E+00 +3.683664E+02 
 +8.497547E+02 +2.994432E+00 -9.384767E+00 +2.994432E+00 +4.621372E+02 +6.402194E+00 -9.384767E+00 +6.402194E+00 +3.548131E+02 
 +8.450668E+02 +2.521972E+00 -5.656645E+00 +2.521972E+00 +4.528224E+02 +9.490363E+00 -5.656645E+00 +9.490363E+00 +3.362432E+02 
 +8.525059E+02 +3.705892E+00 -3.056845E+00 +3.705892E+00 +4.603885E+02 +1.371047E+01 -3.056845E+00 +1.371047E+01 +3.340099E+02 
 +8.572033E+02 -4.406819E+00 -4.398958E+00 -4.406819E+00 +4.546826E+02 +2.104044E+01 -4.398958E+00 +2.104044E+01 +3.074370E+02 
 +8.530673E+02 -6.873661E+00 +2.098439E+00 -6.873661E+00 +4.593774E+02 +1.624761E+01 +2.098439E+00 +1.624761E+01 +3.047107E+02 
 +8.533333E+02 -8.228704E+00 +4.448650E+00 -8.228704E+00 +4.741415E+02 +1.310046E+01 +4.448650E+00 +1.310046E+01 +3.223897E+02 
 +8.492261E+02 -9.063843E+00 +3.348052E+00 -9.063843E+00 +4.803400E+02 +1.235450E+01 +3.348052E+00 +1.235450E+01 +3.261691E+02 
 +8.468253E+02 -1.157578E+01 +3.839864E+00 -1.157578E+01 +4.825023E+02 +9.834410E+00 +3.839864E+00 +9.834410E+00 +3.117099E+02 
 +8.490625E+02 +1.969301E+00 +1.655606E+00 +1.969301E+00 +4.930056E+02 +1.171059E+01 +1.655606E+00 +1.171059E+01 +2.754022E+02 
 +8.666508E+02 +5.818385E+00 +5.640826E+00 +5.818385E+00 +5.155389E+02 +1.135301E+01 +5.640826E+00 +1.135301E+01 +2.736325E+02 
 +8.780898E+02 +6.480037E+00 -2.663219E+00 +6.480037E+00 +5.254506E+02 +7.047721E+00 -2.663219E+00 +7.047721E+00 +3.053559E+02 
 +8.763184E+02 +7.339792E+00 -1.255567E+01 +7.339792E+00 +5.230242E+02 +7.614369E+00 -1.255567E+01 +7.614369E+00 +3.204385E+02 
 +8.734223E+02 +9.271591E+00 -1.308441E+01 +9.271591E+00 +5.204038E+02 +1.138203E+01 -1.308441E+01 +1.138203E+01 +3.324939E+02 
 +8.683906E+02 +1.266570E+01 -1.291914E+01 +1.266570E+01 +5.104283E+02 +1.562378E+01 -1.291914E+01 +1.562378E+01 +3.528628E+02 
 +8.601682E+02 +2.980317E+00 +4.690105E-01 +2.980317E+00 +4.878642E+02 +1.969233E+01 +4.690105E-01 +1.969233E+01 +3.718907E+02 
 +8.578754E+02 -2.950439E+00 +7.860296E+00 -2.950439E+00 +4.772072E+02 +1.564412E+01 +7.860296E+00 +1.564412E+01 +3.977475E+02 
 +8.494021E+02 -6.329058E+00 +1.349764E+01 -6.329058E+00 +4.687813E+02 +4.375099E+00 +1.349764E+01 +4.375099E+00 +4.150275E+02 
 +8.601239E+02 -9.438999E+00 +5.956170E+00 -9.438999E+00 +4.717091E+02 -5.435597E+00 +5.956170E+00 -5.435597E+00 +4.184616E+02 
 +8.377563E+02 -4.216875E+00 -2.531988E+01 -4.216875E+00 +4.710912E+02 -6.935579E+00 -2.531988E+01 -6.935579E+00 +3.880518E+02 
 +8.274356E+02 -5.755503E+00 -2.947054E+01 -5.755503E+00 +4.631754E+02 -3.398253E+00 -2.947054E+01 -3.398253E+00 +3.589832E+02 
 +8.264673E+02 +1.333474E+00 -2.962240E+01 +1.333474E+00 +4.531250E+02 -2.086190E+00 -2.962240E+01 -2.086190E+00 +3.518263E+02 
 +8.570774E+02 +3.263427E-01 -1.161340E+00 +3.263427E-01 +4.634114E+02 +3.752553E-01 -1.161340E+00 +3.752553E-01 +3.518725E+02 
 +8.442220E+02 +2.206212E+00 -1.847102E+00 +2.206212E+00 +4.547354E+02 +4.540302E+00 -1.847102E+00 +4.540302E+00 +3.357921E+02 
 +8.440106E+02 +3.136495E+00 -1.284563E+00 +3.136495E+00 +4.545144E+02 +8.162215E+00 -1.284563E+00 +8.162215E+00 +3.261001E+02 
 +8.534603E+02 -2.865900E+00 -4.202638E+00 -2.865900E+00 +4.594619E+02 +2.051327E+01 -4.202638E+00 +2.051327E+01 +3.027771E+02 
 +8.547649E+02 -5.388349E+00 -2.278371E+00 -5.388349E+00 +4.682565E+02 +2.039752E+01 -2.278371E+00 +2.039752E+01 +3.014142E+02 
 +8.502268E+02 -9.293344E+00 +4.267506E+00 -9.293344E+00 +4.788232E+02 +1.178837E+01 +4.267506E+00 +1.178837E+01 +3.117232E+02 
 +8.487003E+02 -9.852455E+00 +4.013650E+00 -9.852455E+00 +4.865636E+02 +8.291977E+00 +4.013650E+00 +8.291977E+00 +3.147380E+02 
 +8.472223E+02 -1.117749E+01 +4.123534E-01 -1.117749E+01 +4.919968E+02 +6.201031E+00 +4.123534E-01 +6.201031E+00 +3.056806E+02 
 +8.554911E+02 +3.828082E+00 -5.524066E-01 +3.828082E+00 +5.040985E+02 +8.355772E+00 -5.524066E-01 +8.355772E+00 +2.817003E+02 
 +8.642837E+02 +6.649194E-01 +4.925144E+00 +6.649194E-01 +5.145718E+02 +1.093871E+01 +4.925144E+00 +1.093871E+01 +2.797540E+02 
 +8.707099E+02 +3.259980E+00 -2.074377E-01 +3.259980E+00 +5.177648E+02 +8.626190E+00 -2.074377E-01 +8.626190E+00 +2.983082E+02 
 +8.759327E+02 +7.245772E+00 -5.467464E+00 +7.245772E+00 +5.186524E+02 +8.235170E+00 -5.467464E+00 +8.235170E+00 +3.099312E+02 
 +8.792510E+02 +1.037202E+01 -7.438274E+00 +1.037202E+01 +5.214464E+02 +1.203708E+01 -7.438274E+00 +1.203708E+01 +3.231213E+02 
 +8.726378E+02 +9.225503E+00 -6.928645E+00 +9.225503E+00 +5.147549E+02 +1.870670E+01 -6.928645E+00 +1.870670E+01 +3.371143E+02 
 +8.636301E+02 -1.822272E+00 -4.511934E+00 -1.822272E+00 +4.993325E+02 +2.294390E+01 -4.511934E+00 +2.294390E+01 +3.629924E+02 
 +8.616899E+02 -1.563769E+00 -1.674595E+00 -1.563769E+00 +4.910915E+02 +1.580209E+01 -1.674595E+00 +1.580209E+01 +3.880985E+02 
 +8.550322E+02 -7.605361E+00 +6.215271E+00 -7.605361E+00 +4.865993E+02 +3.659740E+00 +6.215271E+00 +3.659740E+00 +4.031575E+02 
 +8.603963E+02 -1.194622E+01 +8.258455E+00 -1.194622E+01 +4.858041E+02 -6.256087E+00 +8.258455E+00 -6.256087E+00 +4.150532E+02 
 +8.460671E+02 -1.102360E+00 -1.878981E+01 -1.102360E+00 +4.794373E+02 +1.278955E+00 -1.878981E+01 +1.278955E+00 +3.810750E+02 
 +8.358055E+02 -2.099814E+00 -2.219555E+01 -2.099814E+00 +4.638655E+02 +2.189765E+00 -2.219555E+01 +2.189765E+00 +3.628465E+02 
 +8.300742E+02 -4.252430E-01 -2.693826E+01 -4.252430E-01 +4.561248E+02 +1.973780E+00 -2.693826E+01 +1.973780E+00 +3.539093E+02 
 +8.556373E+02 -3.652107E-01 +1.907415E+00 -3.652107E-01 +4.605447E+02 +3.875696E-01 +1.907415E+00 +3.875696E-01 +3.519020E+02 
 +8.439911E+02 +4.447576E+00 -2.002873E+00 +4.447576E+00 +4.492126E+02 +2.307861E+00 -2.002873E+00 +2.307861E+00 +3.372357E+02 
 +8.340877E+02 +6.483473E+00 -1.916501E+00 +6.483473E+00 +4.450263E+02 +8.677250E+00 -1.916501E+00 +8.677250E+00 +3.170613E+02 
 +8.441412E+02 +1.542818E+00 -2.355305E+00 +1.542818E+00 +4.605542E+02 +1.994243E+01 -2.355305E+00 +1.994243E+01 +2.957015E+02 
 +8.519974E+02 -3.284217E+00 -3.807059E+00 -3.284217E+00 +4.793701E+02 +1.974738E+01 -3.807059E+00 +1.974738E+01 +3.024479E+02 
 +8.544344E+02 -6.982893E+00 -1.654697E+00 -6.982893E+00 +4.895936E+02 +1.519045E+01 -1.654697E+00 +1.519045E+01 +3.175034E+02 
 +8.443714E+02 -1.292402E+01 -4.478163E-01 -1.292402E+01 +4.871919E+02 +5.839645E+00 -4.478163E-01 +5.839645E+00 +3.197995E+02 
 +8.487073E+02 -1.162981E+01 -3.233715E+00 -1.162981E+01 +4.985104E+02 +2.886684E+00 -3.233715E+00 +2.886684E+00 +3.217541E+02 
 +8.688938E+02 +1.878488E+00 +3.304679E-01 +1.878488E+00 +5.140145E+02 +8.237489E+00 +3.304679E-01 +8.237489E+00 +3.188515E+02 
 +8.697400E+02 -1.100548E+00 +4.419575E+00 -1.100548E+00 +5.089124E+02 +9.128108E+00 +4.419575E+00 +9.128108E+00 +3.141825E+02 
 +8.731129E+02 -1.291854E-02 +1.854503E+00 -1.291854E-02 +5.089313E+02 +7.806873E+00 +1.854503E+00 +7.806873E+00 +3.175523E+02 
 +8.783373E+02 +4.957249E+00 +1.199736E+00 +4.957249E+00 +5.085978E+02 +9.087901E+00 +1.199736E+00 +9.087901E+00 +3.153368E+02 
 +8.841513E+02 +1.066624E+01 +2.236335E+00 +1.066624E+01 +5.164543E+02 +1.418085E+01 +2.236335E+00 +1.418085E+01 +3.190924E+02 
 +8.926729E+02 +8.336011E+00 +1.468082E+00 +8.336011E+00 +5.323165E+02 +2.147420E+01 +1.468082E+00 +2.147420E+01 +3.433909E+02 
 +8.733903E+02 -5.735875E+00 -1.537293E+01 -5.735875E+00 +5.263553E+02 +2.240883E+01 -1.537293E+01 +2.240883E+01 +3.660513E+02 
 +8.704512E+02 -5.609108E+00 -1.247825E+01 -5.609108E+00 +5.202608E+02 +2.146231E+01 -1.247825E+01 +2.146231E+01 +3.811234E+02 
 +8.609091E+02 -9.240576E+00 -7.909446E+00 -9.240576E+00 +5.110988E+02 +1.764891E+01 -7.909446E+00 +1.764891E+01 +3.788783E+02 
 +8.584157E+02 -1.403764E+01 -3.859337E-01 -1.403764E+01 +5.031027E+02 +6.224137E+00 -3.859337E-01 +6.224137E+00 +3.865245E+02 
 +8.527308E+02 +1.534166E+00 -1.417320E+01 +1.534166E+00 +4.834483E+02 +9.816735E+00 -1.417320E+01 +9.816735E+00 +3.781620E+02 
 +8.447601E+02 +4.350297E+00 -1.859680E+01 +4.350297E+00 +4.715601E+02 +1.044409E+01 -1.859680E+01 +1.044409E+01 +3.706319E+02 
 +8.340363E+02 +2.806354E+00 -2.276970E+01 +2.806354E+00 +4.568185E+02 +1.383669E+01 -2.276970E+01 +1.383669E+01 +3.635545E+02 
 +8.482734E+02 +4.656356E+00 -8.236030E-01 +4.656356E+00 +4.481205E+02 +9.897093E+00 -8.236030E-01 +9.897093E+00 +3.554361E+02 
 +8.376998E+02 +1.047988E+01 -4.369380E+00 +1.047988E+01 +4.385903E+02 +3.469329E+00 -4.369380E+00 +3.469329E+00 +3.389487E+02 
 +8.227695E+02 +1.270228E+01 -6.532003E+00 +1.270228E+01 +4.398019E+02 +6.573458E-01 -6.532003E+00 +6.573458E-01 +3.163485E+02 
 +8.319701E+02 +9.090230E+00 -3.710757E+00 +9.090230E+00 +4.580601E+02 +1.032823E+01 -3.710757E+00 +1.032823E+01 +3.022682E+02 
 +8.636435E+02 +1.457037E+00 -1.711057E+00 +1.457037E+00 +4.916045E+02 +1.842902E+01 -1.711057E+00 +1.842902E+01 +3.318189E+02 
 +8.498809E+02 -3.819774E+00 -8.863092E+00 -3.819774E+00 +4.907743E+02 +1.576770E+01 -8.863092E+00 +1.576770E+01 +3.493825E+02 
 +8.362198E+02 -1.243011E+01 -1.031205E+01 -1.243011E+01 +4.858299E+02 +8.250122E+00 -1.031205E+01 +8.250122E+00 +3.455141E+02 
 +8.659984E+02 -2.409364E+00 -3.921180E+00 -2.409364E+00 +5.122249E+02 +9.342796E+00 -3.921180E+00 +9.342796E+00 +3.480510E+02 
 +8.772261E+02 +2.593618E+00 +1.409364E+00 +2.593618E+00 +5.205356E+02 +9.671975E+00 +1.409364E+00 +9.671975E+00 +3.442380E+02 
 +8.747607E+02 -1.257250E+00 +6.091157E+00 -1.257250E+00 +5.121788E+02 +8.948923E+00 +6.091157E+00 +8.948923E+00 +3.355653E+02 
 +8.739836E+02 -2.891333E+00 +5.182606E+00 -2.891333E+00 +5.038727E+02 +1.036416E+01 +5.182606E+00 +1.036416E+01 +3.298415E+02 
 +8.767107E+02 +1.345470E+00 +8.803279E+00 +1.345470E+00 +4.967287E+02 +9.311033E+00 +8.803279E+00 +9.311033E+00 +3.248523E+02 
 +8.821969E+02 +4.869026E+00 +1.233927E+01 +4.869026E+00 +4.896773E+02 +9.467718E+00 +1.233927E+01 +9.467718E+00 +3.335715E+02 
 +8.763783E+02 +1.593638E+00 +6.304287E+00 +1.593638E+00 +4.854402E+02 +1.380363E+01 +6.304287E+00 +1.380363E+01 +3.589605E+02 
 +8.642804E+02 -1.121994E+01 -1.692593E+01 -1.121994E+01 +4.989688E+02 +1.994544E+01 -1.692593E+01 +1.994544E+01 +3.748888E+02 
 +8.728314E+02 -9.483716E+00 -1.777188E+01 -9.483716E+00 +5.175029E+02 +2.884954E+01 -1.777188E+01 +2.884954E+01 +3.858402E+02 
 +8.678511E+02 -7.882566E+00 -1.751490E+01 -7.882566E+00 +5.105699E+02 +2.660275E+01 -1.751490E+01 +2.660275E+01 +3.795736E+02 
 +8.621030E+02 -1.282005E+01 -7.828413E+00 -1.282005E+01 +4.997134E+02 +1.596421E+01 -7.828413E+00 +1.596421E+01 +3.774355E+02 
 +8.582463E+02 -7.993201E+00 -4.221749E+00 -7.993201E+00 +4.978383E+02 +1.304176E+01 -4.221749E+00 +1.304176E+01 +3.791545E+02 
 +8.564348E+02 -5.618798E+00 -1.080603E+01 -5.618798E+00 +4.914853E+02 +1.306109E+01 -1.080603E+01 +1.306109E+01 +3.781304E+02 
 +8.603804E+02 -8.445328E+00 -1.191127E+01 -8.445328E+00 +4.942186E+02 +1.212886E+01 -1.191127E+01 +1.212886E+01 +3.818097E+02 
 +8.694771E+02 -8.272726E+00 -2.149604E+00 -8.272726E+00 +5.066758E+02 +7.443107E+00 -2.149604E+00 +7.443107E+00 +3.782306E+02 
 +8.741778E+02 -2.269832E+00 -1.104951E+00 -2.269832E+00 +5.083730E+02 -2.708465E-01 -1.104951E+00 -2.708465E-01 +3.759815E+02 
 +8.634145E+02 +8.474213E+00 -1.327361E+01 +8.474213E+00 +4.977312E+02 -5.246558E+00 -1.327361E+01 -5.246558E+00 +3.644098E+02 
 +8.456507E+02 +8.492170E+00 -1.049465E+01 +8.492170E+00 +4.726202E+02 -7.404119E+00 -1.049465E+01 -7.404119E+00 +3.449252E+02 
 +8.648702E+02 +7.753177E+00 -6.467960E+00 +7.753177E+00 +4.756385E+02 -3.450529E+00 -6.467960E+00 -3.450529E+00 +3.693247E+02 
 +8.409472E+02 +4.369808E+00 -1.517081E+01 +4.369808E+00 +4.857496E+02 -1.513085E+00 -1.517081E+01 -1.513085E+00 +3.884473E+02 
 +8.422271E+02 -3.279840E+00 -1.510645E+01 -3.279840E+00 +5.055686E+02 +1.727382E+00 -1.510645E+01 +1.727382E+00 +3.874415E+02 
 +8.706825E+02 -1.008609E+00 -5.959912E+00 -1.008609E+00 +5.177981E+02 +4.437031E+00 -5.959912E+00 +4.437031E+00 +3.740405E+02 
 +8.860737E+02 +5.719658E-01 +3.119674E+00 +5.719658E-01 +5.242312E+02 +8.614216E+00 +3.119674E+00 +8.614216E+00 +3.659143E+02 
 +8.819061E+02 -1.262102E+00 +8.072809E+00 -1.262102E+00 +5.201304E+02 +1.209992E+01 +8.072809E+00 +1.209992E+01 +3.529095E+02 
 +8.759539E+02 -3.481239E+00 +7.578418E+00 -3.481239E+00 +5.087583E+02 +1.320411E+01 +7.578418E+00 +1.320411E+01 +3.402743E+02 
 +8.754448E+02 -3.389585E+00 +1.109031E+01 -3.389585E+00 +4.869076E+02 +7.854828E+00 +1.109031E+01 +7.854828E+00 +3.381439E+02 
 +8.572387E+02 -2.351249E+00 +1.171416E+01 -2.351249E+00 +4.561857E+02 +4.164029E+00 +1.171416E+01 +4.164029E+00 +3.445765E+02 
 +8.657846E+02 -2.005015E+00 +1.934046E+00 -2.005015E+00 +4.636439E+02 +4.010104E+00 +1.934046E+00 +4.010104E+00 +3.590823E+02 
 +8.642260E+02 -8.117236E+00 -6.433793E+00 -8.117236E+00 +4.710159E+02 +1.052267E+01 -6.433793E+00 +1.052267E+01 +3.625470E+02 
 +8.690488E+02 -6.677239E+00 -8.294790E+00 -6.677239E+00 +4.917795E+02 +1.991135E+01 -8.294790E+00 +1.991135E+01 +3.724128E+02 
 +8.860694E+02 -8.164063E+00 -1.660612E+01 -8.164063E+00 +5.144900E+02 +2.362808E+01 -1.660612E+01 +2.362808E+01 +3.777330E+02 
 +8.654471E+02 -1.623273E+01 -2.698842E+00 -1.623273E+01 +5.024934E+02 +1.728025E+01 -2.698842E+00 +1.728025E+01 +3.726725E+02 
 +8.484549E+02 -1.002518E+01 +4.186415E+00 -1.002518E+01 +4.887777E+02 +1.627710E+01 +4.186415E+00 +1.627710E+01 +3.725647E+02 
 +8.550006E+02 -8.114057E+00 -9.912712E-01 -8.114057E+00 +4.910546E+02 +1.397086E+01 -9.912712E-01 +1.397086E+01 +3.797145E+02 
 +8.602845E+02 -8.596278E+00 -3.044057E+00 -8.596278E+00 +4.965828E+02 +1.077213E+01 -3.044057E+00 +1.077213E+01 +3.831702E+02 
 +8.587655E+02 -7.261817E+00 -2.383177E+00 -7.261817E+00 +4.966195E+02 +5.838137E+00 -2.383177E+00 +5.838137E+00 +3.800049E+02 
 +8.819690E+02 -7.052094E-01 -5.072303E-01 -7.052094E-01 +5.067512E+02 -2.190231E+00 -5.072303E-01 -2.190231E+00 +4.036710E+02 
 +8.810746E+02 +1.271829E+01 -1.805543E+01 +1.271829E+01 +4.992714E+02 -6.166358E+00 -1.805543E+01 -6.166358E+00 +3.991594E+02 
 +8.682749E+02 +6.269535E+00 -1.692492E+01 +6.269535E+00 +4.953225E+02 -4.259488E+00 -1.692492E+01 -4.259488E+00 +3.789631E+02 
 +8.772907E+02 +3.384646E+00 -1.371807E+01 +3.384646E+00 +5.116062E+02 -1.935674E+00 -1.371807E+01 -1.935674E+00 +4.033135E+02 
 +8.593854E+02 +5.094821E+00 -1.683952E+01 +5.094821E+00 +5.064315E+02 +1.880001E+00 -1.683952E+01 +1.880001E+00 +4.203295E+02 
 +8.551729E+02 +4.942973E+00 -1.511592E+01 +4.942973E+00 +5.178638E+02 +5.165156E+00 -1.511592E+01 +5.165156E+00 +4.236583E+02 
 +8.536086E+02 +1.991539E+00 -1.006760E+01 +1.991539E+00 +5.193688E+02 +8.528827E+00 -1.006760E+01 +8.528827E+00 +3.980057E+02 
 +9.016643E+02 +4.086026E+00 +4.713124E+00 +4.086026E+00 +5.321132E+02 +1.586418E+01 +4.713124E+00 +1.586418E+01 +3.852679E+02 
 +8.978253E+02 +2.748061E+00 +3.763287E+00 +2.748061E+00 +5.256701E+02 +1.490726E+01 +3.763287E+00 +1.490726E+01 +3.662012E+02 
 +8.801561E+02 +4.095589E+00 +7.475218E+00 +4.095589E+00 +5.135872E+02 +9.490253E+00 +7.475218E+00 +9.490253E+00 +3.472235E+02 
 +8.714032E+02 -5.753310E+00 +6.114100E+00 -5.753310E+00 +5.073153E+02 +7.618964E+00 +6.114100E+00 +7.618964E+00 +3.470190E+02 
 +8.417473E+02 -8.227611E+00 -1.729489E+00 -8.227611E+00 +4.859173E+02 +1.695503E-01 -1.729489E+00 +1.695503E-01 +3.416254E+02 
 +8.903091E+02 -5.204075E+00 -2.372208E-02 -5.204075E+00 +4.919853E+02 +4.878620E+00 -2.372208E-02 +4.878620E+00 +3.450831E+02 
 +8.733913E+02 -6.817756E+00 -1.095028E+00 -6.817756E+00 +4.726614E+02 +1.331905E+01 -1.095028E+00 +1.331905E+01 +3.329476E+02 
 +8.762244E+02 -2.346426E+00 -1.502049E+00 -2.346426E+00 +4.763946E+02 +4.643371E+00 -1.502049E+00 +4.643371E+00 +3.447342E+02 
 +8.823480E+02 -3.981962E+00 -7.105342E+00 -3.981962E+00 +4.879157E+02 +3.578865E+00 -7.105342E+00 +3.578865E+00 +3.553073E+02 
 +8.443953E+02 -1.768263E+01 +9.219673E+00 -1.768263E+01 +4.822817E+02 +1.390998E+01 +9.219673E+00 +1.390998E+01 +3.565061E+02 
 +8.428040E+02 -1.358710E+01 +5.582821E+00 -1.358710E+01 +4.823357E+02 +1.646992E+01 +5.582821E+00 +1.646992E+01 +3.653682E+02 
 +8.505781E+02 -1.147362E+01 -1.157398E+00 -1.147362E+01 +4.898886E+02 +1.683414E+01 -1.157398E+00 +1.683414E+01 +3.789158E+02 
 +8.563310E+02 -1.068175E+01 -3.825174E+00 -1.068175E+01 +4.927467E+02 +1.362897E+01 -3.825174E+00 +1.362897E+01 +3.850781E+02 
 +8.678469E+02 -9.470276E+00 -5.509248E+00 -9.470276E+00 +4.983642E+02 +1.125156E+01 -5.509248E+00 +1.125156E+01 +3.941676E+02 
 +8.972221E+02 -4.098501E+00 -4.580271E+00 -4.098501E+00 +5.203144E+02 +8.475611E+00 -4.580271E+00 +8.475611E+00 +4.313742E+02 
 +8.923609E+02 +5.589087E+00 -2.097665E+01 +5.589087E+00 +5.170378E+02 +3.010632E+00 -2.097665E+01 +3.010632E+00 +4.256337E+02 
 +8.744905E+02 +1.608113E+00 -1.563748E+01 +1.608113E+00 +5.033106E+02 -3.253826E+00 -1.563748E+01 -3.253826E+00 +3.941132E+02 
 +8.686754E+02 +9.380882E-01 -1.387776E+01 +9.380882E-01 +5.062206E+02 -3.283788E+00 -1.387776E+01 -3.283788E+00 +4.029924E+02 
 +8.658939E+02 +4.394903E+00 -1.304209E+01 +4.394903E+00 +5.112742E+02 -1.371366E+00 -1.304209E+01 -1.371366E+00 +4.232131E+02 
 +8.701236E+02 +7.197840E+00 -1.033966E+01 +7.197840E+00 +5.254866E+02 -1.449279E-01 -1.033966E+01 -1.449279E-01 +4.384486E+02 
 +8.752970E+02 +8.565328E+00 -6.521058E+00 +8.565328E+00 +5.425562E+02 +8.627509E+00 -6.521058E+00 +8.627509E+00 +4.184788E+02 
 +9.192626E+02 +1.311818E+01 +5.773771E-01 +1.311818E+01 +5.555319E+02 +1.440031E+01 +5.773771E-01 +1.440031E+01 +4.058140E+02 
 +9.070061E+02 +1.221597E+01 -7.343381E+00 +1.221597E+01 +5.298540E+02 +1.019840E+01 -7.343381E+00 +1.019840E+01 +3.943339E+02 
 +8.915526E+02 +6.371565E+00 -3.613142E+00 +6.371565E+00 +5.244132E+02 +2.230222E+00 -3.613142E+00 +2.230222E+00 +3.847804E+02 
 +8.532077E+02 -2.326680E+00 -6.081563E+00 -2.326680E+00 +5.179394E+02 -5.519118E+00 -6.081563E+00 -5.519118E+00 +3.801685E+02 
 +8.324927E+02 -8.754102E+00 -4.067445E+00 -8.754102E+00 +4.964951E+02 +5.105181E+00 -4.067445E+00 +5.105181E+00 +3.589907E+02 
 +8.739077E+02 -1.289255E+01 +5.461654E+00 -1.289255E+01 +4.843125E+02 +2.385931E+01 +5.461654E+00 +2.385931E+01 +3.316606E+02 
 +8.854186E+02 -1.489850E+01 +5.828236E+00 -1.489850E+01 +4.707655E+02 +3.211766E+01 +5.828236E+00 +3.211766E+01 +3.189116E+02 
 +8.872167E+02 -1.148677E+01 +4.392419E+00 -1.148677E+01 +4.736090E+02 +3.967490E+01 +4.392419E+00 +3.967490E+01 +3.227069E+02 
 +8.911561E+02 -1.185229E+01 -4.436414E+00 -1.185229E+01 +4.896226E+02 +3.762682E+01 -4.436414E+00 +3.762682E+01 +3.396139E+02 
 +8.415421E+02 -2.302135E+01 +1.098247E+01 -2.302135E+01 +4.743901E+02 +2.263220E+01 +1.098247E+01 +2.263220E+01 +3.451335E+02 
 +8.394712E+02 -1.880191E+01 +7.321658E+00 -1.880191E+01 +4.859993E+02 +1.628205E+01 +7.321658E+00 +1.628205E+01 +3.548943E+02 
 +8.487256E+02 -1.882089E+01 -9.744232E-01 -1.882089E+01 +4.922101E+02 +1.917280E+01 -9.744232E-01 +1.917280E+01 +3.689523E+02 
 +8.521663E+02 -1.716765E+01 -4.679385E+00 -1.716765E+01 +4.904656E+02 +1.949885E+01 -4.679385E+00 +1.949885E+01 +3.771564E+02 
 +8.587555E+02 -1.913241E+01 -5.036051E+00 -1.913241E+01 +4.899352E+02 +2.132530E+01 -5.036051E+00 +2.132530E+01 +3.775837E+02 
 +9.016099E+02 -9.327820E+00 -4.105008E+00 -9.327820E+00 +5.210266E+02 +2.030818E+01 -4.105008E+00 +2.030818E+01 +4.014789E+02 
 +8.849652E+02 +2.288126E+00 -2.433172E+01 +2.288126E+00 +5.150768E+02 +1.537408E+01 -2.433172E+01 +1.537408E+01 +3.977647E+02 
 +8.704101E+02 +2.146837E+00 -1.756890E+01 +2.146837E+00 +4.989659E+02 +8.956631E+00 -1.756890E+01 +8.956631E+00 +3.881738E+02 
 +8.728285E+02 +3.176111E+00 -1.076364E+01 +3.176111E+00 +5.089190E+02 +9.872295E-01 -1.076364E+01 +9.872295E-01 +3.992855E+02 
 +8.716960E+02 +5.118997E+00 -5.827593E+00 +5.118997E+00 +5.238403E+02 -4.060710E+00 -5.827593E+00 -4.060710E+00 +4.131219E+02 
 +8.682640E+02 +8.138603E+00 -2.360374E+00 +8.138603E+00 +5.157488E+02 +1.518682E+00 -2.360374E+00 +1.518682E+00 +4.177237E+02 
 +8.877042E+02 +1.084375E+01 +2.306993E+00 +1.084375E+01 +5.087791E+02 +1.653047E+01 +2.306993E+00 +1.653047E+01 +4.064692E+02 
 +9.014245E+02 +7.811300E+00 -9.502428E+00 +7.811300E+00 +5.183433E+02 +1.831030E+01 -9.502428E+00 +1.831030E+01 +3.986568E+02 
 +8.939769E+02 +1.141167E+01 -1.838754E+01 +1.141167E+01 +5.297550E+02 +1.180643E+01 -1.838754E+01 +1.180643E+01 +4.040742E+02 
 +8.922535E+02 +5.668225E+00 -1.541328E+01 +5.668225E+00 +5.344993E+02 +1.147947E+01 -1.541328E+01 +1.147947E+01 +4.063893E+02 
 +8.627442E+02 +5.578933E+00 -1.040690E+01 +5.578933E+00 +5.147298E+02 +8.866051E+00 -1.040690E+01 +8.866051E+00 +4.087498E+02 
 +8.402411E+02 +5.669017E+00 -1.849694E+00 +5.669017E+00 +4.988858E+02 +3.767888E+00 -1.849694E+00 +3.767888E+00 +4.000083E+02 
 +8.382276E+02 +1.564650E+00 +1.755424E+00 +1.564650E+00 +4.835425E+02 +1.508588E+00 +1.755424E+00 +1.508588E+00 +3.521164E+02 
 +8.759708E+02 -1.219413E+01 +9.554064E+00 -1.219413E+01 +4.707379E+02 +5.322855E+00 +9.554064E+00 +5.322855E+00 +3.235580E+02 
 +8.809763E+02 -8.775716E+00 +8.821728E+00 -8.775716E+00 +4.480054E+02 +1.581853E+00 +8.821728E+00 +1.581853E+00 +3.119169E+02 
 +8.879587E+02 -2.498715E+00 -6.394465E+00 -2.498715E+00 +4.631172E+02 +1.604015E-02 -6.394465E+00 +1.604015E-02 +3.277117E+02 
 +8.369369E+02 -1.957493E+01 +1.052040E+01 -1.957493E+01 +4.652135E+02 +8.397093E+00 +1.052040E+01 +8.397093E+00 +3.331284E+02 
 +8.506405E+02 -2.425524E+01 +7.482472E+00 -2.425524E+01 +4.984978E+02 +8.140490E+00 +7.482472E+00 +8.140490E+00 +3.525265E+02 
 +8.440558E+02 -2.405616E+01 +2.355475E+00 -2.405616E+01 +4.986754E+02 +1.186583E+01 +2.355475E+00 +1.186583E+01 +3.585955E+02 
 +8.502080E+02 -2.696246E+01 +8.322340E-01 -2.696246E+01 +5.011635E+02 +1.468571E+01 +8.322340E-01 +1.468571E+01 +3.622049E+02 
 +8.588561E+02 -2.350971E+01 +1.988841E-02 -2.350971E+01 +4.955599E+02 +2.007315E+01 +1.988841E-02 +2.007315E+01 +3.376208E+02 
 +9.001547E+02 -7.373366E+00 -7.068843E+00 -7.373366E+00 +5.111912E+02 +2.132317E+01 -7.068843E+00 +2.132317E+01 +3.407286E+02 
 +8.742725E+02 -4.554799E-01 -2.703660E+01 -4.554799E-01 +5.000634E+02 +1.906364E+01 -2.703660E+01 +1.906364E+01 +3.511200E+02 
 +8.697806E+02 +1.585290E+00 -2.008175E+01 +1.585290E+00 +5.057231E+02 +1.696411E+01 -2.008175E+01 +1.696411E+01 +3.592627E+02 
 +8.660868E+02 +7.094831E+00 -9.973642E+00 +7.094831E+00 +5.084020E+02 +7.533265E+00 -9.973642E+00 +7.533265E+00 +3.650985E+02 
 +8.791714E+02 +9.904199E+00 -1.602604E+00 +9.904199E+00 +5.233621E+02 -1.245548E+00 -1.602604E+00 -1.245548E+00 +3.920213E+02 
 +8.743251E+02 +6.185932E+00 -5.787955E-01 +6.185932E+00 +5.186787E+02 +3.656119E+00 -5.787955E-01 +3.656119E+00 +3.963747E+02 
 +9.016362E+02 +6.746100E+00 +4.942512E+00 +6.746100E+00 +5.212646E+02 +2.008095E+01 +4.942512E+00 +2.008095E+01 +4.057307E+02 
 +8.987275E+02 +4.524070E+00 -1.272297E+01 +4.524070E+00 +5.219796E+02 +3.259794E+01 -1.272297E+01 +3.259794E+01 +4.023104E+02 
 +8.809402E+02 +7.220189E+00 -2.015378E+01 +7.220189E+00 +5.198356E+02 +3.668324E+01 -2.015378E+01 +3.668324E+01 +3.770404E+02 
 +8.730352E+02 +3.673298E+00 -1.512716E+01 +3.673298E+00 +5.107801E+02 +3.888812E+01 -1.512716E+01 +3.888812E+01 +3.596557E+02 
 +8.812140E+02 +4.382208E+00 -7.791163E+00 +4.382208E+00 +5.118121E+02 +2.782055E+01 -7.791163E+00 +2.782055E+01 +3.759349E+02 
 +8.488728E+02 +6.245941E+00 -4.604242E+00 +6.245941E+00 +4.996886E+02 +8.888118E+00 -4.604242E+00 +8.888118E+00 +3.978371E+02 
 +8.350883E+02 +7.115953E+00 -1.683812E+00 +7.115953E+00 +4.904013E+02 -6.398401E+00 -1.683812E+00 -6.398401E+00 +4.001088E+02 
 +8.447905E+02 -5.161200E+00 +4.996074E-01 -5.161200E+00 +4.749643E+02 -1.234843E+01 +4.996074E-01 -1.234843E+01 +3.647825E+02 
 +8.762231E+02 -9.101320E+00 +5.185861E+00 -9.101320E+00 +4.628631E+02 -1.003631E+01 +5.185861E+00 -1.003631E+01 +3.398632E+02 
 +8.700655E+02 -9.607815E+00 +2.297352E+00 -9.607815E+00 +4.492797E+02 -2.829164E+00 +2.297352E+00 -2.829164E+00 +3.294337E+02 
 +8.430309E+02 -2.168974E+01 +1.560907E+01 -2.168974E+01 +4.664425E+02 +3.402844E+00 +1.560907E+01 +3.402844E+00 +3.334793E+02 
 +8.482779E+02 -1.866919E+01 +7.545308E+00 -1.866919E+01 +4.949937E+02 +1.417448E+00 +7.545308E+00 +1.417448E+00 +3.566115E+02 
 +8.560803E+02 -2.635698E+01 +5.948320E+00 -2.635698E+01 +5.178369E+02 +3.413277E+00 +5.948320E+00 +3.413277E+00 +3.647763E+02 
 +8.644589E+02 -2.162612E+01 +2.866401E-01 -2.162612E+01 +5.105652E+02 +7.179608E+00 +2.866401E-01 +7.179608E+00 +3.521160E+02 
 +8.900634E+02 -7.403134E+00 -4.091893E+00 -7.403134E+00 +5.179040E+02 +5.443850E+00 -4.091893E+00 +5.443850E+00 +3.323060E+02 
 +9.038240E+02 +1.101900E+00 -1.515789E+01 +1.101900E+00 +5.306329E+02 +2.296930E+00 -1.515789E+01 +2.296930E+00 +3.383215E+02 
 +8.895789E+02 +4.647519E+00 -2.303942E+01 +4.647519E+00 +5.258808E+02 -1.431892E+00 -2.303942E+01 -1.431892E+00 +3.544570E+02 
 +8.819890E+02 +7.382902E+00 -1.293756E+01 +7.382902E+00 +5.223748E+02 -6.252511E+00 -1.293756E+01 -6.252511E+00 +3.471273E+02 
 +8.519417E+02 +6.839863E+00 -2.625726E+00 +6.839863E+00 +4.946889E+02 -7.131957E-01 -2.625726E+00 -7.131957E-01 +3.285407E+02 
 +8.628604E+02 +8.587008E+00 +2.141231E+00 +8.587008E+00 +4.837453E+02 +1.695537E+01 +2.141231E+00 +1.695537E+01 +3.610063E+02 
 +8.674393E+02 +4.056976E+00 -2.683769E+00 +4.056976E+00 +4.847939E+02 +2.675621E+01 -2.683769E+00 +2.675621E+01 +3.903158E+02 
 +8.855021E+02 +4.212070E+00 -1.464734E+00 +4.212070E+00 +5.013650E+02 +2.801446E+01 -1.464734E+00 +2.801446E+01 +4.102976E+02 
 +8.968218E+02 +1.290840E+01 -1.309841E+01 +1.290840E+01 +5.160909E+02 +2.782928E+01 -1.309841E+01 +2.782928E+01 +4.142569E+02 
 +8.876990E+02 +1.520864E+01 -1.513902E+01 +1.520864E+01 +5.155733E+02 +2.936360E+01 -1.513902E+01 +2.936360E+01 +3.817170E+02 
 +8.766237E+02 +6.998961E+00 -9.735189E+00 +6.998961E+00 +5.045734E+02 +3.189883E+01 -9.735189E+00 +3.189883E+01 +3.519922E+02 
 +8.728097E+02 +2.420456E+00 -6.127548E+00 +2.420456E+00 +4.983309E+02 +2.727243E+01 -6.127548E+00 +2.727243E+01 +3.465325E+02 
 +8.680704E+02 +3.491717E+00 +9.460580E-01 +3.491717E+00 +4.976153E+02 +1.376499E+01 +9.460580E-01 +1.376499E+01 +3.793512E+02 
 +8.313251E+02 +2.187994E+00 +4.505883E+00 +2.187994E+00 +4.756626E+02 -5.261719E-01 +4.505883E+00 -5.261719E-01 +4.165153E+02 
 +8.290989E+02 -1.802559E+00 +3.160541E+00 -1.802559E+00 +4.723441E+02 +3.367180E+00 +3.160541E+00 +3.367180E+00 +4.035811E+02 
 +8.613007E+02 +2.856644E+00 +1.077286E+01 +2.856644E+00 +4.962003E+02 +1.321765E+01 +1.077286E+01 +1.321765E+01 +3.684107E+02 
 +8.621286E+02 +7.642066E+00 +6.586178E+00 +7.642066E+00 +4.888055E+02 +1.419668E+01 +6.586178E+00 +1.419668E+01 +3.466971E+02 
 +8.458936E+02 -7.684541E-01 +7.892070E+00 -7.684541E-01 +4.709398E+02 +8.383663E+00 +7.892070E+00 +8.383663E+00 +3.437675E+02 
 +8.229859E+02 +5.381384E+00 +5.741934E+00 +5.381384E+00 +4.679453E+02 -2.771931E-01 +5.741934E+00 -2.771931E-01 +3.608385E+02 
 +8.723099E+02 -8.357360E+00 +3.881840E+00 -8.357360E+00 +5.016221E+02 -3.729787E+00 +3.881840E+00 -3.729787E+00 +3.782091E+02 
 +8.930489E+02 -3.544761E+00 -4.608521E+00 -3.544761E+00 +5.195731E+02 -6.850017E-01 -4.608521E+00 -6.850017E-01 +3.769655E+02 
 +8.981251E+02 -1.127646E+00 -8.459669E+00 -1.127646E+00 +5.214327E+02 -1.376249E+00 -8.459669E+00 -1.376249E+00 +3.621053E+02 
 +8.865418E+02 +3.930388E+00 -1.617219E+01 +3.930388E+00 +5.107726E+02 -5.083475E+00 -1.617219E+01 -5.083475E+00 +3.585882E+02 
 +8.833717E+02 +8.091729E+00 -1.656620E+01 +8.091729E+00 +5.117879E+02 -5.621056E+00 -1.656620E+01 -5.621056E+00 +3.652343E+02 
 +8.777019E+02 +8.539859E+00 -7.704632E+00 +8.539859E+00 +5.049292E+02 -7.773535E+00 -7.704632E+00 -7.773535E+00 +3.604634E+02 
 +8.667993E+02 +6.959109E+00 +2.257082E+00 +6.959109E+00 +5.022285E+02 -1.067818E+01 +2.257082E+00 -1.067818E+01 +3.523663E+02 
 +8.724042E+02 +5.141324E+00 +6.305430E+00 +5.141324E+00 +5.046130E+02 -2.145988E+00 +6.305430E+00 -2.145988E+00 +3.681707E+02 
 +8.802870E+02 +3.760804E+00 -2.677986E+00 +3.760804E+00 +5.008770E+02 +1.250360E+01 -2.677986E+00 +1.250360E+01 +4.041838E+02 
 +8.862245E+02 +3.810612E+00 -7.380972E+00 +3.810612E+00 +5.046933E+02 +1.544527E+01 -7.380972E+00 +1.544527E+01 +4.210384E+02 
 +8.891568E+02 +9.522656E+00 -1.059206E+01 +9.522656E+00 +4.943587E+02 +2.387100E+01 -1.059206E+01 +2.387100E+01 +4.160181E+02 
 +8.842234E+02 +1.282168E+01 -1.115333E+01 +1.282168E+01 +4.778142E+02 +3.453325E+01 -1.115333E+01 +3.453325E+01 +4.027230E+02 
 +8.875551E+02 +9.825334E+00 -7.145620E+00 +9.825334E+00 +4.898424E+02 +3.006414E+01 -7.145620E+00 +3.006414E+01 +3.866810E+02 
 +8.724040E+02 +7.249557E+00 +7.372226E-02 +7.249557E+00 +4.884439E+02 +2.817340E+01 +7.372226E-02 +2.817340E+01 +3.605674E+02 
 +8.696503E+02 +1.805318E+00 +6.728954E+00 +1.805318E+00 +4.856638E+02 +2.157868E+01 +6.728954E+00 +2.157868E+01 +3.767029E+02 
 +8.251193E+02 -8.414435E+00 +9.634276E+00 -8.414435E+00 +4.572768E+02 +7.692786E+00 +9.634276E+00 +7.692786E+00 +4.086848E+02 
 +8.189299E+02 +3.845844E+00 +1.091043E+01 +3.845844E+00 +4.596767E+02 +3.490054E+00 +1.091043E+01 +3.490054E+00 +4.131169E+02 
 +8.388312E+02 +5.271067E+00 +1.058240E+01 +5.271067E+00 +4.824142E+02 +1.968894E+00 +1.058240E+01 +1.968894E+00 +3.894974E+02 
 +8.441563E+02 +6.879292E+00 +5.182410E+00 +6.879292E+00 +4.829532E+02 -2.912575E+00 +5.182410E+00 -2.912575E+00 +3.708058E+02 
 +8.372351E+02 +7.954823E+00 -3.979270E-01 +7.954823E+00 +4.726060E+02 -1.232032E+00 -3.979270E-01 -1.232032E+00 +3.663595E+02 
 +8.418679E+02 +7.957125E+00 +9.220951E-01 +7.957125E+00 +4.784853E+02 -6.763711E-01 +9.220951E-01 -6.763711E-01 +3.868106E+02 
 +8.785735E+02 -5.862241E+00 -1.618497E+00 -5.862241E+00 +4.886194E+02 -2.755806E+00 -1.618497E+00 -2.755806E+00 +3.966369E+02 
 +8.887924E+02 -5.559033E+00 +6.360421E-01 -5.559033E+00 +4.962844E+02 -6.445364E+00 +6.360421E-01 -6.445364E+00 +3.999106E+02 
 +8.792370E+02 -5.603595E+00 -4.928562E+00 -5.603595E+00 +4.954827E+02 -5.911672E+00 -4.928562E+00 -5.911672E+00 +3.799685E+02 
 +8.799594E+02 +3.898186E+00 -1.073589E+01 +3.898186E+00 +5.013444E+02 -6.522707E+00 -1.073589E+01 -6.522707E+00 +3.725566E+02 
 +8.781019E+02 +6.833120E+00 -1.078478E+01 +6.833120E+00 +5.010015E+02 -5.647061E+00 -1.078478E+01 -5.647061E+00 +3.743361E+02 
 +8.770481E+02 +8.600062E+00 -7.058037E+00 +8.600062E+00 +4.991349E+02 -3.595028E+00 -7.058037E+00 -3.595028E+00 +3.764447E+02 
 +8.784873E+02 +9.862838E+00 -1.057113E+00 +9.862838E+00 +5.012720E+02 -5.968586E+00 -1.057113E+00 -5.968586E+00 +3.755030E+02 
 +8.756549E+02 +3.587648E+00 +4.189732E+00 +3.587648E+00 +5.101158E+02 -1.025803E+01 +4.189732E+00 -1.025803E+01 +3.731052E+02 
 +8.807524E+02 +7.813734E-01 -9.642123E-01 +7.813734E-01 +5.184299E+02 -1.694677E+00 -9.642123E-01 -1.694677E+00 +3.891844E+02 
 +8.833934E+02 +1.096518E+00 -2.953198E+00 +1.096518E+00 +5.042288E+02 +1.583663E+01 -2.953198E+00 +1.583663E+01 +3.996394E+02 
 +8.831908E+02 +5.195230E+00 -2.044162E-01 +5.195230E+00 +4.887235E+02 +2.142022E+01 -2.044162E-01 +2.142022E+01 +4.027553E+02 
 +8.890244E+02 +1.019564E+01 -4.828882E+00 +1.019564E+01 +4.784128E+02 +2.240253E+01 -4.828882E+00 +2.240253E+01 +4.059949E+02 
 +8.918406E+02 +9.689206E+00 -7.963355E+00 +9.689206E+00 +4.707510E+02 +1.558279E+01 -7.963355E+00 +1.558279E+01 +3.997549E+02 
 +8.691523E+02 -1.313026E+00 -1.697755E+00 -1.313026E+00 +4.672820E+02 +2.526809E+00 -1.697755E+00 +2.526809E+00 +3.862937E+02 
 +8.521524E+02 -1.159985E+01 +4.542005E+00 -1.159985E+01 +4.682506E+02 -1.061213E-01 +4.542005E+00 -1.061213E-01 +3.886088E+02 
 +8.467379E+02 -2.104839E+01 +8.318045E+00 -2.104839E+01 +4.735516E+02 -5.148105E+00 +8.318045E+00 -5.148105E+00 +4.137068E+02 
 +8.258340E+02 +1.480492E+00 +9.307796E+00 +1.480492E+00 +4.690767E+02 -7.998745E+00 +9.307796E+00 -7.998745E+00 +4.199652E+02 
 +8.333133E+02 +6.441227E+00 +6.222626E+00 +6.441227E+00 +4.780482E+02 -5.759495E+00 +6.222626E+00 -5.759495E+00 +4.126393E+02 
 +8.353688E+02 +4.877712E+00 +3.970428E+00 +4.877712E+00 +4.771132E+02 -6.146087E+00 +3.970428E+00 -6.146087E+00 +3.993212E+02 
 +8.407941E+02 +8.253074E+00 +2.949304E+00 +8.253074E+00 +4.821106E+02 -3.699004E+00 +2.949304E+00 -3.699004E+00 +3.956291E+02 
 +8.368055E+02 -1.468092E+00 +7.734238E-01 -1.468092E+00 +4.491061E+02 -1.344755E+01 +7.734238E-01 -1.344755E+01 +4.001526E+02 
 +8.716406E+02 -1.173995E+01 +2.042466E+00 -1.173995E+01 +4.667458E+02 -8.184125E+00 +2.042466E+00 -8.184125E+00 +4.121828E+02 
 +8.760215E+02 -8.261967E+00 +6.145572E+00 -8.261967E+00 +4.729403E+02 -6.179097E+00 +6.145572E+00 -6.179097E+00 +4.100346E+02 
 +8.749758E+02 -2.434370E+00 -1.126832E+00 -2.434370E+00 +4.835732E+02 -5.352963E+00 -1.126832E+00 -5.352963E+00 +3.874313E+02 
 +8.761292E+02 +1.923492E+00 -5.499298E+00 +1.923492E+00 +4.962611E+02 -6.531177E+00 -5.499298E+00 -6.531177E+00 +3.726533E+02 
 +8.756333E+02 +5.680593E+00 -4.759950E+00 +5.680593E+00 +4.965975E+02 -7.167650E+00 -4.759950E+00 -7.167650E+00 +3.708254E+02 
 +8.757317E+02 +6.848331E+00 -3.703681E+00 +6.848331E+00 +4.968809E+02 -5.178656E+00 -3.703681E+00 -5.178656E+00 +3.707381E+02 
 +8.749882E+02 +8.661660E+00 -1.570792E+00 +8.661660E+00 +4.956406E+02 -5.919679E+00 -1.570792E+00 -5.919679E+00 +3.705415E+02 
 +8.741981E+02 +6.456721E+00 -5.713870E+00 +6.456721E+00 +5.008751E+02 -9.928275E+00 -5.713870E+00 -9.928275E+00 +3.692357E+02 
 +8.743729E+02 -1.802721E+00 -1.177531E+00 -1.802721E+00 +5.053338E+02 -3.826455E+00 -1.177531E+00 -3.826455E+00 +3.753570E+02 
 +8.776032E+02 -3.492377E+00 +6.771035E+00 -3.492377E+00 +4.976503E+02 +1.397630E+01 +6.771035E+00 +1.397630E+01 +3.861617E+02 
 +8.809287E+02 +3.735000E+00 +5.231344E+00 +3.735000E+00 +4.889828E+02 +2.185056E+01 +5.231344E+00 +2.185056E+01 +3.890671E+02 
 +8.842359E+02 +5.091340E+00 +2.614697E+00 +5.091340E+00 +4.820039E+02 +2.232164E+01 +2.614697E+00 +2.232164E+01 +3.892222E+02 
 +8.905201E+02 +6.556459E+00 -6.495644E+00 +6.556459E+00 +4.790404E+02 +1.321795E+01 -6.495644E+00 +1.321795E+01 +4.002228E+02 
 +8.755750E+02 +1.989977E-01 -8.197082E+00 +1.989977E-01 +4.771286E+02 -4.068263E+00 -8.197082E+00 -4.068263E+00 +4.063197E+02 
 +8.629000E+02 -9.436225E+00 -3.080562E-01 -9.436225E+00 +4.804369E+02 -1.077771E+01 -3.080562E-01 -1.077771E+01 +4.031486E+02 
 +8.667608E+02 -1.615116E+01 +6.431474E+00 -1.615116E+01 +4.933771E+02 -1.810880E+01 +6.431474E+00 -1.810880E+01 +4.161477E+02 
 +8.497791E+02 +3.996194E+00 +9.219243E+00 +3.996194E+00 +4.923912E+02 -1.599981E+01 +9.219243E+00 -1.599981E+01 +4.298104E+02 
 +8.384227E+02 +9.340634E+00 +5.784924E+00 +9.340634E+00 +4.838458E+02 -5.173101E+00 +5.784924E+00 -5.173101E+00 +4.279662E+02 
 +8.358577E+02 +9.202381E+00 +1.851649E+00 +9.202381E+00 +4.866737E+02 -3.135452E+00 +1.851649E+00 -3.135452E+00 +4.221694E+02 
 +8.220479E+02 +7.679007E+00 +2.410466E+00 +7.679007E+00 +4.666476E+02 -7.572445E+00 +2.410466E+00 -7.572445E+00 +4.081139E+02 
 +8.548343E+02 +5.158275E+00 -1.650244E+00 +5.158275E+00 +4.997967E+02 +4.224431E+00 -1.650244E+00 +4.224431E+00 +4.309349E+02 
 +8.806432E+02 -7.314673E+00 +4.108834E+00 -7.314673E+00 +4.845970E+02 -3.971253E+00 +4.108834E+00 -3.971253E+00 +4.352389E+02 
 +8.784205E+02 -8.446328E-01 +1.322292E+01 -8.446328E-01 +4.817537E+02 -7.716502E+00 +1.322292E+01 -7.716502E+00 +4.256831E+02 
 +8.776439E+02 +4.912964E+00 +3.970205E+00 +4.912964E+00 +4.911792E+02 -3.769366E+00 +3.970205E+00 -3.769366E+00 +3.901123E+02 
 +8.703121E+02 +3.820946E+00 -3.566332E+00 +3.820946E+00 +4.897632E+02 -8.726922E+00 -3.566332E+00 -8.726922E+00 +3.599155E+02 
 +8.702118E+02 +4.251146E+00 -2.751389E-01 +4.251146E+00 +4.931768E+02 -1.228196E+01 -2.751389E-01 -1.228196E+01 +3.554745E+02 
 +8.712784E+02 +4.887967E+00 +8.393642E-01 +4.887967E+00 +4.919949E+02 -7.852799E+00 +8.393642E-01 -7.852799E+00 +3.571681E+02 
 +8.704950E+02 +7.515047E+00 -2.014354E+00 +7.515047E+00 +4.907472E+02 -6.873297E+00 -2.014354E+00 -6.873297E+00 +3.584878E+02 
 +8.667441E+02 +5.075076E+00 -1.044354E+01 +5.075076E+00 +4.811518E+02 -3.212569E-01 -1.044354E+01 -3.212569E-01 +3.608341E+02 
 +8.657187E+02 -5.802484E+00 -3.040609E+00 -5.802484E+00 +4.700337E+02 +1.989626E+01 -3.040609E+00 +1.989626E+01 +3.735559E+02 
 +8.672467E+02 -5.109086E+00 +1.098609E+01 -5.109086E+00 +4.729344E+02 +2.746974E+01 +1.098609E+01 +2.746974E+01 +3.816378E+02 
 +8.735238E+02 +2.141146E+00 +8.192202E+00 +2.141146E+00 +4.776734E+02 +2.703004E+01 +8.192202E+00 +2.703004E+01 +3.835021E+02 
 +8.754997E+02 +3.022870E+00 +9.517731E+00 +3.022870E+00 +4.733606E+02 +2.568482E+01 +9.517731E+00 +2.568482E+01 +3.884059E+02 
 +8.681296E+02 +3.729550E+00 +6.026987E-02 +3.729550E+00 +4.602176E+02 +2.381875E+01 +6.026987E-02 +2.381875E+01 +3.937197E+02 
 +8.652457E+02 +4.202746E+00 -1.426406E+01 +4.202746E+00 +4.531312E+02 +1.650400E+01 -1.426406E+01 +1.650400E+01 +3.949797E+02 
 +8.615485E+02 -3.871391E+00 -4.443719E+00 -3.871391E+00 +4.614404E+02 +4.794568E-01 -4.443719E+00 +4.794568E-01 +3.880553E+02 
 +8.730683E+02 -8.715220E+00 +5.737833E+00 -8.715220E+00 +4.836439E+02 -1.056262E+01 +5.737833E+00 -1.056262E+01 +3.980987E+02 
 +8.465831E+02 +8.282097E+00 +9.449931E+00 +8.282097E+00 +4.807049E+02 -5.595354E+00 +9.449931E+00 -5.595354E+00 +4.122993E+02 
 +8.356113E+02 +1.162858E+01 +2.178836E+00 +1.162858E+01 +4.820704E+02 +3.864413E+00 +2.178836E+00 +3.864413E+00 +4.245765E+02 
 +8.311274E+02 +1.428300E+01 -7.669959E-01 +1.428300E+01 +4.818529E+02 +3.418787E+00 -7.669959E-01 +3.418787E+00 +4.219454E+02 
 +8.368863E+02 +1.359454E+01 -2.829150E+00 +1.359454E+01 +4.952057E+02 +3.780200E+00 -2.829150E+00 +3.780200E+00 +4.273349E+02 
 +8.430766E+02 -1.472984E+00 -5.039199E+00 -1.472984E+00 +4.774934E+02 +1.326104E+01 -5.039199E+00 +1.326104E+01 +4.170583E+02 
 +8.486000E+02 -2.016707E+00 +2.198205E+00 -2.016707E+00 +4.713756E+02 +1.599650E+01 +2.198205E+00 +1.599650E+01 +4.078107E+02 
 +8.492607E+02 +6.569045E+00 +1.572920E+01 +6.569045E+00 +4.715648E+02 +1.030285E+01 +1.572920E+01 +1.030285E+01 +3.882160E+02 
 +8.685298E+02 +1.098430E+01 +8.631617E+00 +1.098430E+01 +4.860667E+02 +4.250424E+00 +8.631617E+00 +4.250424E+00 +3.631479E+02 
 +8.664886E+02 +5.779132E+00 -2.425485E+00 +5.779132E+00 +4.921619E+02 -3.723712E+00 -2.425485E+00 -3.723712E+00 +3.476426E+02 
 +8.597178E+02 +4.767074E+00 +2.991132E-01 +4.767074E+00 +4.838348E+02 -1.146803E+01 +2.991132E-01 -1.146803E+01 +3.403829E+02 
 +8.678981E+02 +5.437608E+00 +3.073300E+00 +5.437608E+00 +4.898033E+02 -9.640613E+00 +3.073300E+00 -9.640613E+00 +3.431203E+02 
 +8.675891E+02 +6.507163E+00 -1.694442E+00 +6.507163E+00 +4.871315E+02 -6.449638E+00 -1.694442E+00 -6.449638E+00 +3.416191E+02 
 +8.646859E+02 +7.699478E-01 -7.533639E+00 +7.699478E-01 +4.743871E+02 +6.070150E-01 -7.533639E+00 +6.070150E-01 +3.449285E+02 
 +8.682925E+02 -6.990317E+00 -2.939109E+00 -6.990317E+00 +4.709604E+02 +1.924060E+01 -2.939109E+00 +1.924060E+01 +3.633727E+02 
 +8.688783E+02 -3.964758E+00 +7.097745E+00 -3.964758E+00 +4.720512E+02 +2.852029E+01 +7.097745E+00 +2.852029E+01 +3.704924E+02 
 +8.693998E+02 -4.996571E-01 +9.614369E+00 -4.996571E-01 +4.717710E+02 +2.887287E+01 +9.614369E+00 +2.887287E+01 +3.730217E+02 
 +8.700679E+02 +1.977184E+00 +7.476582E+00 +1.977184E+00 +4.726631E+02 +1.287433E+01 +7.476582E+00 +1.287433E+01 +3.843606E+02 
 +8.630821E+02 +1.436659E+00 +4.838432E+00 +1.436659E+00 +4.669147E+02 -5.467593E+00 +4.838432E+00 -5.467593E+00 +3.905050E+02 
 +8.634896E+02 +4.001774E+00 -8.932904E+00 +4.001774E+00 +4.531916E+02 +6.178423E+00 -8.932904E+00 +6.178423E+00 +3.872328E+02 
 +8.609772E+02 +1.208880E+00 -8.389115E+00 +1.208880E+00 +4.414248E+02 +1.706001E+01 -8.389115E+00 +1.706001E+01 +3.747290E+02 
 +8.722450E+02 -3.152743E+00 +2.826185E+00 -3.152743E+00 +4.638919E+02 +1.404762E+01 +2.826185E+00 +1.404762E+01 +3.740360E+02 
 +8.398318E+02 +7.874245E+00 +6.025354E+00 +7.874245E+00 +4.679938E+02 +1.476452E+01 +6.025354E+00 +1.476452E+01 +3.781859E+02 
 +8.276557E+02 +1.450285E+01 -6.320413E+00 +1.450285E+01 +4.772077E+02 +1.247901E+01 -6.320413E+00 +1.247901E+01 +4.050118E+02 
 +8.395020E+02 +1.516380E+01 -2.003810E+00 +1.516380E+01 +4.953742E+02 +9.460774E+00 -2.003810E+00 +9.460774E+00 +4.240478E+02 
 +8.466922E+02 +1.495169E+01 -4.550260E+00 +1.495169E+01 +4.986195E+02 +1.209165E+01 -4.550260E+00 +1.209165E+01 +4.285478E+02 
 +8.575395E+02 -1.515955E+01 -4.041819E+00 -1.515955E+01 +5.108339E+02 +1.995810E+01 -4.041819E+00 +1.995810E+01 +4.153636E+02 
 +8.531838E+02 -1.083752E+01 +3.685680E+00 -1.083752E+01 +5.109480E+02 +2.299607E+01 +3.685680E+00 +2.299607E+01 +3.999893E+02 
 +8.423949E+02 -2.605536E+00 +7.933117E+00 -2.605536E+00 +4.950376E+02 +1.337257E+01 +7.933117E+00 +1.337257E+01 +3.662081E+02 
 +8.652011E+02 +1.315244E+01 +9.508881E+00 +1.315244E+01 +4.877887E+02 -3.192549E-01 +9.508881E+00 -3.192549E-01 +3.422871E+02 
 +8.620827E+02 +6.314136E+00 -9.921149E-01 +6.314136E+00 +4.844473E+02 -1.086477E+01 -9.921149E-01 -1.086477E+01 +3.399218E+02 
 +8.615820E+02 +6.366729E+00 -2.827649E-01 +6.366729E+00 +4.869365E+02 -1.440326E+01 -2.827649E-01 -1.440326E+01 +3.480104E+02 
 +8.621939E+02 +9.474273E+00 +1.940451E+00 +9.474273E+00 +4.843474E+02 -8.831208E+00 +1.940451E+00 -8.831208E+00 +3.395333E+02 
 +8.700963E+02 +7.279294E+00 -7.405589E-01 +7.279294E+00 +4.894522E+02 -6.129823E+00 -7.405589E-01 -6.129823E+00 +3.363961E+02 
 +8.688209E+02 -4.582848E+00 -2.520282E+00 -4.582848E+00 +4.811144E+02 +9.553501E-01 -2.520282E+00 +9.553501E-01 +3.408673E+02 
 +8.695752E+02 -7.492707E+00 -2.109513E+00 -7.492707E+00 +4.748653E+02 +2.326355E+01 -2.109513E+00 +2.326355E+01 +3.495615E+02 
 +8.698567E+02 -4.671744E+00 +3.537392E+00 -4.671744E+00 +4.759709E+02 +3.301442E+01 +3.537392E+00 +3.301442E+01 +3.520914E+02 
 +8.658050E+02 -3.121811E+00 +6.010403E+00 -3.121811E+00 +4.691538E+02 +2.886510E+01 +6.010403E+00 +2.886510E+01 +3.536373E+02 
 +8.605897E+02 +1.467561E+00 +2.550106E+00 +1.467561E+00 +4.621128E+02 +2.396471E+01 +2.550106E+00 +2.396471E+01 +3.604548E+02 
 +8.588821E+02 +3.617947E+00 +1.913731E+00 +3.617947E+00 +4.622329E+02 +1.937329E+01 +1.913731E+00 +1.937329E+01 +3.661085E+02 
 +8.577557E+02 +2.200070E+00 +4.772277E+00 +2.200070E+00 +4.551577E+02 +2.106585E+01 +4.772277E+00 +2.106585E+01 +3.650685E+02 
 +8.533239E+02 +4.479579E-01 -2.110415E+00 +4.479579E-01 +4.445722E+02 +2.991733E+01 -2.110415E+00 +2.991733E+01 +3.589182E+02 
 +8.633847E+02 -3.200529E+00 -1.204308E+01 -3.200529E+00 +4.676993E+02 +2.042537E+01 -1.204308E+01 +2.042537E+01 +3.566567E+02 
 +8.659317E+02 -4.524081E+00 -6.810233E+00 -4.524081E+00 +4.886506E+02 -4.372874E-01 -6.810233E+00 -4.372874E-01 +3.662949E+02 
 +8.295594E+02 +9.966166E+00 -1.223778E+01 +9.966166E+00 +4.775675E+02 -5.030848E+00 -1.223778E+01 -5.030848E+00 +3.819228E+02 
 +8.379838E+02 +1.140011E+01 -6.122560E+00 +1.140011E+01 +4.902381E+02 -6.097668E-01 -6.122560E+00 -6.097668E-01 +4.061002E+02 
 +8.509301E+02 +1.185102E+01 -6.255943E+00 +1.185102E+01 +5.026641E+02 +9.160690E+00 -6.255943E+00 +9.160690E+00 +4.158649E+02 
 +8.417781E+02 -1.625750E+01 -5.994648E+00 -1.625750E+01 +4.995260E+02 +1.260529E+01 -5.994648E+00 +1.260529E+01 +3.895426E+02 
 +8.463106E+02 -4.934682E+00 -2.381974E-01 -4.934682E+00 +5.017851E+02 +1.485647E+01 -2.381974E-01 +1.485647E+01 +3.866219E+02 
 +8.405832E+02 -9.438462E-01 +3.900207E-01 -9.438462E-01 +4.861168E+02 +1.018816E+01 +3.900207E-01 +1.018816E+01 +3.676484E+02 
 +8.599973E+02 +1.638506E+01 +5.847488E+00 +1.638506E+01 +4.776701E+02 -4.473804E+00 +5.847488E+00 -4.473804E+00 +3.539561E+02 
 +8.564300E+02 +1.302873E+01 -2.760195E-01 +1.302873E+01 +4.723425E+02 -1.787002E+01 -2.760195E-01 -1.787002E+01 +3.518215E+02 
 +8.665911E+02 +9.669078E+00 +1.583633E+00 +9.669078E+00 +4.886277E+02 -1.565321E+01 +1.583633E+00 -1.565321E+01 +3.594957E+02 
 +8.672218E+02 +1.266345E+01 -1.415693E+00 +1.266345E+01 +4.926848E+02 -9.123465E+00 -1.415693E+00 -9.123465E+00 +3.520131E+02 
 +8.605245E+02 +5.166407E+00 +1.132550E+00 +5.166407E+00 +4.746616E+02 -5.839390E+00 +1.132550E+00 -5.839390E+00 +3.466790E+02 
 +8.463974E+02 -1.237972E+01 +7.456680E+00 -1.237972E+01 +4.440369E+02 +2.312486E+00 +7.456680E+00 +2.312486E+00 +3.441413E+02 
 +8.589243E+02 -6.873279E+00 -4.357337E+00 -6.873279E+00 +4.453055E+02 +1.863726E+01 -4.357337E+00 +1.863726E+01 +3.473631E+02 
 +8.649492E+02 -3.004934E+00 -2.229494E-01 -3.004934E+00 +4.591706E+02 +2.805414E+01 -2.229494E-01 +2.805414E+01 +3.443935E+02 
 +8.620747E+02 -3.638029E+00 -1.463138E+00 -3.638029E+00 +4.661685E+02 +3.012243E+01 -1.463138E+00 +3.012243E+01 +3.425746E+02 
 +8.609970E+02 -3.773969E-02 +2.150848E-01 -3.773969E-02 +4.656647E+02 +2.332737E+01 +2.150848E-01 +2.332737E+01 +3.400154E+02 
 +8.626365E+02 +3.789233E+00 +8.447290E-01 +3.789233E+00 +4.644133E+02 +1.802661E+01 +8.447290E-01 +1.802661E+01 +3.395162E+02 
 +8.632114E+02 +3.045050E+00 +6.182582E+00 +3.045050E+00 +4.700638E+02 +9.098556E+00 +6.182582E+00 +9.098556E+00 +3.451190E+02 
 +8.520775E+02 +1.051437E+01 -2.599141E+00 +1.051437E+01 +4.813123E+02 -1.094572E+01 -2.599141E+00 -1.094572E+01 +3.494919E+02 
 +8.575276E+02 +1.255299E+01 -2.035708E+01 +1.255299E+01 +4.958614E+02 -1.971555E+01 -2.035708E+01 -1.971555E+01 +3.510651E+02 
 +8.795573E+02 -2.044466E+00 -1.175716E+01 -2.044466E+00 +5.030018E+02 -1.354825E+01 -1.175716E+01 -1.354825E+01 +3.598193E+02 
 +8.325504E+02 +8.128580E+00 -1.354340E+01 +8.128580E+00 +4.775513E+02 -8.513458E+00 -1.354340E+01 -8.513458E+00 +3.596578E+02 
 +8.411447E+02 +5.575349E+00 -1.081308E+01 +5.575349E+00 +4.908803E+02 -2.481637E+00 -1.081308E+01 -2.481637E+00 +3.836651E+02 
 +8.503204E+02 +7.368163E+00 -7.920800E+00 +7.368163E+00 +5.006112E+02 +6.476699E+00 -7.920800E+00 +6.476699E+00 +3.930666E+02 
 +8.434169E+02 -1.550751E+01 -8.974442E+00 -1.550751E+01 +4.898550E+02 +6.171718E+00 -8.974442E+00 +6.171718E+00 +3.807103E+02 
 +8.438252E+02 -6.316529E+00 -6.169547E+00 -6.316529E+00 +4.904163E+02 +7.847619E+00 -6.169547E+00 +7.847619E+00 +3.806856E+02 
 +8.433240E+02 -6.634871E+00 -4.351803E+00 -6.634871E+00 +4.855518E+02 +5.242915E+00 -4.351803E+00 +5.242915E+00 +3.717424E+02 
 +8.658475E+02 +1.067226E+01 +3.236711E+00 +1.067226E+01 +4.938096E+02 -6.474765E+00 +3.236711E+00 -6.474765E+00 +3.733768E+02 
 +8.613512E+02 +1.157936E+01 -6.252359E-01 +1.157936E+01 +4.896662E+02 -1.819628E+01 -6.252359E-01 -1.819628E+01 +3.668118E+02 
 +8.764084E+02 +1.176270E+01 -1.386332E-01 +1.176270E+01 +5.001552E+02 -1.467181E+01 -1.386332E-01 -1.467181E+01 +3.628872E+02 
 +8.750094E+02 +9.632195E+00 -3.831360E+00 +9.632195E+00 +4.946183E+02 -6.269009E+00 -3.831360E+00 -6.269009E+00 +3.628212E+02 
 +8.585708E+02 +7.840609E-01 +4.744310E+00 +7.840609E-01 +4.655353E+02 -2.825155E+00 +4.744310E+00 -2.825155E+00 +3.667494E+02 
 +8.390143E+02 -9.423270E+00 +1.021489E+01 -9.423270E+00 +4.340984E+02 -4.736915E+00 +1.021489E+01 -4.736915E+00 +3.539826E+02 
 +8.338679E+02 -2.723003E+00 -4.671517E+00 -2.723003E+00 +4.097387E+02 -4.806741E+00 -4.671517E+00 -4.806741E+00 +3.368082E+02 
 +8.320920E+02 +2.215561E+00 -6.163708E+00 +2.215561E+00 +4.062034E+02 +3.021579E+00 -6.163708E+00 +3.021579E+00 +3.248065E+02 
 +8.467089E+02 -1.258330E+00 -5.387146E+00 -1.258330E+00 +4.392585E+02 +2.097072E+01 -5.387146E+00 +2.097072E+01 +3.260471E+02 
 +8.591357E+02 -2.786305E+00 -3.909763E+00 -2.786305E+00 +4.580973E+02 +2.289327E+01 -3.909763E+00 +2.289327E+01 +3.242045E+02 
 +8.653134E+02 +3.900548E+00 +7.063140E-01 +3.900548E+00 +4.625713E+02 +1.538761E+01 +7.063140E-01 +1.538761E+01 +3.214038E+02 
 +8.671560E+02 +4.242594E+00 +2.048059E+00 +4.242594E+00 +4.773687E+02 +5.632567E+00 +2.048059E+00 +5.632567E+00 +3.304654E+02 
 +8.458294E+02 +1.398080E+01 -1.162568E+01 +1.398080E+01 +4.867179E+02 -4.134108E+00 -1.162568E+01 -4.134108E+00 +3.366529E+02 
 +8.484546E+02 +1.160191E+01 -1.643345E+01 +1.160191E+01 +4.964257E+02 -1.609426E+01 -1.643345E+01 -1.609426E+01 +3.390446E+02 
 +8.655811E+02 -2.099106E+00 -3.528628E+00 -2.099106E+00 +5.036818E+02 -1.974653E+01 -3.528628E+00 -1.974653E+01 +3.428269E+02 
 +8.293404E+02 +8.449244E+00 -1.225938E+01 +8.449244E+00 +4.856448E+02 -1.303531E+01 -1.225938E+01 -1.303531E+01 +3.463738E+02 
 +8.437354E+02 +2.240855E+00 -1.308324E+01 +2.240855E+00 +4.914341E+02 -4.373476E+00 -1.308324E+01 -4.373476E+00 +3.697582E+02 
 +8.537916E+02 +6.478663E+00 -9.720063E+00 +6.478663E+00 +4.938250E+02 +2.746543E+00 -9.720063E+00 +2.746543E+00 +3.786619E+02 
 +8.400914E+02 -1.533117E+01 -9.899664E+00 -1.533117E+01 +4.758182E+02 +6.235676E+00 -9.899664E+00 +6.235676E+00 +3.708835E+02 
 +8.388852E+02 -8.418731E+00 -1.179317E+01 -8.418731E+00 +4.830772E+02 +8.346064E+00 -1.179317E+01 +8.346064E+00 +3.789555E+02 
 +8.439223E+02 -1.163804E+01 -1.015113E+01 -1.163804E+01 +4.883929E+02 +4.191901E+00 -1.015113E+01 +4.191901E+00 +3.714901E+02 
 +8.647085E+02 +6.923902E+00 -1.831947E-02 +6.923902E+00 +4.997089E+02 -7.715475E+00 -1.831947E-02 -7.715475E+00 +3.694701E+02 
 +8.542463E+02 +9.309934E+00 -6.184161E+00 +9.309934E+00 +4.926086E+02 -1.741095E+01 -6.184161E+00 -1.741095E+01 +3.479146E+02 
 +8.825027E+02 +9.174711E+00 -6.669169E+00 +9.174711E+00 +5.018472E+02 -1.140351E+01 -6.669169E+00 -1.140351E+01 +3.477279E+02 
 +8.721025E+02 -2.452247E-01 -5.557411E+00 -2.452247E-01 +4.772319E+02 -3.648000E+00 -5.557411E+00 -3.648000E+00 +3.584411E+02 
 +8.625790E+02 -5.451969E+00 +6.906619E+00 -5.451969E+00 +4.620918E+02 +3.386548E+00 +6.906619E+00 +3.386548E+00 +3.697940E+02 
 +8.566711E+02 -1.254061E+01 +5.213141E+00 -1.254061E+01 +4.704555E+02 +9.843654E+00 +5.213141E+00 +9.843654E+00 +3.637881E+02 
 +8.534762E+02 -1.088592E+01 -6.342689E-01 -1.088592E+01 +4.762037E+02 +9.406715E+00 -6.342689E-01 +9.406715E+00 +3.497318E+02 
 +8.374299E+02 -4.286780E+00 -1.017930E+01 -4.286780E+00 +4.470171E+02 +1.669584E+01 -1.017930E+01 +1.669584E+01 +3.248147E+02 
 +8.497460E+02 -4.163867E-01 -1.070526E+01 -4.163867E-01 +4.327932E+02 +2.664978E+01 -1.070526E+01 +2.664978E+01 +3.146791E+02 
 +8.552295E+02 -2.646129E+00 -5.034887E+00 -2.646129E+00 +4.424870E+02 +2.658578E+01 -5.034887E+00 +2.658578E+01 +3.113045E+02 
 +8.625898E+02 +1.302086E+00 -3.816564E+00 +1.302086E+00 +4.585146E+02 +1.912500E+01 -3.816564E+00 +1.912500E+01 +3.129879E+02 
 +8.688358E+02 +5.055643E+00 -1.137328E+01 +5.055643E+00 +4.774679E+02 +1.198050E+00 -1.137328E+01 +1.198050E+00 +3.284251E+02 
 +8.544615E+02 +1.802797E+01 -1.752274E+01 +1.802797E+01 +4.884804E+02 -2.057895E+01 -1.752274E+01 -2.057895E+01 +3.456813E+02 
 +8.490989E+02 +1.487647E+01 -9.145435E+00 +1.487647E+01 +4.939809E+02 -2.981848E+01 -9.145435E+00 -2.981848E+01 +3.425555E+02 
 +8.493798E+02 +3.056551E+00 +3.768867E+00 +3.056551E+00 +5.054079E+02 -2.050948E+01 +3.768867E+00 -2.050948E+01 +3.339275E+02 
 +8.265904E+02 +7.351329E+00 -9.592176E+00 +7.351329E+00 +5.007584E+02 -1.056430E+01 -9.592176E+00 -1.056430E+01 +3.405360E+02 
 +8.466643E+02 -2.239690E+00 -1.211486E+01 -2.239690E+00 +4.968719E+02 -6.084688E+00 -1.211486E+01 -6.084688E+00 +3.551469E+02 
 +8.578897E+02 +4.737116E+00 -7.441379E+00 +4.737116E+00 +4.847669E+02 +9.391903E-01 -7.441379E+00 +9.391903E-01 +3.598730E+02 
 +8.293821E+02 -1.780755E+01 -8.404206E+00 -1.780755E+01 +4.676267E+02 +9.732826E+00 -8.404206E+00 +9.732826E+00 +3.681791E+02 
 +8.361579E+02 -1.467232E+01 -2.067026E+01 -1.467232E+01 +4.839308E+02 +1.591492E+01 -2.067026E+01 +1.591492E+01 +3.805395E+02 
 +8.485672E+02 -1.794855E+01 -2.591607E+01 -1.794855E+01 +4.942551E+02 +8.543950E+00 -2.591607E+01 +8.543950E+00 +3.749489E+02 
 +8.694204E+02 +2.061054E+00 -1.264780E+01 +2.061054E+00 +5.102029E+02 -6.213605E+00 -1.264780E+01 -6.213605E+00 +3.711850E+02 
 +8.734080E+02 +7.265254E+00 -1.393673E+01 +7.265254E+00 +5.113490E+02 -1.191123E+01 -1.393673E+01 -1.191123E+01 +3.512721E+02 
 +8.879551E+02 +5.411779E+00 -9.462421E+00 +5.411779E+00 +5.039015E+02 -1.668426E-01 -9.462421E+00 -1.668426E-01 +3.354857E+02 
 +8.707447E+02 -8.306258E+00 -4.872166E+00 -8.306258E+00 +4.814707E+02 +1.238627E+01 -4.872166E+00 +1.238627E+01 +3.346154E+02 
 +8.647550E+02 -8.242637E+00 +3.184408E+00 -8.242637E+00 +4.737151E+02 +1.192592E+01 +3.184408E+00 +1.192592E+01 +3.449803E+02 
 +8.540717E+02 -9.789412E+00 +3.964682E+00 -9.789412E+00 +4.706662E+02 +8.084708E+00 +3.964682E+00 +8.084708E+00 +3.460164E+02 
 +8.428673E+02 -6.933698E+00 -1.364143E+00 -6.933698E+00 +4.703039E+02 +8.936336E+00 -1.364143E+00 +8.936336E+00 +3.346391E+02 
 +8.362096E+02 -4.254174E+00 -8.686549E-01 -4.254174E+00 +4.540662E+02 +1.818612E+01 -8.686549E-01 +1.818612E+01 +3.204632E+02 
 +8.481893E+02 +4.655088E+00 -7.886777E+00 +4.655088E+00 +4.369060E+02 +3.286914E+01 -7.886777E+00 +3.286914E+01 +3.160912E+02 
 +8.517870E+02 +4.985596E+00 -8.038154E+00 +4.985596E+00 +4.421019E+02 +3.660632E+01 -8.038154E+00 +3.660632E+01 +3.109914E+02 
 +8.584326E+02 -5.147746E-01 -5.347929E+00 -5.147746E-01 +4.601326E+02 +3.093745E+01 -5.347929E+00 +3.093745E+01 +3.167530E+02 
 +8.538948E+02 +1.032195E+00 -1.779789E+01 +1.032195E+00 +4.594802E+02 +3.174506E+01 -1.779789E+01 +3.174506E+01 +3.247842E+02 
 +8.477511E+02 +5.009549E+00 -2.145161E+01 +5.009549E+00 +4.551832E+02 +2.623510E+01 -2.145161E+01 +2.623510E+01 +3.402482E+02 
 +8.495862E+02 +9.446222E+00 -1.363457E+01 +9.446222E+00 +4.749472E+02 +4.201463E+00 -1.363457E+01 +4.201463E+00 +3.523110E+02 
 +8.598096E+02 +4.760099E+00 +3.438908E+00 +4.760099E+00 +5.185538E+02 -8.736883E+00 +3.438908E+00 -8.736883E+00 +3.632978E+02 
 +8.462248E+02 +5.650492E+00 -5.819016E-01 +5.650492E+00 +5.184095E+02 -2.659298E+00 -5.819016E-01 -2.659298E+00 +3.731802E+02 
 +8.580579E+02 -1.826812E+00 -7.754836E+00 -1.826812E+00 +5.078200E+02 -3.612292E+00 -7.754836E+00 -3.612292E+00 +3.821236E+02 
 +8.589856E+02 +5.324605E-01 -3.393275E+00 +5.324605E-01 +4.879381E+02 -1.371726E+00 -3.393275E+00 -1.371726E+00 +3.725843E+02 
 +8.329769E+02 -4.153828E+00 -3.481318E+00 -4.153828E+00 +4.666749E+02 +2.102602E+01 -3.481318E+00 +2.102602E+01 +3.534748E+02 
 +8.337924E+02 +4.536718E+00 -2.196304E+01 +4.536718E+00 +4.743207E+02 -3.505442E-01 -2.196304E+01 -3.505442E-01 +3.558713E+02 
 +8.484818E+02 +9.038395E+00 -2.159858E+01 +9.038395E+00 +4.926770E+02 +2.143777E+00 -2.159858E+01 +2.143777E+00 +3.593380E+02 
 +8.689564E+02 +1.585196E+01 -1.201411E+01 +1.585196E+01 +5.062535E+02 +1.550920E+01 -1.201411E+01 +1.550920E+01 +3.674356E+02 
 +8.664583E+02 +8.966686E+00 -2.832440E+00 +8.966686E+00 +4.708402E+02 +2.005563E+01 -2.832440E+00 +2.005563E+01 +3.530438E+02 
 +8.578742E+02 +7.853363E+00 +2.541146E+00 +7.853363E+00 +4.490204E+02 +1.693390E+01 +2.541146E+00 +1.693390E+01 +3.460228E+02 
 +8.619559E+02 +1.543752E+00 +6.329028E+00 +1.543752E+00 +4.633081E+02 +9.313027E+00 +6.329028E+00 +9.313027E+00 +3.500495E+02 
 +8.682591E+02 -5.666349E+00 +1.014962E+01 -5.666349E+00 +4.794911E+02 +1.422018E+01 +1.014962E+01 +1.422018E+01 +3.397972E+02 
 +8.620226E+02 -8.160869E+00 +1.267498E+01 -8.160869E+00 +4.782503E+02 +1.261135E+01 +1.267498E+01 +1.261135E+01 +3.361840E+02 
 +8.529807E+02 -4.531488E+00 +4.306979E+00 -4.531488E+00 +4.726625E+02 +1.005880E+01 +4.306979E+00 +1.005880E+01 +3.394125E+02 
 +8.529103E+02 -2.328007E-01 +8.054431E+00 -2.328007E-01 +4.766622E+02 +9.109570E+00 +8.054431E+00 +9.109570E+00 +3.351607E+02 
 +8.453434E+02 +9.510028E+00 -6.717832E+00 +9.510028E+00 +4.771453E+02 -3.554094E-01 -6.717832E+00 -3.554094E-01 +3.393827E+02 
 +8.464308E+02 +3.461897E+00 -1.785286E+01 +3.461897E+00 +4.737291E+02 -8.847260E+00 -1.785286E+01 -8.847260E+00 +3.253151E+02 
 +8.782460E+02 +4.701284E-02 -1.001402E+01 +4.701284E-02 +4.944062E+02 -8.114540E+00 -1.001402E+01 -8.114540E+00 +3.110899E+02 
 +8.820720E+02 +2.106595E+00 -1.404732E+01 +2.106595E+00 +5.122143E+02 -6.248616E+00 -1.404732E+01 -6.248616E+00 +3.205163E+02 
 +8.807771E+02 +3.422166E+00 -1.320594E+01 +3.422166E+00 +5.204102E+02 -2.882463E-01 -1.320594E+01 -2.882463E-01 +3.455767E+02 
 +8.712710E+02 +7.933705E+00 -1.663519E+01 +7.933705E+00 +5.111151E+02 +1.553212E+01 -1.663519E+01 +1.553212E+01 +3.690914E+02 
 +8.439009E+02 +3.167683E+00 +3.897457E+00 +3.167683E+00 +4.801519E+02 +2.754828E+01 +3.897457E+00 +2.754828E+01 +3.876751E+02 
 +8.276137E+02 -2.857657E+00 +1.035372E+01 -2.857657E+00 +4.643757E+02 +3.119306E+01 +1.035372E+01 +3.119306E+01 +3.903918E+02 
 +8.469895E+02 -5.414826E+00 -1.224888E+00 -5.414826E+00 +4.817512E+02 +3.209207E+01 -1.224888E+00 +3.209207E+01 +3.775040E+02 
 +8.439904E+02 -6.091015E+00 +2.674237E+00 -6.091015E+00 +4.727792E+02 +3.415329E+01 +2.674237E+00 +3.415329E+01 +3.555132E+02 
 +8.386837E+02 -2.538868E+00 -2.153596E+01 -2.538868E+00 +4.767795E+02 -3.235524E+00 -2.153596E+01 -3.235524E+00 +3.586533E+02 
 +8.362569E+02 -3.525502E+00 -2.725399E+01 -3.525502E+00 +4.783565E+02 -2.117793E+00 -2.725399E+01 -2.117793E+00 +3.596724E+02 
 +8.526516E+02 +4.808832E+00 -7.932724E+00 +4.808832E+00 +4.863162E+02 +6.001071E+00 -7.932724E+00 +6.001071E+00 +3.605314E+02 
 +8.543135E+02 +3.363836E+00 +4.177769E-02 +3.363836E+00 +4.714882E+02 +8.474102E+00 +4.177769E-02 +8.474102E+00 +3.551814E+02 
 +8.552075E+02 +1.184144E+00 +3.739676E+00 +1.184144E+00 +4.569802E+02 +1.006177E+01 +3.739676E+00 +1.006177E+01 +3.425169E+02 
 +8.543749E+02 +5.584290E+00 +7.264190E-01 +5.584290E+00 +4.570895E+02 +7.131642E+00 +7.264190E-01 +7.131642E+00 +3.460642E+02 
 +8.549342E+02 +4.417418E-01 +1.351521E+00 +4.417418E-01 +4.546099E+02 +4.513103E+00 +1.351521E+00 +4.513103E+00 +3.541040E+02 
 +8.603066E+02 -1.404824E+00 +1.042738E+01 -1.404824E+00 +4.578462E+02 +7.443658E+00 +1.042738E+01 +7.443658E+00 +3.431370E+02 
 +8.511191E+02 -7.259714E+00 +9.781221E+00 -7.259714E+00 +4.640683E+02 +1.346177E+01 +9.781221E+00 +1.346177E+01 +3.254578E+02 
 +8.588077E+02 -8.476009E+00 +1.054179E+01 -8.476009E+00 +4.769435E+02 +9.127731E+00 +1.054179E+01 +9.127731E+00 +3.262838E+02 
 +8.551184E+02 -7.157499E+00 +4.391254E+00 -7.157499E+00 +4.815595E+02 +5.865757E+00 +4.391254E+00 +5.865757E+00 +3.315114E+02 
 +8.424075E+02 +4.445413E+00 -1.027563E+01 +4.445413E+00 +4.875120E+02 -4.126171E-01 -1.027563E+01 -4.126171E-01 +3.495700E+02 
 +8.430671E+02 +3.027407E+00 -1.200051E+01 +3.027407E+00 +4.918762E+02 -5.480867E+00 -1.200051E+01 -5.480867E+00 +3.289929E+02 
 +8.781718E+02 +6.030550E+00 -6.932112E+00 +6.030550E+00 +5.098338E+02 +7.717903E-01 -6.932112E+00 +7.717903E-01 +3.033495E+02 
 +8.794417E+02 +3.583077E+00 -1.233930E+01 +3.583077E+00 +5.156890E+02 +6.261380E+00 -1.233930E+01 +6.261380E+00 +3.085303E+02 
 +8.680650E+02 +5.567038E+00 -8.433651E+00 +5.567038E+00 +5.136746E+02 +9.230382E+00 -8.433651E+00 +9.230382E+00 +3.262369E+02 
 +8.627657E+02 +9.473926E+00 -8.554073E+00 +9.473926E+00 +5.009087E+02 +1.114403E+01 -8.554073E+00 +1.114403E+01 +3.480102E+02 
 +8.583357E+02 +6.507263E+00 +4.595787E+00 +6.507263E+00 +4.863604E+02 +1.292629E+01 +4.595787E+00 +1.292629E+01 +3.717951E+02 
 +8.556276E+02 +1.461292E-01 +1.133308E+01 +1.461292E-01 +4.858775E+02 +7.137938E+00 +1.133308E+01 +7.137938E+00 +3.974711E+02 
 +8.482059E+02 -4.489828E+00 +9.380676E+00 -4.489828E+00 +4.797034E+02 +9.285325E+00 +9.380676E+00 +9.285325E+00 +3.918385E+02 
 +8.465838E+02 -7.158199E+00 +2.498031E+00 -7.158199E+00 +4.760016E+02 +8.710633E+00 +2.498031E+00 +8.710633E+00 +3.632279E+02 
 +8.320608E+02 -6.510273E+00 -2.346666E+01 -6.510273E+00 +4.660491E+02 -1.043820E+01 -2.346666E+01 -1.043820E+01 +3.695245E+02 
 +8.278405E+02 -6.312480E+00 -2.095827E+01 -6.312480E+00 +4.592899E+02 -2.604378E+00 -2.095827E+01 -2.604378E+00 +3.638806E+02 
 +8.396342E+02 +2.098614E-01 -6.682625E+00 +2.098614E-01 +4.475068E+02 +9.051477E-01 -6.682625E+00 +9.051477E-01 +3.576092E+02 
 +8.506585E+02 -2.813018E+00 +8.448052E+00 -2.813018E+00 +4.466639E+02 +5.427052E+00 +8.448052E+00 +5.427052E+00 +3.511958E+02 
 +8.492286E+02 -2.449323E+00 +7.649039E+00 -2.449323E+00 +4.513730E+02 +7.490538E+00 +7.649039E+00 +7.490538E+00 +3.378972E+02 
 +8.455540E+02 +3.056540E+00 +9.749220E-01 +3.056540E+00 +4.524045E+02 +5.533600E+00 +9.749220E-01 +5.533600E+00 +3.394054E+02 
 +8.525382E+02 -5.982208E-01 -2.179065E+00 -5.982208E-01 +4.634000E+02 +6.323986E+00 -2.179065E+00 +6.323986E+00 +3.430387E+02 
 +8.639198E+02 -5.149121E+00 +2.774152E-01 -5.149121E+00 +4.755426E+02 +1.155942E+01 +2.774152E-01 +1.155942E+01 +3.325009E+02 
 +8.534367E+02 -1.156898E+01 +4.563626E+00 -1.156898E+01 +4.740032E+02 +5.308321E+00 +4.563626E+00 +5.308321E+00 +3.222166E+02 
 +8.564862E+02 -1.373784E+01 +6.064601E+00 -1.373784E+01 +4.818633E+02 +9.892009E-02 +6.064601E+00 +9.892009E-02 +3.219615E+02 
 +8.521342E+02 -1.186075E+01 +3.735271E-01 -1.186075E+01 +4.860519E+02 +2.171058E+00 +3.735271E-01 +2.171058E+00 +3.219416E+02 
 +8.408756E+02 +5.416664E-01 -9.455219E+00 +5.416664E-01 +4.923533E+02 +4.708810E+00 -9.455219E+00 +4.708810E+00 +3.295540E+02 
 +8.558841E+02 +2.166463E+00 -3.328659E+00 +2.166463E+00 +5.069451E+02 +1.085794E+01 -3.328659E+00 +1.085794E+01 +3.185544E+02 
 +8.729901E+02 +6.062127E+00 -2.708350E+00 +6.062127E+00 +5.132495E+02 +1.306785E+01 -2.708350E+00 +1.306785E+01 +3.084968E+02 
 +8.765306E+02 +5.525657E+00 -6.997274E+00 +5.525657E+00 +5.120832E+02 +1.287235E+01 -6.997274E+00 +1.287235E+01 +3.145750E+02 
 +8.727415E+02 +7.573144E+00 -5.879518E+00 +7.573144E+00 +5.102924E+02 +1.389408E+01 -5.879518E+00 +1.389408E+01 +3.213546E+02 
 +8.711041E+02 +6.409548E+00 -3.817425E+00 +6.409548E+00 +5.079397E+02 +1.453199E+01 -3.817425E+00 +1.453199E+01 +3.397235E+02 
 +8.660457E+02 +5.770777E+00 -1.772829E+00 +5.770777E+00 +4.989275E+02 +2.146645E+01 -1.772829E+00 +2.146645E+01 +3.513661E+02 
 +8.558673E+02 +1.532655E+00 -2.986410E+00 +1.532655E+00 +4.960150E+02 +1.567145E+01 -2.986410E+00 +1.567145E+01 +3.667331E+02 
 +8.552384E+02 -8.726750E+00 +5.402294E+00 -8.726750E+00 +4.996324E+02 -8.439094E+00 +5.402294E+00 -8.439094E+00 +3.890239E+02 
 +8.486769E+02 -1.494053E+01 +5.128733E+00 -1.494053E+01 +4.827973E+02 -1.773490E+01 +5.128733E+00 -1.773490E+01 +3.809940E+02 
 +8.466988E+02 -1.521703E+00 -8.495926E+00 -1.521703E+00 +4.798971E+02 -1.441559E+00 -8.495926E+00 -1.441559E+00 +3.743171E+02 
 +8.307683E+02 -4.331650E-01 -1.402513E+01 -4.331650E-01 +4.577215E+02 +4.676970E+00 -1.402513E+01 +4.676970E+00 +3.545772E+02 
 +8.277761E+02 -1.749660E+00 -7.501092E+00 -1.749660E+00 +4.454138E+02 +8.090821E+00 -7.501092E+00 +8.090821E+00 +3.502919E+02 
 +8.539627E+02 -2.300390E+00 +9.901336E+00 -2.300390E+00 +4.496872E+02 +6.677035E+00 +9.901336E+00 +6.677035E+00 +3.569746E+02 
 +8.453402E+02 -2.514066E+00 +7.428850E+00 -2.514066E+00 +4.422879E+02 +7.751794E+00 +7.428850E+00 +7.751794E+00 +3.378250E+02 
 +8.432593E+02 +3.353824E+00 -3.591749E-01 +3.353824E+00 +4.485929E+02 +4.178246E+00 -3.591749E-01 +4.178246E+00 +3.383491E+02 
 +8.440691E+02 +3.882839E+00 -5.617135E+00 +3.882839E+00 +4.589534E+02 +2.969057E+00 -5.617135E+00 +2.969057E+00 +3.339881E+02 
 +8.438413E+02 -2.077318E+00 -6.518897E+00 -2.077318E+00 +4.597071E+02 +1.131547E+01 -6.518897E+00 +1.131547E+01 +3.140836E+02 
 +8.476816E+02 -6.364596E+00 -2.186242E+00 -6.364596E+00 +4.665373E+02 +1.363681E+01 -2.186242E+00 +1.363681E+01 +3.182999E+02 
 +8.457174E+02 -1.252801E+01 -2.771696E-01 -1.252801E+01 +4.754248E+02 +7.557835E+00 -2.771696E-01 +7.557835E+00 +3.266307E+02 
 +8.503887E+02 -9.625828E+00 -5.189906E-01 -9.625828E+00 +4.931834E+02 +6.328502E+00 -5.189906E-01 +6.328502E+00 +3.278146E+02 
 +8.633236E+02 +3.312746E+00 +6.164185E-01 +3.312746E+00 +5.133956E+02 +1.197891E+01 +6.164185E-01 +1.197891E+01 +3.318541E+02 
 +8.666523E+02 +2.349159E+00 +3.171748E+00 +2.349159E+00 +5.125666E+02 +1.267178E+01 +3.171748E+00 +1.267178E+01 +3.204735E+02 
 +8.692925E+02 +2.248813E+00 +4.979143E-01 +2.248813E+00 +5.086708E+02 +1.079674E+01 +4.979143E-01 +1.079674E+01 +3.157790E+02 
 +8.753739E+02 +3.630673E+00 -1.046463E+00 +3.630673E+00 +5.068439E+02 +1.254903E+01 -1.046463E+00 +1.254903E+01 +3.190757E+02 
 +8.770687E+02 +7.078548E+00 +1.492072E-01 +7.078548E+00 +5.045085E+02 +1.579606E+01 +1.492072E-01 +1.579606E+01 +3.173073E+02 
 +8.799173E+02 +8.308714E+00 +9.798809E-01 +8.308714E+00 +5.159393E+02 +2.198366E+01 +9.798809E-01 +2.198366E+01 +3.206420E+02 
 +8.757795E+02 +4.463868E+00 -1.123758E+01 +4.463868E+00 +5.292918E+02 +3.113565E+01 -1.123758E+01 +3.113565E+01 +3.414649E+02 
 +8.640999E+02 -3.943137E+00 -1.763153E+01 -3.943137E+00 +5.226320E+02 +3.459360E+01 -1.763153E+01 +3.459360E+01 +3.644548E+02 
 +8.663401E+02 -1.088941E+01 -1.143228E+01 -1.088941E+01 +5.175263E+02 +2.277375E+01 -1.143228E+01 +2.277375E+01 +3.779565E+02 
 +8.532157E+02 -1.606970E+01 +1.070283E+01 -1.606970E+01 +5.013276E+02 +2.911626E+00 +1.070283E+01 +2.911626E+00 +3.775526E+02 
 +8.501119E+02 -2.211317E+00 +5.434605E-01 -2.211317E+00 +4.872669E+02 +6.310210E+00 +5.434605E-01 +6.310210E+00 +3.764764E+02 
 +8.474191E+02 -1.907628E+00 -5.904444E+00 -1.907628E+00 +4.834824E+02 +8.675356E+00 -5.904444E+00 +8.675356E+00 +3.690157E+02 
 +8.342496E+02 -5.892145E+00 -6.395091E+00 -5.892145E+00 +4.664781E+02 +1.162739E+01 -6.395091E+00 +1.162739E+01 +3.608937E+02 
 +8.503713E+02 +8.983345E-01 +8.610191E-01 +8.983345E-01 +4.534035E+02 +9.323642E+00 +8.610191E-01 +9.323642E+00 +3.581532E+02 
 +8.352256E+02 +2.494992E+00 -1.643676E+00 +2.494992E+00 +4.350656E+02 +8.046150E+00 -1.643676E+00 +8.046150E+00 +3.335518E+02 
 +8.299362E+02 +5.290738E+00 -8.242842E+00 +5.290738E+00 +4.373434E+02 +4.323320E+00 -8.242842E+00 +4.323320E+00 +3.272997E+02 
 +8.382971E+02 +3.814401E+00 -5.655861E+00 +3.814401E+00 +4.506129E+02 +2.726811E+00 -5.655861E+00 +2.726811E+00 +3.354990E+02 
 +8.511555E+02 -2.937238E+00 -6.107162E+00 -2.937238E+00 +4.684007E+02 +1.029401E+01 -6.107162E+00 +1.029401E+01 +3.399977E+02 
 +8.498109E+02 -6.688238E+00 -8.753668E+00 -6.688238E+00 +4.768791E+02 +1.284057E+01 -8.753668E+00 +1.284057E+01 +3.465775E+02 
 +8.429129E+02 -1.172200E+01 -9.870267E+00 -1.172200E+01 +4.814124E+02 +9.835096E+00 -9.870267E+00 +9.835096E+00 +3.508034E+02 
 +8.697227E+02 +1.543604E+00 -1.576588E+00 +1.543604E+00 +5.089300E+02 +4.009177E+00 -1.576588E+00 +4.009177E+00 +3.489675E+02 
 +8.731187E+02 +7.159532E+00 +5.133529E+00 +7.159532E+00 +5.161976E+02 +3.860921E+00 +5.133529E+00 +3.860921E+00 +3.386676E+02 
 +8.703845E+02 +2.782889E+00 +7.406802E+00 +2.782889E+00 +5.135879E+02 +7.256718E+00 +7.406802E+00 +7.256718E+00 +3.349019E+02 
 +8.703419E+02 -2.779273E-01 +6.342850E+00 -2.779273E-01 +5.102953E+02 +9.832782E+00 +6.342850E+00 +9.832782E+00 +3.312634E+02 
 +8.718487E+02 -9.251955E-01 +6.789131E+00 -9.251955E-01 +5.006872E+02 +1.174988E+01 +6.789131E+00 +1.174988E+01 +3.218374E+02 
 +8.825878E+02 +4.971136E+00 +9.989721E+00 +4.971136E+00 +5.020840E+02 +1.637145E+01 +9.989721E+00 +1.637145E+01 +3.126059E+02 
 +8.757051E+02 +6.741461E+00 +5.038060E+00 +6.741461E+00 +5.041148E+02 +2.248747E+01 +5.038060E+00 +2.248747E+01 +3.130872E+02 
 +8.581718E+02 -2.677953E+00 -1.768611E+01 -2.677953E+00 +4.989131E+02 +2.742418E+01 -1.768611E+01 +2.742418E+01 +3.390203E+02 
 +8.643497E+02 -4.729746E+00 -2.021558E+01 -4.729746E+00 +5.023755E+02 +3.042184E+01 -2.021558E+01 +3.042184E+01 +3.670301E+02 
 +8.805641E+02 -3.822069E+00 -1.400004E+01 -3.822069E+00 +5.128064E+02 +2.250359E+01 -1.400004E+01 +2.250359E+01 +3.793546E+02 
 +8.473715E+02 -1.290191E+01 +8.680198E+00 -1.290191E+01 +4.917895E+02 +1.127735E+01 +8.680198E+00 +1.127735E+01 +3.720940E+02 
 +8.460056E+02 -4.681074E+00 +7.595410E-01 -4.681074E+00 +4.894864E+02 +1.070499E+01 +7.595410E-01 +1.070499E+01 +3.823921E+02 
 +8.498271E+02 -1.476836E+00 -3.896181E+00 -1.476836E+00 +4.863303E+02 +1.137686E+01 -3.896181E+00 +1.137686E+01 +3.795273E+02 
 +8.555700E+02 -6.982580E+00 -6.131853E+00 -6.982580E+00 +4.941780E+02 +9.246787E+00 -6.131853E+00 +9.246787E+00 +3.792516E+02 
 +8.663743E+02 -6.425026E+00 -9.128579E+00 -6.425026E+00 +5.079109E+02 +2.130954E+00 -9.128579E+00 +2.130954E+00 +3.780426E+02 
 +8.620423E+02 -2.724414E+00 -5.865374E+00 -2.724414E+00 +4.969750E+02 -7.738098E-01 -5.865374E+00 -7.738098E-01 +3.620427E+02 
 +8.510128E+02 +5.666214E+00 -1.797217E+01 +5.666214E+00 +4.860076E+02 -2.552069E+00 -1.797217E+01 -2.552069E+00 +3.485624E+02 
 +8.589580E+02 +3.669152E+00 -6.264304E+00 +3.669152E+00 +4.864049E+02 -8.476834E+00 -6.264304E+00 -8.476834E+00 +3.609449E+02 
 +8.632877E+02 +3.483988E-01 -1.223425E+01 +3.483988E-01 +4.850706E+02 -1.034888E+01 -1.223425E+01 -1.034888E+01 +3.742413E+02 
 +8.578264E+02 -2.584931E+00 -1.963182E+01 -2.584931E+00 +4.951966E+02 -9.408123E+00 -1.963182E+01 -9.408123E+00 +3.818376E+02 
 +8.606488E+02 -5.545723E+00 -1.726039E+01 -5.545723E+00 +5.091300E+02 -1.692259E+00 -1.726039E+01 -1.692259E+00 +3.850561E+02 
 +8.854932E+02 +3.329689E+00 -6.180708E+00 +3.329689E+00 +5.182964E+02 +4.341184E+00 -6.180708E+00 +4.341184E+00 +3.723245E+02 
 +8.757920E+02 +5.899904E+00 +4.506060E+00 +5.899904E+00 +5.109188E+02 +7.100569E+00 +4.506060E+00 +7.100569E+00 +3.502933E+02 
 +8.759604E+02 +3.601664E+00 +1.113636E+01 +3.601664E+00 +5.162067E+02 +1.057608E+01 +1.113636E+01 +1.057608E+01 +3.482689E+02 
 +8.743116E+02 +2.217743E-01 +1.022747E+01 +2.217743E-01 +5.134911E+02 +9.921976E+00 +1.022747E+01 +9.921976E+00 +3.423366E+02 
 +8.628267E+02 -2.105082E+00 +1.254978E+01 -2.105082E+00 +4.938489E+02 +7.798905E+00 +1.254978E+01 +7.798905E+00 +3.240605E+02 
 +8.496644E+02 -5.537221E-01 +1.007908E+01 -5.537221E-01 +4.697735E+02 +2.657900E+00 +1.007908E+01 +2.657900E+00 +3.014143E+02 
 +8.667624E+02 -2.301993E+00 +1.016935E+00 -2.301993E+00 +4.730935E+02 -1.137213E+01 +1.016935E+00 -1.137213E+01 +3.158863E+02 
 +8.601273E+02 -5.261256E+00 -8.037887E+00 -5.261256E+00 +4.696473E+02 -1.687807E+01 -8.037887E+00 -1.687807E+01 +3.374865E+02 
 +8.650956E+02 -3.116206E+00 -1.095073E+01 -3.116206E+00 +4.744859E+02 -6.476031E+00 -1.095073E+01 -6.476031E+00 +3.449648E+02 
 +8.835572E+02 -3.046849E+00 -1.057236E+01 -3.046849E+00 +4.945724E+02 +2.995749E+00 -1.057236E+01 +2.995749E+00 +3.612448E+02 
 +8.399751E+02 -1.605479E+01 +7.287819E+00 -1.605479E+01 +4.831292E+02 +7.409069E+00 +7.287819E+00 +7.409069E+00 +3.688494E+02 
 +8.436562E+02 -9.764729E+00 +1.897110E+00 -9.764729E+00 +4.867957E+02 +1.336877E+01 +1.897110E+00 +1.336877E+01 +3.805766E+02 
 +8.512654E+02 -7.767548E+00 -3.351250E+00 -7.767548E+00 +4.911512E+02 +1.356840E+01 -3.351250E+00 +1.356840E+01 +3.838264E+02 
 +8.554236E+02 -9.080736E+00 -6.773240E+00 -9.080736E+00 +4.965941E+02 +1.130119E+01 -6.773240E+00 +1.130119E+01 +3.819322E+02 
 +8.606373E+02 -6.916100E+00 -1.131771E+01 -6.916100E+00 +5.056519E+02 +3.941672E+00 -1.131771E+01 +3.941672E+00 +3.824351E+02 
 +8.664612E+02 -3.155458E+00 -3.460306E+00 -3.155458E+00 +5.091754E+02 -4.519632E+00 -3.460306E+00 -4.519632E+00 +3.855143E+02 
 +8.599703E+02 +7.525917E+00 -2.170504E+01 +7.525917E+00 +4.979422E+02 -8.665520E+00 -2.170504E+01 -8.665520E+00 +3.760845E+02 
 +8.704190E+02 +2.717860E+00 -1.105874E+01 +2.717860E+00 +5.040442E+02 -8.385646E+00 -1.105874E+01 -8.385646E+00 +3.818212E+02 
 +8.741440E+02 +8.406937E-01 -1.672968E+01 +8.406937E-01 +5.135929E+02 -3.964926E+00 -1.672968E+01 -3.964926E+00 +4.034068E+02 
 +8.800298E+02 +4.021248E-01 -2.354749E+01 +4.021248E-01 +5.183230E+02 -5.616733E+00 -2.354749E+01 -5.616733E+00 +4.214633E+02 
 +8.792860E+02 +2.268278E+00 -1.939359E+01 +2.268278E+00 +5.232721E+02 -5.393576E+00 -1.939359E+01 -5.393576E+00 +4.182456E+02 
 +8.801646E+02 +4.051562E+00 -1.072826E+01 +4.051562E+00 +5.245799E+02 -6.706386E-01 -1.072826E+01 -6.706386E-01 +4.015296E+02 
 +9.080508E+02 +1.022848E+01 +6.574346E+00 +1.022848E+01 +5.324793E+02 +3.074021E+00 +6.574346E+00 +3.074021E+00 +3.866998E+02 
 +8.920689E+02 +9.757610E+00 +8.653543E+00 +9.757610E+00 +5.239269E+02 +7.066976E+00 +8.653543E+00 +7.066976E+00 +3.722974E+02 
 +8.751239E+02 +3.770185E+00 +6.945647E+00 +3.770185E+00 +5.150034E+02 +7.742956E+00 +6.945647E+00 +7.742956E+00 +3.661510E+02 
 +8.585715E+02 -5.843744E+00 +7.989178E+00 -5.843744E+00 +5.048876E+02 +5.922006E+00 +7.989178E+00 +5.922006E+00 +3.456335E+02 
 +8.257281E+02 -6.619132E+00 -1.164649E+00 -6.619132E+00 +4.779957E+02 -3.878680E+00 -1.164649E+00 -3.878680E+00 +3.270996E+02 
 +9.024290E+02 -8.519702E+00 +6.157445E-01 -8.519702E+00 +4.985408E+02 -1.372673E+01 +6.157445E-01 -1.372673E+01 +3.558680E+02 
 +8.848210E+02 -1.010142E+01 +3.276848E+00 -1.010142E+01 +4.756631E+02 -1.733170E+01 +3.276848E+00 -1.733170E+01 +3.451826E+02 
 +8.853908E+02 -8.341101E+00 -3.148588E+00 -8.341101E+00 +4.769970E+02 -1.686872E+01 -3.148588E+00 -1.686872E+01 +3.519506E+02 
 +8.913251E+02 -4.233230E+00 -6.047387E+00 -4.233230E+00 +4.902293E+02 -6.811217E+00 -6.047387E+00 -6.811217E+00 +3.690958E+02 
 +8.362368E+02 -2.010958E+01 +1.144447E+01 -2.010958E+01 +4.757685E+02 +6.206475E+00 +1.144447E+01 +6.206475E+00 +3.669456E+02 
 +8.415167E+02 -1.302324E+01 +4.154083E+00 -1.302324E+01 +4.856931E+02 +1.204589E+01 +4.154083E+00 +1.204589E+01 +3.742971E+02 
 +8.478748E+02 -1.202386E+01 -1.899677E+00 -1.202386E+01 +4.935779E+02 +1.435652E+01 -1.899677E+00 +1.435652E+01 +3.813330E+02 
 +8.553405E+02 -1.190965E+01 -6.405642E+00 -1.190965E+01 +4.964935E+02 +1.407791E+01 -6.405642E+00 +1.407791E+01 +3.827800E+02 
 +8.643605E+02 -1.012370E+01 -1.256152E+01 -1.012370E+01 +5.012597E+02 +1.082471E+01 -1.256152E+01 +1.082471E+01 +3.882772E+02 
 +8.612987E+02 -8.537730E+00 -4.118815E+00 -8.537730E+00 +4.992300E+02 +5.096561E+00 -4.118815E+00 +5.096561E+00 +3.947681E+02 
 +8.614034E+02 +5.045444E+00 -2.214347E+01 +5.045444E+00 +4.973605E+02 +1.863280E+00 -2.214347E+01 +1.863280E+00 +3.911069E+02 
 +8.684110E+02 +3.714569E+00 -1.276106E+01 +3.714569E+00 +5.015073E+02 -6.300704E-01 -1.276106E+01 -6.300704E-01 +3.850725E+02 
 +8.757050E+02 +6.477617E+00 -1.437048E+01 +6.477617E+00 +5.118682E+02 -4.471269E+00 -1.437048E+01 -4.471269E+00 +4.012602E+02 
 +8.886232E+02 +7.550831E+00 -1.506751E+01 +7.550831E+00 +5.262038E+02 -8.420837E+00 -1.506751E+01 -8.420837E+00 +4.258334E+02 
 +8.900518E+02 +9.931848E+00 -1.109905E+01 +9.931848E+00 +5.321677E+02 -9.622145E+00 -1.109905E+01 -9.622145E+00 +4.338162E+02 
 +8.947959E+02 +1.322124E+01 -9.905904E+00 +1.322124E+01 +5.423047E+02 -4.410338E+00 -9.905904E+00 -4.410338E+00 +4.347206E+02 
 +9.279067E+02 +1.843949E+01 +5.886960E-01 +1.843949E+01 +5.506826E+02 +6.708610E+00 +5.886960E-01 +6.708610E+00 +4.199519E+02 
 +8.965194E+02 +1.272531E+01 -5.141159E+00 +1.272531E+01 +5.248530E+02 +1.229922E+01 -5.141159E+00 +1.229922E+01 +3.935929E+02 
 +8.708027E+02 +2.162275E+00 -3.991021E+00 +2.162275E+00 +5.200290E+02 +7.942168E+00 -3.991021E+00 +7.942168E+00 +3.969932E+02 
 +8.518853E+02 -5.710646E+00 -5.308668E-01 -5.710646E+00 +5.121386E+02 +3.590947E+00 -5.308668E-01 +3.590947E+00 +3.822079E+02 
 +8.174704E+02 -1.068941E+01 -4.776238E+00 -1.068941E+01 +4.726915E+02 -1.623393E+00 -4.776238E+00 -1.623393E+00 +3.522938E+02 
 +8.805239E+02 -1.340244E+01 +6.244087E+00 -1.340244E+01 +4.759781E+02 -1.234956E+01 +6.244087E+00 -1.234956E+01 +3.589041E+02 
 +8.997623E+02 -1.436536E+01 +1.139816E+01 -1.436536E+01 +4.736755E+02 -1.494937E+01 +1.139816E+01 -1.494937E+01 +3.495235E+02 
 +8.988965E+02 -1.359655E+01 +3.597690E+00 -1.359655E+01 +4.774549E+02 -3.635159E+00 +3.597690E+00 -3.635159E+00 +3.475351E+02 
 +8.986072E+02 -7.325776E+00 -1.756584E+00 -7.325776E+00 +4.898950E+02 +5.806620E+00 -1.756584E+00 +5.806620E+00 +3.603291E+02 
 +8.391700E+02 -2.137381E+01 +1.442579E+01 -2.137381E+01 +4.723999E+02 +8.306861E+00 +1.442579E+01 +8.306861E+00 +3.578778E+02 
 +8.411168E+02 -1.715267E+01 +7.344471E+00 -1.715267E+01 +4.915617E+02 +8.058314E+00 +7.344471E+00 +8.058314E+00 +3.689322E+02 
 +8.484132E+02 -1.797081E+01 +1.064212E+00 -1.797081E+01 +4.983008E+02 +1.213516E+01 +1.064212E+00 +1.213516E+01 +3.770740E+02 
 +8.548823E+02 -1.798618E+01 -3.424915E+00 -1.798618E+01 +4.997608E+02 +1.494470E+01 -3.424915E+00 +1.494470E+01 +3.775791E+02 
 +8.648261E+02 -1.685541E+01 -9.588038E+00 -1.685541E+01 +5.025614E+02 +1.640632E+01 -9.588038E+00 +1.640632E+01 +3.805223E+02 
 +8.686345E+02 -1.358643E+01 -2.031480E+00 -1.358643E+01 +5.066094E+02 +1.293460E+01 -2.031480E+00 +1.293460E+01 +3.859595E+02 
 +8.640816E+02 +1.053267E+00 -2.151970E+01 +1.053267E+00 +5.043988E+02 +1.068300E+01 -2.151970E+01 +1.068300E+01 +3.796288E+02 
 +8.728085E+02 +1.742407E+00 -1.585360E+01 +1.742407E+00 +5.061494E+02 +6.622961E+00 -1.585360E+01 +6.622961E+00 +3.768156E+02 
 +8.784057E+02 +3.146548E+00 -1.537887E+01 +3.146548E+00 +5.101243E+02 -4.989662E-01 -1.537887E+01 -4.989662E-01 +3.836762E+02 
 +8.796409E+02 +2.314848E+00 -8.500895E+00 +2.314848E+00 +5.180679E+02 -5.033094E+00 -8.500895E+00 -5.033094E+00 +3.965467E+02 
 +8.868172E+02 +6.176117E+00 -2.489421E+00 +6.176117E+00 +5.311114E+02 -9.786279E+00 -2.489421E+00 -9.786279E+00 +4.139777E+02 
 +9.139721E+02 +9.826603E+00 -6.754057E+00 +9.826603E+00 +5.483247E+02 -1.010307E+01 -6.754057E+00 -1.010307E+01 +4.294696E+02 
 +9.216878E+02 +9.949700E+00 -2.003059E+01 +9.949700E+00 +5.491361E+02 -3.940889E+00 -2.003059E+01 -3.940889E+00 +4.290371E+02 
 +8.966533E+02 +1.192309E+01 -2.507510E+01 +1.192309E+01 +5.351941E+02 +8.405419E-01 -2.507510E+01 +8.405419E-01 +4.264920E+02 
 +8.805687E+02 +4.630616E+00 -1.886521E+01 +4.630616E+00 +5.293400E+02 -3.028388E+00 -1.886521E+01 -3.028388E+00 +4.321271E+02 
 +8.618607E+02 +3.660858E+00 -6.335115E+00 +3.660858E+00 +5.153984E+02 -4.304709E+00 -6.335115E+00 -4.304709E+00 +4.219801E+02 
 +8.492722E+02 -7.332892E-01 -1.881944E-01 -7.332892E-01 +5.020816E+02 +2.204901E+00 -1.881944E-01 +2.204901E+00 +3.983520E+02 
 +8.443983E+02 -5.640981E+00 +2.852021E+00 -5.640981E+00 +4.775603E+02 -8.420301E+00 +2.852021E+00 -8.420301E+00 +3.611446E+02 
 +8.811284E+02 -1.264748E+01 +1.483793E+01 -1.264748E+01 +4.635977E+02 -2.086241E+01 +1.483793E+01 -2.086241E+01 +3.399188E+02 
 +8.942380E+02 -1.379326E+01 +1.292333E+01 -1.379326E+01 +4.581574E+02 -1.799757E+01 +1.292333E+01 -1.799757E+01 +3.249792E+02 
 +9.001211E+02 -4.061241E+00 +2.037211E+00 -4.061241E+00 +4.754200E+02 -8.346314E+00 +2.037211E+00 -8.346314E+00 +3.374447E+02 
 +8.380232E+02 -1.884739E+01 +1.671809E+01 -1.884739E+01 +4.691204E+02 +2.123381E-01 +1.671809E+01 +2.123381E-01 +3.453206E+02 
 +8.536585E+02 -2.453043E+01 +1.115673E+01 -2.453043E+01 +5.008422E+02 +1.408189E+00 +1.115673E+01 +1.408189E+00 +3.698997E+02 
 +8.515993E+02 -2.092569E+01 +4.938711E+00 -2.092569E+01 +5.021590E+02 +5.681112E+00 +4.938711E+00 +5.681112E+00 +3.745373E+02 
 +8.522853E+02 -2.253511E+01 +1.358134E+00 -2.253511E+01 +5.047616E+02 +8.535599E+00 +1.358134E+00 +8.535599E+00 +3.731327E+02 
 +8.610828E+02 -2.399540E+01 -2.421140E+00 -2.399540E+01 +5.061793E+02 +1.212036E+01 -2.421140E+00 +1.212036E+01 +3.716582E+02 
 +8.916561E+02 -1.545277E+01 -6.568510E-01 -1.545277E+01 +5.287657E+02 +1.226663E+01 -6.568510E-01 +1.226663E+01 +3.779711E+02 
 +8.806204E+02 -1.567393E+00 -1.884818E+01 -1.567393E+00 +5.230916E+02 +9.979193E+00 -1.884818E+01 +9.979193E+00 +3.557556E+02 
 +8.774441E+02 +3.245367E+00 -1.752242E+01 +3.245367E+00 +5.132106E+02 +6.379918E+00 -1.752242E+01 +6.379918E+00 +3.490235E+02 
 +8.736385E+02 +6.115619E+00 -1.867646E+01 +6.115619E+00 +5.141827E+02 +1.834332E+00 -1.867646E+01 +1.834332E+00 +3.664511E+02 
 +8.778017E+02 +4.830728E+00 -1.421422E+01 +4.830728E+00 +5.232789E+02 -4.503345E+00 -1.421422E+01 -4.503345E+00 +3.843496E+02 
 +8.869934E+02 +5.041314E+00 -9.251231E+00 +5.041314E+00 +5.323117E+02 -6.450510E+00 -9.251231E+00 -6.450510E+00 +3.998528E+02 
 +9.265617E+02 +6.083735E+00 -8.723081E+00 +6.083735E+00 +5.529736E+02 -8.477392E-01 -8.723081E+00 -8.477392E-01 +4.131819E+02 
 +9.295828E+02 +9.856902E+00 -2.900224E+01 +9.856902E+00 +5.561192E+02 +4.196280E+00 -2.900224E+01 +4.196280E+00 +4.183306E+02 
 +9.075259E+02 +1.799926E+01 -3.086529E+01 +1.799926E+01 +5.533095E+02 +2.223043E+00 -3.086529E+01 +2.223043E+00 +4.461373E+02 
 +8.931703E+02 +8.606450E+00 -2.705414E+01 +8.606450E+00 +5.422457E+02 -3.918405E+00 -2.705414E+01 -3.918405E+00 +4.532519E+02 
 +8.851785E+02 +4.763937E+00 -1.873745E+01 +4.763937E+00 +5.251849E+02 -9.044748E+00 -1.873745E+01 -9.044748E+00 +4.411690E+02 
 +8.671359E+02 +1.617246E+00 -4.609431E+00 +1.617246E+00 +5.065048E+02 -1.167179E+01 -4.609431E+00 -1.167179E+01 +4.254119E+02 
 +8.395293E+02 +1.638507E+00 +1.927318E+00 +1.638507E+00 +4.866671E+02 -8.269001E+00 +1.927318E+00 -8.269001E+00 +3.864335E+02 
 +8.450206E+02 -2.141663E+00 +4.423455E+00 -2.141663E+00 +4.754546E+02 -1.020383E+01 +4.423455E+00 -1.020383E+01 +3.559280E+02 
 +8.936132E+02 -9.296472E+00 +1.044301E+01 -9.296472E+00 +4.744849E+02 -1.546037E+01 +1.044301E+01 -1.546037E+01 +3.524001E+02 
 +8.829457E+02 -9.229441E+00 +9.547333E+00 -9.229441E+00 +4.609482E+02 -1.072102E+01 +9.547333E+00 -1.072102E+01 +3.440607E+02 
 +8.484703E+02 -2.122423E+01 +2.161623E+01 -2.122423E+01 +4.741093E+02 -4.153868E+00 +2.161623E+01 -4.153868E+00 +3.504671E+02 
 +8.525945E+02 -2.028748E+01 +1.206531E+01 -2.028748E+01 +4.962892E+02 -4.756790E+00 +1.206531E+01 -4.756790E+00 +3.676782E+02 
 +8.541320E+02 -2.606978E+01 +7.182396E+00 -2.606978E+01 +5.073037E+02 -4.683581E+00 +7.182396E+00 -4.683581E+00 +3.692386E+02 
 +8.588036E+02 -2.515269E+01 +1.667651E+00 -2.515269E+01 +5.061241E+02 +1.531674E+00 +1.667651E+00 +1.531674E+00 +3.708117E+02 
 +8.753376E+02 -1.635329E+01 -5.340582E-01 -1.635329E+01 +5.158072E+02 +7.341536E+00 -5.340582E-01 +7.341536E+00 +3.776076E+02 
 +9.096731E+02 -3.097961E-01 -6.100372E+00 -3.097961E-01 +5.339721E+02 +5.104056E+00 -6.100372E+00 +5.104056E+00 +3.757814E+02 
 +8.915439E+02 +6.220931E+00 -1.367481E+01 +6.220931E+00 +5.203740E+02 -1.469552E+00 -1.367481E+01 -1.469552E+00 +3.427688E+02 
 +8.797933E+02 +8.331312E+00 -9.866654E+00 +8.331312E+00 +5.184246E+02 -7.267404E-01 -9.866654E+00 -7.267404E-01 +3.380403E+02 
 +8.664201E+02 +8.194095E+00 -1.105276E+01 +8.194095E+00 +5.133865E+02 +5.950581E+00 -1.105276E+01 +5.950581E+00 +3.568834E+02 
 +8.700026E+02 +1.115105E+01 -1.168348E+01 +1.115105E+01 +5.120256E+02 +7.007648E+00 -1.168348E+01 +7.007648E+00 +3.642344E+02 
 +8.720608E+02 +1.172685E+01 -1.105337E+01 +1.172685E+01 +5.080999E+02 +8.436852E+00 -1.105337E+01 +8.436852E+00 +3.692736E+02 
 +9.135798E+02 +1.418732E+01 -1.376909E+01 +1.418732E+01 +5.279016E+02 +1.039018E+01 -1.376909E+01 +1.039018E+01 +3.868778E+02 
 +9.377255E+02 +1.642132E+01 -2.393411E+01 +1.642132E+01 +5.601543E+02 +1.664616E+00 -2.393411E+01 +1.664616E+00 +4.071272E+02 
 +9.270077E+02 +1.690821E+01 -2.343026E+01 +1.690821E+01 +5.703186E+02 -6.214866E-01 -2.343026E+01 -6.214866E-01 +4.496977E+02 
 +9.071056E+02 +1.114113E+01 -2.146919E+01 +1.114113E+01 +5.495118E+02 +8.962063E-01 -2.146919E+01 +8.962063E-01 +4.592796E+02 
 +8.828897E+02 +7.003024E+00 -2.339273E+01 +7.003024E+00 +5.196888E+02 -3.730875E+00 -2.339273E+01 -3.730875E+00 +4.443269E+02 
 +8.773650E+02 +1.184875E+00 -1.176584E+01 +1.184875E+00 +5.060638E+02 -5.207950E+00 -1.176584E+01 -5.207950E+00 +4.412635E+02 
 +8.536280E+02 +1.000566E+00 +2.076253E+00 +1.000566E+00 +4.877309E+02 +6.208299E+00 +2.076253E+00 +6.208299E+00 +4.207054E+02 
 +8.388403E+02 +3.844894E+00 -3.333921E-01 +3.844894E+00 +4.804788E+02 +1.412734E+01 -3.333921E-01 +1.412734E+01 +3.972425E+02 
 +8.739976E+02 +6.826940E+00 +9.651402E+00 +6.826940E+00 +5.046984E+02 +1.463047E+01 +9.651402E+00 +1.463047E+01 +3.867744E+02 
 +8.683631E+02 +8.672055E+00 +1.211792E+01 +8.672055E+00 +4.926361E+02 +1.383836E+01 +1.211792E+01 +1.383836E+01 +3.669395E+02 
 +8.495403E+02 +6.055847E-01 +1.612720E+01 +6.055847E-01 +4.763875E+02 +4.865233E+00 +1.612720E+01 +4.865233E+00 +3.589085E+02 
 +8.379856E+02 +3.861645E+00 +1.199436E+01 +3.861645E+00 +4.854277E+02 -7.267875E+00 +1.199436E+01 -7.267875E+00 +3.713895E+02 
 +8.547441E+02 -1.089736E+01 +5.122244E+00 -1.089736E+01 +5.045000E+02 -9.601149E+00 +5.122244E+00 -9.601149E+00 +3.654492E+02 
 +8.723582E+02 -8.243376E+00 -5.049501E+00 -8.243376E+00 +5.061581E+02 -5.200430E+00 -5.049501E+00 -5.200430E+00 +3.563465E+02 
 +8.928244E+02 -9.947680E-01 -5.181820E+00 -9.947680E-01 +5.196785E+02 +6.815445E-01 -5.181820E+00 +6.815445E-01 +3.729114E+02 
 +9.035426E+02 +5.941522E+00 -9.062758E+00 +5.941522E+00 +5.250324E+02 +2.791026E+00 -9.062758E+00 +2.791026E+00 +3.733130E+02 
 +8.915738E+02 +6.024816E+00 -9.373086E+00 +6.024816E+00 +5.166465E+02 +3.780298E+00 -9.373086E+00 +3.780298E+00 +3.574296E+02 
 +8.817898E+02 +6.473334E+00 -4.465370E+00 +6.473334E+00 +5.151663E+02 +3.714618E+00 -4.465370E+00 +3.714618E+00 +3.547853E+02 
 +8.750033E+02 +8.884294E+00 -1.588700E+00 +8.884294E+00 +5.184487E+02 -1.723777E-02 -1.588700E+00 -1.723777E-02 +3.580593E+02 
 +8.769196E+02 +1.417231E+01 +2.162165E+00 +1.417231E+01 +5.156369E+02 -2.291371E+00 +2.162165E+00 -2.291371E+00 +3.506013E+02 
 +8.808947E+02 +1.774850E+01 -1.058181E+00 +1.774850E+01 +5.198722E+02 -3.889857E+00 -1.058181E+00 -3.889857E+00 +3.491332E+02 
 +9.070827E+02 +1.693445E+01 -9.192614E+00 +1.693445E+01 +5.461621E+02 +3.979186E+00 -9.192614E+00 +3.979186E+00 +3.835324E+02 
 +9.158048E+02 +9.399544E+00 -1.265704E+01 +9.399544E+00 +5.323856E+02 +2.341149E+01 -1.265704E+01 +2.341149E+01 +4.108055E+02 
 +9.084280E+02 +4.740819E+00 -1.529369E+01 +4.740819E+00 +5.070641E+02 +3.258544E+01 -1.529369E+01 +3.258544E+01 +4.328025E+02 
 +9.166890E+02 +3.411464E+00 -1.752930E+01 +3.411464E+00 +5.165398E+02 +2.718525E+01 -1.752930E+01 +2.718525E+01 +4.540184E+02 
 +8.769764E+02 +5.280582E+00 -1.953419E+01 +5.280582E+00 +5.025005E+02 +1.088966E+01 -1.953419E+01 +1.088966E+01 +4.321639E+02 
 +8.626631E+02 +2.297009E+00 -1.142889E+01 +2.297009E+00 +4.925882E+02 -1.251928E-01 -1.142889E+01 -1.251928E-01 +4.245547E+02 
 +8.518816E+02 -1.767996E+00 -1.301958E+00 -1.767996E+00 +4.792394E+02 +6.087458E+00 -1.301958E+00 +6.087458E+00 +4.345067E+02 
 +8.539189E+02 +4.369712E+00 +4.693191E+00 +4.369712E+00 +4.862734E+02 +1.133393E+01 +4.693191E+00 +1.133393E+01 +4.354874E+02 
 +8.424346E+02 +5.846196E+00 +8.195327E+00 +5.846196E+00 +4.913202E+02 +4.398184E+00 +8.195327E+00 +4.398184E+00 +4.039881E+02 
 +8.489245E+02 +8.993137E+00 +6.943516E+00 +8.993137E+00 +4.947887E+02 -1.907121E+00 +6.943516E+00 -1.907121E+00 +3.841986E+02 
 +8.400502E+02 +9.406282E+00 +7.293366E+00 +9.406282E+00 +4.787965E+02 -3.761388E+00 +7.293366E+00 -3.761388E+00 +3.710790E+02 
 +8.302835E+02 +7.047618E+00 +9.722300E+00 +7.047618E+00 +4.697150E+02 -1.067812E+01 +9.722300E+00 -1.067812E+01 +3.793678E+02 
 +8.546810E+02 -5.834099E+00 +1.467390E+00 -5.834099E+00 +4.751675E+02 -1.374992E+01 +1.467390E+00 -1.374992E+01 +3.717432E+02 
 +8.686425E+02 -2.948320E+00 -5.406595E+00 -2.948320E+00 +4.907171E+02 -5.003368E+00 -5.406595E+00 -5.003368E+00 +3.555284E+02 
 +8.890983E+02 -3.228168E+00 -8.029882E+00 -3.228168E+00 +5.091494E+02 -9.363859E-01 -8.029882E+00 -9.363859E-01 +3.694129E+02 
 +8.872898E+02 +3.444641E+00 -5.472446E+00 +3.444641E+00 +5.096375E+02 -6.663626E-01 -5.472446E+00 -6.663626E-01 +3.761336E+02 
 +8.845758E+02 +7.390420E+00 -5.702188E+00 +7.390420E+00 +5.080691E+02 +9.938158E-01 -5.702188E+00 +9.938158E-01 +3.746140E+02 
 +8.810566E+02 +9.090277E+00 -3.940273E+00 +9.090277E+00 +5.041951E+02 +1.696513E+00 -3.940273E+00 +1.696513E+00 +3.703680E+02 
 +8.810214E+02 +1.053686E+01 +1.510008E-01 +1.053686E+01 +5.050685E+02 +1.523050E+00 +1.510008E-01 +1.523050E+00 +3.642141E+02 
 +8.820335E+02 +9.985187E+00 +5.365376E+00 +9.985187E+00 +5.124284E+02 -3.177560E-01 +5.365376E+00 -3.177560E-01 +3.623383E+02 
 +8.814499E+02 +1.167772E+01 +3.152211E+00 +1.167772E+01 +5.158917E+02 +3.040127E+00 +3.152211E+00 +3.040127E+00 +3.679501E+02 
 +8.809740E+02 +6.534762E+00 -2.655303E-01 +6.534762E+00 +5.072726E+02 +1.793379E+01 -2.655303E-01 +1.793379E+01 +3.888014E+02 
 +8.915505E+02 +3.144232E+00 -2.233986E+00 +3.144232E+00 +5.002902E+02 +2.548428E+01 -2.233986E+00 +2.548428E+01 +4.075764E+02 
 +9.042882E+02 +5.382226E+00 -8.226004E+00 +5.382226E+00 +4.959888E+02 +2.439063E+01 -8.226004E+00 +2.439063E+01 +4.138105E+02 
 +9.070169E+02 -7.994621E-01 -1.475424E+01 -7.994621E-01 +4.874613E+02 +2.397463E+01 -1.475424E+01 +2.397463E+01 +4.196628E+02 
 +8.731417E+02 -4.681010E+00 -1.493237E+01 -4.681010E+00 +4.679134E+02 +2.113359E+01 -1.493237E+01 +2.113359E+01 +4.046669E+02 
 +8.393120E+02 -6.663615E+00 -6.259184E+00 -6.663615E+00 +4.650347E+02 +4.293425E+00 -6.259184E+00 +4.293425E+00 +3.936052E+02 
 +8.437461E+02 -1.283902E+01 +1.485672E+00 -1.283902E+01 +4.774260E+02 -4.432821E+00 +1.485672E+00 -4.432821E+00 +4.150607E+02 
 +8.475080E+02 +3.190212E+00 +5.947346E+00 +3.190212E+00 +4.858192E+02 -7.727165E+00 +5.947346E+00 -7.727165E+00 +4.324226E+02 
 +8.376786E+02 +4.228008E+00 +3.261020E+00 +4.228008E+00 +4.891819E+02 -9.601845E+00 +3.261020E+00 -9.601845E+00 +4.186075E+02 
 +8.399736E+02 +7.869930E+00 +3.423339E+00 +7.869930E+00 +4.876305E+02 -6.011558E+00 +3.423339E+00 -6.011558E+00 +3.998982E+02 
 +8.385117E+02 +7.860282E+00 +7.245816E+00 +7.860282E+00 +4.835776E+02 -6.650554E+00 +7.245816E+00 -6.650554E+00 +3.877600E+02 
 +8.316288E+02 +4.865111E+00 +8.301394E+00 +4.865111E+00 +4.685622E+02 -9.807354E+00 +8.301394E+00 -9.807354E+00 +3.958242E+02 
 +8.672412E+02 -9.401250E+00 +5.164851E+00 -9.401250E+00 +4.769134E+02 -9.118678E+00 +5.164851E+00 -9.118678E+00 +3.980027E+02 
 +8.583822E+02 -5.633074E+00 -1.075546E+00 -5.633074E+00 +4.632793E+02 -2.899125E+00 -1.075546E+00 -2.899125E+00 +3.731143E+02 
 +8.776088E+02 -2.232872E+00 -5.762089E+00 -2.232872E+00 +4.870742E+02 -5.610564E-01 -5.762089E+00 -5.610564E-01 +3.760707E+02 
 +8.787172E+02 +1.084864E+00 -1.916941E+00 +1.084864E+00 +4.981197E+02 -4.505093E+00 -1.916941E+00 -4.505093E+00 +3.764943E+02 
 +8.749823E+02 +5.112638E+00 -2.399366E+00 +5.112638E+00 +4.939692E+02 -4.910260E+00 -2.399366E+00 -4.910260E+00 +3.716953E+02 
 +8.782282E+02 +6.916773E+00 -1.369763E+00 +6.916773E+00 +4.972756E+02 -1.516998E+00 -1.369763E+00 -1.516998E+00 +3.748405E+02 
 +8.804106E+02 +7.217581E+00 -6.407189E-01 +7.217581E+00 +4.961344E+02 +9.774522E-01 -6.407189E-01 +9.774522E-01 +3.718810E+02 
 +8.848883E+02 +1.172441E+01 -5.529406E+00 +1.172441E+01 +5.088673E+02 -2.586780E+00 -5.529406E+00 -2.586780E+00 +3.756410E+02 
 +8.821848E+02 +8.115140E+00 +4.579983E-01 +8.115140E+00 +5.150636E+02 -1.366070E+00 +4.579983E-01 -1.366070E+00 +3.864883E+02 
 +8.755405E+02 -9.138298E-01 +5.992400E+00 -9.138298E-01 +4.900677E+02 +1.680498E+01 +5.992400E+00 +1.680498E+01 +3.873792E+02 
 +8.750610E+02 -4.031145E-01 +9.129893E-01 -4.031145E-01 +4.718168E+02 +2.858674E+01 +9.129893E-01 +2.858674E+01 +3.843959E+02 
 +8.827221E+02 -2.151134E-01 -7.467718E-01 -2.151134E-01 +4.678932E+02 +3.028506E+01 -7.467718E-01 +3.028506E+01 +3.865833E+02 
 +8.920261E+02 -2.548093E+00 -7.738675E+00 -2.548093E+00 +4.713393E+02 +2.722190E+01 -7.738675E+00 +2.722190E+01 +4.027979E+02 
 +8.884371E+02 -2.004763E+00 -1.297644E+01 -2.004763E+00 +4.840172E+02 +1.556402E+01 -1.297644E+01 +1.556402E+01 +4.208517E+02 
 +8.579612E+02 -5.326687E+00 -7.372771E+00 -5.326687E+00 +4.821209E+02 +2.549368E+00 -7.372771E+00 +2.549368E+00 +4.071674E+02 
 +8.505779E+02 -1.497922E+01 +3.335542E+00 -1.497922E+01 +4.854105E+02 +4.283465E-01 +3.335542E+00 +4.283465E-01 +4.051838E+02 
 +8.364733E+02 +6.497033E+00 +6.259151E+00 +6.497033E+00 +4.794032E+02 -3.999867E+00 +6.259151E+00 -3.999867E+00 +4.187349E+02 
 +8.378148E+02 +8.147235E+00 +1.976693E+00 +8.147235E+00 +4.812643E+02 -6.868670E+00 +1.976693E+00 -6.868670E+00 +4.245250E+02 
 +8.389611E+02 +1.046039E+01 +9.743687E-01 +1.046039E+01 +4.862990E+02 -4.848005E+00 +9.743687E-01 -4.848005E+00 +4.146879E+02 
 +8.304824E+02 +9.429584E+00 +5.680036E+00 +9.429584E+00 +4.779258E+02 -6.884390E+00 +5.680036E+00 -6.884390E+00 +4.014074E+02 
 +8.349632E+02 +5.572380E+00 +3.241695E+00 +5.572380E+00 +4.815046E+02 +5.817125E-01 +3.241695E+00 +5.817125E-01 +4.147441E+02 
 +8.728236E+02 -7.087017E+00 +5.914890E+00 -7.087017E+00 +4.915495E+02 -1.460887E-01 +5.914890E+00 -1.460887E-01 +4.159472E+02 
 +8.788369E+02 -3.719151E-01 +4.210934E+00 -3.719151E-01 +4.939133E+02 +5.377889E+00 +4.210934E+00 +5.377889E+00 +3.946495E+02 
 +8.758650E+02 +1.945905E+00 -1.077919E+00 +1.945905E+00 +4.899150E+02 +3.408355E+00 -1.077919E+00 +3.408355E+00 +3.762501E+02 
 +8.675068E+02 +1.953867E+00 -4.699512E-01 +1.953867E+00 +4.854721E+02 -4.555726E+00 -4.699512E-01 -4.555726E+00 +3.647306E+02 
 +8.656005E+02 +4.796112E+00 +2.273625E-02 +4.796112E+00 +4.897211E+02 -7.126637E+00 +2.273625E-02 -7.126637E+00 +3.607630E+02 
 +8.726134E+02 +4.633732E+00 +7.109505E-01 +4.633732E+00 +4.932575E+02 -5.706192E+00 +7.109505E-01 -5.706192E+00 +3.618686E+02 
 +8.780602E+02 +4.766343E+00 -1.407859E+00 +4.766343E+00 +4.956138E+02 -3.302621E+00 -1.407859E+00 -3.302621E+00 +3.634321E+02 
 +8.755827E+02 +1.126067E+01 -7.116410E+00 +1.126067E+01 +4.887024E+02 +9.203413E+00 -7.116410E+00 +9.203413E+00 +3.660129E+02 
 +8.733386E+02 +4.137656E+00 -1.429271E+00 +4.137656E+00 +4.812758E+02 +2.921296E+01 -1.429271E+00 +2.921296E+01 +3.740246E+02 
 +8.761245E+02 -4.108464E+00 +5.928204E+00 -4.108464E+00 +4.861199E+02 +3.120460E+01 +5.928204E+00 +3.120460E+01 +3.798806E+02 
 +8.821235E+02 -4.464895E-01 +5.013282E+00 -4.464895E-01 +4.885651E+02 +2.476623E+01 +5.013282E+00 +2.476623E+01 +3.821955E+02 
 +8.876193E+02 -1.427788E+00 +7.169544E+00 -1.427788E+00 +4.860259E+02 +2.721536E+01 +7.169544E+00 +2.721536E+01 +3.888812E+02 
 +8.916188E+02 -3.709733E+00 -1.592037E+00 -3.709733E+00 +4.853913E+02 +3.086597E+01 -1.592037E+00 +3.086597E+01 +3.996189E+02 
 +8.876990E+02 +4.044511E-01 -1.614024E+01 +4.044511E-01 +4.857244E+02 +2.817112E+01 -1.614024E+01 +2.817112E+01 +4.097056E+02 
 +8.671073E+02 -2.259769E+00 -1.130276E+01 -2.259769E+00 +4.750009E+02 +2.971402E+01 -1.130276E+01 +2.971402E+01 +3.988293E+02 
 +8.584939E+02 -1.041179E+01 +2.842470E-01 -1.041179E+01 +4.763616E+02 +3.055618E+01 +2.842470E-01 +3.055618E+01 +4.035864E+02 
 +8.265750E+02 +7.845926E+00 +4.172200E+00 +7.845926E+00 +4.684523E+02 +1.417661E+01 +4.172200E+00 +1.417661E+01 +4.126561E+02 
 +8.395791E+02 +1.314234E+01 -1.754637E+00 +1.314234E+01 +4.793685E+02 +2.064344E+00 -1.754637E+00 +2.064344E+00 +4.231546E+02 
 +8.378928E+02 +1.624621E+01 -3.527753E+00 +1.624621E+01 +4.842611E+02 -8.095213E-02 -3.527753E+00 -8.095213E-02 +4.193067E+02 
 +8.335792E+02 +1.308268E+01 -8.228511E-01 +1.308268E+01 +4.871782E+02 -4.683852E-01 -8.228511E-01 -4.683852E-01 +4.166115E+02 
 +8.386838E+02 +5.542875E+00 -6.942566E+00 +5.542875E+00 +4.839701E+02 +1.242963E+01 -6.942566E+00 +1.242963E+01 +4.113650E+02 
 +8.475922E+02 -3.016578E-01 +1.372553E+00 -3.016578E-01 +4.671069E+02 +1.897953E+01 +1.372553E+00 +1.897953E+01 +3.991462E+02 
 +8.371282E+02 +3.334836E+00 +7.586651E+00 +3.334836E+00 +4.501928E+02 +1.572446E+01 +7.586651E+00 +1.572446E+01 +3.689439E+02 
 +8.617342E+02 +4.593261E+00 +4.698776E+00 +4.593261E+00 +4.715335E+02 +6.612105E+00 +4.698776E+00 +6.612105E+00 +3.571889E+02 
 +8.648296E+02 +5.189298E+00 +2.743703E+00 +5.189298E+00 +4.854492E+02 +5.886738E+00 +2.743703E+00 +5.886738E+00 +3.591860E+02 
 +8.600000E+02 +8.917105E+00 +9.037183E-01 +8.917105E+00 +4.883801E+02 +1.032633E+01 +9.037183E-01 +1.032633E+01 +3.663675E+02 
 +8.667112E+02 +6.029044E+00 -7.129897E-01 +6.029044E+00 +4.943801E+02 +1.702347E+00 -7.129897E-01 +1.702347E+00 +3.572244E+02 
 +8.708970E+02 +3.965861E+00 -2.959735E+00 +3.965861E+00 +4.914876E+02 -4.018440E+00 -2.959735E+00 -4.018440E+00 +3.419710E+02 
 +8.761199E+02 +7.977351E+00 -3.060228E+00 +7.977351E+00 +4.853507E+02 +3.196426E+00 -3.060228E+00 +3.196426E+00 +3.447418E+02 
 +8.720608E+02 +3.827820E+00 -8.642263E-01 +3.827820E+00 +4.733415E+02 +1.971370E+01 -8.642263E-01 +1.971370E+01 +3.514014E+02 
 +8.727978E+02 -2.130429E+00 +3.751954E+00 -2.130429E+00 +4.758428E+02 +3.074994E+01 +3.751954E+00 +3.074994E+01 +3.587319E+02 
 +8.789651E+02 -2.855357E+00 +8.562093E+00 -2.855357E+00 +4.858396E+02 +3.184547E+01 +8.562093E+00 +3.184547E+01 +3.681318E+02 
 +8.822223E+02 -3.168422E+00 +6.740842E+00 -3.168422E+00 +4.888886E+02 +2.809012E+01 +6.740842E+00 +2.809012E+01 +3.821605E+02 
 +8.794626E+02 -4.788965E+00 +3.215019E+00 -4.788965E+00 +4.876665E+02 +2.549878E+01 +3.215019E+00 +2.549878E+01 +3.917143E+02 
 +8.771917E+02 -4.293475E+00 -8.207583E+00 -4.293475E+00 +4.745570E+02 +2.871272E+01 -8.207583E+00 +2.871272E+01 +3.909971E+02 
 +8.746206E+02 -6.096787E+00 -9.178096E+00 -6.096787E+00 +4.593483E+02 +3.506545E+01 -9.178096E+00 +3.506545E+01 +3.799250E+02 
 +8.609136E+02 -6.158866E+00 -1.436581E+00 -6.158866E+00 +4.664229E+02 +3.268105E+01 -1.436581E+00 +3.268105E+01 +3.788195E+02 
 +8.204976E+02 +7.337918E+00 -2.868176E-01 +7.337918E+00 +4.617462E+02 +1.670348E+01 -2.868176E-01 +1.670348E+01 +3.815448E+02 
 +8.285878E+02 +1.487918E+01 -1.154868E+01 +1.487918E+01 +4.735037E+02 +5.852582E+00 -1.154868E+01 +5.852582E+00 +4.007916E+02 
 +8.363157E+02 +1.444518E+01 -1.197264E+01 +1.444518E+01 +4.833482E+02 +3.815967E+00 -1.197264E+01 +3.815967E+00 +4.118989E+02 
 +8.436972E+02 +1.599678E+01 -8.433246E+00 +1.599678E+01 +4.941950E+02 +5.607998E+00 -8.433246E+00 +5.607998E+00 +4.170632E+02 
 +8.505889E+02 -1.390383E+01 -1.125010E+01 -1.390383E+01 +4.911780E+02 +1.545366E+01 -1.125010E+01 +1.545366E+01 +4.056807E+02 
 +8.539051E+02 -1.198422E+01 +1.154788E+00 -1.198422E+01 +4.978674E+02 +2.365465E+01 +1.154788E+00 +2.365465E+01 +3.969701E+02 
 +8.518247E+02 -3.131446E+00 +5.243479E+00 -3.131446E+00 +4.962534E+02 +1.964021E+01 +5.243479E+00 +1.964021E+01 +3.810759E+02 
 +8.666480E+02 +6.563876E+00 +8.793304E+00 +6.563876E+00 +4.861333E+02 +7.946855E+00 +8.793304E+00 +7.946855E+00 +3.615816E+02 
 +8.692207E+02 +6.765833E+00 +8.392125E+00 +6.765833E+00 +4.893600E+02 +5.091001E+00 +8.392125E+00 +5.091001E+00 +3.622010E+02 
 +8.672676E+02 +1.066354E+01 +3.638915E+00 +1.066354E+01 +4.962034E+02 +1.688244E+01 +3.638915E+00 +1.688244E+01 +3.792247E+02 
 +8.685831E+02 +1.344514E+01 +1.597051E+00 +1.344514E+01 +4.971688E+02 +1.679108E+01 +1.597051E+00 +1.679108E+01 +3.755455E+02 
 +8.683669E+02 +7.263631E+00 -1.495487E+00 +7.263631E+00 +4.879455E+02 +6.232834E+00 -1.495487E+00 +6.232834E+00 +3.540291E+02 
 +8.570142E+02 +3.320399E+00 -1.044402E-01 +3.320399E+00 +4.546601E+02 +1.060170E+01 -1.044402E-01 +1.060170E+01 +3.321734E+02 
 +8.643022E+02 +2.197163E+00 +9.089963E-01 +2.197163E+00 +4.498973E+02 +2.803219E+01 +9.089963E-01 +2.803219E+01 +3.425806E+02 
 +8.647983E+02 -3.871722E-01 +5.783738E-01 -3.871722E-01 +4.581081E+02 +3.438594E+01 +5.783738E-01 +3.438594E+01 +3.489791E+02 
 +8.699801E+02 -1.926598E+00 +5.560699E+00 -1.926598E+00 +4.717824E+02 +3.341294E+01 +5.560699E+00 +3.341294E+01 +3.498689E+02 
 +8.790298E+02 -3.377336E+00 +3.718785E+00 -3.377336E+00 +4.911906E+02 +3.370465E+01 +3.718785E+00 +3.370465E+01 +3.686815E+02 
 +8.749623E+02 -3.536691E+00 +2.509515E+00 -3.536691E+00 +4.906994E+02 +3.002870E+01 +2.509515E+00 +3.002870E+01 +3.787333E+02 
 +8.619155E+02 -6.565695E+00 +5.246098E+00 -6.565695E+00 +4.651034E+02 +2.481999E+01 +5.246098E+00 +2.481999E+01 +3.611872E+02 
 +8.583602E+02 -7.841549E+00 +7.656281E-01 -7.841549E+00 +4.440144E+02 +3.142708E+01 +7.656281E-01 +3.142708E+01 +3.424012E+02 
 +8.493727E+02 -6.911951E+00 -9.905193E+00 -6.911951E+00 +4.521546E+02 +2.532970E+01 -9.905193E+00 +2.532970E+01 +3.419049E+02 
 +8.246105E+02 -5.703303E+00 -7.328188E+00 -5.703303E+00 +4.595144E+02 -1.833715E+00 -7.328188E+00 -1.833715E+00 +3.499709E+02 
 +8.162194E+02 +7.027970E+00 -1.732741E+01 +7.027970E+00 +4.628852E+02 -1.197631E+01 -1.732741E+01 -1.197631E+01 +3.759515E+02 
 +8.280564E+02 +7.401278E+00 -1.986395E+01 +7.401278E+00 +4.731075E+02 -8.988584E+00 -1.986395E+01 -8.988584E+00 +3.964382E+02 
 +8.456236E+02 +1.014627E+01 -1.372302E+01 +1.014627E+01 +4.872166E+02 +2.546434E-01 -1.372302E+01 +2.546434E-01 +4.056569E+02 
 +8.534738E+02 -1.417516E+01 -1.158494E+01 -1.417516E+01 +4.923981E+02 +1.039097E+01 -1.158494E+01 +1.039097E+01 +3.936435E+02 
 +8.531803E+02 -6.314012E+00 -6.572828E-01 -6.314012E+00 +4.908869E+02 +1.610287E+01 -6.572828E-01 +1.610287E+01 +3.836013E+02 
 +8.545052E+02 -2.203560E+00 +3.641715E+00 -2.203560E+00 +4.907272E+02 +1.902650E+01 +3.641715E+00 +1.902650E+01 +3.787774E+02 
 +8.602031E+02 +5.037434E+00 +6.217010E+00 +5.037434E+00 +4.850345E+02 +1.754700E+01 +6.217010E+00 +1.754700E+01 +3.712002E+02 
 +8.698710E+02 +1.244911E+01 +6.272569E+00 +1.244911E+01 +4.842499E+02 +1.668023E+01 +6.272569E+00 +1.668023E+01 +3.700901E+02 
 +8.797776E+02 +1.393979E+01 +6.241499E+00 +1.393979E+01 +5.035302E+02 +1.850370E+01 +6.241499E+00 +1.850370E+01 +3.879913E+02 
 +8.796171E+02 +1.377728E+01 +7.251206E+00 +1.377728E+01 +5.070310E+02 +1.190115E+01 +7.251206E+00 +1.190115E+01 +3.980974E+02 
 +8.630309E+02 +1.592126E+00 +5.915298E+00 +1.592126E+00 +4.814271E+02 -5.209149E-01 +5.915298E+00 -5.209149E-01 +3.819336E+02 
 +8.442028E+02 -6.947146E+00 +1.043428E+01 -6.947146E+00 +4.389862E+02 +1.357058E-02 +1.043428E+01 +1.357058E-02 +3.514289E+02 
 +8.335831E+02 -1.087884E+00 -4.812898E+00 -1.087884E+00 +3.983191E+02 +2.307221E+00 -4.812898E+00 +2.307221E+00 +3.376781E+02 
 +8.475302E+02 +4.502127E+00 -4.170565E+00 +4.502127E+00 +4.153248E+02 +1.008992E+01 -4.170565E+00 +1.008992E+01 +3.447272E+02 
 +8.568750E+02 +1.862233E+00 -6.152005E+00 +1.862233E+00 +4.488691E+02 +2.986405E+01 -6.152005E+00 +2.986405E+01 +3.393930E+02 
 +8.619965E+02 -2.715347E+00 -6.029879E-01 -2.715347E+00 +4.636811E+02 +3.483400E+01 -6.029879E-01 +3.483400E+01 +3.353619E+02 
 +8.659804E+02 -4.549454E+00 +8.407186E-01 -4.549454E+00 +4.709533E+02 +2.830665E+01 +8.407186E-01 +2.830665E+01 +3.388273E+02 
 +8.637440E+02 -6.326988E+00 +7.286848E+00 -6.326988E+00 +4.699358E+02 +1.398373E+01 +7.286848E+00 +1.398373E+01 +3.355780E+02 
 +8.542388E+02 +1.989529E+00 +1.303338E+00 +1.989529E+00 +4.762236E+02 -1.136982E+01 +1.303338E+00 -1.136982E+01 +3.406057E+02 
 +8.520679E+02 +6.100988E+00 -1.783668E+01 +6.100988E+00 +4.875122E+02 -2.486283E+01 -1.783668E+01 -2.486283E+01 +3.476052E+02 
 +8.446186E+02 -3.353944E+00 -8.225656E+00 -3.353944E+00 +4.826123E+02 -1.573650E+01 -8.225656E+00 -1.573650E+01 +3.491704E+02 
 +8.157230E+02 +6.100880E+00 -1.307231E+01 +6.100880E+00 +4.708047E+02 -6.707783E+00 -1.307231E+01 -6.707783E+00 +3.652324E+02 
 +8.353085E+02 +3.349096E+00 -2.134972E+01 +3.349096E+00 +4.853099E+02 -5.722208E+00 -2.134972E+01 -5.722208E+00 +3.862939E+02 
 +8.471560E+02 +1.006639E+01 -1.427947E+01 +1.006639E+01 +4.892543E+02 +7.814911E-01 -1.427947E+01 +7.814911E-01 +3.895748E+02 
 +8.558596E+02 -1.501973E+01 -1.216524E+01 -1.501973E+01 +4.815621E+02 +6.269606E+00 -1.216524E+01 +6.269606E+00 +3.785030E+02 
 +8.535828E+02 -5.771399E+00 -5.063138E+00 -5.771399E+00 +4.815943E+02 +1.102617E+01 -5.063138E+00 +1.102617E+01 +3.761223E+02 
 +8.562640E+02 -3.295800E+00 -9.292357E-01 -3.295800E+00 +4.871177E+02 +1.610872E+01 -9.292357E-01 +1.610872E+01 +3.783635E+02 
 +8.608388E+02 +2.527324E+00 +2.224639E-01 +2.527324E+00 +4.941191E+02 +1.653022E+01 +2.224639E-01 +1.653022E+01 +3.801387E+02 
 +8.785202E+02 +1.080449E+01 -1.159585E+00 +1.080449E+01 +5.062901E+02 +1.171497E+01 -1.159585E+00 +1.171497E+01 +3.884300E+02 
 +8.940797E+02 +1.361040E+01 +3.067482E+00 +1.361040E+01 +5.159208E+02 +8.538558E+00 +3.067482E+00 +8.538558E+00 +3.994050E+02 
 +8.753930E+02 +4.475340E+00 +8.417079E+00 +4.475340E+00 +4.964554E+02 -2.168641E+00 +8.417079E+00 -2.168641E+00 +3.881855E+02 
 +8.613879E+02 -1.940716E-01 +1.175399E+01 -1.940716E-01 +4.721183E+02 -4.647855E+00 +1.175399E+01 -4.647855E+00 +3.724866E+02 
 +8.559964E+02 -5.845180E+00 +1.150942E+01 -5.845180E+00 +4.662705E+02 -5.457423E+00 +1.150942E+01 -5.457423E+00 +3.652595E+02 
 +8.349887E+02 -6.458388E+00 -1.037250E+01 -6.458388E+00 +4.367292E+02 -3.789243E+00 -1.037250E+01 -3.789243E+00 +3.487002E+02 
 +8.356985E+02 +7.338332E+00 -1.040009E+01 +7.338332E+00 +4.054441E+02 -3.611509E+00 -1.040009E+01 -3.611509E+00 +3.422835E+02 
 +8.454899E+02 +6.960438E+00 -1.084305E+01 +6.960438E+00 +4.190631E+02 +6.700201E+00 -1.084305E+01 +6.700201E+00 +3.423027E+02 
 +8.583807E+02 -2.850884E+00 -8.655072E+00 -2.850884E+00 +4.443214E+02 +2.666369E+01 -8.655072E+00 +2.666369E+01 +3.278867E+02 
 +8.666998E+02 -3.896066E+00 -2.804585E+00 -3.896066E+00 +4.523927E+02 +2.872056E+01 -2.804585E+00 +2.872056E+01 +3.207197E+02 
 +8.739512E+02 -4.720120E+00 +3.215154E+00 -4.720120E+00 +4.734516E+02 +9.928033E+00 +3.215154E+00 +9.928033E+00 +3.386213E+02 
 +8.500987E+02 +7.037954E+00 -8.290306E+00 +7.037954E+00 +4.854031E+02 -6.971237E+00 -8.290306E+00 -6.971237E+00 +3.501545E+02 
 +8.377926E+02 +6.714411E+00 -1.807662E+01 +6.714411E+00 +4.867582E+02 -1.763401E+01 -1.807662E+01 -1.763401E+01 +3.506646E+02 
 +8.480092E+02 -1.690554E+00 -3.091909E+00 -1.690554E+00 +4.969008E+02 -1.076369E+01 -3.091909E+00 -1.076369E+01 +3.612984E+02 
 +8.207976E+02 +5.190840E+00 -5.435022E+00 +5.190840E+00 +4.906923E+02 -1.467330E+00 -5.435022E+00 -1.467330E+00 +3.680802E+02 
 +8.367848E+02 -3.176429E-01 -1.656144E+01 -3.176429E-01 +4.919236E+02 +2.332607E-01 -1.656144E+01 +2.332607E-01 +3.736631E+02 
 +8.504863E+02 +4.453572E+00 -1.385750E+01 +4.453572E+00 +4.852481E+02 +1.371099E+00 -1.385750E+01 +1.371099E+00 +3.720795E+02 
 +8.497443E+02 -1.170741E+01 -9.282265E+00 -1.170741E+01 +4.680529E+02 +5.470719E+00 -9.282265E+00 +5.470719E+00 +3.741423E+02 
 +8.497518E+02 -6.275935E+00 -1.278626E+01 -6.275935E+00 +4.754761E+02 +9.608877E+00 -1.278626E+01 +9.608877E+00 +3.775700E+02 
 +8.531030E+02 -7.290557E+00 -1.155733E+01 -7.290557E+00 +4.846552E+02 +1.409579E+01 -1.155733E+01 +1.409579E+01 +3.711021E+02 
 +8.680568E+02 +1.106488E+00 -4.443539E+00 +1.106488E+00 +5.053469E+02 +1.817166E+01 -4.443539E+00 +1.817166E+01 +3.807199E+02 
 +8.824813E+02 +8.512324E+00 -8.615998E+00 +8.512324E+00 +5.251174E+02 +1.002274E+01 -8.615998E+00 +1.002274E+01 +3.980427E+02 
 +8.976105E+02 +6.803396E+00 +2.205139E+00 +6.803396E+00 +5.206010E+02 -3.450847E+00 +2.205139E+00 -3.450847E+00 +3.979415E+02 
 +8.760301E+02 -2.965678E+00 +1.202427E+01 -2.965678E+00 +4.863373E+02 -4.545592E+00 +1.202427E+01 -4.545592E+00 +3.709253E+02 
 +8.781223E+02 -5.528564E+00 +1.699736E+01 -5.528564E+00 +4.850332E+02 +4.240873E+00 +1.699736E+01 +4.240873E+00 +3.730662E+02 
 +8.655275E+02 -1.088811E+01 +4.776638E+00 -1.088811E+01 +4.834762E+02 +1.284124E+01 +4.776638E+00 +1.284124E+01 +3.792926E+02 
 +8.490778E+02 -1.279069E+01 -7.448733E+00 -1.279069E+01 +4.837716E+02 +1.460780E+01 -7.448733E+00 +1.460780E+01 +3.768721E+02 
 +8.529017E+02 -3.100774E+00 -1.122482E+01 -3.100774E+00 +4.736245E+02 +1.190789E+01 -1.122482E+01 +1.190789E+01 +3.726079E+02 
 +8.656146E+02 +7.886237E+00 -1.215010E+01 +7.886237E+00 +4.427144E+02 +1.448336E+01 -1.215010E+01 +1.448336E+01 +3.571354E+02 
 +8.560685E+02 -1.365446E+00 -1.204285E+01 -1.365446E+00 +4.243450E+02 +2.268814E+01 -1.204285E+01 +2.268814E+01 +3.170974E+02 
 +8.601765E+02 -7.221185E+00 -7.736980E+00 -7.221185E+00 +4.336950E+02 +2.578321E+01 -7.736980E+00 +2.578321E+01 +3.018907E+02 
 +8.711818E+02 -3.940375E+00 -6.158048E+00 -3.940375E+00 +4.628129E+02 +4.484774E+00 -6.158048E+00 +4.484774E+00 +3.318960E+02 
 +8.561732E+02 +9.844011E+00 -1.408684E+01 +9.844011E+00 +4.827447E+02 -1.212261E+01 -1.408684E+01 -1.212261E+01 +3.507311E+02 
 +8.456949E+02 +1.138370E+01 -1.124431E+01 +1.138370E+01 +4.939572E+02 -1.055912E+01 -1.124431E+01 -1.055912E+01 +3.685208E+02 
 +8.322807E+02 +7.643821E+00 -4.882512E-01 +7.643821E+00 +5.047304E+02 +2.335879E+00 -4.882512E-01 +2.335879E+00 +3.882943E+02 
 +8.314567E+02 +4.302397E+00 -3.543998E+00 +4.302397E+00 +5.088906E+02 +6.971058E+00 -3.543998E+00 +6.971058E+00 +3.824656E+02 
 +8.499009E+02 -4.483481E-01 -9.715948E+00 -4.483481E-01 +5.028401E+02 +4.601757E+00 -9.715948E+00 +4.601757E+00 +3.651495E+02 
 +8.513519E+02 +6.125414E+00 -3.489519E+00 +6.125414E+00 +4.785969E+02 +4.088030E+00 -3.489519E+00 +4.088030E+00 +3.581921E+02 
 +8.344588E+02 -1.509140E+01 +7.635544E-01 -1.509140E+01 +4.631209E+02 +1.420076E+01 +7.635544E-01 +1.420076E+01 +3.700128E+02 
 +8.421046E+02 -8.610625E+00 -1.466365E+01 -8.610625E+00 +4.756278E+02 +1.512305E+01 -1.466365E+01 +1.512305E+01 +3.778929E+02 
 +8.428575E+02 -1.276955E+01 -2.577059E+01 -1.276955E+01 +4.772698E+02 +1.709545E+01 -2.577059E+01 +1.709545E+01 +3.637961E+02 
 +8.683760E+02 -9.587912E-01 -1.199506E+01 -9.587912E-01 +5.001572E+02 +1.225227E+01 -1.199506E+01 +1.225227E+01 +3.712067E+02 
 +8.847204E+02 +3.815226E+00 -1.039362E+01 +3.815226E+00 +5.175883E+02 +7.850063E+00 -1.039362E+01 +7.850063E+00 +3.853156E+02 
 +8.935238E+02 +1.803627E+00 +4.326474E+00 +1.803627E+00 +5.122970E+02 +7.787368E-01 +4.326474E+00 +7.787368E-01 +3.813833E+02 
 +8.854876E+02 -4.521536E+00 +1.249714E+01 -4.521536E+00 +4.969378E+02 -2.346071E+00 +1.249714E+01 -2.346071E+00 +3.632799E+02 
 +8.715933E+02 -8.675660E+00 +1.429858E+01 -8.675660E+00 +4.802366E+02 -3.684810E+00 +1.429858E+01 -3.684810E+00 +3.536355E+02 
 +8.651998E+02 -1.009311E+01 +9.950555E+00 -1.009311E+01 +4.788042E+02 +7.538427E-01 +9.950555E+00 +7.538427E-01 +3.674381E+02 
 +8.438301E+02 -7.712886E+00 -4.686371E+00 -7.712886E+00 +4.740203E+02 +7.603005E+00 -4.686371E+00 +7.603005E+00 +3.661294E+02 
 +8.412978E+02 +6.870022E-01 +2.838377E+00 +6.870022E-01 +4.643390E+02 +9.081530E+00 +2.838377E+00 +9.081530E+00 +3.496658E+02 
 +8.543226E+02 +1.304469E+01 -1.156736E+01 +1.304469E+01 +4.522972E+02 +2.229867E+01 -1.156736E+01 +2.229867E+01 +3.360846E+02 
 +8.495966E+02 +3.331604E+00 -1.729702E+01 +3.331604E+00 +4.329194E+02 +2.566945E+01 -1.729702E+01 +2.566945E+01 +3.106810E+02 
 +8.566143E+02 -9.070529E+00 -9.381848E+00 -9.070529E+00 +4.389425E+02 +2.305511E+01 -9.381848E+00 +2.305511E+01 +3.026798E+02 
 +8.591384E+02 -6.710372E+00 -1.370564E+01 -6.710372E+00 +4.518676E+02 +2.634223E+01 -1.370564E+01 +2.634223E+01 +3.193394E+02 
 +8.526737E+02 -1.836735E+00 -1.741513E+01 -1.836735E+00 +4.536484E+02 +3.448070E+01 -1.741513E+01 +3.448070E+01 +3.347240E+02 
 +8.565051E+02 +5.202433E+00 -1.258395E+01 +5.202433E+00 +4.872517E+02 +3.297631E+01 -1.258395E+01 +3.297631E+01 +3.736136E+02 
 +8.435663E+02 +9.931429E+00 +9.161317E-01 +9.931429E+00 +5.244869E+02 +1.898014E+01 +9.161317E-01 +1.898014E+01 +4.113431E+02 
 +8.349355E+02 +4.981118E+00 +3.561810E-01 +4.981118E+00 +5.121060E+02 +1.920489E+01 +3.561810E-01 +1.920489E+01 +3.917184E+02 
 +8.501132E+02 -4.968845E+00 -4.634280E+00 -4.968845E+00 +4.847692E+02 +3.365978E+01 -4.634280E+00 +3.365978E+01 +3.612500E+02 
 +8.439567E+02 -3.603286E+00 +3.814459E+00 -3.603286E+00 +4.651075E+02 +2.860296E+01 +3.814459E+00 +2.860296E+01 +3.565362E+02 
 +8.457796E+02 -4.308078E+00 -6.360093E-01 -4.308078E+00 +4.664581E+02 +2.581203E+01 -6.360093E-01 +2.581203E+01 +3.404000E+02 
 +8.464116E+02 +8.678233E+00 -1.724074E+01 +8.678233E+00 +4.776831E+02 +8.036602E+00 -1.724074E+01 +8.036602E+00 +3.455631E+02 
 +8.544865E+02 +9.605977E+00 -1.393164E+01 +9.605977E+00 +4.965262E+02 +1.705079E+00 -1.393164E+01 +1.705079E+00 +3.586021E+02 
 +8.664213E+02 +1.470567E+01 -1.770832E+00 +1.470567E+01 +4.983506E+02 +7.412565E+00 -1.770832E+00 +7.412565E+00 +3.564788E+02 
 +8.684308E+02 +3.572973E+00 +1.222375E+01 +3.572973E+00 +4.677642E+02 +8.096939E+00 +1.222375E+01 +8.096939E+00 +3.553905E+02 
 +8.546260E+02 +3.494843E+00 +1.444267E+01 +3.494843E+00 +4.493381E+02 +9.199195E+00 +1.444267E+01 +9.199195E+00 +3.616497E+02 
 +8.549055E+02 +9.623996E+00 +1.083933E+01 +9.623996E+00 +4.528130E+02 +1.364491E+01 +1.083933E+01 +1.364491E+01 +3.660659E+02 
 +8.652854E+02 +3.243520E-01 +1.189199E+01 +3.243520E-01 +4.710020E+02 +2.042050E+01 +1.189199E+01 +2.042050E+01 +3.721204E+02 
 +8.597463E+02 -7.299986E+00 +1.723644E+01 -7.299986E+00 +4.737124E+02 +2.637861E+00 +1.723644E+01 +2.637861E+00 +3.591170E+02 
 +8.556190E+02 -3.826319E+00 +5.744703E+00 -3.826319E+00 +4.693870E+02 -2.710057E+00 +5.744703E+00 -2.710057E+00 +3.564694E+02 
 +8.538203E+02 +3.047429E+00 +8.987986E-01 +3.047429E+00 +4.803035E+02 +2.574808E+00 +8.987986E-01 +2.574808E+00 +3.643745E+02 
 +8.469461E+02 +5.058163E+00 -1.142167E+00 +5.058163E+00 +4.858053E+02 -6.099474E+00 -1.142167E+00 -6.099474E+00 +3.500670E+02 
 +8.576247E+02 +3.623040E+00 -8.978198E+00 +3.623040E+00 +4.939383E+02 -1.469869E+01 -8.978198E+00 -1.469869E+01 +3.366168E+02 
 +8.733244E+02 +6.003157E+00 -3.364235E+00 +6.003157E+00 +4.987265E+02 -1.239201E+01 -3.364235E+00 -1.239201E+01 +3.135713E+02 
 +8.635945E+02 +2.374111E-01 -1.262553E+01 +2.374111E-01 +4.946128E+02 -8.171703E+00 -1.262553E+01 -8.171703E+00 +2.987634E+02 
 +8.761292E+02 +4.049475E-01 -1.453978E+01 +4.049475E-01 +5.079526E+02 -2.208700E-01 -1.453978E+01 -2.208700E-01 +3.335006E+02 
 +8.600654E+02 +5.432235E+00 -1.593909E+01 +5.432235E+00 +4.947018E+02 +9.983413E+00 -1.593909E+01 +9.983413E+00 +3.658049E+02 
 +8.378397E+02 +4.686205E-01 +5.546806E+00 +4.686205E-01 +4.757905E+02 +2.268941E+01 +5.546806E+00 +2.268941E+01 +3.830137E+02 
 +8.252962E+02 +4.981115E-01 +5.083064E+00 +4.981115E-01 +4.685396E+02 +3.102740E+01 +5.083064E+00 +3.102740E+01 +3.720035E+02 
 +8.415810E+02 -3.058606E+00 -2.363596E+00 -3.058606E+00 +4.753923E+02 +3.301053E+01 -2.363596E+00 +3.301053E+01 +3.599573E+02 
 +8.479920E+02 -7.963069E+00 +3.312382E+00 -7.963069E+00 +4.682592E+02 +3.142259E+01 +3.312382E+00 +3.142259E+01 +3.511006E+02 
 +8.475306E+02 -1.896069E+00 -1.621313E+01 -1.896069E+00 +4.741216E+02 +1.044789E+00 -1.621313E+01 +1.044789E+00 +3.358773E+02 
 +8.475923E+02 +1.436439E+00 -1.998951E+01 +1.436439E+00 +4.750292E+02 +5.508862E+00 -1.998951E+01 +5.508862E+00 +3.362313E+02 
 +8.469855E+02 +5.484120E+00 -6.623851E+00 +5.484120E+00 +4.752043E+02 +1.186873E+01 -6.623851E+00 +1.186873E+01 +3.361847E+02 
 +8.406044E+02 +1.448689E+00 +1.597869E+00 +1.448689E+00 +4.630855E+02 +9.616056E+00 +1.597869E+00 +9.616056E+00 +3.286310E+02 
 +8.530780E+02 -8.176736E-01 +8.992294E+00 -8.176736E-01 +4.566907E+02 +8.068289E+00 +8.992294E+00 +8.068289E+00 +3.448733E+02 
 +8.544993E+02 +3.664868E+00 +5.840842E+00 +3.664868E+00 +4.554452E+02 +5.943861E+00 +5.840842E+00 +5.943861E+00 +3.531976E+02 
 +8.496863E+02 +4.152184E+00 +3.779154E+00 +4.152184E+00 +4.490901E+02 +6.775215E+00 +3.779154E+00 +6.775215E+00 +3.547590E+02 
 +8.548322E+02 +3.686512E+00 +4.808061E+00 +3.686512E+00 +4.537474E+02 +1.584484E+01 +4.808061E+00 +1.584484E+01 +3.511912E+02 
 +8.573143E+02 -9.023863E+00 +9.538663E+00 -9.023863E+00 +4.706218E+02 +1.546549E+01 +9.538663E+00 +1.546549E+01 +3.379600E+02 
 +8.703381E+02 -9.291610E+00 +9.835079E+00 -9.291610E+00 +4.881357E+02 +1.019493E+01 +9.835079E+00 +1.019493E+01 +3.516764E+02 
 +8.491792E+02 -2.483443E+00 -4.802317E+00 -2.483443E+00 +4.833061E+02 +3.450270E+00 -4.802317E+00 +3.450270E+00 +3.598045E+02 
 +8.396548E+02 -2.144606E+00 -8.367870E+00 -2.144606E+00 +4.876916E+02 -3.897045E+00 -8.367870E+00 -3.897045E+00 +3.611039E+02 
 +8.442196E+02 -1.149557E+00 -1.452978E+01 -1.149557E+00 +4.946027E+02 -7.372593E+00 -1.452978E+01 -7.372593E+00 +3.487857E+02 
 +8.731057E+02 +4.660477E+00 -4.848077E+00 +4.660477E+00 +5.048794E+02 +2.025525E+00 -4.848077E+00 +2.025525E+00 +3.132333E+02 
 +8.594263E+02 +1.779409E+00 -7.899725E+00 +1.779409E+00 +4.952708E+02 +7.164214E+00 -7.899725E+00 +7.164214E+00 +2.900548E+02 
 +8.626383E+02 +5.717470E+00 -7.690396E+00 +5.717470E+00 +5.026482E+02 +8.763011E+00 -7.690396E+00 +8.763011E+00 +3.246200E+02 
 +8.630590E+02 +9.205508E+00 -8.304818E+00 +9.205508E+00 +4.949707E+02 +1.144856E+01 -8.304818E+00 +1.144856E+01 +3.464511E+02 
 +8.532620E+02 +6.279027E+00 +8.998227E+00 +6.279027E+00 +4.836470E+02 +5.557446E+00 +8.998227E+00 +5.557446E+00 +3.561287E+02 
 +8.392172E+02 +1.025041E+00 +9.816063E+00 +1.025041E+00 +4.788624E+02 +1.654925E+00 +9.816063E+00 +1.654925E+00 +3.520608E+02 
 +8.399899E+02 -4.163053E+00 +1.487787E+00 -4.163053E+00 +4.760732E+02 +1.674888E+01 +1.487787E+00 +1.674888E+01 +3.383384E+02 
 +8.485329E+02 -9.945226E+00 +5.695475E-01 -9.945226E+00 +4.749126E+02 +1.745872E+01 +5.695475E-01 +1.745872E+01 +3.414547E+02 
 +8.373575E+02 -5.239776E+00 -1.283539E+01 -5.239776E+00 +4.663237E+02 -1.136100E+01 -1.283539E+01 -1.136100E+01 +3.276331E+02 
 +8.347478E+02 -2.098898E+00 -8.326083E+00 -2.098898E+00 +4.575916E+02 -4.990253E+00 -8.326083E+00 -4.990253E+00 +3.292206E+02 
 +8.404260E+02 +1.074772E+00 +1.030575E+00 +1.074772E+00 +4.488869E+02 +3.325269E+00 +1.030575E+00 +3.325269E+00 +3.356916E+02 
 +8.348667E+02 -6.638719E+00 +9.193339E+00 -6.638719E+00 +4.312541E+02 +6.265105E+00 +9.193339E+00 +6.265105E+00 +3.357147E+02 
 +8.391906E+02 -4.620774E+00 +8.913831E+00 -4.620774E+00 +4.407849E+02 +6.062952E+00 +8.913831E+00 +6.062952E+00 +3.447830E+02 
 +8.453547E+02 +6.653381E-01 +2.664801E+00 +6.653381E-01 +4.503394E+02 +7.550906E+00 +2.664801E+00 +7.550906E+00 +3.458365E+02 
 +8.483163E+02 +1.654497E+00 -9.471372E-01 +1.654497E+00 +4.556394E+02 +7.759177E+00 -9.471372E-01 +7.759177E+00 +3.540884E+02 
 +8.537194E+02 -2.771767E-01 +8.121464E-01 -2.771767E-01 +4.597884E+02 +6.846429E+00 +8.121464E-01 +6.846429E+00 +3.575010E+02 
 +8.527504E+02 -1.193065E+01 +7.815181E+00 -1.193065E+01 +4.585458E+02 +8.327886E+00 +7.815181E+00 +8.327886E+00 +3.333466E+02 
 +8.592023E+02 -1.564696E+01 +6.798480E+00 -1.564696E+01 +4.798476E+02 +6.302484E+00 +6.798480E+00 +6.302484E+00 +3.328362E+02 
 +8.460507E+02 -8.991008E+00 -3.724878E+00 -8.991008E+00 +4.855601E+02 +4.829337E+00 -3.724878E+00 +4.829337E+00 +3.429016E+02 
 +8.342532E+02 -2.875997E+00 -9.435578E+00 -2.875997E+00 +4.861311E+02 +2.781487E+00 -9.435578E+00 +2.781487E+00 +3.542823E+02 
 +8.556817E+02 +2.722917E+00 -1.215521E+01 +2.722917E+00 +5.063022E+02 +3.998459E+00 -1.215521E+01 +3.998459E+00 +3.614847E+02 
 +8.758236E+02 +7.603743E+00 -4.796378E+00 +7.603743E+00 +5.110306E+02 +1.322408E+01 -4.796378E+00 +1.322408E+01 +3.273668E+02 
 +8.686878E+02 +5.939020E+00 -4.234155E+00 +5.939020E+00 +5.010386E+02 +1.525633E+01 -4.234155E+00 +1.525633E+01 +3.054997E+02 
 +8.652430E+02 +7.987399E+00 -3.310817E+00 +7.987399E+00 +5.011769E+02 +1.334955E+01 -3.310817E+00 +1.334955E+01 +3.228084E+02 
 +8.616569E+02 +8.871720E+00 -7.173120E+00 +8.871720E+00 +4.958468E+02 +1.732967E+01 -7.173120E+00 +1.732967E+01 +3.185477E+02 
 +8.586026E+02 +1.142635E+01 -1.889484E+00 +1.142635E+01 +4.944622E+02 +1.756311E+01 -1.889484E+00 +1.756311E+01 +3.138625E+02 
 +8.443849E+02 +3.798553E+00 +6.644755E+00 +3.798553E+00 +4.913091E+02 +5.575786E+00 +6.644755E+00 +5.575786E+00 +3.379514E+02 
 +8.499649E+02 -8.228993E+00 +7.257537E+00 -8.228993E+00 +4.896209E+02 -1.089084E+01 +7.257537E+00 -1.089084E+01 +3.575432E+02 
 +8.518906E+02 -1.602682E+01 +4.143287E+00 -1.602682E+01 +4.842011E+02 -1.638853E+01 +4.143287E+00 -1.638853E+01 +3.473156E+02 
 +8.366889E+02 -2.136432E+00 -2.683060E-01 -2.136432E+00 +4.592283E+02 -2.767921E+00 -2.683060E-01 -2.767921E+00 +3.439288E+02 
 +8.251479E+02 +1.570082E+00 -7.474119E+00 +1.570082E+00 +4.416626E+02 +8.225754E+00 -7.474119E+00 +8.225754E+00 +3.405946E+02 
 +8.147381E+02 -7.165137E+00 +8.366678E+00 -7.165137E+00 +4.122972E+02 +1.138659E+01 +8.366678E+00 +1.138659E+01 +3.384925E+02 
 +8.346375E+02 -8.044854E+00 +1.313565E+01 -8.044854E+00 +4.243961E+02 +8.647753E+00 +1.313565E+01 +8.647753E+00 +3.518167E+02 
 +8.423810E+02 -5.409687E+00 +9.397951E+00 -5.409687E+00 +4.421872E+02 +7.066407E+00 +9.397951E+00 +7.066407E+00 +3.496850E+02 
 +8.396945E+02 -1.095022E+00 +1.596702E+00 -1.095022E+00 +4.445579E+02 +9.028561E+00 +1.596702E+00 +9.028561E+00 +3.432449E+02 
 +8.380114E+02 +1.856143E-01 -4.101198E+00 +1.856143E-01 +4.459568E+02 +7.439914E+00 -4.101198E+00 +7.439914E+00 +3.453187E+02 
 +8.400546E+02 -6.634084E-03 +1.843360E+00 -6.634084E-03 +4.436906E+02 +1.113686E+01 +1.843360E+00 +1.113686E+01 +3.506062E+02 
 +8.516078E+02 -2.771546E+00 +8.439803E+00 -2.771546E+00 +4.576335E+02 +2.705455E+01 +8.439803E+00 +2.705455E+01 +3.469811E+02 
 +8.534162E+02 -7.733211E+00 +2.381244E+00 -7.733211E+00 +4.748582E+02 +3.609313E+01 +2.381244E+00 +3.609313E+01 +3.369522E+02 
 +8.515160E+02 -5.236716E+00 -1.199310E+00 -5.236716E+00 +4.903509E+02 +2.935075E+01 -1.199310E+00 +2.935075E+01 +3.372707E+02 
 +8.527564E+02 +4.173977E+00 -1.900353E+00 +4.173977E+00 +5.063991E+02 +1.700202E+01 -1.900353E+00 +1.700202E+01 +3.420770E+02 
 +8.644460E+02 +7.991481E+00 -9.217863E-01 +7.991481E+00 +5.179019E+02 +1.186529E+01 -9.217863E-01 +1.186529E+01 +3.426906E+02 
 +8.713102E+02 +8.121560E+00 +3.117141E-01 +8.121560E+00 +5.127234E+02 +1.379783E+01 +3.117141E-01 +1.379783E+01 +3.268868E+02 
 +8.709877E+02 +5.122595E+00 +1.413673E+00 +5.122595E+00 +5.032350E+02 +1.438569E+01 +1.413673E+00 +1.438569E+01 +3.176945E+02 
 +8.688183E+02 +6.645486E+00 +2.038790E+00 +6.645486E+00 +4.990780E+02 +1.694530E+01 +2.038790E+00 +1.694530E+01 +3.213872E+02 
 +8.690737E+02 +9.898841E+00 -7.121366E-01 +9.898841E+00 +5.005063E+02 +2.360452E+01 -7.121366E-01 +2.360452E+01 +3.177090E+02 
 +8.662428E+02 +1.112741E+01 -1.340183E+00 +1.112741E+01 +5.035706E+02 +2.712433E+01 -1.340183E+00 +2.712433E+01 +3.205251E+02 
 +8.535135E+02 -2.029033E+00 +1.540866E+00 -2.029033E+00 +4.994532E+02 +1.737733E+01 +1.540866E+00 +1.737733E+01 +3.503772E+02 
 +8.637678E+02 -8.485996E+00 -3.430869E-01 -8.485996E+00 +5.001545E+02 +1.423287E+00 -3.430869E-01 +1.423287E+00 +3.828964E+02 
 +8.499558E+02 -1.046688E+01 +1.093667E+01 -1.046688E+01 +4.773134E+02 -4.044145E+00 +1.093667E+01 -4.044145E+00 +3.632686E+02 
 +8.520571E+02 -6.036097E+00 -1.852247E-01 -6.036097E+00 +4.907606E+02 -7.700624E-03 -1.852247E-01 -7.700624E-03 +3.776677E+02 
 +8.497931E+02 -5.791075E+00 -5.128935E+00 -5.791075E+00 +4.855023E+02 +6.914449E+00 -5.128935E+00 +6.914449E+00 +3.728731E+02 
 +8.324746E+02 -1.469979E+01 +2.611682E+00 -1.469979E+01 +4.677601E+02 +1.232870E+01 +2.611682E+00 +1.232870E+01 +3.664917E+02 
 +8.410507E+02 -5.914375E+00 +4.532464E+00 -5.914375E+00 +4.467100E+02 +8.433534E+00 +4.532464E+00 +8.433534E+00 +3.607303E+02 
 +8.338513E+02 -5.299804E+00 +3.656132E+00 -5.299804E+00 +4.319590E+02 +6.413025E+00 +3.656132E+00 +6.413025E+00 +3.422984E+02 
 +8.354156E+02 -3.474173E+00 -1.411891E+00 -3.474173E+00 +4.410468E+02 +4.057348E+00 -1.411891E+00 +4.057348E+00 +3.389829E+02 
 +8.335356E+02 -3.387250E+00 +7.822205E-01 -3.387250E+00 +4.462531E+02 +9.888013E+00 +7.822205E-01 +9.888013E+00 +3.333095E+02 
 +8.518923E+02 -3.586384E+00 +4.768691E+00 -3.586384E+00 +4.670424E+02 +2.450234E+01 +4.768691E+00 +2.450234E+01 +3.358522E+02 
 +8.551397E+02 -2.471008E+00 +8.311093E+00 -2.471008E+00 +4.754504E+02 +3.137306E+01 +8.311093E+00 +3.137306E+01 +3.374998E+02 
 +8.599353E+02 -4.099214E+00 -1.884136E+00 -4.099214E+00 +4.858320E+02 +3.215128E+01 -1.884136E+00 +3.215128E+01 +3.484163E+02 
 +8.669648E+02 +1.505225E+00 -3.456588E+00 +1.505225E+00 +5.033901E+02 +2.607934E+01 -3.456588E+00 +2.607934E+01 +3.558053E+02 
 +8.658566E+02 +6.818657E+00 +3.249713E+00 +6.818657E+00 +5.105835E+02 +1.630040E+01 +3.249713E+00 +1.630040E+01 +3.424098E+02 
 +8.622985E+02 +5.984778E+00 +8.506953E+00 +5.984778E+00 +5.105143E+02 +1.229684E+01 +8.506953E+00 +1.229684E+01 +3.308412E+02 
 +8.643027E+02 +3.505501E+00 +8.180864E+00 +3.505501E+00 +5.090311E+02 +1.401950E+01 +8.180864E+00 +1.401950E+01 +3.286340E+02 
 +8.661705E+02 +1.955796E+00 +9.045475E+00 +1.955796E+00 +5.001025E+02 +1.479701E+01 +9.045475E+00 +1.479701E+01 +3.218299E+02 
 +8.649723E+02 +4.559740E+00 +1.158910E+01 +4.559740E+00 +4.930749E+02 +1.495695E+01 +1.158910E+01 +1.495695E+01 +3.113801E+02 
 +8.683351E+02 +7.085956E+00 +1.130608E+01 +7.085956E+00 +5.008228E+02 +2.017819E+01 +1.130608E+01 +2.017819E+01 +3.096128E+02 
 +8.695059E+02 +3.241727E+00 +1.407558E+00 +3.241727E+00 +4.993694E+02 +2.335031E+01 +1.407558E+00 +2.335031E+01 +3.256111E+02 
 +8.613611E+02 -1.855868E+00 -5.483250E+00 -1.855868E+00 +4.819784E+02 +1.055050E+01 -5.483250E+00 +1.055050E+01 +3.409549E+02 
 +8.676004E+02 -3.538482E+00 -5.193210E+00 -3.538482E+00 +4.906541E+02 -4.525541E+00 -5.193210E+00 -4.525541E+00 +3.678529E+02 
 +8.512483E+02 -1.079476E+01 +5.197258E+00 -1.079476E+01 +4.925834E+02 -4.769534E+00 +5.197258E+00 -4.769534E+00 +3.799822E+02 
 +8.464523E+02 -6.344816E+00 -2.143235E+00 -6.344816E+00 +4.909464E+02 +4.967772E+00 -2.143235E+00 +4.967772E+00 +3.830876E+02 
 +8.489629E+02 -4.329319E+00 -2.967848E+00 -4.329319E+00 +4.880011E+02 +7.234534E+00 -2.967848E+00 +7.234534E+00 +3.784560E+02 
 +8.489754E+02 -1.058475E+01 -4.033413E+00 -1.058475E+01 +4.949097E+02 +6.345196E+00 -4.033413E+00 +6.345196E+00 +3.784147E+02 
 +8.529987E+02 -1.056951E+01 -5.236742E+00 -1.056951E+01 +5.026199E+02 +3.811427E+00 -5.236742E+00 +3.811427E+00 +3.781524E+02 
 +8.463034E+02 -7.585516E+00 -4.624313E+00 -7.585516E+00 +4.736595E+02 +1.114728E+00 -4.624313E+00 +1.114728E+00 +3.548142E+02 
 +8.383957E+02 -2.539628E+00 -1.183078E+01 -2.539628E+00 +4.552089E+02 -1.208888E+00 -1.183078E+01 -1.208888E+00 +3.381447E+02 
 +8.421220E+02 -1.447856E+00 +3.715822E+00 -1.447856E+00 +4.670500E+02 +1.950307E+00 +3.715822E+00 +1.950307E+00 +3.408329E+02 
 +8.539003E+02 -4.670304E+00 +2.096958E+00 -4.670304E+00 +4.772037E+02 +1.425034E+01 +2.096958E+00 +1.425034E+01 +3.322132E+02 
 +8.625190E+02 -4.536645E+00 +5.711333E+00 -4.536645E+00 +4.832095E+02 +2.373614E+01 +5.711333E+00 +2.373614E+01 +3.226126E+02 
 +8.660779E+02 -2.605384E+00 +5.781072E-01 -2.605384E+00 +4.917694E+02 +3.138288E+01 +5.781072E-01 +3.138288E+01 +3.372024E+02 
 +8.747584E+02 +4.851790E+00 -1.395030E+00 +4.851790E+00 +5.048457E+02 +3.385643E+01 -1.395030E+00 +3.385643E+01 +3.608149E+02 
 +8.752007E+02 +8.038440E+00 +5.589551E+00 +8.038440E+00 +5.096762E+02 +2.595318E+01 +5.589551E+00 +2.595318E+01 +3.618650E+02 
 +8.729651E+02 +8.384465E+00 +1.090791E+01 +8.384465E+00 +5.113181E+02 +1.607444E+01 +1.090791E+01 +1.607444E+01 +3.507191E+02 
 +8.679863E+02 +4.764902E+00 +1.352707E+01 +4.764902E+00 +5.094578E+02 +9.295848E+00 +1.352707E+01 +9.295848E+00 +3.470072E+02 
 +8.560372E+02 +4.524251E-01 +1.499291E+01 +4.524251E-01 +4.993537E+02 +1.070988E+01 +1.499291E+01 +1.070988E+01 +3.400600E+02 
 +8.489342E+02 -2.366525E+00 +1.214472E+01 -2.366525E+00 +4.858414E+02 +1.842661E+00 +1.214472E+01 +1.842661E+00 +3.138235E+02 
 +8.539334E+02 -9.820793E-01 +9.586949E+00 -9.820793E-01 +4.701415E+02 -1.862317E+01 +9.586949E+00 -1.862317E+01 +3.024404E+02 
 +8.745191E+02 -3.372661E+00 +2.890102E+00 -3.372661E+00 +4.695549E+02 -2.340006E+01 +2.890102E+00 -2.340006E+01 +3.291049E+02 
 +8.768538E+02 -6.360392E+00 -7.530734E+00 -6.360392E+00 +4.725054E+02 -1.510118E+01 -7.530734E+00 -1.510118E+01 +3.436998E+02 
 +8.690153E+02 -5.597494E+00 -7.170408E+00 -5.597494E+00 +4.832475E+02 -1.282912E+01 -7.170408E+00 -1.282912E+01 +3.643647E+02 
 +8.407231E+02 -1.251776E+01 +2.791723E+00 -1.251776E+01 +4.839047E+02 -6.334257E+00 +2.791723E+00 -6.334257E+00 +3.804302E+02 
 +8.459701E+02 -9.359258E+00 -7.442402E-02 -9.359258E+00 +4.901218E+02 +6.603178E+00 -7.442402E-02 +6.603178E+00 +3.851139E+02 
 +8.514992E+02 -8.348651E+00 -3.396328E+00 -8.348651E+00 +4.957282E+02 +9.213251E+00 -3.396328E+00 +9.213251E+00 +3.854945E+02 
 +8.522071E+02 -1.032829E+01 -7.526870E+00 -1.032829E+01 +5.003494E+02 +8.307750E+00 -7.526870E+00 +8.307750E+00 +3.844251E+02 
 +8.488147E+02 -1.017648E+01 -9.538396E+00 -1.017648E+01 +5.058670E+02 +6.408891E+00 -9.538396E+00 +6.408891E+00 +3.798818E+02 
 +8.575843E+02 -7.183650E+00 -5.309160E+00 -7.183650E+00 +5.116576E+02 +3.825791E+00 -5.309160E+00 +3.825791E+00 +3.685759E+02 
 +8.540497E+02 +3.562598E+00 -2.495490E+01 +3.562598E+00 +5.039754E+02 +2.269384E-01 -2.495490E+01 +2.269384E-01 +3.590195E+02 
 +8.575827E+02 +1.110485E+00 -8.363001E+00 +1.110485E+00 +5.031524E+02 -2.129421E+00 -8.363001E+00 -2.129421E+00 +3.687874E+02 
 +8.687220E+02 -3.757137E+00 -1.588381E+00 -3.757137E+00 +5.002716E+02 +4.734335E+00 -1.588381E+00 +4.734335E+00 +3.589467E+02 
 +8.804824E+02 -1.379272E+00 +2.360569E+00 -1.379272E+00 +4.960336E+02 +1.570535E+01 +2.360569E+00 +1.570535E+01 +3.361535E+02 
 +8.738520E+02 +9.392807E-01 +3.187509E+00 +9.392807E-01 +4.959209E+02 +2.723915E+01 +3.187509E+00 +2.723915E+01 +3.334566E+02 
 +8.837080E+02 +6.817884E+00 +3.544564E+00 +6.817884E+00 +5.085493E+02 +3.200300E+01 +3.544564E+00 +3.200300E+01 +3.588485E+02 
 +9.014189E+02 +1.448337E+01 +1.069547E+01 +1.448337E+01 +5.242249E+02 +2.534227E+01 +1.069547E+01 +2.534227E+01 +3.906838E+02 
 +8.763414E+02 +1.304294E+01 +1.068279E+01 +1.304294E+01 +5.145718E+02 +1.808270E+01 +1.068279E+01 +1.808270E+01 +3.794146E+02 
 +8.700759E+02 +6.314305E-01 +1.022816E+01 +6.314305E-01 +5.129144E+02 +1.280921E+01 +1.022816E+01 +1.280921E+01 +3.683465E+02 
 +8.433808E+02 -4.883905E+00 +1.357446E+01 -4.883905E+00 +4.988837E+02 +6.322901E+00 +1.357446E+01 +6.322901E+00 +3.662758E+02 
 +8.275147E+02 -9.582420E+00 +5.224751E+00 -9.582420E+00 +4.722479E+02 -3.472052E+00 +5.224751E+00 -3.472052E+00 +3.430802E+02 
 +8.729109E+02 -1.022618E+01 +1.472240E+00 -1.022618E+01 +4.670472E+02 -1.121866E+01 +1.472240E+00 -1.121866E+01 +3.370759E+02 
 +8.921252E+02 -7.375296E+00 +5.834589E+00 -7.375296E+00 +4.664943E+02 -1.322552E+01 +5.834589E+00 -1.322552E+01 +3.502530E+02 
 +8.892307E+02 -9.770322E+00 -7.357100E-01 -9.770322E+00 +4.738820E+02 -1.110065E+01 -7.357100E-01 -1.110065E+01 +3.561743E+02 
 +8.803181E+02 -7.021471E+00 -3.136263E+00 -7.021471E+00 +4.853038E+02 -1.046932E+01 -3.136263E+00 -1.046932E+01 +3.707736E+02 
 +8.422710E+02 -1.454283E+01 +7.242478E+00 -1.454283E+01 +4.804981E+02 -4.748176E+00 +7.242478E+00 -4.748176E+00 +3.795809E+02 
 +8.477944E+02 -1.088279E+01 +3.233401E+00 -1.088279E+01 +4.926741E+02 +6.936465E+00 +3.233401E+00 +6.936465E+00 +3.842252E+02 
 +8.501915E+02 -1.102774E+01 -1.855901E+00 -1.102774E+01 +4.998335E+02 +1.065493E+01 -1.855901E+00 +1.065493E+01 +3.865105E+02 
 +8.547289E+02 -1.156731E+01 -7.502433E+00 -1.156731E+01 +5.046271E+02 +1.104131E+01 -7.502433E+00 +1.104131E+01 +3.867976E+02 
 +8.538675E+02 -1.144122E+01 -9.579395E+00 -1.144122E+01 +5.058266E+02 +8.640115E+00 -9.579395E+00 +8.640115E+00 +3.815861E+02 
 +8.543812E+02 -9.714588E+00 -3.282189E+00 -9.714588E+00 +5.085405E+02 +5.141370E+00 -3.282189E+00 +5.141370E+00 +3.699916E+02 
 +8.498543E+02 +3.853058E+00 -2.831277E+01 +3.853058E+00 +5.050742E+02 +9.559951E-01 -2.831277E+01 +9.559951E-01 +3.664068E+02 
 +8.540852E+02 +9.519204E+00 -1.748241E+01 +9.519204E+00 +5.014671E+02 -4.938467E+00 -1.748241E+01 -4.938467E+00 +3.692999E+02 
 +8.822617E+02 +9.148220E+00 -4.970235E+00 +9.148220E+00 +5.138695E+02 -1.337727E+01 -4.970235E+00 -1.337727E+01 +3.624806E+02 
 +8.803371E+02 +6.314153E+00 -1.067301E+00 +6.314153E+00 +5.089691E+02 -8.054392E+00 -1.067301E+00 -8.054392E+00 +3.504432E+02 
 +8.869491E+02 +5.181322E+00 -2.687337E-01 +5.181322E+00 +5.076726E+02 +1.398360E+01 -2.687337E-01 +1.398360E+01 +3.576497E+02 
 +8.917914E+02 +5.974339E+00 -3.219984E-01 +5.974339E+00 +5.068346E+02 +2.957772E+01 -3.219984E-01 +2.957772E+01 +3.731125E+02 
 +9.186965E+02 +1.331142E+01 +8.015423E+00 +1.331142E+01 +5.319902E+02 +3.027330E+01 +8.015423E+00 +3.027330E+01 +4.202762E+02 
 +8.851670E+02 +1.002152E+01 +2.450126E+00 +1.002152E+01 +5.292919E+02 +2.263273E+01 +2.450126E+00 +2.263273E+01 +4.258295E+02 
 +8.657077E+02 -3.007871E+00 +3.116164E-03 -3.007871E+00 +5.175794E+02 +1.130187E+01 +3.116164E-03 +1.130187E+01 +4.021816E+02 
 +8.525217E+02 -5.734498E+00 +8.478054E+00 -5.734498E+00 +5.053059E+02 +3.558056E+00 +8.478054E+00 +3.558056E+00 +3.924780E+02 
 +8.265501E+02 -1.053150E+01 +3.655896E+00 -1.053150E+01 +4.735844E+02 -3.405581E+00 +3.655896E+00 -3.405581E+00 +3.749742E+02 
 +8.698901E+02 -1.440690E+01 +4.384478E+00 -1.440690E+01 +4.642572E+02 -9.183593E+00 +4.384478E+00 -9.183593E+00 +3.607428E+02 
 +8.939484E+02 -1.010709E+01 +1.081760E+01 -1.010709E+01 +4.627188E+02 -1.154383E+01 +1.081760E+01 -1.154383E+01 +3.514494E+02 
 +8.978774E+02 -8.974733E+00 +4.125407E+00 -8.974733E+00 +4.718558E+02 -6.723023E+00 +4.125407E+00 -6.723023E+00 +3.508977E+02 
 +8.863796E+02 -5.832556E+00 +3.013713E+00 -5.832556E+00 +4.820926E+02 -5.929993E+00 +3.013713E+00 -5.929993E+00 +3.634725E+02 
 +8.469109E+02 -1.395029E+01 +1.214515E+01 -1.395029E+01 +4.792514E+02 -3.493261E+00 +1.214515E+01 -3.493261E+00 +3.742832E+02 
 +8.464842E+02 -1.291748E+01 +9.137958E+00 -1.291748E+01 +4.952980E+02 +2.830354E+00 +9.137958E+00 +2.830354E+00 +3.826262E+02 
 +8.527257E+02 -1.480050E+01 +2.489721E+00 -1.480050E+01 +5.038802E+02 +8.070156E+00 +2.489721E+00 +8.070156E+00 +3.886405E+02 
 +8.552337E+02 -1.509046E+01 -4.248714E+00 -1.509046E+01 +5.048334E+02 +1.037783E+01 -4.248714E+00 +1.037783E+01 +3.864492E+02 
 +8.613314E+02 -1.283319E+01 -7.626962E+00 -1.283319E+01 +5.098770E+02 +8.567529E+00 -7.626962E+00 +8.567529E+00 +3.841505E+02 
 +8.594714E+02 -9.521828E+00 -1.790032E+00 -9.521828E+00 +5.083708E+02 +4.682820E+00 -1.790032E+00 +4.682820E+00 +3.718284E+02 
 +8.529085E+02 +2.201790E+00 -1.735177E+01 +2.201790E+00 +5.047370E+02 +1.691490E+00 -1.735177E+01 +1.691490E+00 +3.655664E+02 
 +8.650561E+02 +6.430795E+00 -1.086523E+01 +6.430795E+00 +5.106071E+02 +9.409937E-01 -1.086523E+01 +9.409937E-01 +3.674804E+02 
 +8.777581E+02 +4.232684E+00 -6.321145E+00 +4.232684E+00 +5.140704E+02 +6.022619E-02 -6.321145E+00 +6.022619E-02 +3.610915E+02 
 +8.773606E+02 -1.291322E+00 -1.561645E+00 -1.291322E+00 +5.167401E+02 -5.695298E+00 -1.561645E+00 -5.695298E+00 +3.732329E+02 
 +9.074879E+02 +1.121856E+00 -3.671135E+00 +1.121856E+00 +5.343857E+02 -8.086912E+00 -3.671135E+00 -8.086912E+00 +4.058257E+02 
 +9.114170E+02 +8.059204E-02 -5.419788E+00 +8.059204E-02 +5.409984E+02 -1.179994E+00 -5.419788E+00 -1.179994E+00 +4.236107E+02 
 +9.305895E+02 +5.103729E+00 -9.803413E+00 +5.103729E+00 +5.567931E+02 +8.711804E+00 -9.803413E+00 +8.711804E+00 +4.545541E+02 
 +9.113824E+02 +5.028573E+00 -1.195645E+01 +5.028573E+00 +5.407767E+02 +1.054417E+01 -1.195645E+01 +1.054417E+01 +4.587661E+02 
 +8.741713E+02 +5.000453E-01 -5.395115E+00 +5.000453E-01 +5.158293E+02 +3.632081E+00 -5.395115E+00 +3.632081E+00 +4.399598E+02 
 +8.563810E+02 -1.277749E-01 +6.009427E+00 -1.277749E-01 +4.998317E+02 -5.887734E+00 +6.009427E+00 -5.887734E+00 +4.135191E+02 
 +8.585127E+02 -6.862798E+00 +7.074038E+00 -6.862798E+00 +4.961445E+02 -4.821942E+00 +7.074038E+00 -4.821942E+00 +3.915460E+02 
 +8.501655E+02 -8.654377E+00 +2.102332E+00 -8.654377E+00 +4.839117E+02 -8.392691E-01 +2.102332E+00 -8.392691E-01 +3.684627E+02 
 +8.859849E+02 -9.304254E+00 +1.201403E+01 -9.304254E+00 +4.790956E+02 -7.626944E+00 +1.201403E+01 -7.626944E+00 +3.553376E+02 
 +9.034431E+02 -9.743990E+00 +1.068018E+01 -9.743990E+00 +4.711920E+02 -1.154481E+01 +1.068018E+01 -1.154481E+01 +3.415331E+02 
 +8.972148E+02 -2.492172E+00 +8.943815E+00 -2.492172E+00 +4.811972E+02 -1.047480E+01 +8.943815E+00 -1.047480E+01 +3.557260E+02 
 +8.479643E+02 -1.081562E+01 +1.920673E+01 -1.081562E+01 +4.796491E+02 -7.371436E+00 +1.920673E+01 -7.371436E+00 +3.677877E+02 
 +8.595856E+02 -1.980566E+01 +1.633290E+01 -1.980566E+01 +5.046955E+02 -3.154651E+00 +1.633290E+01 -3.154651E+00 +3.854375E+02 
 +8.531340E+02 -1.751328E+01 +7.989507E+00 -1.751328E+01 +5.030449E+02 +2.580767E+00 +7.989507E+00 +2.580767E+00 +3.862414E+02 
 +8.595868E+02 -1.858719E+01 -1.784978E-01 -1.858719E+01 +5.117153E+02 +5.574601E+00 -1.784978E-01 +5.574601E+00 +3.875950E+02 
 +8.582535E+02 -1.983007E+01 -3.157628E+00 -1.983007E+01 +5.073456E+02 +6.552936E+00 -3.157628E+00 +6.552936E+00 +3.773694E+02 
 +8.740301E+02 -1.532100E+01 +2.178840E+00 -1.532100E+01 +5.145378E+02 +9.009781E-01 +2.178840E+00 +9.009781E-01 +3.594244E+02 
 +8.755269E+02 +3.086480E+00 -1.816930E+00 +3.086480E+00 +5.213357E+02 -3.522621E+00 -1.816930E+00 -3.522621E+00 +3.546017E+02 
 +8.728588E+02 +8.732682E+00 +2.947273E+00 +8.732682E+00 +5.224117E+02 -1.456634E-01 +2.947273E+00 -1.456634E-01 +3.716932E+02 
 +8.732627E+02 +8.122395E+00 +3.081978E+00 +8.122395E+00 +5.215547E+02 +4.504721E+00 +3.081978E+00 +4.504721E+00 +3.770874E+02 
 +8.821438E+02 +3.311318E+00 +5.247468E+00 +3.311318E+00 +5.271640E+02 +1.566184E+00 +5.247468E+00 +1.566184E+00 +3.849514E+02 
 +8.958742E+02 +1.344508E+00 +3.238260E+00 +1.344508E+00 +5.423160E+02 -7.429275E+00 +3.238260E+00 -7.429275E+00 +3.990007E+02 
 +9.234562E+02 +3.098689E+00 -7.513303E+00 +3.098689E+00 +5.642273E+02 -1.276514E+01 -7.513303E+00 -1.276514E+01 +4.175485E+02 
 +9.331203E+02 +1.352054E+01 -2.763526E+01 +1.352054E+01 +5.593065E+02 -1.076201E+01 -2.763526E+01 -1.076201E+01 +4.233111E+02 
 +9.162434E+02 +1.628711E+01 -2.249995E+01 +1.628711E+01 +5.361226E+02 -6.717377E+00 -2.249995E+01 -6.717377E+00 +4.244177E+02 
 +8.839335E+02 +6.241018E+00 -9.333280E+00 +6.241018E+00 +5.170979E+02 -8.244446E+00 -9.333280E+00 -8.244446E+00 +4.434343E+02 
 +8.480479E+02 +1.169572E+00 +6.847408E-01 +1.169572E+00 +4.872667E+02 -1.940234E+01 +6.847408E-01 -1.940234E+01 +4.207005E+02 
 +8.677764E+02 -5.452319E+00 +8.866027E+00 -5.452319E+00 +4.863547E+02 -2.657616E+01 +8.866027E+00 -2.657616E+01 +3.884815E+02 
 +8.370892E+02 -5.258760E+00 +4.898546E-02 -5.258760E+00 +4.786606E+02 -1.147496E+01 +4.898546E-02 -1.147496E+01 +3.672690E+02 
 +8.648248E+02 -6.253887E+00 +3.498216E+00 -6.253887E+00 +4.867343E+02 -1.432111E+00 +3.498216E+00 -1.432111E+00 +3.678269E+02 
 +8.877130E+02 -5.938417E+00 +1.619304E+01 -5.938417E+00 +4.657369E+02 -1.137702E+01 +1.619304E+01 -1.137702E+01 +3.537364E+02 
 +8.733637E+02 -3.212144E+00 +1.926328E+01 -3.212144E+00 +4.529708E+02 -1.434088E+01 +1.926328E+01 -1.434088E+01 +3.527556E+02 
 +8.506957E+02 -1.408161E+01 +2.661791E+01 -1.408161E+01 +4.765280E+02 -1.012694E+01 +2.661791E+01 -1.012694E+01 +3.678963E+02 
 +8.569164E+02 -1.842298E+01 +1.751114E+01 -1.842298E+01 +4.974066E+02 -5.636067E+00 +1.751114E+01 -5.636067E+00 +3.800059E+02 
 +8.604944E+02 -2.057940E+01 +1.284907E+01 -2.057940E+01 +5.122804E+02 -3.665237E+00 +1.284907E+01 -3.665237E+00 +3.876493E+02 
 +8.606886E+02 -2.449916E+01 +6.261220E+00 -2.449916E+01 +5.126231E+02 +6.779215E-01 +6.261220E+00 +6.779215E-01 +3.884102E+02 
 +8.647142E+02 -2.051988E+01 -1.919646E-02 -2.051988E+01 +5.105675E+02 +4.671414E+00 -1.919646E-02 +4.671414E+00 +3.731869E+02 
 +9.020267E+02 -7.226465E+00 -7.295035E-01 -7.226465E+00 +5.289015E+02 +2.145052E+00 -7.295035E-01 +2.145052E+00 +3.532935E+02 
 +8.994377E+02 +4.724263E+00 +9.256786E-01 +4.724263E+00 +5.282269E+02 -4.799670E-01 +9.256786E-01 -4.799670E-01 +3.510313E+02 
 +8.691410E+02 +8.102552E+00 +6.453294E+00 +8.102552E+00 +5.187324E+02 +2.785267E+00 +6.453294E+00 +2.785267E+00 +3.664052E+02 
 +8.675989E+02 +8.638104E+00 +9.654191E+00 +8.638104E+00 +5.201782E+02 +3.595092E+00 +9.654191E+00 +3.595092E+00 +3.656747E+02 
 +8.760039E+02 +8.588364E+00 +1.046713E+01 +8.588364E+00 +5.293318E+02 +5.145788E+00 +1.046713E+01 +5.145788E+00 +3.617276E+02 
 +8.717186E+02 +1.167684E+01 +9.219277E+00 +1.167684E+01 +5.263470E+02 +4.055375E+00 +9.219277E+00 +4.055375E+00 +3.535282E+02 
 +9.203715E+02 +1.799469E+01 -1.196616E+01 +1.799469E+01 +5.482575E+02 -5.165036E+00 -1.196616E+01 -5.165036E+00 +3.664620E+02 
 +9.275718E+02 +1.747651E+01 -2.936590E+01 +1.747651E+01 +5.558480E+02 -1.234260E+01 -2.936590E+01 -1.234260E+01 +3.718534E+02 
 +9.248838E+02 +1.556717E+01 -2.467770E+01 +1.556717E+01 +5.543875E+02 -1.285264E+01 -2.467770E+01 -1.285264E+01 +3.900168E+02 
 +8.987446E+02 +1.156766E+01 -1.622107E+01 +1.156766E+01 +5.398181E+02 -9.505873E+00 -1.622107E+01 -9.505873E+00 +4.283745E+02 
 +8.541051E+02 +5.299039E+00 -1.083706E+01 +5.299039E+00 +5.046219E+02 -4.743461E+00 -1.083706E+01 -4.743461E+00 +4.253197E+02 
 +8.636697E+02 -4.466708E-01 +4.207031E+00 -4.466708E-01 +4.959046E+02 -3.129797E+00 +4.207031E+00 -3.129797E+00 +3.994686E+02 
 +8.671854E+02 +6.028584E-01 +8.988741E+00 +6.028584E-01 +4.920879E+02 +9.512421E-01 +8.988741E+00 +9.512421E-01 +3.804793E+02 
 +8.667896E+02 +7.474684E-01 +2.023663E+00 +7.474684E-01 +4.908927E+02 +6.101570E+00 +2.023663E+00 +6.101570E+00 +3.834562E+02 
 +8.821392E+02 +8.744568E+00 +1.526047E+01 +8.744568E+00 +5.100136E+02 +7.175341E+00 +1.526047E+01 +7.175341E+00 +3.984680E+02 
 +8.659939E+02 +1.360877E+01 +2.149025E+01 +1.360877E+01 +5.009981E+02 +6.389432E+00 +2.149025E+01 +6.389432E+00 +3.860110E+02 
 +8.529885E+02 +4.700714E+00 +2.109543E+01 +4.700714E+00 +4.861876E+02 +1.544559E-01 +2.109543E+01 +1.544559E-01 +3.748716E+02 
 +8.407332E+02 +3.297969E+00 +1.379595E+01 +3.297969E+00 +4.852350E+02 -3.853814E+00 +1.379595E+01 -3.853814E+00 +3.708777E+02 
 +8.521314E+02 -5.056382E+00 +1.031259E+01 -5.056382E+00 +5.074706E+02 +1.822246E-01 +1.031259E+01 +1.822246E-01 +3.834677E+02 
 +8.679811E+02 -1.484467E+01 +6.466690E+00 -1.484467E+01 +5.190120E+02 +2.660082E+00 +6.466690E+00 +2.660082E+00 +3.985482E+02 
 +9.067428E+02 -5.290461E+00 +7.170266E-02 -5.290461E+00 +5.352800E+02 +1.882166E+00 +7.170266E-02 +1.882166E+00 +3.882016E+02 
 +9.101742E+02 +2.588472E+00 -1.678149E+00 +2.588472E+00 +5.317001E+02 +5.327239E+00 -1.678149E+00 +5.327239E+00 +3.647045E+02 
 +9.010105E+02 +4.421065E+00 -5.220360E-01 +4.421065E+00 +5.261699E+02 +7.489497E+00 -5.220360E-01 +7.489497E+00 +3.659986E+02 
 +8.751765E+02 +8.686245E+00 +2.478892E+00 +8.686245E+00 +5.127878E+02 +3.565616E+00 +2.478892E+00 +3.565616E+00 +3.571668E+02 
 +8.671691E+02 +1.476464E+01 +8.165267E+00 +1.476464E+01 +5.105897E+02 -3.528154E+00 +8.165267E+00 -3.528154E+00 +3.436073E+02 
 +8.701673E+02 +2.103659E+01 +9.397554E+00 +2.103659E+01 +5.164040E+02 -5.275813E+00 +9.397554E+00 -5.275813E+00 +3.371232E+02 
 +8.866573E+02 +2.389628E+01 +6.490734E+00 +2.389628E+01 +5.377907E+02 -6.539552E+00 +6.490734E+00 -6.539552E+00 +3.478067E+02 
 +9.099978E+02 +2.149548E+01 -6.731775E+00 +2.149548E+01 +5.591361E+02 -9.745502E+00 -6.731775E+00 -9.745502E+00 +3.592791E+02 
 +9.084646E+02 +1.051833E+01 -1.559228E+01 +1.051833E+01 +5.474134E+02 -8.789062E+00 -1.559228E+01 -8.789062E+00 +3.529803E+02 
 +9.115122E+02 +3.618268E+00 -1.983471E+01 +3.618268E+00 +5.327816E+02 -1.008830E+01 -1.983471E+01 -1.008830E+01 +3.560546E+02 
 +9.126951E+02 +3.942368E+00 -2.122433E+01 +3.942368E+00 +5.377193E+02 -8.125666E+00 -2.122433E+01 -8.125666E+00 +3.933482E+02 
 +8.779257E+02 +1.213188E+00 -2.036179E+01 +1.213188E+00 +5.307143E+02 -2.647814E+00 -2.036179E+01 -2.647814E+00 +4.332740E+02 
 +8.429193E+02 +5.171543E-01 -4.409755E+00 +5.171543E-01 +4.928336E+02 -2.760875E+00 -4.409755E+00 -2.760875E+00 +4.157854E+02 
 +8.689910E+02 -1.808341E+00 +5.389640E+00 -1.808341E+00 +4.875062E+02 -8.252600E+00 +5.389640E+00 -8.252600E+00 +3.764382E+02 
 +8.918542E+02 -6.343065E+00 +6.373398E+00 -6.343065E+00 +5.143188E+02 -8.841982E+00 +6.373398E+00 -8.841982E+00 +3.838067E+02 
 +8.586584E+02 +5.646633E+00 +1.100091E+01 +5.646633E+00 +5.149967E+02 -5.236341E+00 +1.100091E+01 -5.236341E+00 +4.021105E+02 
 +8.440864E+02 +1.120781E+01 +1.316222E+01 +1.120781E+01 +5.024333E+02 -4.161542E+00 +1.316222E+01 -4.161542E+00 +3.918223E+02 
 +8.399313E+02 +1.124285E+01 +1.253892E+01 +1.124285E+01 +4.820637E+02 -3.491992E+00 +1.253892E+01 -3.491992E+00 +3.750433E+02 
 +8.366268E+02 +6.287707E+00 +1.331630E+01 +6.287707E+00 +4.824636E+02 -7.157945E+00 +1.331630E+01 -7.157945E+00 +3.708933E+02 
 +8.427937E+02 +2.234945E+00 +8.120764E+00 +2.234945E+00 +4.862445E+02 +4.750126E+00 +8.120764E+00 +4.750126E+00 +3.778912E+02 
 +8.686816E+02 -1.103267E+00 +1.437976E-01 -1.103267E+00 +5.126161E+02 +1.519681E+01 +1.437976E-01 +1.519681E+01 +3.928929E+02 
 +9.118121E+02 -4.408554E+00 -1.944128E+00 -4.408554E+00 +5.324861E+02 +8.441522E+00 -1.944128E+00 +8.441522E+00 +3.795984E+02 
 +8.978824E+02 +4.311261E-01 +2.923276E+00 +4.311261E-01 +5.208793E+02 +3.681785E+00 +2.923276E+00 +3.681785E+00 +3.658140E+02 
 +8.937720E+02 +4.304692E+00 +1.474865E+00 +4.304692E+00 +5.241050E+02 +3.671279E+00 +1.474865E+00 +3.671279E+00 +3.739650E+02 
 +8.870556E+02 +6.365677E+00 +5.739366E-01 +6.365677E+00 +5.177148E+02 +4.874207E+00 +5.739366E-01 +4.874207E+00 +3.636646E+02 
 +8.872227E+02 +9.336724E+00 +3.540177E+00 +9.336724E+00 +5.191921E+02 +5.471139E+00 +3.540177E+00 +5.471139E+00 +3.571759E+02 
 +8.858506E+02 +1.325281E+01 +7.373249E+00 +1.325281E+01 +5.237371E+02 +4.338747E+00 +7.373249E+00 +4.338747E+00 +3.539203E+02 
 +8.905734E+02 +1.627730E+01 +6.882459E+00 +1.627730E+01 +5.389855E+02 +2.719052E+00 +6.882459E+00 +2.719052E+00 +3.639521E+02 
 +8.924441E+02 +1.071616E+01 +1.638021E+00 +1.071616E+01 +5.482121E+02 -3.014631E+00 +1.638021E+00 -3.014631E+00 +3.713206E+02 
 +9.016729E+02 +3.468191E+00 -6.276952E+00 +3.468191E+00 +5.388802E+02 -7.850929E+00 -6.276952E+00 -7.850929E+00 +3.691062E+02 
 +9.083923E+02 +1.924215E+00 -1.465890E+01 +1.924215E+00 +5.244899E+02 -8.956066E+00 -1.465890E+01 -8.956066E+00 +3.662235E+02 
 +9.117443E+02 +6.645052E-01 -1.432801E+01 +6.645052E-01 +5.157622E+02 +7.682646E-01 -1.432801E+01 +7.682646E-01 +3.875562E+02 
 +8.971949E+02 -5.875157E+00 -1.602911E+01 -5.875157E+00 +5.072264E+02 +9.669444E+00 -1.602911E+01 +9.669444E+00 +4.256712E+02 
 +8.387553E+02 +1.856258E+00 -1.110888E+01 +1.856258E+00 +4.885383E+02 -1.081496E+00 -1.110888E+01 -1.081496E+00 +4.180868E+02 
 +8.371907E+02 +3.192709E+00 -7.096807E+00 +3.192709E+00 +4.863614E+02 -7.473465E+00 -7.096807E+00 -7.473465E+00 +3.820625E+02 
 +8.864355E+02 -6.454033E+00 +3.585271E+00 -6.454033E+00 +5.134256E+02 -9.385618E+00 +3.585271E+00 -9.385618E+00 +3.856868E+02 
 +8.595973E+02 -3.152295E-01 +8.742103E+00 -3.152295E-01 +5.129090E+02 -9.001304E+00 +8.742103E+00 -9.001304E+00 +4.056161E+02 
 +8.404451E+02 +7.876028E+00 +7.242462E+00 +7.876028E+00 +4.998749E+02 -7.649160E+00 +7.242462E+00 -7.649160E+00 +3.998583E+02 
 +8.419796E+02 +9.284839E+00 +1.051738E+01 +9.284839E+00 +4.924258E+02 -7.566614E+00 +1.051738E+01 -7.566614E+00 +3.838849E+02 
 +8.380136E+02 +8.225706E+00 +1.237339E+01 +8.225706E+00 +4.870547E+02 -4.074317E+00 +1.237339E+01 -4.074317E+00 +3.831564E+02 
 +8.483253E+02 +9.726610E-01 +1.094470E+01 +9.726610E-01 +4.879677E+02 +1.107021E+01 +1.094470E+01 +1.107021E+01 +3.822915E+02 
 +8.606507E+02 -4.410190E+00 -1.531872E+00 -4.410190E+00 +4.873805E+02 +2.034265E+01 -1.531872E+00 +2.034265E+01 +3.702570E+02 
 +8.872577E+02 -5.117703E+00 -2.517576E+00 -5.117703E+00 +5.035322E+02 +1.196828E+01 -2.517576E+00 +1.196828E+01 +3.641048E+02 
 +8.914502E+02 +2.500745E+00 +1.924005E+00 +2.500745E+00 +5.155773E+02 +6.906139E+00 +1.924005E+00 +6.906139E+00 +3.765022E+02 
 +8.875168E+02 +3.108616E+00 +1.618985E+00 +3.108616E+00 +5.186442E+02 +5.879191E+00 +1.618985E+00 +5.879191E+00 +3.840539E+02 
 +8.889894E+02 +3.394362E+00 +1.572773E+00 +3.394362E+00 +5.168210E+02 +4.967614E+00 +1.572773E+00 +4.967614E+00 +3.786649E+02 
 +8.900250E+02 +7.166542E+00 -1.213216E-01 +7.166542E+00 +5.095482E+02 +5.553461E+00 -1.213216E-01 +5.553461E+00 +3.742298E+02 
 +8.938363E+02 +1.290423E+01 -2.275799E+00 +1.290423E+01 +5.223911E+02 +1.458084E+00 -2.275799E+00 +1.458084E+00 +3.825357E+02 
 +8.891676E+02 +1.385544E+01 +4.644493E+00 +1.385544E+01 +5.305327E+02 -4.059607E-01 +4.644493E+00 -4.059607E-01 +3.899398E+02 
 +8.849143E+02 +3.962156E+00 +7.285045E+00 +3.962156E+00 +5.111383E+02 +1.438494E+01 +7.285045E+00 +1.438494E+01 +3.899037E+02 
 +8.823319E+02 -4.686043E+00 -1.842888E+00 -4.686043E+00 +4.869606E+02 +2.290260E+01 -1.842888E+00 +2.290260E+01 +3.843653E+02 
 +8.818982E+02 -5.063703E+00 -5.602623E+00 -5.063703E+00 +4.662032E+02 +2.292702E+01 -5.602623E+00 +2.292702E+01 +3.746884E+02 
 +8.861743E+02 -1.711584E+00 -4.144897E+00 -1.711584E+00 +4.597115E+02 +2.434670E+01 -4.144897E+00 +2.434670E+01 +3.800188E+02 
 +8.984539E+02 -4.776465E+00 -1.011647E+01 -4.776465E+00 +4.839147E+02 +1.182299E+01 -1.011647E+01 +1.182299E+01 +4.041804E+02 
 +8.497179E+02 -2.116531E+00 -8.820787E+00 -2.116531E+00 +4.896651E+02 -7.880810E+00 -8.820787E+00 -7.880810E+00 +4.151023E+02 
 +8.371240E+02 -3.169588E+00 -2.216091E+00 -3.169588E+00 +4.974419E+02 -4.601107E+00 -2.216091E+00 -4.601107E+00 +4.233976E+02 
 +8.597918E+02 +1.369766E+00 +3.270675E+00 +1.369766E+00 +5.025168E+02 +3.737088E+00 +3.270675E+00 +3.737088E+00 +4.161855E+02 
 +8.656008E+02 +2.508602E+00 +5.132838E+00 +2.508602E+00 +5.044222E+02 -1.162542E+00 +5.132838E+00 -1.162542E+00 +4.166001E+02 
 +8.424835E+02 +7.017230E+00 +2.787802E+00 +7.017230E+00 +4.947452E+02 -4.465625E+00 +2.787802E+00 -4.465625E+00 +4.036350E+02 
 +8.423248E+02 +1.000840E+01 +6.836870E+00 +1.000840E+01 +4.938109E+02 -4.785229E+00 +6.836870E+00 -4.785229E+00 +3.919896E+02 
 +8.369340E+02 +7.549126E+00 +8.521901E+00 +7.549126E+00 +4.857641E+02 +1.402873E+00 +8.521901E+00 +1.402873E+00 +3.969211E+02 
 +8.523897E+02 +3.386477E+00 +8.420643E+00 +3.386477E+00 +4.970407E+02 +1.356626E+01 +8.420643E+00 +1.356626E+01 +4.007876E+02 
 +8.782541E+02 -4.648155E+00 -1.529708E+00 -4.648155E+00 +5.006993E+02 +1.761687E+01 -1.529708E+00 +1.761687E+01 +3.864442E+02 
 +8.744815E+02 -2.986340E+00 -3.454984E+00 -2.986340E+00 +4.866295E+02 +6.208838E+00 -3.454984E+00 +6.208838E+00 +3.628565E+02 
 +8.762251E+02 +4.424876E+00 +1.027892E+00 +4.424876E+00 +4.990303E+02 +6.246982E+00 +1.027892E+00 +6.246982E+00 +3.796093E+02 
 +8.764151E+02 +3.687168E+00 +1.741406E+00 +3.687168E+00 +5.087235E+02 +1.210726E+01 +1.741406E+00 +1.210726E+01 +3.917318E+02 
 +8.806239E+02 -9.367692E-01 +1.487971E+00 -9.367692E-01 +5.049299E+02 +3.026404E+00 +1.487971E+00 +3.026404E+00 +3.779497E+02 
 +8.830420E+02 +2.763350E+00 -3.811082E-01 +2.763350E+00 +5.016074E+02 -2.666435E+00 -3.811082E-01 -2.666435E+00 +3.666114E+02 
 +8.780282E+02 +1.208736E+01 -4.797151E+00 +1.208736E+01 +4.955910E+02 +6.022180E+00 -4.797151E+00 +6.022180E+00 +3.678285E+02 
 +8.762575E+02 +9.102343E+00 +1.933073E+00 +9.102343E+00 +4.838671E+02 +2.102988E+01 +1.933073E+00 +2.102988E+01 +3.769864E+02 
 +8.759842E+02 +1.991517E+00 +3.777937E+00 +1.991517E+00 +4.778637E+02 +2.558519E+01 +3.777937E+00 +2.558519E+01 +3.791240E+02 
 +8.757960E+02 -4.707963E+00 +3.394720E+00 -4.707963E+00 +4.767618E+02 +2.129832E+01 +3.394720E+00 +2.129832E+01 +3.665830E+02 
 +8.808008E+02 -5.285544E+00 +5.804598E+00 -5.285544E+00 +4.807433E+02 +1.258029E+01 +5.804598E+00 +1.258029E+01 +3.531612E+02 
 +8.964519E+02 -4.026278E+00 +1.370909E+00 -4.026278E+00 +4.888633E+02 +1.080044E+01 +1.370909E+00 +1.080044E+01 +3.545117E+02 
 +9.048985E+02 -5.189784E-01 -5.121379E+00 -5.189784E-01 +5.028052E+02 +9.776388E+00 -5.121379E+00 +9.776388E+00 +3.803426E+02 
 +8.606769E+02 +2.453800E+00 -1.413006E+00 +2.453800E+00 +4.944530E+02 +4.392117E+00 -1.413006E+00 +4.392117E+00 +4.145842E+02 
 +8.448221E+02 -5.978347E+00 +5.651584E+00 -5.978347E+00 +4.881550E+02 +9.144094E+00 +5.651584E+00 +9.144094E+00 +4.439475E+02 
 +8.394960E+02 +1.476876E+00 +2.479458E+00 +1.476876E+00 +4.811245E+02 +1.382831E+01 +2.479458E+00 +1.382831E+01 +4.304240E+02 
 +8.516625E+02 +8.949111E+00 -1.614504E+00 +8.949111E+00 +4.877824E+02 +8.014515E+00 -1.614504E+00 +8.014515E+00 +4.183816E+02 
 +8.455022E+02 +1.204939E+01 -4.208111E+00 +1.204939E+01 +4.901032E+02 +2.807146E+00 -4.208111E+00 +2.807146E+00 +4.110192E+02 
 +8.421647E+02 +1.050841E+01 -1.642645E-02 +1.050841E+01 +4.897348E+02 +4.543015E-01 -1.642645E-02 +4.543015E-01 +4.021510E+02 
 +8.395430E+02 +7.408072E+00 -3.477995E+00 +7.408072E+00 +4.878319E+02 +7.548993E+00 -3.477995E+00 +7.548993E+00 +4.025074E+02 
 +8.418001E+02 +4.917353E+00 +1.012638E+00 +4.917353E+00 +4.611063E+02 +1.897461E+01 +1.012638E+00 +1.897461E+01 +4.012770E+02 
 +8.434246E+02 -2.524151E+00 -2.774658E+00 -2.524151E+00 +4.471164E+02 +1.940720E+01 -2.774658E+00 +1.940720E+01 +3.794418E+02 
 +8.670675E+02 +3.713524E+00 +7.695049E-01 +3.713524E+00 +4.770176E+02 +1.667674E+01 +7.695049E-01 +1.667674E+01 +3.730340E+02 
 +8.715087E+02 +9.584385E+00 +6.336516E+00 +9.584385E+00 +4.958118E+02 +2.827108E+01 +6.336516E+00 +2.827108E+01 +3.857583E+02 
 +8.691072E+02 +9.752768E+00 +2.036043E+00 +9.752768E+00 +4.995408E+02 +2.912011E+01 +2.036043E+00 +2.912011E+01 +3.921304E+02 
 +8.662321E+02 +1.994355E+00 -2.285355E+00 +1.994355E+00 +4.962519E+02 +1.610447E+01 -2.285355E+00 +1.610447E+01 +3.802861E+02 
 +8.710778E+02 +4.899782E+00 -2.717926E+00 +4.899782E+00 +4.888691E+02 +1.442470E+00 -2.717926E+00 +1.442470E+00 +3.637134E+02 
 +8.770180E+02 +1.053297E+01 +2.367928E+00 +1.053297E+01 +4.752575E+02 -6.568315E+00 +2.367928E+00 -6.568315E+00 +3.631746E+02 
 +8.683260E+02 +7.876245E+00 +5.194423E+00 +7.876245E+00 +4.499705E+02 -1.021753E+01 +5.194423E+00 -1.021753E+01 +3.762680E+02 
 +8.671459E+02 +5.411127E+00 +1.001761E+00 +5.411127E+00 +4.485846E+02 -1.680391E-01 +1.001761E+00 -1.680391E-01 +3.781903E+02 
 +8.716582E+02 -1.314769E+00 +3.623047E+00 -1.314769E+00 +4.713473E+02 +1.810848E+01 +3.623047E+00 +1.810848E+01 +3.551920E+02 
 +8.756702E+02 -4.153653E+00 +6.587926E+00 -4.153653E+00 +4.894094E+02 +1.440573E+01 +6.587926E+00 +1.440573E+01 +3.270467E+02 
 +8.827946E+02 -8.745951E+00 +9.024685E+00 -8.745951E+00 +4.940300E+02 +6.236510E+00 +9.024685E+00 +6.236510E+00 +3.198650E+02 
 +8.825867E+02 -8.801158E+00 +6.641595E+00 -8.801158E+00 +4.829026E+02 +1.384905E+01 +6.641595E+00 +1.384905E+01 +3.390421E+02 
 +8.628705E+02 -7.094748E+00 +5.338476E-01 -7.094748E+00 +4.684501E+02 +2.198937E+01 +5.338476E-01 +2.198937E+01 +3.812936E+02 
 +8.444905E+02 -6.202911E+00 +1.386956E+00 -6.202911E+00 +4.732458E+02 +1.452829E+01 +1.386956E+00 +1.452829E+01 +4.254048E+02 
 +8.272103E+02 +1.347415E+00 +2.382349E-01 +1.347415E+00 +4.699521E+02 +1.246201E+01 +2.382349E-01 +1.246201E+01 +4.229975E+02 
 +8.346562E+02 +8.552364E+00 -5.857090E+00 +8.552364E+00 +4.757794E+02 +1.093169E+01 -5.857090E+00 +1.093169E+01 +4.105014E+02 
 +8.429284E+02 +1.037150E+01 -9.389538E+00 +1.037150E+01 +4.835090E+02 +6.098524E+00 -9.389538E+00 +6.098524E+00 +4.086265E+02 
 +8.503619E+02 +1.297543E+01 -6.940957E+00 +1.297543E+01 +4.959597E+02 +4.956669E+00 -6.940957E+00 +4.956669E+00 +4.070748E+02 
 +8.522797E+02 -7.749193E+00 -1.058331E+01 -7.749193E+00 +4.868273E+02 +1.216173E+01 -1.058331E+01 +1.216173E+01 +3.974313E+02 
 +8.589708E+02 -5.367819E+00 -1.498428E+00 -5.367819E+00 +4.867274E+02 +2.205903E+01 -1.498428E+00 +2.205903E+01 +3.972927E+02 
 +8.579506E+02 -6.058769E+00 -1.801363E+00 -6.058769E+00 +4.855616E+02 +2.373249E+01 -1.801363E+00 +2.373249E+01 +3.907654E+02 
 +8.762539E+02 +6.902289E+00 +7.760693E+00 +6.902289E+00 +4.909887E+02 +2.687059E+01 +7.760693E+00 +2.687059E+01 +4.007365E+02 
 +8.780488E+02 +1.186959E+01 +1.069340E+01 +1.186959E+01 +5.003935E+02 +2.844634E+01 +1.069340E+01 +2.844634E+01 +4.071759E+02 
 +8.713228E+02 +1.113327E+01 +3.692773E+00 +1.113327E+01 +5.007189E+02 +2.085714E+01 +3.692773E+00 +2.085714E+01 +3.945378E+02 
 +8.736410E+02 +8.942065E+00 +9.359506E-01 +8.942065E+00 +5.055746E+02 +1.767547E+01 +9.359506E-01 +1.767547E+01 +3.914797E+02 
 +8.658480E+02 +6.918882E+00 +2.631682E+00 +6.918882E+00 +4.815363E+02 +1.926142E+01 +2.631682E+00 +1.926142E+01 +3.857873E+02 
 +8.499830E+02 +4.015287E+00 +7.203087E+00 +4.015287E+00 +4.252107E+02 +1.309440E+01 +7.203087E+00 +1.309440E+01 +3.709389E+02 
 +8.562694E+02 +5.292584E+00 +7.456871E+00 +5.292584E+00 +4.186890E+02 +1.439303E+00 +7.456871E+00 +1.439303E+00 +3.716557E+02 
 +8.579945E+02 +6.927822E+00 -9.019897E-01 +6.927822E+00 +4.312417E+02 -5.533864E+00 -9.019897E-01 -5.533864E+00 +3.772390E+02 
 +8.613864E+02 +7.582179E+00 -1.887198E+00 +7.582179E+00 +4.473425E+02 -4.150243E+00 -1.887198E+00 -4.150243E+00 +3.636810E+02 
 +8.688415E+02 +1.265833E+00 +8.853103E-01 +1.265833E+00 +4.756138E+02 +5.347417E+00 +8.853103E-01 +5.347417E+00 +3.311163E+02 
 +8.770158E+02 -7.484989E+00 +8.113649E+00 -7.484989E+00 +4.967784E+02 +1.084990E+01 +8.113649E+00 +1.084990E+01 +3.234485E+02 
 +8.772990E+02 -1.224634E+01 +1.307545E+01 -1.224634E+01 +4.914554E+02 +1.682114E+01 +1.307545E+01 +1.682114E+01 +3.321407E+02 
 +8.540627E+02 -1.299804E+01 +9.272970E+00 -1.299804E+01 +4.511665E+02 +3.350823E+01 +9.272970E+00 +3.350823E+01 +3.345665E+02 
 +8.355801E+02 -9.402854E+00 -5.410825E+00 -9.402854E+00 +4.436267E+02 +3.091269E+01 -5.410825E+00 +3.091269E+01 +3.748154E+02 
 +8.139046E+02 -3.893360E+00 -5.495782E+00 -3.893360E+00 +4.636197E+02 +1.158134E+01 -5.495782E+00 +1.158134E+01 +4.068840E+02 
 +8.321478E+02 +3.686678E+00 -4.683538E+00 +3.686678E+00 +4.823842E+02 +3.014042E+00 -4.683538E+00 +3.014042E+00 +4.081477E+02 
 +8.381874E+02 +4.468966E+00 -9.146558E+00 +4.468966E+00 +4.802334E+02 +1.532286E+00 -9.146558E+00 +1.532286E+00 +4.020972E+02 
 +8.505405E+02 +9.344796E+00 -5.391040E+00 +9.344796E+00 +4.903889E+02 +4.787264E+00 -5.391040E+00 +4.787264E+00 +4.046228E+02 
 +8.611439E+02 -1.593151E+01 -1.118057E+01 -1.593151E+01 +4.809983E+02 +9.358050E+00 -1.118057E+01 +9.358050E+00 +3.873763E+02 
 +8.631150E+02 -6.130577E+00 -2.710703E+00 -6.130577E+00 +4.772071E+02 +1.772918E+01 -2.710703E+00 +1.772918E+01 +3.765373E+02 
 +8.646582E+02 -3.137483E+00 +2.901885E+00 -3.137483E+00 +4.929543E+02 +2.145749E+01 +2.901885E+00 +2.145749E+01 +3.808874E+02 
 +8.700969E+02 +3.472173E+00 +7.262398E+00 +3.472173E+00 +5.018184E+02 +2.359960E+01 +7.262398E+00 +2.359960E+01 +3.938647E+02 
 +8.821056E+02 +1.322018E+01 +8.824098E+00 +1.322018E+01 +5.012668E+02 +2.517188E+01 +8.824098E+00 +2.517188E+01 +3.982426E+02 
 +8.812051E+02 +1.303884E+01 +6.286824E+00 +1.303884E+01 +5.042157E+02 +1.834120E+01 +6.286824E+00 +1.834120E+01 +3.911881E+02 
 +8.741365E+02 +9.088934E+00 +7.639554E+00 +9.088934E+00 +4.940771E+02 +1.080476E+01 +7.639554E+00 +1.080476E+01 +3.848177E+02 
 +8.548017E+02 -3.693779E+00 +1.035205E+01 -3.693779E+00 +4.760443E+02 +3.464065E-01 +1.035205E+01 +3.464065E-01 +3.788943E+02 
 +8.492453E+02 -7.146878E+00 +1.405204E+01 -7.146878E+00 +4.595994E+02 -4.156936E+00 +1.405204E+01 -4.156936E+00 +3.726731E+02 
 +8.389555E+02 -1.296490E-01 +3.423371E-01 -1.296490E-01 +4.147489E+02 -3.694758E+00 +3.423371E-01 -3.694758E+00 +3.519907E+02 
 +8.488671E+02 +6.226326E+00 -4.324915E+00 +6.226326E+00 +4.130670E+02 -7.168959E+00 -4.324915E+00 -7.168959E+00 +3.528390E+02 
 +8.532435E+02 +9.605787E+00 -9.672766E+00 +9.605787E+00 +4.295505E+02 -8.566942E+00 -9.672766E+00 -8.566942E+00 +3.582131E+02 
 +8.525535E+02 +5.549860E+00 -3.823032E+00 +5.549860E+00 +4.332869E+02 -2.331300E+00 -3.823032E+00 -2.331300E+00 +3.486501E+02 
 +8.516650E+02 -6.299181E+00 -1.797032E+00 -6.299181E+00 +4.403632E+02 +1.132144E+01 -1.797032E+00 +1.132144E+01 +3.300107E+02 
 +8.492330E+02 -1.735147E+01 +9.456850E+00 -1.735147E+01 +4.368998E+02 +2.317449E+01 +9.456850E+00 +2.317449E+01 +3.204813E+02 
 +8.424738E+02 -1.340141E+01 +8.993101E+00 -1.340141E+01 +4.396943E+02 +1.887678E+01 +8.993101E+00 +1.887678E+01 +3.278715E+02 
 +8.388741E+02 -8.926807E-01 -1.330569E+01 -8.926807E-01 +4.681887E+02 +9.235698E-01 -1.330569E+01 +9.235698E-01 +3.712274E+02 
 +8.328581E+02 -6.401803E-01 -7.445809E+00 -6.401803E-01 +4.886693E+02 +1.592323E+00 -7.445809E+00 +1.592323E+00 +4.105699E+02 
 +8.315706E+02 +2.100278E+00 -1.659708E+00 +2.100278E+00 +4.914390E+02 +6.352767E+00 -1.659708E+00 +6.352767E+00 +4.045722E+02 
 +8.391642E+02 +1.006299E+00 -7.350293E+00 +1.006299E+00 +4.918919E+02 +2.548372E+00 -7.350293E+00 +2.548372E+00 +3.990375E+02 
 +8.438059E+02 +7.890386E+00 -2.420077E+00 +7.890386E+00 +4.851847E+02 +4.063038E+00 -2.420077E+00 +4.063038E+00 +3.972230E+02 
 +8.691411E+02 -1.445676E+01 -6.985514E+00 -1.445676E+01 +4.750358E+02 +8.388156E+00 -6.985514E+00 +8.388156E+00 +3.800077E+02 
 +8.677177E+02 -3.713966E+00 -7.958782E+00 -3.713966E+00 +4.704885E+02 +1.396307E+01 -7.958782E+00 +1.396307E+01 +3.767757E+02 
 +8.647029E+02 +1.646107E+00 +2.630836E-01 +1.646107E+00 +4.833803E+02 +1.730642E+01 +2.630836E-01 +1.730642E+01 +3.796548E+02 
 +8.569538E+02 +2.402271E-01 +1.005496E+00 +2.402271E-01 +4.976725E+02 +1.873531E+01 +1.005496E+00 +1.873531E+01 +3.754494E+02 
 +8.900451E+02 +1.209376E+01 +7.557006E+00 +1.209376E+01 +5.129967E+02 +1.789170E+01 +7.557006E+00 +1.789170E+01 +3.752013E+02 
 +8.858036E+02 +1.073893E+01 +1.055441E+01 +1.073893E+01 +5.008704E+02 +7.319683E+00 +1.055441E+01 +7.319683E+00 +3.746830E+02 
 +8.600259E+02 -9.768940E-01 +1.257743E+01 -9.768940E-01 +4.780923E+02 -5.509816E+00 +1.257743E+01 -5.509816E+00 +3.711516E+02 
 +8.521034E+02 -4.275177E+00 +1.380580E+01 -4.275177E+00 +4.707582E+02 -6.366975E+00 +1.380580E+01 -6.366975E+00 +3.649224E+02 
 +8.526087E+02 -6.930036E+00 +1.323179E+01 -6.930036E+00 +4.840330E+02 -5.242998E+00 +1.323179E+01 -5.242998E+00 +3.667212E+02 
 +8.485204E+02 -1.016836E+01 -5.824626E+00 -1.016836E+01 +4.765460E+02 -7.614437E-01 -5.824626E+00 -7.614437E-01 +3.728683E+02 
 +8.575664E+02 +1.392588E+00 -4.149571E+00 +1.392588E+00 +4.359781E+02 -2.920052E+00 -4.149571E+00 -2.920052E+00 +3.647044E+02 
 +8.540093E+02 +8.603675E+00 -9.212413E+00 +8.603675E+00 +4.168357E+02 -1.381077E+01 -9.212413E+00 -1.381077E+01 +3.530602E+02 
 +8.593199E+02 +6.016225E+00 -7.774189E+00 +6.016225E+00 +4.302792E+02 -1.706154E+01 -7.774189E+00 -1.706154E+01 +3.667582E+02 
 +8.609883E+02 -8.498240E-01 -6.687074E+00 -8.498240E-01 +4.316768E+02 -4.642005E+00 -6.687074E+00 -4.642005E+00 +3.545938E+02 
 +8.597557E+02 -1.008978E+01 -6.327377E-01 -1.008978E+01 +4.493708E+02 +4.128900E+00 -6.327377E-01 +4.128900E+00 +3.370345E+02 
 +8.655664E+02 -4.762782E+00 -1.036293E+01 -4.762782E+00 +4.854016E+02 +1.074533E+00 -1.036293E+01 +1.074533E+00 +3.628875E+02 
 +8.417687E+02 +3.979556E+00 -1.711992E+01 +3.979556E+00 +4.940422E+02 +1.180326E+00 -1.711992E+01 +1.180326E+00 +3.958467E+02 
 +8.454546E+02 +1.376470E+00 -4.117467E+00 +1.376470E+00 +5.046680E+02 +1.077733E+01 -4.117467E+00 +1.077733E+01 +4.160506E+02 
 +8.329378E+02 +2.067764E+00 -1.650265E+00 +2.067764E+00 +5.007762E+02 +9.066061E+00 -1.650265E+00 +9.066061E+00 +3.953723E+02 
 +8.318939E+02 -1.955004E+00 -6.154759E+00 -1.955004E+00 +4.954036E+02 +9.095867E+00 -6.154759E+00 +9.095867E+00 +3.839052E+02 
 +8.391367E+02 +1.536432E+00 -1.759148E+00 +1.536432E+00 +4.776819E+02 +8.341186E+00 -1.759148E+00 +8.341186E+00 +3.779354E+02 
 +8.634356E+02 -8.532904E+00 +1.727951E+00 -8.532904E+00 +4.697225E+02 +1.461150E+01 +1.727951E+00 +1.461150E+01 +3.605452E+02 
 +8.554847E+02 -5.496195E+00 -1.000634E+01 -5.496195E+00 +4.691085E+02 +1.075989E+01 -1.000634E+01 +1.075989E+01 +3.603221E+02 
 +8.586053E+02 +4.420870E+00 -1.047788E+01 +4.420870E+00 +4.775166E+02 +6.900057E+00 -1.047788E+01 +6.900057E+00 +3.755563E+02 
 +8.693166E+02 +4.132443E+00 +1.184686E+00 +4.132443E+00 +4.990290E+02 +1.354550E+01 +1.184686E+00 +1.354550E+01 +3.769799E+02 
 +8.869133E+02 +6.311064E+00 +8.438213E+00 +6.311064E+00 +5.048214E+02 +1.211187E+01 +8.438213E+00 +1.211187E+01 +3.738815E+02 
 +8.689256E+02 +4.021344E+00 +1.287385E+01 +4.021344E+00 +4.760750E+02 -2.406489E+00 +1.287385E+01 -2.406489E+00 +3.636432E+02 
 +8.575063E+02 -2.600613E+00 +2.070855E+01 -2.600613E+00 +4.730239E+02 -3.542004E+00 +2.070855E+01 -3.542004E+00 +3.622231E+02 
 +8.645188E+02 -5.929518E+00 +2.020278E+01 -5.929518E+00 +4.870601E+02 +3.258800E+00 +2.020278E+01 +3.258800E+00 +3.643640E+02 
 +8.481450E+02 -8.282916E+00 +7.230347E+00 -8.282916E+00 +4.791979E+02 +1.053190E+01 +7.230347E+00 +1.053190E+01 +3.594635E+02 
 +8.446658E+02 -1.120780E+01 -4.825510E+00 -1.120780E+01 +4.834409E+02 +1.061400E+01 -4.825510E+00 +1.061400E+01 +3.693317E+02 
 +8.617858E+02 -6.281908E+00 -2.496920E+00 -6.281908E+00 +4.800901E+02 +7.075226E+00 -2.496920E+00 +7.075226E+00 +3.754195E+02 
 +8.717480E+02 +9.022257E+00 -4.295492E+00 +9.022257E+00 +4.467023E+02 -2.809861E+00 -4.295492E+00 -2.809861E+00 +3.707156E+02 
 +8.636058E+02 +3.640030E+00 -1.049482E+01 +3.640030E+00 +4.258475E+02 -1.715112E+01 -1.049482E+01 -1.715112E+01 +3.637898E+02 
 +8.607597E+02 -5.364566E+00 -8.116080E+00 -5.364566E+00 +4.254725E+02 -8.991464E+00 -8.116080E+00 -8.991464E+00 +3.513466E+02 
 +8.651306E+02 -6.365830E+00 -1.290955E+01 -6.365830E+00 +4.492764E+02 -1.004343E-01 -1.290955E+01 -1.004343E-01 +3.432733E+02 
 +8.756885E+02 -8.619915E-02 -2.313993E+01 -8.619915E-02 +4.948594E+02 -5.143301E+00 -2.313993E+01 -5.143301E+00 +3.796443E+02 
 +8.419730E+02 +9.020446E+00 -1.509355E+01 +9.020446E+00 +5.017405E+02 -3.743097E+00 -1.509355E+01 -3.743097E+00 +4.104935E+02 
 +8.338401E+02 +4.470033E+00 -7.537896E+00 +4.470033E+00 +5.039175E+02 +1.112064E+01 -7.537896E+00 +1.112064E+01 +4.101196E+02 
 +8.383373E+02 +3.283882E+00 -5.824597E+00 +3.283882E+00 +5.031698E+02 +7.630985E+00 -5.824597E+00 +7.630985E+00 +3.896634E+02 
 +8.465705E+02 +1.961526E+00 -5.835869E+00 +1.961526E+00 +5.037105E+02 +2.649600E+00 -5.835869E+00 +2.649600E+00 +3.865294E+02 
 +8.428276E+02 +2.529956E+00 +6.072002E+00 +2.529956E+00 +4.770504E+02 +9.318411E+00 +6.072002E+00 +9.318411E+00 +3.735862E+02 
 +8.453788E+02 -9.074710E+00 +5.930084E+00 -9.074710E+00 +4.662561E+02 +3.015120E+01 +5.930084E+00 +3.015120E+01 +3.413767E+02 
 +8.474386E+02 -2.006433E+00 -6.970494E+00 -2.006433E+00 +4.773677E+02 +3.100093E+01 -6.970494E+00 +3.100093E+01 +3.455701E+02 
 +8.389616E+02 -1.522968E+00 -1.939521E+01 -1.522968E+00 +4.647323E+02 +1.891720E+01 -1.939521E+01 +1.891720E+01 +3.592283E+02 
 +8.580810E+02 +4.604690E+00 +1.906057E+00 +4.604690E+00 +4.564586E+02 -2.333731E+00 +1.906057E+00 -2.333731E+00 +3.584472E+02 
 +8.760427E+02 -1.079829E+00 +1.192227E+01 -1.079829E+00 +4.807245E+02 -1.719011E+01 +1.192227E+01 -1.719011E+01 +3.717390E+02 
 +8.730026E+02 -1.693503E+00 +1.648999E+01 -1.693503E+00 +4.854431E+02 -1.271259E+01 +1.648999E+01 -1.271259E+01 +3.818759E+02 
 +8.743165E+02 +4.666846E-01 +2.013181E+01 +4.666846E-01 +4.892518E+02 -2.071595E+00 +2.013181E+01 -2.071595E+00 +3.787066E+02 
 +8.688808E+02 -7.614174E+00 +1.993171E+01 -7.614174E+00 +4.903923E+02 -5.410950E+00 +1.993171E+01 -5.410950E+00 +3.725497E+02 
 +8.559049E+02 -7.473088E+00 +1.523761E+01 -7.473088E+00 +4.771504E+02 -4.203127E+00 +1.523761E+01 -4.203127E+00 +3.610373E+02 
 +8.443156E+02 -6.873278E+00 -2.691661E+00 -6.873278E+00 +4.701367E+02 +4.625962E+00 -2.691661E+00 +4.625962E+00 +3.619967E+02 
 +8.551503E+02 -2.897060E+00 +3.867118E+00 -2.897060E+00 +4.827048E+02 +2.023185E-01 +3.867118E+00 +2.023185E-01 +3.674714E+02 
 +8.618334E+02 +6.164581E+00 -4.736087E-01 +6.164581E+00 +4.745230E+02 -8.247101E+00 -4.736087E-01 -8.247101E+00 +3.598226E+02 
 +8.579343E+02 +2.929729E+00 -8.815737E+00 +2.929729E+00 +4.397332E+02 -2.396804E+00 -8.815737E+00 -2.396804E+00 +3.418795E+02 
 +8.492121E+02 -3.402078E+00 -6.604299E+00 -3.402078E+00 +4.319055E+02 +9.681015E+00 -6.604299E+00 +9.681015E+00 +3.181397E+02 
 +8.546615E+02 -6.300057E+00 -1.797339E+01 -6.300057E+00 +4.449004E+02 +2.373391E+01 -1.797339E+01 +2.373391E+01 +3.166423E+02 
 +8.696905E+02 -4.874496E+00 -2.357765E+01 -4.874496E+00 +4.678651E+02 +2.349576E+01 -2.357765E+01 +2.349576E+01 +3.553954E+02 
 +8.443812E+02 +8.277896E+00 -1.926034E+01 +8.277896E+00 +4.902798E+02 +1.531773E+01 -1.926034E+01 +1.531773E+01 +3.888528E+02 
 +8.310934E+02 +6.982844E+00 -8.343117E+00 +6.982844E+00 +5.042468E+02 +8.473719E+00 -8.343117E+00 +8.473719E+00 +3.949120E+02 
 +8.300325E+02 +4.033242E+00 -4.587252E+00 +4.033242E+00 +4.891409E+02 +1.643126E+01 -4.587252E+00 +1.643126E+01 +3.819211E+02 
 +8.468500E+02 -3.704325E+00 -8.759995E-01 -3.704325E+00 +4.749150E+02 +3.070949E+01 -8.759995E-01 +3.070949E+01 +3.774165E+02 
 +8.426988E+02 -7.145072E+00 +6.417914E+00 -7.145072E+00 +4.660618E+02 +3.147491E+01 +6.417914E+00 +3.147491E+01 +3.637457E+02 
 +8.569696E+02 -3.043219E+00 -3.940391E+00 -3.043219E+00 +4.660388E+02 +2.972590E+01 -3.940391E+00 +2.972590E+01 +3.349634E+02 
 +8.480114E+02 +6.461230E+00 -1.778622E+01 +6.461230E+00 +4.623266E+02 +7.971649E+00 -1.778622E+01 +7.971649E+00 +3.266318E+02 
 +8.522472E+02 +4.422854E+00 -1.455534E+01 +4.422854E+00 +4.713689E+02 -3.719651E+00 -1.455534E+01 -3.719651E+00 +3.366828E+02 
 +8.647652E+02 +7.221297E+00 -1.402545E+00 +7.221297E+00 +4.811832E+02 +7.524141E+00 -1.402545E+00 +7.524141E+00 +3.549438E+02 
 +8.672571E+02 -4.248410E+00 +1.668255E+01 -4.248410E+00 +4.646541E+02 +1.140711E+01 +1.668255E+01 +1.140711E+01 +3.624435E+02 
 +8.577467E+02 +4.327175E-01 +2.084633E+01 +4.327175E-01 +4.570338E+02 +7.055764E+00 +2.084633E+01 +7.055764E+00 +3.728197E+02 
 +8.551410E+02 +8.382306E+00 +1.492275E+01 +8.382306E+00 +4.607754E+02 +3.754355E+00 +1.492275E+01 +3.754355E+00 +3.764227E+02 
 +8.564605E+02 -1.993961E+00 +1.653870E+01 -1.993961E+00 +4.694984E+02 -3.218276E+00 +1.653870E+01 -3.218276E+00 +3.701935E+02 
 +8.540908E+02 -7.572406E+00 +1.646888E+01 -7.572406E+00 +4.745634E+02 -1.175446E+01 +1.646888E+01 -1.175446E+01 +3.614653E+02 
 +8.476747E+02 -6.943480E+00 +1.502475E+01 -6.943480E+00 +4.685188E+02 -9.854544E+00 +1.502475E+01 -9.854544E+00 +3.451763E+02 
 +8.494023E+02 -3.592893E+00 +1.069384E+01 -3.592893E+00 +4.807158E+02 -4.296632E+00 +1.069384E+01 -4.296632E+00 +3.448566E+02 
 +8.682708E+02 -4.121705E+00 +4.409614E+00 -4.121705E+00 +5.121676E+02 -1.926738E+00 +4.409614E+00 -1.926738E+00 +3.602380E+02 
 +8.841911E+02 +5.568884E+00 -9.038167E+00 +5.568884E+00 +5.300867E+02 -6.905945E+00 -9.038167E+00 -6.905945E+00 +3.783613E+02 
 +8.668918E+02 +7.580601E+00 -9.968083E+00 +7.580601E+00 +5.133868E+02 -1.504671E+01 -9.968083E+00 -1.504671E+01 +3.897713E+02 
 +8.509040E+02 -3.985744E+00 -2.049252E+01 -3.985744E+00 +4.919064E+02 -1.558744E+01 -2.049252E+01 -1.558744E+01 +3.667245E+02 
 +8.778558E+02 -1.388780E+00 -1.328335E+01 -1.388780E+00 +5.018822E+02 -4.755342E+00 -1.328335E+01 -4.755342E+00 +3.496168E+02 
 +8.515199E+02 +7.330529E+00 -1.196322E+01 +7.330529E+00 +4.888356E+02 +1.180988E+01 -1.196322E+01 +1.180988E+01 +3.466184E+02 
 +8.308854E+02 +4.284324E+00 -3.979366E-01 +4.284324E+00 +4.693277E+02 +3.025095E+01 -3.979366E-01 +3.025095E+01 +3.390947E+02 
 +8.393152E+02 -1.549116E+00 +6.222372E-01 -1.549116E+00 +4.727456E+02 +3.498128E+01 +6.222372E-01 +3.498128E+01 +3.466670E+02 
 +8.494571E+02 -3.515714E+00 -2.436709E+00 -3.515714E+00 +4.819777E+02 +2.864658E+01 -2.436709E+00 +2.864658E+01 +3.638366E+02 
 +8.504908E+02 -7.422966E+00 +1.536506E+00 -7.422966E+00 +4.683751E+02 +3.243078E+01 +1.536506E+00 +3.243078E+01 +3.495253E+02 
 +8.539530E+02 -1.089921E+00 -1.911214E+01 -1.089921E+00 +4.683734E+02 +2.454947E+00 -1.911214E+01 +2.454947E+00 +3.219845E+02 
 +8.600127E+02 +4.937578E-01 -2.208658E+01 +4.937578E-01 +4.732435E+02 -5.106286E+00 -2.208658E+01 -5.106286E+00 +3.392469E+02 
 +8.479264E+02 +2.237510E+00 -1.496972E+01 +2.237510E+00 +4.679058E+02 -3.388573E+00 -1.496972E+01 -3.388573E+00 +3.442270E+02 
 +8.481927E+02 -1.276935E+00 +6.059479E+00 -1.276935E+00 +4.577431E+02 +1.260772E-01 +6.059479E+00 +1.260772E-01 +3.509845E+02 
 +8.493042E+02 -2.829361E+00 +1.269361E+01 -2.829361E+00 +4.493069E+02 +6.867228E+00 +1.269361E+01 +6.867228E+00 +3.530591E+02 
 +8.480169E+02 +2.268319E+00 +9.306545E+00 +2.268319E+00 +4.497432E+02 +7.967736E+00 +9.306545E+00 +7.967736E+00 +3.534385E+02 
 +8.455733E+02 +5.865606E+00 +8.365759E+00 +5.865606E+00 +4.428355E+02 +7.309212E+00 +8.365759E+00 +7.309212E+00 +3.539525E+02 
 +8.483891E+02 +9.822865E-01 +3.222649E+00 +9.822865E-01 +4.510670E+02 +2.241672E-02 +3.222649E+00 +2.241672E-02 +3.552314E+02 
 +8.574099E+02 -9.941067E+00 +4.067028E+00 -9.941067E+00 +4.751715E+02 -3.087185E+00 +4.067028E+00 -3.087185E+00 +3.577906E+02 
 +8.635671E+02 -9.166679E+00 +1.195729E+01 -9.166679E+00 +4.897063E+02 +5.813004E+00 +1.195729E+01 +5.813004E+00 +3.535664E+02 
 +8.485662E+02 -1.880194E+00 +4.824345E+00 -1.880194E+00 +4.897742E+02 +4.535334E+00 +4.824345E+00 +4.535334E+00 +3.470511E+02 
 +8.542789E+02 -6.211805E+00 +3.743489E-01 -6.211805E+00 +5.004647E+02 -2.954592E+00 +3.743489E-01 -2.954592E+00 +3.468061E+02 
 +8.547784E+02 -2.162163E+00 -1.016904E+01 -2.162163E+00 +5.048913E+02 -4.268203E+00 -1.016904E+01 -4.268203E+00 +3.534361E+02 
 +8.570472E+02 +4.194326E+00 -1.302576E+01 +4.194326E+00 +5.080688E+02 -3.025843E+00 -1.302576E+01 -3.025843E+00 +3.775976E+02 
 +8.462388E+02 +3.513390E+00 -1.656209E+01 +3.513390E+00 +4.960703E+02 -1.510867E+00 -1.656209E+01 -1.510867E+00 +3.596690E+02 
 +8.737896E+02 +1.076195E+01 -8.978916E+00 +1.076195E+01 +5.011263E+02 +5.848410E+00 -8.978916E+00 +5.848410E+00 +3.381748E+02 
 +8.583884E+02 +1.580252E+01 -6.341619E+00 +1.580252E+01 +4.819479E+02 +5.937105E+00 -6.341619E+00 +5.937105E+00 +3.305731E+02 
 +8.438315E+02 +6.509926E+00 +9.620409E+00 +6.509926E+00 +4.674777E+02 +1.190272E-01 +9.620409E+00 +1.190272E-01 +3.370215E+02 
 +8.365797E+02 -1.155514E+00 +7.627736E+00 -1.155514E+00 +4.662977E+02 -6.698728E+00 +7.627736E+00 -6.698728E+00 +3.373235E+02 
 +8.425973E+02 -4.772454E+00 +4.871851E+00 -4.772454E+00 +4.746874E+02 -8.488791E-01 +4.871851E+00 -8.488791E-01 +3.390936E+02 
 +8.533063E+02 -1.030297E+01 +5.614294E-01 -1.030297E+01 +4.731445E+02 +8.531446E+00 +5.614294E-01 +8.531446E+00 +3.272795E+02 
 +8.487098E+02 -4.915817E+00 -2.194111E+01 -4.915817E+00 +4.601141E+02 -2.297414E+00 -2.194111E+01 -2.297414E+00 +3.204300E+02 
 +8.424541E+02 -7.299837E-01 -1.381451E+01 -7.299837E-01 +4.508836E+02 -4.447455E+00 -1.381451E+01 -4.447455E+00 +3.215220E+02 
 +8.399673E+02 +1.427034E+00 -2.633841E+00 +1.427034E+00 +4.447588E+02 -6.855963E+00 -2.633841E+00 -6.855963E+00 +3.369684E+02 
 +8.381194E+02 -4.600411E+00 +1.089007E+01 -4.600411E+00 +4.368470E+02 -1.083671E+00 +1.089007E+01 -1.083671E+00 +3.488820E+02 
 +8.365935E+02 -1.345133E+00 +7.990106E+00 -1.345133E+00 +4.411488E+02 +5.531298E+00 +7.990106E+00 +5.531298E+00 +3.525311E+02 
 +8.411448E+02 +3.729696E-01 +3.917158E+00 +3.729696E-01 +4.451037E+02 +7.410906E+00 +3.917158E+00 +7.410906E+00 +3.537289E+02 
 +8.377632E+02 +3.276354E+00 +2.430793E+00 +3.276354E+00 +4.374038E+02 +7.533085E+00 +2.430793E+00 +7.533085E+00 +3.503503E+02 
 +8.394399E+02 +1.449641E+00 -2.273581E+00 +1.449641E+00 +4.364205E+02 +7.937842E+00 -2.273581E+00 +7.937842E+00 +3.511060E+02 
 +8.567895E+02 -5.204010E+00 -3.115838E-01 -5.204010E+00 +4.587687E+02 +5.245033E+00 -3.115838E-01 +5.245033E+00 +3.637041E+02 
 +8.648832E+02 -7.508823E+00 +5.601190E+00 -7.508823E+00 +4.903994E+02 +1.029586E+00 +5.601190E+00 +1.029586E+00 +3.688363E+02 
 +8.541656E+02 -6.063565E+00 +3.488995E+00 -6.063565E+00 +4.995172E+02 -1.481784E-01 +3.488995E+00 -1.481784E-01 +3.639264E+02 
 +8.482286E+02 -5.851345E+00 +3.027151E+00 -5.851345E+00 +5.006582E+02 +6.250379E+00 +3.027151E+00 +6.250379E+00 +3.533373E+02 
 +8.532439E+02 -5.281984E-01 -2.082294E+00 -5.281984E-01 +5.069137E+02 +1.334879E+01 -2.082294E+00 +1.334879E+01 +3.402740E+02 
 +8.525377E+02 +4.688542E+00 -3.468479E+00 +4.688542E+00 +4.999558E+02 +1.289445E+01 -3.468479E+00 +1.289445E+01 +3.304338E+02 
 +8.487298E+02 +9.113841E+00 -3.250263E+00 +9.113841E+00 +4.912102E+02 +1.070240E+01 -3.250263E+00 +1.070240E+01 +3.199473E+02 
 +8.631338E+02 +1.411716E+01 -2.283423E+00 +1.411716E+01 +4.936889E+02 +1.072996E+01 -2.283423E+00 +1.072996E+01 +3.239413E+02 
 +8.654755E+02 +1.644131E+01 -8.348910E+00 +1.644131E+01 +4.868606E+02 +1.037786E+01 -8.348910E+00 +1.037786E+01 +3.285357E+02 
 +8.555369E+02 +9.569306E+00 +8.784916E+00 +9.569306E+00 +4.838028E+02 +2.692973E+00 +8.784916E+00 +2.692973E+00 +3.462213E+02 
 +8.474238E+02 +4.498090E+00 +1.271345E+01 +4.498090E+00 +4.794543E+02 -4.372459E+00 +1.271345E+01 -4.372459E+00 +3.564223E+02 
 +8.395911E+02 -2.973880E+00 +7.188167E+00 -2.973880E+00 +4.628897E+02 -7.677289E+00 +7.188167E+00 -7.677289E+00 +3.399850E+02 
 +8.458011E+02 -1.171166E+01 -2.338801E+00 -1.171166E+01 +4.633393E+02 -7.864396E+00 -2.338801E+00 -7.864396E+00 +3.296122E+02 
 +8.454273E+02 -3.615203E+00 -1.277089E+01 -3.615203E+00 +4.412338E+02 -4.726973E+00 -1.277089E+01 -4.726973E+00 +3.424099E+02 
 +8.148596E+02 +6.265582E-01 -7.841227E+00 +6.265582E-01 +4.128419E+02 -1.997067E+00 -7.841227E+00 -1.997067E+00 +3.207304E+02 
 +8.140449E+02 -8.700918E+00 +9.214667E+00 -8.700918E+00 +4.017635E+02 -1.084789E+00 +9.214667E+00 -1.084789E+00 +3.342157E+02 
 +8.266897E+02 -7.790106E+00 +1.123506E+01 -7.790106E+00 +4.191605E+02 +3.393009E+00 +1.123506E+01 +3.393009E+00 +3.480749E+02 
 +8.339670E+02 -4.391252E+00 +8.633246E+00 -4.391252E+00 +4.386928E+02 +5.827215E+00 +8.633246E+00 +5.827215E+00 +3.532003E+02 
 +8.349847E+02 -2.629807E+00 +4.502197E+00 -2.629807E+00 +4.414460E+02 +6.635074E+00 +4.502197E+00 +6.635074E+00 +3.498170E+02 
 +8.380035E+02 +8.795379E-01 -2.688999E+00 +8.795379E-01 +4.469080E+02 +7.356228E+00 -2.688999E+00 +7.356228E+00 +3.500177E+02 
 +8.463422E+02 +2.627633E+00 -2.440650E+00 +2.627633E+00 +4.563647E+02 +1.385514E+01 -2.440650E+00 +1.385514E+01 +3.537831E+02 
 +8.724018E+02 -1.596947E+00 +8.738541E-01 -1.596947E+00 +4.850168E+02 +2.392315E+01 +8.738541E-01 +2.392315E+01 +3.687749E+02 
 +8.649253E+02 -3.304912E+00 -2.330541E-01 -3.304912E+00 +4.926275E+02 +2.867197E+01 -2.330541E-01 +2.867197E+01 +3.672272E+02 
 +8.584988E+02 -1.140773E+00 -3.618779E+00 -1.140773E+00 +4.987901E+02 +2.368660E+01 -3.618779E+00 +2.368660E+01 +3.601875E+02 
 +8.530079E+02 +2.712535E+00 -4.839043E-01 +2.712535E+00 +5.052356E+02 +1.518578E+01 -4.839043E-01 +1.518578E+01 +3.478960E+02 
 +8.535392E+02 +4.792352E+00 +3.406928E+00 +4.792352E+00 +5.044275E+02 +1.343346E+01 +3.406928E+00 +1.343346E+01 +3.328470E+02 
 +8.561823E+02 +6.706383E+00 +3.472557E+00 +6.706383E+00 +5.003770E+02 +1.650543E+01 +3.472557E+00 +1.650543E+01 +3.206636E+02 
 +8.552794E+02 +6.408566E+00 +3.945987E+00 +6.408566E+00 +4.935151E+02 +1.576046E+01 +3.945987E+00 +1.576046E+01 +3.127230E+02 
 +8.603379E+02 +9.245861E+00 +4.143285E+00 +9.245861E+00 +4.911917E+02 +1.201884E+01 +4.143285E+00 +1.201884E+01 +3.152899E+02 
 +8.653508E+02 +1.521678E+01 -5.887966E-01 +1.521678E+01 +4.941165E+02 +1.832764E+01 -5.887966E-01 +1.832764E+01 +3.152250E+02 
 +8.648194E+02 +9.874497E+00 +7.817147E+00 +9.874497E+00 +4.978317E+02 +2.341913E+01 +7.817147E+00 +2.341913E+01 +3.246083E+02 
 +8.596113E+02 +7.063345E-01 +9.612907E+00 +7.063345E-01 +4.915918E+02 +1.361079E+01 +9.612907E+00 +1.361079E+01 +3.515461E+02 
 +8.469286E+02 -3.647247E+00 -1.730129E+00 -3.647247E+00 +4.736426E+02 +3.182179E+00 -1.730129E+00 +3.182179E+00 +3.680791E+02 
 +8.462732E+02 -8.337084E+00 -2.129536E+00 -8.337084E+00 +4.587845E+02 -6.297433E-01 -2.129536E+00 -6.297433E-01 +3.687533E+02 
 +8.658095E+02 -6.497294E+00 -3.397398E+00 -6.497294E+00 +4.943258E+02 -6.983312E+00 -3.397398E+00 -6.983312E+00 +3.737494E+02 
 +8.457373E+02 -9.068997E+00 +1.691138E-01 -9.068997E+00 +4.827731E+02 -3.935755E+00 +1.691138E-01 -3.935755E+00 +3.626366E+02 
 +8.353322E+02 -1.715818E+01 +7.727906E+00 -1.715818E+01 +4.635249E+02 +4.259706E-01 +7.727906E+00 +4.259706E-01 +3.629055E+02 
 +8.335249E+02 -9.193815E+00 +9.528742E+00 -9.193815E+00 +4.368720E+02 +3.281145E+00 +9.528742E+00 +3.281145E+00 +3.559404E+02 
 +8.327193E+02 -5.929679E+00 +8.286180E+00 -5.929679E+00 +4.318828E+02 +5.702526E+00 +8.286180E+00 +5.702526E+00 +3.502510E+02 
 +8.396200E+02 -3.257884E+00 +6.633743E+00 -3.257884E+00 +4.487708E+02 +4.585191E+00 +6.633743E+00 +4.585191E+00 +3.495028E+02 
 +8.343915E+02 +5.917802E-01 +8.781670E-01 +5.917802E-01 +4.556771E+02 +1.262811E+01 +8.781670E-01 +1.262811E+01 +3.382362E+02 
 +8.564375E+02 +2.956607E+00 -5.585981E-01 +2.956607E+00 +4.814969E+02 +2.768312E+01 -5.585981E-01 +2.768312E+01 +3.375258E+02 
 +8.708245E+02 +1.109352E-01 +2.371378E+00 +1.109352E-01 +4.912503E+02 +2.967722E+01 +2.371378E+00 +2.967722E+01 +3.404172E+02 
 +8.656214E+02 +5.524093E-01 -2.467043E+00 +5.524093E-01 +4.900675E+02 +2.491883E+01 -2.467043E+00 +2.491883E+01 +3.471190E+02 
 +8.630470E+02 +1.657620E+00 -1.121511E+01 +1.657620E+00 +4.975988E+02 +2.571374E+01 -1.121511E+01 +2.571374E+01 +3.575905E+02 
 +8.574297E+02 +3.067561E+00 -5.643595E+00 +3.067561E+00 +4.974395E+02 +2.810382E+01 -5.643595E+00 +2.810382E+01 +3.491375E+02 
 +8.541645E+02 +4.323809E+00 +4.961159E+00 +4.323809E+00 +4.989680E+02 +2.298593E+01 +4.961159E+00 +2.298593E+01 +3.348508E+02 
 +8.612554E+02 +5.028578E+00 +7.902675E+00 +5.028578E+00 +5.021998E+02 +1.567324E+01 +7.902675E+00 +1.567324E+01 +3.297326E+02 
 +8.603633E+02 +6.246710E+00 +9.821161E+00 +6.246710E+00 +4.962202E+02 +1.320889E+01 +9.821161E+00 +1.320889E+01 +3.295553E+02 
 +8.515702E+02 +6.417158E+00 +9.287901E+00 +6.417158E+00 +4.897076E+02 +1.537738E+01 +9.287901E+00 +1.537738E+01 +3.278415E+02 
 +8.674465E+02 +7.813201E+00 +1.039857E+01 +7.813201E+00 +4.971688E+02 +2.696023E+01 +1.039857E+01 +2.696023E+01 +3.233924E+02 
 +8.804107E+02 +2.749399E+00 +8.594230E+00 +2.749399E+00 +4.944699E+02 +2.690370E+01 +8.594230E+00 +2.690370E+01 +3.198882E+02 
 +8.740045E+02 -1.128548E+00 +1.652035E-01 -1.128548E+00 +4.916021E+02 +1.412950E+01 +1.652035E-01 +1.412950E+01 +3.562912E+02 
 +8.643370E+02 -3.899827E+00 -4.240662E+00 -3.899827E+00 +4.965021E+02 +7.109966E+00 -4.240662E+00 +7.109966E+00 +3.982874E+02 
 +8.623497E+02 -1.021610E+01 -1.248546E+00 -1.021610E+01 +4.930804E+02 +5.691971E-02 -1.248546E+00 +5.691971E-02 +3.942105E+02 
 +8.573951E+02 -7.283508E+00 +2.606220E-01 -7.283508E+00 +5.029938E+02 -3.684552E+00 +2.606220E-01 -3.684552E+00 +3.796435E+02 
 +8.505412E+02 -8.322693E+00 +7.966206E-01 -8.322693E+00 +4.960078E+02 +1.190793E-01 +7.966206E-01 +1.190793E-01 +3.762484E+02 
 +8.525710E+02 -1.356762E+01 -4.451369E-01 -1.356762E+01 +5.042910E+02 -2.760004E-01 -4.451369E-01 -2.760004E-01 +3.784750E+02 
 +8.520881E+02 -1.486835E+01 +1.859253E+00 -1.486835E+01 +5.039221E+02 -7.998479E-02 +1.859253E+00 -7.998479E-02 +3.744128E+02 
 +8.380010E+02 -1.398279E+01 +2.538003E+00 -1.398279E+01 +4.589022E+02 +1.836456E-01 +2.538003E+00 +1.836456E-01 +3.460436E+02 
 +8.388349E+02 -5.676219E+00 +7.444596E+00 -5.676219E+00 +4.430198E+02 +3.227486E+00 +7.444596E+00 +3.227486E+00 +3.331134E+02 
 +8.232961E+02 +1.389634E+00 +1.375866E+01 +1.389634E+00 +4.534751E+02 +1.828319E+01 +1.375866E+01 +1.828319E+01 +3.171305E+02 
 +8.546693E+02 +2.109600E-03 +4.163453E+00 +2.109600E-03 +4.734598E+02 +3.048202E+01 +4.163453E+00 +3.048202E+01 +3.144386E+02 
 +8.759373E+02 -2.840677E+00 +3.450755E+00 -2.840677E+00 +4.863707E+02 +2.763834E+01 +3.450755E+00 +2.763834E+01 +3.328716E+02 
 +8.739521E+02 +1.546420E+00 -2.707185E+00 +1.546420E+00 +4.936679E+02 +2.348423E+01 -2.707185E+00 +2.348423E+01 +3.484070E+02 
 +8.703180E+02 +4.829368E+00 -7.587729E+00 +4.829368E+00 +5.000780E+02 +2.463146E+01 -7.587729E+00 +2.463146E+01 +3.618884E+02 
 +8.715288E+02 +5.465248E+00 -3.061578E+00 +5.465248E+00 +5.051672E+02 +2.186630E+01 -3.061578E+00 +2.186630E+01 +3.642328E+02 
 +8.708305E+02 +9.697153E+00 +5.659545E+00 +9.697153E+00 +5.028375E+02 +1.669114E+01 +5.659545E+00 +1.669114E+01 +3.544940E+02 
 +8.549091E+02 +7.045336E+00 +1.289202E+01 +7.045336E+00 +4.939229E+02 +1.410879E+01 +1.289202E+01 +1.410879E+01 +3.465746E+02 
 +8.597578E+02 +1.784317E+00 +1.458412E+01 +1.784317E+00 +4.991119E+02 +1.462745E+01 +1.458412E+01 +1.462745E+01 +3.523721E+02 
 +8.325896E+02 +9.481505E-02 +7.824834E+00 +9.481505E-02 +4.825395E+02 +9.395005E+00 +7.824834E+00 +9.395005E+00 +3.474264E+02 
 +8.510512E+02 -1.196028E+00 +7.722231E+00 -1.196028E+00 +4.680634E+02 -7.292345E+00 +7.722231E+00 -7.292345E+00 +3.356214E+02 
 +8.894096E+02 -7.086682E+00 +7.155976E+00 -7.086682E+00 +4.673370E+02 -2.069976E+01 +7.155976E+00 -2.069976E+01 +3.246356E+02 
 +8.935210E+02 -5.205841E+00 -5.415163E-01 -5.205841E+00 +4.866197E+02 -1.330607E+01 -5.415163E-01 -1.330607E+01 +3.641547E+02 
 +8.670305E+02 -9.079899E+00 +4.127195E+00 -9.079899E+00 +4.925878E+02 -6.063017E+00 +4.127195E+00 -6.063017E+00 +4.019628E+02 
 +8.549249E+02 -1.194400E+01 +4.820157E+00 -1.194400E+01 +4.962330E+02 -7.427523E+00 +4.820157E+00 -7.427523E+00 +3.922509E+02 
 +8.579326E+02 -9.028049E+00 +1.386646E+00 -9.028049E+00 +5.057803E+02 +1.029234E+00 +1.386646E+00 +1.029234E+00 +3.816464E+02 
 +8.559985E+02 -9.505122E+00 -1.415137E+00 -9.505122E+00 +5.088046E+02 +4.747391E+00 -1.415137E+00 +4.747391E+00 +3.837172E+02 
 +8.524512E+02 -1.171351E+01 -5.799391E+00 -1.171351E+01 +5.102051E+02 +5.180882E+00 -5.799391E+00 +5.180882E+00 +3.822404E+02 
 +8.485807E+02 -1.166408E+01 -6.449010E+00 -1.166408E+01 +5.107656E+02 +3.116834E+00 -6.449010E+00 +3.116834E+00 +3.748608E+02 
 +8.490671E+02 -1.188898E+01 -1.096197E+00 -1.188898E+01 +5.049741E+02 +2.671778E+00 -1.096197E+00 +2.671778E+00 +3.515972E+02 
 +8.538951E+02 +4.000679E+00 +5.865711E+00 +4.000679E+00 +4.961985E+02 +8.309456E+00 +5.865711E+00 +8.309456E+00 +3.419856E+02 
 +8.312593E+02 +4.810802E+00 +2.098184E+01 +4.810802E+00 +4.705539E+02 +1.771117E+01 +2.098184E+01 +1.771117E+01 +3.218377E+02 
 +8.555121E+02 -2.631479E+00 +1.235858E+01 -2.631479E+00 +4.691496E+02 +2.625034E+01 +1.235858E+01 +2.625034E+01 +3.078288E+02 
 +8.833932E+02 -1.389820E+00 +6.158768E+00 -1.389820E+00 +4.834317E+02 +2.604711E+01 +6.158768E+00 +2.604711E+01 +3.260655E+02 
 +8.797408E+02 +1.795542E+00 +1.008511E-01 +1.795542E+00 +4.920434E+02 +2.237716E+01 +1.008511E-01 +2.237716E+01 +3.460010E+02 
 +8.847482E+02 +5.657625E+00 -5.673157E+00 +5.657625E+00 +5.038724E+02 +2.300357E+01 -5.673157E+00 +2.300357E+01 +3.642719E+02 
 +8.864785E+02 +7.673919E+00 -2.396735E-01 +7.673919E+00 +5.065548E+02 +2.442312E+01 -2.396735E-01 +2.442312E+01 +3.692686E+02 
 +8.789375E+02 +9.818910E+00 +7.555201E+00 +9.818910E+00 +5.070809E+02 +2.271922E+01 +7.555201E+00 +2.271922E+01 +3.777235E+02 
 +8.512642E+02 +2.165262E+00 +1.171856E+01 +2.165262E+00 +5.014348E+02 +1.186019E+01 +1.171856E+01 +1.186019E+01 +3.809672E+02 
 +8.473516E+02 -4.028796E+00 +1.551322E+01 -4.028796E+00 +5.005542E+02 +8.073330E+00 +1.551322E+01 +8.073330E+00 +3.773124E+02 
 +8.459261E+02 -5.217342E+00 +7.650071E+00 -5.217342E+00 +4.871580E+02 +1.204487E+01 +7.650071E+00 +1.204487E+01 +3.778171E+02 
 +8.519199E+02 -3.832898E+00 +3.766218E+00 -3.832898E+00 +4.657170E+02 +3.366194E+00 +3.766218E+00 +3.366194E+00 +3.604204E+02 
 +8.990576E+02 -3.975118E+00 +7.875514E+00 -3.975118E+00 +4.728532E+02 -1.136003E+01 +7.875514E+00 -1.136003E+01 +3.451437E+02 
 +9.019677E+02 -4.413889E+00 +3.247512E+00 -4.413889E+00 +4.819255E+02 -1.065207E+01 +3.247512E+00 -1.065207E+01 +3.589441E+02 
 +8.662169E+02 -1.548555E+01 +1.186959E+01 -1.548555E+01 +4.861309E+02 -5.399215E+00 +1.186959E+01 -5.399215E+00 +3.859821E+02 
 +8.577473E+02 -1.306524E+01 +8.600686E+00 -1.306524E+01 +4.985981E+02 -3.202167E+00 +8.600686E+00 -3.202167E+00 +3.904365E+02 
 +8.588799E+02 -8.145405E+00 +6.099800E+00 -8.145405E+00 +5.026942E+02 +6.683241E+00 +6.099800E+00 +6.683241E+00 +3.867182E+02 
 +8.549408E+02 -9.668994E+00 -6.817573E-02 -9.668994E+00 +5.096517E+02 +1.075328E+01 -6.817573E-02 +1.075328E+01 +3.925994E+02 
 +8.550184E+02 -1.140897E+01 -6.569148E+00 -1.140897E+01 +5.114487E+02 +9.286216E+00 -6.569148E+00 +9.286216E+00 +3.900856E+02 
 +8.561489E+02 -1.128298E+01 -7.480267E+00 -1.128298E+01 +5.114834E+02 +5.901082E+00 -7.480267E+00 +5.901082E+00 +3.796706E+02 
 +8.534641E+02 -1.019827E+01 +2.320355E+00 -1.019827E+01 +5.145372E+02 +1.581845E-01 +2.320355E+00 +1.581845E-01 +3.570044E+02 
 +8.482378E+02 +6.657434E+00 +7.438825E+00 +6.657434E+00 +5.050671E+02 -8.686231E-01 +7.438825E+00 -8.686231E-01 +3.472170E+02 
 +8.429668E+02 +1.755174E+01 +1.638357E+01 +1.755174E+01 +4.854218E+02 +7.157400E-01 +1.638357E+01 +7.157400E-01 +3.425196E+02 
 +8.668416E+02 +9.140827E+00 +1.590813E+01 +9.140827E+00 +4.914656E+02 +5.683654E+00 +1.590813E+01 +5.683654E+00 +3.421382E+02 
 +8.766278E+02 +1.655259E+00 +1.284246E+01 +1.655259E+00 +4.925755E+02 +1.832628E+01 +1.284246E+01 +1.832628E+01 +3.462801E+02 
 +8.828253E+02 -2.613528E+00 +1.931628E+00 -2.613528E+00 +4.934343E+02 +2.909297E+01 +1.931628E+00 +2.909297E+01 +3.482695E+02 
 +8.951661E+02 -2.407243E+00 -6.176077E+00 -2.407243E+00 +4.963706E+02 +3.378077E+01 -6.176077E+00 +3.378077E+01 +3.553276E+02 
 +9.056772E+02 +2.288368E+00 +3.702299E+00 +2.288368E+00 +5.137833E+02 +3.053912E+01 +3.702299E+00 +3.053912E+01 +3.795805E+02 
 +8.902506E+02 +3.969451E+00 +7.543014E+00 +3.969451E+00 +5.296757E+02 +2.214186E+01 +7.543014E+00 +2.214186E+01 +4.146362E+02 
 +8.589510E+02 -1.282109E+00 +4.304721E+00 -1.282109E+00 +5.145861E+02 +1.416653E+01 +4.304721E+00 +1.416653E+01 +4.162682E+02 
 +8.414898E+02 -2.682883E+00 +1.127456E+01 -2.682883E+00 +4.901998E+02 +2.963182E+00 +1.127456E+01 +2.963182E+00 +3.893624E+02 
 +8.571247E+02 -6.104020E+00 +1.035731E+01 -6.104020E+00 +4.858945E+02 -1.757068E+00 +1.035731E+01 -1.757068E+00 +3.934799E+02 
 +8.555523E+02 -9.926296E+00 +6.520979E+00 -9.926296E+00 +4.704368E+02 +1.096321E+00 +6.520979E+00 +1.096321E+00 +3.839120E+02 
 +8.929756E+02 -8.387733E+00 +1.081885E+01 -8.387733E+00 +4.760814E+02 -4.527869E+00 +1.081885E+01 -4.527869E+00 +3.639783E+02 
 +9.091564E+02 -1.436311E+00 +6.990042E+00 -1.436311E+00 +4.877971E+02 -4.706986E+00 +6.990042E+00 -4.706986E+00 +3.626191E+02 
 +8.723810E+02 -9.368470E+00 +1.635606E+01 -9.368470E+00 +4.865786E+02 -1.363368E+00 +1.635606E+01 -1.363368E+00 +3.812644E+02 
 +8.650576E+02 -8.612821E+00 +1.326694E+01 -8.612821E+00 +4.963876E+02 +2.722457E-01 +1.326694E+01 +2.722457E-01 +3.920064E+02 
 +8.547045E+02 -7.417749E+00 +1.267563E+01 -7.417749E+00 +5.006740E+02 +2.996846E+00 +1.267563E+01 +2.996846E+00 +3.952558E+02 
 +8.595045E+02 -1.146680E+01 +3.617633E+00 -1.146680E+01 +5.109109E+02 +7.095441E+00 +3.617633E+00 +7.095441E+00 +4.028841E+02 
 +8.597775E+02 -1.240796E+01 -4.011455E+00 -1.240796E+01 +5.142177E+02 +6.958541E+00 -4.011455E+00 +6.958541E+00 +3.967452E+02 
 +8.643617E+02 -1.180250E+01 -5.352730E+00 -1.180250E+01 +5.167830E+02 +2.629011E+00 -5.352730E+00 +2.629011E+00 +3.830643E+02 
 +8.600904E+02 -6.920167E+00 +3.830610E+00 -6.920167E+00 +5.110637E+02 -4.506256E+00 +3.830610E+00 -4.506256E+00 +3.565699E+02 
 +8.572514E+02 +4.534480E+00 +7.897904E+00 +4.534480E+00 +5.151671E+02 -7.747537E+00 +7.897904E+00 -7.747537E+00 +3.511166E+02 
 +8.661837E+02 +1.250464E+01 +1.089955E+01 +1.250464E+01 +5.217896E+02 -4.007000E-01 +1.089955E+01 -4.007000E-01 +3.657155E+02 
 +8.759470E+02 +6.662473E+00 +1.437561E+01 +6.662473E+00 +5.241920E+02 +6.115176E+00 +1.437561E+01 +6.115176E+00 +3.764992E+02 
 +8.689585E+02 +2.109814E+00 +1.780069E+01 +2.109814E+00 +5.165423E+02 +1.018544E+01 +1.780069E+01 +1.018544E+01 +3.693042E+02 
 +8.855035E+02 +5.194868E-03 +6.622403E+00 +5.194868E-03 +5.063405E+02 +1.775220E+01 +6.622403E+00 +1.775220E+01 +3.600048E+02 
 +8.886473E+02 -6.419475E+00 -9.154070E-01 -6.419475E+00 +5.002446E+02 +3.028576E+01 -9.154070E-01 +3.028576E+01 +3.648891E+02 
 +9.130982E+02 -6.641819E+00 -5.657778E+00 -6.641819E+00 +5.219811E+02 +1.756455E+01 -5.657778E+00 +1.756455E+01 +3.852045E+02 
 +9.049097E+02 -4.118138E+00 +1.115406E+00 -4.118138E+00 +5.214302E+02 -1.147236E+01 +1.115406E+00 -1.147236E+01 +4.015122E+02 
 +8.727044E+02 +6.601044E-01 +7.237267E+00 +6.601044E-01 +5.079833E+02 -6.839538E+00 +7.237267E+00 -6.839538E+00 +4.184702E+02 
 +8.537210E+02 +3.350455E-01 +6.961613E+00 +3.350455E-01 +4.969595E+02 +3.508241E+00 +6.961613E+00 +3.508241E+00 +4.164950E+02 
 +8.583568E+02 -6.585844E+00 +4.938177E+00 -6.585844E+00 +4.911051E+02 +4.429699E+00 +4.938177E+00 +4.429699E+00 +4.052997E+02 
 +8.596375E+02 -7.905992E+00 -6.406482E-01 -7.905992E+00 +4.879065E+02 +1.018145E+01 -6.406482E-01 +1.018145E+01 +3.915858E+02 
 +8.900795E+02 -9.305599E+00 +1.001678E+01 -9.305599E+00 +4.934318E+02 +5.685594E+00 +1.001678E+01 +5.685594E+00 +3.845446E+02 
 +9.115229E+02 -2.879429E+00 +1.537965E+01 -2.879429E+00 +4.818091E+02 +1.339069E+00 +1.537965E+01 +1.339069E+00 +3.792914E+02 
 +8.866493E+02 -9.507905E-01 +2.372122E+01 -9.507905E-01 +4.783455E+02 -8.739339E-01 +2.372122E+01 -8.739339E-01 +3.859612E+02 
 +8.598004E+02 -3.853444E+00 +2.577405E+01 -3.853444E+00 +4.909235E+02 -1.340835E+00 +2.577405E+01 -1.340835E+00 +3.916975E+02 
 +8.617929E+02 -1.202285E+01 +2.278131E+01 -1.202285E+01 +5.102619E+02 -4.112105E+00 +2.278131E+01 -4.112105E+00 +4.017797E+02 
 +8.602419E+02 -1.278741E+01 +8.633792E+00 -1.278741E+01 +5.120834E+02 +4.686360E-01 +8.633792E+00 +4.686360E-01 +4.030312E+02 
 +8.684159E+02 -1.539371E+01 +2.471074E+00 -1.539371E+01 +5.206221E+02 +2.685228E+00 +2.471074E+00 +2.685228E+00 +3.980775E+02 
 +8.709034E+02 -1.510250E+01 +8.182290E-02 -1.510250E+01 +5.195876E+02 -9.965784E-01 +8.182290E-02 -9.965784E-01 +3.798726E+02 
 +8.825502E+02 -8.661605E+00 +3.226718E+00 -8.661605E+00 +5.272486E+02 -9.609422E+00 +3.226718E+00 -9.609422E+00 +3.679917E+02 
 +8.707135E+02 +5.598871E+00 +6.707970E+00 +5.598871E+00 +5.279503E+02 -9.642714E+00 +6.707970E+00 -9.642714E+00 +3.669632E+02 
 +8.697103E+02 +9.578474E+00 +9.180474E+00 +9.578474E+00 +5.275779E+02 -1.198579E+00 +9.180474E+00 -1.198579E+00 +3.705287E+02 
 +8.694861E+02 +1.058385E+01 +9.972711E+00 +1.058385E+01 +5.244161E+02 +5.371707E+00 +9.972711E+00 +5.371707E+00 +3.691955E+02 
 +8.695333E+02 +8.045566E+00 +1.142589E+01 +8.045566E+00 +5.242471E+02 +7.152717E+00 +1.142589E+01 +7.152717E+00 +3.693528E+02 
 +8.802992E+02 +2.085607E+00 +7.914930E+00 +2.085607E+00 +5.333262E+02 +5.049601E+00 +7.914930E+00 +5.049601E+00 +3.805576E+02 
 +8.915322E+02 -1.121848E-01 -5.820500E+00 -1.121848E-01 +5.376576E+02 -1.056074E+01 -5.820500E+00 -1.056074E+01 +3.896456E+02 
 +9.187641E+02 +4.002098E+00 -2.262202E+01 +4.002098E+00 +5.295616E+02 -3.368320E+01 -2.262202E+01 -3.368320E+01 +3.789106E+02 
 +9.035714E+02 +3.067916E+00 -8.769414E+00 +3.067916E+00 +5.021358E+02 -3.895143E+01 -8.769414E+00 -3.895143E+01 +3.545483E+02 
 +8.836385E+02 -1.554500E+00 +9.149836E+00 -1.554500E+00 +4.948572E+02 -2.828252E+01 +9.149836E+00 -2.828252E+01 +3.793774E+02 
 +8.509348E+02 -3.720656E+00 +2.495470E+00 -3.720656E+00 +4.895155E+02 -1.111510E+01 +2.495470E+00 -1.111510E+01 +4.291865E+02 
 +8.669888E+02 -1.076568E+01 -1.889084E+00 -1.076568E+01 +4.969536E+02 -2.902031E+00 -1.889084E+00 -2.902031E+00 +4.407791E+02 
 +8.432126E+02 -9.147088E+00 -3.769859E+00 -9.147088E+00 +4.641338E+02 +5.408867E-01 -3.769859E+00 +5.408867E-01 +3.829360E+02 
 +8.776986E+02 -8.562744E+00 +8.555299E+00 -8.562744E+00 +4.688715E+02 +6.339011E+00 +8.555299E+00 +6.339011E+00 +3.818268E+02 
 +8.826986E+02 -2.887415E+00 +1.818230E+01 -2.887415E+00 +4.548352E+02 +1.080266E+01 +1.818230E+01 +1.080266E+01 +3.925765E+02 
 +8.694488E+02 +3.006457E+00 +2.595963E+01 +3.006457E+00 +4.473266E+02 +5.363304E+00 +2.595963E+01 +5.363304E+00 +3.887815E+02 
 +8.550404E+02 -4.752902E+00 +3.425959E+01 -4.752902E+00 +4.796868E+02 -2.536223E+00 +3.425959E+01 -2.536223E+00 +3.886276E+02 
 +8.531012E+02 -1.271936E+01 +2.488657E+01 -1.271936E+01 +4.945610E+02 -6.617339E+00 +2.488657E+01 -6.617339E+00 +3.914882E+02 
 +8.699062E+02 -1.581674E+01 +1.402393E+01 -1.581674E+01 +5.236413E+02 -6.147225E+00 +1.402393E+01 -6.147225E+00 +4.052292E+02 
 +8.660333E+02 -2.150092E+01 +9.360731E+00 -2.150092E+01 +5.226140E+02 -1.017752E+00 +9.360731E+00 -1.017752E+00 +3.924688E+02 
 +8.849569E+02 -2.303723E+01 +4.074602E+00 -2.303723E+01 +5.292385E+02 +3.348157E-01 +4.074602E+00 +3.348157E-01 +3.779301E+02 
 +9.080469E+02 -1.353227E+01 +5.120897E+00 -1.353227E+01 +5.422914E+02 +2.459502E-01 +5.120897E+00 +2.459502E-01 +3.852900E+02 
 +8.917626E+02 +1.478197E+00 +8.476268E+00 +1.478197E+00 +5.338632E+02 +3.030563E+00 +8.476268E+00 +3.030563E+00 +3.926401E+02 
 +8.698734E+02 +6.684806E+00 +5.468062E+00 +6.684806E+00 +5.232479E+02 +1.982069E+00 +5.468062E+00 +1.982069E+00 +3.820296E+02 
 +8.767394E+02 +6.732736E+00 +4.627574E+00 +6.732736E+00 +5.290228E+02 +3.083948E+00 +4.627574E+00 +3.083948E+00 +3.811363E+02 
 +8.775273E+02 +6.013135E+00 +2.930854E+00 +6.013135E+00 +5.346235E+02 +2.982052E+00 +2.930854E+00 +2.982052E+00 +3.816540E+02 
 +8.697736E+02 +6.142716E+00 +2.262348E+00 +6.142716E+00 +5.350905E+02 -1.121981E+00 +2.262348E+00 -1.121981E+00 +3.740444E+02 
 +9.086500E+02 +1.368882E+01 -1.400899E+01 +1.368882E+01 +5.489994E+02 -6.668500E+00 -1.400899E+01 -6.668500E+00 +3.797547E+02 
 +9.181950E+02 +1.593126E+01 -2.207537E+01 +1.593126E+01 +5.445089E+02 -9.807330E+00 -2.207537E+01 -9.807330E+00 +3.721561E+02 
 +9.095042E+02 +1.249479E+01 -1.630749E+01 +1.249479E+01 +5.282892E+02 -1.086349E+01 -1.630749E+01 -1.086349E+01 +3.542978E+02 
 +8.906365E+02 +4.792608E+00 -5.972952E+00 +4.792608E+00 +5.123466E+02 -1.358058E+01 -5.972952E+00 -1.358058E+01 +3.544795E+02 
 +8.523360E+02 +2.140836E-01 -9.610178E+00 +2.140836E-01 +4.960493E+02 -1.018285E+01 -9.610178E+00 -1.018285E+01 +3.843366E+02 
 +8.696485E+02 -5.655426E+00 -6.065967E-01 -5.655426E+00 +5.037164E+02 -6.397763E+00 -6.065967E-01 -6.397763E+00 +4.061181E+02 
 +8.551324E+02 -2.628132E+00 +8.487204E+00 -2.628132E+00 +4.756409E+02 -6.407566E+00 +8.487204E+00 -6.407566E+00 +3.701217E+02 
 +8.740992E+02 -1.749936E+00 +7.742934E+00 -1.749936E+00 +4.696529E+02 +2.662712E+00 +7.742934E+00 +2.662712E+00 +3.665569E+02 
 +8.779324E+02 +4.882895E+00 +1.143309E+01 +4.882895E+00 +4.855088E+02 +1.314539E+01 +1.143309E+01 +1.314539E+01 +3.901789E+02 
 +8.562236E+02 +1.733102E+01 +1.990977E+01 +1.733102E+01 +4.860548E+02 +1.102901E+01 +1.990977E+01 +1.102901E+01 +3.964264E+02 
 +8.476184E+02 +8.712094E+00 +2.701972E+01 +8.712094E+00 +4.766940E+02 +5.276916E-01 +2.701972E+01 +5.276916E-01 +3.869996E+02 
 +8.388071E+02 +6.359915E+00 +1.334981E+01 +6.359915E+00 +4.896553E+02 -5.474947E+00 +1.334981E+01 -5.474947E+00 +3.786621E+02 
 +8.596967E+02 -6.100459E+00 +1.117574E+01 -6.100459E+00 +5.179124E+02 -5.001540E+00 +1.117574E+01 -5.001540E+00 +3.919123E+02 
 +8.734539E+02 -1.583160E+01 +9.067927E+00 -1.583160E+01 +5.303870E+02 -6.297540E+00 +9.067927E+00 -6.297540E+00 +3.865103E+02 
 +9.065093E+02 -1.162717E+01 +5.552555E+00 -1.162717E+01 +5.401700E+02 -4.506388E+00 +5.552555E+00 -4.506388E+00 +3.781975E+02 
 +9.103125E+02 -3.375954E+00 +9.217920E+00 -3.375954E+00 +5.389619E+02 +7.798819E-01 +9.217920E+00 +7.798819E-01 +3.744630E+02 
 +9.036200E+02 +4.219016E+00 +9.215703E+00 +4.219016E+00 +5.329519E+02 +4.149680E+00 +9.215703E+00 +4.149680E+00 +3.835057E+02 
 +8.726434E+02 +1.543725E+01 +3.371737E+00 +1.543725E+01 +5.091052E+02 -2.534370E+00 +3.371737E+00 -2.534370E+00 +3.785463E+02 
 +8.694408E+02 +1.982623E+01 +3.185453E+00 +1.982623E+01 +5.073628E+02 -8.553143E+00 +3.185453E+00 -8.553143E+00 +3.751509E+02 
 +8.645176E+02 +2.426290E+01 +2.622512E+00 +2.426290E+01 +5.109368E+02 -1.018614E+01 +2.622512E+00 -1.018614E+01 +3.645839E+02 
 +8.738488E+02 +2.247487E+01 +3.210189E+00 +2.247487E+01 +5.244006E+02 -1.010717E+01 +3.210189E+00 -1.010717E+01 +3.563973E+02 
 +9.037082E+02 +1.621095E+01 -6.648947E+00 +1.621095E+01 +5.486337E+02 -9.399073E+00 -6.648947E+00 -9.399073E+00 +3.670493E+02 
 +9.076486E+02 +1.013027E+01 -1.325287E+01 +1.013027E+01 +5.503954E+02 -8.845764E+00 -1.325287E+01 -8.845764E+00 +3.681163E+02 
 +9.094709E+02 +7.353588E+00 -1.781337E+01 +7.353588E+00 +5.401204E+02 -9.196124E+00 -1.781337E+01 -9.196124E+00 +3.626040E+02 
 +8.970828E+02 +7.474011E+00 -1.672622E+01 +7.474011E+00 +5.271781E+02 -1.383950E+01 -1.672622E+01 -1.383950E+01 +3.569743E+02 
 +8.661295E+02 +2.494873E+00 -1.016618E+01 +2.494873E+00 +5.026265E+02 -3.957175E+00 -1.016618E+01 -3.957175E+00 +3.542636E+02 
 +8.435513E+02 -4.492647E+00 +3.467889E+00 -4.492647E+00 +4.790923E+02 +8.102454E+00 +3.467889E+00 +8.102454E+00 +3.586683E+02 
 +8.706797E+02 -1.039269E+01 +8.612485E+00 -1.039269E+01 +5.054365E+02 -8.905049E+00 +8.612485E+00 -8.905049E+00 +3.690557E+02 
 +9.036318E+02 -1.015812E+01 +7.638877E+00 -1.015812E+01 +5.400592E+02 -2.424017E+01 +7.638877E+00 -2.424017E+01 +3.624720E+02 
 +8.888016E+02 +4.138582E+00 +8.444528E+00 +4.138582E+00 +5.396228E+02 -1.600393E+01 +8.444528E+00 -1.600393E+01 +3.642836E+02 
 +8.515621E+02 +1.346969E+01 +1.315230E+01 +1.346969E+01 +5.166688E+02 -1.114281E+01 +1.315230E+01 -1.114281E+01 +3.875202E+02 
 +8.399712E+02 +1.462664E+01 +1.576029E+01 +1.462664E+01 +4.932518E+02 -1.065002E+01 +1.576029E+01 -1.065002E+01 +3.886825E+02 
 +8.349300E+02 +1.249581E+01 +8.449222E+00 +1.249581E+01 +4.915899E+02 -4.258258E+00 +8.449222E+00 -4.258258E+00 +3.736084E+02 
 +8.377200E+02 +1.105959E+01 +5.184139E+00 +1.105959E+01 +4.961800E+02 -3.958941E-01 +5.184139E+00 -3.958941E-01 +3.694148E+02 
 +8.756936E+02 -5.081219E+00 +3.305808E+00 -5.081219E+00 +5.188380E+02 -3.196309E+00 +3.305808E+00 -3.196309E+00 +3.728026E+02 
 +9.002463E+02 -9.947820E+00 +7.486645E+00 -9.947820E+00 +5.268444E+02 -3.070804E+00 +7.486645E+00 -3.070804E+00 +3.755758E+02 
 +9.025072E+02 -3.855095E+00 +1.126925E+01 -3.855095E+00 +5.296714E+02 -4.567188E-01 +1.126925E+01 -4.567188E-01 +3.638336E+02 
 +9.011352E+02 -1.487353E+00 +8.675751E+00 -1.487353E+00 +5.350284E+02 -8.209319E-01 +8.675751E+00 -8.209319E-01 +3.621109E+02 
 +8.942836E+02 +1.932180E+00 +6.156271E+00 +1.932180E+00 +5.309514E+02 -1.048902E+00 +6.156271E+00 -1.048902E+00 +3.701346E+02 
 +8.831231E+02 +8.665378E+00 +5.249258E+00 +8.665378E+00 +5.216536E+02 -1.531675E+00 +5.249258E+00 -1.531675E+00 +3.595589E+02 
 +8.774698E+02 +1.627820E+01 +8.184622E+00 +1.627820E+01 +5.225361E+02 -9.873126E-01 +8.184622E+00 -9.873126E-01 +3.526845E+02 
 +8.855272E+02 +1.601053E+01 +7.527926E+00 +1.601053E+01 +5.426539E+02 -2.403449E+00 +7.527926E+00 -2.403449E+00 +3.626939E+02 
 +8.955836E+02 +8.535403E+00 -7.584163E-01 +8.535403E+00 +5.635722E+02 -8.737701E+00 -7.584163E-01 -8.737701E+00 +3.688322E+02 
 +9.098574E+02 +2.762697E+00 -8.424569E+00 +2.762697E+00 +5.625241E+02 -1.205221E+01 -8.424569E+00 -1.205221E+01 +3.641685E+02 
 +9.126188E+02 +1.869191E+00 -1.336263E+01 +1.869191E+00 +5.473126E+02 -1.104761E+01 -1.336263E+01 -1.104761E+01 +3.630457E+02 
 +9.071930E+02 +6.952199E+00 -1.243328E+01 +6.952199E+00 +5.282524E+02 -1.152297E+01 -1.243328E+01 -1.152297E+01 +3.587100E+02 
 +8.978341E+02 +1.814700E+00 -6.434677E+00 +1.814700E+00 +5.168800E+02 -1.145325E+01 -6.434677E+00 -1.145325E+01 +3.708258E+02 
 +8.586541E+02 +4.569316E+00 +5.205682E-01 +4.569316E+00 +5.141495E+02 -4.808098E+00 +5.205682E-01 -4.808098E+00 +4.035013E+02 
 +8.572880E+02 +1.023658E+00 -3.535123E+00 +1.023658E+00 +5.203422E+02 -2.843862E+00 -3.535123E+00 -2.843862E+00 +3.967426E+02 
 +8.845423E+02 -9.609280E+00 +7.017696E+00 -9.609280E+00 +5.292937E+02 -1.179111E+01 +7.017696E+00 -1.179111E+01 +3.462255E+02 
 +8.867499E+02 -2.082178E+00 +1.272095E+01 -2.082178E+00 +5.338460E+02 -1.487862E+01 +1.272095E+01 -1.487862E+01 +3.385861E+02 
 +8.484755E+02 +9.017945E+00 +9.840077E+00 +9.017945E+00 +5.138842E+02 -1.340339E+01 +9.840077E+00 -1.340339E+01 +3.708133E+02 
 +8.376998E+02 +1.280604E+01 +1.348309E+01 +1.280604E+01 +5.019193E+02 -1.138763E+01 +1.348309E+01 -1.138763E+01 +3.832046E+02 
 +8.366460E+02 +1.232880E+01 +1.063146E+01 +1.232880E+01 +4.940240E+02 -1.837204E+00 +1.063146E+01 -1.837204E+00 +3.808436E+02 
 +8.393005E+02 +1.242388E+01 +4.946280E+00 +1.242388E+01 +4.956899E+02 +1.156176E+00 +4.946280E+00 +1.156176E+00 +3.753096E+02 
 +8.790100E+02 -9.588359E+00 +1.729653E+00 -9.588359E+00 +5.167905E+02 +3.198191E-01 +1.729653E+00 +3.198191E-01 +3.804865E+02 
 +8.925983E+02 -8.469219E+00 +8.024042E+00 -8.469219E+00 +5.247024E+02 +1.379397E+00 +8.024042E+00 +1.379397E+00 +3.846155E+02 
 +9.015551E+02 +1.299180E+00 +7.683903E+00 +1.299180E+00 +5.346747E+02 +2.385370E+00 +7.683903E+00 +2.385370E+00 +3.744126E+02 
 +8.937127E+02 -8.472786E-01 +6.801438E+00 -8.472786E-01 +5.351950E+02 -2.356187E+00 +6.801438E+00 -2.356187E+00 +3.619972E+02 
 +8.931339E+02 -1.481023E+00 +7.587340E+00 -1.481023E+00 +5.324478E+02 -4.238086E+00 +7.587340E+00 -4.238086E+00 +3.621025E+02 
 +8.887016E+02 +3.917147E+00 +6.090562E+00 +3.917147E+00 +5.216866E+02 -1.580956E+00 +6.090562E+00 -1.580956E+00 +3.533227E+02 
 +8.904396E+02 +1.109643E+01 +5.995690E+00 +1.109643E+01 +5.304000E+02 -2.202741E+00 +5.995690E+00 -2.202741E+00 +3.674560E+02 
 +8.992813E+02 +1.337074E+01 +7.689379E+00 +1.337074E+01 +5.538385E+02 -9.790555E+00 +7.689379E+00 -9.790555E+00 +3.964817E+02 
 +9.048050E+02 +5.464791E+00 +4.742106E+00 +5.464791E+00 +5.564652E+02 -1.457484E+01 +4.742106E+00 -1.457484E+01 +3.910073E+02 
 +9.007925E+02 -2.406838E+00 -2.815824E+00 -2.406838E+00 +5.377341E+02 -1.211595E+01 -2.815824E+00 -1.211595E+01 +3.638748E+02 
 +8.967615E+02 -1.885126E+00 -6.091063E+00 -1.885126E+00 +5.158494E+02 -5.126766E+00 -6.091063E+00 -5.126766E+00 +3.481336E+02 
 +8.997694E+02 +2.256494E+00 -8.571723E+00 +2.256494E+00 +5.053103E+02 -4.236045E+00 -8.571723E+00 -4.236045E+00 +3.382691E+02 
 +9.091887E+02 -3.913885E+00 -1.165820E+01 -3.913885E+00 +5.144785E+02 -4.496881E+00 -1.165820E+01 -4.496881E+00 +3.698207E+02 
 +8.574982E+02 +5.721943E-01 -9.814138E-01 +5.721943E-01 +5.020092E+02 -3.466934E-01 -9.814138E-01 -3.466934E-01 +4.185143E+02 
 +8.476156E+02 +3.129677E+00 -6.305671E-02 +3.129677E+00 +5.070134E+02 +5.288949E+00 -6.305671E-02 +5.288949E+00 +4.273006E+02 
 +8.472646E+02 +4.861300E+00 +6.115402E+00 +4.861300E+00 +5.051381E+02 +9.347878E+00 +6.115402E+00 +9.347878E+00 +3.746969E+02 
 +8.908928E+02 +2.547566E-01 +1.065007E+01 +2.547566E-01 +5.277098E+02 +3.058044E+00 +1.065007E+01 +3.058044E+00 +3.706286E+02 
 +8.567288E+02 +4.682215E+00 +8.877411E+00 +4.682215E+00 +5.110786E+02 -4.374610E+00 +8.877411E+00 -4.374610E+00 +3.785613E+02 
 +8.373319E+02 +1.120173E+01 +1.298208E+01 +1.120173E+01 +4.986062E+02 -4.787848E+00 +1.298208E+01 -4.787848E+00 +3.811521E+02 
 +8.379209E+02 +1.158516E+01 +1.142445E+01 +1.158516E+01 +4.952823E+02 +2.363681E+00 +1.142445E+01 +2.363681E+00 +3.930019E+02 
 +8.377340E+02 +1.283912E+01 +5.198439E+00 +1.283912E+01 +4.912618E+02 +6.030600E+00 +5.198439E+00 +6.030600E+00 +3.938595E+02 
 +8.806729E+02 -1.071628E+01 -6.835934E-01 -1.071628E+01 +5.036342E+02 +7.367745E+00 -6.835934E-01 +7.367745E+00 +4.010095E+02 
 +8.865926E+02 -4.682083E+00 +4.228713E+00 -4.682083E+00 +5.125496E+02 +5.648585E+00 +4.228713E+00 +5.648585E+00 +4.004421E+02 
 +8.967646E+02 +4.384465E+00 +6.961769E+00 +4.384465E+00 +5.340814E+02 +4.608917E+00 +6.961769E+00 +4.608917E+00 +3.976704E+02 
 +8.927272E+02 -9.825012E-02 +4.647573E+00 -9.825012E-02 +5.354149E+02 +7.892760E-01 +4.647573E+00 +7.892760E-01 +3.858517E+02 
 +8.909101E+02 -4.052773E+00 +5.422569E+00 -4.052773E+00 +5.297927E+02 -3.184939E+00 +5.422569E+00 -3.184939E+00 +3.824307E+02 
 +8.957831E+02 +1.997818E+00 +5.968098E+00 +1.997818E+00 +5.325525E+02 -3.466361E+00 +5.968098E+00 -3.466361E+00 +3.860682E+02 
 +8.918274E+02 +5.311079E+00 +5.509779E+00 +5.311079E+00 +5.190783E+02 -5.534939E+00 +5.509779E+00 -5.534939E+00 +3.952729E+02 
 +8.712544E+02 +5.852137E+00 +9.135037E+00 +5.852137E+00 +4.663198E+02 -8.112709E+00 +9.135037E+00 -8.112709E+00 +3.912223E+02 
 +8.593709E+02 +6.148250E+00 +3.948829E+00 +6.148250E+00 +4.373975E+02 -1.732758E+01 +3.948829E+00 -1.732758E+01 +3.781605E+02 
 +8.669990E+02 -2.947590E-01 -2.096345E+00 -2.947590E-01 +4.569216E+02 -1.645020E+01 -2.096345E+00 -1.645020E+01 +3.656388E+02 
 +8.825676E+02 -1.321646E+00 -9.887237E-01 -1.321646E+00 +4.892633E+02 -1.135357E+00 -9.887237E-01 -1.135357E+00 +3.469174E+02 
 +8.995721E+02 -2.313023E+00 -5.481811E+00 -2.313023E+00 +5.028330E+02 +1.053294E+01 -5.481811E+00 +1.053294E+01 +3.384112E+02 
 +9.158734E+02 -5.315392E+00 -1.000334E+01 -5.315392E+00 +5.184144E+02 +1.059783E+01 -1.000334E+01 +1.059783E+01 +3.811539E+02 
 +8.658011E+02 -2.065670E+00 -1.693172E+00 -2.065670E+00 +5.092634E+02 +6.389273E+00 -1.693172E+00 +6.389273E+00 +4.287525E+02 
 +8.569387E+02 -3.079260E+00 +6.030095E+00 -3.079260E+00 +5.070079E+02 +8.960047E+00 +6.030095E+00 +8.960047E+00 +4.446572E+02 
 +8.492103E+02 +3.576994E+00 +8.420648E+00 +3.576994E+00 +4.983970E+02 +1.561443E+01 +8.420648E+00 +1.561443E+01 +4.209393E+02 
 +8.685218E+02 +6.480769E+00 +8.035158E+00 +6.480769E+00 +5.116049E+02 +1.610471E+01 +8.035158E+00 +1.610471E+01 +4.163351E+02 
 +8.681356E+02 +6.674058E+00 +5.529967E+00 +6.674058E+00 +5.125231E+02 +7.448267E+00 +5.529967E+00 +7.448267E+00 +4.046067E+02 
 +8.413825E+02 +9.348535E+00 +1.028638E+01 +9.348535E+00 +4.953910E+02 +3.512726E-01 +1.028638E+01 +3.512726E-01 +3.862755E+02 
 +8.369317E+02 +6.370013E+00 +9.440607E+00 +6.370013E+00 +4.879018E+02 +3.058856E+00 +9.440607E+00 +3.058856E+00 +3.983165E+02 
 +8.356630E+02 +9.233193E+00 +4.312375E+00 +9.233193E+00 +4.705939E+02 +8.645192E+00 +4.312375E+00 +8.645192E+00 +4.001950E+02 
 +8.703471E+02 -9.443158E+00 -8.555996E+00 -9.443158E+00 +4.811487E+02 +1.713284E+01 -8.555996E+00 +1.713284E+01 +4.032628E+02 
 +8.802024E+02 +7.124283E+00 +1.392778E+00 +7.124283E+00 +5.005251E+02 +2.293307E+01 +1.392778E+00 +2.293307E+01 +4.049477E+02 
 +8.827113E+02 +1.123606E+01 +9.251555E+00 +1.123606E+01 +5.132675E+02 +2.593818E+01 +9.251555E+00 +2.593818E+01 +4.031346E+02 
 +8.760423E+02 +5.921592E+00 +3.310616E+00 +5.921592E+00 +5.070496E+02 +2.197795E+01 +3.310616E+00 +2.197795E+01 +3.907144E+02 
 +8.750196E+02 +7.919065E-01 +1.417037E+00 +7.919065E-01 +5.085672E+02 +2.159373E+01 +1.417037E+00 +2.159373E+01 +3.925966E+02 
 +8.736361E+02 +2.870078E+00 +5.669914E+00 +2.870078E+00 +4.914181E+02 +1.717474E+01 +5.669914E+00 +1.717474E+01 +4.025802E+02 
 +8.695977E+02 +2.284196E+00 +1.246275E+01 +2.284196E+00 +4.496454E+02 +3.126670E+00 +1.246275E+01 +3.126670E+00 +4.009780E+02 
 +8.584326E+02 +6.109891E+00 +1.147193E+01 +6.109891E+00 +4.233205E+02 -8.679661E+00 +1.147193E+01 -8.679661E+00 +3.865395E+02 
 +8.594075E+02 +8.565290E+00 +7.804060E-01 +8.565290E+00 +4.262615E+02 -1.277741E+01 +7.804060E-01 -1.277741E+01 +3.863222E+02 
 +8.690474E+02 +7.405637E+00 -7.757016E+00 +7.405637E+00 +4.513043E+02 -9.151544E+00 -7.757016E+00 -9.151544E+00 +3.857693E+02 
 +8.755083E+02 +1.605751E+00 -9.940743E+00 +1.605751E+00 +4.743803E+02 +5.283146E-01 -9.940743E+00 +5.283146E-01 +3.510523E+02 
 +8.817129E+02 -7.859919E+00 -3.376322E+00 -7.859919E+00 +4.819031E+02 +8.445269E+00 -3.376322E+00 +8.445269E+00 +3.158312E+02 
 +9.022931E+02 -8.972682E+00 +3.779701E+00 -8.972682E+00 +5.053158E+02 +8.631683E+00 +3.779701E+00 +8.631683E+00 +3.550663E+02 
 +8.623153E+02 -9.008057E+00 +2.337678E+00 -9.008057E+00 +4.988017E+02 +2.658189E+00 +2.337678E+00 +2.658189E+00 +4.136501E+02 
 +8.587316E+02 -5.851981E+00 +7.713387E-01 -5.851981E+00 +5.008294E+02 +3.465867E+00 +7.713387E-01 +3.465867E+00 +4.420669E+02 
 +8.573010E+02 -1.780683E-01 +5.973493E+00 -1.780683E-01 +4.984191E+02 +1.131500E+01 +5.973493E+00 +1.131500E+01 +4.376940E+02 
 +8.537951E+02 +3.421951E+00 +6.971707E+00 +3.421951E+00 +4.998667E+02 +1.459498E+01 +6.971707E+00 +1.459498E+01 +4.361032E+02 
 +8.657938E+02 +5.054209E+00 +9.215655E-01 +5.054209E+00 +5.062331E+02 +9.485312E+00 +9.215655E-01 +9.485312E+00 +4.208044E+02 
 +8.442385E+02 +8.731468E+00 +5.152070E+00 +8.731468E+00 +4.950671E+02 +4.004839E+00 +5.152070E+00 +4.004839E+00 +3.933770E+02 
 +8.526182E+02 -1.544321E+00 +1.554765E+00 -1.544321E+00 +4.900300E+02 +3.830500E+00 +1.554765E+00 +3.830500E+00 +3.936042E+02 
 +8.488022E+02 +7.170774E+00 +2.199321E+00 +7.170774E+00 +4.770595E+02 +1.071158E+01 +2.199321E+00 +1.071158E+01 +3.933606E+02 
 +8.668820E+02 -7.243840E+00 -7.634760E+00 -7.243840E+00 +4.880891E+02 +2.198424E+01 -7.634760E+00 +2.198424E+01 +3.890968E+02 
 +8.877354E+02 +1.244102E+01 +1.104361E+01 +1.244102E+01 +5.065572E+02 +3.322982E+01 +1.104361E+01 +3.322982E+01 +3.937580E+02 
 +8.809036E+02 +1.506042E+01 +1.401240E+01 +1.506042E+01 +5.112372E+02 +3.652102E+01 +1.401240E+01 +3.652102E+01 +4.046380E+02 
 +8.774226E+02 +8.840504E+00 +5.549363E+00 +8.840504E+00 +5.113172E+02 +3.155272E+01 +5.549363E+00 +3.155272E+01 +4.081397E+02 
 +8.707408E+02 +6.543591E+00 +2.395382E+00 +6.543591E+00 +4.962536E+02 +2.690336E+01 +2.395382E+00 +2.690336E+01 +3.910144E+02 
 +8.493605E+02 -1.769537E-01 +1.083361E+01 -1.769537E-01 +4.517798E+02 +2.176095E+01 +1.083361E+01 +2.176095E+01 +3.752302E+02 
 +8.420366E+02 -1.541604E+00 +1.379690E+01 -1.541604E+00 +4.149927E+02 +1.212332E+01 +1.379690E+01 +1.212332E+01 +3.771287E+02 
 +8.542730E+02 +6.923164E+00 +8.164805E+00 +6.923164E+00 +4.222647E+02 +1.160983E+00 +8.164805E+00 +1.160983E+00 +3.812435E+02 
 +8.555984E+02 +7.272469E+00 +1.149322E+00 +7.272469E+00 +4.315234E+02 -7.771875E+00 +1.149322E+00 -7.771875E+00 +3.771820E+02 
 +8.542024E+02 +1.238656E+01 -9.515554E+00 +1.238656E+01 +4.288729E+02 -1.515552E+01 -9.515554E+00 -1.515552E+01 +3.732661E+02 
 +8.619500E+02 +8.933154E+00 -1.538200E+01 +8.933154E+00 +4.443178E+02 -1.001619E+01 -1.538200E+01 -1.001619E+01 +3.588661E+02 
 +8.708501E+02 -4.474348E+00 -6.322064E+00 -4.474348E+00 +4.697277E+02 -9.730327E-01 -6.322064E+00 -9.730327E-01 +3.270396E+02 
 +8.850453E+02 -1.117685E+01 +5.567885E+00 -1.117685E+01 +4.886379E+02 -4.616316E-01 +5.567885E+00 -4.616316E-01 +3.363451E+02 
 +8.600869E+02 -1.129368E+01 +8.028007E+00 -1.129368E+01 +4.825052E+02 -9.808535E-01 +8.028007E+00 -9.808535E-01 +3.854446E+02 
 +8.510416E+02 -9.290585E+00 -3.029410E+00 -9.290585E+00 +4.817668E+02 +5.607772E+00 -3.029410E+00 +5.607772E+00 +4.206779E+02 
 +8.342544E+02 -2.886501E+00 -4.211508E+00 -2.886501E+00 +4.822275E+02 +3.691457E+00 -4.211508E+00 +3.691457E+00 +4.152561E+02 
 +8.456045E+02 -2.973195E+00 +2.159716E+00 -2.973195E+00 +4.958565E+02 +1.313848E+00 +2.159716E+00 +1.313848E+00 +4.201170E+02 
 +8.539378E+02 -2.954097E+00 -2.125106E+00 -2.954097E+00 +4.952232E+02 +2.611821E+00 -2.125106E+00 +2.611821E+00 +4.126608E+02 
 +8.447782E+02 +4.070127E+00 +1.010896E+00 +4.070127E+00 +4.902094E+02 +3.235560E+00 +1.010896E+00 +3.235560E+00 +3.908635E+02 
 +8.669386E+02 -2.006460E+01 -6.021466E+00 -2.006460E+01 +4.811443E+02 +7.650544E+00 -6.021466E+00 +7.650544E+00 +3.799192E+02 
 +8.629283E+02 -3.591339E+00 +1.094541E-01 -3.591339E+00 +4.635919E+02 +1.747219E+01 +1.094541E-01 +1.747219E+01 +3.734514E+02 
 +8.581100E+02 -1.500126E+00 +1.958822E+00 -1.500126E+00 +4.692317E+02 +2.875755E+01 +1.958822E+00 +2.875755E+01 +3.683346E+02 
 +8.773688E+02 +1.230889E+01 +1.617274E+01 +1.230889E+01 +4.940006E+02 +3.747094E+01 +1.617274E+01 +3.747094E+01 +3.848499E+02 
 +8.824354E+02 +1.360490E+01 +1.574157E+01 +1.360490E+01 +5.072001E+02 +3.172305E+01 +1.574157E+01 +3.172305E+01 +4.035184E+02 
 +8.816781E+02 +6.332796E+00 +1.259115E+01 +6.332796E+00 +5.089983E+02 +2.265565E+01 +1.259115E+01 +2.265565E+01 +4.010680E+02 
 +8.668961E+02 +2.806481E+00 +9.814221E+00 +2.806481E+00 +4.823169E+02 +1.339096E+01 +9.814221E+00 +1.339096E+01 +3.729703E+02 
 +8.489170E+02 -9.785235E+00 +1.472175E+01 -9.785235E+00 +4.686287E+02 -3.059956E+00 +1.472175E+01 -3.059956E+00 +3.617337E+02 
 +8.439612E+02 -1.071573E+01 +1.586549E+01 -1.071573E+01 +4.652636E+02 -9.477633E+00 +1.586549E+01 -9.477633E+00 +3.680672E+02 
 +8.464098E+02 +4.970176E-01 +7.175286E+00 +4.970176E-01 +4.370469E+02 -4.725654E+00 +7.175286E+00 -4.725654E+00 +3.656333E+02 
 +8.547636E+02 +5.731749E+00 +6.845731E-01 +5.731749E+00 +4.285969E+02 -7.320224E+00 +6.845731E-01 -7.320224E+00 +3.663637E+02 
 +8.537183E+02 +7.751664E+00 -5.349357E+00 +7.751664E+00 +4.294895E+02 -1.178261E+01 -5.349357E+00 -1.178261E+01 +3.681532E+02 
 +8.498259E+02 +1.173783E+01 -7.693247E+00 +1.173783E+01 +4.176888E+02 -1.621998E+01 -7.693247E+00 -1.621998E+01 +3.637344E+02 
 +8.437751E+02 +7.260293E-01 -7.396102E+00 +7.260293E-01 +4.108562E+02 -2.136927E+01 -7.396102E+00 -2.136927E+01 +3.505110E+02 
 +8.313450E+02 -9.697699E+00 +2.372841E+00 -9.697699E+00 +4.087702E+02 -1.025776E+01 +2.372841E+00 -1.025776E+01 +3.355352E+02 
 +8.463722E+02 -1.261173E+01 +1.157325E+00 -1.261173E+01 +4.362601E+02 +1.319407E+01 +1.157325E+00 +1.319407E+01 +3.584386E+02 
 +8.369200E+02 -7.484901E+00 -8.933749E+00 -7.484901E+00 +4.666054E+02 +9.744861E+00 -8.933749E+00 +9.744861E+00 +3.964310E+02 
 +8.273225E+02 +2.805385E-01 -7.348310E+00 +2.805385E-01 +4.817517E+02 -5.183961E-01 -7.348310E+00 -5.183961E-01 +4.021923E+02 
 +8.335711E+02 -1.494920E+00 -3.831404E-01 -1.494920E+00 +4.875080E+02 +5.986776E-01 -3.831404E-01 +5.986776E-01 +3.950425E+02 
 +8.374523E+02 -2.285574E+00 -3.808904E+00 -2.285574E+00 +4.914442E+02 +1.481083E+00 -3.808904E+00 +1.481083E+00 +3.957560E+02 
 +8.314819E+02 -1.178924E+00 -1.696825E+00 -1.178924E+00 +4.802043E+02 +2.211292E+00 -1.696825E+00 +2.211292E+00 +3.794112E+02 
 +8.682004E+02 -7.758009E+00 +4.539937E+00 -7.758009E+00 +4.719285E+02 +1.543435E+01 +4.539937E+00 +1.543435E+01 +3.571110E+02 
 +8.743336E+02 +2.136595E+00 +7.672233E-01 +2.136595E+00 +4.681558E+02 +2.658883E+01 +7.672233E-01 +2.658883E+01 +3.526405E+02 
 +8.636864E+02 +1.626139E+00 +8.675708E+00 +1.626139E+00 +4.767632E+02 +2.460226E+01 +8.675708E+00 +2.460226E+01 +3.593258E+02 
 +8.742449E+02 +5.827015E+00 +7.355449E+00 +5.827015E+00 +5.010407E+02 +2.429916E+01 +7.355449E+00 +2.429916E+01 +3.898874E+02 
 +8.956572E+02 +1.373903E+01 +8.296188E+00 +1.373903E+01 +5.065967E+02 +2.630944E+01 +8.296188E+00 +2.630944E+01 +3.980121E+02 
 +8.746260E+02 +3.705321E+00 +1.766053E+01 +3.705321E+00 +4.827343E+02 +1.626923E+01 +1.766053E+01 +1.626923E+01 +3.744741E+02 
 +8.478932E+02 -5.818418E+00 +1.480678E+01 -5.818418E+00 +4.623927E+02 -3.235259E-01 +1.480678E+01 -3.235259E-01 +3.592729E+02 
 +8.417121E+02 -9.489393E+00 +1.692203E+01 -9.489393E+00 +4.647983E+02 -8.098524E+00 +1.692203E+01 -8.098524E+00 +3.609804E+02 
 +8.480687E+02 -9.431556E+00 +2.077454E+01 -9.431556E+00 +4.857260E+02 -1.359904E+01 +2.077454E+01 -1.359904E+01 +3.667914E+02 
 +8.484081E+02 -9.267815E+00 +1.498938E+01 -9.267815E+00 +4.775176E+02 -1.712006E+01 +1.498938E+01 -1.712006E+01 +3.668272E+02 
 +8.544282E+02 +1.092433E-01 +6.234299E+00 +1.092433E-01 +4.388931E+02 -1.201687E+01 +6.234299E+00 -1.201687E+01 +3.665531E+02 
 +8.576707E+02 +5.599817E+00 -6.061440E-01 +5.599817E+00 +4.260459E+02 -1.399668E+01 -6.061440E-01 -1.399668E+01 +3.643054E+02 
 +8.543107E+02 +6.620229E+00 -2.193490E+00 +6.620229E+00 +4.200101E+02 -2.023262E+01 -2.193490E+00 -2.023262E+01 +3.609997E+02 
 +8.541759E+02 +6.509022E+00 -6.049562E+00 +6.509022E+00 +4.203153E+02 -2.450292E+01 -6.049562E+00 -2.450292E+01 +3.637219E+02 
 +8.430473E+02 +2.466401E+00 +2.798511E+00 +2.466401E+00 +4.430770E+02 -1.591991E+01 +2.798511E+00 -1.591991E+01 +3.675834E+02 
 +8.662695E+02 -4.260810E+00 -6.167743E+00 -4.260810E+00 +4.741095E+02 +3.368605E+00 -6.167743E+00 +3.368605E+00 +3.869893E+02 
 +8.394916E+02 -4.936480E-01 -1.238278E+01 -4.936480E-01 +4.739024E+02 +9.631115E+00 -1.238278E+01 +9.631115E+00 +4.023675E+02 
 +8.318980E+02 +1.867027E-01 -5.232570E+00 +1.867027E-01 +4.850999E+02 +8.060161E+00 -5.232570E+00 +8.060161E+00 +4.072589E+02 
 +8.317708E+02 -2.984143E+00 -2.019040E+00 -2.984143E+00 +4.907699E+02 +6.665723E+00 -2.019040E+00 +6.665723E+00 +3.955393E+02 
 +8.305469E+02 -2.579201E+00 -5.981656E+00 -2.579201E+00 +4.913494E+02 +5.436259E+00 -5.981656E+00 +5.436259E+00 +3.842885E+02 
 +8.267915E+02 +3.523985E+00 +7.871933E-01 +3.523985E+00 +4.706937E+02 +5.212798E+00 +7.871933E-01 +5.212798E+00 +3.588759E+02 
 +8.632293E+02 -6.003096E+00 +9.912105E+00 -6.003096E+00 +4.672163E+02 +2.542711E+01 +9.912105E+00 +2.542711E+01 +3.451004E+02 
 +8.595184E+02 -2.472574E+00 +2.773812E+00 -2.472574E+00 +4.695570E+02 +2.960622E+01 +2.773812E+00 +2.960622E+01 +3.340643E+02 
 +8.497525E+02 +7.939437E+00 +5.554772E+00 +7.939437E+00 +4.619423E+02 +1.940687E+01 +5.554772E+00 +1.940687E+01 +3.295374E+02 
 +8.653219E+02 +8.328175E+00 +1.232717E+01 +8.328175E+00 +4.720632E+02 +6.751416E+00 +1.232717E+01 +6.751416E+00 +3.670110E+02 
 +8.713330E+02 +6.537650E+00 +8.927779E+00 +6.537650E+00 +4.510953E+02 +1.832365E+01 +8.927779E+00 +1.832365E+01 +3.914163E+02 
 +8.579909E+02 +2.367829E+00 +8.411301E+00 +2.367829E+00 +4.387823E+02 +1.357525E+01 +8.411301E+00 +1.357525E+01 +3.885729E+02 
 +8.423866E+02 -4.695479E+00 +1.725955E+01 -4.695479E+00 +4.569354E+02 -3.414774E+00 +1.725955E+01 -3.414774E+00 +3.725031E+02 
 +8.448020E+02 -7.809219E+00 +2.499862E+01 -7.809219E+00 +4.743348E+02 -9.195132E+00 +2.499862E+01 -9.195132E+00 +3.575279E+02 
 +8.440375E+02 -8.384160E+00 +2.498089E+01 -8.384160E+00 +4.779474E+02 -1.219224E+01 +2.498089E+01 -1.219224E+01 +3.480528E+02 
 +8.488476E+02 -1.019837E+01 +2.004300E+01 -1.019837E+01 +4.893032E+02 -1.599915E+01 +2.004300E+01 -1.599915E+01 +3.547980E+02 
 +8.616063E+02 -6.046056E+00 +1.369973E+01 -6.046056E+00 +4.849662E+02 -1.425817E+01 +1.369973E+01 -1.425817E+01 +3.670597E+02 
 +8.597527E+02 +4.904275E+00 +4.007068E+00 +4.904275E+00 +4.386984E+02 -7.417374E+00 +4.007068E+00 -7.417374E+00 +3.558904E+02 
 +8.537765E+02 +2.234079E+00 -4.285529E+00 +2.234079E+00 +4.212469E+02 -1.414334E+01 -4.285529E+00 -1.414334E+01 +3.540500E+02 
 +8.569823E+02 +2.727480E+00 -3.896055E+00 +2.727480E+00 +4.375853E+02 -1.665993E+01 -3.896055E+00 -1.665993E+01 +3.687280E+02 
 +8.595025E+02 +1.287408E+00 -4.420087E+00 +1.287408E+00 +4.563563E+02 -7.884914E+00 -4.420087E+00 -7.884914E+00 +3.823243E+02 
 +8.704332E+02 -5.506715E+00 -8.435412E+00 -5.506715E+00 +4.854180E+02 +4.600575E+00 -8.435412E+00 +4.600575E+00 +4.082438E+02 
 +8.368357E+02 +3.431827E+00 -8.933611E+00 +3.431827E+00 +4.823433E+02 +7.222008E+00 -8.933611E+00 +7.222008E+00 +4.119574E+02 
 +8.315670E+02 +1.360612E+00 -1.119035E+01 +1.360612E+00 +4.890363E+02 +9.611405E+00 -1.119035E+01 +9.611405E+00 +3.993714E+02 
 +8.436479E+02 -1.314893E+00 -8.418089E+00 -1.314893E+00 +4.984233E+02 +8.471948E+00 -8.418089E+00 +8.471948E+00 +3.921288E+02 
 +8.337830E+02 +1.184886E+00 -4.202666E+00 +1.184886E+00 +4.817843E+02 +1.015623E+01 -4.202666E+00 +1.015623E+01 +3.860045E+02 
 +8.407280E+02 -9.481661E-01 +4.812701E+00 -9.481661E-01 +4.594888E+02 +2.156746E+01 +4.812701E+00 +2.156746E+01 +3.598243E+02 
 +8.512372E+02 -5.005553E+00 +3.243507E+00 -5.005553E+00 +4.556872E+02 +2.991723E+01 +3.243507E+00 +2.991723E+01 +3.352050E+02 
 +8.362755E+02 -5.597050E-01 -1.576823E+00 -5.597050E-01 +4.477671E+02 +3.600449E+01 -1.576823E+00 +3.600449E+01 +3.099903E+02 
 +8.304689E+02 +8.972706E-01 -5.435829E+00 +8.972706E-01 +4.310608E+02 +3.164076E+01 -5.435829E+00 +3.164076E+01 +3.038320E+02 
 +8.484811E+02 +2.525866E+00 +8.873870E+00 +2.525866E+00 +4.319956E+02 +2.893298E+00 +8.873870E+00 +2.893298E+00 +3.381943E+02 
 +8.765861E+02 -3.197637E+00 +1.492299E+01 -3.197637E+00 +4.717624E+02 -1.705687E+01 +1.492299E+01 -1.705687E+01 +3.931327E+02 
 +8.777349E+02 +1.722814E+00 +1.281414E+01 +1.722814E+00 +4.762882E+02 -8.696812E+00 +1.281414E+01 -8.696812E+00 +4.136934E+02 
 +8.565272E+02 +1.703268E+00 +1.835280E+01 +1.703268E+00 +4.707540E+02 -3.282773E+00 +1.835280E+01 -3.282773E+00 +3.893038E+02 
 +8.517724E+02 -6.568300E+00 +2.734732E+01 -6.568300E+00 +4.813383E+02 -1.350516E+01 +2.734732E+01 -1.350516E+01 +3.655118E+02 
 +8.491649E+02 -6.987546E+00 +2.662880E+01 -6.987546E+00 +4.765363E+02 -1.615538E+01 +2.662880E+01 -1.615538E+01 +3.484771E+02 
 +8.454520E+02 -7.617707E+00 +1.827479E+01 -7.617707E+00 +4.729118E+02 -1.376492E+01 +1.827479E+01 -1.376492E+01 +3.409330E+02 
 +8.585696E+02 -7.517215E+00 +1.503819E+01 -7.517215E+00 +4.924779E+02 -1.006699E+01 +1.503819E+01 -1.006699E+01 +3.561711E+02 
 +8.685042E+02 -3.350812E+00 +7.243568E+00 -3.350812E+00 +4.945462E+02 -8.800434E+00 +7.243568E+00 -8.800434E+00 +3.604203E+02 
 +8.728995E+02 +5.492039E+00 -5.130324E+00 +5.492039E+00 +4.779704E+02 -4.897318E+00 -5.130324E+00 -4.897318E+00 +3.626898E+02 
 +8.581382E+02 +6.791796E+00 -2.444990E+00 +6.791796E+00 +4.711631E+02 -3.662299E+00 -2.444990E+00 -3.662299E+00 +3.695701E+02 
 +8.586118E+02 -1.491824E+00 -1.151520E+01 -1.491824E+00 +4.662815E+02 -2.610401E-01 -1.151520E+01 -2.610401E-01 +3.690850E+02 
 +8.685773E+02 -7.099492E+00 -1.269453E+01 -7.099492E+00 +4.780070E+02 +5.050718E+00 -1.269453E+01 +5.050718E+00 +3.789668E+02 
 +8.455112E+02 +6.429534E+00 -1.499231E+01 +6.429534E+00 +4.968459E+02 +4.559113E+00 -1.499231E+01 +4.559113E+00 +3.930119E+02 
 +8.339219E+02 +6.983883E+00 -1.166381E+01 +6.983883E+00 +4.983176E+02 +1.589307E+01 -1.166381E+01 +1.589307E+01 +3.815772E+02 
 +8.479662E+02 -3.931691E+00 -7.086993E+00 -3.931691E+00 +4.873226E+02 +3.172401E+01 -7.086993E+00 +3.172401E+01 +3.755753E+02 
 +8.370357E+02 -3.049445E+00 -1.191991E+00 -3.049445E+00 +4.639246E+02 +3.040814E+01 -1.191991E+00 +3.040814E+01 +3.757519E+02 
 +8.477891E+02 -4.182904E+00 +1.889969E+00 -4.182904E+00 +4.630814E+02 +2.611984E+01 +1.889969E+00 +2.611984E+01 +3.628601E+02 
 +8.517767E+02 -8.210968E+00 -4.732945E+00 -8.210968E+00 +4.485435E+02 +2.328461E+01 -4.732945E+00 +2.328461E+01 +3.194280E+02 
 +8.476987E+02 -2.148578E+00 -8.573783E+00 -2.148578E+00 +4.461796E+02 +3.296517E+00 -8.573783E+00 +3.296517E+00 +3.250125E+02 
 +8.537375E+02 +3.819405E+00 -9.939046E+00 +3.819405E+00 +4.479552E+02 -6.093220E+00 -9.939046E+00 -6.093220E+00 +3.632217E+02 
 +8.596450E+02 +3.520124E+00 -8.438246E+00 +3.520124E+00 +4.505515E+02 +4.608186E+00 -8.438246E+00 +4.608186E+00 +3.830827E+02 
 +8.578688E+02 -3.286219E+00 +8.213722E+00 -3.286219E+00 +4.341935E+02 +1.481683E+01 +8.213722E+00 +1.481683E+01 +3.710689E+02 
 +8.598400E+02 -3.719174E+00 +2.186603E+01 -3.719174E+00 +4.412762E+02 +6.128825E+00 +2.186603E+01 +6.128825E+00 +3.663396E+02 
 +8.581203E+02 -2.368893E+00 +1.575219E+01 -2.368893E+00 +4.656399E+02 -8.647528E+00 +1.575219E+01 -8.647528E+00 +3.740759E+02 
 +8.468453E+02 -3.523668E+00 +1.914516E+01 -3.523668E+00 +4.701717E+02 -8.408644E+00 +1.914516E+01 -8.408644E+00 +3.685957E+02 
 +8.497099E+02 -5.453355E+00 +1.678974E+01 -5.453355E+00 +4.792163E+02 -6.934259E+00 +1.678974E+01 -6.934259E+00 +3.608869E+02 
 +8.574802E+02 -1.006832E+01 +1.435651E+01 -1.006832E+01 +4.911261E+02 -6.124189E+00 +1.435651E+01 -6.124189E+00 +3.550788E+02 
 +8.541626E+02 -1.272141E+01 +7.759721E+00 -1.272141E+01 +4.968252E+02 -7.236055E+00 +7.759721E+00 -7.236055E+00 +3.391393E+02 
 +8.650989E+02 -7.418887E+00 +6.287022E+00 -7.418887E+00 +5.168553E+02 -6.597695E+00 +6.287022E+00 -6.597695E+00 +3.486055E+02 
 +8.593930E+02 +5.057722E+00 -8.535817E+00 +5.057722E+00 +5.197334E+02 +1.547306E+00 -8.535817E+00 +1.547306E+00 +3.757078E+02 
 +8.521825E+02 +3.008325E+00 -9.894352E+00 +3.008325E+00 +5.059389E+02 +2.820884E-01 -9.894352E+00 +2.820884E-01 +3.868039E+02 
 +8.469587E+02 -4.352454E+00 -1.663756E+01 -4.352454E+00 +4.862153E+02 -4.300184E+00 -1.663756E+01 -4.300184E+00 +3.830560E+02 
 +8.805431E+02 +1.255531E+00 +4.909797E+00 +1.255531E+00 +5.004575E+02 -8.333754E-01 +4.909797E+00 -8.333754E-01 +4.002029E+02 
 +8.612333E+02 +4.159602E+00 +8.608689E+00 +4.159602E+00 +4.938188E+02 +1.290558E+00 +8.608689E+00 +1.290558E+00 +3.991275E+02 
 +8.388234E+02 +3.369653E+00 +7.609586E+00 +3.369653E+00 +4.657886E+02 -6.758186E-01 +7.609586E+00 -6.758186E-01 +3.761226E+02 
 +8.408724E+02 -2.380998E+00 +9.363515E+00 -2.380998E+00 +4.539463E+02 +9.824225E+00 +9.363515E+00 +9.824225E+00 +3.520454E+02 
 +8.483457E+02 -1.706088E+00 -3.816880E-02 -1.706088E+00 +4.635468E+02 +2.335095E+01 -3.816880E-02 +2.335095E+01 +3.471927E+02 
 +8.430021E+02 -6.499369E+00 +2.672417E-01 -6.499369E+00 +4.514177E+02 +3.133675E+01 +2.672417E-01 +3.133675E+01 +3.361987E+02 
 +8.546930E+02 -4.785130E+00 -1.599088E+01 -4.785130E+00 +4.577781E+02 -1.359502E+01 -1.599088E+01 -1.359502E+01 +3.233829E+02 
 +8.541475E+02 -5.447194E+00 -1.362373E+01 -5.447194E+00 +4.612849E+02 -1.727404E+01 -1.362373E+01 -1.727404E+01 +3.245416E+02 
 +8.608029E+02 +3.568928E+00 -8.393985E+00 +3.568928E+00 +4.754587E+02 -8.096825E+00 -8.393985E+00 -8.096825E+00 +3.642507E+02 
 +8.651287E+02 +2.517399E-01 +8.613467E-01 +2.517399E-01 +4.627013E+02 +4.507418E+00 +8.613467E-01 +4.507418E+00 +3.811303E+02 
 +8.542558E+02 -2.525499E+00 +6.613619E+00 -2.525499E+00 +4.447068E+02 +1.074454E+01 +6.613619E+00 +1.074454E+01 +3.648874E+02 
 +8.463725E+02 -1.836170E+00 +1.228084E+01 -1.836170E+00 +4.374602E+02 +6.152183E+00 +1.228084E+01 +6.152183E+00 +3.551613E+02 
 +8.393336E+02 +3.097191E-01 +1.339953E+01 +3.097191E-01 +4.337672E+02 -4.007123E+00 +1.339953E+01 -4.007123E+00 +3.527600E+02 
 +8.422721E+02 -4.500484E+00 +5.009143E+00 -4.500484E+00 +4.575670E+02 -1.103670E+01 +5.009143E+00 -1.103670E+01 +3.586705E+02 
 +8.477521E+02 -9.072465E+00 +1.726853E+00 -9.072465E+00 +4.758485E+02 -1.186460E+01 +1.726853E+00 -1.186460E+01 +3.470853E+02 
 +8.564461E+02 -1.131933E+01 +1.498076E+01 -1.131933E+01 +4.906002E+02 -2.882763E+00 +1.498076E+01 -2.882763E+00 +3.412934E+02 
 +8.585007E+02 -8.669086E+00 +3.711106E+00 -8.669086E+00 +5.018403E+02 +3.074513E+00 +3.711106E+00 +3.074513E+00 +3.450601E+02 
 +8.734279E+02 -2.764729E+00 -1.424077E+00 -2.764729E+00 +5.196877E+02 -2.232387E+00 -1.424077E+00 -2.232387E+00 +3.639539E+02 
 +8.572693E+02 +4.722859E+00 -9.174354E+00 +4.722859E+00 +5.194877E+02 -3.409822E+00 -9.174354E+00 -3.409822E+00 +3.845559E+02 
 +8.447068E+02 +6.570635E+00 -8.620619E+00 +6.570635E+00 +5.117987E+02 -4.973635E+00 -8.620619E+00 -4.973635E+00 +3.999527E+02 
 +8.336203E+02 +2.951811E+00 -1.653592E+01 +2.951811E+00 +4.922864E+02 -2.677634E+00 -1.653592E+01 -2.677634E+00 +3.803686E+02 
 +8.855127E+02 +1.211722E+01 +2.134382E+00 +1.211722E+01 +5.029226E+02 +2.476287E+00 +2.134382E+00 +2.476287E+00 +3.738876E+02 
 +8.610627E+02 +1.240545E+01 +8.508726E+00 +1.240545E+01 +4.772025E+02 -5.480355E+00 +8.508726E+00 -5.480355E+00 +3.666028E+02 
 +8.488953E+02 +4.673470E+00 +1.381749E+01 +4.673470E+00 +4.624104E+02 -1.317323E+01 +1.381749E+01 -1.317323E+01 +3.580717E+02 
 +8.398143E+02 -9.150136E-01 +1.022767E+01 -9.150136E-01 +4.527077E+02 -1.027058E+01 +1.022767E+01 -1.027058E+01 +3.398986E+02 
 +8.336307E+02 -1.561541E+00 +6.159217E+00 -1.561541E+00 +4.431999E+02 -5.433542E+00 +6.159217E+00 -5.433542E+00 +3.283235E+02 
 +8.443900E+02 -6.295214E+00 +2.080017E+00 -6.295214E+00 +4.494127E+02 -2.415562E+00 +2.080017E+00 -2.415562E+00 +3.296482E+02 
 +8.591070E+02 -6.605155E+00 -1.800742E+01 -6.605155E+00 +4.543941E+02 -6.452562E+00 -1.800742E+01 -6.452562E+00 +3.540273E+02 
 +8.561318E+02 -2.612772E+00 -1.000721E+01 -2.612772E+00 +4.561705E+02 -1.412894E+00 -1.000721E+01 -1.412894E+00 +3.553341E+02 
 +8.521547E+02 +1.172071E+00 +1.031061E-01 +1.172071E+00 +4.462094E+02 +3.541104E+00 +1.031061E-01 +3.541104E+00 +3.676218E+02 
 +8.518870E+02 -6.027860E-01 +3.866809E+00 -6.027860E-01 +4.460196E+02 +1.017655E+01 +3.866809E+00 +1.017655E+01 +3.700856E+02 
 +8.435849E+02 +6.704597E-01 +6.534121E+00 +6.704597E-01 +4.472392E+02 +9.599278E+00 +6.534121E+00 +9.599278E+00 +3.553473E+02 
 +8.399640E+02 -1.363118E+00 +7.455330E+00 -1.363118E+00 +4.437828E+02 +4.781920E+00 +7.455330E+00 +4.781920E+00 +3.531230E+02 
 +8.323924E+02 +4.316639E+00 +4.919111E+00 +4.316639E+00 +4.374616E+02 +2.977278E+00 +4.919111E+00 +2.977278E+00 +3.514762E+02 
 +8.310265E+02 +4.465855E+00 -5.666521E+00 +4.465855E+00 +4.396390E+02 +1.318366E+01 -5.666521E+00 +1.318366E+01 +3.393844E+02 
 +8.447829E+02 +7.481844E-01 -8.105760E+00 +7.481844E-01 +4.627551E+02 +3.017823E+01 -8.105760E+00 +3.017823E+01 +3.198682E+02 
 +8.588029E+02 -3.680542E+00 +8.752285E+00 -3.680542E+00 +4.884196E+02 +2.428037E+01 +8.752285E+00 +2.428037E+01 +3.338379E+02 
 +8.625385E+02 -7.126210E+00 +4.276565E+00 -7.126210E+00 +5.020820E+02 +1.984036E+00 +4.276565E+00 +1.984036E+00 +3.607316E+02 
 +8.681791E+02 -3.094123E+00 -1.215147E+00 -3.094123E+00 +5.144431E+02 -2.477710E+00 -1.215147E+00 -2.477710E+00 +3.698442E+02 
 +8.649811E+02 +1.390893E+00 -5.883878E+00 +1.390893E+00 +5.214220E+02 +6.345543E+00 -5.883878E+00 +6.345543E+00 +3.872559E+02 
 +8.489920E+02 +4.392995E+00 -8.936636E+00 +4.392995E+00 +5.106530E+02 +5.824314E+00 -8.936636E+00 +5.824314E+00 +3.935348E+02 
 +8.364105E+02 +9.035010E+00 -7.130259E+00 +9.035010E+00 +4.938864E+02 +6.856605E+00 -7.130259E+00 +6.856605E+00 +3.678344E+02 
 +8.749357E+02 +1.916866E+01 -1.083585E+00 +1.916866E+01 +4.985342E+02 +1.254498E+01 -1.083585E+00 +1.254498E+01 +3.451093E+02 
 +8.679470E+02 +1.711649E+01 -1.230541E+00 +1.711649E+01 +4.838471E+02 +4.939196E+00 -1.230541E+00 +4.939196E+00 +3.424193E+02 
 +8.518273E+02 +6.657820E+00 +1.516849E+01 +6.657820E+00 +4.728864E+02 -8.608547E+00 +1.516849E+01 -8.608547E+00 +3.587802E+02 
 +8.477296E+02 +5.888637E-01 +1.281591E+01 +5.888637E-01 +4.643797E+02 -1.113668E+01 +1.281591E+01 -1.113668E+01 +3.563624E+02 
 +8.459010E+02 -2.083018E+00 +7.791526E+00 -2.083018E+00 +4.556843E+02 -1.006063E+01 +7.791526E+00 -1.006063E+01 +3.459648E+02 
 +8.413296E+02 -6.825616E+00 +3.497653E+00 -6.825616E+00 +4.456681E+02 -7.205589E+00 +3.497653E+00 -7.205589E+00 +3.436699E+02 
 +8.639054E+02 -3.361774E+00 -1.554875E+01 -3.361774E+00 +4.486893E+02 -3.785169E+00 -1.554875E+01 -3.785169E+00 +3.652248E+02 
 +8.295566E+02 -2.215851E+00 -7.240448E+00 -2.215851E+00 +4.157096E+02 +2.620397E+00 -7.240448E+00 +2.620397E+00 +3.587132E+02 
 +8.391161E+02 -2.908804E+00 +2.808034E+00 -2.908804E+00 +4.254594E+02 +7.388753E+00 +2.808034E+00 +7.388753E+00 +3.696400E+02 
 +8.474667E+02 -5.828098E-01 +5.099535E+00 -5.828098E-01 +4.411286E+02 +1.020334E+01 +5.099535E+00 +1.020334E+01 +3.666702E+02 
 +8.386257E+02 -1.798350E-01 +8.225808E+00 -1.798350E-01 +4.444474E+02 +1.129180E+01 +8.225808E+00 +1.129180E+01 +3.533904E+02 
 +8.368877E+02 -3.559817E-01 +8.343798E+00 -3.559817E-01 +4.524160E+02 +1.111655E+01 +8.343798E+00 +1.111655E+01 +3.476845E+02 
 +8.392489E+02 +6.764865E+00 +5.470430E+00 +6.764865E+00 +4.616918E+02 +1.192095E+01 +5.470430E+00 +1.192095E+01 +3.538932E+02 
 +8.452914E+02 +1.065788E+01 +1.877738E-03 +1.065788E+01 +4.727503E+02 +1.746890E+01 +1.877738E-03 +1.746890E+01 +3.545912E+02 
 +8.655438E+02 +1.234515E+00 -3.499621E+00 +1.234515E+00 +4.855836E+02 +3.170492E+01 -3.499621E+00 +3.170492E+01 +3.463907E+02 
 +8.704348E+02 -6.424910E+00 +1.474820E+00 -6.424910E+00 +4.928725E+02 +3.374819E+01 +1.474820E+00 +3.374819E+01 +3.585394E+02 
 +8.648750E+02 -4.858682E+00 -3.940832E+00 -4.858682E+00 +5.047269E+02 +1.272796E+01 -3.940832E+00 +1.272796E+01 +3.741558E+02 
 +8.645144E+02 +5.578783E-01 -4.548958E+00 +5.578783E-01 +5.128258E+02 -9.716277E+00 -4.548958E+00 -9.716277E+00 +3.652499E+02 
 +8.583255E+02 +2.077914E+00 +1.893961E+00 +2.077914E+00 +5.035993E+02 -6.731870E+00 +1.893961E+00 -6.731870E+00 +3.549126E+02 
 +8.385709E+02 +3.609972E+00 +1.334526E+00 +3.609972E+00 +4.822951E+02 +1.256470E+01 +1.334526E+00 +1.256470E+01 +3.431520E+02 
 +8.373800E+02 +8.852115E+00 +4.424634E+00 +8.852115E+00 +4.771642E+02 +1.817220E+01 +4.424634E+00 +1.817220E+01 +3.362141E+02 
 +8.565809E+02 +1.496051E+01 +1.369456E+00 +1.496051E+01 +4.831518E+02 +1.460775E+01 +1.369456E+00 +1.460775E+01 +3.234277E+02 
 +8.558702E+02 +1.400009E+01 -1.540322E-01 +1.400009E+01 +4.779323E+02 +7.972851E+00 -1.540322E-01 +7.972851E+00 +3.152454E+02 
 +8.562771E+02 +4.634023E+00 +1.641598E+01 +4.634023E+00 +4.806735E+02 -8.693959E-01 +1.641598E+01 -8.693959E-01 +3.451605E+02 
 +8.612856E+02 +2.676188E+00 +1.629271E+01 +2.676188E+00 +4.819644E+02 -6.784748E+00 +1.629271E+01 -6.784748E+00 +3.684869E+02 
 +8.567995E+02 +5.203349E-02 +4.006187E+00 +5.203349E-02 +4.736644E+02 -6.789903E+00 +4.006187E+00 -6.789903E+00 +3.696760E+02 
 +8.399238E+02 -7.233882E+00 +2.791417E+00 -7.233882E+00 +4.528412E+02 -4.129822E+00 +2.791417E+00 -4.129822E+00 +3.587538E+02 
 +8.669125E+02 -1.763444E+00 -8.456740E+00 -1.763444E+00 +4.776284E+02 -5.048904E+00 -8.456740E+00 -5.048904E+00 +3.724879E+02 
 +8.349058E+02 -8.539597E+00 +1.869569E+00 -8.539597E+00 +4.641375E+02 -2.241040E+00 +1.869569E+00 -2.241040E+00 +3.613694E+02 
 +8.410896E+02 -8.363095E+00 +4.111467E+00 -8.363095E+00 +4.523858E+02 +2.123380E-01 +4.111467E+00 +2.123380E-01 +3.641999E+02 
 +8.336032E+02 -5.940283E+00 +7.536985E+00 -5.940283E+00 +4.348608E+02 +9.833472E+00 +7.536985E+00 +9.833472E+00 +3.530388E+02 
 +8.500079E+02 -3.418041E+00 +7.077961E+00 -3.418041E+00 +4.537067E+02 +1.542573E+01 +7.077961E+00 +1.542573E+01 +3.563039E+02 
 +8.457205E+02 -1.643531E+00 +9.647506E+00 -1.643531E+00 +4.616729E+02 +1.625073E+01 +9.647506E+00 +1.625073E+01 +3.456836E+02 
 +8.323346E+02 +6.302424E+00 +1.113271E+01 +6.302424E+00 +4.609267E+02 +1.419886E+01 +1.113271E+01 +1.419886E+01 +3.460108E+02 
 +8.376936E+02 +1.075941E+01 +7.424522E+00 +1.075941E+01 +4.709519E+02 +1.932015E+01 +7.424522E+00 +1.932015E+01 +3.545844E+02 
 +8.676438E+02 +1.327993E+00 +3.568434E+00 +1.327993E+00 +4.870863E+02 +2.923526E+01 +3.568434E+00 +2.923526E+01 +3.557532E+02 
 +8.766404E+02 -3.890449E+00 -4.890973E-01 -3.890449E+00 +4.944347E+02 +2.799408E+01 -4.890973E-01 +2.799408E+01 +3.611309E+02 
 +8.679113E+02 +1.631165E-02 -9.662638E+00 +1.631165E-02 +5.002102E+02 +2.172876E+01 -9.662638E+00 +2.172876E+01 +3.671327E+02 
 +8.615286E+02 +2.352001E+00 -9.139500E+00 +2.352001E+00 +4.981483E+02 +2.314417E+01 -9.139500E+00 +2.314417E+01 +3.575129E+02 
 +8.493833E+02 +2.163180E+00 +5.099472E+00 +2.163180E+00 +4.842386E+02 +2.234220E+01 +5.099472E+00 +2.234220E+01 +3.326618E+02 
 +8.435690E+02 +2.197192E+00 +1.233085E+01 +2.197192E+00 +4.793251E+02 +1.447208E+01 +1.233085E+01 +1.447208E+01 +3.261674E+02 
 +8.389288E+02 +4.936034E+00 +9.940336E+00 +4.936034E+00 +4.719461E+02 +1.344673E+01 +9.940336E+00 +1.344673E+01 +3.292262E+02 
 +8.268370E+02 +6.706629E+00 +8.136764E+00 +6.706629E+00 +4.580385E+02 +2.173407E+01 +8.136764E+00 +2.173407E+01 +3.157873E+02 
 +8.533030E+02 +5.155209E+00 +8.463374E+00 +5.155209E+00 +4.702480E+02 +1.817048E+01 +8.463374E+00 +1.817048E+01 +3.105568E+02 
 +8.747197E+02 +1.576862E+00 +1.530467E+01 +1.576862E+00 +4.866444E+02 +3.284657E+00 +1.530467E+01 +3.284657E+00 +3.344725E+02 
 +8.795214E+02 +1.242990E+00 +1.187510E+01 +1.242990E+00 +5.037329E+02 -4.521562E+00 +1.187510E+01 -4.521562E+00 +3.798413E+02 
 +8.810399E+02 -1.602370E+00 -6.374267E-01 -1.602370E+00 +5.068103E+02 -4.960897E+00 -6.374267E-01 -4.960897E+00 +4.008202E+02 
 +8.604203E+02 -6.039183E+00 -4.794270E-01 -6.039183E+00 +4.787606E+02 -2.845777E+00 -4.794270E-01 -2.845777E+00 +3.835969E+02 
 +8.705175E+02 -1.068465E+01 +3.708305E+00 -1.068465E+01 +5.288150E+02 -2.959600E+00 +3.708305E+00 -2.959600E+00 +3.847882E+02 
 +8.547884E+02 -1.367107E+01 +4.548762E+00 -1.367107E+01 +5.185483E+02 -2.310445E+00 +4.548762E+00 -2.310445E+00 +3.741347E+02 
 +8.630533E+02 -1.665416E+01 -1.352504E+00 -1.665416E+01 +5.224476E+02 -1.591352E+00 -1.352504E+00 -1.591352E+00 +3.814653E+02 
 +8.547414E+02 -1.437386E+01 +1.398311E+00 -1.437386E+01 +4.938050E+02 +3.954404E+00 +1.398311E+00 +3.954404E+00 +3.685313E+02 
 +8.458991E+02 -1.128050E+01 +4.825420E+00 -1.128050E+01 +4.442641E+02 +1.190540E+01 +4.825420E+00 +1.190540E+01 +3.508912E+02 
 +8.404720E+02 -3.411319E+00 +1.130409E+01 -3.411319E+00 +4.326991E+02 +1.254784E+01 +1.130409E+01 +1.254784E+01 +3.369651E+02 
 +8.255073E+02 +5.149405E+00 +2.109624E+01 +5.149405E+00 +4.555350E+02 +8.874098E+00 +2.109624E+01 +8.874098E+00 +3.379536E+02 
 +8.419164E+02 +7.732750E+00 +1.329343E+01 +7.732750E+00 +4.742860E+02 +1.481368E+01 +1.329343E+01 +1.481368E+01 +3.524073E+02 
 +8.666906E+02 -8.278863E-03 +4.731870E+00 -8.278863E-03 +4.811123E+02 +2.394769E+01 +4.731870E+00 +2.394769E+01 +3.504206E+02 
 +8.772265E+02 -1.699962E+00 -4.011806E+00 -1.699962E+00 +4.915130E+02 +2.365418E+01 -4.011806E+00 +2.365418E+01 +3.562283E+02 
 +8.751183E+02 +2.899837E+00 -6.557438E+00 +2.899837E+00 +4.974766E+02 +1.936549E+01 -6.557438E+00 +1.936549E+01 +3.625152E+02 
 +8.753614E+02 +4.333110E+00 -6.254445E+00 +4.333110E+00 +5.042062E+02 +1.965308E+01 -6.254445E+00 +1.965308E+01 +3.602916E+02 
 +8.642224E+02 +3.691457E+00 +3.428377E+00 +3.691457E+00 +4.970738E+02 +2.068654E+01 +3.428377E+00 +2.068654E+01 +3.486953E+02 
 +8.409574E+02 +2.247265E+00 +1.273065E+01 +2.247265E+00 +4.756894E+02 +1.911541E+01 +1.273065E+01 +1.911541E+01 +3.374441E+02 
 +8.485566E+02 +1.546816E+00 +1.232342E+01 +1.546816E+00 +4.809615E+02 +1.338387E+01 +1.232342E+01 +1.338387E+01 +3.516590E+02 
 +8.091331E+02 +5.490002E+00 +7.513405E+00 +5.490002E+00 +4.582911E+02 -3.904727E+00 +7.513405E+00 -3.904727E+00 +3.371018E+02 
 +8.513906E+02 -1.413822E+00 +6.016107E+00 -1.413822E+00 +4.612183E+02 -2.502835E+01 +6.016107E+00 -2.502835E+01 +3.301437E+02 
 +8.766536E+02 -5.837965E+00 +1.073421E+01 -5.837965E+00 +4.690852E+02 -3.168027E+01 +1.073421E+01 -3.168027E+01 +3.328614E+02 
 +8.998542E+02 -2.603072E+00 +5.635714E+00 -2.603072E+00 +5.030595E+02 -3.359420E+01 +5.635714E+00 -3.359420E+01 +3.705666E+02 
 +8.866090E+02 -6.749691E+00 +1.444864E+00 -6.749691E+00 +5.054782E+02 -3.097040E+01 +1.444864E+00 -3.097040E+01 +3.881270E+02 
 +8.751548E+02 -1.107825E+01 +4.956701E+00 -1.107825E+01 +5.164638E+02 -1.500490E+01 +4.956701E+00 -1.500490E+01 +3.925652E+02 
 +8.529266E+02 -1.073390E+01 +1.093179E+01 -1.073390E+01 +5.081482E+02 +1.489545E+00 +1.093179E+01 +1.489545E+00 +3.729566E+02 
 +8.543046E+02 -1.048971E+01 +7.391831E-01 -1.048971E+01 +5.170659E+02 +5.400592E+00 +7.391831E-01 +5.400592E+00 +3.814172E+02 
 +8.495245E+02 -1.372893E+01 -7.536571E+00 -1.372893E+01 +5.111789E+02 +1.951054E+00 -7.536571E+00 +1.951054E+00 +3.771397E+02 
 +8.586513E+02 -1.143506E+01 -5.977642E+00 -1.143506E+01 +5.064542E+02 -3.332038E+00 -5.977642E+00 -3.332038E+00 +3.692337E+02 
 +8.617176E+02 -1.032616E+01 +2.277997E+00 -1.032616E+01 +4.968991E+02 +1.740225E+00 +2.277997E+00 +1.740225E+00 +3.545365E+02 
 +8.614498E+02 +6.796045E+00 +1.666945E+01 +6.796045E+00 +4.857659E+02 +9.765625E+00 +1.666945E+01 +9.765625E+00 +3.424724E+02 
 +8.326090E+02 +9.313350E+00 +2.510805E+01 +9.313350E+00 +4.637538E+02 +9.162382E+00 +2.510805E+01 +9.162382E+00 +3.360474E+02 
 +8.378179E+02 +4.208036E+00 +1.504840E+01 +4.208036E+00 +4.623248E+02 +1.111283E+01 +1.504840E+01 +1.111283E+01 +3.431191E+02 
 +8.679706E+02 -1.259011E+00 +4.368390E+00 -1.259011E+00 +4.769684E+02 +2.015889E+01 +4.368390E+00 +2.015889E+01 +3.462807E+02 
 +8.810203E+02 -7.113325E-01 -2.739244E+00 -7.113325E-01 +4.886983E+02 +2.274130E+01 -2.739244E+00 +2.274130E+01 +3.519511E+02 
 +8.804708E+02 +2.996774E+00 -5.363488E+00 +2.996774E+00 +4.963091E+02 +2.264307E+01 -5.363488E+00 +2.264307E+01 +3.585104E+02 
 +8.861432E+02 +3.158096E+00 -3.979274E+00 +3.158096E+00 +5.010864E+02 +3.325340E+01 -3.979274E+00 +3.325340E+01 +3.554531E+02 
 +8.796269E+02 +2.270927E+00 +6.595054E+00 +2.270927E+00 +5.005637E+02 +3.840413E+01 +6.595054E+00 +3.840413E+01 +3.538171E+02 
 +8.326445E+02 -7.556256E-01 +1.204379E+01 -7.556256E-01 +4.819988E+02 +2.119239E+01 +1.204379E+01 +2.119239E+01 +3.613023E+02 
 +8.543778E+02 -2.283636E+00 +1.439713E+01 -2.283636E+00 +4.973459E+02 -5.222692E-01 +1.439713E+01 -5.222692E-01 +3.834806E+02 
 +8.468032E+02 +5.929216E+00 +6.904089E+00 +5.929216E+00 +4.874968E+02 -6.477197E+00 +6.904089E+00 -6.477197E+00 +3.662846E+02 
 +8.562952E+02 +7.730212E+00 +2.085104E+00 +7.730212E+00 +4.869106E+02 -1.303867E+00 +2.085104E+00 -1.303867E+00 +3.648020E+02 
 +8.793726E+02 +2.252416E+00 +4.007857E+00 +2.252416E+00 +4.876862E+02 +7.750652E-01 +4.007857E+00 +7.750652E-01 +3.644497E+02 
 +9.188767E+02 -2.538659E+00 -1.136980E-01 -2.538659E+00 +5.066979E+02 -8.104296E+00 -1.136980E-01 -8.104296E+00 +3.768475E+02 
 +8.866738E+02 -2.131216E+01 +1.142465E+01 -2.131216E+01 +5.064558E+02 -1.397356E+01 +1.142465E+01 -1.397356E+01 +3.814073E+02 
 +8.699893E+02 -1.506797E+01 +1.049244E+01 -1.506797E+01 +5.091912E+02 -5.313730E+00 +1.049244E+01 -5.313730E+00 +3.796199E+02 
 +8.633865E+02 -9.606204E+00 +9.762495E+00 -9.606204E+00 +5.114493E+02 +8.307902E+00 +9.762495E+00 +8.307902E+00 +3.937246E+02 
 +8.640502E+02 -1.110766E+01 -9.278400E-01 -1.110766E+01 +5.220108E+02 +1.060255E+01 -9.278400E-01 +1.060255E+01 +3.996777E+02 
 +8.685115E+02 -1.173897E+01 -7.458633E+00 -1.173897E+01 +5.284069E+02 +4.345944E+00 -7.458633E+00 +4.345944E+00 +3.940984E+02 
 +8.647792E+02 -1.232198E+01 -7.062192E+00 -1.232198E+01 +5.223207E+02 -6.144873E+00 -7.062192E+00 -6.144873E+00 +3.731230E+02 
 +8.648225E+02 -8.027891E+00 +9.647807E-01 -8.027891E+00 +5.097264E+02 -5.785039E+00 +9.647807E-01 -5.785039E+00 +3.479037E+02 
 +8.563464E+02 +1.471601E+01 +1.709325E+01 +1.471601E+01 +4.963637E+02 +4.934286E+00 +1.709325E+01 +4.934286E+00 +3.375941E+02 
 +8.400075E+02 +1.819287E+01 +1.852790E+01 +1.819287E+01 +4.776399E+02 +7.270725E+00 +1.852790E+01 +7.270725E+00 +3.483351E+02 
 +8.324769E+02 +1.173626E+01 +1.667293E+01 +1.173626E+01 +4.629609E+02 +1.123413E+01 +1.667293E+01 +1.123413E+01 +3.500616E+02 
 +8.535819E+02 +4.395216E-01 +1.097763E+01 +4.395216E-01 +4.681147E+02 +2.321286E+01 +1.097763E+01 +2.321286E+01 +3.479853E+02 
 +8.767869E+02 -5.492080E+00 +9.983457E-01 -5.492080E+00 +4.829880E+02 +2.476491E+01 +9.983457E-01 +2.476491E+01 +3.565653E+02 
 +8.932678E+02 -2.547523E+00 -4.388514E+00 -2.547523E+00 +4.974439E+02 +2.310229E+01 -4.388514E+00 +2.310229E+01 +3.632469E+02 
 +8.973885E+02 -2.314230E+00 +3.196935E+00 -2.314230E+00 +5.031278E+02 +3.319797E+01 +3.196935E+00 +3.319797E+01 +3.555198E+02 
 +8.981778E+02 -3.842317E+00 +8.985195E+00 -3.842317E+00 +5.128480E+02 +3.927211E+01 +8.985195E+00 +3.927211E+01 +3.631271E+02 
 +8.547842E+02 -2.765518E+00 +6.158139E+00 -2.765518E+00 +5.040724E+02 +1.921905E+01 +6.158139E+00 +1.921905E+01 +3.918079E+02 
 +8.339475E+02 +1.155071E+00 +8.092939E+00 +1.155071E+00 +4.865824E+02 -1.157712E+01 +8.092939E+00 -1.157712E+01 +3.907002E+02 
 +8.659848E+02 -1.987979E+00 +1.076534E+01 -1.987979E+00 +4.832298E+02 -2.365493E+01 +1.076534E+01 -2.365493E+01 +3.735899E+02 
 +8.460904E+02 -1.189216E+00 +2.271630E+00 -1.189216E+00 +4.774948E+02 -9.005665E+00 +2.271630E+00 -9.005665E+00 +3.780842E+02 
 +8.993196E+02 -2.255254E+00 +1.165470E+00 -2.255254E+00 +5.186445E+02 +6.325331E+00 +1.165470E+00 +6.325331E+00 +4.068430E+02 
 +9.221214E+02 +4.953020E+00 +2.756653E+00 +4.953020E+00 +5.299410E+02 +3.906062E+00 +2.756653E+00 +3.906062E+00 +4.098965E+02 
 +8.980633E+02 -1.169718E+01 +1.652093E+01 -1.169718E+01 +5.189360E+02 -6.522088E+00 +1.652093E+01 -6.522088E+00 +4.038342E+02 
 +8.758756E+02 -1.101348E+01 +1.397362E+01 -1.101348E+01 +5.084748E+02 -2.286171E+00 +1.397362E+01 -2.286171E+00 +3.934206E+02 
 +8.764388E+02 -2.654097E+00 +8.836273E+00 -2.654097E+00 +5.243120E+02 +2.950278E+00 +8.836273E+00 +2.950278E+00 +4.132235E+02 
 +8.816414E+02 -7.086797E+00 +1.384111E+00 -7.086797E+00 +5.331554E+02 +4.529487E+00 +1.384111E+00 +4.529487E+00 +4.132228E+02 
 +8.816175E+02 -7.691992E+00 -1.622029E+00 -7.691992E+00 +5.384688E+02 +3.955172E+00 -1.622029E+00 +3.955172E+00 +4.019247E+02 
 +8.708780E+02 -1.229967E+01 -3.074177E+00 -1.229967E+01 +5.308001E+02 -3.558538E+00 -3.074177E+00 -3.558538E+00 +3.767445E+02 
 +8.755766E+02 -7.947163E+00 +1.804359E+00 -7.947163E+00 +5.312511E+02 -1.474784E+01 +1.804359E+00 -1.474784E+01 +3.618499E+02 
 +8.766302E+02 +8.866574E+00 +1.286072E+01 +8.866574E+00 +5.326352E+02 -8.776454E+00 +1.286072E+01 -8.776454E+00 +3.647030E+02 
 +8.613369E+02 +1.019900E+01 +1.297807E+01 +1.019900E+01 +5.223298E+02 +4.134073E-01 +1.297807E+01 +4.134073E-01 +3.723251E+02 
 +8.554524E+02 +7.713286E+00 +1.480496E+01 +7.713286E+00 +5.135233E+02 +4.428985E+00 +1.480496E+01 +4.428985E+00 +3.737469E+02 
 +8.581474E+02 +2.039965E+00 +1.562977E+01 +2.039965E+00 +5.079911E+02 +2.909061E+00 +1.562977E+01 +2.909061E+00 +3.737746E+02 
 +8.805695E+02 -3.323476E+00 +1.063342E+01 -3.323476E+00 +5.078096E+02 +7.868744E+00 +1.063342E+01 +7.868744E+00 +3.878964E+02 
 +8.970470E+02 -5.313684E+00 +2.913805E+00 -5.313684E+00 +5.035359E+02 +2.739683E+01 +2.913805E+00 +2.739683E+01 +3.792899E+02 
 +9.076304E+02 -1.126692E+01 -5.964044E+00 -1.126692E+01 +5.040912E+02 +2.094835E+01 -5.964044E+00 +2.094835E+01 +3.623571E+02 
 +8.945935E+02 -1.149287E+01 -4.956288E-01 -1.149287E+01 +4.917240E+02 -1.575996E+01 -4.956288E-01 -1.575996E+01 +3.529199E+02 
 +8.712063E+02 -6.871962E+00 +1.071367E+01 -6.871962E+00 +4.878923E+02 -2.654953E+01 +1.071367E+01 -2.654953E+01 +3.689582E+02 
 +8.337889E+02 -1.532092E+00 +5.203560E+00 -1.532092E+00 +4.853096E+02 -8.334330E+00 +5.203560E+00 -8.334330E+00 +3.824934E+02 
 +8.639967E+02 -1.553719E+00 +2.388843E+00 -1.553719E+00 +5.069194E+02 -1.626460E+00 +2.388843E+00 -1.626460E+00 +3.933406E+02 
 +8.547364E+02 -1.523534E+00 -1.726771E+00 -1.523534E+00 +4.871456E+02 +1.063363E+00 -1.726771E+00 +1.063363E+00 +3.863627E+02 
 +8.851220E+02 -9.288309E+00 +5.061538E+00 -9.288309E+00 +4.783576E+02 +1.070638E+01 +5.061538E+00 +1.070638E+01 +4.030273E+02 
 +8.851660E+02 +4.028306E-01 +1.037911E+01 +4.028306E-01 +4.602953E+02 +1.273862E+01 +1.037911E+01 +1.273862E+01 +4.081413E+02 
 +8.890857E+02 +8.115143E-01 +1.447573E+01 +8.115143E-01 +4.815627E+02 +1.889310E-01 +1.447573E+01 +1.889310E-01 +4.075387E+02 
 +8.589383E+02 -4.232850E+00 +1.954085E+01 -4.232850E+00 +5.005162E+02 -3.136625E+00 +1.954085E+01 -3.136625E+00 +3.970969E+02 
 +8.742249E+02 -2.380652E+00 +1.666429E+01 -2.380652E+00 +5.254224E+02 +1.905042E+00 +1.666429E+01 +1.905042E+00 +4.175587E+02 
 +8.839939E+02 -9.854883E+00 +6.231918E+00 -9.854883E+00 +5.352595E+02 +4.113637E+00 +6.231918E+00 +4.113637E+00 +4.111606E+02 
 +8.907262E+02 -1.295506E+01 +8.129591E+00 -1.295506E+01 +5.394249E+02 +2.443043E+00 +8.129591E+00 +2.443043E+00 +4.006719E+02 
 +8.915526E+02 -1.313864E+01 +2.475399E+00 -1.313864E+01 +5.412177E+02 -3.166030E+00 +2.475399E+00 -3.166030E+00 +3.880604E+02 
 +8.687279E+02 -4.318903E+00 +4.590609E+00 -4.318903E+00 +5.370723E+02 -1.141201E+01 +4.590609E+00 -1.141201E+01 +3.687388E+02 
 +8.705509E+02 +5.438282E+00 +1.211144E+01 +5.438282E+00 +5.377030E+02 -1.022003E+01 +1.211144E+01 -1.022003E+01 +3.711363E+02 
 +8.630312E+02 +7.590275E+00 +1.213988E+01 +7.590275E+00 +5.238082E+02 -2.249606E+00 +1.213988E+01 -2.249606E+00 +3.718019E+02 
 +8.604437E+02 +8.355280E+00 +1.009549E+01 +8.355280E+00 +5.193417E+02 +2.291083E+00 +1.009549E+01 +2.291083E+00 +3.740024E+02 
 +8.600191E+02 +5.558367E+00 +1.030302E+01 +5.558367E+00 +5.185785E+02 -9.235755E-01 +1.030302E+01 -9.235755E-01 +3.758336E+02 
 +8.690452E+02 +7.965477E-01 +1.425461E+01 +7.965477E-01 +5.280032E+02 -8.419193E+00 +1.425461E+01 -8.419193E+00 +3.899628E+02 
 +8.965643E+02 -2.647641E+00 -5.983913E-01 -2.647641E+00 +5.300294E+02 -2.187138E+01 -5.983913E-01 -2.187138E+01 +3.923199E+02 
 +9.142900E+02 -7.097702E+00 -1.678031E+01 -7.097702E+00 +5.052738E+02 -3.629965E+01 -1.678031E+01 -3.629965E+01 +3.667435E+02 
 +8.896311E+02 -7.508951E+00 -3.213937E+00 -7.508951E+00 +4.811543E+02 -3.812126E+01 -3.213937E+00 -3.812126E+01 +3.499523E+02 
 +8.811667E+02 -8.413192E+00 +1.544513E+01 -8.413192E+00 +4.875455E+02 -3.856637E+01 +1.544513E+01 -3.856637E+01 +3.575289E+02 
 +8.450605E+02 -8.838664E+00 +6.564109E+00 -8.838664E+00 +4.818206E+02 -3.325066E+01 +6.564109E+00 -3.325066E+01 +3.557928E+02 
 +8.370821E+02 -1.221739E+01 -1.016470E+00 -1.221739E+01 +4.717436E+02 -1.847733E+01 -1.016470E+00 -1.847733E+01 +3.645826E+02 
 +8.397871E+02 -8.580808E+00 +2.470062E+00 -8.580808E+00 +4.425011E+02 -4.057815E+00 +2.470062E+00 -4.057815E+00 +3.727101E+02 
 +8.683435E+02 -5.791432E+00 +1.079510E+01 -5.791432E+00 +4.477974E+02 +4.559946E+00 +1.079510E+01 +4.559946E+00 +3.991651E+02 
 +8.748223E+02 -7.075343E-01 +1.041164E+01 -7.075343E-01 +4.525468E+02 +9.585722E+00 +1.041164E+01 +9.585722E+00 +4.150157E+02 
 +8.769357E+02 +4.961096E+00 +9.999189E+00 +4.961096E+00 +4.595139E+02 +9.402936E+00 +9.999189E+00 +9.402936E+00 +4.116538E+02 
 +8.592595E+02 +2.400634E+00 +2.103499E+01 +2.400634E+00 +4.868048E+02 +2.815027E+00 +2.103499E+01 +2.815027E+00 +4.045957E+02 
 +8.678843E+02 -4.787251E+00 +1.509122E+01 -4.787251E+00 +5.096618E+02 +3.649754E+00 +1.509122E+01 +3.649754E+00 +4.196065E+02 
 +8.855343E+02 -1.586116E+01 +1.133975E+01 -1.586116E+01 +5.363802E+02 +2.472713E+00 +1.133975E+01 +2.472713E+00 +4.113335E+02 
 +8.914913E+02 -1.889891E+01 +1.326967E+01 -1.889891E+01 +5.370162E+02 -1.930211E+00 +1.326967E+01 -1.930211E+00 +3.935108E+02 
 +9.051369E+02 -2.622523E+01 +9.341972E+00 -2.622523E+01 +5.476436E+02 -5.416379E+00 +9.341972E+00 -5.416379E+00 +3.906961E+02 
 +8.737146E+02 -1.413511E+01 +1.248948E+01 -1.413511E+01 +5.305560E+02 -1.062711E+00 +1.248948E+01 -1.062711E+00 +3.736468E+02 
 +8.637275E+02 +1.197913E-01 +1.583431E+01 +1.197913E-01 +5.242718E+02 +2.386912E+00 +1.583431E+01 +2.386912E+00 +3.726172E+02 
 +8.624515E+02 +7.051712E+00 +8.769455E+00 +7.051712E+00 +5.220312E+02 +1.001662E+00 +8.769455E+00 +1.001662E+00 +3.766455E+02 
 +8.681657E+02 +6.038961E+00 +7.588878E+00 +6.038961E+00 +5.246920E+02 -1.365804E-01 +7.588878E+00 -1.365804E-01 +3.788297E+02 
 +8.716980E+02 +5.531413E+00 +5.273189E+00 +5.531413E+00 +5.326814E+02 -3.285362E-01 +5.273189E+00 -3.285362E-01 +3.842350E+02 
 +8.632553E+02 +3.865033E+00 +3.681018E+00 +3.865033E+00 +5.297017E+02 -7.239306E+00 +3.681018E+00 -7.239306E+00 +3.854846E+02 
 +9.152940E+02 +7.588264E+00 -1.149575E+01 +7.588264E+00 +5.450664E+02 -1.331795E+01 -1.149575E+01 -1.331795E+01 +3.920218E+02 
 +9.219016E+02 +8.299805E+00 -1.104607E+01 +8.299805E+00 +5.441403E+02 -8.444317E+00 -1.104607E+01 -8.444317E+00 +3.749129E+02 
 +9.082628E+02 +4.500769E+00 -1.168327E+00 +4.500769E+00 +5.365168E+02 -1.315719E+01 -1.168327E+00 -1.315719E+01 +3.781553E+02 
 +8.890559E+02 +9.425111E-01 +3.634886E+00 +9.425111E-01 +5.114768E+02 -3.148610E+01 +3.634886E+00 -3.148610E+01 +3.697574E+02 
 +8.546701E+02 +2.593763E+00 -4.602352E+00 +2.593763E+00 +4.769145E+02 -4.234350E+01 -4.602352E+00 -4.234350E+01 +3.319411E+02 
 +8.487466E+02 -9.243088E+00 +5.299474E+00 -9.243088E+00 +4.643542E+02 -4.003464E+01 +5.299474E+00 -4.003464E+01 +3.378686E+02 
 +8.386335E+02 -9.988536E+00 +1.508320E+01 -9.988536E+00 +4.420885E+02 -2.105617E+01 +1.508320E+01 -2.105617E+01 +3.570744E+02 
 +8.472477E+02 -4.753054E+00 +1.003592E+01 -4.753054E+00 +4.364842E+02 -3.112911E+00 +1.003592E+01 -3.112911E+00 +3.671799E+02 
 +8.502841E+02 -6.290636E-01 +3.487280E+00 -6.290636E-01 +4.459349E+02 +5.099437E+00 +3.487280E+00 +5.099437E+00 +3.745641E+02 
 +8.447876E+02 +9.564224E+00 +3.362110E+00 +9.564224E+00 +4.443852E+02 +8.273670E+00 +3.362110E+00 +8.273670E+00 +3.822170E+02 
 +8.433401E+02 +9.334054E+00 +1.129484E+01 +9.334054E+00 +4.552164E+02 +4.652428E+00 +1.129484E+01 +4.652428E+00 +3.976042E+02 
 +8.545645E+02 +9.392744E+00 +2.607658E+00 +9.392744E+00 +4.965846E+02 -5.293366E+00 +2.607658E+00 -5.293366E+00 +3.955366E+02 
 +8.602756E+02 -1.305645E+01 +1.479890E+01 -1.305645E+01 +5.054229E+02 -9.791941E+00 +1.479890E+01 -9.791941E+00 +3.761893E+02 
 +8.909048E+02 -1.763786E+01 +1.324125E+01 -1.763786E+01 +5.294846E+02 -1.296580E+01 +1.324125E+01 -1.296580E+01 +3.742919E+02 
 +8.863528E+02 -2.133158E+01 +1.001908E+01 -2.133158E+01 +5.220308E+02 -1.347674E+01 +1.001908E+01 -1.347674E+01 +3.681663E+02 
 +8.899205E+02 -9.123222E+00 +1.339898E+01 -9.123222E+00 +5.264226E+02 -9.978745E+00 +1.339898E+01 -9.978745E+00 +3.695295E+02 
 +8.824551E+02 +1.704530E+00 +1.647583E+01 +1.704530E+00 +5.207319E+02 -7.579169E+00 +1.647583E+01 -7.579169E+00 +3.703754E+02 
 +8.581126E+02 +1.818555E+01 +4.501103E+00 +1.818555E+01 +4.998099E+02 -8.051976E+00 +4.501103E+00 -8.051976E+00 +3.710968E+02 
 +8.570671E+02 +2.321842E+01 +1.042576E+00 +2.321842E+01 +4.994017E+02 -1.123767E+01 +1.042576E+00 -1.123767E+01 +3.771055E+02 
 +8.616338E+02 +2.309399E+01 +9.160341E-01 +2.309399E+01 +5.088022E+02 -1.420550E+01 +9.160341E-01 -1.420550E+01 +3.901346E+02 
 +8.790193E+02 +1.874854E+01 -2.600103E+00 +1.874854E+01 +5.247701E+02 -1.480470E+01 -2.600103E+00 -1.480470E+01 +3.993794E+02 
 +9.138946E+02 +1.258369E+01 -9.520247E+00 +1.258369E+01 +5.506036E+02 -1.446669E+01 -9.520247E+00 -1.446669E+01 +3.876008E+02 
 +9.059340E+02 +6.675989E+00 -8.652032E+00 +6.675989E+00 +5.484227E+02 -1.507054E+01 -8.652032E+00 -1.507054E+01 +3.654378E+02 
 +9.020832E+02 +5.675374E+00 -7.327283E+00 +5.675374E+00 +5.430233E+02 -1.794201E+01 -7.327283E+00 -1.794201E+01 +3.656625E+02 
 +8.960052E+02 +7.334810E+00 -3.280233E+00 +7.334810E+00 +5.328778E+02 -2.013501E+01 -3.280233E+00 -2.013501E+01 +3.609502E+02 
 +8.779704E+02 +6.162921E+00 -7.467482E-02 +6.162921E+00 +4.966380E+02 -9.875911E+00 -7.467482E-02 -9.875911E+00 +3.369550E+02 
 +8.587059E+02 -5.775967E+00 +6.047638E+00 -5.775967E+00 +4.703575E+02 -5.435268E+00 +6.047638E+00 -5.435268E+00 +3.189885E+02 
 +8.451660E+02 -9.557152E+00 +7.078543E+00 -9.557152E+00 +4.885633E+02 -2.403105E+01 +7.078543E+00 -2.403105E+01 +3.272503E+02 
 +8.692230E+02 -3.009048E+00 +5.680008E+00 -3.009048E+00 +5.191198E+02 -3.519450E+01 +5.680008E+00 -3.519450E+01 +3.494071E+02 
 +8.757748E+02 +5.655008E+00 +3.310027E+00 +5.655008E+00 +5.228044E+02 -2.571320E+01 +3.310027E+00 -2.571320E+01 +3.466859E+02 
 +8.672785E+02 +1.324811E+01 +1.685540E+00 +1.324811E+01 +5.223366E+02 -1.924153E+01 +1.685540E+00 -1.924153E+01 +3.527844E+02 
 +8.404116E+02 +2.189519E+01 +6.984276E-01 +2.189519E+01 +5.021860E+02 -1.117049E+01 +6.984276E-01 -1.117049E+01 +3.799464E+02 
 +8.411712E+02 +1.684895E+01 +4.027983E-01 +1.684895E+01 +4.966820E+02 -7.125820E-01 +4.027983E-01 -7.125820E-01 +3.826371E+02 
 +8.465439E+02 +9.517173E+00 +7.247184E+00 +9.517173E+00 +5.005623E+02 -3.570783E+00 +7.247184E+00 -3.570783E+00 +3.635395E+02 
 +8.937732E+02 -1.235678E+01 +5.523158E+00 -1.235678E+01 +5.274261E+02 -6.167162E+00 +5.523158E+00 -6.167162E+00 +3.715175E+02 
 +8.792549E+02 -1.527353E+01 +5.531534E+00 -1.527353E+01 +5.139096E+02 -5.493753E+00 +5.531534E+00 -5.493753E+00 +3.603388E+02 
 +8.962664E+02 -5.931357E+00 +6.685519E+00 -5.931357E+00 +5.281778E+02 -4.733106E+00 +6.685519E+00 -4.733106E+00 +3.608911E+02 
 +8.992160E+02 -4.798851E+00 +1.325260E+01 -4.798851E+00 +5.336965E+02 -6.707993E+00 +1.325260E+01 -6.707993E+00 +3.619993E+02 
 +8.936228E+02 +9.810602E-01 +7.145677E+00 +9.810602E-01 +5.295135E+02 -7.525421E+00 +7.145677E+00 -7.525421E+00 +3.796486E+02 
 +8.755105E+02 +1.288785E+01 -3.842403E-01 +1.288785E+01 +5.144254E+02 -4.601980E+00 -3.842403E-01 -4.601980E+00 +3.943143E+02 
 +8.706445E+02 +1.878853E+01 +1.626711E-01 +1.878853E+01 +5.170058E+02 -5.579174E+00 +1.626711E-01 -5.579174E+00 +3.978542E+02 
 +8.905584E+02 +1.414643E+01 -4.381712E-01 +1.414643E+01 +5.418463E+02 -1.117884E+01 -4.381712E-01 -1.117884E+01 +3.929945E+02 
 +8.955315E+02 +8.224725E+00 -4.494521E+00 +8.224725E+00 +5.533692E+02 -1.174865E+01 -4.494521E+00 -1.174865E+01 +3.735419E+02 
 +9.013959E+02 +3.904890E+00 -6.814608E+00 +3.904890E+00 +5.514176E+02 -7.210330E+00 -6.814608E+00 -7.210330E+00 +3.611660E+02 
 +9.025841E+02 +2.327492E+00 -7.654012E+00 +2.327492E+00 +5.407133E+02 -5.437805E+00 -7.654012E+00 -5.437805E+00 +3.516947E+02 
 +8.996858E+02 +4.712863E+00 -4.239282E+00 +4.712863E+00 +5.274504E+02 -7.716712E+00 -4.239282E+00 -7.716712E+00 +3.461633E+02 
 +8.975005E+02 +1.947624E+00 +5.916698E+00 +1.947624E+00 +5.219040E+02 -1.573736E+01 +5.916698E+00 -1.573736E+01 +3.404663E+02 
 +8.665781E+02 -1.498814E+00 +5.462141E+00 -1.498814E+00 +5.096574E+02 -2.024034E+01 +5.462141E+00 -2.024034E+01 +3.079742E+02 
 +8.450609E+02 -3.080989E+00 -5.237611E+00 -3.080989E+00 +5.023831E+02 -1.500212E+01 -5.237611E+00 -1.500212E+01 +3.050989E+02 
 +8.415311E+02 -2.346182E+00 +5.246443E+00 -2.346182E+00 +5.091403E+02 -1.594521E+01 +5.246443E+00 -1.594521E+01 +3.258482E+02 
 +8.707588E+02 +3.857722E+00 +1.015117E+01 +3.857722E+00 +5.245231E+02 -1.919855E+01 +1.015117E+01 -1.919855E+01 +3.187374E+02 
 +8.577790E+02 +1.364748E+01 +6.233943E+00 +1.364748E+01 +5.101886E+02 -1.664982E+01 +6.233943E+00 -1.664982E+01 +3.138551E+02 
 +8.235494E+02 +2.165991E+01 +2.815375E+00 +2.165991E+01 +4.942427E+02 -7.865237E+00 +2.815375E+00 -7.865237E+00 +3.563919E+02 
 +8.414599E+02 +1.431981E+01 +3.095109E+00 +1.431981E+01 +5.035729E+02 -3.516105E+00 +3.095109E+00 -3.516105E+00 +3.911351E+02 
 +8.430116E+02 +1.323538E+01 +7.465099E-01 +1.323538E+01 +5.000214E+02 -5.751333E+00 +7.465099E-01 -5.751333E+00 +3.707758E+02 
 +8.868881E+02 -1.256407E+01 +2.417435E-01 -1.256407E+01 +5.218881E+02 -4.095155E+00 +2.417435E-01 -4.095155E+00 +3.768446E+02 
 +8.793090E+02 -8.745237E+00 +4.548305E+00 -8.745237E+00 +5.195704E+02 -3.064773E+00 +4.548305E+00 -3.064773E+00 +3.659908E+02 
 +8.957729E+02 -2.002441E+00 +3.212658E+00 -2.002441E+00 +5.347598E+02 -3.992760E+00 +3.212658E+00 -3.992760E+00 +3.630734E+02 
 +8.969900E+02 -3.986455E+00 +1.053230E+01 -3.986455E+00 +5.372310E+02 -5.707821E+00 +1.053230E+01 -5.707821E+00 +3.599894E+02 
 +8.976587E+02 -5.248264E+00 +9.345512E+00 -5.248264E+00 +5.379589E+02 -9.968305E+00 +9.345512E+00 -9.968305E+00 +3.730574E+02 
 +8.903048E+02 -2.557014E-01 +2.808586E+00 -2.557014E-01 +5.338899E+02 -1.201209E+01 +2.808586E+00 -1.201209E+01 +3.831852E+02 
 +8.868446E+02 +8.671837E+00 +5.511823E+00 +8.671837E+00 +5.363202E+02 -8.292613E+00 +5.511823E+00 -8.292613E+00 +3.856544E+02 
 +9.015403E+02 +1.019510E+01 +6.003505E+00 +1.019510E+01 +5.562227E+02 -4.494628E+00 +6.003505E+00 -4.494628E+00 +3.925222E+02 
 +9.144875E+02 +5.923875E+00 -9.684500E-01 +5.923875E+00 +5.672432E+02 -2.806070E+00 -9.684500E-01 -2.806070E+00 +3.922641E+02 
 +9.112927E+02 +3.516229E+00 -7.013660E+00 +3.516229E+00 +5.606649E+02 -3.106385E+00 -7.013660E+00 -3.106385E+00 +3.753184E+02 
 +9.049298E+02 +1.571937E+00 -9.629956E+00 +1.571937E+00 +5.452305E+02 -5.845719E+00 -9.629956E+00 -5.845719E+00 +3.514275E+02 
 +9.077664E+02 -1.455754E-01 -8.292496E+00 -1.455754E-01 +5.374692E+02 -9.930564E+00 -8.292496E+00 -9.930564E+00 +3.493430E+02 
 +9.021629E+02 -5.703658E+00 -3.779618E+00 -5.703658E+00 +5.293011E+02 -1.297181E+01 -3.779618E+00 -1.297181E+01 +3.505527E+02 
 +8.630632E+02 -5.691698E+00 +4.139046E+00 -5.691698E+00 +5.002342E+02 -1.601295E+01 +4.139046E+00 -1.601295E+01 +3.165209E+02 
 +8.587765E+02 -2.745434E+00 -2.263454E-01 -2.745434E+00 +5.064963E+02 -9.010774E+00 -2.263454E-01 -9.010774E+00 +3.228510E+02 
 +8.262332E+02 +7.396411E+00 +5.143006E+00 +7.396411E+00 +5.047428E+02 +3.951453E+00 +5.143006E+00 +3.951453E+00 +3.333088E+02 
 +8.709257E+02 +8.122821E+00 +7.729204E+00 +8.122821E+00 +5.238922E+02 -1.294783E+00 +7.729204E+00 -1.294783E+00 +3.258385E+02 
 +8.539116E+02 +1.367603E+01 +8.706504E+00 +1.367603E+01 +5.040859E+02 -1.303174E+01 +8.706504E+00 -1.303174E+01 +3.136275E+02 
 +8.235289E+02 +1.897702E+01 +7.070161E+00 +1.897702E+01 +4.917297E+02 -8.656489E+00 +7.070161E+00 -8.656489E+00 +3.602752E+02 
 +8.419323E+02 +1.552104E+01 +6.808470E+00 +1.552104E+01 +5.079790E+02 +4.270912E+00 +6.808470E+00 +4.270912E+00 +3.921469E+02 
 +8.463566E+02 +1.306725E+01 +4.468171E+00 +1.306725E+01 +5.049526E+02 +8.605253E+00 +4.468171E+00 +8.605253E+00 +3.821868E+02 
 +8.880017E+02 -1.121242E+01 +4.024837E-01 -1.121242E+01 +5.212705E+02 +5.640597E+00 +4.024837E-01 +5.640597E+00 +3.930324E+02 
 +8.842840E+02 -3.401356E+00 +5.485426E+00 -3.401356E+00 +5.278947E+02 -2.748577E-02 +5.485426E+00 -2.748577E-02 +3.919411E+02 
 +8.984080E+02 +2.276845E+00 +5.342962E+00 +2.276845E+00 +5.456384E+02 -1.134010E+00 +5.342962E+00 -1.134010E+00 +3.873832E+02 
 +8.984486E+02 -3.786009E+00 +8.156163E+00 -3.786009E+00 +5.448835E+02 -4.255105E+00 +8.156163E+00 -4.255105E+00 +3.770872E+02 
 +8.911109E+02 -3.741819E+00 +6.077252E+00 -3.741819E+00 +5.359494E+02 -1.345427E+01 +6.077252E+00 -1.345427E+01 +3.725908E+02 
 +8.829859E+02 +4.511856E+00 +8.874874E+00 +4.511856E+00 +5.315042E+02 -1.609165E+01 +8.874874E+00 -1.609165E+01 +3.708524E+02 
 +8.823276E+02 +6.092059E+00 +1.389261E+01 +6.092059E+00 +5.183600E+02 -8.087349E+00 +1.389261E+01 -8.087349E+00 +3.828803E+02 
 +8.744769E+02 +2.231834E+00 +1.086327E+01 +2.231834E+00 +4.732818E+02 +1.445550E-01 +1.086327E+01 +1.445550E-01 +3.883093E+02 
 +8.670745E+02 +3.354510E+00 -1.226272E+00 +3.354510E+00 +4.480310E+02 +2.648578E+00 -1.226272E+00 +2.648578E+00 +3.837116E+02 
 +8.745108E+02 +3.415144E+00 -1.639443E+01 +3.415144E+00 +4.700751E+02 +2.403621E+00 -1.639443E+01 +2.403621E+00 +3.756734E+02 
 +8.955293E+02 +1.454253E+00 -1.712195E+01 +1.454253E+00 +5.183715E+02 -1.103357E+01 -1.712195E+01 -1.103357E+01 +3.691684E+02 
 +9.085369E+02 -5.838510E+00 -1.256245E+01 -5.838510E+00 +5.405301E+02 -2.039754E+01 -1.256245E+01 -2.039754E+01 +3.681449E+02 
 +8.894499E+02 -1.121523E+01 -7.927778E+00 -1.121523E+01 +5.125740E+02 -2.344243E+01 -7.927778E+00 -2.344243E+01 +3.531570E+02 
 +8.593195E+02 -7.876662E+00 -9.347403E-01 -7.876662E+00 +4.866032E+02 -2.226306E+01 -9.347403E-01 -2.226306E+01 +3.279254E+02 
 +8.547709E+02 -8.242388E+00 +2.052857E-01 -8.242388E+00 +4.947592E+02 -1.715638E+01 +2.052857E-01 -1.715638E+01 +3.274453E+02 
 +8.361506E+02 -6.934514E-02 +2.850637E+00 -6.934514E-02 +4.938206E+02 -7.302696E+00 +2.850637E+00 -7.302696E+00 +3.286902E+02 
 +8.551905E+02 +5.336597E+00 +3.045980E+00 +5.336597E+00 +5.074690E+02 +6.514894E-01 +3.045980E+00 +6.514894E-01 +3.224579E+02 
 +8.521936E+02 +9.804686E+00 +6.252189E+00 +9.804686E+00 +5.059527E+02 -1.727073E+00 +6.252189E+00 -1.727073E+00 +3.264173E+02 
 +8.229890E+02 +1.688052E+01 +7.868917E+00 +1.688052E+01 +4.920448E+02 -3.237194E+00 +7.868917E+00 -3.237194E+00 +3.619366E+02 
 +8.431749E+02 +1.112959E+01 +1.087755E+01 +1.112959E+01 +5.089712E+02 +1.190657E+01 +1.087755E+01 +1.190657E+01 +4.020165E+02 
 +8.626298E+02 +6.518809E+00 +7.450213E+00 +6.518809E+00 +5.135156E+02 +1.278204E+01 +7.450213E+00 +1.278204E+01 +4.112718E+02 
 +8.936206E+02 -1.134492E+01 +2.470075E-01 -1.134492E+01 +5.245662E+02 +6.890992E+00 +2.470075E-01 +6.890992E+00 +4.194750E+02 
 +8.878196E+02 +4.262144E+00 +7.574422E+00 +4.262144E+00 +5.293593E+02 +2.648280E+00 +7.574422E+00 +2.648280E+00 +4.149248E+02 
 +8.997934E+02 +7.215720E+00 +1.044070E+01 +7.215720E+00 +5.451292E+02 +2.959476E+00 +1.044070E+01 +2.959476E+00 +4.085077E+02 
 +8.936070E+02 +8.890891E-01 +6.220508E+00 +8.890891E-01 +5.379491E+02 -1.606534E-01 +6.220508E+00 -1.606534E-01 +3.897121E+02 
 +8.824386E+02 +3.170756E-01 +7.508373E+00 +3.170756E-01 +5.284373E+02 -7.414963E+00 +7.508373E+00 -7.414963E+00 +3.794664E+02 
 +8.716452E+02 +7.540784E-01 +1.806534E+01 +7.540784E-01 +5.012278E+02 -4.714751E+00 +1.806534E+01 -4.714751E+00 +3.894596E+02 
 +8.605059E+02 +9.026757E-01 +1.683089E+01 +9.026757E-01 +4.491804E+02 +5.665533E+00 +1.683089E+01 +5.665533E+00 +3.972232E+02 
 +8.603232E+02 +6.802891E+00 +9.327535E+00 +6.802891E+00 +4.331058E+02 +4.635617E+00 +9.327535E+00 +4.635617E+00 +3.949993E+02 
 +8.664788E+02 +8.312728E+00 -3.596601E-01 +8.312728E+00 +4.451737E+02 +3.400066E+00 -3.596601E-01 +3.400066E+00 +3.990332E+02 
 +8.680337E+02 +8.641149E+00 -1.968669E+01 +8.641149E+00 +4.485871E+02 +4.106955E+00 -1.968669E+01 +4.106955E+00 +3.980145E+02 
 +8.658521E+02 +4.280876E+00 -2.742822E+01 +4.280876E+00 +4.443904E+02 -1.138677E+01 -2.742822E+01 -1.138677E+01 +3.914735E+02 
 +8.738718E+02 -5.279138E+00 -2.072055E+01 -5.279138E+00 +4.604012E+02 -3.028322E+01 -2.072055E+01 -3.028322E+01 +3.846976E+02 
 +8.813987E+02 -1.078631E+01 -6.086194E+00 -1.078631E+01 +4.954673E+02 -3.412495E+01 -6.086194E+00 -3.412495E+01 +3.631834E+02 
 +8.533350E+02 -9.477901E+00 -1.493514E+00 -9.477901E+00 +4.889392E+02 -2.211340E+01 -1.493514E+00 -2.211340E+01 +3.270717E+02 
 +8.388315E+02 -4.699679E+00 -3.599677E+00 -4.699679E+00 +4.773358E+02 -1.436917E+01 -3.599677E+00 -1.436917E+01 +3.176855E+02 
 +8.446002E+02 -2.316960E+00 -2.081269E+00 -2.316960E+00 +4.841235E+02 -1.078049E+01 -2.081269E+00 -1.078049E+01 +3.238379E+02 
 +8.423918E+02 -8.678595E-01 +5.653359E-01 -8.678595E-01 +4.882328E+02 -6.364748E+00 +5.653359E-01 -6.364748E+00 +3.211813E+02 
 +8.568494E+02 +2.057853E-01 -3.007479E-01 +2.057853E-01 +5.027473E+02 -2.734676E+00 -3.007479E-01 -2.734676E+00 +3.465709E+02 
 +8.258228E+02 +1.311542E+01 +6.395028E+00 +1.311542E+01 +4.933737E+02 +2.184963E+00 +6.395028E+00 +2.184963E+00 +3.703052E+02 
 +8.536868E+02 +2.617802E+00 +1.043437E+00 +2.617802E+00 +5.032707E+02 +1.139300E+01 +1.043437E+00 +1.139300E+01 +3.906395E+02 
 +8.515146E+02 +2.753286E+00 +4.535063E+00 +2.753286E+00 +4.790350E+02 +7.504206E-01 +4.535063E+00 +7.504206E-01 +3.856311E+02 
 +8.763365E+02 -7.398307E+00 +2.653587E+00 -7.398307E+00 +4.932625E+02 -2.501377E+00 +2.653587E+00 -2.501377E+00 +4.015022E+02 
 +8.880330E+02 +1.207706E+01 +1.500744E+01 +1.207706E+01 +5.125417E+02 +6.958658E+00 +1.500744E+01 +6.958658E+00 +4.083493E+02 
 +8.842772E+02 +1.597128E+01 +1.659080E+01 +1.597128E+01 +5.119031E+02 +1.376758E+01 +1.659080E+01 +1.376758E+01 +3.993709E+02 
 +8.818017E+02 +8.779816E+00 +7.244403E+00 +8.779816E+00 +5.157843E+02 +1.338167E+01 +7.244403E+00 +1.338167E+01 +3.958212E+02 
 +8.680332E+02 +5.630298E+00 +8.171815E+00 +5.630298E+00 +4.997703E+02 +4.904156E+00 +8.171815E+00 +4.904156E+00 +3.932600E+02 
 +8.472115E+02 -4.055687E+00 +1.770892E+01 -4.055687E+00 +4.478691E+02 +6.090771E-01 +1.770892E+01 +6.090771E-01 +3.900000E+02 
 +8.384484E+02 -3.116369E+00 +1.425277E+01 -3.116369E+00 +4.140261E+02 +2.150521E+00 +1.425277E+01 +2.150521E+00 +3.847674E+02 
 +8.503129E+02 +8.147216E+00 +6.511564E+00 +8.147216E+00 +4.235888E+02 -2.098118E-01 +6.511564E+00 -2.098118E-01 +3.863768E+02 
 +8.512474E+02 +8.476200E+00 +2.253834E+00 +8.476200E+00 +4.296784E+02 -4.807936E+00 +2.253834E+00 -4.807936E+00 +3.872837E+02 
 +8.512498E+02 +1.075198E+01 -1.074046E+01 +1.075198E+01 +4.248718E+02 -7.552724E+00 -1.074046E+01 -7.552724E+00 +3.865911E+02 
 +8.544720E+02 +7.231613E+00 -2.270313E+01 +7.231613E+00 +4.244697E+02 -1.522180E+01 -2.270313E+01 -1.522180E+01 +3.888443E+02 
 +8.526526E+02 +1.370058E+00 -2.124576E+01 +1.370058E+00 +4.247166E+02 -2.045480E+01 -2.124576E+01 -2.045480E+01 +3.836380E+02 
 +8.477445E+02 -1.593077E+00 -7.790261E+00 -1.593077E+00 +4.373591E+02 -2.041949E+01 -7.790261E+00 -2.041949E+01 +3.638127E+02 
 +8.452964E+02 -6.939967E+00 -5.597014E+00 -6.939967E+00 +4.706448E+02 -2.473085E+01 -5.597014E+00 -2.473085E+01 +3.320116E+02 
 +8.378703E+02 -8.226749E+00 -7.021984E+00 -8.226749E+00 +4.765545E+02 -2.170193E+01 -7.021984E+00 -2.170193E+01 +3.129363E+02 
 +8.269567E+02 -3.582651E+00 -7.714910E+00 -3.582651E+00 +4.719540E+02 -1.861571E+01 -7.714910E+00 -1.861571E+01 +3.241854E+02 
 +8.350233E+02 -8.217527E+00 -3.850519E+00 -8.217527E+00 +4.836248E+02 -1.758210E+01 -3.850519E+00 -1.758210E+01 +3.373262E+02 
 +8.563737E+02 -1.303909E+01 -2.275363E+00 -1.303909E+01 +4.966648E+02 -1.047173E+01 -2.275363E+00 -1.047173E+01 +3.579817E+02 
 +8.385749E+02 +3.012182E+00 +1.582285E+00 +3.012182E+00 +4.979124E+02 +3.447397E+00 +1.582285E+00 +3.447397E+00 +3.748011E+02 
 +8.712828E+02 -1.453521E+01 -5.196111E+00 -1.453521E+01 +4.842851E+02 +2.225367E+01 -5.196111E+00 +2.225367E+01 +3.641629E+02 
 +8.584999E+02 -8.034600E+00 +6.400012E+00 -8.034600E+00 +4.623759E+02 +1.839433E+01 +6.400012E+00 +1.839433E+01 +3.541584E+02 
 +8.648866E+02 -5.686091E+00 +1.010348E+01 -5.686091E+00 +4.651774E+02 +1.520242E+01 +1.010348E+01 +1.520242E+01 +3.820388E+02 
 +8.788674E+02 +1.160213E+01 +1.439003E+01 +1.160213E+01 +4.779443E+02 +5.188411E+00 +1.439003E+01 +5.188411E+00 +4.007540E+02 
 +8.779053E+02 +1.395198E+01 +1.069149E+01 +1.395198E+01 +4.964264E+02 -2.150941E+01 +1.069149E+01 -2.150941E+01 +3.997205E+02 
 +8.766196E+02 +1.604820E+00 +7.489955E+00 +1.604820E+00 +5.017328E+02 -2.707471E+01 +7.489955E+00 -2.707471E+01 +4.077395E+02 
 +8.675203E+02 -5.198066E+00 +2.945295E+00 -5.198066E+00 +4.786595E+02 -1.869324E+01 +2.945295E+00 -1.869324E+01 +3.996955E+02 
 +8.549958E+02 -1.235194E+01 +1.496339E+01 -1.235194E+01 +4.744730E+02 -1.254451E+01 +1.496339E+01 -1.254451E+01 +3.810563E+02 
 +8.419946E+02 -1.071950E+01 +1.791137E+01 -1.071950E+01 +4.650144E+02 -1.025810E+01 +1.791137E+01 -1.025810E+01 +3.720548E+02 
 +8.436627E+02 +1.747083E+00 +8.790082E+00 +1.747083E+00 +4.319696E+02 -4.529123E+00 +8.790082E+00 -4.529123E+00 +3.722409E+02 
 +8.482064E+02 +7.548554E+00 +3.033545E+00 +7.548554E+00 +4.220611E+02 -8.016599E+00 +3.033545E+00 -8.016599E+00 +3.749165E+02 
 +8.530059E+02 +6.455771E+00 -1.507561E+00 +6.455771E+00 +4.308885E+02 -1.325665E+01 -1.507561E+00 -1.325665E+01 +3.770836E+02 
 +8.540415E+02 +6.989352E+00 -6.973051E+00 +6.989352E+00 +4.296564E+02 -1.807417E+01 -6.973051E+00 -1.807417E+01 +3.697602E+02 
 +8.516321E+02 +6.239823E+00 -1.122754E+01 +6.239823E+00 +4.354320E+02 -1.845462E+01 -1.122754E+01 -1.845462E+01 +3.698695E+02 
 +8.365431E+02 +1.158491E+01 -7.215797E+00 +1.158491E+01 +4.412594E+02 -7.990725E+00 -7.215797E+00 -7.990725E+00 +3.667495E+02 
 +8.392853E+02 +4.331600E+00 -8.239720E+00 +4.331600E+00 +4.510311E+02 -3.077759E+00 -8.239720E+00 -3.077759E+00 +3.423954E+02 
 +8.427688E+02 -5.665666E+00 -6.117947E+00 -5.665666E+00 +4.665556E+02 -9.094752E+00 -6.117947E+00 -9.094752E+00 +3.306474E+02 
 +8.206234E+02 +5.665407E+00 -6.658990E+00 +5.665407E+00 +4.717298E+02 -5.307831E+00 -6.658990E+00 -5.307831E+00 +3.546450E+02 
 +8.347127E+02 +2.100330E+00 -3.878493E+00 +2.100330E+00 +4.869494E+02 -1.974841E-01 -3.878493E+00 -1.974841E-01 +3.772891E+02 
 +8.424284E+02 -4.440160E+00 -1.132753E+00 -4.440160E+00 +4.984165E+02 +1.891164E+00 -1.132753E+00 +1.891164E+00 +3.810596E+02 
 +8.320939E+02 -4.561082E-01 -3.198096E+00 -4.561082E-01 +4.868740E+02 +1.060889E+01 -3.198096E+00 +1.060889E+01 +3.712354E+02 
 +8.724112E+02 +1.250719E+00 +2.018365E+00 +1.250719E+00 +4.714589E+02 +1.743087E+01 +2.018365E+00 +1.743087E+01 +3.527670E+02 
 +8.744433E+02 -5.136552E-01 +6.483175E+00 -5.136552E-01 +4.688005E+02 +2.035519E+01 +6.483175E+00 +2.035519E+01 +3.497601E+02 
 +8.761541E+02 -5.378599E+00 +1.594439E+01 -5.378599E+00 +4.858143E+02 +5.875508E+00 +1.594439E+01 +5.875508E+00 +3.819543E+02 
 +8.891102E+02 +9.164594E+00 +8.713941E+00 +9.164594E+00 +5.048002E+02 -1.653868E+01 +8.713941E+00 -1.653868E+01 +3.990061E+02 
 +8.927446E+02 +1.504526E+01 +3.426107E+00 +1.504526E+01 +5.050528E+02 -2.169938E+01 +3.426107E+00 -2.169938E+01 +4.142273E+02 
 +8.821744E+02 -1.968615E+00 +7.044907E+00 -1.968615E+00 +4.928781E+02 -1.631901E+01 +7.044907E+00 -1.631901E+01 +4.266141E+02 
 +8.670889E+02 -9.130070E+00 -9.941669E-01 -9.130070E+00 +4.761299E+02 -1.289387E+01 -9.941669E-01 -1.289387E+01 +3.990820E+02 
 +8.437616E+02 -9.374041E+00 +1.487167E+01 -9.374041E+00 +4.621870E+02 -1.099848E+01 +1.487167E+01 -1.099848E+01 +3.584895E+02 
 +8.445833E+02 -1.018216E+01 +2.126748E+01 -1.018216E+01 +4.794396E+02 -1.287639E+01 +2.126748E+01 -1.287639E+01 +3.606801E+02 
 +8.506366E+02 -6.647649E+00 +1.543891E+01 -6.647649E+00 +4.772591E+02 -1.497566E+01 +1.543891E+01 -1.497566E+01 +3.703646E+02 
 +8.469278E+02 +3.458023E+00 +6.579845E+00 +3.458023E+00 +4.361739E+02 -8.361663E+00 +6.579845E+00 -8.361663E+00 +3.644843E+02 
 +8.520405E+02 +5.731599E+00 +2.401183E+00 +5.731599E+00 +4.248798E+02 -1.150556E+01 +2.401183E+00 -1.150556E+01 +3.648379E+02 
 +8.530739E+02 +3.452172E+00 -4.504727E-01 +3.452172E+00 +4.265341E+02 -1.929128E+01 -4.504727E-01 -1.929128E+01 +3.606231E+02 
 +8.514590E+02 +8.699238E+00 -6.959438E+00 +8.699238E+00 +4.386370E+02 -1.513707E+01 -6.959438E+00 -1.513707E+01 +3.688515E+02 
 +8.417956E+02 +1.367975E+01 -4.608465E+00 +1.367975E+01 +4.580923E+02 -6.846757E+00 -4.608465E+00 -6.846757E+00 +3.776793E+02 
 +8.463891E+02 +6.063342E+00 -3.741438E+00 +6.063342E+00 +4.609372E+02 -7.574689E-01 -3.741438E+00 -7.574689E-01 +3.704245E+02 
 +8.520620E+02 -2.288445E+00 +2.500409E+00 -2.288445E+00 +4.692657E+02 +3.695901E+00 +2.500409E+00 +3.695901E+00 +3.790769E+02 
 +8.264809E+02 +1.143545E+00 -2.768970E+00 +1.143545E+00 +4.761076E+02 +3.008890E+00 -2.768970E+00 +3.008890E+00 +3.945838E+02 
 +8.285798E+02 -3.647673E+00 -4.832661E+00 -3.647673E+00 +4.887122E+02 +3.473221E+00 -4.832661E+00 +3.473221E+00 +3.951653E+02 
 +8.436221E+02 -2.048257E+00 -4.410671E+00 -2.048257E+00 +4.984870E+02 -8.043762E-01 -4.410671E+00 -8.043762E-01 +3.878468E+02 
 +8.307051E+02 +1.115453E+01 +1.121415E+00 +1.115453E+01 +4.732906E+02 +6.333100E-01 +1.121415E+00 +6.333100E-01 +3.675137E+02 
 +8.542759E+02 -2.293508E+00 +5.997062E+00 -2.293508E+00 +4.503837E+02 +2.918204E+01 +5.997062E+00 +2.918204E+01 +3.435741E+02 
 +8.712121E+02 -2.812001E+00 +4.059558E+00 -2.812001E+00 +4.663305E+02 +2.219460E+01 +4.059558E+00 +2.219460E+01 +3.585864E+02 
 +8.703435E+02 +1.263471E+00 +3.696579E+00 +1.263471E+00 +4.775194E+02 -5.191614E+00 +3.696579E+00 -5.191614E+00 +3.793822E+02 
 +8.692840E+02 +8.185909E+00 +1.370193E+01 +8.185909E+00 +4.732942E+02 -9.189616E+00 +1.370193E+01 -9.189616E+00 +3.744574E+02 
 +8.652647E+02 +9.297294E+00 +1.364866E+01 +9.297294E+00 +4.486873E+02 +1.153729E+01 +1.364866E+01 +1.153729E+01 +3.872377E+02 
 +8.735213E+02 -2.188161E+00 +1.066380E+00 -2.188161E+00 +4.591512E+02 +8.754895E+00 +1.066380E+00 +8.754895E+00 +4.219929E+02 
 +8.614589E+02 -7.741215E+00 -2.958520E+00 -7.741215E+00 +4.689991E+02 -1.047133E+01 -2.958520E+00 -1.047133E+01 +4.058359E+02 
 +8.466361E+02 -6.038498E+00 +1.734284E+01 -6.038498E+00 +4.676763E+02 -1.357955E+01 +1.734284E+01 -1.357955E+01 +3.646604E+02 
 +8.462663E+02 -8.372974E+00 +2.186271E+01 -8.372974E+00 +4.751888E+02 -1.100963E+01 +2.186271E+01 -1.100963E+01 +3.511390E+02 
 +8.516052E+02 -9.059870E+00 +1.747335E+01 -9.059870E+00 +4.917642E+02 -1.340366E+01 +1.747335E+01 -1.340366E+01 +3.587234E+02 
 +8.531573E+02 -4.952478E+00 +1.155403E+01 -4.952478E+00 +4.822033E+02 -1.612361E+01 +1.155403E+01 -1.612361E+01 +3.607411E+02 
 +8.528742E+02 +2.944718E+00 +3.952184E+00 +2.944718E+00 +4.402314E+02 -1.324292E+01 +3.952184E+00 -1.324292E+01 +3.504088E+02 
 +8.516728E+02 +4.225605E+00 +1.075045E+00 +4.225605E+00 +4.388240E+02 -9.509755E+00 +1.075045E+00 -9.509755E+00 +3.543577E+02 
 +8.586192E+02 +8.061948E+00 -4.141809E+00 +8.061948E+00 +4.675038E+02 -7.018984E-01 -4.141809E+00 -7.018984E-01 +3.763390E+02 
 +8.549366E+02 +8.142429E+00 -5.948793E+00 +8.142429E+00 +4.680079E+02 +2.924918E+00 -5.948793E+00 +2.924918E+00 +3.840696E+02 
 +8.510691E+02 -3.909364E-01 -1.725784E+00 -3.909364E-01 +4.706452E+02 +4.631718E+00 -1.725784E+00 +4.631718E+00 +3.833065E+02 
 +8.528866E+02 -2.855488E+00 +7.103829E+00 -2.855488E+00 +4.872838E+02 +7.364822E+00 +7.103829E+00 +7.364822E+00 +3.954414E+02 
 +8.336700E+02 +2.685565E+00 -7.454527E+00 +2.685565E+00 +4.969763E+02 +1.118498E+00 -7.454527E+00 +1.118498E+00 +4.025930E+02 
 +8.362034E+02 -4.210842E+00 -6.837237E+00 -4.210842E+00 +4.986580E+02 +3.750129E+00 -6.837237E+00 +3.750129E+00 +3.935324E+02 
 +8.481410E+02 -5.371682E+00 -8.164561E-01 -5.371682E+00 +4.765549E+02 +1.672930E+01 -8.164561E-01 +1.672930E+01 +3.757373E+02 
 +8.414301E+02 +1.206086E-01 +3.567515E+00 +1.206086E-01 +4.468009E+02 +2.590768E+01 +3.567515E+00 +2.590768E+01 +3.558891E+02 
 +8.450266E+02 -7.718433E+00 +3.780880E+00 -7.718433E+00 +4.344899E+02 +2.751224E+01 +3.780880E+00 +2.751224E+01 +3.345796E+02 
 +8.418762E+02 -5.103186E+00 +2.578519E+00 -5.103186E+00 +4.224595E+02 +1.296222E+01 +2.578519E+00 +1.296222E+01 +3.434809E+02 
 +8.561461E+02 +1.275736E+00 -7.429522E+00 +1.275736E+00 +4.386846E+02 +6.247323E+00 -7.429522E+00 +6.247323E+00 +3.722816E+02 
 +8.577153E+02 +3.271680E+00 +2.580548E+00 +3.271680E+00 +4.484590E+02 -2.059981E+00 +2.580548E+00 -2.059981E+00 +3.756562E+02 
 +8.722570E+02 +2.146665E+00 +1.516916E+01 +2.146665E+00 +4.639130E+02 -1.323360E+01 +1.516916E+01 -1.323360E+01 +3.838252E+02 
 +8.778291E+02 -1.071763E+00 +1.173873E+01 -1.071763E+00 +4.618397E+02 -8.925926E+00 +1.173873E+01 -8.925926E+00 +3.996465E+02 
 +8.537086E+02 -2.420547E+00 +3.378041E+00 -2.420547E+00 +4.564738E+02 -7.957177E+00 +3.378041E+00 -7.957177E+00 +3.919214E+02 
 +8.403530E+02 -2.583852E+00 +2.003674E+01 -2.583852E+00 +4.649879E+02 -1.206608E+01 +2.003674E+01 -1.206608E+01 +3.618019E+02 
 +8.471670E+02 -7.517900E+00 +2.298182E+01 -7.517900E+00 +4.776651E+02 -1.041081E+01 +2.298182E+01 -1.041081E+01 +3.464569E+02 
 +8.548105E+02 -8.975116E+00 +1.583812E+01 -8.975116E+00 +4.890724E+02 -9.032808E+00 +1.583812E+01 -9.032808E+00 +3.474240E+02 
 +8.547498E+02 -9.829703E+00 +1.208812E+01 -9.829703E+00 +4.971187E+02 -1.226915E+01 +1.208812E+01 -1.226915E+01 +3.448266E+02 
 +8.663671E+02 -2.999340E+00 +6.957835E+00 -2.999340E+00 +5.057723E+02 -1.111010E+01 +6.957835E+00 -1.111010E+01 +3.506385E+02 
 +8.632460E+02 +6.464360E+00 -1.231267E+00 +6.464360E+00 +4.949018E+02 +3.049355E+00 -1.231267E+00 +3.049355E+00 +3.674995E+02 
 +8.540914E+02 +4.182284E+00 -5.473381E+00 +4.182284E+00 +4.789170E+02 +8.978193E+00 -5.473381E+00 +8.978193E+00 +3.772928E+02 
 +8.557618E+02 +5.744570E-01 -9.837683E+00 +5.744570E-01 +4.724736E+02 +4.701094E+00 -9.837683E+00 +4.701094E+00 +3.834081E+02 
 +8.595507E+02 -2.297042E+00 +3.465416E-01 -2.297042E+00 +4.823141E+02 +3.119145E+00 +3.465416E-01 +3.119145E+00 +3.910237E+02 
 +8.601186E+02 -1.436240E+00 +4.555175E+00 -1.436240E+00 +5.049460E+02 +1.571424E+00 +4.555175E+00 +1.571424E+00 +4.019979E+02 
 +8.337498E+02 +3.226871E+00 -3.776488E+00 +3.226871E+00 +4.924313E+02 +4.562769E+00 -3.776488E+00 +4.562769E+00 +3.957291E+02 
 +8.450541E+02 -7.215083E+00 +6.458139E-01 -7.215083E+00 +4.759610E+02 +2.160162E+01 +6.458139E-01 +2.160162E+01 +3.849910E+02 
 +8.524742E+02 -5.004517E+00 +2.171601E+00 -5.004517E+00 +4.690731E+02 +2.621371E+01 +2.171601E+00 +2.621371E+01 +3.761153E+02 
 +8.586279E+02 -2.272208E+00 -5.239849E-01 -2.272208E+00 +4.665358E+02 +2.573114E+01 -5.239849E-01 +2.573114E+01 +3.622639E+02 
 +8.646837E+02 -7.901822E+00 -4.959947E+00 -7.901822E+00 +4.521920E+02 +3.552474E+00 -4.959947E+00 +3.552474E+00 +3.740018E+02 
 +8.639820E+02 -4.811256E+00 -1.858787E+00 -4.811256E+00 +4.569567E+02 +5.815797E+00 -1.858787E+00 +5.815797E+00 +3.745900E+02 
 +8.566229E+02 +1.699520E+00 -3.712799E+00 +1.699520E+00 +4.514596E+02 +2.255152E+00 -3.712799E+00 +2.255152E+00 +3.752934E+02 
 +8.568540E+02 +2.485709E+00 -6.856671E+00 +2.485709E+00 +4.441457E+02 +2.587358E+00 -6.856671E+00 +2.587358E+00 +3.806118E+02 
 +8.558469E+02 -5.336913E-01 -5.306119E-01 -5.336913E-01 +4.239618E+02 +8.366074E+00 -5.306119E-01 +8.366074E+00 +3.677149E+02 
 +8.616122E+02 -7.588763E+00 +1.289723E+01 -7.588763E+00 +4.327964E+02 +1.114396E+00 +1.289723E+01 +1.114396E+00 +3.650959E+02 
 +8.615680E+02 -6.847268E+00 +1.228662E+00 -6.847268E+00 +4.646463E+02 -7.655089E+00 +1.228662E+00 -7.655089E+00 +3.848926E+02 
 +8.575187E+02 -1.799305E+00 +1.605669E+00 -1.799305E+00 +4.755089E+02 -7.462248E+00 +1.605669E+00 -7.462248E+00 +3.842006E+02 
 +8.501131E+02 -2.132877E+00 +6.714597E+00 -2.132877E+00 +4.774130E+02 -6.295154E+00 +6.714597E+00 -6.295154E+00 +3.543985E+02 
 +8.497805E+02 -7.263560E+00 +1.678355E+01 -7.263560E+00 +4.891357E+02 -4.276654E+00 +1.678355E+01 -4.276654E+00 +3.400495E+02 
 +8.589899E+02 -1.566344E+01 +1.023632E+01 -1.566344E+01 +5.071269E+02 -8.530723E-01 +1.023632E+01 -8.530723E-01 +3.504423E+02 
 +8.537303E+02 -2.872609E+00 +1.709190E+01 -2.872609E+00 +5.113987E+02 +1.110359E+01 +1.709190E+01 +1.110359E+01 +3.591155E+02 
 +8.376495E+02 +4.274133E+00 +9.727716E+00 +4.274133E+00 +4.960653E+02 +1.551851E+01 +9.727716E+00 +1.551851E+01 +3.662725E+02 
 +8.443073E+02 +1.103927E+00 +9.304410E+00 +1.103927E+00 +4.880898E+02 +1.233391E+01 +9.304410E+00 +1.233391E+01 +3.759394E+02 
 +8.517575E+02 -1.358984E+00 +5.481194E-01 -1.358984E+00 +4.830018E+02 +6.258084E+00 +5.481194E-01 +6.258084E+00 +3.901617E+02 
 +8.607182E+02 +1.760256E+00 +1.155746E+01 +1.760256E+00 +4.888417E+02 -3.251950E+00 +1.155746E+01 -3.251950E+00 +4.040772E+02 
 +8.488581E+02 -5.771217E+00 +1.254844E+01 -5.771217E+00 +4.778868E+02 -8.793080E+00 +1.254844E+01 -8.793080E+00 +3.882285E+02 
 +8.355505E+02 -3.251980E+00 +9.915798E+00 -3.251980E+00 +4.561776E+02 -9.849423E+00 +9.915798E+00 -9.849423E+00 +3.683407E+02 
 +8.375823E+02 -7.455919E-01 +1.464088E+01 -7.455919E-01 +4.448511E+02 -5.592777E+00 +1.464088E+01 -5.592777E+00 +3.571265E+02 
 +8.451244E+02 -1.219579E-01 +9.012694E+00 -1.219579E-01 +4.392148E+02 -1.674132E+00 +9.012694E+00 -1.674132E+00 +3.499517E+02 
 +8.412759E+02 -6.547282E+00 +8.333430E+00 -6.547282E+00 +4.333439E+02 +2.778299E+00 +8.333430E+00 +2.778299E+00 +3.540424E+02 
 +8.668262E+02 -4.584059E+00 -1.326161E+01 -4.584059E+00 +4.580710E+02 -7.062016E+00 -1.326161E+01 -7.062016E+00 +3.718243E+02 
 +8.681809E+02 -4.302240E+00 -7.588928E+00 -4.302240E+00 +4.664553E+02 +2.254498E-02 -7.588928E+00 +2.254498E-02 +3.917063E+02 
 +8.646530E+02 +3.023097E+00 -7.846163E-01 +3.023097E+00 +4.665035E+02 +2.868672E+00 -7.846163E-01 +2.868672E+00 +3.920810E+02 
 +8.635428E+02 +1.887923E+00 +1.152455E-01 +1.887923E+00 +4.560326E+02 +6.538784E+00 +1.152455E-01 +6.538784E+00 +3.832258E+02 
 +8.628743E+02 -2.321306E+00 -4.349611E-01 -2.321306E+00 +4.468478E+02 +1.030522E+01 -4.349611E-01 +1.030522E+01 +3.749738E+02 
 +8.577134E+02 -5.731892E+00 +4.029703E+00 -5.731892E+00 +4.390181E+02 +6.276221E+00 +4.029703E+00 +6.276221E+00 +3.680574E+02 
 +8.469816E+02 -3.552252E+00 +4.644205E+00 -3.552252E+00 +4.461316E+02 -7.270438E-01 +4.644205E+00 -7.270438E-01 +3.640555E+02 
 +8.524594E+02 -5.836395E+00 -8.267395E-01 -5.836395E+00 +4.772772E+02 -1.482925E+01 -8.267395E-01 -1.482925E+01 +3.614522E+02 
 +8.555253E+02 -6.832510E+00 +5.488862E-01 -6.832510E+00 +4.925739E+02 -2.787017E+01 +5.488862E-01 -2.787017E+01 +3.555947E+02 
 +8.551931E+02 -1.278270E+01 +1.870914E+01 -1.278270E+01 +4.992178E+02 -1.749316E+01 +1.870914E+01 -1.749316E+01 +3.413222E+02 
 +8.690669E+02 -1.421021E+01 +1.733746E+01 -1.421021E+01 +5.125281E+02 +4.982683E-01 +1.733746E+01 +4.982683E-01 +3.390867E+02 
 +8.588520E+02 +1.066202E+00 +1.807273E+01 +1.066202E+00 +5.128603E+02 +9.975783E+00 +1.807273E+01 +9.975783E+00 +3.625179E+02 
 +8.389502E+02 +4.892327E+00 -3.195973E-01 +4.892327E+00 +5.082294E+02 +5.523801E+00 -3.195973E-01 +5.523801E+00 +3.828051E+02 
 +8.488988E+02 +3.817096E+00 +1.978981E+00 +3.817096E+00 +5.109777E+02 +3.261074E+00 +1.978981E+00 +3.261074E+00 +3.916864E+02 
 +8.468694E+02 +1.284705E+00 -6.602058E+00 +1.284705E+00 +4.975300E+02 +4.850187E+00 -6.602058E+00 +4.850187E+00 +3.959402E+02 
 +8.741803E+02 +9.043498E+00 +1.427316E+01 +9.043498E+00 +4.958882E+02 +1.387948E+00 +1.427316E+01 +1.387948E+00 +4.106166E+02 
 +8.575976E+02 +3.325287E-01 +1.842747E+01 +3.325287E-01 +4.739532E+02 -8.431891E+00 +1.842747E+01 -8.431891E+00 +3.901030E+02 
 +8.490285E+02 -1.631503E+00 +1.505633E+01 -1.631503E+00 +4.607266E+02 -1.137324E+01 +1.505633E+01 -1.137324E+01 +3.660168E+02 
 +8.478567E+02 -2.344914E+00 +1.663625E+01 -2.344914E+00 +4.516574E+02 -1.015515E+01 +1.663625E+01 -1.015515E+01 +3.553265E+02 
 +8.494437E+02 -1.738343E+00 +9.888671E+00 -1.738343E+00 +4.436000E+02 -1.024076E+01 +9.888671E+00 -1.024076E+01 +3.501301E+02 
 +8.391123E+02 -5.884541E+00 +8.261779E+00 -5.884541E+00 +4.350527E+02 -7.992197E+00 +8.261779E+00 -7.992197E+00 +3.427720E+02 
 +8.637855E+02 -3.995275E+00 -1.460637E+01 -3.995275E+00 +4.555660E+02 -1.137151E+00 -1.460637E+01 -1.137151E+00 +3.708761E+02 
 +8.649999E+02 -2.665906E+00 -7.073080E+00 -2.665906E+00 +4.629158E+02 +8.422477E+00 -7.073080E+00 +8.422477E+00 +3.919542E+02 
 +8.607735E+02 +2.177043E+00 +1.330006E+00 +2.177043E+00 +4.538313E+02 +1.203344E+01 +1.330006E+00 +1.203344E+01 +3.844274E+02 
 +8.616278E+02 +3.205255E+00 -7.121528E-02 +3.205255E+00 +4.535565E+02 +1.411126E+01 -7.121528E-02 +1.411126E+01 +3.752442E+02 
 +8.553869E+02 -1.578494E-01 -1.121242E+00 -1.578494E-01 +4.522677E+02 +1.347695E+01 -1.121242E+00 +1.347695E+01 +3.665041E+02 
 +8.420490E+02 -1.056543E+00 +2.277315E+00 -1.056543E+00 +4.446486E+02 +1.198107E+01 +2.277315E+00 +1.198107E+01 +3.470949E+02 
 +8.384460E+02 +7.298068E+00 +5.066985E+00 +7.298068E+00 +4.528147E+02 +1.589846E+01 +5.066985E+00 +1.589846E+01 +3.431312E+02 
 +8.488074E+02 +5.160200E+00 -1.242889E+00 +5.160200E+00 +4.697322E+02 +1.459273E+01 -1.242889E+00 +1.459273E+01 +3.488160E+02 
 +8.555340E+02 +4.522944E+00 +1.616098E+00 +4.522944E+00 +4.913174E+02 +1.187234E+01 +1.616098E+00 +1.187234E+01 +3.603121E+02 
 +8.666688E+02 -1.638329E+00 +1.761258E+01 -1.638329E+00 +5.038032E+02 +1.746294E+01 +1.761258E+01 +1.746294E+01 +3.566313E+02 
 +8.901482E+02 -6.651191E+00 +1.453658E+01 -6.651191E+00 +5.222259E+02 +2.112938E+01 +1.453658E+01 +2.112938E+01 +3.539829E+02 
 +8.554140E+02 -9.466026E-01 +8.942241E+00 -9.466026E-01 +5.164129E+02 +1.343918E+01 +8.942241E+00 +1.343918E+01 +3.570176E+02 
 +8.435266E+02 +4.039383E+00 -1.087901E+00 +4.039383E+00 +5.091724E+02 +4.956973E+00 -1.087901E+00 +4.956973E+00 +3.726132E+02 
 +8.514767E+02 +7.747699E+00 -2.581469E+00 +7.747699E+00 +5.112610E+02 +2.469918E+00 -2.581469E+00 +2.469918E+00 +3.995417E+02 
 +8.416617E+02 +7.270710E+00 -5.572625E+00 +7.270710E+00 +4.979358E+02 +7.398947E+00 -5.572625E+00 +7.398947E+00 +3.889628E+02 
 +8.772791E+02 +1.522412E+01 +1.049451E+01 +1.522412E+01 +4.997310E+02 +8.988748E+00 +1.049451E+01 +8.988748E+00 +3.814106E+02 
 +8.597736E+02 +7.206401E+00 +1.847260E+01 +7.206401E+00 +4.787052E+02 -3.949749E+00 +1.847260E+01 -3.949749E+00 +3.799081E+02 
 +8.497011E+02 +1.252688E+00 +1.896465E+01 +1.252688E+00 +4.635283E+02 -1.150318E+01 +1.896465E+01 -1.150318E+01 +3.701065E+02 
 +8.436911E+02 -3.513237E+00 +1.230301E+01 -3.513237E+00 +4.464503E+02 -1.267532E+01 +1.230301E+01 -1.267532E+01 +3.484486E+02 
 +8.480637E+02 -3.882984E+00 +5.893828E+00 -3.882984E+00 +4.425299E+02 -1.349667E+01 +5.893828E+00 -1.349667E+01 +3.399659E+02 
 +8.414711E+02 -6.143249E+00 +8.040554E+00 -6.143249E+00 +4.381280E+02 -7.580107E+00 +8.040554E+00 -7.580107E+00 +3.403005E+02 
 +8.612036E+02 -3.099892E+00 -1.121996E+01 -3.099892E+00 +4.578575E+02 -1.080067E+00 -1.121996E+01 -1.080067E+00 +3.627292E+02 
 +8.469835E+02 -3.494168E+00 -3.861861E+00 -3.494168E+00 +4.387452E+02 +9.188856E+00 -3.861861E+00 +9.188856E+00 +3.675661E+02 
 +8.522271E+02 +1.459698E+00 +1.827772E-01 +1.459698E+00 +4.412630E+02 +1.327024E+01 +1.827772E-01 +1.327024E+01 +3.687197E+02 
 +8.588691E+02 +3.567177E+00 -7.661339E-01 +3.567177E+00 +4.503999E+02 +1.429450E+01 -7.661339E-01 +1.429450E+01 +3.689042E+02 
 +8.634740E+02 +2.847930E+00 -2.551206E+00 +2.847930E+00 +4.696393E+02 +2.130330E+01 -2.551206E+00 +2.130330E+01 +3.683066E+02 
 +8.548349E+02 +3.505475E+00 +2.065154E+00 +3.505475E+00 +4.848585E+02 +1.633174E+01 +2.065154E+00 +1.633174E+01 +3.622543E+02 
 +8.435681E+02 +9.421396E+00 +4.811912E+00 +9.421396E+00 +4.690474E+02 +1.677581E+01 +4.811912E+00 +1.677581E+01 +3.546895E+02 
 +8.440987E+02 +1.128949E+01 +4.988850E+00 +1.128949E+01 +4.648530E+02 +1.293829E+01 +4.988850E+00 +1.293829E+01 +3.581401E+02 
 +8.525247E+02 +6.629198E+00 +8.501848E+00 +6.629198E+00 +4.803637E+02 +1.433967E+01 +8.501848E+00 +1.433967E+01 +3.707589E+02 
 +8.734892E+02 -4.857036E+00 +8.598557E+00 -4.857036E+00 +4.979689E+02 +2.170865E+01 +8.598557E+00 +2.170865E+01 +3.725299E+02 
 +8.826620E+02 -7.325833E+00 -3.402638E-01 -7.325833E+00 +5.106689E+02 +2.524511E+01 -3.402638E-01 +2.524511E+01 +3.750810E+02 
 +8.569241E+02 -1.534750E+00 -2.928254E+00 -1.534750E+00 +5.004523E+02 +2.038247E+01 -2.928254E+00 +2.038247E+01 +3.674762E+02 
 +8.458431E+02 +1.194266E+00 +6.882828E+00 +1.194266E+00 +4.912611E+02 +6.891874E+00 +6.882828E+00 +6.891874E+00 +3.732383E+02 
 +8.435578E+02 +3.352231E+00 +2.334419E+00 +3.352231E+00 +4.835515E+02 +8.132421E+00 +2.334419E+00 +8.132421E+00 +4.042683E+02 
 +8.436981E+02 +6.315498E+00 -2.464064E+00 +6.315498E+00 +4.753780E+02 +2.144890E+01 -2.464064E+00 +2.144890E+01 +3.944587E+02 
 +8.608516E+02 +1.206479E+01 +7.426288E-01 +1.206479E+01 +4.778359E+02 +2.069792E+01 +7.426288E-01 +2.069792E+01 +3.722101E+02 
 +8.525412E+02 +5.000692E+00 +9.896152E+00 +5.000692E+00 +4.682929E+02 +4.985818E+00 +9.896152E+00 +4.985818E+00 +3.701263E+02 
 +8.428553E+02 -3.603084E-01 +2.199010E+01 -3.603084E-01 +4.576794E+02 -3.614660E+00 +2.199010E+01 -3.614660E+00 +3.665330E+02 
 +8.505906E+02 +1.935079E+00 +7.666316E+00 +1.935079E+00 +4.619281E+02 +1.880473E+00 +7.666316E+00 +1.880473E+00 +3.449830E+02 
 +8.580198E+02 +2.480928E+00 +1.122097E-01 +2.480928E+00 +4.682150E+02 +5.930099E+00 +1.122097E-01 +5.930099E+00 +3.253781E+02 
 +8.462234E+02 -4.464231E+00 +5.004125E+00 -4.464231E+00 +4.573389E+02 +2.770984E+00 +5.004125E+00 +2.770984E+00 +3.333043E+02 
 +8.491371E+02 -1.759632E+00 -1.138039E+01 -1.759632E+00 +4.577577E+02 +4.947565E+00 -1.138039E+01 +4.947565E+00 +3.485626E+02 
 +8.312276E+02 -3.129180E+00 -6.691423E-01 -3.129180E+00 +4.367094E+02 +6.929387E+00 -6.691423E-01 +6.929387E+00 +3.582256E+02 
 +8.370170E+02 -7.798232E-02 +9.882242E-01 -7.798232E-02 +4.361090E+02 +1.193683E+01 +9.882242E-01 +1.193683E+01 +3.602557E+02 
 +8.490044E+02 -1.721039E+00 +6.000420E-01 -1.721039E+00 +4.508480E+02 +1.975480E+01 +6.000420E-01 +1.975480E+01 +3.649602E+02 
 +8.630373E+02 -3.311878E+00 -2.779469E+00 -3.311878E+00 +4.666297E+02 +1.947768E+01 -2.779469E+00 +1.947768E+01 +3.667431E+02 
 +8.516409E+02 -2.678232E+00 -3.472429E+00 -2.678232E+00 +4.574426E+02 +1.593327E+01 -3.472429E+00 +1.593327E+01 +3.568928E+02 
 +8.322024E+02 +5.381898E+00 +7.885361E+00 +5.381898E+00 +4.545087E+02 +9.487769E+00 +7.885361E+00 +9.487769E+00 +3.518331E+02 
 +8.372802E+02 +1.176411E+01 +8.828546E+00 +1.176411E+01 +4.663271E+02 +7.493472E+00 +8.828546E+00 +7.493472E+00 +3.675820E+02 
 +8.543802E+02 +9.091876E+00 +1.480068E+01 +9.091876E+00 +4.797148E+02 +1.041381E+01 +1.480068E+01 +1.041381E+01 +3.843621E+02 
 +8.780144E+02 -5.782260E-01 +4.462605E+00 -5.782260E-01 +4.983683E+02 +2.247157E+01 +4.462605E+00 +2.247157E+01 +3.828706E+02 
 +8.790446E+02 -2.822131E+00 -5.973258E+00 -2.822131E+00 +5.071423E+02 +2.991720E+01 -5.973258E+00 +2.991720E+01 +3.776061E+02 
 +8.771267E+02 -6.492749E-01 -9.741519E+00 -6.492749E-01 +5.126507E+02 +3.467321E+01 -9.741519E+00 +3.467321E+01 +3.836144E+02 
 +8.572943E+02 -5.507588E+00 +2.001549E+00 -5.507588E+00 +4.992329E+02 +2.955330E+01 +2.001549E+00 +2.955330E+01 +3.927925E+02 
 +8.570028E+02 -3.044178E+00 +3.641879E+00 -3.044178E+00 +4.907741E+02 +2.037492E+01 +3.641879E+00 +2.037492E+01 +4.153885E+02 
 +8.507959E+02 +3.045494E-01 +1.047999E-01 +3.045494E-01 +4.752727E+02 +2.247479E+01 +1.047999E-01 +2.247479E+01 +4.067044E+02 
 +8.424572E+02 -3.205352E-01 +4.359723E-01 -3.205352E-01 +4.531793E+02 +2.518762E+01 +4.359723E-01 +2.518762E+01 +3.810949E+02 
 +8.422699E+02 -1.728759E+00 -2.624598E+00 -1.728759E+00 +4.426303E+02 +1.596268E+01 -2.624598E+00 +1.596268E+01 +3.523994E+02 
 +8.498993E+02 +2.232416E+00 +1.615234E+01 +2.232416E+00 +4.642194E+02 +5.908398E+00 +1.615234E+01 +5.908398E+00 +3.411075E+02 
 +8.649108E+02 +5.859345E+00 +6.715187E+00 +5.859345E+00 +4.919557E+02 +4.298625E+00 +6.715187E+00 +4.298625E+00 +3.293317E+02 
 +8.694339E+02 +5.136509E-01 -6.705901E+00 +5.136509E-01 +4.925704E+02 +1.000190E+01 -6.705901E+00 +1.000190E+01 +3.090137E+02 
 +8.584672E+02 -3.491335E+00 -6.917612E+00 -3.491335E+00 +4.771418E+02 +1.037496E+01 -6.917612E+00 +1.037496E+01 +3.181391E+02 
 +8.575880E+02 -1.595264E+01 -1.981678E+00 -1.595264E+01 +5.105351E+02 +3.976126E+00 -1.981678E+00 +3.976126E+00 +3.567296E+02 
 +8.535178E+02 -1.292060E+01 +3.269573E+00 -1.292060E+01 +5.122376E+02 +2.028664E+00 +3.269573E+00 +2.028664E+00 +3.773205E+02 
 +8.457733E+02 -1.433904E+01 +1.409465E+00 -1.433904E+01 +4.969722E+02 +6.363029E+00 +1.409465E+00 +6.363029E+00 +3.752369E+02 
 +8.641523E+02 -7.429332E+00 -1.370894E+00 -7.429332E+00 +4.810679E+02 +1.610017E+01 -1.370894E+00 +1.610017E+01 +3.767777E+02 
 +8.580019E+02 -6.657257E+00 -8.957038E-01 -6.657257E+00 +4.524764E+02 +1.632781E+01 -8.957038E-01 +1.632781E+01 +3.631210E+02 
 +8.590827E+02 -3.173635E+00 -4.076940E+00 -3.173635E+00 +4.492669E+02 +1.151920E+01 -4.076940E+00 +1.151920E+01 +3.582959E+02 
 +8.290644E+02 +4.508439E+00 +1.509390E+01 +4.508439E+00 +4.500409E+02 +6.701259E+00 +1.509390E+01 +6.701259E+00 +3.484499E+02 
 +8.340994E+02 +7.657361E+00 +1.298078E+01 +7.657361E+00 +4.645733E+02 +4.995674E+00 +1.298078E+01 +4.995674E+00 +3.639919E+02 
 +8.560071E+02 +7.484032E+00 +1.736842E+01 +7.484032E+00 +4.791191E+02 +7.189142E+00 +1.736842E+01 +7.189142E+00 +3.855442E+02 
 +8.773873E+02 +6.562072E-01 +3.553363E+00 +6.562072E-01 +4.923254E+02 +1.930530E+01 +3.553363E+00 +1.930530E+01 +3.793511E+02 
 +8.733887E+02 -2.348378E-02 -4.538897E+00 -2.348378E-02 +4.945256E+02 +2.343398E+01 -4.538897E+00 +2.343398E+01 +3.577533E+02 
 +8.717951E+02 +1.361588E+00 -9.518021E+00 +1.361588E+00 +4.995378E+02 +2.391867E+01 -9.518021E+00 +2.391867E+01 +3.644046E+02 
 +8.601959E+02 -4.904589E+00 -2.344554E+00 -4.904589E+00 +4.952576E+02 +2.624631E+01 -2.344554E+00 +2.624631E+01 +3.834105E+02 
 +8.579728E+02 -3.790877E+00 +3.033165E+00 -3.790877E+00 +4.906499E+02 +2.606311E+01 +3.033165E+00 +2.606311E+01 +3.994994E+02 
 +8.503534E+02 +4.850756E-01 +5.170225E+00 +4.850756E-01 +4.749637E+02 +2.346722E+01 +5.170225E+00 +2.346722E+01 +3.909735E+02 
 +8.298244E+02 +3.493166E+00 +1.199479E+00 +3.493166E+00 +4.544114E+02 +5.644311E+00 +1.199479E+00 +5.644311E+00 +3.660067E+02 
 +8.494309E+02 +7.819651E-01 -6.341751E+00 +7.819651E-01 +4.585589E+02 -1.444157E+01 -6.341751E+00 -1.444157E+01 +3.520498E+02 
 +8.530295E+02 +4.746096E+00 +7.765220E+00 +4.746096E+00 +4.682204E+02 -2.486927E+01 +7.765220E+00 -2.486927E+01 +3.473475E+02 
 +8.942271E+02 +3.576807E+00 +3.514667E+00 +3.576807E+00 +5.124258E+02 -1.743949E+01 +3.514667E+00 -1.743949E+01 +3.587128E+02 
 +8.965391E+02 -2.838157E+00 -8.519393E+00 -2.838157E+00 +5.172773E+02 +1.957417E+00 -8.519393E+00 +1.957417E+00 +3.351833E+02 
 +8.873611E+02 -9.190123E+00 -8.502563E+00 -9.190123E+00 +5.158572E+02 +1.001005E+01 -8.502563E+00 +1.001005E+01 +3.324491E+02 
 +8.544081E+02 -2.188840E+01 +8.088807E+00 -2.188840E+01 +5.105106E+02 +4.624952E+00 +8.088807E+00 +4.624952E+00 +3.783409E+02 
 +8.628477E+02 -1.418444E+01 -6.810197E-02 -1.418444E+01 +5.340081E+02 +3.315370E+00 -6.810197E-02 +3.315370E+00 +4.002417E+02 
 +8.502975E+02 -1.499887E+01 -6.721141E+00 -1.499887E+01 +5.122881E+02 +2.826042E+00 -6.721141E+00 +2.826042E+00 +3.867903E+02 
 +8.729592E+02 -4.731762E+00 -9.752649E+00 -4.731762E+00 +4.926061E+02 +9.903549E+00 -9.752649E+00 +9.903549E+00 +3.785293E+02 
 +8.674136E+02 -4.532623E+00 -2.612390E+00 -4.532623E+00 +4.712232E+02 +1.270174E+01 -2.612390E+00 +1.270174E+01 +3.678068E+02 
 +8.564733E+02 +2.057390E+00 +6.468199E+00 +2.057390E+00 +4.651145E+02 +1.097924E+01 +6.468199E+00 +1.097924E+01 +3.603928E+02 
 +8.366600E+02 +7.895208E+00 +1.952857E+01 +7.895208E+00 +4.618738E+02 +7.281765E+00 +1.952857E+01 +7.281765E+00 +3.483128E+02 
 +8.356629E+02 +4.019332E+00 +1.535840E+01 +4.019332E+00 +4.648069E+02 +4.209820E+00 +1.535840E+01 +4.209820E+00 +3.600610E+02 
 +8.523299E+02 +4.843828E+00 +1.641830E+01 +4.843828E+00 +4.716262E+02 +4.902664E+00 +1.641830E+01 +4.902664E+00 +3.803343E+02 
 +8.735696E+02 -6.396046E-01 +1.729429E+00 -6.396046E-01 +4.812552E+02 +2.031509E+01 +1.729429E+00 +2.031509E+01 +3.733391E+02 
 +8.738178E+02 -1.842605E+00 -4.748147E+00 -1.842605E+00 +4.809322E+02 +3.166742E+01 -4.748147E+00 +3.166742E+01 +3.522766E+02 
 +8.789716E+02 +5.188089E-01 -6.967223E+00 +5.188089E-01 +4.922424E+02 +2.853230E+01 -6.967223E+00 +2.853230E+01 +3.633680E+02 
 +8.739172E+02 -5.219101E+00 +4.664065E-01 -5.219101E+00 +5.015959E+02 +2.593286E+01 +4.664065E-01 +2.593286E+01 +3.779787E+02 
 +8.499553E+02 -6.952551E+00 +5.505521E+00 -6.952551E+00 +4.844075E+02 +2.820013E+01 +5.505521E+00 +2.820013E+01 +3.682628E+02 
 +8.524460E+02 -1.869194E+00 +5.317524E+00 -1.869194E+00 +4.795744E+02 +1.563778E+01 +5.317524E+00 +1.563778E+01 +3.691528E+02 
 +8.528293E+02 +7.490687E+00 -2.881212E-01 +7.490687E+00 +4.862095E+02 +1.288245E+00 -2.881212E-01 +1.288245E+00 +3.743234E+02 
 +8.746572E+02 +1.286322E+01 -2.743742E+00 +1.286322E+01 +5.162170E+02 -1.211671E+00 -2.743742E+00 -1.211671E+00 +3.882565E+02 
 +8.592639E+02 +1.249004E+01 -2.467990E+00 +1.249004E+01 +5.115065E+02 -5.711045E+00 -2.467990E+00 -5.711045E+00 +3.859348E+02 
 +9.122506E+02 +1.194506E+00 -8.484254E-01 +1.194506E+00 +5.234210E+02 -2.804001E+00 -8.484254E-01 -2.804001E+00 +3.998612E+02 
 +9.014778E+02 -1.918520E+01 -2.517569E+00 -1.918520E+01 +5.057520E+02 +9.414062E+00 -2.517569E+00 +9.414062E+00 +3.708286E+02 
 +8.886208E+02 -2.184857E+01 -6.280959E+00 -2.184857E+01 +5.036054E+02 +1.157793E+01 -6.280959E+00 +1.157793E+01 +3.607025E+02 
 +8.654313E+02 -1.485270E+01 +2.745561E+00 -1.485270E+01 +5.123590E+02 +3.734348E+00 +2.745561E+00 +3.734348E+00 +3.860294E+02 
 +8.749266E+02 -1.258730E+01 -6.060085E+00 -1.258730E+01 +5.300892E+02 -2.929221E+00 -6.060085E+00 -2.929221E+00 +3.910334E+02 
 +8.843534E+02 -9.035331E+00 -1.085361E+01 -9.035331E+00 +5.394344E+02 -5.814335E+00 -1.085361E+01 -5.814335E+00 +3.864437E+02 
 +8.751754E+02 -7.162673E+00 -9.014710E+00 -7.162673E+00 +5.242366E+02 -3.518596E+00 -9.014710E+00 -3.518596E+00 +3.749697E+02 
 +8.731735E+02 -3.164257E-01 -3.559181E+00 -3.164257E-01 +4.977482E+02 +8.201507E+00 -3.559181E+00 +8.201507E+00 +3.603456E+02 
 +8.545061E+02 +1.535385E+01 +1.503275E+01 +1.535385E+01 +4.917014E+02 +8.055935E+00 +1.503275E+01 +8.055935E+00 +3.495187E+02 
 +8.404909E+02 +1.434840E+01 +1.568199E+01 +1.434840E+01 +4.807883E+02 +7.676245E+00 +1.568199E+01 +7.676245E+00 +3.484872E+02 
 +8.293536E+02 +7.776946E+00 +1.502204E+01 +7.776946E+00 +4.630602E+02 +6.159100E+00 +1.502204E+01 +6.159100E+00 +3.547655E+02 
 +8.304599E+02 +1.573764E+00 +1.313363E+01 +1.573764E+00 +4.564702E+02 +1.427599E+01 +1.313363E+01 +1.427599E+01 +3.552307E+02 
 +8.644743E+02 -3.427434E+00 +2.263398E+00 -3.427434E+00 +4.655817E+02 +2.832159E+01 +2.263398E+00 +2.832159E+01 +3.555403E+02 
 +8.849137E+02 -2.263928E+00 -5.126843E+00 -2.263928E+00 +4.817781E+02 +2.758952E+01 -5.126843E+00 +2.758952E+01 +3.624697E+02 
 +8.854468E+02 -1.863001E+00 +1.445753E+00 -1.863001E+00 +4.895903E+02 +2.691618E+01 +1.445753E+00 +2.691618E+01 +3.610599E+02 
 +8.861247E+02 -8.247712E+00 +6.581159E+00 -8.247712E+00 +4.990257E+02 +3.343735E+01 +6.581159E+00 +3.343735E+01 +3.672233E+02 
 +8.817356E+02 -8.554091E+00 -1.321615E+00 -8.554091E+00 +5.115366E+02 +2.985873E+01 -1.321615E+00 +2.985873E+01 +3.793590E+02 
 +8.561755E+02 -2.978372E+00 -5.809348E+00 -2.978372E+00 +5.034042E+02 +1.256277E+01 -5.809348E+00 +1.256277E+01 +3.903638E+02 
 +8.732207E+02 -2.025534E+00 +1.046289E+00 -2.025534E+00 +5.041780E+02 -7.891451E+00 +1.046289E+00 -7.891451E+00 +4.055049E+02 
 +8.615333E+02 +7.707730E+00 -3.693693E+00 +7.707730E+00 +5.071920E+02 -1.454654E+01 -3.693693E+00 -1.454654E+01 +3.925759E+02 
 +8.883619E+02 +7.183178E+00 -9.372336E+00 +7.183178E+00 +5.386527E+02 -7.339495E+00 -9.372336E+00 -7.339495E+00 +4.101440E+02 
 +9.019632E+02 +8.544389E+00 +1.163878E+00 +8.544389E+00 +5.392215E+02 +2.448282E+00 +1.163878E+00 +2.448282E+00 +4.197577E+02 
 +9.155235E+02 -9.904479E+00 +3.761748E+00 -9.904479E+00 +5.335149E+02 +4.187470E+00 +3.761748E+00 +4.187470E+00 +4.129695E+02 
 +8.814154E+02 -1.664612E+01 -2.801245E+00 -1.664612E+01 +5.057783E+02 +6.607738E+00 -2.801245E+00 +6.607738E+00 +3.850377E+02 
 +8.789277E+02 -3.186124E+00 -4.231705E+00 -3.186124E+00 +5.260203E+02 -1.108299E+01 -4.231705E+00 -1.108299E+01 +3.611192E+02 
 +8.766620E+02 -7.026322E+00 -1.096449E+01 -7.026322E+00 +5.198644E+02 -1.704803E+01 -1.096449E+01 -1.704803E+01 +3.331980E+02 
 +8.863723E+02 -6.857737E+00 -7.622276E+00 -6.857737E+00 +5.319697E+02 -1.883752E+01 -7.622276E+00 -1.883752E+01 +3.358347E+02 
 +8.746419E+02 -1.181210E+01 -3.560909E+00 -1.181210E+01 +5.370460E+02 -1.586660E+01 -3.560909E+00 -1.586660E+01 +3.531584E+02 
 +8.763206E+02 -3.160818E+00 +2.004735E+00 -3.160818E+00 +5.352369E+02 -6.834409E+00 +2.004735E+00 -6.834409E+00 +3.560942E+02 
 +8.599319E+02 +1.601314E+01 +1.982191E+01 +1.601314E+01 +5.131106E+02 -2.349184E+00 +1.982191E+01 -2.349184E+00 +3.496463E+02 
 +8.433046E+02 +9.674840E+00 +1.350369E+01 +9.674840E+00 +5.048614E+02 -1.934486E+00 +1.350369E+01 -1.934486E+00 +3.628533E+02 
 +8.478082E+02 +6.599189E+00 +1.433145E+01 +6.599189E+00 +5.078852E+02 -2.833263E+00 +1.433145E+01 -2.833263E+00 +3.775421E+02 
 +8.345871E+02 +8.935324E-01 +1.347696E+01 +8.935324E-01 +4.872401E+02 +4.621513E+00 +1.347696E+01 +4.621513E+00 +3.612409E+02 
 +8.540248E+02 -5.482385E+00 +9.066217E+00 -5.482385E+00 +4.741601E+02 +1.918639E+01 +9.066217E+00 +1.918639E+01 +3.394355E+02 
 +8.876992E+02 -3.378297E+00 +1.054297E+00 -3.378297E+00 +4.848888E+02 +2.956355E+01 +1.054297E+00 +2.956355E+01 +3.435048E+02 
 +8.947362E+02 -6.050031E+00 -7.279346E-01 -6.050031E+00 +4.910665E+02 +1.904697E+01 -7.279346E-01 +1.904697E+01 +3.588668E+02 
 +8.898251E+02 -1.210842E+01 +2.381806E+00 -1.210842E+01 +4.817279E+02 -1.179066E+01 +2.381806E+00 -1.179066E+01 +3.788347E+02 
 +8.932658E+02 -1.126426E+01 +3.230955E+00 -1.126426E+01 +4.952771E+02 -2.071585E+01 +3.230955E+00 -2.071585E+01 +3.929443E+02 
 +8.516164E+02 -9.013082E+00 -4.626778E+00 -9.013082E+00 +4.930118E+02 -5.704023E+00 -4.626778E+00 -5.704023E+00 +3.798045E+02 
 +8.629121E+02 +4.401314E-01 -5.844498E+00 +4.401314E-01 +5.160109E+02 -4.385944E+00 -5.844498E+00 -4.385944E+00 +3.931523E+02 
 +8.503336E+02 +7.124660E+00 -6.739933E+00 +7.124660E+00 +4.939283E+02 -4.299028E+00 -6.739933E+00 -4.299028E+00 +3.930801E+02 
 +8.774912E+02 -5.641756E+00 -8.365066E-01 -5.641756E+00 +4.656706E+02 +3.780405E+00 -8.365066E-01 +3.780405E+00 +4.109988E+02 
 +8.530652E+02 +1.270284E+00 +5.980000E+00 +1.270284E+00 +4.351387E+02 +9.844095E+00 +5.980000E+00 +9.844095E+00 +4.069831E+02 
 +8.851795E+02 +1.568974E+00 +2.025058E+00 +1.568974E+00 +4.863840E+02 +1.635854E+00 +2.025058E+00 +1.635854E+00 +4.247537E+02 
 +8.593693E+02 -7.066124E+00 +2.113775E+00 -7.066124E+00 +5.122953E+02 -6.775418E+00 +2.113775E+00 -6.775418E+00 +3.925211E+02 
 +8.724457E+02 +1.203706E+00 -6.989627E+00 +1.203706E+00 +5.180836E+02 -5.857764E+00 -6.989627E+00 -5.857764E+00 +3.477145E+02 
 +8.757502E+02 -8.507652E+00 -1.320909E+01 -8.507652E+00 +5.231380E+02 -1.361411E+01 -1.320909E+01 -1.361411E+01 +3.126634E+02 
 +8.854342E+02 -1.246380E+01 -8.073580E+00 -1.246380E+01 +5.284167E+02 -1.832509E+01 -8.073580E+00 -1.832509E+01 +3.068658E+02 
 +8.896830E+02 -1.229710E+01 -4.907991E+00 -1.229710E+01 +5.346021E+02 -1.956825E+01 -4.907991E+00 -1.956825E+01 +3.273262E+02 
 +8.459687E+02 -3.057347E+00 +8.737758E+00 -3.057347E+00 +5.244955E+02 -1.431003E+01 +8.737758E+00 -1.431003E+01 +3.437412E+02 
 +8.561926E+02 +7.757215E+00 +1.899376E+01 +7.757215E+00 +5.315508E+02 -7.310669E+00 +1.899376E+01 -7.310669E+00 +3.660853E+02 
 +8.528461E+02 +5.800241E+00 +1.446892E+01 +5.800241E+00 +5.193740E+02 -3.624499E+00 +1.446892E+01 -3.624499E+00 +3.753179E+02 
 +8.512568E+02 +6.228610E+00 +1.203614E+01 +6.228610E+00 +5.150713E+02 -3.500269E+00 +1.203614E+01 -3.500269E+00 +3.831799E+02 
 +8.515560E+02 +2.664639E+00 +9.842802E+00 +2.664639E+00 +5.140184E+02 -5.836554E+00 +9.842802E+00 -5.836554E+00 +3.832929E+02 
 +8.555374E+02 -2.043522E+00 +1.226669E+01 -2.043522E+00 +5.129364E+02 -1.106719E+01 +1.226669E+01 -1.106719E+01 +3.592236E+02 
 +9.055096E+02 +7.549681E-02 -2.782881E-02 +7.549681E-02 +5.138940E+02 -2.523320E+01 -2.782881E-02 -2.523320E+01 +3.508889E+02 
 +8.914202E+02 -6.096690E+00 -8.404356E+00 -6.096690E+00 +4.726786E+02 -3.833498E+01 -8.404356E+00 -3.833498E+01 +3.613125E+02 
 +8.803695E+02 -1.012048E+01 +2.000149E+00 -1.012048E+01 +4.681675E+02 -3.055775E+01 +2.000149E+00 -3.055775E+01 +3.863776E+02 
 +8.819783E+02 -8.754836E+00 +1.549630E+01 -8.754836E+00 +4.863813E+02 -2.449703E+01 +1.549630E+01 -2.449703E+01 +3.839158E+02 
 +8.669441E+02 -1.511621E+01 +8.598387E+00 -1.511621E+01 +4.932336E+02 -2.737870E+01 +8.598387E+00 -2.737870E+01 +3.644385E+02 
 +8.350602E+02 -9.689907E+00 -3.949675E+00 -9.689907E+00 +4.686665E+02 -2.135878E+01 -3.949675E+00 -2.135878E+01 +3.530448E+02 
 +8.357980E+02 -3.304304E+00 -4.622474E+00 -3.304304E+00 +4.382158E+02 -6.280714E+00 -4.622474E+00 -6.280714E+00 +3.731090E+02 
 +8.584647E+02 -1.671837E+00 +5.445740E+00 -1.671837E+00 +4.420787E+02 +4.839638E+00 +5.445740E+00 +4.839638E+00 +4.041413E+02 
 +8.654425E+02 +6.805314E-01 +7.343049E+00 +6.805314E-01 +4.531594E+02 +7.484094E+00 +7.343049E+00 +7.484094E+00 +4.140510E+02 
 +8.629772E+02 +4.458637E+00 -1.113923E+00 +4.458637E+00 +4.650944E+02 +8.691244E+00 -1.113923E+00 +8.691244E+00 +4.209539E+02 
 +8.602258E+02 +3.458748E+00 -4.538139E+00 +3.458748E+00 +4.927911E+02 +3.705736E+00 -4.538139E+00 +3.705736E+00 +3.996357E+02 
 +8.857085E+02 -6.885251E-01 -3.248115E+00 -6.885251E-01 +5.257568E+02 -4.154205E+00 -3.248115E+00 -4.154205E+00 +3.669852E+02 
 +8.833977E+02 -1.161570E+01 -4.441253E+00 -1.161570E+01 +5.316555E+02 -1.470386E+01 -4.441253E+00 -1.470386E+01 +3.344909E+02 
 +8.839378E+02 -1.624099E+01 -3.255151E+00 -1.624099E+01 +5.202848E+02 -1.890473E+01 -3.255151E+00 -1.890473E+01 +3.119935E+02 
 +8.935292E+02 -2.335225E+01 +8.448481E-01 -2.335225E+01 +5.312922E+02 -1.857174E+01 +8.448481E-01 -1.857174E+01 +3.268281E+02 
 +8.382850E+02 -1.504484E+01 +1.189085E+01 -1.504484E+01 +5.190965E+02 -1.181302E+01 +1.189085E+01 -1.181302E+01 +3.442983E+02 
 +8.482574E+02 -6.651453E-01 +1.443054E+01 -6.651453E-01 +5.248221E+02 -1.775176E+00 +1.443054E+01 -1.775176E+00 +3.678733E+02 
 +8.523981E+02 +5.180369E+00 +8.924841E+00 +5.180369E+00 +5.175237E+02 +2.250973E+00 +8.924841E+00 +2.250973E+00 +3.755338E+02 
 +8.571654E+02 +3.261431E+00 +4.921262E+00 +3.261431E+00 +5.173013E+02 -2.925377E+00 +4.921262E+00 -2.925377E+00 +3.823582E+02 
 +8.593856E+02 +3.520184E+00 +4.346546E+00 +3.520184E+00 +5.183826E+02 -6.760830E+00 +4.346546E+00 -6.760830E+00 +3.826145E+02 
 +8.690183E+02 +5.791645E+00 +6.510686E+00 +5.791645E+00 +5.197122E+02 -1.504803E+01 +6.510686E+00 -1.504803E+01 +3.733557E+02 
 +9.227584E+02 +5.735675E+00 -5.100164E+00 +5.735675E+00 +5.399994E+02 -2.158331E+01 -5.100164E+00 -2.158331E+01 +3.764209E+02 
 +9.197731E+02 +1.932928E+00 -1.768186E+00 +1.932928E+00 +5.447869E+02 -1.314958E+01 -1.768186E+00 -1.314958E+01 +3.886527E+02 
 +9.142497E+02 +2.150792E+00 +6.685135E+00 +2.150792E+00 +5.521730E+02 -5.040435E+00 +6.685135E+00 -5.040435E+00 +3.991587E+02 
 +8.912383E+02 +1.272897E+00 +1.121587E+01 +1.272897E+00 +5.247784E+02 -1.332517E+01 +1.121587E+01 -1.332517E+01 +3.795206E+02 
 +8.809972E+02 +8.788785E-02 +4.940565E+00 +8.788785E-02 +5.014187E+02 -3.667685E+01 +4.940565E+00 -3.667685E+01 +3.740393E+02 
 +8.639451E+02 -7.621561E+00 +8.339652E+00 -7.621561E+00 +4.759196E+02 -3.813558E+01 +8.339652E+00 -3.813558E+01 +3.722197E+02 
 +8.432767E+02 -1.008058E+01 +7.864933E+00 -1.008058E+01 +4.415681E+02 -1.909223E+01 +7.864933E+00 -1.909223E+01 +3.726533E+02 
 +8.407986E+02 -5.092038E+00 +5.297613E+00 -5.092038E+00 +4.377405E+02 -1.504992E+00 +5.297613E+00 -1.504992E+00 +3.881260E+02 
 +8.459738E+02 -1.654003E+00 +6.848141E+00 -1.654003E+00 +4.539647E+02 +3.614684E+00 +6.848141E+00 +3.614684E+00 +3.951894E+02 
 +8.452799E+02 +6.969895E+00 +2.542230E+00 +6.969895E+00 +4.618651E+02 +1.028680E+01 +2.542230E+00 +1.028680E+01 +3.977121E+02 
 +8.731221E+02 +7.002312E+00 -5.887816E+00 +7.002312E+00 +4.919269E+02 +9.482344E+00 -5.887816E+00 +9.482344E+00 +3.974979E+02 
 +8.779055E+02 +5.776718E+00 +1.387706E+00 +5.776718E+00 +4.954590E+02 -1.466894E+01 +1.387706E+00 -1.466894E+01 +3.702446E+02 
 +8.644121E+02 -1.128670E+01 +7.949649E+00 -1.128670E+01 +4.890208E+02 -2.722311E+01 +7.949649E+00 -2.722311E+01 +3.445720E+02 
 +8.775591E+02 -2.351179E+01 +7.516080E+00 -2.351179E+01 +5.103667E+02 -2.581847E+01 +7.516080E+00 -2.581847E+01 +3.389111E+02 
 +8.630747E+02 -2.739038E+01 +4.433031E+00 -2.739038E+01 +5.036648E+02 -2.280861E+01 +4.433031E+00 -2.280861E+01 +3.371900E+02 
 +8.547131E+02 -1.500670E+01 +6.451399E+00 -1.500670E+01 +5.054794E+02 -2.009577E+01 +6.451399E+00 -2.009577E+01 +3.460836E+02 
 +8.704387E+02 -9.259706E-01 +1.345127E+01 -9.259706E-01 +5.168512E+02 -1.707138E+01 +1.345127E+01 -1.707138E+01 +3.685463E+02 
 +8.448896E+02 +1.487257E+01 +2.997029E+00 +1.487257E+01 +4.941852E+02 -1.349556E+01 +2.997029E+00 -1.349556E+01 +3.676535E+02 
 +8.424502E+02 +1.903963E+01 -1.783808E+00 +1.903963E+01 +4.882415E+02 -1.670553E+01 -1.783808E+00 -1.670553E+01 +3.734848E+02 
 +8.587269E+02 +1.951700E+01 +1.875216E+00 +1.951700E+01 +5.042995E+02 -2.257036E+01 +1.875216E+00 -2.257036E+01 +3.808622E+02 
 +8.926408E+02 +1.474492E+01 +1.273979E+00 +1.474492E+01 +5.311592E+02 -2.392563E+01 +1.273979E+00 -2.392563E+01 +3.793878E+02 
 +9.091870E+02 +6.633468E+00 -4.124571E+00 +6.633468E+00 +5.466472E+02 -1.829380E+01 -4.124571E+00 -1.829380E+01 +3.730638E+02 
 +9.022581E+02 +2.726314E+00 -2.555635E+00 +2.726314E+00 +5.432413E+02 -1.766633E+01 -2.555635E+00 -1.766633E+01 +3.633710E+02 
 +8.941335E+02 +5.316890E+00 -1.651982E-01 +5.316890E+00 +5.307103E+02 -1.659465E+01 -1.651982E-01 -1.659465E+01 +3.507395E+02 
 +8.933105E+02 +6.111830E+00 +7.445663E+00 +6.111830E+00 +5.288669E+02 -9.802999E+00 +7.445663E+00 -9.802999E+00 +3.515445E+02 
 +8.927182E+02 +5.579837E+00 +9.260614E+00 +5.579837E+00 +5.123078E+02 -1.821715E+00 +9.260614E+00 -1.821715E+00 +3.503140E+02 
 +8.734423E+02 -1.323826E+00 +1.303206E+01 -1.323826E+00 +4.870698E+02 -1.506762E+00 +1.303206E+01 -1.506762E+00 +3.526998E+02 
 +8.622416E+02 -2.468103E+00 +7.781189E+00 -2.468103E+00 +5.036244E+02 -1.234315E+01 +7.781189E+00 -1.234315E+01 +3.899854E+02 
 +8.808917E+02 +6.466424E+00 +6.334051E+00 +6.466424E+00 +5.299746E+02 -1.952209E+01 +6.334051E+00 -1.952209E+01 +4.282533E+02 
 +8.760457E+02 +1.209630E+01 +6.992047E+00 +1.209630E+01 +5.290700E+02 -1.233602E+01 +6.992047E+00 -1.233602E+01 +4.264514E+02 
 +8.819301E+02 +1.840836E+01 +7.054167E+00 +1.840836E+01 +5.373549E+02 +4.536984E+00 +7.054167E+00 +4.536984E+00 +4.204123E+02 
 +8.738207E+02 +2.051939E+01 +1.784346E+00 +2.051939E+01 +5.202988E+02 +8.102041E+00 +1.784346E+00 +8.102041E+00 +3.952885E+02 
 +8.809450E+02 +1.262545E+01 +4.280683E+00 +1.262545E+01 +5.219831E+02 +7.012780E+00 +4.280683E+00 +7.012780E+00 +3.850210E+02 
 +8.718413E+02 +3.075343E+00 +1.089384E+01 +3.075343E+00 +5.198585E+02 -3.256454E+00 +1.089384E+01 -3.256454E+00 +3.714750E+02 
 +8.801520E+02 -2.036240E+01 +1.104036E+01 -2.036240E+01 +5.206247E+02 -1.363479E+01 +1.104036E+01 -1.363479E+01 +3.689569E+02 
 +8.652180E+02 -1.549336E+01 +3.164873E+00 -1.549336E+01 +5.095914E+02 -1.387416E+01 +3.164873E+00 -1.387416E+01 +3.566393E+02 
 +8.731419E+02 -6.762622E+00 -2.434471E+00 -6.762622E+00 +5.125224E+02 -1.412611E+01 -2.434471E+00 -1.412611E+01 +3.456324E+02 
 +8.851213E+02 -5.470187E+00 +9.528083E+00 -5.470187E+00 +5.217382E+02 -1.868146E+01 +9.528083E+00 -1.868146E+01 +3.587836E+02 
 +8.838992E+02 -1.538224E+00 +4.680548E+00 -1.538224E+00 +5.209777E+02 -1.588338E+01 +4.680548E+00 -1.588338E+01 +3.786877E+02 
 +8.598427E+02 +1.285285E+01 -2.368238E+00 +1.285285E+01 +5.013605E+02 -1.438780E+01 -2.368238E+00 -1.438780E+01 +3.840985E+02 
 +8.673585E+02 +2.165888E+01 -3.542388E+00 +2.165888E+01 +5.135553E+02 -1.515817E+01 -3.542388E+00 -1.515817E+01 +3.922434E+02 
 +8.979146E+02 +1.348658E+01 -2.651754E+00 +1.348658E+01 +5.440850E+02 -1.150308E+01 -2.651754E+00 -1.150308E+01 +3.868624E+02 
 +8.991850E+02 +5.206492E+00 -4.505966E+00 +5.206492E+00 +5.525298E+02 -9.597818E+00 -4.505966E+00 -9.597818E+00 +3.704111E+02 
 +9.019795E+02 +3.543335E+00 -6.256611E+00 +3.543335E+00 +5.516299E+02 -9.729047E+00 -6.256611E+00 -9.729047E+00 +3.564710E+02 
 +8.987931E+02 +3.167969E+00 -3.529900E+00 +3.167969E+00 +5.396340E+02 -7.636025E+00 -3.529900E+00 -7.636025E+00 +3.385272E+02 
 +8.924653E+02 +1.695256E+00 +4.925166E+00 +1.695256E+00 +5.186628E+02 -8.259436E+00 +4.925166E+00 -8.259436E+00 +3.285320E+02 
 +8.999831E+02 -5.467219E+00 +1.710227E+01 -5.467219E+00 +5.150415E+02 -1.071244E+01 +1.710227E+01 -1.071244E+01 +3.333819E+02 
 +8.837452E+02 -5.701887E+00 +1.536012E+01 -5.701887E+00 +5.186173E+02 -6.023191E+00 +1.536012E+01 -6.023191E+00 +3.496144E+02 
 +8.794241E+02 +3.414620E-01 +9.037419E-02 +3.414620E-01 +5.256888E+02 +1.343093E+00 +9.037419E-02 +1.343093E+00 +3.824079E+02 
 +8.561238E+02 +9.291554E+00 +6.326878E+00 +9.291554E+00 +5.205872E+02 +2.347413E+00 +6.326878E+00 +2.347413E+00 +4.052366E+02 
 +8.664699E+02 +1.439681E+01 +9.992030E+00 +1.439681E+01 +5.303883E+02 +4.969850E+00 +9.992030E+00 +4.969850E+00 +4.270402E+02 
 +8.802899E+02 +2.224893E+01 +1.146990E+01 +2.224893E+01 +5.314786E+02 +1.432276E+01 +1.146990E+01 +1.432276E+01 +4.260286E+02 
 +8.689909E+02 +2.315251E+01 +5.660818E+00 +2.315251E+01 +5.181199E+02 +1.548390E+01 +5.660818E+00 +1.548390E+01 +3.980308E+02 
 +8.681119E+02 +1.103949E+01 +4.416385E+00 +1.103949E+01 +5.160681E+02 +4.098951E+00 +4.416385E+00 +4.098951E+00 +3.816247E+02 
 +8.563035E+02 +5.471856E+00 +8.434588E+00 +5.471856E+00 +5.091558E+02 -4.879060E+00 +8.434588E+00 -4.879060E+00 +3.716748E+02 
 +8.790773E+02 -1.586938E+01 +1.075860E+01 -1.586938E+01 +5.206255E+02 -1.107298E+01 +1.075860E+01 -1.107298E+01 +3.816286E+02 
 +8.718695E+02 -8.125618E+00 +4.672568E+00 -8.125618E+00 +5.174535E+02 -9.601833E+00 +4.672568E+00 -9.601833E+00 +3.722148E+02 
 +8.765343E+02 -4.581647E+00 -4.518004E+00 -4.581647E+00 +5.207618E+02 -8.633260E+00 -4.518004E+00 -8.633260E+00 +3.529698E+02 
 +8.805713E+02 -1.629484E+00 +5.443241E+00 -1.629484E+00 +5.206723E+02 -9.843648E+00 +5.443241E+00 -9.843648E+00 +3.525304E+02 
 +8.976433E+02 -4.249180E+00 +6.084067E+00 -4.249180E+00 +5.310671E+02 -1.531252E+01 +6.084067E+00 -1.531252E+01 +3.791113E+02 
 +8.844224E+02 +1.946345E+00 +3.150495E+00 +1.946345E+00 +5.307501E+02 -2.328418E+01 +3.150495E+00 -2.328418E+01 +3.962732E+02 
 +8.836570E+02 +1.091526E+01 +3.591917E+00 +1.091526E+01 +5.335910E+02 -1.722715E+01 +3.591917E+00 -1.722715E+01 +4.000387E+02 
 +8.933688E+02 +7.653822E+00 +4.450369E+00 +7.653822E+00 +5.339528E+02 -4.147852E+00 +4.450369E+00 -4.147852E+00 +3.837657E+02 
 +9.006435E+02 +4.742804E+00 -2.787085E+00 +4.742804E+00 +5.367207E+02 -4.670392E-01 -2.787085E+00 -4.670392E-01 +3.735556E+02 
 +9.092223E+02 +6.014023E+00 -7.657626E+00 +6.014023E+00 +5.499884E+02 -3.788637E+00 -7.657626E+00 -3.788637E+00 +3.781071E+02 
 +9.034614E+02 +2.124097E+00 -7.507998E+00 +2.124097E+00 +5.445260E+02 -6.101204E+00 -7.507998E+00 -6.101204E+00 +3.691526E+02 
 +8.945639E+02 -5.487398E+00 +1.789843E+00 -5.487398E+00 +5.250456E+02 -6.490010E+00 +1.789843E+00 -6.490010E+00 +3.505490E+02 
 +8.929536E+02 -1.382626E+01 +1.096126E+01 -1.382626E+01 +5.175150E+02 -6.046180E+00 +1.096126E+01 -6.046180E+00 +3.459459E+02 
 +8.859994E+02 -1.435544E+01 +9.225515E+00 -1.435544E+01 +5.147537E+02 -7.149916E+00 +9.225515E+00 -7.149916E+00 +3.394442E+02 
 +8.951989E+02 -7.634716E+00 +3.126257E+00 -7.634716E+00 +5.299454E+02 -6.256419E-01 +3.126257E+00 -6.256419E-01 +3.440203E+02 
 +8.423601E+02 +9.106048E+00 +5.226959E+00 +9.106048E+00 +5.147722E+02 +1.003933E+01 +5.226959E+00 +1.003933E+01 +3.479685E+02 
 +8.554709E+02 +1.714526E+01 +3.841734E+00 +1.714526E+01 +5.227262E+02 +1.151868E+01 +3.841734E+00 +1.151868E+01 +3.893419E+02 
 +8.596003E+02 +2.617840E+01 +9.763627E+00 +2.617840E+01 +5.192705E+02 +1.319575E+01 +9.763627E+00 +1.319575E+01 +4.121779E+02 
 +8.680819E+02 +2.133553E+01 +4.475459E+00 +2.133553E+01 +5.187661E+02 +1.204105E+01 +4.475459E+00 +1.204105E+01 +4.018207E+02 
 +8.610384E+02 +1.429765E+01 +3.982898E+00 +1.429765E+01 +5.177015E+02 +4.368482E+00 +3.982898E+00 +4.368482E+00 +3.732250E+02 
 +8.511220E+02 +5.236696E+00 +7.701507E+00 +5.236696E+00 +5.046011E+02 -1.933422E+00 +7.701507E+00 -1.933422E+00 +3.520462E+02 
 +8.642175E+02 -1.425824E+01 +7.758343E+00 -1.425824E+01 +5.097419E+02 -6.123806E+00 +7.758343E+00 -6.123806E+00 +3.607398E+02 
 +8.655852E+02 -6.723879E+00 +1.765461E+00 -6.723879E+00 +5.158311E+02 -5.664211E+00 +1.765461E+00 -5.664211E+00 +3.645663E+02 
 +8.813532E+02 -1.217359E+00 -2.279017E+00 -1.217359E+00 +5.264531E+02 -6.446904E+00 -2.279017E+00 -6.446904E+00 +3.650361E+02 
 +8.907351E+02 -1.797579E+00 +5.605428E+00 -1.797579E+00 +5.296471E+02 -9.719288E+00 +5.605428E+00 -9.719288E+00 +3.729898E+02 
 +8.897541E+02 -5.193668E-01 +6.014217E+00 -5.193668E-01 +5.279523E+02 -1.196164E+01 +6.014217E+00 -1.196164E+01 +3.856708E+02 
 +8.782031E+02 +5.111207E+00 +1.232050E+01 +5.111207E+00 +5.211130E+02 -9.316604E+00 +1.232050E+01 -9.316604E+00 +4.014574E+02 
 +8.740355E+02 +1.228089E+01 +1.581608E+01 +1.228089E+01 +5.082632E+02 -4.062419E+00 +1.581608E+01 -4.062419E+00 +3.970936E+02 
 +8.818899E+02 +2.146154E+00 +1.508922E+01 +2.146154E+00 +4.916882E+02 -6.010550E+00 +1.508922E+01 -6.010550E+00 +3.796236E+02 
 +8.760055E+02 +1.961897E+00 +1.095450E+00 +1.961897E+00 +4.736932E+02 -1.055077E+01 +1.095450E+00 -1.055077E+01 +3.658656E+02 
 +8.750728E+02 +2.417479E-01 -1.196775E+01 +2.417479E-01 +4.758497E+02 -1.473319E+01 -1.196775E+01 -1.473319E+01 +3.707743E+02 
 +8.790001E+02 -4.556513E+00 -1.467107E+01 -4.556513E+00 +4.943508E+02 -1.650612E+01 -1.467107E+01 -1.650612E+01 +3.804966E+02 
 +8.883212E+02 -9.829418E+00 -7.176770E+00 -9.829418E+00 +5.179910E+02 -1.823621E+01 -7.176770E+00 -1.823621E+01 +3.747202E+02 
 +8.824563E+02 -1.346902E+01 +4.675824E+00 -1.346902E+01 +5.130004E+02 -2.175230E+01 +4.675824E+00 -2.175230E+01 +3.536459E+02 
 +8.798004E+02 -9.181213E+00 +4.030200E+00 -9.181213E+00 +5.069139E+02 -1.410084E+01 +4.030200E+00 -1.410084E+01 +3.282712E+02 
 +8.845298E+02 -1.149180E+01 +3.052942E+00 -1.149180E+01 +5.200391E+02 -5.827593E+00 +3.052942E+00 -5.827593E+00 +3.201200E+02 
 +8.596156E+02 -6.378118E+00 +3.353734E+00 -6.378118E+00 +5.121620E+02 -3.225061E+00 +3.353734E+00 -3.225061E+00 +3.173307E+02 
 +8.602024E+02 +4.196865E+00 -1.836927E+00 +4.196865E+00 +5.189989E+02 +5.989320E+00 -1.836927E+00 +5.989320E+00 +3.457912E+02 
 +8.484592E+02 +2.134782E+01 +1.934190E+00 +2.134782E+01 +5.175096E+02 +1.606957E+01 +1.934190E+00 +1.606957E+01 +3.878006E+02 
 +8.526523E+02 +2.427333E+01 -1.534499E-01 +2.427333E+01 +5.152193E+02 +1.145472E+01 -1.534499E-01 +1.145472E+01 +3.954496E+02 
 +8.479476E+02 +1.168122E+01 +9.761300E+00 +1.168122E+01 +5.208947E+02 +7.725770E+00 +9.761300E+00 +7.725770E+00 +3.697645E+02 
 +8.840246E+02 -2.427696E+00 +6.196046E+00 -2.427696E+00 +5.448258E+02 +7.710241E+00 +6.196046E+00 +7.710241E+00 +3.744116E+02 
 +8.947815E+02 -1.071793E+01 -1.389553E-01 -1.071793E+01 +5.576801E+02 +9.473908E+00 -1.389553E-01 +9.473908E+00 +3.946350E+02 
 +8.992076E+02 -2.512697E+00 +1.598885E+00 -2.512697E+00 +5.636128E+02 +4.043667E+00 +1.598885E+00 +4.043667E+00 +4.130672E+02 
 +9.077561E+02 +2.326617E+00 +5.550553E+00 +2.326617E+00 +5.564828E+02 -8.336386E+00 +5.550553E+00 -8.336386E+00 +4.139228E+02 
 +9.068571E+02 +1.309924E+00 +4.658677E+00 +1.309924E+00 +5.471249E+02 -1.356353E+01 +4.658677E+00 -1.356353E+01 +4.138725E+02 
 +8.858952E+02 +1.533314E+00 +8.336869E+00 +1.533314E+00 +5.317847E+02 -1.007620E+01 +8.336869E+00 -1.007620E+01 +4.118400E+02 
 +8.799593E+02 +3.086305E+00 +2.135802E+01 +3.086305E+00 +5.190821E+02 -3.102868E+00 +2.135802E+01 -3.102868E+00 +4.103421E+02 
 +8.711675E+02 +1.042744E+01 +1.615250E+01 +1.042744E+01 +4.862023E+02 +2.693298E+00 +1.615250E+01 +2.693298E+00 +3.967498E+02 
 +8.730630E+02 +5.916617E+00 +1.112989E+01 +5.916617E+00 +4.647926E+02 +2.967304E+00 +1.112989E+01 +2.967304E+00 +3.951212E+02 
 +8.710416E+02 +7.509035E+00 +4.663869E+00 +7.509035E+00 +4.657471E+02 -1.133279E+01 +4.663869E+00 -1.133279E+01 +3.905728E+02 
 +8.707323E+02 +2.551787E+00 -1.080691E+01 +2.551787E+00 +4.701244E+02 -1.436159E+01 -1.080691E+01 -1.436159E+01 +3.869823E+02 
 +8.599222E+02 -3.808884E+00 -1.996091E+01 -3.808884E+00 +4.541901E+02 -1.628151E+01 -1.996091E+01 -1.628151E+01 +3.855058E+02 
 +8.536886E+02 -4.446063E+00 -2.395424E+01 -4.446063E+00 +4.426642E+02 -1.791211E+01 -2.395424E+01 -1.791211E+01 +3.689625E+02 
 +8.525525E+02 -8.932940E+00 -3.011263E+00 -8.932940E+00 +4.669655E+02 -2.481608E+01 -3.011263E+00 -2.481608E+01 +3.404042E+02 
 +8.694075E+02 -8.563342E+00 +7.008640E+00 -8.563342E+00 +5.005640E+02 -1.863997E+01 +7.008640E+00 -1.863997E+01 +3.269021E+02 
 +8.655071E+02 -5.656644E+00 +1.896893E+00 -5.656644E+00 +5.038608E+02 -8.970947E+00 +1.896893E+00 -8.970947E+00 +3.203082E+02 
 +8.673289E+02 -6.046260E+00 -9.747781E-01 -6.046260E+00 +5.099464E+02 -3.068534E+00 -9.747781E-01 -3.068534E+00 +3.237753E+02 
 +8.679096E+02 -5.080593E+00 -4.016599E+00 -5.080593E+00 +5.175040E+02 +2.568671E-01 -4.016599E+00 +2.568671E-01 +3.339434E+02 
 +8.689426E+02 +5.151317E+00 -6.688414E+00 +5.151317E+00 +5.228235E+02 +5.099244E+00 -6.688414E+00 +5.099244E+00 +3.641395E+02 
 +8.385096E+02 +1.985729E+01 -1.518355E-01 +1.985729E+01 +5.081226E+02 +8.095264E+00 -1.518355E-01 +8.095264E+00 +3.731137E+02 
 +8.679017E+02 +4.120260E+00 +6.487669E+00 +4.120260E+00 +5.311013E+02 -5.445708E+00 +6.487669E+00 -5.445708E+00 +4.135254E+02 
 +8.884842E+02 -8.833006E+00 +3.795433E+00 -8.833006E+00 +5.161204E+02 -6.027506E+00 +3.795433E+00 -6.027506E+00 +4.296096E+02 
 +8.877056E+02 -1.122484E+01 -1.405420E+00 -1.122484E+01 +5.020940E+02 +2.389866E+00 -1.405420E+00 +2.389866E+00 +4.383733E+02 
 +8.890906E+02 -3.066953E+00 +5.168658E+00 -3.066953E+00 +5.088346E+02 -1.959244E+00 +5.168658E+00 -1.959244E+00 +4.387555E+02 
 +8.903155E+02 +4.819677E+00 +1.339338E+01 +4.819677E+00 +5.085732E+02 -2.476062E+01 +1.339338E+01 -2.476062E+01 +4.109274E+02 
 +8.870483E+02 +9.520493E+00 +6.977565E+00 +9.520493E+00 +5.181264E+02 -2.449823E+01 +6.977565E+00 -2.449823E+01 +4.042091E+02 
 +8.724033E+02 +7.785672E+00 +3.247076E+00 +7.785672E+00 +5.198409E+02 -1.310444E+01 +3.247076E+00 -1.310444E+01 +4.013603E+02 
 +8.569598E+02 +3.202428E+00 +1.767735E+01 +3.202428E+00 +4.823914E+02 -7.896639E+00 +1.767735E+01 -7.896639E+00 +3.822088E+02 
 +8.441783E+02 +1.821605E+00 +1.524844E+01 +1.821605E+00 +4.315222E+02 +2.211695E+00 +1.524844E+01 +2.211695E+00 +3.757124E+02 
 +8.504111E+02 +7.170776E+00 +7.809175E+00 +7.170776E+00 +4.266024E+02 +3.378104E+00 +7.809175E+00 +3.378104E+00 +3.899235E+02 
 +8.508423E+02 +1.033655E+01 +5.324064E+00 +1.033655E+01 +4.340593E+02 -2.416001E+00 +5.324064E+00 -2.416001E+00 +3.987813E+02 
 +8.527401E+02 +8.747113E+00 -8.236694E+00 +8.747113E+00 +4.331001E+02 -7.019507E+00 -8.236694E+00 -7.019507E+00 +3.974773E+02 
 +8.538942E+02 +1.596339E+00 -1.882421E+01 +1.596339E+00 +4.324699E+02 -1.286823E+01 -1.882421E+01 -1.286823E+01 +3.910652E+02 
 +8.453110E+02 +7.002542E+00 -1.902003E+01 +7.002542E+00 +4.301971E+02 -9.848363E+00 -1.902003E+01 -9.848363E+00 +3.790537E+02 
 +8.278588E+02 +1.059936E+01 -5.849999E+00 +1.059936E+01 +4.405512E+02 -5.260695E+00 -5.849999E+00 -5.260695E+00 +3.476003E+02 
 +8.554192E+02 -1.027837E-01 -7.826623E-01 -1.027837E-01 +4.853578E+02 -1.467989E+01 -7.826623E-01 -1.467989E+01 +3.333609E+02 
 +8.657333E+02 -5.799370E+00 +1.846393E+00 -5.799370E+00 +5.031926E+02 -1.783481E+01 +1.846393E+00 -1.783481E+01 +3.348874E+02 
 +8.536886E+02 -5.420301E+00 -1.610838E+00 -5.420301E+00 +5.008473E+02 -1.344286E+01 -1.610838E+00 -1.344286E+01 +3.385897E+02 
 +8.566379E+02 -7.343845E+00 -6.239387E+00 -7.343845E+00 +5.082372E+02 -1.095681E+01 -6.239387E+00 -1.095681E+01 +3.476209E+02 
 +8.774080E+02 -1.023733E+01 -7.454815E+00 -1.023733E+01 +5.190469E+02 -1.164423E+00 -7.454815E+00 -1.164423E+00 +3.635091E+02 
 +8.540811E+02 +5.174872E+00 +1.194419E+00 +5.174872E+00 +5.176276E+02 +3.935282E+00 +1.194419E+00 +3.935282E+00 +3.785556E+02 
 +8.857630E+02 -7.733039E+00 -4.949029E+00 -7.733039E+00 +4.855161E+02 -7.241254E+00 -4.949029E+00 -7.241254E+00 +4.270475E+02 
 +8.764261E+02 -1.254547E+01 +3.702080E+00 -1.254547E+01 +4.747066E+02 -7.599982E+00 +3.702080E+00 -7.599982E+00 +4.281349E+02 
 +8.739724E+02 -1.138484E+01 +6.353026E+00 -1.138484E+01 +4.679834E+02 +3.070812E+00 +6.353026E+00 +3.070812E+00 +4.112311E+02 
 +8.661543E+02 -2.027262E+00 +6.486278E+00 -2.027262E+00 +4.517705E+02 -2.354488E+00 +6.486278E+00 -2.354488E+00 +3.858911E+02 
 +8.672469E+02 +6.030431E+00 +1.030611E+01 +6.030431E+00 +4.745000E+02 -3.113635E+01 +1.030611E+01 -3.113635E+01 +3.805116E+02 
 +8.691681E+02 +3.052071E+00 +1.100279E+01 +3.052071E+00 +4.940297E+02 -3.838742E+01 +1.100279E+01 -3.838742E+01 +3.895134E+02 
 +8.562161E+02 -1.982898E+00 -3.172178E+00 -1.982898E+00 +4.741221E+02 -2.679227E+01 -3.172178E+00 -2.679227E+01 +3.831367E+02 
 +8.582302E+02 -4.862346E+00 +6.640422E+00 -4.862346E+00 +4.751584E+02 -1.482919E+01 +6.640422E+00 -1.482919E+01 +3.851155E+02 
 +8.486500E+02 -9.112523E+00 +1.768358E+01 -9.112523E+00 +4.643994E+02 -8.541460E+00 +1.768358E+01 -8.541460E+00 +3.788067E+02 
 +8.402541E+02 +1.515228E+00 +1.599225E+01 +1.515228E+00 +4.272896E+02 -4.249627E+00 +1.599225E+01 -4.249627E+00 +3.740403E+02 
 +8.457386E+02 +9.053505E+00 +5.334644E+00 +9.053505E+00 +4.202849E+02 -6.849309E+00 +5.334644E+00 -6.849309E+00 +3.886098E+02 
 +8.508366E+02 +6.657102E+00 -3.820674E+00 +6.657102E+00 +4.242701E+02 -1.250730E+01 -3.820674E+00 -1.250730E+01 +3.897780E+02 
 +8.576666E+02 +4.667355E+00 -9.621915E+00 +4.667355E+00 +4.349069E+02 -1.293404E+01 -9.621915E+00 -1.293404E+01 +3.776855E+02 
 +8.495042E+02 +1.254938E+01 -3.058913E+00 +1.254938E+01 +4.627872E+02 -3.955683E+00 -3.058913E+00 -3.955683E+00 +3.760253E+02 
 +8.440928E+02 +1.864340E+01 -3.657052E+00 +1.864340E+01 +4.751926E+02 +2.162500E+00 -3.657052E+00 +2.162500E+00 +3.729072E+02 
 +8.460930E+02 +1.216403E+01 -5.431647E+00 +1.216403E+01 +4.734322E+02 +1.324936E+00 -5.431647E+00 +1.324936E+00 +3.570716E+02 
 +8.624914E+02 +4.302837E+00 +2.162015E+00 +4.302837E+00 +4.874044E+02 +6.280236E+00 +2.162015E+00 +6.280236E+00 +3.614335E+02 
 +8.459378E+02 +1.054487E+01 +1.089512E+00 +1.054487E+01 +4.888887E+02 +6.759397E+00 +1.089512E+00 +6.759397E+00 +3.646939E+02 
 +8.459252E+02 +8.451306E+00 -3.120779E+00 +8.451306E+00 +5.009586E+02 +6.754773E+00 -3.120779E+00 +6.754773E+00 +3.777795E+02 
 +8.495779E+02 +6.006895E-01 -5.261933E+00 +6.006895E-01 +5.116361E+02 +1.149872E+01 -5.261933E+00 +1.149872E+01 +3.816201E+02 
 +8.490653E+02 +1.233415E+00 -4.468498E+00 +1.233415E+00 +4.964530E+02 +4.276358E+00 -4.468498E+00 +4.276358E+00 +3.907356E+02 
 +8.977290E+02 +5.784112E-01 -7.419739E+00 +5.784112E-01 +4.859306E+02 -1.686689E+01 -7.419739E+00 -1.686689E+01 +4.263505E+02 
 +8.845366E+02 -3.997078E+00 +5.633725E+00 -3.997078E+00 +4.721316E+02 -1.163903E+01 +5.633725E+00 -1.163903E+01 +4.115420E+02 
 +8.753248E+02 -9.647560E+00 +1.072929E+01 -9.647560E+00 +4.708546E+02 -5.127480E+00 +1.072929E+01 -5.127480E+00 +3.818717E+02 
 +8.771051E+02 +1.508924E+00 +6.375190E+00 +1.508924E+00 +4.860274E+02 -2.380671E+01 +6.375190E+00 -2.380671E+01 +3.722418E+02 
 +8.805295E+02 +1.088920E+01 +9.508728E+00 +1.088920E+01 +5.023758E+02 -3.385507E+01 +9.508728E+00 -3.385507E+01 +3.959051E+02 
 +8.761620E+02 +1.405364E+00 +9.367337E+00 +1.405364E+00 +4.925531E+02 -2.921501E+01 +9.367337E+00 -2.921501E+01 +4.018124E+02 
 +8.707050E+02 -2.740549E+00 -4.418523E+00 -2.740549E+00 +4.800410E+02 -2.004169E+01 -4.418523E+00 -2.004169E+01 +4.005631E+02 
 +8.674099E+02 -2.805834E+00 +2.419571E+00 -2.805834E+00 +4.775617E+02 -1.296884E+01 +2.419571E+00 -1.296884E+01 +3.952963E+02 
 +8.501029E+02 -8.655785E+00 +1.665112E+01 -8.655785E+00 +4.787957E+02 -1.142002E+01 +1.665112E+01 -1.142002E+01 +3.677547E+02 
 +8.479368E+02 -7.646825E+00 +2.069318E+01 -7.646825E+00 +4.749381E+02 -1.383618E+01 +2.069318E+01 -1.383618E+01 +3.638438E+02 
 +8.485570E+02 +3.387712E+00 +9.095658E+00 +3.387712E+00 +4.381276E+02 -1.148383E+01 +9.095658E+00 -1.148383E+01 +3.654871E+02 
 +8.484071E+02 +3.870395E+00 +1.703281E+00 +3.870395E+00 +4.254415E+02 -1.441581E+01 +1.703281E+00 -1.441581E+01 +3.587032E+02 
 +8.546807E+02 +4.825463E+00 -1.402411E+00 +4.825463E+00 +4.477851E+02 -8.874345E+00 -1.402411E+00 -8.874345E+00 +3.625266E+02 
 +8.424809E+02 +1.262972E+01 +4.618209E-01 +1.262972E+01 +4.606107E+02 +1.312573E-02 +4.618209E-01 +1.312573E-02 +3.659782E+02 
 +8.465581E+02 +1.119212E+01 -1.253011E+00 +1.119212E+01 +4.734443E+02 -1.097346E+00 -1.253011E+00 -1.097346E+00 +3.712271E+02 
 +8.514052E+02 +7.716015E+00 -1.546994E+00 +7.716015E+00 +4.764611E+02 -1.735463E+00 -1.546994E+00 -1.735463E+00 +3.692986E+02 
 +8.650206E+02 +1.912974E+00 +4.203378E+00 +1.912974E+00 +4.911106E+02 +5.097037E+00 +4.203378E+00 +5.097037E+00 +3.787763E+02 
 +8.439242E+02 +4.234892E+00 +9.023150E-01 +4.234892E+00 +4.906556E+02 +2.443449E+00 +9.023150E-01 +2.443449E+00 +3.885680E+02 
 +8.429881E+02 +2.700890E+00 -2.352602E+00 +2.700890E+00 +5.040659E+02 -4.645989E+00 -2.352602E+00 -4.645989E+00 +4.076420E+02 
 +8.502397E+02 +4.360651E+00 -7.356854E+00 +4.360651E+00 +5.118264E+02 -6.650893E+00 -7.356854E+00 -6.650893E+00 +4.090113E+02 
 +8.469834E+02 +8.300560E+00 -4.777458E+00 +8.300560E+00 +4.848885E+02 -1.105797E+01 -4.777458E+00 -1.105797E+01 +4.042187E+02 
 +8.765040E+02 -2.939612E+00 -1.978310E+00 -2.939612E+00 +4.679005E+02 -3.403533E+00 -1.978310E+00 -3.403533E+00 +4.068048E+02 
 +8.809163E+02 -3.332303E+00 +4.952050E+00 -3.332303E+00 +4.626548E+02 -2.668663E+00 +4.952050E+00 -2.668663E+00 +3.994649E+02 
 +8.791913E+02 -3.287270E+00 +1.471603E+00 -3.287270E+00 +4.754641E+02 -8.955795E+00 +1.471603E+00 -8.955795E+00 +3.889096E+02 
 +8.773720E+02 +4.369131E+00 +8.837678E+00 +4.369131E+00 +4.981822E+02 -2.136233E+01 +8.837678E+00 -2.136233E+01 +3.801045E+02 
 +8.747459E+02 +7.847010E+00 +1.720705E+01 +7.847010E+00 +4.888745E+02 -2.544595E+01 +1.720705E+01 -2.544595E+01 +3.693110E+02 
 +8.724077E+02 -1.517710E+00 +3.937013E+00 -1.517710E+00 +4.763728E+02 -2.501674E+01 +3.937013E+00 -2.501674E+01 +3.749309E+02 
 +8.674283E+02 -4.007010E+00 -7.580087E+00 -4.007010E+00 +4.732037E+02 -2.002633E+01 -7.580087E+00 -2.002633E+01 +3.923382E+02 
 +8.642724E+02 -1.299919E+00 +1.102949E+00 -1.299919E+00 +4.749565E+02 -1.384453E+01 +1.102949E+00 -1.384453E+01 +3.893410E+02 
 +8.472412E+02 -4.828890E+00 +1.388317E+01 -4.828890E+00 +4.714205E+02 -1.048163E+01 +1.388317E+01 -1.048163E+01 +3.569711E+02 
 +8.493438E+02 -8.046647E+00 +1.809462E+01 -8.046647E+00 +4.890649E+02 -1.177115E+01 +1.809462E+01 -1.177115E+01 +3.527968E+02 
 +8.593455E+02 -6.320954E+00 +1.293159E+01 -6.320954E+00 +4.904675E+02 -1.601131E+01 +1.293159E+01 -1.601131E+01 +3.564180E+02 
 +8.610686E+02 +4.578685E+00 +5.474903E+00 +4.578685E+00 +4.683069E+02 -6.244442E+00 +5.474903E+00 -6.244442E+00 +3.551505E+02 
 +8.584343E+02 +9.187125E+00 +3.240905E+00 +9.187125E+00 +4.778475E+02 +5.957755E+00 +3.240905E+00 +5.957755E+00 +3.685294E+02 
 +8.570198E+02 +1.085655E+01 +4.675450E-01 +1.085655E+01 +4.869874E+02 +9.850513E+00 +4.675450E-01 +9.850513E+00 +3.792347E+02 
 +8.538458E+02 +7.534835E+00 +6.939906E-01 +7.534835E+00 +4.796059E+02 +3.734116E+00 +6.939906E-01 +3.734116E+00 +3.775708E+02 
 +8.551475E+02 +1.983826E+00 +3.727751E-01 +1.983826E+00 +4.826778E+02 -1.019832E+00 +3.727751E-01 -1.019832E+00 +3.760515E+02 
 +8.597052E+02 -2.648212E+00 +5.499644E+00 -2.648212E+00 +4.950387E+02 -1.331706E+00 +5.499644E+00 -1.331706E+00 +3.799221E+02 
 +8.446631E+02 -1.242173E+00 -2.095473E+00 -1.242173E+00 +5.002721E+02 -9.293040E+00 -2.095473E+00 -9.293040E+00 +4.011792E+02 
 +8.315074E+02 -1.138561E+00 -4.302629E-01 -1.138561E+00 +4.873354E+02 -9.555710E+00 -4.302629E-01 -9.555710E+00 +4.131172E+02 
 +8.539006E+02 -5.349558E+00 -3.970350E+00 -5.349558E+00 +4.729935E+02 +9.732025E+00 -3.970350E+00 +9.732025E+00 +3.921032E+02 
 +8.483286E+02 -4.731918E+00 -4.144618E-01 -4.731918E+00 +4.541115E+02 +1.198875E+01 -4.144618E-01 +1.198875E+01 +3.806717E+02 
 +8.655774E+02 -8.398077E+00 +5.580805E-01 -8.398077E+00 +4.517845E+02 +3.611929E+00 +5.580805E-01 +3.611929E+00 +3.873618E+02 
 +8.635986E+02 -7.082040E+00 +3.468122E+00 -7.082040E+00 +4.459885E+02 +2.104514E+00 +3.468122E+00 +2.104514E+00 +3.743623E+02 
 +8.619291E+02 +6.888975E-01 -5.321245E+00 +6.888975E-01 +4.517662E+02 +3.403569E+00 -5.321245E+00 +3.403569E+00 +3.751929E+02 
 +8.584527E+02 +5.491346E+00 -5.719977E-01 +5.491346E+00 +4.561485E+02 -8.649790E+00 -5.719977E-01 -8.649790E+00 +3.743906E+02 
 +8.708507E+02 +4.523577E+00 +9.939587E+00 +4.523577E+00 +4.678747E+02 -3.404561E+01 +9.939587E+00 -3.404561E+01 +3.627010E+02 
 +8.733532E+02 -4.561129E+00 +1.009495E+01 -4.561129E+00 +4.668900E+02 -3.931315E+01 +1.009495E+01 -3.931315E+01 +3.597554E+02 
 +8.577029E+02 -4.915512E+00 -5.797446E+00 -4.915512E+00 +4.607891E+02 -2.019690E+01 -5.797446E+00 -2.019690E+01 +3.798220E+02 
 +8.612406E+02 +9.413952E-01 -4.036617E-01 +9.413952E-01 +4.743598E+02 -1.098366E+01 -4.036617E-01 -1.098366E+01 +3.920579E+02 
 +8.499245E+02 -3.188897E+00 +1.245684E+01 -3.188897E+00 +4.755175E+02 -9.711289E+00 +1.245684E+01 -9.711289E+00 +3.585801E+02 
 +8.492992E+02 -5.795482E+00 +1.660636E+01 -5.795482E+00 +4.849026E+02 -7.588005E+00 +1.660636E+01 -7.588005E+00 +3.439785E+02 
 +8.597148E+02 -1.135021E+01 +1.086204E+01 -1.135021E+01 +5.023994E+02 -5.618772E+00 +1.086204E+01 -5.618772E+00 +3.511723E+02 
 +8.615688E+02 +3.450140E+00 +1.090646E+01 +3.450140E+00 +5.103031E+02 +8.961832E+00 +1.090646E+01 +8.961832E+00 +3.610269E+02 
 +8.535630E+02 +7.997415E+00 +9.575351E+00 +7.997415E+00 +4.976193E+02 +1.834839E+01 +9.575351E+00 +1.834839E+01 +3.693563E+02 
 +8.498064E+02 +3.252925E+00 +6.448476E+00 +3.252925E+00 +4.810897E+02 +1.388640E+01 +6.448476E+00 +1.388640E+01 +3.709342E+02 
 +8.538140E+02 +2.918538E+00 +3.078829E+00 +2.918538E+00 +4.792368E+02 +7.005073E+00 +3.078829E+00 +7.005073E+00 +3.784882E+02 
 +8.570202E+02 +1.102617E+00 +4.926969E+00 +1.102617E+00 +4.894727E+02 +1.146550E+00 +4.926969E+00 +1.146550E+00 +3.893617E+02 
 +8.525674E+02 -4.235787E+00 +7.450153E+00 -4.235787E+00 +4.918926E+02 -1.998623E+00 +7.450153E+00 -1.998623E+00 +3.896939E+02 
 +8.308014E+02 -5.927094E+00 +2.018309E+00 -5.927094E+00 +4.690084E+02 -7.800952E+00 +2.018309E+00 -7.800952E+00 +3.858555E+02 
 +8.232665E+02 -1.589079E+00 +7.661016E+00 -1.589079E+00 +4.483037E+02 -2.201020E+00 +7.661016E+00 -2.201020E+00 +3.813255E+02 
 +8.497069E+02 +3.370928E-01 +4.040636E+00 +3.370928E-01 +4.516924E+02 +1.467268E+01 +4.040636E+00 +1.467268E+01 +3.655443E+02 
 +8.576307E+02 -5.082473E+00 +2.260075E+00 -5.082473E+00 +4.536277E+02 +1.638194E+01 +2.260075E+00 +1.638194E+01 +3.704664E+02 
 +8.642937E+02 -3.343587E+00 -5.703395E+00 -3.343587E+00 +4.539839E+02 -7.705393E-01 -5.703395E+00 -7.705393E-01 +3.714157E+02 
 +8.637672E+02 -3.667187E+00 -1.358490E+00 -3.667187E+00 +4.582768E+02 -1.699089E+00 -1.358490E+00 -1.699089E+00 +3.766346E+02 
 +8.638216E+02 -2.297136E+00 -6.272456E-01 -2.297136E+00 +4.617194E+02 -3.254759E+00 -6.272456E-01 -3.254759E+00 +3.801378E+02 
 +8.615241E+02 +1.849953E+00 -5.092034E+00 +1.849953E+00 +4.534131E+02 -1.042435E-01 -5.092034E+00 -1.042435E-01 +3.767918E+02 
 +8.576369E+02 -3.695614E-01 -3.115728E+00 -3.695614E-01 +4.355569E+02 +7.289665E+00 -3.115728E+00 +7.289665E+00 +3.664536E+02 
 +8.583148E+02 -8.905190E+00 +1.459755E+01 -8.905190E+00 +4.366099E+02 +2.359848E+00 +1.459755E+01 +2.359848E+00 +3.633187E+02 
 +8.545685E+02 -6.163144E+00 +5.556197E+00 -6.163144E+00 +4.504126E+02 -1.408821E+01 +5.556197E+00 -1.408821E+01 +3.566462E+02 
 +8.590793E+02 -4.303344E-01 +4.683371E+00 -4.303344E-01 +4.680512E+02 -1.794947E+01 +4.683371E+00 -1.794947E+01 +3.618943E+02 
 +8.598120E+02 +4.465375E+00 -5.662361E+00 +4.465375E+00 +4.815365E+02 -1.203832E+01 -5.662361E+00 -1.203832E+01 +3.635438E+02 
 +8.576654E+02 -3.927761E+00 +9.654014E+00 -3.927761E+00 +4.963730E+02 -7.361532E+00 +9.654014E+00 -7.361532E+00 +3.486674E+02 
 +8.579886E+02 -9.804395E+00 +1.097201E+01 -9.804395E+00 +5.081972E+02 -8.920681E-01 +1.097201E+01 -8.920681E-01 +3.538386E+02 
 +8.401800E+02 +4.362963E+00 +2.064901E+01 +4.362963E+00 +4.966424E+02 +1.220395E+01 +2.064901E+01 +1.220395E+01 +3.618044E+02 
 +8.438180E+02 +4.075341E+00 +1.636038E+01 +4.075341E+00 +4.924131E+02 +1.781035E+01 +1.636038E+01 +1.781035E+01 +3.700690E+02 
 +8.438515E+02 +2.931194E+00 +1.144718E+01 +2.931194E+00 +4.879659E+02 +1.628703E+01 +1.144718E+01 +1.628703E+01 +3.764253E+02 
 +8.451720E+02 +2.315966E-01 +6.059913E+00 +2.315966E-01 +4.861312E+02 +8.875978E+00 +6.059913E+00 +8.875978E+00 +3.884353E+02 
 +8.452559E+02 -2.777686E-01 +1.076872E+01 -2.777686E-01 +4.855770E+02 -2.335919E+00 +1.076872E+01 -2.335919E+00 +3.939497E+02 
 +8.469589E+02 -9.611870E+00 +1.298261E+01 -9.611870E+00 +4.752467E+02 -9.472465E+00 +1.298261E+01 -9.472465E+00 +3.823068E+02 
 +8.415393E+02 -7.869761E+00 +1.234970E+01 -7.869761E+00 +4.612054E+02 -8.167233E+00 +1.234970E+01 -8.167233E+00 +3.674685E+02 
 +8.395928E+02 -5.532743E+00 +1.192044E+01 -5.532743E+00 +4.498293E+02 -5.170667E+00 +1.192044E+01 -5.170667E+00 +3.513497E+02 
 +8.405198E+02 -3.876461E+00 +7.028305E+00 -3.876461E+00 +4.328471E+02 -4.680994E+00 +7.028305E+00 -4.680994E+00 +3.357719E+02 
 +8.382049E+02 -7.370695E+00 +1.243023E+01 -7.370695E+00 +4.306870E+02 -5.203645E-01 +1.243023E+01 -5.203645E-01 +3.440383E+02 
 +8.650606E+02 -2.825406E+00 -1.119594E+01 -2.825406E+00 +4.542050E+02 -1.189520E+00 -1.119594E+01 -1.189520E+00 +3.724260E+02 
 +8.604820E+02 -2.945184E+00 -5.780789E+00 -2.945184E+00 +4.537127E+02 +6.595300E-02 -5.780789E+00 +6.595300E-02 +3.785491E+02 
 +8.603739E+02 -6.614738E-01 -1.668190E+00 -6.614738E-01 +4.534171E+02 +1.729702E+00 -1.668190E+00 +1.729702E+00 +3.808292E+02 
 +8.596128E+02 +1.291243E+00 -6.240697E-01 +1.291243E+00 +4.507436E+02 +3.879884E+00 -6.240697E-01 +3.879884E+00 +3.749063E+02 
 +8.626361E+02 -2.273789E+00 +1.837065E+00 -2.273789E+00 +4.483392E+02 +5.885385E+00 +1.837065E+00 +5.885385E+00 +3.704628E+02 
 +8.590338E+02 -8.206731E+00 +2.408605E+00 -8.206731E+00 +4.432135E+02 -5.106159E+00 +2.408605E+00 -5.106159E+00 +3.564559E+02 
 +8.434963E+02 -5.771668E+00 +6.933751E-01 -5.771668E+00 +4.470726E+02 -2.016968E+01 +6.933751E-01 -2.016968E+01 +3.315930E+02 
 +8.566050E+02 -6.328042E+00 -1.428664E+00 -6.328042E+00 +4.785789E+02 -2.993648E+01 -1.428664E+00 -2.993648E+01 +3.441134E+02 
 +8.559510E+02 -2.675185E+00 -3.302637E+00 -2.675185E+00 +4.905958E+02 -2.807499E+01 -3.302637E+00 -2.807499E+01 +3.567461E+02 
 +8.579907E+02 -8.354281E+00 +9.160065E+00 -8.354281E+00 +4.996719E+02 -1.696098E+01 +9.160065E+00 -1.696098E+01 +3.487060E+02 
 +8.804791E+02 -1.209826E+01 +1.459975E+01 -1.209826E+01 +5.229326E+02 -4.216887E+00 +1.459975E+01 -4.216887E+00 +3.568264E+02 
 +8.379317E+02 +2.397753E+00 +2.435350E+01 +2.397753E+00 +4.966525E+02 +1.156763E+01 +2.435350E+01 +1.156763E+01 +3.512120E+02 
 +8.331737E+02 +2.919158E+00 +1.501524E+01 +2.919158E+00 +4.905596E+02 +1.357760E+01 +1.501524E+01 +1.357760E+01 +3.634567E+02 
 +8.514494E+02 +3.771122E+00 +1.844145E+01 +3.771122E+00 +5.016581E+02 +1.161809E+01 +1.844145E+01 +1.161809E+01 +3.805143E+02 
 +8.529083E+02 +4.749777E+00 +1.282017E+01 +4.749777E+00 +4.978733E+02 +6.926291E+00 +1.282017E+01 +6.926291E+00 +3.997538E+02 
 +8.448247E+02 +8.223426E+00 +1.897015E+01 +8.223426E+00 +4.808950E+02 -2.993505E+00 +1.897015E+01 -2.993505E+00 +4.063226E+02 
 +8.457793E+02 -4.503496E+00 +1.981735E+01 -4.503496E+00 +4.676082E+02 -6.600208E+00 +1.981735E+01 -6.600208E+00 +3.891728E+02 
 +8.438475E+02 -5.271228E+00 +1.774684E+01 -5.271228E+00 +4.556213E+02 -5.934899E+00 +1.774684E+01 -5.934899E+00 +3.741136E+02 
 +8.430930E+02 -5.243781E+00 +1.370117E+01 -5.243781E+00 +4.465664E+02 +6.982271E-01 +1.370117E+01 +6.982271E-01 +3.504499E+02 
 +8.532045E+02 -4.995051E+00 +3.292261E+00 -4.995051E+00 +4.498857E+02 +7.638097E+00 +3.292261E+00 +7.638097E+00 +3.327607E+02 
 +8.427700E+02 -8.755743E+00 +9.834760E+00 -8.755743E+00 +4.414457E+02 +6.127886E+00 +9.834760E+00 +6.127886E+00 +3.423835E+02 
 +8.639946E+02 -2.665694E+00 -1.120414E+01 -2.665694E+00 +4.550919E+02 +8.583406E-01 -1.120414E+01 +8.583406E-01 +3.605251E+02 
 +8.603465E+02 -2.294210E+00 -6.502291E+00 -2.294210E+00 +4.526279E+02 +7.736838E+00 -6.502291E+00 +7.736838E+00 +3.741593E+02 
 +8.612475E+02 +9.981425E-01 -1.849621E+00 +9.981425E-01 +4.530698E+02 +1.126279E+01 -1.849621E+00 +1.126279E+01 +3.746265E+02 
 +8.651098E+02 +4.310435E+00 -4.325983E-01 +4.310435E+00 +4.583309E+02 +1.224194E+01 -4.325983E-01 +1.224194E+01 +3.711559E+02 
 +8.596614E+02 -4.668546E-01 -2.179660E+00 -4.668546E-01 +4.530217E+02 +9.851786E+00 -2.179660E+00 +9.851786E+00 +3.618131E+02 
 +8.493428E+02 -1.675438E+00 -7.438386E-01 -1.675438E+00 +4.513780E+02 +8.910013E+00 -7.438386E-01 +8.910013E+00 +3.521460E+02 
 +8.433156E+02 +4.509764E+00 -1.170779E+00 +4.509764E+00 +4.647118E+02 +4.327856E+00 -1.170779E+00 +4.327856E+00 +3.391307E+02 
 +8.617722E+02 +8.877650E-01 -9.958706E+00 +8.877650E-01 +4.827929E+02 +8.981600E-01 -9.958706E+00 +8.981600E-01 +3.449848E+02 
 +8.503867E+02 +7.666412E+00 +1.204687E+00 +7.666412E+00 +4.824205E+02 +1.150686E+01 +1.204687E+00 +1.150686E+01 +3.603763E+02 
 +8.608579E+02 +5.898122E+00 +1.271799E+01 +5.898122E+00 +4.917818E+02 +2.111970E+01 +1.271799E+01 +2.111970E+01 +3.662097E+02 
 +9.050485E+02 +2.595000E-01 +1.362936E+01 +2.595000E-01 +5.325387E+02 +2.161097E+01 +1.362936E+01 +2.161097E+01 +3.788668E+02 
 +8.536797E+02 -1.862938E-01 +1.238001E+01 -1.862938E-01 +5.259212E+02 +9.023505E+00 +1.238001E+01 +9.023505E+00 +3.791178E+02 
 +8.411140E+02 -3.575928E-01 +1.078167E+01 -3.575928E-01 +5.064620E+02 +1.113795E+00 +1.078167E+01 +1.113795E+00 +3.881933E+02 
 +8.528788E+02 +3.145762E+00 +1.487283E+01 +3.145762E+00 +4.901393E+02 +6.642374E+00 +1.487283E+01 +6.642374E+00 +3.897083E+02 
 +8.511548E+02 +1.567853E+00 +7.710252E+00 +1.567853E+00 +4.837408E+02 +7.145840E+00 +7.710252E+00 +7.145840E+00 +4.083812E+02 
 +8.532157E+02 +3.657568E+00 +1.627471E+01 +3.657568E+00 +4.804242E+02 +2.473142E-01 +1.627471E+01 +2.473142E-01 +4.224342E+02 
 +8.411734E+02 -3.673570E+00 +2.123668E+01 -3.673570E+00 +4.645951E+02 -5.453911E+00 +2.123668E+01 -5.453911E+00 +3.935100E+02 
 +8.366693E+02 -6.552321E+00 +1.895026E+01 -6.552321E+00 +4.508493E+02 -2.674080E+00 +1.895026E+01 -2.674080E+00 +3.651916E+02 
 +8.329631E+02 -6.089509E+00 +9.889068E+00 -6.089509E+00 +4.327947E+02 -3.947054E+00 +9.889068E+00 -3.947054E+00 +3.361372E+02 
 +8.394327E+02 -6.637728E+00 +1.438298E+00 -6.637728E+00 +4.278783E+02 -6.577259E+00 +1.438298E+00 -6.577259E+00 +3.184494E+02 
 +8.393070E+02 -9.348854E+00 +8.138783E+00 -9.348854E+00 +4.341667E+02 -2.319429E+00 +8.138783E+00 -2.319429E+00 +3.254300E+02 
 +8.606592E+02 -3.730389E+00 -5.408355E+00 -3.730389E+00 +4.611565E+02 +6.255627E+00 -5.408355E+00 +6.255627E+00 +3.430897E+02 
 +8.615924E+02 -2.210499E+00 -3.683703E+00 -2.210499E+00 +4.551721E+02 +1.258929E+01 -3.683703E+00 +1.258929E+01 +3.665242E+02 
 +8.600730E+02 +1.945564E+00 -2.168622E+00 +1.945564E+00 +4.528267E+02 +1.704415E+01 -2.168622E+00 +1.704415E+01 +3.655680E+02 
 +8.613892E+02 +3.344824E+00 -2.260756E+00 +3.344824E+00 +4.530039E+02 +1.600066E+01 -2.260756E+00 +1.600066E+01 +3.644365E+02 
 +8.759915E+02 +2.195725E+00 -6.241140E+00 +2.195725E+00 +4.795368E+02 +2.065958E+01 -6.241140E+00 +2.065958E+01 +3.720449E+02 
 +8.646203E+02 +3.060855E+00 -1.480350E-01 +3.060855E+00 +4.981981E+02 +1.474544E+01 -1.480350E-01 +1.474544E+01 +3.735178E+02 
 +8.495950E+02 +6.032137E+00 -3.129282E-01 +6.032137E+00 +4.754035E+02 +1.083143E+01 -3.129282E-01 +1.083143E+01 +3.600593E+02 
 +8.546192E+02 +5.034923E+00 -2.766764E+00 +5.034923E+00 +4.703265E+02 +1.089657E+01 -2.766764E+00 +1.089657E+01 +3.571529E+02 
 +8.512765E+02 +4.058197E+00 +6.743881E+00 +4.058197E+00 +4.795530E+02 +1.229789E+01 +6.743881E+00 +1.229789E+01 +3.784417E+02 
 +8.699561E+02 +5.627561E-01 +6.513018E+00 +5.627561E-01 +4.917319E+02 +7.828870E+00 +6.513018E+00 +7.828870E+00 +3.944021E+02 
 +8.953220E+02 +1.683649E+00 +5.929699E+00 +1.683649E+00 +5.106384E+02 +6.522936E+00 +5.929699E+00 +6.522936E+00 +3.950533E+02 
 +8.572985E+02 +3.908312E-01 -9.520230E-01 +3.908312E-01 +4.973400E+02 +7.317159E+00 -9.520230E-01 +7.317159E+00 +4.019391E+02 
 +8.260552E+02 -4.690349E+00 +1.045989E+01 -4.690349E+00 +4.769044E+02 +5.864373E+00 +1.045989E+01 +5.864373E+00 +4.090497E+02 
 +8.444018E+02 -6.387752E-01 +8.109995E+00 -6.387752E-01 +4.771838E+02 +7.691266E+00 +8.109995E+00 +7.691266E+00 +4.091311E+02 
 +8.545440E+02 -3.209019E+00 -2.443942E+00 -3.209019E+00 +4.774741E+02 +1.687005E+01 -2.443942E+00 +1.687005E+01 +4.180921E+02 
 +8.552322E+02 -5.067089E-01 +4.918064E-01 -5.067089E-01 +4.682139E+02 +2.388003E+01 +4.918064E-01 +2.388003E+01 +4.233639E+02 
 +8.467997E+02 -2.272238E-01 +5.948068E+00 -2.272238E-01 +4.587499E+02 +1.666509E+01 +5.948068E+00 +1.666509E+01 +3.982711E+02 
 +8.251622E+02 -4.054022E+00 +1.728369E+01 -4.054022E+00 +4.483640E+02 +1.242587E+01 +1.728369E+01 +1.242587E+01 +3.491292E+02 
 +8.499305E+02 -2.031211E-01 +7.458480E-01 -2.031211E-01 +4.675130E+02 +1.142445E+01 +7.458480E-01 +1.142445E+01 +3.245008E+02 
 +8.646211E+02 +1.274995E+00 -1.854921E+00 +1.274995E+00 +4.804272E+02 +1.144744E+01 -1.854921E+00 +1.144744E+01 +3.152686E+02 
 +8.541580E+02 -4.456770E+00 +5.028975E+00 -4.456770E+00 +4.672003E+02 +9.379475E+00 +5.028975E+00 +9.379475E+00 +3.110352E+02 
 +8.536637E+02 -7.882747E+00 -4.153419E+00 -7.882747E+00 +4.599272E+02 +6.012051E+00 -4.153419E+00 +6.012051E+00 +3.439695E+02 
 +8.498998E+02 -1.650293E+00 -6.011305E+00 -1.650293E+00 +4.447306E+02 +1.196190E+01 -6.011305E+00 +1.196190E+01 +3.607907E+02 
 +8.499534E+02 +1.279675E+00 -1.847805E+00 +1.279675E+00 +4.468811E+02 +1.465402E+01 -1.847805E+00 +1.465402E+01 +3.614246E+02 
 +8.583851E+02 -5.373071E-02 -1.521962E+00 -5.373071E-02 +4.623535E+02 +1.863901E+01 -1.521962E+00 +1.863901E+01 +3.677140E+02 
 +8.637688E+02 -2.837988E+00 -3.911915E+00 -2.837988E+00 +4.675352E+02 +1.785203E+01 -3.911915E+00 +1.785203E+01 +3.707986E+02 
 +8.514739E+02 -4.221994E+00 -6.624149E+00 -4.221994E+00 +4.512815E+02 +1.466794E+01 -6.624149E+00 +1.466794E+01 +3.628106E+02 
 +8.372563E+02 +1.936829E+00 +4.268055E+00 +1.936829E+00 +4.532590E+02 +7.691323E+00 +4.268055E+00 +7.691323E+00 +3.586987E+02 
 +8.480062E+02 +6.231971E+00 +2.796504E+00 +6.231971E+00 +4.715088E+02 +9.091920E+00 +2.796504E+00 +9.091920E+00 +3.681067E+02 
 +8.472326E+02 +4.952022E+00 +7.854905E+00 +4.952022E+00 +4.756284E+02 -7.985157E-01 +7.854905E+00 -7.985157E-01 +3.847695E+02 
 +8.734205E+02 +3.242987E+00 -5.769612E+00 +3.242987E+00 +4.946703E+02 -1.018425E+01 -5.769612E+00 -1.018425E+01 +4.048705E+02 
 +8.888187E+02 +2.143743E+00 -1.371662E+00 +2.143743E+00 +5.013512E+02 -6.854356E-01 -1.371662E+00 -6.854356E-01 +4.039356E+02 
 +8.811929E+02 -2.197614E+00 -5.537687E+00 -2.197614E+00 +5.098370E+02 +1.022481E+01 -5.537687E+00 +1.022481E+01 +4.151338E+02 
 +8.347649E+02 -1.412114E+01 +9.509903E+00 -1.412114E+01 +5.003615E+02 +1.358072E+01 +9.509903E+00 +1.358072E+01 +4.129104E+02 
 +8.557321E+02 -8.006122E+00 +6.485587E+00 -8.006122E+00 +4.978125E+02 +1.403011E+01 +6.485587E+00 +1.403011E+01 +4.168195E+02 
 +8.555726E+02 -4.496038E+00 +5.880076E-01 -4.496038E+00 +4.745395E+02 +1.894946E+01 +5.880076E-01 +1.894946E+01 +4.081652E+02 
 +8.525981E+02 -4.504522E+00 -1.884311E+00 -4.504522E+00 +4.611921E+02 +2.461067E+01 -1.884311E+00 +2.461067E+01 +4.004545E+02 
 +8.442984E+02 -1.537405E+00 -1.208325E+01 -1.537405E+00 +4.504457E+02 +2.310088E+01 -1.208325E+01 +2.310088E+01 +3.804613E+02 
 +8.336642E+02 +9.405371E-01 +1.054388E+01 +9.405371E-01 +4.537916E+02 +1.744135E+01 +1.054388E+01 +1.744135E+01 +3.409909E+02 
 +8.621641E+02 +8.264989E+00 -6.111428E-01 +8.264989E+00 +4.855413E+02 +9.575892E+00 -6.111428E-01 +9.575892E+00 +3.145563E+02 
 +8.698298E+02 +2.556395E+00 -4.392200E+00 +2.556395E+00 +4.969166E+02 +6.753238E+00 -4.392200E+00 +6.753238E+00 +3.035067E+02 
 +8.652441E+02 -8.209429E+00 -4.018528E-01 -8.209429E+00 +4.869183E+02 +6.036654E+00 -4.018528E-01 +6.036654E+00 +3.162766E+02 
 +8.574332E+02 -1.556827E+01 -3.294710E+00 -1.556827E+01 +4.731857E+02 +1.822377E+00 -3.294710E+00 +1.822377E+00 +3.702828E+02 
 +8.475887E+02 -4.576987E+00 -6.125710E+00 -4.576987E+00 +4.636155E+02 +1.249966E+01 -6.125710E+00 +1.249966E+01 +3.855893E+02 
 +8.387220E+02 -3.765533E+00 +1.650497E+00 -3.765533E+00 +4.553035E+02 +1.687978E+01 +1.650497E+00 +1.687978E+01 +3.759313E+02 
 +8.591530E+02 -5.715739E-01 +7.580231E-01 -5.715739E-01 +4.681852E+02 +1.863777E+01 +7.580231E-01 +1.863777E+01 +3.744707E+02 
 +8.597285E+02 -4.813513E+00 -6.601854E-01 -4.813513E+00 +4.651195E+02 +1.307754E+01 -6.601854E-01 +1.307754E+01 +3.722914E+02 
 +8.717264E+02 -3.569185E+00 -9.476579E+00 -3.569185E+00 +4.650540E+02 +1.178953E+01 -9.476579E+00 +1.178953E+01 +3.742263E+02 
 +8.345132E+02 +4.858548E+00 +9.407719E+00 +4.858548E+00 +4.531687E+02 +6.291660E+00 +9.407719E+00 +6.291660E+00 +3.573319E+02 
 +8.433252E+02 +3.324199E+00 +5.386741E+00 +3.324199E+00 +4.683937E+02 +6.373048E+00 +5.386741E+00 +6.373048E+00 +3.648753E+02 
 +8.468175E+02 +3.387544E+00 +8.384230E+00 +3.387544E+00 +4.741817E+02 -2.874156E+00 +8.384230E+00 -2.874156E+00 +3.820939E+02 
 +8.750126E+02 +3.818964E+00 -1.460138E+01 +3.818964E+00 +4.946528E+02 -2.123839E+01 -1.460138E+01 -2.123839E+01 +4.042148E+02 
 +8.872237E+02 +4.495820E+00 -7.808912E+00 +4.495820E+00 +5.076110E+02 -2.024526E+01 -7.808912E+00 -2.024526E+01 +4.089434E+02 
 +8.703399E+02 +8.788611E-01 -7.629596E+00 +8.788611E-01 +4.960189E+02 +4.301163E+00 -7.629596E+00 +4.301163E+00 +4.007615E+02 
 +8.315048E+02 -8.195924E+00 +4.310665E+00 -8.195924E+00 +4.688377E+02 +2.292576E+01 +4.310665E+00 +2.292576E+01 +3.800165E+02 
 +8.521110E+02 -5.276726E+00 +6.797210E+00 -5.276726E+00 +4.799257E+02 +2.435744E+01 +6.797210E+00 +2.435744E+01 +3.917572E+02 
 +8.528672E+02 +4.390776E-03 +5.545640E+00 +4.390776E-03 +4.724192E+02 +2.212485E+01 +5.545640E+00 +2.212485E+01 +3.890624E+02 
 +8.519159E+02 +2.335250E+00 -4.309065E+00 +2.335250E+00 +4.669435E+02 +2.072183E+01 -4.309065E+00 +2.072183E+01 +3.816945E+02 
 +8.442248E+02 +3.423205E+00 -1.146663E+01 +3.423205E+00 +4.557496E+02 +2.661148E+01 -1.146663E+01 +2.661148E+01 +3.820285E+02 
 +8.343098E+02 +8.024268E+00 +5.443164E+00 +8.024268E+00 +4.446351E+02 +2.443411E+01 +5.443164E+00 +2.443411E+01 +3.623294E+02 
 +8.695947E+02 +9.757885E+00 -1.067177E+00 +9.757885E+00 +4.799451E+02 +9.734814E+00 -1.067177E+00 +9.734814E+00 +3.410853E+02 
 +8.767524E+02 -1.396249E+00 -7.086214E+00 -1.396249E+00 +4.942254E+02 +1.811760E+00 -7.086214E+00 +1.811760E+00 +3.268251E+02 
 +8.830215E+02 -1.511540E+01 -4.330003E+00 -1.511540E+01 +4.932330E+02 +2.394602E-01 -4.330003E+00 +2.394602E-01 +3.467958E+02 
 +8.790208E+02 -2.793488E+01 +1.759799E+00 -2.793488E+01 +5.209749E+02 -3.188528E+00 +1.759799E+00 -3.188528E+00 +3.858692E+02 
 +8.827688E+02 -1.490179E+01 -4.528406E+00 -1.490179E+01 +5.472358E+02 -7.509087E-01 -4.528406E+00 -7.509087E-01 +3.953757E+02 
 +8.678566E+02 -9.368369E+00 -3.074541E-01 -9.368369E+00 +5.223170E+02 +4.435810E+00 -3.074541E-01 +4.435810E+00 +3.827550E+02 
 +8.761802E+02 +2.474296E+00 -1.257292E+00 +2.474296E+00 +4.897867E+02 +1.387177E+01 -1.257292E+00 +1.387177E+01 +3.768184E+02 
 +8.585625E+02 -3.240256E+00 -2.592543E-01 -3.240256E+00 +4.583236E+02 +9.981612E+00 -2.592543E-01 +9.981612E+00 +3.680584E+02 
 +8.508010E+02 -1.057718E+00 -2.318420E+00 -1.057718E+00 +4.544612E+02 +9.010315E+00 -2.318420E+00 +9.010315E+00 +3.619832E+02 
 +8.353515E+02 +7.847257E+00 +1.396230E+01 +7.847257E+00 +4.593678E+02 +7.787477E+00 +1.396230E+01 +7.787477E+00 +3.538778E+02 
 +8.431152E+02 +6.808535E-01 +9.559702E+00 +6.808535E-01 +4.686896E+02 +7.655809E+00 +9.559702E+00 +7.655809E+00 +3.592645E+02 
 +8.458719E+02 +2.188027E+00 +1.046409E+01 +2.188027E+00 +4.718907E+02 -2.630089E+00 +1.046409E+01 -2.630089E+00 +3.764530E+02 
 +8.707387E+02 +1.374880E+00 -1.089893E+01 +1.374880E+00 +4.914744E+02 -1.046521E+01 -1.089893E+01 -1.046521E+01 +3.967669E+02 
 +8.846726E+02 +9.337997E-01 -6.567165E+00 +9.337997E-01 +4.976639E+02 +1.569257E+00 -6.567165E+00 +1.569257E+00 +3.955185E+02 
 +8.651063E+02 +1.418468E-01 -7.444006E+00 +1.418468E-01 +4.813713E+02 +1.492016E+01 -7.444006E+00 +1.492016E+01 +3.863446E+02 
 +8.565605E+02 -5.622163E+00 +2.128901E+00 -5.622163E+00 +4.755265E+02 +2.229726E+01 +2.128901E+00 +2.229726E+01 +3.789386E+02 
 +8.574000E+02 -7.416681E+00 +7.380232E+00 -7.416681E+00 +4.778293E+02 +2.446595E+01 +7.380232E+00 +2.446595E+01 +3.751328E+02 
 +8.553523E+02 -2.174616E+00 +1.509385E+00 -2.174616E+00 +4.760125E+02 +2.265735E+01 +1.509385E+00 +2.265735E+01 +3.719256E+02 
 +8.551738E+02 +2.968854E+00 -8.263038E+00 +2.968854E+00 +4.723975E+02 +2.213361E+01 -8.263038E+00 +2.213361E+01 +3.746201E+02 
 +8.640673E+02 +8.347882E+00 -5.446760E+00 +8.347882E+00 +4.944051E+02 +1.867372E+01 -5.446760E+00 +1.867372E+01 +4.002973E+02 
 +8.454679E+02 +1.157921E+01 -3.155713E+00 +1.157921E+01 +5.004282E+02 +2.208502E+00 -3.155713E+00 +2.208502E+00 +4.044131E+02 
 +8.822105E+02 +5.900741E+00 +1.203363E+00 +5.900741E+00 +5.006914E+02 -1.164383E+01 +1.203363E+00 -1.164383E+01 +3.980096E+02 
 +8.870697E+02 -1.310400E+01 -1.003075E+00 -1.310400E+01 +4.858976E+02 -6.707784E+00 -1.003075E+00 -6.707784E+00 +3.745448E+02 
 +8.961090E+02 -2.991702E+01 -4.390707E+00 -2.991702E+01 +5.001081E+02 -2.161749E+00 -4.390707E+00 -2.161749E+00 +3.786337E+02 
 +8.768504E+02 -1.578892E+01 -4.458797E-01 -1.578892E+01 +5.217043E+02 -1.547470E+01 -4.458797E-01 -1.547470E+01 +3.408106E+02 
 +8.744048E+02 -7.928645E+00 -7.047940E+00 -7.928645E+00 +5.240849E+02 -1.998077E+01 -7.047940E+00 -1.998077E+01 +3.231215E+02 
 +8.728290E+02 -5.405914E+00 -4.076938E+00 -5.405914E+00 +5.136372E+02 -9.926589E+00 -4.076938E+00 -9.926589E+00 +3.328698E+02 
 +8.691572E+02 +1.887181E+00 -3.995212E+00 +1.887181E+00 +4.936270E+02 +1.073200E+01 -3.995212E+00 +1.073200E+01 +3.549144E+02 
 +8.690079E+02 +3.912096E+00 -5.922678E+00 +3.912096E+00 +4.894188E+02 +1.751701E+01 -5.922678E+00 +1.751701E+01 +3.688275E+02 
 +8.513083E+02 +9.003092E+00 +9.390716E+00 +9.003092E+00 +4.961872E+02 +1.240494E+01 +9.390716E+00 +1.240494E+01 +3.644499E+02 
 +8.411091E+02 +1.139920E+01 +1.244487E+01 +1.139920E+01 +4.836670E+02 +1.308795E+01 +1.244487E+01 +1.308795E+01 +3.524359E+02 
 +8.359778E+02 +1.725423E+00 +1.181784E+01 +1.725423E+00 +4.695714E+02 +1.079570E+01 +1.181784E+01 +1.079570E+01 +3.424264E+02 
 +8.395140E+02 -9.845661E-01 +1.536463E+01 -9.845661E-01 +4.736070E+02 +4.356671E+00 +1.536463E+01 +4.356671E+00 +3.608692E+02 
 +8.651446E+02 -5.501518E-01 +5.918777E+00 -5.501518E-01 +4.843753E+02 +1.772889E+00 +5.918777E+00 +1.772889E+00 +3.860916E+02 
 +8.894971E+02 +1.783220E-01 -5.275774E+00 +1.783220E-01 +4.929673E+02 +9.275991E+00 -5.275774E+00 +9.275991E+00 +3.874923E+02 
 +8.742491E+02 -3.719665E+00 -4.288031E+00 -3.719665E+00 +4.811128E+02 +1.314914E+01 -4.288031E+00 +1.314914E+01 +3.772926E+02 
 +8.678887E+02 -6.046441E+00 +9.562674E+00 -6.046441E+00 +4.769898E+02 +2.025645E+01 +9.562674E+00 +2.025645E+01 +3.650380E+02 
 +8.707607E+02 -6.642449E+00 +2.894568E+00 -6.642449E+00 +4.876859E+02 +2.669773E+01 +2.894568E+00 +2.669773E+01 +3.585880E+02 
 +8.591563E+02 -6.993824E+00 -7.809832E+00 -6.993824E+00 +4.844052E+02 +2.356047E+01 -7.809832E+00 +2.356047E+01 +3.617543E+02 
 +8.594520E+02 -3.843669E+00 -9.171123E+00 -3.843669E+00 +4.852303E+02 +1.182749E+01 -9.171123E+00 +1.182749E+01 +3.757003E+02 
 +8.591526E+02 +7.851402E+00 -6.459920E+00 +7.851402E+00 +5.096640E+02 -1.683009E+00 -6.459920E+00 -1.683009E+00 +3.929622E+02 
 +8.789180E+02 +7.760776E+00 -5.822855E+00 +7.760776E+00 +5.407748E+02 -6.627887E+00 -5.822855E+00 -6.627887E+00 +4.206481E+02 
 +8.906230E+02 +1.102161E+01 +4.460754E+00 +1.102161E+01 +5.384201E+02 -3.231048E+00 +4.460754E+00 -3.231048E+00 +4.320586E+02 
 +9.089081E+02 -2.322899E+00 +4.158302E+00 -2.322899E+00 +5.318682E+02 +5.531858E-01 +4.158302E+00 +5.531858E-01 +4.208063E+02 
 +8.834981E+02 -2.117574E+01 -5.389672E+00 -2.117574E+01 +5.132110E+02 -2.710852E+00 -5.389672E+00 -2.710852E+00 +3.753964E+02 
 +8.892023E+02 -6.580608E+00 -6.514747E+00 -6.580608E+00 +5.314514E+02 -7.795137E+00 -6.514747E+00 -7.795137E+00 +3.384509E+02 
 +8.842815E+02 -7.994151E+00 -1.055016E+01 -7.994151E+00 +5.160970E+02 -1.810791E+01 -1.055016E+01 -1.810791E+01 +3.091356E+02 
 +8.834578E+02 -1.179735E+01 -7.075769E+00 -1.179735E+01 +5.201176E+02 -2.403999E+01 -7.075769E+00 -2.403999E+01 +3.080576E+02 
 +8.760664E+02 -8.852850E+00 -5.059202E+00 -8.852850E+00 +5.241401E+02 -1.893539E+01 -5.059202E+00 -1.893539E+01 +3.282855E+02 
 +8.780943E+02 +3.912055E+00 -4.483483E+00 +3.912055E+00 +5.180809E+02 +5.436858E+00 -4.483483E+00 +5.436858E+00 +3.607770E+02 
 +8.273406E+02 +1.574824E+01 +1.623107E+01 +1.574824E+01 +4.833828E+02 +1.024641E+01 +1.623107E+01 +1.024641E+01 +3.512091E+02 
 +8.241598E+02 +9.380094E+00 +7.764969E+00 +9.380094E+00 +4.824177E+02 +7.427831E+00 +7.764969E+00 +7.427831E+00 +3.458950E+02 
 +8.363426E+02 +4.356675E+00 +1.110040E+01 +4.356675E+00 +4.840635E+02 +8.044116E+00 +1.110040E+01 +8.044116E+00 +3.426921E+02 
 +8.360852E+02 +1.485103E+00 +2.202172E+01 +1.485103E+00 +4.790266E+02 +5.161499E+00 +2.202172E+01 +5.161499E+00 +3.511660E+02 
 +8.520302E+02 -1.197895E+00 +1.708825E+01 -1.197895E+00 +4.782865E+02 +4.924618E+00 +1.708825E+01 +4.924618E+00 +3.650646E+02 
 +8.865583E+02 -3.291417E+00 +1.338449E+00 -3.291417E+00 +4.863796E+02 +1.086501E+01 +1.338449E+00 +1.086501E+01 +3.651610E+02 
 +8.838704E+02 -6.535066E+00 +2.096502E-01 -6.535066E+00 +4.792271E+02 +3.786777E+00 +2.096502E-01 +3.786777E+00 +3.661526E+02 
 +8.809531E+02 -5.522449E+00 +7.396661E+00 -5.522449E+00 +4.765698E+02 -1.258380E+01 +7.396661E+00 -1.258380E+01 +3.761349E+02 
 +8.789701E+02 -5.465387E+00 +2.455954E+00 -5.465387E+00 +4.856732E+02 -1.795729E+01 +2.455954E+00 -1.795729E+01 +3.779529E+02 
 +8.755800E+02 -1.210508E+01 -7.261435E+00 -1.210508E+01 +4.972122E+02 -1.535602E+01 -7.261435E+00 -1.535602E+01 +3.868059E+02 
 +8.487482E+02 -3.231069E+00 -1.447432E+01 -3.231069E+00 +5.027606E+02 -1.032725E+01 -1.447432E+01 -1.032725E+01 +3.926406E+02 
 +8.600187E+02 +4.051641E+00 -5.640909E+00 +4.051641E+00 +5.067291E+02 -6.719113E+00 -5.640909E+00 -6.719113E+00 +4.036055E+02 
 +8.770541E+02 -1.402585E+00 +3.820382E+00 -1.402585E+00 +4.832522E+02 -1.803591E+00 +3.820382E+00 -1.803591E+00 +4.106422E+02 
 +8.577501E+02 +4.265605E+00 +5.982580E+00 +4.265605E+00 +4.633666E+02 +4.197904E+00 +5.982580E+00 +4.197904E+00 +4.115174E+02 
 +8.830416E+02 +5.485050E+00 -1.075581E+00 +5.485050E+00 +5.064901E+02 +8.798694E+00 -1.075581E+00 +8.798694E+00 +4.326616E+02 
 +8.714080E+02 -8.357877E+00 -1.298941E+01 -8.357877E+00 +5.277316E+02 +5.836729E+00 -1.298941E+01 +5.836729E+00 +3.912041E+02 
 +8.921103E+02 -5.269464E-01 -8.381383E+00 -5.269464E-01 +5.334131E+02 -3.113353E+00 -8.381383E+00 -3.113353E+00 +3.543349E+02 
 +8.895163E+02 -8.230273E+00 -1.074962E+01 -8.230273E+00 +5.278927E+02 -1.099817E+01 -1.074962E+01 -1.099817E+01 +3.230611E+02 
 +8.789945E+02 -1.197211E+01 -1.124950E+01 -1.197211E+01 +5.058575E+02 -1.908910E+01 -1.124950E+01 -1.908910E+01 +2.945204E+02 
 +8.670195E+02 -9.519146E+00 -4.366981E+00 -9.519146E+00 +4.939729E+02 -2.100979E+01 -4.366981E+00 -2.100979E+01 +3.053505E+02 
 +8.492926E+02 -3.226640E+00 -1.363040E+00 -3.226640E+00 +5.013140E+02 -2.512358E+00 -1.363040E+00 -2.512358E+00 +3.489641E+02 
 +8.312815E+02 +5.411006E+00 +7.145965E+00 +5.411006E+00 +5.104879E+02 +5.329059E+00 +7.145965E+00 +5.329059E+00 +3.651099E+02 
 +8.424981E+02 +3.256243E-01 +6.504720E+00 +3.256243E-01 +5.159803E+02 +2.134647E+00 +6.504720E+00 +2.134647E+00 +3.691082E+02 
 +8.578670E+02 +1.900099E+00 +9.687696E+00 +1.900099E+00 +5.159096E+02 +5.983294E-01 +9.687696E+00 +5.983294E-01 +3.777835E+02 
 +8.534113E+02 -3.938758E-01 +1.723054E+01 -3.938758E-01 +5.103736E+02 -3.241598E+00 +1.723054E+01 -3.241598E+00 +3.755702E+02 
 +8.602131E+02 -1.804821E+00 +1.582979E+01 -1.804821E+00 +5.059963E+02 -5.844167E+00 +1.582979E+01 -5.844167E+00 +3.581211E+02 
 +8.997784E+02 -1.747887E-01 +7.891556E+00 -1.747887E-01 +5.003811E+02 -1.675496E+01 +7.891556E+00 -1.675496E+01 +3.595818E+02 
 +8.849648E+02 -2.174303E+00 -4.391732E-01 -2.174303E+00 +4.724408E+02 -3.360161E+01 -4.391732E-01 -3.360161E+01 +3.696597E+02 
 +8.828358E+02 -3.728067E+00 +3.229691E+00 -3.728067E+00 +4.812232E+02 -3.289496E+01 +3.229691E+00 -3.289496E+01 +3.939690E+02 
 +8.869225E+02 -7.602060E+00 +1.054073E+01 -7.602060E+00 +4.940947E+02 -3.124533E+01 +1.054073E+01 -3.124533E+01 +4.054562E+02 
 +8.945709E+02 -1.437838E+01 +4.782994E+00 -1.437838E+01 +5.164558E+02 -3.107912E+01 +4.782994E+00 -3.107912E+01 +4.169655E+02 
 +8.334871E+02 -4.703096E+00 -7.398056E+00 -4.703096E+00 +4.872406E+02 -1.527142E+01 -7.398056E+00 -1.527142E+01 +3.945409E+02 
 +8.609340E+02 -2.443718E+00 -2.315673E+00 -2.443718E+00 +4.663625E+02 -7.569179E+00 -2.315673E+00 -7.569179E+00 +3.931486E+02 
 +8.643788E+02 +3.831174E+00 +7.507350E+00 +3.831174E+00 +4.571885E+02 -8.729078E-01 +7.507350E+00 -8.729078E-01 +3.972998E+02 
 +8.680261E+02 +4.378787E+00 +6.326301E+00 +4.378787E+00 +4.762687E+02 +6.481420E+00 +6.326301E+00 +6.481420E+00 +4.178696E+02 
 +8.546170E+02 +6.089964E+00 +2.657257E+00 +6.089964E+00 +4.774809E+02 +7.644424E+00 +2.657257E+00 +7.644424E+00 +4.186076E+02 
 +8.707274E+02 +1.198892E+00 -1.169235E+01 +1.198892E+00 +5.042001E+02 +3.528319E+00 -1.169235E+01 +3.528319E+00 +3.921700E+02 
 +8.963235E+02 +1.492266E+00 +2.209785E+00 +1.492266E+00 +5.288145E+02 -1.012798E+01 +2.209785E+00 -1.012798E+01 +3.478973E+02 
 +9.016528E+02 -7.327188E+00 -1.610301E+00 -7.327188E+00 +5.420159E+02 -1.512422E+01 -1.610301E+00 -1.512422E+01 +3.441143E+02 
 +8.896274E+02 -1.236906E+01 -4.799529E+00 -1.236906E+01 +5.240464E+02 -2.778794E+01 -4.799529E+00 -2.778794E+01 +3.265422E+02 
 +8.871679E+02 -1.054135E+01 +3.799648E-01 -1.054135E+01 +5.376790E+02 -2.746219E+01 +3.799648E-01 -2.746219E+01 +3.435775E+02 
 +8.370721E+02 -9.271094E+00 -1.844942E+00 -9.271094E+00 +5.329572E+02 -1.646612E+01 -1.844942E+00 -1.646612E+01 +3.583642E+02 
 +8.374787E+02 -1.091163E-01 -9.067022E-01 -1.091163E-01 +5.151107E+02 -1.438302E+00 -9.067022E-01 -1.438302E+00 +3.657371E+02 
 +8.473842E+02 +1.117031E+00 +4.938174E+00 +1.117031E+00 +5.050520E+02 +4.784952E+00 +4.938174E+00 +4.784952E+00 +3.749607E+02 
 +8.651470E+02 +1.559363E+00 +4.592967E+00 +1.559363E+00 +5.203484E+02 -3.905579E+00 +4.592967E+00 -3.905579E+00 +3.930860E+02 
 +8.610930E+02 +3.373902E+00 +1.061448E+01 +3.373902E+00 +5.126154E+02 -8.792122E+00 +1.061448E+01 -8.792122E+00 +3.762175E+02 
 +8.805817E+02 +6.878222E+00 +7.335168E+00 +6.878222E+00 +5.076330E+02 -1.144296E+01 +7.335168E+00 -1.144296E+01 +3.493213E+02 
 +9.068888E+02 +4.281153E+00 +7.426281E-01 +4.281153E+00 +5.243192E+02 -1.646963E+01 +7.426281E-01 -1.646963E+01 +3.642698E+02 
 +9.175369E+02 +2.896855E+00 +2.454724E+00 +2.896855E+00 +5.498099E+02 -1.356764E+01 +2.454724E+00 -1.356764E+01 +3.982119E+02 
 +9.157322E+02 +4.006223E+00 +6.050694E+00 +4.006223E+00 +5.561826E+02 -1.242038E+01 +6.050694E+00 -1.242038E+01 +4.098383E+02 
 +9.092660E+02 -1.707705E+00 +1.112464E+01 -1.707705E+00 +5.430675E+02 -2.912875E+01 +1.112464E+01 -2.912875E+01 +4.153769E+02 
 +8.955770E+02 -1.800803E+00 +6.246150E+00 -1.800803E+00 +5.250899E+02 -4.039765E+01 +6.246150E+00 -4.039765E+01 +4.214194E+02 
 +8.576569E+02 -3.219921E+00 +8.262675E+00 -3.219921E+00 +4.811105E+02 -3.226014E+01 +8.262675E+00 -3.226014E+01 +4.049683E+02 
 +8.472504E+02 -7.490567E+00 +8.384733E+00 -7.490567E+00 +4.484913E+02 -2.112031E+01 +8.384733E+00 -2.112031E+01 +3.819596E+02 
 +8.473945E+02 +2.191046E+00 +5.501104E+00 +2.191046E+00 +4.502447E+02 -6.639765E+00 +5.501104E+00 -6.639765E+00 +3.812835E+02 
 +8.665161E+02 +4.737655E+00 +4.781516E+00 +4.737655E+00 +4.872123E+02 +5.420705E+00 +4.781516E+00 +5.420705E+00 +4.048403E+02 
 +8.511051E+02 +9.302768E+00 +1.267251E+01 +9.302768E+00 +4.982843E+02 +3.479635E+00 +1.267251E+01 +3.479635E+00 +3.909344E+02 
 +8.920822E+02 +3.232451E+00 +1.943432E+00 +3.232451E+00 +5.186049E+02 -1.086848E+01 +1.943432E+00 -1.086848E+01 +3.704222E+02 
 +8.920643E+02 +1.719228E+00 +1.218835E+01 +1.719228E+00 +4.992340E+02 -2.614184E+01 +1.218835E+01 -2.614184E+01 +3.550131E+02 
 +8.972518E+02 -9.870003E+00 +8.315628E+00 -9.870003E+00 +5.135479E+02 -3.120200E+01 +8.315628E+00 -3.120200E+01 +3.700231E+02 
 +8.861744E+02 -2.326268E+01 +8.776931E+00 -2.326268E+01 +5.378987E+02 -2.614333E+01 +8.776931E+00 -2.614333E+01 +3.684415E+02 
 +8.681468E+02 -1.746789E+01 +6.608234E+00 -1.746789E+01 +5.336915E+02 -1.727260E+01 +6.608234E+00 -1.727260E+01 +3.622006E+02 
 +8.328873E+02 -1.058487E+01 +3.487203E+00 -1.058487E+01 +5.100166E+02 -1.664035E+01 +3.487203E+00 -1.664035E+01 +3.578936E+02 
 +8.558345E+02 +4.062742E-01 +3.505955E+00 +4.062742E-01 +5.135649E+02 -1.964596E+01 +3.505955E+00 -1.964596E+01 +3.621023E+02 
 +8.455392E+02 +9.797047E+00 +8.855035E-02 +9.797047E+00 +4.933062E+02 -1.958660E+01 +8.855035E-02 -1.958660E+01 +3.627865E+02 
 +8.519497E+02 +1.542127E+01 -1.488273E-01 +1.542127E+01 +4.917390E+02 -1.314723E+01 -1.488273E-01 -1.314723E+01 +3.710538E+02 
 +8.699486E+02 +1.636872E+01 +8.508594E+00 +1.636872E+01 +5.051326E+02 -1.243944E+01 +8.508594E+00 -1.243944E+01 +3.586820E+02 
 +8.949103E+02 +9.668465E+00 +7.230739E-01 +9.668465E+00 +5.257177E+02 -2.061357E+01 +7.230739E-01 -2.061357E+01 +3.519326E+02 
 +8.945784E+02 +4.347810E+00 -2.049170E+00 +4.347810E+00 +5.331005E+02 -1.987574E+01 -2.049170E+00 -1.987574E+01 +3.567133E+02 
 +8.935975E+02 +2.918446E+00 -9.746467E-01 +2.918446E+00 +5.286001E+02 -1.953956E+01 -9.746467E-01 -1.953956E+01 +3.690814E+02 
 +8.932983E+02 +2.594778E+00 +3.961633E+00 +2.594778E+00 +5.152796E+02 -3.331004E+01 +3.961633E+00 -3.331004E+01 +3.818374E+02 
 +9.008949E+02 +2.184370E+00 +8.081732E+00 +2.184370E+00 +5.214912E+02 -3.942209E+01 +8.081732E+00 -3.942209E+01 +4.031545E+02 
 +9.057247E+02 +6.533391E+00 +3.552193E+00 +6.533391E+00 +5.181120E+02 -3.129314E+01 +3.552193E+00 -3.129314E+01 +4.111462E+02 
 +8.705996E+02 +5.252140E+00 +1.173067E+01 +5.252140E+00 +4.944276E+02 -1.926357E+01 +1.173067E+01 -1.926357E+01 +3.967668E+02 
 +8.592539E+02 +2.245325E+00 +8.816711E+00 +2.245325E+00 +5.088934E+02 -2.025376E+01 +8.816711E+00 -2.025376E+01 +3.931494E+02 
 +8.714838E+02 +1.507154E+01 +1.112552E+00 +1.507154E+01 +5.256708E+02 -1.438635E+01 +1.112552E+00 -1.438635E+01 +4.041278E+02 
 +8.859299E+02 +1.758867E+01 +3.548432E+00 +1.758867E+01 +5.309949E+02 +2.541356E+00 +3.548432E+00 +2.541356E+00 +4.191561E+02 
 +8.547976E+02 +1.478369E+01 +1.671473E+01 +1.478369E+01 +5.083513E+02 +1.296979E+00 +1.671473E+01 +1.296979E+00 +3.925486E+02 
 +8.914316E+02 +5.736863E+00 +1.180177E+01 +5.736863E+00 +5.161925E+02 -1.636888E+01 +1.180177E+01 -1.636888E+01 +3.703240E+02 
 +8.999594E+02 +2.107310E+00 +7.922457E+00 +2.107310E+00 +5.246800E+02 -2.749351E+01 +7.922457E+00 -2.749351E+01 +3.708198E+02 
 +8.942458E+02 -4.621519E+00 +6.837558E+00 -4.621519E+00 +5.301632E+02 -3.076835E+01 +6.837558E+00 -3.076835E+01 +3.808643E+02 
 +8.677362E+02 -1.975078E+01 +1.406202E+01 -1.975078E+01 +5.170688E+02 -2.155840E+01 +1.406202E+01 -2.155840E+01 +3.709780E+02 
 +8.564140E+02 -1.143837E+01 +8.158935E+00 -1.143837E+01 +5.142156E+02 -9.979557E+00 +8.158935E+00 -9.979557E+00 +3.750843E+02 
 +8.608937E+02 -6.774327E+00 +1.762677E+00 -6.774327E+00 +5.144963E+02 -9.698175E+00 +1.762677E+00 -9.698175E+00 +3.900601E+02 
 +8.699903E+02 -3.785275E+00 +9.211129E+00 -3.785275E+00 +5.181794E+02 -1.488430E+01 +9.211129E+00 -1.488430E+01 +3.848425E+02 
 +8.771314E+02 -1.869075E+00 +3.011063E+00 -1.869075E+00 +5.182559E+02 -1.346468E+01 +3.011063E+00 -1.346468E+01 +3.760624E+02 
 +8.668024E+02 +1.178739E+01 +1.604019E+00 +1.178739E+01 +5.008803E+02 -5.138829E+00 +1.604019E+00 -5.138829E+00 +3.704686E+02 
 +8.834417E+02 +1.643024E+01 +2.075456E+00 +1.643024E+01 +5.152496E+02 -5.622645E+00 +2.075456E+00 -5.622645E+00 +3.758897E+02 
 +9.035060E+02 +1.045921E+01 +2.816421E+00 +1.045921E+01 +5.429283E+02 -1.365520E+01 +2.816421E+00 -1.365520E+01 +3.887040E+02 
 +9.000921E+02 +5.543525E+00 +1.898556E+00 +5.543525E+00 +5.426859E+02 -1.550388E+01 +1.898556E+00 -1.550388E+01 +3.840802E+02 
 +8.863096E+02 +4.206872E+00 -7.066554E+00 +4.206872E+00 +5.254219E+02 -1.644035E+01 -7.066554E+00 -1.644035E+01 +3.534183E+02 
 +8.873546E+02 +1.950252E+00 +9.912227E-01 +1.950252E+00 +5.211978E+02 -2.432703E+01 +9.912227E-01 -2.432703E+01 +3.465466E+02 
 +8.927330E+02 -2.068992E+00 +6.884460E+00 -2.068992E+00 +5.088365E+02 -3.901083E+01 +6.884460E+00 -3.901083E+01 +3.615067E+02 
 +9.129138E+02 -4.531814E+00 +1.034239E+01 -4.531814E+00 +5.142387E+02 -3.490826E+01 +1.034239E+01 -3.490826E+01 +3.744134E+02 
 +8.643429E+02 +1.682844E-01 +9.709841E+00 +1.682844E-01 +4.999183E+02 -1.668436E+01 +9.709841E+00 -1.668436E+01 +3.571242E+02 
 +8.547042E+02 +5.423383E+00 -3.420668E+00 +5.423383E+00 +5.023551E+02 -7.461045E+00 -3.420668E+00 -7.461045E+00 +3.684114E+02 
 +8.389002E+02 +1.640465E+01 -4.706266E+00 +1.640465E+01 +4.969927E+02 -4.528007E-01 -4.706266E+00 -4.528007E-01 +3.868095E+02 
 +8.589166E+02 +1.983056E+01 -3.368819E-01 +1.983056E+01 +5.085552E+02 +7.769184E+00 -3.368819E-01 +7.769184E+00 +4.143034E+02 
 +8.504817E+02 +1.815173E+01 +1.319368E+01 +1.815173E+01 +5.011650E+02 +3.915758E+00 +1.319368E+01 +3.915758E+00 +4.002059E+02 
 +8.958699E+02 +6.757640E+00 +7.937350E+00 +6.757640E+00 +5.207209E+02 -1.516990E+01 +7.937350E+00 -1.516990E+01 +3.803468E+02 
 +8.835092E+02 +2.826454E+00 +7.483574E-01 +2.826454E+00 +5.180022E+02 -3.373819E+01 +7.483574E-01 -3.373819E+01 +3.558887E+02 
 +8.756229E+02 -1.775283E+00 +7.233307E-01 -1.775283E+00 +5.177293E+02 -3.424314E+01 +7.233307E-01 -3.424314E+01 +3.633496E+02 
 +8.618329E+02 -1.548793E+01 +1.000687E+01 -1.548793E+01 +5.099133E+02 -1.484638E+01 +1.000687E+01 -1.484638E+01 +3.694579E+02 
 +8.615355E+02 -7.856086E+00 +2.979996E+00 -7.856086E+00 +5.122721E+02 -1.203127E+00 +2.979996E+00 -1.203127E+00 +3.841787E+02 
 +8.744311E+02 -7.400926E+00 -1.485791E+00 -7.400926E+00 +5.207501E+02 -6.447771E-01 -1.485791E+00 -6.447771E-01 +4.056956E+02 
 +8.686440E+02 +3.022157E+00 +1.135268E+01 +3.022157E+00 +5.101070E+02 -6.629679E+00 +1.135268E+01 -6.629679E+00 +4.010104E+02 
 +8.960112E+02 +8.434766E-01 +6.973616E+00 +8.434766E-01 +5.244987E+02 -1.299506E+01 +6.973616E+00 -1.299506E+01 +3.977458E+02 
 +8.874050E+02 +6.350914E+00 +8.771438E+00 +6.350914E+00 +5.248626E+02 -1.805330E+01 +8.771438E+00 -1.805330E+01 +4.024032E+02 
 +8.988537E+02 +1.220499E+01 +6.070194E+00 +1.220499E+01 +5.322325E+02 -1.664283E+01 +6.070194E+00 -1.664283E+01 +4.219353E+02 
 +9.090433E+02 +2.962663E+00 +1.379014E+01 +2.962663E+00 +5.312725E+02 -1.401912E+01 +1.379014E+01 -1.401912E+01 +4.288694E+02 
 +9.001922E+02 +2.296232E-01 +3.699900E+00 +2.296232E-01 +5.224971E+02 -8.402264E+00 +3.699900E+00 -8.402264E+00 +4.080263E+02 
 +8.941566E+02 +4.553217E+00 -6.671413E+00 +4.553217E+00 +5.252898E+02 +5.329236E-01 -6.671413E+00 +5.329236E-01 +3.664282E+02 
 +8.909628E+02 +3.113092E+00 -5.493260E+00 +3.113092E+00 +5.313450E+02 +1.948379E+00 -5.493260E+00 +1.948379E+00 +3.514866E+02 
 +9.022985E+02 -5.660096E+00 +2.202948E+00 -5.660096E+00 +5.461916E+02 -2.213864E+00 +2.202948E+00 -2.213864E+00 +3.628916E+02 
 +9.095492E+02 -1.224424E+01 +9.153213E+00 -1.224424E+01 +5.459051E+02 -5.792735E+00 +9.153213E+00 -5.792735E+00 +3.588354E+02 
 +8.824118E+02 -1.320416E+01 +4.332100E+00 -1.320416E+01 +5.134706E+02 -1.629914E+01 +4.332100E+00 -1.629914E+01 +3.349960E+02 
 +8.645390E+02 -3.815110E+00 -1.346897E+00 -3.815110E+00 +5.021133E+02 -1.561692E+01 -1.346897E+00 -1.561692E+01 +3.321932E+02 
 +8.375003E+02 +1.266450E+01 -6.512140E+00 +1.266450E+01 +4.983995E+02 -2.340132E+00 -6.512140E+00 -2.340132E+00 +3.540882E+02 
 +8.413068E+02 +2.140066E+01 -7.972741E+00 +2.140066E+01 +5.061608E+02 +8.435090E+00 -7.972741E+00 +8.435090E+00 +4.011891E+02 
 +8.442026E+02 +2.053389E+01 +3.469421E+00 +2.053389E+01 +5.032839E+02 +6.856268E+00 +3.469421E+00 +6.856268E+00 +4.031147E+02 
 +8.929438E+02 +7.006947E+00 -1.472924E+00 +7.006947E+00 +5.218528E+02 -1.524195E+01 -1.472924E+00 -1.524195E+01 +3.777715E+02 
 +8.727962E+02 +5.720290E+00 -7.064546E+00 +5.720290E+00 +5.136276E+02 -3.769763E+01 -7.064546E+00 -3.769763E+01 +3.530565E+02 
 +8.666587E+02 -8.602357E-01 -8.539358E-01 -8.602357E-01 +5.068236E+02 -4.108153E+01 -8.539358E-01 -4.108153E+01 +3.559706E+02 
 +8.630666E+02 -1.174293E+01 +9.090068E+00 -1.174293E+01 +5.194538E+02 -2.298635E+01 +9.090068E+00 -2.298635E+01 +3.825526E+02 
 +8.795693E+02 -8.992762E+00 +2.050064E+00 -8.992762E+00 +5.359250E+02 -8.670715E+00 +2.050064E+00 -8.670715E+00 +4.084012E+02 
 +8.907261E+02 -7.659444E+00 +2.256446E+00 -7.659444E+00 +5.373913E+02 -4.146506E+00 +2.256446E+00 -4.146506E+00 +4.125583E+02 
 +8.978736E+02 +1.786642E+00 +8.503295E+00 +1.786642E+00 +5.347973E+02 -5.421405E+00 +8.503295E+00 -5.421405E+00 +4.065459E+02 
 +8.880752E+02 +7.355310E+00 +9.453383E+00 +7.355310E+00 +5.251077E+02 -6.235290E+00 +9.453383E+00 -6.235290E+00 +4.012763E+02 
 +8.838836E+02 +5.176115E+00 +1.817781E+01 +5.176115E+00 +5.241555E+02 -5.707824E+00 +1.817781E+01 -5.707824E+00 +4.121826E+02 
 +8.876618E+02 +1.196436E+01 +1.663199E+01 +1.196436E+01 +5.196427E+02 -9.668568E+00 +1.663199E+01 -9.668568E+00 +4.173788E+02 
 +9.006619E+02 -1.676509E+00 +2.069620E+01 -1.676509E+00 +5.171028E+02 -1.383097E+01 +2.069620E+01 -1.383097E+01 +4.150779E+02 
 +8.956155E+02 +3.817820E-02 +2.814036E+00 +3.817820E-02 +5.041923E+02 -1.223086E+01 +2.814036E+00 -1.223086E+01 +3.985441E+02 
 +8.815193E+02 -5.788261E-01 -6.949776E+00 -5.788261E-01 +4.875553E+02 -9.544500E+00 -6.949776E+00 -9.544500E+00 +3.794703E+02 
 +8.700118E+02 -4.781097E+00 -9.434130E+00 -4.781097E+00 +4.787253E+02 -9.858750E+00 -9.434130E+00 -9.858750E+00 +3.787060E+02 
 +8.720009E+02 -7.710545E+00 -5.327957E+00 -7.710545E+00 +4.921003E+02 -1.366502E+01 -5.327957E+00 -1.366502E+01 +3.789609E+02 
 +8.774944E+02 -1.032785E+01 +2.835527E+00 -1.032785E+01 +5.070021E+02 -1.322471E+01 +2.835527E+00 -1.322471E+01 +3.574482E+02 
 +8.871850E+02 -1.059221E+01 +1.962300E+00 -1.059221E+01 +5.181377E+02 -8.279639E+00 +1.962300E+00 -8.279639E+00 +3.332393E+02 
 +8.699190E+02 -8.002822E+00 +5.228517E+00 -8.002822E+00 +5.137527E+02 -5.620804E+00 +5.228517E+00 -5.620804E+00 +3.109188E+02 
 +8.660926E+02 -1.827156E+00 -2.312053E+00 -1.827156E+00 +5.152289E+02 -4.612180E+00 -2.312053E+00 -4.612180E+00 +3.359461E+02 
 +8.465916E+02 +1.440777E+01 -7.612169E+00 +1.440777E+01 +5.111109E+02 +4.086594E+00 -7.612169E+00 +4.086594E+00 +3.871469E+02 
 +8.402666E+02 +2.195922E+01 -5.661210E+00 +2.195922E+01 +5.035340E+02 +2.066052E+00 -5.661210E+00 +2.066052E+00 +3.912410E+02 
 +8.739247E+02 +1.387074E+01 -9.117410E+00 +1.387074E+01 +5.157124E+02 -1.947428E+01 -9.117410E+00 -1.947428E+01 +3.701053E+02 
 +8.602783E+02 +5.742114E+00 -4.665706E+00 +5.742114E+00 +5.193347E+02 -3.320943E+01 -4.665706E+00 -3.320943E+01 +3.398133E+02 
 +8.836833E+02 -2.630498E+00 +3.191180E+00 -2.630498E+00 +5.509125E+02 -1.978047E+01 +3.191180E+00 -1.978047E+01 +3.527125E+02 
 +8.906674E+02 -7.654160E+00 +4.847856E+00 -7.654160E+00 +5.644708E+02 -7.324280E+00 +4.847856E+00 -7.324280E+00 +3.800378E+02 
 +8.946442E+02 -7.367108E+00 +3.331305E+00 -7.367108E+00 +5.607160E+02 +1.460763E+00 +3.331305E+00 +1.460763E+00 +3.927250E+02 
 +8.970513E+02 -1.927702E+00 +5.096849E+00 -1.927702E+00 +5.445661E+02 +1.079490E+01 +5.096849E+00 +1.079490E+01 +3.903299E+02 
 +9.034067E+02 +1.585529E+00 +4.924000E+00 +1.585529E+00 +5.384871E+02 +1.179658E+01 +4.924000E+00 +1.179658E+01 +3.969095E+02 
 +8.768887E+02 +5.067233E+00 +1.014112E+01 +5.067233E+00 +5.228669E+02 +5.709165E+00 +1.014112E+01 +5.709165E+00 +3.968736E+02 
 +8.720250E+02 +3.056570E+00 +2.163798E+01 +3.056570E+00 +5.142588E+02 -5.559965E-01 +2.163798E+01 -5.559965E-01 +3.941413E+02 
 +8.727501E+02 +1.112931E+01 +1.904207E+01 +1.112931E+01 +5.018230E+02 -4.033429E+00 +1.904207E+01 -4.033429E+00 +3.837910E+02 
 +8.888830E+02 +1.181540E+00 +1.723385E+01 +1.181540E+00 +4.993633E+02 -9.533214E+00 +1.723385E+01 -9.533214E+00 +3.875501E+02 
 +8.863466E+02 +3.833893E+00 +4.580601E+00 +3.833893E+00 +4.927039E+02 -1.319388E+01 +4.580601E+00 -1.319388E+01 +3.875253E+02 
 +8.805985E+02 +3.040175E+00 -2.961485E+00 +3.040175E+00 +4.909755E+02 -1.066505E+01 -2.961485E+00 -1.066505E+01 +3.893552E+02 
 +8.672981E+02 -2.774806E+00 -8.258904E+00 -2.774806E+00 +4.794357E+02 -1.119562E+01 -8.258904E+00 -1.119562E+01 +3.833221E+02 
 +8.560489E+02 -2.299835E+00 -1.256803E+01 -2.299835E+00 +4.610826E+02 -1.617359E+01 -1.256803E+01 -1.617359E+01 +3.735597E+02 
 +8.591068E+02 -3.807931E+00 -2.968999E+00 -3.807931E+00 +4.748757E+02 -1.905222E+01 -2.968999E+00 -1.905222E+01 +3.685244E+02 
 +8.762222E+02 -7.989529E+00 +6.913501E+00 -7.989529E+00 +5.134832E+02 -1.357966E+01 +6.913501E+00 -1.357966E+01 +3.529263E+02 
 +8.771645E+02 -8.811360E+00 +6.288954E+00 -8.811360E+00 +5.249246E+02 -7.006786E+00 +6.288954E+00 -7.006786E+00 +3.294096E+02 
 +8.769918E+02 -6.883057E+00 +1.736825E-02 -6.883057E+00 +5.270446E+02 -3.363705E+00 +1.736825E-02 -3.363705E+00 +3.369052E+02 
 +8.635850E+02 -9.862092E-01 -5.290815E+00 -9.862092E-01 +5.184256E+02 -4.863779E+00 -5.290815E+00 -4.863779E+00 +3.570290E+02 
 +8.521371E+02 +8.911677E+00 -7.599770E+00 +8.911677E+00 +5.050872E+02 -1.445511E+01 -7.599770E+00 -1.445511E+01 +3.593717E+02 
 +8.557034E+02 +1.202650E+01 -9.586426E+00 +1.202650E+01 +5.067239E+02 -2.893692E+01 -9.586426E+00 -2.893692E+01 +3.532085E+02 
 +8.758173E+02 +4.732277E+00 +6.301071E+00 +4.732277E+00 +5.451304E+02 -2.305647E+01 +6.301071E+00 -2.305647E+01 +3.655248E+02 
 +8.834918E+02 -5.861722E+00 +6.158579E+00 -5.861722E+00 +5.423202E+02 -1.542432E+01 +6.158579E+00 -1.542432E+01 +3.673636E+02 
 +8.819999E+02 -9.812786E+00 -1.087738E+00 -9.812786E+00 +5.268020E+02 -7.774089E+00 -1.087738E+00 -7.774089E+00 +3.610590E+02 
 +8.879218E+02 -1.091706E+01 -7.023225E-01 -1.091706E+01 +5.271236E+02 +1.154057E-01 -7.023225E-01 +1.154057E-01 +3.588951E+02 
 +8.984648E+02 -5.599516E+00 +7.474723E+00 -5.599516E+00 +5.309364E+02 +8.069121E+00 +7.474723E+00 +8.069121E+00 +3.827900E+02 
 +8.938097E+02 +6.177741E+00 +6.017329E+00 +6.177741E+00 +5.315504E+02 +7.592554E+00 +6.017329E+00 +7.592554E+00 +4.057750E+02 
 +8.794516E+02 +1.184379E+01 -2.690432E-01 +1.184379E+01 +5.282036E+02 -2.197246E+00 -2.690432E-01 -2.197246E+00 +4.006304E+02 
 +8.720786E+02 +8.475002E+00 +2.126430E+01 +8.475002E+00 +5.182504E+02 -9.586804E+00 +2.126430E+01 -9.586804E+00 +3.854253E+02 
 +8.625729E+02 +8.102618E+00 +2.023974E+01 +8.102618E+00 +4.828032E+02 -6.844401E+00 +2.023974E+01 -6.844401E+00 +3.730260E+02 
 +8.772004E+02 +4.967880E+00 +1.419921E+01 +4.967880E+00 +4.722724E+02 -2.890522E+00 +1.419921E+01 -2.890522E+00 +3.903950E+02 
 +8.766221E+02 +7.817949E+00 +8.937708E+00 +7.817949E+00 +4.804742E+02 -1.353932E+01 +8.937708E+00 -1.353932E+01 +3.957521E+02 
 +8.791551E+02 +8.012869E+00 +4.016503E+00 +8.012869E+00 +4.854496E+02 -1.567697E+01 +4.016503E+00 -1.567697E+01 +3.956228E+02 
 +8.745951E+02 +3.526717E+00 -8.122700E+00 +3.526717E+00 +4.776740E+02 -1.354925E+01 -8.122700E+00 -1.354925E+01 +3.898003E+02 
 +8.512006E+02 +1.061699E+01 -6.739344E+00 +1.061699E+01 +4.690177E+02 -2.347245E+00 -6.739344E+00 -2.347245E+00 +3.750812E+02 
 +8.516653E+02 +1.349841E+01 -4.940992E+00 +1.349841E+01 +4.851693E+02 +4.035726E+00 -4.940992E+00 +4.035726E+00 +3.779638E+02 
 +8.575685E+02 +7.983495E+00 +2.346423E+00 +7.983495E+00 +4.985183E+02 +5.286438E-02 +2.346423E+00 +5.286438E-02 +3.715470E+02 
 +8.768005E+02 -1.718182E+00 +4.507792E+00 -1.718182E+00 +5.195512E+02 -8.276949E+00 +4.507792E+00 -8.276949E+00 +3.564791E+02 
 +8.679559E+02 -5.176642E+00 +5.997913E+00 -5.176642E+00 +5.216934E+02 -5.923208E+00 +5.997913E+00 -5.923208E+00 +3.468211E+02 
 +8.655985E+02 -4.785244E+00 -3.479685E+00 -4.785244E+00 +5.182394E+02 -9.978549E-01 -3.479685E+00 -9.978549E-01 +3.578383E+02 
 +8.665267E+02 -3.412912E+00 -3.637712E+00 -3.412912E+00 +5.096336E+02 -8.431656E+00 -3.637712E+00 -8.431656E+00 +3.629195E+02 
 +8.681674E+02 +3.801594E+00 +8.540184E-01 +3.801594E+00 +5.194745E+02 -2.247135E+01 +8.540184E-01 -2.247135E+01 +3.653273E+02 
 +8.635031E+02 +2.386610E+00 +6.549973E+00 +2.386610E+00 +4.668918E+02 -1.772314E+01 +6.549973E+00 -1.772314E+01 +3.892559E+02 
 +8.570929E+02 -4.999320E+00 +6.056640E+00 -4.999320E+00 +4.583641E+02 -1.029846E+01 +6.056640E+00 -1.029846E+01 +3.964581E+02 
 +8.562290E+02 -7.761860E+00 -3.510526E-01 -7.761860E+00 +4.504645E+02 +7.921263E-01 -3.510526E-01 +7.921263E-01 +3.769710E+02 
 +8.613782E+02 -1.037434E+01 +3.537105E+00 -1.037434E+01 +4.407496E+02 +1.227311E+01 +3.537105E+00 +1.227311E+01 +3.642943E+02 
 +8.674891E+02 -5.802349E+00 +7.324153E+00 -5.802349E+00 +4.651521E+02 +1.108287E+01 +7.324153E+00 +1.108287E+01 +3.891501E+02 
 +8.750312E+02 +9.592113E-01 +5.604562E+00 +9.592113E-01 +4.953321E+02 -1.129027E+01 +5.604562E+00 -1.129027E+01 +4.008674E+02 
 +8.603398E+02 +4.004252E+00 -3.103813E+00 +4.004252E+00 +4.844275E+02 -1.482800E+01 -3.103813E+00 -1.482800E+01 +3.822118E+02 
 +8.556051E+02 +3.028132E+00 +1.497639E+01 +3.028132E+00 +4.749147E+02 -8.145588E+00 +1.497639E+01 -8.145588E+00 +3.772604E+02 
 +8.526578E+02 -4.121043E+00 +1.435496E+01 -4.121043E+00 +4.639193E+02 -9.199083E+00 +1.435496E+01 -9.199083E+00 +3.753392E+02 
 +8.531293E+02 -3.797584E-01 +1.988317E+01 -3.797584E-01 +4.453882E+02 -2.533659E+00 +1.988317E+01 -2.533659E+00 +3.795752E+02 
 +8.611841E+02 +8.309605E+00 +1.092677E+01 +8.309605E+00 +4.468235E+02 -2.038049E+00 +1.092677E+01 -2.038049E+00 +3.949088E+02 
 +8.640008E+02 +5.105150E+00 +8.487064E-01 +5.105150E+00 +4.438491E+02 -8.271294E+00 +8.487064E-01 -8.271294E+00 +3.912144E+02 
 +8.613077E+02 +3.683194E+00 -8.062145E+00 +3.683194E+00 +4.494897E+02 -7.861964E+00 -8.062145E+00 -7.861964E+00 +3.808040E+02 
 +8.417346E+02 +1.064271E+01 +2.640892E+00 +1.064271E+01 +4.714628E+02 -3.302413E+00 +2.640892E+00 -3.302413E+00 +3.736077E+02 
 +8.462364E+02 +1.162633E+01 -4.073531E-01 +1.162633E+01 +4.881231E+02 -1.789912E+00 -4.073531E-01 -1.789912E+00 +3.735179E+02 
 +8.474562E+02 +1.291169E+01 -1.629010E+00 +1.291169E+01 +4.868828E+02 +2.995770E+00 -1.629010E+00 +2.995770E+00 +3.724133E+02 
 +8.511086E+02 +1.031592E+01 +3.896401E+00 +1.031592E+01 +4.840714E+02 +1.292698E+01 +3.896401E+00 +1.292698E+01 +3.590359E+02 
 +8.554726E+02 +8.327908E+00 +1.191312E+01 +8.327908E+00 +4.923365E+02 +1.867506E+01 +1.191312E+01 +1.867506E+01 +3.641839E+02 
 +8.616462E+02 +7.878699E+00 -1.273737E+00 +7.878699E+00 +5.140083E+02 +1.348084E+01 -1.273737E+00 +1.348084E+01 +3.944575E+02 
 +8.660485E+02 +3.639420E+00 -3.566083E-01 +3.639420E+00 +5.293779E+02 +2.112666E+00 -3.566083E-01 +2.112666E+00 +4.048335E+02 
 +8.682377E+02 +5.413794E-01 +9.590856E+00 +5.413794E-01 +5.082372E+02 -1.168877E+01 +9.590856E+00 -1.168877E+01 +3.955485E+02 
 +8.802723E+02 +3.850912E+00 +2.707677E+00 +3.850912E+00 +4.717482E+02 -1.769089E+01 +2.707677E+00 -1.769089E+01 +4.111378E+02 
 +8.709916E+02 +2.067336E+00 +8.385197E+00 +2.067336E+00 +4.531350E+02 -5.548638E+00 +8.385197E+00 -5.548638E+00 +4.043578E+02 
 +8.704884E+02 -5.150476E+00 +2.784722E+00 -5.150476E+00 +4.560900E+02 +7.174186E+00 +2.784722E+00 +7.174186E+00 +4.003347E+02 
 +8.765168E+02 -5.937066E+00 +5.297804E+00 -5.937066E+00 +4.751853E+02 +4.563679E+00 +5.297804E+00 +4.563679E+00 +4.037421E+02 
 +8.812626E+02 -3.197528E-02 +7.698179E+00 -3.197528E-02 +4.988478E+02 -1.185925E+01 +7.698179E+00 -1.185925E+01 +4.046092E+02 
 +8.787434E+02 +1.925987E+00 +4.413295E+00 +1.925987E+00 +4.946245E+02 -1.625163E+01 +4.413295E+00 -1.625163E+01 +3.901458E+02 
 +8.634101E+02 +3.453553E+00 -2.340801E+00 +3.453553E+00 +4.759423E+02 -1.357341E+01 -2.340801E+00 -1.357341E+01 +3.821605E+02 
 +8.643529E+02 +2.034345E+00 +2.246061E+00 +2.034345E+00 +4.727308E+02 -1.161263E+01 +2.246061E+00 -1.161263E+01 +3.944293E+02 
 +8.654404E+02 -4.257379E+00 +2.926416E+00 -4.257379E+00 +4.808910E+02 -9.408407E+00 +2.926416E+00 -9.408407E+00 +3.927433E+02 
 +8.527904E+02 -7.019003E+00 +1.909495E+01 -7.019003E+00 +4.701129E+02 -9.141262E+00 +1.909495E+01 -9.141262E+00 +3.696624E+02 
 +8.522463E+02 +3.662422E+00 +1.169172E+01 +3.662422E+00 +4.395161E+02 -8.496525E+00 +1.169172E+01 -8.496525E+00 +3.667575E+02 
 +8.595137E+02 +3.292820E+00 -5.607678E-01 +3.292820E+00 +4.444242E+02 -3.717578E+00 -5.607678E-01 -3.717578E+00 +3.691034E+02 
 +8.554600E+02 +5.211473E+00 +5.964746E-01 +5.211473E+00 +4.749462E+02 +5.123139E+00 +5.964746E-01 +5.123139E+00 +3.678559E+02 
 +8.495810E+02 +8.344278E+00 +4.123793E+00 +8.344278E+00 +4.871838E+02 +5.013779E+00 +4.123793E+00 +5.013779E+00 +3.707705E+02 
 +8.479994E+02 +5.946492E+00 +1.837421E+00 +5.946492E+00 +4.873374E+02 -8.104855E-01 +1.837421E+00 -8.104855E-01 +3.686715E+02 
 +8.524046E+02 +5.972420E+00 +8.746874E-01 +5.972420E+00 +4.897644E+02 -3.364070E-01 +8.746874E-01 -3.364070E-01 +3.704099E+02 
 +8.540312E+02 +3.545465E+00 +6.341528E+00 +3.545465E+00 +4.906789E+02 +2.952891E+00 +6.341528E+00 +2.952891E+00 +3.658416E+02 
 +8.607650E+02 +4.516610E+00 +1.142113E+01 +4.516610E+00 +5.007583E+02 +3.542922E+00 +1.142113E+01 +3.542922E+00 +3.834103E+02 
 +8.699406E+02 +8.478249E+00 -1.698670E+00 +8.478249E+00 +5.214873E+02 -6.544989E+00 -1.698670E+00 -6.544989E+00 +4.227192E+02 
 +8.589362E+02 +1.026945E+01 +1.553291E+00 +1.026945E+01 +5.199663E+02 -2.064639E+01 +1.553291E+00 -2.064639E+01 +4.362912E+02 
 +8.623149E+02 +1.834594E+00 +1.127096E+01 +1.834594E+00 +4.971230E+02 -2.479812E+01 +1.127096E+01 -2.479812E+01 +4.254788E+02 
 +8.721610E+02 -1.540569E+00 +4.276025E+00 -1.540569E+00 +4.660113E+02 -5.743781E+00 +4.276025E+00 -5.743781E+00 +3.989351E+02 
 +8.721360E+02 +1.530071E+00 +7.322491E+00 +1.530071E+00 +4.526992E+02 +4.105467E+00 +7.322491E+00 +4.105467E+00 +3.822614E+02 
 +8.806536E+02 -3.177358E+00 +6.188782E-01 -3.177358E+00 +4.712444E+02 +6.526634E-01 +6.188782E-01 +6.526634E-01 +3.983015E+02 
 +8.766785E+02 +4.413836E-01 -5.694261E-02 +4.413836E-01 +4.971054E+02 -5.143523E+00 -5.694261E-02 -5.143523E+00 +4.089358E+02 
 +8.806467E+02 +3.447222E+00 +1.267363E+01 +3.447222E+00 +4.996222E+02 -1.066509E+01 +1.267363E+01 -1.066509E+01 +3.920855E+02 
 +8.817248E+02 -1.333663E-01 +6.888962E+00 -1.333663E-01 +4.890090E+02 -1.275877E+01 +6.888962E+00 -1.275877E+01 +3.805891E+02 
 +8.674964E+02 +7.824705E-01 -4.899370E+00 +7.824705E-01 +4.739646E+02 -1.198232E+01 -4.899370E+00 -1.198232E+01 +3.856989E+02 
 +8.680008E+02 +1.280109E+00 -5.075273E+00 +1.280109E+00 +4.739655E+02 -1.106653E+01 -5.075273E+00 -1.106653E+01 +4.015956E+02 
 +8.666967E+02 +7.180964E-01 -2.852551E+00 +7.180964E-01 +4.789913E+02 -1.043461E+01 -2.852551E+00 -1.043461E+01 +3.946956E+02 
 +8.534344E+02 -6.340997E+00 +9.174080E+00 -6.340997E+00 +4.786900E+02 -1.249461E+01 +9.174080E+00 -1.249461E+01 +3.550178E+02 
 +8.576973E+02 -2.151499E+00 +1.248059E+01 -2.151499E+00 +4.840141E+02 -8.819689E+00 +1.248059E+01 -8.819689E+00 +3.439438E+02 
 +8.645843E+02 +8.422444E+00 +8.291998E+00 +8.422444E+00 +4.906662E+02 +9.685822E+00 +8.291998E+00 +9.685822E+00 +3.591649E+02 
 +8.537429E+02 +7.769121E+00 +8.949893E+00 +7.769121E+00 +4.914681E+02 +1.480875E+01 +8.949893E+00 +1.480875E+01 +3.669810E+02 
 +8.513266E+02 +6.283214E+00 +5.466649E+00 +6.283214E+00 +4.871240E+02 +8.368337E+00 +5.466649E+00 +8.368337E+00 +3.713995E+02 
 +8.493480E+02 +4.020424E+00 +2.639769E+00 +4.020424E+00 +4.849642E+02 +3.082148E+00 +2.639769E+00 +3.082148E+00 +3.718887E+02 
 +8.507970E+02 +9.869961E-01 +2.031989E+00 +9.869961E-01 +4.888369E+02 +4.796122E-01 +2.031989E+00 +4.796122E-01 +3.742507E+02 
 +8.534845E+02 -1.478939E+00 +7.166457E+00 -1.478939E+00 +4.926596E+02 -2.914990E+00 +7.166457E+00 -2.914990E+00 +3.723084E+02 
 +8.542600E+02 -4.648038E+00 +9.846646E+00 -4.648038E+00 +4.906915E+02 -9.241545E+00 +9.846646E+00 -9.241545E+00 +3.829936E+02 
 +8.512445E+02 +7.434856E-01 +4.036359E+00 +7.434856E-01 +4.809550E+02 -1.539756E+01 +4.036359E+00 -1.539756E+01 +4.080331E+02 
 +8.543602E+02 -1.734103E+00 +7.979860E+00 -1.734103E+00 +4.771133E+02 -2.235185E+01 +7.979860E+00 -2.235185E+01 +4.320171E+02 
 +8.577026E+02 -8.199323E+00 +1.614462E+01 -8.199323E+00 +4.716264E+02 -1.920884E+01 +1.614462E+01 -1.920884E+01 +4.265733E+02 
 +8.654709E+02 -4.080057E+00 +2.072530E+00 -4.080057E+00 +4.542828E+02 +1.902155E+00 +2.072530E+00 +1.902155E+00 +3.812902E+02 
 +8.709954E+02 -2.924125E+00 +3.561059E+00 -2.924125E+00 +4.619405E+02 +3.840482E+00 +3.561059E+00 +3.840482E+00 +3.795901E+02 
 +8.692831E+02 -2.833418E+00 -1.277199E+00 -2.833418E+00 +4.619086E+02 +2.913961E+00 -1.277199E+00 +2.913961E+00 +3.850736E+02 
 +8.659201E+02 +2.571104E+00 -4.994668E+00 +2.571104E+00 +4.687384E+02 -4.867911E+00 -4.994668E+00 -4.867911E+00 +3.891679E+02 
 +8.823677E+02 +3.440053E+00 +3.505016E+00 +3.440053E+00 +4.926519E+02 -2.314848E+01 +3.505016E+00 -2.314848E+01 +3.877607E+02 
 +8.875613E+02 -3.428608E+00 +1.380783E+01 -3.428608E+00 +4.943779E+02 -2.909283E+01 +1.380783E+01 -2.909283E+01 +3.849757E+02 
 +8.655146E+02 -3.858205E+00 +2.304453E+00 -3.858205E+00 +4.692403E+02 -1.877253E+01 +2.304453E+00 -1.877253E+01 +3.802349E+02 
 +8.647880E+02 +1.868041E+00 -3.264922E+00 +1.868041E+00 +4.664963E+02 -1.400733E+01 -3.264922E+00 -1.400733E+01 +3.886494E+02 
 +8.633985E+02 +5.074306E+00 -5.730481E+00 +5.074306E+00 +4.766016E+02 -1.297974E+01 -5.730481E+00 -1.297974E+01 +3.822987E+02 
 +8.563129E+02 -3.225956E+00 +8.126281E+00 -3.225956E+00 +4.852238E+02 -9.984013E+00 +8.126281E+00 -9.984013E+00 +3.506171E+02 
 +8.544913E+02 -3.636368E+00 +1.210248E+01 -3.636368E+00 +4.959545E+02 -1.537737E+00 +1.210248E+01 -1.537737E+00 +3.471338E+02 
 +8.487016E+02 +1.050750E+01 +1.557258E+01 +1.050750E+01 +4.985507E+02 +1.271830E+01 +1.557258E+01 +1.271830E+01 +3.638620E+02 
 +8.518076E+02 +6.940447E+00 +1.204671E+01 +6.940447E+00 +4.943049E+02 +1.636787E+01 +1.204671E+01 +1.636787E+01 +3.716630E+02 
 +8.501101E+02 +4.822800E+00 +7.095329E+00 +4.822800E+00 +4.887468E+02 +1.254954E+01 +7.095329E+00 +1.254954E+01 +3.753452E+02 
 +8.500385E+02 +3.790425E+00 +3.261502E+00 +3.790425E+00 +4.882544E+02 +6.377759E+00 +3.261502E+00 +6.377759E+00 +3.810129E+02 
 +8.500748E+02 +9.327156E-01 +6.158431E+00 +9.327156E-01 +4.911390E+02 +3.095085E+00 +6.158431E+00 +3.095085E+00 +3.830249E+02 
 +8.465724E+02 -3.216153E+00 +8.906320E+00 -3.216153E+00 +4.852877E+02 -6.330936E-01 +8.906320E+00 -6.330936E-01 +3.771835E+02 
 +8.427280E+02 -9.110951E+00 +8.112980E+00 -9.110951E+00 +4.698322E+02 -8.636403E+00 +8.112980E+00 -8.636403E+00 +3.732588E+02 
 +8.349900E+02 -2.549977E+00 +1.064004E+01 -2.549977E+00 +4.500131E+02 -1.123031E+01 +1.064004E+01 -1.123031E+01 +3.726200E+02 
 +8.427153E+02 -2.168600E+00 +1.135906E+01 -2.168600E+00 +4.405812E+02 -8.192646E+00 +1.135906E+01 -8.192646E+00 +3.803538E+02 
 +8.459476E+02 -9.053386E+00 +1.590060E+01 -9.053386E+00 +4.386852E+02 -1.605794E+00 +1.590060E+01 -1.605794E+00 +3.818896E+02 
 +8.636183E+02 -4.113508E+00 -3.729548E+00 -4.113508E+00 +4.531959E+02 +1.541093E+00 -3.729548E+00 +1.541093E+00 +3.714409E+02 
 +8.629966E+02 -5.091464E+00 -1.561234E+00 -5.091464E+00 +4.546427E+02 +3.848979E-01 -1.561234E+00 +3.848979E-01 +3.772956E+02 
 +8.653692E+02 -3.753122E+00 -3.530400E-01 -3.753122E+00 +4.587483E+02 -1.589702E+00 -3.530400E-01 -1.589702E+00 +3.814997E+02 
 +8.652803E+02 +1.232064E+00 -5.222606E+00 +1.232064E+00 +4.556665E+02 +2.722793E+00 -5.222606E+00 +2.722793E+00 +3.826434E+02 
 +8.599372E+02 +9.079375E-01 -3.085146E+00 +9.079375E-01 +4.411145E+02 +1.372998E+01 -3.085146E+00 +1.372998E+01 +3.790356E+02 
 +8.613526E+02 -5.915743E+00 +1.496701E+01 -5.915743E+00 +4.426007E+02 +1.359506E+01 +1.496701E+01 +1.359506E+01 +3.744413E+02 
 +8.653978E+02 -2.792000E+00 +2.624291E+00 -2.792000E+00 +4.602670E+02 +4.793651E+00 +2.624291E+00 +4.793651E+00 +3.780660E+02 
 +8.659235E+02 +2.785867E+00 -3.609443E-02 +2.785867E+00 +4.674561E+02 +8.164498E-01 -3.609443E-02 +8.164498E-01 +3.775773E+02 
 +8.633572E+02 +9.676439E+00 -1.052214E+01 +9.676439E+00 +4.747095E+02 -3.628632E+00 -1.052214E+01 -3.628632E+00 +3.689238E+02 
 +8.550221E+02 +4.585901E-01 +1.863741E+00 +4.585901E-01 +4.895176E+02 -5.606850E+00 +1.863741E+00 -5.606850E+00 +3.548303E+02 
 +8.450928E+02 -1.546746E+00 +1.371129E+01 -1.546746E+00 +4.927679E+02 +8.478905E-01 +1.371129E+01 +8.478905E-01 +3.532324E+02 
 +8.449967E+02 +7.746060E+00 +1.898916E+01 +7.746060E+00 +4.929817E+02 +1.402231E+01 +1.898916E+01 +1.402231E+01 +3.677105E+02 
 +8.461677E+02 +5.130526E+00 +1.480473E+01 +5.130526E+00 +4.950886E+02 +1.756322E+01 +1.480473E+01 +1.756322E+01 +3.759593E+02 
 +8.464242E+02 +4.478709E+00 +7.150302E+00 +4.478709E+00 +4.951500E+02 +1.295875E+01 +7.150302E+00 +1.295875E+01 +3.839649E+02 
 +8.453911E+02 +2.270128E+00 +6.573379E+00 +2.270128E+00 +4.930328E+02 +8.146992E+00 +6.573379E+00 +8.146992E+00 +3.902943E+02 
 +8.426855E+02 +8.267515E-01 +9.696106E+00 +8.267515E-01 +4.860914E+02 +5.248185E-01 +9.696106E+00 +5.248185E-01 +3.894137E+02 
 +8.404234E+02 -8.291503E+00 +9.418404E+00 -8.291503E+00 +4.672523E+02 -5.389393E+00 +9.418404E+00 -5.389393E+00 +3.760056E+02 
 +8.405715E+02 -8.537706E+00 +9.863867E+00 -8.537706E+00 +4.531574E+02 -3.482057E+00 +9.863867E+00 -3.482057E+00 +3.624456E+02 
 +8.446581E+02 -7.876981E+00 +1.270149E+01 -7.876981E+00 +4.486181E+02 -1.966853E+00 +1.270149E+01 -1.966853E+00 +3.577411E+02 
 +8.455365E+02 -9.890959E+00 +1.241100E+01 -9.890959E+00 +4.425979E+02 -1.593465E+00 +1.241100E+01 -1.593465E+00 +3.557199E+02 
 +8.379660E+02 -1.186248E+01 +1.988397E+01 -1.186248E+01 +4.375179E+02 +2.798199E+00 +1.988397E+01 +2.798199E+00 +3.540165E+02 
 +8.636554E+02 -5.029683E+00 -7.568670E+00 -5.029683E+00 +4.549271E+02 -1.643665E+00 -7.568670E+00 -1.643665E+00 +3.628378E+02 
 +8.649071E+02 -4.507370E+00 -4.841997E+00 -4.507370E+00 +4.567002E+02 -6.576217E-01 -4.841997E+00 -6.576217E-01 +3.709897E+02 
 +8.631239E+02 -1.954480E+00 -3.294747E+00 -1.954480E+00 +4.574686E+02 +2.122789E-01 -3.294747E+00 +2.122789E-01 +3.716349E+02 
 +8.645347E+02 -4.557804E-01 -2.659121E+00 -4.557804E-01 +4.550054E+02 +4.976144E-01 -2.659121E+00 +4.976144E-01 +3.727767E+02 
 +8.669532E+02 -1.757491E+00 -1.066538E-01 -1.757491E+00 +4.513266E+02 +4.697574E-01 -1.066538E-01 +4.697574E-01 +3.719746E+02 
 +8.613186E+02 -7.437840E+00 +7.251906E-01 -7.437840E+00 +4.429031E+02 -5.771945E-01 +7.251906E-01 -5.771945E-01 +3.688317E+02 
 +8.503958E+02 -6.643177E+00 -2.496446E+00 -6.643177E+00 +4.435415E+02 -1.988340E+00 -2.496446E+00 -1.988340E+00 +3.663053E+02 
 +8.636257E+02 -8.470456E+00 +1.920780E-01 -8.470456E+00 +4.755940E+02 -1.118169E+01 +1.920780E-01 -1.118169E+01 +3.674414E+02 
 +8.642760E+02 -2.777948E+00 +4.898698E-01 -2.777948E+00 +4.891025E+02 -1.835340E+01 +4.898698E-01 -1.835340E+01 +3.637536E+02 
 +8.523262E+02 -3.791785E+00 +8.583158E+00 -3.791785E+00 +4.868838E+02 -1.404932E+01 +8.583158E+00 -1.404932E+01 +3.537249E+02 
 +8.618608E+02 -2.382072E+00 +2.056086E+01 -2.382072E+00 +5.070396E+02 -5.063720E+00 +2.056086E+01 -5.063720E+00 +3.616790E+02 
 +8.502006E+02 +5.707404E+00 +2.793738E+01 +5.707404E+00 +5.023632E+02 +1.134795E+01 +2.793738E+01 +1.134795E+01 +3.680609E+02 
 +8.496654E+02 +4.504231E+00 +1.680713E+01 +4.504231E+00 +4.934958E+02 +1.256363E+01 +1.680713E+01 +1.256363E+01 +3.794403E+02 
 +8.495981E+02 +7.530045E+00 +9.479195E+00 +7.530045E+00 +4.946782E+02 +4.797140E+00 +9.479195E+00 +4.797140E+00 +3.962988E+02 
 +8.515945E+02 +6.245588E+00 +7.696407E+00 +6.245588E+00 +4.959294E+02 +1.331422E+00 +7.696407E+00 +1.331422E+00 +4.127132E+02 
 +8.366535E+02 +5.017288E+00 +8.157724E+00 +5.017288E+00 +4.736177E+02 -2.643662E+00 +8.157724E+00 -2.643662E+00 +4.026718E+02 
 +8.309984E+02 -5.113405E+00 +1.684743E+01 -5.113405E+00 +4.573421E+02 -5.803710E+00 +1.684743E+01 -5.803710E+00 +3.832718E+02 
 +8.385614E+02 -6.052389E+00 +1.600534E+01 -6.052389E+00 +4.539858E+02 -2.557342E+00 +1.600534E+01 -2.557342E+00 +3.710360E+02 
 +8.414626E+02 -6.483708E+00 +1.271427E+01 -6.483708E+00 +4.449776E+02 +1.468663E+00 +1.271427E+01 +1.468663E+00 +3.573952E+02 
 +8.492310E+02 -6.399606E+00 +1.019624E+01 -6.399606E+00 +4.442089E+02 +2.886905E+00 +1.019624E+01 +2.886905E+00 +3.555102E+02 
 +8.404412E+02 -1.120517E+01 +1.796186E+01 -1.120517E+01 +4.400596E+02 +2.886214E+00 +1.796186E+01 +2.886214E+00 +3.484788E+02 
 +8.724634E+02 -5.583314E+00 -6.167749E+00 -5.583314E+00 +4.636217E+02 -2.931982E+00 -6.167749E+00 -2.931982E+00 +3.622162E+02 
 +8.664570E+02 -2.642644E+00 -5.286863E+00 -2.642644E+00 +4.577044E+02 +3.008182E+00 -5.286863E+00 +3.008182E+00 +3.611102E+02 
 +8.641072E+02 +2.954732E-01 -4.239224E+00 +2.954732E-01 +4.573174E+02 +6.646565E+00 -4.239224E+00 +6.646565E+00 +3.635009E+02 
 +8.660594E+02 +8.822486E-01 -4.550144E+00 +8.822486E-01 +4.600397E+02 +7.053809E+00 -4.550144E+00 +7.053809E+00 +3.624276E+02 
 +8.625655E+02 -2.205308E+00 -6.589087E+00 -2.205308E+00 +4.530909E+02 +4.682291E+00 -6.589087E+00 +4.682291E+00 +3.574545E+02 
 +8.604228E+02 -4.858554E+00 -3.787120E+00 -4.858554E+00 +4.604105E+02 +8.051249E+00 -3.787120E+00 +8.051249E+00 +3.587732E+02 
 +8.567839E+02 +5.537783E-01 -5.270240E-01 +5.537783E-01 +4.799623E+02 +1.749517E+01 -5.270240E-01 +1.749517E+01 +3.651012E+02 
 +8.662130E+02 +2.574953E-01 -1.784710E+00 +2.574953E-01 +4.870818E+02 +2.509079E+01 -1.784710E+00 +2.509079E+01 +3.725858E+02 
 +8.638137E+02 +4.282689E+00 +7.897176E+00 +4.282689E+00 +4.818969E+02 +2.697235E+01 +7.897176E+00 +2.697235E+01 +3.709675E+02 
 +8.650527E+02 +6.543523E+00 +8.851105E+00 +6.543523E+00 +4.864348E+02 +2.753039E+01 +8.851105E+00 +2.753039E+01 +3.678065E+02 
 +8.736388E+02 +6.735853E+00 +1.698252E+01 +6.735853E+00 +5.042457E+02 +3.230229E+01 +1.698252E+01 +3.230229E+01 +3.758094E+02 
 +8.476885E+02 +1.180373E+00 +2.279189E+01 +1.180373E+00 +4.941896E+02 +1.954819E+01 +2.279189E+01 +1.954819E+01 +3.796434E+02 
 +8.233594E+02 -6.720404E+00 +1.921350E+01 -6.720404E+00 +4.608455E+02 +8.292249E+00 +1.921350E+01 +8.292249E+00 +3.854911E+02 
 +8.412861E+02 -2.547684E+00 +1.146350E+01 -2.547684E+00 +4.586267E+02 +9.008980E+00 +1.146350E+01 +9.008980E+00 +4.029910E+02 
 +8.405192E+02 -5.189723E+00 +4.192747E+00 -5.189723E+00 +4.599705E+02 +8.304249E+00 +4.192747E+00 +8.304249E+00 +4.174346E+02 
 +8.369504E+02 -6.091336E+00 +2.905256E+00 -6.091336E+00 +4.600802E+02 -3.057682E-01 +2.905256E+00 -3.057682E-01 +4.235970E+02 
 +8.341861E+02 -8.571466E+00 +1.642438E+01 -8.571466E+00 +4.593766E+02 -6.263300E+00 +1.642438E+01 -6.263300E+00 +4.014419E+02 
 +8.374087E+02 -8.074699E+00 +2.209683E+01 -8.074699E+00 +4.561958E+02 -5.906799E+00 +2.209683E+01 -5.906799E+00 +3.815791E+02 
 +8.444028E+02 -8.438255E+00 +1.195522E+01 -8.438255E+00 +4.533414E+02 -9.034874E+00 +1.195522E+01 -9.034874E+00 +3.703337E+02 
 +8.534689E+02 -8.571686E+00 +7.187010E+00 -8.571686E+00 +4.571292E+02 -1.455402E+01 +7.187010E+00 -1.455402E+01 +3.615732E+02 
 +8.505428E+02 -1.184011E+01 +1.512887E+01 -1.184011E+01 +4.550213E+02 -7.911205E+00 +1.512887E+01 -7.911205E+00 +3.558593E+02 
 +8.748524E+02 -4.322417E+00 +1.622286E+00 -4.322417E+00 +4.640418E+02 -3.332163E+00 +1.622286E+00 -3.332163E+00 +3.593508E+02 
 +8.664715E+02 -2.799362E-01 -4.520849E+00 -2.799362E-01 +4.562761E+02 +1.041094E+01 -4.520849E+00 +1.041094E+01 +3.544053E+02 
 +8.661332E+02 +1.550228E+00 -2.391062E+00 +1.550228E+00 +4.594736E+02 +1.603846E+01 -2.391062E+00 +1.603846E+01 +3.596087E+02 
 +8.668409E+02 +1.246275E+00 -2.931969E+00 +1.246275E+00 +4.595160E+02 +1.665989E+01 -2.931969E+00 +1.665989E+01 +3.622730E+02 
 +8.727564E+02 +7.578510E-01 -1.004652E+01 +7.578510E-01 +4.809374E+02 +1.693614E+01 -1.004652E+01 +1.693614E+01 +3.763438E+02 
 +8.727564E+02 -5.374185E-01 -9.329163E+00 -5.374185E-01 +5.004357E+02 +1.922405E+01 -9.329163E+00 +1.922405E+01 +3.772872E+02 
 +8.591709E+02 -7.762325E-01 -2.021917E+00 -7.762325E-01 +4.834549E+02 +1.947714E+01 -2.021917E+00 +1.947714E+01 +3.615741E+02 
 +8.585624E+02 -3.289125E-01 +2.209217E+00 -3.289125E-01 +4.805602E+02 +2.365774E+01 +2.209217E+00 +2.365774E+01 +3.755535E+02 
 +8.621303E+02 -9.102407E-02 +7.480814E+00 -9.102407E-02 +4.808244E+02 +2.730075E+01 +7.480814E+00 +2.730075E+01 +3.752321E+02 
 +8.673945E+02 +3.615388E+00 +1.289031E+00 +3.615388E+00 +4.772952E+02 +2.845433E+01 +1.289031E+00 +2.845433E+01 +3.605809E+02 
 +8.733518E+02 +7.834883E+00 +8.888180E+00 +7.834883E+00 +4.890531E+02 +2.244338E+01 +8.888180E+00 +2.244338E+01 +3.793484E+02 
 +8.612629E+02 +2.872145E+00 +1.027399E+01 +2.872145E+00 +4.998636E+02 +1.157571E+01 +1.027399E+01 +1.157571E+01 +4.036978E+02 
 +8.108093E+02 -9.486875E+00 +1.953158E+01 -9.486875E+00 +4.734081E+02 +7.391414E+00 +1.953158E+01 +7.391414E+00 +4.018534E+02 
 +8.415237E+02 -3.233017E+00 +1.030913E+01 -3.233017E+00 +4.690978E+02 +8.584275E+00 +1.030913E+01 +8.584275E+00 +4.143393E+02 
 +8.497979E+02 -7.536289E+00 +1.716105E+00 -7.536289E+00 +4.669135E+02 +1.601846E+01 +1.716105E+00 +1.601846E+01 +4.189381E+02 
 +8.484035E+02 -9.167230E+00 +1.156513E+00 -9.167230E+00 +4.646357E+02 +1.827430E+01 +1.156513E+00 +1.827430E+01 +4.245202E+02 
 +8.470232E+02 -5.343292E+00 +3.413665E+00 -5.343292E+00 +4.581794E+02 +8.902783E+00 +3.413665E+00 +8.902783E+00 +4.055699E+02 
 +8.290611E+02 -7.419663E+00 +1.671596E+01 -7.419663E+00 +4.505920E+02 +1.345777E-01 +1.671596E+01 +1.345777E-01 +3.699140E+02 
 +8.452087E+02 -2.883545E+00 +1.679405E+00 -2.883545E+00 +4.670131E+02 -3.810445E+00 +1.679405E+00 -3.810445E+00 +3.499821E+02 
 +8.603181E+02 -2.057382E+00 +1.416313E+00 -2.057382E+00 +4.791214E+02 -4.754626E+00 +1.416313E+00 -4.754626E+00 +3.356654E+02 
 +8.550358E+02 -9.541684E+00 +1.552300E+01 -9.541684E+00 +4.663033E+02 -6.013493E+00 +1.552300E+01 -6.013493E+00 +3.427563E+02 
 +8.680379E+02 -8.110941E+00 +9.176470E+00 -8.110941E+00 +4.679525E+02 +4.380175E+00 +9.176470E+00 +4.380175E+00 +3.593993E+02 
 +8.662898E+02 +7.508080E-01 -2.203471E+00 +7.508080E-01 +4.531971E+02 +1.276305E+01 -2.203471E+00 +1.276305E+01 +3.640238E+02 
 +8.654122E+02 +1.350560E+00 -5.282991E-01 +1.350560E+00 +4.549497E+02 +1.603448E+01 -5.282991E-01 +1.603448E+01 +3.684444E+02 
 +8.585125E+02 -1.605647E+00 -1.658519E+00 -1.605647E+00 +4.586577E+02 +1.828553E+01 -1.658519E+00 +1.828553E+01 +3.731159E+02 
 +8.570175E+02 -1.737350E+00 -8.807443E+00 -1.737350E+00 +4.656073E+02 +1.651499E+01 -8.807443E+00 +1.651499E+01 +3.827280E+02 
 +8.600954E+02 -4.408940E+00 -1.785546E+01 -4.408940E+00 +4.635685E+02 +1.448843E+01 -1.785546E+01 +1.448843E+01 +3.808383E+02 
 +8.490027E+02 -7.834270E-01 -5.380804E+00 -7.834270E-01 +4.619338E+02 +1.064691E+01 -5.380804E+00 +1.064691E+01 +3.616375E+02 
 +8.487526E+02 +6.886763E-01 +3.183724E+00 +6.886763E-01 +4.742247E+02 +1.167218E+01 +3.183724E+00 +1.167218E+01 +3.705816E+02 
 +8.539723E+02 -1.206444E+00 +6.228680E+00 -1.206444E+00 +4.771360E+02 +1.441891E+01 +6.228680E+00 +1.441891E+01 +3.695454E+02 
 +8.669957E+02 +2.904676E+00 -1.796482E+00 +2.904676E+00 +4.754031E+02 +2.531724E+01 -1.796482E+00 +2.531724E+01 +3.524694E+02 
 +8.725361E+02 +4.707447E+00 +9.806050E+00 +4.707447E+00 +4.789589E+02 +2.371341E+01 +9.806050E+00 +2.371341E+01 +3.713068E+02 
 +8.689281E+02 +1.162754E+00 +5.891755E+00 +1.162754E+00 +4.935007E+02 +1.221358E+01 +5.891755E+00 +1.221358E+01 +4.045903E+02 
 +8.096885E+02 -1.412395E+01 +1.875382E+01 -1.412395E+01 +4.865344E+02 +6.692858E+00 +1.875382E+01 +6.692858E+00 +4.024718E+02 
 +8.475461E+02 -1.160436E+01 +1.199770E+01 -1.160436E+01 +5.094290E+02 +5.254154E+00 +1.199770E+01 +5.254154E+00 +4.188134E+02 
 +8.707292E+02 -6.900042E+00 +2.269070E+00 -6.900042E+00 +4.911218E+02 +1.364628E+01 +2.269070E+00 +1.364628E+01 +4.144766E+02 
 +8.552769E+02 -5.227629E+00 -5.587225E-01 -5.227629E+00 +4.671952E+02 +1.938210E+01 -5.587225E-01 +1.938210E+01 +3.993288E+02 
 +8.559699E+02 -2.577813E+00 -9.065263E+00 -2.577813E+00 +4.696161E+02 +1.014190E+01 -9.065263E+00 +1.014190E+01 +3.973609E+02 
 +8.481920E+02 -4.507191E-01 +6.951957E+00 -4.507191E-01 +4.722489E+02 +4.134468E+00 +6.951957E+00 +4.134468E+00 +3.793337E+02 
 +8.642494E+02 +7.946834E+00 -2.777465E+00 +7.946834E+00 +4.885476E+02 +5.407974E+00 -2.777465E+00 +5.407974E+00 +3.546693E+02 
 +8.676629E+02 +3.976244E+00 -6.524829E-01 +3.976244E+00 +4.905794E+02 +1.043554E+01 -6.524829E-01 +1.043554E+01 +3.373835E+02 
 +8.627966E+02 -9.693207E+00 +1.347398E+01 -9.693207E+00 +4.839200E+02 +8.051156E+00 +1.347398E+01 +8.051156E+00 +3.446102E+02 
 +8.642573E+02 -1.406361E+01 +1.097690E+01 -1.406361E+01 +4.739741E+02 +2.594377E+01 +1.097690E+01 +2.594377E+01 +3.620806E+02 
 +8.530823E+02 -1.502306E+00 -1.898820E+00 -1.502306E+00 +4.469510E+02 +2.001896E+01 -1.898820E+00 +2.001896E+01 +3.508364E+02 
 +8.493421E+02 +4.167706E+00 -3.144546E+00 +4.167706E+00 +4.436985E+02 +1.501736E+01 -3.144546E+00 +1.501736E+01 +3.494416E+02 
 +8.488049E+02 +2.538284E+00 -2.762138E+00 +2.538284E+00 +4.700283E+02 +1.422722E+01 -2.762138E+00 +1.422722E+01 +3.703357E+02 
 +8.599160E+02 -2.330574E+00 -9.940764E+00 -2.330574E+00 +4.765998E+02 +1.005829E+01 -9.940764E+00 +1.005829E+01 +3.856134E+02 
 +8.723337E+02 -2.269208E+00 -1.920904E+01 -2.269208E+00 +4.707073E+02 +1.075008E+01 -1.920904E+01 +1.075008E+01 +3.838954E+02 
 +8.446073E+02 +4.273223E+00 -1.729479E+00 +4.273223E+00 +4.611209E+02 +8.241193E+00 -1.729479E+00 +8.241193E+00 +3.614639E+02 
 +8.428957E+02 +3.878402E-01 +5.989360E+00 +3.878402E-01 +4.703491E+02 +7.365663E+00 +5.989360E+00 +7.365663E+00 +3.672464E+02 
 +8.510977E+02 -1.559572E+00 +6.190235E+00 -1.559572E+00 +4.755743E+02 +1.158277E+01 +6.190235E+00 +1.158277E+01 +3.661724E+02 
 +8.675953E+02 +1.839078E+00 -5.994696E+00 +1.839078E+00 +4.813511E+02 +2.116011E+01 -5.994696E+00 +2.116011E+01 +3.543739E+02 
 +8.706549E+02 +3.789443E+00 +8.374521E+00 +3.789443E+00 +4.845450E+02 +1.663471E+01 +8.374521E+00 +1.663471E+01 +3.738941E+02 
 +8.649530E+02 +5.585828E-01 +5.295852E+00 +5.585828E-01 +4.897537E+02 +9.428859E+00 +5.295852E+00 +9.428859E+00 +3.982467E+02 
 +8.180920E+02 -1.038538E+01 +1.387586E+01 -1.038538E+01 +4.739306E+02 +1.546396E+01 +1.387586E+01 +1.546396E+01 +3.890779E+02 
 +8.448049E+02 -8.304635E+00 +1.121316E+01 -8.304635E+00 +4.827177E+02 +1.717929E+01 +1.121316E+01 +1.717929E+01 +3.933933E+02 
 +8.630824E+02 -5.772718E-01 +3.166686E+00 -5.772718E-01 +4.809963E+02 +1.711158E+01 +3.166686E+00 +1.711158E+01 +3.939541E+02 
 +8.602105E+02 +1.284737E+00 -4.828613E+00 +1.284737E+00 +4.767887E+02 +1.510436E+01 -4.828613E+00 +1.510436E+01 +3.918872E+02 
 +8.507053E+02 +2.366001E-01 -7.435850E+00 +2.366001E-01 +4.657603E+02 +1.958247E+01 -7.435850E+00 +1.958247E+01 +3.887024E+02 
 +8.499946E+02 +4.815942E+00 +2.493951E+00 +4.815942E+00 +4.598487E+02 +2.398900E+01 +2.493951E+00 +2.398900E+01 +3.831642E+02 
 +8.657015E+02 +6.864825E+00 -1.601611E+00 +6.864825E+00 +4.733158E+02 +2.346886E+01 -1.601611E+00 +2.346886E+01 +3.776739E+02 
 +8.707512E+02 -1.712824E+00 +1.607319E+00 -1.712824E+00 +4.799882E+02 +1.905971E+01 +1.607319E+00 +1.905971E+01 +3.757204E+02 
 +8.716570E+02 -1.362173E+01 +1.067041E+01 -1.362173E+01 +4.821368E+02 +2.154313E+01 +1.067041E+01 +2.154313E+01 +3.733010E+02 
 +8.721749E+02 -2.008041E+01 +8.222674E+00 -2.008041E+01 +4.937763E+02 +2.151884E+01 +8.222674E+00 +2.151884E+01 +3.514138E+02 
 +8.726265E+02 -1.159739E+01 -2.871540E+00 -1.159739E+01 +5.118212E+02 +2.719817E-02 -2.871540E+00 +2.719817E-02 +3.288086E+02 
 +8.713497E+02 +2.390365E+00 +1.299362E+00 +2.390365E+00 +5.066840E+02 -3.446553E+00 +1.299362E+00 -3.446553E+00 +3.288186E+02 
 +8.695951E+02 +1.000083E+01 +3.713243E+00 +1.000083E+01 +4.958522E+02 +1.137458E+01 +3.713243E+00 +1.137458E+01 +3.639639E+02 
 +8.618608E+02 +1.448818E+00 -5.275771E+00 +1.448818E+00 +4.805777E+02 +1.341223E+01 -5.275771E+00 +1.341223E+01 +3.799241E+02 
 +8.505510E+02 +2.998586E+00 -8.443161E+00 +2.998586E+00 +4.667362E+02 +1.344962E+01 -8.443161E+00 +1.344962E+01 +3.666031E+02 
 +8.382380E+02 +7.171575E+00 +4.832965E+00 +7.171575E+00 +4.663633E+02 +1.112142E+01 +4.832965E+00 +1.112142E+01 +3.520097E+02 
 +8.417801E+02 -1.104221E+00 +8.578264E+00 -1.104221E+00 +4.733552E+02 +7.567054E+00 +8.578264E+00 +7.567054E+00 +3.594422E+02 
 +8.479228E+02 -2.622608E+00 +5.999864E+00 -2.622608E+00 +4.777463E+02 +1.008262E+01 +5.999864E+00 +1.008262E+01 +3.609825E+02 
 +8.700781E+02 -1.052603E+00 -1.162049E+01 -1.052603E+00 +4.892913E+02 +2.177816E+01 -1.162049E+01 +2.177816E+01 +3.561905E+02 
 +8.715673E+02 +1.825436E+00 +3.910810E+00 +1.825436E+00 +4.924267E+02 +2.089417E+01 +3.910810E+00 +2.089417E+01 +3.734798E+02 
 +8.499570E+02 +1.803890E+00 +3.898505E+00 +1.803890E+00 +4.696452E+02 +1.775577E+01 +3.898505E+00 +1.775577E+01 +3.787658E+02 
 +8.367709E+02 -2.643609E+00 +7.878099E+00 -2.643609E+00 +4.474719E+02 +2.533568E+01 +7.878099E+00 +2.533568E+01 +3.717710E+02 
 +8.507749E+02 -6.781418E+00 +8.410393E+00 -6.781418E+00 +4.633856E+02 +2.528076E+01 +8.410393E+00 +2.528076E+01 +3.785054E+02 
 +8.544752E+02 -2.364521E+00 +2.990069E+00 -2.364521E+00 +4.762412E+02 +1.841373E+01 +2.990069E+00 +1.841373E+01 +3.828989E+02 
 +8.560893E+02 +1.804851E+00 -7.410217E+00 +1.804851E+00 +4.729629E+02 +1.692797E+01 -7.410217E+00 +1.692797E+01 +3.847281E+02 
 +8.503028E+02 +3.326857E+00 -8.501467E+00 +3.326857E+00 +4.706945E+02 +1.565656E+01 -8.501467E+00 +1.565656E+01 +3.823314E+02 
 +8.454399E+02 +4.985260E+00 -2.967493E+00 +4.985260E+00 +4.755476E+02 +1.038872E+01 -2.967493E+00 +1.038872E+01 +3.834557E+02 
 +8.682393E+02 +3.976376E+00 +6.563661E+00 +3.976376E+00 +4.850255E+02 +1.484852E+01 +6.563661E+00 +1.484852E+01 +3.880360E+02 
 +8.800950E+02 -6.843897E+00 +1.028503E+01 -6.843897E+00 +4.900826E+02 +1.910231E+01 +1.028503E+01 +1.910231E+01 +3.863120E+02 
 +8.768503E+02 -2.039508E+01 +9.445988E+00 -2.039508E+01 +4.867474E+02 +2.549150E+01 +9.445988E+00 +2.549150E+01 +3.769068E+02 
 +8.843951E+02 -1.465701E+01 +1.484008E+00 -1.465701E+01 +5.148449E+02 -1.442876E+01 +1.484008E+00 -1.442876E+01 +3.385160E+02 
 +8.723505E+02 -6.337624E+00 -1.407162E+00 -6.337624E+00 +5.088511E+02 -2.168896E+01 -1.407162E+00 -2.168896E+01 +3.037330E+02 
 +8.641505E+02 -1.077552E+00 +7.830091E+00 -1.077552E+00 +4.903991E+02 -9.607405E+00 +7.830091E+00 -9.607405E+00 +3.038084E+02 
 +8.704072E+02 +7.856508E+00 +1.033898E+01 +7.856508E+00 +4.787741E+02 +1.409871E+01 +1.033898E+01 +1.409871E+01 +3.401018E+02 
 +8.651450E+02 +1.315879E+00 -1.389543E+00 +1.315879E+00 +4.951808E+02 +2.154258E+01 -1.389543E+00 +2.154258E+01 +3.747375E+02 
 +8.448234E+02 +3.759634E+00 +7.541083E+00 +3.759634E+00 +4.998143E+02 +1.792494E+01 +7.541083E+00 +1.792494E+01 +3.671751E+02 
 +8.398919E+02 +1.048978E+01 +1.275593E+01 +1.048978E+01 +4.843141E+02 +1.671516E+01 +1.275593E+01 +1.671516E+01 +3.512955E+02 
 +8.340823E+02 +2.075748E+00 +9.480516E+00 +2.075748E+00 +4.742344E+02 +7.071980E+00 +9.480516E+00 +7.071980E+00 +3.473520E+02 
 +8.376666E+02 -1.250830E+00 +8.945922E+00 -1.250830E+00 +4.780348E+02 +9.045419E+00 +8.945922E+00 +9.045419E+00 +3.466403E+02 
 +8.631920E+02 -3.290560E+00 -7.982393E+00 -3.290560E+00 +4.863355E+02 +2.377175E+01 -7.982393E+00 +2.377175E+01 +3.458023E+02 
 +8.693875E+02 +4.626912E-02 -6.101417E-01 +4.626912E-02 +4.845619E+02 +2.382962E+01 -6.101417E-01 +2.382962E+01 +3.578433E+02 
 +8.611637E+02 -4.135950E+00 +1.955092E+00 -4.135950E+00 +4.695501E+02 +1.860865E+01 +1.955092E+00 +1.860865E+01 +3.688333E+02 
 +8.618222E+02 -3.364781E+00 +8.291788E+00 -3.364781E+00 +4.604931E+02 +2.442465E+01 +8.291788E+00 +2.442465E+01 +3.635337E+02 
 +8.514373E+02 -6.015706E+00 +5.124802E+00 -6.015706E+00 +4.639286E+02 +2.682952E+01 +5.124802E+00 +2.682952E+01 +3.574533E+02 
 +8.508737E+02 -7.064458E+00 -2.254734E+00 -7.064458E+00 +4.687967E+02 +2.398028E+01 -2.254734E+00 +2.398028E+01 +3.620914E+02 
 +8.559235E+02 -2.958083E+00 -1.168730E+01 -2.958083E+00 +4.737090E+02 +2.251221E+01 -1.168730E+01 +2.251221E+01 +3.727229E+02 
 +8.497344E+02 +2.889967E+00 -1.204524E+01 +2.889967E+00 +4.863630E+02 +1.388982E+01 -1.204524E+01 +1.388982E+01 +3.839648E+02 
 +8.642511E+02 +4.209021E+00 -8.945928E-01 +4.209021E+00 +5.093936E+02 +9.177324E+00 -8.945928E-01 +9.177324E+00 +4.051689E+02 
 +8.776782E+02 +6.563554E+00 +1.024368E+01 +6.563554E+00 +5.120778E+02 +1.828820E+01 +1.024368E+01 +1.828820E+01 +4.004159E+02 
 +8.853274E+02 -1.671286E+00 +1.417742E+01 -1.671286E+00 +5.102674E+02 +1.606550E+01 +1.417742E+01 +1.606550E+01 +3.855255E+02 
 +8.739552E+02 -2.066362E+01 +6.744710E-01 -2.066362E+01 +5.078941E+02 +2.066674E-02 +6.744710E-01 +2.066674E-02 +3.693834E+02 
 +8.883185E+02 -8.479095E+00 -1.040157E+01 -8.479095E+00 +5.212267E+02 -1.160680E+01 -1.040157E+01 -1.160680E+01 +3.369792E+02 
 +8.838282E+02 -2.887024E+00 -4.050706E+00 -2.887024E+00 +5.104260E+02 -2.109372E+01 -4.050706E+00 -2.109372E+01 +3.146333E+02 
 +8.850500E+02 -8.137649E+00 -8.076873E-01 -8.137649E+00 +5.218156E+02 -1.928355E+01 -8.076873E-01 -1.928355E+01 +3.381603E+02 
 +8.931112E+02 -3.728619E+00 +7.217066E+00 -3.728619E+00 +5.237234E+02 -6.372471E+00 +7.217066E+00 -6.372471E+00 +3.619570E+02 
 +8.813115E+02 +2.807770E+00 +1.967679E+00 +2.807770E+00 +5.073677E+02 +2.047282E+01 +1.967679E+00 +2.047282E+01 +3.771513E+02 
 +8.200253E+02 +6.382687E+00 +1.301806E+01 +6.382687E+00 +4.784442E+02 +2.687019E+01 +1.301806E+01 +2.687019E+01 +3.577351E+02 
 +8.217908E+02 +3.944835E+00 +1.061560E+01 +3.944835E+00 +4.835145E+02 +2.075860E+01 +1.061560E+01 +2.075860E+01 +3.459850E+02 
 +8.303205E+02 -2.628246E+00 +4.963586E+00 -2.628246E+00 +4.807603E+02 +1.331459E+01 +4.963586E+00 +1.331459E+01 +3.275366E+02 
 +8.348524E+02 +1.036617E+00 +1.143466E+01 +1.036617E+00 +4.763641E+02 +1.315606E+01 +1.143466E+01 +1.315606E+01 +3.171805E+02 
 +8.532448E+02 +2.743792E+00 -2.104374E-01 +2.743792E+00 +4.863577E+02 +1.361221E+01 -2.104374E-01 +1.361221E+01 +3.260763E+02 
 +8.655413E+02 -1.030624E+00 +2.334775E+00 -1.030624E+00 +4.826129E+02 +9.689165E+00 +2.334775E+00 +9.689165E+00 +3.416258E+02 
 +8.659058E+02 -9.762233E+00 +4.600147E+00 -9.762233E+00 +4.633553E+02 +1.174970E+01 +4.600147E+00 +1.174970E+01 +3.502940E+02 
 +8.702294E+02 -2.538905E+00 +7.142691E+00 -2.538905E+00 +4.667705E+02 +1.645024E+01 +7.142691E+00 +1.645024E+01 +3.590217E+02 
 +8.722504E+02 -3.076473E+00 +4.443213E-01 -3.076473E+00 +4.851178E+02 +1.994693E+01 +4.443213E-01 +1.994693E+01 +3.756460E+02 
 +8.666836E+02 -1.207058E+01 -9.116748E+00 -1.207058E+01 +4.855762E+02 +2.266239E+01 -9.116748E+00 +2.266239E+01 +3.797286E+02 
 +8.406290E+02 -6.851286E+00 -1.687847E+01 -6.851286E+00 +4.741460E+02 +1.471163E+01 -1.687847E+01 +1.471163E+01 +3.729764E+02 
 +8.593942E+02 -1.382067E+00 -3.224286E+00 -1.382067E+00 +4.922553E+02 +3.085774E+00 -3.224286E+00 +3.085774E+00 +3.884811E+02 
 +8.719994E+02 +2.752733E+00 +8.306475E+00 +2.752733E+00 +4.983433E+02 +3.558686E+00 +8.306475E+00 +3.558686E+00 +4.072672E+02 
 +8.725197E+02 +4.607452E+00 +8.711059E+00 +4.607452E+00 +4.993310E+02 +1.431849E+01 +8.711059E+00 +1.431849E+01 +4.084141E+02 
 +8.858534E+02 +3.671024E+00 +8.800051E+00 +3.671024E+00 +5.161455E+02 +2.301748E+01 +8.800051E+00 +2.301748E+01 +4.029849E+02 
 +8.754574E+02 -1.039235E+01 -1.688222E+01 -1.039235E+01 +5.230579E+02 +7.155627E+00 -1.688222E+01 +7.155627E+00 +3.803977E+02 
 +8.878152E+02 -3.669213E+00 -1.563041E+01 -3.669213E+00 +5.296785E+02 -2.224577E+01 -1.563041E+01 -2.224577E+01 +3.564199E+02 
 +8.879292E+02 -3.435989E+00 -9.804109E+00 -3.435989E+00 +5.179695E+02 -1.773120E+01 -9.804109E+00 -1.773120E+01 +3.396896E+02 
 +8.860805E+02 -5.772325E+00 -4.271167E+00 -5.772325E+00 +4.996776E+02 +1.031133E+00 -4.271167E+00 +1.031133E+00 +3.747845E+02 
 +8.495167E+02 -4.959611E+00 +1.897354E+00 -4.959611E+00 +4.639377E+02 +1.863804E+01 +1.897354E+00 +1.863804E+01 +3.798831E+02 
 +8.536588E+02 -2.298675E+00 -1.787356E+00 -2.298675E+00 +4.769398E+02 +3.009326E+01 -1.787356E+00 +3.009326E+01 +3.694298E+02 
 +8.220364E+02 -5.725539E+00 -5.293992E-02 -5.725539E+00 +4.976591E+02 +2.368556E+01 -5.293992E-02 +2.368556E+01 +3.551206E+02 
 +8.265831E+02 -9.288915E+00 -6.643613E-01 -9.288915E+00 +5.066417E+02 +1.921031E+01 -6.643613E-01 +1.921031E+01 +3.409024E+02 
 +8.498586E+02 -5.388503E+00 -1.298317E-02 -5.388503E+00 +4.999256E+02 +2.303085E+01 -1.298317E-02 +2.303085E+01 +3.138167E+02 
 +8.521829E+02 +4.419685E-01 +8.597579E+00 +4.419685E-01 +4.949973E+02 +1.865102E+01 +8.597579E+00 +1.865102E+01 +3.068176E+02 
 +8.634122E+02 +2.431743E+00 +4.251852E+00 +2.431743E+00 +4.989635E+02 +7.841161E+00 +4.251852E+00 +7.841161E+00 +3.278854E+02 
 +8.724842E+02 -1.480964E+00 +7.356979E+00 -1.480964E+00 +4.904517E+02 +1.530560E+00 +7.356979E+00 +1.530560E+00 +3.411842E+02 
 +8.769087E+02 -4.222883E+00 +4.920206E+00 -4.222883E+00 +4.841531E+02 -9.657936E+00 +4.920206E+00 -9.657936E+00 +3.607368E+02 
 +8.841959E+02 +2.400105E+00 +4.328345E+00 +2.400105E+00 +4.880902E+02 -2.619718E+01 +4.328345E+00 -2.619718E+01 +3.943636E+02 
 +8.808071E+02 -1.857058E+00 +3.483462E+00 -1.857058E+00 +4.830248E+02 -2.389049E+01 +3.483462E+00 -2.389049E+01 +4.074108E+02 
 +8.819254E+02 -1.038565E+01 -4.200567E-01 -1.038565E+01 +4.978407E+02 -1.545048E+01 -4.200567E-01 -1.545048E+01 +4.115703E+02 
 +8.331688E+02 -2.067887E+00 -7.790453E+00 -2.067887E+00 +4.812686E+02 -1.210658E+01 -7.790453E+00 -1.210658E+01 +3.900580E+02 
 +8.707813E+02 +1.115639E-01 +4.851218E+00 +1.115639E-01 +4.827540E+02 -8.120467E+00 +4.851218E+00 -8.120467E+00 +3.956940E+02 
 +8.667664E+02 +6.944298E+00 +1.000638E+01 +6.944298E+00 +4.793416E+02 +2.314915E+00 +1.000638E+01 +2.314915E+00 +4.011190E+02 
 +8.706015E+02 +5.717326E+00 +4.428334E+00 +5.717326E+00 +4.954731E+02 -2.127145E+00 +4.428334E+00 -2.127145E+00 +4.032533E+02 
 +8.708678E+02 +5.446173E+00 +4.939681E+00 +5.446173E+00 +4.928285E+02 -2.175121E+01 +4.939681E+00 -2.175121E+01 +3.810073E+02 
 +8.767849E+02 -1.132794E-01 -1.252246E+01 -1.132794E-01 +5.079713E+02 -2.849653E+01 -1.252246E+01 -2.849653E+01 +3.726982E+02 
 +8.949147E+02 +2.406292E-01 -3.607588E+00 +2.406292E-01 +5.253077E+02 -3.032485E+01 -3.607588E+00 -3.032485E+01 +3.754906E+02 
 +9.043065E+02 -4.228651E+00 -8.159338E+00 -4.228651E+00 +5.326508E+02 -1.802084E+01 -8.159338E+00 -1.802084E+01 +3.778120E+02 
 +9.023910E+02 -5.000039E+00 -7.759305E+00 -5.000039E+00 +5.289320E+02 -4.559258E+00 -7.759305E+00 -4.559258E+00 +4.153919E+02 
 +8.719987E+02 +7.275098E-02 -8.137539E+00 +7.275098E-02 +5.476994E+02 -3.635478E+00 -8.137539E+00 -3.635478E+00 +4.326334E+02 
 +8.536385E+02 +1.877539E+00 -1.117460E+01 +1.877539E+00 +5.469519E+02 +7.182143E+00 -1.117460E+01 +7.182143E+00 +3.983037E+02 
 +8.215488E+02 +9.964060E-01 -1.014402E+01 +9.964060E-01 +4.926424E+02 +2.352026E+01 -1.014402E+01 +2.352026E+01 +3.444489E+02 
 +8.407370E+02 -9.293033E-01 -2.615665E+00 -9.293033E-01 +4.859468E+02 +3.063113E+01 -2.615665E+00 +3.063113E+01 +3.249271E+02 
 +8.621059E+02 +4.563148E+00 +8.379439E-01 +4.563148E+00 +5.005875E+02 +2.244353E+01 +8.379439E-01 +2.244353E+01 +3.195245E+02 
 +8.642434E+02 +6.766749E+00 +7.594656E+00 +6.766749E+00 +5.012655E+02 +7.907729E+00 +7.594656E+00 +7.907729E+00 +3.251998E+02 
 +8.824756E+02 +6.141549E+00 +2.835899E+00 +6.141549E+00 +5.044757E+02 +2.754671E+00 +2.835899E+00 +2.754671E+00 +3.518609E+02 
 +8.860707E+02 -3.054778E-01 +1.387791E+00 -3.054778E-01 +5.072954E+02 -8.291084E-01 +1.387791E+00 -8.291084E-01 +3.669873E+02 
 +8.937246E+02 -5.273396E+00 +2.057922E+00 -5.273396E+00 +5.201638E+02 -1.656587E+01 +2.057922E+00 -1.656587E+01 +3.850870E+02 
 +8.998702E+02 +1.477552E+00 +4.480752E+00 +1.477552E+00 +5.244998E+02 -3.226448E+01 +4.480752E+00 -3.226448E+01 +4.117102E+02 
 +9.004571E+02 +1.392658E+00 +6.243277E+00 +1.392658E+00 +5.210149E+02 -2.795812E+01 +6.243277E+00 -2.795812E+01 +4.213684E+02 
 +8.868357E+02 -3.895675E+00 +7.366508E+00 -3.895675E+00 +5.110526E+02 -3.328696E+01 +7.366508E+00 -3.328696E+01 +4.180762E+02 
 +8.487682E+02 -2.855509E+00 +6.599235E+00 -2.855509E+00 +4.717144E+02 -4.068953E+01 +6.599235E+00 -4.068953E+01 +3.952399E+02 
 +8.381487E+02 +5.828813E-01 +1.003386E+01 +5.828813E-01 +4.515601E+02 -2.068318E+01 +1.003386E+01 -2.068318E+01 +3.797404E+02 
 +8.502758E+02 +8.452637E+00 +5.392821E+00 +8.452637E+00 +4.665444E+02 -6.548226E+00 +5.392821E+00 -6.548226E+00 +3.827763E+02 
 +8.723389E+02 +6.398179E+00 -2.135463E+00 +6.398179E+00 +4.915796E+02 -1.779138E+01 -2.135463E+00 -1.779138E+01 +3.768730E+02 
 +8.682300E+02 +4.903795E+00 +5.968350E+00 +4.903795E+00 +4.968904E+02 -2.820127E+01 +5.968350E+00 -2.820127E+01 +3.539133E+02 
 +8.877152E+02 -2.031955E-02 +3.163778E+00 -2.031955E-02 +5.089096E+02 -3.113484E+01 +3.163778E+00 -3.113484E+01 +3.661139E+02 
 +9.019185E+02 -1.729731E+00 +8.513489E+00 -1.729731E+00 +5.138056E+02 -3.155060E+01 +8.513489E+00 -3.155060E+01 +3.738135E+02 
 +9.188086E+02 -1.103654E+01 +1.169569E-01 -1.103654E+01 +5.397516E+02 -3.595111E+01 +1.169569E-01 -3.595111E+01 +3.949597E+02 
 +8.922002E+02 -1.101718E+01 -1.148978E+01 -1.101718E+01 +5.640913E+02 -2.423941E+01 -1.148978E+01 -2.423941E+01 +4.124384E+02 
 +8.634225E+02 +1.012641E+00 -1.067017E+01 +1.012641E+00 +5.513284E+02 -7.653701E+00 -1.067017E+01 -7.653701E+00 +4.079538E+02 
 +8.301413E+02 +6.276876E+00 -7.910821E+00 +6.276876E+00 +5.183518E+02 +2.372840E+00 -7.910821E+00 +2.372840E+00 +3.924690E+02 
 +8.403820E+02 +8.201630E+00 -9.235291E+00 +8.201630E+00 +5.074201E+02 +9.544726E+00 -9.235291E+00 +9.544726E+00 +3.791155E+02 
 +8.719266E+02 +6.456010E+00 +1.640010E+00 +6.456010E+00 +5.018916E+02 +1.090110E+01 +1.640010E+00 +1.090110E+01 +3.590966E+02 
 +8.742080E+02 +9.676881E+00 +1.656366E+00 +9.676881E+00 +4.996796E+02 +5.584332E+00 +1.656366E+00 +5.584332E+00 +3.512036E+02 
 +8.838824E+02 +1.015454E+01 +3.989230E+00 +1.015454E+01 +5.082140E+02 -2.785359E-01 +3.989230E+00 -2.785359E-01 +3.626965E+02 
 +8.910457E+02 +6.330908E+00 -7.014233E-01 +6.330908E+00 +5.131450E+02 +1.681711E+00 -7.014233E-01 +1.681711E+00 +3.791283E+02 
 +8.991726E+02 +5.662144E+00 +3.455041E-01 +5.662144E+00 +5.285147E+02 +4.596573E+00 +3.455041E-01 +4.596573E+00 +3.967630E+02 
 +8.953663E+02 -2.736961E+00 -1.926694E+00 -2.736961E+00 +5.298837E+02 -1.472375E+01 -1.926694E+00 -1.472375E+01 +3.986505E+02 
 +8.935430E+02 -2.697449E-01 +5.358311E+00 -2.697449E-01 +5.177727E+02 -3.704124E+01 +5.358311E+00 -3.704124E+01 +4.035185E+02 
 +8.996271E+02 +4.504652E+00 +4.333882E+00 +4.504652E+00 +5.171709E+02 -2.972784E+01 +4.333882E+00 -2.972784E+01 +4.134054E+02 
 +8.963831E+02 +3.721787E+00 +9.373953E-01 +3.721787E+00 +5.093560E+02 -2.650665E+01 +9.373953E-01 -2.650665E+01 +4.139879E+02 
 +8.672669E+02 +3.994003E+00 +6.396405E+00 +3.994003E+00 +4.933734E+02 -3.212047E+01 +6.396405E+00 -3.212047E+01 +3.931573E+02 
 +8.407397E+02 +8.675367E+00 +1.068378E+01 +8.675367E+00 +4.990538E+02 -2.083482E+01 +1.068378E+01 -2.083482E+01 +3.834676E+02 
 +8.475503E+02 +1.264123E+01 -1.837307E-01 +1.264123E+01 +5.006965E+02 -1.376910E+01 -1.837307E-01 -1.376910E+01 +3.812626E+02 
 +8.806177E+02 +9.013218E+00 -2.443386E+00 +9.013218E+00 +5.010041E+02 -2.573097E+01 -2.443386E+00 -2.573097E+01 +3.686679E+02 
 +8.685236E+02 +3.756378E+00 +8.714082E+00 +3.756378E+00 +4.943324E+02 -3.180226E+01 +8.714082E+00 -3.180226E+01 +3.514007E+02 
 +8.942763E+02 -3.149864E+00 +8.124143E+00 -3.149864E+00 +5.140462E+02 -2.951005E+01 +8.124143E+00 -2.951005E+01 +3.679143E+02 
 +9.003551E+02 -7.333333E+00 +8.374482E+00 -7.333333E+00 +5.182589E+02 -2.860511E+01 +8.374482E+00 -2.860511E+01 +3.678694E+02 
 +9.036070E+02 -1.328915E+01 +1.499883E+00 -1.328915E+01 +5.300152E+02 -3.766865E+01 +1.499883E+00 -3.766865E+01 +3.819737E+02 
 +8.590517E+02 -1.086287E+01 -1.684843E+00 -1.086287E+01 +5.140775E+02 -3.465168E+01 -1.684843E+00 -3.465168E+01 +3.761933E+02 
 +8.491374E+02 -1.960387E+00 +2.610843E-01 -1.960387E+00 +5.140107E+02 -1.411096E+01 +2.610843E-01 -1.411096E+01 +3.829991E+02 
 +8.388851E+02 +2.540681E+00 -3.135926E+00 +2.540681E+00 +5.056081E+02 -1.632867E+00 -3.135926E+00 -1.632867E+00 +3.967224E+02 
 +8.529355E+02 +5.086789E+00 +1.304877E+00 +5.086789E+00 +5.069203E+02 +8.807897E+00 +1.304877E+00 +8.807897E+00 +4.078027E+02 
 +8.816550E+02 +5.154880E+00 +5.487897E+00 +5.154880E+00 +5.134486E+02 +1.259095E+01 +5.487897E+00 +1.259095E+01 +4.012737E+02 
 +8.840519E+02 +9.390253E+00 +4.614969E+00 +9.390253E+00 +4.995600E+02 +7.728751E+00 +4.614969E+00 +7.728751E+00 +3.754996E+02 
 +8.899159E+02 +7.523892E+00 +2.210504E+00 +7.523892E+00 +5.021115E+02 +4.368533E+00 +2.210504E+00 +4.368533E+00 +3.728392E+02 
 +9.002749E+02 +8.198352E+00 +2.578291E+00 +8.198352E+00 +5.226428E+02 +1.161245E+01 +2.578291E+00 +1.161245E+01 +3.952062E+02 
 +9.035833E+02 +8.568857E+00 -1.796507E+00 +8.568857E+00 +5.293199E+02 +1.519406E+01 -1.796507E+00 +1.519406E+01 +4.160994E+02 
 +8.882558E+02 -2.566667E+00 -1.750889E+01 -2.566667E+00 +5.200801E+02 -4.614506E+00 -1.750889E+01 -4.614506E+00 +4.198685E+02 
 +8.903483E+02 -1.893654E+00 -6.524693E+00 -1.893654E+00 +5.219575E+02 -3.550365E+01 -6.524693E+00 -3.550365E+01 +4.050031E+02 
 +8.938158E+02 +1.385624E+00 +1.636498E+00 +1.385624E+00 +5.094211E+02 -3.830966E+01 +1.636498E+00 -3.830966E+01 +3.785418E+02 
 +9.087042E+02 -2.280311E+00 +6.453123E+00 -2.280311E+00 +5.159949E+02 -2.676087E+01 +6.453123E+00 -2.676087E+01 +3.788344E+02 
 +8.648377E+02 +3.115765E+00 +8.475418E+00 +3.115765E+00 +5.068283E+02 -1.808286E+01 +8.475418E+00 -1.808286E+01 +3.682924E+02 
 +8.414922E+02 +1.331974E+01 +5.667845E+00 +1.331974E+01 +5.043464E+02 -7.241748E+00 +5.667845E+00 -7.241748E+00 +3.804427E+02 
 +8.254981E+02 +1.240409E+01 -3.611216E+00 +1.240409E+01 +4.902659E+02 -5.719039E+00 -3.611216E+00 -5.719039E+00 +3.776613E+02 
 +8.583034E+02 +1.251975E+01 -5.154417E+00 +1.251975E+01 +4.969070E+02 -1.928079E+01 -5.154417E+00 -1.928079E+01 +3.667281E+02 
 +8.797093E+02 +5.323144E+00 +2.854895E+00 +5.323144E+00 +5.067634E+02 -2.581344E+01 +2.854895E+00 -2.581344E+01 +3.576328E+02 
 +8.956414E+02 -5.171993E+00 +6.240026E+00 -5.171993E+00 +5.148026E+02 -2.630817E+01 +6.240026E+00 -2.630817E+01 +3.610638E+02 
 +8.900234E+02 -5.616912E+00 +2.225075E+00 -5.616912E+00 +5.233092E+02 -2.337457E+01 +2.225075E+00 -2.337457E+01 +3.636963E+02 
 +8.929759E+02 -8.468087E+00 -3.490259E+00 -8.468087E+00 +5.349346E+02 -2.584675E+01 -3.490259E+00 -2.584675E+01 +3.701252E+02 
 +8.720625E+02 -1.285474E+01 +2.526178E+00 -1.285474E+01 +5.290718E+02 -1.618032E+01 +2.526178E+00 -1.618032E+01 +3.746321E+02 
 +8.610325E+02 -7.565250E+00 +4.940069E-02 -7.565250E+00 +5.174999E+02 -6.975159E+00 +4.940069E-02 -6.975159E+00 +3.784246E+02 
 +8.594059E+02 -1.889204E+00 -7.202917E-01 -1.889204E+00 +5.064151E+02 +2.454850E+00 -7.202917E-01 +2.454850E+00 +3.850215E+02 
 +8.521347E+02 +6.137917E+00 +1.309348E+01 +6.137917E+00 +4.968953E+02 +4.811727E+00 +1.309348E+01 +4.811727E+00 +3.944994E+02 
 +8.761316E+02 +2.785649E+00 +8.005683E+00 +2.785649E+00 +5.091021E+02 -1.458879E+00 +8.005683E+00 -1.458879E+00 +4.058124E+02 
 +8.804576E+02 +4.634232E+00 +1.306096E+01 +4.634232E+00 +4.999023E+02 -9.137837E-01 +1.306096E+01 -9.137837E-01 +3.847782E+02 
 +8.922306E+02 +7.000742E+00 +8.442846E+00 +7.000742E+00 +5.030245E+02 +3.142965E+00 +8.442846E+00 +3.142965E+00 +3.805290E+02 
 +9.055725E+02 +3.243772E+00 +1.320233E+01 +3.243772E+00 +5.161050E+02 +1.109297E+01 +1.320233E+01 +1.109297E+01 +3.990998E+02 
 +8.896382E+02 -1.230155E+00 -6.938338E+00 -1.230155E+00 +5.065478E+02 +1.790086E+01 -6.938338E+00 +1.790086E+01 +4.050578E+02 
 +8.907623E+02 -6.169184E-01 -1.892217E+01 -6.169184E-01 +5.184671E+02 +1.743849E+01 -1.892217E+01 +1.743849E+01 +4.150107E+02 
 +8.921428E+02 +2.477304E+00 -1.831665E+01 +2.477304E+00 +5.299357E+02 +1.793245E+01 -1.831665E+01 +1.793245E+01 +3.927087E+02 
 +9.031284E+02 +2.264369E+00 -3.587674E+00 +2.264369E+00 +5.389467E+02 +1.660214E+01 -3.587674E+00 +1.660214E+01 +3.682794E+02 
 +9.019557E+02 -5.265858E+00 +7.480541E+00 -5.265858E+00 +5.332822E+02 +4.897613E+00 +7.480541E+00 +4.897613E+00 +3.569964E+02 
 +8.795462E+02 -3.118722E+00 +9.410023E+00 -3.118722E+00 +5.119003E+02 -1.472684E+01 +9.410023E+00 -1.472684E+01 +3.579619E+02 
 +8.474593E+02 +9.010361E+00 +8.435095E+00 +9.010361E+00 +5.000470E+02 -1.111213E+01 +8.435095E+00 -1.111213E+01 +3.913457E+02 
 +8.407326E+02 +1.053210E+01 +3.781143E-01 +1.053210E+01 +5.063118E+02 -2.805185E+00 +3.781143E-01 -2.805185E+00 +4.059444E+02 
 +8.375221E+02 +1.620194E+01 -3.250911E+00 +1.620194E+01 +5.063276E+02 -5.763731E+00 -3.250911E+00 -5.763731E+00 +3.826376E+02 
 +8.889144E+02 +7.163878E+00 -5.876499E+00 +7.163878E+00 +5.215012E+02 -1.672949E+01 -5.876499E+00 -1.672949E+01 +3.698680E+02 
 +8.925235E+02 -3.376773E+00 -5.610360E-02 -3.376773E+00 +5.161458E+02 -2.275724E+01 -5.610360E-02 -2.275724E+01 +3.579469E+02 
 +8.795597E+02 -1.467593E+00 -8.157741E+00 -1.467593E+00 +5.171817E+02 -2.472108E+01 -8.157741E+00 -2.472108E+01 +3.576467E+02 
 +8.732228E+02 +4.215398E-01 -4.892706E+00 +4.215398E-01 +5.155635E+02 -2.751176E+01 -4.892706E+00 -2.751176E+01 +3.549215E+02 
 +8.676351E+02 -2.711648E+00 +3.055074E+00 -2.711648E+00 +5.298820E+02 -1.628152E+01 +3.055074E+00 -1.628152E+01 +3.589451E+02 
 +8.788503E+02 -5.677518E+00 -3.711179E+00 -5.677518E+00 +5.397208E+02 -3.422382E+00 -3.711179E+00 -3.422382E+00 +3.669737E+02 
 +8.842748E+02 -6.771415E+00 +1.651050E-01 -6.771415E+00 +5.323125E+02 +6.694662E+00 +1.651050E-01 +6.694662E+00 +3.726628E+02 
 +8.741715E+02 -6.380967E-02 +1.018001E+01 -6.380967E-02 +5.155289E+02 +8.233157E+00 +1.018001E+01 +8.233157E+00 +3.789417E+02 
 +8.669571E+02 +6.061117E+00 +1.112302E+01 +6.061117E+00 +5.064620E+02 +4.850623E+00 +1.112302E+01 +4.850623E+00 +3.886340E+02 
 +8.817642E+02 +3.538917E+00 +1.610997E+01 +3.538917E+00 +5.162881E+02 -1.220402E+00 +1.610997E+01 -1.220402E+00 +3.989043E+02 
 +8.981547E+02 +8.149259E+00 +1.194536E+01 +8.149259E+00 +5.211698E+02 -9.607839E+00 +1.194536E+01 -9.607839E+00 +4.071838E+02 
 +9.106004E+02 -2.205030E+00 +2.077942E+01 -2.205030E+00 +5.197955E+02 -8.701225E+00 +2.077942E+01 -8.701225E+00 +4.193658E+02 
 +8.920178E+02 -3.539952E+00 +1.201868E+00 -3.539952E+00 +5.014125E+02 -3.690453E+00 +1.201868E+00 -3.690453E+00 +4.066358E+02 
 +8.857754E+02 +1.824160E-01 -3.974777E+00 +1.824160E-01 +5.001443E+02 -2.223267E+00 -3.974777E+00 -2.223267E+00 +3.964603E+02 
 +8.800181E+02 -8.491365E-01 -1.125323E+01 -8.491365E-01 +5.000350E+02 +1.005813E+00 -1.125323E+01 +1.005813E+00 +3.817134E+02 
 +8.807025E+02 -1.707329E+00 -5.992602E+00 -1.707329E+00 +5.032244E+02 -1.026475E+00 -5.992602E+00 -1.026475E+00 +3.793102E+02 
 +8.764678E+02 -6.874640E+00 -2.901668E+00 -6.874640E+00 +5.040892E+02 -1.027015E+01 -2.901668E+00 -1.027015E+01 +3.666270E+02 
 +8.833581E+02 -5.538294E+00 +2.246445E+00 -5.538294E+00 +5.143201E+02 -8.695353E+00 +2.246445E+00 -8.695353E+00 +3.554199E+02 
 +8.570133E+02 +1.140881E+00 +1.153541E+01 +1.140881E+00 +5.097792E+02 -6.543507E-01 +1.153541E+01 -6.543507E-01 +3.828290E+02 
 +8.570040E+02 +4.707195E+00 +3.632456E+00 +4.707195E+00 +5.119096E+02 -6.708888E-01 +3.632456E+00 -6.708888E-01 +4.062828E+02 
 +8.265402E+02 +1.725623E+01 -1.561799E+00 +1.725623E+01 +4.921568E+02 -9.842041E+00 -1.561799E+00 -9.842041E+00 +3.772391E+02 
 +8.765120E+02 +9.450475E+00 -1.291942E+01 +9.450475E+00 +5.156901E+02 -2.114179E+01 -1.291942E+01 -2.114179E+01 +3.712501E+02 
 +8.850751E+02 +1.428346E+00 -5.953582E+00 +1.428346E+00 +5.200034E+02 -2.226880E+01 -5.953582E+00 -2.226880E+01 +3.590827E+02 
 +8.770759E+02 +2.119544E+00 -1.101289E+01 +2.119544E+00 +5.234738E+02 -2.428347E+01 -1.101289E+01 -2.428347E+01 +3.521877E+02 
 +8.856806E+02 +4.520750E+00 +9.205158E-01 +4.520750E+00 +5.518150E+02 -9.368190E+00 +9.205158E-01 -9.368190E+00 +3.623999E+02 
 +8.853862E+02 -1.105848E+00 +2.328849E+00 -1.105848E+00 +5.522551E+02 +2.803361E-01 +2.328849E+00 +2.803361E-01 +3.647379E+02 
 +8.852132E+02 -6.170438E+00 -1.560546E+00 -6.170438E+00 +5.447025E+02 +5.090734E+00 -1.560546E+00 +5.090734E+00 +3.654678E+02 
 +8.893668E+02 -5.857049E+00 +8.233483E-01 -5.857049E+00 +5.407719E+02 +1.404041E+01 +8.233483E-01 +1.404041E+01 +3.661901E+02 
 +8.977594E+02 -5.323610E+00 +7.610551E+00 -5.323610E+00 +5.324657E+02 +1.864546E+01 +7.610551E+00 +1.864546E+01 +3.732127E+02 
 +8.708459E+02 +5.101434E+00 +1.213737E+01 +5.101434E+00 +5.150684E+02 +8.031100E+00 +1.213737E+01 +8.031100E+00 +3.818920E+02 
 +8.742383E+02 +3.632103E+00 +1.451258E+01 +3.632103E+00 +5.218502E+02 -3.502291E+00 +1.451258E+01 -3.502291E+00 +3.950180E+02 
 +8.878078E+02 +5.887114E+00 +1.377763E+01 +5.887114E+00 +5.229942E+02 -8.682797E+00 +1.377763E+01 -8.682797E+00 +3.991093E+02 
 +9.066689E+02 -3.351449E+00 +1.813283E+01 -3.351449E+00 +5.187410E+02 -1.385977E+01 +1.813283E+01 -1.385977E+01 +4.034268E+02 
 +8.981607E+02 +2.362011E-01 +7.176066E+00 +2.362011E-01 +5.075371E+02 -1.289526E+01 +7.176066E+00 -1.289526E+01 +3.962622E+02 
 +8.871242E+02 +4.682136E+00 -7.409915E-01 +4.682136E+00 +5.021093E+02 -8.334756E+00 -7.409915E-01 -8.334756E+00 +3.886132E+02 
 +8.830373E+02 +1.770943E+00 -8.876836E+00 +1.770943E+00 +4.998179E+02 -6.066821E+00 -8.876836E+00 -6.066821E+00 +3.877062E+02 
 +8.717211E+02 -4.435100E-01 -7.520618E+00 -4.435100E-01 +4.927553E+02 -1.009228E+01 -7.520618E+00 -1.009228E+01 +3.918397E+02 
 +8.727716E+02 -2.081363E+00 -1.721071E+00 -2.081363E+00 +5.015419E+02 -1.744384E+01 -1.721071E+00 -1.744384E+01 +3.845205E+02 
 +8.685971E+02 -2.457852E+00 +4.765262E+00 -2.457852E+00 +5.181342E+02 -1.507777E+01 +4.765262E+00 -1.507777E+01 +3.554750E+02 
 +8.643342E+02 -5.472240E+00 +9.753206E+00 -5.472240E+00 +5.218090E+02 -9.875482E+00 +9.753206E+00 -9.875482E+00 +3.488819E+02 
 +8.507639E+02 -1.864431E+00 +2.674891E+00 -1.864431E+00 +5.081149E+02 -1.284722E+01 +2.674891E+00 -1.284722E+01 +3.521038E+02 
 +8.414755E+02 +4.628790E+00 -3.145084E+00 +4.628790E+00 +4.946714E+02 -2.182306E+01 -3.145084E+00 -2.182306E+01 +3.667625E+02 
 +8.737182E+02 +4.763216E+00 -1.224705E+01 +4.763216E+00 +5.102967E+02 -2.723599E+01 -1.224705E+01 -2.723599E+01 +3.932431E+02 
 +8.785099E+02 +2.225741E+00 -1.158228E+01 +2.225741E+00 +5.138150E+02 -2.731777E+01 -1.158228E+01 -2.731777E+01 +3.703749E+02 
 +8.990471E+02 +7.330001E+00 -1.954784E+00 +7.330001E+00 +5.718203E+02 -7.117076E+00 -1.954784E+00 -7.117076E+00 +3.667006E+02 
 +8.982211E+02 +2.720207E+00 +3.171482E+00 +2.720207E+00 +5.732176E+02 -4.507639E+00 +3.171482E+00 -4.507639E+00 +3.577537E+02 
 +8.988178E+02 -1.729841E+00 +3.313953E-01 -1.729841E+00 +5.638556E+02 -3.422381E+00 +3.313953E-01 -3.422381E+00 +3.660265E+02 
 +9.013417E+02 -6.672320E+00 -2.750691E+00 -6.672320E+00 +5.626869E+02 +1.058201E+00 -2.750691E+00 +1.058201E+00 +3.834458E+02 
 +9.040279E+02 -9.883037E+00 +2.016190E+00 -9.883037E+00 +5.463286E+02 +8.663318E+00 +2.016190E+00 +8.663318E+00 +3.773078E+02 
 +8.992285E+02 -4.978542E+00 +5.226651E+00 -4.978542E+00 +5.309856E+02 +1.064931E+01 +5.226651E+00 +1.064931E+01 +3.723146E+02 
 +8.845768E+02 +8.762497E+00 -1.887347E+00 +8.762497E+00 +5.280898E+02 -2.535554E+00 -1.887347E+00 -2.535554E+00 +3.926877E+02 
 +8.745496E+02 +8.725700E+00 +1.028395E+01 +8.725700E+00 +5.262148E+02 -1.191939E+01 +1.028395E+01 -1.191939E+01 +3.968902E+02 
 +8.703086E+02 +6.751890E+00 +1.476236E+01 +6.751890E+00 +5.089791E+02 -1.443258E+01 +1.476236E+01 -1.443258E+01 +3.724657E+02 
 +8.878817E+02 +3.993848E-01 +1.130133E+01 +3.993848E-01 +5.032440E+02 -1.813285E+01 +1.130133E+01 -1.813285E+01 +3.562534E+02 
 +8.914001E+02 +5.650580E+00 +7.654010E-01 +5.650580E+00 +5.085040E+02 -1.857042E+01 +7.654010E-01 -1.857042E+01 +3.553208E+02 
 +8.913146E+02 +8.281723E+00 -2.952295E+00 +8.281723E+00 +5.113065E+02 -1.716290E+01 -2.952295E+00 -1.716290E+01 +3.596204E+02 
 +8.960783E+02 +9.509453E+00 -1.112396E+01 +9.509453E+00 +5.160582E+02 -9.009088E+00 -1.112396E+01 -9.009088E+00 +3.784076E+02 
 +8.719424E+02 +1.021291E+01 -3.876001E+00 +1.021291E+01 +5.115122E+02 +4.729808E+00 -3.876001E+00 +4.729808E+00 +3.892362E+02 
 +8.666101E+02 +1.040390E+01 +4.756859E+00 +1.040390E+01 +5.137436E+02 +7.611516E+00 +4.756859E+00 +7.611516E+00 +3.865242E+02 
 +8.500238E+02 +1.253020E+01 +9.853351E+00 +1.253020E+01 +5.051348E+02 +3.398890E+00 +9.853351E+00 +3.398890E+00 +3.634297E+02 
 +8.617823E+02 +2.829461E+00 +9.521031E+00 +2.829461E+00 +5.206447E+02 -4.745914E+00 +9.521031E+00 -4.745914E+00 +3.531590E+02 
 +8.549386E+02 -7.168672E-01 +1.193221E+01 -7.168672E-01 +5.199695E+02 -4.158666E+00 +1.193221E+01 -4.158666E+00 +3.459825E+02 
 +8.534510E+02 -1.565032E+00 +3.206030E-01 -1.565032E+00 +5.042714E+02 -6.498104E+00 +3.206030E-01 -6.498104E+00 +3.633519E+02 
 +8.629121E+02 +4.678738E-01 -6.808799E+00 +4.678738E-01 +4.883596E+02 -2.190954E+01 -6.808799E+00 -2.190954E+01 +3.857426E+02 
 +8.765555E+02 +8.365264E+00 -6.980121E+00 +8.365264E+00 +5.140895E+02 -2.100295E+01 -6.980121E+00 -2.100295E+01 +3.744830E+02 
 +8.632503E+02 +1.660580E+01 +3.505454E+00 +1.660580E+01 +4.934484E+02 -1.043252E+01 +3.505454E+00 -1.043252E+01 +3.526315E+02 
 +8.718185E+02 +2.100966E+00 +2.620657E+00 +2.100966E+00 +5.001025E+02 -3.394632E+00 +2.620657E+00 -3.394632E+00 +3.536866E+02 
 +8.649306E+02 -2.714390E+00 +5.015005E-01 -2.714390E+00 +4.813966E+02 -1.021612E+00 +5.015005E-01 -1.021612E+00 +3.559722E+02 
 +8.441564E+02 -7.187575E+00 +1.760531E+00 -7.187575E+00 +4.489827E+02 +6.248578E+00 +1.760531E+00 +6.248578E+00 +3.523485E+02 
 +8.564543E+02 -1.063027E+01 +1.004710E+00 -1.063027E+01 +4.497055E+02 +4.608667E+00 +1.004710E+00 +4.608667E+00 +3.528423E+02 
 +8.707829E+02 -3.571316E+00 -1.669037E+00 -3.571316E+00 +4.782847E+02 -9.659817E+00 -1.669037E+00 -9.659817E+00 +3.696171E+02 
 +8.626387E+02 +1.300824E+00 -1.085548E+01 +1.300824E+00 +4.842873E+02 -1.941429E+01 -1.085548E+01 -1.941429E+01 +3.788575E+02 
 +8.490615E+02 +3.077295E+00 +4.418186E+00 +3.077295E+00 +4.661767E+02 -2.092161E+01 +4.418186E+00 -2.092161E+01 +3.724736E+02 
 +8.481087E+02 +2.659832E+00 +5.311462E+00 +2.659832E+00 +4.658026E+02 -2.316759E+01 +5.311462E+00 -2.316759E+01 +3.625208E+02 
 +8.669792E+02 +3.371175E-01 +9.275885E+00 +3.371175E-01 +4.809022E+02 -1.997454E+01 +9.275885E+00 -1.997454E+01 +3.489792E+02 
 +8.742874E+02 +4.827720E+00 -1.415377E+00 +4.827720E+00 +4.823969E+02 -1.408352E+01 -1.415377E+00 -1.408352E+01 +3.294863E+02 
 +8.787150E+02 +5.676231E+00 -9.939424E+00 +5.676231E+00 +4.811816E+02 -1.491240E+01 -9.939424E+00 -1.491240E+01 +3.323989E+02 
 +8.761005E+02 +3.795288E+00 -9.059140E+00 +3.795288E+00 +4.886326E+02 -1.295264E+01 -9.059140E+00 -1.295264E+01 +3.588230E+02 
 +8.519199E+02 +1.749732E+00 +5.406040E+00 +1.749732E+00 +4.918899E+02 -3.959279E+00 +5.406040E+00 -3.959279E+00 +3.692720E+02 
 +8.487337E+02 +2.334703E+00 +7.756138E+00 +2.334703E+00 +5.009568E+02 -9.978634E-01 +7.756138E+00 -9.978634E-01 +3.731329E+02 
 +8.468116E+02 +7.611280E+00 +8.508962E+00 +7.611280E+00 +4.981250E+02 +2.755062E+00 +8.508962E+00 +2.755062E+00 +3.702632E+02 
 +8.462288E+02 +7.299521E+00 +1.004822E+01 +7.299521E+00 +4.983101E+02 +1.260369E+01 +1.004822E+01 +1.260369E+01 +3.692710E+02 
 +8.543542E+02 +6.832427E-01 +1.675131E+01 +6.832427E-01 +5.073526E+02 +1.531776E+01 +1.675131E+01 +1.531776E+01 +3.679046E+02 
 +8.577566E+02 -1.795125E+00 -1.414795E+00 -1.795125E+00 +5.104286E+02 -2.276263E+00 -1.414795E+00 -2.276263E+00 +3.514080E+02 
 +8.668607E+02 +1.682640E+00 -2.330822E+00 +1.682640E+00 +5.268107E+02 -1.740238E+01 -2.330822E+00 -1.740238E+01 +3.567769E+02 
 +8.673791E+02 +1.336480E+01 +1.005442E+00 +1.336480E+01 +5.137692E+02 -1.461992E+01 +1.005442E+00 -1.461992E+01 +3.582175E+02 
 +8.503400E+02 +1.720304E+01 +2.486371E+00 +1.720304E+01 +4.559630E+02 -1.098603E+01 +2.486371E+00 -1.098603E+01 +3.639847E+02 
 +8.549829E+02 +5.020906E+00 +5.749823E+00 +5.020906E+00 +4.379614E+02 -7.394750E+00 +5.749823E+00 -7.394750E+00 +3.787704E+02 
 +8.586874E+02 -2.552888E+00 +1.771607E+00 -2.552888E+00 +4.456414E+02 -7.742568E-01 +1.771607E+00 -7.742568E-01 +3.869962E+02 
 +8.557862E+02 -7.185812E+00 +4.623661E+00 -7.185812E+00 +4.549526E+02 +1.587245E-01 +4.623661E+00 +1.587245E-01 +3.854244E+02 
 +8.695746E+02 -6.596118E+00 +1.085396E+00 -6.596118E+00 +4.795882E+02 -1.355475E+01 +1.085396E+00 -1.355475E+01 +3.836430E+02 
 +8.753262E+02 +3.767969E-01 -5.535172E-01 +3.767969E-01 +4.907715E+02 -1.825344E+01 -5.535172E-01 -1.825344E+01 +3.801777E+02 
 +8.600992E+02 +4.273200E-02 -5.769912E+00 +4.273200E-02 +4.763548E+02 -1.678691E+01 -5.769912E+00 -1.678691E+01 +3.708352E+02 
 +8.628054E+02 +2.970756E+00 -2.834460E-01 +2.970756E+00 +4.768323E+02 -2.280177E+01 -2.834460E-01 -2.280177E+01 +3.804906E+02 
 +8.658000E+02 +4.472414E+00 -6.483706E+00 +4.472414E+00 +4.806898E+02 -2.242221E+01 -6.483706E+00 -2.242221E+01 +3.889616E+02 
 +8.667234E+02 +3.159867E+00 +3.540332E+00 +3.159867E+00 +4.793507E+02 -1.578748E+01 +3.540332E+00 -1.578748E+01 +3.742051E+02 
 +8.666105E+02 +4.770947E+00 -5.112680E-01 +4.770947E+00 +4.679762E+02 -1.763304E+01 -5.112680E-01 -1.763304E+01 +3.413400E+02 
 +8.708154E+02 +4.001723E+00 -9.963031E+00 +4.001723E+00 +4.742149E+02 -1.650021E+01 -9.963031E+00 -1.650021E+01 +3.411886E+02 
 +8.592968E+02 +1.225126E+00 +9.001706E-01 +1.225126E+00 +4.874515E+02 +1.011249E+00 +9.001706E-01 +1.011249E+00 +3.599855E+02 
 +8.478504E+02 -8.670507E-01 +9.070599E+00 -8.670507E-01 +4.902202E+02 +6.215005E+00 +9.070599E+00 +6.215005E+00 +3.648652E+02 
 +8.439163E+02 -3.159078E-01 +6.481478E+00 -3.159078E-01 +4.921346E+02 +1.514280E+00 +6.481478E+00 +1.514280E+00 +3.684385E+02 
 +8.458477E+02 +1.509528E+00 +3.927351E+00 +1.509528E+00 +4.945775E+02 +7.083812E-01 +3.927351E+00 +7.083812E-01 +3.672045E+02 
 +8.470603E+02 +3.279714E+00 +8.946758E+00 +3.279714E+00 +4.939551E+02 +6.163990E+00 +8.946758E+00 +6.163990E+00 +3.719584E+02 
 +8.530619E+02 -4.637609E-01 +8.401288E+00 -4.637609E-01 +4.973873E+02 +4.282594E+00 +8.401288E+00 +4.282594E+00 +3.645044E+02 
 +8.543278E+02 +1.394935E-01 -1.012834E+01 +1.394935E-01 +4.983178E+02 -1.491183E+01 -1.012834E+01 -1.491183E+01 +3.257478E+02 
 +8.381319E+02 +6.573040E+00 -2.935876E+00 +6.573040E+00 +4.888930E+02 -2.735910E+01 -2.935876E+00 -2.735910E+01 +3.149614E+02 
 +8.442519E+02 +1.026808E+01 +8.796731E-01 +1.026808E+01 +4.812809E+02 -2.050444E+01 +8.796731E-01 -2.050444E+01 +3.402785E+02 
 +8.493654E+02 +6.139658E+00 +3.485323E+00 +6.139658E+00 +4.485144E+02 -2.457580E-01 +3.485323E+00 -2.457580E-01 +3.723881E+02 
 +8.635375E+02 +3.768381E+00 +5.568131E+00 +3.768381E+00 +4.451195E+02 +2.467259E+00 +5.568131E+00 +2.467259E+00 +3.939242E+02 
 +8.675209E+02 -2.933977E-01 +2.676917E+00 -2.933977E-01 +4.516602E+02 -4.838586E-02 +2.676917E+00 -4.838586E-02 +4.017320E+02 
 +8.697594E+02 -1.506532E+00 +1.715759E+00 -1.506532E+00 +4.750147E+02 -6.908157E+00 +1.715759E+00 -6.908157E+00 +4.121439E+02 
 +8.789598E+02 +1.059803E+00 +3.930256E+00 +1.059803E+00 +4.996051E+02 -1.185054E+01 +3.930256E+00 -1.185054E+01 +4.029960E+02 
 +8.809304E+02 +3.266274E-01 +7.670517E+00 +3.266274E-01 +5.001918E+02 -1.157665E+01 +7.670517E+00 -1.157665E+01 +3.803210E+02 
 +8.714098E+02 +3.277752E-01 -2.233799E+00 +3.277752E-01 +4.887908E+02 -1.212234E+01 -2.233799E+00 -1.212234E+01 +3.811118E+02 
 +8.760986E+02 +4.063934E+00 -4.982448E+00 +4.063934E+00 +4.899665E+02 -1.275806E+01 -4.982448E+00 -1.275806E+01 +3.969909E+02 
 +8.791369E+02 +7.571731E+00 -1.145346E+01 +7.571731E+00 +4.930308E+02 -1.087979E+01 -1.145346E+01 -1.087979E+01 +4.019086E+02 
 +8.745969E+02 +4.030764E+00 -8.808883E+00 +4.030764E+00 +4.870619E+02 -6.117510E+00 -8.808883E+00 -6.117510E+00 +3.864502E+02 
 +8.632862E+02 +4.913464E+00 +3.817679E+00 +4.913464E+00 +4.792835E+02 +8.564588E+00 +3.817679E+00 +8.564588E+00 +3.634813E+02 
 +8.593238E+02 +5.620828E+00 +3.954376E+00 +5.620828E+00 +4.851110E+02 +1.643186E+01 +3.954376E+00 +1.643186E+01 +3.593986E+02 
 +8.512487E+02 +1.901962E+00 +9.766743E+00 +1.901962E+00 +4.871882E+02 +1.364679E+01 +9.766743E+00 +1.364679E+01 +3.628797E+02 
 +8.468561E+02 -4.087878E-01 +8.064117E+00 -4.087878E-01 +4.896385E+02 +8.069076E+00 +8.064117E+00 +8.069076E+00 +3.694956E+02 
 +8.473860E+02 +1.974275E-01 +4.379122E+00 +1.974275E-01 +4.942225E+02 +3.913550E+00 +4.379122E+00 +3.913550E+00 +3.748783E+02 
 +8.422591E+02 -3.390915E-01 +1.351065E+00 -3.390915E-01 +4.897105E+02 +1.922789E+00 +1.351065E+00 +1.922789E+00 +3.666163E+02 
 +8.482602E+02 +1.306768E+00 +7.908306E+00 +1.306768E+00 +4.902957E+02 +3.000779E+00 +7.908306E+00 +3.000779E+00 +3.693893E+02 
 +8.563728E+02 -2.280896E+00 +7.994621E+00 -2.280896E+00 +4.887625E+02 +5.190100E-01 +7.994621E+00 +5.190100E-01 +3.622089E+02 
 +8.572401E+02 -2.658595E-01 -5.465064E+00 -2.658595E-01 +4.818827E+02 -1.127286E+01 -5.465064E+00 -1.127286E+01 +3.343789E+02 
 +8.409037E+02 +1.541240E+00 -1.564775E+00 +1.541240E+00 +4.703947E+02 -1.787578E+01 -1.564775E+00 -1.787578E+01 +3.285458E+02 
 +8.333253E+02 +1.416203E+00 +5.832789E+00 +1.416203E+00 +4.568168E+02 -9.801364E+00 +5.832789E+00 -9.801364E+00 +3.439036E+02 
 +8.574157E+02 -3.177632E+00 +2.165068E+00 -3.177632E+00 +4.490412E+02 +2.274724E+00 +2.165068E+00 +2.274724E+00 +3.732668E+02 
 +8.636936E+02 -2.121354E+00 +2.780567E+00 -2.121354E+00 +4.534629E+02 +1.121754E+00 +2.780567E+00 +1.121754E+00 +3.850396E+02 
 +8.691975E+02 -2.959130E+00 +1.507326E+00 -2.959130E+00 +4.577041E+02 -7.399254E-02 +1.507326E+00 -7.399254E-02 +3.930297E+02 
 +8.711361E+02 +2.391286E+00 -4.088914E+00 +2.391286E+00 +4.723950E+02 -6.827031E+00 -4.088914E+00 -6.827031E+00 +4.015067E+02 
 +8.818112E+02 +4.883435E+00 -1.182195E+00 +4.883435E+00 +4.958266E+02 -1.702278E+01 -1.182195E+00 -1.702278E+01 +4.009810E+02 
 +8.860799E+02 -1.486444E+00 +1.757526E+01 -1.486444E+00 +4.985192E+02 -1.748714E+01 +1.757526E+01 -1.748714E+01 +3.912486E+02 
 +8.689577E+02 -3.352645E-01 +2.771233E+00 -3.352645E-01 +4.797918E+02 -8.243505E+00 +2.771233E+00 -8.243505E+00 +3.840985E+02 
 +8.741167E+02 +5.484444E+00 -5.716940E+00 +5.484444E+00 +4.799244E+02 -3.645271E+00 -5.716940E+00 -3.645271E+00 +3.906594E+02 
 +8.767177E+02 +1.017350E+01 -1.346348E+01 +1.017350E+01 +4.856592E+02 -6.934518E+00 -1.346348E+01 -6.934518E+00 +3.928849E+02 
 +8.681665E+02 +3.281934E+00 -7.830648E+00 +3.281934E+00 +4.854928E+02 -1.033398E-01 -7.830648E+00 -1.033398E-01 +3.748273E+02 
 +8.474518E+02 +5.484941E+00 +1.060193E+01 +5.484941E+00 +4.790391E+02 +1.741230E+01 +1.060193E+01 +1.741230E+01 +3.606477E+02 
 +8.452387E+02 +9.702003E+00 +1.264394E+01 +9.702003E+00 +4.861616E+02 +1.810561E+01 +1.264394E+01 +1.810561E+01 +3.680402E+02 
 +8.477507E+02 +5.089435E+00 +1.146107E+01 +5.089435E+00 +4.912459E+02 +1.508930E+01 +1.146107E+01 +1.508930E+01 +3.719419E+02 
 +8.473118E+02 +2.210475E+00 +7.453638E+00 +2.210475E+00 +4.920776E+02 +1.256912E+01 +7.453638E+00 +1.256912E+01 +3.771408E+02 
 +8.444582E+02 +1.069592E+00 +3.859403E+00 +1.069592E+00 +4.902337E+02 +7.589799E+00 +3.859403E+00 +7.589799E+00 +3.782880E+02 
 +8.456752E+02 +4.788040E-01 +5.246182E+00 +4.788040E-01 +4.910950E+02 +5.843042E+00 +5.246182E+00 +5.843042E+00 +3.770485E+02 
 +8.449519E+02 -1.368284E+00 +6.496386E+00 -1.368284E+00 +4.820630E+02 +4.046401E+00 +6.496386E+00 +4.046401E+00 +3.672920E+02 
 +8.476853E+02 -6.431756E+00 +9.247156E+00 -6.431756E+00 +4.664595E+02 -2.109881E+00 +9.247156E+00 -2.109881E+00 +3.573187E+02 
 +8.554941E+02 -5.077175E+00 +9.661129E+00 -5.077175E+00 +4.627149E+02 -3.536669E+00 +9.661129E+00 -3.536669E+00 +3.574938E+02 
 +8.418722E+02 -8.283727E+00 +8.350835E+00 -8.283727E+00 +4.496967E+02 +9.006561E-01 +8.350835E+00 +9.006561E-01 +3.516421E+02 
 +8.282084E+02 -1.087025E+01 +1.429015E+01 -1.087025E+01 +4.338009E+02 +5.346010E+00 +1.429015E+01 +5.346010E+00 +3.488626E+02 
 +8.587849E+02 -4.480208E+00 -3.158608E+00 -4.480208E+00 +4.487543E+02 -3.751598E+00 -3.158608E+00 -3.751598E+00 +3.729061E+02 
 +8.625744E+02 -4.808130E+00 -2.518620E+00 -4.808130E+00 +4.514127E+02 -3.820170E+00 -2.518620E+00 -3.820170E+00 +3.797173E+02 
 +8.690022E+02 -4.687890E+00 -2.969860E+00 -4.687890E+00 +4.572825E+02 -4.043522E+00 -2.969860E+00 -4.043522E+00 +3.836668E+02 
 +8.735449E+02 +5.762762E-01 -4.780127E+00 +5.762762E-01 +4.625519E+02 +7.208417E-01 -4.780127E+00 +7.208417E-01 +3.894102E+02 
 +8.726464E+02 +2.456788E+00 -2.155750E+00 +2.456788E+00 +4.597379E+02 +1.425175E+01 -2.155750E+00 +1.425175E+01 +3.934344E+02 
 +8.775718E+02 -1.577708E+00 +1.213535E+01 -1.577708E+00 +4.722494E+02 +1.655010E+01 +1.213535E+01 +1.655010E+01 +3.951884E+02 
 +8.671883E+02 +3.246444E+00 +1.015949E+00 +3.246444E+00 +4.778989E+02 +7.219460E+00 +1.015949E+00 +7.219460E+00 +3.817502E+02 
 +8.618522E+02 +5.326696E+00 -5.067956E+00 +5.326696E+00 +4.642998E+02 +2.730564E+00 -5.067956E+00 +2.730564E+00 +3.648837E+02 
 +8.578382E+02 +1.054378E+01 -2.043318E+01 +1.054378E+01 +4.672965E+02 +2.661122E+00 -2.043318E+01 +2.661122E+00 +3.721339E+02 
 +8.630293E+02 +1.001201E+01 -1.675335E+01 +1.001201E+01 +4.865221E+02 +1.035879E+01 -1.675335E+01 +1.035879E+01 +3.868521E+02 
 +8.498575E+02 +6.295283E+00 +1.150739E+01 +6.295283E+00 +4.836991E+02 +2.055456E+01 +1.150739E+01 +2.055456E+01 +3.728868E+02 
 +8.427634E+02 +5.978699E+00 +1.908487E+01 +5.978699E+00 +4.875132E+02 +1.940188E+01 +1.908487E+01 +1.940188E+01 +3.711211E+02 
 +8.467020E+02 +4.171838E+00 +1.254794E+01 +4.171838E+00 +4.952250E+02 +1.967188E+01 +1.254794E+01 +1.967188E+01 +3.845346E+02 
 +8.474607E+02 +2.567636E+00 +5.516284E+00 +2.567636E+00 +4.956797E+02 +1.725704E+01 +5.516284E+00 +1.725704E+01 +3.907896E+02 
 +8.427455E+02 +1.697118E+00 +3.634110E+00 +1.697118E+00 +4.913973E+02 +1.169005E+01 +3.634110E+00 +1.169005E+01 +3.907798E+02 
 +8.457509E+02 -2.344527E+00 +3.369250E+00 -2.344527E+00 +4.821405E+02 -2.461589E-01 +3.369250E+00 -2.461589E-01 +3.887531E+02 
 +8.402432E+02 -7.195925E+00 +7.860527E+00 -7.195925E+00 +4.577622E+02 -1.030986E+01 +7.860527E+00 -1.030986E+01 +3.760258E+02 
 +8.343263E+02 -7.584205E+00 +7.610467E+00 -7.584205E+00 +4.430851E+02 -7.248807E+00 +7.610467E+00 -7.248807E+00 +3.569270E+02 
 +8.384064E+02 -8.151626E+00 +5.428660E+00 -8.151626E+00 +4.425746E+02 -3.191123E+00 +5.428660E+00 -3.191123E+00 +3.412633E+02 
 +8.428657E+02 -1.251512E+01 +5.549153E+00 -1.251512E+01 +4.457675E+02 -2.880563E+00 +5.549153E+00 -2.880563E+00 +3.416451E+02 
 +8.327386E+02 -1.609387E+01 +1.987725E+01 -1.609387E+01 +4.387874E+02 -1.490412E+00 +1.987725E+01 -1.490412E+00 +3.512406E+02 
 +8.693608E+02 -5.622262E+00 -7.001909E+00 -5.622262E+00 +4.622301E+02 -7.673323E+00 -7.001909E+00 -7.673323E+00 +3.661415E+02 
 +8.662047E+02 -4.298914E+00 -3.554632E+00 -4.298914E+00 +4.580460E+02 -3.501073E+00 -3.554632E+00 -3.501073E+00 +3.648460E+02 
 +8.635547E+02 -4.375250E+00 -4.695394E+00 -4.375250E+00 +4.577404E+02 -2.008314E+00 -4.695394E+00 -2.008314E+00 +3.679432E+02 
 +8.651427E+02 -1.783765E-02 -4.154675E+00 -1.783765E-02 +4.534554E+02 +8.729150E-01 -4.154675E+00 +8.729150E-01 +3.694974E+02 
 +8.740968E+02 +1.137393E+00 -2.309551E+00 +1.137393E+00 +4.535518E+02 +8.030559E+00 -2.309551E+00 +8.030559E+00 +3.763646E+02 
 +8.703296E+02 -2.429626E+00 +1.759655E+00 -2.429626E+00 +4.464206E+02 +1.263457E+01 +1.759655E+00 +1.263457E+01 +3.788479E+02 
 +8.518029E+02 -4.552277E+00 -1.768749E+00 -4.552277E+00 +4.372117E+02 +4.747748E+00 -1.768749E+00 +4.747748E+00 +3.726462E+02 
 +8.547455E+02 -6.785291E+00 -2.546349E+00 -6.785291E+00 +4.569614E+02 -8.381441E+00 -2.546349E+00 -8.381441E+00 +3.746544E+02 
 +8.555679E+02 +2.330990E+00 -7.283973E+00 +2.330990E+00 +4.707603E+02 -8.091290E+00 -7.283973E+00 -8.091290E+00 +3.790166E+02 
 +8.584334E+02 +4.486706E+00 -7.441984E+00 +4.486706E+00 +4.781279E+02 +2.989252E+00 -7.441984E+00 +2.989252E+00 +3.811965E+02 
 +8.523822E+02 +7.112106E+00 +1.965569E+01 +7.112106E+00 +4.882752E+02 +1.468786E+01 +1.965569E+01 +1.468786E+01 +3.807868E+02 
 +8.459938E+02 +5.355301E+00 +2.782307E+01 +5.355301E+00 +4.927314E+02 +1.627764E+01 +2.782307E+01 +1.627764E+01 +3.869383E+02 
 +8.547180E+02 +3.629767E+00 +1.572926E+01 +3.629767E+00 +4.927008E+02 +1.363358E+01 +1.572926E+01 +1.363358E+01 +4.063484E+02 
 +8.485558E+02 +4.514490E+00 +5.940079E+00 +4.514490E+00 +4.855071E+02 +1.249320E+01 +5.940079E+00 +1.249320E+01 +4.167806E+02 
 +8.354773E+02 +1.670860E+00 +6.125919E+00 +1.670860E+00 +4.759830E+02 +7.810226E+00 +6.125919E+00 +7.810226E+00 +4.128927E+02 
 +8.452729E+02 -5.567903E+00 -6.098581E+00 -5.567903E+00 +4.754501E+02 -7.464219E+00 -6.098581E+00 -7.464219E+00 +4.126109E+02 
 +8.400628E+02 -9.735329E+00 +4.703501E+00 -9.735329E+00 +4.633781E+02 -1.436917E+01 +4.703501E+00 -1.436917E+01 +3.952827E+02 
 +8.421262E+02 -3.833714E+00 +1.079480E+01 -3.833714E+00 +4.553470E+02 -1.025693E+01 +1.079480E+01 -1.025693E+01 +3.774587E+02 
 +8.360090E+02 -5.130048E+00 +1.195726E+01 -5.130048E+00 +4.379859E+02 +2.373350E+00 +1.195726E+01 +2.373350E+00 +3.737273E+02 
 +8.410714E+02 -4.986175E+00 +1.144591E+00 -4.986175E+00 +4.288451E+02 +6.589052E+00 +1.144591E+00 +6.589052E+00 +3.723514E+02 
 +8.313004E+02 -1.224310E+01 +1.331606E+01 -1.224310E+01 +4.327552E+02 +2.719110E+00 +1.331606E+01 +2.719110E+00 +3.567355E+02 
 +8.690046E+02 -5.176155E+00 -3.755725E+00 -5.176155E+00 +4.562348E+02 -7.062061E+00 -3.755725E+00 -7.062061E+00 +3.531311E+02 
 +8.671507E+02 -2.030381E+00 -2.353402E+00 -2.030381E+00 +4.578742E+02 +1.515941E+00 -2.353402E+00 +1.515941E+00 +3.557726E+02 
 +8.632687E+02 -1.642060E+00 -5.433538E+00 -1.642060E+00 +4.586525E+02 +4.408977E+00 -5.433538E+00 +4.408977E+00 +3.567915E+02 
 +8.612295E+02 -3.533152E-01 -8.328594E+00 -3.533152E-01 +4.519337E+02 +3.890599E+00 -8.328594E+00 +3.890599E+00 +3.523723E+02 
 +8.564008E+02 -9.263795E-01 -7.469450E+00 -9.263795E-01 +4.363482E+02 +7.069761E+00 -7.469450E+00 +7.069761E+00 +3.453623E+02 
 +8.586723E+02 -4.604398E+00 -4.164662E+00 -4.604398E+00 +4.418489E+02 +1.317079E+01 -4.164662E+00 +1.317079E+01 +3.503088E+02 
 +8.569713E+02 -5.363492E+00 +1.367052E+00 -5.363492E+00 +4.612348E+02 +2.138500E+01 +1.367052E+00 +2.138500E+01 +3.640526E+02 
 +8.633332E+02 -6.601319E+00 +1.973336E+00 -6.601319E+00 +4.779224E+02 +2.820832E+01 +1.973336E+00 +2.820832E+01 +3.807156E+02 
 +8.603587E+02 +4.601702E-01 +3.345922E+00 +4.601702E-01 +4.797539E+02 +3.406297E+01 +3.345922E+00 +3.406297E+01 +3.705924E+02 
 +8.642448E+02 +4.120776E+00 +1.034960E+00 +4.120776E+00 +4.847683E+02 +4.384381E+01 +1.034960E+00 +4.384381E+01 +3.604421E+02 
 +8.563509E+02 +6.570234E+00 +1.712359E+01 +6.570234E+00 +4.881096E+02 +4.398899E+01 +1.712359E+01 +4.398899E+01 +3.741680E+02 
 +8.380650E+02 -2.061219E+00 +2.039356E+01 -2.061219E+00 +4.705539E+02 +3.006799E+01 +2.039356E+01 +3.006799E+01 +3.863432E+02 
 +8.173888E+02 -9.513978E+00 +1.490782E+01 -9.513978E+00 +4.366527E+02 +2.157013E+01 +1.490782E+01 +2.157013E+01 +3.896495E+02 
 +8.309943E+02 -4.108466E+00 +5.777483E+00 -4.108466E+00 +4.453883E+02 +1.446723E+01 +5.777483E+00 +1.446723E+01 +4.140116E+02 
 +8.307531E+02 -6.381813E+00 +4.436926E+00 -6.381813E+00 +4.558808E+02 +5.623618E+00 +4.436926E+00 +5.623618E+00 +4.226055E+02 
 +8.419317E+02 -9.757725E+00 -8.963746E+00 -9.757725E+00 +4.645108E+02 +1.396965E+00 -8.963746E+00 +1.396965E+00 +4.234959E+02 
 +8.505464E+02 -1.189492E+01 -3.160685E+00 -1.189492E+01 +4.700739E+02 -8.132128E+00 -3.160685E+00 -8.132128E+00 +4.161443E+02 
 +8.448684E+02 -5.553003E+00 +1.154496E+01 -5.553003E+00 +4.583285E+02 -1.209828E+01 +1.154496E+01 -1.209828E+01 +3.876394E+02 
 +8.446474E+02 -7.120616E+00 +1.018469E+01 -7.120616E+00 +4.603378E+02 -1.662731E+01 +1.018469E+01 -1.662731E+01 +3.748888E+02 
 +8.524058E+02 -7.990486E+00 +4.211973E+00 -7.990486E+00 +4.718213E+02 -2.148500E+01 +4.211973E+00 -2.148500E+01 +3.793890E+02 
 +8.415980E+02 -1.140327E+01 +1.335352E+01 -1.140327E+01 +4.518939E+02 -1.374035E+01 +1.335352E+01 -1.374035E+01 +3.554609E+02 
 +8.720085E+02 -3.209141E+00 +8.535243E+00 -3.209141E+00 +4.637853E+02 -1.094438E+00 +8.535243E+00 -1.094438E+00 +3.529680E+02 
 +8.680902E+02 +9.126684E-01 -9.384969E-01 +9.126684E-01 +4.559750E+02 +7.797628E+00 -9.384969E-01 +7.797628E+00 +3.519839E+02 
 +8.641670E+02 +6.795317E-01 -4.254206E+00 +6.795317E-01 +4.569686E+02 +1.090769E+01 -4.254206E+00 +1.090769E+01 +3.506100E+02 
 +8.731543E+02 +1.454266E+00 -6.041128E+00 +1.454266E+00 +4.685910E+02 +1.888304E+01 -6.041128E+00 +1.888304E+01 +3.546308E+02 
 +8.723634E+02 +4.093856E+00 -2.766919E+00 +4.093856E+00 +4.839252E+02 +3.439098E+01 -2.766919E+00 +3.439098E+01 +3.632571E+02 
 +8.706499E+02 -8.643257E-01 -7.285242E+00 -8.643257E-01 +4.917391E+02 +3.824662E+01 -7.285242E+00 +3.824662E+01 +3.675066E+02 
 +8.586730E+02 -6.476740E+00 -5.264508E-01 -6.476740E+00 +4.772423E+02 +2.891306E+01 -5.264508E-01 +2.891306E+01 +3.660742E+02 
 +8.563262E+02 -6.524449E+00 +1.361643E+00 -6.524449E+00 +4.740703E+02 +2.640717E+01 +1.361643E+00 +2.640717E+01 +3.618900E+02 
 +8.625169E+02 +1.080976E+00 -4.513709E-01 +1.080976E+00 +4.793453E+02 +3.580987E+01 -4.513709E-01 +3.580987E+01 +3.366124E+02 
 +8.662305E+02 +6.295341E+00 +3.534154E+00 +6.295341E+00 +4.851868E+02 +3.615457E+01 +3.534154E+00 +3.615457E+01 +3.408225E+02 
 +8.622883E+02 +8.767246E+00 +1.017481E+01 +8.767246E+00 +4.839457E+02 +3.173852E+01 +1.017481E+01 +3.173852E+01 +3.711463E+02 
 +8.598813E+02 +2.235748E+00 +8.036678E+00 +2.235748E+00 +4.944915E+02 +1.987351E+01 +8.036678E+00 +1.987351E+01 +4.002845E+02 
 +8.117881E+02 -1.186108E+01 +1.567023E+01 -1.186108E+01 +4.700889E+02 +1.547834E+01 +1.567023E+01 +1.547834E+01 +3.991522E+02 
 +8.298070E+02 -3.847795E+00 +7.824730E+00 -3.847795E+00 +4.566955E+02 +1.507841E+01 +7.824730E+00 +1.507841E+01 +4.091592E+02 
 +8.410460E+02 -6.744313E+00 +3.099117E+00 -6.744313E+00 +4.607491E+02 +1.230628E+01 +3.099117E+00 +1.230628E+01 +4.166242E+02 
 +8.523234E+02 -1.233784E+01 -3.078951E+00 -1.233784E+01 +4.722701E+02 +9.038006E+00 -3.078951E+00 +9.038006E+00 +4.199871E+02 
 +8.582412E+02 -1.203526E+01 -9.990367E+00 -1.203526E+01 +4.742440E+02 -1.761777E-01 -9.990367E+00 -1.761777E-01 +4.142120E+02 
 +8.524305E+02 -7.955043E+00 +4.955646E+00 -7.955043E+00 +4.730444E+02 -9.300256E+00 +4.955646E+00 -9.300256E+00 +3.938135E+02 
 +8.534295E+02 -3.347312E+00 +1.904553E-01 -3.347312E+00 +4.776811E+02 -1.404559E+01 +1.904553E-01 -1.404559E+01 +3.821502E+02 
 +8.627989E+02 -3.308866E+00 +8.868567E+00 -3.308866E+00 +4.886413E+02 -1.566204E+01 +8.868567E+00 -1.566204E+01 +3.880216E+02 
 +8.587521E+02 -1.023473E+01 +2.538283E+01 -1.023473E+01 +4.747707E+02 -9.886804E+00 +2.538283E+01 -9.886804E+00 +3.669400E+02 
 +8.786115E+02 -4.147631E+00 +1.928239E+01 -4.147631E+00 +4.900433E+02 +2.631189E+01 +1.928239E+01 +2.631189E+01 +3.574471E+02 
 +8.755857E+02 +4.531156E+00 +4.635969E+00 +4.531156E+00 +4.734275E+02 +2.230872E+01 +4.635969E+00 +2.230872E+01 +3.472273E+02 
 +8.681668E+02 +3.429932E+00 +2.407076E-02 +3.429932E+00 +4.681898E+02 +2.434014E+01 +2.407076E-02 +2.434014E+01 +3.544814E+02 
 +8.761659E+02 +5.302281E-01 +5.923882E-01 +5.302281E-01 +4.781548E+02 +2.836098E+01 +5.923882E-01 +2.836098E+01 +3.735546E+02 
 +8.695070E+02 +2.170804E+00 +5.923183E+00 +2.170804E+00 +4.860627E+02 +2.975802E+01 +5.923183E+00 +2.975802E+01 +3.868909E+02 
 +8.594047E+02 -4.946687E+00 -6.410967E+00 -4.946687E+00 +4.781518E+02 +2.280969E+01 -6.410967E+00 +2.280969E+01 +3.819402E+02 
 +8.473163E+02 -2.656586E+00 -3.516317E+00 -2.656586E+00 +4.667297E+02 +1.705522E+01 -3.516317E+00 +1.705522E+01 +3.711135E+02 
 +8.512036E+02 +1.023987E+00 +1.492160E+00 +1.023987E+00 +4.727202E+02 +2.324151E+01 +1.492160E+00 +2.324151E+01 +3.543829E+02 
 +8.623937E+02 +3.732641E+00 -1.858057E+00 +3.732641E+00 +4.751205E+02 +3.637716E+01 -1.858057E+00 +3.637716E+01 +3.208844E+02 
 +8.668623E+02 +3.512428E+00 +2.554568E+00 +3.512428E+00 +4.771366E+02 +3.583980E+01 +2.554568E+00 +3.583980E+01 +3.348375E+02 
 +8.682849E+02 +1.108139E+00 +8.595215E+00 +1.108139E+00 +4.812930E+02 +2.787068E+01 +8.595215E+00 +2.787068E+01 +3.750564E+02 
 +8.655288E+02 +9.603112E-01 +2.970502E+00 +9.603112E-01 +4.895462E+02 +1.595963E+01 +2.970502E+00 +1.595963E+01 +4.003873E+02 
 +8.116704E+02 -1.286425E+01 +1.494672E+01 -1.286425E+01 +4.868968E+02 +8.869859E+00 +1.494672E+01 +8.869859E+00 +4.018402E+02 
 +8.274457E+02 -1.245129E+01 +1.321037E+01 -1.245129E+01 +4.985412E+02 +7.501398E+00 +1.321037E+01 +7.501398E+00 +4.136676E+02 
 +8.693818E+02 -7.287748E+00 +4.349188E+00 -7.287748E+00 +4.908544E+02 +1.229927E+01 +4.349188E+00 +1.229927E+01 +4.194473E+02 
 +8.620652E+02 -1.006955E+01 -1.860734E+00 -1.006955E+01 +4.736989E+02 +1.406767E+01 -1.860734E+00 +1.406767E+01 +4.066968E+02 
 +8.588648E+02 -8.162175E+00 -1.197535E+01 -8.162175E+00 +4.738000E+02 +1.210696E+01 -1.197535E+01 +1.210696E+01 +4.007071E+02 
 +8.625961E+02 -9.843006E-01 -1.203355E+00 -9.843006E-01 +4.819850E+02 +1.699194E+01 -1.203355E+00 +1.699194E+01 +3.972856E+02 
 +8.731050E+02 +5.288088E+00 -2.974079E+00 +5.288088E+00 +4.963066E+02 +1.764905E+01 -2.974079E+00 +1.764905E+01 +4.022206E+02 
 +8.801670E+02 +2.798066E+00 +7.978455E+00 +2.798066E+00 +5.011632E+02 +1.903543E+01 +7.978455E+00 +1.903543E+01 +4.047225E+02 
 +8.772328E+02 -5.915793E+00 +2.373037E+01 -5.915793E+00 +5.009142E+02 +2.282731E+01 +2.373037E+01 +2.282731E+01 +3.842316E+02 
 +8.784319E+02 -6.986091E+00 +1.949445E+01 -6.986091E+00 +5.022950E+02 +3.754008E+01 +1.949445E+01 +3.754008E+01 +3.510112E+02 
 +8.819494E+02 +1.477608E+00 +1.022965E+01 +1.477608E+00 +4.952796E+02 +4.442108E+01 +1.022965E+01 +4.442108E+01 +3.376583E+02 
 +8.843658E+02 +8.370950E+00 +5.742702E+00 +8.370950E+00 +4.991311E+02 +3.138281E+01 +5.742702E+00 +3.138281E+01 +3.560432E+02 
 +8.666684E+02 +6.887769E+00 +1.024372E+01 +6.887769E+00 +5.028341E+02 +2.161150E+01 +1.024372E+01 +2.161150E+01 +3.662528E+02 
 +8.601336E+02 +2.819480E+00 +9.951043E+00 +2.819480E+00 +4.842309E+02 +1.738980E+01 +9.951043E+00 +1.738980E+01 +3.627948E+02 
 +8.546457E+02 -2.134791E+00 +2.121376E+00 -2.134791E+00 +4.674404E+02 +1.524631E+01 +2.121376E+00 +1.524631E+01 +3.614931E+02 
 +8.319955E+02 +7.308862E-01 +3.855283E+00 +7.308862E-01 +4.610503E+02 +1.006397E+01 +3.855283E+00 +1.006397E+01 +3.605900E+02 
 +8.381324E+02 +1.078267E+00 +4.871843E+00 +1.078267E+00 +4.646704E+02 +1.509583E+01 +4.871843E+00 +1.509583E+01 +3.524521E+02 
 +8.577243E+02 +2.024427E-01 -5.286214E+00 +2.024427E-01 +4.656904E+02 +2.832607E+01 -5.286214E+00 +2.832607E+01 +3.257417E+02 
 +8.609286E+02 -3.933165E-01 -1.437303E+00 -3.933165E-01 +4.656334E+02 +2.551540E+01 -1.437303E+00 +2.551540E+01 +3.361955E+02 
 +8.623617E+02 -4.066075E+00 +7.149743E+00 -4.066075E+00 +4.724338E+02 +1.978563E+01 +7.149743E+00 +1.978563E+01 +3.734240E+02 
 +8.576587E+02 -3.554495E+00 +1.585056E+00 -3.554495E+00 +4.783529E+02 +1.223083E+01 +1.585056E+00 +1.223083E+01 +3.941333E+02 
 +8.218824E+02 -1.034212E+01 +1.197789E+01 -1.034212E+01 +4.788580E+02 +1.068316E+01 +1.197789E+01 +1.068316E+01 +3.961898E+02 
 +8.276270E+02 -1.254727E+01 +1.650463E+01 -1.254727E+01 +4.886817E+02 +1.043550E+01 +1.650463E+01 +1.043550E+01 +4.010595E+02 
 +8.728327E+02 -1.690042E+00 +5.880852E+00 -1.690042E+00 +4.927361E+02 +1.216943E+01 +5.880852E+00 +1.216943E+01 +4.100702E+02 
 +8.626044E+02 -1.882691E+00 -2.972471E+00 -1.882691E+00 +4.745853E+02 +1.547852E+01 -2.972471E+00 +1.547852E+01 +3.977554E+02 
 +8.578391E+02 -4.569608E+00 -7.249000E+00 -4.569608E+00 +4.752636E+02 +1.797061E+01 -7.249000E+00 +1.797061E+01 +3.883051E+02 
 +8.682129E+02 +3.267523E+00 -9.407111E-01 +3.267523E+00 +4.836775E+02 +2.485708E+01 -9.407111E-01 +2.485708E+01 +3.830902E+02 
 +8.703592E+02 +4.903151E+00 -3.533836E+00 +4.903151E+00 +4.872660E+02 +2.410098E+01 -3.533836E+00 +2.410098E+01 +3.840280E+02 
 +8.725014E+02 +5.930265E-01 +5.919314E+00 +5.930265E-01 +4.881859E+02 +2.389082E+01 +5.919314E+00 +2.389082E+01 +3.832363E+02 
 +8.770002E+02 -3.460907E+00 +1.499957E+01 -3.460907E+00 +4.951258E+02 +2.818537E+01 +1.499957E+01 +2.818537E+01 +3.727705E+02 
 +8.836397E+02 -6.342789E+00 +1.252430E+01 -6.342789E+00 +5.033869E+02 +3.847663E+01 +1.252430E+01 +3.847663E+01 +3.637336E+02 
 +8.913825E+02 -6.056774E+00 +6.505323E+00 -6.056774E+00 +5.138023E+02 +4.166914E+01 +6.505323E+00 +4.166914E+01 +3.701113E+02 
 +8.997480E+02 +6.511587E+00 +1.036221E+01 +6.511587E+00 +5.188815E+02 +4.120403E+01 +1.036221E+01 +4.120403E+01 +3.756288E+02 
 +8.695500E+02 +8.841606E+00 +1.818047E+01 +8.841606E+00 +5.059602E+02 +3.176267E+01 +1.818047E+01 +3.176267E+01 +3.526816E+02 
 +8.498106E+02 -1.137619E-01 +7.271959E+00 -1.137619E-01 +4.816525E+02 +2.511464E+01 +7.271959E+00 +2.511464E+01 +3.437404E+02 
 +8.343851E+02 +7.625997E-01 +3.942812E+00 +7.625997E-01 +4.631625E+02 +2.142730E+01 +3.942812E+00 +2.142730E+01 +3.490940E+02 
 +8.246394E+02 +4.589960E-01 +6.899183E+00 +4.589960E-01 +4.674232E+02 +1.221112E+01 +6.899183E+00 +1.221112E+01 +3.505174E+02 
 +8.265057E+02 -6.241602E-01 +8.566308E+00 -6.241602E-01 +4.652623E+02 +8.256275E+00 +8.566308E+00 +8.256275E+00 +3.430124E+02 
 +8.502010E+02 -1.993339E+00 -5.532107E+00 -1.993339E+00 +4.671030E+02 +1.875487E+01 -5.532107E+00 +1.875487E+01 +3.271096E+02 
 +8.644791E+02 -4.148061E+00 -7.377743E+00 -4.148061E+00 +4.737450E+02 +1.910263E+01 -7.377743E+00 +1.910263E+01 +3.316227E+02 
 +8.607847E+02 -5.001475E+00 +8.649000E+00 -5.001475E+00 +4.755960E+02 +1.569537E+01 +8.649000E+00 +1.569537E+01 +3.576774E+02 
 +8.431594E+02 -1.653934E+00 +6.624171E+00 -1.653934E+00 +4.624948E+02 +1.205948E+01 +6.624171E+00 +1.205948E+01 +3.717661E+02 
 +8.281667E+02 -1.438458E+00 +1.120597E+01 -1.438458E+00 +4.418726E+02 +1.702432E+01 +1.120597E+01 +1.702432E+01 +3.751135E+02 
 +8.367770E+02 -6.986110E+00 +1.149882E+01 -6.986110E+00 +4.514048E+02 +2.157100E+01 +1.149882E+01 +2.157100E+01 +3.788274E+02 
 +8.535871E+02 -3.232709E+00 +4.455387E+00 -3.232709E+00 +4.760520E+02 +1.784705E+01 +4.455387E+00 +1.784705E+01 +3.870375E+02 
 +8.564128E+02 +8.943585E-01 -3.173674E+00 +8.943585E-01 +4.809476E+02 +1.456285E+01 -3.173674E+00 +1.456285E+01 +3.893070E+02 
 +8.557542E+02 -7.804789E-01 -4.643416E+00 -7.804789E-01 +4.784055E+02 +1.367861E+01 -4.643416E+00 +1.367861E+01 +3.779198E+02 
 +8.665062E+02 +4.794633E+00 +1.193067E+00 +4.794633E+00 +4.844180E+02 +1.755136E+01 +1.193067E+00 +1.755136E+01 +3.743899E+02 
 +8.712185E+02 +3.828787E+00 +4.128464E-01 +3.828787E+00 +4.898706E+02 +1.793123E+01 +4.128464E-01 +1.793123E+01 +3.815978E+02 
 +8.742985E+02 -2.020254E+00 +8.059624E+00 -2.020254E+00 +4.910815E+02 +2.117356E+01 +8.059624E+00 +2.117356E+01 +3.773455E+02 
 +8.762707E+02 -4.239132E+00 +1.318526E+01 -4.239132E+00 +4.905994E+02 +2.993161E+01 +1.318526E+01 +2.993161E+01 +3.668874E+02 
 +8.846534E+02 -8.981054E+00 +2.966721E+00 -8.981054E+00 +4.901796E+02 +2.408042E+01 +2.966721E+00 +2.408042E+01 +3.939433E+02 
 +8.913174E+02 -8.725441E+00 +3.776485E+00 -8.725441E+00 +5.042503E+02 +2.727502E+01 +3.776485E+00 +2.727502E+01 +4.077154E+02 
 +8.932505E+02 +1.792562E+00 +1.217125E+01 +1.792562E+00 +5.030593E+02 +3.471435E+01 +1.217125E+01 +3.471435E+01 +3.982011E+02 
 +8.881686E+02 +6.657693E+00 +1.644393E+01 +6.657693E+00 +4.913815E+02 +3.731148E+01 +1.644393E+01 +3.731148E+01 +3.746644E+02 
 +8.434893E+02 -9.392062E+00 -2.793297E+00 -9.392062E+00 +4.878255E+02 +2.650816E+01 -2.793297E+00 +2.650816E+01 +3.644564E+02 
 +8.380597E+02 -5.071989E+00 -5.663124E+00 -5.071989E+00 +4.942613E+02 +2.261222E+01 -5.663124E+00 +2.261222E+01 +3.710068E+02 
 +8.328289E+02 +4.229869E+00 +8.910398E-01 +4.229869E+00 +4.796177E+02 +2.142493E+01 +8.910398E-01 +2.142493E+01 +3.510604E+02 
 +8.205372E+02 +8.377411E-01 +2.892279E+00 +8.377411E-01 +4.686145E+02 +1.115863E+01 +2.892279E+00 +1.115863E+01 +3.361211E+02 
 +8.312476E+02 +1.350902E+00 +3.095779E+00 +1.350902E+00 +4.718607E+02 +7.312010E+00 +3.095779E+00 +7.312010E+00 +3.260016E+02 
 +8.654609E+02 -6.531066E+00 -7.365454E+00 -6.531066E+00 +4.844789E+02 +2.116029E+01 -7.365454E+00 +2.116029E+01 +3.215999E+02 
 +8.634290E+02 -7.978410E+00 +8.011284E+00 -7.978410E+00 +4.783129E+02 +2.528570E+01 +8.011284E+00 +2.528570E+01 +3.326876E+02 
 +8.547682E+02 -5.656336E+00 +7.191499E+00 -5.656336E+00 +4.664680E+02 +1.750817E+01 +7.191499E+00 +1.750817E+01 +3.549971E+02 
 +8.566951E+02 -3.265228E+00 +8.745349E+00 -3.265228E+00 +4.609678E+02 +1.643508E+01 +8.745349E+00 +1.643508E+01 +3.705015E+02 
 +8.544005E+02 -7.814292E+00 +5.641467E+00 -7.814292E+00 +4.657056E+02 +1.720605E+01 +5.641467E+00 +1.720605E+01 +3.742214E+02 
 +8.522297E+02 -8.513137E+00 +1.764094E+00 -8.513137E+00 +4.736839E+02 +1.699093E+01 +1.764094E+00 +1.699093E+01 +3.765768E+02 
 +8.546463E+02 -2.235859E+00 -4.090685E+00 -2.235859E+00 +4.790741E+02 +1.462484E+01 -4.090685E+00 +1.462484E+01 +3.819141E+02 
 +8.524499E+02 -1.006596E+00 -5.773592E+00 -1.006596E+00 +4.791399E+02 +1.249444E+01 -5.773592E+00 +1.249444E+01 +3.784195E+02 
 +8.611748E+02 +2.916689E+00 +5.979288E+00 +2.916689E+00 +4.825247E+02 +1.896776E+01 +5.979288E+00 +1.896776E+01 +3.773641E+02 
 +8.702829E+02 +3.160660E+00 +5.901728E+00 +3.160660E+00 +4.874762E+02 +2.136121E+01 +5.901728E+00 +2.136121E+01 +3.839177E+02 
 +8.732459E+02 -3.130222E+00 +9.941907E+00 -3.130222E+00 +4.918311E+02 +2.139663E+01 +9.941907E+00 +2.139663E+01 +3.807723E+02 
 +8.764226E+02 -9.085784E+00 +4.636439E+00 -9.085784E+00 +4.904426E+02 +2.268713E+01 +4.636439E+00 +2.268713E+01 +3.801025E+02 
 +8.958063E+02 -7.599388E+00 -1.201914E+01 -7.599388E+00 +5.095583E+02 +2.736500E+01 -1.201914E+01 +2.736500E+01 +4.176904E+02 
 +8.992849E+02 -2.716149E+00 +2.144604E+00 -2.716149E+00 +5.129342E+02 +2.249623E+01 +2.144604E+00 +2.249623E+01 +4.240908E+02 
 +8.959403E+02 -2.832420E+00 +7.709300E+00 -2.832420E+00 +5.104242E+02 +2.030235E+01 +7.709300E+00 +2.030235E+01 +4.229874E+02 
 +9.079895E+02 +2.491313E+00 +1.305238E+01 +2.491313E+00 +5.135347E+02 +2.322686E+01 +1.305238E+01 +2.322686E+01 +4.267240E+02 
 +8.550443E+02 -3.822451E+00 -2.837868E+00 -3.822451E+00 +4.949484E+02 +2.444972E+01 -2.837868E+00 +2.444972E+01 +3.943765E+02 
 +8.333960E+02 -4.610137E+00 -9.390815E+00 -4.610137E+00 +4.969822E+02 +2.649566E+01 -9.390815E+00 +2.649566E+01 +3.676189E+02 
 +8.316110E+02 -2.947675E+00 -1.014062E+01 -2.947675E+00 +4.991105E+02 +2.116479E+01 -1.014062E+01 +2.116479E+01 +3.516678E+02 
 +8.296101E+02 -1.304217E+01 -1.243790E+01 -1.304217E+01 +4.915464E+02 +8.204571E+00 -1.243790E+01 +8.204571E+00 +3.415426E+02 
 +8.407132E+02 -4.789350E-01 +4.036489E+00 -4.789350E-01 +4.870406E+02 -8.834389E-01 +4.036489E+00 -8.834389E-01 +3.230453E+02 
 +8.715361E+02 +2.085501E+00 -3.001315E+00 +2.085501E+00 +4.985963E+02 +5.856267E+00 -3.001315E+00 +5.856267E+00 +3.190128E+02 
 +8.672009E+02 -1.656873E+00 +5.929753E+00 -1.656873E+00 +4.882795E+02 +1.065308E+01 +5.929753E+00 +1.065308E+01 +3.292842E+02 
 +8.607047E+02 -9.652801E+00 +7.252512E+00 -9.652801E+00 +4.686848E+02 +1.190927E+01 +7.252512E+00 +1.190927E+01 +3.472802E+02 
 +8.609486E+02 -5.618195E+00 +1.086120E+01 -5.618195E+00 +4.606445E+02 +1.772529E+01 +1.086120E+01 +1.772529E+01 +3.551097E+02 
 +8.627276E+02 -4.705079E+00 +6.674809E+00 -4.705079E+00 +4.715522E+02 +1.894424E+01 +6.674809E+00 +1.894424E+01 +3.619600E+02 
 +8.529043E+02 -9.230670E+00 -1.403789E+00 -9.230670E+00 +4.722300E+02 +2.005969E+01 -1.403789E+00 +2.005969E+01 +3.655664E+02 
 +8.492834E+02 -7.150725E+00 -7.427980E+00 -7.150725E+00 +4.676960E+02 +1.771431E+01 -7.427980E+00 +1.771431E+01 +3.727696E+02 
 +8.545306E+02 -2.150874E+00 -2.434243E+00 -2.150874E+00 +4.771530E+02 +1.293981E+01 -2.434243E+00 +1.293981E+01 +3.823812E+02 
 +8.591481E+02 +1.451097E+00 +1.348153E+01 +1.451097E+00 +4.887103E+02 +1.979174E+01 +1.348153E+01 +1.979174E+01 +3.827497E+02 
 +8.697929E+02 +2.607467E-01 +7.033026E+00 +2.607467E-01 +4.938436E+02 +2.510012E+01 +7.033026E+00 +2.510012E+01 +3.745076E+02 
 +8.691323E+02 -3.579735E+00 +6.817147E+00 -3.579735E+00 +4.897183E+02 +2.598890E+01 +6.817147E+00 +2.598890E+01 +3.573063E+02 
 +8.799580E+02 -9.360380E+00 -1.334514E+01 -9.360380E+00 +4.986575E+02 +2.721265E+01 -1.334514E+01 +2.721265E+01 +3.800511E+02 
 +8.961875E+02 -5.638778E+00 -2.200341E+01 -5.638778E+00 +5.217324E+02 +1.183310E+01 -2.200341E+01 +1.183310E+01 +4.197355E+02 
 +8.972546E+02 -1.298329E+00 -8.065432E+00 -1.298329E+00 +5.157459E+02 +1.759763E+01 -8.065432E+00 +1.759763E+01 +4.279983E+02 
 +8.886643E+02 -2.967120E+00 +4.566241E+00 -2.967120E+00 +4.957105E+02 +1.800044E+01 +4.566241E+00 +1.800044E+01 +4.216005E+02 
 +8.513006E+02 +3.551589E+00 +6.993753E+00 +3.551589E+00 +4.549873E+02 +3.363388E+01 +6.993753E+00 +3.363388E+01 +4.033421E+02 
 +8.334953E+02 +2.458960E-01 +1.334675E-01 +2.458960E-01 +4.565170E+02 +3.679729E+01 +1.334675E-01 +3.679729E+01 +3.888742E+02 
 +8.179021E+02 -1.149307E+01 -8.276702E+00 -1.149307E+01 +4.902956E+02 +1.858868E+01 -8.276702E+00 +1.858868E+01 +3.663651E+02 
 +8.360633E+02 -1.187764E+01 -9.953134E+00 -1.187764E+01 +5.138584E+02 +9.568429E+00 -9.953134E+00 +9.568429E+00 +3.519699E+02 
 +8.479251E+02 -1.147933E+01 -1.127962E+01 -1.147933E+01 +5.060844E+02 +8.537154E+00 -1.127962E+01 +8.537154E+00 +3.353753E+02 
 +8.778277E+02 +5.324402E+00 +4.992711E-01 +5.324402E+00 +5.073249E+02 +8.108150E+00 +4.992711E-01 +8.108150E+00 +3.289843E+02 
 +8.758484E+02 +5.397737E+00 -2.995584E+00 +5.397737E+00 +4.970719E+02 +7.332094E+00 -2.995584E+00 +7.332094E+00 +3.293354E+02 
 +8.726491E+02 +4.888904E-01 +2.986883E+00 +4.888904E-01 +4.946566E+02 +4.411784E+00 +2.986883E+00 +4.411784E+00 +3.461552E+02 
 +8.730037E+02 -4.314365E+00 +9.529719E+00 -4.314365E+00 +4.943397E+02 +6.625862E+00 +9.529719E+00 +6.625862E+00 +3.594813E+02 
 +8.704588E+02 +1.446143E-02 +1.351747E+01 +1.446143E-02 +4.796035E+02 +1.563490E+00 +1.351747E+01 +1.563490E+00 +3.639663E+02 
 +8.680590E+02 +8.256681E-01 +9.239614E+00 +8.256681E-01 +4.657663E+02 -1.565501E+01 +9.239614E+00 -1.565501E+01 +3.768658E+02 
 +8.611207E+02 -3.266962E+00 +2.639218E+00 -3.266962E+00 +4.731867E+02 -8.570727E+00 +2.639218E+00 -8.570727E+00 +3.874031E+02 
 +8.384164E+02 -7.588719E+00 -1.067325E+01 -7.588719E+00 +4.635412E+02 +5.197483E+00 -1.067325E+01 +5.197483E+00 +3.747204E+02 
 +8.442411E+02 -1.365813E+00 -6.739338E-01 -1.365813E+00 +4.629060E+02 +6.082595E+00 -6.739338E-01 +6.082595E+00 +3.752738E+02 
 +8.560404E+02 +1.391151E+00 +7.177168E+00 +1.391151E+00 +4.819053E+02 -9.658441E-01 +7.177168E+00 -9.658441E-01 +3.782356E+02 
 +8.687967E+02 +6.353628E-01 -1.106477E+00 +6.353628E-01 +4.914745E+02 -1.647910E+01 -1.106477E+00 -1.647910E+01 +3.628382E+02 
 +8.765846E+02 +1.156040E+00 -1.189184E+00 +1.156040E+00 +4.913407E+02 -2.726198E+01 -1.189184E+00 -2.726198E+01 +3.500594E+02 
 +8.852795E+02 -4.061360E+00 -1.399363E+01 -4.061360E+00 +5.067219E+02 -1.755870E+01 -1.399363E+01 -1.755870E+01 +3.790025E+02 
 +8.988129E+02 -1.620900E+00 -1.017202E+01 -1.620900E+00 +5.297149E+02 -1.649411E+01 -1.017202E+01 -1.649411E+01 +4.083130E+02 
 +8.973256E+02 -7.972585E-01 -1.015138E+01 -7.972585E-01 +5.189791E+02 +9.306222E+00 -1.015138E+01 +9.306222E+00 +4.230467E+02 
 +8.734448E+02 -4.826206E-02 -7.052618E+00 -4.826206E-02 +4.932637E+02 +1.016085E+01 -7.052618E+00 +1.016085E+01 +4.094976E+02 
 +8.425357E+02 +4.940307E+00 -5.439975E+00 +4.940307E+00 +5.062222E+02 +3.977490E+00 -5.439975E+00 +3.977490E+00 +4.021853E+02 
 +8.435377E+02 +4.103326E+00 -1.783735E+00 +4.103326E+00 +5.245326E+02 +1.521408E+01 -1.783735E+00 +1.521408E+01 +4.104076E+02 
 +8.296154E+02 -1.823109E+00 -8.475390E+00 -1.823109E+00 +5.021818E+02 +2.056969E+01 -8.475390E+00 +2.056969E+01 +3.838059E+02 
 +8.649340E+02 -2.824441E+00 -5.152592E+00 -2.824441E+00 +5.061956E+02 +1.923303E+01 -5.152592E+00 +1.923303E+01 +3.516232E+02 
 +8.666256E+02 +1.116283E+00 -3.808398E+00 +1.116283E+00 +5.008496E+02 +1.405465E+01 -3.808398E+00 +1.405465E+01 +3.270452E+02 
 +8.873527E+02 +8.580683E+00 -1.592239E+00 +8.580683E+00 +5.091238E+02 +4.678950E+00 -1.592239E+00 +4.678950E+00 +3.442672E+02 
 +8.829235E+02 +7.056281E+00 -5.375928E+00 +7.056281E+00 +5.013502E+02 -1.057240E+00 -5.375928E+00 -1.057240E+00 +3.562932E+02 
 +8.820241E+02 +1.824279E+00 -2.891074E+00 +1.824279E+00 +5.011626E+02 -2.646856E+00 -2.891074E+00 -2.646856E+00 +3.710845E+02 
 +8.811031E+02 -5.749471E+00 +6.342450E+00 -5.749471E+00 +5.005591E+02 +4.532984E+00 +6.342450E+00 +4.532984E+00 +3.828827E+02 
 +8.821977E+02 -4.707014E+00 +1.290725E+01 -4.707014E+00 +5.002772E+02 +2.530243E+00 +1.290725E+01 +2.530243E+00 +3.939220E+02 
 +8.946835E+02 +1.740564E+00 +8.493439E+00 +1.740564E+00 +5.103554E+02 -1.742893E+01 +8.493439E+00 -1.742893E+01 +4.184107E+02 
 +8.963446E+02 +1.492509E+00 +8.491073E+00 +1.492509E+00 +5.173116E+02 -1.830021E+01 +8.491073E+00 -1.830021E+01 +4.349829E+02 
 +8.496748E+02 -8.098377E+00 -9.855911E+00 -8.098377E+00 +4.897342E+02 -9.344814E+00 -9.855911E+00 -9.344814E+00 +3.974827E+02 
 +8.322726E+02 +3.909985E+00 -4.673449E+00 +3.909985E+00 +4.759180E+02 -8.296966E+00 -4.673449E+00 -8.296966E+00 +3.670752E+02 
 +8.675524E+02 +5.592515E+00 -4.596425E+00 +5.592515E+00 +4.880328E+02 -1.580939E+01 -4.596425E+00 -1.580939E+01 +3.685034E+02 
 +8.758360E+02 +3.680469E+00 -3.280187E+00 +3.680469E+00 +4.853967E+02 -2.626619E+01 -3.280187E+00 -2.626619E+01 +3.574892E+02 
 +8.847512E+02 +4.255277E+00 +2.255114E-01 +4.255277E+00 +4.945950E+02 -2.634611E+01 +2.255114E-01 -2.634611E+01 +3.622040E+02 
 +8.879938E+02 -4.684880E-01 -1.951616E+00 -4.684880E-01 +5.076503E+02 -2.655837E+01 -1.951616E+00 -2.655837E+01 +3.775752E+02 
 +8.968209E+02 -4.690936E+00 +1.838720E+00 -4.690936E+00 +5.172013E+02 -2.807119E+01 +1.838720E+00 -2.807119E+01 +3.782202E+02 
 +9.200066E+02 -6.198083E+00 -1.862347E+00 -6.198083E+00 +5.513707E+02 -2.307889E+01 -1.862347E+00 -2.307889E+01 +4.128530E+02 
 +8.700622E+02 +1.123721E+00 -1.539556E+01 +1.123721E+00 +5.500429E+02 -1.592594E+01 -1.539556E+01 -1.592594E+01 +4.194412E+02 
 +8.458636E+02 +1.221573E+01 -1.471295E+01 +1.221573E+01 +5.371634E+02 -5.368630E+00 -1.471295E+01 -5.368630E+00 +4.197343E+02 
 +8.333113E+02 +1.372904E+01 -8.393452E+00 +1.372904E+01 +5.169106E+02 +1.093664E+01 -8.393452E+00 +1.093664E+01 +4.129787E+02 
 +8.532070E+02 +1.257270E+01 -1.053408E+01 +1.257270E+01 +5.089869E+02 +1.768812E+01 -1.053408E+01 +1.768812E+01 +4.037241E+02 
 +8.906300E+02 +6.475156E+00 -1.529340E+00 +6.475156E+00 +5.070288E+02 +1.684564E+01 -1.529340E+00 +1.684564E+01 +3.784039E+02 
 +8.789260E+02 +3.207164E+00 -2.290990E+00 +3.207164E+00 +4.935614E+02 +1.108807E+01 -2.290990E+00 +1.108807E+01 +3.515379E+02 
 +8.830825E+02 +6.760616E+00 -4.488300E+00 +6.760616E+00 +4.996170E+02 +2.130517E+00 -4.488300E+00 +2.130517E+00 +3.631053E+02 
 +8.872710E+02 +7.968590E+00 -7.508251E+00 +7.968590E+00 +5.026415E+02 -2.076343E+00 -7.508251E+00 -2.076343E+00 +3.757517E+02 
 +8.902389E+02 +5.235577E+00 -5.784792E+00 +5.235577E+00 +5.101133E+02 +9.501344E-01 -5.784792E+00 +9.501344E-01 +3.919457E+02 
 +8.939322E+02 -2.725074E+00 -3.699229E+00 -2.725074E+00 +5.214873E+02 +1.170548E+01 -3.699229E+00 +1.170548E+01 +4.134931E+02 
 +8.930425E+02 -3.710096E+00 +4.334360E+00 -3.710096E+00 +5.232334E+02 +5.638029E+00 +4.334360E+00 +5.638029E+00 +4.138833E+02 
 +8.963540E+02 +2.104381E+00 +1.735758E+00 +2.104381E+00 +5.217956E+02 -2.083925E+01 +1.735758E+00 -2.083925E+01 +4.013437E+02 
 +8.962554E+02 +3.778913E+00 +3.866653E+00 +3.778913E+00 +5.164028E+02 -2.202950E+01 +3.866653E+00 -2.202950E+01 +4.069081E+02 
 +8.535544E+02 -1.401215E+00 -8.330590E+00 -1.401215E+00 +4.948936E+02 -4.442102E+00 -8.330590E+00 -4.442102E+00 +3.956221E+02 
 +8.254150E+02 +1.101467E+01 -3.593417E+00 +1.101467E+01 +4.807344E+02 -4.341090E+00 -3.593417E+00 -4.341090E+00 +3.680808E+02 
 +8.536202E+02 +4.213979E+00 -2.794645E+00 +4.213979E+00 +4.794897E+02 -1.784087E+01 -2.794645E+00 -1.784087E+01 +3.583593E+02 
 +8.694599E+02 -1.072934E+00 +5.825661E+00 -1.072934E+00 +4.772555E+02 -2.486797E+01 +5.825661E+00 -2.486797E+01 +3.496968E+02 
 +8.903051E+02 -6.892779E-01 +8.056382E+00 -6.892779E-01 +4.995777E+02 -2.623723E+01 +8.056382E+00 -2.623723E+01 +3.553476E+02 
 +8.907316E+02 -4.497359E+00 +2.536431E+00 -4.497359E+00 +5.091869E+02 -2.817495E+01 +2.536431E+00 -2.817495E+01 +3.620760E+02 
 +8.999476E+02 -1.123579E+01 +8.350031E-01 -1.123579E+01 +5.279427E+02 -2.607983E+01 +8.350031E-01 -2.607983E+01 +3.680443E+02 
 +9.088889E+02 -1.516640E+01 -1.674345E+00 -1.516640E+01 +5.443249E+02 -2.438462E+01 -1.674345E+00 -2.438462E+01 +3.848491E+02 
 +8.492499E+02 -6.751786E+00 -9.862486E+00 -6.751786E+00 +5.220821E+02 -1.617326E+01 -9.862486E+00 -1.617326E+01 +3.833422E+02 
 +8.416939E+02 +1.170202E+01 -1.281103E+01 +1.170202E+01 +5.206563E+02 -2.539596E+00 -1.281103E+01 -2.539596E+00 +4.005585E+02 
 +8.418173E+02 +1.355917E+01 -1.580674E+01 +1.355917E+01 +5.085270E+02 +4.506660E+00 -1.580674E+01 +4.506660E+00 +4.122079E+02 
 +8.630568E+02 +1.259080E+01 -7.252552E+00 +1.259080E+01 +4.979664E+02 +6.480359E+00 -7.252552E+00 +6.480359E+00 +4.064550E+02 
 +8.751246E+02 +7.767702E+00 +3.738707E+00 +7.767702E+00 +4.921117E+02 +1.050397E+01 +3.738707E+00 +1.050397E+01 +3.859637E+02 
 +8.843303E+02 +3.421441E+00 +1.690370E+00 +3.421441E+00 +4.941539E+02 +5.437379E+00 +1.690370E+00 +5.437379E+00 +3.801904E+02 
 +8.863007E+02 +5.382341E+00 -2.295589E+00 +5.382341E+00 +4.958983E+02 +2.389795E+00 -2.295589E+00 +2.389795E+00 +3.803028E+02 
 +8.916478E+02 +7.659085E+00 -4.630705E+00 +7.659085E+00 +5.042457E+02 +7.458713E+00 -4.630705E+00 +7.458713E+00 +3.853144E+02 
 +8.921978E+02 +5.995161E+00 -7.742830E+00 +5.995161E+00 +5.113512E+02 +1.140738E+01 -7.742830E+00 +1.140738E+01 +3.994721E+02 
 +8.790741E+02 -5.743168E+00 -2.397906E+01 -5.743168E+00 +5.077062E+02 +1.322578E+01 -2.397906E+01 +1.322578E+01 +4.151509E+02 
 +8.857694E+02 -5.690038E+00 -1.923046E+01 -5.690038E+00 +5.142695E+02 +1.332916E+00 -1.923046E+01 +1.332916E+00 +4.225747E+02 
 +9.105271E+02 +1.854358E+00 -6.950129E+00 +1.854358E+00 +5.297483E+02 -2.222575E+01 -6.950129E+00 -2.222575E+01 +4.170272E+02 
 +9.129527E+02 +2.113151E+00 +4.395493E+00 +2.113151E+00 +5.282394E+02 -2.022609E+01 +4.395493E+00 -2.022609E+01 +4.110410E+02 
 +8.643280E+02 +5.507098E+00 +1.955379E+00 +5.507098E+00 +5.071061E+02 +2.924960E-01 +1.955379E+00 +2.924960E-01 +3.982586E+02 
 +8.498820E+02 +1.696430E+01 +7.705280E+00 +1.696430E+01 +5.110692E+02 +4.739145E+00 +7.705280E+00 +4.739145E+00 +3.900823E+02 
 +8.556976E+02 +8.605592E+00 +8.634933E+00 +8.605592E+00 +5.200358E+02 +4.998442E+00 +8.634933E+00 +4.998442E+00 +3.888893E+02 
 +8.686789E+02 +1.946979E+00 +9.188683E+00 +1.946979E+00 +5.151967E+02 +9.134951E-01 +9.188683E+00 +9.134951E-01 +3.726765E+02 
 +9.015477E+02 +4.411130E-01 +6.715032E+00 +4.411130E-01 +5.129901E+02 -1.982310E+01 +6.715032E+00 -1.982310E+01 +3.533082E+02 
 +8.933885E+02 -4.778177E+00 +4.563933E+00 -4.778177E+00 +5.121583E+02 -2.726540E+01 +4.563933E+00 -2.726540E+01 +3.527695E+02 
 +8.887521E+02 -9.304452E+00 -2.902020E+00 -9.304452E+00 +5.265974E+02 -1.877510E+01 -2.902020E+00 -1.877510E+01 +3.630802E+02 
 +8.802310E+02 -1.132423E+01 -6.021055E+00 -1.132423E+01 +5.297136E+02 -2.009645E+01 -6.021055E+00 -2.009645E+01 +3.588181E+02 
 +8.648185E+02 -9.267621E+00 -5.473135E+00 -9.267621E+00 +5.290828E+02 -1.112897E+01 -5.473135E+00 -1.112897E+01 +3.493536E+02 
 +8.564001E+02 +2.132514E+00 -6.931555E+00 +2.132514E+00 +5.173551E+02 -6.493921E+00 -6.931555E+00 -6.493921E+00 +3.548052E+02 
 +8.545103E+02 +8.565422E+00 -8.632001E+00 +8.565422E+00 +5.038743E+02 -7.363202E+00 -8.632001E+00 -7.363202E+00 +3.824927E+02 
 +8.604735E+02 +7.524282E+00 +4.795973E-01 +7.524282E+00 +5.000010E+02 -4.229808E+00 +4.795973E-01 -4.229808E+00 +3.918370E+02 
 +8.606145E+02 +1.452581E+00 +2.130511E+00 +1.452581E+00 +4.879517E+02 -1.433095E+00 +2.130511E+00 -1.433095E+00 +3.778341E+02 
 +8.755970E+02 -2.322286E-02 +1.095387E+01 -2.322286E-02 +4.876660E+02 +3.642506E+00 +1.095387E+01 +3.642506E+00 +3.768665E+02 
 +8.846564E+02 +3.718985E+00 +4.739322E+00 +3.718985E+00 +4.927255E+02 +9.448395E+00 +4.739322E+00 +9.448395E+00 +3.752417E+02 
 +8.916261E+02 +5.858708E+00 +3.768529E+00 +5.858708E+00 +5.010248E+02 +1.358804E+01 +3.768529E+00 +1.358804E+01 +3.784658E+02 
 +8.845571E+02 +1.650037E+00 -1.415836E+01 +1.650037E+00 +4.989367E+02 +1.912644E+01 -1.415836E+01 +1.912644E+01 +3.944237E+02 
 +8.738333E+02 -7.102949E-01 -3.288567E+01 -7.102949E-01 +5.000279E+02 +2.687524E+01 -3.288567E+01 +2.687524E+01 +3.980715E+02 
 +8.784866E+02 +1.214164E+00 -3.180310E+01 +1.214164E+00 +5.063181E+02 +3.446810E+01 -3.180310E+01 +3.446810E+01 +3.976392E+02 
 +9.083810E+02 +5.292290E+00 -8.332174E+00 +5.292290E+00 +5.105452E+02 +3.307975E+01 -8.332174E+00 +3.307975E+01 +4.176696E+02 
 +9.119561E+02 +4.066807E+00 +2.196092E+00 +4.066807E+00 +5.079439E+02 +2.069763E+01 +2.196092E+00 +2.069763E+01 +4.267189E+02 
 +8.675695E+02 +1.165037E+01 +1.124291E+01 +1.165037E+01 +5.030095E+02 +6.820810E+00 +1.124291E+01 +6.820810E+00 +4.175640E+02 
 +8.547953E+02 +1.225186E+01 +1.670211E+01 +1.225186E+01 +5.112032E+02 +2.784731E+00 +1.670211E+01 +2.784731E+00 +4.052431E+02 
 +8.489710E+02 +6.277276E+00 +1.664481E+01 +6.277276E+00 +5.174659E+02 +4.446043E+00 +1.664481E+01 +4.446043E+00 +4.043005E+02 
 +8.527070E+02 +8.416707E-01 +1.173570E+01 +8.416707E-01 +5.205865E+02 +1.033791E+00 +1.173570E+01 +1.033791E+00 +3.845084E+02 
 +8.988061E+02 -6.096539E-02 +8.948174E-02 -6.096539E-02 +5.254208E+02 -1.619737E+01 +8.948174E-02 -1.619737E+01 +3.573074E+02 
 +8.933041E+02 -1.238127E-01 +1.504376E+00 -1.238127E-01 +5.174999E+02 -1.978373E+01 +1.504376E+00 -1.978373E+01 +3.536707E+02 
 +8.828940E+02 -2.624632E+00 -7.492664E+00 -2.624632E+00 +5.267590E+02 -1.642393E+01 -7.492664E+00 -1.642393E+01 +3.688869E+02 
 +8.698312E+02 -3.372026E+00 -1.054788E+01 -3.372026E+00 +5.313395E+02 -1.464982E+01 -1.054788E+01 -1.464982E+01 +3.608500E+02 
 +8.816823E+02 +2.067621E+00 -3.902684E+00 +2.067621E+00 +5.456372E+02 -7.973943E+00 -3.902684E+00 -7.973943E+00 +3.476055E+02 
 +8.882241E+02 -2.567750E+00 -3.835265E+00 -2.567750E+00 +5.462949E+02 -2.063440E-01 -3.835265E+00 -2.063440E-01 +3.468094E+02 
 +8.821397E+02 -1.565128E+00 -3.494686E-02 -1.565128E+00 +5.302423E+02 +3.940480E-01 -3.494686E-02 +3.940480E-01 +3.647818E+02 
 +8.635379E+02 -4.556718E-01 +6.492095E+00 -4.556718E-01 +5.082533E+02 -2.858393E+00 +6.492095E+00 -2.858393E+00 +3.834011E+02 
 +8.597126E+02 -5.577075E-01 +6.505438E+00 -5.577075E-01 +4.952406E+02 +2.666558E+00 +6.505438E+00 +2.666558E+00 +3.869689E+02 
 +8.698107E+02 -2.166128E+00 +1.542697E+01 -2.166128E+00 +4.918428E+02 +7.917689E+00 +1.542697E+01 +7.917689E+00 +3.800738E+02 
 +8.794159E+02 +1.471891E+00 +9.794113E+00 +1.471891E+00 +4.897153E+02 +5.464684E+00 +9.794113E+00 +5.464684E+00 +3.736154E+02 
 +8.916741E+02 +2.695808E+00 +1.091749E+01 +2.695808E+00 +4.928432E+02 +7.759609E+00 +1.091749E+01 +7.759609E+00 +3.777423E+02 
 +8.864354E+02 +4.531043E-01 -1.507804E+01 +4.531043E-01 +4.939173E+02 +2.289130E+01 -1.507804E+01 +2.289130E+01 +3.958399E+02 
 +8.869176E+02 +2.950015E+00 -2.443899E+01 +2.950015E+00 +5.045965E+02 +3.626987E+01 -2.443899E+01 +3.626987E+01 +3.977839E+02 
 +8.918024E+02 +1.545514E-01 -2.457232E+01 +1.545514E-01 +5.181902E+02 +3.683663E+01 -2.457232E+01 +3.683663E+01 +3.890382E+02 
 +9.068281E+02 +1.529040E-01 -8.122387E+00 +1.529040E-01 +5.272076E+02 +1.570282E+01 -8.122387E+00 +1.570282E+01 +3.967293E+02 
 +9.088403E+02 +3.822417E-01 -6.167554E+00 +3.822417E-01 +5.247301E+02 +1.927084E+00 -6.167554E+00 +1.927084E+00 +4.121031E+02 
 +8.668335E+02 +1.060813E+01 +7.272306E+00 +1.060813E+01 +5.097421E+02 +5.892979E+00 +7.272306E+00 +5.892979E+00 +4.271080E+02 
 +8.534838E+02 +7.466466E+00 +1.721451E+01 +7.466466E+00 +5.071620E+02 +4.425104E+00 +1.721451E+01 +4.425104E+00 +4.199863E+02 
 +8.499050E+02 +5.478603E+00 +1.699230E+01 +5.478603E+00 +5.096171E+02 +3.029105E+00 +1.699230E+01 +3.029105E+00 +4.115108E+02 
 +8.496186E+02 -1.190807E+00 +1.414914E+01 -1.190807E+00 +5.137197E+02 -4.843259E+00 +1.414914E+01 -4.843259E+00 +3.926387E+02 
 +8.885001E+02 -3.227753E+00 -4.890993E+00 -3.227753E+00 +5.269012E+02 -2.215072E+01 -4.890993E+00 -2.215072E+01 +3.668190E+02 
 +8.881409E+02 +4.570262E+00 -3.041936E+00 +4.570262E+00 +5.202237E+02 -2.313700E+01 -3.041936E+00 -2.313700E+01 +3.584768E+02 
 +8.822116E+02 +5.959025E+00 -1.320033E+01 +5.959025E+00 +5.336053E+02 -1.689407E+01 -1.320033E+01 -1.689407E+01 +3.671710E+02 
 +8.920138E+02 +5.514840E+00 -6.140822E+00 +5.514840E+00 +5.670778E+02 -1.708277E+00 -6.140822E+00 -1.708277E+00 +3.750467E+02 
 +8.987366E+02 +3.596187E+00 -4.377681E+00 +3.596187E+00 +5.653326E+02 +1.839838E+00 -4.377681E+00 +1.839838E+00 +3.666968E+02 
 +8.948403E+02 -4.695037E+00 -1.350732E+00 -4.695037E+00 +5.482915E+02 +4.992752E+00 -1.350732E+00 +4.992752E+00 +3.628763E+02 
 +8.887227E+02 -8.129898E+00 -2.905160E-01 -8.129898E+00 +5.388390E+02 +1.248354E+01 -2.905160E-01 +1.248354E+01 +3.685900E+02 
 +8.873381E+02 -1.020617E+01 +5.613525E+00 -1.020617E+01 +5.249660E+02 +1.662190E+01 +5.613525E+00 +1.662190E+01 +3.763940E+02 
 +8.678923E+02 -1.889337E+00 +8.296659E+00 -1.889337E+00 +5.070000E+02 +9.263998E+00 +8.296659E+00 +9.263998E+00 +3.806356E+02 
 +8.706183E+02 +1.274322E+00 +8.141260E+00 +1.274322E+00 +5.125027E+02 -4.712546E+00 +8.141260E+00 -4.712546E+00 +3.924594E+02 
 +8.833533E+02 +6.086269E-01 +6.320395E+00 +6.086269E-01 +5.098113E+02 -1.703326E+01 +6.320395E+00 -1.703326E+01 +3.874594E+02 
 +8.948583E+02 +2.367276E+00 +7.207625E+00 +2.367276E+00 +4.988035E+02 -2.156854E+01 +7.207625E+00 -2.156854E+01 +3.734984E+02 
 +8.978620E+02 +4.685863E+00 -5.057652E+00 +4.685863E+00 +5.087973E+02 -6.877952E+00 -5.057652E+00 -6.877952E+00 +3.749948E+02 
 +8.953130E+02 +5.759256E+00 -1.147335E+01 +5.759256E+00 +5.170806E+02 +9.739192E+00 -1.147335E+01 +9.739192E+00 +3.800395E+02 
 +9.011326E+02 +5.851547E-01 -1.232581E+01 +5.851547E-01 +5.185866E+02 +5.306885E+00 -1.232581E+01 +5.306885E+00 +3.891103E+02 
 +8.994218E+02 -8.562623E-01 -7.620437E+00 -8.562623E-01 +5.230099E+02 -7.791095E+00 -7.620437E+00 -7.791095E+00 +3.894193E+02 
 +8.915449E+02 +1.360362E+00 -8.728120E-01 +1.360362E+00 +5.312191E+02 -9.306148E+00 -8.728120E-01 -9.306148E+00 +3.968537E+02 
 +8.614027E+02 +9.282511E+00 +4.379399E+00 +9.282511E+00 +5.223040E+02 +3.119371E+00 +4.379399E+00 +3.119371E+00 +4.178320E+02 
 +8.642890E+02 +3.760262E+00 +1.321603E+01 +3.760262E+00 +5.193898E+02 +4.417049E+00 +1.321603E+01 +4.417049E+00 +4.344331E+02 
 +8.635602E+02 +4.714149E+00 +1.631880E+01 +4.714149E+00 +5.176824E+02 +1.746934E+00 +1.631880E+01 +1.746934E+00 +4.450988E+02 
 +8.587209E+02 -3.905342E+00 +1.870347E+01 -3.905342E+00 +5.122636E+02 -2.970037E+00 +1.870347E+01 -2.970037E+00 +4.297312E+02 
 +8.907613E+02 -5.689014E+00 -2.172760E+00 -5.689014E+00 +5.258914E+02 -1.402518E+01 -2.172760E+00 -1.402518E+01 +3.951755E+02 
 +8.807883E+02 +2.210787E+00 -1.519120E+01 +2.210787E+00 +5.181935E+02 -2.228625E+01 -1.519120E+01 -2.228625E+01 +3.644744E+02 
 +8.929898E+02 +1.130895E+01 -1.552862E+01 +1.130895E+01 +5.559178E+02 +4.738858E+00 -1.552862E+01 +4.738858E+00 +3.610757E+02 
 +8.924302E+02 +9.276146E+00 -2.427506E+00 +9.276146E+00 +5.534809E+02 +7.678223E+00 -2.427506E+00 +7.678223E+00 +3.470444E+02 
 +8.998791E+02 +2.724175E+00 +1.338406E+00 +2.724175E+00 +5.608606E+02 +6.732234E+00 +1.338406E+00 +6.732234E+00 +3.685944E+02 
 +8.891591E+02 -5.694675E+00 +9.328332E-01 -5.694675E+00 +5.507616E+02 +8.946972E+00 +9.328332E-01 +8.946972E+00 +3.807624E+02 
 +8.959597E+02 -1.091769E+01 +6.740608E-01 -1.091769E+01 +5.374991E+02 +1.496629E+01 +6.740608E-01 +1.496629E+01 +3.738553E+02 
 +8.870279E+02 -1.044494E+01 +1.183847E-01 -1.044494E+01 +5.168999E+02 +2.059672E+01 +1.183847E-01 +2.059672E+01 +3.485221E+02 
 +8.772114E+02 -1.998912E+00 -2.552742E+00 -1.998912E+00 +5.180311E+02 +8.923896E+00 -2.552742E+00 +8.923896E+00 +3.623549E+02 
 +8.715781E+02 -7.292049E-01 -2.577141E+00 -7.292049E-01 +5.215222E+02 -1.589162E+01 -2.577141E+00 -1.589162E+01 +3.902740E+02 
 +8.810858E+02 -1.199771E+00 +1.312563E-01 -1.199771E+00 +5.140762E+02 -3.182492E+01 +1.312563E-01 -3.182492E+01 +3.841628E+02 
 +8.903824E+02 +6.340339E+00 -1.442216E+00 +6.340339E+00 +5.104035E+02 -2.321953E+01 -1.442216E+00 -2.321953E+01 +3.598586E+02 
 +8.981095E+02 +9.749836E+00 -2.537326E+00 +9.749836E+00 +5.123286E+02 -5.984872E+00 -2.537326E+00 -5.984872E+00 +3.426588E+02 
 +8.939177E+02 +4.430130E+00 -5.773586E+00 +4.430130E+00 +5.080975E+02 -1.958773E+00 -5.773586E+00 -1.958773E+00 +3.413270E+02 
 +9.016866E+02 +4.363887E+00 -6.256544E+00 +4.363887E+00 +5.212192E+02 -7.025761E+00 -6.256544E+00 -7.025761E+00 +3.633978E+02 
 +9.036223E+02 +4.129653E+00 -5.721456E+00 +4.129653E+00 +5.369338E+02 -7.904135E+00 -5.721456E+00 -7.904135E+00 +3.802929E+02 
 +8.732376E+02 +6.579437E+00 +6.225526E+00 +6.579437E+00 +5.331023E+02 +3.364854E+00 +6.225526E+00 +3.364854E+00 +3.817549E+02 
 +8.545232E+02 +1.088910E+01 +2.879854E+00 +1.088910E+01 +5.276638E+02 +8.328446E+00 +2.879854E+00 +8.328446E+00 +3.996248E+02 
 +8.552814E+02 +5.083321E+00 +1.907456E+00 +5.083321E+00 +5.228265E+02 +6.677233E+00 +1.907456E+00 +6.677233E+00 +4.195687E+02 
 +8.702484E+02 +4.550556E+00 +1.275575E+01 +4.550556E+00 +5.265251E+02 +1.184902E+01 +1.275575E+01 +1.184902E+01 +4.354601E+02 
 +8.643716E+02 -3.255859E+00 +1.736970E+01 -3.255859E+00 +5.156786E+02 +1.304405E+01 +1.736970E+01 +1.304405E+01 +4.325290E+02 
 +8.805683E+02 -4.496136E+00 -4.651159E+00 -4.496136E+00 +5.106649E+02 -2.696793E+00 -4.651159E+00 -2.696793E+00 +4.126432E+02 
 +8.833466E+02 +8.692915E+00 -2.104990E+01 +8.692915E+00 +5.278258E+02 -7.049679E+00 -2.104990E+01 -7.049679E+00 +3.837815E+02 
 +8.695016E+02 +2.013050E+01 -5.429200E+00 +2.013050E+01 +5.065932E+02 +1.168594E+00 -5.429200E+00 +1.168594E+00 +3.487865E+02 
 +8.800177E+02 +1.109130E+01 -4.548873E+00 +1.109130E+01 +5.116583E+02 +8.723287E+00 -4.548873E+00 +8.723287E+00 +3.452567E+02 
 +8.819862E+02 +2.173713E+00 +3.916928E+00 +2.173713E+00 +5.040304E+02 +1.243286E+01 +3.916928E+00 +1.243286E+01 +3.669221E+02 
 +8.448265E+02 -2.601817E+00 +3.186274E+00 -2.601817E+00 +4.743516E+02 +1.488985E+01 +3.186274E+00 +1.488985E+01 +3.727346E+02 
 +8.708838E+02 -6.800741E+00 +3.197756E+00 -6.800741E+00 +4.714591E+02 +1.676410E+01 +3.197756E+00 +1.676410E+01 +3.642388E+02 
 +8.585665E+02 -1.487271E+00 -2.487036E+00 -1.487271E+00 +4.668131E+02 +1.455419E+01 -2.487036E+00 +1.455419E+01 +3.358625E+02 
 +8.465636E+02 +4.569306E-01 -9.588419E+00 +4.569306E-01 +4.690527E+02 -4.428721E+00 -9.588419E+00 -4.428721E+00 +3.441449E+02 
 +8.472892E+02 +9.638373E-01 -1.702516E+00 +9.638373E-01 +4.678478E+02 -1.656037E+01 -1.702516E+00 -1.656037E+01 +3.596332E+02 
 +8.646628E+02 +1.758762E+00 -3.330384E+00 +1.758762E+00 +4.929062E+02 -2.713553E+01 -3.330384E+00 -2.713553E+01 +3.699387E+02 
 +8.878176E+02 +8.879818E+00 -5.381849E+00 +8.879818E+00 +5.161224E+02 -2.587223E+01 -5.381849E+00 -2.587223E+01 +3.620961E+02 
 +8.960085E+02 +1.049303E+01 -7.550488E+00 +1.049303E+01 +5.139720E+02 -9.045862E+00 -7.550488E+00 -9.045862E+00 +3.372089E+02 
 +9.046893E+02 +3.817180E+00 -9.489715E+00 +3.817180E+00 +5.176187E+02 -2.677280E+00 -9.489715E+00 -2.677280E+00 +3.449191E+02 
 +9.015407E+02 +1.408452E+00 -1.039702E+01 +1.408452E+00 +5.218896E+02 -1.217678E+01 -1.039702E+01 -1.217678E+01 +3.602781E+02 
 +8.818263E+02 -2.123290E+00 +8.146519E-02 -2.123290E+00 +5.180897E+02 -1.522257E+01 +8.146519E-02 -1.522257E+01 +3.614688E+02 
 +8.501018E+02 +3.100856E-02 +1.100413E+01 +3.100856E-02 +5.094935E+02 -1.492389E+00 +1.100413E+01 -1.492389E+00 +3.599869E+02 
 +8.458792E+02 +2.116053E+00 +7.120027E+00 +2.116053E+00 +5.127232E+02 +5.590629E+00 +7.120027E+00 +5.590629E+00 +3.780576E+02 
 +8.266536E+02 +2.050586E+00 -5.979734E-01 +2.050586E+00 +5.062469E+02 +3.871233E+00 -5.979734E-01 +3.871233E+00 +3.709060E+02 
 +8.449915E+02 -2.017394E+00 +4.469705E+00 -2.017394E+00 +5.065096E+02 +4.302780E+00 +4.469705E+00 +4.302780E+00 +3.479554E+02 
 +8.585938E+02 -5.745614E+00 +1.286451E+00 -5.745614E+00 +5.059764E+02 +2.323566E+00 +1.286451E+00 +2.323566E+00 +3.575260E+02 
 +8.731439E+02 -3.713373E-03 -7.860282E+00 -3.713373E-03 +5.263584E+02 +2.768843E-01 -7.860282E+00 +2.768843E-01 +3.787670E+02 
 +8.711918E+02 +1.869430E+01 -6.951351E+00 +1.869430E+01 +5.182823E+02 -1.497120E+00 -6.951351E+00 -1.497120E+00 +3.650741E+02 
 +8.568003E+02 +2.038909E+01 +5.381571E+00 +2.038909E+01 +4.756218E+02 -1.175614E+01 +5.381571E+00 -1.175614E+01 +3.622470E+02 
 +8.609568E+02 +1.040903E+01 +5.134733E-01 +1.040903E+01 +4.593370E+02 -5.937207E+00 +5.134733E-01 -5.937207E+00 +3.726443E+02 
 +8.683004E+02 +5.693969E-01 +1.208025E+00 +5.693969E-01 +4.619513E+02 +1.205865E+00 +1.208025E+00 +1.205865E+00 +3.815844E+02 
 +8.552977E+02 -5.838142E+00 +4.435215E+00 -5.838142E+00 +4.532746E+02 +3.002250E+00 +4.435215E+00 +3.002250E+00 +3.910194E+02 
 +8.628945E+02 -5.042925E+00 +2.475045E-03 -5.042925E+00 +4.632072E+02 -4.541954E+00 +2.475045E-03 -4.541954E+00 +3.879441E+02 
 +8.577551E+02 +1.204062E+00 -1.363150E+00 +1.204062E+00 +4.667389E+02 -1.352308E+01 -1.363150E+00 -1.352308E+01 +3.607165E+02 
 +8.466685E+02 +9.171956E-01 -1.559608E+00 +9.171956E-01 +4.680462E+02 -9.754808E+00 -1.559608E+00 -9.754808E+00 +3.420057E+02 
 +8.617488E+02 +5.887507E+00 +5.316586E+00 +5.887507E+00 +4.917089E+02 -4.682360E+00 +5.316586E+00 -4.682360E+00 +3.432586E+02 
 +8.597003E+02 +7.931216E+00 -3.307698E+00 +7.931216E+00 +4.973712E+02 -2.168091E+01 -3.307698E+00 -2.168091E+01 +3.491867E+02 
 +8.795327E+02 +1.380348E+01 -7.462577E+00 +1.380348E+01 +5.101361E+02 -2.896356E+01 -7.462577E+00 -2.896356E+01 +3.585250E+02 
 +8.972954E+02 +1.030093E+01 -1.150065E+01 +1.030093E+01 +5.167711E+02 -1.902748E+01 -1.150065E+01 -1.902748E+01 +3.537129E+02 
 +8.929742E+02 +2.916964E+00 -1.035896E+01 +2.916964E+00 +5.100706E+02 -1.460606E+01 -1.035896E+01 -1.460606E+01 +3.551506E+02 
 +8.793720E+02 -3.308298E+00 -4.646924E+00 -3.308298E+00 +5.013320E+02 -1.461963E+01 -4.646924E+00 -1.461963E+01 +3.543390E+02 
 +8.574927E+02 -5.521910E+00 +1.042384E+01 -5.521910E+00 +4.971417E+02 -2.476467E+00 +1.042384E+01 -2.476467E+00 +3.600647E+02 
 +8.497969E+02 -3.863962E+00 +1.088302E+01 -3.863962E+00 +5.023426E+02 +5.255819E+00 +1.088302E+01 +5.255819E+00 +3.683090E+02 
 +8.422836E+02 -3.662928E+00 +1.343171E+01 -3.662928E+00 +5.016087E+02 +4.584309E+00 +1.343171E+01 +4.584309E+00 +3.723725E+02 
 +8.164355E+02 +1.336009E+00 +9.440763E+00 +1.336009E+00 +4.862512E+02 +1.938717E+00 +9.440763E+00 +1.938717E+00 +3.460761E+02 
 +8.310040E+02 -3.081441E+00 -2.068126E+00 -3.081441E+00 +4.858120E+02 -3.172853E+00 -2.068126E+00 -3.172853E+00 +3.001660E+02 
 +8.542544E+02 -5.326667E+00 -6.947415E+00 -5.326667E+00 +4.951239E+02 -5.443266E+00 -6.947415E+00 -5.443266E+00 +3.074817E+02 
 +8.505935E+02 +3.393567E+00 -1.768403E+00 +3.393567E+00 +4.945185E+02 -4.736033E+00 -1.768403E+00 -4.736033E+00 +3.226714E+02 
 +8.542040E+02 +1.515604E+01 +2.406249E+00 +1.515604E+01 +4.922895E+02 -7.835196E+00 +2.406249E+00 -7.835196E+00 +3.346982E+02 
 +8.471584E+02 +1.063574E+01 +5.402881E+00 +1.063574E+01 +4.538258E+02 -5.308641E+00 +5.402881E+00 -5.308641E+00 +3.687488E+02 
 +8.582103E+02 +8.102276E+00 +1.313061E+00 +8.102276E+00 +4.470690E+02 -4.580612E+00 +1.313061E+00 -4.580612E+00 +3.911138E+02 
 +8.691363E+02 +2.925296E+00 +6.279781E-01 +2.925296E+00 +4.514469E+02 -3.367745E+00 +6.279781E-01 -3.367745E+00 +3.980837E+02 
 +8.800510E+02 -3.393009E+00 +9.932790E-01 -3.393009E+00 +4.751333E+02 -8.906076E+00 +9.932790E-01 -8.906076E+00 +4.069106E+02 
 +8.693106E+02 -4.890183E-01 -3.930889E+00 -4.890183E-01 +4.914394E+02 -1.732524E+01 -3.930889E+00 -1.732524E+01 +3.915953E+02 
 +8.690701E+02 +2.430626E+00 +7.284560E+00 +2.430626E+00 +4.978300E+02 -1.283485E+01 +7.284560E+00 -1.283485E+01 +3.637200E+02 
 +8.617733E+02 +4.901654E+00 +6.024750E+00 +4.901654E+00 +4.915044E+02 +3.158396E+00 +6.024750E+00 +3.158396E+00 +3.360352E+02 
 +8.611423E+02 +6.710571E+00 +4.157769E+00 +6.710571E+00 +4.886332E+02 +9.302990E+00 +4.157769E+00 +9.302990E+00 +3.229215E+02 
 +8.591997E+02 +8.890488E+00 -4.727086E+00 +8.890488E+00 +4.917314E+02 +2.714125E+00 -4.727086E+00 +2.714125E+00 +3.350787E+02 
 +8.691478E+02 +1.474452E+01 -1.584949E+01 +1.474452E+01 +4.984857E+02 -1.154885E+01 -1.584949E+01 -1.154885E+01 +3.588746E+02 
 +8.835411E+02 +1.051686E+01 -7.399058E+00 +1.051686E+01 +5.013672E+02 -7.442919E+00 -7.399058E+00 -7.442919E+00 +3.673604E+02 
 +8.665152E+02 +1.973877E+00 -1.049810E+00 +1.973877E+00 +4.916647E+02 +9.428920E+00 -1.049810E+00 +9.428920E+00 +3.569031E+02 
 +8.582418E+02 -2.911924E+00 +7.107753E+00 -2.911924E+00 +4.946690E+02 +9.750021E+00 +7.107753E+00 +9.750021E+00 +3.548155E+02 
 +8.509479E+02 -4.586704E+00 +1.003541E+01 -4.586704E+00 +4.992630E+02 +4.060046E+00 +1.003541E+01 +4.060046E+00 +3.660178E+02 
 +8.461815E+02 -4.717571E+00 +5.315018E+00 -4.717571E+00 +4.955107E+02 +5.052465E+00 +5.315018E+00 +5.052465E+00 +3.704246E+02 
 +8.386379E+02 -5.501857E+00 +8.444211E+00 -5.501857E+00 +4.884825E+02 +6.406216E+00 +8.444211E+00 +6.406216E+00 +3.693945E+02 
 +8.292269E+02 +2.429558E+00 +9.623881E+00 +2.429558E+00 +4.791659E+02 +1.821150E-01 +9.623881E+00 +1.821150E-01 +3.474088E+02 
 +8.380620E+02 -3.469722E+00 +1.846760E-01 -3.469722E+00 +4.712211E+02 -8.703144E+00 +1.846760E-01 -8.703144E+00 +3.043630E+02 
 +8.417746E+02 -2.846341E+00 -5.406903E+00 -2.846341E+00 +4.690079E+02 -1.213804E+01 -5.406903E+00 -1.213804E+01 +2.923354E+02 
 +8.482513E+02 +6.070736E+00 +8.150174E-01 +6.070736E+00 +4.778340E+02 -1.249341E+01 +8.150174E-01 -1.249341E+01 +3.081056E+02 
 +8.436664E+02 +9.615584E+00 +7.252647E+00 +9.615584E+00 +4.689130E+02 -7.120432E+00 +7.252647E+00 -7.120432E+00 +3.317738E+02 
 +8.483088E+02 -7.076142E-01 +2.492945E+00 -7.076142E-01 +4.424845E+02 +4.948383E-01 +2.492945E+00 +4.948383E-01 +3.722028E+02 
 +8.573329E+02 +6.917359E-01 -1.163804E+00 +6.917359E-01 +4.456342E+02 +7.506229E-01 -1.163804E+00 +7.506229E-01 +3.876716E+02 
 +8.704223E+02 -1.557740E+00 -9.012198E-01 -1.557740E+00 +4.502026E+02 -9.853809E-01 -9.012198E-01 -9.853809E-01 +3.935212E+02 
 +8.800123E+02 +7.447132E-01 -4.257090E+00 +7.447132E-01 +4.733514E+02 -9.265326E+00 -4.257090E+00 -9.265326E+00 +4.021990E+02 
 +8.852254E+02 +4.990232E+00 -3.828348E+00 +4.990232E+00 +5.073702E+02 -1.524034E+01 -3.828348E+00 -1.524034E+01 +4.040741E+02 
 +8.833553E+02 +1.665845E+00 +1.653824E+01 +1.665845E+00 +5.115686E+02 -1.077965E+01 +1.653824E+01 -1.077965E+01 +3.865768E+02 
 +8.564570E+02 +4.622294E+00 +4.147454E+00 +4.622294E+00 +4.802606E+02 +9.323081E-01 +4.147454E+00 +9.323081E-01 +3.508502E+02 
 +8.649278E+02 +6.067033E+00 -3.913820E-01 +6.067033E+00 +4.775848E+02 +8.336111E+00 -3.913820E-01 +8.336111E+00 +3.436140E+02 
 +8.615597E+02 +8.358678E+00 -1.378365E+01 +8.358678E+00 +4.771152E+02 +2.171561E+00 -1.378365E+01 +2.171561E+00 +3.546886E+02 
 +8.621498E+02 +1.293456E+01 -2.169915E+01 +1.293456E+01 +4.833170E+02 +6.455063E+00 -2.169915E+01 +6.455063E+00 +3.675760E+02 
 +8.602170E+02 +8.966928E+00 +3.794462E+00 +8.966928E+00 +4.860273E+02 +1.897826E+01 +3.794462E+00 +1.897826E+01 +3.619092E+02 
 +8.487956E+02 +3.717455E+00 +9.879364E+00 +3.717455E+00 +4.879265E+02 +1.820244E+01 +9.879364E+00 +1.820244E+01 +3.575696E+02 
 +8.507090E+02 +2.015398E+00 +9.750790E+00 +2.015398E+00 +5.008339E+02 +1.510911E+01 +9.750790E+00 +1.510911E+01 +3.700117E+02 
 +8.481463E+02 -1.133974E+00 +5.035212E+00 -1.133974E+00 +5.016982E+02 +1.248647E+01 +5.035212E+00 +1.248647E+01 +3.753896E+02 
 +8.441997E+02 -2.519974E+00 +2.112505E+00 -2.519974E+00 +4.946873E+02 +8.709595E+00 +2.112505E+00 +8.709595E+00 +3.761508E+02 
 +8.432955E+02 -2.344112E+00 +4.820304E+00 -2.344112E+00 +4.862887E+02 +6.181466E+00 +4.820304E+00 +6.181466E+00 +3.747037E+02 
 +8.385290E+02 +1.111159E+00 +5.627771E+00 +1.111159E+00 +4.624408E+02 +3.640492E+00 +5.627771E+00 +3.640492E+00 +3.569737E+02 
 +8.310119E+02 -5.251666E+00 +4.603599E+00 -5.251666E+00 +4.403095E+02 -4.334884E+00 +4.603599E+00 -4.334884E+00 +3.222236E+02 
 +8.380265E+02 -3.839561E+00 +6.882115E-02 -3.839561E+00 +4.497353E+02 -1.311390E+01 +6.882115E-02 -1.311390E+01 +2.961752E+02 
 +8.341310E+02 -3.231948E+00 +4.924917E+00 -3.231948E+00 +4.497639E+02 -1.185599E+01 +4.924917E+00 -1.185599E+01 +2.996922E+02 
 +8.241329E+02 -6.660403E+00 +1.562265E+01 -6.660403E+00 +4.331862E+02 -1.264654E+00 +1.562265E+01 -1.264654E+00 +3.316806E+02 
 +8.647236E+02 +7.377733E-01 -2.238943E+00 +7.377733E-01 +4.613068E+02 -1.038208E+01 -2.238943E+00 -1.038208E+01 +3.754796E+02 
 +8.679724E+02 -1.148456E+00 -5.522619E+00 -1.148456E+00 +4.587137E+02 -6.648031E+00 -5.522619E+00 -6.648031E+00 +3.844396E+02 
 +8.719399E+02 -3.515961E+00 -6.597499E+00 -3.515961E+00 +4.601653E+02 -2.729289E+00 -6.597499E+00 -2.729289E+00 +3.817732E+02 
 +8.772366E+02 -4.652914E+00 -8.415474E+00 -4.652914E+00 +4.665302E+02 -5.926152E+00 -8.415474E+00 -5.926152E+00 +3.850633E+02 
 +8.727975E+02 -3.907911E-01 -9.112031E+00 -3.907911E-01 +4.616560E+02 -1.246243E+01 -9.112031E+00 -1.246243E+01 +3.849464E+02 
 +8.760811E+02 +3.077278E+00 +2.649184E+00 +3.077278E+00 +4.740089E+02 -1.181300E+01 +2.649184E+00 -1.181300E+01 +3.851569E+02 
 +8.673014E+02 +9.025073E+00 -6.039256E+00 +9.025073E+00 +4.866448E+02 -3.080239E+00 -6.039256E+00 -3.080239E+00 +3.785946E+02 
 +8.607900E+02 +1.075571E+01 -1.166509E+01 +1.075571E+01 +4.828710E+02 +1.640715E+00 -1.166509E+01 +1.640715E+00 +3.712730E+02 
 +8.559714E+02 +1.262255E+01 -1.767652E+01 +1.262255E+01 +4.828303E+02 +3.632703E+00 -1.767652E+01 +3.632703E+00 +3.735930E+02 
 +8.628873E+02 +1.383783E+01 -2.344228E+01 +1.383783E+01 +4.906646E+02 +6.085327E+00 -2.344228E+01 +6.085327E+00 +3.853250E+02 
 +8.668082E+02 +1.060223E+01 -1.175482E+01 +1.060223E+01 +4.971122E+02 +9.106494E+00 -1.175482E+01 +9.106494E+00 +3.739135E+02 
 +8.559107E+02 +4.985271E+00 +1.406983E+01 +4.985271E+00 +5.029327E+02 +2.102719E+01 +1.406983E+01 +2.102719E+01 +3.714968E+02 
 +8.580934E+02 +2.865493E+00 +8.697041E+00 +2.865493E+00 +5.157819E+02 +2.808292E+01 +8.697041E+00 +2.808292E+01 +3.926061E+02 
 +8.572425E+02 -2.097717E+00 -9.625073E-01 -2.097717E+00 +5.156463E+02 +2.335301E+01 -9.625073E-01 +2.335301E+01 +3.982158E+02 
 +8.422397E+02 -3.990973E+00 -2.404917E+00 -3.990973E+00 +4.897913E+02 +1.463098E+01 -2.404917E+00 +1.463098E+01 +3.893309E+02 
 +8.450777E+02 -5.141464E+00 -8.021167E-01 -5.141464E+00 +4.691925E+02 +8.415329E+00 -8.021167E-01 +8.415329E+00 +3.826457E+02 
 +8.528852E+02 -1.060669E+01 -2.516958E+00 -1.060669E+01 +4.647352E+02 +1.338531E+00 -2.516958E+00 +1.338531E+00 +3.775357E+02 
 +8.449082E+02 -1.341375E+01 -4.454624E+00 -1.341375E+01 +4.659079E+02 -7.653924E+00 -4.454624E+00 -7.653924E+00 +3.666167E+02 
 +8.503724E+02 -8.683648E+00 -1.616273E+00 -8.683648E+00 +4.707646E+02 -8.433823E+00 -1.616273E+00 -8.433823E+00 +3.607151E+02 
 +8.586736E+02 -8.370765E+00 +3.186606E+00 -8.370765E+00 +4.774379E+02 -9.916568E+00 +3.186606E+00 -9.916568E+00 +3.571917E+02 
 +8.443462E+02 -1.072041E+01 +1.937093E+01 -1.072041E+01 +4.623948E+02 -1.128351E+01 +1.937093E+01 -1.128351E+01 +3.523242E+02 
 +8.643669E+02 -1.352896E+00 -8.311952E+00 -1.352896E+00 +4.576037E+02 -9.050564E+00 -8.311952E+00 -9.050564E+00 +3.546329E+02 
 +8.625553E+02 -1.792412E+00 -2.070258E+00 -1.792412E+00 +4.529653E+02 -4.652968E+00 -2.070258E+00 -4.652968E+00 +3.555141E+02 
 +8.650898E+02 -4.516559E+00 -4.091017E+00 -4.516559E+00 +4.600907E+02 +3.561587E+00 -4.091017E+00 +3.561587E+00 +3.674519E+02 
 +8.641454E+02 -4.391798E+00 -6.252132E+00 -4.391798E+00 +4.542070E+02 -2.521095E+00 -6.252132E+00 -2.521095E+00 +3.645325E+02 
 +8.689525E+02 -1.381173E+00 -6.757138E+00 -1.381173E+00 +4.485371E+02 -1.778759E+01 -6.757138E+00 -1.778759E+01 +3.552855E+02 
 +8.721911E+02 +1.612755E+00 -2.553143E+00 +1.612755E+00 +4.483704E+02 -2.400984E+01 -2.553143E+00 -2.400984E+01 +3.584729E+02 
 +8.661776E+02 +2.095861E+00 -8.698135E+00 +2.095861E+00 +4.560053E+02 -1.496783E+01 -8.698135E+00 -1.496783E+01 +3.743706E+02 
 +8.540868E+02 +4.804444E+00 -1.511987E+01 +4.804444E+00 +4.706042E+02 +1.983042E+00 -1.511987E+01 +1.983042E+00 +3.817482E+02 
 +8.535997E+02 +9.953028E+00 -1.285870E+01 +9.953028E+00 +4.835521E+02 +8.654088E+00 -1.285870E+01 +8.654088E+00 +3.830640E+02 
 +8.620147E+02 +7.298968E+00 -1.590417E+01 +7.298968E+00 +4.896324E+02 +3.479471E-01 -1.590417E+01 +3.479471E-01 +3.978763E+02 
 +8.547429E+02 +9.361775E+00 -3.335457E+00 +9.361775E+00 +4.831060E+02 +7.566383E-01 -3.335457E+00 +7.566383E-01 +3.947086E+02 
 +8.500519E+02 +4.938006E+00 +1.847576E+01 +4.938006E+00 +4.882169E+02 +1.829850E+01 +1.847576E+01 +1.829850E+01 +3.985090E+02 
 +8.494530E+02 +1.181394E+00 +1.084926E+01 +1.181394E+00 +4.910137E+02 +2.909479E+01 +1.084926E+01 +2.909479E+01 +4.124673E+02 
 +8.480616E+02 -5.427076E+00 -4.814184E+00 -5.427076E+00 +4.859008E+02 +2.753946E+01 -4.814184E+00 +2.753946E+01 +4.200628E+02 
 +8.388962E+02 -8.977924E+00 -8.349994E+00 -8.977924E+00 +4.778705E+02 +1.769862E+01 -8.349994E+00 +1.769862E+01 +4.158878E+02 
 +8.511966E+02 -1.133772E+01 -1.052998E+01 -1.133772E+01 +4.768465E+02 +6.807446E+00 -1.052998E+01 +6.807446E+00 +4.075947E+02 
 +8.537200E+02 -1.218708E+01 -4.077626E+00 -1.218708E+01 +4.711319E+02 +6.895348E+00 -4.077626E+00 +6.895348E+00 +3.942196E+02 
 +8.555391E+02 -8.810527E+00 +1.585249E+00 -8.810527E+00 +4.704335E+02 +2.109701E+00 +1.585249E+00 +2.109701E+00 +3.800941E+02 
 +8.395562E+02 -4.773593E+00 +1.395384E+01 -4.773593E+00 +4.573437E+02 -1.218111E+00 +1.395384E+01 -1.218111E+00 +3.679405E+02 
 +8.517967E+02 -3.168780E-02 +1.491725E+00 -3.168780E-02 +4.583265E+02 +1.581898E+00 +1.491725E+00 +1.581898E+00 +3.747719E+02 
 +8.379696E+02 -8.827878E+00 +8.357590E+00 -8.827878E+00 +4.504724E+02 +3.746330E+00 +8.357590E+00 +3.746330E+00 +3.600575E+02 
 +8.603754E+02 -3.688042E+00 +7.935507E-01 -3.688042E+00 +4.567479E+02 -3.801583E+00 +7.935507E-01 -3.801583E+00 +3.386351E+02 
 +8.617320E+02 +7.830699E-01 -5.227303E-01 +7.830699E-01 +4.563927E+02 +7.642615E+00 -5.227303E-01 +7.642615E+00 +3.500053E+02 
 +8.607931E+02 -4.328554E+00 -6.863970E+00 -4.328554E+00 +4.526713E+02 +8.667974E+00 -6.863970E+00 +8.667974E+00 +3.551564E+02 
 +8.539086E+02 -4.873596E+00 -9.798853E+00 -4.873596E+00 +4.395869E+02 -4.268105E-01 -9.798853E+00 -4.268105E-01 +3.447670E+02 
 +8.534369E+02 -2.992082E+00 -1.116018E+01 -2.992082E+00 +4.309118E+02 -1.666543E+01 -1.116018E+01 -1.666543E+01 +3.347950E+02 
 +8.548991E+02 -1.103758E+00 -6.625542E+00 -1.103758E+00 +4.322638E+02 -2.217161E+01 -6.625542E+00 -2.217161E+01 +3.410399E+02 
 +8.606440E+02 -1.547507E+00 -6.027070E+00 -1.547507E+00 +4.535565E+02 +3.141504E+00 -6.027070E+00 +3.141504E+00 +3.568906E+02 
 +8.557232E+02 -3.616105E+00 -1.103895E+01 -3.616105E+00 +4.691684E+02 +4.488913E+01 -1.103895E+01 +4.488913E+01 +3.507735E+02 
 +8.480362E+02 -1.062693E-01 -9.508401E+00 -1.062693E-01 +4.742032E+02 +5.656652E+01 -9.508401E+00 +5.656652E+01 +3.479369E+02 
 +8.538099E+02 -1.361088E+00 -5.913159E+00 -1.361088E+00 +4.849638E+02 +4.964017E+01 -5.913159E+00 +4.964017E+01 +3.691268E+02 
 +8.484729E+02 +1.913212E+00 +6.836419E+00 +1.913212E+00 +4.807975E+02 +4.104343E+01 +6.836419E+00 +4.104343E+01 +3.813179E+02 
 +8.294945E+02 -7.593522E-01 +1.231382E+01 -7.593522E-01 +4.595014E+02 +3.288679E+01 +1.231382E+01 +3.288679E+01 +3.856882E+02 
 +8.291637E+02 -8.707581E+00 +9.044210E+00 -8.707581E+00 +4.481564E+02 +3.620093E+01 +9.044210E+00 +3.620093E+01 +4.027243E+02 
 +8.393536E+02 -7.184226E+00 -2.388167E+00 -7.184226E+00 +4.570833E+02 +3.117414E+01 -2.388167E+00 +3.117414E+01 +4.247554E+02 
 +8.423155E+02 -9.573857E+00 -8.042906E+00 -9.573857E+00 +4.720551E+02 +1.653365E+01 -8.042906E+00 +1.653365E+01 +4.335512E+02 
 +8.479253E+02 -1.233641E+01 -1.477743E+01 -1.233641E+01 +4.766321E+02 +7.682432E+00 -1.477743E+01 +7.682432E+00 +4.222485E+02 
 +8.601568E+02 -1.148415E+01 -8.724626E+00 -1.148415E+01 +4.773718E+02 +8.231047E+00 -8.724626E+00 +8.231047E+00 +4.079284E+02 
 +8.615223E+02 -9.022114E+00 -4.647998E+00 -9.022114E+00 +4.721996E+02 +2.960823E+00 -4.647998E+00 +2.960823E+00 +3.840288E+02 
 +8.536420E+02 -4.791007E+00 +6.384864E+00 -4.791007E+00 +4.787040E+02 -1.074131E+01 +6.384864E+00 -1.074131E+01 +3.733874E+02 
 +8.621538E+02 -3.828043E+00 +2.810918E+00 -3.828043E+00 +4.949731E+02 -1.799733E+01 +2.810918E+00 -1.799733E+01 +3.814813E+02 
 +8.467646E+02 -1.266764E+01 +9.325719E+00 -1.266764E+01 +4.679578E+02 -1.195897E+01 +9.325719E+00 -1.195897E+01 +3.518912E+02 
 +8.701057E+02 -9.707798E-01 +1.383511E+01 -9.707798E-01 +4.831315E+02 +2.058416E+01 +1.383511E+01 +2.058416E+01 +3.418376E+02 
 +8.616228E+02 +1.977328E+00 +4.105835E+00 +1.977328E+00 +4.628188E+02 +1.554215E+01 +4.105835E+00 +1.554215E+01 +3.411933E+02 
 +8.618378E+02 -7.303795E-01 -3.812206E+00 -7.303795E-01 +4.567646E+02 +1.817254E+01 -3.812206E+00 +1.817254E+01 +3.471682E+02 
 +8.660253E+02 -2.264284E+00 -9.496476E+00 -2.264284E+00 +4.638968E+02 +2.601109E+01 -9.496476E+00 +2.601109E+01 +3.451121E+02 
 +8.692567E+02 +8.720362E-01 -1.034758E+01 +8.720362E-01 +4.678358E+02 +2.895812E+01 -1.034758E+01 +2.895812E+01 +3.391593E+02 
 +8.634085E+02 +5.756776E+00 -8.355403E+00 +5.756776E+00 +4.737969E+02 +3.089021E+01 -8.355403E+00 +3.089021E+01 +3.560701E+02 
 +8.480948E+02 +4.643714E+00 -3.701387E+00 +4.643714E+00 +4.658288E+02 +4.131773E+01 -3.701387E+00 +4.131773E+01 +3.536829E+02 
 +8.497327E+02 +9.594264E-02 -8.629233E+00 +9.594264E-02 +4.579749E+02 +5.457565E+01 -8.629233E+00 +5.457565E+01 +3.180086E+02 
 +8.470348E+02 +9.872943E-01 -8.150736E+00 +9.872943E-01 +4.587806E+02 +5.283355E+01 -8.150736E+00 +5.283355E+01 +3.123200E+02 
 +8.439561E+02 +1.511046E+00 +4.320054E+00 +1.511046E+00 +4.639284E+02 +4.329294E+01 +4.320054E+00 +4.329294E+01 +3.367613E+02 
 +8.491714E+02 +5.804326E+00 +1.052531E+01 +5.804326E+00 +4.748221E+02 +3.373785E+01 +1.052531E+01 +3.373785E+01 +3.720364E+02 
 +8.428867E+02 +6.207086E+00 +2.491647E+00 +6.207086E+00 +4.735842E+02 +2.657444E+01 +2.491647E+00 +2.657444E+01 +3.967789E+02 
 +8.168195E+02 -4.464638E+00 +7.865318E+00 -4.464638E+00 +4.439590E+02 +2.758526E+01 +7.865318E+00 +2.758526E+01 +3.923827E+02 
 +8.156545E+02 -3.900015E+00 +4.186927E+00 -3.900015E+00 +4.315419E+02 +2.360101E+01 +4.186927E+00 +2.360101E+01 +3.979871E+02 
 +8.373882E+02 -7.202610E+00 -1.585821E+00 -7.202610E+00 +4.572192E+02 +1.531712E+01 -1.585821E+00 +1.531712E+01 +4.197633E+02 
 +8.512982E+02 -1.456374E+01 -9.659481E+00 -1.456374E+01 +4.758128E+02 +8.544206E+00 -9.659481E+00 +8.544206E+00 +4.241146E+02 
 +8.614239E+02 -1.116062E+01 -1.753793E+01 -1.116062E+01 +4.790294E+02 +6.092615E+00 -1.753793E+01 +6.092615E+00 +4.131053E+02 
 +8.694169E+02 -6.644826E+00 -9.536210E+00 -6.644826E+00 +4.868702E+02 +1.049156E+01 -9.536210E+00 +1.049156E+01 +3.966054E+02 
 +8.651485E+02 -2.512202E-01 -8.103746E+00 -2.512202E-01 +4.873331E+02 +1.154901E+01 -8.103746E+00 +1.154901E+01 +3.817693E+02 
 +8.525530E+02 -3.264224E-01 +2.355280E+00 -3.264224E-01 +4.750360E+02 +1.631339E+01 +2.355280E+00 +1.631339E+01 +3.649066E+02 
 +8.576782E+02 -6.660464E+00 +2.086090E+01 -6.660464E+00 +4.776205E+02 +2.066677E+01 +2.086090E+01 +2.066677E+01 +3.478391E+02 
 +8.778692E+02 +2.025723E+00 +1.532944E+01 +2.025723E+00 +4.977823E+02 +3.112409E+01 +1.532944E+01 +3.112409E+01 +3.469645E+02 
 +8.792754E+02 +5.481861E+00 +1.206231E+01 +5.481861E+00 +5.015957E+02 +3.485343E+01 +1.206231E+01 +3.485343E+01 +3.306212E+02 
 +8.659535E+02 +1.830274E+00 +9.587160E+00 +1.830274E+00 +4.900275E+02 +3.122494E+01 +9.587160E+00 +3.122494E+01 +3.346695E+02 
 +8.661170E+02 -2.463694E+00 -4.357496E+00 -2.463694E+00 +4.774019E+02 +1.975828E+01 -4.357496E+00 +1.975828E+01 +3.342777E+02 
 +8.690884E+02 +1.234873E+00 -1.039074E+01 +1.234873E+00 +4.836348E+02 -5.122929E+00 -1.039074E+01 -5.122929E+00 +3.310108E+02 
 +8.595542E+02 +2.186376E+00 -1.275108E+01 +2.186376E+00 +4.847602E+02 -6.264968E+00 -1.275108E+01 -6.264968E+00 +3.572945E+02 
 +8.294583E+02 +4.108190E+00 -6.295493E+00 +4.108190E+00 +4.553010E+02 +2.093911E+01 -6.295493E+00 +2.093911E+01 +3.572830E+02 
 +8.395514E+02 +5.157596E+00 -1.150125E+01 +5.157596E+00 +4.413097E+02 +4.025264E+01 -1.150125E+01 +4.025264E+01 +3.084413E+02 
 +8.445525E+02 +4.770454E+00 -2.390830E+00 +4.770454E+00 +4.461285E+02 +4.245346E+01 -2.390830E+00 +4.245346E+01 +2.982615E+02 
 +8.514045E+02 -1.275419E+00 +6.200048E+00 -1.275419E+00 +4.662323E+02 +4.046385E+01 +6.200048E+00 +4.046385E+01 +3.409236E+02 
 +8.580753E+02 -1.613518E+00 +7.829224E+00 -1.613518E+00 +4.749135E+02 +3.001572E+01 +7.829224E+00 +3.001572E+01 +3.752830E+02 
 +8.609048E+02 -1.693083E+00 -1.382597E+00 -1.693083E+00 +4.849077E+02 +1.503714E+01 -1.382597E+00 +1.503714E+01 +4.028235E+02 
 +8.377358E+02 -8.756602E+00 +7.703433E+00 -8.756602E+00 +4.969566E+02 +1.462934E+01 +7.703433E+00 +1.462934E+01 +4.070378E+02 
 +8.168769E+02 -1.383228E+01 +1.264811E+01 -1.383228E+01 +4.835807E+02 +1.947296E+01 +1.264811E+01 +1.947296E+01 +4.067051E+02 
 +8.600762E+02 -9.079848E+00 +1.324322E+00 -9.079848E+00 +4.791315E+02 +1.548035E+01 +1.324322E+00 +1.548035E+01 +4.243698E+02 
 +8.571929E+02 -1.351323E+01 -5.974678E+00 -1.351323E+01 +4.704048E+02 +8.939741E+00 -5.974678E+00 +8.939741E+00 +4.141433E+02 
 +8.612039E+02 -8.445372E+00 -1.774814E+01 -8.445372E+00 +4.780175E+02 +1.091021E+01 -1.774814E+01 +1.091021E+01 +4.069190E+02 
 +8.736703E+02 -9.704595E-02 -8.350310E+00 -9.704595E-02 +4.890922E+02 +2.018686E+01 -8.350310E+00 +2.018686E+01 +4.009787E+02 
 +8.711201E+02 +2.595404E+00 -7.754196E+00 +2.595404E+00 +4.853940E+02 +2.516475E+01 -7.754196E+00 +2.516475E+01 +3.897001E+02 
 +8.682424E+02 +1.544787E+00 +4.381555E+00 +1.544787E+00 +4.791444E+02 +2.938652E+01 +4.381555E+00 +2.938652E+01 +3.811468E+02 
 +8.720137E+02 -8.722018E-01 +1.856576E+01 -8.722018E-01 +4.885777E+02 +2.795686E+01 +1.856576E+01 +2.795686E+01 +3.726830E+02 
 +8.839514E+02 +4.884642E+00 +1.394495E+01 +4.884642E+00 +5.022927E+02 +3.276233E+01 +1.394495E+01 +3.276233E+01 +3.488265E+02 
 +8.915458E+02 +8.123625E+00 +1.316274E+01 +8.123625E+00 +5.161873E+02 +3.645075E+01 +1.316274E+01 +3.645075E+01 +3.428095E+02 
 +8.849399E+02 +5.871706E+00 +1.045777E+01 +5.871706E+00 +5.233173E+02 +2.144832E+01 +1.045777E+01 +2.144832E+01 +3.463049E+02 
 +8.650799E+02 +4.066853E+00 -5.672085E+00 +4.066853E+00 +5.093634E+02 -1.268794E+01 -5.672085E+00 -1.268794E+01 +3.343902E+02 
 +8.550700E+02 +7.423566E+00 -1.262884E+01 +7.423566E+00 +4.850435E+02 -3.106774E+01 -1.262884E+01 -3.106774E+01 +3.194708E+02 
 +8.415896E+02 +3.224412E+00 -1.233876E+01 +3.224412E+00 +4.667814E+02 -2.122499E+01 -1.233876E+01 -2.122499E+01 +3.347282E+02 
 +8.080840E+02 +2.101615E+00 +6.976664E-02 +2.101615E+00 +4.416812E+02 +5.012934E+00 +6.976664E-02 +5.012934E+00 +3.421363E+02 
 +8.333226E+02 +3.215885E+00 -3.566719E+00 +3.215885E+00 +4.492580E+02 +3.106653E+01 -3.566719E+00 +3.106653E+01 +3.229034E+02 
 +8.585694E+02 +9.444862E-01 -5.059906E+00 +9.444862E-01 +4.681618E+02 +3.955716E+01 -5.059906E+00 +3.955716E+01 +3.222613E+02 
 +8.635380E+02 -4.753834E+00 +8.528607E-01 -4.753834E+00 +4.790944E+02 +3.500365E+01 +8.528607E-01 +3.500365E+01 +3.516662E+02 
 +8.666113E+02 -6.932225E+00 +4.842716E+00 -6.932225E+00 +4.845974E+02 +2.837806E+01 +4.842716E+00 +2.837806E+01 +3.726662E+02 
 +8.515066E+02 -8.630676E+00 +9.839930E-01 -8.630676E+00 +4.717608E+02 +1.688737E+01 +9.839930E-01 +1.688737E+01 +3.863476E+02 
 +8.357888E+02 -5.924267E+00 +4.967442E+00 -5.924267E+00 +4.719490E+02 +1.051817E+01 +4.967442E+00 +1.051817E+01 +3.987639E+02 
 +8.148987E+02 -1.361079E+01 +1.450384E+01 -1.361079E+01 +4.780906E+02 +1.054550E+01 +1.450384E+01 +1.054550E+01 +4.066423E+02 
 +8.756613E+02 -4.101514E+00 +3.235615E+00 -4.101514E+00 +4.996515E+02 +9.640168E+00 +3.235615E+00 +9.640168E+00 +4.240381E+02 
 +8.654047E+02 -3.912628E+00 -3.210734E+00 -3.912628E+00 +4.811454E+02 +1.153513E+01 -3.210734E+00 +1.153513E+01 +4.016964E+02 
 +8.649456E+02 -3.414015E+00 -1.174387E+01 -3.414015E+00 +4.853105E+02 +1.455522E+01 -1.174387E+01 +1.455522E+01 +3.978052E+02 
 +8.739273E+02 +3.321077E+00 -6.525015E+00 +3.321077E+00 +4.889552E+02 +2.123127E+01 -6.525015E+00 +2.123127E+01 +3.909153E+02 
 +8.752169E+02 +2.292850E+00 -4.139160E+00 +2.292850E+00 +4.888894E+02 +2.283722E+01 -4.139160E+00 +2.283722E+01 +3.815909E+02 
 +8.771702E+02 +2.557464E+00 +4.607491E+00 +2.557464E+00 +4.909694E+02 +2.475691E+01 +4.607491E+00 +2.475691E+01 +3.769844E+02 
 +8.795602E+02 +3.785326E+00 +1.171270E+01 +3.785326E+00 +4.943556E+02 +2.732335E+01 +1.171270E+01 +2.732335E+01 +3.651822E+02 
 +8.930682E+02 +4.374902E+00 +1.025475E+01 +4.374902E+00 +5.129260E+02 +2.927726E+01 +1.025475E+01 +2.927726E+01 +3.686305E+02 
 +8.952131E+02 +1.616217E+00 +7.363094E+00 +1.616217E+00 +5.102104E+02 +3.007631E+01 +7.363094E+00 +3.007631E+01 +3.725064E+02 
 +9.021824E+02 +3.258965E+00 +5.426887E+00 +3.258965E+00 +5.227523E+02 +2.445040E+01 +5.426887E+00 +2.445040E+01 +3.834623E+02 
 +8.709305E+02 -3.860042E+00 -3.960426E+00 -3.860042E+00 +5.283520E+02 +8.057974E+00 -3.960426E+00 +8.057974E+00 +3.682881E+02 
 +8.520275E+02 -7.982817E+00 -1.238251E+01 -7.982817E+00 +5.024762E+02 +5.265899E+00 -1.238251E+01 +5.265899E+00 +3.483432E+02 
 +8.347883E+02 -6.168789E+00 -1.641074E+01 -6.168789E+00 +4.766299E+02 +9.086793E+00 -1.641074E+01 +9.086793E+00 +3.491665E+02 
 +8.191019E+02 -7.880856E+00 -5.860836E+00 -7.880856E+00 +4.699942E+02 +5.675550E+00 -5.860836E+00 +5.675550E+00 +3.549623E+02 
 +8.102400E+02 -1.462738E+00 -1.640032E+00 -1.462738E+00 +4.466698E+02 +5.245244E+00 -1.640032E+00 +5.245244E+00 +3.272073E+02 
 +8.509301E+02 -1.660396E-02 -1.377763E+01 -1.660396E-02 +4.511990E+02 +2.220642E+01 -1.377763E+01 +2.220642E+01 +3.137546E+02 
 +8.497644E+02 -4.756757E+00 -6.440534E+00 -4.756757E+00 +4.522138E+02 +2.943088E+01 -6.440534E+00 +2.943088E+01 +3.189866E+02 
 +8.529644E+02 -8.991959E+00 +8.753793E+00 -8.991959E+00 +4.602548E+02 +2.435863E+01 +8.753793E+00 +2.435863E+01 +3.436729E+02 
 +8.462175E+02 -9.160992E+00 +8.860577E+00 -9.160992E+00 +4.635653E+02 +1.493654E+01 +8.860577E+00 +1.493654E+01 +3.721545E+02 
 +8.391030E+02 -1.778830E+00 +7.014855E+00 -1.778830E+00 +4.535090E+02 +1.257090E+01 +7.014855E+00 +1.257090E+01 +3.857335E+02 
 +8.304732E+02 -6.862562E+00 +9.255293E+00 -6.862562E+00 +4.493020E+02 +1.421810E+01 +9.255293E+00 +1.421810E+01 +3.851970E+02 
 +8.539970E+02 -3.557949E+00 +4.185289E+00 -3.557949E+00 +4.782337E+02 +1.472661E+01 +4.185289E+00 +1.472661E+01 +3.933016E+02 
 +8.612285E+02 -6.515779E-01 -4.047373E-01 -6.515779E-01 +4.858000E+02 +1.518694E+01 -4.047373E-01 +1.518694E+01 +3.903471E+02 
 +8.629361E+02 -2.060254E+00 -7.904448E+00 -2.060254E+00 +4.856533E+02 +1.511798E+01 -7.904448E+00 +1.511798E+01 +3.894521E+02 
 +8.721788E+02 +4.258772E+00 -2.168560E+00 +4.258772E+00 +4.895808E+02 +2.039677E+01 -2.168560E+00 +2.039677E+01 +3.843723E+02 
 +8.739734E+02 +2.564894E+00 -1.732372E+00 +2.564894E+00 +4.887443E+02 +2.227292E+01 -1.732372E+00 +2.227292E+01 +3.735360E+02 
 +8.783053E+02 +1.944079E+00 +4.825734E+00 +1.944079E+00 +4.904517E+02 +2.346175E+01 +4.825734E+00 +2.346175E+01 +3.673873E+02 
 +8.846848E+02 +4.016775E+00 +1.059443E+01 +4.016775E+00 +4.983221E+02 +2.643606E+01 +1.059443E+01 +2.643606E+01 +3.635482E+02 
 +8.806386E+02 -2.221142E+00 -7.145682E-02 -2.221142E+00 +4.822423E+02 +1.683365E+01 -7.145682E-02 +1.683365E+01 +3.904523E+02 
 +8.801062E+02 -6.877626E+00 +1.295375E+00 -6.877626E+00 +4.777637E+02 +1.418995E+01 +1.295375E+00 +1.418995E+01 +3.956728E+02 
 +8.856446E+02 +9.820871E-01 +9.319777E+00 +9.820871E-01 +4.854392E+02 +2.072530E+01 +9.319777E+00 +2.072530E+01 +4.027230E+02 
 +8.755672E+02 -1.426085E+00 +3.084009E+00 -1.426085E+00 +4.966289E+02 +2.186307E+01 +3.084009E+00 +2.186307E+01 +3.974751E+02 
 +8.283253E+02 -1.504183E+01 -1.214602E+01 -1.504183E+01 +4.890243E+02 +1.179454E+01 -1.214602E+01 +1.179454E+01 +3.714703E+02 
 +8.297208E+02 -7.221167E+00 -1.654263E+01 -7.221167E+00 +4.858665E+02 +1.126635E+01 -1.654263E+01 +1.126635E+01 +3.700544E+02 
 +8.311604E+02 -4.276667E+00 -1.553660E+01 -4.276667E+00 +4.848582E+02 +1.329262E+01 -1.553660E+01 +1.329262E+01 +3.661363E+02 
 +8.130654E+02 -3.519166E+00 -1.373484E+01 -3.519166E+00 +4.640658E+02 +1.111078E+01 -1.373484E+01 +1.111078E+01 +3.310940E+02 
 +8.329511E+02 +9.412398E-01 -1.571925E+01 +9.412398E-01 +4.442144E+02 +1.668741E+01 -1.571925E+01 +1.668741E+01 +2.949463E+02 
 +8.404352E+02 -3.277491E+00 -9.032497E+00 -3.277491E+00 +4.437686E+02 +2.531252E+01 -9.032497E+00 +2.531252E+01 +2.903458E+02 
 +8.462693E+02 -1.424418E+01 +1.106215E+01 -1.424418E+01 +4.492411E+02 +2.248250E+01 +1.106215E+01 +2.248250E+01 +3.094391E+02 
 +8.432462E+02 -9.866668E+00 +1.463992E+01 -9.866668E+00 +4.452668E+02 +1.145923E+01 +1.463992E+01 +1.145923E+01 +3.350452E+02 
 +8.506943E+02 -3.748678E+00 +1.095501E+01 -3.748678E+00 +4.578546E+02 +1.028656E+01 +1.095501E+01 +1.028656E+01 +3.669972E+02 
 +8.550892E+02 -7.029217E+00 +7.361130E+00 -7.029217E+00 +4.673109E+02 +1.367715E+01 +7.361130E+00 +1.367715E+01 +3.781597E+02 
 +8.532159E+02 -7.893586E+00 +2.728773E+00 -7.893586E+00 +4.739667E+02 +1.784030E+01 +2.728773E+00 +1.784030E+01 +3.808176E+02 
 +8.561169E+02 -3.618081E+00 -5.265866E-01 -3.618081E+00 +4.801592E+02 +1.841010E+01 -5.265866E-01 +1.841010E+01 +3.831602E+02 
 +8.567541E+02 -2.799392E+00 -5.637022E+00 -2.799392E+00 +4.806599E+02 +1.761161E+01 -5.637022E+00 +1.761161E+01 +3.819961E+02 
 +8.713756E+02 +3.472367E+00 +3.437454E+00 +3.472367E+00 +4.880816E+02 +2.198858E+01 +3.437454E+00 +2.198858E+01 +3.822701E+02 
 +8.752788E+02 +2.167587E+00 +4.673096E+00 +2.167587E+00 +4.900560E+02 +2.443433E+01 +4.673096E+00 +2.443433E+01 +3.815991E+02 
 +8.755342E+02 -4.199461E-01 +7.139210E+00 -4.199461E-01 +4.880759E+02 +2.794667E+01 +7.139210E+00 +2.794667E+01 +3.795914E+02 
 +8.838118E+02 +7.345241E-01 +2.964799E+00 +7.345241E-01 +4.908600E+02 +2.496619E+01 +2.964799E+00 +2.496619E+01 +3.829297E+02 
 +8.834455E+02 -6.736390E+00 -1.474342E+01 -6.736390E+00 +4.800875E+02 +1.927046E+01 -1.474342E+01 +1.927046E+01 +4.095797E+02 
 +8.796180E+02 -5.935792E+00 -8.589349E-01 -5.935792E+00 +4.775404E+02 +1.549328E+01 -8.589349E-01 +1.549328E+01 +4.195286E+02 
 +8.766865E+02 -2.029699E-01 +1.154349E+01 -2.029699E-01 +4.717134E+02 +2.363953E+01 +1.154349E+01 +2.363953E+01 +4.182446E+02 
 +8.875542E+02 +4.006434E+00 +7.347691E+00 +4.006434E+00 +4.875162E+02 +2.930244E+01 +7.347691E+00 +2.930244E+01 +4.230552E+02 
 +8.242176E+02 -1.157863E+01 -8.153171E+00 -1.157863E+01 +4.814586E+02 +1.927222E+01 -8.153171E+00 +1.927222E+01 +3.909464E+02 
 +8.305500E+02 -6.976073E+00 -1.011421E+01 -6.976073E+00 +5.006441E+02 +1.301594E+01 -1.011421E+01 +1.301594E+01 +3.788415E+02 
 +8.285612E+02 -3.939868E+00 -1.072085E+01 -3.939868E+00 +4.939679E+02 +9.553296E+00 -1.072085E+01 +9.553296E+00 +3.611264E+02 
 +8.308721E+02 -1.137062E+01 -1.530713E+01 -1.137062E+01 +4.887763E+02 +1.101597E+00 -1.530713E+01 +1.101597E+00 +3.524681E+02 
 +8.466679E+02 -5.302799E+00 -1.226181E+01 -5.302799E+00 +4.874013E+02 -8.687959E+00 -1.226181E+01 -8.687959E+00 +3.290868E+02 
 +8.661452E+02 +1.610198E+00 -6.410694E+00 +1.610198E+00 +4.761409E+02 -3.867904E+00 -6.410694E+00 -3.867904E+00 +3.075097E+02 
 +8.605514E+02 -4.388344E+00 +9.476567E+00 -4.388344E+00 +4.694955E+02 +5.927230E+00 +9.476567E+00 +5.927230E+00 +3.052755E+02 
 +8.624288E+02 -5.565884E+00 +1.739211E+01 -5.565884E+00 +4.793260E+02 +8.861691E+00 +1.739211E+01 +8.861691E+00 +3.273231E+02 
 +8.639864E+02 -5.889119E+00 +1.443585E+01 -5.889119E+00 +4.755941E+02 +1.599218E+01 +1.443585E+01 +1.599218E+01 +3.513467E+02 
 +8.590355E+02 -6.573663E+00 +9.102327E+00 -6.573663E+00 +4.710506E+02 +2.361026E+01 +9.102327E+00 +2.361026E+01 +3.555640E+02 
 +8.548798E+02 -7.135151E+00 -2.126732E-01 -7.135151E+00 +4.727903E+02 +2.395501E+01 -2.126732E-01 +2.395501E+01 +3.592345E+02 
 +8.563553E+02 -6.816994E+00 -2.788136E+00 -6.816994E+00 +4.754967E+02 +1.835079E+01 -2.788136E+00 +1.835079E+01 +3.700464E+02 
 +8.574972E+02 -3.901855E+00 +3.855252E-01 -3.901855E+00 +4.792596E+02 +1.641440E+01 +3.855252E-01 +1.641440E+01 +3.847308E+02 
 +8.619431E+02 +9.856580E-01 +1.180898E+01 +9.856580E-01 +4.803597E+02 +2.523552E+01 +1.180898E+01 +2.523552E+01 +3.793216E+02 
 +8.667851E+02 -2.029228E+00 +8.224046E+00 -2.029228E+00 +4.811545E+02 +2.196217E+01 +8.224046E+00 +2.196217E+01 +3.651433E+02 
 +8.640224E+02 -3.991045E+00 +1.085276E+01 -3.991045E+00 +4.821049E+02 +1.187500E+01 +1.085276E+01 +1.187500E+01 +3.630653E+02 
 +8.758209E+02 -3.793388E+00 -5.403013E+00 -3.793388E+00 +4.825198E+02 +1.987089E+01 -5.403013E+00 +1.987089E+01 +3.809328E+02 
 +8.799673E+02 -6.431524E+00 -1.848849E+01 -6.431524E+00 +4.801257E+02 +1.463992E+01 -1.848849E+01 +1.463992E+01 +4.011378E+02 
 +8.712003E+02 -4.639667E+00 -5.977177E+00 -4.639667E+00 +4.743472E+02 +1.601451E+01 -5.977177E+00 +1.601451E+01 +4.165185E+02 
 +8.750072E+02 -1.562073E+00 +8.337685E+00 -1.562073E+00 +4.738439E+02 +2.513807E+01 +8.337685E+00 +2.513807E+01 +4.216394E+02 
 +8.688016E+02 +9.844962E+00 +6.018059E+00 +9.844962E+00 +4.675824E+02 +3.686243E+01 +6.018059E+00 +3.686243E+01 +4.133593E+02 
 +8.230122E+02 -2.164489E+00 -4.337198E+00 -2.164489E+00 +4.635622E+02 +2.732643E+01 -4.337198E+00 +2.732643E+01 +3.883420E+02 
 +8.132719E+02 -7.538392E+00 -4.695089E+00 -7.538392E+00 +4.869330E+02 +1.093267E+01 -4.695089E+00 +1.093267E+01 +3.723696E+02 
 +8.369120E+02 -6.981774E+00 -3.677334E+00 -6.981774E+00 +5.086676E+02 -1.406185E+00 -3.677334E+00 -1.406185E+00 +3.755670E+02 
 +8.368777E+02 -1.112449E+01 -1.028315E+01 -1.112449E+01 +4.960817E+02 -2.564387E+00 -1.028315E+01 -2.564387E+00 +3.615316E+02 
 +8.719545E+02 +3.360994E+00 -3.361800E+00 +3.360994E+00 +5.002029E+02 +1.029599E+00 -3.361800E+00 +1.029599E+00 +3.443912E+02 
 +8.887135E+02 +7.062334E+00 -2.585989E+00 +7.062334E+00 +5.013269E+02 +1.427547E+00 -2.585989E+00 +1.427547E+00 +3.379254E+02 
 +8.808530E+02 +4.853051E+00 +2.413584E+00 +4.853051E+00 +4.939003E+02 +1.745199E+00 +2.413584E+00 +1.745199E+00 +3.405443E+02 
 +8.767267E+02 +2.003221E+00 +1.241503E+01 +2.003221E+00 +5.000310E+02 +4.155611E+00 +1.241503E+01 +4.155611E+00 +3.496858E+02 
 +8.769939E+02 -8.779465E-01 +1.795794E+01 -8.779465E-01 +5.023346E+02 +1.242303E+01 +1.795794E+01 +1.242303E+01 +3.656920E+02 
 +8.718933E+02 -4.469422E+00 +1.088877E+01 -4.469422E+00 +4.853508E+02 +2.139220E+01 +1.088877E+01 +2.139220E+01 +3.684700E+02 
 +8.651924E+02 -1.802472E+00 -3.926726E-01 -1.802472E+00 +4.816040E+02 +2.411931E+01 -3.926726E-01 +2.411931E+01 +3.687868E+02 
 +8.520551E+02 -9.416194E+00 -9.573437E+00 -9.416194E+00 +4.755766E+02 +1.921587E+01 -9.573437E+00 +1.921587E+01 +3.683743E+02 
 +8.414152E+02 -8.130286E+00 +6.963087E+00 -8.130286E+00 +4.695155E+02 +9.796650E+00 +6.963087E+00 +9.796650E+00 +3.682612E+02 
 +8.588257E+02 -7.429066E+00 +1.309613E+01 -7.429066E+00 +4.846621E+02 -2.738902E+00 +1.309613E+01 -2.738902E+00 +3.650125E+02 
 +8.691383E+02 -5.023640E+00 +4.126932E+00 -5.023640E+00 +4.829108E+02 -1.014253E+01 +4.126932E+00 -1.014253E+01 +3.492164E+02 
 +8.691011E+02 -8.624453E-01 +1.005234E+01 -8.624453E-01 +4.837039E+02 -8.091735E+00 +1.005234E+01 -8.091735E+00 +3.533411E+02 
 +8.724246E+02 -5.716294E+00 -4.630204E-01 -5.716294E+00 +4.851974E+02 +1.144035E+00 -4.630204E-01 +1.144035E+00 +3.758910E+02 
 +8.840009E+02 -1.699077E+00 -4.614255E+00 -1.699077E+00 +5.020914E+02 -1.740184E+01 -4.614255E+00 -1.740184E+01 +3.980511E+02 
 +8.668445E+02 -5.998334E-01 -5.483615E+00 -5.998334E-01 +4.786623E+02 +7.442102E+00 -5.483615E+00 +7.442102E+00 +4.039466E+02 
 +8.444948E+02 +3.038780E+00 -4.289375E+00 +3.038780E+00 +4.556767E+02 +2.065761E+01 -4.289375E+00 +2.065761E+01 +3.992025E+02 
 +8.441654E+02 +9.838791E+00 -2.832703E+00 +9.838791E+00 +4.679327E+02 +2.306541E+01 -2.832703E+00 +2.306541E+01 +4.002508E+02 
 +8.169600E+02 -2.260584E+00 +8.005509E-01 -2.260584E+00 +4.755065E+02 +2.136634E+01 +8.005509E-01 +2.136634E+01 +3.852150E+02 
 +8.281887E+02 -1.333988E+01 -2.601400E+00 -1.333988E+01 +4.958331E+02 +1.358452E+01 -2.601400E+00 +1.358452E+01 +3.789139E+02 
 +8.573908E+02 -9.326835E+00 -5.376130E+00 -9.326835E+00 +5.101607E+02 -2.683499E-02 -5.376130E+00 -2.683499E-02 +3.859366E+02 
 +8.621275E+02 -7.283917E+00 -7.743654E+00 -7.283917E+00 +5.049498E+02 +1.326446E+00 -7.743654E+00 +1.326446E+00 +3.694620E+02 
 +8.972763E+02 +7.639298E+00 -7.464016E-01 +7.639298E+00 +5.131541E+02 +3.725860E+00 -7.464016E-01 +3.725860E+00 +3.601345E+02 
 +8.889071E+02 +7.920105E+00 -4.728966E+00 +7.920105E+00 +5.027702E+02 -2.736907E+00 -4.728966E+00 -2.736907E+00 +3.579928E+02 
 +8.898371E+02 +8.598639E+00 -4.353872E+00 +8.598639E+00 +5.042322E+02 -4.751709E+00 -4.353872E+00 -4.751709E+00 +3.701296E+02 
 +8.855098E+02 +6.390458E+00 +3.793325E+00 +6.390458E+00 +5.022666E+02 -1.364659E+00 +3.793325E+00 -1.364659E+00 +3.758449E+02 
 +8.822604E+02 +8.149260E-01 +1.334621E+01 +8.149260E-01 +5.085358E+02 +8.211889E+00 +1.334621E+01 +8.211889E+00 +3.854814E+02 
 +8.954019E+02 -1.897103E+00 +1.072287E+01 -1.897103E+00 +5.266549E+02 +1.229734E+01 +1.072287E+01 +1.229734E+01 +4.029733E+02 
 +9.082250E+02 +6.590912E+00 +7.054291E+00 +6.590912E+00 +5.407864E+02 +4.173470E-01 +7.054291E+00 +4.173470E-01 +4.165299E+02 
 +8.692955E+02 -7.352886E+00 -8.727659E+00 -7.352886E+00 +5.217447E+02 -8.194900E-01 -8.727659E+00 -8.194900E-01 +4.011800E+02 
 +8.364568E+02 -1.618318E+00 +1.593173E+01 -1.618318E+00 +4.941204E+02 -6.652795E-01 +1.593173E+01 -6.652795E-01 +3.712970E+02 
 +8.723206E+02 -2.348137E+00 +7.442255E+00 -2.348137E+00 +4.888700E+02 -1.832277E+01 +7.442255E+00 -1.832277E+01 +3.575080E+02 
 +8.690949E+02 +3.126398E+00 +4.467143E-01 +3.126398E+00 +4.738352E+02 -2.870973E+01 +4.467143E-01 -2.870973E+01 +3.455560E+02 
 +8.788182E+02 +5.122130E+00 +3.943559E+00 +5.122130E+00 +4.854341E+02 -2.433376E+01 +3.943559E+00 -2.433376E+01 +3.663446E+02 
 +8.845067E+02 -2.133069E+00 +1.814385E+00 -2.133069E+00 +4.972590E+02 -2.394483E+01 +1.814385E+00 -2.394483E+01 +3.859100E+02 
 +8.942470E+02 -6.341634E+00 +2.019547E+00 -6.341634E+00 +5.217666E+02 -2.876962E+01 +2.019547E+00 -2.876962E+01 +3.903992E+02 
 +9.005255E+02 -3.440115E+00 -3.669098E+00 -3.440115E+00 +5.451715E+02 -3.101804E+01 -3.669098E+00 -3.101804E+01 +4.067082E+02 
 +8.571712E+02 +4.444925E+00 -1.437473E+01 +4.444925E+00 +5.384188E+02 -1.453783E+01 -1.437473E+01 -1.453783E+01 +4.038426E+02 
 +8.398869E+02 +1.135341E+01 -8.194281E+00 +1.135341E+01 +5.226398E+02 +7.771885E-01 -8.194281E+00 +7.771885E-01 +4.080457E+02 
 +8.314878E+02 +1.070308E+01 +1.530950E+00 +1.070308E+01 +4.967583E+02 +5.446333E+00 +1.530950E+00 +5.446333E+00 +3.906482E+02 
 +8.560065E+02 +6.431504E+00 -1.184443E+00 +6.431504E+00 +4.930670E+02 +5.954740E+00 -1.184443E+00 +5.954740E+00 +3.822598E+02 
 +8.679821E+02 +7.798656E+00 -4.082786E+00 +7.798656E+00 +4.911597E+02 +1.067134E+01 -4.082786E+00 +1.067134E+01 +3.832538E+02 
 +8.788937E+02 +5.836792E+00 -5.966031E+00 +5.836792E+00 +4.979763E+02 +1.115352E+01 -5.966031E+00 +1.115352E+01 +3.762673E+02 
 +8.894966E+02 +9.645642E+00 -4.246238E+00 +9.645642E+00 +5.063876E+02 +3.701297E+00 -4.246238E+00 +3.701297E+00 +3.710145E+02 
 +8.889651E+02 +8.518062E+00 -8.740568E+00 +8.518062E+00 +5.044190E+02 +1.548781E-01 -8.740568E+00 +1.548781E-01 +3.739242E+02 
 +8.873329E+02 +6.928441E+00 -6.299351E+00 +6.928441E+00 +5.001795E+02 +2.093848E+00 -6.299351E+00 +2.093848E+00 +3.762068E+02 
 +8.868323E+02 +8.066312E+00 -2.023457E+00 +8.066312E+00 +5.030747E+02 +4.915933E+00 -2.023457E+00 +4.915933E+00 +3.847619E+02 
 +8.888564E+02 +4.027625E+00 +3.332128E+00 +4.027625E+00 +5.150777E+02 +1.290629E+01 +3.332128E+00 +1.290629E+01 +3.999528E+02 
 +8.961470E+02 -1.076625E+00 +3.408983E+00 -1.076625E+00 +5.245098E+02 +1.365877E+01 +3.408983E+00 +1.365877E+01 +4.063376E+02 
 +8.982314E+02 +4.614857E+00 +1.558686E+01 +4.614857E+00 +5.212808E+02 -3.606424E+00 +1.558686E+01 -3.606424E+00 +4.101180E+02 
 +8.596026E+02 -3.157717E+00 +1.047995E+01 -3.157717E+00 +5.019880E+02 -3.915019E+00 +1.047995E+01 -3.915019E+00 +4.016815E+02 
 +8.383479E+02 +4.639674E+00 +2.620494E+01 +4.639674E+00 +4.915013E+02 +1.739320E+00 +2.620494E+01 +1.739320E+00 +3.851574E+02 
 +8.822073E+02 -3.655194E-01 +9.316057E+00 -3.655194E-01 +5.049493E+02 -1.058401E+01 +9.316057E+00 -1.058401E+01 +3.783597E+02 
 +8.647707E+02 +5.783916E-01 +2.543340E+00 +5.783916E-01 +4.840325E+02 -2.389919E+01 +2.543340E+00 -2.389919E+01 +3.500056E+02 
 +8.791728E+02 +8.891176E-01 +5.578322E+00 +8.891176E-01 +4.880349E+02 -2.862471E+01 +5.578322E+00 -2.862471E+01 +3.537348E+02 
 +8.911204E+02 -4.170334E+00 +2.357564E+00 -4.170334E+00 +5.049369E+02 -2.539594E+01 +2.357564E+00 -2.539594E+01 +3.714935E+02 
 +8.860374E+02 -1.056002E+01 -1.864216E-01 -1.056002E+01 +5.170828E+02 -2.583408E+01 -1.864216E-01 -2.583408E+01 +3.638063E+02 
 +8.887596E+02 -8.171418E+00 -7.328342E+00 -8.171418E+00 +5.403558E+02 -2.354597E+01 -7.328342E+00 -2.354597E+01 +3.809270E+02 
 +8.475630E+02 -4.813584E+00 -1.223874E+01 -4.813584E+00 +5.331529E+02 -1.651218E+01 -1.223874E+01 -1.651218E+01 +3.848530E+02 
 +8.308191E+02 +1.213059E+01 -7.553247E+00 +1.213059E+01 +5.198425E+02 -1.321910E+01 -7.553247E+00 -1.321910E+01 +3.908395E+02 
 +8.580142E+02 +1.416899E+01 -2.471724E+00 +1.416899E+01 +5.065928E+02 -1.289737E+01 -2.471724E+00 -1.289737E+01 +3.820254E+02 
 +8.679676E+02 +9.037801E+00 +2.579793E+00 +9.037801E+00 +4.889661E+02 -1.118879E+01 +2.579793E+00 -1.118879E+01 +3.766726E+02 
 +8.727940E+02 +4.598770E+00 +6.965795E-01 +4.598770E+00 +4.906158E+02 -9.760269E+00 +6.965795E-01 -9.760269E+00 +3.830826E+02 
 +8.781074E+02 +1.872187E+00 -1.019262E+00 +1.872187E+00 +4.933107E+02 -2.616833E+00 -1.019262E+00 -2.616833E+00 +3.790981E+02 
 +8.817002E+02 +6.018661E+00 -2.178571E+00 +6.018661E+00 +4.983612E+02 +4.866274E+00 -2.178571E+00 +4.866274E+00 +3.785597E+02 
 +8.828276E+02 +7.202993E+00 -5.363988E+00 +7.202993E+00 +4.993796E+02 +7.698614E+00 -5.363988E+00 +7.698614E+00 +3.744042E+02 
 +8.825698E+02 +7.449765E+00 -4.749981E+00 +7.449765E+00 +5.005103E+02 +1.312023E+01 -4.749981E+00 +1.312023E+01 +3.702963E+02 
 +8.763157E+02 +4.788042E+00 -1.465057E+01 +4.788042E+00 +4.956748E+02 +1.197857E+01 -1.465057E+01 +1.197857E+01 +3.772334E+02 
 +8.744176E+02 -7.499566E-01 -6.578921E+00 -7.499566E-01 +4.856955E+02 +9.956243E+00 -6.578921E+00 +9.956243E+00 +3.985575E+02 
 +8.921082E+02 -1.420623E+00 +6.870291E-01 -1.420623E+00 +4.948799E+02 +1.413268E+01 +6.870291E-01 +1.413268E+01 +4.181288E+02 
 +8.959488E+02 +4.679965E+00 +2.052451E+01 +4.679965E+00 +4.973357E+02 +1.316967E+01 +2.052451E+01 +1.316967E+01 +4.198783E+02 
 +8.601430E+02 +7.941407E+00 +2.607653E+01 +7.941407E+00 +4.856826E+02 +7.293734E+00 +2.607653E+01 +7.293734E+00 +4.059424E+02 
 +8.601896E+02 +1.094827E+01 +2.885475E+01 +1.094827E+01 +5.088277E+02 +1.124776E+01 +2.885475E+01 +1.124776E+01 +4.018570E+02 
 +8.794560E+02 +3.796777E+00 +1.597555E+01 +3.796777E+00 +5.420786E+02 +1.666016E+01 +1.597555E+01 +1.666016E+01 +3.962004E+02 
 +8.749318E+02 -5.480041E+00 +4.322096E-01 -5.480041E+00 +5.305004E+02 +8.741953E+00 +4.322096E-01 +8.741953E+00 +3.700391E+02 
 +8.809835E+02 -3.628931E+00 +3.528485E+00 -3.628931E+00 +5.028957E+02 -1.429155E+01 +3.528485E+00 -1.429155E+01 +3.526184E+02 
 +8.850272E+02 -3.033856E+00 +5.326629E+00 -3.033856E+00 +5.011848E+02 -2.693233E+01 +5.326629E+00 -2.693233E+01 +3.509237E+02 
 +8.867203E+02 -7.145545E+00 -2.660104E+00 -7.145545E+00 +5.317840E+02 -1.737416E+01 -2.660104E+00 -1.737416E+01 +3.604147E+02 
 +8.688305E+02 -3.895743E+00 -1.085673E+01 -3.895743E+00 +5.290975E+02 -1.659356E+01 -1.085673E+01 -1.659356E+01 +3.680688E+02 
 +8.584416E+02 -3.211734E+00 -1.047327E+01 -3.211734E+00 +5.254199E+02 -2.073606E+01 -1.047327E+01 -2.073606E+01 +3.740432E+02 
 +8.663923E+02 +1.246432E+01 -5.643645E+00 +1.246432E+01 +5.256605E+02 -2.825490E+01 -5.643645E+00 -2.825490E+01 +3.856582E+02 
 +8.656926E+02 +1.094052E+01 -7.192240E-01 +1.094052E+01 +5.120202E+02 -2.265435E+01 -7.192240E-01 -2.265435E+01 +3.845727E+02 
 +8.693835E+02 +4.563105E+00 +3.036240E+00 +4.563105E+00 +5.020880E+02 -1.218747E+01 +3.036240E+00 -1.218747E+01 +3.833350E+02 
 +8.705786E+02 +2.613625E-01 +3.454801E-01 +2.613625E-01 +4.911548E+02 -7.031362E+00 +3.454801E-01 -7.031362E+00 +3.780677E+02 
 +8.771094E+02 -2.371346E-01 +7.394364E+00 -2.371346E-01 +4.918500E+02 -6.338341E-01 +7.394364E+00 -6.338341E-01 +3.795500E+02 
 +8.805539E+02 +3.878246E+00 +3.073887E+00 +3.878246E+00 +4.952831E+02 +8.547682E+00 +3.073887E+00 +8.547682E+00 +3.830399E+02 
 +8.763967E+02 +3.344484E+00 +1.564350E+00 +3.344484E+00 +4.929150E+02 +1.398206E+01 +1.564350E+00 +1.398206E+01 +3.629401E+02 
 +8.766711E+02 +5.796635E+00 -2.821119E+00 +5.796635E+00 +4.968630E+02 +1.760162E+01 -2.821119E+00 +1.760162E+01 +3.579019E+02 
 +8.737452E+02 +2.087462E+00 -2.971933E+01 +2.087462E+00 +4.966647E+02 +2.188904E+01 -2.971933E+01 +2.188904E+01 +3.776217E+02 
 +8.808281E+02 -8.613384E-01 -1.680433E+01 -8.613384E-01 +4.933976E+02 +2.584180E+01 -1.680433E+01 +2.584180E+01 +3.964110E+02 
 +8.973272E+02 +4.976631E-01 +2.179773E+00 +4.976631E-01 +4.903843E+02 +3.378814E+01 +2.179773E+00 +3.378814E+01 +4.054404E+02 
 +9.076040E+02 +6.187467E+00 +1.142529E+01 +6.187467E+00 +4.956338E+02 +3.189460E+01 +1.142529E+01 +3.189460E+01 +4.160213E+02 
 +8.602276E+02 +1.373896E+01 +2.137326E+01 +1.373896E+01 +4.916997E+02 +1.746534E+01 +2.137326E+01 +1.746534E+01 +4.096674E+02 
 +8.606475E+02 +8.343063E+00 +2.580112E+01 +8.343063E+00 +5.151609E+02 +1.359546E+01 +2.580112E+01 +1.359546E+01 +4.102097E+02 
 +8.572444E+02 +1.484208E+00 +1.880220E+01 +1.484208E+00 +5.215310E+02 +1.141392E+01 +1.880220E+01 +1.141392E+01 +3.895338E+02 
 +8.658350E+02 -1.029785E+01 -3.217178E+00 -1.029785E+01 +5.282346E+02 +1.055284E+01 -3.217178E+00 +1.055284E+01 +3.689435E+02 
 +8.785234E+02 -9.134991E+00 -5.478502E+00 -9.134991E+00 +5.279767E+02 +6.857359E+00 -5.478502E+00 +6.857359E+00 +3.645079E+02 
 +8.962794E+02 -2.037583E+00 +2.170285E+00 -2.037583E+00 +5.284324E+02 -9.939938E+00 +2.170285E+00 -9.939938E+00 +3.598295E+02 
 +8.912534E+02 +2.013264E+00 -6.630071E+00 +2.013264E+00 +5.496372E+02 -1.019857E+01 -6.630071E+00 -1.019857E+01 +3.687428E+02 
 +8.739077E+02 -4.018086E+00 -1.414068E+01 -4.018086E+00 +5.540530E+02 +6.180933E-02 -1.414068E+01 +6.180933E-02 +3.653705E+02 
 +8.832494E+02 -1.147441E-02 -9.671553E+00 -1.147441E-02 +5.514598E+02 -5.686012E+00 -9.671553E+00 -5.686012E+00 +3.526755E+02 
 +8.950709E+02 +7.918739E-01 -3.915544E+00 +7.918739E-01 +5.449669E+02 -1.101889E+01 -3.915544E+00 -1.101889E+01 +3.619889E+02 
 +8.818970E+02 +1.174177E+00 +3.586034E+00 +1.174177E+00 +5.270440E+02 -1.105144E+01 +3.586034E+00 -1.105144E+01 +3.890163E+02 
 +8.742271E+02 +1.765653E+00 +8.656949E+00 +1.765653E+00 +5.145485E+02 -8.731540E+00 +8.656949E+00 -8.731540E+00 +3.967835E+02 
 +8.658523E+02 -1.147815E+00 +7.736616E+00 -1.147815E+00 +4.946457E+02 -4.250181E-01 +7.736616E+00 -4.250181E-01 +3.808169E+02 
 +8.688380E+02 -2.000323E+00 +1.460064E+01 -2.000323E+00 +4.862156E+02 +7.458146E+00 +1.460064E+01 +7.458146E+00 +3.727618E+02 
 +8.750752E+02 +1.754491E+00 +1.078291E+01 +1.754491E+00 +4.884346E+02 +1.377785E+01 +1.078291E+01 +1.377785E+01 +3.733694E+02 
 +8.792993E+02 +6.654017E+00 +1.140945E+01 +6.654017E+00 +4.934369E+02 +1.994968E+01 +1.140945E+01 +1.994968E+01 +3.611743E+02 
 +8.821905E+02 +8.446312E+00 -1.877604E-01 +8.446312E+00 +4.992351E+02 +2.309259E+01 -1.877604E-01 +2.309259E+01 +3.623682E+02 
 +8.857493E+02 +4.931179E+00 -2.556740E+01 +4.931179E+00 +5.073877E+02 +3.211347E+01 -2.556740E+01 +3.211347E+01 +3.845597E+02 
 +8.971018E+02 +7.847166E-02 -2.336861E+01 +7.847166E-02 +5.138670E+02 +4.240491E+01 -2.336861E+01 +4.240491E+01 +3.913617E+02 
 +9.018066E+02 -6.484327E-01 -1.107289E+01 -6.484327E-01 +5.045641E+02 +4.311033E+01 -1.107289E+01 +4.311033E+01 +3.911755E+02 
 +9.009379E+02 +4.139630E+00 -8.814058E+00 +4.139630E+00 +5.022789E+02 +3.281141E+01 -8.814058E+00 +3.281141E+01 +4.098011E+02 
 +8.577013E+02 +1.359302E+01 +7.094051E+00 +1.359302E+01 +4.948599E+02 +1.631268E+01 +7.094051E+00 +1.631268E+01 +4.173750E+02 
 +8.563141E+02 +9.700601E+00 +2.089816E+01 +9.700601E+00 +5.097325E+02 +1.023625E+01 +2.089816E+01 +1.023625E+01 +4.263986E+02 
 +8.572970E+02 +3.210702E+00 +1.937171E+01 +3.210702E+00 +5.169942E+02 +8.660403E+00 +1.937171E+01 +8.660403E+00 +4.086635E+02 
 +8.653165E+02 -1.187695E+01 -9.236642E-01 -1.187695E+01 +5.267391E+02 +1.033627E+01 -9.236642E-01 +1.033627E+01 +3.800745E+02 
 +8.741738E+02 -1.280145E+01 -1.079856E+01 -1.280145E+01 +5.319659E+02 +1.085093E+01 -1.079856E+01 +1.085093E+01 +3.720705E+02 
 +8.931894E+02 +1.590450E+00 -4.893017E+00 +1.590450E+00 +5.362189E+02 -5.839803E+00 -4.893017E+00 -5.839803E+00 +3.695608E+02 
 +9.069599E+02 +9.084980E+00 -1.000512E+01 +9.084980E+00 +5.688705E+02 -1.867841E+00 -1.000512E+01 -1.867841E+00 +4.014021E+02 
 +9.038076E+02 +3.349893E+00 -9.484495E+00 +3.349893E+00 +5.826008E+02 +4.027150E+00 -9.484495E+00 +4.027150E+00 +3.902916E+02 
 +8.941541E+02 +2.040492E+00 -4.060441E+00 +2.040492E+00 +5.659021E+02 +7.741246E+00 -4.060441E+00 +7.741246E+00 +3.480148E+02 
 +8.893215E+02 -3.739846E+00 -1.596242E+00 -3.739846E+00 +5.462768E+02 +7.955532E+00 -1.596242E+00 +7.955532E+00 +3.416842E+02 
 +8.957120E+02 -8.852365E+00 +2.877915E-01 -8.852365E+00 +5.435565E+02 +5.609725E+00 +2.877915E-01 +5.609725E+00 +3.771529E+02 
 +8.888002E+02 -1.277830E+01 +8.928107E+00 -1.277830E+01 +5.291948E+02 -1.158013E+00 +8.928107E+00 -1.158013E+00 +3.990291E+02 
 +8.773436E+02 -9.190982E+00 +1.446638E+01 -9.190982E+00 +5.116730E+02 +1.770791E+00 +1.446638E+01 +1.770791E+00 +3.917068E+02 
 +8.677511E+02 -2.556047E+00 +1.374736E+01 -2.556047E+00 +4.961382E+02 +8.170261E+00 +1.374736E+01 +8.170261E+00 +3.753546E+02 
 +8.719992E+02 +2.042277E+00 +8.200385E+00 +2.042277E+00 +4.872848E+02 +8.170515E+00 +8.200385E+00 +8.170515E+00 +3.614482E+02 
 +8.781515E+02 +8.449015E+00 +1.161852E+01 +8.449015E+00 +4.854111E+02 -4.863032E+00 +1.161852E+01 -4.863032E+00 +3.479274E+02 
 +8.842103E+02 +9.574785E+00 +2.010628E+00 +9.574785E+00 +4.962884E+02 -2.371151E+01 +2.010628E+00 -2.371151E+01 +3.506424E+02 
 +8.885197E+02 +6.567991E+00 -1.043942E+01 +6.567991E+00 +5.059438E+02 -2.565065E+01 -1.043942E+01 -2.565065E+01 +3.617620E+02 
 +8.988127E+02 +8.456357E-01 -1.707623E+01 +8.456357E-01 +5.138471E+02 -1.097545E+01 -1.707623E+01 -1.097545E+01 +3.671243E+02 
 +9.125608E+02 -5.260040E-01 -2.049168E+01 -5.260040E-01 +5.320832E+02 +1.602302E+00 -2.049168E+01 +1.602302E+00 +3.921669E+02 
 +8.813457E+02 +6.571725E+00 -1.902879E+01 +6.571725E+00 +5.243967E+02 +6.618632E+00 -1.902879E+01 +6.618632E+00 +4.103920E+02 
 +8.551534E+02 +1.205805E+01 -4.805717E+00 +1.205805E+01 +5.040396E+02 +5.069011E+00 -4.805717E+00 +5.069011E+00 +4.172289E+02 
 +8.495356E+02 +5.172706E+00 +1.252375E+01 +5.172706E+00 +4.946200E+02 +3.372644E+00 +1.252375E+01 +3.372644E+00 +4.266951E+02 
 +8.488236E+02 +2.391500E+00 +1.539130E+01 +2.391500E+00 +5.050147E+02 +5.627930E+00 +1.539130E+01 +5.627930E+00 +4.220590E+02 
 +8.688606E+02 -1.412389E+01 -1.454292E+00 -1.412389E+01 +5.251300E+02 +1.536913E+01 -1.454292E+00 +1.536913E+01 +4.047549E+02 
 +8.895595E+02 -1.558686E+01 -1.576740E+01 -1.558686E+01 +5.426192E+02 +2.849598E+01 -1.576740E+01 +2.849598E+01 +3.945905E+02 
 +8.893467E+02 -3.928148E+00 -2.158655E+01 -3.928148E+00 +5.475300E+02 +1.615266E+01 -2.158655E+01 +1.615266E+01 +3.865311E+02 
 +9.075054E+02 +1.253540E+01 -1.543935E+01 +1.253540E+01 +5.434011E+02 +1.252267E+01 -1.543935E+01 +1.252267E+01 +4.252109E+02 
 +8.978567E+02 +9.789237E+00 -3.633720E+00 +9.789237E+00 +5.317048E+02 +3.794985E+00 -3.633720E+00 +3.794985E+00 +4.112691E+02 
 +8.919103E+02 +2.564262E+00 +3.654094E+00 +2.564262E+00 +5.424803E+02 +9.658352E+00 +3.654094E+00 +9.658352E+00 +3.772516E+02 
 +8.907235E+02 -1.624570E+00 +2.515909E+00 -1.624570E+00 +5.499597E+02 +1.746832E+01 +2.515909E+00 +1.746832E+01 +3.708352E+02 
 +8.968084E+02 -8.520607E+00 -6.645192E-01 -8.520607E+00 +5.445997E+02 +1.115553E+01 -6.645192E-01 +1.115553E+01 +3.901884E+02 
 +8.865727E+02 -1.226247E+01 -3.426364E-01 -1.226247E+01 +5.233431E+02 +6.297622E-01 -3.426364E-01 +6.297622E-01 +3.993433E+02 
 +8.856248E+02 -9.103213E+00 +3.943165E+00 -9.103213E+00 +5.216298E+02 -8.851637E+00 +3.943165E+00 -8.851637E+00 +3.912209E+02 
 +8.763319E+02 -9.807318E+00 +1.229323E+00 -9.807318E+00 +5.165831E+02 -1.155166E+01 +1.229323E+00 -1.155166E+01 +3.705831E+02 
 +8.834329E+02 -1.836078E+00 +1.567719E-01 -1.836078E+00 +5.079191E+02 +1.691292E+00 +1.567719E-01 +1.691292E+00 +3.540538E+02 
 +8.872907E+02 +9.608278E+00 +1.664011E+00 +9.608278E+00 +5.045220E+02 +9.675021E+00 +1.664011E+00 +9.675021E+00 +3.424739E+02 
 +8.930682E+02 +9.669129E+00 -8.028396E-01 +9.669129E+00 +5.083909E+02 -6.675151E+00 -8.028396E-01 -6.675151E+00 +3.404040E+02 
 +8.959789E+02 +2.668764E+00 -4.806980E+00 +2.668764E+00 +5.094894E+02 -1.588174E+01 -4.806980E+00 -1.588174E+01 +3.418810E+02 
 +9.004296E+02 -1.442348E+00 -8.976072E+00 -1.442348E+00 +5.197330E+02 -9.767493E+00 -8.976072E+00 -9.767493E+00 +3.499969E+02 
 +9.158770E+02 -4.703009E+00 -1.425898E+01 -4.703009E+00 +5.431177E+02 -4.499280E+00 -1.425898E+01 -4.499280E+00 +3.802158E+02 
 +8.579377E+02 +5.786904E+00 -1.579612E+01 +5.786904E+00 +5.248017E+02 -8.245415E-01 -1.579612E+01 -8.245415E-01 +3.855764E+02 
 +8.445166E+02 +8.711966E+00 -9.232813E+00 +8.711966E+00 +5.164880E+02 +4.258896E+00 -9.232813E+00 +4.258896E+00 +3.974927E+02 
 +8.394079E+02 +4.542489E+00 -1.473871E+00 +4.542489E+00 +5.006817E+02 +4.414102E+00 -1.473871E+00 +4.414102E+00 +4.125358E+02 
 +8.470465E+02 +7.079160E+00 +4.309160E+00 +7.079160E+00 +5.034215E+02 +4.800201E+00 +4.309160E+00 +4.800201E+00 +4.253993E+02 
 +8.818258E+02 -1.041680E+01 -1.913443E+00 -1.041680E+01 +5.324464E+02 +1.447699E+01 -1.913443E+00 +1.447699E+01 +4.350202E+02 
 +9.031803E+02 -1.282656E+01 -1.858829E+01 -1.282656E+01 +5.527521E+02 +2.628850E+01 -1.858829E+01 +2.628850E+01 +4.362557E+02 
 +8.937101E+02 -1.948214E+00 -3.078349E+01 -1.948214E+00 +5.490195E+02 +2.405136E+01 -3.078349E+01 +2.405136E+01 +4.204521E+02 
 +8.927925E+02 +1.424826E+01 -8.368378E+00 +1.424826E+01 +5.190184E+02 +4.575507E+00 -8.368378E+00 +4.575507E+00 +4.086195E+02 
 +8.871294E+02 +1.626032E+01 -1.658248E+00 +1.626032E+01 +5.060172E+02 +3.047584E+00 -1.658248E+00 +3.047584E+00 +4.031809E+02 
 +8.780895E+02 +8.740561E+00 +4.837358E+00 +8.740561E+00 +4.917477E+02 +5.536755E+00 +4.837358E+00 +5.536755E+00 +3.900809E+02 
 +8.567608E+02 +4.211733E-01 +4.282224E+00 +4.211733E-01 +4.725524E+02 +1.219855E+01 +4.282224E+00 +1.219855E+01 +3.767306E+02 
 +8.654741E+02 -5.617151E+00 -4.590491E+00 -5.617151E+00 +4.752212E+02 +1.383624E+01 -4.590491E+00 +1.383624E+01 +3.896045E+02 
 +8.656961E+02 -2.324277E+00 -1.303762E+01 -2.324277E+00 +4.873799E+02 +2.380604E+00 -1.303762E+01 +2.380604E+00 +3.867929E+02 
 +8.627772E+02 +5.430669E+00 -1.348484E+01 +5.430669E+00 +4.915815E+02 -8.707676E+00 -1.348484E+01 -8.707676E+00 +3.645234E+02 
 +8.598228E+02 +4.858113E+00 -6.869316E+00 +4.858113E+00 +4.947331E+02 -7.062828E+00 -6.869316E+00 -7.062828E+00 +3.446692E+02 
 +8.792326E+02 +3.071366E+00 -2.748729E+00 +3.071366E+00 +5.135121E+02 +5.485687E+00 -2.748729E+00 +5.485687E+00 +3.412624E+02 
 +8.894094E+02 +1.111118E+01 -5.797959E+00 +1.111118E+01 +5.155630E+02 +5.267673E+00 -5.797959E+00 +5.267673E+00 +3.391598E+02 
 +8.961768E+02 +9.564636E+00 -5.807042E+00 +9.564636E+00 +5.146778E+02 -9.994577E+00 -5.807042E+00 -9.994577E+00 +3.413250E+02 
 +9.032001E+02 +1.375591E+00 -3.175544E+00 +1.375591E+00 +5.168250E+02 -1.447229E+01 -3.175544E+00 -1.447229E+01 +3.444518E+02 
 +9.053636E+02 +1.808631E-01 -7.362160E+00 +1.808631E-01 +5.238316E+02 -8.198720E+00 -7.362160E+00 -8.198720E+00 +3.557698E+02 
 +9.080541E+02 -4.431967E+00 -3.042279E+00 -4.431967E+00 +5.419432E+02 -4.519365E+00 -3.042279E+00 -4.519365E+00 +3.831300E+02 
 +8.500160E+02 +2.037780E+00 -9.886301E+00 +2.037780E+00 +5.210065E+02 -4.419938E+00 -9.886301E+00 -4.419938E+00 +3.771889E+02 
 +8.372913E+02 +2.197696E+00 -9.111580E+00 +2.197696E+00 +5.139116E+02 -3.232788E+00 -9.111580E+00 -3.232788E+00 +3.804178E+02 
 +8.312840E+02 +4.152946E+00 -1.083844E+01 +4.152946E+00 +5.105243E+02 +2.479884E+00 -1.083844E+01 +2.479884E+00 +3.953683E+02 
 +8.407700E+02 +7.721658E+00 -7.375721E+00 +7.721658E+00 +5.058893E+02 +4.307158E+00 -7.375721E+00 +4.307158E+00 +4.140574E+02 
 +8.896660E+02 -4.981604E+00 -4.923128E+00 -4.981604E+00 +5.200721E+02 -2.301966E-01 -4.923128E+00 -2.301966E-01 +4.430936E+02 
 +8.941049E+02 -1.493725E+00 -1.689399E+01 -1.493725E+00 +5.266995E+02 -2.884757E+00 -1.689399E+01 -2.884757E+00 +4.540381E+02 
 +8.935795E+02 +7.821612E+00 -1.614714E+01 +7.821612E+00 +5.282491E+02 +2.072208E+00 -1.614714E+01 +2.072208E+00 +4.353575E+02 
 +8.780798E+02 +1.399143E+01 +6.841422E+00 +1.399143E+01 +5.011505E+02 -6.099343E+00 +6.841422E+00 -6.099343E+00 +3.935171E+02 
 +8.765452E+02 +1.430080E+01 +1.371007E+00 +1.430080E+01 +4.907520E+02 -6.385708E+00 +1.371007E+00 -6.385708E+00 +3.854834E+02 
 +8.778328E+02 +9.301151E+00 +1.454237E+00 +9.301151E+00 +4.839867E+02 -5.466586E+00 +1.454237E+00 -5.466586E+00 +3.902202E+02 
 +8.750045E+02 +3.398633E-01 +2.088269E+00 +3.398633E-01 +4.779564E+02 -6.515679E+00 +2.088269E+00 -6.515679E+00 +3.922581E+02 
 +8.624030E+02 -5.195612E-01 -1.644419E+01 -5.195612E-01 +4.728417E+02 -6.307929E+00 -1.644419E+01 -6.307929E+00 +3.860330E+02 
 +8.605581E+02 +3.111766E+00 -1.964819E+01 +3.111766E+00 +4.795688E+02 -1.154573E+01 -1.964819E+01 -1.154573E+01 +3.773705E+02 
 +8.615532E+02 +5.052433E+00 -1.990277E+01 +5.052433E+00 +4.893909E+02 -1.557025E+01 -1.990277E+01 -1.557025E+01 +3.661882E+02 
 +8.658219E+02 +8.237206E+00 -1.078779E+01 +8.237206E+00 +4.996267E+02 -1.841358E+01 -1.078779E+01 -1.841358E+01 +3.577363E+02 
 +8.658607E+02 +9.066457E+00 -7.979168E+00 +9.066457E+00 +5.078573E+02 -1.183811E+01 -7.979168E+00 -1.183811E+01 +3.490909E+02 
 +8.856689E+02 +1.290093E+01 -1.031669E+01 +1.290093E+01 +5.219873E+02 -3.224109E+00 -1.031669E+01 -3.224109E+00 +3.488355E+02 
 +8.976556E+02 +8.746760E+00 -1.060424E+01 +8.746760E+00 +5.195810E+02 -1.160911E+01 -1.060424E+01 -1.160911E+01 +3.485543E+02 
 +8.998879E+02 +1.958501E+00 -5.256184E+00 +1.958501E+00 +5.157224E+02 -1.903832E+01 -5.256184E+00 -1.903832E+01 +3.515084E+02 
 +9.028079E+02 -1.864847E+00 +1.090037E+00 -1.864847E+00 +5.240343E+02 -5.923270E+00 +1.090037E+00 -5.923270E+00 +3.734229E+02 
 +8.904600E+02 -6.303770E+00 +1.135291E+01 -6.303770E+00 +5.315040E+02 +9.788491E+00 +1.135291E+01 +9.788491E+00 +3.878544E+02 
 +8.535054E+02 -1.714369E+00 -4.592201E+00 -1.714369E+00 +5.203260E+02 +9.756336E-01 -4.592201E+00 +9.756336E-01 +3.758137E+02 
 +8.368938E+02 -1.883352E+00 -2.159823E+00 -1.883352E+00 +5.084880E+02 -6.399599E+00 -2.159823E+00 -6.399599E+00 +3.718286E+02 
 +8.228129E+02 +3.115266E+00 -9.199897E+00 +3.115266E+00 +5.042618E+02 -1.409951E+00 -9.199897E+00 -1.409951E+00 +3.773739E+02 
 +8.543770E+02 +3.251934E+00 -1.460438E+01 +3.251934E+00 +5.144228E+02 +5.825395E+00 -1.460438E+01 +5.825395E+00 +4.061387E+02 
 +8.886915E+02 -1.526923E+00 -1.001962E+01 -1.526923E+00 +5.089053E+02 +5.368782E-02 -1.001962E+01 +5.368782E-02 +4.249787E+02 
 +8.798642E+02 +5.651798E+00 -9.154182E+00 +5.651798E+00 +5.003339E+02 -8.834136E+00 -9.154182E+00 -8.834136E+00 +4.254532E+02 
 +8.839179E+02 +1.078694E+01 +9.801123E-01 +1.078694E+01 +5.086636E+02 -7.169615E+00 +9.801123E-01 -7.169615E+00 +4.192013E+02 
 +8.620318E+02 +1.230962E+01 +1.042173E+01 +1.230962E+01 +4.750327E+02 -7.806764E+00 +1.042173E+01 -7.806764E+00 +3.857265E+02 
 +8.696273E+02 +1.004062E+01 +1.693174E+00 +1.004062E+01 +4.756234E+02 -1.151316E+01 +1.693174E+00 -1.151316E+01 +3.898697E+02 
 +8.800219E+02 +7.412765E+00 -2.045946E+00 +7.412765E+00 +4.750087E+02 -9.841468E+00 -2.045946E+00 -9.841468E+00 +3.922258E+02 
 +8.897998E+02 -1.687927E-01 -4.728724E+00 -1.687927E-01 +4.833584E+02 -1.137733E+01 -4.728724E+00 -1.137733E+01 +4.006827E+02 
 +8.644408E+02 +6.639978E-01 -2.248422E+01 +6.639978E-01 +4.824905E+02 -1.006373E+01 -2.248422E+01 -1.006373E+01 +3.970539E+02 
 +8.658554E+02 +3.016761E+00 -1.359135E+01 +3.016761E+00 +4.949811E+02 -5.909294E+00 -1.359135E+01 -5.909294E+00 +3.892583E+02 
 +8.716023E+02 +5.669598E+00 -1.539405E+01 +5.669598E+00 +5.016173E+02 -5.384842E+00 -1.539405E+01 -5.384842E+00 +3.790909E+02 
 +8.773215E+02 +7.851537E+00 -1.513204E+01 +7.851537E+00 +5.066404E+02 -8.325699E+00 -1.513204E+01 -8.325699E+00 +3.789028E+02 
 +8.676222E+02 +1.137177E+01 -1.735037E+01 +1.137177E+01 +5.038201E+02 -5.983010E+00 -1.735037E+01 -5.983010E+00 +3.655983E+02 
 +8.657821E+02 +1.409462E+01 -1.871395E+01 +1.409462E+01 +5.028662E+02 -1.021944E+01 -1.871395E+01 -1.021944E+01 +3.518763E+02 
 +8.959892E+02 +9.102486E+00 -9.508147E+00 +9.102486E+00 +5.174485E+02 -1.620093E+01 -9.508147E+00 -1.620093E+01 +3.609853E+02 
 +8.873014E+02 +3.514902E+00 -4.314071E+00 +3.514902E+00 +5.127102E+02 -7.659935E+00 -4.314071E+00 -7.659935E+00 +3.578088E+02 
 +8.726790E+02 -3.320104E+00 +9.194375E+00 -3.320104E+00 +5.106443E+02 +9.459404E+00 +9.194375E+00 +9.459404E+00 +3.669219E+02 
 +8.617449E+02 -9.197031E+00 +1.174222E+01 -9.197031E+00 +5.057430E+02 +7.966158E+00 +1.174222E+01 +7.966158E+00 +3.707039E+02 
 +8.446460E+02 -9.174750E+00 +4.178232E+00 -9.174750E+00 +4.916572E+02 +4.038449E+00 +4.178232E+00 +4.038449E+00 +3.645705E+02 
 +8.374015E+02 -6.705520E+00 +5.189922E+00 -6.705520E+00 +4.944706E+02 +3.823604E+00 +5.189922E+00 +3.823604E+00 +3.679045E+02 
 +8.126091E+02 -9.519208E-01 -7.050823E+00 -9.519208E-01 +4.750726E+02 -9.336184E+00 -7.050823E+00 -9.336184E+00 +3.548804E+02 
 +8.506574E+02 -7.353116E+00 -1.146044E+01 -7.353116E+00 +4.683487E+02 -1.392470E+01 -1.146044E+01 -1.392470E+01 +3.739683E+02 
 +8.610702E+02 -3.077379E+00 -9.388720E+00 -3.077379E+00 +4.711573E+02 -1.408442E+01 -9.388720E+00 -1.408442E+01 +3.891065E+02 
 +8.708263E+02 +4.954802E+00 -1.354289E+00 +4.954802E+00 +4.853081E+02 -1.299312E+01 -1.354289E+00 -1.299312E+01 +4.026895E+02 
 +8.665828E+02 +1.057943E+01 +7.781541E+00 +1.057943E+01 +4.792223E+02 -8.802742E+00 +7.781541E+00 -8.802742E+00 +3.959156E+02 
 +8.507018E+02 +7.112106E+00 +4.464909E+00 +7.112106E+00 +4.494291E+02 -5.834517E+00 +4.464909E+00 -5.834517E+00 +3.781348E+02 
 +8.635454E+02 +4.769672E+00 -3.536994E+00 +4.769672E+00 +4.576043E+02 -4.405233E+00 -3.536994E+00 -4.405233E+00 +3.930505E+02 
 +8.774232E+02 +1.645810E+00 -6.063478E+00 +1.645810E+00 +4.593826E+02 -6.216781E+00 -6.063478E+00 -6.216781E+00 +3.930518E+02 
 +8.909947E+02 -1.202282E+00 -9.821617E+00 -1.202282E+00 +4.777416E+02 -1.002314E+01 -9.821617E+00 -1.002314E+01 +4.055969E+02 
 +8.858597E+02 +4.963010E+00 -1.760708E+01 +4.963010E+00 +5.061953E+02 -7.179557E+00 -1.760708E+01 -7.179557E+00 +4.229088E+02 
 +8.809194E+02 +5.895305E+00 -2.859959E+00 +5.895305E+00 +5.125978E+02 -2.594729E-01 -2.859959E+00 -2.594729E-01 +4.073328E+02 
 +8.664593E+02 +7.829710E+00 -9.183848E+00 +7.829710E+00 +4.944327E+02 -3.973972E+00 -9.183848E+00 -3.973972E+00 +3.765883E+02 
 +8.727269E+02 +9.310712E+00 -1.159447E+01 +9.310712E+00 +4.965340E+02 -1.073156E+01 -1.159447E+01 -1.073156E+01 +3.755506E+02 
 +8.633316E+02 +1.168316E+01 -2.149249E+01 +1.168316E+01 +4.909215E+02 -6.081461E+00 -2.149249E+01 -6.081461E+00 +3.655190E+02 
 +8.574632E+02 +1.495461E+01 -2.806227E+01 +1.495461E+01 +4.912895E+02 -3.573745E+00 -2.806227E+01 -3.573745E+00 +3.566960E+02 
 +8.832523E+02 +8.202184E+00 -9.324120E+00 +8.202184E+00 +5.109806E+02 -5.711319E+00 -9.324120E+00 -5.711319E+00 +3.578379E+02 
 +8.642410E+02 +2.321729E+00 +5.536835E+00 +2.321729E+00 +5.053112E+02 +7.222745E+00 +5.536835E+00 +7.222745E+00 +3.480275E+02 
 +8.488575E+02 -2.252244E+00 +7.940658E+00 -2.252244E+00 +5.023546E+02 +1.502082E+01 +7.940658E+00 +1.502082E+01 +3.551928E+02 
 +8.460762E+02 -5.505738E+00 +4.271155E+00 -5.505738E+00 +5.002419E+02 +1.239610E+01 +4.271155E+00 +1.239610E+01 +3.634804E+02 
 +8.482747E+02 -7.135552E+00 +5.370737E+00 -7.135552E+00 +4.971961E+02 +9.673849E+00 +5.370737E+00 +9.673849E+00 +3.733932E+02 
 +8.398690E+02 -5.455053E+00 +4.207166E+00 -5.455053E+00 +4.773958E+02 +1.232624E+01 +4.207166E+00 +1.232624E+01 +3.688976E+02 
 +8.237875E+02 -5.495362E+00 -3.925818E+00 -5.495362E+00 +4.417632E+02 +7.342077E+00 -3.925818E+00 +7.342077E+00 +3.489636E+02 
 +8.352874E+02 -8.480742E+00 -9.296865E+00 -8.480742E+00 +4.392395E+02 -7.511302E+00 -9.296865E+00 -7.511302E+00 +3.517014E+02 
 +8.494814E+02 -1.267153E+00 -9.876316E+00 -1.267153E+00 +4.566220E+02 -2.173178E+01 -9.876316E+00 -2.173178E+01 +3.635325E+02 
 +8.518809E+02 +1.934545E-01 +4.836895E+00 +1.934545E-01 +4.607252E+02 -2.260238E+01 +4.836895E+00 -2.260238E+01 +3.680739E+02 
 +8.431336E+02 +3.024779E+00 +1.558766E+01 +3.024779E+00 +4.479304E+02 -1.222450E+01 +1.558766E+01 -1.222450E+01 +3.649817E+02 
 +8.680060E+02 +4.729178E+00 -8.208069E-01 +4.729178E+00 +4.710389E+02 -1.485885E+01 -8.208069E-01 -1.485885E+01 +3.687824E+02 
 +8.648299E+02 -2.109213E-01 -1.286665E+01 -2.109213E-01 +4.617395E+02 -2.491370E+01 -1.286665E+01 -2.491370E+01 +3.646723E+02 
 +8.669022E+02 -9.993895E-01 -1.301264E+01 -9.993895E-01 +4.620679E+02 -2.452610E+01 -1.301264E+01 -2.452610E+01 +3.620156E+02 
 +8.694488E+02 -4.340859E+00 -1.419255E+01 -4.340859E+00 +4.609101E+02 -1.944114E+01 -1.419255E+01 -1.944114E+01 +3.652601E+02 
 +8.650075E+02 -8.445678E-01 -1.231003E+01 -8.445678E-01 +4.476577E+02 -1.331967E+01 -1.231003E+01 -1.331967E+01 +3.673146E+02 
 +8.708463E+02 +7.261711E+00 -4.195921E+00 +7.261711E+00 +4.595404E+02 -1.178793E+01 -4.195921E+00 -1.178793E+01 +3.712497E+02 
 +8.624201E+02 +1.429684E+01 -1.089029E+01 +1.429684E+01 +4.835606E+02 -1.158169E+00 -1.089029E+01 -1.158169E+00 +3.685316E+02 
 +8.570649E+02 +1.600842E+01 -1.320936E+01 +1.600842E+01 +4.947615E+02 +1.999162E+00 -1.320936E+01 +1.999162E+00 +3.658057E+02 
 +8.592455E+02 +1.447684E+01 -1.270207E+01 +1.447684E+01 +5.004852E+02 -3.563005E-01 -1.270207E+01 -3.563005E-01 +3.707012E+02 
 +8.588753E+02 +8.697945E+00 -1.740354E+01 +8.697945E+00 +5.022845E+02 +2.997365E+00 -1.740354E+01 +2.997365E+00 +3.789760E+02 
 +8.727153E+02 +8.867697E+00 -1.388761E+01 +8.867697E+00 +5.148571E+02 +9.238354E+00 -1.388761E+01 +9.238354E+00 +3.864949E+02 
 +8.745601E+02 +7.025282E+00 +1.071754E+01 +7.025282E+00 +5.200100E+02 +1.830218E+01 +1.071754E+01 +1.830218E+01 +3.770463E+02 
 +8.614201E+02 -2.610249E+00 +8.056871E+00 -2.610249E+00 +5.103498E+02 +1.678778E+01 +8.056871E+00 +1.678778E+01 +3.730983E+02 
 +8.447757E+02 -8.209611E+00 +5.152961E+00 -8.209611E+00 +4.952619E+02 +9.261191E+00 +5.152961E+00 +9.261191E+00 +3.810634E+02 
 +8.432432E+02 -4.283324E+00 +3.033800E+00 -4.283324E+00 +4.808679E+02 +4.268897E+00 +3.033800E+00 +4.268897E+00 +3.877160E+02 
 +8.490184E+02 -2.816915E+00 +9.638436E-01 -2.816915E+00 +4.687996E+02 +2.664936E+00 +9.638436E-01 +2.664936E+00 +3.888394E+02 
 +8.564171E+02 -1.051439E+01 -5.605248E+00 -1.051439E+01 +4.738912E+02 +1.991730E+00 -5.605248E+00 +1.991730E+00 +3.872670E+02 
 +8.535236E+02 -1.407090E+01 -1.328570E+01 -1.407090E+01 +4.824148E+02 +1.434715E+01 -1.328570E+01 +1.434715E+01 +3.791748E+02 
 +8.567820E+02 -7.394709E+00 -1.225719E+01 -7.394709E+00 +4.817171E+02 +3.049964E+01 -1.225719E+01 +3.049964E+01 +3.677668E+02 
 +8.621336E+02 -4.045810E+00 -2.787221E+00 -4.045810E+00 +4.844276E+02 +2.390906E+01 -2.787221E+00 +2.390906E+01 +3.664380E+02 
 +8.550682E+02 -1.367201E+00 +1.830924E+01 -1.367201E+00 +4.775832E+02 +4.401907E+00 +1.830924E+01 +4.401907E+00 +3.643465E+02 
 +8.508696E+02 +2.271446E+00 -9.713494E+00 +2.271446E+00 +4.532533E+02 -1.142386E+01 -9.713494E+00 -1.142386E+01 +3.287588E+02 
 +8.514339E+02 -2.910783E+00 -2.680617E+00 -2.910783E+00 +4.475025E+02 -2.085700E+01 -2.680617E+00 -2.085700E+01 +3.336649E+02 
 +8.575691E+02 -4.236402E+00 -7.444779E+00 -4.236402E+00 +4.527123E+02 -1.858790E+01 -7.444779E+00 -1.858790E+01 +3.435096E+02 
 +8.606986E+02 -7.161597E+00 -1.147462E+01 -7.161597E+00 +4.520991E+02 -1.458361E+01 -1.147462E+01 -1.458361E+01 +3.494959E+02 
 +8.666842E+02 -5.377818E+00 -1.056479E+01 -5.377818E+00 +4.503034E+02 -1.623002E+01 -1.056479E+01 -1.623002E+01 +3.535339E+02 
 +8.729687E+02 +3.637909E+00 -4.015930E+00 +3.637909E+00 +4.487258E+02 -1.748838E+01 -4.015930E+00 -1.748838E+01 +3.550204E+02 
 +8.696460E+02 +1.030949E+01 -6.508446E+00 +1.030949E+01 +4.606195E+02 -1.619274E+01 -6.508446E+00 -1.619274E+01 +3.656502E+02 
 +8.609888E+02 +1.394550E+01 -1.567344E+01 +1.394550E+01 +4.926389E+02 -9.866551E+00 -1.567344E+01 -9.866551E+00 +3.864549E+02 
 +8.717773E+02 +1.170668E+01 -1.217071E+01 +1.170668E+01 +5.203606E+02 -7.171674E+00 -1.217071E+01 -7.171674E+00 +4.087265E+02 
 +8.648399E+02 +4.818941E+00 -1.106670E+01 +4.818941E+00 +5.171070E+02 -3.747743E+00 -1.106670E+01 -3.747743E+00 +4.152955E+02 
 +8.604435E+02 +3.309653E+00 -4.249820E+00 +3.309653E+00 +5.051503E+02 -1.519120E+00 -4.249820E+00 -1.519120E+00 +4.160499E+02 
 +8.627166E+02 +2.243924E+00 +1.358259E+01 +2.243924E+00 +4.914083E+02 -2.926439E+00 +1.358259E+01 -2.926439E+00 +4.060578E+02 
 +8.481571E+02 -5.287085E+00 +9.565783E+00 -5.287085E+00 +4.800349E+02 -9.988419E+00 +9.565783E+00 -9.988419E+00 +3.953456E+02 
 +8.420734E+02 -1.091664E+01 +9.336894E+00 -1.091664E+01 +4.806489E+02 -7.338197E+00 +9.336894E+00 -7.338197E+00 +4.061769E+02 
 +8.495291E+02 -8.551844E+00 -2.500202E+00 -8.551844E+00 +4.811025E+02 +2.363550E+00 -2.500202E+00 +2.363550E+00 +4.079427E+02 
 +8.543296E+02 -6.541147E+00 -7.366077E+00 -6.541147E+00 +4.757613E+02 +7.715684E+00 -7.366077E+00 +7.715684E+00 +3.983724E+02 
 +8.561758E+02 -8.278215E+00 -7.854203E+00 -8.278215E+00 +4.752794E+02 +5.476899E+00 -7.854203E+00 +5.476899E+00 +3.924051E+02 
 +8.594205E+02 -1.167140E+01 -6.163842E+00 -1.167140E+01 +4.824869E+02 +9.224718E+00 -6.163842E+00 +9.224718E+00 +3.842082E+02 
 +8.536613E+02 -9.672447E+00 +1.419923E+00 -9.672447E+00 +4.800922E+02 +1.568704E+01 +1.419923E+00 +1.568704E+01 +3.603959E+02 
 +8.509199E+02 -2.544458E+00 -2.378745E+00 -2.544458E+00 +4.730192E+02 +1.688026E+01 -2.378745E+00 +1.688026E+01 +3.489330E+02 
 +8.424765E+02 -7.097974E-01 -1.465303E+00 -7.097974E-01 +4.609847E+02 +4.570606E+00 -1.465303E+00 +4.570606E+00 +3.377397E+02 
 +8.568991E+02 +5.013429E-01 +1.476013E+00 +5.013429E-01 +4.736209E+02 +4.024370E+00 +1.476013E+00 +4.024370E+00 +3.213165E+02 
 +8.529594E+02 -9.788217E-01 +7.433953E+00 -9.788217E-01 +4.647936E+02 +1.283565E+01 +7.433953E+00 +1.283565E+01 +3.225107E+02 
 +8.563113E+02 -4.083178E+00 -6.424634E+00 -4.083178E+00 +4.557148E+02 -2.758376E+00 -6.424634E+00 -2.758376E+00 +3.346003E+02 
 +8.570506E+02 -8.041318E+00 -1.319869E+01 -8.041318E+00 +4.482012E+02 -7.888062E+00 -1.319869E+01 -7.888062E+00 +3.394657E+02 
 +8.584692E+02 -7.908605E+00 -1.389488E+01 -7.908605E+00 +4.460637E+02 -8.113184E+00 -1.389488E+01 -8.113184E+00 +3.444291E+02 
 +8.594949E+02 -5.727737E-01 -6.466496E+00 -5.727737E-01 +4.408594E+02 -1.524752E+01 -6.466496E+00 -1.524752E+01 +3.462949E+02 
 +8.685540E+02 +8.466030E+00 -5.182168E+00 +8.466030E+00 +4.530313E+02 -1.720213E+01 -5.182168E+00 -1.720213E+01 +3.637092E+02 
 +8.622569E+02 +6.955446E+00 -1.109180E+01 +6.955446E+00 +4.688080E+02 -1.416533E+01 -1.109180E+01 -1.416533E+01 +3.911393E+02 
 +8.587429E+02 -1.380832E+00 -7.779633E+00 -1.380832E+00 +4.790128E+02 -4.138938E+00 -7.779633E+00 -4.138938E+00 +4.169387E+02 
 +8.504830E+02 -1.487975E+00 -5.021551E+00 -1.487975E+00 +4.833619E+02 +1.086947E+01 -5.021551E+00 +1.086947E+01 +4.245091E+02 
 +8.376354E+02 -1.507646E+00 +3.297725E+00 -1.507646E+00 +4.743000E+02 +1.905076E+01 +3.297725E+00 +1.905076E+01 +4.003517E+02 
 +8.410068E+02 +1.834992E-02 +1.857697E+01 +1.834992E-02 +4.685387E+02 +2.980993E+00 +1.857697E+01 +2.980993E+00 +3.893158E+02 
 +8.493278E+02 -6.819854E+00 +1.946030E+01 -6.819854E+00 +4.739484E+02 -1.029650E+01 +1.946030E+01 -1.029650E+01 +4.073730E+02 
 +8.533755E+02 -1.003153E+01 +1.202854E+01 -1.003153E+01 +4.796034E+02 -1.594203E+01 +1.202854E+01 -1.594203E+01 +4.274816E+02 
 +8.519861E+02 -7.480635E+00 -2.356276E+00 -7.480635E+00 +4.810680E+02 -1.167423E+01 -2.356276E+00 -1.167423E+01 +4.282051E+02 
 +8.536260E+02 -7.823915E+00 -1.425130E+01 -7.823915E+00 +4.784250E+02 +1.871703E+00 -1.425130E+01 +1.871703E+00 +4.120668E+02 
 +8.589471E+02 -7.936239E+00 -9.376916E+00 -7.936239E+00 +4.774746E+02 +7.517255E+00 -9.376916E+00 +7.517255E+00 +3.988070E+02 
 +8.645467E+02 -9.340308E+00 -1.001451E+01 -9.340308E+00 +4.838307E+02 +2.495630E+00 -1.001451E+01 +2.495630E+00 +3.910870E+02 
 +8.619403E+02 -8.596615E+00 -1.063535E+00 -8.596615E+00 +4.878790E+02 -1.415913E+01 -1.063535E+00 -1.415913E+01 +3.750406E+02 
 +8.617745E+02 -4.439592E+00 -4.339299E+00 -4.439592E+00 +4.885893E+02 -4.452836E+01 -4.339299E+00 -4.452836E+01 +3.623072E+02 
 +8.562227E+02 -2.422117E+00 -4.436965E+00 -2.422117E+00 +4.799219E+02 -3.916717E+01 -4.436965E+00 -3.916717E+01 +3.413580E+02 
 +8.729334E+02 +4.808849E+00 +1.284257E+01 +4.808849E+00 +4.915593E+02 +2.041976E+01 +1.284257E+01 +2.041976E+01 +3.424566E+02 
 +8.618748E+02 +2.440366E+00 +1.570118E+01 +2.440366E+00 +4.814532E+02 +1.722315E+01 +1.570118E+01 +1.722315E+01 +3.383453E+02 
 +8.662049E+02 -8.156735E-01 +1.937209E+00 -8.156735E-01 +4.810799E+02 +2.141914E+01 +1.937209E+00 +2.141914E+01 +3.484504E+02 
 +8.620401E+02 -5.954662E+00 -7.805566E+00 -5.954662E+00 +4.724849E+02 +3.028094E+01 -7.805566E+00 +3.028094E+01 +3.498368E+02 
 +8.647103E+02 -8.238636E+00 -1.173187E+01 -8.238636E+00 +4.632519E+02 +3.749616E+01 -1.173187E+01 +3.749616E+01 +3.481284E+02 
 +8.576428E+02 +2.023745E+00 -7.660318E+00 +2.023745E+00 +4.542423E+02 +3.245717E+01 -7.660318E+00 +3.245717E+01 +3.434913E+02 
 +8.552711E+02 +1.561519E+01 -1.033180E+01 +1.561519E+01 +4.552137E+02 +1.192569E+01 -1.033180E+01 +1.192569E+01 +3.564288E+02 
 +8.656923E+02 +1.254927E+01 -1.277348E+01 +1.254927E+01 +4.666823E+02 +2.165519E+00 -1.277348E+01 +2.165519E+00 +3.866964E+02 
 +8.590983E+02 -4.133928E-01 -8.203444E+00 -4.133928E-01 +4.681760E+02 -2.851123E+00 -8.203444E+00 -2.851123E+00 +4.015280E+02 
 +8.472347E+02 +1.850867E+00 +1.704475E+00 +1.850867E+00 +4.656399E+02 +4.334517E+00 +1.704475E+00 +4.334517E+00 +3.937814E+02 
 +8.482797E+02 +3.165364E+00 +1.450571E+01 +3.165364E+00 +4.815607E+02 +2.875936E+01 +1.450571E+01 +2.875936E+01 +3.855461E+02 
 +8.450731E+02 +4.227649E+00 +1.251094E+01 +4.227649E+00 +4.869808E+02 +2.260676E+01 +1.251094E+01 +2.260676E+01 +3.917253E+02 
 +8.474538E+02 -2.457995E+00 +1.230532E+01 -2.457995E+00 +4.711592E+02 +2.301163E+00 +1.230532E+01 +2.301163E+00 +4.048354E+02 
 +8.347839E+02 -8.313138E+00 +7.868816E+00 -8.313138E+00 +4.546302E+02 -1.322064E+01 +7.868816E+00 -1.322064E+01 +4.105667E+02 
 +8.503909E+02 -6.428356E+00 +2.795427E+00 -6.428356E+00 +4.771222E+02 -1.333214E+01 +2.795427E+00 -1.333214E+01 +4.332759E+02 
 +8.583027E+02 -1.063568E+01 -1.208999E+01 -1.063568E+01 +4.876327E+02 +2.175944E+00 -1.208999E+01 +2.175944E+00 +4.326184E+02 
 +8.644260E+02 -7.859952E+00 -1.827427E+01 -7.859952E+00 +4.809200E+02 +1.199858E+01 -1.827427E+01 +1.199858E+01 +4.133404E+02 
 +8.685396E+02 -5.688385E+00 -1.248898E+01 -5.688385E+00 +4.814734E+02 +8.520540E+00 -1.248898E+01 +8.520540E+00 +3.967602E+02 
 +8.687432E+02 -3.909531E+00 -7.716734E+00 -3.909531E+00 +4.869479E+02 -2.594764E+00 -7.716734E+00 -2.594764E+00 +3.856713E+02 
 +8.704201E+02 -4.080052E-01 -3.128040E+00 -4.080052E-01 +4.916125E+02 -2.078939E+01 -3.128040E+00 -2.078939E+01 +3.782856E+02 
 +8.717112E+02 +3.762977E+00 +9.907211E+00 +3.762977E+00 +4.931391E+02 +3.260888E+00 +9.907211E+00 +3.260888E+00 +3.610447E+02 
 +8.797934E+02 +7.271381E+00 +6.094110E+00 +7.271381E+00 +4.932308E+02 +1.864860E+01 +6.094110E+00 +1.864860E+01 +3.506198E+02 
 +8.760919E+02 +6.153079E+00 +1.677008E+01 +6.153079E+00 +4.997703E+02 +1.789232E+01 +1.677008E+01 +1.789232E+01 +3.514298E+02 
 +8.650634E+02 -4.066207E-02 +1.853927E+01 -4.066207E-02 +4.979041E+02 +2.469122E+01 +1.853927E+01 +2.469122E+01 +3.600977E+02 
 +8.571857E+02 -9.034389E+00 +1.780423E+00 -9.034389E+00 +4.800626E+02 +3.134506E+01 +1.780423E+00 +3.134506E+01 +3.602693E+02 
 +8.562435E+02 -7.607332E+00 -7.759976E+00 -7.607332E+00 +4.657279E+02 +1.839791E+01 -7.759976E+00 +1.839791E+01 +3.470444E+02 
 +8.595026E+02 +4.787309E+00 -8.243498E+00 +4.787309E+00 +4.752884E+02 -5.806447E+00 -8.243498E+00 -5.806447E+00 +3.429550E+02 
 +8.520690E+02 +1.266392E+01 -1.487260E+01 +1.266392E+01 +4.720358E+02 -1.523142E+01 -1.487260E+01 -1.523142E+01 +3.449956E+02 
 +8.546312E+02 +1.101220E+01 -2.221109E+01 +1.101220E+01 +4.563156E+02 -1.315763E+01 -2.221109E+01 -1.315763E+01 +3.582007E+02 
 +8.517156E+02 +5.597694E+00 -5.394221E+00 +5.597694E+00 +4.639549E+02 +2.359977E+00 -5.394221E+00 +2.359977E+00 +3.676183E+02 
 +8.593466E+02 +1.079695E+00 +2.531491E+00 +1.079695E+00 +4.906428E+02 +2.518487E+01 +2.531491E+00 +2.518487E+01 +3.666245E+02 
 +8.611888E+02 -3.188233E+00 +1.374137E+01 -3.188233E+00 +4.893899E+02 +2.517569E+01 +1.374137E+01 +2.517569E+01 +3.750951E+02 
 +8.501419E+02 -6.112070E+00 +2.494953E+00 -6.112070E+00 +4.782059E+02 +1.125326E+01 +2.494953E+00 +1.125326E+01 +3.936048E+02 
 +8.556008E+02 -8.251809E+00 +9.313002E-01 -8.251809E+00 +4.924487E+02 +4.092537E+00 +9.313002E-01 +4.092537E+00 +4.083595E+02 
 +8.302385E+02 -1.317884E+01 +1.363862E+01 -1.317884E+01 +4.851199E+02 +6.954804E+00 +1.363862E+01 +6.954804E+00 +4.032488E+02 
 +8.703188E+02 -5.915713E+00 +3.986333E+00 -5.915713E+00 +5.053165E+02 +7.729233E+00 +3.986333E+00 +7.729233E+00 +4.330142E+02 
 +8.657998E+02 -1.294736E+01 -8.972463E+00 -1.294736E+01 +4.954164E+02 +5.163142E+00 -8.972463E+00 +5.163142E+00 +4.299546E+02 
 +8.667654E+02 -7.441843E+00 -1.982000E+01 -7.441843E+00 +4.840314E+02 +9.759832E+00 -1.982000E+01 +9.759832E+00 +4.109413E+02 
 +8.754331E+02 -6.864817E-01 -1.041741E+01 -6.864817E-01 +4.854723E+02 +1.831066E+01 -1.041741E+01 +1.831066E+01 +3.939031E+02 
 +8.742430E+02 -1.886993E-01 -6.717386E+00 -1.886993E-01 +4.866187E+02 +1.702178E+01 -6.717386E+00 +1.702178E+01 +3.781811E+02 
 +8.744200E+02 +2.484014E+00 +2.793010E+00 +2.484014E+00 +4.890261E+02 +1.550697E+01 +2.793010E+00 +1.550697E+01 +3.706823E+02 
 +8.756067E+02 +5.457416E+00 +1.045506E+01 +5.457416E+00 +4.897704E+02 +1.707316E+01 +1.045506E+01 +1.707316E+01 +3.605064E+02 
 +8.873962E+02 +8.577457E+00 +7.567548E+00 +8.577457E+00 +4.978491E+02 +2.658062E+01 +7.567548E+00 +2.658062E+01 +3.548687E+02 
 +8.885050E+02 +8.980441E+00 +1.141748E+01 +8.980441E+00 +5.077384E+02 +2.639272E+01 +1.141748E+01 +2.639272E+01 +3.562906E+02 
 +8.729036E+02 +4.216778E+00 +1.862883E+01 +4.216778E+00 +5.089418E+02 +2.053152E+01 +1.862883E+01 +2.053152E+01 +3.717028E+02 
 +8.555982E+02 -5.625960E+00 -1.604898E+00 -5.625960E+00 +4.932415E+02 +6.034756E+00 -1.604898E+00 +6.034756E+00 +3.729903E+02 
 +8.532608E+02 +2.277798E+00 -7.279034E+00 +2.277798E+00 +4.905969E+02 -1.666637E+01 -7.279034E+00 -1.666637E+01 +3.598700E+02 
 +8.497038E+02 +8.857519E+00 -7.085101E+00 +8.857519E+00 +4.857202E+02 -2.552311E+01 -7.085101E+00 -2.552311E+01 +3.497721E+02 
 +8.228736E+02 +5.987429E+00 -6.591663E+00 +5.987429E+00 +4.471406E+02 -1.495054E+01 -6.591663E+00 -1.495054E+01 +3.191843E+02 
 +8.370439E+02 +4.812609E+00 -1.607659E+01 +4.812609E+00 +4.526743E+02 +1.851839E+01 -1.607659E+01 +1.851839E+01 +3.230813E+02 
 +8.577483E+02 +6.149776E+00 -5.949654E+00 +6.149776E+00 +4.814004E+02 +3.336535E+01 -5.949654E+00 +3.336535E+01 +3.509764E+02 
 +8.623401E+02 -1.329721E+00 -8.601127E-01 -1.329721E+00 +4.870384E+02 +2.832270E+01 -8.601127E-01 +2.832270E+01 +3.601513E+02 
 +8.626374E+02 -8.130170E+00 +5.519747E+00 -8.130170E+00 +4.825516E+02 +2.627715E+01 +5.519747E+00 +2.627715E+01 +3.655349E+02 
 +8.512836E+02 -1.179629E+01 +5.554895E+00 -1.179629E+01 +4.705482E+02 +1.927522E+01 +5.554895E+00 +1.927522E+01 +3.803438E+02 
 +8.501277E+02 -6.357986E+00 +4.982470E+00 -6.357986E+00 +4.760482E+02 +9.232203E+00 +4.982470E+00 +9.232203E+00 +4.031322E+02 
 +8.330170E+02 -8.750688E+00 +1.720396E+01 -8.750688E+00 +4.820691E+02 +3.748471E+00 +1.720396E+01 +3.748471E+00 +4.091327E+02 
 +8.637019E+02 -1.823852E+00 +9.806071E-01 -1.823852E+00 +4.902662E+02 +1.119026E+01 +9.806071E-01 +1.119026E+01 +4.170086E+02 
 +8.580134E+02 -6.640270E+00 -5.041690E+00 -6.640270E+00 +4.777384E+02 +1.868209E+01 -5.041690E+00 +1.868209E+01 +4.002897E+02 
 +8.680093E+02 -2.528318E+00 -1.137102E+01 -2.528318E+00 +4.900020E+02 +2.474827E+01 -1.137102E+01 +2.474827E+01 +3.969993E+02 
 +8.780065E+02 +2.485042E+00 -9.220407E+00 +2.485042E+00 +4.921988E+02 +2.398503E+01 -9.220407E+00 +2.398503E+01 +3.889022E+02 
 +8.776488E+02 +9.637184E-01 -3.407430E+00 +9.637184E-01 +4.868975E+02 +2.151599E+01 -3.407430E+00 +2.151599E+01 +3.744233E+02 
 +8.773386E+02 +3.215013E+00 +2.333477E+00 +3.215013E+00 +4.863761E+02 +2.181049E+01 +2.333477E+00 +2.181049E+01 +3.665835E+02 
 +8.814106E+02 +6.292078E+00 +6.069069E+00 +6.292078E+00 +4.904904E+02 +2.272539E+01 +6.069069E+00 +2.272539E+01 +3.604594E+02 
 +8.877814E+02 +7.680531E+00 +1.124731E+01 +7.680531E+00 +4.974774E+02 +3.002376E+01 +1.124731E+01 +3.002376E+01 +3.592409E+02 
 +8.977429E+02 +5.024779E+00 +7.826309E+00 +5.024779E+00 +5.082826E+02 +2.995000E+01 +7.826309E+00 +2.995000E+01 +3.711268E+02 
 +8.990646E+02 +5.810323E-01 +1.042137E+01 +5.810323E-01 +5.241630E+02 +2.078770E+01 +1.042137E+01 +2.078770E+01 +3.939837E+02 
 +8.537606E+02 -1.516307E+01 -5.201121E+00 -1.516307E+01 +5.232441E+02 +1.015877E+01 -5.201121E+00 +1.015877E+01 +3.893123E+02 
 +8.518720E+02 -1.002546E+01 -5.096249E+00 -1.002546E+01 +5.204157E+02 +1.051742E+01 -5.096249E+00 +1.051742E+01 +3.753960E+02 
 +8.373165E+02 -6.975176E+00 -9.682040E+00 -6.975176E+00 +4.957797E+02 +9.674878E+00 -9.682040E+00 +9.674878E+00 +3.581558E+02 
 +8.202742E+02 -1.057221E+01 -8.007065E+00 -1.057221E+01 +4.678773E+02 +1.743194E+00 -8.007065E+00 +1.743194E+00 +3.425888E+02 
 +8.209303E+02 -4.629215E+00 -9.605780E+00 -4.629215E+00 +4.417931E+02 -2.356292E+00 -9.605780E+00 -2.356292E+00 +3.394987E+02 
 +8.591141E+02 +3.614850E+00 -1.066519E+01 +3.614850E+00 +4.453866E+02 -3.236389E+00 -1.066519E+01 -3.236389E+00 +3.703170E+02 
 +8.511081E+02 -2.377636E+00 -2.850449E+00 -2.377636E+00 +4.382174E+02 -2.331258E+00 -2.850449E+00 -2.331258E+00 +3.842285E+02 
 +8.528643E+02 -9.082774E+00 +8.681339E+00 -9.082774E+00 +4.455938E+02 +4.873709E-01 +8.681339E+00 +4.873709E-01 +3.856616E+02 
 +8.555487E+02 -1.225019E+01 +1.269704E+01 -1.225019E+01 +4.612257E+02 +8.413744E+00 +1.269704E+01 +8.413744E+00 +3.864895E+02 
 +8.477549E+02 -4.033230E+00 +9.041339E+00 -4.033230E+00 +4.615996E+02 +9.134248E+00 +9.041339E+00 +9.134248E+00 +3.953934E+02 
 +8.437214E+02 -4.632231E+00 +8.551988E+00 -4.632231E+00 +4.619515E+02 +6.781171E+00 +8.551988E+00 +6.781171E+00 +4.023138E+02 
 +8.552143E+02 -4.185743E+00 +2.897187E-01 -4.185743E+00 +4.776006E+02 +1.306368E+01 +2.897187E-01 +1.306368E+01 +4.011467E+02 
 +8.581823E+02 -4.036244E+00 -1.717369E+00 -4.036244E+00 +4.813203E+02 +1.721962E+01 -1.717369E+00 +1.721962E+01 +3.919014E+02 
 +8.627012E+02 -3.056042E+00 -8.707907E+00 -3.056042E+00 +4.842486E+02 +1.684738E+01 -8.707907E+00 +1.684738E+01 +3.914208E+02 
 +8.732841E+02 +1.130488E+00 -7.104695E+00 +1.130488E+00 +4.892646E+02 +2.324590E+01 -7.104695E+00 +2.324590E+01 +3.834476E+02 
 +8.763428E+02 +1.287998E-01 -2.613541E+00 +1.287998E-01 +4.857706E+02 +2.403175E+01 -2.613541E+00 +2.403175E+01 +3.675202E+02 
 +8.802032E+02 +3.011758E+00 +1.946503E+00 +3.011758E+00 +4.844024E+02 +2.317093E+01 +1.946503E+00 +2.317093E+01 +3.625615E+02 
 +8.812618E+02 +6.209200E+00 +6.811053E+00 +6.209200E+00 +4.863948E+02 +2.533476E+01 +6.811053E+00 +2.533476E+01 +3.563878E+02 
 +8.808631E+02 +1.748981E+00 +7.259292E+00 +1.748981E+00 +4.840608E+02 +2.532270E+01 +7.259292E+00 +2.532270E+01 +3.722548E+02 
 +8.791007E+02 -5.855753E+00 +4.410111E+00 -5.855753E+00 +4.710767E+02 +2.120572E+01 +4.410111E+00 +2.120572E+01 +3.832654E+02 
 +8.807171E+02 -3.906130E+00 +9.322510E+00 -3.906130E+00 +4.774784E+02 +1.549954E+01 +9.322510E+00 +1.549954E+01 +3.985862E+02 
 +8.358550E+02 -1.103045E+01 -3.192369E+00 -1.103045E+01 +4.860370E+02 +3.370163E+00 -3.192369E+00 +3.370163E+00 +3.845123E+02 
 +8.268312E+02 -1.018772E+01 -1.045639E+01 -1.018772E+01 +4.983696E+02 +8.190775E-01 -1.045639E+01 +8.190775E-01 +3.772364E+02 
 +8.255148E+02 -2.834505E+00 -1.404601E+01 -2.834505E+00 +4.908197E+02 +2.207552E+00 -1.404601E+01 +2.207552E+00 +3.712807E+02 
 +8.211749E+02 -4.968100E+00 -1.433836E+01 -4.968100E+00 +4.823166E+02 -2.155644E+00 -1.433836E+01 -2.155644E+00 +3.628820E+02 
 +8.227250E+02 -4.833019E+00 -1.164318E+01 -4.833019E+00 +4.556807E+02 -8.004045E+00 -1.164318E+01 -8.004045E+00 +3.543295E+02 
 +8.602291E+02 +2.034976E+00 -8.234976E+00 +2.034976E+00 +4.415286E+02 -1.278563E+01 -8.234976E+00 -1.278563E+01 +3.729266E+02 
 +8.626804E+02 -5.716981E-01 -1.716361E+00 -5.716981E-01 +4.458906E+02 -1.377983E+01 -1.716361E+00 -1.377983E+01 +3.940253E+02 
 +8.565603E+02 -1.099445E+01 +8.414194E+00 -1.099445E+01 +4.445615E+02 -1.474560E+01 +8.414194E+00 -1.474560E+01 +3.865298E+02 
 +8.508772E+02 -7.535836E+00 +1.828581E+01 -7.535836E+00 +4.392896E+02 -8.834480E+00 +1.828581E+01 -8.834480E+00 +3.637317E+02 
 +8.524043E+02 -4.034069E+00 +1.255317E+01 -4.034069E+00 +4.608163E+02 +6.099581E-01 +1.255317E+01 +6.099581E-01 +3.669710E+02 
 +8.543439E+02 -4.531344E+00 +5.722776E+00 -4.531344E+00 +4.717541E+02 +6.417070E+00 +5.722776E+00 +6.417070E+00 +3.718558E+02 
 +8.566727E+02 -4.610155E+00 +2.314309E+00 -4.610155E+00 +4.781575E+02 +1.309372E+01 +2.314309E+00 +1.309372E+01 +3.721017E+02 
 +8.595600E+02 -5.199966E+00 +1.405425E+00 -5.199966E+00 +4.875803E+02 +1.870557E+01 +1.405425E+00 +1.870557E+01 +3.841503E+02 
 +8.642022E+02 -3.898437E+00 -8.040127E+00 -3.898437E+00 +4.890076E+02 +2.187842E+01 -8.040127E+00 +2.187842E+01 +3.960987E+02 
 +8.787354E+02 +2.353696E+00 -1.672849E+00 +2.353696E+00 +4.889734E+02 +2.574487E+01 -1.672849E+00 +2.574487E+01 +3.883850E+02 
 +8.739947E+02 +1.954858E+00 +5.451960E+00 +1.954858E+00 +4.805030E+02 +2.802775E+01 +5.451960E+00 +2.802775E+01 +3.675327E+02 
 +8.699896E+02 +2.454969E+00 +5.870371E+00 +2.454969E+00 +4.747196E+02 +3.287217E+01 +5.870371E+00 +3.287217E+01 +3.607497E+02 
 +8.767537E+02 +4.139033E+00 +6.407188E+00 +4.139033E+00 +4.816592E+02 +3.166629E+01 +6.407188E+00 +3.166629E+01 +3.648059E+02 
 +8.778916E+02 -5.744184E+00 -3.476196E+00 -5.744184E+00 +4.682973E+02 +1.630551E+01 -3.476196E+00 +1.630551E+01 +3.930548E+02 
 +8.721760E+02 -9.187999E+00 +1.996177E+00 -9.187999E+00 +4.630522E+02 +1.583853E+01 +1.996177E+00 +1.583853E+01 +4.040010E+02 
 +8.688005E+02 -2.389991E+00 +8.246481E+00 -2.389991E+00 +4.637871E+02 +9.799805E+00 +8.246481E+00 +9.799805E+00 +4.091378E+02 
 +8.461283E+02 -2.182513E+00 -4.342743E+00 -2.182513E+00 +4.659464E+02 +2.522286E-01 -4.342743E+00 +2.522286E-01 +3.858639E+02 
 +8.179545E+02 -1.113298E+01 -1.597078E+01 -1.113298E+01 +4.792930E+02 -7.447033E-01 -1.597078E+01 -7.447033E-01 +3.712071E+02 
 +8.205546E+02 -2.901051E+00 -1.526466E+01 -2.901051E+00 +4.901056E+02 +2.734748E+00 -1.526466E+01 +2.734748E+00 +3.760654E+02 
 +8.234309E+02 -2.944799E+00 -1.041008E+01 -2.944799E+00 +4.880751E+02 -3.195560E+00 -1.041008E+01 -3.195560E+00 +3.688502E+02 
 +8.407684E+02 -7.389412E+00 -1.111314E+01 -7.389412E+00 +4.985146E+02 -1.498379E+01 -1.111314E+01 -1.498379E+01 +3.653362E+02 
 +8.507509E+02 -6.104267E+00 -1.131355E+01 -6.104267E+00 +4.836787E+02 -2.488812E+01 -1.131355E+01 -2.488812E+01 +3.595506E+02 
 +8.726769E+02 +6.766126E-01 -9.301486E-03 +6.766126E-01 +4.597437E+02 -2.875437E+01 -9.301486E-03 -2.875437E+01 +3.610627E+02 
 +8.666378E+02 -3.895302E+00 +4.801639E+00 -3.895302E+00 +4.585479E+02 -1.995943E+01 +4.801639E+00 -1.995943E+01 +3.498592E+02 
 +8.627520E+02 +1.077297E+00 +1.623853E+01 +1.077297E+00 +4.747511E+02 -6.441664E+00 +1.623853E+01 -6.441664E+00 +3.331203E+02 
 +8.604948E+02 -3.213912E+00 +1.716591E+01 -3.213912E+00 +4.759919E+02 +4.219879E+00 +1.716591E+01 +4.219879E+00 +3.392489E+02 
 +8.671443E+02 -6.937904E+00 +9.868933E+00 -6.937904E+00 +4.857445E+02 +1.575906E+01 +9.868933E+00 +1.575906E+01 +3.651359E+02 
 +8.713007E+02 -6.023635E+00 +5.742341E-01 -6.023635E+00 +4.919559E+02 +2.087894E+01 +5.742341E-01 +2.087894E+01 +3.682540E+02 
 +8.644920E+02 -7.256047E+00 +3.316159E+00 -7.256047E+00 +4.897308E+02 +1.878614E+01 +3.316159E+00 +1.878614E+01 +3.702935E+02 
 +8.646257E+02 -6.914970E+00 +3.418924E+00 -6.914970E+00 +4.878758E+02 +2.072683E+01 +3.418924E+00 +2.072683E+01 +3.841176E+02 
 +8.780912E+02 +4.470285E-01 +4.728945E+00 +4.470285E-01 +4.864326E+02 +2.442965E+01 +4.728945E+00 +2.442965E+01 +3.840542E+02 
 +8.733759E+02 -7.183427E-01 +6.402617E+00 -7.183427E-01 +4.845075E+02 +7.448487E+00 +6.402617E+00 +7.448487E+00 +3.710876E+02 
 +8.674282E+02 -1.261500E+00 +1.184547E+01 -1.261500E+00 +4.867785E+02 -7.278789E-01 +1.184547E+01 -7.278789E-01 +3.689608E+02 
 +8.645351E+02 -7.366958E-01 +8.286658E+00 -7.366958E-01 +4.772624E+02 +5.548988E+00 +8.286658E+00 +5.548988E+00 +3.780410E+02 
 +8.788360E+02 -6.464332E+00 -3.495903E+00 -6.464332E+00 +4.716886E+02 +1.425339E+01 -3.495903E+00 +1.425339E+01 +4.024257E+02 
 +8.615544E+02 -4.906205E+00 +3.156468E+00 -4.906205E+00 +4.552417E+02 +1.753583E+01 +3.156468E+00 +1.753583E+01 +4.134553E+02 
 +8.574265E+02 -9.107089E-01 +4.161707E+00 -9.107089E-01 +4.573293E+02 +1.066693E+01 +4.161707E+00 +1.066693E+01 +4.160221E+02 
 +8.473734E+02 +6.599643E+00 -8.604292E+00 +6.599643E+00 +4.551257E+02 -4.939308E+00 -8.604292E+00 -4.939308E+00 +3.814306E+02 
 +8.249720E+02 -2.092170E+00 -1.428406E+01 -2.092170E+00 +4.653779E+02 -1.127892E+01 -1.428406E+01 -1.127892E+01 +3.561492E+02 
 +8.109351E+02 -2.369711E+00 -1.065207E+01 -2.369711E+00 +4.841242E+02 -5.537732E+00 -1.065207E+01 -5.537732E+00 +3.700638E+02 
 +8.286068E+02 -5.287468E+00 -8.685783E+00 -5.287468E+00 +4.979940E+02 -2.434983E+00 -8.685783E+00 -2.434983E+00 +3.817490E+02 
 +8.359550E+02 -1.097783E+01 -1.364554E+01 -1.097783E+01 +4.960321E+02 -1.064019E+01 -1.364554E+01 -1.064019E+01 +3.730465E+02 
 +8.651770E+02 -5.426694E+00 -1.020446E+01 -5.426694E+00 +5.133078E+02 -1.410171E+01 -1.020446E+01 -1.410171E+01 +3.679120E+02 
 +9.155571E+02 +7.528445E+00 +6.013097E-01 +7.528445E+00 +5.364120E+02 -8.058769E+00 +6.013097E-01 -8.058769E+00 +3.652647E+02 
 +9.009398E+02 +1.018196E+01 +2.732104E+00 +1.018196E+01 +5.177309E+02 -2.351473E+00 +2.732104E+00 -2.351473E+00 +3.481855E+02 
 +8.811422E+02 +9.944714E+00 +1.181111E+01 +9.944714E+00 +5.072575E+02 +2.391142E+00 +1.181111E+01 +2.391142E+00 +3.439720E+02 
 +8.758952E+02 +5.026634E+00 +1.839824E+01 +5.026634E+00 +5.107676E+02 +1.022483E+01 +1.839824E+01 +1.022483E+01 +3.579787E+02 
 +8.805691E+02 -3.661407E+00 +1.017910E+01 -3.661407E+00 +5.075437E+02 +1.360287E+01 +1.017910E+01 +1.360287E+01 +3.679077E+02 
 +8.758974E+02 -3.633948E+00 +1.130544E-01 -3.633948E+00 +4.903837E+02 +2.094797E+01 +1.130544E-01 +2.094797E+01 +3.494715E+02 
 +8.645068E+02 -3.367974E+00 -3.550028E-01 -3.367974E+00 +4.820938E+02 +2.369480E+01 -3.550028E-01 +2.369480E+01 +3.423172E+02 
 +8.629243E+02 -6.237776E+00 +1.975861E+01 -6.237776E+00 +4.917180E+02 +1.117023E+01 +1.975861E+01 +1.117023E+01 +3.645341E+02 
 +8.686877E+02 -5.737276E+00 +1.622472E+01 -5.737276E+00 +4.951006E+02 -5.703544E+00 +1.622472E+01 -5.703544E+00 +3.689375E+02 
 +8.644624E+02 -4.283333E+00 +8.038212E+00 -4.283333E+00 +4.803450E+02 -1.246198E+01 +8.038212E+00 -1.246198E+01 +3.522955E+02 
 +8.607209E+02 -1.663207E+00 +1.887901E+01 -1.663207E+00 +4.811974E+02 -6.785358E+00 +1.887901E+01 -6.785358E+00 +3.586865E+02 
 +8.671042E+02 -4.289469E+00 +1.285252E+01 -4.289469E+00 +4.843716E+02 +1.705879E+00 +1.285252E+01 +1.705879E+00 +3.816468E+02 
 +8.742962E+02 -6.245575E+00 +7.494608E+00 -6.245575E+00 +4.879870E+02 -3.597689E+00 +7.494608E+00 -3.597689E+00 +3.964453E+02 
 +8.613718E+02 -3.729215E+00 +2.079446E+00 -3.729215E+00 +4.806100E+02 +1.138597E+01 +2.079446E+00 +1.138597E+01 +4.023943E+02 
 +8.395181E+02 +1.802528E+00 -3.948415E+00 +1.802528E+00 +4.587076E+02 +7.900939E+00 -3.948415E+00 +7.900939E+00 +3.881945E+02 
 +8.289256E+02 +7.090260E+00 -1.031612E+01 +7.090260E+00 +4.467546E+02 -7.826979E+00 -1.031612E+01 -7.826979E+00 +3.551775E+02 
 +8.138845E+02 -4.686114E+00 -1.562161E+00 -4.686114E+00 +4.522954E+02 -1.028611E+01 -1.562161E+00 -1.028611E+01 +3.389892E+02 
 +8.161159E+02 -1.539344E+01 -5.798592E+00 -1.539344E+01 +4.810644E+02 -4.421963E+00 -5.798592E+00 -4.421963E+00 +3.720979E+02 
 +8.415287E+02 -1.327694E+01 -9.644011E+00 -1.327694E+01 +5.035936E+02 -5.407815E+00 -9.644011E+00 -5.407815E+00 +3.937874E+02 
 +8.525519E+02 -9.958432E+00 -8.962274E+00 -9.958432E+00 +5.017239E+02 -2.580398E+00 -8.962274E+00 -2.580398E+00 +3.814246E+02 
 +8.939151E+02 +6.282785E+00 -1.755292E+00 +6.282785E+00 +5.163003E+02 +2.746666E+00 -1.755292E+00 +2.746666E+00 +3.741503E+02 
 +8.976872E+02 +1.151178E+01 -2.033949E+00 +1.151178E+01 +5.157972E+02 +1.752449E-01 -2.033949E+00 +1.752449E-01 +3.570649E+02 
 +8.931974E+02 +1.283608E+01 -7.728962E-01 +1.283608E+01 +5.095395E+02 -3.283372E+00 -7.728962E-01 -3.283372E+00 +3.534584E+02 
 +8.899914E+02 +1.408978E+01 +6.212635E+00 +1.408978E+01 +5.119016E+02 +3.238447E-01 +6.212635E+00 +3.238447E-01 +3.679656E+02 
 +8.858749E+02 +1.174189E+01 +8.589450E+00 +1.174189E+01 +5.229787E+02 -3.874765E+00 +8.589450E+00 -3.874765E+00 +3.756358E+02 
 +8.870265E+02 +1.160581E+00 +3.711867E+00 +1.160581E+00 +5.255349E+02 -1.588941E+01 +3.711867E+00 -1.588941E+01 +3.529909E+02 
 +8.885595E+02 +3.903495E+00 +8.572346E+00 +3.903495E+00 +5.192620E+02 -1.510959E+01 +8.572346E+00 -1.510959E+01 +3.238255E+02 
 +8.846269E+02 +2.490013E-01 +5.448277E+00 +2.490013E-01 +5.141620E+02 -2.854568E+00 +5.448277E+00 -2.854568E+00 +3.356357E+02 
 +8.479500E+02 -3.294216E+00 +2.964714E+01 -3.294216E+00 +4.927126E+02 +2.943648E+00 +2.964714E+01 +2.943648E+00 +3.577439E+02 
 +8.609187E+02 -6.869210E+00 +1.954800E+01 -6.869210E+00 +4.923279E+02 -1.685798E+00 +1.954800E+01 -1.685798E+00 +3.671802E+02 
 +8.567054E+02 -2.636733E+00 +1.581767E+01 -2.636733E+00 +4.793692E+02 -8.063908E+00 +1.581767E+01 -8.063908E+00 +3.476101E+02 
 +8.587252E+02 +3.633687E-01 +2.039947E+01 +3.633687E-01 +4.721194E+02 -1.745288E+01 +2.039947E+01 -1.745288E+01 +3.494329E+02 
 +8.741697E+02 -3.525907E+00 +1.179415E+01 -3.525907E+00 +4.778697E+02 -2.206289E+01 +1.179415E+01 -2.206289E+01 +3.742092E+02 
 +8.858169E+02 -7.621521E+00 +2.732248E+00 -7.621521E+00 +5.201676E+02 -1.874910E+01 +2.732248E+00 -1.874910E+01 +3.869597E+02 
 +8.716349E+02 -7.266883E+00 -5.915929E+00 -7.266883E+00 +5.305334E+02 -1.104092E+01 -5.915929E+00 -1.104092E+01 +3.830167E+02 
 +8.538832E+02 -2.553191E+00 -9.435806E+00 -2.553191E+00 +5.267745E+02 -5.674272E+00 -9.435806E+00 -5.674272E+00 +3.707251E+02 
 +8.307157E+02 -1.232832E+00 -3.860721E+00 -1.232832E+00 +4.950410E+02 -5.463445E+00 -3.860721E+00 -5.463445E+00 +3.488914E+02 
 +8.312505E+02 +5.240277E+00 +5.031702E+00 +5.240277E+00 +4.751813E+02 -1.512663E+01 +5.031702E+00 -1.512663E+01 +3.490566E+02 
 +8.445845E+02 +3.721744E+00 +5.910696E-01 +3.721744E+00 +4.795590E+02 -9.481922E+00 +5.910696E-01 -9.481922E+00 +3.780459E+02 
 +8.523774E+02 +8.291831E+00 -5.391347E+00 +8.291831E+00 +4.823855E+02 +8.602894E+00 -5.391347E+00 +8.602894E+00 +3.882563E+02 
 +8.725912E+02 +8.987793E+00 -6.095232E+00 +8.987793E+00 +4.994760E+02 +1.172205E+01 -6.095232E+00 +1.172205E+01 +3.838458E+02 
 +8.927494E+02 +1.224702E+01 -1.031145E-01 +1.224702E+01 +5.149200E+02 +5.671215E+00 -1.031145E-01 +5.671215E+00 +3.773471E+02 
 +8.864253E+02 +9.917807E+00 -4.144519E+00 +9.917807E+00 +5.076574E+02 +2.943397E+00 -4.144519E+00 +2.943397E+00 +3.669557E+02 
 +8.871134E+02 +1.057575E+01 -5.812421E+00 +1.057575E+01 +5.036151E+02 +2.678972E+00 -5.812421E+00 +2.678972E+00 +3.644777E+02 
 +8.898306E+02 +1.776500E+01 -1.153247E+00 +1.776500E+01 +5.066573E+02 +7.838966E+00 -1.153247E+00 +7.838966E+00 +3.735148E+02 
 +8.902195E+02 +1.666138E+01 -3.176685E+00 +1.666138E+01 +5.119032E+02 +7.979460E+00 -3.176685E+00 +7.979460E+00 +3.822129E+02 
 +8.914414E+02 +3.682255E+00 -5.887023E+00 +3.682255E+00 +5.164915E+02 -5.727412E+00 -5.887023E+00 -5.727412E+00 +3.750833E+02 
 +8.941900E+02 +3.807139E+00 +1.492002E+01 +3.807139E+00 +5.184023E+02 -1.028986E+01 +1.492002E+01 -1.028986E+01 +3.591680E+02 
 +8.966745E+02 -1.077673E+00 +2.088589E+01 -1.077673E+00 +5.201943E+02 +6.068594E-01 +2.088589E+01 +6.068594E-01 +3.693828E+02 
 +8.403129E+02 -6.332319E-01 +2.863092E+01 -6.332319E-01 +4.961238E+02 +7.404229E+00 +2.863092E+01 +7.404229E+00 +3.742318E+02 
 +8.702055E+02 -6.083392E+00 +6.881112E+00 -6.083392E+00 +5.166258E+02 +1.155760E+01 +6.881112E+00 +1.155760E+01 +3.899165E+02 
 +8.646359E+02 -5.216907E+00 +5.119854E+00 -5.216907E+00 +5.019329E+02 +8.573260E+00 +5.119854E+00 +8.573260E+00 +3.721011E+02 
 +8.696077E+02 -3.739330E+00 +9.766723E+00 -3.739330E+00 +4.871362E+02 -1.223833E+01 +9.766723E+00 -1.223833E+01 +3.592694E+02 
 +8.812290E+02 -6.872825E+00 +7.436498E+00 -6.872825E+00 +4.968486E+02 -2.262420E+01 +7.436498E+00 -2.262420E+01 +3.693530E+02 
 +8.778860E+02 -3.738893E+00 -4.499750E+00 -3.738893E+00 +5.164457E+02 -1.065425E+01 -4.499750E+00 -1.065425E+01 +3.653033E+02 
 +8.593577E+02 -4.112005E+00 -1.006935E+01 -4.112005E+00 +5.251284E+02 +2.078452E-01 -1.006935E+01 +2.078452E-01 +3.672557E+02 
 +8.430453E+02 -4.181314E+00 -5.921454E+00 -4.181314E+00 +5.215642E+02 -3.951601E+00 -5.921454E+00 -3.951601E+00 +3.588218E+02 
 +8.345109E+02 +1.208169E+00 +2.854951E-01 +1.208169E+00 +5.042823E+02 -1.675049E+01 +2.854951E-01 -1.675049E+01 +3.480237E+02 
 +8.730762E+02 +1.216815E+01 +1.711653E+00 +1.216815E+01 +5.079102E+02 -2.528958E+01 +1.711653E+00 -2.528958E+01 +3.677621E+02 
 +8.681706E+02 +5.541246E+00 +6.552348E+00 +5.541246E+00 +4.917051E+02 -2.008541E+01 +6.552348E+00 -2.008541E+01 +3.780389E+02 
 +8.706688E+02 +3.206421E+00 +1.450315E-02 +3.206421E+00 +4.934564E+02 -1.580986E+01 +1.450315E-02 -1.580986E+01 +3.858193E+02 
 +8.781405E+02 +2.525866E+00 -1.290301E+00 +2.525866E+00 +5.012221E+02 -5.474745E+00 -1.290301E+00 -5.474745E+00 +3.837237E+02 
 +8.822272E+02 +7.506097E+00 -2.328522E+00 +7.506097E+00 +5.096675E+02 +6.114680E+00 -2.328522E+00 +6.114680E+00 +3.793389E+02 
 +8.837690E+02 +8.273795E+00 -6.139336E+00 +8.273795E+00 +5.097854E+02 +8.227690E+00 -6.139336E+00 +8.227690E+00 +3.761345E+02 
 +8.794244E+02 +9.915402E+00 -7.335568E+00 +9.915402E+00 +5.010901E+02 +1.048603E+01 -7.335568E+00 +1.048603E+01 +3.630524E+02 
 +8.840425E+02 +1.423454E+01 -1.291638E+01 +1.423454E+01 +4.969772E+02 +1.002220E+01 -1.291638E+01 +1.002220E+01 +3.678422E+02 
 +8.776812E+02 +8.212246E+00 -1.093581E+01 +8.212246E+00 +4.761729E+02 +6.358807E+00 -1.093581E+01 +6.358807E+00 +3.810019E+02 
 +8.740254E+02 +1.641865E+00 -7.733262E+00 +1.641865E+00 +4.644734E+02 +5.456050E+00 -7.733262E+00 +5.456050E+00 +3.869227E+02 
 +8.830843E+02 +3.185593E+00 +1.411710E+01 +3.185593E+00 +4.741665E+02 +1.068136E+01 +1.411710E+01 +1.068136E+01 +3.873668E+02 
 +8.867368E+02 +1.121092E+00 +2.658054E+01 +1.121092E+00 +4.925662E+02 +1.238765E+01 +2.658054E+01 +1.238765E+01 +3.958556E+02 
 +8.380168E+02 +2.446127E+00 +2.261352E+01 +2.446127E+00 +4.915187E+02 +1.056937E+01 +2.261352E+01 +1.056937E+01 +3.894095E+02 
 +8.570418E+02 -3.950788E+00 +9.228252E-01 -3.950788E+00 +5.178508E+02 +1.734489E+01 +9.228252E-01 +1.734489E+01 +3.825884E+02 
 +8.739251E+02 -8.348524E+00 -6.475506E+00 -8.348524E+00 +5.291863E+02 +2.357423E+01 -6.475506E+00 +2.357423E+01 +3.783497E+02 
 +8.820388E+02 -9.340969E+00 -3.741244E+00 -9.340969E+00 +5.241387E+02 +1.331133E+01 -3.741244E+00 +1.331133E+01 +3.771253E+02 
 +8.826322E+02 -5.147849E+00 -1.246176E+00 -5.147849E+00 +5.139336E+02 -9.541471E+00 -1.246176E+00 -9.541471E+00 +3.652509E+02 
 +8.877072E+02 -3.601110E+00 -5.591868E+00 -3.601110E+00 +5.473347E+02 +1.822855E+01 -5.591868E+00 +1.822855E+01 +3.646297E+02 
 +8.683102E+02 -9.350290E-02 -1.201580E+01 -9.350290E-02 +5.389813E+02 +7.005699E+00 -1.201580E+01 +7.005699E+00 +3.702970E+02 
 +8.533363E+02 -4.089210E+00 -5.360642E+00 -4.089210E+00 +5.213491E+02 -1.226979E+01 -5.360642E+00 -1.226979E+01 +3.698845E+02 
 +8.652243E+02 +6.245080E+00 +6.401112E-01 +6.245080E+00 +5.182532E+02 -3.182008E+01 +6.401112E-01 -3.182008E+01 +3.693406E+02 
 +8.802891E+02 +8.961928E+00 +5.434771E+00 +8.961928E+00 +5.209647E+02 -2.893422E+01 +5.434771E+00 -2.893422E+01 +3.739909E+02 
 +8.765841E+02 +8.594284E-01 +7.485969E+00 +8.594284E-01 +5.080890E+02 -1.696676E+01 +7.485969E+00 -1.696676E+01 +3.784610E+02 
 +8.759365E+02 +1.325909E+00 +2.353365E+00 +1.325909E+00 +4.985513E+02 -8.959394E+00 +2.353365E+00 -8.959394E+00 +3.829476E+02 
 +8.777535E+02 +2.330049E+00 +9.187652E+00 +2.330049E+00 +4.975269E+02 +1.225541E+00 +9.187652E+00 +1.225541E+00 +3.827489E+02 
 +8.762631E+02 +4.755124E+00 +1.490812E+00 +4.755124E+00 +4.970209E+02 +9.194299E+00 +1.490812E+00 +9.194299E+00 +3.792157E+02 
 +8.775465E+02 +1.809941E+00 -6.804535E+00 +1.809941E+00 +4.985308E+02 +1.674109E+01 -6.804535E+00 +1.674109E+01 +3.754720E+02 
 +8.773185E+02 +9.227064E+00 -4.385155E+00 +9.227064E+00 +5.008582E+02 +1.673735E+01 -4.385155E+00 +1.673735E+01 +3.551981E+02 
 +8.740046E+02 +8.487196E+00 -2.184268E+01 +8.487196E+00 +4.916014E+02 +2.007389E+01 -2.184268E+01 +2.007389E+01 +3.504222E+02 
 +8.776428E+02 +6.149531E-01 -1.545725E+01 +6.149531E-01 +4.759952E+02 +2.236230E+01 -1.545725E+01 +2.236230E+01 +3.750718E+02 
 +8.795221E+02 -1.587761E-01 -5.254599E+00 -1.587761E-01 +4.653567E+02 +2.054783E+01 -5.254599E+00 +2.054783E+01 +3.845801E+02 
 +8.830841E+02 +1.464685E+00 +7.823146E+00 +1.464685E+00 +4.679053E+02 +2.240083E+01 +7.823146E+00 +2.240083E+01 +3.826538E+02 
 +8.802954E+02 +4.289467E+00 +2.070202E+01 +4.289467E+00 +4.866995E+02 +2.096644E+01 +2.070202E+01 +2.096644E+01 +3.955521E+02 
 +8.342762E+02 +5.705878E+00 +2.117816E+01 +5.705878E+00 +4.924853E+02 +1.607944E+01 +2.117816E+01 +1.607944E+01 +3.928175E+02 
 +8.507343E+02 -6.389057E+00 +1.976400E+00 -6.389057E+00 +5.147892E+02 +1.399618E+01 +1.976400E+00 +1.399618E+01 +3.778199E+02 
 +8.676315E+02 -1.037738E+01 -1.015633E+01 -1.037738E+01 +5.283931E+02 +1.712093E+01 -1.015633E+01 +1.712093E+01 +3.696888E+02 
 +8.805285E+02 -1.242030E+01 -1.068515E+01 -1.242030E+01 +5.404082E+02 +2.438750E+01 -1.068515E+01 +2.438750E+01 +3.794608E+02 
 +8.934198E+02 -7.014853E+00 -9.017413E+00 -7.014853E+00 +5.473663E+02 +2.378697E+01 -9.017413E+00 +2.378697E+01 +3.720624E+02 
 +8.949409E+02 +4.255130E+00 -8.444505E+00 +4.255130E+00 +5.575655E+02 +1.896246E+01 -8.444505E+00 +1.896246E+01 +3.717788E+02 
 +8.866178E+02 +1.347427E+00 -1.109001E+01 +1.347427E+00 +5.592607E+02 +7.204479E+00 -1.109001E+01 +7.204479E+00 +3.853329E+02 
 +8.823496E+02 -7.200939E+00 -6.620116E+00 -7.200939E+00 +5.494001E+02 -8.031298E+00 -6.620116E+00 -8.031298E+00 +4.054823E+02 
 +8.922791E+02 -6.391506E-01 +6.912874E-01 -6.391506E-01 +5.433978E+02 -2.495384E+01 +6.912874E-01 -2.495384E+01 +4.072907E+02 
 +8.969949E+02 +2.738752E+00 +9.677554E+00 +2.738752E+00 +5.323629E+02 -2.370121E+01 +9.677554E+00 -2.370121E+01 +3.961094E+02 
 +8.845891E+02 +2.152340E+00 +1.060417E+01 +2.152340E+00 +5.150803E+02 -1.406781E+01 +1.060417E+01 -1.406781E+01 +3.880185E+02 
 +8.725485E+02 +1.701056E+00 +7.331333E+00 +1.701056E+00 +4.987321E+02 -5.281214E+00 +7.331333E+00 -5.281214E+00 +3.832256E+02 
 +8.730681E+02 +3.259174E+00 +1.148592E+01 +3.259174E+00 +4.944427E+02 +2.508486E+00 +1.148592E+01 +2.508486E+00 +3.796474E+02 
 +8.773143E+02 +5.980276E+00 +8.121502E+00 +5.980276E+00 +4.995124E+02 +8.348313E+00 +8.121502E+00 +8.348313E+00 +3.788306E+02 
 +8.838879E+02 +7.555136E+00 -3.450264E-01 +7.555136E+00 +5.081009E+02 +1.557149E+01 -3.450264E-01 +1.557149E+01 +3.756809E+02 
 +8.852018E+02 +1.262085E+01 -2.550484E+00 +1.262085E+01 +5.064283E+02 +2.339067E+01 -2.550484E+00 +2.339067E+01 +3.525525E+02 
 +8.762182E+02 +7.659885E+00 -1.636689E+01 +7.659885E+00 +4.927040E+02 +3.471791E+01 -1.636689E+01 +3.471791E+01 +3.447647E+02 
 +8.806529E+02 +1.745025E-01 -1.481428E+01 +1.745025E-01 +4.879975E+02 +4.101039E+01 -1.481428E+01 +4.101039E+01 +3.743096E+02 
 +8.831980E+02 -1.002007E-01 -9.579310E+00 -1.002007E-01 +4.796040E+02 +3.639652E+01 -9.579310E+00 +3.639652E+01 +3.910209E+02 
 +8.745211E+02 +3.441523E-01 -3.483227E+00 +3.441523E-01 +4.718485E+02 +3.063402E+01 -3.483227E+00 +3.063402E+01 +3.913614E+02 
 +8.796373E+02 +4.652651E+00 +1.019385E+01 +4.652651E+00 +4.936890E+02 +2.305394E+01 +1.019385E+01 +2.305394E+01 +4.130077E+02 
 +8.466972E+02 +6.866807E+00 +1.194743E+01 +6.866807E+00 +4.983742E+02 +1.741405E+01 +1.194743E+01 +1.741405E+01 +4.135928E+02 
 +8.480777E+02 -6.096844E+00 -2.376640E+00 -6.096844E+00 +5.057238E+02 +1.251436E+01 -2.376640E+00 +1.251436E+01 +3.915131E+02 
 +8.615326E+02 -9.886785E+00 -1.362473E+01 -9.886785E+00 +5.203324E+02 +1.163955E+01 -1.362473E+01 +1.163955E+01 +3.755006E+02 
 +8.776240E+02 -1.423569E+01 -1.561097E+01 -1.423569E+01 +5.393486E+02 +1.869917E+01 -1.561097E+01 +1.869917E+01 +3.806775E+02 
 +8.872123E+02 -4.621743E+00 -1.347418E+01 -4.621743E+00 +5.458567E+02 +2.403438E+01 -1.347418E+01 +2.403438E+01 +3.760217E+02 
 +9.083598E+02 +3.181299E+00 -4.726727E+00 +3.181299E+00 +5.632175E+02 +1.970865E+01 -4.726727E+00 +1.970865E+01 +4.047621E+02 
 +9.225470E+02 +8.799671E-01 -6.682244E+00 +8.799671E-01 +5.813588E+02 +1.185417E+01 -6.682244E+00 +1.185417E+01 +4.279978E+02 
 +9.131799E+02 -3.987753E+00 -2.596972E+00 -3.987753E+00 +5.858676E+02 +4.550492E+00 -2.596972E+00 +4.550492E+00 +4.485715E+02 
 +8.975162E+02 -4.725215E-01 +1.910720E+00 -4.725215E-01 +5.681048E+02 -2.866006E+00 +1.910720E+00 -2.866006E+00 +4.273411E+02 
 +9.189550E+02 -9.146833E+00 +9.583696E+00 -9.146833E+00 +5.542942E+02 -8.085313E+00 +9.583696E+00 -8.085313E+00 +4.209173E+02 
 +8.932556E+02 -1.218088E+01 +1.132277E+01 -1.218088E+01 +5.195643E+02 -9.125102E+00 +1.132277E+01 -9.125102E+00 +4.053560E+02 
 +8.803236E+02 -8.465970E+00 +1.286804E+01 -8.465970E+00 +5.084070E+02 +1.023148E+00 +1.286804E+01 +1.023148E+00 +3.910467E+02 
 +8.738982E+02 +1.603688E-02 +8.098298E+00 +1.603688E-02 +4.988443E+02 +7.179693E+00 +8.098298E+00 +7.179693E+00 +3.739821E+02 
 +8.761931E+02 +5.846856E+00 -1.577279E+00 +5.846856E+00 +4.954800E+02 -7.189124E+00 -1.577279E+00 -7.189124E+00 +3.620836E+02 
 +8.775998E+02 +7.623768E+00 -1.130916E+00 +7.623768E+00 +4.970701E+02 -2.616403E+01 -1.130916E+00 -2.616403E+01 +3.547625E+02 
 +8.755562E+02 +8.921352E+00 -5.283393E+00 +8.921352E+00 +4.926712E+02 -2.898475E+01 -5.283393E+00 -2.898475E+01 +3.434781E+02 
 +8.863892E+02 +1.276243E+00 -9.950902E+00 +1.276243E+00 +4.957948E+02 -2.582756E+01 -9.950902E+00 -2.582756E+01 +3.474456E+02 
 +8.912770E+02 -5.453942E-01 -1.363716E+01 -5.453942E-01 +5.095061E+02 -1.996628E+01 -1.363716E+01 -1.996628E+01 +3.683316E+02 
 +8.942114E+02 -1.519297E+00 -1.265755E+01 -1.519297E+00 +5.168272E+02 -1.202401E+01 -1.265755E+01 -1.202401E+01 +3.923742E+02 
 +8.540771E+02 +4.444398E+00 -1.295728E+01 +4.444398E+00 +4.888546E+02 -4.327358E+00 -1.295728E+01 -4.327358E+00 +3.911208E+02 
 +8.533704E+02 +6.630706E+00 -7.913440E-01 +6.630706E+00 +4.843611E+02 -5.062834E+00 -7.913440E-01 -5.062834E+00 +4.068140E+02 
 +8.389371E+02 +2.310985E+00 +1.479582E+00 +2.310985E+00 +4.710173E+02 -2.674807E-01 +1.479582E+00 -2.674807E-01 +4.119912E+02 
 +8.365632E+02 -9.712292E+00 -3.737403E+00 -9.712292E+00 +4.888077E+02 +5.041860E+00 -3.737403E+00 +5.041860E+00 +4.003002E+02 
 +8.743892E+02 -1.681728E+01 -1.248049E+01 -1.681728E+01 +5.266421E+02 +1.287586E+01 -1.248049E+01 +1.287586E+01 +3.960015E+02 
 +8.866143E+02 -1.435372E+01 -1.930125E+01 -1.435372E+01 +5.381499E+02 +2.337928E+01 -1.930125E+01 +2.337928E+01 +3.934605E+02 
 +8.889462E+02 -8.043539E+00 -1.873331E+01 -8.043539E+00 +5.490170E+02 +2.629517E+01 -1.873331E+01 +2.629517E+01 +3.992856E+02 
 +8.947466E+02 +5.911792E+00 -6.353270E+00 +5.911792E+00 +5.156998E+02 +1.914045E+01 -6.353270E+00 +1.914045E+01 +4.135209E+02 
 +8.957916E+02 +3.833789E+00 -2.817788E+00 +3.833789E+00 +5.056506E+02 +8.881306E+00 -2.817788E+00 +8.881306E+00 +4.199078E+02 
 +8.926760E+02 -4.016882E-01 +3.099846E+00 -4.016882E-01 +5.325058E+02 +7.507419E+00 +3.099846E+00 +7.507419E+00 +4.330715E+02 
 +9.002728E+02 +1.407032E+00 +3.865582E+00 +1.407032E+00 +5.595673E+02 +5.627466E+00 +3.865582E+00 +5.627466E+00 +4.229105E+02 
 +8.954448E+02 -8.045257E+00 +7.131012E+00 -8.045257E+00 +5.397604E+02 -1.275997E+00 +7.131012E+00 -1.275997E+00 +4.062427E+02 
 +8.779334E+02 -5.506921E+00 +5.969349E+00 -5.506921E+00 +5.108701E+02 -6.468729E+00 +5.969349E+00 -6.468729E+00 +3.933742E+02 
 +8.775286E+02 -6.462853E+00 +6.094464E+00 -6.462853E+00 +5.135586E+02 -1.087871E+01 +6.094464E+00 -1.087871E+01 +3.846930E+02 
 +8.855483E+02 -9.440653E+00 -1.585993E+00 -9.440653E+00 +5.190594E+02 -1.980224E+01 -1.585993E+00 -1.980224E+01 +3.685064E+02 
 +8.911492E+02 +3.799055E-01 -8.373215E+00 +3.799055E-01 +5.133012E+02 -1.659665E+01 -8.373215E+00 -1.659665E+01 +3.467901E+02 
 +8.884001E+02 +5.369299E+00 -4.390226E+00 +5.369299E+00 +5.096210E+02 -7.055962E+00 -4.390226E+00 -7.055962E+00 +3.430255E+02 
 +8.828662E+02 +6.655407E+00 -1.049868E+01 +6.655407E+00 +5.039210E+02 -4.117561E+00 -1.049868E+01 -4.117561E+00 +3.458298E+02 
 +8.957432E+02 +1.060382E+00 -9.845122E+00 +1.060382E+00 +5.081252E+02 -1.285942E+01 -9.845122E+00 -1.285942E+01 +3.473378E+02 
 +8.988243E+02 +1.490951E-02 -1.010231E+01 +1.490951E-02 +5.155918E+02 -1.533546E+01 -1.010231E+01 -1.533546E+01 +3.548368E+02 
 +8.987320E+02 -6.341193E+00 -6.682166E+00 -6.341193E+00 +5.268240E+02 -9.750758E+00 -6.682166E+00 -9.750758E+00 +3.806422E+02 
 +8.403210E+02 +7.468726E+00 -1.054287E+01 +7.468726E+00 +5.075024E+02 -1.937134E+00 -1.054287E+01 -1.937134E+00 +3.813913E+02 
 +8.484765E+02 +1.049028E+01 -2.759326E+00 +1.049028E+01 +5.153243E+02 +2.332800E+00 -2.759326E+00 +2.332800E+00 +3.999444E+02 
 +8.441078E+02 +8.834080E+00 -9.253585E-01 +8.834080E+00 +5.050352E+02 +7.377055E-01 -9.253585E-01 +7.377055E-01 +4.158074E+02 
 +8.338603E+02 +6.997212E+00 -1.526540E+00 +6.997212E+00 +4.999828E+02 -6.241786E+00 -1.526540E+00 -6.241786E+00 +4.062423E+02 
 +8.885322E+02 -1.280719E+01 -2.351716E+00 -1.280719E+01 +5.323089E+02 -5.032525E+00 -2.351716E+00 -5.032525E+00 +3.935985E+02 
 +8.903329E+02 -9.465912E+00 -9.793817E+00 -9.465912E+00 +5.329710E+02 +9.055065E+00 -9.793817E+00 +9.055065E+00 +3.794154E+02 
 +8.738041E+02 -6.359171E+00 -1.911273E+01 -6.359171E+00 +5.233511E+02 +2.036122E+01 -1.911273E+01 +2.036122E+01 +3.948874E+02 
 +8.938096E+02 +5.905310E+00 -5.337969E+00 +5.905310E+00 +5.117543E+02 +1.190066E+01 -5.337969E+00 +1.190066E+01 +4.100816E+02 
 +8.855300E+02 +1.061626E+01 +2.731459E+00 +1.061626E+01 +5.007935E+02 +9.413333E+00 +2.731459E+00 +9.413333E+00 +4.056414E+02 
 +8.738929E+02 +1.156647E+01 +8.300676E+00 +1.156647E+01 +4.914612E+02 +9.096884E+00 +8.300676E+00 +9.096884E+00 +3.984346E+02 
 +8.704175E+02 +1.292645E+00 +6.301215E+00 +1.292645E+00 +4.823986E+02 +7.158749E+00 +6.301215E+00 +7.158749E+00 +3.827321E+02 
 +8.571817E+02 -1.093425E+01 -2.333479E+00 -1.093425E+01 +4.857461E+02 +1.919948E+00 -2.333479E+00 +1.919948E+00 +3.630563E+02 
 +8.630524E+02 -7.115162E-01 -4.311765E+00 -7.115162E-01 +5.040236E+02 -7.559780E+00 -4.311765E+00 -7.559780E+00 +3.638291E+02 
 +8.614020E+02 +9.651367E+00 -7.801056E+00 +9.651367E+00 +5.016992E+02 -8.740692E+00 -7.801056E+00 -8.740692E+00 +3.638698E+02 
 +8.717299E+02 +9.318202E+00 -9.235698E+00 +9.318202E+00 +5.098094E+02 -5.060802E+00 -9.235698E+00 -5.060802E+00 +3.531752E+02 
 +8.956970E+02 +6.916776E+00 -6.982676E+00 +6.916776E+00 +5.243954E+02 -3.622774E+00 -6.982676E+00 -3.622774E+00 +3.438004E+02 
 +8.911427E+02 +4.254308E+00 -8.116642E+00 +4.254308E+00 +5.154044E+02 -1.108796E+01 -8.116642E+00 -1.108796E+01 +3.409518E+02 
 +8.888620E+02 +7.725462E-01 -1.245564E+01 +7.725462E-01 +5.067715E+02 -1.652491E+01 -1.245564E+01 -1.652491E+01 +3.435762E+02 
 +8.950229E+02 -1.008045E-01 -1.066263E+01 -1.008045E-01 +5.074764E+02 -1.695005E+01 -1.066263E+01 -1.695005E+01 +3.419381E+02 
 +9.019176E+02 -2.178201E-01 -8.409508E+00 -2.178201E-01 +5.186870E+02 -1.911863E+01 -8.409508E+00 -1.911863E+01 +3.534104E+02 
 +9.010755E+02 -7.486922E+00 -5.921763E-01 -7.486922E+00 +5.338007E+02 -1.682766E+01 -5.921763E-01 -1.682766E+01 +3.783793E+02 
 +8.314174E+02 +3.961585E+00 -5.099987E+00 +3.961585E+00 +5.075873E+02 -8.110739E+00 -5.099987E+00 -8.110739E+00 +3.711267E+02 
 +8.380981E+02 +4.533091E+00 +3.322871E-01 +4.533091E+00 +5.119789E+02 -2.794646E+00 +3.322871E-01 -2.794646E+00 +3.867322E+02 
 +8.372800E+02 +7.680094E+00 -3.348522E+00 +7.680094E+00 +5.087654E+02 -2.855409E+00 -3.348522E+00 -2.855409E+00 +4.051676E+02 
 +8.157109E+02 +1.296788E+01 -3.499733E+00 +1.296788E+01 +4.876484E+02 -6.218868E+00 -3.499733E+00 -6.218868E+00 +3.994719E+02 
 +8.893977E+02 -7.538737E+00 +3.363638E+00 -7.538737E+00 +5.163593E+02 -6.003096E+00 +3.363638E+00 -6.003096E+00 +4.020596E+02 
 +8.885640E+02 -2.663060E+00 -5.657198E+00 -2.663060E+00 +5.148362E+02 -1.098650E+00 -5.657198E+00 -1.098650E+00 +3.868659E+02 
 +8.831146E+02 -2.476140E+00 -1.320967E+01 -2.476140E+00 +5.144800E+02 +6.484354E+00 -1.320967E+01 +6.484354E+00 +3.978315E+02 
 +8.743473E+02 +7.306910E+00 +6.223097E+00 +7.306910E+00 +4.870297E+02 +4.446805E+00 +6.223097E+00 +4.446805E+00 +3.970576E+02 
 +8.778337E+02 +1.366637E+01 +5.236264E+00 +1.366637E+01 +4.934516E+02 +5.918242E+00 +5.236264E+00 +5.918242E+00 +3.961190E+02 
 +8.796669E+02 +1.298014E+01 +6.950425E+00 +1.298014E+01 +4.918232E+02 +1.492099E+00 +6.950425E+00 +1.492099E+00 +3.967348E+02 
 +8.776990E+02 +5.394702E+00 +4.772789E+00 +5.394702E+00 +4.864704E+02 -5.458367E+00 +4.772789E+00 -5.458367E+00 +3.903978E+02 
 +8.577820E+02 +2.004409E+00 -1.688660E+01 +2.004409E+00 +4.809830E+02 -1.323315E+01 -1.688660E+01 -1.323315E+01 +3.698719E+02 
 +8.621870E+02 +2.711918E+00 -1.419926E+01 +2.711918E+00 +4.960755E+02 -1.550634E+01 -1.419926E+01 -1.550634E+01 +3.674065E+02 
 +8.631344E+02 +6.897122E+00 -1.611254E+01 +6.897122E+00 +5.009969E+02 -1.501324E+01 -1.611254E+01 -1.501324E+01 +3.650904E+02 
 +8.628420E+02 +1.095722E+01 -8.071850E+00 +1.095722E+01 +4.961508E+02 -1.225229E+01 -8.071850E+00 -1.225229E+01 +3.516643E+02 
 +8.633142E+02 +1.163407E+01 -9.485027E+00 +1.163407E+01 +4.961022E+02 -9.490537E+00 -9.485027E+00 -9.490537E+00 +3.414369E+02 
 +8.815037E+02 +7.018110E+00 -1.564897E+01 +7.018110E+00 +5.109727E+02 -9.349313E+00 -1.564897E+01 -9.349313E+00 +3.448781E+02 
 +8.936671E+02 -2.281951E-01 -1.505828E+01 -2.281951E-01 +5.134627E+02 -1.461789E+01 -1.505828E+01 -1.461789E+01 +3.453648E+02 
 +8.954063E+02 +5.203371E-01 -1.071737E+01 +5.203371E-01 +5.116485E+02 -1.777855E+01 -1.071737E+01 -1.777855E+01 +3.480684E+02 
 +8.988278E+02 -2.171102E+00 -6.856162E+00 -2.171102E+00 +5.209730E+02 -1.704169E+01 -6.856162E+00 -1.704169E+01 +3.559092E+02 
 +8.977145E+02 -6.425567E+00 +3.818272E-01 -6.425567E+00 +5.352537E+02 -1.636967E+01 +3.818272E-01 -1.636967E+01 +3.636181E+02 
 +8.378923E+02 +4.755270E+00 -2.117409E+00 +4.755270E+00 +5.159105E+02 -9.689112E+00 -2.117409E+00 -9.689112E+00 +3.630121E+02 
 +8.248516E+02 +1.820259E+00 -2.605207E+00 +1.820259E+00 +5.070400E+02 -2.079872E+00 -2.605207E+00 -2.079872E+00 +3.738954E+02 
 +8.335415E+02 +3.673715E+00 -6.843297E+00 +3.673715E+00 +5.071750E+02 -2.789590E+00 -6.843297E+00 -2.789590E+00 +3.828622E+02 
 +8.314355E+02 +9.227927E+00 -5.638756E+00 +9.227927E+00 +4.880466E+02 -4.188194E+00 -5.638756E+00 -4.188194E+00 +3.968028E+02 
 +8.755257E+02 +2.886840E-01 -5.408649E+00 +2.886840E-01 +4.802321E+02 -3.616991E+00 -5.408649E+00 -3.616991E+00 +4.185056E+02 
 +8.698312E+02 +7.923366E+00 -7.726164E+00 +7.923366E+00 +4.625678E+02 -3.502512E+00 -7.726164E+00 -3.502512E+00 +4.038356E+02 
 +8.729264E+02 +5.276080E+00 -7.391883E-01 +5.276080E+00 +4.723131E+02 +1.830826E+00 -7.391883E-01 +1.830826E+00 +3.979987E+02 
 +8.766781E+02 +6.338624E+00 +1.113660E+01 +6.338624E+00 +4.919914E+02 -1.534583E+00 +1.113660E+01 -1.534583E+00 +4.149302E+02 
 +8.806165E+02 +7.711228E+00 +5.243451E-02 +7.711228E+00 +4.940911E+02 -7.285442E+00 +5.243451E-02 -7.285442E+00 +4.088909E+02 
 +8.843572E+02 +7.193806E+00 -2.050053E+00 +7.193806E+00 +4.839122E+02 -1.469478E+01 -2.050053E+00 -1.469478E+01 +4.014246E+02 
 +8.860544E+02 +4.044562E+00 -4.085376E+00 +4.044562E+00 +4.843584E+02 -2.021785E+01 -4.085376E+00 -2.021785E+01 +4.009089E+02 
 +8.625142E+02 +4.813514E+00 -2.312494E+01 +4.813514E+00 +4.842791E+02 -1.952352E+01 -2.312494E+01 -1.952352E+01 +3.930350E+02 
 +8.616495E+02 +2.559549E+00 -1.649155E+01 +2.559549E+00 +4.924105E+02 -1.509278E+01 -1.649155E+01 -1.509278E+01 +3.887271E+02 
 +8.594984E+02 +6.640605E+00 -1.334551E+01 +6.640605E+00 +4.893570E+02 -1.985042E+00 -1.334551E+01 -1.985042E+00 +3.684729E+02 
 +8.664303E+02 +1.019523E+01 -4.958553E+00 +1.019523E+01 +4.929369E+02 +1.310431E+01 -4.958553E+00 +1.310431E+01 +3.560590E+02 
 +8.546606E+02 +1.360518E+01 -1.273960E+01 +1.360518E+01 +4.885756E+02 +2.782221E+00 -1.273960E+01 +2.782221E+00 +3.522505E+02 
 +8.608494E+02 +1.135034E+01 -2.210112E+01 +1.135034E+01 +4.906922E+02 -1.649436E+01 -2.210112E+01 -1.649436E+01 +3.493572E+02 
 +8.875540E+02 +2.127658E+00 -1.464566E+01 +2.127658E+00 +5.081598E+02 -2.002406E+01 -1.464566E+01 -2.002406E+01 +3.482531E+02 
 +8.920507E+02 +3.319398E+00 -9.617885E+00 +3.319398E+00 +5.200544E+02 -1.353349E+01 -9.617885E+00 -1.353349E+01 +3.579869E+02 
 +8.822084E+02 -1.568368E+00 -1.876608E+00 -1.568368E+00 +5.196264E+02 -1.268500E+01 -1.876608E+00 -1.268500E+01 +3.592631E+02 
 +8.836426E+02 -1.083971E+01 +3.255469E+00 -1.083971E+01 +5.198549E+02 -1.487350E+01 +3.255469E+00 -1.487350E+01 +3.584436E+02 
 +8.424610E+02 -4.619630E+00 +5.480937E+00 -4.619630E+00 +4.998437E+02 -4.555167E+00 +5.480937E+00 -4.555167E+00 +3.604722E+02 
 +8.233324E+02 -1.245511E+00 -6.437446E+00 -1.245511E+00 +5.006082E+02 -7.198949E-01 -6.437446E+00 -7.198949E-01 +3.696789E+02 
 +8.189719E+02 -2.252710E+00 -9.753798E+00 -2.252710E+00 +4.787056E+02 -9.571955E+00 -9.753798E+00 -9.571955E+00 +3.702946E+02 
 +8.390470E+02 -3.451984E+00 -5.220477E+00 -3.451984E+00 +4.442618E+02 -9.579475E+00 -5.220477E+00 -9.579475E+00 +3.798764E+02 
 +8.509032E+02 -1.409297E+00 -8.554310E+00 -1.409297E+00 +4.477799E+02 -3.715524E+00 -8.554310E+00 -3.715524E+00 +3.929382E+02 
 +8.626334E+02 +2.045358E+00 -2.041907E+00 +2.045358E+00 +4.614161E+02 -2.592527E-01 -2.041907E+00 -2.592527E-01 +3.969542E+02 
 +8.756845E+02 +5.778117E+00 +8.980583E+00 +5.778117E+00 +4.725756E+02 +1.678067E+00 +8.980583E+00 +1.678067E+00 +4.041628E+02 
 +8.688373E+02 +6.308956E+00 +5.637870E+00 +6.308956E+00 +4.748719E+02 -6.696100E+00 +5.637870E+00 -6.696100E+00 +4.002180E+02 
 +8.737652E+02 +2.947760E+00 -1.080572E+01 +2.947760E+00 +4.786246E+02 -1.504020E+01 -1.080572E+01 -1.504020E+01 +3.955157E+02 
 +8.801221E+02 +1.884059E+00 -1.123020E+01 +1.884059E+00 +4.740590E+02 -2.561815E+01 -1.123020E+01 -2.561815E+01 +3.847206E+02 
 +8.829611E+02 +5.347991E-01 -1.376204E+01 +5.347991E-01 +4.753037E+02 -2.577909E+01 -1.376204E+01 -2.577909E+01 +3.858076E+02 
 +8.685825E+02 +6.894058E+00 -1.932833E+01 +6.894058E+00 +4.780804E+02 -1.867203E+01 -1.932833E+01 -1.867203E+01 +3.873715E+02 
 +8.678557E+02 +8.481008E+00 -1.139988E+01 +8.481008E+00 +4.901686E+02 -6.126894E+00 -1.139988E+01 -6.126894E+00 +3.881712E+02 
 +8.594625E+02 +1.220102E+01 -1.007719E+01 +1.220102E+01 +4.887896E+02 -1.507878E+00 -1.007719E+01 -1.507878E+00 +3.705685E+02 
 +8.639310E+02 +1.390149E+01 -6.966135E+00 +1.390149E+01 +4.931700E+02 -1.541300E+00 -6.966135E+00 -1.541300E+00 +3.631871E+02 
 +8.614246E+02 +1.462619E+01 -1.599081E+01 +1.462619E+01 +4.959605E+02 -1.276746E+00 -1.599081E+01 -1.276746E+00 +3.653601E+02 
 +8.572838E+02 +1.218992E+01 -2.476488E+01 +1.218992E+01 +4.943295E+02 -2.221997E+00 -2.476488E+01 -2.221997E+00 +3.658023E+02 
 +8.786878E+02 +6.748524E+00 -1.504717E+01 +6.748524E+00 +5.086043E+02 -1.118325E+01 -1.504717E+01 -1.118325E+01 +3.620430E+02 
 +8.801109E+02 +5.261363E+00 +4.547791E-01 +5.261363E+00 +5.195602E+02 -1.023221E+01 +4.547791E-01 -1.023221E+01 +3.556350E+02 
 +8.640054E+02 -1.488893E+00 +5.661890E+00 -1.488893E+00 +5.133804E+02 +5.113795E+00 +5.661890E+00 +5.113795E+00 +3.583085E+02 
 +8.591713E+02 -9.687224E+00 +6.225638E+00 -9.687224E+00 +5.036052E+02 +6.929880E+00 +6.225638E+00 +6.929880E+00 +3.667390E+02 
 +8.406764E+02 -7.938120E+00 +9.413261E+00 -7.938120E+00 +4.828086E+02 +7.233710E+00 +9.413261E+00 +7.233710E+00 +3.689529E+02 
 +8.274277E+02 -4.730787E+00 -1.329289E+00 -4.730787E+00 +4.606408E+02 +6.885033E+00 -1.329289E+00 +6.885033E+00 +3.697173E+02 
 +8.267990E+02 -8.458086E+00 -6.526402E+00 -8.458086E+00 +4.515579E+02 +9.660930E+00 -6.526402E+00 +9.660930E+00 +3.729461E+02 
 +8.488758E+02 -8.189622E+00 -1.298817E+01 -8.189622E+00 +4.610673E+02 +1.105732E+01 -1.298817E+01 +1.105732E+01 +3.778028E+02 
 +8.467833E+02 -2.669886E+00 -1.426181E+01 -2.669886E+00 +4.545148E+02 +1.872391E+00 -1.426181E+01 +1.872391E+00 +3.693452E+02 
 +8.489273E+02 -2.494033E+00 +3.994766E-01 -2.494033E+00 +4.547433E+02 -1.161121E+01 +3.994766E-01 -1.161121E+01 +3.669924E+02 
 +8.590572E+02 +5.286451E+00 +1.741697E+01 +5.286451E+00 +4.619365E+02 -4.559067E+00 +1.741697E+01 -4.559067E+00 +3.795177E+02 
 +8.569390E+02 +3.414587E+00 +1.822621E+00 +3.414587E+00 +4.574772E+02 +6.143031E+00 +1.822621E+00 +6.143031E+00 +3.575669E+02 
 +8.625335E+02 -4.271476E+00 -1.270977E+01 -4.271476E+00 +4.599282E+02 -7.120212E+00 -1.270977E+01 -7.120212E+00 +3.653123E+02 
 +8.686816E+02 -1.253806E+00 -1.428261E+01 -1.253806E+00 +4.660606E+02 -8.867815E+00 -1.428261E+01 -8.867815E+00 +3.651186E+02 
 +8.678842E+02 -3.066781E-01 -1.186093E+01 -3.066781E-01 +4.608509E+02 -9.967581E+00 -1.186093E+01 -9.967581E+00 +3.564017E+02 
 +8.690410E+02 +1.124309E+00 -9.995491E+00 +1.124309E+00 +4.534511E+02 -1.179928E+01 -9.995491E+00 -1.179928E+01 +3.556071E+02 
 +8.683126E+02 +6.901976E+00 -8.923403E+00 +6.901976E+00 +4.595784E+02 -7.543605E+00 -8.923403E+00 -7.543605E+00 +3.565823E+02 
 +8.584788E+02 +1.388754E+01 -1.584819E+01 +1.388754E+01 +4.811146E+02 -4.317833E+00 -1.584819E+01 -4.317833E+00 +3.572773E+02 
 +8.567003E+02 +1.645610E+01 -1.560756E+01 +1.645610E+01 +4.955756E+02 -6.289375E+00 -1.560756E+01 -6.289375E+00 +3.660230E+02 
 +8.567425E+02 +1.313307E+01 -1.118482E+01 +1.313307E+01 +5.013171E+02 -9.898274E+00 -1.118482E+01 -9.898274E+00 +3.778300E+02 
 +8.607614E+02 +5.190964E+00 -1.683950E+01 +5.190964E+00 +5.107162E+02 -7.931205E+00 -1.683950E+01 -7.931205E+00 +3.928670E+02 
 +8.651504E+02 +3.594099E+00 -1.746597E+01 +3.594099E+00 +5.181273E+02 -1.458351E-01 -1.746597E+01 -1.458351E-01 +4.077963E+02 
 +8.729578E+02 +3.835992E+00 -1.359070E+00 +3.835992E+00 +5.124660E+02 +5.125875E+00 -1.359070E+00 +5.125875E+00 +3.952309E+02 
 +8.586800E+02 -3.800905E+00 +8.620006E-01 -3.800905E+00 +4.861894E+02 -2.017687E+00 +8.620006E-01 -2.017687E+00 +3.558583E+02 
 +8.423145E+02 -1.945751E+00 +3.008248E+00 -1.945751E+00 +4.770120E+02 -2.724681E+00 +3.008248E+00 -2.724681E+00 +3.550457E+02 
 +8.495912E+02 +5.219284E+00 +2.570444E+00 +5.219284E+00 +4.797341E+02 +1.270391E+00 +2.570444E+00 +1.270391E+00 +3.831061E+02 
 +8.541227E+02 +1.316165E+00 -2.475510E+00 +1.316165E+00 +4.724891E+02 -1.484657E+00 -2.475510E+00 -1.484657E+00 +3.910062E+02 
 +8.516605E+02 -3.782003E+00 -6.763495E+00 -3.782003E+00 +4.709516E+02 +3.831007E-01 -6.763495E+00 +3.831007E-01 +3.882311E+02 
 +8.500580E+02 -5.241988E+00 -1.059448E+01 -5.241988E+00 +4.729346E+02 +1.049485E+01 -1.059448E+01 +1.049485E+01 +3.849345E+02 
 +8.543270E+02 -4.823088E+00 -6.897900E+00 -4.823088E+00 +4.763109E+02 +2.633998E+01 -6.897900E+00 +2.633998E+01 +3.826640E+02 
 +8.617577E+02 -1.857732E+00 +1.511137E+00 -1.857732E+00 +4.845745E+02 +3.220854E+01 +1.511137E+00 +3.220854E+01 +3.831507E+02 
 +8.562698E+02 +5.714929E+00 +1.651084E+01 +5.714929E+00 +4.746057E+02 +2.235161E+01 +1.651084E+01 +2.235161E+01 +3.682870E+02 
 +8.547458E+02 +8.726368E-01 -7.453734E+00 +8.726368E-01 +4.653138E+02 -5.782864E+00 -7.453734E+00 -5.782864E+00 +3.557773E+02 
 +8.529002E+02 -5.973004E+00 -2.216790E+00 -5.973004E+00 +4.569414E+02 -1.360160E+01 -2.216790E+00 -1.360160E+01 +3.461546E+02 
 +8.567671E+02 -5.398072E+00 -4.463431E+00 -5.398072E+00 +4.548417E+02 -8.987887E+00 -4.463431E+00 -8.987887E+00 +3.387635E+02 
 +8.647223E+02 -3.777703E+00 -9.367006E+00 -3.777703E+00 +4.579364E+02 -5.711491E+00 -9.367006E+00 -5.711491E+00 +3.474597E+02 
 +8.658651E+02 -2.925006E+00 -1.146848E+01 -2.925006E+00 +4.542715E+02 -6.739986E+00 -1.146848E+01 -6.739986E+00 +3.527471E+02 
 +8.696405E+02 +3.407066E+00 -7.741762E+00 +3.407066E+00 +4.498828E+02 -1.642583E+01 -7.741762E+00 -1.642583E+01 +3.520161E+02 
 +8.665934E+02 +9.153636E+00 -8.410769E+00 +9.153636E+00 +4.564675E+02 -1.584954E+01 -8.410769E+00 -1.584954E+01 +3.533632E+02 
 +8.551278E+02 +1.373000E+01 -1.607916E+01 +1.373000E+01 +4.847022E+02 -7.354173E+00 -1.607916E+01 -7.354173E+00 +3.710136E+02 
 +8.590196E+02 +1.102358E+01 -1.210879E+01 +1.102358E+01 +5.107622E+02 -6.235289E+00 -1.210879E+01 -6.235289E+00 +3.958998E+02 
 +8.601082E+02 +4.061835E+00 -8.905974E+00 +4.061835E+00 +5.174687E+02 -5.119980E+00 -8.905974E+00 -5.119980E+00 +4.138460E+02 
 +8.581892E+02 -3.111608E+00 -2.166158E+00 -3.111608E+00 +5.106977E+02 -2.489700E+00 -2.166158E+00 -2.489700E+00 +4.179084E+02 
 +8.592610E+02 -5.013304E+00 +1.232413E+01 -5.013304E+00 +4.920250E+02 -1.062752E+01 +1.232413E+01 -1.062752E+01 +3.922190E+02 
 +8.577484E+02 -6.537127E+00 +1.261587E+01 -6.537127E+00 +4.861978E+02 -4.842035E+00 +1.261587E+01 -4.842035E+00 +3.756802E+02 
 +8.544885E+02 -2.433089E+00 +9.931849E+00 -2.433089E+00 +4.846115E+02 +1.106812E+01 +9.931849E+00 +1.106812E+01 +3.849215E+02 
 +8.509709E+02 +2.098753E+00 -6.182893E+00 +2.098753E+00 +4.774195E+02 +1.531784E+01 -6.182893E+00 +1.531784E+01 +3.904963E+02 
 +8.532217E+02 +3.141366E-01 -8.412047E+00 +3.141366E-01 +4.769739E+02 +6.589155E+00 -8.412047E+00 +6.589155E+00 +3.909940E+02 
 +8.570214E+02 -2.863875E+00 -8.319622E+00 -2.863875E+00 +4.790256E+02 +4.073872E+00 -8.319622E+00 +4.073872E+00 +3.914342E+02 
 +8.558400E+02 -5.803886E+00 -5.349606E+00 -5.803886E+00 +4.806628E+02 +6.560007E+00 -5.349606E+00 +6.560007E+00 +3.863610E+02 
 +8.568766E+02 -7.743484E+00 +1.517602E-01 -7.743484E+00 +4.821799E+02 +1.217347E+01 +1.517602E-01 +1.217347E+01 +3.733158E+02 
 +8.544616E+02 -3.290796E+00 +2.287544E+00 -3.290796E+00 +4.757225E+02 +2.112839E+01 +2.287544E+00 +2.112839E+01 +3.551930E+02 
 +8.537364E+02 +3.653366E+00 -1.817068E+00 +3.653366E+00 +4.695120E+02 +1.240462E+01 -1.817068E+00 +1.240462E+01 +3.504025E+02 
 +8.649871E+02 +3.004523E+00 +1.755565E-01 +3.004523E+00 +4.892272E+02 +5.324273E+00 +1.755565E-01 +5.324273E+00 +3.538771E+02 
 +8.621391E+02 -1.238398E+00 +8.008806E+00 -1.238398E+00 +4.870359E+02 +1.495461E+01 +8.008806E+00 +1.495461E+01 +3.433227E+02 
 +8.606200E+02 -3.417714E+00 +4.075908E-01 -3.417714E+00 +4.737919E+02 +1.301130E+01 +4.075908E-01 +1.301130E+01 +3.393167E+02 
 +8.629973E+02 -5.317683E+00 -9.254852E+00 -5.317683E+00 +4.581011E+02 +8.585841E-02 -9.254852E+00 +8.585841E-02 +3.449173E+02 
 +8.551265E+02 -5.026093E+00 -7.579032E+00 -5.026093E+00 +4.460788E+02 -2.637812E+00 -7.579032E+00 -2.637812E+00 +3.499646E+02 
 +8.565067E+02 -1.402907E+00 -6.699231E+00 -1.402907E+00 +4.397744E+02 +1.460452E+00 -6.699231E+00 +1.460452E+00 +3.543500E+02 
 +8.626405E+02 +7.495426E+00 -2.950875E+00 +7.495426E+00 +4.406284E+02 -6.973435E+00 -2.950875E+00 -6.973435E+00 +3.601160E+02 
 +8.505042E+02 +8.701750E+00 -9.463673E+00 +8.701750E+00 +4.469028E+02 -9.022946E+00 -9.463673E+00 -9.022946E+00 +3.783546E+02 
 +8.412682E+02 +1.706120E+00 -6.510406E+00 +1.706120E+00 +4.584734E+02 -1.832341E+00 -6.510406E+00 -1.832341E+00 +3.970481E+02 
 +8.476092E+02 +2.979265E+00 -1.984622E+00 +2.979265E+00 +4.828157E+02 -6.580816E-01 -1.984622E+00 -6.580816E-01 +4.260918E+02 
 +8.572531E+02 -3.468748E+00 +1.308890E-01 -3.468748E+00 +5.050177E+02 -3.440255E+00 +1.308890E-01 -3.440255E+00 +4.438441E+02 
 +8.645987E+02 -7.058765E+00 +1.706587E+01 -7.058765E+00 +5.078615E+02 -4.585511E+00 +1.706587E+01 -4.585511E+00 +4.184861E+02 
 +8.689785E+02 -9.085627E+00 +2.111551E+01 -9.085627E+00 +4.995731E+02 -6.815011E+00 +2.111551E+01 -6.815011E+00 +4.002530E+02 
 +8.703467E+02 -7.051789E+00 +1.492575E+01 -7.051789E+00 +4.965373E+02 -2.931162E+00 +1.492575E+01 -2.931162E+00 +4.136637E+02 
 +8.640710E+02 -6.194092E-01 -4.267457E+00 -6.194092E-01 +4.908691E+02 +9.054728E+00 -4.267457E+00 +9.054728E+00 +4.184049E+02 
 +8.576860E+02 -3.588094E-01 -1.500592E+01 -3.588094E-01 +4.828263E+02 +1.221660E+01 -1.500592E+01 +1.221660E+01 +4.089982E+02 
 +8.581554E+02 -3.287064E+00 -1.178651E+01 -3.287064E+00 +4.810884E+02 +5.956523E+00 -1.178651E+01 +5.956523E+00 +3.974556E+02 
 +8.583036E+02 -4.110526E+00 -8.347741E+00 -4.110526E+00 +4.814121E+02 +3.308583E+00 -8.347741E+00 +3.308583E+00 +3.884214E+02 
 +8.571772E+02 -5.882878E+00 -8.123636E-01 -5.882878E+00 +4.770913E+02 +3.884721E+00 -8.123636E-01 +3.884721E+00 +3.731878E+02 
 +8.556035E+02 -2.733403E+00 +8.569714E-01 -2.733403E+00 +4.685875E+02 +5.895564E+00 +8.569714E-01 +5.895564E+00 +3.530042E+02 
 +8.618317E+02 +5.095002E+00 -5.801590E+00 +5.095002E+00 +4.769339E+02 +1.178394E+00 -5.801590E+00 +1.178394E+00 +3.514053E+02 
 +8.754483E+02 +6.048638E+00 +7.975770E+00 +6.048638E+00 +4.908068E+02 +1.901454E+01 +7.975770E+00 +1.901454E+01 +3.520116E+02 
 +8.593776E+02 +2.602529E+00 +1.311622E+01 +2.602529E+00 +4.845459E+02 +1.409209E+01 +1.311622E+01 +1.409209E+01 +3.408113E+02 
 +8.639631E+02 -2.365508E+00 +4.892047E+00 -2.365508E+00 +4.919116E+02 +1.929392E+01 +4.892047E+00 +1.929392E+01 +3.532870E+02 
 +8.703553E+02 -5.857192E+00 -3.717583E+00 -5.857192E+00 +4.904521E+02 +2.746607E+01 -3.717583E+00 +2.746607E+01 +3.601757E+02 
 +8.609859E+02 -5.997266E+00 -2.775166E+00 -5.997266E+00 +4.723359E+02 +3.449777E+01 -2.775166E+00 +3.449777E+01 +3.560522E+02 
 +8.568287E+02 -3.775037E+00 -3.887578E-01 -3.775037E+00 +4.542947E+02 +4.047882E+01 -3.887578E-01 +4.047882E+01 +3.536426E+02 
 +8.556151E+02 +1.232539E+01 -5.333514E+00 +1.232539E+01 +4.454708E+02 +3.693365E+01 -5.333514E+00 +3.693365E+01 +3.548642E+02 
 +8.590197E+02 +1.675907E+01 -1.174798E+01 +1.675907E+01 +4.585217E+02 +1.780683E+01 -1.174798E+01 +1.780683E+01 +3.782407E+02 
 +8.535459E+02 +3.875329E+00 -8.125532E+00 +3.875329E+00 +4.674150E+02 +4.068512E+00 -8.125532E+00 +4.068512E+00 +3.945918E+02 
 +8.549021E+02 +6.284594E+00 +9.358568E-01 +6.284594E+00 +4.854426E+02 +9.594773E-01 +9.358568E-01 +9.594773E-01 +4.070135E+02 
 +8.751799E+02 +9.661473E-01 +1.220603E+01 +9.661473E-01 +5.300804E+02 +2.045002E+01 +1.220603E+01 +2.045002E+01 +4.277578E+02 
 +8.760197E+02 -8.542213E+00 +1.237212E+01 -8.542213E+00 +5.373842E+02 +1.978688E+01 +1.237212E+01 +1.978688E+01 +4.274387E+02 
 +8.806983E+02 -9.593050E+00 +1.175335E+01 -9.593050E+00 +5.213848E+02 -8.151140E-01 +1.175335E+01 -8.151140E-01 +4.267110E+02 
 +8.760779E+02 -7.894194E+00 +7.612646E+00 -7.894194E+00 +5.060659E+02 -1.297617E+01 +7.612646E+00 -1.297617E+01 +4.249325E+02 
 +8.665292E+02 -2.816419E+00 +5.170961E+00 -2.816419E+00 +4.952286E+02 -7.733743E+00 +5.170961E+00 -7.733743E+00 +4.136804E+02 
 +8.602025E+02 -3.005517E+00 -6.094644E+00 -3.005517E+00 +4.906721E+02 +3.535156E+00 -6.094644E+00 +3.535156E+00 +4.079679E+02 
 +8.623781E+02 -4.917158E+00 -1.623831E+01 -4.917158E+00 +4.860328E+02 +1.074061E+01 -1.623831E+01 +1.074061E+01 +4.040554E+02 
 +8.646921E+02 -3.607227E+00 -1.383577E+01 -3.607227E+00 +4.801986E+02 +4.698226E+00 -1.383577E+01 +4.698226E+00 +3.900488E+02 
 +8.670450E+02 -4.409598E+00 -6.645876E+00 -4.409598E+00 +4.811189E+02 +6.268665E+00 -6.645876E+00 +6.268665E+00 +3.797939E+02 
 +8.741144E+02 +2.639212E-01 -1.124666E+00 +2.639212E-01 +4.930806E+02 +2.183265E+01 -1.124666E+00 +2.183265E+01 +3.799276E+02 
 +8.788039E+02 +8.469039E+00 +4.419690E+00 +8.469039E+00 +4.980835E+02 +2.684527E+01 +4.419690E+00 +2.684527E+01 +3.710413E+02 
 +8.818087E+02 +7.508684E+00 +1.754825E+00 +7.508684E+00 +4.913045E+02 +1.834917E+01 +1.754825E+00 +1.834917E+01 +3.534812E+02 
 +8.682409E+02 +5.246749E+00 +1.352532E+01 +5.246749E+00 +4.915691E+02 +1.667844E+01 +1.352532E+01 +1.667844E+01 +3.570088E+02 
 +8.672670E+02 -1.204834E+00 +1.816715E+01 -1.204834E+00 +5.029016E+02 +2.076924E+01 +1.816715E+01 +2.076924E+01 +3.699158E+02 
 +8.684647E+02 -7.246473E+00 +3.151395E+00 -7.246473E+00 +5.022044E+02 +2.549563E+01 +3.151395E+00 +2.549563E+01 +3.762837E+02 
 +8.536504E+02 -8.332269E+00 -3.215917E+00 -8.332269E+00 +4.738996E+02 +2.739784E+01 -3.215917E+00 +2.739784E+01 +3.651564E+02 
 +8.473818E+02 -2.357479E+00 +1.228125E+00 -2.357479E+00 +4.604447E+02 +2.081876E+01 +1.228125E+00 +2.081876E+01 +3.512958E+02 
 +8.667129E+02 +1.340033E+01 -1.024927E+01 +1.340033E+01 +4.771063E+02 +5.462096E+00 -1.024927E+01 +5.462096E+00 +3.607765E+02 
 +8.631025E+02 +1.783718E+01 -1.863360E+01 +1.783718E+01 +4.754243E+02 -2.225737E+00 -1.863360E+01 -2.225737E+00 +3.834855E+02 
 +8.647581E+02 +8.591871E+00 -9.036777E+00 +8.591871E+00 +4.925076E+02 +6.233011E+00 -9.036777E+00 +6.233011E+00 +4.020550E+02 
 +8.689777E+02 +5.258789E+00 +3.296875E+00 +5.258789E+00 +5.062841E+02 +2.006642E+01 +3.296875E+00 +2.006642E+01 +4.057703E+02 
 +8.629113E+02 -8.632095E-01 +1.887587E+01 -8.632095E-01 +4.902296E+02 +1.135777E+01 +1.887587E+01 +1.135777E+01 +4.046170E+02 
 +8.603294E+02 -1.349493E+01 +7.643554E+00 -1.349493E+01 +4.943248E+02 +1.147076E+00 +7.643554E+00 +1.147076E+00 +4.098220E+02 
 +8.681468E+02 -1.521657E+01 +2.909081E-01 -1.521657E+01 +5.047574E+02 -1.180840E+01 +2.909081E-01 -1.180840E+01 +4.165320E+02 
 +8.631617E+02 -5.439502E+00 +5.989445E+00 -5.439502E+00 +5.063277E+02 -1.102522E+01 +5.989445E+00 -1.102522E+01 +3.965502E+02 
 +8.781617E+02 -6.469988E-01 +5.885412E+00 -6.469988E-01 +5.333317E+02 -3.982955E+00 +5.885412E+00 -3.982955E+00 +3.879251E+02 
 +8.811754E+02 -8.601900E+00 +7.997039E-01 -8.601900E+00 +5.314468E+02 -2.526985E+00 +7.997039E-01 -2.526985E+00 +3.991804E+02 
 +8.769659E+02 -8.082320E+00 -1.240680E+01 -8.082320E+00 +5.076663E+02 +5.933524E+00 -1.240680E+01 +5.933524E+00 +4.048339E+02 
 +8.764159E+02 -3.701963E+00 -1.259565E+01 -3.701963E+00 +4.916882E+02 +1.670761E+01 -1.259565E+01 +1.670761E+01 +3.869395E+02 
 +8.770176E+02 -2.001404E+00 -6.238372E+00 -2.001404E+00 +4.913890E+02 +2.292094E+01 -6.238372E+00 +2.292094E+01 +3.736769E+02 
 +8.784320E+02 +3.096611E+00 +9.315107E-01 +3.096611E+00 +4.979386E+02 +2.930069E+01 +9.315107E-01 +2.930069E+01 +3.706825E+02 
 +8.787982E+02 +8.544009E+00 +6.738957E+00 +8.544009E+00 +4.931446E+02 +2.540475E+01 +6.738957E+00 +2.540475E+01 +3.575969E+02 
 +8.829372E+02 +7.867896E+00 +1.120714E+00 +7.867896E+00 +4.889091E+02 +2.604941E+01 +1.120714E+00 +2.604941E+01 +3.518216E+02 
 +8.813116E+02 +9.863018E+00 +1.048249E+01 +9.863018E+00 +4.998813E+02 +2.676595E+01 +1.048249E+01 +2.676595E+01 +3.634316E+02 
 +8.709386E+02 +4.118346E+00 +1.872109E+01 +4.118346E+00 +5.010696E+02 +1.759273E+01 +1.872109E+01 +1.759273E+01 +3.788541E+02 
 +8.546361E+02 -6.280073E+00 -2.574235E+00 -6.280073E+00 +4.777236E+02 +7.126874E+00 -2.574235E+00 +7.126874E+00 +3.844120E+02 
 +8.320345E+02 -3.921575E+00 -4.440013E+00 -3.921575E+00 +4.610728E+02 +2.234555E+00 -4.440013E+00 +2.234555E+00 +3.815942E+02 
 +8.385867E+02 +3.261455E+00 -1.436692E+00 +3.261455E+00 +4.767853E+02 -1.053513E+01 -1.436692E+00 -1.053513E+01 +3.696756E+02 
 +8.490711E+02 +6.692839E+00 -5.014906E+00 +6.692839E+00 +4.790015E+02 -7.046626E+00 -5.014906E+00 -7.046626E+00 +3.629037E+02 
 +8.608594E+02 +7.156666E+00 -9.913645E+00 +7.156666E+00 +4.801284E+02 +1.239934E+01 -9.913645E+00 +1.239934E+01 +3.869790E+02 
 +8.604908E+02 +7.782255E+00 -1.466714E+00 +7.782255E+00 +4.747323E+02 +1.661190E+01 -1.466714E+00 +1.661190E+01 +4.048650E+02 
 +8.556595E+02 +2.777166E+00 +4.627565E+00 +2.777166E+00 +4.634438E+02 +6.214273E+00 +4.627565E+00 +6.214273E+00 +4.095755E+02 
 +8.578545E+02 -1.308327E+00 +9.103464E+00 -1.308327E+00 +4.627478E+02 +2.496990E+00 +9.103464E+00 +2.496990E+00 +4.136429E+02 
 +8.575635E+02 -8.005201E+00 +1.137001E+01 -8.005201E+00 +4.661605E+02 +7.406004E+00 +1.137001E+01 +7.406004E+00 +4.095795E+02 
 +8.620315E+02 -1.152420E+01 +2.014683E+00 -1.152420E+01 +4.926801E+02 +1.340592E+01 +2.014683E+00 +1.340592E+01 +4.056015E+02 
 +8.630457E+02 +1.867797E-01 +6.560709E+00 +1.867797E-01 +5.108231E+02 +1.811126E+01 +6.560709E+00 +1.811126E+01 +3.868593E+02 
 +8.603720E+02 +2.158461E+00 -1.060289E+00 +2.158461E+00 +4.961646E+02 +2.066540E+01 -1.060289E+00 +2.066540E+01 +3.840697E+02 
 +8.668798E+02 -6.510268E+00 -5.249333E+00 -6.510268E+00 +4.929938E+02 +2.683065E+01 -5.249333E+00 +2.683065E+01 +3.988663E+02 
 +8.766177E+02 -6.984473E+00 -7.802794E+00 -6.984473E+00 +5.004563E+02 +3.363206E+01 -7.802794E+00 +3.363206E+01 +3.942803E+02 
 +8.746086E+02 -3.856922E+00 -8.739596E+00 -3.856922E+00 +4.907710E+02 +2.644829E+01 -8.739596E+00 +2.644829E+01 +3.763199E+02 
 +8.736850E+02 +1.972658E-01 -3.074662E+00 +1.972658E-01 +4.841704E+02 +2.279394E+01 -3.074662E+00 +2.279394E+01 +3.649452E+02 
 +8.758913E+02 +3.109603E+00 -1.210808E-01 +3.109603E+00 +4.845992E+02 +2.468662E+01 -1.210808E-01 +2.468662E+01 +3.588168E+02 
 +8.802208E+02 +5.986590E+00 +3.335027E+00 +5.986590E+00 +4.855538E+02 +2.486525E+01 +3.335027E+00 +2.486525E+01 +3.549185E+02 
 +8.836295E+02 +7.622714E+00 +7.614063E+00 +7.622714E+00 +4.873489E+02 +2.850961E+01 +7.614063E+00 +2.850961E+01 +3.518899E+02 
 +8.934751E+02 +8.972921E+00 +7.788342E+00 +8.972921E+00 +5.022525E+02 +3.226947E+01 +7.788342E+00 +3.226947E+01 +3.718338E+02 
 +8.907860E+02 -6.777687E-01 +9.596982E+00 -6.777687E-01 +5.112380E+02 +2.759990E+01 +9.596982E+00 +2.759990E+01 +3.950409E+02 
 +8.458144E+02 -2.021317E+01 -4.708888E+00 -2.021317E+01 +4.960854E+02 +1.914750E+01 -4.708888E+00 +1.914750E+01 +3.976594E+02 
 +8.316337E+02 -1.479347E+01 -4.650910E+00 -1.479347E+01 +5.004136E+02 +1.856388E+01 -4.650910E+00 +1.856388E+01 +4.018478E+02 
 +8.334169E+02 -1.004807E+01 -8.052226E+00 -1.004807E+01 +5.030577E+02 +1.718488E+01 -8.052226E+00 +1.718488E+01 +3.861438E+02 
 +8.257974E+02 -1.147923E+01 -3.924415E+00 -1.147923E+01 +4.784578E+02 +1.529992E+01 -3.924415E+00 +1.529992E+01 +3.641319E+02 
 +8.600751E+02 -2.648738E+00 +1.937207E+00 -2.648738E+00 +4.669255E+02 +7.568621E+00 +1.937207E+00 +7.568621E+00 +3.769116E+02 
 +8.578052E+02 +3.452632E+00 +1.595348E+00 +3.452632E+00 +4.465572E+02 -4.726131E-01 +1.595348E+00 -4.726131E-01 +3.891279E+02 
 +8.499968E+02 +4.987948E-01 +3.661452E+00 +4.987948E-01 +4.389771E+02 -7.152562E+00 +3.661452E+00 -7.152562E+00 +4.000916E+02 
 +8.495282E+02 -2.697748E+00 +7.078128E+00 -2.697748E+00 +4.400874E+02 -6.538997E+00 +7.078128E+00 -6.538997E+00 +3.974866E+02 
 +8.599842E+02 -4.239985E+00 +1.324700E+01 -4.239985E+00 +4.619692E+02 +3.179300E-01 +1.324700E+01 +3.179300E-01 +3.989252E+02 
 +8.593713E+02 -4.867203E+00 +7.368448E+00 -4.867203E+00 +4.801504E+02 +6.569345E+00 +7.368448E+00 +6.569345E+00 +4.057114E+02 
 +8.613129E+02 +6.485213E-01 +1.033955E+00 +6.485213E-01 +4.828552E+02 +9.383078E+00 +1.033955E+00 +9.383078E+00 +4.003443E+02 
 +8.617551E+02 -7.233569E-01 -3.066407E+00 -7.233569E-01 +4.854505E+02 +1.751982E+01 -3.066407E+00 +1.751982E+01 +4.012464E+02 
 +8.677226E+02 -5.324580E+00 -4.614209E+00 -5.324580E+00 +4.892357E+02 +2.893514E+01 -4.614209E+00 +2.893514E+01 +4.024490E+02 
 +8.718467E+02 -6.580592E+00 -3.523884E+00 -6.580592E+00 +4.867609E+02 +3.631135E+01 -3.523884E+00 +3.631135E+01 +3.856995E+02 
 +8.666000E+02 -5.357906E+00 -4.396046E+00 -5.357906E+00 +4.830621E+02 +2.981269E+01 -4.396046E+00 +2.981269E+01 +3.740540E+02 
 +8.693705E+02 -1.422210E+00 -2.888352E+00 -1.422210E+00 +4.781256E+02 +2.602081E+01 -2.888352E+00 +2.602081E+01 +3.657340E+02 
 +8.766905E+02 +1.971770E+00 -8.762239E-01 +1.971770E+00 +4.744933E+02 +2.726205E+01 -8.762239E-01 +2.726205E+01 +3.559458E+02 
 +8.787524E+02 +6.140452E+00 +3.130439E+00 +6.140452E+00 +4.775559E+02 +2.719995E+01 +3.130439E+00 +2.719995E+01 +3.513449E+02 
 +8.808125E+02 +3.080401E+00 +1.049163E+01 +3.080401E+00 +4.876449E+02 +3.199298E+01 +1.049163E+01 +3.199298E+01 +3.592032E+02 
 +8.834615E+02 -2.916970E+00 +7.913128E+00 -2.916970E+00 +4.772724E+02 +2.664696E+01 +7.913128E+00 +2.664696E+01 +3.872108E+02 
 +8.836335E+02 -7.854974E+00 +8.522534E+00 -7.854974E+00 +4.809693E+02 +2.423484E+01 +8.522534E+00 +2.423484E+01 +4.030628E+02 
 +8.140794E+02 -2.254286E+01 -2.692168E+00 -2.254286E+01 +4.763304E+02 +1.185019E+01 -2.692168E+00 +1.185019E+01 +3.891641E+02 
 +8.193577E+02 -1.033977E+01 -1.036515E+01 -1.033977E+01 +4.979752E+02 +5.292514E+00 -1.036515E+01 +5.292514E+00 +3.923107E+02 
 +8.170439E+02 -3.622317E+00 -1.589212E+01 -3.622317E+00 +4.870656E+02 +2.443459E+00 -1.589212E+01 +2.443459E+00 +3.777561E+02 
 +8.096365E+02 -4.250754E+00 -1.243906E+01 -4.250754E+00 +4.573100E+02 -2.681133E+00 -1.243906E+01 -2.681133E+00 +3.630379E+02 
 +8.469633E+02 -5.784012E-01 -1.808829E+00 -5.784012E-01 +4.489280E+02 -5.734246E+00 -1.808829E+00 -5.734246E+00 +3.741926E+02 
 +8.607957E+02 +3.060644E+00 +4.161776E+00 +3.060644E+00 +4.435945E+02 -5.139921E+00 +4.161776E+00 -5.139921E+00 +3.872407E+02 
 +8.570225E+02 -3.686920E-01 +4.663069E+00 -3.686920E-01 +4.442365E+02 -9.899250E+00 +4.663069E+00 -9.899250E+00 +3.942956E+02 
 +8.538800E+02 -4.085638E+00 +6.311871E+00 -4.085638E+00 +4.426501E+02 -1.469588E+01 +6.311871E+00 -1.469588E+01 +3.943401E+02 
 +8.548653E+02 +2.328556E-01 +1.120075E+01 +2.328556E-01 +4.452264E+02 -1.362821E+01 +1.120075E+01 -1.362821E+01 +3.830952E+02 
 +8.588098E+02 -5.061685E-01 +1.166800E+01 -5.061685E-01 +4.640753E+02 -4.568376E+00 +1.166800E+01 -4.568376E+00 +3.806867E+02 
 +8.646627E+02 +6.573417E-01 +4.247581E+00 +6.573417E-01 +4.804281E+02 +6.772328E+00 +4.247581E+00 +6.772328E+00 +3.886025E+02 
 +8.592054E+02 -2.716774E-01 +4.857148E-01 -2.716774E-01 +4.768771E+02 +1.650635E+01 +4.857148E-01 +1.650635E+01 +3.796182E+02 
 +8.568587E+02 -5.476390E+00 +7.321855E+00 -5.476390E+00 +4.726326E+02 +2.861003E+01 +7.321855E+00 +2.861003E+01 +3.733255E+02 
 +8.648492E+02 -5.348917E+00 +4.230729E+00 -5.348917E+00 +4.796365E+02 +4.153251E+01 +4.230729E+00 +4.153251E+01 +3.816582E+02 
 +8.681255E+02 -6.450448E+00 -4.540884E+00 -6.450448E+00 +4.834683E+02 +3.559753E+01 -4.540884E+00 +3.559753E+01 +3.750190E+02 
 +8.676189E+02 -1.363255E+00 -2.094524E+00 -1.363255E+00 +4.742283E+02 +3.244007E+01 -2.094524E+00 +3.244007E+01 +3.506180E+02 
 +8.635409E+02 +2.753012E+00 +1.330332E-01 +2.753012E+00 +4.627453E+02 +3.794423E+01 +1.330332E-01 +3.794423E+01 +3.325695E+02 
 +8.733325E+02 +7.781205E+00 +2.535962E+00 +7.781205E+00 +4.743450E+02 +3.934618E+01 +2.535962E+00 +3.934618E+01 +3.348427E+02 
 +8.650566E+02 -4.817804E+00 +8.173287E+00 -4.817804E+00 +4.553206E+02 +2.942525E+01 +8.173287E+00 +2.942525E+01 +3.749849E+02 
 +8.619682E+02 -1.136810E+01 +7.408401E+00 -1.136810E+01 +4.502731E+02 +2.054667E+01 +7.408401E+00 +2.054667E+01 +4.073146E+02 
 +8.660556E+02 -8.962143E+00 +6.928363E+00 -8.962143E+00 +4.583373E+02 +2.243829E+01 +6.928363E+00 +2.243829E+01 +4.165121E+02 
 +8.254559E+02 -1.350834E+01 -8.604774E+00 -1.350834E+01 +4.665405E+02 +1.237424E+01 -8.604774E+00 +1.237424E+01 +4.020981E+02 
 +8.230917E+02 -7.808553E+00 -1.818577E+01 -7.808553E+00 +4.873699E+02 +5.984790E-01 -1.818577E+01 +5.984790E-01 +3.875781E+02 
 +8.197632E+02 -1.705217E+00 -1.717541E+01 -1.705217E+00 +4.856869E+02 -4.428670E+00 -1.717541E+01 -4.428670E+00 +3.728813E+02 
 +8.286620E+02 -6.606971E+00 -1.509561E+01 -6.606971E+00 +4.944523E+02 -1.180525E+01 -1.509561E+01 -1.180525E+01 +3.723776E+02 
 +8.482060E+02 -6.173511E+00 -1.201373E+01 -6.173511E+00 +4.927542E+02 -1.305387E+01 -1.201373E+01 -1.305387E+01 +3.731448E+02 
 +8.552453E+02 -1.006066E+00 -2.977048E+00 -1.006066E+00 +4.642821E+02 -1.218019E+01 -2.977048E+00 -1.218019E+01 +3.737635E+02 
 +8.592526E+02 +5.586068E-02 +7.019233E+00 +5.586068E-02 +4.459705E+02 -1.577735E+01 +7.019233E+00 -1.577735E+01 +3.695970E+02 
 +8.580026E+02 -2.177592E+00 +7.787594E+00 -2.177592E+00 +4.483163E+02 -1.968042E+01 +7.787594E+00 -1.968042E+01 +3.678112E+02 
 +8.499964E+02 +2.668003E+00 +1.216246E+01 +2.668003E+00 +4.433616E+02 -2.059767E+01 +1.216246E+01 -2.059767E+01 +3.594788E+02 
 +8.483682E+02 +1.430723E+00 +2.196119E+01 +1.430723E+00 +4.438913E+02 -1.136241E+01 +2.196119E+01 -1.136241E+01 +3.438968E+02 
 +8.515399E+02 -3.714391E+00 +1.340512E+01 -3.714391E+00 +4.551183E+02 +9.550647E+00 +1.340512E+01 +9.550647E+00 +3.382192E+02 
 +8.617470E+02 -1.192106E+00 +2.622113E+00 -1.192106E+00 +4.673558E+02 +1.484570E+01 +2.622113E+00 +1.484570E+01 +3.426723E+02 
 +8.611699E+02 -4.171161E+00 +1.580674E+01 -4.171161E+00 +4.799591E+02 +9.631004E+00 +1.580674E+01 +9.631004E+00 +3.584344E+02 
 +8.617993E+02 -4.597640E+00 +1.325785E+01 -4.597640E+00 +4.846650E+02 +1.760432E+01 +1.325785E+01 +1.760432E+01 +3.729623E+02 
 +8.741782E+02 -3.134430E+00 +1.474891E-01 -3.134430E+00 +4.823137E+02 +3.575392E+01 +1.474891E-01 +3.575392E+01 +3.699347E+02 
 +8.676427E+02 -3.672946E-01 -3.487204E+00 -3.672946E-01 +4.765566E+02 +2.912639E+01 -3.487204E+00 +2.912639E+01 +3.499352E+02 
 +8.594349E+02 +1.265115E+00 +6.530691E+00 +1.265115E+00 +4.778639E+02 +1.731521E+01 +6.530691E+00 +1.731521E+01 +3.402994E+02 
 +8.652213E+02 +2.560883E+00 +9.409207E+00 +2.560883E+00 +4.716497E+02 +3.084765E+01 +9.409207E+00 +3.084765E+01 +3.453224E+02 
 +8.734869E+02 -8.138805E+00 +7.935309E+00 -8.138805E+00 +4.719906E+02 +1.358908E+01 +7.935309E+00 +1.358908E+01 +3.942506E+02 
 +8.493103E+02 -9.744619E+00 +4.762522E+00 -9.744619E+00 +4.530742E+02 +1.522335E+01 +4.762522E+00 +1.522335E+01 +4.092477E+02 
 +8.406868E+02 -4.612104E+00 -2.404993E+00 -4.612104E+00 +4.410120E+02 +1.013896E+01 -2.404993E+00 +1.013896E+01 +4.003411E+02 
 +8.380446E+02 +4.606251E+00 -1.437564E+01 +4.606251E+00 +4.490111E+02 +2.754999E+00 -1.437564E+01 +2.754999E+00 +3.883390E+02 
 +8.162958E+02 -5.147058E+00 -1.829258E+01 -5.147058E+00 +4.642547E+02 -5.029212E+00 -1.829258E+01 -5.029212E+00 +3.764209E+02 
 +8.198768E+02 -3.397872E+00 -1.851282E+01 -3.397872E+00 +4.833034E+02 -5.232550E+00 -1.851282E+01 -5.232550E+00 +3.754546E+02 
 +8.345159E+02 -8.341557E+00 -1.822440E+01 -8.341557E+00 +5.017923E+02 -5.505414E+00 -1.822440E+01 -5.505414E+00 +3.761694E+02 
 +8.447592E+02 -1.199584E+01 -1.924158E+01 -1.199584E+01 +5.108341E+02 -1.381772E+01 -1.924158E+01 -1.381772E+01 +3.708274E+02 
 +8.744636E+02 -5.494100E+00 -9.553507E+00 -5.494100E+00 +5.214532E+02 -1.013170E+01 -9.553507E+00 -1.013170E+01 +3.706181E+02 
 +9.029603E+02 +6.379626E+00 +6.597334E+00 +6.379626E+00 +5.220233E+02 +1.125982E-01 +6.597334E+00 +1.125982E-01 +3.602395E+02 
 +8.915419E+02 +8.775520E+00 +1.055578E+01 +8.775520E+00 +5.103829E+02 +1.037293E+00 +1.055578E+01 +1.037293E+00 +3.459902E+02 
 +8.857992E+02 +1.235590E+01 +1.763546E+01 +1.235590E+01 +5.200691E+02 +3.768609E-01 +1.763546E+01 +3.768609E-01 +3.571392E+02 
 +8.788861E+02 +1.185797E+01 +2.122406E+01 +1.185797E+01 +5.156316E+02 +6.854096E-01 +2.122406E+01 +6.854096E-01 +3.467514E+02 
 +8.716186E+02 +2.615322E+00 +1.175399E+01 +2.615322E+00 +4.931053E+02 -5.130780E+00 +1.175399E+01 -5.130780E+00 +3.087390E+02 
 +8.678141E+02 -3.903047E-01 +6.767350E+00 -3.903047E-01 +4.767229E+02 -6.574406E+00 +6.767350E+00 -6.574406E+00 +2.943545E+02 
 +8.621187E+02 +3.086005E-02 +1.213467E+01 +3.086005E-02 +4.752628E+02 -4.487979E-01 +1.213467E+01 -4.487979E-01 +3.235765E+02 
 +8.647674E+02 -8.085048E-01 +1.595474E+01 -8.085048E-01 +4.855074E+02 +4.572702E+00 +1.595474E+01 +4.572702E+00 +3.541348E+02 
 +8.734911E+02 -2.061805E+00 +3.098275E+00 -2.061805E+00 +4.956053E+02 +3.717265E-01 +3.098275E+00 +3.717265E-01 +3.661269E+02 
 +8.579160E+02 -3.943155E+00 -6.286040E+00 -3.943155E+00 +4.882076E+02 -6.059811E+00 -6.286040E+00 -6.059811E+00 +3.523498E+02 
 +8.572011E+02 -3.683107E+00 +1.796699E+01 -3.683107E+00 +4.855951E+02 -1.459709E+00 +1.796699E+01 -1.459709E+00 +3.490912E+02 
 +8.744921E+02 -4.479821E+00 +1.692192E+01 -4.479821E+00 +4.862866E+02 +4.951009E+00 +1.692192E+01 +4.951009E+00 +3.689624E+02 
 +8.676695E+02 -1.097406E+01 +6.305767E+00 -1.097406E+01 +4.969325E+02 -8.239410E+00 +6.305767E+00 -8.239410E+00 +3.650985E+02 
 +8.614245E+02 -1.276837E+01 -2.462766E+00 -1.276837E+01 +5.088230E+02 -4.312315E+00 -2.462766E+00 -4.312315E+00 +3.783042E+02 
 +8.573943E+02 -9.596961E+00 -1.103410E+01 -9.596961E+00 +5.017768E+02 -1.020220E+01 -1.103410E+01 -1.020220E+01 +3.734545E+02 
 +8.543681E+02 +1.341729E+00 -1.486805E+01 +1.341729E+00 +4.842447E+02 -4.433657E+00 -1.486805E+01 -4.433657E+00 +3.710815E+02 
 +8.106646E+02 -9.970942E+00 -7.786404E+00 -9.970942E+00 +4.584224E+02 -5.205093E-01 -7.786404E+00 -5.205093E-01 +3.668441E+02 
 +8.301753E+02 -6.014319E+00 -1.443128E+01 -6.014319E+00 +4.825670E+02 -4.419994E+00 -1.443128E+01 -4.419994E+00 +3.864057E+02 
 +8.537693E+02 -6.503424E+00 -1.373902E+01 -6.503424E+00 +5.052230E+02 -7.942462E+00 -1.373902E+01 -7.942462E+00 +3.994102E+02 
 +8.561846E+02 -4.389084E+00 -9.984168E+00 -4.389084E+00 +5.081811E+02 -4.994386E+00 -9.984168E+00 -4.994386E+00 +3.898923E+02 
 +8.888753E+02 +1.000894E+01 -1.908392E+00 +1.000894E+01 +5.250914E+02 +4.075029E+00 -1.908392E+00 +4.075029E+00 +3.783039E+02 
 +8.992820E+02 +1.446868E+01 +3.080844E+00 +1.446868E+01 +5.258669E+02 +9.415596E+00 +3.080844E+00 +9.415596E+00 +3.575228E+02 
 +8.901555E+02 +1.320162E+01 +4.085059E+00 +1.320162E+01 +5.145425E+02 +4.722615E+00 +4.085059E+00 +4.722615E+00 +3.459913E+02 
 +8.824879E+02 +1.614290E+01 +1.112178E+01 +1.614290E+01 +5.146442E+02 -1.008207E+01 +1.112178E+01 -1.008207E+01 +3.491593E+02 
 +8.775374E+02 +1.076650E+01 +5.746587E+00 +1.076650E+01 +5.109620E+02 -2.835916E+01 +5.746587E+00 -2.835916E+01 +3.398528E+02 
 +8.771714E+02 +4.276308E+00 +1.138974E+00 +4.276308E+00 +4.995190E+02 -2.955570E+01 +1.138974E+00 -2.955570E+01 +3.183149E+02 
 +8.800391E+02 +2.437972E+00 +5.866471E+00 +2.437972E+00 +4.949558E+02 -2.296994E+01 +5.866471E+00 -2.296994E+01 +3.041863E+02 
 +8.835331E+02 +1.506491E+00 +8.912796E+00 +1.506491E+00 +4.984432E+02 -1.497878E+01 +8.912796E+00 -1.497878E+01 +3.246293E+02 
 +8.709697E+02 -3.754233E+00 +1.184175E+01 -3.754233E+00 +5.003210E+02 +1.532254E+00 +1.184175E+01 +1.532254E+00 +3.584431E+02 
 +8.638656E+02 -6.889669E+00 -9.145191E+00 -6.889669E+00 +5.065366E+02 +5.240068E+00 -9.145191E+00 +5.240068E+00 +3.658849E+02 
 +8.496643E+02 -6.924160E+00 -7.221804E+00 -6.924160E+00 +4.953823E+02 +4.645802E+00 -7.221804E+00 +4.645802E+00 +3.433057E+02 
 +8.520057E+02 -5.945599E+00 +1.778472E+01 -5.945599E+00 +4.797542E+02 -4.406563E+00 +1.778472E+01 -4.406563E+00 +3.356429E+02 
 +8.716722E+02 -5.798845E+00 +1.101857E+01 -5.798845E+00 +4.834600E+02 -1.575287E+01 +1.101857E+01 -1.575287E+01 +3.520345E+02 
 +8.674814E+02 -1.021362E+01 -1.626273E+00 -1.021362E+01 +5.108155E+02 +3.789490E-01 -1.626273E+00 +3.789490E-01 +3.525329E+02 
 +8.566872E+02 -1.129925E+01 -6.680846E+00 -1.129925E+01 +5.155567E+02 -6.815045E+00 -6.680846E+00 -6.815045E+00 +3.530486E+02 
 +8.578378E+02 -1.177695E+01 -5.955817E+00 -1.177695E+01 +5.231369E+02 -7.365510E+00 -5.955817E+00 -7.365510E+00 +3.570535E+02 
 +8.488905E+02 -9.357179E+00 -3.505153E+00 -9.357179E+00 +5.039223E+02 -6.007384E-01 -3.505153E+00 -6.007384E-01 +3.581028E+02 
 +8.324408E+02 -6.333145E+00 +8.307063E-01 -6.333145E+00 +4.745813E+02 -8.700132E+00 +8.307063E-01 -8.700132E+00 +3.614456E+02 
 +8.530688E+02 +5.684803E+00 -2.450000E+00 +5.684803E+00 +4.820700E+02 -2.035346E+01 -2.450000E+00 -2.035346E+01 +3.793886E+02 
 +8.668132E+02 +8.954326E+00 -3.670751E+00 +8.954326E+00 +4.942855E+02 -6.879518E+00 -3.670751E+00 -6.879518E+00 +3.895304E+02 
 +8.771308E+02 +8.236405E+00 -1.699780E+00 +8.236405E+00 +5.122312E+02 +3.565389E+00 -1.699780E+00 +3.565389E+00 +3.912378E+02 
 +8.870058E+02 +1.171796E+01 +3.393130E+00 +1.171796E+01 +5.223362E+02 +4.156952E+00 +3.393130E+00 +4.156952E+00 +3.823708E+02 
 +8.837121E+02 +1.126796E+01 +4.139976E-01 +1.126796E+01 +5.160234E+02 +3.548868E+00 +4.139976E-01 +3.548868E+00 +3.680376E+02 
 +8.835063E+02 +1.387261E+01 -2.959483E+00 +1.387261E+01 +5.114660E+02 +2.210566E+00 -2.959483E+00 +2.210566E+00 +3.648903E+02 
 +8.772567E+02 +2.084504E+01 -1.544515E+00 +2.084504E+01 +5.035877E+02 -4.982287E+00 -1.544515E+00 -4.982287E+00 +3.520708E+02 
 +8.815046E+02 +1.234546E+01 -8.679140E+00 +1.234546E+01 +5.028551E+02 -1.573436E+01 -8.679140E+00 -1.573436E+01 +3.344492E+02 
 +8.844192E+02 +5.664092E+00 -9.029741E+00 +5.664092E+00 +5.050315E+02 -1.829753E+01 -9.029741E+00 -1.829753E+01 +3.344426E+02 
 +8.898404E+02 +3.561564E+00 -2.131193E+00 +3.561564E+00 +5.083820E+02 -1.545155E+01 -2.131193E+00 -1.545155E+01 +3.332440E+02 
 +9.000046E+02 +1.287855E+00 +7.459914E+00 +1.287855E+00 +5.194053E+02 -3.467077E+00 +7.459914E+00 -3.467077E+00 +3.482692E+02 
 +8.649276E+02 -2.652235E+00 +5.471183E+00 -2.652235E+00 +5.121407E+02 +8.382874E+00 +5.471183E+00 +8.382874E+00 +3.709037E+02 
 +8.553238E+02 -8.349161E+00 -1.502855E+01 -8.349161E+00 +5.065684E+02 +9.590164E+00 -1.502855E+01 +9.590164E+00 +3.744008E+02 
 +8.573422E+02 -1.005159E+01 -8.887125E+00 -1.005159E+01 +5.002391E+02 +1.215848E+01 -8.887125E+00 +1.215848E+01 +3.647683E+02 
 +8.670189E+02 -1.189722E+01 +1.422316E+00 -1.189722E+01 +5.056570E+02 +9.348687E+00 +1.422316E+00 +9.348687E+00 +3.635663E+02 
 +8.761032E+02 -1.227543E+01 +2.800547E+00 -1.227543E+01 +5.113416E+02 +6.228832E+00 +2.800547E+00 +6.228832E+00 +3.598198E+02 
 +8.789736E+02 -3.453182E+00 -6.799868E+00 -3.453182E+00 +5.268464E+02 +9.326939E+00 -6.799868E+00 +9.326939E+00 +3.724268E+02 
 +8.602568E+02 -5.952058E+00 -4.513603E+00 -5.952058E+00 +5.209137E+02 +1.418257E+00 -4.513603E+00 +1.418257E+00 +3.605702E+02 
 +8.515943E+02 -7.285630E+00 +4.081743E+00 -7.285630E+00 +5.171414E+02 -2.085742E+00 +4.081743E+00 -2.085742E+00 +3.543937E+02 
 +8.455504E+02 -7.454301E+00 +7.429407E+00 -7.454301E+00 +4.992636E+02 -8.613820E+00 +7.429407E+00 -8.613820E+00 +3.472950E+02 
 +8.610685E+02 +3.135447E+00 +3.735482E+00 +3.135447E+00 +4.972899E+02 -2.393781E+01 +3.735482E+00 -2.393781E+01 +3.627468E+02 
 +8.774424E+02 +5.960062E+00 +4.010228E+00 +5.960062E+00 +5.019559E+02 -2.978740E+01 +4.010228E+00 -2.978740E+01 +3.796962E+02 
 +8.805489E+02 +5.221416E+00 -6.508529E-01 +5.221416E+00 +5.008976E+02 -2.055728E+01 -6.508529E-01 -2.055728E+01 +3.809108E+02 
 +8.813576E+02 +3.638887E+00 +1.792967E+00 +3.638887E+00 +5.101513E+02 -3.207301E+00 +1.792967E+00 -3.207301E+00 +3.808991E+02 
 +8.764373E+02 +6.076809E+00 +3.242719E+00 +6.076809E+00 +5.136567E+02 +8.574448E+00 +3.242719E+00 +8.574448E+00 +3.737779E+02 
 +8.773337E+02 +9.210601E+00 -2.714628E-01 +9.210601E+00 +5.110643E+02 +9.078107E+00 -2.714628E-01 +9.078107E+00 +3.673869E+02 
 +8.753856E+02 +1.156789E+01 -4.473684E+00 +1.156789E+01 +5.046555E+02 +8.842866E+00 -4.473684E+00 +8.842866E+00 +3.652305E+02 
 +8.708724E+02 +1.988582E+01 -1.139938E+01 +1.988582E+01 +4.957538E+02 -2.048127E-01 -1.139938E+01 -2.048127E-01 +3.516578E+02 
 +8.797608E+02 +9.241104E+00 -1.757378E+01 +9.241104E+00 +4.931590E+02 -1.446708E+01 -1.757378E+01 -1.446708E+01 +3.288930E+02 
 +8.769802E+02 +2.778640E+00 -1.455567E+01 +2.778640E+00 +4.898368E+02 -1.613430E+01 -1.455567E+01 -1.613430E+01 +3.204646E+02 
 +8.769668E+02 +2.235800E+00 -6.122558E+00 +2.235800E+00 +4.923370E+02 -1.227402E+01 -6.122558E+00 -1.227402E+01 +3.226983E+02 
 +8.851189E+02 -3.360733E-01 +4.747180E+00 -3.360733E-01 +5.034403E+02 -3.717717E+00 +4.747180E+00 -3.717717E+00 +3.425611E+02 
 +8.463871E+02 -3.866109E+00 -2.823749E+00 -3.866109E+00 +4.932726E+02 +7.525018E+00 -2.823749E+00 +7.525018E+00 +3.617250E+02 
 +8.484700E+02 -7.798114E+00 -1.540068E+01 -7.798114E+00 +4.995970E+02 +1.217469E+01 -1.540068E+01 +1.217469E+01 +3.763968E+02 
 +8.627191E+02 -6.789239E+00 -1.289491E+01 -6.789239E+00 +5.111236E+02 +1.692424E+01 -1.289491E+01 +1.692424E+01 +3.815509E+02 
 +8.710612E+02 -9.072915E+00 -1.387903E+01 -9.072915E+00 +5.205500E+02 +2.251548E+01 -1.387903E+01 +2.251548E+01 +3.819063E+02 
 +8.778470E+02 -7.224883E+00 -7.871379E+00 -7.224883E+00 +5.254969E+02 +1.935805E+01 -7.871379E+00 +1.935805E+01 +3.791307E+02 
 +8.846267E+02 -3.198518E+00 -5.188941E+00 -3.198518E+00 +5.414951E+02 +1.480130E+01 -5.188941E+00 +1.480130E+01 +3.811330E+02 
 +8.686381E+02 -1.786110E+00 -2.493739E+00 -1.786110E+00 +5.283085E+02 +1.087420E+00 -2.493739E+00 +1.087420E+00 +3.672853E+02 
 +8.577717E+02 -5.972129E+00 +3.973183E+00 -5.972129E+00 +5.146429E+02 -5.704551E+00 +3.973183E+00 -5.704551E+00 +3.664452E+02 
 +8.625077E+02 -8.153298E+00 +7.580713E+00 -8.153298E+00 +5.084709E+02 -1.272594E+01 +7.580713E+00 -1.272594E+01 +3.670468E+02 
 +8.695557E+02 +1.968513E+00 +7.548045E+00 +1.968513E+00 +5.083110E+02 -2.689572E+01 +7.548045E+00 -2.689572E+01 +3.680328E+02 
 +8.814174E+02 +2.725404E+00 +7.852106E+00 +2.725404E+00 +5.067084E+02 -2.879513E+01 +7.852106E+00 -2.879513E+01 +3.754511E+02 
 +8.840328E+02 +6.560080E+00 +4.068908E+00 +6.560080E+00 +5.036998E+02 -1.437493E+01 +4.068908E+00 -1.437493E+01 +3.865468E+02 
 +8.862460E+02 +6.459865E+00 +1.062715E+01 +6.459865E+00 +5.098863E+02 +3.365946E+00 +1.062715E+01 +3.365946E+00 +3.909558E+02 
 +8.780480E+02 +2.747162E+00 +6.832045E+00 +2.747162E+00 +5.080534E+02 +9.959928E+00 +6.832045E+00 +9.959928E+00 +3.758022E+02 
 +8.737429E+02 +4.703003E+00 +1.089281E+00 +4.703003E+00 +5.034187E+02 +1.004615E+01 +1.089281E+00 +1.004615E+01 +3.624299E+02 
 +8.767997E+02 +1.115421E+01 -3.518398E+00 +1.115421E+01 +5.065039E+02 +1.038451E+01 -3.518398E+00 +1.038451E+01 +3.602943E+02 
 +8.638246E+02 +1.696966E+01 -1.783286E+01 +1.696966E+01 +4.865010E+02 +1.355495E+01 -1.783286E+01 +1.355495E+01 +3.505402E+02 
 +8.617616E+02 +5.841712E+00 -1.840070E+01 +5.841712E+00 +4.526818E+02 +2.425753E+01 -1.840070E+01 +2.425753E+01 +3.406058E+02 
 +8.529451E+02 +3.219309E+00 -1.202959E+01 +3.219309E+00 +4.303316E+02 +3.043797E+01 -1.202959E+01 +3.043797E+01 +3.370045E+02 
 +8.537112E+02 +3.470148E+00 -3.907531E+00 +3.470148E+00 +4.363950E+02 +3.006694E+01 -3.907531E+00 +3.006694E+01 +3.421210E+02 
 +8.597718E+02 +5.613217E+00 +2.398787E+00 +5.613217E+00 +4.629061E+02 +2.861706E+01 +2.398787E+00 +2.861706E+01 +3.547607E+02 
 +8.299121E+02 -1.109321E+00 -5.803356E+00 -1.109321E+00 +4.727972E+02 +1.809435E+01 -5.803356E+00 +1.809435E+01 +3.592163E+02 
 +8.510405E+02 -9.395018E+00 -1.485229E+01 -9.395018E+00 +5.004529E+02 +1.448611E+01 -1.485229E+01 +1.448611E+01 +3.797731E+02 
 +8.592518E+02 -7.057057E+00 -1.802546E+01 -7.057057E+00 +5.119399E+02 +1.804714E+01 -1.802546E+01 +1.804714E+01 +3.807188E+02 
 +8.685897E+02 -7.043224E+00 -2.028055E+01 -7.043224E+00 +5.220537E+02 +2.266346E+01 -2.028055E+01 +2.266346E+01 +3.788131E+02 
 +8.819206E+02 -5.658733E+00 -1.717184E+01 -5.658733E+00 +5.393778E+02 +2.416346E+01 -1.717184E+01 +2.416346E+01 +3.884418E+02 
 +8.868648E+02 +1.840241E+00 -6.478036E+00 +1.840241E+00 +5.361550E+02 +8.688270E+00 -6.478036E+00 +8.688270E+00 +3.842335E+02 
 +8.760337E+02 +1.787448E+00 -3.401829E+00 +1.787448E+00 +5.315181E+02 +3.693182E-01 -3.401829E+00 +3.693182E-01 +3.796220E+02 
 +8.680415E+02 -8.948144E+00 +1.170984E+00 -8.948144E+00 +5.197360E+02 -1.938138E-02 +1.170984E+00 -1.938138E-02 +3.897229E+02 
 +8.656280E+02 -9.749422E+00 +8.093215E+00 -9.749422E+00 +5.139342E+02 -6.416590E+00 +8.093215E+00 -6.416590E+00 +3.958652E+02 
 +8.928720E+02 -1.111255E+00 +1.137934E+01 -1.111255E+00 +5.234217E+02 -2.029282E+01 +1.137934E+01 -2.029282E+01 +3.918661E+02 
 +8.910406E+02 +2.993624E+00 +1.166325E+01 +2.993624E+00 +5.127022E+02 -1.981240E+01 +1.166325E+01 -1.981240E+01 +3.822070E+02 
 +8.802711E+02 +8.073265E+00 +8.835406E+00 +8.073265E+00 +5.027691E+02 -8.170285E+00 +8.835406E+00 -8.170285E+00 +3.870652E+02 
 +8.801208E+02 +9.904001E+00 +1.190205E+01 +9.904001E+00 +5.038057E+02 +4.354434E+00 +1.190205E+01 +4.354434E+00 +3.898313E+02 
 +8.778928E+02 +3.522119E+00 +1.154468E+01 +3.522119E+00 +5.047432E+02 +1.246925E+01 +1.154468E+01 +1.246925E+01 +3.796135E+02 
 +8.754987E+02 +4.704745E+00 +3.315991E+00 +4.704745E+00 +5.027911E+02 +1.861088E+01 +3.315991E+00 +1.861088E+01 +3.621399E+02 
 +8.845951E+02 +1.152563E+01 -3.477450E+00 +1.152563E+01 +5.091620E+02 +2.087570E+01 -3.477450E+00 +2.087570E+01 +3.515396E+02 
 +8.764401E+02 +1.030649E+01 -1.207898E+01 +1.030649E+01 +4.957648E+02 +2.624152E+01 -1.207898E+01 +2.624152E+01 +3.511281E+02 
 +8.666563E+02 -1.550543E-01 -1.707593E+01 -1.550543E-01 +4.695886E+02 +3.380910E+01 -1.707593E+01 +3.380910E+01 +3.592194E+02 
 +8.535885E+02 +6.192334E-01 -1.359390E+01 +6.192334E-01 +4.472403E+02 +3.446016E+01 -1.359390E+01 +3.446016E+01 +3.595887E+02 
 +8.559506E+02 -6.201450E-02 -5.006988E+00 -6.201450E-02 +4.497628E+02 +3.503829E+01 -5.006988E+00 +3.503829E+01 +3.723046E+02 
 +8.546258E+02 +2.193356E+00 +2.967343E-01 +2.193356E+00 +4.655865E+02 +3.468670E+01 +2.967343E-01 +3.468670E+01 +3.851930E+02 
 +8.389776E+02 -4.798204E+00 -8.499889E+00 -4.798204E+00 +4.804025E+02 +1.940026E+01 -8.499889E+00 +1.940026E+01 +3.831770E+02 
 +8.618926E+02 -1.106276E+01 -1.668316E+01 -1.106276E+01 +5.084087E+02 +1.078112E+01 -1.668316E+01 +1.078112E+01 +3.954900E+02 
 +8.651994E+02 -8.007169E+00 -2.029725E+01 -8.007169E+00 +5.165705E+02 +1.563197E+01 -2.029725E+01 +1.563197E+01 +3.916062E+02 
 +8.685739E+02 -8.061707E+00 -2.135073E+01 -8.061707E+00 +5.214307E+02 +1.805304E+01 -2.135073E+01 +1.805304E+01 +3.808881E+02 
 +8.758512E+02 -3.324056E+00 -1.656758E+01 -3.324056E+00 +5.259912E+02 +1.566064E+01 -1.656758E+01 +1.566064E+01 +3.813739E+02 
 +8.832858E+02 -1.058525E+00 -3.721464E+00 -1.058525E+00 +5.279094E+02 +1.532452E+01 -3.721464E+00 +1.532452E+01 +3.850911E+02 
 +9.002077E+02 -1.598257E+00 -2.900822E+00 -1.598257E+00 +5.462346E+02 +1.654498E+01 -2.900822E+00 +1.654498E+01 +3.988502E+02 
 +8.859769E+02 -9.500096E+00 -6.006695E+00 -9.500096E+00 +5.407139E+02 +1.124491E+01 -6.006695E+00 +1.124491E+01 +3.998330E+02 
 +8.640402E+02 -2.642716E+00 +7.436862E+00 -2.642716E+00 +5.297240E+02 -2.657072E+00 +7.436862E+00 -2.657072E+00 +4.005934E+02 
 +9.116097E+02 -7.083397E+00 +1.855141E+01 -7.083397E+00 +5.424960E+02 -1.039860E+01 +1.855141E+01 -1.039860E+01 +4.160560E+02 
 +8.982210E+02 -4.226691E+00 +1.363199E+01 -4.226691E+00 +5.210227E+02 -1.240930E+01 +1.363199E+01 -1.240930E+01 +3.992354E+02 
 +8.880017E+02 +1.367002E-01 +1.192938E+01 +1.367002E-01 +5.161857E+02 -4.407583E+00 +1.192938E+01 -4.407583E+00 +3.891701E+02 
 +8.780867E+02 +7.899506E+00 +7.747261E+00 +7.899506E+00 +5.062022E+02 +6.129440E+00 +7.747261E+00 +6.129440E+00 +3.750903E+02 
 +8.761680E+02 +2.827847E+00 -3.832669E-02 +2.827847E+00 +5.028666E+02 -6.424384E+00 -3.832669E-02 -6.424384E+00 +3.703363E+02 
 +8.697902E+02 +3.420361E+00 -1.654185E+00 +3.420361E+00 +4.944852E+02 -2.689421E+01 -1.654185E+00 -2.689421E+01 +3.594291E+02 
 +8.712608E+02 +8.038193E+00 -6.210381E+00 +8.038193E+00 +4.874256E+02 -3.328787E+01 -6.210381E+00 -3.328787E+01 +3.437455E+02 
 +8.839403E+02 -3.120435E+00 -8.709556E+00 -3.120435E+00 +4.881862E+02 -3.433623E+01 -8.709556E+00 -3.433623E+01 +3.451374E+02 
 +8.766248E+02 -5.739355E+00 -1.465806E+01 -5.739355E+00 +4.935842E+02 -2.797571E+01 -1.465806E+01 -2.797571E+01 +3.564951E+02 
 +8.631965E+02 -2.959778E+00 -1.091336E+01 -2.959778E+00 +4.880660E+02 -1.494917E+01 -1.091336E+01 -1.494917E+01 +3.638154E+02 
 +8.376922E+02 +4.850093E+00 -1.086390E+01 +4.850093E+00 +4.685222E+02 +2.292352E+00 -1.086390E+01 +2.292352E+00 +3.750032E+02 
 +8.389081E+02 +4.250742E+00 -3.681932E+00 +4.250742E+00 +4.719779E+02 +7.514703E+00 -3.681932E+00 +7.514703E+00 +4.001381E+02 
 +8.470388E+02 -2.487182E+00 -4.369073E+00 -2.487182E+00 +4.764590E+02 +3.685755E+00 -4.369073E+00 +3.685755E+00 +4.052592E+02 
 +8.614124E+02 -1.286215E+01 -1.120247E+01 -1.286215E+01 +5.022256E+02 +2.907536E+00 -1.120247E+01 +2.907536E+00 +4.004414E+02 
 +8.830870E+02 -1.333552E+01 -1.259349E+01 -1.333552E+01 +5.259286E+02 +1.413648E+01 -1.259349E+01 +1.413648E+01 +3.960052E+02 
 +8.740609E+02 -7.644139E+00 -1.816664E+01 -7.644139E+00 +5.187030E+02 +2.189275E+01 -1.816664E+01 +2.189275E+01 +3.771885E+02 
 +8.749561E+02 -4.493036E+00 -1.266089E+01 -4.493036E+00 +5.194388E+02 +2.005081E+01 -1.266089E+01 +2.005081E+01 +3.743603E+02 
 +8.789183E+02 -2.905723E+00 -3.771816E+00 -2.905723E+00 +5.122090E+02 +1.874535E+01 -3.771816E+00 +1.874535E+01 +3.863647E+02 
 +8.958243E+02 -1.034854E-02 +1.913442E-01 -1.034854E-02 +5.060370E+02 +1.517794E+01 +1.913442E-01 +1.517794E+01 +4.001043E+02 
 +8.819660E+02 -6.300223E+00 -5.732540E+00 -6.300223E+00 +5.218622E+02 +1.358598E+01 -5.732540E+00 +1.358598E+01 +3.971074E+02 
 +8.882689E+02 -2.975054E+00 +3.838806E+00 -2.975054E+00 +5.459551E+02 +6.861941E+00 +3.838806E+00 +6.861941E+00 +4.026168E+02 
 +8.922914E+02 -6.144448E+00 +1.427635E+01 -6.144448E+00 +5.356995E+02 -4.750046E-01 +1.427635E+01 -4.750046E-01 +4.070445E+02 
 +8.853975E+02 +2.349805E+00 +6.349703E+00 +2.349805E+00 +5.255027E+02 -4.586623E+00 +6.349703E+00 -4.586623E+00 +4.000378E+02 
 +8.904918E+02 -2.304510E+00 +5.641384E+00 -2.304510E+00 +5.287367E+02 -1.327756E+01 +5.641384E+00 -1.327756E+01 +3.907156E+02 
 +8.841398E+02 -6.826366E-01 -1.963917E+00 -6.826366E-01 +5.166037E+02 -1.971984E+01 -1.963917E+00 -1.971984E+01 +3.642804E+02 
 +8.811944E+02 -1.733510E+00 -6.346341E+00 -1.733510E+00 +5.082777E+02 -1.633392E+01 -6.346341E+00 -1.633392E+01 +3.471683E+02 
 +8.794182E+02 +6.090058E-01 -1.795425E+00 +6.090058E-01 +5.082679E+02 -1.152990E+01 -1.795425E+00 -1.152990E+01 +3.507778E+02 
 +8.742629E+02 +7.150122E+00 -1.358558E+01 +7.150122E+00 +4.954182E+02 -1.532913E+01 -1.358558E+01 -1.532913E+01 +3.459903E+02 
 +8.886073E+02 -1.711636E+00 -1.273893E+01 -1.711636E+00 +4.936454E+02 -2.390026E+01 -1.273893E+01 -2.390026E+01 +3.442208E+02 
 +8.868007E+02 -1.618290E+00 -9.743650E+00 -1.618290E+00 +5.001463E+02 -2.123877E+01 -9.743650E+00 -2.123877E+01 +3.539180E+02 
 +8.908755E+02 -3.757598E+00 -2.318607E+00 -3.757598E+00 +5.197624E+02 -1.178857E+01 -2.318607E+00 -1.178857E+01 +3.795509E+02 
 +8.379510E+02 +1.519782E+01 -8.460184E+00 +1.519782E+01 +5.083977E+02 +2.701608E+00 -8.460184E+00 +2.701608E+00 +3.873015E+02 
 +8.422445E+02 +1.405936E+01 -5.136456E+00 +1.405936E+01 +5.151634E+02 +1.119070E+01 -5.136456E+00 +1.119070E+01 +4.134562E+02 
 +8.612080E+02 +8.153251E+00 -5.966766E-01 +8.153251E+00 +5.155476E+02 +8.277437E+00 -5.966766E-01 +8.277437E+00 +4.272969E+02 
 +8.669595E+02 +4.562989E+00 -4.981724E+00 +4.562989E+00 +5.182912E+02 -2.172552E+00 -4.981724E+00 -2.172552E+00 +4.135497E+02 
 +9.049027E+02 -8.625532E+00 -2.450690E+00 -8.625532E+00 +5.410875E+02 -3.866258E+00 -2.450690E+00 -3.866258E+00 +4.013484E+02 
 +8.852051E+02 -5.417130E+00 -5.601469E+00 -5.417130E+00 +5.256044E+02 +8.840800E+00 -5.601469E+00 +8.840800E+00 +3.727880E+02 
 +8.688182E+02 -6.350174E+00 -7.715399E+00 -6.350174E+00 +5.184257E+02 +2.138552E+01 -7.715399E+00 +2.138552E+01 +3.702629E+02 
 +8.801718E+02 -5.299110E-01 -4.834847E+00 -5.299110E-01 +4.886947E+02 +1.026467E+01 -4.834847E+00 +1.026467E+01 +3.975715E+02 
 +8.813407E+02 +6.940675E+00 +2.847768E+00 +6.940675E+00 +4.853734E+02 +7.348301E+00 +2.847768E+00 +7.348301E+00 +3.988565E+02 
 +8.663346E+02 +8.419833E+00 +7.193015E+00 +8.419833E+00 +4.787021E+02 +3.900584E+00 +7.193015E+00 +3.900584E+00 +3.868444E+02 
 +8.736359E+02 +2.700213E-01 +6.890955E+00 +2.700213E-01 +4.884074E+02 +9.813487E-01 +6.890955E+00 +9.813487E-01 +3.811518E+02 
 +8.691515E+02 -5.019824E+00 -1.087743E+00 -5.019824E+00 +5.112172E+02 -4.298920E+00 -1.087743E+00 -4.298920E+00 +3.818045E+02 
 +8.696787E+02 +6.673746E+00 -6.039772E+00 +6.673746E+00 +5.213807E+02 -9.188974E+00 -6.039772E+00 -9.188974E+00 +3.860707E+02 
 +8.673362E+02 +9.287584E+00 -8.650965E+00 +9.287584E+00 +5.077011E+02 -1.205650E+01 -8.650965E+00 -1.205650E+01 +3.748864E+02 
 +8.680101E+02 +9.322399E+00 -9.762161E+00 +9.322399E+00 +5.011516E+02 -5.368654E+00 -9.762161E+00 -5.368654E+00 +3.512528E+02 
 +8.761203E+02 +2.314443E+00 -5.057203E+00 +2.314443E+00 +5.018877E+02 -1.187759E+00 -5.057203E+00 -1.187759E+00 +3.316403E+02 
 +8.773373E+02 -1.767916E+00 -3.768436E+00 -1.767916E+00 +5.023065E+02 -1.663291E+01 -3.768436E+00 -1.663291E+01 +3.367838E+02 
 +8.808916E+02 -1.420574E+00 -1.729969E+01 -1.420574E+00 +4.984151E+02 -2.645802E+01 -1.729969E+01 -2.645802E+01 +3.431457E+02 
 +8.848993E+02 -4.032436E+00 -1.492312E+01 -4.032436E+00 +4.972407E+02 -2.314092E+01 -1.492312E+01 -2.314092E+01 +3.396595E+02 
 +8.905901E+02 -3.386069E+00 -9.568902E+00 -3.386069E+00 +5.064014E+02 -1.742317E+01 -9.568902E+00 -1.742317E+01 +3.495947E+02 
 +8.971958E+02 -7.480476E+00 +2.097228E-01 -7.480476E+00 +5.207236E+02 -9.165240E+00 +2.097228E-01 -9.165240E+00 +3.709561E+02 
 +8.252277E+02 +8.646629E+00 -5.234930E+00 +8.646629E+00 +4.950730E+02 +2.511452E-01 -5.234930E+00 +2.511452E-01 +3.665430E+02 
 +8.313733E+02 +9.400804E+00 -2.008123E+00 +9.400804E+00 +5.032290E+02 +3.357183E+00 -2.008123E+00 +3.357183E+00 +3.883473E+02 
 +8.344397E+02 +1.073950E+01 -7.824172E-01 +1.073950E+01 +5.047668E+02 -1.306069E+00 -7.824172E-01 -1.306069E+00 +4.023941E+02 
 +8.545978E+02 +8.900320E+00 -2.953281E+00 +8.900320E+00 +5.117989E+02 -5.267266E+00 -2.953281E+00 -5.267266E+00 +4.078791E+02 
 +8.957468E+02 -8.684859E+00 +4.182432E+00 -8.684859E+00 +5.251599E+02 +1.190853E+00 +4.182432E+00 +1.190853E+00 +3.955660E+02 
 +8.904962E+02 -4.172538E+00 +2.223597E+00 -4.172538E+00 +5.250092E+02 +7.084523E+00 +2.223597E+00 +7.084523E+00 +3.789967E+02 
 +8.791680E+02 -6.736733E+00 -5.653898E+00 -6.736733E+00 +5.108040E+02 +7.929164E+00 -5.653898E+00 +7.929164E+00 +3.883637E+02 
 +8.753175E+02 -5.584959E-01 +8.409807E-01 -5.584959E-01 +4.773841E+02 +7.438016E+00 +8.409807E-01 +7.438016E+00 +3.983395E+02 
 +8.799639E+02 +1.036961E+01 +4.800881E+00 +1.036961E+01 +4.924212E+02 +7.225664E+00 +4.800881E+00 +7.225664E+00 +4.007454E+02 
 +8.873618E+02 +7.380196E+00 +9.159658E+00 +7.380196E+00 +5.013253E+02 +1.850116E+00 +9.159658E+00 +1.850116E+00 +4.029518E+02 
 +8.827829E+02 +2.261455E+00 +6.439623E+00 +2.261455E+00 +4.985272E+02 -4.092500E+00 +6.439623E+00 -4.092500E+00 +3.935901E+02 
 +8.593667E+02 +3.042636E+00 -1.603346E+01 +3.042636E+00 +4.948977E+02 -8.905819E+00 -1.603346E+01 -8.905819E+00 +3.753802E+02 
 +8.628307E+02 +2.250811E+00 -1.408873E+01 +2.250811E+00 +5.043090E+02 -8.361424E+00 -1.408873E+01 -8.361424E+00 +3.734790E+02 
 +8.639349E+02 +8.779081E+00 -1.737260E+01 +8.779081E+00 +5.054245E+02 -1.346281E+01 -1.737260E+01 -1.346281E+01 +3.722240E+02 
 +8.641579E+02 +1.217977E+01 -1.277210E+01 +1.217977E+01 +5.012353E+02 -1.569668E+01 -1.277210E+01 -1.569668E+01 +3.623613E+02 
 +8.596448E+02 +9.261519E+00 -1.142279E+01 +9.261519E+00 +4.925833E+02 -7.643453E+00 -1.142279E+01 -7.643453E+00 +3.430231E+02 
 +8.690309E+02 +1.257349E+00 -1.670773E+01 +1.257349E+00 +4.971789E+02 -9.869886E+00 -1.670773E+01 -9.869886E+00 +3.388188E+02 
 +8.805020E+02 -4.491743E+00 -1.940329E+01 -4.491743E+00 +4.978405E+02 -2.145367E+01 -1.940329E+01 -2.145367E+01 +3.396980E+02 
 +8.827849E+02 -2.492485E+00 -1.281493E+01 -2.492485E+00 +5.015002E+02 -1.920509E+01 -1.281493E+01 -1.920509E+01 +3.443912E+02 
 +8.863195E+02 -7.313866E+00 -1.123735E+01 -7.313866E+00 +5.060241E+02 -1.598693E+01 -1.123735E+01 -1.598693E+01 +3.455751E+02 
 +8.947325E+02 -5.118753E+00 -2.806196E+00 -5.118753E+00 +5.166742E+02 -1.652507E+01 -2.806196E+00 -1.652507E+01 +3.568401E+02 
 +8.230446E+02 +8.813877E+00 -4.183584E+00 +8.813877E+00 +4.885692E+02 -6.780437E+00 -4.183584E+00 -6.780437E+00 +3.573375E+02 
 +8.320339E+02 +3.530741E+00 -3.711159E+00 +3.530741E+00 +4.991580E+02 +3.452002E-01 -3.711159E+00 +3.452002E-01 +3.808405E+02 
 +8.335454E+02 +7.243833E+00 +2.071612E+00 +7.243833E+00 +5.030978E+02 -1.549860E+00 +2.071612E+00 -1.549860E+00 +3.837193E+02 
 +8.412579E+02 +1.014436E+01 +6.704419E+00 +1.014436E+01 +4.926091E+02 -1.675587E+00 +6.704419E+00 -1.675587E+00 +3.847408E+02 
 +8.692223E+02 +1.010089E-02 +3.739417E+00 +1.010089E-02 +4.823425E+02 -1.114423E+00 +3.739417E+00 -1.114423E+00 +3.850249E+02 
 +8.602218E+02 +5.404960E+00 -3.644221E-01 +5.404960E+00 +4.530164E+02 -1.913991E+00 -3.644221E-01 -1.913991E+00 +3.761628E+02 
 +8.656070E+02 -1.182001E+00 -2.386627E+00 -1.182001E+00 +4.542080E+02 +1.492932E+00 -2.386627E+00 +1.492932E+00 +3.885710E+02 
 +8.769618E+02 -2.586350E+00 +4.507093E+00 -2.586350E+00 +4.980354E+02 +5.227696E+00 +4.507093E+00 +5.227696E+00 +3.853807E+02 
 +8.853097E+02 +3.338215E+00 +3.533458E-01 +3.338215E+00 +5.044902E+02 +2.898800E+00 +3.533458E-01 +2.898800E+00 +3.987420E+02 
 +8.922544E+02 +1.361418E+00 -3.681509E+00 +1.361418E+00 +5.021252E+02 -5.477638E+00 -3.681509E+00 -5.477638E+00 +4.103412E+02 
 +8.984089E+02 +1.209984E+00 -5.460489E+00 +1.209984E+00 +5.087874E+02 -1.298850E+01 -5.460489E+00 -1.298850E+01 +4.077732E+02 
 +8.700546E+02 +6.571895E+00 -2.128482E+01 +6.571895E+00 +4.988307E+02 -1.621714E+01 -2.128482E+01 -1.621714E+01 +3.892879E+02 
 +8.581700E+02 +3.919302E+00 -1.795091E+01 +3.919302E+00 +4.924659E+02 -1.170432E+01 -1.795091E+01 -1.170432E+01 +3.771618E+02 
 +8.617225E+02 +1.051216E+01 -1.807902E+01 +1.051216E+01 +4.938134E+02 -9.928277E+00 -1.807902E+01 -9.928277E+00 +3.733162E+02 
 +8.640658E+02 +1.238832E+01 -1.345409E+01 +1.238832E+01 +4.950506E+02 -8.016817E+00 -1.345409E+01 -8.016817E+00 +3.660754E+02 
 +8.536629E+02 +1.349905E+01 -1.344327E+01 +1.349905E+01 +4.887817E+02 -7.922409E+00 -1.344327E+01 -7.922409E+00 +3.574046E+02 
 +8.502216E+02 +6.674465E+00 -2.672496E+01 +6.674465E+00 +4.838280E+02 -1.712840E+01 -2.672496E+01 -1.712840E+01 +3.532969E+02 
 +8.668992E+02 -3.001199E+00 -2.369989E+01 -3.001199E+00 +4.916798E+02 -2.543517E+01 -2.369989E+01 -2.543517E+01 +3.483148E+02 
 +8.806634E+02 +3.088149E-01 -1.252504E+01 +3.088149E-01 +5.051104E+02 -1.968838E+01 -1.252504E+01 -1.968838E+01 +3.530843E+02 
 +8.854405E+02 -8.163486E+00 -9.487290E+00 -8.163486E+00 +5.116049E+02 -1.515366E+01 -9.487290E+00 -1.515366E+01 +3.557658E+02 
 +8.898053E+02 -6.824263E+00 -5.539805E+00 -6.824263E+00 +5.132633E+02 -1.447686E+01 -5.539805E+00 -1.447686E+01 +3.620126E+02 
 +8.402728E+02 +6.279671E+00 -3.521818E+00 +6.279671E+00 +4.974119E+02 -1.071206E+01 -3.521818E+00 -1.071206E+01 +3.705998E+02 
 +8.322831E+02 +3.239706E+00 -7.652066E+00 +3.239706E+00 +4.989849E+02 -6.387176E+00 -7.652066E+00 -6.387176E+00 +3.889084E+02 
 +8.397304E+02 +2.436133E+00 +2.678779E+00 +2.436133E+00 +4.768078E+02 +3.575714E+00 +2.678779E+00 +3.575714E+00 +3.874211E+02 
 +8.340171E+02 +3.531177E+00 +6.109349E+00 +3.531177E+00 +4.450126E+02 +5.498393E+00 +6.109349E+00 +5.498393E+00 +3.799948E+02 
 +8.508466E+02 +4.307384E-01 +8.936859E-01 +4.307384E-01 +4.495305E+02 +4.269956E+00 +8.936859E-01 +4.269956E+00 +3.866768E+02 
 +8.624084E+02 -5.476115E-01 +4.123141E+00 -5.476115E-01 +4.598248E+02 +6.286896E+00 +4.123141E+00 +6.286896E+00 +3.936866E+02 
 +8.753804E+02 +6.311298E-01 +5.806627E+00 +6.311298E-01 +4.790582E+02 +7.771542E+00 +5.806627E+00 +7.771542E+00 +3.944581E+02 
 +8.736656E+02 -1.120720E+00 +6.859556E+00 -1.120720E+00 +4.960380E+02 +1.008122E+01 +6.859556E+00 +1.008122E+01 +3.672111E+02 
 +8.820931E+02 -3.224124E+00 -1.135497E+01 -3.224124E+00 +4.970703E+02 +1.415406E+00 -1.135497E+01 +1.415406E+00 +3.873617E+02 
 +8.799388E+02 -8.791022E-02 -1.475968E+01 -8.791022E-02 +4.784730E+02 -9.284195E+00 -1.475968E+01 -9.284195E+00 +3.865603E+02 
 +8.786667E+02 +4.692356E-01 -1.218356E+01 +4.692356E-01 +4.722147E+02 -1.565748E+01 -1.218356E+01 -1.565748E+01 +3.756135E+02 
 +8.764574E+02 +6.123749E+00 -1.349925E+01 +6.123749E+00 +4.783066E+02 -1.533357E+01 -1.349925E+01 -1.533357E+01 +3.783913E+02 
 +8.630223E+02 +8.430145E+00 -1.467697E+01 +8.430145E+00 +4.862315E+02 -9.943860E+00 -1.467697E+01 -9.943860E+00 +3.746670E+02 
 +8.538756E+02 +1.327711E+01 -1.612089E+01 +1.327711E+01 +4.851851E+02 -7.853317E+00 -1.612089E+01 -7.853317E+00 +3.629877E+02 
 +8.566217E+02 +1.450904E+01 -1.215293E+01 +1.450904E+01 +4.851248E+02 -1.123353E+01 -1.215293E+01 -1.123353E+01 +3.572447E+02 
 +8.555722E+02 +1.311520E+01 -1.393859E+01 +1.311520E+01 +4.903389E+02 -8.899189E+00 -1.393859E+01 -8.899189E+00 +3.647199E+02 
 +8.538655E+02 +8.361447E+00 -2.520344E+01 +8.361447E+00 +4.963001E+02 -3.886243E+00 -2.520344E+01 -3.886243E+00 +3.822707E+02 
 +8.670765E+02 +5.430267E+00 -2.690805E+01 +5.430267E+00 +5.104138E+02 -8.622081E+00 -2.690805E+01 -8.622081E+00 +3.931173E+02 
 +8.832965E+02 +6.475630E+00 -1.227996E+01 +6.475630E+00 +5.189113E+02 -1.779247E+01 -1.227996E+01 -1.779247E+01 +3.829303E+02 
 +8.832710E+02 -4.757919E+00 -3.461662E+00 -4.757919E+00 +5.152202E+02 -2.416419E+01 -3.461662E+00 -2.416419E+01 +3.675774E+02 
 +8.711694E+02 -6.405924E+00 -2.207113E+00 -6.405924E+00 +5.077754E+02 -2.273126E+01 -2.207113E+00 -2.273126E+01 +3.733736E+02 
 +8.465928E+02 +3.924666E+00 +1.284685E+00 +3.924666E+00 +4.823458E+02 -8.570362E+00 +1.284685E+00 -8.570362E+00 +3.828827E+02 
 +8.347552E+02 +9.022048E-01 -4.401045E+00 +9.022048E-01 +4.628121E+02 +6.823166E-01 -4.401045E+00 +6.823166E-01 +3.861460E+02 
 +8.467995E+02 +4.524511E-01 -2.110808E+00 +4.524511E-01 +4.685493E+02 +4.471723E+00 -2.110808E+00 +4.471723E+00 +3.949939E+02 
 +8.554901E+02 -1.781523E+00 -8.202352E+00 -1.781523E+00 +4.723749E+02 +6.053916E+00 -8.202352E+00 +6.053916E+00 +3.981763E+02 
 +8.558673E+02 -6.560806E+00 -4.128205E+00 -6.560806E+00 +4.696351E+02 +1.904825E+00 -4.128205E+00 +1.904825E+00 +3.931962E+02 
 +8.592288E+02 -7.016909E+00 +7.020396E+00 -7.016909E+00 +4.724841E+02 -4.192152E+00 +7.020396E+00 -4.192152E+00 +3.898714E+02 
 +8.635102E+02 +2.256220E+00 +1.773248E+01 +2.256220E+00 +4.789816E+02 +5.458214E+00 +1.773248E+01 +5.458214E+00 +3.728842E+02 
 +8.577245E+02 +1.622458E+00 +5.556349E+00 +1.622458E+00 +4.643001E+02 +8.148366E+00 +5.556349E+00 +8.148366E+00 +3.651213E+02 
 +8.623581E+02 -4.546134E+00 -8.934363E+00 -4.546134E+00 +4.622226E+02 -4.294876E-01 -8.934363E+00 -4.294876E-01 +3.679079E+02 
 +8.662012E+02 -4.468323E+00 -1.384409E+01 -4.468323E+00 +4.595923E+02 -2.062840E+00 -1.384409E+01 -2.062840E+00 +3.681330E+02 
 +8.672547E+02 -2.957112E+00 -1.142186E+01 -2.957112E+00 +4.565714E+02 -4.250276E+00 -1.142186E+01 -4.250276E+00 +3.618023E+02 
 +8.670105E+02 -7.620732E-01 -8.873808E+00 -7.620732E-01 +4.537936E+02 -6.949338E+00 -8.873808E+00 -6.949338E+00 +3.540578E+02 
 +8.611829E+02 +4.291976E+00 -9.948799E+00 +4.291976E+00 +4.558338E+02 -7.333191E+00 -9.948799E+00 -7.333191E+00 +3.509598E+02 
 +8.470905E+02 +7.919118E+00 -1.887223E+01 +7.919118E+00 +4.685625E+02 -7.652374E+00 -1.887223E+01 -7.652374E+00 +3.472021E+02 
 +8.408404E+02 +8.793312E+00 -1.800998E+01 +8.793312E+00 +4.817101E+02 -1.027514E+01 -1.800998E+01 -1.027514E+01 +3.545981E+02 
 +8.530023E+02 +8.893552E+00 -1.830915E+01 +8.893552E+00 +5.009938E+02 -1.496582E+01 -1.830915E+01 -1.496582E+01 +3.792946E+02 
 +8.676339E+02 +5.262586E+00 -1.897643E+01 +5.262586E+00 +5.164841E+02 -1.021951E+01 -1.897643E+01 -1.021951E+01 +4.040194E+02 
 +8.673526E+02 +2.095841E-02 -9.567501E+00 +2.095841E-02 +5.112654E+02 +7.142874E+00 -9.567501E+00 +7.142874E+00 +4.130721E+02 
 +8.614267E+02 -2.354264E+00 +3.673343E-01 -2.354264E+00 +4.964186E+02 +2.319566E+01 +3.673343E-01 +2.319566E+01 +4.001383E+02 
 +8.709188E+02 +3.136269E-01 +3.248419E+00 +3.136269E-01 +4.988599E+02 +2.977612E+01 +3.248419E+00 +2.977612E+01 +3.921467E+02 
 +8.727530E+02 +6.979313E+00 +1.002093E+01 +6.979313E+00 +5.018651E+02 +2.122567E+01 +1.002093E+01 +2.122567E+01 +3.917057E+02 
 +8.652535E+02 +9.351518E+00 +5.285148E+00 +9.351518E+00 +4.859314E+02 +1.043039E+01 +5.285148E+00 +1.043039E+01 +3.900558E+02 
 +8.612063E+02 +7.086490E+00 -3.574673E+00 +7.086490E+00 +4.749792E+02 +2.894049E+00 -3.574673E+00 +2.894049E+00 +3.907201E+02 
 +8.587361E+02 +2.913567E+00 -6.074086E+00 +2.913567E+00 +4.744875E+02 +2.546112E+00 -6.074086E+00 +2.546112E+00 +3.901013E+02 
 +8.591726E+02 -2.508349E-01 -8.237403E+00 -2.508349E-01 +4.770641E+02 +8.136696E+00 -8.237403E+00 +8.136696E+00 +3.934956E+02 
 +8.591496E+02 -1.880573E+00 -5.200404E+00 -1.880573E+00 +4.847177E+02 +1.713120E+01 -5.200404E+00 +1.713120E+01 +3.979894E+02 
 +8.580808E+02 +3.257657E+00 +3.332786E+00 +3.257657E+00 +4.883385E+02 +2.436021E+01 +3.332786E+00 +2.436021E+01 +3.899270E+02 
 +8.554628E+02 +8.345347E+00 +1.624953E+01 +8.345347E+00 +4.768840E+02 +1.971542E+01 +1.624953E+01 +1.971542E+01 +3.721138E+02 
 +8.568703E+02 -8.419949E-01 -6.057141E+00 -8.419949E-01 +4.708576E+02 -4.486672E+00 -6.057141E+00 -4.486672E+00 +3.740389E+02 
 +8.570120E+02 -5.911659E+00 -8.154149E+00 -5.911659E+00 +4.609055E+02 -1.161153E+01 -8.154149E+00 -1.161153E+01 +3.656374E+02 
 +8.551993E+02 -8.097722E+00 -3.199677E+00 -8.097722E+00 +4.548164E+02 -8.883564E+00 -3.199677E+00 -8.883564E+00 +3.473635E+02 
 +8.579870E+02 -5.952937E+00 -6.709434E+00 -5.952937E+00 +4.523322E+02 -6.676379E+00 -6.709434E+00 -6.676379E+00 +3.440140E+02 
 +8.589098E+02 -3.316810E+00 -1.015548E+01 -3.316810E+00 +4.485504E+02 -7.600363E+00 -1.015548E+01 -7.600363E+00 +3.459203E+02 
 +8.583950E+02 +1.198045E+00 -8.959793E+00 +1.198045E+00 +4.443241E+02 -1.153766E+01 -8.959793E+00 -1.153766E+01 +3.455127E+02 
 +8.517681E+02 +5.386437E+00 -1.292555E+01 +5.386437E+00 +4.487837E+02 -1.631093E+01 -1.292555E+01 -1.631093E+01 +3.393926E+02 
 +8.419954E+02 +9.807917E+00 -1.960942E+01 +9.807917E+00 +4.774752E+02 -9.132902E+00 -1.960942E+01 -9.132902E+00 +3.527616E+02 
 +8.594625E+02 +9.078118E+00 -1.945852E+01 +9.078118E+00 +5.100228E+02 -5.922325E+00 -1.945852E+01 -5.922325E+00 +3.889226E+02 
 +8.590305E+02 +4.037379E+00 -1.046026E+01 +4.037379E+00 +5.088175E+02 +5.183613E+00 -1.046026E+01 +5.183613E+00 +4.051584E+02 
 +8.556605E+02 -1.643647E+00 -9.008427E+00 -1.643647E+00 +5.033483E+02 +1.257456E+01 -9.008427E+00 +1.257456E+01 +4.017597E+02 
 +8.642447E+02 -6.203036E+00 +6.151898E-01 -6.203036E+00 +5.034704E+02 +1.475025E+01 +6.151898E-01 +1.475025E+01 +3.908528E+02 
 +8.660993E+02 -4.421799E+00 +1.038104E+01 -4.421799E+00 +4.952425E+02 +2.372893E+01 +1.038104E+01 +2.372893E+01 +3.727013E+02 
 +8.551964E+02 +2.147338E+00 +1.397704E+01 +2.147338E+00 +4.729197E+02 +2.491151E+01 +1.397704E+01 +2.491151E+01 +3.563474E+02 
 +8.490778E+02 +7.007862E+00 -3.461832E+00 +7.007862E+00 +4.659159E+02 +1.508788E+01 -3.461832E+00 +1.508788E+01 +3.725841E+02 
 +8.563657E+02 +8.005696E+00 -1.208030E+01 +8.005696E+00 +4.755035E+02 +4.612039E+00 -1.208030E+01 +4.612039E+00 +3.905993E+02 
 +8.588529E+02 +3.193220E+00 -8.959199E+00 +3.193220E+00 +4.771532E+02 +2.121899E+00 -8.959199E+00 +2.121899E+00 +3.849414E+02 
 +8.580083E+02 +5.307675E-01 -5.267567E+00 +5.307675E-01 +4.799338E+02 +5.288106E+00 -5.267567E+00 +5.288106E+00 +3.802584E+02 
 +8.567796E+02 +5.384307E-01 -1.742407E+00 +5.384307E-01 +4.848010E+02 +1.231800E+01 -1.742407E+00 +1.231800E+01 +3.733648E+02 
 +8.579615E+02 +4.675728E+00 +6.415473E-02 +4.675728E+00 +4.875018E+02 +1.653488E+01 +6.415473E-02 +1.653488E+01 +3.620147E+02 
 +8.596895E+02 +5.819206E+00 +1.367008E+00 +5.819206E+00 +4.829478E+02 +7.448381E+00 +1.367008E+00 +7.448381E+00 +3.629018E+02 
 +8.580384E+02 +7.534143E-01 -2.969471E+00 +7.534143E-01 +4.793556E+02 +1.656937E+01 -2.969471E+00 +1.656937E+01 +3.645831E+02 
 +8.620669E+02 -1.505211E+00 +3.770514E+00 -1.505211E+00 +4.836195E+02 +2.286411E+01 +3.770514E+00 +2.286411E+01 +3.603180E+02 
 +8.571094E+02 -4.705607E+00 +1.063895E+00 -4.705607E+00 +4.727415E+02 +1.902195E+01 +1.063895E+00 +1.902195E+01 +3.463892E+02 
 +8.575420E+02 -5.425802E+00 -9.530412E+00 -5.425802E+00 +4.584074E+02 +5.746271E+00 -9.530412E+00 +5.746271E+00 +3.437935E+02 
 +8.556684E+02 -1.144443E+00 -5.992043E+00 -1.144443E+00 +4.510253E+02 +1.784737E+00 -5.992043E+00 +1.784737E+00 +3.524281E+02 
 +8.584642E+02 +1.347821E+00 -8.180887E+00 +1.347821E+00 +4.527196E+02 +6.421399E+00 -8.180887E+00 +6.421399E+00 +3.628283E+02 
 +8.594088E+02 +8.095821E+00 -4.945834E+00 +8.095821E+00 +4.561216E+02 +6.828263E+00 -4.945834E+00 +6.828263E+00 +3.643226E+02 
 +8.483134E+02 +8.560045E+00 -1.252117E+01 +8.560045E+00 +4.588930E+02 +2.964407E+00 -1.252117E+01 +2.964407E+00 +3.654499E+02 
 +8.543539E+02 +4.005778E+00 -1.434794E+01 +4.005778E+00 +4.817419E+02 -3.732715E+00 -1.434794E+01 -3.732715E+00 +3.841812E+02 
 +8.599400E+02 +1.240981E+00 -8.447440E-01 +1.240981E+00 +5.089459E+02 +2.760189E+00 -8.447440E-01 +2.760189E+00 +4.113541E+02 
 +8.670869E+02 -4.933281E+00 -9.285076E+00 -4.933281E+00 +5.227077E+02 +8.589617E+00 -9.285076E+00 +8.589617E+00 +4.319966E+02 
 +8.650833E+02 -1.113907E+01 +8.737495E-01 -1.113907E+01 +5.102972E+02 +8.803015E+00 +8.737495E-01 +8.803015E+00 +4.154841E+02 
 +8.663569E+02 -9.861705E+00 +1.629532E+01 -9.861705E+00 +4.921954E+02 +1.432330E+00 +1.629532E+01 +1.432330E+00 +3.737985E+02 
 +8.674521E+02 -2.854270E+00 +1.619586E+01 -2.854270E+00 +4.961453E+02 -7.557470E+00 +1.619586E+01 -7.557470E+00 +3.476123E+02 
 +8.656264E+02 -6.256098E-01 -3.729777E+00 -6.256098E-01 +4.973210E+02 -5.753158E+00 -3.729777E+00 -5.753158E+00 +3.570352E+02 
 +8.557849E+02 +5.515105E+00 -1.469957E+01 +5.515105E+00 +4.789710E+02 +4.550999E+00 -1.469957E+01 +4.550999E+00 +3.800673E+02 
 +8.583529E+02 +5.610143E+00 -1.477187E+01 +5.610143E+00 +4.802804E+02 +1.018085E+01 -1.477187E+01 +1.018085E+01 +3.937609E+02 
 +8.606541E+02 +1.650500E+00 -8.195322E+00 +1.650500E+00 +4.832215E+02 +7.410043E+00 -8.195322E+00 +7.410043E+00 +3.834636E+02 
 +8.601105E+02 +3.259214E+00 -3.055211E+00 +3.259214E+00 +4.822718E+02 +7.840634E+00 -3.055211E+00 +7.840634E+00 +3.726231E+02 
 +8.628051E+02 +4.365947E+00 -2.573162E+00 +4.365947E+00 +4.822375E+02 +8.772652E+00 -2.573162E+00 +8.772652E+00 +3.674004E+02 
 +8.634013E+02 +3.584167E+00 -8.429328E+00 +3.584167E+00 +4.794060E+02 +9.094679E+00 -8.429328E+00 +9.094679E+00 +3.649165E+02 
 +8.641776E+02 +1.533832E+00 +3.871737E+00 +1.533832E+00 +4.785491E+02 +2.516618E+01 +3.871737E+00 +2.516618E+01 +3.574765E+02 
 +8.548829E+02 -1.246061E+00 +1.231571E+01 -1.246061E+00 +4.755121E+02 +1.817871E+01 +1.231571E+01 +1.817871E+01 +3.573048E+02 
 +8.547617E+02 -3.532879E+00 +3.085169E+00 -3.532879E+00 +4.758957E+02 +2.201027E+01 +3.085169E+00 +2.201027E+01 +3.531168E+02 
 +8.666219E+02 -5.330970E+00 -6.973579E+00 -5.330970E+00 +4.842608E+02 +3.206007E+01 -6.973579E+00 +3.206007E+01 +3.548122E+02 
 +8.632262E+02 +2.609733E-02 +8.566668E-01 +2.609733E-02 +4.773856E+02 +3.647181E+01 +8.566668E-01 +3.647181E+01 +3.651399E+02 
 +8.646648E+02 +4.384088E+00 -6.980213E-01 +4.384088E+00 +4.732690E+02 +3.608513E+01 -6.980213E-01 +3.608513E+01 +3.750438E+02 
 +8.574897E+02 +1.435321E+01 -2.280892E+00 +1.435321E+01 +4.691197E+02 +3.649042E+01 -2.280892E+00 +3.649042E+01 +3.764995E+02 
 +8.657226E+02 +1.561476E+01 -1.133927E+01 +1.561476E+01 +4.776894E+02 +1.690964E+01 -1.133927E+01 +1.690964E+01 +3.861355E+02 
 +8.623771E+02 +8.913128E+00 -1.166553E+01 +8.913128E+00 +4.837914E+02 -5.516120E-01 -1.166553E+01 -5.516120E-01 +3.980691E+02 
 +8.699313E+02 +4.936879E+00 -2.052325E+00 +4.936879E+00 +5.125592E+02 -1.567112E+01 -2.052325E+00 -1.567112E+01 +4.296803E+02 
 +8.854862E+02 -3.451608E+00 +3.301738E+00 -3.451608E+00 +5.489286E+02 -1.899926E+01 +3.301738E+00 -1.899926E+01 +4.421107E+02 
 +8.786584E+02 -1.267951E+01 +8.509238E+00 -1.267951E+01 +5.432651E+02 -8.668953E+00 +8.509238E+00 -8.668953E+00 +4.091217E+02 
 +8.743413E+02 -8.943878E+00 +1.085434E+01 -8.943878E+00 +5.244362E+02 +1.477631E+00 +1.085434E+01 +1.477631E+00 +3.683459E+02 
 +8.674383E+02 -7.323542E-01 +6.377083E+00 -7.323542E-01 +5.020916E+02 -5.800131E-01 +6.377083E+00 -5.800131E-01 +3.367062E+02 
 +8.647724E+02 -3.524145E+00 +3.261397E-01 -3.524145E+00 +4.956210E+02 -1.363372E+01 +3.261397E-01 -1.363372E+01 +3.336306E+02 
 +8.674656E+02 -2.130443E+00 -5.004714E+00 -2.130443E+00 +5.036670E+02 -1.375838E+01 -5.004714E+00 -1.375838E+01 +3.626301E+02 
 +8.622108E+02 +1.109902E+00 -1.736345E+01 +1.109902E+00 +4.907628E+02 -1.744218E+00 -1.736345E+01 -1.744218E+00 +3.879325E+02 
 +8.606401E+02 +1.305481E+00 -1.557823E+01 +1.305481E+00 +4.775689E+02 +4.346653E+00 -1.557823E+01 +4.346653E+00 +3.854033E+02 
 +8.617335E+02 +3.439428E+00 -6.773899E+00 +3.439428E+00 +4.726691E+02 +5.690857E+00 -6.773899E+00 +5.690857E+00 +3.761186E+02 
 +8.619619E+02 +4.340006E+00 -1.887479E+00 +4.340006E+00 +4.712090E+02 +1.066489E+01 -1.887479E+00 +1.066489E+01 +3.743022E+02 
 +8.665628E+02 +3.438489E+00 -3.499750E+00 +3.438489E+00 +4.762729E+02 +2.288402E+01 -3.499750E+00 +2.288402E+01 +3.671735E+02 
 +8.717538E+02 +3.427776E+00 +2.894340E+00 +3.427776E+00 +4.792775E+02 +2.246706E+01 +2.894340E+00 +2.246706E+01 +3.586628E+02 
 +8.554482E+02 -1.212956E+00 +1.569617E+01 -1.212956E+00 +4.753132E+02 +1.295683E+01 +1.569617E+01 +1.295683E+01 +3.662617E+02 
 +8.523626E+02 -4.489229E+00 +1.312691E+01 -4.489229E+00 +4.708436E+02 +1.336565E+01 +1.312691E+01 +1.336565E+01 +3.608054E+02 
 +8.501120E+02 -5.044075E+00 +2.036033E+00 -5.044075E+00 +4.629180E+02 +2.109963E+01 +2.036033E+00 +2.109963E+01 +3.501307E+02 
 +8.477724E+02 -1.484925E+00 -2.353354E+00 -1.484925E+00 +4.624266E+02 +2.519872E+01 -2.353354E+00 +2.519872E+01 +3.587083E+02 
 +8.423075E+02 +2.585953E+00 +5.788353E-01 +2.585953E+00 +4.561503E+02 +3.131514E+01 +5.788353E-01 +3.131514E+01 +3.633287E+02 
 +8.478851E+02 +1.377496E+01 -3.369269E+00 +1.377496E+01 +4.587470E+02 +3.274444E+01 -3.369269E+00 +3.274444E+01 +3.738014E+02 
 +8.592090E+02 +1.610233E+01 -1.116537E+01 +1.610233E+01 +4.717728E+02 +1.788941E+01 -1.116537E+01 +1.788941E+01 +3.902980E+02 
 +8.618649E+02 +9.004114E+00 -4.817249E+00 +9.004114E+00 +4.831218E+02 +1.049651E+01 -4.817249E+00 +1.049651E+01 +4.146813E+02 
 +8.566030E+02 +6.332941E+00 +6.260318E+00 +6.332941E+00 +4.772197E+02 +1.030800E+01 +6.260318E+00 +1.030800E+01 +4.327443E+02 
 +8.522918E+02 +3.282699E+00 +1.317846E+01 +3.282699E+00 +4.763019E+02 +6.077735E+00 +1.317846E+01 +6.077735E+00 +4.029249E+02 
 +8.629164E+02 -1.083908E+01 +8.943628E+00 -1.083908E+01 +5.118687E+02 -3.076465E-01 +8.943628E+00 -3.076465E-01 +3.715901E+02 
 +8.654382E+02 -1.294762E+01 +2.741791E+00 -1.294762E+01 +5.198243E+02 -2.932986E+00 +2.741791E+00 -2.932986E+00 +3.582264E+02 
 +8.752598E+02 -1.122878E+00 +1.427586E+00 -1.122878E+00 +5.182519E+02 -3.722381E+00 +1.427586E+00 -3.722381E+00 +3.555622E+02 
 +8.777347E+02 -2.652289E+00 +2.253436E+00 -2.652289E+00 +5.233314E+02 -6.654477E+00 +2.253436E+00 -6.654477E+00 +3.572957E+02 
 +8.762433E+02 -5.828802E+00 -2.577009E-01 -5.828802E+00 +5.183329E+02 -1.369934E+01 -2.577009E-01 -1.369934E+01 +3.576814E+02 
 +8.690717E+02 -7.085213E+00 -1.253470E+01 -7.085213E+00 +5.015090E+02 -1.467525E+01 -1.253470E+01 -1.467525E+01 +3.627378E+02 
 +8.638197E+02 -1.620725E+00 -1.516693E+01 -1.620725E+00 +4.822458E+02 -1.372871E+00 -1.516693E+01 -1.372871E+00 +3.710935E+02 
 +8.677037E+02 +2.112230E+00 -5.904712E+00 +2.112230E+00 +4.768166E+02 +1.792562E+01 -5.904712E+00 +1.792562E+01 +3.717783E+02 
 +8.671729E+02 +4.688447E+00 -1.560724E-01 +4.688447E+00 +4.762197E+02 +2.428565E+01 -1.560724E-01 +2.428565E+01 +3.669923E+02 
 +8.698532E+02 +5.898977E+00 +2.250829E+00 +5.898977E+00 +4.775347E+02 +2.692373E+01 +2.250829E+00 +2.692373E+01 +3.599010E+02 
 +8.772017E+02 +1.218338E+00 +2.045447E+00 +1.218338E+00 +4.818099E+02 +2.395810E+01 +2.045447E+00 +2.395810E+01 +3.616763E+02 
 +8.646916E+02 -5.314747E-01 +1.422377E+01 -5.314747E-01 +4.805170E+02 +3.155945E+00 +1.422377E+01 +3.155945E+00 +3.810251E+02 
 +8.592858E+02 -4.606770E+00 +1.179544E+01 -4.606770E+00 +4.759513E+02 -1.774631E+01 +1.179544E+01 -1.774631E+01 +3.795698E+02 
 +8.567220E+02 -3.110266E+00 -1.559617E+00 -3.110266E+00 +4.661767E+02 -1.807444E+01 -1.559617E+00 -1.807444E+01 +3.800628E+02 
 +8.344901E+02 +1.764999E+00 -8.692721E+00 +1.764999E+00 +4.492003E+02 -2.607243E+00 -8.692721E+00 -2.607243E+00 +3.883642E+02 
 +8.221749E+02 +4.411651E+00 -7.804110E+00 +4.411651E+00 +4.512072E+02 +1.257885E+01 -7.804110E+00 +1.257885E+01 +3.883128E+02 
 +8.380789E+02 +6.713015E+00 -3.770534E+00 +6.713015E+00 +4.665709E+02 +1.457328E+01 -3.770534E+00 +1.457328E+01 +3.858059E+02 
 +8.599648E+02 +6.191591E+00 +2.632833E+00 +6.191591E+00 +4.733764E+02 +1.865942E+01 +2.632833E+00 +1.865942E+01 +3.938846E+02 
 +8.572436E+02 +3.269615E+00 +6.475493E+00 +3.269615E+00 +4.641090E+02 +2.015839E+01 +6.475493E+00 +2.015839E+01 +4.082745E+02 
 +8.522819E+02 +2.403978E+00 +1.418765E+01 +2.403978E+00 +4.599623E+02 +1.059368E+01 +1.418765E+01 +1.059368E+01 +4.233604E+02 
 +8.493841E+02 +6.729146E+00 +1.012447E+01 +6.729146E+00 +4.531223E+02 +5.090853E+00 +1.012447E+01 +5.090853E+00 +4.189632E+02 
 +8.447771E+02 +7.059248E-01 +6.731346E+00 +7.059248E-01 +4.518662E+02 +1.432516E+01 +6.731346E+00 +1.432516E+01 +3.816997E+02 
 +8.555671E+02 -7.969894E+00 +8.243413E-01 -7.969894E+00 +4.943959E+02 +3.417182E+01 +8.243413E-01 +3.417182E+01 +3.592674E+02 
 +8.754402E+02 -6.042954E-01 +5.779045E+00 -6.042954E-01 +5.260232E+02 +3.077319E+01 +5.779045E+00 +3.077319E+01 +3.558938E+02 
 +8.650992E+02 -2.074375E+00 +7.578660E+00 -2.074375E+00 +5.069173E+02 +1.075754E+01 +7.578660E+00 +1.075754E+01 +3.414250E+02 
 +8.647446E+02 -2.827248E+00 -3.719172E+00 -2.827248E+00 +4.967575E+02 -1.644002E+00 -3.719172E+00 -1.644002E+00 +3.390354E+02 
 +8.665778E+02 -8.168301E+00 -7.557205E+00 -8.168301E+00 +4.919339E+02 -2.195771E+00 -7.557205E+00 -2.195771E+00 +3.440810E+02 
 +8.672052E+02 -2.635368E+00 -5.723795E+00 -2.635368E+00 +4.875906E+02 +1.327204E+01 -5.723795E+00 +1.327204E+01 +3.614069E+02 
 +8.698364E+02 +2.506296E+00 -4.220594E+00 +2.506296E+00 +4.841667E+02 +2.479412E+01 -4.220594E+00 +2.479412E+01 +3.652624E+02 
 +8.703252E+02 +4.096402E+00 -1.293144E+00 +4.096402E+00 +4.803950E+02 +2.766428E+01 -1.293144E+00 +2.766428E+01 +3.527847E+02 
 +8.744178E+02 +3.770046E+00 +2.049851E+00 +3.770046E+00 +4.797576E+02 +2.915612E+01 +2.049851E+00 +2.915612E+01 +3.490489E+02 
 +8.773950E+02 -4.311131E-03 +3.346103E+00 -4.311131E-03 +4.832382E+02 +3.096651E+01 +3.346103E+00 +3.096651E+01 +3.442433E+02 
 +8.778565E+02 -8.128331E-01 +9.603667E+00 -8.128331E-01 +4.908008E+02 +1.009639E+01 +9.603667E+00 +1.009639E+01 +3.629549E+02 
 +8.747495E+02 -5.194227E+00 +3.252224E+00 -5.194227E+00 +4.949402E+02 -1.636644E+01 +3.252224E+00 -1.636644E+01 +3.810201E+02 
 +8.652484E+02 -8.451094E+00 -3.599929E+00 -8.451094E+00 +4.971943E+02 -1.215714E+01 -3.599929E+00 -1.215714E+01 +4.044661E+02 
 +8.350813E+02 -9.505520E+00 -6.618569E+00 -9.505520E+00 +4.988112E+02 +8.719914E+00 -6.618569E+00 +8.719914E+00 +4.236498E+02 
 +8.207640E+02 -1.139113E+01 -1.257085E+01 -1.139113E+01 +4.969835E+02 +2.179149E+01 -1.257085E+01 +2.179149E+01 +4.130843E+02 
 +8.458432E+02 -7.992720E+00 -1.429261E+00 -7.992720E+00 +4.918253E+02 +2.823790E+01 -1.429261E+00 +2.823790E+01 +3.951320E+02 
 +8.773561E+02 -1.256673E-01 +1.122466E+01 -1.256673E-01 +4.821684E+02 +2.109789E+01 +1.122466E+01 +2.109789E+01 +3.936716E+02 
 +8.622616E+02 +1.388071E+00 +8.877398E+00 +1.388071E+00 +4.637632E+02 +1.053490E+01 +8.877398E+00 +1.053490E+01 +3.969987E+02 
 +8.601181E+02 +5.611990E-01 +9.942333E+00 +5.611990E-01 +4.654296E+02 +3.097638E+00 +9.942333E+00 +3.097638E+00 +4.097893E+02 
 +8.581137E+02 +9.785120E-01 +7.722241E+00 +9.785120E-01 +4.595328E+02 -2.617367E+00 +7.722241E+00 -2.617367E+00 +4.135604E+02 
 +8.603819E+02 +7.953047E+00 +1.087261E+01 +7.953047E+00 +4.686267E+02 +2.102929E+00 +1.087261E+01 +2.102929E+00 +3.987483E+02 
 +8.569533E+02 +2.395022E+00 +7.624006E+00 +2.395022E+00 +4.842717E+02 +1.831400E+01 +7.624006E+00 +1.831400E+01 +3.563186E+02 
 +8.580201E+02 -1.091813E+00 +8.534362E+00 -1.091813E+00 +4.860616E+02 +1.447860E+01 +8.534362E+00 +1.447860E+01 +3.291978E+02 
 +8.508295E+02 +4.812181E-01 +1.243777E+01 +4.812181E-01 +4.817096E+02 -2.659045E+00 +1.243777E+01 -2.659045E+00 +3.298904E+02 
 +8.588037E+02 -3.058728E+00 +6.257754E-01 -3.058728E+00 +4.865827E+02 -5.398275E+00 +6.257754E-01 -5.398275E+00 +3.391325E+02 
 +8.660497E+02 -9.605293E+00 -4.104532E+00 -9.605293E+00 +4.861693E+02 +2.979013E+00 -4.104532E+00 +2.979013E+00 +3.449511E+02 
 +8.587705E+02 -6.478549E+00 -3.511103E+00 -6.478549E+00 +4.807405E+02 +1.958830E+01 -3.511103E+00 +1.958830E+01 +3.565448E+02 
 +8.631079E+02 -1.518188E+00 -7.237383E+00 -1.518188E+00 +4.792845E+02 +3.079203E+01 -7.237383E+00 +3.079203E+01 +3.575240E+02 
 +8.742765E+02 +1.638744E+00 -2.728650E+00 +1.638744E+00 +4.791740E+02 +3.560974E+01 -2.728650E+00 +3.560974E+01 +3.469036E+02 
 +8.756560E+02 +2.769131E+00 -5.846152E-01 +2.769131E+00 +4.785997E+02 +3.657415E+01 -5.846152E-01 +3.657415E+01 +3.414607E+02 
 +8.704763E+02 -2.609399E+00 +9.894570E+00 -2.609399E+00 +4.737970E+02 +3.900025E+01 +9.894570E+00 +3.900025E+01 +3.367886E+02 
 +8.809160E+02 -6.637180E+00 +6.817552E+00 -6.637180E+00 +4.834625E+02 +2.404867E+01 +6.817552E+00 +2.404867E+01 +3.586693E+02 
 +8.922344E+02 -8.999372E+00 +1.881777E+00 -8.999372E+00 +5.108262E+02 -7.788533E-01 +1.881777E+00 -7.788533E-01 +3.917135E+02 
 +8.383336E+02 -1.675412E+01 -2.756030E+00 -1.675412E+01 +5.090056E+02 -4.042252E+00 -2.756030E+00 -4.042252E+00 +4.012518E+02 
 +8.163092E+02 -1.065637E+01 -9.193566E+00 -1.065637E+01 +5.057481E+02 +5.614151E+00 -9.193566E+00 +5.614151E+00 +4.069283E+02 
 +7.979143E+02 -7.497389E+00 -1.426254E+01 -7.497389E+00 +4.719171E+02 +6.881482E+00 -1.426254E+01 +6.881482E+00 +3.840991E+02 
 +8.277777E+02 -7.988295E-01 -5.468696E+00 -7.988295E-01 +4.496090E+02 +8.843608E+00 -5.468696E+00 +8.843608E+00 +3.780242E+02 
 +8.664258E+02 +3.043181E+00 +4.792661E+00 +3.043181E+00 +4.590730E+02 +9.618498E+00 +4.792661E+00 +9.618498E+00 +3.875121E+02 
 +8.626199E+02 +2.486880E+00 +8.231110E+00 +2.486880E+00 +4.609964E+02 +1.289453E+00 +8.231110E+00 +1.289453E+00 +3.893328E+02 
 +8.569978E+02 -4.081838E-01 +7.339266E+00 -4.081838E-01 +4.572566E+02 -6.370892E+00 +7.339266E+00 -6.370892E+00 +3.928248E+02 
 +8.580240E+02 -1.928259E+00 +8.032663E+00 -1.928259E+00 +4.584133E+02 -1.066512E+01 +8.032663E+00 -1.066512E+01 +3.939144E+02 
 +8.540827E+02 +8.348400E+00 +1.256608E+01 +8.348400E+00 +4.465644E+02 -9.544381E+00 +1.256608E+01 -9.544381E+00 +3.874039E+02 
 +8.476173E+02 +1.002414E+01 +1.538010E+01 +1.002414E+01 +4.335375E+02 +1.425388E+00 +1.538010E+01 +1.425388E+00 +3.563294E+02 
 +8.453926E+02 +1.123457E+00 +1.609694E+01 +1.123457E+00 +4.468342E+02 +9.216781E+00 +1.609694E+01 +9.216781E+00 +3.328828E+02 
 +8.417933E+02 -2.353789E+00 +1.627393E+01 -2.353789E+00 +4.578516E+02 +2.094033E+00 +1.627393E+01 +2.094033E+00 +3.447176E+02 
 +8.487704E+02 -5.770637E+00 +1.313437E+01 -5.770637E+00 +4.625558E+02 +7.652748E+00 +1.313437E+01 +7.652748E+00 +3.559703E+02 
 +8.581552E+02 -1.006960E+01 -2.606655E+00 -1.006960E+01 +4.767988E+02 +2.120123E+01 -2.606655E+00 +2.120123E+01 +3.544769E+02 
 +8.533744E+02 -1.181533E+01 -1.362364E+01 -1.181533E+01 +4.812665E+02 +2.326123E+01 -1.362364E+01 +2.326123E+01 +3.541212E+02 
 +8.638914E+02 -4.124966E+00 -1.014579E+01 -4.124966E+00 +4.755155E+02 +3.166422E+01 -1.014579E+01 +3.166422E+01 +3.460077E+02 
 +8.620308E+02 +3.566287E-01 -6.487732E+00 +3.566287E-01 +4.597870E+02 +4.111186E+01 -6.487732E+00 +4.111186E+01 +3.183689E+02 
 +8.649720E+02 +2.844921E+00 +2.349603E-02 +2.844921E+00 +4.626528E+02 +4.035798E+01 +2.349603E-02 +4.035798E+01 +3.188844E+02 
 +8.596285E+02 -7.119343E+00 +9.917592E+00 -7.119343E+00 +4.515273E+02 +3.920050E+01 +9.917592E+00 +3.920050E+01 +3.543955E+02 
 +8.612038E+02 -1.277740E+01 +1.018401E+00 -1.277740E+01 +4.574771E+02 +3.339093E+01 +1.018401E+00 +3.339093E+01 +3.866039E+02 
 +8.798047E+02 -1.507956E+01 +1.997794E-01 -1.507956E+01 +4.903914E+02 +2.306504E+01 +1.997794E-01 +2.306504E+01 +4.108450E+02 
 +8.279178E+02 -1.837115E+01 -1.394865E+01 -1.837115E+01 +4.914286E+02 +8.064996E+00 -1.394865E+01 +8.064996E+00 +3.954257E+02 
 +8.165862E+02 -8.302840E+00 -1.860989E+01 -8.302840E+00 +4.883177E+02 +4.837202E+00 -1.860989E+01 +4.837202E+00 +3.886292E+02 
 +8.146427E+02 -6.154508E+00 -1.860376E+01 -6.154508E+00 +4.836594E+02 +1.405643E+00 -1.860376E+01 +1.405643E+00 +3.824364E+02 
 +8.430640E+02 -7.524818E+00 -1.692746E+01 -7.524818E+00 +4.958153E+02 -4.086188E-01 -1.692746E+01 -4.086188E-01 +3.867720E+02 
 +8.564349E+02 -1.286135E+00 -5.408814E+00 -1.286135E+00 +4.712269E+02 +1.719305E-02 -5.408814E+00 +1.719305E-02 +3.812988E+02 
 +8.604911E+02 +3.464271E+00 +4.109539E+00 +3.464271E+00 +4.549482E+02 -5.212271E+00 +4.109539E+00 -5.212271E+00 +3.836510E+02 
 +8.623399E+02 +4.708211E-01 +5.700294E+00 +4.708211E-01 +4.601214E+02 -1.598093E+01 +5.700294E+00 -1.598093E+01 +3.949054E+02 
 +8.573796E+02 -7.743082E-01 +1.008614E+01 -7.743082E-01 +4.514995E+02 -2.136861E+01 +1.008614E+01 -2.136861E+01 +3.876846E+02 
 +8.466349E+02 +3.131448E+00 +1.770414E+01 +3.131448E+00 +4.295387E+02 -2.056881E+01 +1.770414E+01 -2.056881E+01 +3.702899E+02 
 +8.462327E+02 +7.903037E+00 +2.632111E+01 +7.903037E+00 +4.230079E+02 -1.411162E+01 +2.632111E+01 -1.411162E+01 +3.463431E+02 
 +8.400638E+02 +1.600505E-01 +2.634478E+01 +1.600505E-01 +4.279117E+02 -1.962917E+00 +2.634478E+01 -1.962917E+00 +3.249911E+02 
 +8.499368E+02 -1.271923E+00 +1.582191E+01 -1.271923E+00 +4.512487E+02 +1.602437E+00 +1.582191E+01 +1.602437E+00 +3.467521E+02 
 +8.539232E+02 -1.198495E+00 +1.547498E+01 -1.198495E+00 +4.691362E+02 +2.977164E+00 +1.547498E+01 +2.977164E+00 +3.625757E+02 
 +8.533127E+02 -1.499562E+00 +5.856291E+00 -1.499562E+00 +4.747561E+02 +8.049329E+00 +5.856291E+00 +8.049329E+00 +3.591283E+02 
 +8.558828E+02 -2.822462E+00 -1.138376E+01 -2.822462E+00 +4.747341E+02 +2.246790E+01 -1.138376E+01 +2.246790E+01 +3.507918E+02 
 +8.576394E+02 +1.112329E+00 -1.614096E+01 +1.112329E+00 +4.685650E+02 +3.438173E+01 -1.614096E+01 +3.438173E+01 +3.339468E+02 
 +8.494037E+02 +1.762444E+00 -4.462025E+00 +1.762444E+00 +4.557063E+02 +3.824534E+01 -4.462025E+00 +3.824534E+01 +3.060060E+02 
 +8.532103E+02 +1.016726E+00 +7.821037E+00 +1.016726E+00 +4.519269E+02 +4.176860E+01 +7.821037E+00 +4.176860E+01 +3.117400E+02 
 +8.740498E+02 -9.779838E+00 +5.061359E+00 -9.779838E+00 +4.957371E+02 +1.184105E+01 +5.061359E+00 +1.184105E+01 +3.731291E+02 
 +8.696753E+02 -1.358947E+01 -3.818054E+00 -1.358947E+01 +5.024249E+02 +2.293372E+01 -3.818054E+00 +2.293372E+01 +4.038603E+02 
 +8.612579E+02 -1.009038E+01 -1.085642E+01 -1.009038E+01 +4.757676E+02 +1.762445E+01 -1.085642E+01 +1.762445E+01 +3.981617E+02 
 +8.364356E+02 -1.353716E+00 -2.206443E+01 -1.353716E+00 +4.596603E+02 -1.914212E+00 -2.206443E+01 -1.914212E+00 +3.848932E+02 
 +8.000667E+02 -1.233141E+01 -1.968484E+01 -1.233141E+01 +4.637641E+02 -2.115744E+00 -1.968484E+01 -2.115744E+00 +3.724019E+02 
 +8.197748E+02 -1.141183E+01 -1.877055E+01 -1.141183E+01 +4.786262E+02 +1.639444E-01 -1.877055E+01 +1.639444E-01 +3.642636E+02 
 +8.383221E+02 -8.878048E+00 -1.900772E+01 -8.878048E+00 +4.920860E+02 -3.593349E+00 -1.900772E+01 -3.593349E+00 +3.586285E+02 
 +8.566974E+02 -4.798515E+00 -1.192509E+01 -4.798515E+00 +5.034011E+02 -8.578509E-01 -1.192509E+01 -8.578509E-01 +3.697680E+02 
 +8.774549E+02 +2.309791E+00 -9.009118E-01 +2.309791E+00 +4.927088E+02 -3.557355E+00 -9.009118E-01 -3.557355E+00 +3.863297E+02 
 +8.700230E+02 +3.468993E+00 +5.717126E+00 +3.468993E+00 +4.688805E+02 -8.844901E+00 +5.717126E+00 -8.844901E+00 +3.890698E+02 
 +8.726427E+02 +3.507619E+00 +1.060115E+01 +3.507619E+00 +4.753856E+02 -1.078624E+01 +1.060115E+01 -1.078624E+01 +3.781920E+02 
 +8.712449E+02 +7.130006E+00 +2.379085E+01 +7.130006E+00 +4.901428E+02 -3.979671E-01 +2.379085E+01 -3.979671E-01 +3.547287E+02 
 +8.668133E+02 +1.133010E+01 +2.420894E+01 +1.133010E+01 +4.823218E+02 +1.388703E+00 +2.420894E+01 +1.388703E+00 +3.276030E+02 
 +8.674126E+02 +5.822588E+00 +1.554437E+01 +5.822588E+00 +4.691009E+02 -1.112735E+01 +1.554437E+01 -1.112735E+01 +3.171396E+02 
 +8.702891E+02 -3.974124E-01 +1.438138E+01 -3.974124E-01 +4.728208E+02 -1.314634E+01 +1.438138E+01 -1.314634E+01 +3.424866E+02 
 +8.668987E+02 -3.028743E-01 +1.508745E+01 -3.028743E-01 +4.788231E+02 -3.670982E+00 +1.508745E+01 -3.670982E+00 +3.658841E+02 
 +8.666192E+02 -3.673196E-01 +1.439558E+01 -3.673196E-01 +4.812863E+02 +1.652376E+00 +1.439558E+01 +1.652376E+00 +3.714689E+02 
 +8.643226E+02 -9.919498E-01 -5.784919E+00 -9.919498E-01 +4.842153E+02 -1.604258E+00 -5.784919E+00 -1.604258E+00 +3.626837E+02 
 +8.556074E+02 -3.496847E+00 -1.864593E+01 -3.496847E+00 +4.906538E+02 -6.819619E+00 -1.864593E+01 -6.819619E+00 +3.507904E+02 
 +8.640839E+02 -4.083617E+00 +1.129535E+01 -4.083617E+00 +4.942896E+02 -1.287244E+00 +1.129535E+01 -1.287244E+00 +3.365417E+02 
 +8.645577E+02 -5.422571E+00 +1.318596E+01 -5.422571E+00 +4.839175E+02 +4.405464E+00 +1.318596E+01 +4.405464E+00 +3.306580E+02 
 +8.641805E+02 -1.105972E+01 +2.315861E+00 -1.105972E+01 +5.047586E+02 -4.839820E+00 +2.315861E+00 -4.839820E+00 +3.589025E+02 
 +8.760428E+02 -1.313009E+01 -4.721919E+00 -1.313009E+01 +5.239600E+02 +4.895884E-01 -4.721919E+00 +4.895884E-01 +3.835537E+02 
 +8.722257E+02 -2.004555E+01 -1.424847E+01 -2.004555E+01 +5.227474E+02 +6.821900E-01 -1.424847E+01 +6.821900E-01 +3.820778E+02 
 +8.595216E+02 -9.900938E+00 -1.328266E+01 -9.900938E+00 +5.004610E+02 -4.979396E+00 -1.328266E+01 -4.979396E+00 +3.848087E+02 
 +8.038884E+02 -1.382200E+01 -8.002932E+00 -1.382200E+01 +4.587591E+02 +4.179870E-01 -8.002932E+00 +4.179870E-01 +3.600928E+02 
 +8.441007E+02 -9.199775E-01 -6.613928E+00 -9.199775E-01 +4.853579E+02 +6.083192E+00 -6.613928E+00 +6.083192E+00 +3.456422E+02 
 +8.562932E+02 +3.688144E+00 -5.658403E+00 +3.688144E+00 +5.030090E+02 +7.066075E-01 -5.658403E+00 +7.066075E-01 +3.428837E+02 
 +8.640145E+02 +7.265036E+00 -3.619212E+00 +7.265036E+00 +5.174425E+02 +5.211038E+00 -3.619212E+00 +5.211038E+00 +3.648839E+02 
 +8.925884E+02 +1.326709E+01 +9.991467E-01 +1.326709E+01 +5.389175E+02 +1.494446E+01 +9.991467E-01 +1.494446E+01 +3.871734E+02 
 +8.958425E+02 +1.336900E+01 +5.769778E+00 +1.336900E+01 +5.360149E+02 +1.610808E+01 +5.769778E+00 +1.610808E+01 +3.834130E+02 
 +8.887558E+02 +1.242839E+01 +7.790852E+00 +1.242839E+01 +5.232435E+02 +1.141224E+01 +7.790852E+00 +1.141224E+01 +3.676257E+02 
 +8.763333E+02 +1.203150E+01 +1.541817E+01 +1.203150E+01 +5.101282E+02 -3.883598E+00 +1.541817E+01 -3.883598E+00 +3.443038E+02 
 +8.785104E+02 +8.068002E+00 +7.321895E+00 +8.068002E+00 +5.028791E+02 -2.049909E+01 +7.321895E+00 -2.049909E+01 +3.301646E+02 
 +8.794998E+02 +5.498132E+00 -6.249868E-01 +5.498132E+00 +4.920072E+02 -2.134098E+01 -6.249868E-01 -2.134098E+01 +3.241760E+02 
 +8.743644E+02 -1.746170E+00 +5.558665E+00 -1.746170E+00 +4.835050E+02 -1.777398E+01 +5.558665E+00 -1.777398E+01 +3.364434E+02 
 +8.704531E+02 -3.678768E+00 +1.536382E+01 -3.678768E+00 +4.785128E+02 -1.449347E+01 +1.536382E+01 -1.449347E+01 +3.573058E+02 
 +8.821822E+02 -5.367484E+00 +1.517972E+01 -5.367484E+00 +4.936305E+02 -6.688756E+00 +1.517972E+01 -6.688756E+00 +3.728043E+02 
 +8.656514E+02 -4.414199E+00 -1.426305E+01 -4.414199E+00 +5.030097E+02 -3.513239E+00 -1.426305E+01 -3.513239E+00 +3.722008E+02 
 +8.595162E+02 -7.254120E+00 -1.430715E+01 -7.254120E+00 +5.062126E+02 -6.958186E-01 -1.430715E+01 -6.958186E-01 +3.679268E+02 
 +8.631927E+02 -7.845479E+00 +1.278444E+01 -7.845479E+00 +5.030085E+02 +1.123334E+00 +1.278444E+01 +1.123334E+00 +3.507090E+02 
 +8.695213E+02 -1.266848E+01 +5.157978E+00 -1.266848E+01 +5.025556E+02 -2.050965E+00 +5.157978E+00 -2.050965E+00 +3.428860E+02 
 +8.659757E+02 -9.575563E+00 -6.933092E-01 -9.575563E+00 +5.112830E+02 -4.589175E+00 -6.933092E-01 -4.589175E+00 +3.552458E+02 
 +8.643410E+02 -8.220527E+00 -1.559181E+00 -8.220527E+00 +5.065360E+02 -3.227089E+00 -1.559181E+00 -3.227089E+00 +3.540230E+02 
 +8.489890E+02 -1.464813E+01 -3.358492E+00 -1.464813E+01 +5.052213E+02 +3.113791E+00 -3.358492E+00 +3.113791E+00 +3.486408E+02 
 +8.467918E+02 -8.991170E+00 +3.298807E+00 -8.991170E+00 +4.993908E+02 +1.181038E+00 +3.298807E+00 +1.181038E+00 +3.575639E+02 
 +8.387950E+02 -8.440189E+00 +7.426107E+00 -8.440189E+00 +4.766091E+02 -1.263042E-01 +7.426107E+00 -1.263042E-01 +3.549375E+02 
 +8.644441E+02 +3.219963E+00 +5.884754E+00 +3.219963E+00 +4.865853E+02 +4.425079E+00 +5.884754E+00 +4.425079E+00 +3.387858E+02 
 +8.653160E+02 +3.398529E+00 +3.222275E+00 +3.398529E+00 +4.987431E+02 +4.150205E+00 +3.222275E+00 +4.150205E+00 +3.306913E+02 
 +8.759612E+02 +4.154452E+00 +1.536733E+00 +4.154452E+00 +5.204366E+02 +5.466394E+00 +1.536733E+00 +5.466394E+00 +3.575633E+02 
 +8.780924E+02 +8.366499E+00 +4.978353E+00 +8.366499E+00 +5.264428E+02 +9.795504E+00 +4.978353E+00 +9.795504E+00 +3.724223E+02 
 +8.771477E+02 +1.073570E+01 +5.509549E+00 +1.073570E+01 +5.206753E+02 +1.072926E+01 +5.509549E+00 +1.072926E+01 +3.679213E+02 
 +8.716311E+02 +1.428271E+01 +4.629242E+00 +1.428271E+01 +5.106796E+02 +4.400788E+00 +4.629242E+00 +4.400788E+00 +3.606082E+02 
 +8.679913E+02 +1.756833E+01 -4.531619E-01 +1.756833E+01 +5.038408E+02 -6.891630E+00 -4.531619E-01 -6.891630E+00 +3.458870E+02 
 +8.785248E+02 +9.533650E+00 -8.348511E+00 +9.533650E+00 +5.035472E+02 -1.828596E+01 -8.348511E+00 -1.828596E+01 +3.264128E+02 
 +8.716703E+02 +4.445234E+00 -5.640221E+00 +4.445234E+00 +4.925638E+02 -2.266045E+01 -5.640221E+00 -2.266045E+01 +3.132713E+02 
 +8.674678E+02 -3.998242E+00 -6.617119E+00 -3.998242E+00 +4.871029E+02 -2.024282E+01 -6.617119E+00 -2.024282E+01 +3.204200E+02 
 +8.628196E+02 -5.517537E+00 +7.012474E+00 -5.517537E+00 +4.841631E+02 -2.167529E+01 +7.012474E+00 -2.167529E+01 +3.163319E+02 
 +8.765144E+02 -3.762820E+00 +9.160509E+00 -3.762820E+00 +4.997796E+02 -1.992278E+01 +9.160509E+00 -1.992278E+01 +3.298896E+02 
 +8.565443E+02 -5.885457E+00 -1.845490E+01 -5.885457E+00 +4.966763E+02 -2.932136E+00 -1.845490E+01 -2.932136E+00 +3.551196E+02 
 +8.550719E+02 -8.025461E+00 -1.635964E+01 -8.025461E+00 +4.994207E+02 +1.185496E+01 -1.635964E+01 +1.185496E+01 +3.653306E+02 
 +8.605812E+02 -9.828674E+00 -5.684012E+00 -9.828674E+00 +5.075940E+02 +9.418411E+00 -5.684012E+00 +9.418411E+00 +3.617627E+02 
 +8.732357E+02 -1.262298E+01 -2.139099E+00 -1.262298E+01 +5.180901E+02 +1.947249E+00 -2.139099E+00 +1.947249E+00 +3.633206E+02 
 +8.679589E+02 -6.183782E+00 -2.664263E-01 -6.183782E+00 +5.108400E+02 -4.278271E-01 -2.664263E-01 -4.278271E-01 +3.608514E+02 
 +8.610810E+02 -6.279756E+00 +2.509775E+00 -6.279756E+00 +5.056216E+02 +1.021142E+00 +2.509775E+00 +1.021142E+00 +3.531431E+02 
 +8.519727E+02 -8.846541E+00 +4.658655E+00 -8.846541E+00 +5.015358E+02 +1.879686E+00 +4.658655E+00 +1.879686E+00 +3.497661E+02 
 +8.440870E+02 -1.131491E+01 +1.128512E+01 -1.131491E+01 +4.907594E+02 -1.479716E+00 +1.128512E+01 -1.479716E+00 +3.531123E+02 
 +8.534752E+02 -4.831612E+00 +1.325567E+01 -4.831612E+00 +4.866676E+02 -5.139805E-01 +1.325567E+01 -5.139805E-01 +3.602068E+02 
 +8.705876E+02 +4.676676E+00 +9.609175E+00 +4.676676E+00 +4.925582E+02 +7.468067E+00 +9.609175E+00 +7.468067E+00 +3.492527E+02 
 +8.754479E+02 +2.277915E+00 +2.598321E+00 +2.277915E+00 +4.957338E+02 +1.012050E+01 +2.598321E+00 +1.012050E+01 +3.369314E+02 
 +8.759862E+02 +1.526986E+00 +1.803922E+00 +1.526986E+00 +5.063498E+02 +1.042091E+01 +1.803922E+00 +1.042091E+01 +3.452769E+02 
 +8.750553E+02 +3.825645E+00 +6.415098E+00 +3.825645E+00 +5.138871E+02 +1.297760E+01 +6.415098E+00 +1.297760E+01 +3.622329E+02 
 +8.731329E+02 +7.321609E+00 +5.182898E+00 +7.321609E+00 +5.121573E+02 +1.259760E+01 +5.182898E+00 +1.259760E+01 +3.709265E+02 
 +8.676804E+02 +1.214605E+01 +1.816169E+00 +1.214605E+01 +5.044482E+02 +6.414574E+00 +1.816169E+00 +6.414574E+00 +3.641490E+02 
 +8.669683E+02 +2.122592E+01 -7.574712E+00 +2.122592E+01 +5.028633E+02 -4.259010E+00 -7.574712E+00 -4.259010E+00 +3.484589E+02 
 +8.814480E+02 +1.305482E+01 -1.201757E+01 +1.305482E+01 +5.133704E+02 -1.473948E+01 -1.201757E+01 -1.473948E+01 +3.354213E+02 
 +8.780974E+02 +7.412742E+00 -6.504500E+00 +7.412742E+00 +5.109079E+02 -1.516132E+01 -6.504500E+00 -1.516132E+01 +3.309463E+02 
 +8.723058E+02 +7.625737E-01 -7.910734E+00 +7.625737E-01 +5.063479E+02 -1.304014E+01 -7.910734E+00 -1.304014E+01 +3.367765E+02 
 +8.588876E+02 -5.451249E-01 +3.104647E+00 -5.451249E-01 +4.946565E+02 -1.705760E+01 +3.104647E+00 -1.705760E+01 +3.115691E+02 
 +8.657266E+02 -1.336278E+00 +3.049437E+00 -1.336278E+00 +4.978570E+02 -1.558368E+01 +3.049437E+00 -1.558368E+01 +3.158569E+02 
 +8.623102E+02 -7.684871E+00 -1.881422E+01 -7.684871E+00 +4.997622E+02 +1.885454E+00 -1.881422E+01 +1.885454E+00 +3.648454E+02 
 +8.575419E+02 -4.235495E+00 -2.263751E+01 -4.235495E+00 +4.974355E+02 +1.421311E+01 -2.263751E+01 +1.421311E+01 +3.787262E+02 
 +8.544167E+02 -3.709676E+00 -1.705585E+01 -3.709676E+00 +4.979373E+02 +1.188336E+01 -1.705585E+01 +1.188336E+01 +3.642049E+02 
 +8.633453E+02 -6.191006E+00 -3.383667E+00 -6.191006E+00 +5.068970E+02 +4.589967E+00 -3.383667E+00 +4.589967E+00 +3.643137E+02 
 +8.679489E+02 -2.292656E+00 -8.844524E-02 -2.292656E+00 +5.096080E+02 +4.474932E+00 -8.844524E-02 +4.474932E+00 +3.737595E+02 
 +8.618603E+02 -2.610886E+00 +4.002381E+00 -2.610886E+00 +5.067969E+02 +1.923857E+00 +4.002381E+00 +1.923857E+00 +3.691563E+02 
 +8.576646E+02 -5.861853E+00 +4.766047E+00 -5.861853E+00 +5.000865E+02 -1.122184E+00 +4.766047E+00 -1.122184E+00 +3.633174E+02 
 +8.559309E+02 -1.355212E+01 +9.935298E+00 -1.355212E+01 +4.962744E+02 -1.621109E+00 +9.935298E+00 -1.621109E+00 +3.700859E+02 
 +8.636450E+02 -4.810676E+00 +9.708107E+00 -4.810676E+00 +4.982722E+02 -3.449349E+00 +9.708107E+00 -3.449349E+00 +3.734786E+02 
 +8.674425E+02 +6.022723E+00 +1.220540E+01 +6.022723E+00 +4.899178E+02 -2.689075E+00 +1.220540E+01 -2.689075E+00 +3.521158E+02 
 +8.807351E+02 +8.329480E+00 +9.211135E+00 +8.329480E+00 +4.965407E+02 +1.112647E+01 +9.211135E+00 +1.112647E+01 +3.516620E+02 
 +8.810685E+02 +4.587002E+00 +5.793701E+00 +4.587002E+00 +5.074177E+02 +1.483958E+01 +5.793701E+00 +1.483958E+01 +3.519339E+02 
 +8.799451E+02 -6.576056E-01 +5.630245E+00 -6.576056E-01 +5.115417E+02 +1.217010E+01 +5.630245E+00 +1.217010E+01 +3.534481E+02 
 +8.779091E+02 +4.017380E+00 +3.952729E+00 +4.017380E+00 +5.103370E+02 +7.482977E+00 +3.952729E+00 +7.482977E+00 +3.666401E+02 
 +8.657017E+02 +1.063719E+01 -1.233243E+00 +1.063719E+01 +5.022312E+02 +3.183367E+00 -1.233243E+00 +3.183367E+00 +3.620822E+02 
 +8.632876E+02 +1.697575E+01 -5.065365E+00 +1.697575E+01 +4.888913E+02 +6.784017E+00 -5.065365E+00 +6.784017E+00 +3.538077E+02 
 +8.666443E+02 +1.041860E+01 -1.935254E+00 +1.041860E+01 +4.732313E+02 +2.242105E+01 -1.935254E+00 +2.242105E+01 +3.527571E+02 
 +8.576960E+02 +7.573235E+00 -2.298935E+00 +7.573235E+00 +4.631087E+02 +3.303213E+01 -2.298935E+00 +3.303213E+01 +3.499591E+02 
 +8.537978E+02 +4.116148E+00 -5.569393E+00 +4.116148E+00 +4.678310E+02 +3.025627E+01 -5.569393E+00 +3.025627E+01 +3.529910E+02 
 +8.386661E+02 +6.270045E+00 -3.074826E+00 +6.270045E+00 +4.738090E+02 +1.430340E+01 -3.074826E+00 +1.430340E+01 +3.343268E+02 
 +8.562237E+02 -1.657186E+00 -3.662034E+00 -1.657186E+00 +4.881748E+02 +3.516693E+00 -3.662034E+00 +3.516693E+00 +3.349495E+02 
 +8.618853E+02 -5.482660E+00 -1.712628E+01 -5.482660E+00 +4.960510E+02 +4.653933E+00 -1.712628E+01 +4.653933E+00 +3.664986E+02 
 +8.678763E+02 -2.669351E+00 -2.403629E+01 -2.669351E+00 +5.090688E+02 +1.266990E+01 -2.403629E+01 +1.266990E+01 +3.924596E+02 
 +8.600648E+02 -2.444983E+00 -2.138549E+01 -2.444983E+00 +5.042090E+02 +1.624468E+01 -2.138549E+01 +1.624468E+01 +3.763370E+02 
 +8.654212E+02 -4.388175E+00 -7.460205E+00 -4.388175E+00 +5.066386E+02 +1.103999E+01 -7.460205E+00 +1.103999E+01 +3.685303E+02 
 +8.682770E+02 -1.620819E-01 -1.169280E+00 -1.620819E-01 +5.072962E+02 +8.169083E+00 -1.169280E+00 +8.169083E+00 +3.751228E+02 
 +8.619067E+02 -5.010437E-01 +2.326672E+00 -5.010437E-01 +5.061504E+02 +2.520653E+00 +2.326672E+00 +2.520653E+00 +3.804816E+02 
 +8.610919E+02 -6.396692E+00 +4.557189E+00 -6.396692E+00 +5.012523E+02 +1.655653E+00 +4.557189E+00 +1.655653E+00 +3.763772E+02 
 +8.555210E+02 -1.321535E+01 +8.330338E+00 -1.321535E+01 +4.945282E+02 +4.007660E+00 +8.330338E+00 +4.007660E+00 +3.754932E+02 
 +8.743828E+02 -4.546084E+00 +9.867394E+00 -4.546084E+00 +5.063484E+02 +1.024123E+01 +9.867394E+00 +1.024123E+01 +3.808338E+02 
 +8.843467E+02 +5.276160E+00 +1.440296E+01 +5.276160E+00 +5.046773E+02 +1.903918E+01 +1.440296E+01 +1.903918E+01 +3.625497E+02 
 +8.798569E+02 +1.441990E+01 +1.351192E+01 +1.441990E+01 +5.010337E+02 +2.278565E+01 +1.351192E+01 +2.278565E+01 +3.565213E+02 
 +8.775477E+02 +1.026696E+01 +6.422228E+00 +1.026696E+01 +5.093406E+02 +1.817032E+01 +6.422228E+00 +1.817032E+01 +3.567490E+02 
 +8.781106E+02 -2.966243E+00 +7.837594E+00 -2.966243E+00 +5.086972E+02 +1.467933E+01 +7.837594E+00 +1.467933E+01 +3.488594E+02 
 +8.753954E+02 -2.026702E+00 +2.153578E+00 -2.026702E+00 +5.022612E+02 +1.005962E+01 +2.153578E+00 +1.005962E+01 +3.521206E+02 
 +8.669786E+02 +6.272865E+00 -5.371403E+00 +6.272865E+00 +4.968378E+02 +6.430849E+00 -5.371403E+00 +6.430849E+00 +3.483425E+02 
 +8.671636E+02 +9.999949E+00 -1.170328E-01 +9.999949E+00 +4.858500E+02 +1.026515E+01 -1.170328E-01 +1.026515E+01 +3.437804E+02 
 +8.577512E+02 +6.988867E+00 -9.992744E-01 +6.988867E+00 +4.634317E+02 +2.367506E+01 -9.992744E-01 +2.367506E+01 +3.421599E+02 
 +8.433358E+02 +4.228734E+00 -2.447718E+00 +4.228734E+00 +4.522287E+02 +3.358876E+01 -2.447718E+00 +3.358876E+01 +3.462073E+02 
 +8.435055E+02 -2.640535E-01 -2.682351E+00 -2.640535E-01 +4.612986E+02 +3.317391E+01 -2.682351E+00 +3.317391E+01 +3.497618E+02 
 +8.185281E+02 +4.216657E+00 -3.435547E+00 +4.216657E+00 +4.560466E+02 +2.182497E+01 -3.435547E+00 +2.182497E+01 +3.185292E+02 
 +8.410790E+02 -5.546518E+00 -4.608752E+00 -5.546518E+00 +4.777363E+02 +1.528903E+01 -4.608752E+00 +1.528903E+01 +3.119068E+02 
 +8.594235E+02 -5.597387E+00 -1.185134E+01 -5.597387E+00 +4.995213E+02 +1.241448E+01 -1.185134E+01 +1.241448E+01 +3.322344E+02 
 +8.651709E+02 -4.064718E+00 -1.688458E+01 -4.064718E+00 +5.107241E+02 +1.202496E+01 -1.688458E+01 +1.202496E+01 +3.689186E+02 
 +8.691257E+02 -1.070344E+00 -2.151374E+01 -1.070344E+00 +5.136056E+02 +1.577314E+01 -2.151374E+01 +1.577314E+01 +3.833552E+02 
 +8.723565E+02 -3.991073E+00 -9.289833E+00 -3.991073E+00 +5.101229E+02 +1.483854E+01 -9.289833E+00 +1.483854E+01 +3.724028E+02 
 +8.631028E+02 -3.990250E+00 +2.460812E+00 -3.990250E+00 +5.042512E+02 +1.126818E+01 +2.460812E+00 +1.126818E+01 +3.676945E+02 
 +8.728090E+02 -2.128277E+00 +3.731820E+00 -2.128277E+00 +5.125008E+02 +8.066928E+00 +3.731820E+00 +8.066928E+00 +3.807759E+02 
 +8.698451E+02 -6.802297E+00 -1.217391E+00 -6.802297E+00 +5.088710E+02 +6.113621E+00 -1.217391E+00 +6.113621E+00 +3.826682E+02 
 +8.535911E+02 -8.473057E+00 +6.252892E+00 -8.473057E+00 +4.992846E+02 +5.228235E+00 +6.252892E+00 +5.228235E+00 +3.774564E+02 
 +8.853775E+02 -1.851331E+00 +1.411649E+01 -1.851331E+00 +5.167490E+02 +1.215671E+01 +1.411649E+01 +1.215671E+01 +3.807366E+02 
 +8.874442E+02 +2.121501E+00 +1.209092E+01 +2.121501E+00 +5.139965E+02 +1.676855E+01 +1.209092E+01 +1.676855E+01 +3.652841E+02 
 +8.790700E+02 +9.570972E+00 +8.435107E+00 +9.570972E+00 +5.077160E+02 +1.750778E+01 +8.435107E+00 +1.750778E+01 +3.556469E+02 
 +8.736115E+02 +8.882207E+00 +2.909412E+00 +8.882207E+00 +5.046317E+02 +1.561256E+01 +2.909412E+00 +1.561256E+01 +3.577981E+02 
 +8.746116E+02 -6.249442E+00 -2.858510E+00 -6.249442E+00 +5.071929E+02 -7.928426E+00 -2.858510E+00 -7.928426E+00 +3.644567E+02 
 +8.744679E+02 -6.096014E+00 -2.636818E+00 -6.096014E+00 +5.006692E+02 -2.948471E+01 -2.636818E+00 -2.948471E+01 +3.671182E+02 
 +8.675198E+02 +1.649391E+00 -7.880851E+00 +1.649391E+00 +4.836571E+02 -3.664883E+01 -7.880851E+00 -3.664883E+01 +3.524768E+02 
 +8.720172E+02 -2.263863E+00 -2.257531E+00 -2.263863E+00 +4.761603E+02 -4.139719E+01 -2.257531E+00 -4.139719E+01 +3.393868E+02 
 +8.615165E+02 +6.045305E-01 -2.577642E+00 +6.045305E-01 +4.732116E+02 -2.130923E+01 -2.577642E+00 -2.130923E+01 +3.418692E+02 
 +8.435650E+02 +2.667646E+00 +1.883036E+00 +2.667646E+00 +4.663486E+02 +2.038714E+01 +1.883036E+00 +2.038714E+01 +3.539798E+02 
 +8.201754E+02 +3.692875E+00 +2.043769E+00 +3.692875E+00 +4.585003E+02 +3.881981E+01 +2.043769E+00 +3.881981E+01 +3.543715E+02 
 +8.235602E+02 +9.202774E-01 +3.598416E+00 +9.202774E-01 +4.666093E+02 +3.105762E+01 +3.598416E+00 +3.105762E+01 +3.354180E+02 
 +8.451517E+02 -5.918669E+00 +3.902638E+00 -5.918669E+00 +4.804894E+02 +2.163075E+01 +3.902638E+00 +2.163075E+01 +3.105976E+02 
 +8.536278E+02 -7.067556E+00 -3.798206E+00 -7.067556E+00 +4.946697E+02 +1.556020E+01 -3.798206E+00 +1.556020E+01 +3.050857E+02 
 +8.698758E+02 -6.998234E+00 -4.681918E+00 -6.998234E+00 +5.122665E+02 +1.335070E+01 -4.681918E+00 +1.335070E+01 +3.354560E+02 
 +8.727574E+02 -2.593442E+00 -1.413358E+01 -2.593442E+00 +5.150279E+02 +1.517620E+01 -1.413358E+01 +1.517620E+01 +3.653514E+02 
 +8.707239E+02 -5.746252E+00 -8.535075E+00 -5.746252E+00 +5.095933E+02 +1.623894E+01 -8.535075E+00 +1.623894E+01 +3.674307E+02 
 +8.655172E+02 -1.007499E+01 +5.772322E+00 -1.007499E+01 +5.009311E+02 +1.321167E+01 +5.772322E+00 +1.321167E+01 +3.681786E+02 
 +8.777193E+02 -1.531360E+00 +7.971632E+00 -1.531360E+00 +4.955289E+02 +6.388481E+00 +7.971632E+00 +6.388481E+00 +3.745551E+02 
 +8.709592E+02 -6.104612E+00 -2.123200E+00 -6.104612E+00 +5.026427E+02 +9.443980E+00 -2.123200E+00 +9.443980E+00 +3.809261E+02 
 +8.723860E+02 -5.816707E+00 +3.036776E+00 -5.816707E+00 +5.159165E+02 +1.515214E+01 +3.036776E+00 +1.515214E+01 +3.936972E+02 
 +8.851147E+02 +9.417979E-01 +7.366033E+00 +9.417979E-01 +5.243164E+02 +1.960687E+01 +7.366033E+00 +1.960687E+01 +3.903956E+02 
 +8.811812E+02 +2.668186E+00 +4.836350E+00 +2.668186E+00 +5.275276E+02 +2.166812E+01 +4.836350E+00 +2.166812E+01 +3.785911E+02 
 +8.856698E+02 +2.803880E+00 -4.926590E-01 +2.803880E+00 +5.197306E+02 +1.257382E+01 -4.926590E-01 +1.257382E+01 +3.730339E+02 
 +8.763862E+02 +4.887281E+00 -9.582215E+00 +4.887281E+00 +4.953916E+02 -1.064097E+01 -9.582215E+00 -1.064097E+01 +3.753379E+02 
 +8.693274E+02 -3.838352E+00 -1.441163E+01 -3.838352E+00 +4.951504E+02 -2.828368E+01 -1.441163E+01 -2.828368E+01 +3.828105E+02 
 +8.823169E+02 -7.415586E+00 -2.932776E+00 -7.415586E+00 +5.086991E+02 -2.696884E+01 -2.932776E+00 -2.696884E+01 +3.761564E+02 
 +8.676191E+02 -3.779780E-01 -1.279494E+01 -3.779780E-01 +4.860269E+02 -3.082272E+01 -1.279494E+01 -3.082272E+01 +3.477489E+02 
 +8.708980E+02 -3.495139E+00 -8.756821E+00 -3.495139E+00 +4.785456E+02 -3.637637E+01 -8.756821E+00 -3.637637E+01 +3.419712E+02 
 +8.694153E+02 -3.679211E+00 -7.287124E+00 -3.679211E+00 +4.827972E+02 -2.500578E+01 -7.287124E+00 -2.500578E+01 +3.519140E+02 
 +8.685538E+02 -2.086073E+00 -1.846828E+00 -2.086073E+00 +4.942658E+02 -4.014079E+00 -1.846828E+00 -4.014079E+00 +3.660567E+02 
 +8.274304E+02 +1.292437E+01 -2.093885E+00 +1.292437E+01 +4.898707E+02 +1.713272E+01 -2.093885E+00 +1.713272E+01 +3.814742E+02 
 +8.371956E+02 +9.521510E+00 +5.970647E-01 +9.521510E+00 +4.972761E+02 +2.363219E+01 +5.970647E-01 +2.363219E+01 +3.935562E+02 
 +8.620454E+02 +1.526357E+00 +4.466782E+00 +1.526357E+00 +4.998941E+02 +2.415578E+01 +4.466782E+00 +2.415578E+01 +3.560383E+02 
 +8.662827E+02 -1.564678E+00 +5.335903E-01 -1.564678E+00 +5.023039E+02 +1.892047E+01 +5.335903E-01 +1.892047E+01 +3.245073E+02 
 +8.830302E+02 -5.780673E+00 +1.915561E+00 -5.780673E+00 +5.172005E+02 +9.858940E+00 +1.915561E+00 +9.858940E+00 +3.449389E+02 
 +8.743525E+02 -6.276237E+00 -1.619809E+00 -6.276237E+00 +5.152968E+02 +1.057410E+01 -1.619809E+00 +1.057410E+01 +3.609359E+02 
 +8.629922E+02 -1.144905E+01 -1.735714E-01 -1.144905E+01 +5.097221E+02 +1.700388E+01 -1.735714E-01 +1.700388E+01 +3.621073E+02 
 +8.621023E+02 -5.854677E+00 +1.289756E+00 -5.854677E+00 +4.720633E+02 +1.048322E-01 +1.289756E+00 +1.048322E-01 +3.570999E+02 
 +8.603380E+02 +3.954299E+00 +6.285207E+00 +3.954299E+00 +4.648798E+02 -6.128243E+00 +6.285207E+00 -6.128243E+00 +3.502011E+02 
 +8.550521E+02 +3.865299E+00 +5.364734E+00 +3.865299E+00 +4.658722E+02 -9.312934E+00 +5.364734E+00 -9.312934E+00 +3.498474E+02 
 +8.653762E+02 +2.319352E+00 +2.930593E+00 +2.319352E+00 +4.863767E+02 -3.812168E+00 +2.930593E+00 -3.812168E+00 +3.679588E+02 
 +8.640568E+02 +8.905752E+00 -4.725901E+00 +8.905752E+00 +5.039216E+02 -1.156749E+00 -4.725901E+00 -1.156749E+00 +3.882679E+02 
 +8.590559E+02 +1.139528E+01 -5.477334E+00 +1.139528E+01 +5.015958E+02 -4.171593E+00 -5.477334E+00 -4.171593E+00 +3.836209E+02 
 +8.655494E+02 +6.449024E+00 -8.234359E+00 +6.449024E+00 +4.959136E+02 -8.998004E+00 -8.234359E+00 -8.998004E+00 +3.755662E+02 
 +8.682239E+02 +4.282632E+00 -1.739707E+01 +4.282632E+00 +4.909095E+02 -1.396615E+01 -1.739707E+01 -1.396615E+01 +3.778839E+02 
 +8.613665E+02 -1.485504E-01 -1.498749E+01 -1.485504E-01 +4.851759E+02 -1.831281E+01 -1.498749E+01 -1.831281E+01 +3.666217E+02 
 +8.715451E+02 -7.496571E+00 -3.335543E+00 -7.496571E+00 +4.938119E+02 -2.423334E+01 -3.335543E+00 -2.423334E+01 +3.462444E+02 
 +8.613059E+02 -8.426525E+00 -1.633506E+01 -8.426525E+00 +4.824862E+02 -3.374360E+01 -1.633506E+01 -3.374360E+01 +3.261044E+02 
 +8.600516E+02 -4.119296E+00 -1.573309E+01 -4.119296E+00 +4.783009E+02 -3.172690E+01 -1.573309E+01 -3.172690E+01 +3.328612E+02 
 +8.691934E+02 -1.331735E+00 -1.711598E+01 -1.331735E+00 +4.897882E+02 -2.098801E+01 -1.711598E+01 -2.098801E+01 +3.450535E+02 
 +8.759502E+02 -1.325801E+00 -1.106752E+01 -1.325801E+00 +4.981749E+02 -3.324568E+00 -1.106752E+01 -3.324568E+00 +3.549064E+02 
 +8.341376E+02 +1.232137E+01 -1.248653E+01 +1.232137E+01 +4.899840E+02 +8.587018E+00 -1.248653E+01 +8.587018E+00 +3.681365E+02 
 +8.546932E+02 +1.062623E+01 -2.909040E+00 +1.062623E+01 +5.115767E+02 +6.709782E+00 -2.909040E+00 +6.709782E+00 +4.036184E+02 
 +8.460852E+02 +1.446481E+01 +2.666675E+00 +1.446481E+01 +5.017255E+02 +7.494301E+00 +2.666675E+00 +7.494301E+00 +3.748060E+02 
 +8.826070E+02 +3.237395E+00 +6.859713E+00 +3.237395E+00 +5.172495E+02 +8.149837E+00 +6.859713E+00 +8.149837E+00 +3.587959E+02 
 +8.793758E+02 -7.036584E+00 +9.572284E+00 -7.036584E+00 +5.112284E+02 +1.061417E+01 +9.572284E+00 +1.061417E+01 +3.667958E+02 
 +8.753147E+02 -6.616405E+00 +1.054027E+01 -6.616405E+00 +5.141546E+02 +1.481309E+01 +1.054027E+01 +1.481309E+01 +3.790402E+02 
 +8.682524E+02 -1.247415E+01 +6.241327E+00 -1.247415E+01 +4.989896E+02 +8.728654E+00 +6.241327E+00 +8.728654E+00 +3.720845E+02 
 +8.720117E+02 -6.889700E+00 -2.572338E+00 -6.889700E+00 +4.877954E+02 +1.079200E+01 -2.572338E+00 +1.079200E+01 +3.550727E+02 
 +8.690918E+02 +1.952056E+00 +2.773738E+00 +1.952056E+00 +4.927231E+02 +1.179597E+01 +2.773738E+00 +1.179597E+01 +3.285412E+02 
 +8.743719E+02 +2.653099E+00 +4.692891E+00 +2.653099E+00 +5.020299E+02 +7.972686E+00 +4.692891E+00 +7.972686E+00 +3.220838E+02 
 +8.774488E+02 -1.007989E+00 +4.788715E+00 -1.007989E+00 +5.144752E+02 +5.355747E+00 +4.788715E+00 +5.355747E+00 +3.355931E+02 
 +8.657841E+02 +3.277080E+00 -1.277874E+01 +3.277080E+00 +5.168804E+02 -6.114318E-01 -1.277874E+01 -6.114318E-01 +3.737659E+02 
 +8.639210E+02 +4.560066E+00 -1.622201E+01 +4.560066E+00 +5.098686E+02 -5.789535E+00 -1.622201E+01 -5.789535E+00 +3.834732E+02 
 +8.577258E+02 +5.569334E+00 -1.301986E+01 +5.569334E+00 +4.977903E+02 -9.202149E+00 -1.301986E+01 -9.202149E+00 +3.697309E+02 
 +8.501145E+02 +6.023740E+00 -1.624778E+01 +6.023740E+00 +4.861843E+02 -1.350040E+01 -1.624778E+01 -1.350040E+01 +3.595632E+02 
 +8.510237E+02 +6.405771E+00 -1.482537E+01 +6.405771E+00 +4.786769E+02 -1.046609E+01 -1.482537E+01 -1.046609E+01 +3.467182E+02 
 +8.649512E+02 -1.966301E+00 -1.605961E+01 -1.966301E+00 +4.876299E+02 -1.142073E+01 -1.605961E+01 -1.142073E+01 +3.454880E+02 
 +8.643565E+02 -9.212011E+00 -1.513043E+01 -9.212011E+00 +4.908853E+02 -2.438877E+01 -1.513043E+01 -2.438877E+01 +3.435811E+02 
 +8.641584E+02 -3.328591E+00 -1.390256E+01 -3.328591E+00 +4.905301E+02 -2.646075E+01 -1.390256E+01 -2.646075E+01 +3.433897E+02 
 +8.694426E+02 -1.089250E-01 -2.146471E+01 -1.089250E-01 +4.924149E+02 -1.747218E+01 -2.146471E+01 -1.747218E+01 +3.462481E+02 
 +8.828612E+02 +1.361661E+00 -1.189138E+01 +1.361661E+00 +5.088298E+02 -6.547103E+00 -1.189138E+01 -6.547103E+00 +3.652265E+02 
 +8.368540E+02 +1.318673E+01 -7.402927E+00 +1.318673E+01 +4.805474E+02 +9.761670E+00 -7.402927E+00 +9.761670E+00 +3.573242E+02 
 +8.639345E+02 +6.952940E+00 -1.810098E+00 +6.952940E+00 +4.938131E+02 +1.540382E+01 -1.810098E+00 +1.540382E+01 +3.845955E+02 
 +8.346281E+02 +1.465382E+01 +4.468714E+00 +1.465382E+01 +4.833251E+02 +3.672662E+00 +4.468714E+00 +3.672662E+00 +3.828752E+02 
 +8.688955E+02 +7.601313E+00 +2.000841E+01 +7.601313E+00 +4.966146E+02 +5.233132E+00 +2.000841E+01 +5.233132E+00 +3.892411E+02 
 +8.665938E+02 -2.462831E+00 +1.628410E+01 -2.462831E+00 +4.902397E+02 +1.423075E+01 +1.628410E+01 +1.423075E+01 +3.894133E+02 
 +8.596178E+02 -6.132173E-01 +1.261104E+01 -6.132173E-01 +4.691815E+02 +1.485238E+01 +1.261104E+01 +1.485238E+01 +3.912803E+02 
 +8.673724E+02 -7.523775E+00 +3.425089E+00 -7.523775E+00 +4.692783E+02 +1.136110E+01 +3.425089E+00 +1.136110E+01 +3.849306E+02 
 +8.728445E+02 -5.706865E+00 -1.670038E+00 -5.706865E+00 +5.013717E+02 +1.033988E+01 -1.670038E+00 +1.033988E+01 +3.541476E+02 
 +8.703798E+02 -2.173600E+00 +4.691628E+00 -2.173600E+00 +4.992754E+02 +1.154730E+01 +4.691628E+00 +1.154730E+01 +3.183255E+02 
 +8.779017E+02 -3.901703E-01 -6.376040E-01 -3.901703E-01 +5.087051E+02 +9.997392E+00 -6.376040E-01 +9.997392E+00 +3.233298E+02 
 +8.927216E+02 -4.028959E+00 -1.775220E+00 -4.028959E+00 +5.261522E+02 +4.464311E+00 -1.775220E+00 +4.464311E+00 +3.469853E+02 
 +8.807454E+02 +9.265626E-01 -1.663413E+01 +9.265626E-01 +5.213756E+02 -5.375734E+00 -1.663413E+01 -5.375734E+00 +3.741111E+02 
 +8.636690E+02 +4.919754E+00 -2.112252E+01 +4.919754E+00 +5.043318E+02 -6.871281E+00 -2.112252E+01 -6.871281E+00 +3.769131E+02 
 +8.567475E+02 +7.954618E+00 -1.492829E+01 +7.954618E+00 +4.943742E+02 -5.612552E+00 -1.492829E+01 -5.612552E+00 +3.680519E+02 
 +8.473723E+02 +8.993449E+00 -1.536593E+01 +8.993449E+00 +4.866015E+02 -8.977836E+00 -1.536593E+01 -8.977836E+00 +3.605588E+02 
 +8.497299E+02 +1.129664E+01 -1.324410E+01 +1.129664E+01 +4.822422E+02 -1.543278E+01 -1.324410E+01 -1.543278E+01 +3.569341E+02 
 +8.592224E+02 +6.237747E+00 -2.577653E+01 +6.237747E+00 +4.876171E+02 -1.220611E+01 -2.577653E+01 -1.220611E+01 +3.675424E+02 
 +8.661620E+02 -2.623456E+00 -1.291168E+01 -2.623456E+00 +5.023608E+02 -2.546321E+00 -1.291168E+01 -2.546321E+00 +3.769653E+02 
 +8.674345E+02 -3.532548E+00 -5.707898E+00 -3.532548E+00 +5.055617E+02 -1.394764E+01 -5.707898E+00 -1.394764E+01 +3.657564E+02 
 +8.747671E+02 -3.092859E+00 -1.307617E+01 -3.092859E+00 +4.983823E+02 +5.818030E-01 -1.307617E+01 +5.818030E-01 +3.635862E+02 
 +8.770144E+02 +2.081051E+00 -1.004291E+01 +2.081051E+00 +4.908722E+02 +3.248334E+01 -1.004291E+01 +3.248334E+01 +3.782972E+02 
 +8.530860E+02 +1.005509E+01 +2.668816E+00 +1.005509E+01 +4.785901E+02 +2.682775E+01 +2.668816E+00 +2.682775E+01 +3.763088E+02 
 +8.570762E+02 +6.010763E+00 +1.858232E+00 +6.010763E+00 +4.809982E+02 +1.445932E+01 +1.858232E+00 +1.445932E+01 +3.881536E+02 
 +8.498243E+02 +7.227063E+00 +7.643346E+00 +7.227063E+00 +4.686830E+02 +8.667630E+00 +7.643346E+00 +8.667630E+00 +3.982262E+02 
 +8.490723E+02 +3.893937E+00 +1.256237E+01 +3.893937E+00 +4.588106E+02 -4.488506E-01 +1.256237E+01 -4.488506E-01 +4.004686E+02 
 +8.478609E+02 -1.500316E+00 +7.162866E+00 -1.500316E+00 +4.510479E+02 -6.583555E+00 +7.162866E+00 -6.583555E+00 +3.947013E+02 
 +8.604465E+02 -1.740675E+00 +1.035085E+01 -1.740675E+00 +4.654031E+02 -1.827553E+00 +1.035085E+01 -1.827553E+00 +4.018168E+02 
 +8.733078E+02 -1.622278E+00 +3.492961E+00 -1.622278E+00 +4.927654E+02 +6.891227E+00 +3.492961E+00 +6.891227E+00 +3.992762E+02 
 +8.800132E+02 -4.541552E+00 +6.425109E+00 -4.541552E+00 +5.141417E+02 +1.068394E+01 +6.425109E+00 +1.068394E+01 +3.621009E+02 
 +8.762848E+02 -4.891344E+00 +6.840359E-01 -4.891344E+00 +5.015538E+02 +1.205032E+01 +6.840359E-01 +1.205032E+01 +3.448078E+02 
 +8.719269E+02 -9.249498E-01 -9.539037E+00 -9.249498E-01 +4.767444E+02 +5.155596E+00 -9.539037E+00 +5.155596E+00 +3.590846E+02 
 +8.700440E+02 -2.857813E+00 -1.118254E+01 -2.857813E+00 +4.596157E+02 -4.387591E+00 -1.118254E+01 -4.387591E+00 +3.606485E+02 
 +8.713261E+02 +1.116554E+00 -1.325900E+01 +1.116554E+00 +4.685702E+02 -9.371096E+00 -1.325900E+01 -9.371096E+00 +3.612838E+02 
 +8.604732E+02 +6.170060E+00 -1.749210E+01 +6.170060E+00 +4.839846E+02 -8.239884E+00 -1.749210E+01 -8.239884E+00 +3.640802E+02 
 +8.525602E+02 +8.331692E+00 -1.632809E+01 +8.331692E+00 +4.884257E+02 -5.059970E+00 -1.632809E+01 -5.059970E+00 +3.632427E+02 
 +8.485655E+02 +9.656851E+00 -1.374417E+01 +9.656851E+00 +4.870487E+02 -9.785163E+00 -1.374417E+01 -9.785163E+00 +3.609248E+02 
 +8.539609E+02 +1.036305E+01 -1.535418E+01 +1.036305E+01 +4.950603E+02 -1.540015E+01 -1.535418E+01 -1.540015E+01 +3.720875E+02 
 +8.654027E+02 +8.599585E+00 -2.310653E+01 +8.599585E+00 +5.078914E+02 -4.955101E+00 -2.310653E+01 -4.955101E+00 +3.930041E+02 
 +8.757353E+02 +5.448307E+00 -1.138508E+01 +5.448307E+00 +5.207663E+02 +1.644097E+01 -1.138508E+01 +1.644097E+01 +4.112999E+02 
 +8.686329E+02 +3.123857E+00 -1.312997E+00 +3.123857E+00 +5.155636E+02 +1.316863E+01 -1.312997E+00 +1.316863E+01 +4.017414E+02 
 +8.854063E+02 -3.821147E-01 +1.837276E+00 -3.821147E-01 +5.142570E+02 +7.488369E+00 +1.837276E+00 +7.488369E+00 +3.982859E+02 
 +8.823191E+02 +5.117053E+00 +1.029887E+00 +5.117053E+00 +5.049812E+02 +2.252197E+01 +1.029887E+00 +2.252197E+01 +4.043678E+02 
 +8.705417E+02 +1.011403E+01 +4.658333E+00 +1.011403E+01 +4.900892E+02 +1.504472E+01 +4.658333E+00 +1.504472E+01 +3.984128E+02 
 +8.581564E+02 +6.215109E+00 +1.422059E+00 +6.215109E+00 +4.763722E+02 +4.689428E+00 +1.422059E+00 +4.689428E+00 +3.920996E+02 
 +8.593951E+02 +6.142250E+00 +2.376906E+00 +6.142250E+00 +4.730748E+02 +2.648100E+00 +2.376906E+00 +2.648100E+00 +3.979707E+02 
 +8.558916E+02 +6.256921E-01 -6.093269E+00 +6.256921E-01 +4.665399E+02 -2.802559E+00 -6.093269E+00 -2.802559E+00 +4.011410E+02 
 +8.560011E+02 -5.652988E+00 -4.019300E+00 -5.652988E+00 +4.698361E+02 -6.599939E+00 -4.019300E+00 -6.599939E+00 +4.043171E+02 
 +8.609668E+02 -3.238972E+00 +8.084817E+00 -3.238972E+00 +4.823076E+02 -8.727294E+00 +8.084817E+00 -8.727294E+00 +4.045897E+02 
 +8.703783E+02 +2.596614E-01 +1.323120E+01 +2.596614E-01 +5.011380E+02 -2.949623E-01 +1.323120E+01 -2.949623E-01 +3.945750E+02 
 +8.513247E+02 -4.252829E+00 +9.497918E+00 -4.252829E+00 +4.808586E+02 +1.447085E+01 +9.497918E+00 +1.447085E+01 +3.181571E+02 
 +8.570759E+02 -2.672250E+00 +2.248561E+00 -2.672250E+00 +4.806079E+02 +7.045259E+00 +2.248561E+00 +7.045259E+00 +3.228535E+02 
 +8.638456E+02 -7.643932E+00 -6.766288E+00 -7.643932E+00 +4.670953E+02 +2.746630E+00 -6.766288E+00 +2.746630E+00 +3.513761E+02 
 +8.667830E+02 -6.482635E+00 -1.137170E+01 -6.482635E+00 +4.547471E+02 -2.113080E+00 -1.137170E+01 -2.113080E+00 +3.604027E+02 
 +8.652870E+02 -4.255225E+00 -7.162186E+00 -4.255225E+00 +4.553528E+02 -4.410188E+00 -7.162186E+00 -4.410188E+00 +3.551561E+02 
 +8.612928E+02 +7.812706E-01 -3.878603E+00 +7.812706E-01 +4.590728E+02 -6.505407E+00 -3.878603E+00 -6.505407E+00 +3.540063E+02 
 +8.504624E+02 +3.014890E+00 -8.649236E+00 +3.014890E+00 +4.663925E+02 -3.480625E+00 -8.649236E+00 -3.480625E+00 +3.549564E+02 
 +8.347399E+02 +1.064848E+00 +7.130150E+00 +1.064848E+00 +4.784079E+02 -1.564047E-01 +7.130150E+00 -1.564047E-01 +3.658575E+02 
 +8.511743E+02 +2.999251E+00 +7.487835E+00 +2.999251E+00 +5.010022E+02 +1.002864E+00 +7.487835E+00 +1.002864E+00 +3.886565E+02 
 +8.605178E+02 +9.369603E-03 +2.744397E+00 +9.369603E-03 +5.059373E+02 +4.382624E+00 +2.744397E+00 +4.382624E+00 +3.963058E+02 
 +8.619547E+02 -2.143809E+00 -4.628661E+00 -2.143809E+00 +4.993021E+02 +1.297426E+01 -4.628661E+00 +1.297426E+01 +4.019826E+02 
 +8.534206E+02 -4.839393E+00 -5.174995E+00 -4.839393E+00 +4.863420E+02 +2.268589E+01 -5.174995E+00 +2.268589E+01 +3.959918E+02 
 +8.586464E+02 -7.482415E-01 +6.564891E+00 -7.482415E-01 +4.857093E+02 +2.430011E+01 +6.564891E+00 +2.430011E+01 +4.020466E+02 
 +8.729571E+02 +4.839377E+00 +8.550819E+00 +4.839377E+00 +4.875217E+02 +1.985623E+01 +8.550819E+00 +1.985623E+01 +4.102172E+02 
 +8.767727E+02 +9.685569E+00 +5.206107E+00 +9.685569E+00 +4.808652E+02 +1.481310E+01 +5.206107E+00 +1.481310E+01 +4.006693E+02 
 +8.719364E+02 +9.799782E+00 -3.107715E+00 +9.799782E+00 +4.761316E+02 +8.705836E+00 -3.107715E+00 +8.705836E+00 +3.901964E+02 
 +8.651987E+02 +8.959411E+00 -2.417473E+00 +8.959411E+00 +4.742423E+02 +2.405474E+00 -2.417473E+00 +2.405474E+00 +3.896367E+02 
 +8.614731E+02 +5.788685E+00 -5.908167E+00 +5.788685E+00 +4.743117E+02 +7.269631E+00 -5.908167E+00 +7.269631E+00 +3.961319E+02 
 +8.597319E+02 +3.404553E+00 -5.295638E+00 +3.404553E+00 +4.825152E+02 +1.634439E+01 -5.295638E+00 +1.634439E+01 +3.964166E+02 
 +8.575367E+02 +8.990730E+00 +2.324034E+00 +8.990730E+00 +4.884423E+02 +2.307965E+01 +2.324034E+00 +2.307965E+01 +3.889799E+02 
 +8.526937E+02 +3.050669E+00 +1.288473E+01 +3.050669E+00 +4.838251E+02 +2.160509E+01 +1.288473E+01 +2.160509E+01 +3.569331E+02 
 +8.460671E+02 -3.161438E+00 +9.721484E-01 -3.161438E+00 +4.707140E+02 +4.740441E+00 +9.721484E-01 +4.740441E+00 +3.358253E+02 
 +8.458180E+02 -5.570868E+00 -3.547972E+00 -5.570868E+00 +4.494176E+02 -4.248098E+00 -3.547972E+00 -4.248098E+00 +3.455715E+02 
 +8.494864E+02 -1.027189E+01 -3.190669E+00 -1.027189E+01 +4.427620E+02 -3.833893E+00 -3.190669E+00 -3.833893E+00 +3.560715E+02 
 +8.521071E+02 -8.206175E+00 -4.165949E+00 -8.206175E+00 +4.449734E+02 +2.279496E-01 -4.165949E+00 +2.279496E-01 +3.446437E+02 
 +8.538867E+02 -4.829463E+00 -2.842402E+00 -4.829463E+00 +4.452255E+02 -1.039741E+00 -2.842402E+00 -1.039741E+00 +3.381316E+02 
 +8.536269E+02 -6.997918E-01 -1.162202E+00 -6.997918E-01 +4.472787E+02 -5.065176E+00 -1.162202E+00 -5.065176E+00 +3.404246E+02 
 +8.534849E+02 +3.337085E+00 +1.883838E-01 +3.337085E+00 +4.592157E+02 -1.555191E+00 +1.883838E-01 -1.555191E+00 +3.452969E+02 
 +8.340687E+02 +3.005779E+00 +1.027024E+01 +3.005779E+00 +4.765015E+02 +4.100727E+00 +1.027024E+01 +4.100727E+00 +3.590515E+02 
 +8.463379E+02 +3.677351E+00 +2.608463E+00 +3.677351E+00 +4.985759E+02 +5.547460E+00 +2.608463E+00 +5.547460E+00 +3.835335E+02 
 +8.558324E+02 +2.383906E+00 +6.996293E-01 +2.383906E+00 +5.001225E+02 +9.237351E+00 +6.996293E-01 +9.237351E+00 +3.937265E+02 
 +8.588824E+02 +3.790380E-01 -5.914589E+00 +3.790380E-01 +4.974211E+02 +1.127103E+01 -5.914589E+00 +1.127103E+01 +4.025494E+02 
 +8.555882E+02 -3.699090E+00 +8.802349E-01 -3.699090E+00 +4.887028E+02 +1.464654E+01 +8.802349E-01 +1.464654E+01 +3.936097E+02 
 +8.618832E+02 -4.616180E+00 +4.319630E+00 -4.616180E+00 +4.837996E+02 +2.234479E+01 +4.319630E+00 +2.234479E+01 +3.789964E+02 
 +8.700120E+02 +5.240731E-02 +1.016737E+01 +5.240731E-02 +4.812731E+02 +2.843965E+01 +1.016737E+01 +2.843965E+01 +3.780438E+02 
 +8.676025E+02 +8.863586E+00 +6.034627E-01 +8.863586E+00 +4.768968E+02 +2.350824E+01 +6.034627E-01 +2.350824E+01 +3.852965E+02 
 +8.656757E+02 +1.203489E+01 -1.448477E+01 +1.203489E+01 +4.768051E+02 +1.366533E+01 -1.448477E+01 +1.366533E+01 +3.870236E+02 
 +8.650288E+02 +9.374405E+00 -1.020872E+01 +9.374405E+00 +4.768520E+02 +7.048099E+00 -1.020872E+01 +7.048099E+00 +3.801106E+02 
 +8.617716E+02 +7.994501E+00 -4.968940E+00 +7.994501E+00 +4.786681E+02 +8.196845E+00 -4.968940E+00 +8.196845E+00 +3.751040E+02 
 +8.577408E+02 +8.360523E+00 -1.572198E+00 +8.360523E+00 +4.847541E+02 +1.321219E+01 -1.572198E+00 +1.321219E+01 +3.732157E+02 
 +8.519057E+02 +1.069465E+01 +1.696233E+00 +1.069465E+01 +4.812904E+02 +1.835651E+01 +1.696233E+00 +1.835651E+01 +3.687505E+02 
 +8.511568E+02 +8.354712E+00 +5.027841E+00 +8.354712E+00 +4.796758E+02 +1.592565E+01 +5.027841E+00 +1.592565E+01 +3.541095E+02 
 +8.477478E+02 -1.749588E+00 -1.153182E-01 -1.749588E+00 +4.585190E+02 +2.343821E+01 -1.153182E-01 +2.343821E+01 +3.698251E+02 
 +8.561203E+02 -7.532650E+00 +3.149691E+00 -7.532650E+00 +4.656729E+02 +2.775636E+01 +3.149691E+00 +2.775636E+01 +3.719537E+02 
 +8.550900E+02 -5.727566E+00 +3.816140E+00 -5.727566E+00 +4.648150E+02 +2.681492E+01 +3.816140E+00 +2.681492E+01 +3.646834E+02 
 +8.608263E+02 -4.239498E+00 +4.718101E-01 -4.239498E+00 +4.668240E+02 +2.318938E+01 +4.718101E-01 +2.318938E+01 +3.649986E+02 
 +8.630351E+02 -8.417917E-02 +3.429440E+00 -8.417917E-02 +4.650755E+02 +2.551991E+01 +3.429440E+00 +2.551991E+01 +3.597427E+02 
 +8.625632E+02 +3.409359E+00 +3.740579E+00 +3.409359E+00 +4.672870E+02 +2.912344E+01 +3.740579E+00 +2.912344E+01 +3.571663E+02 
 +8.612331E+02 +9.085591E+00 +8.431952E+00 +9.085591E+00 +4.771628E+02 +2.753830E+01 +8.431952E+00 +2.753830E+01 +3.606688E+02 
 +8.460349E+02 +6.078772E+00 +1.109621E+01 +6.078772E+00 +4.807328E+02 +1.785826E+01 +1.109621E+01 +1.785826E+01 +3.631109E+02 
 +8.519960E+02 +2.041880E+00 +5.737900E-01 +2.041880E+00 +4.955141E+02 +4.329841E+00 +5.737900E-01 +4.329841E+00 +3.787435E+02 
 +8.546184E+02 -1.294904E+00 +8.174660E+00 -1.294904E+00 +5.032008E+02 +1.491310E+00 +8.174660E+00 +1.491310E+00 +3.874681E+02 
 +8.599988E+02 -4.868058E+00 -1.318717E+00 -4.868058E+00 +5.024338E+02 +1.101047E+01 -1.318717E+00 +1.101047E+01 +3.951212E+02 
 +8.542572E+02 -6.855855E+00 +3.819910E+00 -6.855855E+00 +4.873340E+02 +1.838570E+01 +3.819910E+00 +1.838570E+01 +3.920707E+02 
 +8.598172E+02 -2.402522E+00 +2.577290E+00 -2.402522E+00 +4.839720E+02 +1.606662E+01 +2.577290E+00 +1.606662E+01 +3.702138E+02 
 +8.796210E+02 -3.502090E-02 +8.289728E+00 -3.502090E-02 +5.080092E+02 +2.906779E+00 +8.289728E+00 +2.906779E+00 +3.509787E+02 
 +8.794153E+02 -1.365201E-01 +1.610519E+00 -1.365201E-01 +5.105375E+02 +1.013468E+00 +1.610519E+00 +1.013468E+00 +3.547810E+02 
 +8.642319E+02 +7.374427E+00 -8.873508E+00 +7.374427E+00 +4.811039E+02 +1.081329E+01 -8.873508E+00 +1.081329E+01 +3.640869E+02 
 +8.555738E+02 +1.123480E+01 -1.764358E+01 +1.123480E+01 +4.660248E+02 +1.384722E+01 -1.764358E+01 +1.384722E+01 +3.646099E+02 
 +8.565209E+02 +1.099920E+01 -9.583540E+00 +1.099920E+01 +4.726776E+02 +1.083240E+01 -9.583540E+00 +1.083240E+01 +3.648856E+02 
 +8.586330E+02 +8.892300E+00 +3.945940E-01 +8.892300E+00 +4.781604E+02 +1.215091E+01 +3.945940E-01 +1.215091E+01 +3.705718E+02 
 +8.549703E+02 +9.292441E+00 +1.027531E+00 +9.292441E+00 +4.764621E+02 +1.467988E+01 +1.027531E+00 +1.467988E+01 +3.731776E+02 
 +8.524815E+02 +9.475552E+00 -4.199851E+00 +9.475552E+00 +4.674116E+02 +1.676940E+01 -4.199851E+00 +1.676940E+01 +3.712568E+02 
 +8.588159E+02 -4.106426E+00 +6.455467E+00 -4.106426E+00 +4.722515E+02 +2.282733E+01 +6.455467E+00 +2.282733E+01 +3.822030E+02 
 +8.534852E+02 -8.413196E+00 +1.400773E+01 -8.413196E+00 +4.641551E+02 +1.897436E+01 +1.400773E+01 +1.897436E+01 +3.753974E+02 
 +8.519337E+02 -3.901318E+00 +7.187640E+00 -3.901318E+00 +4.610309E+02 +2.258502E+01 +7.187640E+00 +2.258502E+01 +3.687518E+02 
 +8.614845E+02 -1.851931E+00 +2.653535E+00 -1.851931E+00 +4.680380E+02 +3.008646E+01 +2.653535E+00 +3.008646E+01 +3.792173E+02 
 +8.620250E+02 +4.249944E+00 +6.192803E+00 +4.249944E+00 +4.686907E+02 +3.703617E+01 +6.192803E+00 +3.703617E+01 +3.757513E+02 
 +8.582201E+02 +1.025985E+01 +4.575688E+00 +1.025985E+01 +4.732588E+02 +3.963463E+01 +4.575688E+00 +3.963463E+01 +3.699619E+02 
 +8.564107E+02 +1.541567E+01 +6.162533E+00 +1.541567E+01 +4.824556E+02 +3.978366E+01 +6.162533E+00 +3.978366E+01 +3.720177E+02 
 +8.612597E+02 +1.162358E+01 +2.027515E+00 +1.162358E+01 +4.934352E+02 +3.130489E+01 +2.027515E+00 +3.130489E+01 +3.788323E+02 
 +8.607287E+02 +3.863135E+00 +2.540682E+00 +3.863135E+00 +4.991502E+02 +1.519765E+01 +2.540682E+00 +1.519765E+01 +3.921074E+02 
 +8.641372E+02 +1.025130E+00 +9.231762E+00 +1.025130E+00 +5.116535E+02 -8.507118E+00 +9.231762E+00 -8.507118E+00 +4.096182E+02 
 +8.805145E+02 -4.284887E+00 +3.276804E+00 -4.284887E+00 +5.291747E+02 -2.860176E+01 +3.276804E+00 -2.860176E+01 +4.169913E+02 
 +8.759625E+02 -6.529865E+00 +8.172710E+00 -6.529865E+00 +5.282234E+02 -2.151990E+01 +8.172710E+00 -2.151990E+01 +4.005539E+02 
 +8.779235E+02 -1.493993E+00 +3.696274E+00 -1.493993E+00 +5.295984E+02 -4.774970E+00 +3.696274E+00 -4.774970E+00 +3.789313E+02 
 +8.821541E+02 +1.631768E+00 +3.490230E+00 +1.631768E+00 +5.198574E+02 -9.298913E-01 +3.490230E+00 -9.298913E-01 +3.528223E+02 
 +8.799020E+02 -3.151708E+00 +1.617769E+00 -3.151708E+00 +5.148510E+02 -6.914224E+00 +1.617769E+00 -6.914224E+00 +3.430515E+02 
 +8.815640E+02 -2.914165E+00 -1.504319E-01 -2.914165E+00 +5.173146E+02 -1.239536E+01 -1.504319E-01 -1.239536E+01 +3.463686E+02 
 +8.712525E+02 +3.695627E+00 -1.179246E+01 +3.695627E+00 +4.980473E+02 -7.274602E+00 -1.179246E+01 -7.274602E+00 +3.534520E+02 
 +8.620977E+02 +8.859187E+00 -1.368792E+01 +8.859187E+00 +4.797336E+02 +5.883762E+00 -1.368792E+01 +5.883762E+00 +3.716554E+02 
 +8.596637E+02 +6.905668E+00 -4.562911E+00 +6.905668E+00 +4.723307E+02 +1.027028E+01 -4.562911E+00 +1.027028E+01 +3.779160E+02 
 +8.596906E+02 +8.175020E+00 +1.495505E+00 +8.175020E+00 +4.710059E+02 +1.479164E+01 +1.495505E+00 +1.479164E+01 +3.755009E+02 
 +8.652790E+02 +5.305544E+00 -3.879837E+00 +5.305544E+00 +4.760270E+02 +2.614565E+01 -3.879837E+00 +2.614565E+01 +3.797999E+02 
 +8.576051E+02 -5.888584E+00 +7.332451E+00 -5.888584E+00 +4.662362E+02 +3.142003E+01 +7.332451E+00 +3.142003E+01 +3.633717E+02 
 +8.476280E+02 -1.093230E+01 +1.969115E+01 -1.093230E+01 +4.596996E+02 +2.681619E+01 +1.969115E+01 +2.681619E+01 +3.657018E+02 
 +8.470346E+02 -6.648665E+00 +1.394653E+01 -6.648665E+00 +4.537977E+02 +2.900452E+01 +1.394653E+01 +2.900452E+01 +3.574147E+02 
 +8.471803E+02 -3.822962E+00 +7.248726E+00 -3.822962E+00 +4.515138E+02 +3.728223E+01 +7.248726E+00 +3.728223E+01 +3.526889E+02 
 +8.454565E+02 +2.776161E+00 +1.153556E+00 +2.776161E+00 +4.541765E+02 +4.139326E+01 +1.153556E+00 +4.139326E+01 +3.571584E+02 
 +8.429713E+02 +1.230159E+01 +2.241999E+00 +1.230159E+01 +4.634242E+02 +4.279882E+01 +2.241999E+00 +4.279882E+01 +3.687374E+02 
 +8.427032E+02 +1.455048E+01 -9.458028E-01 +1.455048E+01 +4.683621E+02 +4.255220E+01 -9.458028E-01 +4.255220E+01 +3.777417E+02 
 +8.468652E+02 +8.535434E+00 -7.752921E+00 +8.535434E+00 +4.606592E+02 +2.949437E+01 -7.752921E+00 +2.949437E+01 +3.813726E+02 
 +8.497741E+02 +5.596311E+00 +7.854805E+00 +5.596311E+00 +4.650956E+02 +2.120870E+01 +7.854805E+00 +2.120870E+01 +3.995160E+02 
 +8.607692E+02 +5.614906E+00 +1.334012E+01 +5.614906E+00 +4.844403E+02 +1.986991E+01 +1.334012E+01 +1.986991E+01 +4.295908E+02 
 +8.763338E+02 +1.318041E+00 +2.057226E+00 +1.318041E+00 +5.109188E+02 +1.113642E+01 +2.057226E+00 +1.113642E+01 +4.323443E+02 
 +8.857055E+02 -1.479466E+00 +5.730840E+00 -1.479466E+00 +5.404629E+02 -3.232756E+00 +5.730840E+00 -3.232756E+00 +4.092992E+02 
 +8.808279E+02 -6.995341E-01 +5.721998E+00 -6.995341E-01 +5.359427E+02 -1.546725E+01 +5.721998E+00 -1.546725E+01 +3.799997E+02 
 +8.709521E+02 +6.936839E-01 +3.384550E+00 +6.936839E-01 +5.137266E+02 -1.648635E+01 +3.384550E+00 -1.648635E+01 +3.565274E+02 
 +8.735040E+02 -2.185955E+00 +1.503664E+00 -2.185955E+00 +5.068291E+02 -7.933341E+00 +1.503664E+00 -7.933341E+00 +3.498183E+02 
 +8.711637E+02 -4.108631E+00 -3.961601E+00 -4.108631E+00 +4.999193E+02 -1.789992E+00 -3.961601E+00 -1.789992E+00 +3.401738E+02 
 +8.707650E+02 -3.805862E+00 -6.722702E+00 -3.805862E+00 +4.916342E+02 -3.388381E+00 -6.722702E+00 -3.388381E+00 +3.468275E+02 
 +8.656664E+02 +3.200414E+00 -1.070497E+01 +3.200414E+00 +4.793155E+02 +1.041411E+00 -1.070497E+01 +1.041411E+00 +3.667266E+02 
 +8.640430E+02 +6.631407E+00 -5.850809E+00 +6.631407E+00 +4.740668E+02 +1.817094E+01 -5.850809E+00 +1.817094E+01 +3.702674E+02 
 +8.640005E+02 +8.199616E+00 +2.218269E+00 +8.199616E+00 +4.727472E+02 +2.781648E+01 +2.218269E+00 +2.781648E+01 +3.672151E+02 
 +8.620277E+02 +4.471344E+00 -5.112734E-01 +4.471344E+00 +4.690748E+02 +3.254827E+01 -5.112734E-01 +3.254827E+01 +3.618626E+02 
 +8.608659E+02 -7.151000E+00 +6.011733E+00 -7.151000E+00 +4.698319E+02 +3.405995E+01 +6.011733E+00 +3.405995E+01 +3.498083E+02 
 +8.538251E+02 -1.333843E+01 +1.767068E+01 -1.333843E+01 +4.750625E+02 +3.013710E+01 +1.767068E+01 +3.013710E+01 +3.539027E+02 
 +8.531679E+02 -9.250309E+00 +1.469691E+01 -9.250309E+00 +4.692731E+02 +3.404357E+01 +1.469691E+01 +3.404357E+01 +3.496241E+02 
 +8.493036E+02 -3.176423E+00 +6.030669E+00 -3.176423E+00 +4.648470E+02 +4.053384E+01 +6.030669E+00 +4.053384E+01 +3.470421E+02 
 +8.492414E+02 +1.710434E+00 -2.284385E+00 +1.710434E+00 +4.676243E+02 +4.296470E+01 -2.284385E+00 +4.296470E+01 +3.678683E+02 
 +8.193805E+02 +9.095286E+00 -5.605437E+00 +9.095286E+00 +4.457521E+02 +4.085217E+01 -5.605437E+00 +4.085217E+01 +3.905877E+02 
 +8.332915E+02 +7.922663E+00 -7.394563E+00 +7.922663E+00 +4.519775E+02 +2.815091E+01 -7.394563E+00 +2.815091E+01 +4.066043E+02 
 +8.561903E+02 +1.584498E+00 +3.659457E+00 +1.584498E+00 +4.685243E+02 +2.375774E+01 +3.659457E+00 +2.375774E+01 +4.027273E+02 
 +8.635079E+02 +1.871933E+00 +1.225311E+01 +1.871933E+00 +4.756365E+02 +2.299501E+01 +1.225311E+01 +2.299501E+01 +4.094933E+02 
 +8.675195E+02 +6.628462E-01 +1.920063E+01 +6.628462E-01 +4.866555E+02 +1.646617E+01 +1.920063E+01 +1.646617E+01 +4.304741E+02 
 +8.720905E+02 +2.536877E+00 +9.630831E+00 +2.536877E+00 +4.948512E+02 +6.685531E+00 +9.630831E+00 +6.685531E+00 +4.347651E+02 
 +8.746062E+02 +4.275799E+00 -8.272912E-01 +4.275799E+00 +4.997380E+02 -6.188560E-01 -8.272912E-01 -6.188560E-01 +4.106984E+02 
 +8.742926E+02 -9.371892E-01 +1.131671E-01 -9.371892E-01 +5.150578E+02 -5.558014E+00 +1.131671E-01 -5.558014E+00 +3.747926E+02 
 +8.594754E+02 -1.690985E+00 +5.601644E+00 -1.690985E+00 +5.117808E+02 -4.359339E+00 +5.601644E+00 -4.359339E+00 +3.473623E+02 
 +8.738543E+02 -1.159073E+00 +4.904913E+00 -1.159073E+00 +5.097211E+02 +4.668330E+00 +4.904913E+00 +4.668330E+00 +3.514035E+02 
 +8.746835E+02 -3.335414E-01 -9.767048E+00 -3.335414E-01 +5.032670E+02 +7.055049E+00 -9.767048E+00 +7.055049E+00 +3.500896E+02 
 +8.690802E+02 -5.162695E+00 -1.045580E+01 -5.162695E+00 +4.910558E+02 +9.260803E+00 -1.045580E+01 +9.260803E+00 +3.482367E+02 
 +8.635935E+02 +1.806420E+00 -5.980858E+00 +1.806420E+00 +4.721051E+02 +2.044952E+01 -5.980858E+00 +2.044952E+01 +3.483972E+02 
 +8.499073E+02 +6.373011E+00 -6.786777E+00 +6.373011E+00 +4.529603E+02 +2.595651E+01 -6.786777E+00 +2.595651E+01 +3.394570E+02 
 +8.521733E+02 +7.477414E+00 -9.523303E-02 +7.477414E+00 +4.575689E+02 +2.990881E+01 -9.523303E-02 +2.990881E+01 +3.420587E+02 
 +8.585426E+02 +7.209950E-01 +1.130628E+00 +7.209950E-01 +4.634788E+02 +3.416078E+01 +1.130628E+00 +3.416078E+01 +3.436892E+02 
 +8.636146E+02 -6.302760E+00 -6.751929E-01 -6.302760E+00 +4.649590E+02 +3.288954E+01 -6.751929E-01 +3.288954E+01 +3.450906E+02 
 +8.548702E+02 -1.062975E+01 +1.140231E+01 -1.062975E+01 +4.639630E+02 +3.189664E+01 +1.140231E+01 +3.189664E+01 +3.312450E+02 
 +8.512432E+02 -8.142862E+00 +1.178210E+01 -8.142862E+00 +4.716136E+02 +4.308138E+01 +1.178210E+01 +4.308138E+01 +3.356553E+02 
 +8.548838E+02 -2.946746E-01 +3.634442E+00 -2.946746E-01 +4.821818E+02 +5.294972E+01 +3.634442E+00 +5.294972E+01 +3.554195E+02 
 +8.386043E+02 -5.114904E+00 -2.057456E+00 -5.114904E+00 +4.843038E+02 +4.777895E+01 -2.057456E+00 +4.777895E+01 +3.873260E+02 
 +8.090983E+02 -7.479793E+00 -1.122053E+01 -7.479793E+00 +4.717748E+02 +3.432779E+01 -1.122053E+01 +3.432779E+01 +4.160966E+02 
 +8.599915E+02 -2.859566E-01 -4.170041E+00 -2.859566E-01 +4.855551E+02 +2.771356E+01 -4.170041E+00 +2.771356E+01 +4.261799E+02 
 +8.655091E+02 +1.323298E-01 +1.333893E+01 +1.323298E-01 +4.753361E+02 +2.275590E+01 +1.333893E+01 +2.275590E+01 +4.020305E+02 
 +8.657517E+02 +1.005178E+00 +1.352265E+01 +1.005178E+00 +4.776633E+02 +1.397317E+01 +1.352265E+01 +1.397317E+01 +4.046060E+02 
 +8.659647E+02 -9.016455E-02 +1.089058E+01 -9.016455E-02 +4.792585E+02 +8.433098E+00 +1.089058E+01 +8.433098E+00 +4.133734E+02 
 +8.687279E+02 -3.941364E-01 +1.203692E+01 -3.941364E-01 +4.778367E+02 -8.769060E-01 +1.203692E+01 -8.769060E-01 +4.160715E+02 
 +8.789983E+02 +8.182469E+00 +6.510466E+00 +8.182469E+00 +4.930040E+02 -1.089235E+01 +6.510466E+00 -1.089235E+01 +4.042684E+02 
 +8.830799E+02 +6.109053E+00 +3.669769E+00 +6.109053E+00 +5.133306E+02 -1.533826E+01 +3.669769E+00 -1.533826E+01 +3.771561E+02 
 +8.700214E+02 -4.466427E-01 +1.015608E+01 -4.466427E-01 +5.098391E+02 -1.225032E+01 +1.015608E+01 -1.225032E+01 +3.594270E+02 
 +8.684531E+02 +3.335056E+00 +7.090234E+00 +3.335056E+00 +5.048857E+02 -5.674953E-01 +7.090234E+00 -5.674953E-01 +3.571714E+02 
 +8.665617E+02 -5.222292E-02 -8.028228E+00 -5.222292E-02 +5.012501E+02 +1.446695E+01 -8.028228E+00 +1.446695E+01 +3.557982E+02 
 +8.613517E+02 -1.221396E+01 -1.343924E+01 -1.221396E+01 +4.887976E+02 +2.186764E+01 -1.343924E+01 +2.186764E+01 +3.507992E+02 
 +8.638120E+02 -7.262092E+00 -8.866707E+00 -7.262092E+00 +4.828333E+02 +1.541030E+01 -8.866707E+00 +1.541030E+01 +3.441073E+02 
 +8.566745E+02 -3.844413E+00 -1.416808E+01 -3.844413E+00 +4.733147E+02 +1.531640E+01 -1.416808E+01 +1.531640E+01 +3.372487E+02 
 +8.619824E+02 +3.108104E+00 -4.746605E+00 +3.108104E+00 +4.681417E+02 +2.856376E+01 -4.746605E+00 +2.856376E+01 +3.407025E+02 
 +8.624524E+02 -3.798020E+00 -2.475041E+00 -3.798020E+00 +4.650002E+02 +3.541480E+01 -2.475041E+00 +3.541480E+01 +3.460905E+02 
 +8.438895E+02 -7.010510E+00 -9.352972E-01 -7.010510E+00 +4.279856E+02 +2.492032E+01 -9.352972E-01 +2.492032E+01 +3.174374E+02 
 +8.522666E+02 -9.540926E+00 +3.543154E+00 -9.540926E+00 +4.497339E+02 +4.141821E+01 +3.543154E+00 +4.141821E+01 +3.041719E+02 
 +8.641672E+02 -9.081815E+00 +5.259567E+00 -9.081815E+00 +4.878174E+02 +5.255816E+01 +5.259567E+00 +5.255816E+01 +3.360150E+02 
 +8.520147E+02 -5.911549E+00 +3.308588E-01 -5.911549E+00 +5.029213E+02 +4.721677E+01 +3.308588E-01 +4.721677E+01 +3.722912E+02 
 +8.152904E+02 -1.106571E+01 -4.128383E+00 -1.106571E+01 +4.915799E+02 +2.330593E+01 -4.128383E+00 +2.330593E+01 +3.977084E+02 
 +7.969499E+02 -9.484373E+00 -8.910519E+00 -9.484373E+00 +4.672501E+02 +1.252015E+01 -8.910519E+00 +1.252015E+01 +4.026173E+02 
 +8.559953E+02 +2.130788E+00 -2.501655E+00 +2.130788E+00 +4.725848E+02 +1.539547E+01 -2.501655E+00 +1.539547E+01 +3.946610E+02 
 +8.642244E+02 +3.610733E+00 +6.480178E+00 +3.610733E+00 +4.709684E+02 +1.490016E+01 +6.480178E+00 +1.490016E+01 +3.830492E+02 
 +8.656032E+02 +2.677657E+00 +9.769393E+00 +2.677657E+00 +4.768315E+02 +1.031254E+01 +9.769393E+00 +1.031254E+01 +3.969839E+02 
 +8.663265E+02 -7.385016E-01 +6.792136E+00 -7.385016E-01 +4.763135E+02 +3.145046E+00 +6.792136E+00 +3.145046E+00 +4.039426E+02 
 +8.660721E+02 -1.843472E+00 +8.031388E+00 -1.843472E+00 +4.703015E+02 -4.450564E+00 +8.031388E+00 -4.450564E+00 +3.955377E+02 
 +8.634954E+02 +8.709280E+00 +1.693085E+01 +8.709280E+00 +4.516002E+02 -9.870004E+00 +1.693085E+01 -9.870004E+00 +3.775426E+02 
 +8.674352E+02 +1.265409E+01 +1.343153E+01 +1.265409E+01 +4.490305E+02 -1.336598E+01 +1.343153E+01 -1.336598E+01 +3.691638E+02 
 +8.511818E+02 -2.090462E+00 +1.425758E+01 -2.090462E+00 +4.582261E+02 -9.633721E+00 +1.425758E+01 -9.633721E+00 +3.608120E+02 
 +8.454490E+02 -2.510891E+00 +1.142698E+01 -2.510891E+00 +4.695365E+02 -2.148748E+00 +1.142698E+01 -2.148748E+00 +3.570121E+02 
 +8.437911E+02 -4.492510E+00 +4.632582E+00 -4.492510E+00 +4.766695E+02 +1.283031E+01 +4.632582E+00 +1.283031E+01 +3.580327E+02 
 +8.539998E+02 -1.476869E+01 -1.190196E+01 -1.476869E+01 +4.890980E+02 +2.200100E+01 -1.190196E+01 +2.200100E+01 +3.573444E+02 
 +8.593050E+02 -8.726234E+00 -1.835531E+01 -8.726234E+00 +4.856627E+02 +1.845712E+01 -1.835531E+01 +1.845712E+01 +3.432689E+02 
 +8.509512E+02 -5.752994E+00 -1.651762E+01 -5.752994E+00 +4.642887E+02 +1.189923E+01 -1.651762E+01 +1.189923E+01 +3.323696E+02 
 +8.617822E+02 -5.611859E-01 -1.088206E+01 -5.611859E-01 +4.559318E+02 +9.557280E+00 -1.088206E+01 +9.557280E+00 +3.467563E+02 
 +8.534197E+02 -6.657544E+00 -4.508219E+00 -6.657544E+00 +4.385619E+02 +1.461930E+01 -4.508219E+00 +1.461930E+01 +3.463923E+02 
 +8.690817E+02 -7.784438E+00 +6.595932E-03 -7.784438E+00 +4.834151E+02 +3.612533E+01 +6.595932E-03 +3.612533E+01 +3.018460E+02 
 +8.641572E+02 -1.263751E+01 -4.281800E+00 -1.263751E+01 +4.913605E+02 +4.438606E+01 -4.281800E+00 +4.438606E+01 +2.912453E+02 
 +8.697766E+02 -1.928345E+01 -5.135061E+00 -1.928345E+01 +5.096134E+02 +3.717409E+01 -5.135061E+00 +3.717409E+01 +3.200614E+02 
 +8.465497E+02 -1.928236E+01 -1.229201E+01 -1.928236E+01 +5.118832E+02 +1.899194E+01 -1.229201E+01 +1.899194E+01 +3.553384E+02 
 +8.194821E+02 -1.367180E+01 -1.176798E+01 -1.367180E+01 +4.984506E+02 +6.494746E+00 -1.176798E+01 +6.494746E+00 +3.822831E+02 
 +8.097489E+02 -1.239869E+01 -1.125383E+01 -1.239869E+01 +4.852805E+02 +5.975968E+00 -1.125383E+01 +5.975968E+00 +3.897570E+02 
 +8.606954E+02 -3.410995E+00 -8.919369E+00 -3.410995E+00 +4.894968E+02 +1.050180E+01 -8.919369E+00 +1.050180E+01 +3.979181E+02 
 +8.602111E+02 +3.762888E+00 -1.696504E+00 +3.762888E+00 +4.650322E+02 +1.217468E+01 -1.696504E+00 +1.217468E+01 +3.828240E+02 
 +8.597091E+02 +3.372551E+00 +5.075672E+00 +3.372551E+00 +4.622201E+02 +5.754720E+00 +5.075672E+00 +5.754720E+00 +3.876271E+02 
 +8.621929E+02 -7.378169E-01 +4.960146E+00 -7.378169E-01 +4.637698E+02 -1.700611E+00 +4.960146E+00 -1.700611E+00 +3.965548E+02 
 +8.625100E+02 -1.764418E+00 +6.074325E+00 -1.764418E+00 +4.553620E+02 -1.188841E+01 +6.074325E+00 -1.188841E+01 +3.865024E+02 
 +8.699438E+02 +5.096670E+00 +2.240812E+01 +5.096670E+00 +4.522325E+02 -1.994240E+01 +2.240812E+01 -1.994240E+01 +3.832190E+02 
 +8.802189E+02 +1.087957E+01 +2.229239E+01 +1.087957E+01 +4.576164E+02 -1.935659E+01 +2.229239E+01 -1.935659E+01 +3.877196E+02 
 +8.501476E+02 -1.363239E+00 +2.081953E+01 -1.363239E+00 +4.515972E+02 -1.227246E+01 +2.081953E+01 -1.227246E+01 +3.648519E+02 
 +8.476467E+02 -7.022256E-01 +1.519048E+01 -7.022256E-01 +4.678286E+02 -6.603929E+00 +1.519048E+01 -6.603929E+00 +3.622248E+02 
 +8.485852E+02 +2.516496E-01 +1.135656E+01 +2.516496E-01 +4.774183E+02 -1.233633E+00 +1.135656E+01 -1.233633E+00 +3.657843E+02 
 +8.497729E+02 -4.882498E+00 +1.497604E+00 -4.882498E+00 +4.810068E+02 +4.722733E+00 +1.497604E+00 +4.722733E+00 +3.610800E+02 
 +8.588957E+02 -1.526988E+00 -2.122408E+01 -1.526988E+00 +4.868391E+02 +1.685688E+01 -2.122408E+01 +1.685688E+01 +3.492593E+02 
 +8.492615E+02 -4.209291E+00 -1.991200E+01 -4.209291E+00 +4.699688E+02 +1.744856E+01 -1.991200E+01 +1.744856E+01 +3.297731E+02 
 +8.498512E+02 -3.213565E+00 -1.288344E+01 -3.213565E+00 +4.485956E+02 +1.070468E+01 -1.288344E+01 +1.070468E+01 +3.346713E+02 
 +8.444703E+02 -4.869748E+00 -5.382964E+00 -4.869748E+00 +4.475328E+02 +2.044165E+01 -5.382964E+00 +2.044165E+01 +3.231760E+02 
 +8.893917E+02 -4.118118E+00 -3.781152E-01 -4.118118E+00 +5.232547E+02 +2.325318E+01 -3.781152E-01 +2.325318E+01 +3.319585E+02 
 +8.807803E+02 -9.878885E+00 -6.549835E+00 -9.878885E+00 +5.247070E+02 +3.573762E+01 -6.549835E+00 +3.573762E+01 +3.314099E+02 
 +8.658759E+02 -1.403457E+01 -1.595824E+01 -1.403457E+01 +5.147388E+02 +3.273755E+01 -1.595824E+01 +3.273755E+01 +3.307020E+02 
 +8.487446E+02 -1.432196E+01 -2.132352E+01 -1.432196E+01 +4.994891E+02 +2.490847E+01 -2.132352E+01 +2.490847E+01 +3.435690E+02 
 +8.240463E+02 -1.281977E+01 -1.471874E+01 -1.281977E+01 +4.899991E+02 +1.780912E+01 -1.471874E+01 +1.780912E+01 +3.541729E+02 
 +8.279922E+02 -1.151588E+01 -7.574287E+00 -1.151588E+01 +4.938908E+02 +9.549434E+00 -7.574287E+00 +9.549434E+00 +3.714969E+02 
 +8.631804E+02 -2.533149E+00 -5.178915E+00 -2.533149E+00 +5.020235E+02 +3.751639E+00 -5.178915E+00 +3.751639E+00 +3.942985E+02 
 +8.505037E+02 +5.400453E+00 -5.677504E+00 +5.400453E+00 +4.647224E+02 +8.486746E+00 -5.677504E+00 +8.486746E+00 +3.784383E+02 
 +8.466124E+02 +8.315061E+00 +1.157476E+00 +8.315061E+00 +4.399371E+02 +1.009239E+01 +1.157476E+00 +1.009239E+01 +3.742428E+02 
 +8.443677E+02 +1.069815E+00 +2.753469E+00 +1.069815E+00 +4.336642E+02 +3.559088E+00 +2.753469E+00 +3.559088E+00 +3.769160E+02 
 +8.490417E+02 -3.110498E+00 +5.536360E+00 -3.110498E+00 +4.336793E+02 -8.097470E+00 +5.536360E+00 -8.097470E+00 +3.686640E+02 
 +8.580255E+02 +2.422898E+00 +2.332003E+01 +2.422898E+00 +4.453049E+02 -1.155525E+01 +2.332003E+01 -1.155525E+01 +3.682364E+02 
 +8.686846E+02 +4.912998E+00 +2.104332E+01 +4.912998E+00 +4.538850E+02 -7.379387E+00 +2.104332E+01 -7.379387E+00 +3.693104E+02 
 +8.626042E+02 +5.020825E-01 +1.757596E+01 +5.020825E-01 +4.544982E+02 -8.994534E+00 +1.757596E+01 -8.994534E+00 +3.660912E+02 
 +8.586455E+02 -7.549350E-01 +1.953214E+01 -7.549350E-01 +4.664329E+02 -1.125039E+01 +1.953214E+01 -1.125039E+01 +3.746262E+02 
 +8.634796E+02 -8.234627E-01 +1.334275E+01 -8.234627E-01 +4.763322E+02 -2.022271E+00 +1.334275E+01 -2.022271E+00 +3.754229E+02 
 +8.688812E+02 -2.407768E+00 +1.218211E+01 -2.407768E+00 +4.867327E+02 +3.059907E+00 +1.218211E+01 +3.059907E+00 +3.793366E+02 
 +8.566307E+02 +3.491910E+00 -1.991101E+01 +3.491910E+00 +4.873396E+02 +2.232374E+00 -1.991101E+01 +2.232374E+00 +3.643804E+02 
 +8.606212E+02 -3.201227E+00 -2.273064E+01 -3.201227E+00 +4.995461E+02 -2.216554E+00 -2.273064E+01 -2.216554E+00 +3.549281E+02 
 +8.753866E+02 -3.568920E+00 -1.104752E+01 -3.568920E+00 +5.249857E+02 -8.420998E+00 -1.104752E+01 -8.420998E+00 +3.600094E+02 
 +8.632531E+02 -2.739479E-01 -7.750519E+00 -2.739479E-01 +5.181710E+02 +9.527971E-01 -7.750519E+00 +9.527971E-01 +3.332369E+02 
 +8.706915E+02 -5.029650E+00 +1.044499E+00 -5.029650E+00 +5.010431E+02 -8.183346E+00 +1.044499E+00 -8.183346E+00 +3.602429E+02 
 +8.826948E+02 -3.674045E+00 -5.363814E+00 -3.674045E+00 +5.074542E+02 -1.079920E+01 -5.363814E+00 -1.079920E+01 +3.684461E+02 
 +8.587034E+02 -1.564831E+01 -1.498395E+01 -1.564831E+01 +5.011466E+02 +2.490368E+00 -1.498395E+01 +2.490368E+00 +3.649233E+02 
 +8.386769E+02 -1.986357E+01 -8.395022E+00 -1.986357E+01 +4.792791E+02 +1.032973E+01 -8.395022E+00 +1.032973E+01 +3.446138E+02 
 +8.313853E+02 -8.837383E+00 -1.154425E+00 -8.837383E+00 +4.692610E+02 +1.184629E+01 -1.154425E+00 +1.184629E+01 +3.203261E+02 
 +8.537755E+02 -2.504127E+00 +2.569099E-01 -2.504127E+00 +4.998831E+02 +1.312990E+01 +2.569099E-01 +1.312990E+01 +3.381348E+02 
 +8.724859E+02 +2.512365E+00 +8.513357E-01 +2.512365E+00 +5.280639E+02 +9.860164E+00 +8.513357E-01 +9.860164E+00 +3.578259E+02 
 +8.760657E+02 +1.002204E+01 -4.392940E+00 +1.002204E+01 +5.356550E+02 +1.263975E+01 -4.392940E+00 +1.263975E+01 +3.637519E+02 
 +8.836568E+02 +1.544908E+01 -3.159529E+00 +1.544908E+01 +5.298370E+02 +2.213363E+01 -3.159529E+00 +2.213363E+01 +3.755681E+02 
 +8.821618E+02 +1.108797E+01 +4.950043E+00 +1.108797E+01 +5.170622E+02 +2.614678E+01 +4.950043E+00 +2.614678E+01 +3.832658E+02 
 +8.817867E+02 +7.650175E+00 +1.040401E+01 +7.650175E+00 +5.166661E+02 +1.854006E+01 +1.040401E+01 +1.854006E+01 +3.804971E+02 
 +8.759883E+02 +1.165594E+01 +1.514060E+01 +1.165594E+01 +5.120371E+02 +7.151892E-01 +1.514060E+01 +7.151892E-01 +3.638790E+02 
 +8.757070E+02 +6.056687E+00 +4.542024E+00 +6.056687E+00 +4.963476E+02 -1.628516E+01 +4.542024E+00 -1.628516E+01 +3.401825E+02 
 +8.675119E+02 +1.443668E+00 +3.125401E+00 +1.443668E+00 +4.731617E+02 -2.024522E+01 +3.125401E+00 -2.024522E+01 +3.378513E+02 
 +8.653391E+02 -2.720762E+00 +1.331813E+01 -2.720762E+00 +4.689621E+02 -1.288070E+01 +1.331813E+01 -1.288070E+01 +3.673378E+02 
 +8.717710E+02 -7.058842E+00 +1.695548E+01 -7.058842E+00 +4.725676E+02 -6.097861E+00 +1.695548E+01 -6.097861E+00 +3.778557E+02 
 +8.879683E+02 -8.293910E+00 +1.854191E+01 -8.293910E+00 +4.888187E+02 +2.455358E-01 +1.854191E+01 +2.455358E-01 +3.879735E+02 
 +8.554894E+02 -2.776462E+00 -1.961681E+01 -2.776462E+00 +4.867693E+02 -6.647811E-01 -1.961681E+01 -6.647811E-01 +3.792862E+02 
 +8.603156E+02 -7.677098E+00 -2.205560E+01 -7.677098E+00 +5.048540E+02 -2.749725E+00 -2.205560E+01 -2.749725E+00 +3.819603E+02 
 +8.577505E+02 -5.393960E+00 -1.093704E+01 -5.393960E+00 +5.123707E+02 -4.499077E+00 -1.093704E+01 -4.499077E+00 +3.643237E+02 
 +8.559233E+02 -6.225129E+00 -4.654163E+00 -6.225129E+00 +5.044532E+02 -2.743057E+00 -4.654163E+00 -2.743057E+00 +3.456272E+02 
 +8.575608E+02 -2.372457E+00 -3.160121E+00 -2.372457E+00 +4.864779E+02 -1.285430E+01 -3.160121E+00 -1.285430E+01 +3.547334E+02 
 +8.720789E+02 +3.441225E+00 -7.895892E-02 +3.441225E+00 +4.918450E+02 -1.251782E+01 -7.895892E-02 -1.251782E+01 +3.588864E+02 
 +8.406109E+02 -9.194789E+00 +1.261007E+00 -9.194789E+00 +4.767091E+02 +3.801995E+00 +1.261007E+00 +3.801995E+00 +3.555632E+02 
 +8.272216E+02 -1.426029E+01 +9.573731E+00 -1.426029E+01 +4.664409E+02 +1.430906E+01 +9.573731E+00 +1.430906E+01 +3.364353E+02 
 +8.526279E+02 -3.772742E+00 +1.030952E+01 -3.772742E+00 +4.740855E+02 +1.744499E+01 +1.030952E+01 +1.744499E+01 +3.184551E+02 
 +8.635786E+02 -4.498067E+00 +2.465719E+00 -4.498067E+00 +4.894726E+02 +1.843036E+01 +2.465719E+00 +1.843036E+01 +3.211528E+02 
 +8.625545E+02 -4.474509E+00 +1.680712E+00 -4.474509E+00 +5.055522E+02 +1.474881E+01 +1.680712E+00 +1.474881E+01 +3.278430E+02 
 +8.660208E+02 -9.746097E-02 -1.949829E+00 -9.746097E-02 +5.154372E+02 +1.510054E+01 -1.949829E+00 +1.510054E+01 +3.327428E+02 
 +8.687861E+02 +4.738174E+00 -4.347135E-01 +4.738174E+00 +5.144030E+02 +1.986057E+01 -4.347135E-01 +1.986057E+01 +3.397923E+02 
 +8.728864E+02 +7.776131E+00 +7.304974E+00 +7.776131E+00 +5.131276E+02 +2.113656E+01 +7.304974E+00 +2.113656E+01 +3.571875E+02 
 +8.708788E+02 +1.117812E+01 +1.133919E+01 +1.117812E+01 +5.120667E+02 +1.367341E+01 +1.133919E+01 +1.367341E+01 +3.640151E+02 
 +8.553412E+02 +1.710403E+01 +2.151942E+00 +1.710403E+01 +4.983795E+02 -1.886232E+00 +2.151942E+00 -1.886232E+00 +3.435246E+02 
 +8.585246E+02 +1.029301E+01 -7.611516E+00 +1.029301E+01 +4.920484E+02 -1.617548E+01 -7.611516E+00 -1.617548E+01 +3.312472E+02 
 +8.635955E+02 +3.404567E+00 -2.775270E+00 +3.404567E+00 +4.908907E+02 -2.117052E+01 -2.775270E+00 -2.117052E+01 +3.355744E+02 
 +8.661191E+02 -2.631412E+00 +1.543737E+00 -2.631412E+00 +4.877178E+02 -1.734445E+01 +1.543737E+00 -1.734445E+01 +3.550677E+02 
 +8.704444E+02 -1.377121E+01 +1.136787E+01 -1.377121E+01 +4.838276E+02 -8.895686E+00 +1.136787E+01 -8.895686E+00 +3.745136E+02 
 +8.929692E+02 -1.542096E+01 +1.649180E+01 -1.542096E+01 +4.975728E+02 -9.889806E+00 +1.649180E+01 -9.889806E+00 +3.831668E+02 
 +8.737050E+02 -8.720389E+00 -1.469412E+01 -8.720389E+00 +4.959142E+02 -9.145655E+00 -1.469412E+01 -9.145655E+00 +3.729497E+02 
 +8.530534E+02 -4.373659E+00 -1.969680E+01 -4.373659E+00 +4.982632E+02 +1.539059E+00 -1.969680E+01 +1.539059E+00 +3.726290E+02 
 +8.515950E+02 -4.273645E+00 -1.123770E+01 -4.273645E+00 +4.983770E+02 +3.490679E+00 -1.123770E+01 +3.490679E+00 +3.619856E+02 
 +8.537783E+02 -6.810243E+00 -2.926425E+00 -6.810243E+00 +4.890953E+02 -2.829412E+00 -2.926425E+00 -2.829412E+00 +3.527042E+02 
 +8.576991E+02 -3.943328E+00 -5.704378E+00 -3.943328E+00 +4.931621E+02 -4.196879E+00 -5.704378E+00 -4.196879E+00 +3.525317E+02 
 +8.629887E+02 -4.437223E-01 +4.855340E+00 -4.437223E-01 +4.886962E+02 -5.004561E-01 +4.855340E+00 -5.004561E-01 +3.503238E+02 
 +8.440381E+02 -9.435638E+00 +1.275283E+01 -9.435638E+00 +4.752990E+02 +5.106134E+00 +1.275283E+01 +5.106134E+00 +3.533161E+02 
 +8.364307E+02 -1.264963E+01 +1.476062E+01 -1.264963E+01 +4.718786E+02 +4.065633E+00 +1.476062E+01 +4.065633E+00 +3.474968E+02 
 +8.614349E+02 +8.565709E-01 +1.599656E+01 +8.565709E-01 +4.848818E+02 +1.080013E+01 +1.599656E+01 +1.080013E+01 +3.428150E+02 
 +8.601817E+02 -1.190849E+00 +1.051922E+01 -1.190849E+00 +4.856257E+02 +1.813445E+01 +1.051922E+01 +1.813445E+01 +3.434133E+02 
 +8.737151E+02 -4.150943E+00 +1.173276E+00 -4.150943E+00 +5.008050E+02 +1.609537E+01 +1.173276E+00 +1.609537E+01 +3.477928E+02 
 +8.743146E+02 -2.456792E+00 +1.501130E+00 -2.456792E+00 +5.072626E+02 +1.604667E+01 +1.501130E+00 +1.604667E+01 +3.419588E+02 
 +8.727161E+02 +7.333033E-01 +3.641062E+00 +7.333033E-01 +5.083790E+02 +1.663022E+01 +3.641062E+00 +1.663022E+01 +3.382477E+02 
 +8.707719E+02 +2.470865E+00 +6.704337E+00 +2.470865E+00 +5.062740E+02 +1.613332E+01 +6.704337E+00 +1.613332E+01 +3.470502E+02 
 +8.674891E+02 +9.538528E+00 +5.891016E+00 +9.538528E+00 +5.005667E+02 +1.170613E+01 +5.891016E+00 +1.170613E+01 +3.556776E+02 
 +8.588592E+02 +1.766490E+01 -4.860947E+00 +1.766490E+01 +4.960653E+02 +4.353228E+00 -4.860947E+00 +4.353228E+00 +3.513062E+02 
 +8.595861E+02 +1.458193E+01 -9.769213E+00 +1.458193E+01 +5.005419E+02 -1.319853E+00 -9.769213E+00 -1.319853E+00 +3.678263E+02 
 +8.672724E+02 +1.072509E+01 -6.955096E+00 +1.072509E+01 +5.050854E+02 -5.196073E-01 -6.955096E+00 -5.196073E-01 +3.814592E+02 
 +8.617495E+02 +4.359182E+00 -4.500186E+00 +4.359182E+00 +4.960383E+02 +5.641543E+00 -4.500186E+00 +5.641543E+00 +3.723040E+02 
 +8.635349E+02 -2.518891E-02 -7.453579E-01 -2.518891E-02 +4.991622E+02 +1.282548E+01 -7.453579E-01 +1.282548E+01 +3.652321E+02 
 +8.778388E+02 -1.839903E+00 +6.864492E+00 -1.839903E+00 +5.086511E+02 +5.855499E+00 +6.864492E+00 +5.855499E+00 +3.434660E+02 
 +8.826069E+02 -4.250435E+00 -6.437772E+00 -4.250435E+00 +5.032006E+02 +1.639645E+00 -6.437772E+00 +1.639645E+00 +3.302080E+02 
 +8.554356E+02 -5.605102E-01 -1.629430E+01 -5.605102E-01 +4.877775E+02 +9.613784E+00 -1.629430E+01 +9.613784E+00 +3.465055E+02 
 +8.550521E+02 -8.010181E-01 -1.589624E+01 -8.010181E-01 +4.938079E+02 +9.538337E+00 -1.589624E+01 +9.538337E+00 +3.667902E+02 
 +8.607507E+02 -5.689258E+00 -5.276914E+00 -5.689258E+00 +4.991176E+02 +1.989544E+00 -5.276914E+00 +1.989544E+00 +3.644632E+02 
 +8.554622E+02 -1.170705E+00 -1.441308E+00 -1.170705E+00 +4.940647E+02 +3.044434E+00 -1.441308E+00 +3.044434E+00 +3.613119E+02 
 +8.585674E+02 +1.819700E+00 +5.011076E+00 +1.819700E+00 +4.884872E+02 +5.255074E+00 +5.011076E+00 +5.255074E+00 +3.645255E+02 
 +8.520880E+02 -6.322229E+00 +1.052997E+01 -6.322229E+00 +4.829853E+02 +5.647665E+00 +1.052997E+01 +5.647665E+00 +3.658058E+02 
 +8.441505E+02 -1.268578E+01 +1.314271E+01 -1.268578E+01 +4.763294E+02 +3.140976E+00 +1.314271E+01 +3.140976E+00 +3.482701E+02 
 +8.572312E+02 -2.075461E+00 +1.520054E+01 -2.075461E+00 +4.797851E+02 +6.585942E+00 +1.520054E+01 +6.585942E+00 +3.417923E+02 
 +8.494086E+02 -9.440329E-01 +1.729668E+01 -9.440329E-01 +4.777567E+02 +7.631457E+00 +1.729668E+01 +7.631457E+00 +3.573663E+02 
 +8.875604E+02 +3.358979E+00 +5.642477E+00 +3.358979E+00 +5.033354E+02 +1.072260E+01 +5.642477E+00 +1.072260E+01 +3.641598E+02 
 +8.777382E+02 -8.661390E-01 +3.866179E+00 -8.661390E-01 +5.054861E+02 +1.618778E+01 +3.866179E+00 +1.618778E+01 +3.417713E+02 
 +8.776578E+02 -2.296992E+00 +4.868440E+00 -2.296992E+00 +5.067472E+02 +1.497198E+01 +4.868440E+00 +1.497198E+01 +3.400821E+02 
 +8.771364E+02 -1.479455E+00 +6.117911E+00 -1.479455E+00 +5.025641E+02 +1.175014E+01 +6.117911E+00 +1.175014E+01 +3.459013E+02 
 +8.669645E+02 +7.252853E+00 +1.524860E+00 +7.252853E+00 +4.984651E+02 +7.457050E+00 +1.524860E+00 +7.457050E+00 +3.548749E+02 
 +8.646447E+02 +1.223031E+01 -3.242425E+00 +1.223031E+01 +4.956746E+02 +7.584645E+00 -3.242425E+00 +7.584645E+00 +3.547455E+02 
 +8.528959E+02 +9.575895E+00 -7.039467E+00 +9.575895E+00 +4.887384E+02 +1.159845E+01 -7.039467E+00 +1.159845E+01 +3.572729E+02 
 +8.533632E+02 +9.319395E+00 -1.210594E+01 +9.319395E+00 +4.918553E+02 +1.577261E+01 -1.210594E+01 +1.577261E+01 +3.646027E+02 
 +8.478812E+02 +5.141299E+00 -1.052871E+01 +5.141299E+00 +4.906268E+02 +2.139563E+01 -1.052871E+01 +2.139563E+01 +3.530976E+02 
 +8.413628E+02 +5.603830E+00 -9.806511E+00 +5.603830E+00 +4.938561E+02 +2.874066E+01 -9.806511E+00 +2.874066E+01 +3.287707E+02 
 +8.669522E+02 +8.578752E-01 -7.709228E-01 +8.578752E-01 +5.061495E+02 +2.147669E+01 -7.709228E-01 +2.147669E+01 +3.078719E+02 
 +8.647530E+02 +1.751883E+00 -5.503547E+00 +1.751883E+00 +4.967107E+02 +8.778904E+00 -5.503547E+00 +8.778904E+00 +2.924267E+02 
 +8.646871E+02 +1.060600E+00 -1.083114E+01 +1.060600E+00 +4.958460E+02 +9.497818E+00 -1.083114E+01 +9.497818E+00 +3.168872E+02 
 +8.610457E+02 +1.750390E+00 -1.622618E+01 +1.750390E+00 +4.986469E+02 +1.117177E+01 -1.622618E+01 +1.117177E+01 +3.540595E+02 
 +8.609477E+02 -3.171724E+00 -4.984049E+00 -3.171724E+00 +5.017132E+02 +7.864155E+00 -4.984049E+00 +7.864155E+00 +3.656370E+02 
 +8.548797E+02 -3.050938E+00 +4.351641E+00 -3.050938E+00 +4.931095E+02 +5.869982E+00 +4.351641E+00 +5.869982E+00 +3.717846E+02 
 +8.570109E+02 -1.022212E+00 +3.938768E+00 -1.022212E+00 +4.928937E+02 +2.656816E+00 +3.938768E+00 +2.656816E+00 +3.814740E+02 
 +8.541971E+02 -4.846246E+00 +6.379526E+00 -4.846246E+00 +4.867947E+02 +5.673397E+00 +6.379526E+00 +5.673397E+00 +3.758291E+02 
 +8.489743E+02 -1.187670E+01 +1.071915E+01 -1.187670E+01 +4.799192E+02 +8.908513E+00 +1.071915E+01 +8.908513E+00 +3.587468E+02 
 +8.647941E+02 +6.806849E-01 +1.248092E+01 +6.806849E-01 +4.879669E+02 +1.904528E+01 +1.248092E+01 +1.904528E+01 +3.600366E+02 
 +8.697930E+02 +5.477717E+00 +1.544080E+01 +5.477717E+00 +4.923226E+02 +2.239423E+01 +1.544080E+01 +2.239423E+01 +3.704514E+02 
 +8.900739E+02 +1.502945E+01 +1.494825E+01 +1.502945E+01 +5.112665E+02 +1.756673E+01 +1.494825E+01 +1.756673E+01 +3.740229E+02 
 +8.863258E+02 +4.696860E+00 +5.581766E+00 +4.696860E+00 +5.213533E+02 +1.724942E+01 +5.581766E+00 +1.724942E+01 +3.670065E+02 
 +8.809591E+02 -5.610973E+00 +4.170778E+00 -5.610973E+00 +5.116507E+02 +1.424349E+01 +4.170778E+00 +1.424349E+01 +3.468354E+02 
 +8.787290E+02 -6.163899E+00 +6.372501E+00 -6.163899E+00 +5.011004E+02 +1.116028E+01 +6.372501E+00 +1.116028E+01 +3.349057E+02 
 +8.672472E+02 +3.553395E+00 +1.355519E+00 +3.553395E+00 +4.975575E+02 +8.414343E+00 +1.355519E+00 +8.414343E+00 +3.438443E+02 
 +8.610872E+02 +9.229188E+00 +1.571831E+00 +9.229188E+00 +4.896147E+02 +1.007738E+01 +1.571831E+00 +1.007738E+01 +3.337016E+02 
 +8.439141E+02 +9.356188E+00 -5.468354E+00 +9.356188E+00 +4.784417E+02 +1.050521E+01 -5.468354E+00 +1.050521E+01 +3.236694E+02 
 +8.410291E+02 +6.971396E+00 -1.281241E+01 +6.971396E+00 +4.833354E+02 +8.752858E+00 -1.281241E+01 +8.752858E+00 +3.327637E+02 
 +8.381394E+02 +4.941777E+00 -1.492279E+01 +4.941777E+00 +4.890815E+02 +1.290222E+01 -1.492279E+01 +1.290222E+01 +3.260416E+02 
 +8.329249E+02 +1.023566E+01 -1.141297E+01 +1.023566E+01 +4.878873E+02 +1.778552E+01 -1.141297E+01 +1.778552E+01 +3.092285E+02 
 +8.639289E+02 +2.795610E+00 -4.436674E+00 +2.795610E+00 +5.032752E+02 +1.607242E+01 -4.436674E+00 +1.607242E+01 +3.091033E+02 
 +8.608776E+02 +4.200917E-01 -9.346348E+00 +4.200917E-01 +5.017101E+02 +1.312595E+01 -9.346348E+00 +1.312595E+01 +2.988304E+02 
 +8.588626E+02 -2.213835E+00 -7.057647E+00 -2.213835E+00 +4.957708E+02 +1.254135E+01 -7.057647E+00 +1.254135E+01 +2.926359E+02 
 +8.689157E+02 +2.169809E+00 -9.005055E+00 +2.169809E+00 +5.032227E+02 +1.443560E+01 -9.005055E+00 +1.443560E+01 +3.219253E+02 
 +8.551309E+02 -5.558447E+00 -1.559496E+00 -5.558447E+00 +4.961386E+02 +1.331406E+01 -1.559496E+00 +1.331406E+01 +3.522074E+02 
 +8.511867E+02 -6.772680E+00 +6.882312E+00 -6.772680E+00 +4.904148E+02 +1.249661E+01 +6.882312E+00 +1.249661E+01 +3.677817E+02 
 +8.533168E+02 -2.766426E+00 +3.156899E+00 -2.766426E+00 +4.865174E+02 +1.127726E+01 +3.156899E+00 +1.127726E+01 +3.700859E+02 
 +8.528361E+02 -3.308233E+00 +2.867481E+00 -3.308233E+00 +4.836398E+02 +1.048200E+01 +2.867481E+00 +1.048200E+01 +3.755425E+02 
 +8.528603E+02 -1.001703E+01 +6.690415E+00 -1.001703E+01 +4.834109E+02 +8.995255E+00 +6.690415E+00 +8.995255E+00 +3.774708E+02 
 +8.774297E+02 +2.495881E+00 +1.213148E+01 +2.495881E+00 +4.978247E+02 +6.899383E+00 +1.213148E+01 +6.899383E+00 +3.786847E+02 
 +8.781509E+02 +2.607470E+00 +1.321196E+01 +2.607470E+00 +4.997326E+02 +7.554132E+00 +1.321196E+01 +7.554132E+00 +3.688838E+02 
 +8.729620E+02 +1.119086E+01 +1.601632E+01 +1.119086E+01 +4.967156E+02 +2.137650E+00 +1.601632E+01 +2.137650E+00 +3.664648E+02 
 +8.755043E+02 +3.534725E+00 +1.172856E+01 +3.534725E+00 +5.004439E+02 -6.313621E+00 +1.172856E+01 -6.313621E+00 +3.756216E+02 
 +8.752109E+02 -8.204848E+00 +1.072758E-02 -8.204848E+00 +5.082621E+02 -1.101957E+00 +1.072758E-02 -1.101957E+00 +3.650821E+02 
 +8.827606E+02 -1.160658E+01 +3.818878E+00 -1.160658E+01 +5.087388E+02 -4.539793E+00 +3.818878E+00 -4.539793E+00 +3.476630E+02 
 +8.726545E+02 -6.479441E-01 +8.126817E-01 -6.479441E-01 +4.938270E+02 -1.016112E+01 +8.126817E-01 -1.016112E+01 +3.434446E+02 
 +8.710032E+02 +4.481423E+00 +4.059781E+00 +4.481423E+00 +4.918677E+02 -3.459039E+00 +4.059781E+00 -3.459039E+00 +3.448844E+02 
 +8.562080E+02 +8.186040E+00 +2.918662E+00 +8.186040E+00 +4.845144E+02 +3.910716E+00 +2.918662E+00 +3.910716E+00 +3.439396E+02 
 +8.389173E+02 +1.040484E+01 -2.434545E-01 +1.040484E+01 +4.795455E+02 +9.452611E+00 -2.434545E-01 +9.452611E+00 +3.428936E+02 
 +8.185506E+02 +6.453623E+00 -3.006126E+00 +6.453623E+00 +4.741603E+02 +2.203484E+01 -3.006126E+00 +2.203484E+01 +3.244815E+02 
 +8.424661E+02 +2.098438E+00 -3.519108E+00 +2.098438E+00 +4.894568E+02 +2.750503E+01 -3.519108E+00 +2.750503E+01 +3.207994E+02 
 +8.605268E+02 -1.469094E+00 -3.159510E+00 -1.469094E+00 +5.031298E+02 +2.033070E+01 -3.159510E+00 +2.033070E+01 +3.182261E+02 
 +8.654656E+02 -2.312877E+00 -1.044851E+01 -2.312877E+00 +5.094765E+02 +1.395230E+01 -1.044851E+01 +1.395230E+01 +3.172960E+02 
 +8.646903E+02 -5.107876E+00 -9.091740E+00 -5.107876E+00 +5.038558E+02 +1.177888E+01 -9.091740E+00 +1.177888E+01 +3.037020E+02 
 +8.699640E+02 -3.069236E+00 -5.936936E+00 -3.069236E+00 +4.968757E+02 +1.482036E+01 -5.936936E+00 +1.482036E+01 +3.067160E+02 
 +8.485616E+02 -1.175345E+01 +9.254345E-01 -1.175345E+01 +4.857568E+02 +1.594229E+01 +9.254345E-01 +1.594229E+01 +3.391599E+02 
 +8.496556E+02 -1.157272E+01 +9.099902E+00 -1.157272E+01 +4.822788E+02 +2.150690E+01 +9.099902E+00 +2.150690E+01 +3.527271E+02 
 +8.564683E+02 -5.158161E+00 +3.817281E+00 -5.158161E+00 +4.835797E+02 +2.082890E+01 +3.817281E+00 +2.082890E+01 +3.560505E+02 
 +8.522511E+02 -3.953802E+00 -1.894744E+00 -3.953802E+00 +4.802472E+02 +1.879175E+01 -1.894744E+00 +1.879175E+01 +3.549141E+02 
 +8.541354E+02 -3.782374E+00 +3.850922E+00 -3.782374E+00 +4.870043E+02 +1.933423E+01 +3.850922E+00 +1.933423E+01 +3.559874E+02 
 +8.745456E+02 +6.609874E+00 +1.054858E+01 +6.609874E+00 +5.029892E+02 +1.834355E+01 +1.054858E+01 +1.834355E+01 +3.610567E+02 
 +8.692320E+02 +5.503669E+00 +1.192284E+01 +5.503669E+00 +5.043784E+02 +1.452993E+01 +1.192284E+01 +1.452993E+01 +3.661212E+02 
 +8.705929E+02 +5.995614E+00 +5.552877E+00 +5.995614E+00 +4.988708E+02 +5.503823E+00 +5.552877E+00 +5.503823E+00 +3.741261E+02 
 +8.694298E+02 +1.999783E+00 +4.651043E+00 +1.999783E+00 +4.841094E+02 -1.351190E+01 +4.651043E+00 -1.351190E+01 +3.798994E+02 
 +8.626776E+02 -2.688930E+00 -8.528659E+00 -2.688930E+00 +4.864972E+02 -2.102784E+01 -8.528659E+00 -2.102784E+01 +3.815900E+02 
 +8.839718E+02 -1.170521E+01 -2.346137E+00 -1.170521E+01 +5.054041E+02 -2.071310E+01 -2.346137E+00 -2.071310E+01 +3.671107E+02 
 +8.679399E+02 -5.996348E+00 -2.269684E+00 -5.996348E+00 +4.871955E+02 -1.606546E+01 -2.269684E+00 -1.606546E+01 +3.525183E+02 
 +8.681221E+02 -2.821905E+00 +6.275695E+00 -2.821905E+00 +4.841243E+02 +2.032525E+00 +6.275695E+00 +2.032525E+00 +3.727204E+02 
 +8.630758E+02 -9.486502E+00 +7.352627E+00 -9.486502E+00 +4.822594E+02 +6.382067E+00 +7.352627E+00 +6.382067E+00 +3.787194E+02 
 +8.457591E+02 -4.049678E+00 +1.072176E+01 -4.049678E+00 +4.745815E+02 +3.524549E+00 +1.072176E+01 +3.524549E+00 +3.660142E+02 
 +8.182891E+02 +1.026480E+00 +1.520128E+01 +1.026480E+00 +4.691676E+02 +1.226525E+01 +1.520128E+01 +1.226525E+01 +3.388369E+02 
 +8.445125E+02 +2.622297E+00 +6.246837E+00 +2.622297E+00 +4.880157E+02 +2.177561E+01 +6.246837E+00 +2.177561E+01 +3.267898E+02 
 +8.635709E+02 +5.941411E-01 +1.139764E+00 +5.941411E-01 +5.034636E+02 +2.209511E+01 +1.139764E+00 +2.209511E+01 +3.246327E+02 
 +8.721884E+02 -3.543535E+00 -7.901177E+00 -3.543535E+00 +5.126239E+02 +1.871048E+01 -7.901177E+00 +1.871048E+01 +3.295856E+02 
 +8.721201E+02 -6.619020E+00 -7.669537E+00 -6.619020E+00 +5.056269E+02 +1.720180E+01 -7.669537E+00 +1.720180E+01 +3.197845E+02 
 +8.635211E+02 -8.995575E+00 -1.921271E+00 -8.995575E+00 +4.896019E+02 +1.760906E+01 -1.921271E+00 +1.760906E+01 +3.195348E+02 
 +8.443244E+02 -1.468951E+01 +4.543002E+00 -1.468951E+01 +4.773128E+02 +1.983451E+01 +4.543002E+00 +1.983451E+01 +3.358864E+02 
 +8.570438E+02 -7.083285E+00 +1.555023E+00 -7.083285E+00 +4.820253E+02 +8.084236E+00 +1.555023E+00 +8.084236E+00 +3.412245E+02 
 +8.574741E+02 +7.114954E-01 +3.566074E+00 +7.114954E-01 +4.796092E+02 +2.745110E+00 +3.566074E+00 +2.745110E+00 +3.418771E+02 
 +8.584459E+02 +3.537620E+00 -1.164551E+00 +3.537620E+00 +4.856309E+02 +2.384383E+00 -1.164551E+00 +2.384383E+00 +3.307309E+02 
 +8.578797E+02 +4.003373E+00 +4.649618E+00 +4.003373E+00 +4.949221E+02 +8.577552E+00 +4.649618E+00 +8.577552E+00 +3.181191E+02 
 +8.601584E+02 +8.205518E+00 +1.108183E+01 +8.205518E+00 +4.979227E+02 +5.779564E+00 +1.108183E+01 +5.779564E+00 +3.313847E+02 
 +8.533771E+02 +1.154291E+01 +4.480000E+00 +1.154291E+01 +4.935644E+02 -6.325608E+00 +4.480000E+00 -6.325608E+00 +3.696565E+02 
 +8.563365E+02 +4.494570E+00 -8.260224E+00 +4.494570E+00 +4.876789E+02 -1.356609E+01 -8.260224E+00 -1.356609E+01 +3.859051E+02 
 +8.583723E+02 +4.962266E-01 -1.432424E+01 +4.962266E-01 +4.749781E+02 -1.829896E+01 -1.432424E+01 -1.829896E+01 +3.767018E+02 
 +8.568068E+02 +2.350882E+00 -1.196785E+01 +2.350882E+00 +4.725225E+02 -1.846705E+01 -1.196785E+01 -1.846705E+01 +3.686639E+02 
 +8.773621E+02 -5.870322E+00 -1.293887E-01 -5.870322E+00 +4.950686E+02 -1.035709E+01 -1.293887E-01 -1.035709E+01 +3.629210E+02 
 +8.626329E+02 -9.316904E+00 +1.705463E+00 -9.316904E+00 +4.933187E+02 +5.143144E+00 +1.705463E+00 +5.143144E+00 +3.659263E+02 
 +8.573200E+02 -4.881227E-01 +2.890091E+00 -4.881227E-01 +4.839105E+02 +1.413626E+01 +2.890091E+00 +1.413626E+01 +3.840556E+02 
 +8.643802E+02 -2.244661E+00 +1.182076E+00 -2.244661E+00 +4.915867E+02 +1.280605E+01 +1.182076E+00 +1.280605E+01 +3.921278E+02 
 +8.608039E+02 +2.086782E+00 +7.776223E+00 +2.086782E+00 +4.929149E+02 +1.581676E+01 +7.776223E+00 +1.581676E+01 +3.811651E+02 
 +8.526503E+02 +8.240778E+00 +1.103027E+01 +8.240778E+00 +4.930382E+02 +7.107251E+00 +1.103027E+01 +7.107251E+00 +3.601912E+02 
 +8.712532E+02 +5.802880E+00 +9.421934E+00 +5.802880E+00 +5.087985E+02 +5.658231E+00 +9.421934E+00 +5.658231E+00 +3.486805E+02 
 +8.700929E+02 +1.063782E+01 +5.476525E+00 +1.063782E+01 +5.109552E+02 +1.270240E+01 +5.476525E+00 +1.270240E+01 +3.430143E+02 
 +8.850978E+02 +7.454798E-01 +2.241116E-01 +7.454798E-01 +5.218510E+02 +1.492220E+01 +2.241116E-01 +1.492220E+01 +3.555559E+02 
 +8.717926E+02 -8.115856E+00 +1.408044E+00 -8.115856E+00 +5.036285E+02 +1.556223E+01 +1.408044E+00 +1.556223E+01 +3.465928E+02 
 +8.647554E+02 -1.133585E+01 +8.027592E+00 -1.133585E+01 +4.976153E+02 +1.150906E+01 +8.027592E+00 +1.150906E+01 +3.519706E+02 
 +8.600636E+02 -1.252830E+01 +3.885099E+00 -1.252830E+01 +4.923283E+02 +9.884702E+00 +3.885099E+00 +9.884702E+00 +3.479212E+02 
 +8.692111E+02 -9.055231E+00 -6.627197E+00 -9.055231E+00 +5.002918E+02 +1.006320E+01 -6.627197E+00 +1.006320E+01 +3.356569E+02 
 +8.750397E+02 -3.344850E+00 +2.385358E+00 -3.344850E+00 +5.092559E+02 +8.740607E+00 +2.385358E+00 +8.740607E+00 +3.340364E+02 
 +8.776535E+02 +1.817604E+00 +8.868964E-01 +1.817604E+00 +5.128950E+02 +6.002877E+00 +8.868964E-01 +6.002877E+00 +3.251703E+02 
 +8.705572E+02 +1.979102E+00 +6.952563E+00 +1.979102E+00 +5.133639E+02 +8.870822E+00 +6.952563E+00 +8.870822E+00 +3.099156E+02 
 +8.643983E+02 +7.616959E-01 +8.943943E+00 +7.616959E-01 +5.122335E+02 +6.032393E+00 +8.943943E+00 +6.032393E+00 +3.219890E+02 
 +8.518341E+02 +6.351975E+00 -6.723072E+00 +6.351975E+00 +5.038784E+02 -7.249156E+00 -6.723072E+00 -7.249156E+00 +3.645675E+02 
 +8.493922E+02 +1.569637E+00 -1.271462E+01 +1.569637E+00 +4.920928E+02 -1.441307E+01 -1.271462E+01 -1.441307E+01 +3.757797E+02 
 +8.486766E+02 +3.952677E+00 -1.499052E+01 +3.952677E+00 +4.794890E+02 -8.900136E+00 -1.499052E+01 -8.900136E+00 +3.617578E+02 
 +8.615000E+02 +7.893400E+00 -1.963654E+00 +7.893400E+00 +4.795218E+02 +8.441916E+00 -1.963654E+00 +8.441916E+00 +3.614521E+02 
 +8.713035E+02 +1.479695E+00 +9.732677E-01 +1.479695E+00 +4.883526E+02 +1.297096E+01 +9.732677E-01 +1.297096E+01 +3.706933E+02 
 +8.641095E+02 -5.962304E+00 +4.728647E+00 -5.962304E+00 +4.986436E+02 +1.265677E+01 +4.728647E+00 +1.265677E+01 +3.875153E+02 
 +8.549063E+02 -4.031221E-01 +4.764451E+00 -4.031221E-01 +4.909173E+02 +1.988309E+01 +4.764451E+00 +1.988309E+01 +3.945081E+02 
 +8.619778E+02 +8.482666E+00 -1.610492E+00 +8.482666E+00 +4.952617E+02 +2.382719E+01 -1.610492E+00 +2.382719E+01 +3.993324E+02 
 +8.722656E+02 +5.472881E+00 +5.020445E+00 +5.472881E+00 +5.071955E+02 +1.871027E+01 +5.020445E+00 +1.871027E+01 +3.946700E+02 
 +8.683840E+02 +1.469743E+01 +6.617663E+00 +1.469743E+01 +4.845901E+02 +2.135976E+01 +6.617663E+00 +2.135976E+01 +3.743074E+02 
 +8.705927E+02 +1.089217E+01 +5.661977E+00 +1.089217E+01 +4.734306E+02 +2.388499E+01 +5.661977E+00 +2.388499E+01 +3.695454E+02 
 +8.521833E+02 +1.209809E+01 +5.317792E+00 +1.209809E+01 +4.607268E+02 +2.617103E+01 +5.317792E+00 +2.617103E+01 +3.659881E+02 
 +8.655688E+02 +3.366455E+00 +1.218513E+01 +3.366455E+00 +4.727513E+02 +3.356719E+01 +1.218513E+01 +3.356719E+01 +3.803172E+02 
 +8.678173E+02 -6.167400E+00 +1.094810E+01 -6.167400E+00 +4.920299E+02 +3.291935E+01 +1.094810E+01 +3.291935E+01 +4.008187E+02 
 +8.667778E+02 -6.821868E+00 +5.747634E+00 -6.821868E+00 +4.931030E+02 +2.091528E+01 +5.747634E+00 +2.091528E+01 +3.946513E+02 
 +8.653971E+02 -9.206844E+00 -6.817108E+00 -9.206844E+00 +4.892664E+02 +8.810892E+00 -6.817108E+00 +8.810892E+00 +3.519093E+02 
 +8.639313E+02 -7.383211E+00 -6.230222E+00 -7.383211E+00 +4.972263E+02 +4.804640E+00 -6.230222E+00 +4.804640E+00 +3.292227E+02 
 +8.722998E+02 -5.221021E+00 +4.653142E+00 -5.221021E+00 +5.046114E+02 +5.473037E+00 +4.653142E+00 +5.473037E+00 +3.196028E+02 
 +8.749973E+02 -5.444823E-01 +4.823452E+00 -5.444823E-01 +5.093360E+02 +7.477808E+00 +4.823452E+00 +7.477808E+00 +3.101815E+02 
 +8.829201E+02 -2.054625E+00 +6.320557E+00 -2.054625E+00 +5.234474E+02 +9.324487E+00 +6.320557E+00 +9.324487E+00 +3.226460E+02 
 +8.870417E+02 -5.611733E+00 +2.107059E+00 -5.611733E+00 +5.321947E+02 +7.248353E+00 +2.107059E+00 +7.248353E+00 +3.429377E+02 
 +8.641683E+02 +2.348747E+00 -1.190809E+01 +2.348747E+00 +5.144101E+02 +1.647702E+00 -1.190809E+01 +1.647702E+00 +3.611555E+02 
 +8.455373E+02 +2.468336E+00 -1.253732E+01 +2.468336E+00 +4.929673E+02 -4.908850E+00 -1.253732E+01 -4.908850E+00 +3.587490E+02 
 +8.485529E+02 +5.541233E+00 -9.365639E+00 +5.541233E+00 +4.896863E+02 -7.168438E+00 -9.365639E+00 -7.168438E+00 +3.593060E+02 
 +8.628286E+02 +8.451449E+00 +5.437182E+00 +8.451449E+00 +4.911638E+02 +6.565146E+00 +5.437182E+00 +6.565146E+00 +3.667203E+02 
 +8.702904E+02 +7.091508E+00 -2.190586E+00 +7.091508E+00 +4.948110E+02 +1.375358E+01 -2.190586E+00 +1.375358E+01 +3.768869E+02 
 +8.690066E+02 +1.376294E+00 +1.003236E+00 +1.376294E+00 +5.069866E+02 +1.665231E+01 +1.003236E+00 +1.665231E+01 +3.978023E+02 
 +8.528890E+02 -2.821114E+00 +7.740676E+00 -2.821114E+00 +5.059629E+02 +2.240358E+01 +7.740676E+00 +2.240358E+01 +4.071682E+02 
 +8.571699E+02 +8.249856E+00 +7.019291E+00 +8.249856E+00 +4.946059E+02 +3.596371E+01 +7.019291E+00 +3.596371E+01 +4.085183E+02 
 +8.790568E+02 +7.425223E+00 +5.202823E+00 +7.425223E+00 +4.876982E+02 +3.969726E+01 +5.202823E+00 +3.969726E+01 +4.022687E+02 
 +8.751126E+02 +1.114605E+01 +1.102930E+01 +1.114605E+01 +4.745330E+02 +2.715812E+01 +1.102930E+01 +2.715812E+01 +3.894226E+02 
 +8.721985E+02 +1.060329E+01 +4.413880E+00 +1.060329E+01 +4.686673E+02 +2.363166E+01 +4.413880E+00 +2.363166E+01 +3.922518E+02 
 +8.627116E+02 +8.088297E+00 +6.406990E+00 +8.088297E+00 +4.667511E+02 +2.509017E+01 +6.406990E+00 +2.509017E+01 +3.999586E+02 
 +8.660611E+02 +3.285113E+00 +7.001937E+00 +3.285113E+00 +4.720689E+02 +1.638003E+01 +7.001937E+00 +1.638003E+01 +4.088800E+02 
 +8.648618E+02 -4.846477E+00 +4.504173E+00 -4.846477E+00 +4.804372E+02 +4.890196E-01 +4.504173E+00 +4.890196E-01 +4.202304E+02 
 +8.680124E+02 -4.655400E+00 +1.552174E+00 -4.655400E+00 +4.942503E+02 -2.349502E+00 +1.552174E+00 -2.349502E+00 +4.028568E+02 
 +8.615046E+02 -6.400382E+00 -7.685465E+00 -6.400382E+00 +4.929819E+02 +3.050095E+00 -7.685465E+00 +3.050095E+00 +3.482618E+02 
 +8.663565E+02 -7.645921E+00 +3.004023E+00 -7.645921E+00 +5.014450E+02 +7.952231E+00 +3.004023E+00 +7.952231E+00 +3.325322E+02 
 +8.645837E+02 -4.112975E+00 +8.391882E+00 -4.112975E+00 +4.953848E+02 +1.007220E+01 +8.391882E+00 +1.007220E+01 +3.135662E+02 
 +8.655884E+02 -3.197048E+00 +3.996590E+00 -3.197048E+00 +4.885292E+02 +5.968358E+00 +3.996590E+00 +5.968358E+00 +3.185430E+02 
 +8.673783E+02 -4.106041E+00 -4.983238E+00 -4.106041E+00 +4.692934E+02 -5.759190E-01 -4.983238E+00 -5.759190E-01 +3.400897E+02 
 +8.633887E+02 -3.823616E+00 -7.182987E+00 -3.823616E+00 +4.587591E+02 -6.757654E+00 -7.182987E+00 -6.757654E+00 +3.467310E+02 
 +8.611174E+02 +1.702380E+00 -8.263206E+00 +1.702380E+00 +4.751901E+02 -3.655492E+00 -8.263206E+00 -3.655492E+00 +3.592717E+02 
 +8.493993E+02 +4.866377E+00 -1.205177E+01 +4.866377E+00 +4.894805E+02 -4.782463E+00 -1.205177E+01 -4.782463E+00 +3.640670E+02 
 +8.485545E+02 +6.970850E+00 -2.211266E+00 +6.970850E+00 +4.935955E+02 -2.055448E+00 -2.211266E+00 -2.055448E+00 +3.681291E+02 
 +8.592748E+02 +1.022732E+01 +7.941438E+00 +1.022732E+01 +4.983812E+02 +1.171773E+01 +7.941438E+00 +1.171773E+01 +3.779564E+02 
 +8.671946E+02 +7.539001E+00 +1.258531E+00 +7.539001E+00 +5.039672E+02 +1.846087E+01 +1.258531E+00 +1.846087E+01 +3.852964E+02 
 +8.697087E+02 +3.071579E+00 -3.207933E+00 +3.071579E+00 +5.109678E+02 +2.122649E+01 -3.207933E+00 +2.122649E+01 +4.002594E+02 
 +8.551132E+02 +9.591051E-01 -8.959957E-01 +9.591051E-01 +5.110037E+02 +2.854079E+01 -8.959957E-01 +2.854079E+01 +4.093420E+02 
 +8.613836E+02 +9.297577E+00 +1.410302E+01 +9.297577E+00 +5.022742E+02 +3.091203E+01 +1.410302E+01 +3.091203E+01 +4.166274E+02 
 +8.807947E+02 +8.071301E+00 +7.253593E+00 +8.071301E+00 +4.872658E+02 +2.478153E+01 +7.253593E+00 +2.478153E+01 +4.049432E+02 
 +8.717650E+02 +7.928604E+00 +7.958376E+00 +7.928604E+00 +4.713482E+02 +2.020733E+01 +7.958376E+00 +2.020733E+01 +3.845589E+02 
 +8.723852E+02 +9.276645E+00 +4.948007E+00 +9.276645E+00 +4.708395E+02 +1.698129E+01 +4.948007E+00 +1.698129E+01 +3.920008E+02 
 +8.634383E+02 +9.584781E+00 +4.495830E+00 +9.584781E+00 +4.680476E+02 +7.673937E+00 +4.495830E+00 +7.673937E+00 +4.011628E+02 
 +8.617141E+02 +5.208729E+00 -5.541143E+00 +5.208729E+00 +4.710478E+02 +8.571940E+00 -5.541143E+00 +8.571940E+00 +4.093338E+02 
 +8.585675E+02 -6.925539E-01 -6.261726E+00 -6.925539E-01 +4.719269E+02 +1.633847E+01 -6.261726E+00 +1.633847E+01 +4.062339E+02 
 +8.589260E+02 +2.226017E+00 +4.310425E+00 +2.226017E+00 +4.848446E+02 +1.602873E+01 +4.310425E+00 +1.602873E+01 +3.907993E+02 
 +8.625467E+02 -4.828830E+00 +5.741379E+00 -4.828830E+00 +5.013514E+02 +9.912228E+00 +5.741379E+00 +9.912228E+00 +3.607870E+02 
 +8.542635E+02 -1.094112E+01 +5.346067E+00 -1.094112E+01 +5.031781E+02 +1.065935E+00 +5.346067E+00 +1.065935E+00 +3.203105E+02 
 +8.587722E+02 -7.019278E+00 +7.745813E+00 -7.019278E+00 +5.040955E+02 +5.021507E+00 +7.745813E+00 +5.021507E+00 +3.121107E+02 
 +8.573583E+02 -9.621118E+00 +2.804979E+00 -9.621118E+00 +4.810552E+02 +4.619984E+00 +2.804979E+00 +4.619984E+00 +3.085410E+02 
 +8.588649E+02 -7.770456E+00 -5.586394E+00 -7.770456E+00 +4.533848E+02 +3.984916E+00 -5.586394E+00 +3.984916E+00 +3.233825E+02 
 +8.621513E+02 -7.243447E+00 -4.650700E+00 -7.243447E+00 +4.553236E+02 +4.169591E-01 -4.650700E+00 +4.169591E-01 +3.449234E+02 
 +8.628727E+02 -3.296318E+00 -5.044402E+00 -3.296318E+00 +4.665198E+02 -4.423029E+00 -5.044402E+00 -4.423029E+00 +3.474675E+02 
 +8.564274E+02 -6.995557E-02 -9.425010E+00 -6.995557E-02 +4.762895E+02 -5.574806E+00 -9.425010E+00 -5.574806E+00 +3.548723E+02 
 +8.471909E+02 -1.648453E+00 +4.982139E+00 -1.648453E+00 +4.867405E+02 +1.383022E+00 +4.982139E+00 +1.383022E+00 +3.722379E+02 
 +8.446951E+02 -4.137637E+00 +5.543373E+00 -4.137637E+00 +4.870595E+02 +5.431628E+00 +5.543373E+00 +5.431628E+00 +3.777960E+02 
 +8.415599E+02 -7.597578E+00 +7.772733E+00 -7.597578E+00 +4.831125E+02 +8.385708E+00 +7.772733E+00 +8.385708E+00 +3.794689E+02 
 +8.377924E+02 -5.328520E+00 +8.027599E+00 -5.328520E+00 +4.829834E+02 +1.303266E+01 +8.027599E+00 +1.303266E+01 +3.863339E+02 
 +8.436227E+02 -3.437552E+00 -3.475977E-02 -3.437552E+00 +4.796508E+02 +1.529249E+01 -3.475977E-02 +1.529249E+01 +3.987318E+02 
 +8.340317E+02 +1.138457E+00 +4.484484E+00 +1.138457E+00 +4.592107E+02 +1.365164E+01 +4.484484E+00 +1.365164E+01 +3.804182E+02 
 +8.480634E+02 +3.264334E+00 +8.512156E+00 +3.264334E+00 +4.523181E+02 +1.960044E+01 +8.512156E+00 +1.960044E+01 +3.715820E+02 
 +8.776844E+02 +8.994690E+00 +1.788474E+00 +8.994690E+00 +4.601113E+02 +2.554247E+01 +1.788474E+00 +2.554247E+01 +3.801015E+02 
 +8.699550E+02 +1.777488E+01 -4.495246E+00 +1.777488E+01 +4.609002E+02 +1.951744E+01 -4.495246E+00 +1.951744E+01 +3.789860E+02 
 +8.727211E+02 +1.819896E+01 -3.222212E+00 +1.819896E+01 +4.722472E+02 +1.391513E+01 -3.222212E+00 +1.391513E+01 +3.907594E+02 
 +8.736650E+02 +1.206062E+01 -2.341396E+00 +1.206062E+01 +4.774127E+02 +1.644240E+01 -2.341396E+00 +1.644240E+01 +3.967174E+02 
 +8.626469E+02 +6.152167E+00 +1.112871E+00 +6.152167E+00 +4.741618E+02 +1.832658E+01 +1.112871E+00 +1.832658E+01 +3.964722E+02 
 +8.483427E+02 +5.815492E+00 +3.246237E+00 +5.815492E+00 +4.722633E+02 +1.321607E+01 +3.246237E+00 +1.321607E+01 +3.766015E+02 
 +8.481321E+02 -6.221716E+00 +2.579787E+00 -6.221716E+00 +4.895701E+02 +3.228376E+00 +2.579787E+00 +3.228376E+00 +3.424540E+02 
 +8.348731E+02 -3.967228E+00 +5.105966E+00 -3.967228E+00 +4.720791E+02 +2.072434E-02 +5.105966E+00 +2.072434E-02 +3.363512E+02 
 +8.384946E+02 -2.416116E+00 +2.665417E+00 -2.416116E+00 +4.512847E+02 -3.364920E+00 +2.665417E+00 -3.364920E+00 +3.421427E+02 
 +8.471451E+02 -6.548829E+00 -5.593740E+00 -6.548829E+00 +4.397008E+02 -1.576906E+00 -5.593740E+00 -1.576906E+00 +3.527030E+02 
 +8.599282E+02 -8.159004E+00 -9.940628E+00 -8.159004E+00 +4.499369E+02 +6.456515E-01 -9.940628E+00 +6.456515E-01 +3.584593E+02 
 +8.575854E+02 -6.037383E+00 -4.022562E+00 -6.037383E+00 +4.505029E+02 -1.436599E+00 -4.022562E+00 -1.436599E+00 +3.480982E+02 
 +8.582716E+02 -1.189873E+00 -6.490476E-01 -1.189873E+00 +4.589252E+02 -2.068661E+00 -6.490476E-01 -2.068661E+00 +3.450118E+02 
 +8.578168E+02 +1.788977E+00 -1.020672E-01 +1.788977E+00 +4.759030E+02 +2.524046E+00 -1.020672E-01 +2.524046E+00 +3.628367E+02 
 +8.431169E+02 -1.895187E+00 +5.713494E+00 -1.895187E+00 +4.837863E+02 +6.646445E+00 +5.713494E+00 +6.646445E+00 +3.755612E+02 
 +8.333246E+02 -4.958561E+00 +4.834837E+00 -4.958561E+00 +4.818302E+02 +6.671649E+00 +4.834837E+00 +6.671649E+00 +3.753079E+02 
 +8.350712E+02 -4.766108E+00 +1.135747E+01 -4.766108E+00 +4.766368E+02 +8.007748E+00 +1.135747E+01 +8.007748E+00 +3.766938E+02 
 +8.444527E+02 -3.608466E+00 +2.820175E+00 -3.608466E+00 +4.751860E+02 +1.074461E+01 +2.820175E+00 +1.074461E+01 +3.872276E+02 
 +8.552644E+02 -3.239841E+00 +1.588987E+00 -3.239841E+00 +4.797177E+02 +1.257182E+01 +1.588987E+00 +1.257182E+01 +4.021299E+02 
 +8.505636E+02 +1.711703E+00 +1.727057E+00 +1.711703E+00 +4.736896E+02 +1.368963E+01 +1.727057E+00 +1.368963E+01 +3.727705E+02 
 +8.596628E+02 +4.432860E+00 +1.760716E+01 +4.432860E+00 +4.821527E+02 +8.031901E+00 +1.760716E+01 +8.031901E+00 +3.472361E+02 
 +8.811051E+02 +8.455877E+00 +2.327145E+00 +8.455877E+00 +4.924100E+02 +4.064717E+00 +2.327145E+00 +4.064717E+00 +3.522625E+02 
 +8.681108E+02 +1.768202E+01 -9.808663E+00 +1.768202E+01 +4.668450E+02 +1.122988E+01 -9.808663E+00 +1.122988E+01 +3.569364E+02 
 +8.578890E+02 +2.046362E+01 -1.035352E+01 +2.046362E+01 +4.519117E+02 +2.202822E+01 -1.035352E+01 +2.202822E+01 +3.682671E+02 
 +8.574088E+02 +1.424335E+01 -4.446722E+00 +1.424335E+01 +4.543951E+02 +2.195372E+01 -4.446722E+00 +2.195372E+01 +3.667891E+02 
 +8.505235E+02 +9.297638E+00 +3.583481E+00 +9.297638E+00 +4.615411E+02 +1.925896E+01 +3.583481E+00 +1.925896E+01 +3.689069E+02 
 +8.432550E+02 +1.140013E+01 +6.501583E+00 +1.140013E+01 +4.634951E+02 +1.613221E+01 +6.501583E+00 +1.613221E+01 +3.690752E+02 
 +8.394779E+02 +8.608729E+00 +1.996229E+00 +8.608729E+00 +4.677134E+02 +8.959547E+00 +1.996229E+00 +8.959547E+00 +3.490585E+02 
 +8.407741E+02 -1.839717E+00 +8.934378E+00 -1.839717E+00 +4.595649E+02 +1.905632E+01 +8.934378E+00 +1.905632E+01 +3.751775E+02 
 +8.545038E+02 -7.153652E+00 +5.365129E+00 -7.153652E+00 +4.670289E+02 +2.658777E+01 +5.365129E+00 +2.658777E+01 +3.896319E+02 
 +8.629615E+02 -4.627647E+00 -4.760545E-01 -4.627647E+00 +4.665615E+02 +2.960860E+01 -4.760545E-01 +2.960860E+01 +3.941934E+02 
 +8.602132E+02 -2.712940E+00 -4.591822E+00 -2.712940E+00 +4.638584E+02 +2.997868E+01 -4.591822E+00 +2.997868E+01 +3.812643E+02 
 +8.648844E+02 +2.671901E-01 -4.331506E+00 +2.671901E-01 +4.698369E+02 +2.984377E+01 -4.331506E+00 +2.984377E+01 +3.685012E+02 
 +8.672439E+02 +3.885938E+00 +8.950911E-01 +3.885938E+00 +4.759794E+02 +2.963812E+01 +8.950911E-01 +2.963812E+01 +3.603206E+02 
 +8.607427E+02 +8.344681E+00 +4.884772E+00 +8.344681E+00 +4.850242E+02 +2.334729E+01 +4.884772E+00 +2.334729E+01 +3.681721E+02 
 +8.481119E+02 +3.126144E+00 +8.365762E+00 +3.126144E+00 +4.903316E+02 +9.856513E+00 +8.365762E+00 +9.856513E+00 +3.780085E+02 
 +8.389428E+02 -2.621131E+00 +5.659756E+00 -2.621131E+00 +4.896356E+02 +4.473975E-01 +5.659756E+00 +4.473975E-01 +3.816169E+02 
 +8.341835E+02 -4.782833E+00 +1.325093E+01 -4.782833E+00 +4.793091E+02 -5.870205E-01 +1.325093E+01 -5.870205E-01 +3.719962E+02 
 +8.468799E+02 -2.816585E+00 +9.841731E-01 -2.816585E+00 +4.749793E+02 +7.192309E+00 +9.841731E-01 +7.192309E+00 +3.735265E+02 
 +8.601323E+02 -2.357222E+00 +7.452987E-01 -2.357222E+00 +4.792738E+02 +1.250223E+01 +7.452987E-01 +1.250223E+01 +3.874014E+02 
 +8.578059E+02 +3.961227E+00 -2.769872E+00 +3.961227E+00 +4.801504E+02 +1.043936E+01 -2.769872E+00 +1.043936E+01 +3.693849E+02 
 +8.661928E+02 +5.767929E+00 +1.092705E+01 +5.767929E+00 +4.919825E+02 +1.457094E+00 +1.092705E+01 +1.457094E+00 +3.485317E+02 
 +8.773276E+02 +3.150560E+00 +3.602771E+00 +3.150560E+00 +5.028003E+02 -8.515069E+00 +3.602771E+00 -8.515069E+00 +3.315597E+02 
 +8.747212E+02 +6.645781E+00 +1.212328E+00 +6.645781E+00 +4.927501E+02 -4.566129E+00 +1.212328E+00 -4.566129E+00 +3.285426E+02 
 +8.610136E+02 +1.426510E+01 -1.287489E+01 +1.426510E+01 +4.652495E+02 +9.098144E+00 -1.287489E+01 +9.098144E+00 +3.466502E+02 
 +8.564234E+02 +1.637154E+01 -8.926745E+00 +1.637154E+01 +4.583844E+02 +1.440279E+01 -8.926745E+00 +1.440279E+01 +3.583692E+02 
 +8.557232E+02 +1.244954E+01 +2.715605E+00 +1.244954E+01 +4.693776E+02 +1.394968E+01 +2.715605E+00 +1.394968E+01 +3.646368E+02 
 +8.561291E+02 +1.097289E+01 +5.273291E+00 +1.097289E+01 +4.779903E+02 +1.193255E+01 +5.273291E+00 +1.193255E+01 +3.730702E+02 
 +8.524700E+02 +1.017946E+01 +4.806774E+00 +1.017946E+01 +4.726043E+02 +9.667530E+00 +4.806774E+00 +9.667530E+00 +3.765396E+02 
 +8.542465E+02 -9.445683E+00 +8.920749E+00 -9.445683E+00 +4.677783E+02 +2.008318E+01 +8.920749E+00 +2.008318E+01 +3.929456E+02 
 +8.409707E+02 -1.288893E+01 +1.176160E+01 -1.288893E+01 +4.498199E+02 +2.407090E+01 +1.176160E+01 +2.407090E+01 +3.669067E+02 
 +8.482899E+02 -6.741069E+00 +3.996726E+00 -6.741069E+00 +4.539585E+02 +2.969470E+01 +3.996726E+00 +2.969470E+01 +3.598106E+02 
 +8.450880E+02 -1.507492E+00 -1.074563E+00 -1.507492E+00 +4.533618E+02 +3.265044E+01 -1.074563E+00 +3.265044E+01 +3.538679E+02 
 +8.490472E+02 +4.466141E+00 -3.110980E+00 +4.466141E+00 +4.593474E+02 +3.396275E+01 -3.110980E+00 +3.396275E+01 +3.502578E+02 
 +8.525641E+02 +8.437478E+00 +1.744505E+00 +8.437478E+00 +4.685736E+02 +3.278122E+01 +1.744505E+00 +3.278122E+01 +3.497891E+02 
 +8.506432E+02 +1.241890E+01 +5.043069E+00 +1.241890E+01 +4.776105E+02 +2.739602E+01 +5.043069E+00 +2.739602E+01 +3.555449E+02 
 +8.528984E+02 +5.755859E+00 +5.916137E+00 +5.755859E+00 +4.989108E+02 +1.544269E+01 +5.916137E+00 +1.544269E+01 +3.781308E+02 
 +8.479151E+02 -6.700955E+00 +3.813594E+00 -6.700955E+00 +5.011504E+02 +4.286998E+00 +3.813594E+00 +4.286998E+00 +3.882155E+02 
 +8.394540E+02 -7.907694E+00 +7.081727E+00 -7.907694E+00 +4.830353E+02 -1.101719E+01 +7.081727E+00 -1.101719E+01 +3.666143E+02 
 +8.580137E+02 -2.551024E+00 +3.757044E-01 -2.551024E+00 +4.888950E+02 -2.790834E+01 +3.757044E-01 -2.790834E+01 +3.706965E+02 
 +8.727478E+02 +2.291589E+00 +1.912615E+00 +2.291589E+00 +5.057215E+02 -2.795915E+01 +1.912615E+00 -2.795915E+01 +3.878878E+02 
 +8.753147E+02 +5.682984E+00 +5.683172E-03 +5.682984E+00 +5.144131E+02 -1.512170E+01 +5.683172E-03 -1.512170E+01 +3.814742E+02 
 +8.771680E+02 +5.252676E+00 +4.001108E+00 +5.252676E+00 +5.095164E+02 -4.100917E+00 +4.001108E+00 -4.100917E+00 +3.673103E+02 
 +8.725186E+02 +3.011166E+00 +7.545921E-01 +3.011166E+00 +4.994170E+02 -4.144322E+00 +7.545921E-01 -4.144322E+00 +3.418071E+02 
 +8.756863E+02 +7.209957E-01 +6.172185E-01 +7.209957E-01 +4.999125E+02 -7.845494E+00 +6.172185E-01 -7.845494E+00 +3.215037E+02 
 +8.761181E+02 +3.556977E+00 -2.088661E+00 +3.556977E+00 +4.942774E+02 -2.457145E+00 -2.088661E+00 -2.457145E+00 +3.292752E+02 
 +8.638692E+02 +1.390624E+01 -6.224258E+00 +1.390624E+01 +4.753846E+02 +8.701744E+00 -6.224258E+00 +8.701744E+00 +3.494378E+02 
 +8.589134E+02 +1.295619E+01 -2.746779E+00 +1.295619E+01 +4.727978E+02 +1.426929E+01 -2.746779E+00 +1.426929E+01 +3.682082E+02 
 +8.636799E+02 +8.928896E+00 +4.758663E+00 +8.928896E+00 +4.808557E+02 +1.599823E+01 +4.758663E+00 +1.599823E+01 +3.833058E+02 
 +8.687407E+02 +3.564884E+00 +2.801309E+00 +3.564884E+00 +4.843128E+02 +1.688755E+01 +2.801309E+00 +1.688755E+01 +4.009850E+02 
 +8.577941E+02 -1.052120E+01 +2.372194E+00 -1.052120E+01 +4.670300E+02 +1.733042E+01 +2.372194E+00 +1.733042E+01 +3.913578E+02 
 +8.574347E+02 -1.323179E+01 +1.313836E+01 -1.323179E+01 +4.781160E+02 +3.300625E+01 +1.313836E+01 +3.300625E+01 +3.587433E+02 
 +8.580203E+02 -9.008487E+00 +8.027300E+00 -9.008487E+00 +4.813750E+02 +4.314584E+01 +8.027300E+00 +4.314584E+01 +3.424313E+02 
 +8.565706E+02 -2.978483E+00 +1.864977E+00 -2.978483E+00 +4.842417E+02 +5.131566E+01 +1.864977E+00 +5.131566E+01 +3.421671E+02 
 +8.521189E+02 +1.113639E+00 -2.652356E+00 +1.113639E+00 +4.796601E+02 +5.445233E+01 -2.652356E+00 +5.445233E+01 +3.445687E+02 
 +8.517616E+02 +8.243373E+00 +4.274777E+00 +8.243373E+00 +4.792584E+02 +5.063039E+01 +4.274777E+00 +5.063039E+01 +3.619155E+02 
 +8.461619E+02 +1.203158E+01 +1.436947E+00 +1.203158E+01 +4.825335E+02 +3.980619E+01 +1.436947E+00 +3.980619E+01 +3.757749E+02 
 +8.399170E+02 +2.366359E+00 -3.474278E+00 +2.366359E+00 +4.685291E+02 +2.370421E+01 -3.474278E+00 +2.370421E+01 +3.795746E+02 
 +8.415949E+02 -3.946357E+00 +3.878896E+00 -3.946357E+00 +4.674985E+02 +1.092074E+01 +3.878896E+00 +1.092074E+01 +3.738086E+02 
 +8.451233E+02 -2.121793E+00 +5.385506E+00 -2.121793E+00 +4.811130E+02 +3.927072E+00 +5.385506E+00 +3.927072E+00 +3.522345E+02 
 +8.657108E+02 +1.433278E+00 -5.547121E+00 +1.433278E+00 +5.027904E+02 +1.245970E-01 -5.547121E+00 +1.245970E-01 +3.613040E+02 
 +8.773715E+02 +6.741020E+00 -1.337316E+00 +6.741020E+00 +5.190420E+02 -4.226613E+00 -1.337316E+00 -4.226613E+00 +3.799810E+02 
 +8.796582E+02 +8.983803E+00 +4.317801E+00 +8.983803E+00 +5.198428E+02 -7.599810E+00 +4.317801E+00 -7.599810E+00 +3.842885E+02 
 +8.636665E+02 +4.729765E+00 +3.747673E+00 +4.729765E+00 +5.047893E+02 -5.324209E+00 +3.747673E+00 -5.324209E+00 +3.743127E+02 
 +8.757567E+02 +2.311101E+00 +6.486567E-01 +2.311101E+00 +5.059982E+02 -1.372740E+00 +6.486567E-01 -1.372740E+00 +3.582456E+02 
 +8.750829E+02 -3.020320E-01 -4.078572E+00 -3.020320E-01 +4.981310E+02 +4.140983E+00 -4.078572E+00 +4.140983E+00 +3.394097E+02 
 +8.765657E+02 -1.436429E+00 -2.244461E+00 -1.436429E+00 +4.967670E+02 +6.464842E-01 -2.244461E+00 +6.464842E-01 +3.355528E+02 
 +8.751973E+02 +2.914664E+00 -5.318074E+00 +2.914664E+00 +4.930711E+02 -4.483996E+00 -5.318074E+00 -4.483996E+00 +3.471719E+02 
 +8.678382E+02 +7.797596E+00 -2.949011E+00 +7.797596E+00 +4.764273E+02 +6.047869E+00 -2.949011E+00 +6.047869E+00 +3.760252E+02 
 +8.589631E+02 +6.379280E+00 +1.988328E+00 +6.379280E+00 +4.634561E+02 +1.438476E+01 +1.988328E+00 +1.438476E+01 +3.936192E+02 
 +8.587973E+02 -7.059279E-01 -3.820344E+00 -7.059279E-01 +4.607659E+02 +1.037310E+01 -3.820344E+00 +1.037310E+01 +4.026131E+02 
 +8.632825E+02 -5.082130E+00 -7.996346E-01 -5.082130E+00 +4.704671E+02 +1.472263E+01 -7.996346E-01 +1.472263E+01 +3.854883E+02 
 +8.647660E+02 -1.040184E+01 +1.150700E+01 -1.040184E+01 +4.824812E+02 +3.014090E+01 +1.150700E+01 +3.014090E+01 +3.572006E+02 
 +8.607658E+02 -9.844176E+00 +1.354575E+01 -9.844176E+00 +4.857966E+02 +3.935154E+01 +1.354575E+01 +3.935154E+01 +3.446755E+02 
 +8.561671E+02 -3.729505E+00 +6.580950E+00 -3.729505E+00 +4.868915E+02 +4.654244E+01 +6.580950E+00 +4.654244E+01 +3.540708E+02 
 +8.528133E+02 -5.097498E+00 +2.801916E-01 -5.097498E+00 +4.850081E+02 +5.593160E+01 +2.801916E-01 +5.593160E+01 +3.596954E+02 
 +8.392474E+02 +3.446872E+00 +2.082830E+00 +3.446872E+00 +4.711227E+02 +5.172432E+01 +2.082830E+00 +5.172432E+01 +3.686353E+02 
 +8.356093E+02 +9.685844E+00 -6.889520E+00 +9.685844E+00 +4.642001E+02 +3.079872E+01 -6.889520E+00 +3.079872E+01 +3.915906E+02 
 +8.408344E+02 -2.010400E+00 -2.280490E+00 -2.010400E+00 +4.546540E+02 +2.244108E+01 -2.280490E+00 +2.244108E+01 +3.910215E+02 
 +8.437812E+02 +7.602680E-01 +1.288973E+01 +7.602680E-01 +4.482517E+02 +1.389251E+01 +1.288973E+01 +1.389251E+01 +3.750609E+02 
 +8.462184E+02 -3.626824E-01 +1.499692E+01 -3.626824E-01 +4.681280E+02 -4.303663E+00 +1.499692E+01 -4.303663E+00 +3.594404E+02 
 +8.585438E+02 +8.063751E-02 +1.033033E+00 +8.063751E-02 +4.943229E+02 -9.892374E+00 +1.033033E+00 -9.892374E+00 +3.424335E+02 
 +8.641014E+02 +4.861149E+00 -8.472232E+00 +4.861149E+00 +5.016706E+02 -7.706775E+00 -8.472232E+00 -7.706775E+00 +3.370919E+02 
 +8.806633E+02 +5.384751E+00 -1.396162E+00 +5.384751E+00 +5.192132E+02 -5.302015E+00 -1.396162E+00 -5.302015E+00 +3.769351E+02 
 +8.562758E+02 +2.850350E+00 +3.002986E+00 +2.850350E+00 +5.105068E+02 +7.397269E-01 +3.002986E+00 +7.397269E-01 +3.910098E+02 
 +8.814123E+02 +3.976939E+00 +1.768692E+00 +3.976939E+00 +5.111842E+02 +3.357485E+00 +1.768692E+00 +3.357485E+00 +3.708640E+02 
 +8.750742E+02 +2.385146E+00 -6.414780E+00 +2.385146E+00 +5.014863E+02 +4.869692E+00 -6.414780E+00 +4.869692E+00 +3.511966E+02 
 +8.603726E+02 -1.727171E+00 -1.130493E+01 -1.727171E+00 +4.807124E+02 +1.242768E+01 -1.130493E+01 +1.242768E+01 +3.399641E+02 
 +8.485899E+02 -1.590751E+00 -9.047867E+00 -1.590751E+00 +4.431933E+02 +2.106384E+01 -9.047867E+00 +2.106384E+01 +3.210446E+02 
 +8.423004E+02 +2.837904E+00 -6.997321E+00 +2.837904E+00 +4.289761E+02 +1.447317E+01 -6.997321E+00 +1.447317E+01 +3.468138E+02 
 +8.491042E+02 +5.043030E+00 -7.049258E+00 +5.043030E+00 +4.450762E+02 +5.236537E+00 -7.049258E+00 +5.236537E+00 +3.854309E+02 
 +8.597259E+02 -3.391986E+00 -7.662256E+00 -3.391986E+00 +4.609633E+02 +5.100489E+00 -7.662256E+00 +5.100489E+00 +3.982597E+02 
 +8.564841E+02 -4.673199E+00 -5.871056E+00 -4.673199E+00 +4.463545E+02 +1.939593E+01 -5.871056E+00 +1.939593E+01 +3.733586E+02 
 +8.545867E+02 -6.056497E+00 +4.016765E+00 -6.056497E+00 +4.458681E+02 +2.454802E+01 +4.016765E+00 +2.454802E+01 +3.590257E+02 
 +8.513575E+02 -5.504059E+00 +1.419388E+01 -5.504059E+00 +4.642431E+02 +3.488234E+01 +1.419388E+01 +3.488234E+01 +3.521614E+02 
 +8.454654E+02 -4.321826E+00 +8.398910E+00 -4.321826E+00 +4.763533E+02 +4.674686E+01 +8.398910E+00 +4.674686E+01 +3.590207E+02 
 +8.373162E+02 -7.477340E+00 +4.244338E+00 -7.477340E+00 +4.722633E+02 +5.856754E+01 +4.244338E+00 +5.856754E+01 +3.582541E+02 
 +8.288724E+02 -3.381769E+00 -2.114365E+00 -3.381769E+00 +4.675507E+02 +5.668807E+01 -2.114365E+00 +5.668807E+01 +3.728493E+02 
 +8.417054E+02 +2.327770E+00 -7.507945E+00 +2.327770E+00 +4.645296E+02 +3.654717E+01 -7.507945E+00 +3.654717E+01 +4.013366E+02 
 +8.518442E+02 -5.914035E+00 +6.256321E+00 -5.914035E+00 +4.679500E+02 +1.193911E+01 +6.256321E+00 +1.193911E+01 +3.930150E+02 
 +8.546523E+02 -3.845303E+00 +1.729014E+01 -3.845303E+00 +4.765557E+02 -1.110519E+01 +1.729014E+01 -1.110519E+01 +3.730966E+02 
 +8.525828E+02 -1.356092E+00 +1.635327E+01 -1.356092E+00 +4.705963E+02 -2.700154E+01 +1.635327E+01 -2.700154E+01 +3.614603E+02 
 +8.569310E+02 +4.984088E-02 +1.139204E+01 +4.984088E-02 +4.756481E+02 -2.980333E+01 +1.139204E+01 -2.980333E+01 +3.478399E+02 
 +8.698250E+02 +2.943999E+00 -3.351211E+00 +2.943999E+00 +4.945775E+02 -2.236146E+01 -3.351211E+00 -2.236146E+01 +3.372042E+02 
 +8.769857E+02 +6.201696E+00 -1.532128E+00 +6.201696E+00 +5.086137E+02 -1.398135E+01 -1.532128E+00 -1.398135E+01 +3.571013E+02 
 +8.624991E+02 +8.809512E+00 +6.623745E+00 +8.809512E+00 +5.067164E+02 -3.222515E+00 +6.623745E+00 -3.222515E+00 +3.767867E+02 
 +8.750202E+02 +9.823127E+00 +3.258194E+00 +9.823127E+00 +5.143762E+02 +7.619484E+00 +3.258194E+00 +7.619484E+00 +3.769594E+02 
 +8.687272E+02 +3.473055E+00 -4.820300E+00 +3.473055E+00 +5.048732E+02 +1.783513E+01 -4.820300E+00 +1.783513E+01 +3.657118E+02 
 +8.509013E+02 -1.017330E+01 -1.334942E+01 -1.017330E+01 +4.806812E+02 +2.715320E+01 -1.334942E+01 +2.715320E+01 +3.482377E+02 
 +8.628924E+02 -9.998422E+00 -1.223105E+01 -9.998422E+00 +4.788744E+02 +2.386834E+01 -1.223105E+01 +2.386834E+01 +3.354990E+02 
 +8.552259E+02 -7.514322E+00 -1.351759E+01 -7.514322E+00 +4.672560E+02 +1.844486E+01 -1.351759E+01 +1.844486E+01 +3.406907E+02 
 +8.589618E+02 +1.796463E+00 -6.823707E+00 +1.796463E+00 +4.592967E+02 +1.173127E+01 -6.823707E+00 +1.173127E+01 +3.697036E+02 
 +8.553981E+02 -6.793458E+00 -6.767869E+00 -6.793458E+00 +4.522545E+02 +1.435305E+01 -6.767869E+00 +1.435305E+01 +3.782302E+02 
 +8.401997E+02 -7.547588E+00 -7.953561E+00 -7.547588E+00 +4.245544E+02 +1.931961E+01 -7.953561E+00 +1.931961E+01 +3.284385E+02 
 +8.485887E+02 -4.879644E+00 +9.815177E-01 -4.879644E+00 +4.394750E+02 +2.610899E+01 +9.815177E-01 +2.610899E+01 +3.311567E+02 
 +8.507292E+02 -2.503799E+00 +1.008796E+01 -2.503799E+00 +4.636487E+02 +4.283146E+01 +1.008796E+01 +4.283146E+01 +3.349147E+02 
 +8.447971E+02 -4.392335E+00 +4.815988E+00 -4.392335E+00 +4.794670E+02 +5.601689E+01 +4.815988E+00 +5.601689E+01 +3.446668E+02 
 +8.223649E+02 -8.822105E+00 -3.806947E-01 -8.822105E+00 +4.760347E+02 +5.641236E+01 -3.806947E-01 +5.641236E+01 +3.602438E+02 
 +8.239077E+02 -1.063405E+01 -4.741111E+00 -1.063405E+01 +4.698421E+02 +4.554678E+01 -4.741111E+00 +4.554678E+01 +3.876256E+02 
 +8.519789E+02 -4.490512E+00 -4.916793E+00 -4.490512E+00 +4.731165E+02 +2.592075E+01 -4.916793E+00 +2.592075E+01 +4.061337E+02 
 +8.486530E+02 -1.545905E+00 +4.746783E+00 -1.545905E+00 +4.653150E+02 +3.556846E+00 +4.746783E+00 +3.556846E+00 +3.738051E+02 
 +8.402989E+02 -1.636605E+00 +1.359621E+01 -1.636605E+00 +4.611796E+02 -1.774812E+01 +1.359621E+01 -1.774812E+01 +3.377980E+02 
 +8.482421E+02 -1.577899E+00 +1.288222E+01 -1.577899E+00 +4.643835E+02 -3.336536E+01 +1.288222E+01 -3.336536E+01 +3.296791E+02 
 +8.515116E+02 +3.196783E-01 +1.497064E+01 +3.196783E-01 +4.576877E+02 -3.598270E+01 +1.497064E+01 -3.598270E+01 +3.405303E+02 
 +8.602833E+02 +3.806786E+00 +8.822839E+00 +3.806786E+00 +4.537239E+02 -3.226995E+01 +8.822839E+00 -3.226995E+01 +3.368259E+02 
 +8.680214E+02 +9.002522E+00 +4.535811E+00 +9.002522E+00 +4.696879E+02 -2.121481E+01 +4.535811E+00 -2.121481E+01 +3.294398E+02 
 +8.546791E+02 +4.014167E+00 +1.284005E+01 +4.014167E+00 +4.823919E+02 -8.427449E+00 +1.284005E+01 -8.427449E+00 +3.530407E+02 
 +8.542324E+02 +3.890853E+00 +9.903681E+00 +3.890853E+00 +4.913803E+02 +3.573958E+00 +9.903681E+00 +3.573958E+00 +3.744177E+02 
 +8.503784E+02 -4.802244E-01 +7.288116E+00 -4.802244E-01 +4.922996E+02 +1.421610E+01 +7.288116E+00 +1.421610E+01 +3.686990E+02 
 +8.461970E+02 -1.138094E+01 -1.152127E+01 -1.138094E+01 +4.885882E+02 +2.845477E+01 -1.152127E+01 +2.845477E+01 +3.530040E+02 
 +8.594526E+02 -7.403474E+00 -1.915138E+01 -7.403474E+00 +4.857164E+02 +2.921390E+01 -1.915138E+01 +2.921390E+01 +3.348956E+02 
 +8.370940E+02 -1.039368E+01 -1.066084E+01 -1.039368E+01 +4.533800E+02 +2.226422E+01 -1.066084E+01 +2.226422E+01 +3.195056E+02 
 +8.539271E+02 -1.217643E+00 -9.212554E-01 -1.217643E+00 +4.460728E+02 +1.545806E+01 -9.212554E-01 +1.545806E+01 +3.464404E+02 
 +8.441456E+02 -6.388971E+00 -5.761477E+00 -6.388971E+00 +4.316948E+02 +1.624227E+01 -5.761477E+00 +1.624227E+01 +3.443606E+02 
 +8.802690E+02 -8.204000E+00 -1.042583E+00 -8.204000E+00 +5.084795E+02 +2.723224E+01 -1.042583E+00 +2.723224E+01 +3.094737E+02 
 +8.868256E+02 -7.181756E+00 +3.173410E+00 -7.181756E+00 +5.332150E+02 +3.003642E+01 +3.173410E+00 +3.003642E+01 +3.144095E+02 
 +8.751335E+02 -9.004332E+00 -1.380824E+00 -9.004332E+00 +5.212940E+02 +3.030201E+01 -1.380824E+00 +3.030201E+01 +3.149436E+02 
 +8.551281E+02 -1.387228E+01 -4.008901E+00 -1.387228E+01 +5.077348E+02 +2.566524E+01 -4.008901E+00 +2.566524E+01 +3.127650E+02 
 +8.160383E+02 -1.969380E+01 -4.707640E+00 -1.969380E+01 +4.873900E+02 +1.964551E+01 -4.707640E+00 +1.964551E+01 +3.305280E+02 
 +8.165692E+02 -2.003677E+01 -1.157847E+00 -2.003677E+01 +4.719993E+02 +1.843748E+01 -1.157847E+00 +1.843748E+01 +3.579924E+02 
 +8.505610E+02 -7.605977E+00 -1.294327E-01 -7.605977E+00 +4.667138E+02 +1.476482E+01 -1.294327E-01 +1.476482E+01 +3.784413E+02 
 +8.451966E+02 +2.761956E+00 -9.780287E-01 +2.761956E+00 +4.579084E+02 +3.250906E+00 -9.780287E-01 +3.250906E+00 +3.684691E+02 
 +8.460531E+02 +3.004929E-01 +6.858779E+00 +3.004929E-01 +4.626974E+02 -1.288104E+01 +6.858779E+00 -1.288104E+01 +3.458427E+02 
 +8.460826E+02 -3.551325E+00 +8.211912E+00 -3.551325E+00 +4.564990E+02 -2.651269E+01 +8.211912E+00 -2.651269E+01 +3.214674E+02 
 +8.533191E+02 -3.409941E+00 +1.342675E+01 -3.409941E+00 +4.535199E+02 -3.112035E+01 +1.342675E+01 -3.112035E+01 +3.352212E+02 
 +8.685426E+02 +4.597860E+00 +1.693829E+01 +4.597860E+00 +4.547771E+02 -3.264093E+01 +1.693829E+01 -3.264093E+01 +3.435547E+02 
 +8.675065E+02 +1.304189E+01 +1.292025E+01 +1.304189E+01 +4.568816E+02 -2.537909E+01 +1.292025E+01 -2.537909E+01 +3.292656E+02 
 +8.457510E+02 +2.024570E+00 +1.893090E+01 +2.024570E+00 +4.671828E+02 -1.309902E+01 +1.893090E+01 -1.309902E+01 +3.498001E+02 
 +8.531106E+02 +2.106264E+00 +1.555203E+01 +2.106264E+00 +4.862622E+02 -2.288508E+00 +1.555203E+01 -2.288508E+00 +3.744775E+02 
 +8.538662E+02 +1.385047E+00 +1.466060E+01 +1.385047E+00 +4.906260E+02 +1.483437E+00 +1.466060E+01 +1.483437E+00 +3.724118E+02 
 +8.467771E+02 -4.832214E+00 +4.803540E+00 -4.832214E+00 +4.866668E+02 +1.688400E+01 +4.803540E+00 +1.688400E+01 +3.590048E+02 
 +8.441511E+02 -4.883681E+00 -2.207901E+01 -4.883681E+00 +4.786710E+02 +2.553380E+01 -2.207901E+01 +2.553380E+01 +3.319087E+02 
 +8.396912E+02 -1.340884E+01 -1.289734E+01 -1.340884E+01 +4.635861E+02 +2.009396E+01 -1.289734E+01 +2.009396E+01 +3.242303E+02 
 +8.366887E+02 -5.816229E+00 -7.081648E-01 -5.816229E+00 +4.411506E+02 +1.579218E+01 -7.081648E-01 +1.579218E+01 +3.318581E+02 
 +8.425175E+02 -5.848905E+00 -6.577658E+00 -5.848905E+00 +4.492946E+02 +2.085931E+01 -6.577658E+00 +2.085931E+01 +3.193828E+02 
 +9.083157E+02 -1.422305E+00 +1.093835E+01 -1.422305E+00 +5.359036E+02 +2.562411E+01 +1.093835E+01 +2.562411E+01 +3.369344E+02 
 +8.855114E+02 -4.145033E+00 -1.402436E+00 -4.145033E+00 +5.256299E+02 +3.500960E+01 -1.402436E+00 +3.500960E+01 +3.243953E+02 
 +8.717878E+02 -7.167985E+00 -1.384068E+01 -7.167985E+00 +5.234433E+02 +3.435666E+01 -1.384068E+01 +3.435666E+01 +3.242632E+02 
 +8.455370E+02 -1.271603E+01 -1.460220E+01 -1.271603E+01 +4.924526E+02 +3.326861E+01 -1.460220E+01 +3.326861E+01 +2.917579E+02 
 +8.168924E+02 -1.231810E+01 -5.715321E+00 -1.231810E+01 +4.674135E+02 +2.432461E+01 -5.715321E+00 +2.432461E+01 +2.806856E+02 
 +8.301303E+02 -7.369752E+00 +3.081614E+00 -7.369752E+00 +4.882959E+02 +1.361992E+01 +3.081614E+00 +1.361992E+01 +3.157189E+02 
 +8.563147E+02 -1.519475E+00 +5.177513E+00 -1.519475E+00 +5.009383E+02 +9.620296E+00 +5.177513E+00 +9.620296E+00 +3.538066E+02 
 +8.420574E+02 +5.746864E+00 -1.206987E+00 +5.746864E+00 +4.610040E+02 +7.521287E+00 -1.206987E+00 +7.521287E+00 +3.722656E+02 
 +8.336456E+02 +8.018678E+00 -3.149634E+00 +8.018678E+00 +4.344668E+02 +1.266919E+00 -3.149634E+00 +1.266919E+00 +3.572975E+02 
 +8.368741E+02 -2.605087E+00 +3.073318E+00 -2.605087E+00 +4.314046E+02 -9.456864E+00 +3.073318E+00 -9.456864E+00 +3.315686E+02 
 +8.426625E+02 -7.577857E+00 +1.151365E+01 -7.577857E+00 +4.267057E+02 -1.589046E+01 +1.151365E+01 -1.589046E+01 +3.456667E+02 
 +8.493562E+02 -1.361875E+00 +2.042030E+01 -1.361875E+00 +4.274626E+02 -1.917936E+01 +2.042030E+01 -1.917936E+01 +3.476169E+02 
 +8.496170E+02 +5.022675E+00 +1.920305E+01 +5.022675E+00 +4.310203E+02 -1.540567E+01 +1.920305E+01 -1.540567E+01 +3.357812E+02 
 +8.529536E+02 +1.157417E+00 +2.089007E+01 +1.157417E+00 +4.554040E+02 -8.013770E+00 +2.089007E+01 -8.013770E+00 +3.649726E+02 
 +8.589346E+02 -1.731281E+00 +1.726183E+01 -1.731281E+00 +4.808059E+02 -1.989657E+00 +1.726183E+01 -1.989657E+00 +3.809795E+02 
 +8.659715E+02 -2.731821E+00 +1.477913E+01 -2.731821E+00 +4.860461E+02 +1.931944E+00 +1.477913E+01 +1.931944E+00 +3.756439E+02 
 +8.687805E+02 -4.497208E+00 +1.895250E+01 -4.497208E+00 +4.941971E+02 +1.085983E+01 +1.895250E+01 +1.085983E+01 +3.739378E+02 
 +8.402229E+02 -9.368302E-01 -2.081220E+01 -9.368302E-01 +4.819739E+02 +9.360297E+00 -2.081220E+01 +9.360297E+00 +3.524374E+02 
 +8.577279E+02 -7.720122E+00 -1.794771E+01 -7.720122E+00 +4.994170E+02 +6.589440E-01 -1.794771E+01 +6.589440E-01 +3.573515E+02 
 +8.521262E+02 -4.433554E+00 -9.317127E+00 -4.433554E+00 +5.192967E+02 -1.091485E+00 -9.317127E+00 -1.091485E+00 +3.580121E+02 
 +8.700301E+02 -7.733084E-01 -9.783538E-01 -7.733084E-01 +5.308325E+02 +7.465865E+00 -9.783538E-01 +7.465865E+00 +3.507531E+02 
 +8.865906E+02 +5.638469E+00 +9.061124E+00 +5.638469E+00 +4.977844E+02 -2.656182E+01 +9.061124E+00 -2.656182E+01 +3.575193E+02 
 +8.729632E+02 +2.240688E+00 -2.144529E+00 +2.240688E+00 +4.868949E+02 -2.960269E+01 -2.144529E+00 -2.960269E+01 +3.436828E+02 
 +8.526872E+02 -2.664247E+00 -9.998523E+00 -2.664247E+00 +4.791952E+02 -2.450802E+01 -9.998523E+00 -2.450802E+01 +3.389729E+02 
 +8.340511E+02 -1.246216E+01 -1.095881E+01 -1.246216E+01 +4.593580E+02 -8.475303E+00 -1.095881E+01 -8.475303E+00 +3.155912E+02 
 +8.436654E+02 -6.703268E+00 -2.921706E+00 -6.703268E+00 +4.672906E+02 +3.057912E+00 -2.921706E+00 +3.057912E+00 +3.089767E+02 
 +8.493136E+02 -7.589134E+00 -1.275468E+00 -7.589134E+00 +4.891476E+02 +7.982376E+00 -1.275468E+00 +7.982376E+00 +3.239648E+02 
 +8.547721E+02 -4.345601E+00 +1.332500E+00 -4.345601E+00 +5.083649E+02 +1.046588E+01 +1.332500E+00 +1.046588E+01 +3.453467E+02 
 +8.697416E+02 +3.691478E+00 -3.330609E-01 +3.691478E+00 +5.280018E+02 +9.256477E+00 -3.330609E-01 +9.256477E+00 +3.740632E+02 
 +8.732884E+02 +1.291347E+01 -4.365716E+00 +1.291347E+01 +5.142620E+02 +9.183684E+00 -4.365716E+00 +9.183684E+00 +3.741580E+02 
 +8.715547E+02 +6.003883E+00 +1.814819E+00 +6.003883E+00 +4.940186E+02 +1.110471E+01 +1.814819E+00 +1.110471E+01 +3.575688E+02 
 +8.691158E+02 -4.810163E-01 +1.045853E+01 -4.810163E-01 +4.938223E+02 +8.787945E+00 +1.045853E+01 +8.787945E+00 +3.666191E+02 
 +8.586379E+02 +6.611642E+00 +1.119945E+01 +6.611642E+00 +4.896687E+02 -2.172979E+00 +1.119945E+01 -2.172979E+00 +3.684156E+02 
 +8.654871E+02 +3.769454E+00 +4.317593E+00 +3.769454E+00 +4.812293E+02 -1.723570E+01 +4.317593E+00 -1.723570E+01 +3.694677E+02 
 +8.618980E+02 -1.388219E+00 +1.211595E+01 -1.388219E+00 +4.648889E+02 -1.423939E+01 +1.211595E+01 -1.423939E+01 +3.865467E+02 
 +8.746171E+02 -7.341883E+00 +1.463714E+01 -7.341883E+00 +4.753769E+02 -5.541581E+00 +1.463714E+01 -5.541581E+00 +3.962138E+02 
 +8.840675E+02 -1.004948E+01 +1.557308E+01 -1.004948E+01 +4.882358E+02 -1.736342E+00 +1.557308E+01 -1.736342E+00 +3.871919E+02 
 +8.841754E+02 -1.042023E+01 +1.976770E+01 -1.042023E+01 +4.923564E+02 +3.872717E+00 +1.976770E+01 +3.872717E+00 +3.801330E+02 
 +8.670816E+02 -8.175786E+00 -1.481476E+01 -8.175786E+00 +5.010913E+02 +4.407065E+00 -1.481476E+01 +4.407065E+00 +3.863044E+02 
 +8.638547E+02 -7.838124E+00 -1.565724E+01 -7.838124E+00 +5.236035E+02 +8.211144E-01 -1.565724E+01 +8.211144E-01 +4.000367E+02 
 +8.424418E+02 -2.325023E+00 -1.552027E+01 -2.325023E+00 +5.147846E+02 -6.818241E+00 -1.552027E+01 -6.818241E+00 +3.822464E+02 
 +8.530954E+02 +2.062154E+00 +1.239508E+00 +2.062154E+00 +5.000207E+02 -1.872513E+01 +1.239508E+00 -1.872513E+01 +3.676767E+02 
 +8.707052E+02 +6.901711E+00 -3.325080E+00 +6.901711E+00 +4.884809E+02 -2.633282E+01 -3.325080E+00 -2.633282E+01 +3.609421E+02 
 +8.751785E+02 +9.672645E+00 +1.893015E+00 +9.672645E+00 +4.867692E+02 -2.407562E+01 +1.893015E+00 -2.407562E+01 +3.586712E+02 
 +8.556192E+02 +1.583543E+00 +3.561568E+00 +1.583543E+00 +4.798051E+02 -1.373026E+01 +3.561568E+00 -1.373026E+01 +3.547803E+02 
 +8.387909E+02 -1.587307E+01 +2.749383E+00 -1.587307E+01 +4.713567E+02 +8.429206E+00 +2.749383E+00 +8.429206E+00 +3.440865E+02 
 +8.625612E+02 -6.975758E+00 +2.692646E+00 -6.975758E+00 +4.784992E+02 +1.687770E+01 +2.692646E+00 +1.687770E+01 +3.369944E+02 
 +8.578105E+02 -8.515462E+00 -6.061459E-01 -8.515462E+00 +4.794954E+02 +1.554207E+01 -6.061459E-01 +1.554207E+01 +3.333018E+02 
 +8.555141E+02 -5.381874E+00 -5.791502E-01 -5.381874E+00 +4.943235E+02 +2.033866E+01 -5.791502E-01 +2.033866E+01 +3.434483E+02 
 +8.582340E+02 -1.579833E+00 -1.742223E+00 -1.579833E+00 +5.056347E+02 +2.407276E+01 -1.742223E+00 +2.407276E+01 +3.440051E+02 
 +8.654582E+02 +2.533102E+00 -6.526749E-02 +2.533102E+00 +5.040113E+02 +2.527195E+01 -6.526749E-02 +2.527195E+01 +3.413905E+02 
 +8.676925E+02 +2.387431E+00 +3.877718E+00 +2.387431E+00 +4.953841E+02 +2.318992E+01 +3.877718E+00 +2.318992E+01 +3.353583E+02 
 +8.653468E+02 +2.376548E+00 +5.750996E+00 +2.376548E+00 +4.973510E+02 +1.011513E+01 +5.750996E+00 +1.011513E+01 +3.427908E+02 
 +8.436038E+02 +1.715461E+01 -3.822088E+00 +1.715461E+01 +4.938667E+02 -5.552585E+00 -3.822088E+00 -5.552585E+00 +3.623861E+02 
 +8.569825E+02 +1.366268E+01 -1.144421E+01 +1.366268E+01 +4.982493E+02 -4.824075E+00 -1.144421E+01 -4.824075E+00 +3.888852E+02 
 +8.595818E+02 +1.135600E+01 -1.811476E+00 +1.135600E+01 +4.876073E+02 +2.525957E-02 -1.811476E+00 +2.525957E-02 +3.981057E+02 
 +8.731963E+02 +1.916030E+00 +4.110341E+00 +1.916030E+00 +4.805936E+02 -4.551235E+00 +4.110341E+00 -4.551235E+00 +3.985636E+02 
 +8.786035E+02 -1.295657E+01 +1.550208E+01 -1.295657E+01 +4.796475E+02 -6.368865E+00 +1.550208E+01 -6.368865E+00 +3.855552E+02 
 +8.862278E+02 -2.046861E+01 +2.049398E+01 -2.046861E+01 +4.899713E+02 -4.400466E+00 +2.049398E+01 -4.400466E+00 +3.757833E+02 
 +8.847791E+02 -1.388809E+01 -4.271286E+00 -1.388809E+01 +4.999392E+02 -3.906379E+00 -4.271286E+00 -3.906379E+00 +3.764229E+02 
 +8.716966E+02 -4.720588E+00 -5.431571E+00 -4.720588E+00 +5.132313E+02 -2.260198E+00 -5.431571E+00 -2.260198E+00 +3.913579E+02 
 +8.417730E+02 +6.100175E-01 -8.586341E+00 +6.100175E-01 +5.028214E+02 -9.411550E+00 -8.586341E+00 -9.411550E+00 +3.861936E+02 
 +8.518984E+02 -1.272219E+00 -3.305816E+00 -1.272219E+00 +4.935135E+02 -2.268564E+01 -3.305816E+00 -2.268564E+01 +3.717282E+02 
 +8.533709E+02 -4.239962E-01 -8.917630E+00 -4.239962E-01 +4.841009E+02 -1.534231E+01 -8.917630E+00 -1.534231E+01 +3.466179E+02 
 +8.708357E+02 +6.804950E+00 +6.382907E+00 +6.804950E+00 +4.837022E+02 -1.307144E+01 +6.382907E+00 -1.307144E+01 +3.480735E+02 
 +8.489198E+02 -1.981224E+00 +1.517074E+01 -1.981224E+00 +4.734467E+02 +3.396623E+00 +1.517074E+01 +3.396623E+00 +3.566036E+02 
 +8.468986E+02 -1.132448E+01 +8.932193E+00 -1.132448E+01 +4.696294E+02 +1.672433E+01 +8.932193E+00 +1.672433E+01 +3.622649E+02 
 +8.687695E+02 +8.028454E-01 +1.201832E+01 +8.028454E-01 +4.830576E+02 +1.674009E+01 +1.201832E+01 +1.674009E+01 +3.629660E+02 
 +8.537190E+02 -4.740552E+00 +6.637521E+00 -4.740552E+00 +4.771484E+02 +1.994803E+01 +6.637521E+00 +1.994803E+01 +3.470492E+02 
 +8.600952E+02 -4.384379E+00 -8.179862E-01 -4.384379E+00 +4.884821E+02 +1.966872E+01 -8.179862E-01 +1.966872E+01 +3.441906E+02 
 +8.631608E+02 -3.068436E+00 +2.099677E+00 -3.068436E+00 +4.961726E+02 +1.789206E+01 +2.099677E+00 +1.789206E+01 +3.418584E+02 
 +8.676590E+02 -2.349710E+00 +2.441319E+00 -2.349710E+00 +4.992531E+02 +2.005630E+01 +2.441319E+00 +2.005630E+01 +3.391679E+02 
 +8.718202E+02 -7.015983E-01 +5.842483E+00 -7.015983E-01 +4.989702E+02 +1.868677E+01 +5.842483E+00 +1.868677E+01 +3.344816E+02 
 +8.745814E+02 +1.677325E+00 +6.540325E-01 +1.677325E+00 +5.014606E+02 +8.707128E+00 +6.540325E-01 +8.707128E+00 +3.446187E+02 
 +8.413126E+02 +1.354685E+01 -1.091837E+01 +1.354685E+01 +4.885990E+02 +1.048359E+00 -1.091837E+01 +1.048359E+00 +3.604606E+02 
 +8.419835E+02 +1.161339E+01 -1.119186E+01 +1.161339E+01 +4.910793E+02 +6.445919E+00 -1.119186E+01 +6.445919E+00 +3.790138E+02 
 +8.467852E+02 +1.289132E+01 -8.838023E+00 +1.289132E+01 +4.883246E+02 +1.304583E+01 -8.838023E+00 +1.304583E+01 +3.806719E+02 
 +8.498975E+02 +9.671440E+00 -4.128066E+00 +9.671440E+00 +4.793905E+02 +1.501732E+01 -4.128066E+00 +1.501732E+01 +3.712373E+02 
 +8.541683E+02 +6.008303E+00 +2.005656E+00 +6.008303E+00 +4.819329E+02 +7.542072E+00 +2.005656E+00 +7.542072E+00 +3.572930E+02 
 +8.772552E+02 -8.863440E+00 +1.254479E+01 -8.863440E+00 +4.956314E+02 -1.942239E+00 +1.254479E+01 -1.942239E+00 +3.453218E+02 
 +8.854562E+02 -4.405107E+00 +4.300028E+00 -4.405107E+00 +4.951443E+02 -2.902531E+00 +4.300028E+00 -2.902531E+00 +3.189915E+02 
 +8.670477E+02 -3.349943E+00 +2.142317E+00 -3.349943E+00 +4.909567E+02 +2.151858E+00 +2.142317E+00 +2.151858E+00 +3.114346E+02 
 +8.407766E+02 -5.412890E+00 -2.315290E+00 -5.412890E+00 +4.878092E+02 -9.186759E-01 -2.315290E+00 -9.186759E-01 +3.345757E+02 
 +8.491164E+02 -3.773592E+00 -3.041688E+00 -3.773592E+00 +4.972212E+02 -8.358978E+00 -3.041688E+00 -8.358978E+00 +3.574187E+02 
 +8.459551E+02 -2.224123E+00 -1.009453E+00 -2.224123E+00 +4.848625E+02 +1.027597E+01 -1.009453E+00 +1.027597E+01 +3.485194E+02 
 +8.618856E+02 +1.171494E+01 +8.774507E+00 +1.171494E+01 +4.769323E+02 +2.042079E+01 +8.774507E+00 +2.042079E+01 +3.500163E+02 
 +8.373390E+02 +9.627937E-02 +1.267896E+01 +9.627937E-02 +4.543633E+02 +1.472914E+01 +1.267896E+01 +1.472914E+01 +3.497743E+02 
 +8.512329E+02 -1.246742E+01 +1.229791E+01 -1.246742E+01 +4.625357E+02 +6.685109E+00 +1.229791E+01 +6.685109E+00 +3.680697E+02 
 +8.662642E+02 -3.093619E+00 +2.109880E+01 -3.093619E+00 +4.818497E+02 -4.065601E-01 +2.109880E+01 -4.065601E-01 +3.968978E+02 
 +8.534213E+02 -6.040340E+00 +1.469710E+01 -6.040340E+00 +4.824745E+02 +6.766598E-02 +1.469710E+01 +6.766598E-02 +3.817249E+02 
 +8.764686E+02 -5.147970E-01 +1.651580E+00 -5.147970E-01 +4.947665E+02 +1.082970E+01 +1.651580E+00 +1.082970E+01 +3.610415E+02 
 +8.712184E+02 -1.956394E+00 +5.875546E+00 -1.956394E+00 +4.955487E+02 +1.587479E+01 +5.875546E+00 +1.587479E+01 +3.487295E+02 
 +8.734126E+02 -3.015457E+00 +5.241777E+00 -3.015457E+00 +4.998056E+02 +1.596481E+01 +5.241777E+00 +1.596481E+01 +3.459164E+02 
 +8.787710E+02 -2.996006E+00 +5.812609E+00 -2.996006E+00 +5.021969E+02 +1.499541E+01 +5.812609E+00 +1.499541E+01 +3.393100E+02 
 +8.767473E+02 +3.356075E-02 -1.471290E+00 +3.356075E-02 +5.040670E+02 +7.977289E+00 -1.471290E+00 +7.977289E+00 +3.430192E+02 
 +8.437665E+02 +1.035557E+01 -1.118926E+01 +1.035557E+01 +4.921465E+02 +3.462566E+00 -1.118926E+01 +3.462566E+00 +3.519754E+02 
 +8.379344E+02 +8.755627E+00 -9.938618E+00 +8.755627E+00 +4.904228E+02 +9.897582E+00 -9.938618E+00 +9.897582E+00 +3.582265E+02 
 +8.418259E+02 +9.610313E+00 -9.867008E+00 +9.610313E+00 +4.900935E+02 +1.446373E+01 -9.867008E+00 +1.446373E+01 +3.564536E+02 
 +8.440839E+02 +9.087457E+00 -7.266550E+00 +9.087457E+00 +4.916803E+02 +1.538403E+01 -7.266550E+00 +1.538403E+01 +3.486915E+02 
 +8.387348E+02 +1.086333E+01 -9.711278E+00 +1.086333E+01 +4.902758E+02 +1.770411E+01 -9.711278E+00 +1.770411E+01 +3.282306E+02 
 +8.778906E+02 -3.175404E-01 +4.404520E-01 -3.175404E-01 +5.090416E+02 +1.870412E+01 +4.404520E-01 +1.870412E+01 +3.168399E+02 
 +8.789045E+02 +4.927581E+00 +2.136905E+00 +4.927581E+00 +5.022772E+02 +1.428363E+01 +2.136905E+00 +1.428363E+01 +2.928042E+02 
 +8.647409E+02 +3.953528E+00 -1.556081E+00 +3.953528E+00 +4.894893E+02 +1.036479E+01 -1.556081E+00 +1.036479E+01 +2.771913E+02 
 +8.566247E+02 +2.255472E-02 -2.827498E+00 +2.255472E-02 +4.945842E+02 +7.409811E+00 -2.827498E+00 +7.409811E+00 +3.018709E+02 
 +8.484493E+02 -5.595167E+00 -9.361964E-01 -5.595167E+00 +4.975320E+02 +4.481612E+00 -9.361964E-01 +4.481612E+00 +3.449339E+02 
 +8.550550E+02 -7.071391E+00 +4.948308E+00 -7.071391E+00 +4.951790E+02 +4.685272E+00 +4.948308E+00 +4.685272E+00 +3.663473E+02 
 +8.574729E+02 +2.624763E-01 +7.113563E+00 +2.624763E-01 +4.878161E+02 +2.289093E+00 +7.113563E+00 +2.289093E+00 +3.693521E+02 
 +8.470100E+02 -4.405216E+00 +6.610560E+00 -4.405216E+00 +4.689348E+02 +9.542818E+00 +6.610560E+00 +9.542818E+00 +3.632936E+02 
 +8.460594E+02 -1.461807E+01 +1.142231E+01 -1.461807E+01 +4.693987E+02 +1.455061E+01 +1.142231E+01 +1.455061E+01 +3.638878E+02 
 +8.700645E+02 +1.603297E+00 +1.627538E+01 +1.603297E+00 +4.899075E+02 +1.306855E+01 +1.627538E+01 +1.306855E+01 +3.858013E+02 
 +8.657825E+02 +2.495721E+00 +1.346360E+01 +2.495721E+00 +4.895404E+02 +1.014340E+01 +1.346360E+01 +1.014340E+01 +3.797951E+02 
 +8.790255E+02 +7.469363E+00 +1.294427E+01 +7.469363E+00 +4.971856E+02 +1.342829E+01 +1.294427E+01 +1.342829E+01 +3.680758E+02 
 +8.766770E+02 +1.762781E+00 +7.059660E+00 +1.762781E+00 +4.984231E+02 +1.671416E+01 +7.059660E+00 +1.671416E+01 +3.581773E+02 
 +8.745042E+02 -1.931308E+00 -3.334978E-01 -1.931308E+00 +4.992299E+02 +1.155639E+01 -3.334978E-01 +1.155639E+01 +3.516197E+02 
 +8.799421E+02 -3.847305E+00 +3.931073E+00 -3.847305E+00 +5.036439E+02 +7.979504E+00 +3.931073E+00 +7.979504E+00 +3.398144E+02 
 +8.817499E+02 -1.017352E-01 -2.294926E+00 -1.017352E-01 +5.094984E+02 +3.668890E+00 -2.294926E+00 +3.668890E+00 +3.390745E+02 
 +8.462200E+02 +1.051001E+01 -7.564897E+00 +1.051001E+01 +4.993025E+02 -1.192590E-02 -7.564897E+00 -1.192590E-02 +3.430629E+02 
 +8.438270E+02 +6.920786E+00 -5.434159E+00 +6.920786E+00 +5.018699E+02 +5.001246E+00 -5.434159E+00 +5.001246E+00 +3.483384E+02 
 +8.427229E+02 +6.955977E+00 -7.848519E+00 +6.955977E+00 +4.975772E+02 +1.060240E+01 -7.848519E+00 +1.060240E+01 +3.418585E+02 
 +8.418851E+02 +1.156308E+01 -1.036096E+01 +1.156308E+01 +4.978710E+02 +1.277023E+01 -1.036096E+01 +1.277023E+01 +3.330998E+02 
 +8.437239E+02 +1.524014E+01 -7.831803E+00 +1.524014E+01 +4.939990E+02 +1.299761E+01 -7.831803E+00 +1.299761E+01 +3.181363E+02 
 +8.705878E+02 +5.144456E+00 -2.321635E+00 +5.144456E+00 +5.044525E+02 +1.295715E+01 -2.321635E+00 +1.295715E+01 +3.128404E+02 
 +8.694803E+02 +2.786334E+00 -5.286374E+00 +2.786334E+00 +5.045172E+02 +1.015754E+01 -5.286374E+00 +1.015754E+01 +3.049577E+02 
 +8.741243E+02 +1.720883E+00 -9.075044E+00 +1.720883E+00 +4.992810E+02 +1.066267E+01 -9.075044E+00 +1.066267E+01 +2.956566E+02 
 +8.660428E+02 -1.421552E+00 -4.527163E+00 -1.421552E+00 +4.938896E+02 +1.111289E+01 -4.527163E+00 +1.111289E+01 +3.016994E+02 
 +8.445267E+02 -1.154547E+01 -5.161450E-01 -1.154547E+01 +4.868167E+02 +9.570472E+00 -5.161450E-01 +9.570472E+00 +3.375463E+02 
 +8.478028E+02 -9.563534E+00 +2.048979E+00 -9.563534E+00 +4.869299E+02 +1.545108E+01 +2.048979E+00 +1.545108E+01 +3.567049E+02 
 +8.509608E+02 -4.163404E+00 +3.705433E+00 -4.163404E+00 +4.859308E+02 +1.492962E+01 +3.705433E+00 +1.492962E+01 +3.653477E+02 
 +8.527442E+02 -4.294598E+00 +6.398222E+00 -4.294598E+00 +4.799144E+02 +1.518410E+01 +6.398222E+00 +1.518410E+01 +3.670670E+02 
 +8.515525E+02 -8.236240E+00 +6.598821E+00 -8.236240E+00 +4.804438E+02 +1.776603E+01 +6.598821E+00 +1.776603E+01 +3.635113E+02 
 +8.773152E+02 +4.616711E+00 +1.047454E+01 +4.616711E+00 +4.956070E+02 +1.865266E+01 +1.047454E+01 +1.865266E+01 +3.728895E+02 
 +8.726827E+02 +2.411155E+00 +1.043021E+01 +2.411155E+00 +4.901153E+02 +1.676002E+01 +1.043021E+01 +1.676002E+01 +3.734296E+02 
 +8.679696E+02 +4.752699E+00 +1.650351E+01 +4.752699E+00 +4.847343E+02 +3.288018E+00 +1.650351E+01 +3.288018E+00 +3.738171E+02 
 +8.690158E+02 +1.681507E+00 +1.106189E+01 +1.681507E+00 +4.819016E+02 -1.080720E+01 +1.106189E+01 -1.080720E+01 +3.687548E+02 
 +8.702667E+02 +8.869163E-01 -5.677833E+00 +8.869163E-01 +4.947078E+02 -3.837030E+00 -5.677833E+00 -3.837030E+00 +3.592433E+02 
 +8.819503E+02 -4.824506E+00 -1.556302E+00 -4.824506E+00 +5.085543E+02 -2.564326E+00 -1.556302E+00 -2.564326E+00 +3.449317E+02 
 +8.837818E+02 -1.167819E+00 +1.653382E-01 -1.167819E+00 +5.136194E+02 -7.929921E+00 +1.653382E-01 -7.929921E+00 +3.444017E+02 
 +8.610180E+02 +8.420769E+00 -4.169948E+00 +8.420769E+00 +5.083324E+02 -1.080016E+01 -4.169948E+00 -1.080016E+01 +3.525027E+02 
 +8.549452E+02 +9.180179E+00 -4.124377E-01 +9.180179E+00 +5.042604E+02 -5.764838E+00 -4.124377E-01 -5.764838E+00 +3.512555E+02 
 +8.470708E+02 +1.379675E+01 -1.640526E+00 +1.379675E+01 +5.049327E+02 +2.928200E+00 -1.640526E+00 +2.928200E+00 +3.416870E+02 
 +8.336593E+02 +1.437921E+01 -4.161404E+00 +1.437921E+01 +4.986020E+02 +1.415215E+01 -4.161404E+00 +1.415215E+01 +3.252398E+02 
 +8.563297E+02 +7.823505E+00 -6.311392E+00 +7.823505E+00 +5.041220E+02 +2.155457E+01 -6.311392E+00 +2.155457E+01 +3.229757E+02 
 +8.612516E+02 +2.815105E+00 -6.008561E+00 +2.815105E+00 +5.071904E+02 +1.853773E+01 -6.008561E+00 +1.853773E+01 +3.205527E+02 
 +8.665329E+02 -2.565020E-01 -9.197145E+00 -2.565020E-01 +5.098778E+02 +1.256682E+01 -9.197145E+00 +1.256682E+01 +3.146725E+02 
 +8.704924E+02 -2.424507E+00 -1.257765E+01 -2.424507E+00 +5.015082E+02 +1.303057E+01 -1.257765E+01 +1.303057E+01 +2.994433E+02 
 +8.661442E+02 -7.044974E+00 -5.826051E+00 -7.044974E+00 +4.870175E+02 +1.268785E+01 -5.826051E+00 +1.268785E+01 +2.987694E+02 
 +8.449388E+02 -1.656369E+01 +1.699268E+00 -1.656369E+01 +4.776383E+02 +1.276389E+01 +1.699268E+00 +1.276389E+01 +3.253505E+02 
 +8.420705E+02 -9.251192E+00 +5.181910E+00 -9.251192E+00 +4.791845E+02 +2.101587E+01 +5.181910E+00 +2.101587E+01 +3.462126E+02 
 +8.518494E+02 -4.468582E+00 +2.261740E+00 -4.468582E+00 +4.847525E+02 +1.667172E+01 +2.261740E+00 +1.667172E+01 +3.518805E+02 
 +8.539918E+02 -1.654421E+00 +3.504910E+00 -1.654421E+00 +4.821040E+02 +1.205386E+01 +3.504910E+00 +1.205386E+01 +3.417281E+02 
 +8.591278E+02 +3.441138E+00 +8.634901E+00 +3.441138E+00 +4.864322E+02 +1.218658E+01 +8.634901E+00 +1.218658E+01 +3.334186E+02 
 +8.601052E+02 +8.397014E+00 +1.481050E+01 +8.397014E+00 +4.866976E+02 +2.010645E+01 +1.481050E+01 +2.010645E+01 +3.357371E+02 
 +8.578571E+02 +6.111952E+00 +1.697938E+01 +6.111952E+00 +4.819285E+02 +2.062282E+01 +1.697938E+01 +2.062282E+01 +3.447123E+02 
 +8.623993E+02 +3.170652E+00 +1.389926E+01 +3.170652E+00 +4.866983E+02 +5.512491E+00 +1.389926E+01 +5.512491E+00 +3.658422E+02 
 +8.698369E+02 +2.313313E-01 +1.183228E+01 +2.313313E-01 +4.892720E+02 -2.270112E+01 +1.183228E+01 -2.270112E+01 +3.824405E+02 
 +8.715897E+02 +5.490554E+00 -5.717123E+00 +5.490554E+00 +4.901192E+02 -3.656251E+01 -5.717123E+00 -3.656251E+01 +3.758372E+02 
 +8.785141E+02 -4.034550E+00 -4.085987E+00 -4.034550E+00 +5.028308E+02 -2.375748E+01 -4.085987E+00 -2.375748E+01 +3.690818E+02 
 +8.659567E+02 -6.651739E+00 +5.880589E+00 -6.651739E+00 +4.957396E+02 -1.045691E+01 +5.880589E+00 -1.045691E+01 +3.682689E+02 
 +8.562077E+02 -3.831299E+00 +2.543921E+00 -3.831299E+00 +4.831542E+02 -1.038235E+01 +2.543921E+00 -1.038235E+01 +3.698999E+02 
 +8.497921E+02 -1.042305E+01 +2.425854E+00 -1.042305E+01 +4.794137E+02 -1.301675E+01 +2.425854E+00 -1.301675E+01 +3.633604E+02 
 +8.445028E+02 -4.840257E+00 +6.618924E+00 -4.840257E+00 +4.847088E+02 -8.863847E+00 +6.618924E+00 -8.863847E+00 +3.540681E+02 
 +8.337168E+02 -8.320241E-01 +1.157066E+01 -8.320241E-01 +4.874790E+02 +1.814257E+00 +1.157066E+01 +1.814257E+00 +3.340932E+02 
 +8.683647E+02 +3.308318E+00 -4.000372E+00 +3.308318E+00 +5.141648E+02 +1.236750E+01 -4.000372E+00 +1.236750E+01 +3.385738E+02 
 +8.693970E+02 +1.751433E+00 -7.862008E+00 +1.751433E+00 +5.192592E+02 +1.482874E+01 -7.862008E+00 +1.482874E+01 +3.357384E+02 
 +8.684689E+02 -1.901383E+00 -1.123813E+01 -1.901383E+00 +5.148046E+02 +1.486547E+01 -1.123813E+01 +1.486547E+01 +3.283301E+02 
 +8.706436E+02 -6.064989E+00 -8.868576E+00 -6.064989E+00 +5.015281E+02 +2.125461E+01 -8.868576E+00 +2.125461E+01 +3.191568E+02 
 +8.605484E+02 -1.051309E+01 -2.284520E+00 -1.051309E+01 +4.745894E+02 +3.017198E+01 -2.284520E+00 +3.017198E+01 +3.092382E+02 
 +8.485058E+02 -1.146168E+01 +3.900769E+00 -1.146168E+01 +4.695947E+02 +2.818454E+01 +3.900769E+00 +2.818454E+01 +3.232984E+02 
 +8.467213E+02 -5.887474E+00 +1.105963E+00 -5.887474E+00 +4.796661E+02 +6.431786E+00 +1.105963E+00 +6.431786E+00 +3.359247E+02 
 +8.531066E+02 +3.417166E-01 +1.663065E+00 +3.417166E-01 +4.840734E+02 -1.651189E+00 +1.663065E+00 -1.651189E+00 +3.276039E+02 
 +8.612340E+02 +3.035682E+00 +3.389453E+00 +3.035682E+00 +4.925849E+02 -2.260279E+00 +3.389453E+00 -2.260279E+00 +3.198767E+02 
 +8.652833E+02 +2.477801E+00 +1.045060E+01 +2.477801E+00 +4.993993E+02 +1.185933E+00 +1.045060E+01 +1.185933E+00 +3.128153E+02 
 +8.511689E+02 +2.586260E+00 +2.094818E+01 +2.586260E+00 +4.878958E+02 +1.096808E+01 +2.094818E+01 +1.096808E+01 +3.042125E+02 
 +8.458301E+02 +6.486831E+00 +1.964444E+01 +6.486831E+00 +4.872250E+02 +1.549247E+01 +1.964444E+01 +1.549247E+01 +3.235584E+02 
 +8.530458E+02 +6.595168E-01 +3.852751E+00 +6.595168E-01 +4.925146E+02 -1.428880E+00 +3.852751E+00 -1.428880E+00 +3.528934E+02 
 +8.675557E+02 -1.003011E+00 +2.115036E+00 -1.003011E+00 +4.980251E+02 -3.185362E+01 +2.115036E+00 -3.185362E+01 +3.748359E+02 
 +8.839042E+02 +6.164516E+00 -2.524842E+00 +6.164516E+00 +5.039079E+02 -3.969867E+01 -2.524842E+00 -3.969867E+01 +3.891338E+02 
 +8.731356E+02 +1.375904E-01 +3.547338E+00 +1.375904E-01 +4.985663E+02 -1.632313E+01 +3.547338E+00 -1.632313E+01 +3.923106E+02 
 +8.588803E+02 -5.449461E+00 +8.732649E+00 -5.449461E+00 +4.949038E+02 -9.531233E-01 +8.732649E+00 -9.531233E-01 +3.957980E+02 
 +8.494419E+02 +9.071967E-02 +5.005459E+00 +9.071967E-02 +4.829950E+02 -6.052901E+00 +5.005459E+00 -6.052901E+00 +3.918013E+02 
 +8.478752E+02 -2.326069E+00 +3.611308E+00 -2.326069E+00 +4.816764E+02 -1.246435E+01 +3.611308E+00 -1.246435E+01 +3.873034E+02 
 +8.497018E+02 +1.225746E+00 +9.433049E+00 +1.225746E+00 +4.863512E+02 -1.002305E+01 +9.433049E+00 -1.002305E+01 +3.753396E+02 
 +8.665903E+02 +2.086416E+00 +1.672981E+01 +2.086416E+00 +5.012726E+02 -1.134584E+01 +1.672981E+01 -1.134584E+01 +3.679927E+02 
 +8.913131E+02 +2.679627E+00 +4.823579E+00 +2.679627E+00 +5.225136E+02 -3.476491E+00 +4.823579E+00 -3.476491E+00 +3.709190E+02 
 +8.919488E+02 +4.184218E+00 -1.425974E+00 +4.184218E+00 +5.297563E+02 +7.892695E+00 -1.425974E+00 +7.892695E+00 +3.711559E+02 
 +8.802393E+02 -2.082564E+00 -7.011976E+00 -2.082564E+00 +5.221627E+02 +1.723894E+01 -7.011976E+00 +1.723894E+01 +3.715305E+02 
 +8.755643E+02 -9.626168E+00 -3.818094E+00 -9.626168E+00 +5.004141E+02 +2.334157E+01 -3.818094E+00 +2.334157E+01 +3.594506E+02 
 +8.676679E+02 -1.142449E+01 +2.826626E+00 -1.142449E+01 +4.834849E+02 +2.644089E+01 +2.826626E+00 +2.644089E+01 +3.382326E+02 
 +8.581889E+02 -7.203060E+00 -8.024671E-01 -7.203060E+00 +4.804050E+02 +1.989543E+01 -8.024671E-01 +1.989543E+01 +3.354911E+02 
 +8.635142E+02 -6.494823E+00 -5.502332E+00 -6.494823E+00 +4.943070E+02 +1.799348E+00 -5.502332E+00 +1.799348E+00 +3.348574E+02 
 +8.621443E+02 -3.298908E+00 +1.601847E-01 -3.298908E+00 +4.949757E+02 +2.847855E+00 +1.601847E-01 +2.847855E+00 +3.237345E+02 
 +8.639848E+02 +2.309041E-01 +4.296982E+00 +2.309041E-01 +4.964949E+02 +3.248078E-01 +4.296982E+00 +3.248078E-01 +3.151671E+02 
 +8.663272E+02 +2.080714E+00 +7.307373E+00 +2.080714E+00 +5.016008E+02 -2.497910E+00 +7.307373E+00 -2.497910E+00 +3.097732E+02 
 +8.624749E+02 -4.903754E-01 +1.821166E+01 -4.903754E-01 +5.028873E+02 -9.461804E-01 +1.821166E+01 -9.461804E-01 +3.143128E+02 
 +8.410039E+02 +2.859095E+00 +8.032190E+00 +2.859095E+00 +4.878838E+02 -9.212264E+00 +8.032190E+00 -9.212264E+00 +3.413874E+02 
 +8.491043E+02 -3.756255E-01 -7.537155E+00 -3.756255E-01 +4.871406E+02 -1.244904E+01 -7.537155E+00 -1.244904E+01 +3.646821E+02 
 +8.654970E+02 +4.263753E+00 +3.135633E-01 +4.263753E+00 +4.956852E+02 +1.890358E+00 +3.135633E-01 +1.890358E+00 +3.677296E+02 
 +8.764889E+02 +7.095258E+00 +3.603791E+00 +7.095258E+00 +5.007546E+02 +9.078506E+00 +3.603791E+00 +9.078506E+00 +3.749387E+02 
 +8.637419E+02 +3.499108E+00 +3.350075E+00 +3.499108E+00 +4.901241E+02 +6.916197E+00 +3.350075E+00 +6.916197E+00 +3.799230E+02 
 +8.527775E+02 -5.141506E-01 +5.463547E+00 -5.141506E-01 +4.888003E+02 +9.706347E-02 +5.463547E+00 +9.706347E-02 +3.949666E+02 
 +8.415353E+02 +2.142202E+00 +5.937804E+00 +2.142202E+00 +4.808970E+02 +1.279037E+00 +5.937804E+00 +1.279037E+00 +4.002879E+02 
 +8.412457E+02 +9.160800E+00 +3.874079E+00 +9.160800E+00 +4.832664E+02 +2.508546E+00 +3.874079E+00 +2.508546E+00 +4.006406E+02 
 +8.529492E+02 +6.211289E+00 +1.168690E+01 +6.211289E+00 +4.887112E+02 +3.838914E+00 +1.168690E+01 +3.838914E+00 +3.944989E+02 
 +8.768299E+02 +1.078616E+01 +1.633525E+01 +1.078616E+01 +4.796621E+02 +1.829105E+01 +1.633525E+01 +1.829105E+01 +3.878384E+02 
 +8.693265E+02 +1.126814E+01 +1.055500E+01 +1.126814E+01 +4.629474E+02 +2.226148E+01 +1.055500E+01 +2.226148E+01 +3.732066E+02 
 +8.754171E+02 +9.383153E+00 +4.441823E+00 +9.383153E+00 +4.723408E+02 +2.432431E+01 +4.441823E+00 +2.432431E+01 +3.801668E+02 
 +8.735049E+02 -5.002772E-01 +3.292678E+00 -5.002772E-01 +4.885086E+02 +3.043779E+01 +3.292678E+00 +3.043779E+01 +3.889190E+02 
 +8.711724E+02 -9.398011E+00 +1.437169E+00 -9.398011E+00 +4.967122E+02 +3.397974E+01 +1.437169E+00 +3.397974E+01 +3.639730E+02 
 +8.666089E+02 -8.275349E+00 -4.366946E+00 -8.275349E+00 +4.973829E+02 +2.801279E+01 -4.366946E+00 +2.801279E+01 +3.364732E+02 
 +8.653700E+02 -8.321894E+00 -1.197672E+01 -8.321894E+00 +4.987243E+02 +9.978718E+00 -1.197672E+01 +9.978718E+00 +3.383315E+02 
 +8.669493E+02 -7.453536E+00 -2.121809E+00 -7.453536E+00 +5.013451E+02 +2.469892E-01 -2.121809E+00 +2.469892E-01 +3.257134E+02 
 +8.621311E+02 -4.999129E+00 +2.882765E+00 -4.999129E+00 +4.949524E+02 +5.044487E+00 +2.882765E+00 +5.044487E+00 +3.160186E+02 
 +8.640584E+02 -1.580693E+00 +7.270781E+00 -1.580693E+00 +4.960630E+02 +7.666756E+00 +7.270781E+00 +7.666756E+00 +3.061666E+02 
 +8.675477E+02 +5.185508E-01 +9.278383E+00 +5.185508E-01 +5.039538E+02 +8.071601E+00 +9.278383E+00 +8.071601E+00 +2.987260E+02 
 +8.807790E+02 -4.560874E+00 +1.110113E+01 -4.560874E+00 +5.248947E+02 +4.390725E+00 +1.110113E+01 +4.390725E+00 +3.275353E+02 
 +8.612315E+02 -2.705370E+00 -6.358912E+00 -2.705370E+00 +5.113313E+02 -6.474281E+00 -6.358912E+00 -6.474281E+00 +3.579948E+02 
 +8.460678E+02 +1.818531E+00 -1.211297E+01 +1.818531E+00 +4.875595E+02 -5.490807E+00 -1.211297E+01 -5.490807E+00 +3.604194E+02 
 +8.640722E+02 +5.423207E+00 +5.763638E+00 +5.423207E+00 +4.939633E+02 +1.014520E+01 +5.763638E+00 +1.014520E+01 +3.648878E+02 
 +8.676006E+02 +6.352628E+00 +6.865201E+00 +6.352628E+00 +4.951596E+02 +1.323268E+01 +6.865201E+00 +1.323268E+01 +3.694112E+02 
 +8.603055E+02 +3.556479E+00 -2.379880E-01 +3.556479E+00 +4.890725E+02 +1.203521E+01 -2.379880E-01 +1.203521E+01 +3.771226E+02 
 +8.494993E+02 +1.162306E+00 +1.678172E+00 +1.162306E+00 +4.846109E+02 +1.164005E+01 +1.678172E+00 +1.164005E+01 +3.958395E+02 
 +8.358866E+02 +6.975999E-01 +8.185280E+00 +6.975999E-01 +4.831725E+02 +9.520800E+00 +8.185280E+00 +9.520800E+00 +4.067128E+02 
 +8.268988E+02 +9.162052E+00 +9.664441E+00 +9.162052E+00 +4.709897E+02 +1.620034E+01 +9.664441E+00 +1.620034E+01 +3.961174E+02 
 +8.613162E+02 +7.556372E+00 +1.172163E+01 +7.556372E+00 +4.747709E+02 +2.620602E+01 +1.172163E+01 +2.620602E+01 +3.964783E+02 
 +8.858064E+02 +1.108983E+01 +1.484573E+01 +1.108983E+01 +4.796658E+02 +2.445259E+01 +1.484573E+01 +2.445259E+01 +3.985591E+02 
 +8.765152E+02 +1.349779E+01 +9.888453E+00 +1.349779E+01 +4.713402E+02 +2.153416E+01 +9.888453E+00 +2.153416E+01 +3.924814E+02 
 +8.787331E+02 +1.343363E+01 +4.521653E+00 +1.343363E+01 +4.771691E+02 +2.719439E+01 +4.521653E+00 +2.719439E+01 +3.993167E+02 
 +8.831416E+02 +6.681504E+00 +6.819550E-01 +6.681504E+00 +4.937424E+02 +2.041704E+01 +6.819550E-01 +2.041704E+01 +3.958157E+02 
 +8.842955E+02 -4.022035E+00 +1.742772E+00 -4.022035E+00 +5.213649E+02 -4.899499E+00 +1.742772E+00 -4.899499E+00 +3.769661E+02 
 +8.792499E+02 -6.279098E+00 -4.884071E+00 -6.279098E+00 +5.339105E+02 -1.395515E+01 -4.884071E+00 -1.395515E+01 +3.598218E+02 
 +8.721335E+02 -1.215129E+01 -1.072235E+01 -1.215129E+01 +5.181011E+02 -7.022330E+00 -1.072235E+01 -7.022330E+00 +3.436841E+02 
 +8.647512E+02 -8.942675E+00 +3.024482E+00 -8.942675E+00 +5.051662E+02 +2.948359E+00 +3.024482E+00 +2.948359E+00 +3.228292E+02 
 +8.597865E+02 -5.824597E+00 +7.907397E+00 -5.824597E+00 +4.978771E+02 +6.390939E+00 +7.907397E+00 +6.390939E+00 +3.066966E+02 
 +8.613157E+02 -3.568044E+00 +1.136384E+01 -3.568044E+00 +4.999722E+02 +9.474791E+00 +1.136384E+01 +9.474791E+00 +2.952847E+02 
 +8.660763E+02 -4.184015E+00 +6.807277E+00 -4.184015E+00 +4.935488E+02 +8.743263E+00 +6.807277E+00 +8.743263E+00 +3.015833E+02 
 +8.702812E+02 -7.486072E+00 +1.007973E+00 -7.486072E+00 +4.814037E+02 +2.451944E+00 +1.007973E+00 +2.451944E+00 +3.355784E+02 
 +8.664191E+02 -5.500863E+00 -8.757347E+00 -5.500863E+00 +4.860044E+02 -6.061244E+00 -8.757347E+00 -6.061244E+00 +3.565213E+02 
 +8.546901E+02 +4.976864E+00 -1.391810E+01 +4.976864E+00 +4.967311E+02 -5.066018E+00 -1.391810E+01 -5.066018E+00 +3.578259E+02 
 +8.635585E+02 +9.475189E+00 +6.734002E+00 +9.475189E+00 +5.018564E+02 +1.368641E+01 +6.734002E+00 +1.368641E+01 +3.724339E+02 
 +8.632651E+02 +9.268110E+00 +7.388663E+00 +9.268110E+00 +4.958346E+02 +2.006386E+01 +7.388663E+00 +2.006386E+01 +3.774962E+02 
 +8.530879E+02 +2.745514E+00 +2.668501E+00 +2.745514E+00 +4.903239E+02 +1.826663E+01 +2.668501E+00 +1.826663E+01 +3.803370E+02 
 +8.439089E+02 -9.393384E-01 +3.437336E+00 -9.393384E-01 +4.905603E+02 +1.801895E+01 +3.437336E+00 +1.801895E+01 +3.933195E+02 
 +8.400682E+02 -1.755466E-01 +3.191276E+00 -1.755466E-01 +4.919051E+02 +1.588730E+01 +3.191276E+00 +1.588730E+01 +4.057404E+02 
 +8.279059E+02 +6.710096E+00 +1.214701E+01 +6.710096E+00 +4.684086E+02 +1.931748E+01 +1.214701E+01 +1.931748E+01 +3.910693E+02 
 +8.642150E+02 +5.167412E+00 +4.449299E+00 +5.167412E+00 +4.660449E+02 +2.904868E+01 +4.449299E+00 +2.904868E+01 +3.907509E+02 
 +8.805873E+02 +8.155451E+00 +7.075638E+00 +8.155451E+00 +4.671313E+02 +2.596939E+01 +7.075638E+00 +2.596939E+01 +3.898507E+02 
 +8.778646E+02 +1.562855E+01 +9.027994E+00 +1.562855E+01 +4.712418E+02 +2.110642E+01 +9.027994E+00 +2.110642E+01 +3.955533E+02 
 +8.852303E+02 +1.751275E+01 +1.733374E+00 +1.751275E+01 +4.881382E+02 +2.501592E+01 +1.733374E+00 +2.501592E+01 +4.159057E+02 
 +8.846111E+02 +1.211654E+01 -5.324049E+00 +1.211654E+01 +4.922474E+02 +2.552940E+01 -5.324049E+00 +2.552940E+01 +4.148144E+02 
 +8.730105E+02 +4.146892E+00 -2.185207E+00 +4.146892E+00 +4.880148E+02 +2.582483E+01 -2.185207E+00 +2.582483E+01 +4.011046E+02 
 +8.623249E+02 -1.092921E+00 +2.566582E+00 -1.092921E+00 +4.965310E+02 +1.497369E+01 +2.566582E+00 +1.497369E+01 +3.781994E+02 
 +8.622845E+02 -1.235586E+01 +7.669550E-01 -1.235586E+01 +5.079604E+02 +4.012719E+00 +7.669550E-01 +4.012719E+00 +3.470132E+02 
 +8.493071E+02 -1.187259E+01 +1.341995E+01 -1.187259E+01 +5.059343E+02 -4.884292E+00 +1.341995E+01 -4.884292E+00 +3.279782E+02 
 +8.485451E+02 -1.165937E+01 +1.888037E+01 -1.165937E+01 +4.981747E+02 +4.148534E+00 +1.888037E+01 +4.148534E+00 +3.070845E+02 
 +8.482379E+02 -1.411150E+01 +1.884145E+01 -1.411150E+01 +4.866017E+02 +1.929900E+00 +1.884145E+01 +1.929900E+00 +3.050061E+02 
 +8.483770E+02 -9.918849E+00 +6.129315E+00 -9.918849E+00 +4.586587E+02 -4.133554E+00 +6.129315E+00 -4.133554E+00 +3.137340E+02 
 +8.552781E+02 -7.642555E+00 -2.686406E+00 -7.642555E+00 +4.497715E+02 -7.638615E+00 -2.686406E+00 -7.638615E+00 +3.188631E+02 
 +8.570642E+02 -5.591137E+00 -3.619619E-01 -5.591137E+00 +4.602743E+02 -4.219073E+00 -3.619619E-01 -4.219073E+00 +3.281862E+02 
 +8.481178E+02 -2.496324E+00 +6.919446E+00 -2.496324E+00 +4.708605E+02 +4.914391E+00 +6.919446E+00 +4.914391E+00 +3.513740E+02 
 +8.455051E+02 -6.036231E+00 +1.116049E+01 -6.036231E+00 +4.770275E+02 +1.107991E+01 +1.116049E+01 +1.107991E+01 +3.644958E+02 
 +8.446421E+02 -1.010850E+01 +1.002392E+01 -1.010850E+01 +4.763323E+02 +1.017316E+01 +1.002392E+01 +1.017316E+01 +3.685939E+02 
 +8.369273E+02 -1.117740E+01 +1.026781E+01 -1.117740E+01 +4.695222E+02 +7.834746E+00 +1.026781E+01 +7.834746E+00 +3.741563E+02 
 +8.309519E+02 -7.728791E+00 +1.539624E+01 -7.728791E+00 +4.687621E+02 +7.057721E+00 +1.539624E+01 +7.057721E+00 +3.748236E+02 
 +8.273340E+02 -1.293395E+00 +1.985196E+01 -1.293395E+00 +4.669712E+02 +1.001765E+01 +1.985196E+01 +1.001765E+01 +3.741637E+02 
 +8.349316E+02 +7.420295E+00 +2.526833E+01 +7.420295E+00 +4.666142E+02 +9.257032E+00 +2.526833E+01 +9.257032E+00 +3.797408E+02 
 +8.358988E+02 +1.041756E+01 +3.013877E+01 +1.041756E+01 +4.520469E+02 +2.016536E+01 +3.013877E+01 +2.016536E+01 +3.711261E+02 
 +8.616324E+02 +1.539541E+01 +7.663083E+00 +1.539541E+01 +4.461008E+02 +3.713305E+01 +7.663083E+00 +3.713305E+01 +3.719344E+02 
 +8.751275E+02 +2.239842E+01 -6.797718E+00 +2.239842E+01 +4.616326E+02 +2.563603E+01 -6.797718E+00 +2.563603E+01 +3.730711E+02 
 +8.802054E+02 +1.840350E+01 -9.820235E+00 +1.840350E+01 +4.807906E+02 -3.281142E+00 -9.820235E+00 -3.281142E+00 +3.479950E+02 
 +8.756122E+02 +1.287109E+01 -4.343930E+00 +1.287109E+01 +4.873499E+02 -1.968425E+01 -4.343930E+00 -1.968425E+01 +3.230378E+02 
 +8.725920E+02 +6.858025E+00 +2.904409E+00 +6.858025E+00 +4.917775E+02 -1.295753E+01 +2.904409E+00 -1.295753E+01 +3.361883E+02 
 +8.668004E+02 -4.810012E-02 +3.013877E+00 -4.810012E-02 +4.994835E+02 -3.652491E+00 +3.013877E+00 -3.652491E+00 +3.597965E+02 
 +8.611375E+02 -1.470047E+01 +8.639201E-01 -1.470047E+01 +5.153347E+02 -5.771446E+00 +8.639201E-01 -5.771446E+00 +3.586998E+02 
 +8.359424E+02 -1.703044E+00 +1.719932E+01 -1.703044E+00 +4.860478E+02 +9.200200E+00 +1.719932E+01 +9.200200E+00 +3.605016E+02 
 +8.457019E+02 +1.459087E+00 +2.013845E+01 +1.459087E+00 +4.815013E+02 +1.339792E+01 +2.013845E+01 +1.339792E+01 +3.517879E+02 
 +8.522069E+02 -4.205845E+00 +1.036795E+01 -4.205845E+00 +4.729480E+02 +9.127264E+00 +1.036795E+01 +9.127264E+00 +3.532397E+02 
 +8.642154E+02 -7.490081E+00 -7.394531E+00 -7.490081E+00 +4.682194E+02 +1.004801E+00 -7.394531E+00 +1.004801E+00 +3.678399E+02 
 +8.628201E+02 -5.359124E+00 -1.123743E+01 -5.359124E+00 +4.549481E+02 -6.823768E+00 -1.123743E+01 -6.823768E+00 +3.593297E+02 
 +8.598589E+02 -1.951553E+00 -1.810284E+00 -1.951553E+00 +4.652956E+02 -2.762414E+00 -1.810284E+00 -2.762414E+00 +3.568250E+02 
 +8.554589E+02 -2.611897E+00 +9.027490E+00 -2.611897E+00 +4.845267E+02 +7.142669E+00 +9.027490E+00 +7.142669E+00 +3.758218E+02 
 +8.488338E+02 -8.564616E+00 +9.875061E+00 -8.564616E+00 +4.853014E+02 +9.891345E+00 +9.875061E+00 +9.891345E+00 +3.795122E+02 
 +8.473006E+02 -1.188235E+01 +1.119771E+01 -1.188235E+01 +4.824238E+02 +8.131460E+00 +1.119771E+01 +8.131460E+00 +3.811697E+02 
 +8.339855E+02 -1.324344E+01 +1.537105E+01 -1.324344E+01 +4.703692E+02 +6.126799E+00 +1.537105E+01 +6.126799E+00 +3.747321E+02 
 +8.342517E+02 -7.813317E+00 +1.825564E+01 -7.813317E+00 +4.659214E+02 +4.210644E+00 +1.825564E+01 +4.210644E+00 +3.641999E+02 
 +8.378804E+02 -7.433074E+00 +1.533342E+01 -7.433074E+00 +4.620315E+02 +4.191813E+00 +1.533342E+01 +4.191813E+00 +3.562535E+02 
 +8.507529E+02 +5.305271E+00 +1.047050E+01 +5.305271E+00 +4.658892E+02 +1.080217E+01 +1.047050E+01 +1.080217E+01 +3.766422E+02 
 +8.648078E+02 +1.041333E+01 +3.088131E+01 +1.041333E+01 +4.791803E+02 +1.011690E+01 +3.088131E+01 +1.011690E+01 +3.922753E+02 
 +8.658128E+02 +1.502621E+01 +1.221631E+01 +1.502621E+01 +4.705705E+02 +6.763288E+00 +1.221631E+01 +6.763288E+00 +3.604453E+02 
 +8.500118E+02 +2.640595E+01 +1.160357E+00 +2.640595E+01 +4.376732E+02 +1.648729E+01 +1.160357E+00 +1.648729E+01 +3.395869E+02 
 +8.523167E+02 +2.474367E+01 -1.396560E+01 +2.474367E+01 +4.278961E+02 +2.076842E+01 -1.396560E+01 +2.076842E+01 +3.453234E+02 
 +8.492685E+02 +1.959782E+01 -1.048120E+01 +1.959782E+01 +4.348411E+02 +1.398215E+01 -1.048120E+01 +1.398215E+01 +3.403618E+02 
 +8.629622E+02 +1.073893E+01 +5.178218E+00 +1.073893E+01 +4.632420E+02 +1.123888E+01 +5.178218E+00 +1.123888E+01 +3.563817E+02 
 +8.596545E+02 +7.648735E+00 +9.306588E+00 +7.648735E+00 +4.784426E+02 +1.192733E+01 +9.306588E+00 +1.192733E+01 +3.694560E+02 
 +8.487323E+02 -1.291702E+00 +4.327942E+00 -1.291702E+00 +4.843639E+02 +9.952240E+00 +4.327942E+00 +9.952240E+00 +3.695755E+02 
 +8.468499E+02 -1.704343E+00 +1.370920E+01 -1.704343E+00 +4.890933E+02 +1.054185E+01 +1.370920E+01 +1.054185E+01 +3.868510E+02 
 +8.533067E+02 -3.934309E+00 +1.337706E+01 -3.934309E+00 +4.844289E+02 +2.011034E+01 +1.337706E+01 +2.011034E+01 +3.903671E+02 
 +8.624714E+02 -4.568660E+00 +4.578242E+00 -4.568660E+00 +4.745819E+02 +2.968583E+01 +4.578242E+00 +2.968583E+01 +3.889131E+02 
 +8.720103E+02 -3.125734E+00 -2.608465E+00 -3.125734E+00 +4.851516E+02 +3.119304E+01 -2.608465E+00 +3.119304E+01 +3.885806E+02 
 +8.613256E+02 +1.245178E+00 -7.158097E+00 +1.245178E+00 +4.857018E+02 +2.914749E+01 -7.158097E+00 +2.914749E+01 +3.682673E+02 
 +8.594510E+02 +6.427230E+00 -3.704002E+00 +6.427230E+00 +4.851245E+02 +2.869334E+01 -3.704002E+00 +2.869334E+01 +3.615779E+02 
 +8.669537E+02 +4.425335E+00 +4.495542E+00 +4.425335E+00 +4.954905E+02 +2.468095E+01 +4.495542E+00 +2.468095E+01 +3.815620E+02 
 +8.540460E+02 -6.303415E-01 +8.137336E+00 -6.303415E-01 +4.899833E+02 +1.380166E+01 +8.137336E+00 +1.380166E+01 +3.831973E+02 
 +8.386463E+02 -5.374712E+00 +1.288412E+01 -5.374712E+00 +4.726630E+02 +3.876381E+00 +1.288412E+01 +3.876381E+00 +3.765151E+02 
 +8.229657E+02 -5.173963E+00 +1.973472E+01 -5.173963E+00 +4.570294E+02 -6.419664E-01 +1.973472E+01 -6.419664E-01 +3.650398E+02 
 +8.222856E+02 -1.385080E+00 +2.065468E+01 -1.385080E+00 +4.508757E+02 +5.458842E+00 +2.065468E+01 +5.458842E+00 +3.524070E+02 
 +8.447262E+02 -4.205345E+00 +6.458255E+00 -4.205345E+00 +4.578502E+02 +9.401841E+00 +6.458255E+00 +9.401841E+00 +3.435984E+02 
 +8.667307E+02 +5.984080E+00 -1.160726E+00 +5.984080E+00 +4.793822E+02 +1.028529E+01 -1.160726E+00 +1.028529E+01 +3.626036E+02 
 +8.881571E+02 +7.556189E+00 +1.607057E+01 +7.556189E+00 +5.009374E+02 -3.867482E-01 +1.607057E+01 -3.867482E-01 +3.814455E+02 
 +8.649122E+02 +7.491668E+00 +1.284570E+01 +7.491668E+00 +4.865278E+02 -9.360057E+00 +1.284570E+01 -9.360057E+00 +3.418744E+02 
 +8.567324E+02 +1.337695E+01 +1.256165E+01 +1.337695E+01 +4.706828E+02 -1.156001E+01 +1.256165E+01 -1.156001E+01 +3.197367E+02 
 +8.578638E+02 +1.803234E+01 -6.707276E+00 +1.803234E+01 +4.561323E+02 -7.630961E+00 -6.707276E+00 -7.630961E+00 +3.279230E+02 
 +8.587123E+02 +1.932719E+01 -9.736131E+00 +1.932719E+01 +4.551704E+02 +5.925609E+00 -9.736131E+00 +5.925609E+00 +3.507050E+02 
 +8.623196E+02 +1.285530E+01 +4.462642E-01 +1.285530E+01 +4.603311E+02 +1.578408E+01 +4.462642E-01 +1.578408E+01 +3.600203E+02 
 +8.513853E+02 +7.466813E+00 +1.024565E+01 +7.466813E+00 +4.600983E+02 +1.378592E+01 +1.024565E+01 +1.378592E+01 +3.556773E+02 
 +8.533282E+02 +1.655685E-01 +1.053594E+01 +1.655685E-01 +4.784653E+02 +8.443400E+00 +1.053594E+01 +8.443400E+00 +3.730053E+02 
 +8.527413E+02 -7.214284E+00 +3.713895E+00 -7.214284E+00 +4.728168E+02 +1.475445E+01 +3.713895E+00 +1.475445E+01 +3.935619E+02 
 +8.525535E+02 -1.202523E+01 +6.125921E+00 -1.202523E+01 +4.758559E+02 +2.340708E+01 +6.125921E+00 +2.340708E+01 +3.867075E+02 
 +8.611223E+02 -1.053984E+01 +4.521916E+00 -1.053984E+01 +4.775107E+02 +2.476886E+01 +4.521916E+00 +2.476886E+01 +3.735710E+02 
 +8.652331E+02 -4.407057E+00 +4.722148E+00 -4.407057E+00 +4.817358E+02 +2.669016E+01 +4.722148E+00 +2.669016E+01 +3.643481E+02 
 +8.477342E+02 +1.119246E+00 +1.663737E+00 +1.119246E+00 +4.836754E+02 +3.289163E+01 +1.663737E+00 +3.289163E+01 +3.470521E+02 
 +8.313392E+02 +5.549897E+00 -3.025313E+00 +5.549897E+00 +4.664432E+02 +3.590613E+01 -3.025313E+00 +3.590613E+01 +3.284670E+02 
 +8.494693E+02 +6.984301E+00 -9.197572E-01 +6.984301E+00 +4.659210E+02 +2.776902E+01 -9.197572E-01 +2.776902E+01 +3.441318E+02 
 +8.503814E+02 +4.164494E-01 +1.147418E+01 +4.164494E-01 +4.828685E+02 +1.332251E+01 +1.147418E+01 +1.332251E+01 +3.651236E+02 
 +8.409154E+02 -1.151706E+01 +1.863167E+01 -1.151706E+01 +4.904966E+02 -2.427472E+00 +1.863167E+01 -2.427472E+00 +3.752056E+02 
 +8.330943E+02 -1.090164E+01 +1.986736E+01 -1.090164E+01 +4.776479E+02 -6.115495E+00 +1.986736E+01 -6.115495E+00 +3.761519E+02 
 +8.425409E+02 -3.560106E+00 +1.615441E+01 -3.560106E+00 +4.720650E+02 -5.843169E+00 +1.615441E+01 -5.843169E+00 +3.777307E+02 
 +8.764840E+02 +5.553570E+00 +3.664877E-02 +5.553570E+00 +4.983226E+02 -8.381795E+00 +3.664877E-02 -8.381795E+00 +3.763944E+02 
 +8.813181E+02 +1.048871E+01 -1.309803E+00 +1.048871E+01 +5.095679E+02 -6.984360E+00 -1.309803E+00 -6.984360E+00 +3.650882E+02 
 +8.900438E+02 +6.695912E+00 +9.115660E+00 +6.695912E+00 +5.098506E+02 -5.028344E+00 +9.115660E+00 -5.028344E+00 +3.649960E+02 
 +8.667339E+02 +4.546414E+00 +9.515053E+00 +4.546414E+00 +4.917337E+02 -6.467011E+00 +9.515053E+00 -6.467011E+00 +3.394727E+02 
 +8.573901E+02 +6.657080E+00 +6.475182E+00 +6.657080E+00 +4.806309E+02 -1.380800E+01 +6.475182E+00 -1.380800E+01 +3.167968E+02 
 +8.511889E+02 +9.573684E+00 +2.719491E+00 +9.573684E+00 +4.612867E+02 -8.312784E+00 +2.719491E+00 -8.312784E+00 +3.044753E+02 
 +8.524123E+02 +1.517859E+01 -2.988336E+00 +1.517859E+01 +4.489971E+02 +9.707669E+00 -2.988336E+00 +9.707669E+00 +3.248088E+02 
 +8.607532E+02 +1.210347E+01 -4.035441E+00 +1.210347E+01 +4.630488E+02 +1.429236E+01 -4.035441E+00 +1.429236E+01 +3.617528E+02 
 +8.636566E+02 +3.571644E+00 +6.306388E+00 +3.571644E+00 +4.735946E+02 +1.495671E+01 +6.306388E+00 +1.495671E+01 +3.835710E+02 
 +8.549397E+02 -2.148276E+00 +5.842946E+00 -2.148276E+00 +4.690083E+02 +1.614668E+01 +5.842946E+00 +1.614668E+01 +3.894817E+02 
 +8.601368E+02 -5.659728E+00 -5.308550E+00 -5.659728E+00 +4.645977E+02 +1.623489E+01 -5.308550E+00 +1.623489E+01 +3.940024E+02 
 +8.661247E+02 -1.107529E+01 +4.949867E+00 -1.107529E+01 +4.879382E+02 +3.091870E+01 +4.949867E+00 +3.091870E+01 +3.799280E+02 
 +8.675049E+02 -1.434209E+01 +9.108533E+00 -1.434209E+01 +4.967009E+02 +3.898453E+01 +9.108533E+00 +3.898453E+01 +3.617076E+02 
 +8.647521E+02 -4.369500E+00 +6.841444E+00 -4.369500E+00 +4.966404E+02 +4.694103E+01 +6.841444E+00 +4.694103E+01 +3.533609E+02 
 +8.582630E+02 -2.090621E-02 +6.687109E+00 -2.090621E-02 +4.961524E+02 +6.002826E+01 +6.687109E+00 +6.002826E+01 +3.490602E+02 
 +8.357327E+02 -1.462599E+00 +5.841232E+00 -1.462599E+00 +4.822757E+02 +6.571559E+01 +5.841232E+00 +6.571559E+01 +3.293507E+02 
 +8.390006E+02 +1.496501E+00 -2.813153E+00 +1.496501E+00 +4.781124E+02 +4.760175E+01 -2.813153E+00 +4.760175E+01 +3.309119E+02 
 +8.462207E+02 -2.604493E+00 +4.703778E+00 -2.604493E+00 +4.804615E+02 +2.257754E+01 +4.703778E+00 +2.257754E+01 +3.540608E+02 
 +8.384511E+02 -1.620466E+01 +1.378019E+01 -1.620466E+01 +4.809682E+02 +6.453583E+00 +1.378019E+01 +6.453583E+00 +3.672414E+02 
 +8.461606E+02 -1.092054E+01 +1.113374E+01 -1.092054E+01 +4.851501E+02 +8.084220E+00 +1.113374E+01 +8.084220E+00 +3.746128E+02 
 +8.754782E+02 +4.463173E+00 +1.184099E+00 +4.463173E+00 +5.070245E+02 +7.720687E+00 +1.184099E+00 +7.720687E+00 +3.848966E+02 
 +8.829708E+02 +1.129679E+01 -4.800561E+00 +1.129679E+01 +5.139861E+02 +8.232990E-01 -4.800561E+00 +8.232990E-01 +3.795941E+02 
 +8.765004E+02 +1.006897E+01 +8.934034E-01 +1.006897E+01 +5.054231E+02 -9.967778E-01 +8.934034E-01 -9.967778E-01 +3.647313E+02 
 +8.720549E+02 +3.975085E+00 +7.270375E+00 +3.975085E+00 +5.011823E+02 -1.254976E+00 +7.270375E+00 -1.254976E+00 +3.613936E+02 
 +8.752535E+02 +1.624677E+00 +6.307191E+00 +1.624677E+00 +4.999096E+02 -2.394971E+00 +6.307191E+00 -2.394971E+00 +3.599842E+02 
 +8.615440E+02 +1.833984E+00 +7.846404E-01 +1.833984E+00 +4.855837E+02 -1.563892E+00 +7.846404E-01 -1.563892E+00 +3.340213E+02 
 +8.647240E+02 +4.092901E+00 +4.266896E-01 +4.092901E+00 +4.891213E+02 -2.436918E+00 +4.266896E-01 -2.436918E+00 +3.300603E+02 
 +8.767616E+02 +4.626204E+00 -1.849353E-01 +4.626204E+00 +4.953783E+02 -4.960438E+00 -1.849353E-01 -4.960438E+00 +3.592144E+02 
 +8.641343E+02 +3.912027E+00 -2.513438E+00 +3.912027E+00 +4.684269E+02 +1.685702E+00 -2.513438E+00 +1.685702E+00 +3.786337E+02 
 +8.572821E+02 -2.024905E+00 -2.866442E+00 -2.024905E+00 +4.582294E+02 +9.260130E+00 -2.866442E+00 +9.260130E+00 +3.988850E+02 
 +8.562778E+02 -7.861191E+00 -6.862781E+00 -7.861191E+00 +4.573234E+02 +8.344466E+00 -6.862781E+00 +8.344466E+00 +4.038259E+02 
 +8.561453E+02 -1.278915E+00 -5.183503E+00 -1.278915E+00 +4.495989E+02 +2.052240E+01 -5.183503E+00 +2.052240E+01 +3.777871E+02 
 +8.519011E+02 -6.484951E+00 +4.061932E+00 -6.484951E+00 +4.509069E+02 +2.867477E+01 +4.061932E+00 +2.867477E+01 +3.611084E+02 
 +8.553533E+02 -1.079092E+01 +1.256418E+01 -1.079092E+01 +4.723294E+02 +3.815672E+01 +1.256418E+01 +3.815672E+01 +3.492591E+02 
 +8.568776E+02 -3.898059E+00 +1.246554E+01 -3.898059E+00 +4.909733E+02 +4.858643E+01 +1.246554E+01 +4.858643E+01 +3.516659E+02 
 +8.564612E+02 -2.339580E+00 +8.996139E+00 -2.339580E+00 +4.958679E+02 +6.313820E+01 +8.996139E+00 +6.313820E+01 +3.644930E+02 
 +8.503497E+02 -7.019114E+00 +6.811298E+00 -7.019114E+00 +4.867868E+02 +5.794805E+01 +6.811298E+00 +5.794805E+01 +3.554209E+02 
 +8.290314E+02 +1.961318E+00 -2.381812E+00 +1.961318E+00 +4.680163E+02 +2.988116E+01 -2.381812E+00 +2.988116E+01 +3.441795E+02 
 +8.328424E+02 -4.938915E-01 -1.137268E+00 -4.938915E-01 +4.542912E+02 +1.548408E+01 -1.137268E+00 +1.548408E+01 +3.628608E+02 
 +8.284412E+02 -5.721650E+00 +6.326637E+00 -5.721650E+00 +4.409237E+02 +1.655918E+01 +6.326637E+00 +1.655918E+01 +3.585813E+02 
 +8.526402E+02 -8.932679E-01 +9.615391E-01 -8.932679E-01 +4.793648E+02 +1.151977E+01 +9.615391E-01 +1.151977E+01 +3.524450E+02 
 +8.678261E+02 +4.329700E+00 -8.285928E+00 +4.329700E+00 +5.038826E+02 +2.576398E+00 -8.285928E+00 +2.576398E+00 +3.437081E+02 
 +8.687928E+02 +7.017685E+00 -8.862013E+00 +7.017685E+00 +5.036361E+02 -2.444802E+00 -8.862013E+00 -2.444802E+00 +3.500117E+02 
 +8.708566E+02 +8.706274E+00 -1.971475E-01 +8.706274E+00 +5.052892E+02 -5.572286E+00 -1.971475E-01 -5.572286E+00 +3.580301E+02 
 +8.568370E+02 +3.132659E+00 +4.083947E+00 +3.132659E+00 +4.956045E+02 -6.032968E+00 +4.083947E+00 -6.032968E+00 +3.505944E+02 
 +8.735245E+02 +2.040366E+00 +2.559282E+00 +2.040366E+00 +5.022239E+02 -2.959860E+00 +2.559282E+00 -2.959860E+00 +3.636207E+02 
 +8.708615E+02 +2.485855E+00 -2.452136E+00 +2.485855E+00 +5.003025E+02 +2.971495E+00 -2.452136E+00 +2.971495E+00 +3.579877E+02 
 +8.641438E+02 +1.288129E+00 -7.781492E+00 +1.288129E+00 +4.862829E+02 +1.043334E+01 -7.781492E+00 +1.043334E+01 +3.567376E+02 
 +8.536312E+02 -9.294568E-01 -4.933992E+00 -9.294568E-01 +4.592455E+02 +1.277401E+01 -4.933992E+00 +1.277401E+01 +3.662303E+02 
 +8.510848E+02 +1.028593E-01 -3.585577E+00 +1.028593E-01 +4.506264E+02 +1.422389E+01 -3.585577E+00 +1.422389E+01 +3.759844E+02 
 +8.547088E+02 -9.022689E-01 -1.165300E+01 -9.022689E-01 +4.504809E+02 +1.247894E+01 -1.165300E+01 +1.247894E+01 +3.883587E+02 
 +8.541595E+02 -5.675708E+00 -1.107088E+01 -5.675708E+00 +4.479441E+02 +1.345250E+01 -1.107088E+01 +1.345250E+01 +3.874854E+02 
 +8.534112E+02 -3.817653E+00 -3.534550E+00 -3.817653E+00 +4.450220E+02 +2.732842E+01 -3.534550E+00 +2.732842E+01 +3.622130E+02 
 +8.558774E+02 -2.797454E+00 +4.283582E-01 -2.797454E+00 +4.484049E+02 +3.071771E+01 +4.283582E-01 +3.071771E+01 +3.583836E+02 
 +8.574919E+02 -1.985330E+00 +1.351163E+01 -1.985330E+00 +4.700130E+02 +4.340877E+01 +1.351163E+01 +4.340877E+01 +3.533369E+02 
 +8.525246E+02 -3.209462E+00 +1.599437E+01 -3.209462E+00 +4.909950E+02 +5.556159E+01 +1.599437E+01 +5.556159E+01 +3.608959E+02 
 +8.523443E+02 -5.192772E+00 +9.822070E+00 -5.192772E+00 +4.936009E+02 +6.030323E+01 +9.822070E+00 +6.030323E+01 +3.699033E+02 
 +8.542310E+02 -1.117892E+01 +8.350456E-01 -1.117892E+01 +4.770105E+02 +4.612145E+01 +8.350456E-01 +4.612145E+01 +3.593371E+02 
 +8.273606E+02 -8.049481E-01 -6.531409E+00 -8.049481E-01 +4.536215E+02 +2.184144E+01 -6.531409E+00 +2.184144E+01 +3.533438E+02 
 +8.463916E+02 -7.914334E+00 +1.186978E+00 -7.914334E+00 +4.714782E+02 +4.746125E+00 +1.186978E+00 +4.746125E+00 +3.819324E+02 
 +8.519747E+02 -6.041106E+00 +7.353431E+00 -6.041106E+00 +4.788971E+02 -5.640850E+00 +7.353431E+00 -5.640850E+00 +3.763809E+02 
 +8.553397E+02 -9.315085E-01 +6.048343E+00 -9.315085E-01 +4.787952E+02 -1.261381E+01 +6.048343E+00 -1.261381E+01 +3.551256E+02 
 +8.557614E+02 +1.469808E+00 -4.177335E+00 +1.469808E+00 +4.826235E+02 -9.686278E+00 -4.177335E+00 -9.686278E+00 +3.338053E+02 
 +8.648562E+02 +3.997500E+00 -1.020427E+01 +3.997500E+00 +4.947003E+02 -1.029209E+01 -1.020427E+01 -1.029209E+01 +3.354797E+02 
 +8.637829E+02 +7.511527E+00 -1.869433E+00 +7.511527E+00 +4.948925E+02 -1.265275E+01 -1.869433E+00 -1.265275E+01 +3.494285E+02 
 +8.583773E+02 +6.960006E+00 +2.247937E+00 +6.960006E+00 +4.950653E+02 -9.097253E+00 +2.247937E+00 -9.097253E+00 +3.524194E+02 
 +8.646534E+02 +5.401380E+00 -2.137042E+00 +5.401380E+00 +5.021337E+02 +1.346180E+00 -2.137042E+00 +1.346180E+00 +3.563383E+02 
 +8.667835E+02 +6.205578E+00 -5.623812E+00 +6.205578E+00 +5.016326E+02 +1.351548E+01 -5.623812E+00 +1.351548E+01 +3.618581E+02 
 +8.591302E+02 -4.114634E+00 -1.608344E+01 -4.114634E+00 +4.896285E+02 +1.940547E+01 -1.608344E+01 +1.940547E+01 +3.627565E+02 
 +8.572138E+02 -6.116968E+00 -1.382719E+01 -6.116968E+00 +4.769568E+02 +1.516994E+01 -1.382719E+01 +1.516994E+01 +3.621222E+02 
 +8.528015E+02 -1.346838E+00 -5.452536E+00 -1.346838E+00 +4.576269E+02 +1.567975E+01 -5.452536E+00 +1.567975E+01 +3.681797E+02 
 +8.450885E+02 -8.569481E-01 -6.143644E+00 -8.569481E-01 +4.406144E+02 +2.059845E+01 -6.143644E+00 +2.059845E+01 +3.678661E+02 
 +8.521455E+02 -5.165268E+00 -7.680782E+00 -5.165268E+00 +4.460186E+02 +2.342831E+01 -7.680782E+00 +2.342831E+01 +3.639586E+02 
 +8.525672E+02 -5.231774E+00 -8.532256E+00 -5.231774E+00 +4.499244E+02 +2.021686E+01 -8.532256E+00 +2.021686E+01 +3.545373E+02 
 +8.481025E+02 -1.958944E+00 +1.451674E+00 -1.958944E+00 +4.439773E+02 +2.583294E+01 +1.451674E+00 +2.583294E+01 +3.316289E+02 
 +8.503434E+02 +3.483391E+00 +1.617448E+01 +3.483391E+00 +4.652328E+02 +3.930456E+01 +1.617448E+01 +3.930456E+01 +3.311145E+02 
 +8.488609E+02 -3.110437E+00 +1.388214E+01 -3.110437E+00 +4.895601E+02 +5.115037E+01 +1.388214E+01 +5.115037E+01 +3.524734E+02 
 +8.438897E+02 -1.152416E+01 +2.425102E+00 -1.152416E+01 +4.814097E+02 +4.894470E+01 +2.425102E+00 +4.894470E+01 +3.484674E+02 
 +8.399744E+02 -2.035126E+01 -6.075213E+00 -2.035126E+01 +4.620963E+02 +2.387210E+01 -6.075213E+00 +2.387210E+01 +3.329281E+02 
 +8.241363E+02 -7.404417E+00 -8.943347E+00 -7.404417E+00 +4.455921E+02 +6.876914E+00 -8.943347E+00 +6.876914E+00 +3.427635E+02 
 +8.453418E+02 -8.819053E+00 -2.612447E+00 -8.819053E+00 +4.634200E+02 -3.421541E-01 -2.612447E+00 -3.421541E-01 +3.746226E+02 
 +8.398713E+02 -6.548502E+00 +4.917979E+00 -6.548502E+00 +4.643647E+02 -1.416892E+01 +4.917979E+00 -1.416892E+01 +3.502602E+02 
 +8.446166E+02 -1.777413E+00 +1.336906E+01 -1.777413E+00 +4.644419E+02 -2.837463E+01 +1.336906E+01 -2.837463E+01 +3.324545E+02 
 +8.497349E+02 +3.322605E+00 +8.435287E+00 +3.322605E+00 +4.647515E+02 -3.255914E+01 +8.435287E+00 -3.255914E+01 +3.214802E+02 
 +8.485639E+02 +3.296405E+00 -3.955148E+00 +3.296405E+00 +4.635478E+02 -2.860241E+01 -3.955148E+00 -2.860241E+01 +3.014606E+02 
 +8.518220E+02 +7.214322E+00 -3.521419E-01 +7.214322E+00 +4.728841E+02 -2.782619E+01 -3.521419E-01 -2.782619E+01 +3.182746E+02 
 +8.491743E+02 +7.156302E+00 +3.080985E+00 +7.156302E+00 +4.787307E+02 -2.614020E+01 +3.080985E+00 -2.614020E+01 +3.305570E+02 
 +8.435343E+02 +4.582959E+00 -4.974078E+00 +4.582959E+00 +4.801354E+02 -2.161268E+01 -4.974078E+00 -2.161268E+01 +3.260537E+02 
 +8.433780E+02 +4.593229E+00 -1.659242E+00 +4.593229E+00 +4.811424E+02 -7.834634E+00 -1.659242E+00 -7.834634E+00 +3.308851E+02 
 +8.405020E+02 -4.241327E+00 -1.866965E+01 -4.241327E+00 +4.762885E+02 +1.217501E+01 -1.866965E+01 +1.217501E+01 +3.316661E+02 
 +8.467054E+02 -6.564892E+00 -1.928984E+01 -6.564892E+00 +4.687415E+02 +1.475453E+01 -1.928984E+01 +1.475453E+01 +3.392512E+02 
 +8.515437E+02 -3.867260E+00 +7.432471E-01 -3.867260E+00 +4.641152E+02 +1.653054E+01 +7.432471E-01 +1.653054E+01 +3.619146E+02 
 +8.505657E+02 -6.602949E-01 +1.872868E+00 -6.602949E-01 +4.597661E+02 +2.503684E+01 +1.872868E+00 +2.503684E+01 +3.617448E+02 
 +8.577408E+02 -1.445535E+00 -8.309335E+00 -1.445535E+00 +4.572368E+02 +2.307284E+01 -8.309335E+00 +2.307284E+01 +3.575902E+02 
 +8.626833E+02 -6.831139E+00 -5.510131E+00 -6.831139E+00 +4.779945E+02 +1.639593E+01 -5.510131E+00 +1.639593E+01 +3.509172E+02 
 +8.674858E+02 +1.348312E+00 +8.368184E+00 +1.348312E+00 +4.960982E+02 +2.737208E+01 +8.368184E+00 +2.737208E+01 +3.269002E+02 
 +8.604488E+02 +4.191687E+00 +9.157041E+00 +4.191687E+00 +4.943880E+02 +2.573235E+01 +9.157041E+00 +2.573235E+01 +3.240265E+02 
 +8.458561E+02 -6.067979E+00 +4.067238E+00 -6.067979E+00 +4.763623E+02 +4.505244E+00 +4.067238E+00 +4.505244E+00 +3.499747E+02 
 +8.328467E+02 -1.704538E+01 -6.509242E+00 -1.704538E+01 +4.649484E+02 -1.097494E+01 -6.509242E+00 -1.097494E+01 +3.409673E+02 
 +8.322103E+02 -2.410997E+01 -4.014450E+00 -2.410997E+01 +4.597953E+02 -8.582499E+00 -4.014450E+00 -8.582499E+00 +3.096392E+02 
 +8.236549E+02 -1.264420E+01 +4.273912E+00 -1.264420E+01 +4.449216E+02 +2.177136E+00 +4.273912E+00 +2.177136E+00 +3.138605E+02 
 +8.268570E+02 -7.789480E+00 -2.780993E+00 -7.789480E+00 +4.410847E+02 +1.309486E+00 -2.780993E+00 +1.309486E+00 +3.382374E+02 
 +8.331157E+02 -6.281137E+00 -1.261682E+00 -6.281137E+00 +4.488073E+02 -9.512098E+00 -1.261682E+00 -9.512098E+00 +3.237400E+02 
 +8.376140E+02 -4.401581E+00 +7.705778E+00 -4.401581E+00 +4.534868E+02 -2.075924E+01 +7.705778E+00 -2.075924E+01 +3.079003E+02 
 +8.387457E+02 +5.936448E-01 +1.403220E+01 +5.936448E-01 +4.484016E+02 -2.101724E+01 +1.403220E+01 -2.101724E+01 +3.020151E+02 
 +8.443560E+02 +6.471800E-01 +2.187291E+00 +6.471800E-01 +4.463000E+02 -1.278723E+01 +2.187291E+00 -1.278723E+01 +2.925590E+02 
 +8.423493E+02 +5.445856E+00 -8.499685E-01 +5.445856E+00 +4.532225E+02 -1.715794E+01 -8.499685E-01 -1.715794E+01 +2.981503E+02 
 +8.380729E+02 +5.314334E+00 +4.738935E+00 +5.314334E+00 +4.652597E+02 -2.884262E+01 +4.738935E+00 -2.884262E+01 +3.056148E+02 
 +8.379034E+02 +1.824131E+00 -4.274574E+00 +1.824131E+00 +4.738108E+02 -2.833283E+01 -4.274574E+00 -2.833283E+01 +3.089594E+02 
 +8.377670E+02 +2.165575E+00 +9.079759E-01 +2.165575E+00 +4.733878E+02 -2.562269E+01 +9.079759E-01 -2.562269E+01 +3.100076E+02 
 +8.371194E+02 -2.164399E+00 -6.053905E+00 -2.164399E+00 +4.682338E+02 -8.709253E+00 -6.053905E+00 -8.709253E+00 +3.130402E+02 
 +8.297851E+02 -1.021170E+01 -2.169007E+01 -1.021170E+01 +4.652997E+02 +1.065128E+01 -2.169007E+01 +1.065128E+01 +3.349975E+02 
 +8.491682E+02 -9.995333E+00 -4.482633E+00 -9.995333E+00 +4.640061E+02 +1.701206E+01 -4.482633E+00 +1.701206E+01 +3.613699E+02 
 +8.286692E+02 -2.317894E+00 +3.000374E+00 -2.317894E+00 +4.333920E+02 +2.451414E+01 +3.000374E+00 +2.451414E+01 +3.388200E+02 
 +8.518603E+02 -3.320600E+00 -7.196194E+00 -3.320600E+00 +4.547816E+02 +1.971296E+01 -7.196194E+00 +1.971296E+01 +3.465140E+02 
 +8.858700E+02 -3.216391E+00 +1.721346E+01 -3.216391E+00 +5.160005E+02 +3.363670E+01 +1.721346E+01 +3.363670E+01 +3.456488E+02 
 +8.776970E+02 +4.122542E+00 +9.733032E+00 +4.122542E+00 +5.155627E+02 +4.206440E+01 +9.733032E+00 +4.206440E+01 +3.295047E+02 
 +8.604530E+02 -4.234694E-02 -5.320484E+00 -4.234694E-02 +4.898146E+02 +3.544847E+01 -5.320484E+00 +3.544847E+01 +3.237923E+02 
 +8.430462E+02 -4.878236E+00 -1.410634E+01 -4.878236E+00 +4.680730E+02 +8.277895E+00 -1.410634E+01 +8.277895E+00 +3.402464E+02 
 +8.317556E+02 -8.049070E+00 -1.310135E+01 -8.049070E+00 +4.532666E+02 -9.739394E+00 -1.310135E+01 -9.739394E+00 +3.257525E+02 
 +8.353584E+02 -9.137587E+00 -1.671967E-01 -9.137587E+00 +4.614495E+02 -4.269075E+00 -1.671967E-01 -4.269075E+00 +3.029666E+02 
 +8.412992E+02 -6.311375E+00 +9.475778E+00 -6.311375E+00 +4.834687E+02 +2.857125E+00 +9.475778E+00 +2.857125E+00 +3.184031E+02 
 +8.397110E+02 -3.482485E+00 +3.568613E+00 -3.482485E+00 +4.813968E+02 +5.126270E+00 +3.568613E+00 +5.126270E+00 +3.250471E+02 
 +8.419419E+02 -1.302388E+00 -5.925902E+00 -1.302388E+00 +4.681731E+02 -4.450734E+00 -5.925902E+00 -4.450734E+00 +3.204683E+02 
 +8.418902E+02 -5.377440E+00 +3.854953E+00 -5.377440E+00 +4.575513E+02 -1.101950E+01 +3.854953E+00 -1.101950E+01 +3.203147E+02 
 +8.402965E+02 -3.562379E+00 +1.203607E+01 -3.562379E+00 +4.470753E+02 -3.340178E-02 +1.203607E+01 -3.340178E-02 +3.218411E+02 
 +8.475585E+02 -3.046148E+00 +2.024074E-01 -3.046148E+00 +4.448322E+02 +5.137637E+00 +2.024074E-01 +5.137637E+00 +3.284998E+02 
 +8.413506E+02 +2.175658E+00 -2.191360E+00 +2.175658E+00 +4.442217E+02 -6.530264E+00 -2.191360E+00 -6.530264E+00 +3.223981E+02 
 +8.399570E+02 +3.092893E+00 +3.993867E+00 +3.092893E+00 +4.570171E+02 -2.337579E+01 +3.993867E+00 -2.337579E+01 +3.150862E+02 
 +8.420030E+02 -2.672143E+00 -3.239984E+00 -2.672143E+00 +4.697220E+02 -3.093160E+01 -3.239984E+00 -3.093160E+01 +3.152908E+02 
 +8.477368E+02 -4.535262E+00 -6.464712E-01 -4.535262E+00 +4.711378E+02 -2.979173E+01 -6.464712E-01 -2.979173E+01 +3.133948E+02 
 +8.553464E+02 -5.197733E+00 +5.534481E+00 -5.197733E+00 +4.808688E+02 -2.028077E+01 +5.534481E+00 -2.028077E+01 +3.189495E+02 
 +8.279170E+02 -8.473926E+00 -2.135829E+01 -8.473926E+00 +4.711822E+02 -4.769117E+00 -2.135829E+01 -4.769117E+00 +3.351144E+02 
 +8.541877E+02 -6.947522E+00 -1.599986E+01 -6.947522E+00 +4.852651E+02 +1.724932E+00 -1.599986E+01 +1.724932E+00 +3.657729E+02 
 +8.303040E+02 -1.124446E+00 -1.130946E+00 -1.124446E+00 +4.806639E+02 +6.999384E+00 -1.130946E+00 +6.999384E+00 +3.532039E+02 
 +8.737285E+02 -5.678574E+00 +9.437551E+00 -5.678574E+00 +5.050583E+02 +1.591155E+01 +9.437551E+00 +1.591155E+01 +3.579070E+02 
 +8.718447E+02 +8.684232E+00 +1.796214E+01 +8.684232E+00 +4.843959E+02 -2.054989E+01 +1.796214E+01 -2.054989E+01 +3.457722E+02 
 +8.623447E+02 +5.054402E+00 +6.072530E+00 +5.054402E+00 +4.754277E+02 -3.173390E+01 +6.072530E+00 -3.173390E+01 +3.334493E+02 
 +8.578716E+02 +5.257448E-01 -4.968545E+00 +5.257448E-01 +4.695381E+02 -2.349715E+01 -4.968545E+00 -2.349715E+01 +3.361325E+02 
 +8.465388E+02 -2.116022E+00 -1.823511E+01 -2.116022E+00 +4.666228E+02 -1.072496E+01 -1.823511E+01 -1.072496E+01 +3.381527E+02 
 +8.517544E+02 -4.744206E+00 -1.275700E+01 -4.744206E+00 +4.766515E+02 +2.984661E+00 -1.275700E+01 +2.984661E+00 +3.306305E+02 
 +8.540349E+02 -7.501325E+00 -3.456336E+00 -7.501325E+00 +4.856670E+02 +5.360387E+00 -3.456336E+00 +5.360387E+00 +3.324812E+02 
 +8.474974E+02 -4.712938E+00 -1.851638E+00 -4.712938E+00 +4.867772E+02 +5.317484E+00 -1.851638E+00 +5.317484E+00 +3.463093E+02 
 +8.482757E+02 -1.847021E+00 -1.142941E-02 -1.847021E+00 +4.907620E+02 +2.611568E+00 -1.142941E-02 +2.611568E+00 +3.479835E+02 
 +8.516021E+02 -7.543776E-01 -5.938902E+00 -7.543776E-01 +4.870439E+02 -7.620480E-01 -5.938902E+00 -7.620480E-01 +3.423093E+02 
 +8.564254E+02 -3.536986E-01 +4.286693E-01 -3.536986E-01 +4.827040E+02 +1.579180E+00 +4.286693E-01 +1.579180E+00 +3.444325E+02 
 +8.506420E+02 -2.979889E+00 +6.415274E+00 -2.979889E+00 +4.677371E+02 +8.006229E+00 +6.415274E+00 +8.006229E+00 +3.505269E+02 
 +8.362841E+02 -1.284369E+00 -2.796440E-01 -1.284369E+00 +4.486756E+02 +1.180546E+01 -2.796440E-01 +1.180546E+01 +3.581936E+02 
 +8.392702E+02 +9.509430E-01 -4.708769E+00 +9.509430E-01 +4.538410E+02 -4.085772E-01 -4.708769E+00 -4.085772E-01 +3.682374E+02 
 +8.500331E+02 -2.333489E+00 +3.915524E+00 -2.333489E+00 +4.602908E+02 -2.143192E+01 +3.915524E+00 -2.143192E+01 +3.552306E+02 
 +8.599220E+02 -9.557694E+00 +3.769662E+00 -9.557694E+00 +4.664350E+02 -3.301152E+01 +3.769662E+00 -3.301152E+01 +3.365258E+02 
 +8.603437E+02 -1.007030E+01 +2.868614E+00 -1.007030E+01 +4.726596E+02 -3.226987E+01 +2.868614E+00 -3.226987E+01 +3.245064E+02 
 +8.589229E+02 -9.711614E+00 +6.137715E+00 -9.711614E+00 +4.733064E+02 -3.164049E+01 +6.137715E+00 -3.164049E+01 +3.061723E+02 
 +8.631943E+02 -1.208473E+01 -9.751132E+00 -1.208473E+01 +4.930530E+02 -2.559621E+01 -9.751132E+00 -2.559621E+01 +3.219293E+02 
 +8.538848E+02 -4.914774E+00 -1.224035E+01 -4.914774E+00 +5.187574E+02 -8.500618E+00 -1.224035E+01 -8.500618E+00 +3.661455E+02 
 +8.290468E+02 +2.304896E+00 -5.718384E+00 +2.304896E+00 +5.040986E+02 +2.200654E+00 -5.718384E+00 +2.200654E+00 +3.801127E+02 
 +8.658072E+02 -1.074523E+00 +1.329222E+01 -1.074523E+00 +4.961949E+02 -4.938790E+00 +1.329222E+01 -4.938790E+00 +3.734200E+02 
 +8.811612E+02 +9.977602E+00 +2.009742E+00 +9.977602E+00 +5.012173E+02 -2.275840E+01 +2.009742E+00 -2.275840E+01 +3.704198E+02 
 +8.730272E+02 +8.246452E+00 +5.031760E+00 +8.246452E+00 +4.828750E+02 -2.604032E+01 +5.031760E+00 -2.604032E+01 +3.589355E+02 
 +8.686829E+02 +3.110247E+00 +4.915945E+00 +3.110247E+00 +4.884172E+02 -2.528696E+01 +4.915945E+00 -2.528696E+01 +3.643788E+02 
 +8.572653E+02 -7.834219E+00 -6.349603E+00 -7.834219E+00 +4.811636E+02 -1.458189E+01 -6.349603E+00 -1.458189E+01 +3.573534E+02 
 +8.544927E+02 -7.210506E+00 -3.724772E+00 -7.210506E+00 +4.683545E+02 -2.710969E+00 -3.724772E+00 -2.710969E+00 +3.454390E+02 
 +8.552873E+02 -6.232058E+00 +1.827258E-01 -6.232058E+00 +4.744902E+02 +3.086160E+00 +1.827258E-01 +3.086160E+00 +3.531253E+02 
 +8.556739E+02 -3.846501E+00 -5.976743E+00 -3.846501E+00 +4.871080E+02 +7.438094E+00 -5.976743E+00 +7.438094E+00 +3.627195E+02 
 +8.561132E+02 -1.918239E+00 -6.192659E+00 -1.918239E+00 +4.918518E+02 +1.042686E+01 -6.192659E+00 +1.042686E+01 +3.642346E+02 
 +8.607174E+02 -1.451131E+00 -4.021009E+00 -1.451131E+00 +4.962226E+02 +9.354668E+00 -4.021009E+00 +9.354668E+00 +3.593887E+02 
 +8.652745E+02 -6.753997E-01 -1.514216E+00 -6.753997E-01 +4.958286E+02 +1.103189E+01 -1.514216E+00 +1.103189E+01 +3.550522E+02 
 +8.627198E+02 -5.017944E+00 +6.716447E-02 -5.017944E+00 +4.857393E+02 +1.239956E+01 +6.716447E-02 +1.239956E+01 +3.629943E+02 
 +8.378113E+02 +1.293975E+01 -4.671884E+00 +1.293975E+01 +4.767335E+02 +3.717285E+00 -4.671884E+00 +3.717285E+00 +3.731069E+02 
 +8.384431E+02 +1.881552E+01 -1.170916E+01 +1.881552E+01 +4.829009E+02 -5.468169E-01 -1.170916E+01 -5.468169E-01 +3.911777E+02 
 +8.423073E+02 +1.208566E+01 -4.926276E+00 +1.208566E+01 +4.668096E+02 -7.407517E+00 -4.926276E+00 -7.407517E+00 +3.773613E+02 
 +8.587787E+02 -2.195467E+00 +3.295174E+00 -2.195467E+00 +4.604131E+02 -2.698490E+01 +3.295174E+00 -2.698490E+01 +3.539398E+02 
 +8.668556E+02 -9.857970E+00 +7.706397E+00 -9.857970E+00 +4.708070E+02 -3.326324E+01 +7.706397E+00 -3.326324E+01 +3.397573E+02 
 +8.729175E+02 -1.391625E+01 +6.171554E+00 -1.391625E+01 +4.790583E+02 -3.406553E+01 +6.171554E+00 -3.406553E+01 +3.132007E+02 
 +8.735505E+02 -1.503594E+01 -3.694539E-01 -1.503594E+01 +4.892280E+02 -4.352607E+01 -3.694539E-01 -4.352607E+01 +3.094408E+02 
 +8.680996E+02 -6.613702E+00 -9.106457E-01 -6.613702E+00 +5.124086E+02 -4.306737E+01 -9.106457E-01 -4.306737E+01 +3.523868E+02 
 +8.360273E+02 +4.201937E+00 -7.809907E+00 +4.201937E+00 +5.121945E+02 -2.622298E+01 -7.809907E+00 -2.622298E+01 +3.803230E+02 
 +8.667441E+02 -2.298531E+00 -9.100746E-01 -2.298531E+00 +5.204397E+02 -1.888407E+01 -9.100746E-01 -1.888407E+01 +3.898412E+02 
 +8.631884E+02 +3.263192E+00 -4.456107E+00 +3.263192E+00 +4.922115E+02 -2.456348E+01 -4.456107E+00 -2.456348E+01 +3.583334E+02 
 +8.646101E+02 +8.200381E+00 +1.049130E+01 +8.200381E+00 +4.811727E+02 -3.486078E+01 +1.049130E+01 -3.486078E+01 +3.624353E+02 
 +8.629753E+02 +1.907136E+00 +1.634305E+01 +1.907136E+00 +4.831498E+02 -2.938217E+01 +1.634305E+01 -2.938217E+01 +3.652794E+02 
 +8.564331E+02 -7.193530E+00 +2.039637E+00 -7.193530E+00 +4.700582E+02 -1.489276E+01 +2.039637E+00 -1.489276E+01 +3.568680E+02 
 +8.516429E+02 -3.452541E+00 +2.991635E+00 -3.452541E+00 +4.627341E+02 +8.359958E+00 +2.991635E+00 +8.359958E+00 +3.440468E+02 
 +8.513560E+02 -2.549896E+00 +4.476349E-01 -2.549896E+00 +4.694484E+02 +1.834099E+01 +4.476349E-01 +1.834099E+01 +3.403682E+02 
 +8.554556E+02 -3.079018E+00 -4.894934E+00 -3.079018E+00 +4.825911E+02 +1.126459E+01 -4.894934E+00 +1.126459E+01 +3.489234E+02 
 +8.580470E+02 -2.047527E+00 -2.243883E+00 -2.047527E+00 +4.899713E+02 +5.925040E+00 -2.243883E+00 +5.925040E+00 +3.515035E+02 
 +8.611010E+02 -1.477604E+00 -6.667142E-01 -1.477604E+00 +4.919309E+02 +1.209263E+01 -6.667142E-01 +1.209263E+01 +3.454792E+02 
 +8.665941E+02 -5.470511E-01 +6.562465E-02 -5.470511E-01 +4.943126E+02 +1.489672E+01 +6.562465E-02 +1.489672E+01 +3.415617E+02 
 +8.786182E+02 -3.924103E+00 -5.297997E-01 -3.924103E+00 +5.090274E+02 +8.619041E+00 -5.297997E-01 +8.619041E+00 +3.568625E+02 
 +8.384715E+02 +1.324784E+01 -8.604477E+00 +1.324784E+01 +4.934086E+02 +7.595733E-01 -8.604477E+00 +7.595733E-01 +3.625418E+02 
 +8.315688E+02 +1.578559E+01 -1.123177E+01 +1.578559E+01 +4.835390E+02 +2.616357E+00 -1.123177E+01 +2.616357E+00 +3.728692E+02 
 +8.325698E+02 +1.593467E+01 -1.166407E+01 +1.593467E+01 +4.723752E+02 +5.342394E+00 -1.166407E+01 +5.342394E+00 +3.674242E+02 
 +8.436207E+02 +1.326481E+01 -6.053832E+00 +1.326481E+01 +4.712837E+02 +2.476682E+00 -6.053832E+00 +2.476682E+00 +3.578635E+02 
 +8.566635E+02 +6.528564E+00 -3.353597E+00 +6.528564E+00 +4.772287E+02 -1.354308E+01 -3.353597E+00 -1.354308E+01 +3.433722E+02 
 +8.774797E+02 -9.478084E+00 +1.384775E+00 -9.478084E+00 +4.842458E+02 -3.794874E+01 +1.384775E+00 -3.794874E+01 +3.176506E+02 
 +8.741469E+02 -6.862573E+00 +1.453976E+00 -6.862573E+00 +4.855210E+02 -4.829620E+01 +1.453976E+00 -4.829620E+01 +3.025632E+02 
 +8.819502E+02 -5.100147E+00 +4.927510E+00 -5.100147E+00 +5.062785E+02 -4.657245E+01 +4.927510E+00 -4.657245E+01 +3.229814E+02 
 +8.378149E+02 -5.974892E+00 -2.010622E-02 -5.974892E+00 +4.892517E+02 -2.784053E+01 -2.010622E-02 -2.784053E+01 +3.328908E+02 
 +8.473042E+02 -2.923489E+00 -3.706676E+00 -2.923489E+00 +4.980973E+02 -1.262002E+01 -3.706676E+00 -1.262002E+01 +3.539129E+02 
 +8.623099E+02 -2.143388E+00 +2.492938E+00 -2.143388E+00 +5.038165E+02 +1.942503E+01 +2.492938E+00 +1.942503E+01 +3.523966E+02 
 +8.647374E+02 +1.381574E+01 +1.139109E+01 +1.381574E+01 +5.003445E+02 +2.504771E+01 +1.139109E+01 +2.504771E+01 +3.595046E+02 
 +8.553756E+02 +3.956987E+00 +1.014520E+01 +3.956987E+00 +4.733998E+02 -8.865701E+00 +1.014520E+01 -8.865701E+00 +3.578724E+02 
 +8.556403E+02 -7.699860E+00 +6.519211E+00 -7.699860E+00 +4.658146E+02 -1.991812E+01 +6.519211E+00 -1.991812E+01 +3.660947E+02 
 +8.509302E+02 -3.459118E+00 +1.008062E+01 -3.459118E+00 +4.713230E+02 -1.972475E+00 +1.008062E+01 -1.972475E+00 +3.527568E+02 
 +8.529121E+02 -2.359374E+00 +3.114615E+00 -2.359374E+00 +4.774830E+02 +8.123372E+00 +3.114615E+00 +8.123372E+00 +3.378411E+02 
 +8.616858E+02 -2.908468E+00 -6.107965E-01 -2.908468E+00 +4.840525E+02 +1.249879E+01 -6.107965E-01 +1.249879E+01 +3.493605E+02 
 +8.640778E+02 -2.516423E+00 +2.492096E+00 -2.516423E+00 +4.874655E+02 +1.503276E+01 +2.492096E+00 +1.503276E+01 +3.558314E+02 
 +8.662062E+02 -2.061861E+00 +2.271294E+00 -2.061861E+00 +4.897861E+02 +1.579494E+01 +2.271294E+00 +1.579494E+01 +3.491653E+02 
 +8.726095E+02 -2.665697E+00 -1.044395E-01 -2.665697E+00 +4.962391E+02 +1.389547E+01 -1.044395E-01 +1.389547E+01 +3.438376E+02 
 +8.764996E+02 -5.647720E+00 +1.555874E-02 -5.647720E+00 +5.063736E+02 +9.888388E+00 +1.555874E-02 +9.888388E+00 +3.488690E+02 
 +8.334171E+02 +1.009124E+01 -7.132667E+00 +1.009124E+01 +4.921884E+02 +3.605345E+00 -7.132667E+00 +3.605345E+00 +3.488106E+02 
 +8.376493E+02 +1.068499E+01 -7.486064E+00 +1.068499E+01 +4.936267E+02 +2.129723E+00 -7.486064E+00 +2.129723E+00 +3.624138E+02 
 +8.410271E+02 +1.099969E+01 -8.276933E+00 +1.099969E+01 +4.884162E+02 +4.251695E+00 -8.276933E+00 +4.251695E+00 +3.608805E+02 
 +8.408822E+02 +1.273013E+01 -7.829380E+00 +1.273013E+01 +4.847970E+02 +4.472334E+00 -7.829380E+00 +4.472334E+00 +3.514060E+02 
 +8.405464E+02 +1.443520E+01 -1.203835E+01 +1.443520E+01 +4.817056E+02 +2.800357E+00 -1.203835E+01 +2.800357E+00 +3.275208E+02 
 +8.788583E+02 +2.666201E+00 -1.324885E+00 +2.666201E+00 +4.996470E+02 +5.183949E+00 -1.324885E+00 +5.183949E+00 +3.131771E+02 
 +8.807386E+02 +5.499973E+00 +3.527245E+00 +5.499973E+00 +5.009611E+02 +7.297602E+00 +3.527245E+00 +7.297602E+00 +2.988869E+02 
 +8.729440E+02 +3.043692E+00 +1.210869E+00 +3.043692E+00 +5.012738E+02 -3.330941E+00 +1.210869E+00 -3.330941E+00 +3.023769E+02 
 +8.577264E+02 -7.094578E+00 +4.603107E+00 -7.094578E+00 +4.944579E+02 -1.607002E+01 +4.603107E+00 -1.607002E+01 +3.217185E+02 
 +8.541469E+02 -6.264261E+00 +5.187173E-01 -6.264261E+00 +4.921226E+02 -7.362955E+00 +5.187173E-01 -7.362955E+00 +3.384111E+02 
 +8.528693E+02 -6.158756E+00 +7.521089E+00 -6.158756E+00 +4.806701E+02 +5.471505E+00 +7.521089E+00 +5.471505E+00 +3.451064E+02 
 +8.563258E+02 +2.719003E-02 +7.810754E+00 +2.719003E-02 +4.855747E+02 +1.374350E+01 +7.810754E+00 +1.374350E+01 +3.624882E+02 
 +8.600509E+02 -6.638134E+00 +4.321645E-01 -6.638134E+00 +4.871320E+02 +1.621019E+01 +4.321645E-01 +1.621019E+01 +3.686859E+02 
 +8.531593E+02 -1.247768E+01 +5.715896E+00 -1.247768E+01 +4.824680E+02 +1.501380E+01 +5.715896E+00 +1.501380E+01 +3.644706E+02 
 +8.645053E+02 -1.013345E+00 +1.345073E+01 -1.013345E+00 +4.877175E+02 +9.844186E+00 +1.345073E+01 +9.844186E+00 +3.636256E+02 
 +8.667667E+02 -9.341465E-01 +1.040430E+01 -9.341465E-01 +4.899553E+02 +7.671264E+00 +1.040430E+01 +7.671264E+00 +3.625763E+02 
 +8.683527E+02 -1.283782E+00 +1.007774E+01 -1.283782E+00 +4.882128E+02 +1.497462E+01 +1.007774E+01 +1.497462E+01 +3.601186E+02 
 +8.699469E+02 -8.366837E-01 +4.069983E+00 -8.366837E-01 +4.879019E+02 +1.966453E+01 +4.069983E+00 +1.966453E+01 +3.535686E+02 
 +8.718653E+02 -2.851383E-01 -3.298232E+00 -2.851383E-01 +4.939673E+02 +1.346103E+01 -3.298232E+00 +1.346103E+01 +3.551863E+02 
 +8.754074E+02 -1.923434E+00 -3.417977E+00 -1.923434E+00 +5.027590E+02 +3.723156E+00 -3.417977E+00 +3.723156E+00 +3.539817E+02 
 +8.797849E+02 -4.701829E+00 -3.654587E+00 -4.701829E+00 +5.129851E+02 -1.552382E+00 -3.654587E+00 -1.552382E+00 +3.532805E+02 
 +8.392839E+02 +7.621244E+00 -7.443717E+00 +7.621244E+00 +4.969640E+02 -3.311930E+00 -7.443717E+00 -3.311930E+00 +3.486411E+02 
 +8.432913E+02 +6.492787E+00 -5.883141E+00 +6.492787E+00 +5.006421E+02 -2.415826E+00 -5.883141E+00 -2.415826E+00 +3.564738E+02 
 +8.433826E+02 +8.017591E+00 -6.167446E+00 +8.017591E+00 +4.969895E+02 -7.077441E-02 -6.167446E+00 -7.077441E-02 +3.499334E+02 
 +8.463500E+02 +1.251313E+01 -9.507000E+00 +1.251313E+01 +4.971021E+02 -7.981599E-02 -9.507000E+00 -7.981599E-02 +3.412709E+02 
 +8.488847E+02 +1.498878E+01 -6.564187E+00 +1.498878E+01 +4.928254E+02 +1.489490E+00 -6.564187E+00 +1.489490E+00 +3.234189E+02 
 +8.730129E+02 +5.461373E+00 +2.195387E+00 +5.461373E+00 +5.020969E+02 +7.144961E+00 +2.195387E+00 +7.144961E+00 +3.186729E+02 
 +8.716353E+02 +6.375791E+00 -2.224530E+00 +6.375791E+00 +5.015893E+02 +8.324316E+00 -2.224530E+00 +8.324316E+00 +3.055093E+02 
 +8.707664E+02 +2.986625E+00 -6.160265E+00 +2.986625E+00 +4.970567E+02 +1.525710E-01 -6.160265E+00 +1.525710E-01 +3.069102E+02 
 +8.588853E+02 -8.905542E+00 +3.155130E+00 -8.905542E+00 +4.912588E+02 -1.322700E+01 +3.155130E+00 -1.322700E+01 +3.274424E+02 
 +8.528547E+02 -1.142688E+01 +4.787428E+00 -1.142688E+01 +4.824905E+02 -1.032098E+01 +4.787428E+00 -1.032098E+01 +3.350016E+02 
 +8.478372E+02 -7.114257E+00 +5.411563E+00 -7.114257E+00 +4.739396E+02 +2.415642E+00 +5.411563E+00 +2.415642E+00 +3.415719E+02 
 +8.432416E+02 +7.863332E-01 +5.284451E+00 +7.863332E-01 +4.638131E+02 +1.366127E+01 +5.284451E+00 +1.366127E+01 +3.479849E+02 
 +8.463996E+02 -3.044659E+00 +7.194501E+00 -3.044659E+00 +4.673427E+02 +1.664179E+01 +7.194501E+00 +1.664179E+01 +3.526561E+02 
 +8.539867E+02 -5.441782E+00 +4.854769E+00 -5.441782E+00 +4.849671E+02 +2.009935E+01 +4.854769E+00 +2.009935E+01 +3.616744E+02 
 +8.814603E+02 +3.281972E+00 +9.580983E+00 +3.281972E+00 +5.058922E+02 +1.875861E+01 +9.580983E+00 +1.875861E+01 +3.754298E+02 
 +8.747036E+02 +1.588232E+00 +1.115138E+01 +1.588232E+00 +4.951648E+02 +1.446312E+01 +1.115138E+01 +1.446312E+01 +3.705954E+02 
 +8.675708E+02 +7.080478E-01 +1.539031E+01 +7.080478E-01 +4.874823E+02 +1.614491E+01 +1.539031E+01 +1.614491E+01 +3.587533E+02 
 +8.661451E+02 +4.599471E-01 +6.440699E+00 +4.599471E-01 +4.839266E+02 +1.978108E+01 +6.440699E+00 +1.978108E+01 +3.432381E+02 
 +8.702537E+02 +2.116637E+00 -1.091005E+01 +2.116637E+00 +4.933135E+02 +1.355876E+01 -1.091005E+01 +1.355876E+01 +3.458736E+02 
 +8.728041E+02 +1.083653E-01 -1.334829E+01 +1.083653E-01 +5.050689E+02 -1.697124E+00 -1.334829E+01 -1.697124E+00 +3.502663E+02 
 +8.707930E+02 -4.239093E+00 -4.761753E+00 -4.239093E+00 +5.111214E+02 -8.491068E+00 -4.761753E+00 -8.491068E+00 +3.502570E+02 
 +8.529521E+02 +4.190797E+00 -6.637757E+00 +4.190797E+00 +5.032656E+02 -1.115786E+01 -6.637757E+00 -1.115786E+01 +3.582299E+02 
 +8.561844E+02 +9.083089E+00 -5.007226E+00 +9.083089E+00 +5.043464E+02 -1.014614E+01 -5.007226E+00 -1.014614E+01 +3.628613E+02 
 +8.491234E+02 +1.170107E+01 -4.530843E+00 +1.170107E+01 +5.037588E+02 -5.566999E+00 -4.530843E+00 -5.566999E+00 +3.471658E+02 
 +8.375215E+02 +1.485152E+01 -8.397555E+00 +1.485152E+01 +4.976728E+02 +1.818252E+00 -8.397555E+00 +1.818252E+00 +3.292589E+02 
 +8.624775E+02 +8.969278E+00 -5.966774E+00 +8.969278E+00 +5.075749E+02 +8.571977E+00 -5.966774E+00 +8.571977E+00 +3.271192E+02 
 +8.672224E+02 +3.910433E+00 -1.961358E+00 +3.910433E+00 +5.108340E+02 +7.113149E+00 -1.961358E+00 +7.113149E+00 +3.237707E+02 
 +8.687264E+02 +2.471641E+00 -1.054180E+01 +2.471641E+00 +5.083657E+02 +7.182449E+00 -1.054180E+01 +7.182449E+00 +3.102710E+02 
 +8.659330E+02 -3.280615E+00 -1.024553E+01 -3.280615E+00 +4.958895E+02 +2.662023E+00 -1.024553E+01 +2.662023E+00 +3.058538E+02 
 +8.560050E+02 -1.261936E+01 +2.187920E+00 -1.261936E+01 +4.859707E+02 -1.226461E+01 +2.187920E+00 -1.226461E+01 +3.213393E+02 
 +8.570785E+02 -1.521743E+01 +1.158628E+01 -1.521743E+01 +4.862732E+02 -1.401781E+01 +1.158628E+01 -1.401781E+01 +3.348807E+02 
 +8.526601E+02 -3.425356E+00 +1.004765E+01 -3.425356E+00 +4.865380E+02 -7.840232E-01 +1.004765E+01 -7.840232E-01 +3.340589E+02 
 +8.483305E+02 +5.781368E+00 +4.288807E+00 +5.781368E+00 +4.790893E+02 +9.220101E-01 +4.288807E+00 +9.220101E-01 +3.300641E+02 
 +8.507731E+02 +5.580873E+00 +5.385155E+00 +5.580873E+00 +4.756291E+02 +3.157831E+00 +5.385155E+00 +3.157831E+00 +3.315916E+02 
 +8.555438E+02 +8.191226E+00 +4.794959E+00 +8.191226E+00 +4.794816E+02 -2.306925E+00 +4.794959E+00 -2.306925E+00 +3.526230E+02 
 +8.624013E+02 +1.003553E+01 +7.718930E+00 +1.003553E+01 +4.873819E+02 -4.478949E-01 +7.718930E+00 -4.478949E-01 +3.633560E+02 
 +8.737345E+02 +4.717503E+00 +1.177346E+01 +4.717503E+00 +4.955328E+02 +9.485239E+00 +1.177346E+01 +9.485239E+00 +3.630128E+02 
 +8.713028E+02 +4.389746E+00 +1.425219E+01 +4.389746E+00 +4.974369E+02 +1.741612E+01 +1.425219E+01 +1.741612E+01 +3.640045E+02 
 +8.683613E+02 +2.453536E+00 +4.727384E+00 +2.453536E+00 +4.964469E+02 +1.915449E+01 +4.727384E+00 +1.915449E+01 +3.531976E+02 
 +8.650335E+02 +4.465309E+00 -1.583216E+01 +4.465309E+00 +4.906721E+02 +5.567353E+00 -1.583216E+01 +5.567353E+00 +3.392506E+02 
 +8.620183E+02 -6.785812E-02 -1.439016E+01 -6.785812E-02 +4.927723E+02 -6.491800E+00 -1.439016E+01 -6.491800E+00 +3.536777E+02 
 +8.525826E+02 -6.434042E+00 +1.411821E+00 -6.434042E+00 +4.899687E+02 -7.607474E+00 +1.411821E+00 -7.607474E+00 +3.695873E+02 
 +8.510403E+02 -4.226592E+00 -5.215594E-01 -4.226592E+00 +4.852550E+02 -9.685460E+00 -5.215594E-01 -9.685460E+00 +3.756310E+02 
 +8.497763E+02 -3.135393E+00 +2.825639E-01 -3.135393E+00 +4.830956E+02 -1.068637E+01 +2.825639E-01 -1.068637E+01 +3.704889E+02 
 +8.443447E+02 -3.752434E+00 -3.625255E-01 -3.752434E+00 +4.841262E+02 -1.625756E+01 -3.625255E-01 -1.625756E+01 +3.514917E+02 
 +8.351170E+02 +4.322178E+00 +2.413489E+00 +4.322178E+00 +4.876242E+02 -9.758519E+00 +2.413489E+00 -9.758519E+00 +3.322762E+02 
 +8.772144E+02 +5.043728E+00 -5.805599E+00 +5.043728E+00 +5.226322E+02 +2.884543E+00 -5.805599E+00 +2.884543E+00 +3.446389E+02 
 +8.767486E+02 +1.736144E+00 -4.410215E+00 +1.736144E+00 +5.269244E+02 +7.794670E+00 -4.410215E+00 +7.794670E+00 +3.465426E+02 
 +8.751481E+02 -1.820641E+00 -1.177988E+01 -1.820641E+00 +5.160212E+02 +1.514463E+01 -1.177988E+01 +1.514463E+01 +3.417684E+02 
 +8.663616E+02 -6.480927E+00 -8.734687E+00 -6.480927E+00 +4.927016E+02 +2.160690E+01 -8.734687E+00 +2.160690E+01 +3.274842E+02 
 +8.613065E+02 -8.553928E+00 +1.046734E+00 -8.553928E+00 +4.803530E+02 +2.308840E+01 +1.046734E+00 +2.308840E+01 +3.208372E+02 
 +8.639636E+02 -7.198826E+00 +1.118209E+01 -7.198826E+00 +4.877565E+02 +1.112039E+01 +1.118209E+01 +1.112039E+01 +3.281029E+02 
 +8.579396E+02 -3.362094E+00 +4.664534E+00 -3.362094E+00 +4.928594E+02 -3.871303E+00 +4.664534E+00 -3.871303E+00 +3.311320E+02 
 +8.528902E+02 +3.605104E+00 +3.839233E+00 +3.605104E+00 +4.896996E+02 -1.222776E+01 +3.839233E+00 -1.222776E+01 +3.211152E+02 
 +8.565588E+02 +3.069800E+00 +4.198032E+00 +3.069800E+00 +4.876918E+02 -5.773935E+00 +4.198032E+00 -5.773935E+00 +3.146316E+02 
 +8.594991E+02 +8.137523E-01 +6.102805E+00 +8.137523E-01 +4.917678E+02 +4.487639E-01 +6.102805E+00 +4.487639E-01 +3.323486E+02 
 +8.492545E+02 +6.353793E+00 +1.313405E+01 +6.353793E+00 +4.803517E+02 +2.966238E+00 +1.313405E+01 +2.966238E+00 +3.330847E+02 
 +8.552627E+02 +5.730788E+00 +1.843123E+01 +5.730788E+00 +4.811723E+02 +1.200221E+01 +1.843123E+01 +1.200221E+01 +3.256753E+02 
 +8.621356E+02 +5.844734E+00 +3.658614E+00 +5.844734E+00 +4.963517E+02 +1.050493E+01 +3.658614E+00 +1.050493E+01 +3.425371E+02 
 +8.662601E+02 +9.666696E-01 -4.307467E+00 +9.666696E-01 +5.065022E+02 +4.774288E+00 -4.307467E+00 +4.774288E+00 +3.538389E+02 
 +8.720333E+02 +6.318222E-01 -8.925210E+00 +6.318222E-01 +5.039167E+02 -4.380669E-02 -8.925210E+00 -4.380669E-02 +3.604934E+02 
 +8.543650E+02 -1.605396E+00 +4.309285E-01 -1.605396E+00 +4.865547E+02 -5.126095E+00 +4.309285E-01 -5.126095E+00 +3.789715E+02 
 +8.482942E+02 -6.037476E+00 +7.196883E+00 -6.037476E+00 +4.826841E+02 -8.777514E+00 +7.196883E+00 -8.777514E+00 +3.925482E+02 
 +8.462712E+02 -1.696358E+00 +7.264595E+00 -1.696358E+00 +4.826804E+02 -1.180920E+01 +7.264595E+00 -1.180920E+01 +3.925874E+02 
 +8.430679E+02 +1.296338E+00 +7.126787E+00 +1.296338E+00 +4.802850E+02 -1.470670E+01 +7.126787E+00 -1.470670E+01 +3.891702E+02 
 +8.465148E+02 +2.070717E+00 +6.257069E+00 +2.070717E+00 +4.857938E+02 -2.217411E+01 +6.257069E+00 -2.217411E+01 +3.769168E+02 
 +8.677793E+02 +6.989101E+00 +1.260360E+01 +6.989101E+00 +5.102781E+02 -2.037067E+01 +1.260360E+01 -2.037067E+01 +3.743400E+02 
 +9.042364E+02 +3.731640E+00 +1.132912E+00 +3.731640E+00 +5.404642E+02 -4.085397E+00 +1.132912E+00 -4.085397E+00 +3.883223E+02 
 +8.935242E+02 -9.379009E-01 +9.207148E-01 -9.379009E-01 +5.319114E+02 +6.651096E+00 +9.207148E-01 +6.651096E+00 +3.810112E+02 
 +8.834388E+02 -4.786563E+00 -3.311081E+00 -4.786563E+00 +5.132525E+02 +1.534782E+01 -3.311081E+00 +1.534782E+01 +3.741947E+02 
 +8.758458E+02 -6.113342E+00 -5.467250E+00 -6.113342E+00 +4.957575E+02 +2.132363E+01 -5.467250E+00 +2.132363E+01 +3.590207E+02 
 +8.744309E+02 -6.134154E+00 +2.663867E-01 -6.134154E+00 +4.887708E+02 +1.903532E+01 +2.663867E-01 +1.903532E+01 +3.354898E+02 
 +8.689983E+02 -5.576633E+00 +2.362763E+00 -5.576633E+00 +4.885287E+02 +1.042862E+01 +2.362763E+00 +1.042862E+01 +3.267165E+02 
 +8.550621E+02 -5.049681E+00 -1.504381E+00 -5.049681E+00 +4.870299E+02 -3.128980E+00 -1.504381E+00 -3.128980E+00 +3.268988E+02 
 +8.513991E+02 -2.118149E+00 +3.075877E+00 -2.118149E+00 +4.842094E+02 -2.764287E+00 +3.075877E+00 -2.764287E+00 +3.163742E+02 
 +8.518993E+02 -3.328219E-01 +3.850874E+00 -3.328219E-01 +4.828811E+02 +8.331539E-01 +3.850874E+00 +8.331539E-01 +3.034177E+02 
 +8.553390E+02 +9.955379E-01 +9.819957E+00 +9.955379E-01 +4.894070E+02 -1.659569E+00 +9.819957E+00 -1.659569E+00 +3.058737E+02 
 +8.478900E+02 +9.318198E-01 +2.115802E+01 +9.318198E-01 +4.862377E+02 -5.274524E-01 +2.115802E+01 -5.274524E-01 +3.068604E+02 
 +8.433596E+02 +2.112494E+00 +2.270659E+01 +2.112494E+00 +4.768600E+02 +3.415396E+00 +2.270659E+01 +3.415396E+00 +3.066072E+02 
 +8.563846E+02 +5.510572E+00 -4.393738E+00 +5.510572E+00 +4.879028E+02 +1.109233E+01 -4.393738E+00 +1.109233E+01 +3.357650E+02 
 +8.549575E+02 +1.291896E+00 -4.572710E+00 +1.291896E+00 +4.896394E+02 +2.154334E+01 -4.572710E+00 +2.154334E+01 +3.537439E+02 
 +8.664530E+02 -1.995159E+00 -5.734446E-01 -1.995159E+00 +4.967993E+02 +1.920183E+01 -5.734446E-01 +1.920183E+01 +3.734693E+02 
 +8.589272E+02 -2.249868E+00 +7.244269E+00 -2.249868E+00 +4.940068E+02 +3.338903E+00 +7.244269E+00 +3.338903E+00 +3.922794E+02 
 +8.492343E+02 -2.016607E+00 +9.124432E+00 -2.016607E+00 +4.874397E+02 -5.770122E+00 +9.124432E+00 -5.770122E+00 +3.985131E+02 
 +8.421655E+02 +1.099996E+00 +1.064424E+01 +1.099996E+00 +4.810529E+02 -4.718879E+00 +1.064424E+01 -4.718879E+00 +3.957910E+02 
 +8.385724E+02 +6.709754E+00 +1.132185E+01 +6.709754E+00 +4.800872E+02 -6.551839E+00 +1.132185E+01 -6.551839E+00 +3.973675E+02 
 +8.406968E+02 +1.095374E+01 +1.490415E+01 +1.095374E+01 +4.831114E+02 -3.146906E+00 +1.490415E+01 -3.146906E+00 +3.907534E+02 
 +8.702937E+02 +1.469108E+01 +1.674683E+01 +1.469108E+01 +4.897516E+02 +1.252970E+01 +1.674683E+01 +1.252970E+01 +3.895904E+02 
 +8.888849E+02 +1.012799E+01 +7.946794E+00 +1.012799E+01 +4.904699E+02 +2.619998E+01 +7.946794E+00 +2.619998E+01 +3.985659E+02 
 +8.849086E+02 +3.302710E+00 +1.803725E+00 +3.302710E+00 +4.889805E+02 +1.768124E+01 +1.803725E+00 +1.768124E+01 +3.812785E+02 
 +8.779273E+02 -1.343911E+00 +4.020472E+00 -1.343911E+00 +4.939263E+02 +1.085459E+00 +4.020472E+00 +1.085459E+00 +3.493833E+02 
 +8.750865E+02 -3.022694E+00 -5.406616E-05 -3.022694E+00 +4.996408E+02 +9.660044E+00 -5.406616E-05 +9.660044E+00 +3.399751E+02 
 +8.803531E+02 -2.765922E+00 -2.427535E+00 -2.765922E+00 +5.041613E+02 +1.904539E+01 -2.427535E+00 +1.904539E+01 +3.393423E+02 
 +8.729831E+02 -4.582088E+00 -5.802798E+00 -4.582088E+00 +5.000965E+02 +8.665612E+00 -5.802798E+00 +8.665612E+00 +3.353885E+02 
 +8.536053E+02 -5.382689E+00 +3.649650E+00 -5.382689E+00 +4.905935E+02 -7.350924E+00 +3.649650E+00 -7.350924E+00 +3.178488E+02 
 +8.564188E+02 -7.807892E-01 +8.346399E+00 -7.807892E-01 +4.917924E+02 -2.050513E+00 +8.346399E+00 -2.050513E+00 +3.186242E+02 
 +8.567918E+02 -9.060842E-01 +5.192196E+00 -9.060842E-01 +4.893235E+02 +1.327409E+00 +5.192196E+00 +1.327409E+00 +3.047790E+02 
 +8.515069E+02 +5.455952E-01 +1.396652E+01 +5.455952E-01 +4.851429E+02 +4.211052E+00 +1.396652E+01 +4.211052E+00 +2.868816E+02 
 +8.427311E+02 -1.490936E+00 +2.231200E+01 -1.490936E+00 +4.823202E+02 +1.870201E+00 +2.231200E+01 +1.870201E+00 +2.797012E+02 
 +8.461669E+02 +2.262037E+00 +1.753606E+01 +2.262037E+00 +4.817963E+02 +1.423388E+00 +1.753606E+01 +1.423388E+00 +3.038121E+02 
 +8.558005E+02 +8.459181E+00 +2.854138E-01 +8.459181E+00 +4.852465E+02 +1.299013E+01 +2.854138E-01 +1.299013E+01 +3.512290E+02 
 +8.587342E+02 +2.036632E+00 +4.859942E+00 +2.036632E+00 +4.899405E+02 +1.845724E+01 +4.859942E+00 +1.845724E+01 +3.709707E+02 
 +8.583831E+02 -6.001783E-02 +2.907158E+00 -6.001783E-02 +4.891370E+02 +1.731012E+01 +2.907158E+00 +1.731012E+01 +3.734174E+02 
 +8.524908E+02 -1.221007E+00 +5.805790E+00 -1.221007E+00 +4.842628E+02 +1.291640E+01 +5.805790E+00 +1.291640E+01 +3.812366E+02 
 +8.410228E+02 -1.359790E+00 +8.383781E+00 -1.359790E+00 +4.805590E+02 +5.644232E+00 +8.383781E+00 +5.644232E+00 +3.913706E+02 
 +8.368176E+02 +9.465437E-01 +1.335593E+01 +9.465437E-01 +4.798248E+02 +3.151316E+00 +1.335593E+01 +3.151316E+00 +3.933560E+02 
 +8.328886E+02 +7.240939E+00 +1.734251E+01 +7.240939E+00 +4.766317E+02 +2.045534E+00 +1.734251E+01 +2.045534E+00 +3.919026E+02 
 +8.392031E+02 +1.310294E+01 +1.989597E+01 +1.310294E+01 +4.745307E+02 +4.339192E+00 +1.989597E+01 +4.339192E+00 +3.876924E+02 
 +8.753773E+02 +1.516098E+01 +1.557564E+01 +1.516098E+01 +4.855983E+02 +1.681700E+01 +1.557564E+01 +1.681700E+01 +3.914799E+02 
 +8.865026E+02 +1.135751E+01 +9.835352E+00 +1.135751E+01 +4.842920E+02 +2.429944E+01 +9.835352E+00 +2.429944E+01 +3.971007E+02 
 +8.831442E+02 +9.307619E+00 -1.202510E+00 +9.307619E+00 +4.773591E+02 +1.168236E+01 -1.202510E+00 +1.168236E+01 +3.683767E+02 
 +8.788440E+02 +7.688335E+00 -2.046440E+00 +7.688335E+00 +4.867806E+02 -1.368962E+01 -2.046440E+00 -1.368962E+01 +3.277993E+02 
 +8.830157E+02 +1.619806E+00 +3.276792E+00 +1.619806E+00 +5.162743E+02 -2.565148E+01 +3.276792E+00 -2.565148E+01 +3.340466E+02 
 +8.887459E+02 -1.762038E+00 +2.285375E-01 -1.762038E+00 +5.325515E+02 -2.468463E+01 +2.285375E-01 -2.468463E+01 +3.503705E+02 
 +8.669606E+02 -8.871058E+00 -5.362185E+00 -8.871058E+00 +5.088346E+02 -1.674732E+01 -5.362185E+00 -1.674732E+01 +3.333845E+02 
 +8.530121E+02 -5.728009E+00 +9.231614E+00 -5.728009E+00 +4.972987E+02 -4.926903E+00 +9.231614E+00 -4.926903E+00 +3.106910E+02 
 +8.512071E+02 -5.570108E+00 +1.406572E+01 -5.570108E+00 +4.926526E+02 -2.633784E+00 +1.406572E+01 -2.633784E+00 +3.028940E+02 
 +8.507702E+02 -5.139248E+00 +1.561643E+01 -5.139248E+00 +4.898963E+02 +1.587814E+00 +1.561643E+01 +1.587814E+00 +2.959746E+02 
 +8.567870E+02 -4.818840E+00 +1.754630E+01 -4.818840E+00 +4.963393E+02 +4.175430E+00 +1.754630E+01 +4.175430E+00 +2.945716E+02 
 +8.602749E+02 -8.557604E+00 +1.240912E+01 -8.557604E+00 +4.934141E+02 +1.817001E+00 +1.240912E+01 +1.817001E+00 +2.884757E+02 
 +8.627809E+02 -5.674551E+00 +7.254145E+00 -5.674551E+00 +4.918940E+02 +3.564588E+00 +7.254145E+00 +3.564588E+00 +3.064040E+02 
 +8.545639E+02 +5.057973E+00 +4.118289E+00 +5.057973E+00 +4.876823E+02 +1.708182E+01 +4.118289E+00 +1.708182E+01 +3.464322E+02 
 +8.516965E+02 +3.265022E+00 +9.848596E+00 +3.265022E+00 +4.811232E+02 +2.390965E+01 +9.848596E+00 +2.390965E+01 +3.626913E+02 
 +8.519663E+02 -4.024743E-01 +6.584577E+00 -4.024743E-01 +4.817193E+02 +2.146659E+01 +6.584577E+00 +2.146659E+01 +3.667970E+02 
 +8.491007E+02 -1.128911E+00 +6.890327E+00 -1.128911E+00 +4.864993E+02 +1.712705E+01 +6.890327E+00 +1.712705E+01 +3.812036E+02 
 +8.376995E+02 -1.502025E+00 +9.052205E+00 -1.502025E+00 +4.825642E+02 +1.310168E+01 +9.052205E+00 +1.310168E+01 +3.879565E+02 
 +8.290898E+02 +7.220219E-01 +1.681136E+01 +7.220219E-01 +4.772649E+02 +9.533267E+00 +1.681136E+01 +9.533267E+00 +3.876828E+02 
 +8.287064E+02 +5.696149E+00 +2.698926E+01 +5.696149E+00 +4.698471E+02 +9.035906E+00 +2.698926E+01 +9.035906E+00 +3.819997E+02 
 +8.358973E+02 +1.090900E+01 +2.035957E+01 +1.090900E+01 +4.590451E+02 +1.600438E+01 +2.035957E+01 +1.600438E+01 +3.722911E+02 
 +8.747389E+02 +1.369554E+01 +9.164540E+00 +1.369554E+01 +4.732240E+02 +2.906699E+01 +9.164540E+00 +2.906699E+01 +3.893639E+02 
 +8.892961E+02 +1.485431E+01 +4.478334E+00 +1.485431E+01 +4.851676E+02 +2.193448E+01 +4.478334E+00 +2.193448E+01 +3.867332E+02 
 +8.846875E+02 +1.562470E+01 -2.298698E+00 +1.562470E+01 +4.897615E+02 -6.117226E+00 -2.298698E+00 -6.117226E+00 +3.432711E+02 
 +8.779473E+02 +1.190288E+01 -4.971174E+00 +1.190288E+01 +4.884863E+02 -1.755943E+01 -4.971174E+00 -1.755943E+01 +3.151641E+02 
 +8.754793E+02 +5.721018E+00 -1.890763E+00 +5.721018E+00 +4.996361E+02 -1.605894E+01 -1.890763E+00 -1.605894E+01 +3.265719E+02 
 +8.745056E+02 -3.171675E+00 +1.859257E+00 -3.171675E+00 +5.174736E+02 -1.394929E+01 +1.859257E+00 -1.394929E+01 +3.428286E+02 
 +8.566600E+02 -1.389472E+01 +1.242324E+00 -1.389472E+01 +5.057856E+02 -8.525936E+00 +1.242324E+00 -8.525936E+00 +3.280091E+02 
 +8.529162E+02 -4.600032E+00 -4.421530E+00 -4.600032E+00 +5.078830E+02 -6.055062E-01 -4.421530E+00 -6.055062E-01 +3.757736E+02 
 +8.593356E+02 -8.048989E+00 +1.770449E+00 -8.048989E+00 +5.073477E+02 +9.408961E+00 +1.770449E+00 +9.408961E+00 +3.764600E+02 
 +8.569876E+02 -1.459577E+01 +6.811653E+00 -1.459577E+01 +4.994647E+02 +1.152216E+01 +6.811653E+00 +1.152216E+01 +3.618135E+02 
 +8.541473E+02 -1.362582E+01 +5.612004E+00 -1.362582E+01 +4.772851E+02 +3.189643E+00 +5.612004E+00 +3.189643E+00 +3.406651E+02 
 +8.647675E+02 -7.393435E+00 -3.851609E+00 -7.393435E+00 +4.629451E+02 -9.411224E+00 -3.851609E+00 -9.411224E+00 +3.292545E+02 
 +8.481234E+02 -3.215713E+00 +4.659254E+00 -3.215713E+00 +4.488756E+02 -1.154650E+01 +4.659254E+00 -1.154650E+01 +3.287555E+02 
 +8.367090E+02 -2.514385E+00 +7.150602E+00 -2.514385E+00 +4.496790E+02 -2.335250E+00 +7.150602E+00 -2.335250E+00 +3.453095E+02 
 +8.356606E+02 -1.090791E+01 +9.108012E+00 -1.090791E+01 +4.601580E+02 +6.718774E+00 +9.108012E+00 +6.718774E+00 +3.579655E+02 
 +8.477917E+02 -1.466491E+01 +9.092188E+00 -1.466491E+01 +4.741732E+02 +1.044665E+01 +9.092188E+00 +1.044665E+01 +3.711167E+02 
 +8.369397E+02 -1.500347E+01 +8.912972E+00 -1.500347E+01 +4.614641E+02 +7.681593E+00 +8.912972E+00 +7.681593E+00 +3.659979E+02 
 +8.407782E+02 -6.906027E+00 +1.331331E+01 -6.906027E+00 +4.663670E+02 +8.832982E+00 +1.331331E+01 +8.832982E+00 +3.688593E+02 
 +8.380374E+02 +5.151914E-01 +1.713354E+01 +5.151914E-01 +4.739396E+02 +1.115466E+01 +1.713354E+01 +1.115466E+01 +3.719218E+02 
 +8.363209E+02 +9.561976E+00 +2.016593E+01 +9.561976E+00 +4.751672E+02 +7.445135E+00 +2.016593E+01 +7.445135E+00 +3.721547E+02 
 +8.392709E+02 +1.436592E+01 +2.986428E+01 +1.436592E+01 +4.772637E+02 +1.059753E+01 +2.986428E+01 +1.059753E+01 +3.808994E+02 
 +8.514618E+02 +1.576702E+01 +1.219479E+01 +1.576702E+01 +4.686258E+02 +7.039725E+00 +1.219479E+01 +7.039725E+00 +3.752669E+02 
 +8.734600E+02 +1.422950E+01 -1.000763E+01 +1.422950E+01 +4.707979E+02 -1.035153E+01 -1.000763E+01 -1.035153E+01 +3.338763E+02 
 +8.906928E+02 +1.437434E+01 -9.390604E+00 +1.437434E+01 +4.953068E+02 -1.618301E+01 -9.390604E+00 -1.618301E+01 +3.200509E+02 
 +8.959145E+02 +1.210304E+01 -3.525715E+00 +1.210304E+01 +5.186490E+02 -1.778917E+01 -3.525715E+00 -1.778917E+01 +3.315175E+02 
 +8.859143E+02 +5.308594E+00 +1.196302E+00 +5.308594E+00 +5.153292E+02 -2.425231E+01 +1.196302E+00 -2.425231E+01 +3.109167E+02 
 +8.795482E+02 +6.447955E-01 +1.510066E+00 +6.447955E-01 +5.180507E+02 -2.481603E+01 +1.510066E+00 -2.481603E+01 +3.121390E+02 
 +8.636988E+02 -1.316940E+01 -5.770747E+00 -1.316940E+01 +5.197483E+02 -1.588971E+01 -5.770747E+00 -1.588971E+01 +3.521403E+02 
 +8.438061E+02 +3.133557E+00 +4.636235E+00 +3.133557E+00 +5.012423E+02 +2.689520E+00 +4.636235E+00 +2.689520E+00 +3.618603E+02 
 +8.596864E+02 +4.143180E+00 +9.397746E+00 +4.143180E+00 +5.125674E+02 +1.593154E+01 +9.397746E+00 +1.593154E+01 +3.690827E+02 
 +8.638114E+02 +1.558795E-03 +1.087131E+01 +1.558795E-03 +5.096029E+02 +1.597833E+01 +1.087131E+01 +1.597833E+01 +3.626106E+02 
 +8.610960E+02 -5.751541E+00 +4.741567E+00 -5.751541E+00 +4.913138E+02 +5.313948E+00 +4.741567E+00 +5.313948E+00 +3.586265E+02 
 +8.629101E+02 -5.406450E+00 -8.760833E+00 -5.406450E+00 +4.712598E+02 -5.346783E+00 -8.760833E+00 -5.346783E+00 +3.577933E+02 
 +8.518504E+02 -2.676353E+00 +1.815919E+00 -2.676353E+00 +4.710151E+02 -1.474129E+01 +1.815919E+00 -1.474129E+01 +3.562445E+02 
 +8.518212E+02 -3.810024E+00 +7.448187E+00 -3.810024E+00 +4.868106E+02 -8.581083E+00 +7.448187E+00 -8.581083E+00 +3.614278E+02 
 +8.526034E+02 -1.269958E+01 +8.218550E+00 -1.269958E+01 +4.869528E+02 +2.079792E+00 +8.218550E+00 +2.079792E+00 +3.680270E+02 
 +8.553386E+02 -1.698927E+01 +1.058692E+01 -1.698927E+01 +4.828965E+02 +8.534208E+00 +1.058692E+01 +8.534208E+00 +3.765565E+02 
 +8.440917E+02 -1.982143E+01 +9.074711E+00 -1.982143E+01 +4.732043E+02 +5.886163E+00 +9.074711E+00 +5.886163E+00 +3.681481E+02 
 +8.505890E+02 -8.349215E+00 +1.614268E+01 -8.349215E+00 +4.718186E+02 +4.968888E+00 +1.614268E+01 +4.968888E+00 +3.700535E+02 
 +8.429960E+02 -6.574846E+00 +1.888741E+01 -6.574846E+00 +4.619598E+02 +2.708521E+00 +1.888741E+01 +2.708521E+00 +3.703861E+02 
 +8.441511E+02 +7.267450E+00 +2.121879E+01 +7.267450E+00 +4.641511E+02 +5.981925E+00 +2.121879E+01 +5.981925E+00 +3.733374E+02 
 +8.608625E+02 +1.372161E+01 +2.504802E+01 +1.372161E+01 +4.793691E+02 +7.419633E+00 +2.504802E+01 +7.419633E+00 +3.964985E+02 
 +8.633624E+02 +1.478309E+01 -3.686377E+00 +1.478309E+01 +4.836073E+02 +1.625311E+00 -3.686377E+00 +1.625311E+00 +4.213761E+02 
 +8.673758E+02 +1.710779E+01 -1.819744E+01 +1.710779E+01 +4.719505E+02 -1.338084E+00 -1.819744E+01 -1.338084E+00 +3.823574E+02 
 +8.822745E+02 +1.881767E+01 -1.919903E+01 +1.881767E+01 +4.645120E+02 +4.842121E+00 -1.919903E+01 +4.842121E+00 +3.393529E+02 
 +8.680515E+02 +1.650550E+01 -1.542239E+01 +1.650550E+01 +4.638407E+02 +2.782489E+00 -1.542239E+01 +2.782489E+00 +3.309795E+02 
 +8.659617E+02 +6.597481E+00 -8.343065E+00 +6.597481E+00 +4.794120E+02 -1.294346E+01 -8.343065E+00 -1.294346E+01 +3.021990E+02 
 +8.611083E+02 +2.505929E+00 +9.280518E-01 +2.505929E+00 +4.891492E+02 -2.181374E+01 +9.280518E-01 -2.181374E+01 +2.956303E+02 
 +8.532195E+02 -1.237871E+01 -3.432857E+00 -1.237871E+01 +4.957018E+02 -1.263182E+01 -3.432857E+00 -1.263182E+01 +3.380130E+02 
 +8.594222E+02 +1.835732E+00 +9.417563E+00 +1.835732E+00 +5.098892E+02 +2.407530E+00 +9.417563E+00 +2.407530E+00 +3.726253E+02 
 +8.686205E+02 -5.955463E-01 +1.309895E+01 -5.955463E-01 +5.125444E+02 +1.460645E+01 +1.309895E+01 +1.460645E+01 +3.799073E+02 
 +8.789083E+02 -4.759297E-01 +1.314028E+01 -4.759297E-01 +5.128736E+02 +1.983141E+01 +1.314028E+01 +1.983141E+01 +3.795552E+02 
 +8.854192E+02 -4.161485E+00 +3.306062E+00 -4.161485E+00 +5.280826E+02 +2.019908E+01 +3.306062E+00 +2.019908E+01 +3.865727E+02 
 +8.497478E+02 -2.394642E+00 -8.227062E+00 -2.394642E+00 +5.105862E+02 +1.510349E+01 -8.227062E+00 +1.510349E+01 +3.795313E+02 
 +8.437201E+02 +4.001565E+00 -4.511222E+00 +4.001565E+00 +4.952506E+02 +7.112005E+00 -4.511222E+00 +7.112005E+00 +3.735144E+02 
 +8.632439E+02 +7.651739E-01 +3.067725E+00 +7.651739E-01 +4.932486E+02 +2.562624E+00 +3.067725E+00 +2.562624E+00 +3.685441E+02 
 +8.691133E+02 -2.570769E+00 +5.664373E+00 -2.570769E+00 +4.922412E+02 +9.427370E+00 +5.664373E+00 +9.427370E+00 +3.747125E+02 
 +8.470446E+02 -8.216450E+00 +1.216862E+01 -8.216450E+00 +4.688811E+02 +9.740623E+00 +1.216862E+01 +9.740623E+00 +3.717527E+02 
 +8.285456E+02 -6.855075E+00 +1.154857E+01 -6.855075E+00 +4.502295E+02 +5.411173E+00 +1.154857E+01 +5.411173E+00 +3.643213E+02 
 +8.376743E+02 -2.980479E+00 +1.766537E+01 -2.980479E+00 +4.593832E+02 +4.130139E+00 +1.766537E+01 +4.130139E+00 +3.643574E+02 
 +8.505552E+02 -3.696716E+00 +1.516350E+01 -3.696716E+00 +4.669992E+02 +4.991228E+00 +1.516350E+01 +4.991228E+00 +3.662323E+02 
 +8.579990E+02 +8.557533E+00 +1.441327E+01 +8.557533E+00 +4.726045E+02 +2.667603E+00 +1.441327E+01 +2.667603E+00 +3.637709E+02 
 +8.880210E+02 +8.945686E+00 +6.689815E+00 +8.945686E+00 +4.910131E+02 -5.239165E+00 +6.689815E+00 -5.239165E+00 +3.855380E+02 
 +8.626394E+02 +1.195325E+01 -8.057110E+00 +1.195325E+01 +4.845000E+02 -6.131677E+00 -8.057110E+00 -6.131677E+00 +4.244479E+02 
 +8.772946E+02 +1.577050E+01 -1.524286E+01 +1.577050E+01 +4.879579E+02 -8.067523E+00 -1.524286E+01 -8.067523E+00 +4.356345E+02 
 +8.853618E+02 +1.828270E+01 -2.326121E+01 +1.828270E+01 +4.832361E+02 -1.004857E+01 -2.326121E+01 -1.004857E+01 +3.982433E+02 
 +8.743083E+02 +1.300429E+01 -2.693893E+01 +1.300429E+01 +4.726164E+02 -7.614661E+00 -2.693893E+01 -7.614661E+00 +3.610836E+02 
 +8.633318E+02 +5.613712E+00 -2.240527E+01 +5.613712E+00 +4.578585E+02 -4.368032E+00 -2.240527E+01 -4.368032E+00 +3.322829E+02 
 +8.562920E+02 -1.237979E-01 -1.096527E+01 -1.237979E-01 +4.604320E+02 -3.451667E+00 -1.096527E+01 -3.451667E+00 +3.385703E+02 
 +8.679776E+02 -1.191833E+01 -5.926196E+00 -1.191833E+01 +4.921088E+02 -5.946000E+00 -5.926196E+00 -5.946000E+00 +3.626227E+02 
 +8.730794E+02 -1.494873E+00 +2.474450E+00 -1.494873E+00 +5.009506E+02 +6.858155E+00 +2.474450E+00 +6.858155E+00 +3.822242E+02 
 +8.777379E+02 -9.012759E+00 +6.509165E+00 -9.012759E+00 +5.088414E+02 +6.718819E+00 +6.509165E+00 +6.718819E+00 +3.891257E+02 
 +8.775971E+02 -8.644015E+00 +1.109380E+01 -8.644015E+00 +5.030045E+02 +1.458694E+01 +1.109380E+01 +1.458694E+01 +3.791341E+02 
 +8.837035E+02 -1.056830E+01 +7.944292E+00 -1.056830E+01 +5.103215E+02 +2.400227E+01 +7.944292E+00 +2.400227E+01 +3.734101E+02 
 +8.322674E+02 -5.209886E+00 +1.297382E+00 -5.209886E+00 +5.040464E+02 +1.577579E+01 +1.297382E+00 +1.577579E+01 +3.637906E+02 
 +8.105978E+02 +3.766713E-01 -4.807138E+00 +3.766713E-01 +4.765852E+02 +6.735151E+00 -4.807138E+00 +6.735151E+00 +3.673746E+02 
 +8.453080E+02 -1.821634E-01 -6.688109E+00 -1.821634E-01 +4.554518E+02 -4.481151E+00 -6.688109E+00 -4.481151E+00 +3.718014E+02 
 +8.731224E+02 -2.308547E+00 -3.738616E+00 -2.308547E+00 +4.670984E+02 -5.607408E+00 -3.738616E+00 -5.607408E+00 +3.746345E+02 
 +8.508201E+02 -1.108593E+01 +9.578646E+00 -1.108593E+01 +4.770702E+02 +5.629755E-01 +9.578646E+00 +5.629755E-01 +3.675057E+02 
 +8.299002E+02 -1.037379E+01 +1.660758E+01 -1.037379E+01 +4.819813E+02 +7.728054E-01 +1.660758E+01 +7.728054E-01 +3.754291E+02 
 +8.576924E+02 -5.981202E+00 +1.539314E+01 -5.981202E+00 +4.936582E+02 -6.337186E+00 +1.539314E+01 -6.337186E+00 +3.836322E+02 
 +8.769186E+02 +2.350019E+00 +5.071998E+00 +2.350019E+00 +5.062372E+02 -9.065690E+00 +5.071998E+00 -9.065690E+00 +3.764507E+02 
 +8.743266E+02 +9.950658E+00 +4.005811E-01 +9.950658E+00 +4.991157E+02 -7.026804E+00 +4.005811E-01 -7.026804E+00 +3.597812E+02 
 +8.906534E+02 +6.679886E+00 -2.676268E-01 +6.679886E+00 +4.946342E+02 +5.336928E-02 -2.676268E-01 +5.336928E-02 +3.614093E+02 
 +8.751081E+02 +7.943967E+00 -4.418321E+00 +7.943967E+00 +4.895895E+02 +4.686657E+00 -4.418321E+00 +4.686657E+00 +4.007013E+02 
 +8.708789E+02 +1.223893E+01 -1.680761E+01 +1.223893E+01 +4.939490E+02 -3.906071E+00 -1.680761E+01 -3.906071E+00 +4.316444E+02 
 +8.632775E+02 +1.651627E+01 -1.901647E+01 +1.651627E+01 +4.816058E+02 -5.596704E+00 -1.901647E+01 -5.596704E+00 +4.096936E+02 
 +8.725265E+02 +1.216554E+01 -2.229778E+01 +1.216554E+01 +4.663323E+02 -1.386457E+00 -2.229778E+01 -1.386457E+00 +3.735634E+02 
 +8.610652E+02 +6.685934E+00 -2.267153E+01 +6.685934E+00 +4.549406E+02 +1.044774E+00 -2.267153E+01 +1.044774E+00 +3.488404E+02 
 +8.606050E+02 -4.253950E-01 -1.443058E+01 -4.253950E-01 +4.598491E+02 +6.097473E+00 -1.443058E+01 +6.097473E+00 +3.570289E+02 
 +8.626260E+02 -6.550009E+00 -1.192706E+01 -6.550009E+00 +4.746443E+02 +8.563880E+00 -1.192706E+01 +8.563880E+00 +3.652279E+02 
 +8.721315E+02 -4.617729E+00 -9.756589E+00 -4.617729E+00 +4.768226E+02 +8.472330E+00 -9.756589E+00 +8.472330E+00 +3.787643E+02 
 +8.701200E+02 -1.056237E+01 -4.462707E+00 -1.056237E+01 +4.822926E+02 +1.136223E+01 -4.462707E+00 +1.136223E+01 +3.764808E+02 
 +8.691686E+02 -1.383427E+01 +9.145258E+00 -1.383427E+01 +4.939556E+02 +3.576174E+01 +9.145258E+00 +3.576174E+01 +3.595584E+02 
 +8.718389E+02 -1.306734E+01 +1.266079E+01 -1.306734E+01 +5.013115E+02 +5.554442E+01 +1.266079E+01 +5.554442E+01 +3.550061E+02 
 +8.501469E+02 -9.296244E+00 +1.315108E+01 -9.296244E+00 +4.971953E+02 +5.032660E+01 +1.315108E+01 +5.032660E+01 +3.624785E+02 
 +8.234775E+02 -8.270764E+00 +4.393684E+00 -8.270764E+00 +4.910308E+02 +3.641134E+01 +4.393684E+00 +3.641134E+01 +3.742089E+02 
 +8.384176E+02 -3.598435E+00 -9.170976E+00 -3.598435E+00 +4.862148E+02 +1.897391E+01 -9.170976E+00 +1.897391E+01 +3.722653E+02 
 +8.760127E+02 -3.366536E+00 -8.391505E+00 -3.366536E+00 +4.833516E+02 -4.742807E-01 -8.391505E+00 -4.742807E-01 +3.676486E+02 
 +8.358349E+02 -1.341296E+01 +8.327094E+00 -1.341296E+01 +4.630821E+02 +1.243276E+00 +8.327094E+00 +1.243276E+00 +3.497668E+02 
 +8.257828E+02 -1.282675E+01 +1.330450E+01 -1.282675E+01 +4.689875E+02 +5.188186E+00 +1.330450E+01 +5.188186E+00 +3.547843E+02 
 +8.717973E+02 +1.454096E+00 +2.479082E+00 +1.454096E+00 +5.024333E+02 -1.516321E+00 +2.479082E+00 -1.516321E+00 +3.724530E+02 
 +8.759262E+02 +7.184153E+00 -9.181194E-01 +7.184153E+00 +5.055922E+02 -4.119237E+00 -9.181194E-01 -4.119237E+00 +3.661617E+02 
 +8.756043E+02 +6.150281E+00 -2.310761E-01 +6.150281E+00 +4.991910E+02 +1.160299E-01 -2.310761E-01 +1.160299E-01 +3.590855E+02 
 +8.841243E+02 +3.971955E+00 +2.326490E+00 +3.971955E+00 +5.010628E+02 +2.444379E+00 +2.326490E+00 +2.444379E+00 +3.600510E+02 
 +8.886255E+02 +5.742368E-01 -2.738890E+00 +5.742368E-01 +5.057933E+02 +1.675587E+00 -2.738890E+00 +1.675587E+00 +3.869350E+02 
 +8.587473E+02 +5.409500E+00 -1.795470E+01 +5.409500E+00 +4.886080E+02 +6.079212E+00 -1.795470E+01 +6.079212E+00 +3.962878E+02 
 +8.562798E+02 +1.333584E+01 -1.286139E+01 +1.333584E+01 +4.779729E+02 +7.008776E+00 -1.286139E+01 +7.008776E+00 +3.909974E+02 
 +8.654884E+02 +1.195015E+01 -1.142613E+01 +1.195015E+01 +4.752961E+02 +2.146919E+00 -1.142613E+01 +2.146919E+00 +3.802003E+02 
 +8.480412E+02 +4.477843E+00 -1.588154E+01 +4.477843E+00 +4.574413E+02 +4.096909E+00 -1.588154E+01 +4.096909E+00 +3.421522E+02 
 +8.529274E+02 -3.669613E+00 -8.947681E+00 -3.669613E+00 +4.618701E+02 +5.986953E+00 -8.947681E+00 +5.986953E+00 +3.272968E+02 
 +8.639216E+02 -6.928484E+00 -1.230491E+01 -6.928484E+00 +4.758816E+02 +9.300245E+00 -1.230491E+01 +9.300245E+00 +3.511077E+02 
 +8.551191E+02 -1.079822E+00 -6.760976E+00 -1.079822E+00 +4.440567E+02 +1.970255E+01 -6.760976E+00 +1.970255E+01 +3.694360E+02 
 +8.596036E+02 -3.072888E+00 -3.703938E+00 -3.072888E+00 +4.572221E+02 +3.303060E+01 -3.703938E+00 +3.303060E+01 +3.684547E+02 
 +8.551338E+02 -9.279894E+00 +8.264015E+00 -9.279894E+00 +4.696792E+02 +4.743962E+01 +8.264015E+00 +4.743962E+01 +3.487421E+02 
 +8.527115E+02 -1.185241E+01 +1.701428E+01 -1.185241E+01 +4.801192E+02 +5.506325E+01 +1.701428E+01 +5.506325E+01 +3.456206E+02 
 +8.520034E+02 -1.202733E+01 +1.412485E+01 -1.202733E+01 +4.835753E+02 +4.425550E+01 +1.412485E+01 +4.425550E+01 +3.560422E+02 
 +8.367424E+02 -1.690918E+01 +4.184720E+00 -1.690918E+01 +4.719158E+02 +2.156820E+01 +4.184720E+00 +2.156820E+01 +3.525073E+02 
 +8.217123E+02 -3.065747E+00 -2.291008E+00 -3.065747E+00 +4.678499E+02 +7.240024E+00 -2.291008E+00 +7.240024E+00 +3.375370E+02 
 +8.507556E+02 +2.871580E+00 -1.906163E+00 +2.871580E+00 +4.916133E+02 +2.399748E+00 -1.906163E+00 +2.399748E+00 +3.440683E+02 
 +8.334292E+02 -2.529323E+00 +5.076128E+00 -2.529323E+00 +4.762572E+02 +5.603116E+00 +5.076128E+00 +5.603116E+00 +3.376750E+02 
 +8.599565E+02 -1.989118E+00 -2.206109E+00 -1.989118E+00 +4.959666E+02 +1.110208E+01 -2.206109E+00 +1.110208E+01 +3.451629E+02 
 +8.714636E+02 +2.747263E+00 -8.088760E+00 +2.747263E+00 +5.073469E+02 +7.076464E+00 -8.088760E+00 +7.076464E+00 +3.490488E+02 
 +8.691929E+02 +3.940022E+00 -4.143390E+00 +3.940022E+00 +5.023536E+02 +2.908444E+00 -4.143390E+00 +2.908444E+00 +3.527447E+02 
 +8.714437E+02 +3.776122E+00 +9.096409E-01 +3.776122E+00 +5.011249E+02 -1.387893E+00 +9.096409E-01 -1.387893E+00 +3.557014E+02 
 +8.743194E+02 +1.589008E+00 +6.027372E-02 +1.589008E+00 +5.000169E+02 -1.937739E+00 +6.027372E-02 -1.937739E+00 +3.569837E+02 
 +8.716184E+02 -2.929170E+00 -4.437107E+00 -2.929170E+00 +4.980282E+02 -2.319361E+00 -4.437107E+00 -2.319361E+00 +3.638685E+02 
 +8.671658E+02 +1.089128E+00 -1.116902E+01 +1.089128E+00 +4.936140E+02 -1.788168E+00 -1.116902E+01 -1.788168E+00 +3.672508E+02 
 +8.589100E+02 +6.697377E+00 -6.026354E+00 +6.697377E+00 +4.824902E+02 +2.319616E+00 -6.026354E+00 +2.319616E+00 +3.654568E+02 
 +8.425850E+02 +8.541228E+00 -5.582858E+00 +8.541228E+00 +4.702516E+02 +1.005887E+01 -5.582858E+00 +1.005887E+01 +3.725156E+02 
 +8.484400E+02 +4.533441E+00 -1.159607E+01 +4.533441E+00 +4.729671E+02 +1.594958E+01 -1.159607E+01 +1.594958E+01 +3.617403E+02 
 +8.584933E+02 -1.784412E+00 -9.247077E+00 -1.784412E+00 +4.594646E+02 +1.573179E+01 -9.247077E+00 +1.573179E+01 +3.405082E+02 
 +8.512286E+02 -2.335803E+00 -9.326743E+00 -2.335803E+00 +4.367885E+02 +1.330441E+01 -9.326743E+00 +1.330441E+01 +3.474700E+02 
 +8.517155E+02 -2.610302E+00 -2.528837E+00 -2.610302E+00 +4.435757E+02 +2.158946E+01 -2.528837E+00 +2.158946E+01 +3.567702E+02 
 +8.559171E+02 +1.354483E+00 -1.034093E+00 +1.354483E+00 +4.531680E+02 +2.869379E+01 -1.034093E+00 +2.869379E+01 +3.532823E+02 
 +8.549881E+02 -2.568677E+00 +1.180098E+01 -2.568677E+00 +4.687378E+02 +4.056010E+01 +1.180098E+01 +4.056010E+01 +3.500623E+02 
 +8.497197E+02 -8.790743E+00 +1.807832E+01 -8.790743E+00 +4.790192E+02 +3.604224E+01 +1.807832E+01 +3.604224E+01 +3.504637E+02 
 +8.447823E+02 -1.035511E+01 +7.264092E+00 -1.035511E+01 +4.756636E+02 +1.701259E+01 +7.264092E+00 +1.701259E+01 +3.397443E+02 
 +8.464933E+02 -1.951078E+01 +1.248747E+00 -1.951078E+01 +4.661813E+02 +1.074308E+01 +1.248747E+00 +1.074308E+01 +3.300745E+02 
 +8.322127E+02 -4.018322E+00 -3.228642E+00 -4.018322E+00 +4.655019E+02 +6.771992E+00 -3.228642E+00 +6.771992E+00 +3.297018E+02 
 +8.324779E+02 -3.058742E+00 -2.870786E+00 -3.058742E+00 +4.761393E+02 -2.646313E+00 -2.870786E+00 -2.646313E+00 +3.332481E+02 
 +8.401879E+02 +1.755545E+00 -2.219849E+00 +1.755545E+00 +4.883260E+02 -1.674361E+00 -2.219849E+00 -1.674361E+00 +3.374085E+02 
 +8.648465E+02 +1.324353E-02 -4.317505E+00 +1.324353E-02 +5.045817E+02 +5.397670E+00 -4.317505E+00 +5.397670E+00 +3.371361E+02 
 +8.584130E+02 +3.237353E-01 -1.114677E+01 +3.237353E-01 +4.969349E+02 +5.532486E+00 -1.114677E+01 +5.532486E+00 +3.257175E+02 
 +8.608971E+02 +1.241612E+00 -8.660318E+00 +1.241612E+00 +4.974620E+02 -5.322893E-01 -8.660318E+00 -5.322893E-01 +3.349596E+02 
 +8.623898E+02 +1.854051E+00 -3.181630E-01 +1.854051E+00 +4.961348E+02 -3.933166E+00 -3.181630E-01 -3.933166E+00 +3.427167E+02 
 +8.646028E+02 +7.699771E-01 +7.986756E-01 +7.699771E-01 +4.967220E+02 +8.234064E-02 +7.986756E-01 +8.234064E-02 +3.474712E+02 
 +8.603038E+02 -1.132589E+00 -5.050489E+00 -1.132589E+00 +4.916157E+02 +5.195729E+00 -5.050489E+00 +5.195729E+00 +3.481248E+02 
 +8.676672E+02 +2.043346E+00 -4.690560E+00 +2.043346E+00 +4.928311E+02 +7.150595E+00 -4.690560E+00 +7.150595E+00 +3.465790E+02 
 +8.528178E+02 +1.983978E-01 -8.099457E+00 +1.983978E-01 +4.809375E+02 +8.409209E+00 -8.099457E+00 +8.409209E+00 +3.505669E+02 
 +8.375006E+02 +4.982852E+00 -9.518930E+00 +4.982852E+00 +4.607935E+02 +1.086281E+01 -9.518930E+00 +1.086281E+01 +3.723837E+02 
 +8.342884E+02 +8.886437E+00 -6.367952E+00 +8.886437E+00 +4.267295E+02 +1.548925E+01 -6.367952E+00 +1.548925E+01 +3.667606E+02 
 +8.250690E+02 +1.315771E+00 -5.915451E+00 +1.315771E+00 +4.063598E+02 +1.634892E+01 -5.915451E+00 +1.634892E+01 +3.496114E+02 
 +8.543308E+02 -3.336465E+00 -7.182131E+00 -3.336465E+00 +4.391059E+02 +1.758136E+01 -7.182131E+00 +1.758136E+01 +3.633075E+02 
 +8.530517E+02 +1.439989E-01 -6.226808E+00 +1.439989E-01 +4.501847E+02 +1.801834E+01 -6.226808E+00 +1.801834E+01 +3.580338E+02 
 +8.490939E+02 +2.337463E-01 -8.716050E-01 +2.337463E-01 +4.423577E+02 +2.305076E+01 -8.716050E-01 +2.305076E+01 +3.623325E+02 
 +8.385219E+02 -8.877769E-01 +1.611965E+01 -8.877769E-01 +4.391627E+02 +1.855040E+01 +1.611965E+01 +1.855040E+01 +3.541008E+02 
 +8.417151E+02 -7.609064E+00 +1.606786E+01 -7.609064E+00 +4.646420E+02 +9.344275E+00 +1.606786E+01 +9.344275E+00 +3.403149E+02 
 +8.496318E+02 -1.552929E+01 +4.417323E+00 -1.552929E+01 +4.745550E+02 +3.279733E+00 +4.417323E+00 +3.279733E+00 +3.213790E+02 
 +8.500392E+02 -2.227505E+01 -6.797400E-01 -2.227505E+01 +4.750667E+02 +3.710415E+00 -6.797400E-01 +3.710415E+00 +3.258405E+02 
 +8.328946E+02 -7.018996E+00 -8.518151E+00 -7.018996E+00 +4.655380E+02 +1.211165E+00 -8.518151E+00 +1.211165E+00 +3.337086E+02 
 +8.426315E+02 -6.161685E+00 -1.374885E+01 -6.161685E+00 +4.712519E+02 +4.305541E-01 -1.374885E+01 +4.305541E-01 +3.391053E+02 
 +8.433917E+02 +9.421151E-02 -1.441751E+01 +9.421151E-02 +4.786213E+02 -1.617486E+00 -1.441751E+01 -1.617486E+00 +3.451012E+02 
 +8.492895E+02 -2.653859E+00 +2.070263E+00 -2.653859E+00 +4.826129E+02 -1.008914E+01 +2.070263E+00 -1.008914E+01 +3.370492E+02 
 +8.576318E+02 +1.842203E+00 -6.694252E+00 +1.842203E+00 +4.928015E+02 -1.283525E+01 -6.694252E+00 -1.283525E+01 +3.196743E+02 
 +8.581986E+02 +3.147506E-01 -8.825434E+00 +3.147506E-01 +4.990259E+02 -1.508401E+01 -8.825434E+00 -1.508401E+01 +3.254549E+02 
 +8.517164E+02 +2.694434E-01 +1.919028E+00 +2.694434E-01 +4.883419E+02 -1.915541E+01 +1.919028E+00 -1.915541E+01 +3.353575E+02 
 +8.486326E+02 +1.222223E-01 +4.107288E+00 +1.222223E-01 +4.753801E+02 -2.324881E+01 +4.107288E+00 -2.324881E+01 +3.300372E+02 
 +8.493545E+02 +6.754579E-01 -6.759582E-01 +6.754579E-01 +4.750430E+02 -2.130191E+01 -6.759582E-01 -2.130191E+01 +3.280847E+02 
 +8.487339E+02 +2.568829E+00 +5.134592E-01 +2.568829E+00 +4.744352E+02 -1.877475E+01 +5.134592E-01 -1.877475E+01 +3.253340E+02 
 +8.442499E+02 -1.308990E-01 -1.354206E+01 -1.308990E-01 +4.664610E+02 -1.137046E+01 -1.354206E+01 -1.137046E+01 +3.405166E+02 
 +8.437240E+02 +1.246054E+00 -1.463073E+01 +1.246054E+00 +4.526763E+02 +5.893063E+00 -1.463073E+01 +5.893063E+00 +3.707347E+02 
 +8.608837E+02 +4.937496E+00 +7.979176E-01 +4.937496E+00 +4.624224E+02 +1.343304E+01 +7.979176E-01 +1.343304E+01 +3.831011E+02 
 +8.371650E+02 +2.914555E+00 -1.372209E+00 +2.914555E+00 +4.611835E+02 +1.398130E+01 -1.372209E+00 +1.398130E+01 +3.685343E+02 
 +8.630035E+02 +9.271329E-02 -4.898071E+00 +9.271329E-02 +4.642112E+02 +1.397867E+01 -4.898071E+00 +1.397867E+01 +3.675148E+02 
 +8.536844E+02 -8.710471E-01 -5.420812E+00 -8.710471E-01 +4.571385E+02 +1.270065E+01 -5.420812E+00 +1.270065E+01 +3.746636E+02 
 +8.539044E+02 +1.367386E+00 +3.928682E+00 +1.367386E+00 +4.584793E+02 +8.478897E+00 +3.928682E+00 +8.478897E+00 +3.871740E+02 
 +8.481554E+02 +6.003746E+00 +1.016729E+01 +6.003746E+00 +4.633650E+02 -3.777620E+00 +1.016729E+01 -3.777620E+00 +3.849626E+02 
 +8.388516E+02 -1.989128E+00 +6.821448E+00 -1.989128E+00 +4.490772E+02 -1.152230E+01 +6.821448E+00 -1.152230E+01 +3.455875E+02 
 +8.518399E+02 -1.317090E+01 -2.892539E+00 -1.317090E+01 +4.637029E+02 -1.475244E+01 -2.892539E+00 -1.475244E+01 +3.268600E+02 
 +8.662718E+02 -2.097984E+01 -5.172109E+00 -2.097984E+01 +4.938902E+02 -1.585939E+01 -5.172109E+00 -1.585939E+01 +3.517746E+02 
 +8.403425E+02 -1.020816E+01 -2.028349E+00 -1.020816E+01 +4.733670E+02 -1.169174E+01 -2.028349E+00 -1.169174E+01 +3.402636E+02 
 +8.255473E+02 -7.412807E+00 -1.059235E+01 -7.412807E+00 +4.424009E+02 +1.059855E+00 -1.059235E+01 +1.059855E+00 +3.212981E+02 
 +8.252719E+02 -5.023902E+00 -1.639189E+01 -5.023902E+00 +4.309223E+02 +2.253988E+01 -1.639189E+01 +2.253988E+01 +3.321001E+02 
 +8.299391E+02 -3.256970E+00 -2.702901E+00 -3.256970E+00 +4.394593E+02 +2.728530E+01 -2.702901E+00 +2.728530E+01 +3.407420E+02 
 +8.341008E+02 -2.110484E+00 -1.264510E+00 -2.110484E+00 +4.441281E+02 +1.791016E+01 -1.264510E+00 +1.791016E+01 +3.255000E+02 
 +8.352214E+02 -5.625491E+00 -3.870146E+00 -5.625491E+00 +4.494927E+02 +6.825790E+00 -3.870146E+00 +6.825790E+00 +3.178807E+02 
 +8.395964E+02 -6.260623E+00 +1.103837E+00 -6.260623E+00 +4.650091E+02 -2.783764E+00 +1.103837E+00 -2.783764E+00 +3.290477E+02 
 +8.481561E+02 -1.972817E+00 +6.334599E+00 -1.972817E+00 +4.734097E+02 -1.663635E+01 +6.334599E+00 -1.663635E+01 +3.233041E+02 
 +8.469216E+02 +3.899761E-01 +2.443613E+00 +3.899761E-01 +4.752077E+02 -2.310738E+01 +2.443613E+00 -2.310738E+01 +3.149897E+02 
 +8.463364E+02 +8.546121E-01 +1.992992E+00 +8.546121E-01 +4.749218E+02 -2.405324E+01 +1.992992E+00 -2.405324E+01 +3.148444E+02 
 +8.450875E+02 -4.621828E+00 -2.063510E+00 -4.621828E+00 +4.649242E+02 -1.399279E+01 -2.063510E+00 -1.399279E+01 +3.220369E+02 
 +8.375382E+02 -6.918729E+00 -1.139616E+01 -6.918729E+00 +4.557658E+02 +5.185840E+00 -1.139616E+01 +5.185840E+00 +3.473571E+02 
 +8.450500E+02 +3.243111E-01 -5.108967E+00 +3.243111E-01 +4.530880E+02 +1.478505E+01 -5.108967E+00 +1.478505E+01 +3.609530E+02 
 +8.272354E+02 +1.025196E+00 -9.445126E-01 +1.025196E+00 +4.333640E+02 +1.413339E+01 -9.445126E-01 +1.413339E+01 +3.465292E+02 
 +8.523297E+02 +3.899140E-01 -3.317089E+00 +3.899140E-01 +4.557734E+02 +1.167178E+01 -3.317089E+00 +1.167178E+01 +3.631393E+02 
 +8.636570E+02 -2.788585E+00 +9.238042E+00 -2.788585E+00 +4.823648E+02 +2.497703E+01 +9.238042E+00 +2.497703E+01 +3.804185E+02 
 +8.716008E+02 +5.551281E+00 +6.379977E+00 +5.551281E+00 +5.015442E+02 +2.600812E+01 +6.379977E+00 +2.600812E+01 +3.726319E+02 
 +8.603569E+02 +7.313703E+00 -2.301979E+00 +7.313703E+00 +4.875096E+02 +5.293818E+00 -2.301979E+00 +5.293818E+00 +3.690672E+02 
 +8.445359E+02 +3.952424E+00 -1.273196E+01 +3.952424E+00 +4.583308E+02 -6.795045E+00 -1.273196E+01 -6.795045E+00 +3.564013E+02 
 +8.389990E+02 -5.278780E+00 -1.495914E+01 -5.278780E+00 +4.374030E+02 -1.200032E+01 -1.495914E+01 -1.200032E+01 +3.445799E+02 
 +8.381018E+02 -1.409156E+01 -5.012790E+00 -1.409156E+01 +4.348770E+02 -7.324123E+00 -5.012790E+00 -7.324123E+00 +3.418041E+02 
 +8.332986E+02 -8.527895E+00 +3.522619E+00 -8.527895E+00 +4.530132E+02 -4.542873E+00 +3.522619E+00 -4.542873E+00 +3.274715E+02 
 +8.399679E+02 -7.581454E+00 -3.457203E+00 -7.581454E+00 +4.740450E+02 +1.575261E+00 -3.457203E+00 +1.575261E+00 +3.273586E+02 
 +8.509229E+02 -5.695114E+00 -8.135649E+00 -5.695114E+00 +4.785470E+02 +7.242814E+00 -8.135649E+00 +7.242814E+00 +3.496615E+02 
 +8.465130E+02 -2.023554E+00 -1.731612E+00 -2.023554E+00 +4.678445E+02 +1.918506E+01 -1.731612E+00 +1.918506E+01 +3.698207E+02 
 +8.408081E+02 -4.197136E+00 +2.959625E+00 -4.197136E+00 +4.584490E+02 +1.970529E+01 +2.959625E+00 +1.970529E+01 +3.582478E+02 
 +8.397386E+02 -5.669473E+00 -2.625334E-02 -5.669473E+00 +4.483022E+02 +1.303323E+01 -2.625334E-02 +1.303323E+01 +3.414089E+02 
 +8.380739E+02 -5.486805E+00 -2.038892E+00 -5.486805E+00 +4.472302E+02 +2.417468E+00 -2.038892E+00 +2.417468E+00 +3.363068E+02 
 +8.444612E+02 -2.306379E+00 +6.697392E+00 -2.306379E+00 +4.640541E+02 -1.411751E+01 +6.697392E+00 -1.411751E+01 +3.258409E+02 
 +8.489620E+02 -3.152789E+00 +2.859107E+00 -3.152789E+00 +4.743678E+02 -2.702658E+01 +2.859107E+00 -2.702658E+01 +3.175888E+02 
 +8.516402E+02 -3.442378E+00 +2.553572E+00 -3.442378E+00 +4.736974E+02 -2.766452E+01 +2.553572E+00 -2.766452E+01 +3.167401E+02 
 +8.552949E+02 -7.212824E+00 +7.310701E+00 -7.212824E+00 +4.826459E+02 -2.745652E+01 +7.310701E+00 -2.745652E+01 +3.149795E+02 
 +8.447286E+02 -8.002256E+00 -9.073950E+00 -8.002256E+00 +4.826172E+02 -2.094989E+01 -9.073950E+00 -2.094989E+01 +3.224663E+02 
 +8.441365E+02 -4.543110E-01 -1.291601E+01 -4.543110E-01 +4.679837E+02 -2.179415E+00 -1.291601E+01 -2.179415E+00 +3.437081E+02 
 +8.398431E+02 +1.650546E+00 +1.165768E+00 +1.650546E+00 +4.584296E+02 +6.525012E+00 +1.165768E+00 +6.525012E+00 +3.515034E+02 
 +8.599115E+02 -3.607346E+00 +9.173624E+00 -3.607346E+00 +4.714946E+02 +9.502142E+00 +9.173624E+00 +9.502142E+00 +3.735421E+02 
 +8.652299E+02 +3.160293E+00 +1.210312E+01 +3.160293E+00 +4.892557E+02 -2.511485E+01 +1.210312E+01 -2.511485E+01 +3.732158E+02 
 +8.656955E+02 +5.985516E+00 +6.995642E+00 +5.985516E+00 +4.829129E+02 -3.820357E+01 +6.995642E+00 -3.820357E+01 +3.573196E+02 
 +8.612997E+02 +3.356831E+00 -1.284164E+00 +3.356831E+00 +4.716424E+02 -2.639608E+01 -1.284164E+00 -2.639608E+01 +3.546277E+02 
 +8.511483E+02 +2.724545E+00 -1.661756E+01 +2.724545E+00 +4.657181E+02 -1.027852E+01 -1.661756E+01 -1.027852E+01 +3.627465E+02 
 +8.511893E+02 -4.245623E+00 -1.845357E+01 -4.245623E+00 +4.648286E+02 -7.375675E+00 -1.845357E+01 -7.375675E+00 +3.645713E+02 
 +8.507000E+02 -3.841928E+00 -4.030152E+00 -3.841928E+00 +4.700247E+02 -2.766165E+00 -4.030152E+00 -2.766165E+00 +3.502380E+02 
 +8.481665E+02 -1.051626E+00 +3.729357E-02 -1.051626E+00 +4.757795E+02 +3.416311E+00 +3.729357E-02 +3.416311E+00 +3.467439E+02 
 +8.453187E+02 -6.974331E+00 -6.280675E+00 -6.974331E+00 +4.717667E+02 +3.866994E+00 -6.280675E+00 +3.866994E+00 +3.468055E+02 
 +8.388388E+02 -1.077777E+01 -7.337374E+00 -1.077777E+01 +4.610738E+02 +5.366093E+00 -7.337374E+00 +5.366093E+00 +3.492393E+02 
 +8.359053E+02 -2.179421E+00 +3.374153E-01 -2.179421E+00 +4.555607E+02 +1.196831E+01 +3.374153E-01 +1.196831E+01 +3.650876E+02 
 +8.344581E+02 -1.720232E+00 +6.329414E+00 -1.720232E+00 +4.482488E+02 +1.228465E+01 +6.329414E+00 +1.228465E+01 +3.580024E+02 
 +8.293994E+02 -5.667794E+00 +5.782254E+00 -5.667794E+00 +4.332416E+02 +1.229548E+01 +5.782254E+00 +1.229548E+01 +3.478748E+02 
 +8.238849E+02 -1.241420E+00 +6.081132E-02 -1.241420E+00 +4.347589E+02 +2.264020E+00 +6.081132E-02 +2.264020E+00 +3.480648E+02 
 +8.503578E+02 -2.151361E+00 +4.929390E+00 -2.151361E+00 +4.632691E+02 -1.505799E+01 +4.929390E+00 -1.505799E+01 +3.511381E+02 
 +8.575591E+02 -5.148613E+00 +3.548033E+00 -5.148613E+00 +4.715391E+02 -2.701498E+01 +3.548033E+00 -2.701498E+01 +3.378427E+02 
 +8.591087E+02 -5.642260E+00 +4.156578E+00 -5.642260E+00 +4.780733E+02 -2.978946E+01 +4.156578E+00 -2.978946E+01 +3.242570E+02 
 +8.619161E+02 -6.715603E+00 +4.264974E+00 -6.715603E+00 +4.834970E+02 -3.428909E+01 +4.264974E+00 -3.428909E+01 +3.117429E+02 
 +8.580046E+02 -1.054317E+01 -4.242300E+00 -1.054317E+01 +4.818766E+02 -2.905737E+01 -4.242300E+00 -2.905737E+01 +3.113689E+02 
 +8.426708E+02 -3.756817E+00 -6.533357E+00 -3.756817E+00 +4.788363E+02 -8.377514E+00 -6.533357E+00 -8.377514E+00 +3.328371E+02 
 +8.347010E+02 +3.289407E+00 +3.013471E+00 +3.289407E+00 +4.730566E+02 +4.611062E+00 +3.013471E+00 +4.611062E+00 +3.552026E+02 
 +8.620861E+02 -2.479182E+00 +1.045243E+01 -2.479182E+00 +4.841345E+02 -3.945993E+00 +1.045243E+01 -3.945993E+00 +3.776593E+02 
 +8.678845E+02 +5.805423E+00 +3.950083E+00 +5.805423E+00 +4.911575E+02 -3.723115E+01 +3.950083E+00 -3.723115E+01 +3.712070E+02 
 +8.701224E+02 +6.844666E+00 +9.456613E+00 +6.844666E+00 +4.781216E+02 -3.483527E+01 +9.456613E+00 -3.483527E+01 +3.688801E+02 
 +8.670279E+02 +3.101321E+00 +1.152745E+01 +3.101321E+00 +4.755001E+02 -3.062698E+01 +1.152745E+01 -3.062698E+01 +3.742257E+02 
 +8.625243E+02 -2.163906E+00 -4.794077E+00 -2.163906E+00 +4.717014E+02 -2.517287E+01 -4.794077E+00 -2.517287E+01 +3.800075E+02 
 +8.560725E+02 -4.971244E+00 -9.769501E+00 -4.971244E+00 +4.727125E+02 -1.849707E+01 -9.769501E+00 -1.849707E+01 +3.739471E+02 
 +8.577963E+02 -1.190791E+00 -2.373250E+00 -1.190791E+00 +4.851691E+02 -4.641674E+00 -2.373250E+00 -4.641674E+00 +3.670713E+02 
 +8.580996E+02 -9.638523E-01 -7.195236E+00 -9.638523E-01 +4.853713E+02 +2.204510E+00 -7.195236E+00 +2.204510E+00 +3.671544E+02 
 +8.554053E+02 -2.648963E+00 -7.503065E+00 -2.648963E+00 +4.804277E+02 -1.334755E-01 -7.503065E+00 -1.334755E-01 +3.643213E+02 
 +8.529779E+02 -5.173821E+00 -6.261609E+00 -5.173821E+00 +4.861175E+02 -3.504452E+00 -6.261609E+00 -3.504452E+00 +3.661403E+02 
 +8.449415E+02 +2.889189E-01 -1.743914E+00 +2.889189E-01 +4.774933E+02 -2.061294E+00 -1.743914E+00 -2.061294E+00 +3.616084E+02 
 +8.357579E+02 -1.631053E+00 +5.259727E+00 -1.631053E+00 +4.501571E+02 +9.045815E+00 +5.259727E+00 +9.045815E+00 +3.488302E+02 
 +8.323231E+02 +1.272579E+00 +3.558650E+00 +1.272579E+00 +4.485777E+02 +9.714296E+00 +3.558650E+00 +9.714296E+00 +3.607962E+02 
 +8.215288E+02 +1.152797E+01 -5.459963E+00 +1.152797E+01 +4.572687E+02 -8.912874E+00 -5.459963E+00 -8.912874E+00 +3.682574E+02 
 +8.429714E+02 +2.730540E+00 -2.854338E+00 +2.730540E+00 +4.627077E+02 -2.711662E+01 -2.854338E+00 -2.711662E+01 +3.632896E+02 
 +8.561440E+02 -4.159256E+00 +3.265077E+00 -4.159256E+00 +4.673027E+02 -3.281016E+01 +3.265077E+00 -3.281016E+01 +3.529884E+02 
 +8.713035E+02 -6.442354E+00 +6.319504E+00 -6.442354E+00 +4.820697E+02 -3.344078E+01 +6.319504E+00 -3.344078E+01 +3.403629E+02 
 +8.762035E+02 -7.452526E+00 +2.613715E+00 -7.452526E+00 +4.848423E+02 -3.517014E+01 +2.613715E+00 -3.517014E+01 +3.225509E+02 
 +8.766929E+02 -1.183210E+01 +2.310256E-01 -1.183210E+01 +4.995696E+02 -3.978518E+01 +2.310256E-01 -3.978518E+01 +3.254718E+02 
 +8.690432E+02 -7.103956E+00 +1.090546E-01 -7.103956E+00 +5.174443E+02 -5.038769E+01 +1.090546E-01 -5.038769E+01 +3.405597E+02 
 +8.571891E+02 +6.848529E-01 -1.799883E-01 +6.848529E-01 +5.175936E+02 -5.774791E+01 -1.799883E-01 -5.774791E+01 +3.577951E+02 
 +8.641252E+02 -1.573041E+00 -5.639080E-01 -1.573041E+00 +5.111229E+02 -4.861910E+01 -5.639080E-01 -4.861910E+01 +3.746909E+02 
 +8.649755E+02 +3.899544E+00 -1.032377E+00 +3.899544E+00 +4.891074E+02 -4.067758E+01 -1.032377E+00 -4.067758E+01 +3.694674E+02 
 +8.594761E+02 +6.295307E+00 +1.385196E+01 +6.295307E+00 +4.797072E+02 -3.838679E+01 +1.385196E+01 -3.838679E+01 +3.757101E+02 
 +8.720263E+02 -6.771751E-01 +2.197536E+01 -6.771751E-01 +4.834060E+02 -2.905629E+01 +2.197536E+01 -2.905629E+01 +3.757116E+02 
 +8.690151E+02 -4.870626E-01 +6.444378E+00 -4.870626E-01 +4.831661E+02 -1.145023E+01 +6.444378E+00 -1.145023E+01 +3.749486E+02 
 +8.676936E+02 -6.675030E-01 +5.341793E-01 -6.675030E-01 +4.938476E+02 +3.140059E+00 +5.341793E-01 +3.140059E+00 +3.774375E+02 
 +8.657198E+02 +1.249026E-01 -2.959671E+00 +1.249026E-01 +4.917898E+02 +4.640995E-02 -2.959671E+00 +4.640995E-02 +3.703687E+02 
 +8.620243E+02 -8.572114E-01 -7.965793E+00 -8.572114E-01 +4.863218E+02 -1.259836E+00 -7.965793E+00 -1.259836E+00 +3.644561E+02 
 +8.594681E+02 -3.152601E+00 -4.430493E+00 -3.152601E+00 +4.859588E+02 +1.757572E+00 -4.430493E+00 +1.757572E+00 +3.620031E+02 
 +8.572568E+02 -3.110368E+00 -2.506709E+00 -3.110368E+00 +4.887162E+02 +6.517363E-01 -2.506709E+00 +6.517363E-01 +3.623857E+02 
 +8.546318E+02 -3.821518E-01 -4.175376E+00 -3.821518E-01 +4.873832E+02 -4.725862E+00 -4.175376E+00 -4.725862E+00 +3.549089E+02 
 +8.583601E+02 +1.057865E+00 +1.404054E+00 +1.057865E+00 +4.845063E+02 -7.855401E+00 +1.404054E+00 -7.855401E+00 +3.506544E+02 
 +8.403558E+02 +1.407618E+01 -1.302277E+00 +1.407618E+01 +4.860908E+02 -7.292856E+00 -1.302277E+00 -7.292856E+00 +3.643042E+02 
 +8.345531E+02 +1.787199E+01 -8.954937E+00 +1.787199E+01 +4.849933E+02 -9.343838E+00 -8.954937E+00 -9.343838E+00 +3.742617E+02 
 +8.374351E+02 +1.557159E+01 -7.052823E+00 +1.557159E+01 +4.756043E+02 -9.300148E+00 -7.052823E+00 -9.300148E+00 +3.656661E+02 
 +8.409649E+02 +1.470069E+01 -4.245148E+00 +1.470069E+01 +4.731923E+02 -1.265758E+01 -4.245148E+00 -1.265758E+01 +3.524694E+02 
 +8.663176E+02 +2.995467E+00 -4.567026E+00 +2.995467E+00 +4.803819E+02 -3.295813E+01 -4.567026E+00 -3.295813E+01 +3.409993E+02 
 +8.813061E+02 -5.596541E+00 -3.776082E+00 -5.596541E+00 +4.909390E+02 -4.961962E+01 -3.776082E+00 -4.961962E+01 +3.312663E+02 
 +8.873651E+02 -6.567333E+00 +3.022564E-01 -6.567333E+00 +5.033157E+02 -5.165861E+01 +3.022564E-01 -5.165861E+01 +3.280963E+02 
 +8.649833E+02 -4.058624E+00 +5.442357E+00 -4.058624E+00 +4.962263E+02 -5.619832E+01 +5.442357E+00 -5.619832E+01 +3.273951E+02 
 +8.443266E+02 -3.785605E+00 +5.041271E+00 -3.785605E+00 +4.840684E+02 -5.939146E+01 +5.041271E+00 -5.939146E+01 +3.315872E+02 
 +8.541378E+02 -2.067558E+00 -2.239145E+00 -2.067558E+00 +4.895690E+02 -4.901363E+01 -2.239145E+00 -4.901363E+01 +3.482664E+02 
 +8.670037E+02 +9.443925E-01 +2.551433E+00 +9.443925E-01 +4.953882E+02 -2.390152E+01 +2.551433E+00 -2.390152E+01 +3.554004E+02 
 +8.578144E+02 +1.055404E+01 +1.047034E+01 +1.055404E+01 +5.004731E+02 -7.514065E+00 +1.047034E+01 -7.514065E+00 +3.737245E+02 
 +8.795880E+02 +1.067563E+00 +1.637363E+01 +1.067563E+00 +5.014314E+02 -1.823894E+01 +1.637363E+01 -1.823894E+01 +3.807603E+02 
 +8.653542E+02 +1.934622E+00 +1.107906E+01 +1.934622E+00 +4.853804E+02 -1.911723E+01 +1.107906E+01 -1.911723E+01 +3.677913E+02 
 +8.572330E+02 +6.911831E-01 +7.217960E+00 +6.911831E-01 +4.805915E+02 -5.104417E+00 +7.217960E+00 -5.104417E+00 +3.531392E+02 
 +8.614848E+02 -3.478033E+00 +1.516943E+00 -3.478033E+00 +4.845349E+02 +2.121472E+00 +1.516943E+00 +2.121472E+00 +3.513434E+02 
 +8.626868E+02 -3.537430E+00 -2.164268E+00 -3.537430E+00 +4.862098E+02 +8.069825E+00 -2.164268E+00 +8.069825E+00 +3.571102E+02 
 +8.631801E+02 -3.975333E+00 -1.316187E+00 -3.975333E+00 +4.900064E+02 +1.016185E+01 -1.316187E+00 +1.016185E+01 +3.596520E+02 
 +8.662232E+02 -2.432865E+00 -2.281420E+00 -2.432865E+00 +4.950261E+02 +5.758105E+00 -2.281420E+00 +5.758105E+00 +3.601990E+02 
 +8.692978E+02 -3.557892E+00 -6.323124E+00 -3.557892E+00 +4.988113E+02 +1.830189E+00 -6.323124E+00 +1.830189E+00 +3.567549E+02 
 +8.734776E+02 -5.314558E+00 -1.908421E+00 -5.314558E+00 +5.069479E+02 +2.912617E-01 -1.908421E+00 +2.912617E-01 +3.562870E+02 
 +8.325366E+02 +1.057264E+01 -2.618513E+00 +1.057264E+01 +4.894385E+02 -2.440952E+00 -2.618513E+00 -2.440952E+00 +3.494958E+02 
 +8.409167E+02 +8.743955E+00 -5.042083E+00 +8.743955E+00 +4.912700E+02 -6.066404E+00 -5.042083E+00 -6.066404E+00 +3.628898E+02 
 +8.442353E+02 +1.114749E+01 -4.081746E+00 +1.114749E+01 +4.891501E+02 -9.949712E+00 -4.081746E+00 -9.949712E+00 +3.655127E+02 
 +8.393087E+02 +1.559066E+01 -7.829011E+00 +1.559066E+01 +4.811178E+02 -1.187066E+01 -7.829011E+00 -1.187066E+01 +3.498983E+02 
 +8.559993E+02 +1.582323E+01 -1.475555E+01 +1.582323E+01 +4.889779E+02 -1.507291E+01 -1.475555E+01 -1.507291E+01 +3.383776E+02 
 +8.820228E+02 +1.117800E+01 -5.945067E+00 +1.117800E+01 +5.043576E+02 -9.864594E+00 -5.945067E+00 -9.864594E+00 +3.373495E+02 
 +8.983730E+02 +6.989619E+00 +2.201917E+00 +6.989619E+00 +5.185501E+02 -4.558825E+00 +2.201917E+00 -4.558825E+00 +3.376304E+02 
 +8.707239E+02 -3.139673E+00 +6.499542E+00 -3.139673E+00 +5.107174E+02 -1.925238E+01 +6.499542E+00 -1.925238E+01 +3.373376E+02 
 +8.531070E+02 -7.877119E+00 +9.077908E+00 -7.877119E+00 +4.876328E+02 -3.592952E+01 +9.077908E+00 -3.592952E+01 +3.287623E+02 
 +8.524881E+02 -5.282693E+00 +2.655582E+00 -5.282693E+00 +4.738181E+02 -4.075734E+01 +2.655582E+00 -4.075734E+01 +3.227146E+02 
 +8.659485E+02 -4.392127E+00 +1.143328E+01 -4.392127E+00 +4.926076E+02 -2.558109E+01 +1.143328E+01 -2.558109E+01 +3.437214E+02 
 +8.548876E+02 -1.203128E+00 +7.255872E+00 -1.203128E+00 +4.830371E+02 -2.624475E+01 +7.255872E+00 -2.624475E+01 +3.563586E+02 
 +8.621478E+02 -4.204999E+00 +1.331335E+00 -4.204999E+00 +4.877365E+02 -2.229801E+01 +1.331335E+00 -2.229801E+01 +3.660155E+02 
 +8.610888E+02 -4.849126E-01 +6.327789E+00 -4.849126E-01 +4.916049E+02 -1.289139E+01 +6.327789E+00 -1.289139E+01 +3.676510E+02 
 +8.671285E+02 -1.174975E+00 +1.121212E+01 -1.174975E+00 +4.921499E+02 -2.500810E-01 +1.121212E+01 -2.500810E-01 +3.628817E+02 
 +8.687925E+02 -3.839408E+00 +7.636232E+00 -3.839408E+00 +4.914989E+02 +1.549336E+00 +7.636232E+00 +1.549336E+00 +3.590012E+02 
 +8.705914E+02 -1.831719E+00 +4.487495E+00 -1.831719E+00 +4.959941E+02 +5.078238E+00 +4.487495E+00 +5.078238E+00 +3.576999E+02 
 +8.716805E+02 -1.826407E+00 +7.915012E-01 -1.826407E+00 +5.016029E+02 +1.041998E+01 +7.915012E-01 +1.041998E+01 +3.540900E+02 
 +8.742815E+02 -2.998893E+00 -5.435204E+00 -2.998893E+00 +5.056098E+02 +7.889972E+00 -5.435204E+00 +7.889972E+00 +3.538787E+02 
 +8.768059E+02 -3.405041E+00 -7.968043E+00 -3.405041E+00 +5.101707E+02 -2.123070E+00 -7.968043E+00 -2.123070E+00 +3.589834E+02 
 +8.760962E+02 -5.172009E+00 -9.312681E-01 -5.172009E+00 +5.210693E+02 -9.542630E+00 -9.312681E-01 -9.542630E+00 +3.719724E+02 
 +8.479934E+02 +4.603510E+00 -3.704350E+00 +4.603510E+00 +5.054804E+02 -9.848484E+00 -3.704350E+00 -9.848484E+00 +3.643427E+02 
 +8.456072E+02 +4.424632E+00 -4.949023E+00 +4.424632E+00 +4.961018E+02 -9.786989E+00 -4.949023E+00 -9.786989E+00 +3.599734E+02 
 +8.468263E+02 +8.268427E+00 -5.321204E+00 +8.268427E+00 +4.932768E+02 -1.052633E+01 -5.321204E+00 -1.052633E+01 +3.540083E+02 
 +8.527187E+02 +1.096660E+01 -6.745263E+00 +1.096660E+01 +4.932686E+02 -1.439480E+01 -6.745263E+00 -1.439480E+01 +3.438167E+02 
 +8.543624E+02 +1.313132E+01 -6.289822E+00 +1.313132E+01 +4.933565E+02 -1.375190E+01 -6.289822E+00 -1.375190E+01 +3.333909E+02 
 +8.742571E+02 +6.855865E+00 +1.865892E+00 +6.855865E+00 +5.020523E+02 -4.313118E+00 +1.865892E+00 -4.313118E+00 +3.269230E+02 
 +8.806019E+02 +9.839664E+00 -8.890302E-01 +9.839664E+00 +5.094431E+02 -5.462362E+00 -8.890302E-01 -5.462362E+00 +3.285374E+02 
 +8.647414E+02 -2.784775E+00 +1.457501E+00 -2.784775E+00 +5.045497E+02 -1.768040E+01 +1.457501E+00 -1.768040E+01 +3.370901E+02 
 +8.590961E+02 -9.695990E+00 +7.061154E+00 -9.695990E+00 +4.985593E+02 -1.846427E+01 +7.061154E+00 -1.846427E+01 +3.306452E+02 
 +8.558665E+02 -1.130319E+01 +8.235668E+00 -1.130319E+01 +4.907190E+02 -1.732728E+01 +8.235668E+00 -1.732728E+01 +3.218086E+02 
 +8.736670E+02 -9.461586E-01 +1.183878E+01 -9.461586E-01 +5.058937E+02 -5.528596E+00 +1.183878E+01 -5.528596E+00 +3.477315E+02 
 +8.665241E+02 +9.862704E-01 +7.627195E+00 +9.862704E-01 +4.937637E+02 -2.078390E+01 +7.627195E+00 -2.078390E+01 +3.613508E+02 
 +8.593278E+02 -3.017254E-01 +3.877685E+00 -3.017254E-01 +4.901903E+02 -2.656634E+01 +3.877685E+00 -2.656634E+01 +3.628503E+02 
 +8.570101E+02 +2.500912E+00 +2.452860E+00 +2.500912E+00 +4.927134E+02 -7.076353E+00 +2.452860E+00 -7.076353E+00 +3.555470E+02 
 +8.731317E+02 +1.810360E+00 +7.608095E+00 +1.810360E+00 +5.009231E+02 +5.621004E+00 +7.608095E+00 +5.621004E+00 +3.589682E+02 
 +8.760787E+02 -1.601492E+00 +8.728637E+00 -1.601492E+00 +4.985679E+02 +4.447337E+00 +8.728637E+00 +4.447337E+00 +3.596939E+02 
 +8.796669E+02 +3.877737E+00 +1.001578E+01 +3.877737E+00 +5.065248E+02 +1.014141E+01 +1.001578E+01 +1.014141E+01 +3.625188E+02 
 +8.815740E+02 +1.193938E+00 +7.256375E-01 +1.193938E+00 +5.170778E+02 +1.637756E+01 +7.256375E-01 +1.637756E+01 +3.595064E+02 
 +8.802407E+02 -3.429400E+00 -1.140716E+01 -3.429400E+00 +5.146198E+02 +6.735151E+00 -1.140716E+01 +6.735151E+00 +3.550954E+02 
 +8.772222E+02 -4.356981E+00 -1.053817E+01 -4.356981E+00 +5.133930E+02 -6.919804E+00 -1.053817E+01 -6.919804E+00 +3.735363E+02 
 +8.633012E+02 -6.204570E+00 +1.683811E+00 -6.204570E+00 +5.078746E+02 -9.118011E+00 +1.683811E+00 -9.118011E+00 +3.899691E+02 
 +8.562220E+02 -7.126662E-01 -2.448728E-01 -7.126662E-01 +4.982062E+02 -9.179223E+00 -2.448728E-01 -9.179223E+00 +3.805562E+02 
 +8.555740E+02 +5.780796E+00 -5.269036E+00 +5.780796E+00 +4.987432E+02 -1.417758E+01 -5.269036E+00 -1.417758E+01 +3.696238E+02 
 +8.516386E+02 +7.202811E+00 -5.642843E+00 +7.202811E+00 +4.987944E+02 -1.241830E+01 -5.642843E+00 -1.241830E+01 +3.591651E+02 
 +8.443566E+02 +7.956954E+00 -8.635808E+00 +7.956954E+00 +4.923304E+02 -6.826834E+00 -8.635808E+00 -6.826834E+00 +3.387488E+02 
 +8.637231E+02 +6.920529E+00 -5.328353E+00 +6.920529E+00 +5.029168E+02 -3.556220E+00 -5.328353E+00 -3.556220E+00 +3.303766E+02 
 +8.756686E+02 +3.917210E+00 +2.879475E-01 +3.917210E+00 +5.110223E+02 -3.180544E+00 +2.879475E-01 -3.180544E+00 +3.265725E+02 
 +8.740257E+02 +5.219628E+00 -7.067983E+00 +5.219628E+00 +5.075980E+02 -6.833941E+00 -7.067983E+00 -6.833941E+00 +3.309993E+02 
 +8.578778E+02 -8.956777E+00 -1.805693E+00 -8.956777E+00 +4.946005E+02 -1.552109E+01 -1.805693E+00 -1.552109E+01 +3.367855E+02 
 +8.577388E+02 -1.329785E+01 +4.807938E+00 -1.329785E+01 +4.953397E+02 -2.202644E+01 +4.807938E+00 -2.202644E+01 +3.359573E+02 
 +8.620360E+02 -1.062404E+01 +1.473675E+01 -1.062404E+01 +5.011247E+02 -1.306351E+01 +1.473675E+01 -1.306351E+01 +3.324958E+02 
 +8.747650E+02 +4.842284E+00 +1.071997E+01 +4.842284E+00 +5.083654E+02 +1.376156E+01 +1.071997E+01 +1.376156E+01 +3.325099E+02 
 +8.711059E+02 +5.139450E+00 -4.227120E-01 +5.139450E+00 +5.142577E+02 +5.363629E+00 -4.227120E-01 +5.363629E+00 +3.570721E+02 
 +8.665402E+02 +5.754616E+00 -2.472670E+00 +5.754616E+00 +5.087582E+02 -1.539779E+01 -2.472670E+00 -1.539779E+01 +3.687906E+02 
 +8.538726E+02 +6.640967E+00 -6.835522E-01 +6.640967E+00 +4.858373E+02 -1.589627E+01 -6.835522E-01 -1.589627E+01 +3.509794E+02 
 +8.574889E+02 +6.362541E+00 +4.370952E+00 +6.362541E+00 +4.802743E+02 -4.371278E+00 +4.370952E+00 -4.371278E+00 +3.465265E+02 
 +8.789810E+02 +1.751520E+00 +8.757409E+00 +1.751520E+00 +5.008641E+02 +9.898691E-01 +8.757409E+00 +9.898691E-01 +3.648562E+02 
 +8.856686E+02 +1.014054E+01 +7.506356E+00 +1.014054E+01 +5.123531E+02 +3.299840E+00 +7.506356E+00 +3.299840E+00 +3.664119E+02 
 +8.908890E+02 +7.233144E+00 -3.099416E-01 +7.233144E+00 +5.256086E+02 +5.141474E+00 -3.099416E-01 +5.141474E+00 +3.732127E+02 
 +8.878555E+02 -4.011222E+00 -1.246402E+01 -4.011222E+00 +5.278244E+02 -1.590118E+00 -1.246402E+01 -1.590118E+00 +3.891183E+02 
 +8.689738E+02 -6.255656E+00 -3.258086E+00 -6.255656E+00 +5.093165E+02 -6.642638E+00 -3.258086E+00 -6.642638E+00 +3.951770E+02 
 +8.565761E+02 -5.865636E+00 +4.828009E+00 -5.865636E+00 +4.966994E+02 -6.668906E+00 +4.828009E+00 -6.668906E+00 +3.940801E+02 
 +8.567485E+02 -1.172736E+00 +2.594237E+00 -1.172736E+00 +4.926978E+02 -1.070004E+01 +2.594237E+00 -1.070004E+01 +3.885776E+02 
 +8.524499E+02 +2.448327E+00 -2.885484E-01 +2.448327E+00 +4.860818E+02 -1.372392E+01 -2.885484E-01 -1.372392E+01 +3.795057E+02 
 +8.467886E+02 +2.909690E-01 +3.222928E-01 +2.909690E-01 +4.855883E+02 -1.240507E+01 +3.222928E-01 -1.240507E+01 +3.718594E+02 
 +8.359295E+02 +6.774860E+00 -2.263636E+00 +6.774860E+00 +4.854232E+02 -1.240062E+01 -2.263636E+00 -1.240062E+01 +3.447051E+02 
 +8.702469E+02 +5.523628E+00 -6.539156E+00 +5.523628E+00 +5.068400E+02 -1.008942E+01 -6.539156E+00 -1.008942E+01 +3.338572E+02 
 +8.809302E+02 +3.075163E-01 +5.954328E-01 +3.075163E-01 +5.133423E+02 +1.235213E+00 +5.954328E-01 +1.235213E+00 +3.468250E+02 
 +8.706355E+02 -1.704006E+00 -7.337189E+00 -1.704006E+00 +4.974238E+02 +1.146388E+01 -7.337189E+00 +1.146388E+01 +3.502833E+02 
 +8.589130E+02 -4.488805E+00 -5.889972E+00 -4.488805E+00 +4.821107E+02 +1.622928E+01 -5.889972E+00 +1.622928E+01 +3.383330E+02 
 +8.618207E+02 -2.905029E+00 +1.061563E+00 -2.905029E+00 +4.892022E+02 +1.778459E+01 +1.061563E+00 +1.778459E+01 +3.323157E+02 
 +8.669488E+02 -2.091666E-01 +1.029928E+01 -2.091666E-01 +4.973476E+02 +1.457903E+01 +1.029928E+01 +1.457903E+01 +3.250662E+02 
 +8.725813E+02 +2.199968E+00 -3.144193E+00 +2.199968E+00 +5.039253E+02 +1.342354E+01 -3.144193E+00 +1.342354E+01 +3.460238E+02 
 +8.643161E+02 +2.279229E+00 -1.585052E+01 +2.279229E+00 +5.030098E+02 +3.670785E+00 -1.585052E+01 +3.670785E+00 +3.660621E+02 
 +8.663741E+02 +1.982485E+00 -1.291660E+01 +1.982485E+00 +5.061205E+02 -1.092397E+01 -1.291660E+01 -1.092397E+01 +3.702536E+02 
 +8.622318E+02 +1.397670E+00 -3.417662E+00 +1.397670E+00 +4.989010E+02 -9.499032E+00 -3.417662E+00 -9.499032E+00 +3.619235E+02 
 +8.603293E+02 +5.437012E+00 +1.372995E+00 +5.437012E+00 +4.867276E+02 -9.520040E+00 +1.372995E+00 -9.520040E+00 +3.561594E+02 
 +8.706287E+02 +7.068002E+00 +5.783657E+00 +7.068002E+00 +4.884583E+02 -1.141346E+01 +5.783657E+00 -1.141346E+01 +3.550923E+02 
 +8.776659E+02 +1.447662E+01 -2.492533E+00 +1.447662E+01 +5.008718E+02 -1.181643E+01 -2.492533E+00 -1.181643E+01 +3.546884E+02 
 +8.800043E+02 +5.478794E+00 -3.994660E+00 +5.478794E+00 +5.058000E+02 -2.224885E+01 -3.994660E+00 -2.224885E+01 +3.769578E+02 
 +8.706564E+02 -8.469472E+00 +6.065476E-01 -8.469472E+00 +5.015312E+02 -1.719551E+01 +6.065476E-01 -1.719551E+01 +4.020356E+02 
 +8.545614E+02 -8.048128E+00 +8.325103E+00 -8.048128E+00 +4.929809E+02 -7.455734E+00 +8.325103E+00 -7.455734E+00 +3.963856E+02 
 +8.519786E+02 -5.383053E+00 +7.506924E+00 -5.383053E+00 +4.898787E+02 -9.128077E+00 +7.506924E+00 -9.128077E+00 +3.886032E+02 
 +8.506021E+02 -2.063850E+00 +7.864598E+00 -2.063850E+00 +4.885888E+02 -1.450499E+01 +7.864598E+00 -1.450499E+01 +3.873711E+02 
 +8.451726E+02 +2.734176E+00 +9.370938E+00 +2.734176E+00 +4.825315E+02 -1.844114E+01 +9.370938E+00 -1.844114E+01 +3.847196E+02 
 +8.473887E+02 +4.583317E+00 +1.017402E+01 +4.583317E+00 +4.879793E+02 -2.026987E+01 +1.017402E+01 -2.026987E+01 +3.904204E+02 
 +8.485347E+02 +8.937423E+00 +1.365317E+01 +8.937423E+00 +4.949025E+02 -2.295971E+01 +1.365317E+01 -2.295971E+01 +3.720306E+02 
 +8.778062E+02 +5.103252E+00 +3.591714E+00 +5.103252E+00 +5.099582E+02 -2.754891E+01 +3.591714E+00 -2.754891E+01 +3.542945E+02 
 +8.847675E+02 +2.984254E-01 +5.209196E+00 +2.984254E-01 +5.096010E+02 -2.620802E+01 +5.209196E+00 -2.620802E+01 +3.546434E+02 
 +8.770144E+02 -1.374460E+00 +2.166658E+00 -1.374460E+00 +4.982545E+02 -1.190271E+01 +2.166658E+00 -1.190271E+01 +3.501388E+02 
 +8.750805E+02 -3.725289E-01 -5.173815E+00 -3.725289E-01 +4.939519E+02 +5.359165E+00 -5.173815E+00 +5.359165E+00 +3.434226E+02 
 +8.724113E+02 -3.483973E-01 -5.122207E+00 -3.483973E-01 +4.948687E+02 +8.510953E+00 -5.122207E+00 +8.510953E+00 +3.337790E+02 
 +8.727360E+02 +3.921183E-02 -3.169870E-01 +3.921183E-02 +4.999005E+02 +1.031940E+01 -3.169870E-01 +1.031940E+01 +3.281463E+02 
 +8.654550E+02 -1.922137E+00 -1.859498E+01 -1.922137E+00 +5.012346E+02 +1.949474E+00 -1.859498E+01 +1.949474E+00 +3.733146E+02 
 +8.723914E+02 +1.190371E+00 -1.855927E+01 +1.190371E+00 +5.053072E+02 +8.035632E+00 -1.855927E+01 +8.035632E+00 +3.827962E+02 
 +8.699199E+02 +8.328173E-01 -1.653872E+01 +8.328173E-01 +5.023998E+02 +5.372814E+00 -1.653872E+01 +5.372814E+00 +3.724286E+02 
 +8.616980E+02 +2.005383E+00 -4.780070E+00 +2.005383E+00 +4.952424E+02 -1.138024E+01 -4.780070E+00 -1.138024E+01 +3.593540E+02 
 +8.579480E+02 +2.173383E+00 +2.457018E+00 +2.173383E+00 +4.939244E+02 -1.036796E+01 +2.457018E+00 -1.036796E+01 +3.491512E+02 
 +8.727416E+02 +4.698987E+00 +4.650022E+00 +4.698987E+00 +5.025281E+02 -8.982182E-01 +4.650022E+00 -8.982182E-01 +3.438329E+02 
 +8.839490E+02 +1.127703E+01 -1.129424E+01 +1.127703E+01 +5.095373E+02 +2.809443E+00 -1.129424E+01 +2.809443E+00 +3.600546E+02 
 +8.696020E+02 -1.000301E+00 -5.299112E+00 -1.000301E+00 +4.952351E+02 +6.945203E+00 -5.299112E+00 +6.945203E+00 +3.802749E+02 
 +8.566239E+02 -8.811952E+00 +7.541755E+00 -8.811952E+00 +4.835341E+02 +3.944132E+00 +7.541755E+00 +3.944132E+00 +3.871351E+02 
 +8.506391E+02 -7.812307E+00 +1.200597E+01 -7.812307E+00 +4.849325E+02 -3.001763E+00 +1.200597E+01 -3.001763E+00 +3.905485E+02 
 +8.468852E+02 -4.406927E+00 +1.056024E+01 -4.406927E+00 +4.847273E+02 -5.763671E+00 +1.056024E+01 -5.763671E+00 +3.880969E+02 
 +8.460198E+02 -5.301119E-01 +1.313044E+01 -5.301119E-01 +4.841403E+02 -8.483341E+00 +1.313044E+01 -8.483341E+00 +3.847284E+02 
 +8.419318E+02 +3.665438E+00 +1.505901E+01 +3.665438E+00 +4.828912E+02 -1.085809E+01 +1.505901E+01 -1.085809E+01 +3.847145E+02 
 +8.395592E+02 +9.827360E+00 +1.795338E+01 +9.827360E+00 +4.852804E+02 -1.328091E+01 +1.795338E+01 -1.328091E+01 +3.879294E+02 
 +8.492149E+02 +1.317688E+01 +2.641037E+01 +1.317688E+01 +4.915634E+02 -1.948773E+01 +2.641037E+01 -1.948773E+01 +3.829250E+02 
 +8.816759E+02 +7.756340E+00 +1.290638E+01 +7.756340E+00 +5.001757E+02 -2.693790E+01 +1.290638E+01 -2.693790E+01 +3.579094E+02 
 +8.808695E+02 +3.355053E+00 +2.657674E+00 +3.355053E+00 +4.913062E+02 -2.609465E+01 +2.657674E+00 -2.609465E+01 +3.270435E+02 
 +8.782538E+02 +4.168048E+00 +4.700077E+00 +4.168048E+00 +4.945002E+02 -2.144572E+01 +4.700077E+00 -2.144572E+01 +3.233508E+02 
 +8.753636E+02 +4.384302E+00 +6.805041E-01 +4.384302E+00 +4.991481E+02 -1.326334E+01 +6.805041E-01 -1.326334E+01 +3.226011E+02 
 +8.737423E+02 +3.538831E+00 -7.078456E+00 +3.538831E+00 +4.969111E+02 +1.650382E+00 -7.078456E+00 +1.650382E+00 +3.222402E+02 
 +8.752908E+02 +2.830909E+00 -9.233327E+00 +2.830909E+00 +5.024803E+02 +5.691718E+00 -9.233327E+00 +5.691718E+00 +3.453324E+02 
 +8.708931E+02 +1.042089E+00 -1.828347E+01 +1.042089E+00 +5.118005E+02 -4.265658E+00 -1.828347E+01 -4.265658E+00 +3.864194E+02 
 +8.780263E+02 +6.187366E+00 -6.378240E+00 +6.187366E+00 +5.163386E+02 +2.081058E+00 -6.378240E+00 +2.081058E+00 +3.763935E+02 
 +8.667565E+02 -1.662539E+00 -1.453126E+01 -1.662539E+00 +5.011410E+02 +6.755344E+00 -1.453126E+01 +6.755344E+00 +3.671818E+02 
 +8.624269E+02 -8.616004E-01 -5.569646E+00 -8.616004E-01 +4.947842E+02 +5.836429E+00 -5.569646E+00 +5.836429E+00 +3.631315E+02 
 +8.590780E+02 +1.376504E+00 +1.134700E+00 +1.376504E+00 +4.927465E+02 +8.336098E-01 +1.134700E+00 +8.336098E-01 +3.570363E+02 
 +8.680622E+02 +9.445491E+00 +1.286572E+00 +9.445491E+00 +4.932431E+02 -9.237243E+00 +1.286572E+00 -9.237243E+00 +3.464432E+02 
 +8.708497E+02 +1.260997E+01 -1.106108E+01 +1.260997E+01 +4.919606E+02 -9.274021E+00 -1.106108E+01 -9.274021E+00 +3.527467E+02 
 +8.641208E+02 -1.701095E+00 +3.726133E-02 -1.701095E+00 +4.906507E+02 +2.100182E+00 +3.726133E-02 +2.100182E+00 +3.725867E+02 
 +8.559196E+02 -5.877522E+00 +6.892536E+00 -5.877522E+00 +4.879928E+02 +6.294146E+00 +6.892536E+00 +6.294146E+00 +3.799880E+02 
 +8.458255E+02 -5.538957E+00 +9.153465E+00 -5.538957E+00 +4.820728E+02 +5.569082E+00 +9.153465E+00 +5.569082E+00 +3.824873E+02 
 +8.440267E+02 -4.033485E+00 +1.208296E+01 -4.033485E+00 +4.815454E+02 +3.047094E+00 +1.208296E+01 +3.047094E+00 +3.808530E+02 
 +8.417643E+02 +3.711615E-01 +1.752877E+01 +3.711615E-01 +4.814984E+02 +5.876502E-01 +1.752877E+01 +5.876502E-01 +3.775345E+02 
 +8.368156E+02 +4.477280E+00 +1.992619E+01 +4.477280E+00 +4.807599E+02 +2.286603E-01 +1.992619E+01 +2.286603E-01 +3.783667E+02 
 +8.312031E+02 +1.202636E+01 +2.107735E+01 +1.202636E+01 +4.773913E+02 -5.493653E+00 +2.107735E+01 -5.493653E+00 +3.736632E+02 
 +8.436763E+02 +1.617088E+01 +2.768598E+01 +1.617088E+01 +4.814448E+02 -1.865797E+01 +2.768598E+01 -1.865797E+01 +3.678302E+02 
 +8.805928E+02 +9.399070E+00 +1.404238E+01 +9.399070E+00 +4.884311E+02 -2.906071E+01 +1.404238E+01 -2.906071E+01 +3.370735E+02 
 +8.791138E+02 +6.836505E+00 -6.144300E-01 +6.836505E+00 +4.792992E+02 -2.558815E+01 -6.144300E-01 -2.558815E+01 +3.018686E+02 
 +8.811334E+02 +9.322130E+00 -2.587171E+00 +9.322130E+00 +4.917987E+02 -1.870266E+01 -2.587171E+00 -1.870266E+01 +3.137118E+02 
 +8.772584E+02 +6.304692E+00 +2.123857E+00 +6.304692E+00 +4.990950E+02 -2.089936E+01 +2.123857E+00 -2.089936E+01 +3.166450E+02 
 +8.813734E+02 +3.893431E+00 -2.287024E+00 +3.893431E+00 +5.087248E+02 -2.190425E+01 -2.287024E+00 -2.190425E+01 +3.401085E+02 
 +8.743653E+02 +1.403996E+00 -1.897701E+01 +1.403996E+00 +5.098005E+02 -1.452081E+01 -1.897701E+01 -1.452081E+01 +3.791553E+02 
 +8.650404E+02 +6.151827E-01 -1.183440E+01 +6.151827E-01 +5.051341E+02 +4.703722E-02 -1.183440E+01 +4.703722E-02 +3.797043E+02 
 +8.616344E+02 -4.270534E+00 -2.577656E+00 -4.270534E+00 +4.994032E+02 +5.414056E+00 -2.577656E+00 +5.414056E+00 +3.681702E+02 
 +8.582115E+02 -1.011299E+01 -2.898627E+00 -1.011299E+01 +4.955495E+02 +8.079175E+00 -2.898627E+00 +8.079175E+00 +3.644306E+02 
 +8.641163E+02 -5.079235E+00 -5.193433E-01 -5.079235E+00 +4.986448E+02 +6.085294E+00 -5.193433E-01 +6.085294E+00 +3.598048E+02 
 +8.776975E+02 -1.605746E+00 -2.485421E+00 -1.605746E+00 +5.047554E+02 -1.804321E+00 -2.485421E+00 -1.804321E+00 +3.566973E+02 
 +8.789214E+02 +5.862222E+00 +1.254860E+00 +5.862222E+00 +5.017471E+02 -7.889627E+00 +1.254860E+00 -7.889627E+00 +3.519271E+02 
 +8.586815E+02 +9.600959E+00 -3.206318E-01 +9.600959E+00 +4.816684E+02 -2.516024E+00 -3.206318E-01 -2.516024E+00 +3.497032E+02 
 +8.477878E+02 -2.082019E+00 +7.023926E+00 -2.082019E+00 +4.722266E+02 +8.414394E+00 +7.023926E+00 +8.414394E+00 +3.597847E+02 
 +8.476571E+02 -8.324657E+00 +9.703550E+00 -8.324657E+00 +4.770882E+02 +1.248903E+01 +9.703550E+00 +1.248903E+01 +3.707650E+02 
 +8.446591E+02 -5.585134E+00 +8.538927E+00 -5.585134E+00 +4.814320E+02 +1.325463E+01 +8.538927E+00 +1.325463E+01 +3.743340E+02 
 +8.421592E+02 -2.435569E+00 +1.057804E+01 -2.435569E+00 +4.805198E+02 +1.194572E+01 +1.057804E+01 +1.194572E+01 +3.718716E+02 
 +8.351728E+02 +2.241811E+00 +1.810196E+01 +2.241811E+00 +4.773203E+02 +8.435264E+00 +1.810196E+01 +8.435264E+00 +3.702019E+02 
 +8.343997E+02 +6.044159E+00 +2.232366E+01 +6.044159E+00 +4.799340E+02 +6.895750E+00 +2.232366E+01 +6.895750E+00 +3.718138E+02 
 +8.320013E+02 +1.300563E+01 +2.353598E+01 +1.300563E+01 +4.764679E+02 +5.077167E+00 +2.353598E+01 +5.077167E+00 +3.708655E+02 
 +8.436865E+02 +1.711611E+01 +2.309585E+01 +1.711611E+01 +4.709720E+02 -7.091159E+00 +2.309585E+01 -7.091159E+00 +3.584737E+02 
 +8.823042E+02 +1.246593E+01 +5.471612E+00 +1.246593E+01 +4.800965E+02 -2.381164E+01 +5.471612E+00 -2.381164E+01 +3.258267E+02 
 +8.834012E+02 +1.250580E+01 -2.071728E+00 +1.250580E+01 +4.880252E+02 -2.510471E+01 -2.071728E+00 -2.510471E+01 +3.020144E+02 
 +8.851257E+02 +9.905244E+00 -2.963666E+00 +9.905244E+00 +5.021650E+02 -1.873913E+01 -2.963666E+00 -1.873913E+01 +3.110893E+02 
 +8.900027E+02 +4.878668E+00 -1.468673E+00 +4.878668E+00 +5.158137E+02 -2.020418E+01 -1.468673E+00 -2.020418E+01 +3.252352E+02 
 +8.956792E+02 +1.394772E-01 -1.556917E+00 +1.394772E-01 +5.317911E+02 -2.438435E+01 -1.556917E+00 -2.438435E+01 +3.581781E+02 
 +8.691645E+02 -3.823239E+00 -1.349590E+01 -3.823239E+00 +5.145925E+02 -1.440901E+01 -1.349590E+01 -1.440901E+01 +3.791863E+02 
 +8.402791E+02 +1.956887E+00 -9.859738E+00 +1.956887E+00 +4.882672E+02 +1.552643E+00 -9.859738E+00 +1.552643E+00 +3.672917E+02 
 +8.472508E+02 -4.092972E+00 -6.782169E-01 -4.092972E+00 +4.916492E+02 +7.782160E+00 -6.782169E-01 +7.782160E+00 +3.683280E+02 
 +8.520420E+02 -1.159444E+01 +2.226542E+00 -1.159444E+01 +4.924816E+02 +6.916010E+00 +2.226542E+00 +6.916010E+00 +3.605130E+02 
 +8.648188E+02 -1.416207E+01 +4.049054E+00 -1.416207E+01 +4.859601E+02 +5.613842E+00 +4.049054E+00 +5.613842E+00 +3.517401E+02 
 +8.606492E+02 -7.275749E+00 -5.356185E+00 -7.275749E+00 +4.638359E+02 +2.060308E+00 -5.356185E+00 +2.060308E+00 +3.466170E+02 
 +8.364101E+02 -3.842953E+00 +5.249099E+00 -3.842953E+00 +4.445628E+02 -2.628010E+00 +5.249099E+00 -2.628010E+00 +3.435914E+02 
 +8.370769E+02 -1.851295E+00 +1.200860E+00 -1.851295E+00 +4.554697E+02 +1.910526E+00 +1.200860E+00 +1.910526E+00 +3.487183E+02 
 +8.512155E+02 -1.196565E+01 +3.654752E+00 -1.196565E+01 +4.749994E+02 +1.201513E+01 +3.654752E+00 +1.201513E+01 +3.592587E+02 
 +8.525329E+02 -2.003596E+01 +6.803164E+00 -2.003596E+01 +4.750175E+02 +1.200551E+01 +6.803164E+00 +1.200551E+01 +3.633783E+02 
 +8.528140E+02 -1.792067E+01 +8.744269E+00 -1.792067E+01 +4.698615E+02 +8.140575E+00 +8.744269E+00 +8.140575E+00 +3.620749E+02 
 +8.472507E+02 -8.039952E+00 +1.343875E+01 -8.039952E+00 +4.719654E+02 +8.716177E+00 +1.343875E+01 +8.716177E+00 +3.605282E+02 
 +8.413762E+02 -2.899421E-01 +1.603922E+01 -2.899421E-01 +4.758015E+02 +6.612270E+00 +1.603922E+01 +6.612270E+00 +3.658370E+02 
 +8.353688E+02 +8.536091E+00 +1.585815E+01 +8.536091E+00 +4.790940E+02 +4.232967E+00 +1.585815E+01 +4.232967E+00 +3.704520E+02 
 +8.347376E+02 +1.047198E+01 +2.101527E+01 +1.047198E+01 +4.867173E+02 +9.996953E+00 +2.101527E+01 +9.996953E+00 +3.552511E+02 
 +8.586402E+02 +6.646162E+00 -4.810106E-01 +6.646162E+00 +4.918418E+02 +1.586338E+01 -4.810106E-01 +1.586338E+01 +3.242665E+02 
 +8.745314E+02 +9.391971E+00 -1.285733E+01 +9.391971E+00 +4.896565E+02 +1.175520E+01 -1.285733E+01 +1.175520E+01 +3.096189E+02 
 +8.835574E+02 +1.394574E+01 -6.258933E+00 +1.394574E+01 +4.948185E+02 -3.308713E+00 -6.258933E+00 -3.308713E+00 +3.102805E+02 
 +8.868896E+02 +1.439487E+01 -6.642358E+00 +1.439487E+01 +5.075685E+02 -1.268709E+01 -6.642358E+00 -1.268709E+01 +3.118037E+02 
 +8.879156E+02 +4.549517E+00 -5.861797E+00 +4.549517E+00 +5.173633E+02 -1.167798E+01 -5.861797E+00 -1.167798E+01 +3.160781E+02 
 +8.824105E+02 -2.632469E+00 +6.270500E+00 -2.632469E+00 +5.178730E+02 -1.334310E+01 +6.270500E+00 -1.334310E+01 +3.280406E+02 
 +8.553195E+02 -8.854599E+00 +1.099441E+00 -8.854599E+00 +5.022507E+02 -9.639957E+00 +1.099441E+00 -9.639957E+00 +3.528329E+02 
 +8.540766E+02 +8.582811E+00 -1.476287E+00 +8.582811E+00 +5.067347E+02 +5.274222E+00 -1.476287E+00 +5.274222E+00 +3.663198E+02 
 +8.642995E+02 +8.027542E+00 +3.631722E+00 +8.027542E+00 +5.167479E+02 +1.426043E+01 +3.631722E+00 +1.426043E+01 +3.718868E+02 
 +8.726418E+02 +5.104883E+00 +3.327486E+00 +5.104883E+00 +5.182089E+02 +1.410137E+01 +3.327486E+00 +1.410137E+01 +3.696995E+02 
 +8.663054E+02 -4.019219E+00 +3.512016E+00 -4.019219E+00 +5.038706E+02 +6.210153E+00 +3.512016E+00 +6.210153E+00 +3.614418E+02 
 +8.543180E+02 -5.024385E+00 -7.867719E+00 -5.024385E+00 +4.912124E+02 +4.908290E+00 -7.867719E+00 +4.908290E+00 +3.693463E+02 
 +8.484256E+02 -3.099569E+00 -1.145092E+00 -3.099569E+00 +4.864669E+02 +1.459510E+00 -1.145092E+00 +1.459510E+00 +3.806106E+02 
 +8.429058E+02 +1.127702E+00 -9.257451E-01 +1.127702E+00 +4.811879E+02 +2.051332E-01 -9.257451E-01 +2.051332E-01 +3.757263E+02 
 +8.836719E+02 -9.761944E+00 +7.514458E+00 -9.761944E+00 +5.003259E+02 +9.105705E+00 +7.514458E+00 +9.105705E+00 +3.859343E+02 
 +8.625401E+02 -2.055595E+01 +1.291869E+01 -2.055595E+01 +4.828412E+02 +8.508298E+00 +1.291869E+01 +8.508298E+00 +3.706611E+02 
 +8.558037E+02 -2.063885E+01 +1.443386E+01 -2.063885E+01 +4.751439E+02 +4.323346E+00 +1.443386E+01 +4.323346E+00 +3.706071E+02 
 +8.558284E+02 -1.006657E+01 +1.593968E+01 -1.006657E+01 +4.686672E+02 +6.042166E-02 +1.593968E+01 +6.042166E-02 +3.724319E+02 
 +8.483879E+02 -2.216708E+00 +1.285626E+01 -2.216708E+00 +4.626780E+02 -2.665918E+00 +1.285626E+01 -2.665918E+00 +3.684647E+02 
 +8.397399E+02 +1.225565E+01 +1.492757E+01 +1.225565E+01 +4.731968E+02 +9.358456E-01 +1.492757E+01 +9.358456E-01 +3.774033E+02 
 +8.439130E+02 +1.677362E+01 +2.079333E+01 +1.677362E+01 +4.887318E+02 +6.030106E+00 +2.079333E+01 +6.030106E+00 +3.759975E+02 
 +8.597926E+02 +8.039907E+00 -8.023200E-01 +8.039907E+00 +4.932192E+02 +1.032995E+01 -8.023200E-01 +1.032995E+01 +3.446409E+02 
 +8.726934E+02 +6.255114E+00 -1.019633E+01 +6.255114E+00 +4.914173E+02 +1.843132E+01 -1.019633E+01 +1.843132E+01 +3.268880E+02 
 +8.887288E+02 +1.319345E+01 -6.761718E+00 +1.319345E+01 +4.961537E+02 +1.815171E+01 -6.761718E+00 +1.815171E+01 +3.258603E+02 
 +8.771957E+02 +1.163872E+01 -1.424424E+01 +1.163872E+01 +4.901601E+02 +1.022511E+01 -1.424424E+01 +1.022511E+01 +3.163267E+02 
 +8.753561E+02 -3.358669E+00 -1.665067E+01 -3.358669E+00 +4.966540E+02 +4.634361E+00 -1.665067E+01 +4.634361E+00 +3.339856E+02 
 +8.802823E+02 -8.436298E+00 +2.424517E+00 -8.436298E+00 +5.041682E+02 -1.802660E+00 +2.424517E+00 -1.802660E+00 +3.447348E+02 
 +8.676961E+02 -1.035976E+01 +1.616266E+00 -1.035976E+01 +5.033198E+02 -4.391045E+00 +1.616266E+00 -4.391045E+00 +3.525655E+02 
 +8.760971E+02 +4.483653E+00 +2.509207E+00 +4.483653E+00 +5.154485E+02 -2.029313E-02 +2.509207E+00 -2.029313E-02 +3.703316E+02 
 +8.794578E+02 +1.775298E+00 +2.246735E+00 +1.775298E+00 +5.197525E+02 +4.133150E+00 +2.246735E+00 +4.133150E+00 +3.698452E+02 
 +9.009620E+02 +2.395189E+00 +1.106066E+00 +2.395189E+00 +5.393513E+02 +3.460363E+00 +1.106066E+00 +3.460363E+00 +3.815026E+02 
 +8.720114E+02 -6.422803E+00 -5.639492E+00 -6.422803E+00 +5.380894E+02 +1.331543E+00 -5.639492E+00 +1.331543E+00 +3.761647E+02 
 +8.292075E+02 -6.540313E+00 -6.206529E+00 -6.540313E+00 +5.041296E+02 +5.996117E+00 -6.206529E+00 +5.996117E+00 +3.717051E+02 
 +8.249830E+02 -1.330263E+00 +7.381146E-01 -1.330263E+00 +4.830957E+02 +7.670594E+00 +7.381146E-01 +7.670594E+00 +3.841229E+02 
 +8.320532E+02 +1.612531E+00 +1.711400E+00 +1.612531E+00 +4.648882E+02 +3.216664E+00 +1.711400E+00 +3.216664E+00 +3.810958E+02 
 +8.887324E+02 -3.903891E+00 +2.594751E+00 -3.903891E+00 +4.808676E+02 -7.901168E-01 +2.594751E+00 -7.901168E-01 +3.859444E+02 
 +8.626011E+02 -1.214930E+01 +1.204761E+01 -1.214930E+01 +4.733822E+02 +5.775524E+00 +1.204761E+01 +5.775524E+00 +3.665841E+02 
 +8.407924E+02 -1.495589E+01 +1.654194E+01 -1.495589E+01 +4.638948E+02 +8.901793E+00 +1.654194E+01 +8.901793E+00 +3.556855E+02 
 +8.482893E+02 -7.481710E+00 +1.299083E+01 -7.481710E+00 +4.622565E+02 +6.179853E+00 +1.299083E+01 +6.179853E+00 +3.528033E+02 
 +8.535435E+02 -2.151562E+00 +9.645350E+00 -2.151562E+00 +4.661060E+02 +8.478461E-01 +9.645350E+00 +8.478461E-01 +3.583298E+02 
 +8.444879E+02 +1.149290E+01 +8.754150E+00 +1.149290E+01 +4.664421E+02 -8.101213E+00 +8.754150E+00 -8.101213E+00 +3.796283E+02 
 +8.583298E+02 +1.241807E+01 +1.102375E+01 +1.241807E+01 +4.695051E+02 -1.959277E+01 +1.102375E+01 -1.959277E+01 +3.992677E+02 
 +8.474446E+02 +1.204051E+01 +1.073599E+01 +1.204051E+01 +4.597767E+02 -1.581780E+01 +1.073599E+01 -1.581780E+01 +3.793461E+02 
 +8.575960E+02 +1.202738E+01 -3.061506E+00 +1.202738E+01 +4.729104E+02 +1.540670E+00 -3.061506E+00 +1.540670E+00 +3.590379E+02 
 +8.705023E+02 +1.188178E+01 -6.694597E+00 +1.188178E+01 +4.843241E+02 +8.327659E+00 -6.694597E+00 +8.327659E+00 +3.474761E+02 
 +8.653783E+02 +3.319077E+00 -1.799627E+01 +3.319077E+00 +4.750637E+02 +2.887852E+00 -1.799627E+01 +2.887852E+00 +3.367728E+02 
 +8.664722E+02 -3.083685E+00 -1.440578E+01 -3.083685E+00 +4.738447E+02 +1.972776E+00 -1.440578E+01 +1.972776E+00 +3.381539E+02 
 +8.754166E+02 -9.388698E+00 -5.724622E-01 -9.388698E+00 +4.852614E+02 -3.784358E+00 -5.724622E-01 -3.784358E+00 +3.423336E+02 
 +8.809949E+02 -1.204437E+01 -1.219760E+00 -1.204437E+01 +5.011283E+02 -6.127129E+00 -1.219760E+00 -6.127129E+00 +3.584757E+02 
 +8.773025E+02 -3.217540E+00 -8.300109E+00 -3.217540E+00 +4.960155E+02 -2.392485E+01 -8.300109E+00 -2.392485E+01 +3.576606E+02 
 +8.761220E+02 -1.018960E+01 -1.094458E+01 -1.018960E+01 +4.881467E+02 -3.173739E+01 -1.094458E+01 -3.173739E+01 +3.552140E+02 
 +8.784881E+02 -7.910456E+00 -6.649360E+00 -7.910456E+00 +4.923644E+02 -3.265326E+01 -6.649360E+00 -3.265326E+01 +3.633060E+02 
 +8.722605E+02 -1.401064E+01 -6.681526E+00 -1.401064E+01 +5.017953E+02 -2.487490E+01 -6.681526E+00 -2.487490E+01 +3.733719E+02 
 +8.071341E+02 -8.734677E+00 +1.103581E+00 -8.734677E+00 +4.892143E+02 -7.335382E+00 +1.103581E+00 -7.335382E+00 +3.698950E+02 
 +8.025267E+02 -4.168717E+00 +6.215393E+00 -4.168717E+00 +4.779014E+02 +6.627837E+00 +6.215393E+00 +6.627837E+00 +3.787296E+02 
 +8.123401E+02 -2.615184E+00 +2.105447E+00 -2.615184E+00 +4.466777E+02 +7.833782E+00 +2.105447E+00 +7.833782E+00 +3.708377E+02 
 +8.901800E+02 -4.504829E+00 -5.210578E+00 -4.504829E+00 +4.688705E+02 -5.862329E+00 -5.210578E+00 -5.862329E+00 +3.876512E+02 
 +8.680727E+02 -6.307879E+00 +2.534561E-01 -6.307879E+00 +4.619725E+02 -8.800495E+00 +2.534561E-01 -8.800495E+00 +3.679797E+02 
 +8.277859E+02 -1.308832E+01 +1.808136E+01 -1.308832E+01 +4.642001E+02 -1.763819E+00 +1.808136E+01 -1.763819E+00 +3.409176E+02 
 +8.622246E+02 -5.932319E+00 +8.787558E+00 -5.932319E+00 +4.999493E+02 -3.086627E+00 +8.787558E+00 -3.086627E+00 +3.445425E+02 
 +8.715966E+02 +5.979245E-01 +3.547505E+00 +5.979245E-01 +5.121163E+02 -9.358340E+00 +3.547505E+00 -9.358340E+00 +3.567310E+02 
 +8.681127E+02 +7.339737E+00 -1.472472E+00 +7.339737E+00 +4.963349E+02 -1.335250E+01 -1.472472E+00 -1.335250E+01 +3.787008E+02 
 +8.670220E+02 +6.467966E+00 +3.176139E+00 +6.467966E+00 +4.676043E+02 -1.409814E+01 +3.176139E+00 -1.409814E+01 +3.851676E+02 
 +8.681211E+02 +1.335674E+01 +1.421746E+01 +1.335674E+01 +4.625626E+02 -1.179997E+01 +1.421746E+01 -1.179997E+01 +3.933795E+02 
 +8.344566E+02 +1.568592E+01 -9.387992E+00 +1.568592E+01 +4.591052E+02 -7.893678E+00 -9.387992E+00 -7.893678E+00 +3.898697E+02 
 +8.531545E+02 +1.188623E+01 -8.990277E+00 +1.188623E+01 +4.728627E+02 -5.290540E+00 -8.990277E+00 -5.290540E+00 +3.873433E+02 
 +8.669815E+02 +6.871839E+00 -1.028901E+01 +6.871839E+00 +4.686457E+02 -1.142820E+00 -1.028901E+01 -1.142820E+00 +3.689182E+02 
 +8.590501E+02 +3.819356E+00 -8.443478E+00 +3.819356E+00 +4.595635E+02 -9.325444E-01 -8.443478E+00 -9.325444E-01 +3.376272E+02 
 +8.659397E+02 -4.904258E+00 +2.403380E+00 -4.904258E+00 +4.722166E+02 -6.763243E+00 +2.403380E+00 -6.763243E+00 +3.289749E+02 
 +8.702063E+02 -9.620330E+00 -5.053324E+00 -9.620330E+00 +4.914527E+02 -1.208728E+01 -5.053324E+00 -1.208728E+01 +3.480368E+02 
 +8.786710E+02 -6.788032E+00 -1.231778E+01 -6.788032E+00 +4.877539E+02 -2.606367E+01 -1.231778E+01 -2.606367E+01 +3.521440E+02 
 +8.639066E+02 -8.533579E+00 -1.759411E+01 -8.533579E+00 +4.682482E+02 -3.242453E+01 -1.759411E+01 -3.242453E+01 +3.482094E+02 
 +8.727279E+02 -1.117617E+01 -5.852894E+00 -1.117617E+01 +4.827099E+02 -2.857355E+01 -5.852894E+00 -2.857355E+01 +3.680716E+02 
 +8.903770E+02 -1.928656E+01 +3.165151E+00 -1.928656E+01 +5.029904E+02 -1.458038E+01 +3.165151E+00 -1.458038E+01 +3.915030E+02 
 +8.279769E+02 -1.418202E+01 +1.170330E+01 -1.418202E+01 +4.834843E+02 +7.737709E+00 +1.170330E+01 +7.737709E+00 +3.811108E+02 
 +8.115514E+02 -8.288690E+00 +3.922968E+00 -8.288690E+00 +4.820439E+02 +2.363670E+01 +3.922968E+00 +2.363670E+01 +3.762748E+02 
 +8.044449E+02 -6.270599E-01 -4.928107E+00 -6.270599E-01 +4.608711E+02 +2.100624E+01 -4.928107E+00 +2.100624E+01 +3.586694E+02 
 +8.686938E+02 -3.717850E+00 -5.996447E+00 -3.717850E+00 +4.646469E+02 +1.153324E+00 -5.996447E+00 +1.153324E+00 +3.684481E+02 
 +8.512990E+02 -1.781584E+00 -3.480688E+00 -1.781584E+00 +4.522088E+02 -6.364521E+00 -3.480688E+00 -6.364521E+00 +3.456966E+02 
 +8.310286E+02 -9.460752E+00 +1.021269E+01 -9.460752E+00 +4.664342E+02 -3.524539E+00 +1.021269E+01 -3.524539E+00 +3.273999E+02 
 +8.685602E+02 -2.956224E+00 +2.484223E+00 -2.956224E+00 +5.058810E+02 -3.920309E+00 +2.484223E+00 -3.920309E+00 +3.439165E+02 
 +8.693880E+02 +4.588198E-01 +5.140960E-01 +4.588198E-01 +5.071270E+02 -3.422358E+00 +5.140960E-01 -3.422358E+00 +3.511876E+02 
 +8.765997E+02 +2.362917E+00 -1.683602E+00 +2.362917E+00 +5.056522E+02 -1.480460E-01 -1.683602E+00 -1.480460E-01 +3.626790E+02 
 +8.847747E+02 +2.600777E+00 +1.217063E+00 +2.600777E+00 +5.083367E+02 -2.767916E+00 +1.217063E+00 -2.767916E+00 +3.700310E+02 
 +8.930480E+02 +5.861796E+00 +4.984140E+00 +5.861796E+00 +5.071101E+02 -8.284865E+00 +4.984140E+00 -8.284865E+00 +3.854488E+02 
 +8.283959E+02 +1.256541E+01 -1.564006E+01 +1.256541E+01 +4.593282E+02 +4.631118E-01 -1.564006E+01 +4.631118E-01 +3.783632E+02 
 +8.462910E+02 +1.439651E+01 -7.721992E+00 +1.439651E+01 +4.573833E+02 +4.848590E+00 -7.721992E+00 +4.848590E+00 +3.885419E+02 
 +8.566867E+02 +1.307804E+01 -3.247588E+00 +1.307804E+01 +4.626608E+02 +3.765007E+00 -3.247588E+00 +3.765007E+00 +3.773234E+02 
 +8.524056E+02 +6.300320E+00 -1.137927E+01 +6.300320E+00 +4.664322E+02 -1.333881E+00 -1.137927E+01 -1.333881E+00 +3.508400E+02 
 +8.655395E+02 -2.314067E+00 +1.254060E+00 -2.314067E+00 +4.824153E+02 -1.032520E+01 +1.254060E+00 -1.032520E+01 +3.370745E+02 
 +8.747059E+02 -7.209901E+00 -5.951252E-01 -7.209901E+00 +5.000388E+02 -1.740857E+01 -5.951252E-01 -1.740857E+01 +3.473342E+02 
 +8.705543E+02 -3.791702E+00 -4.175276E+00 -3.791702E+00 +4.717068E+02 -1.157954E+01 -4.175276E+00 -1.157954E+01 +3.582926E+02 
 +8.627121E+02 -5.744817E+00 -1.123830E+01 -5.744817E+00 +4.853218E+02 -1.551787E+01 -1.123830E+01 -1.551787E+01 +3.608226E+02 
 +8.731436E+02 -1.126429E+01 -3.663276E+00 -1.126429E+01 +4.895012E+02 -2.060319E+01 -3.663276E+00 -2.060319E+01 +3.745948E+02 
 +8.679287E+02 -1.848688E+01 +9.829862E+00 -1.848688E+01 +4.837651E+02 -1.645493E+01 +9.829862E+00 -1.645493E+01 +3.711419E+02 
 +8.442290E+02 -1.742952E+01 +1.021133E+01 -1.742952E+01 +4.695179E+02 +6.365364E-01 +1.021133E+01 +6.365364E-01 +3.501428E+02 
 +8.275410E+02 -1.587421E+01 +1.375715E-01 -1.587421E+01 +4.624016E+02 +8.625477E+00 +1.375715E-01 +8.625477E+00 +3.422125E+02 
 +8.219861E+02 -4.526025E-01 -7.151195E+00 -4.526025E-01 +4.752009E+02 +1.026017E+01 -7.151195E+00 +1.026017E+01 +3.393118E+02 
 +8.611398E+02 +3.504697E+00 -2.770684E+00 +3.504697E+00 +5.226525E+02 +6.721040E+00 -2.770684E+00 +6.721040E+00 +3.515826E+02 
 +8.625299E+02 +1.037573E+01 -1.192584E+00 +1.037573E+01 +5.262941E+02 +2.071734E+00 -1.192584E+00 +2.071734E+00 +3.404693E+02 
 +8.709534E+02 +8.140239E-01 -3.146795E+00 +8.140239E-01 +5.204712E+02 +2.544612E+00 -3.146795E+00 +2.544612E+00 +3.398515E+02 
 +8.720649E+02 -6.615954E-01 -5.579324E+00 -6.615954E-01 +5.126024E+02 +2.817532E+00 -5.579324E+00 +2.817532E+00 +3.455132E+02 
 +8.699326E+02 -1.661647E+00 -2.393492E+00 -1.661647E+00 +5.048622E+02 +2.555568E+00 -2.393492E+00 +2.555568E+00 +3.462073E+02 
 +8.720961E+02 -1.880841E+00 -3.665360E-01 -1.880841E+00 +5.028965E+02 +8.658470E-01 -3.665360E-01 +8.658470E-01 +3.501646E+02 
 +8.771895E+02 -2.348815E+00 +7.409131E-02 -2.348815E+00 +5.051845E+02 +9.633184E-02 +7.409131E-02 +9.633184E-02 +3.605338E+02 
 +8.777745E+02 -3.700978E+00 -2.707036E+00 -3.700978E+00 +4.999879E+02 -2.917071E+00 -2.707036E+00 -2.917071E+00 +3.654207E+02 
 +8.548059E+02 +4.969690E+00 -1.195234E+01 +4.969690E+00 +4.710807E+02 -2.287301E+00 -1.195234E+01 -2.287301E+00 +3.602871E+02 
 +8.461674E+02 +1.183641E+01 -4.783426E+00 +1.183641E+01 +4.641679E+02 +2.061091E+00 -4.783426E+00 +2.061091E+00 +3.749368E+02 
 +8.428434E+02 +1.264929E+01 +3.394261E-02 +1.264929E+01 +4.703764E+02 +3.820310E+00 +3.394261E-02 +3.820310E+00 +3.770183E+02 
 +8.504529E+02 +7.091745E+00 -8.008282E+00 +7.091745E+00 +4.800896E+02 +6.492441E+00 -8.008282E+00 +6.492441E+00 +3.655531E+02 
 +8.630304E+02 -1.119410E+00 -2.122546E+00 -1.119410E+00 +4.723399E+02 +1.133296E+01 -2.122546E+00 +1.133296E+01 +3.501473E+02 
 +8.626024E+02 -1.264732E+00 -1.846219E-01 -1.264732E+00 +4.511956E+02 -4.474852E-01 -1.846219E-01 -4.474852E-01 +3.442220E+02 
 +8.550084E+02 -2.450875E+00 -5.549701E+00 -2.450875E+00 +4.509646E+02 -1.529819E+00 -5.549701E+00 -1.529819E+00 +3.555005E+02 
 +8.507079E+02 -2.562597E+00 -4.477241E+00 -2.562597E+00 +4.598504E+02 -1.651878E+01 -4.477241E+00 -1.651878E+01 +3.508379E+02 
 +8.587220E+02 -5.800994E+00 +4.881461E+00 -5.800994E+00 +4.800620E+02 -2.034033E+01 +4.881461E+00 -2.034033E+01 +3.573414E+02 
 +8.538146E+02 -1.113493E+01 +1.110791E+01 -1.113493E+01 +4.780757E+02 -8.282880E+00 +1.110791E+01 -8.282880E+00 +3.375658E+02 
 +8.517459E+02 -9.306190E+00 +2.498505E+00 -9.306190E+00 +4.757204E+02 -7.382718E-02 +2.498505E+00 -7.382718E-02 +3.230156E+02 
 +8.566061E+02 -1.556969E+01 +4.987774E-01 -1.556969E+01 +4.846791E+02 +7.447766E+00 +4.987774E-01 +7.447766E+00 +3.318210E+02 
 +8.432125E+02 -5.900044E+00 -6.375945E+00 -5.900044E+00 +4.902135E+02 +7.285085E+00 -6.375945E+00 +7.285085E+00 +3.306521E+02 
 +8.396857E+02 -2.969657E+00 -5.028053E+00 -2.969657E+00 +5.038579E+02 -8.922302E-01 -5.028053E+00 -8.922302E-01 +3.281478E+02 
 +8.457341E+02 +8.986864E+00 -3.555859E+00 +8.986864E+00 +5.160015E+02 -6.298625E+00 -3.555859E+00 -6.298625E+00 +3.238569E+02 
 +8.735616E+02 +1.416802E+00 -6.773830E+00 +1.416802E+00 +5.297383E+02 -3.675391E-02 -6.773830E+00 -3.675391E-02 +3.307810E+02 
 +8.689302E+02 -1.039601E+00 -1.024235E+01 -1.039601E+00 +5.213110E+02 +1.796291E+00 -1.024235E+01 +1.796291E+00 +3.314001E+02 
 +8.657895E+02 -3.513127E+00 -4.492026E+00 -3.513127E+00 +5.122223E+02 -2.646501E+00 -4.492026E+00 -2.646501E+00 +3.362913E+02 
 +8.659435E+02 -5.052697E+00 +1.326969E+00 -5.052697E+00 +5.038161E+02 -2.277661E+00 +1.326969E+00 -2.277661E+00 +3.441559E+02 
 +8.671196E+02 -3.881671E+00 +8.184666E-01 -3.881671E+00 +4.973242E+02 -3.924387E-01 +8.184666E-01 -3.924387E-01 +3.485093E+02 
 +8.655249E+02 -5.515038E+00 -4.477481E+00 -5.515038E+00 +4.866975E+02 -8.953325E-03 -4.477481E+00 -8.953325E-03 +3.417013E+02 
 +8.660929E+02 -3.624324E+00 -4.077939E+00 -3.624324E+00 +4.792932E+02 +9.974546E+00 -4.077939E+00 +9.974546E+00 +3.474827E+02 
 +8.482900E+02 +5.559600E+00 -3.590673E+00 +5.559600E+00 +4.705566E+02 +1.883492E+01 -3.590673E+00 +1.883492E+01 +3.679719E+02 
 +8.361929E+02 +1.176769E+01 -4.953495E+00 +1.176769E+01 +4.621895E+02 +1.029665E+01 -4.953495E+00 +1.029665E+01 +3.752920E+02 
 +8.331756E+02 +1.008554E+01 -4.357485E+00 +1.008554E+01 +4.346435E+02 +6.908710E+00 -4.357485E+00 +6.908710E+00 +3.655574E+02 
 +8.358382E+02 +2.444693E+00 -4.131937E+00 +2.444693E+00 +4.177598E+02 +1.269316E+01 -4.131937E+00 +1.269316E+01 +3.548637E+02 
 +8.548698E+02 -1.405649E+00 -6.324692E+00 -1.405649E+00 +4.410843E+02 +8.155495E+00 -6.324692E+00 +8.155495E+00 +3.599531E+02 
 +8.479297E+02 +1.424741E+00 -6.898209E+00 +1.424741E+00 +4.434541E+02 +1.013927E+01 -6.898209E+00 +1.013927E+01 +3.558853E+02 
 +8.423920E+02 -1.620136E+00 +3.865409E+00 -1.620136E+00 +4.378149E+02 +1.468303E+01 +3.865409E+00 +1.468303E+01 +3.531937E+02 
 +8.400514E+02 -5.043069E+00 +1.542263E+01 -5.043069E+00 +4.436282E+02 +1.131268E+01 +1.542263E+01 +1.131268E+01 +3.496443E+02 
 +8.526693E+02 -8.483852E+00 +9.583460E+00 -8.483852E+00 +4.707009E+02 +1.450534E+00 +9.583460E+00 +1.450534E+00 +3.323509E+02 
 +8.652426E+02 -8.709323E+00 -3.792325E-01 -8.709323E+00 +4.933006E+02 -2.754847E+00 -3.792325E-01 -2.754847E+00 +3.298647E+02 
 +8.663742E+02 -1.512033E+01 +9.011173E-01 -1.512033E+01 +5.037338E+02 +2.271057E+00 +9.011173E-01 +2.271057E+00 +3.409509E+02 
 +8.435524E+02 -7.483051E+00 -7.960220E+00 -7.483051E+00 +4.920887E+02 +4.318178E+00 -7.960220E+00 +4.318178E+00 +3.367431E+02 
 +8.524766E+02 -1.562866E+00 -1.338053E+01 -1.562866E+00 +4.998961E+02 +1.370059E+00 -1.338053E+01 +1.370059E+00 +3.430490E+02 
 +8.537686E+02 +6.824777E+00 -1.504064E+01 +6.824777E+00 +5.069650E+02 -9.919843E+00 -1.504064E+01 -9.919843E+00 +3.429130E+02 
 +8.632650E+02 -7.929956E-01 -9.150924E+00 -7.929956E-01 +5.114302E+02 -1.805579E+01 -9.150924E+00 -1.805579E+01 +3.327336E+02 
 +8.685379E+02 -6.432803E-02 -8.082939E+00 -6.432803E-02 +5.222632E+02 -1.464126E+01 -8.082939E+00 -1.464126E+01 +3.353066E+02 
 +8.625189E+02 -6.477887E+00 -3.580409E+00 -6.477887E+00 +5.189054E+02 -1.466213E+01 -3.580409E+00 -1.466213E+01 +3.444207E+02 
 +8.527375E+02 -7.445165E+00 +3.834587E+00 -7.445165E+00 +4.952459E+02 -2.003387E+01 +3.834587E+00 -2.003387E+01 +3.361060E+02 
 +8.523915E+02 -5.853544E+00 +2.048548E+00 -5.853544E+00 +4.764955E+02 -2.404534E+01 +2.048548E+00 -2.404534E+01 +3.273076E+02 
 +8.541758E+02 -4.330568E+00 -1.534285E+00 -4.330568E+00 +4.721446E+02 -2.331022E+01 -1.534285E+00 -2.331022E+01 +3.194939E+02 
 +8.538666E+02 -2.800463E+00 +1.912476E+00 -2.800463E+00 +4.771544E+02 -2.113884E+01 +1.912476E+00 -2.113884E+01 +3.247937E+02 
 +8.512923E+02 +5.149164E+00 -1.487537E+00 +5.149164E+00 +4.705982E+02 -1.063743E+01 -1.487537E+00 -1.063743E+01 +3.495451E+02 
 +8.363813E+02 +8.925134E+00 -1.037986E+01 +8.925134E+00 +4.416571E+02 +1.265139E+00 -1.037986E+01 +1.265139E+00 +3.626553E+02 
 +8.449890E+02 +6.238802E+00 -6.978165E+00 +6.238802E+00 +4.408201E+02 +6.277814E+00 -6.978165E+00 +6.277814E+00 +3.730444E+02 
 +8.402357E+02 +3.156310E+00 -5.538469E+00 +3.156310E+00 +4.493411E+02 +5.198019E+00 -5.538469E+00 +5.198019E+00 +3.708307E+02 
 +8.505782E+02 +1.082470E+00 -5.754283E+00 +1.082470E+00 +4.526411E+02 +6.110197E+00 -5.754283E+00 +6.110197E+00 +3.680175E+02 
 +8.515320E+02 +3.022013E+00 -2.557877E+00 +3.022013E+00 +4.528428E+02 +8.500623E+00 -2.557877E+00 +8.500623E+00 +3.804929E+02 
 +8.459698E+02 -3.174473E-01 +7.751177E+00 -3.174473E-01 +4.495964E+02 +1.533433E+01 +7.751177E+00 +1.533433E+01 +3.963770E+02 
 +8.467959E+02 +6.642365E-01 +9.071847E+00 +6.642365E-01 +4.530012E+02 +1.252391E+01 +9.071847E+00 +1.252391E+01 +3.784550E+02 
 +8.634806E+02 -1.957284E+00 +2.028998E+00 -1.957284E+00 +4.759226E+02 -2.672837E+00 +2.028998E+00 -2.672837E+00 +3.469929E+02 
 +8.751425E+02 -9.262724E+00 -3.890917E+00 -9.262724E+00 +5.017911E+02 -1.445759E+01 -3.890917E+00 -1.445759E+01 +3.464120E+02 
 +8.761667E+02 -1.537921E+01 -3.151605E+00 -1.537921E+01 +5.139458E+02 -1.330211E+01 -3.151605E+00 -1.330211E+01 +3.671315E+02 
 +8.598607E+02 -9.990883E+00 -9.124161E+00 -9.990883E+00 +4.991413E+02 -1.154006E+01 -9.124161E+00 -1.154006E+01 +3.664733E+02 
 +8.436611E+02 +8.939798E-01 -1.074558E+01 +8.939798E-01 +4.725923E+02 -4.050523E+00 -1.074558E+01 -4.050523E+00 +3.470761E+02 
 +8.343794E+02 +2.272959E+00 -1.212146E+01 +2.272959E+00 +4.527613E+02 +1.522585E+01 -1.212146E+01 +1.522585E+01 +3.473380E+02 
 +8.318924E+02 -4.401732E+00 -7.995300E+00 -4.401732E+00 +4.441747E+02 +2.462427E+01 -7.995300E+00 +2.462427E+01 +3.495276E+02 
 +8.291963E+02 -6.817633E+00 -3.772935E+00 -6.817633E+00 +4.374735E+02 +2.291970E+01 -3.772935E+00 +2.291970E+01 +3.472646E+02 
 +8.248296E+02 -1.110014E+01 -4.949274E+00 -1.110014E+01 +4.400376E+02 +1.293312E+01 -4.949274E+00 +1.293312E+01 +3.411496E+02 
 +8.267013E+02 -1.138536E+01 -5.274234E-02 -1.138536E+01 +4.498644E+02 -8.446454E+00 -5.274234E-02 -8.446454E+00 +3.190420E+02 
 +8.409345E+02 -7.505771E+00 +5.230904E+00 -7.505771E+00 +4.576064E+02 -2.056818E+01 +5.230904E+00 -2.056818E+01 +3.168325E+02 
 +8.498596E+02 -7.831274E-01 +2.085289E+00 -7.831274E-01 +4.681473E+02 -1.960656E+01 +2.085289E+00 -1.960656E+01 +3.213083E+02 
 +8.517270E+02 -1.330697E+00 +1.882997E+00 -1.330697E+00 +4.768650E+02 -1.764287E+01 +1.882997E+00 -1.764287E+01 +3.188337E+02 
 +8.446401E+02 -4.046930E+00 +7.151315E+00 -4.046930E+00 +4.603417E+02 -5.553209E+00 +7.151315E+00 -5.553209E+00 +3.248908E+02 
 +8.366874E+02 -5.996776E-01 -5.786340E+00 -5.996776E-01 +4.374415E+02 +9.767454E+00 -5.786340E+00 +9.767454E+00 +3.390842E+02 
 +8.381436E+02 +4.384777E+00 -1.136202E+01 +4.384777E+00 +4.432808E+02 +8.509091E+00 -1.136202E+01 +8.509091E+00 +3.545532E+02 
 +8.394258E+02 +1.035547E+00 -4.449865E+00 +1.035547E+00 +4.487349E+02 +8.777644E-01 -4.449865E+00 +8.777644E-01 +3.609834E+02 
 +8.460440E+02 +1.507534E+00 -4.947568E+00 +1.507534E+00 +4.496734E+02 +3.580464E+00 -4.947568E+00 +3.580464E+00 +3.656991E+02 
 +8.480311E+02 +1.147033E+00 +4.573169E+00 +1.147033E+00 +4.530482E+02 +1.754768E+01 +4.573169E+00 +1.754768E+01 +3.807231E+02 
 +8.545378E+02 +4.026570E+00 +3.437256E-01 +4.026570E+00 +4.702983E+02 +2.062988E+01 +3.437256E-01 +2.062988E+01 +4.012415E+02 
 +8.489044E+02 +8.677565E+00 -3.763075E+00 +8.677565E+00 +4.624770E+02 +7.501192E+00 -3.763075E+00 +7.501192E+00 +3.737649E+02 
 +8.427919E+02 +9.206172E+00 -8.765890E+00 +9.206172E+00 +4.395339E+02 -4.934215E+00 -8.765890E+00 -4.934215E+00 +3.449931E+02 
 +8.425601E+02 -3.487991E+00 -7.128305E+00 -3.487991E+00 +4.315857E+02 +5.098824E-02 -7.128305E+00 +5.098824E-02 +3.618134E+02 
 +8.390733E+02 -1.213338E+01 -9.585709E+00 -1.213338E+01 +4.293699E+02 +2.803737E+00 -9.585709E+00 +2.803737E+00 +3.766418E+02 
 +8.333784E+02 -1.117109E+01 -8.399019E+00 -1.117109E+01 +4.331301E+02 +1.411235E+00 -8.399019E+00 +1.411235E+00 +3.614719E+02 
 +8.323782E+02 -3.736018E+00 -5.456881E+00 -3.736018E+00 +4.421947E+02 +5.491984E+00 -5.456881E+00 +5.491984E+00 +3.538177E+02 
 +8.363267E+02 -3.828040E+00 -3.048377E+00 -3.828040E+00 +4.449363E+02 +1.782102E+01 -3.048377E+00 +1.782102E+01 +3.760289E+02 
 +8.353380E+02 -4.156972E+00 -6.163939E-01 -4.156972E+00 +4.434682E+02 +1.756043E+01 -6.163939E-01 +1.756043E+01 +3.890855E+02 
 +8.381027E+02 -7.283055E+00 -1.571989E+00 -7.283055E+00 +4.502532E+02 +1.599548E+01 -1.571989E+00 +1.599548E+01 +3.878449E+02 
 +8.354387E+02 -8.740108E+00 -2.710837E+00 -8.740108E+00 +4.465145E+02 +1.491714E+01 -2.710837E+00 +1.491714E+01 +3.622859E+02 
 +8.288563E+02 -1.333161E+01 -3.146776E+00 -1.333161E+01 +4.346590E+02 +5.876262E+00 -3.146776E+00 +5.876262E+00 +3.340073E+02 
 +8.336286E+02 -7.985066E+00 +2.978079E+00 -7.985066E+00 +4.405510E+02 -1.489857E+01 +2.978079E+00 -1.489857E+01 +3.300680E+02 
 +8.424717E+02 +1.016146E+00 +1.169490E+00 +1.016146E+00 +4.553464E+02 -2.564823E+01 +1.169490E+00 -2.564823E+01 +3.260765E+02 
 +8.497353E+02 -2.146845E-01 +2.771719E+00 -2.146845E-01 +4.667656E+02 -2.352053E+01 +2.771719E+00 -2.352053E+01 +3.226861E+02 
 +8.533788E+02 -7.765466E+00 +6.967465E+00 -7.765466E+00 +4.792589E+02 -2.504806E+01 +6.967465E+00 -2.504806E+01 +3.243797E+02 
 +8.567259E+02 -5.320421E+00 -1.150418E+00 -5.320421E+00 +4.853490E+02 -2.237348E+01 -1.150418E+00 -2.237348E+01 +3.352255E+02 
 +8.456463E+02 +2.543687E+00 -9.048045E+00 +2.543687E+00 +4.617998E+02 -1.046780E+01 -9.048045E+00 -1.046780E+01 +3.432055E+02 
 +8.479294E+02 +1.000594E+00 -4.618219E+00 +1.000594E+00 +4.521074E+02 -2.457086E+00 -4.618219E+00 -2.457086E+00 +3.555825E+02 
 +8.415425E+02 -1.570558E+00 +2.635725E+00 -1.570558E+00 +4.480239E+02 +3.966345E+00 +2.635725E+00 +3.966345E+00 +3.617553E+02 
 +8.592216E+02 +2.503717E+00 +2.224066E+00 +2.503717E+00 +4.813736E+02 -2.005201E+01 +2.224066E+00 -2.005201E+01 +3.726970E+02 
 +8.620188E+02 +5.257683E+00 +1.110888E+00 +5.257683E+00 +4.817598E+02 -2.682646E+01 +1.110888E+00 -2.682646E+01 +3.727117E+02 
 +8.607046E+02 +5.537465E+00 -1.451622E+00 +5.537465E+00 +4.704358E+02 -1.875428E+01 -1.451622E+00 -1.875428E+01 +3.693041E+02 
 +8.503382E+02 +7.184587E+00 -1.145691E+01 +7.184587E+00 +4.524449E+02 -6.434072E+00 -1.145691E+01 -6.434072E+00 +3.761726E+02 
 +8.503359E+02 -1.238597E+00 -1.422601E+01 -1.238597E+00 +4.431180E+02 +5.562535E+00 -1.422601E+01 +5.562535E+00 +4.017347E+02 
 +8.502415E+02 -3.680437E+00 -1.052814E+01 -3.680437E+00 +4.494714E+02 +7.605505E+00 -1.052814E+01 +7.605505E+00 +4.027203E+02 
 +8.534327E+02 +5.363822E-01 -2.922866E+00 +5.363822E-01 +4.710558E+02 +6.103908E+00 -2.922866E+00 +6.103908E+00 +3.773827E+02 
 +8.475993E+02 -5.560881E+00 -6.242656E+00 -5.560881E+00 +4.689283E+02 +8.763997E+00 -6.242656E+00 +8.763997E+00 +3.750484E+02 
 +8.409476E+02 -9.296374E+00 -6.532865E+00 -9.296374E+00 +4.488791E+02 +1.660520E+01 -6.532865E+00 +1.660520E+01 +3.920352E+02 
 +8.372489E+02 -3.722350E+00 +1.296151E+00 -3.722350E+00 +4.436295E+02 +1.662118E+01 +1.296151E+00 +1.662118E+01 +3.982500E+02 
 +8.377008E+02 -3.356123E+00 +1.838214E+00 -3.356123E+00 +4.487078E+02 +1.376508E+01 +1.838214E+00 +1.376508E+01 +3.909949E+02 
 +8.350057E+02 -7.016231E+00 +3.959193E+00 -7.016231E+00 +4.410393E+02 +1.437362E+01 +3.959193E+00 +1.437362E+01 +3.603678E+02 
 +8.331937E+02 -9.703087E+00 +3.313790E-01 -9.703087E+00 +4.396712E+02 +4.904214E+00 +3.313790E-01 +4.904214E+00 +3.491328E+02 
 +8.445442E+02 -5.120796E+00 -3.464816E-02 -5.120796E+00 +4.574201E+02 -2.088046E+01 -3.464816E-02 -2.088046E+01 +3.595627E+02 
 +8.461247E+02 +2.128977E+00 -3.919319E+00 +2.128977E+00 +4.591405E+02 -3.422281E+01 -3.919319E+00 -3.422281E+01 +3.411821E+02 
 +8.510958E+02 +1.597456E+00 +4.676710E-01 +1.597456E+00 +4.657313E+02 -3.445054E+01 +4.676710E-01 -3.445054E+01 +3.221551E+02 
 +8.587999E+02 -3.294262E+00 +2.334180E+00 -3.294262E+00 +4.859521E+02 -3.169723E+01 +2.334180E+00 -3.169723E+01 +3.210998E+02 
 +8.530516E+02 -8.172502E+00 +3.762479E+00 -8.172502E+00 +4.818051E+02 -2.462990E+01 +3.762479E+00 -2.462990E+01 +3.159471E+02 
 +8.406322E+02 -3.671600E+00 +4.805574E+00 -3.671600E+00 +4.556335E+02 -1.164942E+01 +4.805574E+00 -1.164942E+01 +3.141249E+02 
 +8.403962E+02 +8.547759E-01 +9.021402E-01 +8.547759E-01 +4.487733E+02 +5.042989E+00 +9.021402E-01 +5.042989E+00 +3.386102E+02 
 +8.445657E+02 -1.814094E+00 -1.284025E+00 -1.814094E+00 +4.609415E+02 -3.255277E-02 -1.284025E+00 -3.255277E-02 +3.615955E+02 
 +8.587813E+02 +3.237015E+00 -3.063978E+00 +3.237015E+00 +4.774375E+02 -3.389192E+01 -3.063978E+00 -3.389192E+01 +3.672119E+02 
 +8.639052E+02 +4.896265E+00 +8.406324E+00 +4.896265E+00 +4.700030E+02 -2.976350E+01 +8.406324E+00 -2.976350E+01 +3.708434E+02 
 +8.675418E+02 +4.512997E+00 +9.825353E+00 +4.512997E+00 +4.732616E+02 -3.094223E+01 +9.825353E+00 -3.094223E+01 +3.770574E+02 
 +8.667974E+02 -4.421466E-01 -1.872379E+00 -4.421466E-01 +4.723359E+02 -2.642362E+01 -1.872379E+00 -2.642362E+01 +3.992682E+02 
 +8.591603E+02 -2.211723E+00 -1.387697E+01 -2.211723E+00 +4.680514E+02 -8.646939E+00 -1.387697E+01 -8.646939E+00 +4.141584E+02 
 +8.572949E+02 +3.381108E+00 -6.440762E+00 +3.381108E+00 +4.785029E+02 -2.934873E+00 -6.440762E+00 -2.934873E+00 +3.917342E+02 
 +8.606760E+02 +5.485046E+00 -4.648574E+00 +5.485046E+00 +4.860626E+02 +9.903439E-02 -4.648574E+00 +9.903439E-02 +3.722663E+02 
 +8.521028E+02 -5.072914E+00 -1.131423E+01 -5.072914E+00 +4.809784E+02 +2.349650E-01 -1.131423E+01 +2.349650E-01 +3.705101E+02 
 +8.514050E+02 -6.028991E+00 -8.037649E+00 -6.028991E+00 +4.782104E+02 +1.485987E+00 -8.037649E+00 +1.485987E+00 +3.834510E+02 
 +8.425480E+02 -1.711910E-02 -1.374853E+00 -1.711910E-02 +4.613519E+02 +8.754019E+00 -1.374853E+00 +8.754019E+00 +3.977433E+02 
 +8.369177E+02 +5.976334E-02 +4.076847E+00 +5.976334E-02 +4.427582E+02 +1.205416E+01 +4.076847E+00 +1.205416E+01 +3.872756E+02 
 +8.306162E+02 -5.528009E+00 +7.278150E+00 -5.528009E+00 +4.357094E+02 +1.397693E+01 +7.278150E+00 +1.397693E+01 +3.580789E+02 
 +8.347260E+02 -5.037123E+00 -1.398205E+00 -5.037123E+00 +4.538911E+02 +1.591932E+00 -1.398205E+00 +1.591932E+00 +3.590451E+02 
 +8.528236E+02 -4.384694E+00 -1.056948E+00 -4.384694E+00 +4.778273E+02 -2.727926E+01 -1.056948E+00 -2.727926E+01 +3.786243E+02 
 +8.573089E+02 -1.532546E-01 +1.235932E+00 -1.532546E-01 +4.794218E+02 -4.066889E+01 +1.235932E+00 -4.066889E+01 +3.693950E+02 
 +8.689702E+02 +2.897459E+00 -4.308690E-01 +2.897459E+00 +4.799356E+02 -3.582643E+01 -4.308690E-01 -3.582643E+01 +3.453947E+02 
 +8.676769E+02 +3.442506E+00 -1.486863E-01 +3.442506E+00 +4.825495E+02 -3.052549E+01 -1.486863E-01 -3.052549E+01 +3.323318E+02 
 +8.645196E+02 -8.316968E+00 +3.876565E+00 -8.316968E+00 +4.950709E+02 -3.641043E+01 +3.876565E+00 -3.641043E+01 +3.303283E+02 
 +8.647008E+02 -8.809466E+00 +9.794263E+00 -8.809466E+00 +5.041451E+02 -4.626931E+01 +9.794263E+00 -4.626931E+01 +3.319069E+02 
 +8.646338E+02 -3.370734E+00 +5.010683E+00 -3.370734E+00 +5.014026E+02 -4.895907E+01 +5.010683E+00 -4.895907E+01 +3.498973E+02 
 +8.584214E+02 -5.993159E-01 -8.538334E+00 -5.993159E-01 +4.896264E+02 -4.274328E+01 -8.538334E+00 -4.274328E+01 +3.638625E+02 
 +8.539101E+02 +5.367602E-01 -2.797339E+00 +5.367602E-01 +4.655373E+02 -3.696843E+01 -2.797339E+00 -3.696843E+01 +3.612929E+02 
 +8.544574E+02 +4.383806E+00 +9.652902E+00 +4.383806E+00 +4.604393E+02 -4.040144E+01 +9.652902E+00 -4.040144E+01 +3.662049E+02 
 +8.705788E+02 +2.884666E+00 +1.588431E+01 +2.884666E+00 +4.741330E+02 -3.278013E+01 +1.588431E+01 -3.278013E+01 +3.748446E+02 
 +8.807715E+02 -9.314505E-01 +9.593151E+00 -9.314505E-01 +4.958583E+02 -2.882156E+01 +9.593151E+00 -2.882156E+01 +4.012577E+02 
 +8.868987E+02 +8.811202E-01 -3.752637E+00 +8.811202E-01 +5.240194E+02 -2.778098E+01 -3.752637E+00 -2.778098E+01 +4.260302E+02 
 +8.755270E+02 +5.233089E+00 -8.867287E+00 +5.233089E+00 +5.148001E+02 -1.678994E+01 -8.867287E+00 -1.678994E+01 +3.993578E+02 
 +8.682855E+02 +4.242848E+00 -8.623576E+00 +4.242848E+00 +4.947018E+02 -1.106833E+00 -8.623576E+00 -1.106833E+00 +3.820793E+02 
 +8.635171E+02 -5.606342E+00 -1.228901E+01 -5.606342E+00 +4.878487E+02 +1.302220E+01 -1.228901E+01 +1.302220E+01 +3.863633E+02 
 +8.630007E+02 -7.082238E+00 -1.002354E+01 -7.082238E+00 +4.956369E+02 +1.579709E+01 -1.002354E+01 +1.579709E+01 +3.925551E+02 
 +8.617072E+02 -3.285174E+00 -9.398642E+00 -3.285174E+00 +4.955208E+02 +9.923945E+00 -9.398642E+00 +9.923945E+00 +4.043515E+02 
 +8.556330E+02 +1.899881E+00 -3.409605E+00 +1.899881E+00 +4.690430E+02 +4.218483E+00 -3.409605E+00 +4.218483E+00 +3.920376E+02 
 +8.344413E+02 +1.040124E+01 +2.558230E+00 +1.040124E+01 +4.553130E+02 -7.881605E+00 +2.558230E+00 -7.881605E+00 +3.638520E+02 
 +8.442551E+02 +9.353660E+00 -4.394290E+00 +9.353660E+00 +4.762689E+02 -1.397651E+01 -4.394290E+00 -1.397651E+01 +3.690338E+02 
 +8.536896E+02 +1.045754E+01 -1.619701E+00 +1.045754E+01 +4.889350E+02 -1.293417E+01 -1.619701E+00 -1.293417E+01 +3.776295E+02 
 +8.563580E+02 +1.184527E+01 +1.668400E+00 +1.184527E+01 +4.940153E+02 -2.216564E+01 +1.668400E+00 -2.216564E+01 +3.766973E+02 
 +8.765327E+02 +6.521990E+00 -4.336510E+00 +6.521990E+00 +4.937242E+02 -3.942347E+01 -4.336510E+00 -3.942347E+01 +3.670216E+02 
 +8.707832E+02 +4.026963E+00 -4.748238E+00 +4.026963E+00 +4.818410E+02 -4.681497E+01 -4.748238E+00 -4.681497E+01 +3.440967E+02 
 +8.777724E+02 -4.448137E+00 +3.643679E+00 -4.448137E+00 +4.953464E+02 -5.274438E+01 +3.643679E+00 -5.274438E+01 +3.511420E+02 
 +8.618072E+02 -5.452729E+00 +1.008307E+01 -5.452729E+00 +4.960320E+02 -5.240093E+01 +1.008307E+01 -5.240093E+01 +3.552531E+02 
 +8.583693E+02 -4.201079E+00 +5.285409E+00 -4.201079E+00 +4.911375E+02 -4.205004E+01 +5.285409E+00 -4.205004E+01 +3.511078E+02 
 +8.592431E+02 -1.142358E+00 -2.764899E+00 -1.142358E+00 +4.827209E+02 -3.460979E+01 -2.764899E+00 -3.460979E+01 +3.542190E+02 
 +8.465868E+02 -1.794066E+00 +1.503587E+00 -1.794066E+00 +4.613216E+02 -2.638315E+01 +1.503587E+00 -2.638315E+01 +3.266659E+02 
 +8.408680E+02 +6.928428E+00 +9.788522E+00 +6.928428E+00 +4.620055E+02 -2.603244E+01 +9.788522E+00 -2.603244E+01 +3.319525E+02 
 +8.708861E+02 +4.293012E+00 +1.520020E+01 +4.293012E+00 +4.791275E+02 -2.515466E+01 +1.520020E+01 -2.515466E+01 +3.646496E+02 
 +8.768666E+02 +4.714321E+00 +9.298195E+00 +4.714321E+00 +4.957803E+02 -2.844203E+01 +9.298195E+00 -2.844203E+01 +3.862792E+02 
 +8.766110E+02 +2.754481E+00 +4.875288E-01 +2.754481E+00 +5.138501E+02 -2.793705E+01 +4.875288E-01 -2.793705E+01 +4.029453E+02 
 +8.768464E+02 -1.946844E+00 -6.709119E+00 -1.946844E+00 +5.137331E+02 -5.606127E+00 -6.709119E+00 -5.606127E+00 +3.972039E+02 
 +8.767949E+02 -1.794899E+00 -9.071496E+00 -1.794899E+00 +5.042465E+02 +1.104418E+01 -9.071496E+00 +1.104418E+01 +3.884352E+02 
 +8.757255E+02 -5.248571E+00 -1.022245E+01 -5.248571E+00 +5.048897E+02 +1.220717E+01 -1.022245E+01 +1.220717E+01 +3.933604E+02 
 +8.750683E+02 -4.765594E+00 -1.274418E+01 -4.765594E+00 +5.092359E+02 +1.027278E+01 -1.274418E+01 +1.027278E+01 +3.932679E+02 
 +8.760354E+02 -5.550063E+00 -1.515528E+01 -5.550063E+00 +5.126598E+02 +7.571722E+00 -1.515528E+01 +7.571722E+00 +3.930122E+02 
 +8.803775E+02 -6.801284E+00 -1.109941E+01 -6.801284E+00 +5.143138E+02 +3.508577E+00 -1.109941E+01 +3.508577E+00 +3.919248E+02 
 +8.440518E+02 +8.196152E+00 -5.319426E+00 +8.196152E+00 +4.841933E+02 -6.398843E+00 -5.319426E+00 -6.398843E+00 +3.668946E+02 
 +8.484381E+02 +5.584621E+00 -5.074369E+00 +5.584621E+00 +4.830670E+02 -1.578742E+01 -5.074369E+00 -1.578742E+01 +3.634790E+02 
 +8.508099E+02 +9.927253E+00 -2.695211E+00 +9.927253E+00 +4.876664E+02 -1.930078E+01 -2.695211E+00 -1.930078E+01 +3.600713E+02 
 +8.493819E+02 +1.344869E+01 -5.757744E+00 +1.344869E+01 +4.875000E+02 -1.974143E+01 -5.757744E+00 -1.974143E+01 +3.551048E+02 
 +8.645094E+02 +1.453209E+01 -1.183895E+01 +1.453209E+01 +4.956850E+02 -1.681576E+01 -1.183895E+01 -1.681576E+01 +3.546453E+02 
 +8.722799E+02 +1.654238E+01 -5.277129E+00 +1.654238E+01 +4.946744E+02 -1.221018E+01 -5.277129E+00 -1.221018E+01 +3.443460E+02 
 +8.911173E+02 +9.819227E+00 +4.998420E+00 +9.819227E+00 +5.124392E+02 -9.385666E+00 +4.998420E+00 -9.385666E+00 +3.542521E+02 
 +8.606610E+02 -4.269071E+00 +1.000276E+01 -4.269071E+00 +5.022496E+02 -1.868421E+01 +1.000276E+01 -1.868421E+01 +3.491526E+02 
 +8.550730E+02 -2.842523E+00 +6.279705E+00 -2.842523E+00 +4.876660E+02 -3.387833E+01 +6.279705E+00 -3.387833E+01 +3.397620E+02 
 +8.469522E+02 -4.621622E+00 +2.785056E+00 -4.621622E+00 +4.675240E+02 -3.354161E+01 +2.785056E+00 -3.354161E+01 +3.311824E+02 
 +8.754608E+02 -5.116775E+00 +9.770953E+00 -5.116775E+00 +5.194973E+02 -4.466169E-01 +9.770953E+00 -4.466169E-01 +3.235913E+02 
 +8.634503E+02 -2.488370E+00 +9.301476E+00 -2.488370E+00 +5.011993E+02 -5.782930E+00 +9.301476E+00 -5.782930E+00 +3.167705E+02 
 +8.612760E+02 +4.481174E-01 +4.353657E+00 +4.481174E-01 +4.852904E+02 -1.590617E+01 +4.353657E+00 -1.590617E+01 +3.430616E+02 
 +8.660746E+02 +7.712886E+00 +4.246010E+00 +7.712886E+00 +4.961848E+02 -1.431073E+01 +4.246010E+00 -1.431073E+01 +3.757353E+02 
 +8.785515E+02 +2.998700E-01 +1.374765E+00 +2.998700E-01 +5.159900E+02 -7.401410E-01 +1.374765E+00 -7.401410E-01 +3.961282E+02 
 +8.827619E+02 -5.314001E+00 -3.978082E+00 -5.314001E+00 +5.120516E+02 +5.053998E+00 -3.978082E+00 +5.053998E+00 +3.881015E+02 
 +8.823799E+02 +3.652286E-01 -7.502656E+00 +3.652286E-01 +5.095938E+02 +6.929340E+00 -7.502656E+00 +6.929340E+00 +3.780589E+02 
 +8.794525E+02 -1.577437E+00 -1.083863E+01 -1.577437E+00 +5.160687E+02 +1.047864E+01 -1.083863E+01 +1.047864E+01 +3.751071E+02 
 +8.802467E+02 -5.547188E+00 -1.474066E+01 -5.547188E+00 +5.192699E+02 +8.278155E+00 -1.474066E+01 +8.278155E+00 +3.736530E+02 
 +8.820516E+02 -7.133596E+00 -1.441087E+01 -7.133596E+00 +5.180966E+02 +2.898066E+00 -1.441087E+01 +2.898066E+00 +3.791846E+02 
 +8.775345E+02 -7.142673E+00 -6.369306E+00 -7.142673E+00 +5.186751E+02 -5.500548E+00 -6.369306E+00 -5.500548E+00 +3.813210E+02 
 +8.578473E+02 +6.074172E+00 -5.046364E+00 +6.074172E+00 +5.071683E+02 -1.712174E+01 -5.046364E+00 -1.712174E+01 +3.723600E+02 
 +8.526286E+02 +6.158636E+00 -1.376875E+00 +6.158636E+00 +4.931244E+02 -2.164503E+01 -1.376875E+00 -2.164503E+01 +3.677082E+02 
 +8.550252E+02 +1.119445E+01 -6.070850E+00 +1.119445E+01 +4.921059E+02 -1.969939E+01 -6.070850E+00 -1.969939E+01 +3.606146E+02 
 +8.660258E+02 +1.031614E+01 -7.222946E+00 +1.031614E+01 +4.998435E+02 -2.171862E+01 -7.222946E+00 -2.171862E+01 +3.552817E+02 
 +8.567059E+02 +1.143529E+01 -7.997411E+00 +1.143529E+01 +4.929132E+02 -2.149292E+01 -7.997411E+00 -2.149292E+01 +3.401710E+02 
 +8.697228E+02 +1.052739E+01 -5.193952E-01 +1.052739E+01 +4.995924E+02 -1.363153E+01 -5.193952E-01 -1.363153E+01 +3.341844E+02 
 +8.750919E+02 +1.058853E+01 +1.204394E+00 +1.058853E+01 +5.037123E+02 -9.331394E+00 +1.204394E+00 -9.331394E+00 +3.381574E+02 
 +8.482254E+02 -7.563545E+00 +3.092565E+00 -7.563545E+00 +4.903478E+02 -1.417186E+01 +3.092565E+00 -1.417186E+01 +3.281035E+02 
 +8.577542E+02 -6.170987E+00 +5.494502E+00 -6.170987E+00 +5.020961E+02 -1.335340E+01 +5.494502E+00 -1.335340E+01 +3.292025E+02 
 +8.580706E+02 -1.334310E+01 +8.732124E+00 -1.334310E+01 +5.089680E+02 -4.895745E+00 +8.732124E+00 -4.895745E+00 +3.296519E+02 
 +8.828921E+02 +2.585001E+00 +1.201030E+01 +2.585001E+00 +5.294124E+02 -1.063884E+01 +1.201030E+01 -1.063884E+01 +3.267055E+02 
 +8.796983E+02 -2.233531E+00 +8.309754E+00 -2.233531E+00 +5.252285E+02 -4.473739E+00 +8.309754E+00 -4.473739E+00 +3.271763E+02 
 +8.738930E+02 -2.322506E-01 +2.171730E+00 -2.322506E-01 +5.271925E+02 -7.061902E-01 +2.171730E+00 -7.061902E-01 +3.444921E+02 
 +8.660434E+02 +9.904614E+00 -4.004360E-01 +9.904614E+00 +5.124905E+02 -6.017875E+00 -4.004360E-01 -6.017875E+00 +3.625348E+02 
 +8.663150E+02 +6.178731E+00 -5.385185E-01 +6.178731E+00 +4.949638E+02 -9.056148E+00 -5.385185E-01 -9.056148E+00 +3.734557E+02 
 +8.804246E+02 -4.804602E+00 -2.805122E+00 -4.804602E+00 +4.989672E+02 +2.928612E-01 -2.805122E+00 +2.928612E-01 +3.771828E+02 
 +8.876956E+02 +3.677517E+00 -1.181829E+00 +3.677517E+00 +5.107363E+02 +1.089836E+01 -1.181829E+00 +1.089836E+01 +3.793256E+02 
 +8.943316E+02 +2.503485E+00 -9.851762E+00 +2.503485E+00 +5.322370E+02 +1.736100E+01 -9.851762E+00 +1.736100E+01 +3.923454E+02 
 +8.929201E+02 -5.973571E+00 -2.112132E+01 -5.973571E+00 +5.343240E+02 +1.440560E+01 -2.112132E+01 +1.440560E+01 +3.944008E+02 
 +8.865083E+02 -9.852911E+00 -1.277127E+01 -9.852911E+00 +5.224144E+02 +4.736146E+00 -1.277127E+01 +4.736146E+00 +3.922060E+02 
 +8.712148E+02 -9.477423E+00 -1.378401E+00 -9.477423E+00 +5.127100E+02 -4.380338E+00 -1.378401E+00 -4.380338E+00 +3.905897E+02 
 +8.627759E+02 -4.133989E+00 +4.094050E-01 -4.133989E+00 +5.013757E+02 -1.210784E+01 +4.094050E-01 -1.210784E+01 +3.825409E+02 
 +8.586839E+02 +2.015836E+00 +3.316074E+00 +2.015836E+00 +4.955386E+02 -1.809192E+01 +3.316074E+00 -1.809192E+01 +3.766196E+02 
 +8.504857E+02 +9.721427E+00 +4.416489E-01 +9.721427E+00 +4.873625E+02 -1.657692E+01 +4.416489E-01 -1.657692E+01 +3.634968E+02 
 +8.568565E+02 +5.252319E+00 -7.317756E-01 +5.252319E+00 +4.857833E+02 -3.004051E+00 -7.317756E-01 -3.004051E+00 +3.558763E+02 
 +8.554103E+02 +5.778991E+00 -4.143961E-01 +5.778991E+00 +4.884611E+02 -7.060007E+00 -4.143961E-01 -7.060007E+00 +3.417892E+02 
 +8.692750E+02 +6.885332E+00 +3.406950E+00 +6.885332E+00 +4.978116E+02 -1.009133E+01 +3.406950E+00 -1.009133E+01 +3.302472E+02 
 +8.705158E+02 +7.483094E+00 -4.884614E-01 +7.483094E+00 +4.987138E+02 -9.470947E+00 -4.884614E-01 -9.470947E+00 +3.413365E+02 
 +8.500750E+02 -7.473130E+00 +1.528212E+00 -7.473130E+00 +4.915198E+02 -1.379177E+01 +1.528212E+00 -1.379177E+01 +3.490938E+02 
 +8.556269E+02 -3.713749E+00 +4.097173E+00 -3.713749E+00 +5.002439E+02 -1.724083E+01 +4.097173E+00 -1.724083E+01 +3.442176E+02 
 +8.607966E+02 -5.861532E+00 +1.379305E+01 -5.861532E+00 +5.125400E+02 -1.626756E+01 +1.379305E+01 -1.626756E+01 +3.305518E+02 
 +8.753993E+02 +8.222317E+00 +1.136372E+01 +8.222317E+00 +5.174528E+02 -5.573619E+00 +1.136372E+01 -5.573619E+00 +3.223363E+02 
 +8.709828E+02 +6.191111E-01 +4.983201E+00 +6.191111E-01 +5.225383E+02 -5.967064E+00 +4.983201E+00 -5.967064E+00 +3.335844E+02 
 +8.607926E+02 +1.558405E+00 -6.032916E-01 +1.558405E+00 +5.129302E+02 -1.061735E+01 -6.032916E-01 -1.061735E+01 +3.441405E+02 
 +8.591449E+02 +5.318973E+00 -3.782253E-01 +5.318973E+00 +5.006348E+02 -1.524203E+01 -3.782253E-01 -1.524203E+01 +3.504087E+02 
 +8.588960E+02 +5.335673E+00 -8.405354E-02 +5.335673E+00 +4.890244E+02 -9.242124E+00 -8.405354E-02 -9.242124E+00 +3.489546E+02 
 +8.768504E+02 +1.667316E+00 +3.496885E+00 +1.667316E+00 +4.996989E+02 -2.964331E+00 +3.496885E+00 -2.964331E+00 +3.529605E+02 
 +8.870829E+02 +1.056539E+01 -8.630652E-01 +1.056539E+01 +5.119376E+02 -1.185183E+01 -8.630652E-01 -1.185183E+01 +3.645000E+02 
 +8.931225E+02 +1.000322E+01 -5.970019E+00 +1.000322E+01 +5.182335E+02 -1.603688E+01 -5.970019E+00 -1.603688E+01 +3.822545E+02 
 +8.899863E+02 -2.546670E+00 -2.137773E+01 -2.546670E+00 +5.191027E+02 -3.199983E+00 -2.137773E+01 -3.199983E+00 +3.922157E+02 
 +8.617500E+02 -5.826702E+00 -6.369728E+00 -5.826702E+00 +5.051978E+02 +5.066542E-01 -6.369728E+00 +5.066542E-01 +3.869209E+02 
 +8.627597E+02 -6.929597E+00 +1.395191E+00 -6.929597E+00 +5.078593E+02 -7.247554E+00 +1.395191E+00 -7.247554E+00 +3.898635E+02 
 +8.658478E+02 -5.429323E+00 +5.128049E+00 -5.429323E+00 +5.053896E+02 -1.401719E+01 +5.128049E+00 -1.401719E+01 +3.886852E+02 
 +8.665736E+02 +7.870262E-02 +4.627211E+00 +7.870262E-02 +4.992563E+02 -1.802574E+01 +4.627211E+00 -1.802574E+01 +3.879640E+02 
 +8.529829E+02 +4.696240E+00 +9.049838E+00 +4.696240E+00 +4.895252E+02 -1.768897E+01 +9.049838E+00 -1.768897E+01 +3.760150E+02 
 +8.539279E+02 +5.076471E+00 +8.309852E+00 +5.076471E+00 +4.911933E+02 -1.653532E+01 +8.309852E+00 -1.653532E+01 +3.738469E+02 
 +8.591750E+02 +4.250604E+00 +1.030951E+01 +4.250604E+00 +4.880181E+02 -1.201898E+01 +1.030951E+01 -1.201898E+01 +3.658978E+02 
 +8.689419E+02 +2.996376E+00 +1.286205E+01 +2.996376E+00 +4.838502E+02 +2.817430E+00 +1.286205E+01 +2.817430E+00 +3.435819E+02 
 +8.622022E+02 +2.313637E+00 +7.957128E-01 +2.313637E+00 +4.785888E+02 +1.664410E+01 +7.957128E-01 +1.664410E+01 +3.412559E+02 
 +8.600028E+02 -1.571790E+00 -3.845486E+00 -1.571790E+00 +4.906650E+02 +1.431652E+01 -3.845486E+00 +1.431652E+01 +3.573385E+02 
 +8.618432E+02 +3.466132E+00 +4.039237E-01 +3.466132E+00 +5.014731E+02 +1.340055E+01 +4.039237E-01 +1.340055E+01 +3.503487E+02 
 +8.656455E+02 +6.102414E+00 +6.524029E+00 +6.102414E+00 +5.042423E+02 +7.265155E+00 +6.524029E+00 +7.265155E+00 +3.292812E+02 
 +8.525017E+02 +5.101307E+00 +3.289369E+00 +5.101307E+00 +4.807094E+02 +5.802409E+00 +3.289369E+00 +5.802409E+00 +3.179765E+02 
 +8.479806E+02 +1.738481E+00 -5.283058E+00 +1.738481E+00 +4.856587E+02 -1.088311E+01 -5.283058E+00 -1.088311E+01 +3.259099E+02 
 +8.531864E+02 -5.002697E-01 -4.301118E+00 -5.002697E-01 +5.000176E+02 -1.605355E+01 -4.301118E+00 -1.605355E+01 +3.503999E+02 
 +8.557424E+02 +2.496412E+00 +1.752906E+00 +2.496412E+00 +4.953560E+02 -1.349764E+01 +1.752906E+00 -1.349764E+01 +3.572229E+02 
 +8.577885E+02 +3.889558E+00 +7.537794E-01 +3.889558E+00 +4.855084E+02 -1.111190E+01 +7.537794E-01 -1.111190E+01 +3.452973E+02 
 +8.731734E+02 +4.601803E+00 +4.073743E+00 +4.601803E+00 +4.924954E+02 -7.514545E+00 +4.073743E+00 -7.514545E+00 +3.414295E+02 
 +8.805297E+02 +9.895453E+00 -6.419203E+00 +9.895453E+00 +5.022612E+02 -1.452074E+01 -6.419203E+00 -1.452074E+01 +3.504011E+02 
 +8.844333E+02 +5.421612E+00 -8.170778E+00 +5.421612E+00 +4.984791E+02 -2.875396E+01 -8.170778E+00 -2.875396E+01 +3.630783E+02 
 +8.780774E+02 -4.762213E+00 -6.590368E+00 -4.762213E+00 +4.978740E+02 -2.326533E+01 -6.590368E+00 -2.326533E+01 +3.755360E+02 
 +8.528651E+02 -5.848008E+00 +7.814969E+00 -5.848008E+00 +5.026453E+02 -1.837134E+00 +7.814969E+00 -1.837134E+00 +3.857787E+02 
 +8.589387E+02 -5.775063E+00 +7.134898E+00 -5.775063E+00 +5.053734E+02 +2.322257E-01 +7.134898E+00 +2.322257E-01 +3.900559E+02 
 +8.545986E+02 -3.623522E+00 +9.681913E+00 -3.623522E+00 +4.944976E+02 -1.203688E+01 +9.681913E+00 -1.203688E+01 +3.802687E+02 
 +8.577503E+02 +1.897086E+00 +1.020633E+01 +1.897086E+00 +4.973406E+02 -2.110911E+01 +1.020633E+01 -2.110911E+01 +3.843161E+02 
 +8.542985E+02 +5.055392E+00 +1.172130E+01 +5.055392E+00 +4.960545E+02 -2.378035E+01 +1.172130E+01 -2.378035E+01 +3.807251E+02 
 +8.508779E+02 +1.508118E+00 +1.558724E+01 +1.508118E+00 +4.921692E+02 -1.968556E+01 +1.558724E+01 -1.968556E+01 +3.816613E+02 
 +8.690772E+02 +2.938595E+00 +1.427212E+01 +2.938595E+00 +4.980138E+02 -1.752759E+01 +1.427212E+01 -1.752759E+01 +3.815987E+02 
 +8.844340E+02 +8.169112E+00 +1.412471E+01 +8.169112E+00 +5.054690E+02 -2.318591E+01 +1.412471E+01 -2.318591E+01 +3.562292E+02 
 +8.728368E+02 +4.684744E+00 +6.579794E+00 +4.684744E+00 +4.965878E+02 -1.468143E+01 +6.579794E+00 -1.468143E+01 +3.331184E+02 
 +8.646556E+02 +4.355004E+00 -5.617378E+00 +4.355004E+00 +4.880823E+02 +2.900951E+00 -5.617378E+00 +2.900951E+00 +3.256414E+02 
 +8.638252E+02 +5.521717E+00 -6.797479E+00 +5.521717E+00 +4.954299E+02 +9.035862E+00 -6.797479E+00 +9.035862E+00 +3.275344E+02 
 +8.620786E+02 +3.617138E+00 -3.590419E-01 +3.617138E+00 +4.958126E+02 +1.057934E+01 -3.590419E-01 +1.057934E+01 +3.296458E+02 
 +8.506940E+02 +7.543801E+00 -4.838345E+00 +7.543801E+00 +4.929457E+02 -5.339984E+00 -4.838345E+00 -5.339984E+00 +3.219774E+02 
 +8.582172E+02 +5.319321E+00 -6.524420E+00 +5.319321E+00 +4.998462E+02 -5.206490E+00 -6.524420E+00 -5.206490E+00 +3.367275E+02 
 +8.568753E+02 +1.662521E-01 -6.408122E+00 +1.662521E-01 +5.014496E+02 -6.777461E+00 -6.408122E+00 -6.777461E+00 +3.597100E+02 
 +8.540719E+02 -5.211401E-02 -3.775512E+00 -5.211401E-02 +4.921468E+02 -1.368989E+01 -3.775512E+00 -1.368989E+01 +3.685136E+02 
 +8.532014E+02 +3.834507E+00 +2.240411E+00 +3.834507E+00 +4.831719E+02 -1.007256E+01 +2.240411E+00 -1.007256E+01 +3.544658E+02 
 +8.723866E+02 +2.682802E+00 +4.662145E+00 +2.682802E+00 +4.961823E+02 -2.289674E-01 +4.662145E+00 -2.289674E-01 +3.546340E+02 
 +8.854735E+02 +5.407318E+00 -1.119860E+01 +5.407318E+00 +5.046222E+02 -4.517434E+00 -1.119860E+01 -4.517434E+00 +3.581989E+02 
 +8.936565E+02 -2.741958E+00 -1.557847E+01 -2.741958E+00 +5.049960E+02 -1.319625E+01 -1.557847E+01 -1.319625E+01 +3.642159E+02 
 +8.634478E+02 -4.112885E+00 +3.412931E+00 -4.112885E+00 +4.880940E+02 -2.559470E+00 +3.412931E+00 -2.559470E+00 +3.694719E+02 
 +8.565290E+02 -7.503802E+00 +1.507031E+01 -7.503802E+00 +4.904359E+02 +6.285560E+00 +1.507031E+01 +6.285560E+00 +3.839788E+02 
 +8.511584E+02 -9.864998E+00 +1.429778E+01 -9.864998E+00 +4.889038E+02 -3.244336E-01 +1.429778E+01 -3.244336E-01 +3.799862E+02 
 +8.436679E+02 -4.162656E+00 +1.749139E+01 -4.162656E+00 +4.851137E+02 -1.044477E+01 +1.749139E+01 -1.044477E+01 +3.736068E+02 
 +8.430114E+02 +2.546669E+00 +1.614233E+01 +2.546669E+00 +4.876634E+02 -1.349280E+01 +1.614233E+01 -1.349280E+01 +3.748677E+02 
 +8.421591E+02 +5.470203E+00 +1.501897E+01 +5.470203E+00 +4.874115E+02 -1.396540E+01 +1.501897E+01 -1.396540E+01 +3.706067E+02 
 +8.438490E+02 +5.181045E+00 +2.295615E+01 +5.181045E+00 +4.939100E+02 -1.703245E+01 +2.295615E+01 -1.703245E+01 +3.656066E+02 
 +8.879496E+02 +4.963253E+00 +7.466108E+00 +4.963253E+00 +5.223903E+02 -2.038816E+01 +7.466108E+00 -2.038816E+01 +3.637499E+02 
 +8.903936E+02 +1.157836E+01 +4.886321E+00 +1.157836E+01 +5.134197E+02 -1.620048E+01 +4.886321E+00 -1.620048E+01 +3.332666E+02 
 +8.793486E+02 +8.256048E+00 +7.596771E+00 +8.256048E+00 +5.040490E+02 -1.470676E+01 +7.596771E+00 -1.470676E+01 +3.188086E+02 
 +8.732266E+02 +8.215427E+00 +3.343054E-01 +8.215427E+00 +5.029713E+02 -1.061998E+01 +3.343054E-01 -1.061998E+01 +3.179391E+02 
 +8.683785E+02 +8.655633E+00 -7.822120E+00 +8.655633E+00 +4.981091E+02 +4.989827E+00 -7.822120E+00 +4.989827E+00 +3.164916E+02 
 +8.600529E+02 +4.592422E+00 -8.172345E-01 +4.592422E+00 +4.944083E+02 +6.226452E+00 -8.172345E-01 +6.226452E+00 +3.183154E+02 
 +8.573153E+02 +8.701300E+00 -8.924801E+00 +8.701300E+00 +5.025042E+02 -2.189583E+00 -8.924801E+00 -2.189583E+00 +3.394405E+02 
 +8.587078E+02 +6.819317E+00 -5.002945E-01 +6.819317E+00 +5.025417E+02 -1.830732E+00 -5.002945E-01 -1.830732E+00 +3.540059E+02 
 +8.496401E+02 -2.821673E+00 -8.475569E+00 -2.821673E+00 +4.905604E+02 +3.461208E+00 -8.475569E+00 +3.461208E+00 +3.626689E+02 
 +8.512814E+02 -4.121691E+00 -3.591847E+00 -4.121691E+00 +4.871717E+02 +3.930346E+00 -3.591847E+00 +3.930346E+00 +3.649270E+02 
 +8.523287E+02 +6.653495E+00 +5.942088E+00 +6.653495E+00 +4.849230E+02 -2.492780E+00 +5.942088E+00 -2.492780E+00 +3.540358E+02 
 +8.647302E+02 +1.042775E+01 +2.825978E+00 +1.042775E+01 +4.878671E+02 -8.440487E+00 +2.825978E+00 -8.440487E+00 +3.548255E+02 
 +8.675857E+02 +1.202762E+01 -1.145946E+01 +1.202762E+01 +4.839268E+02 -1.695406E+01 -1.145946E+01 -1.695406E+01 +3.470342E+02 
 +8.781716E+02 -3.305084E+00 -1.475108E+01 -3.305084E+00 +4.865241E+02 -1.811187E+01 -1.475108E+01 -1.811187E+01 +3.391611E+02 
 +8.448871E+02 -5.449393E+00 +3.983522E+00 -5.449393E+00 +4.708155E+02 +2.348263E+00 +3.983522E+00 +2.348263E+00 +3.480083E+02 
 +8.557134E+02 -7.910711E+00 +9.123340E+00 -7.910711E+00 +4.776763E+02 +1.540111E+01 +9.123340E+00 +1.540111E+01 +3.757708E+02 
 +8.475163E+02 -1.032394E+01 +1.778512E+01 -1.032394E+01 +4.743308E+02 +7.733878E+00 +1.778512E+01 +7.733878E+00 +3.659320E+02 
 +8.354245E+02 -3.761297E+00 +2.350411E+01 -3.761297E+00 +4.783036E+02 -1.953676E+00 +2.350411E+01 -1.953676E+00 +3.657313E+02 
 +8.358236E+02 +3.187283E+00 +1.976201E+01 +3.187283E+00 +4.864105E+02 -5.100909E+00 +1.976201E+01 -5.100909E+00 +3.699782E+02 
 +8.401150E+02 +6.164344E+00 +1.676089E+01 +6.164344E+00 +4.905428E+02 -7.004520E+00 +1.676089E+01 -7.004520E+00 +3.655349E+02 
 +8.374153E+02 +9.894762E+00 +2.337372E+01 +9.894762E+00 +4.869337E+02 -1.176829E+01 +2.337372E+01 -1.176829E+01 +3.471083E+02 
 +8.855241E+02 +8.715859E+00 +2.924655E+00 +8.715859E+00 +5.076208E+02 -1.678402E+01 +2.924655E+00 -1.678402E+01 +3.348267E+02 
 +8.886494E+02 +1.330745E+01 +5.552440E-01 +1.330745E+01 +5.051226E+02 -1.874137E+01 +5.552440E-01 -1.874137E+01 +3.124092E+02 
 +8.841906E+02 +1.193234E+01 -1.969907E-01 +1.193234E+01 +5.064687E+02 -2.011937E+01 -1.969907E-01 -2.011937E+01 +3.112182E+02 
 +8.811407E+02 +9.032126E+00 +2.834346E+00 +9.032126E+00 +5.102740E+02 -1.384114E+01 +2.834346E+00 -1.384114E+01 +3.266689E+02 
 +8.755432E+02 +8.869195E+00 +1.284451E+00 +8.869195E+00 +5.045111E+02 +2.126392E+00 +1.284451E+00 +2.126392E+00 +3.344750E+02 
 +8.650465E+02 +5.808244E+00 -1.018007E+01 +5.808244E+00 +4.994347E+02 +4.361866E+00 -1.018007E+01 +4.361866E+00 +3.300550E+02 
 +8.461633E+02 +2.783552E+00 -1.173467E+01 +2.783552E+00 +4.784951E+02 +2.063064E+00 -1.173467E+01 +2.063064E+00 +3.620704E+02 
 +8.431484E+02 -5.483398E+00 -1.405394E+00 -5.483398E+00 +4.786491E+02 +3.971854E+00 -1.405394E+00 +3.971854E+00 +3.645568E+02 
 +8.441762E+02 -1.078763E+01 -1.536546E+00 -1.078763E+01 +4.793679E+02 +5.858102E+00 -1.536546E+00 +5.858102E+00 +3.614884E+02 
 +8.532813E+02 -6.757885E+00 +2.728236E-01 -6.757885E+00 +4.825672E+02 +4.531138E+00 +2.728236E-01 +4.531138E+00 +3.514028E+02 
 +8.661069E+02 +6.478758E+00 +2.411699E+00 +6.478758E+00 +4.847476E+02 -7.302277E+00 +2.411699E+00 -7.302277E+00 +3.482867E+02 
 +8.624258E+02 +1.311813E+01 +4.256012E+00 +1.311813E+01 +4.816577E+02 -1.193803E+01 +4.256012E+00 -1.193803E+01 +3.533726E+02 
 +8.594256E+02 +1.616002E+01 -2.546821E+00 +1.616002E+01 +4.824263E+02 -6.797126E+00 -2.546821E+00 -6.797126E+00 +3.518964E+02 
 +8.623888E+02 +2.552292E+00 -5.713752E+00 +2.552292E+00 +4.895980E+02 +3.947322E+00 -5.713752E+00 +3.947322E+00 +3.469012E+02 
 +8.512924E+02 -7.369110E+00 +5.139857E+00 -7.369110E+00 +4.830844E+02 +1.331372E+01 +5.139857E+00 +1.331372E+01 +3.567423E+02 
 +8.533626E+02 -9.530630E+00 +4.937465E+00 -9.530630E+00 +4.727191E+02 +1.205892E+01 +4.937465E+00 +1.205892E+01 +3.654286E+02 
 +8.405604E+02 -8.160950E+00 +1.473404E+01 -8.160950E+00 +4.648710E+02 +7.484708E+00 +1.473404E+01 +7.484708E+00 +3.536179E+02 
 +8.327005E+02 -2.364009E+00 +2.234447E+01 -2.364009E+00 +4.742090E+02 +4.000548E+00 +2.234447E+01 +4.000548E+00 +3.614508E+02 
 +8.333775E+02 +3.734193E+00 +1.962954E+01 +3.734193E+00 +4.834148E+02 +1.975007E+00 +1.962954E+01 +1.975007E+00 +3.673997E+02 
 +8.375585E+02 +8.179891E+00 +1.791040E+01 +8.179891E+00 +4.860839E+02 +3.226590E+00 +1.791040E+01 +3.226590E+00 +3.574043E+02 
 +8.409446E+02 +1.268361E+01 +1.295897E+01 +1.268361E+01 +4.792299E+02 -3.342902E+00 +1.295897E+01 -3.342902E+00 +3.320862E+02 
 +8.810155E+02 +1.364111E+01 -4.786930E+00 +1.364111E+01 +4.942277E+02 -1.854455E+01 -4.786930E+00 -1.854455E+01 +3.183537E+02 
 +8.853494E+02 +1.628278E+01 -2.682914E+00 +1.628278E+01 +5.010335E+02 -2.402597E+01 -2.682914E+00 -2.402597E+01 +3.048195E+02 
 +8.833927E+02 +1.244576E+01 -3.416461E+00 +1.244576E+01 +5.072787E+02 -2.142448E+01 -3.416461E+00 -2.142448E+01 +3.049073E+02 
 +8.862984E+02 +6.724189E+00 +2.217736E+00 +6.724189E+00 +5.138065E+02 -2.016777E+01 +2.217736E+00 -2.016777E+01 +3.175722E+02 
 +8.837663E+02 +5.214924E+00 +6.284808E+00 +5.214924E+00 +5.131704E+02 -2.075605E+01 +6.284808E+00 -2.075605E+01 +3.412501E+02 
 +8.527144E+02 +3.502660E+00 -8.179726E+00 +3.502660E+00 +4.869054E+02 -1.017217E+01 -8.179726E+00 -1.017217E+01 +3.524982E+02 
 +8.351179E+02 +1.014500E+00 -1.080391E+01 +1.014500E+00 +4.765717E+02 -5.764060E+00 -1.080391E+01 -5.764060E+00 +3.597205E+02 
 +8.430281E+02 -5.108929E+00 -8.034364E+00 -5.108929E+00 +4.851734E+02 -3.820126E+00 -8.034364E+00 -3.820126E+00 +3.662323E+02 
 +8.491045E+02 -1.036235E+01 -5.897983E+00 -1.036235E+01 +4.851338E+02 -5.328670E+00 -5.897983E+00 -5.328670E+00 +3.630876E+02 
 +8.613292E+02 -1.013504E+01 -6.116906E+00 -1.013504E+01 +4.776548E+02 -6.422295E-02 -6.116906E+00 -6.422295E-02 +3.572438E+02 
 +8.488748E+02 -4.640142E+00 -7.691995E+00 -4.640142E+00 +4.622462E+02 +6.556574E+00 -7.691995E+00 +6.556574E+00 +3.589415E+02 
 +8.410078E+02 -5.285413E+00 -1.570613E+00 -5.285413E+00 +4.656960E+02 +3.692463E+00 -1.570613E+00 +3.692463E+00 +3.699278E+02 
 +8.446835E+02 -5.691986E-01 -5.493240E+00 -5.691986E-01 +4.744535E+02 +2.270537E+00 -5.493240E+00 +2.270537E+00 +3.640888E+02 
 +8.808515E+02 -1.015877E+01 +2.966044E+00 -1.015877E+01 +4.919271E+02 +6.577960E+00 +2.966044E+00 +6.577960E+00 +3.642106E+02 
 +8.632961E+02 -2.268396E+01 +1.299198E+01 -2.268396E+01 +4.811491E+02 +2.820127E+00 +1.299198E+01 +2.820127E+00 +3.541092E+02 
 +8.711279E+02 -1.896939E+01 +7.642739E+00 -1.896939E+01 +4.936851E+02 -4.098060E+00 +7.642739E+00 -4.098060E+00 +3.644495E+02 
 +8.593709E+02 -5.516062E+00 +1.064049E+01 -5.516062E+00 +4.935897E+02 -3.533970E+00 +1.064049E+01 -3.533970E+00 +3.643756E+02 
 +8.448997E+02 +8.384546E-01 +1.414099E+01 +8.384546E-01 +4.818400E+02 -1.827559E+00 +1.414099E+01 -1.827559E+00 +3.647987E+02 
 +8.394231E+02 +4.986966E+00 +1.435418E+01 +4.986966E+00 +4.801885E+02 -1.532542E+00 +1.435418E+01 -1.532542E+00 +3.672286E+02 
 +8.385314E+02 +8.672704E+00 +1.585549E+01 +8.672704E+00 +4.889613E+02 +2.141822E+00 +1.585549E+01 +2.141822E+00 +3.521107E+02 
 +8.757788E+02 +8.833628E+00 -6.554321E+00 +8.833628E+00 +5.071643E+02 +6.716534E+00 -6.554321E+00 +6.716534E+00 +3.352731E+02 
 +8.760945E+02 +1.258480E+01 -1.479806E+01 +1.258480E+01 +5.007214E+02 +1.701076E+01 -1.479806E+01 +1.701076E+01 +3.187572E+02 
 +8.757788E+02 +9.845620E+00 -1.127190E+01 +9.845620E+00 +4.991136E+02 +1.741390E+01 -1.127190E+01 +1.741390E+01 +3.135836E+02 
 +8.839310E+02 +1.194886E+01 -7.039496E+00 +1.194886E+01 +5.042803E+02 +9.808168E-01 -7.039496E+00 +9.808168E-01 +3.060831E+02 
 +8.732250E+02 +6.851372E+00 -3.655941E+00 +6.851372E+00 +4.974316E+02 -9.665051E+00 -3.655941E+00 -9.665051E+00 +3.068428E+02 
 +8.646400E+02 -6.164121E+00 +1.583547E+01 -6.164121E+00 +4.931905E+02 -1.117437E+01 +1.583547E+01 -1.117437E+01 +3.401334E+02 
 +8.491320E+02 -1.006545E+01 +6.607753E+00 -1.006545E+01 +4.844817E+02 -1.059185E+01 +6.607753E+00 -1.059185E+01 +3.589636E+02 
 +8.604237E+02 +1.010553E+01 -6.538212E+00 +1.010553E+01 +5.009725E+02 -1.573170E+00 -6.538212E+00 -1.573170E+00 +3.742319E+02 
 +8.669973E+02 +9.540589E+00 -6.272835E+00 +9.540589E+00 +5.139627E+02 +5.304777E+00 -6.272835E+00 +5.304777E+00 +3.770305E+02 
 +8.783176E+02 +4.770305E+00 -6.028805E+00 +4.770305E+00 +5.176849E+02 +4.754591E+00 -6.028805E+00 +4.754591E+00 +3.700475E+02 
 +8.548323E+02 +6.675427E-02 -4.306190E+00 +6.675427E-02 +4.963233E+02 +2.831362E+00 -4.306190E+00 +2.831362E+00 +3.519625E+02 
 +8.375677E+02 -1.315359E+00 -5.262473E+00 -1.315359E+00 +4.869544E+02 +8.125347E+00 -5.262473E+00 +8.125347E+00 +3.642894E+02 
 +8.353711E+02 -2.538024E+00 -3.526733E-01 -2.538024E+00 +4.802292E+02 +8.849776E+00 -3.526733E-01 +8.849776E+00 +3.852067E+02 
 +8.226102E+02 +2.454158E+00 -6.021398E-01 +2.454158E+00 +4.565527E+02 -5.893227E-01 -6.021398E-01 -5.893227E-01 +3.712914E+02 
 +9.030038E+02 -8.243740E+00 +5.409222E+00 -8.243740E+00 +4.904926E+02 -1.104057E+01 +5.409222E+00 -1.104057E+01 +3.824987E+02 
 +8.795054E+02 -2.136897E+01 +1.572899E+01 -2.136897E+01 +4.872121E+02 -3.815148E+00 +1.572899E+01 -3.815148E+00 +3.680882E+02 
 +8.644287E+02 -2.399214E+01 +1.607700E+01 -2.399214E+01 +4.899286E+02 -3.381444E+00 +1.607700E+01 -3.381444E+00 +3.660525E+02 
 +8.557006E+02 -1.088734E+01 +1.298379E+01 -1.088734E+01 +4.808625E+02 -6.918281E+00 +1.298379E+01 -6.918281E+00 +3.593717E+02 
 +8.495980E+02 -3.952469E-01 +1.097193E+01 -3.952469E-01 +4.764411E+02 -4.587647E+00 +1.097193E+01 -4.587647E+00 +3.631276E+02 
 +8.453452E+02 +1.022274E+01 +1.574310E+01 +1.022274E+01 +4.851590E+02 -3.576018E+00 +1.574310E+01 -3.576018E+00 +3.763181E+02 
 +8.500482E+02 +1.553123E+01 +1.675338E+01 +1.553123E+01 +4.959540E+02 -4.305841E+00 +1.675338E+01 -4.305841E+00 +3.659289E+02 
 +8.799564E+02 +1.140270E+01 -5.569001E+00 +1.140270E+01 +5.085443E+02 +3.626478E+00 -5.569001E+00 +3.626478E+00 +3.418748E+02 
 +8.789419E+02 +1.121556E+01 -1.420325E+01 +1.121556E+01 +5.027659E+02 +1.495625E+01 -1.420325E+01 +1.495625E+01 +3.296877E+02 
 +8.838730E+02 +1.256563E+01 -1.574894E+01 +1.256563E+01 +5.112916E+02 +2.351112E+01 -1.574894E+01 +2.351112E+01 +3.390552E+02 
 +8.885554E+02 +7.051346E+00 -1.328461E+01 +7.051346E+00 +5.148092E+02 +1.864400E+01 -1.328461E+01 +1.864400E+01 +3.340030E+02 
 +8.613494E+02 -5.883617E+00 -4.737281E+00 -5.883617E+00 +4.850656E+02 +4.217594E+00 -4.737281E+00 +4.217594E+00 +3.182563E+02 
 +8.576687E+02 -1.116668E+01 +7.731864E+00 -1.116668E+01 +4.782016E+02 -1.041799E+00 +7.731864E+00 -1.041799E+00 +3.422976E+02 
 +8.666217E+02 -7.908595E+00 +4.111255E+00 -7.908595E+00 +4.920205E+02 -3.531453E+00 +4.111255E+00 -3.531453E+00 +3.686537E+02 
 +8.727526E+02 +1.890258E+00 -6.969628E+00 +1.890258E+00 +4.911888E+02 -1.600670E+01 -6.969628E+00 -1.600670E+01 +3.622359E+02 
 +8.618998E+02 -1.739262E+00 -7.677118E+00 -1.739262E+00 +4.844181E+02 -1.328129E+01 -7.677118E+00 -1.328129E+01 +3.503721E+02 
 +8.922469E+02 -3.910121E+00 -1.172423E+01 -3.910121E+00 +5.127444E+02 -1.510628E+01 -1.172423E+01 -1.510628E+01 +3.565880E+02 
 +8.448215E+02 -4.964120E+00 -7.467521E+00 -4.964120E+00 +5.096137E+02 -5.909543E+00 -7.467521E+00 -5.909543E+00 +3.532223E+02 
 +8.199583E+02 -3.812483E+00 -2.766002E+00 -3.812483E+00 +4.884508E+02 +2.539536E+00 -2.766002E+00 +2.539536E+00 +3.708489E+02 
 +8.112302E+02 -1.779983E-01 +1.592273E+00 -1.779983E-01 +4.660363E+02 +5.403002E+00 +1.592273E+00 +5.403002E+00 +3.841690E+02 
 +8.065419E+02 +1.073292E+00 +2.428862E+00 +1.073292E+00 +4.457894E+02 +2.924646E+00 +2.428862E+00 +2.924646E+00 +3.767839E+02 
 +8.972956E+02 -7.907066E+00 +3.770090E+00 -7.907066E+00 +4.742655E+02 -8.500491E+00 +3.770090E+00 -8.500491E+00 +3.900562E+02 
 +8.786080E+02 -1.171002E+01 +8.112058E+00 -1.171002E+01 +4.735354E+02 -8.620236E+00 +8.112058E+00 -8.620236E+00 +3.674957E+02 
 +8.541829E+02 -2.104723E+01 +1.087596E+01 -2.104723E+01 +4.796186E+02 +3.610989E+00 +1.087596E+01 +3.610989E+00 +3.532537E+02 
 +8.528260E+02 -1.313635E+01 +6.355337E+00 -1.313635E+01 +4.734306E+02 +1.762613E+00 +6.355337E+00 +1.762613E+00 +3.461970E+02 
 +8.507317E+02 -3.850385E+00 +1.023113E+01 -3.850385E+00 +4.694221E+02 -5.045074E+00 +1.023113E+01 -5.045074E+00 +3.535441E+02 
 +8.467015E+02 +9.624641E+00 +1.250877E+01 +9.624641E+00 +4.748647E+02 -1.547471E+01 +1.250877E+01 -1.547471E+01 +3.735897E+02 
 +8.557492E+02 +1.220250E+01 +1.283998E+01 +1.220250E+01 +4.724250E+02 -2.776969E+01 +1.283998E+01 -2.776969E+01 +3.784320E+02 
 +8.596275E+02 +1.354255E+01 +4.473144E+00 +1.354255E+01 +4.682105E+02 -1.273486E+01 +4.473144E+00 -1.273486E+01 +3.575551E+02 
 +8.652652E+02 +1.296612E+01 -1.320052E+01 +1.296612E+01 +4.873887E+02 +1.539194E+01 -1.320052E+01 +1.539194E+01 +3.467769E+02 
 +8.764322E+02 +7.696208E+00 -1.072440E+01 +7.696208E+00 +5.018470E+02 +2.444523E+01 -1.072440E+01 +2.444523E+01 +3.523979E+02 
 +8.612003E+02 -1.300231E+00 -1.487290E+01 -1.300231E+00 +4.820354E+02 +1.086592E+01 -1.487290E+01 +1.086592E+01 +3.407158E+02 
 +8.595144E+02 -7.469983E+00 -5.061796E+00 -7.469983E+00 +4.773749E+02 -2.244777E+00 -5.061796E+00 -2.244777E+00 +3.333950E+02 
 +8.672957E+02 -1.234176E+01 +3.584378E+00 -1.234176E+01 +4.858960E+02 -4.194412E+00 +3.584378E+00 -4.194412E+00 +3.473306E+02 
 +8.650187E+02 -1.240488E+01 -1.147829E+00 -1.240488E+01 +4.841135E+02 -8.706073E+00 -1.147829E+00 -8.706073E+00 +3.590837E+02 
 +8.680865E+02 -5.239700E+00 -1.028198E+01 -5.239700E+00 +4.813265E+02 -2.263797E+01 -1.028198E+01 -2.263797E+01 +3.473867E+02 
 +8.650206E+02 -1.174291E+01 -1.314454E+01 -1.174291E+01 +4.635860E+02 -2.904881E+01 -1.314454E+01 -2.904881E+01 +3.361836E+02 
 +8.690794E+02 -1.125551E+01 -1.487973E+01 -1.125551E+01 +4.666016E+02 -2.930200E+01 -1.487973E+01 -2.930200E+01 +3.394834E+02 
 +8.577562E+02 -1.086009E+01 -5.623755E+00 -1.086009E+01 +4.704411E+02 -2.127868E+01 -5.623755E+00 -2.127868E+01 +3.586766E+02 
 +7.917522E+02 -5.351513E+00 +4.258306E+00 -5.351513E+00 +4.575964E+02 -6.060763E+00 +4.258306E+00 -6.060763E+00 +3.623691E+02 
 +8.039425E+02 -1.570431E+00 +6.916953E+00 -1.570431E+00 +4.742743E+02 +4.071516E+00 +6.916953E+00 +4.071516E+00 +3.819134E+02 
 +7.970335E+02 -2.417594E+00 +4.236802E+00 -2.417594E+00 +4.468234E+02 +1.552831E+00 +4.236802E+00 +1.552831E+00 +3.732021E+02 
 +8.777107E+02 -7.104812E+00 +2.042382E+00 -7.104812E+00 +4.653478E+02 -8.865969E+00 +2.042382E+00 -8.865969E+00 +3.867607E+02 
 +8.749057E+02 -2.368787E+00 -2.570817E+00 -2.368787E+00 +4.581256E+02 -1.069424E+01 -2.570817E+00 -1.069424E+01 +3.702774E+02 
 +8.546045E+02 -1.199328E+01 +1.872035E+00 -1.199328E+01 +4.666995E+02 -8.737410E+00 +1.872035E+00 -8.737410E+00 +3.472268E+02 
 +8.622933E+02 -6.232250E+00 -9.970460E-01 -6.232250E+00 +5.019372E+02 -6.618731E+00 -9.970460E-01 -6.618731E+00 +3.437288E+02 
 +8.709571E+02 +2.026212E-02 +2.974088E+00 +2.026212E-02 +5.188609E+02 -1.295398E+01 +2.974088E+00 -1.295398E+01 +3.545874E+02 
 +8.657662E+02 +4.545201E+00 +3.269645E+00 +4.545201E+00 +4.964971E+02 -2.129580E+01 +3.269645E+00 -2.129580E+01 +3.653203E+02 
 +8.622006E+02 +3.707094E+00 +7.020999E+00 +3.707094E+00 +4.710962E+02 -2.131330E+01 +7.020999E+00 -2.131330E+01 +3.788278E+02 
 +8.725548E+02 +1.296870E+01 +1.355359E+01 +1.296870E+01 +4.741725E+02 -1.148015E+01 +1.355359E+01 -1.148015E+01 +3.845576E+02 
 +8.414507E+02 +1.502297E+01 -1.064156E+01 +1.502297E+01 +4.660566E+02 +1.856823E+00 -1.064156E+01 +1.856823E+00 +3.733574E+02 
 +8.647734E+02 +3.116668E+00 -1.085931E+01 +3.116668E+00 +4.754654E+02 +4.618353E+00 -1.085931E+01 +4.618353E+00 +3.762797E+02 
 +8.565369E+02 +1.864950E-01 -9.781625E+00 +1.864950E-01 +4.649574E+02 +4.480655E+00 -9.781625E+00 +4.480655E+00 +3.601384E+02 
 +8.613715E+02 -2.106085E+00 -1.044878E+01 -2.106085E+00 +4.730526E+02 +3.240125E-01 -1.044878E+01 +3.240125E-01 +3.529139E+02 
 +8.685375E+02 -8.554022E+00 +2.754553E+00 -8.554022E+00 +4.890279E+02 -6.613725E+00 +2.754553E+00 -6.613725E+00 +3.484689E+02 
 +8.566365E+02 -1.259638E+01 -1.625827E+00 -1.259638E+01 +4.906167E+02 -1.262093E+01 -1.625827E+00 -1.262093E+01 +3.476698E+02 
 +8.840583E+02 -6.699847E+00 -1.054693E+01 -6.699847E+00 +5.000061E+02 -1.851316E+01 -1.054693E+01 -1.851316E+01 +3.618983E+02 
 +8.591950E+02 -7.239643E+00 -1.504515E+01 -7.239643E+00 +4.660646E+02 -1.846615E+01 -1.504515E+01 -1.846615E+01 +3.536214E+02 
 +8.686193E+02 -1.317778E+01 -9.367254E+00 -1.317778E+01 +4.649730E+02 -1.644727E+01 -9.367254E+00 -1.644727E+01 +3.534979E+02 
 +8.849349E+02 -1.640892E+01 +2.006589E+00 -1.640892E+01 +4.778567E+02 -6.195885E+00 +2.006589E+00 -6.195885E+00 +3.620571E+02 
 +8.083686E+02 -6.544807E+00 +1.311366E+01 -6.544807E+00 +4.626577E+02 +9.146496E+00 +1.311366E+01 +9.146496E+00 +3.520288E+02 
 +8.156360E+02 -2.370156E+00 +5.702027E+00 -2.370156E+00 +4.803307E+02 +1.205756E+01 +5.702027E+00 +1.205756E+01 +3.632019E+02 
 +7.966019E+02 -2.623183E-01 +1.332612E+00 -2.623183E-01 +4.574879E+02 +1.744470E+00 +1.332612E+00 +1.744470E+00 +3.518045E+02 
 +8.476203E+02 -4.139691E+00 -6.160278E-01 -4.139691E+00 +4.682995E+02 -7.440956E+00 -6.160278E-01 -7.440956E+00 +3.668069E+02 
 +8.616029E+02 +1.897627E+00 -7.553112E+00 +1.897627E+00 +4.620561E+02 -1.277538E+01 -7.553112E+00 -1.277538E+01 +3.563752E+02 
 +8.580866E+02 -4.469055E+00 -3.537829E+00 -4.469055E+00 +4.716730E+02 -1.678238E+01 -3.537829E+00 -1.678238E+01 +3.337196E+02 
 +8.644838E+02 -2.841972E+00 -2.943404E+00 -2.841972E+00 +5.021747E+02 -7.879854E+00 -2.943404E+00 -7.879854E+00 +3.318482E+02 
 +8.658414E+02 -3.647435E+00 -4.872952E-01 -3.647435E+00 +5.117337E+02 -3.120921E+00 -4.872952E-01 -3.120921E+00 +3.427315E+02 
 +8.723149E+02 -1.582027E+00 -2.098398E+00 -1.582027E+00 +5.087345E+02 -2.852227E+00 -2.098398E+00 -2.852227E+00 +3.548759E+02 
 +8.799544E+02 +1.016631E+00 -1.365318E+00 +1.016631E+00 +5.089018E+02 -3.334261E-01 -1.365318E+00 -3.334261E-01 +3.666263E+02 
 +8.919983E+02 +1.258884E+01 +6.622336E+00 +1.258884E+01 +5.133975E+02 +2.065677E+00 +6.622336E+00 +2.065677E+00 +3.832891E+02 
 +8.484589E+02 +1.425931E+01 -9.237417E+00 +1.425931E+01 +4.763829E+02 +9.966136E-01 -9.237417E+00 +9.966136E-01 +3.842805E+02 
 +8.616229E+02 +6.995452E+00 -7.413939E+00 +6.995452E+00 +4.676600E+02 +1.218527E+00 -7.413939E+00 +1.218527E+00 +3.874377E+02 
 +8.581833E+02 +6.163272E+00 -3.683293E+00 +6.163272E+00 +4.652680E+02 +3.499923E+00 -3.683293E+00 +3.499923E+00 +3.746928E+02 
 +8.584774E+02 +1.388571E+00 -1.347640E+01 +1.388571E+00 +4.724470E+02 -1.869338E+00 -1.347640E+01 -1.869338E+00 +3.713219E+02 
 +8.606716E+02 -3.969861E+00 -1.765206E+00 -3.969861E+00 +4.860094E+02 -1.144178E+01 -1.765206E+00 -1.144178E+01 +3.595291E+02 
 +8.696639E+02 -1.197709E+01 +4.312389E+00 -1.197709E+01 +5.060610E+02 -1.758501E+01 +4.312389E+00 -1.758501E+01 +3.562272E+02 
 +8.857229E+02 -6.654617E+00 -7.884358E+00 -6.654617E+00 +4.977887E+02 -7.019833E+00 -7.884358E+00 -7.019833E+00 +3.675274E+02 
 +8.550663E+02 -1.131172E+01 -1.251836E+01 -1.131172E+01 +4.978427E+02 +7.678989E-02 -1.251836E+01 +7.678989E-02 +3.671957E+02 
 +8.803684E+02 -1.643685E+01 -5.607007E+00 -1.643685E+01 +4.943304E+02 -4.602863E+00 -5.607007E+00 -4.602863E+00 +3.559901E+02 
 +8.676493E+02 -1.522511E+01 +7.878964E+00 -1.522511E+01 +4.802887E+02 -4.447366E+00 +7.878964E+00 -4.447366E+00 +3.307109E+02 
 +8.458501E+02 -7.659218E+00 +1.177829E+01 -7.659218E+00 +4.748988E+02 -4.565933E+00 +1.177829E+01 -4.565933E+00 +3.375497E+02 
 +8.388559E+02 -1.112338E+01 +9.415269E-01 -1.112338E+01 +4.735794E+02 -4.253054E+00 +9.415269E-01 -4.253054E+00 +3.393004E+02 
 +8.162837E+02 -7.461964E-01 -5.935957E+00 -7.461964E-01 +4.762259E+02 -1.568143E+00 -5.935957E+00 -1.568143E+00 +3.282350E+02 
 +8.539337E+02 +3.373462E+00 -3.142710E+00 +3.373462E+00 +5.230140E+02 +1.083980E+00 -3.142710E+00 +1.083980E+00 +3.524196E+02 
 +8.774195E+02 +1.549803E+01 -3.717580E+00 +1.549803E+01 +5.521575E+02 -3.251180E+00 -3.717580E+00 -3.251180E+00 +3.554120E+02 
 +8.909392E+02 +7.534429E+00 -3.724626E+00 +7.534429E+00 +5.549831E+02 -6.762952E+00 -3.724626E+00 -6.762952E+00 +3.461586E+02 
 +8.795102E+02 +1.827950E+00 -4.388770E+00 +1.827950E+00 +5.281920E+02 -2.638873E+00 -4.388770E+00 -2.638873E+00 +3.370979E+02 
 +8.701414E+02 -5.237267E+00 +1.346905E-01 -5.237267E+00 +5.133550E+02 +1.552191E+00 +1.346905E-01 +1.552191E+00 +3.450844E+02 
 +8.718960E+02 -6.936168E+00 -3.165798E+00 -6.936168E+00 +5.109006E+02 +1.549730E+00 -3.165798E+00 +1.549730E+00 +3.533162E+02 
 +8.773472E+02 -3.431692E+00 -2.782326E+00 -3.431692E+00 +5.082289E+02 +7.391198E+00 -2.782326E+00 +7.391198E+00 +3.548370E+02 
 +8.826806E+02 +4.375773E+00 -4.580696E+00 +4.375773E+00 +4.985136E+02 +1.562721E+01 -4.580696E+00 +1.562721E+01 +3.727416E+02 
 +8.528111E+02 +4.559169E+00 -1.290816E+01 +4.559169E+00 +4.590685E+02 +9.456210E+00 -1.290816E+01 +9.456210E+00 +3.752165E+02 
 +8.459285E+02 +6.382430E+00 -1.059870E+00 +6.382430E+00 +4.512147E+02 +4.757697E+00 -1.059870E+00 +4.757697E+00 +3.726558E+02 
 +8.491812E+02 +6.750057E+00 -5.816583E-01 +6.750057E+00 +4.620118E+02 +5.511456E+00 -5.816583E-01 +5.511456E+00 +3.709942E+02 
 +8.529028E+02 +3.920437E+00 -7.072664E+00 +3.920437E+00 +4.770649E+02 +5.995234E+00 -7.072664E+00 +5.995234E+00 +3.767917E+02 
 +8.544180E+02 -1.498377E+00 -4.965985E+00 -1.498377E+00 +4.763400E+02 +8.025396E+00 -4.965985E+00 +8.025396E+00 +3.724494E+02 
 +8.682376E+02 -5.463016E+00 +5.501120E-01 -5.463016E+00 +4.677871E+02 -1.517281E+00 +5.501120E-01 -1.517281E+00 +3.568705E+02 
 +8.635292E+02 -3.161196E+00 -9.364701E+00 -3.161196E+00 +4.747238E+02 -1.608443E+01 -9.364701E+00 -1.608443E+01 +3.603623E+02 
 +8.518513E+02 -9.691956E+00 -5.542034E+00 -9.691956E+00 +4.769881E+02 -1.877236E+01 -5.542034E+00 -1.877236E+01 +3.657943E+02 
 +8.698081E+02 -8.956810E+00 -1.642922E+00 -8.956810E+00 +4.956265E+02 -1.610628E+01 -1.642922E+00 -1.610628E+01 +3.562666E+02 
 +8.703798E+02 -3.482621E+00 +6.918227E+00 -3.482621E+00 +4.993211E+02 -8.481649E+00 +6.918227E+00 -8.481649E+00 +3.319236E+02 
 +8.673321E+02 -1.244912E+00 +3.935954E+00 -1.244912E+00 +4.946329E+02 -4.091436E+00 +3.935954E+00 -4.091436E+00 +3.329846E+02 
 +8.646658E+02 -1.170511E+01 -1.593042E+00 -1.170511E+01 +4.936281E+02 +1.177692E+00 -1.593042E+00 +1.177692E+00 +3.372496E+02 
 +8.467165E+02 -4.734023E+00 -8.419447E+00 -4.734023E+00 +4.959848E+02 +3.980878E+00 -8.419447E+00 +3.980878E+00 +3.291253E+02 
 +8.500489E+02 -1.864601E+00 -5.103327E+00 -1.864601E+00 +5.192849E+02 -6.360627E-01 -5.103327E+00 -6.360627E-01 +3.316397E+02 
 +8.488165E+02 +1.149316E+01 -2.924509E+00 +1.149316E+01 +5.310333E+02 -8.014494E+00 -2.924509E+00 -8.014494E+00 +3.306807E+02 
 +8.747927E+02 +5.065307E+00 -4.974809E+00 +5.065307E+00 +5.406287E+02 -1.233376E+01 -4.974809E+00 -1.233376E+01 +3.366264E+02 
 +8.733053E+02 +1.363589E+00 -6.374480E+00 +1.363589E+00 +5.313442E+02 -9.476214E+00 -6.374480E+00 -9.476214E+00 +3.322730E+02 
 +8.623463E+02 -5.246916E+00 +1.742698E+00 -5.246916E+00 +5.158945E+02 -6.016954E+00 +1.742698E+00 -6.016954E+00 +3.360832E+02 
 +8.636712E+02 -9.129594E+00 +3.274512E+00 -9.129594E+00 +5.085619E+02 -5.953457E-02 +3.274512E+00 -5.953457E-02 +3.502165E+02 
 +8.699996E+02 -8.412156E+00 -3.394663E+00 -8.412156E+00 +4.991349E+02 -4.183081E-01 -3.394663E+00 -4.183081E-01 +3.517032E+02 
 +8.744226E+02 -6.503729E+00 -7.975780E+00 -6.503729E+00 +4.805527E+02 -1.318762E-01 -7.975780E+00 -1.318762E-01 +3.592953E+02 
 +8.558758E+02 -4.066481E+00 -7.463978E+00 -4.066481E+00 +4.559665E+02 +1.368177E+01 -7.463978E+00 +1.368177E+01 +3.589581E+02 
 +8.424093E+02 +7.418316E+00 +1.013450E+00 +7.418316E+00 +4.489455E+02 +1.556105E+01 +1.013450E+00 +1.556105E+01 +3.482408E+02 
 +8.404788E+02 +9.242802E+00 +6.222660E-01 +9.242802E+00 +4.627356E+02 +8.774779E+00 +6.222660E-01 +8.774779E+00 +3.591491E+02 
 +8.459575E+02 +6.285625E+00 -8.174171E-01 +6.285625E+00 +4.683512E+02 +8.838870E+00 -8.174171E-01 +8.838870E+00 +3.715728E+02 
 +8.554974E+02 -1.931046E+00 -6.494787E+00 -1.931046E+00 +4.603179E+02 +7.949285E+00 -6.494787E+00 +7.949285E+00 +3.706498E+02 
 +8.660927E+02 -4.099326E+00 -1.113999E+01 -4.099326E+00 +4.663878E+02 -2.570021E+00 -1.113999E+01 -2.570021E+00 +3.630015E+02 
 +8.462659E+02 -1.242682E+00 -9.155951E+00 -1.242682E+00 +4.479991E+02 +6.282997E+00 -9.155951E+00 +6.282997E+00 +3.567860E+02 
 +8.505690E+02 -7.143746E+00 +1.172261E+00 -7.143746E+00 +4.557238E+02 +2.639680E+00 +1.172261E+00 +2.639680E+00 +3.522497E+02 
 +8.540453E+02 -4.374827E+00 +2.798544E+00 -4.374827E+00 +4.733405E+02 -8.891020E+00 +2.798544E+00 -8.891020E+00 +3.332012E+02 
 +8.684678E+02 +3.900639E-01 +1.245191E+00 +3.900639E-01 +4.982163E+02 -9.927187E+00 +1.245191E+00 -9.927187E+00 +3.313875E+02 
 +8.703986E+02 -3.587449E+00 -2.173946E+00 -3.587449E+00 +5.076117E+02 -9.405285E+00 -2.173946E+00 -9.405285E+00 +3.389547E+02 
 +8.770706E+02 -9.930422E+00 -3.630405E+00 -9.930422E+00 +5.175388E+02 -5.479913E+00 -3.630405E+00 -5.479913E+00 +3.426487E+02 
 +8.649054E+02 -5.375551E+00 -7.026582E+00 -5.375551E+00 +5.139559E+02 -1.652602E+00 -7.026582E+00 -1.652602E+00 +3.375223E+02 
 +8.483410E+02 -5.800964E-01 -9.370648E+00 -5.800964E-01 +5.073127E+02 -3.431538E+00 -9.370648E+00 -3.431538E+00 +3.318028E+02 
 +8.485782E+02 +7.695829E+00 -1.061623E+01 +7.695829E+00 +5.123113E+02 -9.915755E+00 -1.061623E+01 -9.915755E+00 +3.350842E+02 
 +8.675611E+02 +4.972996E-01 -8.866302E+00 +4.972996E-01 +5.189215E+02 -1.885095E+01 -8.866302E+00 -1.885095E+01 +3.496090E+02 
 +8.585768E+02 -1.623408E+00 -5.055247E+00 -1.623408E+00 +5.071860E+02 -1.943923E+01 -5.055247E+00 -1.943923E+01 +3.449216E+02 
 +8.541060E+02 -5.392342E+00 +1.122231E+00 -5.392342E+00 +5.076268E+02 -9.095110E+00 +1.122231E+00 -9.095110E+00 +3.480553E+02 
 +8.508741E+02 -1.136696E+01 +4.536684E+00 -1.136696E+01 +4.995798E+02 -1.036372E+01 +4.536684E+00 -1.036372E+01 +3.536917E+02 
 +8.476331E+02 -1.271729E+01 -5.865643E+00 -1.271729E+01 +4.675320E+02 -2.272355E+01 -5.865643E+00 -2.272355E+01 +3.278783E+02 
 +8.518742E+02 -6.967403E+00 -7.069892E+00 -6.967403E+00 +4.547148E+02 -2.729146E+01 -7.069892E+00 -2.729146E+01 +3.091818E+02 
 +8.498363E+02 -3.065339E+00 +4.962300E+00 -3.065339E+00 +4.578862E+02 -2.617227E+01 +4.962300E+00 -2.617227E+01 +3.166648E+02 
 +8.460433E+02 +8.134371E+00 +7.484584E+00 +8.134371E+00 +4.586032E+02 -1.601709E+01 +7.484584E+00 -1.601709E+01 +3.293868E+02 
 +8.349430E+02 +1.018381E+01 -9.251512E-01 +1.018381E+01 +4.499187E+02 +5.668332E-01 -9.251512E-01 +5.668332E-01 +3.507824E+02 
 +8.398343E+02 +5.454622E+00 -3.235551E+00 +5.454622E+00 +4.418534E+02 +7.527102E+00 -3.235551E+00 +7.527102E+00 +3.705410E+02 
 +8.474322E+02 -8.912451E-01 -9.312689E+00 -8.912451E-01 +4.459734E+02 +5.726786E+00 -9.312689E+00 +5.726786E+00 +3.718984E+02 
 +8.472085E+02 -2.596009E+00 -1.251717E+01 -2.596009E+00 +4.516940E+02 +3.398394E+00 -1.251717E+01 +3.398394E+00 +3.635513E+02 
 +8.438439E+02 -1.740958E+00 +3.316237E-01 -1.740958E+00 +4.453407E+02 +6.739113E+00 +3.316237E-01 +6.739113E+00 +3.681585E+02 
 +8.429046E+02 +4.368235E-02 +3.100423E+00 +4.368235E-02 +4.501099E+02 +5.438927E+00 +3.100423E+00 +5.438927E+00 +3.499960E+02 
 +8.616857E+02 -1.071029E-01 -4.973033E+00 -1.071029E-01 +4.832177E+02 -3.148426E+00 -4.973033E+00 -3.148426E+00 +3.329488E+02 
 +8.765594E+02 -2.612566E+00 -4.897628E+00 -2.612566E+00 +5.087914E+02 -1.115879E+01 -4.897628E+00 -1.115879E+01 +3.484920E+02 
 +8.781438E+02 -5.530136E+00 -6.608355E+00 -5.530136E+00 +5.170874E+02 -1.280903E+01 -6.608355E+00 -1.280903E+01 +3.676918E+02 
 +8.840404E+02 -8.512998E+00 -6.134100E+00 -8.512998E+00 +5.254540E+02 -1.246077E+01 -6.134100E+00 -1.246077E+01 +3.640773E+02 
 +8.797454E+02 -9.248578E+00 -8.908281E+00 -9.248578E+00 +5.212067E+02 -1.037053E+01 -8.908281E+00 -1.037053E+01 +3.592209E+02 
 +8.533533E+02 +5.929846E-01 -1.132944E+01 +5.929846E-01 +4.984155E+02 -8.776065E+00 -1.132944E+01 -8.776065E+00 +3.541845E+02 
 +8.388709E+02 +2.567991E+00 -6.545663E+00 +2.567991E+00 +4.734143E+02 +2.724806E+00 -6.545663E+00 +2.724806E+00 +3.473260E+02 
 +8.384648E+02 -6.301826E+00 -6.485742E+00 -6.301826E+00 +4.594972E+02 +2.023281E+01 -6.485742E+00 +2.023281E+01 +3.594823E+02 
 +8.389901E+02 -7.022232E+00 -4.275510E+00 -7.022232E+00 +4.585588E+02 +2.184921E+01 -4.275510E+00 +2.184921E+01 +3.701999E+02 
 +8.376284E+02 -7.386309E+00 -5.846921E+00 -7.386309E+00 +4.581810E+02 +1.922841E+01 -5.846921E+00 +1.922841E+01 +3.769335E+02 
 +8.333407E+02 -1.440148E+01 -6.947617E+00 -1.440148E+01 +4.545248E+02 +1.300844E+01 -6.947617E+00 +1.300844E+01 +3.726761E+02 
 +8.434545E+02 -1.320853E+01 -1.640438E+00 -1.320853E+01 +4.572069E+02 -5.480611E+00 -1.640438E+00 -5.480611E+00 +3.410874E+02 
 +8.485136E+02 -4.239991E+00 -3.626948E+00 -4.239991E+00 +4.567733E+02 -1.471692E+01 -3.626948E+00 -1.471692E+01 +3.111261E+02 
 +8.482169E+02 -4.763369E-01 +2.080975E+00 -4.763369E-01 +4.651516E+02 -1.723688E+01 +2.080975E+00 -1.723688E+01 +3.094767E+02 
 +8.435823E+02 +1.408060E+00 +1.391154E+01 +1.408060E+00 +4.567863E+02 -1.021131E+01 +1.391154E+01 -1.021131E+01 +3.207244E+02 
 +8.295199E+02 +3.673461E+00 +1.355200E+00 +3.673461E+00 +4.244905E+02 +1.825835E+00 +1.355200E+00 +1.825835E+00 +3.327064E+02 
 +8.362938E+02 +4.501822E+00 -8.943374E+00 +4.501822E+00 +4.338511E+02 +3.813455E+00 -8.943374E+00 +3.813455E+00 +3.579789E+02 
 +8.408596E+02 -8.479928E-01 -7.005142E+00 -8.479928E-01 +4.488624E+02 +1.541855E+00 -7.005142E+00 +1.541855E+00 +3.682108E+02 
 +8.458214E+02 -1.665711E+00 -7.337038E+00 -1.665711E+00 +4.502597E+02 +3.414710E+00 -7.337038E+00 +3.414710E+00 +3.675621E+02 
 +8.396655E+02 +1.353479E-01 +4.147493E+00 +1.353479E-01 +4.488721E+02 +4.670730E+00 +4.147493E+00 +4.670730E+00 +3.551205E+02 
 +8.409214E+02 +5.575509E+00 -1.252545E+00 +5.575509E+00 +4.520528E+02 -4.548440E+00 -1.252545E+00 -4.548440E+00 +3.533263E+02 
 +8.370325E+02 +5.648539E+00 -9.305875E+00 +5.648539E+00 +4.320676E+02 +5.731083E+00 -9.305875E+00 +5.731083E+00 +3.522345E+02 
 +8.428386E+02 +3.587418E+00 -9.012687E+00 +3.587418E+00 +4.295712E+02 +1.014106E+01 -9.012687E+00 +1.014106E+01 +3.668691E+02 
 +8.455468E+02 -6.372856E-01 -7.588938E+00 -6.372856E-01 +4.376505E+02 +5.944812E+00 -7.588938E+00 +5.944812E+00 +3.761001E+02 
 +8.417938E+02 -3.007162E+00 -1.155956E+01 -3.007162E+00 +4.356188E+02 +7.074122E+00 -1.155956E+01 +7.074122E+00 +3.761107E+02 
 +8.376804E+02 -1.096318E+01 -1.373841E+01 -1.096318E+01 +4.323136E+02 +1.059492E+01 -1.373841E+01 +1.059492E+01 +3.787083E+02 
 +8.306985E+02 -5.109021E+00 -6.938647E+00 -5.109021E+00 +4.301791E+02 +1.504457E+01 -6.938647E+00 +1.504457E+01 +3.731836E+02 
 +8.295292E+02 -4.960772E+00 +4.964262E-01 -4.960772E+00 +4.365452E+02 +1.524650E+01 +4.964262E-01 +1.524650E+01 +3.723697E+02 
 +8.362196E+02 -8.507699E+00 -2.662309E+00 -8.507699E+00 +4.482597E+02 +1.382998E+01 -2.662309E+00 +1.382998E+01 +3.843521E+02 
 +8.426178E+02 -6.235406E+00 -5.401718E+00 -6.235406E+00 +4.562326E+02 +1.326049E+01 -5.401718E+00 +1.326049E+01 +3.915857E+02 
 +8.479787E+02 -7.612401E+00 -6.157214E+00 -7.612401E+00 +4.621414E+02 +1.439491E+01 -6.157214E+00 +1.439491E+01 +4.023525E+02 
 +8.491637E+02 -1.397312E+01 -6.622902E+00 -1.397312E+01 +4.634059E+02 +2.464719E+01 -6.622902E+00 +2.464719E+01 +3.966341E+02 
 +8.532519E+02 -1.003552E+01 -3.541851E+00 -1.003552E+01 +4.678531E+02 +1.999431E+01 -3.541851E+00 +1.999431E+01 +3.653320E+02 
 +8.547969E+02 -2.581547E+00 -2.949905E+00 -2.581547E+00 +4.747094E+02 -8.652970E+00 -2.949905E+00 -8.652970E+00 +3.420484E+02 
 +8.528140E+02 +3.705263E+00 -6.773045E-01 +3.705263E+00 +4.741263E+02 -2.341084E+01 -6.773045E-01 -2.341084E+01 +3.296444E+02 
 +8.568487E+02 -3.093373E-01 +5.932215E+00 -3.093373E-01 +4.794950E+02 -2.056947E+01 +5.932215E+00 -2.056947E+01 +3.270891E+02 
 +8.573810E+02 -3.105253E+00 +5.458710E+00 -3.105253E+00 +4.810652E+02 -1.951943E+01 +5.458710E+00 -1.951943E+01 +3.364829E+02 
 +8.460010E+02 +1.080713E+00 -5.226295E+00 +1.080713E+00 +4.590678E+02 -1.032048E+01 -5.226295E+00 -1.032048E+01 +3.428029E+02 
 +8.396646E+02 -1.467972E+00 -4.326402E+00 -1.467972E+00 +4.472923E+02 -1.161373E+00 -4.326402E+00 -1.161373E+00 +3.486955E+02 
 +8.428454E+02 -2.669761E+00 +7.497096E-01 -2.669761E+00 +4.472329E+02 +5.632335E+00 +7.497096E-01 +5.632335E+00 +3.543748E+02 
 +8.513290E+02 +3.102022E+00 -5.156746E+00 +3.102022E+00 +4.712472E+02 -1.955451E+01 -5.156746E+00 -1.955451E+01 +3.518852E+02 
 +8.553949E+02 +3.688161E+00 -4.005539E-01 +3.688161E+00 +4.714278E+02 -2.500648E+01 -4.005539E-01 -2.500648E+01 +3.617702E+02 
 +8.579536E+02 +1.146963E+00 +8.287711E-01 +1.146963E+00 +4.632321E+02 -1.533022E+01 +8.287711E-01 -1.533022E+01 +3.870347E+02 
 +8.565185E+02 +5.048891E+00 -8.133665E+00 +5.048891E+00 +4.451883E+02 -1.432091E+00 -8.133665E+00 -1.432091E+00 +4.069210E+02 
 +8.550751E+02 +3.472216E+00 -1.234192E+01 +3.472216E+00 +4.360720E+02 -4.907404E-01 -1.234192E+01 -4.907404E-01 +4.191846E+02 
 +8.511468E+02 -1.186087E+00 -1.719041E+01 -1.186087E+00 +4.380220E+02 +1.817576E+00 -1.719041E+01 +1.817576E+00 +4.304198E+02 
 +8.540569E+02 +3.424786E-01 -1.595282E+01 +3.424786E-01 +4.581638E+02 +6.827319E+00 -1.595282E+01 +6.827319E+00 +4.279552E+02 
 +8.465956E+02 -2.647426E-01 -5.053412E+00 -2.647426E-01 +4.629219E+02 +5.970114E+00 -5.053412E+00 +5.970114E+00 +4.060600E+02 
 +8.425072E+02 -4.584276E+00 -2.852607E+00 -4.584276E+00 +4.485208E+02 +1.143425E+01 -2.852607E+00 +1.143425E+01 +3.999599E+02 
 +8.443830E+02 -7.228843E+00 -2.351590E+00 -7.228843E+00 +4.480912E+02 +1.331697E+01 -2.351590E+00 +1.331697E+01 +4.014213E+02 
 +8.452464E+02 -4.756767E+00 -2.398371E+00 -4.756767E+00 +4.534177E+02 +1.350160E+01 -2.398371E+00 +1.350160E+01 +3.979592E+02 
 +8.472000E+02 -6.735737E+00 -8.091052E-01 -6.735737E+00 +4.547222E+02 +1.235072E+01 -8.091052E-01 +1.235072E+01 +3.938969E+02 
 +8.466003E+02 -9.221932E+00 -8.431271E-02 -9.221932E+00 +4.569596E+02 +1.936939E+01 -8.431271E-02 +1.936939E+01 +3.762955E+02 
 +8.551403E+02 -3.782794E+00 -3.892390E+00 -3.782794E+00 +4.769023E+02 +3.248157E+01 -3.892390E+00 +3.248157E+01 +3.616761E+02 
 +8.594275E+02 -9.840659E-02 -8.266310E+00 -9.840659E-02 +4.889757E+02 +2.058735E+01 -8.266310E+00 +2.058735E+01 +3.517016E+02 
 +8.569940E+02 +3.867812E+00 -2.991862E+00 +3.867812E+00 +4.840301E+02 -1.421244E+01 -2.991862E+00 -1.421244E+01 +3.382175E+02 
 +8.509142E+02 +8.924503E-01 -1.989992E-01 +8.924503E-01 +4.733508E+02 -2.807810E+01 -1.989992E-01 -2.807810E+01 +3.200218E+02 
 +8.442794E+02 -3.362101E+00 +6.379499E+00 -3.362101E+00 +4.651280E+02 -2.259747E+01 +6.379499E+00 -2.259747E+01 +3.149244E+02 
 +8.415090E+02 -1.366920E+00 +9.558622E+00 -1.366920E+00 +4.578589E+02 -8.912736E+00 +9.558622E+00 -8.912736E+00 +3.258618E+02 
 +8.384409E+02 -2.047913E+00 +3.655080E+00 -2.047913E+00 +4.456177E+02 +8.501957E+00 +3.655080E+00 +8.501957E+00 +3.328006E+02 
 +8.438739E+02 -2.468602E+00 -5.310923E+00 -2.468602E+00 +4.542245E+02 +1.176884E+00 -5.310923E+00 +1.176884E+00 +3.430926E+02 
 +8.585859E+02 +6.646012E-01 -6.196720E+00 +6.646012E-01 +4.717096E+02 -2.387217E+01 -6.196720E+00 -2.387217E+01 +3.585914E+02 
 +8.623162E+02 +1.585883E+00 +4.483630E+00 +1.585883E+00 +4.675008E+02 -2.026273E+01 +4.483630E+00 -2.026273E+01 +3.719666E+02 
 +8.633811E+02 -4.694782E-01 +4.694490E+00 -4.694782E-01 +4.720702E+02 -2.807607E+01 +4.694490E+00 -2.807607E+01 +3.858421E+02 
 +8.699325E+02 -7.830625E-01 -3.164633E-01 -7.830625E-01 +4.717960E+02 -3.137441E+01 -3.164633E-01 -3.137441E+01 +4.019744E+02 
 +8.712645E+02 +6.023924E+00 -1.550559E+01 +6.023924E+00 +4.701681E+02 -1.448131E+01 -1.550559E+01 -1.448131E+01 +4.297154E+02 
 +8.804644E+02 +6.883799E+00 -2.021834E+01 +6.883799E+00 +4.988833E+02 -2.499325E+00 -2.021834E+01 -2.499325E+00 +4.505149E+02 
 +8.873154E+02 +7.647613E+00 -1.265270E+01 +7.647613E+00 +5.234413E+02 -2.465089E+00 -1.265270E+01 -2.465089E+00 +4.381716E+02 
 +8.594005E+02 -6.510416E+00 -9.395918E+00 -6.510416E+00 +4.978666E+02 -1.091202E+00 -9.395918E+00 -1.091202E+00 +4.226065E+02 
 +8.575615E+02 -5.321032E+00 -7.578935E+00 -5.321032E+00 +4.714133E+02 +5.090081E+00 -7.578935E+00 +5.090081E+00 +4.214804E+02 
 +8.444069E+02 -2.864452E+00 -6.531579E-01 -2.864452E+00 +4.491014E+02 +8.844346E+00 -6.531579E-01 +8.844346E+00 +4.013118E+02 
 +8.454765E+02 -2.473543E+00 +4.499054E-01 -2.473543E+00 +4.485581E+02 +1.144725E+01 +4.499054E-01 +1.144725E+01 +3.935012E+02 
 +8.509536E+02 -3.730363E+00 +3.264323E+00 -3.730363E+00 +4.588323E+02 +1.772402E+01 +3.264323E+00 +1.772402E+01 +3.799143E+02 
 +8.639403E+02 -2.319608E+00 +8.058462E-01 -2.319608E+00 +4.878746E+02 +2.679900E+01 +8.058462E-01 +2.679900E+01 +3.720871E+02 
 +8.665366E+02 -6.437829E-01 -8.705206E-01 -6.437829E-01 +5.010041E+02 +3.443374E+01 -8.705206E-01 +3.443374E+01 +3.719037E+02 
 +8.653076E+02 +1.838937E+00 -1.351910E+00 +1.838937E+00 +4.977446E+02 +3.198023E+01 -1.351910E+00 +3.198023E+01 +3.625593E+02 
 +8.635655E+02 +4.714702E+00 -1.870532E+00 +4.714702E+00 +4.942855E+02 +1.580206E+01 -1.870532E+00 +1.580206E+01 +3.503335E+02 
 +8.566752E+02 +2.681081E+00 -2.878302E-01 +2.681081E+00 +4.823806E+02 -1.511880E+01 -2.878302E-01 -1.511880E+01 +3.359381E+02 
 +8.546590E+02 -2.938101E+00 +5.284090E+00 -2.938101E+00 +4.758578E+02 -2.496231E+01 +5.284090E+00 -2.496231E+01 +3.392388E+02 
 +8.533675E+02 -2.657121E+00 +1.050755E+01 -2.657121E+00 +4.776451E+02 -2.153400E+01 +1.050755E+01 -2.153400E+01 +3.544201E+02 
 +8.584352E+02 -2.561862E+00 +4.308732E+00 -2.561862E+00 +4.864912E+02 -3.390839E+01 +4.308732E+00 -3.390839E+01 +3.546088E+02 
 +8.582807E+02 -1.438692E+00 -1.013360E+01 -1.438692E+00 +4.838914E+02 -3.710279E+01 -1.013360E+01 -3.710279E+01 +3.505404E+02 
 +8.540095E+02 -2.244385E+00 -2.307822E+00 -2.244385E+00 +4.589746E+02 -2.259430E+01 -2.307822E+00 -2.259430E+01 +3.565984E+02 
 +8.530708E+02 +5.791586E-01 +5.388409E+00 +5.791586E-01 +4.536492E+02 -2.294182E+01 +5.388409E+00 -2.294182E+01 +3.666422E+02 
 +8.722276E+02 -1.197544E+00 +6.841334E+00 -1.197544E+00 +4.728542E+02 -2.745951E+01 +6.841334E+00 -2.745951E+01 +3.857107E+02 
 +8.777002E+02 -1.062285E+00 +2.428565E+00 -1.062285E+00 +4.912836E+02 -2.830289E+01 +2.428565E+00 -2.830289E+01 +3.890526E+02 
 +8.862766E+02 +8.310819E+00 -1.168455E+01 +8.310819E+00 +5.239011E+02 -1.084738E+01 -1.168455E+01 -1.084738E+01 +4.002136E+02 
 +8.897631E+02 +7.655687E+00 -1.776379E+01 +7.655687E+00 +5.401218E+02 +8.264531E+00 -1.776379E+01 +8.264531E+00 +4.187482E+02 
 +8.779603E+02 +1.861493E+00 -9.083782E+00 +1.861493E+00 +5.144634E+02 +1.261503E+01 -9.083782E+00 +1.261503E+01 +4.111060E+02 
 +8.682344E+02 -6.784446E+00 -1.008938E+01 -6.784446E+00 +5.015727E+02 +1.109262E+01 -1.008938E+01 +1.109262E+01 +4.120602E+02 
 +8.785522E+02 -5.666219E+00 -1.125810E+01 -5.666219E+00 +5.167738E+02 +1.171591E+01 -1.125810E+01 +1.171591E+01 +4.237583E+02 
 +8.652484E+02 -4.547609E+00 -5.840189E+00 -4.547609E+00 +4.946623E+02 +8.313748E+00 -5.840189E+00 +8.313748E+00 +4.069349E+02 
 +8.521419E+02 -1.370970E+00 -3.419245E+00 -1.370970E+00 +4.604689E+02 +9.727235E+00 -3.419245E+00 +9.727235E+00 +3.903262E+02 
 +8.482714E+02 +5.722699E+00 +1.709486E+00 +5.722699E+00 +4.539277E+02 +1.581087E+01 +1.709486E+00 +1.581087E+01 +3.741858E+02 
 +8.529044E+02 +5.040500E+00 -1.064699E+00 +5.040500E+00 +4.634945E+02 +2.755594E+01 -1.064699E+00 +2.755594E+01 +3.652109E+02 
 +8.571612E+02 +5.480216E+00 -2.139719E+00 +5.480216E+00 +4.786567E+02 +3.867739E+01 -2.139719E+00 +3.867739E+01 +3.637194E+02 
 +8.687521E+02 +8.262018E+00 +2.420782E+00 +8.262018E+00 +5.043265E+02 +3.553409E+01 +2.420782E+00 +3.553409E+01 +3.636828E+02 
 +8.776235E+02 +6.553393E+00 -1.288748E+00 +6.553393E+00 +5.138816E+02 +1.360187E+01 -1.288748E+00 +1.360187E+01 +3.687227E+02 
 +8.745874E+02 +3.093198E+00 -2.376416E+00 +3.093198E+00 +5.089679E+02 -2.772103E+01 -2.376416E+00 -2.772103E+01 +3.736195E+02 
 +8.698437E+02 -1.592942E+00 +5.369558E+00 -1.592942E+00 +5.038076E+02 -5.379983E+01 +5.369558E+00 -5.379983E+01 +3.732524E+02 
 +8.595472E+02 -6.391333E-01 +9.236276E+00 -6.391333E-01 +4.935280E+02 -4.829114E+01 +9.236276E+00 -4.829114E+01 +3.651239E+02 
 +8.524914E+02 +2.103502E-01 +3.335687E+00 +2.103502E-01 +4.806755E+02 -3.223839E+01 +3.335687E+00 -3.223839E+01 +3.548636E+02 
 +8.526347E+02 -1.417419E+00 -1.120127E+00 -1.417419E+00 +4.712931E+02 -2.416525E+01 -1.120127E+00 -2.416525E+01 +3.514051E+02 
 +8.557679E+02 -3.041321E+00 -3.120299E-01 -3.041321E+00 +4.684395E+02 -2.129434E+01 -3.120299E-01 -2.129434E+01 +3.444828E+02 
 +8.485556E+02 +2.849844E+00 +9.222679E+00 +2.849844E+00 +4.667165E+02 -7.923797E+00 +9.222679E+00 -7.923797E+00 +3.431929E+02 
 +8.736545E+02 +6.599119E-01 +1.119053E+01 +6.599119E-01 +4.785209E+02 -1.853528E+01 +1.119053E+01 -1.853528E+01 +3.581354E+02 
 +8.775656E+02 +4.958280E+00 +1.968162E+00 +4.958280E+00 +5.019334E+02 -2.403148E+01 +1.968162E+00 -2.403148E+01 +3.784839E+02 
 +8.773357E+02 +1.123106E+01 -8.170980E+00 +1.123106E+01 +5.247457E+02 -5.561750E+00 -8.170980E+00 -5.561750E+00 +3.841344E+02 
 +8.779054E+02 +3.265810E+00 -8.810497E+00 +3.265810E+00 +5.241947E+02 +1.259686E+01 -8.810497E+00 +1.259686E+01 +3.909863E+02 
 +8.806010E+02 -3.989874E+00 -8.314598E+00 -3.989874E+00 +5.139135E+02 +1.429458E+01 -8.314598E+00 +1.429458E+01 +3.979665E+02 
 +8.751026E+02 -5.599257E+00 -8.942268E+00 -5.599257E+00 +5.062745E+02 +7.967522E+00 -8.942268E+00 +7.967522E+00 +3.916207E+02 
 +8.689188E+02 -6.603578E+00 -1.210102E+01 -6.603578E+00 +5.046203E+02 +5.263589E+00 -1.210102E+01 +5.263589E+00 +3.908152E+02 
 +8.724195E+02 -6.931016E+00 -1.112720E+01 -6.931016E+00 +5.078165E+02 +4.234751E+00 -1.112720E+01 +4.234751E+00 +3.956469E+02 
 +8.729472E+02 -5.059919E+00 -7.240891E+00 -5.059919E+00 +5.042356E+02 +1.165249E+01 -7.240891E+00 +1.165249E+01 +3.956252E+02 
 +8.633691E+02 +6.936347E+00 -2.653189E+00 +6.936347E+00 +4.839900E+02 +2.541569E+01 -2.653189E+00 +2.541569E+01 +3.839340E+02 
 +8.608802E+02 +6.296665E+00 -3.894682E+00 +6.296665E+00 +4.759247E+02 +3.059187E+01 -3.894682E+00 +3.059187E+01 +3.754623E+02 
 +8.579753E+02 +9.740961E+00 -5.097647E+00 +9.740961E+00 +4.761815E+02 +3.270961E+01 -5.097647E+00 +3.270961E+01 +3.637911E+02 
 +8.545552E+02 +9.822006E+00 -6.126029E+00 +9.822006E+00 +4.734955E+02 +3.421128E+01 -6.126029E+00 +3.421128E+01 +3.495108E+02 
 +8.625517E+02 +7.611757E+00 -7.250821E+00 +7.611757E+00 +4.825635E+02 +3.328127E+01 -7.250821E+00 +3.328127E+01 +3.576551E+02 
 +8.682048E+02 +6.493310E+00 -3.093711E+00 +6.493310E+00 +4.938358E+02 +2.054168E+01 -3.093711E+00 +2.054168E+01 +3.676946E+02 
 +8.694451E+02 +6.530258E+00 +7.651209E+00 +6.530258E+00 +5.024883E+02 -4.373822E+00 +7.651209E+00 -4.373822E+00 +3.620046E+02 
 +8.528689E+02 +4.514733E+00 +1.245778E+01 +4.514733E+00 +4.906044E+02 -2.070307E+01 +1.245778E+01 -2.070307E+01 +3.527705E+02 
 +8.436201E+02 +5.745817E+00 +4.225099E+00 +5.745817E+00 +4.777009E+02 -2.538164E+01 +4.225099E+00 -2.538164E+01 +3.526422E+02 
 +8.410659E+02 -3.201316E+00 -1.189879E+00 -3.201316E+00 +4.644376E+02 -2.865713E+01 -1.189879E+00 -2.865713E+01 +3.425887E+02 
 +8.818575E+02 -3.316512E+00 +4.601741E-01 -3.316512E+00 +5.249425E+02 +3.826329E+00 +4.601741E-01 +3.826329E+00 +3.398766E+02 
 +8.778359E+02 -2.252528E+00 +9.867972E+00 -2.252528E+00 +5.198659E+02 +1.551439E+00 +9.867972E+00 +1.551439E+00 +3.252860E+02 
 +8.755177E+02 -5.744921E-01 +1.032905E+01 -5.744921E-01 +5.116845E+02 -3.806598E+00 +1.032905E+01 -3.806598E+00 +3.372644E+02 
 +8.693503E+02 +7.840919E+00 +5.188405E+00 +7.840919E+00 +5.134741E+02 -1.085715E+01 +5.188405E+00 -1.085715E+01 +3.687866E+02 
 +8.772931E+02 +8.089952E+00 -2.668960E+00 +8.089952E+00 +5.201854E+02 +3.030433E-01 -2.668960E+00 +3.030433E-01 +3.856046E+02 
 +8.831914E+02 -2.303028E+00 -5.639612E+00 -2.303028E+00 +5.132173E+02 +1.285714E+01 -5.639612E+00 +1.285714E+01 +3.869485E+02 
 +8.801418E+02 -4.062048E+00 -7.720969E+00 -4.062048E+00 +5.064011E+02 +1.140445E+01 -7.720969E+00 +1.140445E+01 +3.842400E+02 
 +8.751972E+02 -2.803499E+00 -1.147074E+01 -2.803499E+00 +5.080478E+02 +6.370018E+00 -1.147074E+01 +6.370018E+00 +3.820825E+02 
 +8.755231E+02 -7.615394E+00 -1.387001E+01 -7.615394E+00 +5.093897E+02 +3.527710E+00 -1.387001E+01 +3.527710E+00 +3.830277E+02 
 +8.722437E+02 -8.825407E+00 -1.177987E+01 -8.825407E+00 +5.043611E+02 +2.844168E+00 -1.177987E+01 +2.844168E+00 +3.765327E+02 
 +8.671524E+02 -6.509315E+00 -6.950398E+00 -6.509315E+00 +4.984982E+02 +1.087074E+01 -6.950398E+00 +1.087074E+01 +3.688301E+02 
 +8.656337E+02 +5.770316E+00 -5.090678E+00 +5.770316E+00 +4.931382E+02 +2.102136E+01 -5.090678E+00 +2.102136E+01 +3.718082E+02 
 +8.585722E+02 +8.950956E+00 -4.751907E+00 +8.950956E+00 +4.810887E+02 +2.477174E+01 -4.751907E+00 +2.477174E+01 +3.703698E+02 
 +8.600077E+02 +1.266952E+01 -8.880564E+00 +1.266952E+01 +4.797430E+02 +2.559974E+01 -8.880564E+00 +2.559974E+01 +3.692741E+02 
 +8.687079E+02 +1.141325E+01 -9.978025E+00 +1.141325E+01 +4.863672E+02 +2.441940E+01 -9.978025E+00 +2.441940E+01 +3.714602E+02 
 +8.708619E+02 +9.278208E+00 -7.673305E+00 +9.278208E+00 +4.906904E+02 +2.727845E+01 -7.673305E+00 +2.727845E+01 +3.758037E+02 
 +8.718511E+02 +6.085586E+00 -1.176454E+00 +6.085586E+00 +4.963642E+02 +2.302816E+01 -1.176454E+00 +2.302816E+01 +3.727436E+02 
 +8.668636E+02 +3.891269E+00 +5.376307E+00 +3.891269E+00 +5.019799E+02 +2.482264E+00 +5.376307E+00 +2.482264E+00 +3.545364E+02 
 +8.571815E+02 -7.326429E+00 +4.261231E+00 -7.326429E+00 +5.104996E+02 -8.444916E+00 +4.261231E+00 -8.444916E+00 +3.525468E+02 
 +8.613788E+02 -3.763203E+00 +1.053263E+00 -3.763203E+00 +5.196571E+02 -7.582544E-01 +1.053263E+00 -7.582544E-01 +3.585124E+02 
 +8.525003E+02 -1.264843E+01 +1.977497E+00 -1.264843E+01 +5.091118E+02 +5.228550E+00 +1.977497E+00 +5.228550E+00 +3.427327E+02 
 +8.763128E+02 +5.196403E+00 +2.983940E+00 +5.196403E+00 +5.236761E+02 -6.264641E+00 +2.983940E+00 -6.264641E+00 +3.247575E+02 
 +8.805226E+02 +1.584157E+00 +8.233472E+00 +1.584157E+00 +5.230535E+02 -2.175475E+00 +8.233472E+00 -2.175475E+00 +3.161188E+02 
 +8.765300E+02 +2.353151E-01 +8.691038E+00 +2.353151E-01 +5.315117E+02 -1.126789E+00 +8.691038E+00 -1.126789E+00 +3.400983E+02 
 +8.582877E+02 +9.349387E+00 +4.369014E+00 +9.349387E+00 +5.118013E+02 -7.122360E+00 +4.369014E+00 -7.122360E+00 +3.614587E+02 
 +8.594572E+02 +1.188288E+01 -6.263651E-01 +1.188288E+01 +4.896525E+02 -7.491589E+00 -6.263651E-01 -7.491589E+00 +3.692326E+02 
 +8.740456E+02 -3.404450E+00 -4.075178E+00 -3.404450E+00 +4.883447E+02 +6.118751E+00 -4.075178E+00 +6.118751E+00 +3.700247E+02 
 +8.775159E+02 -2.857219E+00 -4.471764E-01 -2.857219E+00 +4.955830E+02 +1.813363E+01 -4.471764E-01 +1.813363E+01 +3.699234E+02 
 +8.818372E+02 -1.045519E+00 -1.027569E+01 -1.045519E+00 +5.101593E+02 +1.872902E+01 -1.027569E+01 +1.872902E+01 +3.747328E+02 
 +8.803077E+02 -5.580622E+00 -1.960336E+01 -5.580622E+00 +5.132261E+02 +9.614024E+00 -1.960336E+01 +9.614024E+00 +3.766580E+02 
 +8.706805E+02 -7.952567E+00 -1.011289E+01 -7.952567E+00 +5.027814E+02 +6.726793E+00 -1.011289E+01 +6.726793E+00 +3.670959E+02 
 +8.623491E+02 -9.308034E+00 -3.921363E+00 -9.308034E+00 +4.909675E+02 +1.171964E+01 -3.921363E+00 +1.171964E+01 +3.531195E+02 
 +8.574551E+02 -1.852141E+00 -4.247477E+00 -1.852141E+00 +4.828134E+02 +1.734895E+01 -4.247477E+00 +1.734895E+01 +3.593439E+02 
 +8.578797E+02 +3.903858E+00 -7.688746E+00 +3.903858E+00 +4.795223E+02 +1.996046E+01 -7.688746E+00 +1.996046E+01 +3.658300E+02 
 +8.541663E+02 +1.120482E+01 -6.540902E+00 +1.120482E+01 +4.721484E+02 +2.175699E+01 -6.540902E+00 +2.175699E+01 +3.622462E+02 
 +8.623349E+02 +9.855270E+00 -5.858692E+00 +9.855270E+00 +4.736781E+02 +2.706991E+01 -5.858692E+00 +2.706991E+01 +3.693100E+02 
 +8.636298E+02 +7.722011E+00 -4.089053E+00 +7.722011E+00 +4.785856E+02 +3.321006E+01 -4.089053E+00 +3.321006E+01 +3.843057E+02 
 +8.712644E+02 +6.581388E+00 +5.293873E-01 +6.581388E+00 +4.900855E+02 +2.743205E+01 +5.293873E-01 +2.743205E+01 +3.902368E+02 
 +8.582596E+02 +8.101896E+00 +2.725233E+00 +8.101896E+00 +4.856816E+02 +1.677358E+01 +2.725233E+00 +1.677358E+01 +3.600091E+02 
 +8.440443E+02 +2.869914E+00 +1.735913E+00 +2.869914E+00 +4.831818E+02 +2.146492E+01 +1.735913E+00 +2.146492E+01 +3.459609E+02 
 +8.498943E+02 +6.902229E+00 -1.261081E+00 +6.902229E+00 +4.987021E+02 +1.718536E+01 -1.261081E+00 +1.718536E+01 +3.501412E+02 
 +8.479331E+02 -3.587513E+00 +5.462166E+00 -3.587513E+00 +5.098635E+02 -1.069003E+00 +5.462166E+00 -1.069003E+00 +3.366946E+02 
 +8.723934E+02 +8.320962E+00 +7.819950E+00 +8.320962E+00 +5.237650E+02 +9.963915E+00 +7.819950E+00 +9.963915E+00 +3.343146E+02 
 +8.682995E+02 +3.631387E+00 +7.185550E+00 +3.631387E+00 +5.144370E+02 +1.975493E+00 +7.185550E+00 +1.975493E+00 +3.268832E+02 
 +8.541292E+02 +1.894670E+00 +1.632728E+00 +1.894670E+00 +4.982842E+02 -8.884019E+00 +1.632728E+00 -8.884019E+00 +3.334021E+02 
 +8.497914E+02 +5.973317E+00 +1.179125E+00 +5.973317E+00 +4.947752E+02 -1.195859E+01 +1.179125E+00 -1.195859E+01 +3.527335E+02 
 +8.566926E+02 +1.144620E+01 -3.624076E+00 +1.144620E+01 +4.917993E+02 -8.368113E+00 -3.624076E+00 -8.368113E+00 +3.608651E+02 
 +8.772010E+02 +4.639845E+00 +2.137485E-01 +4.639845E+00 +4.979071E+02 -3.428766E+00 +2.137485E-01 -3.428766E+00 +3.600792E+02 
 +8.800601E+02 +6.804434E+00 +5.542520E-01 +6.804434E+00 +5.025564E+02 -8.950418E+00 +5.542520E-01 -8.950418E+00 +3.610140E+02 
 +8.842825E+02 +4.947177E+00 -4.409608E+00 +4.947177E+00 +5.017814E+02 -2.436241E+01 -4.409608E+00 -2.436241E+01 +3.653430E+02 
 +8.913857E+02 +1.234355E+00 -1.741149E+01 +1.234355E+00 +5.107552E+02 -2.097369E+01 -1.741149E+01 -2.097369E+01 +3.805629E+02 
 +8.684545E+02 -2.163075E+00 -5.723132E+00 -2.163075E+00 +5.082950E+02 -3.857836E+00 -5.723132E+00 -3.857836E+00 +3.820920E+02 
 +8.627421E+02 -8.548582E+00 +1.095719E+00 -8.548582E+00 +5.033274E+02 -4.475316E+00 +1.095719E+00 -4.475316E+00 +3.742995E+02 
 +8.597889E+02 -4.319918E+00 +4.160242E+00 -4.319918E+00 +4.914130E+02 -5.658918E+00 +4.160242E+00 -5.658918E+00 +3.688996E+02 
 +8.589187E+02 +1.464746E+00 -4.143479E-01 +1.464746E+00 +4.778492E+02 +5.898751E+00 -4.143479E-01 +5.898751E+00 +3.615995E+02 
 +8.473872E+02 +6.584730E+00 +3.464778E+00 +6.584730E+00 +4.632000E+02 +1.351126E+01 +3.464778E+00 +1.351126E+01 +3.535341E+02 
 +8.513148E+02 +7.309264E+00 +2.962415E+00 +7.309264E+00 +4.662282E+02 +1.958740E+01 +2.962415E+00 +1.958740E+01 +3.594988E+02 
 +8.531105E+02 +3.364469E+00 +3.420183E+00 +3.364469E+00 +4.685698E+02 +2.613190E+01 +3.420183E+00 +2.613190E+01 +3.690271E+02 
 +8.560656E+02 +4.682260E+00 +8.481626E+00 +4.682260E+00 +4.662528E+02 +2.986937E+01 +8.481626E+00 +2.986937E+01 +3.696862E+02 
 +8.556417E+02 +8.378960E+00 +2.644663E+00 +8.378960E+00 +4.737145E+02 +2.741477E+01 +2.644663E+00 +2.741477E+01 +3.568941E+02 
 +8.637653E+02 +2.969195E+00 -4.711310E+00 +2.969195E+00 +5.004283E+02 +2.188740E+01 -4.711310E+00 +2.188740E+01 +3.593939E+02 
 +8.579948E+02 +5.384614E+00 -3.725344E+00 +5.384614E+00 +5.052017E+02 +2.161372E+01 -3.725344E+00 +2.161372E+01 +3.530970E+02 
 +8.550097E+02 +4.925186E+00 +1.255917E+00 +4.925186E+00 +5.067356E+02 +1.892866E+01 +1.255917E+00 +1.892866E+01 +3.379057E+02 
 +8.561373E+02 +4.888348E+00 +4.012064E+00 +4.888348E+00 +4.942348E+02 +1.997960E+01 +4.012064E+00 +1.997960E+01 +3.295889E+02 
 +8.518521E+02 +2.789891E+00 -3.351076E+00 +2.789891E+00 +4.928088E+02 -2.643859E+00 -3.351076E+00 -2.643859E+00 +3.354116E+02 
 +8.469440E+02 +1.793143E+00 -3.112590E+00 +1.793143E+00 +4.928578E+02 -1.573452E+01 -3.112590E+00 -1.573452E+01 +3.477710E+02 
 +8.478183E+02 +4.020476E+00 -2.023001E-01 +4.020476E+00 +4.896136E+02 -1.256184E+01 -2.023001E-01 -1.256184E+01 +3.568814E+02 
 +8.558066E+02 +7.966307E+00 -4.842798E+00 +7.966307E+00 +4.868383E+02 -8.712178E+00 -4.842798E+00 -8.712178E+00 +3.545118E+02 
 +8.760391E+02 +3.954874E+00 +9.253639E-02 +3.954874E+00 +4.958936E+02 -4.428158E+00 +9.253639E-02 -4.428158E+00 +3.559708E+02 
 +8.773893E+02 +4.098660E+00 -6.043956E+00 +4.098660E+00 +4.968682E+02 -6.521144E+00 -6.043956E+00 -6.521144E+00 +3.583399E+02 
 +8.844769E+02 -4.040543E-02 -6.939151E+00 -4.040543E-02 +4.975234E+02 -2.139755E+01 -6.939151E+00 -2.139755E+01 +3.625849E+02 
 +8.974711E+02 -7.098326E-01 -9.704107E+00 -7.098326E-01 +5.099501E+02 -2.778599E+01 -9.704107E+00 -2.778599E+01 +3.771290E+02 
 +8.722166E+02 -3.348138E+00 +1.165166E+00 -3.348138E+00 +5.156315E+02 -1.255933E+01 +1.165166E+00 -1.255933E+01 +3.831726E+02 
 +8.672709E+02 -1.042001E+01 +2.252101E+00 -1.042001E+01 +5.170524E+02 -9.175536E+00 +2.252101E+00 -9.175536E+00 +3.888926E+02 
 +8.603251E+02 -4.609018E+00 +8.061726E+00 -4.609018E+00 +4.968336E+02 -1.525828E+01 +8.061726E+00 -1.525828E+01 +3.817882E+02 
 +8.599206E+02 +3.182576E+00 +1.141197E+01 +3.182576E+00 +4.916298E+02 -1.474011E+01 +1.141197E+01 -1.474011E+01 +3.728634E+02 
 +8.593601E+02 +4.038816E+00 +1.338989E+01 +4.038816E+00 +4.960402E+02 -1.215033E+01 +1.338989E+01 -1.215033E+01 +3.734758E+02 
 +8.500419E+02 +1.053782E+00 +1.474499E+01 +1.053782E+00 +4.827533E+02 -2.549737E+00 +1.474499E+01 -2.549737E+00 +3.647358E+02 
 +8.547784E+02 -6.014209E-01 +2.769375E+00 -6.014209E-01 +4.723353E+02 -1.099892E+00 +2.769375E+00 -1.099892E+00 +3.415668E+02 
 +8.611929E+02 +9.670781E+00 +1.143120E+01 +9.670781E+00 +4.874199E+02 -1.940983E+01 +1.143120E+01 -1.940983E+01 +3.338255E+02 
 +8.685877E+02 +1.335834E+01 +6.977024E+00 +1.335834E+01 +5.051024E+02 -1.332352E+01 +6.977024E+00 -1.332352E+01 +3.397583E+02 
 +8.645324E+02 +8.785241E+00 -8.422838E+00 +8.785241E+00 +4.986189E+02 +8.987030E+00 -8.422838E+00 +8.987030E+00 +3.267599E+02 
 +8.587222E+02 +7.463655E+00 -2.171695E+00 +7.463655E+00 +4.982944E+02 +1.737989E+01 -2.171695E+00 +1.737989E+01 +3.229973E+02 
 +8.556729E+02 +3.827744E+00 +2.760759E+00 +3.827744E+00 +4.982105E+02 +2.161975E+01 +2.760759E+00 +2.161975E+01 +3.268020E+02 
 +8.482693E+02 +8.965324E+00 -4.410743E+00 +8.965324E+00 +4.898499E+02 -2.401901E+00 -4.410743E+00 -2.401901E+00 +3.208037E+02 
 +8.480606E+02 +1.287891E+00 -8.975405E+00 +1.287891E+00 +4.958750E+02 -1.434999E+01 -8.975405E+00 -1.434999E+01 +3.410307E+02 
 +8.465837E+02 +8.490036E-01 -4.670807E+00 +8.490036E-01 +4.962161E+02 -1.583025E+01 -4.670807E+00 -1.583025E+01 +3.589524E+02 
 +8.452545E+02 +8.847014E-01 -4.977320E+00 +8.847014E-01 +4.852869E+02 -1.515128E+01 -4.977320E+00 -1.515128E+01 +3.639176E+02 
 +8.468618E+02 +7.049238E+00 -1.508132E+00 +7.049238E+00 +4.741731E+02 -8.853107E+00 -1.508132E+00 -8.853107E+00 +3.583049E+02 
 +8.669836E+02 +2.297249E+00 +2.104136E+00 +2.297249E+00 +4.875827E+02 +1.084125E+00 +2.104136E+00 +1.084125E+00 +3.599210E+02 
 +8.749539E+02 -2.410580E+00 -1.025110E+01 -2.410580E+00 +4.912583E+02 -4.711340E+00 -1.025110E+01 -4.711340E+00 +3.571270E+02 
 +8.863672E+02 -4.800722E+00 -1.670955E+01 -4.800722E+00 +4.905558E+02 -1.913308E+01 -1.670955E+01 -1.913308E+01 +3.530132E+02 
 +8.702876E+02 -1.365257E+00 -4.446416E+00 -1.365257E+00 +4.840530E+02 -2.131745E+01 -4.446416E+00 -2.131745E+01 +3.491143E+02 
 +8.612963E+02 -8.857308E+00 +8.785289E-01 -8.857308E+00 +4.786577E+02 -2.432155E+01 +8.785289E-01 -2.432155E+01 +3.625427E+02 
 +8.576188E+02 -1.534770E+01 -1.492115E+00 -1.534770E+01 +4.769516E+02 -2.985417E+01 -1.492115E+00 -2.985417E+01 +3.710555E+02 
 +8.433416E+02 -6.397713E+00 +1.207072E+01 -6.397713E+00 +4.838748E+02 -2.290190E+01 +1.207072E+01 -2.290190E+01 +3.686391E+02 
 +8.509840E+02 +2.636951E+00 +1.466738E+01 +2.636951E+00 +4.973188E+02 -1.724793E+01 +1.466738E+01 -1.724793E+01 +3.716403E+02 
 +8.486275E+02 +3.941776E+00 +1.663459E+01 +3.941776E+00 +4.968611E+02 -1.592023E+01 +1.663459E+01 -1.592023E+01 +3.661948E+02 
 +8.480557E+02 +2.201880E+00 +1.968351E+01 +2.201880E+00 +4.984174E+02 -1.838183E+01 +1.968351E+01 -1.838183E+01 +3.520582E+02 
 +8.808559E+02 +1.310772E+00 -1.544911E+00 +1.310772E+00 +5.141248E+02 -2.528343E+01 -1.544911E+00 -2.528343E+01 +3.354671E+02 
 +8.742641E+02 +1.514649E+01 +6.377493E+00 +1.514649E+01 +5.065736E+02 -2.247119E+01 +6.377493E+00 -2.247119E+01 +3.173834E+02 
 +8.688206E+02 +1.442296E+01 +1.191068E+01 +1.442296E+01 +5.022581E+02 -4.794521E+00 +1.191068E+01 -4.794521E+00 +3.217130E+02 
 +8.697820E+02 +1.023819E+01 -4.233521E-01 +1.023819E+01 +5.010057E+02 +9.829316E+00 -4.233521E-01 +9.829316E+00 +3.220741E+02 
 +8.662810E+02 +9.888839E+00 -3.519251E+00 +9.888839E+00 +5.009532E+02 +1.299000E+01 -3.519251E+00 +1.299000E+01 +3.182051E+02 
 +8.590907E+02 +5.068580E+00 +2.933829E+00 +5.068580E+00 +4.952433E+02 +8.535518E+00 +2.933829E+00 +8.535518E+00 +3.167731E+02 
 +8.542356E+02 +8.161431E+00 -1.080629E+01 +8.161431E+00 +5.034573E+02 +5.363879E+00 -1.080629E+01 +5.363879E+00 +3.416381E+02 
 +8.459129E+02 +2.807614E+00 -6.500847E+00 +2.807614E+00 +5.013952E+02 -4.623578E+00 -6.500847E+00 -4.623578E+00 +3.525252E+02 
 +8.427196E+02 -5.091733E-01 -8.862965E+00 -5.091733E-01 +4.921432E+02 -1.410477E+01 -8.862965E+00 -1.410477E+01 +3.549727E+02 
 +8.461478E+02 -1.290570E+00 -7.765288E+00 -1.290570E+00 +4.855968E+02 -1.113107E+01 -7.765288E+00 -1.113107E+01 +3.612991E+02 
 +8.501406E+02 +1.082768E+01 +1.063119E+00 +1.082768E+01 +4.827804E+02 -2.965475E+00 +1.063119E+00 -2.965475E+00 +3.635446E+02 
 +8.614955E+02 +1.256998E+01 +7.964482E-01 +1.256998E+01 +4.808598E+02 -5.389700E+00 +7.964482E-01 -5.389700E+00 +3.621244E+02 
 +8.623766E+02 +8.093278E+00 -1.119179E+01 +8.093278E+00 +4.788548E+02 -1.267675E+01 -1.119179E+01 -1.267675E+01 +3.526899E+02 
 +8.869814E+02 -3.336191E-01 -1.303646E+01 -3.336191E-01 +5.004588E+02 -1.119693E+01 -1.303646E+01 -1.119693E+01 +3.561110E+02 
 +8.618801E+02 -3.927808E+00 +8.928141E+00 -3.927808E+00 +4.844852E+02 -4.517844E+00 +8.928141E+00 -4.517844E+00 +3.544154E+02 
 +8.734231E+02 -1.218815E+01 -4.124847E+00 -1.218815E+01 +4.774924E+02 -1.891103E+01 -4.124847E+00 -1.891103E+01 +3.761512E+02 
 +8.682364E+02 -1.250050E+01 -3.575893E+00 -1.250050E+01 +4.760044E+02 -2.398276E+01 -3.575893E+00 -2.398276E+01 +3.763982E+02 
 +8.303154E+02 -4.387958E+00 +1.644536E+01 -4.387958E+00 +4.725983E+02 -1.183585E+01 +1.644536E+01 -1.183585E+01 +3.569920E+02 
 +8.395967E+02 +1.948963E+00 +1.573572E+01 +1.948963E+00 +4.905837E+02 -6.645512E+00 +1.573572E+01 -6.645512E+00 +3.610956E+02 
 +8.410544E+02 +5.404351E+00 +1.537341E+01 +5.404351E+00 +4.933299E+02 -6.727179E+00 +1.537341E+01 -6.727179E+00 +3.516028E+02 
 +8.428262E+02 +7.013375E+00 +1.521725E+01 +7.013375E+00 +4.969426E+02 -1.016648E+01 +1.521725E+01 -1.016648E+01 +3.307577E+02 
 +8.924856E+02 +6.107751E+00 -4.773641E+00 +6.107751E+00 +5.303597E+02 -1.789540E+01 -4.773641E+00 -1.789540E+01 +3.275137E+02 
 +8.887591E+02 +1.658881E+01 +3.975900E+00 +1.658881E+01 +5.244750E+02 -1.893227E+01 +3.975900E+00 -1.893227E+01 +3.154223E+02 
 +8.794915E+02 +1.576307E+01 +6.017375E+00 +1.576307E+01 +5.129396E+02 -1.336737E+01 +6.017375E+00 -1.336737E+01 +3.186219E+02 
 +8.740336E+02 +1.142953E+01 +6.662575E+00 +1.142953E+01 +5.077043E+02 -3.321983E+00 +6.662575E+00 -3.321983E+00 +3.240271E+02 
 +8.714846E+02 +1.042400E+01 +4.309210E+00 +1.042400E+01 +4.981445E+02 +1.249703E+01 +4.309210E+00 +1.249703E+01 +3.194791E+02 
 +8.717543E+02 +3.962092E+00 -8.348831E+00 +3.962092E+00 +5.018015E+02 +1.548940E+01 -8.348831E+00 +1.548940E+01 +3.278382E+02 
 +8.367207E+02 -6.287583E-02 -1.256638E+01 -6.287583E-02 +4.678662E+02 +4.616743E+00 -1.256638E+01 +4.616743E+00 +3.534124E+02 
 +8.312548E+02 -7.319582E+00 -7.281570E+00 -7.319582E+00 +4.702057E+02 -1.892999E-01 -7.281570E+00 -1.892999E-01 +3.600074E+02 
 +8.382327E+02 -9.129269E+00 -8.618141E+00 -9.129269E+00 +4.759166E+02 -1.325289E+00 -8.618141E+00 -1.325289E+00 +3.559745E+02 
 +8.546741E+02 -4.775856E+00 -9.469174E+00 -4.775856E+00 +4.861745E+02 +7.687443E-02 -9.469174E+00 +7.687443E-02 +3.608052E+02 
 +8.629233E+02 +7.789293E+00 -4.507575E+00 +7.789293E+00 +4.838291E+02 -7.438916E+00 -4.507575E+00 -7.438916E+00 +3.673302E+02 
 +8.516069E+02 +1.063478E+01 -3.425399E+00 +1.063478E+01 +4.666076E+02 -1.069026E+01 -3.425399E+00 -1.069026E+01 +3.607375E+02 
 +8.595554E+02 +1.399550E+01 -8.133107E+00 +1.399550E+01 +4.838170E+02 -2.423925E+00 -8.133107E+00 -2.423925E+00 +3.589548E+02 
 +8.820255E+02 +6.168436E+00 -3.245402E+00 +6.168436E+00 +5.172451E+02 +9.749128E+00 -3.245402E+00 +9.749128E+00 +3.671529E+02 
 +8.620829E+02 -8.726354E+00 +1.295251E+01 -8.726354E+00 +4.892063E+02 +1.468345E+00 +1.295251E+01 +1.468345E+00 +3.577669E+02 
 +8.595080E+02 -1.597353E+01 -3.607820E+00 -1.597353E+01 +4.595899E+02 -2.707556E+01 -3.607820E+00 -2.707556E+01 +3.580420E+02 
 +8.513198E+02 -9.893242E+00 +2.409974E+00 -9.893242E+00 +4.591458E+02 -2.790044E+01 +2.409974E+00 -2.790044E+01 +3.606925E+02 
 +8.336701E+02 -1.743682E+00 +1.775513E+01 -1.743682E+00 +4.718533E+02 -8.463583E+00 +1.775513E+01 -8.463583E+00 +3.620575E+02 
 +8.396553E+02 +1.731045E+00 +1.534189E+01 +1.731045E+00 +4.880533E+02 +1.103826E-01 +1.534189E+01 +1.103826E-01 +3.660435E+02 
 +8.405942E+02 +6.128281E+00 +1.405027E+01 +6.128281E+00 +4.903084E+02 +2.039098E+00 +1.405027E+01 +2.039098E+00 +3.506282E+02 
 +8.502573E+02 +1.238258E+01 +3.016474E+00 +1.238258E+01 +4.934535E+02 -4.313206E+00 +3.016474E+00 -4.313206E+00 +3.260167E+02 
 +8.833114E+02 +1.363100E+01 -1.267591E+01 +1.363100E+01 +5.133881E+02 -1.235354E+01 -1.267591E+01 -1.235354E+01 +3.119444E+02 
 +8.809708E+02 +1.406197E+01 -7.767385E-01 +1.406197E+01 +5.116832E+02 -1.204887E+01 -7.767385E-01 -1.204887E+01 +3.000178E+02 
 +8.748448E+02 +1.446127E+01 -3.701750E-01 +1.446127E+01 +5.018143E+02 -1.333156E+01 -3.701750E-01 -1.333156E+01 +2.979262E+02 
 +8.747348E+02 +1.352024E+01 +5.463210E+00 +1.352024E+01 +5.036738E+02 -1.894410E+01 +5.463210E+00 -1.894410E+01 +3.061951E+02 
 +8.752119E+02 +7.986628E+00 +1.644273E+01 +7.986628E+00 +5.030524E+02 -1.991378E+01 +1.644273E+01 -1.991378E+01 +3.275850E+02 
 +8.486245E+02 +7.068674E-01 -3.731058E+00 +7.068674E-01 +4.765322E+02 -4.226475E+00 -3.731058E+00 -4.226475E+00 +3.388783E+02 
 +8.326934E+02 +1.801295E+00 -1.375559E+01 +1.801295E+00 +4.674455E+02 -2.156353E+00 -1.375559E+01 -2.156353E+00 +3.769580E+02 
 +8.379257E+02 -2.360168E+00 -1.529025E+01 -2.360168E+00 +4.809428E+02 -7.891472E+00 -1.529025E+01 -7.891472E+00 +3.780168E+02 
 +8.434594E+02 -4.569550E+00 -1.962899E+01 -4.569550E+00 +4.829097E+02 -8.379452E+00 -1.962899E+01 -8.379452E+00 +3.694767E+02 
 +8.535879E+02 -1.146659E+00 -2.246686E+01 -1.146659E+00 +4.754074E+02 +4.577420E+00 -2.246686E+01 +4.577420E+00 +3.624545E+02 
 +8.499498E+02 -1.139277E+00 -1.268279E+01 -1.139277E+00 +4.682594E+02 +1.552017E+01 -1.268279E+01 +1.552017E+01 +3.654783E+02 
 +8.542682E+02 -6.519499E+00 -3.652154E+00 -6.519499E+00 +4.767612E+02 +1.406284E+01 -3.652154E+00 +1.406284E+01 +3.733324E+02 
 +8.478237E+02 -3.027288E+00 +8.316764E-01 -3.027288E+00 +4.678150E+02 +2.451626E+00 +8.316764E-01 +2.451626E+00 +3.661878E+02 
 +8.934555E+02 -9.814195E+00 +3.468765E+00 -9.814195E+00 +4.886126E+02 -1.268150E+01 +3.468765E+00 -1.268150E+01 +3.780110E+02 
 +8.810480E+02 -1.874716E+01 +8.536294E+00 -1.874716E+01 +4.991971E+02 -8.437154E+00 +8.536294E+00 -8.437154E+00 +3.666555E+02 
 +8.818863E+02 -1.586520E+01 +3.818437E+00 -1.586520E+01 +5.158222E+02 +1.430301E+00 +3.818437E+00 +1.430301E+00 +3.642118E+02 
 +8.738730E+02 -2.572831E+00 +1.066956E+01 -2.572831E+00 +5.179515E+02 +4.544495E+00 +1.066956E+01 +4.544495E+00 +3.662673E+02 
 +8.639340E+02 +5.940589E-01 +1.671005E+01 +5.940589E-01 +5.096917E+02 -5.402309E+00 +1.671005E+01 -5.402309E+00 +3.681322E+02 
 +8.628499E+02 +3.533634E+00 +1.604278E+01 +3.533634E+00 +5.050521E+02 -8.081223E+00 +1.604278E+01 -8.081223E+00 +3.660648E+02 
 +8.620067E+02 +7.804415E+00 +8.248598E+00 +7.804415E+00 +5.091552E+02 -3.370715E+00 +8.248598E+00 -3.370715E+00 +3.491685E+02 
 +8.720021E+02 +1.185891E+01 -9.477380E+00 +1.185891E+01 +5.148063E+02 -7.615111E-01 -9.477380E+00 -7.615111E-01 +3.401370E+02 
 +8.768102E+02 +1.441636E+01 -1.573989E+01 +1.441636E+01 +5.184114E+02 +9.750322E+00 -1.573989E+01 +9.750322E+00 +3.439661E+02 
 +8.780208E+02 +1.284951E+01 -2.065614E+01 +1.284951E+01 +5.131690E+02 +1.830287E+01 -2.065614E+01 +1.830287E+01 +3.296231E+02 
 +8.760367E+02 +6.813275E+00 -1.339838E+01 +6.813275E+00 +4.982269E+02 +2.266370E+01 -1.339838E+01 +2.266370E+01 +3.256003E+02 
 +8.554209E+02 -2.261005E+00 -9.839345E+00 -2.261005E+00 +4.717087E+02 +1.694725E+01 -9.839345E+00 +1.694725E+01 +3.392115E+02 
 +8.542120E+02 -1.095159E+01 +1.188797E+01 -1.095159E+01 +4.634602E+02 +5.365794E+00 +1.188797E+01 +5.365794E+00 +3.487062E+02 
 +8.475338E+02 -8.673447E+00 +6.702471E+00 -8.673447E+00 +4.644067E+02 -1.278946E+00 +6.702471E+00 -1.278946E+00 +3.645564E+02 
 +8.490551E+02 +8.555241E+00 -4.957708E+00 +8.555241E+00 +4.720732E+02 -4.029145E+00 -4.957708E+00 -4.029145E+00 +3.766810E+02 
 +8.477849E+02 +5.096687E+00 -1.125258E+01 +5.096687E+00 +4.824875E+02 +6.114511E-01 -1.125258E+01 +6.114511E-01 +3.646303E+02 
 +8.536792E+02 +4.588303E+00 -1.910202E+01 +4.588303E+00 +4.896773E+02 -4.237951E-01 -1.910202E+01 -4.237951E-01 +3.583405E+02 
 +8.321892E+02 +3.920009E+00 -2.132294E+01 +3.920009E+00 +4.786599E+02 +5.494868E+00 -2.132294E+01 +5.494868E+00 +3.561942E+02 
 +8.413420E+02 +9.307041E-01 -1.163680E+01 +9.307041E-01 +4.780579E+02 +1.282887E+01 -1.163680E+01 +1.282887E+01 +3.714832E+02 
 +8.404839E+02 -3.424956E+00 -5.057598E-01 -3.424956E+00 +4.685816E+02 +1.140949E+01 -5.057598E-01 +1.140949E+01 +3.771999E+02 
 +8.317802E+02 -1.660946E+00 +6.657559E+00 -1.660946E+00 +4.542323E+02 -7.175755E-01 +6.657559E+00 -7.175755E-01 +3.679848E+02 
 +8.988842E+02 -9.567548E+00 +9.542830E+00 -9.567548E+00 +4.820625E+02 -1.696644E+01 +9.542830E+00 -1.696644E+01 +3.816748E+02 
 +8.854756E+02 -1.565616E+01 +8.879973E+00 -1.565616E+01 +4.876244E+02 -1.854372E+01 +8.879973E+00 -1.854372E+01 +3.622071E+02 
 +8.657173E+02 -2.415235E+01 +5.203856E+00 -2.415235E+01 +5.009211E+02 -5.690335E+00 +5.203856E+00 -5.690335E+00 +3.435999E+02 
 +8.630871E+02 -1.154615E+01 +1.197959E+01 -1.154615E+01 +5.014353E+02 +2.549385E-01 +1.197959E+01 +2.549385E-01 +3.460164E+02 
 +8.509236E+02 -3.616605E+00 +1.296721E+01 -3.616605E+00 +4.925057E+02 -2.455369E+00 +1.296721E+01 -2.455369E+00 +3.522767E+02 
 +8.478667E+02 +5.445892E+00 +1.308837E+01 +5.445892E+00 +4.937370E+02 -8.360466E-01 +1.308837E+01 -8.360466E-01 +3.382532E+02 
 +8.547859E+02 +8.544588E+00 +2.552845E+00 +8.544588E+00 +4.943257E+02 +4.177906E+00 +2.552845E+00 +4.177906E+00 +3.058551E+02 
 +8.662188E+02 +1.227303E+01 -1.059237E+01 +1.227303E+01 +5.028185E+02 +1.195671E+01 -1.059237E+01 +1.195671E+01 +3.068991E+02 
 +8.719325E+02 +1.509089E+01 -1.497625E+01 +1.509089E+01 +5.106026E+02 +1.687521E+01 -1.497625E+01 +1.687521E+01 +3.278364E+02 
 +8.737851E+02 +1.567795E+01 -2.199906E+01 +1.567795E+01 +5.096235E+02 +2.486779E+01 -2.199906E+01 +2.486779E+01 +3.247243E+02 
 +8.740223E+02 +4.719076E+00 -2.091531E+01 +4.719076E+00 +5.008806E+02 +2.926153E+01 -2.091531E+01 +2.926153E+01 +3.346523E+02 
 +8.576602E+02 -4.424650E+00 -1.567018E+01 -4.424650E+00 +4.782972E+02 +1.669953E+01 -1.567018E+01 +1.669953E+01 +3.536539E+02 
 +8.553768E+02 -7.597412E+00 +4.585450E+00 -7.597412E+00 +4.659045E+02 -1.845273E+00 +4.585450E+00 -1.845273E+00 +3.591326E+02 
 +8.583347E+02 -6.516474E+00 +9.535092E+00 -6.516474E+00 +4.660033E+02 -1.129488E+01 +9.535092E+00 -1.129488E+01 +3.718499E+02 
 +8.541061E+02 +6.890375E-02 -3.116528E+00 +6.890375E-02 +4.643808E+02 -2.794343E+01 -3.116528E+00 -2.794343E+01 +3.573798E+02 
 +8.395057E+02 -7.091902E+00 -1.565083E+01 -7.091902E+00 +4.493935E+02 -3.384069E+01 -1.565083E+01 -3.384069E+01 +3.372550E+02 
 +8.536396E+02 -6.473580E+00 -2.700082E+01 -6.473580E+00 +4.683836E+02 -2.568980E+01 -2.700082E+01 -2.568980E+01 +3.348244E+02 
 +8.221263E+02 -9.677527E-01 -2.177581E+01 -9.677527E-01 +4.729843E+02 -6.294694E+00 -2.177581E+01 -6.294694E+00 +3.402526E+02 
 +8.251152E+02 +7.088402E-02 -1.119382E+01 +7.088402E-02 +4.752879E+02 +5.525812E+00 -1.119382E+01 +5.525812E+00 +3.651760E+02 
 +8.297195E+02 -4.250059E-01 +3.467849E+00 -4.250059E-01 +4.690852E+02 +6.563051E+00 +3.467849E+00 +6.563051E+00 +3.812036E+02 
 +8.246053E+02 -3.156630E+00 +9.512811E+00 -3.156630E+00 +4.580042E+02 +1.954445E+00 +9.512811E+00 +1.954445E+00 +3.757720E+02 
 +8.910719E+02 -9.939138E+00 +1.024375E+01 -9.939138E+00 +4.822766E+02 -6.965086E+00 +1.024375E+01 -6.965086E+00 +3.850770E+02 
 +8.796482E+02 -6.020453E+00 +9.197674E+00 -6.020453E+00 +4.779779E+02 -1.104339E+01 +9.197674E+00 -1.104339E+01 +3.654469E+02 
 +8.575911E+02 -1.706839E+01 +6.982704E+00 -1.706839E+01 +4.815565E+02 -2.531229E+00 +6.982704E+00 -2.531229E+00 +3.448927E+02 
 +8.549396E+02 -1.576096E+01 +6.298666E+00 -1.576096E+01 +4.825653E+02 -3.157426E+00 +6.298666E+00 -3.157426E+00 +3.397919E+02 
 +8.462441E+02 -3.350232E+00 +9.617918E+00 -3.350232E+00 +4.811767E+02 -7.348331E+00 +9.617918E+00 -7.348331E+00 +3.386984E+02 
 +8.480515E+02 +7.462706E+00 +5.876214E+00 +7.462706E+00 +4.899745E+02 -8.018781E+00 +5.876214E+00 -8.018781E+00 +3.179955E+02 
 +8.545481E+02 +9.840532E+00 +3.163303E+00 +9.840532E+00 +4.857940E+02 -2.724018E+00 +3.163303E+00 -2.724018E+00 +2.926819E+02 
 +8.551526E+02 +1.387331E+01 -3.829705E+00 +1.387331E+01 +4.823155E+02 +1.256263E+01 -3.829705E+00 +1.256263E+01 +2.899279E+02 
 +8.691907E+02 +1.508036E+01 -1.196983E+01 +1.508036E+01 +5.034369E+02 +2.800844E+01 -1.196983E+01 +2.800844E+01 +3.193781E+02 
 +8.800420E+02 +8.594835E+00 -1.321058E+01 +8.594835E+00 +5.134024E+02 +3.246065E+01 -1.321058E+01 +3.246065E+01 +3.452783E+02 
 +8.676751E+02 -6.088825E+00 -2.082118E+01 -6.088825E+00 +4.951546E+02 +2.337118E+01 -2.082118E+01 +2.337118E+01 +3.517838E+02 
 +8.670463E+02 -9.580255E+00 -1.365629E+01 -9.580255E+00 +4.929865E+02 +8.744732E+00 -1.365629E+01 +8.744732E+00 +3.635416E+02 
 +8.644226E+02 -1.278746E+01 +5.519630E+00 -1.278746E+01 +4.912131E+02 -5.027624E+00 +5.519630E+00 -5.027624E+00 +3.599444E+02 
 +8.541680E+02 -1.443703E+01 +9.994872E+00 -1.443703E+01 +4.755231E+02 -1.620054E+01 +9.994872E+00 -1.620054E+01 +3.549155E+02 
 +8.619333E+02 -3.060591E+00 -3.307033E+00 -3.060591E+00 +4.817689E+02 -2.836465E+01 -3.307033E+00 -2.836465E+01 +3.528290E+02 
 +8.544617E+02 -8.114269E+00 -1.308695E+01 -8.114269E+00 +4.629543E+02 -3.206509E+01 -1.308695E+01 -3.206509E+01 +3.423748E+02 
 +8.475467E+02 -7.748374E+00 -2.355882E+01 -7.748374E+00 +4.533581E+02 -3.021090E+01 -2.355882E+01 -3.021090E+01 +3.295427E+02 
 +8.454175E+02 -4.327363E+00 -1.644304E+01 -4.327363E+00 +4.521233E+02 -2.310727E+01 -1.644304E+01 -2.310727E+01 +3.372654E+02 
 +8.077670E+02 +6.432369E-01 -7.969522E+00 +6.432369E-01 +4.521014E+02 -5.929997E+00 -7.969522E+00 -5.929997E+00 +3.546970E+02 
 +8.192356E+02 +7.772858E-01 +3.801552E+00 +7.772858E-01 +4.753227E+02 +2.592478E+00 +3.801552E+00 +2.592478E+00 +3.790724E+02 
 +8.147315E+02 -4.887392E+00 +8.272388E+00 -4.887392E+00 +4.589471E+02 +1.538148E+00 +8.272388E+00 +1.538148E+00 +3.744298E+02 
 +8.687069E+02 -1.006469E+01 +7.411515E+00 -1.006469E+01 +4.730435E+02 -1.140570E+00 +7.411515E+00 -1.140570E+00 +3.856833E+02 
 +8.752881E+02 -3.191592E+00 +6.707626E+00 -3.191592E+00 +4.735763E+02 -4.318675E+00 +6.707626E+00 -4.318675E+00 +3.737502E+02 
 +8.631251E+02 -1.015990E+01 -1.557631E+00 -1.015990E+01 +4.741346E+02 -1.013765E+01 -1.557631E+00 -1.013765E+01 +3.489308E+02 
 +8.577747E+02 -9.451360E+00 -5.444298E+00 -9.451360E+00 +4.971849E+02 -1.032087E+01 -5.444298E+00 -1.032087E+01 +3.343962E+02 
 +8.641853E+02 +1.163844E+00 +2.031205E+00 +1.163844E+00 +5.149141E+02 -8.803425E+00 +2.031205E+00 -8.803425E+00 +3.409917E+02 
 +8.650088E+02 +4.797473E+00 +2.534503E+00 +4.797473E+00 +4.994345E+02 -3.483405E+00 +2.534503E+00 -3.483405E+00 +3.357389E+02 
 +8.629864E+02 +3.667381E+00 +5.313908E+00 +3.667381E+00 +4.864741E+02 +2.049786E+00 +5.313908E+00 +2.049786E+00 +3.274796E+02 
 +8.597596E+02 +1.094318E+01 +8.122515E+00 +1.094318E+01 +4.837426E+02 +8.576150E+00 +8.122515E+00 +8.576150E+00 +3.124687E+02 
 +8.613858E+02 +1.302432E+01 +2.246942E+00 +1.302432E+01 +4.885226E+02 +1.826033E+01 +2.246942E+00 +1.826033E+01 +3.204024E+02 
 +8.705944E+02 -5.064824E-01 -9.218879E+00 -5.064824E-01 +4.910281E+02 +2.008616E+01 -9.218879E+00 +2.008616E+01 +3.647661E+02 
 +8.677117E+02 -8.485846E+00 -1.678629E+01 -8.485846E+00 +4.844781E+02 +1.643682E+01 -1.678629E+01 +1.643682E+01 +3.755380E+02 
 +8.691664E+02 -7.925536E+00 -1.528740E+01 -7.925536E+00 +4.912188E+02 +7.015951E+00 -1.528740E+01 +7.015951E+00 +3.748149E+02 
 +8.671774E+02 -1.157480E+01 +2.343819E+00 -1.157480E+01 +4.978097E+02 -8.209286E+00 +2.343819E+00 -8.209286E+00 +3.687722E+02 
 +8.546684E+02 -1.551179E+01 +9.126118E+00 -1.551179E+01 +4.921962E+02 -1.988349E+01 +9.126118E+00 -1.988349E+01 +3.534435E+02 
 +8.706671E+02 -8.208679E+00 +5.342374E-01 -8.208679E+00 +4.945226E+02 -2.894291E+01 +5.342374E-01 -2.894291E+01 +3.596575E+02 
 +8.540071E+02 -6.396087E+00 -6.227073E+00 -6.396087E+00 +4.692129E+02 -2.529126E+01 -6.227073E+00 -2.529126E+01 +3.523580E+02 
 +8.532014E+02 -9.205583E+00 -1.311964E+01 -9.205583E+00 +4.596677E+02 -2.247330E+01 -1.311964E+01 -2.247330E+01 +3.437522E+02 
 +8.737160E+02 -7.213941E+00 -5.744083E+00 -7.213941E+00 +4.677145E+02 -1.727188E+01 -5.744083E+00 -1.727188E+01 +3.530861E+02 
 +8.282276E+02 +3.707124E+00 +2.092952E+00 +3.707124E+00 +4.614249E+02 -8.183666E+00 +2.092952E+00 -8.183666E+00 +3.420306E+02 
 +8.227528E+02 +6.578460E+00 +2.199122E+00 +6.578460E+00 +4.761807E+02 -4.318281E+00 +2.199122E+00 -4.318281E+00 +3.454155E+02 
 +8.153031E+02 +4.148370E+00 +5.651250E+00 +4.148370E+00 +4.812696E+02 +7.533497E-02 +5.651250E+00 +7.533497E-02 +3.627465E+02 
 +8.556470E+02 -1.035554E+00 +3.608959E+00 -1.035554E+00 +5.031205E+02 +1.687943E+00 +3.608959E+00 +1.687943E+00 +3.868369E+02 
 +8.742808E+02 +2.297231E+00 +7.371505E-01 +2.297231E+00 +4.904572E+02 -9.403837E+00 +7.371505E-01 -9.403837E+00 +3.747018E+02 
 +8.655496E+02 +9.964226E-01 -4.739833E+00 +9.964226E-01 +4.812987E+02 -1.451337E+01 -4.739833E+00 -1.451337E+01 +3.473580E+02 
 +8.590254E+02 +7.618721E-01 -6.733216E+00 +7.618721E-01 +5.001118E+02 -8.164746E+00 -6.733216E+00 -8.164746E+00 +3.318606E+02 
 +8.642272E+02 -2.257131E+00 -3.035477E+00 -2.257131E+00 +5.115178E+02 +6.128191E-01 -3.035477E+00 +6.128191E-01 +3.408448E+02 
 +8.700584E+02 -5.049506E-01 -2.663921E+00 -5.049506E-01 +5.048095E+02 +1.120329E+01 -2.663921E+00 +1.120329E+01 +3.535138E+02 
 +8.733253E+02 +1.705002E+00 +3.903837E-01 +1.705002E+00 +4.968492E+02 +1.359926E+01 +3.903837E-01 +1.359926E+01 +3.618130E+02 
 +8.696126E+02 +1.152967E+01 +7.048345E+00 +1.152967E+01 +4.889690E+02 +9.259738E+00 +7.048345E+00 +9.259738E+00 +3.458924E+02 
 +8.549077E+02 +9.133397E+00 +3.029840E+00 +9.133397E+00 +4.674634E+02 +6.501470E+00 +3.029840E+00 +6.501470E+00 +3.298944E+02 
 +8.596100E+02 -2.717706E+00 -4.231964E+00 -2.717706E+00 +4.640701E+02 +1.013219E+01 -4.231964E+00 +1.013219E+01 +3.655758E+02 
 +8.646901E+02 -4.601462E+00 -8.841091E+00 -4.601462E+00 +4.725946E+02 +1.176083E+01 -8.841091E+00 +1.176083E+01 +3.802085E+02 
 +8.632249E+02 -5.353560E+00 -1.392673E+01 -5.353560E+00 +4.808244E+02 +9.257969E+00 -1.392673E+01 +9.257969E+00 +3.809718E+02 
 +8.671060E+02 -8.410695E+00 -6.654893E+00 -8.410695E+00 +4.983575E+02 -1.593296E-01 -6.654893E+00 -1.593296E-01 +3.886191E+02 
 +8.730228E+02 -1.612124E+01 +9.191032E+00 -1.612124E+01 +5.106239E+02 -1.840953E+01 +9.191032E+00 -1.840953E+01 +3.736848E+02 
 +8.641541E+02 -1.309078E+01 -3.020496E+00 -1.309078E+01 +4.894512E+02 -1.662406E+01 -3.020496E+00 -1.662406E+01 +3.587977E+02 
 +8.548524E+02 -1.298214E+01 -6.343657E+00 -1.298214E+01 +4.885189E+02 -2.101179E+01 -6.343657E+00 -2.101179E+01 +3.539503E+02 
 +8.708603E+02 -1.763144E+01 -8.741106E+00 -1.763144E+01 +4.861684E+02 -1.909381E+01 -8.741106E+00 -1.909381E+01 +3.596950E+02 
 +8.743265E+02 -1.191737E+01 +1.384325E+00 -1.191737E+01 +4.856698E+02 -2.229117E+01 +1.384325E+00 -2.229117E+01 +3.601006E+02 
 +8.596552E+02 -2.092177E+00 +4.902343E+00 -2.092177E+00 +4.791399E+02 -2.064101E+01 +4.902343E+00 -2.064101E+01 +3.353637E+02 
 +8.523346E+02 -6.059624E+00 +4.030995E-01 -6.059624E+00 +4.788628E+02 -1.032310E+01 +4.030995E-01 -1.032310E+01 +3.279495E+02 
 +8.163854E+02 +8.069933E-01 +8.549510E-01 +8.069933E-01 +4.763777E+02 -3.612857E+00 +8.549510E-01 -3.612857E+00 +3.397606E+02 
 +8.507425E+02 +5.161884E+00 +2.260913E-01 +5.161884E+00 +5.137315E+02 -4.898091E+00 +2.260913E-01 -4.898091E+00 +3.588107E+02 
 +8.721424E+02 +1.301597E+01 -8.033447E-02 +1.301597E+01 +5.434042E+02 -5.252991E+00 -8.033447E-02 -5.252991E+00 +3.554336E+02 
 +8.845204E+02 +1.105462E+01 +1.087673E+00 +1.105462E+01 +5.534011E+02 -5.808547E+00 +1.087673E+00 -5.808547E+00 +3.436129E+02 
 +8.588093E+02 +4.247949E+00 -1.675283E+00 +4.247949E+00 +5.212406E+02 -7.587560E+00 -1.675283E+00 -7.587560E+00 +3.225273E+02 
 +8.662776E+02 -5.041790E+00 -1.212134E+00 -5.041790E+00 +5.163769E+02 -2.158929E+00 -1.212134E+00 -2.158929E+00 +3.409797E+02 
 +8.734352E+02 -7.211221E+00 -7.160462E+00 -7.211221E+00 +5.131198E+02 +8.661711E+00 -7.160462E+00 +8.661711E+00 +3.566266E+02 
 +8.702306E+02 -3.348592E+00 -1.595863E+00 -3.348592E+00 +4.960114E+02 +1.760444E+01 -1.595863E+00 +1.760444E+01 +3.594888E+02 
 +8.657512E+02 +7.540480E+00 -2.783973E+00 +7.540480E+00 +4.723807E+02 +1.863305E+01 -2.783973E+00 +1.863305E+01 +3.520627E+02 
 +8.449314E+02 +1.667840E+00 -1.220805E+01 +1.667840E+00 +4.406031E+02 +1.401584E+01 -1.220805E+01 +1.401584E+01 +3.396469E+02 
 +8.571488E+02 -2.474011E+00 -1.234444E+00 -2.474011E+00 +4.498621E+02 +1.529582E+01 -1.234444E+00 +1.529582E+01 +3.634512E+02 
 +8.603606E+02 -2.546570E+00 -5.838174E+00 -2.546570E+00 +4.655540E+02 +1.247193E+01 -5.838174E+00 +1.247193E+01 +3.748707E+02 
 +8.570145E+02 -2.127914E+00 -6.365684E+00 -2.127914E+00 +4.771896E+02 +8.562739E+00 -6.365684E+00 +8.562739E+00 +3.780724E+02 
 +8.540664E+02 -5.219422E+00 -5.523052E+00 -5.219422E+00 +4.793827E+02 +6.660703E+00 -5.523052E+00 +6.660703E+00 +3.800723E+02 
 +8.687375E+02 -1.233673E+01 +2.963291E+00 -1.233673E+01 +4.827296E+02 -3.936492E+00 +2.963291E+00 -3.936492E+00 +3.723919E+02 
 +8.606937E+02 -9.362832E+00 -9.026474E+00 -9.362832E+00 +4.925125E+02 -1.931258E+01 -9.026474E+00 -1.931258E+01 +3.661675E+02 
 +8.535626E+02 -1.185392E+01 -5.384637E+00 -1.185392E+01 +4.818651E+02 -2.938631E+01 -5.384637E+00 -2.938631E+01 +3.579371E+02 
 +8.658433E+02 -1.187687E+01 -1.281976E+01 -1.187687E+01 +4.890612E+02 -2.244042E+01 -1.281976E+01 -2.244042E+01 +3.530936E+02 
 +8.707161E+02 -2.759905E+00 -4.133971E+00 -2.759905E+00 +5.011494E+02 -1.791862E+01 -4.133971E+00 -1.791862E+01 +3.436527E+02 
 +8.828880E+02 +3.219652E+00 -1.352133E+00 +3.219652E+00 +5.072968E+02 -1.559206E+01 -1.352133E+00 -1.559206E+01 +3.427842E+02 
 +8.886497E+02 -5.992354E+00 -6.838060E-01 -5.992354E+00 +5.067678E+02 -7.453323E+00 -6.838060E-01 -7.453323E+00 +3.456761E+02 
 +8.442719E+02 -4.820838E-01 -3.613913E+00 -4.820838E-01 +4.850512E+02 -5.204156E+00 -3.613913E+00 -5.204156E+00 +3.273643E+02 
 +8.454195E+02 +2.946387E+00 -1.425028E+00 +2.946387E+00 +5.053863E+02 -2.083864E+00 -1.425028E+00 -2.083864E+00 +3.317203E+02 
 +8.426056E+02 +8.783824E+00 -3.302288E-01 +8.783824E+00 +5.218846E+02 -4.783571E+00 -3.302288E-01 -4.783571E+00 +3.295268E+02 
 +8.603889E+02 +7.845901E+00 -7.594793E-01 +7.845901E+00 +5.318335E+02 -8.400157E+00 -7.594793E-01 -8.400157E+00 +3.269358E+02 
 +8.630008E+02 +7.218513E+00 -3.232931E+00 +7.218513E+00 +5.369538E+02 -3.337812E+00 -3.232931E+00 -3.337812E+00 +3.415321E+02 
 +8.697198E+02 -3.919934E+00 -9.290347E-01 -3.919934E+00 +5.347257E+02 -3.557317E+00 -9.290347E-01 -3.557317E+00 +3.662195E+02 
 +8.712504E+02 -9.257768E+00 -5.804495E-01 -9.257768E+00 +5.152152E+02 +1.822978E+00 -5.804495E-01 +1.822978E+00 +3.615254E+02 
 +8.687859E+02 -7.549718E+00 -1.275046E+00 -7.549718E+00 +4.941618E+02 +2.280810E+00 -1.275046E+00 +2.280810E+00 +3.514059E+02 
 +8.500052E+02 -9.899065E-01 -5.655412E+00 -9.899065E-01 +4.525170E+02 -6.055421E+00 -5.655412E+00 -6.055421E+00 +3.334322E+02 
 +8.332794E+02 -1.505343E+00 -1.333025E+01 -1.505343E+00 +4.217780E+02 +6.201603E+00 -1.333025E+01 +6.201603E+00 +3.213373E+02 
 +8.519285E+02 +2.454049E+00 -5.786833E+00 +2.454049E+00 +4.390424E+02 +1.646440E+01 -5.786833E+00 +1.646440E+01 +3.451755E+02 
 +8.503068E+02 +2.238395E+00 -4.370678E+00 +2.238395E+00 +4.594265E+02 +1.177463E+01 -4.370678E+00 +1.177463E+01 +3.561085E+02 
 +8.529065E+02 -3.278865E-01 -1.447454E+00 -3.278865E-01 +4.786810E+02 +9.264127E+00 -1.447454E+00 +9.264127E+00 +3.600132E+02 
 +8.627066E+02 -6.231859E+00 -3.125790E+00 -6.231859E+00 +4.876370E+02 +8.833351E+00 -3.125790E+00 +8.833351E+00 +3.600003E+02 
 +8.727568E+02 -1.114155E+01 -7.279238E+00 -1.114155E+01 +4.963896E+02 +3.568253E-01 -7.279238E+00 +3.568253E-01 +3.665772E+02 
 +8.554385E+02 -8.657091E+00 -8.186791E+00 -8.657091E+00 +4.765367E+02 +7.387379E+00 -8.186791E+00 +7.387379E+00 +3.673756E+02 
 +8.592040E+02 -1.283788E+01 -6.909333E+00 -1.283788E+01 +4.801837E+02 -1.043660E+01 -6.909333E+00 -1.043660E+01 +3.636997E+02 
 +8.541629E+02 -5.311292E+00 -1.435103E+01 -5.311292E+00 +4.794803E+02 -1.926530E+01 -1.435103E+01 -1.926530E+01 +3.337568E+02 
 +8.635297E+02 +5.447861E+00 -8.914133E+00 +5.447861E+00 +4.988159E+02 -1.647294E+01 -8.914133E+00 -1.647294E+01 +3.219683E+02 
 +8.917559E+02 +3.994199E+00 -5.770813E+00 +3.994199E+00 +5.238249E+02 -1.517259E+01 -5.770813E+00 -1.517259E+01 +3.435726E+02 
 +8.889027E+02 -5.550480E+00 -3.109623E+00 -5.550480E+00 +5.182732E+02 -1.815072E+01 -3.109623E+00 -1.815072E+01 +3.342248E+02 
 +8.626087E+02 -6.473984E+00 -1.627574E-01 -6.473984E+00 +5.010581E+02 -1.842699E+01 -1.627574E-01 -1.842699E+01 +3.112162E+02 
 +8.420032E+02 +3.026514E+00 -2.428135E+00 +3.026514E+00 +5.031304E+02 -1.024985E+01 -2.428135E+00 -1.024985E+01 +3.295399E+02 
 +8.511221E+02 +4.639320E+00 -8.679039E+00 +4.639320E+00 +5.242183E+02 -9.621286E+00 -8.679039E+00 -9.621286E+00 +3.580449E+02 
 +8.681807E+02 -4.855429E-01 -5.011793E+00 -4.855429E-01 +5.282152E+02 -5.725891E+00 -5.011793E+00 -5.725891E+00 +3.729657E+02 
 +8.609495E+02 -9.152250E-01 -3.824469E+00 -9.152250E-01 +5.074497E+02 +1.393430E+01 -3.824469E+00 +1.393430E+01 +3.918607E+02 
 +8.558635E+02 -5.258807E+00 -5.693963E+00 -5.258807E+00 +5.048100E+02 +1.141994E+01 -5.693963E+00 +1.141994E+01 +3.976454E+02 
 +8.685028E+02 -9.782256E+00 -1.004524E+00 -9.782256E+00 +5.112456E+02 -9.145112E+00 -1.004524E+00 -9.145112E+00 +3.775989E+02 
 +8.624664E+02 -1.070186E+01 -3.916258E+00 -1.070186E+01 +4.837047E+02 -1.796870E+01 -3.916258E+00 -1.796870E+01 +3.423829E+02 
 +8.458243E+02 -1.788661E+00 -2.915586E+00 -1.788661E+00 +4.587282E+02 -1.920034E+01 -2.915586E+00 -1.920034E+01 +3.090661E+02 
 +8.406181E+02 +1.668644E-01 +5.591399E+00 +1.668644E-01 +4.479439E+02 -1.319629E+01 +5.591399E+00 -1.319629E+01 +3.047080E+02 
 +8.438570E+02 +3.852362E+00 +1.532722E+00 +3.852362E+00 +4.486289E+02 +2.022005E+00 +1.532722E+00 +2.022005E+00 +3.344603E+02 
 +8.571499E+02 +6.824140E+00 -2.441917E+00 +6.824140E+00 +4.686446E+02 +1.047196E+01 -2.441917E+00 +1.047196E+01 +3.633320E+02 
 +8.616176E+02 +2.643155E+00 -2.372109E+00 +2.643155E+00 +4.765397E+02 +1.597569E+01 -2.372109E+00 +1.597569E+01 +3.750113E+02 
 +8.645519E+02 -3.484572E+00 -8.745339E+00 -3.484572E+00 +4.764958E+02 +1.951447E+01 -8.745339E+00 +1.951447E+01 +3.707162E+02 
 +8.541168E+02 -1.039853E+01 -9.415033E+00 -1.039853E+01 +4.723928E+02 +1.830924E+01 -9.415033E+00 +1.830924E+01 +3.600095E+02 
 +8.403405E+02 -1.254984E+01 +3.227000E-01 -1.254984E+01 +4.519077E+02 +1.522589E+01 +3.227000E-01 +1.522589E+01 +3.529068E+02 
 +8.478195E+02 -9.948310E+00 -1.173864E+01 -9.948310E+00 +4.609277E+02 +1.027366E+01 -1.173864E+01 +1.027366E+01 +3.394670E+02 
 +8.663866E+02 -1.309995E+00 -2.048994E+01 -1.309995E+00 +5.049887E+02 -3.904076E+00 -2.048994E+01 -3.904076E+00 +3.375551E+02 
 +8.789816E+02 +7.078993E-01 -1.112434E+01 +7.078993E-01 +5.218314E+02 -1.562248E+01 -1.112434E+01 -1.562248E+01 +3.491644E+02 
 +9.000200E+02 -8.654675E-01 -9.407497E+00 -8.654675E-01 +5.285612E+02 -1.316969E+01 -9.407497E+00 -1.316969E+01 +3.695876E+02 
 +8.923648E+02 -6.828250E+00 -6.131407E+00 -6.828250E+00 +5.266592E+02 -1.316884E+01 -6.131407E+00 -1.316884E+01 +3.562359E+02 
 +8.782087E+02 -7.250083E+00 -6.216225E-01 -7.250083E+00 +5.214463E+02 -1.665685E+01 -6.216225E-01 -1.665685E+01 +3.435299E+02 
 +8.526335E+02 +9.023968E-01 -6.800298E+00 +9.023968E-01 +5.094649E+02 -8.097510E+00 -6.800298E+00 -8.097510E+00 +3.610614E+02 
 +8.435578E+02 -3.428463E+00 -1.115061E+01 -3.428463E+00 +4.888738E+02 +1.483523E+01 -1.115061E+01 +1.483523E+01 +3.776511E+02 
 +8.508654E+02 -6.471876E+00 -6.690339E+00 -6.471876E+00 +4.773857E+02 +2.949023E+01 -6.690339E+00 +2.949023E+01 +3.848845E+02 
 +8.531177E+02 -5.117276E+00 -6.307951E+00 -5.117276E+00 +4.805698E+02 +3.316868E+01 -6.307951E+00 +3.316868E+01 +3.991776E+02 
 +8.491292E+02 -3.495449E+00 -8.140649E+00 -3.495449E+00 +4.756571E+02 +2.698105E+01 -8.140649E+00 +2.698105E+01 +3.996623E+02 
 +8.551296E+02 -9.369282E+00 -1.142694E+01 -9.369282E+00 +4.768946E+02 +2.184010E+01 -1.142694E+01 +2.184010E+01 +3.882792E+02 
 +8.640724E+02 -1.149163E+01 -6.123654E+00 -1.149163E+01 +4.898783E+02 +2.971978E+01 -6.123654E+00 +2.971978E+01 +3.571273E+02 
 +8.560257E+02 -6.426668E+00 +1.525094E-01 -6.426668E+00 +4.794278E+02 +4.728732E+01 +1.525094E-01 +4.728732E+01 +3.145544E+02 
 +8.504048E+02 -4.363404E+00 +7.841009E+00 -4.363404E+00 +4.708891E+02 +3.175176E+01 +7.841009E+00 +3.175176E+01 +3.078181E+02 
 +8.304797E+02 +2.652084E+00 +1.604575E+01 +2.652084E+00 +4.478668E+02 -3.685732E+00 +1.604575E+01 -3.685732E+00 +3.113789E+02 
 +8.341712E+02 +1.163924E+01 +6.125514E+00 +1.163924E+01 +4.230975E+02 -1.020608E+01 +6.125514E+00 -1.020608E+01 +3.317377E+02 
 +8.461204E+02 +1.043324E+01 -4.737867E+00 +1.043324E+01 +4.378372E+02 +2.141162E+00 -4.737867E+00 +2.141162E+00 +3.667997E+02 
 +8.539021E+02 -1.350566E+00 -6.506694E+00 -1.350566E+00 +4.614225E+02 +1.104788E+01 -6.506694E+00 +1.104788E+01 +3.748122E+02 
 +8.432376E+02 -9.104051E+00 -2.162262E+00 -9.104051E+00 +4.598292E+02 +1.444360E+01 -2.162262E+00 +1.444360E+01 +3.613194E+02 
 +8.364097E+02 -1.128121E+01 -1.001632E+00 -1.128121E+01 +4.512446E+02 +9.111958E+00 -1.001632E+00 +9.111958E+00 +3.414449E+02 
 +8.400025E+02 -5.367452E+00 -1.062845E+01 -5.367452E+00 +4.603055E+02 -4.929690E+00 -1.062845E+01 -4.929690E+00 +3.331579E+02 
 +8.432011E+02 +1.528251E-02 -1.801262E+01 +1.528251E-02 +4.512811E+02 +5.881899E+00 -1.801262E+01 +5.881899E+00 +3.421751E+02 
 +8.514524E+02 -2.418078E+00 -1.742363E+01 -2.418078E+00 +4.473390E+02 +9.718877E+00 -1.742363E+01 +9.718877E+00 +3.715183E+02 
 +8.630097E+02 -9.567022E-01 -1.580632E+01 -9.567022E-01 +4.452653E+02 +5.041194E+00 -1.580632E+01 +5.041194E+00 +3.906927E+02 
 +8.645365E+02 -1.236758E+00 -9.998617E+00 -1.236758E+00 +4.495136E+02 +8.226446E+00 -9.998617E+00 +8.226446E+00 +3.914904E+02 
 +8.542365E+02 -3.402711E+00 -8.445110E+00 -3.402711E+00 +4.651505E+02 +1.364323E+01 -8.445110E+00 +1.364323E+01 +3.927978E+02 
 +8.307574E+02 -3.298747E+00 -1.210192E+01 -3.298747E+00 +4.553966E+02 +1.883935E+01 -1.210192E+01 +1.883935E+01 +3.840092E+02 
 +8.436077E+02 -5.395887E+00 -7.170570E+00 -5.395887E+00 +4.611343E+02 +2.084471E+01 -7.170570E+00 +2.084471E+01 +3.873938E+02 
 +8.546956E+02 -5.369890E+00 -6.263097E+00 -5.369890E+00 +4.720927E+02 +1.882863E+01 -6.263097E+00 +1.882863E+01 +3.923459E+02 
 +8.493471E+02 -3.529390E+00 -7.941614E+00 -3.529390E+00 +4.685381E+02 +1.870702E+01 -7.941614E+00 +1.870702E+01 +3.900463E+02 
 +8.519845E+02 -4.468243E+00 -5.709680E+00 -4.468243E+00 +4.699468E+02 +1.943387E+01 -5.709680E+00 +1.943387E+01 +3.964105E+02 
 +8.640003E+02 -3.650788E+00 -1.281466E+01 -3.650788E+00 +4.856591E+02 +2.552319E+01 -1.281466E+01 +2.552319E+01 +4.005872E+02 
 +8.732173E+02 -2.119125E+00 -1.128409E+01 -2.119125E+00 +5.053158E+02 +3.498702E+01 -1.128409E+01 +3.498702E+01 +3.760723E+02 
 +8.668840E+02 -4.699604E+00 -8.731106E-01 -4.699604E+00 +5.060493E+02 +4.230447E+01 -8.731106E-01 +4.230447E+01 +3.432856E+02 
 +8.586512E+02 -4.079048E+00 +7.412511E-01 -4.079048E+00 +4.906345E+02 +3.087564E+01 +7.412511E-01 +3.087564E+01 +3.206925E+02 
 +8.468794E+02 -4.469225E+00 +1.083191E+01 -4.469225E+00 +4.719126E+02 -4.241390E+00 +1.083191E+01 -4.241390E+00 +3.043023E+02 
 +8.463395E+02 +2.501008E+00 +1.217772E+01 +2.501008E+00 +4.654259E+02 -2.537289E+01 +1.217772E+01 -2.537289E+01 +3.172337E+02 
 +8.373860E+02 +5.820448E+00 +4.887848E-01 +5.820448E+00 +4.491961E+02 -1.046454E+01 +4.887848E-01 -1.046454E+01 +3.377315E+02 
 +8.385379E+02 -7.342476E+00 -3.097908E+00 -7.342476E+00 +4.429814E+02 +9.884897E+00 -3.097908E+00 +9.884897E+00 +3.480563E+02 
 +8.343202E+02 -1.064974E+01 +2.392351E+00 -1.064974E+01 +4.414618E+02 +1.777583E+01 +2.392351E+00 +1.777583E+01 +3.464345E+02 
 +8.398391E+02 -4.565413E+00 -1.461681E+01 -4.565413E+00 +4.604963E+02 -1.220345E+01 -1.461681E+01 -1.220345E+01 +3.353000E+02 
 +8.505826E+02 -3.500203E+00 -8.663066E+00 -3.500203E+00 +4.768041E+02 -1.991466E+01 -8.663066E+00 -1.991466E+01 +3.526388E+02 
 +8.693653E+02 -8.343699E-01 -4.343294E+00 -8.343699E-01 +4.757668E+02 -1.537647E+01 -4.343294E+00 -1.537647E+01 +3.832281E+02 
 +8.655192E+02 +7.103923E-01 -1.283615E+01 +7.103923E-01 +4.560809E+02 -3.962016E+00 -1.283615E+01 -3.962016E+00 +3.998898E+02 
 +8.676511E+02 +4.289640E+00 -1.931004E+01 +4.289640E+00 +4.568255E+02 -4.346920E+00 -1.931004E+01 -4.346920E+00 +4.056423E+02 
 +8.692488E+02 +5.766471E+00 -1.901682E+01 +5.766471E+00 +4.643035E+02 -6.078416E+00 -1.901682E+01 -6.078416E+00 +4.123980E+02 
 +8.597005E+02 +4.880038E+00 -1.815300E+01 +4.880038E+00 +4.680168E+02 +5.359106E+00 -1.815300E+01 +5.359106E+00 +4.262478E+02 
 +8.399619E+02 +8.157930E-01 -1.365596E+01 +8.157930E-01 +4.643968E+02 +1.843729E+01 -1.365596E+01 +1.843729E+01 +4.148175E+02 
 +8.563466E+02 -3.769929E+00 -5.888564E+00 -3.769929E+00 +4.684358E+02 +1.739795E+01 -5.888564E+00 +1.739795E+01 +4.048394E+02 
 +8.573184E+02 -6.609034E+00 -4.927159E+00 -6.609034E+00 +4.635830E+02 +1.379366E+01 -4.927159E+00 +1.379366E+01 +4.008313E+02 
 +8.545649E+02 -2.365883E+00 -4.967991E+00 -2.365883E+00 +4.644520E+02 +1.650811E+01 -4.967991E+00 +1.650811E+01 +3.967832E+02 
 +8.571116E+02 -3.556491E+00 -6.081258E+00 -3.556491E+00 +4.705886E+02 +1.851039E+01 -6.081258E+00 +1.851039E+01 +3.962450E+02 
 +8.618926E+02 +2.610216E+00 -8.475064E+00 +2.610216E+00 +4.802539E+02 +2.386138E+01 -8.475064E+00 +2.386138E+01 +3.886722E+02 
 +8.731285E+02 +5.798268E+00 -9.169678E+00 +5.798268E+00 +5.024165E+02 +3.317400E+01 -9.169678E+00 +3.317400E+01 +3.699442E+02 
 +8.726420E+02 -1.133292E+00 -5.183675E+00 -1.133292E+00 +5.163893E+02 +4.326766E+01 -5.183675E+00 +4.326766E+01 +3.587315E+02 
 +8.666943E+02 -2.595272E+00 -1.502083E+00 -2.595272E+00 +5.117364E+02 +2.952731E+01 -1.502083E+00 +2.952731E+01 +3.491949E+02 
 +8.605860E+02 -4.534075E+00 +2.539923E+00 -4.534075E+00 +4.949921E+02 -3.848601E+00 +2.539923E+00 -3.848601E+00 +3.305234E+02 
 +8.477106E+02 +1.052584E+00 +1.366819E+01 +1.052584E+00 +4.805394E+02 -1.648698E+01 +1.366819E+01 -1.648698E+01 +3.276976E+02 
 +8.340220E+02 +1.877573E+00 +1.306425E+01 +1.877573E+00 +4.598045E+02 -2.944756E+00 +1.306425E+01 -2.944756E+00 +3.354396E+02 
 +8.309171E+02 -4.701713E+00 -1.607156E-01 -4.701713E+00 +4.331359E+02 +1.369900E+01 -1.607156E-01 +1.369900E+01 +3.312164E+02 
 +8.303373E+02 -5.071514E+00 -9.241017E+00 -5.071514E+00 +4.326603E+02 +7.086799E+00 -9.241017E+00 +7.086799E+00 +3.266296E+02 
 +8.427068E+02 +1.717632E+00 -1.471829E+01 +1.717632E+00 +4.605686E+02 -1.856651E+01 -1.471829E+01 -1.856651E+01 +3.419803E+02 
 +8.623038E+02 -1.498459E+00 -5.537236E+00 -1.498459E+00 +4.721766E+02 -1.582395E+01 -5.537236E+00 -1.582395E+01 +3.641995E+02 
 +8.732012E+02 -3.474972E+00 -8.503767E-01 -3.474972E+00 +4.784969E+02 -2.352811E+01 -8.503767E-01 -2.352811E+01 +3.880757E+02 
 +8.770035E+02 +5.917067E-02 -5.544256E+00 +5.917067E-02 +4.846495E+02 -2.589867E+01 -5.544256E+00 -2.589867E+01 +3.856823E+02 
 +8.806820E+02 +9.545331E+00 -1.643969E+01 +9.545331E+00 +4.997592E+02 -2.026553E+01 -1.643969E+01 -2.026553E+01 +3.746825E+02 
 +8.852790E+02 +1.095970E+01 -2.580258E+01 +1.095970E+01 +5.223931E+02 -1.680249E+01 -2.580258E+01 -1.680249E+01 +3.929350E+02 
 +8.920984E+02 +9.173659E+00 -1.760316E+01 +9.173659E+00 +5.400723E+02 -3.564685E+00 -1.760316E+01 -3.564685E+00 +4.291914E+02 
 +8.661943E+02 -3.844637E+00 -5.547932E+00 -3.844637E+00 +5.074820E+02 +1.473211E+01 -5.547932E+00 +1.473211E+01 +4.272697E+02 
 +8.527665E+02 -6.038539E+00 -4.934701E+00 -6.038539E+00 +4.631488E+02 +1.651745E+01 -4.934701E+00 +1.651745E+01 +4.117349E+02 
 +8.511653E+02 -3.510155E+00 -1.676646E+00 -3.510155E+00 +4.505672E+02 +1.121861E+01 -1.676646E+00 +1.121861E+01 +4.040911E+02 
 +8.559786E+02 -1.590967E+00 -4.109896E+00 -1.590967E+00 +4.576806E+02 +1.454680E+01 -4.109896E+00 +1.454680E+01 +3.922163E+02 
 +8.657709E+02 +9.988385E-01 -6.385106E+00 +9.988385E-01 +4.788363E+02 +1.939567E+01 -6.385106E+00 +1.939567E+01 +3.837031E+02 
 +8.844190E+02 +9.723785E+00 -4.257145E+00 +9.723785E+00 +5.167134E+02 +2.405072E+01 -4.257145E+00 +2.405072E+01 +3.883557E+02 
 +8.855637E+02 +9.066509E+00 -4.663614E+00 +9.066509E+00 +5.182146E+02 +2.789594E+01 -4.663614E+00 +2.789594E+01 +3.762346E+02 
 +8.755767E+02 +5.781273E+00 -3.505264E+00 +5.781273E+00 +5.109298E+02 +3.090000E+01 -3.505264E+00 +3.090000E+01 +3.645865E+02 
 +8.710086E+02 +7.756665E-01 -1.822569E-01 +7.756665E-01 +5.210419E+02 +3.744997E+01 -1.822569E-01 +3.744997E+01 +3.658877E+02 
 +8.672608E+02 -2.059996E+00 +2.878382E+00 -2.059996E+00 +5.189891E+02 +3.811375E+01 +2.878382E+00 +3.811375E+01 +3.501671E+02 
 +8.464658E+02 -4.943054E-03 +1.895738E+01 -4.943054E-03 +4.892699E+02 +2.526237E+01 +1.895738E+01 +2.526237E+01 +3.347567E+02 
 +8.325395E+02 -2.086329E+00 +1.413626E+01 -2.086329E+00 +4.582348E+02 -2.784533E+00 +1.413626E+01 -2.784533E+00 +3.397711E+02 
 +8.406202E+02 -3.084861E+00 -2.188528E+00 -3.084861E+00 +4.584336E+02 -2.835912E+01 -2.188528E+00 -2.835912E+01 +3.419465E+02 
 +8.431351E+02 +4.140262E-01 -1.267719E+01 +4.140262E-01 +4.623329E+02 -3.155142E+01 -1.267719E+01 -3.155142E+01 +3.389169E+02 
 +8.530458E+02 +2.139121E+00 -9.295102E+00 +2.139121E+00 +4.675944E+02 -1.753951E+01 -9.295102E+00 -1.753951E+01 +3.585965E+02 
 +8.656909E+02 -2.511875E+00 -2.186271E+00 -2.511875E+00 +4.733004E+02 -1.914340E+01 -2.186271E+00 -1.914340E+01 +3.671739E+02 
 +8.796168E+02 -4.803360E+00 +2.022703E+00 -4.803360E+00 +4.901532E+02 -1.832578E+01 +2.022703E+00 -1.832578E+01 +3.768001E+02 
 +8.800587E+02 +4.198449E+00 -7.359524E+00 +4.198449E+00 +5.012103E+02 -7.870612E+00 -7.359524E+00 -7.870612E+00 +3.685379E+02 
 +8.809444E+02 +1.205258E+01 -1.401051E+01 +1.205258E+01 +5.144539E+02 -9.544018E+00 -1.401051E+01 -9.544018E+00 +3.653984E+02 
 +8.807010E+02 +8.697258E+00 -1.746637E+01 +8.697258E+00 +5.250374E+02 -3.509521E+00 -1.746637E+01 -3.509521E+00 +3.810761E+02 
 +8.758980E+02 +3.564979E+00 -9.366829E+00 +3.564979E+00 +5.175340E+02 +1.528843E+01 -9.366829E+00 +1.528843E+01 +3.991237E+02 
 +8.771862E+02 -6.906189E+00 -2.596940E+00 -6.906189E+00 +5.135867E+02 +2.133044E+01 -2.596940E+00 +2.133044E+01 +4.126015E+02 
 +8.778508E+02 -8.935715E+00 -5.219878E+00 -8.935715E+00 +5.179739E+02 +1.475026E+01 -5.219878E+00 +1.475026E+01 +4.194775E+02 
 +8.689034E+02 -4.513194E+00 -2.485567E+00 -4.513194E+00 +4.957293E+02 +8.249863E+00 -2.485567E+00 +8.249863E+00 +4.114749E+02 
 +8.618173E+02 +6.696425E-01 -4.011820E+00 +6.696425E-01 +4.691251E+02 +1.266782E+01 -4.011820E+00 +1.266782E+01 +3.929112E+02 
 +8.644998E+02 +7.672788E+00 -2.236414E+00 +7.672788E+00 +4.706439E+02 +2.229642E+01 -2.236414E+00 +2.229642E+01 +3.788356E+02 
 +8.634804E+02 +8.217471E+00 -3.142659E+00 +8.217471E+00 +4.674037E+02 +2.879620E+01 -3.142659E+00 +2.879620E+01 +3.686148E+02 
 +8.648166E+02 +5.496259E+00 -6.782588E+00 +5.496259E+00 +4.693079E+02 +2.955563E+01 -6.782588E+00 +2.955563E+01 +3.632636E+02 
 +8.733729E+02 +9.402829E+00 -3.981159E+00 +9.402829E+00 +4.960126E+02 +2.643414E+01 -3.981159E+00 +2.643414E+01 +3.616349E+02 
 +8.702920E+02 +1.976698E+00 -1.221767E+00 +1.976698E+00 +5.173650E+02 +2.486639E+01 -1.221767E+00 +2.486639E+01 +3.689492E+02 
 +8.739868E+02 -3.591357E+00 -3.217217E+00 -3.591357E+00 +5.302617E+02 +2.815753E+01 -3.217217E+00 +2.815753E+01 +3.839522E+02 
 +8.591180E+02 -8.653150E+00 +9.689154E+00 -8.653150E+00 +5.096996E+02 +1.211184E+01 +9.689154E+00 +1.211184E+01 +3.759848E+02 
 +8.485400E+02 -5.071322E+00 +1.041171E+01 -5.071322E+00 +4.857139E+02 -2.231133E+01 +1.041171E+01 -2.231133E+01 +3.660167E+02 
 +8.427787E+02 -1.350116E+00 +4.520277E-01 -1.350116E+00 +4.711837E+02 -3.160739E+01 +4.520277E-01 -3.160739E+01 +3.574361E+02 
 +8.460558E+02 +1.486169E+00 -5.113225E+00 +1.486169E+00 +4.681744E+02 -2.436250E+01 -5.113225E+00 -2.436250E+01 +3.560393E+02 
 +8.509362E+02 -6.180420E-01 -1.214528E+01 -6.180420E-01 +4.642738E+02 -2.491187E+01 -1.214528E+01 -2.491187E+01 +3.512891E+02 
 +8.544054E+02 -2.704473E+00 -2.460566E+00 -2.704473E+00 +4.647531E+02 -2.654002E+01 -2.460566E+00 -2.654002E+01 +3.447969E+02 
 +8.677253E+02 -3.435868E+00 +7.752147E+00 -3.435868E+00 +4.733540E+02 -2.066473E+01 +7.752147E+00 -2.066473E+01 +3.478226E+02 
 +8.696825E+02 +6.847485E+00 -8.666461E-01 +6.847485E+00 +4.914984E+02 -4.799303E+00 -8.666461E-01 -4.799303E+00 +3.529568E+02 
 +8.722856E+02 +1.146548E+01 -1.107139E+01 +1.146548E+01 +5.092833E+02 -6.272861E+00 -1.107139E+01 -6.272861E+00 +3.669608E+02 
 +8.740011E+02 +9.322246E+00 -6.227982E+00 +9.322246E+00 +5.107102E+02 -6.111049E+00 -6.227982E+00 -6.111049E+00 +3.773737E+02 
 +8.773918E+02 +4.782061E-01 -6.363248E+00 +4.782061E-01 +5.093861E+02 +1.198010E+01 -6.363248E+00 +1.198010E+01 +3.900343E+02 
 +8.794081E+02 -7.472593E+00 -7.577479E+00 -7.472593E+00 +5.104750E+02 +2.085403E+01 -7.577479E+00 +2.085403E+01 +3.992726E+02 
 +8.709293E+02 -1.070251E+01 -8.071625E+00 -1.070251E+01 +5.065724E+02 +1.316023E+01 -8.071625E+00 +1.316023E+01 +3.944799E+02 
 +8.709401E+02 -7.329082E+00 -7.259576E+00 -7.329082E+00 +5.058172E+02 +6.185862E+00 -7.259576E+00 +6.185862E+00 +3.908419E+02 
 +8.711132E+02 +1.063141E+00 -2.045291E+00 +1.063141E+00 +4.995483E+02 +8.426395E+00 -2.045291E+00 +8.426395E+00 +3.860391E+02 
 +8.710269E+02 +1.039568E+01 +3.144817E+00 +1.039568E+01 +4.835134E+02 +1.846131E+01 +3.144817E+00 +1.846131E+01 +3.851920E+02 
 +8.680456E+02 +8.345577E+00 -3.055772E+00 +8.345577E+00 +4.708166E+02 +2.477138E+01 -3.055772E+00 +2.477138E+01 +3.826583E+02 
 +8.648624E+02 +8.135366E+00 -8.392751E+00 +8.135366E+00 +4.674930E+02 +2.762173E+01 -8.392751E+00 +2.762173E+01 +3.756184E+02 
 +8.606401E+02 +9.671789E+00 -1.148730E+01 +9.671789E+00 +4.625288E+02 +3.073238E+01 -1.148730E+01 +3.073238E+01 +3.620849E+02 
 +8.483814E+02 +3.091420E+00 -1.064482E+01 +3.091420E+00 +4.598235E+02 +3.646913E+01 -1.064482E+01 +3.646913E+01 +3.568988E+02 
 +8.555609E+02 -7.254221E-01 -1.109490E+01 -7.254221E-01 +4.771192E+02 +4.030912E+01 -1.109490E+01 +4.030912E+01 +3.827273E+02 
 +8.641358E+02 -3.399115E+00 +1.216121E+00 -3.399115E+00 +4.925144E+02 +3.684333E+01 +1.216121E+00 +3.684333E+01 +4.016751E+02 
 +8.491790E+02 +3.969080E+00 +8.123852E+00 +3.969080E+00 +4.884473E+02 +1.989945E+01 +8.123852E+00 +1.989945E+01 +3.846305E+02 
 +8.382912E+02 +5.499236E+00 -6.249220E-02 +5.499236E+00 +4.864780E+02 -1.379389E+01 -6.249220E-02 -1.379389E+01 +3.662952E+02 
 +8.382206E+02 -1.095905E+00 -9.572858E+00 -1.095905E+00 +4.734168E+02 -2.875685E+01 -9.572858E+00 -2.875685E+01 +3.582296E+02 
 +8.644634E+02 +6.726965E-01 -1.352195E+01 +6.726965E-01 +5.086914E+02 +6.785442E+00 -1.352195E+01 +6.785442E+00 +3.388393E+02 
 +8.715099E+02 -1.890795E+00 -3.116705E+00 -1.890795E+00 +5.015086E+02 -6.123382E+00 -3.116705E+00 -6.123382E+00 +3.244561E+02 
 +8.793397E+02 +1.165606E+00 +1.177698E+01 +1.165606E+00 +5.136892E+02 -3.295414E+00 +1.177698E+01 -3.295414E+00 +3.424508E+02 
 +8.721911E+02 +8.543693E+00 +6.681896E+00 +8.543693E+00 +5.140307E+02 +4.229282E+00 +6.681896E+00 +4.229282E+00 +3.571350E+02 
 +8.700317E+02 +9.110363E+00 -4.178164E+00 +9.110363E+00 +5.058972E+02 -3.107780E+00 -4.178164E+00 -3.107780E+00 +3.569853E+02 
 +8.739249E+02 +6.030634E+00 -4.154261E+00 +6.030634E+00 +5.026165E+02 -3.911642E+00 -4.154261E+00 -3.911642E+00 +3.629180E+02 
 +8.758537E+02 -1.846592E+00 -6.678833E+00 -1.846592E+00 +5.004575E+02 +1.271880E+01 -6.678833E+00 +1.271880E+01 +3.793476E+02 
 +8.735525E+02 -6.175746E+00 -9.160923E+00 -6.175746E+00 +4.989830E+02 +2.121433E+01 -9.160923E+00 +2.121433E+01 +3.879199E+02 
 +8.702503E+02 -1.121451E+01 -1.192074E+01 -1.121451E+01 +4.961562E+02 +1.434711E+01 -1.192074E+01 +1.434711E+01 +3.827169E+02 
 +8.686994E+02 -7.867829E+00 -9.551084E+00 -7.867829E+00 +4.973275E+02 +9.984139E+00 -9.551084E+00 +9.984139E+00 +3.746345E+02 
 +8.666970E+02 -2.832861E+00 +1.102580E+00 -2.832861E+00 +4.944642E+02 +1.276331E+01 +1.102580E+00 +1.276331E+01 +3.723901E+02 
 +8.690801E+02 +5.066191E+00 +5.584587E+00 +5.066191E+00 +4.822245E+02 +2.003385E+01 +5.584587E+00 +2.003385E+01 +3.789782E+02 
 +8.630701E+02 +8.658755E+00 -2.133389E+00 +8.658755E+00 +4.684209E+02 +2.279200E+01 -2.133389E+00 +2.279200E+01 +3.800493E+02 
 +8.591596E+02 +1.069834E+01 -8.844454E+00 +1.069834E+01 +4.627865E+02 +2.493741E+01 -8.844454E+00 +2.493741E+01 +3.779294E+02 
 +8.589437E+02 +1.215755E+01 -1.410243E+01 +1.215755E+01 +4.562657E+02 +3.102321E+01 -1.410243E+01 +3.102321E+01 +3.735309E+02 
 +8.581777E+02 +8.674070E+00 -1.029022E+01 +8.674070E+00 +4.525093E+02 +3.712261E+01 -1.029022E+01 +3.712261E+01 +3.689430E+02 
 +8.577588E+02 +2.932817E+00 -6.851398E+00 +2.932817E+00 +4.607281E+02 +3.969670E+01 -6.851398E+00 +3.969670E+01 +3.787731E+02 
 +8.698876E+02 -3.844413E-01 +2.679792E+00 -3.844413E-01 +4.963516E+02 +2.979838E+01 +2.679792E+00 +2.979838E+01 +3.997990E+02 
 +8.620861E+02 +6.412469E-01 +7.253166E+00 +6.412469E-01 +5.293196E+02 +9.721815E+00 +7.253166E+00 +9.721815E+00 +3.975055E+02 
 +8.660828E+02 +4.699766E-01 +2.638917E+00 +4.699766E-01 +5.437897E+02 +4.449367E+00 +2.638917E+00 +4.449367E+00 +3.929734E+02 
 +8.511854E+02 -7.047800E+00 -4.211274E+00 -7.047800E+00 +5.214827E+02 +9.894979E+00 -4.211274E+00 +9.894979E+00 +3.671624E+02 
 +8.550135E+02 +2.907770E+00 -2.764715E+00 +2.907770E+00 +5.061218E+02 +3.623417E+00 -2.764715E+00 +3.623417E+00 +3.237935E+02 
 +8.572683E+02 +4.106859E+00 +3.713912E+00 +4.106859E+00 +4.907421E+02 -1.502496E+00 +3.713912E+00 -1.502496E+00 +3.031963E+02 
 +8.554248E+02 +6.274123E+00 +1.351705E+01 +6.274123E+00 +4.922790E+02 -3.949363E+00 +1.351705E+01 -3.949363E+00 +3.242597E+02 
 +8.557399E+02 +1.195542E+01 +6.312537E+00 +1.195542E+01 +5.008602E+02 -2.427571E+00 +6.312537E+00 -2.427571E+00 +3.578170E+02 
 +8.686977E+02 +1.132867E+01 -3.124020E+00 +1.132867E+01 +5.061357E+02 -5.076418E+00 -3.124020E+00 -5.076418E+00 +3.585512E+02 
 +8.704865E+02 +2.796130E+00 -2.508087E+00 +2.796130E+00 +4.941419E+02 -5.018492E+00 -2.508087E+00 -5.018492E+00 +3.509666E+02 
 +8.698619E+02 -3.624714E+00 +1.424187E+00 -3.624714E+00 +4.872497E+02 +1.422701E+01 +1.424187E+00 +1.422701E+01 +3.597753E+02 
 +8.730071E+02 -6.726444E+00 -8.067020E+00 -6.726444E+00 +4.883232E+02 +2.839509E+01 -8.067020E+00 +2.839509E+01 +3.646621E+02 
 +8.624092E+02 -8.338249E+00 -1.935181E+01 -8.338249E+00 +4.797049E+02 +2.240102E+01 -1.935181E+01 +2.240102E+01 +3.544923E+02 
 +8.526572E+02 -4.181705E+00 -1.021700E+01 -4.181705E+00 +4.714737E+02 +1.751681E+01 -1.021700E+01 +1.751681E+01 +3.482843E+02 
 +8.578523E+02 -4.159979E+00 +2.268510E+00 -4.159979E+00 +4.714647E+02 +2.505605E+01 +2.268510E+00 +2.505605E+01 +3.611490E+02 
 +8.558592E+02 +1.600305E+00 +4.735288E+00 +1.600305E+00 +4.676439E+02 +2.575907E+01 +4.735288E+00 +2.575907E+01 +3.656476E+02 
 +8.589002E+02 +6.417427E+00 -1.838618E+00 +6.417427E+00 +4.659103E+02 +2.162855E+01 -1.838618E+00 +2.162855E+01 +3.694008E+02 
 +8.597579E+02 +9.915458E+00 -4.959690E+00 +9.915458E+00 +4.611009E+02 +2.348207E+01 -4.959690E+00 +2.348207E+01 +3.732046E+02 
 +8.592622E+02 +1.255875E+01 -8.229280E+00 +1.255875E+01 +4.582207E+02 +3.092532E+01 -8.229280E+00 +3.092532E+01 +3.733828E+02 
 +8.648145E+02 +8.710652E+00 -4.168811E+00 +8.710652E+00 +4.620369E+02 +3.615700E+01 -4.168811E+00 +3.615700E+01 +3.739595E+02 
 +8.694710E+02 +2.408230E+00 +9.632239E-01 +2.408230E+00 +4.777306E+02 +4.048408E+01 +9.632239E-01 +4.048408E+01 +3.940241E+02 
 +8.728925E+02 +4.720022E+00 +2.414090E+00 +4.720022E+00 +5.001408E+02 +4.381485E+01 +2.414090E+00 +4.381485E+01 +4.136194E+02 
 +8.512335E+02 +1.170823E+01 +5.327903E+00 +1.170823E+01 +4.987692E+02 +4.163658E+01 +5.327903E+00 +4.163658E+01 +3.793932E+02 
 +8.511574E+02 +1.000184E+01 +5.771341E+00 +1.000184E+01 +5.114953E+02 +2.970916E+01 +5.771341E+00 +2.970916E+01 +3.685134E+02 
 +8.405094E+02 -1.757460E+00 +1.787282E+00 -1.757460E+00 +5.142016E+02 +1.215320E+01 +1.787282E+00 +1.215320E+01 +3.557766E+02 
 +8.520084E+02 -5.118862E-01 +7.769451E+00 -5.118862E-01 +5.094505E+02 +1.268775E+01 +7.769451E+00 +1.268775E+01 +3.299294E+02 
 +8.498743E+02 +1.433675E+00 +9.102806E+00 +1.433675E+00 +4.966991E+02 -3.873429E+00 +9.102806E+00 -3.873429E+00 +3.182947E+02 
 +8.443982E+02 +4.966624E+00 +4.973537E+00 +4.966624E+00 +4.851412E+02 -1.485573E+01 +4.973537E+00 -1.485573E+01 +3.348172E+02 
 +8.462184E+02 +1.492644E+01 +7.144856E-01 +1.492644E+01 +4.823288E+02 -1.586131E+01 +7.144856E-01 -1.586131E+01 +3.591005E+02 
 +8.523360E+02 +1.545031E+01 -7.418772E+00 +1.545031E+01 +4.818610E+02 -1.033846E+01 -7.418772E+00 -1.033846E+01 +3.590842E+02 
 +8.703820E+02 +7.286262E+00 -1.177481E+00 +7.286262E+00 +4.905100E+02 -2.388993E+00 -1.177481E+00 -2.388993E+00 +3.569734E+02 
 +8.715229E+02 +2.197777E+00 +3.277243E+00 +2.197777E+00 +4.888369E+02 -5.052095E+00 +3.277243E+00 -5.052095E+00 +3.554386E+02 
 +8.733255E+02 -4.406290E+00 -4.570163E+00 -4.406290E+00 +4.800947E+02 -1.160684E+01 -4.570163E+00 -1.160684E+01 +3.533992E+02 
 +8.697182E+02 -3.796525E+00 -1.894149E+01 -3.796525E+00 +4.808613E+02 -6.792534E-01 -1.894149E+01 -6.792534E-01 +3.501100E+02 
 +8.610250E+02 -3.155971E+00 -1.337420E+01 -3.155971E+00 +4.834070E+02 +6.427406E+00 -1.337420E+01 +6.427406E+00 +3.511514E+02 
 +8.514648E+02 -5.712042E+00 -2.657493E+00 -5.712042E+00 +4.717159E+02 +1.478840E+01 -2.657493E+00 +1.478840E+01 +3.577320E+02 
 +8.497530E+02 +7.455676E-01 -4.924452E-01 +7.455676E-01 +4.625905E+02 +1.933709E+01 -4.924452E-01 +1.933709E+01 +3.550522E+02 
 +8.504301E+02 +5.801314E+00 -4.154287E-01 +5.801314E+00 +4.559452E+02 +2.017191E+01 -4.154287E-01 +2.017191E+01 +3.506508E+02 
 +8.523167E+02 +8.782007E+00 +1.925190E+00 +8.782007E+00 +4.523371E+02 +2.497878E+01 +1.925190E+00 +2.497878E+01 +3.523963E+02 
 +8.542305E+02 +1.199399E+01 +4.238976E+00 +1.199399E+01 +4.566353E+02 +3.204336E+01 +4.238976E+00 +3.204336E+01 +3.588769E+02 
 +8.600743E+02 +7.715225E+00 +3.360132E+00 +7.715225E+00 +4.690521E+02 +4.060142E+01 +3.360132E+00 +4.060142E+01 +3.729978E+02 
 +8.633883E+02 +2.539230E+00 +4.407767E+00 +2.539230E+00 +4.779451E+02 +4.783256E+01 +4.407767E+00 +4.783256E+01 +3.868914E+02 
 +8.700439E+02 +8.035326E+00 -1.150435E+00 +8.035326E+00 +4.928366E+02 +4.442529E+01 -1.150435E+00 +4.442529E+01 +3.908177E+02 
 +8.608130E+02 +1.053680E+01 -5.603936E+00 +1.053680E+01 +4.993450E+02 +3.169581E+01 -5.603936E+00 +3.169581E+01 +3.572380E+02 
 +8.473230E+02 +5.302003E+00 +5.800038E-01 +5.302003E+00 +4.984496E+02 +3.094518E+01 +5.800038E-01 +3.094518E+01 +3.416979E+02 
 +8.426814E+02 -1.006505E-01 +8.891003E-01 -1.006505E-01 +5.046735E+02 +2.901472E+01 +8.891003E-01 +2.901472E+01 +3.454381E+02 
 +8.423593E+02 -7.089316E+00 +5.975339E+00 -7.089316E+00 +4.943698E+02 +1.027266E+01 +5.975339E+00 +1.027266E+01 +3.263125E+02 
 +8.385053E+02 -2.301678E+00 -2.627768E-01 -2.301678E+00 +4.865217E+02 -1.550600E+01 -2.627768E-01 -1.550600E+01 +3.349518E+02 
 +8.404904E+02 +3.809411E+00 -4.297926E+00 +3.809411E+00 +4.857247E+02 -2.465885E+01 -4.297926E+00 -2.465885E+01 +3.507199E+02 
 +8.483669E+02 +1.215268E+01 -4.004326E+00 +1.215268E+01 +4.865893E+02 -1.776821E+01 -4.004326E+00 -1.776821E+01 +3.613837E+02 
 +8.541260E+02 +1.336378E+01 -9.478142E+00 +1.336378E+01 +4.828021E+02 -6.009991E+00 -9.478142E+00 -6.009991E+00 +3.636271E+02 
 +8.710842E+02 +7.251363E+00 -1.570250E+00 +7.251363E+00 +4.881973E+02 +2.951322E+00 -1.570250E+00 +2.951322E+00 +3.625614E+02 
 +8.721165E+02 -5.844114E-01 -3.556385E+00 -5.844114E-01 +4.848421E+02 -8.374304E-01 -3.556385E+00 -8.374304E-01 +3.586927E+02 
 +8.803080E+02 -6.761602E+00 -6.757931E+00 -6.761602E+00 +4.918831E+02 -1.617215E+01 -6.757931E+00 -1.617215E+01 +3.704337E+02 
 +8.794008E+02 -7.261140E+00 -1.098257E+01 -7.261140E+00 +4.878992E+02 -3.020078E+01 -1.098257E+01 -3.020078E+01 +3.771202E+02 
 +8.706612E+02 -7.305285E+00 -9.270312E+00 -7.305285E+00 +4.765718E+02 -3.562876E+01 -9.270312E+00 -3.562876E+01 +3.678318E+02 
 +8.505361E+02 -5.201852E+00 -3.982563E+00 -5.201852E+00 +4.722456E+02 -1.505536E+01 -3.982563E+00 -1.505536E+01 +3.608556E+02 
 +8.497464E+02 +4.833548E-01 -2.775069E+00 +4.833548E-01 +4.647405E+02 +5.845917E+00 -2.775069E+00 +5.845917E+00 +3.567459E+02 
 +8.437039E+02 +6.391865E+00 +3.267698E+00 +6.391865E+00 +4.519436E+02 +1.338347E+01 +3.267698E+00 +1.338347E+01 +3.448234E+02 
 +8.438892E+02 +6.833880E+00 +8.920171E+00 +6.833880E+00 +4.532622E+02 +1.613214E+01 +8.920171E+00 +1.613214E+01 +3.440244E+02 
 +8.450672E+02 +1.037757E+01 +1.542764E+01 +1.037757E+01 +4.563491E+02 +1.994379E+01 +1.542764E+01 +1.994379E+01 +3.454229E+02 
 +8.642955E+02 +9.204339E+00 +3.334058E+00 +9.204339E+00 +4.803004E+02 +2.446864E+01 +3.334058E+00 +2.446864E+01 +3.723826E+02 
 +8.691950E+02 +7.726855E+00 +3.959485E+00 +7.726855E+00 +4.998706E+02 +2.034382E+01 +3.959485E+00 +2.034382E+01 +3.824517E+02 
 +8.737606E+02 +1.366072E+01 +1.132878E+00 +1.366072E+01 +5.088146E+02 +1.048113E+01 +1.132878E+00 +1.048113E+01 +3.588382E+02 
 +8.611517E+02 +1.427049E+01 -5.656195E+00 +1.427049E+01 +4.990995E+02 +1.733150E+01 -5.656195E+00 +1.733150E+01 +3.315030E+02 
 +8.521062E+02 +7.286419E+00 +5.093391E+00 +7.286419E+00 +4.949597E+02 +2.945279E+01 +5.093391E+00 +2.945279E+01 +3.275039E+02 
 +8.479996E+02 -8.781778E-01 +5.350741E+00 -8.781778E-01 +4.982212E+02 +2.834240E+01 +5.350741E+00 +2.834240E+01 +3.301769E+02 
 +8.335699E+02 -6.136175E+00 -2.740569E+00 -6.136175E+00 +4.780551E+02 -6.448756E+00 -2.740569E+00 -6.448756E+00 +3.299876E+02 
 +8.336783E+02 -4.907279E+00 -5.923527E+00 -4.907279E+00 +4.854320E+02 -2.372937E+01 -5.923527E+00 -2.372937E+01 +3.447308E+02 
 +8.389566E+02 +2.237724E+00 -5.952207E+00 +2.237724E+00 +4.896402E+02 -2.291959E+01 -5.952207E+00 -2.291959E+01 +3.548096E+02 
 +8.467982E+02 +9.785799E+00 -8.080711E+00 +9.785799E+00 +4.868112E+02 -1.644200E+01 -8.080711E+00 -1.644200E+01 +3.623924E+02 
 +8.486729E+02 +1.179899E+01 -6.720711E+00 +1.179899E+01 +4.794270E+02 -2.850509E+00 -6.720711E+00 -2.850509E+00 +3.611153E+02 
 +8.673873E+02 +4.247044E+00 +1.220843E+00 +4.247044E+00 +4.853290E+02 +9.819954E+00 +1.220843E+00 +9.819954E+00 +3.602247E+02 
 +8.744244E+02 -5.395706E+00 -9.691925E+00 -5.395706E+00 +4.864329E+02 +2.822865E+00 -9.691925E+00 +2.822865E+00 +3.583595E+02 
 +8.784770E+02 -7.953217E+00 -1.195279E+01 -7.953217E+00 +4.891675E+02 -1.627806E+01 -1.195279E+01 -1.627806E+01 +3.714778E+02 
 +8.760308E+02 -1.316328E+01 +8.457866E-01 -1.316328E+01 +4.868457E+02 -2.933119E+01 +8.457866E-01 -2.933119E+01 +3.868926E+02 
 +8.727416E+02 -1.447337E+01 -7.079901E-01 -1.447337E+01 +4.701048E+02 -4.130523E+01 -7.079901E-01 -4.130523E+01 +3.743033E+02 
 +8.635412E+02 -8.112149E+00 -6.749343E+00 -8.112149E+00 +4.574766E+02 -4.185762E+01 -6.749343E+00 -4.185762E+01 +3.593451E+02 
 +8.472777E+02 +1.416042E-01 +5.301536E+00 +1.416042E-01 +4.664071E+02 -2.073002E+01 +5.301536E+00 -2.073002E+01 +3.575706E+02 
 +8.531076E+02 +6.000031E+00 +1.108952E+01 +6.000031E+00 +4.821962E+02 -8.975189E+00 +1.108952E+01 -8.975189E+00 +3.595571E+02 
 +8.522225E+02 +7.105841E+00 +1.707461E+01 +7.105841E+00 +4.843268E+02 -1.031542E+01 +1.707461E+01 -1.031542E+01 +3.588076E+02 
 +8.466557E+02 +1.032602E+01 +2.043001E+01 +1.032602E+01 +4.790528E+02 -4.684715E+00 +2.043001E+01 -4.684715E+00 +3.473155E+02 
 +8.656504E+02 +9.375415E+00 +1.627861E+00 +9.375415E+00 +4.825630E+02 +1.900831E+01 +1.627861E+00 +1.900831E+01 +3.528458E+02 
 +8.630013E+02 +1.398989E+01 +4.886380E+00 +1.398989E+01 +4.901783E+02 +2.835369E+01 +4.886380E+00 +2.835369E+01 +3.545066E+02 
 +8.636789E+02 +1.499261E+01 +1.188510E+01 +1.499261E+01 +4.973186E+02 +1.515009E+01 +1.188510E+01 +1.515009E+01 +3.345948E+02 
 +8.554438E+02 +1.316678E+01 +3.461883E+00 +1.316678E+01 +4.853980E+02 +1.756390E+01 +3.461883E+00 +1.756390E+01 +3.102800E+02 
 +8.537122E+02 +9.085024E+00 +2.154206E+00 +9.085024E+00 +4.881887E+02 +2.724877E+01 +2.154206E+00 +2.724877E+01 +3.145070E+02 
 +8.483769E+02 +5.652439E-01 +3.818753E+00 +5.652439E-01 +4.872116E+02 +1.972879E+01 +3.818753E+00 +1.972879E+01 +3.250828E+02 
 +8.473975E+02 -4.701473E+00 -1.152939E+01 -4.701473E+00 +4.996638E+02 +1.274634E+01 -1.152939E+01 +1.274634E+01 +3.518374E+02 
 +8.427895E+02 -2.127729E+00 -9.644680E+00 -2.127729E+00 +5.078199E+02 -5.649807E+00 -9.644680E+00 -5.649807E+00 +3.597358E+02 
 +8.405343E+02 -1.090752E+00 -1.410606E+01 -1.090752E+00 +4.969109E+02 -1.861496E+01 -1.410606E+01 -1.861496E+01 +3.613394E+02 
 +8.493739E+02 +8.128127E+00 -1.208928E+01 +8.128127E+00 +4.901231E+02 -1.316296E+01 -1.208928E+01 -1.316296E+01 +3.670849E+02 
 +8.512124E+02 +1.208537E+01 -4.426910E+00 +1.208537E+01 +4.832793E+02 +2.884254E+00 -4.426910E+00 +2.884254E+00 +3.657442E+02 
 +8.668428E+02 +1.060598E+01 -6.682849E-01 +1.060598E+01 +4.791759E+02 +2.305179E+00 -6.682849E-01 +2.305179E+00 +3.658826E+02 
 +8.715417E+02 +5.430311E+00 -1.595739E+01 +5.430311E+00 +4.801735E+02 -2.383906E+00 -1.595739E+01 -2.383906E+00 +3.586344E+02 
 +8.693257E+02 -1.629516E+00 -7.267035E+00 -1.629516E+00 +4.911666E+02 -3.651060E+00 -7.267035E+00 -3.651060E+00 +3.691784E+02 
 +8.806075E+02 -1.351601E+01 +1.320513E+01 -1.351601E+01 +5.007080E+02 -1.632545E+01 +1.320513E+01 -1.632545E+01 +3.865570E+02 
 +8.803594E+02 -1.503588E+01 +9.602085E-01 -1.503588E+01 +4.866867E+02 -2.907737E+01 +9.602085E-01 -2.907737E+01 +3.769090E+02 
 +8.875610E+02 -7.058019E+00 -1.069921E+01 -7.058019E+00 +4.829059E+02 -2.702959E+01 -1.069921E+01 -2.702959E+01 +3.769303E+02 
 +8.480697E+02 +2.307970E-01 +9.215143E+00 +2.307970E-01 +4.695481E+02 -1.531921E+01 +9.215143E+00 -1.531921E+01 +3.562724E+02 
 +8.474363E+02 +1.054119E+00 +1.587886E+01 +1.054119E+00 +4.809929E+02 -1.290743E+01 +1.587886E+01 -1.290743E+01 +3.491874E+02 
 +8.476240E+02 +6.111968E+00 +2.000257E+01 +6.111968E+00 +4.870604E+02 -1.366456E+01 +2.000257E+01 -1.366456E+01 +3.485953E+02 
 +8.415913E+02 +1.021899E+01 +1.550168E+01 +1.021899E+01 +4.877669E+02 -1.473395E+01 +1.550168E+01 -1.473395E+01 +3.288547E+02 
 +8.716901E+02 +1.113785E+01 -3.429342E+00 +1.113785E+01 +5.071565E+02 -1.296084E+01 -3.429342E+00 -1.296084E+01 +3.095642E+02 
 +8.680840E+02 +1.942851E+01 +1.207955E+01 +1.942851E+01 +5.063414E+02 -4.753134E+00 +1.207955E+01 -4.753134E+00 +3.051943E+02 
 +8.646919E+02 +1.635242E+01 +1.614467E+01 +1.635242E+01 +5.041465E+02 -2.943010E+00 +1.614467E+01 -2.943010E+00 +3.189146E+02 
 +8.544895E+02 +1.208526E+01 +9.526368E+00 +1.208526E+01 +4.901497E+02 +1.895286E+00 +9.526368E+00 +1.895286E+00 +3.045558E+02 
 +8.523198E+02 +7.654051E+00 +7.380665E+00 +7.654051E+00 +4.771374E+02 +2.254049E+01 +7.380665E+00 +2.254049E+01 +3.004258E+02 
 +8.569786E+02 -2.414730E+00 -6.514536E+00 -2.414730E+00 +4.858532E+02 +3.029492E+01 -6.514536E+00 +3.029492E+01 +3.307950E+02 
 +8.315841E+02 -7.615995E+00 -1.625281E+01 -7.615995E+00 +4.689489E+02 +1.358108E+01 -1.625281E+01 +1.358108E+01 +3.555750E+02 
 +8.322017E+02 -1.185083E+01 -1.893857E+01 -1.185083E+01 +4.830756E+02 +2.748655E+00 -1.893857E+01 +2.748655E+00 +3.679702E+02 
 +8.430025E+02 -1.109138E+01 -2.527826E+01 -1.109138E+01 +4.928054E+02 -2.396851E+00 -2.527826E+01 -2.396851E+00 +3.688353E+02 
 +8.598496E+02 +3.972966E+00 -2.007418E+01 +3.972966E+00 +4.952226E+02 -3.121501E+00 -2.007418E+01 -3.121501E+00 +3.662266E+02 
 +8.561133E+02 +8.265054E+00 -8.584207E+00 +8.265054E+00 +4.769077E+02 +1.501631E+00 -8.584207E+00 +1.501631E+00 +3.647111E+02 
 +8.585462E+02 +5.633437E+00 -4.993200E+00 +5.633437E+00 +4.650633E+02 +2.506469E+00 -4.993200E+00 +2.506469E+00 +3.663945E+02 
 +8.652800E+02 +5.922625E+00 -1.025651E+01 +5.922625E+00 +4.786799E+02 +4.268334E+00 -1.025651E+01 +4.268334E+00 +3.643760E+02 
 +8.758273E+02 -3.310534E-01 -1.556342E+00 -3.310534E-01 +5.031760E+02 -2.261194E+00 -1.556342E+00 -2.261194E+00 +3.747067E+02 
 +8.714397E+02 -1.372526E+01 +1.166684E+01 -1.372526E+01 +4.905405E+02 -2.144779E+01 +1.166684E+01 -2.144779E+01 +3.701263E+02 
 +8.718671E+02 -1.514019E+01 +2.494088E+00 -1.514019E+01 +4.806701E+02 -2.772805E+01 +2.494088E+00 -2.772805E+01 +3.671584E+02 
 +8.782934E+02 -6.649855E+00 -1.542543E-01 -6.649855E+00 +4.930962E+02 -2.281372E+01 -1.542543E-01 -2.281372E+01 +3.796419E+02 
 +8.565348E+02 +1.892415E+00 +1.247850E+01 +1.892415E+00 +4.864718E+02 -1.233599E+01 +1.247850E+01 -1.233599E+01 +3.647413E+02 
 +8.542982E+02 +9.784514E-01 +1.469357E+01 +9.784514E-01 +4.895518E+02 -7.235126E+00 +1.469357E+01 -7.235126E+00 +3.551166E+02 
 +8.535537E+02 +5.462111E+00 +1.552707E+01 +5.462111E+00 +4.968644E+02 -5.894408E+00 +1.552707E+01 -5.894408E+00 +3.532975E+02 
 +8.506192E+02 +1.177214E+01 -2.806518E-01 +1.177214E+01 +4.950762E+02 -8.027655E+00 -2.806518E-01 -8.027655E+00 +3.307754E+02 
 +8.653828E+02 +1.260525E+01 -1.525183E+01 +1.260525E+01 +4.994776E+02 -5.711081E+00 -1.525183E+01 -5.711081E+00 +3.038649E+02 
 +8.677355E+02 +1.417128E+01 +2.298463E+00 +1.417128E+01 +5.000575E+02 -3.201959E-01 +2.298463E+00 -3.201959E-01 +2.966445E+02 
 +8.716100E+02 +1.275997E+01 +5.713160E+00 +1.275997E+01 +5.052076E+02 -1.856076E+00 +5.713160E+00 -1.856076E+00 +3.160289E+02 
 +8.640214E+02 +1.005416E+01 +5.167172E+00 +1.005416E+01 +5.004506E+02 -7.206286E+00 +5.167172E+00 -7.206286E+00 +3.209561E+02 
 +8.581260E+02 +3.267768E+00 +1.664226E+01 +3.267768E+00 +4.813897E+02 -5.568571E+00 +1.664226E+01 -5.568571E+00 +3.162333E+02 
 +8.379111E+02 -2.950738E+00 -2.873620E+00 -2.950738E+00 +4.596853E+02 +1.110260E+01 -2.873620E+00 +1.110260E+01 +3.295580E+02 
TENSORS Strain float 
 +4.749220E-03 -3.118286E-05 -2.587536E-04 -3.118286E-05 -1.400566E-04 +7.517653E-05 -2.587536E-04 +7.517653E-05 +2.132152E-04 
 +4.748941E-03 -7.274469E-06 -2.936823E-04 -7.274469E-06 -5.000736E-05 -1.196201E-04 -2.936823E-04 -1.196201E-04 +2.134992E-04 
 +4.780145E-03 +1.407858E-06 -3.525322E-04 +1.407858E-06 +7.286678E-05 -7.912903E-05 -3.525322E-04 -7.912903E-05 +7.669604E-05 
 +4.921295E-03 +1.234476E-04 -2.405069E-04 +1.234476E-04 +8.239163E-05 +8.446999E-05 -2.405069E-04 +8.446999E-05 -2.993745E-05 
 +5.034448E-03 +2.435669E-05 -1.649346E-04 +2.435669E-05 -1.044502E-04 +1.943638E-04 -1.649346E-04 +1.943638E-04 -1.376242E-04 
 +5.115816E-03 -9.960527E-05 -6.699133E-05 -9.960527E-05 -1.721462E-04 +1.921993E-04 -6.699133E-05 +1.921993E-04 -2.964692E-04 
 +5.104748E-03 -1.309654E-04 +1.945372E-05 -1.309654E-04 -1.467477E-04 +1.188071E-04 +1.945372E-05 +1.188071E-04 -2.895873E-04 
 +5.149846E-03 -1.174472E-04 +2.142084E-05 -1.174472E-04 -1.284624E-04 +4.787778E-05 +2.142084E-05 +4.787778E-05 -2.214308E-04 
 +5.084202E-03 -1.419461E-04 -2.568674E-05 -1.419461E-04 -8.609930E-06 +8.046301E-05 -2.568674E-05 +8.046301E-05 -2.246556E-04 
 +5.029022E-03 -1.424274E-04 -9.037027E-05 -1.424274E-04 +8.680458E-05 +1.456818E-04 -9.037027E-05 +1.456818E-04 -2.415258E-04 
 +4.961878E-03 -1.212468E-04 -5.389993E-05 -1.212468E-04 +1.527502E-04 +1.162142E-04 -5.389993E-05 +1.162142E-04 -2.455433E-04 
 +4.986940E-03 -9.009696E-05 -5.548213E-05 -9.009696E-05 +1.944064E-04 -2.893659E-06 -5.548213E-05 -2.893659E-06 -3.444387E-04 
 +5.100634E-03 +6.953204E-05 -4.904307E-05 +6.953204E-05 +1.860082E-04 -3.093896E-05 -4.904307E-05 -3.093896E-05 -5.048344E-04 
 +5.046045E-03 +1.088315E-04 -4.862578E-05 +1.088315E-04 +2.541439E-04 -2.484917E-05 -4.862578E-05 -2.484917E-05 -4.796232E-04 
 +4.979056E-03 +1.546465E-04 -1.328951E-04 +1.546465E-04 +3.112058E-04 -1.849064E-05 -1.328951E-04 -1.849064E-05 -2.557764E-04 
 +4.973766E-03 +1.807214E-04 -1.724939E-04 +1.807214E-04 +2.992788E-04 +7.949102E-05 -1.724939E-04 +7.949102E-05 -1.048781E-04 
 +5.012455E-03 +2.272898E-04 -2.093825E-04 +2.272898E-04 +1.425232E-04 +1.803632E-04 -2.093825E-04 +1.803632E-04 -4.142244E-05 
 +5.033142E-03 +3.543952E-05 +2.068528E-06 +3.543952E-05 -4.757326E-05 +1.783326E-04 +2.068528E-06 +1.783326E-04 +5.340642E-05 
 +4.959588E-03 -1.087710E-04 +9.906053E-05 -1.087710E-04 -1.845067E-04 +1.537086E-04 +9.906053E-05 +1.537086E-04 +1.964679E-04 
 +4.972856E-03 -1.392201E-04 +1.506804E-04 -1.392201E-04 -2.478698E-04 +2.372652E-04 +1.506804E-04 +2.372652E-04 +2.454102E-04 
 +4.994303E-03 -8.511738E-05 +4.668154E-05 -8.511738E-05 -2.256052E-04 +2.831241E-04 +4.668154E-05 +2.831241E-04 +1.995391E-04 
 +4.852569E-03 -2.087596E-05 -3.312189E-04 -2.087596E-05 -2.739273E-04 -3.539518E-05 -3.312189E-04 -3.539518E-05 +2.963591E-04 
 +4.831896E-03 -4.037783E-05 -3.863531E-04 -4.037783E-05 -1.221224E-04 -6.930928E-05 -3.863531E-04 -6.930928E-05 +1.527127E-04 
 +4.776951E-03 +3.323072E-05 -4.339097E-04 +3.323072E-05 -4.399332E-05 -4.925562E-05 -4.339097E-04 -4.925562E-05 +2.878161E-05 
 +4.841035E-03 +5.080592E-05 -1.930242E-04 +5.080592E-05 -7.353375E-05 +6.123937E-05 -1.930242E-04 +6.123937E-05 -2.245533E-05 
 +4.935957E-03 +3.147388E-05 -1.307148E-04 +3.147388E-05 -1.207272E-04 +1.659743E-04 -1.307148E-04 +1.659743E-04 -1.041912E-04 
 +5.041589E-03 -2.635495E-05 -6.718959E-05 -2.635495E-05 -1.397299E-04 +2.484581E-04 -6.718959E-05 +2.484581E-04 -3.308402E-04 
 +5.123149E-03 -7.487517E-05 +1.014323E-05 -7.487517E-05 -1.476092E-04 +2.318913E-04 +1.014323E-05 +2.318913E-04 -3.870735E-04 
 +5.169819E-03 -1.288606E-04 +6.083055E-05 -1.288606E-04 -1.075591E-04 +1.282985E-04 +6.083055E-05 +1.282985E-04 -3.352579E-04 
 +5.106385E-03 -1.357687E-04 +1.697057E-05 -1.357687E-04 -2.770283E-05 +6.833772E-05 +1.697057E-05 +6.833772E-05 -2.990359E-04 
 +4.994202E-03 -1.989246E-04 -5.826311E-05 -1.989246E-04 +1.114348E-04 +7.243744E-05 -5.826311E-05 +7.243744E-05 -2.743345E-04 
 +4.933501E-03 -1.737765E-04 -6.165441E-05 -1.737765E-04 +1.658903E-04 +5.434567E-05 -6.165441E-05 +5.434567E-05 -3.528614E-04 
 +4.974148E-03 -6.365495E-05 -6.193282E-05 -6.365495E-05 +2.699584E-04 -3.170171E-06 -6.193282E-05 -3.170171E-06 -5.333488E-04 
 +5.054574E-03 +8.648143E-05 +9.948695E-06 +8.648143E-05 +4.095513E-04 -4.977134E-05 +9.948695E-06 -4.977134E-05 -6.383668E-04 
 +5.056096E-03 +8.495841E-05 -1.081673E-05 +8.495841E-05 +3.861456E-04 -4.818696E-05 -1.081673E-05 -4.818696E-05 -5.586106E-04 
 +5.036783E-03 +1.303761E-04 -8.126480E-05 +1.303761E-04 +3.337548E-04 +2.649686E-05 -8.126480E-05 +2.649686E-05 -4.078672E-04 
 +5.002802E-03 +1.769443E-04 -1.372597E-04 +1.769443E-04 +3.023926E-04 +7.222893E-05 -1.372597E-04 +7.222893E-05 -2.980751E-04 
 +4.999358E-03 +1.979454E-04 -1.928189E-04 +1.979454E-04 +2.106065E-04 +1.274587E-04 -1.928189E-04 +1.274587E-04 -1.371407E-04 
 +4.978901E-03 +5.931321E-05 -6.884800E-05 +5.931321E-05 +2.887187E-07 +1.423920E-04 -6.884800E-05 +1.423920E-04 +4.442433E-05 
 +4.976252E-03 -5.274224E-05 +1.214683E-06 -5.274224E-05 -1.720419E-04 +9.394770E-05 +1.214683E-06 +9.394770E-05 +1.933323E-04 
 +5.013572E-03 -9.545247E-05 +8.269568E-05 -9.545247E-05 -2.918872E-04 +5.359080E-05 +8.269568E-05 +5.359080E-05 +3.199162E-04 
 +5.038787E-03 -8.740930E-05 +2.822091E-05 -8.740930E-05 -3.709565E-04 +3.733336E-06 +2.822091E-05 +3.733336E-06 +3.957129E-04 
 +4.896460E-03 -2.852016E-05 -2.625761E-04 -2.852016E-05 -1.647322E-04 -8.387115E-05 -2.625761E-04 -8.387115E-05 +1.701993E-04 
 +4.915667E-03 -9.522928E-05 -3.911100E-04 -9.522928E-05 -1.599496E-04 -1.068211E-04 -3.911100E-04 -1.068211E-04 +5.995566E-05 
 +4.847395E-03 -2.725137E-05 -4.644566E-04 -2.725137E-05 -1.191174E-04 -6.017459E-05 -4.644566E-04 -6.017459E-05 -2.622063E-05 
 +4.881734E-03 +1.353675E-06 -1.794888E-04 +1.353675E-06 -8.701157E-05 +1.299478E-05 -1.794888E-04 +1.299478E-05 -4.688576E-05 
 +4.887752E-03 +4.328056E-05 -1.220549E-04 +4.328056E-05 -9.392550E-05 +1.156117E-04 -1.220549E-04 +1.156117E-04 -1.279531E-04 
 +4.992629E-03 -9.707090E-06 -4.710456E-05 -9.707090E-06 -9.907154E-05 +2.074774E-04 -4.710456E-05 +2.074774E-04 -3.416978E-04 
 +5.035383E-03 -6.121718E-05 +1.692355E-05 -6.121718E-05 -1.124718E-04 +2.548977E-04 +1.692355E-05 +2.548977E-04 -3.863019E-04 
 +5.116975E-03 -9.954339E-05 +3.996803E-05 -9.954339E-05 -9.866168E-05 +2.701401E-04 +3.996803E-05 +2.701401E-04 -3.501424E-04 
 +5.080088E-03 -9.396035E-05 +4.648257E-05 -9.396035E-05 -9.306637E-06 +1.783588E-04 +4.648257E-05 +1.783588E-04 -3.433574E-04 
 +4.997902E-03 -1.399912E-04 -1.911220E-05 -1.399912E-04 +8.614064E-05 +7.361425E-05 -1.911220E-05 +7.361425E-05 -3.225038E-04 
 +4.921383E-03 -1.651008E-04 -6.291254E-05 -1.651008E-04 +1.519437E-04 +1.833727E-05 -6.291254E-05 +1.833727E-05 -3.712500E-04 
 +4.997777E-03 +3.447104E-05 -1.328376E-05 +3.447104E-05 +2.797164E-04 -8.785666E-06 -1.328376E-05 -8.785666E-06 -5.149370E-04 
 +5.022061E-03 +6.802771E-05 +3.774005E-05 +6.802771E-05 +3.685384E-04 -2.330876E-05 +3.774005E-05 -2.330876E-05 -5.673401E-04 
 +5.069619E-03 +7.947876E-05 +5.737690E-05 +7.947876E-05 +3.319353E-04 -2.566509E-05 +5.737690E-05 -2.566509E-05 -5.270113E-04 
 +5.099857E-03 +1.388666E-04 -1.603452E-05 +1.388666E-04 +3.099895E-04 +3.096536E-05 -1.603452E-05 +3.096536E-05 -4.910658E-04 
 +5.068076E-03 +1.728844E-04 -6.950113E-05 +1.728844E-04 +3.076994E-04 +1.120137E-04 -6.950113E-05 +1.120137E-04 -4.131191E-04 
 +5.034694E-03 +1.271041E-04 -1.140663E-04 +1.271041E-04 +2.759990E-04 +2.113336E-04 -1.140663E-04 +2.113336E-04 -2.742711E-04 
 +4.961763E-03 -6.710442E-05 -1.759302E-04 -6.710442E-05 +1.550889E-04 +2.072445E-04 -1.759302E-04 +2.072445E-04 -1.022831E-04 
 +4.967545E-03 -9.496931E-05 -1.507996E-04 -9.496931E-05 +3.563869E-05 +1.220178E-04 -1.507996E-04 +1.220178E-04 +6.859686E-05 
 +4.979195E-03 -1.594230E-04 -7.864024E-05 -1.594230E-04 -9.008025E-06 +8.134960E-05 -7.864024E-05 +8.134960E-05 +1.613020E-04 
 +4.964383E-03 -1.522367E-04 -3.439138E-05 -1.522367E-04 -8.822194E-05 +1.360150E-05 -3.439138E-05 +1.360150E-05 +2.186493E-04 
 +4.908325E-03 -1.113106E-05 -1.972523E-04 -1.113106E-05 -4.633001E-05 +8.398041E-06 -1.972523E-04 +8.398041E-06 +1.120898E-04 
 +4.939514E-03 -4.803072E-05 -2.926664E-04 -4.803072E-05 -1.240507E-04 +2.832996E-05 -2.926664E-04 +2.832996E-05 +9.170141E-05 
 +4.900277E-03 -3.258710E-05 -3.713638E-04 -3.258710E-05 -1.818805E-04 +2.107778E-05 -3.713638E-04 +2.107778E-05 +2.196532E-05 
 +5.019824E-03 -2.892753E-06 -1.177940E-04 -2.892753E-06 -2.090349E-04 -1.465831E-05 -1.177940E-04 -1.465831E-05 -2.156182E-05 
 +4.920488E-03 +9.296126E-05 -1.107402E-04 +9.296126E-05 -1.440678E-04 +4.033858E-05 -1.107402E-04 +4.033858E-05 -1.338893E-04 
 +4.882013E-03 +4.016605E-05 -4.145751E-05 +4.016605E-05 -6.801007E-05 +1.573155E-04 -4.145751E-05 +1.573155E-04 -2.896655E-04 
 +4.918180E-03 -5.971166E-05 +3.693074E-05 -5.971166E-05 -7.429747E-06 +2.390191E-04 +3.693074E-05 +2.390191E-04 -3.060355E-04 
 +5.028591E-03 -1.073910E-04 +3.204767E-05 -1.073910E-04 +1.675016E-05 +3.253658E-04 +3.204767E-05 +3.253658E-04 -3.271768E-04 
 +5.060451E-03 -7.545993E-05 +2.123605E-05 -7.545993E-05 +3.415147E-05 +2.979192E-04 +2.123605E-05 +2.979192E-04 -3.856233E-04 
 +4.985192E-03 -1.479299E-04 -7.077908E-05 -1.479299E-04 +7.778609E-05 +1.259371E-04 -7.077908E-05 +1.259371E-04 -3.639189E-04 
 +4.918585E-03 -1.519044E-04 -9.226297E-05 -1.519044E-04 +2.054357E-04 +2.824985E-05 -9.226297E-05 +2.824985E-05 -2.872104E-04 
 +4.994261E-03 +3.129278E-05 +1.224662E-06 +3.129278E-05 +2.724378E-04 +3.311651E-05 +1.224662E-06 +3.311651E-05 -3.078353E-04 
 +5.043245E-03 +2.729683E-05 +3.035056E-05 +2.729683E-05 +2.109080E-04 +1.880844E-05 +3.035056E-05 +1.880844E-05 -3.436375E-04 
 +5.094068E-03 +3.316121E-05 +6.299834E-05 +3.316121E-05 +1.785676E-04 -1.352199E-05 +6.299834E-05 -1.352199E-05 -3.718011E-04 
 +5.139574E-03 +1.185201E-04 +6.049090E-05 +1.185201E-04 +1.883821E-04 +1.584871E-06 +6.049090E-05 +1.584871E-06 -3.747621E-04 
 +5.125230E-03 +1.666148E-04 +6.817303E-05 +1.666148E-04 +2.647955E-04 +8.141102E-05 +6.817303E-05 +8.141102E-05 -3.211288E-04 
 +5.065985E-03 +4.719037E-05 -4.349917E-06 +4.719037E-05 +2.262542E-04 +1.875621E-04 -4.349917E-06 +1.875621E-04 -2.035936E-04 
 +4.960884E-03 -1.471021E-04 -1.851138E-04 -1.471021E-04 +9.250851E-05 +1.968900E-04 -1.851138E-04 +1.968900E-04 -4.865994E-05 
 +4.958397E-03 -1.110706E-04 -1.977303E-04 -1.110706E-04 +7.463052E-05 +1.461712E-04 -1.977303E-04 +1.461712E-04 +6.185583E-05 
 +4.947276E-03 -1.586241E-04 -1.443697E-04 -1.586241E-04 +1.232620E-04 +8.423532E-05 -1.443697E-04 +8.423532E-05 +1.205241E-04 
 +4.927984E-03 -1.848589E-04 -6.454210E-05 -1.848589E-04 +7.952449E-05 +1.871173E-05 -6.454210E-05 +1.871173E-05 +1.237127E-04 
 +4.952934E-03 -4.006257E-05 -7.883879E-05 -4.006257E-05 -2.606235E-05 +4.909673E-05 -7.883879E-05 +4.909673E-05 +8.254231E-05 
 +4.955102E-03 +1.832372E-05 -1.460962E-04 +1.832372E-05 -1.251659E-04 +7.741087E-05 -1.460962E-04 +7.741087E-05 +8.199247E-05 
 +4.916031E-03 +9.458100E-06 -2.184398E-04 +9.458100E-06 -1.827162E-04 +1.104629E-04 -2.184398E-04 +1.104629E-04 +6.500742E-05 
 +5.072342E-03 +3.437885E-05 -2.995113E-05 +3.437885E-05 -2.857963E-04 +1.014820E-04 -2.995113E-05 +1.014820E-04 +4.665428E-05 
 +5.027933E-03 +1.698302E-04 -1.009580E-04 +1.698302E-04 -2.208914E-04 +3.731259E-06 -1.009580E-04 +3.731259E-06 -2.850548E-05 
 +4.840410E-03 +1.749106E-04 -9.597459E-05 +1.749106E-04 -9.667606E-06 -3.386076E-05 -9.597459E-05 -3.386076E-05 -8.044875E-05 
 +4.780093E-03 +1.153813E-04 -5.139963E-05 +1.153813E-04 +1.489503E-04 +7.645006E-05 -5.139963E-05 +7.645006E-05 -9.951092E-05 
 +4.931816E-03 +1.187000E-05 -1.658217E-05 +1.187000E-05 +1.878514E-04 +2.352564E-04 -1.658217E-05 +2.352564E-04 -1.584086E-04 
 +4.984323E-03 +9.356274E-06 -4.561780E-05 +9.356274E-06 +1.122349E-04 +2.589873E-04 -4.561780E-05 +2.589873E-04 -1.987312E-04 
 +4.921295E-03 -4.903762E-05 -1.319506E-04 -4.903762E-05 +1.096712E-04 +1.743161E-04 -1.319506E-04 +1.743161E-04 -1.759609E-04 
 +4.906185E-03 -1.916478E-05 -1.079868E-04 -1.916478E-05 +2.224730E-04 +1.273261E-04 -1.079868E-04 +1.273261E-04 -9.368405E-05 
 +4.985083E-03 +8.261564E-06 -2.688016E-05 +8.261564E-06 +2.363013E-04 +1.265836E-04 -2.688016E-05 +1.265836E-04 -1.339342E-04 
 +5.046300E-03 -6.383521E-06 +5.274751E-06 -6.383521E-06 +1.444126E-04 +1.046051E-04 +5.274751E-06 +1.046051E-04 -1.976805E-04 
 +5.095421E-03 -1.514419E-05 +4.440815E-05 -1.514419E-05 +4.783838E-05 +6.004776E-05 +4.440815E-05 +6.004776E-05 -2.069291E-04 
 +5.142751E-03 +7.378473E-05 +9.553656E-05 +7.378473E-05 -2.813698E-05 +1.192477E-05 +9.553656E-05 +1.192477E-05 -1.352488E-04 
 +5.161974E-03 +6.700432E-05 +1.211825E-04 +6.700432E-05 -1.628437E-04 -5.816504E-05 +1.211825E-04 -5.816504E-05 -8.133231E-06 
 +5.109127E-03 -6.897735E-05 +6.312214E-05 -6.897735E-05 -2.347660E-04 -1.063082E-05 +6.312214E-05 -1.063082E-05 +5.934796E-05 
 +5.007578E-03 -1.807631E-04 -1.260175E-04 -1.807631E-04 -9.337056E-05 +1.333177E-04 -1.260175E-04 +1.333177E-04 +9.962569E-05 
 +4.966024E-03 -1.252609E-04 -1.553785E-04 -1.252609E-04 +2.267754E-05 +1.835557E-04 -1.553785E-04 +1.835557E-04 +9.667315E-05 
 +4.945805E-03 -1.481648E-04 -1.540394E-04 -1.481648E-04 +6.912001E-05 +1.416958E-04 -1.540394E-04 +1.416958E-04 +1.057047E-04 
 +4.989769E-03 -2.153643E-04 -6.278833E-05 -2.153643E-04 +9.332580E-05 +6.372862E-05 -6.278833E-05 +6.372862E-05 +1.063887E-04 
 +4.926358E-03 -2.192767E-04 +2.457784E-05 -2.192767E-04 +8.245134E-05 +9.636473E-05 +2.457784E-05 +9.636473E-05 +2.647520E-05 
 +4.973018E-03 -1.756922E-04 -1.581723E-06 -1.756922E-04 +1.362026E-05 +1.161352E-04 -1.581723E-06 +1.161352E-04 +5.859713E-05 
 +4.959492E-03 -1.964429E-04 -5.645875E-05 -1.964429E-04 -3.094139E-05 +1.303409E-04 -5.645875E-05 +1.303409E-04 +8.464334E-05 
 +4.995542E-03 -1.595977E-04 +2.204819E-05 -1.595977E-04 -1.631390E-06 +6.135212E-05 +2.204819E-05 +6.135212E-05 +8.415906E-05 
 +5.102325E-03 -3.395253E-06 -1.053590E-04 -3.395253E-06 -1.521130E-06 -6.743102E-05 -1.053590E-04 -6.743102E-05 +4.469912E-05 
 +5.029967E-03 +4.823080E-05 -1.661508E-04 +4.823080E-05 -1.143006E-05 -8.579273E-05 -1.661508E-04 -8.579273E-05 +1.067761E-05 
 +4.813382E-03 +9.506869E-05 -1.832321E-04 +9.506869E-05 +1.040275E-06 -5.714250E-05 -1.832321E-04 -5.714250E-05 -2.466509E-06 
 +4.904845E-03 +1.058294E-04 -1.302334E-04 +1.058294E-04 +5.607959E-05 -5.229867E-06 -1.302334E-04 -5.229867E-06 +6.501679E-05 
 +4.834597E-03 +1.243890E-04 -1.392658E-04 +1.243890E-04 +1.996018E-04 +9.214290E-05 -1.392658E-04 +9.214290E-05 +1.081668E-04 
 +4.797664E-03 +6.466720E-05 -1.624871E-04 +6.466720E-05 +3.065996E-04 +8.910541E-05 -1.624871E-04 +8.910541E-05 +1.455428E-04 
 +4.774983E-03 -1.163556E-05 -1.424602E-04 -1.163556E-05 +2.914537E-04 +2.626704E-05 -1.424602E-04 +2.626704E-05 +1.429447E-04 
 +5.004924E-03 -3.291008E-05 -1.935046E-05 -3.291008E-05 +2.495260E-04 +7.763525E-05 -1.935046E-05 +7.763525E-05 -4.911972E-05 
 +5.040268E-03 -5.140691E-05 -4.474144E-06 -5.140691E-05 +1.793892E-04 +1.539296E-04 -4.474144E-06 +1.539296E-04 -1.508133E-04 
 +5.064307E-03 -6.236659E-05 +5.470935E-05 -6.236659E-05 +4.848955E-05 +1.685973E-04 +5.470935E-05 +1.685973E-04 -1.447971E-04 
 +5.138952E-03 +1.129373E-05 +7.723338E-05 +1.129373E-05 -1.417319E-04 +1.017027E-04 +7.723338E-05 +1.017027E-04 -1.276306E-04 
 +5.135007E-03 +9.675094E-07 +7.707096E-05 +9.675094E-07 -3.111151E-04 -2.484168E-05 +7.707096E-05 -2.484168E-05 +2.316484E-05 
 +5.140267E-03 -4.892123E-05 +6.643460E-05 -4.892123E-05 -3.224908E-04 -8.650129E-06 +6.643460E-05 -8.650129E-06 +1.174886E-04 
 +5.086751E-03 -1.238333E-04 -8.630662E-05 -1.238333E-04 -2.321521E-04 +1.068896E-04 -8.630662E-05 +1.068896E-04 +9.972887E-05 
 +5.010186E-03 -8.715554E-05 -9.061418E-05 -8.715554E-05 -5.638038E-05 +1.895720E-04 -9.061418E-05 +1.895720E-04 +1.012881E-04 
 +4.991303E-03 -1.288103E-04 -1.327458E-04 -1.288103E-04 +5.261650E-05 +1.884176E-04 -1.327458E-04 +1.884176E-04 +5.805621E-05 
 +5.014032E-03 -2.281242E-04 -4.211868E-05 -2.281242E-04 +7.119260E-05 +1.175828E-04 -4.211868E-05 +1.175828E-04 +4.828498E-06 
 +4.880243E-03 -1.816820E-04 +5.944423E-05 -1.816820E-04 +1.024374E-04 +8.127153E-05 +5.944423E-05 +8.127153E-05 +2.544253E-05 
 +4.950000E-03 -1.449062E-04 +6.650258E-05 -1.449062E-04 +4.877997E-05 +1.270480E-04 +6.650258E-05 +1.270480E-04 +3.526320E-05 
 +4.965970E-03 -1.322569E-04 -1.948727E-05 -1.322569E-04 +4.320926E-05 +1.367077E-04 -1.948727E-05 +1.367077E-04 +7.047757E-05 
 +4.929127E-03 -1.011249E-04 -1.001016E-05 -1.011249E-04 +9.546456E-05 +2.096455E-05 -1.001016E-05 +2.096455E-05 +6.955815E-05 
 +5.176098E-03 +3.766060E-05 -5.581150E-05 +3.766060E-05 +7.414492E-05 -1.737289E-04 -5.581150E-05 -1.737289E-04 -1.117728E-04 
 +5.247297E-03 +1.014202E-04 -1.074365E-04 +1.014202E-04 +1.363122E-05 -1.922983E-04 -1.074365E-04 -1.922983E-04 -1.783628E-04 
 +4.929624E-03 +8.578159E-05 -2.093362E-04 +8.578159E-05 +2.831988E-05 -5.916944E-05 -2.093362E-04 -5.916944E-05 -8.517726E-06 
 +4.861250E-03 +5.893627E-05 -2.012461E-04 +5.893627E-05 +1.418612E-04 +3.142635E-05 -2.012461E-04 +3.142635E-05 +1.572326E-04 
 +4.776223E-03 +7.660555E-05 -1.938355E-04 +7.660555E-05 +2.456371E-04 +8.813048E-05 -1.938355E-04 +8.813048E-05 +2.158015E-04 
 +4.716523E-03 +9.628467E-05 -1.894873E-04 +9.628467E-05 +3.374442E-04 +8.372373E-05 -1.894873E-04 +8.372373E-05 +2.796722E-04 
 +4.672156E-03 +7.870109E-05 -1.675692E-04 +7.870109E-05 +4.146919E-04 +3.743070E-05 -1.675692E-04 +3.743070E-05 +2.509184E-04 
 +4.952290E-03 +5.232772E-06 -4.211255E-05 +5.232772E-06 +3.209673E-04 +7.616541E-05 -4.211255E-05 +7.616541E-05 +1.004667E-04 
 +5.070600E-03 -5.496832E-05 -1.378158E-05 -5.496832E-05 +1.766062E-04 +1.674426E-04 -1.378158E-05 +1.674426E-04 -5.813862E-05 
 +5.110926E-03 -1.486071E-05 +6.953377E-05 -1.486071E-05 +8.707577E-05 +1.941152E-04 +6.953377E-05 +1.941152E-04 -1.423466E-04 
 +5.018561E-03 -1.601420E-05 +4.711118E-05 -1.601420E-05 -6.207871E-05 +9.888736E-05 +4.711118E-05 +9.888736E-05 -1.344252E-04 
 +5.019263E-03 -6.452196E-05 +7.679882E-06 -6.452196E-05 -2.135265E-04 -3.101923E-05 +7.679882E-06 -3.101923E-05 -1.125516E-04 
 +5.219945E-03 -5.189401E-05 +4.556727E-05 -5.189401E-05 -2.844154E-04 -3.339536E-05 +4.556727E-05 -3.339536E-05 -7.424199E-05 
 +5.120293E-03 -5.115154E-05 -4.487047E-05 -5.115154E-05 -2.124519E-04 +5.468274E-05 -4.487047E-05 +5.468274E-05 -5.328199E-05 
 +5.092319E-03 -1.226653E-05 -3.639269E-05 -1.226653E-05 -8.945678E-05 +1.004052E-04 -3.639269E-05 +1.004052E-04 -7.782661E-05 
 +5.093943E-03 -7.940999E-05 -3.798004E-05 -7.940999E-05 +2.750027E-05 +9.105587E-05 -3.798004E-05 +9.105587E-05 -1.354026E-04 
 +4.935515E-03 -1.953299E-04 +6.591869E-05 -1.953299E-04 +1.122331E-04 +7.153759E-05 +6.591869E-05 +7.153759E-05 -9.839519E-05 
 +4.903044E-03 -1.936077E-04 +8.840455E-05 -1.936077E-04 +2.938487E-05 +1.122337E-04 +8.840455E-05 +1.122337E-04 +1.684267E-05 
 +4.928180E-03 -1.682021E-04 +4.225632E-05 -1.682021E-04 +4.523901E-05 +1.247573E-04 +4.225632E-05 +1.247573E-04 +4.755051E-05 
 +4.931096E-03 -9.905626E-05 -3.928288E-05 -9.905626E-05 +5.412000E-05 +1.050013E-04 -3.928288E-05 +1.050013E-04 +1.155778E-04 
 +4.942418E-03 -3.755807E-05 -3.460250E-05 -3.755807E-05 +1.043630E-04 +5.520997E-06 -3.460250E-05 +5.520997E-06 +4.559005E-05 
 +5.253741E-03 +6.302676E-05 -5.391665E-05 +6.302676E-05 +1.471186E-04 -1.625885E-04 -5.391665E-05 -1.625885E-04 -2.285621E-04 
 +5.213021E-03 +9.339265E-06 -1.155071E-04 +9.339265E-06 +1.205050E-04 -2.080272E-04 -1.155071E-04 -2.080272E-04 -1.967686E-04 
 +4.958191E-03 -4.516037E-05 -1.587584E-04 -4.516037E-05 +9.486485E-05 -8.840062E-05 -1.587584E-04 -8.840062E-05 +8.391108E-05 
 +4.840829E-03 +3.592099E-05 -1.906848E-04 +3.592099E-05 +1.708646E-04 -2.662523E-05 -1.906848E-04 -2.662523E-05 +1.979192E-04 
 +4.741888E-03 +2.742878E-05 -2.206442E-04 +2.742878E-05 +2.817828E-04 -2.759343E-05 -2.206442E-04 -2.759343E-05 +2.693135E-04 
 +4.763055E-03 +2.795592E-05 -1.667273E-04 +2.795592E-05 +3.207631E-04 +5.318289E-05 -1.667273E-04 +5.318289E-05 +3.137127E-04 
 +4.781022E-03 +3.238698E-05 -1.093139E-04 +3.238698E-05 +3.020065E-04 +1.196646E-04 -1.093139E-04 +1.196646E-04 +2.594795E-04 
 +4.897976E-03 -9.114621E-06 -1.059785E-04 -9.114621E-06 +2.235856E-04 +1.078142E-04 -1.059785E-04 +1.078142E-04 +2.048613E-04 
 +5.104051E-03 +2.942277E-05 -6.709227E-05 +2.942277E-05 +1.367822E-04 +8.783155E-05 -6.709227E-05 +8.783155E-05 +1.860642E-05 
 +5.155849E-03 +2.739033E-05 +5.761806E-06 +2.739033E-05 +1.300892E-04 +5.360230E-05 +5.761806E-06 +5.360230E-05 -7.522284E-05 
 +4.863632E-03 +2.409264E-05 -1.916835E-05 +2.409264E-05 +2.006586E-04 -2.230051E-05 -1.916835E-05 -2.230051E-05 +1.012012E-05 
 +4.862006E-03 -3.206307E-05 +5.407775E-05 -3.206307E-05 +1.216707E-04 +3.182361E-05 +5.407775E-05 +3.182361E-05 -5.857770E-05 
 +5.099624E-03 -1.069090E-04 +5.657817E-05 -1.069090E-04 -1.004691E-04 +1.633855E-04 +5.657817E-05 +1.633855E-04 -1.877709E-04 
 +5.209776E-03 -7.356341E-05 +3.649649E-06 -7.356341E-05 -1.579044E-04 +2.025440E-04 +3.649649E-06 +2.025440E-04 -2.189948E-04 
 +5.173416E-03 -2.633670E-05 +2.326635E-05 -2.633670E-05 -7.614416E-05 +2.759488E-04 +2.326635E-05 +2.759488E-04 -2.216139E-04 
 +5.189729E-03 -1.022668E-04 -3.184031E-05 -1.022668E-04 -9.987005E-06 +2.939455E-04 -3.184031E-05 +2.939455E-04 -2.319125E-04 
 +4.925699E-03 -2.398417E-04 +9.749978E-05 -2.398417E-04 +1.207452E-05 +1.691849E-04 +9.749978E-05 +1.691849E-04 -1.284671E-04 
 +4.890597E-03 -2.504296E-04 +1.205777E-04 -2.504296E-04 -6.513411E-06 +1.276537E-04 +1.205777E-04 +1.276537E-04 -7.924570E-05 
 +4.944413E-03 -2.330565E-04 -1.634881E-05 -2.330565E-04 +6.650087E-06 +1.981566E-04 -1.634881E-05 +1.981566E-04 -1.843507E-05 
 +4.904172E-03 -1.390340E-04 -8.445136E-05 -1.390340E-04 +6.071779E-05 +1.655378E-04 -8.445136E-05 +1.655378E-04 +1.244597E-04 
 +4.948351E-03 -1.129164E-04 -3.444357E-05 -1.129164E-04 +8.035064E-05 +4.544021E-05 -3.444357E-05 +4.544021E-05 +8.729177E-05 
 +5.317903E-03 -1.100655E-05 -9.097685E-05 -1.100655E-05 +1.250457E-04 -3.996071E-05 -9.097685E-05 -3.996071E-05 -2.300314E-05 
 +5.127525E-03 -5.070434E-05 -2.085886E-04 -5.070434E-05 +1.523856E-04 -1.592574E-05 -2.085886E-04 -1.592574E-05 +8.426944E-05 
 +4.944165E-03 -3.833793E-05 -1.824971E-04 -3.833793E-05 +1.101274E-04 +1.447244E-05 -1.824971E-04 +1.447244E-05 +2.036698E-04 
 +4.833630E-03 +4.187463E-05 -1.454335E-04 +4.187463E-05 +1.591265E-04 -3.231527E-05 -1.454335E-04 -3.231527E-05 +2.121349E-04 
 +4.759366E-03 -1.244656E-05 -1.357113E-04 -1.244656E-05 +1.824698E-04 +3.390746E-05 -1.357113E-04 +3.390746E-05 +2.378569E-04 
 +4.861908E-03 -3.943615E-06 -9.828042E-05 -3.943615E-06 +2.610116E-05 +1.975606E-04 -9.828042E-05 +1.975606E-04 +2.452934E-04 
 +4.935047E-03 +2.671473E-05 -5.994263E-05 +2.671473E-05 -1.275989E-04 +2.447255E-04 -5.994263E-05 +2.447255E-04 +2.539703E-04 
 +4.978495E-03 -6.077394E-06 -9.067046E-05 -6.077394E-06 -9.057036E-05 +2.533024E-04 -9.067046E-05 +2.533024E-04 +1.468224E-04 
 +5.065512E-03 +3.034448E-05 -1.013930E-04 +3.034448E-05 +4.562767E-05 +3.129148E-04 -1.013930E-04 +3.129148E-04 -1.229267E-04 
 +5.054740E-03 -7.955895E-06 -6.084613E-05 -7.955895E-06 +1.583175E-04 +3.643489E-04 -6.084613E-05 +3.643489E-04 -1.861153E-04 
 +4.915000E-03 -4.787203E-06 +4.310013E-06 -4.787203E-06 +1.856393E-04 +4.246982E-04 +4.310013E-06 +4.246982E-04 -1.524494E-04 
 +4.883411E-03 -1.863184E-05 +1.025173E-04 -1.863184E-05 +1.471541E-04 +3.450936E-04 +1.025173E-04 +3.450936E-04 -1.562356E-04 
 +4.830206E-03 +3.247870E-05 +9.107468E-05 +3.247870E-05 +4.623801E-05 +1.679752E-04 +9.107468E-05 +1.679752E-04 -1.729308E-04 
 +5.177115E-03 +4.254802E-05 +2.812259E-05 +4.254802E-05 -1.896788E-04 +3.162459E-05 +2.812259E-05 +3.162459E-05 -2.449153E-04 
 +5.237782E-03 +9.117980E-05 -2.244999E-05 +9.117980E-05 -3.067597E-04 -1.435018E-04 -2.244999E-05 -1.435018E-04 -2.066296E-04 
 +5.224450E-03 +7.714320E-07 -6.935584E-05 +7.714320E-07 -1.969288E-04 -1.380067E-04 -6.935584E-05 -1.380067E-04 -1.602042E-04 
 +4.904476E-03 -2.158306E-04 +1.204405E-04 -2.158306E-04 -6.438965E-05 +1.834177E-05 +1.204405E-04 +1.834177E-05 -1.278185E-04 
 +4.911038E-03 -2.747551E-04 +8.433024E-05 -2.747551E-04 +1.810303E-06 +1.232371E-04 +8.433024E-05 +1.232371E-04 -1.016936E-04 
 +4.841481E-03 -2.784046E-04 -1.298252E-05 -2.784046E-04 +4.865629E-05 +1.513145E-04 -1.298252E-05 +1.513145E-04 -1.037101E-04 
 +4.932538E-03 -2.361549E-04 -6.844383E-05 -2.361549E-04 +5.886429E-05 +1.883703E-04 -6.844383E-05 +1.883703E-04 -1.295017E-04 
 +5.041990E-03 -1.787810E-04 -5.353623E-05 -1.787810E-04 -4.454089E-05 +1.761425E-04 -5.353623E-05 +1.761425E-04 -8.487988E-05 
 +5.320985E-03 -2.850704E-05 -1.298846E-04 -2.850704E-05 -2.690192E-04 +1.151362E-04 -1.298846E-04 +1.151362E-04 +2.451217E-05 
 +5.171050E-03 -2.200885E-05 -2.060107E-04 -2.200885E-05 -2.643493E-04 +1.190748E-04 -2.060107E-04 +1.190748E-04 +5.895414E-05 
 +4.911072E-03 +2.520198E-05 -2.245525E-04 +2.520198E-05 +2.448228E-05 +1.520860E-04 -2.245525E-04 +1.520860E-04 +1.121699E-04 
 +4.766576E-03 +4.975646E-05 -2.076127E-04 +4.975646E-05 +8.854299E-05 +1.019892E-04 -2.076127E-04 +1.019892E-04 +1.859968E-04 
 +4.946626E-03 +2.495202E-05 -6.237523E-05 +2.495202E-05 -7.724198E-06 +1.104249E-04 -6.237523E-05 +1.104249E-04 +1.349435E-04 
 +4.955597E-03 -2.653671E-06 -2.890817E-05 -2.653671E-06 -3.617011E-05 +1.805988E-04 -2.890817E-05 +1.805988E-04 +1.271714E-04 
 +4.972977E-03 +1.824951E-05 -4.490341E-05 +1.824951E-05 -7.887623E-05 +1.925484E-04 -4.490341E-05 +1.925484E-04 +2.415987E-04 
 +4.979169E-03 -6.271479E-06 -7.199155E-05 -6.271479E-06 -5.923360E-05 +2.565550E-04 -7.199155E-05 +2.565550E-04 +1.269729E-04 
 +5.044328E-03 +1.408144E-05 -1.330392E-04 +1.408144E-05 +2.640884E-05 +3.782362E-04 -1.330392E-04 +3.782362E-04 -1.460656E-04 
 +5.014704E-03 +3.878565E-05 -1.104373E-04 +3.878565E-05 +8.015090E-05 +4.147513E-04 -1.104373E-04 +4.147513E-04 -1.887750E-04 
 +5.015098E-03 +4.008910E-05 +3.537226E-05 +4.008910E-05 +1.018955E-04 +3.684016E-04 +3.537226E-05 +3.684016E-04 -2.101427E-04 
 +4.954033E-03 -5.811961E-05 +7.710776E-05 -5.811961E-05 +1.222044E-04 +3.870485E-04 +7.710776E-05 +3.870485E-04 -2.814929E-04 
 +4.824649E-03 -5.262543E-05 +1.148581E-04 -5.262543E-05 +7.608871E-05 +3.898752E-04 +1.148581E-04 +3.898752E-04 -2.615840E-04 
 +4.950641E-03 -2.222476E-06 +5.967218E-05 -2.222476E-06 -5.315637E-05 +1.079929E-04 +5.967218E-05 +1.079929E-04 -2.605291E-04 
 +5.087963E-03 +2.282431E-05 -3.863811E-06 +2.282431E-05 -2.315397E-04 -1.973482E-04 -3.863811E-06 -1.973482E-04 -2.464140E-04 
 +5.142307E-03 -1.371025E-04 +2.709175E-06 -1.371025E-04 -3.214175E-04 -1.435538E-04 +2.709175E-06 -1.435538E-04 -2.024699E-04 
 +4.953409E-03 -2.543690E-04 +1.598541E-04 -2.543690E-04 -1.623478E-04 +4.465274E-05 +1.598541E-04 +4.465274E-05 -1.536046E-04 
 +4.879988E-03 -1.958737E-04 -2.335441E-05 -1.958737E-04 -8.537318E-06 +1.446308E-04 -2.335441E-05 +1.446308E-04 +3.107433E-07 
 +4.836664E-03 -2.300075E-04 -1.827917E-05 -2.300075E-04 +1.897328E-04 +1.839061E-04 -1.827917E-05 +1.839061E-04 -1.760189E-05 
 +5.082436E-03 -1.208006E-04 -4.542981E-05 -1.208006E-04 +8.152215E-05 +1.273711E-04 -4.542981E-05 +1.273711E-04 -2.720802E-04 
 +5.205502E-03 -1.451357E-05 -9.557412E-05 -1.451357E-05 +1.471408E-05 +2.032388E-05 -9.557412E-05 +2.032388E-05 -3.518085E-04 
 +5.185869E-03 +3.507399E-05 -1.812470E-04 +3.507399E-05 +9.774440E-05 -4.409391E-05 -1.812470E-04 -4.409391E-05 -2.370917E-04 
 +5.116202E-03 +8.080458E-05 -1.979106E-04 +8.080458E-05 +1.109271E-04 -7.458892E-05 -1.979106E-04 -7.458892E-05 -1.866758E-04 
 +4.963583E-03 +1.150654E-04 -1.860238E-04 +1.150654E-04 +8.952001E-05 -7.987377E-05 -1.860238E-04 -7.987377E-05 -3.709362E-05 
 +4.783781E-03 +5.176330E-05 -1.914169E-04 +5.176330E-05 +2.610548E-05 +2.010677E-05 -1.914169E-04 +2.010677E-05 +1.971940E-04 
 +5.041507E-03 +1.812307E-06 -6.306178E-05 +1.812307E-06 -1.310891E-04 +1.751273E-04 -6.306178E-05 +1.751273E-04 +2.275017E-04 
 +5.028015E-03 -3.089804E-05 -1.410625E-05 -3.089804E-05 -1.962262E-04 +2.100047E-04 -1.410625E-05 +2.100047E-04 +2.013129E-04 
 +4.970383E-03 -4.625250E-07 -3.289350E-05 -4.625250E-07 -1.429872E-04 +1.579555E-04 -3.289350E-05 +1.579555E-04 +2.649724E-04 
 +4.964580E-03 +6.651169E-05 -1.207458E-04 +6.651169E-05 -8.842746E-05 +1.577248E-04 -1.207458E-04 +1.577248E-04 +1.658502E-04 
 +5.073963E-03 +1.310085E-04 -1.473509E-04 +1.310085E-04 +1.087365E-05 +2.353079E-04 -1.473509E-04 +2.353079E-04 -3.450457E-05 
 +5.058368E-03 +1.021097E-04 -1.170571E-04 +1.021097E-04 +1.023602E-04 +2.851273E-04 -1.170571E-04 +2.851273E-04 -8.547610E-05 
 +5.036185E-03 +4.829583E-05 -1.119399E-05 +4.829583E-05 +1.087940E-04 +2.893115E-04 -1.119399E-05 +2.893115E-04 -9.702556E-05 
 +4.986151E-03 +5.389221E-06 +5.316702E-05 +5.389221E-06 +1.245872E-04 +3.320824E-04 +5.316702E-05 +3.320824E-04 -1.631886E-04 
 +4.862777E-03 -6.807395E-05 +1.224342E-04 -6.807395E-05 +1.407323E-04 +3.629246E-04 +1.224342E-04 +3.629246E-04 -1.690001E-04 
 +4.803038E-03 -4.267245E-05 +2.042607E-04 -4.267245E-05 +1.118321E-04 +2.545188E-04 +2.042607E-04 +2.545188E-04 -1.190717E-04 
 +4.866414E-03 +3.113218E-05 +1.910835E-04 +3.113218E-05 +1.369191E-05 +9.681083E-05 +1.910835E-04 +9.681083E-05 -1.197056E-04 
 +5.007501E-03 +1.722670E-05 +6.107969E-05 +1.722670E-05 -1.677013E-04 +1.035070E-04 +6.107969E-05 +1.035070E-04 -1.564946E-04 
 +4.985397E-03 -5.180036E-05 +1.884072E-05 -5.180036E-05 -2.275315E-04 +1.410780E-04 +1.884072E-05 +1.410780E-04 -1.330853E-04 
 +4.804905E-03 +6.287853E-05 -5.418396E-05 +6.287853E-05 -9.980132E-05 +1.789519E-04 -5.418396E-05 +1.789519E-04 +1.297334E-04 
 +5.065523E-03 -4.449348E-05 -2.309073E-05 -4.449348E-05 -8.508257E-05 +1.658270E-04 -2.309073E-05 +1.658270E-04 +7.450257E-05 
 +5.153690E-03 -3.361483E-05 -4.680138E-05 -3.361483E-05 -3.565037E-05 +7.689429E-05 -4.680138E-05 +7.689429E-05 -1.569140E-04 
 +5.183866E-03 +1.985567E-06 -1.218401E-04 +1.985567E-06 +4.703296E-05 -4.509526E-05 -1.218401E-04 -4.509526E-05 -2.408159E-04 
 +5.101782E-03 +6.455576E-05 -1.887435E-04 +6.455576E-05 +1.301251E-04 -1.275662E-04 -1.887435E-04 -1.275662E-04 -1.830047E-04 
 +5.031625E-03 +1.348466E-04 -2.127919E-04 +1.348466E-04 +1.886378E-04 -1.552625E-04 -2.127919E-04 -1.552625E-04 -9.143661E-05 
 +4.984772E-03 +1.520511E-04 -1.285904E-04 +1.520511E-04 +1.394882E-04 -1.871974E-04 -1.285904E-04 -1.871974E-04 +2.430166E-05 
 +4.922489E-03 +5.397360E-05 -2.361094E-05 +5.397360E-05 +6.465661E-05 -1.054235E-04 -2.361094E-05 -1.054235E-04 +1.645326E-04 
 +4.964583E-03 -3.848426E-05 -1.255343E-05 -3.848426E-05 -8.283766E-05 +7.059870E-05 -1.255343E-05 +7.059870E-05 +3.089737E-04 
 +5.004686E-03 -3.486156E-05 -3.616507E-05 -3.486156E-05 -2.373383E-04 +1.376920E-04 -3.616507E-05 +1.376920E-04 +3.084653E-04 
 +5.019687E-03 -1.117489E-05 -6.499874E-05 -1.117489E-05 -2.349011E-04 +1.001059E-04 -6.499874E-05 +1.001059E-04 +2.528035E-04 
 +5.038725E-03 +9.636871E-05 -1.306282E-04 +9.636871E-05 -1.244393E-04 +1.203581E-04 -1.306282E-04 +1.203581E-04 +1.819536E-04 
 +5.112014E-03 +1.942143E-04 -9.668090E-05 +1.942143E-04 +1.183690E-05 +2.277184E-04 -9.668090E-05 +2.277184E-04 +1.918024E-05 
 +5.117421E-03 +1.660213E-04 -6.529960E-05 +1.660213E-04 +1.238315E-04 +2.958963E-04 -6.529960E-05 +2.958963E-04 -6.268594E-05 
 +5.067069E-03 +1.077964E-04 -3.049230E-06 +1.077964E-04 +1.639762E-04 +2.712379E-04 -3.049230E-06 +2.712379E-04 -4.744597E-06 
 +4.980721E-03 +4.764871E-05 +3.164480E-05 +4.764871E-05 +1.464066E-04 +2.801389E-04 +3.164480E-05 +2.801389E-04 +3.348943E-05 
 +4.862833E-03 -5.242398E-05 +9.173383E-05 -5.242398E-05 +1.629658E-04 +2.512106E-04 +9.173383E-05 +2.512106E-04 +8.768638E-05 
 +4.724041E-03 -3.188673E-05 +3.079658E-04 -3.188673E-05 +1.269531E-04 +1.051849E-04 +3.079658E-04 +1.051849E-04 +1.382372E-04 
 +4.786326E-03 -9.185042E-06 +2.474689E-04 -9.185042E-06 -2.649443E-05 +2.441830E-05 +2.474689E-04 +2.441830E-05 +6.587986E-05 
 +4.913121E-03 +1.855142E-05 +6.101060E-05 +1.855142E-05 -1.232077E-04 +2.067088E-05 +6.101060E-05 +2.067088E-05 +2.876330E-05 
 +4.898424E-03 +5.481094E-05 -4.404215E-05 +5.481094E-05 -1.329166E-04 +9.187489E-05 -4.404215E-05 +9.187489E-05 +5.778642E-05 
 +4.904496E-03 +7.768960E-05 -1.954243E-05 +7.768960E-05 -3.980730E-05 +2.146341E-04 -1.954243E-05 +2.146341E-04 +2.188723E-04 
 +5.112462E-03 -6.299379E-05 -1.962489E-05 -6.299379E-05 -1.154136E-04 +1.284910E-04 -1.962489E-05 +1.284910E-04 +1.190687E-04 
 +5.126037E-03 -4.284526E-05 -1.485374E-05 -4.284526E-05 -5.721146E-05 +4.902323E-05 -1.485374E-05 +4.902323E-05 -4.570197E-05 
 +5.110806E-03 +2.713123E-06 -9.085415E-05 +2.713123E-06 +2.467232E-05 -1.438289E-05 -9.085415E-05 -1.438289E-05 -5.228145E-05 
 +5.074180E-03 +8.335582E-05 -1.423301E-04 +8.335582E-05 +4.185388E-05 -8.465201E-05 -1.423301E-04 -8.465201E-05 -3.735272E-06 
 +5.021636E-03 +1.154357E-04 -1.521112E-04 +1.154357E-04 +7.669453E-05 -1.090498E-04 -1.521112E-04 -1.090498E-04 +2.884691E-05 
 +4.991687E-03 +1.222025E-04 -8.318622E-05 +1.222025E-04 +8.780144E-05 -1.289952E-04 -8.318622E-05 -1.289952E-04 +4.010828E-05 
 +5.018859E-03 +2.550888E-05 +5.444015E-06 +2.550888E-05 +6.671851E-05 -6.628122E-05 +5.444015E-06 -6.628122E-05 +6.654604E-05 
 +4.926405E-03 -9.819918E-05 +3.869669E-06 -9.819918E-05 +1.305885E-04 +8.820822E-05 +3.869669E-06 +8.820822E-05 +2.153258E-04 
 +4.933352E-03 -7.315707E-05 -3.016188E-05 -7.315707E-05 +9.719133E-05 +1.635031E-04 -3.016188E-05 +1.635031E-04 +2.621010E-04 
 +5.051226E-03 +1.459847E-05 -4.934677E-05 +1.459847E-05 -6.325678E-05 +1.643339E-04 -4.934677E-05 +1.643339E-04 +1.869169E-04 
 +5.085167E-03 +1.157507E-04 -3.694876E-05 +1.157507E-04 -1.467596E-04 +1.944977E-04 -3.694876E-05 +1.944977E-04 +1.631237E-04 
 +5.143348E-03 +1.446290E-04 -3.962324E-05 +1.446290E-04 -2.496516E-04 +2.432507E-04 -3.962324E-05 +2.432507E-04 +1.251220E-04 
 +5.187441E-03 +1.444984E-04 -7.515245E-05 +1.444984E-04 -2.796251E-04 +2.934863E-04 -7.515245E-05 +2.934863E-04 +9.119008E-05 
 +5.100192E-03 +6.384668E-05 -5.246268E-05 +6.384668E-05 -9.444359E-05 +1.937285E-04 -5.246268E-05 +1.937285E-04 +1.466164E-04 
 +4.918512E-03 -5.466534E-05 +3.636280E-05 -5.466534E-05 +3.322607E-05 -1.989406E-05 +3.636280E-05 -1.989406E-05 +1.990363E-04 
 +4.871183E-03 -1.271380E-04 +8.103777E-05 -1.271380E-04 +4.608569E-05 -1.794327E-04 +8.103777E-05 -1.794327E-04 +2.490820E-04 
 +4.753047E-03 -1.656801E-04 +2.084298E-04 -1.656801E-04 +1.548164E-05 -2.396878E-04 +2.084298E-04 -2.396878E-04 +3.234676E-04 
 +4.741029E-03 -4.688364E-05 +1.812692E-04 -4.688364E-05 -7.982000E-06 -1.236176E-04 +1.812692E-04 -1.236176E-04 +3.082560E-04 
 +4.815511E-03 -1.903493E-05 +7.206404E-05 -1.903493E-05 -6.257155E-05 +5.360858E-05 +7.206404E-05 +5.360858E-05 +2.514995E-04 
 +4.851681E-03 +8.440594E-05 +1.515740E-05 +8.440594E-05 -5.284410E-05 +1.794194E-04 +1.515740E-05 +1.794194E-04 +2.198947E-04 
 +4.959077E-03 -5.337859E-05 -3.616136E-05 -5.337859E-05 -2.621404E-04 +1.741674E-05 -3.616136E-05 +1.741674E-05 +3.178182E-04 
 +5.097374E-03 -1.389054E-04 +3.266984E-06 -1.389054E-04 -2.647631E-04 -2.168132E-05 +3.266984E-06 -2.168132E-05 +2.488153E-04 
 +5.123613E-03 -4.952231E-05 +4.307923E-05 -4.952231E-05 -2.251773E-04 -3.764670E-05 +4.307923E-05 -3.764670E-05 +9.019024E-05 
 +5.100652E-03 +2.998269E-05 -2.728570E-06 +2.998269E-05 -7.269378E-05 -7.082357E-05 -2.728570E-06 -7.082357E-05 -6.295917E-06 
 +5.040224E-03 +4.888250E-05 -8.400395E-05 +4.888250E-05 +6.450896E-05 -8.562520E-05 -8.400395E-05 -8.562520E-05 -2.240918E-05 
 +5.030207E-03 +1.313669E-04 -6.677791E-05 +1.313669E-04 +5.917625E-05 -1.365998E-04 -6.677791E-05 -1.365998E-04 -2.752331E-05 
 +5.037582E-03 +9.117089E-05 -4.531898E-05 +9.117089E-05 +4.875924E-05 -1.951452E-04 -4.531898E-05 -1.951452E-04 -4.185238E-05 
 +5.019512E-03 +7.165085E-06 -4.027563E-05 +7.165085E-06 +4.094671E-05 -8.634025E-05 -4.027563E-05 -8.634025E-05 +1.902657E-05 
 +4.971084E-03 -7.706726E-05 -6.359701E-05 -7.706726E-05 +5.019483E-05 +1.074994E-04 -6.359701E-05 +1.074994E-04 +9.747624E-05 
 +4.972496E-03 -1.032366E-04 -4.679198E-05 -1.032366E-04 +3.742139E-05 +1.646033E-04 -4.679198E-05 +1.646033E-04 +1.107961E-04 
 +5.027744E-03 -3.003734E-06 +3.874983E-05 -3.003734E-06 -3.348586E-05 +1.510142E-04 +3.874983E-05 +1.510142E-04 +1.441256E-04 
 +5.079810E-03 +1.107004E-04 +6.771501E-05 +1.107004E-04 -1.496205E-04 +1.495921E-04 +6.771501E-05 +1.495921E-04 +1.527104E-04 
 +5.126104E-03 +1.042073E-04 +3.795896E-06 +1.042073E-04 -2.420370E-04 +1.518545E-04 +3.795896E-06 +1.518545E-04 +1.536124E-04 
 +5.143189E-03 +1.305756E-04 -9.261033E-05 +1.305756E-04 -2.922130E-04 +2.299984E-04 -9.261033E-05 +2.299984E-04 +1.367364E-04 
 +5.106631E-03 +8.744478E-05 -1.302693E-04 +8.744478E-05 -2.576343E-04 +2.382200E-04 -1.302693E-04 +2.382200E-04 +1.133439E-04 
 +4.964339E-03 -5.860372E-05 -2.108765E-05 -5.860372E-05 -1.323026E-04 +4.591439E-05 -2.108765E-05 +4.591439E-05 +1.886555E-04 
 +4.914412E-03 -8.860547E-05 +3.122374E-05 -8.860547E-05 -6.741670E-05 -1.778816E-04 +3.122374E-05 -1.778816E-04 +2.763597E-04 
 +4.884500E-03 -8.454647E-05 +8.959183E-05 -8.454647E-05 -3.597888E-05 -1.993942E-04 +8.959183E-05 -1.993942E-04 +3.302189E-04 
 +4.729148E-03 +4.978032E-05 +1.052851E-04 +4.978032E-05 +1.579778E-05 -2.248954E-05 +1.052851E-04 -2.248954E-05 +3.700863E-04 
 +4.692113E-03 +5.075734E-05 +4.564067E-05 +5.075734E-05 +9.925454E-05 +9.021482E-05 +4.564067E-05 +9.021482E-05 +3.480435E-04 
 +4.718427E-03 +6.282078E-05 -2.140333E-05 +6.282078E-05 -3.018384E-05 +8.023345E-05 -2.140333E-05 +8.023345E-05 +3.102062E-04 
 +4.840767E-03 +5.333128E-05 -6.358516E-05 +5.333128E-05 +1.524852E-04 +1.602505E-04 -6.358516E-05 +1.602505E-04 +3.456417E-04 
 +5.073362E-03 -5.846989E-05 +1.935938E-05 -5.846989E-05 -3.174532E-05 +1.213699E-05 +1.935938E-05 +1.213699E-05 +3.001619E-04 
 +5.083072E-03 +2.797357E-05 +1.504426E-04 +2.797357E-05 -1.499473E-05 -4.560484E-05 +1.504426E-04 -4.560484E-05 +9.139899E-05 
 +5.069571E-03 +1.039532E-04 +7.873448E-05 +1.039532E-04 +5.179928E-05 -5.284470E-05 +7.873448E-05 -5.284470E-05 -5.764312E-05 
 +5.042185E-03 +6.212104E-05 -4.780667E-05 +6.212104E-05 +7.388048E-05 -9.513313E-05 -4.780667E-05 -9.513313E-05 -9.749937E-05 
 +5.041864E-03 +1.017707E-04 -1.820777E-05 +1.017707E-04 +7.966083E-05 -1.552033E-04 -1.820777E-05 -1.552033E-04 -1.076332E-04 
 +5.065596E-03 +6.200483E-05 -1.753882E-05 +6.200483E-05 +1.722203E-05 -1.978501E-04 -1.753882E-05 -1.978501E-04 -1.041988E-04 
 +5.041307E-03 +9.275894E-06 -4.424849E-05 +9.275894E-06 -1.184661E-05 -6.584461E-05 -4.424849E-05 -6.584461E-05 -2.378772E-05 
 +5.017236E-03 -8.326706E-05 -1.269070E-04 -8.326706E-05 -3.561962E-05 +1.583091E-04 -1.269070E-04 +1.583091E-04 +3.119045E-05 
 +5.038262E-03 -1.274936E-04 -7.515392E-05 -1.274936E-04 -4.500258E-05 +2.315783E-04 -7.515392E-05 +2.315783E-04 +3.050231E-05 
 +5.031633E-03 -5.452420E-05 +9.192275E-05 -5.452420E-05 -6.123894E-05 +2.051366E-04 +9.192275E-05 +2.051366E-04 +1.043943E-04 
 +5.072304E-03 +5.543844E-05 +1.021938E-04 +5.543844E-05 -1.551677E-04 +1.853697E-04 +1.021938E-04 +1.853697E-04 +1.326399E-04 
 +5.086870E-03 +1.091394E-04 +4.067563E-05 +1.091394E-04 -2.110885E-04 +1.958418E-04 +4.067563E-05 +1.958418E-04 +1.550395E-04 
 +5.060155E-03 +1.240636E-04 -6.167993E-05 +1.240636E-04 -2.597433E-04 +2.621535E-04 -6.167993E-05 +2.621535E-04 +2.096273E-04 
 +5.112847E-03 +1.365622E-04 -1.538461E-04 +1.365622E-04 -3.768217E-04 +3.029854E-04 -1.538461E-04 +3.029854E-04 +1.502568E-04 
 +5.080614E-03 +5.940281E-05 -8.920948E-05 +5.940281E-05 -3.801172E-04 +2.675943E-04 -8.920948E-05 +2.675943E-04 +1.163156E-04 
 +5.047287E-03 -5.422193E-06 -5.884618E-05 -5.422193E-06 -2.800246E-04 +1.761699E-04 -5.884618E-05 +1.761699E-04 +1.654311E-04 
 +4.960609E-03 +1.860776E-05 -1.413598E-05 +1.860776E-05 -1.234275E-04 +7.069957E-05 -1.413598E-05 +7.069957E-05 +2.408439E-04 
 +4.677798E-03 +1.041865E-04 +1.092491E-05 +1.041865E-04 +1.046424E-04 -2.132843E-07 +1.092491E-05 -2.132843E-07 +3.499254E-04 
 +4.639185E-03 +9.543546E-05 -1.103767E-05 +9.543546E-05 +2.245936E-04 +5.294956E-05 -1.103767E-05 +5.294956E-05 +3.738588E-04 
 +4.655685E-03 +9.143433E-05 -7.201893E-05 +9.143433E-05 +2.458343E-04 +1.795679E-04 -7.201893E-05 +1.795679E-04 +3.200682E-04 
 +4.821993E-03 -2.752758E-05 -4.067891E-05 -2.752758E-05 +9.690251E-06 +1.325252E-04 -4.067891E-05 +1.325252E-04 +3.219496E-04 
 +4.914677E-03 +3.053828E-05 +5.095361E-05 +3.053828E-05 -1.087230E-04 +9.842732E-05 +5.095361E-05 +9.842732E-05 +2.746823E-04 
 +4.948563E-03 +1.320882E-04 +1.946856E-04 +1.320882E-04 -9.606175E-05 +4.024655E-05 +1.946856E-04 +4.024655E-05 +7.560287E-05 
 +5.007850E-03 +1.807347E-04 +8.449696E-05 +1.807347E-04 +1.940679E-05 -2.658752E-05 +8.449696E-05 -2.658752E-05 -7.594152E-05 
 +5.020623E-03 +9.815264E-05 -7.045620E-05 +9.815264E-05 +1.536862E-04 -9.543533E-05 -7.045620E-05 -9.543533E-05 -1.134885E-04 
 +5.052711E-03 +6.644408E-05 -2.268756E-06 +6.644408E-05 +1.103156E-04 -1.785179E-04 -2.268756E-06 -1.785179E-04 -1.437920E-04 
 +5.087874E-03 +2.331081E-05 +4.667105E-05 +2.331081E-05 +5.172289E-06 -1.763248E-04 +4.667105E-05 -1.763248E-04 -1.994872E-04 
 +5.101948E-03 +9.536869E-06 -2.773223E-05 +9.536869E-06 -6.126394E-05 +7.013927E-07 -2.773223E-05 +7.013927E-07 -1.532499E-04 
 +5.051004E-03 -9.239698E-05 -1.514488E-04 -9.239698E-05 -1.098517E-04 +2.024286E-04 -1.514488E-04 +2.024286E-04 +1.190522E-05 
 +5.062822E-03 -1.184459E-04 -6.460386E-05 -1.184459E-04 -1.732462E-04 +2.631316E-04 -6.460386E-05 +2.631316E-04 +9.470453E-05 
 +5.068945E-03 -5.282635E-05 +7.326719E-05 -5.282635E-05 -1.723829E-04 +2.396081E-04 +7.326719E-05 +2.396081E-04 +7.456465E-05 
 +5.063229E-03 +7.523906E-06 +6.859986E-05 +7.523906E-06 -1.708687E-04 +2.063821E-04 +6.859986E-05 +2.063821E-04 +6.609980E-05 
 +5.066858E-03 +1.006311E-04 +1.752739E-05 +1.006311E-04 -2.261258E-04 +1.830222E-04 +1.752739E-05 +1.830222E-04 +8.386235E-05 
 +5.058934E-03 +1.125233E-04 -2.912691E-05 +1.125233E-04 -2.866479E-04 +1.787793E-04 -2.912691E-05 +1.787793E-04 +1.434878E-04 
 +5.110021E-03 +1.310053E-04 -1.014495E-04 +1.310053E-04 -3.746542E-04 +2.242536E-04 -1.014495E-04 +2.242536E-04 +1.545305E-04 
 +5.151833E-03 +1.111047E-04 -9.003448E-05 +1.111047E-04 -4.242221E-04 +2.908758E-04 -9.003448E-05 +2.908758E-04 +1.118785E-04 
 +5.106547E-03 +2.146960E-05 +8.117782E-06 +2.146960E-05 -3.143168E-04 +3.129055E-04 +8.117782E-06 +3.129055E-04 +9.673174E-05 
 +4.960977E-03 +3.671100E-05 -3.616648E-05 +3.671100E-05 -1.127703E-04 +2.660885E-04 -3.616648E-05 +2.660885E-04 +1.785857E-04 
 +4.710901E-03 +1.650189E-04 -1.201023E-04 +1.650189E-04 +7.650468E-05 +9.291455E-05 -1.201023E-04 +9.291455E-05 +3.108901E-04 
 +4.678513E-03 +1.456185E-04 -5.491168E-05 +1.456185E-04 +2.121575E-04 -2.978605E-05 -5.491168E-05 -2.978605E-05 +3.116842E-04 
 +4.691412E-03 +8.690172E-05 -1.149722E-04 +8.690172E-05 +2.084027E-04 +5.824413E-05 -1.149722E-04 +5.824413E-05 +2.774955E-04 
 +4.785550E-03 -1.684587E-04 -3.932396E-05 -1.684587E-04 +2.234838E-04 +1.892849E-04 -3.932396E-05 +1.892849E-04 +2.694890E-04 
 +4.793371E-03 -6.345631E-05 +3.797567E-05 -6.345631E-05 +1.861424E-04 +1.721312E-04 +3.797567E-05 +1.721312E-04 +1.935729E-04 
 +4.816217E-03 +4.190533E-05 +5.302970E-05 +4.190533E-05 +9.774446E-05 +3.042321E-05 +5.302970E-05 +3.042321E-05 +7.051818E-05 
 +4.988380E-03 +2.605864E-04 +1.548517E-05 +2.605864E-04 -7.063043E-06 -1.118303E-04 +1.548517E-05 -1.118303E-04 +7.883622E-06 
 +4.998998E-03 +1.752703E-04 -1.082101E-04 +1.752703E-04 +7.081192E-06 -1.610515E-04 -1.082101E-04 -1.610515E-04 -1.840427E-05 
 +5.062267E-03 +1.050349E-04 -1.750272E-05 +1.050349E-04 +4.527843E-05 -1.961220E-04 -1.750272E-05 -1.961220E-04 -9.381750E-05 
 +5.088788E-03 +2.132630E-05 +4.863540E-05 +2.132630E-05 -8.378693E-06 -1.909539E-04 +4.863540E-05 -1.909539E-04 -1.758799E-04 
 +5.127560E-03 +3.870936E-06 -1.222733E-05 +3.870936E-06 -1.111667E-04 -3.828360E-05 -1.222733E-05 -3.828360E-05 -1.919238E-04 
 +5.090786E-03 -1.238271E-04 -1.055336E-04 -1.238271E-04 -1.693411E-04 +1.753010E-04 -1.055336E-04 +1.753010E-04 -8.646457E-05 
 +5.089497E-03 -1.364161E-04 -5.555081E-05 -1.364161E-04 -1.984558E-04 +2.516282E-04 -5.555081E-05 +2.516282E-04 +6.939439E-06 
 +5.070386E-03 -4.080496E-05 +2.152704E-05 -4.080496E-05 -2.149957E-04 +2.348609E-04 +2.152704E-05 +2.348609E-04 -8.178723E-06 
 +5.068267E-03 -4.084841E-06 +1.246067E-05 -4.084841E-06 -2.008029E-04 +1.921729E-04 +1.246067E-05 +1.921729E-04 +6.474478E-06 
 +5.077689E-03 +7.076726E-05 -9.332730E-07 +7.076726E-05 -2.384192E-04 +1.972319E-04 -9.332730E-07 +1.972319E-04 +1.270077E-05 
 +5.103892E-03 +1.148302E-04 +6.113565E-06 +1.148302E-04 -2.941848E-04 +2.274568E-04 +6.113565E-06 +2.274568E-04 -6.256537E-07 
 +5.102135E-03 +1.208457E-04 +2.712428E-05 +1.208457E-04 -2.994075E-04 +2.137422E-04 +2.712428E-05 +2.137422E-04 +6.260369E-05 
 +5.054585E-03 +1.029664E-04 -1.973448E-05 +1.029664E-04 -2.573354E-04 +2.223132E-04 -1.973448E-05 +2.223132E-04 +1.334889E-04 
 +5.050723E-03 +1.495136E-05 -1.464487E-05 +1.495136E-05 -1.083106E-04 +1.547382E-04 -1.464487E-05 +1.547382E-04 +5.674560E-05 
 +5.034495E-03 +1.630669E-05 -6.590007E-05 +1.630669E-05 +3.474769E-05 -2.905026E-05 -6.590007E-05 -2.905026E-05 -1.230888E-05 
 +4.828662E-03 +1.722852E-04 -1.809308E-04 +1.722852E-04 +1.104911E-04 -1.441897E-04 -1.809308E-04 -1.441897E-04 +9.744435E-05 
 +4.764988E-03 +1.239302E-04 -7.756555E-05 +1.239302E-04 +1.736021E-04 -1.345489E-04 -7.756555E-05 -1.345489E-04 +1.833923E-04 
 +4.741033E-03 +6.141385E-05 -1.140914E-04 +6.141385E-05 +2.251724E-04 +3.448491E-05 -1.140914E-04 +3.448491E-05 +2.369428E-04 
 +4.734470E-03 -2.391686E-04 -5.963688E-05 -2.391686E-04 +2.150667E-04 +1.598263E-04 -5.963688E-05 +1.598263E-04 +1.311751E-04 
 +4.748855E-03 -5.294739E-05 -5.908679E-05 -5.294739E-05 +1.831759E-04 +1.470975E-04 -5.908679E-05 +1.470975E-04 +6.821886E-05 
 +4.786741E-03 +3.420784E-05 -9.205554E-05 +3.420784E-05 +1.080314E-04 +1.644581E-05 -9.205554E-05 +1.644581E-05 +1.431928E-05 
 +4.975428E-03 +2.713606E-04 -4.184666E-05 +2.713606E-04 +2.208644E-05 -1.049835E-04 -4.184666E-05 -1.049835E-04 +4.339567E-07 
 +4.985302E-03 +2.114895E-04 -9.281074E-05 +2.114895E-04 -2.190796E-05 -1.545463E-04 -9.281074E-05 -1.545463E-04 -7.701107E-06 
 +5.072406E-03 +1.189698E-04 -1.207299E-05 +1.189698E-04 -3.547175E-05 -1.771771E-04 -1.207299E-05 -1.771771E-04 -3.557120E-05 
 +5.082078E-03 +1.671442E-05 -3.144898E-05 +1.671442E-05 -4.490584E-05 -1.356941E-04 -3.144898E-05 -1.356941E-04 -8.680515E-05 
 +5.093316E-03 -1.931639E-05 -3.326925E-05 -1.931639E-05 -8.306739E-05 -4.053178E-06 -3.326925E-05 -4.053178E-06 -1.373808E-04 
 +5.071715E-03 -1.876446E-04 -2.115955E-05 -1.876446E-04 -2.194433E-04 +1.364549E-04 -2.115955E-05 +1.364549E-04 -9.217882E-05 
 +5.174247E-03 -1.435849E-04 -7.469519E-05 -1.435849E-04 -2.721885E-04 +2.194190E-04 -7.469519E-05 +2.194190E-04 -5.007959E-05 
 +5.096004E-03 -1.106921E-05 -3.822907E-05 -1.106921E-05 -2.217500E-04 +2.212609E-04 -3.822907E-05 +2.212609E-04 -8.866522E-05 
 +5.071582E-03 +2.600696E-05 -4.170570E-05 +2.600696E-05 -2.508440E-04 +1.909740E-04 -4.170570E-05 +1.909740E-04 -8.478155E-05 
 +5.080504E-03 +7.237974E-05 +7.538501E-06 +7.237974E-05 -2.722676E-04 +1.875828E-04 +7.538501E-06 +1.875828E-04 -7.019367E-05 
 +5.113272E-03 +9.729940E-05 +4.360600E-05 +9.729940E-05 -2.662395E-04 +1.941322E-04 +4.360600E-05 +1.941322E-04 -9.797066E-05 
 +5.105623E-03 +1.376511E-04 +7.138853E-05 +1.376511E-04 -1.961899E-04 +6.202195E-05 +7.138853E-05 +6.202195E-05 -7.748227E-05 
 +4.951297E-03 +2.221325E-04 -3.118370E-05 +2.221325E-04 +1.222201E-05 -2.297533E-04 -3.118370E-05 -2.297533E-04 -1.947287E-06 
 +4.953783E-03 +1.481221E-04 -1.142337E-04 +1.481221E-04 +1.290720E-04 -3.331616E-04 -1.142337E-04 -3.331616E-04 -5.465282E-05 
 +5.089634E-03 +5.390594E-05 -8.087303E-05 +5.390594E-05 +8.518458E-05 -2.581185E-04 -8.087303E-05 -2.581185E-04 -1.113659E-04 
 +4.908716E-03 +1.820797E-04 -1.295801E-04 +1.820797E-04 +8.453278E-05 -2.139225E-04 -1.295801E-04 -2.139225E-04 -7.039490E-07 
 +4.837809E-03 +9.367948E-05 -4.947209E-05 +9.367948E-05 +1.319046E-04 -1.667736E-04 -4.947209E-05 -1.667736E-04 +8.330093E-05 
 +4.805538E-03 -3.570516E-07 -5.910385E-05 -3.570516E-07 +1.831697E-04 -4.443382E-06 -5.910385E-05 -4.443382E-06 +1.261297E-04 
 +4.778632E-03 -2.222596E-04 -1.129344E-04 -2.222596E-04 +1.272290E-04 +7.678740E-05 -1.129344E-04 +7.678740E-05 +9.249469E-05 
 +4.742815E-03 -8.082786E-05 -1.105675E-04 -8.082786E-05 +1.522655E-04 +6.753517E-05 -1.105675E-04 +6.753517E-05 +9.836302E-05 
 +4.763590E-03 -1.967217E-05 -1.119513E-04 -1.967217E-05 +1.207963E-04 -8.903911E-06 -1.119513E-04 -8.903911E-06 +5.413110E-05 
 +4.926176E-03 +2.154215E-04 -7.149206E-05 +2.154215E-04 +5.691621E-05 -8.988772E-05 -7.149206E-05 -8.988772E-05 -6.587240E-06 
 +4.962922E-03 +1.791390E-04 -6.162671E-05 +1.791390E-04 -3.890540E-06 -1.047685E-04 -6.162671E-05 -1.047685E-04 -3.828752E-05 
 +5.088274E-03 +8.739022E-05 +1.542381E-05 +8.739022E-05 -4.654291E-05 -1.103001E-04 +1.542381E-05 -1.103001E-04 -9.350548E-05 
 +5.110663E-03 +2.122756E-05 -8.016557E-05 +2.122756E-05 -5.163111E-05 -8.096007E-05 -8.016557E-05 -8.096007E-05 -1.340450E-04 
 +5.066535E-03 -5.741816E-05 -2.157552E-05 -5.741816E-05 -1.212577E-04 -9.978116E-06 -2.157552E-05 -9.978116E-06 -7.652553E-05 
 +5.036162E-03 -2.250730E-04 +6.465427E-05 -2.250730E-04 -2.751795E-04 +7.356429E-05 +6.465427E-05 +7.356429E-05 -1.712284E-05 
 +5.178072E-03 -1.253880E-04 -6.255200E-05 -1.253880E-04 -3.743570E-04 +1.914190E-04 -6.255200E-05 +1.914190E-04 -8.809819E-05 
 +5.183578E-03 -2.994610E-05 -1.038298E-04 -2.994610E-05 -3.518545E-04 +1.920105E-04 -1.038298E-04 +1.920105E-04 -1.531436E-04 
 +5.094885E-03 +1.644532E-05 -7.368970E-05 +1.644532E-05 -2.449444E-04 +1.446711E-04 -7.368970E-05 +1.446711E-04 -1.591411E-04 
 +5.067803E-03 +8.967116E-05 -3.520655E-05 +8.967116E-05 -1.718965E-04 +1.816656E-04 -3.520655E-05 +1.816656E-04 -1.803448E-04 
 +5.080457E-03 +1.102436E-04 +1.767120E-05 +1.102436E-04 -1.327082E-04 +1.710205E-04 +1.767120E-05 +1.710205E-04 -2.064830E-04 
 +5.070251E-03 +1.686926E-04 +3.703656E-05 +1.686926E-04 -7.548064E-05 +3.086475E-05 +3.703656E-05 +3.086475E-05 -2.101952E-04 
 +4.950806E-03 +2.519639E-04 -8.720492E-05 +2.519639E-04 -1.795804E-05 -1.554735E-04 -8.720492E-05 -1.554735E-04 -1.759412E-04 
 +4.922769E-03 +1.599550E-04 -9.426717E-05 +1.599550E-04 +7.732375E-05 -2.052366E-04 -9.426717E-05 -2.052366E-04 -1.908564E-04 
 +5.050346E-03 +5.830045E-05 +1.173447E-05 +5.830045E-05 +1.457681E-04 -1.886214E-04 +1.173447E-05 -1.886214E-04 -1.811247E-04 
 +4.921893E-03 +1.859588E-04 -6.896257E-05 +1.859588E-04 +1.221052E-04 -1.788790E-04 -6.896257E-05 -1.788790E-04 -1.004997E-04 
 +4.885322E-03 +8.751830E-05 -6.628858E-05 +8.751830E-05 +1.116925E-04 -1.593047E-04 -6.628858E-05 -1.593047E-04 -5.214122E-06 
 +4.856312E-03 +1.306637E-05 -8.135643E-05 +1.306637E-05 +1.121098E-04 -4.229905E-05 -8.135643E-05 -4.229905E-05 +7.249975E-05 
 +4.820765E-03 -2.200325E-04 -1.978011E-04 -2.200325E-04 +9.659535E-05 +1.280087E-04 -1.978011E-04 +1.280087E-04 +8.995730E-05 
 +4.719130E-03 -9.620189E-05 -1.649103E-04 -9.620189E-05 +1.685357E-04 +9.498598E-05 -1.649103E-04 +9.498598E-05 +1.274347E-04 
 +4.732294E-03 -9.439801E-05 -1.691456E-04 -9.439801E-05 +1.467601E-04 -5.045918E-06 -1.691456E-04 -5.045918E-06 +9.362230E-05 
 +4.908955E-03 +1.737695E-04 -1.208804E-04 +1.737695E-04 +9.380550E-05 -9.359579E-05 -1.208804E-04 -9.359579E-05 +4.288198E-05 
 +4.960771E-03 +1.468019E-04 -6.840691E-05 +1.468019E-04 +4.444461E-05 -8.945377E-05 -6.840691E-05 -8.945377E-05 -5.489943E-05 
 +5.156204E-03 +1.014305E-04 -2.500945E-05 +1.014305E-04 -3.603672E-05 -7.857568E-05 -2.500945E-05 -7.857568E-05 -2.264121E-04 
 +5.147384E-03 +4.750864E-05 -1.147929E-04 +4.750864E-05 -1.372788E-04 -7.592428E-05 -1.147929E-04 -7.592428E-05 -2.112595E-04 
 +5.008623E-03 -7.939834E-05 +6.865899E-05 -7.939834E-05 -2.030486E-04 -3.934791E-06 +6.865899E-05 -3.934791E-06 -2.373712E-05 
 +5.039264E-03 -2.228380E-04 +1.192599E-04 -2.228380E-04 -1.186088E-04 +8.834155E-05 +1.192599E-04 +8.834155E-05 -6.025261E-05 
 +5.095692E-03 -1.531322E-04 -1.892696E-05 -1.531322E-04 -8.620068E-05 +2.178696E-04 -1.892696E-05 +2.178696E-04 -2.094405E-04 
 +5.166236E-03 -7.637372E-05 -1.549968E-04 -7.637372E-05 -2.218633E-04 +3.367476E-04 -1.549968E-04 +3.367476E-04 -1.954841E-04 
 +5.143461E-03 -9.306034E-06 -1.162646E-04 -9.306034E-06 -2.275534E-04 +2.891266E-04 -1.162646E-04 +2.891266E-04 -1.776667E-04 
 +5.088489E-03 +1.582005E-05 -6.083430E-05 +1.582005E-05 -1.346324E-04 +2.289841E-04 -6.083430E-05 +2.289841E-04 -1.956406E-04 
 +5.050460E-03 +7.077832E-05 -3.138420E-05 +7.077832E-05 -7.874613E-05 +2.101276E-04 -3.138420E-05 +2.101276E-04 -2.041067E-04 
 +5.037284E-03 +1.637578E-04 -8.462614E-05 +1.637578E-04 +9.327424E-07 +3.590762E-05 -8.462614E-05 +3.590762E-05 -2.430752E-04 
 +4.990215E-03 +2.826559E-04 -1.522488E-04 +2.826559E-04 +6.832677E-05 -1.802459E-04 -1.522488E-04 -1.802459E-04 -1.750480E-04 
 +4.946554E-03 +2.489848E-04 +1.200313E-05 +2.489848E-04 +1.643304E-04 -1.856585E-04 +1.200313E-05 -1.856585E-04 -1.736498E-04 
 +5.023776E-03 +8.640886E-05 +9.708060E-05 +8.640886E-05 +2.565000E-04 -1.536727E-04 +9.708060E-05 -1.536727E-04 -2.244721E-04 
 +4.852819E-03 +1.533199E-04 -1.887591E-05 +1.533199E-04 +2.324390E-04 -1.556374E-04 -1.887591E-05 -1.556374E-04 -1.323886E-04 
 +4.910409E-03 +2.662933E-05 -1.970523E-05 +2.662933E-05 +1.089963E-04 -8.725589E-05 -1.970523E-05 -8.725589E-05 -6.296916E-05 
 +4.939476E-03 -3.553780E-05 -1.321240E-04 -3.553780E-05 +4.178524E-05 +4.678824E-05 -1.321240E-04 +4.678824E-05 -1.285148E-06 
 +4.773660E-03 -2.200347E-04 -1.925061E-04 -2.200347E-04 +2.749708E-05 +1.530826E-04 -1.925061E-04 +1.530826E-04 +4.245810E-05 
 +4.711626E-03 -1.961153E-04 -2.330781E-04 -1.961153E-04 +1.444715E-04 +1.213014E-04 -2.330781E-04 +1.213014E-04 +1.213937E-04 
 +4.756764E-03 -1.990691E-04 -2.978154E-04 -1.990691E-04 +1.432776E-04 +2.216093E-05 -2.978154E-04 +2.216093E-05 +7.868143E-05 
 +4.949711E-03 +1.187737E-04 -2.282353E-04 +1.187737E-04 +8.833846E-05 -7.351547E-05 -2.282353E-04 -7.351547E-05 +1.223426E-05 
 +5.037141E-03 +1.237283E-04 -1.257733E-04 +1.237283E-04 +2.077686E-05 -6.301157E-05 -1.257733E-04 -6.301157E-05 -1.256138E-04 
 +5.189057E-03 +4.463161E-05 -5.878061E-05 +4.463161E-05 -7.483162E-05 +2.338632E-05 -5.878061E-05 +2.338632E-05 -2.635816E-04 
 +5.103759E-03 -5.662346E-05 -6.784618E-05 -5.662346E-05 -1.393764E-04 +8.234972E-05 -6.784618E-05 +8.234972E-05 -2.019835E-04 
 +5.032781E-03 -9.841795E-05 +5.293596E-05 -9.841795E-05 -9.313083E-05 +4.830402E-05 +5.293596E-05 +4.830402E-05 -7.743725E-05 
 +5.049028E-03 -1.468552E-04 +4.815387E-05 -1.468552E-04 -4.129909E-05 +6.125150E-05 +4.815387E-05 +6.125150E-05 -1.265052E-04 
 +5.058509E-03 -1.151548E-04 -4.318759E-05 -1.151548E-04 +2.179097E-05 +1.269694E-04 -4.318759E-05 +1.269694E-04 -2.138884E-04 
 +5.045138E-03 -9.551466E-05 -9.994513E-05 -9.551466E-05 +1.849317E-05 +1.853169E-04 -9.994513E-05 +1.853169E-04 -1.828681E-04 
 +5.098416E-03 -5.548129E-06 -9.055579E-05 -5.548129E-06 -1.376372E-04 +2.343578E-04 -9.055579E-05 +2.343578E-04 -2.025788E-04 
 +5.105667E-03 +2.495436E-05 -6.833249E-05 +2.495436E-05 -1.608011E-04 +2.333683E-04 -6.833249E-05 +2.333683E-04 -3.001972E-04 
 +5.038830E-03 +6.569867E-05 -3.713569E-05 +6.569867E-05 -3.886256E-05 +2.102288E-04 -3.713569E-05 +2.102288E-04 -3.180912E-04 
 +5.003276E-03 +1.119912E-04 -1.729786E-04 +1.119912E-04 +1.273014E-06 +2.254134E-04 -1.729786E-04 +2.254134E-04 -2.175204E-04 
 +5.008556E-03 +1.468698E-04 -2.084288E-04 +1.468698E-04 -5.058463E-05 +3.455238E-04 -2.084288E-04 +3.455238E-04 -3.913521E-05 
 +5.002179E-03 +2.032592E-04 -4.774031E-05 +2.032592E-04 +1.396493E-05 +2.785231E-04 -4.774031E-05 +2.785231E-04 -4.106815E-05 
 +5.042672E-03 +5.784172E-05 +6.918644E-05 +5.784172E-05 +2.341850E-04 -3.614664E-05 +6.918644E-05 -3.614664E-05 -9.998475E-05 
 +4.867871E-03 +7.235910E-05 +4.940389E-05 +7.235910E-05 +2.583217E-04 -1.294692E-04 +4.940389E-05 -1.294692E-04 +3.123662E-05 
 +4.919697E-03 +4.243846E-08 +7.016201E-05 +4.243846E-08 +9.609656E-05 -5.455917E-05 +7.016201E-05 -5.455917E-05 +1.285639E-05 
 +4.944005E-03 -3.370835E-05 -5.486339E-05 -3.370835E-05 -2.969632E-05 +5.857897E-05 -5.486339E-05 +5.857897E-05 -7.049732E-05 
 +4.741987E-03 -7.148747E-05 -2.141305E-04 -7.148747E-05 -1.199620E-04 +7.827300E-05 -2.141305E-04 +7.827300E-05 +2.508858E-04 
 +4.759479E-03 -3.319436E-06 -3.137714E-04 -3.319436E-06 -7.646396E-05 -3.159807E-05 -3.137714E-04 -3.159807E-05 +2.267376E-04 
 +4.823470E-03 +3.708819E-05 -3.616809E-04 +3.708819E-05 +9.962027E-05 +7.190958E-06 -3.616809E-04 +7.190958E-06 +1.088463E-04 
 +4.938833E-03 +1.743710E-04 -1.845016E-04 +1.743710E-04 +2.066843E-04 +1.000966E-04 -1.845016E-04 +1.000966E-04 -1.082382E-05 
 +5.089537E-03 +8.501349E-05 -1.255850E-04 +8.501349E-05 -5.732471E-05 +1.398294E-04 -1.255850E-04 +1.398294E-04 -1.179436E-04 
 +5.172198E-03 +3.006057E-05 -6.992991E-05 +3.006057E-05 -2.220315E-04 +1.324769E-04 -6.992991E-05 +1.324769E-04 -1.964921E-04 
 +5.168788E-03 -1.084417E-04 -2.309816E-05 -1.084417E-04 -1.164865E-04 +1.172760E-04 -2.309816E-05 +1.172760E-04 -3.072972E-04 
 +5.118373E-03 -1.140198E-04 +8.761162E-06 -1.140198E-04 -3.056632E-05 +1.234848E-04 +8.761162E-06 +1.234848E-04 -2.863798E-04 
 +5.058565E-03 -1.120674E-04 +2.903944E-05 -1.120674E-04 -3.047865E-05 +1.032455E-04 +2.903944E-05 +1.032455E-04 -1.813053E-04 
 +4.984895E-03 -8.852988E-05 -2.432652E-06 -8.852988E-05 -2.827651E-05 +1.081338E-04 -2.432652E-06 +1.081338E-04 -1.558866E-04 
 +4.997647E-03 -1.396583E-04 +6.163195E-05 -1.396583E-04 +2.510717E-05 +8.112865E-05 +6.163195E-05 +8.112865E-05 -2.072659E-04 
 +5.031461E-03 -3.055019E-05 +1.535454E-05 -3.055019E-05 +7.919671E-05 +6.299499E-05 +1.535454E-05 +6.299499E-05 -3.399415E-04 
 +5.130276E-03 +8.707199E-05 -1.871027E-05 +8.707199E-05 +2.721176E-05 +1.588964E-04 -1.871027E-05 +1.588964E-04 -4.017444E-04 
 +5.121539E-03 +5.972765E-05 -4.369869E-05 +5.972765E-05 +6.825749E-05 +1.525837E-04 -4.369869E-05 +1.525837E-04 -3.058166E-04 
 +5.037263E-03 +1.008392E-04 -1.469437E-04 +1.008392E-04 +2.096658E-04 +2.883714E-05 -1.469437E-04 +2.883714E-05 -2.410067E-04 
 +5.020551E-03 +1.169386E-04 -1.831760E-04 +1.169386E-04 +2.374816E-04 -3.797940E-05 -1.831760E-04 -3.797940E-05 -1.624913E-04 
 +4.980111E-03 +1.754726E-04 -2.009320E-04 +1.754726E-04 +1.234345E-04 +2.349087E-05 -2.009320E-04 +2.349087E-05 -2.896778E-05 
 +4.937890E-03 +4.303803E-05 -2.652914E-06 +4.303803E-05 -5.338068E-05 +1.610845E-04 -2.652914E-06 +1.610845E-04 +7.047800E-05 
 +4.863861E-03 -5.535719E-05 +9.185701E-05 -5.535719E-05 -1.457322E-04 +1.836367E-04 +9.185701E-05 +1.836367E-04 +2.194658E-04 
 +4.839178E-03 -8.602779E-05 +4.645629E-05 -8.602779E-05 -9.549787E-05 +1.393609E-04 +4.645629E-05 +1.393609E-04 +3.005367E-04 
 +4.922463E-03 -7.988797E-05 -2.481640E-06 -7.988797E-05 -1.033159E-04 +1.572965E-04 -2.481640E-06 +1.572965E-04 +2.261336E-04 
 +4.784206E-03 -7.635658E-05 -3.219260E-04 -7.635658E-05 -1.509886E-04 -1.275641E-04 -3.219260E-04 -1.275641E-04 +3.124053E-04 
 +4.771557E-03 -8.085398E-05 -3.387636E-04 -8.085398E-05 -5.268762E-05 -9.220568E-05 -3.387636E-04 -9.220568E-05 +1.798297E-04 
 +4.807763E-03 +1.900493E-05 -3.217631E-04 +1.900493E-05 -4.018621E-05 -2.334425E-05 -3.217631E-04 -2.334425E-05 +9.417537E-05 
 +5.011076E-03 +3.966486E-05 -9.435371E-05 +3.966486E-05 -1.620824E-04 +5.285390E-05 -9.435371E-05 +5.285390E-05 -6.496901E-06 
 +5.042221E-03 +3.346603E-05 -5.685214E-05 +3.346603E-05 -1.924855E-04 +8.367334E-05 -5.685214E-05 +8.367334E-05 -1.032924E-04 
 +5.080093E-03 +4.933715E-05 -3.064649E-05 +4.933715E-05 -1.526467E-04 +1.259623E-04 -3.064649E-05 +1.259623E-04 -1.445048E-04 
 +5.191947E-03 -5.945317E-05 -4.467412E-05 -5.945317E-05 -1.751627E-04 +1.676630E-04 -4.467412E-05 +1.676630E-04 -3.166080E-04 
 +5.140258E-03 -9.164238E-05 +2.059574E-05 -9.164238E-05 -1.107061E-04 +1.263608E-04 +2.059574E-05 +1.263608E-04 -3.358896E-04 
 +5.047500E-03 -1.094828E-04 +4.413976E-05 -1.094828E-04 -1.051614E-05 +9.584401E-05 +4.413976E-05 +9.584401E-05 -2.469666E-04 
 +4.976988E-03 -1.207220E-04 +3.302104E-05 -1.207220E-04 +5.634482E-05 +8.894751E-05 +3.302104E-05 +8.894751E-05 -2.259471E-04 
 +4.972092E-03 -1.541736E-04 +3.782572E-05 -1.541736E-04 +1.118713E-04 +6.314183E-05 +3.782572E-05 +6.314183E-05 -3.206353E-04 
 +5.010981E-03 +2.643456E-05 +1.689903E-05 +2.643456E-05 +2.614879E-04 +7.777763E-05 +1.689903E-05 +7.777763E-05 -5.814190E-04 
 +5.074690E-03 +7.818701E-05 +5.739124E-05 +7.818701E-05 +3.910928E-04 +7.323091E-05 +5.739124E-05 +7.323091E-05 -6.645010E-04 
 +5.078791E-03 +8.620944E-05 -2.611977E-05 +8.620944E-05 +3.739904E-04 +3.088795E-05 -2.611977E-05 +3.088795E-05 -4.947938E-04 
 +5.046433E-03 +9.671637E-05 -1.255942E-04 +9.671637E-05 +3.330084E-04 +3.744043E-05 -1.255942E-04 +3.744043E-05 -3.882890E-04 
 +5.009693E-03 +1.224398E-04 -1.307329E-04 +1.224398E-04 +3.007017E-04 +7.611687E-05 -1.307329E-04 +7.611687E-05 -2.989798E-04 
 +4.970783E-03 +1.677439E-04 -1.287531E-04 +1.677439E-04 +1.966860E-04 +1.199906E-04 -1.287531E-04 +1.199906E-04 -1.381804E-04 
 +4.959018E-03 +3.977682E-05 +5.155801E-06 +3.977682E-05 -2.670457E-06 +1.435154E-04 +5.155801E-06 +1.435154E-04 +4.129687E-05 
 +4.939410E-03 -3.823947E-05 +7.861128E-05 -3.823947E-05 -1.349031E-04 +1.047446E-04 +7.861128E-05 +1.047446E-04 +2.334749E-04 
 +4.871447E-03 -8.244152E-05 +1.348117E-04 -8.244152E-05 -2.054420E-04 -6.528903E-06 +1.348117E-04 -6.528903E-06 +3.752850E-04 
 +4.951415E-03 -1.250074E-04 +5.842355E-05 -1.250074E-04 -2.324109E-04 -1.060540E-04 +5.842355E-05 -1.060540E-04 +3.720016E-04 
 +4.807065E-03 -5.930925E-05 -2.555687E-04 -5.930925E-05 -8.783087E-05 -1.129446E-04 -2.555687E-04 -1.129446E-04 +2.143144E-04 
 +4.799654E-03 -8.038626E-05 -2.974234E-04 -8.038626E-05 -6.240010E-05 -7.846479E-05 -2.974234E-04 -7.846479E-05 +5.651852E-05 
 +4.847066E-03 +1.416609E-05 -2.981066E-04 +1.416609E-05 -1.358462E-04 -6.598657E-05 -2.981066E-04 -6.598657E-05 +2.933320E-05 
 +5.076977E-03 +4.321871E-06 -1.170059E-05 +4.321871E-06 -1.772408E-04 -7.985684E-06 -1.170059E-05 -7.985684E-06 -4.129316E-05 
 +5.027341E-03 +2.938091E-05 -1.853082E-05 +2.938091E-05 -1.708433E-04 +3.390160E-05 -1.853082E-05 +3.390160E-05 -1.083205E-04 
 +5.043466E-03 +4.180567E-05 -1.283035E-05 +4.180567E-05 -1.546219E-04 +7.018396E-05 -1.283035E-05 +7.018396E-05 -1.710040E-04 
 +5.145891E-03 -3.886413E-05 -4.245741E-05 -3.886413E-05 -1.076198E-04 +1.625091E-04 -4.245741E-05 +1.625091E-04 -3.490877E-04 
 +5.121892E-03 -7.231278E-05 -2.328565E-05 -7.231278E-05 -3.166948E-05 +1.613948E-04 -2.328565E-05 +1.613948E-04 -3.760432E-04 
 +5.018386E-03 -1.236936E-04 +4.230682E-05 -1.236936E-04 +6.404408E-05 +8.245962E-05 +4.230682E-05 +8.245962E-05 -3.198747E-04 
 +4.966165E-03 -1.311470E-04 +3.974218E-05 -1.311470E-04 +1.348395E-04 +4.770458E-05 +3.974218E-05 +4.770458E-05 -3.114841E-04 
 +4.945709E-03 -1.491391E-04 +3.462959E-06 -1.491391E-04 +2.061502E-04 +2.646265E-05 +3.462959E-06 +2.646265E-05 -3.781152E-04 
 +5.009985E-03 +5.102600E-05 -5.136220E-06 +5.102600E-05 +3.220721E-04 +4.410140E-05 -5.136220E-06 +4.410140E-05 -5.716276E-04 
 +5.046739E-03 +9.348380E-06 +4.968342E-05 +9.348380E-06 +3.817514E-04 +6.954045E-05 +4.968342E-05 +6.954045E-05 -6.184388E-04 
 +5.058035E-03 +4.347851E-05 -1.721287E-06 +4.347851E-05 +3.494641E-04 +4.680492E-05 -1.721287E-06 +4.680492E-05 -5.140554E-04 
 +5.080561E-03 +9.615289E-05 -5.427097E-05 +9.615289E-05 +3.140661E-04 +4.308369E-05 -5.427097E-05 +4.308369E-05 -4.487080E-04 
 +5.074232E-03 +1.376746E-04 -7.380319E-05 +1.376746E-04 +3.014939E-04 +8.180438E-05 -7.380319E-05 +8.180438E-05 -3.726532E-04 
 +5.017811E-03 +1.224191E-04 -6.879562E-05 +1.224191E-04 +2.453583E-04 +1.499679E-04 -6.879562E-05 +1.499679E-04 -2.564692E-04 
 +4.955555E-03 -2.503763E-05 -4.564947E-05 -2.503763E-05 +1.015513E-04 +1.755161E-04 -4.564947E-05 +1.755161E-04 -4.320193E-05 
 +4.930698E-03 -2.114706E-05 -1.711805E-05 -2.114706E-05 -9.356392E-06 +1.055917E-04 -1.711805E-05 +1.055917E-04 +1.386537E-04 
 +4.866172E-03 -1.005385E-04 +6.137897E-05 -1.005385E-04 -4.846025E-05 -1.470731E-05 +6.137897E-05 -1.470731E-05 +2.554947E-04 
 +4.898973E-03 -1.581115E-04 +8.127581E-05 -1.581115E-04 -1.007101E-04 -1.141325E-04 +8.127581E-05 -1.141325E-04 +3.239021E-04 
 +4.856469E-03 -1.701946E-05 -1.893682E-04 -1.701946E-05 -3.581199E-05 -3.138789E-05 -1.893682E-04 -3.138789E-05 +1.398527E-04 
 +4.864008E-03 -3.075982E-05 -2.237743E-04 -3.075982E-05 -9.897888E-05 -2.283754E-05 -2.237743E-04 -2.283754E-05 +6.637919E-05 
 +4.862003E-03 -9.005009E-06 -2.713026E-04 -9.005009E-06 -1.279467E-04 -2.526697E-05 -2.713026E-04 -2.526697E-05 +3.173776E-05 
 +5.076409E-03 -4.813970E-06 +1.914704E-05 -4.813970E-06 -1.968329E-04 -7.844296E-06 +1.914704E-05 -7.844296E-06 -3.344517E-05 
 +5.046793E-03 +5.929674E-05 -2.004162E-05 +5.929674E-05 -2.221590E-04 +1.142882E-05 -2.004162E-05 +1.142882E-05 -8.868818E-05 
 +5.011406E-03 +8.645659E-05 -1.908643E-05 +8.645659E-05 -1.808507E-04 +7.538541E-05 -1.908643E-05 +7.538541E-05 -1.957373E-04 
 +5.069945E-03 +2.016978E-05 -2.332001E-05 +2.016978E-05 -4.472964E-05 +1.571318E-04 -2.332001E-05 +1.571318E-04 -3.809479E-04 
 +5.047002E-03 -4.439358E-05 -3.834982E-05 -4.439358E-05 +7.848644E-05 +1.553868E-04 -3.834982E-05 +1.553868E-04 -3.841680E-04 
 +4.998489E-03 -9.346753E-05 -1.709497E-05 -9.346753E-05 +1.329519E-04 +1.104809E-04 -1.709497E-05 +1.104809E-04 -3.084469E-04 
 +4.915819E-03 -1.725234E-04 -5.446277E-06 -1.725234E-04 +1.501245E-04 +2.362770E-05 -5.446277E-06 +2.362770E-05 -2.718774E-04 
 +4.902658E-03 -1.554812E-04 -3.330233E-05 -1.554812E-04 +2.295466E-04 -6.076635E-06 -3.330233E-05 -6.076635E-06 -2.871746E-04 
 +5.021439E-03 +2.509608E-05 +3.545774E-06 +2.509608E-05 +2.870134E-04 +4.400443E-05 +3.545774E-06 +4.400443E-05 -3.693910E-04 
 +5.059390E-03 -1.425864E-05 +4.440346E-05 -1.425864E-05 +2.457653E-04 +5.255298E-05 +4.440346E-05 +5.255298E-05 -3.923665E-04 
 +5.083873E-03 +5.772291E-09 +1.869443E-05 +5.772291E-09 +2.252328E-04 +3.917800E-05 +1.869443E-05 +3.917800E-05 -3.764289E-04 
 +5.136107E-03 +6.626396E-05 +1.259010E-05 +6.626396E-05 +2.035430E-04 +5.154085E-05 +1.259010E-05 +5.154085E-05 -3.995467E-04 
 +5.146870E-03 +1.425429E-04 +2.358131E-05 +1.425429E-04 +2.425555E-04 +1.026816E-04 +2.358131E-05 +1.026816E-04 -3.987219E-04 
 +5.110325E-03 +1.113666E-04 +1.562125E-05 +1.113666E-04 +3.054055E-04 +1.769777E-04 +1.562125E-05 +1.769777E-04 -2.819484E-04 
 +4.923373E-03 -7.743371E-05 -1.549300E-04 -7.743371E-05 +2.940371E-04 +2.049506E-04 -1.549300E-04 +2.049506E-04 -8.827453E-05 
 +4.896642E-03 -7.558184E-05 -1.258228E-04 -7.558184E-05 +2.251094E-04 +1.959134E-04 -1.258228E-04 +1.959134E-04 +2.660282E-05 
 +4.854849E-03 -1.237907E-04 -8.006144E-05 -1.237907E-04 +1.879939E-04 +1.577920E-04 -8.006144E-05 +1.577920E-04 +4.492865E-05 
 +4.854497E-03 -1.873791E-04 -4.647712E-06 -1.873791E-04 +1.129851E-04 +4.310070E-05 -4.647712E-06 +4.310070E-05 +1.130758E-04 
 +4.902564E-03 +1.865014E-05 -1.425367E-04 +1.865014E-05 -2.290939E-05 +5.372991E-05 -1.425367E-04 +5.372991E-05 +1.027796E-04 
 +4.895727E-03 +5.566672E-05 -1.867449E-04 +5.566672E-05 -8.194149E-05 +5.996714E-05 -1.867449E-04 +5.996714E-05 +8.885545E-05 
 +4.875145E-03 +3.451296E-05 -2.289892E-04 +3.451296E-05 -1.553575E-04 +9.427812E-05 -2.289892E-04 +9.427812E-05 +8.824910E-05 
 +5.057345E-03 +6.210056E-05 -8.198727E-06 +6.210056E-05 -2.828636E-04 +8.796050E-05 -8.198727E-06 +8.796050E-05 +2.524981E-05 
 +5.033197E-03 +1.397332E-04 -4.368417E-05 +1.397332E-04 -2.934986E-04 +2.320523E-05 -4.368417E-05 +2.320523E-05 -4.732094E-05 
 +4.933863E-03 +1.693361E-04 -6.533366E-05 +1.693361E-04 -1.775742E-04 -5.087207E-06 -6.533366E-05 -5.087207E-06 -1.712292E-04 
 +4.961126E-03 +1.208340E-04 -3.618175E-05 +1.208340E-04 -2.650413E-05 +6.168447E-05 -3.618175E-05 +6.168447E-05 -3.128058E-04 
 +5.046618E-03 +1.910874E-05 -1.683549E-05 +1.910874E-05 +8.574384E-05 +1.430458E-04 -1.683549E-05 +1.430458E-04 -2.341278E-04 
 +4.895510E-03 -5.204950E-05 -8.945666E-05 -5.204950E-05 +1.065130E-04 +1.184615E-04 -8.945666E-05 +1.184615E-04 -9.309280E-05 
 +4.802245E-03 -1.668612E-04 -1.047759E-04 -1.668612E-04 +1.274594E-04 +4.965612E-05 -1.047759E-04 +4.965612E-05 -8.589524E-05 
 +4.950969E-03 -3.253815E-05 -3.967153E-05 -3.253815E-05 +2.315511E-04 +5.680057E-05 -3.967153E-05 +5.680057E-05 -1.693390E-04 
 +5.022704E-03 +3.474278E-05 +1.446434E-05 +3.474278E-05 +2.644160E-04 +5.923582E-05 +1.446434E-05 +5.923582E-05 -2.291178E-04 
 +5.052348E-03 -1.618669E-05 +6.120149E-05 -1.618669E-05 +2.153073E-04 +5.153162E-05 +6.120149E-05 +5.153162E-05 -2.668378E-04 
 +5.091398E-03 -3.808210E-05 +5.189633E-05 -3.808210E-05 +1.541603E-04 +6.535678E-05 +5.189633E-05 +6.535678E-05 -2.880829E-04 
 +5.156014E-03 +1.880898E-05 +8.874243E-05 +1.880898E-05 +8.685057E-05 +5.414449E-05 +8.874243E-05 +5.414449E-05 -3.130731E-04 
 +5.220468E-03 +6.617289E-05 +1.246602E-04 +6.617289E-05 -1.595006E-05 +5.559445E-05 +1.246602E-04 +5.559445E-05 -2.530718E-04 
 +5.139842E-03 +2.217261E-05 +6.370461E-05 +2.217261E-05 -7.200093E-05 +8.003979E-05 +6.370461E-05 +8.003979E-05 -6.923115E-05 
 +4.944799E-03 -1.507058E-04 -1.709030E-04 -1.507058E-04 +7.127637E-05 +1.804939E-04 -1.709030E-04 +1.804939E-04 +3.449161E-05 
 +4.921029E-03 -1.275977E-04 -1.793053E-04 -1.275977E-04 +1.817126E-04 +2.702355E-04 -1.793053E-04 +2.702355E-04 +5.864826E-05 
 +4.917650E-03 -1.062098E-04 -1.766343E-04 -1.062098E-04 +1.520278E-04 +2.475797E-04 -1.766343E-04 +2.475797E-04 +3.861036E-05 
 +4.917762E-03 -1.715554E-04 -7.945878E-05 -1.715554E-04 +8.283887E-05 +1.406221E-04 -7.945878E-05 +1.406221E-04 +5.349951E-05 
 +4.888015E-03 -1.070669E-04 -4.307967E-05 -1.070669E-04 +7.998711E-05 +1.034811E-04 -4.307967E-05 +1.034811E-04 +7.474548E-05 
 +4.901138E-03 -7.588525E-05 -1.091772E-04 -7.588525E-05 +3.241613E-05 +1.036177E-04 -1.091772E-04 +1.036177E-04 +8.260532E-05 
 +4.918354E-03 -1.136846E-04 -1.205199E-04 -1.136846E-04 +3.329579E-05 +9.421701E-05 -1.205199E-04 +9.421701E-05 +9.478857E-05 
 +4.953052E-03 -1.105989E-04 -2.221843E-05 -1.105989E-04 +1.122448E-04 +4.660427E-05 -2.221843E-05 +4.660427E-05 +3.250051E-05 
 +4.992926E-03 -3.035449E-05 -1.123826E-05 -3.035449E-05 +1.108619E-04 -3.137709E-05 -1.123826E-05 -3.137709E-05 +5.728625E-06 
 +4.963979E-03 +1.116869E-04 -1.325721E-04 +1.116869E-04 +8.265644E-05 -9.442835E-05 -1.325721E-04 -9.442835E-05 -3.343984E-05 
 +4.948152E-03 +1.122560E-04 -1.046552E-04 +1.122560E-04 -3.163490E-05 -1.163352E-04 -1.046552E-04 -1.163352E-04 -8.523671E-05 
 +5.064496E-03 +1.025026E-04 -6.403513E-05 +1.025026E-04 -1.297674E-04 -9.491802E-05 -6.403513E-05 -9.491802E-05 +3.380117E-05 
 +4.770256E-03 +5.666809E-05 -1.522808E-04 +5.666809E-05 +2.971435E-05 -5.377968E-05 -1.522808E-04 -5.377968E-05 +1.861196E-04 
 +4.696966E-03 -4.542552E-05 -1.523345E-04 -4.542552E-05 +2.044999E-04 -2.079970E-05 -1.523345E-04 -2.079970E-05 +1.423402E-04 
 +4.923398E-03 -1.404117E-05 -6.006004E-05 -1.404117E-05 +2.149128E-04 +8.545561E-06 -6.006004E-05 +8.545561E-06 -1.757000E-05 
 +5.047863E-03 +7.932941E-06 +3.146956E-05 +7.932941E-06 +2.206444E-04 +4.911158E-05 +3.146956E-05 +4.911158E-05 -1.093334E-04 
 +5.050779E-03 -1.606087E-05 +8.113927E-05 -1.606087E-05 +2.251278E-04 +8.373927E-05 +8.113927E-05 +8.373927E-05 -1.795918E-04 
 +5.068907E-03 -4.572268E-05 +7.594681E-05 -4.572268E-05 +1.711410E-04 +9.441136E-05 +7.594681E-05 +9.441136E-05 -2.315441E-04 
 +5.163809E-03 -4.415257E-05 +1.112833E-04 -4.415257E-05 -1.977188E-05 +4.006655E-05 +1.112833E-04 +4.006655E-05 -2.062778E-04 
 +5.122389E-03 -2.959008E-05 +1.175145E-04 -2.959008E-05 -2.272229E-04 -1.672990E-05 +1.175145E-04 -1.672990E-05 -7.897256E-05 
 +5.141140E-03 -2.644773E-05 +1.908954E-05 -2.644773E-05 -2.230991E-04 -1.789560E-05 +1.908954E-05 -1.789560E-05 -1.223620E-05 
 +5.087423E-03 -1.092809E-04 -6.605164E-05 -1.092809E-04 -1.557917E-04 +4.832488E-05 -6.605164E-05 +4.832488E-05 +1.237070E-06 
 +5.023357E-03 -8.960537E-05 -8.382473E-05 -8.960537E-05 -9.726120E-06 +1.797812E-04 -8.382473E-05 +1.797812E-04 +2.253544E-05 
 +5.068168E-03 -1.099109E-04 -1.675063E-04 -1.099109E-04 +1.113899E-04 +2.168716E-04 -1.675063E-04 +2.168716E-04 -1.302982E-05 
 +4.943652E-03 -2.169377E-04 -2.834943E-05 -2.169377E-04 +1.023123E-04 +1.455610E-04 -2.834943E-05 +1.455610E-04 +1.144999E-05 
 +4.850533E-03 -1.335618E-04 +4.135931E-05 -1.335618E-04 +5.287149E-05 +1.362112E-04 +4.135931E-05 +1.362112E-04 +6.526667E-05 
 +4.887138E-03 -1.084387E-04 -1.061679E-05 -1.084387E-04 +3.208477E-05 +1.129314E-04 -1.061679E-05 +1.129314E-04 +9.631966E-05 
 +4.904936E-03 -1.150095E-04 -3.130078E-05 -1.150095E-04 +5.262384E-05 +8.067287E-05 -3.130078E-05 +8.067287E-05 +9.950448E-05 
 +4.897326E-03 -9.711568E-05 -2.453586E-05 -9.711568E-05 +6.502357E-05 +3.099576E-05 -2.453586E-05 +3.099576E-05 +8.097623E-05 
 +5.021047E-03 -9.416892E-06 -5.224996E-06 -9.416892E-06 +1.309730E-05 -5.007593E-05 -5.224996E-06 -5.007593E-05 +1.762387E-04 
 +5.054547E-03 +1.677897E-04 -1.804219E-04 +1.677897E-04 -4.211851E-05 -1.031928E-04 -1.804219E-04 -1.031928E-04 +1.603338E-04 
 +4.992106E-03 +8.185153E-05 -1.696637E-04 +8.185153E-05 +1.396411E-05 -8.411411E-05 -1.696637E-04 -8.411411E-05 +5.784456E-05 
 +4.958775E-03 +4.369046E-05 -1.377286E-04 +4.369046E-05 +7.821217E-05 -5.967751E-05 -1.377286E-04 -5.967751E-05 +1.728338E-04 
 +4.789074E-03 +6.612242E-05 -1.690359E-04 +6.612242E-05 +7.921955E-05 -1.889650E-05 -1.690359E-04 -1.889650E-05 +3.260902E-04 
 +4.695010E-03 +6.425706E-05 -1.516283E-04 +6.425706E-05 +1.946715E-04 +1.498767E-05 -1.516283E-04 +1.498767E-05 +3.354578E-04 
 +4.719495E-03 +2.540895E-05 -1.010072E-04 +2.540895E-05 +2.609095E-04 +4.752758E-05 -1.010072E-04 +4.752758E-05 +1.675650E-04 
 +5.118422E-03 +5.497463E-05 +4.784175E-05 +5.497463E-05 +1.897686E-04 +1.220042E-04 +4.784175E-05 +1.220042E-04 -2.340082E-05 
 +5.145943E-03 +3.702883E-05 +3.815761E-05 +3.702883E-05 +1.823308E-04 +1.115595E-04 +3.815761E-05 +1.115595E-04 -1.303001E-04 
 +5.073960E-03 +5.537735E-05 +7.564670E-05 +5.537735E-05 +1.838349E-04 +5.718746E-05 +7.564670E-05 +5.718746E-05 -2.024050E-04 
 +5.023042E-03 -7.617999E-05 +6.098601E-05 -7.617999E-05 +1.656652E-04 +3.889486E-05 +6.098601E-05 +3.889486E-05 -1.771845E-04 
 +4.859738E-03 -1.099341E-04 -1.811493E-05 -1.099341E-04 +1.111508E-04 -3.581291E-05 -1.811493E-05 -3.581291E-05 -1.225164E-04 
 +5.263693E-03 -6.942742E-05 -8.603408E-07 -6.942742E-05 -5.007394E-05 -4.988266E-06 -8.603408E-07 -4.988266E-06 -1.975890E-04 
 +5.215333E-03 -9.119437E-05 -1.178319E-05 -9.119437E-05 -1.290218E-04 +8.659284E-05 -1.178319E-05 +8.659284E-05 -2.111365E-04 
 +5.205234E-03 -3.149873E-05 -1.544025E-05 -3.149873E-05 -1.286813E-04 -6.397157E-06 -1.544025E-05 -6.397157E-06 -1.470259E-04 
 +5.191751E-03 -5.405705E-05 -7.204125E-05 -5.405705E-05 -7.052969E-05 -1.665288E-05 -7.204125E-05 -1.665288E-05 -1.091491E-04 
 +4.871053E-03 -2.353496E-04 +9.144579E-05 -2.353496E-04 +4.057279E-05 +1.119418E-04 +9.144579E-05 +1.119418E-04 -2.152277E-05 
 +4.840420E-03 -1.809909E-04 +5.513680E-05 -1.809909E-04 +3.224781E-05 +1.381163E-04 +5.513680E-05 +1.381163E-04 +3.958425E-05 
 +4.853466E-03 -1.533059E-04 -1.254210E-05 -1.533059E-04 +4.231036E-05 +1.419702E-04 -1.254210E-05 +1.419702E-04 +1.012598E-04 
 +4.882267E-03 -1.429208E-04 -3.934132E-05 -1.429208E-04 +3.195363E-05 +1.096737E-04 -3.934132E-05 +1.096737E-04 +1.261208E-04 
 +4.945655E-03 -1.268662E-04 -5.621444E-05 -1.268662E-04 +1.623733E-05 +8.552032E-05 -5.621444E-05 +8.552032E-05 +1.550752E-04 
 +5.048880E-03 -5.508870E-05 -4.651633E-05 -5.508870E-05 +1.997113E-05 +5.766615E-05 -4.651633E-05 +5.766615E-05 +3.075809E-04 
 +5.030271E-03 +7.224885E-05 -2.106333E-04 +7.224885E-05 +2.208267E-05 -9.826557E-06 -2.106333E-04 -9.826557E-06 +2.834366E-04 
 +4.986210E-03 +1.978507E-05 -1.572539E-04 +1.978507E-05 +3.198218E-05 -7.341582E-05 -1.572539E-04 -7.341582E-05 +1.320784E-04 
 +4.905401E-03 +1.103922E-05 -1.396287E-04 +1.103922E-05 +6.763997E-05 -7.261621E-05 -1.396287E-04 -7.261621E-05 +1.955092E-04 
 +4.822056E-03 +5.723670E-05 -1.308898E-04 +5.723670E-05 +8.931707E-05 -5.186924E-05 -1.308898E-04 -5.186924E-05 +3.243811E-04 
 +4.771064E-03 +9.492533E-05 -1.033592E-04 +9.492533E-05 +1.718637E-04 -3.869034E-05 -1.033592E-04 -3.869034E-05 +3.916437E-04 
 +4.777576E-03 +1.135190E-04 -6.455833E-05 +1.135190E-04 +3.390818E-04 +4.833684E-05 -6.455833E-05 +4.833684E-05 +2.219758E-04 
 +5.138801E-03 +1.750996E-04 +7.106891E-06 +1.750996E-04 +2.875252E-04 +1.074841E-04 +7.106891E-06 +1.074841E-04 +3.824367E-05 
 +5.161044E-03 +1.622909E-04 -7.269952E-05 +1.622909E-04 +1.298440E-04 +6.501527E-05 -7.269952E-05 +6.501527E-05 +3.002313E-05 
 +5.063770E-03 +8.467248E-05 -3.572818E-05 +8.467248E-05 +1.646346E-04 -1.455650E-05 -3.572818E-05 -1.455650E-05 +3.727435E-06 
 +4.756137E-03 -3.158957E-05 -6.129870E-05 -3.158957E-05 +2.807305E-04 -9.122982E-05 -6.129870E-05 -9.122982E-05 +5.241869E-05 
 +4.698789E-03 -1.172374E-04 -4.168482E-05 -1.172374E-04 +2.158326E-04 +1.572292E-05 -4.168482E-05 +1.572292E-05 -1.036764E-05 
 +5.169728E-03 -1.715987E-04 +5.361064E-05 -1.715987E-04 -2.343908E-05 +1.928541E-04 +5.361064E-05 +1.928541E-04 -2.400221E-04 
 +5.353368E-03 -1.984136E-04 +5.699572E-05 -1.984136E-04 -1.722157E-04 +2.737461E-04 +5.699572E-05 +2.737461E-04 -3.190771E-04 
 +5.349069E-03 -1.531478E-04 +4.294926E-05 -1.531478E-04 -1.608178E-04 +3.498576E-04 +4.294926E-05 +3.498576E-04 -3.014880E-04 
 +5.285310E-03 -1.590411E-04 -4.592138E-05 -1.590411E-04 -6.414299E-05 +3.303507E-04 -4.592138E-05 +3.303507E-04 -2.262009E-04 
 +4.898834E-03 -3.065210E-04 +1.087789E-04 -3.065210E-04 +2.472481E-06 +1.992990E-04 +1.087789E-04 +1.992990E-04 -7.632012E-05 
 +4.813167E-03 -2.504486E-04 +7.229573E-05 -2.504486E-04 +9.835124E-05 +1.361031E-04 +7.229573E-05 +1.361031E-04 -2.974099E-05 
 +4.844162E-03 -2.513590E-04 -1.121276E-05 -2.513590E-04 +8.906351E-05 +1.652956E-04 -1.121276E-05 +1.652956E-04 +3.525039E-05 
 +4.868081E-03 -2.295830E-04 -4.840995E-05 -2.295830E-04 +4.378977E-05 +1.686575E-04 -4.840995E-05 +1.686575E-04 +8.610378E-05 
 +4.928728E-03 -2.558431E-04 -5.216343E-05 -2.558431E-04 +9.695614E-06 +1.866574E-04 -5.216343E-05 +1.866574E-04 +7.827064E-05 
 +5.137091E-03 -1.249184E-04 -4.202704E-05 -1.249184E-04 +6.092542E-05 +1.752768E-04 -4.202704E-05 +1.752768E-04 +1.033272E-04 
 +5.019725E-03 +2.771672E-05 -2.446216E-04 +2.771672E-05 +8.670009E-05 +1.135255E-04 -2.446216E-04 +1.135255E-04 +1.186913E-04 
 +4.976807E-03 +2.664373E-05 -1.766198E-04 +2.664373E-05 +2.172978E-05 +4.929394E-05 -1.766198E-04 +4.929394E-05 +1.095479E-04 
 +4.936926E-03 +4.120918E-05 -1.080072E-04 +4.120918E-05 +8.075199E-05 -3.018818E-05 -1.080072E-04 -3.018818E-05 +1.594460E-04 
 +4.838156E-03 +6.772943E-05 -5.807288E-05 +6.772943E-05 +1.951740E-04 -7.970683E-05 -5.807288E-05 -7.970683E-05 +2.250669E-04 
 +4.833203E-03 +1.083527E-04 -2.291464E-05 +1.083527E-04 +1.293745E-04 -2.324705E-05 -2.291464E-05 -2.324705E-05 +2.763994E-04 
 +5.055175E-03 +1.448459E-04 +2.470195E-05 +1.448459E-04 +4.392815E-06 +1.114829E-04 +2.470195E-05 +1.114829E-04 +1.813944E-04 
 +5.150792E-03 +1.026211E-04 -9.451556E-05 +1.026211E-04 +4.471384E-05 +1.275278E-04 -9.451556E-05 +1.275278E-04 +8.903697E-05 
 +5.026595E-03 +1.503515E-04 -1.838393E-04 +1.503515E-04 +1.681456E-04 +8.123422E-05 -1.838393E-04 +8.123422E-05 +1.175693E-04 
 +4.986398E-03 +7.401454E-05 -1.544667E-04 +7.401454E-05 +2.142355E-04 +7.835675E-05 -1.544667E-04 +7.835675E-05 +1.273279E-04 
 +4.802758E-03 +7.334769E-05 -1.041761E-04 +7.334769E-05 +1.601522E-04 +5.408961E-05 -1.041761E-04 +5.408961E-05 +2.302483E-04 
 +4.685308E-03 +7.545551E-05 -1.807641E-05 +7.545551E-05 +1.306759E-04 +3.774509E-06 -1.807641E-05 +3.774509E-06 +2.405598E-04 
 +4.819452E-03 +2.107442E-05 +1.789496E-05 +2.107442E-05 +8.648801E-05 -2.163896E-05 +1.789496E-05 -2.163896E-05 -4.306985E-05 
 +5.265052E-03 -1.615840E-04 +9.479036E-05 -1.615840E-04 -1.410405E-04 +5.372467E-06 +9.479036E-05 +5.372467E-06 -2.750445E-04 
 +5.430335E-03 -1.158692E-04 +8.756378E-05 -1.158692E-04 -3.464238E-04 -4.073973E-05 +8.756378E-05 -4.073973E-05 -3.208930E-04 
 +5.399834E-03 -3.413789E-05 -6.474535E-05 -3.413789E-05 -2.691426E-04 -5.573384E-05 -6.474535E-05 -5.573384E-05 -2.566469E-04 
 +4.920306E-03 -2.604642E-04 +1.043912E-04 -2.604642E-04 -3.925839E-05 +5.571856E-05 +1.043912E-04 +5.571856E-05 -1.316931E-04 
 +4.864632E-03 -3.231556E-04 +7.355228E-05 -3.231556E-04 +1.662961E-04 +5.368896E-05 +7.355228E-05 +5.368896E-05 -8.805406E-05 
 +4.793345E-03 -3.209185E-04 +2.196892E-05 -3.209185E-04 +1.857628E-04 +9.180192E-05 +2.196892E-05 +9.180192E-05 -3.649601E-05 
 +4.831167E-03 -3.598404E-04 +6.410628E-06 -3.598404E-04 +1.750979E-04 +1.200062E-04 +6.410628E-06 +1.200062E-04 -2.795798E-05 
 +4.976484E-03 -3.138598E-04 -1.451386E-06 -3.138598E-04 +1.310140E-04 +1.725751E-04 -1.451386E-06 +1.725751E-04 -1.942249E-04 
 +5.274638E-03 -9.897149E-05 -7.170746E-05 -9.897149E-05 +8.695969E-05 +1.816015E-04 -7.170746E-05 +1.816015E-04 -2.750722E-04 
 +5.071119E-03 -9.222592E-06 -2.720052E-04 -9.222592E-06 +8.115184E-05 +1.485024E-04 -2.720052E-04 +1.485024E-04 -1.411792E-04 
 +4.991937E-03 +1.880056E-05 -2.017741E-04 +1.880056E-05 +1.371026E-04 +1.283726E-04 -2.017741E-04 +1.283726E-04 -9.012795E-05 
 +4.938251E-03 +9.352886E-05 -9.943826E-05 +9.352886E-05 +1.665514E-04 +3.419602E-05 -9.943826E-05 +3.419602E-05 -5.121809E-05 
 +4.944622E-03 +1.320273E-04 -1.493306E-05 +1.320273E-04 +1.961758E-04 -5.332546E-05 -1.493306E-05 -5.332546E-05 +7.441192E-05 
 +4.912711E-03 +8.247953E-05 -5.086416E-06 +8.247953E-05 +1.675650E-04 -3.428354E-06 -5.086416E-06 -3.428354E-06 +1.205145E-04 
 +5.126906E-03 +9.052803E-05 +5.072585E-05 +9.052803E-05 +5.791045E-05 +1.459833E-04 +5.072585E-05 +1.459833E-04 +1.299707E-04 
 +5.100925E-03 +5.809434E-05 -1.273896E-04 +5.809434E-05 +8.349879E-05 +2.719656E-04 -1.273896E-04 +2.719656E-04 +1.136285E-04 
 +4.998447E-03 +9.496276E-05 -2.022655E-04 +9.496276E-05 +1.835257E-04 +3.451825E-04 -2.022655E-04 +3.451825E-04 -1.697656E-05 
 +4.997325E-03 +4.793722E-05 -1.519009E-04 +4.793722E-05 +1.673603E-04 +3.670635E-04 -1.519009E-04 +3.670635E-04 -1.007072E-04 
 +5.038585E-03 +5.790160E-05 -7.807900E-05 +5.790160E-05 +1.118954E-04 +2.558767E-04 -7.807900E-05 +2.558767E-04 -1.107408E-05 
 +4.762599E-03 +8.283519E-05 -4.573734E-05 +8.283519E-05 +1.044831E-04 +5.449123E-05 -4.573734E-05 +5.449123E-05 +2.100746E-04 
 +4.677184E-03 +9.486028E-05 -1.630863E-05 +9.486028E-05 +7.604734E-05 -9.827060E-05 -1.630863E-05 -9.827060E-05 +2.644184E-04 
 +4.895414E-03 -6.869385E-05 +4.453411E-06 -6.869385E-05 -4.239872E-05 -1.610042E-04 +4.453411E-06 -1.610042E-04 +4.216115E-05 
 +5.275660E-03 -1.205971E-04 +5.089774E-05 -1.205971E-04 -2.425587E-04 -1.547036E-04 +5.089774E-05 -1.547036E-04 -1.570146E-04 
 +5.296287E-03 -1.278043E-04 +2.172537E-05 -1.278043E-04 -3.191399E-04 -8.270335E-05 +2.172537E-05 -8.270335E-05 -1.892773E-04 
 +4.969789E-03 -2.882618E-04 +1.554267E-04 -2.882618E-04 -5.539819E-05 +5.165780E-06 +1.554267E-04 +5.165780E-06 -1.428649E-04 
 +4.852113E-03 -2.485573E-04 +7.458133E-05 -2.485573E-04 +1.375184E-04 -1.373186E-05 +7.458133E-05 -1.373186E-05 -5.135562E-05 
 +4.808381E-03 -3.512892E-04 +5.800454E-05 -3.512892E-04 +2.947889E-04 +6.643319E-06 +5.800454E-05 +6.643319E-06 -5.215547E-05 
 +4.937496E-03 -2.886137E-04 +1.393776E-06 -2.886137E-04 +2.155361E-04 +4.336247E-05 +1.393776E-06 +4.336247E-05 -1.368452E-04 
 +5.171611E-03 -9.912392E-05 -4.174991E-05 -9.912392E-05 +2.056445E-04 +2.226305E-05 -4.174991E-05 +2.226305E-05 -3.256387E-04 
 +5.229901E-03 +1.349482E-05 -1.524184E-04 +1.349482E-05 +2.496480E-04 -9.779180E-06 -1.524184E-04 -9.779180E-06 -3.335815E-04 
 +5.094032E-03 +6.018369E-05 -2.314455E-04 +6.018369E-05 +2.398855E-04 -4.580941E-05 -2.314455E-04 -4.580941E-05 -1.942158E-04 
 +5.054576E-03 +9.749703E-05 -1.295779E-04 +9.749703E-05 +2.541662E-04 -9.419701E-05 -1.295779E-04 -9.419701E-05 -2.229592E-04 
 +4.936698E-03 +9.107134E-05 -2.586262E-05 +9.107134E-05 +1.687036E-04 -3.786591E-05 -2.586262E-05 -3.786591E-05 -2.416777E-04 
 +5.021147E-03 +1.147163E-04 +2.283161E-05 +1.147163E-04 -3.212026E-05 +1.143145E-04 +2.283161E-05 +1.143145E-04 -2.811924E-05 
 +5.003287E-03 +5.342651E-05 -2.661608E-05 +5.342651E-05 -9.421328E-05 +2.147129E-04 -2.661608E-05 +2.147129E-04 +1.558722E-04 
 +5.058052E-03 +5.565800E-05 -1.434024E-05 +5.565800E-05 -5.892899E-05 +2.273669E-04 -1.434024E-05 +2.273669E-04 +2.255046E-04 
 +5.089115E-03 +1.699492E-04 -1.300724E-04 +1.699492E-04 +1.717758E-05 +2.248519E-04 -1.300724E-04 +2.248519E-04 +2.052110E-04 
 +5.070200E-03 +2.019193E-04 -1.513295E-04 +2.019193E-04 +1.073036E-04 +2.712839E-04 -1.513295E-04 +2.712839E-04 +8.749936E-06 
 +5.070912E-03 +9.268762E-05 -9.744492E-05 +9.268762E-05 +1.093706E-04 +2.962246E-04 -9.744492E-05 +2.962246E-04 -1.468059E-04 
 +5.073858E-03 +3.182816E-05 -6.144101E-05 +3.182816E-05 +7.934408E-05 +2.496218E-04 -6.144101E-05 +2.496218E-04 -1.650458E-04 
 +4.977214E-03 +4.661965E-05 +9.738123E-06 +4.661965E-05 +3.475846E-05 +1.150530E-04 +9.738123E-06 +1.150530E-04 +5.902225E-05 
 +4.677123E-03 +2.967862E-05 +4.533155E-05 +2.967862E-05 -6.914545E-05 -3.832358E-05 +4.533155E-05 -3.832358E-05 +4.055818E-04 
 +4.693919E-03 -2.373724E-05 +3.142745E-05 -2.373724E-05 -6.617454E-05 +2.848678E-07 +3.142745E-05 +2.848678E-07 +3.310072E-04 
 +4.941656E-03 +3.891413E-05 +1.086581E-04 +3.891413E-05 +7.129415E-05 +1.036784E-04 +1.086581E-04 +1.036784E-04 +1.640067E-06 
 +5.019772E-03 +1.024413E-04 +6.694083E-05 +1.024413E-04 +3.976423E-05 +1.124188E-04 +6.694083E-05 +1.124188E-04 -1.290209E-04 
 +4.957128E-03 -9.662691E-06 +7.936327E-05 -9.662691E-06 -4.553425E-05 +5.456402E-05 +7.936327E-05 +5.456402E-05 -8.803473E-05 
 +4.734582E-03 +7.228696E-05 +5.817567E-05 +7.228696E-05 -3.702812E-06 -3.052519E-05 +5.817567E-05 -3.052519E-05 +6.936591E-05 
 +5.001410E-03 -1.114403E-04 +3.885444E-05 -1.114403E-04 +5.367261E-05 -4.655672E-05 +3.885444E-05 -4.655672E-05 +3.629724E-05 
 +5.112495E-03 -4.767197E-05 -4.665027E-05 -4.767197E-05 +1.280211E-04 -3.767711E-05 -4.665027E-05 -3.767711E-05 -4.144761E-05 
 +5.176662E-03 -1.572236E-05 -8.520504E-05 -1.572236E-05 +1.491317E-04 -4.553763E-05 -8.520504E-05 -4.553763E-05 -1.513406E-04 
 +5.125401E-03 +5.116356E-05 -1.624085E-04 +5.116356E-05 +1.095966E-04 -8.244364E-05 -1.624085E-04 -8.244364E-05 -1.351306E-04 
 +5.080686E-03 +1.066662E-04 -1.660417E-04 +1.066662E-04 +1.206583E-04 -8.735938E-05 -1.660417E-04 -8.735938E-05 -8.773619E-05 
 +5.068189E-03 +1.133554E-04 -7.683878E-05 +1.133554E-04 +9.195935E-05 -1.089781E-04 -7.683878E-05 -1.089781E-04 -9.692158E-05 
 +4.996540E-03 +9.305708E-05 +2.327469E-05 +9.305708E-05 +1.293086E-04 -1.379021E-04 +2.327469E-05 -1.379021E-04 -1.260740E-04 
 +5.007441E-03 +6.911797E-05 +6.386197E-05 +6.911797E-05 +9.861252E-05 -5.172045E-05 +6.386197E-05 -5.172045E-05 -3.589842E-05 
 +5.027725E-03 +4.967084E-05 -2.658234E-05 +4.967084E-05 -3.084206E-05 +7.150246E-05 -2.658234E-05 +7.150246E-05 +1.931452E-04 
 +5.033897E-03 +4.959379E-05 -7.401473E-05 +4.959379E-05 -5.218399E-05 +1.018258E-04 -7.401473E-05 +1.018258E-04 +2.869396E-04 
 +5.112371E-03 +1.252557E-04 -1.056474E-04 +1.252557E-04 -1.487713E-04 +1.877503E-04 -1.056474E-04 +1.877503E-04 +2.685842E-04 
 +5.161106E-03 +1.690335E-04 -1.108890E-04 +1.690335E-04 -2.519346E-04 +2.939700E-04 -1.108890E-04 +2.939700E-04 +2.211548E-04 
 +5.171747E-03 +1.305775E-04 -7.132395E-05 +1.305775E-04 -1.324770E-04 +2.781649E-04 -7.132395E-05 +2.781649E-04 +8.736674E-05 
 +5.088071E-03 +9.666595E-05 +1.206781E-06 +9.666595E-05 -3.281081E-05 +2.590174E-04 +1.206781E-06 +2.590174E-04 -5.463054E-05 
 +5.047278E-03 +2.445184E-05 +6.778803E-05 +2.445184E-05 -7.473291E-05 +1.933302E-04 +6.778803E-05 +1.933302E-04 +6.059987E-05 
 +4.713642E-03 -1.112315E-04 +9.587304E-05 -1.112315E-04 -1.931717E-04 +4.098236E-05 +9.587304E-05 +4.098236E-05 +3.987098E-04 
 +4.640425E-03 +5.217751E-05 +1.098694E-04 +5.217751E-05 -1.533693E-04 +9.652861E-06 +1.098694E-04 +9.652861E-06 +4.345520E-04 
 +4.763086E-03 +7.118329E-05 +1.068314E-04 +7.118329E-05 +6.858160E-06 -7.468845E-06 +1.068314E-04 -7.468845E-06 +2.035826E-04 
 +4.842580E-03 +9.224850E-05 +5.267417E-05 +9.224850E-05 +2.162584E-05 -5.767671E-05 +5.267417E-05 -5.767671E-05 +7.014533E-05 
 +4.832928E-03 +1.061505E-04 -3.415900E-06 +1.061505E-04 -3.354197E-05 -4.071610E-05 -3.415900E-06 -4.071610E-05 +7.188289E-05 
 +4.812622E-03 +1.062813E-04 +9.825079E-06 +1.062813E-04 -3.709583E-05 -3.446288E-05 +9.825079E-06 -3.446288E-05 +1.873801E-04 
 +5.081472E-03 -7.827417E-05 -1.646997E-05 -7.827417E-05 -1.233876E-04 -3.671751E-05 -1.646997E-05 -3.671751E-05 +1.691849E-04 
 +5.134487E-03 -7.416395E-05 +6.223833E-06 -7.416395E-05 -1.046300E-04 -7.394729E-05 +6.223833E-06 -7.394729E-05 +1.587422E-04 
 +5.088074E-03 -7.517088E-05 -5.004282E-05 -7.517088E-05 -3.438415E-05 -8.968793E-05 -5.004282E-05 -8.968793E-05 +4.527293E-05 
 +5.082395E-03 +5.116863E-05 -1.077153E-04 +5.116863E-05 +2.840802E-05 -9.609123E-05 -1.077153E-04 -9.609123E-05 -1.511770E-05 
 +5.063884E-03 +9.033159E-05 -1.079730E-04 +9.033159E-05 +3.025307E-05 -8.709993E-05 -1.079730E-04 -8.709993E-05 +5.471315E-07 
 +5.058492E-03 +1.142086E-04 -7.033327E-05 +1.142086E-04 +1.434902E-05 -6.633764E-05 -7.033327E-05 -6.633764E-05 +1.974817E-05 
 +5.064140E-03 +1.315410E-04 -9.848496E-06 +1.315410E-04 +2.893260E-05 -9.030581E-05 -9.848496E-06 -9.030581E-05 +7.003522E-06 
 +5.005036E-03 +4.821842E-05 +4.244936E-05 +4.821842E-05 +1.249644E-04 -1.332199E-04 +4.244936E-05 -1.332199E-04 -1.978281E-05 
 +4.985128E-03 +1.035260E-05 -9.636581E-06 +1.035260E-05 +1.493553E-04 -4.657724E-05 -9.636581E-06 -4.657724E-05 +6.255502E-05 
 +5.048596E-03 +1.405045E-05 -2.970005E-05 +1.405045E-05 -6.092503E-06 +1.068110E-04 -2.970005E-05 +1.068110E-04 +1.524553E-04 
 +5.107246E-03 +6.903680E-05 -1.641239E-06 +6.903680E-05 -1.498998E-04 +1.626763E-04 -1.641239E-06 +1.626763E-04 +2.016699E-04 
 +5.198543E-03 +1.350744E-04 -4.764285E-05 +1.350744E-04 -2.738228E-04 +1.717498E-04 -4.764285E-05 +1.717498E-04 +2.311070E-04 
 +5.269806E-03 +1.279737E-04 -7.932320E-05 +1.279737E-04 -3.443861E-04 +1.021546E-04 -7.932320E-05 +1.021546E-04 +1.977964E-04 
 +5.107434E-03 -1.770319E-05 -1.734862E-05 -1.770319E-05 -2.547475E-04 -1.586406E-05 -1.734862E-05 -1.586406E-05 +1.549559E-04 
 +4.946500E-03 -1.542643E-04 +4.432422E-05 -1.542643E-04 -1.764344E-04 -4.067751E-05 +4.432422E-05 -4.067751E-05 +1.983829E-04 
 +4.830885E-03 -2.799032E-04 +8.124838E-05 -2.799032E-04 -1.501075E-04 -8.930026E-05 +8.124838E-05 -8.930026E-05 +3.626985E-04 
 +4.650989E-03 +2.055184E-05 +9.356676E-05 +2.055184E-05 -1.113340E-04 -1.058811E-04 +9.356676E-05 -1.058811E-04 +4.495205E-04 
 +4.692136E-03 +8.649799E-05 +6.296934E-05 +8.649799E-05 -4.996766E-05 -8.399486E-05 +6.296934E-05 -8.399486E-05 +3.723832E-04 
 +4.738465E-03 +6.545769E-05 +4.021733E-05 +6.545769E-05 -4.364673E-05 -8.856981E-05 +4.021733E-05 -8.856981E-05 +2.829961E-04 
 +4.771879E-03 +1.104082E-04 +3.023699E-05 +1.104082E-04 -1.557649E-05 -6.437496E-05 +3.023699E-05 -6.437496E-05 +2.404318E-04 
 +4.871246E-03 -1.954328E-05 +7.646468E-06 -1.954328E-05 -3.040277E-04 -1.436628E-04 +7.646468E-06 -1.436628E-04 +3.365592E-04 
 +5.086627E-03 -1.566225E-04 +2.016381E-05 -1.566225E-04 -3.178919E-04 -9.110126E-05 +2.016381E-05 -9.110126E-05 +3.222426E-04 
 +5.102899E-03 -1.101068E-04 +6.153935E-05 -1.101068E-04 -2.772986E-04 -7.101548E-05 +6.153935E-05 -7.101548E-05 +2.893816E-04 
 +5.088075E-03 -3.257358E-05 -1.154087E-05 -3.257358E-05 -1.363446E-04 -8.369993E-05 -1.154087E-05 -8.369993E-05 +1.230562E-04 
 +5.069816E-03 +2.523426E-05 -5.518220E-05 +2.523426E-05 -8.859532E-07 -9.602178E-05 -5.518220E-05 -9.602178E-05 +1.377878E-06 
 +5.067225E-03 +7.543286E-05 -4.744194E-05 +7.543286E-05 +7.526676E-06 -1.024655E-04 -4.744194E-05 -1.024655E-04 -1.038368E-05 
 +5.066786E-03 +9.110005E-05 -3.672001E-05 +9.110005E-05 +9.876650E-06 -8.246318E-05 -3.672001E-05 -8.246318E-05 -1.146979E-05 
 +5.065921E-03 +1.154700E-04 -1.511370E-05 +1.154700E-04 +2.264815E-06 -8.990166E-05 -1.511370E-05 -8.990166E-05 -9.291541E-06 
 +5.038901E-03 +8.571545E-05 -5.697665E-05 +8.571545E-05 +5.499693E-05 -1.301375E-04 -5.697665E-05 -1.301375E-04 -2.609984E-05 
 +5.009452E-03 -2.414872E-05 -1.199022E-05 -2.414872E-05 +8.369993E-05 -6.843089E-05 -1.199022E-05 -6.843089E-05 +6.322867E-06 
 +5.049405E-03 -4.575955E-05 +6.758179E-05 -4.575955E-05 -1.606999E-05 +8.761325E-05 +6.758179E-05 +8.761325E-05 +8.559493E-05 
 +5.110040E-03 +5.032529E-05 +5.298538E-05 +5.032529E-05 -1.132241E-04 +1.662720E-04 +5.298538E-05 +1.662720E-04 +1.153621E-04 
 +5.169734E-03 +6.804118E-05 +2.674699E-05 +6.804118E-05 -1.906918E-04 +1.704140E-04 +2.674699E-05 +1.704140E-04 +1.230180E-04 
 +5.221625E-03 +8.642369E-05 -6.490086E-05 +8.642369E-05 -2.649988E-04 +7.885932E-05 -6.490086E-05 +7.885932E-05 +1.880897E-04 
 +5.087977E-03 +1.780027E-06 -8.261006E-05 +1.780027E-06 -2.300080E-04 -8.136053E-05 -8.261006E-05 -8.136053E-05 +2.566678E-04 
 +4.966297E-03 -1.258867E-04 -4.252262E-06 -1.258867E-04 -1.398331E-04 -1.478125E-04 -4.252262E-06 -1.478125E-04 +2.517424E-04 
 +4.922968E-03 -2.147117E-04 +6.284081E-05 -2.147117E-04 -6.356891E-05 -2.207858E-04 +6.284081E-05 -2.207858E-04 +3.062576E-04 
 +4.748771E-03 +5.416498E-05 +9.291819E-05 +5.416498E-05 -2.324410E-05 -1.870451E-04 +9.291819E-05 -1.870451E-04 +4.293310E-04 
 +4.685598E-03 +1.251525E-04 +5.876735E-05 +1.251525E-04 -4.722378E-05 -7.769291E-05 +5.876735E-05 -7.769291E-05 +4.535736E-04 
 +4.660304E-03 +1.229851E-04 +1.921317E-05 +1.229851E-04 -2.780413E-07 -5.722862E-05 +1.921317E-05 -5.722862E-05 +4.152710E-04 
 +4.648517E-03 +1.027253E-04 +2.468416E-05 +1.027253E-04 -9.571718E-05 -1.019301E-04 +2.468416E-05 -1.019301E-04 +3.829101E-04 
 +4.757650E-03 +6.869617E-05 -1.633313E-05 +6.869617E-05 +2.006896E-05 +1.624892E-05 -1.633313E-05 +1.624892E-05 +4.162727E-04 
 +5.048949E-03 -9.751805E-05 +4.105995E-05 -9.751805E-05 -2.372532E-04 -4.851065E-05 +4.105995E-05 -4.851065E-05 +4.257912E-04 
 +5.058422E-03 -1.093255E-05 +1.329172E-04 -1.093255E-05 -2.362029E-04 -8.629818E-05 +1.329172E-04 -8.629818E-05 +3.720125E-04 
 +5.074093E-03 +6.588449E-05 +4.033577E-05 +6.588449E-05 -8.417472E-05 -6.769408E-05 +4.033577E-05 -6.769408E-05 +1.224910E-04 
 +5.068616E-03 +5.071157E-05 -3.557929E-05 +5.071157E-05 -1.152708E-05 -1.183945E-04 -3.557929E-05 -1.183945E-04 -6.045457E-05 
 +5.061238E-03 +5.671719E-05 -2.425794E-06 +5.671719E-05 +2.741703E-05 -1.542752E-04 -2.425794E-06 -1.542752E-04 -9.578453E-05 
 +5.072406E-03 +6.530275E-05 +8.838725E-06 +6.530275E-05 +9.287988E-06 -1.097381E-04 +8.838725E-06 -1.097381E-04 -8.409923E-05 
 +5.068300E-03 +1.001332E-04 -1.966703E-05 +1.001332E-04 -8.572487E-07 -9.980407E-05 -1.966703E-05 -9.980407E-05 -7.174280E-05 
 +5.071210E-03 +6.689506E-05 -1.046824E-04 +6.689506E-05 -7.489597E-05 -3.373125E-05 -1.046824E-04 -3.373125E-05 -3.204556E-05 
 +5.083487E-03 -7.805960E-05 -3.168843E-05 -7.805960E-05 -1.904557E-04 +1.466893E-04 -3.168843E-05 +1.466893E-04 +7.424577E-05 
 +5.068472E-03 -6.692981E-05 +1.095834E-04 -6.692981E-05 -1.845795E-04 +2.233797E-04 +1.095834E-04 +2.233797E-04 +1.203240E-04 
 +5.101211E-03 +2.940572E-05 +8.250734E-05 +2.940572E-05 -1.725763E-04 +2.184402E-04 +8.250734E-05 +2.184402E-04 +1.129005E-04 
 +5.129258E-03 +4.137475E-05 +9.588182E-05 +4.137475E-05 -2.287522E-04 +2.049112E-04 +9.588182E-05 +2.049112E-04 +1.490287E-04 
 +5.110937E-03 +4.948254E-05 +6.107273E-07 +4.948254E-05 -3.248520E-04 +1.869261E-04 +6.107273E-07 +1.869261E-04 +2.203304E-04 
 +5.115191E-03 +5.386658E-05 -1.436059E-04 +5.386658E-05 -3.791418E-04 +1.135343E-04 -1.436059E-04 +1.135343E-04 +2.454960E-04 
 +5.061559E-03 -5.213623E-05 -4.528332E-05 -5.213623E-05 -2.775703E-04 -3.583020E-05 -4.528332E-05 -3.583020E-05 +1.902373E-04 
 +5.052867E-03 -1.155976E-04 +5.668587E-05 -1.155976E-04 -1.460734E-04 -1.467431E-04 +5.668587E-05 -1.467431E-04 +1.947761E-04 
 +4.800640E-03 +1.113195E-04 +9.558501E-05 +1.113195E-04 -8.304058E-05 -8.314046E-05 +9.558501E-05 -8.314046E-05 +3.417943E-04 
 +4.672927E-03 +1.553480E-04 +2.267075E-05 +1.553480E-04 -4.468320E-05 +1.320542E-05 +2.267075E-05 +1.320542E-05 +4.402698E-04 
 +4.638251E-03 +1.905415E-04 -6.748435E-06 +1.905415E-04 -2.252914E-05 +8.870489E-06 -6.748435E-06 +8.870489E-06 +4.313594E-04 
 +4.622473E-03 +1.811889E-04 -2.751572E-05 +1.811889E-04 +6.306642E-05 +1.260933E-05 -2.751572E-05 +1.260933E-05 +4.327468E-04 
 +4.773081E-03 -1.987346E-05 -5.083838E-05 -1.987346E-05 -1.053905E-04 +1.215435E-04 -5.083838E-05 +1.215435E-04 +3.865622E-04 
 +4.865675E-03 -2.688143E-05 +2.195286E-05 -2.688143E-05 -1.679337E-04 +1.486920E-04 +2.195286E-05 +1.486920E-04 +3.270443E-04 
 +4.905961E-03 +8.820698E-05 +1.584184E-04 +8.820698E-05 -1.342707E-04 +9.100815E-05 +1.584184E-04 +9.100815E-05 +1.967605E-04 
 +5.061248E-03 +1.472766E-04 +8.773081E-05 +1.472766E-04 -4.235050E-05 +1.232558E-05 +8.773081E-05 +1.232558E-05 -2.841684E-05 
 +5.045002E-03 +7.693293E-05 -2.393921E-05 +7.693293E-05 +4.868612E-05 -6.830047E-05 -2.393921E-05 -6.830047E-05 -1.380139E-04 
 +5.034100E-03 +6.364789E-05 +3.395021E-06 +6.364789E-05 +1.577805E-05 -1.462292E-04 +3.395021E-06 -1.462292E-04 -1.594187E-04 
 +5.076724E-03 +7.281713E-05 +3.136396E-05 +7.281713E-05 +2.917545E-05 -1.281380E-04 +3.136396E-05 -1.281380E-04 -1.664929E-04 
 +5.087821E-03 +8.670827E-05 -1.652556E-05 +8.670827E-05 +9.245960E-06 -9.613040E-05 -1.652556E-05 -9.613040E-05 -1.707676E-04 
 +5.110259E-03 +9.674400E-06 -7.574439E-05 +9.674400E-06 -9.851561E-05 -2.504787E-05 -7.574439E-05 -2.504787E-05 -1.206159E-04 
 +5.120945E-03 -9.387887E-05 -3.075600E-05 -9.387887E-05 -1.751897E-04 +1.390996E-04 -3.075600E-05 +1.390996E-04 +1.053323E-06 
 +5.106666E-03 -5.222733E-05 +7.067484E-05 -5.222733E-05 -1.797839E-04 +2.328871E-04 +7.067484E-05 +2.328871E-04 +4.603177E-05 
 +5.107971E-03 -5.648242E-06 +9.647653E-05 -5.648242E-06 -1.889923E-04 +2.365063E-04 +9.647653E-05 +2.365063E-04 +6.221751E-05 
 +5.093451E-03 +2.732174E-05 +7.521351E-05 +2.732174E-05 -2.051013E-04 +7.637266E-05 +7.521351E-05 +7.637266E-05 +1.315287E-04 
 +5.048580E-03 +1.988244E-05 +4.873426E-05 +1.988244E-05 -2.389078E-04 -1.050426E-04 +4.873426E-05 -1.050426E-04 +1.921531E-04 
 +5.115191E-03 +5.209502E-05 -8.991352E-05 +5.209502E-05 -3.577068E-04 +9.322089E-06 -8.991352E-05 +9.322089E-06 +1.960460E-04 
 +5.163521E-03 +1.475551E-05 -8.485526E-05 +1.475551E-05 -4.297492E-04 +1.177774E-04 -8.485526E-05 +1.177774E-04 +1.410048E-04 
 +5.169297E-03 -4.179143E-05 +2.764543E-05 -4.179143E-05 -2.751394E-04 +8.695926E-05 +2.764543E-05 +8.695926E-05 +7.573289E-05 
 +4.853291E-03 +1.054886E-04 +6.115352E-05 +1.054886E-04 -1.067677E-04 +1.204482E-04 +6.115352E-05 +1.204482E-04 +1.543396E-04 
 +4.656213E-03 +1.929844E-04 -6.257382E-05 +1.929844E-04 -1.887180E-05 +9.943876E-05 -6.257382E-05 +9.943876E-05 +3.354976E-04 
 +4.650439E-03 +2.021634E-04 -1.907814E-05 +2.021634E-04 +5.927742E-05 +6.944782E-05 -1.907814E-05 +6.944782E-05 +4.066909E-04 
 +4.692748E-03 +1.991162E-04 -4.472554E-05 +1.991162E-04 +4.932608E-05 +9.571212E-05 -4.472554E-05 +9.571212E-05 +4.178709E-04 
 +4.760215E-03 -2.026259E-04 -4.168424E-05 -2.026259E-04 +1.356303E-04 +1.783864E-04 -4.168424E-05 +1.783864E-04 +2.909205E-04 
 +4.747549E-03 -1.444416E-04 +3.637474E-05 -1.444416E-04 +1.830466E-04 +2.086313E-04 +3.637474E-05 +2.086313E-04 +1.978075E-04 
 +4.780637E-03 -3.427520E-05 +7.967221E-05 -3.427520E-05 +1.465184E-04 +1.109602E-04 +7.967221E-05 +1.109602E-04 +2.304143E-05 
 +5.061512E-03 +1.762830E-04 +9.673696E-05 +1.762830E-04 +2.456671E-05 -3.427812E-05 +9.673696E-05 -3.427812E-05 -1.627950E-04 
 +5.053476E-03 +8.419032E-05 -9.474025E-06 +8.419032E-05 +1.186210E-05 -1.403177E-04 -9.474025E-06 -1.403177E-04 -1.676931E-04 
 +5.024199E-03 +8.495037E-05 -2.333151E-06 +8.495037E-05 +2.192798E-05 -1.754986E-04 -2.333151E-06 -1.754986E-04 -1.184625E-04 
 +5.055349E-03 +1.265963E-04 +2.028687E-05 +1.265963E-04 +1.124448E-05 -1.198880E-04 +2.028687E-05 -1.198880E-04 -1.700935E-04 
 +5.109572E-03 +9.708861E-05 -6.863851E-06 +9.708861E-05 +2.855490E-05 -9.324793E-05 -6.863851E-06 -9.324793E-05 -2.136001E-04 
 +5.125457E-03 -6.135931E-05 -2.572322E-05 -6.135931E-05 -4.867256E-05 -2.185129E-05 -2.572322E-05 -2.185129E-05 -1.665657E-04 
 +5.139284E-03 -1.005172E-04 -2.232652E-05 -1.005172E-04 -1.207465E-04 +1.785183E-04 -2.232652E-05 +1.785183E-04 -9.827267E-05 
 +5.130312E-03 -6.222402E-05 +3.492064E-05 -6.222402E-05 -1.157846E-04 +2.767358E-04 +3.492064E-05 +2.767358E-04 -8.277252E-05 
 +5.121565E-03 -4.113682E-05 +5.995467E-05 -4.113682E-05 -1.625122E-04 +2.353383E-04 +5.995467E-05 +2.353383E-04 -5.391279E-05 
 +5.094117E-03 +1.966609E-05 +2.565299E-05 +1.966609E-05 -2.157739E-04 +1.868510E-04 +2.565299E-05 +1.868510E-04 +1.200545E-05 
 +5.069161E-03 +4.832893E-05 +1.951128E-05 +4.832893E-05 -2.176519E-04 +1.412579E-04 +1.951128E-05 +1.412579E-04 +5.127990E-05 
 +5.091184E-03 +2.979348E-05 +4.801829E-05 +2.979348E-05 -2.744191E-04 +1.581295E-04 +4.801829E-05 +1.581295E-04 +5.926938E-05 
 +5.106272E-03 +5.312154E-06 -2.156509E-05 +5.312154E-06 -3.391099E-04 +2.468678E-04 -2.156509E-05 +2.468678E-04 +4.707004E-05 
 +5.102688E-03 -4.462855E-05 -1.218317E-04 -4.462855E-05 -1.714144E-04 +1.508927E-04 -1.218317E-04 +1.508927E-04 -2.816331E-05 
 +5.021826E-03 -6.109122E-05 -6.904215E-05 -6.109122E-05 -1.302455E-05 -4.594096E-05 -6.904215E-05 -4.594096E-05 -8.884165E-06 
 +4.715489E-03 +1.316742E-04 -1.221215E-04 +1.316742E-04 +1.703754E-05 -8.920385E-05 -1.221215E-04 -8.920385E-05 +1.776625E-04 
 +4.692447E-03 +1.514580E-04 -6.045071E-05 +1.514580E-04 +5.177373E-05 -4.374704E-05 -6.045071E-05 -4.374704E-05 +2.992314E-04 
 +4.735941E-03 +1.573812E-04 -6.172407E-05 +1.573812E-04 +9.051766E-05 +5.426686E-05 -6.172407E-05 +5.426686E-05 +3.192784E-04 
 +4.714150E-03 -2.173901E-04 -6.138665E-05 -2.173901E-04 +1.480119E-04 +1.041776E-04 -6.138665E-05 +1.041776E-04 +1.692062E-04 
 +4.750104E-03 -6.590302E-05 -2.713669E-06 -6.590302E-05 +1.539457E-04 +1.264950E-04 -2.713669E-06 +1.264950E-04 +1.381016E-04 
 +4.800844E-03 -1.258931E-05 +3.868009E-06 -1.258931E-05 +7.139761E-05 +7.893577E-05 +3.868009E-06 +7.893577E-05 +5.138463E-05 
 +5.038092E-03 +2.190134E-04 +5.975787E-05 +2.190134E-04 -6.512782E-05 -6.653542E-05 +5.975787E-05 -6.653542E-05 -5.877695E-05 
 +5.034099E-03 +1.738843E-04 -2.044533E-06 +1.738843E-04 -9.413603E-05 -2.012676E-04 -2.044533E-06 -2.012676E-04 -5.773965E-05 
 +5.041659E-03 +1.291705E-04 +1.670835E-05 +1.291705E-04 -5.082400E-06 -1.878753E-04 +1.670835E-05 -1.878753E-04 -5.514564E-05 
 +5.042225E-03 +1.688885E-04 -1.322941E-05 +1.688885E-04 +4.224331E-05 -1.224741E-04 -1.322941E-05 -1.224741E-04 -1.120296E-04 
 +5.069289E-03 +6.904111E-05 +1.180863E-05 +6.904111E-05 -8.130775E-05 -8.955762E-05 +1.180863E-05 -8.955762E-05 -1.027556E-04 
 +5.078591E-03 -1.647855E-04 +7.419225E-05 -1.647855E-04 -2.911167E-04 +9.310637E-07 +7.419225E-05 +9.310637E-07 -3.877992E-05 
 +5.176632E-03 -9.251009E-05 -4.515597E-05 -9.251009E-05 -3.369939E-04 +1.320753E-04 -4.515597E-05 +1.320753E-04 -4.172283E-05 
 +5.173889E-03 -4.044947E-05 -2.817583E-06 -4.044947E-05 -2.323795E-04 +2.262703E-04 -2.817583E-06 +2.262703E-04 -9.532014E-05 
 +5.120437E-03 -4.910068E-05 -1.528711E-05 -4.910068E-05 -1.535841E-04 +2.474804E-04 -1.528711E-05 +2.474804E-04 -1.142683E-04 
 +5.118982E-03 -7.315546E-07 +2.128184E-06 -7.315546E-07 -1.492700E-04 +1.790073E-04 +2.128184E-06 +1.790073E-04 -1.292886E-04 
 +5.141235E-03 +5.049072E-05 +8.988798E-06 +5.049072E-05 -1.670737E-04 +1.253861E-04 +8.988798E-06 +1.253861E-04 -1.340614E-04 
 +5.113841E-03 +4.144988E-05 +6.262704E-05 +4.144988E-05 -1.291274E-04 +3.614504E-05 +6.262704E-05 +3.614504E-05 -1.097755E-04 
 +4.960886E-03 +1.401101E-04 -2.487908E-05 +1.401101E-04 +1.065253E-05 -1.545954E-04 -2.487908E-05 -1.545954E-04 -8.297407E-05 
 +4.945671E-03 +1.652862E-04 -2.032937E-04 +1.652862E-04 +1.144698E-04 -2.428526E-04 -2.032937E-04 -2.428526E-04 -1.091968E-04 
 +5.096000E-03 -2.847103E-05 -1.184901E-04 -2.847103E-05 +6.784367E-05 -1.790290E-04 -1.184901E-04 -1.790290E-04 -1.026876E-04 
 +4.782776E-03 +1.070391E-04 -1.353813E-04 +1.070391E-04 +4.334987E-05 -1.257927E-04 -1.353813E-04 -1.257927E-04 +2.584793E-05 
 +4.758438E-03 +7.322741E-05 -1.082200E-04 +7.322741E-05 +8.361396E-05 -6.411312E-05 -1.082200E-04 -6.411312E-05 +1.450454E-04 
 +4.780464E-03 +9.740247E-05 -7.890062E-05 +9.740247E-05 +1.151129E-04 +2.596598E-05 -7.890062E-05 +2.596598E-05 +1.741032E-04 
 +4.787294E-03 -2.075622E-04 -9.132716E-05 -2.075622E-04 +6.935045E-05 +3.892632E-05 -9.132716E-05 +3.892632E-05 +1.251199E-04 
 +4.788401E-03 -8.471992E-05 -6.249726E-05 -8.471992E-05 +7.273300E-05 +5.574974E-05 -6.249726E-05 +5.574974E-05 +1.233408E-04 
 +4.821201E-03 -8.884207E-05 -4.422652E-05 -8.884207E-05 +4.696174E-05 +2.919424E-05 -4.422652E-05 +2.919424E-05 +7.403742E-05 
 +4.986274E-03 +1.426235E-04 +3.316812E-05 +1.426235E-04 +2.015084E-05 -8.614277E-05 +3.316812E-05 -8.614277E-05 +2.937182E-05 
 +4.976509E-03 +1.545213E-04 -5.636257E-06 +1.545213E-04 +1.376460E-05 -2.041069E-04 -5.636257E-06 -2.041069E-04 +9.914042E-07 
 +5.073820E-03 +1.569722E-04 -4.521265E-07 +1.569722E-04 +5.005170E-05 -1.782720E-04 -4.521265E-07 -1.782720E-04 -7.080351E-05 
 +5.084340E-03 +1.282416E-04 -3.778127E-05 +1.282416E-04 +6.694473E-06 -9.375856E-05 -3.778127E-05 -9.375856E-05 -5.818752E-05 
 +5.055049E-03 +1.076886E-05 +4.768407E-05 +1.076886E-05 -1.908338E-04 -5.041190E-05 +4.768407E-05 -5.041190E-05 +4.930545E-05 
 +5.038414E-03 -1.251288E-04 +1.020531E-04 -1.251288E-04 -3.661840E-04 -6.948854E-05 +1.020531E-04 -6.948854E-05 +5.614732E-05 
 +5.129787E-03 -3.700902E-05 -4.790802E-05 -3.700902E-05 -5.300789E-04 -1.138455E-04 -4.790802E-05 -1.138455E-04 -7.781941E-06 
 +5.148489E-03 +2.853160E-05 -6.204502E-05 +2.853160E-05 -5.322425E-04 -3.615048E-05 -6.204502E-05 -3.615048E-05 -7.572668E-05 
 +5.130412E-03 -1.777784E-05 -5.458999E-05 -1.777784E-05 -3.003270E-04 +1.550393E-04 -5.458999E-05 +1.550393E-04 -1.487462E-04 
 +5.166510E-03 -3.737667E-05 -3.944078E-05 -3.737667E-05 -1.843876E-04 +2.153128E-04 -3.944078E-05 +2.153128E-04 -2.161426E-04 
 +5.208111E-03 +5.205875E-05 +7.258141E-06 +5.205875E-05 -1.660733E-04 +1.395931E-04 +7.258141E-06 +1.395931E-04 -2.537675E-04 
 +5.144867E-03 +5.669344E-05 +2.078222E-05 +5.669344E-05 -5.713911E-05 +4.170161E-05 +2.078222E-05 +4.170161E-05 -2.243214E-04 
 +4.902828E-03 +1.852431E-04 -1.152157E-04 +1.852431E-04 +1.095271E-04 -8.619579E-05 -1.152157E-04 -8.619579E-05 -1.648056E-04 
 +4.882280E-03 +1.530313E-04 -1.638440E-04 +1.530313E-04 +1.805707E-04 -2.063136E-04 -1.638440E-04 -2.063136E-04 -1.725072E-04 
 +4.998545E-03 -2.825406E-05 -3.561142E-05 -2.825406E-05 +1.646622E-04 -2.411310E-04 -3.561142E-05 -2.411310E-04 -1.912747E-04 
 +4.743200E-03 +1.115007E-04 -1.223121E-04 +1.115007E-04 +1.535745E-04 -1.715765E-04 -1.223121E-04 -1.715765E-04 -7.055926E-05 
 +4.804477E-03 +2.849629E-05 -1.313857E-04 +2.849629E-05 +1.019835E-04 -8.414864E-05 -1.313857E-04 -8.414864E-05 +4.797597E-05 
 +4.867504E-03 +8.536301E-05 -9.709848E-05 +8.536301E-05 +6.439398E-05 -1.286698E-05 -9.709848E-05 -1.286698E-05 +8.504188E-05 
 +4.835806E-03 -2.052701E-04 -1.006369E-04 -2.052701E-04 -2.508542E-05 +3.919700E-05 -1.006369E-04 +3.919700E-05 +9.155807E-05 
 +4.778837E-03 -1.131481E-04 -1.192280E-04 -1.131481E-04 +3.119258E-05 +6.085678E-05 -1.192280E-04 +6.085678E-05 +1.338909E-04 
 +4.814811E-03 -1.559938E-04 -1.029027E-04 -1.559938E-04 +7.033683E-05 +1.863458E-05 -1.029027E-04 +1.863458E-05 +6.620410E-05 
 +4.957458E-03 +9.241454E-05 +2.120348E-07 +9.241454E-05 +8.512124E-05 -9.861332E-05 +2.120348E-07 -9.861332E-05 -4.793174E-06 
 +4.933327E-03 +1.239186E-04 -6.168340E-05 +1.239186E-04 +1.047466E-04 -1.964147E-04 -6.168340E-05 -1.964147E-04 -1.155045E-04 
 +5.147920E-03 +1.219120E-04 -6.636756E-05 +1.219120E-04 +6.590213E-05 -1.463796E-04 -6.636756E-05 -1.463796E-04 -1.838405E-04 
 +5.140954E-03 -3.565459E-06 -5.596786E-05 -3.565459E-06 -1.296405E-04 -5.940812E-05 -5.596786E-05 -5.940812E-05 -5.007586E-05 
 +5.100100E-03 -7.236568E-05 +6.904739E-05 -7.236568E-05 -2.444821E-04 +1.197710E-05 +6.904739E-05 +1.197710E-05 +6.863939E-05 
 +5.020294E-03 -1.669292E-04 +5.121213E-05 -1.669292E-04 -1.319846E-04 +6.479761E-05 +5.121213E-05 +6.479761E-05 +2.495297E-05 
 +4.991687E-03 -1.453783E-04 -7.367101E-06 -1.453783E-04 -4.145086E-05 +6.005485E-05 -7.367101E-06 +6.005485E-05 -7.180125E-05 
 +5.017332E-03 -5.825440E-05 -1.028652E-04 -5.825440E-05 -1.899965E-04 +1.326764E-04 -1.028652E-04 +1.326764E-04 -1.539827E-04 
 +5.208631E-03 -6.008326E-06 -1.077448E-04 -6.008326E-06 -3.544156E-04 +2.529781E-04 -1.077448E-04 +2.529781E-04 -2.167366E-04 
 +5.221891E-03 -3.555521E-05 -5.076402E-05 -3.555521E-05 -2.849473E-04 +2.521918E-04 -5.076402E-05 +2.521918E-04 -2.658858E-04 
 +5.215971E-03 +1.720095E-05 -3.833923E-05 +1.720095E-05 -1.757435E-04 +1.770774E-04 -3.833923E-05 +1.770774E-04 -2.967478E-04 
 +5.163460E-03 +6.705053E-05 -1.142152E-04 +6.705053E-05 -6.002723E-05 -3.000610E-06 -1.142152E-04 -3.000610E-06 -2.410155E-04 
 +4.959852E-03 +2.386799E-04 -1.741394E-04 +2.386799E-04 +7.092006E-05 -2.518215E-04 -1.741394E-04 -2.518215E-04 -1.260595E-04 
 +4.894940E-03 +1.976942E-04 -9.014424E-05 +1.976942E-04 +1.488979E-04 -3.442778E-04 -9.014424E-05 -3.442778E-04 -1.480218E-04 
 +4.861164E-03 +4.135021E-05 +3.845661E-05 +4.135021E-05 +2.664074E-04 -2.479101E-04 +3.845661E-05 -2.479101E-04 -2.240165E-04 
 +4.662789E-03 +9.713256E-05 -9.546686E-05 +9.713256E-05 +3.120994E-04 -1.464419E-04 -9.546686E-05 -1.464419E-04 -1.306040E-04 
 +4.833569E-03 -3.116367E-05 -1.220539E-04 -3.116367E-05 +1.641501E-04 -1.023072E-04 -1.220539E-04 -1.023072E-04 -6.301798E-05 
 +4.977511E-03 +6.239810E-05 -7.434692E-05 +6.239810E-05 -1.546931E-06 -3.272118E-05 -7.434692E-05 -3.272118E-05 -2.967129E-05 
 +4.779422E-03 -2.382290E-04 -8.575955E-05 -2.382290E-04 -4.739520E-05 +7.472240E-05 -8.575955E-05 +7.472240E-05 +1.076914E-04 
 +4.746985E-03 -1.972116E-04 -2.089579E-04 -1.972116E-04 +4.809076E-05 +1.372181E-04 -2.089579E-04 +1.372181E-04 +1.481636E-04 
 +4.824578E-03 -2.412641E-04 -2.619369E-04 -2.412641E-04 +9.684855E-05 +6.239335E-05 -2.619369E-04 +6.239335E-05 +7.053698E-05 
 +4.951118E-03 +2.679951E-05 -1.271269E-04 +2.679951E-05 +1.560955E-04 -8.352801E-05 -1.271269E-04 -8.352801E-05 -2.049978E-05 
 +5.017978E-03 +9.618761E-05 -1.397929E-04 +9.618761E-05 +1.843780E-04 -1.416004E-04 -1.397929E-04 -1.416004E-04 -1.605901E-04 
 +5.208480E-03 +7.146697E-05 -9.477152E-05 +7.146697E-05 +8.289185E-05 -3.416274E-05 -9.477152E-05 -3.416274E-05 -2.765758E-04 
 +5.150791E-03 -1.113656E-04 -4.970206E-05 -1.113656E-04 -4.206078E-05 +8.814635E-05 -4.970206E-05 +8.814635E-05 -2.107836E-04 
 +5.112122E-03 -1.097763E-04 +3.128598E-05 -1.097763E-04 -1.042190E-04 +8.428833E-05 +3.128598E-05 +8.428833E-05 -1.184273E-04 
 +5.027882E-03 -1.303126E-04 +3.898944E-05 -1.303126E-04 -8.726162E-05 +4.641669E-05 +3.898944E-05 +4.641669E-05 -8.755380E-05 
 +4.948745E-03 -9.269945E-05 -1.429989E-05 -9.269945E-05 -2.166143E-05 +5.520341E-05 -1.429989E-05 +5.520341E-05 -1.414743E-04 
 +4.983236E-03 -5.697859E-05 -9.098169E-06 -5.697859E-05 -1.133111E-04 +1.476905E-04 -9.098169E-06 +1.476905E-04 -1.928482E-04 
 +5.173872E-03 +6.177258E-05 -7.919280E-05 +6.177258E-05 -3.130292E-04 +3.156427E-04 -7.919280E-05 +3.156427E-04 -2.117831E-04 
 +5.192544E-03 +6.617082E-05 -8.069154E-05 +6.617082E-05 -2.727466E-04 +3.530758E-04 -8.069154E-05 +3.530758E-04 -2.607295E-04 
 +5.164127E-03 -7.128912E-06 -5.381327E-05 -7.128912E-06 -1.496264E-04 +2.961244E-04 -5.381327E-05 +2.961244E-04 -2.670677E-04 
 +5.111783E-03 +1.304954E-05 -1.790190E-04 +1.304954E-05 -1.501002E-04 +3.045308E-04 -1.790190E-04 +3.045308E-04 -2.050995E-04 
 +5.047951E-03 +6.600777E-05 -2.156494E-04 +6.600777E-05 -1.897077E-04 +2.495405E-04 -2.156494E-04 +2.495405E-04 -8.530667E-05 
 +4.958312E-03 +1.244316E-04 -1.361128E-04 +1.244316E-04 -4.019593E-05 -2.005911E-06 -1.361128E-04 -2.005911E-06 -4.673455E-05 
 +4.843632E-03 +6.397328E-05 +3.528367E-05 +6.397328E-05 +2.877455E-04 -1.283915E-04 +3.528367E-05 -1.283915E-04 -7.189609E-05 
 +4.703337E-03 +7.538560E-05 -5.034889E-06 +7.538560E-05 +3.281366E-04 -6.627930E-05 -5.034889E-06 -6.627930E-05 +1.807611E-05 
 +4.840096E-03 -2.518624E-05 -7.819127E-05 -2.518624E-05 +1.653908E-04 -7.658118E-05 -7.819127E-05 -7.658118E-05 +7.448287E-05 
 +4.951351E-03 +6.766782E-06 -3.411553E-05 +6.766782E-06 -4.505311E-07 -5.519762E-05 -3.411553E-05 -5.519762E-05 +4.584469E-05 
 +4.841307E-03 -5.567903E-05 -3.525651E-05 -5.567903E-05 -4.534952E-05 +1.922867E-04 -3.525651E-05 +1.922867E-04 +7.212053E-06 
 +4.813016E-03 +5.901273E-05 -2.206711E-04 +5.901273E-05 +1.536923E-05 -2.870765E-05 -2.206711E-04 -2.870765E-05 +6.426941E-06 
 +4.859162E-03 +1.188129E-04 -2.165203E-04 +1.188129E-04 +1.107986E-04 -9.146176E-06 -2.165203E-04 -9.146176E-06 -2.960420E-05 
 +4.968342E-03 +2.104667E-04 -1.194917E-04 +2.104667E-04 +1.302678E-04 +1.245267E-04 -1.194917E-04 +1.245267E-04 -3.597684E-05 
 +5.126134E-03 +1.195433E-04 -2.823906E-05 +1.195433E-04 -1.529376E-04 +1.898252E-04 -2.823906E-05 +1.898252E-04 -6.287693E-05 
 +5.156275E-03 +1.048566E-04 +2.576002E-05 +1.048566E-04 -2.996155E-04 +1.583686E-04 +2.576002E-05 +1.583686E-04 -5.495360E-05 
 +5.124153E-03 +2.077848E-05 +6.369461E-05 +2.077848E-05 -1.959711E-04 +8.178023E-05 +6.369461E-05 +8.178023E-05 -6.147629E-05 
 +5.127462E-03 -7.477789E-05 +1.016704E-04 -7.477789E-05 -5.802783E-05 +1.069626E-04 +1.016704E-04 +1.069626E-04 -1.687992E-04 
 +5.083359E-03 -1.078205E-04 +1.268740E-04 -1.078205E-04 -3.571664E-05 +9.105045E-05 +1.268740E-04 +9.105045E-05 -1.793689E-04 
 +5.020869E-03 -6.013325E-05 +4.296308E-05 -6.013325E-05 -5.271660E-05 +6.602839E-05 +4.296308E-05 +6.602839E-05 -1.323086E-04 
 +5.010560E-03 -2.416691E-06 +8.111436E-05 -2.416691E-06 -8.825640E-06 +5.632504E-05 +8.111436E-05 +5.632504E-05 -1.673250E-04 
 +4.934023E-03 +1.265465E-04 -6.703832E-05 +1.265465E-04 +1.980522E-05 -2.492198E-05 -6.703832E-05 -2.492198E-05 -1.270999E-04 
 +4.984444E-03 +4.521110E-05 -1.794069E-04 +4.521110E-05 +9.117736E-06 -1.108464E-04 -1.794069E-04 -1.108464E-04 -2.157189E-04 
 +5.207094E-03 -3.389742E-07 -1.007440E-04 -3.389742E-07 +8.300017E-05 -1.220023E-04 -1.007440E-04 -1.220023E-04 -4.037418E-04 
 +5.147143E-03 +2.674950E-05 -1.411243E-04 +2.674950E-05 +2.099858E-04 -1.026633E-04 -1.411243E-04 -1.026633E-04 -3.802039E-04 
 +5.054355E-03 +4.438158E-05 -1.325342E-04 +4.438158E-05 +2.450398E-04 -4.115600E-05 -1.325342E-04 -4.115600E-05 -2.274411E-04 
 +4.964843E-03 +1.042363E-04 -1.666176E-04 +1.042363E-04 +1.614707E-04 +1.196975E-04 -1.666176E-04 +1.196975E-04 -3.805446E-05 
 +4.816057E-03 +4.275223E-05 +3.966141E-05 +4.275223E-05 -2.907461E-05 +2.253609E-04 +3.966141E-05 +2.253609E-04 +1.888856E-04 
 +4.732184E-03 -3.669027E-05 +1.037320E-04 -3.669027E-05 -1.049517E-04 +2.636111E-04 +1.037320E-04 +2.636111E-04 +2.644138E-04 
 +4.858292E-03 -7.242152E-05 -1.263161E-05 -7.242152E-05 -1.297369E-05 +3.038770E-04 -1.263161E-05 +3.038770E-04 +1.136801E-04 
 +4.909220E-03 -8.124478E-05 +2.657778E-05 -8.124478E-05 -4.152723E-05 +3.240226E-04 +2.657778E-05 +3.240226E-04 -9.163949E-06 
 +4.841735E-03 -3.538303E-05 -2.168691E-04 -3.538303E-05 +1.122163E-05 -5.784967E-05 -2.168691E-04 -5.784967E-05 +1.138412E-05 
 +4.811689E-03 -5.036750E-05 -2.747411E-04 -5.036750E-05 +3.482845E-05 -6.600397E-05 -2.747411E-04 -6.600397E-05 +1.843420E-05 
 +4.921660E-03 +6.349238E-05 -7.939868E-05 +6.349238E-05 +3.357287E-05 +2.934476E-05 -7.939868E-05 +2.934476E-05 -1.762294E-05 
 +5.010731E-03 +4.487974E-05 +5.099619E-07 +4.487974E-05 -9.829338E-05 +7.365679E-05 +5.099619E-07 +7.365679E-05 -2.878357E-05 
 +5.104255E-03 +1.589748E-05 +3.763425E-05 +1.589748E-05 -2.102231E-04 +8.931136E-05 +3.763425E-05 +8.931136E-05 -8.758767E-05 
 +5.090117E-03 +7.454019E-05 +7.450051E-06 +7.454019E-05 -2.119835E-04 +5.990056E-05 +7.450051E-06 +5.990056E-05 -6.312153E-05 
 +5.091745E-03 +5.928965E-06 +1.356540E-05 +5.928965E-06 -2.510714E-04 +3.366964E-05 +1.356540E-05 +3.366964E-05 -7.060237E-06 
 +5.145415E-03 -1.844516E-05 +1.048353E-04 -1.844516E-05 -2.256910E-04 +6.287288E-05 +1.048353E-04 +6.287288E-05 -9.423436E-05 
 +5.065770E-03 -9.606775E-05 +9.781022E-05 -9.606775E-05 -9.694823E-05 +9.957481E-05 +9.781022E-05 +9.957481E-05 -2.049812E-04 
 +5.078227E-03 -1.121895E-04 +1.054209E-04 -1.121895E-04 -1.607049E-05 +5.573952E-05 +1.054209E-04 +5.573952E-05 -2.365900E-04 
 +5.016150E-03 -9.512977E-05 +4.366293E-05 -9.512977E-05 +3.198173E-05 +2.352148E-05 +4.366293E-05 +2.352148E-05 -2.041917E-04 
 +4.844442E-03 +5.875217E-05 -1.031156E-04 +5.875217E-05 +1.077476E-04 -2.492934E-05 -1.031156E-04 -2.492934E-05 -7.349316E-05 
 +4.868491E-03 +3.973800E-05 -1.205283E-04 +3.973800E-05 +1.806505E-04 -7.649747E-05 -1.205283E-04 -7.649747E-05 -2.177044E-04 
 +5.151871E-03 +7.980012E-05 -6.913228E-05 +7.980012E-05 +2.363547E-04 -3.268250E-05 -6.913228E-05 -3.268250E-05 -4.809496E-04 
 +5.127817E-03 +4.660825E-05 -1.237834E-04 +4.660825E-05 +2.745549E-04 +2.283059E-05 -1.237834E-04 +2.283059E-05 -4.590717E-04 
 +5.002151E-03 +7.346096E-05 -8.429326E-05 +7.346096E-05 +2.744401E-04 +5.442145E-05 -8.429326E-05 +5.442145E-05 -3.187414E-04 
 +4.970801E-03 +1.255817E-04 -8.514090E-05 +1.255817E-04 +1.438692E-04 +7.490970E-05 -8.514090E-05 +7.490970E-05 -1.435219E-04 
 +4.950769E-03 +8.746116E-05 +4.721628E-05 +8.746116E-05 -8.498746E-06 +7.561725E-05 +4.721628E-05 +7.561725E-05 +4.555494E-05 
 +4.884000E-03 +3.613477E-06 +1.140530E-04 +3.613477E-06 -4.715861E-05 +1.971270E-05 +1.140530E-04 +1.971270E-05 +2.189017E-04 
 +4.853531E-03 -5.852835E-05 +9.371369E-05 -5.852835E-05 -6.036159E-05 +4.154276E-05 +9.371369E-05 +4.154276E-05 +2.064961E-04 
 +4.906952E-03 -9.542264E-05 +2.474019E-05 -9.542264E-05 -3.810173E-05 +6.822135E-05 +2.474019E-05 +6.822135E-05 +2.967606E-05 
 +4.811373E-03 -8.964093E-05 -2.371345E-04 -8.964093E-05 -7.567088E-05 -1.489414E-04 -2.371345E-04 -1.489414E-04 +1.113648E-04 
 +4.811244E-03 -8.676669E-05 -2.118717E-04 -8.676669E-05 -1.076742E-04 -7.029610E-05 -2.118717E-04 -7.029610E-05 +9.487350E-05 
 +4.978805E-03 +2.596066E-06 -6.728052E-05 +2.596066E-06 -2.548683E-04 -2.251390E-06 -6.728052E-05 -2.251390E-06 +5.568962E-05 
 +5.092892E-03 -3.729611E-05 +8.485190E-05 -3.729611E-05 -2.988192E-04 +4.287457E-05 +8.485190E-05 +4.287457E-05 -4.381207E-06 
 +5.083124E-03 -3.247141E-05 +7.685167E-05 -3.247141E-05 -2.265313E-04 +6.348459E-05 +7.685167E-05 +6.348459E-05 -9.736897E-05 
 +5.042979E-03 +4.081429E-05 +9.876820E-06 +4.081429E-05 -2.040176E-04 +4.390290E-05 +9.876820E-06 +4.390290E-05 -8.282016E-05 
 +5.051592E-03 -8.064036E-06 -2.195385E-05 -8.064036E-06 -1.418329E-04 +5.182844E-05 -2.195385E-05 +5.182844E-05 -9.094163E-05 
 +5.118770E-03 -6.875398E-05 +2.320859E-06 -6.875398E-05 -6.154007E-05 +7.365640E-05 +2.320859E-06 +7.365640E-05 -2.023523E-04 
 +5.050453E-03 -1.539777E-04 +4.498725E-05 -1.539777E-04 -1.221408E-05 +1.747544E-05 +4.498725E-05 +1.747544E-05 -2.487884E-04 
 +5.044969E-03 -1.827358E-04 +5.994024E-05 -1.827358E-04 +4.556326E-05 -3.497733E-05 +5.994024E-05 -3.497733E-05 -2.703945E-04 
 +4.987363E-03 -1.582267E-04 +2.881851E-06 -1.582267E-04 +1.022050E-04 -1.375836E-05 +2.881851E-06 -1.375836E-05 -2.699777E-04 
 +4.844790E-03 +6.690697E-06 -9.505856E-05 +6.690697E-06 +1.937248E-04 +2.613167E-05 -9.505856E-05 +2.613167E-05 -2.103729E-04 
 +4.935143E-03 +2.857956E-05 -3.325088E-05 +2.857956E-05 +2.805029E-04 +7.118606E-05 -3.325088E-05 +7.118606E-05 -3.353165E-04 
 +5.079347E-03 +8.062312E-05 -2.662295E-05 +8.062312E-05 +2.809722E-04 +9.172975E-05 -2.662295E-05 +9.172975E-05 -4.427714E-04 
 +5.105492E-03 +7.304600E-05 -6.983997E-05 +7.304600E-05 +2.442692E-04 +8.977962E-05 -6.983997E-05 +8.977962E-05 -4.071361E-04 
 +5.066923E-03 +1.004762E-04 -5.839537E-05 +1.004762E-04 +2.325813E-04 +1.006519E-04 -5.839537E-05 +1.006519E-04 -3.526118E-04 
 +5.029583E-03 +8.514934E-05 -3.776687E-05 +8.514934E-05 +1.858517E-04 +1.080827E-04 -3.776687E-05 +1.080827E-04 -2.249174E-04 
 +5.000138E-03 +7.666788E-05 -1.693592E-05 +7.666788E-05 +1.080493E-04 +1.594420E-04 -1.693592E-05 +1.594420E-04 -1.233619E-04 
 +4.895064E-03 +1.996923E-05 -2.980890E-05 +1.996923E-05 +9.825210E-05 +1.034460E-04 -2.980890E-05 +1.034460E-04 -1.615873E-08 
 +4.839079E-03 -1.156846E-04 +5.324795E-05 -1.156846E-04 +9.186234E-05 -1.301908E-04 +5.324795E-05 -1.301908E-04 +1.380966E-04 
 +4.869254E-03 -1.985840E-04 +4.966264E-05 -1.985840E-04 -1.741474E-05 -2.240116E-04 +4.966264E-05 -2.240116E-04 +1.258151E-04 
 +4.872691E-03 -2.130458E-05 -8.577633E-05 -2.130458E-05 -2.237543E-05 -5.922875E-05 -8.577633E-05 -5.922875E-05 +9.309258E-05 
 +4.859549E-03 -7.529340E-06 -1.413231E-04 -7.529340E-06 -1.174308E-04 +1.948063E-06 -1.413231E-04 +1.948063E-06 +3.226072E-05 
 +4.892981E-03 -2.431630E-05 -7.588605E-05 -2.431630E-05 -2.073046E-04 +3.597417E-05 -7.588605E-05 +3.597417E-05 +3.175774E-05 
 +5.099164E-03 -3.041263E-05 +9.948523E-05 -3.041263E-05 -2.962131E-04 +5.548264E-05 +9.948523E-05 +5.548264E-05 +2.230041E-05 
 +5.087701E-03 -3.334300E-05 +7.461912E-05 -3.334300E-05 -2.912991E-04 +6.614384E-05 +7.461912E-05 +6.614384E-05 -7.475417E-05 
 +5.040824E-03 +4.474444E-05 -3.540720E-06 +4.474444E-05 -2.265077E-04 +3.027931E-05 -3.540720E-06 +3.027931E-05 -7.892534E-05 
 +5.010930E-03 +5.164670E-05 -5.639779E-05 +5.164670E-05 -1.290324E-04 +1.809334E-05 -5.639779E-05 +1.809334E-05 -1.274248E-04 
 +5.039644E-03 -2.849524E-05 -6.572703E-05 -2.849524E-05 -8.425056E-05 +7.144013E-05 -6.572703E-05 +7.144013E-05 -2.592050E-04 
 +5.036640E-03 -8.526033E-05 -2.256030E-05 -8.526033E-05 -4.676607E-05 +9.491410E-05 -2.256030E-05 +9.491410E-05 -2.503204E-04 
 +4.966621E-03 -1.672399E-04 -3.807840E-06 -1.672399E-04 +2.627040E-05 +4.090210E-05 -3.807840E-06 +4.090210E-05 -2.083487E-04 
 +4.929631E-03 -1.285217E-04 -5.867599E-06 -1.285217E-04 +1.636837E-04 +2.859083E-05 -5.867599E-06 +2.859083E-05 -2.406198E-04 
 +4.950250E-03 +4.425971E-05 +6.558328E-06 +4.425971E-05 +2.826489E-04 +8.271227E-05 +6.558328E-06 +8.271227E-05 -2.726700E-04 
 +5.003981E-03 +3.165026E-05 +3.218316E-05 +3.165026E-05 +2.810200E-04 +8.882950E-05 +3.218316E-05 +8.882950E-05 -3.517285E-04 
 +5.053314E-03 +3.005198E-05 +5.264830E-06 +3.005198E-05 +2.427590E-04 +6.944466E-05 +5.264830E-06 +6.944466E-05 -3.804897E-04 
 +5.109858E-03 +4.833967E-05 -1.014554E-05 +4.833967E-05 +1.941145E-04 +8.673519E-05 -1.014554E-05 +8.673519E-05 -3.662582E-04 
 +5.137911E-03 +9.446286E-05 +2.222259E-06 +9.446286E-05 +1.690210E-04 +1.191234E-04 +2.222259E-06 +1.191234E-04 -3.763928E-04 
 +5.107041E-03 +1.109543E-04 +1.070734E-05 +1.109543E-04 +2.538789E-04 +1.815595E-04 +1.070734E-05 +1.815595E-04 -3.792978E-04 
 +4.973334E-03 +5.844788E-05 -1.126145E-04 +5.844788E-05 +3.553559E-04 +2.752843E-04 -1.126145E-04 +2.752843E-04 -2.581152E-04 
 +4.857707E-03 -5.365525E-05 -1.775557E-04 -5.365525E-05 +3.039993E-04 +3.278298E-04 -1.775557E-04 +3.278298E-04 -7.488603E-05 
 +4.877030E-03 -1.459993E-04 -1.155871E-04 -1.459993E-04 +2.240190E-04 +2.091688E-04 -1.155871E-04 +2.091688E-04 +1.808389E-05 
 +4.831591E-03 -2.136355E-04 +1.065035E-04 -2.136355E-04 +1.359141E-04 +1.934407E-06 +1.065035E-04 +1.934407E-06 +6.606179E-05 
 +4.866254E-03 -2.949418E-05 +5.275510E-06 -2.949418E-05 +2.473953E-05 +3.592914E-05 +5.275510E-06 +3.592914E-05 +8.989106E-05 
 +4.871464E-03 -2.595203E-05 -5.956965E-05 -2.595203E-05 +1.565235E-05 +5.951457E-05 -5.956965E-05 +5.951457E-05 +5.271088E-05 
 +4.840857E-03 -7.918518E-05 -6.485379E-05 -7.918518E-05 -6.568019E-05 +8.941290E-05 -6.485379E-05 +8.941290E-05 +5.337133E-05 
 +5.048474E-03 +1.199600E-05 +8.639738E-06 +1.199600E-05 -2.492510E-04 +8.222989E-05 +8.639738E-06 +8.222989E-05 +2.991759E-05 
 +5.035613E-03 +3.323266E-05 -1.650540E-05 +3.323266E-05 -3.048094E-04 +6.921742E-05 -1.650540E-05 +6.921742E-05 -7.190537E-05 
 +4.989407E-03 +7.035360E-05 -8.279618E-05 +7.035360E-05 -2.502793E-04 +3.179939E-05 -8.279618E-05 +3.179939E-05 -1.076561E-04 
 +4.992521E-03 +5.073259E-05 -5.680443E-05 +5.073259E-05 -1.817362E-04 +1.576297E-05 -5.680443E-05 +1.576297E-05 -9.241700E-05 
 +5.021749E-03 -3.991736E-05 -6.176687E-05 -3.991736E-05 -8.391925E-05 +6.223005E-05 -6.176687E-05 +6.223005E-05 -1.177756E-04 
 +4.960696E-03 -9.028239E-05 -8.876692E-05 -9.028239E-05 -1.340189E-05 +8.856869E-05 -8.876692E-05 +8.856869E-05 -8.697366E-05 
 +4.871895E-03 -1.575397E-04 -1.005184E-04 -1.575397E-04 +4.966779E-05 +5.931923E-05 -1.005184E-04 +5.931923E-05 -5.534764E-05 
 +4.997984E-03 +2.044444E-05 -1.569509E-05 +2.044444E-05 +1.838646E-04 +2.841199E-06 -1.569509E-05 +2.841199E-06 -1.646425E-04 
 +5.015366E-03 +9.603969E-05 +5.238719E-05 +9.603969E-05 +2.528716E-04 +7.160967E-07 +5.238719E-05 +7.160967E-07 -2.512297E-04 
 +5.008271E-03 +3.785567E-05 +7.483731E-05 +3.785567E-05 +2.481032E-04 +3.483662E-05 +7.483731E-05 +3.483662E-05 -2.660787E-04 
 +5.028273E-03 -3.094542E-06 +6.383141E-05 -3.094542E-06 +2.252340E-04 +6.049741E-05 +6.383141E-05 +6.049741E-05 -2.837525E-04 
 +5.100054E-03 -1.168985E-05 +6.825694E-05 -1.168985E-05 +1.490619E-04 +7.897874E-05 +6.825694E-05 +7.897874E-05 -3.309896E-04 
 +5.206408E-03 +6.730074E-05 +1.010438E-04 +6.730074E-05 +1.316377E-04 +1.242006E-04 +1.010438E-04 +1.242006E-04 -4.127062E-04 
 +5.133840E-03 +9.043606E-05 +5.138931E-05 +9.043606E-05 +1.792021E-04 +1.863097E-04 +5.138931E-05 +1.863097E-04 -4.002743E-04 
 +4.953237E-03 -3.675844E-05 -1.780437E-04 -3.675844E-05 +1.613001E-04 +2.549428E-04 -1.780437E-04 +2.549428E-04 -1.893851E-04 
 +4.943718E-03 -6.428689E-05 -2.036320E-04 -6.428689E-05 +1.158669E-04 +2.856838E-04 -2.036320E-04 +2.856838E-04 -2.263314E-05 
 +5.023125E-03 -5.181693E-05 -1.410501E-04 -5.181693E-05 +1.172429E-04 +2.058125E-04 -1.410501E-04 +2.058125E-04 +1.032928E-05 
 +4.829122E-03 -1.715732E-04 +8.637395E-05 -1.715732E-04 +8.540630E-05 +8.603498E-05 +8.637395E-05 +8.603498E-05 +5.831445E-05 
 +4.808587E-03 -6.246816E-05 +7.258172E-06 -6.246816E-05 +5.217702E-05 +8.067577E-05 +7.258172E-06 +8.067577E-05 +1.324139E-04 
 +4.861733E-03 -2.006815E-05 -3.935479E-05 -2.006815E-05 +1.223918E-05 +8.701375E-05 -3.935479E-05 +8.701375E-05 +1.125196E-04 
 +4.880105E-03 -9.370044E-05 -6.223886E-05 -9.370044E-05 +5.833806E-05 +6.540138E-05 -6.223886E-05 +6.540138E-05 +8.636876E-05 
 +4.920747E-03 -8.643956E-05 -9.228948E-05 -8.643956E-05 +1.369193E-04 -6.647691E-06 -9.228948E-05 -6.647691E-06 +3.421624E-05 
 +4.958062E-03 -3.678257E-05 -5.916593E-05 -3.678257E-05 +8.569486E-05 -3.646040E-05 -5.916593E-05 -3.646040E-05 -4.383581E-05 
 +4.931014E-03 +7.367136E-05 -1.801523E-04 +7.367136E-05 +5.924098E-05 -6.743627E-05 -1.801523E-04 -6.743627E-05 -9.411111E-05 
 +4.979735E-03 +4.838111E-05 -6.262288E-05 +4.838111E-05 +6.166068E-06 -1.269618E-04 -6.262288E-05 -1.269618E-04 -2.852144E-05 
 +5.001165E-03 +3.422779E-06 -1.231599E-04 +3.422779E-06 -4.848874E-05 -1.453964E-04 -1.231599E-04 -1.453964E-04 +5.323822E-05 
 +4.894370E-03 -3.655042E-05 -1.978876E-04 -3.655042E-05 +5.278138E-05 -1.347456E-04 -1.978876E-04 -1.347456E-04 +9.497889E-05 
 +4.852204E-03 -7.586547E-05 -1.742660E-04 -7.586547E-05 +1.606279E-04 -5.682632E-05 -1.742660E-04 -5.682632E-05 +8.714666E-05 
 +5.057643E-03 +4.382875E-05 -6.186036E-05 +4.382875E-05 +1.581398E-04 +6.372854E-06 -6.186036E-05 +6.372854E-06 -5.610550E-05 
 +5.041155E-03 +7.916682E-05 +4.594093E-05 +7.916682E-05 +1.731949E-04 +3.358103E-05 +4.594093E-05 +3.358103E-05 -1.699825E-04 
 +5.022784E-03 +4.914256E-05 +1.124436E-04 +4.914256E-05 +2.238234E-04 +6.853901E-05 +1.124436E-04 +6.853901E-05 -1.926273E-04 
 +5.030397E-03 +3.952431E-06 +1.029685E-04 +3.952431E-06 +2.170666E-04 +6.172658E-05 +1.029685E-04 +6.172658E-05 -2.238479E-04 
 +5.045163E-03 -2.686927E-05 +1.261087E-04 -2.686927E-05 +1.225626E-04 +3.989279E-05 +1.261087E-04 +3.989279E-05 -2.885727E-04 
 +5.072322E-03 -6.404205E-06 +1.013932E-04 -6.404205E-06 +3.078399E-06 -1.249136E-05 +1.013932E-04 -1.249136E-05 -3.713992E-04 
 +5.189135E-03 -3.042178E-05 +1.004338E-05 -3.042178E-05 -6.686608E-05 -1.685914E-04 +1.004338E-05 -1.685914E-04 -3.158988E-04 
 +5.107023E-03 -7.106489E-05 -8.161090E-05 -7.106489E-05 -1.079962E-04 -2.218471E-04 -8.161090E-05 -2.218471E-04 -1.568262E-04 
 +5.115266E-03 -4.292879E-05 -1.106500E-04 -4.292879E-05 -9.875507E-05 -1.171069E-04 -1.106500E-04 -1.171069E-04 -1.237327E-04 
 +5.163294E-03 -4.203819E-05 -1.067988E-04 -4.203819E-05 -2.651850E-05 -2.204409E-05 -1.067988E-04 -2.204409E-05 -8.423204E-05 
 +4.806388E-03 -2.137299E-04 +7.209704E-05 -2.137299E-04 +4.519564E-05 +4.731083E-05 +7.209704E-05 +4.731083E-05 +6.530551E-05 
 +4.802031E-03 -1.302424E-04 +1.831084E-05 -1.302424E-04 +4.149068E-05 +1.075292E-04 +1.831084E-05 +1.075292E-04 +1.296803E-04 
 +4.845826E-03 -1.039932E-04 -3.434546E-05 -1.039932E-04 +4.182068E-05 +1.092706E-04 -3.434546E-05 +1.092706E-04 +1.297574E-04 
 +4.863278E-03 -1.217645E-04 -6.884950E-05 -1.217645E-04 +7.601565E-05 +8.623878E-05 -6.884950E-05 +8.623878E-05 +1.000860E-04 
 +4.870878E-03 -9.317418E-05 -1.143734E-04 -9.317418E-05 +1.337199E-04 +1.205179E-05 -1.143734E-04 +1.205179E-05 +7.742712E-05 
 +4.903515E-03 -4.232583E-05 -3.502570E-05 -4.232583E-05 +1.344667E-04 -7.325239E-05 -3.502570E-05 -7.325239E-05 +8.025209E-05 
 +4.911882E-03 +9.812558E-05 -2.175832E-04 +9.812558E-05 +7.843612E-05 -1.278272E-04 -2.175832E-04 -1.278272E-04 +4.862074E-05 
 +4.969145E-03 +3.515227E-05 -1.109775E-04 +3.515227E-05 +7.795756E-05 -1.253852E-04 -1.109775E-04 -1.253852E-04 +5.671755E-05 
 +4.922020E-03 +9.429595E-06 -1.683011E-04 +9.429595E-06 +1.094449E-04 -7.973819E-05 -1.683011E-04 -7.973819E-05 +1.753107E-04 
 +4.922616E-03 +2.832614E-06 -2.370325E-04 +2.832614E-06 +9.414743E-05 -9.569456E-05 -2.370325E-04 -9.569456E-05 +2.747738E-04 
 +4.900111E-03 +2.819419E-05 -1.949657E-04 +2.819419E-05 +1.477239E-04 -9.346741E-05 -1.949657E-04 -9.346741E-05 +2.461579E-04 
 +4.931272E-03 +5.291145E-05 -1.074657E-04 +5.291145E-05 +1.857941E-04 -4.699472E-05 -1.074657E-04 -4.699472E-05 +1.330312E-04 
 +5.173726E-03 +1.371334E-04 +6.716890E-05 +1.371334E-04 +1.622395E-04 -7.057296E-06 +6.716890E-05 -7.057296E-06 -2.734173E-05 
 +5.092022E-03 +1.310495E-04 +8.805033E-05 +1.310495E-04 +1.804556E-04 +3.340421E-05 +8.805033E-05 +3.340421E-05 -7.775061E-05 
 +4.989061E-03 +5.098464E-05 +7.027917E-05 +5.098464E-05 +1.846717E-04 +4.099355E-05 +7.027917E-05 +4.099355E-05 -7.194729E-05 
 +4.920787E-03 -7.720246E-05 +7.984791E-05 -7.720246E-05 +2.019245E-04 +2.268032E-05 +7.984791E-05 +2.268032E-05 -1.592760E-04 
 +4.776428E-03 -8.838077E-05 -1.223016E-05 -8.838077E-05 +1.350782E-04 -7.622541E-05 -1.223016E-05 -7.622541E-05 -1.756328E-04 
 +5.328992E-03 -1.134109E-04 +5.094809E-06 -1.134109E-04 -6.395747E-05 -1.923896E-04 +5.094809E-06 -1.923896E-04 -1.626795E-04 
 +5.289553E-03 -1.341279E-04 +3.159238E-05 -1.341279E-04 -1.745950E-04 -2.282141E-04 +3.159238E-05 -2.282141E-04 -1.612180E-04 
 +5.276755E-03 -1.115037E-04 -3.287336E-05 -1.115037E-04 -1.771759E-04 -2.231253E-04 -3.287336E-05 -2.231253E-04 -1.200577E-04 
 +5.240100E-03 -5.717618E-05 -6.149829E-05 -5.717618E-05 -1.138121E-04 -1.210476E-04 -6.149829E-05 -1.210476E-04 -4.022529E-05 
 +4.808220E-03 -2.675155E-04 +1.135834E-04 -2.675155E-04 -1.439224E-06 +3.526596E-05 +1.135834E-04 +3.526596E-05 +7.244273E-05 
 +4.798889E-03 -1.735456E-04 +4.079050E-05 -1.735456E-04 +5.201005E-05 +9.410217E-05 +4.079050E-05 +9.410217E-05 +9.413283E-05 
 +4.809102E-03 -1.606889E-04 -2.003866E-05 -1.606889E-04 +8.286929E-05 +1.173719E-04 -2.003866E-05 +1.173719E-04 +1.151713E-04 
 +4.861123E-03 -1.595083E-04 -6.537048E-05 -1.595083E-04 +7.406000E-05 +1.142276E-04 -6.537048E-05 +1.142276E-04 +1.061961E-04 
 +4.912251E-03 -1.361240E-04 -1.271835E-04 -1.361240E-04 +6.783507E-05 +8.124997E-05 -1.271835E-04 +8.124997E-05 +1.175033E-04 
 +4.882606E-03 -1.142722E-04 -4.214134E-05 -1.142722E-04 +5.120941E-05 +2.403027E-05 -4.214134E-05 +2.403027E-05 +1.686263E-04 
 +4.898716E-03 +6.487752E-05 -2.223477E-04 +6.487752E-05 +4.074693E-05 -2.116741E-05 -2.223477E-04 -2.116741E-05 +1.469190E-04 
 +4.954947E-03 +4.818834E-05 -1.280256E-04 +4.818834E-05 +5.840704E-05 -4.708732E-05 -1.280256E-04 -4.708732E-05 +8.706875E-05 
 +4.947464E-03 +8.491256E-05 -1.439363E-04 +8.491256E-05 +9.097609E-05 -8.518583E-05 -1.439363E-04 -8.518583E-05 +1.614282E-04 
 +4.958433E-03 +9.919067E-05 -1.508765E-04 +9.919067E-05 +1.199866E-04 -1.242604E-04 -1.508765E-04 -1.242604E-04 +2.737002E-04 
 +4.931372E-03 +1.314136E-04 -1.106717E-04 +1.314136E-04 +1.532566E-04 -1.358766E-04 -1.106717E-04 -1.358766E-04 +3.127460E-04 
 +4.927553E-03 +1.753896E-04 -9.823481E-05 +1.753896E-04 +2.225684E-04 -8.359752E-05 -9.823481E-05 -8.359752E-05 +2.927785E-04 
 +5.213669E-03 +2.461158E-04 +7.728612E-06 +2.461158E-04 +1.808501E-04 +3.007239E-05 +7.728612E-06 +3.007239E-05 +1.234574E-04 
 +5.089348E-03 +1.693007E-04 -5.048924E-05 +1.693007E-04 +1.317730E-04 +8.679977E-05 -5.048924E-05 +8.679977E-05 +5.295218E-05 
 +4.873365E-03 +2.841474E-05 -3.988861E-05 +2.841474E-05 +1.938259E-04 +4.368399E-05 -3.988861E-05 +4.368399E-05 +1.291676E-04 
 +4.764325E-03 -7.625634E-05 -5.820543E-06 -7.625634E-05 +2.311011E-04 +5.163144E-07 -5.820543E-06 +5.163144E-07 +7.940205E-05 
 +4.679893E-03 -1.430818E-04 -4.910978E-05 -1.430818E-04 +7.840147E-05 -5.163891E-05 -4.910978E-05 -5.163891E-05 +1.410609E-05 
 +5.223985E-03 -1.778214E-04 +6.096890E-05 -1.778214E-04 -1.772082E-04 -1.766629E-04 +6.096890E-05 -1.766629E-04 -6.337796E-05 
 +5.424424E-03 -1.899552E-04 +1.127088E-04 -1.899552E-04 -2.648070E-04 -2.055209E-04 +1.127088E-04 -2.055209E-04 -1.555685E-04 
 +5.401449E-03 -1.808388E-04 +3.433787E-05 -1.808388E-04 -2.229382E-04 -9.168225E-05 +3.433787E-05 -9.168225E-05 -1.721538E-04 
 +5.320100E-03 -9.797596E-05 -1.868815E-05 -9.797596E-05 -1.320178E-04 +4.502489E-06 -1.868815E-05 +4.502489E-06 -1.084390E-04 
 +4.865139E-03 -2.841721E-04 +1.434956E-04 -2.841721E-04 -2.826403E-05 +5.580682E-05 +1.434956E-04 +5.580682E-05 +1.387397E-05 
 +4.779819E-03 -2.283814E-04 +7.262638E-05 -2.283814E-04 +1.160225E-04 +5.392641E-05 +7.262638E-05 +5.392641E-05 +4.886385E-05 
 +4.801277E-03 -2.398097E-04 +9.367584E-06 -2.398097E-04 +1.305816E-04 +9.494458E-05 +9.367584E-06 +9.494458E-05 +7.766916E-05 
 +4.851954E-03 -2.403785E-04 -3.580688E-05 -2.403785E-04 +1.147778E-04 +1.228630E-04 -3.580688E-05 +1.228630E-04 +6.712684E-05 
 +4.923917E-03 -2.257706E-04 -9.774460E-05 -2.257706E-04 +9.154983E-05 +1.371264E-04 -9.774460E-05 +1.371264E-04 +6.391181E-05 
 +4.931337E-03 -1.815415E-04 -2.146313E-05 -1.815415E-04 +1.017401E-04 +1.022416E-04 -2.146313E-05 +1.022416E-04 +8.526463E-05 
 +4.911188E-03 +1.159723E-05 -2.164067E-04 +1.159723E-05 +1.133430E-04 +6.685054E-05 -2.164067E-04 +6.685054E-05 +5.531795E-05 
 +4.987849E-03 +2.146254E-05 -1.592991E-04 +2.146254E-05 +9.610602E-05 +2.513168E-05 -1.592991E-04 +2.513168E-05 +1.766159E-05 
 +5.009994E-03 +4.031806E-05 -1.543851E-04 +4.031806E-05 +9.503260E-05 -4.650331E-05 -1.543851E-04 -4.650331E-05 +4.480002E-05 
 +4.964455E-03 +3.002712E-05 -8.526686E-05 +3.002712E-05 +1.381410E-04 -9.125941E-05 -8.526686E-05 -9.125941E-05 +1.123255E-04 
 +4.942178E-03 +8.226178E-05 -2.434450E-05 +8.226178E-05 +1.932221E-04 -1.383889E-04 -2.434450E-05 -1.383889E-04 +1.900966E-04 
 +5.084389E-03 +1.305007E-04 -6.686437E-05 +1.305007E-04 +2.026186E-04 -1.426462E-04 -6.686437E-05 -1.426462E-04 +2.127424E-04 
 +5.150084E-03 +1.306086E-04 -2.004719E-04 +1.306086E-04 +1.773022E-04 -8.134981E-05 -2.004719E-04 -8.134981E-05 +1.955612E-04 
 +4.988898E-03 +1.565838E-04 -2.511562E-04 +1.565838E-04 +1.650150E-04 -2.797414E-05 -2.511562E-04 -2.797414E-05 +2.491141E-04 
 +4.860062E-03 +5.993066E-05 -1.894346E-04 +5.993066E-05 +1.720314E-04 -6.538968E-05 -1.894346E-04 -6.538968E-05 +3.246998E-04 
 +4.770402E-03 +4.826823E-05 -6.344858E-05 +4.826823E-05 +1.459236E-04 -7.758496E-05 -6.344858E-05 -7.758496E-05 +3.160155E-04 
 +4.755928E-03 -9.795365E-06 -1.993733E-06 -9.795365E-06 +1.231292E-04 -1.262559E-05 -1.993733E-06 -1.262559E-05 +2.077388E-04 
 +4.886462E-03 -7.488860E-05 +2.811175E-05 -7.488860E-05 -1.064905E-05 -1.215926E-04 +2.811175E-05 -1.215926E-04 +1.476530E-05 
 +5.318748E-03 -1.665246E-04 +1.475695E-04 -1.665246E-04 -2.578355E-04 -2.640298E-04 +1.475695E-04 -2.640298E-04 -1.683046E-04 
 +5.486432E-03 -1.820890E-04 +1.281529E-04 -1.820890E-04 -3.369565E-04 -2.377743E-04 +1.281529E-04 -2.377743E-04 -2.796414E-04 
 +5.440286E-03 -5.378537E-05 +1.992923E-05 -5.378537E-05 -2.288996E-04 -1.400409E-04 +1.992923E-05 -1.400409E-04 -2.375952E-04 
 +4.892375E-03 -2.502236E-04 +1.667823E-04 -2.502236E-04 -3.070935E-05 -2.612663E-05 +1.667823E-04 -2.612663E-05 -6.129667E-05 
 +4.851488E-03 -3.265009E-04 +1.104456E-04 -3.265009E-04 +1.431925E-04 -1.347299E-05 +1.104456E-04 -1.347299E-05 +1.580870E-05 
 +4.818482E-03 -2.789014E-04 +4.815009E-05 -2.789014E-04 +1.558146E-04 +2.981504E-05 +4.815009E-05 +2.981504E-05 +4.794364E-05 
 +4.815524E-03 -3.006738E-04 +1.201712E-05 -3.006738E-04 +1.788211E-04 +5.848562E-05 +1.201712E-05 +5.848562E-05 +3.313233E-05 
 +4.890776E-03 -3.204760E-04 -2.612195E-05 -3.204760E-04 +1.560799E-04 +9.399262E-05 -2.612195E-05 +9.399262E-05 +5.591091E-06 
 +5.056670E-03 -2.063361E-04 -7.661472E-06 -2.063361E-04 +2.154169E-04 +9.420897E-05 -7.661472E-06 +9.420897E-05 -4.761402E-05 
 +5.021579E-03 -2.306114E-05 -1.895911E-04 -2.306114E-05 +2.522978E-04 +5.742695E-05 -1.895911E-04 +5.742695E-05 -1.641985E-04 
 +5.048496E-03 +4.133870E-05 -1.757478E-04 +4.133870E-05 +1.889745E-04 +2.082221E-05 -1.757478E-04 +2.082221E-05 -1.855644E-04 
 +4.979757E-03 +7.954905E-05 -1.871161E-04 +7.954905E-05 +1.829856E-04 -2.355524E-05 -1.871161E-04 -2.355524E-05 -6.666495E-05 
 +4.946938E-03 +6.295876E-05 -1.423839E-04 +6.295876E-05 +2.146844E-04 -8.638160E-05 -1.423839E-04 -8.638160E-05 +2.640126E-05 
 +4.963170E-03 +6.633816E-05 -9.244251E-05 +6.633816E-05 +2.284670E-04 -1.056395E-04 -9.244251E-05 -1.056395E-04 +9.540813E-05 
 +5.204968E-03 +8.025568E-05 -8.700401E-05 +8.025568E-05 +2.192243E-04 -5.144999E-05 -8.700401E-05 -5.144999E-05 +7.624698E-05 
 +5.208546E-03 +1.282981E-04 -2.906820E-04 +1.282981E-04 +2.252060E-04 -6.481065E-07 -2.906820E-04 -6.481065E-07 +9.984054E-05 
 +4.972937E-03 +2.370664E-04 -3.087984E-04 +2.370664E-04 +2.458972E-04 -1.353302E-05 -3.087984E-04 -1.353302E-05 +3.266067E-04 
 +4.880017E-03 +1.121612E-04 -2.714715E-04 +1.121612E-04 +1.957482E-04 -7.396492E-05 -2.714715E-04 -7.396492E-05 +4.178725E-04 
 +4.904447E-03 +6.176942E-05 -1.882092E-04 +6.176942E-05 +9.825608E-05 -1.258832E-04 -1.882092E-04 -1.258832E-04 +3.825756E-04 
 +4.851554E-03 +2.123095E-05 -4.637060E-05 +2.123095E-05 +3.654954E-05 -1.521023E-04 -4.637060E-05 -1.521023E-04 +3.441707E-04 
 +4.758020E-03 +2.215133E-05 +1.950268E-05 +2.215133E-05 +4.745249E-05 -1.182003E-04 +1.950268E-05 -1.182003E-04 +1.731925E-04 
 +4.910776E-03 -2.801993E-05 +4.428695E-05 -2.801993E-05 -2.308055E-05 -1.399321E-04 +4.428695E-05 -1.399321E-04 -1.702846E-05 
 +5.360534E-03 -1.224512E-04 +1.037738E-04 -1.224512E-04 -2.359983E-04 -2.098423E-04 +1.037738E-04 -2.098423E-04 -1.272274E-04 
 +5.337134E-03 -1.217194E-04 +9.473522E-05 -1.217194E-04 -2.964229E-04 -1.620485E-04 +9.473522E-05 -1.620485E-04 -1.381756E-04 
 +4.956108E-03 -2.815372E-04 +2.158770E-04 -2.815372E-04 -4.042223E-05 -7.036450E-05 +2.158770E-04 -7.036450E-05 -5.539515E-05 
 +4.866373E-03 -2.697651E-04 +1.198969E-04 -2.697651E-04 +1.105825E-04 -7.561964E-05 +1.198969E-04 -7.561964E-05 +1.072767E-05 
 +4.829608E-03 -3.473066E-04 +7.037203E-05 -3.473066E-04 +2.002305E-04 -7.468832E-05 +7.037203E-05 -7.468832E-05 -1.329818E-06 
 +4.873260E-03 -3.355337E-04 +1.493473E-05 -3.355337E-04 +1.666742E-04 -1.241144E-05 +1.493473E-05 -1.241144E-05 +3.312165E-06 
 +4.967272E-03 -2.183114E-04 -6.540026E-06 -2.183114E-04 +1.701168E-04 +4.541656E-05 -6.540026E-06 +4.541656E-05 +1.712838E-06 
 +5.201014E-03 -4.622385E-06 -6.139960E-05 -4.622385E-06 +1.877531E-04 +1.972107E-05 -6.139960E-05 +1.972107E-05 -1.039493E-04 
 +5.156449E-03 +8.192933E-05 -1.370896E-04 +8.192933E-05 +2.025827E-04 -4.689722E-05 -1.370896E-04 -4.689722E-05 -2.646027E-04 
 +5.067452E-03 +1.103967E-04 -9.860064E-05 +1.103967E-04 +2.445079E-04 -3.892547E-05 -9.860064E-05 -3.892547E-05 -2.711747E-04 
 +4.934529E-03 +1.080932E-04 -1.101007E-04 +1.080932E-04 +2.245010E-04 +1.788042E-05 -1.101007E-04 +1.788042E-05 -1.147699E-04 
 +4.959411E-03 +1.474677E-04 -1.161724E-04 +1.474677E-04 +1.836567E-04 +2.856838E-05 -1.161724E-04 +2.856838E-05 -7.036138E-05 
 +4.985754E-03 +1.552065E-04 -1.098241E-04 +1.552065E-04 +1.304944E-04 +4.295731E-05 -1.098241E-04 +4.295731E-05 -3.381132E-05 
 +5.241627E-03 +1.871612E-04 -1.363807E-04 +1.871612E-04 +9.836509E-05 +4.577866E-05 -1.363807E-04 +4.577866E-05 -2.818059E-05 
 +5.284601E-03 +2.168629E-04 -2.391814E-04 +2.168629E-04 +2.458230E-04 -2.107455E-05 -2.391814E-04 -2.107455E-05 +4.645673E-06 
 +5.068557E-03 +2.232842E-04 -2.340311E-04 +2.232842E-04 +3.080458E-04 -4.310525E-05 -2.340311E-04 -4.310525E-05 +2.846301E-04 
 +4.962408E-03 +1.465115E-04 -2.150133E-04 +1.465115E-04 +1.902037E-04 -2.617497E-05 -2.150133E-04 -2.617497E-05 +4.201340E-04 
 +4.901257E-03 +9.113350E-05 -2.348720E-04 +9.113350E-05 +5.327920E-05 -7.222727E-05 -2.348720E-04 -7.222727E-05 +4.177578E-04 
 +4.916327E-03 +1.468423E-05 -1.185167E-04 +1.468423E-05 -3.984779E-05 -8.706260E-05 -1.185167E-04 -8.706260E-05 +4.314950E-04 
 +4.816993E-03 +1.353546E-05 +2.078197E-05 +1.353546E-05 -6.453832E-05 +2.815185E-05 +2.078197E-05 +2.815185E-05 +3.726045E-04 
 +4.755902E-03 +5.118483E-05 -3.097874E-06 +5.118483E-05 -2.352895E-05 +1.075445E-04 -3.097874E-06 +1.075445E-04 +2.587536E-04 
 +4.986193E-03 +9.180115E-05 +9.765414E-05 +9.180115E-05 +6.001560E-05 +1.179917E-04 +9.765414E-05 +1.179917E-04 +8.451207E-05 
 +5.023256E-03 +1.166250E-04 +1.226315E-04 +1.166250E-04 +1.118981E-05 +1.093300E-04 +1.226315E-04 +1.093300E-04 -1.420022E-05 
 +4.939757E-03 +9.344951E-06 +1.623089E-04 +9.344951E-06 -3.932047E-05 +1.966201E-05 +1.623089E-04 +1.966201E-05 -5.230509E-06 
 +4.775760E-03 +5.254108E-05 +1.209956E-04 +5.254108E-05 +6.957250E-05 -1.010206E-04 +1.209956E-04 -1.010206E-04 +8.015504E-05 
 +4.854636E-03 -1.449496E-04 +5.080297E-05 -1.449496E-04 +1.788894E-04 -1.244970E-04 +5.080297E-05 -1.244970E-04 -2.267342E-05 
 +5.021752E-03 -1.104091E-04 -5.146083E-05 -1.104091E-04 +1.336463E-04 -8.290497E-05 -5.146083E-05 -8.290497E-05 -1.163892E-04 
 +5.117063E-03 -1.368820E-05 -5.221426E-05 -1.368820E-05 +1.372061E-04 -2.408578E-05 -5.221426E-05 -2.408578E-05 -6.771792E-05 
 +5.189329E-03 +7.856701E-05 -9.071059E-05 +7.856701E-05 +1.382112E-04 -3.426838E-06 -9.071059E-05 -3.426838E-06 -9.351392E-05 
 +5.146150E-03 +7.965339E-05 -9.382460E-05 +7.965339E-05 +1.429977E-04 +6.458621E-06 -9.382460E-05 +6.458621E-06 -1.614036E-04 
 +5.069209E-03 +8.603101E-05 -4.440479E-05 +8.603101E-05 +1.768695E-04 +6.271223E-06 -4.440479E-05 +6.271223E-06 -1.587062E-04 
 +4.988493E-03 +1.184372E-04 -1.526529E-05 +1.184372E-04 +2.299351E-04 -3.065137E-05 -1.526529E-05 -3.065137E-05 -1.312993E-04 
 +5.031517E-03 +1.893075E-04 +2.290001E-05 +1.893075E-04 +2.094948E-04 -5.401060E-05 +2.290001E-05 -5.401060E-05 -1.788281E-04 
 +5.051725E-03 +2.367759E-04 -9.217021E-06 +2.367759E-04 +2.329120E-04 -7.032670E-05 -9.217021E-06 -7.032670E-05 -2.032054E-04 
 +5.111127E-03 +2.251027E-04 -9.073898E-05 +2.251027E-04 +2.951480E-04 +3.016680E-06 -9.073898E-05 +3.016680E-06 -7.055071E-05 
 +5.196673E-03 +1.233373E-04 -1.260658E-04 +1.233373E-04 +8.704332E-05 +1.809760E-04 -1.260658E-04 +1.809760E-04 +1.190791E-04 
 +5.198891E-03 +6.066635E-05 -1.536916E-04 +6.066635E-05 -1.475008E-04 +2.749629E-04 -1.536916E-04 +2.749629E-04 +3.231453E-04 
 +5.195512E-03 +4.268895E-05 -1.764711E-04 +4.268895E-05 -1.362355E-04 +2.216298E-04 -1.764711E-04 +2.216298E-04 +4.300508E-04 
 +4.941992E-03 +6.842381E-05 -1.962558E-04 +6.842381E-05 -5.341956E-05 +7.428810E-05 -1.962558E-04 +7.428810E-05 +3.805911E-04 
 +4.871437E-03 +2.951867E-05 -1.149996E-04 +2.951867E-05 -6.734486E-05 -3.597080E-05 -1.149996E-04 -3.597080E-05 +3.725635E-04 
 +4.813587E-03 -2.375140E-05 -1.360192E-05 -2.375140E-05 -1.580019E-04 +2.763818E-05 -1.360192E-05 +2.763818E-05 +4.814050E-04 
 +4.799140E-03 +5.863177E-05 +4.736104E-05 +5.863177E-05 -1.054886E-04 +8.778123E-05 +4.736104E-05 +8.778123E-05 +4.723828E-04 
 +4.730758E-03 +7.865504E-05 +8.284970E-05 +7.865504E-05 +4.565898E-05 +1.749658E-05 +8.284970E-05 +1.749658E-05 +2.766015E-04 
 +4.810135E-03 +1.205912E-04 +7.056904E-05 +1.205912E-04 +8.368097E-05 -4.710851E-05 +7.056904E-05 -4.710851E-05 +1.285315E-04 
 +4.823278E-03 +1.261433E-04 +7.410019E-05 +1.261433E-04 +1.543509E-06 -6.603688E-05 +7.410019E-05 -6.603688E-05 +8.656079E-05 
 +4.760880E-03 +9.489767E-05 +9.829851E-05 +9.489767E-05 -5.276013E-05 -1.348111E-04 +9.829851E-05 -1.348111E-04 +1.738995E-04 
 +4.969510E-03 -7.779823E-05 +1.459402E-05 -7.779823E-05 -9.652144E-05 -1.472568E-04 +1.459402E-05 -1.472568E-04 +7.206140E-05 
 +5.056789E-03 -3.977422E-05 -5.463577E-05 -3.977422E-05 +1.224659E-05 -8.099849E-05 -5.463577E-05 -8.099849E-05 -8.764853E-05 
 +5.135675E-03 -4.372018E-05 -8.105323E-05 -4.372018E-05 +6.477246E-05 -4.045876E-05 -8.105323E-05 -4.045876E-05 -6.543477E-05 
 +5.105274E-03 +4.553389E-05 -5.478767E-05 +4.553389E-05 +6.507193E-05 -3.734275E-05 -5.478767E-05 -3.734275E-05 -1.897080E-05 
 +5.090151E-03 +9.817200E-05 -5.678410E-05 +9.817200E-05 +6.550172E-05 -2.056637E-05 -5.678410E-05 -2.056637E-05 -2.117810E-05 
 +5.082763E-03 +1.209974E-04 -3.891938E-05 +1.209974E-04 +5.349272E-05 -1.352482E-05 -3.891938E-05 -1.352482E-05 -3.581719E-05 
 +5.089630E-03 +1.406292E-04 +2.365549E-06 +1.406292E-04 +7.245570E-05 -1.551038E-05 +2.365549E-06 -1.551038E-05 -7.769816E-05 
 +5.070347E-03 +1.336844E-04 +5.479295E-05 +1.336844E-04 +1.375901E-04 -3.403956E-05 +5.479295E-05 -3.403956E-05 -1.050591E-04 
 +5.039643E-03 +1.560933E-04 +3.265862E-05 +1.560933E-04 +1.614318E-04 +6.929246E-08 +3.265862E-05 +6.929246E-08 -7.308389E-05 
 +5.032458E-03 +8.695602E-05 -1.745485E-06 +8.695602E-05 +5.129386E-05 +1.273824E-04 -1.745485E-06 +1.273824E-04 +8.046662E-05 
 +5.122825E-03 +4.132847E-05 -2.229099E-05 +4.132847E-05 -9.045238E-05 +2.033685E-04 -2.229099E-05 +2.033685E-04 +1.984483E-04 
 +5.245328E-03 +7.034988E-05 -8.242996E-05 +7.034988E-05 -1.957458E-04 +1.912488E-04 -8.242996E-05 +1.912488E-04 +2.242425E-04 
 +5.296593E-03 -1.304293E-05 -1.491746E-04 -1.304293E-05 -2.949333E-04 +1.870151E-04 -1.491746E-04 +1.870151E-04 +2.730229E-04 
 +5.103827E-03 -6.481313E-05 -1.515211E-04 -6.481313E-05 -2.973440E-04 +1.605285E-04 -1.515211E-04 +1.605285E-04 +2.693888E-04 
 +4.835219E-03 -8.961144E-05 -6.384253E-05 -8.961144E-05 -1.583846E-04 +4.870398E-06 -6.384253E-05 +4.870398E-06 +2.603300E-04 
 +4.784607E-03 -1.711208E-04 +1.340701E-05 -1.711208E-04 -1.046632E-04 -8.171043E-05 +1.340701E-05 -8.171043E-05 +3.701285E-04 
 +4.751202E-03 +4.310156E-05 +5.989865E-05 +4.310156E-05 -7.693251E-05 -1.036905E-04 +5.989865E-05 -1.036905E-04 +4.629115E-04 
 +4.672940E-03 +5.675051E-05 +3.301995E-05 +5.675051E-05 +2.051935E-05 -1.224624E-04 +3.301995E-05 -1.224624E-04 +3.836544E-04 
 +4.733204E-03 +1.053459E-04 +3.498919E-05 +1.053459E-04 +3.000465E-05 -8.731179E-05 +3.498919E-05 -8.731179E-05 +2.598830E-04 
 +4.759323E-03 +1.055237E-04 +7.347159E-05 +1.055237E-04 +2.148082E-05 -9.422165E-05 +7.347159E-05 -9.422165E-05 +1.899890E-04 
 +4.748597E-03 +6.565313E-05 +8.377133E-05 +6.565313E-05 -9.824610E-05 -1.254608E-04 +8.377133E-05 -1.254608E-04 +2.815990E-04 
 +5.028108E-03 -1.253298E-04 +5.167106E-05 -1.253298E-04 -1.820171E-04 -1.005514E-04 +5.167106E-05 -1.005514E-04 +2.189476E-04 
 +5.051628E-03 -7.520194E-05 -1.100896E-05 -7.520194E-05 -2.219593E-04 -3.821166E-05 -1.100896E-05 -3.821166E-05 +9.590024E-05 
 +5.116206E-03 -3.025687E-05 -5.816249E-05 -3.025687E-05 -9.588405E-05 -3.607582E-05 -5.816249E-05 -3.607582E-05 +3.801096E-05 
 +5.077952E-03 +1.432788E-05 -1.920288E-05 +1.432788E-05 -2.155524E-06 -7.560856E-05 -1.920288E-05 -7.560856E-05 +1.883019E-05 
 +5.070947E-03 +6.804095E-05 -2.373540E-05 +6.804095E-05 -1.477311E-05 -7.972684E-05 -2.373540E-05 -7.972684E-05 +1.347270E-06 
 +5.079787E-03 +9.219824E-05 -1.323094E-05 +9.219824E-05 -4.582585E-06 -4.560689E-05 -1.323094E-05 -4.560689E-05 +1.060275E-05 
 +5.109348E-03 +9.626974E-05 -5.870924E-06 +9.626974E-05 -1.897858E-05 -2.079490E-05 -5.870924E-06 -2.079490E-05 -1.045945E-05 
 +5.088115E-03 +1.560253E-04 -5.469934E-05 +1.560253E-04 +6.937746E-05 -5.654861E-05 -5.469934E-05 -5.654861E-05 -1.671748E-05 
 +5.017401E-03 +1.083366E-04 +5.259325E-06 +1.083366E-04 +1.176419E-04 -4.353617E-05 +5.259325E-06 -4.353617E-05 +4.833369E-05 
 +5.060946E-03 -1.151285E-05 +6.002380E-05 -1.151285E-05 -7.737147E-05 +1.161042E-04 +6.002380E-05 +1.161042E-04 +1.112006E-04 
 +5.138571E-03 -5.594141E-06 +8.793451E-06 -5.594141E-06 -2.336171E-04 +2.338383E-04 +8.793451E-06 +2.338383E-04 +1.267998E-04 
 +5.220301E-03 -3.346592E-06 -7.971828E-06 -3.346592E-06 -3.060019E-04 +2.501045E-04 -7.971828E-06 +2.501045E-04 +1.347603E-04 
 +5.260911E-03 -3.542183E-05 -7.880422E-05 -3.542183E-05 -3.445863E-04 +2.196082E-04 -7.880422E-05 +2.196082E-04 +2.181297E-04 
 +5.144000E-03 -2.875110E-05 -1.314469E-04 -2.875110E-05 -2.479061E-04 +1.044914E-04 -1.314469E-04 +1.044914E-04 +3.188243E-04 
 +4.905075E-03 -7.188802E-05 -7.489352E-05 -7.188802E-05 -1.097845E-04 -1.308598E-05 -7.489352E-05 -1.308598E-05 +2.854917E-04 
 +4.828204E-03 -1.994928E-04 +3.182952E-05 -1.994928E-04 -4.462451E-05 -3.377489E-05 +3.182952E-05 -3.377489E-05 +2.794837E-04 
 +4.703630E-03 +8.723509E-05 +6.332514E-05 +8.723509E-05 -6.227871E-05 -6.621363E-05 +6.332514E-05 -6.621363E-05 +4.044817E-04 
 +4.697681E-03 +1.089353E-04 +2.035278E-05 +1.089353E-04 -6.179219E-05 -9.489275E-05 +2.035278E-05 -9.489275E-05 +4.365564E-04 
 +4.703403E-03 +1.397147E-04 +1.050202E-05 +1.397147E-04 -3.882923E-06 -7.497102E-05 +1.050202E-05 -7.497102E-05 +3.611934E-04 
 +4.687317E-03 +1.263426E-04 +5.778307E-05 +1.263426E-04 -1.883294E-05 -9.562074E-05 +5.778307E-05 -9.562074E-05 +3.038642E-04 
 +4.687457E-03 +7.463037E-05 +3.291438E-05 +7.463037E-05 -2.957118E-05 -2.015750E-05 +3.291438E-05 -2.015750E-05 +3.776475E-04 
 +4.982520E-03 -9.444428E-05 +5.927517E-05 -9.444428E-05 -1.063265E-04 -1.008936E-05 +5.927517E-05 -1.008936E-05 +3.008995E-04 
 +5.063741E-03 -4.628043E-06 +4.233581E-05 -4.628043E-06 -7.249595E-05 +2.448565E-05 +4.233581E-05 +2.448565E-05 +1.460339E-04 
 +5.087354E-03 +2.588216E-05 -1.069395E-05 +2.588216E-05 -6.291448E-05 +4.017526E-06 -1.069395E-05 +4.017526E-06 +3.756760E-05 
 +5.052902E-03 +2.604052E-05 -4.573959E-06 +2.604052E-05 -4.639172E-05 -7.613362E-05 -4.573959E-06 -7.613362E-05 -1.588720E-05 
 +5.024673E-03 +6.401134E-05 +6.131785E-07 +6.401134E-05 +7.106013E-06 -1.019688E-04 +6.131785E-07 -1.019688E-04 -4.629916E-05 
 +5.070305E-03 +6.189873E-05 +7.525535E-06 +6.189873E-05 +6.567739E-06 -8.800915E-05 +7.525535E-06 -8.800915E-05 -5.770513E-05 
 +5.106025E-03 +6.349814E-05 -1.378401E-05 +6.349814E-05 +1.425391E-06 -6.406414E-05 -1.378401E-05 -6.406414E-05 -6.113538E-05 
 +5.107583E-03 +1.497046E-04 -7.070891E-05 +1.497046E-04 -5.418847E-05 +6.187460E-05 -7.070891E-05 +6.187460E-05 -2.644547E-05 
 +5.100393E-03 +5.464646E-05 -1.394740E-05 +5.464646E-05 -1.225546E-04 +2.397827E-04 -1.394740E-05 +2.397827E-04 +4.506640E-05 
 +5.093518E-03 -5.434957E-05 +5.894909E-05 -5.434957E-05 -1.011860E-04 +2.602177E-04 +5.894909E-05 +2.602177E-04 +7.010516E-05 
 +5.134220E-03 -5.530966E-06 +5.024339E-05 -5.530966E-06 -1.097559E-04 +1.949984E-04 +5.024339E-05 +1.949984E-04 +6.930199E-05 
 +5.182234E-03 -1.835357E-05 +7.171507E-05 -1.835357E-05 -1.681613E-04 +2.194537E-04 +7.171507E-05 +2.194537E-04 +1.082443E-04 
 +5.201088E-03 -5.009680E-05 -1.690530E-05 -5.009680E-05 -2.103215E-04 +2.565265E-04 -1.690530E-05 +2.565265E-04 +1.734119E-04 
 +5.147054E-03 +2.760473E-06 -1.628336E-04 +2.760473E-06 -2.087733E-04 +2.305452E-04 -1.628336E-04 +2.305452E-04 +2.458480E-04 
 +5.027232E-03 -3.211945E-05 -1.144869E-04 -3.211945E-05 -1.963552E-04 +2.472437E-04 -1.144869E-04 +2.472437E-04 +2.304268E-04 
 +4.935035E-03 -1.392446E-04 +1.003423E-06 -1.392446E-04 -1.548886E-04 +2.571945E-04 +1.003423E-06 +2.571945E-04 +2.745502E-04 
 +4.670661E-03 +1.049650E-04 +4.241782E-05 +1.049650E-04 -1.064425E-04 +1.167879E-04 +4.241782E-05 +1.167879E-04 +4.032288E-04 
 +4.723146E-03 +1.752491E-04 -1.680266E-05 +1.752491E-04 -8.380547E-05 -5.262213E-06 -1.680266E-05 -5.262213E-06 +4.285604E-04 
 +4.693836E-03 +2.165437E-04 -3.436311E-05 +2.165437E-04 -2.568223E-05 -2.683116E-05 -3.436311E-05 -2.683116E-05 +3.974451E-04 
 +4.647173E-03 +1.745419E-04 -7.368776E-06 +1.745419E-04 +2.411659E-05 -3.050419E-05 -7.368776E-06 -3.050419E-05 +3.822041E-04 
 +4.714825E-03 +7.336279E-05 -6.954512E-05 +7.336279E-05 -1.720301E-05 +9.869438E-05 -6.954512E-05 +9.869438E-05 +3.455120E-04 
 +4.890397E-03 -4.028838E-06 +1.371127E-05 -4.028838E-06 -1.865295E-04 +1.785304E-04 +1.371127E-05 +1.785304E-04 +2.797154E-04 
 +4.923573E-03 +4.473652E-05 +7.637265E-05 +4.473652E-05 -2.396395E-04 +1.453703E-04 +7.637265E-05 +1.453703E-04 +1.301880E-04 
 +5.073499E-03 +6.167171E-05 +4.764390E-05 +6.167171E-05 -1.329825E-04 +3.600418E-05 +4.764390E-05 +3.600418E-05 -2.935193E-05 
 +5.037468E-03 +6.947012E-05 +2.802298E-05 +6.947012E-05 -2.473656E-05 +2.884204E-05 +2.802298E-05 +2.884204E-05 -4.658247E-05 
 +4.967587E-03 +1.190776E-04 +1.009120E-05 +1.190776E-04 +1.078019E-05 +6.234669E-05 +1.009120E-05 +6.234669E-05 +3.822548E-06 
 +5.019638E-03 +8.040243E-05 -6.688966E-06 +8.040243E-05 +5.082874E-05 -1.329269E-05 -6.688966E-06 -1.329269E-05 -7.904243E-05 
 +5.097753E-03 +5.269197E-05 -2.945920E-05 +5.269197E-05 +3.355256E-05 -7.178855E-05 -2.945920E-05 -7.178855E-05 -1.818956E-04 
 +5.165593E-03 +1.062149E-04 -3.015306E-05 +1.062149E-04 -4.905119E-05 +4.679567E-07 -3.015306E-05 +4.679567E-07 -1.614919E-04 
 +5.165775E-03 +5.073723E-05 -8.226504E-06 +5.073723E-05 -1.487141E-04 +1.424685E-04 -8.226504E-06 +1.424685E-04 -8.846742E-05 
 +5.146003E-03 -2.825864E-05 +3.737751E-05 -2.825864E-05 -1.416618E-04 +2.540895E-04 +3.737751E-05 +2.540895E-04 -4.453709E-05 
 +5.141104E-03 -3.726347E-05 +8.571898E-05 -3.726347E-05 -9.501267E-05 +2.654501E-04 +8.571898E-05 +2.654501E-04 -1.153913E-05 
 +5.133019E-03 -4.164720E-05 +6.725437E-05 -4.164720E-05 -1.069641E-04 +2.284637E-04 +6.725437E-05 +2.284637E-04 +6.878941E-05 
 +5.097034E-03 -6.373296E-05 +3.145112E-05 -6.373296E-05 -1.232428E-04 +2.034014E-04 +3.145112E-05 +2.034014E-04 +1.382779E-04 
 +5.134117E-03 -5.879322E-05 -8.359675E-05 -5.879322E-05 -2.301564E-04 +2.354930E-04 -8.359675E-05 +2.354930E-04 +1.616167E-04 
 +5.195314E-03 -8.308066E-05 -9.369610E-05 -8.308066E-05 -3.357879E-04 +2.983924E-04 -9.369610E-05 +2.983924E-04 +1.215581E-04 
 +5.043664E-03 -8.277554E-05 -1.564499E-05 -8.277554E-05 -2.106398E-04 +2.760798E-04 -1.564499E-05 +2.760798E-04 +1.256784E-04 
 +4.700158E-03 +9.781995E-05 -2.417111E-06 +9.781995E-05 -8.501101E-05 +1.411779E-04 -2.417111E-06 +1.411779E-04 +2.221130E-04 
 +4.689035E-03 +1.976322E-04 -1.151589E-04 +1.976322E-04 -4.903123E-05 +3.248207E-05 -1.151589E-04 +3.248207E-05 +3.122256E-04 
 +4.696332E-03 +1.918186E-04 -1.194587E-04 +1.918186E-04 -1.381189E-05 +1.215199E-05 -1.194587E-04 +1.215199E-05 +3.536534E-04 
 +4.706256E-03 +2.127945E-04 -8.369718E-05 +2.127945E-04 +4.267900E-05 +3.011694E-05 -8.369718E-05 +3.011694E-05 +3.552177E-04 
 +4.800718E-03 -1.863326E-04 -1.141499E-04 -1.863326E-04 +5.943026E-06 +1.328083E-04 -1.141499E-04 +1.328083E-04 +2.744516E-04 
 +4.816164E-03 -1.599139E-04 +1.081314E-05 -1.599139E-04 +6.754115E-05 +2.149275E-04 +1.081314E-05 +2.149275E-04 +2.000436E-04 
 +4.833144E-03 -4.148664E-05 +5.255447E-05 -4.148664E-05 +9.022596E-05 +1.740571E-04 +5.255447E-05 +1.740571E-04 +1.020656E-04 
 +5.046345E-03 +8.829648E-05 +8.900526E-05 +8.829648E-05 -3.066217E-05 +4.956353E-05 +8.900526E-05 +4.956353E-05 -3.515112E-05 
 +5.054748E-03 +9.096086E-05 +8.498528E-05 +9.096086E-05 -1.399114E-05 +2.075801E-05 +8.498528E-05 +2.075801E-05 -4.164871E-05 
 +4.974999E-03 +1.426782E-04 +3.781131E-05 +1.426782E-04 +2.708814E-05 +1.285970E-04 +3.781131E-05 +1.285970E-04 +6.208619E-05 
 +4.989223E-03 +1.795665E-04 +1.757483E-05 +1.795665E-04 +3.660813E-05 +1.273687E-04 +1.757483E-05 +1.273687E-04 +3.387094E-05 
 +5.067612E-03 +9.681374E-05 -1.446562E-05 +9.681374E-05 -8.441279E-06 +3.192984E-05 -1.446562E-05 +3.192984E-05 -9.112337E-05 
 +5.148324E-03 +4.429975E-05 -7.887097E-07 +4.429975E-05 -2.197281E-04 +7.508770E-05 -7.887097E-07 +7.508770E-05 -1.547022E-04 
 +5.211538E-03 +2.911153E-05 +9.226205E-06 +2.911153E-05 -3.097782E-04 +2.256221E-04 +9.226205E-06 +2.256221E-04 -8.957804E-05 
 +5.167555E-03 -5.506227E-06 +5.580425E-06 -5.506227E-06 -2.490391E-04 +2.902344E-04 +5.580425E-06 +2.902344E-04 -6.212686E-05 
 +5.153462E-03 -2.531967E-05 +5.564731E-05 -2.531967E-05 -1.499872E-04 +2.803958E-04 +5.564731E-05 +2.803958E-04 -9.009782E-05 
 +5.117105E-03 -4.494134E-05 +3.694814E-05 -4.494134E-05 -4.810718E-05 +2.843508E-04 +3.694814E-05 +2.843508E-04 -1.722387E-05 
 +5.065511E-03 -4.718901E-05 +2.467946E-05 -4.718901E-05 -5.303438E-05 +2.485667E-04 +2.467946E-05 +2.485667E-04 +5.636783E-05 
 +5.091560E-03 -8.713431E-05 +5.167657E-05 -8.713431E-05 -1.958034E-04 +1.955732E-04 +5.167657E-05 +1.955732E-04 +9.214057E-06 
 +5.183139E-03 -1.048856E-04 +6.314670E-06 -1.048856E-04 -3.364149E-04 +2.603711E-04 +6.314670E-06 +2.603711E-04 -6.916782E-05 
 +5.069207E-03 -9.391003E-05 -1.008520E-04 -9.391003E-05 -2.238903E-04 +2.002407E-04 -1.008520E-04 +2.002407E-04 -7.163566E-05 
 +4.805639E-03 -7.687649E-05 -7.441582E-05 -7.687649E-05 -6.690833E-05 -5.807036E-05 -7.441582E-05 -5.807036E-05 +9.318700E-06 
 +4.671009E-03 +9.195168E-05 -1.737216E-04 +9.195168E-05 -4.698536E-05 -1.585839E-04 -1.737216E-04 -1.585839E-04 +1.876055E-04 
 +4.696178E-03 +9.662212E-05 -1.992496E-04 +9.662212E-05 -4.271194E-05 -1.281167E-04 -1.992496E-04 -1.281167E-04 +2.831358E-04 
 +4.775009E-03 +1.338662E-04 -1.371146E-04 +1.338662E-04 -7.853951E-06 -3.581758E-05 -1.371146E-04 -3.581758E-05 +2.882539E-04 
 +4.843338E-03 -1.899636E-04 -1.175215E-04 -1.899636E-04 +2.566559E-05 +8.133288E-05 -1.175215E-04 +8.133288E-05 +1.878339E-04 
 +4.864533E-03 -8.434191E-05 -7.041406E-06 -8.434191E-05 +3.140983E-05 +1.384198E-04 -7.041406E-06 +1.384198E-04 +1.255372E-04 
 +4.885434E-03 -2.920754E-05 +3.649046E-05 -2.920754E-05 +3.290170E-05 +1.675832E-04 +3.649046E-05 +1.675832E-04 +9.201083E-05 
 +4.975093E-03 +6.760312E-05 +6.287625E-05 +6.760312E-05 -2.964466E-05 +1.520446E-04 +6.287625E-05 +1.520446E-04 +4.218344E-05 
 +5.066641E-03 +1.667978E-04 +6.451003E-05 +1.667978E-04 -7.555441E-05 +1.255074E-04 +6.451003E-05 +1.255074E-04 +1.875202E-05 
 +5.039912E-03 +1.866829E-04 +6.436787E-05 +1.866829E-04 +2.320754E-05 +1.445027E-04 +6.436787E-05 +1.445027E-04 +8.447054E-05 
 +5.006411E-03 +1.846347E-04 +7.450820E-05 +1.846347E-04 +3.710538E-05 +7.878470E-05 +7.450820E-05 +7.878470E-05 +1.440731E-04 
 +4.998940E-03 +2.160888E-05 +5.953266E-05 +2.160888E-05 -9.408828E-05 -2.676993E-05 +5.953266E-05 -2.676993E-05 +1.128308E-04 
 +5.068004E-03 -9.209536E-05 +1.044283E-04 -9.209536E-05 -3.400507E-04 -2.196611E-05 +1.044283E-04 -2.196611E-05 +2.175631E-05 
 +5.173308E-03 -1.529692E-05 -4.914050E-05 -1.529692E-05 -6.326243E-04 -4.264462E-05 -4.914050E-05 -4.264462E-05 +2.005498E-05 
 +5.210449E-03 +5.929672E-05 -4.164731E-05 +5.929672E-05 -5.520481E-04 +3.496608E-05 -4.164731E-05 +3.496608E-05 +1.252921E-05 
 +5.154460E-03 +2.361380E-05 -6.186245E-05 +2.361380E-05 -2.811722E-04 +2.445963E-04 -6.186245E-05 +2.445963E-04 -9.504569E-05 
 +5.142343E-03 -3.673602E-05 -6.465649E-06 -3.673602E-05 -1.624743E-04 +2.942453E-04 -6.465649E-06 +2.942453E-04 -1.563638E-04 
 +5.141907E-03 -6.090402E-05 +7.843813E-06 -6.090402E-05 -1.208572E-04 +2.286733E-04 +7.843813E-06 +2.286733E-04 -1.546614E-04 
 +5.135118E-03 -8.349333E-05 +7.248704E-05 -8.349333E-05 -1.152734E-04 +8.463911E-05 +7.248704E-05 +8.463911E-05 -1.724186E-04 
 +5.018334E-03 +2.682953E-05 +1.339273E-05 +2.682953E-05 -2.868792E-05 -1.596711E-04 +1.339273E-05 -1.596711E-04 -1.361701E-04 
 +4.939867E-03 +7.953687E-05 -1.787193E-04 +7.953687E-05 +6.894322E-05 -2.944972E-04 -1.787193E-04 -2.944972E-04 -1.079674E-04 
 +4.889315E-03 -4.554257E-05 -8.310979E-05 -4.554257E-05 +5.487864E-05 -1.991301E-04 -8.310979E-05 -1.991301E-04 -7.430033E-05 
 +4.650320E-03 +8.001930E-05 -1.309036E-04 +8.001930E-05 +4.584758E-05 -1.059757E-04 -1.309036E-04 -1.059757E-04 +1.046338E-04 
 +4.725999E-03 +4.236189E-05 -2.145505E-04 +4.236189E-05 +5.383901E-05 -9.616409E-05 -2.145505E-04 -9.616409E-05 +1.823195E-04 
 +4.808524E-03 +1.327359E-04 -1.426456E-04 +1.327359E-04 +3.248048E-05 -3.154988E-05 -1.426456E-04 -3.154988E-05 +1.764241E-04 
 +4.939254E-03 -2.012632E-04 -1.234189E-04 -2.012632E-04 -5.542745E-05 +3.907163E-05 -1.234189E-04 +3.907163E-05 +1.032634E-04 
 +4.922357E-03 -7.737910E-05 -5.134444E-05 -7.737910E-05 -4.084947E-05 +8.693449E-05 -5.134444E-05 +8.693449E-05 +9.195314E-05 
 +4.917988E-03 -4.407929E-05 -9.580473E-06 -4.407929E-05 -6.596322E-06 +1.380766E-04 -9.580473E-06 +1.380766E-04 +9.239648E-05 
 +4.925560E-03 +3.371012E-05 +2.400535E-06 +3.371012E-05 +3.342022E-05 +1.422301E-04 +2.400535E-06 +1.422301E-04 +8.346831E-05 
 +5.017621E-03 +1.440959E-04 -1.095595E-05 +1.440959E-04 +5.129394E-05 +9.332310E-05 -1.095595E-05 +9.332310E-05 +8.440225E-05 
 +5.096279E-03 +1.819453E-04 +3.238732E-05 +1.819453E-04 +5.183520E-05 +4.399837E-05 +3.238732E-05 +4.399837E-05 +1.106733E-04 
 +5.033977E-03 +6.024431E-05 +8.490430E-05 +6.024431E-05 -2.363757E-05 -4.354102E-05 +8.490430E-05 -4.354102E-05 +1.049872E-04 
 +5.041757E-03 -1.865140E-06 +1.181621E-04 -1.865140E-06 -1.540011E-04 -6.860938E-05 +1.181621E-04 -6.860938E-05 +7.006148E-05 
 +5.031554E-03 -7.729504E-05 +1.153728E-04 -7.729504E-05 -1.703920E-04 -7.677272E-05 +1.153728E-04 -7.677272E-05 +4.260604E-05 
 +5.000638E-03 -8.726369E-05 -1.053751E-04 -8.726369E-05 -3.149354E-04 -7.998359E-05 -1.053751E-04 -7.998359E-05 +2.281508E-05 
 +5.154826E-03 +9.620084E-05 -1.039402E-04 +9.620084E-05 -5.864180E-04 -1.018501E-04 -1.039402E-04 -1.018501E-04 +3.282990E-05 
 +5.181129E-03 +9.098346E-05 -1.083710E-04 +9.098346E-05 -5.055977E-04 +1.047568E-06 -1.083710E-04 +1.047568E-06 -6.947078E-06 
 +5.212788E-03 -3.842406E-05 -8.720928E-05 -3.842406E-05 -3.116304E-04 +2.532247E-04 -8.720928E-05 +2.532247E-04 -1.659834E-04 
 +5.265247E-03 -5.215833E-05 -2.837166E-05 -5.215833E-05 -2.623034E-04 +2.736013E-04 -2.837166E-05 +2.736013E-04 -2.420823E-04 
 +5.208295E-03 -6.289406E-05 +3.217085E-05 -6.289406E-05 -1.363560E-04 +8.486135E-05 +3.217085E-05 +8.486135E-05 -1.757820E-04 
 +4.923420E-03 +9.302069E-05 -8.254051E-05 +9.302069E-05 +5.501837E-05 -1.142659E-04 -8.254051E-05 -1.142659E-04 -8.184085E-05 
 +4.807838E-03 +8.763356E-05 -1.810508E-04 +8.763356E-05 +1.190517E-04 -2.203110E-04 -1.810508E-04 -2.203110E-04 -6.021013E-05 
 +4.835328E-03 -2.281053E-05 -3.123419E-05 -2.281053E-05 +1.474734E-04 -1.483654E-04 -3.123419E-05 -1.483654E-04 -2.564309E-05 
 +4.603444E-03 +6.882068E-05 -5.416815E-05 +6.882068E-05 +1.976752E-04 -4.479337E-05 -5.416815E-05 -4.479337E-05 +8.006402E-05 
 +4.732022E-03 -6.071621E-06 -1.666778E-04 -6.071621E-06 +1.297974E-04 -3.694247E-05 -1.666778E-04 -3.694247E-05 +8.568851E-05 
 +4.886967E-03 +5.788755E-05 -1.389871E-04 +5.788755E-05 +1.313731E-05 -2.699649E-05 -1.389871E-04 -2.699649E-05 +6.287507E-05 
 +4.950715E-03 -1.568655E-04 -9.420906E-05 -1.568655E-04 -1.427343E-04 +3.099592E-05 -9.420906E-05 +3.099592E-05 +1.095159E-04 
 +4.912018E-03 -8.461932E-05 -1.290966E-04 -8.461932E-05 -8.193295E-05 +7.283665E-05 -1.290966E-04 +7.283665E-05 +1.190753E-04 
 +4.913368E-03 -9.808951E-05 -1.167749E-04 -9.808951E-05 -2.213182E-06 +1.177120E-04 -1.167749E-04 +1.177120E-04 +5.465752E-05 
 +4.940578E-03 +1.443607E-05 -4.462469E-05 +1.443607E-05 +1.021416E-04 +1.585562E-04 -4.462469E-05 +1.585562E-04 +5.458221E-05 
 +4.954582E-03 +1.130167E-04 -8.611067E-05 +1.130167E-04 +1.863980E-04 +7.670645E-05 -8.611067E-05 +7.670645E-05 +1.068134E-04 
 +5.111890E-03 +9.095885E-05 +2.258852E-05 +9.095885E-05 +7.978350E-05 -5.685894E-05 +2.258852E-05 -5.685894E-05 +8.644137E-05 
 +5.114586E-03 -3.883928E-05 +1.207675E-04 -3.883928E-05 -8.681251E-05 -6.809931E-05 +1.207675E-04 -6.809931E-05 +8.468967E-06 
 +5.134461E-03 -7.280145E-05 +1.706407E-04 -7.280145E-05 -1.111807E-04 +2.025852E-05 +1.706407E-04 +2.025852E-05 +2.161961E-05 
 +5.015133E-03 -1.448365E-04 +4.674003E-05 -1.448365E-04 -8.013209E-05 +8.761730E-05 +4.674003E-05 +8.761730E-05 +8.775086E-05 
 +4.869815E-03 -1.716160E-04 -7.645930E-05 -1.716160E-04 -1.858621E-06 +1.067059E-04 -7.645930E-05 +1.067059E-04 +1.009903E-04 
 +4.956382E-03 -4.271762E-05 -1.134413E-04 -4.271762E-05 -1.023964E-04 +7.861197E-05 -1.134413E-04 +7.861197E-05 +8.397396E-05 
 +5.231168E-03 +1.030319E-04 -1.213044E-04 +1.030319E-04 -4.059106E-04 +7.883042E-05 -1.213044E-04 +7.883042E-05 +1.380024E-05 
 +5.298180E-03 -1.871752E-05 -1.212561E-04 -1.871752E-05 -4.623075E-04 +2.129184E-04 -1.212561E-04 +2.129184E-04 -1.972480E-04 
 +5.321418E-03 -9.671679E-05 -7.812671E-05 -9.671679E-05 -3.688629E-04 +2.437247E-04 -7.812671E-05 +2.437247E-04 -3.208168E-04 
 +5.241870E-03 -5.282772E-05 -6.211013E-05 -5.282772E-05 -2.082565E-04 +2.996105E-05 -6.211013E-05 +2.996105E-05 -1.962348E-04 
 +4.989590E-03 +1.298189E-04 -1.405813E-04 +1.298189E-04 +3.353914E-06 -1.666959E-04 -1.405813E-04 -1.666959E-04 -8.473874E-05 
 +4.814580E-03 +1.506833E-04 -1.117760E-04 +1.506833E-04 +1.182127E-04 -1.486246E-04 -1.117760E-04 -1.486246E-04 +3.089742E-05 
 +4.609332E-03 +1.019657E-04 -4.186909E-06 +1.019657E-04 +2.384037E-04 -6.136131E-06 -4.186909E-06 -6.136131E-06 +1.675759E-04 
 +4.593597E-03 +5.707558E-05 -3.518668E-05 +5.707558E-05 +2.899514E-04 +4.037794E-05 -3.518668E-05 +4.037794E-05 +1.238482E-04 
 +4.817099E-03 -6.848873E-06 -9.771113E-05 -6.848873E-06 +1.860526E-04 +1.438694E-05 -9.771113E-05 +1.438694E-05 -1.201377E-05 
 +4.947866E-03 +8.134110E-05 -3.443716E-05 +8.134110E-05 -2.550382E-05 -7.370669E-07 -3.443716E-05 -7.370669E-07 -1.773214E-05 
 +4.840963E-03 -2.013850E-04 +6.650018E-06 -2.013850E-04 -1.131064E-04 +1.193985E-04 +6.650018E-06 +1.193985E-04 +1.189878E-04 
 +4.841371E-03 -1.159148E-04 -1.481363E-04 -1.159148E-04 -4.777530E-05 +1.287197E-04 -1.481363E-04 +1.287197E-04 +1.349207E-04 
 +4.865916E-03 -1.721568E-04 -2.601451E-04 -1.721568E-04 -1.116589E-05 +1.480673E-04 -2.601451E-04 +1.480673E-04 +3.835104E-05 
 +4.983542E-03 -1.361118E-05 -1.207405E-04 -1.361118E-05 +7.076314E-05 +9.859304E-05 -1.207405E-04 +9.859304E-05 +4.515903E-07 
 +5.030320E-03 +5.021818E-05 -1.043062E-04 +5.021818E-05 +1.314682E-04 +5.419619E-05 -1.043062E-04 +5.419619E-05 +3.259025E-05 
 +5.140243E-03 +2.433276E-05 +4.365732E-05 +2.433276E-05 +5.236537E-05 -1.471035E-05 +4.365732E-05 -1.471035E-05 +1.209967E-07 
 +5.167091E-03 -5.958760E-05 +1.254909E-04 -5.958760E-05 -1.879926E-05 -4.649435E-05 +1.254909E-04 -4.649435E-05 -7.724061E-05 
 +5.131826E-03 -1.149163E-04 +1.433453E-04 -1.149163E-04 -9.165923E-05 -5.981417E-05 +1.433453E-04 -5.981417E-05 -8.615481E-05 
 +5.055530E-03 -1.341135E-04 +9.947743E-05 -1.341135E-04 -1.012645E-04 -1.445832E-05 +9.947743E-05 -1.445832E-05 +1.860885E-05 
 +4.885264E-03 -1.034791E-04 -4.810001E-05 -1.034791E-04 -4.802881E-05 +3.578803E-05 -4.810001E-05 +3.578803E-05 +5.634302E-05 
 +4.934059E-03 +9.296488E-06 +2.856926E-05 +9.296488E-06 -9.589376E-05 +6.961608E-05 +2.856926E-05 +6.961608E-05 -2.914606E-05 
 +5.127280E-03 +1.736288E-04 -1.159079E-04 +1.736288E-04 -2.368629E-04 +2.096262E-04 -1.159079E-04 +2.096262E-04 -1.193488E-04 
 +5.213914E-03 +4.376983E-05 -1.739183E-04 +4.376983E-05 -3.455544E-04 +2.430351E-04 -1.739183E-04 +2.430351E-04 -2.429438E-04 
 +5.265310E-03 -1.214557E-04 -9.473602E-05 -1.214557E-04 -3.076012E-04 +2.164462E-04 -9.473602E-05 +2.164462E-04 -3.187421E-04 
 +5.202058E-03 -9.012410E-05 -1.381466E-04 -9.012410E-05 -2.318014E-04 +2.498701E-04 -1.381466E-04 +2.498701E-04 -2.368190E-04 
 +5.108277E-03 -2.523241E-05 -1.752943E-04 -2.523241E-05 -2.149333E-04 +3.322404E-04 -1.752943E-04 +3.322404E-04 -1.272511E-04 
 +4.927691E-03 +6.890118E-05 -1.264151E-04 +6.890118E-05 +1.747958E-06 +3.180212E-04 -1.264151E-04 +3.180212E-04 +6.115766E-05 
 +4.581803E-03 +1.325063E-04 +1.015729E-05 +1.325063E-04 +3.268828E-04 +1.619439E-04 +1.015729E-05 +1.619439E-04 +2.650732E-04 
 +4.592781E-03 +6.639561E-05 +4.102607E-06 +6.639561E-05 +2.878374E-04 +1.636844E-04 +4.102607E-06 +1.636844E-04 +1.737430E-04 
 +4.902104E-03 -6.665451E-05 -4.688060E-05 -6.665451E-05 +2.956537E-05 +3.190997E-04 -4.688060E-05 +3.190997E-04 -3.766175E-06 
 +4.940878E-03 -4.796617E-05 +3.816236E-05 -4.796617E-05 -1.123879E-04 +2.681204E-04 +3.816236E-05 +2.681204E-04 +1.094188E-05 
 +4.980374E-03 -5.760023E-05 -6.625705E-06 -5.760023E-05 -7.952552E-05 +2.395369E-04 -6.625705E-06 +2.395369E-04 -1.006896E-04 
 +4.929453E-03 +1.146065E-04 -1.728613E-04 +1.146065E-04 +9.436017E-06 +5.464420E-05 -1.728613E-04 +5.464420E-05 -8.903016E-05 
 +4.897853E-03 +1.270328E-04 -1.393123E-04 +1.270328E-04 +1.207350E-04 -1.391479E-05 -1.393123E-04 -1.391479E-05 -5.205805E-05 
 +5.000381E-03 +1.960750E-04 -1.651601E-05 +1.960750E-04 +8.942759E-05 +4.263031E-05 -1.651601E-05 +4.263031E-05 -9.005747E-05 
 +5.153637E-03 +4.804626E-05 +1.230597E-04 +4.804626E-05 -1.934764E-04 +6.950215E-05 +1.230597E-04 +6.950215E-05 -4.594650E-05 
 +5.098209E-03 +4.706868E-05 +1.453450E-04 +4.706868E-05 -3.105025E-04 +8.089891E-05 +1.453450E-04 +8.089891E-05 +5.247380E-05 
 +5.077564E-03 +1.287518E-04 +1.092824E-04 +1.287518E-04 -2.882431E-04 +1.256962E-04 +1.092824E-04 +1.256962E-04 +7.491243E-05 
 +5.077547E-03 +6.093121E-06 +1.197245E-04 +6.093121E-06 -1.767501E-04 +1.479727E-04 +1.197245E-04 +1.479727E-04 +6.369974E-05 
 +5.043167E-03 -9.642011E-05 +1.729562E-04 -9.642011E-05 -1.084992E-04 +4.408562E-06 +1.729562E-04 +4.408562E-06 -1.713658E-05 
 +5.030026E-03 -5.070325E-05 +5.752964E-05 -5.070325E-05 -1.250370E-04 -4.935937E-05 +5.752964E-05 -4.935937E-05 -1.972467E-05 
 +4.951882E-03 +4.072149E-05 +9.210030E-06 +4.072149E-05 -3.295529E-05 +4.971722E-06 +9.210030E-06 +4.971722E-06 +1.629067E-05 
 +4.892326E-03 +6.745556E-05 -1.119042E-05 +6.745556E-05 +7.166656E-05 -8.234518E-05 -1.119042E-05 -8.234518E-05 -7.562530E-05 
 +4.977838E-03 +4.787292E-05 -9.009540E-05 +4.787292E-05 +1.221965E-04 -1.696185E-04 -9.009540E-05 -1.696185E-04 -1.978222E-04 
 +5.140257E-03 +7.979359E-05 -3.324195E-05 +7.979359E-05 +1.386682E-04 -1.644381E-04 -3.324195E-05 -1.644381E-04 -3.868267E-04 
 +5.096257E-03 +1.947067E-06 -1.269975E-04 +1.947067E-06 +1.704092E-04 -1.220874E-04 -1.269975E-04 -1.220874E-04 -4.588976E-04 
 +5.088101E-03 +3.988960E-06 -1.462533E-04 +3.988960E-06 +1.745770E-04 -4.100623E-05 -1.462533E-04 -4.100623E-05 -2.762210E-04 
 +4.941927E-03 +7.092859E-05 -1.598641E-04 +7.092859E-05 +6.799326E-05 +6.422096E-05 -1.598641E-04 +6.422096E-05 -1.101751E-05 
 +4.789846E-03 +7.006197E-06 +5.586712E-05 +7.006197E-06 -3.403116E-05 +1.767051E-04 +5.586712E-05 +1.767051E-04 +1.761047E-04 
 +4.730247E-03 +6.831957E-06 +5.114011E-05 +6.831957E-06 -2.789162E-05 +2.937417E-04 +5.114011E-05 +2.937417E-04 +1.396294E-04 
 +4.868372E-03 -4.103763E-05 -2.394735E-05 -4.103763E-05 -1.549319E-05 +3.127713E-04 -2.394735E-05 +3.127713E-04 +1.957676E-05 
 +4.972956E-03 -1.061878E-04 +3.289257E-05 -1.061878E-04 -9.180937E-05 +2.962164E-04 +3.289257E-05 +2.962164E-04 -3.734121E-05 
 +4.972998E-03 -2.643606E-05 -1.632592E-04 -2.643606E-05 -1.046418E-05 -1.615045E-05 -1.632592E-04 -1.615045E-05 -1.487372E-04 
 +4.968488E-03 +1.748140E-05 -2.009738E-04 +1.748140E-05 -2.945465E-06 +2.346615E-05 -2.009738E-04 +2.346615E-05 -1.479256E-04 
 +4.961483E-03 +7.258115E-05 -6.613947E-05 +7.258115E-05 +1.703330E-06 +8.746119E-05 -6.613947E-05 +8.746119E-05 -1.469856E-04 
 +4.970386E-03 +1.943032E-05 +1.622921E-05 +1.943032E-05 -6.624485E-05 +6.468920E-05 +1.622921E-05 +6.468920E-05 -1.638632E-04 
 +5.082239E-03 -1.065424E-05 +9.041496E-05 -1.065424E-05 -2.077770E-04 +6.934877E-05 +9.041496E-05 +6.934877E-05 -6.790700E-05 
 +5.085740E-03 +4.908191E-05 +5.883297E-05 +4.908191E-05 -2.400126E-04 +4.805699E-05 +5.883297E-05 +4.805699E-05 -1.368273E-05 
 +5.067202E-03 +5.552059E-05 +3.809437E-05 +5.552059E-05 -2.790925E-04 +5.651699E-05 +3.809437E-05 +5.651699E-05 +1.645810E-05 
 +5.096745E-03 +4.988008E-05 +4.891784E-05 +4.988008E-05 -2.497455E-04 +1.009438E-04 +4.891784E-05 +1.009438E-04 -2.504454E-05 
 +5.070537E-03 -1.196503E-04 +9.518376E-05 -1.196503E-04 -8.702930E-05 +1.200346E-04 +9.518376E-05 +1.200346E-04 -1.454524E-04 
 +5.088063E-03 -1.231493E-04 +9.817202E-05 -1.231493E-04 -1.054658E-05 +6.710105E-05 +9.817202E-05 +6.710105E-05 -1.103270E-04 
 +4.905117E-03 -3.341817E-05 -4.845444E-05 -3.341817E-05 +2.237213E-05 +1.389386E-05 -4.845444E-05 +1.389386E-05 -1.070767E-05 
 +4.798660E-03 -2.908605E-05 -8.430218E-05 -2.908605E-05 +1.007188E-04 -5.950574E-05 -8.430218E-05 -5.950574E-05 +6.533442E-06 
 +4.831970E-03 -1.614871E-05 -1.462260E-04 -1.614871E-05 +1.649217E-04 -9.495163E-05 -1.462260E-04 -9.495163E-05 -9.488302E-05 
 +5.109977E-03 +6.171964E-05 -4.830041E-05 +6.171964E-05 +1.962212E-04 -1.928556E-05 -4.830041E-05 -1.928556E-05 -3.981294E-04 
 +5.069047E-03 +2.297205E-05 -7.928437E-05 +2.297205E-05 +2.105936E-04 +3.205560E-05 -7.928437E-05 +3.205560E-05 -5.082230E-04 
 +5.004123E-03 +7.554120E-05 -7.680458E-05 +7.554120E-05 +2.016073E-04 +4.981450E-05 -7.680458E-05 +4.981450E-05 -3.001100E-04 
 +5.001955E-03 +1.220239E-04 -8.266204E-05 +1.220239E-04 +9.193263E-05 +7.774384E-05 -8.266204E-05 +7.774384E-05 -1.436752E-04 
 +4.946505E-03 +8.509341E-05 +9.152576E-05 +8.509341E-05 +1.654159E-05 +8.013359E-07 +9.152576E-05 +8.013359E-07 -4.457347E-05 
 +4.848863E-03 +1.494782E-05 +9.895600E-05 +1.494782E-05 +4.086550E-05 -3.017755E-05 +9.895600E-05 -3.017755E-05 -3.764598E-05 
 +4.890903E-03 -5.552529E-05 +1.477815E-05 -5.552529E-05 +3.564841E-05 +1.486575E-04 +1.477815E-05 +1.486575E-04 -1.215265E-04 
 +4.967252E-03 -1.327466E-04 +5.219681E-06 -1.327466E-04 -1.743991E-05 +1.555343E-04 +5.219681E-06 +1.555343E-04 -1.141807E-04 
 +4.931307E-03 -7.081245E-05 -1.295066E-04 -7.081245E-05 -2.218646E-05 -1.408094E-04 -1.295066E-04 -1.408094E-04 -1.717494E-04 
 +4.942214E-03 -2.858611E-05 -8.392141E-05 -2.858611E-05 -9.208208E-05 -7.665939E-05 -8.392141E-05 -7.665939E-05 -1.406903E-04 
 +5.018692E-03 +1.442815E-05 +1.040310E-05 +1.442815E-05 -2.060854E-04 +1.472143E-06 +1.040310E-05 +1.472143E-06 -9.250560E-05 
 +5.045165E-03 -8.833633E-05 +9.223139E-05 -8.833633E-05 -3.413946E-04 +5.134049E-05 +9.223139E-05 +5.134049E-05 -5.038610E-05 
 +5.026567E-03 -6.141124E-05 +8.948563E-05 -6.141124E-05 -2.905105E-04 +4.940840E-05 +8.948563E-05 +4.940840E-05 -1.556187E-05 
 +5.038617E-03 +8.946120E-06 +2.679251E-05 +8.946120E-06 -2.331501E-04 +6.429778E-05 +2.679251E-05 +6.429778E-05 -3.655142E-05 
 +5.027569E-03 +2.203676E-05 -9.517616E-06 +2.203676E-05 -2.129917E-04 +6.648804E-05 -9.517616E-06 +6.648804E-05 +2.889963E-06 
 +5.052159E-03 -3.688686E-06 +8.123197E-06 -3.688686E-06 -2.051877E-04 +5.726384E-05 +8.123197E-06 +5.726384E-05 +8.245527E-06 
 +5.091130E-03 -1.585351E-04 +7.751813E-05 -1.585351E-04 -1.680179E-04 +4.812554E-05 +7.751813E-05 +4.812554E-05 -1.467718E-04 
 +5.057919E-03 -2.082011E-04 +6.708301E-05 -2.082011E-04 -3.469743E-06 +2.772776E-05 +6.708301E-05 +2.772776E-05 -1.997041E-04 
 +4.897118E-03 -1.202102E-04 -3.796403E-05 -1.202102E-04 +8.636177E-05 +2.744236E-05 -3.796403E-05 +2.744236E-05 -1.199446E-04 
 +4.768360E-03 -3.891822E-05 -9.508020E-05 -3.891822E-05 +1.224327E-04 +7.696726E-06 -9.508020E-05 +7.696726E-06 -2.542644E-05 
 +4.860739E-03 +3.565022E-05 -1.221151E-04 +3.565022E-05 +1.981536E-04 +1.944823E-05 -1.221151E-04 +1.944823E-05 -5.212695E-05 
 +5.080859E-03 +1.009907E-04 -4.749524E-05 +1.009907E-04 +2.151169E-04 +9.400115E-05 -4.749524E-05 +9.400115E-05 -3.200356E-04 
 +5.098640E-03 +7.882959E-05 -4.199537E-05 +7.882959E-05 +1.951629E-04 +1.136555E-04 -4.199537E-05 +1.136555E-04 -4.328172E-04 
 +5.036489E-03 +1.062551E-04 -3.251073E-05 +1.062551E-04 +1.804796E-04 +9.562444E-05 -3.251073E-05 +9.562444E-05 -3.135522E-04 
 +5.034331E-03 +1.176755E-04 -7.129261E-05 +1.176755E-04 +1.558207E-04 +1.355989E-04 -7.129261E-05 +1.355989E-04 -3.252254E-04 
 +5.021153E-03 +1.522805E-04 -1.787103E-05 +1.522805E-04 +1.649745E-04 +1.379085E-04 -1.787103E-05 +1.379085E-04 -3.480445E-04 
 +4.865738E-03 +5.153051E-05 +6.746237E-05 +5.153051E-05 +1.557826E-04 +8.129516E-06 +6.746237E-05 +8.129516E-06 -1.610884E-04 
 +4.891666E-03 -1.087930E-04 +7.202802E-05 -1.087930E-04 +8.056295E-05 -1.567182E-04 +7.202802E-05 -1.567182E-04 -4.164610E-05 
 +4.951865E-03 -2.132068E-04 +3.968423E-05 -2.132068E-04 +4.130002E-05 -2.130087E-04 +3.968423E-05 -2.130087E-04 -1.032839E-04 
 +4.926210E-03 -2.849342E-05 -2.902167E-06 -2.849342E-05 -1.117694E-04 -5.636835E-05 -2.902167E-06 -5.636835E-05 -5.056925E-05 
 +4.902862E-03 +1.998020E-05 -7.517421E-05 +1.998020E-05 -2.123878E-04 +3.681878E-05 -7.517421E-05 +3.681878E-05 -2.051097E-05 
 +4.941116E-03 -9.540064E-05 +8.386940E-05 -9.540064E-05 -4.294925E-04 +1.032645E-04 +8.386940E-05 +1.032645E-04 +3.753306E-05 
 +5.044128E-03 -1.069888E-04 +1.318165E-04 -1.069888E-04 -4.307354E-04 +7.553255E-05 +1.318165E-04 +7.553255E-05 +6.789749E-05 
 +5.040428E-03 -7.192838E-05 +9.432661E-05 -7.192838E-05 -3.004506E-04 +5.951721E-05 +9.432661E-05 +5.951721E-05 +8.450223E-06 
 +5.017315E-03 -1.458563E-05 +1.598799E-05 -1.458563E-05 -2.559842E-04 +7.922258E-05 +1.598799E-05 +7.922258E-05 -3.314356E-05 
 +4.992478E-03 +2.335700E-06 -4.129637E-05 +2.335700E-06 -2.398115E-04 +6.332029E-05 -4.129637E-05 +6.332029E-05 -1.907289E-05 
 +5.011127E-03 -5.680386E-08 +1.849162E-05 -5.680386E-08 -2.784224E-04 +1.005338E-04 +1.849162E-05 +1.005338E-04 +1.610694E-05 
 +5.059267E-03 -3.660632E-05 +8.472672E-05 -3.660632E-05 -1.958682E-04 +2.510821E-04 +8.472672E-05 +2.510821E-04 -5.212654E-05 
 +5.017808E-03 -1.031891E-04 +2.355711E-05 -1.031891E-04 -3.062947E-05 +3.418650E-04 +2.355711E-05 +3.418650E-04 -1.512300E-04 
 +4.933425E-03 -7.004554E-05 -1.229020E-05 -7.004554E-05 +1.163484E-04 +2.743081E-04 -1.229020E-05 +2.743081E-04 -1.737000E-04 
 +4.866523E-03 +5.550216E-05 -1.869154E-05 +5.550216E-05 +2.475714E-04 +1.344143E-04 -1.869154E-05 +1.344143E-04 -1.738035E-04 
 +4.921505E-03 +1.065438E-04 -8.466583E-06 +1.065438E-04 +2.990463E-04 +8.213059E-05 -8.466583E-06 +8.213059E-05 -2.115953E-04 
 +5.033641E-03 +1.083985E-04 +3.961530E-06 +1.083985E-04 +2.508379E-04 +1.001275E-04 +3.961530E-06 +1.001275E-04 -3.181052E-04 
 +5.088219E-03 +6.848667E-05 +1.475613E-05 +6.848667E-05 +1.832142E-04 +1.053943E-04 +1.475613E-05 +1.053943E-04 -3.609004E-04 
 +5.079771E-03 +8.886723E-05 +2.119156E-05 +8.886723E-05 +1.487532E-04 +1.314040E-04 +2.119156E-05 +1.314040E-04 -3.251476E-04 
 +5.081407E-03 +1.320068E-04 -6.171523E-06 +1.320068E-04 +1.673291E-04 +1.982067E-04 -6.171523E-06 +1.982067E-04 -3.515958E-04 
 +5.037064E-03 +1.483368E-04 -1.237041E-05 +1.483368E-04 +2.023428E-04 +2.340352E-04 -1.237041E-05 +2.340352E-04 -3.331691E-04 
 +4.888069E-03 -2.692827E-05 +1.533682E-05 -2.692827E-05 +1.679695E-04 +1.269961E-04 +1.533682E-05 +1.269961E-04 -1.086932E-04 
 +4.922563E-03 -1.132513E-04 -4.540143E-06 -1.132513E-04 +7.096555E-05 -3.225409E-05 -4.540143E-06 -3.225409E-05 +8.309282E-05 
 +4.933420E-03 -1.382108E-04 +1.087195E-04 -1.382108E-04 -3.995510E-05 -8.780957E-05 +1.087195E-04 -8.780957E-05 +1.876411E-05 
 +4.867230E-03 -8.054933E-05 -2.340160E-06 -8.054933E-05 +4.540172E-05 -2.760803E-05 -2.340160E-06 -2.760803E-05 +8.752475E-05 
 +4.877406E-03 -7.770640E-05 -5.207144E-05 -7.770640E-05 +1.661057E-05 +4.187507E-05 -5.207144E-05 +4.187507E-05 +7.005015E-05 
 +4.809232E-03 -1.960404E-04 +2.508744E-05 -1.960404E-04 -5.627238E-05 +9.688367E-05 +2.508744E-05 +9.688367E-05 +9.096780E-05 
 +4.989093E-03 -7.881732E-05 +4.535634E-05 -7.881732E-05 -2.736032E-04 +7.351208E-05 +4.535634E-05 +7.351208E-05 +7.527138E-05 
 +5.021247E-03 -7.063657E-05 +3.655801E-05 -7.063657E-05 -3.423678E-04 +5.296020E-05 +3.655801E-05 +5.296020E-05 -6.633593E-06 
 +5.001869E-03 -4.641992E-05 -1.435260E-05 -4.641992E-05 -2.615026E-04 +2.922730E-05 -1.435260E-05 +2.922730E-05 -4.739133E-05 
 +4.972139E-03 -4.520671E-05 +7.742887E-06 -4.520671E-05 -1.962859E-04 +8.787358E-05 +7.742887E-06 +8.787358E-05 -9.033663E-05 
 +5.040989E-03 -4.767500E-05 +4.778855E-05 -4.767500E-05 -9.268198E-05 +2.251896E-04 +4.778855E-05 +2.251896E-04 -1.425071E-04 
 +5.030175E-03 -3.261606E-05 +8.350818E-05 -3.261606E-05 -3.384242E-05 +2.943140E-04 +8.350818E-05 +2.943140E-04 -1.520521E-04 
 +5.008777E-03 -5.491143E-05 -1.915431E-05 -5.491143E-05 +1.933138E-05 +3.023821E-04 -1.915431E-05 +3.023821E-04 -1.073697E-04 
 +4.983173E-03 +1.981991E-05 -3.463937E-05 +1.981991E-05 +1.335623E-04 +2.414046E-04 -3.463937E-05 +2.414046E-04 -1.029957E-04 
 +4.965805E-03 +9.129656E-05 +3.339310E-05 +9.129656E-05 +2.277394E-04 +1.264641E-04 +3.339310E-05 +1.264641E-04 -2.024758E-04 
 +4.955285E-03 +8.068550E-05 +8.622229E-05 +8.068550E-05 +2.629900E-04 +8.587284E-05 +8.622229E-05 +8.587284E-05 -2.723366E-04 
 +4.983437E-03 +4.756821E-05 +8.269857E-05 +4.756821E-05 +2.449383E-04 +1.029052E-04 +8.269857E-05 +1.029052E-04 -2.875726E-04 
 +5.051021E-03 +2.697231E-05 +9.124499E-05 +2.697231E-05 +1.686013E-04 +1.100457E-04 +9.124499E-05 +1.100457E-04 -3.195753E-04 
 +5.089335E-03 +6.196807E-05 +1.170965E-04 +6.196807E-05 +1.291527E-04 +1.110588E-04 +1.170965E-04 +1.110588E-04 -3.734870E-04 
 +5.088321E-03 +9.564656E-05 +1.145003E-04 +9.564656E-05 +1.876628E-04 +1.633946E-04 +1.145003E-04 +1.633946E-04 -4.043278E-04 
 +5.076198E-03 +4.337964E-05 +1.450568E-05 +4.337964E-05 +1.411469E-04 +1.960021E-04 +1.450568E-05 +1.960021E-04 -2.985202E-04 
 +5.052713E-03 -2.553774E-05 -5.535873E-05 -2.553774E-05 -6.896681E-06 +5.445047E-05 -5.535873E-05 +5.445047E-05 -1.544118E-04 
 +5.026405E-03 -4.781552E-05 -5.275066E-05 -4.781552E-05 -4.662634E-06 -9.567277E-05 -5.275066E-05 -9.567277E-05 -6.526979E-06 
 +4.848466E-03 -1.436095E-04 +5.145550E-05 -1.436095E-04 +6.110146E-05 -7.530222E-05 +5.145550E-05 -7.530222E-05 +1.004845E-04 
 +4.805726E-03 -8.485445E-05 -2.207445E-05 -8.485445E-05 +6.191755E-05 +2.300000E-05 -2.207445E-05 +2.300000E-05 +1.331435E-04 
 +4.849096E-03 -5.803555E-05 -3.021951E-05 -5.803555E-05 +3.281026E-05 +4.540168E-05 -3.021951E-05 +4.540168E-05 +1.037175E-04 
 +4.819388E-03 -1.415918E-04 -4.138423E-05 -1.415918E-04 +9.497821E-05 +3.661245E-05 -4.138423E-05 +3.661245E-05 +9.106798E-05 
 +4.822898E-03 -1.414628E-04 -5.345542E-05 -1.414628E-04 +1.472815E-04 +1.100256E-05 -5.345542E-05 +1.100256E-05 +6.827077E-05 
 +4.930196E-03 -1.013847E-04 -4.676154E-05 -1.013847E-04 -4.341346E-05 -1.522191E-07 -4.676154E-05 -1.522191E-07 -2.102869E-05 
 +4.968932E-03 -3.425362E-05 -1.191181E-04 -3.425362E-05 -1.455718E-04 -2.374419E-05 -1.191181E-04 -2.374419E-05 -8.352601E-05 
 +4.946089E-03 -1.921210E-05 +3.734183E-05 -1.921210E-05 -5.983675E-05 +8.069557E-06 +3.734183E-05 +8.069557E-06 -9.352730E-05 
 +5.022293E-03 -6.225464E-05 +2.087767E-05 -6.225464E-05 -3.716259E-06 +1.219914E-04 +2.087767E-05 +1.219914E-04 -1.886119E-04 
 +5.090062E-03 -6.030220E-05 +5.727687E-05 -6.030220E-05 +3.024311E-05 +2.168405E-04 +5.727687E-05 +2.168405E-04 -2.770729E-04 
 +5.058306E-03 -3.483569E-05 +5.731478E-06 -3.483569E-05 +6.604698E-05 +2.941306E-04 +5.731478E-06 +2.941306E-04 -2.024742E-04 
 +5.037427E-03 +6.457198E-05 -1.372269E-05 +6.457198E-05 +1.041011E-04 +3.194566E-04 -1.372269E-05 +3.194566E-04 -8.615186E-05 
 +5.019229E-03 +1.075129E-04 +5.673651E-05 +1.075129E-04 +1.436418E-04 +2.400115E-04 +5.673651E-05 +2.400115E-04 -8.912593E-05 
 +5.011843E-03 +1.129384E-04 +1.106077E-04 +1.129384E-04 +1.886989E-04 +1.240893E-04 +1.106077E-04 +1.240893E-04 -1.619520E-04 
 +4.982741E-03 +6.489935E-05 +1.366130E-04 +6.489935E-05 +1.998903E-04 +5.605891E-05 +1.366130E-04 +5.605891E-05 -1.748247E-04 
 +4.931196E-03 +7.494417E-06 +1.509421E-04 +7.494417E-06 +1.732481E-04 +7.062403E-05 +1.509421E-04 +7.062403E-05 -1.810008E-04 
 +4.974001E-03 -3.039252E-05 +1.220086E-04 -3.039252E-05 +1.287682E-04 -1.965546E-05 +1.220086E-04 -1.965546E-05 -3.173567E-04 
 +5.111900E-03 -1.160339E-05 +9.654676E-05 -1.160339E-05 -1.412002E-05 -2.412131E-04 +9.654676E-05 -2.412131E-04 -3.771225E-04 
 +5.253249E-03 -4.435016E-05 +2.864588E-05 -4.435016E-05 -1.565938E-04 -2.895346E-04 +2.864588E-05 -2.895346E-04 -2.383558E-04 
 +5.233754E-03 -8.567719E-05 -7.669375E-05 -8.567719E-05 -1.658182E-04 -2.051889E-04 -7.669375E-05 -2.051889E-04 -1.507106E-04 
 +5.079243E-03 -7.547469E-05 -7.297031E-05 -7.547469E-05 -7.177043E-05 -1.797729E-04 -7.297031E-05 -1.797729E-04 -1.989897E-05 
 +4.790798E-03 -1.667780E-04 +2.708564E-05 -1.667780E-04 +2.780963E-05 -9.052886E-05 +2.708564E-05 -9.052886E-05 +1.374950E-04 
 +4.801156E-03 -1.249359E-04 -1.499663E-06 -1.249359E-04 +5.306024E-05 +3.956881E-05 -1.499663E-06 +3.956881E-05 +1.488793E-04 
 +4.825606E-03 -1.117216E-04 -3.482650E-05 -1.117216E-04 +7.889207E-05 +6.559509E-05 -3.482650E-05 +6.559509E-05 +1.317907E-04 
 +4.813934E-03 -1.384509E-04 -7.651305E-05 -1.384509E-04 +1.192454E-04 +5.649146E-05 -7.651305E-05 +5.649146E-05 +1.152491E-04 
 +4.767752E-03 -1.365658E-04 -9.669090E-05 -1.365658E-04 +1.916465E-04 +3.750217E-05 -9.669090E-05 +3.750217E-05 +8.152679E-05 
 +4.841978E-03 -9.628175E-05 -5.384799E-05 -9.628175E-05 +2.257647E-04 +1.061627E-05 -5.384799E-05 +1.061627E-05 -1.879895E-05 
 +4.861263E-03 +4.479886E-05 -2.505858E-04 +4.479886E-05 +1.892071E-04 -3.868330E-05 -2.505858E-04 -3.868330E-05 -6.248749E-05 
 +4.879579E-03 +1.394649E-05 -8.393860E-05 +1.394649E-05 +1.492027E-04 -6.210973E-05 -8.393860E-05 -6.210973E-05 -3.653961E-06 
 +5.008683E-03 -5.031270E-05 -1.629174E-05 -5.031270E-05 +9.286338E-05 +5.364469E-06 -1.629174E-05 +5.364469E-06 -8.221810E-05 
 +5.172679E-03 -1.832164E-05 +2.373393E-05 -1.832164E-05 +4.336328E-05 +1.358152E-04 +2.373393E-05 +1.358152E-04 -2.434878E-04 
 +5.117282E-03 +1.262993E-05 +3.219206E-05 +1.262993E-05 +7.622996E-05 +2.520414E-04 +3.219206E-05 +2.520414E-04 -2.485140E-04 
 +5.105564E-03 +9.109062E-05 +3.609070E-05 +9.109062E-05 +1.020471E-04 +3.004082E-04 +3.609070E-05 +3.004082E-04 -1.216902E-04 
 +5.140833E-03 +1.938116E-04 +1.084328E-04 +1.938116E-04 +1.094732E-04 +2.337257E-04 +1.084328E-04 +2.337257E-04 +2.731557E-05 
 +4.976697E-03 +1.750782E-04 +1.087858E-04 +1.750782E-04 +1.523427E-04 +1.455652E-04 +1.087858E-04 +1.455652E-04 +1.473518E-05 
 +4.948002E-03 +9.416273E-06 +1.030045E-04 +9.416273E-06 +1.841007E-04 +9.240762E-05 +1.030045E-04 +9.240762E-05 -4.431765E-05 
 +4.773211E-03 -6.381742E-05 +1.362118E-04 -6.381742E-05 +1.773657E-04 +2.752672E-05 +1.362118E-04 +2.752672E-05 +1.377137E-05 
 +4.788916E-03 -1.272814E-04 +5.166430E-05 -1.272814E-04 +4.723755E-05 -7.153069E-05 +5.166430E-05 -7.153069E-05 -6.373363E-05 
 +5.232912E-03 -1.360883E-04 +1.341585E-05 -1.360883E-04 -1.856840E-04 -1.663140E-04 +1.341585E-05 -1.663140E-04 -1.769843E-04 
 +5.385200E-03 -9.745405E-05 +5.760085E-05 -9.745405E-05 -2.975701E-04 -1.876155E-04 +5.760085E-05 -1.876155E-04 -1.240859E-04 
 +5.316104E-03 -1.303031E-04 -8.822390E-06 -1.303031E-04 -2.290263E-04 -1.652969E-04 -8.822390E-06 -1.652969E-04 -9.285066E-05 
 +5.160140E-03 -9.395671E-05 -3.259010E-05 -9.395671E-05 -1.135335E-04 -1.566931E-04 -3.259010E-05 -1.566931E-04 -1.353060E-06 
 +4.820836E-03 -1.934728E-04 +7.169722E-05 -1.934728E-04 -7.965743E-06 -7.474313E-05 +7.169722E-05 -7.474313E-05 +1.353251E-04 
 +4.808028E-03 -1.450163E-04 +3.168154E-05 -1.450163E-04 +6.974169E-05 +4.283084E-05 +3.168154E-05 +4.283084E-05 +1.352630E-04 
 +4.794017E-03 -1.473666E-04 -1.951126E-05 -1.473666E-04 +1.197847E-04 +8.030459E-05 -1.951126E-05 +8.030459E-05 +1.335839E-04 
 +4.813508E-03 -1.550029E-04 -7.635088E-05 -1.550029E-04 +1.426720E-04 +8.401411E-05 -7.635088E-05 +8.401411E-05 +1.189328E-04 
 +4.810115E-03 -1.534626E-04 -9.721393E-05 -1.534626E-04 +1.663814E-04 +5.972067E-05 -9.721393E-05 +5.972067E-05 +8.396409E-05 
 +4.823996E-03 -1.299118E-04 -3.366320E-05 -1.299118E-04 +2.091614E-04 +2.406428E-05 -3.366320E-05 +2.406428E-05 +1.829070E-06 
 +4.805447E-03 +4.829274E-05 -2.843668E-04 +4.829274E-05 +2.041483E-04 -3.053301E-05 -2.843668E-04 -3.053301E-05 -8.371088E-06 
 +4.855022E-03 +1.251583E-04 -1.747909E-04 +1.251583E-04 +1.480342E-04 -9.015493E-05 -1.747909E-04 -9.015493E-05 +8.701392E-06 
 +5.067479E-03 +1.217076E-04 -4.928351E-05 +1.217076E-04 +1.488342E-04 -1.647889E-04 -4.928351E-05 -1.647889E-04 -1.081263E-04 
 +5.092213E-03 +8.418830E-05 -1.023111E-05 +8.418830E-05 +1.346852E-04 -1.117035E-04 -1.023111E-05 -1.117035E-04 -1.745164E-04 
 +5.142240E-03 +6.909769E-05 -2.370372E-06 +6.909769E-05 +8.175428E-05 +1.189568E-04 -2.370372E-06 +1.189568E-04 -1.347901E-04 
 +5.160616E-03 +7.962690E-05 -2.893443E-06 +7.962690E-05 +2.604367E-05 +2.760564E-04 -2.893443E-06 +2.760564E-04 -3.958731E-05 
 +5.209569E-03 +1.780061E-04 +8.136036E-05 +1.780061E-04 +5.178950E-05 +2.835402E-04 +8.136036E-05 +2.835402E-04 +1.771582E-04 
 +4.908756E-03 +1.338216E-04 +2.564542E-05 +1.338216E-04 +1.642486E-04 +1.919893E-04 +2.564542E-05 +1.919893E-04 +2.778147E-04 
 +4.828344E-03 -4.019904E-05 -2.436876E-07 -4.019904E-05 +1.848615E-04 +7.814342E-05 -2.436876E-07 +7.814342E-05 +1.769725E-04 
 +4.781402E-03 -7.566390E-05 +8.475184E-05 -7.566390E-05 +1.486654E-04 +5.316658E-07 +8.475184E-05 +5.316658E-07 +1.577403E-04 
 +4.717611E-03 -1.401090E-04 +3.565733E-05 -1.401090E-04 +6.674413E-06 -6.905755E-05 +3.565733E-05 -6.905755E-05 +1.449077E-04 
 +5.175191E-03 -1.915011E-04 +4.204849E-05 -1.915011E-04 -2.396646E-04 -1.439236E-04 +4.204849E-05 -1.439236E-04 -1.101836E-05 
 +5.415497E-03 -1.332523E-04 +1.073598E-04 -1.332523E-04 -3.414261E-04 -1.708918E-04 +1.073598E-04 -1.708918E-04 -1.125723E-04 
 +5.411221E-03 -1.190789E-04 +4.021059E-05 -1.190789E-04 -2.750704E-04 -1.226020E-04 +4.021059E-05 -1.226020E-04 -1.387320E-04 
 +5.240698E-03 -7.731448E-05 +2.947508E-05 -7.731448E-05 -1.553908E-04 -1.122819E-04 +2.947508E-05 -1.122819E-04 -5.379428E-05 
 +4.877289E-03 -1.851970E-04 +1.210798E-04 -1.851970E-04 -2.981814E-05 -6.263429E-05 +1.210798E-04 -6.263429E-05 +9.459387E-05 
 +4.788158E-03 -1.716883E-04 +9.095877E-05 -1.716883E-04 +1.018226E-04 +1.600241E-06 +9.095877E-05 +1.600241E-06 +1.220634E-04 
 +4.795763E-03 -1.973640E-04 +2.393514E-05 -1.973640E-04 +1.413763E-04 +5.433282E-05 +2.393514E-05 +5.433282E-05 +1.356066E-04 
 +4.817847E-03 -2.017663E-04 -4.388037E-05 -2.017663E-04 +1.429693E-04 +7.732439E-05 -4.388037E-05 +7.732439E-05 +1.153044E-04 
 +4.855158E-03 -1.718885E-04 -7.767384E-05 -1.718885E-04 +1.658835E-04 +5.872499E-05 -7.767384E-05 +5.872499E-05 +8.027315E-05 
 +4.867339E-03 -1.272217E-04 -1.864949E-05 -1.272217E-04 +1.822598E-04 +1.921681E-05 -1.864949E-05 +1.921681E-05 +5.071975E-06 
 +4.835732E-03 +2.747226E-05 -1.742421E-04 +2.747226E-05 +1.895463E-04 -2.343661E-05 -1.742421E-04 -2.343661E-05 -1.874971E-05 
 +4.916303E-03 +8.463107E-05 -1.084820E-04 +8.463107E-05 +1.862997E-04 -3.182157E-05 -1.084820E-04 -3.182157E-05 -3.843489E-05 
 +5.027139E-03 +5.581693E-05 -6.296408E-05 +5.581693E-05 +1.737248E-04 -4.204820E-05 -6.296408E-05 -4.204820E-05 -1.093062E-04 
 +4.991316E-03 -1.730960E-05 -1.572099E-05 -1.730960E-05 +1.776565E-04 -9.907573E-05 -1.572099E-05 -9.907573E-05 -3.438827E-05 
 +5.128291E-03 +1.467649E-05 -3.677733E-05 +1.467649E-05 +1.475315E-04 -1.234398E-04 -3.677733E-05 -1.234398E-04 +9.415234E-05 
 +5.102074E-03 +5.208965E-07 -5.453558E-05 +5.208965E-07 +1.586499E-04 -5.310325E-05 -5.453558E-05 -5.310325E-05 +1.929169E-04 
 +5.149355E-03 +6.706946E-05 -9.819932E-05 +6.706946E-05 +1.626843E-04 +5.054637E-05 -9.819932E-05 +5.054637E-05 +3.350685E-04 
 +5.038194E-03 +6.583166E-05 -1.199566E-04 +6.583166E-05 +9.446659E-05 +7.036172E-05 -1.199566E-04 +7.036172E-05 +4.256386E-04 
 +4.846076E-03 +6.121021E-06 -5.439940E-05 +6.121021E-06 +6.471564E-05 +2.263077E-06 -5.439940E-05 +2.263077E-06 +4.121336E-04 
 +4.803937E-03 -1.025164E-06 +6.034449E-05 -1.025164E-06 +4.473378E-05 -9.383487E-05 +6.034449E-05 -9.383487E-05 +2.976930E-04 
 +4.878104E-03 -9.079551E-05 +7.044168E-05 -9.079551E-05 +4.145587E-05 -8.447657E-05 +7.044168E-05 -8.447657E-05 +1.563817E-04 
 +4.896575E-03 -1.152357E-04 +2.026408E-05 -1.152357E-04 +8.784444E-06 -4.524154E-05 +2.026408E-05 -4.524154E-05 +4.201926E-05 
 +5.264974E-03 -1.224170E-04 +1.196246E-04 -1.224170E-04 -1.661421E-04 -1.299262E-04 +1.196246E-04 -1.299262E-04 -1.014735E-04 
 +5.481883E-03 -1.284231E-04 +1.061125E-04 -1.284231E-04 -2.887169E-04 -1.723363E-04 +1.061125E-04 -1.723363E-04 -2.096795E-04 
 +5.356867E-03 -3.191472E-05 +8.961735E-05 -3.191472E-05 -1.968662E-04 -1.597100E-04 +8.961735E-05 -1.597100E-04 -1.230607E-04 
 +4.897052E-03 -1.427948E-04 +1.923980E-04 -1.427948E-04 -1.930914E-05 -1.019833E-04 +1.923980E-04 -1.019833E-04 +4.903467E-05 
 +4.860984E-03 -2.630195E-04 +1.628459E-04 -2.630195E-04 +1.243938E-04 -5.906844E-05 +1.628459E-04 -5.906844E-05 +9.992893E-05 
 +4.807977E-03 -2.331070E-04 +7.906878E-05 -2.331070E-04 +1.362269E-04 -1.001340E-06 +7.906878E-05 -1.001340E-06 +1.201470E-04 
 +4.825672E-03 -2.480855E-04 -3.168470E-06 -2.480855E-04 +1.838581E-04 +2.893386E-05 -3.168470E-06 +2.893386E-05 +1.024114E-04 
 +4.850742E-03 -2.649070E-04 -3.322456E-05 -2.649070E-04 +1.685081E-04 +3.837808E-05 -3.322456E-05 +3.837808E-05 +4.557722E-05 
 +4.994147E-03 -2.042813E-04 +2.089597E-05 -2.042813E-04 +1.965349E-04 -2.005147E-05 +2.089597E-05 -2.005147E-05 -1.135262E-04 
 +4.987502E-03 +4.102786E-05 -1.790079E-05 +4.102786E-05 +2.600026E-04 -7.330613E-05 -1.790079E-05 -7.330613E-05 -1.608983E-04 
 +4.927840E-03 +1.168327E-04 +3.058097E-05 +1.168327E-04 +2.510220E-04 -3.823916E-05 +3.058097E-05 -3.823916E-05 -4.557788E-05 
 +4.924872E-03 +1.086893E-04 +3.186704E-05 +1.086893E-04 +2.321556E-04 +8.768282E-06 +3.186704E-05 +8.768282E-06 -8.895467E-06 
 +4.966915E-03 +4.471158E-05 +5.317848E-05 +4.471158E-05 +2.299717E-04 -2.093181E-05 +5.317848E-05 -2.093181E-05 +1.659254E-05 
 +5.001104E-03 +1.829214E-05 +3.276749E-05 +1.829214E-05 +2.813416E-04 -1.114106E-04 +3.276749E-05 -1.114106E-04 +5.643006E-05 
 +5.122080E-03 +4.065216E-05 -7.525277E-05 +4.065216E-05 +3.255267E-04 -1.657795E-04 -7.525277E-05 -1.657795E-04 +8.948717E-05 
 +5.220019E-03 +1.777369E-04 -2.766640E-04 +1.777369E-04 +2.288400E-04 -1.472057E-04 -2.766640E-04 -1.472057E-04 +1.191590E-04 
 +5.166114E-03 +2.151394E-04 -2.248222E-04 +2.151394E-04 +9.170273E-05 -1.056663E-04 -2.248222E-04 -1.056663E-04 +1.981310E-04 
 +4.924158E-03 +8.242447E-05 -9.347813E-05 +8.242447E-05 +2.698762E-05 -1.178028E-04 -9.347813E-05 -1.178028E-04 +4.140571E-04 
 +4.772833E-03 +1.585306E-05 +6.792414E-06 +1.585306E-05 -4.563689E-05 -2.290238E-04 +6.792414E-06 -2.290238E-04 +3.806332E-04 
 +5.013869E-03 -7.146945E-05 +8.846739E-05 -7.146945E-05 -8.215982E-05 -3.119606E-04 +8.846739E-05 -3.119606E-04 +1.337288E-04 
 +4.805466E-03 -7.004876E-05 -6.495351E-08 -7.004876E-05 +1.991882E-05 -1.513951E-04 -6.495351E-08 -1.513951E-04 +6.571295E-05 
 +5.017516E-03 -8.305653E-05 +3.454886E-05 -8.305653E-05 -2.833461E-05 -5.235242E-05 +3.454886E-05 -5.235242E-05 +6.636611E-06 
 +5.342129E-03 -7.692100E-05 +1.620461E-04 -7.692100E-05 -2.911853E-04 -1.683520E-04 +1.620461E-04 -1.683520E-04 -9.184458E-05 
 +5.270705E-03 -4.011403E-05 +1.932551E-04 -4.011403E-05 -3.421929E-04 -1.971327E-04 +1.932551E-04 -1.971327E-04 -5.041083E-05 
 +4.935311E-03 -1.857929E-04 +2.666977E-04 -1.857929E-04 -5.947375E-05 -1.298891E-04 +2.666977E-04 -1.298891E-04 +5.016319E-05 
 +4.878572E-03 -2.444595E-04 +1.747914E-04 -2.444595E-04 +7.996476E-05 -8.422031E-05 +1.747914E-04 -8.422031E-05 +8.180945E-05 
 +4.832360E-03 -2.736089E-04 +1.277631E-04 -2.736089E-04 +1.847354E-04 -6.403783E-05 +1.277631E-04 -6.403783E-05 +9.930900E-05 
 +4.830765E-03 -3.264549E-04 +6.117432E-05 -3.264549E-04 +1.856979E-04 -2.029868E-05 +6.117432E-05 -2.029868E-05 +1.037433E-04 
 +4.902576E-03 -2.738582E-04 -1.675925E-06 -2.738582E-04 +1.768663E-04 +1.895608E-05 -1.675925E-06 +1.895608E-05 +7.293827E-07 
 +5.194600E-03 -9.649623E-05 -7.904686E-06 -9.649623E-05 +2.152301E-04 -1.059455E-05 -7.904686E-06 -1.059455E-05 -2.290959E-04 
 +5.178576E-03 +6.312193E-05 +9.705436E-06 +6.312193E-05 +2.243356E-04 -3.695043E-05 +9.705436E-06 -3.695043E-05 -2.383481E-04 
 +4.919308E-03 +1.087628E-04 +6.580330E-05 +1.087628E-04 +2.435989E-04 -8.822996E-06 +6.580330E-05 -8.822996E-06 -6.681167E-05 
 +4.900319E-03 +1.162235E-04 +9.807311E-05 +1.162235E-04 +2.646584E-04 -5.658076E-07 +9.807311E-05 -5.658076E-07 -7.135637E-05 
 +4.943033E-03 +1.156363E-04 +1.062694E-04 +1.156363E-04 +3.176555E-04 +1.437804E-05 +1.062694E-04 +1.437804E-05 -1.283597E-04 
 +4.932188E-03 +1.567293E-04 +9.402498E-05 +1.567293E-04 +3.239339E-04 +3.242571E-06 +9.402498E-05 +3.242571E-06 -1.693253E-04 
 +5.253435E-03 +2.390415E-04 -1.185064E-04 +2.390415E-04 +2.862799E-04 -9.076713E-05 -1.185064E-04 -9.076713E-05 -2.108498E-04 
 +5.276809E-03 +2.305093E-04 -2.936448E-04 +2.305093E-04 +3.132890E-04 -1.630733E-04 -2.936448E-04 -1.630733E-04 -2.024187E-04 
 +5.226666E-03 +2.054788E-04 -2.467074E-04 +2.054788E-04 +2.795091E-04 -1.671142E-04 -2.467074E-04 -1.671142E-04 -7.593431E-05 
 +4.985900E-03 +1.528197E-04 -1.620767E-04 +1.528197E-04 +1.938567E-04 -1.319996E-04 -1.620767E-04 -1.319996E-04 +2.483402E-04 
 +4.741506E-03 +6.967448E-05 -1.086552E-04 +6.967448E-05 +7.657433E-05 -8.146270E-05 -1.086552E-04 -8.146270E-05 +3.709149E-04 
 +4.911204E-03 -5.483074E-06 +4.219637E-05 -5.483074E-06 +2.845304E-06 -6.750091E-05 +4.219637E-05 -6.750091E-05 +1.998105E-04 
 +4.992590E-03 +8.975659E-06 +9.047408E-05 +8.975659E-06 -1.273706E-05 -2.782820E-05 +9.047408E-05 -2.782820E-05 +7.613079E-05 
 +4.988125E-03 +1.015887E-05 +2.037877E-05 +1.015887E-05 -2.693288E-05 +2.413496E-05 +2.037877E-05 +2.413496E-05 +9.910102E-05 
 +5.016495E-03 +1.178789E-04 +1.542219E-04 +1.178789E-04 +5.148921E-05 +4.306333E-05 +1.542219E-04 +4.306333E-05 +1.366234E-04 
 +4.932554E-03 +1.832899E-04 +2.173097E-04 +1.832899E-04 +6.264458E-05 +3.545431E-05 +2.173097E-04 +3.545431E-05 +9.958115E-05 
 +4.900389E-03 +6.441495E-05 +2.126146E-04 +6.441495E-05 +5.401965E-06 -2.712883E-05 +2.126146E-04 -2.712883E-05 +7.549677E-05 
 +4.801818E-03 +4.514128E-05 +1.390771E-04 +4.514128E-05 +5.695036E-05 -6.686816E-05 +1.390771E-04 -6.686816E-05 +7.252112E-05 
 +4.784965E-03 -6.664814E-05 +1.034153E-04 -6.664814E-05 +1.853192E-04 -2.601647E-05 +1.034153E-04 -2.601647E-05 +9.561505E-05 
 +4.850385E-03 -1.976107E-04 +6.396973E-05 -1.976107E-04 +1.935714E-04 -3.475628E-07 +6.396973E-05 -3.475628E-07 +1.460580E-04 
 +5.147241E-03 -7.059591E-05 +3.056304E-07 -7.059591E-05 +1.900426E-04 -1.196056E-05 +3.056304E-07 -1.196056E-05 -1.984933E-05 
 +5.235084E-03 +3.440879E-05 -1.666859E-05 +3.440879E-05 +1.848454E-04 +2.143008E-05 -1.666859E-05 +2.143008E-05 -1.734520E-04 
 +5.174028E-03 +5.895645E-05 -4.890304E-06 +5.895645E-05 +1.726335E-04 +4.370838E-05 -4.890304E-06 +4.370838E-05 -1.386265E-04 
 +5.015778E-03 +1.161175E-04 +2.564654E-05 +1.161175E-04 +1.799404E-04 +5.241862E-06 +2.564654E-05 +5.241862E-06 -1.270917E-04 
 +4.978258E-03 +1.976923E-04 +8.335318E-05 +1.976923E-04 +2.188112E-04 -6.622514E-05 +8.335318E-05 -6.622514E-05 -1.984781E-04 
 +4.991762E-03 +2.814920E-04 +9.625703E-05 +2.814920E-04 +2.696087E-04 -8.416429E-05 +9.625703E-05 -8.416429E-05 -2.568486E-04 
 +5.028744E-03 +3.195621E-04 +6.784215E-05 +3.195621E-04 +3.717649E-04 -1.032643E-04 +6.784215E-05 -1.032643E-04 -2.548327E-04 
 +5.126267E-03 +2.862835E-04 -6.541538E-05 +2.862835E-04 +4.418882E-04 -1.362184E-04 -6.541538E-05 -1.362184E-04 -2.593550E-04 
 +5.174463E-03 +1.389500E-04 -1.556582E-04 +1.389500E-04 +3.541916E-04 -1.269827E-04 -1.556582E-04 -1.269827E-04 -2.769388E-04 
 +5.260162E-03 +4.647553E-05 -1.990879E-04 +4.647553E-05 +2.036846E-04 -1.403923E-04 -1.990879E-04 -1.403923E-04 -2.362580E-04 
 +5.182663E-03 +5.065378E-05 -2.131329E-04 +5.065378E-05 +1.766946E-04 -1.187743E-04 -2.131329E-04 -1.187743E-04 -2.250375E-06 
 +4.828202E-03 +1.417379E-05 -2.048328E-04 +1.417379E-05 +1.938346E-04 -6.123486E-05 -2.048328E-04 -6.123486E-05 +3.345410E-04 
 +4.708633E-03 +6.499793E-06 -4.447148E-05 +6.499793E-06 +3.616641E-05 -6.136441E-05 -4.447148E-05 -6.136441E-05 +3.494169E-04 
 +5.036964E-03 -2.363326E-05 +5.402994E-05 -2.363326E-05 -5.546174E-05 -1.114897E-04 +5.402994E-05 -1.114897E-04 +5.440661E-05 
 +5.113300E-03 -8.406963E-05 +6.368041E-05 -8.406963E-05 +7.349426E-05 -1.179983E-04 +6.368041E-05 -1.179983E-04 +1.428032E-05 
 +4.778518E-03 +7.627125E-05 +1.111551E-04 +7.627125E-05 +1.913692E-04 -8.008512E-05 +1.111551E-04 -8.008512E-05 +1.924541E-04 
 +4.720070E-03 +1.506509E-04 +1.333355E-04 +1.506509E-04 +1.599211E-04 -6.905070E-05 +1.333355E-04 -6.905070E-05 +1.733321E-04 
 +4.800914E-03 +1.510656E-04 +1.270305E-04 +1.510656E-04 +2.447421E-05 -6.310823E-05 +1.270305E-04 -6.310823E-05 +1.069569E-04 
 +4.777267E-03 +8.502117E-05 +1.344789E-04 +8.502117E-05 +4.968954E-05 -9.991681E-05 +1.344789E-04 -9.991681E-05 +8.459375E-05 
 +4.802451E-03 +3.045573E-05 +8.187032E-05 +3.045573E-05 +4.485651E-05 +1.986656E-05 +8.187032E-05 +1.986656E-05 +1.138157E-04 
 +4.893010E-03 -1.478442E-05 +1.383602E-06 -1.478442E-05 +1.434221E-04 +1.244517E-04 +1.383602E-06 +1.244517E-04 +1.201343E-04 
 +5.219512E-03 -5.899057E-05 -1.990717E-05 -5.899057E-05 +1.584149E-04 +5.329547E-05 -1.990717E-05 +5.329547E-05 -7.979414E-05 
 +5.169645E-03 +5.986835E-06 +2.945720E-05 +5.986835E-06 +1.387896E-04 +5.502237E-06 +2.945720E-05 +5.502237E-06 -1.251745E-04 
 +5.104121E-03 +5.756458E-05 +1.519192E-05 +5.756458E-05 +1.711726E-04 +6.048963E-06 +1.519192E-05 +6.048963E-06 -7.012196E-05 
 +5.089595E-03 +8.499635E-05 +6.291989E-06 +8.499635E-05 +1.611866E-04 +1.802396E-05 +6.291989E-06 +1.802396E-05 -1.142688E-04 
 +5.096161E-03 +1.248823E-04 +3.637855E-05 +1.248823E-04 +1.853291E-04 +2.377120E-05 +3.637855E-05 +2.377120E-05 -1.597153E-04 
 +5.070006E-03 +1.774500E-04 +7.526334E-05 +1.774500E-04 +2.379581E-04 +1.240762E-05 +7.526334E-05 +1.240762E-05 -1.868155E-04 
 +5.028677E-03 +2.178743E-04 +7.101150E-05 +2.178743E-04 +3.371732E-04 -9.550334E-06 +7.101150E-05 -9.550334E-06 -1.570729E-04 
 +4.993198E-03 +1.431975E-04 +1.772122E-05 +1.431975E-04 +3.987024E-04 -6.677059E-05 +1.772122E-05 -6.677059E-05 -1.290175E-04 
 +5.121488E-03 +4.575147E-05 -6.266780E-05 +4.575147E-05 +2.782935E-04 -1.163705E-04 -6.266780E-05 -1.163705E-04 -1.438099E-04 
 +5.249786E-03 +2.435521E-05 -1.472288E-04 +2.435521E-05 +1.245892E-04 -1.284257E-04 -1.472288E-04 -1.284257E-04 -1.491406E-04 
 +5.278418E-03 +7.518417E-06 -1.441251E-04 +7.518417E-06 -6.083541E-06 -2.997075E-05 -1.441251E-04 -2.997075E-05 +1.363963E-06 
 +5.114857E-03 -8.073020E-05 -1.625330E-04 -8.073020E-05 -8.604587E-05 +4.537759E-05 -1.625330E-04 +4.537759E-05 +2.926853E-04 
 +4.685349E-03 +2.389899E-05 -1.117699E-04 +2.389899E-05 +1.115427E-05 -3.731540E-05 -1.117699E-04 -3.731540E-05 +3.802384E-04 
 +4.745645E-03 +4.209974E-05 -7.118295E-05 +4.209974E-05 +6.227019E-05 -1.030803E-04 -7.118295E-05 -1.030803E-04 +1.499929E-04 
 +5.065123E-03 -8.575899E-05 +3.561334E-05 -8.575899E-05 +8.558730E-05 -1.230845E-04 +3.561334E-05 -1.230845E-04 +3.783073E-05 
 +4.790267E-03 -3.447973E-06 +8.793282E-05 -3.447973E-06 +1.621079E-04 -1.178723E-04 +8.793282E-05 -1.178723E-04 +2.171989E-04 
 +4.684537E-03 +1.057391E-04 +7.347363E-05 +1.057391E-04 +1.382292E-04 -1.036021E-04 +7.347363E-05 -1.036021E-04 +2.368347E-04 
 +4.759121E-03 +1.247993E-04 +1.065511E-04 +1.247993E-04 +9.296559E-05 -1.036650E-04 +1.065511E-04 -1.036650E-04 +1.425516E-04 
 +4.747603E-03 +1.107910E-04 +1.251266E-04 +1.107910E-04 +6.327284E-05 -6.840732E-05 +1.251266E-04 -6.840732E-05 +1.546685E-04 
 +4.836147E-03 +1.379651E-05 +1.101745E-04 +1.379651E-05 +2.876112E-05 +8.332056E-05 +1.101745E-04 +8.332056E-05 +1.302758E-04 
 +4.969973E-03 -5.907808E-05 -1.577310E-05 -5.907808E-05 -8.429873E-06 +1.753534E-04 -1.577310E-05 +1.753534E-04 +3.127070E-05 
 +5.151339E-03 -6.850171E-05 -2.573797E-05 -6.850171E-05 +3.210140E-05 +8.914653E-05 -2.573797E-05 +8.914653E-05 -8.590840E-05 
 +5.115332E-03 +3.352497E-05 +1.956396E-05 +3.352497E-05 +1.000891E-04 +3.869116E-05 +1.956396E-05 +3.869116E-05 -3.389814E-05 
 +5.053284E-03 +4.161317E-05 +1.654298E-05 +4.161317E-05 +1.313053E-04 +2.897587E-05 +1.654298E-05 +2.897587E-05 +1.710478E-05 
 +5.084168E-03 +4.542324E-05 +1.610127E-05 +4.542324E-05 +1.180547E-04 +1.945660E-05 +1.610127E-05 +1.945660E-05 -1.770365E-05 
 +5.132899E-03 +9.562813E-05 -6.454510E-07 +9.562813E-05 +5.599952E-05 +2.497020E-05 -6.454510E-07 +2.497020E-05 -3.565279E-05 
 +5.097161E-03 +1.720284E-04 -2.186405E-05 +1.720284E-04 +1.401338E-04 -1.589310E-05 -2.186405E-05 -1.589310E-05 -1.114222E-05 
 +5.006821E-03 +1.852761E-04 +4.784754E-05 +1.852761E-04 +2.204642E-04 -3.390023E-05 +4.784754E-05 -3.390023E-05 +3.109736E-05 
 +5.049927E-03 +5.375961E-05 +7.391619E-05 +5.375961E-05 +6.697303E-05 +9.150396E-05 +7.391619E-05 +9.150396E-05 +7.315015E-05 
 +5.139644E-03 -6.303764E-05 -1.941328E-05 -6.303764E-05 -1.292380E-04 +1.763994E-04 -1.941328E-05 +1.763994E-04 +8.586217E-05 
 +5.243095E-03 -6.861016E-05 -5.747478E-05 -6.861016E-05 -2.970268E-04 +1.753269E-04 -5.747478E-05 +1.753269E-04 +6.013259E-05 
 +5.299932E-03 -2.370543E-05 -4.245136E-05 -2.370543E-05 -3.833784E-04 +1.892764E-04 -4.245136E-05 +1.892764E-04 +9.924625E-05 
 +5.265170E-03 -6.526117E-05 -1.029604E-04 -6.526117E-05 -2.627789E-04 +6.455953E-05 -1.029604E-04 +6.455953E-05 +1.910951E-04 
 +4.785704E-03 -2.909518E-05 -8.915171E-05 -2.909518E-05 -2.085773E-05 -1.149356E-04 -8.915171E-05 -1.149356E-04 +3.378134E-04 
 +4.622958E-03 -4.243398E-05 -2.266465E-05 -4.243398E-05 +8.890131E-05 -7.220211E-05 -2.266465E-05 -7.220211E-05 +4.017863E-04 
 +4.816770E-03 +1.853502E-05 +3.292977E-05 +1.853502E-05 +4.932610E-05 +1.000756E-05 +3.292977E-05 +1.000756E-05 +3.057499E-04 
 +4.860659E-03 +3.390478E-05 +5.176047E-05 +3.390478E-05 +4.033211E-05 -3.910059E-05 +5.176047E-05 -3.910059E-05 +2.943438E-04 
 +4.718061E-03 +9.390721E-05 +2.854497E-05 +9.390721E-05 +7.654941E-05 -7.163262E-05 +2.854497E-05 -7.163262E-05 +2.674018E-04 
 +4.741451E-03 +1.341477E-04 +6.955569E-05 +1.341477E-04 +8.957577E-05 -7.535299E-05 +6.955569E-05 -7.535299E-05 +1.928962E-04 
 +4.718317E-03 +1.014245E-04 +8.627305E-05 +1.014245E-04 +3.200498E-05 -1.269360E-05 +8.627305E-05 -1.269360E-05 +2.496674E-04 
 +4.800104E-03 +4.579449E-05 +8.494763E-05 +4.579449E-05 +5.993694E-05 +1.090871E-04 +8.494763E-05 +1.090871E-04 +2.284609E-04 
 +5.042107E-03 -6.215921E-05 -1.576539E-05 -6.215921E-05 +6.148517E-06 +1.474134E-04 -1.576539E-05 +1.474134E-04 +8.219262E-05 
 +5.112663E-03 -4.013067E-05 -3.500458E-05 -4.013067E-05 -6.255282E-05 +3.165813E-05 -3.500458E-05 +3.165813E-05 -4.175610E-05 
 +5.044675E-03 +5.913148E-05 +1.069576E-05 +5.913148E-05 +1.170087E-05 +3.284884E-05 +1.069576E-05 +3.284884E-05 +4.298135E-05 
 +4.981546E-03 +4.938392E-05 +1.793720E-05 +4.938392E-05 +7.757043E-05 +8.081755E-05 +1.793720E-05 +8.081755E-05 +1.050230E-04 
 +5.062011E-03 -1.238250E-05 +1.489883E-05 -1.238250E-05 +4.854614E-05 +2.145777E-07 +1.489883E-05 +2.145777E-07 +1.349439E-05 
 +5.119106E-03 +3.684955E-05 -3.611689E-06 +3.684955E-05 +2.811016E-05 -5.773611E-05 -3.611689E-06 -5.773611E-05 -5.975955E-05 
 +5.096847E-03 +1.609237E-04 -4.730412E-05 +1.609237E-04 -6.138756E-06 +2.991807E-05 -4.730412E-05 +2.991807E-05 -3.141296E-05 
 +5.111938E-03 +1.214766E-04 +2.059363E-05 +1.214766E-04 -1.176069E-04 +1.573967E-04 +2.059363E-05 +1.573967E-04 +5.341880E-05 
 +5.130693E-03 +2.680555E-05 +3.807627E-05 +2.680555E-05 -1.739345E-04 +2.033153E-04 +3.807627E-05 +2.033153E-04 +7.928375E-05 
 +5.157100E-03 -6.256002E-05 +3.334686E-05 -6.256002E-05 -1.609814E-04 +1.593550E-04 +3.334686E-05 +1.593550E-04 -1.377276E-06 
 +5.211194E-03 -6.990989E-05 +5.784607E-05 -6.990989E-05 -1.247607E-04 +8.383442E-05 +5.784607E-05 +8.383442E-05 -1.059814E-04 
 +5.314739E-03 -5.358240E-05 +1.336303E-05 -5.358240E-05 -1.221143E-04 +6.488465E-05 +1.336303E-05 +6.488465E-05 -1.396529E-04 
 +5.284406E-03 -7.480440E-06 -5.160067E-05 -7.480440E-06 -7.932358E-05 +5.565824E-05 -5.160067E-05 +5.565824E-05 -1.012001E-05 
 +4.862540E-03 +3.262041E-05 -1.414704E-05 +3.262041E-05 -2.428076E-05 +1.632294E-05 -1.414704E-05 +1.632294E-05 +3.081037E-04 
 +4.694258E-03 -7.937207E-05 +5.615596E-05 -7.937207E-05 -6.413468E-05 +6.630184E-05 +5.615596E-05 +6.630184E-05 +5.405335E-04 
 +4.700338E-03 +1.983484E-05 +2.485558E-05 +1.983484E-05 -8.009373E-05 +1.130135E-04 +2.485558E-05 +1.130135E-04 +4.742197E-04 
 +4.803153E-03 +1.192668E-04 -1.568526E-05 +1.192668E-04 -5.183895E-05 +5.381915E-05 -1.568526E-05 +5.381915E-05 +3.612552E-04 
 +4.751371E-03 +1.604665E-04 -4.149790E-05 +1.604665E-04 +8.701613E-06 +1.533811E-06 -4.149790E-05 +1.533811E-06 +3.193767E-04 
 +4.738991E-03 +1.402473E-04 +5.872988E-07 +1.402473E-04 +3.561702E-05 -2.229185E-05 +5.872988E-07 -2.229185E-05 +2.675735E-04 
 +4.722152E-03 +9.855738E-05 -3.449376E-05 +9.855738E-05 +2.945234E-05 +4.923599E-05 -3.449376E-05 +4.923599E-05 +2.785748E-04 
 +4.860528E-03 +6.561513E-05 +1.026237E-05 +6.561513E-05 -2.191815E-04 +1.786192E-04 +1.026237E-05 +1.786192E-04 +3.146714E-04 
 +4.974754E-03 -3.384008E-05 -2.810405E-05 -3.384008E-05 -3.133513E-04 +1.824324E-04 -2.810405E-05 +1.824324E-04 +1.934818E-04 
 +5.068233E-03 +4.961308E-05 +8.033984E-06 +4.961308E-05 -1.346204E-04 +1.376735E-04 +8.033984E-06 +1.376735E-04 +5.619079E-05 
 +5.001254E-03 +1.285662E-04 +6.483524E-05 +1.285662E-04 -5.914375E-06 +2.431489E-04 +6.483524E-05 +2.431489E-04 +9.943040E-05 
 +4.951945E-03 +1.303321E-04 +2.157357E-05 +1.303321E-04 +2.676794E-05 +2.523612E-04 +2.157357E-05 +2.523612E-04 +1.389931E-04 
 +4.963714E-03 +2.634218E-05 -2.277913E-05 +2.634218E-05 +3.008215E-05 +1.209354E-04 -2.277913E-05 +1.209354E-04 +7.072640E-05 
 +5.071363E-03 +6.517212E-05 -2.695727E-05 +6.517212E-05 -2.930151E-05 -1.600368E-05 -2.695727E-05 -1.600368E-05 -3.445966E-05 
 +5.185911E-03 +1.407579E-04 +2.466289E-05 +1.407579E-04 -1.769485E-04 -9.721976E-05 +2.466289E-05 -9.721976E-05 -2.502250E-05 
 +5.196439E-03 +1.061020E-04 +5.326890E-05 +1.061020E-04 -3.880430E-04 -1.679030E-04 +5.326890E-05 -1.679030E-04 +1.170979E-04 
 +5.185736E-03 +7.240448E-05 +1.062178E-05 +7.240448E-05 -3.981323E-04 -6.655743E-05 +1.062178E-05 -6.655743E-05 +1.361386E-04 
 +5.164369E-03 -1.721063E-05 +3.616243E-05 -1.721063E-05 -1.716652E-04 +1.266690E-04 +3.616243E-05 +1.266690E-04 -5.961657E-05 
 +5.173598E-03 -5.472314E-05 +6.586771E-05 -5.472314E-05 +2.208877E-05 +1.013579E-04 +6.586771E-05 +1.013579E-04 -2.834281E-04 
 +5.231843E-03 -1.157324E-04 +8.990086E-05 -1.157324E-04 +4.514797E-05 +1.829961E-05 +8.990086E-05 +1.829961E-05 -3.523958E-04 
 +5.242839E-03 -1.167316E-04 +6.589785E-05 -1.167316E-04 -8.788636E-05 +9.570357E-05 +6.589785E-05 +9.570357E-05 -2.055160E-04 
 +5.050429E-03 -9.482556E-05 +4.044459E-06 -9.482556E-05 -2.059155E-04 +1.686030E-04 +4.044459E-06 +1.686030E-04 +1.332006E-04 
 +4.788369E-03 -8.274515E-05 +1.321555E-05 -8.274515E-05 -1.637620E-04 +1.194379E-04 +1.321555E-05 +1.194379E-04 +4.464856E-04 
 +4.651651E-03 +1.793513E-05 +2.279511E-06 +1.793513E-05 -1.141680E-04 +9.953089E-05 +2.279511E-06 +9.953089E-05 +4.671511E-04 
 +4.715856E-03 +1.136193E-04 -5.841475E-05 +1.136193E-04 -7.194995E-05 +8.367949E-05 -5.841475E-05 +8.367949E-05 +3.614607E-04 
 +4.760704E-03 +1.376457E-04 -9.378608E-05 +1.376457E-04 -3.515655E-05 +3.459631E-05 -9.378608E-05 +3.459631E-05 +3.202997E-04 
 +4.776453E-03 +1.725967E-04 -6.889029E-05 +1.725967E-04 +4.738524E-05 +2.278872E-05 -6.889029E-05 +2.278872E-05 +2.746208E-04 
 +4.849857E-03 -1.041420E-04 -1.070333E-04 -1.041420E-04 -2.598165E-05 +9.924265E-05 -1.070333E-04 +9.924265E-05 +2.248385E-04 
 +4.909747E-03 -7.178421E-05 -1.546961E-05 -7.178421E-05 -5.537542E-05 +1.984489E-04 -1.546961E-05 +1.984489E-04 +2.128602E-04 
 +4.917072E-03 -8.102934E-05 -1.855664E-05 -8.102934E-05 -4.977813E-05 +2.150946E-04 -1.855664E-05 +2.150946E-04 +1.740485E-04 
 +5.038468E-03 +9.293835E-05 +7.885419E-05 +9.293835E-05 -9.665520E-05 +2.294100E-04 +7.885419E-05 +2.294100E-04 +1.976890E-04 
 +5.002048E-03 +1.595441E-04 +1.089279E-04 +1.595441E-04 -3.117334E-05 +2.457041E-04 +1.089279E-04 +2.457041E-04 +2.201893E-04 
 +4.963927E-03 +1.489471E-04 +3.839969E-05 +1.489471E-04 +2.306630E-05 +1.692269E-04 +3.839969E-05 +1.692269E-04 +1.477789E-04 
 +4.969721E-03 +1.194054E-04 +1.041564E-05 +1.194054E-04 +6.199065E-05 +1.369663E-04 +1.041564E-05 +1.369663E-04 +1.145683E-04 
 +5.013787E-03 +9.259651E-05 +2.723961E-05 +9.259651E-05 -1.103358E-04 +1.526768E-04 +2.723961E-05 +1.526768E-04 +1.340688E-04 
 +5.141995E-03 +5.470716E-05 +7.272994E-05 +5.470716E-05 -5.200180E-04 +6.757497E-05 +7.272994E-05 +6.757497E-05 +1.631067E-04 
 +5.228698E-03 +7.190477E-05 +7.542438E-05 +7.190477E-05 -6.081207E-04 -5.064744E-05 +7.542438E-05 -5.064744E-05 +1.661231E-04 
 +5.181706E-03 +9.236123E-05 -8.404428E-06 +9.236123E-05 -5.132443E-04 -1.200460E-04 -8.404428E-06 -1.200460E-04 +1.761921E-04 
 +5.166255E-03 +1.009129E-04 -1.802140E-05 +1.009129E-04 -3.588236E-04 -1.071979E-04 -1.802140E-05 -1.071979E-04 +5.266136E-05 
 +5.166289E-03 +1.698541E-05 +9.051391E-06 +1.698541E-05 -8.012024E-05 +1.071981E-05 +9.051391E-06 +1.071981E-05 -2.210191E-04 
 +5.160726E-03 -9.900818E-05 +8.086936E-05 -9.900818E-05 +8.881488E-05 +6.545352E-05 +8.086936E-05 +6.545352E-05 -3.229554E-04 
 +5.169895E-03 -1.620124E-04 +1.302855E-04 -1.620124E-04 +2.448923E-05 +1.258578E-04 +1.302855E-04 +1.258578E-04 -2.562765E-04 
 +5.126870E-03 -1.724977E-04 +9.137833E-05 -1.724977E-04 -2.391225E-04 +2.815017E-04 +9.137833E-05 +2.815017E-04 -1.254907E-04 
 +4.922075E-03 -1.265973E-04 -5.626144E-05 -1.265973E-04 -2.989447E-04 +2.601369E-04 -5.626144E-05 +2.601369E-04 +1.849712E-04 
 +4.588177E-03 -5.245925E-05 -5.579968E-05 -5.245925E-05 -8.480239E-05 +9.074795E-05 -5.579968E-05 +9.074795E-05 +3.963587E-04 
 +4.669754E-03 +4.882497E-05 -4.695206E-05 +4.882497E-05 +2.323266E-06 +4.234771E-06 -4.695206E-05 +4.234771E-06 +3.380697E-04 
 +4.744434E-03 +5.892116E-05 -9.179764E-05 +5.892116E-05 -3.259264E-05 -1.133674E-05 -9.179764E-05 -1.133674E-05 +2.913546E-04 
 +4.806635E-03 +1.242686E-04 -5.359977E-05 +1.242686E-04 +8.327826E-07 +2.089689E-05 -5.359977E-05 +2.089689E-05 +2.681067E-04 
 +4.973164E-03 -2.133742E-04 -1.135862E-04 -2.133742E-04 -9.914922E-05 +7.016880E-05 -1.135862E-04 +7.016880E-05 +1.532807E-04 
 +5.025796E-03 -8.203316E-05 -2.771181E-05 -8.203316E-05 -1.222798E-04 +1.538243E-04 -2.771181E-05 +1.538243E-04 +8.597317E-05 
 +4.963161E-03 -4.172605E-05 +2.898124E-05 -4.172605E-05 +5.166733E-06 +1.916221E-04 +2.898124E-05 +1.916221E-04 +8.398858E-05 
 +4.950303E-03 +4.676785E-05 +7.328945E-05 +4.676785E-05 +3.832981E-05 +2.134527E-04 +7.328945E-05 +2.134527E-04 +1.438037E-04 
 +5.051268E-03 +1.773610E-04 +9.027071E-05 +1.773610E-04 -2.518768E-05 +2.119136E-04 +9.027071E-05 +2.119136E-04 +1.524019E-04 
 +5.044119E-03 +1.746664E-04 +6.472179E-05 +1.746664E-04 +1.748241E-05 +1.429486E-04 +6.472179E-05 +1.429486E-04 +1.016672E-04 
 +5.037160E-03 +1.221211E-04 +7.789113E-05 +1.221211E-04 -3.211753E-05 +6.714599E-05 +7.789113E-05 +6.714599E-05 +8.962048E-05 
 +4.953554E-03 -4.868256E-05 +1.038590E-04 -4.868256E-05 -1.013352E-04 -1.780144E-05 +1.038590E-04 -1.780144E-05 +1.171439E-04 
 +4.986433E-03 -9.452665E-05 +1.408370E-04 -9.452665E-05 -2.142587E-04 -6.323249E-05 +1.408370E-04 -6.323249E-05 +1.151848E-04 
 +5.126428E-03 -1.577134E-06 +2.968742E-06 -1.577134E-06 -5.339441E-04 -1.018203E-04 +2.968742E-06 -1.018203E-04 +7.406653E-05 
 +5.222388E-03 +8.244027E-05 -4.298552E-05 +8.244027E-05 -5.939144E-04 -1.381283E-04 -4.298552E-05 -1.381283E-04 +6.436077E-05 
 +5.181092E-03 +1.266196E-04 -9.616756E-05 +1.266196E-04 -4.743261E-04 -1.517073E-04 -9.616756E-05 -1.517073E-04 +6.228043E-05 
 +5.174065E-03 +7.345797E-05 -3.787037E-05 +7.345797E-05 -4.201134E-04 -8.958338E-05 -3.787037E-05 -8.958338E-05 -4.898129E-06 
 +5.165281E-03 -8.437735E-05 -1.920923E-05 -8.437735E-05 -3.194718E-04 +5.785661E-05 -1.920923E-05 +5.785661E-05 -1.350190E-04 
 +5.172711E-03 -2.303981E-04 +9.256155E-05 -2.303981E-04 -3.221267E-04 +1.766845E-04 +9.256155E-05 +1.766845E-04 -1.854770E-04 
 +5.087507E-03 -1.777066E-04 +8.844669E-05 -1.777066E-04 -2.810820E-04 +1.347914E-04 +8.844669E-05 +1.347914E-04 -1.305151E-04 
 +4.858101E-03 -1.345744E-05 -1.341288E-04 -1.345744E-05 -8.836823E-05 -3.290874E-05 -1.341288E-04 -3.290874E-05 +1.081287E-04 
 +4.644731E-03 -9.193692E-06 -7.509082E-05 -9.193692E-06 +5.157634E-05 -1.288390E-05 -7.509082E-05 -1.288390E-05 +3.412599E-04 
 +4.631120E-03 +2.785663E-05 -1.658681E-05 +2.785663E-05 +9.301656E-05 +3.484967E-05 -1.658681E-05 +3.484967E-05 +2.996729E-04 
 +4.707914E-03 +1.278161E-05 -7.393671E-05 +1.278161E-05 +7.376174E-05 -4.182926E-06 -7.393671E-05 -4.182926E-06 +2.487194E-04 
 +4.781836E-03 +1.050731E-04 -2.375255E-05 +1.050731E-04 -3.432012E-06 +1.047534E-05 -2.375255E-05 +1.047534E-05 +2.405897E-04 
 +5.084269E-03 -1.934129E-04 -7.128567E-05 -1.934129E-04 -1.744617E-04 +5.965520E-05 -7.128567E-05 +5.965520E-05 +1.012407E-04 
 +5.096383E-03 -5.011919E-05 -8.037221E-05 -5.011919E-05 -2.033063E-04 +1.156063E-04 -8.037221E-05 +1.156063E-04 +9.105134E-05 
 +5.007772E-03 +2.195035E-05 +2.729768E-06 +2.195035E-05 -7.915217E-05 +1.496688E-04 +2.729768E-06 +1.496688E-04 +9.257671E-05 
 +4.883270E-03 +3.233543E-06 +1.014276E-05 +3.233543E-06 +9.069228E-05 +1.645073E-04 +1.014276E-05 +1.645073E-04 +5.345027E-05 
 +5.114146E-03 +1.621986E-04 +7.741520E-05 +1.621986E-04 +8.658042E-05 +1.369397E-04 +7.741520E-05 +1.369397E-04 -3.468107E-05 
 +5.131369E-03 +1.444673E-04 +1.074200E-04 +1.444673E-04 -3.746974E-06 +3.064929E-05 +1.074200E-04 +3.064929E-05 -1.017985E-05 
 +5.005999E-03 -1.225963E-05 +1.264324E-04 -1.225963E-05 -9.194498E-05 -7.717799E-05 +1.264324E-04 -7.717799E-05 +5.304214E-05 
 +4.977692E-03 -5.620221E-05 +1.385944E-04 -5.620221E-05 -1.124866E-04 -8.570575E-05 +1.385944E-04 -8.570575E-05 +3.926929E-05 
 +4.921279E-03 -9.167377E-05 +1.327154E-04 -9.167377E-05 +1.645796E-06 -7.418159E-05 +1.327154E-04 -7.418159E-05 +2.662412E-05 
 +4.905989E-03 -1.362864E-04 -5.986264E-05 -1.362864E-04 -5.808365E-05 -4.826993E-05 -5.986264E-05 -4.826993E-05 +8.674220E-05 
 +5.179010E-03 +1.795443E-05 -4.194241E-05 +1.795443E-05 -4.462903E-04 -9.459484E-05 -4.194241E-05 -9.459484E-05 +8.669694E-05 
 +5.253730E-03 +1.133845E-04 -9.178191E-05 +1.133845E-04 -5.832730E-04 -2.054629E-04 -9.178191E-05 -2.054629E-04 +4.878147E-05 
 +5.219628E-03 +7.914931E-05 -7.772245E-05 +7.914931E-05 -5.099565E-04 -2.371013E-04 -7.772245E-05 -2.371013E-04 +1.047192E-04 
 +5.246997E-03 -1.236828E-05 -6.786494E-05 -1.236828E-05 -4.819966E-04 -1.134080E-04 -6.786494E-05 -1.134080E-04 +2.156561E-05 
 +5.188268E-03 -1.346944E-04 -6.772773E-06 -1.346944E-04 -2.887657E-04 +2.671800E-05 -6.772773E-06 +2.671800E-05 -1.183146E-04 
 +5.038509E-03 -6.474549E-05 -1.048715E-04 -6.474549E-05 -3.441696E-05 -3.388682E-05 -1.048715E-04 -3.388682E-05 -2.482158E-05 
 +4.727923E-03 +5.160654E-05 -1.719655E-04 +5.160654E-05 +8.733346E-05 -1.825167E-05 -1.719655E-04 -1.825167E-05 +2.192608E-04 
 +4.677627E-03 +1.795157E-05 -4.137282E-05 +1.795157E-05 +1.315300E-04 +7.919111E-05 -4.137282E-05 +7.919111E-05 +3.271434E-04 
 +4.618891E-03 +2.740682E-05 -1.641583E-05 +2.740682E-05 +1.876081E-04 +6.180420E-05 -1.641583E-05 +6.180420E-05 +2.205129E-04 
 +4.653252E-03 -2.667292E-05 -6.208471E-05 -2.667292E-05 +1.641390E-04 +6.156694E-05 -6.208471E-05 +6.156694E-05 +1.567315E-04 
 +4.806134E-03 +2.031233E-05 -1.762630E-05 +2.031233E-05 -1.619829E-05 +5.283558E-05 -1.762630E-05 +5.283558E-05 +1.361024E-04 
 +5.090225E-03 -1.138278E-04 +1.689864E-05 -1.138278E-04 -1.629203E-04 +1.267409E-04 +1.689864E-05 +1.267409E-04 -6.406685E-06 
 +5.021864E-03 -7.403184E-05 -1.010678E-04 -7.403184E-05 -1.334235E-04 +8.342884E-05 -1.010678E-04 +8.342884E-05 +7.129621E-06 
 +4.986722E-03 +5.829722E-05 -1.051627E-04 +5.829722E-05 -9.850350E-05 +4.506541E-05 -1.051627E-04 +4.506541E-05 +8.628326E-05 
 +4.986489E-03 +5.520259E-05 +1.219650E-05 +5.520259E-05 +4.633566E-05 +1.117262E-04 +1.219650E-05 +1.117262E-04 +3.871256E-05 
 +5.124800E-03 +8.514307E-05 +8.563236E-05 +8.514307E-05 +2.865714E-05 +7.880783E-05 +8.563236E-05 +7.880783E-05 -2.388639E-05 
 +5.107962E-03 +5.444795E-05 +1.297101E-04 +5.444795E-05 -1.353202E-04 -4.664972E-05 +1.297101E-04 -4.664972E-05 -8.270959E-06 
 +5.021021E-03 -3.346471E-05 +2.081552E-04 -3.346471E-05 -1.106231E-04 -5.759595E-05 +2.081552E-04 -5.759595E-05 +8.049730E-06 
 +5.018756E-03 -7.795942E-05 +2.029185E-04 -7.795942E-05 -1.836161E-05 +1.076237E-05 +2.029185E-04 +1.076237E-05 -1.493882E-05 
 +4.912943E-03 -1.097738E-04 +7.183671E-05 -1.097738E-04 -7.957548E-06 +6.461638E-05 +7.183671E-05 +6.461638E-05 -4.089028E-06 
 +4.845655E-03 -1.501587E-04 -4.983559E-05 -1.501587E-04 +2.758478E-05 +6.645629E-05 -4.983559E-05 +6.645629E-05 +5.945798E-05 
 +5.004093E-03 -8.413342E-05 -2.594585E-05 -8.413342E-05 -8.787241E-05 +2.958799E-05 -2.594585E-05 +2.958799E-05 +7.442485E-05 
 +5.249407E-03 +1.196961E-04 -4.208938E-05 +1.196961E-04 -4.219960E-04 -9.451225E-05 -4.208938E-05 -9.451225E-05 +8.176437E-05 
 +5.282772E-03 +4.699276E-05 -1.055510E-04 +4.699276E-05 -5.631884E-04 -2.389823E-04 -1.055510E-04 -2.389823E-04 +8.547870E-05 
 +5.278812E-03 -7.278666E-05 -8.305857E-05 -7.278666E-05 -5.314020E-04 -1.575899E-04 -8.305857E-05 -1.575899E-04 +1.094076E-05 
 +5.226226E-03 -8.544388E-05 -1.301567E-04 -8.544388E-05 -3.241697E-04 -1.587278E-05 -1.301567E-04 -1.587278E-05 -8.693105E-05 
 +5.059909E-03 -3.805933E-06 -2.329468E-04 -3.805933E-06 -2.354062E-05 -9.611922E-05 -2.329468E-04 -9.611922E-05 +4.961470E-05 
 +4.670924E-03 +1.190864E-04 -1.511427E-04 +1.190864E-04 +1.295098E-04 -6.699651E-05 -1.511427E-04 -6.699651E-05 +3.008247E-04 
 +4.586847E-03 +5.893038E-05 -7.548510E-05 +5.893038E-05 +1.857429E-04 +8.313406E-05 -7.548510E-05 +8.313406E-05 +3.103026E-04 
 +4.667483E-03 +4.327759E-05 -5.828982E-05 +4.327759E-05 +1.957680E-04 +4.677024E-05 -5.828982E-05 +4.677024E-05 +1.690785E-04 
 +4.745524E-03 +2.566364E-05 -5.851964E-05 +2.566364E-05 +1.702674E-04 -4.029830E-06 -5.851964E-05 -4.029830E-06 +1.324326E-04 
 +4.849692E-03 +3.425561E-05 +6.127079E-05 +3.425561E-05 -3.005223E-05 +6.219360E-05 +6.127079E-05 +6.219360E-05 +1.021554E-04 
 +4.975537E-03 -1.208812E-04 +5.918275E-05 -1.208812E-04 -8.120906E-05 +2.832442E-04 +5.918275E-05 +2.832442E-04 -9.298925E-05 
 +4.938301E-03 -2.723334E-05 -7.021980E-05 -2.723334E-05 +2.374894E-06 +2.919315E-04 -7.021980E-05 +2.919315E-04 -8.883028E-05 
 +4.893232E-03 -2.164552E-05 -1.952707E-04 -2.164552E-05 -9.890620E-05 +1.662281E-04 -1.952707E-04 +1.662281E-04 +3.773751E-05 
 +5.104540E-03 +6.147301E-05 +1.920141E-05 +6.147301E-05 -2.559957E-04 -2.606884E-05 +1.920141E-05 -2.606884E-05 +1.249867E-05 
 +5.138603E-03 -1.379520E-05 +1.198939E-04 -1.379520E-05 -1.393039E-04 -1.926324E-04 +1.198939E-04 -1.926324E-04 +2.329752E-05 
 +5.072461E-03 -2.155479E-05 +1.657401E-04 -2.155479E-05 -1.013669E-04 -1.498008E-04 +1.657401E-04 -1.498008E-04 +8.675203E-05 
 +5.072406E-03 +7.429757E-06 +2.025340E-04 +7.429757E-06 -6.684270E-05 -4.287486E-05 +2.025340E-04 -4.287486E-05 +5.747967E-05 
 +5.029778E-03 -1.004111E-04 +2.000767E-04 -1.004111E-04 -2.209961E-05 -7.634910E-05 +2.000767E-04 -7.634910E-05 +2.453444E-05 
 +4.990864E-03 -9.880957E-05 +1.528479E-04 -9.880957E-05 -6.447378E-05 -6.413079E-05 +1.528479E-04 -6.413079E-05 -4.228632E-06 
 +4.914371E-03 -9.202104E-05 -2.794205E-05 -9.202104E-05 -7.785203E-05 +5.455476E-06 -2.794205E-05 +5.455476E-06 +3.489753E-05 
 +4.948119E-03 -3.842751E-05 +3.871953E-05 -3.842751E-05 -2.262518E-05 -1.953709E-05 +3.871953E-05 -1.953709E-05 +2.977275E-05 
 +5.058219E-03 +8.230297E-05 -4.446553E-06 +8.230297E-05 -1.119547E-04 -1.052319E-04 -4.446553E-06 -1.052319E-04 -1.823070E-05 
 +5.206676E-03 +3.766238E-05 -8.851537E-05 +3.766238E-05 -3.734639E-04 -9.129816E-05 -8.851537E-05 -9.129816E-05 -7.041755E-05 
 +5.202513E-03 -4.567032E-05 -6.660324E-05 -4.567032E-05 -3.665116E-04 +8.235294E-05 -6.660324E-05 +8.235294E-05 -1.921851E-04 
 +5.196975E-03 -8.480264E-05 -1.810742E-04 -8.480264E-05 -2.703357E-04 +2.236498E-04 -1.810742E-04 +2.236498E-04 -2.342436E-04 
 +5.163590E-03 -6.598598E-05 -2.374153E-04 -6.598598E-05 -1.978402E-04 +2.217618E-04 -2.374153E-04 +2.217618E-04 -4.765514E-05 
 +4.778294E-03 +1.086851E-04 -1.931196E-04 +1.086851E-04 +5.509273E-05 +1.233503E-04 -1.931196E-04 +1.233503E-04 +1.767388E-04 
 +4.588136E-03 +9.241087E-05 -8.330851E-05 +9.241087E-05 +2.275864E-04 +5.598446E-05 -8.330851E-05 +5.598446E-05 +2.145916E-04 
 +4.666207E-03 +5.332839E-05 -4.580363E-05 +5.332839E-05 +1.196790E-04 +1.352291E-04 -4.580363E-05 +1.352291E-04 +1.588398E-04 
 +4.887000E-03 -4.957020E-05 -9.046063E-06 -4.957020E-05 -7.378512E-05 +2.898872E-04 -9.046063E-06 +2.898872E-04 +1.254388E-04 
 +4.912338E-03 -9.510618E-05 +6.416039E-05 -9.510618E-05 -1.110814E-04 +2.972862E-04 +6.416039E-05 +2.972862E-04 +5.892439E-05 
 +5.092292E-03 -4.090574E-05 -3.980416E-05 -4.090574E-05 -1.221574E-04 +2.782859E-04 -3.980416E-05 +2.782859E-04 -1.552893E-04 
 +5.044256E-03 +8.498119E-05 -1.785071E-04 +8.498119E-05 -1.020726E-04 +5.297622E-05 -1.785071E-04 +5.297622E-05 -1.887483E-04 
 +5.026502E-03 +5.801434E-05 -1.461405E-04 +5.801434E-05 -5.730663E-05 -6.435400E-05 -1.461405E-04 -6.435400E-05 -1.473021E-04 
 +5.062740E-03 +9.622582E-05 -1.350776E-05 +9.622582E-05 -5.518073E-05 +4.352078E-05 -1.350776E-05 +4.352078E-05 -6.662157E-05 
 +5.143870E-03 -5.621586E-05 +1.676635E-04 -5.621586E-05 -2.288620E-04 +1.029434E-04 +1.676635E-04 +1.029434E-04 +8.028237E-06 
 +5.073097E-03 +6.400904E-06 +2.096745E-04 +6.400904E-06 -2.746519E-04 +5.950032E-05 +2.096745E-04 +5.950032E-05 +1.064077E-04 
 +5.027139E-03 +1.123290E-04 +1.503275E-04 +1.123290E-04 -2.361245E-04 +2.641337E-05 +1.503275E-04 +2.641337E-05 +1.279275E-04 
 +5.012715E-03 -2.561457E-05 +1.661992E-04 -2.561457E-05 -1.520265E-04 -5.409640E-05 +1.661992E-04 -5.409640E-05 +6.850951E-05 
 +4.985694E-03 -1.000214E-04 +1.652189E-04 -1.000214E-04 -8.082829E-05 -1.400317E-04 +1.652189E-04 -1.400317E-04 +5.939603E-06 
 +4.983004E-03 -9.172218E-05 +1.507550E-04 -9.172218E-05 -7.835875E-05 -1.212070E-04 +1.507550E-04 -1.212070E-04 -7.861154E-05 
 +4.945652E-03 -4.728886E-05 +1.074284E-04 -4.728886E-05 +2.461332E-05 -6.524709E-05 +1.074284E-04 -6.524709E-05 -1.051178E-04 
 +4.951329E-03 -5.475294E-05 +4.416567E-05 -5.475294E-05 +1.983868E-04 -4.066616E-05 +4.416567E-05 -4.066616E-05 -9.352154E-05 
 +4.985021E-03 +7.382658E-05 -9.058758E-05 +7.382658E-05 +2.581498E-04 -9.071485E-05 -9.058758E-05 -9.071485E-05 -3.512706E-05 
 +4.883756E-03 +1.002324E-04 -9.944305E-05 +1.002324E-04 +1.628785E-04 -1.906980E-04 -9.944305E-05 -1.906980E-04 +9.784162E-05 
 +4.874271E-03 -5.524683E-05 -2.066351E-04 -5.524683E-05 +7.978695E-05 -1.965097E-04 -2.066351E-04 -1.965097E-04 +1.336115E-05 
 +5.101989E-03 -1.982077E-05 -1.337962E-04 -1.982077E-05 +8.356291E-05 -8.605283E-05 -1.337962E-04 -8.605283E-05 -1.632108E-04 
 +4.924358E-03 +9.664639E-05 -1.196624E-04 +9.664639E-05 +8.652334E-05 +8.213537E-05 -1.196624E-04 +8.213537E-05 -1.110664E-04 
 +4.835775E-03 +5.707587E-05 -3.755733E-06 +5.707587E-05 +1.343023E-05 +2.847810E-04 -3.755733E-06 +2.847810E-04 -8.760635E-05 
 +4.882952E-03 -2.073856E-05 +6.189876E-06 -2.073856E-05 -5.773095E-06 +3.322858E-04 +6.189876E-06 +3.322858E-04 -5.875834E-05 
 +4.904132E-03 -4.712935E-05 -2.470352E-05 -4.712935E-05 +2.577197E-06 +2.687303E-04 -2.470352E-05 +2.687303E-04 +1.904811E-05 
 +4.997672E-03 -9.907657E-05 +1.505492E-05 -9.907657E-05 -9.880185E-05 +3.062108E-04 +1.505492E-05 +3.062108E-04 -5.226590E-05 
 +5.080360E-03 -1.588133E-05 -1.923710E-04 -1.588133E-05 -6.534590E-05 -2.913532E-06 -1.923710E-04 -2.913532E-06 -2.409728E-04 
 +5.083862E-03 +5.052822E-06 -2.221949E-04 +5.052822E-06 -7.877423E-05 -7.860042E-05 -2.221949E-04 -7.860042E-05 -1.477332E-04 
 +4.989179E-03 +2.882013E-05 -1.504680E-04 +2.882013E-05 -8.313023E-05 -6.056254E-05 -1.504680E-04 -6.056254E-05 -8.393422E-05 
 +5.023198E-03 -1.685446E-05 +6.089130E-05 -1.685446E-05 -1.880699E-04 -1.032771E-05 +6.089130E-05 -1.032771E-05 -2.125433E-05 
 +5.065831E-03 -3.738740E-05 +1.275680E-04 -3.738740E-05 -2.724210E-04 +5.744351E-05 +1.275680E-04 +5.744351E-05 +5.582335E-06 
 +5.051622E-03 +3.054378E-05 +9.364956E-05 +3.054378E-05 -2.635743E-04 +6.854201E-05 +9.364956E-05 +6.854201E-05 +9.629239E-06 
 +5.058748E-03 +7.852890E-05 +8.428245E-05 +7.852890E-05 -3.160732E-04 +6.192849E-05 +8.428245E-05 +6.192849E-05 +2.961728E-05 
 +5.046420E-03 +1.321205E-05 +3.240185E-05 +1.321205E-05 -2.565934E-04 -1.135758E-05 +3.240185E-05 -1.135758E-05 +1.813160E-05 
 +5.018712E-03 -1.324072E-04 +4.031095E-05 -1.324072E-04 -8.311723E-05 -5.308658E-05 +4.031095E-05 -5.308658E-05 -2.454980E-05 
 +5.017538E-03 -1.212494E-04 +1.195526E-04 -1.212494E-04 +2.948260E-05 +2.363032E-05 +1.195526E-04 +2.363032E-05 -8.910392E-05 
 +4.894097E-03 -2.482422E-05 +4.845558E-05 -2.482422E-05 +1.060036E-04 +2.453815E-05 +4.845558E-05 +2.453815E-05 -1.047320E-04 
 +4.900192E-03 -8.287431E-05 +3.448811E-06 -8.287431E-05 +1.776692E-04 -5.092882E-05 +3.448811E-06 -5.092882E-05 -1.359613E-04 
 +4.873786E-03 -2.942136E-05 -1.024030E-04 -2.942136E-05 +2.034955E-04 -6.392089E-05 -1.024030E-04 -6.392089E-05 -1.012972E-04 
 +4.837866E-03 +5.460683E-05 -1.305403E-04 +5.460683E-05 +1.799524E-04 -6.974613E-05 -1.305403E-04 -6.974613E-05 +4.636582E-05 
 +4.824349E-03 +4.512196E-05 -1.661821E-04 +4.512196E-05 +1.508120E-04 -5.489636E-05 -1.661821E-04 -5.489636E-05 -3.046729E-05 
 +5.087427E-03 +1.427326E-04 -8.928831E-05 +1.427326E-04 +1.152373E-04 +2.030447E-05 -8.928831E-05 +2.030447E-05 -2.286200E-04 
 +5.045572E-03 +2.102523E-04 -6.226313E-05 +2.102523E-04 +2.301146E-05 +2.156561E-05 -6.226313E-05 +2.156561E-05 -2.169288E-04 
 +4.966938E-03 +8.811051E-05 +9.768028E-05 +8.811051E-05 -5.494365E-05 -4.744067E-05 +9.768028E-05 -4.744067E-05 -1.245234E-04 
 +4.907602E-03 -1.438845E-05 +7.664133E-05 -1.438845E-05 -3.502514E-05 -1.152634E-04 +7.664133E-05 -1.152634E-04 -1.084169E-04 
 +4.921042E-03 -6.302465E-05 +4.845933E-05 -6.302465E-05 +1.152724E-05 -5.666113E-05 +4.845933E-05 -5.666113E-05 -1.216642E-04 
 +5.043871E-03 -1.374950E-04 +5.132984E-06 -1.374950E-04 -2.908000E-05 +6.511553E-05 +5.132984E-06 +6.511553E-05 -2.130066E-04 
 +5.072314E-03 -6.713381E-05 -2.211073E-04 -6.713381E-05 -1.143090E-04 -5.061391E-05 -2.211073E-04 -5.061391E-05 -2.274876E-04 
 +5.054372E-03 -1.070115E-05 -1.390521E-04 -1.070115E-05 -1.722311E-04 -7.200609E-05 -1.390521E-04 -7.200609E-05 -1.929305E-04 
 +5.031349E-03 +1.886927E-05 -2.641451E-05 +1.886927E-05 -2.441089E-04 -9.562842E-05 -2.641451E-05 -9.562842E-05 -7.646423E-05 
 +5.027077E-03 -6.106115E-05 +1.093559E-04 -6.106115E-05 -3.286893E-04 -2.242281E-05 +1.093559E-04 -2.242281E-05 +1.999821E-05 
 +4.987847E-03 -1.771892E-05 +8.028503E-05 -1.771892E-05 -2.897466E-04 +4.424122E-05 +8.028503E-05 +4.424122E-05 +3.921430E-05 
 +5.009424E-03 +5.082605E-06 +3.936499E-05 +5.082605E-06 -2.760336E-04 +6.308285E-05 +3.936499E-05 +6.308285E-05 +3.200920E-05 
 +5.018435E-03 +4.378766E-05 +2.449174E-05 +4.378766E-05 -3.246571E-04 +6.427952E-05 +2.449174E-05 +6.427952E-05 +2.957086E-05 
 +5.036443E-03 +1.926128E-05 -2.289720E-05 +1.926128E-05 -3.421506E-04 +6.832114E-05 -2.289720E-05 +6.832114E-05 +3.331935E-05 
 +5.073270E-03 -6.947700E-05 -3.345337E-06 -6.947700E-05 -2.387653E-04 +4.118504E-05 -3.345337E-06 +4.118504E-05 +4.523401E-05 
 +4.999819E-03 -9.989551E-05 +5.593024E-05 -9.989551E-05 +1.914665E-06 -1.078667E-05 +5.593024E-05 -1.078667E-05 +7.809275E-06 
 +4.872571E-03 -8.072439E-05 +3.477949E-05 -8.072439E-05 +1.392491E-04 -2.219634E-05 +3.477949E-05 -2.219634E-05 -2.161232E-05 
 +4.832445E-03 -7.792822E-05 +3.015725E-05 -7.792822E-05 +1.943062E-04 +4.213369E-05 +3.015725E-05 +4.213369E-05 -8.215595E-05 
 +4.872445E-03 -7.259413E-06 -2.098033E-05 -7.259413E-06 +2.531383E-04 +9.755358E-05 -2.098033E-05 +9.755358E-05 -1.877908E-04 
 +4.913895E-03 +6.221922E-05 -3.442102E-05 +6.221922E-05 +2.110646E-04 +9.238074E-05 -3.442102E-05 +9.238074E-05 -2.387622E-04 
 +4.936599E-03 +1.212947E-04 -3.179380E-05 +1.212947E-04 +1.674443E-04 +6.989450E-05 -3.179380E-05 +6.989450E-05 -2.854473E-04 
 +5.048394E-03 +1.881544E-04 -2.157890E-05 +1.881544E-04 +1.201076E-04 +6.932790E-05 -2.157890E-05 +6.932790E-05 -2.893048E-04 
 +5.090997E-03 +2.185769E-04 -8.239769E-05 +2.185769E-04 +4.027492E-05 +6.569424E-05 -8.239769E-05 +6.569424E-05 -2.512076E-04 
 +4.984548E-03 +1.288110E-04 +8.968704E-05 +1.288110E-04 +2.494589E-05 -2.166065E-05 +8.968704E-05 -2.166065E-05 -1.137215E-04 
 +4.913601E-03 +6.168350E-05 +1.285467E-04 +6.168350E-05 +2.488059E-06 -9.132285E-05 +1.285467E-04 -9.132285E-05 -2.552540E-05 
 +4.944957E-03 -3.870158E-05 +7.196288E-05 -3.870158E-05 -8.356702E-05 -1.253159E-04 +7.196288E-05 -1.253159E-04 -9.037754E-05 
 +5.017460E-03 -1.565011E-04 -2.502990E-05 -1.565011E-04 -8.808366E-05 -1.284666E-04 -2.502990E-05 -1.284666E-04 -1.703130E-04 
 +5.085317E-03 -4.833783E-05 -1.285102E-04 -4.833783E-05 -3.095755E-04 -5.015615E-05 -1.285102E-04 -5.015615E-05 -4.310354E-05 
 +4.972305E-03 +7.817810E-06 -7.887628E-05 +7.817810E-06 -3.933484E-04 -4.646485E-05 -7.887628E-05 -4.646485E-05 -8.114421E-05 
 +4.988840E-03 -1.158416E-04 +9.233866E-05 -1.158416E-04 -5.138693E-04 -2.231944E-05 +9.233866E-05 -2.231944E-05 +2.905050E-05 
 +5.002231E-03 -1.036341E-04 +1.127020E-04 -1.036341E-04 -4.367657E-04 +2.276314E-05 +1.127020E-04 +2.276314E-05 +6.664498E-05 
 +4.973664E-03 -5.835601E-05 +8.665769E-05 -5.835601E-05 -3.016307E-04 +4.728295E-05 +8.665769E-05 +4.728295E-05 +5.265349E-05 
 +4.976851E-03 -3.497512E-05 +4.515995E-05 -3.497512E-05 -2.752524E-04 +5.534533E-05 +4.515995E-05 +5.534533E-05 +2.379156E-05 
 +4.979917E-03 +1.164093E-05 -2.707167E-05 +1.164093E-05 -2.395683E-04 +6.255901E-05 -2.707167E-05 +6.255901E-05 +1.006259E-05 
 +5.006898E-03 +3.496409E-05 -2.451033E-05 +3.496409E-05 -1.972668E-04 +1.278594E-04 -2.451033E-05 +1.278594E-04 +3.309391E-06 
 +5.089027E-03 -2.133688E-05 +8.685749E-06 -2.133688E-05 -7.856210E-05 +2.196427E-04 +8.685749E-06 +2.196427E-04 +4.951323E-06 
 +4.991006E-03 -4.420836E-05 -2.517370E-06 -4.420836E-05 +2.529123E-05 +2.677898E-04 -2.517370E-06 +2.677898E-04 -5.157945E-06 
 +4.919344E-03 -1.549549E-05 -3.643062E-05 -1.549549E-05 +1.210690E-04 +2.177783E-04 -3.643062E-05 +2.177783E-04 -5.113834E-05 
 +4.863751E-03 +3.614000E-05 -4.583499E-06 +3.614000E-05 +2.255737E-04 +1.164002E-04 -4.583499E-06 +1.164002E-04 -1.341859E-04 
 +4.899112E-03 +6.427484E-05 +3.477983E-05 +6.427484E-05 +2.427055E-04 +9.794558E-05 +3.477983E-05 +9.794558E-05 -2.326208E-04 
 +4.961726E-03 +8.982006E-05 +3.562938E-05 +8.982006E-05 +2.165835E-04 +1.279327E-04 +3.562938E-05 +1.279327E-04 -3.097473E-04 
 +4.997649E-03 +8.589279E-05 +4.036369E-05 +8.589279E-05 +1.728364E-04 +1.199554E-04 +4.036369E-05 +1.199554E-04 -3.481056E-04 
 +5.049276E-03 +1.237767E-04 +4.262223E-05 +1.237767E-04 +1.252297E-04 +8.201370E-05 +4.262223E-05 +8.201370E-05 -3.365207E-04 
 +5.080863E-03 +2.029871E-04 -4.414106E-06 +2.029871E-04 +1.301706E-04 +1.451437E-04 -4.414106E-06 +1.451437E-04 -3.504312E-04 
 +5.042456E-03 +1.325142E-04 +7.965447E-05 +1.325142E-04 +1.494506E-04 +1.969617E-04 +7.965447E-05 +1.969617E-04 -2.940149E-04 
 +4.975742E-03 +1.061822E-05 +9.689879E-05 +1.061822E-05 +6.850710E-05 +8.835194E-05 +9.689879E-05 +8.835194E-05 -9.843878E-05 
 +4.912103E-03 -4.887806E-05 -1.792122E-05 -4.887806E-05 -6.809827E-05 -1.464336E-05 -1.792122E-05 -1.464336E-05 +6.329812E-05 
 +4.970253E-03 -1.114855E-04 -2.259536E-05 -1.114855E-04 -2.004040E-04 -5.326848E-05 -2.259536E-05 -5.326848E-05 +9.483602E-05 
 +4.983378E-03 -8.690156E-05 -3.468617E-05 -8.690156E-05 +2.447272E-05 -9.869641E-05 -3.468617E-05 -9.869641E-05 +3.045523E-05 
 +4.872252E-03 -1.209694E-04 +1.012441E-06 -1.209694E-04 +2.756158E-05 -6.746093E-05 +1.012441E-06 -6.746093E-05 +1.406098E-05 
 +4.861145E-03 -2.283735E-04 +7.636176E-05 -2.283735E-04 -1.007728E-04 -2.321768E-05 +7.636176E-05 -2.321768E-05 +6.889594E-05 
 +4.972841E-03 -1.224213E-04 +9.551251E-05 -1.224213E-04 -3.210082E-04 +2.172337E-05 +9.551251E-05 +2.172337E-05 +7.456630E-05 
 +4.997268E-03 -7.889952E-05 +8.311007E-05 -7.889952E-05 -3.522752E-04 +4.596886E-05 +8.311007E-05 +4.596886E-05 +4.764059E-05 
 +4.987417E-03 -4.328735E-05 +6.659734E-05 -4.328735E-05 -2.289057E-04 +3.465793E-05 +6.659734E-05 +3.465793E-05 +3.822754E-07 
 +4.930009E-03 +7.896970E-06 +8.841842E-06 +7.896970E-06 -1.238890E-04 +1.155520E-04 +8.841842E-06 +1.155520E-04 -7.622294E-05 
 +5.015880E-03 +3.934500E-05 -5.418744E-06 +3.934500E-05 +1.477298E-05 +2.571934E-04 -5.418744E-06 +2.571934E-04 -1.651318E-04 
 +5.097717E-03 +1.521350E-06 +2.391346E-05 +1.521350E-06 +3.500472E-05 +2.768456E-04 +2.391346E-05 +2.768456E-04 -1.890155E-04 
 +5.044503E-03 +7.161874E-06 -2.475418E-05 +7.161874E-06 +3.489356E-05 +2.293787E-04 -2.475418E-05 +2.293787E-04 -1.339502E-04 
 +4.969922E-03 +2.142690E-05 -1.127068E-04 +2.142690E-05 +9.521997E-05 +2.378757E-04 -1.127068E-04 +2.378757E-04 -7.400446E-05 
 +4.934872E-03 +4.054387E-05 -5.655401E-05 +4.054387E-05 +1.333104E-04 +2.619108E-04 -5.655401E-05 +2.619108E-04 -1.190531E-04 
 +4.923422E-03 +5.816600E-05 +5.037054E-05 +5.816600E-05 +1.876918E-04 +1.939682E-04 +5.037054E-05 +1.939682E-04 -2.098952E-04 
 +4.983457E-03 +6.786390E-05 +8.004333E-05 +6.786390E-05 +1.947933E-04 +1.196800E-04 +8.004333E-05 +1.196800E-04 -2.626102E-04 
 +5.002079E-03 +8.430817E-05 +9.946460E-05 +8.430817E-05 +1.450537E-04 +9.482186E-05 +9.946460E-05 +9.482186E-05 -2.517957E-04 
 +4.953917E-03 +8.652875E-05 +9.411309E-05 +8.652875E-05 +1.277532E-04 +1.170760E-04 +9.411309E-05 +1.170760E-04 -2.355671E-04 
 +5.070612E-03 +1.052566E-04 +1.054307E-04 +1.052566E-04 +1.343956E-04 +2.323055E-04 +1.054307E-04 +2.323055E-04 -3.051330E-04 
 +5.205295E-03 +3.750816E-05 +8.677643E-05 +3.750816E-05 +6.004163E-05 +2.305169E-04 +8.677643E-05 +2.305169E-04 -3.464169E-04 
 +5.096660E-03 -1.511453E-05 +1.566527E-06 -1.511453E-05 -2.169847E-06 +9.047894E-05 +1.566527E-06 +9.047894E-05 -9.297449E-05 
 +4.915301E-03 -5.240131E-05 -4.304304E-05 -5.240131E-05 +7.261944E-06 +4.416525E-05 -4.304304E-05 +4.416525E-05 +1.913220E-04 
 +4.920363E-03 -1.364157E-04 -1.342305E-05 -1.364157E-04 -7.860954E-06 -2.684157E-05 -1.342305E-05 -2.684157E-05 +1.736142E-04 
 +4.859081E-03 -9.713639E-05 +2.099990E-06 -9.713639E-05 +1.287078E-04 -6.461990E-05 +2.099990E-06 -6.461990E-05 +6.891770E-05 
 +4.833303E-03 -1.109900E-04 +7.399583E-06 -1.109900E-04 +1.017608E-04 -2.619456E-05 +7.399583E-06 -2.619456E-05 +7.157880E-05 
 +4.811691E-03 -1.810777E-04 -5.464204E-06 -1.810777E-04 +1.635213E-04 -3.002537E-05 -5.464204E-06 -3.002537E-05 +6.781176E-05 
 +4.816147E-03 -1.982605E-04 +1.763659E-05 -1.982605E-04 +1.695579E-04 -2.818464E-05 +1.763659E-05 -2.818464E-05 +4.267772E-05 
 +4.935311E-03 -1.863922E-04 +2.441580E-05 -1.863922E-04 -1.240371E-04 -2.659427E-05 +2.441580E-05 -2.659427E-05 -3.823212E-05 
 +5.034554E-03 -7.553608E-05 +7.469128E-05 -7.553608E-05 -2.481296E-04 +2.072131E-05 +7.469128E-05 +2.072131E-05 -9.553069E-05 
 +4.876278E-03 +1.925331E-05 +1.385405E-04 +1.925331E-05 -5.736147E-05 +1.626910E-04 +1.385405E-04 +1.626910E-04 -1.906851E-04 
 +5.075708E-03 +1.654112E-07 +4.194889E-05 +1.654112E-07 -8.732877E-06 +2.846713E-04 +4.194889E-05 +2.846713E-04 -2.989800E-04 
 +5.178544E-03 -3.780504E-05 +3.460720E-05 -3.780504E-05 -1.775057E-05 +2.558474E-04 +3.460720E-05 +2.558474E-04 -2.390492E-04 
 +5.101696E-03 +2.041973E-05 -2.711460E-05 +2.041973E-05 +2.879250E-05 +2.146658E-04 -2.711460E-05 +2.146658E-04 -1.468139E-04 
 +5.017053E-03 +6.396135E-05 -7.604214E-05 +6.396135E-05 +7.830196E-05 +2.268193E-04 -7.604214E-05 +2.268193E-04 -6.323766E-05 
 +5.001907E-03 +7.270669E-05 -3.046026E-05 +7.270669E-05 +1.146436E-04 +1.990780E-04 -3.046026E-05 +1.990780E-04 -5.924447E-05 
 +5.022634E-03 +1.299425E-04 +5.791335E-05 +1.299425E-04 +1.149307E-04 +1.304649E-04 +5.791335E-05 +1.304649E-04 -1.182209E-04 
 +4.932500E-03 +9.526382E-05 +1.304374E-04 +9.526382E-05 +1.178099E-04 +1.051092E-04 +1.304374E-04 +1.051092E-04 -1.262309E-04 
 +4.943215E-03 +2.522417E-05 +1.469521E-04 +2.522417E-05 +1.331721E-04 +1.103690E-04 +1.469521E-04 +1.103690E-04 -1.060099E-04 
 +4.780136E-03 +2.012866E-06 +7.885174E-05 +2.012866E-06 +1.107123E-04 +5.787491E-05 +7.885174E-05 +5.787491E-05 -6.123070E-05 
 +5.032861E-03 -1.508829E-05 +7.760916E-05 -1.508829E-05 -7.948477E-05 -1.123712E-04 +7.760916E-05 -1.123712E-04 -1.475815E-04 
 +5.404205E-03 -9.341960E-05 +7.109056E-05 -9.341960E-05 -2.330928E-04 -2.630273E-04 +7.109056E-05 -2.630273E-04 -2.897611E-04 
 +5.285675E-03 -6.935944E-05 -6.217347E-06 -6.935944E-05 -1.473365E-04 -1.870340E-04 -6.217347E-06 -1.870340E-04 -7.110635E-05 
 +4.951559E-03 -1.207985E-04 +4.071626E-05 -1.207985E-04 -4.656684E-05 -8.838711E-05 +4.071626E-05 -8.838711E-05 +2.164845E-04 
 +4.844195E-03 -1.589578E-04 +4.754191E-05 -1.589578E-04 +5.606376E-05 -1.016972E-04 +4.754191E-05 -1.016972E-04 +1.677209E-04 
 +4.847685E-03 -1.203640E-04 +1.330453E-05 -1.203640E-04 +1.480645E-04 -1.709497E-05 +1.330453E-05 -1.709497E-05 +7.651324E-05 
 +4.813015E-03 -1.269715E-04 -1.491133E-05 -1.269715E-04 +1.800988E-04 +2.055965E-05 -1.491133E-05 +2.055965E-05 +8.847992E-05 
 +4.777587E-03 -1.567825E-04 -5.917741E-05 -1.567825E-04 +2.107070E-04 +2.511101E-05 -5.917741E-05 +2.511101E-05 +8.268127E-05 
 +4.753694E-03 -1.561580E-04 -6.567516E-05 -1.561580E-04 +2.456170E-04 +4.292169E-06 -6.567516E-05 +4.292169E-06 +4.000007E-05 
 +4.824677E-03 -1.587440E-04 -1.177955E-05 -1.587440E-04 +2.328071E-04 -1.243935E-06 -1.177955E-05 -1.243935E-06 -1.032527E-04 
 +4.922843E-03 +5.369866E-05 +5.933053E-05 +5.369866E-05 +1.498228E-04 +6.226232E-05 +5.933053E-05 +6.226232E-05 -1.586665E-04 
 +4.865446E-03 +6.532237E-05 +2.114465E-04 +6.532237E-05 +5.345919E-05 +1.569231E-04 +2.114465E-04 +1.569231E-04 -2.044313E-04 
 +5.114132E-03 -3.451695E-05 +1.242565E-04 -3.451695E-05 -3.949651E-05 +2.418313E-04 +1.242565E-04 +2.418313E-04 -3.364411E-04 
 +5.270678E-03 -1.828676E-05 +6.193198E-05 -1.828676E-05 -6.451060E-05 +2.392820E-04 +6.193198E-05 +2.392820E-04 -2.918337E-04 
 +5.165239E-03 +2.390320E-05 +1.147297E-06 +2.390320E-05 -6.706829E-06 +2.031899E-04 +1.147297E-06 +2.031899E-04 -1.700812E-04 
 +5.126380E-03 +7.512654E-05 -5.673832E-05 +7.512654E-05 +4.551140E-05 +2.099341E-04 -5.673832E-05 +2.099341E-04 -8.013398E-05 
 +5.121283E-03 +1.023314E-04 -1.962126E-06 +1.023314E-04 +5.331697E-05 +2.243108E-04 -1.962126E-06 +2.243108E-04 -5.514677E-05 
 +5.034902E-03 +1.317469E-04 +7.699298E-05 +1.317469E-04 +7.684547E-05 +1.917600E-04 +7.699298E-05 +1.917600E-04 +1.282320E-05 
 +4.806070E-03 +3.001358E-05 +1.181917E-04 +3.001358E-05 +1.401772E-04 +8.337974E-05 +1.181917E-04 +8.337974E-05 +9.219094E-05 
 +4.781763E-03 -5.222548E-05 +1.557672E-04 -5.222548E-05 +1.556215E-04 +4.543612E-05 +1.557672E-04 +4.543612E-05 +7.631397E-05 
 +4.825595E-03 -6.891387E-05 +7.643518E-05 -6.891387E-05 +4.040606E-05 +8.523150E-05 +7.643518E-05 +8.523150E-05 +1.064944E-04 
 +5.005024E-03 -5.076284E-05 +3.741592E-05 -5.076284E-05 -1.480891E-04 -3.948563E-06 +3.741592E-05 -3.948563E-06 +1.893658E-05 
 +5.428727E-03 -5.183279E-05 +7.865361E-05 -5.183279E-05 -2.611887E-04 -1.697748E-04 +7.865361E-05 -1.697748E-04 -1.810668E-04 
 +5.390815E-03 -5.831129E-05 +3.200408E-05 -5.831129E-05 -2.167590E-04 -1.617272E-04 +3.200408E-05 -1.617272E-04 -1.116781E-04 
 +5.000622E-03 -2.056936E-04 +1.181544E-04 -2.056936E-04 -7.261745E-05 -8.236616E-05 +1.181544E-04 -8.236616E-05 +1.245814E-04 
 +4.862045E-03 -1.736600E-04 +8.551224E-05 -1.736600E-04 +6.850830E-05 -5.938659E-05 +8.551224E-05 -5.938659E-05 +1.468976E-04 
 +4.859896E-03 -1.082627E-04 +6.076177E-05 -1.082627E-04 +1.073858E-04 +3.987063E-05 +6.076177E-05 +3.987063E-05 +1.140115E-04 
 +4.783278E-03 -1.290972E-04 -1.394982E-06 -1.290972E-04 +1.767300E-04 +8.141079E-05 -1.394982E-06 +8.141079E-05 +1.475992E-04 
 +4.780843E-03 -1.528062E-04 -6.692394E-05 -1.528062E-04 +1.969230E-04 +6.658810E-05 -6.692394E-05 +6.658810E-05 +1.277013E-04 
 +4.809819E-03 -1.511705E-04 -7.604683E-05 -1.511705E-04 +2.107347E-04 +3.204907E-05 -7.604683E-05 +3.204907E-05 +5.703500E-05 
 +4.813396E-03 -1.359013E-04 +2.275263E-05 -1.359013E-04 +2.901285E-04 -2.642445E-05 +2.275263E-05 -2.642445E-05 -9.285052E-05 
 +4.825005E-03 +8.944361E-05 +7.554070E-05 +8.944361E-05 +2.450137E-04 -3.710852E-05 +7.554070E-05 -3.710852E-05 -1.310273E-04 
 +4.870965E-03 +2.351777E-04 +1.658899E-04 +2.351777E-04 +9.920659E-05 -1.382194E-05 +1.658899E-04 -1.382194E-05 -1.170391E-04 
 +5.059831E-03 +1.232310E-04 +1.607969E-04 +1.232310E-04 +5.099733E-05 +2.667211E-05 +1.607969E-04 +2.667211E-05 -1.727141E-04 
 +5.134736E-03 +2.274701E-05 +1.293393E-04 +2.274701E-05 +1.107505E-05 +1.625890E-04 +1.293393E-04 +1.625890E-04 -1.639353E-04 
 +5.182349E-03 -3.486226E-05 +1.932210E-05 -3.486226E-05 -1.144757E-05 +2.707139E-04 +1.932210E-05 +2.707139E-04 -1.627825E-04 
 +5.267744E-03 -3.257176E-05 -6.225357E-05 -3.257176E-05 -5.110247E-05 +3.175791E-04 -6.225357E-05 +3.175791E-04 -1.433716E-04 
 +5.243845E-03 +3.065206E-05 +3.738961E-05 +3.065206E-05 +1.682138E-05 +2.854137E-04 +3.738961E-05 +2.854137E-04 -3.419152E-05 
 +4.972854E-03 +5.358394E-05 +7.632481E-05 +5.358394E-05 +1.655931E-04 +1.861151E-04 +7.632481E-05 +1.861151E-04 +1.945358E-04 
 +4.754951E-03 -1.675996E-05 +4.315581E-05 -1.675996E-05 +1.623641E-04 +1.081600E-04 +4.315581E-05 +1.081600E-04 +2.870362E-04 
 +4.753307E-03 -3.465638E-05 +1.131416E-04 -3.465638E-05 +6.614110E-05 -5.104588E-06 +1.131416E-04 -5.104588E-06 +1.837464E-04 
 +4.906172E-03 -8.036322E-05 +1.034917E-04 -8.036322E-05 -4.804748E-05 -5.366910E-05 +1.034917E-04 -5.366910E-05 +1.900842E-04 
 +4.975736E-03 -1.317785E-04 +6.444578E-05 -1.317785E-04 -1.632532E-04 -2.566655E-05 +6.444578E-05 -2.566655E-05 +1.579500E-04 
 +5.324945E-03 -1.103775E-04 +1.076423E-04 -1.103775E-04 -2.388308E-04 -9.897990E-05 +1.076423E-04 -9.897990E-05 -5.140961E-05 
 +5.422247E-03 -1.813983E-05 +7.008548E-05 -1.813983E-05 -2.012536E-04 -1.022807E-04 +7.008548E-05 -1.022807E-04 -1.100334E-04 
 +5.062074E-03 -1.237422E-04 +1.637783E-04 -1.237422E-04 -8.677752E-05 -4.236077E-05 +1.637783E-04 -4.236077E-05 +8.215231E-05 
 +4.934233E-03 -1.139068E-04 +1.327786E-04 -1.139068E-04 +1.423571E-05 -2.487791E-05 +1.327786E-04 -2.487791E-05 +1.483612E-04 
 +4.816301E-03 -9.802284E-05 +1.269481E-04 -9.802284E-05 +9.208832E-05 +3.344118E-06 +1.269481E-04 +3.344118E-06 +1.807056E-04 
 +4.801013E-03 -1.527820E-04 +3.551597E-05 -1.527820E-04 +1.498616E-04 +4.479040E-05 +3.551597E-05 +4.479040E-05 +2.043848E-04 
 +4.800078E-03 -1.659259E-04 -4.128169E-05 -1.659259E-04 +1.892808E-04 +4.321033E-05 -4.128169E-05 +4.321033E-05 +1.577861E-04 
 +4.855085E-03 -1.579176E-04 -5.467613E-05 -1.579176E-04 +2.166482E-04 -1.127562E-06 -5.467613E-05 -1.127562E-06 +5.496991E-05 
 +4.889464E-03 -9.200576E-05 +3.817218E-05 -9.200576E-05 +2.307157E-04 -7.384044E-05 +3.817218E-05 -7.384044E-05 -1.017035E-04 
 +4.856169E-03 +6.119517E-05 +8.002199E-05 +6.119517E-05 +2.896228E-04 -1.065035E-04 +8.002199E-05 -1.065035E-04 -1.400183E-04 
 +4.881124E-03 +1.679532E-04 +1.109915E-04 +1.679532E-04 +2.850669E-04 -4.062181E-05 +1.109915E-04 -4.062181E-05 -7.185374E-05 
 +4.938373E-03 +9.031997E-05 +1.453795E-04 +9.031997E-05 +2.454050E-04 +2.479231E-05 +1.453795E-04 +2.479231E-05 -2.209527E-05 
 +4.920855E-03 +2.989602E-05 +1.793958E-04 +2.989602E-05 +2.198869E-04 +6.574661E-05 +1.793958E-04 +6.574661E-05 -4.283203E-05 
 +5.130487E-03 +3.836418E-07 +6.667173E-05 +3.836418E-07 +7.197701E-05 +1.570001E-04 +6.667173E-05 +1.570001E-04 -1.142048E-04 
 +5.175507E-03 -8.581846E-05 -9.547905E-06 -8.581846E-05 -4.981052E-06 +2.830377E-04 -9.547905E-06 +2.830377E-04 -7.616475E-05 
 +5.266169E-03 -8.900563E-05 -5.727252E-05 -8.900563E-05 +4.801892E-05 +1.548630E-04 -5.727252E-05 +1.548630E-04 -2.580977E-05 
 +5.168230E-03 -5.483410E-05 +1.099865E-05 -5.483410E-05 +4.892568E-05 -1.349420E-04 +1.099865E-05 -1.349420E-04 +9.510863E-05 
 +4.906826E-03 +9.620897E-06 +7.278167E-05 +9.620897E-06 +3.839749E-05 -1.042602E-04 +7.278167E-05 -1.042602E-04 +2.864850E-04 
 +4.785670E-03 +5.171767E-06 +6.995178E-05 +5.171767E-06 +2.556288E-05 +9.751992E-07 +6.995178E-05 +9.751992E-07 +3.280591E-04 
 +4.872627E-03 -8.739148E-05 +4.889097E-05 -8.739148E-05 -2.732280E-05 +9.207555E-06 +4.889097E-05 +9.207555E-06 +2.568765E-04 
 +4.921583E-03 -1.056165E-04 -7.347729E-06 -1.056165E-04 -3.708060E-05 +6.616998E-05 -7.347729E-06 +6.616998E-05 +1.709576E-04 
 +5.184872E-03 -1.231755E-04 +9.977006E-05 -1.231755E-04 -1.070563E-04 +1.830787E-05 +9.977006E-05 +1.830787E-05 +6.012981E-05 
 +5.438522E-03 -3.633325E-05 +1.542190E-04 -3.633325E-05 -2.946317E-04 -4.071511E-05 +1.542190E-04 -4.071511E-05 +6.612971E-06 
 +5.217843E-03 -1.084392E-05 +2.384507E-04 -1.084392E-05 -2.311194E-04 -3.829794E-05 +2.384507E-04 -3.829794E-05 +1.021991E-04 
 +4.911340E-03 -4.942101E-05 +2.589714E-04 -4.942101E-05 -1.149053E-05 -4.092360E-05 +2.589714E-04 -4.092360E-05 +1.651954E-04 
 +4.827684E-03 -1.586550E-04 +2.282951E-04 -1.586550E-04 +1.358747E-04 -6.813308E-05 +2.282951E-04 -6.813308E-05 +1.931813E-04 
 +4.803076E-03 -1.699754E-04 +8.589091E-05 -1.699754E-04 +1.567833E-04 -2.187860E-05 +8.589091E-05 -2.187860E-05 +2.013821E-04 
 +4.848154E-03 -2.052445E-04 +2.373286E-05 -2.052445E-04 +2.069723E-04 -1.096913E-07 +2.373286E-05 -1.096913E-07 +1.393621E-04 
 +4.907899E-03 -2.015146E-04 -2.302617E-07 -2.015146E-04 +2.191001E-04 -3.804706E-05 -2.302617E-07 -3.804706E-05 +1.706458E-05 
 +5.001655E-03 -1.152565E-04 +3.197263E-05 -1.152565E-04 +2.583681E-04 -1.257759E-04 +3.197263E-05 -1.257759E-04 -9.596069E-05 
 +4.894363E-03 +7.541262E-05 +6.813498E-05 +7.541262E-05 +3.182144E-04 -1.337158E-04 +6.813498E-05 -1.337158E-04 -8.364424E-05 
 +4.879293E-03 +1.287382E-04 +9.340583E-05 +1.287382E-04 +3.132495E-04 -4.853662E-05 +9.340583E-05 -4.853662E-05 -5.693226E-05 
 +4.892362E-03 +1.422144E-04 +1.014739E-04 +1.422144E-04 +2.884237E-04 +1.742786E-05 +1.014739E-04 +1.742786E-05 -5.897545E-05 
 +4.892964E-03 +1.084819E-04 +1.158465E-04 +1.084819E-04 +2.865014E-04 +3.535022E-05 +1.158465E-04 +3.535022E-05 -5.754597E-05 
 +4.930837E-03 +2.860990E-05 +7.992191E-05 +2.860990E-05 +3.014327E-04 +1.415863E-05 +7.992191E-05 +1.415863E-05 -1.956622E-05 
 +4.999398E-03 -2.032905E-06 -5.853220E-05 -2.032905E-06 +2.747364E-04 -1.431566E-04 -5.853220E-05 -1.431566E-04 +1.077151E-05 
 +5.299690E-03 +5.244305E-05 -2.273338E-04 +5.244305E-05 +1.014631E-04 -3.594968E-04 -2.273338E-04 -3.594968E-04 -9.332518E-05 
 +5.325783E-03 +4.071338E-05 -8.803721E-05 +4.071338E-05 -3.610516E-05 -4.128432E-04 -8.803721E-05 -4.128432E-04 -1.776579E-04 
 +5.132869E-03 -2.011812E-05 +9.193988E-05 -2.011812E-05 -5.883361E-05 -3.041054E-04 +9.193988E-05 -3.041054E-04 +3.409814E-05 
 +4.772627E-03 -4.928541E-05 +2.449643E-05 -4.928541E-05 -5.264138E-05 -1.453552E-04 +2.449643E-05 -1.453552E-04 +4.280367E-04 
 +4.862930E-03 -1.438033E-04 -2.036748E-05 -1.438033E-04 -7.571458E-05 -6.317812E-05 -2.036748E-05 -6.317812E-05 +4.631789E-04 
 +4.893874E-03 -1.224190E-04 -3.905061E-05 -1.224190E-04 -1.648276E-04 -3.048056E-05 -3.905061E-05 -3.048056E-05 +1.847711E-04 
 +5.185337E-03 -1.140409E-04 +8.579247E-05 -1.140409E-04 -2.708669E-04 +5.259099E-05 +8.579247E-05 +5.259099E-05 +1.089532E-04 
 +5.271994E-03 -3.801584E-05 +1.827937E-04 -3.801584E-05 -4.380017E-04 +9.745083E-05 +1.827937E-04 +9.745083E-05 +1.956584E-04 
 +5.192324E-03 +4.088249E-05 +2.612099E-04 +4.088249E-05 -4.413468E-04 +4.292006E-05 +2.612099E-04 +4.292006E-05 +2.075210E-04 
 +4.922869E-03 -6.076561E-05 +3.442426E-04 -6.076561E-05 -8.645743E-05 -5.296765E-05 +3.442426E-04 -5.296765E-05 +1.733671E-04 
 +4.836237E-03 -1.677713E-04 +2.493903E-04 -1.677713E-04 +5.053346E-05 -9.348643E-05 +2.493903E-04 -9.348643E-05 +1.688594E-04 
 +4.836749E-03 -2.099431E-04 +1.399328E-04 -2.099431E-04 +2.147803E-04 -8.870276E-05 +1.399328E-04 -8.870276E-05 +1.774607E-04 
 +4.828460E-03 -2.861927E-04 +9.262267E-05 -2.861927E-04 +2.451801E-04 -3.736436E-05 +9.262267E-05 -3.736436E-05 +1.029170E-04 
 +4.995792E-03 -3.071081E-04 +3.937493E-05 -3.071081E-04 +2.484889E-04 -2.535550E-05 +3.937493E-05 -2.535550E-05 -3.779125E-05 
 +5.133885E-03 -1.801797E-04 +5.064084E-05 -1.801797E-04 +2.526257E-04 -2.718166E-05 +5.064084E-05 -2.718166E-05 -5.385498E-05 
 +5.010499E-03 +2.056529E-05 +8.548748E-05 +2.056529E-05 +2.349032E-04 -6.395261E-06 +8.548748E-05 -6.395261E-06 +3.813008E-05 
 +4.878591E-03 +8.974843E-05 +5.573512E-05 +8.974843E-05 +2.532181E-04 -1.604743E-05 +5.573512E-05 -1.604743E-05 +2.628818E-05 
 +4.916751E-03 +9.030218E-05 +4.729138E-05 +9.030218E-05 +2.770230E-04 -5.414967E-06 +4.729138E-05 -5.414967E-06 -1.963669E-06 
 +4.898622E-03 +8.053236E-05 +3.015631E-05 +8.053236E-05 +3.230840E-04 -6.350485E-06 +3.015631E-05 -6.350485E-06 -9.944019E-06 
 +4.840977E-03 +8.220682E-05 +2.345773E-05 +8.220682E-05 +3.743158E-04 -4.741728E-05 +2.345773E-05 -4.741728E-05 -4.731862E-05 
 +5.121241E-03 +1.813949E-04 -1.394968E-04 +1.813949E-04 +3.201168E-04 -1.043135E-04 -1.394968E-04 -1.043135E-04 -1.042126E-04 
 +5.240692E-03 +2.105685E-04 -2.204662E-04 +2.105685E-04 +2.515674E-04 -1.370853E-04 -2.204662E-04 -1.370853E-04 -1.633430E-04 
 +5.264827E-03 +1.652677E-04 -1.627593E-04 +1.652677E-04 +1.750913E-04 -1.482726E-04 -1.627593E-04 -1.482726E-04 -2.363146E-04 
 +5.164245E-03 +6.348696E-05 -5.954545E-05 +6.348696E-05 +1.131643E-04 -1.744761E-04 -5.954545E-05 -1.744761E-04 -1.734787E-04 
 +4.836658E-03 +1.992513E-06 -9.670496E-05 +1.992513E-06 +7.980364E-05 -1.383584E-04 -9.670496E-05 -1.383584E-04 +1.198159E-04 
 +4.919800E-03 -7.545003E-05 -6.763698E-06 -7.545003E-05 +3.516324E-05 -1.002781E-04 -6.763698E-06 -1.002781E-04 +2.185844E-04 
 +4.975104E-03 -3.413127E-05 +8.505907E-05 -3.413127E-05 -9.035026E-05 -1.017840E-04 +8.505907E-05 -1.017840E-04 +5.813278E-05 
 +5.176872E-03 -2.313106E-05 +7.782905E-05 -2.313106E-05 -2.210811E-04 +1.545227E-05 +7.782905E-05 +1.545227E-05 +1.370325E-05 
 +5.099997E-03 +6.549339E-05 +1.151479E-04 +6.549339E-05 -1.368678E-04 +1.212802E-04 +1.151479E-04 +1.212802E-04 +1.339260E-04 
 +4.890379E-03 +2.328106E-04 +2.016143E-04 +2.328106E-04 -4.783011E-05 +8.287756E-05 +2.016143E-04 +8.287756E-05 +2.122895E-04 
 +4.871621E-03 +1.184126E-04 +2.724699E-04 +1.184126E-04 -7.825126E-05 -2.272755E-05 +2.724699E-04 -2.272755E-05 +1.815094E-04 
 +4.751624E-03 +8.597740E-05 +1.348284E-04 +8.597740E-05 +9.119452E-05 -8.267542E-05 +1.348284E-04 -8.267542E-05 +1.190222E-04 
 +4.793296E-03 -8.050201E-05 +1.120524E-04 -8.050201E-05 +2.312514E-04 -7.726635E-05 +1.120524E-04 -7.726635E-05 +1.185771E-04 
 +4.872750E-03 -2.105188E-04 +9.016219E-05 -2.105188E-04 +2.933474E-04 -9.106747E-05 +9.016219E-05 -9.106747E-05 +3.636205E-05 
 +5.142510E-03 -1.547198E-04 +5.495333E-05 -1.547198E-04 +2.526571E-04 -7.653975E-05 +5.495333E-05 -7.653975E-05 -9.430442E-05 
 +5.187984E-03 -4.431524E-05 +9.249467E-05 -4.431524E-05 +2.320990E-04 -2.378246E-05 +9.249467E-05 -2.378246E-05 -1.229850E-04 
 +5.137292E-03 +5.723282E-05 +9.326068E-05 +5.723282E-05 +1.916251E-04 +2.446329E-06 +9.326068E-05 +2.446329E-06 -4.128018E-05 
 +4.971974E-03 +2.064169E-04 +3.572685E-05 +2.064169E-04 +1.201985E-04 -6.728965E-05 +3.572685E-05 -6.728965E-05 +2.276204E-05 
 +4.957813E-03 +2.650080E-04 +3.435156E-05 +2.650080E-04 +1.241633E-04 -1.278243E-04 +3.435156E-05 -1.278243E-04 +8.579442E-06 
 +4.917092E-03 +3.241589E-04 +2.925976E-05 +3.241589E-04 +1.964292E-04 -1.443872E-04 +2.925976E-05 -1.443872E-04 -5.854504E-05 
 +4.956813E-03 +3.003006E-04 +3.462272E-05 +3.003006E-04 +2.913820E-04 -1.380404E-04 +3.462272E-05 -1.380404E-04 -1.521610E-04 
 +5.101355E-03 +2.157695E-04 -6.514880E-05 +2.157695E-04 +3.608467E-04 -1.320668E-04 -6.514880E-05 -1.320668E-04 -1.784437E-04 
 +5.127214E-03 +1.339940E-04 -1.321848E-04 +1.339940E-04 +3.576588E-04 -1.266708E-04 -1.321848E-04 -1.266708E-04 -1.814994E-04 
 +5.198117E-03 +9.650821E-05 -1.783747E-04 +9.650821E-05 +2.670085E-04 -1.308064E-04 -1.783747E-04 -1.308064E-04 -2.026337E-04 
 +5.153501E-03 +9.824529E-05 -1.674500E-04 +9.824529E-05 +2.141332E-04 -1.771434E-04 -1.674500E-04 -1.771434E-04 -1.949471E-04 
 +4.984781E-03 +3.236825E-05 -1.019710E-04 +3.236825E-05 +1.328312E-04 -7.605552E-05 -1.019710E-04 -7.605552E-05 -1.129624E-04 
 +4.874438E-03 -5.981289E-05 +3.467770E-05 -5.981289E-05 +1.092654E-05 +6.397198E-05 +3.467770E-05 +6.397198E-05 -3.479658E-07 
 +4.987505E-03 -1.379421E-04 +8.594586E-05 -1.379421E-04 +1.117683E-04 -1.180776E-04 +8.594586E-05 -1.180776E-04 -2.901404E-05 
 +5.147349E-03 -1.347583E-04 +7.635057E-05 -1.347583E-04 +2.915235E-04 -2.739836E-04 +7.635057E-05 -2.739836E-04 -1.936908E-04 
 +5.011525E-03 +5.603003E-05 +8.556476E-05 +5.603003E-05 +3.490651E-04 -1.903013E-04 +8.556476E-05 -1.903013E-04 -1.539804E-04 
 +4.734069E-03 +1.808770E-04 +1.334814E-04 +1.808770E-04 +2.630163E-04 -1.396823E-04 +1.334814E-04 -1.396823E-04 +1.058898E-04 
 +4.729279E-03 +1.965189E-04 +1.597197E-04 +1.965189E-04 +1.005273E-04 -1.343746E-04 +1.597197E-04 -1.343746E-04 +1.758434E-04 
 +4.717178E-03 +1.674681E-04 +8.603195E-05 +1.674681E-04 +1.344382E-04 -7.040999E-05 +8.603195E-05 -7.040999E-05 +8.945721E-05 
 +4.729359E-03 +1.480213E-04 +5.309536E-05 +1.480213E-04 +1.712085E-04 -3.181617E-05 +5.309536E-05 -3.181617E-05 +4.915063E-05 
 +4.967693E-03 -6.734273E-05 +3.273003E-05 -6.734273E-05 +2.050110E-04 -7.865147E-05 +3.273003E-05 -7.865147E-05 -3.818027E-05 
 +5.149006E-03 -1.317545E-04 +7.420218E-05 -1.317545E-04 +1.656035E-04 -7.934641E-05 +7.420218E-05 -7.934641E-05 -7.800375E-05 
 +5.177283E-03 -5.027358E-05 +1.131496E-04 -5.027358E-05 +2.017510E-04 -4.487307E-05 +1.131496E-04 -4.487307E-05 -1.630428E-04 
 +5.144804E-03 -1.893919E-05 +8.731905E-05 -1.893919E-05 +2.589568E-04 -4.841354E-05 +8.731905E-05 -4.841354E-05 -1.814621E-04 
 +5.086572E-03 +2.643574E-05 +6.227926E-05 +2.643574E-05 +2.376953E-04 -4.984789E-05 +6.227926E-05 -4.984789E-05 -1.093620E-04 
 +5.045384E-03 +1.161942E-04 +5.383819E-05 +1.161942E-04 +2.212532E-04 -5.462614E-05 +5.383819E-05 -5.462614E-05 -1.423761E-04 
 +5.002809E-03 +2.180748E-04 +8.418018E-05 +2.180748E-04 +2.660272E-04 -4.908911E-05 +8.418018E-05 -4.908911E-05 -1.789449E-04 
 +4.970320E-03 +2.144058E-04 +7.750694E-05 +2.144058E-04 +3.941365E-04 -6.068467E-05 +7.750694E-05 -6.068467E-05 -1.633859E-04 
 +4.960056E-03 +1.139022E-04 -6.530853E-06 +1.139022E-04 +5.275030E-04 -1.243614E-04 -6.530853E-06 -1.243614E-04 -1.788298E-04 
 +5.101931E-03 +3.615827E-05 -8.423639E-05 +3.615827E-05 +4.641801E-04 -1.589869E-04 -8.423639E-05 -1.589869E-04 -2.332705E-04 
 +5.194704E-03 +2.375793E-05 -1.340825E-04 +2.375793E-05 +3.172575E-04 -1.494584E-04 -1.340825E-04 -1.494584E-04 -2.183535E-04 
 +5.236409E-03 +9.167823E-05 -1.243120E-04 +9.167823E-05 +1.769506E-04 -1.544812E-04 -1.243120E-04 -1.544812E-04 -2.032711E-04 
 +5.179930E-03 +2.369145E-05 -6.451353E-05 +2.369145E-05 +9.371325E-05 -1.526848E-04 -6.451353E-05 -1.526848E-04 -8.689590E-05 
 +4.779674E-03 +6.106718E-05 +5.613101E-06 +6.106718E-05 +1.812258E-04 -7.622864E-05 +5.613101E-06 -7.622864E-05 +2.031572E-04 
 +4.752326E-03 +1.339631E-05 -3.541964E-05 +1.339631E-05 +2.550359E-04 -5.830997E-05 -3.541964E-05 -5.830997E-05 +1.503016E-04 
 +5.049688E-03 -1.275818E-04 +7.018055E-05 -1.275818E-04 +3.068343E-04 -1.484530E-04 +7.018055E-05 -1.484530E-04 -2.461350E-04 
 +5.063741E-03 -2.666949E-05 +1.281971E-04 -2.666949E-05 +3.517890E-04 -1.799305E-04 +1.281971E-04 -1.799305E-04 -3.085788E-04 
 +4.748406E-03 +1.212198E-04 +9.984290E-05 +1.212198E-04 +2.809738E-04 -1.629467E-04 +9.984290E-05 -1.629467E-04 +6.567793E-06 
 +4.681037E-03 +1.720475E-04 +1.367211E-04 +1.720475E-04 +1.981171E-04 -1.417206E-04 +1.367211E-04 -1.417206E-04 +1.284798E-04 
 +4.708870E-03 +1.653972E-04 +1.079643E-04 +1.653972E-04 +1.361271E-04 -4.581852E-05 +1.079643E-04 -4.581852E-05 +1.297246E-04 
 +4.735031E-03 +1.661998E-04 +5.078786E-05 +1.661998E-04 +1.494952E-04 -1.607342E-05 +5.078786E-05 -1.607342E-05 +8.601100E-05 
 +4.992062E-03 -1.276938E-04 +1.627357E-05 -1.276938E-04 +1.586863E-04 -4.314250E-05 +1.627357E-05 -4.314250E-05 +1.045306E-05 
 +5.072472E-03 -1.119839E-04 +7.977188E-05 -1.119839E-04 +1.636757E-04 -3.332331E-05 +7.977188E-05 -3.332331E-05 -6.492674E-07 
 +5.127703E-03 +1.812543E-05 +7.758426E-05 +1.812543E-05 +2.321898E-04 -1.556588E-05 +7.758426E-05 -1.556588E-05 -1.005134E-04 
 +5.077707E-03 -1.058008E-05 +6.853123E-05 -1.058008E-05 +2.928026E-04 -6.327461E-05 +6.853123E-05 -6.327461E-05 -1.694357E-04 
 +5.084533E-03 -1.894703E-05 +7.636419E-05 -1.894703E-05 +2.703219E-04 -8.220980E-05 +7.636419E-05 -8.220980E-05 -1.630286E-04 
 +5.106576E-03 +5.292014E-05 +6.183428E-05 +5.292014E-05 +2.084334E-04 -5.586814E-05 +6.183428E-05 -5.586814E-05 -1.933018E-04 
 +5.059314E-03 +1.487135E-04 +6.160208E-05 +1.487135E-04 +2.541378E-04 -6.135360E-05 +6.160208E-05 -6.135360E-05 -1.192327E-04 
 +4.986503E-03 +1.792359E-04 +7.880839E-05 +1.792359E-04 +3.746530E-04 -1.340751E-04 +7.880839E-05 -1.340751E-04 +1.316946E-05 
 +5.035296E-03 +7.348353E-05 +4.841595E-05 +7.348353E-05 +3.838276E-04 -1.827833E-04 +4.841595E-05 -1.827833E-04 -3.772193E-05 
 +5.128481E-03 -3.229191E-05 -2.838757E-05 -3.229191E-05 +2.809621E-04 -1.594559E-04 -2.838757E-05 -1.594559E-04 -1.749737E-04 
 +5.214220E-03 -2.568255E-05 -6.134113E-05 -2.568255E-05 +1.297460E-04 -9.010270E-05 -6.134113E-05 -9.010270E-05 -2.314130E-04 
 +5.304505E-03 +2.934352E-05 -8.593071E-05 +2.934352E-05 +3.938711E-05 -8.210545E-05 -8.593071E-05 -8.210545E-05 -2.826348E-04 
 +5.293348E-03 -5.329085E-05 -1.176451E-04 -5.329085E-05 +2.482497E-05 -8.362672E-05 -1.176451E-04 -8.362672E-05 -1.087113E-04 
 +4.794705E-03 +7.574497E-06 -9.928332E-06 +7.574497E-06 +5.038700E-05 -3.083461E-05 -9.928332E-06 -3.083461E-05 +3.256989E-04 
 +4.667648E-03 +4.174216E-05 -4.710563E-07 +4.174216E-05 +1.229264E-04 +2.691932E-05 -4.710563E-07 +2.691932E-05 +3.925010E-04 
 +4.765760E-03 +6.532646E-05 +6.200354E-05 +6.532646E-05 +2.013792E-04 +6.550964E-05 +6.200354E-05 +6.550964E-05 +5.165448E-05 
 +5.068519E-03 +4.211816E-06 +1.073612E-04 +4.211816E-06 +2.221166E-04 +1.410664E-06 +1.073612E-04 +1.410664E-06 -9.337597E-05 
 +4.819987E-03 +6.322937E-05 +8.976854E-05 +6.322937E-05 +2.063928E-04 -7.233614E-05 +8.976854E-05 -7.233614E-05 +4.845164E-05 
 +4.694955E-03 +1.505595E-04 +1.315461E-04 +1.505595E-04 +1.737671E-04 -7.544255E-05 +1.315461E-04 -7.544255E-05 +1.221144E-04 
 +4.692718E-03 +1.555106E-04 +1.158526E-04 +1.555106E-04 +1.204359E-04 -3.109557E-06 +1.158526E-04 -3.109557E-06 +2.053229E-04 
 +4.706532E-03 +1.717313E-04 +5.328413E-05 +1.717313E-04 +8.360004E-05 +3.374530E-05 +5.328413E-05 +3.374530E-05 +2.187783E-04 
 +5.026193E-03 -1.430820E-04 -8.264830E-06 -1.430820E-04 -3.118526E-06 +2.856284E-05 -8.264830E-06 +2.856284E-05 +1.665439E-04 
 +5.042124E-03 -6.195081E-05 +4.195864E-05 -6.195081E-05 +5.238765E-05 +1.087481E-05 +4.195864E-05 +1.087481E-05 +1.361440E-04 
 +5.045372E-03 +5.920818E-05 +7.056797E-05 +5.920818E-05 +2.063489E-04 +8.384460E-06 +7.056797E-05 +8.384460E-06 +6.192803E-05 
 +5.024896E-03 -8.223657E-07 +4.686728E-05 -8.223657E-07 +2.567271E-04 -3.029034E-05 +4.686728E-05 -3.029034E-05 -1.119743E-05 
 +5.039669E-03 -5.349146E-05 +5.425251E-05 -5.349146E-05 +2.199262E-04 -7.040650E-05 +5.425251E-05 -7.040650E-05 -2.082825E-05 
 +5.065121E-03 +2.730443E-05 +6.035151E-05 +2.730443E-05 +2.171287E-04 -7.340065E-05 +6.035151E-05 -7.340065E-05 -1.058575E-05 
 +5.071945E-03 +7.147990E-05 +5.599660E-05 +7.147990E-05 +9.653862E-05 -9.372345E-05 +5.599660E-05 -9.372345E-05 +8.062290E-05 
 +5.124606E-03 +7.975317E-05 +9.264752E-05 +7.975317E-05 -2.800410E-04 -1.451562E-04 +9.264752E-05 -1.451562E-04 +1.812933E-04 
 +5.168870E-03 +8.291000E-05 +4.033710E-05 +8.291000E-05 -4.662708E-04 -2.384896E-04 +4.033710E-05 -2.384896E-04 +1.666636E-04 
 +5.175013E-03 -4.061802E-06 -2.142838E-05 -4.061802E-06 -3.013838E-04 -2.310071E-04 -2.142838E-05 -2.310071E-04 +3.624210E-05 
 +5.203541E-03 -1.773766E-05 -1.008788E-05 -1.773766E-05 -4.528410E-05 -5.442270E-05 -1.008788E-05 -5.442270E-05 -1.668078E-04 
 +5.310911E-03 -3.145837E-05 -5.540342E-05 -3.145837E-05 +1.872115E-05 +6.135314E-05 -5.540342E-05 +6.135314E-05 -2.757556E-04 
 +5.313861E-03 -7.200777E-05 -1.012413E-04 -7.200777E-05 +1.211959E-05 +6.341695E-05 -1.012413E-04 +6.341695E-05 -5.203527E-05 
 +4.818878E-03 -2.772807E-05 -1.731050E-05 -2.772807E-05 +6.164392E-05 +3.697851E-05 -1.731050E-05 +3.697851E-05 +3.657494E-04 
 +4.720226E-03 -4.065069E-05 +6.027136E-05 -4.065069E-05 +5.169269E-05 +6.403435E-05 +6.027136E-05 +6.403435E-05 +4.900513E-04 
 +4.729429E-03 +4.832977E-05 +8.490981E-05 +4.832977E-05 +5.020427E-05 +1.302636E-04 +8.490981E-05 +1.302636E-04 +3.640756E-04 
 +4.854065E-03 +8.704843E-05 +8.131802E-05 +8.704843E-05 +9.344173E-05 +1.340031E-04 +8.131802E-05 +1.340031E-04 +2.760285E-04 
 +4.868588E-03 +8.947594E-05 +5.615808E-05 +8.947594E-05 +1.238925E-04 +4.698053E-05 +5.615808E-05 +4.698053E-05 +1.974434E-04 
 +4.735635E-03 +1.255847E-04 +1.042405E-04 +1.255847E-04 +1.182705E-04 -2.383033E-05 +1.042405E-04 -2.383033E-05 +1.546788E-04 
 +4.706321E-03 +8.575186E-05 +9.542996E-05 +8.575186E-05 +4.884200E-05 +4.066443E-06 +9.542996E-05 +4.066443E-06 +2.551541E-04 
 +4.766045E-03 +1.235229E-04 +4.397296E-05 +1.235229E-04 -1.046494E-04 +6.009832E-05 +4.397296E-05 +6.009832E-05 +3.010286E-04 
 +5.024940E-03 -1.271269E-04 -8.742503E-05 -1.271269E-04 -1.642246E-04 +1.273004E-04 -8.742503E-05 +1.273004E-04 +2.410839E-04 
 +5.025801E-03 +9.519464E-05 +1.479615E-05 +9.519464E-05 -3.566013E-05 +1.899417E-04 +1.479615E-05 +1.899417E-04 +2.008623E-04 
 +4.995771E-03 +1.509330E-04 +9.435919E-05 +1.509330E-04 +7.153354E-05 +2.201509E-04 +9.435919E-05 +2.201509E-04 +1.621541E-04 
 +4.985549E-03 +7.936211E-05 +3.397910E-05 +7.936211E-05 +6.642009E-05 +1.800269E-04 +3.397910E-05 +1.800269E-04 +1.031420E-04 
 +4.966467E-03 +1.070410E-05 +1.434995E-05 +1.070410E-05 +8.114780E-05 +1.764046E-04 +1.434995E-05 +1.764046E-04 +1.145724E-04 
 +5.011441E-03 +3.891321E-05 +5.736167E-05 +3.891321E-05 -8.518696E-05 +1.322395E-04 +5.736167E-05 +1.322395E-04 +2.125574E-04 
 +5.161586E-03 +3.261256E-05 +1.253772E-04 +3.261256E-05 -4.393910E-04 -3.164050E-05 +1.253772E-04 -3.164050E-05 +2.800043E-04 
 +5.204182E-03 +8.359010E-05 +1.159368E-04 +8.359010E-05 -6.030383E-04 -1.511840E-04 +1.159368E-04 -1.511840E-04 +2.499140E-04 
 +5.201729E-03 +1.145595E-04 +8.718913E-06 +1.145595E-04 -5.808892E-04 -1.924594E-04 +8.718913E-06 -1.924594E-04 +2.408863E-04 
 +5.179954E-03 +9.760348E-05 -7.726251E-05 +9.760348E-05 -3.962200E-04 -1.563886E-04 -7.726251E-05 -1.563886E-04 +1.761631E-04 
 +5.196959E-03 +2.035956E-05 -9.987422E-05 +2.035956E-05 -1.558927E-04 -3.721761E-05 -9.987422E-05 -3.721761E-05 -1.004119E-04 
 +5.281574E-03 -1.052457E-04 -3.481147E-05 -1.052457E-04 -5.204328E-05 +4.009123E-05 -3.481147E-05 +4.009123E-05 -3.550951E-04 
 +5.295272E-03 -1.193243E-04 +3.708103E-05 -1.193243E-04 -4.682193E-07 +4.300447E-05 +3.708103E-05 +4.300447E-05 -1.759503E-04 
 +4.860274E-03 -1.200268E-04 +2.269279E-05 -1.200268E-04 +9.388105E-06 -1.111391E-06 +2.269279E-05 -1.111391E-06 +2.911510E-04 
 +4.768515E-03 -7.804173E-05 +7.107275E-06 -7.804173E-05 -7.348500E-06 +8.452478E-06 +7.107275E-06 +8.452478E-06 +4.804316E-04 
 +4.772889E-03 -1.952976E-06 +5.991621E-05 -1.952976E-06 -1.472325E-05 +8.723671E-05 +5.991621E-05 +8.723671E-05 +4.592057E-04 
 +4.737457E-03 +4.614960E-05 +7.026829E-05 +4.614960E-05 +1.649048E-05 +1.203869E-04 +7.026829E-05 +1.203869E-04 +4.527046E-04 
 +4.845744E-03 +6.748117E-05 +9.584336E-06 +6.748117E-05 +4.864601E-05 +6.818632E-05 +9.584336E-06 +6.818632E-05 +3.192672E-04 
 +4.749673E-03 +1.169223E-04 +5.250287E-05 +1.169223E-04 +9.039433E-05 +1.303647E-05 +5.250287E-05 +1.303647E-05 +1.970944E-04 
 +4.846615E-03 -2.049369E-05 +1.545916E-05 -2.049369E-05 +8.215540E-06 +1.074690E-05 +1.545916E-05 +1.074690E-05 +1.926385E-04 
 +4.868173E-03 +9.582145E-05 +2.258184E-05 +9.582145E-05 -9.129391E-05 +7.991458E-05 +2.258184E-05 +7.991458E-05 +2.214793E-04 
 +4.989658E-03 -9.722598E-05 -7.732675E-05 -9.722598E-05 -6.292042E-05 +1.970288E-04 -7.732675E-05 +1.970288E-04 +1.426021E-04 
 +5.085571E-03 +1.672028E-04 +1.125279E-04 +1.672028E-04 +6.372435E-06 +2.923391E-04 +1.125279E-04 +2.923391E-04 +1.044628E-04 
 +4.983787E-03 +2.024815E-04 +1.426981E-04 +2.024815E-04 +5.895861E-05 +3.267850E-04 +1.426981E-04 +3.267850E-04 +1.800857E-04 
 +4.946731E-03 +1.185484E-04 +5.682934E-05 +1.185484E-04 +6.829802E-05 +2.773301E-04 +5.682934E-05 +2.773301E-04 +2.085555E-04 
 +4.983298E-03 +8.755362E-05 +2.482906E-05 +8.755362E-05 -8.034518E-06 +2.297806E-04 +2.482906E-05 +2.297806E-04 +1.343508E-04 
 +5.012908E-03 -1.173655E-06 +1.089770E-04 -1.173655E-06 -2.876711E-04 +1.779151E-04 +1.089770E-04 +1.779151E-04 +1.474143E-04 
 +5.103948E-03 -1.828139E-05 +1.380807E-04 -1.828139E-05 -5.885002E-04 +5.909874E-05 +1.380807E-04 +5.909874E-05 +2.359141E-04 
 +5.178165E-03 +9.377515E-05 +8.281248E-05 +9.377515E-05 -5.843747E-04 -5.220603E-05 +8.281248E-05 -5.220603E-05 +2.262309E-04 
 +5.159601E-03 +9.733038E-05 +1.231536E-05 +9.733038E-05 -5.003508E-04 -1.422265E-04 +1.231536E-05 -1.422265E-04 +1.791736E-04 
 +5.167536E-03 +1.637997E-04 -9.420279E-05 +1.637997E-04 -5.118921E-04 -2.167929E-04 -9.420279E-05 -2.167929E-04 +1.594612E-04 
 +5.194668E-03 +1.166914E-04 -1.536776E-04 +1.166914E-04 -3.805619E-04 -1.668234E-04 -1.536776E-04 -1.668234E-04 +2.451473E-05 
 +5.218254E-03 -6.038010E-05 -6.410302E-05 -6.038010E-05 -1.348748E-04 -5.338633E-05 -6.410302E-05 -5.338633E-05 -2.415798E-04 
 +5.247282E-03 -1.485364E-04 +5.483999E-05 -1.485364E-04 -4.281353E-05 -4.845744E-05 +5.483999E-05 -4.845744E-05 -2.394149E-04 
 +4.961642E-03 -1.500465E-04 +7.978194E-05 -1.500465E-04 -7.751744E-05 -3.903908E-05 +7.978194E-05 -3.903908E-05 +1.387293E-04 
 +4.819890E-03 -1.242491E-04 -3.142576E-05 -1.242491E-04 -1.074542E-04 +2.926294E-05 -3.142576E-05 +2.926294E-05 +3.879254E-04 
 +4.676655E-03 -3.886890E-05 -4.276220E-05 -3.886890E-05 -2.083561E-05 +1.077990E-05 -4.276220E-05 +1.077990E-05 +3.812687E-04 
 +4.711278E-03 -3.949762E-05 +2.137476E-05 -3.949762E-05 +4.388959E-05 -1.340185E-05 +2.137476E-05 -1.340185E-05 +3.684566E-04 
 +4.802175E-03 -3.959230E-05 -2.171670E-05 -3.959230E-05 +1.524780E-05 -7.064825E-07 -2.171670E-05 -7.064825E-07 +3.059905E-04 
 +4.780209E-03 +5.439280E-05 +1.044954E-05 +5.439280E-05 +4.872923E-05 +5.102655E-06 +1.044954E-05 +5.102655E-06 +1.882496E-04 
 +5.038142E-03 -2.681887E-04 -6.194351E-05 -2.681887E-04 -1.097660E-04 +5.244760E-05 -6.194351E-05 +5.244760E-05 +9.365843E-05 
 +5.088766E-03 -4.795821E-05 +8.100834E-07 -4.795821E-05 -2.385424E-04 +1.509387E-04 +8.100834E-07 +1.509387E-04 +9.026226E-05 
 +5.028834E-03 -1.995387E-05 +1.957616E-05 -1.995387E-05 -1.574068E-04 +2.646125E-04 +1.957616E-05 +2.646125E-04 +5.601483E-05 
 +5.061886E-03 +1.660069E-04 +1.641304E-04 +1.660069E-04 -4.557269E-05 +3.350712E-04 +1.641304E-04 +3.350712E-04 +8.731521E-05 
 +5.017934E-03 +1.832585E-04 +1.599346E-04 +1.832585E-04 +1.773031E-05 +2.782308E-04 +1.599346E-04 +2.782308E-04 +1.766320E-04 
 +5.009256E-03 +8.588352E-05 +1.274197E-04 +8.588352E-05 +4.111504E-05 +1.870055E-04 +1.274197E-04 +1.870055E-04 +1.576445E-04 
 +5.043689E-03 +3.853189E-05 +9.907489E-05 +3.853189E-05 -8.531986E-05 +9.281534E-05 +9.907489E-05 +9.281534E-05 +4.600615E-05 
 +4.963625E-03 -1.297046E-04 +1.474921E-04 -1.297046E-04 -1.120517E-04 -5.238700E-05 +1.474921E-04 -5.238700E-05 +2.801008E-05 
 +4.922937E-03 -1.420210E-04 +1.589174E-04 -1.420210E-04 -1.322429E-04 -1.165644E-04 +1.589174E-04 -1.165644E-04 +8.396155E-05 
 +5.072705E-03 +7.957105E-06 +7.196394E-05 +7.957105E-06 -3.898945E-04 -1.111235E-04 +7.196394E-05 -1.111235E-04 +1.103758E-04 
 +5.183980E-03 +7.669835E-05 +7.409281E-06 +7.669835E-05 -5.037660E-04 -1.386344E-04 +7.409281E-06 -1.386344E-04 +1.149118E-04 
 +5.168717E-03 +1.026561E-04 -5.300708E-05 +1.026561E-04 -4.948173E-04 -1.831968E-04 -5.300708E-05 -1.831968E-04 +1.262074E-04 
 +5.193942E-03 +1.554689E-04 -7.599304E-05 +1.554689E-04 -5.766245E-04 -2.281763E-04 -7.599304E-05 -2.281763E-04 +1.243904E-04 
 +5.194085E-03 +8.695425E-06 -7.485370E-05 +8.695425E-06 -5.886926E-04 -2.804726E-04 -7.485370E-05 -2.804726E-04 +5.960304E-05 
 +5.114966E-03 -1.287830E-04 +2.183387E-05 -1.287830E-04 -5.258838E-04 -1.683933E-04 +2.183387E-05 -1.683933E-04 -1.095594E-05 
 +5.084296E-03 -1.682103E-04 +9.389792E-06 -1.682103E-04 -3.838734E-04 +7.935603E-05 +9.389792E-06 +7.935603E-05 +6.859409E-05 
 +4.801264E-03 -1.006524E-04 -9.066582E-05 -1.006524E-04 -1.393744E-04 +7.046228E-05 -9.066582E-05 +7.046228E-05 +2.813608E-04 
 +4.640143E-03 +3.115856E-06 -7.402772E-05 +3.115856E-06 +2.817141E-05 -3.426171E-05 -7.402772E-05 -3.426171E-05 +3.082662E-04 
 +4.683959E-03 -1.996899E-05 -4.050073E-06 -1.996899E-05 +6.569234E-05 -2.366072E-05 -4.050073E-06 -2.366072E-05 +2.400416E-04 
 +4.700426E-03 -3.082792E-05 -3.857989E-05 -3.082792E-05 +8.300058E-05 -1.493843E-05 -3.857989E-05 -1.493843E-05 +2.309118E-04 
 +4.724482E-03 -1.587772E-05 -1.722148E-05 -1.587772E-05 +3.688467E-05 -8.162366E-06 -1.722148E-05 -8.162366E-06 +1.543605E-04 
 +5.129579E-03 -1.033388E-04 +4.523909E-05 -1.033388E-04 -1.576158E-04 +1.347493E-04 +4.523909E-05 +1.347493E-04 -4.129970E-05 
 +5.208218E-03 +2.848442E-05 +7.801476E-06 +2.848442E-05 -2.100230E-04 +2.465097E-04 +7.801476E-06 +2.465097E-04 -7.419308E-05 
 +5.062781E-03 +2.222244E-05 +8.738780E-05 +2.222244E-05 -9.789228E-05 +2.223152E-04 +8.738780E-05 +2.223152E-04 -2.671227E-05 
 +4.998031E-03 +7.819973E-05 +7.438261E-05 +7.819973E-05 +2.040999E-05 +2.201216E-04 +7.438261E-05 +2.201216E-04 +1.117618E-04 
 +5.150344E-03 +1.842241E-04 +8.501724E-05 +1.842241E-04 -3.558008E-05 +2.222915E-04 +8.501724E-05 +2.222915E-04 +1.173891E-04 
 +5.108284E-03 +5.139755E-05 +1.781393E-04 +5.139755E-05 -1.176428E-04 +1.211895E-04 +1.781393E-04 +1.211895E-04 +4.168546E-05 
 +4.985623E-03 -7.677329E-05 +1.485616E-04 -7.677329E-05 -1.592933E-04 -2.499001E-05 +1.485616E-04 -2.499001E-05 +2.495199E-05 
 +4.917193E-03 -1.255998E-04 +1.696409E-04 -1.255998E-04 -1.140097E-04 -1.028182E-04 +1.696409E-04 -1.028182E-04 +4.238412E-05 
 +4.873673E-03 -1.245717E-04 +2.084709E-04 -1.245717E-04 +3.633246E-05 -1.579949E-04 +2.084709E-04 -1.579949E-04 +3.159569E-05 
 +4.912653E-03 -1.227056E-04 +1.502372E-04 -1.227056E-04 -3.924081E-05 -1.935370E-04 +1.502372E-04 -1.935370E-04 +4.564845E-05 
 +5.137187E-03 +2.698935E-06 +6.240859E-05 +2.698935E-06 -4.102601E-04 -1.853494E-04 +6.240859E-05 -1.853494E-04 +9.751735E-05 
 +5.226674E-03 +7.478647E-05 -5.630971E-06 +7.478647E-05 -5.361856E-04 -2.064324E-04 -5.630971E-06 -2.064324E-04 +9.956840E-05 
 +5.230176E-03 +8.818898E-05 -2.146812E-05 +8.818898E-05 -5.705320E-04 -2.692209E-04 -2.146812E-05 -2.692209E-04 +9.351338E-05 
 +5.223931E-03 +8.609058E-05 -6.032996E-05 +8.609058E-05 -5.724316E-04 -3.118886E-04 -6.032996E-05 -3.118886E-04 +1.103676E-04 
 +5.014459E-03 +3.331502E-05 +2.838707E-05 +3.331502E-05 -3.265793E-04 -2.064352E-04 +2.838707E-05 -2.064352E-04 +1.189136E-04 
 +5.050454E-03 -5.762280E-05 -6.267843E-05 -5.762280E-05 -1.815825E-04 -1.256841E-05 -6.267843E-05 -1.256841E-05 +1.522106E-04 
 +4.782089E-03 -7.726615E-06 -1.248124E-04 -7.726615E-06 -9.530084E-05 +6.685315E-05 -1.248124E-04 +6.685315E-05 +3.026884E-04 
 +4.656586E-03 +1.993459E-06 -5.275035E-05 +1.993459E-06 +2.977968E-05 +5.201467E-05 -5.275035E-05 +5.201467E-05 +3.281810E-04 
 +4.651871E-03 -4.002675E-05 -2.062362E-05 -4.002675E-05 +1.022073E-04 +3.758682E-05 -2.062362E-05 +3.758682E-05 +2.412742E-04 
 +4.658550E-03 -3.496344E-05 -6.041922E-05 -3.496344E-05 +1.326713E-04 +2.479128E-05 -6.041922E-05 +2.479128E-05 +1.685204E-04 
 +4.759702E-03 +4.708194E-05 +8.219176E-06 +4.708194E-05 +8.326531E-06 +2.118848E-05 +8.219176E-06 +2.118848E-05 +4.516544E-05 
 +5.125831E-03 -7.966117E-05 +9.939445E-05 -7.966117E-05 -1.568181E-04 +2.350870E-04 +9.939445E-05 +2.350870E-04 -1.023123E-04 
 +5.101557E-03 -3.293284E-05 +2.778698E-05 -3.293284E-05 -9.992838E-05 +2.769912E-04 +2.778698E-05 +2.769912E-04 -1.720091E-04 
 +5.055610E-03 +1.062062E-04 +5.631466E-05 +1.062062E-04 -1.182305E-04 +1.745470E-04 +5.631466E-05 +1.745470E-04 -1.713531E-04 
 +5.086201E-03 +1.117830E-04 +1.244509E-04 +1.117830E-04 -1.617576E-04 +4.841940E-05 +1.244509E-04 +4.841940E-05 +2.806103E-05 
 +5.187945E-03 +8.740620E-05 +8.989598E-05 +8.740620E-05 -4.202970E-04 +1.773851E-04 +8.989598E-05 +1.773851E-04 +2.150197E-04 
 +5.126514E-03 +3.174646E-05 +8.461783E-05 +3.174646E-05 -4.681677E-04 +1.297338E-04 +8.461783E-05 +1.297338E-04 +2.419173E-04 
 +4.936483E-03 -6.162667E-05 +1.732499E-04 -6.162667E-05 -2.081008E-04 -5.550573E-05 +1.732499E-04 -5.550573E-05 +1.310421E-04 
 +4.909814E-03 -1.026969E-04 +2.510483E-04 -1.026969E-04 -3.539568E-05 -1.139823E-04 +2.510483E-04 -1.139823E-04 -2.842987E-06 
 +4.904376E-03 -1.103541E-04 +2.508798E-04 -1.103541E-04 +1.722789E-05 -1.443385E-04 +2.508798E-04 -1.443385E-04 -7.024597E-05 
 +4.886712E-03 -1.348345E-04 +2.011145E-04 -1.348345E-04 +8.642292E-05 -1.824926E-04 +2.011145E-04 -1.824926E-04 -5.496959E-05 
 +4.998449E-03 -7.979864E-05 +1.374659E-04 -7.979864E-05 -2.986347E-05 -1.652653E-04 +1.374659E-04 -1.652653E-04 +1.061552E-05 
 +5.203796E-03 +6.623322E-05 +4.084662E-05 +6.623322E-05 -4.157992E-04 -1.408195E-04 +4.084662E-05 -1.408195E-04 +1.916705E-05 
 +5.230800E-03 +2.926909E-05 -4.322855E-05 +2.926909E-05 -5.442804E-04 -2.084534E-04 -4.322855E-05 -2.084534E-04 +4.773112E-05 
 +5.163252E-03 +3.594059E-05 -3.918096E-05 +3.594059E-05 -4.374896E-04 -2.322654E-04 -3.918096E-05 -2.322654E-04 +1.088470E-04 
 +5.077116E-03 +1.665393E-05 -4.441912E-05 +1.665393E-05 -3.043113E-04 -1.258990E-04 -4.441912E-05 -1.258990E-04 +1.637719E-04 
 +5.000726E-03 -7.453552E-05 -8.566841E-05 -7.453552E-05 -1.356527E-04 +1.129932E-06 -8.566841E-05 +1.129932E-06 +2.643301E-04 
 +4.704770E-03 +4.497753E-05 -8.974449E-05 +4.497753E-05 -2.490804E-05 +4.338499E-05 -8.974449E-05 +4.338499E-05 +3.550685E-04 
 +4.650361E-03 +1.712390E-05 -1.125497E-04 +1.712390E-05 +8.068746E-05 +6.734350E-05 -1.125497E-04 +6.734350E-05 +2.702003E-04 
 +4.731406E-03 -1.832648E-05 -8.483363E-05 -1.832648E-05 +1.255984E-04 +5.491537E-05 -8.483363E-05 +5.491537E-05 +1.843405E-04 
 +4.725510E-03 +1.539272E-05 -4.224427E-05 +1.539272E-05 +2.966414E-05 +7.191584E-05 -4.224427E-05 +7.191584E-05 +1.914614E-04 
 +4.930947E-03 -1.245676E-05 +4.833050E-05 -1.245676E-05 -1.549550E-04 +1.974964E-04 +4.833050E-05 +1.974964E-04 +4.785710E-05 
 +5.085192E-03 -6.671492E-05 +3.235008E-05 -6.671492E-05 -1.908394E-04 +2.803406E-04 +3.235008E-05 +2.803406E-04 -1.250987E-04 
 +5.029269E-03 -7.652831E-06 -1.588158E-05 -7.652831E-06 -1.521724E-04 +3.413901E-04 -1.588158E-05 +3.413901E-04 -2.494228E-04 
 +5.060885E-03 +1.160017E-05 -5.465587E-05 +1.160017E-05 -2.665105E-04 +2.973617E-04 -5.465587E-05 +2.973617E-04 -2.499935E-04 
 +5.160359E-03 +3.377252E-05 +8.928438E-05 +3.377252E-05 -3.984808E-04 +2.645988E-05 +8.928438E-05 +2.645988E-05 -5.970225E-05 
 +5.144344E-03 -4.190604E-05 +1.499721E-04 -4.190604E-05 -2.604021E-04 -1.908382E-04 +1.499721E-04 -1.908382E-04 +1.786093E-04 
 +5.097285E-03 +2.324027E-05 +1.289117E-04 +2.324027E-05 -2.611441E-04 -9.421839E-05 +1.289117E-04 -9.421839E-05 +3.043955E-04 
 +4.973853E-03 +2.383461E-05 +1.846179E-04 +2.383461E-05 -1.749991E-04 -5.416611E-05 +1.846179E-04 -5.416611E-05 +1.914983E-04 
 +4.928327E-03 -8.597425E-05 +2.747501E-04 -8.597425E-05 -1.691857E-05 -1.573300E-04 +2.747501E-04 -1.573300E-04 +2.438455E-05 
 +4.956269E-03 -9.159629E-05 +2.675276E-04 -9.159629E-05 -1.858899E-05 -1.844534E-04 +2.675276E-04 -1.844534E-04 -7.433046E-05 
 +4.951813E-03 -1.005084E-04 +1.834488E-04 -1.005084E-04 -2.167991E-05 -1.605123E-04 +1.834488E-04 -1.605123E-04 -1.105647E-04 
 +4.957475E-03 -9.937711E-05 +1.509149E-04 -9.937711E-05 +7.044072E-05 -1.231935E-04 +1.509149E-04 -1.231935E-04 -6.851978E-05 
 +5.030271E-03 -4.423504E-05 +7.271871E-05 -4.423504E-05 +3.831518E-05 -1.107735E-04 +7.271871E-05 -1.107735E-04 -6.188443E-05 
 +5.139043E-03 +7.249371E-05 -5.081370E-05 +7.249371E-05 -1.314844E-04 -1.151618E-04 -5.081370E-05 -1.151618E-04 -2.907179E-05 
 +5.022467E-03 +9.033299E-05 -2.379488E-05 +9.033299E-05 -1.421693E-04 -8.374212E-05 -2.379488E-05 -8.374212E-05 +5.668097E-05 
 +5.048127E-03 -2.134044E-05 -1.161401E-04 -2.134044E-05 -1.871501E-04 -4.972640E-05 -1.161401E-04 -4.972640E-05 +6.181887E-05 
 +5.068292E-03 -9.632275E-05 -1.287100E-04 -9.632275E-05 -1.421723E-04 +3.708473E-06 -1.287100E-04 +3.708473E-06 +8.874301E-05 
 +4.754017E-03 +8.446676E-05 -1.503199E-04 +8.446676E-05 +1.015174E-04 +1.538528E-05 -1.503199E-04 +1.538528E-05 +1.893061E-04 
 +4.662080E-03 +9.208370E-05 -1.167100E-04 +9.208370E-05 +1.859146E-04 +1.296880E-04 -1.167100E-04 +1.296880E-04 +1.333259E-04 
 +4.846355E-03 -5.293723E-05 -7.151775E-05 -5.293723E-05 +3.633611E-05 +3.001403E-04 -7.151775E-05 +3.001403E-04 +8.937673E-05 
 +4.849370E-03 -4.084606E-05 -1.220684E-05 -4.084606E-05 -1.271423E-04 +2.870860E-04 -1.220684E-05 +2.870860E-04 +1.515216E-04 
 +4.973136E-03 -5.579693E-05 +1.875188E-05 -5.579693E-05 -1.585926E-04 +2.431356E-04 +1.875188E-05 +2.431356E-04 +4.907571E-05 
 +5.149715E-03 -1.098990E-04 -4.806589E-05 -1.098990E-04 -2.296163E-04 +2.130817E-04 -4.806589E-05 +2.130817E-04 -2.171810E-04 
 +5.114959E-03 -2.927402E-05 -8.642572E-05 -2.927402E-05 -2.433213E-04 +5.665023E-06 -8.642572E-05 +5.665023E-06 -1.704360E-04 
 +5.093926E-03 +5.091237E-05 -9.997237E-05 +5.091237E-05 -3.221899E-04 -6.386311E-05 -9.997237E-05 -6.386311E-05 +6.664116E-05 
 +5.100387E-03 +4.692507E-05 -8.487845E-05 +4.692507E-05 -3.597770E-04 +4.384012E-05 -8.487845E-05 +4.384012E-05 +1.818486E-04 
 +5.176722E-03 -4.380987E-05 +8.259878E-05 -4.380987E-05 -4.779203E-04 +1.464869E-04 +8.259878E-05 +1.464869E-04 +1.353816E-04 
 +5.171967E-03 -4.898013E-05 +2.197826E-04 -4.898013E-05 -4.140869E-04 +4.992466E-05 +2.197826E-04 +4.992466E-05 +8.818095E-05 
 +5.038005E-03 -3.063467E-05 +1.582330E-04 -3.063467E-05 -2.010248E-04 -1.087176E-04 +1.582330E-04 -1.087176E-04 +9.755900E-05 
 +4.926538E-03 -4.584903E-05 +1.923526E-04 -4.584903E-05 -1.014699E-04 -1.059024E-04 +1.923526E-04 -1.059024E-04 +7.360957E-05 
 +4.926632E-03 -7.174818E-05 +1.685991E-04 -7.174818E-05 -1.875731E-05 -9.131127E-05 +1.685991E-04 -9.131127E-05 +1.957669E-06 
 +4.955124E-03 -1.334861E-04 +1.439063E-04 -1.334861E-04 +6.504136E-05 -8.351710E-05 +1.439063E-04 -8.351710E-05 -7.109461E-05 
 +4.928986E-03 -1.692736E-04 +7.745276E-05 -1.692736E-04 +1.590302E-04 -9.495270E-05 +7.745276E-05 -9.495270E-05 -1.799160E-04 
 +4.923542E-03 -9.859512E-05 +6.299151E-05 -9.859512E-05 +2.750089E-04 -8.851239E-05 +6.299151E-05 -8.851239E-05 -1.728743E-04 
 +4.810912E-03 +6.657823E-05 -8.517142E-05 +6.657823E-05 +2.784101E-04 -2.378230E-05 -8.517142E-05 -2.378230E-05 +9.503160E-06 
 +4.786337E-03 +3.909213E-05 -9.920234E-05 +3.909213E-05 +1.657169E-04 -3.557175E-05 -9.920234E-05 -3.557175E-05 +1.195883E-04 
 +4.832422E-03 -5.982293E-05 -1.679820E-04 -5.982293E-05 +1.721511E-05 -8.184097E-05 -1.679820E-04 -8.184097E-05 +1.389486E-04 
 +5.041850E-03 +1.738373E-05 +4.954148E-05 +1.738373E-05 -3.009690E-05 -5.464487E-05 +4.954148E-05 -5.464487E-05 +1.660003E-04 
 +4.898317E-03 +5.658976E-05 +8.713626E-05 +5.658976E-05 -3.985491E-06 -3.164895E-05 +8.713626E-05 -3.164895E-05 +2.054516E-04 
 +4.859638E-03 +4.595495E-05 +7.694692E-05 +4.595495E-05 -1.180822E-04 -5.234348E-05 +7.694692E-05 -5.234348E-05 +1.439642E-04 
 +4.970304E-03 -3.059082E-05 +9.387965E-05 -3.059082E-05 -1.900944E-04 +5.112980E-05 +9.387965E-05 +5.112980E-05 +4.761037E-06 
 +5.004238E-03 -2.283456E-05 -4.914789E-07 -2.283456E-05 -1.290195E-04 +2.148201E-04 -4.914789E-07 +2.148201E-04 -5.565980E-05 
 +5.027717E-03 -8.681412E-05 +2.320029E-06 -8.681412E-05 -1.952537E-04 +2.949441E-04 +2.320029E-06 +2.949441E-04 -9.624206E-05 
 +5.132300E-03 -6.496336E-05 -1.612326E-04 -6.496336E-05 -1.669168E-04 -1.645158E-04 -1.612326E-04 -1.645158E-04 -2.154434E-04 
 +5.112459E-03 -7.424529E-05 -1.378120E-04 -7.424529E-05 -1.344554E-04 -2.241298E-04 -1.378120E-04 -2.241298E-04 -2.159558E-04 
 +5.037169E-03 +4.705268E-05 -8.421784E-05 +4.705268E-05 -1.068253E-04 -1.077790E-04 -8.421784E-05 -1.077790E-04 +1.071174E-05 
 +5.100447E-03 +3.364669E-06 +8.659345E-06 +3.364669E-06 -2.707414E-04 +4.280938E-05 +8.659345E-06 +4.280938E-05 +1.376730E-04 
 +5.109170E-03 -3.352829E-05 +6.638187E-05 -3.352829E-05 -3.563573E-04 +9.648979E-05 +6.638187E-05 +9.648979E-05 +8.267642E-05 
 +5.087195E-03 -2.414243E-05 +1.234217E-04 -2.414243E-05 -3.700884E-04 +5.027182E-05 +1.234217E-04 +5.027182E-05 +4.563856E-05 
 +5.044626E-03 +4.557875E-06 +1.347418E-04 +4.557875E-06 -3.686189E-04 -5.183277E-05 +1.347418E-04 -5.183277E-05 +4.865115E-05 
 +4.958053E-03 -5.969834E-05 +5.004690E-05 -5.969834E-05 -1.776089E-04 -1.325943E-04 +5.004690E-05 -1.325943E-04 +3.898908E-05 
 +4.948682E-03 -1.209028E-04 +1.686065E-05 -1.209028E-04 -1.627253E-05 -1.412688E-04 +1.686065E-05 -1.412688E-04 -7.931390E-05 
 +4.972334E-03 -1.501630E-04 +1.501533E-04 -1.501630E-04 +8.941460E-05 -5.128456E-05 +1.501533E-04 -5.128456E-05 -1.585497E-04 
 +4.934798E-03 -1.154904E-04 +3.688403E-05 -1.154904E-04 +1.749791E-04 +9.505585E-06 +3.688403E-05 +9.505585E-06 -1.570227E-04 
 +4.958512E-03 -3.697191E-05 -1.444791E-05 -3.697191E-05 +2.370524E-04 -4.376747E-05 -1.444791E-05 -4.376747E-05 -9.171291E-05 
 +4.777943E-03 +6.208322E-05 -9.167563E-05 +6.208322E-05 +2.694222E-04 -7.295772E-05 -9.167563E-05 -7.295772E-05 +7.122719E-05 
 +4.671060E-03 +8.680997E-05 -8.600295E-05 +8.680997E-05 +2.272793E-04 -8.693545E-05 -8.600295E-05 -8.693545E-05 +2.081490E-04 
 +4.690494E-03 +3.763785E-05 -1.660793E-04 +3.763785E-05 +1.346348E-04 -6.445720E-05 -1.660793E-04 -6.445720E-05 +1.344537E-04 
 +5.122070E-03 +1.619044E-04 +2.266301E-05 +1.619044E-04 +1.681602E-05 -1.264363E-05 +2.266301E-05 -1.264363E-05 -1.872125E-05 
 +5.028245E-03 +1.666501E-04 +8.719336E-05 +1.666501E-04 -9.519397E-05 -1.032457E-04 +8.719336E-05 -1.032457E-04 +2.086039E-05 
 +4.999644E-03 +6.420295E-05 +1.396157E-04 +6.420295E-05 -1.607295E-04 -1.803523E-04 +1.396157E-04 -1.803523E-04 +1.183532E-05 
 +4.991828E-03 -1.083135E-05 +1.027847E-04 -1.083135E-05 -1.761512E-04 -1.517207E-04 +1.027847E-04 -1.517207E-04 -7.357769E-05 
 +4.997101E-03 -1.999973E-05 +6.175280E-05 -1.999973E-05 -2.140347E-04 -1.034977E-04 +6.175280E-05 -1.034977E-04 -1.209342E-04 
 +5.064040E-03 -8.369250E-05 +2.009625E-05 -8.369250E-05 -2.070320E-04 -7.393745E-05 +2.009625E-05 -7.393745E-05 -1.420567E-04 
 +5.130654E-03 -8.828012E-05 -1.812116E-04 -8.828012E-05 -2.711981E-04 -6.752691E-05 -1.812116E-04 -6.752691E-05 -1.466563E-05 
 +5.094030E-03 -3.556506E-05 -1.008904E-04 -3.556506E-05 -2.441055E-04 -4.090458E-05 -1.008904E-04 -4.090458E-05 -4.655869E-06 
 +5.079330E-03 +1.564357E-05 +1.036592E-06 +1.564357E-05 -3.388252E-04 +3.308377E-05 +1.036592E-06 +3.308377E-05 +1.014861E-04 
 +5.073291E-03 -8.021964E-06 +3.888845E-05 -8.021964E-06 -3.437325E-04 +9.984907E-05 +3.888845E-05 +9.984907E-05 +1.185051E-04 
 +5.019128E-03 +9.128143E-06 +6.570325E-05 +9.128143E-06 -2.702478E-04 +8.507960E-05 +6.570325E-05 +8.507960E-05 +3.454753E-05 
 +5.005731E-03 -1.797351E-05 +7.490674E-05 -1.797351E-05 -2.817396E-04 +3.664883E-05 +7.490674E-05 +3.664883E-05 +3.239188E-05 
 +4.968045E-03 +5.775984E-05 +4.955919E-05 +5.775984E-05 -3.028607E-04 +1.859206E-05 +4.955919E-05 +1.859206E-05 +4.625450E-05 
 +4.967323E-03 +5.940113E-05 -5.691355E-05 +5.940113E-05 -2.557175E-04 +1.211222E-04 -5.691355E-05 +1.211222E-04 -3.414028E-05 
 +5.023582E-03 +9.446558E-06 -8.148374E-05 +9.446558E-06 -7.188915E-05 +2.820647E-04 -8.148374E-05 +2.820647E-04 -2.267016E-04 
 +5.013948E-03 -4.871081E-05 +8.791673E-05 -4.871081E-05 +7.334558E-05 +2.228605E-04 +8.791673E-05 +2.228605E-04 -2.060765E-04 
 +4.942307E-03 -9.486536E-05 +4.264640E-05 -9.486536E-05 +1.317090E-04 -1.177485E-06 +4.264640E-05 -1.177485E-06 -6.190692E-05 
 +4.923578E-03 -4.135600E-05 -1.237398E-05 -4.135600E-05 +2.021518E-04 -4.589365E-05 -1.237398E-05 -4.589365E-05 -3.441868E-05 
 +4.832486E-03 +1.789554E-05 -5.893393E-05 +1.789554E-05 +2.490611E-04 +2.473827E-05 -5.893393E-05 +2.473827E-05 +7.284903E-05 
 +4.724207E-03 +5.762257E-05 -8.940237E-05 +5.762257E-05 +2.102995E-04 +2.093139E-05 -8.940237E-05 +2.093139E-05 +1.616769E-04 
 +4.729337E-03 +1.197530E-04 -7.068732E-05 +1.197530E-04 +1.598233E-04 +3.047306E-05 -7.068732E-05 +3.047306E-05 +4.538278E-05 
 +5.095627E-03 +2.556782E-04 -9.020044E-06 +2.556782E-04 +7.488415E-05 +8.786747E-05 -9.020044E-06 +8.786747E-05 -1.798694E-04 
 +5.102430E-03 +2.282856E-04 -1.070661E-05 +2.282856E-04 -2.251500E-05 +1.144553E-05 -1.070661E-05 +1.144553E-05 -1.597111E-04 
 +4.978392E-03 +9.083188E-05 +1.535010E-04 +9.083188E-05 -8.015948E-05 -1.344027E-04 +1.535010E-04 -1.344027E-04 -6.786091E-06 
 +4.983244E-03 +9.568461E-06 +1.290233E-04 +9.568461E-06 -1.347940E-04 -1.597950E-04 +1.290233E-04 -1.597950E-04 -5.332740E-07 
 +5.022853E-03 -2.672829E-05 +7.810482E-05 -2.672829E-05 -1.865832E-04 -1.497225E-04 +7.810482E-05 -1.497225E-04 -4.987161E-05 
 +5.028701E-03 -9.056783E-05 +3.425378E-05 -9.056783E-05 -2.526772E-04 -1.209678E-04 +3.425378E-05 -1.209678E-04 -3.854907E-05 
 +5.178689E-03 -4.497439E-05 -1.564575E-04 -4.497439E-05 -3.633128E-04 -4.068695E-05 -1.564575E-04 -4.068695E-05 +6.040414E-05 
 +5.024242E-03 -2.962501E-05 -7.286921E-05 -2.962501E-05 -4.993939E-04 +2.386462E-05 -7.286921E-05 +2.386462E-05 +1.375072E-04 
 +5.048460E-03 -3.880709E-05 +2.821754E-05 -3.880709E-05 -4.725669E-04 +7.183893E-05 +2.821754E-05 +7.183893E-05 +1.748535E-04 
 +5.060819E-03 -7.746984E-06 +5.128998E-05 -7.746984E-06 -3.624854E-04 +1.001226E-04 +5.128998E-05 +1.001226E-04 +1.126682E-04 
 +4.990007E-03 -2.172848E-06 +8.269650E-05 -2.172848E-06 -2.703280E-04 +1.021774E-04 +8.269650E-05 +1.021774E-04 +3.555226E-05 
 +4.949904E-03 -4.519699E-06 +8.390186E-05 -4.519699E-06 -1.808910E-04 +1.004183E-04 +8.390186E-05 +1.004183E-04 -1.296137E-05 
 +4.919361E-03 +9.055119E-05 +5.538274E-05 +9.055119E-05 -1.183015E-04 +9.915026E-05 +5.538274E-05 +9.915026E-05 +7.112272E-06 
 +4.924007E-03 +1.421767E-04 +6.112076E-07 +1.421767E-04 -4.613559E-05 +1.548360E-04 +6.112076E-07 +1.548360E-04 -1.838500E-05 
 +5.063994E-03 +1.618610E-05 -3.511520E-05 +1.618610E-05 -3.680617E-06 +2.975711E-04 -3.511520E-05 +2.975711E-04 -1.302158E-04 
 +5.054563E-03 -8.577069E-05 +1.450603E-05 -8.577069E-05 +1.915337E-05 +3.183805E-04 +1.450603E-05 +3.183805E-04 -7.209720E-05 
 +4.927046E-03 -6.509743E-05 -3.989036E-05 -6.509743E-05 +1.217008E-04 +1.077500E-04 -3.989036E-05 +1.077500E-04 +1.794460E-05 
 +4.906594E-03 +7.153058E-06 -4.572652E-05 +7.153058E-06 +2.115768E-04 -1.219454E-04 -4.572652E-05 -1.219454E-04 -5.581882E-05 
 +4.909044E-03 +2.785868E-05 +1.919904E-05 +2.785868E-05 +1.738795E-04 -9.209464E-05 +1.919904E-05 -9.209464E-05 -9.599716E-05 
 +4.842234E-03 +4.829509E-05 +1.379295E-05 +4.829509E-05 +9.009350E-05 +9.040024E-05 +1.379295E-05 +9.040024E-05 -9.904218E-05 
 +4.865293E-03 +1.185443E-04 +4.540111E-05 +1.185443E-04 +6.167081E-05 +1.464256E-04 +4.540111E-05 +1.464256E-04 -1.327419E-04 
 +5.035475E-03 +1.997613E-04 +1.525792E-05 +1.997613E-04 +5.479615E-05 +1.085794E-04 +1.525792E-05 +1.085794E-04 -2.618572E-04 
 +5.067325E-03 +1.868023E-04 -1.669975E-07 +1.868023E-04 +2.517356E-05 +4.136626E-05 -1.669975E-07 +4.136626E-05 -3.056670E-04 
 +5.007383E-03 +6.395749E-05 +1.658540E-04 +6.395749E-05 -4.692605E-06 -5.769815E-05 +1.658540E-04 -5.769815E-05 -1.169455E-04 
 +5.006468E-03 +3.784439E-05 +1.643066E-04 +3.784439E-05 -5.667585E-05 -1.160811E-04 +1.643066E-04 -1.160811E-04 +2.414217E-05 
 +5.000011E-03 +1.257481E-06 +4.027508E-05 +1.257481E-06 -1.141112E-04 -1.158301E-04 +4.027508E-05 -1.158301E-04 +5.477792E-05 
 +4.957405E-03 -9.612004E-05 +2.708500E-05 -9.612004E-05 -2.086987E-04 -8.867697E-05 +2.708500E-05 -8.867697E-05 +5.060928E-05 
 +5.067134E-03 -2.359281E-05 -8.509344E-05 -2.359281E-05 -1.287640E-04 -5.334802E-05 -8.509344E-05 -5.334802E-05 +5.120089E-05 
 +4.857719E-03 -1.137866E-04 +1.808438E-05 -1.137866E-04 -9.082559E-05 -5.013281E-05 +1.808438E-05 -5.013281E-05 +5.831416E-05 
 +4.959002E-03 -1.115954E-04 +4.130001E-05 -1.115954E-04 -2.290709E-04 -3.465518E-07 +4.130001E-05 -3.465518E-07 +8.771537E-05 
 +4.987132E-03 -7.907429E-05 +7.557417E-05 -7.907429E-05 -3.342115E-04 +8.757073E-05 +7.557417E-05 +8.757073E-05 +5.919013E-05 
 +5.046875E-03 -4.543810E-05 +7.105702E-05 -4.543810E-05 -2.415468E-04 +1.436099E-04 +7.105702E-05 +1.436099E-04 +1.807616E-05 
 +4.991927E-03 -2.145128E-05 +9.694862E-05 -2.145128E-05 -1.318416E-04 +1.422158E-04 +9.694862E-05 +1.422158E-04 -5.798364E-05 
 +4.874253E-03 +8.468886E-05 +1.123483E-04 +8.468886E-05 -8.103886E-05 +1.221300E-04 +1.123483E-04 +1.221300E-04 -3.081699E-05 
 +4.863253E-03 +1.439418E-04 +7.529991E-05 +1.439418E-04 -2.921664E-05 +1.737712E-04 +7.529991E-05 +1.737712E-04 -1.632683E-06 
 +5.059914E-03 +1.783144E-05 +3.598966E-05 +1.783144E-05 -1.595471E-05 +2.729255E-04 +3.598966E-05 +2.729255E-04 -7.538077E-05 
 +5.099532E-03 -5.203462E-05 -5.119162E-06 -5.203462E-05 +1.502409E-06 +2.603134E-04 -5.119162E-06 +2.603134E-04 -6.924712E-05 
 +4.985732E-03 -3.797680E-07 -9.719108E-05 -3.797680E-07 +8.053483E-05 +1.978912E-04 -9.719108E-05 +1.978912E-04 -2.495112E-05 
 +4.954222E-03 +3.081718E-05 -9.178279E-05 +3.081718E-05 +1.068483E-04 +2.120940E-04 -9.178279E-05 +2.120940E-04 -7.294500E-05 
 +4.948331E-03 +2.934802E-05 +5.154374E-05 +2.934802E-05 +7.973311E-05 +1.874315E-04 +5.154374E-05 +1.874315E-04 -1.895941E-04 
 +4.930084E-03 +3.051408E-05 +1.243187E-04 +3.051408E-05 +7.198082E-05 +1.082748E-04 +1.243187E-04 +1.082748E-04 -2.139178E-04 
 +4.915058E-03 +6.682937E-05 +1.005242E-04 +6.682937E-05 +2.021580E-05 +9.831044E-05 +1.005242E-04 +9.831044E-05 -1.725532E-04 
 +4.889260E-03 +9.027366E-05 +8.254644E-05 +9.027366E-05 -2.820046E-05 +1.816035E-04 +8.254644E-05 +1.816035E-04 -2.135954E-04 
 +5.084372E-03 +6.960629E-05 +8.568715E-05 +6.960629E-05 -2.405634E-05 +1.437390E-04 +8.568715E-05 +1.437390E-04 -3.171480E-04 
 +5.165713E-03 +2.304923E-05 +1.543502E-04 +2.304923E-05 -1.160096E-05 -1.915345E-05 +1.543502E-04 -1.915345E-05 -2.301706E-04 
 +5.055471E-03 +1.814698E-05 +1.196896E-04 +1.814698E-05 +3.998491E-05 -9.376286E-05 +1.196896E-04 -9.376286E-05 +2.772843E-05 
 +5.018497E-03 -2.141931E-05 -6.657511E-06 -2.141931E-05 +2.363165E-05 -9.682933E-05 -6.657511E-06 -9.682933E-05 +1.572412E-04 
 +4.984891E-03 -8.060531E-05 -5.671853E-06 -8.060531E-05 -1.085515E-04 -7.542131E-05 -5.671853E-06 -7.542131E-05 +1.311745E-04 
 +4.855824E-03 -1.422652E-04 +3.663086E-05 -1.422652E-04 +2.950682E-04 -5.744696E-05 +3.663086E-05 -5.744696E-05 +3.339545E-05 
 +4.777691E-03 -1.820600E-04 +4.486576E-05 -1.820600E-04 +2.899449E-04 -5.055549E-05 +4.486576E-05 -5.055549E-05 +9.821235E-06 
 +4.822045E-03 -2.223284E-04 -1.476035E-05 -2.223284E-04 +2.760688E-04 -4.343738E-05 -1.476035E-05 -4.343738E-05 +3.636208E-05 
 +4.893960E-03 -1.917245E-04 +1.300029E-05 -1.917245E-04 +7.755665E-05 +1.182904E-05 +1.300029E-05 +1.182904E-05 +1.769950E-05 
 +5.058705E-03 -1.497294E-04 +4.635634E-05 -1.497294E-04 -2.952498E-04 +5.561723E-05 +4.635634E-05 +5.561723E-05 +4.605517E-06 
 +5.084626E-03 -4.356518E-05 +1.130286E-04 -4.356518E-05 -3.506105E-04 +5.856631E-05 +1.130286E-04 +5.856631E-05 -5.668600E-05 
 +4.850995E-03 +6.988441E-05 +2.125355E-04 +6.988441E-05 -8.565345E-05 +6.856571E-05 +2.125355E-04 +6.856571E-05 -6.228417E-05 
 +4.891048E-03 +1.038975E-04 +1.341898E-04 +1.038975E-04 -1.374360E-05 +1.282419E-04 +1.341898E-04 +1.282419E-04 -2.965227E-05 
 +5.087224E-03 +7.889270E-08 +4.761570E-05 +7.889270E-08 -5.622985E-05 +2.195526E-04 +4.761570E-05 +2.195526E-04 -9.834450E-05 
 +5.126603E-03 -2.297987E-05 -4.044118E-05 -2.297987E-05 -1.874678E-05 +2.164451E-04 -4.044118E-05 +2.164451E-04 -9.748955E-05 
 +5.070905E-03 +3.828357E-05 -6.579419E-05 +3.828357E-05 +3.279526E-05 +1.736310E-04 -6.579419E-05 +1.736310E-04 -6.334867E-05 
 +5.047795E-03 +5.742824E-05 -6.264569E-05 +5.742824E-05 +9.628683E-05 +1.765262E-04 -6.264569E-05 +1.765262E-04 -9.032421E-05 
 +4.997888E-03 +4.958003E-05 +3.487473E-05 +4.958003E-05 +1.022299E-04 +1.707413E-04 +3.487473E-05 +1.707413E-04 -1.338310E-04 
 +4.901567E-03 +3.121718E-05 +1.283401E-04 +3.121718E-05 +3.072342E-05 +1.556776E-04 +1.283401E-04 +1.556776E-04 -1.283294E-04 
 +4.922644E-03 +2.183524E-05 +1.241693E-04 +2.183524E-05 +1.963945E-05 +9.828797E-05 +1.241693E-04 +9.828797E-05 -5.856157E-05 
 +4.694739E-03 +7.407905E-05 +7.619216E-05 +7.407905E-05 +1.206806E-05 -7.517675E-05 +7.619216E-05 -7.517675E-05 -4.544758E-05 
 +5.079549E-03 -1.785224E-05 +6.035931E-05 -1.785224E-05 -1.332191E-04 -3.025375E-04 +6.035931E-05 -3.025375E-04 -1.755125E-04 
 +5.269333E-03 -7.621249E-05 +1.072636E-04 -7.621249E-05 -1.772259E-04 -3.715600E-04 +1.072636E-04 -3.715600E-04 -2.176645E-04 
 +5.263929E-03 -3.370417E-05 +5.637765E-05 -3.370417E-05 -3.943657E-05 -3.896486E-04 +5.637765E-05 -3.896486E-04 -7.224494E-05 
 +5.102358E-03 -8.959704E-05 +1.362254E-05 -8.959704E-05 +8.657033E-06 -3.606169E-04 +1.362254E-05 -3.606169E-04 +6.272055E-05 
 +4.938807E-03 -1.473399E-04 +4.905745E-05 -1.473399E-04 +1.495118E-04 -1.787842E-04 +4.905745E-05 -1.787842E-04 +9.716003E-05 
 +4.807720E-03 -1.423994E-04 +1.092701E-04 -1.423994E-04 +2.067011E-04 -1.246004E-05 +1.092701E-04 -1.246004E-05 +2.417191E-05 
 +4.765896E-03 -1.399500E-04 +6.745731E-06 -1.399500E-04 +2.659621E-04 +2.728590E-05 +6.745731E-06 +2.728590E-05 +6.174330E-05 
 +4.756482E-03 -1.837896E-04 -7.678452E-05 -1.837896E-04 +2.411324E-04 -7.378698E-06 -7.678452E-05 -7.378698E-06 +5.244920E-05 
 +4.873870E-03 -1.530203E-04 -6.093440E-05 -1.530203E-04 +1.728709E-04 -6.148232E-05 -6.093440E-05 -6.148232E-05 -7.694161E-06 
 +4.968505E-03 -1.376224E-04 +2.221849E-05 -1.376224E-04 +9.995005E-05 -1.140009E-05 +2.221849E-05 -1.140009E-05 -9.222178E-05 
 +5.035156E-03 +9.160848E-05 +1.681455E-04 +9.160848E-05 +2.233195E-05 +7.645362E-05 +1.681455E-04 +7.645362E-05 -1.503186E-04 
 +4.882591E-03 +1.256822E-04 +2.531591E-04 +1.256822E-04 -3.908605E-05 +7.118169E-05 +2.531591E-04 +7.118169E-05 -1.020500E-04 
 +4.922954E-03 +5.697068E-05 +1.516330E-04 +5.697068E-05 -8.717539E-05 +9.078532E-05 +1.516330E-04 +9.078532E-05 -6.222967E-05 
 +5.124441E-03 -1.662115E-05 +4.388488E-05 -1.662115E-05 -9.182264E-05 +1.812173E-04 +4.388488E-05 +1.812173E-04 -1.206231E-04 
 +5.180673E-03 -9.712097E-06 -2.758570E-05 -9.712097E-06 -5.297089E-05 +2.069374E-04 -2.758570E-05 +2.069374E-04 -1.273464E-04 
 +5.131006E-03 +3.963255E-05 -5.377584E-05 +3.963255E-05 +6.246427E-06 +2.062423E-04 -5.377584E-05 +2.062423E-04 -9.688056E-05 
 +5.165849E-03 +4.182726E-05 -3.982559E-05 +4.182726E-05 +3.031772E-05 +3.127049E-04 -3.982559E-05 +3.127049E-04 -1.349197E-04 
 +5.111906E-03 +3.055319E-05 +6.652345E-05 +3.055319E-05 +5.700653E-05 +3.647510E-04 +6.652345E-05 +3.647510E-04 -1.328633E-04 
 +4.756382E-03 -9.003741E-06 +1.211664E-04 -9.003741E-06 +8.148834E-05 +1.772668E-04 +1.211664E-04 +1.772668E-04 +3.190084E-05 
 +4.849324E-03 -2.898325E-05 +1.446509E-04 -2.898325E-05 +8.486083E-05 -4.133625E-05 +1.446509E-04 -4.133625E-05 +1.090797E-04 
 +4.855495E-03 +7.989889E-05 +7.009767E-05 +7.989889E-05 +5.934094E-05 -1.018347E-04 +7.009767E-05 -1.018347E-04 +2.669391E-05 
 +4.945334E-03 +1.034031E-04 +2.177230E-05 +1.034031E-04 +1.566043E-05 -5.065673E-05 +2.177230E-05 -5.065673E-05 +1.689855E-06 
 +5.150020E-03 +3.048681E-05 +4.053420E-05 +3.048681E-05 -7.681438E-05 -3.152646E-05 +4.053420E-05 -3.152646E-05 -4.290389E-05 
 +5.403090E-03 -3.376318E-05 -1.521462E-06 -3.376318E-05 -9.895772E-05 -1.359061E-04 -1.521462E-06 -1.359061E-04 -6.802778E-05 
 +5.105694E-03 -2.834247E-04 +1.133230E-04 -2.834247E-04 +2.935181E-05 -1.696444E-04 +1.133230E-04 -1.696444E-04 +2.129961E-05 
 +4.945755E-03 -2.002256E-04 +1.044707E-04 -2.002256E-04 +1.298985E-04 -8.160265E-05 +1.044707E-04 -8.160265E-05 +3.511057E-05 
 +4.849766E-03 -1.274878E-04 +9.751966E-05 -1.274878E-04 +1.542543E-04 +5.638394E-05 +9.751966E-05 +5.638394E-05 +1.364795E-04 
 +4.799034E-03 -1.483614E-04 -1.012831E-05 -1.483614E-04 +2.358161E-04 +7.985164E-05 -1.012831E-05 +7.985164E-05 +1.558209E-04 
 +4.822121E-03 -1.572434E-04 -7.584431E-05 -1.572434E-04 +2.836654E-04 +1.653357E-05 -7.584431E-05 +1.653357E-05 +9.944010E-05 
 +4.853548E-03 -1.649198E-04 -7.185399E-05 -1.649198E-04 +2.820608E-04 -8.971485E-05 -7.185399E-05 -8.971485E-05 -2.153898E-05 
 +4.953464E-03 -1.069990E-04 +9.267434E-06 -1.069990E-04 +2.134723E-04 -8.735156E-05 +9.267434E-06 -8.735156E-05 -1.646840E-04 
 +4.952285E-03 +1.973543E-04 +1.729057E-04 +1.973543E-04 +1.484671E-04 +2.802936E-05 +1.729057E-04 +2.802936E-05 -1.923789E-04 
 +4.867194E-03 +2.438270E-04 +1.874658E-04 +2.438270E-04 +3.183460E-05 +5.232290E-05 +1.874658E-04 +5.232290E-05 -5.940276E-05 
 +4.859740E-03 +1.575343E-04 +1.683937E-04 +1.575343E-04 -7.058769E-05 +9.242156E-05 +1.683937E-04 +9.242156E-05 -8.317903E-06 
 +5.030053E-03 +6.401990E-06 +1.104610E-04 +6.401990E-06 -1.119530E-04 +2.124961E-04 +1.104610E-04 +2.124961E-04 -6.793091E-05 
 +5.158972E-03 -7.331768E-05 +9.736195E-06 -7.331768E-05 -9.412997E-05 +2.275572E-04 +9.736195E-06 +2.275572E-04 -7.928262E-05 
 +5.232816E-03 -3.431048E-05 -4.428659E-05 -3.431048E-05 -4.753378E-05 +2.104800E-04 -4.428659E-05 +2.104800E-04 -9.057981E-05 
 +5.258096E-03 -3.081138E-05 +3.207146E-05 -3.081138E-05 -2.327269E-07 +3.117084E-04 +3.207146E-05 +3.117084E-04 -1.581534E-04 
 +5.208912E-03 -5.090632E-05 +9.023632E-05 -5.090632E-05 +7.048669E-05 +3.731224E-04 +9.023632E-05 +3.731224E-04 -1.266202E-04 
 +4.805854E-03 -3.640504E-05 +6.170336E-05 -3.640504E-05 +1.295992E-04 +1.577912E-04 +6.170336E-05 +1.577912E-04 +1.531883E-04 
 +4.701037E-03 +1.635001E-05 +8.149144E-05 +1.635001E-05 +6.326045E-05 -1.508033E-04 +8.149144E-05 -1.508033E-04 +2.108809E-04 
 +5.034448E-03 -2.595460E-05 +1.082039E-04 -2.595460E-05 -7.649672E-05 -2.576841E-04 +1.082039E-04 -2.576841E-04 +4.847738E-05 
 +4.871902E-03 -1.554025E-05 +2.264757E-05 -1.554025E-05 -4.876839E-05 -1.267528E-04 +2.264757E-05 -1.267528E-04 +1.229635E-04 
 +5.118800E-03 -2.999759E-05 +1.145645E-05 -2.999759E-05 +4.000721E-05 +2.569655E-05 +1.145645E-05 +2.569655E-05 +1.452539E-04 
 +5.269970E-03 +6.637138E-05 +2.821560E-05 +6.637138E-05 +3.716803E-05 -8.277864E-08 +2.821560E-05 -8.277864E-08 +1.042967E-04 
 +5.113198E-03 -1.547710E-04 +1.653110E-04 -1.547710E-04 +5.263552E-05 -9.432301E-05 +1.653110E-04 -9.432301E-05 +1.265063E-04 
 +4.976919E-03 -1.458719E-04 +1.397481E-04 -1.458719E-04 +7.346766E-05 -5.098433E-05 +1.397481E-04 -5.098433E-05 +1.166621E-04 
 +4.877344E-03 -3.474435E-05 +8.871087E-05 -3.474435E-05 +1.784739E-04 +2.660960E-06 +8.871087E-05 +2.660960E-06 +2.178499E-04 
 +4.885610E-03 -9.448235E-05 +1.342619E-05 -9.448235E-05 +2.354612E-04 +1.841275E-05 +1.342619E-05 +1.841275E-05 +1.930296E-04 
 +4.882511E-03 -1.027845E-04 -1.679912E-05 -1.027845E-04 +3.034483E-04 +1.227562E-05 -1.679912E-05 +1.227562E-05 +1.094731E-04 
 +4.864860E-03 -1.643337E-04 -3.170030E-05 -1.643337E-04 +3.255922E-04 -6.377403E-05 -3.170030E-05 -6.377403E-05 -2.354666E-05 
 +4.933043E-03 -1.057953E-04 +1.776845E-05 -1.057953E-04 +3.354255E-04 -1.772319E-04 +1.776845E-05 -1.772319E-04 -1.313636E-04 
 +4.931174E-03 +1.196235E-04 +1.303850E-04 +1.196235E-04 +3.387811E-04 -1.254825E-04 +1.303850E-04 -1.254825E-04 -1.172795E-04 
 +4.823243E-03 +1.373893E-04 +1.316751E-04 +1.373893E-04 +2.992549E-04 -3.169843E-05 +1.316751E-04 -3.169843E-05 -2.073409E-05 
 +4.805349E-03 +1.043888E-04 +1.497972E-04 +1.043888E-04 +2.431860E-04 +9.035931E-06 +1.497972E-04 +9.035931E-06 +1.516072E-05 
 +4.853817E-03 +2.876874E-05 +1.575231E-04 +2.876874E-05 +1.815735E-04 -6.563346E-06 +1.575231E-04 -6.563346E-06 +2.022815E-05 
 +5.030554E-03 -4.330949E-05 +1.066795E-04 -4.330949E-05 +5.764431E-05 +4.233533E-05 +1.066795E-04 +4.233533E-05 +7.380410E-05 
 +5.211449E-03 -7.083989E-05 +2.901720E-05 -7.083989E-05 -3.750741E-05 +2.540668E-04 +2.901720E-05 +2.540668E-04 -2.686922E-06 
 +5.335018E-03 -1.507609E-04 -6.061135E-05 -1.507609E-04 -4.855482E-05 +1.882768E-04 -6.061135E-05 +1.882768E-04 -1.339206E-04 
 +5.291205E-03 -1.533184E-04 -5.564813E-06 -1.533184E-04 -8.735318E-05 -1.792633E-04 -5.564813E-06 -1.792633E-04 -1.526381E-04 
 +5.069596E-03 -9.101566E-05 +1.074160E-04 -9.101566E-05 -4.894467E-05 -2.865043E-04 +1.074160E-04 -2.865043E-04 +3.535988E-07 
 +4.719252E-03 -1.982488E-05 +5.217006E-05 -1.982488E-05 +6.720686E-05 -1.186166E-04 +5.217006E-05 -1.186166E-04 +1.599463E-04 
 +4.877007E-03 -2.045021E-05 +2.388082E-05 -2.045021E-05 +1.115255E-04 -5.247739E-05 +2.388082E-05 -5.247739E-05 +1.395883E-04 
 +4.891513E-03 -2.048618E-05 -1.760981E-05 -2.048618E-05 -1.377248E-05 -2.550196E-05 -1.760981E-05 -2.550196E-05 +1.458096E-04 
 +5.173045E-03 -1.238320E-04 +5.061620E-05 -1.238320E-04 -2.553781E-04 +9.674514E-05 +5.061620E-05 +9.674514E-05 +2.180587E-04 
 +5.242713E-03 +5.667977E-06 +1.043804E-04 +5.667977E-06 -4.272410E-04 +1.171411E-04 +1.043804E-04 +1.171411E-04 +2.837093E-04 
 +5.187257E-03 +1.125600E-05 +1.456237E-04 +1.125600E-05 -2.518876E-04 -9.073895E-06 +1.456237E-04 -9.073895E-06 +2.345608E-04 
 +4.852540E-03 -5.495025E-05 +1.962559E-04 -5.495025E-05 +6.887196E-05 -5.855660E-05 +1.962559E-04 -5.855660E-05 +1.849841E-04 
 +4.844974E-03 -3.048770E-05 +1.674919E-04 -3.048770E-05 +1.904194E-04 -7.527626E-06 +1.674919E-04 -7.527626E-06 +2.481151E-04 
 +4.901357E-03 -1.310482E-04 +6.200827E-05 -1.310482E-04 +2.478940E-04 +1.406160E-05 +6.200827E-05 +1.406160E-05 +1.715004E-04 
 +4.962744E-03 -1.722628E-04 +8.091479E-05 -1.722628E-04 +2.747798E-04 -3.476222E-06 +8.091479E-05 -3.476222E-06 +8.314600E-05 
 +4.985537E-03 -1.751068E-04 +2.405995E-05 -1.751068E-04 +3.095212E-04 -6.042605E-05 +2.405995E-05 -6.042605E-05 -4.661508E-06 
 +4.833993E-03 -5.713612E-05 +4.586476E-05 -5.713612E-05 +4.057008E-04 -1.510422E-04 +4.586476E-05 -1.510422E-04 -8.486810E-05 
 +4.843204E-03 +7.380543E-05 +1.225109E-04 +7.380543E-05 +3.992794E-04 -1.390811E-04 +1.225109E-04 -1.390811E-04 -7.340532E-05 
 +4.833420E-03 +1.025025E-04 +1.229848E-04 +1.025025E-04 +3.060185E-04 -5.860317E-05 +1.229848E-04 -5.860317E-05 -3.008933E-05 
 +4.824902E-03 +1.124962E-04 +1.024765E-04 +1.124962E-04 +2.733204E-04 -1.271617E-05 +1.024765E-04 -1.271617E-05 -2.616765E-06 
 +4.821627E-03 +7.520293E-05 +1.042840E-04 +7.520293E-05 +2.648960E-04 -4.493227E-05 +1.042840E-04 -4.493227E-05 +1.118031E-05 
 +4.837951E-03 +1.207138E-05 +1.435729E-04 +1.207138E-05 +2.850855E-04 -1.200737E-04 +1.435729E-04 -1.200737E-04 +7.025274E-05 
 +5.074797E-03 -3.531940E-05 -6.255634E-06 -3.531940E-05 +1.789941E-04 -2.573330E-04 -6.255634E-06 -2.573330E-04 +3.174618E-05 
 +5.386755E-03 -9.538523E-05 -1.691902E-04 -9.538523E-05 -7.611709E-05 -3.861798E-04 -1.691902E-04 -3.861798E-04 -1.221339E-04 
 +5.299517E-03 -1.001690E-04 -3.274251E-05 -1.001690E-04 -1.561973E-04 -4.042369E-04 -3.274251E-05 -4.042369E-04 -1.456557E-04 
 +5.182063E-03 -1.112787E-04 +1.549580E-04 -1.112787E-04 -7.522966E-05 -4.080931E-04 +1.549580E-04 -4.080931E-04 -9.239421E-05 
 +4.888225E-03 -1.169306E-04 +6.505485E-05 -1.169306E-04 +3.338696E-05 -3.769009E-04 +6.505485E-05 -3.769009E-04 -3.269007E-05 
 +4.841830E-03 -1.629887E-04 -1.169478E-05 -1.629887E-04 -3.765278E-05 -2.272955E-04 -1.169478E-05 -2.272955E-04 +5.899521E-05 
 +4.975281E-03 -1.144493E-04 +2.456256E-05 -1.144493E-04 -3.275052E-04 -5.144601E-05 +2.456256E-05 -5.144601E-05 +1.632032E-04 
 +5.161898E-03 -7.698523E-05 +1.083824E-04 -7.698523E-05 -4.508128E-04 +3.503496E-05 +1.083824E-04 +3.503496E-05 +2.767454E-04 
 +5.171165E-03 -9.147692E-06 +1.046673E-04 -9.147692E-06 -4.643332E-04 +8.571567E-05 +1.046673E-04 +8.571567E-05 +3.608859E-04 
 +5.165916E-03 +6.649895E-05 +1.006909E-04 +6.649895E-05 -4.048143E-04 +8.381563E-05 +1.006909E-04 +8.381563E-05 +3.226766E-04 
 +4.900912E-03 +3.364829E-05 +2.116992E-04 +3.364829E-05 -6.907954E-05 +1.318628E-06 +2.116992E-04 +1.318628E-06 +2.584720E-04 
 +4.852488E-03 -6.273822E-05 +1.513966E-04 -6.273822E-05 +7.247645E-05 +1.023563E-05 +1.513966E-04 +1.023563E-05 +3.010337E-04 
 +4.910231E-03 -2.108007E-04 +1.129459E-04 -2.108007E-04 +2.509842E-04 -2.468558E-06 +1.129459E-04 -2.468558E-06 +1.677306E-04 
 +4.993348E-03 -2.511604E-04 +1.321896E-04 -2.511604E-04 +2.624244E-04 -4.780002E-05 +1.321896E-04 -4.780002E-05 +3.870272E-05 
 +5.075483E-03 -3.492088E-04 +9.215226E-05 -3.492088E-04 +3.036783E-04 -8.357013E-05 +9.215226E-05 -8.357013E-05 -2.321623E-05 
 +4.896833E-03 -1.873728E-04 +1.243608E-04 -1.873728E-04 +3.171395E-04 -4.718741E-05 +1.243608E-04 -4.718741E-05 -4.889858E-05 
 +4.835504E-03 +3.167730E-06 +1.594246E-04 +3.167730E-06 +3.059338E-04 -1.194700E-05 +1.594246E-04 -1.194700E-05 -2.633464E-05 
 +4.826793E-03 +9.497357E-05 +8.900387E-05 +9.497357E-05 +2.840465E-04 -2.564209E-05 +8.900387E-05 -2.564209E-05 +6.233593E-06 
 +4.862970E-03 +8.134574E-05 +7.702218E-05 +8.134574E-05 +2.792442E-04 -3.735852E-05 +7.702218E-05 -3.735852E-05 +5.538190E-06 
 +4.850486E-03 +7.434454E-05 +5.367561E-05 +7.434454E-05 +3.261853E-04 -3.910730E-05 +5.367561E-05 -3.910730E-05 +2.048128E-05 
 +4.786258E-03 +5.196939E-05 +3.748433E-05 +5.196939E-05 +3.334903E-04 -1.079638E-04 +3.748433E-05 -1.079638E-04 +4.831084E-05 
 +5.177269E-03 +1.002642E-04 -1.148528E-04 +1.002642E-04 +2.337759E-04 -1.711261E-04 -1.148528E-04 -1.711261E-04 -2.923575E-05 
 +5.270522E-03 +1.097754E-04 -1.102191E-04 +1.097754E-04 +2.274053E-04 -1.234738E-04 -1.102191E-04 -1.234738E-04 -1.511300E-04 
 +5.175738E-03 +6.004790E-05 -1.120862E-05 +6.004790E-05 +2.121244E-04 -1.698370E-04 -1.120862E-05 -1.698370E-04 -9.252707E-05 
 +5.126839E-03 +1.294279E-05 +3.666966E-05 +1.294279E-05 +8.424933E-05 -3.366352E-04 +3.666966E-05 -3.366352E-04 -6.835267E-05 
 +5.040217E-03 +3.438177E-05 -4.596635E-05 +3.438177E-05 -1.060642E-05 -4.708742E-04 -4.596635E-05 -4.708742E-04 -1.986440E-04 
 +5.030405E-03 -1.224279E-04 +5.224491E-05 -1.224279E-04 -1.082819E-04 -4.469962E-04 +5.224491E-05 -4.469962E-04 -1.266140E-04 
 +4.995276E-03 -1.328505E-04 +1.514257E-04 -1.328505E-04 -2.985920E-04 -2.226676E-04 +1.514257E-04 -2.226676E-04 +6.290263E-05 
 +5.078377E-03 -6.314013E-05 +1.007883E-04 -6.314013E-05 -4.042209E-04 -4.223820E-05 +1.007883E-04 -4.223820E-05 +1.243829E-04 
 +5.051149E-03 -8.298295E-06 +3.502882E-05 -8.298295E-06 -3.453708E-04 +4.047993E-05 +3.502882E-05 +4.047993E-05 +1.508600E-04 
 +4.994638E-03 +1.277431E-04 +3.406390E-05 +1.277431E-04 -3.490183E-04 +7.263575E-05 +3.406390E-05 +7.263575E-05 +2.136863E-04 
 +4.907341E-03 +1.249073E-04 +1.138661E-04 +1.249073E-04 -2.726259E-04 +3.654468E-05 +1.138661E-04 +3.654468E-05 +2.977948E-04 
 +4.833355E-03 +1.256005E-04 +2.693759E-05 +1.256005E-04 +5.502196E-05 -8.102191E-05 +2.693759E-05 -8.102191E-05 +1.894236E-04 
 +4.881301E-03 -1.730202E-04 +1.479629E-04 -1.730202E-04 +1.441610E-04 -1.262827E-04 +1.479629E-04 -1.262827E-04 +3.621111E-05 
 +5.057642E-03 -2.335913E-04 +1.311880E-04 -2.335913E-04 +2.317062E-04 -1.779282E-04 +1.311880E-04 -1.779282E-04 -7.579849E-05 
 +5.060041E-03 -2.832725E-04 +9.828873E-05 -2.832725E-04 +1.952252E-04 -1.832098E-04 +9.828873E-05 -1.832098E-04 -9.466751E-05 
 +5.069429E-03 -1.203051E-04 +1.340305E-04 -1.203051E-04 +2.166129E-04 -1.393945E-04 +1.340305E-04 -1.393945E-04 -9.848808E-05 
 +5.025035E-03 +2.447890E-05 +1.660755E-04 +2.447890E-05 +1.964306E-04 -1.148070E-04 +1.660755E-04 -1.148070E-04 -6.927590E-05 
 +4.895748E-03 +2.432592E-04 +4.739803E-05 +2.432592E-04 +1.126158E-04 -1.222014E-04 +4.739803E-05 -1.222014E-04 +1.565209E-05 
 +4.877972E-03 +3.100504E-04 +1.312865E-05 +3.100504E-04 +1.025848E-04 -1.538501E-04 +1.312865E-05 -1.538501E-04 +5.732660E-05 
 +4.855581E-03 +3.083990E-04 +1.183582E-05 +3.083990E-04 +1.440336E-04 -1.831012E-04 +1.183582E-05 -1.831012E-04 +1.176119E-04 
 +4.926421E-03 +2.500271E-04 -2.400908E-05 +2.500271E-04 +1.957568E-04 -1.896806E-04 -2.400908E-05 -1.896806E-04 +1.188402E-04 
 +5.148667E-03 +1.671204E-04 -9.445678E-05 +1.671204E-04 +2.975343E-04 -1.827102E-04 -9.445678E-05 -1.827102E-04 -6.573367E-05 
 +5.126029E-03 +8.837368E-05 -8.621571E-05 +8.837368E-05 +3.518941E-04 -1.893101E-04 -8.621571E-05 -1.893101E-04 -1.931592E-04 
 +5.114830E-03 +7.516374E-05 -7.300100E-05 +7.516374E-05 +3.195032E-04 -2.180025E-04 -7.300100E-05 -2.180025E-04 -1.755122E-04 
 +5.112873E-03 +9.770624E-05 -3.214125E-05 +9.770624E-05 +2.629005E-04 -2.400652E-04 -3.214125E-05 -2.400652E-04 -1.777946E-04 
 +5.149067E-03 +8.231419E-05 -6.039228E-08 +8.231419E-05 +5.815783E-05 -1.374803E-04 -6.039228E-08 -1.374803E-04 -2.376155E-04 
 +5.120432E-03 -7.677587E-05 +6.060154E-05 -7.677587E-05 -6.321807E-05 -7.387267E-05 +6.060154E-05 -7.387267E-05 -2.727323E-04 
 +4.907317E-03 -1.267840E-04 +7.068628E-05 -1.267840E-04 +1.445414E-04 -2.706762E-04 +7.068628E-05 -2.706762E-04 -2.290230E-04 
 +4.953082E-03 -3.941321E-05 +5.716585E-05 -3.941321E-05 +2.753182E-04 -3.830608E-04 +5.716585E-05 -3.830608E-04 -1.817465E-04 
 +4.999789E-03 +7.595500E-05 +3.400496E-05 +7.595500E-05 +2.851635E-04 -2.881930E-04 +3.400496E-05 -2.881930E-04 -2.170424E-04 
 +4.913711E-03 +1.771105E-04 +1.822592E-05 +1.771105E-04 +3.071964E-04 -2.224135E-04 +1.822592E-05 -2.224135E-04 -1.605477E-04 
 +4.710100E-03 +2.923327E-04 +8.804755E-06 +2.923327E-04 +1.944301E-04 -1.398900E-04 +8.804755E-06 -1.398900E-04 +1.018969E-04 
 +4.734761E-03 +2.249047E-04 +5.399239E-06 +2.249047E-04 +1.371571E-04 -3.469319E-05 +5.399239E-06 -3.469319E-05 +1.288599E-04 
 +4.800614E-03 +1.276198E-04 +7.375825E-05 +1.276198E-04 +1.826999E-04 -6.445533E-05 +7.375825E-05 -6.445533E-05 -1.317703E-05 
 +5.096044E-03 -1.641239E-04 +5.415972E-05 -1.641239E-04 +2.059762E-04 -1.100962E-04 +5.415972E-05 -1.100962E-04 -9.452948E-05 
 +5.043804E-03 -2.030429E-04 +5.387371E-05 -2.030429E-04 +1.672744E-04 -1.029968E-04 +5.387371E-05 -1.029968E-04 -1.178695E-04 
 +5.133512E-03 -7.842100E-05 +6.681903E-05 -7.842100E-05 +2.204114E-04 -8.757261E-05 +6.681903E-05 -8.757261E-05 -1.690045E-04 
 +5.134428E-03 -6.263200E-05 +1.330377E-04 -6.263200E-05 +2.552756E-04 -1.074929E-04 +1.330377E-04 -1.074929E-04 -1.770559E-04 
 +5.070942E-03 +1.387847E-05 +7.210577E-05 +1.387847E-05 +2.104080E-04 -1.144606E-04 +7.210577E-05 -1.144606E-04 -4.389038E-05 
 +4.946968E-03 +1.719926E-04 -2.399696E-06 +1.719926E-04 +1.274228E-04 -8.725874E-05 -2.399696E-06 -8.725874E-05 +1.114505E-04 
 +4.885822E-03 +2.507957E-04 +3.776981E-06 +2.507957E-04 +1.654318E-04 -9.643605E-05 +3.776981E-06 -9.643605E-05 +1.386368E-04 
 +4.966483E-03 +1.888195E-04 -2.939136E-06 +1.888195E-04 +3.106551E-04 -1.478224E-04 -2.939136E-06 -1.478224E-04 +2.707669E-05 
 +4.995960E-03 +1.094169E-04 -4.421858E-05 +1.094169E-04 +4.273441E-04 -1.546214E-04 -4.421858E-05 -1.546214E-04 -1.299551E-04 
 +5.078602E-03 +5.152503E-05 -6.795528E-05 +5.152503E-05 +4.065059E-04 -1.100431E-04 -6.795528E-05 -1.100431E-04 -2.176608E-04 
 +5.152386E-03 +3.038576E-05 -7.657341E-05 +3.038576E-05 +3.219132E-04 -9.299077E-05 -7.657341E-05 -9.299077E-05 -2.626893E-04 
 +5.194064E-03 +6.255568E-05 -4.202324E-05 +6.255568E-05 +2.248910E-04 -1.162650E-04 -4.202324E-05 -1.162650E-04 -2.704662E-04 
 +5.209788E-03 +2.667044E-05 +5.990680E-05 +2.667044E-05 +1.943479E-04 -1.971616E-04 +5.990680E-05 -1.971616E-04 -2.949465E-04 
 +5.042346E-03 -1.939303E-05 +5.521387E-05 -1.939303E-05 +2.758471E-04 -2.343000E-04 +5.521387E-05 -2.343000E-04 -4.308193E-04 
 +4.884756E-03 -4.136624E-05 -5.256279E-05 -4.136624E-05 +3.089680E-04 -1.805545E-04 -5.256279E-05 -1.805545E-04 -3.979238E-04 
 +4.786769E-03 -3.075531E-05 +5.294564E-05 -3.075531E-05 +3.483059E-04 -1.888927E-04 +5.294564E-05 -1.888927E-04 -2.677050E-04 
 +4.996123E-03 +5.244045E-05 +1.028447E-04 +5.244045E-05 +3.724548E-04 -2.234325E-04 +1.028447E-04 -2.234325E-04 -3.940610E-04 
 +4.949925E-03 +1.827684E-04 +6.412893E-05 +1.827684E-04 +3.085098E-04 -1.975373E-04 +6.412893E-05 -1.975373E-04 -3.772416E-04 
 +4.634311E-03 +2.893416E-04 +3.014567E-05 +2.893416E-04 +2.382016E-04 -1.067131E-04 +3.014567E-05 -1.067131E-04 -8.216303E-06 
 +4.692644E-03 +1.913816E-04 +3.229443E-05 +1.913816E-04 +1.827408E-04 -6.242519E-05 +3.229443E-05 -6.242519E-05 +1.715863E-04 
 +4.758566E-03 +1.767383E-04 +8.620130E-06 +1.767383E-04 +1.801591E-04 -8.590482E-05 +8.620130E-06 -8.590482E-05 +4.140629E-05 
 +5.048212E-03 -1.675582E-04 +9.477526E-07 -1.675582E-04 +1.766027E-04 -8.839371E-05 +9.477526E-07 -8.839371E-05 -3.713473E-05 
 +5.009177E-03 -1.160749E-04 +4.479757E-05 -1.160749E-04 +2.080541E-04 -7.808380E-05 +4.479757E-05 -7.808380E-05 -9.062695E-05 
 +5.096495E-03 -2.634968E-05 +3.229068E-05 -2.634968E-05 +2.779214E-04 -7.984633E-05 +3.229068E-05 -7.984633E-05 -1.654222E-04 
 +5.102470E-03 -5.207244E-05 +1.057678E-04 -5.207244E-05 +3.003550E-04 -9.728966E-05 +1.057678E-04 -9.728966E-05 -1.924487E-04 
 +5.082729E-03 -6.900835E-05 +9.366084E-05 -6.900835E-05 +2.805461E-04 -1.394795E-04 +9.366084E-05 -1.394795E-04 -1.096315E-04 
 +5.016490E-03 -3.040702E-06 +2.834525E-05 -3.040702E-06 +2.576772E-04 -1.590360E-04 +2.834525E-05 -1.590360E-04 -2.301516E-05 
 +4.969793E-03 +1.163421E-04 +5.646292E-05 +1.163421E-04 +2.903716E-04 -1.212120E-04 +5.646292E-05 -1.212120E-04 -4.596162E-06 
 +5.002756E-03 +1.366680E-04 +6.156180E-05 +1.366680E-04 +3.935590E-04 -8.110310E-05 +6.156180E-05 -8.110310E-05 -2.053681E-05 
 +5.071690E-03 +7.899757E-05 -8.970499E-06 +7.899757E-05 +4.370084E-04 -6.484120E-05 -8.970499E-06 -6.484120E-05 -6.469033E-05 
 +5.101732E-03 +4.629539E-05 -7.000807E-05 +4.629539E-05 +4.217565E-04 -6.859634E-05 -7.000807E-05 -6.859634E-05 -1.584739E-04 
 +5.154431E-03 +2.011760E-05 -9.651147E-05 +2.011760E-05 +3.528303E-04 -9.718329E-05 -9.651147E-05 -9.718329E-05 -2.766880E-04 
 +5.217985E-03 -2.650293E-06 -8.324971E-05 -2.650293E-06 +2.742005E-04 -1.387390E-04 -8.324971E-05 -1.387390E-04 -2.820204E-04 
 +5.201292E-03 -7.637198E-05 -3.840037E-05 -7.637198E-05 +2.227659E-04 -1.689901E-04 -3.840037E-05 -1.689901E-04 -2.498974E-04 
 +5.035913E-03 -7.548485E-05 +4.149306E-05 -7.548485E-05 +1.912008E-04 -1.913493E-04 +4.149306E-05 -1.913493E-04 -3.513753E-04 
 +4.958039E-03 -3.655569E-05 -2.185130E-06 -3.655569E-05 +2.551048E-04 -1.203250E-04 -2.185130E-06 -1.203250E-04 -3.127634E-04 
 +4.652502E-03 +9.911587E-05 +5.258507E-05 +9.911587E-05 +3.626023E-04 +1.077846E-05 +5.258507E-05 +1.077846E-05 -1.821767E-04 
 +4.985603E-03 +1.090296E-04 +7.877051E-05 +1.090296E-04 +3.539837E-04 -4.310517E-05 +7.877051E-05 -4.310517E-05 -3.452002E-04 
 +4.941577E-03 +1.833081E-04 +8.898069E-05 +1.833081E-04 +2.709258E-04 -1.610226E-04 +8.898069E-05 -1.610226E-04 -3.607227E-04 
 +4.638213E-03 +2.538785E-04 +7.272286E-05 +2.538785E-04 +2.087707E-04 -1.145374E-04 +7.272286E-05 -1.145374E-04 +2.167656E-05 
 +4.674990E-03 +2.076604E-04 +6.977233E-05 +2.076604E-04 +2.188560E-04 +1.598916E-05 +6.977233E-05 +1.598916E-05 +1.701657E-04 
 +4.745167E-03 +1.747044E-04 +4.604166E-05 +1.747044E-04 +1.902512E-04 +5.886491E-05 +4.604166E-05 +5.886491E-05 +1.027050E-04 
 +5.030173E-03 -1.495560E-04 +2.689045E-06 -1.495560E-04 +1.379256E-04 +1.044618E-05 +2.689045E-06 +1.044618E-05 +6.949417E-05 
 +4.970985E-03 -4.467571E-05 +5.485282E-05 -4.467571E-05 +2.153593E-04 -4.612858E-05 +5.485282E-05 -4.612858E-05 +5.639852E-05 
 +5.029225E-03 +3.095226E-05 +5.413765E-05 +3.095226E-05 +3.212826E-04 -4.978876E-05 +5.413765E-05 -4.978876E-05 -2.967139E-05 
 +5.051695E-03 -4.964752E-05 +8.185848E-05 -4.964752E-05 +3.325200E-04 -8.171578E-05 +8.185848E-05 -8.171578E-05 -9.630719E-05 
 +5.033897E-03 -4.921924E-05 +6.092319E-05 -4.921924E-05 +2.915343E-04 -1.741032E-04 +6.092319E-05 -1.741032E-04 -9.780565E-05 
 +4.983557E-03 +6.121538E-05 +8.990913E-05 +6.121538E-05 +2.898002E-04 -2.002233E-04 +8.990913E-05 -2.002233E-04 -8.712540E-05 
 +5.011998E-03 +8.276577E-05 +1.404789E-04 +8.276577E-05 +1.533327E-04 -1.193212E-04 +1.404789E-04 -1.193212E-04 +1.718731E-05 
 +5.126416E-03 +3.167796E-05 +1.095021E-04 +3.167796E-05 -2.255313E-04 -6.251882E-05 +1.095021E-04 -6.251882E-05 +1.454609E-04 
 +5.176894E-03 +4.456302E-05 -1.219442E-05 +4.456302E-05 -4.124652E-04 -3.773595E-05 -1.219442E-05 -3.773595E-05 +1.740426E-04 
 +5.162668E-03 +4.270559E-05 -1.645220E-04 +4.270559E-05 -2.319415E-04 -4.233266E-05 -1.645220E-04 -4.233266E-05 +6.852930E-05 
 +5.155620E-03 +1.786012E-05 -1.720804E-04 +1.786012E-05 +1.200168E-04 -1.483443E-04 -1.720804E-04 -1.483443E-04 -9.621307E-05 
 +5.179714E-03 -7.896665E-05 -1.268088E-04 -7.896665E-05 +2.644684E-04 -2.430450E-04 -1.268088E-04 -2.430450E-04 -1.664929E-04 
 +5.155582E-03 -1.500593E-04 -8.047210E-05 -1.500593E-04 +1.220971E-04 -2.659436E-04 -8.047210E-05 -2.659436E-04 -1.804513E-04 
 +5.041867E-03 -1.049817E-04 -9.856113E-06 -1.049817E-04 +6.418617E-05 -2.537550E-04 -9.856113E-06 -2.537550E-04 -2.460945E-04 
 +4.965739E-03 -1.098167E-04 +1.650249E-06 -1.098167E-04 +1.584007E-04 -2.019942E-04 +1.650249E-06 -2.019942E-04 -2.552609E-04 
 +4.798783E-03 -6.237144E-07 +2.891561E-05 -6.237144E-07 +2.289669E-04 -1.017970E-04 +2.891561E-05 -1.017970E-04 -2.115129E-04 
 +4.921070E-03 +7.147288E-05 +3.137424E-05 +7.147288E-05 +2.805000E-04 -2.297989E-05 +3.137424E-05 -2.297989E-05 -3.099471E-04 
 +4.893899E-03 +1.313641E-04 +6.395416E-05 +1.313641E-04 +2.727812E-04 -4.663083E-05 +6.395416E-05 -4.663083E-05 -2.761566E-04 
 +4.628354E-03 +2.259315E-04 +8.059269E-05 +2.259315E-04 +2.111909E-04 -5.990348E-05 +8.059269E-05 -5.990348E-05 +3.342147E-05 
 +4.663345E-03 +1.493320E-04 +1.103438E-04 +1.493320E-04 +2.051313E-04 +9.317384E-05 +1.103438E-04 +9.317384E-05 +2.315450E-04 
 +4.802180E-03 +8.752416E-05 +7.546020E-05 +8.752416E-05 +1.450806E-04 +1.012685E-04 +7.546020E-05 +1.012685E-04 +2.496360E-04 
 +5.019077E-03 -1.513517E-04 +1.043192E-06 -1.513517E-04 +9.619081E-05 +2.428985E-05 +1.043192E-06 +2.428985E-05 +2.273293E-04 
 +4.954965E-03 +5.781785E-05 +7.677208E-05 +5.781785E-05 +1.724421E-04 -1.806215E-05 +7.677208E-05 -1.806215E-05 +1.986759E-04 
 +5.005620E-03 +9.734979E-05 +1.058771E-04 +9.734979E-05 +2.733119E-04 -7.638484E-06 +1.058771E-04 -7.638484E-06 +1.077862E-04 
 +5.015084E-03 +1.251714E-05 +6.279508E-05 +1.251714E-05 +2.688182E-04 -3.965814E-05 +6.279508E-05 -3.965814E-05 +7.946053E-06 
 +4.975231E-03 +5.054016E-06 +7.569769E-05 +5.054016E-06 +2.496139E-04 -1.124942E-04 +7.569769E-05 -1.124942E-04 -2.323883E-05 
 +4.977948E-03 +1.193918E-05 +1.818526E-04 +1.193918E-05 +3.397549E-05 -8.455478E-05 +1.818526E-04 -8.455478E-05 +1.102150E-04 
 +5.087760E-03 +1.490460E-05 +1.691638E-04 +1.490460E-05 -3.971929E-04 -5.237051E-06 +1.691638E-04 -5.237051E-06 +2.728163E-04 
 +5.160117E-03 +9.233263E-05 +9.450192E-05 +9.233263E-05 -5.372858E-04 -1.643672E-05 +9.450192E-05 -1.643672E-05 +2.870659E-04 
 +5.156361E-03 +1.108329E-04 -2.724154E-06 +1.108329E-04 -4.628189E-04 -2.888959E-05 -2.724154E-06 -2.888959E-05 +2.809490E-04 
 +5.157190E-03 +1.118335E-04 -1.968028E-04 +1.118335E-04 -4.368948E-04 -2.312473E-05 -1.968028E-04 -2.312473E-05 +2.654355E-04 
 +5.171671E-03 +5.259024E-05 -2.759482E-04 +5.259024E-05 -4.552186E-04 -1.781741E-04 -2.759482E-04 -1.781741E-04 +2.314608E-04 
 +5.191524E-03 -7.358440E-05 -2.099096E-04 -7.358440E-05 -3.351682E-04 -3.691465E-04 -2.099096E-04 -3.691465E-04 +1.406738E-04 
 +5.140808E-03 -1.441103E-04 -6.204864E-05 -1.441103E-04 -1.510736E-05 -3.728123E-04 -6.204864E-05 -3.728123E-04 -7.077113E-05 
 +4.979349E-03 -1.263946E-04 -1.557151E-05 -1.263946E-04 +1.127214E-04 -2.518758E-04 -1.557151E-05 -2.518758E-04 -2.451807E-04 
 +4.914965E-03 -6.285098E-05 -3.640530E-05 -6.285098E-05 +8.819028E-05 -1.737199E-04 -3.640530E-05 -1.737199E-04 -2.596553E-04 
 +4.926037E-03 -3.096615E-05 -2.093775E-05 -3.096615E-05 +1.134317E-04 -1.376230E-04 -2.093775E-05 -1.376230E-04 -2.413676E-04 
 +4.892503E-03 -1.146118E-05 +5.845565E-06 -1.146118E-05 +1.649238E-04 -9.312062E-05 +5.845565E-06 -9.312062E-05 -2.618470E-04 
 +4.913999E-03 +2.770549E-06 -2.827858E-06 +2.770549E-06 +1.877279E-04 -5.621671E-05 -2.827858E-06 -5.621671E-05 -1.465496E-04 
 +4.632532E-03 +1.755368E-04 +6.544246E-05 +1.755368E-04 +1.961294E-04 -5.144291E-06 +6.544246E-05 -5.144291E-06 +8.137231E-05 
 +4.803080E-03 +3.496681E-05 +1.071281E-05 +3.496681E-05 +1.283004E-04 +8.683642E-05 +1.071281E-05 +8.683642E-05 +1.483544E-04 
 +4.898997E-03 +3.711258E-05 +4.576242E-05 +3.711258E-05 -7.186066E-05 -2.071379E-05 +4.576242E-05 -2.071379E-05 +1.615862E-04 
 +5.033205E-03 -9.834677E-05 +2.569527E-05 -9.834677E-05 -7.903908E-05 -7.054264E-05 +2.569527E-05 -7.054264E-05 +1.946673E-04 
 +5.040844E-03 +1.628192E-04 +1.523747E-04 +1.628192E-04 +3.169396E-05 +2.907678E-05 +1.523747E-04 +2.907678E-05 +1.859591E-04 
 +5.024614E-03 +2.149499E-04 +1.687507E-04 +2.149499E-04 +5.857047E-05 +9.734339E-05 +1.687507E-04 +9.734339E-05 +1.356610E-04 
 +4.991875E-03 +1.179494E-04 +7.389107E-05 +1.179494E-04 +1.105342E-04 +9.357309E-05 +7.389107E-05 +9.357309E-05 +1.098356E-04 
 +4.943483E-03 +7.603754E-05 +8.286319E-05 +7.603754E-05 +3.030882E-05 +8.966187E-06 +8.286319E-05 +8.966187E-06 +1.450728E-04 
 +4.988001E-03 -5.103030E-05 +1.772123E-04 -5.103030E-05 -3.388289E-04 -5.495337E-05 +1.772123E-04 -5.495337E-05 +2.505428E-04 
 +5.064849E-03 -3.910999E-05 +1.423541E-04 -3.910999E-05 -5.959864E-04 -4.003839E-05 +1.423541E-04 -4.003839E-05 +2.924295E-04 
 +5.127977E-03 +1.098322E-04 +6.636530E-05 +1.098322E-04 -5.645569E-04 -6.496813E-05 +6.636530E-05 -6.496813E-05 +2.644302E-04 
 +5.109600E-03 +1.135412E-04 +2.358653E-05 +1.135412E-04 -5.158379E-04 -1.110239E-04 +2.358653E-05 -1.110239E-04 +2.570932E-04 
 +5.132495E-03 +1.417076E-04 -1.069041E-04 +1.417076E-04 -5.582789E-04 -1.388993E-04 -1.069041E-04 -1.388993E-04 +2.607493E-04 
 +5.161318E-03 +9.278936E-05 -2.279878E-04 +9.278936E-05 -5.806519E-04 -2.162293E-04 -2.279878E-04 -2.162293E-04 +2.692685E-04 
 +5.154550E-03 +1.490904E-05 -2.142838E-04 +1.490904E-05 -5.616351E-04 -2.690000E-04 -2.142838E-04 -2.690000E-04 +2.369375E-04 
 +5.090861E-03 -2.231397E-05 -7.908790E-05 -2.231397E-05 -3.910448E-04 -2.692450E-04 -7.908790E-05 -2.692450E-04 +9.283595E-05 
 +4.977962E-03 -9.281799E-05 -5.679102E-05 -9.281799E-05 -2.598333E-05 -2.778581E-04 -5.679102E-05 -2.778581E-04 -1.660843E-04 
 +4.919043E-03 -1.101220E-04 -7.109498E-05 -1.101220E-04 +9.349338E-05 -2.476004E-04 -7.109498E-05 -2.476004E-04 -2.882664E-04 
 +4.820381E-03 -4.822430E-05 -7.776990E-05 -4.822430E-05 +7.955436E-05 -2.155718E-04 -7.776990E-05 -2.155718E-04 -1.866027E-04 
 +4.818786E-03 -1.097926E-04 -3.923511E-05 -1.097926E-04 +1.262835E-04 -2.048955E-04 -3.923511E-05 -2.048955E-04 -1.354707E-04 
 +4.916744E-03 -1.740761E-04 -2.379406E-05 -1.740761E-04 +1.144501E-04 -1.335573E-04 -2.379406E-05 -1.335573E-04 -6.061958E-05 
 +4.719477E-03 +4.031934E-05 +1.620764E-05 +4.031934E-05 +1.736059E-04 +7.090971E-06 +1.620764E-05 +7.090971E-06 +8.022392E-05 
 +5.090554E-03 -1.943261E-04 -5.306126E-05 -1.943261E-04 -7.219660E-05 +2.035822E-04 -5.306126E-05 +2.035822E-04 -2.210224E-05 
 +5.088747E-03 -1.069404E-04 +6.392819E-05 -1.069404E-04 -1.961461E-04 +1.647357E-04 +6.392819E-05 +1.647357E-04 -2.625063E-05 
 +5.082344E-03 -7.426916E-05 +1.002939E-04 -7.426916E-05 -2.443507E-04 +8.876768E-05 +1.002939E-04 +8.876768E-05 +1.383966E-04 
 +5.122081E-03 +1.572363E-04 +1.463683E-04 +1.572363E-04 -2.240788E-04 -1.193452E-05 +1.463683E-04 -1.193452E-05 +2.117023E-04 
 +5.037722E-03 +1.867620E-04 +1.082827E-04 +1.867620E-04 -5.591751E-05 -2.352309E-04 +1.082827E-04 -2.352309E-04 +1.753549E-04 
 +4.989275E-03 +2.180925E-05 +7.543703E-05 +2.180925E-05 -1.695521E-05 -2.908872E-04 +7.543703E-05 -2.908872E-04 +2.205027E-04 
 +5.020783E-03 -6.925150E-05 +2.941710E-05 -6.925150E-05 -1.706615E-04 -2.015399E-04 +2.941710E-05 -2.015399E-04 +2.258633E-04 
 +4.959445E-03 -1.638941E-04 +1.497334E-04 -1.638941E-04 -1.204623E-04 -1.473947E-04 +1.497334E-04 -1.473947E-04 +1.329596E-04 
 +4.899284E-03 -1.419476E-04 +1.794912E-04 -1.419476E-04 -1.330415E-04 -1.242064E-04 +1.794912E-04 -1.242064E-04 +1.140021E-04 
 +5.058137E-03 +2.490160E-05 +8.836832E-05 +2.490160E-05 -4.354005E-04 -1.083940E-04 +8.836832E-05 -1.083940E-04 +1.677413E-04 
 +5.138196E-03 +1.013353E-04 +3.128882E-05 +1.013353E-04 -5.493913E-04 -1.442621E-04 +3.128882E-05 -1.442621E-04 +1.942883E-04 
 +5.140663E-03 +8.603903E-05 -1.457998E-05 +8.603903E-05 -4.950983E-04 -1.970575E-04 -1.457998E-05 -1.970575E-04 +1.833372E-04 
 +5.169715E-03 +9.227450E-05 -6.949959E-05 +9.227450E-05 -4.980785E-04 -2.463454E-04 -6.949959E-05 -2.463454E-04 +1.347820E-04 
 +5.122897E-03 +8.155583E-05 -1.124169E-04 +8.155583E-05 -4.359438E-04 -2.496195E-04 -1.124169E-04 -2.496195E-04 +1.294898E-04 
 +4.963734E-03 +1.536948E-04 -7.125880E-05 +1.536948E-04 -3.128268E-04 -1.261813E-04 -7.125880E-05 -1.261813E-04 +1.293439E-04 
 +4.988456E-03 +5.677797E-05 -8.242202E-05 +5.677797E-05 -1.931523E-04 -7.835376E-05 -8.242202E-05 -7.835376E-05 -5.213904E-05 
 +4.973536E-03 -7.597839E-05 -6.194645E-05 -7.597839E-05 -4.887264E-05 -1.205529E-04 -6.194645E-05 -1.205529E-04 -1.620055E-04 
 +4.708677E-03 +7.507145E-05 -6.649484E-05 +7.507145E-05 +5.148271E-05 -8.440485E-05 -6.649484E-05 -8.440485E-05 +2.562484E-05 
 +4.728395E-03 +2.770713E-05 -3.884891E-05 +2.770713E-05 +8.723355E-05 -3.260426E-05 -3.884891E-05 -3.260426E-05 +1.224728E-04 
 +4.741053E-03 -5.934523E-05 -1.176085E-05 -5.934523E-05 +1.503511E-04 -1.168545E-05 -1.176085E-05 -1.168545E-05 +1.132406E-04 
 +4.714436E-03 -6.418929E-06 -3.220035E-05 -6.418929E-06 +1.091251E-04 +7.601243E-05 -3.220035E-05 +7.601243E-05 +8.854746E-05 
 +5.177096E-03 +1.675455E-05 +2.035035E-05 +1.675455E-05 -1.723701E-04 +1.545065E-04 +2.035035E-05 +1.545065E-04 -7.633280E-05 
 +5.212040E-03 -6.564741E-06 +6.517555E-05 -6.564741E-06 -1.996909E-04 +1.837313E-04 +6.517555E-05 +1.837313E-04 -9.479303E-05 
 +5.096891E-03 -6.898733E-05 +1.593919E-04 -6.898733E-05 -1.079061E-04 -5.750343E-06 +1.593919E-04 -5.750343E-06 +7.915845E-05 
 +5.103097E-03 +1.227653E-04 +8.814115E-05 +1.227653E-04 -2.782135E-05 -1.855992E-04 +8.814115E-05 -1.855992E-04 +1.361014E-04 
 +5.108048E-03 +2.009799E-04 +3.523978E-05 +2.009799E-04 -6.853211E-05 -2.372494E-04 +3.523978E-05 -2.372494E-04 +2.287486E-04 
 +5.042914E-03 -2.599839E-05 +7.077757E-05 -2.599839E-05 -1.541578E-04 -1.774419E-04 +7.077757E-05 -1.774419E-04 +3.511431E-04 
 +5.028644E-03 -1.218821E-04 -1.036441E-05 -1.218821E-04 -1.903794E-04 -1.432146E-04 -1.036441E-05 -1.432146E-04 +2.273367E-04 
 +4.951690E-03 -1.241641E-04 +1.490112E-04 -1.241641E-04 -1.420805E-04 -1.321955E-04 +1.490112E-04 -1.321955E-04 +2.687762E-05 
 +4.880408E-03 -1.345644E-04 +2.133815E-04 -1.345644E-04 +5.774450E-06 -1.508299E-04 +2.133815E-04 -1.508299E-04 +8.937355E-06 
 +4.927347E-03 -8.772235E-05 +1.548996E-04 -8.772235E-05 -5.748231E-05 -1.719760E-04 +1.548996E-04 -1.719760E-04 +6.547469E-05 
 +5.084178E-03 +4.738711E-05 +6.646823E-05 +4.738711E-05 -3.982319E-04 -1.479183E-04 +6.646823E-05 -1.479183E-04 +1.028151E-04 
 +5.179418E-03 +7.703096E-05 +2.467550E-05 +7.703096E-05 -5.229738E-04 -1.806298E-04 +2.467550E-05 -1.806298E-04 +1.156101E-04 
 +5.191158E-03 +4.622112E-05 -4.400743E-06 +4.622112E-05 -5.056904E-04 -2.593462E-04 -4.400743E-06 -2.593462E-04 +8.177706E-05 
 +5.108354E-03 +1.150550E-04 -6.898738E-05 +1.150550E-04 -4.042207E-04 -2.162302E-04 -6.898738E-05 -2.162302E-04 +1.179487E-04 
 +4.918246E-03 +1.819697E-04 -4.473446E-05 +1.819697E-04 -2.035014E-04 -1.140110E-04 -4.473446E-05 -1.140110E-04 +1.618940E-04 
 +4.958986E-03 +8.044201E-05 -3.695118E-05 +8.044201E-05 -1.845772E-04 -5.359786E-05 -3.695118E-05 -5.359786E-05 +1.018245E-04 
 +4.957602E-03 -3.021712E-05 +2.482599E-05 -3.021712E-05 -1.493699E-04 -8.540727E-06 +2.482599E-05 -8.540727E-06 +1.342450E-04 
 +4.670125E-03 +1.501355E-05 -2.787148E-05 +1.501355E-05 -5.257213E-06 +8.114237E-07 -2.787148E-05 +8.114237E-07 +2.701839E-04 
 +4.633192E-03 -4.910869E-05 -4.900045E-05 -4.910869E-05 +9.805373E-05 +5.639826E-06 -4.900045E-05 +5.639826E-06 +2.478891E-04 
 +4.739788E-03 -2.769777E-05 -4.456025E-05 -2.769777E-05 +1.335857E-04 -3.858350E-05 -4.456025E-05 -3.858350E-05 +1.552936E-04 
 +4.768907E-03 +1.489689E-04 +1.223207E-05 +1.489689E-04 -8.360934E-07 -2.474648E-05 +1.223207E-05 -2.474648E-05 +8.982035E-05 
 +5.120751E-03 -3.037107E-05 +6.017120E-05 -3.037107E-05 -2.666771E-04 +2.729821E-04 +6.017120E-05 +2.729821E-04 -6.622399E-05 
 +5.177823E-03 -3.737342E-05 +4.065201E-05 -3.737342E-05 -2.235621E-04 +2.025928E-04 +4.065201E-05 +2.025928E-04 -2.664431E-05 
 +5.086231E-03 +1.689027E-05 +3.719283E-05 +1.689027E-05 -1.569087E-04 -5.477836E-05 +3.719283E-05 -5.477836E-05 +9.050274E-05 
 +5.104552E-03 +1.099582E-04 +1.382744E-04 +1.099582E-04 -1.814921E-04 -1.118898E-04 +1.382744E-04 -1.118898E-04 +6.680446E-05 
 +5.151401E-03 +1.243331E-04 +1.374428E-04 +1.243331E-04 -4.082283E-04 +1.091470E-04 +1.374428E-04 +1.091470E-04 +2.025566E-04 
 +5.118535E-03 -2.919367E-05 +1.063539E-05 -2.919367E-05 -4.117588E-04 +8.142638E-05 +1.063539E-05 +8.142638E-05 +3.971583E-04 
 +4.996778E-03 -1.034205E-04 -3.008199E-05 -1.034205E-04 -2.420965E-04 -1.186077E-04 -3.008199E-05 -1.186077E-04 +2.944333E-04 
 +4.942973E-03 -7.948891E-05 +1.740717E-04 -7.948891E-05 -1.161723E-04 -1.580499E-04 +1.740717E-04 -1.580499E-04 +5.230073E-05 
 +4.930831E-03 -1.103939E-04 +2.194838E-04 -1.103939E-04 -2.277461E-05 -1.324849E-04 +2.194838E-04 -1.324849E-04 -4.896978E-05 
 +4.893633E-03 -1.198048E-04 +1.753232E-04 -1.198048E-04 +8.965995E-05 -1.563634E-04 +1.753232E-04 -1.563634E-04 -3.833257E-05 
 +4.945806E-03 -6.531885E-05 +1.159575E-04 -6.531885E-05 -6.862516E-06 -1.838809E-04 +1.159575E-04 -1.838809E-04 -1.098221E-05 
 +5.146559E-03 +4.014639E-05 +4.001109E-05 +4.014639E-05 -3.628425E-04 -1.988918E-04 +4.001109E-05 -1.988918E-04 -8.320564E-06 
 +5.133816E-03 +5.670156E-05 +1.123289E-05 +5.670156E-05 -3.770960E-04 -1.609106E-04 +1.123289E-05 -1.609106E-04 +2.296353E-05 
 +5.030036E-03 +1.070576E-04 -4.073132E-05 +1.070576E-04 -1.890876E-04 -5.367426E-05 -4.073132E-05 -5.367426E-05 +1.071610E-04 
 +4.980202E-03 +1.078936E-04 -5.891607E-05 +1.078936E-04 -1.821349E-04 -1.631318E-05 -5.891607E-05 -1.631318E-05 +1.640515E-04 
 +4.934956E-03 -5.434550E-06 -1.747505E-05 -5.434550E-06 -1.401396E-04 +1.279689E-06 -1.747505E-05 +1.279689E-06 +1.614555E-04 
 +4.856919E-03 -3.721404E-05 +7.110419E-05 -3.721404E-05 -1.968482E-05 +2.985768E-05 +7.110419E-05 +2.985768E-05 +2.085765E-04 
 +4.630237E-03 +3.519096E-05 -7.481596E-05 +3.519096E-05 +1.370053E-04 -1.793577E-05 -7.481596E-05 -1.793577E-05 +2.726507E-04 
 +4.661512E-03 -5.680190E-05 -6.917566E-05 -5.680190E-05 +1.573736E-04 +8.020628E-06 -6.917566E-05 +8.020628E-06 +2.059407E-04 
 +4.895647E-03 -7.177901E-05 -8.531075E-06 -7.177901E-05 -6.196798E-05 +1.491724E-04 -8.531075E-06 +1.491724E-04 +1.084311E-04 
 +4.999025E-03 +1.728541E-06 +3.583608E-05 +1.728541E-06 -2.651309E-04 +2.408687E-04 +3.583608E-05 +2.408687E-04 +4.361376E-05 
 +5.122665E-03 -1.028864E-04 +3.756897E-05 -1.028864E-04 -3.536311E-04 +2.561477E-04 +3.756897E-05 +2.561477E-04 -8.057229E-05 
 +5.132815E-03 -6.809885E-05 +2.589662E-05 -6.809885E-05 -4.650158E-04 +1.277984E-04 +2.589662E-05 +1.277984E-04 +3.755596E-06 
 +5.139637E-03 +1.697534E-05 -7.474631E-05 +1.697534E-05 -4.321933E-04 +6.029349E-05 -7.474631E-05 +6.029349E-05 +1.383541E-04 
 +5.105385E-03 +4.368565E-05 +2.597382E-05 +4.368565E-05 -3.570370E-04 -2.326323E-05 +2.597382E-05 -2.326323E-05 +1.402461E-04 
 +5.155721E-03 +2.943266E-05 +1.527234E-04 +2.943266E-05 -2.956168E-04 -1.525433E-04 +1.527234E-04 -1.525433E-04 +1.394325E-04 
 +5.185896E-03 -1.407868E-05 +1.180371E-04 -1.407868E-05 -3.666461E-04 -9.671677E-05 +1.180371E-04 -9.671677E-05 +2.377991E-04 
 +5.006021E-03 -3.217333E-05 +3.386613E-05 -3.217333E-05 -2.963874E-04 -9.346785E-05 +3.386613E-05 -9.346785E-05 +2.393328E-04 
 +4.903027E-03 -3.323369E-05 +2.013829E-04 -3.323369E-05 -1.079357E-04 -1.426787E-04 +2.013829E-04 -1.426787E-04 +4.959217E-05 
 +4.936459E-03 -9.891957E-05 +2.308169E-04 -9.891957E-05 +3.960963E-06 -1.266184E-04 +2.308169E-04 -1.266184E-04 -8.566098E-05 
 +4.953894E-03 -1.187930E-04 +1.588935E-04 -1.187930E-04 +7.170742E-05 -1.129221E-04 +1.588935E-04 -1.129221E-04 -1.130895E-04 
 +4.923326E-03 -1.303997E-04 +1.211550E-04 -1.303997E-04 +1.489120E-04 -1.454482E-04 +1.211550E-04 -1.454482E-04 -1.445113E-04 
 +4.979891E-03 -3.954755E-05 +6.994347E-05 -3.954755E-05 +1.660006E-04 -1.340683E-04 +6.994347E-05 -1.340683E-04 -1.423588E-04 
 +4.967783E-03 +8.609918E-05 -1.156755E-05 +8.609918E-05 +5.338823E-05 -1.622033E-05 -1.156755E-05 -1.622033E-05 -7.395862E-06 
 +4.936132E-03 +5.509976E-05 -5.459442E-05 +5.509976E-05 -6.787513E-05 +4.451644E-05 -5.459442E-05 +4.451644E-05 +1.024540E-04 
 +4.969082E-03 +6.425246E-06 -9.900037E-05 +6.425246E-06 -1.442636E-04 +1.569761E-06 -9.900037E-05 +1.569761E-06 +1.505347E-04 
 +4.947203E-03 -3.060138E-05 +3.152024E-06 -3.060138E-05 -8.574007E-05 -1.392882E-05 +3.152024E-06 -1.392882E-05 +1.760086E-04 
 +4.834817E-03 -1.858244E-05 +4.565329E-05 -1.858244E-05 +9.589210E-05 -2.820283E-05 +4.565329E-05 -2.820283E-05 +2.065182E-04 
 +4.662429E-03 +4.271669E-05 -3.775591E-05 +4.271669E-05 +1.081323E-04 +1.629646E-05 -3.775591E-05 +1.629646E-05 +2.358560E-04 
 +4.853563E-03 -9.631844E-05 +6.070061E-06 -9.631844E-05 -7.024905E-05 +1.985712E-04 +6.070061E-06 +1.985712E-04 +1.759459E-04 
 +4.965694E-03 -6.674792E-05 +2.153217E-05 -6.674792E-05 -1.485818E-04 +2.443270E-04 +2.153217E-05 +2.443270E-04 +1.170286E-04 
 +5.056808E-03 -3.042312E-05 -5.432175E-06 -3.042312E-05 -1.735340E-04 +2.387942E-04 -5.432175E-06 +2.387942E-04 +1.971731E-05 
 +5.154787E-03 -1.055011E-04 -4.996158E-05 -1.055011E-04 -3.507456E-04 +3.316590E-05 -4.996158E-05 +3.316590E-05 +1.104017E-04 
 +5.126700E-03 -6.423057E-05 -1.874079E-05 -6.423057E-05 -3.058404E-04 +5.594778E-05 -1.874079E-05 +5.594778E-05 +1.070473E-04 
 +5.083115E-03 +2.265795E-05 -3.734952E-05 +2.265795E-05 -3.246216E-04 +2.015792E-05 -3.734952E-05 +2.015792E-05 +1.345049E-04 
 +5.107506E-03 +3.312989E-05 -6.897508E-05 +3.312989E-05 -4.009323E-04 +2.350662E-05 -6.897508E-05 +2.350662E-05 +1.819876E-04 
 +5.209005E-03 -7.129084E-06 -5.355430E-06 -7.129084E-06 -5.553078E-04 +8.157280E-05 -5.355430E-06 +8.157280E-05 +1.351384E-04 
 +5.227235E-03 -1.010146E-04 +1.295215E-04 -1.010146E-04 -4.960940E-04 +3.042446E-06 +1.295215E-04 +3.042446E-06 +9.188182E-05 
 +5.053765E-03 -9.133566E-05 +1.208374E-05 -9.133566E-05 -2.444482E-04 -9.072383E-05 +1.208374E-05 -9.072383E-05 +1.647236E-04 
 +4.971343E-03 -2.394805E-05 +1.607236E-05 -2.394805E-05 -1.278323E-04 -8.859511E-05 +1.607236E-05 -8.859511E-05 +1.480725E-04 
 +4.949608E-03 -2.802568E-05 +6.743401E-05 -2.802568E-05 -2.526845E-05 -8.514262E-05 +6.743401E-05 -8.514262E-05 -3.801586E-05 
 +4.921023E-03 -9.592121E-05 +1.685344E-04 -9.592121E-05 +1.073751E-04 -6.508138E-05 +1.685344E-04 -6.508138E-05 -1.523374E-04 
 +4.906996E-03 -2.084288E-04 +1.022055E-04 -2.084288E-04 +2.108782E-04 -3.046636E-05 +1.022055E-04 -3.046636E-05 -1.323155E-04 
 +4.823850E-03 -3.619359E-05 +1.717385E-04 -3.619359E-05 +2.586258E-04 +6.565195E-05 +1.717385E-04 +6.565195E-05 -7.382164E-05 
 +4.732018E-03 +5.822051E-05 +9.848297E-05 +5.822051E-05 +1.778846E-04 +1.116606E-04 +9.848297E-05 +1.116606E-04 +2.971995E-05 
 +4.809968E-03 +1.587765E-05 +9.378766E-05 +1.587765E-05 +5.981330E-05 +7.940297E-05 +9.378766E-05 +7.940297E-05 +9.508169E-05 
 +4.874977E-03 -1.806895E-05 +5.306967E-06 -1.806895E-05 -4.401438E-05 +1.836592E-05 +5.306967E-06 +1.836592E-05 +1.834320E-04 
 +4.907349E-03 +2.496018E-05 +1.164960E-04 +2.496018E-05 -5.559796E-05 -7.708865E-05 +1.164960E-04 -7.708865E-05 +2.471111E-04 
 +4.877500E-03 -7.533518E-05 +1.254885E-04 -7.533518E-05 -7.472353E-05 -1.337900E-04 +1.254885E-04 -1.337900E-04 +1.828843E-04 
 +4.887592E-03 -4.205563E-05 +9.929678E-05 -4.205563E-05 -1.770292E-04 -1.450414E-04 +9.929678E-05 -1.450414E-04 +1.145905E-04 
 +4.974177E-03 -8.027725E-06 +1.471638E-04 -8.027725E-06 -2.675555E-04 -1.035159E-04 +1.471638E-04 -1.035159E-04 +5.807568E-05 
 +5.078559E-03 -4.449836E-07 +9.058501E-05 -4.449836E-07 -3.380651E-04 -6.550395E-05 +9.058501E-05 -6.550395E-05 +8.123472E-06 
 +5.061211E-03 -8.627981E-05 +8.289993E-05 -8.627981E-05 -3.812394E-04 -2.020223E-05 +8.289993E-05 -2.020223E-05 +5.288838E-05 
 +5.152522E-03 -6.127196E-05 -1.334555E-04 -6.127196E-05 -3.032875E-04 -7.363088E-05 -1.334555E-04 -7.363088E-05 +8.177842E-05 
 +5.092852E-03 -5.747395E-05 -7.638540E-05 -5.747395E-05 -2.690340E-04 -2.281750E-06 -7.638540E-05 -2.281750E-06 +1.948991E-04 
 +5.060183E-03 +4.034359E-05 -7.881597E-06 +4.034359E-05 -2.539289E-04 +2.636938E-05 -7.881597E-06 +2.636938E-05 +2.035649E-04 
 +5.111391E-03 +2.519738E-05 +1.162750E-06 +2.519738E-05 -3.276099E-04 +6.325111E-05 +1.162750E-06 +6.325111E-05 +1.661146E-04 
 +5.159914E-03 -3.098848E-05 -4.401830E-06 -3.098848E-05 -3.927054E-04 +1.011045E-04 -4.401830E-06 +1.011045E-04 +1.295483E-04 
 +5.159674E-03 -7.642736E-05 +4.035602E-05 -7.642736E-05 -4.283874E-04 +5.509493E-05 +4.035602E-05 +5.509493E-05 +1.073030E-04 
 +5.039505E-03 -4.731114E-05 +4.660077E-05 -4.731114E-05 -3.106699E-04 -1.519735E-05 +4.660077E-05 -1.519735E-05 +8.733694E-05 
 +4.959481E-03 -7.784465E-05 -8.665836E-06 -7.784465E-05 -4.953391E-05 -1.696779E-04 -8.665836E-06 -1.696779E-04 +3.937868E-06 
 +4.932186E-03 -9.098890E-05 +5.198258E-06 -9.098890E-05 +8.497231E-05 -3.009776E-04 +5.198258E-06 -3.009776E-04 -6.791876E-05 
 +4.924897E-03 -1.693940E-04 +1.876168E-04 -1.693940E-04 +1.720413E-04 -1.980838E-04 +1.876168E-04 -1.980838E-04 -1.723811E-04 
 +4.994325E-03 -1.886248E-04 +1.737821E-04 -1.886248E-04 +2.360316E-04 -1.761837E-05 +1.737821E-04 -1.761837E-05 -2.343050E-04 
 +4.857771E-03 +1.648577E-05 +1.821012E-04 +1.648577E-05 +2.434344E-04 +5.406008E-05 +1.821012E-04 +5.406008E-05 -6.337401E-05 
 +4.663459E-03 +6.523008E-05 -2.573146E-06 +6.523008E-05 +2.512851E-04 +1.809240E-05 -2.573146E-06 +1.809240E-05 +1.133552E-04 
 +4.725645E-03 +5.115369E-05 +2.039918E-05 +5.115369E-05 +2.169463E-04 -4.929775E-06 +2.039918E-05 -4.929775E-06 +1.487400E-04 
 +4.757941E-03 +1.640958E-05 -6.634596E-05 +1.640958E-05 +9.709636E-05 +1.116598E-05 -6.634596E-05 +1.116598E-05 +2.044692E-04 
 +4.985388E-03 +1.224645E-04 +1.447448E-04 +1.224645E-04 -6.198124E-05 -3.113912E-05 +1.447448E-04 -3.113912E-05 +2.540937E-04 
 +4.969828E-03 +6.853613E-06 +1.854192E-04 +6.853613E-06 -1.513376E-04 -1.310419E-04 +1.854192E-04 -1.310419E-04 +1.866317E-04 
 +4.993625E-03 -1.976867E-05 +1.512533E-04 -1.976867E-05 -1.904984E-04 -1.617487E-04 +1.512533E-04 -1.617487E-04 +6.698168E-05 
 +5.041251E-03 -2.908949E-05 +1.670594E-04 -2.908949E-05 -2.479283E-04 -1.503502E-04 +1.670594E-04 -1.503502E-04 +1.520574E-05 
 +5.099804E-03 -2.186071E-05 +9.920299E-05 -2.186071E-05 -3.181378E-04 -1.519504E-04 +9.920299E-05 -1.519504E-04 -7.366662E-06 
 +5.056562E-03 -7.739831E-05 +8.229460E-05 -7.739831E-05 -3.370104E-04 -1.290194E-04 +8.229460E-05 -1.290194E-04 -2.171793E-05 
 +5.137655E-03 -5.342413E-05 -1.469805E-04 -5.342413E-05 -3.109266E-04 -1.401581E-05 -1.469805E-04 -1.401581E-05 +8.546700E-05 
 +5.079061E-03 -3.563241E-05 -7.118527E-05 -3.563241E-05 -2.874962E-04 +8.223655E-05 -7.118527E-05 +8.223655E-05 +2.085391E-04 
 +5.093826E-03 +2.906303E-05 +1.338518E-05 +2.906303E-05 -3.375175E-04 +1.185449E-04 +1.338518E-05 +1.185449E-04 +1.828761E-04 
 +5.119025E-03 +4.277662E-05 -7.034373E-07 +4.277662E-05 -3.273626E-04 +1.394106E-04 -7.034373E-07 +1.394106E-04 +1.216326E-04 
 +5.083993E-03 -2.118085E-06 -1.128856E-05 -2.118085E-06 -2.963081E-04 +1.330302E-04 -1.128856E-05 +1.330302E-04 +7.770069E-05 
 +5.031294E-03 -1.407193E-05 +2.285630E-05 -1.407193E-05 -2.723095E-04 +1.125320E-04 +2.285630E-05 +1.125320E-04 -1.220218E-05 
 +4.969494E-03 +9.762804E-05 +5.134935E-05 +9.762804E-05 -1.754867E-04 +1.387686E-04 +5.134935E-05 +1.387686E-04 -4.602179E-05 
 +4.979303E-03 +6.874601E-05 -1.222327E-05 +6.874601E-05 -7.838173E-05 +1.255630E-04 -1.222327E-05 +1.255630E-04 -5.731902E-05 
 +4.925880E-03 +6.041372E-05 +1.654529E-05 +6.041372E-05 +6.621739E-05 +9.851017E-05 +1.654529E-05 +9.851017E-05 -3.245707E-05 
 +4.977920E-03 -2.093766E-05 +1.771838E-04 -2.093766E-05 +1.370469E-04 +1.543344E-04 +1.771838E-04 +1.543344E-04 -9.837105E-05 
 +5.113717E-03 -8.802804E-05 +1.459795E-04 -8.802804E-05 +2.056449E-04 +1.908147E-04 +1.459795E-04 +1.908147E-04 -1.900646E-04 
 +4.820709E-03 -1.173542E-05 +9.014950E-05 -1.173542E-05 +2.998785E-04 +9.508026E-05 +9.014950E-05 +9.508026E-05 -9.894959E-05 
 +4.718823E-03 +5.377180E-05 -1.035340E-05 +5.377180E-05 +2.580077E-04 +1.144759E-05 -1.035340E-05 +1.144759E-05 +3.658322E-05 
 +4.733781E-03 +1.031096E-04 -2.510803E-05 +1.031096E-04 +1.942210E-04 -1.268820E-05 -2.510803E-05 -1.268820E-05 +1.951428E-04 
 +4.721290E-03 +9.637400E-05 -5.528488E-05 +9.637400E-05 +1.359150E-04 +3.680320E-05 -5.528488E-05 +3.680320E-05 +1.675179E-04 
 +5.047408E-03 +2.041736E-04 +1.070926E-04 +2.041736E-04 +1.073913E-05 +5.380351E-05 +1.070926E-04 +5.380351E-05 +5.164444E-05 
 +4.986071E-03 +9.855283E-05 +1.867933E-04 +9.855283E-05 -9.960722E-05 -8.676187E-05 +1.867933E-04 -8.676187E-05 +1.079761E-04 
 +4.980247E-03 +1.921380E-05 +1.909611E-04 +1.921380E-05 -1.754622E-04 -1.627809E-04 +1.909611E-04 -1.627809E-04 +8.760253E-05 
 +5.039124E-03 -4.522142E-05 +1.232953E-04 -4.522142E-05 -2.646415E-04 -1.758842E-04 +1.232953E-04 -1.758842E-04 -1.356078E-05 
 +5.110804E-03 -5.097166E-05 +5.873878E-05 -5.097166E-05 -3.038947E-04 -1.852622E-04 +5.873878E-05 -1.852622E-04 -7.013466E-05 
 +5.068775E-03 -8.087978E-05 +8.004883E-05 -8.087978E-05 -3.151477E-04 -1.251890E-04 +8.004883E-05 -1.251890E-04 -4.756409E-05 
 +5.118946E-03 -4.145039E-05 -1.129040E-04 -4.145039E-05 -2.645858E-04 -1.345366E-05 -1.129040E-04 -1.345366E-05 +3.255189E-05 
 +5.065242E-03 -4.666575E-05 -3.888541E-05 -4.666575E-05 -3.834444E-04 +8.991950E-05 -3.888541E-05 +8.991950E-05 +1.236385E-04 
 +5.099414E-03 +1.948042E-05 +1.838849E-06 +1.948042E-05 -3.855945E-04 +1.309583E-04 +1.838849E-06 +1.309583E-04 +1.174258E-04 
 +5.119179E-03 +4.760248E-05 -7.691721E-06 +4.760248E-05 -3.325183E-04 +1.412413E-04 -7.691721E-06 +1.412413E-04 +9.057541E-05 
 +5.073328E-03 +3.733251E-05 -2.541241E-05 +3.733251E-05 -1.736157E-04 +1.500675E-04 -2.541241E-05 +1.500675E-04 +4.416604E-05 
 +4.943792E-03 +4.684064E-05 +2.098157E-05 +4.684064E-05 +7.766052E-06 +1.433833E-04 +2.098157E-05 +1.433833E-04 -6.720516E-06 
 +4.924454E-03 +1.259482E-04 +4.892593E-05 +1.259482E-04 -7.214519E-05 +1.479023E-04 +4.892593E-05 +1.479023E-04 -8.147990E-06 
 +4.941645E-03 +1.509062E-04 +5.078893E-05 +1.509062E-04 -1.184421E-04 +1.093165E-04 +5.078893E-05 +1.093165E-04 +2.077721E-05 
 +4.927545E-03 +8.890101E-05 +8.588740E-05 +8.890101E-05 -3.780081E-05 +1.236282E-04 +8.588740E-05 +1.236282E-04 +6.102706E-05 
 +5.036054E-03 -6.441329E-05 +8.625216E-05 -6.441329E-05 +2.662061E-05 +1.975953E-04 +8.625216E-05 +1.975953E-04 +4.449511E-06 
 +5.058640E-03 -9.786682E-05 -3.798164E-06 -9.786682E-05 +9.660903E-05 +2.330113E-04 -3.798164E-06 +2.330113E-04 -1.749997E-05 
 +4.885260E-03 -2.070482E-05 -2.951223E-05 -2.070482E-05 +1.298286E-04 +1.848394E-04 -2.951223E-05 +1.848394E-04 -3.676928E-06 
 +4.816250E-03 +1.638605E-05 +6.933153E-05 +1.638605E-05 +8.481108E-05 +4.604098E-05 +6.933153E-05 +4.604098E-05 +6.931615E-05 
 +4.774110E-03 +4.481832E-05 +2.358390E-05 +4.481832E-05 -3.022385E-05 +6.917802E-05 +2.358390E-05 +6.917802E-05 +2.908319E-04 
 +4.827562E-03 +8.417203E-05 -2.458403E-05 +8.417203E-05 -8.675908E-05 +2.028776E-04 -2.458403E-05 +2.028776E-04 +2.413074E-04 
 +5.009192E-03 +1.610533E-04 +8.641846E-06 +1.610533E-04 -9.815814E-05 +1.718950E-04 +8.641846E-06 +1.718950E-04 +6.070684E-05 
 +4.981820E-03 +6.798568E-05 +1.001818E-04 +6.798568E-05 -1.440732E-04 +2.886768E-06 +1.001818E-04 +2.886768E-06 +7.644139E-05 
 +4.948790E-03 -1.954194E-06 +2.212036E-04 -1.954194E-06 -1.915651E-04 -8.315549E-05 +2.212036E-04 -8.315549E-05 +8.780989E-05 
 +5.037334E-03 +2.681354E-05 +7.738193E-05 +2.681354E-05 -1.483198E-04 -3.000375E-05 +7.738193E-05 -3.000375E-05 -7.418938E-05 
 +5.111127E-03 +3.311614E-05 +1.380447E-06 +3.311614E-05 -8.969107E-05 +2.000384E-05 +1.380447E-06 +2.000384E-05 -2.259789E-04 
 +5.038583E-03 -5.891133E-05 +4.978154E-05 -5.891133E-05 -1.498463E-04 -2.149656E-05 +4.978154E-05 -2.149656E-05 -1.347563E-04 
 +5.035883E-03 -2.356452E-05 -1.145062E-04 -2.356452E-05 -1.878458E-04 +4.719945E-05 -1.145062E-04 +4.719945E-05 -3.867474E-05 
 +4.948877E-03 -4.177193E-05 -6.761115E-06 -4.177193E-05 -3.167138E-04 +6.723553E-05 -6.761115E-06 +6.723553E-05 +9.401072E-05 
 +4.999942E-03 -1.037358E-06 +9.932548E-06 -1.037358E-06 -3.508656E-04 +1.175870E-04 +9.932548E-06 +1.175870E-04 +9.812946E-05 
 +5.030932E-03 -2.305686E-05 +5.399816E-06 -2.305686E-05 -2.740417E-04 +1.354841E-04 +5.399816E-06 +1.354841E-04 +8.118403E-05 
 +5.085725E-03 -4.484104E-05 -2.877893E-05 -4.484104E-05 -1.961632E-04 +1.316063E-04 -2.877893E-05 +1.316063E-04 +3.972202E-05 
 +5.041507E-03 -3.645529E-05 -3.564603E-05 -3.645529E-05 -2.121382E-04 +9.624803E-05 -3.564603E-05 +9.624803E-05 +1.112678E-05 
 +4.890998E-03 +7.224007E-05 +7.958933E-05 +7.224007E-05 -1.487382E-04 +7.483932E-05 +7.958933E-05 +7.483932E-05 +1.876470E-05 
 +4.857526E-03 +1.574794E-04 +8.943771E-05 +1.574794E-04 -9.246293E-05 +5.513811E-05 +8.943771E-05 +5.513811E-05 +9.188387E-05 
 +4.923194E-03 +1.221393E-04 +1.493662E-04 +1.221393E-04 -7.595946E-05 +8.443721E-05 +1.493662E-04 +8.443721E-05 +1.478497E-04 
 +5.056598E-03 -7.538245E-06 +4.485517E-05 -7.538245E-06 -7.839568E-06 +2.053647E-04 +4.485517E-05 +2.053647E-04 +6.357340E-05 
 +5.036504E-03 -3.808569E-05 -6.023530E-05 -3.808569E-05 +7.616536E-05 +2.801824E-04 -6.023530E-05 +2.801824E-04 +1.206460E-05 
 +4.984215E-03 -9.309901E-06 -9.802341E-05 -9.309901E-06 +1.234910E-04 +3.283424E-04 -9.802341E-05 +3.283424E-04 +4.537666E-05 
 +4.848833E-03 -7.347256E-05 +1.992755E-05 -7.347256E-05 +7.204137E-05 +2.841931E-04 +1.992755E-05 +2.841931E-04 +1.640610E-04 
 +4.843283E-03 -4.052093E-05 +3.649665E-05 -4.052093E-05 -4.318745E-05 +1.922333E-04 +3.649665E-05 +1.922333E-04 +3.274734E-04 
 +4.870072E-03 +4.039459E-06 +1.026737E-06 +4.039459E-06 -1.403016E-04 +2.132382E-04 +1.026737E-06 +2.132382E-04 +3.092211E-04 
 +4.936380E-03 -4.294696E-06 +4.332748E-06 -4.294696E-06 -2.573745E-04 +2.400939E-04 +4.332748E-06 +2.400939E-04 +1.954950E-04 
 +5.032109E-03 -2.319066E-05 -2.650211E-05 -2.319066E-05 -3.006379E-04 +1.466532E-04 -2.650211E-05 +1.466532E-04 +2.602857E-05 
 +5.027252E-03 +3.185080E-05 +1.628535E-04 +3.185080E-05 -1.175114E-04 +1.038101E-05 +1.628535E-04 +1.038101E-05 -1.019724E-04 
 +5.063297E-03 +7.885926E-05 +6.817353E-05 +7.885926E-05 +8.698593E-05 +3.783222E-06 +6.817353E-05 +3.783222E-06 -2.547382E-04 
 +5.136651E-03 +6.181066E-06 -6.741830E-05 +6.181066E-06 +1.092827E-04 +5.974738E-05 -6.741830E-05 +5.974738E-05 -3.966048E-04 
 +5.088597E-03 -4.728330E-05 -6.995592E-05 -4.728330E-05 +1.794701E-06 +6.449693E-05 -6.995592E-05 +6.449693E-05 -2.896944E-04 
 +4.867947E-03 -2.130517E-04 -2.100234E-05 -2.130517E-04 +2.367635E-04 +1.169447E-05 -2.100234E-05 +1.169447E-05 -9.453465E-05 
 +4.787471E-03 -1.721734E-04 +3.200951E-05 -1.721734E-04 +2.331173E-04 -6.814806E-06 +3.200951E-05 -6.814806E-06 +4.457097E-05 
 +4.787241E-03 -1.912763E-04 +1.312220E-05 -1.912763E-04 +1.331652E-04 +3.691790E-05 +1.312220E-05 +3.691790E-05 +7.221390E-05 
 +5.016104E-03 -9.947383E-05 -1.521505E-05 -9.947383E-05 -8.916972E-05 +9.898965E-05 -1.521505E-05 +9.898965E-05 +7.729502E-05 
 +5.109071E-03 -8.909920E-05 -1.049895E-05 -8.909920E-05 -2.954283E-04 +9.980114E-05 -1.049895E-05 +9.980114E-05 +4.955414E-05 
 +5.142633E-03 -4.310225E-05 -4.194897E-05 -4.310225E-05 -3.208317E-04 +5.070421E-05 -4.194897E-05 +5.070421E-05 +2.084392E-05 
 +4.888406E-03 +6.100064E-05 +1.520630E-04 +6.100064E-05 -1.693315E-04 +4.679501E-05 +1.520630E-04 +4.679501E-05 +9.908786E-06 
 +4.843108E-03 +1.029146E-04 +1.309882E-04 +1.029146E-04 -8.808263E-05 +3.004086E-05 +1.309882E-04 +3.004086E-05 +7.694981E-05 
 +4.938603E-03 +1.008391E-04 +1.751040E-04 +1.008391E-04 -9.055384E-05 +5.196088E-05 +1.751040E-04 +5.196088E-05 +1.535666E-04 
 +5.083738E-03 +8.897027E-06 +3.576585E-05 +8.897027E-06 -5.333630E-05 +1.733605E-04 +3.576585E-05 +1.733605E-04 +5.217424E-05 
 +5.076273E-03 -6.336399E-07 -4.564407E-05 -6.336399E-07 +2.232228E-05 +2.144701E-04 -4.564407E-05 +2.144701E-04 -8.602752E-05 
 +5.028284E-03 +1.757546E-05 -9.566148E-05 +1.757546E-05 +6.251942E-05 +2.196626E-04 -9.566148E-05 +2.196626E-04 -4.843508E-05 
 +4.909111E-03 -6.558120E-05 -2.377374E-05 -6.558120E-05 +4.027608E-05 +2.506245E-04 -2.377374E-05 +2.506245E-04 +1.043120E-04 
 +4.880495E-03 -5.051715E-05 +3.035588E-05 -5.051715E-05 -2.016127E-05 +2.491200E-04 +3.035588E-05 +2.491200E-04 +2.219750E-04 
 +4.895358E-03 +6.635608E-06 +5.200664E-05 +6.635608E-06 -1.131502E-04 +2.229264E-04 +5.200664E-05 +2.229264E-04 +2.074118E-04 
 +4.845273E-03 +4.666077E-05 +1.217113E-05 +4.666077E-05 -1.648805E-04 +4.356335E-05 +1.217113E-05 +4.356335E-05 +1.160549E-04 
 +5.032280E-03 +9.750899E-06 -6.383634E-05 +9.750899E-06 -1.871890E-04 -1.944683E-04 -6.383634E-05 -1.944683E-04 -2.195283E-05 
 +5.033202E-03 +6.455786E-05 +7.873829E-05 +6.455786E-05 -1.079090E-04 -2.997751E-04 +7.873829E-05 -2.997751E-04 -7.797063E-05 
 +5.190473E-03 +4.835166E-05 +3.595179E-05 +4.835166E-05 +9.129494E-05 -2.271927E-04 +3.595179E-05 -2.271927E-04 -1.544764E-04 
 +5.228040E-03 -3.872351E-05 -8.600380E-05 -3.872351E-05 +1.670613E-04 -2.136826E-05 -8.600380E-05 -2.136826E-05 -3.179828E-04 
 +5.155191E-03 -1.234867E-04 -8.646850E-05 -1.234867E-04 +1.993484E-04 +6.017413E-05 -8.646850E-05 +6.017413E-05 -3.162040E-04 
 +4.800844E-03 -2.914999E-04 +7.979964E-05 -2.914999E-04 +2.120275E-04 +1.932374E-05 +7.979964E-05 +1.932374E-05 +5.292846E-05 
 +4.735970E-03 -1.893054E-04 -1.651084E-06 -1.893054E-04 +3.477984E-04 +6.866103E-06 -1.651084E-06 +6.866103E-06 +1.397228E-04 
 +4.741336E-03 -2.006815E-04 -6.870684E-05 -2.006815E-04 +2.306268E-04 +1.792467E-06 -6.870684E-05 +1.792467E-06 +1.124754E-04 
 +5.043913E-03 -6.482236E-05 -9.907252E-05 -6.482236E-05 -2.731015E-05 +3.605327E-05 -9.907252E-05 +3.605327E-05 +5.154147E-05 
 +5.105094E-03 -6.099589E-05 -2.728197E-05 -6.099589E-05 -1.762064E-04 +6.317813E-05 -2.728197E-05 +6.317813E-05 +2.950459E-05 
 +5.046737E-03 +2.846918E-05 +6.528951E-05 +2.846918E-05 -1.704388E-04 +4.633572E-05 +6.528951E-05 +4.633572E-05 +1.078228E-05 
 +4.905575E-03 +1.064487E-04 +1.969048E-04 +1.064487E-04 -9.551105E-05 +5.242925E-05 +1.969048E-04 +5.242925E-05 -2.554545E-05 
 +4.863230E-03 +5.449833E-05 +1.547131E-04 +5.449833E-05 -8.578143E-05 +2.196911E-05 +1.547131E-04 +2.196911E-05 +4.791060E-05 
 +4.947519E-03 +6.555864E-05 +1.653857E-04 +6.555864E-05 -1.328301E-04 +2.888567E-05 +1.653857E-04 +2.888567E-05 +1.391363E-04 
 +5.108066E-03 -8.501090E-06 +1.732806E-05 -8.501090E-06 -1.257005E-04 +1.833794E-04 +1.732806E-05 +1.833794E-04 +3.929247E-05 
 +5.148217E-03 -2.495063E-05 -4.787474E-05 -2.495063E-05 -9.197245E-05 +2.969615E-04 -4.787474E-05 +2.969615E-04 -9.805383E-05 
 +5.126024E-03 +6.453103E-06 -7.006534E-05 +6.453103E-06 -3.235914E-05 +2.656505E-04 -7.006534E-05 +2.656505E-04 -5.476832E-05 
 +5.014788E-03 -6.967406E-05 +4.501560E-06 -6.967406E-05 +4.739585E-05 +2.470203E-04 +4.501560E-06 +2.470203E-04 +3.298149E-05 
 +4.890882E-03 -9.262611E-05 +5.513054E-05 -9.262611E-05 +1.407739E-05 +2.701968E-04 +5.513054E-05 +2.701968E-04 +4.254614E-05 
 +4.933444E-03 -2.476982E-05 +5.342093E-05 -2.476982E-05 -4.204132E-05 +1.437171E-04 +5.342093E-05 +1.437171E-04 +5.206207E-05 
 +4.899813E-03 +9.994465E-05 -2.171744E-06 +9.994465E-05 +7.538612E-06 -2.381977E-05 -2.171744E-06 -2.381977E-05 +7.188329E-05 
 +4.941622E-03 +1.714082E-04 -2.625097E-05 +1.714082E-04 +1.579360E-04 -4.932706E-05 -2.625097E-05 -4.932706E-05 +7.077419E-05 
 +4.828339E-03 +1.664914E-04 -2.350819E-05 +1.664914E-04 +1.863047E-04 -9.359245E-05 -2.350819E-05 -9.359245E-05 +9.086383E-05 
 +5.228723E-03 +1.589467E-05 -8.394423E-06 +1.589467E-05 +3.963972E-05 -7.984913E-05 -8.394423E-06 -7.984913E-05 +6.582339E-05 
 +5.258327E-03 -2.562032E-04 -2.637864E-05 -2.562032E-04 -2.221179E-05 +7.285473E-05 -2.637864E-05 +7.285473E-05 -7.103828E-05 
 +5.169740E-03 -2.919604E-04 -6.437593E-05 -2.919604E-04 +3.236440E-05 +9.486216E-05 -6.437593E-05 +9.486216E-05 -1.106281E-04 
 +4.878492E-03 -1.980101E-04 +2.654016E-05 -1.980101E-04 +1.670261E-04 +9.995101E-06 +2.654016E-05 +9.995101E-06 +8.042060E-05 
 +4.878892E-03 -1.684066E-04 -6.182846E-05 -1.684066E-04 +2.761733E-04 -5.712224E-05 -6.182846E-05 -5.712224E-05 +6.432336E-05 
 +4.931705E-03 -1.213514E-04 -1.097372E-04 -1.213514E-04 +3.273778E-04 -8.676179E-05 -1.097372E-04 -8.676179E-05 +6.046149E-07 
 +4.935227E-03 -9.623485E-05 -9.111609E-05 -9.623485E-05 +2.509396E-04 -6.384855E-05 -9.111609E-05 -6.384855E-05 -3.111610E-05 
 +5.056422E-03 -4.846364E-06 -3.576739E-05 -4.846364E-06 +5.044374E-05 +1.743140E-05 -3.576739E-05 +1.743140E-05 -7.782751E-05 
 +4.934477E-03 +2.057371E-04 +1.521704E-04 +2.057371E-04 +9.333640E-05 +5.980488E-05 +1.521704E-04 +5.980488E-05 -1.023959E-04 
 +4.857571E-03 +1.923561E-04 +1.586253E-04 +1.923561E-04 +5.779815E-05 +5.644046E-05 +1.586253E-04 +5.644046E-05 -6.483046E-05 
 +4.823268E-03 +1.046209E-04 +1.515527E-04 +1.046209E-04 -6.463238E-05 +4.166194E-05 +1.515527E-04 +4.166194E-05 +2.762668E-05 
 +4.860314E-03 +2.169136E-05 +1.321804E-04 +2.169136E-05 -1.294032E-04 +1.232257E-04 +1.321804E-04 +1.232257E-04 +4.092154E-05 
 +5.125246E-03 -4.570475E-05 +2.254444E-05 -4.570475E-05 -1.954310E-04 +2.636197E-04 +2.254444E-05 +2.636197E-04 -3.292589E-05 
 +5.226650E-03 -3.058130E-05 -5.173192E-05 -3.058130E-05 -1.507891E-04 +2.557672E-04 -5.173192E-05 +2.557672E-04 -5.267794E-05 
 +5.200074E-03 -2.486557E-05 +1.444099E-05 -2.486557E-05 -8.025083E-05 +2.490236E-04 +1.444099E-05 +2.490236E-04 -7.683477E-05 
 +5.154552E-03 -1.098793E-04 +6.590985E-05 -1.098793E-04 -9.503769E-06 +3.219368E-04 +6.590985E-05 +3.219368E-04 -5.442596E-05 
 +5.039311E-03 -1.142569E-04 -1.360372E-05 -1.142569E-04 +1.005294E-04 +2.864008E-04 -1.360372E-05 +2.864008E-04 +1.059571E-05 
 +4.824946E-03 -4.040374E-05 -5.875583E-05 -4.040374E-05 +1.196696E-04 +9.063475E-05 -5.875583E-05 +9.063475E-05 +1.418172E-04 
 +4.951279E-03 -2.683328E-05 +1.023612E-05 -2.683328E-05 +2.485382E-05 -1.156351E-04 +1.023612E-05 -1.156351E-04 +2.072030E-04 
 +4.857073E-03 +1.026215E-04 -3.638897E-05 +1.026215E-04 +1.253862E-04 -1.823496E-04 -3.638897E-05 -1.823496E-04 +1.371512E-04 
 +4.929594E-03 +9.499078E-05 -9.351097E-05 +9.499078E-05 +2.610738E-04 -1.103440E-04 -9.351097E-05 -1.103440E-04 +1.494583E-04 
 +5.030866E-03 +1.141432E-04 +1.260136E-05 +1.141432E-04 +1.905942E-04 -1.245270E-05 +1.260136E-05 -1.245270E-05 +1.882518E-04 
 +5.189638E-03 -1.319851E-04 +3.730181E-05 -1.319851E-04 +9.163299E-05 +2.120363E-05 +3.730181E-05 +2.120363E-05 +1.306787E-04 
 +5.052550E-03 -2.223263E-04 -2.909970E-05 -2.223263E-04 +3.982016E-05 +4.588870E-05 -2.909970E-05 +4.588870E-05 +5.765932E-05 
 +4.987584E-03 -4.287094E-05 -4.275205E-05 -4.287094E-05 +2.756044E-04 -1.527249E-04 -4.275205E-05 -1.527249E-04 -1.336760E-04 
 +5.044685E-03 -9.480038E-05 -1.108610E-04 -9.480038E-05 +2.793752E-04 -2.142383E-04 -1.108610E-04 -2.142383E-04 -3.025376E-04 
 +5.075144E-03 -9.217668E-05 -7.716896E-05 -9.217668E-05 +3.414358E-04 -2.326202E-04 -7.716896E-05 -2.326202E-04 -3.243078E-04 
 +4.915085E-03 -1.577772E-04 -3.645045E-05 -1.577772E-04 +4.070200E-04 -1.886564E-04 -3.645045E-05 -1.886564E-04 -1.970811E-04 
 +4.931731E-03 -4.195857E-05 +2.019507E-05 -4.195857E-05 +3.785854E-04 -9.787020E-05 +2.019507E-05 -9.787020E-05 -1.769064E-04 
 +4.891011E-03 +2.148504E-04 +2.004571E-04 +2.148504E-04 +2.620502E-04 -4.484059E-05 +2.004571E-04 -4.484059E-05 -1.499404E-04 
 +4.753982E-03 +1.304529E-04 +1.368996E-04 +1.304529E-04 +2.370675E-04 -5.479198E-05 +1.368996E-04 -5.479198E-05 -1.992146E-05 
 +4.755372E-03 +8.949479E-05 +1.449082E-04 +8.949479E-05 +2.185534E-04 -6.334486E-05 +1.449082E-04 -6.334486E-05 +6.296230E-05 
 +4.753872E-03 +1.325276E-05 +1.357334E-04 +1.325276E-05 +1.194545E-04 +1.138230E-05 +1.357334E-04 +1.138230E-05 +1.706718E-05 
 +5.023346E-03 -7.272488E-05 +9.093268E-05 -7.272488E-05 -4.435005E-05 +1.718169E-04 +9.093268E-05 +1.718169E-04 -1.357828E-04 
 +5.271785E-03 -4.511889E-05 +1.043566E-05 -4.511889E-05 -1.010636E-04 +2.749992E-04 +1.043566E-05 +2.749992E-04 -1.874760E-04 
 +5.281875E-03 -8.084038E-05 -7.659875E-06 -8.084038E-05 -1.036103E-04 +1.694291E-04 -7.659875E-06 +1.694291E-04 -1.108250E-04 
 +5.244744E-03 -1.615130E-04 +2.359910E-05 -1.615130E-04 -2.027203E-04 -1.286617E-04 +2.359910E-05 -1.286617E-04 +4.439869E-05 
 +5.192118E-03 -1.501992E-04 +3.217030E-05 -1.501992E-04 -1.208853E-04 -2.182552E-04 +3.217030E-05 -2.182552E-04 +1.064717E-04 
 +4.850715E-03 -1.206655E-04 -4.748569E-05 -1.206655E-04 +6.391306E-05 -9.348402E-05 -4.748569E-05 -9.348402E-05 +9.720075E-05 
 +4.828569E-03 +5.344636E-06 -5.871538E-05 +5.344636E-06 +1.981813E-04 -7.997475E-05 -5.871538E-05 -7.997475E-05 +1.238794E-04 
 +4.811326E-03 +9.444976E-05 -6.716450E-05 +9.444976E-05 +5.414248E-05 -7.865513E-05 -6.716450E-05 -7.865513E-05 +1.851290E-04 
 +5.145598E-03 -7.532739E-05 -8.628270E-06 -7.532739E-05 -3.507249E-04 +2.727974E-05 -8.628270E-06 +2.727974E-05 +3.062800E-04 
 +5.065194E-03 +1.711988E-05 +6.013521E-05 +1.711988E-05 -5.122522E-04 +8.857498E-05 +6.013521E-05 +8.857498E-05 +3.778887E-04 
 +5.100459E-03 +2.099942E-05 +2.037975E-05 +2.099942E-05 -2.221394E-04 +5.866087E-06 +2.037975E-05 +5.866087E-06 +3.459009E-04 
 +4.813899E-03 -9.407241E-05 +2.076309E-05 -9.407241E-05 +1.808672E-04 -9.515654E-05 +2.076309E-05 -9.515654E-05 +1.330721E-04 
 +4.986692E-03 +1.537316E-05 -7.001594E-05 +1.537316E-05 +2.563866E-04 -1.005993E-04 -7.001594E-05 -1.005993E-04 -1.953551E-04 
 +5.058274E-03 -1.148297E-04 -1.335218E-04 -1.148297E-04 +3.494911E-04 -1.807000E-04 -1.335218E-04 -1.807000E-04 -4.410874E-04 
 +5.133650E-03 -1.670309E-04 -8.223555E-05 -1.670309E-04 +3.651091E-04 -2.290779E-04 -8.223555E-05 -2.290779E-04 -5.063503E-04 
 +5.108795E-03 -1.644575E-04 -5.040406E-05 -1.644575E-04 +3.658947E-04 -2.406334E-04 -5.040406E-05 -2.406334E-04 -3.908267E-04 
 +4.728672E-03 -3.988349E-05 +8.774589E-05 -3.988349E-05 +4.356918E-04 -1.800069E-04 +8.774589E-05 -1.800069E-04 -1.862832E-04 
 +4.749191E-03 +1.054218E-04 +1.920023E-04 +1.054218E-04 +4.153901E-04 -1.091100E-04 +1.920023E-04 -1.091100E-04 -6.974304E-05 
 +4.754927E-03 +7.884964E-05 +1.462371E-04 +7.884964E-05 +3.040197E-04 -7.155573E-05 +1.462371E-04 -7.155573E-05 +1.886518E-05 
 +4.745281E-03 +8.432462E-05 +1.217782E-04 +8.432462E-05 +2.581929E-04 -6.987126E-05 +1.217782E-04 -6.987126E-05 +8.096075E-05 
 +4.752708E-03 +3.655600E-05 +9.935065E-05 +3.655600E-05 +2.471041E-04 -9.340154E-05 +9.935065E-05 -9.340154E-05 +8.280743E-05 
 +4.836926E-03 -2.601553E-05 +1.233068E-04 -2.601553E-05 +2.626970E-04 -1.475784E-04 +1.233068E-04 -1.475784E-04 -8.083987E-05 
 +5.299539E-03 +1.175537E-06 -1.728955E-07 +1.175537E-06 +6.846756E-05 -2.929111E-04 -1.728955E-07 -2.929111E-04 -2.274810E-04 
 +5.330672E-03 -8.147889E-05 -8.475648E-05 -8.147889E-05 -2.602959E-04 -3.960419E-04 -8.475648E-05 -3.960419E-04 -5.795113E-05 
 +5.205865E-03 -1.349376E-04 +1.977516E-05 -1.349376E-04 -2.973569E-04 -3.172529E-04 +1.977516E-05 -3.172529E-04 +1.343073E-04 
 +5.145343E-03 -1.163787E-04 +1.556321E-04 -1.163787E-04 -1.358650E-04 -2.562464E-04 +1.556321E-04 -2.562464E-04 +8.302315E-05 
 +5.019219E-03 -2.004940E-04 +8.480125E-05 -2.004940E-04 +2.604452E-05 -3.189626E-04 +8.480125E-05 -3.189626E-04 -3.456390E-05 
 +4.858075E-03 -1.295842E-04 -4.089771E-05 -1.295842E-04 -3.621008E-05 -2.568897E-04 -4.089771E-05 -2.568897E-04 -7.973929E-06 
 +4.957379E-03 -4.422990E-05 -4.664110E-05 -4.422990E-05 -3.495056E-04 -7.374476E-05 -4.664110E-05 -7.374476E-05 +1.804787E-04 
 +5.088941E-03 -2.215854E-05 +5.468004E-05 -2.215854E-05 -4.682399E-04 +3.810976E-05 +5.468004E-05 +3.810976E-05 +3.371454E-04 
 +5.085874E-03 +9.290981E-06 +7.383914E-05 +9.290981E-06 -4.163873E-04 +6.477493E-05 +7.383914E-05 +6.477493E-05 +3.700946E-04 
 +4.999500E-03 +5.946787E-05 -1.112597E-05 +5.946787E-05 -3.105089E-04 +7.715404E-05 -1.112597E-05 +7.715404E-05 +3.985699E-04 
 +4.892567E-03 +4.602762E-05 -4.556961E-05 +4.602762E-05 -1.135787E-05 +2.691345E-05 -4.556961E-05 +2.691345E-05 +2.142247E-04 
 +5.038150E-03 -9.482978E-06 -3.261151E-05 -9.482978E-06 +2.336918E-04 -8.329620E-05 -3.261151E-05 -8.329620E-05 -1.060148E-04 
 +5.051414E-03 -1.553474E-04 -4.566178E-05 -1.553474E-04 +3.541424E-04 -1.908433E-04 -4.566178E-05 -1.908433E-04 -3.268185E-04 
 +5.146431E-03 -2.169076E-04 -3.420889E-05 -2.169076E-04 +2.893028E-04 -2.346581E-04 -3.420889E-05 -2.346581E-04 -4.556589E-04 
 +5.158493E-03 -3.113560E-04 +6.275142E-06 -3.113560E-04 +3.203940E-04 -2.309683E-04 +6.275142E-06 -2.309683E-04 -3.949798E-04 
 +4.681557E-03 -1.995419E-04 +1.182842E-04 -1.995419E-04 +4.195855E-04 -1.543529E-04 +1.182842E-04 -1.543529E-04 -1.590825E-04 
 +4.702935E-03 -7.434044E-06 +1.452371E-04 -7.434044E-06 +3.863144E-04 -5.284972E-05 +1.452371E-04 -5.284972E-05 -3.131460E-05 
 +4.757643E-03 +7.001380E-05 +9.038076E-05 +7.001380E-05 +2.891570E-04 -1.245046E-05 +9.038076E-05 -1.245046E-05 +2.499740E-05 
 +4.790176E-03 +4.402541E-05 +4.988790E-05 +4.402541E-05 +2.540680E-04 -6.453153E-05 +4.988790E-05 -6.453153E-05 +6.115609E-05 
 +4.805605E-03 +4.743197E-05 +4.413001E-05 +4.743197E-05 +2.535354E-04 -1.032460E-04 +4.413001E-05 -1.032460E-04 +5.656366E-05 
 +4.904320E-03 +7.797989E-05 +6.614225E-05 +7.797989E-05 +2.398072E-04 -1.878031E-04 +6.614225E-05 -1.878031E-04 -2.457788E-05 
 +5.295470E-03 +7.620169E-05 -5.065714E-05 +7.620169E-05 +1.832299E-04 -2.556934E-04 -5.065714E-05 -2.556934E-04 -1.367401E-04 
 +5.224757E-03 +2.572435E-05 -1.749905E-05 +2.572435E-05 +2.179014E-04 -1.699047E-04 -1.749905E-05 -1.699047E-04 -5.886289E-05 
 +5.123020E-03 +2.938984E-05 +6.759927E-05 +2.938984E-05 +2.900903E-04 -8.724555E-05 +6.759927E-05 -8.724555E-05 +7.522362E-06 
 +5.071001E-03 +1.815469E-05 +1.130717E-04 +1.815469E-05 +1.780586E-04 -1.704152E-04 +1.130717E-04 -1.704152E-04 -3.244950E-05 
 +5.090374E-03 +1.397149E-06 +4.971089E-05 +1.397149E-06 +2.097912E-05 -3.859458E-04 +4.971089E-05 -3.859458E-04 -7.940236E-06 
 +5.055461E-03 -1.004545E-04 +8.295112E-05 -1.004545E-04 -1.311807E-04 -4.269006E-04 +8.295112E-05 -4.269006E-04 +5.136237E-05 
 +5.011537E-03 -1.342925E-04 +7.879260E-05 -1.342925E-04 -3.511479E-04 -2.027803E-04 +7.879260E-05 -2.027803E-04 +1.578143E-04 
 +4.977524E-03 -6.780512E-05 +5.309895E-05 -6.780512E-05 -4.021436E-04 -2.558477E-05 +5.309895E-05 -2.558477E-05 +2.710567E-04 
 +4.940835E-03 -2.187810E-05 +6.880732E-05 -2.187810E-05 -2.910607E-04 +2.601102E-05 +6.880732E-05 +2.601102E-05 +2.794707E-04 
 +4.895477E-03 +9.309079E-05 +2.574518E-05 +9.309079E-05 -2.213306E-04 +9.323001E-05 +2.574518E-05 +9.323001E-05 +2.834063E-04 
 +5.015964E-03 +9.327750E-05 -5.904685E-05 +9.327750E-05 -7.128657E-05 +8.469028E-05 -5.904685E-05 +8.469028E-05 +1.789768E-04 
 +5.093498E-03 +7.715970E-05 +1.418338E-05 +7.715970E-05 -1.207867E-05 -1.622730E-04 +1.418338E-05 -1.622730E-04 -1.553802E-05 
 +5.046416E-03 -1.503232E-04 +7.955032E-05 -1.503232E-04 +3.403884E-05 -2.887290E-04 +7.955032E-05 -2.887290E-04 -1.489714E-04 
 +5.085245E-03 -3.127186E-04 +7.326964E-05 -3.127186E-04 +1.795886E-04 -3.023173E-04 +7.326964E-05 -3.023173E-04 -2.508570E-04 
 +4.987232E-03 -3.647567E-04 +4.134469E-05 -3.647567E-04 +1.855500E-04 -2.772959E-04 +4.134469E-05 -2.772959E-04 -2.249723E-04 
 +4.886778E-03 -1.994643E-04 +6.353404E-05 -1.994643E-04 +2.221794E-04 -2.400519E-04 +6.353404E-05 -2.400519E-04 -1.533807E-04 
 +4.938471E-03 -1.087839E-05 +1.353716E-04 -1.087839E-05 +2.164786E-04 -2.095032E-04 +1.353716E-04 -2.095032E-04 -5.395759E-05 
 +4.808218E-03 +1.989274E-04 +3.188865E-05 +1.989274E-04 +1.252327E-04 -1.761090E-04 +3.188865E-05 -1.761090E-04 +2.600128E-05 
 +4.802250E-03 +2.540172E-04 -1.581769E-05 +2.540172E-04 +7.172480E-05 -2.080204E-04 -1.581769E-05 -2.080204E-04 +7.885752E-05 
 +4.866944E-03 +2.608464E-04 +2.109961E-05 +2.608464E-04 +1.322273E-04 -2.676081E-04 +2.109961E-05 -2.676081E-04 +6.896395E-05 
 +5.057762E-03 +1.970439E-04 +1.433440E-05 +1.970439E-04 +2.291091E-04 -2.771001E-04 +1.433440E-05 -2.771001E-04 -4.817570E-05 
 +5.149911E-03 +8.825612E-05 -4.069558E-05 +8.825612E-05 +3.081210E-04 -2.216287E-04 -4.069558E-05 -2.216287E-04 -1.461055E-04 
 +5.119486E-03 +3.626401E-05 -2.525671E-05 +3.626401E-05 +3.248384E-04 -2.153339E-04 -2.525671E-05 -2.153339E-04 -1.912477E-04 
 +5.123084E-03 +7.105556E-05 -9.621199E-07 +7.105556E-05 +2.698655E-04 -2.048576E-04 -9.621199E-07 -2.048576E-04 -2.372651E-04 
 +5.121215E-03 +8.234967E-05 +7.569483E-05 +8.234967E-05 +2.557663E-04 -1.364822E-04 +7.569483E-05 -1.364822E-04 -2.266046E-04 
 +5.188783E-03 +7.537679E-05 +9.383991E-05 +7.537679E-05 +1.118206E-04 -5.656170E-05 +9.383991E-05 -5.656170E-05 -2.033666E-04 
 +5.120217E-03 -1.703205E-05 +1.310633E-04 -1.703205E-05 -3.663620E-05 -3.389213E-05 +1.310633E-04 -3.389213E-05 -1.073899E-04 
 +4.882669E-03 -3.221576E-05 +7.809153E-05 -3.221576E-05 +9.475505E-05 -1.529604E-04 +7.809153E-05 -1.529604E-04 +1.261446E-04 
 +4.868914E-03 +8.694425E-05 +6.422472E-05 +8.694425E-05 +1.826015E-04 -2.243230E-04 +6.422472E-05 -2.243230E-04 +2.965136E-04 
 +4.831520E-03 +1.620835E-04 +7.130876E-05 +1.620835E-04 +1.989706E-04 -1.518599E-04 +7.130876E-05 -1.518599E-04 +2.955302E-04 
 +4.857148E-03 +2.462187E-04 +7.249845E-05 +2.462187E-04 +2.593401E-04 +1.735100E-05 +7.249845E-05 +1.735100E-05 +2.321135E-04 
 +4.902508E-03 +2.739452E-04 +1.965285E-05 +2.739452E-04 +1.858005E-04 +5.234623E-05 +1.965285E-05 +5.234623E-05 +1.124108E-04 
 +4.977751E-03 +1.688044E-04 +4.414444E-05 +1.688044E-04 +1.882473E-04 +4.112738E-05 +4.414444E-05 +4.112738E-05 +2.928481E-05 
 +4.930385E-03 +4.193937E-05 +1.099740E-04 +4.193937E-05 +2.324644E-04 -6.215210E-05 +1.099740E-04 -6.215210E-05 -4.048539E-05 
 +5.008939E-03 -2.702139E-04 +1.086877E-04 -2.702139E-04 +2.080775E-04 -1.841891E-04 +1.086877E-04 -1.841891E-04 -7.594883E-05 
 +4.944403E-03 -2.062273E-04 +3.003167E-05 -2.062273E-04 +1.954452E-04 -1.862789E-04 +3.003167E-05 -1.862789E-04 -1.105213E-04 
 +5.021989E-03 -9.038773E-05 -2.504209E-05 -9.038773E-05 +2.065557E-04 -1.813790E-04 -2.504209E-05 -1.813790E-04 -2.010199E-04 
 +5.067090E-03 -7.190405E-05 +9.546021E-05 -7.190405E-05 +2.139897E-04 -2.272467E-04 +9.546021E-05 -2.272467E-04 -1.530176E-04 
 +5.023504E-03 -1.994430E-05 +4.701855E-05 -1.994430E-05 +1.771096E-04 -1.979874E-04 +4.701855E-05 -1.979874E-04 -1.855718E-05 
 +4.882560E-03 +1.713813E-04 -2.238666E-05 +1.713813E-04 +9.551812E-05 -1.852355E-04 -2.238666E-05 -1.852355E-04 +9.444669E-05 
 +4.882909E-03 +2.887570E-04 -3.318539E-05 +2.887570E-04 +1.581073E-04 -1.929341E-04 -3.318539E-05 -1.929341E-04 +1.127163E-04 
 +5.033963E-03 +1.798059E-04 -2.525830E-05 +1.798059E-04 +3.097453E-04 -1.518876E-04 -2.525830E-05 -1.518876E-04 -3.026306E-05 
 +5.037752E-03 +6.912728E-05 -4.461991E-05 +6.912728E-05 +4.095854E-04 -1.334152E-04 -4.461991E-05 -1.334152E-04 -1.552945E-04 
 +5.091669E-03 +4.676854E-05 -6.236077E-05 +4.676854E-05 +4.141383E-04 -1.356494E-04 -6.236077E-05 -1.356494E-04 -2.501392E-04 
 +5.146711E-03 +4.200826E-05 -3.495246E-05 +4.200826E-05 +3.520382E-04 -1.155041E-04 -3.495246E-05 -1.155041E-04 -3.406587E-04 
 +5.198675E-03 +2.316548E-05 +4.993486E-05 +2.316548E-05 +2.085796E-04 -1.222317E-04 +4.993486E-05 -1.222317E-04 -3.577624E-04 
 +5.273777E-03 -7.123803E-05 +1.717502E-04 -7.123803E-05 +1.347137E-04 -1.472539E-04 +1.717502E-04 -1.472539E-04 -3.332027E-04 
 +5.082211E-03 -7.479665E-05 +1.542714E-04 -7.479665E-05 +2.084701E-04 -9.215330E-05 +1.542714E-04 -9.215330E-05 -2.031916E-04 
 +4.953332E-03 +4.575164E-06 +1.043030E-06 +4.575164E-06 +2.326500E-04 -1.631675E-05 +1.043030E-06 -1.631675E-05 +7.782913E-06 
 +4.724932E-03 +1.245085E-04 +6.444927E-05 +1.245085E-04 +2.473891E-04 -3.932424E-06 +6.444927E-05 -3.932424E-06 +2.081557E-04 
 +4.736354E-03 +1.929165E-04 +1.017028E-04 +1.929165E-04 +2.520170E-04 +2.285885E-05 +1.017028E-04 +2.285885E-05 +3.155358E-04 
 +4.856660E-03 +2.977650E-04 +1.171975E-04 +2.977650E-04 +2.039606E-04 +1.160008E-04 +1.171975E-04 +1.160008E-04 +2.831320E-04 
 +4.862668E-03 +3.093498E-04 +5.885988E-05 +3.093498E-04 +1.825802E-04 +1.269665E-04 +5.885988E-05 +1.269665E-04 +1.434743E-04 
 +4.894310E-03 +1.476668E-04 +4.538377E-05 +1.476668E-04 +1.966757E-04 +1.237426E-05 +4.538377E-05 +1.237426E-05 +4.013389E-05 
 +4.836832E-03 +7.373564E-05 +8.538791E-05 +7.373564E-05 +2.031627E-04 -7.770764E-05 +8.538791E-05 -7.770764E-05 +7.412408E-06 
 +4.976176E-03 -2.103157E-04 +1.063781E-04 -2.103157E-04 +1.903284E-04 -1.575174E-04 +1.063781E-04 -1.575174E-04 +9.469970E-06 
 +4.941563E-03 -1.077593E-04 +4.610628E-05 -1.077593E-04 +2.098553E-04 -1.427638E-04 +4.610628E-05 -1.427638E-04 -3.359847E-05 
 +5.002821E-03 -6.152590E-05 -4.577713E-05 -6.152590E-05 +2.531614E-04 -1.258367E-04 -4.577713E-05 -1.258367E-04 -1.729858E-04 
 +5.040505E-03 -2.111539E-05 +5.476288E-05 -2.111539E-05 +2.356392E-04 -1.383695E-04 +5.476288E-05 -1.383695E-04 -1.830863E-04 
 +5.102584E-03 -5.597919E-05 +6.089310E-05 -5.597919E-05 +2.075359E-04 -1.930710E-04 +6.089310E-05 -1.930710E-04 -5.816369E-05 
 +4.955634E-03 +2.643755E-05 +3.196307E-05 +2.643755E-05 +2.311625E-04 -2.713366E-04 +3.196307E-05 -2.713366E-04 +7.773146E-05 
 +4.928742E-03 +1.461306E-04 +3.731869E-05 +1.461306E-04 +2.536300E-04 -2.101366E-04 +3.731869E-05 -2.101366E-04 +9.938707E-05 
 +5.041436E-03 +1.026058E-04 +4.562642E-05 +1.026058E-04 +2.441602E-04 -7.789653E-05 +4.562642E-05 -7.789653E-05 -2.376037E-05 
 +5.112564E-03 +6.304981E-05 -2.744728E-05 +6.304981E-05 +2.557474E-04 -4.185105E-05 -2.744728E-05 -4.185105E-05 -1.082226E-04 
 +5.124588E-03 +7.956870E-05 -7.630454E-05 +7.956870E-05 +3.296434E-04 -7.540380E-05 -7.630454E-05 -7.540380E-05 -1.175521E-04 
 +5.112734E-03 +2.768812E-05 -7.516053E-05 +2.768812E-05 +3.213286E-04 -9.877564E-05 -7.516053E-05 -9.877564E-05 -1.565561E-04 
 +5.150385E-03 -7.299310E-05 +1.765861E-05 -7.299310E-05 +2.177845E-04 -1.033152E-04 +1.765861E-05 -1.033152E-04 -2.282007E-04 
 +5.176695E-03 -1.833979E-04 +1.091386E-04 -1.833979E-04 +1.652818E-04 -9.906790E-05 +1.091386E-04 -9.906790E-05 -2.421432E-04 
 +5.137465E-03 -1.907903E-04 +9.197005E-05 -1.907903E-04 +1.818660E-04 -1.023274E-04 +9.197005E-05 -1.023274E-04 -2.669918E-04 
 +5.145409E-03 -1.016167E-04 +3.117280E-05 -1.016167E-04 +2.706686E-04 -3.686417E-05 +3.117280E-05 -3.686417E-05 -2.798083E-04 
 +4.727270E-03 +1.218995E-04 +5.354760E-05 +1.218995E-04 +3.569807E-04 +7.178922E-05 +5.354760E-05 +7.178922E-05 -1.320467E-04 
 +4.736919E-03 +2.290610E-04 +4.014106E-05 +2.290610E-04 +2.980626E-04 +8.768138E-05 +4.014106E-05 +8.768138E-05 +1.020227E-04 
 +4.748219E-03 +3.500740E-04 +1.003586E-04 +3.500740E-04 +2.085052E-04 +1.051387E-04 +1.003586E-04 +1.051387E-04 +2.507381E-04 
 +4.845366E-03 +2.850279E-04 +4.677726E-05 +2.850279E-04 +1.854678E-04 +9.257386E-05 +4.677726E-05 +9.257386E-05 +1.685246E-04 
 +4.838457E-03 +1.911122E-04 +4.132173E-05 +1.911122E-04 +2.570508E-04 +1.518324E-05 +4.132173E-05 +1.518324E-05 -5.261083E-06 
 +4.844548E-03 +7.052323E-05 +7.803949E-05 +7.052323E-05 +2.196873E-04 -4.864813E-05 +7.803949E-05 -4.864813E-05 -1.037829E-04 
 +4.925919E-03 -1.892172E-04 +7.641193E-05 -1.892172E-04 +1.943034E-04 -1.079663E-04 +7.641193E-05 -1.079663E-04 -8.110801E-05 
 +4.904905E-03 -8.943833E-05 +1.704297E-05 -8.943833E-05 +2.363389E-04 -1.031019E-04 +1.704297E-05 -1.031019E-04 -6.918063E-05 
 +4.999650E-03 -1.641819E-05 -2.291921E-05 -1.641819E-05 +2.621088E-04 -1.034764E-04 -2.291921E-05 -1.034764E-04 -1.123040E-04 
 +5.056576E-03 -2.334360E-05 +5.634594E-05 -2.334360E-05 +2.358889E-04 -1.366352E-04 +5.634594E-05 -1.366352E-04 -8.290213E-05 
 +5.032869E-03 -6.234682E-06 +6.054698E-05 -6.234682E-06 +2.022268E-04 -1.584829E-04 +6.054698E-05 -1.584829E-04 +4.831014E-06 
 +4.929541E-03 +6.915687E-05 +1.243607E-04 +6.915687E-05 +1.624455E-04 -1.210470E-04 +1.243607E-04 -1.210470E-04 +1.423070E-04 
 +4.954973E-03 +1.650984E-04 +1.600701E-04 +1.650984E-04 +7.281623E-05 -6.834147E-05 +1.600701E-04 -6.834147E-05 +1.443756E-04 
 +5.128567E-03 +2.932149E-05 +1.518678E-04 +2.932149E-05 -7.974946E-05 -7.683382E-05 +1.518678E-04 -7.683382E-05 +4.580557E-05 
 +5.178567E-03 +2.628041E-05 +1.104699E-05 +2.628041E-05 -1.918867E-04 -1.227907E-04 +1.104699E-05 -1.227907E-04 -2.096151E-06 
 +5.152371E-03 +2.778739E-06 -1.204577E-04 +2.778739E-06 -1.773145E-04 -1.646983E-04 -1.204577E-04 -1.646983E-04 +2.779093E-05 
 +5.090186E-03 -6.137040E-05 -1.478274E-04 -6.137040E-05 -4.516320E-05 -1.822537E-04 -1.478274E-04 -1.822537E-04 +5.159037E-05 
 +5.083538E-03 -1.317238E-04 -7.308815E-05 -1.317238E-04 +1.377981E-04 -2.199192E-04 -7.308815E-05 -2.199192E-04 -4.704935E-05 
 +5.089652E-03 -1.791905E-04 +4.618866E-05 -1.791905E-04 +1.556537E-04 -2.484774E-04 +4.618866E-05 -2.484774E-04 -1.655238E-04 
 +5.136440E-03 -1.220775E-04 +4.009519E-05 -1.220775E-04 +1.577967E-04 -1.725010E-04 +4.009519E-05 -1.725010E-04 -3.158168E-04 
 +5.135546E-03 -1.530530E-04 +3.019739E-05 -1.530530E-04 +2.701798E-04 -8.964656E-05 +3.019739E-05 -8.964656E-05 -4.003960E-04 
 +4.950114E-03 -8.480842E-05 +3.362072E-05 -8.480842E-05 +3.125243E-04 -6.226975E-05 +3.362072E-05 -6.226975E-05 -3.601215E-04 
 +4.873962E-03 +5.584613E-05 -1.787840E-05 +5.584613E-05 +3.211235E-04 +3.154925E-05 -1.787840E-05 +3.154925E-05 -1.858430E-04 
 +4.698626E-03 +2.849623E-04 +2.127525E-05 +2.849623E-04 +2.844394E-04 +1.337159E-04 +2.127525E-05 +1.337159E-04 +1.140729E-04 
 +4.733290E-03 +3.238641E-04 +4.608335E-07 +3.238641E-04 +2.318178E-04 +8.729413E-05 +4.608335E-07 +8.729413E-05 +1.604891E-04 
 +4.712468E-03 +1.566324E-04 +9.930136E-05 +1.566324E-04 +3.489739E-04 +4.969130E-05 +9.930136E-05 +4.969130E-05 -1.009666E-05 
 +4.925022E-03 -3.186855E-05 +6.230978E-05 -3.186855E-05 +3.996077E-04 +4.444133E-05 +6.230978E-05 +4.444133E-05 -8.654092E-05 
 +4.929803E-03 -1.430699E-04 -2.185955E-06 -1.430699E-04 +4.326375E-04 +6.266672E-05 -2.185955E-06 +6.266672E-05 +4.312522E-06 
 +4.911813E-03 -3.339314E-05 +1.599700E-05 -3.339314E-05 +4.338231E-04 +8.668653E-06 +1.599700E-05 +8.668653E-06 +1.062928E-04 
 +5.020164E-03 +3.167498E-05 +5.618941E-05 +3.167498E-05 +3.307550E-04 -1.213220E-04 +5.618941E-05 -1.213220E-04 +1.077561E-04 
 +5.053620E-03 +1.804565E-05 +4.707133E-05 +1.804565E-05 +2.502729E-04 -1.740338E-04 +4.707133E-05 -1.740338E-04 +1.251325E-04 
 +4.934054E-03 +2.110745E-05 +8.400718E-05 +2.110745E-05 +2.066000E-04 -1.285495E-04 +8.400718E-05 -1.285495E-04 +1.776816E-04 
 +4.937617E-03 +4.281196E-05 +2.151373E-04 +4.281196E-05 +1.209483E-04 -5.832361E-05 +2.151373E-04 -5.832361E-05 +2.015646E-04 
 +5.024776E-03 +1.403818E-04 +1.632980E-04 +1.403818E-04 -1.124844E-04 -5.928699E-07 +1.632980E-04 -5.928699E-07 +1.870168E-04 
 +5.137592E-03 +8.084059E-05 +1.127179E-04 +8.084059E-05 -3.077113E-04 -3.369575E-05 +1.127179E-04 -3.369575E-05 +2.083486E-04 
 +5.124481E-03 +1.004711E-04 +4.711380E-05 +1.004711E-04 -2.858057E-04 -1.300330E-04 +4.711380E-05 -1.300330E-04 +1.828780E-04 
 +5.109300E-03 +3.365761E-05 -1.087277E-04 +3.365761E-05 -2.388219E-04 -1.605133E-04 -1.087277E-04 -1.605133E-04 +1.520201E-04 
 +5.083968E-03 -5.162071E-05 -2.011357E-04 -5.162071E-05 -3.327811E-04 -1.796243E-04 -2.011357E-04 -1.796243E-04 +1.898693E-04 
 +5.111572E-03 -6.314941E-05 -2.423295E-04 -6.314941E-05 -3.783280E-04 -2.441504E-04 -2.423295E-04 -2.441504E-04 +1.072123E-04 
 +5.044326E-03 -1.192178E-04 -3.099647E-05 -1.192178E-04 -1.055208E-04 -2.788566E-04 -3.099647E-05 -2.788566E-04 -1.174254E-04 
 +5.073419E-03 -1.135687E-04 +7.009447E-05 -1.135687E-04 +1.480919E-04 -2.177084E-04 +7.009447E-05 -2.177084E-04 -2.953857E-04 
 +5.034593E-03 -7.524496E-05 +1.893954E-05 -7.524496E-05 +2.067020E-04 -1.204460E-04 +1.893954E-05 -1.204460E-04 -3.367516E-04 
 +5.017702E-03 -8.071107E-05 -9.962959E-06 -8.071107E-05 +2.475644E-04 -6.093764E-05 -9.962959E-06 -6.093764E-05 -3.275825E-04 
 +4.971621E-03 -6.808315E-05 -4.049197E-05 -6.808315E-05 +2.950567E-04 -2.699723E-05 -4.049197E-05 -2.699723E-05 -2.750668E-04 
 +4.903497E-03 +6.822007E-05 -6.669134E-05 +6.822007E-05 +2.848554E-04 +2.286335E-05 -6.669134E-05 +2.286335E-05 -8.786656E-05 
 +4.676984E-03 +2.649573E-04 +1.428571E-07 +2.649573E-04 +2.689508E-04 +5.385744E-05 +1.428571E-07 +5.385744E-05 +5.149497E-05 
 +4.771509E-03 +5.554593E-05 +6.564761E-05 +5.554593E-05 +2.758399E-04 -8.200115E-05 +6.564761E-05 -8.200115E-05 +2.222390E-04 
 +4.994640E-03 -1.169544E-04 +3.637439E-05 -1.169544E-04 +2.518459E-05 -1.216013E-04 +3.637439E-05 -1.216013E-04 +3.142299E-04 
 +5.030589E-03 -1.499108E-04 -1.666940E-05 -1.499108E-04 -1.127805E-04 -3.656733E-05 -1.666940E-05 -3.656733E-05 +3.997893E-04 
 +5.014262E-03 -3.988877E-05 +5.101159E-05 -3.988877E-05 -5.895418E-05 -8.032986E-05 +5.101159E-05 -8.032986E-05 +3.869019E-04 
 +5.077004E-03 +6.501869E-05 +1.349977E-04 +6.501869E-05 -2.048309E-05 -2.679947E-04 +1.349977E-04 -2.679947E-04 +2.049956E-04 
 +5.018030E-03 +1.274276E-04 +7.069110E-05 +1.274276E-04 +9.166664E-05 -2.652982E-04 +7.069110E-05 -2.652982E-04 +1.497615E-04 
 +4.883477E-03 +1.041651E-04 +3.326581E-05 +1.041651E-04 +1.762145E-04 -1.588351E-04 +3.326581E-05 -1.588351E-04 +1.539670E-04 
 +4.940554E-03 +4.408777E-05 +1.781014E-04 +4.408777E-05 -5.956291E-05 -1.069132E-04 +1.781014E-04 -1.069132E-04 +1.228544E-04 
 +5.056696E-03 +2.692798E-05 +1.533943E-04 +2.692798E-05 -4.472392E-04 -4.038598E-05 +1.533943E-04 -4.038598E-05 +1.915529E-04 
 +5.108494E-03 +9.699272E-05 +7.927249E-05 +9.699272E-05 -5.438922E-04 -2.846399E-05 +7.927249E-05 -2.846399E-05 +2.828075E-04 
 +5.065769E-03 +1.388520E-04 +5.479526E-05 +1.388520E-04 -4.949132E-04 -8.574450E-05 +5.479526E-05 -8.574450E-05 +3.259191E-04 
 +5.090629E-03 +1.153862E-04 -8.203070E-05 +1.153862E-04 -5.100124E-04 -1.324332E-04 -8.203070E-05 -1.324332E-04 +3.149965E-04 
 +5.116805E-03 +1.826275E-05 -1.898366E-04 +1.826275E-05 -5.098733E-04 -1.919284E-04 -1.898366E-04 -1.919284E-04 +2.710164E-04 
 +5.070038E-03 +9.030983E-05 -1.908195E-04 +9.030983E-05 -4.714732E-04 -1.616334E-04 -1.908195E-04 -1.616334E-04 +2.120425E-04 
 +4.922222E-03 +1.407103E-04 -5.760391E-05 +1.407103E-04 -2.472574E-04 -9.915004E-05 -5.760391E-05 -9.915004E-05 +2.075439E-05 
 +5.001584E-03 -1.287046E-06 -7.755300E-06 -1.287046E-06 +6.049858E-05 -1.771083E-04 -7.755300E-06 -1.771083E-04 -2.006733E-04 
 +5.014632E-03 -7.708312E-05 +1.835142E-05 -7.708312E-05 +1.734647E-04 -2.090517E-04 +1.835142E-05 -2.090517E-04 -2.410282E-04 
 +4.909281E-03 -7.232419E-05 -1.641456E-05 -7.232419E-05 +1.981771E-04 -1.640510E-04 -1.641456E-05 -1.640510E-04 -1.907445E-04 
 +4.887382E-03 -9.836769E-05 -6.313024E-05 -9.836769E-05 +2.358476E-04 -1.387200E-04 -6.313024E-05 -1.387200E-04 -1.496584E-04 
 +4.997980E-03 -1.371542E-04 -7.561350E-05 -1.371542E-04 +2.149948E-04 -4.061225E-05 -7.561350E-05 -4.061225E-05 -1.008433E-04 
 +4.766713E-03 +6.914825E-05 +1.253437E-05 +6.914825E-05 +2.770739E-04 +1.152705E-05 +1.253437E-05 +1.152705E-05 +4.221002E-05 
 +5.107849E-03 -1.037737E-04 -5.188199E-05 -1.037737E-04 -2.341867E-04 -1.348652E-04 -5.188199E-05 -1.348652E-04 +3.567325E-04 
 +5.068758E-03 -1.664694E-04 +3.427485E-05 -1.664694E-04 -2.926882E-04 -1.374292E-04 +3.427485E-05 -1.374292E-04 +3.995857E-04 
 +5.103126E-03 -1.507180E-04 +6.125860E-05 -1.507180E-04 -3.115456E-04 -3.160128E-05 +6.125860E-05 -3.160128E-05 +3.067952E-04 
 +5.149778E-03 -2.578011E-05 +6.424640E-05 -2.578011E-05 -3.787912E-04 -8.816936E-05 +6.424640E-05 -8.816936E-05 +1.822191E-04 
 +5.071962E-03 +8.102048E-05 +1.039972E-04 +8.102048E-05 -1.730558E-04 -3.324123E-04 +1.039972E-04 -3.324123E-04 +1.068145E-04 
 +4.988991E-03 +4.130758E-05 +1.108556E-04 +4.130758E-05 -2.176425E-05 -4.049709E-04 +1.108556E-04 -4.049709E-04 +1.273055E-04 
 +4.968657E-03 -2.656058E-05 -3.200382E-05 -2.656058E-05 -1.330868E-04 -2.830513E-04 -3.200382E-05 -2.830513E-04 +1.451288E-04 
 +4.978069E-03 -6.463635E-05 +6.661113E-05 -6.463635E-05 -1.358192E-04 -1.627105E-04 +6.661113E-05 -1.627105E-04 +1.531387E-04 
 +4.949701E-03 -1.205237E-04 +1.772634E-04 -1.205237E-04 -1.794564E-04 -1.070512E-04 +1.772634E-04 -1.070512E-04 +1.476483E-04 
 +5.044429E-03 +2.303300E-05 +1.608104E-04 +2.303300E-05 -4.658024E-04 -1.051368E-04 +1.608104E-04 -1.051368E-04 +1.939587E-04 
 +5.098910E-03 +1.217853E-04 +5.463596E-05 +1.217853E-04 -5.789426E-04 -1.310544E-04 +5.463596E-05 -1.310544E-04 +2.919781E-04 
 +5.126981E-03 +8.831824E-05 -3.795043E-05 +8.831824E-05 -5.678431E-04 -1.883536E-04 -3.795043E-05 -1.883536E-04 +2.825343E-04 
 +5.164068E-03 +6.079862E-05 -9.657175E-05 +6.079862E-05 -4.803284E-04 -1.942182E-04 -9.657175E-05 -1.942182E-04 +1.719524E-04 
 +4.969644E-03 +1.670753E-04 -2.927185E-05 +1.670753E-04 -1.915918E-04 -8.566710E-05 -2.927185E-05 -8.566710E-05 +1.293149E-04 
 +4.871438E-03 +2.482917E-04 -3.448983E-05 +2.482917E-04 -5.055937E-05 -2.348163E-05 -3.448983E-05 -2.348163E-05 +9.721781E-05 
 +4.925481E-03 +1.616218E-04 -5.314901E-05 +1.616218E-04 -4.694824E-05 -3.317664E-05 -5.314901E-05 -3.317664E-05 -7.256003E-06 
 +5.003707E-03 +5.767764E-05 +2.230811E-05 +5.767764E-05 +1.744534E-07 +1.574744E-05 +2.230811E-05 +1.574744E-05 -3.210072E-05 
 +4.842488E-03 +1.407913E-04 +1.192713E-05 +1.407913E-04 +7.868124E-05 +3.600235E-05 +1.192713E-05 +3.600235E-05 +1.700404E-05 
 +4.766672E-03 +1.124812E-04 -3.060763E-05 +1.124812E-04 +1.640561E-04 +3.680825E-05 -3.060763E-05 +3.680825E-05 +8.143091E-05 
 +4.745704E-03 +7.496573E-06 -5.280829E-05 +7.496573E-06 +2.376370E-04 +8.471156E-05 -5.280829E-05 +8.471156E-05 +8.157841E-05 
 +4.791781E-03 +1.605652E-05 -4.487955E-05 +1.605652E-05 +8.669559E-05 +1.222082E-05 -4.487955E-05 +1.222082E-05 +1.686434E-04 
 +5.212813E-03 +7.674487E-06 -7.465279E-05 +7.674487E-06 -2.837449E-04 -1.722010E-04 -7.465279E-05 -1.722010E-04 +3.347876E-04 
 +5.180276E-03 -5.330801E-05 +5.663889E-05 -5.330801E-05 -3.242996E-04 -1.196090E-04 +5.663889E-05 -1.196090E-04 +2.857135E-04 
 +5.157455E-03 -1.266310E-04 +1.059219E-04 -1.266310E-04 -2.397653E-04 -1.167799E-04 +1.059219E-04 -1.167799E-04 +1.048671E-04 
 +5.124770E-03 +2.047148E-05 +6.421756E-05 +2.047148E-05 -9.722533E-05 -2.591642E-04 +6.421756E-05 -2.591642E-04 +1.491535E-05 
 +5.043284E-03 +1.458269E-04 +9.622650E-05 +1.458269E-04 -7.248323E-06 -3.595669E-04 +9.622650E-05 -3.595669E-04 +1.344102E-04 
 +5.035747E-03 +1.924415E-05 +9.431461E-05 +1.924415E-05 -8.711053E-05 -3.126631E-04 +9.431461E-05 -3.126631E-04 +1.986547E-04 
 +5.041990E-03 -3.672457E-05 -4.457732E-05 -3.672457E-05 -1.736330E-04 -2.151718E-04 -4.457732E-05 -2.151718E-04 +2.233839E-04 
 +5.032053E-03 -3.734721E-05 +2.421818E-05 -3.734721E-05 -1.721459E-04 -1.440453E-04 +2.421818E-05 -1.440453E-04 +1.993823E-04 
 +4.920184E-03 -1.144717E-04 +1.669941E-04 -1.144717E-04 -3.658553E-05 -1.362318E-04 +1.669941E-04 -1.362318E-04 +4.678191E-05 
 +4.924610E-03 -1.007561E-04 +2.077188E-04 -1.007561E-04 -5.497336E-05 -1.606133E-04 +2.077188E-04 -1.606133E-04 +3.167440E-05 
 +5.089400E-03 +4.690998E-05 +9.179233E-05 +4.690998E-05 -3.896987E-04 -1.793628E-04 +9.179233E-05 -1.793628E-04 +1.024274E-04 
 +5.156004E-03 +5.211734E-05 +1.737316E-05 +5.211734E-05 -4.914603E-04 -2.099171E-04 +1.737316E-05 -2.099171E-04 +8.029504E-05 
 +5.107282E-03 +6.427307E-05 -1.358964E-05 +6.427307E-05 -3.240467E-04 -1.538644E-04 -1.358964E-05 -1.538644E-04 +5.541842E-05 
 +4.932989E-03 +1.685796E-04 +6.189885E-06 +1.685796E-04 -1.625755E-04 -4.578333E-05 +6.189885E-06 -4.578333E-05 +8.027774E-05 
 +4.904853E-03 +1.491861E-04 -1.123371E-05 +1.491861E-04 -7.417485E-05 -5.664754E-05 -1.123371E-05 -5.664754E-05 +8.447232E-05 
 +4.938959E-03 +1.027718E-04 -1.462387E-05 +1.027718E-04 -6.466414E-05 -6.357549E-05 -1.462387E-05 -6.357549E-05 +5.772054E-05 
 +4.979705E-03 +2.605076E-05 +4.253525E-05 +2.605076E-05 -8.378072E-06 +4.851646E-06 +4.253525E-05 +4.851646E-06 +7.046090E-05 
 +4.774769E-03 +5.659622E-05 +9.414810E-06 +5.659622E-05 +6.067544E-05 -6.093123E-06 +9.414810E-06 -6.093123E-06 +1.736860E-04 
 +4.675128E-03 +3.588393E-05 -2.347143E-05 +3.588393E-05 +1.512053E-04 -7.618986E-05 -2.347143E-05 -7.618986E-05 +2.759999E-04 
 +4.704566E-03 +5.760523E-05 -7.365720E-05 +5.760523E-05 +1.870080E-04 -9.665514E-05 -7.365720E-05 -9.665514E-05 +2.581094E-04 
 +4.801361E-03 +1.104383E-04 -4.747272E-05 +1.104383E-04 -3.295584E-05 -1.415304E-04 -4.747272E-05 -1.415304E-04 +2.799754E-04 
 +5.134683E-03 -3.924778E-05 -1.993360E-05 -3.924778E-05 -3.190476E-04 -3.673790E-05 -1.993360E-05 -3.673790E-05 +2.765204E-04 
 +5.210242E-03 -4.444226E-05 +4.978543E-05 -4.444226E-05 -3.723799E-04 -2.940201E-05 +4.978543E-05 -2.940201E-05 +2.298674E-04 
 +5.157908E-03 -4.386309E-05 +1.477550E-05 -4.386309E-05 -2.308102E-04 -9.266213E-05 +1.477550E-05 -9.266213E-05 +1.408793E-04 
 +5.060188E-03 +5.877078E-05 +8.914114E-05 +5.877078E-05 -2.893289E-06 -2.342365E-04 +8.914114E-05 -2.342365E-04 +4.452101E-05 
 +5.096509E-03 +1.056186E-04 +1.735253E-04 +1.056186E-04 -5.616552E-05 -2.756083E-04 +1.735253E-04 -2.756083E-04 -5.266542E-06 
 +5.119729E-03 -2.004804E-05 +3.952950E-05 -2.004804E-05 -1.685481E-04 -2.711845E-04 +3.952950E-05 -2.711845E-04 +5.802459E-05 
 +5.056825E-03 -5.374527E-05 -7.643249E-05 -5.374527E-05 -2.063248E-04 -2.151373E-04 -7.643249E-05 -2.151373E-04 +1.874338E-04 
 +5.025770E-03 -1.729645E-05 +1.102937E-05 -1.729645E-05 -1.713923E-04 -1.529024E-04 +1.102937E-05 -1.529024E-04 +1.705062E-04 
 +4.945567E-03 -6.356453E-05 +1.393716E-04 -6.356453E-05 -7.136419E-05 -1.271083E-04 +1.393716E-04 -1.271083E-04 -5.665800E-06 
 +4.895394E-03 -1.062548E-04 +1.816419E-04 -1.062548E-04 +8.577412E-05 -1.400595E-04 +1.816419E-04 -1.400595E-04 -6.828491E-05 
 +4.973301E-03 -8.350213E-05 +1.297783E-04 -8.350213E-05 +4.836216E-05 -1.830525E-04 +1.297783E-04 -1.830525E-04 -6.505680E-05 
 +5.088221E-03 +6.213263E-05 +5.580571E-05 +6.213263E-05 -1.536335E-04 -1.281502E-04 +5.580571E-05 -1.281502E-04 -4.059724E-05 
 +4.996078E-03 +1.229813E-04 +3.375349E-05 +1.229813E-04 -8.088056E-05 +1.309251E-05 +3.375349E-05 +1.309251E-05 +3.867361E-05 
 +4.923827E-03 +1.448952E-04 +6.054895E-06 +1.448952E-04 -1.133065E-05 +5.333596E-05 +6.054895E-06 +5.333596E-05 +9.570865E-05 
 +4.931458E-03 +1.006211E-04 +7.903519E-06 +1.006211E-04 -6.136708E-05 -8.172187E-06 +7.903519E-06 -8.172187E-06 +1.027808E-04 
 +4.933486E-03 +2.653070E-05 +3.979148E-06 +2.653070E-05 -3.692796E-05 -5.611238E-05 +3.979148E-06 -5.611238E-05 +8.439401E-05 
 +4.914020E-03 -3.462520E-05 +5.501740E-05 -3.462520E-05 +4.765948E-05 -5.908587E-05 +5.501740E-05 -5.908587E-05 +7.961270E-05 
 +4.718830E-03 -1.668139E-05 -2.123284E-05 -1.668139E-05 +1.211032E-04 -1.233958E-04 -2.123284E-05 -1.233958E-04 +2.369357E-04 
 +4.635343E-03 -1.515209E-05 -4.556215E-06 -1.515209E-05 +4.054095E-05 -1.248310E-04 -4.556215E-06 -1.248310E-04 +3.616721E-04 
 +4.934429E-03 -7.163104E-05 -4.029942E-05 -7.163104E-05 -1.483405E-04 +7.895588E-05 -4.029942E-05 +7.895588E-05 +2.114884E-04 
 +4.986434E-03 -6.320565E-05 -4.511931E-06 -6.320565E-05 -2.737156E-04 +1.013494E-04 -4.511931E-06 +1.013494E-04 +1.801277E-04 
 +5.140837E-03 -1.120873E-04 +5.546421E-06 -1.120873E-04 -3.820600E-04 +3.380635E-05 +5.546421E-06 +3.380635E-05 +1.971573E-04 
 +5.171341E-03 -9.450184E-05 +3.483221E-05 -9.450184E-05 -4.025223E-04 +1.859649E-05 +3.483221E-05 +1.859649E-05 +1.257182E-04 
 +5.129721E-03 +9.157825E-06 -5.353818E-05 +9.157825E-06 -3.447316E-04 +3.168369E-05 -5.353818E-05 +3.168369E-05 +1.238697E-04 
 +5.080939E-03 +7.329223E-05 -5.725138E-06 +7.329223E-05 -2.887827E-04 -8.955660E-05 -5.725138E-06 -8.955660E-05 +1.169093E-04 
 +5.165111E-03 +6.089130E-05 +1.002328E-04 +6.089130E-05 -2.167327E-04 -3.623778E-04 +1.002328E-04 -3.623778E-04 -4.793631E-06 
 +5.197582E-03 -6.034714E-05 +1.013291E-04 -6.034714E-05 -2.313459E-04 -4.155575E-04 +1.013291E-04 -4.155575E-04 -2.709981E-05 
 +5.045477E-03 -6.580432E-05 -5.853234E-05 -6.580432E-05 -2.535764E-04 -2.169156E-04 -5.853234E-05 -2.169156E-04 +1.447208E-04 
 +4.996068E-03 +1.255935E-05 -4.045871E-06 +1.255935E-05 -1.683826E-04 -1.239874E-04 -4.045871E-06 -1.239874E-04 +1.948945E-04 
 +4.948999E-03 -4.176471E-05 +1.251266E-04 -4.176471E-05 -4.899141E-05 -1.193888E-04 +1.251266E-04 -1.193888E-04 -7.120685E-06 
 +4.928387E-03 -7.632044E-05 +1.668080E-04 -7.632044E-05 +6.428117E-05 -9.831274E-05 +1.668080E-04 -9.831274E-05 -1.183793E-04 
 +4.933191E-03 -1.508012E-04 +1.087293E-04 -1.508012E-04 +1.637548E-04 -7.850327E-05 +1.087293E-04 -7.850327E-05 -1.207024E-04 
 +4.896195E-03 +4.739413E-05 +1.102662E-04 +4.739413E-05 +2.111929E-04 +4.341867E-05 +1.102662E-04 +4.341867E-05 -7.356324E-05 
 +4.862486E-03 +1.078709E-04 +9.740762E-05 +1.078709E-04 +1.174644E-04 +1.387949E-04 +9.740762E-05 +1.387949E-04 +1.919976E-05 
 +4.898481E-03 +4.418682E-05 +6.530166E-05 +4.418682E-05 -1.807707E-05 +9.394686E-05 +6.530166E-05 +9.394686E-05 +6.510179E-05 
 +4.930493E-03 +3.932000E-05 +3.132494E-05 +3.932000E-05 -6.599348E-05 +2.479176E-05 +3.132494E-05 +2.479176E-05 +1.099406E-04 
 +4.896694E-03 +1.533994E-05 +4.970169E-05 +1.533994E-05 -7.454398E-06 -3.343959E-05 +4.970169E-05 -3.343959E-05 +1.565934E-04 
 +4.846124E-03 -5.556057E-05 +7.443316E-05 -5.556057E-05 +3.289910E-05 -6.453055E-05 +7.443316E-05 -6.453055E-05 +1.619819E-04 
 +4.757527E-03 -7.876957E-05 +1.947169E-05 -7.876957E-05 -7.205271E-05 -1.224174E-04 +1.947169E-05 -1.224174E-04 +2.154880E-04 
 +4.786503E-03 -2.019345E-05 +7.677173E-05 -2.019345E-05 -2.172832E-04 -6.624846E-05 +7.677173E-05 -6.624846E-05 +2.367737E-04 
 +5.036041E-03 +4.675756E-06 +4.059792E-05 +4.675756E-06 -2.744837E-04 +1.278284E-04 +4.059792E-05 +1.278284E-04 +8.288792E-05 
 +5.090073E-03 -6.775482E-05 +2.238747E-05 -6.775482E-05 -3.002051E-04 +1.448702E-04 +2.238747E-05 +1.448702E-04 +9.773092E-05 
 +5.148137E-03 -4.466568E-05 -5.740925E-05 -4.466568E-05 -3.283326E-04 -1.033087E-05 -5.740925E-05 -1.033087E-05 +9.091671E-05 
 +5.115474E-03 -4.895508E-05 -1.369986E-05 -4.895508E-05 -2.966815E-04 -1.964457E-05 -1.369986E-05 -1.964457E-05 +1.184372E-04 
 +5.094793E-03 -3.066345E-05 -6.333741E-06 -3.066345E-05 -2.721613E-04 -3.527824E-05 -6.333741E-06 -3.527824E-05 +1.351809E-04 
 +5.116113E-03 +2.465710E-05 -5.122422E-05 +2.465710E-05 -3.309996E-04 -3.596186E-06 -5.122422E-05 -3.596186E-06 +1.321220E-04 
 +5.177002E-03 -4.955661E-06 -3.135900E-05 -4.955661E-06 -4.564563E-04 +7.074699E-05 -3.135900E-05 +7.074699E-05 +1.030491E-04 
 +5.184102E-03 -1.185510E-04 +1.466074E-04 -1.185510E-04 -4.442597E-04 +1.562677E-05 +1.466074E-04 +1.562677E-05 +7.933227E-05 
 +5.103208E-03 -8.203859E-05 +5.565170E-05 -8.203859E-05 -2.920331E-04 -1.559060E-04 +5.565170E-05 -1.559060E-04 +1.697763E-05 
 +5.058622E-03 -5.372027E-06 +4.702158E-05 -5.372027E-06 -1.621584E-04 -2.014813E-04 +4.702158E-05 -2.014813E-04 +1.125798E-05 
 +5.002826E-03 +5.939826E-05 -5.680459E-05 +5.939826E-05 -4.686585E-05 -1.350562E-04 -5.680459E-05 -1.350562E-04 -2.389625E-06 
 +4.945536E-03 -5.180159E-05 +9.699276E-05 -5.180159E-05 +1.228067E-04 -9.613688E-05 +9.699276E-05 -9.613688E-05 -1.228646E-04 
 +4.887290E-03 -1.301903E-04 +1.099464E-04 -1.301903E-04 +2.188258E-04 -3.072728E-05 +1.099464E-04 -3.072728E-05 -1.101666E-04 
 +4.760897E-03 +6.078941E-05 +2.084246E-04 +6.078941E-05 +1.799140E-04 +7.779923E-05 +2.084246E-04 +7.779923E-05 -5.613523E-06 
 +4.796178E-03 +5.639629E-05 +1.652003E-04 +5.639629E-05 +1.116342E-04 +1.342556E-04 +1.652003E-04 +1.342556E-04 +5.042768E-05 
 +4.804757E-03 +4.051629E-05 +1.155849E-04 +4.051629E-05 +6.003972E-05 +1.192299E-04 +1.155849E-04 +1.192299E-04 +9.981844E-05 
 +4.804662E-03 +3.839400E-06 +6.099802E-05 +3.839400E-06 +1.597961E-05 +4.531137E-05 +6.099802E-05 +4.531137E-05 +1.785976E-04 
 +4.800190E-03 -2.333482E-06 +1.083178E-04 -2.333482E-06 +2.092519E-07 -6.710938E-05 +1.083178E-04 -6.710938E-05 +2.141376E-04 
 +4.882552E-03 -1.265187E-04 +1.293726E-04 -1.265187E-04 -7.973533E-05 -1.408877E-04 +1.293726E-04 -1.408877E-04 +1.520095E-04 
 +4.920898E-03 -1.033617E-04 +1.232171E-04 -1.033617E-04 -1.561055E-04 -1.286180E-04 +1.232171E-04 -1.286180E-04 +8.945307E-05 
 +4.980889E-03 -7.224825E-05 +1.191967E-04 -7.224825E-05 -2.211855E-04 -9.969881E-05 +1.191967E-04 -9.969881E-05 +7.781279E-06 
 +5.090627E-03 -5.077836E-05 +7.014469E-05 -5.077836E-05 -3.503307E-04 -9.639961E-05 +7.014469E-05 -9.639961E-05 -6.579752E-05 
 +5.063582E-03 -9.672576E-05 +1.240462E-04 -9.672576E-05 -3.741714E-04 -5.381240E-05 +1.240462E-04 -5.381240E-05 -3.032276E-06 
 +5.152289E-03 -3.778660E-05 -1.126630E-04 -3.778660E-05 -3.314745E-04 -1.454625E-05 -1.126630E-04 -1.454625E-05 +9.578348E-05 
 +5.102302E-03 -3.934890E-05 -5.818601E-05 -3.934890E-05 -3.269016E-04 -1.870417E-06 -5.818601E-05 -1.870417E-06 +1.449694E-04 
 +5.098539E-03 -8.840504E-06 -1.679661E-05 -8.840504E-06 -3.331420E-04 +1.487510E-05 -1.679661E-05 +1.487510E-05 +1.606520E-04 
 +5.113814E-03 +1.722914E-05 -6.278789E-06 +1.722914E-05 -3.433619E-04 +3.648514E-05 -6.278789E-06 +3.648514E-05 +1.279316E-04 
 +5.159235E-03 -3.031785E-05 +1.837838E-05 -3.031785E-05 -3.701453E-04 +5.114592E-05 +1.837838E-05 +5.114592E-05 +9.773562E-05 
 +5.174352E-03 -1.094745E-04 +2.400928E-05 -1.094745E-04 -3.758262E-04 -5.954212E-05 +2.400928E-05 -5.954212E-05 +2.115127E-05 
 +5.063579E-03 -7.686613E-05 +6.597749E-06 -7.686613E-05 -2.295095E-04 -2.242473E-04 +6.597749E-06 -2.242473E-04 -1.225527E-04 
 +5.023311E-03 -8.435370E-05 -1.469976E-05 -8.435370E-05 -2.534711E-05 -3.223169E-04 -1.469976E-05 -3.223169E-04 -1.203613E-04 
 +4.942590E-03 -3.571643E-05 -3.333569E-05 -3.571643E-05 +6.322830E-05 -3.030711E-04 -3.333569E-05 -3.030711E-04 -5.759404E-05 
 +4.934946E-03 -1.108540E-04 +9.177611E-05 -1.108540E-04 +1.507715E-04 -1.926517E-04 +9.177611E-05 -1.926517E-04 -1.296457E-04 
 +5.020741E-03 -1.605730E-04 +1.463394E-04 -1.605730E-04 +2.484215E-04 -6.490719E-05 +1.463394E-04 -6.490719E-05 -1.570344E-04 
 +4.759615E-03 +3.503737E-05 +2.454803E-04 +3.503737E-05 +2.086018E-04 +7.092846E-05 +2.454803E-04 +7.092846E-05 -7.124135E-05 
 +4.721015E-03 +4.081262E-05 +1.515269E-04 +4.081262E-05 +1.526854E-04 +9.224631E-05 +1.515269E-04 +9.224631E-05 +2.874813E-05 
 +4.807348E-03 +5.261616E-05 +1.861075E-04 +5.261616E-05 +1.427918E-04 +7.217328E-05 +1.861075E-04 +7.217328E-05 +8.810033E-05 
 +4.803542E-03 +6.497829E-05 +1.296137E-04 +6.497829E-05 +6.785740E-05 +2.600225E-05 +1.296137E-04 +2.600225E-05 +2.179152E-04 
 +4.794694E-03 +1.121252E-04 +1.919086E-04 +1.121252E-04 -6.208834E-05 -7.301682E-05 +1.919086E-04 -7.301682E-05 +3.043405E-04 
 +4.892258E-03 -5.749979E-05 +1.987814E-04 -5.749979E-05 -1.553810E-04 -1.116575E-04 +1.987814E-04 -1.116575E-04 +2.131316E-04 
 +4.953612E-03 -6.801053E-05 +1.778381E-04 -6.801053E-05 -2.280515E-04 -1.061188E-04 +1.778381E-04 -1.061188E-04 +1.391711E-04 
 +5.026989E-03 -6.819044E-05 +1.371465E-04 -6.819044E-05 -2.638004E-04 -4.117670E-05 +1.371465E-04 -4.117670E-05 +2.224104E-06 
 +5.133937E-03 -6.636948E-05 +3.253765E-05 -6.636948E-05 -2.468191E-04 +3.826984E-05 +3.253765E-05 +3.826984E-05 -1.361670E-04 
 +5.059608E-03 -1.155664E-04 +9.778247E-05 -1.155664E-04 -2.938479E-04 +1.279208E-05 +9.778247E-05 +1.279208E-05 -4.028156E-05 
 +5.159987E-03 -3.565553E-05 -1.127424E-04 -3.565553E-05 -2.976826E-04 +6.020553E-06 -1.127424E-04 +6.020553E-06 +1.806458E-05 
 +5.113523E-03 -3.066728E-05 -6.543976E-05 -3.066728E-05 -3.282481E-04 +7.528471E-05 -6.543976E-05 +7.528471E-05 +1.184048E-04 
 +5.118845E-03 +1.330675E-05 -1.860984E-05 +1.330675E-05 -3.290021E-04 +1.107537E-04 -1.860984E-05 +1.107537E-04 +1.191036E-04 
 +5.136924E-03 +5.752566E-05 -4.330186E-06 +5.752566E-05 -2.922396E-04 +1.205784E-04 -4.330186E-06 +1.205784E-04 +8.011899E-05 
 +5.127583E-03 -6.248596E-06 -2.193816E-05 -6.248596E-06 -2.997560E-04 +9.652165E-05 -2.193816E-05 +9.652165E-05 +3.796431E-05 
 +5.058843E-03 -2.239127E-05 -7.549515E-06 -2.239127E-05 -2.524341E-04 +8.160402E-05 -7.549515E-06 +8.160402E-05 -4.083119E-06 
 +4.969806E-03 +6.011289E-05 -1.152557E-05 +6.011289E-05 -8.274585E-05 +2.219681E-05 -1.152557E-05 +2.219681E-05 -1.027512E-04 
 +5.047334E-03 +1.130474E-05 -1.001096E-04 +1.130474E-05 -1.073075E-05 -1.231502E-05 -1.001096E-04 -1.231502E-05 -1.295001E-04 
 +4.918102E-03 +1.023451E-04 +1.255822E-05 +1.023451E-04 +8.355850E-06 +9.493832E-05 +1.255822E-05 +9.493832E-05 -7.067190E-06 
 +4.960463E-03 +7.935321E-05 +1.283070E-04 +7.935321E-05 +3.708322E-05 +1.914777E-04 +1.283070E-04 +1.914777E-04 -3.575326E-06 
 +5.158744E-03 +4.151504E-06 +1.372057E-04 +4.151504E-06 +1.895002E-04 +1.958393E-04 +1.372057E-04 +1.958393E-04 -7.167257E-05 
 +4.725179E-03 -1.177812E-06 +1.247943E-04 -1.177812E-06 +3.534929E-04 +5.230244E-05 +1.247943E-04 +5.230244E-05 +3.170677E-05 
 +4.681720E-03 -3.570683E-06 +1.085323E-04 -3.570683E-06 +2.163336E-04 -2.613044E-05 +1.085323E-04 -2.613044E-05 +1.473974E-04 
 +4.855390E-03 +4.253009E-05 +1.497370E-04 +4.253009E-05 +1.449688E-05 +5.368906E-05 +1.497370E-04 +5.368906E-05 +1.669554E-04 
 +4.834418E-03 +2.120356E-05 +7.759773E-05 +2.120356E-05 -6.884240E-05 +5.911698E-05 +7.759773E-05 +5.911698E-05 +3.039090E-04 
 +4.842921E-03 +5.090004E-05 +1.641314E-04 +5.090004E-05 -1.311611E-04 -4.097672E-05 +1.641314E-04 -4.097672E-05 +3.963102E-04 
 +4.855907E-03 -4.625061E-05 +2.131582E-04 -4.625061E-05 -1.701569E-04 -9.946513E-05 +2.131582E-04 -9.946513E-05 +2.553225E-04 
 +4.924952E-03 -8.496289E-05 +1.897988E-04 -8.496289E-05 -2.237697E-04 -7.333310E-05 +1.897988E-04 -7.333310E-05 +1.023343E-04 
 +5.022019E-03 -7.994206E-05 +9.866218E-05 -7.994206E-05 -3.185924E-04 -8.822866E-05 +9.866218E-05 -8.822866E-05 -4.974875E-05 
 +5.133678E-03 -8.832637E-05 +1.354876E-05 -8.832637E-05 -3.596399E-04 -1.166544E-04 +1.354876E-05 -1.166544E-04 -1.689417E-04 
 +5.091942E-03 -1.236589E-04 +8.065094E-05 -1.236589E-04 -3.146366E-04 -7.315986E-05 +8.065094E-05 -7.315986E-05 -1.335531E-04 
 +5.134570E-03 -4.982829E-05 -5.443780E-05 -4.982829E-05 -1.975609E-04 +6.028415E-05 -5.443780E-05 +6.028415E-05 -1.011034E-04 
 +5.127216E-03 -2.953218E-05 -3.708156E-05 -2.953218E-05 -2.971580E-04 +1.240721E-04 -3.708156E-05 +1.240721E-04 +6.162186E-05 
 +5.125380E-03 +2.594835E-05 -2.181134E-05 +2.594835E-05 -3.099579E-04 +1.688896E-04 -2.181134E-05 +1.688896E-04 +6.225619E-05 
 +5.138483E-03 +4.462410E-05 -2.272864E-05 +4.462410E-05 -3.120707E-04 +1.583806E-04 -2.272864E-05 +1.583806E-04 +5.217171E-05 
 +5.136609E-03 +2.801883E-05 -6.263452E-05 +2.801883E-05 -1.456347E-04 +1.426439E-04 -6.263452E-05 +1.426439E-04 +2.867443E-05 
 +4.954045E-03 +4.078869E-05 -1.301271E-06 +4.078869E-05 +6.525769E-05 +1.274944E-04 -1.301271E-06 +1.274944E-04 +2.593190E-05 
 +4.942080E-03 +8.045107E-05 -2.824890E-06 +8.045107E-05 -5.083730E-05 +8.808911E-05 -2.824890E-06 +8.808911E-05 +4.713466E-06 
 +5.014536E-03 +6.700367E-05 -2.758490E-05 +6.700367E-05 -1.132100E-04 +8.837880E-05 -2.758490E-05 +8.837880E-05 -1.424442E-05 
 +4.906339E-03 +5.449732E-05 +6.803628E-05 +5.449732E-05 -5.340814E-05 +1.033707E-04 +6.803628E-05 +1.033707E-04 +1.149736E-04 
 +4.993599E-03 +7.852456E-06 +6.550352E-05 +7.852456E-06 -5.341358E-05 +5.822863E-05 +6.550352E-05 +5.822863E-05 +1.644933E-04 
 +5.138810E-03 +2.278260E-05 +5.973738E-05 +2.278260E-05 +5.390248E-06 +4.467289E-05 +5.973738E-05 +4.467289E-05 +8.992776E-05 
 +4.842111E-03 +5.172637E-06 -9.577940E-06 +5.172637E-06 +3.834176E-05 +6.064937E-05 -9.577940E-06 +6.064937E-05 +2.265517E-04 
 +4.637031E-03 -6.221923E-05 +1.050287E-04 -6.221923E-05 -2.255924E-05 +4.691819E-05 +1.050287E-04 +4.691819E-05 +3.650576E-04 
 +4.800739E-03 -8.233647E-06 +8.153210E-05 -8.233647E-06 -9.986224E-05 +6.476382E-05 +8.153210E-05 +6.476382E-05 +3.325276E-04 
 +4.874318E-03 -4.294213E-05 -2.475304E-05 -4.294213E-05 -1.571204E-04 +1.569895E-04 -2.475304E-05 +1.569895E-04 +3.731133E-04 
 +4.910953E-03 -6.775864E-06 +4.869496E-06 -6.775864E-06 -2.527343E-04 +2.275142E-04 +4.869496E-06 +2.275142E-04 +4.232085E-04 
 +4.921208E-03 -2.833228E-06 +5.978433E-05 -2.833228E-06 -2.567710E-04 +1.546101E-04 +5.978433E-05 +1.546101E-04 +2.901770E-04 
 +4.857761E-03 -5.190953E-05 +1.733881E-04 -5.190953E-05 -1.667571E-04 +7.852340E-05 +1.733881E-04 +7.852340E-05 +2.387886E-05 
 +5.042054E-03 -2.639185E-06 +7.489444E-06 -2.639185E-06 -5.908319E-05 +7.584020E-05 +7.489444E-06 +7.584020E-05 -2.155019E-04 
 +5.134680E-03 +1.682495E-05 -1.853002E-05 +1.682495E-05 +9.807263E-06 +7.472383E-05 -1.853002E-05 +7.472383E-05 -3.252284E-04 
 +5.105774E-03 -5.897085E-05 +5.016948E-05 -5.897085E-05 -5.637491E-05 +5.423022E-05 +5.016948E-05 +5.423022E-05 -3.110486E-04 
 +5.075369E-03 -1.052417E-04 -4.184081E-05 -1.052417E-04 -1.798031E-04 +5.787317E-05 -4.184081E-05 +5.787317E-05 -8.070457E-05 
 +5.077517E-03 -2.207066E-05 -6.049502E-05 -2.207066E-05 -3.301688E-04 +1.177862E-04 -6.049502E-05 +1.177862E-04 +6.338752E-05 
 +5.067500E-03 +1.706347E-05 -1.858840E-05 +1.706347E-05 -3.121587E-04 +1.448743E-04 -1.858840E-05 +1.448743E-04 +6.364257E-05 
 +5.060871E-03 -1.159208E-06 -1.560603E-05 -1.159208E-06 -2.162284E-04 +1.236702E-04 -1.560603E-05 +1.236702E-04 +6.185454E-05 
 +5.081579E-03 -3.868989E-05 -4.012606E-05 -3.868989E-05 -1.985588E-04 +1.155491E-04 -4.012606E-05 +1.155491E-04 +6.316630E-05 
 +5.056514E-03 -5.756600E-05 -6.775846E-05 -5.756600E-05 -2.775660E-04 +8.386108E-05 -6.775846E-05 +8.386108E-05 +6.109185E-05 
 +4.929873E-03 +2.606527E-05 +4.297609E-05 +2.606527E-05 -1.942242E-04 +5.674667E-05 +4.297609E-05 +5.674667E-05 +5.693878E-05 
 +4.930520E-03 +8.330025E-05 +2.844191E-05 +8.330025E-05 -9.333841E-05 +7.084881E-05 +2.844191E-05 +7.084881E-05 +6.714060E-05 
 +4.876869E-03 +6.654418E-05 +7.924021E-05 +6.654418E-05 -8.274874E-05 -2.806379E-05 +7.924021E-05 -2.806379E-05 +1.698810E-04 
 +4.995249E-03 +4.289090E-05 -5.784755E-05 +4.289090E-05 -6.101629E-05 -1.276974E-04 -5.784755E-05 -1.276974E-04 +2.203823E-04 
 +5.105426E-03 +2.854367E-05 -1.373341E-05 +2.854367E-05 -6.598404E-05 -2.741973E-05 -1.373341E-05 -2.741973E-05 +1.758955E-04 
 +4.979299E-03 -2.954870E-05 -5.581256E-05 -2.954870E-05 +2.361576E-05 +8.957040E-05 -5.581256E-05 +8.957040E-05 +2.484708E-04 
 +4.605282E-03 -1.876426E-04 +9.443224E-05 -1.876426E-04 +1.449500E-04 +1.081358E-04 +9.443224E-05 +1.081358E-04 +3.334475E-04 
 +4.799087E-03 -1.066324E-04 +6.492914E-05 -1.066324E-04 +2.305445E-05 +1.285327E-04 +6.492914E-05 +1.285327E-04 +3.263480E-04 
 +4.913866E-03 -6.000988E-05 +5.706709E-06 -6.000988E-05 -1.703082E-04 +1.776636E-04 +5.706709E-06 +1.776636E-04 +3.114702E-04 
 +4.958460E-03 -6.022257E-05 -1.917473E-05 -6.022257E-05 -2.637446E-04 +2.344434E-04 -1.917473E-05 +2.344434E-04 +2.901573E-04 
 +4.966087E-03 -2.099761E-05 -1.216686E-04 -2.099761E-05 -2.889154E-04 +2.190145E-04 -1.216686E-04 +2.190145E-04 +1.928631E-04 
 +4.924262E-03 +1.384388E-05 +1.062201E-04 +1.384388E-05 -1.400810E-04 +1.276980E-04 +1.062201E-04 +1.276980E-04 -5.365521E-05 
 +5.091915E-03 +1.102253E-04 -5.312086E-06 +1.102253E-04 +6.769709E-05 +5.616256E-05 -5.312086E-06 +5.616256E-05 -3.348248E-04 
 +5.131659E-03 +3.367255E-05 -4.392755E-05 +3.367255E-05 +1.563462E-04 +2.684588E-05 -4.392755E-05 +2.684588E-05 -4.415219E-04 
 +5.111153E-03 -1.095883E-04 -4.853939E-06 -1.095883E-04 +6.350149E-05 +2.045055E-05 -4.853939E-06 +2.045055E-05 -3.318439E-04 
 +5.004942E-03 -2.078144E-04 -3.325519E-05 -2.078144E-04 -1.236342E-04 +1.581904E-05 -3.325519E-05 +1.581904E-05 +6.155102E-05 
 +4.930550E-03 -6.113454E-05 -6.166521E-05 -6.113454E-05 -1.942229E-04 +1.233256E-04 -6.166521E-05 +1.233256E-04 +1.965510E-04 
 +4.903967E-03 -5.025242E-05 +1.657200E-05 -5.025242E-05 -2.133378E-04 +1.673912E-04 +1.657200E-05 +1.673912E-04 +1.637965E-04 
 +5.030411E-03 -7.680806E-06 +7.275715E-06 -7.680806E-06 -1.790664E-04 +1.243843E-04 +7.275715E-06 +1.243843E-04 +9.443519E-05 
 +5.054261E-03 -6.442058E-05 -7.750766E-06 -6.442058E-05 -2.057174E-04 +6.815120E-05 -7.750766E-06 +6.815120E-05 +8.359296E-05 
 +5.159502E-03 -4.929932E-05 -9.636796E-05 -4.929932E-05 -2.620892E-04 +5.375187E-05 -9.636796E-05 +5.375187E-05 +7.489736E-05 
 +4.908115E-03 +6.535449E-05 +9.485763E-05 +6.535449E-05 -1.806909E-04 +4.273374E-05 +9.485763E-05 +4.273374E-05 +5.290985E-05 
 +4.907893E-03 +4.465007E-05 +5.434023E-05 +4.465007E-05 -9.535053E-05 +4.358207E-05 +5.434023E-05 +4.358207E-05 +5.964506E-05 
 +4.884359E-03 +4.570307E-05 +8.447909E-05 +4.570307E-05 -8.925729E-05 -4.901623E-05 +8.447909E-05 -4.901623E-05 +1.555180E-04 
 +5.012037E-03 +4.997301E-05 -1.466716E-04 +4.997301E-05 -6.727823E-05 -2.390083E-04 -1.466716E-04 -2.390083E-04 +2.124781E-04 
 +5.057163E-03 +5.948010E-05 -7.827365E-05 +5.948010E-05 -1.203156E-05 -2.293128E-04 -7.827365E-05 -2.293128E-04 +1.987705E-04 
 +4.967532E-03 +1.144262E-05 -7.674597E-05 +1.144262E-05 -2.817087E-05 +2.989591E-05 -7.674597E-05 +2.989591E-05 +1.978677E-04 
 +4.771805E-03 -1.092584E-04 +4.304363E-05 -1.092584E-04 -6.694034E-05 +2.177740E-04 +4.304363E-05 +2.177740E-04 +1.799588E-04 
 +4.888180E-03 -7.020635E-05 +6.816581E-05 -7.020635E-05 -7.749083E-05 +2.318948E-04 +6.816581E-05 +2.318948E-04 +2.006301E-04 
 +4.932520E-03 +2.358190E-07 +5.576365E-05 +2.358190E-07 -1.435985E-04 +2.092920E-04 +5.576365E-05 +2.092920E-04 +1.948787E-04 
 +4.960938E-03 +3.098141E-05 -4.329621E-05 +3.098141E-05 -1.756981E-04 +1.950137E-04 -4.329621E-05 +1.950137E-04 +1.579461E-04 
 +4.939392E-03 +4.522834E-05 -1.152763E-04 +4.522834E-05 -2.435762E-04 +2.544005E-04 -1.152763E-04 +2.544005E-04 +1.939735E-04 
 +4.933712E-03 +1.072346E-04 +5.498000E-05 +1.072346E-04 -2.655844E-04 +2.336830E-04 +5.498000E-05 +2.336830E-04 +1.020048E-04 
 +5.135831E-03 +1.301008E-04 -9.761033E-06 +1.301008E-04 -6.214925E-05 +5.844755E-05 -9.761033E-06 +5.844755E-05 -1.640086E-04 
 +5.164905E-03 -1.933923E-05 -7.144112E-05 -1.933923E-05 +6.034319E-05 -2.223387E-05 -7.144112E-05 -2.223387E-05 -2.965713E-04 
 +5.190326E-03 -2.021325E-04 -4.508214E-05 -2.021325E-04 -1.142012E-05 -3.750726E-05 -4.508214E-05 -3.750726E-05 -1.750969E-04 
 +4.964534E-03 -3.726232E-04 +1.564216E-05 -3.726232E-04 +1.856088E-04 -6.022915E-05 +1.564216E-05 -6.022915E-05 +3.929865E-05 
 +4.867032E-03 -1.991913E-04 -4.652875E-05 -1.991913E-04 +3.888324E-04 -3.519974E-05 -4.652875E-05 -3.519974E-05 +4.850337E-05 
 +4.862835E-03 -1.250584E-04 -3.696985E-06 -1.250584E-04 +2.519523E-04 +1.690356E-05 -3.696985E-06 +1.690356E-05 +3.698015E-05 
 +5.087092E-03 +3.267865E-05 -1.233353E-05 +3.267865E-05 -6.311356E-05 +7.517583E-05 -1.233353E-05 +7.517583E-05 +4.014623E-05 
 +5.081617E-03 -4.332286E-05 -3.491515E-06 -4.332286E-05 -2.544964E-04 +3.652352E-05 -3.491515E-06 +3.652352E-05 +6.942422E-05 
 +5.039615E-03 -1.454657E-05 -2.382920E-05 -1.454657E-05 -2.448843E-04 +2.706690E-05 -2.382920E-05 +2.706690E-05 +5.012188E-05 
 +4.894743E-03 +1.054928E-04 +1.408786E-04 +1.054928E-04 -1.223129E-04 +5.770702E-05 +1.408786E-04 +5.770702E-05 +1.779976E-05 
 +4.914582E-03 +9.601390E-06 +9.619061E-05 +9.601390E-06 -8.173327E-05 +5.634526E-05 +9.619061E-05 +5.634526E-05 +2.274536E-05 
 +4.895810E-03 +2.981040E-05 +1.053435E-04 +2.981040E-05 -9.571847E-05 -4.670897E-05 +1.053435E-04 -4.670897E-05 +1.242809E-04 
 +4.999443E-03 +1.760144E-05 -1.095859E-04 +1.760144E-05 -6.373783E-05 -1.307215E-04 -1.095859E-04 -1.307215E-04 +1.776677E-04 
 +5.098908E-03 +1.210166E-05 -6.606535E-05 +1.210166E-05 -6.616632E-05 -4.843951E-06 -6.606535E-05 -4.843951E-06 +1.347706E-04 
 +5.009079E-03 +1.598334E-06 -7.490960E-05 +1.598334E-06 -1.114827E-04 +1.364770E-04 -7.490960E-05 +1.364770E-04 +1.390900E-04 
 +4.970276E-03 -7.498712E-05 +2.118926E-05 -7.498712E-05 -1.136628E-04 +2.107555E-04 +2.118926E-05 +2.107555E-04 +1.163900E-04 
 +4.974473E-03 -9.874610E-05 +7.396014E-05 -9.874610E-05 -8.976194E-05 +2.324957E-04 +7.396014E-05 +2.324957E-04 +8.591494E-05 
 +4.969745E-03 -2.899712E-05 +1.509027E-05 -2.899712E-05 -9.155899E-05 +2.142758E-04 +1.509027E-05 +2.142758E-04 +7.169220E-05 
 +4.979083E-03 +3.928939E-05 -8.304281E-05 +3.928939E-05 -1.281513E-04 +2.090277E-04 -8.304281E-05 +2.090277E-04 +9.610785E-05 
 +4.918064E-03 +1.111909E-04 -5.450694E-05 +1.111909E-04 -1.438706E-05 +1.746348E-04 -5.450694E-05 +1.746348E-04 +2.094097E-04 
 +4.718071E-03 +1.542012E-04 -3.063970E-05 +1.542012E-04 +1.139419E-04 -1.210310E-05 -3.063970E-05 -1.210310E-05 +2.572514E-04 
 +5.062060E-03 +7.903308E-05 +1.278869E-05 +7.903308E-05 -3.175163E-05 -1.664642E-04 +1.278869E-05 -1.664642E-04 +1.464474E-04 
 +5.209622E-03 -1.749256E-04 -1.083740E-05 -1.749256E-04 -1.453616E-04 -8.885488E-05 -1.083740E-05 -8.885488E-05 +1.336858E-05 
 +5.221612E-03 -3.995114E-04 -4.583060E-05 -3.995114E-04 -6.387183E-05 -4.318624E-05 -4.583060E-05 -4.318624E-05 -9.086649E-07 
 +5.024533E-03 -2.105968E-04 -5.967311E-06 -2.105968E-04 +2.817494E-04 -1.978932E-04 -5.967311E-06 -1.978932E-04 -2.560838E-04 
 +5.024476E-03 -1.063964E-04 -7.148483E-05 -1.063964E-04 +3.450001E-04 -2.440095E-04 -7.148483E-05 -2.440095E-04 -3.725116E-04 
 +5.036574E-03 -7.247958E-05 -4.139228E-05 -7.247958E-05 +2.409564E-04 -1.424605E-04 -4.139228E-05 -1.424605E-04 -2.860181E-04 
 +5.047171E-03 +2.443587E-05 -3.977348E-05 +2.443587E-05 +4.063347E-05 +4.273874E-05 -3.977348E-05 +4.273874E-05 -9.852983E-05 
 +5.037451E-03 +5.101355E-05 -5.898219E-05 +5.101355E-05 -2.091056E-05 +1.120290E-04 -5.898219E-05 +1.120290E-04 +1.844300E-06 
 +4.859259E-03 +1.206421E-04 +9.503153E-05 +1.206421E-04 +1.211148E-04 +1.042181E-04 +9.503153E-05 +1.042181E-04 -6.462231E-06 
 +4.843135E-03 +1.527902E-04 +1.258902E-04 +1.527902E-04 +7.411601E-05 +1.110181E-04 +1.258902E-04 +1.110181E-04 -4.481627E-05 
 +4.876179E-03 +2.365678E-05 +1.190166E-04 +2.365678E-05 -1.274283E-05 +8.775527E-05 +1.190166E-04 +8.775527E-05 -7.639611E-05 
 +4.858225E-03 -1.228462E-05 +1.545177E-04 -1.228462E-05 -2.472117E-05 +2.343095E-05 +1.545177E-04 +2.343095E-05 +3.071091E-05 
 +4.997559E-03 -7.008326E-06 +5.945986E-05 -7.008326E-06 -8.410912E-05 -2.813361E-06 +5.945986E-05 -2.813361E-06 +1.312765E-04 
 +5.176360E-03 +2.065001E-06 -5.311498E-05 +2.065001E-06 -1.149298E-04 +7.219024E-05 -5.311498E-05 +7.219024E-05 +8.233421E-05 
 +5.108719E-03 -4.982055E-05 -4.329790E-05 -4.982055E-05 -1.374458E-04 +1.182228E-04 -4.329790E-05 +1.182228E-04 +6.383891E-05 
 +5.090750E-03 -8.037107E-05 +9.597113E-05 -8.037107E-05 -1.249882E-04 +1.896389E-04 +9.597113E-05 +1.896389E-04 +2.369259E-06 
 +5.081249E-03 -8.858194E-05 +2.887797E-05 -8.858194E-05 -2.960621E-05 +2.543179E-04 +2.887797E-05 +2.543179E-04 -6.381291E-05 
 +4.985583E-03 -9.366463E-05 -7.883205E-05 -9.366463E-05 -1.443795E-05 +2.231280E-04 -7.883205E-05 +2.231280E-04 -1.667003E-05 
 +4.960529E-03 -5.165501E-05 -9.242029E-05 -5.165501E-05 -3.329746E-05 +1.053579E-04 -9.242029E-05 +1.053579E-04 +7.235206E-05 
 +4.822195E-03 +1.041563E-04 -6.418934E-05 +1.041563E-04 +1.578257E-04 -5.270068E-05 -6.418934E-05 -5.270068E-05 +1.409151E-04 
 +4.816523E-03 +1.030503E-04 -5.774623E-05 +1.030503E-04 +3.025608E-04 -1.018390E-04 -5.774623E-05 -1.018390E-04 +2.314750E-04 
 +4.911227E-03 +1.475760E-04 +4.599152E-05 +1.475760E-04 +2.105137E-04 -6.806584E-05 +4.599152E-05 -6.806584E-05 +2.899635E-04 
 +5.123598E-03 -3.077046E-05 +4.169992E-05 -3.077046E-05 +9.151446E-05 -1.488267E-05 +4.169992E-05 -1.488267E-05 +1.965756E-04 
 +5.056974E-03 -2.829021E-04 -5.537034E-05 -2.829021E-04 +1.146054E-04 -4.812258E-05 -5.537034E-05 -4.812258E-05 -2.304309E-05 
 +5.096342E-03 -8.843088E-05 -6.600464E-05 -8.843088E-05 +3.203639E-04 -1.216582E-04 -6.600464E-05 -1.216582E-04 -3.100136E-04 
 +5.172686E-03 -1.076603E-04 -1.067443E-04 -1.076603E-04 +2.551667E-04 -2.269904E-04 -1.067443E-04 -2.269904E-04 -4.674331E-04 
 +5.150726E-03 -1.579935E-04 -7.216681E-05 -1.579935E-04 +2.966052E-04 -2.865264E-04 -7.216681E-05 -2.865264E-04 -4.808916E-04 
 +5.029813E-03 -1.185206E-04 -5.158968E-05 -1.185206E-04 +3.291616E-04 -2.333344E-04 -5.158968E-05 -2.333344E-04 -3.415778E-04 
 +5.012500E-03 +5.144164E-05 -4.414935E-05 +5.144164E-05 +2.110779E-04 -1.028338E-05 -4.414935E-05 -1.028338E-05 -1.204851E-04 
 +4.722840E-03 +2.110583E-04 +1.642436E-04 +2.110583E-04 +1.334995E-04 +8.298059E-05 +1.642436E-04 +8.298059E-05 -2.804043E-05 
 +4.708116E-03 +1.256031E-04 +7.871593E-05 +1.256031E-04 +1.479556E-04 +5.462332E-05 +7.871593E-05 +5.462332E-05 -5.564909E-05 
 +4.816287E-03 +5.874537E-05 +1.119931E-04 +5.874537E-05 +1.155902E-04 +6.023475E-05 +1.119931E-04 +6.023475E-05 -1.012452E-04 
 +4.821000E-03 +2.104797E-05 +2.216787E-04 +2.104797E-05 +5.628898E-05 +3.144894E-05 +2.216787E-04 +3.144894E-05 -3.645996E-05 
 +4.943061E-03 -1.503692E-05 +1.718421E-04 -1.503692E-05 -4.439768E-05 +2.877686E-05 +1.718421E-04 +2.877686E-05 +2.765686E-05 
 +5.218110E-03 -4.388279E-05 +1.326506E-05 -4.388279E-05 -1.216679E-04 +8.758861E-05 +1.326506E-05 +8.758861E-05 -4.712710E-05 
 +5.223888E-03 -8.721714E-05 +1.850669E-06 -8.721714E-05 -1.765421E-04 +2.352963E-05 +1.850669E-06 +2.352963E-05 -2.336111E-05 
 +5.192108E-03 -7.347881E-05 +7.421958E-05 -7.347881E-05 -2.057999E-04 -1.365461E-04 +7.421958E-05 -1.365461E-04 +5.161401E-05 
 +5.131697E-03 -7.282973E-05 +2.453304E-05 -7.282973E-05 -1.185472E-04 -1.904888E-04 +2.453304E-05 -1.904888E-04 +5.074044E-05 
 +5.035207E-03 -1.617076E-04 -7.338645E-05 -1.617076E-04 -1.569892E-05 -1.640476E-04 -7.338645E-05 -1.640476E-04 +9.440795E-05 
 +4.760466E-03 -4.447165E-05 -1.459907E-04 -4.447165E-05 +1.409465E-04 -1.389122E-04 -1.459907E-04 -1.389122E-04 +1.687770E-04 
 +4.824569E-03 +5.357388E-05 -5.639790E-05 +5.357388E-05 +1.084896E-04 -1.028949E-04 -5.639790E-05 -1.028949E-04 +2.138942E-04 
 +5.066175E-03 -1.860534E-05 +3.836189E-05 -1.860534E-05 -1.899747E-04 -2.878328E-05 +3.836189E-05 -2.878328E-05 +2.732655E-04 
 +4.976937E-03 +5.710417E-05 +6.026859E-05 +5.710417E-05 -2.866155E-04 +3.191394E-05 +6.026859E-05 +3.191394E-05 +3.489050E-04 
 +4.979475E-03 +7.316836E-05 -1.068703E-05 +7.316836E-05 -4.582410E-05 +7.822107E-05 -1.068703E-05 +7.822107E-05 +3.660263E-04 
 +4.856201E-03 -1.122679E-04 -1.311166E-04 -1.122679E-04 +2.698983E-04 +3.898647E-05 -1.311166E-04 +3.898647E-05 +7.683652E-05 
 +5.084921E-03 -7.887430E-06 -8.418171E-05 -7.887430E-06 +2.973286E-04 -7.390610E-05 -8.418171E-05 -7.390610E-05 -2.139096E-04 
 +5.142591E-03 -1.108795E-04 -1.087698E-04 -1.108795E-04 +3.141649E-04 -1.548496E-04 -1.087698E-04 -1.548496E-04 -4.055644E-04 
 +5.195748E-03 -1.608090E-04 -1.142080E-04 -1.608090E-04 +2.119125E-04 -2.374595E-04 -1.142080E-04 -2.374595E-04 -5.358020E-04 
 +5.120547E-03 -1.273224E-04 -4.475805E-05 -1.273224E-04 +1.376279E-04 -2.554485E-04 -4.475805E-05 -2.554485E-04 -4.225086E-04 
 +4.849108E-03 -4.313479E-05 -1.395836E-05 -4.313479E-05 +2.056384E-04 -8.796738E-05 -1.395836E-05 -8.796738E-05 -1.182209E-04 
 +4.616177E-03 +7.290708E-05 +7.251514E-05 +7.290708E-05 +3.361913E-04 +1.944638E-05 +7.251514E-05 +1.944638E-05 +7.057651E-06 
 +4.686682E-03 +4.992440E-06 +6.555821E-05 +4.992440E-06 +3.296700E-04 -1.321002E-05 +6.555821E-05 -1.321002E-05 +3.210913E-06 
 +4.810134E-03 +2.632127E-05 +9.772319E-05 +2.632127E-05 +2.468093E-04 -2.940510E-05 +9.772319E-05 -2.940510E-05 +3.271732E-05 
 +4.798583E-03 -3.533850E-06 +1.733962E-04 -3.533850E-06 +2.201284E-04 -6.791301E-05 +1.733962E-04 -6.791301E-05 +3.556419E-05 
 +4.910307E-03 -2.249235E-05 +1.591716E-04 -2.249235E-05 +1.821279E-04 -9.561108E-05 +1.591716E-04 -9.561108E-05 -8.351978E-05 
 +5.288894E-03 -1.739148E-06 +7.940792E-05 -1.739148E-06 -4.368042E-05 -1.946989E-04 +7.940792E-05 -1.946989E-04 -1.341235E-04 
 +5.258538E-03 -2.893473E-05 -4.529589E-06 -2.893473E-05 -2.491539E-04 -3.481920E-04 -4.529589E-06 -3.481920E-04 +8.807258E-06 
 +5.157940E-03 -4.958015E-05 +3.232596E-05 -4.958015E-05 -2.040594E-04 -3.406566E-04 +3.232596E-05 -3.406566E-04 +1.564173E-04 
 +5.118304E-03 -1.011019E-04 +1.057879E-04 -1.011019E-04 -1.263184E-04 -3.239037E-04 +1.057879E-04 -3.239037E-04 +2.016149E-04 
 +5.069546E-03 -1.916941E-04 +4.771412E-05 -1.916941E-04 +2.126963E-05 -3.220844E-04 +4.771412E-05 -3.220844E-04 +2.237377E-04 
 +4.687831E-03 -6.336060E-05 -7.500734E-05 -6.336060E-05 +6.399167E-05 -1.876671E-04 -7.500734E-05 -1.876671E-04 +2.354697E-04 
 +5.025808E-03 -3.267480E-05 -2.340174E-05 -3.267480E-05 -2.409650E-04 -8.679390E-05 -2.340174E-05 -8.679390E-05 +2.170832E-04 
 +5.088977E-03 +5.135598E-05 +7.559718E-05 +5.135598E-05 -3.458021E-04 -1.950855E-05 +7.559718E-05 -1.950855E-05 +2.546957E-04 
 +5.001997E-03 +5.862245E-05 +6.373475E-05 +5.862245E-05 -2.263728E-04 +5.483200E-05 +6.373475E-05 +5.483200E-05 +3.494047E-04 
 +4.874647E-03 +8.135258E-05 +2.687574E-05 +8.135258E-05 -1.585126E-04 +6.685589E-05 +2.687574E-05 +6.685589E-05 +3.759831E-04 
 +4.950843E-03 +1.565633E-05 -1.176005E-04 +1.565633E-05 +5.900002E-05 +2.484949E-05 -1.176005E-04 +2.484949E-05 +1.262830E-04 
 +5.155441E-03 +2.024878E-05 +2.261575E-05 +2.024878E-05 +2.488762E-04 -1.453005E-04 +2.261575E-05 -1.453005E-04 -2.563437E-04 
 +5.153700E-03 -9.781384E-05 -1.671349E-05 -9.781384E-05 +3.510240E-04 -1.958485E-04 -1.671349E-05 -1.958485E-04 -3.147002E-04 
 +5.156908E-03 -1.653528E-04 -4.937391E-05 -1.653528E-04 +2.721265E-04 -3.235990E-04 -4.937391E-05 -3.235990E-04 -3.780164E-04 
 +5.045159E-03 -1.404073E-04 +2.964710E-06 -1.404073E-04 +3.752620E-04 -3.188345E-04 +2.964710E-06 -3.188345E-04 -2.861091E-04 
 +4.586136E-03 -1.238415E-04 -1.936347E-05 -1.238415E-04 +5.243249E-04 -2.000507E-04 -1.936347E-05 -2.000507E-04 -8.973925E-05 
 +4.651834E-03 -1.531638E-06 -9.062888E-06 -1.531638E-06 +3.494495E-04 -4.895471E-05 -9.062888E-06 -4.895471E-05 -8.769681E-06 
 +4.767291E-03 +1.539064E-05 +4.983745E-05 +1.539064E-05 +1.997760E-04 +1.313459E-05 +4.983745E-05 +1.313459E-05 +5.263807E-05 
 +4.829846E-03 +2.128275E-05 +4.640210E-05 +2.128275E-05 +2.277032E-04 -7.438035E-05 +4.640210E-05 -7.438035E-05 +1.118076E-04 
 +4.857717E-03 +4.610530E-05 +1.071875E-04 +4.610530E-05 +2.055323E-04 -1.242649E-04 +1.071875E-04 -1.242649E-04 +2.158325E-05 
 +5.102299E-03 +9.233089E-05 +7.433191E-05 +9.233089E-05 +1.233839E-04 -1.405675E-04 +7.433191E-05 -1.405675E-04 -1.798041E-04 
 +5.241550E-03 +5.731930E-05 +7.988465E-06 +5.731930E-05 +1.328830E-04 -2.040010E-04 +7.988465E-06 -2.040010E-04 -1.598231E-04 
 +5.165841E-03 +3.899177E-05 +2.508494E-05 +3.899177E-05 +2.558355E-04 -1.733649E-04 +2.508494E-05 -1.733649E-04 -1.165574E-06 
 +5.101036E-03 +5.413105E-05 +6.137354E-05 +5.413105E-05 +3.004251E-04 -1.609818E-04 +6.137354E-05 -1.609818E-04 +6.708533E-05 
 +5.089880E-03 -2.229348E-05 +1.118493E-04 -2.229348E-05 +1.997360E-04 -3.096226E-04 +1.118493E-04 -3.096226E-04 +1.391566E-04 
 +5.034764E-03 -2.375184E-05 +6.276121E-05 -2.375184E-05 +8.638466E-05 -4.225469E-04 +6.276121E-05 -4.225469E-04 +2.346042E-04 
 +4.916895E-03 -4.177399E-05 +8.261205E-05 -4.177399E-05 -1.151562E-04 -3.651480E-04 +8.261205E-05 -3.651480E-04 +2.689621E-04 
 +5.000771E-03 -9.970667E-05 +8.409759E-05 -9.970667E-05 -3.226621E-04 -2.230894E-04 +8.409759E-05 -2.230894E-04 +1.994039E-04 
 +4.994994E-03 +2.941277E-05 +5.537208E-05 +2.941277E-05 -3.061191E-04 -7.742485E-05 +5.537208E-05 -7.742485E-05 +1.920418E-04 
 +4.964091E-03 +6.336818E-05 +4.822042E-05 +6.336818E-05 -9.812920E-05 +4.406540E-05 +4.822042E-05 +4.406540E-05 +2.471362E-04 
 +4.801910E-03 +1.251619E-04 +1.282469E-04 +1.251619E-04 +9.396644E-05 +6.776100E-06 +1.282469E-04 +6.776100E-06 +1.630008E-04 
 +5.120039E-03 +4.322207E-05 +1.968248E-05 +4.322207E-05 +1.344603E-04 -1.242655E-04 +1.968248E-05 -1.242655E-04 -8.061913E-05 
 +5.232355E-03 +2.342537E-05 +1.226937E-04 +2.342537E-05 -1.268978E-05 -2.783895E-04 +1.226937E-04 -2.783895E-04 -1.478141E-04 
 +5.190477E-03 -1.313994E-04 +8.328624E-05 -1.313994E-04 +6.684796E-05 -3.290232E-04 +8.328624E-05 -3.290232E-04 -8.425991E-05 
 +4.990770E-03 -3.093137E-04 +8.592546E-05 -3.093137E-04 +3.374215E-04 -3.043826E-04 +8.592546E-05 -3.043826E-04 -1.215049E-04 
 +4.856348E-03 -2.322666E-04 +6.475153E-05 -2.322666E-04 +3.893384E-04 -2.141069E-04 +6.475153E-05 -2.141069E-04 -1.218281E-04 
 +4.649270E-03 -1.407681E-04 +3.405614E-05 -1.407681E-04 +3.369904E-04 -2.055882E-04 +3.405614E-05 -2.055882E-04 -4.504556E-05 
 +4.833171E-03 +5.904298E-06 +3.544314E-05 +5.904298E-06 +2.615777E-04 -2.346690E-04 +3.544314E-05 -2.346690E-04 -6.459612E-05 
 +4.827631E-03 +1.309265E-04 +2.058083E-06 +1.309265E-04 +1.228267E-04 -2.376983E-04 +2.058083E-06 -2.376983E-04 -6.222525E-06 
 +4.876289E-03 +2.058924E-04 +2.476133E-07 +2.058924E-04 +6.648942E-05 -1.730908E-04 +2.476133E-07 -1.730908E-04 +4.015777E-05 
 +5.000869E-03 +2.190693E-04 +8.673349E-05 +2.190693E-04 +1.303835E-04 -1.498125E-04 +8.673349E-05 -1.498125E-04 -9.509940E-05 
 +5.150228E-03 +1.292323E-04 +8.363319E-06 +1.292323E-04 +2.192673E-04 -2.454104E-04 +8.363319E-06 -2.454104E-04 -2.223424E-04 
 +5.106564E-03 +5.796283E-05 -2.002196E-05 +5.796283E-05 +2.786629E-04 -2.375405E-04 -2.002196E-05 -2.375405E-04 -2.034308E-04 
 +5.095194E-03 +3.898820E-05 -9.401792E-06 +3.898820E-05 +2.204240E-04 -2.335537E-04 -9.401792E-06 -2.335537E-04 -1.124956E-04 
 +5.126800E-03 +3.481151E-05 +3.997390E-05 +3.481151E-05 +7.852001E-05 -3.521860E-04 +3.997390E-05 -3.521860E-04 -3.180385E-06 
 +5.130703E-03 +2.951799E-05 +8.140690E-05 +2.951799E-05 +6.340003E-05 -4.133791E-04 +8.140690E-05 -4.133791E-04 +1.117882E-04 
 +5.174079E-03 +8.735988E-05 +3.602801E-05 +8.735988E-05 -2.060856E-06 -3.316168E-04 +3.602801E-05 -3.316168E-04 +1.620045E-04 
 +4.986640E-03 +7.117292E-05 +1.183732E-04 +7.117292E-05 -3.660371E-05 -2.230234E-04 +1.183732E-04 -2.230234E-04 +1.715085E-04 
 +4.828248E-03 +3.081858E-05 +8.890822E-05 +3.081858E-05 +1.492612E-04 -2.321497E-04 +8.890822E-05 -2.321497E-04 +1.421707E-04 
 +4.845230E-03 +2.013296E-04 +1.244947E-05 +2.013296E-04 +2.277764E-04 -1.732197E-04 +1.244947E-05 -1.732197E-04 +1.631111E-04 
 +4.923275E-03 +2.350102E-04 +3.712356E-05 +2.350102E-04 +1.868477E-04 -3.135765E-06 +3.712356E-05 -3.135765E-06 +2.279228E-04 
 +4.788823E-03 +1.986450E-04 +1.694006E-04 +1.986450E-04 +1.656443E-04 -1.519900E-05 +1.694006E-04 -1.519900E-05 +1.488917E-04 
 +5.125164E-03 +7.702878E-05 +1.189610E-04 +7.702878E-05 +1.156567E-04 -1.796038E-04 +1.189610E-04 -1.796038E-04 -7.603978E-05 
 +5.164855E-03 +2.844152E-05 +7.979405E-05 +2.844152E-05 +1.539494E-04 -2.916914E-04 +7.979405E-05 -2.916914E-04 -1.035059E-04 
 +5.071923E-03 -6.140649E-05 +6.862052E-05 -6.140649E-05 +2.102073E-04 -3.242139E-04 +6.862052E-05 -3.242139E-04 -3.734483E-05 
 +4.909896E-03 -2.618972E-04 +1.394401E-04 -2.618972E-04 +2.257182E-04 -2.570643E-04 +1.394401E-04 -2.570643E-04 -3.443289E-05 
 +4.811075E-03 -1.516760E-04 +8.093336E-05 -1.516760E-04 +2.423981E-04 -1.395089E-04 +8.093336E-05 -1.395089E-04 +1.911492E-05 
 +4.823469E-03 -9.014174E-05 +1.703323E-05 -9.014174E-05 +1.987903E-04 -1.362190E-04 +1.703323E-05 -1.362190E-04 +1.089699E-04 
 +4.899302E-03 -4.947598E-05 +9.237170E-05 -4.947598E-05 +2.014395E-04 -1.865593E-04 +9.237170E-05 -1.865593E-04 +5.166622E-05 
 +4.978690E-03 -2.454167E-05 +3.018879E-05 -2.454167E-05 +1.867600E-04 -1.733222E-04 +3.018879E-05 -1.733222E-04 -1.861795E-05 
 +4.969311E-03 +1.574488E-04 +1.692914E-05 +1.574488E-04 +8.495818E-05 -7.585433E-05 +1.692914E-05 -7.585433E-05 -4.089226E-06 
 +5.047100E-03 +2.194446E-04 +2.199314E-05 +2.194446E-04 +1.323887E-04 -8.119362E-05 +2.199314E-05 -8.119362E-05 -2.374434E-05 
 +5.086351E-03 +1.399415E-04 +2.946143E-05 +1.399415E-04 +2.717353E-04 -1.738644E-04 +2.946143E-05 -1.738644E-04 -2.632660E-05 
 +5.065181E-03 +7.426831E-05 +1.977290E-05 +7.426831E-05 +2.925192E-04 -1.924135E-04 +1.977290E-05 -1.924135E-04 -5.033187E-05 
 +5.070834E-03 +5.558341E-05 -7.053924E-05 +5.558341E-05 +2.514103E-04 -2.026956E-04 -7.053924E-05 -2.026956E-04 -1.962846E-04 
 +5.111975E-03 +2.628480E-05 +1.033030E-05 +2.628480E-05 +2.208209E-04 -2.825196E-04 +1.033030E-05 -2.825196E-04 -2.365525E-04 
 +5.186269E-03 -2.730294E-05 +6.917347E-05 -2.730294E-05 +5.902978E-05 -4.100528E-04 +6.917347E-05 -4.100528E-04 -1.243295E-04 
 +5.321236E-03 -6.001968E-05 +1.038532E-04 -6.001968E-05 -2.879416E-06 -3.691278E-04 +1.038532E-04 -3.691278E-04 -8.500076E-05 
 +4.976727E-03 +3.152111E-06 +9.779653E-05 +3.152111E-06 +1.106073E-04 -1.982290E-04 +9.779653E-05 -1.982290E-04 -8.696840E-05 
 +4.858152E-03 +7.216635E-05 -3.391364E-05 +7.216635E-05 +1.545147E-04 -1.043618E-04 -3.391364E-05 -1.043618E-04 +7.699670E-07 
 +4.705528E-03 +2.185634E-04 -4.602931E-05 +2.185634E-04 +1.423733E-04 -3.225999E-05 -4.602931E-05 -3.225999E-05 +1.597486E-04 
 +4.785523E-03 +2.645818E-04 -1.846830E-06 +2.645818E-04 +1.109415E-04 +5.053247E-05 -1.846830E-06 +5.053247E-05 +2.845769E-04 
 +4.767225E-03 +2.432913E-04 +1.341879E-04 +2.432913E-04 +1.061287E-04 +1.158876E-05 +1.341879E-04 +1.158876E-05 +2.198430E-04 
 +5.127546E-03 +9.050375E-05 +8.011992E-05 +9.050375E-05 +1.193314E-04 -1.674354E-04 +8.011992E-05 -1.674354E-04 -2.620308E-05 
 +5.072706E-03 +3.776641E-05 +7.646823E-06 +3.776641E-05 +1.917434E-04 -3.543774E-04 +7.646823E-06 -3.543774E-04 -1.605396E-04 
 +4.989649E-03 -2.365233E-05 +7.217207E-06 -2.365233E-05 +2.102630E-04 -3.590707E-04 +7.217207E-06 -3.590707E-04 -9.710780E-05 
 +4.889388E-03 -2.054880E-04 +9.908082E-05 -2.054880E-04 +1.899392E-04 -1.893289E-04 +9.908082E-05 -1.893289E-04 -2.036842E-05 
 +4.847932E-03 -1.044800E-04 +2.917345E-05 -1.044800E-04 +1.868677E-04 -5.121393E-05 +2.917345E-05 -5.121393E-05 +7.415663E-05 
 +4.888798E-03 -9.889726E-05 -1.575295E-05 -9.889726E-05 +1.688920E-04 -4.526581E-05 -1.575295E-05 -4.526581E-05 +1.773743E-04 
 +4.891562E-03 +4.109512E-05 +1.144019E-04 +4.109512E-05 +1.057015E-04 -8.917987E-05 +1.144019E-04 -8.917987E-05 +1.764477E-04 
 +5.082847E-03 +1.205311E-05 +7.028372E-05 +1.205311E-05 +1.224434E-04 -1.688153E-04 +7.028372E-05 -1.688153E-04 +7.894983E-05 
 +4.995451E-03 +8.544144E-05 +8.874374E-05 +8.544144E-05 +1.542569E-04 -2.093777E-04 +8.874374E-05 -2.093777E-04 +1.247687E-04 
 +5.031578E-03 +1.633601E-04 +6.199988E-05 +1.633601E-04 +1.361675E-04 -1.949744E-04 +6.199988E-05 -1.949744E-04 +2.195254E-04 
 +5.113991E-03 +4.019511E-05 +1.388286E-04 +4.019511E-05 +7.089189E-05 -1.568329E-04 +1.388286E-04 -1.568329E-04 +2.497236E-04 
 +5.109153E-03 +3.263352E-06 +3.721898E-05 +3.263352E-06 +6.746125E-05 -1.005719E-04 +3.721898E-05 -1.005719E-04 +1.446676E-04 
 +5.116354E-03 +6.014362E-05 -6.657537E-05 +6.014362E-05 +1.937098E-04 -3.190546E-05 -6.657537E-05 -3.190546E-05 -1.229686E-04 
 +5.087706E-03 +4.103152E-05 -5.477955E-05 +4.103152E-05 +2.887448E-04 -1.804113E-05 -5.477955E-05 -1.804113E-05 -2.259596E-04 
 +5.105579E-03 -7.528298E-05 +2.184876E-05 -7.528298E-05 +3.527639E-04 -5.981768E-05 +2.184876E-05 -5.981768E-05 -1.981992E-04 
 +5.179838E-03 -1.624600E-04 +9.116316E-05 -1.624600E-04 +3.258327E-04 -9.652466E-05 +9.116316E-05 -9.652466E-05 -2.376163E-04 
 +5.119763E-03 -1.757246E-04 +4.283401E-05 -1.757246E-04 +1.934433E-04 -1.943588E-04 +4.283401E-05 -1.943588E-04 -2.881929E-04 
 +5.013111E-03 -5.086358E-05 -1.362126E-05 -5.086358E-05 +1.737643E-04 -1.868129E-04 -1.362126E-05 -1.868129E-04 -2.544529E-04 
 +4.745313E-03 +1.685195E-04 -6.438548E-05 +1.685195E-04 +2.192577E-04 -5.248921E-05 -6.438548E-05 -5.248921E-05 -5.507891E-05 
 +4.660670E-03 +2.849165E-04 -7.849907E-05 +2.849165E-04 +1.891477E-04 +5.772999E-05 -7.849907E-05 +5.772999E-05 +2.342589E-04 
 +4.695972E-03 +2.742801E-04 +3.654111E-05 +2.742801E-04 +1.473044E-04 +4.170508E-05 +3.654111E-05 +4.170508E-05 +2.466471E-04 
 +5.100874E-03 +9.346947E-05 -1.454436E-05 +9.346947E-05 +1.468070E-04 -1.681148E-04 -1.454436E-05 -1.681148E-04 -3.990118E-05 
 +5.000540E-03 +7.609074E-05 -7.084596E-05 +7.609074E-05 +2.038642E-04 -3.939834E-04 -7.084596E-05 -3.939834E-04 -1.524293E-04 
 +4.969859E-03 -1.149743E-05 -8.617298E-06 -1.149743E-05 +1.640344E-04 -4.278376E-04 -8.617298E-06 -4.278376E-04 -1.104312E-04 
 +4.837133E-03 -1.555817E-04 +9.026240E-05 -1.555817E-04 +2.467554E-04 -2.703458E-04 +9.026240E-05 -2.703458E-04 +4.545550E-05 
 +4.865715E-03 -1.197165E-04 +1.969666E-05 -1.197165E-04 +2.779999E-04 -1.259032E-04 +1.969666E-05 -1.259032E-04 +1.580303E-04 
 +4.951614E-03 -1.019225E-04 +2.190514E-05 -1.019225E-04 +2.355797E-04 -8.108147E-05 +2.190514E-05 -8.108147E-05 +1.633396E-04 
 +5.038022E-03 +2.475269E-05 +8.579158E-05 +2.475269E-05 +1.917468E-04 -9.209098E-05 +8.579158E-05 -9.209098E-05 +1.158434E-04 
 +5.001028E-03 +9.888497E-05 +9.568275E-05 +9.888497E-05 +1.559527E-04 -9.057810E-05 +9.568275E-05 -9.057810E-05 +1.166845E-04 
 +4.947945E-03 +7.046306E-05 +1.832981E-04 +7.046306E-05 +1.462102E-04 -8.460450E-05 +1.832981E-04 -8.460450E-05 +1.974219E-04 
 +4.992778E-03 +1.609417E-04 +1.682507E-04 +1.609417E-04 +7.979636E-05 -1.245461E-04 +1.682507E-04 -1.245461E-04 +2.325011E-04 
 +5.124601E-03 -2.142640E-05 +2.081029E-04 -2.142640E-05 +4.318311E-06 -1.550837E-04 +2.081029E-04 -1.550837E-04 +1.993646E-04 
 +5.164593E-03 +6.855890E-07 +2.826443E-05 +6.855890E-07 -6.065645E-05 -1.393193E-04 +2.826443E-05 -1.393193E-04 +1.230122E-04 
 +5.143731E-03 -7.978756E-06 -6.999430E-05 -7.978756E-06 -1.152783E-04 -1.124063E-04 -6.999430E-05 -1.124063E-04 +5.274630E-05 
 +5.079874E-03 -6.417018E-05 -9.518539E-05 -6.417018E-05 -1.434452E-04 -1.152661E-04 -9.518539E-05 -1.152661E-04 +8.391281E-05 
 +5.039475E-03 -1.030767E-04 -5.395982E-05 -1.030767E-04 -3.217542E-05 -1.534800E-04 -5.395982E-05 -1.534800E-04 +5.806320E-05 
 +5.063255E-03 -1.374806E-04 +2.786808E-05 -1.374806E-04 +1.167023E-04 -1.623752E-04 +2.786808E-05 -1.623752E-04 -1.203768E-04 
 +5.144649E-03 -1.411121E-04 +1.921867E-05 -1.411121E-04 +2.180911E-04 -1.139859E-04 +1.921867E-05 -1.139859E-04 -3.158589E-04 
 +5.047658E-03 -1.063274E-04 +5.237943E-05 -1.063274E-04 +2.934494E-04 -8.719768E-05 +5.237943E-05 -8.719768E-05 -4.235653E-04 
 +4.962152E-03 -2.449597E-05 -2.311385E-05 -2.449597E-05 +2.787617E-04 -7.585233E-05 -2.311385E-05 -7.585233E-05 -2.550489E-04 
 +4.712296E-03 +1.916531E-04 -7.537152E-05 +1.916531E-04 +2.355939E-04 +1.319501E-05 -7.537152E-05 +1.319501E-05 +1.235487E-04 
 +4.681218E-03 +2.925972E-04 -5.517499E-05 +2.925972E-04 +1.875182E-04 -6.740880E-06 -5.517499E-05 -6.740880E-06 +1.749674E-04 
 +4.970217E-03 +1.847862E-04 -9.118897E-05 +1.847862E-04 +1.877080E-04 -2.103308E-04 -9.118897E-05 -2.103308E-04 -4.558842E-05 
 +4.886345E-03 +7.647250E-05 -4.670527E-05 +7.647250E-05 +3.332573E-04 -3.486748E-04 -4.670527E-05 -3.486748E-04 -2.269922E-04 
 +4.937965E-03 -3.470258E-05 +3.212927E-05 -3.470258E-05 +4.934027E-04 -2.329498E-04 +3.212927E-05 -2.329498E-04 -2.416681E-04 
 +4.891581E-03 -1.016585E-04 +4.833161E-05 -1.016585E-04 +5.369932E-04 -1.065799E-04 +4.833161E-05 -1.065799E-04 -9.780371E-05 
 +4.919886E-03 -9.800667E-05 +3.304627E-05 -9.800667E-05 +4.636764E-04 -1.797284E-05 +3.304627E-05 -1.797284E-05 -1.413941E-05 
 +5.014657E-03 -2.530958E-05 +5.123706E-05 -2.530958E-05 +3.124859E-04 +7.530013E-05 +5.123706E-05 +7.530013E-05 -4.543702E-06 
 +5.086417E-03 +2.155287E-05 +4.976133E-05 +2.155287E-05 +2.184949E-04 +8.510623E-05 +4.976133E-05 +8.510623E-05 +3.821957E-05 
 +4.916475E-03 +6.838943E-05 +1.024331E-04 +6.838943E-05 +1.925954E-04 +3.002657E-05 +1.024331E-04 +3.002657E-05 +1.126502E-04 
 +4.915672E-03 +4.243383E-05 +2.179587E-04 +4.243383E-05 +1.408997E-04 -3.295813E-05 +2.179587E-04 -3.295813E-05 +1.181911E-04 
 +4.995047E-03 +1.499746E-04 +1.924453E-04 +1.499746E-04 +4.410006E-05 -6.860786E-05 +1.924453E-04 -6.860786E-05 +7.085329E-05 
 +5.144314E-03 +1.655332E-05 +1.734042E-04 +1.655332E-05 -5.518548E-05 -1.122515E-04 +1.734042E-04 -1.122515E-04 +7.153181E-05 
 +5.150718E-03 +5.142504E-05 +4.619576E-05 +5.142504E-05 -1.042224E-04 -1.490680E-04 +4.619576E-05 -1.490680E-04 +8.761815E-05 
 +5.103065E-03 +4.049785E-05 -2.972259E-05 +4.049785E-05 -9.806861E-05 -1.234080E-04 -2.972259E-05 -1.234080E-04 +1.130680E-04 
 +5.044231E-03 -3.733742E-05 -8.328071E-05 -3.733742E-05 -1.334917E-04 -1.285217E-04 -8.328071E-05 -1.285217E-04 +1.176900E-04 
 +5.040391E-03 -3.116309E-05 -1.266416E-04 -3.116309E-05 -2.326050E-04 -1.786181E-04 -1.266416E-04 -1.786181E-04 +1.061176E-04 
 +5.017140E-03 -5.086740E-05 -3.008028E-05 -5.086740E-05 -1.127510E-04 -2.076560E-04 -3.008028E-05 -2.076560E-04 +4.294230E-05 
 +5.031733E-03 -1.059607E-04 +6.914153E-05 -1.059607E-04 +1.886569E-04 -1.659599E-04 +6.914153E-05 -1.659599E-04 -1.593729E-04 
 +5.031612E-03 -1.170265E-04 +6.296693E-05 -1.170265E-04 +3.296178E-04 -1.006385E-04 +6.296693E-05 -1.006385E-04 -3.351565E-04 
 +5.007095E-03 -9.180051E-05 -8.582509E-09 -9.180051E-05 +3.361569E-04 -6.366408E-05 -8.582509E-09 -6.366408E-05 -2.891036E-04 
 +4.888202E-03 -1.350000E-05 -5.308727E-05 -1.350000E-05 +2.808681E-04 -7.734653E-05 -5.308727E-05 -7.734653E-05 -1.179568E-04 
 +4.840045E-03 +1.184912E-04 -7.564286E-05 +1.184912E-04 +2.059961E-04 -1.733583E-04 -7.564286E-05 -1.733583E-04 -5.922242E-05 
 +4.875851E-03 +1.601574E-04 -9.597632E-05 +1.601574E-04 +2.158396E-04 -3.053947E-04 -9.597632E-05 -3.053947E-04 -1.083860E-04 
 +4.869889E-03 +6.384219E-05 +6.402727E-05 +6.384219E-05 +4.526085E-04 -2.649132E-04 +6.402727E-05 -2.649132E-04 -1.336309E-04 
 +4.946855E-03 -7.758256E-05 +6.163294E-05 -7.758256E-05 +3.910086E-04 -1.885892E-04 +6.163294E-05 -1.885892E-04 -1.295216E-04 
 +5.010995E-03 -1.309883E-04 -1.167527E-05 -1.309883E-04 +2.692560E-04 -1.121092E-04 -1.167527E-05 -1.121092E-04 -1.398650E-04 
 +5.065674E-03 -1.457293E-04 -7.892588E-06 -1.457293E-04 +2.505961E-04 -3.324733E-05 -7.892588E-06 -3.324733E-05 -1.644498E-04 
 +5.100367E-03 -7.408476E-05 +7.480449E-05 -7.408476E-05 +1.969866E-04 +4.718791E-05 +7.480449E-05 +4.718791E-05 -3.254002E-05 
 +5.015032E-03 +8.289526E-05 +6.102157E-05 +8.289526E-05 +1.814944E-04 +4.846809E-05 +6.102157E-05 +4.846809E-05 +1.256264E-04 
 +4.910623E-03 +1.580447E-04 -1.800352E-06 +1.580447E-04 +2.225415E-04 -4.942738E-05 -1.800352E-06 -4.942738E-05 +1.226209E-04 
 +4.915404E-03 +1.147260E-04 +2.146169E-04 +1.147260E-04 +1.918070E-04 -1.240902E-04 +2.146169E-04 -1.240902E-04 +5.309663E-05 
 +5.005521E-03 +1.096759E-04 +2.042598E-04 +1.096759E-04 -6.385418E-05 -9.702313E-05 +2.042598E-04 -9.702313E-05 +5.196787E-05 
 +5.152383E-03 +6.877115E-05 +1.435314E-04 +6.877115E-05 -2.503190E-04 -9.327559E-05 +1.435314E-04 -9.327559E-05 +1.555160E-04 
 +5.101672E-03 +1.047863E-04 +9.015598E-05 +1.047863E-04 -1.866935E-04 -1.521633E-04 +9.015598E-05 -1.521633E-04 +1.806033E-04 
 +5.103247E-03 +1.071855E-04 +4.066596E-05 +1.071855E-04 -1.527472E-04 -1.737103E-04 +4.066596E-05 -1.737103E-04 +1.663215E-04 
 +5.106208E-03 +4.678151E-05 -8.166591E-05 +4.678151E-05 -1.926174E-04 -1.523398E-04 -8.166591E-05 -1.523398E-04 +1.502249E-04 
 +4.959244E-03 +1.408254E-04 -6.654519E-05 +1.408254E-04 -1.411231E-04 -6.954209E-05 -6.654519E-05 -6.954209E-05 +1.092253E-04 
 +4.886927E-03 +1.794792E-04 -4.805042E-05 +1.794792E-04 -2.534956E-06 -4.762218E-06 -4.805042E-05 -4.762218E-06 +9.939761E-05 
 +4.894342E-03 +1.068262E-04 +2.463860E-05 +1.068262E-04 +1.032262E-04 -4.543644E-05 +2.463860E-05 -4.543644E-05 +2.244693E-05 
 +5.003639E-03 -2.249363E-05 +4.543664E-05 -2.249363E-05 +2.345957E-04 -1.124608E-04 +4.543664E-05 -1.124608E-04 -1.474496E-04 
 +4.931617E-03 -6.855291E-05 +6.023780E-05 -6.855291E-05 +3.095741E-04 -8.857916E-05 +6.023780E-05 -8.857916E-05 -1.986999E-04 
 +4.905230E-03 -6.409274E-05 -3.515993E-05 -6.409274E-05 +2.691601E-04 -3.851726E-05 -3.515993E-05 -3.851726E-05 -1.156069E-04 
 +4.942800E-03 -4.573114E-05 -3.672523E-05 -4.573114E-05 +1.783672E-04 -1.133036E-04 -3.672523E-05 -1.133036E-04 -6.920407E-05 
 +4.910723E-03 +5.078091E-05 +8.747256E-06 +5.078091E-05 +2.550412E-04 -2.403694E-04 +8.747256E-06 -2.403694E-04 -7.350171E-05 
 +5.058451E-03 +3.337999E-05 +6.581520E-05 +3.337999E-05 -2.383766E-04 -2.415456E-04 +6.581520E-05 -2.415456E-04 +1.793366E-04 
 +5.022869E-03 -6.535802E-05 +5.942474E-05 -6.535802E-05 -2.995985E-04 -1.655710E-04 +5.942474E-05 -1.655710E-04 +2.546373E-04 
 +5.081223E-03 -1.035010E-04 -5.480031E-06 -1.035010E-04 -3.315577E-04 -5.595684E-05 -5.480031E-06 -5.595684E-05 +1.443854E-04 
 +5.189235E-03 -1.378776E-04 +3.320138E-05 -1.378776E-04 -4.177493E-04 +5.733222E-05 +3.320138E-05 +5.733222E-05 +7.123658E-05 
 +5.094314E-03 -7.622742E-05 +7.220433E-05 -7.622742E-05 -2.689266E-04 +4.763399E-05 +7.220433E-05 +4.763399E-05 +1.798106E-04 
 +5.013740E-03 +1.309262E-05 +5.643447E-05 +1.309262E-05 -5.509677E-05 -1.322913E-04 +5.643447E-05 -1.322913E-04 +1.904909E-04 
 +4.961966E-03 +5.334114E-05 -3.108696E-05 +5.334114E-05 -5.638397E-05 -1.627480E-04 -3.108696E-05 -1.627480E-04 +1.138595E-04 
 +4.969176E-03 +4.112192E-05 +1.507622E-04 +4.112192E-05 -1.124152E-04 -9.841629E-05 +1.507622E-04 -9.841629E-05 +1.067857E-04 
 +4.993788E-03 -5.445992E-05 +1.442512E-04 -5.445992E-05 -1.953012E-04 -1.061921E-04 +1.442512E-04 -1.061921E-04 +1.191383E-04 
 +5.071483E-03 -1.594417E-06 +1.997518E-04 -1.594417E-06 -3.684511E-04 -8.840019E-05 +1.997518E-04 -8.840019E-05 +1.753408E-04 
 +5.110301E-03 +1.127713E-04 +1.109626E-04 +1.127713E-04 -4.178907E-04 -8.316171E-05 +1.109626E-04 -8.316171E-05 +2.592865E-04 
 +5.156861E-03 +6.837484E-05 +8.922657E-06 +6.837484E-05 -4.509199E-04 -1.466295E-04 +8.922657E-06 -1.466295E-04 +2.342871E-04 
 +5.126670E-03 +4.788775E-05 -8.093955E-05 +4.788775E-05 -3.700418E-04 -1.428657E-04 -8.093955E-05 -1.428657E-04 +1.608414E-04 
 +4.866214E-03 +1.423514E-04 +2.788484E-05 +1.423514E-04 -7.541690E-05 -7.824683E-05 +2.788484E-05 -7.824683E-05 +1.119213E-04 
 +4.834294E-03 +1.550880E-04 -2.638982E-06 +1.550880E-04 +5.522741E-05 -6.302528E-05 -2.638982E-06 -6.302528E-05 +7.385488E-05 
 +4.851690E-03 +1.720708E-04 -1.477444E-05 +1.720708E-04 +4.099609E-05 -1.512431E-05 -1.477444E-05 -1.512431E-05 +6.727264E-05 
 +4.918664E-03 +1.381056E-04 +4.052599E-05 +1.381056E-04 +2.422693E-05 +8.344806E-05 +4.052599E-05 +8.344806E-05 -2.074227E-05 
 +4.911761E-03 +1.125739E-04 +1.209742E-04 +1.125739E-04 +7.086379E-05 +1.414051E-04 +1.209742E-04 +1.414051E-04 -8.712057E-06 
 +4.820907E-03 +1.049580E-04 -1.208322E-05 +1.049580E-04 +1.838589E-04 +1.044110E-04 -1.208322E-05 +1.044110E-04 +1.402472E-04 
 +4.776885E-03 +4.854190E-05 -3.194725E-06 +4.854190E-05 +2.841988E-04 -9.438012E-06 -3.194725E-06 -9.438012E-06 +1.720767E-04 
 +4.907772E-03 +8.523275E-06 +9.659613E-05 +8.523275E-06 +1.011175E-04 -1.635334E-04 +9.659613E-05 -1.635334E-04 +1.419719E-04 
 +5.144335E-03 +5.142189E-05 +2.725521E-05 +5.142189E-05 -3.085258E-04 -1.804744E-04 +2.725521E-05 -1.804744E-04 +2.912872E-04 
 +5.153576E-03 +2.765145E-05 +8.435866E-05 +2.765145E-05 -4.236798E-04 -5.832127E-05 +8.435866E-05 -5.832127E-05 +2.965246E-04 
 +5.141732E-03 -6.825103E-05 +2.635820E-05 -6.825103E-05 -3.838340E-04 +8.575101E-06 +2.635820E-05 +8.575101E-06 +2.634404E-04 
 +5.107781E-03 -7.825899E-05 +5.173502E-05 -7.825899E-05 -2.443443E-04 -1.743419E-05 +5.173502E-05 -1.743419E-05 +2.405155E-04 
 +5.047957E-03 -2.838294E-08 +7.744764E-05 -2.838294E-08 -5.718344E-05 -1.381244E-04 +7.744764E-05 -1.381244E-04 +1.976601E-04 
 +5.069711E-03 +2.593535E-05 +4.449946E-05 +2.593535E-05 -5.862895E-05 -1.826477E-04 +4.449946E-05 -1.826477E-04 +1.145506E-04 
 +5.026485E-03 +4.601847E-05 -2.343679E-05 +4.601847E-05 -1.459973E-04 -1.502856E-04 -2.343679E-05 -1.502856E-04 +1.232032E-04 
 +5.026980E-03 +2.724572E-05 +2.265049E-05 +2.724572E-05 -2.007929E-04 -1.303731E-04 +2.265049E-05 -1.303731E-04 +2.077819E-04 
 +5.004194E-03 -5.670457E-05 +2.926702E-05 -5.670457E-05 -1.290182E-04 -1.081912E-04 +2.926702E-05 -1.081912E-04 +1.803577E-04 
 +4.978484E-03 -9.249688E-05 +1.916323E-04 -9.249688E-05 -1.297391E-04 -1.134926E-04 +1.916323E-04 -1.134926E-04 +7.008658E-05 
 +5.113517E-03 +5.098691E-05 +1.179780E-04 +5.098691E-05 -3.952037E-04 -1.496516E-04 +1.179780E-04 -1.496516E-04 +1.022152E-04 
 +5.152248E-03 +4.392031E-05 -5.443756E-06 +4.392031E-05 -3.865702E-04 -1.021794E-04 -5.443756E-06 -1.021794E-04 +9.688306E-05 
 +4.983261E-03 +6.960637E-05 +6.632922E-06 +6.960637E-05 -9.294261E-05 +4.876428E-06 +6.632922E-06 +4.876428E-06 +4.461834E-05 
 +4.872037E-03 +1.118494E-04 +4.255594E-05 +1.118494E-04 +3.754302E-05 +4.876628E-06 +4.255594E-05 +4.876628E-06 +5.241677E-05 
 +4.862020E-03 +7.958585E-05 +1.924480E-05 +7.958585E-05 +4.919532E-05 -5.367300E-05 +1.924480E-05 -5.367300E-05 +4.042498E-05 
 +4.887954E-03 +7.980940E-05 +9.558092E-06 +7.980940E-05 +4.884574E-05 -4.915617E-05 +9.558092E-06 -4.915617E-05 +3.972686E-05 
 +4.906120E-03 +4.810732E-05 +6.428562E-05 +4.810732E-05 +5.835481E-05 -1.650221E-05 +6.428562E-05 -1.650221E-05 +5.632773E-06 
 +4.891552E-03 +6.170169E-05 +1.155273E-04 +6.170169E-05 +8.862555E-05 -9.794370E-06 +1.155273E-04 -9.794370E-06 +9.106038E-05 
 +4.815537E-03 +1.130521E-04 -1.638337E-05 +1.130521E-04 +1.640909E-04 -9.615120E-05 -1.638337E-05 -9.615120E-05 +2.957437E-04 
 +4.700837E-03 +1.373337E-04 +1.645532E-05 +1.373337E-04 +1.735195E-04 -2.366513E-04 +1.645532E-05 -2.366513E-04 +4.057647E-04 
 +4.851952E-03 +2.604744E-05 +1.135678E-04 +2.604744E-05 -2.722285E-05 -2.930953E-04 +1.135678E-04 -2.930953E-04 +3.670039E-04 
 +5.117813E-03 -2.053151E-05 +4.299784E-05 -2.053151E-05 -3.031929E-04 -6.028981E-05 +4.299784E-05 -6.028981E-05 +2.359746E-04 
 +5.204976E-03 +2.047065E-05 +7.366682E-05 +2.047065E-05 -3.932400E-04 +3.871729E-05 +7.366682E-05 +3.871729E-05 +1.504134E-04 
 +5.172596E-03 -4.240450E-05 +6.195175E-06 -4.240450E-05 -2.918305E-04 +4.021702E-06 +6.195175E-06 +4.021702E-06 +2.074500E-04 
 +5.005916E-03 +5.894933E-06 -5.730423E-07 +5.894933E-06 -6.058081E-05 -6.659431E-05 -5.730423E-07 -6.659431E-05 +2.378327E-04 
 +5.061237E-03 +4.666159E-05 +1.276868E-04 +4.666159E-05 -2.522686E-05 -1.264158E-04 +1.276868E-04 -1.264158E-04 +1.152947E-04 
 +5.137670E-03 -1.422950E-06 +6.930175E-05 -1.422950E-06 -1.050516E-04 -1.479499E-04 +6.930175E-05 -1.479499E-04 +5.673824E-05 
 +5.065478E-03 +1.027182E-05 -4.928081E-05 +1.027182E-05 -1.878252E-04 -1.343428E-04 -4.928081E-05 -1.343428E-04 +1.427242E-04 
 +5.041679E-03 +1.690631E-05 -5.103882E-05 +1.690631E-05 -2.182726E-04 -1.248350E-04 -5.103882E-05 -1.248350E-04 +2.461259E-04 
 +5.020345E-03 +9.487506E-06 -2.869107E-05 +9.487506E-06 -1.550746E-04 -1.185328E-04 -2.869107E-05 -1.185328E-04 +1.942719E-04 
 +4.973420E-03 -8.400929E-05 +9.193228E-05 -8.400929E-05 -2.943861E-05 -1.476001E-04 +9.193228E-05 -1.476001E-04 -4.253009E-05 
 +5.008037E-03 -2.792201E-05 +1.254961E-04 -2.792201E-05 +1.979988E-05 -1.111201E-04 +1.254961E-04 -1.111201E-04 -1.320238E-04 
 +5.011759E-03 +1.134049E-04 +8.453553E-05 +1.134049E-04 +2.470168E-05 +4.972370E-05 +8.453553E-05 +4.972370E-05 -5.609777E-05 
 +4.895735E-03 +1.047560E-04 +9.107301E-05 +1.047560E-04 +6.534859E-05 +1.028513E-04 +9.107301E-05 +1.028513E-04 +1.377483E-05 
 +4.886230E-03 +8.450973E-05 +5.581116E-05 +8.450973E-05 +2.849904E-05 +3.848913E-05 +5.581116E-05 +3.848913E-05 +5.397830E-05 
 +4.877962E-03 +5.397766E-05 +2.706830E-05 +5.397766E-05 +1.647222E-05 -1.450375E-05 +2.706830E-05 -1.450375E-05 +6.387301E-05 
 +4.870499E-03 +1.343545E-05 +2.057278E-05 +1.343545E-05 +4.068752E-05 -4.054976E-05 +2.057278E-05 -4.054976E-05 +6.955743E-05 
 +4.882224E-03 -1.881010E-05 +7.195069E-05 -1.881010E-05 +6.672129E-05 -7.496925E-05 +7.195069E-05 -7.496925E-05 +4.475046E-05 
 +4.879981E-03 -6.069274E-05 +9.848860E-05 -6.069274E-05 +2.635665E-05 -1.388369E-04 +9.848860E-05 -1.388369E-04 +1.160491E-04 
 +4.851697E-03 +1.052161E-05 +4.060702E-05 +1.052161E-05 -9.315492E-05 -1.990674E-04 +4.060702E-05 -1.990674E-04 +3.023113E-04 
 +4.855049E-03 -2.200070E-05 +7.990892E-05 -2.200070E-05 -1.843213E-04 -2.678069E-04 +7.990892E-05 -2.678069E-04 +4.600696E-04 
 +4.918014E-03 -1.072276E-04 +1.612530E-04 -1.072276E-04 -2.382893E-04 -2.370203E-04 +1.612530E-04 -2.370203E-04 +4.285332E-04 
 +5.139842E-03 -5.444341E-05 +2.081307E-05 -5.444341E-05 -3.483090E-04 +1.658692E-05 +2.081307E-05 +1.658692E-05 +1.530695E-04 
 +5.159315E-03 -3.900548E-05 +3.579762E-05 -3.900548E-05 -3.003385E-04 +3.606297E-05 +3.579762E-05 +3.606297E-05 +1.184832E-04 
 +5.134294E-03 -3.782738E-05 -1.287715E-05 -3.782738E-05 -3.029453E-04 +2.677033E-05 -1.287715E-05 +2.677033E-05 +1.575445E-04 
 +5.067146E-03 +3.428436E-05 -5.023855E-05 +3.428436E-05 -2.341563E-04 -5.147701E-05 -5.023855E-05 -5.147701E-05 +1.781759E-04 
 +5.115706E-03 +4.609733E-05 +3.543866E-05 +4.609733E-05 -8.804337E-05 -2.522614E-04 +3.543866E-05 -2.522614E-04 +9.559505E-05 
 +5.160398E-03 -4.504345E-05 +1.387443E-04 -4.504345E-05 -9.024066E-05 -3.123232E-04 +1.387443E-04 -3.123232E-04 +6.469206E-05 
 +5.078272E-03 -5.139247E-05 +2.302224E-05 -5.139247E-05 -2.121290E-04 -2.027368E-04 +2.302224E-05 -2.027368E-04 +1.185456E-04 
 +5.068405E-03 +2.482302E-05 -3.280209E-05 +2.482302E-05 -2.485740E-04 -1.546402E-04 -3.280209E-05 -1.546402E-04 +1.800999E-04 
 +5.023238E-03 +6.752362E-05 -5.747896E-05 +6.752362E-05 -1.402523E-04 -1.443062E-04 -5.747896E-05 -1.443062E-04 +1.229836E-04 
 +4.978561E-03 -4.251050E-05 +8.161014E-05 -4.251050E-05 +2.476245E-05 -1.225441E-04 +8.161014E-05 -1.225441E-04 -8.798463E-05 
 +4.920969E-03 -4.780158E-05 +1.216522E-04 -4.780158E-05 +1.357253E-04 -3.745968E-05 +1.216522E-04 -3.745968E-05 -1.261880E-04 
 +4.825570E-03 +1.421317E-04 +1.580986E-04 +1.421317E-04 +1.564447E-04 +8.230577E-05 +1.580986E-04 +8.230577E-05 -1.061400E-05 
 +4.857342E-03 +9.408477E-05 +1.221395E-04 +9.408477E-05 +9.104692E-05 +1.191120E-04 +1.221395E-04 +1.191120E-04 +4.310169E-05 
 +4.860378E-03 +6.521762E-05 +7.201960E-05 +6.521762E-05 +4.159935E-05 +8.097002E-05 +7.201960E-05 +8.097002E-05 +7.970230E-05 
 +4.852985E-03 +5.097770E-05 +3.329124E-05 +5.097770E-05 +2.702975E-05 +1.926696E-05 +3.329124E-05 +1.926696E-05 +1.171040E-04 
 +4.837845E-03 +1.322283E-05 +6.209250E-05 +1.322283E-05 +4.908483E-05 -1.353104E-05 +6.209250E-05 -1.353104E-05 +1.246691E-04 
 +4.842853E-03 -4.177651E-05 +8.922578E-05 -4.177651E-05 +2.182656E-05 -5.121790E-05 +8.922578E-05 -5.121790E-05 +1.024901E-04 
 +4.883935E-03 -1.204628E-04 +8.042884E-05 -1.204628E-04 -9.398280E-05 -1.328194E-04 +8.042884E-05 -1.328194E-04 +1.099379E-04 
 +4.901948E-03 -3.259113E-05 +1.066456E-04 -3.259113E-05 -2.377714E-04 -1.587627E-04 +1.066456E-04 -1.587627E-04 +1.544644E-04 
 +4.998039E-03 -2.742468E-05 +1.138749E-04 -2.742468E-05 -3.697885E-04 -1.287329E-04 +1.138749E-04 -1.287329E-04 +2.086514E-04 
 +5.031304E-03 -1.187294E-04 +1.586936E-04 -1.187294E-04 -4.032161E-04 -6.272894E-05 +1.586936E-04 -6.272894E-05 +2.172095E-04 
 +5.145411E-03 -5.492916E-05 -3.755695E-05 -5.492916E-05 -3.325298E-04 +1.292768E-05 -3.755695E-05 +1.292768E-05 +9.370093E-05 
 +5.123126E-03 -6.796703E-05 -1.575003E-05 -6.796703E-05 -3.272201E-04 +1.322488E-06 -1.575003E-05 +1.322488E-06 +1.306220E-04 
 +5.119192E-03 -5.009527E-05 -3.585933E-06 -5.009527E-05 -3.080491E-04 -1.853456E-05 -3.585933E-06 -1.853456E-05 +1.466563E-04 
 +5.129701E-03 +1.640839E-05 -5.254259E-05 +1.640839E-05 -3.374322E-04 +2.484924E-05 -5.254259E-05 +2.484924E-05 +1.598301E-04 
 +5.151117E-03 +1.209371E-05 -3.104341E-05 +1.209371E-05 -4.387770E-04 +1.355793E-04 -3.104341E-05 +1.355793E-04 +1.716362E-04 
 +5.165266E-03 -7.866158E-05 +1.503848E-04 -7.866158E-05 -4.232029E-04 +1.287524E-04 +1.503848E-04 +1.287524E-04 +1.364692E-04 
 +5.118690E-03 -3.716925E-05 +2.627535E-05 -3.716925E-05 -2.881611E-04 +3.422846E-05 +2.627535E-05 +3.422846E-05 +1.214093E-04 
 +5.093294E-03 +3.718120E-05 -2.781168E-07 +3.718120E-05 -2.249227E-04 -5.753237E-06 -2.781168E-07 -5.753237E-06 +1.043270E-04 
 +5.054340E-03 +1.287612E-04 -1.055110E-04 +1.287612E-04 -1.331671E-04 -5.051195E-05 -1.055110E-04 -5.051195E-05 +3.906715E-05 
 +4.940407E-03 +6.272915E-06 +1.882443E-05 +6.272915E-06 +6.158639E-05 -7.828904E-05 +1.882443E-05 -7.828904E-05 -6.538563E-05 
 +4.839122E-03 -1.983291E-05 +1.379417E-04 -1.983291E-05 +1.370858E-04 -1.289677E-05 +1.379417E-04 -1.289677E-05 -6.365124E-05 
 +4.809267E-03 +1.057136E-04 +1.921246E-04 +1.057136E-04 +1.156369E-04 +9.589248E-05 +1.921246E-04 +9.589248E-05 +3.132694E-05 
 +4.795270E-03 +7.027965E-05 +1.496709E-04 +7.027965E-05 +1.150095E-04 +1.319984E-04 +1.496709E-04 +1.319984E-04 +8.010848E-05 
 +4.783955E-03 +6.063207E-05 +7.253325E-05 +6.063207E-05 +9.990846E-05 +8.619395E-05 +7.253325E-05 +8.619395E-05 +1.315024E-04 
 +4.773506E-03 +3.110481E-05 +6.643459E-05 +3.110481E-05 +7.379959E-05 +3.826608E-05 +6.643459E-05 +3.826608E-05 +1.780246E-04 
 +4.782342E-03 +1.226067E-05 +9.767044E-05 +1.226067E-05 +2.422575E-05 -3.837324E-05 +9.767044E-05 -3.837324E-05 +1.884115E-04 
 +4.868836E-03 -1.093770E-04 +9.366136E-05 -1.093770E-04 -1.118990E-04 -9.982423E-05 +9.366136E-05 -9.982423E-05 +1.370985E-04 
 +4.955139E-03 -1.126126E-04 +9.809682E-05 -1.126126E-04 -2.151524E-04 -8.196257E-05 +9.809682E-05 -8.196257E-05 +7.317842E-05 
 +5.019710E-03 -1.034398E-04 +1.267350E-04 -1.034398E-04 -2.652657E-04 -6.757827E-05 +1.267350E-04 -6.757827E-05 +4.328634E-05 
 +5.057278E-03 -1.303494E-04 +1.235362E-04 -1.303494E-04 -3.196464E-04 -6.420741E-05 +1.235362E-04 -6.420741E-05 +3.922319E-05 
 +5.013315E-03 -1.557157E-04 +1.984967E-04 -1.557157E-04 -3.291788E-04 -1.952851E-05 +1.984967E-04 -1.952851E-05 +5.113867E-05 
 +5.153562E-03 -6.718262E-05 -7.618457E-05 -6.718262E-05 -3.018129E-04 -1.914008E-05 -7.618457E-05 -1.914008E-05 +3.411022E-05 
 +5.142616E-03 -6.019302E-05 -4.875054E-05 -6.019302E-05 -3.057842E-04 -9.195272E-06 -4.875054E-05 -9.195272E-06 +8.220001E-05 
 +5.122067E-03 -2.610903E-05 -3.316712E-05 -2.610903E-05 -2.922638E-04 -4.315847E-07 -3.316712E-05 -4.315847E-07 +8.824254E-05 
 +5.143435E-03 -6.101469E-06 -2.676310E-05 -6.101469E-06 -3.225995E-04 +2.431503E-06 -2.676310E-05 +2.431503E-06 +9.760512E-05 
 +5.182617E-03 -2.345823E-05 -1.093971E-06 -2.345823E-05 -3.647972E-04 +2.130476E-06 -1.093971E-06 +2.130476E-06 +9.458510E-05 
 +5.174105E-03 -9.925535E-05 +7.077744E-06 -9.925535E-05 -4.105231E-04 -1.388254E-05 +7.077744E-06 -1.388254E-05 +9.891053E-05 
 +5.077539E-03 -8.871492E-05 -2.530976E-05 -8.871492E-05 -3.528517E-04 -2.792489E-05 -2.530976E-05 -2.792489E-05 +1.006108E-04 
 +5.056345E-03 -1.129636E-04 +1.400806E-06 -1.129636E-04 -1.237467E-04 -1.332981E-04 +1.400806E-06 -1.332981E-04 +2.655296E-05 
 +5.010705E-03 -3.693297E-05 +4.780133E-06 -3.693297E-05 +1.427462E-06 -2.054471E-04 +4.780133E-06 -2.054471E-04 -2.324533E-05 
 +4.930298E-03 -5.001307E-05 +8.617620E-05 -5.001307E-05 +5.139329E-05 -1.631381E-04 +8.617620E-05 -1.631381E-04 -6.370941E-05 
 +4.913583E-03 -3.054741E-05 +2.068249E-04 -3.054741E-05 +1.776123E-04 -7.268380E-05 +2.068249E-04 -7.268380E-05 -6.388025E-05 
 +4.815285E-03 +7.964689E-05 +2.819497E-04 +7.964689E-05 +1.767554E-04 +6.877403E-05 +2.819497E-04 +6.877403E-05 +7.269852E-06 
 +4.828446E-03 +6.218909E-05 +1.697352E-04 +6.218909E-05 +7.902657E-05 +8.155926E-05 +1.697352E-04 +8.155926E-05 +9.889241E-05 
 +4.794191E-03 +1.016590E-04 +9.633576E-05 +1.016590E-04 +5.948583E-05 +4.589203E-06 +9.633576E-05 +4.589203E-06 +2.065558E-04 
 +4.778156E-03 +8.430587E-05 +7.820720E-05 +8.430587E-05 +3.266040E-05 -2.934335E-05 +7.820720E-05 -2.934335E-05 +3.080544E-04 
 +4.759170E-03 +6.798619E-05 +8.267071E-05 +6.798619E-05 -8.564933E-05 -6.913070E-05 +8.267071E-05 -6.913070E-05 +3.079776E-04 
 +4.814114E-03 -6.602185E-05 +1.688028E-04 -6.602185E-05 -1.730967E-04 -1.028519E-04 +1.688028E-04 -1.028519E-04 +2.191475E-04 
 +4.917936E-03 -7.867094E-05 +1.602167E-04 -7.867094E-05 -2.141709E-04 -7.187062E-05 +1.602167E-04 -7.187062E-05 +1.317677E-04 
 +5.006673E-03 -8.486425E-05 +1.270345E-04 -8.486425E-05 -2.833532E-04 -3.283850E-05 +1.270345E-04 -3.283850E-05 +5.365484E-05 
 +5.083028E-03 -8.407068E-05 +1.016950E-04 -8.407068E-05 -3.205705E-04 -1.950111E-05 +1.016950E-04 -1.950111E-05 +2.900319E-05 
 +5.034425E-03 -1.471918E-04 +1.792534E-04 -1.471918E-04 -3.071946E-04 -1.919442E-05 +1.792534E-04 -1.919442E-05 +5.873241E-06 
 +5.196205E-03 -7.456214E-05 -6.209311E-05 -7.456214E-05 -2.606991E-04 -3.213676E-05 -6.209311E-05 -3.213676E-05 -1.110145E-06 
 +5.169742E-03 -3.530831E-05 -5.321186E-05 -3.530831E-05 -2.858923E-04 +2.764165E-05 -5.321186E-05 +2.764165E-05 +1.288844E-05 
 +5.145977E-03 +3.913195E-06 -4.265257E-05 +3.913195E-06 -2.834091E-04 +6.426463E-05 -4.265257E-05 +6.426463E-05 +3.346153E-05 
 +5.153631E-03 +1.174274E-05 -4.577593E-05 +1.174274E-05 -2.654720E-04 +6.835139E-05 -4.577593E-05 +6.835139E-05 +1.811041E-05 
 +5.161235E-03 -2.948043E-05 -6.630998E-05 -2.948043E-05 -3.040130E-04 +4.448439E-05 -6.630998E-05 +4.448439E-05 +4.053875E-06 
 +5.107596E-03 -6.493935E-05 -3.823201E-05 -6.493935E-05 -2.310553E-04 +7.290218E-05 -3.823201E-05 +7.290218E-05 +3.590355E-06 
 +4.977441E-03 +7.295707E-06 -5.289627E-06 +7.295707E-06 -4.983068E-05 +1.550372E-04 -5.289627E-06 +1.550372E-04 +1.727707E-05 
 +5.017420E-03 +3.238445E-06 -1.796127E-05 +3.238445E-06 -3.983065E-05 +2.313430E-04 -1.796127E-05 +2.313430E-04 +3.737946E-05 
 +5.021037E-03 +5.749673E-05 +7.966700E-05 +5.749673E-05 -7.309571E-05 +2.502487E-04 +7.966700E-05 +2.502487E-04 +4.032669E-05 
 +5.018056E-03 +8.772177E-05 +8.941308E-05 +8.772177E-05 -3.198143E-05 +2.557613E-04 +8.941308E-05 +2.557613E-04 +9.342061E-06 
 +5.000234E-03 +9.160471E-05 +1.718476E-04 +9.160471E-05 +7.947486E-05 +2.786607E-04 +1.718476E-04 +2.786607E-04 +1.558866E-05 
 +4.808224E-03 +1.657490E-05 +2.293495E-04 +1.657490E-05 +9.163900E-05 +1.835134E-04 +2.293495E-04 +1.835134E-04 +1.034601E-04 
 +4.724291E-03 -8.899218E-05 +1.930222E-04 -8.899218E-05 -1.134538E-04 +7.083492E-05 +1.930222E-04 +7.083492E-05 +2.439852E-04 
 +4.864148E-03 -3.358870E-05 +1.151857E-04 -3.358870E-05 -2.424385E-04 +7.784253E-05 +1.151857E-04 +7.784253E-05 +3.308573E-04 
 +4.825753E-03 -6.912018E-05 +4.192956E-05 -6.912018E-05 -2.527309E-04 +7.107038E-05 +4.192956E-05 +7.107038E-05 +4.245483E-04 
 +4.782683E-03 -8.118984E-05 +2.893951E-05 -8.118984E-05 -2.473464E-04 -1.532200E-05 +2.893951E-05 -1.532200E-05 +4.707884E-04 
 +4.801682E-03 -1.122132E-04 +1.640634E-04 -1.122132E-04 -2.009993E-04 -1.065009E-04 +1.640634E-04 -1.065009E-04 +3.290468E-04 
 +4.879829E-03 -1.048583E-04 +2.212541E-04 -1.048583E-04 -2.081940E-04 -1.046613E-04 +2.212541E-04 -1.046613E-04 +1.986124E-04 
 +4.975877E-03 -1.109937E-04 +1.191371E-04 -1.109937E-04 -2.444677E-04 -1.376575E-04 +1.191371E-04 -1.376575E-04 +1.170410E-04 
 +5.057788E-03 -1.133595E-04 +7.114907E-05 -1.133595E-04 -2.344731E-04 -1.945542E-04 +7.114907E-05 -1.945542E-04 +3.591475E-05 
 +5.049436E-03 -1.559785E-04 +1.506785E-04 -1.559785E-04 -2.301436E-04 -1.278789E-04 +1.506785E-04 -1.278789E-04 +8.234649E-06 
 +5.220988E-03 -5.767984E-05 +1.628648E-05 -5.767984E-05 -2.621960E-04 -3.618528E-05 +1.628648E-05 -3.618528E-05 -2.490526E-05 
 +5.187926E-03 -3.769807E-06 -4.548878E-05 -3.769807E-06 -2.868645E-04 +1.020893E-04 -4.548878E-05 +1.020893E-04 -2.851809E-05 
 +5.161674E-03 +2.067051E-05 -2.404994E-05 +2.067051E-05 -2.658469E-04 +1.587287E-04 -2.404994E-05 +1.587287E-04 +5.616269E-07 
 +5.163115E-03 +1.660978E-05 -2.949415E-05 +1.660978E-05 -2.732775E-04 +1.649864E-04 -2.949415E-05 +1.649864E-04 +1.670531E-05 
 +5.098278E-03 +1.004238E-05 -1.010703E-04 +1.004238E-05 -1.311558E-04 +1.678163E-04 -1.010703E-04 +1.678163E-04 +6.036468E-05 
 +5.010489E-03 -7.770614E-06 -9.388630E-05 -7.770614E-06 +4.340549E-05 +1.723435E-04 -9.388630E-05 +1.723435E-04 +3.250230E-05 
 +4.989865E-03 -1.054723E-05 -2.038777E-05 -1.054723E-05 -2.244262E-05 +1.748148E-04 -2.038777E-05 +1.748148E-04 -1.619692E-05 
 +4.971707E-03 -4.357110E-06 +2.216870E-05 -4.357110E-06 -7.059809E-05 +2.172731E-04 +2.216870E-05 +2.172731E-04 +8.196167E-05 
 +5.002923E-03 -9.005976E-07 +7.522005E-05 -9.005976E-07 -8.302065E-05 +2.537575E-04 +7.522005E-05 +2.537575E-04 +7.322563E-05 
 +5.088976E-03 +4.808503E-05 +1.335239E-05 +4.808503E-05 -1.094148E-04 +2.388744E-04 +1.335239E-05 +2.388744E-04 -2.553232E-05 
 +5.059233E-03 +1.053969E-04 +9.032745E-05 +1.053969E-04 -6.302484E-05 +1.793272E-04 +9.032745E-05 +1.793272E-04 +6.521245E-05 
 +4.863456E-03 +3.870077E-05 +1.034570E-04 +3.870077E-05 +4.080463E-05 +1.034277E-04 +1.034570E-04 +1.034277E-04 +2.266936E-04 
 +4.527182E-03 -1.249030E-04 +1.956533E-04 -1.249030E-04 +2.583347E-05 +4.647776E-05 +1.956533E-04 +4.647776E-05 +3.509249E-04 
 +4.800635E-03 -4.277795E-05 +1.035494E-04 -4.277795E-05 -1.694010E-04 +7.386999E-05 +1.035494E-04 +7.386999E-05 +3.862250E-04 
 +4.876006E-03 -1.005415E-04 +1.692927E-05 -1.005415E-04 -2.330860E-04 +1.484963E-04 +1.692927E-05 +1.484963E-04 +4.058542E-04 
 +4.863286E-03 -1.223331E-04 +1.123287E-05 -1.223331E-04 -2.574303E-04 +1.713230E-04 +1.123287E-05 +1.713230E-04 +4.490880E-04 
 +4.913163E-03 -7.119945E-05 +3.409034E-05 -7.119945E-05 -2.759940E-04 +7.665815E-05 +3.409034E-05 +7.665815E-05 +3.383680E-04 
 +4.848597E-03 -9.683446E-05 +1.671950E-04 -9.683446E-05 -2.013278E-04 -4.401155E-05 +1.671950E-04 -4.401155E-05 +1.477400E-04 
 +4.959049E-03 -3.821976E-05 +1.651353E-05 -3.821976E-05 -8.845468E-05 -8.620238E-05 +1.651353E-05 -8.620238E-05 -4.157081E-05 
 +5.067808E-03 -2.730823E-05 +1.405121E-05 -2.730823E-05 -2.027401E-05 -8.686709E-05 +1.405121E-05 -8.686709E-05 -1.831023E-04 
 +5.063896E-03 -1.252687E-04 +1.550052E-04 -1.252687E-04 -1.246621E-04 -1.098140E-04 +1.550052E-04 -1.098140E-04 -1.056132E-04 
 +5.142481E-03 -1.081966E-04 +9.225996E-05 -1.081966E-04 -1.974447E-04 +4.144671E-05 +9.225996E-05 +4.144671E-05 -1.936885E-05 
 +5.182532E-03 +1.000273E-05 -2.217013E-05 +1.000273E-05 -3.308969E-04 +1.257827E-04 -2.217013E-05 +1.257827E-04 +4.038055E-05 
 +5.159118E-03 +1.801815E-05 -5.313401E-06 +1.801815E-05 -3.191588E-04 +1.587172E-04 -5.313401E-06 +1.587172E-04 +6.783972E-05 
 +5.068497E-03 -2.187968E-05 -1.732792E-05 -2.187968E-05 -2.596936E-04 +1.204630E-04 -1.732792E-05 +1.204630E-04 +1.036298E-04 
 +5.008244E-03 -2.482618E-05 -8.932530E-05 -2.482618E-05 -2.080879E-04 +1.039647E-04 -8.932530E-05 +1.039647E-04 +1.568425E-04 
 +5.048765E-03 -6.196558E-05 -1.809050E-04 -6.196558E-05 -2.367761E-04 +8.296368E-05 -1.809050E-04 +8.296368E-05 +1.423465E-04 
 +4.992471E-03 -1.079558E-05 -5.424589E-05 -1.079558E-05 -1.723709E-04 +8.616717E-05 -5.424589E-05 +8.616717E-05 +4.009629E-05 
 +4.920810E-03 +9.329379E-06 +3.202866E-05 +9.329379E-06 -7.646784E-05 +9.690299E-05 +3.202866E-05 +9.690299E-05 +7.736535E-05 
 +4.956754E-03 -1.580315E-05 +6.256558E-05 -1.580315E-05 -7.100008E-05 +1.243188E-04 +6.256558E-05 +1.243188E-04 +5.624870E-05 
 +5.108680E-03 +3.826462E-05 -1.775586E-05 +3.826462E-05 -1.105070E-04 +2.067929E-04 -1.775586E-05 +2.067929E-04 -7.505496E-05 
 +5.109789E-03 +6.376650E-05 +9.913548E-05 +6.376650E-05 -1.359363E-04 +1.914278E-04 +9.913548E-05 +1.914278E-04 +3.200938E-05 
 +4.958483E-03 +1.572254E-05 +5.929511E-05 +1.572254E-05 -5.136240E-05 +1.095905E-04 +5.929511E-05 +1.095905E-04 +2.302605E-04 
 +4.459087E-03 -1.868498E-04 +1.874505E-04 -1.868498E-04 +1.477289E-04 +3.982248E-05 +1.874505E-04 +3.982248E-05 +3.335574E-04 
 +4.671598E-03 -1.538139E-04 +1.196892E-04 -1.538139E-04 +1.602576E-04 +2.394354E-05 +1.196892E-04 +2.394354E-05 +3.325086E-04 
 +4.967362E-03 -9.202577E-05 +2.253878E-05 -9.202577E-05 -9.817509E-05 +1.241353E-04 +2.253878E-05 +1.241353E-04 +2.961923E-04 
 +4.958804E-03 -6.981731E-05 -5.858838E-06 -6.981731E-05 -2.194171E-04 +1.817939E-04 -5.858838E-06 +1.817939E-04 +2.671234E-04 
 +4.958568E-03 -3.475399E-05 -9.133941E-05 -3.475399E-05 -1.973006E-04 +8.879411E-05 -9.133941E-05 +8.879411E-05 +2.483287E-04 
 +4.909255E-03 -5.122059E-06 +6.984512E-05 -5.122059E-06 -1.060500E-04 -4.487779E-06 +6.984512E-05 -4.487779E-06 +1.374867E-04 
 +5.026836E-03 +1.057648E-04 -2.715325E-05 +1.057648E-04 +1.412750E-05 +1.624500E-05 -2.715325E-05 +1.624500E-05 -8.111639E-05 
 +5.078750E-03 +5.299127E-05 -6.161217E-06 +5.299127E-05 +4.858224E-05 +6.568895E-05 -6.161217E-06 +6.568895E-05 -2.037107E-04 
 +5.051352E-03 -1.280012E-04 +1.346283E-04 -1.280012E-04 -3.189253E-06 +4.232439E-05 +1.346283E-04 +4.232439E-05 -1.360282E-04 
 +5.072576E-03 -1.861747E-04 +1.085857E-04 -1.861747E-04 -1.280648E-04 +2.095680E-04 +1.085857E-04 +2.095680E-04 -4.576575E-06 
 +5.114144E-03 -2.006979E-05 -1.911914E-05 -2.006979E-05 -3.062717E-04 +1.987941E-04 -1.911914E-05 +1.987941E-04 -1.145243E-05 
 +5.097135E-03 +5.560148E-05 -3.161343E-05 +5.560148E-05 -3.168390E-04 +1.484846E-04 -3.161343E-05 +1.484846E-04 -8.196365E-06 
 +4.937830E-03 +3.326620E-05 -2.756173E-05 +3.326620E-05 -1.106381E-04 +8.105849E-05 -2.756173E-05 +8.105849E-05 +8.174067E-05 
 +4.983225E-03 -3.283610E-05 -1.007522E-04 -3.283610E-05 -1.273886E-04 +3.933243E-05 -1.007522E-04 +3.933243E-05 +1.499040E-04 
 +5.123520E-03 -3.359852E-05 -1.941572E-04 -3.359852E-05 -2.313730E-04 +4.425905E-05 -1.941572E-04 +4.425905E-05 +1.272077E-04 
 +4.956946E-03 +5.690711E-05 -1.722235E-05 +5.690711E-05 -1.603233E-04 +6.212329E-05 -1.722235E-05 +6.212329E-05 +4.806701E-05 
 +4.891225E-03 +5.490628E-06 +6.023966E-05 +5.490628E-06 -8.007208E-05 +5.369314E-05 +6.023966E-05 +5.369314E-05 +7.253929E-05 
 +4.943910E-03 -2.050615E-05 +6.216355E-05 -2.050615E-05 -6.664252E-05 +9.579688E-05 +6.216355E-05 +9.579688E-05 +4.185038E-05 
 +5.085688E-03 +2.358392E-05 -6.009948E-05 +2.358392E-05 -6.327453E-05 +1.652194E-04 -6.009948E-05 +1.652194E-04 -7.469182E-05 
 +5.065365E-03 +5.143410E-05 +8.465309E-05 +5.143410E-05 -8.251164E-05 +1.207436E-04 +8.465309E-05 +1.207436E-04 +4.150487E-05 
 +4.950420E-03 +7.640550E-06 +5.327911E-05 +7.640550E-06 -5.658909E-05 +8.153792E-05 +5.327911E-05 +8.153792E-05 +2.022842E-04 
 +4.612130E-03 -1.374123E-04 +1.386800E-04 -1.374123E-04 +2.193031E-05 +1.266059E-04 +1.386800E-04 +1.266059E-04 +2.539673E-04 
 +4.807777E-03 -1.104454E-04 +1.124851E-04 -1.104454E-04 -2.363505E-05 +1.599521E-04 +1.124851E-04 +1.599521E-04 +2.191076E-04 
 +4.978816E-03 -7.608872E-06 +3.181038E-05 -7.608872E-06 -1.195458E-04 +1.587278E-04 +3.181038E-05 +1.587278E-04 +1.933382E-04 
 +4.975036E-03 +1.694889E-05 -4.856167E-05 +1.694889E-05 -1.413225E-04 +1.385409E-04 -4.856167E-05 +1.385409E-04 +1.923098E-04 
 +4.942779E-03 +2.856801E-06 -7.483791E-05 +2.856801E-06 -1.935838E-04 +1.837161E-04 -7.483791E-05 +1.837161E-04 +2.081295E-04 
 +4.971790E-03 +6.431629E-05 +2.519719E-05 +6.431629E-05 -2.338369E-04 +2.292784E-04 +2.519719E-05 +2.292784E-04 +1.836785E-04 
 +5.061157E-03 +9.134926E-05 -1.521567E-05 +9.134926E-05 -1.681917E-04 +1.855822E-04 -1.521567E-05 +1.855822E-04 +9.604404E-05 
 +5.082071E-03 -2.265183E-05 +1.593357E-05 -2.265183E-05 -1.268313E-04 +1.407781E-04 +1.593357E-05 +1.407781E-04 +6.170956E-05 
 +5.084687E-03 -1.803156E-04 +1.055586E-04 -1.803156E-04 -1.069526E-04 +1.655662E-04 +1.055586E-04 +1.655662E-04 +4.072751E-05 
 +5.077870E-03 -2.668143E-04 +8.007266E-05 -2.668143E-04 +3.452387E-05 +1.640736E-04 +8.007266E-05 +1.640736E-04 -1.245951E-04 
 +5.048185E-03 -1.550298E-04 -2.992313E-05 -1.550298E-04 +2.332035E-04 -4.255897E-05 -2.992313E-05 -4.255897E-05 -3.079533E-04 
 +5.059552E-03 +3.209033E-05 +1.354121E-05 +3.209033E-05 +1.923662E-04 -7.760198E-05 +1.354121E-05 -7.760198E-05 -2.968944E-04 
 +5.025086E-03 +1.339539E-04 +3.917632E-05 +1.339539E-04 +4.286119E-05 +4.992030E-05 +3.917632E-05 +4.992030E-05 -4.385013E-05 
 +4.992722E-03 +1.832039E-05 -5.305264E-05 +1.832039E-05 -8.953362E-05 +7.239328E-05 -5.305264E-05 +7.239328E-05 +1.025007E-04 
 +4.974737E-03 +3.845429E-05 -8.470182E-05 +3.845429E-05 -1.413737E-04 +7.254038E-05 -8.470182E-05 +7.254038E-05 +5.992059E-05 
 +4.893393E-03 +9.594681E-05 +4.901238E-05 +9.594681E-05 -6.852894E-05 +9.115194E-05 +4.901238E-05 +9.115194E-05 -1.179940E-05 
 +4.881989E-03 -1.427737E-05 +8.623174E-05 -1.427737E-05 -3.425700E-05 +5.558151E-05 +8.623174E-05 +5.558151E-05 +1.798522E-05 
 +4.915260E-03 -3.469782E-05 +6.020976E-05 -3.469782E-05 -2.410290E-05 +8.072332E-05 +6.020976E-05 +8.072332E-05 +9.505108E-06 
 +5.070249E-03 -1.569940E-05 -1.170175E-04 -1.569940E-05 -5.899882E-06 +1.715626E-04 -1.170175E-04 +1.715626E-04 -8.117169E-05 
 +5.039310E-03 +2.462416E-05 +3.956788E-05 +2.462416E-05 -1.465263E-05 +1.637049E-04 +3.956788E-05 +1.637049E-04 +2.373972E-05 
 +4.936943E-03 +2.419812E-05 +3.926413E-05 +2.419812E-05 -1.376872E-04 +1.651975E-04 +3.926413E-05 +1.651975E-04 +1.372890E-04 
 +4.926556E-03 -3.502413E-05 +7.912245E-05 -3.502413E-05 -2.674491E-04 +2.415236E-04 +7.912245E-05 +2.415236E-04 +1.546052E-04 
 +4.971524E-03 -9.023042E-05 +8.433214E-05 -9.023042E-05 -1.969977E-04 +2.408317E-04 +8.433214E-05 +2.408317E-04 +1.455475E-04 
 +4.941576E-03 -3.147107E-05 +2.997261E-05 -3.147107E-05 -1.052774E-04 +1.718255E-04 +2.997261E-05 +1.718255E-04 +1.446521E-04 
 +4.967187E-03 +2.379245E-05 -7.451299E-05 +2.379245E-05 -1.451022E-04 +1.568348E-04 -7.451299E-05 +1.568348E-04 +1.595667E-04 
 +4.929283E-03 +4.406747E-05 -8.543435E-05 +4.406747E-05 -1.361463E-04 +1.441447E-04 -8.543435E-05 +1.441447E-04 +1.581298E-04 
 +4.862723E-03 +6.641422E-05 -2.969102E-05 +6.641422E-05 -7.340513E-05 +9.134971E-05 -2.969102E-05 +9.134971E-05 +1.653091E-04 
 +5.016519E-03 +5.392459E-05 +6.658857E-05 +5.392459E-05 -9.276022E-05 +9.970417E-05 +6.658857E-05 +9.970417E-05 +1.374610E-04 
 +5.103481E-03 -8.993778E-05 +1.025907E-04 -8.993778E-05 -9.536960E-05 +1.412773E-04 +1.025907E-04 +1.412773E-04 +9.659654E-05 
 +5.104170E-03 -2.708528E-04 +9.232071E-05 -2.708528E-04 -9.418208E-05 +2.051275E-04 +9.232071E-05 +2.051275E-04 +4.748659E-05 
 +5.126142E-03 -1.952909E-04 +1.354008E-05 -1.952909E-04 +1.914051E-04 -1.883104E-04 +1.354008E-05 -1.883104E-04 -2.722692E-04 
 +5.106936E-03 -8.454367E-05 -1.455314E-05 -8.454367E-05 +2.512825E-04 -2.624876E-04 -1.455314E-05 -2.624876E-04 -4.692009E-04 
 +5.111021E-03 -1.343555E-05 +7.890128E-05 -1.343555E-05 +1.213265E-04 -1.407418E-04 +7.890128E-05 -1.407418E-04 -4.199475E-04 
 +5.148318E-03 +1.064428E-04 +1.055165E-04 +1.064428E-04 -7.148190E-05 +7.448582E-05 +1.055165E-04 +7.448582E-05 -1.712097E-04 
 +4.966033E-03 +1.709340E-05 -1.374066E-05 +1.709340E-05 +3.756915E-05 +1.538014E-04 -1.374066E-05 +1.538014E-04 +3.794071E-05 
 +4.779791E-03 +5.053434E-05 +7.613900E-05 +5.053434E-05 +1.772103E-04 +1.601806E-04 +7.613900E-05 +1.601806E-04 +1.683530E-05 
 +4.831076E-03 +1.406552E-04 +1.289749E-04 +1.406552E-04 +8.734862E-05 +1.475388E-04 +1.289749E-04 +1.475388E-04 -5.106910E-05 
 +4.830427E-03 +2.821625E-05 +9.552557E-05 +2.821625E-05 +2.859730E-05 +5.058018E-05 +9.552557E-05 +5.058018E-05 -4.921917E-05 
 +4.847282E-03 -1.621915E-05 +8.997048E-05 -1.621915E-05 +4.855275E-05 +7.031495E-05 +8.997048E-05 +7.031495E-05 -6.690806E-05 
 +5.039197E-03 -4.513530E-05 -8.061379E-05 -4.513530E-05 +1.606173E-05 +1.915572E-04 -8.061379E-05 +1.915572E-04 -1.316084E-04 
 +5.081157E-03 +2.922673E-07 -6.119269E-06 +2.922673E-07 -4.807641E-05 +1.922346E-04 -6.119269E-06 +1.922346E-04 -6.055926E-05 
 +5.055872E-03 -5.515240E-05 +1.949514E-05 -5.515240E-05 -1.695461E-04 +1.732670E-04 +1.949514E-05 +1.732670E-04 +5.240902E-05 
 +5.110232E-03 -4.463263E-05 +8.326996E-05 -4.463263E-05 -2.444073E-04 +2.315798E-04 +8.326996E-05 +2.315798E-04 +3.280708E-05 
 +5.012496E-03 -8.013454E-05 +5.132042E-05 -8.013454E-05 -1.575176E-04 +2.559870E-04 +5.132042E-05 +2.559870E-04 +5.389113E-06 
 +4.978192E-03 -9.440190E-05 -2.296043E-05 -9.440190E-05 -1.195573E-04 +2.274708E-04 -2.296043E-05 +2.274708E-04 +2.805274E-05 
 +4.983491E-03 -3.994331E-05 -1.177110E-04 -3.994331E-05 -1.162264E-04 +2.127966E-04 -1.177110E-04 +2.127966E-04 +8.001679E-05 
 +4.853301E-03 +3.810738E-05 -1.210880E-04 +3.810738E-05 +4.438149E-06 +1.265474E-04 -1.210880E-04 +1.265474E-04 +1.419170E-04 
 +4.846489E-03 +5.613257E-05 -8.849980E-06 +5.613257E-05 +1.109389E-04 +7.931725E-05 -8.849980E-06 +7.931725E-05 +2.139951E-04 
 +4.961287E-03 +8.893417E-05 +1.039955E-04 +8.893417E-05 +8.792311E-05 +1.349778E-04 +1.039955E-04 +1.349778E-04 +1.542097E-04 
 +5.065026E-03 -2.039788E-05 +1.424865E-04 -2.039788E-05 +6.481994E-05 +1.107227E-04 +1.424865E-04 +1.107227E-04 +4.572985E-05 
 +5.004617E-03 -2.757396E-04 +5.673291E-06 -2.757396E-04 +1.189749E-04 -2.047275E-05 +5.673291E-06 -2.047275E-05 -3.589966E-05 
 +5.136053E-03 -1.141598E-04 -1.053738E-04 -1.141598E-04 +2.345647E-04 -1.602377E-04 -1.053738E-04 -1.602377E-04 -3.003029E-04 
 +5.183917E-03 -3.879093E-05 -4.082934E-05 -3.879093E-05 +1.962273E-04 -2.568380E-04 -4.082934E-05 -2.568380E-04 -4.208380E-04 
 +5.103236E-03 -1.085155E-04 -8.783697E-06 -1.085155E-04 +2.516854E-04 -2.370937E-04 -8.783697E-06 -2.370937E-04 -2.887134E-04 
 +5.122926E-03 -4.890061E-05 +7.237566E-05 -4.890061E-05 +1.922004E-04 -1.065436E-04 +7.237566E-05 -1.065436E-04 -1.489032E-04 
 +5.054668E-03 +3.758164E-05 +2.038339E-05 +3.758164E-05 +7.281404E-05 +1.415561E-04 +2.038339E-05 +1.415561E-04 +2.971762E-06 
 +4.665364E-03 +8.581228E-05 +1.313668E-04 +8.581228E-05 +1.095935E-04 +2.507047E-04 +1.313668E-04 +2.507047E-04 +3.756784E-05 
 +4.680687E-03 +5.316736E-05 +1.070980E-04 +5.316736E-05 +1.683074E-04 +1.888717E-04 +1.070980E-04 +1.888717E-04 -5.201911E-05 
 +4.802936E-03 -3.484420E-05 +4.988405E-05 -3.484420E-05 +1.390643E-04 +1.130599E-04 +4.988405E-05 +1.130599E-04 -1.837248E-04 
 +4.881264E-03 +1.443324E-05 +1.152023E-04 +1.443324E-05 +9.826676E-05 +1.108909E-04 +1.152023E-04 +1.108909E-04 -2.519378E-04 
 +4.987450E-03 +3.655835E-05 -1.846772E-06 +3.655835E-05 +9.261213E-05 +1.117842E-04 -1.846772E-06 +1.117842E-04 -2.440446E-04 
 +5.087134E-03 -1.363346E-05 +2.345878E-05 -1.363346E-05 -2.226814E-05 +7.218931E-05 +2.345878E-05 +7.218931E-05 -1.575427E-04 
 +5.158854E-03 -1.301372E-04 +4.590276E-05 -1.301372E-04 -2.130403E-04 +1.037246E-04 +4.590276E-05 +1.037246E-04 -6.687562E-05 
 +5.167142E-03 -3.364157E-05 +7.174698E-05 -3.364157E-05 -2.165213E-04 +1.510751E-04 +7.174698E-05 +1.510751E-04 -2.322011E-05 
 +5.075860E-03 -4.106971E-05 +4.343342E-06 -4.106971E-05 -8.965738E-05 +1.866670E-04 +4.343342E-06 +1.866670E-04 +4.972792E-05 
 +5.016336E-03 -1.614700E-04 -9.218292E-05 -1.614700E-04 -6.858712E-05 +2.142412E-04 -9.218292E-05 +2.142412E-04 +8.571322E-05 
 +4.843903E-03 -9.208683E-05 -1.700780E-04 -9.208683E-05 -4.644167E-05 +1.347786E-04 -1.700780E-04 +1.347786E-04 +1.078170E-04 
 +4.907256E-03 -1.856818E-05 -3.250099E-05 -1.856818E-05 +7.330143E-06 +1.771967E-05 -3.250099E-05 +1.771967E-05 +1.434377E-04 
 +4.960868E-03 +3.698092E-05 +8.363214E-05 +3.698092E-05 -2.607627E-05 +2.531873E-05 +8.363214E-05 +2.531873E-05 +2.334367E-04 
 +4.958728E-03 +6.173604E-05 +8.775705E-05 +6.173604E-05 -2.134572E-05 +1.335746E-04 +8.775705E-05 +1.335746E-04 +2.386063E-04 
 +5.011656E-03 +5.014290E-05 +8.907425E-05 +5.014290E-05 +8.475790E-05 +1.819846E-04 +8.907425E-05 +1.819846E-04 +1.499230E-04 
 +4.932079E-03 -1.396370E-04 -1.703926E-04 -1.396370E-04 +2.294797E-04 +5.171692E-05 -1.703926E-04 +5.171692E-05 +7.145935E-06 
 +5.062005E-03 -5.047728E-05 -1.575021E-04 -5.047728E-05 +2.776647E-04 -2.659336E-04 -1.575021E-04 -2.659336E-04 -1.880476E-04 
 +5.142894E-03 -4.676275E-05 -9.884234E-05 -4.676275E-05 +2.018269E-04 -2.217616E-04 -9.884234E-05 -2.217616E-04 -2.767257E-04 
 +5.140283E-03 -7.767445E-05 -4.393287E-05 -7.767445E-05 -1.472255E-05 -5.157104E-05 -4.393287E-05 -5.157104E-05 -1.038613E-05 
 +4.952627E-03 -6.588021E-05 +1.826027E-05 -6.588021E-05 -1.855527E-04 +1.292275E-04 +1.826027E-05 +1.292275E-04 +1.549716E-04 
 +4.949300E-03 -3.100041E-05 -1.837832E-05 -3.100041E-05 -6.709300E-05 +2.434710E-04 -1.837832E-05 +2.434710E-04 +5.770993E-05 
 +4.603616E-03 -7.646263E-05 -1.035825E-06 -7.646263E-05 +2.793990E-04 +2.040331E-04 -1.035825E-06 +2.040331E-04 -1.726599E-05 
 +4.631562E-03 -1.240603E-04 -7.504776E-06 -1.240603E-04 +3.656223E-04 +1.581360E-04 -7.504776E-06 +1.581360E-04 -1.351071E-04 
 +4.918902E-03 -7.200068E-05 -3.097136E-07 -7.200068E-05 +2.515427E-04 +2.065144E-04 -3.097136E-07 +2.065144E-04 -3.419400E-04 
 +4.974116E-03 +6.388217E-06 +8.670054E-05 +6.388217E-06 +2.094674E-04 +1.620064E-04 +8.670054E-05 +1.620064E-04 -3.835570E-04 
 +5.021588E-03 +3.270756E-05 +4.305849E-05 +3.270756E-05 +1.585788E-04 +5.345846E-05 +4.305849E-05 +5.345846E-05 -2.731132E-04 
 +5.117194E-03 -1.928352E-05 +7.398064E-05 -1.928352E-05 +1.873032E-05 -1.013472E-05 +7.398064E-05 -1.013472E-05 -1.873197E-04 
 +5.150718E-03 -5.598774E-05 +4.921508E-05 -5.598774E-05 -9.231112E-05 -1.223248E-04 +4.921508E-05 -1.223248E-04 -5.647420E-05 
 +5.139380E-03 +3.222177E-05 +4.355115E-05 +3.222177E-05 -1.487675E-04 -2.732756E-04 +4.355115E-05 -2.732756E-04 +1.445487E-04 
 +5.107573E-03 -2.462676E-05 +3.491311E-05 -2.462676E-05 -2.028352E-04 -2.498416E-04 +3.491311E-05 -2.498416E-04 +2.452256E-04 
 +5.045543E-03 -1.385818E-04 -4.552845E-06 -1.385818E-04 -8.163094E-05 -1.647915E-04 -4.552845E-06 -1.647915E-04 +2.444012E-04 
 +4.718382E-03 -2.826108E-05 -7.870601E-05 -2.826108E-05 +1.973177E-05 -1.562002E-04 -7.870601E-05 -1.562002E-04 +2.175880E-04 
 +5.038748E-03 +1.640779E-06 +4.878636E-05 +1.640779E-06 -1.406978E-04 -9.242325E-05 +4.878636E-05 -9.242325E-05 +1.870749E-04 
 +5.007295E-03 +9.297630E-05 +1.008459E-04 +9.297630E-05 -1.634851E-04 +1.270480E-05 +1.008459E-04 +1.270480E-05 +2.361837E-04 
 +4.968154E-03 +7.644143E-05 +4.470255E-05 +7.644143E-05 -3.878158E-05 -3.193322E-05 +4.470255E-05 -3.193322E-05 +2.145325E-04 
 +5.022841E-03 +7.288729E-05 +4.990397E-05 +7.288729E-05 -2.445162E-05 -2.331152E-04 +4.990397E-05 -2.331152E-04 +7.196834E-05 
 +5.025523E-03 -1.981519E-06 -1.259873E-04 -1.981519E-06 +1.008263E-04 -3.011889E-04 -1.259873E-04 -3.011889E-04 -2.026175E-05 
 +5.108573E-03 +3.085413E-06 -3.627966E-05 +3.085413E-06 +1.731506E-04 -3.199235E-04 -3.627966E-05 -3.199235E-04 -6.512086E-05 
 +5.158721E-03 -5.716218E-05 -8.245412E-05 -5.716218E-05 +1.950222E-04 -2.235416E-04 -8.245412E-05 -2.235416E-04 -8.191157E-05 
 +5.089134E-03 -6.792278E-05 -7.893324E-05 -6.792278E-05 +1.050525E-04 -1.053818E-04 -7.893324E-05 -1.053818E-04 +1.741156E-04 
 +4.702110E-03 +3.282500E-07 -8.185797E-05 +3.282500E-07 +3.734553E-04 -6.344073E-05 -8.185797E-05 -6.344073E-05 +3.109431E-04 
 +4.599825E-03 +2.414725E-05 -1.122277E-04 +2.414725E-05 +5.079217E-04 +4.506355E-05 -1.122277E-04 +4.506355E-05 +1.206595E-04 
 +4.641117E-03 +1.255159E-05 -1.018971E-04 +1.255159E-05 +2.543811E-04 +2.137754E-04 -1.018971E-04 +2.137754E-04 -7.757520E-05 
 +4.876959E-03 -1.269054E-05 -2.626991E-05 -1.269054E-05 +1.457506E-04 +2.835900E-04 -2.626991E-05 +2.835900E-04 -2.274238E-04 
 +5.016187E-03 +6.087020E-05 +8.874192E-06 +6.087020E-05 +1.941402E-04 +2.001481E-04 +8.874192E-06 +2.001481E-04 -3.275176E-04 
 +5.023840E-03 +9.077820E-05 +7.698605E-05 +9.077820E-05 +1.804948E-04 +5.400971E-05 +7.698605E-05 +5.400971E-05 -2.963165E-04 
 +5.127116E-03 +8.214756E-05 +2.899822E-05 +8.214756E-05 +8.259085E-05 +2.203031E-06 +2.899822E-05 +2.203031E-06 -1.599145E-04 
 +5.120677E-03 -3.972502E-06 +1.398233E-05 -3.972502E-06 +6.533430E-05 -3.344945E-05 +1.398233E-05 -3.344945E-05 -7.233987E-05 
 +5.104014E-03 -7.005634E-05 +2.024805E-05 -7.005634E-05 +1.155981E-04 -2.029804E-04 +2.024805E-05 -2.029804E-04 +7.590919E-06 
 +5.092689E-03 +1.992338E-05 +4.514591E-05 +1.992338E-05 +7.985422E-05 -3.411090E-04 +4.514591E-05 -3.411090E-04 +1.647111E-04 
 +5.095626E-03 +1.886827E-05 +6.287395E-05 +1.886827E-05 +2.883490E-05 -2.976161E-04 +6.287395E-05 -2.976161E-04 +2.334163E-04 
 +5.022499E-03 -5.166206E-05 +7.393908E-05 -5.166206E-05 +4.070359E-06 -3.509246E-04 +7.393908E-05 -3.509246E-04 +2.535334E-04 
 +4.891811E-03 -3.781277E-05 +6.626467E-05 -3.781277E-05 -1.442322E-04 -4.249892E-04 +6.626467E-05 -4.249892E-04 +2.411197E-04 
 +4.909426E-03 +8.096478E-06 +1.009312E-04 +8.096478E-06 -2.515392E-04 -2.185065E-04 +1.009312E-04 -2.185065E-04 +1.955935E-04 
 +4.947466E-03 +1.129822E-04 +5.447811E-05 +1.129822E-04 -1.745485E-04 -7.644877E-05 +5.447811E-05 -7.644877E-05 +1.677137E-04 
 +5.048630E-03 +8.531992E-05 -2.124076E-05 +8.531992E-05 -3.466814E-05 -1.934174E-04 -2.124076E-05 -1.934174E-04 +4.461799E-05 
 +5.030041E-03 +6.569047E-05 +6.023934E-05 +6.569047E-05 +7.166581E-05 -2.984357E-04 +6.023934E-05 -2.984357E-04 -1.085337E-04 
 +5.131721E-03 -1.367905E-07 +3.183327E-05 -1.367905E-07 +7.347098E-05 -3.281832E-04 +3.183327E-05 -3.281832E-04 -8.467706E-05 
 +5.224648E-03 -2.274597E-05 +8.558869E-05 -2.274597E-05 +4.214762E-05 -3.325947E-04 +8.558869E-05 -3.325947E-04 -6.817488E-05 
 +5.226639E-03 -1.472820E-04 +7.571207E-07 -1.472820E-04 +1.646610E-04 -3.767225E-04 +7.571207E-07 -3.767225E-04 -5.859111E-06 
 +4.851341E-03 -1.478955E-04 -1.164454E-04 -1.478955E-04 +4.684800E-04 -2.725090E-04 -1.164454E-04 -2.725090E-04 +1.115867E-04 
 +4.653585E-03 +1.267604E-05 -1.072306E-04 +1.267604E-05 +4.871342E-04 -1.043011E-04 -1.072306E-04 -1.043011E-04 +1.575091E-04 
 +4.523478E-03 +8.312940E-05 -7.906145E-05 +8.312940E-05 +3.627313E-04 -2.597776E-06 -7.906145E-05 -2.597776E-06 +1.746932E-04 
 +4.686020E-03 +1.086945E-04 -9.224086E-05 +1.086945E-04 +2.438628E-04 +6.814054E-05 -9.224086E-05 +6.814054E-05 +8.891501E-05 
 +5.029669E-03 +8.623172E-05 +1.697222E-05 +8.623172E-05 +9.249595E-05 +8.489311E-05 +1.697222E-05 +8.489311E-05 -8.851823E-05 
 +5.074401E-03 +1.292410E-04 +1.735269E-05 +1.292410E-04 +7.656619E-05 +3.098034E-05 +1.735269E-05 +3.098034E-05 -1.407807E-04 
 +5.104564E-03 +1.357915E-04 +4.084893E-05 +1.357915E-04 +9.077579E-05 -2.797702E-05 +4.084893E-05 -2.797702E-05 -9.820152E-05 
 +5.118201E-03 +8.444953E-05 -6.620916E-06 +8.444953E-05 +7.484230E-05 -7.976452E-06 -6.620916E-06 -7.976452E-06 -1.178046E-05 
 +5.092927E-03 +7.557940E-05 +3.874107E-06 +7.557940E-05 +1.466199E-04 +2.175500E-05 +3.874107E-06 +2.175500E-05 +6.228291E-05 
 +5.052168E-03 -3.660055E-05 -1.960660E-05 -3.660055E-05 +1.718667E-04 -1.837079E-04 -1.960660E-05 -1.837079E-04 +7.657214E-05 
 +5.079856E-03 -3.357391E-06 +5.389729E-05 -3.357391E-06 +6.125807E-05 -3.891999E-04 +5.389729E-05 -3.891999E-04 +1.339835E-04 
 +5.119143E-03 +6.031784E-05 +4.380223E-05 +6.031784E-05 +1.196531E-05 -3.156144E-04 +4.380223E-05 -3.156144E-04 +1.894194E-04 
 +5.122626E-03 +4.971782E-05 +9.594824E-06 +4.971782E-05 -4.527100E-05 -2.831591E-04 +9.594824E-06 -2.831591E-04 +2.130653E-04 
 +4.967377E-03 +5.359450E-05 +6.453037E-05 +5.359450E-05 -2.572917E-05 -3.392649E-04 +6.453037E-05 -3.392649E-04 +1.564128E-04 
 +4.721605E-03 +1.167822E-04 +1.082218E-04 +1.167822E-04 +1.583155E-04 -2.374540E-04 +1.082218E-04 -2.374540E-04 +1.290618E-04 
 +4.778854E-03 +1.687885E-04 -8.037692E-07 +1.687885E-04 +1.475934E-04 -1.668981E-04 -8.037692E-07 -1.668981E-04 +1.002140E-04 
 +5.097298E-03 +1.202133E-04 -2.423441E-05 +1.202133E-04 +2.867592E-05 -2.736256E-04 -2.423441E-05 -2.736256E-04 -4.101384E-05 
 +5.048482E-03 +5.048321E-05 +8.781921E-05 +5.048321E-05 +5.177216E-05 -3.347425E-04 +8.781921E-05 -3.347425E-04 -1.211311E-04 
 +5.165174E-03 -4.171579E-05 +8.161892E-05 -4.171579E-05 +8.803994E-05 -3.119536E-04 +8.161892E-05 -3.119536E-04 -9.361594E-05 
 +5.201626E-03 -9.754196E-05 +8.397751E-05 -9.754196E-05 +9.965439E-05 -3.029959E-04 +8.397751E-05 -3.029959E-04 -1.121838E-04 
 +5.155285E-03 -1.772930E-04 +1.458487E-05 -1.772930E-04 +1.661165E-04 -3.938878E-04 +1.458487E-05 -3.938878E-04 -4.673635E-05 
 +4.833499E-03 -1.450340E-04 -1.736262E-05 -1.450340E-04 +2.265153E-04 -3.624520E-04 -1.736262E-05 -3.624520E-04 +2.309762E-05 
 +4.733072E-03 -2.605153E-05 +2.471386E-06 -2.605153E-05 +2.578059E-04 -1.800386E-04 +2.471386E-06 -1.800386E-04 +8.394523E-05 
 +4.650683E-03 +3.358175E-05 -3.127186E-05 +3.358175E-05 +2.028315E-04 -5.309553E-05 -3.127186E-05 -5.309553E-05 +2.086665E-04 
 +4.750017E-03 +6.798027E-05 +1.362115E-05 +6.798027E-05 +1.342670E-04 +5.401681E-05 +1.362115E-05 +5.401681E-05 +2.553047E-04 
 +4.991811E-03 +6.910764E-05 +5.553951E-05 +6.910764E-05 +7.931152E-05 +1.030020E-04 +5.553951E-05 +1.030020E-04 +1.503760E-04 
 +5.120079E-03 +1.255973E-04 +4.703907E-05 +1.255973E-04 -1.041327E-05 +5.287917E-05 +4.703907E-05 +5.287917E-05 +1.420876E-06 
 +5.166869E-03 +1.005480E-04 +2.273387E-05 +1.005480E-04 -8.291438E-06 +1.873407E-05 +2.273387E-05 +1.873407E-05 -3.122443E-05 
 +5.130412E-03 +1.095419E-04 +2.648767E-05 +1.095419E-04 +9.195605E-05 +9.212940E-05 +2.648767E-05 +9.212940E-05 +6.102216E-05 
 +5.093656E-03 +1.141876E-04 -1.753298E-05 +1.141876E-04 +1.005949E-04 +1.287934E-04 -1.753298E-05 +1.287934E-04 +1.805714E-04 
 +4.991944E-03 -3.641847E-05 -1.766779E-04 -3.641847E-05 +7.760316E-05 -9.308654E-05 -1.766779E-04 -9.308654E-05 +2.459566E-04 
 +5.030168E-03 -2.555987E-05 -6.572908E-05 -2.555987E-05 +1.101958E-04 -3.735452E-04 -6.572908E-05 -3.735452E-04 +1.420340E-04 
 +5.163119E-03 +1.857060E-05 +1.652665E-05 +1.857060E-05 +2.929625E-05 -4.026340E-04 +1.652665E-05 -4.026340E-04 -1.552777E-05 
 +5.267278E-03 -3.014389E-05 +6.482364E-05 -3.014389E-05 +2.350991E-05 -2.868989E-04 +6.482364E-05 -2.868989E-04 -5.125681E-05 
 +4.931469E-03 +4.239557E-05 +8.560866E-05 +4.239557E-05 +1.507278E-04 -2.117535E-04 +8.560866E-05 -2.117535E-04 -2.698640E-05 
 +4.709002E-03 +1.782408E-04 +5.808524E-05 +1.782408E-04 +2.084376E-04 -9.897346E-05 +5.808524E-05 -9.897346E-05 +9.978660E-05 
 +4.630958E-03 +1.653143E-04 -3.538498E-05 +1.653143E-04 +1.560604E-04 -8.305651E-05 -3.538498E-05 -8.305651E-05 +1.352433E-04 
 +4.917269E-03 +1.669071E-04 -5.137368E-05 +1.669071E-04 +9.228227E-05 -2.081417E-04 -5.137368E-05 -2.081417E-04 -6.486217E-06 
 +5.083738E-03 +7.116680E-05 +2.893287E-05 +7.116680E-05 +1.041044E-04 -2.746003E-04 +2.893287E-05 -2.746003E-04 -1.220277E-04 
 +5.186175E-03 -6.877817E-05 +6.258699E-05 -6.877817E-05 +1.011587E-04 -2.799143E-04 +6.258699E-05 -2.799143E-04 -1.421923E-04 
 +5.093786E-03 -7.487186E-05 +2.217878E-05 -7.487186E-05 +1.975087E-04 -2.501085E-04 +2.217878E-05 -2.501085E-04 -1.299436E-04 
 +5.058577E-03 -1.131443E-04 -3.542975E-05 -1.131443E-04 +2.778605E-04 -2.748387E-04 -3.542975E-05 -2.748387E-04 -1.138084E-04 
 +4.889330E-03 -1.711623E-04 +2.412584E-05 -1.711623E-04 +3.086527E-04 -2.028751E-04 +2.412584E-05 -2.028751E-04 -3.885984E-05 
 +4.831947E-03 -1.008934E-04 -2.582669E-07 -1.008934E-04 +2.460530E-04 -1.094327E-04 -2.582669E-07 -1.094327E-04 +2.734067E-05 
 +4.852070E-03 -2.528105E-05 -7.433760E-06 -2.528105E-05 +1.420440E-04 -1.435914E-05 -7.433760E-06 -1.435914E-05 +9.434074E-05 
 +4.810772E-03 +8.272918E-05 +1.320991E-04 +8.272918E-05 +7.038829E-05 +2.631600E-05 +1.320991E-04 +2.631600E-05 +1.873741E-04 
 +4.954311E-03 +3.769649E-05 +8.072400E-05 +3.769649E-05 +5.566757E-05 -3.787500E-05 +8.072400E-05 -3.787500E-05 +1.967831E-04 
 +5.070577E-03 +6.270723E-05 +1.316943E-04 +6.270723E-05 -8.419318E-06 -3.353851E-05 +1.316943E-04 -3.353851E-05 +6.745150E-05 
 +5.170167E-03 +9.397455E-05 +8.539111E-05 +9.397455E-05 -2.380119E-05 +6.565352E-06 +8.539111E-05 +6.565352E-06 +1.336433E-05 
 +5.199604E-03 +4.410862E-05 +1.330268E-04 +4.410862E-05 +3.220480E-06 +8.669758E-05 +1.330268E-04 +8.669758E-05 +8.868422E-05 
 +5.084905E-03 -1.746924E-05 -7.012541E-05 -1.746924E-05 -2.234720E-05 +1.318126E-04 -7.012541E-05 +1.318126E-04 +1.733085E-04 
 +5.025702E-03 -1.084154E-05 -1.906251E-04 -1.084154E-05 +6.209227E-05 +1.280513E-04 -1.906251E-04 +1.280513E-04 +2.154938E-04 
 +5.028012E-03 +3.052058E-05 -1.838937E-04 +3.052058E-05 +1.990712E-04 +1.316528E-04 -1.838937E-04 +1.316528E-04 +4.628353E-05 
 +5.132127E-03 +2.980193E-05 -3.571247E-05 +2.980193E-05 +2.750933E-04 +1.294547E-04 -3.571247E-05 +1.294547E-04 -1.495183E-04 
 +5.167975E-03 -6.956017E-05 +7.495730E-05 -6.956017E-05 +2.488851E-04 +1.117411E-05 +7.495730E-05 +1.117411E-05 -2.126166E-04 
 +5.059696E-03 -4.075896E-05 +9.459533E-05 -4.075896E-05 +1.510046E-04 -1.775615E-04 +9.459533E-05 -1.775615E-04 -1.295525E-04 
 +4.762433E-03 +1.209602E-04 +8.554431E-05 +1.209602E-04 +1.243149E-04 -1.378727E-04 +8.554431E-05 -1.378727E-04 +1.680197E-04 
 +4.647724E-03 +1.406136E-04 +4.582999E-06 +1.406136E-04 +1.841505E-04 -5.324829E-05 +4.582999E-06 -5.324829E-05 +2.653218E-04 
 +4.660599E-03 +2.160259E-04 -3.143168E-05 +2.160259E-04 +2.395765E-04 -8.377238E-05 -3.143168E-05 -8.377238E-05 +1.178982E-04 
 +5.080278E-03 +9.539531E-05 -5.884003E-05 +9.539531E-05 +1.751774E-04 -1.831211E-04 -5.884003E-05 -1.831211E-04 -8.400347E-05 
 +5.157603E-03 -4.506134E-05 -6.868365E-07 -4.506134E-05 +1.323965E-04 -2.441502E-04 -6.868365E-07 -2.441502E-04 -1.593328E-04 
 +5.037046E-03 -1.989078E-05 -8.212102E-05 -1.989078E-05 +1.985329E-04 -2.635158E-04 -8.212102E-05 -2.635158E-04 -1.401554E-04 
 +4.992042E-03 +5.449483E-06 -4.919891E-05 +5.449483E-06 +2.162945E-04 -2.914695E-04 -4.919891E-05 -2.914695E-04 -1.439901E-04 
 +4.873229E-03 -3.581646E-05 +3.067287E-05 -3.581646E-05 +3.628234E-04 -1.967646E-04 +3.067287E-05 -1.967646E-04 -1.344481E-04 
 +4.915412E-03 -7.605824E-05 -3.766903E-05 -7.605824E-05 +3.888487E-04 -6.761353E-05 -3.766903E-05 -6.761353E-05 -1.180232E-04 
 +4.984881E-03 -9.036356E-05 +1.192844E-06 -9.036356E-05 +2.889045E-04 +3.390420E-05 +1.192844E-06 +3.390420E-05 -7.625411E-05 
 +4.955390E-03 +2.561568E-08 +1.024941E-04 +2.561568E-08 +1.706604E-04 +5.001173E-05 +1.024941E-04 +5.001173E-05 +1.288935E-05 
 +4.913078E-03 +8.172844E-05 +1.123818E-04 +8.172844E-05 +1.026847E-04 +2.137646E-05 +1.123818E-04 +2.137646E-05 +1.053975E-04 
 +4.986141E-03 +4.845281E-05 +1.623687E-04 +4.845281E-05 +1.083641E-04 -3.999537E-05 +1.623687E-04 -3.999537E-05 +1.284423E-04 
 +5.098755E-03 +1.096728E-04 +1.208086E-04 +1.096728E-04 +6.610884E-05 -1.249313E-04 +1.208086E-04 -1.249313E-04 +1.442321E-04 
 +5.194405E-03 -2.849737E-05 +2.089086E-04 -2.849737E-05 -2.214275E-05 -1.036872E-04 +2.089086E-04 -1.036872E-04 +2.052455E-04 
 +5.129312E-03 -4.717394E-05 +1.186918E-05 -4.717394E-05 -8.429839E-05 -5.311212E-05 +1.186918E-05 -5.311212E-05 +1.878234E-04 
 +5.096638E-03 +2.279148E-06 -4.002987E-05 +2.279148E-06 -5.050167E-05 -3.839931E-05 -4.002987E-05 -3.839931E-05 +1.345327E-04 
 +5.071316E-03 -1.181340E-05 -1.132660E-04 -1.181340E-05 -2.263719E-07 -6.050984E-06 -1.132660E-04 -6.050984E-06 +4.842042E-05 
 +5.068026E-03 -2.303342E-05 -6.036171E-05 -2.303342E-05 +2.978338E-05 -2.653887E-05 -6.036171E-05 -2.653887E-05 +2.565295E-05 
 +5.049326E-03 -9.182929E-05 -2.945331E-05 -9.182929E-05 +7.837243E-05 -1.196447E-04 -2.945331E-05 -1.196447E-04 -5.196974E-05 
 +5.087338E-03 -7.364311E-05 +2.235134E-05 -7.364311E-05 +1.608673E-04 -1.171592E-04 +2.235134E-05 -1.171592E-04 -1.567773E-04 
 +4.820105E-03 +1.611183E-05 +1.162090E-04 +1.611183E-05 +1.859603E-04 -3.336304E-05 +1.162090E-04 -3.336304E-05 +7.862818E-05 
 +4.769040E-03 +6.311059E-05 +3.689482E-05 +6.311059E-05 +1.633732E-04 -3.259263E-05 +3.689482E-05 -3.259263E-05 +2.287643E-04 
 +4.633359E-03 +2.302462E-04 -1.439132E-05 +2.302462E-04 +1.691913E-04 -1.246056E-04 -1.439132E-05 -1.246056E-04 +1.269153E-04 
 +4.991672E-03 +1.256448E-04 -1.296107E-04 +1.256448E-04 +1.742005E-04 -2.271592E-04 -1.296107E-04 -2.271592E-04 -4.270940E-05 
 +5.071740E-03 +1.884419E-05 -5.983397E-05 +1.884419E-05 +1.974650E-04 -2.389596E-04 -5.983397E-05 -2.389596E-04 -1.454712E-04 
 +4.997040E-03 +2.787571E-05 -1.107050E-04 +2.787571E-05 +2.756846E-04 -2.590972E-04 -1.107050E-04 -2.590972E-04 -1.827165E-04 
 +4.933342E-03 +6.047556E-05 +9.891673E-06 +6.047556E-05 +4.760024E-04 -1.279207E-04 +9.891673E-06 -1.279207E-04 -1.822942E-04 
 +4.923281E-03 -1.453340E-05 +2.356319E-05 -1.453340E-05 +4.774674E-04 -3.070132E-05 +2.356319E-05 -3.070132E-05 -1.663252E-04 
 +4.952564E-03 -8.248764E-05 -1.605325E-05 -8.248764E-05 +4.090897E-04 +1.760935E-05 -1.605325E-05 +1.760935E-05 -1.473206E-04 
 +5.004498E-03 -7.813905E-05 +7.943278E-06 -7.813905E-05 +3.547518E-04 +1.073023E-04 +7.943278E-06 +1.073023E-04 -1.421650E-04 
 +5.102968E-03 -7.044283E-05 +7.622968E-05 -7.044283E-05 +2.312717E-04 +1.532072E-04 +7.622968E-05 +1.532072E-04 -9.586137E-05 
 +4.922336E-03 +6.899480E-05 +1.225254E-04 +6.899480E-05 +1.753752E-04 +5.301639E-05 +1.225254E-04 +5.301639E-05 +3.918255E-05 
 +4.901420E-03 +4.957778E-05 +1.463109E-04 +4.957778E-05 +1.979562E-04 -6.256642E-05 +1.463109E-04 -6.256642E-05 +1.062684E-04 
 +5.011945E-03 +7.962148E-05 +1.390820E-04 +7.962148E-05 +1.418689E-04 -1.153020E-04 +1.390820E-04 -1.153020E-04 +1.065059E-04 
 +5.192302E-03 -4.389056E-05 +1.822657E-04 -4.389056E-05 +1.368293E-05 -1.558146E-04 +1.822657E-04 -1.558146E-04 +1.093511E-04 
 +5.177074E-03 +3.518401E-06 +7.217195E-05 +3.518401E-06 -3.752597E-05 -1.461086E-04 +7.217195E-05 -1.461086E-04 +9.751750E-05 
 +5.114611E-03 +6.249849E-05 -7.281023E-06 +6.249849E-05 -2.480498E-05 -1.001019E-04 -7.281023E-06 -1.001019E-04 +7.687822E-05 
 +5.089247E-03 +2.328592E-05 -8.926144E-05 +2.328592E-05 -2.607522E-05 -7.718059E-05 -8.926144E-05 -7.718059E-05 +8.241394E-05 
 +5.010961E-03 -6.195393E-06 -7.573284E-05 -6.195393E-06 -4.792131E-05 -1.172625E-04 -7.573284E-05 -1.172625E-04 +1.420382E-04 
 +4.995756E-03 -2.777651E-05 -1.741288E-05 -2.777651E-05 +3.953595E-05 -1.913293E-04 -1.741288E-05 -1.913293E-04 +7.617575E-05 
 +4.938535E-03 -3.229042E-05 +4.797880E-05 -3.229042E-05 +2.590290E-04 -1.804423E-04 +4.797880E-05 -1.804423E-04 -1.374564E-04 
 +4.895298E-03 -7.217999E-05 +9.799871E-05 -7.217999E-05 +3.225911E-04 -1.280332E-04 +9.799871E-05 -1.280332E-04 -1.792857E-04 
 +4.827243E-03 -2.454918E-05 +2.697382E-05 -2.454918E-05 +2.523303E-04 -1.572516E-04 +2.697382E-05 -1.572516E-04 -1.098018E-04 
 +4.776999E-03 +6.173211E-05 -3.122599E-05 +6.173211E-05 +1.451938E-04 -2.466839E-04 -3.122599E-05 -2.466839E-04 +2.615225E-05 
 +4.951184E-03 +6.311358E-05 -1.230322E-04 +6.311358E-05 +9.855552E-05 -2.879841E-04 -1.230322E-04 -2.879841E-04 +1.158611E-04 
 +5.019731E-03 +2.927235E-05 -1.164363E-04 +2.927235E-05 +1.500947E-04 -2.893807E-04 -1.164363E-04 -2.893807E-04 -4.891815E-05 
 +4.958844E-03 +9.769921E-05 -1.874065E-05 +9.769921E-05 +5.904532E-04 -1.056267E-04 -1.874065E-05 -1.056267E-04 -2.132562E-04 
 +4.960899E-03 +3.662420E-05 +3.246569E-05 +3.662420E-05 +6.226815E-04 -7.968541E-05 +3.246569E-05 -7.968541E-05 -2.727569E-04 
 +4.992050E-03 -2.301821E-05 +3.434274E-06 -2.301821E-05 +5.211135E-04 -6.858685E-05 +3.434274E-06 -6.858685E-05 -2.027649E-04 
 +4.988216E-03 -8.927059E-05 -2.806934E-05 -8.927059E-05 +4.687847E-04 -2.288204E-05 -2.806934E-05 -2.288204E-05 -9.045932E-05 
 +5.093302E-03 -1.317325E-04 +1.956548E-05 -1.317325E-04 +3.211225E-04 +5.284557E-05 +1.956548E-05 +5.284557E-05 -1.057223E-04 
 +5.125330E-03 -6.600922E-05 +5.226492E-05 -6.600922E-05 +2.128377E-04 +7.260034E-05 +5.226492E-05 +7.260034E-05 -1.024653E-04 
 +4.971438E-03 +1.168015E-04 -1.831432E-05 +1.168015E-04 +2.133781E-04 -5.344776E-05 -1.831432E-05 -5.344776E-05 +6.156801E-05 
 +4.882932E-03 +1.172421E-04 +1.041500E-04 +1.172421E-04 +2.322759E-04 -1.471134E-04 +1.041500E-04 -1.471134E-04 +1.095663E-04 
 +4.963381E-03 +9.124294E-05 +1.490628E-04 +9.124294E-05 +1.389219E-04 -1.733979E-04 +1.490628E-04 -1.733979E-04 -1.265251E-05 
 +5.175171E-03 +5.982674E-06 +1.137351E-04 +5.982674E-06 +3.955806E-05 -2.048683E-04 +1.137351E-04 -2.048683E-04 -1.396480E-04 
 +5.185700E-03 +7.546849E-05 +8.029510E-06 +7.546849E-05 +7.326717E-05 -2.093911E-04 +8.029510E-06 -2.093911E-04 -1.614051E-04 
 +5.164983E-03 +1.103724E-04 -2.922624E-05 +1.103724E-04 +9.124971E-05 -1.950668E-04 -2.922624E-05 -1.950668E-04 -1.379496E-04 
 +5.153076E-03 +1.262898E-04 -1.113783E-04 +1.262898E-04 +8.010610E-05 -1.126353E-04 -1.113783E-04 -1.126353E-04 -3.115682E-05 
 +4.934902E-03 +1.357755E-04 -3.771624E-05 +1.357755E-04 +1.265296E-04 +1.708017E-06 -3.771624E-05 +1.708017E-06 +9.042909E-05 
 +4.881469E-03 +1.394022E-04 +4.921159E-05 +1.394022E-04 +1.747840E-04 +3.109825E-05 +4.921159E-05 +3.109825E-05 +7.851642E-05 
 +4.811502E-03 +1.684254E-04 +1.008005E-04 +1.684254E-04 +2.101971E-04 -1.140621E-05 +1.008005E-04 -1.140621E-05 -2.874266E-05 
 +4.869157E-03 +3.854936E-05 +9.627563E-05 +3.854936E-05 +3.157520E-04 -7.619748E-05 +9.627563E-05 -7.619748E-05 -1.442018E-04 
 +4.823174E-03 -8.598347E-06 +1.203055E-04 -8.598347E-06 +3.522154E-04 -7.015160E-05 +1.203055E-04 -7.015160E-05 -1.778707E-04 
 +4.847356E-03 -2.078540E-05 +3.232696E-06 -2.078540E-05 +1.862291E-04 -9.316203E-05 +3.232696E-06 -9.316203E-05 -3.342847E-05 
 +4.962217E-03 +5.991936E-06 -6.848830E-05 +5.991936E-06 -3.855793E-05 -2.344098E-04 -6.848830E-05 -2.344098E-04 +1.251299E-04 
 +4.993254E-03 +1.113891E-04 -6.989936E-05 +1.113891E-04 +1.538573E-04 -2.257116E-04 -6.989936E-05 -2.257116E-04 -1.873153E-05 
 +5.000813E-03 +2.216663E-04 +3.538181E-05 +2.216663E-04 +6.488113E-05 -1.075418E-04 +3.538181E-05 -1.075418E-04 -1.006957E-04 
 +5.047791E-03 +2.830361E-05 +2.662389E-05 +2.830361E-05 +8.644547E-05 -6.827287E-05 +2.662389E-05 -6.827287E-05 -1.222068E-04 
 +5.062290E-03 -3.621579E-05 +4.987820E-06 -3.621579E-05 -5.679802E-05 -1.824234E-05 +4.987820E-06 -1.824234E-05 -6.033784E-05 
 +5.022286E-03 -9.590428E-05 +1.753283E-05 -9.590428E-05 -2.518490E-04 +5.505450E-05 +1.753283E-05 +5.505450E-05 +1.066882E-05 
 +5.129037E-03 -1.418672E-04 +9.853600E-06 -1.418672E-04 -2.996621E-04 +3.837063E-05 +9.853600E-06 +3.837063E-05 -9.290352E-06 
 +5.105021E-03 -4.774737E-05 -1.697839E-05 -4.774737E-05 -1.344806E-04 -1.167518E-04 -1.697839E-05 -1.167518E-04 +2.348778E-05 
 +4.989508E-03 +1.697460E-05 -1.091745E-04 +1.697460E-05 -6.174998E-05 -2.090178E-04 -1.091745E-04 -2.090178E-04 +8.784611E-05 
 +4.957388E-03 +4.125404E-05 +4.455030E-05 +4.125404E-05 -1.544618E-04 -2.240609E-04 +4.455030E-05 -2.240609E-04 +1.022766E-04 
 +4.968273E-03 +3.571737E-05 +5.352593E-05 +3.571737E-05 -1.360210E-04 -2.468248E-04 +5.352593E-05 -2.468248E-04 +3.926928E-05 
 +5.097142E-03 +5.037694E-06 +9.334785E-05 +5.037694E-06 -5.788559E-05 -2.229642E-04 +9.334785E-05 -2.229642E-04 -1.105250E-04 
 +5.190614E-03 +6.436031E-05 -1.396035E-05 +6.436031E-05 -4.135622E-05 -1.645892E-04 -1.396035E-05 -1.645892E-04 -2.536967E-04 
 +5.230645E-03 +7.520153E-05 -9.967747E-05 +7.520153E-05 -7.673788E-05 -1.730527E-04 -9.967747E-05 -1.730527E-04 -2.403529E-04 
 +5.127546E-03 +5.014693E-05 -9.093142E-05 +5.014693E-05 -4.526695E-05 -1.523426E-04 -9.093142E-05 -1.523426E-04 -7.551151E-05 
 +4.877099E-03 +2.404930E-05 +5.464155E-05 +2.404930E-05 +7.192500E-05 -8.554908E-05 +5.464155E-05 -8.554908E-05 +2.884804E-05 
 +4.801592E-03 +3.214163E-05 +7.838571E-05 +3.214163E-05 +1.606641E-04 -5.494778E-05 +7.838571E-05 -5.494778E-05 +4.410997E-05 
 +4.800957E-03 +1.026277E-04 +8.662684E-05 +1.026277E-04 +1.488393E-04 -1.729617E-05 +8.662684E-05 -1.729617E-05 +3.423424E-05 
 +4.794739E-03 +9.863465E-05 +1.020844E-04 +9.863465E-05 +1.553525E-04 +8.175377E-05 +1.020844E-04 +8.175377E-05 +2.972522E-05 
 +4.830535E-03 +1.119466E-05 +1.687367E-04 +1.119466E-05 +2.040838E-04 +1.084318E-04 +1.687367E-04 +1.084318E-04 -9.486866E-06 
 +4.880155E-03 -2.406448E-05 -1.436710E-05 -2.406448E-05 +2.443576E-04 -5.182648E-05 -1.436710E-05 -5.182648E-05 -1.300903E-04 
 +4.883243E-03 +2.228106E-05 -2.331251E-05 +2.228106E-05 +3.422229E-04 -2.040388E-04 -2.331251E-05 -2.040388E-04 -1.414548E-04 
 +4.941646E-03 +1.784407E-04 +1.115966E-05 +1.784407E-04 +2.201051E-04 -1.762477E-04 +1.115966E-05 -1.762477E-04 -1.094958E-04 
 +5.027243E-03 +2.296310E-04 +2.512460E-05 +2.296310E-04 -2.367043E-04 -1.130575E-04 +2.512460E-05 -1.130575E-04 +6.340633E-05 
 +5.120907E-03 +6.705574E-05 +5.786724E-05 +6.705574E-05 -4.452279E-04 -7.692346E-05 +5.786724E-05 -7.692346E-05 +1.841654E-04 
 +5.106192E-03 -3.406142E-05 +1.779375E-05 -3.406142E-05 -4.067951E-04 -1.029580E-05 +1.779375E-05 -1.029580E-05 +2.179117E-04 
 +5.042408E-03 -9.581206E-05 +4.631425E-05 -9.581206E-05 -3.075126E-04 -6.011880E-06 +4.631425E-05 -6.011880E-06 +1.961554E-04 
 +5.063834E-03 -8.797507E-05 +1.057772E-05 -8.797507E-05 -1.425372E-04 -1.554927E-04 +1.057772E-05 -1.554927E-04 +1.151090E-04 
 +5.073582E-03 +5.004541E-06 -5.551469E-06 +5.004541E-06 -6.078519E-05 -2.029602E-04 -5.551469E-06 -2.029602E-04 +6.199542E-05 
 +5.015223E-03 +3.702888E-07 -5.805764E-05 +3.702888E-07 -1.078114E-04 -1.827324E-04 -5.805764E-05 -1.827324E-04 +5.395654E-05 
 +5.020681E-03 +3.965871E-05 -2.754913E-06 +3.965871E-05 -1.325359E-04 -2.431313E-04 -2.754913E-06 -2.431313E-04 +1.113817E-04 
 +5.015793E-03 +5.946992E-05 -6.508020E-05 +5.946992E-05 -1.258879E-04 -2.392044E-04 -6.508020E-05 -2.392044E-04 +1.547725E-04 
 +5.055789E-03 +4.231936E-05 +3.572598E-05 +4.231936E-05 -1.155832E-04 -1.727826E-04 +3.572598E-05 -1.727826E-04 +5.897534E-05 
 +5.163357E-03 +6.365574E-05 -4.875767E-06 +6.365574E-05 -1.590087E-04 -1.997836E-04 -4.875767E-06 -1.997836E-04 -1.368359E-04 
 +5.174286E-03 +5.285274E-05 -1.000146E-04 +5.285274E-05 -1.208202E-04 -1.885004E-04 -1.000146E-04 -1.885004E-04 -1.563384E-04 
 +4.978360E-03 +1.646965E-05 +9.223374E-06 +1.646965E-05 +1.674549E-05 -3.701710E-05 +9.223374E-06 -3.701710E-05 -3.668497E-05 
 +4.853562E-03 -1.043155E-05 +9.120372E-05 -1.043155E-05 +8.298524E-05 +1.684896E-05 +9.120372E-05 +1.684896E-05 +1.148117E-05 
 +4.804391E-03 -3.391056E-06 +6.521362E-05 -3.391056E-06 +1.106589E-04 -2.975532E-05 +6.521362E-05 -2.975532E-05 +3.792750E-05 
 +4.813537E-03 +2.064547E-05 +3.974130E-05 +2.064547E-05 +1.264052E-04 -3.806951E-05 +3.974130E-05 -3.806951E-05 +2.193687E-05 
 +4.817603E-03 +4.488013E-05 +9.047729E-05 +4.488013E-05 +1.074001E-04 +1.697285E-05 +9.047729E-05 +1.697285E-05 +5.279028E-05 
 +4.870395E-03 -5.129304E-06 +8.453020E-05 -5.129304E-06 +1.254053E-04 -2.924694E-06 +8.453020E-05 -2.924694E-06 -1.318949E-05 
 +4.949093E-03 +1.082221E-06 -1.018932E-04 +1.082221E-06 +1.954533E-04 -1.799724E-04 -1.018932E-04 -1.799724E-04 -2.718015E-04 
 +4.864923E-03 +8.750116E-05 -2.902220E-05 +8.750116E-05 +1.997211E-04 -3.048033E-04 -2.902220E-05 -3.048033E-04 -2.979744E-04 
 +4.907179E-03 +1.371061E-04 +9.650716E-06 +1.371061E-04 +5.980407E-05 -2.353231E-04 +9.650716E-06 -2.353231E-04 -1.286790E-04 
 +5.035766E-03 +8.197053E-05 +3.509664E-05 +8.197053E-05 -3.144445E-04 -4.979616E-06 +3.509664E-05 -4.979616E-06 +1.335798E-04 
 +5.139765E-03 +5.033420E-05 +5.602970E-05 +5.033420E-05 -4.448762E-04 +2.231144E-05 +5.602970E-05 +2.231144E-05 +2.556714E-04 
 +5.133350E-03 -3.897786E-06 +2.691548E-05 -3.897786E-06 -4.171945E-04 -2.979308E-06 +2.691548E-05 -2.979308E-06 +2.881416E-04 
 +5.033595E-03 -2.009426E-05 +1.724100E-05 -2.009426E-05 -2.352051E-04 -7.193075E-05 +1.724100E-05 -7.193075E-05 +3.108530E-04 
 +5.026806E-03 +1.434924E-05 +3.959444E-05 +1.434924E-05 -3.749378E-05 -1.379796E-04 +3.959444E-05 -1.379796E-04 +1.898303E-04 
 +5.082325E-03 +4.756205E-06 +7.719060E-05 +4.756205E-06 -4.236823E-07 -1.359072E-04 +7.719060E-05 -1.359072E-04 +3.656119E-05 
 +5.044472E-03 +4.302469E-06 -2.246942E-05 +4.302469E-06 -6.318837E-05 -1.358331E-04 -2.246942E-05 -1.358331E-04 +7.929186E-05 
 +5.053364E-03 +5.406612E-05 -4.999080E-05 +5.406612E-05 -1.012350E-04 -1.420484E-04 -4.999080E-05 -1.420484E-04 +1.729858E-04 
 +5.058550E-03 +1.006414E-04 -1.149644E-04 +1.006414E-04 -9.557213E-05 -1.231231E-04 -1.149644E-04 -1.231231E-04 +1.944618E-04 
 +5.070831E-03 +5.347573E-05 -8.848597E-05 +5.347573E-05 -1.020048E-04 -7.542947E-05 -8.848597E-05 -7.542947E-05 +1.119512E-04 
 +5.042011E-03 +6.602656E-05 +3.902896E-05 +6.602656E-05 -7.988171E-05 +3.855294E-05 +3.902896E-05 +3.855294E-05 -5.322650E-06 
 +4.986776E-03 +7.546013E-05 +4.051605E-05 +7.546013E-05 -2.526428E-06 +1.179569E-04 +4.051605E-05 +1.179569E-04 -3.439490E-05 
 +4.899396E-03 +2.658064E-05 +9.855451E-05 +2.658064E-05 +4.489337E-05 +9.103752E-05 +9.855451E-05 +9.103752E-05 -1.233021E-06 
 +4.838519E-03 -4.449308E-06 +8.112392E-05 -4.449308E-06 +7.391944E-05 +3.588145E-05 +8.112392E-05 +3.588145E-05 +4.492819E-05 
 +4.814617E-03 +3.186650E-06 +4.411110E-05 +3.186650E-06 +1.030503E-04 -5.485191E-06 +4.411110E-05 -5.485191E-06 +7.061525E-05 
 +4.803168E-03 -4.347084E-06 +1.357064E-05 -4.347084E-06 +9.927838E-05 -2.567198E-05 +1.357064E-05 -2.567198E-05 +3.330572E-05 
 +4.849492E-03 +1.843463E-05 +7.977138E-05 +1.843463E-05 +7.364877E-05 -1.522408E-05 +7.977138E-05 -1.522408E-05 +3.988979E-05 
 +4.942469E-03 -2.941485E-05 +8.019046E-05 -2.941485E-05 +3.728222E-05 -4.148684E-05 +8.019046E-05 -4.148684E-05 -1.929807E-05 
 +5.030882E-03 -3.967088E-06 -5.500734E-05 -3.967088E-06 +1.962418E-05 -1.434724E-04 -5.500734E-05 -1.434724E-04 -1.908241E-04 
 +4.944882E-03 +2.045351E-05 -1.562263E-05 +2.045351E-05 -2.686557E-06 -2.093374E-04 -1.562263E-05 -2.093374E-04 -1.801044E-04 
 +4.907304E-03 +1.935563E-05 +5.879824E-05 +1.935563E-05 -1.190522E-04 -1.272636E-04 +5.879824E-05 -1.272636E-04 -4.104568E-05 
 +5.104363E-03 -4.239812E-05 +2.175067E-05 -4.239812E-05 -3.462306E-04 +2.034117E-05 +2.175067E-05 +2.034117E-05 +1.241035E-04 
 +5.120743E-03 -2.829536E-05 +2.794886E-05 -2.829536E-05 -3.546416E-04 +8.756805E-06 +2.794886E-05 +8.756805E-06 +1.822743E-04 
 +5.137667E-03 -3.948557E-05 +1.513332E-05 -3.948557E-05 -3.545865E-04 -3.267017E-06 +1.513332E-05 -3.267017E-06 +2.173342E-04 
 +5.076291E-03 +3.189098E-05 -4.112886E-05 +3.189098E-05 -2.458504E-04 -7.116469E-05 -4.112886E-05 -7.116469E-05 +2.433027E-04 
 +5.072890E-03 +6.511905E-05 -1.164684E-05 +6.511905E-05 -8.042885E-05 -1.902236E-04 -1.164684E-05 -1.902236E-04 +1.779840E-04 
 +5.116978E-03 -1.893149E-05 +1.767490E-04 -1.893149E-05 -5.742072E-05 -1.952966E-04 +1.767490E-04 -1.952966E-04 +1.017309E-04 
 +5.055948E-03 -4.363900E-06 +2.785403E-05 -4.363900E-06 -1.387955E-04 -9.675499E-05 +2.785403E-05 -9.675499E-05 +1.194002E-04 
 +5.089880E-03 +7.299059E-05 -5.733068E-05 +7.299059E-05 -1.716194E-04 -5.052187E-05 -5.733068E-05 -5.052187E-05 +1.532046E-04 
 +5.084619E-03 +1.352886E-04 -1.350904E-04 +1.352886E-04 -1.353127E-04 -8.360125E-05 -1.350904E-04 -8.360125E-05 +1.528500E-04 
 +5.040086E-03 +4.351289E-05 -7.866687E-05 +4.351289E-05 -6.742188E-05 -1.497842E-05 -7.866687E-05 -1.497842E-05 +5.018362E-05 
 +4.903823E-03 +7.448037E-05 +1.074003E-04 +7.448037E-05 -7.787696E-06 +1.288995E-04 +1.074003E-04 +1.288995E-04 +5.886588E-06 
 +4.839666E-03 +1.310005E-04 +1.284902E-04 +1.310005E-04 +5.281293E-05 +1.367627E-04 +1.284902E-04 +1.367627E-04 +4.575744E-05 
 +4.833852E-03 +6.931766E-05 +1.160074E-04 +6.931766E-05 +8.055266E-05 +1.065901E-04 +1.160074E-04 +1.065901E-04 +5.744329E-05 
 +4.817522E-03 +3.040813E-05 +7.530361E-05 +3.040813E-05 +8.053130E-05 +8.165961E-05 +7.530361E-05 +8.165961E-05 +9.054816E-05 
 +4.798773E-03 +1.474744E-05 +3.897866E-05 +1.474744E-05 +7.398729E-05 +3.188784E-05 +3.897866E-05 +3.188784E-05 +1.058012E-04 
 +4.808542E-03 +7.044410E-06 +5.286512E-05 +7.044410E-06 +7.857348E-05 +1.414444E-05 +5.286512E-05 +1.414444E-05 +9.372854E-05 
 +4.858977E-03 -1.743746E-05 +6.521101E-05 -1.743746E-05 +1.769417E-05 -4.741746E-06 +6.521101E-05 -4.741746E-06 +4.682046E-05 
 +4.970313E-03 -8.459862E-05 +9.221025E-05 -8.459862E-05 -1.171009E-04 -6.885243E-05 +9.221025E-05 -6.885243E-05 +3.349199E-06 
 +5.056840E-03 -6.646616E-05 +9.652945E-05 -6.646616E-05 -1.850873E-04 -8.408283E-05 +9.652945E-05 -8.408283E-05 -2.949499E-06 
 +5.000256E-03 -1.094364E-04 +8.291312E-05 -1.094364E-04 -2.324755E-04 -3.883855E-05 +8.291312E-05 -3.883855E-05 +6.705151E-06 
 +4.950292E-03 -1.432054E-04 +1.423293E-04 -1.432054E-04 -3.110014E-04 +6.615068E-06 +1.423293E-04 +6.615068E-06 +4.169007E-05 
 +5.118642E-03 -5.981821E-05 -3.181645E-05 -5.981821E-05 -3.541408E-04 -4.029437E-05 -3.181645E-05 -4.029437E-05 +1.197713E-04 
 +5.129094E-03 -6.419067E-05 -2.538079E-05 -6.419067E-05 -3.587857E-04 -4.097602E-05 -2.538079E-05 -4.097602E-05 +1.529720E-04 
 +5.154439E-03 -6.258881E-05 -2.991931E-05 -6.258881E-05 -3.408920E-04 -4.323431E-05 -2.991931E-05 -4.323431E-05 +1.569975E-04 
 +5.162177E-03 +7.659064E-06 -4.809554E-05 +7.659064E-06 -3.233915E-04 +4.699641E-06 -4.809554E-05 +4.699641E-06 +1.772461E-04 
 +5.159011E-03 +3.277256E-05 -2.168168E-05 +3.277256E-05 -3.519384E-04 +1.408398E-04 -2.168168E-05 +1.408398E-04 +2.103383E-04 
 +5.145481E-03 -2.082670E-05 +1.220032E-04 -2.082670E-05 -2.636293E-04 +1.585737E-04 +1.220032E-04 +1.585737E-04 +1.910178E-04 
 +5.051384E-03 +4.337549E-05 +1.037334E-05 +4.337549E-05 -1.435323E-04 +5.324948E-05 +1.037334E-05 +5.324948E-05 +1.110594E-04 
 +5.092796E-03 +7.082682E-05 -5.073033E-05 +7.082682E-05 -2.128851E-04 +7.690424E-06 -5.073033E-05 +7.690424E-06 +3.387666E-05 
 +5.030752E-03 +1.396551E-04 -2.050515E-04 +1.396551E-04 -1.813955E-04 +7.381661E-06 -2.050515E-04 +7.381661E-06 +8.325743E-05 
 +4.967159E-03 +1.327419E-04 -1.680493E-04 +1.327419E-04 -5.687032E-05 +8.523044E-05 -1.680493E-04 +8.523044E-05 +1.367743E-04 
 +4.882818E-03 +8.539700E-05 +1.166072E-04 +8.539700E-05 +2.101643E-06 +1.611997E-04 +1.166072E-04 +1.611997E-04 +7.404536E-05 
 +4.805760E-03 +8.212972E-05 +1.928510E-04 +8.212972E-05 +7.033644E-05 +1.502948E-04 +1.928510E-04 +1.502948E-04 +6.813813E-05 
 +4.783789E-03 +5.719832E-05 +1.268232E-04 +5.719832E-05 +9.875857E-05 +1.537249E-04 +1.268232E-04 +1.537249E-04 +1.354826E-04 
 +4.777979E-03 +3.491614E-05 +5.583745E-05 +3.491614E-05 +8.825806E-05 +1.297913E-04 +5.583745E-05 +1.297913E-04 +1.740774E-04 
 +4.755230E-03 +2.307977E-05 +3.677618E-05 +2.307977E-05 +6.988144E-05 +7.414782E-05 +3.677618E-05 +7.414782E-05 +1.893145E-04 
 +4.828424E-03 -3.084549E-05 +3.358087E-05 -3.084549E-05 -2.353472E-05 -4.657353E-05 +3.358087E-05 -4.657353E-05 +1.855623E-04 
 +4.909357E-03 -9.493800E-05 +7.808738E-05 -9.493800E-05 -1.968577E-04 -1.495643E-04 +7.808738E-05 -1.495643E-04 +1.537944E-04 
 +4.953229E-03 -1.001632E-04 +7.552087E-05 -1.001632E-04 -2.691046E-04 -1.198804E-04 +7.552087E-05 -1.198804E-04 +6.552607E-05 
 +5.019294E-03 -1.080299E-04 +5.351900E-05 -1.080299E-04 -2.633086E-04 -8.054297E-05 +5.351900E-05 -8.054297E-05 -4.309622E-05 
 +5.044838E-03 -1.662339E-04 +5.417846E-05 -1.662339E-04 -2.545874E-04 -7.773077E-05 +5.417846E-05 -7.773077E-05 -5.418218E-05 
 +4.966550E-03 -2.121533E-04 +1.979015E-04 -2.121533E-04 -2.903633E-04 -6.226948E-05 +1.979015E-04 -6.226948E-05 +3.940223E-05 
 +5.167387E-03 -7.508634E-05 -7.048602E-05 -7.508634E-05 -2.667460E-04 -7.980799E-05 -7.048602E-05 -7.980799E-05 +3.259489E-05 
 +5.159410E-03 -5.740122E-05 -3.579666E-05 -5.740122E-05 -2.883844E-04 -3.782817E-05 -3.579666E-05 -3.782817E-05 +3.718384E-05 
 +5.131355E-03 -5.842823E-05 -4.727402E-05 -5.842823E-05 -2.851288E-04 -2.278587E-05 -4.727402E-05 -2.278587E-05 +6.276544E-05 
 +5.161472E-03 -2.664422E-07 -4.180586E-05 -2.664422E-07 -3.333608E-04 +6.189848E-06 -4.180586E-05 +6.189848E-06 +7.777639E-05 
 +5.229373E-03 +1.516311E-05 -2.323688E-05 +1.516311E-05 -3.835859E-04 +7.817511E-05 -2.323688E-05 +7.817511E-05 +1.067660E-04 
 +5.221693E-03 -3.241060E-05 +1.758391E-05 -3.241060E-05 -4.356940E-04 +1.190019E-04 +1.758391E-05 +1.190019E-04 +1.426076E-04 
 +5.106202E-03 -6.080342E-05 -1.795848E-05 -6.080342E-05 -4.271655E-04 +3.985634E-05 -1.795848E-05 +3.985634E-05 +1.511029E-04 
 +5.044260E-03 -9.064116E-05 -2.614973E-05 -9.064116E-05 -2.657018E-04 -1.047717E-04 -2.614973E-05 -1.047717E-04 +1.229975E-04 
 +4.983889E-03 +3.074061E-05 -7.318345E-05 +3.074061E-05 -1.528219E-04 -1.004575E-04 -7.318345E-05 -1.004575E-04 +1.256798E-04 
 +4.972904E-03 +5.949202E-05 -7.465659E-05 +5.949202E-05 -1.025676E-04 +1.103622E-05 -7.465659E-05 +1.103622E-05 +1.223773E-04 
 +4.872744E-03 +9.733660E-05 +1.987201E-04 +9.733660E-05 +1.797759E-05 +1.025943E-04 +1.987201E-04 +1.025943E-04 +1.124534E-04 
 +4.784600E-03 +7.491974E-05 +2.807101E-04 +7.491974E-05 +7.498753E-05 +1.197458E-04 +2.807101E-04 +1.197458E-04 +1.564693E-04 
 +4.829209E-03 +5.038187E-05 +1.587327E-04 +5.038187E-05 +2.089809E-06 +9.357770E-05 +1.587327E-04 +9.357770E-05 +2.680578E-04 
 +4.786596E-03 +6.095664E-05 +6.028700E-05 +6.095664E-05 -5.458870E-05 +8.319809E-05 +6.028700E-05 +8.319809E-05 +3.601991E-04 
 +4.718043E-03 +2.305205E-05 +6.179192E-05 +2.305205E-05 -7.688079E-05 +3.687206E-05 +6.179192E-05 +3.687206E-05 +3.743329E-04 
 +4.810808E-03 -7.452789E-05 -6.160515E-05 -7.452789E-05 -1.257219E-04 -8.766728E-05 -6.160515E-05 -8.766728E-05 +3.563163E-04 
 +4.849845E-03 -1.292071E-04 +4.595929E-05 -1.292071E-04 -1.800629E-04 -1.889108E-04 +4.595929E-05 -1.889108E-04 +2.699849E-04 
 +4.934222E-03 -4.970329E-05 +1.080394E-04 -4.970329E-05 -2.292964E-04 -1.492062E-04 +1.080394E-04 -1.492062E-04 +1.641359E-04 
 +4.958626E-03 -6.690635E-05 +1.195323E-04 -6.690635E-05 -3.516421E-04 -2.230118E-05 +1.195323E-04 -2.230118E-05 +1.831487E-04 
 +5.046436E-03 -6.653566E-05 +1.139524E-05 -6.653566E-05 -4.553484E-04 +5.998704E-05 +1.139524E-05 +5.998704E-05 +1.831710E-04 
 +4.969160E-03 -1.616359E-04 +1.323234E-04 -1.616359E-04 -3.480054E-04 -1.960904E-05 +1.323234E-04 -1.960904E-05 +8.936753E-05 
 +5.213362E-03 -6.911024E-05 -3.782455E-05 -6.911024E-05 -2.960261E-04 -7.371192E-05 -3.782455E-05 -7.371192E-05 -4.143255E-05 
 +5.184760E-03 -2.711605E-05 -2.369522E-05 -2.711605E-05 -2.778854E-04 +1.260660E-05 -2.369522E-05 +1.260660E-05 -2.366619E-05 
 +5.144587E-03 -2.195478E-05 -5.467965E-05 -2.195478E-05 -2.558193E-04 +4.173680E-05 -5.467965E-05 +4.173680E-05 -1.144091E-05 
 +5.163285E-03 -4.773245E-06 -8.379695E-05 -4.773245E-06 -2.995907E-04 +3.650646E-05 -8.379695E-05 +3.650646E-05 -2.484823E-05 
 +5.199957E-03 -1.241705E-05 -7.515957E-05 -1.241705E-05 -4.064464E-04 +6.846755E-05 -7.515957E-05 +6.846755E-05 -3.448698E-05 
 +5.187360E-03 -6.156358E-05 -4.204074E-05 -6.156358E-05 -3.754522E-04 +1.242544E-04 -4.204074E-05 +1.242544E-04 -1.567715E-05 
 +5.061993E-03 -7.158719E-05 +1.337465E-05 -7.158719E-05 -2.172625E-04 +1.939225E-04 +1.337465E-05 +1.939225E-04 +4.360532E-05 
 +5.016529E-03 -8.810239E-05 +1.941799E-05 -8.810239E-05 -1.241406E-04 +2.629875E-04 +1.941799E-05 +2.629875E-04 +1.122957E-04 
 +4.999293E-03 +6.194265E-06 +3.365781E-05 +6.194265E-06 -7.656810E-05 +3.217088E-04 +3.365781E-05 +3.217088E-04 +4.826649E-05 
 +5.025468E-03 +5.459564E-05 +1.095602E-05 +5.459564E-05 -2.740311E-05 +3.941457E-04 +1.095602E-05 +3.941457E-04 -3.214145E-05 
 +4.915312E-03 +8.925597E-05 +1.731524E-04 +8.925597E-05 +1.283725E-05 +3.973236E-04 +1.731524E-04 +3.973236E-04 +6.586534E-05 
 +4.811731E-03 -2.679321E-05 +2.050732E-04 -2.679321E-05 -9.109206E-05 +2.895646E-04 +2.050732E-04 +2.895646E-04 +2.069852E-04 
 +4.767467E-03 -1.264552E-04 +1.495734E-04 -1.264552E-04 -3.125064E-04 +2.044723E-04 +1.495734E-04 +2.044723E-04 +3.254431E-04 
 +4.809080E-03 -5.463861E-05 +5.790329E-05 -5.463861E-05 -3.364400E-04 +1.331597E-04 +5.790329E-05 +1.331597E-04 +4.452225E-04 
 +4.746552E-03 -8.501804E-05 +4.433676E-05 -8.501804E-05 -2.563672E-04 +4.445470E-05 +4.433676E-05 +4.445470E-05 +4.830101E-04 
 +4.808370E-03 -1.305668E-04 -9.060462E-05 -1.305668E-04 -2.289157E-04 +1.702236E-06 -9.060462E-05 +1.702236E-06 +4.534643E-04 
 +4.875389E-03 -1.588629E-04 -3.229224E-05 -1.588629E-04 -2.033198E-04 -9.450560E-05 -3.229224E-05 -9.450560E-05 +3.796434E-04 
 +4.928185E-03 -7.253863E-05 +1.153533E-04 -7.253863E-05 -2.325871E-04 -1.672244E-04 +1.153533E-04 -1.672244E-04 +2.205119E-04 
 +4.941113E-03 -9.360720E-05 +1.014960E-04 -9.360720E-05 -1.911066E-04 -2.135449E-04 +1.014960E-04 -2.135449E-04 +1.330357E-04 
 +4.954079E-03 -1.059568E-04 +4.128720E-05 -1.059568E-04 -1.297503E-04 -2.625485E-04 +4.128720E-05 -2.625485E-04 +1.276737E-04 
 +4.984362E-03 -1.503523E-04 +1.328621E-04 -1.503523E-04 -2.190993E-04 -1.857271E-04 +1.328621E-04 -1.857271E-04 +2.635947E-05 
 +5.207829E-03 -4.277453E-05 +8.584202E-05 -4.277453E-05 -2.407869E-04 -1.368129E-05 +8.584202E-05 -1.368129E-05 -6.123748E-05 
 +5.208141E-03 +1.217305E-05 -9.440692E-06 +1.217305E-05 -2.923062E-04 +7.578052E-05 -9.440692E-06 +7.578052E-05 -4.676251E-05 
 +5.170917E-03 +9.038002E-06 -4.279891E-05 +9.038002E-06 -2.638659E-04 +1.070863E-04 -4.279891E-05 +1.070863E-04 -5.053895E-05 
 +5.194099E-03 +1.936415E-05 -6.076937E-05 +1.936415E-05 -2.054044E-04 +1.873049E-04 -6.076937E-05 +1.873049E-04 -6.077292E-05 
 +5.102287E-03 +5.434480E-05 -2.762183E-05 +5.434480E-05 -7.814182E-05 +3.242994E-04 -2.762183E-05 +3.242994E-04 -2.858760E-05 
 +5.045027E-03 -1.209884E-05 -7.334301E-05 -1.209884E-05 -7.849927E-06 +3.634043E-04 -7.334301E-05 +3.634043E-04 -1.131775E-05 
 +5.003526E-03 -8.658313E-05 -5.691494E-06 -8.658313E-05 -8.397107E-05 +2.698404E-04 -5.691494E-06 +2.698404E-04 +2.581122E-05 
 +5.003840E-03 -8.710282E-05 +1.330323E-05 -8.710282E-05 -9.493904E-05 +2.445725E-04 +1.330323E-05 +2.445725E-04 +8.028310E-06 
 +5.077482E-03 +1.396405E-05 -4.272092E-06 +1.396405E-05 -2.675727E-05 +3.118621E-04 -4.272092E-06 +3.118621E-04 -1.768269E-04 
 +5.077967E-03 +8.402350E-05 +3.650555E-05 +8.402350E-05 +2.307370E-06 +3.153367E-04 +3.650555E-05 +3.153367E-04 -1.662261E-04 
 +4.994624E-03 +1.178740E-04 +1.034356E-04 +1.178740E-04 -4.583933E-05 +2.731995E-04 +1.034356E-04 +2.731995E-04 +4.137443E-05 
 +4.879948E-03 +3.011263E-05 +8.092155E-05 +3.011263E-05 +4.645597E-06 +1.868351E-04 +8.092155E-05 +1.868351E-04 +2.166469E-04 
 +4.554116E-03 -1.569485E-04 +1.565865E-04 -1.569485E-04 -3.195500E-06 +1.275752E-04 +1.565865E-04 +1.275752E-04 +3.381216E-04 
 +4.757869E-03 -5.108431E-05 +7.852574E-05 -5.108431E-05 -2.208410E-04 +1.393400E-04 +7.852574E-05 +1.393400E-04 +3.954142E-04 
 +4.828325E-03 -8.991488E-05 +3.087046E-05 -8.991488E-05 -2.465057E-04 +1.113086E-04 +3.087046E-05 +1.113086E-04 +4.170683E-04 
 +4.874016E-03 -1.647949E-04 -3.148688E-05 -1.647949E-04 -1.978240E-04 +7.826956E-05 -3.148688E-05 +7.826956E-05 +3.984469E-04 
 +4.929530E-03 -1.610002E-04 -1.010057E-04 -1.610002E-04 -1.956520E-04 -1.469435E-05 -1.010057E-04 -1.469435E-05 +3.461803E-04 
 +4.920838E-03 -1.054434E-04 +4.875138E-05 -1.054434E-04 -1.438379E-04 -1.390023E-04 +4.875138E-05 -1.390023E-04 +2.217630E-04 
 +4.931458E-03 -4.455507E-05 +1.419008E-06 -4.455507E-05 -8.597595E-05 -1.875014E-04 +1.419008E-06 -1.875014E-04 +1.345562E-04 
 +4.958076E-03 -4.292258E-05 +8.878687E-05 -4.292258E-05 -3.847878E-05 -2.039905E-04 +8.878687E-05 -2.039905E-04 +1.366212E-04 
 +5.018244E-03 -1.332364E-04 +2.541279E-04 -1.332364E-04 -1.077869E-04 -1.472732E-04 +2.541279E-04 -1.472732E-04 +3.085664E-05 
 +5.140244E-03 -5.275929E-05 +1.935399E-04 -5.275929E-05 -3.744622E-05 +2.118969E-04 +1.935399E-04 +2.118969E-04 -8.915840E-05 
 +5.208110E-03 +6.050328E-05 +4.666908E-05 +6.050328E-05 -1.592415E-04 +2.217356E-04 +4.666908E-05 +2.217356E-04 -1.222358E-04 
 +5.151148E-03 +4.577326E-05 +2.624518E-07 +4.577326E-05 -1.870644E-04 +2.422300E-04 +2.624518E-07 +2.422300E-04 -5.212993E-05 
 +5.145901E-03 +7.073303E-06 +5.959177E-06 +7.073303E-06 -1.660191E-04 +2.827221E-04 +5.959177E-06 +2.827221E-04 +4.103512E-05 
 +5.025619E-03 +2.918777E-05 +5.966050E-05 +2.918777E-05 -8.859645E-05 +2.785520E-04 +5.966050E-05 +2.785520E-04 +1.274066E-04 
 +4.978476E-03 -6.646897E-05 -6.484493E-05 -6.646897E-05 -1.073791E-04 +2.088823E-04 -6.484493E-05 +2.088823E-04 +1.266295E-04 
 +4.939028E-03 -3.571745E-05 -3.559507E-05 -3.571745E-05 -1.385594E-04 +1.510547E-04 -3.559507E-05 +1.510547E-04 +9.709241E-05 
 +4.977224E-03 +1.366076E-05 +1.505825E-05 +1.366076E-05 -7.156383E-05 +2.126817E-04 +1.505825E-05 +2.126817E-04 -2.988420E-05 
 +5.122645E-03 +4.916604E-05 -1.803779E-05 +4.916604E-05 -3.624551E-05 +3.164132E-04 -1.803779E-05 +3.164132E-04 -2.722241E-04 
 +5.129331E-03 +4.677654E-05 +2.625959E-05 +4.677654E-05 -6.227560E-05 +3.115408E-04 +2.625959E-05 +3.115408E-04 -1.923286E-04 
 +5.053908E-03 +1.553802E-05 +8.651820E-05 +1.553802E-05 -1.029506E-04 +2.340008E-04 +8.651820E-05 +2.340008E-04 +6.059734E-05 
 +4.952320E-03 +1.290710E-05 +2.989742E-05 +1.290710E-05 -6.466462E-05 +1.472609E-04 +2.989742E-05 +1.472609E-04 +2.159263E-04 
 +4.476187E-03 -1.703794E-04 +1.492520E-04 -1.703794E-04 +1.435753E-04 +6.155896E-05 +1.492520E-04 +6.155896E-05 +3.254515E-04 
 +4.546773E-03 -1.650166E-04 +1.318139E-04 -1.650166E-04 +1.587830E-04 +4.748038E-05 +1.318139E-04 +4.748038E-05 +3.541178E-04 
 +4.947626E-03 -9.712138E-05 +4.344854E-05 -9.712138E-05 -1.035892E-04 +1.107184E-04 +4.344854E-05 +1.107184E-04 +3.316126E-04 
 +4.978865E-03 -1.344821E-04 -1.913827E-05 -1.344821E-04 -2.035517E-04 +1.283365E-04 -1.913827E-05 +1.283365E-04 +2.915973E-04 
 +4.960390E-03 -1.093975E-04 -1.208231E-04 -1.093975E-04 -1.781373E-04 +1.085857E-04 -1.208231E-04 +1.085857E-04 +2.577636E-04 
 +4.961969E-03 -1.330951E-05 -1.226974E-05 -1.330951E-05 -1.119910E-04 +1.224234E-04 -1.226974E-05 +1.224234E-04 +2.139677E-04 
 +4.985486E-03 +7.013458E-05 -2.923990E-05 +7.013458E-05 -3.745130E-05 +1.286914E-04 -2.923990E-05 +1.286914E-04 +2.022178E-04 
 +5.023227E-03 +3.838989E-05 +8.067257E-05 +3.838989E-05 -2.874110E-05 +1.422152E-04 +8.067257E-05 +1.422152E-04 +1.975833E-04 
 +5.033623E-03 -7.574564E-05 +2.380678E-04 -7.574564E-05 +1.849059E-05 +1.792154E-04 +2.380678E-04 +1.792154E-04 +6.926732E-05 
 +5.094566E-03 -9.061331E-05 +1.953078E-04 -9.061331E-05 +8.572936E-05 +3.247498E-04 +1.953078E-04 +3.247498E-04 -1.513129E-04 
 +5.179046E-03 +2.104795E-05 +1.031925E-04 +2.104795E-05 +3.148909E-05 +3.924190E-04 +1.031925E-04 +3.924190E-04 -2.317631E-04 
 +5.159713E-03 +1.117585E-04 +5.783300E-05 +1.117585E-04 +1.836534E-05 +3.130462E-04 +5.783300E-05 +3.130462E-04 -1.256935E-04 
 +4.964652E-03 +9.242001E-05 +1.034995E-04 +9.242001E-05 +1.112611E-04 +1.963032E-04 +1.034995E-04 +1.963032E-04 -3.325699E-05 
 +4.993151E-03 +3.812507E-05 +1.002773E-04 +3.812507E-05 -2.178255E-05 +1.538061E-04 +1.002773E-04 +1.538061E-04 -1.146051E-05 
 +5.019195E-03 -2.842777E-05 +2.117367E-05 -2.842777E-05 -1.468886E-04 +1.322584E-04 +2.117367E-05 +1.322584E-04 +1.954792E-05 
 +4.845095E-03 +9.937232E-06 +3.878184E-05 +9.937232E-06 -1.045418E-04 +8.100353E-05 +3.878184E-05 +8.100353E-05 +6.498742E-05 
 +4.898657E-03 +1.460982E-05 +4.905426E-05 +1.460982E-05 -8.399858E-05 +1.311562E-04 +4.905426E-05 +1.311562E-04 -5.462308E-06 
 +5.114452E-03 +1.744613E-06 -5.310003E-05 +1.744613E-06 -1.100103E-04 +2.359896E-04 -5.310003E-05 +2.359896E-04 -2.162239E-04 
 +5.125432E-03 -5.694875E-06 -1.451807E-05 -5.694875E-06 -1.431173E-04 +2.080972E-04 -1.451807E-05 +2.080972E-04 -1.536369E-04 
 +5.043510E-03 -5.357220E-05 +7.126278E-05 -5.357220E-05 -1.545421E-04 +1.529758E-04 +7.126278E-05 +1.529758E-04 +7.519086E-05 
 +4.941434E-03 -4.739708E-05 +1.578604E-05 -4.739708E-05 -1.201844E-04 +1.097700E-04 +1.578604E-05 +1.097700E-04 +2.086784E-04 
 +4.612850E-03 -1.369874E-04 +1.195824E-04 -1.369874E-04 +3.697720E-05 +7.867796E-05 +1.195824E-04 +7.867796E-05 +2.846765E-04 
 +4.613265E-03 -1.660170E-04 +1.649517E-04 -1.660170E-04 +9.180803E-05 +7.621367E-05 +1.649517E-04 +7.621367E-05 +2.888783E-04 
 +4.987209E-03 -2.235329E-05 +5.907366E-05 -2.235329E-05 -8.495631E-05 +1.091375E-04 +5.907366E-05 +1.091375E-04 +2.606145E-04 
 +4.995696E-03 -2.525756E-05 -3.001221E-05 -2.525756E-05 -1.819874E-04 +1.423362E-04 -3.001221E-05 +1.423362E-04 +2.304718E-04 
 +4.966521E-03 -6.128111E-05 -7.312817E-05 -6.128111E-05 -1.383376E-04 +1.673702E-04 -7.312817E-05 +1.673702E-04 +1.758625E-04 
 +5.028847E-03 +4.344306E-05 -9.042778E-06 +4.344306E-05 -9.539264E-05 +1.999737E-04 -9.042778E-06 +1.999737E-04 +1.088664E-04 
 +5.031084E-03 +6.491602E-05 -3.492214E-05 +6.491602E-05 -7.412919E-05 +1.923141E-04 -3.492214E-05 +1.923141E-04 +1.047021E-04 
 +5.047828E-03 +8.687839E-06 +5.965166E-05 +8.687839E-06 -7.373212E-05 +1.899521E-04 +5.965166E-05 +1.899521E-04 +9.400587E-05 
 +5.075963E-03 -4.417769E-05 +1.505178E-04 -4.417769E-05 -1.188868E-05 +2.321406E-04 +1.505178E-04 +2.321406E-04 +5.522477E-06 
 +5.113833E-03 -8.297240E-05 +1.252255E-04 -8.297240E-05 +5.034497E-05 +3.345502E-04 +1.252255E-04 +3.345502E-04 -7.888892E-05 
 +5.126295E-03 -7.997234E-05 +6.468154E-05 -7.997234E-05 +9.930684E-05 +3.666008E-04 +6.468154E-05 +3.666008E-04 -6.891686E-05 
 +5.168418E-03 +8.845353E-05 +1.054044E-04 +8.845353E-05 +1.001955E-04 +3.514033E-04 +1.054044E-04 +3.514033E-04 -5.671641E-05 
 +5.000260E-03 +1.189009E-04 +1.835027E-04 +1.189009E-04 +1.513350E-04 +2.979255E-04 +1.835027E-04 +2.979255E-04 -1.324027E-04 
 +4.944649E-03 -1.205662E-06 +7.320124E-05 -1.205662E-06 +3.391815E-05 +2.313879E-04 +7.320124E-05 +2.313879E-04 -1.130218E-04 
 +4.876892E-03 +1.031775E-05 +3.969589E-05 +1.031775E-05 -7.517222E-05 +1.948976E-04 +3.969589E-05 +1.948976E-04 -1.776046E-05 
 +4.768918E-03 +6.471255E-06 +6.944269E-05 +6.471255E-06 +2.775049E-06 +1.027098E-04 +6.944269E-05 +1.027098E-04 +7.818615E-07 
 +4.808807E-03 -7.873802E-06 +8.616249E-05 -7.873802E-06 -1.151910E-05 +6.259932E-05 +8.616249E-05 +6.259932E-05 -4.816487E-05 
 +5.039995E-03 -2.745837E-05 -5.582665E-05 -2.745837E-05 -6.759986E-05 +1.406058E-04 -5.582665E-05 +1.406058E-04 -1.975826E-04 
 +5.131606E-03 -5.643861E-05 -7.467251E-05 -5.643861E-05 -7.784662E-05 +1.432275E-04 -7.467251E-05 +1.432275E-04 -2.051651E-04 
 +5.044433E-03 -6.581036E-05 +8.637897E-05 -6.581036E-05 -9.139228E-05 +1.110715E-04 +8.637897E-05 +1.110715E-04 -3.152781E-05 
 +4.919590E-03 -2.184356E-05 +6.655743E-05 -2.184356E-05 -1.601659E-04 +1.078994E-04 +6.655743E-05 +1.078994E-04 +1.159674E-04 
 +4.867950E-03 -1.880457E-05 +1.126421E-04 -1.880457E-05 -2.865555E-04 +1.581775E-04 +1.126421E-04 +1.581775E-04 +2.014693E-04 
 +4.897188E-03 -9.284281E-05 +1.153876E-04 -9.284281E-05 -2.446758E-04 +2.038257E-04 +1.153876E-04 +2.038257E-04 +1.937287E-04 
 +4.927072E-03 -4.300342E-05 +4.467973E-05 -4.300342E-05 -1.104913E-04 +1.662306E-04 +4.467973E-05 +1.662306E-04 +1.736892E-04 
 +4.927401E-03 +1.180078E-05 -3.191877E-05 +1.180078E-05 -8.279962E-05 +1.331875E-04 -3.191877E-05 +1.331875E-04 +1.747210E-04 
 +4.952827E-03 -1.060605E-05 -4.676206E-05 -1.060605E-05 -8.258471E-05 +1.240710E-04 -4.676206E-05 +1.240710E-04 +1.056956E-04 
 +5.027319E-03 +6.411391E-05 +1.264764E-05 +6.411391E-05 -6.625876E-05 +1.260854E-04 +1.264764E-05 +1.260854E-04 +5.244451E-05 
 +5.033147E-03 +5.112221E-05 +4.663073E-06 +5.112221E-05 -5.044849E-05 +1.300817E-04 +4.663073E-06 +1.300817E-04 +8.170326E-05 
 +5.062515E-03 -2.588529E-05 +8.084890E-05 -2.588529E-05 -4.513858E-05 +1.621084E-04 +8.084890E-05 +1.621084E-04 +4.659065E-05 
 +5.099164E-03 -5.480724E-05 +1.321500E-04 -5.480724E-05 -3.888677E-05 +2.492301E-04 +1.321500E-04 +2.492301E-04 -2.348643E-05 
 +5.128649E-03 -1.193619E-04 +2.839254E-05 -1.193619E-04 -1.264780E-04 +1.816656E-04 +2.839254E-05 +1.816656E-04 +1.387539E-04 
 +5.102218E-03 -1.158289E-04 +3.659179E-05 -1.158289E-04 -5.306373E-05 +2.146095E-04 +3.659179E-05 +2.146095E-04 +1.927694E-04 
 +5.139897E-03 +2.580787E-05 +1.228117E-04 +2.580787E-05 -5.466649E-05 +2.883105E-04 +1.228117E-04 +2.883105E-04 +1.301949E-04 
 +5.186164E-03 +9.138727E-05 +1.666214E-04 +9.138727E-05 -9.559140E-05 +3.126605E-04 +1.666214E-04 +3.126605E-04 +5.935022E-06 
 +4.823013E-03 -1.256301E-04 -2.885777E-05 -1.256301E-04 +8.070998E-05 +2.372958E-04 -2.885777E-05 +2.372958E-04 +2.350623E-05 
 +4.735020E-03 -6.820189E-05 -5.737562E-05 -6.820189E-05 +1.504159E-04 +1.988347E-04 -5.737562E-05 +1.988347E-04 +6.437059E-05 
 +4.787915E-03 +5.642076E-05 +9.237818E-06 +5.642076E-05 +7.620471E-05 +1.951888E-04 +9.237818E-06 +1.951888E-04 -3.135558E-05 
 +4.752532E-03 +1.130523E-05 +2.918886E-05 +1.130523E-05 +5.687758E-05 +9.188996E-05 +2.918886E-05 +9.188996E-05 -8.851421E-05 
 +4.853202E-03 +1.818229E-05 +3.128803E-05 +1.818229E-05 +5.749035E-05 +5.246202E-05 +3.128803E-05 +5.246202E-05 -1.799565E-04 
 +5.111321E-03 -8.825557E-05 -7.466552E-05 -8.825557E-05 +3.245945E-05 +1.635030E-04 -7.466552E-05 +1.635030E-04 -2.915412E-04 
 +5.099146E-03 -1.057279E-04 +7.979238E-05 -1.057279E-04 -3.342097E-05 +2.057704E-04 +7.979238E-05 +2.057704E-04 -2.038465E-04 
 +5.036360E-03 -7.524869E-05 +7.212957E-05 -7.524869E-05 -1.449038E-04 +1.620893E-04 +7.212957E-05 +1.620893E-04 -2.153031E-05 
 +5.050078E-03 -4.327626E-05 +8.783369E-05 -4.327626E-05 -2.303868E-04 +1.514916E-04 +8.783369E-05 +1.514916E-04 +8.647435E-05 
 +5.002177E-03 -1.041076E-04 +5.644051E-05 -1.041076E-04 -1.843774E-04 +1.594312E-04 +5.644051E-05 +1.594312E-04 +1.065612E-04 
 +4.943800E-03 -1.135784E-04 +1.741263E-05 -1.135784E-04 -1.073233E-04 +1.574416E-04 +1.741263E-05 +1.574416E-04 +1.116764E-04 
 +4.932786E-03 -3.001142E-05 -4.125695E-05 -3.001142E-05 -7.884178E-05 +1.337075E-04 -4.125695E-05 +1.337075E-04 +1.327117E-04 
 +4.919068E-03 -1.366430E-05 -5.813953E-05 -1.366430E-05 -6.252943E-05 +1.122699E-04 -5.813953E-05 +1.122699E-04 +1.135006E-04 
 +4.981934E-03 +3.970309E-05 +6.056984E-05 +3.970309E-05 -6.536405E-05 +1.410482E-04 +6.056984E-05 +1.410482E-04 +8.504030E-05 
 +5.030253E-03 +4.294473E-05 +5.982037E-05 +4.294473E-05 -7.185428E-05 +1.647695E-04 +5.982037E-05 +1.647695E-04 +1.033409E-04 
 +5.043628E-03 -4.044041E-05 +9.964489E-05 -4.044041E-05 -3.990863E-05 +1.647286E-04 +9.964489E-05 +1.647286E-04 +6.965608E-05 
 +5.079178E-03 -1.206144E-04 +4.543541E-05 -1.206144E-04 -6.493278E-05 +1.772907E-04 +4.543541E-05 +1.772907E-04 +6.225637E-05 
 +5.101790E-03 -1.033476E-04 -1.222656E-04 -1.033476E-04 -4.258064E-05 +2.159735E-04 -1.222656E-04 +2.159735E-04 +2.408545E-04 
 +5.108246E-03 -3.592226E-05 +2.111945E-05 -3.592226E-05 -3.899030E-05 +1.672290E-04 +2.111945E-05 +1.672290E-04 +2.698112E-04 
 +5.091540E-03 -3.657431E-05 +7.712577E-05 -3.657431E-05 -4.524122E-05 +1.454074E-04 +7.712577E-05 +1.454074E-04 +2.726247E-04 
 +5.179114E-03 +3.529328E-05 +1.317729E-04 +3.529328E-05 -7.595117E-05 +1.737177E-04 +1.317729E-04 +1.737177E-04 +2.705943E-04 
 +4.843100E-03 -5.130177E-05 -2.888678E-05 -5.130177E-05 +4.133409E-05 +2.172452E-04 -2.888678E-05 +2.172452E-04 +1.863765E-04 
 +4.686760E-03 -6.235293E-05 -9.483359E-05 -6.235293E-05 +2.013147E-04 +2.380979E-04 -9.483359E-05 +2.380979E-04 +4.594767E-05 
 +4.690526E-03 -4.021329E-05 -1.022150E-04 -4.021329E-05 +2.564156E-04 +1.839394E-04 -1.022150E-04 +1.839394E-04 -5.976389E-05 
 +4.724951E-03 -1.753280E-04 -1.262743E-04 -1.753280E-04 +2.148606E-04 +4.628412E-05 -1.262743E-04 +4.628412E-05 -1.104949E-04 
 +4.878465E-03 -6.150811E-06 +4.069672E-05 -6.150811E-06 +1.580938E-04 -3.029031E-05 +4.069672E-05 -3.029031E-05 -2.436885E-04 
 +5.112328E-03 +2.762607E-05 -2.993192E-05 +2.762607E-05 +1.356700E-04 +3.277497E-05 -2.993192E-05 +3.277497E-05 -3.452242E-04 
 +5.099325E-03 -2.176204E-05 +5.963450E-05 -2.176204E-05 +4.354514E-05 +8.146698E-05 +5.963450E-05 +8.146698E-05 -2.514877E-04 
 +5.094230E-03 -1.285784E-04 +7.260108E-05 -1.285784E-04 -1.370982E-04 +1.054652E-04 +7.260108E-05 +1.054652E-04 -8.686775E-05 
 +5.117083E-03 -7.460377E-05 +1.090429E-04 -7.460377E-05 -2.243670E-04 +1.640493E-04 +1.090429E-04 +1.640493E-04 -2.142460E-05 
 +5.073461E-03 -6.257368E-05 +6.696465E-05 -6.257368E-05 -1.460724E-04 +1.764813E-04 +6.696465E-05 +1.764813E-04 +9.896575E-07 
 +4.975603E-03 -1.232768E-04 -1.447917E-05 -1.232768E-04 -1.037129E-04 +1.880690E-04 -1.447917E-05 +1.880690E-04 +4.097077E-05 
 +4.950024E-03 -9.573677E-05 -7.501901E-05 -9.573677E-05 -1.416669E-04 +1.646793E-04 -7.501901E-05 +1.646793E-04 +1.026409E-04 
 +4.939356E-03 -2.881339E-05 -2.459108E-05 -2.881339E-05 -9.648909E-05 +1.167526E-04 -2.459108E-05 +1.167526E-04 +1.393306E-04 
 +4.927062E-03 +2.116091E-05 +1.358920E-04 +2.116091E-05 -1.042186E-05 +1.501148E-04 +1.358920E-04 +1.501148E-04 +1.131005E-04 
 +5.014199E-03 +4.403759E-06 +7.082882E-05 +4.403759E-06 +4.559317E-06 +2.019509E-04 +7.082882E-05 +2.019509E-04 +3.163415E-05 
 +5.056641E-03 -4.686419E-05 +6.814476E-05 -4.686419E-05 +9.765280E-07 +2.096256E-04 +6.814476E-05 +2.096256E-04 -7.263089E-05 
 +5.074502E-03 -1.267093E-04 -1.355955E-04 -1.267093E-04 -6.012669E-06 +2.226705E-04 -1.355955E-04 +2.226705E-04 +4.165008E-05 
 +5.052664E-03 -7.876712E-05 -2.224598E-04 -7.876712E-05 +6.054997E-05 +6.034078E-05 -2.224598E-04 +6.034078E-05 +2.293263E-04 
 +5.072034E-03 -1.864081E-05 -8.144933E-05 -1.864081E-05 -1.221920E-05 +1.186493E-04 -8.144933E-05 +1.186493E-04 +2.932841E-04 
 +5.092922E-03 -3.887197E-05 +4.543976E-05 -3.887197E-05 -1.437930E-04 +1.225355E-04 +4.543976E-05 +1.225355E-04 +3.023330E-04 
 +4.961874E-03 +4.843973E-05 +7.090198E-05 +4.843973E-05 -3.145474E-04 +2.814359E-04 +7.090198E-05 +2.814359E-04 +3.242914E-04 
 +4.819978E-03 +3.235319E-06 +1.326309E-06 +3.235319E-06 -1.975664E-04 +3.143221E-04 +1.326309E-06 +3.143221E-04 +2.588893E-04 
 +4.579547E-03 -1.540943E-04 -8.418828E-05 -1.540943E-04 +2.103609E-04 +1.593924E-04 -8.418828E-05 +1.593924E-04 +7.652742E-05 
 +4.667373E-03 -1.595500E-04 -1.010552E-04 -1.595500E-04 +3.692191E-04 +6.053028E-05 -1.010552E-04 +6.053028E-05 -9.315895E-05 
 +4.837644E-03 -1.543569E-04 -1.143643E-04 -1.543569E-04 +2.772096E-04 +4.817070E-05 -1.143643E-04 +4.817070E-05 -2.094377E-04 
 +5.113076E-03 +7.106889E-05 +5.500540E-06 +7.106889E-05 +1.692665E-04 +5.555917E-05 +5.500540E-06 +5.555917E-05 -3.064038E-04 
 +5.139250E-03 +7.182442E-05 -2.969174E-05 +7.182442E-05 +8.489298E-05 +4.771776E-05 -2.969174E-05 +4.771776E-05 -2.823730E-04 
 +5.091284E-03 +6.710595E-06 +3.014096E-05 +6.710595E-06 +4.707658E-05 +1.906035E-05 +3.014096E-05 +1.906035E-05 -1.622708E-04 
 +5.071899E-03 -5.697936E-05 +9.563085E-05 -5.697936E-05 +1.907979E-05 +4.178410E-05 +9.563085E-05 +4.178410E-05 -7.480003E-05 
 +5.105513E-03 +1.071728E-06 +1.359772E-04 +1.071728E-06 -1.106229E-04 -9.087856E-06 +1.359772E-04 -9.087856E-06 -1.499221E-05 
 +5.121779E-03 +1.130516E-05 +9.290780E-05 +1.130516E-05 -2.483744E-04 -1.672524E-04 +9.290780E-05 -1.672524E-04 +9.847575E-05 
 +5.008055E-03 -4.350933E-05 +2.640366E-05 -4.350933E-05 -1.701221E-04 -9.564694E-05 +2.640366E-05 -9.564694E-05 +1.669414E-04 
 +4.867495E-03 -1.016860E-04 -1.076881E-04 -1.016860E-04 -1.355461E-04 +3.907804E-05 -1.076881E-04 +3.907804E-05 +1.416791E-04 
 +4.921652E-03 -1.826076E-05 -6.859047E-06 -1.826076E-05 -1.675158E-04 +4.781100E-05 -6.859047E-06 +4.781100E-05 +1.360958E-04 
 +4.940456E-03 +1.877984E-05 +7.223691E-05 +1.877984E-05 -5.314967E-05 -2.038411E-05 +7.223691E-05 -2.038411E-05 +1.005214E-04 
 +5.042088E-03 +8.444484E-06 -1.110668E-05 +8.444484E-06 +4.763188E-06 -1.803909E-04 -1.110668E-05 -1.803909E-04 -4.089348E-05 
 +5.136165E-03 +1.539487E-05 -1.191693E-05 +1.539487E-05 -7.720830E-06 -2.893601E-04 -1.191693E-05 -2.893601E-04 -1.387620E-04 
 +5.095553E-03 -5.473615E-05 -1.409425E-04 -5.473615E-05 +4.164660E-05 -1.912903E-04 -1.409425E-04 -1.912903E-04 +8.638198E-06 
 +5.065298E-03 -2.201765E-05 -1.024003E-04 -2.201765E-05 +1.377322E-04 -1.802027E-04 -1.024003E-04 -1.802027E-04 +1.359437E-04 
 +5.069568E-03 -1.227472E-05 -1.023615E-04 -1.227472E-05 +2.479676E-05 +3.496189E-05 -1.023615E-04 +3.496189E-05 +2.534909E-04 
 +4.990100E-03 -1.787793E-06 -7.105777E-05 -1.787793E-06 -7.882190E-05 +4.450064E-05 -7.105777E-05 +4.450064E-05 +2.530869E-04 
 +4.670236E-03 +6.548816E-05 -5.434191E-05 +6.548816E-05 +1.824899E-04 +1.296295E-05 -5.434191E-05 +1.296295E-05 +2.380849E-04 
 +4.583683E-03 +5.458995E-05 -1.759809E-05 +5.458995E-05 +3.287458E-04 +1.266035E-04 -1.759809E-05 +1.266035E-04 +2.586024E-04 
 +4.602102E-03 -2.504897E-05 -8.540957E-05 -2.504897E-05 +2.355109E-04 +1.798452E-04 -8.540957E-05 +1.798452E-04 +1.491062E-04 
 +4.960495E-03 -3.809876E-05 -5.193464E-05 -3.809876E-05 +1.751004E-04 +1.689084E-04 -5.193464E-05 +1.689084E-04 -1.321584E-04 
 +5.043209E-03 +1.460353E-05 -3.811998E-05 +1.460353E-05 +1.632195E-04 +1.158040E-04 -3.811998E-05 +1.158040E-04 -2.872426E-04 
 +5.164164E-03 +1.144055E-04 -1.537012E-05 +1.144055E-04 +1.167875E-04 +2.111150E-05 -1.537012E-05 +2.111150E-05 -2.265278E-04 
 +5.137235E-03 +9.383985E-05 -5.358816E-05 +9.383985E-05 +4.445989E-05 -3.606490E-05 -5.358816E-05 -3.606490E-05 -1.262977E-04 
 +5.103783E-03 +2.418131E-05 -2.895813E-05 +2.418131E-05 +2.033182E-05 -5.148856E-05 -2.895813E-05 -5.148856E-05 -2.745329E-05 
 +5.076371E-03 -7.633016E-05 +6.342945E-05 -7.633016E-05 -1.827803E-06 +2.120942E-05 +6.342945E-05 +2.120942E-05 +5.310040E-05 
 +5.067991E-03 -6.198462E-05 +1.295227E-04 -6.198462E-05 -2.877404E-05 +1.374344E-06 +1.295227E-04 +1.374344E-06 +1.239044E-04 
 +5.094482E-03 +2.361054E-05 +8.552765E-05 +2.361054E-05 -3.658037E-05 -1.916652E-04 +8.552765E-05 -1.916652E-04 +2.437436E-04 
 +5.049794E-03 +2.029986E-05 +8.549240E-05 +2.029986E-05 -1.067225E-05 -2.000334E-04 +8.549240E-05 -2.000334E-04 +3.370713E-04 
 +4.815862E-03 -1.086809E-04 -9.971022E-05 -1.086809E-04 +1.076764E-05 -1.160698E-04 -9.971022E-05 -1.160698E-04 +2.232108E-04 
 +4.773212E-03 +5.190897E-05 -4.678255E-05 +5.190897E-05 +1.612421E-05 -1.058983E-04 -4.678255E-05 -1.058983E-04 +7.935586E-05 
 +5.035718E-03 +7.447162E-05 -4.602995E-05 +7.447162E-05 -3.088514E-05 -1.735331E-04 -4.602995E-05 -1.735331E-04 +4.628963E-06 
 +5.141968E-03 +4.900685E-05 -3.286036E-05 +4.900685E-05 -7.118281E-05 -2.792214E-04 -3.286036E-05 -2.792214E-04 -7.808276E-05 
 +5.173888E-03 +5.681342E-05 +2.432990E-06 +5.681342E-05 -3.548800E-05 -2.801204E-04 +2.432990E-06 -2.801204E-04 -7.938892E-05 
 +5.119034E-03 -6.316803E-06 -1.965170E-05 -6.316803E-06 +4.060799E-05 -2.819313E-04 -1.965170E-05 -2.819313E-04 -7.571670E-06 
 +5.155955E-03 -6.252618E-05 +1.832186E-05 -6.252618E-05 +8.707729E-05 -2.973201E-04 +1.832186E-05 -2.973201E-04 -3.609979E-05 
 +5.154344E-03 -8.278584E-05 -1.897042E-05 -8.278584E-05 +2.324434E-04 -2.468061E-04 -1.897042E-05 -2.468061E-04 +8.922020E-05 
 +4.699536E-03 +1.379459E-05 -1.547882E-04 +1.379459E-05 +4.259784E-04 -1.874689E-04 -1.547882E-04 -1.874689E-04 +2.226512E-04 
 +4.535765E-03 +1.618522E-04 -1.470353E-04 +1.618522E-04 +4.149812E-04 -7.998803E-05 -1.470353E-04 -7.998803E-05 +2.914640E-04 
 +4.520685E-03 +1.825228E-04 -8.334273E-05 +1.825228E-04 +2.997971E-04 +8.417243E-05 -8.334273E-05 +8.417243E-05 +3.068925E-04 
 +4.749842E-03 +1.669054E-04 -1.049867E-04 +1.669054E-04 +1.587654E-04 +1.503073E-04 -1.049867E-04 +1.503073E-04 +2.254296E-04 
 +5.140782E-03 +8.625644E-05 -1.495802E-05 +8.625644E-05 +2.330281E-05 +1.444752E-04 -1.495802E-05 +1.444752E-04 -3.877744E-06 
 +5.142306E-03 +4.261809E-05 -2.280770E-05 +4.261809E-05 +5.322515E-07 +8.605868E-05 -2.280770E-05 +8.605868E-05 -1.357082E-04 
 +5.133746E-03 +8.993754E-05 -4.469696E-05 +8.993754E-05 +1.614276E-05 -3.797539E-06 -4.469696E-05 -3.797539E-06 -7.859852E-05 
 +5.136240E-03 +1.058810E-04 -7.502703E-05 +1.058810E-04 +2.537603E-06 -4.586195E-05 -7.502703E-05 -4.586195E-05 -8.748262E-06 
 +5.101375E-03 +6.950485E-05 -5.787680E-05 +6.950485E-05 +2.819470E-05 -1.489928E-05 -5.787680E-05 -1.489928E-05 +7.910313E-05 
 +5.045783E-03 -3.664816E-05 -3.742024E-05 -3.664816E-05 +7.652701E-05 +9.403542E-05 -3.742024E-05 +9.403542E-05 +1.943603E-04 
 +5.030093E-03 -4.924826E-05 +4.335197E-05 -4.924826E-05 +9.529627E-05 +3.308759E-05 +4.335197E-05 +3.308759E-05 +1.949499E-04 
 +5.090431E-03 +2.816595E-05 +1.755701E-05 +2.816595E-05 +8.944899E-05 -2.263174E-04 +1.755701E-05 -2.263174E-04 +1.083166E-04 
 +5.103152E-03 +5.061010E-05 +3.906957E-05 +5.061010E-05 +3.140539E-05 -2.382109E-04 +3.906957E-05 -2.382109E-04 +1.545279E-04 
 +4.831204E-03 -1.921525E-05 -8.392753E-05 -1.921525E-05 +4.381644E-05 -6.694802E-05 -8.392753E-05 -6.694802E-05 +1.952438E-04 
 +4.688373E-03 +1.467871E-04 -3.545302E-05 +1.467871E-04 +8.759276E-05 -6.567872E-05 -3.545302E-05 -6.567872E-05 +8.984874E-05 
 +4.965569E-03 +5.614278E-05 -2.795491E-05 +5.614278E-05 -2.926097E-05 -1.938279E-04 -2.795491E-05 -1.938279E-04 -2.200261E-05 
 +5.133709E-03 -1.408586E-05 +5.856882E-05 -1.408586E-05 -1.028856E-04 -2.651876E-04 +5.856882E-05 -2.651876E-04 -1.033128E-04 
 +5.214435E-03 -8.879001E-06 +8.103029E-05 -8.879001E-06 -2.552539E-06 -2.792859E-04 +8.103029E-05 -2.792859E-04 -1.431042E-04 
 +5.164679E-03 -5.991569E-05 +2.535023E-05 -5.991569E-05 +7.009687E-05 -2.985742E-04 +2.535023E-05 -2.985742E-04 -1.169018E-04 
 +5.155430E-03 -1.499177E-04 +7.977197E-06 -1.499177E-04 +1.883308E-04 -2.774925E-04 +7.977197E-06 -2.774925E-04 -1.274334E-04 
 +5.134763E-03 -2.024754E-04 -1.741916E-05 -2.024754E-04 +2.671043E-04 -2.602284E-04 -1.741916E-05 -2.602284E-04 -6.219443E-05 
 +4.697891E-03 -9.085886E-05 -9.974341E-05 -9.085886E-05 +3.289046E-04 -1.906499E-04 -9.974341E-05 -1.906499E-04 +7.259729E-05 
 +4.603696E-03 +1.551441E-04 -1.279426E-04 +1.551441E-04 +3.187219E-04 -5.236835E-05 -1.279426E-04 -5.236835E-05 +2.026915E-04 
 +4.635858E-03 +1.796720E-04 -1.579684E-04 +1.796720E-04 +1.885089E-04 +1.877639E-05 -1.579684E-04 +1.877639E-05 +3.010828E-04 
 +4.883029E-03 +1.675636E-04 -7.217045E-05 +1.675636E-04 +1.127280E-05 +4.250507E-05 -7.217045E-05 +4.250507E-05 +2.446313E-04 
 +5.053155E-03 +1.038737E-04 +3.807806E-05 +1.038737E-04 -5.723537E-05 +8.150378E-05 +3.807806E-05 +8.150378E-05 +9.939755E-05 
 +5.137954E-03 +4.575855E-05 +1.719746E-05 +4.575855E-05 -6.872044E-05 +2.992215E-05 +1.719746E-05 +2.992215E-05 +4.117277E-05 
 +5.148232E-03 +7.168343E-05 -2.277758E-05 +7.168343E-05 -6.188827E-05 -8.151288E-07 -2.277758E-05 -8.151288E-07 +3.511054E-05 
 +5.150687E-03 +1.018958E-04 -4.611304E-05 +1.018958E-04 -1.875490E-05 +5.018462E-05 -4.611304E-05 +5.018462E-05 +4.397124E-05 
 +5.099186E-03 +7.947067E-05 -7.754178E-05 +7.947067E-05 +1.772351E-05 +9.046685E-05 -7.754178E-05 +9.046685E-05 +1.235040E-04 
 +4.967811E-03 -7.984712E-05 -2.422627E-04 -7.984712E-05 +1.538573E-05 +8.662655E-05 -2.422627E-04 +8.662655E-05 +2.559009E-04 
 +4.988755E-03 -7.838408E-05 -1.944703E-04 -7.838408E-05 +3.158672E-05 -3.296651E-05 -1.944703E-04 -3.296651E-05 +2.793304E-04 
 +5.155675E-03 +2.444267E-05 -6.984310E-05 +2.444267E-05 +7.154765E-05 -2.403144E-04 -6.984310E-05 -2.403144E-04 +1.717564E-04 
 +5.194579E-03 +2.840128E-05 +4.431648E-05 +2.840128E-05 +5.811760E-05 -2.204363E-04 +4.431648E-05 -2.204363E-04 +1.309526E-04 
 +4.869981E-03 +7.362574E-05 +2.001833E-05 +7.362574E-05 +1.024402E-04 -1.961104E-05 +2.001833E-05 -1.961104E-05 +1.719261E-04 
 +4.736767E-03 +2.269619E-04 +7.885288E-05 +2.269619E-04 +2.157811E-04 +2.152387E-05 +7.885288E-05 +2.152387E-05 +1.370580E-04 
 +4.752272E-03 +1.154804E-04 +8.761613E-05 +1.154804E-04 +2.733817E-04 +2.394111E-05 +8.761613E-05 +2.394111E-05 +1.029399E-04 
 +4.919495E-03 +2.668519E-05 +9.269773E-05 +2.668519E-05 +2.021608E-04 -1.859136E-05 +9.269773E-05 -1.859136E-05 -1.824414E-05 
 +5.260631E-03 +6.153928E-06 +6.758227E-05 +6.153928E-06 +7.309203E-05 -2.150248E-04 +6.758227E-05 -2.150248E-04 -2.000838E-04 
 +5.192194E-03 -6.358608E-05 +4.574035E-05 -6.358608E-05 +1.018783E-04 -2.896661E-04 +4.574035E-05 -2.896661E-04 -1.879201E-04 
 +5.068877E-03 -1.242872E-04 -2.954442E-05 -1.242872E-04 +2.338047E-04 -2.037825E-04 -2.954442E-05 -2.037825E-04 -1.373849E-04 
 +4.986290E-03 -1.513639E-04 -6.099953E-05 -1.513639E-04 +3.064320E-04 -2.168785E-04 -6.099953E-05 -2.168785E-04 -1.557750E-04 
 +4.867727E-03 -1.240845E-04 -5.569873E-05 -1.240845E-04 +3.850632E-04 -1.451707E-04 -5.569873E-05 -1.451707E-04 -1.904169E-04 
 +4.832521E-03 +2.789421E-05 -6.941456E-05 +2.789421E-05 +3.065178E-04 -9.799747E-05 -6.941456E-05 -9.799747E-05 -1.183516E-04 
 +4.824471E-03 +1.137634E-04 -8.629521E-05 +1.137634E-04 +1.438171E-04 -9.704869E-05 -8.629521E-05 -9.704869E-05 +9.120776E-05 
 +4.878029E-03 +1.004541E-04 +5.307973E-06 +1.004541E-04 +6.652343E-05 -6.556619E-05 +5.307973E-06 -6.556619E-05 +1.489869E-04 
 +4.956273E-03 +1.952638E-05 +2.152538E-05 +1.952638E-05 -1.756418E-05 -3.807920E-05 +2.152538E-05 -3.807920E-05 +7.850613E-05 
 +5.093588E-03 +3.937268E-07 +1.101742E-04 +3.937268E-07 -8.327009E-05 +1.211866E-05 +1.101742E-04 +1.211866E-05 +4.629313E-05 
 +5.155491E-03 +4.991001E-05 +4.790068E-05 +4.991001E-05 -7.405676E-05 +7.006579E-05 +4.790068E-05 +7.006579E-05 +1.093008E-05 
 +5.176036E-03 +7.838615E-05 +3.828585E-05 +7.838615E-05 -3.524030E-05 +1.115749E-04 +3.828585E-05 +1.115749E-04 +5.193162E-06 
 +5.090942E-03 +2.000605E-05 -1.424144E-04 +2.000605E-05 -4.992346E-05 +1.436739E-04 -1.424144E-04 +1.436739E-04 +1.263700E-04 
 +4.981679E-03 -1.401187E-05 -3.312004E-04 -1.401187E-05 +5.450644E-08 +2.229874E-04 -3.312004E-04 +2.229874E-04 +1.687724E-04 
 +4.995495E-03 +1.171873E-05 -3.200006E-04 +1.171873E-05 +3.769699E-05 +2.990075E-04 -3.200006E-04 +2.990075E-04 +1.474596E-04 
 +5.208482E-03 +6.898389E-05 -8.301976E-05 +6.898389E-05 -8.682787E-05 +2.646105E-04 -8.301976E-05 +2.646105E-04 +2.172915E-04 
 +5.239240E-03 +5.457878E-05 +2.274904E-05 +5.457878E-05 -1.427825E-04 +1.403710E-04 +2.274904E-05 +1.403710E-04 +2.726106E-04 
 +4.881831E-03 +1.562976E-04 +1.139065E-04 +1.562976E-04 +1.761204E-05 +4.240762E-05 +1.139065E-04 +4.240762E-05 +3.003428E-04 
 +4.753635E-03 +1.647591E-04 +1.689731E-04 +1.647591E-04 +1.686900E-04 +2.204278E-06 +1.689731E-04 +2.204278E-06 +2.273237E-04 
 +4.675484E-03 +8.501189E-05 +1.679868E-04 +8.501189E-05 +2.520931E-04 +1.935864E-05 +1.679868E-04 +1.935864E-05 +2.204965E-04 
 +4.731212E-03 +1.212403E-05 +1.182517E-04 +1.212403E-05 +2.990196E-04 -1.588264E-05 +1.182517E-04 -1.588264E-05 +7.821335E-05 
 +5.174618E-03 -8.032520E-07 +9.078005E-07 -8.032520E-07 +1.898526E-04 -1.782818E-04 +9.078005E-07 -1.782818E-04 -1.909407E-04 
 +5.166179E-03 -1.586270E-06 +1.513915E-05 -1.586270E-06 +1.488544E-04 -2.143359E-04 +1.513915E-05 -2.143359E-04 -1.910585E-04 
 +5.004964E-03 -3.531111E-05 -7.547389E-05 -3.531111E-05 +2.504138E-04 -1.798381E-04 -7.547389E-05 -1.798381E-04 -8.906736E-05 
 +4.881658E-03 -4.540446E-05 -1.062363E-04 -4.540446E-05 +3.627202E-04 -1.617214E-04 -1.062363E-04 -1.617214E-04 -1.266155E-04 
 +4.950336E-03 +2.730582E-05 -3.884091E-05 +2.730582E-05 +4.640980E-04 -1.144152E-04 -3.884091E-05 -1.144152E-04 -2.610920E-04 
 +5.006718E-03 -3.458442E-05 -3.857378E-05 -3.458442E-05 +4.433293E-04 -3.673478E-05 -3.857378E-05 -3.673478E-05 -2.784132E-04 
 +4.989555E-03 -2.087299E-05 -3.457573E-07 -2.087299E-05 +2.933196E-04 -2.975748E-05 -3.457573E-07 -2.975748E-05 -1.210602E-04 
 +4.884649E-03 -5.658230E-06 +6.529644E-05 -5.658230E-06 +1.425580E-04 -5.208675E-05 +6.529644E-05 -5.208675E-05 +7.360053E-05 
 +4.899822E-03 -7.023534E-06 +6.541548E-05 -7.023534E-06 +3.583833E-05 +3.621073E-06 +6.541548E-05 +3.621073E-06 +1.273389E-04 
 +5.017206E-03 -2.793394E-05 +1.550549E-04 -2.793394E-05 -2.609328E-05 +5.559555E-05 +1.550549E-04 +5.559555E-05 +7.047026E-05 
 +5.124673E-03 +2.026471E-05 +9.861267E-05 +2.026471E-05 -7.557959E-05 +3.016837E-05 +9.861267E-05 +3.016837E-05 +1.465227E-05 
 +5.213867E-03 +3.666201E-05 +1.099850E-04 +3.666201E-05 -1.079329E-04 +5.281440E-05 +1.099850E-04 +5.281440E-05 +1.449139E-05 
 +5.126353E-03 +3.873081E-06 -1.518827E-04 +3.873081E-06 -1.055758E-04 +1.813134E-04 -1.518827E-04 +1.813134E-04 +1.417779E-04 
 +5.078210E-03 +3.581598E-05 -2.456878E-04 +3.581598E-05 -1.441394E-05 +3.162186E-04 -2.456878E-04 +3.162186E-04 +1.365991E-04 
 +5.078664E-03 -1.501040E-06 -2.472307E-04 -1.501040E-06 +1.023358E-04 +3.212479E-04 -2.472307E-04 +3.212479E-04 +4.636178E-05 
 +5.166940E-03 +1.635844E-06 -8.169261E-05 +1.635844E-06 +1.015198E-04 +1.414934E-04 -8.169261E-05 +1.414934E-04 +5.151587E-05 
 +5.169382E-03 +4.835558E-06 -6.205847E-05 +4.835558E-06 +4.287825E-05 +3.163326E-06 -6.205847E-05 +3.163326E-06 +1.525537E-04 
 +4.829094E-03 +1.420950E-04 +7.387793E-05 +1.420950E-04 +6.436663E-05 +3.360959E-05 +7.387793E-05 +3.360959E-05 +3.522366E-04 
 +4.732940E-03 +1.009239E-04 +1.737079E-04 +1.009239E-04 +1.118315E-04 +1.932417E-05 +1.737079E-04 +1.932417E-05 +3.336954E-04 
 +4.705310E-03 +7.438699E-05 +1.713640E-04 +7.438699E-05 +1.645078E-04 +5.209576E-06 +1.713640E-04 +5.209576E-06 +2.799882E-04 
 +4.719439E-03 -1.478537E-05 +1.423298E-04 -1.478537E-05 +2.359782E-04 -7.460143E-05 +1.423298E-04 -7.460143E-05 +1.487899E-04 
 +5.058840E-03 -4.325851E-05 -4.932220E-05 -4.325851E-05 +2.309243E-04 -2.376585E-04 -4.932220E-05 -2.376585E-04 -1.130896E-04 
 +5.099514E-03 +6.089061E-05 -3.041974E-05 +6.089061E-05 +1.871953E-04 -2.477973E-04 -3.041974E-05 -2.477973E-04 -1.553284E-04 
 +4.972163E-03 +7.903307E-05 -1.325652E-04 +7.903307E-05 +3.180536E-04 -1.845275E-04 -1.325652E-04 -1.845275E-04 -1.113037E-04 
 +4.900518E-03 +7.307789E-05 -6.105573E-05 +7.307789E-05 +5.636300E-04 -5.043081E-05 -6.105573E-05 -5.043081E-05 -1.370100E-04 
 +4.982995E-03 +4.761310E-05 -4.347515E-05 +4.761310E-05 +5.337374E-04 -1.561671E-05 -4.347515E-05 -1.561671E-05 -2.003391E-04 
 +5.028279E-03 -6.277488E-05 -1.378590E-05 -6.277488E-05 +4.041066E-04 +1.769448E-05 -1.378590E-05 +1.769448E-05 -1.877697E-04 
 +5.003037E-03 -1.085607E-04 -3.479895E-06 -1.085607E-04 +3.358088E-04 +9.177122E-05 -3.479895E-06 +9.177122E-05 -1.219708E-04 
 +5.036332E-03 -1.357668E-04 +5.567533E-05 -1.357668E-04 +2.032597E-04 +1.335982E-04 +5.567533E-05 +1.335982E-04 -4.326188E-05 
 +4.932878E-03 -2.459205E-05 +8.334500E-05 -2.459205E-05 +1.178405E-04 +6.541609E-05 +8.334500E-05 +6.541609E-05 +5.065724E-05 
 +4.914127E-03 +1.763078E-05 +8.201793E-05 +1.763078E-05 +1.340331E-04 -7.478159E-05 +8.201793E-05 -7.478159E-05 +1.124706E-04 
 +5.050825E-03 +8.621704E-06 +6.364294E-05 +8.621704E-06 +6.298137E-05 -1.997151E-04 +6.364294E-05 -1.997151E-04 +6.081123E-05 
 +5.226884E-03 +3.201604E-05 +7.265078E-05 +3.201604E-05 -6.149127E-05 -2.392831E-04 +7.265078E-05 -2.392831E-04 -3.124678E-05 
 +5.206555E-03 +6.225636E-05 -5.061910E-05 +6.225636E-05 +1.312395E-05 -9.146473E-05 -5.061910E-05 -9.146473E-05 -4.367617E-05 
 +5.136811E-03 +7.578277E-05 -1.149119E-04 +7.578277E-05 +9.092543E-05 +6.213733E-05 -1.149119E-04 +6.213733E-05 -2.017079E-05 
 +5.167373E-03 +7.266446E-06 -1.239712E-04 +7.266446E-06 +6.198141E-05 +3.684613E-05 -1.239712E-04 +3.684613E-05 +2.656373E-05 
 +5.133076E-03 -1.171703E-05 -7.667903E-05 -1.171703E-05 +1.084667E-04 -9.480782E-05 -7.667903E-05 -9.480782E-05 +2.315649E-05 
 +5.013363E-03 +1.816263E-05 -8.679739E-06 +1.816263E-05 +2.033757E-04 -1.095495E-04 -8.679739E-06 -1.095495E-04 +7.123361E-05 
 +4.742491E-03 +1.242037E-04 +4.476160E-05 +1.242037E-04 +2.174223E-04 +5.876608E-06 +4.476160E-05 +5.876608E-06 +2.784979E-04 
 +4.751405E-03 +5.116244E-05 +1.331941E-04 +5.116244E-05 +1.492365E-04 +1.940087E-05 +1.331941E-04 +1.940087E-05 +3.875027E-04 
 +4.733577E-03 +6.414042E-05 +1.644460E-04 +6.414042E-05 +1.179939E-04 -7.029010E-06 +1.644460E-04 -7.029010E-06 +4.615787E-04 
 +4.741448E-03 -5.068280E-05 +1.878206E-04 -5.068280E-05 +1.174408E-04 -5.483849E-05 +1.878206E-04 -5.483849E-05 +3.786343E-04 
 +5.032644E-03 -7.600695E-05 -2.207545E-05 -7.600695E-05 +1.617049E-04 -1.554188E-04 -2.207545E-05 -1.554188E-04 +7.099833E-05 
 +5.031419E-03 +2.893209E-05 -1.527431E-04 +2.893209E-05 +1.901950E-04 -2.389134E-04 -1.527431E-04 -2.389134E-04 -9.925765E-05 
 +4.981774E-03 +1.495360E-04 -1.550163E-04 +1.495360E-04 +4.839727E-04 +1.345674E-05 -1.550163E-04 +1.345674E-05 -2.099052E-04 
 +5.011869E-03 +1.235550E-04 -2.333474E-05 +1.235550E-04 +4.896516E-04 +4.237676E-05 -2.333474E-05 +4.237676E-05 -2.964266E-04 
 +5.008632E-03 +3.645789E-05 +1.394466E-05 +3.645789E-05 +4.853781E-04 +3.352317E-05 +1.394466E-05 +3.352317E-05 -1.815409E-04 
 +4.934003E-03 -7.593781E-05 +9.059294E-06 -7.593781E-05 +4.194489E-04 +5.695189E-05 +9.059294E-06 +5.695189E-05 -6.443659E-05 
 +5.064287E-03 -1.456902E-04 +5.953258E-06 -1.456902E-04 +2.830555E-04 +1.164772E-04 +5.953258E-06 +1.164772E-04 -9.770174E-05 
 +5.117661E-03 -1.394580E-04 +4.005317E-07 -1.394580E-04 +1.817096E-04 +1.721519E-04 +4.005317E-07 +1.721519E-04 -2.108256E-04 
 +5.001361E-03 -2.692747E-05 -2.575396E-05 -2.692747E-05 +2.094292E-04 +5.603566E-05 -2.575396E-05 +5.603566E-05 -1.056717E-04 
 +4.888813E-03 -9.907497E-06 -2.597577E-05 -9.907497E-06 +2.145585E-04 -1.872270E-04 -2.597577E-05 -1.872270E-04 +7.949994E-05 
 +5.018486E-03 -1.598619E-05 +1.255644E-06 -1.598619E-05 +1.165864E-04 -3.413408E-04 +1.255644E-06 -3.413408E-04 +3.543808E-05 
 +5.160625E-03 +8.455142E-05 -1.414339E-05 +8.455142E-05 +8.659651E-05 -2.559569E-04 -1.414339E-05 -2.559569E-04 -1.334829E-04 
 +5.250911E-03 +1.299836E-04 -2.496312E-05 +1.299836E-04 +1.013933E-04 -8.341181E-05 -2.496312E-05 -8.341181E-05 -2.624559E-04 
 +5.233565E-03 +5.880012E-05 -5.782690E-05 +5.880012E-05 +8.397727E-05 -4.281400E-05 -5.782690E-05 -4.281400E-05 -2.559632E-04 
 +5.207684E-03 +5.789136E-05 -6.269161E-05 +5.789136E-05 +1.289653E-04 -9.331099E-05 -6.269161E-05 -9.331099E-05 -1.486612E-04 
 +5.126864E-03 +5.479604E-05 -5.731956E-05 +5.479604E-05 +2.319471E-04 -1.015347E-04 -5.731956E-05 -1.015347E-04 -6.929309E-05 
 +4.866442E-03 +8.857241E-05 +6.355663E-05 +8.857241E-05 +3.285198E-04 -1.203106E-05 +6.355663E-05 -1.203106E-05 +3.706790E-07 
 +4.689057E-03 +1.455356E-04 +2.986347E-05 +1.455356E-04 +3.281533E-04 +5.677190E-05 +2.986347E-05 +5.677190E-05 +1.621582E-04 
 +4.681589E-03 +6.798167E-05 +1.959599E-05 +6.798167E-05 +2.457663E-04 +4.086661E-05 +1.959599E-05 +4.086661E-05 +3.001228E-04 
 +4.771335E-03 +6.171977E-05 +1.286979E-04 +6.171977E-05 +1.859919E-04 +9.269149E-05 +1.286979E-04 +9.269149E-05 +3.715592E-04 
 +4.770632E-03 -4.220880E-05 +1.744521E-04 -4.220880E-05 +1.191802E-04 +1.060835E-04 +1.744521E-04 +1.060835E-04 +3.821223E-04 
 +4.975264E-03 -6.018575E-05 -4.697158E-05 -6.018575E-05 +3.801980E-05 -4.092542E-05 -4.697158E-05 -4.092542E-05 +2.312487E-04 
 +4.977344E-03 +1.152158E-04 -2.114384E-04 +1.152158E-04 +2.317049E-04 -8.524125E-05 -2.114384E-04 -8.524125E-05 +6.305633E-06 
 +5.007341E-03 +2.677308E-04 -5.143482E-05 +2.677308E-04 +1.655009E-04 -4.763962E-05 -5.143482E-05 -4.763962E-05 -1.635069E-04 
 +5.084778E-03 +1.475833E-04 -4.466471E-05 +1.475833E-04 +1.702815E-04 +5.284092E-05 -4.466471E-05 +5.284092E-05 -2.115190E-04 
 +5.097592E-03 +2.907653E-05 +3.946302E-05 +2.907653E-05 +5.352779E-05 +1.170518E-04 +3.946302E-05 +1.170518E-04 -5.883698E-05 
 +4.880242E-03 -3.453262E-05 +3.177680E-05 -3.453262E-05 -6.142335E-05 +1.194890E-04 +3.177680E-05 +1.194890E-04 +9.837127E-05 
 +5.143770E-03 -9.072712E-05 +3.200846E-05 -9.072712E-05 -1.866616E-04 +1.606413E-04 +3.200846E-05 +1.606413E-04 +1.350724E-06 
 +5.102313E-03 -2.012231E-05 -2.515566E-05 -2.012231E-05 -1.232942E-04 +1.117310E-04 -2.515566E-05 +1.117310E-04 -1.546189E-04 
 +4.971855E-03 +5.746528E-06 -9.645013E-05 +5.746528E-06 -6.707214E-05 -5.859524E-05 -9.645013E-05 -5.859524E-05 -8.354612E-05 
 +4.956767E-03 +1.281516E-05 -1.710052E-05 +1.281516E-05 -1.088131E-04 -1.803701E-04 -1.710052E-05 -1.803701E-04 +1.841346E-05 
 +4.986604E-03 +2.337280E-05 -3.344039E-05 +2.337280E-05 +2.279997E-05 -2.868568E-04 -3.344039E-05 -2.868568E-04 +1.010658E-05 
 +5.108948E-03 +1.182217E-04 -5.363523E-05 +1.182217E-04 +1.451701E-04 -2.823925E-04 -5.363523E-05 -2.823925E-04 -1.245717E-04 
 +5.234829E-03 +1.396197E-04 -7.535760E-05 +1.396197E-04 +1.349290E-04 -1.142537E-04 -7.535760E-05 -1.142537E-04 -2.975685E-04 
 +5.282855E-03 +5.040919E-05 -9.524917E-05 +5.040919E-05 +1.164924E-04 -5.029332E-05 -9.524917E-05 -5.029332E-05 -2.685498E-04 
 +5.209467E-03 +1.821562E-05 -1.045169E-04 +1.821562E-05 +1.410533E-04 -1.452054E-04 -1.045169E-04 -1.452054E-04 -1.703620E-04 
 +5.046636E-03 -2.832348E-05 +7.107236E-07 -2.832348E-05 +1.902908E-04 -1.749822E-04 +7.107236E-07 -1.749822E-04 -1.208946E-04 
 +4.800381E-03 +1.815990E-06 +1.108239E-04 +1.815990E-06 +2.549526E-04 -6.067912E-05 +1.108239E-04 -6.067912E-05 -5.988502E-05 
 +4.714748E-03 +2.912603E-05 +7.197670E-05 +2.912603E-05 +2.705541E-04 +1.224653E-05 +7.197670E-05 +1.224653E-05 +6.144493E-05 
 +4.582845E-03 +2.731650E-05 -5.822201E-06 +2.731650E-05 +3.073300E-04 +1.210850E-05 -5.822201E-06 +1.210850E-05 +6.111284E-05 
 +4.787602E-03 -2.657669E-05 +4.482719E-05 -2.657669E-05 +2.708877E-04 +1.491919E-05 +4.482719E-05 +1.491919E-05 -1.225097E-04 
 +4.895578E-03 -7.657705E-05 +1.250510E-05 -7.657705E-05 +1.899153E-04 -5.432338E-06 +1.250510E-05 -5.432338E-06 -8.314956E-05 
 +4.900487E-03 -6.579264E-07 -7.908557E-05 -6.579264E-07 +2.723349E-04 -2.569283E-05 -7.908557E-05 -2.569283E-05 -6.134155E-06 
 +4.942578E-03 +2.489438E-04 -6.849017E-05 +2.489438E-04 +2.324160E-04 -4.411928E-05 -6.849017E-05 -4.411928E-05 -7.826366E-05 
 +5.006432E-03 +2.729147E-04 +5.727959E-05 +2.729147E-04 -8.288014E-05 -1.760436E-04 +5.727959E-05 -1.760436E-04 +5.533623E-07 
 +5.094563E-03 +1.389970E-04 +6.627360E-06 +1.389970E-04 -2.656372E-04 -1.176884E-04 +6.627360E-06 -1.176884E-04 +9.137951E-05 
 +5.131466E-03 +7.624119E-06 +1.211985E-05 +7.624119E-06 -2.920372E-04 +4.297646E-06 +1.211985E-05 +4.297646E-06 +1.362867E-04 
 +5.035255E-03 -7.783296E-05 +4.444024E-05 -7.783296E-05 -3.304246E-04 +2.265407E-05 +4.444024E-05 +2.265407E-05 +2.367668E-04 
 +5.066216E-03 -6.730000E-05 -1.272469E-07 -6.730000E-05 -2.686149E-04 -5.335563E-05 -1.272469E-07 -5.335563E-05 +1.852568E-04 
 +5.054034E-03 +1.600292E-05 -1.365574E-05 +1.600292E-05 -1.660846E-04 -1.554641E-04 -1.365574E-05 -1.554641E-04 +8.620948E-06 
 +4.981284E-03 +1.219255E-05 -1.565671E-05 +1.219255E-05 -7.286021E-05 -1.122295E-04 -1.565671E-05 -1.122295E-04 -9.618742E-05 
 +5.012430E-03 +7.908071E-05 +5.407756E-05 +7.908071E-05 +7.322846E-05 -8.379801E-05 +5.407756E-05 -8.379801E-05 -1.580758E-04 
 +4.959688E-03 +1.057042E-04 -3.285002E-05 +1.057042E-04 +1.215568E-04 -2.378510E-04 -3.285002E-05 -2.378510E-04 -1.254277E-04 
 +5.066992E-03 +1.838173E-04 -7.429141E-05 +1.838173E-04 +1.335398E-04 -3.133072E-04 -7.429141E-05 -3.133072E-04 -1.227852E-04 
 +5.205771E-03 +1.368372E-04 -1.151163E-04 +1.368372E-04 +1.249231E-04 -2.141977E-04 -1.151163E-04 -2.141977E-04 -1.971718E-04 
 +5.193021E-03 +3.835194E-05 -1.040510E-04 +3.835194E-05 +8.092508E-05 -1.695646E-04 -1.040510E-04 -1.695646E-04 -1.678681E-04 
 +5.109964E-03 -4.440736E-05 -4.693528E-05 -4.440736E-05 +6.278766E-05 -1.692282E-04 -4.693528E-05 -1.692282E-04 -1.334420E-04 
 +4.920590E-03 -7.234318E-05 +1.042531E-04 -7.234318E-05 +1.115010E-04 -7.162374E-05 +1.042531E-04 -7.162374E-05 -5.068723E-05 
 +4.812515E-03 -5.018640E-05 +1.090887E-04 -5.018640E-05 +1.774699E-04 +7.581830E-06 +1.090887E-04 +7.581830E-06 +8.901765E-06 
 +4.740945E-03 -4.718197E-05 +1.347641E-04 -4.718197E-05 +1.962153E-04 +1.813503E-06 +1.347641E-04 +1.813503E-06 +5.017691E-05 
 +4.622301E-03 +1.902088E-05 +9.524364E-05 +1.902088E-05 +2.168352E-04 -2.442822E-05 +9.524364E-05 -2.442822E-05 -4.934096E-05 
 +4.837546E-03 -4.128102E-05 -2.103658E-05 -4.128102E-05 +2.300919E-04 -6.172701E-05 -2.103658E-05 -6.172701E-05 -3.749017E-04 
 +4.993676E-03 -7.162170E-05 -7.030747E-05 -7.162170E-05 +1.998467E-04 -8.551594E-05 -7.030747E-05 -8.551594E-05 -3.850524E-04 
 +4.936218E-03 +4.515363E-05 -1.752175E-05 +4.515363E-05 +1.832941E-04 -7.757620E-05 -1.752175E-05 -7.757620E-05 -2.777513E-04 
 +4.957367E-03 +2.024519E-04 +2.539328E-05 +2.024519E-04 +1.260442E-04 -1.085229E-04 +2.539328E-05 -1.085229E-04 -2.015653E-04 
 +4.999350E-03 +1.419947E-04 +5.442029E-05 +1.419947E-04 -2.505797E-04 -5.590860E-05 +5.442029E-05 -5.590860E-05 +1.041522E-04 
 +5.088411E-03 +1.081523E-04 +1.325263E-05 +1.081523E-04 -3.992059E-04 -4.857271E-05 +1.325263E-05 -4.857271E-05 +2.431988E-04 
 +5.155345E-03 +3.904953E-05 +6.324595E-06 +3.904953E-05 -4.196539E-04 -3.639597E-05 +6.324595E-06 -3.639597E-05 +2.616966E-04 
 +5.135264E-03 -4.525138E-05 +9.868356E-06 -4.525138E-05 -2.695553E-04 -9.727972E-05 +9.868356E-06 -9.727972E-05 +2.578186E-04 
 +4.996132E-03 -6.724679E-06 -3.957710E-05 -6.724679E-06 -4.893516E-05 -1.930662E-04 -3.957710E-05 -1.930662E-04 +1.464538E-04 
 +5.015449E-03 +3.281731E-05 +7.341748E-05 +3.281731E-05 +5.933794E-05 -1.485630E-04 +7.341748E-05 -1.485630E-04 -4.709076E-05 
 +5.025235E-03 +6.598488E-05 +6.111389E-05 +6.598488E-05 +8.446637E-05 -5.296456E-06 +6.111389E-05 -5.296456E-06 -2.043683E-04 
 +5.054463E-03 +8.993966E-05 +4.250380E-05 +8.993966E-05 +8.495380E-05 +5.583959E-05 +4.250380E-05 +5.583959E-05 -2.835627E-04 
 +5.002854E-03 +1.181884E-04 -4.670161E-05 +1.181884E-04 +9.935151E-05 -9.621200E-06 -4.670161E-05 -9.621200E-06 -2.064979E-04 
 +5.021843E-03 +1.959730E-04 -1.586865E-04 +1.959730E-04 +7.352908E-05 -1.360381E-04 -1.586865E-04 -1.360381E-04 -8.010926E-05 
 +5.123537E-03 +1.399453E-04 -7.384525E-05 +1.399453E-04 +2.200500E-05 -9.683680E-05 -7.384525E-05 -9.683680E-05 -5.508182E-05 
 +5.028902E-03 +2.619151E-05 -1.029873E-05 +2.619151E-05 +2.928007E-05 +4.684506E-05 -1.029873E-05 +4.684506E-05 -7.616907E-05 
 +4.945026E-03 -3.797079E-05 +7.120842E-05 -3.797079E-05 +9.600134E-05 +5.084755E-05 +7.120842E-05 +5.084755E-05 -8.045244E-05 
 +4.840565E-03 -5.993273E-05 +1.004623E-04 -5.993273E-05 +1.487642E-04 -4.791998E-06 +1.004623E-04 -4.791998E-06 -2.860879E-06 
 +4.805896E-03 -6.227594E-05 +5.292275E-05 -6.227594E-05 +1.278688E-04 +5.843521E-06 +5.292275E-05 +5.843521E-06 +4.138514E-05 
 +4.770055E-03 -7.235039E-05 +8.431111E-05 -7.235039E-05 +9.927641E-05 +1.994003E-05 +8.431111E-05 +1.994003E-05 +6.075233E-05 
 +4.766183E-03 +3.363931E-05 +9.719912E-05 +3.363931E-05 +9.507127E-05 -4.346267E-05 +9.719912E-05 -4.346267E-05 -5.101358E-05 
 +4.957652E-03 -4.628648E-05 +1.596719E-06 -4.628648E-05 +6.043700E-05 -1.178623E-04 +1.596719E-06 -1.178623E-04 -3.344204E-04 
 +5.022516E-03 -3.839953E-05 -5.461738E-05 -3.839953E-05 +4.567284E-05 -1.531658E-04 -5.461738E-05 -1.531658E-04 -4.162744E-04 
 +5.014461E-03 +8.108390E-05 +8.679016E-06 +8.108390E-05 +6.892726E-05 -1.563443E-04 +8.679016E-06 -1.563443E-04 -3.400821E-04 
 +4.969141E-03 +1.288882E-04 +7.372482E-05 +1.288882E-04 -3.339720E-05 -1.012103E-04 +7.372482E-05 -1.012103E-04 -1.603384E-04 
 +5.052772E-03 -9.427777E-06 +2.506529E-05 -9.427777E-06 -3.638084E-04 +2.468887E-06 +2.506529E-05 +2.468887E-06 +1.449752E-04 
 +5.092811E-03 +9.224639E-06 -1.171559E-05 +9.224639E-06 -4.021731E-04 +5.053700E-06 -1.171559E-05 +5.053700E-06 +2.247751E-04 
 +5.180419E-03 -2.079713E-05 -9.089808E-06 -2.079713E-05 -4.283197E-04 -1.245220E-05 -9.089808E-06 -1.245220E-05 +2.317165E-04 
 +5.150841E-03 +9.913507E-06 -4.283237E-05 +9.913507E-06 -2.770398E-04 -9.573747E-05 -4.283237E-05 -9.573747E-05 +2.303349E-04 
 +5.047838E-03 +6.640807E-05 -3.826335E-05 +6.640807E-05 +3.198376E-06 -1.722160E-04 -3.826335E-05 -1.722160E-04 +1.717568E-04 
 +5.043542E-03 +2.308537E-05 +1.664801E-04 +2.308537E-05 +8.035326E-05 -1.276901E-04 +1.664801E-04 -1.276901E-04 +5.308080E-05 
 +5.000010E-03 +6.190773E-05 +4.197217E-05 +6.190773E-05 -2.082277E-05 -1.038011E-05 +4.197217E-05 -1.038011E-05 -7.707702E-05 
 +5.099810E-03 +8.091883E-05 -3.356700E-06 +8.091883E-05 -6.781007E-05 +4.663527E-05 -3.356700E-06 +4.663527E-05 -1.349626E-04 
 +5.052687E-03 +1.108392E-04 -1.382470E-04 +1.108392E-04 -7.813269E-05 +1.943687E-06 -1.382470E-04 +1.943687E-06 -5.529661E-05 
 +5.007783E-03 +1.714935E-04 -2.176499E-04 +1.714935E-04 -4.770633E-05 +4.542914E-05 -2.176499E-04 +4.542914E-05 +1.739468E-05 
 +4.985864E-03 +1.200776E-04 +3.932577E-05 +1.200776E-04 -2.484971E-06 +1.436609E-04 +3.932577E-05 +1.436609E-04 -2.080410E-05 
 +4.882676E-03 +5.080530E-05 +9.992804E-05 +5.080530E-05 +7.189332E-05 +1.367621E-04 +9.992804E-05 +1.367621E-04 -3.242756E-05 
 +4.822306E-03 +2.808803E-05 +9.842787E-05 +2.808803E-05 +1.574409E-04 +1.066450E-04 +9.842787E-05 +1.066450E-04 +2.243915E-05 
 +4.786417E-03 -1.451829E-05 +5.056361E-05 -1.451829E-05 +1.666033E-04 +8.090600E-05 +5.056361E-05 +8.090600E-05 +6.043478E-05 
 +4.780706E-03 -3.336836E-05 +2.095716E-05 -3.336836E-05 +1.190543E-04 +4.316750E-05 +2.095716E-05 +4.316750E-05 +8.445858E-05 
 +4.812094E-03 -3.067438E-05 +4.821790E-05 -3.067438E-05 +4.983385E-05 +1.750204E-05 +4.821790E-05 +1.750204E-05 +9.118315E-05 
 +4.904799E-03 +1.553577E-05 +5.675671E-05 +1.553577E-05 -1.126969E-04 -9.423323E-06 +5.675671E-05 -9.423323E-06 +2.542768E-05 
 +4.996728E-03 -6.943774E-05 +4.562901E-05 -6.943774E-05 -2.177731E-04 -9.266130E-05 +4.562901E-05 -9.266130E-05 -1.510021E-04 
 +5.065753E-03 -5.122971E-05 +3.984058E-07 -5.122971E-05 -1.184044E-04 -1.629272E-04 +3.984058E-07 -1.629272E-04 -3.501989E-04 
 +5.024144E-03 -4.274496E-05 +4.930818E-05 -4.274496E-05 -1.074429E-04 -1.498947E-04 +4.930818E-05 -1.498947E-04 -3.201411E-04 
 +4.948220E-03 -8.683598E-05 +1.563205E-04 -8.683598E-05 -2.686168E-04 -6.065163E-05 +1.563205E-04 -6.065163E-05 -6.362215E-05 
 +5.113067E-03 +9.834881E-06 -2.252691E-05 +9.834881E-06 -2.715289E-04 -1.070044E-04 -2.252691E-05 -1.070044E-04 +1.037089E-04 
 +5.137603E-03 -1.536416E-05 -5.557676E-05 -1.536416E-05 -3.249168E-04 -6.942723E-05 -5.557676E-05 -6.942723E-05 +1.613342E-04 
 +5.171718E-03 -4.697190E-05 -6.640606E-05 -4.697190E-05 -3.243307E-04 -3.003099E-05 -6.640606E-05 -3.003099E-05 +1.342352E-04 
 +5.185933E-03 -6.215840E-05 -8.470272E-05 -6.215840E-05 -2.959020E-04 -6.219912E-05 -8.470272E-05 -6.219912E-05 +1.350468E-04 
 +5.167799E-03 -5.448393E-06 -9.168494E-05 -5.448393E-06 -3.203438E-04 -1.350712E-04 -9.168494E-05 -1.350712E-04 +1.504746E-04 
 +5.143296E-03 +4.114123E-05 +2.672915E-05 +4.114123E-05 -2.237638E-04 -1.285314E-04 +2.672915E-05 -1.285314E-04 +1.240556E-04 
 +5.020869E-03 +1.201418E-04 -6.030106E-05 +1.201418E-04 -5.992130E-05 -5.036083E-05 -6.030106E-05 -5.036083E-05 +7.404438E-05 
 +4.991287E-03 +1.429415E-04 -1.168110E-04 +1.429415E-04 -5.248685E-05 -2.848904E-06 -1.168110E-04 -2.848904E-06 +4.458461E-05 
 +4.943795E-03 +1.675418E-04 -1.771960E-04 +1.675418E-04 -3.601402E-05 +1.744701E-05 -1.771960E-04 +1.744701E-05 +6.856387E-05 
 +4.950954E-03 +1.834583E-04 -2.351446E-04 +1.834583E-04 -1.635206E-05 +4.224741E-05 -2.351446E-04 +4.224741E-05 +1.194136E-04 
 +4.978303E-03 +1.408810E-04 -1.177131E-04 +1.408810E-04 +4.505065E-05 +7.224618E-05 -1.177131E-04 +7.224618E-05 +2.626654E-05 
 +4.856211E-03 +6.824020E-05 +1.422738E-04 +6.824020E-05 +1.514549E-04 +1.658032E-04 +1.422738E-04 +1.658032E-04 +1.994486E-05 
 +4.781080E-03 +3.926118E-05 +8.792592E-05 +3.926118E-05 +2.204188E-04 +2.383032E-04 +8.792592E-05 +2.383032E-04 +1.326758E-04 
 +4.764949E-03 -2.816221E-05 -9.932451E-06 -2.816221E-05 +2.126009E-04 +1.911941E-04 -9.932451E-06 +1.911941E-04 +1.706588E-04 
 +4.759659E-03 -5.358051E-05 -2.472406E-05 -5.358051E-05 +6.033817E-05 +1.036504E-04 -2.472406E-05 +1.036504E-04 +1.839707E-04 
 +4.888602E-03 -6.867162E-05 -8.322341E-06 -6.867162E-05 -1.276111E-04 +7.079526E-05 -8.322341E-06 +7.079526E-05 +1.718666E-04 
 +4.987778E-03 -1.416623E-04 -2.579506E-05 -1.416623E-04 -1.926917E-04 -7.635903E-07 -2.579506E-05 -7.635903E-07 +1.321042E-04 
 +4.932265E-03 -1.794857E-04 -4.662006E-05 -1.794857E-04 -1.269728E-04 -1.236973E-04 -4.662006E-05 -1.236973E-04 +6.963123E-05 
 +4.971050E-03 -1.160080E-04 -1.742009E-05 -1.160080E-04 -9.649378E-05 -1.323669E-04 -1.742009E-05 -1.323669E-04 +1.238833E-05 
 +5.023388E-03 -1.112106E-04 +3.098532E-05 -1.112106E-04 -6.623797E-05 -1.481582E-04 +3.098532E-05 -1.481582E-04 -3.763923E-05 
 +4.968614E-03 -1.404805E-04 +1.935584E-04 -1.404805E-04 -1.307489E-04 -1.612086E-04 +1.935584E-04 -1.612086E-04 -1.752121E-05 
 +5.163013E-03 -1.811109E-05 -8.363561E-05 -1.811109E-05 -2.662336E-04 -9.368608E-05 -8.363561E-05 -9.368608E-05 -2.578095E-05 
 +5.165239E-03 -2.393623E-05 -2.084581E-05 -2.393623E-05 -3.016739E-04 -4.943876E-05 -2.084581E-05 -4.943876E-05 -8.498357E-06 
 +5.135780E-03 -6.031173E-05 -4.119423E-05 -6.031173E-05 -2.697479E-04 +3.324297E-05 -4.119423E-05 +3.324297E-05 +5.267085E-05 
 +5.158097E-03 -5.865952E-05 -6.293581E-05 -5.865952E-05 -3.134413E-04 -2.796515E-05 -6.293581E-05 -2.796515E-05 +4.562754E-05 
 +5.243152E-03 -1.860613E-05 -6.801828E-05 -1.860613E-05 -3.690414E-04 -1.890389E-04 -6.801828E-05 -1.890389E-04 -1.402808E-05 
 +5.267612E-03 +2.146196E-05 -2.564717E-05 +2.146196E-05 -3.903517E-04 -2.516594E-04 -2.564717E-05 -2.516594E-04 +1.244774E-06 
 +5.151663E-03 +2.775161E-05 -8.745695E-05 +2.775161E-05 -3.236720E-04 -1.603177E-04 -8.745695E-05 -1.603177E-04 +1.028728E-04 
 +4.965557E-03 +6.333363E-05 -1.518940E-04 +6.333363E-05 -1.524360E-04 +1.019146E-06 -1.518940E-04 +1.019146E-06 +1.470690E-04 
 +4.902045E-03 +1.321593E-04 -1.288658E-04 +1.321593E-04 -3.594210E-05 +6.832759E-05 -1.288658E-04 +6.832759E-05 +1.338928E-04 
 +4.925711E-03 +9.658708E-05 -1.596503E-04 +9.658708E-05 -4.430339E-05 -1.509657E-05 -1.596503E-04 -1.509657E-05 +2.048103E-04 
 +4.894191E-03 +1.247723E-04 -3.308855E-05 +1.247723E-04 -6.580536E-05 -1.085240E-05 -3.308855E-05 -1.085240E-05 +2.085917E-04 
 +4.819719E-03 +6.816968E-05 +1.865466E-04 +6.816968E-05 -3.788274E-06 +1.403091E-04 +1.865466E-04 +1.403091E-04 +2.335108E-04 
 +4.775194E-03 +1.705765E-05 +1.092998E-04 +1.705765E-05 -3.017072E-07 +2.499574E-04 +1.092998E-04 +2.499574E-04 +3.226602E-04 
 +4.775230E-03 -7.264842E-05 -4.867205E-05 -7.264842E-05 -5.643520E-05 +2.646226E-04 -4.867205E-05 +2.646226E-04 +3.829999E-04 
 +4.735600E-03 -1.201584E-04 -8.437988E-05 -1.201584E-04 -8.165581E-05 +1.657464E-04 -8.437988E-05 +1.657464E-04 +3.858307E-04 
 +4.866160E-03 -1.517461E-04 -1.064566E-04 -1.517461E-04 -1.297364E-04 +5.502476E-05 -1.064566E-04 +5.502476E-05 +3.109650E-04 
 +4.937487E-03 -1.628309E-04 -4.156840E-05 -1.628309E-04 -1.683229E-04 +5.551273E-05 -4.156840E-05 +5.551273E-05 +2.289001E-04 
 +4.982314E-03 -1.175315E-04 +1.555323E-05 -1.175315E-04 -1.574415E-04 +7.010186E-06 +1.555323E-05 +7.010186E-06 +1.340458E-04 
 +4.917571E-03 -6.187746E-05 +1.397496E-04 -6.187746E-05 -1.826929E-04 -5.862039E-05 +1.397496E-04 -5.862039E-05 +1.038870E-04 
 +5.010747E-03 -3.980955E-07 +1.498737E-05 -3.980955E-07 -2.408713E-04 +9.598889E-06 +1.498737E-05 +9.598889E-06 +1.274338E-04 
 +4.946183E-03 -1.167090E-04 +8.289921E-05 -1.167090E-04 -2.233769E-04 -9.239187E-06 +8.289921E-05 -9.239187E-06 +6.789978E-05 
 +5.159197E-03 -4.921824E-05 +7.955694E-06 -4.921824E-05 -2.281215E-04 -4.091585E-05 +7.955694E-06 -4.091585E-05 -1.220448E-04 
 +5.152606E-03 +1.044615E-05 -5.258043E-06 +1.044615E-05 -2.574043E-04 +7.424832E-05 -5.258043E-06 +7.424832E-05 -4.917319E-05 
 +5.151148E-03 -5.782262E-05 -6.908946E-05 -5.782262E-05 -2.959912E-04 +8.458295E-05 -6.908946E-05 +8.458295E-05 -7.090822E-06 
 +5.164588E-03 -6.511477E-05 -9.862009E-05 -6.511477E-05 -3.654267E-04 -6.933631E-06 -9.862009E-05 -6.933631E-06 -3.977166E-05 
 +5.216444E-03 -4.021981E-05 -1.123566E-04 -4.021981E-05 -4.238527E-04 -1.778137E-04 -1.123566E-04 -1.778137E-04 -8.943221E-05 
 +5.212845E-03 -1.489975E-05 -6.668742E-05 -1.489975E-05 -4.292034E-04 -2.331451E-04 -6.668742E-05 -2.331451E-04 -5.362877E-05 
 +5.142854E-03 -2.080920E-05 -6.067722E-05 -2.080920E-05 -2.903798E-04 +2.172886E-05 -6.067722E-05 +2.172886E-05 +2.913734E-06 
 +5.033565E-03 -5.013639E-05 -1.115893E-04 -5.013639E-05 -1.138036E-04 +4.045236E-04 -1.115893E-04 +4.045236E-04 -5.233465E-05 
 +4.945306E-03 -3.270477E-06 -9.564935E-05 -3.270477E-06 -2.940478E-05 +5.226185E-04 -9.564935E-05 +5.226185E-04 -6.472808E-05 
 +4.914119E-03 -1.948186E-05 -5.967560E-05 -1.948186E-05 +4.360933E-06 +4.540802E-04 -5.967560E-05 +4.540802E-04 +4.395792E-05 
 +4.864008E-03 +2.588648E-05 +6.893462E-05 +2.588648E-05 -3.188130E-05 +3.687732E-04 +6.893462E-05 +3.687732E-04 +1.396159E-04 
 +4.783591E-03 -9.721285E-06 +1.238244E-04 -9.721285E-06 -1.521694E-04 +3.180655E-04 +1.238244E-04 +3.180655E-04 +2.377202E-04 
 +4.799396E-03 -1.159300E-04 +9.061056E-05 -1.159300E-04 -2.831270E-04 +3.516655E-04 +9.061056E-05 +3.516655E-04 +3.703632E-04 
 +4.813456E-03 -9.601571E-05 -2.436097E-05 -9.601571E-05 -2.863244E-04 +3.012992E-04 -2.436097E-05 +3.012992E-04 +4.806740E-04 
 +4.760287E-03 -1.280993E-04 -8.133233E-05 -1.280993E-04 -1.803040E-04 +1.542246E-04 -8.133233E-05 +1.542246E-04 +5.058996E-04 
 +4.811534E-03 -1.652080E-04 -1.491783E-04 -1.652080E-04 -1.435197E-04 +6.483894E-05 -1.491783E-04 +6.483894E-05 +4.133085E-04 
 +4.943863E-03 -1.536339E-04 -8.830343E-05 -1.536339E-04 -1.644922E-04 +6.908552E-05 -8.830343E-05 +6.908552E-05 +2.963301E-04 
 +5.021462E-03 -1.206007E-04 -4.717184E-05 -1.206007E-04 -1.745437E-04 +1.548627E-05 -4.717184E-05 +1.548627E-05 +1.461188E-04 
 +4.943881E-03 -6.303697E-05 +6.360737E-05 -6.303697E-05 -6.186199E-05 -1.548416E-04 +6.360737E-05 -1.548416E-04 +7.525494E-05 
 +4.936925E-03 -5.061478E-05 +2.778466E-05 -5.061478E-05 +3.278196E-05 -2.276727E-04 +2.778466E-05 -2.276727E-04 +8.328408E-05 
 +4.967167E-03 -1.677446E-04 +9.221768E-05 -1.677446E-04 -9.051133E-05 -1.681104E-04 +9.221768E-05 -1.681104E-04 -3.462335E-05 
 +5.122709E-03 -1.110300E-05 +1.391418E-04 -1.110300E-05 -3.529688E-05 +1.538766E-04 +1.391418E-04 +1.538766E-04 -1.649525E-04 
 +5.139298E-03 +2.641529E-05 +4.131783E-05 +2.641529E-05 -1.833766E-04 +1.536989E-04 +4.131783E-05 +1.536989E-04 -1.181487E-04 
 +5.156879E-03 -9.779255E-06 -3.836118E-05 -9.779255E-06 -2.494398E-04 +1.801734E-04 -3.836118E-05 +1.801734E-04 -6.855381E-05 
 +5.162334E-03 -3.159474E-05 -9.593159E-05 -3.159474E-05 -1.960830E-04 +2.066784E-04 -9.593159E-05 +2.066784E-04 -1.011736E-04 
 +5.184307E-03 +1.012056E-05 -1.040444E-04 +1.012056E-05 -1.638776E-04 +2.356400E-04 -1.040444E-04 +2.356400E-04 -1.525954E-04 
 +5.078769E-03 +7.623834E-05 -8.376530E-05 +7.623834E-05 -1.177606E-04 +2.891311E-04 -8.376530E-05 +2.891311E-04 -4.195723E-05 
 +4.978835E-03 +6.160096E-05 -3.700803E-05 +6.160096E-05 -1.184406E-04 +3.945393E-04 -3.700803E-05 +3.945393E-04 -1.559218E-05 
 +5.084745E-03 -4.325203E-07 -8.674257E-05 -4.325203E-07 -1.296448E-04 +5.000565E-04 -8.674257E-05 +5.000565E-04 -2.355612E-04 
 +5.067432E-03 +1.154326E-05 -8.176297E-05 +1.154326E-05 -1.006396E-04 +4.824380E-04 -8.176297E-05 +4.824380E-04 -2.697556E-04 
 +4.975570E-03 +2.018891E-05 +4.370592E-05 +2.018891E-05 -8.471635E-05 +3.885002E-04 +4.370592E-05 +3.885002E-04 -1.144186E-04 
 +4.914164E-03 +7.835576E-05 +1.065379E-04 +7.835576E-05 -7.249229E-05 +2.944197E-04 +1.065379E-04 +2.944197E-04 +8.709419E-05 
 +4.823622E-03 +8.290195E-05 +2.526707E-05 +8.290195E-05 -1.034165E-04 +2.544954E-04 +2.526707E-05 +2.544954E-04 +2.613523E-04 
 +4.725396E-03 -5.933266E-05 +7.891384E-05 -5.933266E-05 -2.490364E-04 +2.651072E-04 +7.891384E-05 +2.651072E-04 +3.316291E-04 
 +4.759110E-03 -5.192794E-05 +4.191033E-05 -5.192794E-05 -3.658057E-04 +2.250661E-04 +4.191033E-05 +2.250661E-04 +3.924008E-04 
 +4.804971E-03 -9.620963E-05 -1.628552E-05 -9.620963E-05 -2.679392E-04 +1.417368E-04 -1.628552E-05 +1.417368E-04 +4.505684E-04 
 +4.842085E-03 -1.947468E-04 -9.777362E-05 -1.947468E-04 -1.688418E-04 +7.344358E-05 -9.777362E-05 +7.344358E-05 +4.210314E-04 
 +4.939006E-03 -1.496153E-04 -1.769025E-04 -1.496153E-04 -1.643413E-04 +4.829426E-05 -1.769025E-04 +4.829426E-05 +3.250001E-04 
 +5.004760E-03 -8.994631E-05 -9.690856E-05 -8.994631E-05 -9.681562E-05 +5.643388E-05 -9.690856E-05 +5.643388E-05 +1.877333E-04 
 +4.990555E-03 -4.453140E-06 -8.161603E-05 -4.453140E-06 -4.764227E-05 +6.647604E-05 -8.161603E-05 +6.647604E-05 +9.727944E-05 
 +4.959590E-03 -4.050854E-06 +2.365618E-05 -4.050854E-06 -7.333041E-05 +1.141623E-04 +2.365618E-05 +1.141623E-04 +3.160347E-05 
 +5.024021E-03 -8.606493E-05 +2.090895E-04 -8.606493E-05 -4.163007E-05 +1.562841E-04 +2.090895E-04 +1.562841E-04 -9.358099E-05 
 +5.117655E-03 +2.906431E-05 +1.545971E-04 +2.906431E-05 +5.437182E-05 +2.598526E-04 +1.545971E-04 +2.598526E-04 -1.697401E-04 
 +5.142124E-03 +7.472988E-05 +1.221903E-04 +7.472988E-05 +1.119060E-04 +2.961644E-04 +1.221903E-04 +2.961644E-04 -2.857887E-04 
 +5.065751E-03 +2.568285E-05 +9.681862E-05 +2.568285E-05 +5.841250E-05 +2.591516E-04 +9.681862E-05 +2.591516E-04 -2.154233E-04 
 +5.125231E-03 -3.351808E-05 -4.418283E-05 -3.351808E-05 -5.600086E-05 +1.434097E-04 -4.418283E-05 +1.434097E-04 -1.974398E-04 
 +5.134979E-03 +1.591726E-05 -1.043884E-04 +1.591726E-05 -1.019289E-05 -7.504908E-05 -1.043884E-04 -7.504908E-05 -2.360978E-04 
 +4.997593E-03 +2.848263E-05 -1.281505E-04 +2.848263E-05 -5.466339E-06 -8.527882E-05 -1.281505E-04 -8.527882E-05 -4.877655E-05 
 +4.852173E-03 +5.439335E-05 -6.316619E-05 +5.439335E-05 -1.391935E-04 +1.903324E-04 -6.316619E-05 +1.903324E-04 +5.872592E-05 
 +5.085251E-03 +6.693517E-05 -1.151118E-04 +6.693517E-05 -2.192519E-04 +3.558430E-04 -1.151118E-04 +3.558430E-04 -2.523522E-04 
 +5.127028E-03 +6.286792E-05 -2.335706E-05 +6.286792E-05 -1.791597E-04 +3.769820E-04 -2.335706E-05 +3.769820E-04 -3.364993E-04 
 +5.025740E-03 -1.672035E-05 +6.225570E-05 -1.672035E-05 -1.038361E-04 +3.596988E-04 +6.225570E-05 +3.596988E-04 -1.048679E-04 
 +4.988870E-03 -2.089997E-05 +7.843719E-05 -2.089997E-05 -1.163568E-04 +2.564342E-04 +7.843719E-05 +2.564342E-04 +9.192885E-05 
 +4.926563E-03 -2.266733E-05 -1.400193E-05 -2.266733E-05 -9.069528E-05 +1.381275E-04 -1.400193E-05 +1.381275E-04 +2.483536E-04 
 +4.657131E-03 -1.162152E-04 +7.672398E-05 -1.162152E-04 +1.118819E-04 +1.181292E-04 +7.672398E-05 +1.181292E-04 +2.957879E-04 
 +4.527350E-03 -1.835306E-04 +1.260196E-04 -1.835306E-04 +8.285542E-05 +1.680209E-04 +1.260196E-04 +1.680209E-04 +3.549809E-04 
 +4.905833E-03 -1.211567E-04 +1.293639E-05 -1.211567E-04 -1.774141E-04 +1.429924E-04 +1.293639E-05 +1.429924E-04 +4.014374E-04 
 +4.936362E-03 -1.805897E-04 -6.066303E-05 -1.805897E-04 -2.253813E-04 +7.701264E-05 -6.066303E-05 +7.701264E-05 +3.547732E-04 
 +4.952149E-03 -1.133899E-04 -1.789131E-04 -1.133899E-04 -1.614127E-04 +9.663383E-05 -1.789131E-04 +9.663383E-05 +2.868043E-04 
 +5.023568E-03 -2.440079E-06 -8.408898E-05 -2.440079E-06 -1.024852E-04 +1.538586E-04 -8.408898E-05 +1.538586E-04 +2.062689E-04 
 +5.035722E-03 +3.355619E-05 -7.772064E-05 +3.355619E-05 -1.043239E-04 +2.032799E-04 -7.772064E-05 +2.032799E-04 +1.440677E-04 
 +5.051294E-03 +2.117174E-05 +4.429559E-05 +2.117174E-05 -1.325808E-04 +2.452536E-04 +4.429559E-05 +2.452536E-04 +1.047616E-04 
 +5.059692E-03 -9.158954E-06 +1.867593E-04 -9.158954E-06 -4.903363E-05 +2.301643E-04 +1.867593E-04 +2.301643E-04 +2.546236E-05 
 +5.149172E-03 +6.701816E-05 +1.410482E-04 +6.701816E-05 +6.535004E-05 +2.759497E-04 +1.410482E-04 +2.759497E-04 -1.761607E-04 
 +5.167194E-03 +1.101218E-04 +1.336265E-04 +1.101218E-04 +1.683777E-04 +3.122276E-04 +1.336265E-04 +3.122276E-04 -2.534182E-04 
 +5.073594E-03 +7.975129E-05 +1.061908E-04 +7.975129E-05 +2.543165E-04 +1.606230E-04 +1.061908E-04 +1.606230E-04 -2.336128E-04 
 +4.981809E-03 +5.404035E-05 -5.662288E-05 +5.404035E-05 +2.326747E-04 -1.505465E-04 -5.662288E-05 -1.505465E-04 -2.530716E-04 
 +5.025587E-03 +9.854753E-05 -1.264810E-04 +9.854753E-05 +8.321567E-05 -3.357805E-04 -1.264810E-04 -3.357805E-04 -2.909428E-04 
 +4.955488E-03 +4.245737E-05 -1.239323E-04 +4.245737E-05 -4.952259E-05 -2.358825E-04 -1.239323E-04 -2.358825E-04 -1.337717E-04 
 +4.747247E-03 +2.803930E-05 +7.703232E-07 +2.803930E-05 -1.423672E-04 +3.045201E-05 +7.703232E-07 +3.045201E-05 +2.067170E-05 
 +4.970618E-03 +4.212372E-05 -3.549784E-05 +4.212372E-05 -1.467576E-04 +2.652340E-04 -3.549784E-05 +2.652340E-04 -1.617738E-04 
 +5.115373E-03 +1.152720E-05 -5.067516E-05 +1.152720E-05 -8.462421E-05 +3.486986E-04 -5.067516E-05 +3.486986E-04 -2.435254E-04 
 +5.061078E-03 -6.371865E-05 +8.025982E-06 -6.371865E-05 -6.026621E-05 +3.046984E-04 +8.025982E-06 +3.046984E-04 -7.951602E-05 
 +5.028679E-03 -9.220883E-05 +4.781319E-05 -9.220883E-05 -6.173887E-05 +2.393025E-04 +4.781319E-05 +2.393025E-04 +4.213047E-05 
 +4.928268E-03 -1.151761E-04 +9.551023E-06 -1.151761E-04 -1.388811E-04 +1.565953E-04 +9.551023E-06 +1.565953E-04 +1.804669E-04 
 +4.764222E-03 -7.889805E-05 +4.972392E-05 -7.889805E-05 -9.109238E-05 +9.321511E-05 +4.972392E-05 +9.321511E-05 +2.892810E-04 
 +4.534713E-03 -1.803859E-04 +1.447003E-04 -1.803859E-04 +4.180168E-05 +7.824642E-05 +1.447003E-04 +7.824642E-05 +3.670357E-04 
 +4.957931E-03 -5.463329E-05 +3.236749E-05 -5.463329E-05 -5.988260E-05 +8.394216E-05 +3.236749E-05 +8.394216E-05 +3.347994E-04 
 +4.985627E-03 -5.235401E-05 -3.248142E-05 -5.235401E-05 -1.421693E-04 +1.027170E-04 -3.248142E-05 +1.027170E-04 +2.395145E-04 
 +4.970154E-03 -4.601986E-05 -1.183055E-04 -4.601986E-05 -9.572536E-05 +1.330701E-04 -1.183055E-04 +1.330701E-04 +2.075297E-04 
 +5.044200E-03 +4.340837E-05 -6.524840E-05 +4.340837E-05 -8.684986E-05 +1.636161E-04 -6.524840E-05 +1.636161E-04 +1.401402E-04 
 +5.072383E-03 +3.001042E-05 -4.136580E-05 +3.001042E-05 -7.633703E-05 +1.789719E-04 -4.136580E-05 +1.789719E-04 +7.697400E-05 
 +5.088747E-03 +3.471876E-05 +4.671733E-05 +3.471876E-05 -5.776183E-05 +1.978091E-04 +4.671733E-05 +1.978091E-04 +3.980979E-05 
 +5.116068E-03 +5.205631E-05 +1.184135E-04 +5.205631E-05 -1.647738E-05 +2.226337E-04 +1.184135E-04 +2.226337E-04 -4.760038E-05 
 +5.150523E-03 +5.972343E-05 +1.038291E-04 +5.972343E-05 +8.601192E-05 +2.416556E-04 +1.038291E-04 +2.416556E-04 -8.183904E-05 
 +5.174541E-03 +2.252700E-05 +7.434431E-05 +2.252700E-05 +4.540228E-05 +2.496621E-04 +7.434431E-05 +2.496621E-04 -5.526977E-05 
 +5.163768E-03 +4.430710E-05 +5.518548E-05 +4.430710E-05 +1.093139E-04 +1.834326E-04 +5.518548E-05 +1.834326E-04 -1.932465E-05 
 +4.889593E-03 -5.184870E-05 -4.008844E-05 -5.184870E-05 +3.188724E-04 +5.083062E-05 -4.008844E-05 +5.083062E-05 -7.390149E-05 
 +4.867661E-03 -1.075468E-04 -1.251865E-04 -1.075468E-04 +2.033862E-04 +2.264251E-05 -1.251865E-04 +2.264251E-05 -1.252661E-04 
 +4.822756E-03 -8.367801E-05 -1.656176E-04 -8.367801E-05 +4.424024E-05 +6.174159E-05 -1.656176E-04 +6.174159E-05 -4.284193E-05 
 +4.700454E-03 -1.056566E-04 -5.961335E-05 -1.056566E-04 +4.223758E-05 +2.856062E-05 -5.961335E-05 +2.856062E-05 +3.459697E-05 
 +4.771538E-03 -1.962783E-05 -1.658567E-05 -1.962783E-05 -8.026768E-05 +3.232997E-05 -1.658567E-05 +3.232997E-05 -8.994557E-05 
 +5.138781E-03 -2.144527E-06 -1.386440E-04 -2.144527E-06 -1.901180E-04 +1.739236E-04 -1.386440E-04 +1.739236E-04 -2.576645E-04 
 +5.113121E-03 -6.458083E-05 -6.539741E-05 -6.458083E-05 -1.846976E-04 +2.471298E-04 -6.539741E-05 +2.471298E-04 -2.222188E-04 
 +5.063913E-03 -1.191530E-04 +8.691025E-05 -1.191530E-04 -1.701263E-04 +1.976875E-04 +8.691025E-05 +1.976875E-04 -8.107392E-05 
 +4.941612E-03 -1.219591E-04 +8.877889E-05 -1.219591E-04 -1.644526E-04 +1.367810E-04 +8.877889E-05 +1.367810E-04 +1.112785E-04 
 +4.897225E-03 -2.349686E-05 +7.046506E-05 -2.349686E-05 -2.482793E-04 +1.133605E-04 +7.046506E-05 +1.133605E-04 +2.308004E-04 
 +4.838665E-03 -9.126714E-05 +9.281550E-05 -9.126714E-05 -2.476791E-04 +1.301438E-04 +9.281550E-05 +1.301438E-04 +2.501802E-04 
 +4.910321E-03 -4.735011E-05 +4.194791E-05 -4.735011E-05 -1.038257E-04 +1.349667E-04 +4.194791E-05 +1.349667E-04 +2.100434E-04 
 +4.947788E-03 -8.730473E-06 -4.115479E-06 -8.730473E-06 -6.186865E-05 +1.393883E-04 -4.115479E-06 +1.393883E-04 +1.643635E-04 
 +4.965400E-03 -2.780985E-05 -7.962072E-05 -2.780985E-05 -6.903255E-05 +1.386283E-04 -7.962072E-05 +1.386283E-04 +1.557243E-04 
 +5.037584E-03 +5.650762E-05 -2.126517E-05 +5.650762E-05 -6.202249E-05 +1.549632E-04 -2.126517E-05 +1.549632E-04 +9.907115E-05 
 +5.076299E-03 +3.396548E-05 -1.709744E-05 +3.396548E-05 -5.793323E-05 +1.728542E-04 -1.709744E-05 +1.728542E-04 +2.649244E-05 
 +5.118598E-03 +2.656645E-05 +4.883648E-05 +2.656645E-05 -5.033606E-05 +1.839714E-04 +4.883648E-05 +1.839714E-04 -2.447389E-05 
 +5.148091E-03 +5.499453E-05 +1.071916E-04 +5.499453E-05 -1.635570E-07 +2.131725E-04 +1.071916E-04 +2.131725E-04 -7.465141E-05 
 +5.134992E-03 -2.966321E-05 -1.118355E-06 -2.966321E-05 -1.747965E-04 +1.087098E-04 -1.118355E-06 +1.087098E-04 +1.359201E-04 
 +5.140971E-03 -9.155242E-05 +1.188170E-05 -9.155242E-05 -2.222732E-04 +8.248336E-05 +1.188170E-05 +8.248336E-05 +1.786824E-04 
 +5.143303E-03 +1.456656E-05 +9.393998E-05 +1.456656E-05 -1.892944E-04 +1.483550E-04 +9.393998E-05 +1.483550E-04 +2.025029E-04 
 +5.013123E-03 -1.856108E-05 +3.079814E-05 -1.856108E-05 -3.546846E-05 +1.610187E-04 +3.079814E-05 +1.610187E-04 +1.663032E-04 
 +4.670685E-03 -2.017499E-04 -1.234292E-04 -2.017499E-04 +1.443075E-04 +9.059039E-05 -1.234292E-04 +9.059039E-05 +9.315605E-05 
 +4.699555E-03 -9.773942E-05 -1.670374E-04 -9.773942E-05 +1.123033E-04 +8.504963E-05 -1.670374E-04 +8.504963E-05 +8.696819E-05 
 +4.723612E-03 -5.836809E-05 -1.566715E-04 -5.836809E-05 +1.040230E-04 +1.051470E-04 -1.566715E-04 +1.051470E-04 +6.066459E-05 
 +4.713668E-03 -4.810573E-05 -1.384633E-04 -4.810573E-05 +5.771912E-05 +8.247953E-05 -1.384633E-04 +8.247953E-05 -1.002099E-04 
 +5.041837E-03 +1.047003E-05 -1.579632E-04 +1.047003E-05 -1.417979E-04 +1.187278E-04 -1.579632E-04 +1.187278E-04 -3.373163E-04 
 +5.117650E-03 -4.510470E-05 -9.116928E-05 -4.510470E-05 -1.695030E-04 +2.045065E-04 -9.116928E-05 +2.045065E-04 -3.790330E-04 
 +5.112812E-03 -1.889152E-04 +1.096361E-04 -1.889152E-04 -1.793069E-04 +1.770231E-04 +1.096361E-04 +1.770231E-04 -2.744937E-04 
 +5.060572E-03 -1.311581E-04 +1.469053E-04 -1.311581E-04 -2.503080E-04 +1.010152E-04 +1.469053E-04 +1.010152E-04 -9.442299E-05 
 +5.016167E-03 -4.963834E-05 +1.100475E-04 -4.963834E-05 -2.262073E-04 +8.971786E-05 +1.100475E-04 +8.971786E-05 +7.946200E-05 
 +4.994601E-03 -9.356078E-05 +7.376939E-05 -9.356078E-05 -1.799777E-04 +1.239987E-04 +7.376939E-05 +1.239987E-04 +1.281717E-04 
 +4.943856E-03 -1.052748E-04 +2.713804E-05 -1.052748E-04 -1.165902E-04 +1.660417E-04 +2.713804E-05 +1.660417E-04 +1.372653E-04 
 +4.938874E-03 -4.833245E-05 -5.450710E-06 -4.833245E-05 -7.760915E-05 +1.717801E-04 -5.450710E-06 +1.717801E-04 +1.364799E-04 
 +4.944556E-03 -3.759417E-05 -5.683414E-05 -3.759417E-05 -7.382215E-05 +1.637089E-04 -5.683414E-05 +1.637089E-04 +1.267966E-04 
 +5.040270E-03 +4.677023E-05 +3.505862E-05 +4.677023E-05 -6.818216E-05 +1.708649E-04 +3.505862E-05 +1.708649E-04 +8.959118E-05 
 +5.067522E-03 +2.952628E-05 +4.732186E-05 +2.952628E-05 -6.600928E-05 +1.950635E-04 +4.732186E-05 +1.950635E-04 +7.505472E-05 
 +5.081254E-03 -4.666938E-06 +7.179605E-05 -4.666938E-06 -8.115143E-05 +2.301629E-04 +7.179605E-05 +2.301629E-04 +6.543948E-05 
 +5.138370E-03 +1.017590E-05 +2.993067E-05 +1.017590E-05 -9.814760E-05 +1.996334E-04 +2.993067E-05 +1.996334E-04 +6.721997E-05 
 +5.134869E-03 -9.225759E-05 -1.495901E-04 -9.225759E-05 -2.403099E-04 +1.344014E-04 -1.495901E-04 +1.344014E-04 +2.607948E-04 
 +5.094638E-03 -7.933922E-05 -9.682752E-06 -7.933922E-05 -2.645721E-04 +9.764755E-05 -9.682752E-06 +9.764755E-05 +3.368299E-04 
 +5.093761E-03 -8.910602E-07 +1.161040E-04 -8.910602E-07 -3.013898E-04 +1.796064E-04 +1.161040E-04 +1.796064E-04 +3.453541E-04 
 +5.113041E-03 +5.457346E-05 +7.455257E-05 +5.457346E-05 -2.145023E-04 +2.361413E-04 +7.455257E-05 +2.361413E-04 +3.303585E-04 
 +4.630928E-03 -1.552287E-04 -8.300986E-05 -1.552287E-04 +5.966864E-05 +1.667586E-04 -8.300986E-05 +1.667586E-04 +2.423347E-04 
 +4.626971E-03 -9.394919E-05 -1.023136E-04 -9.394919E-05 +2.261817E-04 +1.032364E-04 -1.023136E-04 +1.032364E-04 +1.169760E-04 
 +4.670041E-03 -5.347029E-05 -1.081584E-04 -5.347029E-05 +2.061173E-04 +6.764681E-05 -1.081584E-04 +6.764681E-05 +1.588063E-05 
 +4.730008E-03 -1.532490E-04 -1.550576E-04 -1.532490E-04 +1.646461E-04 -2.476121E-05 -1.550576E-04 -2.476121E-05 -3.684547E-05 
 +4.921362E-03 -7.187970E-05 -1.237337E-04 -7.187970E-05 +1.249091E-04 -1.257920E-04 -1.237337E-04 -1.257920E-04 -2.170219E-04 
 +5.182787E-03 +2.110334E-05 -6.431179E-05 +2.110334E-05 -2.289666E-05 -6.548170E-05 -6.431179E-05 -6.548170E-05 -3.717788E-04 
 +5.164247E-03 -5.796566E-05 +9.514116E-05 -5.796566E-05 -5.406570E-05 +3.319339E-05 +9.514116E-05 +3.319339E-05 -3.640608E-04 
 +5.098900E-03 -7.318166E-05 +1.746904E-04 -7.318166E-05 -1.281473E-05 +6.351185E-05 +1.746904E-04 +6.351185E-05 -2.401010E-04 
 +5.086285E-03 -7.808461E-05 +1.450143E-04 -7.808461E-05 -9.630424E-05 +1.465751E-04 +1.450143E-04 +1.465751E-04 -7.817811E-05 
 +5.053508E-03 -8.742938E-05 +9.132330E-05 -8.742938E-05 -1.230909E-04 +2.234031E-04 +9.132330E-05 +2.234031E-04 -3.332147E-05 
 +5.001993E-03 -9.526956E-05 -2.413227E-06 -9.526956E-05 -9.592062E-05 +2.270777E-04 -2.413227E-06 +2.270777E-04 -4.921700E-06 
 +4.984610E-03 -9.111119E-05 -2.831802E-05 -9.111119E-05 -9.729565E-05 +1.708878E-04 -2.831802E-05 +1.708878E-04 +5.833846E-05 
 +4.952529E-03 -5.208334E-05 +3.712774E-06 -5.208334E-05 -9.452785E-05 +1.516868E-04 +3.712774E-06 +1.516868E-04 +1.458466E-04 
 +4.993434E-03 +1.471910E-05 +1.189875E-04 +1.471910E-05 -9.128697E-05 +2.040789E-04 +1.189875E-04 +2.040789E-04 +1.012532E-04 
 +5.059550E-03 -2.598367E-05 +8.250316E-05 -2.598367E-05 -8.010368E-05 +1.696739E-04 +8.250316E-05 +1.696739E-04 -2.324646E-06 
 +5.037494E-03 -5.276515E-05 +1.089771E-04 -5.276515E-05 -5.852890E-05 +1.005503E-04 +1.089771E-04 +1.005503E-04 -1.314169E-05 
 +5.107263E-03 -5.135671E-05 -5.491467E-05 -5.135671E-05 -1.352937E-04 +1.488476E-04 -5.491467E-05 +1.488476E-04 +8.250085E-05 
 +5.119624E-03 -8.878297E-05 -1.872373E-04 -8.878297E-05 -2.101806E-04 +8.756475E-05 -1.872373E-04 +8.756475E-05 +2.107286E-04 
 +5.037954E-03 -6.287377E-05 -6.100410E-05 -6.287377E-05 -2.514088E-04 +1.035751E-04 -6.100410E-05 +1.035751E-04 +3.378752E-04 
 +5.062967E-03 -1.953903E-05 +8.360949E-05 -1.953903E-05 -2.808827E-04 +1.952492E-04 +8.360949E-05 +1.952492E-04 +3.671088E-04 
 +5.046103E-03 +1.322253E-04 +6.209210E-05 +1.322253E-04 -2.947397E-04 +3.129805E-04 +6.209210E-05 +3.129805E-04 +3.369423E-04 
 +4.701403E-03 -2.930694E-05 -4.387707E-05 -2.930694E-05 -9.125973E-05 +2.473967E-04 -4.387707E-05 +2.473967E-04 +2.599170E-04 
 +4.542744E-03 -1.010060E-04 -4.783999E-05 -1.010060E-04 +1.892555E-04 +8.286030E-05 -4.783999E-05 +8.286030E-05 +1.294833E-04 
 +4.657222E-03 -9.349025E-05 -3.756143E-05 -9.349025E-05 +2.764148E-04 -4.883493E-05 -3.756143E-05 -4.883493E-05 +6.818577E-05 
 +4.736768E-03 -1.494251E-04 -1.044793E-04 -1.494251E-04 +1.881075E-04 -6.146749E-05 -1.044793E-04 -6.146749E-05 -1.508118E-06 
 +5.064436E-03 +4.464483E-05 -3.352871E-05 +4.464483E-05 +1.030221E-04 -1.492205E-05 -3.352871E-05 -1.492205E-05 -1.826757E-04 
 +5.221898E-03 +9.409151E-05 -2.548062E-05 +9.409151E-05 +5.187214E-05 -1.198471E-05 -2.548062E-05 -1.198471E-05 -2.568950E-04 
 +5.178685E-03 +6.492864E-05 +2.465713E-05 +6.492864E-05 +1.453920E-05 -8.398705E-06 +2.465713E-05 -8.398705E-06 -2.125118E-04 
 +5.098376E-03 +2.753209E-05 +1.251077E-04 +2.753209E-05 +7.152071E-05 +1.646832E-05 +1.251077E-04 +1.646832E-05 -1.559895E-04 
 +5.061442E-03 -1.059649E-05 +1.806647E-04 -1.059649E-05 +6.289105E-05 +1.002105E-04 +1.806647E-04 +1.002105E-04 -5.502971E-05 
 +5.084310E-03 -5.927537E-05 +1.093765E-04 -5.927537E-05 -7.319742E-05 +2.010814E-04 +1.093765E-04 +2.010814E-04 +2.923660E-06 
 +5.039544E-03 -2.410272E-05 -4.026817E-06 -2.410272E-05 -7.836265E-05 +2.286822E-04 -4.026817E-06 +2.286822E-04 +2.371078E-05 
 +4.948478E-03 -1.260549E-04 -9.667730E-05 -1.260549E-04 -7.492221E-05 +1.796866E-04 -9.667730E-05 +1.796866E-04 +5.492328E-05 
 +4.879755E-03 -1.082659E-04 +6.973733E-05 -1.082659E-04 -8.318542E-05 +8.518350E-05 +6.973733E-05 +8.518350E-05 +8.350440E-05 
 +4.977274E-03 -9.847636E-05 +1.313833E-04 -9.847636E-05 -1.670534E-05 -4.616719E-05 +1.313833E-04 -4.616719E-05 +3.552042E-06 
 +5.106427E-03 -6.678960E-05 +4.128231E-05 -6.678960E-05 -4.938595E-05 -1.214944E-04 +4.128231E-05 -1.214944E-04 -1.156431E-04 
 +5.095137E-03 -1.096503E-05 +1.011005E-04 -1.096503E-05 -4.933848E-05 -1.007622E-04 +1.011005E-04 -1.007622E-04 -8.985150E-05 
 +5.077742E-03 -7.631212E-05 -4.985797E-06 -7.631212E-05 -9.031471E-05 -7.353808E-06 -4.985797E-06 -7.353808E-06 +5.002020E-05 
 +5.070255E-03 -2.284707E-05 -4.649280E-05 -2.284707E-05 -2.836434E-05 -1.893300E-04 -4.649280E-05 -1.893300E-04 +1.440922E-04 
 +5.004612E-03 -8.887721E-06 -5.536431E-05 -8.887721E-06 -1.718914E-04 +1.700765E-05 -5.536431E-05 +1.700765E-05 +2.539635E-04 
 +4.908268E-03 +3.981251E-05 -4.277515E-05 +3.981251E-05 -2.724000E-04 +1.514813E-04 -4.277515E-05 +1.514813E-04 +3.058686E-04 
 +4.849658E-03 +1.307490E-04 -2.699683E-05 +1.307490E-04 -1.623671E-04 +1.762425E-04 -2.699683E-05 +1.762425E-04 +2.919110E-04 
 +4.601366E-03 -3.015392E-05 +7.845940E-06 -3.015392E-05 +4.791740E-05 +1.879097E-04 +7.845940E-06 +1.879097E-04 +2.283994E-04 
 +4.626088E-03 -1.783627E-04 -2.745778E-05 -1.783627E-04 +1.934832E-04 +1.025865E-04 -2.745778E-05 +1.025865E-04 +1.301032E-04 
 +4.816424E-03 -1.249667E-04 -5.497271E-05 -1.249667E-04 +1.825192E-04 -3.597088E-05 -5.497271E-05 -3.597088E-05 +9.725509E-05 
 +4.910835E-03 -9.795478E-05 -7.855948E-05 -9.795478E-05 +1.443954E-04 -2.373702E-05 -7.855948E-05 -2.373702E-05 -9.844481E-06 
 +5.207853E-03 +1.019004E-04 -6.951941E-06 +1.019004E-04 +8.171519E-05 +1.162214E-05 -6.951941E-06 +1.162214E-05 -1.473430E-04 
 +5.182080E-03 +1.054174E-04 -4.702762E-05 +1.054174E-04 +2.818761E-05 -5.318975E-05 -4.702762E-05 -5.318975E-05 -1.284417E-04 
 +5.162704E-03 +1.145054E-04 -4.323298E-05 +1.145054E-04 +1.566053E-05 -7.307509E-05 -4.323298E-05 -7.307509E-05 -5.322179E-05 
 +5.121754E-03 +8.554803E-05 +3.858342E-05 +8.554803E-05 +6.741415E-06 -3.860763E-05 +3.858342E-05 -3.860763E-05 -4.337100E-06 
 +5.047134E-03 +1.171513E-05 +1.343438E-04 +1.171513E-05 +6.048174E-05 +5.833378E-05 +1.343438E-04 +5.833378E-05 +5.411316E-05 
 +5.055206E-03 -2.466654E-05 +1.077825E-04 -2.466654E-05 +1.354930E-04 +9.962993E-05 +1.077825E-04 +9.962993E-05 +1.135183E-04 
 +5.086313E-03 +8.827985E-05 +7.126674E-05 +8.827985E-05 +1.822477E-04 -1.234920E-05 +7.126674E-05 -1.234920E-05 +1.540084E-04 
 +4.846042E-03 -9.867886E-05 -8.826766E-05 -9.867886E-05 +2.073790E-04 -3.071356E-05 -8.826766E-05 -3.071356E-05 +1.561555E-04 
 +4.723564E-03 -2.038073E-05 +1.602281E-04 -2.038073E-05 +1.548335E-04 -3.296279E-05 +1.602281E-04 -3.296279E-05 +6.740477E-05 
 +5.094720E-03 -3.104601E-05 +7.478580E-05 -3.104601E-05 -2.453608E-05 -1.991723E-04 +7.478580E-05 -1.991723E-04 -7.756812E-05 
 +5.152879E-03 +4.175606E-05 +4.613478E-06 +4.175606E-05 -1.247926E-04 -3.039391E-04 +4.613478E-06 -3.039391E-04 -1.238912E-04 
 +5.152781E-03 +6.852515E-05 +3.986976E-05 +6.852515E-05 -9.951655E-05 -2.596921E-04 +3.986976E-05 -2.596921E-04 -2.529841E-05 
 +5.117794E-03 -2.838973E-05 +1.816877E-05 -2.838973E-05 -5.257412E-05 -2.554533E-04 +1.816877E-05 -2.554533E-04 +7.188939E-05 
 +5.091325E-03 -8.455033E-05 +2.007679E-05 -8.455033E-05 +1.176797E-04 -3.039846E-04 +2.007679E-05 -3.039846E-04 +4.021135E-05 
 +5.017298E-03 -4.604246E-05 -3.704082E-05 -4.604246E-05 +2.720563E-04 -3.262673E-04 -3.704082E-05 -3.262673E-04 +9.428585E-05 
 +4.661558E-03 +5.819605E-05 -1.442447E-04 +5.819605E-05 +4.051309E-04 -1.735659E-04 -1.442447E-04 -1.735659E-04 +1.640652E-04 
 +4.565062E-03 +1.508568E-04 -8.151925E-05 +1.508568E-04 +3.312338E-04 -1.853849E-05 -8.151925E-05 -1.853849E-05 +2.517697E-04 
 +4.632223E-03 +1.429518E-04 +1.626835E-05 +1.429518E-04 +1.658795E-04 +2.776719E-05 +1.626835E-05 +2.776719E-05 +1.990138E-04 
 +4.883951E-03 +8.575464E-05 -1.150481E-05 +8.575464E-05 +4.082978E-05 +3.668978E-05 -1.150481E-05 +3.668978E-05 +1.071405E-04 
 +4.997809E-03 +1.037797E-04 -4.060737E-05 +1.037797E-04 -3.000878E-05 +8.344170E-05 -4.060737E-05 +8.344170E-05 +9.607316E-05 
 +5.078826E-03 +7.747363E-05 -5.965481E-05 +7.747363E-05 -3.605271E-06 +8.760884E-05 -5.965481E-05 +8.760884E-05 +1.873532E-05 
 +5.147848E-03 +1.284496E-04 -4.207558E-05 +1.284496E-04 +3.520888E-05 +1.203211E-05 -4.207558E-05 +1.203211E-05 -5.007229E-05 
 +5.146801E-03 +1.131251E-04 -8.738189E-05 +1.131251E-04 +1.448799E-05 -2.354162E-05 -8.738189E-05 -2.354162E-05 -2.675764E-05 
 +5.146257E-03 +9.205979E-05 -6.293954E-05 +9.205979E-05 -2.057802E-05 -3.929619E-06 -6.293954E-05 -3.929619E-06 -1.215009E-06 
 +5.113656E-03 +1.075102E-04 -1.985201E-05 +1.075102E-04 -7.452975E-06 +2.481184E-05 -1.985201E-05 +2.481184E-05 +5.081688E-05 
 +5.051891E-03 +5.392278E-05 +3.377765E-05 +5.392278E-05 +6.504367E-05 +1.057933E-04 +3.377765E-05 +1.057933E-04 +1.260268E-04 
 +5.065120E-03 -1.419597E-05 +3.423088E-05 -1.419597E-05 +1.069500E-04 +1.133669E-04 +3.423088E-05 +1.133669E-04 +1.382029E-04 
 +5.092760E-03 +6.228648E-05 +1.570236E-04 +6.228648E-05 +6.138803E-05 -5.282104E-05 +1.570236E-04 -5.282104E-05 +1.642457E-04 
 +4.843986E-03 -4.146273E-05 +1.052271E-04 -4.146273E-05 +7.071319E-05 -6.163964E-05 +1.052271E-04 -6.163964E-05 +2.115955E-04 
 +4.726981E-03 +6.389171E-05 +2.640118E-04 +6.389171E-05 +9.855434E-05 -8.416789E-06 +2.640118E-04 -8.416789E-06 +1.597528E-04 
 +5.076316E-03 -4.515659E-06 +9.371382E-05 -4.515659E-06 +4.030954E-05 -1.210612E-04 +9.371382E-05 -1.210612E-04 +1.331293E-05 
 +5.061447E-03 +7.827324E-06 +2.561190E-05 +7.827324E-06 -2.204009E-05 -2.552382E-04 +2.561190E-05 -2.552382E-04 -1.049604E-04 
 +5.167368E-03 +1.209301E-05 +5.615741E-05 +1.209301E-05 -5.528221E-05 -3.031006E-04 +5.615741E-05 -3.031006E-04 -1.134369E-04 
 +5.169719E-03 -5.555898E-05 +2.356001E-05 -5.555898E-05 +1.343958E-05 -2.704750E-04 +2.356001E-05 -2.704750E-04 -4.815181E-05 
 +5.084900E-03 -1.409377E-04 -2.274440E-06 -1.409377E-04 +1.585318E-04 -2.747802E-04 -2.274440E-06 -2.747802E-04 -1.111522E-04 
 +4.977713E-03 -1.093332E-04 -7.403277E-05 -1.093332E-04 +3.258008E-04 -2.513029E-04 -7.403277E-05 -2.513029E-04 -4.500806E-05 
 +4.632508E-03 -6.522483E-05 -1.233702E-04 -6.522483E-05 +4.331990E-04 -1.989179E-04 -1.233702E-04 -1.989179E-04 +6.526218E-05 
 +4.527967E-03 +1.613090E-04 -7.498939E-05 +1.613090E-04 +3.755566E-04 -1.595366E-04 -7.498939E-05 -1.595366E-04 +1.588259E-04 
 +4.845596E-03 +1.889498E-04 -2.394997E-05 +1.889498E-04 +1.537535E-04 -1.528782E-04 -2.394997E-05 -1.528782E-04 +7.668939E-05 
 +5.021115E-03 +1.207944E-04 +2.653507E-05 +1.207944E-04 -3.857868E-05 -1.366188E-04 +2.653507E-05 -1.366188E-04 +5.533426E-05 
 +5.045850E-03 +6.142898E-05 +7.297940E-06 +6.142898E-05 -5.605721E-05 -1.222480E-04 +7.297940E-06 -1.222480E-04 +8.595559E-05 
 +5.088355E-03 +2.494119E-05 -1.016180E-05 +2.494119E-05 -4.758651E-05 -5.082830E-05 -1.016180E-05 -5.082830E-05 +4.604934E-05 
 +5.098969E-03 +8.017274E-05 -2.154230E-05 +8.017274E-05 -1.656208E-05 +2.430287E-05 -2.154230E-05 +2.430287E-05 +2.764975E-05 
 +5.111811E-03 +9.576060E-05 -5.350416E-05 +9.576060E-05 -4.838080E-06 +5.260610E-05 -5.350416E-05 +5.260610E-05 -3.221792E-06 
 +5.111342E-03 +9.907085E-05 -4.729639E-05 +9.907085E-05 +1.392768E-05 +1.070341E-04 -4.729639E-05 +1.070341E-04 -3.135686E-05 
 +5.063827E-03 +6.291134E-05 -1.471107E-04 +6.291134E-05 -1.488044E-05 +9.604206E-05 -1.471107E-04 +9.604206E-05 +3.385074E-05 
 +5.051457E-03 -1.095213E-05 -6.641072E-05 -1.095213E-05 -1.324156E-04 +4.841683E-05 -6.641072E-05 +4.841683E-05 +1.935132E-04 
 +5.135028E-03 -1.889182E-05 +6.611828E-06 -1.889182E-05 -1.610734E-04 +9.020548E-05 +6.611828E-06 +9.020548E-05 +2.746768E-04 
 +5.156007E-03 +6.529579E-05 +2.071641E-04 +6.529579E-05 -1.586969E-04 +8.028589E-05 +2.071641E-04 +8.028589E-05 +2.747184E-04 
 +4.910817E-03 +1.079118E-04 +2.628511E-04 +1.079118E-04 -8.528303E-05 +4.688176E-05 +2.628511E-04 +4.688176E-05 +2.681001E-04 
 +4.817520E-03 +1.482262E-04 +2.911503E-04 +1.482262E-04 +1.302926E-04 +8.685800E-05 +2.911503E-04 +8.685800E-05 +2.003269E-04 
 +4.856031E-03 +5.178916E-05 +1.611667E-04 +5.178916E-05 +3.560719E-04 +1.405379E-04 +1.611667E-04 +1.405379E-04 +7.026078E-05 
 +4.913233E-03 -7.312302E-05 +4.068679E-06 -7.312302E-05 +3.174058E-04 +6.468763E-05 +4.068679E-06 +6.468763E-05 -7.310686E-05 
 +5.120241E-03 -4.829236E-05 +3.536544E-05 -4.829236E-05 +7.286490E-05 -1.588575E-04 +3.536544E-05 -1.588575E-04 -1.498391E-04 
 +5.167851E-03 -4.027600E-05 +5.347848E-05 -4.027600E-05 +4.269904E-05 -2.861950E-04 +5.347848E-05 -2.861950E-04 -1.656153E-04 
 +5.032713E-03 -9.546416E-05 -2.702526E-05 -9.546416E-05 +2.940889E-04 -1.896387E-04 -2.702526E-05 -1.896387E-04 -1.604237E-04 
 +4.869661E-03 -5.240548E-05 -1.093659E-04 -5.240548E-05 +3.340087E-04 -1.811188E-04 -1.093659E-04 -1.811188E-04 -7.357750E-05 
 +4.783902E-03 -4.363987E-05 -1.054773E-04 -4.363987E-05 +3.354387E-04 -2.429386E-04 -1.054773E-04 -2.429386E-04 -1.172034E-05 
 +4.833287E-03 +1.660069E-04 -5.596636E-05 +1.660069E-04 +2.821139E-04 -3.073963E-04 -5.596636E-05 -3.073963E-04 +5.064640E-05 
 +4.887599E-03 +1.459839E-04 -6.524644E-06 +1.459839E-04 +1.644555E-04 -2.512506E-04 -6.524644E-06 -2.512506E-04 +6.941495E-05 
 +4.965113E-03 +6.110594E-05 +3.084387E-05 +6.110594E-05 +6.151613E-05 -1.463216E-04 +3.084387E-05 -1.463216E-04 +7.310370E-05 
 +5.032215E-03 +3.517747E-06 +3.488179E-06 +3.517747E-06 -3.258383E-05 -9.484330E-05 +3.488179E-06 -9.484330E-05 +5.622802E-05 
 +5.084695E-03 -2.673345E-06 +7.435183E-05 -2.673345E-06 -5.709299E-05 -3.082504E-05 +7.435183E-05 -3.082504E-05 +5.348574E-05 
 +5.093662E-03 +5.193116E-05 +3.114881E-05 +5.193116E-05 -4.712482E-05 +6.151233E-05 +3.114881E-05 +6.151233E-05 +6.478254E-05 
 +5.101749E-03 +4.468750E-05 +1.596741E-05 +4.468750E-05 -1.448067E-05 +1.156764E-04 +1.596741E-05 +1.156764E-04 -5.508074E-05 
 +5.095682E-03 +7.711453E-05 -2.797427E-05 +7.711453E-05 +2.890634E-05 +1.519480E-04 -2.797427E-05 +1.519480E-04 -9.537842E-05 
 +5.032940E-03 +2.378893E-05 -2.988762E-04 +2.378893E-05 +6.347775E-06 +1.713297E-04 -2.988762E-04 +1.713297E-04 +3.996741E-05 
 +5.076096E-03 -1.393790E-05 -1.693341E-04 -1.393790E-05 -8.616751E-05 +2.075459E-04 -1.693341E-04 +2.075459E-04 +1.566585E-04 
 +5.219827E-03 +6.837884E-06 +2.192127E-05 +6.837884E-06 -2.003616E-04 +2.862176E-04 +2.192127E-05 +2.862176E-04 +1.929714E-04 
 +5.271096E-03 +8.405572E-05 +1.157779E-04 +8.405572E-05 -2.166163E-04 +2.669692E-04 +1.157779E-04 +2.669692E-04 +2.344396E-04 
 +4.877635E-03 +1.848696E-04 +2.159801E-04 +1.848696E-04 -3.781965E-05 +1.494074E-04 +2.159801E-04 +1.494074E-04 +2.825095E-04 
 +4.779001E-03 +1.132151E-04 +2.602319E-04 +1.132151E-04 +1.705030E-04 +1.108954E-04 +2.602319E-04 +1.108954E-04 +2.432422E-04 
 +4.757778E-03 +2.116918E-05 +1.893890E-04 +2.116918E-05 +2.792807E-04 +8.847958E-05 +1.893890E-04 +8.847958E-05 +1.021976E-04 
 +4.842954E-03 -1.376532E-04 -3.294883E-05 -1.376532E-04 +3.385064E-04 +8.329135E-05 -3.294883E-05 +8.329135E-05 -5.994475E-05 
 +4.966562E-03 -1.222667E-04 -5.563033E-05 -1.222667E-04 +2.888561E-04 +4.534616E-05 -5.563033E-05 +4.534616E-05 -1.114016E-04 
 +5.133926E-03 -2.710702E-05 +2.176706E-05 -2.710702E-05 +2.235606E-04 -1.151787E-04 +2.176706E-05 -1.151787E-04 -1.750090E-04 
 +4.980723E-03 +2.662018E-05 -6.661087E-05 +2.662018E-05 +4.204265E-04 -1.172729E-04 -6.661087E-05 -1.172729E-04 -1.453347E-04 
 +4.811159E-03 -5.493783E-05 -1.422372E-04 -5.493783E-05 +5.422845E-04 -3.472368E-05 -1.422372E-04 -3.472368E-05 -1.450046E-04 
 +4.929828E-03 -9.614637E-07 -9.706750E-05 -9.614637E-07 +5.007279E-04 -9.115182E-05 -9.706750E-05 -9.115182E-05 -2.407369E-04 
 +5.048590E-03 +1.029478E-05 -3.913866E-05 +1.029478E-05 +3.742091E-04 -1.453087E-04 -3.913866E-05 -1.453087E-04 -1.896528E-04 
 +4.959150E-03 +1.591244E-05 +3.616775E-05 +1.591244E-05 +2.217506E-04 -1.349755E-04 +3.616775E-05 -1.349755E-04 +4.377403E-05 
 +4.930313E-03 +2.413157E-05 +8.721815E-05 +2.413157E-05 +1.288282E-04 -1.111665E-04 +8.721815E-05 -1.111665E-04 +1.307615E-04 
 +4.968941E-03 -1.481708E-05 +7.776607E-05 -1.481708E-05 +1.467534E-05 -2.800430E-05 +7.776607E-05 -2.800430E-05 +7.690387E-05 
 +5.045951E-03 -2.577251E-05 +1.467498E-04 -2.577251E-05 -5.953421E-05 +5.069299E-05 +1.467498E-04 +5.069299E-05 +3.422006E-05 
 +5.090753E-03 +2.406480E-05 +1.085813E-04 +2.406480E-05 -6.757544E-05 +1.139871E-04 +1.085813E-04 +1.139871E-04 +2.360254E-05 
 +5.128135E-03 +8.946811E-05 +1.152432E-04 +8.946811E-05 -1.901249E-05 +1.754964E-04 +1.152432E-04 +1.754964E-04 -7.239802E-05 
 +5.126560E-03 +1.126238E-04 -1.313343E-06 +1.126238E-04 +1.851572E-05 +2.070804E-04 -1.313343E-06 +2.070804E-04 -7.976367E-05 
 +5.080003E-03 +6.215269E-05 -2.566835E-04 +6.215269E-05 +3.906706E-05 +2.736906E-04 -2.566835E-04 +2.736906E-04 +4.635664E-05 
 +5.139858E-03 -2.424046E-06 -2.351867E-04 -2.424046E-06 +3.662760E-05 +3.767480E-04 -2.351867E-04 +3.767480E-04 +6.060580E-05 
 +5.222033E-03 -1.035301E-05 -1.115790E-04 -1.035301E-05 -6.627832E-05 +3.788630E-04 -1.115790E-04 +3.788630E-04 +6.751416E-05 
 +5.193171E-03 +5.388028E-05 -8.821098E-05 +5.388028E-05 -1.168670E-04 +2.766719E-04 -8.821098E-05 +2.766719E-04 +1.938770E-04 
 +4.827617E-03 +1.818553E-04 +7.228453E-05 +1.818553E-04 -1.228257E-05 +1.383141E-04 +7.228453E-05 +1.383141E-04 +3.319444E-04 
 +4.735150E-03 +1.309819E-04 +2.109306E-04 +1.309819E-04 +1.114953E-04 +7.789706E-05 +2.109306E-04 +7.789706E-05 +3.665845E-04 
 +4.744222E-03 +4.426745E-05 +1.951695E-04 +4.426745E-05 +2.040874E-04 +6.144645E-05 +1.951695E-04 +6.144645E-05 +2.354526E-04 
 +4.824990E-03 -1.585843E-04 -9.986297E-06 -1.585843E-04 +3.074929E-04 +8.148552E-05 -9.986297E-06 +8.148552E-05 +1.663562E-05 
 +4.896232E-03 -1.715403E-04 -1.093868E-04 -1.715403E-04 +3.302964E-04 +8.604210E-05 -1.093868E-04 +8.604210E-05 -6.087501E-05 
 +5.054724E-03 +2.104207E-05 -4.915535E-05 +2.104207E-05 +2.898352E-04 -7.357794E-05 -4.915535E-05 -7.357794E-05 -1.193679E-04 
 +4.979970E-03 +1.208711E-04 -1.002969E-04 +1.208711E-04 +4.673858E-04 -3.311871E-05 -1.002969E-04 -3.311871E-05 +7.052968E-06 
 +4.911355E-03 +4.386246E-05 -9.488506E-05 +4.386246E-05 +6.252178E-04 +7.465577E-06 -9.488506E-05 +7.465577E-06 -8.506405E-05 
 +4.971717E-03 +2.685255E-05 -4.036341E-05 +2.685255E-05 +5.922415E-04 +4.321384E-05 -4.036341E-05 +4.321384E-05 -3.152189E-04 
 +5.024670E-03 -5.006775E-05 -1.613299E-05 -5.006775E-05 +4.478570E-04 +4.505716E-05 -1.613299E-05 +4.505716E-05 -3.132161E-04 
 +5.031175E-03 -1.181167E-04 +2.262371E-06 -1.181167E-04 +3.324231E-04 +2.263787E-05 +2.262371E-06 +2.263787E-05 -8.727139E-05 
 +4.993455E-03 -1.694901E-04 +8.847967E-05 -1.694901E-04 +1.944787E-04 -5.242329E-05 +8.847967E-05 -5.242329E-05 +9.283218E-05 
 +4.978910E-03 -1.210240E-04 +1.445798E-04 -1.210240E-04 +9.971913E-05 -2.284217E-05 +1.445798E-04 -2.284217E-05 +9.669266E-05 
 +4.988383E-03 -3.324733E-05 +1.381567E-04 -3.324733E-05 +2.991340E-05 +5.814276E-05 +1.381567E-04 +5.814276E-05 +3.556111E-05 
 +5.089843E-03 +2.776262E-05 +8.264042E-05 +2.776262E-05 -4.353225E-05 +5.731268E-05 +8.264042E-05 +5.731268E-05 -4.744710E-05 
 +5.178746E-03 +1.135434E-04 +1.174636E-04 +1.135434E-04 -6.341246E-05 -7.462252E-05 +1.174636E-04 -7.462252E-05 -1.446577E-04 
 +5.182481E-03 +1.280198E-04 +2.074169E-05 +1.280198E-04 +2.730908E-06 -2.579448E-04 +2.074169E-05 -2.579448E-04 -1.575627E-04 
 +5.159726E-03 +8.729335E-05 -1.046620E-04 +8.729335E-05 +5.101064E-05 -2.772151E-04 -1.046620E-04 -2.772151E-04 -1.095035E-04 
 +5.207419E-03 +1.052146E-05 -1.717067E-04 +1.052146E-05 +6.816949E-05 -1.297248E-04 -1.717067E-04 -1.297248E-04 -1.059211E-04 
 +5.206435E-03 -8.182307E-06 -2.061984E-04 -8.182307E-06 +1.285534E-04 -6.002970E-06 -2.061984E-04 -6.002970E-06 +1.890877E-06 
 +4.925782E-03 +8.619167E-05 -1.909519E-04 +8.619167E-05 +1.629801E-04 +3.831375E-05 -1.909519E-04 +3.831375E-05 +1.907545E-04 
 +4.766395E-03 +1.605335E-04 -4.742556E-05 +1.605335E-04 +8.129305E-05 +2.426210E-05 -4.742556E-05 +2.426210E-05 +3.183081E-04 
 +4.740057E-03 +6.996548E-05 +1.262640E-04 +6.996548E-05 +4.059371E-06 +9.038313E-06 +1.262640E-04 +9.038313E-06 +4.069988E-04 
 +4.696484E-03 +3.305204E-05 +1.549714E-04 +3.305204E-05 +1.090752E-04 +3.177254E-05 +1.549714E-04 +3.177254E-05 +3.595167E-04 
 +4.819470E-03 -1.886166E-04 -1.549811E-05 -1.886166E-04 +2.338389E-04 +1.327323E-04 -1.549811E-05 +1.327323E-04 +1.754184E-04 
 +4.946679E-03 -2.090635E-04 -1.595689E-04 -2.090635E-04 +3.197735E-04 +2.636839E-04 -1.595689E-04 +2.636839E-04 +4.167903E-05 
 +4.938988E-03 -5.380307E-05 -2.173735E-04 -5.380307E-05 +3.788872E-04 +1.393024E-04 -2.173735E-04 +1.393024E-04 -2.034204E-05 
 +5.050697E-03 +1.648015E-04 -1.534886E-04 +1.648015E-04 +1.964393E-04 +6.941888E-05 -1.534886E-04 +6.941888E-05 +2.068211E-04 
 +5.041529E-03 +1.300370E-04 -3.505948E-05 +1.300370E-04 +1.573806E-04 -1.868723E-05 -3.505948E-05 -1.868723E-05 +1.518506E-04 
 +5.000881E-03 +3.451305E-05 +3.714809E-05 +3.451305E-05 +3.392527E-04 +6.355296E-05 +3.714809E-05 +6.355296E-05 -7.758218E-05 
 +4.968065E-03 -2.152489E-05 +2.537266E-05 -2.152489E-05 +4.234476E-04 +1.420631E-04 +2.537266E-05 +1.420631E-04 -1.301458E-04 
 +5.012539E-03 -1.138021E-04 -7.321043E-06 -1.138021E-04 +3.140637E-04 +7.897012E-05 -7.321043E-06 +7.897012E-05 -5.034857E-06 
 +4.997957E-03 -1.636441E-04 -4.785244E-06 -1.636441E-04 +1.509335E-04 -3.437830E-05 -4.785244E-06 -3.437830E-05 +1.095343E-04 
 +5.012964E-03 -1.209665E-04 +3.871061E-05 -1.209665E-04 +1.536564E-04 -1.301890E-04 +3.871061E-05 -1.301890E-04 +5.984659E-05 
 +4.988457E-03 -1.306481E-04 +1.136334E-05 -1.306481E-04 +1.851571E-04 -1.578607E-04 +1.136334E-05 -1.578607E-04 -5.034585E-05 
 +5.117006E-03 -2.448603E-05 +1.522272E-06 -2.448603E-05 +1.056024E-04 -1.139924E-05 +1.522272E-06 -1.139924E-05 -1.535578E-04 
 +5.186198E-03 +1.283182E-04 +1.752984E-05 +1.283182E-04 +7.913648E-05 +6.814859E-05 +1.752984E-05 +6.814859E-05 -2.297490E-04 
 +5.226586E-03 +1.290546E-04 -7.491647E-06 +1.290546E-04 +9.176383E-05 -8.702985E-05 -7.491647E-06 -8.702985E-05 -2.611267E-04 
 +5.246099E-03 +3.547748E-05 -4.812263E-05 +3.547748E-05 +8.615262E-05 -1.796730E-04 -4.812263E-05 -1.796730E-04 -2.590204E-04 
 +5.226915E-03 -1.975227E-05 -9.037977E-05 -1.975227E-05 +1.448171E-04 -1.212503E-04 -9.037977E-05 -1.212503E-04 -2.318447E-04 
 +5.210168E-03 -6.357223E-05 -1.437184E-04 -6.357223E-05 +2.346020E-04 -6.774585E-05 -1.437184E-04 -6.774585E-05 -1.024019E-04 
 +4.758380E-03 +7.598622E-05 -1.584552E-04 +7.598622E-05 +3.121912E-04 -3.613415E-05 -1.584552E-04 -3.613415E-05 +6.828323E-05 
 +4.651812E-03 +1.155313E-04 -9.219870E-05 +1.155313E-04 +2.746268E-04 +1.617313E-05 -9.219870E-05 +1.617313E-05 +1.855566E-04 
 +4.647657E-03 +6.050070E-05 -1.448775E-05 +6.050070E-05 +1.277823E-04 +1.840537E-05 -1.448775E-05 +1.840537E-05 +3.214669E-04 
 +4.681574E-03 +9.480912E-05 +4.389240E-05 +9.480912E-05 +9.641257E-05 +2.239436E-05 +4.389240E-05 +2.239436E-05 +3.874045E-04 
 +4.850638E-03 -1.391690E-04 -1.991495E-05 -1.391690E-04 +1.895157E-04 +1.242085E-04 -1.991495E-05 +1.242085E-04 +3.378004E-04 
 +4.951357E-03 -1.723967E-04 -1.878164E-04 -1.723967E-04 +2.776317E-04 +2.423100E-04 -1.878164E-04 +2.423100E-04 +2.725831E-04 
 +4.910668E-03 -2.797136E-05 -3.098234E-04 -2.797136E-05 +3.131774E-04 +2.196737E-04 -3.098234E-04 +2.196737E-04 +1.922926E-04 
 +5.055531E-03 +1.887850E-04 -8.207976E-05 +1.887850E-04 +6.991116E-05 -1.090022E-05 -8.207976E-05 -1.090022E-05 +1.662372E-04 
 +5.071012E-03 +2.166681E-04 -1.424911E-05 +2.166681E-04 -1.288285E-05 -2.647204E-05 -1.424911E-05 -2.647204E-05 +1.635024E-04 
 +5.074299E-03 +1.173429E-04 +4.997528E-05 +1.173429E-04 -7.852627E-05 -1.850001E-06 +4.997528E-05 -1.850001E-06 +1.193985E-04 
 +4.989799E-03 +5.693172E-06 +4.306507E-05 +5.693172E-06 -1.377252E-04 +1.150703E-04 +4.306507E-05 +1.150703E-04 +1.063576E-04 
 +5.033700E-03 -7.508755E-05 -4.633442E-05 -7.508755E-05 -1.744582E-04 +1.315660E-04 -4.633442E-05 +1.315660E-04 +1.705942E-04 
 +4.988194E-03 -3.170035E-05 -1.313074E-04 -3.170035E-05 -6.080306E-05 +4.883368E-06 -1.313074E-04 +4.883368E-06 +1.296745E-04 
 +4.984195E-03 +7.178766E-05 -1.353875E-04 +7.178766E-05 +2.906566E-05 -1.071124E-04 -1.353875E-04 -1.071124E-04 -1.928458E-05 
 +4.979102E-03 +6.448929E-05 -6.884356E-05 +6.448929E-05 +1.056406E-04 -9.095072E-05 -6.884356E-05 -9.095072E-05 -1.497821E-04 
 +5.077248E-03 +4.077932E-05 -2.730194E-05 +4.077932E-05 +1.970535E-04 +2.658806E-05 -2.730194E-05 +2.658806E-05 -2.396451E-04 
 +5.163733E-03 +1.478555E-04 -5.739883E-05 +1.478555E-04 +1.750307E-04 +2.373530E-05 -5.739883E-05 +2.373530E-05 -2.752056E-04 
 +5.225888E-03 +1.274336E-04 -5.782549E-05 +1.274336E-04 +1.331086E-04 -1.204506E-04 -5.782549E-05 -1.204506E-04 -2.719438E-04 
 +5.274561E-03 +1.829061E-05 -3.175701E-05 +1.829061E-05 +1.162935E-04 -1.656177E-04 -3.175701E-05 -1.656177E-04 -2.679943E-04 
 +5.243119E-03 +2.002045E-06 -7.405004E-05 +2.002045E-06 +1.500535E-04 -1.054655E-04 -7.405004E-05 -1.054655E-04 -2.099574E-04 
 +5.139655E-03 -5.931854E-05 -3.084831E-05 -5.931854E-05 +2.528322E-04 -6.752943E-05 -3.084831E-05 -6.752943E-05 -6.728302E-05 
 +4.718916E-03 +2.642619E-05 -9.928010E-05 +2.642619E-05 +3.272449E-04 -7.221890E-05 -9.928010E-05 -7.221890E-05 +3.380628E-05 
 +4.629275E-03 +2.861926E-05 -9.147943E-05 +2.861926E-05 +3.129357E-04 -5.948226E-05 -9.147943E-05 -5.948226E-05 +9.036489E-05 
 +4.562583E-03 +5.456611E-05 -1.087163E-04 +5.456611E-05 +2.821224E-04 -1.090304E-06 -1.087163E-04 -1.090304E-06 +2.056455E-04 
 +4.634613E-03 +1.024615E-04 -7.361759E-05 +1.024615E-04 +1.660188E-04 +1.739318E-05 -7.361759E-05 +1.739318E-05 +3.197587E-04 
 +4.962424E-03 -6.715125E-05 -5.052106E-05 -6.715125E-05 +3.112743E-05 -5.467857E-05 -5.052106E-05 -5.467857E-05 +3.956549E-04 
 +4.954779E-03 -2.240091E-05 -1.705262E-04 -2.240091E-05 +5.166622E-05 -8.085449E-05 -1.705262E-04 -8.085449E-05 +4.474910E-04 
 +4.975489E-03 +1.019362E-04 -1.614941E-04 +1.019362E-04 +1.015024E-04 -3.245561E-05 -1.614941E-04 -3.245561E-05 +3.237871E-04 
 +5.030080E-03 +1.877629E-04 +7.098673E-05 +1.877629E-04 -7.536440E-07 -1.182932E-04 +7.098673E-05 -1.182932E-04 +1.233406E-04 
 +5.075798E-03 +1.910486E-04 +1.594045E-05 +1.910486E-04 -7.343644E-05 -1.219934E-04 +1.594045E-05 -1.219934E-04 +9.183468E-05 
 +5.108068E-03 +1.243607E-04 +1.596327E-05 +1.243607E-04 -1.482820E-04 -1.127250E-04 +1.596327E-05 -1.127250E-04 +1.328376E-04 
 +5.103555E-03 +4.590523E-06 +2.097883E-05 +4.590523E-06 -1.961271E-04 -7.330226E-05 +2.097883E-05 -7.330226E-05 +1.657242E-04 
 +5.023756E-03 -7.782788E-06 -1.654982E-04 -7.782788E-06 -1.762301E-04 -8.257708E-05 -1.654982E-04 -8.257708E-05 +1.559439E-04 
 +4.993769E-03 +4.052050E-05 -1.975349E-04 +4.052050E-05 -9.237025E-05 -1.353570E-04 -1.975349E-04 -1.353570E-04 +9.015606E-05 
 +4.980290E-03 +6.641218E-05 -1.999818E-04 +6.641218E-05 +1.153223E-05 -1.760785E-04 -1.999818E-04 -1.760785E-04 -2.657572E-06 
 +4.989526E-03 +1.093950E-04 -1.080967E-04 +1.093950E-04 +1.001237E-04 -2.049724E-04 -1.080967E-04 -2.049724E-04 -8.406768E-05 
 +4.968973E-03 +1.206022E-04 -7.978419E-05 +1.206022E-04 +1.895864E-04 -1.389683E-04 -7.978419E-05 -1.389683E-04 -1.551319E-04 
 +5.085904E-03 +1.714519E-04 -1.027344E-04 +1.714519E-04 +2.315889E-04 -6.101503E-05 -1.027344E-04 -6.101503E-05 -2.171274E-04 
 +5.205173E-03 +1.162924E-04 -1.061320E-04 +1.162924E-04 +1.578915E-04 -1.365082E-04 -1.061320E-04 -1.365082E-04 -2.359361E-04 
 +5.237327E-03 +2.599227E-05 -5.268246E-05 +2.599227E-05 +1.080864E-04 -2.112606E-04 -5.268246E-05 -2.112606E-04 -2.140751E-04 
 +5.187504E-03 -2.479493E-05 +1.095361E-05 -2.479493E-05 +1.315741E-04 -7.876613E-05 +1.095361E-05 -7.876613E-05 -8.967970E-05 
 +5.016287E-03 -8.269184E-05 +1.135219E-04 -8.269184E-05 +2.288977E-04 +5.127694E-05 +1.135219E-04 +5.127694E-05 +1.338330E-05 
 +4.755066E-03 -2.323803E-05 -4.630646E-05 -2.323803E-05 +3.086127E-04 -1.822091E-05 -4.630646E-05 -1.822091E-05 +2.022004E-05 
 +4.664927E-03 -2.528875E-05 -2.185098E-05 -2.528875E-05 +2.810310E-04 -9.175563E-05 -2.185098E-05 -9.175563E-05 +4.409975E-05 
 +4.546030E-03 +4.085423E-05 -9.230016E-05 +4.085423E-05 +2.944256E-04 -4.054830E-05 -9.230016E-05 -4.054830E-05 +1.134936E-04 
 +4.733970E-03 +4.223883E-05 -1.466939E-04 +4.223883E-05 +1.978683E-04 +3.165389E-05 -1.466939E-04 +3.165389E-05 +2.285381E-04 
 +5.034379E-03 -2.183285E-05 -1.012988E-04 -2.183285E-05 -3.293754E-05 -5.354483E-05 -1.012988E-04 -5.354483E-05 +2.984381E-04 
 +4.993340E-03 +7.414687E-05 -9.155930E-05 +7.414687E-05 -7.319728E-05 -1.421999E-04 -9.155930E-05 -1.421999E-04 +3.311550E-04 
 +5.004414E-03 +1.441635E-04 +1.132536E-05 +1.441635E-04 -4.422470E-06 -1.261970E-04 +1.132536E-05 -1.261970E-04 +2.681975E-04 
 +5.013224E-03 +1.658877E-04 +1.067006E-04 +1.658877E-04 -1.523868E-04 -1.350361E-04 +1.067006E-04 -1.350361E-04 +1.470449E-04 
 +5.072561E-03 +1.342948E-04 +1.845491E-05 +1.342948E-04 -1.877320E-04 -1.728579E-04 +1.845491E-05 -1.728579E-04 +1.590970E-04 
 +5.164210E-03 +9.865409E-05 -1.961569E-05 +9.865409E-05 -2.424784E-04 -1.571157E-04 -1.961569E-05 -1.571157E-04 +1.574057E-04 
 +5.198462E-03 -2.333045E-06 -4.761935E-05 -2.333045E-06 -2.268146E-04 -1.223350E-04 -4.761935E-05 -1.223350E-04 +1.849531E-04 
 +4.980888E-03 +7.702445E-06 -2.262052E-04 +7.702445E-06 -1.179215E-04 -1.200328E-04 -2.262052E-04 -1.200328E-04 +2.072431E-04 
 +4.952898E-03 +3.956236E-05 -1.365960E-04 +3.956236E-05 +2.357926E-06 -7.836949E-05 -1.365960E-04 -7.836949E-05 +1.315873E-04 
 +4.993862E-03 +7.487361E-05 -1.545856E-04 +7.487361E-05 +5.523539E-05 -7.353176E-05 -1.545856E-04 -7.353176E-05 +4.289321E-05 
 +5.024105E-03 +1.040111E-04 -1.518331E-04 +1.040111E-04 +7.588077E-05 -1.032988E-04 -1.518331E-04 -1.032988E-04 +2.238478E-05 
 +4.972521E-03 +1.508754E-04 -1.739617E-04 +1.508754E-04 +1.163414E-04 -7.973649E-05 -1.739617E-04 -7.973649E-05 -4.247646E-05 
 +4.984861E-03 +1.871487E-04 -1.875323E-04 +1.871487E-04 +1.400611E-04 -1.226680E-04 -1.875323E-04 -1.226680E-04 -1.277425E-04 
 +5.177661E-03 +1.211166E-04 -9.512773E-05 +1.211166E-04 +1.237270E-04 -1.823453E-04 -9.512773E-05 -1.823453E-04 -1.478801E-04 
 +5.125019E-03 +4.675123E-05 -4.314150E-05 +4.675123E-05 +1.246839E-04 -9.619550E-05 -4.314150E-05 -9.619550E-05 -1.444178E-04 
 +4.984133E-03 -4.315339E-05 +9.216740E-05 -4.315339E-05 +1.555639E-04 +4.774813E-05 +9.216740E-05 +4.774813E-05 -5.521235E-05 
 +4.900518E-03 -1.212410E-04 +1.170627E-04 -1.212410E-04 +1.521047E-04 +3.393418E-05 +1.170627E-04 +3.393418E-05 -2.375913E-06 
 +4.819434E-03 -1.218851E-04 +4.092085E-05 -1.218851E-04 +1.102109E-04 -4.684390E-06 +4.092085E-05 -4.684390E-06 +1.242904E-05 
 +4.736099E-03 -8.881221E-05 +5.142001E-05 -8.881221E-05 +1.610359E-04 -5.842708E-06 +5.142001E-05 -5.842708E-06 +4.218515E-05 
 +4.621953E-03 -1.324012E-05 -7.101216E-05 -1.324012E-05 +1.157343E-04 -1.210812E-04 -7.101216E-05 -1.210812E-04 +3.537105E-05 
 +4.962244E-03 -9.963458E-05 -1.166583E-04 -9.963458E-05 -1.430140E-04 -1.949547E-04 -1.166583E-04 -1.949547E-04 +1.014202E-04 
 +5.016821E-03 -4.228376E-05 -9.523509E-05 -4.228376E-05 -1.898563E-04 -1.965378E-04 -9.523509E-05 -1.965378E-04 +1.771849E-04 
 +5.018730E-03 +6.606611E-05 -1.312266E-05 +6.606611E-05 -1.288293E-04 -1.852419E-04 -1.312266E-05 -1.852419E-04 +2.238460E-04 
 +5.017996E-03 +1.424358E-04 +7.969767E-05 +1.424358E-04 -1.527074E-04 -1.433875E-04 +7.969767E-05 -1.433875E-04 +1.983466E-04 
 +5.033661E-03 +9.495811E-05 +4.495752E-05 +9.495811E-05 -3.222541E-04 -6.119005E-05 +4.495752E-05 -6.119005E-05 +1.672248E-04 
 +5.087226E-03 +6.363867E-05 -3.556169E-05 +6.363867E-05 -3.309821E-04 -4.681311E-05 -3.556169E-05 -4.681311E-05 +2.276727E-04 
 +5.204457E-03 +2.192746E-05 -6.100072E-05 +2.192746E-05 -3.752711E-04 -6.510790E-05 -6.100072E-05 -6.510790E-05 +1.998191E-04 
 +5.224606E-03 -1.611081E-05 -9.882702E-05 -1.611081E-05 -2.912758E-04 -1.034004E-04 -9.882702E-05 -1.034004E-04 +2.252707E-04 
 +5.024507E-03 +6.532952E-05 -1.769111E-04 +6.532952E-05 -4.348196E-05 -9.091653E-05 -1.769111E-04 -9.091653E-05 +2.966993E-04 
 +4.979368E-03 +7.853363E-05 -2.847430E-05 +7.853363E-05 +6.350783E-05 -2.145325E-05 -2.847430E-05 -2.145325E-05 +1.922937E-04 
 +4.983104E-03 +1.040252E-04 -9.199428E-05 +1.040252E-04 +1.738996E-05 -5.928200E-05 -9.199428E-05 -5.928200E-05 +4.848230E-05 
 +5.032800E-03 +1.236724E-04 -1.161702E-04 +1.236724E-04 +1.077031E-05 -1.275232E-04 -1.161702E-04 -1.275232E-04 +2.641731E-05 
 +4.990072E-03 +1.548155E-04 -2.156293E-04 +1.548155E-04 +1.899161E-05 -8.070251E-05 -2.156293E-04 -8.070251E-05 -1.241457E-05 
 +4.951141E-03 +1.981325E-04 -2.815524E-04 +1.981325E-04 +6.353932E-05 -5.547682E-05 -2.815524E-04 -5.547682E-05 -6.035615E-05 
 +5.095890E-03 +1.090554E-04 -9.332190E-05 +1.090554E-04 +1.266515E-04 -7.648119E-05 -9.332190E-05 -7.648119E-05 -1.338185E-04 
 +4.965441E-03 +3.166827E-05 +5.608409E-05 +3.166827E-05 +1.776869E-04 +2.467275E-05 +5.608409E-05 +2.467275E-05 -1.549755E-04 
 +4.825472E-03 -2.907896E-05 +7.969738E-05 -2.907896E-05 +2.055340E-04 +1.050157E-04 +7.969738E-05 +1.050157E-04 -7.423795E-05 
 +4.795350E-03 -7.294310E-05 +4.233845E-05 -7.294310E-05 +1.836741E-04 +7.938714E-05 +4.233845E-05 +7.938714E-05 -1.145784E-05 
 +4.811226E-03 -9.454321E-05 +5.317816E-05 -9.454321E-05 +1.289235E-04 +5.236615E-05 +5.317816E-05 +5.236615E-05 +5.474677E-05 
 +4.828989E-03 -7.227565E-05 +4.164746E-05 -7.227565E-05 -4.661048E-06 +7.901895E-05 +4.164746E-05 +7.901895E-05 +7.582673E-05 
 +4.876079E-03 -7.351371E-05 -3.976076E-05 -7.351371E-05 -2.221739E-04 +5.972394E-05 -3.976076E-05 +5.972394E-05 +3.758738E-05 
 +4.988385E-03 -1.144129E-04 -9.511614E-05 -1.144129E-04 -2.981866E-04 -1.313620E-04 -9.511614E-05 -1.313620E-04 +3.547724E-05 
 +5.022988E-03 -1.813191E-05 -9.983239E-05 -1.813191E-05 -2.253552E-04 -2.745951E-04 -9.983239E-05 -2.745951E-04 +5.463426E-05 
 +5.018826E-03 +3.576971E-06 +4.851158E-05 +3.576971E-06 -2.067636E-04 -2.831416E-04 +4.851158E-05 -2.831416E-04 +7.257718E-05 
 +4.998624E-03 +4.286516E-05 +1.571142E-04 +4.286516E-05 -2.776029E-04 -1.784390E-04 +1.571142E-04 -1.784390E-04 +9.219572E-05 
 +5.116270E-03 +6.318251E-05 -7.726342E-06 +6.318251E-05 -1.846668E-04 -2.078512E-04 -7.726342E-06 -2.078512E-04 +3.121350E-05 
 +5.137821E-03 -4.456181E-06 -1.298113E-04 -4.456181E-06 -2.481410E-04 -3.091831E-04 -1.298113E-04 -3.091831E-04 +2.498124E-05 
 +5.159701E-03 -1.499998E-05 -1.313888E-04 -1.499998E-05 -2.494218E-04 -3.057270E-04 -1.313888E-04 -3.057270E-04 +3.319283E-06 
 +5.180648E-03 -5.981172E-05 -1.438099E-04 -5.981172E-05 -2.763458E-04 -2.546406E-04 -1.438099E-04 -2.546406E-04 +2.297163E-05 
 +5.193023E-03 -1.295175E-05 -1.244298E-04 -1.295175E-05 -3.795571E-04 -1.928701E-04 -1.244298E-04 -1.928701E-04 +6.894939E-05 
 +5.183762E-03 +9.681506E-05 -4.202940E-05 +9.681506E-05 -3.065405E-04 -1.284430E-04 -4.202940E-05 -1.284430E-04 +6.789446E-05 
 +5.008072E-03 +1.902457E-04 -1.088296E-04 +1.902457E-04 -4.854450E-05 -3.114211E-05 -1.088296E-04 -3.114211E-05 +2.232118E-05 
 +4.915803E-03 +2.129651E-04 -1.320614E-04 +2.129651E-04 +8.046975E-05 +8.898284E-07 -1.320614E-04 +8.898284E-07 -5.782138E-06 
 +4.902052E-03 +1.925530E-04 -1.270359E-04 +1.925530E-04 +1.137630E-04 -2.269375E-05 -1.270359E-04 -2.269375E-05 +1.213692E-05 
 +4.875908E-03 +1.151776E-04 -1.746421E-04 +1.151776E-04 +1.169171E-04 +1.131098E-05 -1.746421E-04 +1.131098E-05 +6.406000E-05 
 +4.932007E-03 +1.176201E-04 -1.392558E-04 +1.176201E-04 +1.567555E-04 +7.388068E-05 -1.392558E-04 +7.388068E-05 +6.672054E-05 
 +4.940630E-03 +9.504492E-05 +1.088060E-04 +9.504492E-05 +2.141685E-04 +1.373971E-04 +1.088060E-04 +1.373971E-04 -7.627288E-06 
 +4.871601E-03 -3.384627E-05 +8.080604E-05 -3.384627E-05 +1.911882E-04 +1.229554E-04 +8.080604E-05 +1.229554E-04 +6.890023E-06 
 +4.774528E-03 -1.089004E-04 +5.083784E-05 -1.089004E-04 +1.130231E-04 +4.901450E-05 +5.083784E-05 +4.901450E-05 +1.147176E-04 
 +4.812596E-03 -5.705785E-05 +3.032152E-05 -5.705785E-05 -2.360783E-05 +2.933900E-05 +3.032152E-05 +2.933900E-05 +1.874359E-04 
 +4.915115E-03 -3.756266E-05 +9.523296E-06 -3.756266E-05 -1.593760E-04 +1.294307E-05 +9.523296E-06 +1.294307E-05 +2.059384E-04 
 +4.962453E-03 -1.405525E-04 -5.685881E-05 -1.405525E-04 -1.429200E-04 +5.976940E-06 -5.685881E-05 +5.976940E-06 +1.733944E-04 
 +4.913031E-03 -1.883519E-04 -1.342380E-04 -1.883519E-04 -3.904050E-05 +1.302782E-04 -1.342380E-04 +1.302782E-04 +1.108295E-04 
 +4.964710E-03 -9.924941E-05 -1.236169E-04 -9.924941E-05 -3.890037E-05 +2.924177E-04 -1.236169E-04 +2.924177E-04 +3.210542E-05 
 +5.003869E-03 -5.416616E-05 -2.820662E-05 -5.416616E-05 -3.545621E-05 +2.259408E-04 -2.820662E-05 +2.259408E-04 +8.750878E-06 
 +4.974650E-03 -1.589389E-05 +1.840891E-04 -1.589389E-05 -6.110856E-05 -3.334357E-06 +1.840891E-04 -3.334357E-06 +1.734330E-05 
 +5.109801E-03 +2.900155E-05 -9.750994E-05 +2.900155E-05 -1.990170E-04 -1.750517E-04 -9.750994E-05 -1.750517E-04 -1.686732E-04 
 +5.133300E-03 -3.895004E-05 -2.758649E-05 -3.895004E-05 -2.624770E-04 -2.697175E-04 -2.758649E-05 -2.697175E-04 -1.288162E-04 
 +5.147842E-03 -5.738993E-05 -7.577756E-05 -5.738993E-05 -2.596707E-04 -2.466569E-04 -7.577756E-05 -2.466569E-04 -8.398311E-05 
 +5.167055E-03 -9.707436E-05 -1.168399E-04 -9.707436E-05 -2.892277E-04 -2.062759E-04 -1.168399E-04 -2.062759E-04 -4.847920E-05 
 +5.218112E-03 -7.204685E-05 -1.064276E-04 -7.204685E-05 -3.401540E-04 -1.733373E-04 -1.064276E-04 -1.733373E-04 -2.458028E-05 
 +5.278949E-03 +4.845351E-05 -4.031155E-05 +4.845351E-05 -3.843147E-04 -1.861122E-04 -4.031155E-05 -1.861122E-04 -2.323929E-05 
 +5.178406E-03 +1.374346E-04 -6.521621E-05 +1.374346E-04 -2.817002E-04 -1.728019E-04 -6.521621E-05 -1.728019E-04 +3.126679E-05 
 +4.924570E-03 +1.853162E-04 -1.569742E-04 +1.853162E-04 +7.304999E-06 -1.180955E-04 -1.569742E-04 -1.180955E-04 +1.258115E-04 
 +4.861430E-03 +1.556160E-04 -1.218415E-04 +1.556160E-04 +1.704501E-04 -9.049655E-05 -1.218415E-04 -9.049655E-05 +2.035250E-04 
 +4.801139E-03 +6.374402E-05 -1.110971E-04 +6.374402E-05 +1.596869E-04 -5.562098E-05 -1.110971E-04 -5.562098E-05 +2.649324E-04 
 +4.811968E-03 +4.395342E-05 -4.259866E-05 +4.395342E-05 +6.986358E-05 -3.313701E-05 -4.259866E-05 -3.313701E-05 +2.990912E-04 
 +4.910820E-03 +3.201950E-05 +1.369462E-04 +3.201950E-05 -4.394279E-05 -8.221380E-05 +1.369462E-04 -8.221380E-05 +2.510868E-04 
 +4.849866E-03 -6.899978E-05 +9.537714E-05 -6.899978E-05 -6.455854E-05 -1.526947E-04 +9.537714E-05 -1.526947E-04 +2.259096E-04 
 +4.772488E-03 -1.441539E-04 +9.220549E-05 -1.441539E-04 -5.175438E-05 -1.244257E-04 +9.220549E-05 -1.244257E-04 +3.072038E-04 
 +4.832303E-03 -1.142393E-04 -2.555276E-05 -1.142393E-04 -8.484067E-05 +1.040609E-05 -2.555276E-05 +1.040609E-05 +3.084390E-04 
 +4.915430E-03 -8.760683E-05 -7.442939E-05 -8.760683E-05 -1.366810E-04 +6.385618E-05 -7.442939E-05 +6.385618E-05 +2.468605E-04 
 +4.944898E-03 -1.108039E-04 -7.940194E-05 -1.108039E-04 -1.384647E-04 +4.115619E-05 -7.940194E-05 +4.115619E-05 +2.052039E-04 
 +4.957154E-03 -1.560355E-04 -6.250322E-05 -1.560355E-04 -7.301922E-05 +7.866410E-05 -6.250322E-05 +7.866410E-05 +1.329938E-04 
 +4.957672E-03 -1.290773E-04 +1.390535E-05 -1.290773E-04 -2.705652E-05 +1.433389E-04 +1.390535E-05 +1.433389E-04 -8.439924E-06 
 +4.984044E-03 -3.409350E-05 -2.403163E-05 -3.409350E-05 -5.842704E-05 +1.551124E-04 -2.403163E-05 +1.551124E-04 -6.610584E-05 
 +4.980970E-03 -9.538698E-06 -1.477519E-05 -9.538698E-06 -1.103848E-04 +3.119676E-05 -1.477519E-05 +3.119676E-05 -1.035960E-04 
 +5.085175E-03 +6.889867E-06 +1.494095E-05 +6.889867E-06 -2.804627E-05 -1.300915E-05 +1.494095E-05 -1.300915E-05 -2.615011E-04 
 +5.083973E-03 -1.204107E-05 +7.471720E-05 -1.204107E-05 -9.179719E-05 +7.397485E-05 +7.471720E-05 +7.397485E-05 -2.298187E-04 
 +5.135596E-03 -5.535908E-05 -6.539186E-05 -5.535908E-05 -2.102385E-04 -8.793882E-05 -6.539186E-05 -8.793882E-05 -1.430552E-04 
 +5.167428E-03 -1.091452E-04 -1.342937E-04 -1.091452E-04 -2.901932E-04 -1.394372E-04 -1.342937E-04 -1.394372E-04 -9.979076E-05 
 +5.180674E-03 -1.074804E-04 -1.413321E-04 -1.074804E-04 -3.244517E-04 -1.415465E-04 -1.413321E-04 -1.415465E-04 -6.595365E-05 
 +5.207254E-03 -7.809230E-06 -6.507346E-05 -7.809230E-06 -3.810552E-04 -1.634601E-04 -6.507346E-05 -1.634601E-04 -4.244334E-05 
 +5.205033E-03 +1.128642E-04 -5.192077E-05 +1.128642E-04 -3.418292E-04 -1.830034E-04 -5.192077E-05 -1.830034E-04 +3.395075E-05 
 +5.030885E-03 +9.255073E-05 -1.114138E-04 +9.255073E-05 -2.212018E-04 -1.518689E-04 -1.114138E-04 -1.518689E-04 +1.970754E-04 
 +4.908597E-03 -1.860231E-05 -7.831197E-05 -1.860231E-05 -1.598609E-04 -4.940727E-05 -7.831197E-05 -4.940727E-05 +3.546878E-04 
 +4.801348E-03 -1.997683E-05 -5.056605E-05 -1.997683E-05 -9.814156E-05 +1.018362E-04 -5.056605E-05 +1.018362E-04 +4.116484E-04 
 +4.764970E-03 -1.991069E-05 +3.271273E-05 -1.991069E-05 -7.847300E-05 +1.497185E-04 +3.271273E-05 +1.497185E-04 +2.926359E-04 
 +4.843077E-03 +3.036506E-06 +1.868661E-04 +3.036506E-06 -1.253085E-04 -2.231888E-05 +1.868661E-04 -2.231888E-05 +2.215186E-04 
 +4.865398E-03 -8.796652E-05 +1.946809E-04 -8.796652E-05 -1.457513E-04 -1.551723E-04 +1.946809E-04 -1.551723E-04 +3.135103E-04 
 +4.842766E-03 -1.318875E-04 +1.193330E-04 -1.318875E-04 -1.486835E-04 -2.106377E-04 +1.193330E-04 -2.106377E-04 +4.274120E-04 
 +4.821658E-03 -1.000398E-04 -2.509043E-05 -1.000398E-04 -1.306323E-04 -1.674769E-04 -2.509043E-05 -1.674769E-04 +4.328031E-04 
 +4.873524E-03 -1.049806E-04 -1.437638E-04 -1.049806E-04 -1.341355E-04 +5.392257E-06 -1.437638E-04 +5.392257E-06 +3.329753E-04 
 +4.948799E-03 -1.063045E-04 -9.471420E-05 -1.063045E-04 -1.420998E-04 +6.174662E-05 -9.471420E-05 +6.174662E-05 +2.384453E-04 
 +4.985642E-03 -1.250555E-04 -1.011633E-04 -1.250555E-04 -9.555783E-05 +1.095865E-05 -1.011633E-04 +1.095865E-05 +1.663364E-04 
 +4.974144E-03 -1.147365E-04 -1.104890E-05 -1.147365E-04 -1.949272E-05 -1.568050E-04 -1.104890E-05 -1.568050E-04 +5.781881E-05 
 +4.993846E-03 -5.940332E-05 -4.381568E-05 -5.940332E-05 +9.793849E-06 -4.614323E-04 -4.381568E-05 -4.614323E-04 -2.773486E-05 
 +5.018487E-03 -3.248085E-05 -4.472512E-05 -3.248085E-05 -6.766791E-06 -4.078052E-04 -4.472512E-05 -4.078052E-04 -1.396403E-04 
 +5.110521E-03 +6.587281E-05 +1.299375E-04 +6.587281E-05 +2.717062E-05 +1.522124E-04 +1.299375E-04 +1.522124E-04 -1.809598E-04 
 +5.062731E-03 +3.471649E-05 +1.584241E-04 +3.471649E-05 -8.436417E-06 +1.187886E-04 +1.584241E-04 +1.187886E-04 -1.708178E-04 
 +5.084415E-03 -1.065800E-05 +1.939873E-05 -1.065800E-05 -4.838571E-05 +1.612489E-04 +1.939873E-05 +1.612489E-04 -1.108827E-04 
 +5.079826E-03 -8.060526E-05 -7.941001E-05 -8.060526E-05 -1.096365E-04 +2.506742E-04 -7.941001E-05 +2.506742E-04 -7.772188E-05 
 +5.145413E-03 -1.116457E-04 -1.192711E-04 -1.116457E-04 -2.008565E-04 +3.225421E-04 -1.192711E-04 +3.225421E-04 -7.619081E-05 
 +5.130249E-03 +2.584984E-05 -7.686225E-05 +2.584984E-05 -2.433072E-04 +2.719915E-04 -7.686225E-05 +2.719915E-04 -7.873548E-05 
 +5.087754E-03 +2.081491E-04 -1.035450E-04 +2.081491E-04 -2.512000E-04 +1.102091E-04 -1.035450E-04 +1.102091E-04 +6.731843E-06 
 +5.078307E-03 +1.672080E-04 -1.282384E-04 +1.672080E-04 -2.472018E-04 +1.347380E-05 -1.282384E-04 +1.347380E-05 +1.660616E-04 
 +4.986244E-03 -5.699946E-06 -8.255423E-05 -5.699946E-06 -2.315392E-04 -3.669253E-05 -8.255423E-05 -3.669253E-05 +2.722897E-04 
 +4.903983E-03 +2.474016E-05 +1.717729E-05 +2.474016E-05 -1.889755E-04 +3.570012E-05 +1.717729E-05 +3.570012E-05 +2.472638E-04 
 +4.853740E-03 +4.369914E-05 +1.462499E-04 +4.369914E-05 -3.220950E-05 +2.455271E-04 +1.462499E-04 +2.455271E-04 +1.646599E-04 
 +4.793847E-03 +5.699356E-05 +1.260569E-04 +5.699356E-05 +1.693940E-05 +2.096429E-04 +1.260569E-04 +2.096429E-04 +2.004715E-04 
 +4.862235E-03 -3.093437E-05 +1.233065E-04 -3.093437E-05 -1.574481E-04 -2.859234E-05 +1.233065E-04 -2.859234E-05 +3.071838E-04 
 +4.813303E-03 -1.096051E-04 +7.767049E-05 -1.096051E-04 -2.625089E-04 -1.832607E-04 +7.767049E-05 -1.832607E-04 +3.944566E-04 
 +4.815743E-03 -8.522091E-05 +2.689288E-05 -8.522091E-05 -1.683085E-04 -1.837001E-04 +2.689288E-05 -1.837001E-04 +4.756732E-04 
 +4.839040E-03 -1.424016E-04 -1.220764E-04 -1.424016E-04 -1.080960E-04 +9.431562E-06 -1.220764E-04 +9.431562E-06 +4.430731E-04 
 +4.957038E-03 -1.056451E-04 -1.842419E-04 -1.056451E-04 -1.606969E-04 +1.069882E-04 -1.842419E-04 +1.069882E-04 +3.180994E-04 
 +5.021373E-03 -7.642692E-05 -1.259309E-04 -7.642692E-05 -1.441248E-04 +7.153422E-05 -1.259309E-04 +7.153422E-05 +2.008889E-04 
 +5.020610E-03 -5.319184E-05 -7.821882E-05 -5.319184E-05 -7.449714E-05 -7.587760E-05 -7.821882E-05 -7.587760E-05 +1.151701E-04 
 +5.028791E-03 -5.554660E-06 -3.148591E-05 -5.554660E-06 -2.859693E-05 -2.225337E-04 -3.148591E-05 -2.225337E-04 +5.719814E-05 
 +5.063131E-03 +5.154314E-05 +1.002381E-04 +5.154314E-05 +1.257376E-05 -1.886410E-05 +1.002381E-04 -1.886410E-05 -6.199663E-05 
 +5.150847E-03 +9.781840E-05 +6.233484E-05 +9.781840E-05 -2.209620E-06 +1.343003E-04 +6.233484E-05 +1.343003E-04 -1.428251E-04 
 +5.087751E-03 +8.439594E-05 +1.697152E-04 +8.439594E-05 +7.147122E-05 +1.254775E-04 +1.697152E-04 +1.254775E-04 -1.428000E-04 
 +4.979619E-03 +1.990404E-06 +1.866503E-04 +1.990404E-06 +8.752673E-05 +1.956497E-04 +1.866503E-04 +1.956497E-04 -6.191598E-05 
 +4.984388E-03 -1.203573E-04 +1.666000E-05 -1.203573E-04 -3.883720E-05 +2.629118E-04 +1.666000E-05 +2.629118E-04 -1.394444E-05 
 +5.064534E-03 -1.026129E-04 -7.919169E-05 -1.026129E-04 -1.410534E-04 +1.313945E-04 -7.919169E-05 +1.313945E-04 -7.542149E-05 
 +5.063734E-03 +6.345818E-05 -8.264355E-05 +6.345818E-05 -6.494108E-05 -8.124545E-05 -8.264355E-05 -8.124545E-05 -1.258971E-04 
 +5.008193E-03 +1.682495E-04 -1.488918E-04 +1.682495E-04 -6.587505E-05 -1.757471E-04 -1.488918E-04 -1.757471E-04 -9.403362E-05 
 +5.074992E-03 +1.464877E-04 -2.232163E-04 +1.464877E-04 -2.419457E-04 -1.408729E-04 -2.232163E-04 -1.408729E-04 +1.693090E-05 
 +4.998258E-03 +7.459075E-05 -5.415048E-05 +7.459075E-05 -1.770949E-04 +1.543998E-05 -5.415048E-05 +1.543998E-05 +7.065217E-05 
 +4.948435E-03 +1.444791E-05 +2.566041E-05 +1.444791E-05 +3.474502E-05 +2.075528E-04 +2.566041E-05 +2.075528E-04 +4.278662E-06 
 +4.955296E-03 -4.111602E-05 +1.378849E-04 -4.111602E-05 +6.187208E-07 +2.078612E-04 +1.378849E-04 +2.078612E-04 +5.866844E-05 
 +4.875397E-03 -8.149724E-05 +2.484786E-05 -8.149724E-05 -8.792844E-05 +1.001452E-04 +2.484786E-05 +1.001452E-04 +2.188078E-04 
 +4.836837E-03 -1.101040E-04 +9.039695E-06 -1.101040E-04 -9.787916E-06 +2.835538E-05 +9.039695E-06 +2.835538E-05 +2.802564E-04 
 +4.648824E-03 -1.746863E-04 +1.360428E-04 -1.746863E-04 +4.436155E-05 +4.105632E-05 +1.360428E-04 +4.105632E-05 +3.046197E-04 
 +4.869365E-03 -7.881650E-05 +3.985414E-05 -7.881650E-05 -1.672648E-06 +6.509590E-05 +3.985414E-05 +6.509590E-05 +3.930249E-04 
 +4.877287E-03 -1.731433E-04 -9.078944E-05 -1.731433E-04 -6.579558E-05 +3.928077E-05 -9.078944E-05 +3.928077E-05 +3.985279E-04 
 +4.969005E-03 -1.000714E-04 -1.997185E-04 -1.000714E-04 -1.386090E-04 +8.502567E-05 -1.997185E-04 +8.502567E-05 +2.925508E-04 
 +5.068162E-03 -1.058061E-05 -1.049753E-04 -1.058061E-05 -1.302330E-04 +1.341972E-04 -1.049753E-04 +1.341972E-04 +1.628620E-04 
 +5.080776E-03 -3.438294E-06 -6.765299E-05 -3.438294E-06 -8.682638E-05 +1.202831E-04 -6.765299E-05 +1.202831E-04 +5.955230E-05 
 +5.085608E-03 +3.350510E-05 +2.844513E-05 +3.350510E-05 -5.264727E-05 +1.045692E-04 +2.844513E-05 +1.045692E-04 +5.499560E-06 
 +5.110872E-03 +7.420717E-05 +1.059786E-04 +7.420717E-05 -3.287328E-05 +1.194955E-04 +1.059786E-04 +1.194955E-04 -6.452702E-05 
 +5.190002E-03 +1.154329E-04 +7.734282E-05 +1.154329E-04 -7.308480E-07 +2.137078E-04 +7.734282E-05 +2.137078E-04 -1.355951E-04 
 +5.154567E-03 +1.213291E-04 +1.161582E-04 +1.213291E-04 +8.092836E-05 +2.120951E-04 +1.161582E-04 +2.120951E-04 -1.458780E-04 
 +4.982512E-03 +5.881422E-05 +1.881480E-04 +5.881422E-05 +1.319248E-04 +1.541374E-04 +1.881480E-04 +1.541374E-04 -1.997810E-05 
 +4.895739E-03 -7.528403E-05 -1.693512E-05 -7.528403E-05 +6.244247E-05 +9.870174E-06 -1.693512E-05 +9.870174E-06 +4.523721E-05 
 +4.911942E-03 +3.009222E-05 -7.306096E-05 +3.009222E-05 +6.961602E-05 -1.894690E-04 -7.306096E-05 -1.894690E-04 -3.174657E-05 
 +4.919885E-03 +1.179745E-04 -7.070886E-05 +1.179745E-04 +5.890392E-05 -2.788192E-04 -7.070886E-05 -2.788192E-04 -8.352768E-05 
 +4.899370E-03 +7.963104E-05 -6.596419E-05 +7.963104E-05 -1.171671E-04 -1.726533E-04 -6.596419E-05 -1.726533E-04 -1.671327E-04 
 +4.991463E-03 +6.205028E-05 -1.611992E-04 +6.205028E-05 -1.334140E-04 +1.387450E-04 -1.611992E-04 +1.387450E-04 -1.747718E-04 
 +5.000531E-03 +8.094454E-05 -5.905275E-05 +8.094454E-05 -1.337627E-05 +2.886480E-04 -5.905275E-05 +2.886480E-04 -7.795212E-05 
 +5.001984E-03 -1.815755E-05 -8.771642E-06 -1.815755E-05 +9.333166E-07 +2.383367E-04 -8.771642E-06 +2.383367E-04 -3.667388E-05 
 +5.014894E-03 -1.080803E-04 +5.451751E-05 -1.080803E-04 -5.030751E-05 +2.180550E-04 +5.451751E-05 +2.180550E-04 +5.770542E-06 
 +4.942068E-03 -1.572603E-04 +5.542353E-05 -1.572603E-04 -1.380999E-04 +1.805015E-04 +5.542353E-05 +1.805015E-04 +1.437290E-04 
 +4.867807E-03 -8.468443E-05 +4.985593E-05 -8.468443E-05 -1.242682E-04 +7.998177E-05 +4.985593E-05 +7.998177E-05 +2.850788E-04 
 +4.677120E-03 -1.157845E-04 +1.724687E-04 -1.157845E-04 -6.128526E-06 +1.831447E-05 +1.724687E-04 +1.831447E-05 +3.437147E-04 
 +4.903450E-03 -2.431979E-05 +9.763518E-06 -2.431979E-05 -7.989757E-05 +9.966629E-05 +9.763518E-06 +9.966629E-05 +3.267309E-04 
 +4.935975E-03 -8.883679E-05 -5.100371E-05 -8.883679E-05 -1.381189E-04 +1.747789E-04 -5.100371E-05 +1.747789E-04 +2.497802E-04 
 +4.974791E-03 -3.529004E-05 -1.148180E-04 -3.529004E-05 -6.237733E-05 +2.000774E-04 -1.148180E-04 +2.000774E-04 +1.892699E-04 
 +5.069858E-03 +3.188753E-05 -9.248937E-05 +3.188753E-05 -7.161718E-05 +1.908359E-04 -9.248937E-05 +1.908359E-04 +1.142691E-04 
 +5.115981E-03 +1.237816E-05 -3.417773E-05 +1.237816E-05 -9.213432E-05 +1.648643E-04 -3.417773E-05 +1.648643E-04 +2.894613E-05 
 +5.129365E-03 +4.318839E-05 +2.391797E-05 +4.318839E-05 -8.149367E-05 +1.672871E-04 +2.391797E-05 +1.672871E-04 -2.100025E-05 
 +5.158895E-03 +8.474447E-05 +6.194189E-05 +8.474447E-05 -5.117085E-05 +1.757454E-04 +6.194189E-05 +1.757454E-04 -7.566292E-05 
 +5.186559E-03 +1.039588E-04 +1.142591E-04 +1.039588E-04 -1.332180E-05 +2.485941E-04 +1.142591E-04 +2.485941E-04 -1.064372E-04 
 +5.208169E-03 +6.806531E-05 +7.946527E-05 +6.806531E-05 +1.952245E-05 +2.479666E-04 +7.946527E-05 +2.479666E-04 -6.542300E-05 
 +5.112196E-03 +9.161848E-06 +1.050053E-04 +9.161848E-06 +1.156914E-04 +1.559681E-04 +1.050053E-04 +1.559681E-04 +5.259174E-05 
 +4.719500E-03 -2.027967E-04 -5.352495E-05 -2.027967E-04 +3.101140E-04 +7.389345E-05 -5.352495E-05 +7.389345E-05 +1.038730E-04 
 +4.739512E-03 -1.342268E-04 -5.203569E-05 -1.342268E-04 +3.176309E-04 +7.696201E-05 -5.203569E-05 +7.696201E-05 +2.099928E-05 
 +4.746267E-03 -9.389218E-05 -9.795010E-05 -9.389218E-05 +1.896998E-04 +6.822639E-05 -9.795010E-05 +6.822639E-05 -2.241289E-05 
 +4.742735E-03 -1.417370E-04 -8.141697E-05 -1.417370E-04 +3.995812E-05 -1.162970E-05 -8.141697E-05 -1.162970E-05 -4.523059E-05 
 +4.867944E-03 -6.254649E-05 -9.707110E-05 -6.254649E-05 -1.923538E-04 -5.352438E-05 -9.707110E-05 -5.352438E-05 -2.060261E-05 
 +5.140834E-03 +4.818430E-05 -1.072886E-04 +4.818430E-05 -3.812872E-04 -3.486907E-05 -1.072886E-04 -3.486907E-05 +1.082062E-04 
 +5.075147E-03 -3.175091E-05 -2.871054E-05 -3.175091E-05 -4.357889E-04 -2.568763E-05 -2.871054E-05 -2.568763E-05 +2.264417E-04 
 +5.056334E-03 -1.211761E-04 +8.726465E-05 -1.211761E-04 -3.795440E-04 +2.677701E-06 +8.726465E-05 +2.677701E-06 +2.196082E-04 
 +5.010654E-03 -1.630385E-04 +1.272464E-04 -1.630385E-04 -2.516494E-04 +7.115477E-05 +1.272464E-04 +7.115477E-05 +1.926017E-04 
 +4.922981E-03 -5.350582E-05 +9.076844E-05 -5.350582E-05 -2.302618E-04 +7.879378E-05 +9.076844E-05 +7.879378E-05 +2.642359E-04 
 +4.872964E-03 -6.151553E-05 +8.581954E-05 -6.151553E-05 -2.219229E-04 +5.537668E-05 +8.581954E-05 +5.537668E-05 +3.160856E-04 
 +4.910171E-03 -5.587143E-05 +2.725445E-06 -5.587143E-05 -1.288048E-04 +1.183504E-04 +2.725445E-06 +1.183504E-04 +2.604000E-04 
 +4.936942E-03 -5.395617E-05 -1.745209E-05 -5.395617E-05 -9.169957E-05 +1.599240E-04 -1.745209E-05 +1.599240E-04 +1.880277E-04 
 +4.965785E-03 -4.113254E-05 -8.774389E-05 -4.113254E-05 -8.413413E-05 +1.560612E-04 -8.774389E-05 +1.560612E-04 +1.716222E-04 
 +5.049959E-03 +1.410200E-05 -7.137371E-05 +1.410200E-05 -6.785906E-05 +1.834291E-04 -7.137371E-05 +1.834291E-04 +9.200159E-05 
 +5.120894E-03 +1.343273E-06 -2.629538E-05 +1.343273E-06 -8.416727E-05 +1.897826E-04 -2.629538E-05 +1.897826E-04 -1.167807E-05 
 +5.170607E-03 +4.042292E-05 +1.999533E-05 +4.042292E-05 -1.044492E-04 +1.803248E-04 +1.999533E-05 +1.803248E-04 -4.880324E-05 
 +5.182040E-03 +8.373581E-05 +6.939843E-05 +8.373581E-05 -7.998087E-05 +2.015943E-04 +6.939843E-05 +2.015943E-04 -9.446487E-05 
 +5.160290E-03 +2.428950E-05 +7.329667E-05 +2.428950E-05 -1.275094E-04 +2.025723E-04 +7.329667E-05 +2.025723E-04 +1.455572E-05 
 +5.181312E-03 -7.743484E-05 +4.341011E-05 -7.743484E-05 -2.554825E-04 +1.518747E-04 +4.341011E-05 +1.518747E-04 +1.120857E-04 
 +5.142172E-03 -5.062745E-05 +9.317480E-05 -5.062745E-05 -2.325615E-04 +9.580552E-05 +9.317480E-05 +9.580552E-05 +1.974342E-04 
 +4.729289E-03 -1.474648E-04 -3.303741E-05 -1.474648E-04 +6.124477E-05 +5.863107E-06 -3.303741E-05 +5.863107E-06 +1.698832E-04 
 +4.607779E-03 -1.368036E-04 -1.060203E-04 -1.368036E-04 +2.242750E-04 -1.931733E-05 -1.060203E-04 -1.931733E-05 +1.160724E-04 
 +4.639146E-03 -3.897067E-05 -1.415474E-04 -3.897067E-05 +1.726610E-04 -5.676878E-06 -1.415474E-04 -5.676878E-06 +9.290649E-05 
 +4.652511E-03 -6.745559E-05 -1.446671E-04 -6.745559E-05 +1.297508E-04 -4.979603E-05 -1.446671E-04 -4.979603E-05 +6.029187E-05 
 +4.798107E-03 -6.541727E-05 -1.175821E-04 -6.541727E-05 -1.017336E-04 -1.095672E-04 -1.175821E-04 -1.095672E-04 +4.831215E-05 
 +5.163081E-03 +2.711636E-05 -8.285126E-05 +2.711636E-05 -4.255305E-04 -1.309393E-04 -8.285126E-05 -1.309393E-04 +1.301389E-04 
 +5.128677E-03 -7.635100E-06 -1.729090E-05 -7.635100E-06 -4.344392E-04 -1.408786E-04 -1.729090E-05 -1.408786E-04 +2.563853E-04 
 +5.092693E-03 -1.466867E-04 +8.456452E-05 -1.466867E-04 -4.064795E-04 -1.505868E-04 +8.456452E-05 -1.505868E-04 +2.204667E-04 
 +5.104928E-03 -1.004665E-04 +1.839016E-04 -1.004665E-04 -3.886754E-04 -9.117312E-05 +1.839016E-04 -9.117312E-05 +9.046572E-05 
 +5.019302E-03 -5.337486E-05 +1.261180E-04 -5.337486E-05 -2.070804E-04 -7.655285E-06 +1.261180E-04 -7.655285E-06 +7.060065E-05 
 +4.980227E-03 -6.027321E-05 +5.738824E-05 -6.027321E-05 -1.256469E-04 +5.089331E-05 +5.738824E-05 +5.089331E-05 +7.996654E-05 
 +4.972554E-03 -6.146063E-05 +2.309959E-05 -6.146063E-05 -7.845207E-05 +1.180507E-04 +2.309959E-05 +1.180507E-04 +6.630954E-05 
 +4.935854E-03 -6.937411E-05 +1.393431E-05 -6.937411E-05 -2.750872E-05 +1.747347E-04 +1.393431E-05 +1.747347E-04 +1.236549E-04 
 +4.950011E-03 -5.235785E-05 -8.105536E-05 -5.235785E-05 -5.604931E-05 +2.067614E-04 -8.105536E-05 +2.067614E-04 +1.913623E-04 
 +5.090966E-03 +3.115138E-05 -1.653676E-05 +3.115138E-05 -1.027713E-04 +2.083263E-04 -1.653676E-05 +2.083263E-04 +1.155568E-04 
 +5.121747E-03 +2.678916E-05 +5.513364E-05 +2.678916E-05 -1.211571E-04 +2.300606E-04 +5.513364E-05 +2.300606E-04 +2.525208E-06 
 +5.121864E-03 +3.351219E-05 +5.941309E-05 +3.351219E-05 -1.434620E-04 +2.785512E-04 +5.941309E-05 +2.785512E-04 -2.387689E-05 
 +5.145663E-03 +5.605418E-05 +6.504591E-05 +5.605418E-05 -1.176514E-04 +2.662020E-04 +6.504591E-05 +2.662020E-04 -2.184022E-05 
 +5.166247E-03 -7.720465E-05 -3.598851E-05 -7.720465E-05 -2.930595E-04 +1.034759E-04 -3.598851E-05 +1.034759E-04 +1.826719E-04 
 +5.118117E-03 -1.222628E-04 +1.853732E-05 -1.222628E-04 -3.349794E-04 +1.002408E-04 +1.853732E-05 +1.002408E-04 +2.740077E-04 
 +5.076881E-03 -3.056552E-05 +8.255579E-05 -3.056552E-05 -3.232794E-04 +4.038662E-05 +8.255579E-05 +4.038662E-05 +3.114252E-04 
 +4.907179E-03 -2.963005E-05 -4.418703E-05 -2.963005E-05 -1.658546E-04 -4.181707E-05 -4.418703E-05 -4.181707E-05 +1.949013E-04 
 +4.621649E-03 -1.498639E-04 -1.616121E-04 -1.498639E-04 +1.017479E-04 -3.507995E-05 -1.616121E-04 -3.507995E-05 +1.261486E-04 
 +4.589008E-03 -3.995979E-05 -1.538207E-04 -3.995979E-05 +1.792726E-04 +1.337301E-07 -1.538207E-04 +1.337301E-07 +1.344473E-04 
 +4.637315E-03 -4.013130E-05 -1.049720E-04 -4.013130E-05 +1.611511E-04 -6.004718E-05 -1.049720E-04 -6.004718E-05 +8.508279E-05 
 +4.756413E-03 -9.955486E-05 -1.124694E-04 -9.955486E-05 +1.857812E-04 -1.864738E-04 -1.124694E-04 -1.864738E-04 +1.089147E-05 
 +4.922566E-03 -8.233542E-05 -1.144588E-04 -8.233542E-05 +1.874866E-05 -2.875282E-04 -1.144588E-04 -2.875282E-04 -1.949400E-05 
 +5.217269E-03 +9.042993E-06 -9.873682E-08 +9.042993E-06 -2.945542E-04 -2.916627E-04 -9.873682E-08 -2.916627E-04 -2.320436E-06 
 +5.187940E-03 -5.195331E-05 +4.827591E-05 -5.195331E-05 -2.591279E-04 -2.031892E-04 +4.827591E-05 -2.031892E-04 -6.287482E-05 
 +5.112911E-03 +1.546738E-05 +1.634831E-04 +1.546738E-05 -6.616004E-05 -9.034671E-05 +1.634831E-04 -9.034671E-05 -1.955413E-04 
 +5.075326E-03 -4.226194E-05 +1.725900E-04 -4.226194E-05 -5.621937E-05 +2.800995E-05 +1.725900E-04 +2.800995E-05 -1.524840E-04 
 +5.046104E-03 -9.225164E-05 +9.902862E-05 -9.225164E-05 -4.318558E-05 +1.444906E-04 +9.902862E-05 +1.444906E-04 -1.141349E-05 
 +5.050702E-03 -8.040102E-05 +5.553884E-06 -8.040102E-05 -1.080575E-05 +1.959865E-04 +5.553884E-06 +1.959865E-04 -9.194675E-06 
 +4.995562E-03 -9.674512E-05 +3.309222E-05 -9.674512E-05 -4.916941E-06 +1.751532E-04 +3.309222E-05 +1.751532E-04 +2.016929E-05 
 +4.980116E-03 -9.219180E-05 +3.412691E-05 -9.219180E-05 -4.675818E-05 +1.949263E-04 +3.412691E-05 +1.949263E-04 +1.139775E-04 
 +5.104190E-03 +6.578771E-06 +4.764627E-05 +6.578771E-06 -1.151986E-04 +1.947883E-04 +4.764627E-05 +1.947883E-04 +9.260656E-05 
 +5.097346E-03 -9.290528E-06 +6.434844E-05 -9.290528E-06 -9.192822E-05 +5.587725E-05 +6.434844E-05 +5.587725E-05 +1.834754E-05 
 +5.038348E-03 -1.623280E-05 +1.190993E-04 -1.623280E-05 -4.200779E-05 -2.617187E-05 +1.190993E-04 -2.617187E-05 +1.048745E-05 
 +5.036996E-03 -9.433614E-06 +8.327181E-05 -9.433614E-06 -1.311493E-04 +3.721686E-05 +8.327181E-05 +3.721686E-05 +9.247021E-05 
 +5.143825E-03 -8.681017E-05 -3.630811E-05 -8.681017E-05 -2.834739E-04 +8.363222E-05 -3.630811E-05 +8.363222E-05 +2.361365E-04 
 +5.039074E-03 -6.496469E-05 +3.088995E-05 -6.496469E-05 -3.759070E-04 +1.191511E-04 +3.088995E-05 +1.191511E-04 +3.692456E-04 
 +4.989996E-03 -1.149212E-05 +4.165452E-05 -1.149212E-05 -3.442668E-04 +5.088011E-05 +4.165452E-05 +5.088011E-05 +3.885924E-04 
 +4.974287E-03 +8.705728E-05 -8.604151E-05 +8.705728E-05 -2.611005E-04 -9.481462E-05 -8.604151E-05 -9.481462E-05 +1.822050E-04 
 +4.774429E-03 -2.956381E-05 -1.440752E-04 -2.956381E-05 -2.700239E-05 -1.576947E-04 -1.440752E-04 -1.576947E-04 +3.717538E-05 
 +4.540114E-03 -3.247031E-05 -1.073630E-04 -3.247031E-05 +1.776066E-04 -8.283248E-05 -1.073630E-04 -8.283248E-05 +1.221232E-04 
 +4.617966E-03 -7.137898E-05 -8.788198E-05 -7.137898E-05 +2.052784E-04 -5.845709E-05 -8.788198E-05 -5.845709E-05 +1.424793E-04 
 +4.709451E-03 -1.477352E-04 -1.383588E-04 -1.477352E-04 +1.707670E-04 -1.420210E-04 -1.383588E-04 -1.420210E-04 +7.496029E-05 
 +4.907199E-03 -7.327869E-05 -1.030827E-04 -7.327869E-05 +2.084288E-04 -1.790759E-04 -1.030827E-04 -1.790759E-04 -4.193005E-05 
 +5.263472E-03 +1.005589E-04 +6.648173E-06 +1.005589E-04 +2.022353E-04 -1.073448E-04 +6.648173E-06 -1.073448E-04 -1.884132E-04 
 +5.242832E-03 +1.360860E-04 +2.824970E-05 +1.360860E-04 +1.281152E-04 -5.004917E-05 +2.824970E-05 -5.004917E-05 -2.408183E-04 
 +5.117091E-03 +1.334870E-04 +1.195777E-04 +1.334870E-04 +1.275097E-04 -1.629644E-06 +1.195777E-04 -1.629644E-06 -2.143056E-04 
 +5.028873E-03 +6.824348E-05 +1.855230E-04 +6.824348E-05 +1.572441E-04 +7.798617E-05 +1.855230E-04 +7.798617E-05 -1.188279E-04 
 +5.067463E-03 -4.850663E-05 +1.022879E-04 -4.850663E-05 +8.978127E-05 +1.226373E-04 +1.022879E-04 +1.226373E-04 -5.598258E-05 
 +5.132329E-03 -4.852361E-05 +1.013113E-06 -4.852361E-05 -1.151427E-05 +1.961664E-04 +1.013113E-06 +1.961664E-04 -1.377653E-04 
 +5.078363E-03 -4.499486E-05 -3.686271E-06 -4.499486E-05 -2.389349E-05 +2.239227E-04 -3.686271E-06 +2.239227E-04 -1.495696E-04 
 +4.983277E-03 -8.230215E-05 +1.984969E-04 -8.230215E-05 +3.021175E-05 +9.365786E-05 +1.984969E-04 +9.365786E-05 -1.873206E-05 
 +5.013960E-03 -7.572787E-05 +1.629613E-04 -7.572787E-05 +2.740122E-05 -7.616561E-05 +1.629613E-04 -7.616561E-05 -6.991978E-06 
 +5.070171E-03 -5.670387E-05 +8.066005E-05 -5.670387E-05 -5.767723E-05 -1.445954E-04 +8.066005E-05 -1.445954E-04 -8.270000E-05 
 +5.020948E-03 -2.121644E-05 +1.898544E-04 -2.121644E-05 -4.492465E-05 -8.717591E-05 +1.898544E-04 -8.717591E-05 -3.538869E-05 
 +5.023119E-03 -5.660550E-05 +1.290444E-04 -5.660550E-05 -8.477765E-05 -1.356644E-06 +1.290444E-04 -1.356644E-06 +9.868113E-05 
 +5.047393E-03 -8.208801E-05 +7.441405E-05 -8.208801E-05 -1.076800E-04 -9.522609E-05 +7.441405E-05 -9.522609E-05 +1.729088E-04 
 +4.948666E-03 -4.942381E-05 +2.028735E-05 -4.942381E-05 -1.275528E-04 +5.729820E-05 +2.028735E-05 +5.729820E-05 +2.507174E-04 
 +4.873164E-03 +2.340352E-05 -3.952403E-05 +2.340352E-05 -2.048278E-04 +2.301360E-05 -3.952403E-05 +2.301360E-05 +2.349187E-04 
 +4.891906E-03 +9.341633E-05 -1.031165E-04 +9.341633E-05 -2.098143E-04 -1.240111E-04 -1.031165E-04 -1.240111E-04 +5.731806E-05 
 +4.761745E-03 -6.259450E-05 -1.634091E-05 -6.259450E-05 -6.585714E-05 -1.480814E-04 -1.634091E-05 -1.480814E-04 -3.238082E-05 
 +4.596511E-03 -2.059246E-04 -5.989593E-05 -2.059246E-04 +1.242506E-04 -7.825172E-05 -5.989593E-05 -7.825172E-05 +1.312969E-04 
 +4.689014E-03 -1.780606E-04 -9.837534E-05 -1.780606E-04 +1.780052E-04 -8.854393E-05 -9.837534E-05 -8.854393E-05 +1.881862E-04 
 +4.817946E-03 -1.337332E-04 -9.115522E-05 -1.337332E-04 +1.354519E-04 -6.169621E-05 -9.115522E-05 -6.169621E-05 +9.104859E-05 
 +5.139084E-03 +8.373484E-05 -1.720864E-05 +8.373484E-05 +9.966501E-05 +2.467586E-06 -1.720864E-05 +2.467586E-06 -5.507943E-05 
 +5.205898E-03 +1.535140E-04 -1.964133E-05 +1.535140E-04 +1.090766E-04 -2.419959E-05 -1.964133E-05 -2.419959E-05 -1.731488E-04 
 +5.199422E-03 +1.712841E-04 -6.876357E-06 +1.712841E-04 +7.857085E-05 -5.898177E-05 -6.876357E-06 -5.898177E-05 -1.779220E-04 
 +5.134102E-03 +1.884521E-04 +6.346964E-05 +1.884521E-04 +8.809646E-05 -2.201124E-05 +6.346964E-05 -2.201124E-05 -8.104044E-05 
 +5.035698E-03 +1.572890E-04 +8.725524E-05 +1.572890E-04 +1.919448E-04 -6.361153E-05 +8.725524E-05 -6.361153E-05 -4.340275E-05 
 +5.076672E-03 +1.575349E-05 +3.743520E-05 +1.575349E-05 +2.498875E-04 -1.874634E-04 +3.743520E-05 -1.874634E-04 -1.995313E-04 
 +5.169546E-03 +5.270185E-05 +8.653574E-05 +5.270185E-05 +2.386792E-04 -1.808779E-04 +8.653574E-05 -1.808779E-04 -3.823688E-04 
 +5.133921E-03 +3.708072E-06 +5.484269E-05 +3.708072E-06 +1.892129E-04 -5.702498E-05 +5.484269E-05 -5.702498E-05 -2.879129E-04 
 +4.856854E-03 -4.248673E-05 +2.981652E-04 -4.248673E-05 +1.161749E-04 +1.130554E-05 +2.981652E-04 +1.130554E-05 -3.887026E-05 
 +4.958868E-03 -9.068583E-05 +1.963430E-04 -9.068583E-05 +3.942274E-05 -3.551545E-05 +1.963430E-04 -3.551545E-05 +4.350366E-07 
 +5.012554E-03 -3.435702E-05 +1.590273E-04 -3.435702E-05 -2.428353E-05 -1.001880E-04 +1.590273E-04 -1.001880E-04 -9.769761E-05 
 +5.059711E-03 +5.952254E-06 +2.052447E-04 +5.952254E-06 -1.017423E-04 -1.947630E-04 +2.052447E-04 -1.947630E-04 -7.695097E-05 
 +5.129661E-03 -4.659663E-05 +1.185172E-04 -4.659663E-05 -1.613715E-04 -2.366094E-04 +1.185172E-04 -2.366094E-04 +4.810096E-05 
 +5.027894E-03 -1.016091E-04 +2.719896E-05 -1.016091E-04 +1.461928E-04 -2.030066E-04 +2.719896E-05 -2.030066E-04 +3.589900E-05 
 +4.863023E-03 -9.740461E-05 -6.003373E-05 -9.740461E-05 +3.086835E-04 -1.458081E-04 -6.003373E-05 -1.458081E-04 +1.549284E-05 
 +4.740633E-03 -3.488980E-05 -9.493298E-05 -3.488980E-05 +3.739800E-04 -9.123944E-05 -9.493298E-05 -9.123944E-05 -2.628045E-05 
 +4.708684E-03 -1.673833E-05 -3.877852E-05 -1.673833E-05 +2.278705E-04 -8.916001E-05 -3.877852E-05 -8.916001E-05 -7.183529E-05 
 +4.799979E-03 +7.027453E-05 +5.096929E-05 +7.027453E-05 +4.582785E-05 -1.755086E-04 +5.096929E-05 -1.755086E-04 -3.621416E-05 
 +4.848845E-03 +4.971719E-05 +6.179894E-06 +4.971719E-05 -2.410123E-05 -1.183531E-04 +6.179894E-06 -1.183531E-04 +1.228151E-04 
 +4.886740E-03 +1.102850E-04 -5.376770E-05 +1.102850E-04 -5.018852E-05 +6.346522E-05 -5.376770E-05 +6.346522E-05 +1.721391E-04 
 +5.002027E-03 +1.195153E-04 -6.075676E-05 +1.195153E-04 +2.380059E-05 +9.391147E-05 -6.075676E-05 +9.391147E-05 +7.703701E-05 
 +5.128596E-03 +1.634269E-04 -2.091584E-07 +1.634269E-04 +8.670851E-05 +3.200995E-05 -2.091584E-07 +3.200995E-05 -2.938730E-05 
 +5.121983E-03 +1.320918E-04 -4.101848E-05 +1.320918E-04 +6.718049E-05 +4.442334E-06 -4.101848E-05 +4.442334E-06 -7.354255E-05 
 +5.150175E-03 +1.407658E-04 -5.776628E-05 +1.407658E-04 +3.219291E-05 +1.603004E-06 -5.776628E-05 +1.603004E-06 -8.384077E-05 
 +5.144810E-03 +2.369919E-04 -1.043386E-05 +2.369919E-04 +3.187644E-05 +5.369303E-05 -1.043386E-05 +5.369303E-05 -3.447947E-05 
 +5.110035E-03 +2.221313E-04 -3.086672E-05 +2.221313E-04 +6.192676E-05 +5.546080E-05 -3.086672E-05 +5.546080E-05 +1.257166E-05 
 +5.115253E-03 +4.872853E-05 -5.897317E-05 +4.872853E-05 +1.103060E-04 -8.480658E-05 -5.897317E-05 -8.480658E-05 -4.561885E-05 
 +5.160529E-03 +5.186240E-05 +1.503950E-04 +5.186240E-05 +1.437524E-04 -1.314117E-04 +1.503950E-04 -1.314117E-04 -1.586575E-04 
 +5.155732E-03 -1.290985E-05 +2.100779E-04 -1.290985E-05 +1.312572E-04 -2.152753E-05 +2.100779E-04 -2.152753E-05 -9.845519E-05 
 +4.743375E-03 -6.327261E-06 +2.880792E-04 -6.327261E-06 +1.512820E-04 +4.813047E-05 +2.880792E-04 +4.813047E-05 +7.678625E-05 
 +4.895287E-03 -8.077929E-05 +6.887275E-05 -8.077929E-05 +1.777647E-04 +9.370461E-05 +6.887275E-05 +9.370461E-05 +9.055076E-05 
 +4.940962E-03 -6.931850E-05 +5.120368E-05 -6.931850E-05 +1.012956E-04 +6.316807E-05 +5.120368E-05 +6.316807E-05 +9.549114E-06 
 +5.074328E-03 -4.952687E-05 +9.811774E-05 -4.952687E-05 -3.138874E-05 -1.378594E-04 +9.811774E-05 -1.378594E-04 -5.785979E-05 
 +5.119445E-03 -9.143415E-05 +7.455317E-05 -9.143415E-05 -1.255027E-05 -2.424045E-04 +7.455317E-05 -2.424045E-04 -3.009390E-05 
 +5.010708E-03 -5.007003E-05 -4.540752E-05 -5.007003E-05 +1.857959E-04 -1.218031E-04 -4.540752E-05 -1.218031E-04 -8.508369E-05 
 +4.802366E-03 -5.580486E-05 -1.014615E-04 -5.580486E-05 +3.418046E-04 -3.267783E-05 -1.014615E-04 -3.267783E-05 -5.526766E-05 
 +4.686612E-03 -5.629416E-05 -5.968141E-05 -5.629416E-05 +3.954457E-04 -7.379193E-05 -5.968141E-05 -7.379193E-05 -7.566776E-05 
 +4.705942E-03 +1.633656E-05 +3.236995E-06 +1.633656E-05 +2.957063E-04 -2.028462E-04 +3.236995E-06 -2.028462E-04 -1.019091E-04 
 +5.002108E-03 +1.625268E-04 +1.801623E-05 +1.625268E-04 +1.252247E-04 -2.787597E-04 +1.801623E-05 -2.787597E-04 -4.686852E-05 
 +5.009510E-03 +7.439323E-05 +6.628062E-05 +7.439323E-05 -1.748166E-05 -2.260375E-04 +6.628062E-05 -2.260375E-04 +5.845688E-05 
 +5.010118E-03 +4.280758E-05 +3.460971E-07 +4.280758E-05 -2.629625E-05 -1.828634E-04 +3.460971E-07 -1.828634E-04 +1.022273E-04 
 +5.046349E-03 +3.365968E-05 -1.283104E-05 +3.365968E-05 +1.517708E-05 -7.931283E-05 -1.283104E-05 -7.931283E-05 +6.206447E-05 
 +5.053094E-03 +1.000090E-04 -2.291929E-05 +1.000090E-04 +8.157970E-05 +3.701549E-05 -2.291929E-05 +3.701549E-05 +1.179156E-05 
 +5.071959E-03 +1.099991E-04 -6.120624E-05 +1.099991E-04 +8.168020E-05 +5.808278E-05 -6.120624E-05 +5.808278E-05 -1.202171E-05 
 +5.093670E-03 +1.318209E-04 -7.313135E-05 +1.318209E-04 +4.560545E-05 +8.044571E-05 -7.313135E-05 +8.044571E-05 -7.447638E-05 
 +5.144642E-03 +1.891040E-04 -1.290326E-04 +1.891040E-04 -2.004992E-05 +7.563128E-05 -1.290326E-04 +7.563128E-05 -4.396459E-05 
 +5.154273E-03 +1.080140E-04 -1.090030E-04 +1.080140E-04 -2.012700E-04 +1.025409E-05 -1.090030E-04 +1.025409E-05 +8.888482E-05 
 +5.161765E-03 +2.081167E-05 -7.773373E-05 +2.081167E-05 -3.012837E-04 +1.677117E-06 -7.773373E-05 +1.677117E-06 +1.549622E-04 
 +5.199279E-03 +4.446686E-05 +1.424599E-04 +4.446686E-05 -2.536955E-04 +5.356315E-05 +1.424599E-04 +5.356315E-05 +1.251458E-04 
 +5.136778E-03 +1.867427E-05 +2.676656E-04 +1.867427E-05 -1.188833E-04 +7.152887E-05 +2.676656E-04 +7.152887E-05 +1.417979E-04 
 +4.715329E-03 +3.429625E-05 +2.276993E-04 +3.429625E-05 +9.284118E-05 +8.060675E-05 +2.276993E-04 +8.060675E-05 +1.889235E-04 
 +4.783941E-03 -5.270247E-05 +9.073616E-06 -5.270247E-05 +2.591442E-04 +1.523362E-04 +9.073616E-06 +1.523362E-04 +6.412102E-05 
 +4.893646E-03 -1.118698E-04 -6.562313E-05 -1.118698E-04 +2.955460E-04 +2.142040E-04 -6.562313E-05 +2.142040E-04 -1.347457E-05 
 +4.991793E-03 -1.249216E-04 -3.818605E-05 -1.249216E-04 +2.167707E-04 +1.104604E-04 -3.818605E-05 +1.104604E-04 -2.764387E-05 
 +5.064376E-03 -6.875029E-05 -1.272923E-05 -6.875029E-05 +1.426768E-04 -1.107725E-04 -1.272923E-05 -1.107725E-04 -8.935896E-05 
 +4.963131E-03 -4.871916E-05 -5.623334E-05 -4.871916E-05 +4.240966E-04 +1.467981E-04 -5.623334E-05 +1.467981E-04 -1.607426E-04 
 +4.816388E-03 -2.428431E-06 -1.205945E-04 -2.428431E-06 +4.224765E-04 +3.543672E-05 -1.205945E-04 +3.543672E-05 -7.521103E-05 
 +4.761734E-03 -5.493623E-05 -5.410761E-05 -5.493623E-05 +3.287939E-04 -1.576815E-04 -5.410761E-05 -1.576815E-04 -2.186753E-05 
 +4.884344E-03 +8.341422E-05 +6.859324E-06 +8.341422E-05 +2.494437E-04 -3.438537E-04 +6.859324E-06 -3.438537E-04 -4.138217E-05 
 +4.999623E-03 +1.199802E-04 +5.527401E-05 +1.199802E-04 +2.002362E-04 -3.153884E-04 +5.527401E-05 -3.153884E-04 -4.232292E-05 
 +5.013029E-03 +1.196820E-05 +7.538065E-05 +1.196820E-05 +9.280564E-05 -1.948389E-04 +7.538065E-05 -1.948389E-04 +1.731084E-05 
 +5.039833E-03 +1.785616E-05 +2.376104E-05 +1.785616E-05 +1.995834E-06 -1.142393E-04 +2.376104E-05 -1.142393E-04 +6.541079E-05 
 +5.059952E-03 +3.169608E-05 +9.257278E-05 +3.169608E-05 -1.441227E-05 -1.197448E-05 +9.257278E-05 -1.197448E-05 +6.334100E-05 
 +5.054229E-03 +6.352873E-05 +1.529564E-05 +6.352873E-05 -6.032797E-06 +6.812485E-05 +1.529564E-05 +6.812485E-05 +4.429247E-05 
 +5.063800E-03 +2.310435E-05 -6.824448E-05 +2.310435E-05 +1.063271E-05 +1.185318E-04 -6.824448E-05 +1.185318E-04 +1.475965E-05 
 +5.089060E-03 +1.227992E-04 -4.347039E-05 +1.227992E-04 +6.683628E-05 +1.431714E-04 -4.347039E-05 +1.431714E-04 -1.214269E-04 
 +5.107627E-03 +1.117806E-04 -2.191860E-04 +1.117806E-04 +6.373884E-06 +1.766103E-04 -2.191860E-04 +1.766103E-04 -1.300836E-04 
 +5.161761E-03 +5.961191E-06 -1.555731E-04 +5.961191E-06 -1.911774E-04 +1.707845E-04 -1.555731E-04 +1.707845E-04 +5.272026E-05 
 +5.208271E-03 -2.917675E-06 -5.302967E-05 -2.917675E-06 -3.120654E-04 +1.527076E-04 -5.302967E-05 +1.527076E-04 +1.304251E-04 
 +5.232286E-03 +2.057738E-05 +7.885385E-05 +2.057738E-05 -3.009637E-04 +1.708851E-04 +7.885385E-05 +1.708851E-04 +1.071098E-04 
 +5.102910E-03 +6.008286E-05 +2.089275E-04 +6.008286E-05 -1.426927E-04 +1.582939E-04 +2.089275E-04 +1.582939E-04 +1.630296E-04 
 +4.670746E-03 +7.765864E-05 +2.135014E-04 +7.765864E-05 +1.118926E-04 +1.363846E-04 +2.135014E-04 +1.363846E-04 +2.166627E-04 
 +4.749265E-03 -8.517032E-05 +1.952498E-05 -8.517032E-05 +2.673747E-04 +1.187643E-04 +1.952498E-05 +1.187643E-04 +4.929275E-05 
 +4.856479E-03 -1.391625E-04 -1.027734E-04 -1.391625E-04 +3.309601E-04 +1.493027E-04 -1.027734E-04 +1.493027E-04 -5.808926E-05 
 +4.902302E-03 -1.664762E-04 -1.082181E-04 -1.664762E-04 +3.659179E-04 +2.222622E-04 -1.082181E-04 +2.222622E-04 -3.784173E-05 
 +5.001362E-03 -9.422950E-05 -9.108634E-05 -9.422950E-05 +3.857175E-04 +2.154341E-04 -9.108634E-05 +2.154341E-04 -1.217392E-04 
 +4.971001E-03 +5.583685E-05 -8.416210E-05 +5.583685E-05 +4.720480E-04 +1.541407E-04 -8.416210E-05 +1.541407E-04 -1.448259E-04 
 +4.866339E-03 +1.688709E-05 -1.111041E-04 +1.688709E-05 +4.987915E-04 +3.723590E-05 -1.111041E-04 +3.723590E-05 -4.524008E-05 
 +4.837104E-03 -9.662072E-05 -6.710699E-05 -9.662072E-05 +3.921244E-04 -1.148120E-04 -6.710699E-05 -1.148120E-04 +1.105478E-04 
 +4.950465E-03 -8.463989E-06 +6.925200E-06 -8.463989E-06 +2.909668E-04 -2.744997E-04 +6.925200E-06 -2.744997E-04 +1.151374E-04 
 +5.060620E-03 +3.719617E-05 +9.755679E-05 +3.719617E-05 +1.910862E-04 -2.626734E-04 +9.755679E-05 -2.626734E-04 +5.310792E-05 
 +5.037427E-03 +2.942221E-05 +1.068374E-04 +2.942221E-05 +1.040562E-04 -1.656584E-04 +1.068374E-04 -1.656584E-04 +5.351347E-05 
 +5.007680E-03 +2.318124E-05 +7.387239E-05 +2.318124E-05 +1.795468E-05 -7.705585E-05 +7.387239E-05 -7.705585E-05 +7.318709E-05 
 +5.036552E-03 +4.423935E-05 +1.157584E-04 +4.423935E-05 -1.625698E-05 +1.015458E-06 +1.157584E-04 +1.015458E-06 +5.689961E-05 
 +5.053630E-03 +8.031235E-05 +8.209857E-05 +8.031235E-05 +1.253654E-05 +5.957948E-05 +8.209857E-05 +5.957948E-05 +3.537488E-05 
 +5.080400E-03 +1.007518E-04 -2.956233E-06 +1.007518E-04 +6.705381E-05 +1.319169E-04 -2.956233E-06 +1.319169E-04 -1.173962E-05 
 +5.139872E-03 +1.681830E-04 -2.477298E-05 +1.681830E-04 +8.764876E-05 +2.096779E-04 -2.477298E-05 +2.096779E-04 -1.622803E-04 
 +5.131346E-03 +1.010319E-04 -1.641280E-04 +1.010319E-04 +1.720389E-05 +3.236391E-04 -1.641280E-04 +3.236391E-04 -1.721282E-04 
 +5.134032E-03 +1.064256E-07 -1.491238E-04 +1.064256E-07 -9.370081E-05 +3.583091E-04 -1.491238E-04 +3.583091E-04 +2.372551E-05 
 +5.164570E-03 -2.804900E-06 -9.652569E-05 -2.804900E-06 -2.103014E-04 +3.126042E-04 -9.652569E-05 +3.126042E-04 +1.431379E-04 
 +5.120760E-03 +4.003293E-06 -3.511506E-05 +4.003293E-06 -2.433757E-04 +2.553916E-04 -3.511506E-05 +2.553916E-04 +1.737842E-04 
 +5.035079E-03 +6.343838E-05 +1.031864E-04 +6.343838E-05 -1.079455E-04 +1.808604E-04 +1.031864E-04 +1.808604E-04 +2.666996E-04 
 +4.719878E-03 +9.244955E-05 +1.206561E-04 +9.244955E-05 +7.395399E-05 +1.499878E-04 +1.206561E-04 +1.499878E-04 +3.205259E-04 
 +4.740501E-03 -8.153945E-05 -2.428522E-05 -8.153945E-05 +1.728858E-04 +1.043102E-04 -2.428522E-05 +1.043102E-04 +1.598864E-04 
 +4.826777E-03 -1.328198E-04 -1.376582E-04 -1.328198E-04 +2.743833E-04 +9.453774E-05 -1.376582E-04 +9.453774E-05 +4.879382E-06 
 +4.879149E-03 -1.909994E-04 -1.578951E-04 -1.909994E-04 +3.666568E-04 +1.652101E-04 -1.578951E-04 +1.652101E-04 -2.316682E-05 
 +4.944968E-03 -6.257022E-05 -1.357830E-04 -6.257022E-05 +3.920357E-04 +2.183289E-04 -1.357830E-04 +2.183289E-04 -8.200730E-05 
 +5.008396E-03 +4.185392E-05 -4.699645E-05 +4.185392E-05 +4.060418E-04 +1.624297E-04 -4.699645E-05 +1.624297E-04 +3.767321E-05 
 +5.017148E-03 +1.102734E-05 -6.690946E-05 +1.102734E-05 +4.660275E-04 +8.393187E-05 -6.690946E-05 +8.393187E-05 +1.318091E-04 
 +4.877674E-03 -5.345482E-05 -2.644356E-05 -5.345482E-05 +5.103446E-04 +1.398661E-05 -2.644356E-05 +1.398661E-05 +2.747684E-04 
 +4.852646E-03 -6.116751E-06 +1.923795E-05 -6.116751E-06 +4.559689E-04 -6.087776E-05 +1.923795E-05 -6.087776E-05 +1.942581E-04 
 +5.118164E-03 -1.209269E-04 +9.548571E-05 -1.209269E-04 +2.501957E-04 -1.228430E-04 +9.548571E-05 -1.228430E-04 +1.372580E-04 
 +5.065477E-03 -1.612144E-04 +1.125858E-04 -1.612144E-04 +7.681840E-05 -1.328120E-04 +1.125858E-04 -1.328120E-04 +1.426180E-04 
 +5.021227E-03 -1.115234E-04 +1.285601E-04 -1.115234E-04 +5.851015E-05 -3.074182E-05 +1.285601E-04 -3.074182E-05 +9.278582E-05 
 +5.034525E-03 +7.180660E-07 +8.149061E-05 +7.180660E-07 +2.995227E-05 +4.784763E-05 +8.149061E-05 +4.784763E-05 +1.075988E-05 
 +5.092445E-03 +7.797057E-05 -1.547276E-05 +7.797057E-05 +1.039557E-05 -9.729038E-05 -1.547276E-05 -9.729038E-05 -6.632305E-05 
 +5.115731E-03 +1.018392E-04 -1.040750E-05 +1.018392E-04 +3.156208E-05 -3.098129E-04 -1.040750E-05 -3.098129E-04 -1.239020E-04 
 +5.137081E-03 +1.186803E-04 -5.202341E-05 +1.186803E-04 +2.072631E-05 -3.388269E-04 -5.202341E-05 -3.388269E-04 -1.868075E-04 
 +5.210118E-03 +1.669256E-05 -1.000045E-04 +1.669256E-05 -5.631435E-06 -2.793604E-04 -1.000045E-04 -2.793604E-04 -1.815736E-04 
 +5.156961E-03 -7.830052E-06 -1.371871E-04 -7.830052E-06 +5.951101E-05 -2.198934E-04 -1.371871E-04 -2.198934E-04 -7.734796E-05 
 +5.108190E-03 -2.082218E-05 -1.274165E-04 -2.082218E-05 +7.007737E-05 -1.394090E-04 -1.274165E-04 -1.394090E-04 +6.250752E-05 
 +4.870971E-03 +5.765797E-05 -1.299434E-04 +5.765797E-05 -3.711912E-06 -9.069834E-05 -1.299434E-04 -9.069834E-05 +1.736415E-04 
 +4.856231E-03 +8.844915E-05 -7.307324E-06 +8.844915E-05 -6.888640E-05 -9.707360E-05 -7.307324E-06 -9.707360E-05 +2.856863E-04 
 +4.773966E-03 +3.106828E-05 +1.488213E-05 +3.106828E-05 -1.352476E-04 -4.733353E-05 +1.488213E-05 -4.733353E-05 +3.698108E-04 
 +4.695403E-03 -1.298601E-04 -3.823647E-05 -1.298601E-04 +5.477011E-05 +2.976440E-05 -3.823647E-05 +2.976440E-05 +2.676317E-04 
 +4.878508E-03 -2.252454E-04 -1.265971E-04 -2.252454E-04 +2.389056E-04 +1.071207E-04 -1.265971E-04 +1.071207E-04 +1.053309E-04 
 +4.942090E-03 -1.928156E-04 -1.950532E-04 -1.928156E-04 +2.941901E-04 +2.122541E-04 -1.950532E-04 +2.122541E-04 +4.713342E-05 
 +4.905231E-03 -1.085712E-04 -1.889337E-04 -1.085712E-04 +3.716077E-04 +2.417991E-04 -1.889337E-04 +2.417991E-04 +6.204921E-05 
 +5.075265E-03 +7.780599E-05 -6.310243E-05 +7.780599E-05 +2.384218E-05 +1.356596E-04 -6.310243E-05 +1.356596E-04 +2.031850E-04 
 +5.119335E-03 +5.068662E-05 -2.789689E-05 +5.068662E-05 -8.317178E-05 +3.255586E-05 -2.789689E-05 +3.255586E-05 +2.594791E-04 
 +4.951595E-03 -4.894608E-06 +3.110826E-05 -4.894608E-06 +1.485452E-04 +2.111461E-05 +3.110826E-05 +2.111461E-05 +3.033875E-04 
 +4.921219E-03 +1.910674E-05 +3.911108E-05 +1.910674E-05 +3.753444E-04 +2.488534E-05 +3.911108E-05 +2.488534E-05 +1.763115E-04 
 +4.994577E-03 -1.065339E-04 +7.093303E-05 -1.065339E-04 +2.478749E-04 -5.353235E-05 +7.093303E-05 -5.353235E-05 +1.095202E-04 
 +4.986180E-03 -7.276773E-05 +5.946308E-05 -7.276773E-05 +8.649716E-05 -1.057102E-04 +5.946308E-05 -1.057102E-04 +1.070992E-04 
 +4.987094E-03 -8.548673E-05 +6.064826E-05 -8.548673E-05 +1.276926E-04 -1.504651E-04 +6.064826E-05 -1.504651E-04 +4.555253E-05 
 +5.065814E-03 -1.260264E-04 -1.692694E-05 -1.260264E-04 +1.707069E-04 -2.417062E-04 -1.692694E-05 -2.417062E-04 -8.574760E-05 
 +5.178113E-03 +4.554026E-06 -8.411969E-05 +4.554026E-06 +1.328227E-04 -1.960027E-04 -8.411969E-05 -1.960027E-04 -2.258684E-04 
 +5.174963E-03 +7.138497E-05 -4.368154E-05 +7.138497E-05 +1.186628E-04 -1.000973E-04 -4.368154E-05 -1.000973E-04 -2.384186E-04 
 +5.145244E-03 +8.762162E-05 -1.047244E-04 +8.762162E-05 +8.730668E-05 -8.894256E-05 -1.047244E-04 -8.894256E-05 -2.012688E-04 
 +5.239975E-03 +1.375010E-05 -9.890976E-05 +1.375010E-05 +6.521085E-05 -1.491273E-04 -9.890976E-05 -1.491273E-04 -2.201995E-04 
 +5.222125E-03 -2.030298E-07 -1.015423E-04 -2.030298E-07 +1.056496E-04 -1.738766E-04 -1.015423E-04 -1.738766E-04 -1.899029E-04 
 +5.126154E-03 -8.489716E-05 -6.746535E-05 -8.489716E-05 +1.614056E-04 -1.168791E-04 -6.746535E-05 -1.168791E-04 -4.019068E-05 
 +4.682493E-03 +9.884711E-05 -1.054755E-04 +9.884711E-05 +2.403919E-04 -4.671568E-05 -1.054755E-04 -4.671568E-05 +1.028718E-04 
 +4.688384E-03 +1.397779E-04 -2.692561E-05 +1.397779E-04 +2.425414E-04 -3.367282E-06 -2.692561E-05 -3.367282E-06 +1.964906E-04 
 +4.665692E-03 +1.178225E-04 -8.628647E-06 +1.178225E-04 +1.406138E-04 -1.866229E-05 -8.628647E-06 -1.866229E-05 +3.265103E-04 
 +4.613266E-03 +9.327346E-05 -1.481782E-05 +9.327346E-05 +1.564127E-04 -8.871916E-05 -1.481782E-05 -8.871916E-05 +2.904163E-04 
 +4.987763E-03 -1.710980E-04 -2.491100E-05 -1.710980E-04 +2.328909E-04 -8.838115E-05 -2.491100E-05 -8.838115E-05 +5.203372E-05 
 +5.024133E-03 -1.273355E-04 -9.942587E-05 -1.273355E-04 +2.568555E-04 +5.241343E-05 -9.942587E-05 +5.241343E-05 -4.387648E-05 
 +4.888794E-03 -8.610265E-05 -1.926781E-04 -8.610265E-05 +2.139857E-04 +1.823442E-04 -1.926781E-04 +1.823442E-04 +1.054244E-04 
 +5.091824E-03 +7.791661E-05 -5.289081E-05 +7.791661E-05 -1.957517E-06 +6.255829E-05 -5.289081E-05 +6.255829E-05 +1.881272E-04 
 +5.073342E-03 +1.420172E-04 +2.904948E-05 +1.420172E-04 -5.686747E-05 +3.778885E-05 +2.904948E-05 +3.778885E-05 +1.928195E-04 
 +5.021989E-03 +1.555529E-04 +8.525915E-05 +1.555529E-04 -7.750255E-05 +3.510555E-05 +8.525915E-05 +3.510555E-05 +1.828027E-04 
 +5.059460E-03 +1.737436E-05 +6.339750E-05 +1.737436E-05 -1.191277E-04 +6.425585E-05 +6.339750E-05 +6.425585E-05 +1.037961E-04 
 +4.961014E-03 -1.461478E-04 -2.469276E-05 -1.461478E-04 +4.753436E-06 -2.188892E-05 -2.469276E-05 -2.188892E-05 -9.146612E-06 
 +4.934786E-03 -9.913689E-06 -4.340976E-05 -9.913689E-06 +1.419326E-04 -1.173056E-04 -4.340976E-05 -1.173056E-04 -4.816117E-05 
 +4.929030E-03 +1.284146E-04 -7.797334E-05 +1.284146E-04 +1.272935E-04 -1.072949E-04 -7.797334E-05 -1.072949E-04 -3.913274E-05 
 +5.005514E-03 +1.238897E-04 -9.241501E-05 +1.238897E-04 +1.745531E-04 -7.089470E-05 -9.241501E-05 -7.089470E-05 -1.418874E-04 
 +5.174727E-03 +9.183391E-05 -6.961049E-05 +9.183391E-05 +2.186842E-04 -6.571708E-05 -6.961049E-05 -6.571708E-05 -2.723398E-04 
 +5.178691E-03 +5.625371E-05 -8.123511E-05 +5.625371E-05 +1.623489E-04 -1.407940E-04 -8.123511E-05 -1.407940E-04 -2.674830E-04 
 +5.190883E-03 +9.800303E-06 -1.251764E-04 +9.800303E-06 +8.950746E-05 -1.858496E-04 -1.251764E-04 -1.858496E-04 -2.303929E-04 
 +5.246229E-03 -1.766078E-06 -1.071791E-04 -1.766078E-06 +7.201146E-05 -1.903903E-04 -1.071791E-04 -1.903903E-04 -2.533862E-04 
 +5.239351E-03 -3.206972E-06 -8.450982E-05 -3.206972E-06 +1.225478E-04 -2.120545E-04 -8.450982E-05 -2.120545E-04 -2.104719E-04 
 +5.121497E-03 -9.985507E-05 -6.218553E-06 -9.985507E-05 +2.179575E-04 -1.881378E-04 -6.218553E-06 -1.881378E-04 -7.200968E-05 
 +4.620998E-03 +5.248394E-05 -5.097267E-05 +5.248394E-05 +2.978881E-04 -1.086855E-04 -5.097267E-05 -1.086855E-04 +5.071043E-05 
 +4.633629E-03 +6.053070E-05 +3.723274E-06 +6.053070E-05 +2.808384E-04 -5.490012E-05 +3.723274E-06 -5.490012E-05 +1.338126E-04 
 +4.607409E-03 +1.022372E-04 -3.308567E-05 +1.022372E-04 +2.226469E-04 -5.475913E-05 -3.308567E-05 -5.475913E-05 +2.619335E-04 
 +4.515489E-03 +1.727974E-04 -3.420456E-05 +1.727974E-04 +1.362420E-04 -8.787412E-05 -3.420456E-05 -8.787412E-05 +3.002637E-04 
 +5.049877E-03 -1.002089E-04 +3.306541E-05 -1.002089E-04 +7.050308E-05 -9.814055E-05 +3.306541E-05 -9.814055E-05 +1.342678E-04 
 +5.075286E-03 -3.609081E-05 -5.718525E-05 -3.609081E-05 +8.761027E-05 -4.961454E-05 -5.718525E-05 -4.961454E-05 +3.933259E-05 
 +5.007046E-03 -3.440342E-05 -1.331910E-04 -3.440342E-05 +8.883398E-05 +2.766912E-05 -1.331910E-04 +2.766912E-05 +1.224754E-04 
 +5.048887E-03 +9.843651E-05 +6.366858E-05 +9.843651E-05 -1.172377E-04 -1.194872E-05 +6.366858E-05 -1.194872E-05 +1.801056E-04 
 +5.053736E-03 +1.831114E-04 +5.474082E-05 +1.831114E-04 -7.280593E-05 +2.534749E-06 +5.474082E-05 +2.534749E-06 +1.565253E-04 
 +5.077267E-03 +1.742460E-04 +7.187953E-05 +1.742460E-04 -9.679668E-05 -4.219594E-05 +7.187953E-05 -4.219594E-05 +1.594735E-04 
 +5.095760E-03 +7.276066E-05 +4.878146E-05 +7.276066E-05 -1.256364E-04 -1.125044E-04 +4.878146E-05 -1.125044E-04 +1.298019E-04 
 +4.976113E-03 +2.588700E-05 -1.698020E-04 +2.588700E-05 -5.427371E-05 -1.524067E-04 -1.698020E-04 -1.524067E-04 +4.329904E-05 
 +4.954784E-03 +3.547203E-05 -1.427151E-04 +3.547203E-05 +6.680012E-05 -1.753491E-04 -1.427151E-04 -1.753491E-04 -7.688899E-06 
 +4.946019E-03 +9.122893E-05 -1.617420E-04 +9.122893E-05 +1.111183E-04 -1.704384E-04 -1.617420E-04 -1.704384E-04 -3.329378E-05 
 +4.988099E-03 +1.458325E-04 -8.062814E-05 +1.458325E-04 +9.272430E-05 -1.430777E-04 -8.062814E-05 -1.430777E-04 -1.120762E-04 
 +5.010537E-03 +1.547895E-04 -9.480575E-05 +1.547895E-04 +1.084918E-04 -1.155946E-04 -9.480575E-05 -1.155946E-04 -1.797622E-04 
 +5.103990E-03 +9.258421E-05 -1.568402E-04 +9.258421E-05 +1.573327E-04 -1.226948E-04 -1.568402E-04 -1.226948E-04 -2.165146E-04 
 +5.201756E-03 -3.692500E-06 -1.513935E-04 -3.692500E-06 +1.257101E-04 -1.667257E-04 -1.513935E-04 -1.667257E-04 -2.390039E-04 
 +5.220713E-03 +6.525397E-06 -1.076998E-04 +6.525397E-06 +9.698119E-05 -1.985416E-04 -1.076998E-04 -1.985416E-04 -2.213224E-04 
 +5.196996E-03 -2.921144E-05 -6.897042E-05 -2.921144E-05 +1.521601E-04 -1.909446E-04 -6.897042E-05 -1.909446E-04 -1.925532E-04 
 +5.111157E-03 -8.564421E-05 +3.682372E-06 -8.564421E-05 +2.719153E-04 -1.837694E-04 +3.682372E-06 -1.837694E-04 -1.654180E-04 
 +4.657784E-03 +6.331437E-05 -2.088286E-05 +6.331437E-05 +3.590860E-04 -1.251545E-04 -2.088286E-05 -1.251545E-04 -2.899887E-05 
 +4.558591E-03 +2.409417E-05 -2.603902E-05 +2.409417E-05 +3.167639E-04 -4.750604E-05 -2.603902E-05 -4.750604E-05 +8.203277E-05 
 +4.620364E-03 +4.849535E-05 -6.854842E-05 +4.849535E-05 +2.642496E-04 -5.481089E-05 -6.854842E-05 -5.481089E-05 +1.250968E-04 
 +4.659829E-03 +1.227147E-04 -5.602617E-05 +1.227147E-04 +7.635097E-05 -6.851398E-05 -5.602617E-05 -6.851398E-05 +2.542221E-04 
 +5.052654E-03 +3.114844E-06 -5.476281E-05 +3.114844E-06 -2.225104E-04 -9.038523E-05 -5.476281E-05 -9.038523E-05 +3.298676E-04 
 +5.104191E-03 +1.046136E-04 -7.699050E-05 +1.046136E-04 -3.306762E-04 -9.038221E-05 -7.699050E-05 -9.038221E-05 +2.752060E-04 
 +5.098903E-03 +7.030174E-05 -6.949697E-06 +7.030174E-05 -2.455468E-04 -3.721984E-05 -6.949697E-06 -3.721984E-05 +2.147754E-04 
 +5.017877E-03 +8.630865E-05 +1.129505E-04 +8.630865E-05 -1.148916E-04 -7.075960E-05 +1.129505E-04 -7.075960E-05 +2.834682E-04 
 +5.056412E-03 +1.029438E-04 +1.590671E-06 +1.029438E-04 -1.028135E-04 -1.294924E-04 +1.590671E-06 -1.294924E-04 +2.321827E-04 
 +5.149363E-03 +9.575930E-05 -1.968627E-05 +9.575930E-05 -1.978718E-04 -2.053964E-04 -1.968627E-05 -2.053964E-04 +1.934282E-04 
 +5.164961E-03 +5.346607E-05 -4.066346E-05 +5.346607E-05 -2.006948E-04 -2.611501E-04 -4.066346E-05 -2.611501E-04 +1.853400E-04 
 +4.963695E-03 +6.305941E-05 -2.324316E-04 +6.305941E-05 -8.651863E-05 -2.152121E-04 -2.324316E-04 -2.152121E-04 +1.806118E-04 
 +4.927893E-03 +3.331845E-05 -1.658002E-04 +3.331845E-05 -1.784546E-06 -1.706265E-04 -1.658002E-04 -1.706265E-04 +1.396620E-04 
 +4.956765E-03 +8.793625E-05 -1.339256E-04 +8.793625E-05 +1.640895E-05 -3.926915E-05 -1.339256E-04 -3.926915E-05 +1.678081E-05 
 +5.024466E-03 +1.357675E-04 -4.931875E-05 +1.357675E-04 +4.097382E-05 +1.114922E-04 -4.931875E-05 +1.114922E-04 -8.252590E-05 
 +4.945084E-03 +1.809144E-04 -1.274574E-04 +1.809144E-04 +5.935976E-05 +8.426602E-06 -1.274574E-04 +8.426602E-06 -7.936946E-05 
 +4.998328E-03 +1.503526E-04 -2.217616E-04 +1.503526E-04 +5.622371E-05 -1.857975E-04 -2.217616E-04 -1.857975E-04 -1.141687E-04 
 +5.165025E-03 +2.779740E-05 -1.471503E-04 +2.779740E-05 +9.927435E-05 -2.208741E-04 -1.471503E-04 -2.208741E-04 -2.000252E-04 
 +5.136016E-03 +4.391415E-05 -9.649010E-05 +4.391415E-05 +1.696849E-04 -1.553802E-04 -9.649010E-05 -1.553802E-04 -1.650374E-04 
 +5.046914E-03 -2.094747E-05 -1.883651E-05 -2.094747E-05 +2.063949E-04 -1.464160E-04 -1.883651E-05 -1.464160E-04 -1.383904E-04 
 +5.060446E-03 -1.444252E-04 +3.234735E-05 -1.444252E-04 +2.036742E-04 -1.684566E-04 +3.234735E-05 -1.684566E-04 -1.468629E-04 
 +4.773222E-03 -6.092122E-05 +5.462943E-05 -6.092122E-05 +2.002049E-04 -9.095543E-05 +5.462943E-05 -9.095543E-05 -2.628675E-05 
 +4.580187E-03 -1.712422E-05 -6.484625E-05 -1.712422E-05 +2.730033E-04 -3.401327E-05 -6.484625E-05 -3.401327E-05 +6.863924E-05 
 +4.636048E-03 -3.081276E-05 -9.832416E-05 -3.081276E-05 +9.336195E-05 -1.231421E-04 -9.832416E-05 -1.231421E-04 +1.186885E-04 
 +4.950640E-03 -4.669949E-05 -5.343437E-05 -4.669949E-05 -3.195527E-04 -1.502591E-04 -5.343437E-05 -1.502591E-04 +2.044454E-04 
 +5.017445E-03 -2.000954E-05 -8.674956E-05 -2.000954E-05 -3.622570E-04 -9.155932E-05 -8.674956E-05 -9.155932E-05 +2.637434E-04 
 +5.055878E-03 +2.702540E-05 -2.060737E-05 +2.702540E-05 -2.972553E-04 -5.744137E-05 -2.060737E-05 -5.744137E-05 +2.453747E-04 
 +5.111591E-03 +7.846342E-05 +9.094237E-05 +7.846342E-05 -2.659937E-04 -3.858338E-05 +9.094237E-05 -3.858338E-05 +2.497367E-04 
 +5.047126E-03 +8.424655E-05 +5.675369E-05 +8.424655E-05 -2.112682E-04 -6.983727E-05 +5.675369E-05 -6.983727E-05 +2.345316E-04 
 +5.087593E-03 +3.788460E-05 -1.086242E-04 +3.788460E-05 -1.891799E-04 -2.079509E-04 -1.086242E-04 -2.079509E-04 +1.830426E-04 
 +5.186429E-03 +2.374751E-05 -1.130618E-04 +2.374751E-05 -2.393449E-04 -3.160934E-04 -1.130618E-04 -3.160934E-04 +1.072571E-04 
 +5.204698E-03 +5.362218E-06 -1.387605E-04 +5.362218E-06 -2.424501E-04 -3.179097E-04 -1.387605E-04 -3.179097E-04 +1.071150E-04 
 +5.055260E-03 +9.102397E-05 -1.941280E-04 +9.102397E-05 -1.585797E-04 -2.071206E-04 -1.941280E-04 -2.071206E-04 +1.437347E-04 
 +4.993761E-03 +1.126043E-04 -1.142661E-04 +1.126043E-04 -4.772211E-05 -8.073006E-05 -1.142661E-04 -8.073006E-05 +1.294448E-04 
 +4.955137E-03 +1.623171E-04 -1.007543E-04 +1.623171E-04 +7.744866E-06 -3.442230E-05 -1.007543E-04 -3.442230E-05 +3.162179E-05 
 +4.989476E-03 +1.851742E-04 -6.935838E-05 +1.851742E-04 +4.090569E-05 -3.509335E-05 -6.935838E-05 -3.509335E-05 -3.254529E-05 
 +4.950905E-03 +1.943759E-04 -1.601180E-04 +1.943759E-04 +7.303990E-05 -3.223976E-05 -1.601180E-04 -3.223976E-05 -1.877183E-05 
 +4.920005E-03 +1.614044E-04 -2.485231E-04 +1.614044E-04 +7.552066E-05 -4.158480E-05 -2.485231E-04 -4.158480E-05 -5.643226E-06 
 +5.058066E-03 +8.940348E-05 -1.509893E-04 +8.940348E-05 +1.174411E-04 -1.312661E-04 -1.509893E-04 -1.312661E-04 -9.413528E-05 
 +5.034582E-03 +7.030587E-05 +4.964688E-06 +7.030587E-05 +2.214361E-04 -1.217897E-04 +4.964688E-06 -1.217897E-04 -1.582260E-04 
 +4.910382E-03 -1.915300E-05 +5.686559E-05 -1.915300E-05 +2.329185E-04 +4.396727E-06 +5.686559E-05 +4.396727E-06 -1.017193E-04 
 +4.893905E-03 -1.284725E-04 +6.147819E-05 -1.284725E-04 +1.510115E-04 +2.344460E-05 +6.147819E-05 +2.344460E-05 -2.012672E-05 
 +4.813659E-03 -1.047362E-04 +9.374554E-05 -1.047362E-04 +4.019469E-05 +2.788307E-05 +9.374554E-05 +2.788307E-05 +6.442821E-05 
 +4.789947E-03 -6.320693E-05 -1.359968E-05 -6.320693E-05 -1.049570E-04 +5.559889E-05 -1.359968E-05 +5.559889E-05 +1.336247E-04 
 +4.817835E-03 -1.131640E-04 -6.605491E-05 -1.131640E-04 -1.897136E-04 +8.354164E-05 -6.605491E-05 +8.354164E-05 +1.722071E-04 
 +4.966562E-03 -1.098363E-04 -1.310550E-04 -1.098363E-04 -2.086475E-04 +9.709735E-05 -1.310550E-04 +9.709735E-05 +1.479409E-04 
 +4.991937E-03 -3.773429E-05 -1.442162E-04 -3.773429E-05 -2.414665E-04 -3.651109E-05 -1.442162E-04 -3.651109E-05 +1.051337E-04 
 +5.017554E-03 -3.304953E-05 +3.408747E-06 -3.304953E-05 -2.451962E-04 -1.725259E-04 +3.408747E-06 -1.725259E-04 +8.317864E-05 
 +5.053464E-03 +7.323779E-05 +1.758746E-04 +7.323779E-05 -2.459942E-04 -1.016359E-04 +1.758746E-04 -1.016359E-04 +1.354696E-04 
 +5.090450E-03 +4.582312E-05 +1.867728E-05 +4.582312E-05 -2.372636E-04 +3.327354E-06 +1.867728E-05 +3.327354E-06 +4.816828E-06 
 +5.119603E-03 -5.879351E-05 -1.288536E-04 -5.879351E-05 -2.544162E-04 -1.299417E-04 -1.288536E-04 -1.299417E-04 +3.936465E-05 
 +5.149118E-03 -1.875876E-05 -1.441885E-04 -1.875876E-05 -2.257003E-04 -1.480941E-04 -1.441885E-04 -1.480941E-04 +1.593520E-05 
 +5.180350E-03 -5.739453E-06 -1.196566E-04 -5.739453E-06 -2.536342E-04 -1.599419E-04 -1.196566E-04 -1.599419E-04 -3.080322E-05 
 +5.224717E-03 +1.365523E-05 -1.007192E-04 +1.365523E-05 -3.239246E-04 -1.788274E-04 -1.007192E-04 -1.788274E-04 -2.522130E-05 
 +5.188813E-03 +9.084743E-05 -8.898858E-05 +9.084743E-05 -2.670516E-04 -1.357219E-04 -8.898858E-05 -1.357219E-04 -2.776269E-05 
 +5.003501E-03 +1.845282E-04 -1.587284E-04 +1.845282E-04 -3.350280E-05 -6.310264E-05 -1.587284E-04 -6.310264E-05 -4.030172E-05 
 +4.909273E-03 +2.188234E-04 -1.561664E-04 +2.188234E-04 +8.880255E-05 -8.246213E-05 -1.561664E-04 -8.246213E-05 -5.606262E-06 
 +4.863994E-03 +1.747073E-04 -1.118433E-04 +1.747073E-04 +1.192256E-04 -1.183773E-04 -1.118433E-04 -1.183773E-04 +6.134861E-05 
 +4.832434E-03 +6.841277E-05 -1.691513E-04 +6.841277E-05 +1.596678E-04 -9.822625E-05 -1.691513E-04 -9.822625E-05 +1.362216E-04 
 +4.812556E-03 +4.705993E-05 -1.755404E-04 +4.705993E-05 +1.809374E-04 -1.959096E-05 -1.755404E-04 -1.959096E-05 +2.135789E-04 
 +4.929131E-03 +5.098728E-05 -1.313547E-05 +5.098728E-05 +1.204048E-04 +1.777610E-06 -1.313547E-05 +1.777610E-06 +1.259804E-04 
 +4.986514E-03 -5.052353E-05 +8.138030E-06 -5.052353E-05 +1.592852E-05 -7.667472E-05 +8.138030E-06 -7.667472E-05 -6.177464E-05 
 +4.879537E-03 -2.584107E-05 +3.019306E-05 -2.584107E-05 +3.712580E-06 -4.169533E-05 +3.019306E-05 -4.169533E-05 -1.862095E-05 
 +4.883056E-03 +6.976032E-05 +2.603034E-05 +6.976032E-05 -5.324315E-05 -1.148360E-06 +2.603034E-05 -1.148360E-06 +1.478013E-04 
 +4.941442E-03 +1.747717E-05 -2.491691E-05 +1.747717E-05 -1.522739E-04 -2.889273E-05 -2.491691E-05 -2.889273E-05 +2.043454E-04 
 +4.930783E-03 -5.073845E-05 -6.825407E-05 -5.073845E-05 -1.504690E-04 -1.008462E-05 -6.825407E-05 -1.008462E-05 +1.933481E-04 
 +4.912996E-03 -7.040040E-05 -1.068437E-04 -7.040040E-05 -1.196337E-04 +9.164246E-05 -1.068437E-04 +9.164246E-05 +1.714732E-04 
 +4.939834E-03 -6.470724E-05 -6.962833E-05 -6.470724E-05 -1.034567E-04 +2.508975E-04 -6.962833E-05 +2.508975E-04 +1.436165E-04 
 +4.969601E-03 -2.481728E-05 +1.510145E-05 -2.481728E-05 -6.207237E-05 +3.097829E-04 +1.510145E-05 +3.097829E-04 +1.191036E-04 
 +4.990527E-03 +7.686333E-05 +1.663087E-04 +7.686333E-05 -1.016421E-04 +2.103801E-04 +1.663087E-04 +2.103801E-04 +4.866662E-05 
 +5.042795E-03 +1.062199E-05 -7.503030E-05 +1.062199E-05 -1.549960E-04 -1.161966E-04 -7.503030E-05 -1.161966E-04 -1.878530E-05 
 +5.081521E-03 -7.980935E-05 -2.337507E-05 -7.980935E-05 -2.056394E-04 -1.955776E-04 -2.337507E-05 -1.955776E-04 -6.507468E-05 
 +5.137540E-03 -7.253238E-05 -4.588623E-05 -7.253238E-05 -2.278765E-04 -1.503170E-04 -4.588623E-05 -1.503170E-04 -1.159999E-04 
 +5.179454E-03 -5.170506E-05 -9.504404E-05 -5.170506E-05 -2.498898E-04 -1.175405E-04 -9.504404E-05 -1.175405E-04 -7.802649E-05 
 +5.196464E-03 -4.064273E-05 -1.161345E-04 -4.064273E-05 -2.973528E-04 -1.277301E-04 -1.161345E-04 -1.277301E-04 -3.896302E-05 
 +5.249262E-03 +4.527683E-05 -7.780116E-05 +4.527683E-05 -3.540847E-04 -1.753899E-04 -7.780116E-05 -1.753899E-04 -3.905178E-05 
 +5.190805E-03 +1.219587E-04 -8.438397E-05 +1.219587E-04 -2.839571E-04 -1.694766E-04 -8.438397E-05 -1.694766E-04 -3.649382E-05 
 +4.933553E-03 +1.824165E-04 -1.610642E-04 +1.824165E-04 -1.115861E-05 -9.309523E-05 -1.610642E-04 -9.309523E-05 +4.921411E-05 
 +4.811017E-03 +1.465013E-04 -1.212520E-04 +1.465013E-04 +1.622980E-04 -8.101720E-05 -1.212520E-04 -8.101720E-05 +1.592196E-04 
 +4.759659E-03 +5.375340E-05 -8.939502E-05 +5.375340E-05 +1.860469E-04 -6.926771E-05 -8.939502E-05 -6.926771E-05 +2.631244E-04 
 +4.765042E-03 -4.173267E-05 -2.233685E-05 -4.173267E-05 +1.277259E-04 -7.156716E-05 -2.233685E-05 -7.156716E-05 +3.032503E-04 
 +4.903527E-03 -6.492828E-05 +1.232446E-04 -6.492828E-05 +7.256956E-07 -1.602695E-04 +1.232446E-04 -1.602695E-04 +1.640972E-04 
 +4.943348E-03 -8.525020E-05 +1.259865E-04 -8.525020E-05 -1.531617E-05 -1.033901E-04 +1.259865E-04 -1.033901E-04 +6.949088E-05 
 +4.902123E-03 -3.211235E-05 +9.979909E-05 -3.211235E-05 -3.363848E-05 +9.736805E-05 +9.979909E-05 +9.736805E-05 +1.426981E-04 
 +4.891538E-03 +2.773320E-05 -6.217217E-05 +2.773320E-05 -9.301654E-05 +1.402672E-04 -6.217217E-05 +1.402672E-04 +1.985342E-04 
 +4.913386E-03 +3.850720E-06 -8.467220E-05 +3.850720E-06 -1.078497E-04 +5.239835E-05 -8.467220E-05 +5.239835E-05 +1.982364E-04 
 +4.938051E-03 -3.855488E-05 -8.386490E-05 -3.855488E-05 -1.067107E-04 +2.701377E-05 -8.386490E-05 +2.701377E-05 +1.906106E-04 
 +4.929174E-03 -7.768498E-05 -5.408745E-05 -7.768498E-05 -7.775946E-05 +5.197871E-05 -5.408745E-05 +5.197871E-05 +1.566184E-04 
 +4.954778E-03 -1.033724E-04 +1.206120E-06 -1.033724E-04 -4.527863E-05 +1.081710E-04 +1.206120E-06 +1.081710E-04 +6.672638E-05 
 +4.992785E-03 -4.388405E-05 +2.288105E-05 -4.388405E-05 -6.051986E-05 +1.978945E-04 +2.288105E-05 +1.978945E-04 -3.599658E-05 
 +5.022292E-03 +4.866053E-05 -1.815028E-05 +4.866053E-05 -1.049238E-04 +1.099851E-04 -1.815028E-05 +1.099851E-04 -5.542388E-05 
 +5.031927E-03 +4.010888E-05 +2.206755E-06 +4.010888E-05 +1.956662E-05 +1.553643E-07 +2.206755E-06 +1.553643E-07 -8.994258E-05 
 +5.032511E-03 -1.543042E-05 +8.048098E-05 -1.543042E-05 +3.162486E-05 +9.649041E-05 +8.048098E-05 +9.649041E-05 -1.488627E-04 
 +5.083887E-03 -4.556115E-05 +3.636983E-06 -4.556115E-05 -7.400171E-05 +7.641762E-05 +3.636983E-06 +7.641762E-05 -1.491300E-04 
 +5.166357E-03 -7.229361E-05 -9.412638E-05 -7.229361E-05 -2.360022E-04 -5.921742E-05 -9.412638E-05 -5.921742E-05 -9.100519E-05 
 +5.139297E-03 -6.812074E-05 -7.732418E-05 -6.812074E-05 -3.191953E-04 -8.566718E-05 -7.732418E-05 -8.566718E-05 -2.286344E-05 
 +5.170266E-03 -1.969891E-05 -6.798943E-05 -1.969891E-05 -3.894389E-04 -4.451941E-05 -6.798943E-05 -4.451941E-05 +1.534276E-05 
 +5.211657E-03 +9.996597E-05 -2.949813E-05 +9.996597E-05 -4.212921E-04 -8.009996E-05 -2.949813E-05 -8.009996E-05 +4.324200E-05 
 +5.042775E-03 +1.158999E-04 -9.498978E-05 +1.158999E-04 -3.445517E-04 -1.001953E-04 -9.498978E-05 -1.001953E-04 +1.732378E-04 
 +4.875807E-03 +2.262667E-05 -6.547442E-05 +2.262667E-05 -2.334515E-04 -2.623259E-05 -6.547442E-05 -2.623259E-05 +2.919100E-04 
 +4.775436E-03 +3.972025E-05 -1.991317E-05 +3.972025E-05 -9.350072E-05 -1.406966E-05 -1.991317E-05 -1.406966E-05 +4.278400E-04 
 +4.735324E-03 -4.620400E-05 +6.161379E-07 -4.620400E-05 +3.477426E-05 -8.330110E-05 +6.161379E-07 -8.330110E-05 +4.847054E-04 
 +4.834576E-03 -9.154909E-05 +1.706600E-04 -9.154909E-05 +7.375896E-05 -9.753689E-05 +1.706600E-04 -9.753689E-05 +2.997447E-04 
 +4.943009E-03 -1.179644E-04 +2.111383E-04 -1.179644E-04 +1.252874E-05 -1.221550E-04 +2.111383E-04 -1.221550E-04 +1.866014E-04 
 +4.943684E-03 -9.178723E-05 +1.490655E-04 -9.178723E-05 -4.442247E-05 -8.232391E-05 +1.490655E-04 -8.232391E-05 +2.782690E-04 
 +4.901776E-03 -8.454238E-06 -4.302609E-05 -8.454238E-06 -7.859001E-05 +7.755373E-05 -4.302609E-05 +7.755373E-05 +3.340903E-04 
 +4.895787E-03 -5.402943E-06 -1.510534E-04 -5.402943E-06 -1.065155E-04 +1.092944E-04 -1.510534E-04 +1.092944E-04 +2.982196E-04 
 +4.928476E-03 -4.434321E-05 -1.187658E-04 -4.434321E-05 -1.037599E-04 +4.606050E-05 -1.187658E-04 +4.606050E-05 +2.245039E-04 
 +4.944635E-03 -5.519251E-05 -8.418807E-05 -5.519251E-05 -8.544943E-05 +1.923805E-05 -8.418807E-05 +1.923805E-05 +1.642919E-04 
 +4.980323E-03 -7.855516E-05 -8.432163E-06 -7.855516E-05 -9.231321E-05 +2.472519E-05 -8.432163E-06 +2.472519E-05 +7.406852E-05 
 +5.038882E-03 -3.646018E-05 +8.496912E-06 -3.646018E-05 -1.260863E-04 +4.450897E-05 +8.496912E-06 +4.450897E-05 -4.030969E-05 
 +5.061836E-03 +6.777606E-05 -5.817300E-05 +6.777606E-05 -7.526586E-05 -3.117933E-06 -5.817300E-05 -3.117933E-06 -7.690053E-05 
 +5.119689E-03 +8.175840E-05 +8.110853E-05 +8.175840E-05 -7.622044E-06 +1.384662E-04 +8.110853E-05 +1.384662E-04 -1.215751E-04 
 +5.023115E-03 +3.652795E-05 +1.324299E-04 +3.652795E-05 +2.564099E-05 +8.784691E-05 +1.324299E-04 +8.784691E-05 -1.561325E-04 
 +5.009059E-03 -3.091579E-05 +4.894488E-05 -3.091579E-05 +5.010152E-05 +1.408122E-04 +4.894488E-05 +1.408122E-04 -9.474074E-05 
 +5.058884E-03 -7.872562E-05 -3.822628E-05 -7.872562E-05 -2.578247E-06 +2.227680E-04 -3.822628E-05 +2.227680E-04 -5.709788E-05 
 +5.058971E-03 -8.048384E-05 -2.878675E-05 -8.048384E-05 -1.171883E-04 +2.936479E-04 -2.878675E-05 +2.936479E-04 -3.417271E-05 
 +5.102829E-03 -5.052133E-05 -4.487653E-06 -5.052133E-05 -2.568525E-04 +3.535144E-04 -4.487653E-06 +3.535144E-04 -9.584864E-06 
 +5.128798E-03 +1.635970E-04 -5.203639E-05 +1.635970E-04 -3.334177E-04 +3.177640E-04 -5.203639E-05 +3.177640E-04 +1.580579E-05 
 +5.068181E-03 +2.234126E-04 -1.178271E-04 +2.234126E-04 -2.764861E-04 +1.708051E-04 -1.178271E-04 +1.708051E-04 +1.373577E-04 
 +4.951660E-03 +5.154041E-05 -8.167244E-05 +5.154041E-05 -2.018629E-04 +3.293097E-05 -8.167244E-05 +3.293097E-05 +2.381921E-04 
 +4.863563E-03 +8.390124E-05 +9.546830E-06 +8.390124E-05 -6.757731E-05 +1.863190E-06 +9.546830E-06 +1.863190E-06 +2.851024E-04 
 +4.811681E-03 +1.417974E-05 +1.229546E-04 +1.417974E-05 +2.120927E-04 +1.634352E-04 +1.229546E-04 +1.634352E-04 +3.063431E-04 
 +4.790191E-03 -1.134350E-04 +1.240530E-04 -1.134350E-04 +2.726693E-04 +1.816057E-04 +1.240530E-04 +1.816057E-04 +2.898372E-04 
 +4.905300E-03 -1.261771E-04 +1.168187E-04 -1.261771E-04 +1.111543E-04 -6.039717E-05 +1.168187E-04 -6.039717E-05 +3.015673E-04 
 +4.936199E-03 -1.040521E-04 +7.531394E-05 -1.040521E-04 -4.342192E-06 -1.828092E-04 +7.531394E-05 -1.828092E-04 +3.235385E-04 
 +4.916115E-03 -3.671386E-05 +5.149247E-05 -3.671386E-05 -4.008506E-05 -1.302492E-04 +5.149247E-05 -1.302492E-04 +2.868357E-04 
 +4.886711E-03 -4.035732E-05 -6.148607E-05 -4.035732E-05 -4.509343E-05 +2.193537E-05 -6.148607E-05 +2.193537E-05 +2.726475E-04 
 +4.932985E-03 -6.628572E-05 -1.636192E-04 -6.628572E-05 -8.926806E-05 +9.424156E-05 -1.636192E-04 +9.424156E-05 +2.516908E-04 
 +5.004447E-03 -4.869271E-05 -1.393909E-04 -4.869271E-05 -1.270195E-04 +3.304489E-05 -1.393909E-04 +3.304489E-05 +1.658304E-04 
 +5.039773E-03 -5.912544E-05 -6.707113E-05 -5.912544E-05 -1.106553E-04 +4.857290E-05 -6.707113E-05 +4.857290E-05 +9.278917E-05 
 +5.047443E-03 +3.349266E-06 -1.129080E-05 +3.349266E-06 -3.092226E-05 +1.689946E-04 -1.129080E-05 +1.689946E-04 +6.041346E-05 
 +5.082737E-03 +1.135610E-04 +4.563455E-05 +1.135610E-04 +9.883587E-06 +2.184239E-04 +4.563455E-05 +2.184239E-04 -1.448766E-05 
 +5.172313E-03 +1.003992E-04 +1.868388E-05 +1.003992E-04 -3.341395E-05 +1.312212E-04 +1.868388E-05 +1.312212E-04 -1.242424E-04 
 +5.042980E-03 +7.185403E-05 +1.369034E-04 +7.185403E-05 +2.170604E-05 +1.142838E-04 +1.369034E-04 +1.142838E-04 -7.773765E-05 
 +4.961115E-03 -1.358192E-05 +1.827360E-04 -1.358192E-05 +1.052163E-04 +1.568421E-04 +1.827360E-04 +1.568421E-04 -1.086403E-05 
 +4.962555E-03 -9.629587E-05 +3.072788E-05 -9.629587E-05 +8.262639E-05 +2.047027E-04 +3.072788E-05 +2.047027E-04 +3.078317E-05 
 +4.971457E-03 -1.116770E-04 -3.355668E-05 -1.116770E-04 -8.793089E-05 +2.237660E-04 -3.355668E-05 +2.237660E-04 +3.485500E-05 
 +4.999561E-03 -3.132604E-05 +1.200610E-05 -3.132604E-05 -1.575267E-04 +1.568415E-04 +1.200610E-05 +1.568415E-04 -2.197448E-05 
 +5.088004E-03 +1.782165E-04 -1.023759E-04 +1.782165E-04 -1.113293E-04 +3.229959E-05 -1.023759E-04 +3.229959E-05 -2.435216E-05 
 +5.022882E-03 +2.376561E-04 -1.870719E-04 +2.376561E-04 -1.515849E-04 -3.065507E-05 -1.870719E-04 -3.065507E-05 +1.339580E-04 
 +4.930241E-03 +1.144707E-04 -9.072877E-05 +1.144707E-04 -3.792422E-05 +5.471939E-05 -9.072877E-05 +5.471939E-05 +2.226091E-04 
 +4.898454E-03 +7.036228E-05 +3.373894E-05 +7.036228E-05 +6.377175E-05 +1.580452E-04 +3.373894E-05 +1.580452E-04 +2.155205E-04 
 +4.919049E-03 -1.141102E-05 +1.898851E-04 -1.141102E-05 -5.502712E-05 +1.121068E-04 +1.898851E-04 +1.121068E-04 +2.467201E-04 
 +4.868822E-03 -1.798294E-04 +7.637512E-05 -1.798294E-04 -1.607400E-05 -1.362175E-06 +7.637512E-05 -1.362175E-06 +2.779745E-04 
 +4.885210E-03 -2.028379E-04 +5.440449E-07 -2.028379E-04 +3.325301E-05 -1.707947E-04 +5.440449E-07 -1.707947E-04 +2.851023E-04 
 +4.868969E-03 -7.155867E-05 +5.946259E-05 -7.155867E-05 +1.047155E-04 -1.639142E-04 +5.946259E-05 -1.639142E-04 +1.600852E-04 
 +4.899573E-03 -8.117870E-06 +5.933199E-05 -8.117870E-06 +2.969703E-04 -6.859322E-05 +5.933199E-05 -6.859322E-05 +3.218494E-05 
 +4.914693E-03 -1.146884E-04 +7.472063E-06 -1.146884E-04 +2.468718E-04 -5.363953E-05 +7.472063E-06 -5.363953E-05 +1.041771E-04 
 +4.969245E-03 -1.083678E-04 -1.251596E-04 -1.083678E-04 +4.066894E-05 +4.564763E-05 -1.251596E-04 +4.564763E-05 +1.921496E-04 
 +5.062789E-03 -5.110366E-05 -1.272984E-04 -5.110366E-05 -6.625358E-05 +1.176678E-04 -1.272984E-04 +1.176678E-04 +1.041070E-04 
 +5.091842E-03 -2.756485E-05 -6.306889E-05 -2.756485E-05 -4.756267E-05 +1.791442E-04 -6.306889E-05 +1.791442E-04 +1.737747E-05 
 +5.080142E-03 +4.141070E-05 +9.798386E-06 +4.141070E-05 +1.097104E-05 +2.431336E-04 +9.798386E-06 +2.431336E-04 -1.557027E-05 
 +5.128397E-03 +1.148761E-04 +6.899388E-05 +1.148761E-04 -1.068760E-05 +2.028407E-04 +6.899388E-05 +2.028407E-04 -9.414305E-05 
 +5.194206E-03 +1.050970E-04 +1.234857E-05 +1.050970E-04 -5.645998E-05 +2.083547E-04 +1.234857E-05 +2.083547E-04 -1.317948E-04 
 +5.111094E-03 +1.329772E-04 +1.068560E-04 +1.329772E-04 +2.873675E-05 +2.168765E-04 +1.068560E-04 +2.168765E-04 -7.213137E-05 
 +4.986871E-03 +5.752181E-05 +1.890347E-04 +5.752181E-05 +5.668595E-05 +1.250785E-04 +1.890347E-04 +1.250785E-04 +4.406055E-05 
 +4.933781E-03 -8.417860E-05 -2.698432E-05 -8.417860E-05 -9.309713E-05 +1.870325E-05 -2.698432E-05 +1.870325E-05 +1.495326E-04 
 +4.808689E-03 -5.293238E-05 -4.530837E-05 -5.293238E-05 -1.403897E-04 -2.614342E-05 -4.530837E-05 -2.614342E-05 +2.004782E-04 
 +4.821792E-03 +4.352382E-05 -1.430144E-05 +4.352382E-05 -8.211266E-06 -1.269961E-04 -1.430144E-05 -1.269961E-04 +8.360153E-05 
 +4.918296E-03 +8.908657E-05 -5.008119E-05 +8.908657E-05 -2.169629E-05 -9.258853E-05 -5.008119E-05 -9.258853E-05 +1.681796E-05 
 +4.975830E-03 +9.545535E-05 -9.969851E-05 +9.545535E-05 -1.056929E-04 +1.225218E-04 -9.969851E-05 +1.225218E-04 +1.526789E-04 
 +4.964096E-03 +1.038549E-04 -1.472111E-05 +1.038549E-04 -1.844715E-04 +1.649532E-04 -1.472111E-05 +1.649532E-04 +2.802619E-04 
 +4.961359E-03 +3.709284E-05 +4.655479E-05 +3.709284E-05 -2.735135E-04 +6.037436E-05 +4.655479E-05 +6.037436E-05 +3.397612E-04 
 +4.976944E-03 -1.740789E-05 +9.155777E-05 -1.740789E-05 -2.965579E-04 +2.298052E-05 +9.155777E-05 +2.298052E-05 +3.637447E-04 
 +4.966679E-03 -1.067802E-04 +1.143213E-04 -1.067802E-04 -2.573266E-04 +7.236273E-05 +1.143213E-04 +7.236273E-05 +3.315723E-04 
 +4.898093E-03 -1.537521E-04 +1.981847E-05 -1.537521E-04 -3.057872E-05 +1.218155E-04 +1.981847E-05 +1.218155E-04 +2.506749E-04 
 +4.860663E-03 +2.888391E-06 +6.605249E-05 +2.888391E-06 +1.624061E-04 +1.573288E-04 +6.605249E-05 +1.573288E-04 +9.399445E-05 
 +4.905905E-03 +2.874260E-05 -1.059065E-05 +2.874260E-05 +4.641590E-05 +1.944855E-04 -1.059065E-05 +1.944855E-04 +1.064899E-04 
 +4.951588E-03 -8.712042E-05 -5.307312E-05 -8.712042E-05 -3.663131E-05 +2.565938E-04 -5.307312E-05 +2.565938E-04 +1.978480E-04 
 +5.009895E-03 -9.427109E-05 -7.949201E-05 -9.427109E-05 -2.700696E-07 +2.886387E-04 -7.949201E-05 +2.886387E-04 +1.387081E-04 
 +5.067381E-03 -5.266216E-05 -8.849765E-05 -5.266216E-05 -4.717124E-05 +2.150428E-04 -8.849765E-05 +2.150428E-04 +4.062467E-05 
 +5.108762E-03 +2.195988E-06 -3.092702E-05 +2.195988E-06 -8.252362E-05 +1.773844E-04 -3.092702E-05 +1.773844E-04 -2.116669E-05 
 +5.137293E-03 +4.144762E-05 -7.998272E-07 +4.144762E-05 -7.721028E-05 +1.957631E-04 -7.998272E-07 +1.957631E-04 -6.582957E-05 
 +5.179039E-03 +8.029742E-05 +3.437940E-05 +8.029742E-05 -8.044999E-05 +1.968534E-04 +3.437940E-05 +1.968534E-04 -1.008179E-04 
 +5.206567E-03 +1.026990E-04 +7.767548E-05 +1.026990E-04 -7.347091E-05 +2.329833E-04 +7.767548E-05 +2.329833E-04 -1.294632E-04 
 +5.194168E-03 +1.207318E-04 +7.961106E-05 +1.207318E-04 -1.735009E-05 +2.716093E-04 +7.961106E-05 +2.716093E-04 -4.210710E-05 
 +5.090386E-03 -7.767761E-06 +9.650652E-05 -7.767761E-06 +3.382293E-05 +2.250629E-04 +9.650652E-05 +2.250629E-04 +9.831083E-05 
 +4.749900E-03 -2.701761E-04 -4.904771E-05 -2.701761E-04 +8.561231E-05 +1.647022E-04 -4.904771E-05 +1.647022E-04 +2.218770E-04 
 +4.596054E-03 -1.978435E-04 -4.801070E-05 -1.978435E-04 +1.786840E-04 +1.599759E-04 -4.801070E-05 +1.599759E-04 +2.668508E-04 
 +4.628765E-03 -1.347887E-04 -8.182222E-05 -1.347887E-04 +2.226228E-04 +1.453537E-04 -8.182222E-05 +1.453537E-04 +1.558348E-04 
 +4.706424E-03 -1.535457E-04 -4.041983E-05 -1.535457E-04 +7.338575E-05 +1.255007E-04 -4.041983E-05 +1.255007E-04 +6.859056E-05 
 +5.044078E-03 -3.534433E-05 +1.946367E-05 -3.534433E-05 -2.032457E-04 +7.388114E-05 +1.946367E-05 +7.388114E-05 +1.114968E-04 
 +5.090475E-03 +4.609272E-05 +1.605243E-05 +4.609272E-05 -3.985090E-04 -6.996516E-06 +1.605243E-05 -6.996516E-06 +2.318355E-04 
 +5.033668E-03 +6.682881E-06 +3.681600E-05 +6.682881E-06 -4.523481E-04 -7.413588E-05 +3.681600E-05 -7.413588E-05 +3.310711E-04 
 +5.029254E-03 -3.596121E-05 +7.117054E-05 -3.596121E-05 -4.356786E-04 -6.796646E-05 +7.117054E-05 -6.796646E-05 +3.128469E-04 
 +5.025700E-03 -5.651092E-05 +1.332283E-04 -5.651092E-05 -2.866419E-04 +1.001441E-06 +1.332283E-04 +1.001441E-06 +2.647996E-04 
 +4.928769E-03 -6.469518E-05 +7.391575E-05 -6.469518E-05 -1.321184E-04 +5.300701E-05 +7.391575E-05 +5.300701E-05 +2.781451E-04 
 +4.943890E-03 +8.682803E-06 +1.039668E-05 +8.682803E-06 -1.066231E-04 +8.116718E-05 +1.039668E-05 +8.116718E-05 +2.347950E-04 
 +4.934523E-03 -9.790514E-06 -3.090488E-05 -9.790514E-06 -8.665934E-05 +1.630513E-04 -3.090488E-05 +1.630513E-04 +2.356300E-04 
 +4.969004E-03 -7.127472E-05 -4.664605E-05 -7.127472E-05 -8.046284E-05 +2.777783E-04 -4.664605E-05 +2.777783E-04 +2.266136E-04 
 +5.041114E-03 -8.830855E-05 -3.637229E-05 -8.830855E-05 -8.738246E-05 +3.150738E-04 -3.637229E-05 +3.150738E-04 +1.156478E-04 
 +5.032068E-03 -7.210574E-05 -4.498176E-05 -7.210574E-05 -7.755432E-05 +2.493352E-04 -4.498176E-05 +2.493352E-04 +5.422689E-05 
 +5.094068E-03 -1.938922E-05 -2.927486E-05 -1.938922E-05 -1.194165E-04 +2.101696E-04 -2.927486E-05 +2.101696E-04 +2.923336E-06 
 +5.192924E-03 +2.616213E-05 -8.562127E-06 +2.616213E-05 -1.663724E-04 +2.210785E-04 -8.562127E-06 +2.210785E-04 -6.774161E-05 
 +5.206411E-03 +8.231979E-05 +3.233618E-05 +8.231979E-05 -1.395603E-04 +2.199980E-04 +3.233618E-05 +2.199980E-04 -1.070868E-04 
 +5.166146E-03 +4.248127E-05 +1.060247E-04 +4.248127E-05 -7.139103E-05 +2.688433E-04 +1.060247E-04 +2.688433E-04 -7.647158E-05 
 +5.185282E-03 -3.768180E-05 +7.915634E-05 -3.768180E-05 -2.252742E-04 +2.065882E-04 +7.915634E-05 +2.065882E-04 +1.200825E-04 
 +5.143101E-03 -1.034488E-04 +8.448659E-05 -1.034488E-04 -2.211553E-04 +1.837864E-04 +8.448659E-05 +1.837864E-04 +2.168794E-04 
 +4.566038E-03 -3.010822E-04 -2.895638E-05 -3.010822E-04 +6.046111E-05 +9.260727E-05 -2.895638E-05 +9.260727E-05 +2.571677E-04 
 +4.514802E-03 -1.388381E-04 -1.051320E-04 -1.388381E-04 +2.265168E-04 +2.679486E-05 -1.051320E-04 +2.679486E-05 +2.293587E-04 
 +4.567632E-03 -4.963569E-05 -1.602001E-04 -4.963569E-05 +1.641313E-04 -2.553215E-06 -1.602001E-04 -2.553215E-06 +1.571761E-04 
 +4.657017E-03 -5.772675E-05 -1.255436E-04 -5.772675E-05 -4.553607E-05 -5.479051E-05 -1.255436E-04 -5.479051E-05 +1.263054E-04 
 +5.009186E-03 -7.728518E-06 -1.821436E-05 -7.728518E-06 -3.035132E-04 -5.992169E-05 -1.821436E-05 -5.992169E-05 +1.489194E-04 
 +5.133669E-03 +4.087841E-05 +4.186842E-05 +4.087841E-05 -4.348266E-04 -5.397534E-05 +4.186842E-05 -5.397534E-05 +2.193783E-04 
 +5.084407E-03 -4.888306E-06 +4.688970E-05 -4.888306E-06 -4.252172E-04 -1.018131E-04 +4.688970E-05 -1.018131E-04 +2.711871E-04 
 +5.062974E-03 -5.448677E-05 +6.345437E-05 -5.448677E-05 -4.259380E-04 -1.500543E-04 +6.345437E-05 -1.500543E-04 +2.798594E-04 
 +5.080644E-03 +3.182049E-06 +1.126678E-04 +3.182049E-06 -3.870155E-04 -1.393522E-04 +1.126678E-04 -1.393522E-04 +1.997791E-04 
 +5.038710E-03 -6.314819E-06 +1.173350E-04 -6.314819E-06 -2.300518E-04 -5.964691E-05 +1.173350E-04 -5.964691E-05 +1.431668E-04 
 +5.005631E-03 +8.923423E-06 +4.273333E-05 +8.923423E-06 -1.221718E-04 +5.455764E-05 +4.273333E-05 +5.455764E-05 +1.560327E-04 
 +4.987348E-03 -3.628766E-06 +4.856071E-06 -3.628766E-06 -1.143008E-04 +1.524386E-04 +4.856071E-06 +1.524386E-04 +1.135167E-04 
 +4.995149E-03 -7.285742E-05 +7.344084E-05 -7.285742E-05 -1.309117E-04 +2.741211E-04 +7.344084E-05 +2.741211E-04 +8.443051E-05 
 +5.015140E-03 -7.083605E-05 +4.184927E-05 -7.083605E-05 -1.136154E-04 +3.678220E-04 +4.184927E-05 +3.678220E-04 +1.150099E-04 
 +5.041100E-03 -8.670841E-05 -4.658726E-05 -8.670841E-05 -8.189441E-05 +3.074341E-04 -4.658726E-05 +3.074341E-04 +5.793604E-05 
 +5.120815E-03 -1.850290E-05 -2.126955E-05 -1.850290E-05 -1.195958E-04 +2.737287E-04 -2.126955E-05 +2.737287E-04 -8.533327E-05 
 +5.164961E-03 +3.670889E-05 +1.710290E-06 +3.670889E-05 -1.727818E-04 +3.278925E-04 +1.710290E-06 +3.278925E-04 -1.753169E-04 
 +5.198420E-03 +1.041157E-04 +2.658325E-05 +1.041157E-04 -1.148349E-04 +3.414599E-04 +2.658325E-05 +3.414599E-04 -1.983138E-04 
 +5.135943E-03 -6.300174E-05 +8.145680E-05 -6.300174E-05 -3.210076E-04 +2.350329E-04 +8.145680E-05 +2.350329E-04 +1.122192E-04 
 +5.074556E-03 -1.504842E-04 +7.265969E-05 -1.504842E-04 -4.112517E-04 +1.486964E-04 +7.265969E-05 +1.486964E-04 +3.375309E-04 
 +5.059478E-03 -1.184717E-04 +6.821479E-05 -1.184717E-04 -3.726615E-04 +1.682592E-04 +6.821479E-05 +1.682592E-04 +3.765879E-04 
 +4.687886E-03 -1.809995E-04 -8.776057E-05 -1.809995E-04 -1.000944E-04 +9.750672E-05 -8.776057E-05 +9.750672E-05 +3.392502E-04 
 +4.603507E-03 -1.056837E-04 -1.836383E-04 -1.056837E-04 +1.230531E-04 -2.106070E-05 -1.836383E-04 -2.106070E-05 +2.101546E-04 
 +4.607655E-03 -2.413752E-05 -1.729550E-04 -2.413752E-05 +1.483344E-04 -7.209234E-05 -1.729550E-04 -7.209234E-05 +1.222229E-04 
 +4.651537E-03 -8.936196E-05 -1.524138E-04 -8.936196E-05 +1.892352E-04 -1.467117E-04 -1.524138E-04 -1.467117E-04 +8.684077E-05 
 +4.834175E-03 -8.343917E-05 -1.215020E-04 -8.343917E-05 +8.781047E-05 -1.673736E-04 -1.215020E-04 -1.673736E-04 +5.934542E-05 
 +5.017869E-03 -1.344101E-05 -2.996531E-05 -1.344101E-05 -2.005171E-04 -1.247902E-04 -2.996531E-05 -1.247902E-04 +1.040196E-04 
 +5.140942E-03 +7.951010E-07 +7.060200E-05 +7.951010E-07 -3.753744E-04 -1.610362E-04 +7.060200E-05 -1.610362E-04 +1.021115E-04 
 +5.122710E-03 -2.900873E-05 +7.831966E-05 -2.900873E-05 -3.456574E-04 -2.002982E-04 +7.831966E-05 -2.002982E-04 +8.842472E-05 
 +5.086987E-03 +3.569308E-05 +1.223629E-04 +3.569308E-05 -3.406599E-04 -2.095232E-04 +1.223629E-04 -2.095232E-04 +5.682435E-05 
 +5.097655E-03 +1.923478E-05 +2.209381E-04 +1.923478E-05 -3.010691E-04 -1.166541E-04 +2.209381E-04 -1.166541E-04 -4.336094E-05 
 +5.086908E-03 -4.908861E-05 +1.347162E-04 -4.908861E-05 -2.033263E-04 +8.170797E-05 +1.347162E-04 +8.170797E-05 -1.059591E-04 
 +5.117418E-03 -1.583168E-05 +2.633123E-05 -1.583168E-05 -1.453550E-04 +1.348637E-04 +2.633123E-05 +1.348637E-04 -1.164602E-04 
 +5.028836E-03 -5.378817E-05 +1.585841E-04 -5.378817E-05 -5.567195E-05 +5.160414E-05 +1.585841E-04 +5.160414E-05 -3.565372E-05 
 +4.986700E-03 -5.981896E-05 +1.328636E-04 -5.981896E-05 -4.150761E-05 +1.327731E-04 +1.328636E-04 +1.327731E-04 +5.120471E-05 
 +5.109633E-03 -4.183492E-05 +1.053410E-06 -4.183492E-05 -1.094846E-04 +3.079724E-04 +1.053410E-06 +3.079724E-04 +1.583968E-05 
 +5.112840E-03 -5.399128E-06 -3.515146E-05 -5.399128E-06 -9.772661E-05 +2.404201E-04 -3.515146E-05 +2.404201E-04 -9.447020E-05 
 +5.054710E-03 +1.714682E-05 +6.579646E-05 +1.714682E-05 -3.618917E-05 +1.547911E-04 +6.579646E-05 +1.547911E-04 -1.464576E-04 
 +5.120194E-03 +3.540538E-05 +9.505682E-05 +3.540538E-05 -1.230427E-04 +2.575118E-04 +9.505682E-05 +2.575118E-04 -1.114683E-04 
 +5.109106E-03 -1.073073E-04 +7.852658E-05 -1.073073E-04 -2.429988E-04 +7.695138E-05 +7.852658E-05 +7.695138E-05 +1.913260E-04 
 +4.946335E-03 -1.292427E-04 +4.628859E-05 -1.292427E-04 -3.349596E-04 +9.701356E-05 +4.628859E-05 +9.701356E-05 +3.669394E-04 
 +4.938208E-03 -6.192039E-05 -2.505739E-05 -6.192039E-05 -3.906198E-04 +4.578090E-05 -2.505739E-05 +4.578090E-05 +3.444900E-04 
 +4.903051E-03 +5.967405E-05 -1.444286E-04 +5.967405E-05 -2.875967E-04 -1.622389E-05 -1.444286E-04 -1.622389E-05 +2.561191E-04 
 +4.663290E-03 -7.015922E-05 -1.845258E-04 -7.015922E-05 -3.586396E-05 -7.813591E-05 -1.845258E-04 -7.813591E-05 +1.897079E-04 
 +4.614552E-03 -4.683317E-05 -1.865596E-04 -4.683317E-05 +1.217708E-04 -8.011416E-05 -1.865596E-04 -8.011416E-05 +1.430793E-04 
 +4.665133E-03 -1.130652E-04 -1.841409E-04 -1.130652E-04 +2.234704E-04 -8.999313E-05 -1.841409E-04 -8.999313E-05 +8.834877E-05 
 +4.728919E-03 -1.618530E-04 -1.946801E-04 -1.618530E-04 +2.695093E-04 -1.744576E-04 -1.946801E-04 -1.744576E-04 +1.808991E-05 
 +4.949990E-03 -7.414796E-05 -9.651051E-05 -7.414796E-05 +2.367969E-04 -1.395500E-04 -9.651051E-05 -1.395500E-04 -5.479895E-05 
 +5.220669E-03 +8.558001E-05 +6.687991E-05 +8.558001E-05 +1.366291E-04 -2.487703E-05 +6.687991E-05 -2.487703E-05 -1.728291E-04 
 +5.193689E-03 +1.178077E-04 +1.068673E-04 +1.178077E-04 +1.068393E-04 -1.565659E-05 +1.068673E-04 -1.565659E-05 -2.252231E-04 
 +5.080129E-03 +1.660516E-04 +1.783448E-04 +1.660516E-04 +1.991706E-04 -2.150842E-05 +1.783448E-04 -2.150842E-05 -1.591771E-04 
 +5.055615E-03 +1.596377E-04 +2.144348E-04 +1.596377E-04 +2.077638E-04 -1.846815E-05 +2.144348E-04 -1.846815E-05 -2.071147E-04 
 +5.156389E-03 +3.573291E-05 +1.184568E-04 +3.573291E-05 +1.039425E-04 -8.052652E-05 +1.184568E-04 -8.052652E-05 -4.039056E-04 
 +5.219053E-03 -4.730243E-06 +6.806929E-05 -4.730243E-06 -1.462180E-06 -9.562367E-05 +6.806929E-05 -9.562367E-05 -4.624530E-04 
 +5.121777E-03 +1.886153E-06 +1.221883E-04 +1.886153E-06 -4.056280E-05 -5.218913E-05 +1.221883E-04 -5.218913E-05 -2.590041E-04 
 +5.045745E-03 -8.880561E-06 +1.604996E-04 -8.880561E-06 -1.395902E-05 +2.555241E-07 +1.604996E-04 +2.555241E-07 -8.079496E-05 
 +5.059563E-03 -2.735603E-05 +3.108255E-05 -2.735603E-05 +1.612742E-05 -1.532166E-05 +3.108255E-05 -1.532166E-05 -3.449623E-05 
 +4.976512E-03 -5.290754E-05 -6.340844E-05 -5.290754E-05 +4.149144E-05 -7.984960E-05 -6.340844E-05 -7.984960E-05 -8.428418E-05 
 +4.986818E-03 -4.824260E-05 +1.806170E-04 -4.824260E-05 +2.713598E-05 -3.365786E-05 +1.806170E-04 -3.365786E-05 -9.960453E-05 
 +5.103624E-03 -5.895556E-05 +1.700055E-04 -5.895556E-05 -7.696464E-05 +3.069003E-05 +1.700055E-04 +3.069003E-05 -9.208473E-07 
 +5.004667E-03 -1.457280E-04 +6.245517E-05 -1.457280E-04 +5.562175E-05 -1.189009E-04 +6.245517E-05 -1.189009E-04 -3.504908E-05 
 +4.872741E-03 -1.705498E-04 -2.592021E-05 -1.705498E-04 +1.663100E-04 -7.800552E-05 -2.592021E-05 -7.800552E-05 +4.203961E-05 
 +4.876607E-03 -1.289976E-04 -1.118922E-04 -1.289976E-04 +1.286442E-04 -1.373730E-04 -1.118922E-04 -1.373730E-04 +2.942591E-05 
 +4.929236E-03 +1.612309E-05 -1.495178E-04 +1.612309E-05 -1.100093E-05 -9.024615E-05 -1.495178E-04 -9.024615E-05 +5.009330E-05 
 +4.654385E-03 -1.336898E-04 -7.919681E-05 -1.336898E-04 -4.666270E-05 -3.292328E-05 -7.919681E-05 -3.292328E-05 +1.476376E-04 
 +4.691110E-03 -8.164076E-05 -1.459105E-04 -8.164076E-05 +5.114520E-05 -7.863851E-05 -1.459105E-04 -7.863851E-05 +1.975436E-04 
 +4.782539E-03 -8.806441E-05 -1.389431E-04 -8.806441E-05 +1.293475E-04 -1.147324E-04 -1.389431E-04 -1.147324E-04 +2.001474E-04 
 +4.807915E-03 -5.949730E-05 -1.008803E-04 -5.949730E-05 +1.626119E-04 -8.572400E-05 -1.008803E-04 -8.572400E-05 +1.284016E-04 
 +5.048002E-03 +1.334480E-04 -1.848306E-05 +1.334480E-04 +1.933402E-04 +1.633504E-05 -1.848306E-05 +1.633504E-05 -3.441284E-05 
 +5.174761E-03 +1.932683E-04 +3.204542E-05 +1.932683E-04 +1.922818E-04 +6.882075E-05 +3.204542E-05 +6.882075E-05 -1.902955E-04 
 +5.162779E-03 +1.764433E-04 +4.206344E-05 +1.764433E-04 +1.503663E-04 +2.152575E-05 +4.206344E-05 +2.152575E-05 -2.298710E-04 
 +5.089152E-03 +2.162155E-04 +1.130532E-04 +2.162155E-04 +1.785739E-04 -1.269185E-04 +1.130532E-04 -1.269185E-04 -1.966594E-04 
 +5.079294E-03 +1.440960E-04 +5.858480E-05 +1.440960E-04 +1.829042E-04 -3.130925E-04 +5.858480E-05 -3.130925E-04 -2.438195E-04 
 +5.164166E-03 +5.715581E-05 +1.176658E-05 +5.715581E-05 +1.197664E-04 -3.260804E-04 +1.176658E-05 -3.260804E-04 -3.641849E-04 
 +5.234227E-03 +3.295416E-05 +5.920508E-05 +3.295416E-05 +9.157629E-05 -2.605813E-04 +5.920508E-05 -2.605813E-04 -4.533695E-04 
 +5.213268E-03 +2.073628E-05 +8.978974E-05 +2.073628E-05 +7.167030E-05 -1.795776E-04 +8.978974E-05 -1.795776E-04 -3.310969E-04 
 +5.030176E-03 -4.866262E-05 +1.187854E-04 -4.866262E-05 +8.459478E-05 -3.023227E-05 +1.187854E-04 -3.023227E-05 -9.030541E-05 
 +4.925434E-03 -9.252656E-05 -9.241403E-05 -9.252656E-05 +1.570046E-04 +2.953726E-05 -9.241403E-05 +2.953726E-05 -3.823266E-05 
 +4.886272E-03 -9.286523E-05 -7.305026E-05 -9.286523E-05 +1.584352E-04 +2.335959E-05 -7.305026E-05 +2.335959E-05 -1.412690E-04 
 +4.989577E-03 -7.843506E-05 +1.786850E-04 -7.843506E-05 +2.098023E-05 -6.350737E-05 +1.786850E-04 -6.350737E-05 -1.683332E-04 
 +5.121967E-03 -7.696506E-05 +1.106333E-04 -7.696506E-05 -6.064119E-05 -1.734540E-04 +1.106333E-04 -1.734540E-04 -1.025888E-04 
 +4.963813E-03 -1.364172E-04 -1.713027E-05 -1.364172E-04 +2.040209E-04 -3.254663E-05 -1.713027E-05 -3.254663E-05 -1.409282E-04 
 +4.846227E-03 -1.513236E-04 -6.804947E-05 -1.513236E-04 +2.922756E-04 -1.039674E-04 -6.804947E-05 -1.039674E-04 -1.274322E-04 
 +4.816617E-03 -1.576237E-04 -6.076693E-05 -1.576237E-04 +3.483732E-04 -1.092249E-04 -6.076693E-05 -1.092249E-04 -1.167560E-04 
 +4.816608E-03 -1.251620E-04 -3.599448E-05 -1.251620E-04 +2.127148E-04 -4.088364E-05 -3.599448E-05 -4.088364E-05 -5.908405E-05 
 +4.791158E-03 -8.432182E-05 +7.732528E-06 -8.432182E-05 +1.379769E-05 -1.215977E-04 +7.732528E-06 -1.215977E-04 +4.350975E-05 
 +4.913028E-03 +7.572817E-05 -2.429226E-05 +7.572817E-05 -4.104734E-05 -2.280643E-04 -2.429226E-05 -2.280643E-04 +1.113217E-04 
 +4.964310E-03 +1.193043E-04 -3.639170E-05 +1.193043E-04 -8.456371E-06 -9.280115E-05 -3.639170E-05 -9.280115E-05 +1.325726E-04 
 +4.975155E-03 +1.098066E-04 -1.655944E-05 +1.098066E-04 +1.055547E-04 +1.206533E-05 -1.655944E-05 +1.206533E-05 +9.417997E-05 
 +5.035881E-03 +1.565989E-04 +3.495310E-05 +1.565989E-04 +1.694593E-04 +1.734589E-05 +3.495310E-05 +1.734589E-05 +4.764768E-07 
 +5.059225E-03 +1.504033E-04 +4.963018E-06 +1.504033E-04 +1.524004E-04 +1.082071E-05 +4.963018E-06 +1.082071E-05 -7.648074E-05 
 +5.082910E-03 +1.849520E-04 -2.881920E-05 +1.849520E-04 +1.178062E-04 -2.814759E-06 -2.881920E-05 -2.814759E-06 -8.872733E-05 
 +5.084405E-03 +2.781275E-04 -1.412365E-05 +2.781275E-04 +9.664230E-05 -7.543253E-05 -1.412365E-05 -7.543253E-05 -1.481755E-04 
 +5.158450E-03 +1.641494E-04 -8.645442E-05 +1.641494E-04 +1.026955E-04 -1.866376E-04 -8.645442E-05 -1.866376E-04 -2.709691E-04 
 +5.175530E-03 +7.495808E-05 -9.045285E-05 +7.495808E-05 +1.095620E-04 -2.125475E-04 -9.045285E-05 -2.125475E-04 -2.802625E-04 
 +5.211605E-03 +4.738425E-05 -2.118834E-05 +4.738425E-05 +1.184014E-04 -1.842088E-04 -2.118834E-05 -1.842088E-04 -3.035280E-04 
 +5.227171E-03 +1.771410E-05 +7.515574E-05 +1.771410E-05 +1.471285E-04 -6.348480E-05 +7.515574E-05 -6.348480E-05 -2.417837E-04 
 +4.901402E-03 -3.506804E-05 +5.491750E-05 -3.506804E-05 +1.940479E-04 +6.133380E-05 +5.491750E-05 +6.133380E-05 -1.699971E-05 
 +4.832821E-03 -1.123821E-04 -1.517062E-04 -1.123821E-04 +1.793388E-04 +7.399610E-05 -1.517062E-04 +7.399610E-05 +3.307364E-05 
 +4.895370E-03 -1.347246E-04 -9.002087E-05 -1.347246E-04 +1.308241E-04 +9.933602E-05 -9.002087E-05 +9.933602E-05 -2.229060E-05 
 +4.961359E-03 -1.587060E-04 +1.359861E-05 -1.587060E-04 +1.396638E-04 +7.063851E-05 +1.359861E-05 +7.063851E-05 -5.724455E-05 
 +5.025276E-03 -1.635600E-04 +2.717395E-05 -1.635600E-04 +1.586609E-04 +2.604811E-05 +2.717395E-05 +2.604811E-05 -1.088615E-04 
 +4.960918E-03 -4.678246E-05 -6.854486E-05 -4.678246E-05 +2.633222E-04 +5.787155E-05 -6.854486E-05 +5.787155E-05 -5.844688E-05 
 +4.840465E-03 -7.983679E-05 -4.572892E-05 -7.983679E-05 +3.119906E-04 -2.097546E-05 -4.572892E-05 -2.097546E-05 -9.316606E-05 
 +4.790349E-03 -9.677622E-05 +4.065795E-05 -9.677622E-05 +3.266138E-04 -5.594669E-05 +4.065795E-05 -5.594669E-05 -1.119848E-04 
 +4.827171E-03 -9.864696E-05 +7.424580E-05 -9.864696E-05 +2.043346E-04 -1.218885E-04 +7.424580E-05 -1.218885E-04 -1.166684E-04 
 +4.948922E-03 +4.210705E-05 +3.779389E-05 +4.210705E-05 +9.073586E-05 -2.648696E-04 +3.779389E-05 -2.648696E-04 -3.941092E-05 
 +5.046488E-03 +7.982626E-05 +4.073354E-05 +7.982626E-05 +3.130130E-05 -3.239018E-04 +4.073354E-05 -3.239018E-04 +3.393377E-05 
 +5.075962E-03 +6.966029E-05 -6.213662E-06 +6.966029E-05 +6.376507E-06 -2.311805E-04 -6.213662E-06 -2.311805E-04 +3.888343E-05 
 +5.041321E-03 +4.870417E-05 +1.829696E-05 +4.870417E-05 +8.669822E-05 -5.663906E-05 +1.829696E-05 -5.663906E-05 +2.206259E-05 
 +4.993281E-03 +8.128432E-05 +3.307534E-05 +8.128432E-05 +1.526391E-04 +6.192717E-05 +3.307534E-05 +6.192717E-05 -2.133771E-05 
 +5.023941E-03 +1.228780E-04 -2.075329E-06 +1.228780E-04 +1.367711E-04 +6.668098E-05 -2.075329E-06 +6.668098E-05 -6.019510E-05 
 +5.038108E-03 +1.540670E-04 -4.421863E-05 +1.540670E-04 +9.134084E-05 +6.423813E-05 -4.421863E-05 +6.423813E-05 -5.946816E-05 
 +5.061224E-03 +2.646673E-04 -1.133603E-04 +2.646673E-04 +5.465388E-05 -2.717311E-05 -1.133603E-04 -2.717311E-05 -1.252151E-04 
 +5.194614E-03 +1.220927E-04 -1.761707E-04 +1.220927E-04 +3.290696E-05 -1.741484E-04 -1.761707E-04 -1.741484E-04 -2.869674E-04 
 +5.199195E-03 +3.606012E-05 -1.462578E-04 +3.606012E-05 +3.002242E-05 -1.911284E-04 -1.462578E-04 -1.911284E-04 -3.315209E-04 
 +5.183815E-03 +2.940925E-05 -6.144308E-05 +2.940925E-05 +4.873433E-05 -1.521740E-04 -6.144308E-05 -1.521740E-04 -3.210087E-04 
 +5.172685E-03 -4.149398E-06 +4.774506E-05 -4.149398E-06 +7.820861E-05 -6.564487E-05 +4.774506E-05 -6.564487E-05 -2.243442E-04 
 +4.832865E-03 -5.178469E-05 -2.863107E-05 -5.178469E-05 +1.209996E-04 +5.305084E-05 -2.863107E-05 +5.305084E-05 -1.067894E-05 
 +4.797593E-03 -1.050570E-04 -1.554268E-04 -1.050570E-04 +1.428673E-04 +1.002981E-04 -1.554268E-04 +1.002981E-04 +7.093846E-05 
 +4.866172E-03 -9.144636E-05 -1.301446E-04 -9.144636E-05 +1.757124E-04 +1.477070E-04 -1.301446E-04 +1.477070E-04 +5.918455E-05 
 +4.899155E-03 -1.219978E-04 -1.401769E-04 -1.219978E-04 +2.238557E-04 +2.036920E-04 -1.401769E-04 +2.036920E-04 +3.026652E-05 
 +4.944002E-03 -9.695172E-05 -7.960699E-05 -9.695172E-05 +2.437886E-04 +1.715719E-04 -7.960699E-05 +1.715719E-04 -9.040553E-06 
 +4.931872E-03 -4.327956E-05 -5.225576E-05 -4.327956E-05 +3.553971E-04 +1.132577E-04 -5.225576E-05 +1.132577E-04 -3.692594E-05 
 +4.871893E-03 -2.404832E-05 -2.499967E-05 -2.404832E-05 +3.302265E-04 -2.447452E-05 -2.499967E-05 -2.447452E-05 -7.724655E-05 
 +4.835890E-03 -7.922714E-05 +3.960214E-05 -7.922714E-05 +2.556983E-04 -9.226867E-05 +3.960214E-05 -9.226867E-05 -3.982772E-05 
 +4.905291E-03 -1.079235E-04 +7.563683E-05 -1.079235E-04 +1.782607E-04 -1.633274E-04 +7.563683E-05 -1.633274E-04 -3.407067E-05 
 +4.968350E-03 +2.678174E-05 +7.608220E-05 +2.678174E-05 +1.436044E-04 -2.947166E-04 +7.608220E-05 -2.947166E-04 -3.965365E-05 
 +5.069087E-03 +3.690420E-05 +7.918430E-05 +3.690420E-05 +6.440508E-05 -3.141938E-04 +7.918430E-05 -3.141938E-04 -9.379793E-06 
 +5.084500E-03 +8.782571E-05 +4.136018E-05 +8.782571E-05 +6.624453E-06 -1.689347E-04 +4.136018E-05 -1.689347E-04 +6.508244E-05 
 +5.067901E-03 +8.689615E-05 +1.073389E-04 +8.689615E-05 +4.543293E-05 +9.564749E-06 +1.073389E-04 +9.564749E-06 +8.021065E-05 
 +5.028369E-03 +3.707363E-05 +6.894986E-05 +3.707363E-05 +9.166279E-05 +7.578683E-05 +6.894986E-05 +7.578683E-05 -8.779127E-07 
 +5.033543E-03 +6.280425E-05 +1.131333E-05 +6.280425E-05 +9.239558E-05 +7.634299E-05 +1.131333E-05 +7.634299E-05 -7.265790E-05 
 +5.051439E-03 +1.486015E-04 -3.461763E-05 +1.486015E-04 +1.106716E-04 +7.953569E-05 -3.461763E-05 +7.953569E-05 -9.755392E-05 
 +5.037980E-03 +2.246341E-04 -1.777407E-04 +2.246341E-04 +5.243997E-06 +9.764673E-05 -1.777407E-04 +9.764673E-05 -1.029458E-04 
 +5.180991E-03 +7.528498E-05 -1.844345E-04 +7.528498E-05 -2.705507E-04 +1.880902E-04 -1.844345E-04 +1.880902E-04 -1.034453E-04 
 +5.203658E-03 +4.118514E-05 -1.207033E-04 +4.118514E-05 -4.266228E-04 +2.502633E-04 -1.207033E-04 +2.502633E-04 -7.066415E-05 
 +5.175190E-03 +4.568154E-05 -3.890287E-05 +4.568154E-05 -3.844797E-04 +2.470160E-04 -3.890287E-05 +2.470160E-04 -4.931376E-05 
 +5.092475E-03 +7.516821E-05 +2.491356E-05 +7.516821E-05 -1.947501E-04 +2.335233E-04 +2.491356E-05 +2.335233E-04 -2.458493E-05 
 +4.776914E-03 -1.520235E-05 -5.846191E-05 -1.520235E-05 +1.297456E-05 +1.598085E-04 -5.846191E-05 +1.598085E-04 +3.931470E-05 
 +4.810782E-03 -1.263400E-04 -1.500124E-04 -1.263400E-04 +1.334663E-04 +1.235506E-04 -1.500124E-04 +1.235506E-04 +8.713797E-05 
 +4.832787E-03 -9.534355E-05 -1.817784E-04 -9.534355E-05 +1.996147E-04 +1.591562E-04 -1.817784E-04 +1.591562E-04 +5.853019E-05 
 +4.875870E-03 -9.530971E-05 -2.044519E-04 -9.530971E-05 +2.536130E-04 +2.052156E-04 -2.044519E-04 +2.052156E-04 +1.172331E-05 
 +4.903354E-03 -7.664142E-05 -1.730748E-04 -7.664142E-05 +3.345887E-04 +2.202051E-04 -1.730748E-04 +2.202051E-04 +2.042734E-05 
 +4.970607E-03 +2.389082E-05 -6.480490E-05 +2.389082E-05 +2.918163E-04 +5.159790E-05 -6.480490E-05 +5.159790E-05 -1.166746E-05 
 +4.902678E-03 +2.355688E-05 -3.384650E-05 +2.355688E-05 +3.050068E-04 -3.159676E-05 -3.384650E-05 -3.159676E-05 -1.524815E-05 
 +4.863933E-03 -1.192626E-04 +1.102474E-05 -1.192626E-04 +2.157237E-04 -3.454923E-05 +1.102474E-05 -3.454923E-05 +8.615126E-05 
 +4.857387E-03 -1.292343E-04 +8.053879E-05 -1.292343E-04 +1.628756E-04 -9.851944E-05 +8.053879E-05 -9.851944E-05 +1.403685E-04 
 +5.069546E-03 -1.407836E-05 +1.144281E-04 -1.407836E-05 +1.361509E-04 -2.284459E-04 +1.144281E-04 -2.284459E-04 +4.874792E-05 
 +5.116759E-03 +4.072278E-05 +1.175474E-04 +4.072278E-05 +6.480547E-05 -2.240027E-04 +1.175474E-04 -2.240027E-04 +7.750146E-06 
 +5.053128E-03 +1.083233E-04 +8.941662E-05 +1.083233E-04 +1.384319E-05 -1.063256E-04 +8.941662E-05 -1.063256E-04 +7.725012E-05 
 +5.041066E-03 +1.329392E-04 +1.203776E-04 +1.329392E-04 +1.933493E-05 +1.967897E-05 +1.203776E-04 +1.967897E-05 +9.461569E-05 
 +5.034303E-03 +4.771028E-05 +1.163978E-04 +4.771028E-05 +5.585942E-05 +1.011170E-04 +1.163978E-04 +1.011170E-04 +3.043857E-05 
 +5.051723E-03 +6.293524E-05 +3.371586E-05 +6.293524E-05 +7.989405E-05 +1.623935E-04 +3.371586E-05 +1.623935E-04 -7.599724E-05 
 +5.124596E-03 +1.535170E-04 -3.415911E-05 +1.535170E-04 +1.166174E-04 +1.844180E-04 -3.415911E-05 +1.844180E-04 -1.728750E-04 
 +5.108286E-03 +1.362840E-04 -1.205021E-04 +1.362840E-04 +3.338281E-05 +2.245071E-04 -1.205021E-04 +2.245071E-04 -1.367146E-04 
 +5.116377E-03 -4.554476E-06 -1.719399E-04 -4.554476E-06 -1.721730E-04 +2.855268E-04 -1.719399E-04 +2.855268E-04 -1.867279E-05 
 +5.094906E-03 +6.265540E-06 -1.368145E-04 +6.265540E-06 -3.172059E-04 +2.928478E-04 -1.368145E-04 +2.928478E-04 +4.694198E-05 
 +5.082408E-03 -1.610042E-06 -5.048378E-05 -1.610042E-06 -3.273280E-04 +2.994248E-04 -5.048378E-05 +2.994248E-04 +1.217792E-04 
 +4.978897E-03 +2.922987E-05 +3.239377E-06 +2.922987E-05 -2.021150E-04 +2.974781E-04 +3.239377E-06 +2.974781E-04 +1.805098E-04 
 +4.782726E-03 -6.460559E-05 -8.584243E-05 -6.460559E-05 -5.391924E-07 +1.734001E-04 -8.584243E-05 +1.734001E-04 +1.669167E-04 
 +4.846317E-03 -1.487040E-04 -1.685479E-04 -1.487040E-04 +1.298797E-04 +8.637786E-05 -1.685479E-04 +8.637786E-05 +1.565291E-04 
 +4.847081E-03 -1.081604E-04 -2.047032E-04 -1.081604E-04 +1.960225E-04 +1.349923E-04 -2.047032E-04 +1.349923E-04 +1.109716E-04 
 +4.875192E-03 -1.089591E-04 -2.152870E-04 -1.089591E-04 +2.442508E-04 +1.588988E-04 -2.152870E-04 +1.588988E-04 +2.617168E-05 
 +4.920263E-03 -4.542656E-05 -1.668616E-04 -4.542656E-05 +2.527845E-04 +1.345457E-04 -1.668616E-04 +1.345457E-04 +8.124990E-06 
 +4.971658E-03 -1.458826E-05 -3.739584E-05 -1.458826E-05 +2.319257E-04 +1.185147E-04 -3.739584E-05 +1.185147E-04 +1.564955E-05 
 +5.019741E-03 -2.172275E-05 -2.915804E-05 -2.172275E-05 +2.989796E-04 +1.306070E-04 -2.915804E-05 +1.306070E-04 +4.329223E-05 
 +4.914650E-03 -1.274181E-04 -6.118831E-05 -1.274181E-04 +3.090592E-04 +7.836427E-05 -6.118831E-05 +7.836427E-05 +8.441078E-05 
 +4.765528E-03 -3.457443E-05 +7.462856E-05 -3.457443E-05 +3.034703E-04 -5.843487E-05 +7.462856E-05 -5.843487E-05 +1.466858E-04 
 +5.112299E-03 -9.238842E-05 +1.859410E-04 -9.238842E-05 +1.844968E-04 -1.460522E-04 +1.859410E-04 -1.460522E-04 +1.391288E-04 
 +5.115317E-03 -5.480571E-05 +1.367230E-04 -5.480571E-05 +7.914238E-05 -1.666330E-04 +1.367230E-04 -1.666330E-04 +9.061404E-05 
 +5.060867E-03 +3.188760E-06 +1.200920E-04 +3.188760E-06 +9.826301E-05 -8.599111E-05 +1.200920E-04 -8.599111E-05 +5.231714E-05 
 +5.038410E-03 +1.059116E-04 +7.848685E-05 +1.059116E-04 +7.599415E-05 +3.717947E-05 +7.848685E-05 +3.717947E-05 -2.587002E-06 
 +5.045369E-03 +3.777548E-05 -1.775784E-07 +3.777548E-05 +6.234864E-05 -8.919809E-05 -1.775784E-07 -8.919809E-05 -2.523947E-05 
 +5.048464E-03 +4.569617E-05 -1.619911E-05 +4.569617E-05 +3.384370E-05 -3.161701E-04 -1.619911E-05 -3.161701E-04 -7.484012E-05 
 +5.121511E-03 +1.068201E-04 -6.148761E-05 +1.068201E-04 -8.556704E-06 -3.818202E-04 -6.148761E-05 -3.818202E-04 -1.685896E-04 
 +5.225872E-03 -4.188295E-05 -8.775209E-05 -4.188295E-05 -5.955648E-05 -3.649814E-04 -8.775209E-05 -3.649814E-04 -1.792605E-04 
 +5.115884E-03 -7.715918E-05 -1.477280E-04 -7.715918E-05 +6.978038E-07 -3.003563E-04 -1.477280E-04 -3.003563E-04 -1.009914E-04 
 +5.004936E-03 -3.994730E-05 -1.099420E-04 -3.994730E-05 -3.364543E-06 -1.686857E-04 -1.099420E-04 -1.686857E-04 -1.861967E-05 
 +4.839061E-03 +6.328400E-05 -1.088512E-04 +6.328400E-05 -8.648362E-05 -2.414237E-05 -1.088512E-04 -2.414237E-05 +1.341606E-04 
 +4.789077E-03 +5.618737E-05 -3.674106E-05 +5.618737E-05 -1.049950E-04 +3.011577E-05 -3.674106E-05 +3.011577E-05 +2.914832E-04 
 +4.834494E-03 -3.376179E-05 -4.456587E-05 -3.376179E-05 -1.093051E-04 -8.683025E-06 -4.456587E-05 -8.683025E-06 +3.020989E-04 
 +4.860799E-03 -1.723591E-04 -1.135326E-04 -1.723591E-04 +6.729695E-05 +7.277502E-06 -1.135326E-04 +7.277502E-06 +2.003370E-04 
 +4.959783E-03 -1.787876E-04 -1.275220E-04 -1.787876E-04 +1.947319E-04 +1.193607E-04 -1.275220E-04 +1.193607E-04 +9.122736E-05 
 +4.942644E-03 -1.031957E-04 -1.832269E-04 -1.031957E-04 +2.025616E-04 +1.970981E-04 -1.832269E-04 +1.970981E-04 -2.764665E-06 
 +4.951888E-03 -6.131933E-05 -1.276742E-04 -6.131933E-05 +2.110147E-04 +1.659883E-04 -1.276742E-04 +1.659883E-04 -2.428831E-05 
 +4.997731E-03 -3.927522E-05 -3.818726E-05 -3.927522E-05 +1.074378E-04 +1.530006E-04 -3.818726E-05 +1.530006E-04 +6.007137E-05 
 +5.151769E-03 -1.625750E-07 +1.867464E-06 -1.625750E-07 -4.411163E-05 +9.430840E-05 +1.867464E-06 +9.430840E-05 +1.297009E-04 
 +4.964900E-03 -8.471403E-05 -5.823474E-05 -8.471403E-05 +1.617335E-04 +1.016493E-04 -5.823474E-05 +1.016493E-04 +1.074524E-04 
 +4.908227E-03 -3.937905E-05 +3.846706E-05 -3.937905E-05 +3.410978E-04 +3.694788E-05 +3.846706E-05 +3.694788E-05 +8.887909E-05 
 +4.982235E-03 -8.038275E-05 +1.430411E-04 -8.038275E-05 +2.236801E-04 -4.526286E-05 +1.430411E-04 -4.526286E-05 +1.276844E-04 
 +4.977652E-03 +3.210076E-05 +6.419349E-05 +3.210076E-05 +1.740372E-04 -8.672073E-05 +6.419349E-05 -8.672073E-05 +1.116989E-04 
 +5.027591E-03 -3.003823E-05 +5.657755E-05 -3.003823E-05 +1.971939E-04 -1.750157E-04 +5.657755E-05 -1.750157E-04 +3.468454E-05 
 +5.071312E-03 -9.206930E-06 -1.975645E-05 -9.206930E-06 +1.622413E-04 -2.411041E-04 -1.975645E-05 -2.411041E-04 -1.065892E-04 
 +5.109603E-03 -2.350540E-05 -6.388723E-05 -2.350540E-05 +1.301847E-04 -1.928526E-04 -6.388723E-05 -1.928526E-04 -1.967185E-04 
 +5.086678E-03 +8.064093E-06 -1.793261E-05 +8.064093E-06 +1.315734E-04 -1.442998E-04 -1.793261E-05 -1.442998E-04 -1.695179E-04 
 +5.106517E-03 +9.394362E-05 -1.357786E-04 +9.394362E-05 +4.720595E-05 -2.011218E-04 -1.357786E-04 -2.011218E-04 -1.711232E-04 
 +5.245021E-03 -2.333053E-05 -1.282028E-04 -2.333053E-05 -2.886110E-05 -2.601465E-04 -1.282028E-04 -2.601465E-04 -2.027343E-04 
 +5.183054E-03 -2.195283E-05 -9.806021E-05 -2.195283E-05 +2.034020E-05 -2.329864E-04 -9.806021E-05 -2.329864E-04 -1.473599E-04 
 +5.088184E-03 -5.019258E-05 -2.345424E-05 -5.019258E-05 +1.338934E-04 -1.371968E-04 -2.345424E-05 -1.371968E-04 -2.093330E-05 
 +4.646172E-03 +2.021502E-04 -8.391133E-05 +2.021502E-04 +2.483941E-04 +3.397508E-07 -8.391133E-05 +3.397508E-07 +1.446519E-04 
 +4.607831E-03 +1.872050E-04 -5.057229E-05 +1.872050E-04 +2.444154E-04 +8.667071E-05 -5.057229E-05 +8.667071E-05 +2.972532E-04 
 +4.752603E-03 +1.087500E-04 -5.377298E-06 +1.087500E-04 +1.408009E-04 +5.678629E-05 -5.377298E-06 +5.678629E-05 +3.533610E-04 
 +4.818233E-03 +6.050872E-05 -4.977139E-05 +6.050872E-05 +1.646089E-04 -4.920254E-05 -4.977139E-05 -4.920254E-05 +2.471943E-04 
 +5.083038E-03 -1.153133E-04 -2.548340E-05 -1.153133E-04 +2.270912E-04 -7.736272E-05 -2.548340E-05 -7.736272E-05 +5.822665E-05 
 +5.021785E-03 -7.287958E-05 -5.682788E-05 -7.287958E-05 +2.246257E-04 +5.012953E-05 -5.682788E-05 +5.012953E-05 -6.516239E-05 
 +4.908106E-03 -8.563945E-05 -7.805984E-05 -8.563945E-05 +2.359652E-04 +1.796649E-04 -7.805984E-05 +1.796649E-04 -3.835114E-05 
 +5.091810E-03 -7.842343E-06 -4.886527E-05 -7.842343E-06 -1.281421E-04 +4.599186E-05 -4.886527E-05 +4.599186E-05 +1.711266E-04 
 +5.115134E-03 +9.301459E-05 +2.961087E-05 +9.301459E-05 -1.655224E-04 +1.647683E-05 +2.961087E-05 +1.647683E-05 +1.828754E-04 
 +5.031235E-03 +1.134357E-04 +7.360805E-05 +1.134357E-04 -1.392566E-04 -1.759003E-05 +7.360805E-05 -1.759003E-05 +1.420814E-04 
 +5.065721E-03 +4.689575E-06 +6.935952E-05 +4.689575E-06 -7.365416E-05 -4.790892E-05 +6.935952E-05 -4.790892E-05 +7.392080E-05 
 +4.925865E-03 -6.706068E-05 -1.146496E-05 -6.706068E-05 +1.483920E-04 -8.379391E-05 -1.146496E-05 -8.379391E-05 +4.649206E-05 
 +4.878583E-03 +8.876648E-05 -6.040594E-05 +8.876648E-05 +2.290196E-04 -1.113067E-04 -6.040594E-05 -1.113067E-04 +5.672082E-05 
 +4.937050E-03 +1.235185E-04 -8.654590E-05 +1.235185E-04 +1.358732E-04 -1.405230E-04 -8.654590E-05 -1.405230E-04 +1.171100E-05 
 +5.013078E-03 +1.239186E-04 -9.771664E-05 +1.239186E-04 +1.161820E-04 -7.399191E-05 -9.771664E-05 -7.399191E-05 -1.324908E-04 
 +5.117601E-03 +3.054127E-05 -5.060089E-05 +3.054127E-05 +1.228185E-04 -4.091380E-05 -5.060089E-05 -4.091380E-05 -2.770389E-04 
 +5.119326E-03 -2.377624E-05 -3.794356E-05 -2.377624E-05 +1.116692E-04 -1.961307E-04 -3.794356E-05 -1.961307E-04 -2.473866E-04 
 +5.156957E-03 -1.965486E-05 -1.740442E-04 -1.965486E-05 +4.941513E-05 -2.855625E-04 -1.740442E-04 -2.855625E-04 -2.046485E-04 
 +5.204085E-03 -5.441503E-05 -1.502600E-04 -5.441503E-05 +2.772586E-05 -2.524329E-04 -1.502600E-04 -2.524329E-04 -2.324005E-04 
 +5.197400E-03 -4.555721E-05 -9.635506E-05 -4.555721E-05 +6.796547E-05 -1.947802E-04 -9.635506E-05 -1.947802E-04 -1.933937E-04 
 +5.155998E-03 -9.976958E-05 +1.822448E-06 -9.976958E-05 +1.304599E-04 -1.112362E-04 +1.822448E-06 -1.112362E-04 -9.014488E-05 
 +4.626751E-03 +1.149821E-04 -5.197006E-05 +1.149821E-04 +2.205619E-04 -2.460467E-05 -5.197006E-05 -2.460467E-05 +5.461976E-05 
 +4.607455E-03 +1.252961E-04 -1.945213E-05 +1.252961E-04 +2.286098E-04 +7.303669E-06 -1.945213E-05 +7.303669E-06 +1.724631E-04 
 +4.603949E-03 +1.432657E-04 -7.024874E-06 +1.432657E-04 +2.039823E-04 -3.918806E-05 -7.024874E-06 -3.918806E-05 +2.560330E-04 
 +4.745614E-03 +1.185568E-04 -2.901725E-05 +1.185568E-04 +1.698385E-04 -7.992534E-05 -2.901725E-05 -7.992534E-05 +2.432925E-04 
 +5.079245E-03 -1.154511E-04 +4.123056E-05 -1.154511E-04 +1.340398E-04 -2.643129E-05 +4.123056E-05 -2.643129E-05 +6.545061E-05 
 +5.061209E-03 -5.546495E-05 +2.202433E-05 -5.546495E-05 +1.852215E-04 +3.235731E-05 +2.202433E-05 +3.235731E-05 -3.301338E-05 
 +5.004096E-03 -9.049119E-05 -5.757453E-05 -9.049119E-05 +8.984982E-05 +4.194838E-05 -5.757453E-05 +4.194838E-05 +7.404109E-05 
 +5.096476E-03 -7.334036E-06 +8.225584E-06 -7.334036E-06 -2.103817E-04 +1.783192E-05 +8.225584E-06 +1.783192E-05 +2.044868E-04 
 +5.068815E-03 +1.390580E-04 +4.982934E-05 +1.390580E-04 -9.947698E-05 +1.578247E-05 +4.982934E-05 +1.578247E-05 +1.851507E-04 
 +5.094129E-03 +9.988212E-05 +9.327196E-05 +9.988212E-05 -5.569622E-05 -3.866520E-05 +9.327196E-05 -3.866520E-05 +1.696858E-04 
 +5.083189E-03 +3.121340E-05 +6.511701E-05 +3.121340E-05 -4.476583E-05 -9.869603E-05 +6.511701E-05 -9.869603E-05 +1.204283E-04 
 +4.919784E-03 +3.978358E-05 -1.611565E-04 +3.978358E-05 +5.441010E-05 -1.086303E-04 -1.611565E-04 -1.086303E-04 +5.208974E-05 
 +4.913429E-03 +2.931645E-05 -1.416238E-04 +2.931645E-05 +1.274859E-04 -1.032380E-04 -1.416238E-04 -1.032380E-04 +1.673922E-05 
 +4.921173E-03 +1.162789E-04 -1.743221E-04 +1.162789E-04 +1.348431E-04 -1.546303E-04 -1.743221E-04 -1.546303E-04 +4.282828E-06 
 +4.959108E-03 +1.619076E-04 -1.278566E-04 +1.619076E-04 +1.136642E-04 -1.774324E-04 -1.278566E-04 -1.774324E-04 -5.348149E-05 
 +4.989815E-03 +1.230219E-04 -1.144283E-04 +1.230219E-04 +8.996888E-05 -9.685860E-05 -1.144283E-04 -9.685860E-05 -1.564650E-04 
 +5.062453E-03 +1.562920E-05 -1.679328E-04 +1.562920E-05 +9.808741E-05 -1.276495E-04 -1.679328E-04 -1.276495E-04 -2.095520E-04 
 +5.161705E-03 -6.077216E-05 -1.953503E-04 -6.077216E-05 +5.215834E-05 -2.352829E-04 -1.953503E-04 -2.352829E-04 -2.252807E-04 
 +5.157823E-03 -3.378000E-05 -1.289671E-04 -3.378000E-05 +6.693995E-05 -2.125997E-04 -1.289671E-04 -2.125997E-04 -2.049904E-04 
 +5.167639E-03 -9.806780E-05 -1.133184E-04 -9.806780E-05 +9.028733E-05 -1.802559E-04 -1.133184E-04 -1.802559E-04 -2.114064E-04 
 +5.177095E-03 -6.835754E-05 -2.838212E-05 -6.835754E-05 +1.296367E-04 -1.855982E-04 -2.838212E-05 -1.855982E-04 -1.715073E-04 
 +4.652597E-03 +1.173091E-04 -4.137800E-05 +1.173091E-04 +1.876345E-04 -9.569629E-05 -4.137800E-05 -9.569629E-05 +9.102737E-06 
 +4.644818E-03 +4.682938E-05 -3.705133E-05 +4.682938E-05 +2.023423E-04 -2.340675E-05 -3.705133E-05 -2.340675E-05 +1.290372E-04 
 +4.636420E-03 +9.684140E-05 +2.143165E-05 +9.684140E-05 +2.260718E-04 -4.238113E-05 +2.143165E-05 -4.238113E-05 +1.380543E-04 
 +4.749600E-03 +1.359157E-04 +6.825967E-05 +1.359157E-04 +9.634785E-05 -4.426559E-05 +6.825967E-05 -4.426559E-05 +1.496702E-04 
 +5.045503E-03 +5.378827E-07 +3.755878E-05 +5.378827E-07 -1.175572E-04 -4.906922E-05 +3.755878E-05 -4.906922E-05 +1.194912E-04 
 +5.108092E-03 +7.211505E-05 -3.168052E-06 +7.211505E-05 -3.254433E-04 -7.574746E-05 -3.168052E-06 -7.574746E-05 +1.278469E-04 
 +5.128470E-03 -1.609565E-05 -2.458074E-05 -1.609565E-05 -3.599883E-04 -4.103985E-05 -2.458074E-05 -4.103985E-05 +1.981458E-04 
 +5.045423E-03 -3.410103E-05 +4.509011E-05 -3.410103E-05 -1.045208E-05 +1.778711E-05 +4.509011E-05 +1.778711E-05 +8.096515E-05 
 +5.069205E-03 +4.459991E-05 +4.019518E-06 +4.459991E-05 -1.081873E-05 -2.808627E-05 +4.019518E-06 -2.808627E-05 +1.402905E-04 
 +5.123308E-03 +1.771245E-05 -3.706595E-05 +1.771245E-05 -8.354140E-05 -1.119959E-04 -3.706595E-05 -1.119959E-04 +2.069938E-04 
 +5.156198E-03 +1.550319E-05 -5.494891E-05 +1.550319E-05 -4.624955E-05 -1.882430E-04 -5.494891E-05 -1.882430E-04 +1.660992E-04 
 +4.974770E-03 +8.661992E-05 -2.138143E-04 +8.661992E-05 +1.847329E-05 -1.821946E-04 -2.138143E-04 -1.821946E-04 +1.169056E-04 
 +4.916632E-03 +5.138674E-05 -1.804052E-04 +5.138674E-05 +3.447912E-05 -1.367143E-04 -1.804052E-04 -1.367143E-04 +7.008114E-05 
 +4.949460E-03 +1.393687E-04 -1.813484E-04 +1.393687E-04 +3.806093E-05 -1.190882E-04 -1.813484E-04 -1.190882E-04 +3.623446E-05 
 +4.977910E-03 +1.646475E-04 -1.347140E-04 +1.646475E-04 +5.195319E-05 -1.001399E-04 -1.347140E-04 -1.001399E-04 -1.753170E-05 
 +4.926907E-03 +1.794721E-04 -1.345453E-04 +1.794721E-04 +5.613327E-05 -9.907670E-05 -1.345453E-04 -9.907670E-05 -4.473731E-05 
 +4.925506E-03 +8.770651E-05 -2.685316E-04 +8.770651E-05 +3.356224E-05 -1.917100E-04 -2.685316E-04 -1.917100E-04 -5.723277E-05 
 +5.050982E-03 -4.106812E-05 -2.385394E-04 -4.106812E-05 +4.033383E-05 -2.746734E-04 -2.385394E-04 -2.746734E-04 -1.337761E-04 
 +5.107610E-03 +3.623609E-06 -1.259207E-04 +3.623609E-06 +9.318181E-05 -2.171348E-04 -1.259207E-04 -2.171348E-04 -1.506446E-04 
 +5.117283E-03 -1.093265E-04 -9.575628E-05 -1.093265E-04 +1.262489E-04 -1.715153E-04 -9.575628E-05 -1.715153E-04 -1.528947E-04 
 +5.138199E-03 -9.126404E-05 -5.599018E-05 -9.126404E-05 +1.111519E-04 -1.647020E-04 -5.599018E-05 -1.647020E-04 -1.226244E-04 
 +4.746170E-03 +8.354838E-05 -3.492602E-05 +8.354838E-05 +1.686829E-04 -1.356007E-04 -3.492602E-05 -1.356007E-04 +4.937668E-05 
 +4.634283E-03 +4.264539E-05 -7.673666E-05 +4.264539E-05 +1.851021E-04 -9.081330E-05 -7.673666E-05 -9.081330E-05 +1.812799E-04 
 +4.799175E-03 +3.261249E-05 +2.700563E-05 +3.261249E-05 -4.438901E-05 +2.241384E-05 +2.700563E-05 +2.241384E-05 +1.989473E-04 
 +4.898949E-03 +4.735616E-05 +6.151074E-05 +4.735616E-05 -2.925515E-04 +4.150353E-05 +6.151074E-05 +4.150353E-05 +2.170353E-04 
 +5.018594E-03 +5.884419E-06 +8.693511E-06 +5.884419E-06 -3.344337E-04 -1.169597E-05 +8.693511E-06 -1.169597E-05 +2.207796E-04 
 +5.065069E-03 -6.722605E-06 +4.124051E-05 -6.722605E-06 -3.045318E-04 +1.068609E-05 +4.124051E-05 +1.068609E-05 +2.283566E-04 
 +5.096621E-03 +9.267510E-06 +5.831664E-05 +9.267510E-06 -1.886933E-04 +2.222638E-05 +5.831664E-05 +2.222638E-05 +1.760107E-04 
 +5.056069E-03 -1.434331E-05 +6.893764E-05 -1.434331E-05 +1.843101E-05 +6.591270E-05 +6.893764E-05 +6.591270E-05 -2.836164E-05 
 +5.093150E-03 -4.470588E-05 -1.149041E-04 -4.470588E-05 -4.368410E-05 -4.343482E-05 -1.149041E-04 -4.343482E-05 +8.444110E-05 
 +5.158451E-03 -3.276949E-06 -1.488566E-04 -3.276949E-06 -2.010587E-04 -1.515014E-04 -1.488566E-04 -1.515014E-04 +1.144656E-04 
 +5.195199E-03 +4.621339E-06 -1.228289E-04 +4.621339E-06 -2.327522E-04 -2.165331E-04 -1.228289E-04 -2.165331E-04 +5.495195E-05 
 +5.143852E-03 +7.984668E-05 -1.351665E-04 +7.984668E-05 -1.732882E-04 -2.126453E-04 -1.351665E-04 -2.126453E-04 +6.634754E-05 
 +4.991691E-03 +1.117586E-04 -1.472352E-04 +1.117586E-04 -3.823906E-05 -1.193455E-04 -1.472352E-04 -1.193455E-04 +5.626657E-05 
 +4.934504E-03 +1.763705E-04 -1.615028E-04 +1.763705E-04 +1.289618E-05 -9.827881E-05 -1.615028E-04 -9.827881E-05 -2.088637E-06 
 +4.969981E-03 +1.930224E-04 -1.215139E-04 +1.930224E-04 +1.057094E-05 -1.325536E-04 -1.215139E-04 -1.325536E-04 -4.472712E-05 
 +4.924394E-03 +1.743244E-04 -1.395519E-04 +1.743244E-04 +4.882099E-05 -1.087627E-04 -1.395519E-04 -1.087627E-04 -2.974219E-06 
 +4.851501E-03 +1.102872E-04 -2.531414E-04 +1.102872E-04 +7.877209E-05 -5.771175E-05 -2.531414E-04 -5.771175E-05 +1.048647E-04 
 +4.890216E-03 +7.108275E-05 -2.704422E-04 +7.108275E-05 +1.290376E-04 -1.054303E-04 -2.704422E-04 -1.054303E-04 +1.271365E-04 
 +5.018114E-03 +8.592975E-05 -1.231824E-04 +8.592975E-05 +1.529326E-04 -1.972844E-04 -1.231824E-04 -1.972844E-04 +1.598005E-05 
 +5.061702E-03 -6.353478E-05 -3.498213E-05 -6.353478E-05 +1.470619E-04 -2.617548E-04 -3.498213E-05 -2.617548E-04 -7.848390E-05 
 +4.974666E-03 -8.547655E-05 -2.247211E-05 -8.547655E-05 +1.223358E-04 -2.468025E-04 -2.247211E-05 -2.468025E-04 -5.620311E-06 
 +4.845714E-03 +5.245740E-05 +1.305104E-05 +5.245740E-05 -1.648212E-05 -1.000348E-04 +1.305104E-05 -1.000348E-04 +1.466261E-04 
 +4.817634E-03 +1.187127E-05 -4.430740E-05 +1.187127E-05 -1.465845E-04 -6.684696E-06 -4.430740E-05 -6.684696E-06 +2.242350E-04 
 +4.885169E-03 +5.947782E-06 -2.129048E-05 +5.947782E-06 -1.629206E-04 +3.130179E-05 -2.129048E-05 +3.130179E-05 +2.507809E-04 
 +4.941039E-03 -2.410990E-05 -8.266497E-05 -2.410990E-05 -1.718920E-04 +4.705774E-05 -8.266497E-05 +4.705774E-05 +2.494681E-04 
 +4.965485E-03 -8.810600E-05 -4.264001E-05 -8.810600E-05 -1.873248E-04 -3.234792E-05 -4.264001E-05 -3.234792E-05 +2.187216E-04 
 +4.990657E-03 -9.255743E-05 +6.953790E-05 -9.255743E-05 -1.706455E-04 -9.419293E-05 +6.953790E-05 -9.419293E-05 +1.848476E-04 
 +5.029120E-03 +3.264507E-05 +1.787751E-04 +3.264507E-05 -9.979960E-05 +1.260189E-06 +1.787751E-04 +1.260189E-06 +5.550975E-05 
 +5.053940E-03 +2.246596E-05 +5.600642E-05 +2.246596E-05 -1.925244E-04 +2.425828E-05 +5.600642E-05 +2.425828E-05 +4.114652E-05 
 +5.101818E-03 -6.195163E-05 -9.087615E-05 -6.195163E-05 -2.371138E-04 -6.234673E-05 -9.087615E-05 -6.234673E-05 +5.366522E-05 
 +5.147841E-03 -6.164859E-05 -1.403270E-04 -6.164859E-05 -2.780534E-04 -7.930725E-05 -1.403270E-04 -7.930725E-05 +5.276343E-05 
 +5.182241E-03 -4.109268E-05 -1.157033E-04 -4.109268E-05 -2.986427E-04 -1.020548E-04 -1.157033E-04 -1.020548E-04 +1.431712E-05 
 +5.206549E-03 -1.138950E-05 -8.969537E-05 -1.138950E-05 -3.089277E-04 -1.299047E-04 -8.969537E-05 -1.299047E-04 -3.161381E-05 
 +5.150858E-03 +5.587085E-05 -9.969454E-05 +5.587085E-05 -2.598071E-04 -1.333029E-04 -9.969454E-05 -1.333029E-04 -4.524162E-05 
 +4.973698E-03 +1.047175E-04 -1.894669E-04 +1.047175E-04 -7.919166E-05 -9.659726E-05 -1.894669E-04 -9.659726E-05 -6.397103E-05 
 +4.847372E-03 +1.164323E-04 -1.807383E-04 +1.164323E-04 +5.310011E-05 -1.223763E-04 -1.807383E-04 -1.223763E-04 -2.787095E-05 
 +4.829536E-03 +1.177593E-04 -1.837437E-04 +1.177593E-04 +1.298285E-04 -1.691636E-04 -1.837437E-04 -1.691636E-04 +7.791666E-05 
 +4.849594E-03 +6.925961E-05 -1.906506E-04 +6.925961E-05 +1.618436E-04 -1.211553E-04 -1.906506E-04 -1.211553E-04 +1.867599E-04 
 +4.851670E-03 -1.067194E-06 -9.639010E-05 -1.067194E-06 +1.021287E-04 +2.395006E-05 -9.639010E-05 +2.395006E-05 +2.556253E-04 
 +4.882321E-03 -3.157511E-05 +3.260283E-06 -3.157511E-05 +1.840112E-05 +1.846822E-04 +3.260283E-06 +1.846822E-04 +2.099175E-04 
 +4.970007E-03 +4.341101E-06 +3.267991E-05 +4.341101E-06 +1.385971E-05 +2.493122E-04 +3.267991E-05 +2.493122E-04 +1.370935E-04 
 +4.978918E-03 +9.348863E-05 +1.010783E-04 +9.348863E-05 +3.045304E-05 +1.992595E-04 +1.010783E-04 +1.992595E-04 +1.244206E-04 
 +4.984214E-03 +1.249935E-04 +5.349807E-05 +1.249935E-04 -7.768298E-05 +9.070972E-05 +5.349807E-05 +9.070972E-05 +1.548593E-04 
 +4.994641E-03 +9.443745E-05 -3.574885E-05 +9.443745E-05 -1.600479E-04 +1.494205E-05 -3.574885E-05 +1.494205E-05 +1.856178E-04 
 +4.975664E-03 +3.864630E-05 -6.105638E-05 +3.864630E-05 -1.526598E-04 +1.151099E-05 -6.105638E-05 +1.151099E-05 +1.868214E-04 
 +4.962023E-03 -3.687053E-06 -8.294382E-05 -3.687053E-06 -1.373107E-04 +6.783910E-05 -8.294382E-05 +6.783910E-05 +2.039588E-04 
 +4.920023E-03 -2.534407E-05 -5.244260E-05 -2.534407E-05 -7.613641E-05 +1.584870E-04 -5.244260E-05 +1.584870E-04 +2.202180E-04 
 +4.908568E-03 +4.354779E-05 +3.362821E-05 +4.354779E-05 -2.439601E-05 +2.310971E-04 +3.362821E-05 +2.310971E-04 +1.630691E-04 
 +4.966718E-03 +1.119674E-04 +1.637819E-04 +1.119674E-04 -8.448086E-05 +1.839750E-04 +1.637819E-04 +1.839750E-04 +7.104246E-05 
 +5.004966E-03 -1.205459E-05 -6.129379E-05 -1.205459E-05 -1.467356E-04 -1.017435E-04 -6.129379E-05 -1.017435E-04 +8.764868E-05 
 +5.066126E-03 -7.992676E-05 -8.322535E-05 -7.992676E-05 -2.224698E-04 -1.743652E-04 -8.322535E-05 -1.743652E-04 +4.883937E-05 
 +5.108158E-03 -1.083552E-04 -3.362253E-05 -1.083552E-04 -2.365910E-04 -1.483604E-04 -3.362253E-05 -1.483604E-04 -5.668560E-05 
 +5.149499E-03 -8.030512E-05 -6.863502E-05 -8.030512E-05 -2.649869E-04 -1.268774E-04 -6.863502E-05 -1.268774E-04 -7.883507E-05 
 +5.171051E-03 -4.565847E-05 -1.029697E-04 -4.565847E-05 -3.065414E-04 -1.362855E-04 -1.029697E-04 -1.362855E-04 -6.133999E-05 
 +5.186418E-03 +1.479504E-05 -9.027530E-05 +1.479504E-05 -3.418609E-04 -1.760408E-04 -9.027530E-05 -1.760408E-04 -5.621807E-05 
 +5.115588E-03 +7.156245E-05 -1.299014E-04 +7.156245E-05 -2.638821E-04 -1.740523E-04 -1.299014E-04 -1.740523E-04 -8.809170E-05 
 +4.879341E-03 +1.298891E-04 -1.967803E-04 +1.298891E-04 +1.325032E-05 -1.110321E-04 -1.967803E-04 -1.110321E-04 -3.437430E-05 
 +4.830609E-03 +1.201535E-04 -1.952974E-04 +1.201535E-04 +1.661264E-04 -7.808404E-05 -1.952974E-04 -7.808404E-05 +1.140061E-04 
 +4.801910E-03 +5.241785E-05 -1.047790E-04 +5.241785E-05 +1.301711E-04 +4.447997E-06 -1.047790E-04 +4.447997E-06 +2.226020E-04 
 +4.799772E-03 -2.326081E-05 -9.096025E-05 -2.326081E-05 +1.020958E-04 +7.879646E-05 -9.096025E-05 +7.879646E-05 +2.170889E-04 
 +4.895458E-03 -8.278770E-05 +5.332262E-06 -8.278770E-05 +8.566631E-05 +9.903464E-05 +5.332262E-06 +9.903464E-05 +1.301629E-04 
 +4.978256E-03 -5.778142E-05 +1.039193E-04 -5.778142E-05 +3.660491E-05 +1.875643E-04 +1.039193E-04 +1.875643E-04 +2.352344E-05 
 +5.009277E-03 +2.914249E-05 +1.406913E-04 +2.914249E-05 -9.088415E-05 +2.359164E-04 +1.406913E-04 +2.359164E-04 -2.462379E-05 
 +4.956347E-03 +9.336030E-05 -3.460256E-05 +9.336030E-05 -1.564827E-04 +1.375342E-04 -3.460256E-05 +1.375342E-04 +1.048644E-04 
 +4.948905E-03 +1.063697E-04 -1.212825E-04 +1.063697E-04 -1.340910E-04 +3.237159E-05 -1.212825E-04 +3.237159E-05 +1.925988E-04 
 +4.974345E-03 +4.226753E-05 -9.005953E-05 +4.226753E-05 -1.200082E-04 +7.156322E-06 -9.005953E-05 +7.156322E-06 +1.480183E-04 
 +4.962797E-03 +6.868230E-06 -5.300956E-05 +6.868230E-06 -8.290600E-05 +3.896965E-05 -5.300956E-05 +3.896965E-05 +1.139779E-04 
 +4.942426E-03 +7.089431E-06 -1.752257E-05 +7.089431E-06 -2.135336E-05 +1.096293E-04 -1.752257E-05 +1.096293E-04 +6.256817E-05 
 +4.961270E-03 +6.236804E-05 +8.350078E-07 +6.236804E-05 +1.809800E-05 +1.517959E-04 +8.350078E-07 +1.517959E-04 -1.861708E-05 
 +4.995581E-03 +7.770444E-05 +1.397526E-05 +7.770444E-05 -3.213394E-05 +6.030859E-05 +1.397526E-05 +6.030859E-05 -8.146324E-06 
 +4.990668E-03 +9.603185E-06 -2.979863E-05 +9.603185E-06 -5.751200E-05 +1.144877E-04 -2.979863E-05 +1.144877E-04 +1.196469E-05 
 +5.014656E-03 -1.960618E-05 +3.774760E-05 -1.960618E-05 -2.860558E-05 +1.771801E-04 +3.774760E-05 +1.771801E-04 -2.991112E-05 
 +5.042915E-03 -6.266965E-05 +1.005391E-05 -6.266965E-05 -8.044233E-05 +1.377367E-04 +1.005391E-05 +1.377367E-04 -9.369196E-05 
 +5.116567E-03 -7.383993E-05 -9.689059E-05 -7.383993E-05 -2.071981E-04 -1.722153E-06 -9.689059E-05 -1.722153E-06 -8.828281E-05 
 +5.117253E-03 -1.614448E-05 -6.072185E-05 -1.614448E-05 -2.810906E-04 -4.093488E-05 -6.072185E-05 -4.093488E-05 -1.577527E-05 
 +5.115415E-03 +1.671419E-05 -8.242353E-05 +1.671419E-05 -2.962191E-04 +6.220184E-06 -8.242353E-05 +6.220184E-06 +4.527411E-05 
 +5.106381E-03 +1.072238E-04 -4.880161E-05 +1.072238E-04 -2.722783E-04 +1.036271E-05 -4.880161E-05 +1.036271E-05 +4.736695E-05 
 +4.993416E-03 +1.122958E-04 -1.249549E-04 +1.122958E-04 -2.015942E-04 -2.699173E-05 -1.249549E-04 -2.699173E-05 +6.909750E-05 
 +4.915489E-03 +5.314532E-05 -1.442633E-04 +5.314532E-05 -5.795331E-05 -4.561754E-05 -1.442633E-04 -4.561754E-05 +1.428089E-04 
 +4.798958E-03 +1.644906E-05 -8.363437E-06 +1.644906E-05 +1.162874E-04 -1.849841E-05 -8.363437E-06 -1.849841E-05 +2.610506E-04 
 +4.765559E-03 -6.714446E-05 -9.423797E-05 -6.714446E-05 +1.726597E-04 +4.029472E-05 -9.423797E-05 +4.029472E-05 +3.601632E-04 
 +4.830729E-03 -1.485414E-04 +7.161808E-06 -1.485414E-04 +9.925514E-05 +4.117135E-05 +7.161808E-06 +4.117135E-05 +2.773475E-04 
 +4.996706E-03 -1.290917E-04 +1.625593E-04 -1.290917E-04 +5.111075E-06 -4.122486E-05 +1.625593E-04 -4.122486E-05 +3.205445E-05 
 +5.036820E-03 -3.673783E-05 +1.628594E-04 -3.673783E-05 +8.046975E-05 -1.061655E-04 +1.628594E-04 -1.061655E-04 -1.474292E-04 
 +4.998353E-03 -8.568955E-06 -3.749116E-05 -8.568955E-06 +8.202544E-05 -8.752215E-05 -3.749116E-05 -8.752215E-05 -8.413576E-05 
 +4.947359E-03 +7.302688E-05 -1.477095E-04 +7.302688E-05 -8.162783E-05 +3.159614E-05 -1.477095E-04 +3.159614E-05 +1.183897E-04 
 +4.940083E-03 +7.427742E-05 -1.484506E-04 +7.427742E-05 -1.052585E-04 +8.844554E-05 -1.484506E-04 +8.844554E-05 +2.015368E-04 
 +4.966507E-03 +2.169320E-05 -8.242063E-05 +2.169320E-05 -7.047972E-05 +6.032653E-05 -8.242063E-05 +6.032653E-05 +1.245399E-04 
 +4.984994E-03 +4.336353E-05 -3.063078E-05 +4.336353E-05 -5.735438E-05 +6.444126E-05 -3.063078E-05 +6.444126E-05 +5.609700E-05 
 +5.018636E-03 +5.815114E-05 -2.573217E-05 +5.815114E-05 -6.005953E-05 +7.362556E-05 -2.573217E-05 +7.362556E-05 +1.714546E-05 
 +5.040710E-03 +4.748792E-05 -8.468323E-05 +4.748792E-05 -8.374014E-05 +7.677385E-05 -8.468323E-05 +7.677385E-05 +4.859515E-06 
 +5.060380E-03 +2.096230E-05 +3.917723E-05 +2.096230E-05 -7.840351E-05 +2.015476E-04 +3.917723E-05 +2.015476E-04 -4.290441E-05 
 +4.991548E-03 -1.494191E-05 +1.237921E-04 -1.494191E-05 -6.528068E-05 +1.303749E-04 +1.237921E-04 +1.303749E-04 -2.315529E-05 
 +4.995438E-03 -4.675088E-05 +3.056345E-05 -4.675088E-05 -5.365178E-05 +1.686314E-04 +3.056345E-05 +1.686314E-04 -5.052586E-05 
 +5.064588E-03 -7.159373E-05 -7.043139E-05 -7.159373E-05 -3.534465E-05 +3.026286E-04 -7.043139E-05 +3.026286E-04 -7.457411E-05 
 +5.040584E-03 +3.761010E-07 +8.610180E-06 +3.761010E-07 -9.750591E-05 +3.140590E-04 +8.610180E-06 +3.140590E-04 +1.277483E-05 
 +5.053823E-03 +5.830022E-05 -6.456686E-06 +5.830022E-05 -1.584648E-04 +3.105982E-04 -6.456686E-06 +3.105982E-04 +8.250323E-05 
 +5.004552E-03 +1.910775E-04 -2.100505E-05 +1.910775E-04 -1.672463E-04 +3.154058E-04 -2.100505E-05 +3.154058E-04 +1.123075E-04 
 +5.031245E-03 +2.081490E-04 -1.137370E-04 +2.081490E-04 -1.470963E-04 +1.618493E-04 -1.137370E-04 +1.618493E-04 +1.430943E-04 
 +4.953999E-03 +1.187024E-04 -1.171699E-04 +1.187024E-04 -9.902848E-05 -1.358394E-05 -1.171699E-04 -1.358394E-05 +2.160495E-04 
 +4.841328E-03 +6.585328E-05 -2.054360E-05 +6.585328E-05 +7.076858E-05 -1.653077E-04 -2.054360E-05 -1.653077E-04 +3.584033E-04 
 +4.804826E-03 -4.547967E-05 +3.280540E-05 -4.547967E-05 +3.091276E-04 -2.337764E-04 +3.280540E-05 -2.337764E-04 +3.435423E-04 
 +4.824696E-03 -1.680114E-04 +8.415857E-05 -1.680114E-04 +3.471460E-04 -1.314784E-04 +8.415857E-05 -1.314784E-04 +1.506007E-04 
 +4.937982E-03 -1.184964E-04 +1.087171E-04 -1.184964E-04 +2.685742E-04 -1.431677E-05 +1.087171E-04 -1.431677E-05 -7.322629E-05 
 +5.029471E-03 -9.243176E-06 +6.431268E-05 -9.243176E-06 +1.535807E-04 -3.634168E-05 +6.431268E-05 -3.634168E-05 -2.288795E-04 
 +5.040662E-03 -4.686769E-05 +3.181416E-06 -4.686769E-05 +1.118572E-04 -1.677059E-04 +3.181416E-06 -1.677059E-04 -2.338149E-04 
 +4.978372E-03 -2.868630E-05 -5.042687E-05 -2.868630E-05 +1.209175E-04 -1.678109E-04 -5.042687E-05 -1.678109E-04 -6.264172E-05 
 +4.940379E-03 +1.414490E-05 -1.746726E-04 +1.414490E-05 -1.749546E-05 -3.165667E-05 -1.746726E-04 -3.165667E-05 +1.373174E-04 
 +4.987680E-03 +1.680865E-05 -1.567267E-04 +1.680865E-05 -1.248405E-04 +2.950081E-05 -1.567267E-04 +2.950081E-05 +1.472383E-04 
 +5.035235E-03 +4.562942E-05 -6.806253E-05 +4.562942E-05 -1.571246E-04 +4.275355E-05 -6.806253E-05 +4.275355E-05 +9.314200E-05 
 +5.046557E-03 +5.782646E-05 -1.886640E-05 +5.782646E-05 -1.679244E-04 +9.273410E-05 -1.886640E-05 +9.273410E-05 +8.360904E-05 
 +5.074926E-03 +4.538137E-05 -3.477545E-05 +4.538137E-05 -1.266569E-04 +1.789595E-04 -3.477545E-05 +1.789595E-04 +2.023500E-05 
 +5.123880E-03 +4.610193E-05 +2.959213E-05 +4.610193E-05 -1.070025E-04 +1.737078E-04 +2.959213E-05 +1.737078E-04 -5.030430E-05 
 +4.982661E-03 -1.401337E-05 +1.578100E-04 -1.401337E-05 -8.577910E-05 +7.844764E-05 +1.578100E-04 +7.844764E-05 +3.421625E-05 
 +4.983924E-03 -5.808265E-05 +1.314896E-04 -5.808265E-05 -1.028866E-04 +8.236806E-05 +1.314896E-04 +8.236806E-05 +1.192732E-05 
 +5.015423E-03 -6.705620E-05 +1.976926E-05 -6.705620E-05 -1.450200E-04 +1.593673E-04 +1.976926E-05 +1.593673E-04 -3.885724E-05 
 +4.980306E-03 -2.019852E-05 -2.393050E-05 -2.019852E-05 -1.543305E-04 +2.014468E-04 -2.393050E-05 +2.014468E-04 +2.311279E-05 
 +4.948767E-03 +3.450286E-05 +6.137703E-06 +3.450286E-05 -1.949409E-04 +2.636876E-04 +6.137703E-06 +2.636876E-04 +7.525160E-05 
 +4.968728E-03 +1.832215E-04 -3.205585E-05 +1.832215E-04 -2.143524E-04 +2.782659E-04 -3.205585E-05 +2.782659E-04 +1.296504E-04 
 +4.991314E-03 +2.148443E-04 -1.122402E-04 +2.148443E-04 -1.796368E-04 +1.777574E-04 -1.122402E-04 +1.777574E-04 +1.922817E-04 
 +4.922357E-03 +1.200657E-04 -4.827446E-05 +1.200657E-04 -1.322693E-04 +9.776400E-05 -4.827446E-05 +9.776400E-05 +3.273617E-04 
 +4.868754E-03 +8.456044E-05 +6.300190E-05 +8.456044E-05 -1.947920E-04 +1.016452E-04 +6.300190E-05 +1.016452E-04 +4.655552E-04 
 +4.887012E-03 +4.389243E-05 +1.325891E-04 +4.389243E-05 -1.312892E-04 +5.901250E-05 +1.325891E-04 +5.901250E-05 +2.792563E-04 
 +4.884154E-03 -1.439245E-04 +8.926956E-05 -1.439245E-04 +1.992000E-04 -3.164630E-05 +8.926956E-05 -3.164630E-05 -9.370280E-06 
 +4.896441E-03 -1.725255E-04 +2.680227E-05 -1.725255E-04 +2.834755E-04 -5.860485E-05 +2.680227E-05 -5.860485E-05 -1.158507E-04 
 +4.996537E-03 -1.481698E-05 +1.448651E-05 -1.481698E-05 +2.313643E-04 -6.737723E-05 +1.448651E-05 -6.737723E-05 -1.480714E-04 
 +4.994027E-03 -3.513888E-05 +2.269627E-05 -3.513888E-05 +2.631668E-04 -9.685206E-05 +2.269627E-05 -9.685206E-05 -1.503909E-04 
 +5.002490E-03 -7.766979E-05 -2.852413E-06 -7.766979E-05 +2.236868E-04 -1.676721E-04 -2.852413E-06 -1.676721E-04 -1.368661E-04 
 +5.002149E-03 -9.539023E-05 -1.265998E-04 -9.539023E-05 +9.419792E-05 -1.771268E-04 -1.265998E-04 -1.771268E-04 -6.096485E-05 
 +5.021796E-03 -2.221505E-05 -1.526754E-04 -2.221505E-05 -7.118787E-05 -2.837939E-05 -1.526754E-04 -2.837939E-05 +3.916879E-05 
 +5.075672E-03 +2.736830E-05 -5.916557E-05 +2.736830E-05 -1.352131E-04 +1.293157E-04 -5.916557E-05 +1.293157E-04 +4.676277E-05 
 +5.080676E-03 +6.250728E-05 -9.496338E-07 +6.250728E-05 -1.293717E-04 +1.929759E-04 -9.496338E-07 +1.929759E-04 +1.824663E-05 
 +5.111187E-03 +7.897948E-05 +2.344648E-05 +7.897948E-05 -1.163815E-04 +2.187614E-04 +2.344648E-05 +2.187614E-04 -3.505391E-05 
 +5.156248E-03 +1.650823E-05 +2.074832E-05 +1.650823E-05 -1.131327E-04 +1.884201E-04 +2.074832E-05 +1.884201E-04 -4.453435E-05 
 +5.019103E-03 -5.099047E-06 +1.430649E-04 -5.099047E-06 -1.059547E-04 -1.988764E-05 +1.430649E-04 -1.988764E-05 +1.039534E-04 
 +4.997620E-03 -5.951029E-05 +1.179048E-04 -5.951029E-05 -1.220005E-04 -2.324005E-04 +1.179048E-04 -2.324005E-04 +1.086323E-04 
 +5.016204E-03 -4.150773E-05 -1.638801E-05 -4.150773E-05 -1.999400E-04 -2.357074E-04 -1.638801E-05 -2.357074E-04 +1.339293E-04 
 +4.871389E-03 +2.233278E-05 -8.758767E-05 +2.233278E-05 -2.701433E-04 -7.757257E-05 -8.758767E-05 -7.757257E-05 +2.607736E-04 
 +4.748506E-03 +5.774171E-05 -7.803296E-05 +5.774171E-05 -1.977372E-04 +7.912456E-05 -7.803296E-05 +7.912456E-05 +2.812576E-04 
 +4.830576E-03 +8.928803E-05 -3.768015E-05 +8.928803E-05 -1.260310E-04 +1.259546E-04 -3.768015E-05 +1.259546E-04 +2.100537E-04 
 +4.984762E-03 +8.264820E-05 +2.651421E-05 +8.264820E-05 -1.748523E-04 +1.855182E-04 +2.651421E-05 +1.855182E-04 +2.116058E-04 
 +4.974913E-03 +4.367100E-05 +6.514901E-05 +4.367100E-05 -2.720544E-04 +2.006461E-04 +6.514901E-05 +2.006461E-04 +3.273156E-04 
 +4.921512E-03 +3.216827E-05 +1.427266E-04 +3.216827E-05 -3.146865E-04 +1.044884E-04 +1.427266E-04 +1.044884E-04 +4.423939E-04 
 +4.933014E-03 +8.987438E-05 +1.018749E-04 +8.987438E-05 -3.558726E-04 +4.911674E-05 +1.018749E-04 +4.911674E-05 +4.308434E-04 
 +4.963193E-03 +9.457137E-06 +6.771036E-05 +9.457137E-06 -2.808580E-04 +1.419208E-04 +6.771036E-05 +1.419208E-04 +1.969412E-04 
 +4.912066E-03 -1.064254E-04 +7.783331E-06 -1.064254E-04 +9.655520E-05 +3.180720E-04 +7.783331E-06 +3.180720E-04 -4.327853E-05 
 +4.959981E-03 -7.769327E-06 +5.823003E-05 -7.769327E-06 +3.008854E-04 +2.831402E-04 +5.823003E-05 +2.831402E-04 -1.573242E-04 
 +4.977666E-03 -2.715105E-05 +7.631644E-05 -2.715105E-05 +1.991877E-04 +7.813572E-05 +7.631644E-05 +7.813572E-05 -2.014260E-04 
 +5.024405E-03 -3.798126E-05 -3.748087E-05 -3.798126E-05 +1.129524E-04 -4.686256E-05 -3.748087E-05 -4.686256E-05 -1.993129E-04 
 +5.052955E-03 -1.095551E-04 -7.657283E-05 -1.095551E-04 +5.252294E-05 -5.235882E-05 -7.657283E-05 -5.235882E-05 -1.609036E-04 
 +5.043899E-03 -3.594191E-05 -5.796883E-05 -3.594191E-05 -1.788874E-05 +8.215977E-05 -5.796883E-05 +8.215977E-05 -4.027020E-05 
 +5.073144E-03 +3.284508E-05 -4.214938E-05 +3.284508E-05 -6.630248E-05 +1.979249E-04 -4.214938E-05 +1.979249E-04 -1.193117E-05 
 +5.115558E-03 +5.445144E-05 -1.246303E-05 +5.445144E-05 -7.997834E-05 +2.257433E-04 -1.246303E-05 +2.257433E-04 -8.759261E-05 
 +5.161515E-03 +5.054672E-05 +2.114401E-05 +5.054672E-05 -9.673078E-05 +2.400335E-04 +2.114401E-05 +2.400335E-04 -1.180717E-04 
 +5.181399E-03 +3.637242E-07 +3.368830E-05 +3.637242E-07 -6.965847E-05 +2.576953E-04 +3.368830E-05 +2.576953E-04 -1.608690E-04 
 +5.123759E-03 -9.554514E-06 +9.656090E-05 -9.554514E-06 -3.813837E-05 +4.930424E-05 +9.656090E-05 +4.930424E-05 -5.528596E-05 
 +5.051573E-03 -6.861325E-05 +3.191456E-05 -6.861325E-05 -2.081960E-05 -2.195729E-04 +3.191456E-05 -2.195729E-04 +5.704622E-05 
 +4.913489E-03 -1.131135E-04 -3.762010E-05 -1.131135E-04 -8.880415E-07 -1.742487E-04 -3.762010E-05 -1.742487E-04 +2.246311E-04 
 +4.596490E-03 -1.274095E-04 -6.741648E-05 -1.274095E-04 +1.101307E-04 +6.162309E-05 -6.741648E-05 +6.162309E-05 +4.057627E-04 
 +4.492685E-03 -1.530941E-04 -1.274432E-04 -1.530941E-04 +1.750983E-04 +1.935434E-04 -1.274432E-04 +1.935434E-04 +3.663236E-04 
 +4.771998E-03 -1.068501E-04 -1.505473E-05 -1.068501E-04 +5.197555E-05 +2.559246E-04 -1.505473E-05 +2.559246E-04 +2.135920E-04 
 +5.103492E-03 -1.617689E-06 +1.129140E-04 -1.617689E-06 -1.708622E-04 +2.099811E-04 +1.129140E-04 +2.099811E-04 +1.636450E-04 
 +5.041740E-03 +1.857651E-05 +8.930351E-05 +1.857651E-05 -2.769339E-04 +1.037709E-04 +8.930351E-05 +1.037709E-04 +2.449897E-04 
 +4.992521E-03 +7.549763E-06 +1.000100E-04 +7.549763E-06 -2.753908E-04 +2.900296E-05 +1.000100E-04 +2.900296E-05 +3.296776E-04 
 +4.993440E-03 +1.310857E-05 +7.767502E-05 +1.310857E-05 -3.264957E-04 -2.847849E-05 +7.767502E-05 -2.847849E-05 +3.684297E-04 
 +5.000656E-03 +1.062158E-04 +1.094175E-04 +1.062158E-04 -2.281155E-04 +1.896047E-05 +1.094175E-04 +1.896047E-05 +2.511016E-04 
 +4.975471E-03 +3.243238E-05 +7.689152E-05 +3.243238E-05 +4.199190E-06 +1.581763E-04 +7.689152E-05 +1.581763E-04 -4.825592E-05 
 +5.025988E-03 -1.402314E-05 +8.586722E-05 -1.402314E-05 +6.382305E-05 +1.185919E-04 +8.586722E-05 +1.185919E-04 -2.315345E-04 
 +4.980829E-03 +7.441948E-06 +1.253204E-04 +7.441948E-06 +5.436464E-05 -5.687886E-05 +1.253204E-04 -5.687886E-05 -2.079799E-04 
 +5.015378E-03 -4.070103E-05 +6.165472E-06 -4.070103E-05 +4.691286E-05 -8.443271E-05 +6.165472E-06 -8.443271E-05 -1.703389E-04 
 +5.071043E-03 -1.285045E-04 -4.198124E-05 -1.285045E-04 +1.596088E-06 -3.227641E-07 -4.198124E-05 -3.227641E-07 -1.436028E-04 
 +5.005031E-03 -8.692505E-05 -3.621523E-05 -8.692505E-05 -3.390001E-05 +1.460285E-04 -3.621523E-05 +1.460285E-04 -4.405972E-05 
 +5.046295E-03 -2.126203E-05 -7.305658E-05 -2.126203E-05 -6.691387E-05 +2.582672E-04 -7.305658E-05 +2.582672E-04 -4.118587E-05 
 +5.165244E-03 +2.145942E-05 -2.724217E-05 +2.145942E-05 -9.717578E-05 +3.047856E-04 -2.724217E-05 +3.047856E-04 -1.299449E-04 
 +5.189657E-03 +3.682885E-05 -5.505429E-06 +3.682885E-05 -9.857882E-05 +3.139365E-04 -5.505429E-06 +3.139365E-04 -1.669777E-04 
 +5.171684E-03 -3.351831E-05 +9.925142E-05 -3.351831E-05 -1.108434E-04 +3.384158E-04 +9.925142E-05 +3.384158E-04 -1.795289E-04 
 +5.187856E-03 -8.765298E-05 +6.772646E-05 -8.765298E-05 -1.090109E-04 +1.887860E-04 +6.772646E-05 +1.887860E-04 -7.383152E-05 
 +5.117404E-03 -1.197217E-04 +1.759690E-05 -1.197217E-04 +2.822736E-05 -6.345292E-05 +1.759690E-05 -6.345292E-05 +7.018461E-05 
 +4.622996E-03 -2.237922E-04 -2.909092E-05 -2.237922E-04 +2.271913E-04 -6.771467E-05 -2.909092E-05 -6.771467E-05 +2.337858E-04 
 +4.427533E-03 -1.429689E-04 -9.337142E-05 -1.429689E-04 +2.837317E-04 +3.098922E-05 -9.337142E-05 +3.098922E-05 +3.168790E-04 
 +4.449337E-03 -1.012289E-04 -1.441480E-04 -1.012289E-04 +9.971930E-05 +4.331762E-05 -1.441480E-04 +4.331762E-05 +2.601800E-04 
 +4.826550E-03 -1.069906E-05 -5.503416E-05 -1.069906E-05 -2.208135E-04 +8.684122E-05 -5.503416E-05 +8.684122E-05 +2.070608E-04 
 +5.116490E-03 +4.064295E-05 +4.821978E-05 +4.064295E-05 -3.203791E-04 +9.449439E-05 +4.821978E-05 +9.449439E-05 +1.837036E-04 
 +5.070710E-03 +3.324241E-05 +8.280905E-05 +3.324241E-05 -2.897871E-04 +1.072798E-05 +8.280905E-05 +1.072798E-05 +1.989381E-04 
 +5.030203E-03 -5.400580E-06 +7.381763E-05 -5.400580E-06 -3.052652E-04 -6.630370E-05 +7.381763E-05 -6.630370E-05 +2.384459E-04 
 +5.032519E-03 -2.568318E-05 +8.078423E-05 -2.568318E-05 -3.012584E-04 -1.095044E-04 +8.078423E-05 -1.095044E-04 +2.416808E-04 
 +5.060081E-03 +1.115078E-04 +1.264527E-04 +1.115078E-04 -3.792228E-04 -9.825156E-05 +1.264527E-04 -9.825156E-05 +2.270753E-04 
 +5.113639E-03 +1.338867E-04 +1.547762E-04 +1.338867E-04 -4.131054E-04 +1.202155E-05 +1.547762E-04 +1.202155E-05 +5.801586E-05 
 +5.076675E-03 +1.608404E-05 +1.620010E-04 +1.608404E-05 -2.411371E-04 +6.587332E-05 +1.620010E-04 +6.587332E-05 -1.154999E-04 
 +4.976212E-03 -2.945102E-05 +1.634762E-04 -2.945102E-05 -1.465220E-04 -2.384047E-05 +1.634762E-04 -2.384047E-05 -5.273489E-05 
 +4.997518E-03 -7.544121E-05 +1.314541E-04 -7.544121E-05 -1.542274E-04 +3.225887E-05 +1.314541E-04 +3.225887E-05 +1.018468E-06 
 +5.020853E-03 -1.348017E-04 -2.725376E-05 -1.348017E-04 -6.414303E-05 +1.752154E-04 -2.725376E-05 +1.752154E-04 -4.894080E-05 
 +4.958772E-03 -1.592245E-04 -1.382505E-04 -1.592245E-04 -2.615108E-06 +1.964029E-04 -1.382505E-04 +1.964029E-04 -5.037979E-05 
 +5.090059E-03 -5.643379E-05 -1.026805E-04 -5.643379E-05 -8.368505E-05 +2.660336E-04 -1.026805E-04 +2.660336E-04 -1.113416E-04 
 +5.188863E-03 +3.840574E-06 -6.525032E-05 +3.840574E-06 -1.673932E-04 +3.588195E-04 -6.525032E-05 +3.588195E-04 -2.601177E-04 
 +5.202140E-03 +3.791779E-05 +6.283392E-07 +3.791779E-05 -1.553149E-04 +3.510470E-04 +6.283392E-07 +3.510470E-04 -2.671959E-04 
 +5.137828E-03 -9.344162E-05 +9.866915E-05 -9.344162E-05 -2.942250E-04 +3.321478E-04 +9.866915E-05 +3.321478E-04 -4.898709E-06 
 +5.070172E-03 -1.703357E-04 +8.133552E-06 -1.703357E-04 -3.053252E-04 +2.764628E-04 +8.133552E-06 +2.764628E-04 +1.922378E-04 
 +5.054166E-03 -2.011551E-04 -4.618834E-07 -2.011551E-04 -1.337245E-04 +1.735057E-04 -4.618834E-07 +1.735057E-04 +2.578564E-04 
 +4.614402E-03 -2.463176E-04 -1.418688E-04 -2.463176E-04 +1.249509E-04 +5.417610E-05 -1.418688E-04 +5.417610E-05 +2.464519E-04 
 +4.538413E-03 -1.123263E-04 -1.879414E-04 -1.123263E-04 +1.581160E-04 +2.205447E-05 -1.879414E-04 +2.205447E-05 +2.273100E-04 
 +4.552608E-03 -8.364660E-05 -1.877047E-04 -8.364660E-05 +1.355198E-04 -1.269427E-05 -1.877047E-04 -1.269427E-05 +1.981376E-04 
 +4.748199E-03 -1.017914E-04 -1.709464E-04 -1.017914E-04 +1.137469E-04 -3.234637E-05 -1.709464E-04 -3.234637E-05 +1.541895E-04 
 +4.984889E-03 -1.719910E-05 -5.443097E-05 -1.719910E-05 -1.565362E-04 -2.052402E-06 -5.443097E-05 -2.052402E-06 +1.390489E-04 
 +5.087990E-03 +4.626539E-05 +4.134991E-05 +4.626539E-05 -3.249030E-04 -5.469821E-05 +4.134991E-05 -5.469821E-05 +1.761800E-04 
 +5.062242E-03 +6.325670E-06 +5.733429E-05 +6.325670E-06 -3.064095E-04 -1.629994E-04 +5.733429E-05 -1.629994E-04 +2.374317E-04 
 +5.067937E-03 -1.026422E-05 +1.014491E-04 -1.026422E-05 -3.496486E-04 -2.172119E-04 +1.014491E-04 -2.172119E-04 +2.141983E-04 
 +5.097543E-03 +4.191248E-05 +1.781105E-04 +4.191248E-05 -4.697292E-04 -2.092011E-04 +1.781105E-04 -2.092011E-04 +1.582949E-04 
 +5.164828E-03 +1.056493E-04 +2.648327E-04 +1.056493E-04 -4.841567E-04 -1.443247E-04 +2.648327E-04 -1.443247E-04 +1.360979E-05 
 +5.126503E-03 +5.312282E-06 +2.650806E-04 +5.312282E-06 -3.735278E-04 -6.651285E-05 +2.650806E-04 -6.651285E-05 -1.263755E-04 
 +5.074656E-03 -1.506790E-05 +1.590210E-04 -1.506790E-05 -2.449548E-04 -2.959544E-05 +1.590210E-04 -2.959544E-05 -4.220179E-05 
 +5.004438E-03 -1.413608E-05 +1.555593E-04 -1.413608E-05 -1.293541E-04 -1.468047E-05 +1.555593E-04 -1.468047E-05 +2.287604E-05 
 +4.979762E-03 -1.932441E-05 +5.874288E-05 -1.932441E-05 -6.978153E-05 +3.632159E-05 +5.874288E-05 +3.632159E-05 -7.986878E-06 
 +5.015764E-03 -3.899029E-05 -1.148442E-04 -3.899029E-05 -6.638137E-05 +1.878195E-04 -1.148442E-04 +1.878195E-04 -6.517714E-05 
 +5.084876E-03 +1.262808E-05 -1.623178E-04 +1.262808E-05 -9.748380E-05 +2.929568E-04 -1.623178E-04 +2.929568E-04 -1.665980E-04 
 +5.115542E-03 +2.287321E-05 -4.466309E-05 +2.287321E-05 -1.274732E-04 +3.303246E-04 -4.466309E-05 +3.303246E-04 -3.118974E-04 
 +5.155241E-03 +1.457706E-05 +7.886871E-05 +1.457706E-05 -1.879880E-04 +3.656519E-04 +7.886871E-05 +3.656519E-04 -2.738335E-04 
 +5.049995E-03 -1.300952E-04 +4.999597E-05 -1.300952E-04 +3.693180E-06 +8.297139E-05 +4.999597E-05 +8.297139E-05 +1.043693E-05 
 +4.925214E-03 -1.818884E-04 -3.980990E-05 -1.818884E-04 +2.853713E-05 +1.965922E-04 -3.980990E-05 +1.965922E-04 +2.091668E-04 
 +4.974649E-03 -1.363692E-04 -1.109788E-04 -1.363692E-04 -1.626985E-04 +1.195275E-04 -1.109788E-04 +1.195275E-04 +2.328299E-04 
 +4.849420E-03 -2.076415E-05 -2.224742E-04 -2.076415E-05 -1.789856E-04 -6.291463E-05 -2.224742E-04 -6.291463E-05 +2.168721E-04 
 +4.526099E-03 -1.661568E-04 -1.991064E-04 -1.661568E-04 +3.744889E-05 -4.795701E-05 -1.991064E-04 -4.795701E-05 +1.933615E-04 
 +4.653183E-03 -1.538158E-04 -1.897997E-04 -1.538158E-04 +1.002161E-04 -2.636384E-05 -1.897997E-04 -2.636384E-05 +7.862674E-05 
 +4.772489E-03 -1.203185E-04 -1.920698E-04 -1.203185E-04 +1.508662E-04 -7.219723E-05 -1.920698E-04 -7.219723E-05 -1.604517E-05 
 +4.868489E-03 -6.519169E-05 -1.203911E-04 -6.519169E-05 +1.533318E-04 -4.532311E-05 -1.203911E-04 -4.532311E-05 +4.400109E-06 
 +5.071888E-03 +3.082517E-05 -9.053862E-06 +3.082517E-05 -6.341217E-05 -3.807033E-05 -9.053862E-06 -3.807033E-05 +9.641555E-05 
 +5.103672E-03 +4.633974E-05 +5.752537E-05 +4.633974E-05 -2.505310E-04 -9.125316E-05 +5.752537E-05 -9.125316E-05 +1.699566E-04 
 +5.118364E-03 +4.688588E-05 +1.066650E-04 +4.688588E-05 -1.840002E-04 -1.108222E-04 +1.066650E-04 -1.108222E-04 +8.236878E-05 
 +5.083436E-03 +9.670873E-05 +2.398593E-04 +9.670873E-05 -2.712114E-06 -2.905154E-05 +2.398593E-04 -2.905154E-05 -9.591934E-05 
 +5.125606E-03 +1.527829E-04 +2.443768E-04 +1.527829E-04 -5.553686E-06 -1.190377E-05 +2.443768E-04 -1.190377E-05 -2.519374E-04 
 +5.208485E-03 +7.880399E-05 +1.568174E-04 +7.880399E-05 -1.090129E-04 -1.406790E-04 +1.568174E-04 -1.406790E-04 -2.990432E-04 
 +5.174597E-03 -3.505440E-06 +1.446870E-04 -3.505440E-06 -1.323257E-04 -1.795375E-04 +1.446870E-04 -1.795375E-04 -1.467109E-04 
 +5.074549E-03 -2.202730E-06 +1.517773E-04 -2.202730E-06 -1.047308E-04 -8.229846E-05 +1.517773E-04 -8.229846E-05 +3.388520E-06 
 +5.050395E-03 -3.168901E-06 +1.448033E-04 -3.168901E-06 -9.101364E-05 -2.831708E-05 +1.448033E-04 -2.831708E-05 +3.682485E-05 
 +5.033308E-03 -1.390011E-05 -5.835079E-05 -1.390011E-05 -3.935023E-05 -6.133262E-05 -5.835079E-05 -6.133262E-05 -2.226905E-05 
 +4.948166E-03 -4.787457E-05 -1.878182E-04 -4.787457E-05 +7.642744E-05 -9.328876E-05 -1.878182E-04 -9.328876E-05 -9.514482E-05 
 +5.033346E-03 -5.392192E-05 +1.135228E-04 -5.392192E-05 +9.779666E-05 -3.242437E-05 +1.135228E-04 -3.242437E-05 -2.095970E-04 
 +5.092687E-03 -7.172149E-05 +1.324565E-04 -7.172149E-05 +1.296924E-05 +2.456281E-05 +1.324565E-04 +2.456281E-05 -2.302901E-04 
 +4.949816E-03 -1.472836E-04 +2.238970E-05 -1.472836E-04 +1.523320E-04 -8.459170E-05 +2.238970E-05 -8.459170E-05 -8.303793E-05 
 +4.928561E-03 -1.756361E-04 -4.863363E-05 -1.756361E-04 +2.299204E-04 -3.021381E-05 -4.863363E-05 -3.021381E-05 +2.401252E-05 
 +4.902098E-03 -2.688333E-04 -1.451576E-04 -2.688333E-04 +2.380774E-04 -2.803148E-05 -1.451576E-04 -2.803148E-05 +2.339726E-05 
 +4.880477E-03 -1.333186E-04 -1.346145E-04 -1.333186E-04 +8.754352E-05 -8.445324E-05 -1.346145E-04 -8.445324E-05 +1.030249E-04 
 +4.603819E-03 -1.851027E-04 -8.167514E-05 -1.851027E-04 -2.158972E-06 -2.332351E-05 -8.167514E-05 -2.332351E-05 +1.148916E-04 
 +4.875261E-03 -1.295312E-05 -6.664519E-05 -1.295312E-05 +8.904069E-05 +2.328019E-05 -6.664519E-05 +2.328019E-05 -9.875392E-05 
 +4.914159E-03 +4.863875E-05 -5.655047E-05 +4.863875E-05 +1.996572E-04 -3.152633E-05 -5.655047E-05 -3.152633E-05 -1.705649E-04 
 +4.881180E-03 +9.671251E-05 -3.584644E-05 +9.671251E-05 +2.563602E-04 +2.846642E-05 -3.584644E-05 +2.846642E-05 -6.450415E-05 
 +5.004490E-03 +1.770726E-04 +1.100658E-05 +1.770726E-04 +2.862264E-04 +1.259734E-04 +1.100658E-05 +1.259734E-04 -6.715078E-06 
 +5.052958E-03 +1.787368E-04 +5.900939E-05 +1.787368E-04 +2.527190E-04 +1.373459E-04 +5.900939E-05 +1.373459E-04 -3.195181E-05 
 +5.073198E-03 +1.663346E-04 +7.928259E-05 +1.663346E-04 +1.964965E-04 +8.975291E-05 +7.928259E-05 +8.975291E-05 -1.005052E-04 
 +5.061365E-03 +1.615970E-04 +1.560182E-04 +1.615970E-04 +1.734953E-04 -6.446429E-05 +1.560182E-04 -6.446429E-05 -2.091196E-04 
 +5.139539E-03 +1.081925E-04 +7.424498E-05 +1.081925E-04 +1.233967E-04 -2.345606E-04 +7.424498E-05 -2.345606E-04 -2.941447E-04 
 +5.206418E-03 +7.333610E-05 -5.897610E-06 +7.333610E-05 +3.185637E-05 -2.434730E-04 -5.897610E-06 -2.434730E-04 -3.159079E-04 
 +5.174882E-03 -2.290846E-05 +5.580896E-05 -2.290846E-05 -4.409308E-05 -2.069857E-04 +5.580896E-05 -2.069857E-04 -2.109013E-04 
 +5.125203E-03 -4.716546E-05 +1.541677E-04 -4.716546E-05 -1.082490E-04 -1.920100E-04 +1.541677E-04 -1.920100E-04 -6.004968E-05 
 +5.136095E-03 -6.975396E-05 +1.521198E-04 -6.975396E-05 -5.027306E-05 -1.132317E-04 +1.521198E-04 -1.132317E-04 -5.169463E-06 
 +4.946476E-03 -5.983607E-05 -1.437861E-04 -5.983607E-05 +1.060472E-04 -5.962610E-05 -1.437861E-04 -5.962610E-05 +5.662199E-06 
 +4.884649E-03 -9.774522E-05 -1.444047E-04 -9.774522E-05 +1.692133E-04 -3.106540E-05 -1.444047E-04 -3.106540E-05 -1.695969E-05 
 +4.962049E-03 -1.040651E-04 +1.283149E-04 -1.040651E-04 +1.550179E-04 -7.655960E-06 +1.283149E-04 -7.655960E-06 -1.304749E-04 
 +5.035561E-03 -1.685021E-04 +5.088746E-05 -1.685021E-04 +1.379736E-04 -5.777438E-05 +5.088746E-05 -5.777438E-05 -1.934671E-04 
 +4.944136E-03 -1.277684E-04 -7.689289E-06 -1.277684E-04 +2.097430E-04 -8.226600E-05 -7.689289E-06 -8.226600E-05 -1.217867E-04 
 +4.952008E-03 -1.097821E-04 -1.629685E-05 -1.097821E-04 +1.763324E-04 -6.861703E-05 -1.629685E-05 -6.861703E-05 -1.183050E-04 
 +4.828150E-03 -1.957847E-04 -3.497006E-05 -1.957847E-04 +2.409769E-04 -3.927403E-06 -3.497006E-05 -3.927403E-06 -1.232820E-04 
 +4.818056E-03 -1.196421E-04 +3.248515E-05 -1.196421E-04 +1.821682E-04 -2.292721E-05 +3.248515E-05 -2.292721E-05 -5.070350E-05 
 +4.849840E-03 -1.118834E-04 +7.393747E-05 -1.118834E-04 +1.649809E-05 -3.609399E-05 +7.393747E-05 -3.609399E-05 -1.332023E-05 
 +5.065553E-03 +4.356801E-05 +5.955867E-05 +4.356801E-05 +2.390362E-05 +4.638494E-06 +5.955867E-05 +4.638494E-06 -1.823535E-04 
 +5.035079E-03 +4.567914E-05 +3.279183E-05 +4.567914E-05 +1.439460E-04 +1.643659E-06 +3.279183E-05 +1.643659E-06 -2.586869E-04 
 +4.988649E-03 +5.559301E-05 +1.590690E-05 +5.559301E-05 +2.452297E-04 +1.595824E-05 +1.590690E-05 +1.595824E-05 -1.397889E-04 
 +4.954934E-03 +1.119497E-04 +5.073096E-05 +1.119497E-04 +2.630125E-04 +7.425309E-05 +5.073096E-05 +7.425309E-05 -5.585052E-05 
 +4.979394E-03 +1.435992E-04 +5.622094E-05 +1.435992E-04 +2.232343E-04 +8.344935E-05 +5.622094E-05 +8.344935E-05 -7.337260E-05 
 +4.986801E-03 +1.909070E-04 +4.758064E-05 +1.909070E-04 +1.700368E-04 +1.966083E-05 +4.758064E-05 +1.966083E-05 -9.416771E-05 
 +5.011088E-03 +2.344759E-04 -3.331961E-06 +2.344759E-04 +1.501185E-04 -9.436369E-05 -3.331961E-06 -9.436369E-05 -1.728338E-04 
 +5.143203E-03 +1.266478E-04 -8.332495E-05 +1.266478E-04 +1.360882E-04 -2.124271E-04 -8.332495E-05 -2.124271E-04 -3.198047E-04 
 +5.153069E-03 +5.893130E-05 -5.643314E-05 +5.893130E-05 +9.023226E-05 -2.567095E-04 -5.643314E-05 -2.567095E-04 -3.745938E-04 
 +5.125961E-03 -5.382144E-05 -6.685882E-05 -5.382144E-05 +4.667917E-05 -2.319773E-04 -6.685882E-05 -2.319773E-04 -3.103216E-04 
 +5.104316E-03 -7.313656E-05 +7.017348E-05 -7.313656E-05 +4.763561E-05 -2.463275E-04 +7.017348E-05 -2.463275E-04 -3.237433E-04 
 +5.135457E-03 -4.956768E-05 +9.191077E-05 -4.956768E-05 +1.046706E-04 -2.287095E-04 +9.191077E-05 -2.287095E-04 -2.868386E-04 
 +4.922314E-03 -7.968783E-05 -1.860229E-04 -7.968783E-05 +1.189363E-04 -5.280570E-05 -1.860229E-04 -5.280570E-05 -7.879040E-05 
 +4.877522E-03 -1.081500E-04 -1.650804E-04 -1.081500E-04 +1.322826E-04 +9.639565E-05 -1.650804E-04 +9.639565E-05 -1.310793E-05 
 +4.898199E-03 -1.315433E-04 -5.776435E-05 -1.315433E-04 +1.882490E-04 +7.161625E-05 -5.776435E-05 +7.161625E-05 -6.104365E-05 
 +4.964585E-03 -1.686326E-04 -2.253255E-05 -1.686326E-04 +2.253771E-04 -1.648527E-05 -2.253255E-05 -1.648527E-05 -9.317743E-05 
 +4.953305E-03 -8.250509E-05 -3.100418E-06 -8.250509E-05 +1.873499E-04 -4.031522E-05 -3.100418E-06 -4.031522E-05 -8.733618E-05 
 +4.927545E-03 -8.353256E-05 +2.484179E-05 -8.353256E-05 +1.840591E-04 -2.572088E-05 +2.484179E-05 -2.572088E-05 -1.162574E-04 
 +4.869163E-03 -1.175867E-04 +4.622583E-05 -1.175867E-04 +1.929070E-04 -1.663478E-05 +4.622583E-05 -1.663478E-05 -1.148558E-04 
 +4.839479E-03 -1.498608E-04 +1.125939E-04 -1.498608E-04 +1.241396E-04 -4.986931E-05 +1.125939E-04 -4.986931E-05 -6.007652E-05 
 +4.928978E-03 -6.316617E-05 +1.329641E-04 -6.316617E-05 +3.398590E-05 -4.064599E-05 +1.329641E-04 -4.064599E-05 -2.288847E-05 
 +5.075797E-03 +6.338471E-05 +9.718701E-05 +6.338471E-05 +3.250484E-05 +3.544976E-05 +9.718701E-05 +3.544976E-05 -1.349221E-04 
 +5.127293E-03 +3.065804E-05 +2.639322E-05 +3.065804E-05 +6.202855E-05 +6.115481E-05 +2.639322E-05 +6.115481E-05 -2.297932E-04 
 +5.071133E-03 +2.055630E-05 +1.832455E-05 +2.055630E-05 +1.404092E-04 +6.481887E-05 +1.832455E-05 +6.481887E-05 -1.948524E-04 
 +4.999935E-03 +5.142768E-05 +6.487732E-05 +5.142768E-05 +1.814037E-04 +1.059125E-04 +6.487732E-05 +1.059125E-04 -9.473643E-05 
 +4.974709E-03 +9.800574E-05 +5.268231E-05 +9.800574E-05 +1.586941E-04 +1.024423E-04 +5.268231E-05 +1.024423E-04 -3.122904E-05 
 +4.971798E-03 +1.622005E-04 +1.911360E-05 +1.622005E-04 +1.248384E-04 +4.015860E-05 +1.911360E-05 +4.015860E-05 -5.267265E-05 
 +5.001743E-03 +2.824870E-04 -7.406330E-05 +2.824870E-04 +1.418150E-04 -8.153434E-05 -7.406330E-05 -8.153434E-05 -1.532192E-04 
 +5.110431E-03 +1.733808E-04 -1.199939E-04 +1.733808E-04 +1.959020E-04 -1.764282E-04 -1.199939E-04 -1.764282E-04 -2.831274E-04 
 +5.098973E-03 +9.847235E-05 -6.491961E-05 +9.847235E-05 +1.962370E-04 -1.806897E-04 -6.491961E-05 -1.806897E-04 -3.021704E-04 
 +5.056025E-03 +9.622220E-06 -7.953854E-05 +9.622220E-06 +1.700333E-04 -1.588873E-04 -7.953854E-05 -1.588873E-04 -2.453440E-04 
 +5.031312E-03 -7.052800E-06 +3.120585E-05 -7.052800E-06 +1.677920E-04 -1.996743E-04 +3.120585E-05 -1.996743E-04 -3.663175E-04 
 +5.071188E-03 -1.761537E-05 +3.059436E-05 -1.761537E-05 +1.593169E-04 -1.850156E-04 +3.059436E-05 -1.850156E-04 -3.559491E-04 
 +4.943042E-03 -1.037359E-04 -1.897590E-04 -1.037359E-04 +1.044988E-04 -4.258955E-06 -1.897590E-04 -4.258955E-06 -3.042782E-05 
 +4.884317E-03 -5.796688E-05 -2.280287E-04 -5.796688E-05 +7.989255E-05 +1.204000E-04 -2.280287E-04 +1.204000E-04 +7.406800E-05 
 +4.880068E-03 -5.059533E-05 -1.718167E-04 -5.059533E-05 +1.237754E-04 +9.664660E-05 -1.718167E-04 +9.664660E-05 -1.668366E-05 
 +4.921986E-03 -8.294710E-05 -3.450359E-05 -8.294710E-05 +1.658950E-04 +1.059207E-05 -3.450359E-05 +1.059207E-05 -4.885047E-05 
 +4.934841E-03 -3.061007E-05 -1.004612E-06 -3.061007E-05 +1.535401E-04 +9.587944E-06 -1.004612E-06 +9.587944E-06 +6.005829E-08 
 +4.900796E-03 -3.444105E-05 +4.014454E-05 -3.444105E-05 +1.628162E-04 -1.590266E-05 +4.014454E-05 -1.590266E-05 -1.459232E-05 
 +4.903012E-03 -7.772184E-05 +4.750496E-05 -7.772184E-05 +1.309043E-04 -4.663252E-05 +4.750496E-05 -4.663252E-05 -3.380126E-05 
 +4.891955E-03 -1.798441E-04 +9.873030E-05 -1.798441E-04 +9.212253E-05 -5.118917E-05 +9.873030E-05 -5.118917E-05 +2.038488E-05 
 +4.946962E-03 -6.320056E-05 +9.726398E-05 -6.320056E-05 +7.049343E-05 -7.002351E-05 +9.726398E-05 -7.002351E-05 +2.516732E-05 
 +5.055102E-03 +8.117039E-05 +1.232007E-04 +8.117039E-05 +1.621385E-05 -5.190337E-05 +1.232007E-04 -5.190337E-05 -1.059454E-04 
 +5.144987E-03 +1.120846E-04 +9.355431E-05 +1.120846E-04 +2.016998E-05 +7.165444E-05 +9.355431E-05 +7.165444E-05 -1.438853E-04 
 +5.099687E-03 +6.179362E-05 +5.878610E-05 +6.179362E-05 +1.163099E-04 +1.092369E-04 +5.878610E-05 +1.092369E-04 -1.616542E-04 
 +5.069396E-03 -8.205145E-06 +5.660710E-05 -8.205145E-06 +1.554942E-04 +8.265271E-05 +5.660710E-05 +8.265271E-05 -1.573422E-04 
 +5.033762E-03 +5.385034E-05 +4.008925E-05 +5.385034E-05 +1.290361E-04 +5.059255E-05 +4.008925E-05 +5.059255E-05 -6.495044E-05 
 +4.967643E-03 +1.418197E-04 -1.132252E-05 +1.418197E-04 +1.177197E-04 -5.856092E-06 -1.132252E-05 -5.856092E-06 -5.966766E-05 
 +5.018005E-03 +2.260109E-04 -4.925502E-05 +2.260109E-04 +2.300170E-05 +2.981000E-05 -4.925502E-05 +2.981000E-05 -8.553510E-05 
 +5.114487E-03 +1.386795E-04 -1.801748E-05 +1.386795E-04 -1.284795E-04 +1.706137E-04 -1.801748E-05 +1.706137E-04 -6.928948E-05 
 +5.080503E-03 +1.006416E-04 -2.209017E-05 +1.006416E-04 -1.751117E-04 +2.777983E-04 -2.209017E-05 +2.777983E-04 -5.209905E-05 
 +5.020124E-03 +5.406444E-05 -5.549448E-05 +5.406444E-05 -1.212780E-04 +2.506925E-04 -5.549448E-05 +2.506925E-04 -3.405399E-05 
 +4.895621E-03 +8.340097E-05 -3.039998E-05 +8.340097E-05 +2.871415E-05 +1.124354E-04 -3.039998E-05 +1.124354E-04 -1.416970E-04 
 +4.991604E-03 -2.242191E-05 -3.696351E-05 -2.242191E-05 +8.028082E-05 +3.086046E-06 -3.696351E-05 +3.086046E-06 -1.953826E-04 
 +4.952121E-03 -7.424600E-05 -1.726460E-04 -7.424600E-05 +7.007619E-05 +2.361017E-05 -1.726460E-04 +2.361017E-05 -1.204683E-05 
 +4.902537E-03 -3.714925E-05 -2.420057E-04 -3.714925E-05 +1.152507E-04 +1.049775E-04 -2.420057E-04 +1.049775E-04 +1.249669E-04 
 +4.881663E-03 -3.399694E-05 -2.153063E-04 -3.399694E-05 +1.342221E-04 +1.407246E-04 -2.153063E-04 +1.407246E-04 +4.198433E-05 
 +4.933338E-03 -5.933973E-05 -7.537690E-05 -5.933973E-05 +1.472646E-04 +7.550367E-05 -7.537690E-05 +7.550367E-05 -2.373408E-05 
 +4.944856E-03 -2.316660E-06 -1.169897E-05 -2.316660E-06 +1.290196E-04 +4.672156E-05 -1.169897E-05 +4.672156E-05 +1.291639E-05 
 +4.883769E-03 -6.454245E-06 +2.342538E-05 -6.454245E-06 +1.366410E-04 -9.367766E-06 +2.342538E-05 -9.367766E-06 +6.086147E-05 
 +4.905131E-03 -8.490566E-05 +4.529212E-05 -8.490566E-05 +1.033874E-04 -1.826218E-05 +4.529212E-05 -1.826218E-05 +4.399205E-05 
 +4.885381E-03 -1.755562E-04 +8.257661E-05 -1.755562E-04 +6.877440E-05 +5.690615E-06 +8.257661E-05 +5.690615E-06 +6.028273E-05 
 +4.993416E-03 -5.977926E-05 +9.889898E-05 -5.977926E-05 +8.405521E-05 +6.741937E-05 +9.889898E-05 +6.741937E-05 +4.130471E-05 
 +5.121994E-03 +7.151539E-05 +1.453960E-04 +7.151539E-05 +5.818612E-05 +1.599720E-04 +1.453960E-04 +1.599720E-04 -9.243848E-05 
 +5.107057E-03 +1.937865E-04 +1.374587E-04 +1.937865E-04 +5.630532E-05 +1.893545E-04 +1.374587E-04 +1.893545E-04 -1.171870E-04 
 +5.050533E-03 +1.376488E-04 +6.569143E-05 +1.376488E-04 +1.404859E-04 +1.433168E-04 +6.569143E-05 +1.433168E-04 -1.268532E-04 
 +5.073003E-03 -3.878766E-05 +7.858549E-05 -3.878766E-05 +1.461369E-04 +1.077300E-04 +7.858549E-05 +1.077300E-04 -1.788546E-04 
 +5.071793E-03 -2.694016E-05 +2.160385E-05 -2.694016E-05 +9.314748E-05 +7.605761E-05 +2.160385E-05 +7.605761E-05 -1.411697E-04 
 +5.026521E-03 +8.316095E-05 -5.340286E-05 +8.316095E-05 +8.821684E-05 +2.586857E-05 -5.340286E-05 +2.586857E-05 -1.421507E-04 
 +5.083415E-03 +1.334199E-04 -1.579324E-07 +1.334199E-04 -3.192794E-06 +6.393250E-05 -1.579324E-07 +6.393250E-05 -1.524620E-04 
 +5.095574E-03 +9.305274E-05 -9.080867E-06 +9.305274E-05 -1.591333E-04 +1.831252E-04 -9.080867E-06 +1.831252E-04 -1.053634E-04 
 +5.005004E-03 +5.599970E-05 -2.406924E-05 +5.599970E-05 -2.040014E-04 +2.843735E-04 -2.406924E-05 +2.843735E-04 -3.165963E-05 
 +4.960924E-03 -3.970870E-06 -2.705422E-05 -3.970870E-06 -1.294637E-04 +2.807394E-04 -2.705422E-05 +2.807394E-04 -2.483829E-05 
 +4.818603E-03 +5.595785E-05 -3.420288E-05 +5.595785E-05 -1.534067E-05 +1.883945E-04 -3.420288E-05 +1.883945E-04 -1.772161E-04 
 +4.940160E-03 -7.444215E-05 -4.669417E-05 -7.444215E-05 +9.339129E-05 +1.229924E-04 -4.669417E-05 +1.229924E-04 -2.999362E-04 
 +4.974886E-03 -7.568268E-05 -1.195646E-04 -7.568268E-05 +1.735067E-04 +9.416449E-05 -1.195646E-04 +9.416449E-05 -2.382042E-04 
 +4.912945E-03 -5.532320E-05 -1.701043E-04 -5.532320E-05 +1.837937E-04 +9.787720E-05 -1.701043E-04 +9.787720E-05 -2.764419E-05 
 +4.909979E-03 -1.565802E-05 -2.165072E-04 -1.565802E-05 +1.669579E-04 +1.358949E-04 -2.165072E-04 +1.358949E-04 +5.514683E-05 
 +4.973188E-03 -5.425064E-05 -9.375661E-05 -5.425064E-05 +1.417564E-04 +1.134565E-04 -9.375661E-05 +1.134565E-04 -1.647858E-05 
 +4.924247E-03 -5.308069E-05 +2.448963E-05 -5.308069E-05 +1.374787E-04 +7.788077E-05 +2.448963E-05 +7.788077E-05 -2.091214E-05 
 +4.952986E-03 -2.808347E-05 +3.743391E-05 -2.808347E-05 +1.461946E-04 +4.576853E-05 +3.743391E-05 +4.576853E-05 +3.261788E-05 
 +4.939005E-03 -9.091239E-05 -1.284867E-05 -9.091239E-05 +1.228694E-04 +2.640179E-05 -1.284867E-05 +2.640179E-05 +5.662492E-05 
 +4.843683E-03 -1.124840E-04 +6.215452E-05 -1.124840E-04 +1.164981E-04 +1.826709E-05 +6.215452E-05 +1.826709E-05 +6.827774E-05 
 +5.047340E-03 -2.359878E-05 +1.419340E-04 -2.359878E-05 +1.297690E-04 +9.168908E-05 +1.419340E-04 +9.168908E-05 +2.979980E-06 
 +5.104832E-03 +2.923787E-05 +1.218958E-04 +2.923787E-05 +1.236643E-04 +1.372294E-04 +1.218958E-04 +1.372294E-04 -9.677952E-05 
 +5.073786E-03 +1.283534E-04 +8.572071E-05 +1.283534E-04 +1.206483E-04 +1.446444E-04 +8.572071E-05 +1.446444E-04 -1.338428E-04 
 +5.034081E-03 +1.188134E-04 +3.019633E-05 +1.188134E-04 +1.132038E-04 +1.178548E-04 +3.019633E-05 +1.178548E-04 -1.048476E-04 
 +5.023859E-03 -8.367642E-05 -2.939691E-05 -8.367642E-05 +1.190023E-04 -1.185866E-04 -2.939691E-05 -1.185866E-04 -7.001102E-05 
 +5.050514E-03 -8.137533E-05 -2.722952E-05 -8.137533E-05 +5.536186E-05 -3.419402E-04 -2.722952E-05 -3.419402E-04 -4.403520E-05 
 +5.089261E-03 +2.140180E-05 -7.911998E-05 +2.140180E-05 -4.197897E-05 -4.147761E-04 -7.911998E-05 -4.147761E-04 -9.831437E-05 
 +5.181523E-03 -3.010021E-05 -2.281631E-05 -3.010021E-05 -1.058967E-04 -4.358399E-04 -2.281631E-05 -4.358399E-04 -1.747648E-04 
 +5.093852E-03 +8.062828E-06 -2.590148E-05 +8.062828E-06 -9.081915E-05 -2.333402E-04 -2.590148E-05 -2.333402E-04 -1.335239E-04 
 +4.934841E-03 +3.581819E-05 +1.931990E-05 +3.581819E-05 -9.256063E-05 +1.526041E-04 +1.931990E-05 +1.526041E-04 -8.153304E-06 
 +4.753557E-03 +4.947264E-05 +2.108317E-05 +4.947264E-05 -6.124450E-05 +3.403403E-04 +2.108317E-05 +3.403403E-04 +5.284234E-05 
 +4.786935E-03 +1.243329E-05 +3.632344E-05 +1.243329E-05 +2.808235E-05 +2.834532E-04 +3.632344E-05 +2.834532E-04 -9.343083E-05 
 +4.966396E-03 -7.876252E-05 +3.893067E-05 -7.876252E-05 +1.031023E-04 +1.865295E-04 +3.893067E-05 +1.865295E-04 -3.201895E-04 
 +4.991704E-03 -9.467650E-05 -3.859211E-05 -9.467650E-05 +2.034811E-04 +1.249610E-04 -3.859211E-05 +1.249610E-04 -3.971399E-04 
 +5.007769E-03 -9.381186E-05 -4.750657E-05 -9.381186E-05 +2.371991E-04 +1.032985E-04 -4.750657E-05 +1.032985E-04 -2.583144E-04 
 +4.968590E-03 -3.552255E-05 -1.423250E-04 -3.552255E-05 +1.960294E-04 +1.291469E-04 -1.423250E-04 +1.291469E-04 -7.200337E-05 
 +4.969432E-03 -7.761220E-05 -8.630579E-05 -7.761220E-05 +1.529967E-04 +1.274203E-04 -8.630579E-05 +1.274203E-04 -4.511841E-05 
 +4.959233E-03 -1.339777E-04 +5.720048E-05 -1.339777E-04 +9.637560E-05 +9.726033E-05 +5.720048E-05 +9.726033E-05 -1.596154E-05 
 +5.082094E-03 -1.939720E-05 +8.002881E-05 -1.939720E-05 -1.594208E-05 +1.458958E-05 +8.002881E-05 +1.458958E-05 +1.225074E-05 
 +4.978687E-03 -8.171958E-05 -2.193386E-05 -8.171958E-05 +6.519566E-05 +5.959196E-05 -2.193386E-05 +5.959196E-05 +5.463772E-05 
 +4.910275E-03 -7.743578E-05 +3.005236E-05 -7.743578E-05 +1.560709E-04 +1.178226E-04 +3.005236E-05 +1.178226E-04 +1.127937E-04 
 +4.993984E-03 +1.309998E-05 +7.423931E-05 +1.309998E-05 +1.820677E-04 +1.671804E-04 +7.423931E-05 +1.671804E-04 +5.400998E-05 
 +4.965386E-03 +3.592653E-05 +4.896219E-05 +3.592653E-05 +2.491206E-04 +1.877125E-04 +4.896219E-05 +1.877125E-04 -2.195984E-05 
 +5.050709E-03 +3.734172E-05 -4.666870E-06 +3.734172E-05 +1.689720E-04 +9.557221E-05 -4.666870E-06 +9.557221E-05 -5.328542E-05 
 +5.071254E-03 +6.465503E-05 -9.611610E-05 +6.465503E-05 -1.495972E-05 -1.301630E-04 -9.611610E-05 -1.301630E-04 +2.031120E-05 
 +4.997137E-03 -5.207259E-05 -1.452434E-04 -5.207259E-05 -2.482284E-07 -3.070610E-04 -1.452434E-04 -3.070610E-04 +8.119721E-05 
 +5.067472E-03 -9.904127E-05 -3.002237E-05 -9.904127E-05 +7.720938E-05 -2.987635E-04 -3.002237E-05 -2.987635E-04 -1.012237E-05 
 +5.087224E-03 -6.282802E-06 -1.287834E-04 -6.282802E-06 -1.241957E-05 -3.564074E-04 -1.287834E-04 -3.564074E-04 -1.329677E-04 
 +5.156120E-03 -4.687592E-05 -8.826165E-05 -4.687592E-05 -8.410462E-05 -3.851912E-04 -8.826165E-05 -3.851912E-04 -1.597733E-04 
 +5.105743E-03 -4.932010E-05 -7.349057E-05 -4.932010E-05 -5.682247E-05 -2.704470E-04 -7.349057E-05 -2.704470E-04 -9.890925E-05 
 +5.021397E-03 -2.790123E-05 -1.866621E-05 -2.790123E-05 +2.549745E-05 -5.876301E-05 -1.866621E-05 -5.876301E-05 -2.397149E-05 
 +4.640509E-03 +1.722888E-04 -2.004595E-05 +1.722888E-04 +1.381898E-04 +1.455956E-04 -2.004595E-05 +1.455956E-04 +1.593024E-04 
 +4.673948E-03 +1.270783E-04 +6.758191E-06 +1.270783E-04 +1.411784E-04 +2.110075E-04 +6.758191E-06 +2.110075E-04 +2.085371E-04 
 +4.953002E-03 +2.062411E-05 +4.514008E-05 +2.062411E-05 +1.236511E-04 +2.130764E-04 +4.514008E-05 +2.130764E-04 -8.647500E-05 
 +5.037478E-03 -2.091195E-05 +5.400001E-06 -2.091195E-05 +1.828362E-04 +1.588943E-04 +5.400001E-06 +1.588943E-04 -3.055817E-04 
 +5.088304E-03 -7.702264E-05 +1.895607E-05 -7.702264E-05 +2.075408E-04 +6.783492E-05 +1.895607E-05 +6.783492E-05 -2.286245E-04 
 +4.989663E-03 -8.394465E-05 -1.684314E-05 -8.394465E-05 +2.001639E-04 +6.756830E-05 -1.684314E-05 +6.756830E-05 -1.050897E-04 
 +4.908598E-03 -1.529171E-04 -2.667402E-06 -1.529171E-04 +1.973529E-04 +1.354842E-04 -2.667402E-06 +1.354842E-04 -6.650811E-05 
 +5.075763E-03 -7.791796E-05 +1.217338E-05 -7.791796E-05 -1.287032E-04 -4.886141E-05 +1.217338E-05 -4.886141E-05 -3.352344E-05 
 +5.104619E-03 +5.363988E-05 +6.372690E-05 +5.363988E-05 -1.737334E-04 -1.120992E-04 +6.372690E-05 -1.120992E-04 -6.375554E-05 
 +5.054006E-03 +5.234927E-05 +5.446059E-05 +5.234927E-05 -1.414201E-04 -1.435844E-04 +5.446059E-05 -1.435844E-04 -5.885138E-05 
 +5.024549E-03 +3.137482E-05 +2.978246E-05 +3.137482E-05 -3.362906E-05 -8.747838E-05 +2.978246E-05 -8.747838E-05 +5.885387E-06 
 +4.899243E-03 +1.186157E-04 -4.708406E-05 +1.186157E-04 +9.254147E-05 -3.041695E-05 -4.708406E-05 -3.041695E-05 +1.126352E-04 
 +4.872839E-03 +1.518057E-04 -5.451301E-05 +1.518057E-04 +1.015227E-04 -6.069853E-05 -5.451301E-05 -6.069853E-05 +9.502742E-05 
 +4.970706E-03 +8.565272E-05 -8.251143E-05 +8.565272E-05 +3.637944E-05 -1.097956E-04 -8.251143E-05 -1.097956E-04 +4.048730E-05 
 +5.012804E-03 +5.626704E-05 -1.748180E-04 +5.626704E-05 -2.453831E-05 -1.598752E-04 -1.748180E-04 -1.598752E-04 +5.957143E-05 
 +4.996366E-03 -2.742919E-06 -1.508027E-04 -2.742919E-06 -2.642741E-05 -2.036917E-04 -1.508027E-04 -2.036917E-04 +7.862212E-06 
 +5.088089E-03 -1.001629E-04 -3.405105E-05 -1.001629E-04 +4.328327E-05 -2.720088E-04 -3.405105E-05 -2.720088E-04 -1.604766E-04 
 +5.080698E-03 -1.130745E-04 -1.646770E-04 -1.130745E-04 +2.125937E-05 -3.586795E-04 -1.646770E-04 -3.586795E-04 -2.536145E-04 
 +5.075408E-03 -5.556988E-05 -1.584443E-04 -5.556988E-05 -2.294299E-05 -3.382383E-04 -1.584443E-04 -3.382383E-04 -1.995174E-04 
 +5.085303E-03 -1.848891E-05 -1.722176E-04 -1.848891E-05 +1.928953E-05 -2.301338E-04 -1.722176E-04 -2.301338E-04 -1.556933E-04 
 +5.090814E-03 -1.820645E-05 -1.113616E-04 -1.820645E-05 +4.833845E-05 -5.235577E-05 -1.113616E-04 -5.235577E-05 -1.171396E-04 
 +4.725207E-03 +1.634355E-04 -1.246582E-04 +1.634355E-04 +1.334904E-04 +5.866928E-05 -1.246582E-04 +5.866928E-05 +5.896901E-05 
 +4.753546E-03 +1.415728E-04 -2.843154E-05 +1.415728E-04 +1.754216E-04 +4.036525E-05 -2.843154E-05 +4.036525E-05 +2.165573E-04 
 +4.770027E-03 +1.932390E-04 +2.799169E-05 +1.932390E-04 +1.754349E-04 +4.741795E-05 +2.799169E-05 +4.741795E-05 +6.044364E-05 
 +5.059813E-03 +4.372545E-05 +6.938752E-05 +4.372545E-05 +1.851402E-04 +5.120454E-05 +6.938752E-05 +5.120454E-05 -1.372173E-04 
 +5.042084E-03 -9.294831E-05 +9.567765E-05 -9.294831E-05 +1.313833E-04 +6.779914E-05 +9.567765E-05 +6.779914E-05 -6.839410E-05 
 +4.970335E-03 -8.726268E-05 +1.054481E-04 -8.726268E-05 +1.537587E-04 +1.110765E-04 +1.054481E-04 +1.110765E-04 +1.442199E-05 
 +4.985968E-03 -1.658395E-04 +6.155557E-05 -1.658395E-04 +5.999183E-05 +4.975291E-05 +6.155557E-05 +4.975291E-05 +7.720750E-06 
 +5.098501E-03 -9.220976E-05 -2.651235E-05 -9.220976E-05 -2.701553E-05 +7.244318E-05 -2.651235E-05 +7.244318E-05 -9.027833E-05 
 +5.097911E-03 +2.627488E-05 +2.818858E-05 +2.627488E-05 +7.731418E-05 +8.152200E-05 +2.818858E-05 +8.152200E-05 -2.678545E-04 
 +5.117088E-03 +3.582602E-05 +4.760611E-05 +3.582602E-05 +1.495115E-04 +4.255256E-05 +4.760611E-05 +4.255256E-05 -3.365720E-04 
 +5.067069E-03 -1.300957E-05 +4.823670E-05 -1.300957E-05 +2.240305E-04 +1.693637E-05 +4.823670E-05 +1.693637E-05 -2.758174E-04 
 +4.884269E-03 +4.307382E-05 -1.283809E-04 +4.307382E-05 +2.274998E-04 -2.524369E-05 -1.283809E-04 -2.524369E-05 -8.578244E-06 
 +4.881102E-03 +6.002270E-05 -1.629678E-04 +6.002270E-05 +1.550750E-04 -7.707541E-05 -1.629678E-04 -7.707541E-05 +7.060598E-05 
 +4.902523E-03 +7.366302E-05 -1.306988E-04 +7.366302E-05 +9.762655E-05 -1.116683E-04 -1.306988E-04 -1.116683E-04 +1.278809E-05 
 +4.902857E-03 +7.956387E-05 -1.631540E-04 +7.956387E-05 +4.419116E-05 -1.550094E-04 -1.631540E-04 -1.550094E-04 -1.994442E-05 
 +4.966262E-03 +8.473368E-05 -1.488222E-04 +8.473368E-05 -4.418754E-06 -1.249587E-04 -1.488222E-04 -1.249587E-04 -9.229684E-05 
 +5.055499E-03 -2.733872E-05 -1.616911E-04 -2.733872E-05 +1.793261E-05 -1.429034E-04 -1.616911E-04 -1.429034E-04 -1.416686E-04 
 +5.039865E-03 -1.235480E-04 -1.526113E-04 -1.235480E-04 +5.273955E-05 -2.641462E-04 -1.526113E-04 -2.641462E-04 -1.588799E-04 
 +5.040120E-03 -4.495497E-05 -1.399719E-04 -4.495497E-05 +5.070825E-05 -2.850216E-04 -1.399719E-04 -2.850216E-04 -1.592634E-04 
 +5.073754E-03 -2.398785E-06 -2.159035E-04 -2.398785E-06 +3.976858E-05 -1.947226E-04 -2.159035E-04 -1.947226E-04 -1.527709E-04 
 +5.088634E-03 +1.763794E-05 -1.195128E-04 +1.763794E-05 +9.580345E-05 -8.467357E-05 -1.195128E-04 -8.467357E-05 -8.086113E-05 
 +4.809744E-03 +1.753836E-04 -7.344109E-05 +1.753836E-04 +5.603988E-05 +6.970551E-05 -7.344109E-05 +6.970551E-05 +7.923351E-08 
 +4.945534E-03 +9.234954E-05 -1.730340E-05 +9.234954E-05 +1.139653E-05 +1.030868E-04 -1.730340E-05 +1.030868E-04 +1.068628E-04 
 +4.732895E-03 +1.959099E-04 +4.611182E-05 +1.959099E-04 +4.506501E-05 +9.696252E-06 +4.611182E-05 +9.696252E-06 +1.662011E-04 
 +4.972344E-03 +1.022218E-04 +2.015788E-04 +1.022218E-04 +4.093796E-06 +3.839420E-05 +2.015788E-04 +3.839420E-05 +1.237778E-04 
 +4.977262E-03 -3.125009E-05 +1.635739E-04 -3.125009E-05 -4.209131E-05 +1.059149E-04 +1.635739E-04 +1.059149E-04 +1.404961E-04 
 +5.001695E-03 -6.422308E-06 +1.267261E-04 -6.422308E-06 -2.033163E-04 +9.725619E-05 +1.267261E-04 +9.725619E-05 +2.021174E-04 
 +5.083218E-03 -9.991525E-05 +3.326930E-05 -9.991525E-05 -2.250842E-04 +6.083444E-05 +3.326930E-05 +6.083444E-05 +1.459523E-04 
 +5.048759E-03 -7.633891E-05 -1.727581E-05 -7.633891E-05 +9.321088E-05 +6.806289E-05 -1.727581E-05 +6.806289E-05 -1.220406E-04 
 +5.099281E-03 -2.859910E-05 +4.714683E-05 -2.859910E-05 +1.488855E-04 +7.857983E-05 +4.714683E-05 +7.857983E-05 -3.488693E-04 
 +5.117376E-03 -5.290503E-06 -6.302077E-06 -5.290503E-06 +1.921015E-04 +6.287121E-05 -6.302077E-06 +6.287121E-05 -3.463401E-04 
 +5.133717E-03 -5.393128E-05 -1.809909E-05 -5.393128E-05 +2.424698E-04 +7.665358E-06 -1.809909E-05 +7.665358E-06 -2.491080E-04 
 +4.999213E-03 +1.150712E-05 -1.672932E-04 +1.150712E-05 +2.022511E-04 -7.371718E-05 -1.672932E-04 -7.371718E-05 -4.119076E-05 
 +4.914647E-03 +6.456902E-05 -2.122549E-04 +6.456902E-05 +1.179637E-04 -8.819033E-05 -2.122549E-04 -8.819033E-05 +3.782122E-05 
 +4.911251E-03 +1.053947E-04 -1.497770E-04 +1.053947E-04 +7.418907E-05 -7.560501E-05 -1.497770E-04 -7.560501E-05 +9.791442E-06 
 +4.874218E-03 +1.192399E-04 -1.541263E-04 +1.192399E-04 +5.819112E-05 -1.093726E-04 -1.541263E-04 -1.093726E-04 -9.030122E-06 
 +4.921352E-03 +1.500961E-04 -1.326604E-04 +1.500961E-04 +1.501107E-05 -1.745554E-04 -1.326604E-04 -1.745554E-04 -2.960074E-05 
 +4.964330E-03 +8.192230E-05 -2.590185E-04 +8.192230E-05 +3.346889E-06 -1.421256E-04 -2.590185E-04 -1.421256E-04 +1.371833E-05 
 +4.945937E-03 -3.665691E-05 -1.302922E-04 -3.665691E-05 +9.075626E-05 -7.325594E-05 -1.302922E-04 -7.325594E-05 +3.541555E-05 
 +4.963552E-03 -4.734304E-05 -5.753679E-05 -4.734304E-05 +1.323412E-04 -1.585313E-04 -5.753679E-05 -1.585313E-04 -4.453205E-05 
 +5.063524E-03 -4.190869E-05 -1.316778E-04 -4.190869E-05 +3.997051E-05 -1.278024E-05 -1.316778E-04 -1.278024E-05 -5.826020E-05 
 +5.083552E-03 +2.593933E-05 -1.008803E-04 +2.593933E-05 -5.973781E-05 +2.729032E-04 -1.008803E-04 +2.729032E-04 +5.008976E-05 
 +4.926149E-03 +1.342032E-04 +2.816039E-05 +1.342032E-04 -6.296279E-05 +2.180436E-04 +2.816039E-05 +2.180436E-04 +1.005477E-04 
 +4.933240E-03 +8.031083E-05 +1.933817E-05 +8.031083E-05 -8.048960E-05 +9.422995E-05 +1.933817E-05 +9.422995E-05 +1.650790E-04 
 +4.905803E-03 +9.673534E-05 +7.710262E-05 +9.673534E-05 -1.804951E-04 +7.347069E-05 +7.710262E-05 +7.347069E-05 +2.665063E-04 
 +4.938477E-03 +5.246492E-05 +1.264387E-04 +5.246492E-05 -2.702301E-04 -1.824855E-05 +1.264387E-04 -1.824855E-05 +2.997286E-04 
 +4.973256E-03 -1.893079E-05 +7.167729E-05 -1.893079E-05 -3.229926E-04 -1.173103E-04 +7.167729E-05 -1.173103E-04 +2.746444E-04 
 +5.010502E-03 -2.170345E-05 +1.037610E-04 -2.170345E-05 -2.607539E-04 -6.990110E-05 +1.037610E-04 -6.990110E-05 +2.740437E-04 
 +5.010146E-03 -2.115161E-05 +3.484750E-05 -2.115161E-05 -6.528182E-05 +1.700838E-05 +3.484750E-05 +1.700838E-05 +1.870465E-04 
 +5.043618E-03 -6.003468E-05 +6.431248E-05 -6.003468E-05 +1.629474E-04 +7.164881E-05 +6.431248E-05 +7.164881E-05 -1.053526E-04 
 +5.095320E-03 -6.524327E-05 +6.507896E-06 -6.524327E-05 +9.661871E-05 +8.456151E-05 +6.507896E-06 +8.456151E-05 -1.896155E-04 
 +5.139369E-03 -1.379383E-05 -9.625378E-05 -1.379383E-05 -1.318561E-04 -7.586068E-06 -9.625378E-05 -7.586068E-06 -4.630572E-05 
 +5.196235E-03 -3.972893E-05 -1.132532E-04 -3.972893E-05 -2.812967E-04 -1.037603E-04 -1.132532E-04 -1.037603E-04 -3.682767E-06 
 +5.168997E-03 +1.302560E-05 -1.334835E-04 +1.302560E-05 -2.077746E-04 -1.537197E-04 -1.334835E-04 -1.537197E-04 -1.852608E-05 
 +4.997204E-03 +8.144653E-05 -1.756721E-04 +8.144653E-05 -2.852454E-05 -1.024126E-04 -1.756721E-04 -1.024126E-04 -4.546491E-06 
 +4.907905E-03 +1.103538E-04 -1.638423E-04 +1.103538E-04 +4.739292E-05 -7.007561E-05 -1.638423E-04 -7.007561E-05 -3.687670E-06 
 +4.882430E-03 +1.281791E-04 -1.377751E-04 +1.281791E-04 +5.636753E-05 -1.175283E-04 -1.377751E-04 -1.175283E-04 -9.594184E-06 
 +4.876798E-03 +1.375261E-04 -1.539378E-04 +1.375261E-04 +8.506522E-05 -1.738380E-04 -1.539378E-04 -1.738380E-04 +3.946628E-05 
 +4.886005E-03 +1.135758E-04 -2.320308E-04 +1.135758E-04 +1.138913E-04 -6.850799E-05 -2.320308E-04 -6.850799E-05 +1.340563E-04 
 +4.887188E-03 +7.119073E-05 -1.138917E-04 +7.119073E-05 +1.548220E-04 +1.195704E-04 -1.138917E-04 +1.195704E-04 +2.135154E-04 
 +4.863590E-03 +4.149183E-05 -1.282147E-05 +4.149183E-05 +1.555293E-04 +8.837701E-05 -1.282147E-05 +8.837701E-05 +1.723261E-04 
 +5.028048E-03 -5.040041E-06 +1.845850E-05 -5.040041E-06 +7.520305E-05 +5.733838E-05 +1.845850E-05 +5.733838E-05 +1.224417E-04 
 +5.025720E-03 +6.815466E-05 +1.094907E-05 +6.815466E-05 -2.570124E-06 +1.744830E-04 +1.094907E-05 +1.744830E-04 +1.850045E-04 
 +4.998614E-03 +1.351338E-04 +4.721568E-05 +1.351338E-04 -7.801472E-05 +1.371737E-04 +4.721568E-05 +1.371737E-04 +1.930576E-04 
 +4.958563E-03 +8.299738E-05 +1.449125E-05 +8.299738E-05 -1.366615E-04 +3.313915E-05 +1.449125E-05 +3.313915E-05 +1.976739E-04 
 +4.973715E-03 +8.206747E-05 +2.407919E-05 +8.206747E-05 -1.822026E-04 +1.265752E-05 +2.407919E-05 +1.265752E-05 +2.397581E-04 
 +4.965263E-03 +8.123956E-06 -6.136888E-05 +8.123956E-06 -2.315829E-04 -4.204695E-05 -6.136888E-05 -4.204695E-05 +2.782114E-04 
 +4.947887E-03 -7.593663E-05 -4.144573E-05 -7.593663E-05 -2.064364E-04 -1.170533E-04 -4.144573E-05 -1.170533E-04 +2.898544E-04 
 +4.938437E-03 -4.198131E-05 +8.079183E-05 -4.198131E-05 -1.162626E-04 -1.385973E-04 +8.079183E-05 -1.385973E-04 +2.601919E-04 
 +4.957415E-03 +5.391561E-06 +1.331962E-04 +5.391561E-06 +3.077960E-05 -5.502658E-05 +1.331962E-04 -5.502658E-05 +1.453650E-04 
 +5.007567E-03 -5.591044E-05 +9.527613E-05 -5.591044E-05 +6.629744E-05 +1.089987E-04 +9.527613E-05 +1.089987E-04 -2.829992E-04 
 +5.053163E-03 -3.546313E-05 +2.245509E-05 -3.546313E-05 +3.035753E-05 +3.410398E-05 +2.245509E-05 +3.410398E-05 -2.626745E-04 
 +5.122797E-03 -1.029734E-04 -6.938986E-05 -1.029734E-04 -1.700202E-04 -3.171281E-05 -6.938986E-05 -3.171281E-05 -6.572919E-05 
 +5.187895E-03 -8.813836E-05 -1.157434E-04 -8.813836E-05 -3.103770E-04 -8.064226E-05 -1.157434E-04 -8.064226E-05 +9.562310E-06 
 +5.181691E-03 -5.775334E-05 -7.298605E-05 -5.775334E-05 -2.891737E-04 -1.039845E-04 -7.298605E-05 -1.039845E-04 -2.371390E-05 
 +5.132131E-03 +9.959627E-06 -3.911055E-05 +9.959627E-06 -2.364026E-04 -1.245949E-04 -3.911055E-05 -1.245949E-04 -3.113753E-05 
 +5.000473E-03 +3.899105E-05 -8.671171E-05 +3.899105E-05 -1.251057E-04 -9.258629E-05 -8.671171E-05 -9.258629E-05 -1.807123E-05 
 +4.786347E-03 +1.518485E-05 +7.190807E-05 +1.518485E-05 +3.168662E-05 -4.929074E-05 +7.190807E-05 -4.929074E-05 +6.126364E-05 
 +4.795345E-03 +4.103612E-05 +7.577713E-05 +4.103612E-05 +1.231948E-04 -3.709030E-05 +7.577713E-05 -3.709030E-05 +1.415498E-04 
 +4.843703E-03 +4.948734E-07 +2.762032E-05 +4.948734E-07 +1.136128E-04 -3.385650E-06 +2.762032E-05 -3.385650E-06 +1.668102E-04 
 +4.873491E-03 -2.933589E-05 -4.699542E-05 -2.933589E-05 +3.806924E-05 +8.204358E-05 -4.699542E-05 +8.204358E-05 +2.145374E-04 
 +4.861506E-03 -6.548715E-05 -5.291696E-05 -6.548715E-05 -3.029452E-05 +1.798358E-04 -5.291696E-05 +1.798358E-04 +2.149131E-04 
 +4.900096E-03 -9.311175E-06 +6.576597E-05 -9.311175E-06 -6.913874E-05 +1.958876E-04 +6.576597E-05 +1.958876E-04 +2.465555E-04 
 +5.007440E-03 +6.555950E-05 +8.645179E-05 +6.555950E-05 -1.297129E-04 +1.502401E-04 +8.645179E-05 +1.502401E-04 +2.707773E-04 
 +5.090777E-03 +1.294372E-04 +5.268424E-05 +1.294372E-04 -1.921372E-04 +1.346224E-04 +5.268424E-05 +1.346224E-04 +2.131702E-04 
 +5.086814E-03 +1.306538E-04 -3.094795E-05 +1.306538E-04 -1.952511E-04 +7.307470E-05 -3.094795E-05 +7.307470E-05 +1.612781E-04 
 +5.035741E-03 +1.194811E-04 -2.403584E-05 +1.194811E-04 -1.821009E-04 +9.872160E-06 -2.403584E-05 +9.872160E-06 +1.726959E-04 
 +4.990051E-03 +7.701347E-05 -5.928512E-05 +7.701347E-05 -1.767786E-04 +5.906081E-05 -5.928512E-05 +5.906081E-05 +2.220114E-04 
 +4.937680E-03 +4.519315E-05 -5.319748E-05 +4.519315E-05 -9.571036E-05 +1.504890E-04 -5.319748E-05 +1.504890E-04 +2.127522E-04 
 +4.904983E-03 +1.200293E-04 +2.370457E-05 +1.200293E-04 -1.943864E-05 +2.181974E-04 +2.370457E-05 +2.181974E-04 +1.575906E-04 
 +4.938533E-03 +4.116517E-05 +1.297600E-04 +4.116517E-05 +1.706169E-05 +2.028326E-04 +1.297600E-04 +2.028326E-04 -3.586207E-05 
 +4.974251E-03 -4.210164E-05 +9.512887E-06 -4.210164E-05 -3.408900E-05 +1.215507E-05 +9.512887E-06 +1.215507E-05 -1.405695E-04 
 +5.049214E-03 -7.475205E-05 -3.675094E-05 -7.475205E-05 -2.409765E-04 -1.009771E-04 -3.675094E-05 -1.009771E-04 -4.134912E-05 
 +5.092278E-03 -1.374159E-04 -3.399889E-05 -1.374159E-04 -3.354580E-04 -9.658119E-05 -3.399889E-05 -9.658119E-05 +3.296653E-05 
 +5.125701E-03 -1.100498E-04 -4.342013E-05 -1.100498E-04 -3.063150E-04 -5.691473E-05 -4.342013E-05 -5.691473E-05 -5.002117E-05 
 +5.152547E-03 -6.478619E-05 -2.954374E-05 -6.478619E-05 -3.002319E-04 -7.042549E-05 -2.954374E-05 -7.042549E-05 -9.662426E-05 
 +5.138165E-03 -9.395688E-06 -1.199346E-05 -9.395688E-06 -2.849527E-04 -1.106645E-04 -1.199346E-05 -1.106645E-04 -8.542909E-05 
 +5.075556E-03 +4.462507E-05 +2.299023E-06 +4.462507E-05 -1.853248E-04 -7.459968E-05 +2.299023E-06 -7.459968E-05 -7.389819E-05 
 +4.799814E-03 +4.148615E-05 +1.037867E-04 +4.148615E-05 +2.983050E-05 -6.948926E-06 +1.037867E-04 -6.948926E-06 +2.176519E-05 
 +4.770523E-03 +4.940904E-05 +2.676162E-05 +4.940904E-05 +1.317081E-04 +8.685948E-06 +2.676162E-05 +8.685948E-06 +1.215254E-04 
 +4.830313E-03 +3.184713E-05 +7.332314E-06 +3.184713E-05 +8.659497E-05 +4.450096E-05 +7.332314E-06 +4.450096E-05 +1.691916E-04 
 +4.853357E-03 +4.164531E-06 -5.960677E-05 +4.164531E-06 +3.333829E-05 +6.519777E-05 -5.960677E-05 +6.519777E-05 +2.268551E-04 
 +4.876718E-03 -4.934722E-05 +8.216351E-06 -4.934722E-05 -1.458900E-05 +9.864366E-05 +8.216351E-06 +9.864366E-05 +1.899746E-04 
 +4.979060E-03 -6.119521E-05 +4.274589E-05 -6.119521E-05 -5.948922E-05 +1.742014E-04 +4.274589E-05 +1.742014E-04 +9.261651E-05 
 +5.063569E-03 +1.824178E-06 +1.022188E-04 +1.824178E-06 -1.153347E-04 +2.344298E-04 +1.022188E-04 +2.344298E-04 +7.716987E-05 
 +5.052285E-03 +1.182642E-04 +6.364698E-06 +1.182642E-04 -1.605504E-04 +2.220290E-04 +6.364698E-06 +2.220290E-04 +1.360838E-04 
 +5.032881E-03 +1.600285E-04 -1.453137E-04 +1.600285E-04 -1.563097E-04 +1.230925E-04 -1.453137E-04 +1.230925E-04 +1.506424E-04 
 +5.039551E-03 +1.247041E-04 -1.023871E-04 +1.247041E-04 -1.408751E-04 +5.640873E-05 -1.023871E-04 +5.640873E-05 +1.060857E-04 
 +5.011169E-03 +1.064883E-04 -4.971173E-05 +1.064883E-04 -1.014284E-04 +6.798147E-05 -4.971173E-05 +6.798147E-05 +7.584465E-05 
 +4.951494E-03 +1.114926E-04 -1.550568E-05 +1.114926E-04 -2.566979E-05 +1.185716E-04 -1.550568E-05 +1.185716E-04 +5.999977E-05 
 +4.921635E-03 +1.427593E-04 +1.747109E-05 +1.427593E-04 -2.345927E-05 +1.703745E-04 +1.747109E-05 +1.703745E-04 +4.745709E-05 
 +4.948100E-03 +1.116653E-04 +5.091589E-05 +1.116653E-04 -8.723639E-06 +1.456360E-04 +5.091589E-05 +1.456360E-04 -4.447626E-05 
 +4.977597E-03 -2.341249E-05 -1.464973E-06 -2.341249E-05 -2.092863E-04 +1.844387E-04 -1.464973E-06 +1.844387E-04 +1.028288E-04 
 +5.017185E-03 -1.001217E-04 +3.060248E-05 -1.001217E-04 -1.847436E-04 +2.273456E-04 +3.060248E-05 +2.273456E-04 +8.975383E-05 
 +5.024803E-03 -7.594357E-05 +3.757291E-05 -7.594357E-05 -1.751026E-04 +2.174269E-04 +3.757291E-05 +2.174269E-04 +4.525165E-05 
 +5.067961E-03 -5.654724E-05 +4.115378E-06 -5.654724E-05 -1.827143E-04 +1.804201E-04 +4.115378E-06 +1.804201E-04 +3.299237E-05 
 +5.104296E-03 -7.037816E-07 +3.447123E-05 -7.037816E-07 -1.985211E-04 +2.031672E-04 +3.447123E-05 +2.031672E-04 -2.005395E-06 
 +5.094259E-03 +4.593728E-05 +3.810117E-05 +4.593728E-05 -1.717584E-04 +2.393278E-04 +3.810117E-05 +2.393278E-04 -2.148895E-05 
 +5.033520E-03 +1.223248E-04 +8.613640E-05 +1.223248E-04 -8.341419E-05 +2.240754E-04 +8.613640E-05 +2.240754E-04 -1.395664E-05 
 +4.879052E-03 +8.254230E-05 +1.125121E-04 +8.254230E-05 +9.571437E-06 +1.305537E-04 +1.125121E-04 +1.305537E-04 +2.147563E-05 
 +4.843551E-03 +2.732074E-05 +6.056153E-06 +2.732074E-05 +8.803888E-05 -4.575922E-06 +6.056153E-06 -4.575922E-06 +8.528193E-05 
 +4.818824E-03 -1.616409E-05 +8.211930E-05 -1.616409E-05 +1.301849E-04 -3.254127E-05 +8.211930E-05 -3.254127E-05 +1.237595E-04 
 +4.854932E-03 -6.520142E-05 -1.397846E-05 -6.520142E-05 +8.690239E-05 +6.213873E-05 -1.397846E-05 +6.213873E-05 +1.670848E-04 
 +4.872602E-03 -9.110174E-05 +3.737664E-05 -9.110174E-05 -1.811261E-05 +1.362775E-04 +3.737664E-05 +1.362775E-04 +1.851866E-04 
 +4.976731E-03 -3.182704E-05 +2.556683E-05 -3.182704E-05 -3.374421E-05 +1.106300E-04 +2.556683E-05 +1.106300E-04 +3.745635E-05 
 +5.087608E-03 +1.836362E-07 +8.356888E-05 +1.836362E-07 +1.286907E-04 -1.329285E-06 +8.356888E-05 -1.329285E-06 -1.671950E-04 
 +5.068262E-03 -1.677941E-06 +1.635296E-05 -1.677941E-06 +1.454283E-04 -2.016409E-05 +1.635296E-05 -2.016409E-05 -1.464815E-04 
 +5.042185E-03 +9.805344E-05 -8.900007E-05 +9.805344E-05 -7.055936E-05 +9.402552E-05 -8.900007E-05 +9.402552E-05 -5.009032E-06 
 +5.028635E-03 +1.492265E-04 -1.771104E-04 +1.492265E-04 -1.696144E-04 +1.246815E-04 -1.771104E-04 +1.246815E-04 +4.079934E-05 
 +5.007947E-03 +1.464042E-04 -9.601632E-05 +1.464042E-04 -1.143453E-04 +9.438694E-05 -9.601632E-05 +9.438694E-05 +2.894189E-05 
 +4.992935E-03 +1.186695E-04 +4.292079E-06 +1.186695E-04 -8.421245E-05 +1.077561E-04 +4.292079E-06 +1.077561E-04 +5.275188E-05 
 +4.962542E-03 +1.240264E-04 +1.067124E-05 +1.240264E-04 -8.817674E-05 +1.332663E-04 +1.067124E-05 +1.332663E-04 +7.948359E-05 
 +4.982752E-03 +1.262626E-04 -4.192842E-05 +1.262626E-04 -1.554156E-04 +1.543259E-04 -4.192842E-05 +1.543259E-04 +8.751268E-05 
 +4.995695E-03 -5.393608E-05 +6.435454E-05 -5.393608E-05 -1.557716E-04 +1.784241E-04 +6.435454E-05 +1.784241E-04 +1.397846E-04 
 +4.995807E-03 -1.103275E-04 +1.397710E-04 -1.103275E-04 -1.935913E-04 +1.395245E-04 +1.397710E-04 +1.395245E-04 +1.184457E-04 
 +5.006472E-03 -5.109643E-05 +7.175284E-05 -5.109643E-05 -2.029525E-04 +1.754085E-04 +7.175284E-05 +1.754085E-04 +8.369748E-05 
 +5.041752E-03 -2.441054E-05 +2.639270E-05 -2.441054E-05 -1.995289E-04 +2.507813E-04 +2.639270E-05 +2.507813E-04 +1.240007E-04 
 +5.048448E-03 +5.746994E-05 +6.288009E-05 +5.746994E-05 -1.893852E-04 +3.203632E-04 +6.288009E-05 +3.203632E-04 +1.001261E-04 
 +5.004131E-03 +1.374162E-04 +4.746330E-05 +1.374162E-04 -1.212976E-04 +3.466090E-04 +4.746330E-05 +3.466090E-04 +6.115642E-05 
 +4.944229E-03 +2.064222E-04 +6.417605E-05 +2.064222E-04 -3.431664E-05 +3.487233E-04 +6.417605E-05 +3.487233E-04 +6.151951E-05 
 +4.929936E-03 +1.552785E-04 +2.203187E-05 +1.552785E-04 +3.078461E-05 +2.637718E-04 +2.203187E-05 +2.637718E-04 +7.682933E-05 
 +4.880274E-03 +5.184064E-05 +2.607864E-05 +5.184064E-05 +5.972585E-05 +1.048473E-04 +2.607864E-05 +1.048473E-04 +1.524828E-04 
 +4.830437E-03 +1.496924E-05 +9.304168E-05 +1.496924E-05 +1.249271E-04 -1.322933E-04 +9.304168E-05 -1.322933E-04 +2.357215E-04 
 +4.892476E-03 -5.653367E-05 +3.243747E-05 -5.653367E-05 +1.970968E-04 -3.320641E-04 +3.243747E-05 -3.320641E-04 +2.214331E-04 
 +4.883518E-03 -8.591607E-05 +8.149594E-05 -8.591607E-05 +2.380006E-04 -2.614852E-04 +8.149594E-05 -2.614852E-04 +1.242538E-04 
 +4.929758E-03 -1.958527E-05 +3.725297E-05 -1.958527E-05 +2.803469E-04 -7.697213E-05 +3.725297E-05 -7.697213E-05 -1.979774E-05 
 +5.056162E-03 +2.208370E-05 +3.546699E-05 +2.208370E-05 +2.208737E-04 -3.981392E-05 +3.546699E-05 -3.981392E-05 -1.809664E-04 
 +5.075760E-03 -4.185031E-05 +1.626394E-05 -4.185031E-05 +2.027435E-04 -1.003225E-04 +1.626394E-05 -1.003225E-04 -2.326228E-04 
 +5.074794E-03 -3.877418E-05 -1.512669E-06 -3.877418E-05 +2.115895E-04 -1.553842E-04 -1.512669E-06 -1.553842E-04 -2.186378E-04 
 +5.052443E-03 +4.848170E-05 -1.182724E-04 +4.848170E-05 +7.035224E-05 -1.033419E-04 -1.182724E-04 -1.033419E-04 -1.190088E-04 
 +5.015763E-03 +1.176953E-04 -1.373914E-04 +1.176953E-04 -8.719287E-05 +4.463767E-05 -1.373914E-04 +4.463767E-05 +5.067944E-05 
 +5.014589E-03 +9.196405E-05 -4.568571E-05 +9.196405E-05 -1.542880E-04 +8.883002E-05 -4.568571E-05 +8.883002E-05 +1.093969E-04 
 +5.024599E-03 +1.091306E-04 +1.531759E-05 +1.091306E-04 -1.619308E-04 +1.342502E-04 +1.531759E-05 +1.342502E-04 +9.603367E-05 
 +5.041234E-03 +7.023539E-05 -3.835695E-05 +7.023539E-05 -1.455873E-04 +2.127795E-04 -3.835695E-05 +2.127795E-04 +1.063073E-04 
 +5.042816E-03 -7.760535E-05 +7.299816E-05 -7.760535E-05 -1.708189E-04 +2.651948E-04 +7.299816E-05 +2.651948E-04 +3.031624E-05 
 +4.977987E-03 -1.431642E-04 +1.966403E-04 -1.431642E-04 -1.905014E-04 +2.181888E-04 +1.966403E-04 +2.181888E-04 +7.430648E-05 
 +5.012567E-03 -8.682380E-05 +1.394115E-04 -8.682380E-05 -2.261796E-04 +2.394598E-04 +1.394115E-04 +2.394598E-04 +3.180890E-05 
 +5.030423E-03 -5.008498E-05 +7.238757E-05 -5.008498E-05 -2.384740E-04 +3.222654E-04 +7.238757E-05 +3.222654E-04 +5.822710E-06 
 +4.994488E-03 +3.709163E-05 +1.195453E-05 +3.709163E-05 -2.147612E-04 +3.641850E-04 +1.195453E-05 +3.641850E-04 +3.411640E-05 
 +4.911025E-03 +1.643196E-04 +2.424670E-05 +1.643196E-04 -1.412716E-04 +3.796947E-04 +2.424670E-05 +3.796947E-04 +9.829559E-05 
 +4.871181E-03 +1.938776E-04 -7.531015E-06 +1.938776E-04 -1.117290E-04 +3.780468E-04 -7.531015E-06 +3.780468E-04 +1.490654E-04 
 +4.944233E-03 +1.138639E-04 -7.795627E-05 +1.138639E-04 -2.101552E-04 +2.945259E-04 -7.795627E-05 +2.945259E-04 +1.755440E-04 
 +4.918950E-03 +7.473368E-05 +7.904255E-05 +7.473368E-05 -2.151384E-04 +2.112205E-04 +7.904255E-05 +2.112205E-04 +2.814112E-04 
 +4.880411E-03 +7.501585E-05 +1.342256E-04 +7.501585E-05 -1.422467E-04 +1.978214E-04 +1.342256E-04 +1.978214E-04 +4.246759E-04 
 +4.900692E-03 +1.759998E-05 +2.069601E-05 +1.759998E-05 +2.358828E-05 +1.099314E-04 +2.069601E-05 +1.099314E-04 +3.678956E-04 
 +4.898925E-03 -1.896421E-05 +5.758156E-05 -1.896421E-05 +2.912942E-04 -7.764091E-05 +5.758156E-05 -7.764091E-05 +1.449270E-04 
 +4.927749E-03 -8.737731E-06 +5.772543E-05 -8.737731E-06 +3.226015E-04 -1.845588E-04 +5.772543E-05 -1.845588E-04 -3.014132E-05 
 +4.977240E-03 +9.681447E-06 +3.429089E-05 +9.681447E-06 +2.072046E-04 -1.955626E-04 +3.429089E-05 -1.955626E-04 -1.270806E-04 
 +5.041076E-03 -2.896398E-05 +1.512290E-05 -2.896398E-05 +1.462394E-04 -1.100520E-04 +1.512290E-05 -1.100520E-04 -1.626479E-04 
 +5.066455E-03 -5.509911E-05 -4.001672E-05 -5.509911E-05 +1.115036E-04 -4.861156E-05 -4.001672E-05 -4.861156E-05 -2.089083E-04 
 +5.087206E-03 -5.126245E-05 -6.785623E-05 -5.126245E-05 +2.672324E-05 -6.453879E-05 -6.785623E-05 -6.453879E-05 -1.499121E-04 
 +5.058769E-03 +4.229869E-05 -1.075975E-04 +4.229869E-05 -9.776195E-05 -4.274496E-06 -1.075975E-04 -4.274496E-06 +1.253964E-05 
 +5.057293E-03 +8.766825E-05 -5.801389E-05 +8.766825E-05 -1.413694E-04 +1.319747E-04 -5.801389E-05 +1.319747E-04 +4.830213E-05 
 +5.066044E-03 +1.096679E-04 +2.342175E-05 +1.096679E-04 -1.470396E-04 +2.287282E-04 +2.342175E-05 +2.287282E-04 +3.204448E-05 
 +5.072770E-03 +5.955303E-05 -4.555785E-06 +5.955303E-05 -1.617247E-04 +2.760404E-04 -4.555785E-06 +2.760404E-04 +7.638271E-06 
 +5.080198E-03 -9.462893E-05 +5.954473E-05 -9.462893E-05 -1.283038E-04 +2.905508E-04 +5.954473E-05 +2.905508E-04 -7.055998E-05 
 +4.990959E-03 -1.771504E-04 +1.770588E-04 -1.771504E-04 -6.080418E-05 +2.827148E-04 +1.770588E-04 +2.827148E-04 -4.154568E-05 
 +5.017476E-03 -1.227644E-04 +1.473547E-04 -1.227644E-04 -1.023781E-04 +3.218357E-04 +1.473547E-04 +3.218357E-04 -5.790825E-05 
 +5.005967E-03 -4.219462E-05 +6.048838E-05 -4.219462E-05 -1.207349E-04 +3.871431E-04 +6.048838E-05 +3.871431E-04 -5.969286E-05 
 +4.956089E-03 +2.256513E-05 -2.293471E-05 +2.256513E-05 -1.325005E-04 +4.122100E-04 -2.293471E-05 +4.122100E-04 +7.225287E-05 
 +4.736798E-03 +1.204510E-04 -5.525478E-05 +1.204510E-04 -2.370108E-04 +3.637524E-04 -5.525478E-05 +3.637524E-04 +3.150171E-04 
 +4.814877E-03 +1.056879E-04 -7.436197E-05 +1.056879E-04 -2.742332E-04 +2.811441E-04 -7.436197E-05 +2.811441E-04 +3.806060E-04 
 +4.956082E-03 +2.116087E-05 +3.681115E-05 +2.116087E-05 -2.178526E-04 +2.368507E-04 +3.681115E-05 +2.368507E-04 +2.849782E-04 
 +4.979033E-03 +2.504999E-05 +1.232684E-04 +2.504999E-05 -1.976446E-04 +2.291736E-04 +1.232684E-04 +2.291736E-04 +3.036758E-04 
 +4.930019E-03 +8.957253E-06 +1.931543E-04 +8.957253E-06 -1.532053E-04 +1.635544E-04 +1.931543E-04 +1.635544E-04 +4.144962E-04 
 +4.928028E-03 +3.391597E-05 +9.689130E-05 +3.391597E-05 -1.069446E-04 +6.515981E-05 +9.689130E-05 +6.515981E-05 +4.198706E-04 
 +4.972328E-03 +5.706493E-05 -8.304034E-06 +5.706493E-05 -3.109376E-05 -8.407995E-06 -8.304034E-06 -8.407995E-06 +2.488197E-04 
 +4.967693E-03 -1.242874E-05 +1.174384E-06 -1.242874E-05 +1.725133E-04 -8.505223E-05 +1.174384E-06 -8.505223E-05 -1.464550E-05 
 +4.897197E-03 -2.206725E-05 +5.646411E-05 -2.206725E-05 +2.562833E-04 -7.326255E-05 +5.646411E-05 -7.326255E-05 -1.623388E-04 
 +5.027299E-03 -1.509621E-05 +4.944210E-05 -1.509621E-05 +1.684060E-04 +1.679731E-05 +4.944210E-05 +1.679731E-05 -1.570146E-04 
 +5.064893E-03 -5.245697E-06 -9.816168E-05 -5.245697E-06 +1.089402E-04 +4.057944E-05 -9.816168E-05 +4.057944E-05 -1.553063E-04 
 +5.070511E-03 -6.976429E-05 -1.055282E-04 -6.976429E-05 +2.671317E-05 +6.286294E-05 -1.055282E-04 +6.286294E-05 -1.355700E-04 
 +5.100277E-03 +2.327549E-05 -5.996186E-05 +2.327549E-05 -1.179993E-04 +1.533398E-04 -5.996186E-05 +1.533398E-04 -9.064295E-05 
 +5.074934E-03 +8.408564E-05 -6.746621E-05 +8.408564E-05 -2.146680E-04 +2.089595E-04 -6.746621E-05 +2.089595E-04 -9.005743E-05 
 +5.069858E-03 +9.971827E-05 +4.163939E-08 +9.971827E-05 -1.874084E-04 +2.487889E-04 +4.163939E-08 +2.487889E-04 -8.467556E-05 
 +5.097746E-03 +9.737349E-06 +1.147259E-05 +9.737349E-06 -1.645083E-04 +2.911788E-04 +1.147259E-05 +2.911788E-04 -9.525282E-05 
 +5.134755E-03 -8.421279E-05 -7.653203E-06 -8.421279E-05 -1.757736E-04 +2.780110E-04 -7.653203E-06 +2.780110E-04 -9.791052E-05 
 +5.088760E-03 -1.413464E-04 +1.141488E-04 -1.413464E-04 -1.249466E-04 +2.995821E-04 +1.141488E-04 +2.995821E-04 -1.721574E-04 
 +5.014076E-03 -1.081729E-04 +1.181213E-04 -1.081729E-04 -4.789511E-05 +4.124616E-04 +1.181213E-04 +4.124616E-04 -1.497482E-04 
 +4.964949E-03 -3.906346E-06 +3.656397E-05 -3.906346E-06 -3.538441E-06 +5.122437E-04 +3.656397E-05 +5.122437E-04 -4.479554E-05 
 +4.752841E-03 -6.853171E-05 -2.100530E-05 -6.853171E-05 +2.935730E-05 +4.618700E-04 -2.100530E-05 +4.618700E-04 +1.894128E-04 
 +4.490176E-03 -1.008217E-04 -1.135864E-04 -1.008217E-04 -6.072776E-06 +3.200569E-04 -1.135864E-04 +3.200569E-04 +4.527812E-04 
 +4.874561E-03 -3.853727E-06 -4.196785E-05 -3.853727E-06 -1.227542E-04 +2.767281E-04 -4.196785E-05 +2.767281E-04 +4.017638E-04 
 +5.011632E-03 +1.838012E-06 +1.341829E-04 +1.838012E-06 -1.957686E-04 +2.267351E-04 +1.341829E-04 +2.267351E-04 +2.517040E-04 
 +4.999208E-03 +1.349285E-05 +1.360367E-04 +1.349285E-05 -1.804756E-04 +1.383875E-04 +1.360367E-04 +1.383875E-04 +2.639676E-04 
 +4.978653E-03 -1.140535E-06 +1.095490E-04 -1.140535E-06 -1.826517E-04 +8.268201E-05 +1.095490E-04 +8.268201E-05 +3.182181E-04 
 +5.004995E-03 -5.186775E-06 +1.210784E-04 -5.186775E-06 -2.122798E-04 -1.098624E-05 +1.210784E-04 -1.098624E-05 +3.334674E-04 
 +5.052658E-03 +1.092568E-04 +6.553915E-05 +1.092568E-04 -9.938398E-05 -1.118150E-04 +6.553915E-05 -1.118150E-04 +2.107451E-04 
 +5.051279E-03 +8.196252E-05 +3.747288E-05 +8.196252E-05 +1.143071E-04 -1.839592E-04 +3.747288E-05 -1.839592E-04 -1.254338E-05 
 +4.980041E-03 -5.041946E-06 +1.023044E-04 -5.041946E-06 +1.713228E-04 -1.528312E-04 +1.023044E-04 -1.528312E-04 -9.919400E-05 
 +4.990035E-03 +4.509138E-05 +7.173551E-05 +4.509138E-05 +1.379196E-04 -3.542404E-05 +7.173551E-05 -3.542404E-05 -1.014028E-04 
 +4.989459E-03 -1.416513E-06 -8.066356E-05 -1.416513E-06 +1.161744E-04 +1.158306E-04 -8.066356E-05 +1.158306E-04 -9.921459E-05 
 +5.004026E-03 -1.645102E-04 -1.363780E-04 -1.645102E-04 +3.639264E-05 +1.817548E-04 -1.363780E-04 +1.817548E-04 -9.993935E-05 
 +5.064986E-03 -9.790855E-05 -8.988460E-05 -9.790855E-05 -1.628131E-05 +1.160799E-04 -8.988460E-05 +1.160799E-04 -1.383458E-04 
 +5.054312E-03 -5.283510E-05 -1.429132E-04 -5.283510E-05 -5.884981E-05 +1.150878E-04 -1.429132E-04 +1.150878E-04 -1.536517E-04 
 +5.114985E-03 +4.079902E-05 -4.736018E-05 +4.079902E-05 -1.324948E-04 +2.344514E-04 -4.736018E-05 +2.344514E-04 -1.300784E-04 
 +5.121799E-03 -5.104145E-05 -2.543245E-05 -5.104145E-05 -1.719925E-04 +3.035987E-04 -2.543245E-05 +3.035987E-04 -8.898849E-05 
 +5.172726E-03 -9.360141E-05 -9.542901E-06 -9.360141E-05 -3.775047E-04 +2.437607E-04 -9.542901E-06 +2.437607E-04 -1.801329E-04 
 +5.174506E-03 -1.272741E-04 +3.514821E-05 -1.272741E-04 -1.933817E-04 +3.945311E-04 +3.514821E-05 +3.945311E-04 -3.192217E-04 
 +5.058609E-03 -1.210911E-04 +5.247857E-05 -1.210911E-04 +4.139341E-05 +5.074536E-04 +5.247857E-05 +5.074536E-04 -1.986523E-04 
 +4.819503E-03 -7.903121E-05 +3.046305E-06 -7.903121E-05 +1.654581E-04 +4.554411E-04 +3.046305E-06 +4.554411E-04 +3.376600E-05 
 +4.494047E-03 -1.480667E-04 -4.245141E-05 -1.480667E-04 +1.776764E-04 +2.083719E-04 -4.245141E-05 +2.083719E-04 +2.849142E-04 
 +4.427228E-03 -1.273250E-04 -9.049110E-05 -1.273250E-04 +2.916815E-05 +1.008129E-04 -9.049110E-05 +1.008129E-04 +3.921589E-04 
 +4.951116E-03 +2.841823E-05 -2.516548E-05 +2.841823E-05 -1.661279E-04 +1.527037E-04 -2.516548E-05 +1.527037E-04 +2.251489E-04 
 +5.052882E-03 +4.822621E-05 +6.520541E-05 +4.822621E-05 -1.957696E-04 +1.476417E-04 +6.520541E-05 +1.476417E-04 +1.372228E-04 
 +5.015079E-03 +3.579431E-05 +9.828916E-05 +3.579431E-05 -1.737728E-04 +1.015348E-04 +9.828916E-05 +1.015348E-04 +2.157001E-04 
 +5.011531E-03 -9.816720E-06 +6.831424E-05 -9.816720E-06 -1.939774E-04 +2.944679E-05 +6.831424E-05 +2.944679E-05 +2.609291E-04 
 +5.050382E-03 -2.455414E-05 +8.077474E-05 -2.455414E-05 -2.320656E-04 -4.700096E-05 +8.077474E-05 -4.700096E-05 +2.169032E-04 
 +5.140490E-03 +1.163513E-04 +1.703690E-04 +1.163513E-04 -3.572343E-04 -1.015971E-04 +1.703690E-04 -1.015971E-04 +1.366939E-04 
 +5.202061E-03 +1.689833E-04 +1.351893E-04 +1.689833E-04 -3.825920E-04 -1.368185E-04 +1.351893E-04 -1.368185E-04 +7.928413E-05 
 +5.032617E-03 -2.612814E-05 +1.431662E-04 -2.612814E-05 -2.131865E-04 -1.416550E-04 +1.431662E-04 -1.416550E-04 +3.403482E-05 
 +4.937289E-03 -3.210833E-05 +1.146814E-04 -3.210833E-05 -7.935813E-05 -6.577802E-05 +1.146814E-04 -6.577802E-05 +1.291693E-07 
 +4.886798E-03 -5.942598E-05 +4.608827E-05 -5.942598E-05 -9.033850E-06 +8.529001E-05 +4.608827E-05 +8.529001E-05 -1.009129E-06 
 +4.924848E-03 -1.984488E-04 -1.211801E-04 -1.984488E-04 +5.939789E-05 +1.840503E-04 -1.211801E-04 +1.840503E-04 -4.443218E-05 
 +5.013181E-03 -1.184299E-04 -1.854825E-04 -1.184299E-04 +3.023776E-05 +1.471081E-04 -1.854825E-04 +1.471081E-04 -1.404357E-04 
 +5.051213E-03 -7.850621E-05 -1.667829E-04 -7.850621E-05 -1.067500E-04 +8.072651E-05 -1.667829E-04 +8.072651E-05 -1.597436E-04 
 +5.160671E-03 -7.685710E-06 -1.094978E-04 -7.685710E-06 -2.559239E-04 +8.933118E-05 -1.094978E-04 +8.933118E-05 -6.965913E-05 
 +5.161351E-03 -8.894613E-05 -4.548778E-05 -8.894613E-05 -3.752792E-04 +1.403046E-04 -4.548778E-05 +1.403046E-04 -2.618337E-05 
 +5.183147E-03 -1.040275E-04 -3.878595E-07 -1.040275E-04 +4.141075E-05 +3.324416E-04 -3.878595E-07 +3.324416E-04 -4.242507E-04 
 +5.122220E-03 -1.691499E-04 -4.384434E-05 -1.691499E-04 +1.534276E-04 +4.155618E-04 -4.384434E-05 +4.155618E-04 -4.984978E-04 
 +5.043084E-03 -2.578764E-04 -5.293756E-05 -2.578764E-04 +2.418191E-04 +3.441449E-04 -5.293756E-05 +3.441449E-04 -3.524989E-04 
 +4.763291E-03 -2.583707E-04 -1.251825E-04 -2.583707E-04 +2.998997E-04 +1.615615E-04 -1.251825E-04 +1.615615E-04 -8.518638E-05 
 +4.531559E-03 -1.834218E-04 -1.195042E-04 -1.834218E-04 +2.481365E-04 +3.846925E-05 -1.195042E-04 +3.846925E-05 +1.626115E-04 
 +4.487886E-03 -1.663893E-04 -1.142598E-04 -1.663893E-04 +1.585331E-04 +3.395046E-05 -1.142598E-04 +3.395046E-05 +2.523635E-04 
 +4.914212E-03 -4.558568E-05 -8.975946E-05 -4.558568E-05 -4.010214E-05 +1.034846E-04 -8.975946E-05 +1.034846E-04 +2.080377E-04 
 +5.042967E-03 +5.020835E-05 -1.705568E-05 +5.020835E-05 -2.313883E-04 +1.202327E-04 -1.705568E-05 +1.202327E-04 +1.534302E-04 
 +5.042180E-03 +4.504245E-05 +5.107062E-05 +4.504245E-05 -2.630817E-04 +5.565981E-05 +5.107062E-05 +5.565981E-05 +1.907830E-04 
 +5.042000E-03 -9.816705E-06 +4.988162E-05 -9.816705E-06 -2.758216E-04 -1.932296E-05 +4.988162E-05 -1.932296E-05 +2.421124E-04 
 +5.099359E-03 -2.350779E-05 +6.108384E-05 -2.350779E-05 -3.350375E-04 -1.218603E-04 +6.108384E-05 -1.218603E-04 +1.905101E-04 
 +5.185794E-03 +6.817096E-05 +2.254487E-04 +6.817096E-05 -3.896772E-04 -2.029392E-04 +2.254487E-04 -2.029392E-04 +1.612608E-04 
 +5.246898E-03 +1.453551E-04 +2.243195E-04 +1.453551E-04 -3.938492E-04 -1.970755E-04 +2.243195E-04 -1.970755E-04 +1.629266E-04 
 +5.045361E-03 -1.562977E-05 +2.092657E-04 -1.562977E-05 -2.756481E-04 -1.680210E-04 +2.092657E-04 -1.680210E-04 +7.383181E-05 
 +4.956022E-03 -7.506839E-06 +1.527551E-04 -7.506839E-06 -1.137587E-04 -1.105175E-04 +1.527551E-04 -1.105175E-04 +3.288835E-05 
 +4.915505E-03 +4.738942E-06 +1.143067E-04 +4.738942E-06 -3.759724E-05 -5.612243E-05 +1.143067E-04 -5.612243E-05 +3.819538E-05 
 +4.917911E-03 -6.496863E-05 +1.448901E-05 -6.496863E-05 -1.833281E-06 +3.493916E-06 +1.448901E-05 +3.493916E-06 -3.923505E-07 
 +4.993983E-03 -2.263645E-05 -2.136501E-04 -2.263645E-05 +3.182907E-05 +1.313137E-04 -2.136501E-04 +1.313137E-04 -1.026346E-04 
 +5.015108E-03 -5.830204E-05 -2.007236E-04 -5.830204E-05 -4.347013E-05 +1.366490E-04 -2.007236E-04 +1.366490E-04 -1.832616E-04 
 +5.106596E-03 -4.312277E-05 -1.296769E-04 -4.312277E-05 -2.486341E-04 +1.008999E-04 -1.296769E-04 +1.008999E-04 -1.146228E-04 
 +5.082952E-03 -6.510328E-05 -5.424338E-05 -6.510328E-05 -2.142962E-04 +1.988220E-04 -5.424338E-05 +1.988220E-04 -1.783798E-04 
 +5.140871E-03 -5.507203E-05 -3.939484E-06 -5.507203E-05 +2.578367E-04 +2.035899E-04 -3.939484E-06 +2.035899E-04 -3.347573E-04 
 +5.056566E-03 -1.324681E-04 -6.645461E-05 -1.324681E-04 +3.096542E-04 +3.297044E-04 -6.645461E-05 +3.297044E-04 -3.246024E-04 
 +4.967305E-03 -1.886192E-04 -1.614520E-04 -1.886192E-04 +2.857462E-04 +3.002214E-04 -1.614520E-04 +3.002214E-04 -2.851696E-04 
 +4.857324E-03 -1.928235E-04 -2.155250E-04 -1.928235E-04 +1.996810E-04 +2.227215E-04 -2.155250E-04 +2.227215E-04 -1.437176E-04 
 +4.657963E-03 -1.723220E-04 -1.491057E-04 -1.723220E-04 +2.026493E-04 +1.506362E-04 -1.491057E-04 +1.506362E-04 -1.392009E-05 
 +4.646785E-03 -1.543167E-04 -7.712887E-05 -1.543167E-04 +1.894538E-04 +6.810700E-05 -7.712887E-05 +6.810700E-05 +8.505846E-05 
 +4.888667E-03 -3.384331E-05 -5.211905E-05 -3.384331E-05 +6.830086E-05 +3.556861E-05 -5.211905E-05 +3.556861E-05 +1.575499E-04 
 +4.964757E-03 +7.204242E-05 -5.709429E-05 +7.204242E-05 -1.842172E-04 +8.316187E-05 -5.709429E-05 +8.316187E-05 +1.424641E-04 
 +5.044846E-03 +1.109850E-04 +1.167907E-05 +1.109850E-04 -3.829774E-04 +9.928590E-05 +1.167907E-05 +9.928590E-05 +1.659660E-04 
 +5.047195E-03 +1.429432E-05 +2.768873E-05 +1.429432E-05 -4.344704E-04 +3.357250E-05 +2.768873E-05 +3.357250E-05 +1.986069E-04 
 +5.103998E-03 -4.147896E-05 +5.566156E-05 -4.147896E-05 -4.399902E-04 -8.374344E-05 +5.566156E-05 -8.374344E-05 +1.360698E-04 
 +5.135163E-03 +3.248582E-05 +2.346088E-04 +3.248582E-05 -3.735931E-04 -1.185607E-04 +2.346088E-04 -1.185607E-04 +9.657415E-05 
 +5.191900E-03 +6.570586E-05 +2.117210E-04 +6.570586E-05 -3.445551E-04 -7.658699E-05 +2.117210E-04 -7.658699E-05 +6.942275E-05 
 +5.142099E-03 +8.857280E-06 +1.768390E-04 +8.857280E-06 -3.056665E-04 -1.360697E-04 +1.768390E-04 -1.360697E-04 +5.502571E-05 
 +5.039858E-03 -7.671550E-06 +1.964015E-04 -7.671550E-06 -1.963581E-04 -1.575352E-04 +1.964015E-04 -1.575352E-04 +9.656004E-05 
 +5.037275E-03 -9.365471E-06 +1.341285E-04 -9.365471E-06 -1.292145E-04 -6.486367E-05 +1.341285E-04 -6.486367E-05 +7.673480E-05 
 +5.032836E-03 -3.066516E-05 +1.222803E-04 -3.066516E-05 -6.575649E-05 -1.372753E-05 +1.222803E-04 -1.372753E-05 +7.492074E-05 
 +4.946659E-03 +4.529613E-05 -2.001062E-04 +4.529613E-05 +1.822523E-05 -1.875406E-06 -2.001062E-04 -1.875406E-06 -1.296460E-06 
 +4.946850E-03 -4.420581E-05 -2.288908E-04 -4.420581E-05 +1.274607E-04 -4.697109E-05 -2.288908E-04 -4.697109E-05 -9.242325E-05 
 +4.961114E-03 -4.847176E-05 -1.113847E-04 -4.847176E-05 +2.833000E-04 -1.144854E-04 -1.113847E-04 -1.144854E-04 -1.314581E-04 
 +4.927984E-03 -4.259349E-06 -7.792680E-05 -4.259349E-06 +3.226216E-04 -2.067428E-05 -7.792680E-05 -2.067428E-05 -2.726065E-04 
 +5.022686E-03 -6.690786E-05 +1.012667E-05 -6.690786E-05 +8.807147E-05 -1.187770E-04 +1.012667E-05 -1.187770E-04 -7.955249E-05 
 +5.089513E-03 -4.959222E-05 -5.439915E-05 -4.959222E-05 +7.951246E-05 -1.580756E-04 -5.439915E-05 -1.580756E-04 -6.012493E-05 
 +4.904439E-03 -2.102421E-04 -1.521811E-04 -2.102421E-04 +1.329479E-04 -1.018891E-05 -1.521811E-04 -1.018891E-05 -2.644685E-05 
 +4.854067E-03 -2.659315E-04 -8.629512E-05 -2.659315E-04 +5.963183E-05 +6.872383E-05 -8.629512E-05 +6.872383E-05 -8.439511E-05 
 +4.874852E-03 -1.180487E-04 -1.250951E-05 -1.180487E-04 +4.467627E-05 +8.055091E-05 -1.250951E-05 +8.055091E-05 -2.129609E-04 
 +4.911542E-03 -3.339457E-05 +2.346808E-06 -3.339457E-05 +1.914675E-04 +9.331312E-05 +2.346808E-06 +9.331312E-05 -1.903525E-04 
 +4.923077E-03 +3.360819E-05 +8.846103E-06 +3.360819E-05 +3.287035E-04 +6.061605E-05 +8.846103E-06 +6.061605E-05 -1.449789E-04 
 +4.911348E-03 +1.332794E-04 -4.316137E-05 +1.332794E-04 +3.710641E-04 +8.877134E-05 -4.316137E-05 +8.877134E-05 -1.256804E-04 
 +4.982387E-03 +2.058174E-04 -3.020236E-05 +2.058174E-04 +2.651312E-04 +1.841579E-04 -3.020236E-05 +1.841579E-04 -5.029620E-05 
 +5.011361E-03 +1.481981E-04 +5.056540E-05 +1.481981E-04 +1.420631E-04 +2.387577E-04 +5.056540E-05 +2.387577E-04 +2.583786E-05 
 +5.015390E-03 +1.027033E-04 +1.052229E-04 +1.027033E-04 +1.448727E-04 +1.621719E-04 +1.052229E-04 +1.621719E-04 +8.507533E-06 
 +5.014663E-03 +1.565466E-04 +1.531647E-04 +1.565466E-04 +1.574777E-04 -1.749208E-05 +1.531647E-04 -1.749208E-05 -8.317855E-05 
 +5.124372E-03 +8.115363E-05 +4.613089E-05 +8.115363E-05 +5.907975E-05 -1.917473E-04 +4.613089E-05 -1.917473E-04 -2.115035E-04 
 +5.155879E-03 +1.949083E-05 +3.154933E-05 +1.949083E-05 -1.100261E-04 -2.315766E-04 +3.154933E-05 -2.315766E-04 -1.712465E-04 
 +5.102445E-03 -3.463580E-05 +1.336428E-04 -3.463580E-05 -1.898024E-04 -1.749397E-04 +1.336428E-04 -1.749397E-04 +3.211813E-05 
 +5.124681E-03 -9.211321E-05 +1.697170E-04 -9.211321E-05 -2.036127E-04 -1.065467E-04 +1.697170E-04 -1.065467E-04 +8.409933E-05 
 +5.180738E-03 -1.084302E-04 +1.855547E-04 -1.084302E-04 -1.453169E-04 -4.319137E-05 +1.855547E-04 -4.319137E-05 +9.349373E-05 
 +4.912627E-03 -3.833607E-05 -1.975725E-04 -3.833607E-05 -8.555558E-06 -3.044497E-05 -1.975725E-04 -3.044497E-05 +9.933041E-05 
 +4.872985E-03 -1.038951E-04 -2.224110E-04 -1.038951E-04 +1.284610E-04 -5.130433E-05 -2.224110E-04 -5.130433E-05 +7.596631E-05 
 +4.848963E-03 -7.282715E-05 -1.104327E-04 -7.282715E-05 +2.387902E-04 -7.398930E-05 -1.104327E-04 -7.398930E-05 -4.898732E-05 
 +4.900162E-03 -8.345556E-05 -4.720841E-05 -8.345556E-05 +2.090528E-04 -6.360354E-05 -4.720841E-05 -6.360354E-05 -1.546168E-04 
 +4.978246E-03 -3.181090E-05 -3.198330E-05 -3.181090E-05 +2.352565E-05 -1.653876E-04 -3.198330E-05 -1.653876E-04 -6.682439E-05 
 +5.079062E-03 +4.603296E-05 -3.255342E-07 +4.603296E-05 +2.082247E-06 -1.754303E-04 -3.255342E-07 -1.754303E-04 -7.643168E-05 
 +4.864076E-03 -1.225800E-04 +1.182059E-05 -1.225800E-04 +8.477033E-06 +3.321416E-06 +1.182059E-05 +3.321416E-06 -1.217238E-05 
 +4.820581E-03 -1.894734E-04 +9.503668E-05 -1.894734E-04 +8.787766E-06 +1.088832E-04 +9.503668E-05 +1.088832E-04 -9.458076E-05 
 +5.047585E-03 -4.929885E-05 +1.033759E-04 -4.929885E-05 -5.355569E-07 +1.351765E-04 +1.033759E-04 +1.351765E-04 -2.710730E-04 
 +5.074402E-03 -5.977932E-05 +2.437084E-05 -5.977932E-05 +8.565909E-05 +1.447047E-04 +2.437084E-05 +1.447047E-04 -3.001532E-04 
 +4.984037E-03 -5.954272E-05 +1.647926E-05 -5.954272E-05 +2.227716E-04 +1.084746E-04 +1.647926E-05 +1.084746E-04 -2.834412E-04 
 +4.963542E-03 -1.506637E-06 -1.960685E-05 -1.506637E-06 +2.879916E-04 +1.122172E-04 -1.960685E-05 +1.122172E-04 -2.750172E-04 
 +4.979611E-03 +6.317145E-05 -3.868680E-06 +6.317145E-05 +2.543442E-04 +1.602262E-04 -3.868680E-06 +1.602262E-04 -2.313365E-04 
 +4.991861E-03 +1.041733E-04 +7.409850E-05 +1.041733E-04 +1.932016E-04 +1.878992E-04 +7.409850E-05 +1.878992E-04 -1.220722E-04 
 +4.966990E-03 +1.498683E-04 +1.148916E-04 +1.498683E-04 +1.800379E-04 +1.131271E-04 +1.148916E-04 +1.131271E-04 -7.234798E-05 
 +4.924616E-03 +2.284264E-04 +2.284921E-05 +2.284264E-04 +1.602613E-04 -4.352770E-05 +2.284921E-05 -4.352770E-05 -1.557709E-04 
 +5.004248E-03 +1.368334E-04 -7.585707E-05 +1.368334E-04 +1.109022E-04 -1.900961E-04 -7.585707E-05 -1.900961E-04 -2.318743E-04 
 +5.047775E-03 +4.524456E-05 -2.768160E-05 +4.524456E-05 +7.060354E-05 -2.404793E-04 -2.768160E-05 -2.404793E-04 -2.108239E-04 
 +5.049155E-03 -3.500563E-05 +1.534809E-05 -3.500563E-05 -3.484192E-06 -2.014580E-04 +1.534809E-05 -2.014580E-04 -8.151145E-05 
 +5.070348E-03 -1.823298E-04 +1.127237E-04 -1.823298E-04 -9.074036E-05 -1.344482E-04 +1.127237E-04 -1.344482E-04 +4.416143E-05 
 +5.198220E-03 -2.037247E-04 +1.641026E-04 -2.037247E-04 -8.022068E-05 -1.456366E-04 +1.641026E-04 -1.456366E-04 +3.619153E-05 
 +5.049043E-03 -1.173236E-04 -1.484205E-04 -1.173236E-04 +5.696771E-06 -1.167668E-04 -1.484205E-04 -1.167668E-04 +8.478453E-06 
 +4.852398E-03 -5.966112E-05 -1.984579E-04 -5.966112E-05 +1.174039E-04 -8.210920E-06 -1.984579E-04 -8.210920E-06 +3.969718E-05 
 +4.857538E-03 -5.810517E-05 -1.133825E-04 -5.810517E-05 +1.442082E-04 +9.677869E-08 -1.133825E-04 +9.677869E-08 -2.807128E-05 
 +4.934939E-03 -9.109898E-05 -3.001690E-05 -9.109898E-05 +6.754689E-05 -6.427353E-05 -3.001690E-05 -6.427353E-05 -7.705408E-05 
 +4.953102E-03 -5.309537E-05 -5.767563E-05 -5.309537E-05 +8.734033E-05 -7.827223E-05 -5.767563E-05 -7.827223E-05 -9.251811E-05 
 +5.023452E-03 -5.416442E-06 +4.889367E-05 -5.416442E-06 +2.840750E-05 -4.171938E-05 +4.889367E-05 -4.171938E-05 -1.082083E-04 
 +4.904814E-03 -1.247036E-04 +1.274358E-04 -1.247036E-04 -1.487949E-05 +1.604735E-05 +1.274358E-04 +1.604735E-05 -3.049026E-05 
 +4.861690E-03 -1.673899E-04 +1.473506E-04 -1.673899E-04 -2.295696E-06 +5.816407E-06 +1.473506E-04 +5.816407E-06 -4.915965E-05 
 +5.037662E-03 +1.305964E-05 +1.610763E-04 +1.305964E-05 +1.476011E-05 +6.918070E-05 +1.610763E-04 +6.918070E-05 -1.468469E-04 
 +5.020916E-03 -1.482536E-05 +1.057462E-04 -1.482536E-05 +2.615643E-05 +1.431023E-04 +1.057462E-04 +1.431023E-04 -1.412240E-04 
 +5.069375E-03 -5.527795E-05 +1.139485E-05 -5.527795E-05 +9.613521E-05 +1.220900E-04 +1.139485E-05 +1.220900E-04 -1.638212E-04 
 +5.057134E-03 -3.263766E-05 +1.487250E-05 -3.263766E-05 +1.620419E-04 +1.213839E-04 +1.487250E-05 +1.213839E-04 -2.146698E-04 
 +5.044413E-03 +1.014907E-05 +3.673575E-05 +1.014907E-05 +1.856647E-04 +1.272055E-04 +3.673575E-05 +1.272055E-04 -2.380995E-04 
 +5.020447E-03 +3.364815E-05 +6.773678E-05 +3.364815E-05 +1.594722E-04 +1.227853E-04 +6.773678E-05 +1.227853E-04 -1.731846E-04 
 +5.001471E-03 +1.276423E-04 +5.995130E-05 +1.276423E-04 +1.059761E-04 +9.306820E-05 +5.995130E-05 +9.306820E-05 -1.006558E-04 
 +4.951827E-03 +2.352308E-04 -4.711833E-05 +2.352308E-04 +1.111506E-04 +5.734246E-06 -4.711833E-05 +5.734246E-06 -1.070868E-04 
 +4.910268E-03 +1.937839E-04 -9.706880E-05 +1.937839E-04 +1.183110E-04 -4.413737E-05 -9.706880E-05 -4.413737E-05 -8.096665E-06 
 +4.935356E-03 +1.425488E-04 -6.908203E-05 +1.425488E-04 +1.016078E-04 -3.590271E-05 -6.908203E-05 -3.590271E-05 +5.964027E-05 
 +4.940416E-03 +5.779286E-05 -4.491374E-05 +5.779286E-05 +6.067458E-05 +2.587446E-05 -4.491374E-05 +2.587446E-05 +2.604594E-05 
 +4.954573E-03 -4.119183E-07 -7.489592E-06 -4.119183E-07 +9.389955E-05 +9.777481E-05 -7.489592E-06 +9.777481E-05 -2.846328E-05 
 +5.081803E-03 -2.398176E-05 +6.895384E-05 -2.398176E-05 +1.556923E-04 +2.595055E-05 +6.895384E-05 +2.595055E-05 -2.142411E-04 
 +5.172555E-03 -5.722516E-05 -6.499229E-05 -5.722516E-05 +1.092165E-04 -1.568462E-05 -6.499229E-05 -1.568462E-05 -3.002441E-04 
 +4.965090E-03 -8.513917E-06 -1.639553E-04 -8.513917E-06 +5.932008E-05 +7.304023E-05 -1.639553E-04 +7.304023E-05 -1.166745E-04 
 +4.899350E-03 -1.169905E-05 -1.599781E-04 -1.169905E-05 +7.918153E-05 +7.304723E-05 -1.599781E-04 +7.304723E-05 +6.335058E-06 
 +4.932537E-03 -7.641004E-05 -5.355949E-05 -7.641004E-05 +1.067314E-04 -1.553233E-05 -5.355949E-05 -1.553233E-05 -2.964651E-05 
 +4.912306E-03 -1.575513E-05 -1.453785E-05 -1.575513E-05 +8.991809E-05 -4.830096E-06 -1.453785E-05 -4.830096E-06 -3.184372E-05 
 +4.958400E-03 +2.474771E-05 +5.061985E-05 +2.474771E-05 +2.069501E-05 +1.719306E-05 +5.061985E-05 +1.719306E-05 -6.202503E-06 
 +4.921595E-03 -8.337601E-05 +1.053445E-04 -8.337601E-05 -2.880756E-06 +2.165203E-05 +1.053445E-04 +2.165203E-05 +2.351870E-05 
 +4.910631E-03 -1.680185E-04 +1.310780E-04 -1.680185E-04 +2.810587E-06 -3.929924E-06 +1.310780E-04 -3.929924E-06 -6.583312E-05 
 +5.024439E-03 -2.614385E-05 +1.527642E-04 -2.614385E-05 -1.123503E-05 +2.696052E-05 +1.527642E-04 +2.696052E-05 -1.374489E-04 
 +4.934827E-03 -1.065246E-05 +1.739699E-04 -1.065246E-05 -2.283934E-05 +3.483840E-05 +1.739699E-04 +3.483840E-05 -1.787452E-05 
 +5.154735E-03 +4.539409E-05 +5.713144E-05 +4.539409E-05 +2.943206E-05 +6.787242E-05 +5.713144E-05 +6.787242E-05 -8.616915E-05 
 +5.095979E-03 -1.117056E-05 +3.883441E-05 -1.117056E-05 +1.315289E-04 +1.224795E-04 +3.883441E-05 +1.224795E-04 -2.188232E-04 
 +5.092983E-03 -3.016061E-05 +4.877575E-05 -3.016061E-05 +1.461821E-04 +1.101957E-04 +4.877575E-05 +1.101957E-04 -2.321392E-04 
 +5.096600E-03 -1.912176E-05 +6.142919E-05 -1.912176E-05 +1.002912E-04 +7.804772E-05 +6.142919E-05 +7.804772E-05 -1.859268E-04 
 +5.007527E-03 +9.693158E-05 +1.609342E-05 +9.693158E-05 +9.135926E-05 +3.657189E-05 +1.609342E-05 +3.657189E-05 -1.020587E-04 
 +4.998973E-03 +1.628702E-04 -3.138233E-05 +1.628702E-04 +7.653908E-05 +3.796237E-05 -3.138233E-05 +3.796237E-05 -9.378951E-05 
 +4.918395E-03 +1.271891E-04 -7.002230E-05 +1.271891E-04 +6.037151E-05 +8.557280E-05 -7.002230E-05 +8.557280E-05 -4.328851E-05 
 +4.895473E-03 +1.233359E-04 -1.210270E-04 +1.233359E-04 +7.349946E-05 +1.279095E-04 -1.210270E-04 +1.279095E-04 -1.204357E-06 
 +4.871204E-03 +6.770367E-05 -1.054971E-04 +6.770367E-05 +1.069306E-04 +1.843085E-04 -1.054971E-04 +1.843085E-04 -6.424806E-05 
 +4.840850E-03 +7.392683E-05 -9.816762E-05 +7.392683E-05 +2.078681E-04 +2.576098E-04 -9.816762E-05 +2.576098E-04 -2.173467E-04 
 +5.056107E-03 +1.130275E-05 -7.478326E-06 +1.130275E-05 +2.442277E-04 +1.839291E-04 -7.478326E-06 +1.839291E-04 -4.225340E-04 
 +5.106381E-03 +2.291864E-05 -5.502488E-05 +2.291864E-05 +1.958163E-04 +5.552319E-05 -5.502488E-05 +5.552319E-05 -5.041847E-04 
 +5.065917E-03 +1.326537E-05 -1.087516E-04 +1.326537E-05 +1.447784E-04 +6.376439E-05 -1.087516E-04 +6.376439E-05 -3.419696E-04 
 +4.954790E-03 +2.232807E-05 -1.631183E-04 +2.232807E-05 +1.194053E-04 +8.883073E-05 -1.631183E-04 +8.883073E-05 -9.634358E-05 
 +4.920070E-03 -4.284080E-05 -5.035598E-05 -4.284080E-05 +1.274027E-04 +4.363457E-05 -5.035598E-05 +4.363457E-05 -2.632806E-05 
 +4.892111E-03 -4.031730E-05 +4.352269E-05 -4.031730E-05 +6.541234E-05 +2.416047E-05 +4.352269E-05 +2.416047E-05 +3.983903E-05 
 +4.895461E-03 -1.325673E-05 +3.950893E-05 -1.325673E-05 +3.682996E-05 -7.855702E-06 +3.950893E-05 -7.855702E-06 +9.968423E-05 
 +4.906203E-03 -6.407915E-05 +6.369448E-05 -6.407915E-05 +4.355407E-06 +2.232158E-05 +6.369448E-05 +2.232158E-05 +7.879200E-05 
 +4.918959E-03 -1.575077E-04 +1.067352E-04 -1.575077E-04 -4.257879E-06 +5.431642E-05 +1.067352E-04 +5.431642E-05 -1.146910E-05 
 +5.022518E-03 +1.034796E-05 +1.256739E-04 +1.034796E-05 -2.339585E-06 +1.528370E-04 +1.256739E-04 +1.528370E-04 -4.443171E-05 
 +5.029523E-03 +7.465944E-05 +1.559488E-04 +7.465944E-05 -3.219456E-06 +1.867758E-04 +1.559488E-04 +1.867758E-04 +7.608265E-06 
 +5.124265E-03 +2.020703E-04 +1.519731E-04 +2.020703E-04 +7.267273E-05 +1.372118E-04 +1.519731E-04 +1.372118E-04 -3.931644E-05 
 +5.059278E-03 +6.323627E-05 +5.666577E-05 +6.323627E-05 +1.922053E-04 +1.341763E-04 +5.666577E-05 +1.341763E-04 -9.665993E-05 
 +5.089501E-03 -7.445304E-05 +4.141598E-05 -7.445304E-05 +1.639337E-04 +1.030787E-04 +4.141598E-05 +1.030787E-04 -2.025110E-04 
 +5.136972E-03 -8.160428E-05 +6.351555E-05 -8.160428E-05 +9.974556E-05 +7.136942E-05 +6.351555E-05 +7.136942E-05 -2.583726E-04 
 +5.033511E-03 +4.754776E-05 +1.402297E-05 +4.754776E-05 +1.016362E-04 +4.558074E-05 +1.402297E-05 +4.558074E-05 -1.732253E-04 
 +5.030345E-03 +1.233055E-04 +1.677259E-05 +1.233055E-04 +7.501169E-05 +6.207407E-05 +1.677259E-05 +6.207407E-05 -2.144950E-04 
 +4.942222E-03 +1.243906E-04 -5.421545E-05 +1.243906E-04 +6.644739E-05 +7.349920E-05 -5.421545E-05 +7.349920E-05 -2.295351E-04 
 +4.879039E-03 +9.195282E-05 -1.283153E-04 +9.195282E-05 +1.067644E-04 +5.655278E-05 -1.283153E-04 +5.655278E-05 -1.735842E-04 
 +4.839497E-03 +6.468520E-05 -1.497088E-04 +6.468520E-05 +1.831495E-04 +9.829372E-05 -1.497088E-04 +9.829372E-05 -2.223987E-04 
 +4.827034E-03 +1.356195E-04 -1.139350E-04 +1.356195E-04 +2.251499E-04 +1.469891E-04 -1.139350E-04 +1.469891E-04 -3.208722E-04 
 +5.039856E-03 +3.689660E-05 -4.422183E-05 +3.689660E-05 +2.290766E-04 +1.297452E-04 -4.422183E-05 +1.297452E-04 -4.043898E-04 
 +5.037848E-03 +4.819334E-06 -9.379054E-05 +4.819334E-06 +2.463789E-04 +9.985066E-05 -9.379054E-05 +9.985066E-05 -4.637889E-04 
 +5.056597E-03 -3.014625E-05 -7.097483E-05 -3.014625E-05 +2.126837E-04 +9.374653E-05 -7.097483E-05 +9.374653E-05 -4.903317E-04 
 +5.062365E-03 +2.818952E-05 -9.027760E-05 +2.818952E-05 +1.840395E-04 +1.135058E-04 -9.027760E-05 +1.135058E-04 -3.291693E-04 
 +4.914996E-03 -7.441032E-05 -1.608456E-05 -7.441032E-05 +1.266590E-04 +9.811986E-05 -1.608456E-05 +9.811986E-05 -9.364923E-05 
 +4.876691E-03 -8.979908E-05 +6.864255E-05 -8.979908E-05 +6.463022E-05 +9.086916E-05 +6.864255E-05 +9.086916E-05 +2.558992E-05 
 +4.908885E-03 -3.668484E-05 +3.149376E-05 -3.668484E-05 +1.609274E-05 +7.844022E-05 +3.149376E-05 +7.844022E-05 +4.376338E-05 
 +4.907455E-03 -4.393627E-05 +2.848342E-05 -4.393627E-05 -1.747157E-05 +7.069526E-05 +2.848342E-05 +7.069526E-05 +8.546635E-05 
 +4.905438E-03 -1.330807E-04 +6.629938E-05 -1.330807E-04 -2.307755E-05 +5.589366E-05 +6.629938E-05 +5.589366E-05 +9.829911E-05 
 +5.062292E-03 +3.427473E-05 +1.222646E-04 +3.427473E-05 -2.618326E-06 +3.886625E-05 +1.222646E-04 +3.886625E-05 +3.690491E-05 
 +5.077864E-03 +3.584932E-05 +1.331711E-04 +3.584932E-05 +2.889485E-05 +4.502474E-05 +1.331711E-04 +4.502474E-05 -3.202285E-05 
 +5.049311E-03 +1.509676E-04 +1.623266E-04 +1.509676E-04 +2.875136E-05 -1.734475E-05 +1.623266E-04 -1.734475E-05 -3.418351E-05 
 +5.040173E-03 +4.769679E-05 +1.181525E-04 +4.769679E-05 +3.390194E-05 -7.915606E-05 +1.181525E-04 -7.915606E-05 +1.536380E-05 
 +5.022409E-03 -1.094807E-04 -7.214887E-07 -1.094807E-04 +1.252203E-04 -4.991203E-05 -7.214887E-07 -4.991203E-05 -6.814852E-05 
 +5.119883E-03 -1.544818E-04 +3.725955E-05 -1.544818E-04 +1.275838E-04 -8.601237E-05 +3.725955E-05 -8.601237E-05 -1.971167E-04 
 +5.102024E-03 -8.545619E-06 +8.130451E-06 -8.545619E-06 +4.446524E-05 -1.417838E-04 +8.130451E-06 -1.417838E-04 -1.808012E-04 
 +5.092045E-03 +6.021936E-05 +4.132241E-05 +6.021936E-05 +3.173963E-05 -7.421504E-05 +4.132241E-05 -7.421504E-05 -1.642225E-04 
 +4.991296E-03 +1.094863E-04 +3.006860E-05 +1.094863E-04 +3.142958E-05 +7.364520E-06 +3.006860E-05 +7.364520E-06 -1.298347E-04 
 +4.858349E-03 +1.388235E-04 -1.563403E-06 +1.388235E-04 +6.384624E-05 +6.410050E-05 -1.563403E-06 +6.410050E-05 -9.657809E-05 
 +4.729517E-03 +8.584588E-05 -2.967923E-05 +8.584588E-05 +1.370360E-04 +1.910955E-04 -2.967923E-05 +1.910955E-04 -1.704200E-04 
 +4.884399E-03 +2.760953E-05 -3.510044E-05 +2.760953E-05 +1.774858E-04 +2.463280E-04 -3.510044E-05 +2.463280E-04 -2.639104E-04 
 +4.993087E-03 -1.993621E-05 -3.172837E-05 -1.993621E-05 +2.264665E-04 +1.731887E-04 -3.172837E-05 +1.731887E-04 -3.378759E-04 
 +5.012449E-03 -3.174489E-05 -1.051197E-04 -3.174489E-05 +2.635298E-04 +1.087956E-04 -1.051197E-04 +1.087956E-04 -3.645587E-04 
 +5.054348E-03 -6.892602E-05 -9.167611E-05 -6.892602E-05 +2.404224E-04 +8.633047E-05 -9.167611E-05 +8.633047E-05 -4.425471E-04 
 +5.126389E-03 -4.148406E-05 -5.980810E-05 -4.148406E-05 +1.494519E-04 +1.165929E-04 -5.980810E-05 +1.165929E-04 -4.195050E-04 
 +4.923767E-03 -1.568635E-04 +8.330407E-06 -1.568635E-04 +8.509740E-05 +1.242314E-04 +8.330407E-06 +1.242314E-04 -1.488411E-04 
 +4.923689E-03 -1.537206E-04 +9.051920E-05 -1.537206E-04 +2.524418E-05 +1.807324E-04 +9.051920E-05 +1.807324E-04 -5.509836E-05 
 +4.973578E-03 -6.862296E-05 +3.795391E-05 -6.862296E-05 +1.355225E-06 +1.735363E-04 +3.795391E-05 +1.735363E-04 -4.775966E-05 
 +4.952433E-03 -5.308101E-05 -1.942228E-05 -5.308101E-05 -8.475162E-06 +1.532202E-04 -1.942228E-05 +1.532202E-04 -4.192480E-05 
 +4.938042E-03 -5.024709E-05 +3.845306E-05 -5.024709E-05 +4.236161E-05 +1.587330E-04 +3.845306E-05 +1.587330E-04 -5.026479E-05 
 +5.043840E-03 +8.900449E-05 +1.067260E-04 +8.900449E-05 +8.816258E-05 +1.534948E-04 +1.067260E-04 +1.534948E-04 -8.182309E-05 
 +4.981432E-03 +7.436788E-05 +1.204626E-04 +7.436788E-05 +1.146052E-04 +1.157128E-04 +1.204626E-04 +1.157128E-04 -4.193793E-05 
 +5.004444E-03 +8.057132E-05 +5.649563E-05 +8.057132E-05 +4.494267E-05 +1.716401E-05 +5.649563E-05 +1.716401E-05 +1.683966E-05 
 +5.049309E-03 +2.694722E-05 +4.682382E-05 +2.694722E-05 -9.455187E-05 -1.514241E-04 +4.682382E-05 -1.514241E-04 +8.300757E-05 
 +4.976333E-03 -3.638136E-05 -8.598666E-05 -3.638136E-05 -4.688763E-05 -2.339088E-04 -8.598666E-05 -2.339088E-04 +1.008790E-04 
 +5.113204E-03 -1.564173E-04 -2.480150E-05 -1.564173E-04 +5.696274E-05 -2.478211E-04 -2.480150E-05 -2.478211E-04 -6.745402E-05 
 +5.073747E-03 -8.011005E-05 -2.352775E-05 -8.011005E-05 -1.087574E-05 -2.076328E-04 -2.352775E-05 -2.076328E-04 -1.025576E-04 
 +5.049341E-03 -3.686357E-05 +6.279235E-05 -3.686357E-05 -7.414134E-05 -2.630757E-05 +6.279235E-05 -2.630757E-05 +3.725732E-05 
 +5.000815E-03 -1.261997E-04 +7.336152E-05 -1.261997E-04 -8.088446E-05 +4.260857E-05 +7.336152E-05 +4.260857E-05 +9.060328E-05 
 +4.901130E-03 -5.342669E-05 +1.076016E-04 -5.342669E-05 -5.222915E-05 +1.413744E-05 +1.076016E-04 +1.413744E-05 +5.154552E-05 
 +4.724895E-03 +1.453681E-05 +1.530560E-04 +1.453681E-05 +6.696437E-05 +1.023925E-04 +1.530560E-04 +1.023925E-04 -6.769547E-05 
 +4.899106E-03 +3.540326E-05 +6.318531E-05 +3.540326E-05 +1.448398E-04 +1.887912E-04 +6.318531E-05 +1.887912E-04 -2.262157E-04 
 +5.007409E-03 +7.930905E-06 +1.167839E-05 +7.930905E-06 +2.049451E-04 +1.910120E-04 +1.167839E-05 +1.910120E-04 -3.017338E-04 
 +5.036830E-03 -4.798905E-05 -7.961067E-05 -4.798905E-05 +2.409829E-04 +1.568151E-04 -7.961067E-05 +1.568151E-04 -3.011180E-04 
 +5.084237E-03 -8.900609E-05 -7.752588E-05 -8.900609E-05 +1.956817E-04 +1.411279E-04 -7.752588E-05 +1.411279E-04 -3.529727E-04 
 +5.076798E-03 -1.202677E-04 -1.992391E-05 -1.202677E-04 +8.927019E-05 +1.454801E-04 -1.992391E-05 +1.454801E-04 -3.107807E-04 
 +4.927518E-03 -1.957321E-04 +4.441870E-05 -1.957321E-04 +3.352766E-05 +1.633852E-04 +4.441870E-05 +1.633852E-04 -1.473883E-04 
 +5.013852E-03 -9.439626E-05 +1.502846E-05 -9.439626E-05 +1.059957E-05 +4.550279E-05 +1.502846E-05 +4.550279E-05 -1.444977E-04 
 +5.027943E-03 +9.972317E-06 +3.602601E-05 +9.972317E-06 -1.342443E-05 -2.269564E-05 +3.602601E-05 -2.269564E-05 -1.382814E-04 
 +5.030343E-03 +4.710557E-05 -1.131490E-05 +4.710557E-05 +5.539159E-05 -1.241754E-05 -1.131490E-05 -1.241754E-05 -2.228094E-04 
 +5.006448E-03 +5.383770E-05 +4.729737E-05 +5.383770E-05 +1.642229E-04 +4.949235E-05 +4.729737E-05 +4.949235E-05 -3.205057E-04 
 +4.990705E-03 +1.105245E-04 +1.123944E-04 +1.105245E-04 +1.576587E-04 +2.187540E-05 +1.123944E-04 +2.187540E-05 -2.431674E-04 
 +4.881619E-03 +1.542969E-04 +4.567956E-05 +1.542969E-04 +7.869823E-05 -8.260977E-05 +4.567956E-05 -8.260977E-05 +2.769542E-05 
 +4.905507E-03 +5.957112E-05 -8.288356E-05 +5.957112E-05 -1.623372E-05 -1.551852E-04 -8.288356E-05 -1.551852E-04 +1.390981E-04 
 +4.995768E-03 +5.896890E-06 -1.441088E-04 +5.896890E-06 -1.231594E-04 -2.032726E-04 -1.441088E-04 -2.032726E-04 +9.745180E-05 
 +5.006656E-03 +3.077267E-05 -1.203014E-04 +3.077267E-05 -1.241658E-04 -2.051494E-04 -1.203014E-04 -2.051494E-04 +5.187158E-05 
 +5.103740E-03 -7.829162E-05 -1.712165E-06 -7.829162E-05 +1.236840E-07 -1.321049E-04 -1.712165E-06 -1.321049E-04 -6.262868E-05 
 +4.971525E-03 -1.240992E-04 +1.601835E-05 -1.240992E-04 +4.468648E-05 +5.336443E-06 +1.601835E-05 +5.336443E-06 -1.349972E-05 
 +4.930469E-03 -6.180727E-06 +2.899798E-05 -6.180727E-06 -4.870959E-05 +9.720003E-05 +2.899798E-05 +9.720003E-05 +1.328769E-04 
 +4.947610E-03 -2.994565E-05 +1.170237E-05 -2.994565E-05 -2.632367E-05 +1.076649E-04 +1.170237E-05 +1.076649E-04 +1.600690E-04 
 +4.928864E-03 +2.823310E-05 +7.834325E-05 +2.823310E-05 +2.080339E-05 +1.377738E-04 +7.834325E-05 +1.377738E-04 +9.230760E-05 
 +4.893038E-03 +1.106026E-04 +1.115113E-04 +1.106026E-04 +9.444787E-05 +4.985660E-05 +1.115113E-04 +4.985660E-05 -3.153494E-05 
 +5.012538E-03 +7.840567E-05 +9.567653E-05 +7.840567E-05 +1.769643E-04 +1.645907E-05 +9.567653E-05 +1.645907E-05 -1.691335E-04 
 +5.002022E-03 +1.423545E-04 +5.608724E-05 +1.423545E-04 +2.110569E-04 +9.697331E-05 +5.608724E-05 +9.697331E-05 -2.068882E-04 
 +5.067197E-03 +9.911333E-06 +2.444168E-06 +9.911333E-06 +2.216973E-04 +1.191307E-04 +2.444168E-06 +1.191307E-04 -1.704983E-04 
 +5.042424E-03 -1.082544E-04 +1.362202E-05 -1.082544E-04 +1.314214E-04 +1.257453E-04 +1.362202E-05 +1.257453E-04 -1.731394E-04 
 +4.995834E-03 -1.504792E-04 +7.969537E-05 -1.504792E-04 +9.874122E-05 +7.688638E-05 +7.969537E-05 +7.688638E-05 -1.152989E-04 
 +4.984108E-03 -1.668475E-04 +3.798496E-05 -1.668475E-04 +7.840228E-05 +6.395550E-05 +3.798496E-05 +6.395550E-05 -1.241069E-04 
 +5.053717E-03 -1.214814E-04 -6.743104E-05 -1.214814E-04 +1.321295E-04 +6.463178E-05 -6.743104E-05 +6.463178E-05 -2.349745E-04 
 +5.070328E-03 -4.443251E-05 +2.382275E-05 -4.443251E-05 +1.904022E-04 +5.098571E-05 +2.382275E-05 +5.098571E-05 -2.721104E-04 
 +5.094249E-03 +2.433033E-05 +9.254204E-06 +2.433033E-05 +2.274668E-04 +2.287615E-05 +9.254204E-06 +2.287615E-05 -3.416763E-04 
 +5.055065E-03 +2.703974E-05 +7.035093E-05 +2.703974E-05 +2.898069E-04 +5.150527E-05 +7.035093E-05 +5.150527E-05 -4.297095E-04 
 +4.983434E-03 +1.099105E-05 +9.025114E-05 +1.099105E-05 +2.847857E-04 +2.397518E-05 +9.025114E-05 +2.397518E-05 -3.377992E-04 
 +4.832063E-03 +8.443451E-05 -6.729592E-05 +8.443451E-05 +1.872669E-04 -9.185383E-05 -6.729592E-05 -9.185383E-05 -2.132752E-05 
 +4.841905E-03 +2.030292E-05 -1.278421E-04 +2.030292E-05 +7.165306E-05 -1.636464E-04 -1.278421E-04 -1.636464E-04 +7.714577E-05 
 +4.914714E-03 +5.198361E-05 -1.506184E-04 +5.198361E-05 -1.363463E-05 -1.086875E-04 -1.506184E-04 -1.086875E-04 +9.171293E-06 
 +5.028523E-03 +1.050517E-04 -1.875194E-05 +1.050517E-04 -6.628981E-05 +3.600270E-05 -1.875194E-05 +3.600270E-05 -1.597357E-05 
 +5.061059E-03 +1.984973E-05 +9.979842E-06 +1.984973E-05 -4.554302E-05 +8.145475E-05 +9.979842E-06 +8.145475E-05 +1.209132E-05 
 +4.921695E-03 -7.895553E-05 +4.681801E-05 -7.895553E-05 +4.835148E-05 +8.047218E-05 +4.681801E-05 +8.047218E-05 +1.169610E-04 
 +4.858574E-03 -4.829822E-06 +4.787653E-05 -4.829822E-06 +6.547966E-06 +1.561058E-04 +4.787653E-05 +1.561058E-04 +1.940534E-04 
 +4.894024E-03 +1.129243E-04 -1.518376E-05 +1.129243E-04 +6.555735E-06 +1.954945E-04 -1.518376E-05 +1.954945E-04 +2.059091E-04 
 +4.945731E-03 +7.324729E-05 +5.082340E-05 +7.324729E-05 +7.560297E-05 +1.669377E-04 +5.082340E-05 +1.669377E-04 +1.352818E-04 
 +5.042594E-03 +1.967803E-04 +6.859944E-05 +1.967803E-04 -7.203414E-05 +1.613333E-04 +6.859944E-05 +1.613333E-04 +4.856177E-05 
 +5.118844E-03 +1.458423E-04 +5.834382E-05 +1.458423E-04 -1.734409E-04 +1.858359E-04 +5.834382E-05 +1.858359E-04 +3.362442E-05 
 +5.014077E-03 +1.618450E-04 +5.499427E-05 +1.618450E-04 -2.014183E-04 +2.101868E-04 +5.499427E-05 +2.101868E-04 +6.607334E-05 
 +5.055160E-03 +4.622322E-05 +1.228764E-04 +4.622322E-05 -1.761840E-04 +2.846595E-04 +1.228764E-04 +2.846595E-04 +1.158560E-04 
 +4.958996E-03 -8.169375E-05 +1.097062E-04 -8.169375E-05 -5.199037E-05 +3.078054E-04 +1.097062E-04 +3.078054E-04 +2.115036E-04 
 +4.954992E-03 -9.026679E-05 +5.682397E-05 -9.026679E-05 -2.476779E-05 +1.584644E-04 +5.682397E-05 +1.584644E-04 +1.698288E-04 
 +5.038494E-03 -1.235183E-04 -6.942589E-05 -1.235183E-04 +2.046764E-05 +5.288192E-05 -6.942589E-05 +5.288192E-05 -1.020464E-04 
 +5.031719E-03 -9.910956E-05 -6.327223E-05 -9.910956E-05 +1.386986E-04 +1.173731E-05 -6.327223E-05 +1.173731E-05 -2.628488E-04 
 +5.092006E-03 -6.924293E-05 +4.648719E-05 -6.924293E-05 +1.860582E-04 +1.752528E-05 +4.648719E-05 +1.752528E-05 -3.539974E-04 
 +5.112262E-03 -6.828864E-06 +4.867186E-05 -6.828864E-06 +2.337245E-04 +3.711079E-05 +4.867186E-05 +3.711079E-05 -4.288304E-04 
 +5.099844E-03 -2.684929E-05 +6.360841E-05 -2.684929E-05 +3.042511E-04 +5.601439E-05 +6.360841E-05 +5.601439E-05 -3.860963E-04 
 +5.063139E-03 -7.470206E-05 +2.085566E-05 -7.470206E-05 +3.288686E-04 +3.601640E-05 +2.085566E-05 +3.601640E-05 -2.760486E-04 
 +4.902709E-03 +3.072714E-05 -1.196643E-04 +3.072714E-05 +2.347678E-04 -2.823063E-06 -1.196643E-04 -2.823063E-06 -8.390163E-05 
 +4.832935E-03 +3.229696E-05 -1.260006E-04 +3.229696E-05 +1.267872E-04 -6.833451E-05 -1.260006E-04 -6.833451E-05 -2.874190E-05 
 +4.873526E-03 +7.347632E-05 -9.393322E-05 +7.347632E-05 +8.311349E-05 -9.121362E-05 -9.393322E-05 -9.121362E-05 -2.474416E-05 
 +4.980932E-03 +1.134593E-04 +5.582645E-05 +1.134593E-04 +2.326868E-05 +1.768164E-05 +5.582645E-05 +1.768164E-05 -4.762040E-06 
 +5.012709E-03 +9.431130E-05 -2.113484E-05 +9.431130E-05 +5.990771E-06 +9.001867E-05 -2.113484E-05 +9.001867E-05 +4.316582E-05 
 +4.910428E-03 +1.846491E-05 +1.027052E-05 +1.846491E-05 +8.408881E-05 +1.210795E-04 +1.027052E-05 +1.210795E-04 +1.614487E-04 
 +4.752046E-03 -3.672882E-05 +7.754750E-05 -3.672882E-05 +1.283379E-04 +1.828949E-04 +7.754750E-05 +1.828949E-04 +2.542773E-04 
 +4.834844E-03 +1.108572E-04 +7.163692E-05 +1.108572E-04 +5.870568E-06 +3.186068E-04 +7.163692E-05 +3.186068E-04 +2.774944E-04 
 +5.071261E-03 +9.928755E-05 +5.313099E-05 +9.928755E-05 -1.390559E-04 +3.468456E-04 +5.313099E-05 +3.468456E-04 +2.103085E-04 
 +5.118538E-03 +1.499384E-04 +1.122596E-04 +1.499384E-04 -2.182026E-04 +2.197658E-04 +1.122596E-04 +2.197658E-04 +1.544976E-04 
 +5.113535E-03 +1.418076E-04 +4.550614E-05 +1.418076E-04 -2.637575E-04 +1.846526E-04 +4.550614E-05 +1.846526E-04 +1.882909E-04 
 +5.022358E-03 +1.085131E-04 +6.516388E-05 +1.085131E-04 -2.534233E-04 +2.009235E-04 +6.516388E-05 +2.009235E-04 +2.594077E-04 
 +5.015450E-03 +4.464419E-05 +7.044377E-05 +4.464419E-05 -2.365169E-04 +1.138573E-04 +7.044377E-05 +1.138573E-04 +3.012314E-04 
 +4.951661E-03 -6.399016E-05 +4.446512E-05 -6.399016E-05 -1.772967E-04 -4.522543E-05 +4.446512E-05 -4.522543E-05 +3.606636E-04 
 +4.951718E-03 -6.184769E-05 +1.487358E-05 -6.184769E-05 -3.591509E-05 -7.499659E-05 +1.487358E-05 -7.499659E-05 +2.159758E-04 
 +4.994653E-03 -8.612377E-05 -7.787938E-05 -8.612377E-05 +7.706538E-05 -4.895382E-06 -7.787938E-05 -4.895382E-06 -1.262181E-04 
 +5.028864E-03 -1.017673E-04 +2.963253E-05 -1.017673E-04 +1.604439E-04 +4.347272E-05 +2.963253E-05 +4.347272E-05 -2.526945E-04 
 +5.072677E-03 -5.412758E-05 +8.420443E-05 -5.412758E-05 +1.474662E-04 +6.386080E-05 +8.420443E-05 +6.386080E-05 -3.630108E-04 
 +5.103234E-03 -4.229795E-05 +4.002435E-05 -4.229795E-05 +7.233741E-05 +2.260612E-05 +4.002435E-05 +2.260612E-05 -3.203270E-04 
 +5.165992E-03 -5.546536E-05 -5.082498E-05 -5.546536E-05 -1.456574E-04 -6.641607E-05 -5.082498E-05 -6.641607E-05 -1.506103E-04 
 +5.165419E-03 -5.197119E-05 -7.305003E-05 -5.197119E-05 -2.354356E-04 -1.279296E-04 -7.305003E-05 -1.279296E-04 -8.208987E-05 
 +5.050567E-03 +2.154446E-05 -8.300218E-05 +2.154446E-05 -9.985114E-05 -9.496202E-05 -8.300218E-05 -9.496202E-05 -2.445079E-05 
 +4.873375E-03 +6.432709E-05 -1.209969E-04 +6.432709E-05 +6.916487E-05 -6.711720E-05 -1.209969E-04 -6.711720E-05 +5.477589E-06 
 +4.840440E-03 +9.292392E-05 -2.187871E-05 +9.292392E-05 +1.027309E-04 -3.949334E-05 -2.187871E-05 -3.949334E-05 +2.644372E-05 
 +4.896537E-03 +1.374651E-04 +8.126472E-05 +1.374651E-04 +8.395125E-05 +7.082497E-05 +8.126472E-05 +7.082497E-05 +6.316810E-05 
 +4.929151E-03 +1.007173E-04 +1.364840E-05 +1.007173E-04 +8.714583E-05 +1.385041E-04 +1.364840E-05 +1.385041E-04 +8.821238E-05 
 +4.894169E-03 +4.052810E-05 -3.189304E-05 +4.052810E-05 +1.127450E-04 +1.672877E-04 -3.189304E-05 +1.672877E-04 +1.698669E-04 
 +4.745134E-03 +1.261727E-05 -8.903638E-06 +1.261727E-05 +1.604829E-04 +2.446715E-04 -8.903638E-06 +2.446715E-04 +2.564305E-04 
 +4.826011E-03 +1.257313E-04 +1.430668E-04 +1.257313E-04 +4.191860E-05 +2.681269E-04 +1.430668E-04 +2.681269E-04 +3.088765E-04 
 +5.087306E-03 +1.084149E-04 +7.382072E-05 +1.084149E-04 -1.561372E-04 +1.968282E-04 +7.382072E-05 +1.968282E-04 +2.232872E-04 
 +5.112455E-03 +1.066806E-04 +8.089400E-05 +1.066806E-04 -2.241829E-04 +1.498176E-04 +8.089400E-05 +1.498176E-04 +1.332249E-04 
 +5.107707E-03 +1.242822E-04 +5.071381E-05 +1.242822E-04 -2.449748E-04 +1.178203E-04 +5.071381E-05 +1.178203E-04 +1.814462E-04 
 +5.025966E-03 +1.280830E-04 +4.551458E-05 +1.280830E-04 -2.506077E-04 +6.310807E-05 +4.551458E-05 +6.310807E-05 +2.626436E-04 
 +4.982831E-03 +6.928363E-05 -5.564028E-05 +6.928363E-05 -2.306713E-04 +7.239817E-05 -5.564028E-05 +7.239817E-05 +3.140321E-04 
 +4.955727E-03 -9.527453E-06 -6.311160E-05 -9.527453E-06 -2.034432E-04 +1.505856E-04 -6.311160E-05 +1.505856E-04 +2.980540E-04 
 +4.930308E-03 +2.983894E-05 +4.341453E-05 +2.983894E-05 -6.121170E-05 +1.472467E-04 +4.341453E-05 +1.472467E-04 +1.731591E-04 
 +4.944363E-03 -6.392948E-05 +5.738189E-05 -6.392948E-05 +1.259596E-04 +6.483289E-05 +5.738189E-05 +6.483289E-05 -6.017718E-05 
 +4.935232E-03 -1.454918E-04 +5.293618E-05 -1.454918E-04 +2.500389E-04 -2.546170E-05 +5.293618E-05 -2.546170E-05 -3.151157E-04 
 +4.985862E-03 -9.294926E-05 +7.746859E-05 -9.294926E-05 +2.534901E-04 +1.359989E-05 +7.746859E-05 +1.359989E-05 -3.782031E-04 
 +5.079604E-03 -1.281291E-04 +2.743883E-05 -1.281291E-04 +5.853272E-05 +9.027501E-06 +2.743883E-05 +9.027501E-06 -3.581203E-04 
 +5.187093E-03 -1.044891E-04 -5.747481E-05 -1.044891E-04 -2.218391E-04 -2.137204E-05 -5.747481E-05 -2.137204E-05 -2.160434E-04 
 +5.170679E-03 -9.728125E-05 -4.809055E-05 -9.728125E-05 -2.572391E-04 -5.585518E-05 -4.809055E-05 -5.585518E-05 -8.450664E-05 
 +5.125219E-03 -4.463390E-05 -5.137437E-05 -4.463390E-05 -1.644716E-04 -1.040737E-04 -5.137437E-05 -1.040737E-04 -8.980466E-05 
 +5.011888E-03 -2.254998E-06 -9.492651E-05 -2.254998E-06 -6.192181E-05 -1.139992E-04 -9.492651E-05 -1.139992E-04 -4.722049E-05 
 +4.850580E-03 -2.130970E-05 +4.992355E-05 -2.130970E-05 +4.136317E-05 -3.440990E-05 +4.992355E-05 -3.440990E-05 +6.633425E-05 
 +4.815964E-03 -5.446031E-05 +5.523078E-05 -5.446031E-05 +4.541182E-05 +6.979931E-06 +5.523078E-05 +6.979931E-06 +1.072704E-04 
 +4.801262E-03 -1.003336E-04 +7.719379E-05 -1.003336E-04 +2.070372E-05 +3.703354E-05 +7.719379E-05 +3.703354E-05 +1.312775E-04 
 +4.754836E-03 -7.012186E-05 +8.011170E-05 -7.012186E-05 +2.361425E-05 +8.813375E-05 +8.011170E-05 +8.813375E-05 +1.841309E-04 
 +4.799011E-03 -4.599467E-05 -1.040009E-06 -4.599467E-05 -5.322940E-05 +1.065153E-04 -1.040009E-06 +1.065153E-04 +2.611592E-04 
 +4.834361E-03 +1.569681E-05 +4.502987E-05 +1.569681E-05 -1.629797E-04 +8.905636E-05 +4.502987E-05 +8.905636E-05 +1.941457E-04 
 +5.005059E-03 +4.454649E-05 +8.582543E-05 +4.454649E-05 -2.697432E-04 +1.465107E-04 +8.582543E-05 +1.465107E-04 +1.241968E-04 
 +5.221316E-03 +1.199500E-04 +1.882906E-05 +1.199500E-04 -3.428730E-04 +2.021112E-04 +1.882906E-05 +2.021112E-04 +1.143012E-04 
 +5.151675E-03 +2.362809E-04 -4.314312E-05 +2.362809E-04 -3.007611E-04 +1.421832E-04 -4.314312E-05 +1.421832E-04 +1.185537E-04 
 +5.109433E-03 +2.427366E-04 -3.178153E-05 +2.427366E-04 -2.345420E-04 +1.254128E-04 -3.178153E-05 +1.254128E-04 +1.706975E-04 
 +5.084738E-03 +1.608378E-04 -2.315704E-05 +1.608378E-04 -2.026921E-04 +1.509908E-04 -2.315704E-05 +1.509908E-04 +1.990082E-04 
 +4.999983E-03 +8.210914E-05 +1.136557E-05 +8.210914E-05 -1.836141E-04 +1.702639E-04 +1.136557E-05 +1.702639E-04 +2.228541E-04 
 +4.915115E-03 +7.771250E-05 +3.284753E-05 +7.771250E-05 -1.032975E-04 +1.188658E-04 +3.284753E-05 +1.188658E-04 +1.211352E-04 
 +4.899376E-03 -8.278288E-05 +2.545077E-05 -8.278288E-05 +1.148323E-04 -2.480993E-06 +2.545077E-05 -2.480993E-06 -1.344662E-04 
 +4.867290E-03 -5.244905E-05 +5.104928E-05 -5.244905E-05 +2.570380E-05 -3.444645E-05 +5.104928E-05 -3.444645E-05 -1.200925E-04 
 +4.981060E-03 -3.172460E-05 +2.633951E-05 -3.172460E-05 -1.861263E-04 -9.146078E-05 +2.633951E-05 -9.146078E-05 -5.405011E-05 
 +5.089964E-03 -8.814332E-05 -5.762035E-05 -8.814332E-05 -3.467379E-04 -7.402076E-05 -5.762035E-05 -7.402076E-05 +2.086688E-05 
 +5.149853E-03 -1.103124E-04 -1.016043E-04 -1.103124E-04 -3.202547E-04 -5.237898E-05 -1.016043E-04 -5.237898E-05 +1.802833E-05 
 +5.145265E-03 -8.107781E-05 -4.163130E-05 -8.107781E-05 -2.865823E-04 -7.386863E-05 -4.163130E-05 -7.386863E-05 -4.723293E-05 
 +5.120544E-03 -1.588650E-05 -6.838560E-06 -1.588650E-05 -2.082497E-04 -8.032021E-05 -6.838560E-06 -8.032021E-05 -8.386536E-05 
 +5.009880E-03 +2.388268E-05 -8.278892E-07 +2.388268E-05 -8.490893E-05 -3.210939E-05 -8.278892E-07 -3.210939E-05 +4.476739E-06 
 +4.819692E-03 -2.452427E-05 +5.724110E-05 -2.452427E-05 +2.685384E-05 +1.910003E-05 +5.724110E-05 +1.910003E-05 +1.014125E-04 
 +4.740470E-03 -6.551333E-05 +4.798754E-05 -6.551333E-05 +5.219402E-05 +2.031773E-05 +4.798754E-05 +2.031773E-05 +1.207013E-04 
 +4.775971E-03 -6.207375E-05 +1.136495E-04 -6.207375E-05 -4.477306E-06 +3.351641E-05 +1.136495E-04 +3.351641E-05 +1.360926E-04 
 +4.847337E-03 -4.782737E-05 +2.769832E-05 -4.782737E-05 -7.675460E-05 +5.972951E-05 +2.769832E-05 +5.972951E-05 +1.914200E-04 
 +4.898044E-03 -4.310169E-05 +1.528027E-05 -4.310169E-05 -1.093353E-04 +7.815013E-05 +1.528027E-05 +7.815013E-05 +2.621748E-04 
 +4.934003E-03 +2.297018E-05 +1.748730E-05 +2.297018E-05 -9.084073E-05 +8.754263E-05 +1.748730E-05 +8.754263E-05 +8.871715E-05 
 +5.026225E-03 +6.049390E-05 +1.775616E-04 +6.049390E-05 -1.044013E-05 +5.081285E-05 +1.775616E-04 +5.081285E-05 -1.098673E-04 
 +5.166310E-03 +1.130206E-04 +2.412953E-05 +1.130206E-04 -2.049874E-05 +9.942273E-06 +2.412953E-05 +9.942273E-06 -1.335131E-04 
 +5.151743E-03 +2.355880E-04 -9.802852E-05 +2.355880E-04 -2.030521E-04 +9.780299E-05 -9.802852E-05 +9.780299E-05 -3.342460E-05 
 +5.103773E-03 +2.726629E-04 -1.034419E-04 +2.726629E-04 -3.130624E-04 +2.068425E-04 -1.034419E-04 +2.068425E-04 +8.608793E-05 
 +5.091289E-03 +1.898734E-04 -4.424960E-05 +1.898734E-04 -2.859667E-04 +2.061154E-04 -4.424960E-05 +2.061154E-04 +7.281147E-05 
 +4.994647E-03 +1.241848E-04 +3.636378E-05 +1.241848E-04 -1.955051E-04 +1.793333E-04 +3.636378E-05 +1.793333E-04 +8.610712E-05 
 +4.920610E-03 +1.523680E-04 +6.581208E-05 +1.523680E-04 -1.466811E-04 +1.481138E-04 +6.581208E-05 +1.481138E-04 +9.653107E-05 
 +4.904336E-03 +1.149558E-04 +2.041401E-05 +1.149558E-04 -5.682974E-05 +7.570542E-05 +2.041401E-05 +7.570542E-05 -3.582243E-05 
 +4.901673E-03 -2.333868E-05 +8.961724E-05 -2.333868E-05 -1.793678E-04 +1.415570E-04 +8.961724E-05 +1.415570E-04 +1.478717E-04 
 +4.965471E-03 -9.475369E-05 +5.293353E-05 -9.475369E-05 -1.970647E-04 +2.171035E-04 +5.293353E-05 +2.171035E-04 +2.060966E-04 
 +5.034856E-03 -6.187845E-05 -5.525693E-06 -6.187845E-05 -2.459384E-04 +2.468719E-04 -5.525693E-06 +2.468719E-04 +2.222494E-04 
 +5.044827E-03 -3.690926E-05 -4.667340E-05 -3.690926E-05 -2.353141E-04 +2.498583E-04 -4.667340E-05 +2.498583E-04 +1.471548E-04 
 +5.083728E-03 +2.887009E-06 -4.360663E-05 +2.887009E-06 -1.790580E-04 +2.472339E-04 -4.360663E-05 +2.472339E-04 +4.437123E-05 
 +5.092943E-03 +5.189668E-05 +9.536266E-06 +5.189668E-05 -1.194365E-04 +2.444893E-04 +9.536266E-06 +2.444893E-04 -2.452399E-05 
 +4.982525E-03 +1.119568E-04 +5.033184E-05 +1.119568E-04 -2.416675E-05 +1.827727E-04 +5.033184E-05 +1.827727E-04 +2.157505E-05 
 +4.831212E-03 +4.281282E-05 +8.462546E-05 +4.281282E-05 +5.993444E-05 +5.120634E-05 +8.462546E-05 +5.120634E-05 +9.735700E-05 
 +4.747231E-03 -3.419289E-05 +5.660996E-05 -3.419289E-05 +8.646585E-05 -4.220306E-05 +5.660996E-05 -4.220306E-05 +1.373191E-04 
 +4.766559E-03 -6.200809E-05 +1.327230E-04 -6.200809E-05 +3.129381E-05 -5.307939E-05 +1.327230E-04 -5.307939E-05 +1.008628E-04 
 +4.895292E-03 -3.747049E-05 +9.398087E-06 -3.747049E-05 -6.499992E-05 +2.274047E-05 +9.398087E-06 +2.274047E-05 +9.702787E-05 
 +4.970080E-03 -3.143770E-05 +6.981846E-06 -3.143770E-05 -1.082496E-04 +7.584297E-05 +6.981846E-06 +7.584297E-05 +1.575978E-04 
 +4.977924E-03 +5.240343E-05 -2.741201E-05 +5.240343E-05 -5.837083E-05 +5.399983E-05 -2.741201E-05 +5.399983E-05 +4.165816E-05 
 +5.040843E-03 +7.784239E-05 +1.104923E-04 +7.784239E-05 +4.707338E-05 -1.551428E-05 +1.104923E-04 -1.551428E-05 -1.309662E-04 
 +5.125566E-03 +4.242365E-05 +3.670680E-05 +4.242365E-05 +1.258627E-04 -1.169968E-04 +3.670680E-05 -1.169968E-04 -2.821371E-04 
 +5.150646E-03 +8.884915E-05 +1.288202E-05 +8.884915E-05 +5.218478E-05 -7.743961E-05 +1.288202E-05 -7.743961E-05 -2.790640E-04 
 +5.113214E-03 +1.898698E-04 -1.289955E-04 +1.898698E-04 -1.683358E-04 +7.635859E-05 -1.289955E-04 +7.635859E-05 -8.550465E-05 
 +5.080533E-03 +2.181232E-04 -8.921928E-05 +2.181232E-04 -2.309408E-04 +1.300387E-04 -8.921928E-05 +1.300387E-04 +1.194561E-05 
 +5.015339E-03 +1.662326E-04 +2.777387E-05 +1.662326E-04 -1.400417E-04 +1.257348E-04 +2.777387E-05 +1.257348E-04 +3.469317E-05 
 +4.966690E-03 +1.466288E-04 +5.345558E-05 +1.466288E-04 -7.929056E-05 +1.055990E-04 +5.345558E-05 +1.055990E-04 +7.387340E-05 
 +4.951111E-03 +1.360271E-04 +4.871633E-05 +1.360271E-04 -1.180970E-04 +8.295180E-05 +4.871633E-05 +8.295180E-05 +1.126294E-04 
 +4.955406E-03 -1.248167E-04 +8.840088E-05 -1.248167E-04 -1.954879E-04 +1.519894E-04 +8.840088E-05 +1.519894E-04 +2.260125E-04 
 +4.959386E-03 -1.703679E-04 +1.165251E-04 -1.703679E-04 -2.528799E-04 +1.910946E-04 +1.165251E-04 +1.910946E-04 +1.113044E-04 
 +5.018759E-03 -8.944830E-05 +3.923684E-05 -8.944830E-05 -2.344490E-04 +2.464424E-04 +3.923684E-05 +2.464424E-04 +4.514349E-05 
 +5.002484E-03 -2.034282E-05 -1.107100E-05 -2.034282E-05 -2.151830E-04 +2.760473E-04 -1.107100E-05 +2.760473E-04 +1.335177E-05 
 +5.018308E-03 +5.906477E-05 -3.071901E-05 +5.906477E-05 -1.719936E-04 +2.887152E-04 -3.071901E-05 +2.887152E-04 -2.786999E-05 
 +5.011019E-03 +1.127291E-04 +1.873168E-05 +1.127291E-04 -1.034339E-04 +2.766880E-04 +1.873168E-05 +2.766880E-04 -5.383550E-05 
 +4.945412E-03 +1.663223E-04 +5.250403E-05 +1.663223E-04 -2.432807E-05 +2.234275E-04 +5.250403E-05 +2.234275E-04 -2.951407E-05 
 +4.835683E-03 +7.754651E-05 +6.034486E-05 +7.754651E-05 +1.164754E-04 +1.071355E-04 +6.034486E-05 +1.071355E-04 +7.514637E-05 
 +4.765462E-03 -8.888750E-05 +3.749284E-05 -8.888750E-05 +1.396302E-04 -3.709141E-06 +3.749284E-05 -3.709141E-06 +1.446820E-04 
 +4.809634E-03 -1.044870E-04 +7.021942E-05 -1.044870E-04 +5.088458E-05 -1.587874E-04 +7.021942E-05 -1.587874E-04 +4.805800E-05 
 +4.947140E-03 -3.376823E-05 +3.440996E-06 -3.376823E-05 +1.464547E-05 -3.270624E-04 +3.440996E-06 -3.270624E-04 +2.950613E-05 
 +4.976113E-03 +3.103702E-05 +1.952674E-05 +3.103702E-05 +7.154884E-05 -3.274539E-04 +1.952674E-05 -3.274539E-04 +8.610217E-05 
 +4.968968E-03 +7.598766E-05 +5.731561E-07 +7.598766E-05 +1.500524E-04 -1.811091E-04 +5.731561E-07 -1.811091E-04 +2.773290E-05 
 +5.030775E-03 +7.046930E-05 +4.077162E-05 +7.046930E-05 +1.235557E-04 -7.102100E-05 +4.077162E-05 -7.102100E-05 -5.890556E-05 
 +5.078198E-03 +4.030404E-05 +7.981941E-06 +4.030404E-05 +9.817081E-05 -7.237497E-05 +7.981941E-06 -7.237497E-05 -1.999455E-04 
 +5.141163E-03 +9.762408E-06 +6.503173E-06 +9.762408E-06 +1.248734E-04 -1.106040E-04 +6.503173E-06 -1.106040E-04 -3.399680E-04 
 +5.155038E-03 +4.735318E-05 -2.056996E-05 +4.735318E-05 +5.859404E-05 -5.622981E-05 -2.056996E-05 -5.622981E-05 -2.792608E-04 
 +5.089952E-03 +1.853404E-04 -6.208325E-05 +1.853404E-04 -9.443688E-05 +7.242884E-05 -6.208325E-05 +7.242884E-05 -9.036560E-05 
 +5.022831E-03 +1.727786E-04 -2.716099E-05 +1.727786E-04 -1.294767E-04 +1.288712E-04 -2.716099E-05 +1.288712E-04 +4.638687E-05 
 +5.003763E-03 +1.193168E-04 +4.818482E-05 +1.193168E-04 -1.044363E-04 +1.465097E-04 +4.818482E-05 +1.465097E-04 +1.226451E-04 
 +5.002799E-03 +4.764573E-05 +2.826074E-05 +4.764573E-05 -1.267412E-04 +1.557092E-04 +2.826074E-05 +1.557092E-04 +2.234911E-04 
 +4.996996E-03 -1.403963E-04 +2.366344E-05 -1.403963E-04 -2.179511E-04 +1.680425E-04 +2.366344E-05 +1.680425E-04 +2.103494E-04 
 +5.001341E-03 -1.759837E-04 +1.314609E-04 -1.759837E-04 -5.756157E-05 +3.115983E-04 +1.314609E-04 +3.115983E-04 -2.147019E-05 
 +5.020631E-03 -1.199304E-04 +8.030489E-05 -1.199304E-04 -1.529508E-06 +4.131346E-04 +8.030489E-05 +4.131346E-04 -1.347116E-04 
 +4.994913E-03 -3.981550E-05 +1.864222E-05 -3.981550E-05 +3.120719E-05 +4.953890E-04 +1.864222E-05 +4.953890E-04 -1.384770E-04 
 +4.970202E-03 +1.454224E-05 -2.659778E-05 +1.454224E-05 +5.076970E-06 +5.271321E-04 -2.659778E-05 +5.271321E-04 -1.064560E-04 
 +4.931904E-03 +1.104402E-04 +4.418495E-05 +1.104402E-04 -2.427093E-05 +4.574964E-04 +4.418495E-05 +4.574964E-04 +1.077944E-05 
 +4.844923E-03 +1.606138E-04 +1.613523E-05 +1.606138E-04 +4.150360E-06 +3.503533E-04 +1.613523E-05 +3.503533E-04 +1.043423E-04 
 +4.850742E-03 +3.155301E-05 -3.494550E-05 +3.155301E-05 -1.059329E-04 +2.363153E-04 -3.494550E-05 +2.363153E-04 +1.620733E-04 
 +4.880703E-03 -5.265339E-05 +3.899247E-05 -5.265339E-05 -1.122735E-04 +1.076839E-04 +3.899247E-05 +1.076839E-04 +1.230209E-04 
 +4.891482E-03 -2.779579E-05 +5.402331E-05 -2.779579E-05 +3.449567E-05 +3.862329E-06 +5.402331E-05 +3.862329E-06 -4.990848E-05 
 +4.967149E-03 +1.861213E-05 -5.560684E-05 +1.861213E-05 +1.238307E-04 -3.504198E-05 -5.560684E-05 -3.504198E-05 -6.596380E-05 
 +4.968943E-03 +8.987160E-05 -1.272971E-05 +8.987160E-05 +1.861031E-04 -7.842859E-05 -1.272971E-05 -7.842859E-05 +6.426601E-06 
 +4.978548E-03 +1.203142E-04 +4.423762E-05 +1.203142E-04 +1.753724E-04 -1.055265E-04 +4.423762E-05 -1.055265E-04 +2.938051E-05 
 +4.917437E-03 +6.347960E-05 +3.814464E-05 +6.347960E-05 +1.271317E-04 -8.229270E-05 +3.814464E-05 -8.229270E-05 +1.938324E-05 
 +5.049166E-03 +3.092967E-05 +6.828193E-06 +3.092967E-05 +1.141952E-04 -4.390044E-05 +6.828193E-06 -4.390044E-05 -1.093493E-04 
 +5.110143E-03 -4.356116E-06 -4.090932E-05 -4.356116E-06 +7.994696E-05 +1.071756E-05 -4.090932E-05 +1.071756E-05 -2.172299E-04 
 +5.136702E-03 -1.932288E-05 -2.253875E-05 -1.932288E-05 +6.799460E-05 -2.469661E-05 -2.253875E-05 -2.469661E-05 -2.430472E-04 
 +5.120385E-03 +3.854359E-05 -5.319780E-05 +3.854359E-05 +1.977769E-05 -7.584555E-05 -5.319780E-05 -7.584555E-05 -1.582034E-04 
 +5.074007E-03 +1.039434E-04 -2.940717E-05 +1.039434E-04 -1.496194E-04 +4.609613E-05 -2.940717E-05 +4.609613E-05 +7.498550E-05 
 +5.018634E-03 +8.518352E-05 +2.016312E-05 +8.518352E-05 -2.589753E-04 +1.304915E-04 +2.016312E-05 +1.304915E-04 +2.295783E-04 
 +5.013410E-03 -9.495001E-06 -3.847217E-05 -9.495001E-06 -2.987850E-04 +9.810875E-05 -3.847217E-05 +9.810875E-05 +2.934030E-04 
 +5.041988E-03 -6.785440E-05 -8.148818E-06 -6.785440E-05 -2.004327E-04 +1.416885E-04 -8.148818E-06 +1.416885E-04 +1.559306E-04 
 +5.051374E-03 -1.382935E-04 +1.152099E-04 -1.382935E-04 -4.744094E-05 +2.824604E-04 +1.152099E-04 +2.824604E-04 -5.255971E-05 
 +5.022463E-03 -1.307704E-04 +1.357872E-04 -1.307704E-04 +2.229568E-05 +3.749683E-04 +1.357872E-04 +3.749683E-04 -1.329790E-04 
 +4.958986E-03 -4.956629E-05 +6.603580E-05 -4.956629E-05 +3.554709E-05 +4.477627E-04 +6.603580E-05 +4.477627E-04 -6.468044E-05 
 +4.926175E-03 -6.819869E-05 +2.556189E-06 -6.819869E-05 +2.334491E-05 +5.425005E-04 +2.556189E-06 +5.425005E-04 -1.790972E-05 
 +4.848803E-03 +4.594817E-05 +2.111553E-05 +4.594817E-05 -5.872883E-05 +5.008131E-04 +2.111553E-05 +5.008131E-04 +8.932923E-05 
 +4.809326E-03 +1.292233E-04 -6.926317E-05 +1.292233E-04 -1.475499E-04 +3.077386E-04 -6.926317E-05 +3.077386E-04 +2.562904E-04 
 +4.898929E-03 -2.685635E-05 -2.296940E-05 -2.685635E-05 -2.551979E-04 +2.236233E-04 -2.296940E-05 +2.236233E-04 +2.601884E-04 
 +4.981742E-03 +1.022018E-05 +1.296667E-04 +1.022018E-05 -2.972596E-04 +1.375469E-04 +1.296667E-04 +1.375469E-04 +1.615963E-04 
 +4.945689E-03 -3.941110E-06 +1.508181E-04 -3.941110E-06 -1.007924E-04 -6.454564E-05 +1.508181E-04 -6.454564E-05 +1.859805E-05 
 +4.974494E-03 +1.257043E-06 +1.050569E-05 +1.257043E-06 +1.119488E-04 -1.363833E-04 +1.050569E-05 -1.363833E-04 -1.630007E-04 
 +5.001833E-03 +6.412023E-05 -8.464265E-05 +6.412023E-05 +1.634703E-04 -1.149629E-04 -8.464265E-05 -1.149629E-04 -2.207461E-04 
 +5.003162E-03 +7.181936E-05 -1.351267E-05 +7.181936E-05 +1.784309E-04 -8.275838E-05 -1.351267E-05 -8.275838E-05 -1.929282E-05 
 +4.795632E-03 +3.829287E-05 +3.046838E-05 +3.829287E-05 +1.812320E-04 -2.174686E-05 +3.046838E-05 -2.174686E-05 +1.323378E-04 
 +5.054514E-03 +5.320923E-05 +1.819907E-05 +5.320923E-05 +1.140413E-04 +3.929806E-06 +1.819907E-05 +3.929806E-06 -4.548575E-05 
 +5.074428E-03 +3.131549E-05 -6.423525E-05 +3.131549E-05 +8.921088E-05 +1.856635E-05 -6.423525E-05 +1.856635E-05 -1.457784E-04 
 +5.051383E-03 -2.400842E-05 -1.138176E-04 -2.400842E-05 -1.376388E-05 +9.470610E-05 -1.138176E-04 +9.470610E-05 -1.556686E-04 
 +5.141441E-03 -2.180389E-05 -9.114782E-05 -2.180389E-05 -2.667850E-04 +1.890263E-04 -9.114782E-05 +1.890263E-04 -1.914698E-04 
 +5.102145E-03 +3.774668E-05 -7.036699E-05 +3.774668E-05 -4.140268E-04 +1.389470E-04 -7.036699E-05 +1.389470E-04 +1.341264E-05 
 +5.025010E-03 +6.718355E-05 -7.085695E-05 +6.718355E-05 -3.674037E-04 +4.634441E-05 -7.085695E-05 +4.634441E-05 +2.257736E-04 
 +5.028801E-03 -4.540958E-05 -7.716901E-05 -4.540958E-05 -2.933422E-04 +4.501463E-05 -7.716901E-05 +4.501463E-05 +2.627543E-04 
 +5.106987E-03 -6.248785E-05 -5.916948E-05 -6.248785E-05 -3.663714E-04 +1.885925E-04 -5.916948E-05 +1.885925E-04 +1.314522E-04 
 +5.117371E-03 -8.078156E-05 +4.028722E-05 -8.078156E-05 -3.369616E-04 +2.403179E-04 +4.028722E-05 +2.403179E-04 +4.177732E-05 
 +5.018440E-03 -7.279645E-05 +1.424813E-04 -7.279645E-05 -1.442931E-04 +3.303502E-04 +1.424813E-04 +3.303502E-04 -2.904476E-05 
 +4.899585E-03 -5.737365E-05 +8.426602E-05 -5.737365E-05 -2.162911E-05 +4.502914E-04 +8.426602E-05 +4.502914E-04 +5.585664E-06 
 +4.844351E-03 -9.975398E-05 +4.229168E-05 -9.975398E-05 -2.142826E-05 +5.694910E-04 +4.229168E-05 +5.694910E-04 +2.302504E-05 
 +4.762999E-03 -4.543393E-05 -2.149401E-05 -4.543393E-05 -5.322017E-05 +5.512885E-04 -2.149401E-05 +5.512885E-04 +1.420864E-04 
 +4.845386E-03 +3.100794E-05 -7.553221E-05 +3.100794E-05 -1.883886E-04 +3.655758E-04 -7.553221E-05 +3.655758E-04 +3.088159E-04 
 +4.936839E-03 -7.890218E-05 +6.289321E-05 -7.890218E-05 -1.868957E-04 +1.179432E-04 +6.289321E-05 +1.179432E-04 +2.299562E-04 
 +4.961314E-03 -5.025017E-05 +1.736757E-04 -5.025017E-05 -8.600412E-05 -1.328077E-04 +1.736757E-04 -1.328077E-04 +7.774947E-05 
 +4.990706E-03 -1.699194E-05 +1.644010E-04 -1.699194E-05 -1.103713E-04 -2.930687E-04 +1.644010E-04 -2.930687E-04 +1.475282E-05 
 +5.032413E-03 +1.503071E-06 +1.146224E-04 +1.503071E-06 -5.966195E-05 -3.218051E-04 +1.146224E-04 -3.218051E-04 -9.145652E-05 
 +5.086155E-03 +3.911757E-05 -3.333818E-05 +3.911757E-05 +7.399484E-05 -2.629324E-04 -3.333818E-05 -2.629324E-04 -2.190931E-04 
 +5.052971E-03 +8.271470E-05 -1.472178E-05 +8.271470E-05 +1.342108E-04 -1.778941E-04 -1.472178E-05 -1.778941E-04 -1.254370E-04 
 +4.893887E-03 +1.181325E-04 +6.740762E-05 +1.181325E-04 +1.452568E-04 -6.097772E-05 +6.740762E-05 -6.097772E-05 +3.440976E-05 
 +4.971728E-03 +1.313093E-04 +3.365076E-05 +1.313093E-04 +1.598552E-04 +4.744995E-05 +3.365076E-05 +4.744995E-05 +5.380796E-07 
 +4.975149E-03 +4.585204E-05 -4.813112E-05 +4.585204E-05 +1.219008E-04 +1.500207E-04 -4.813112E-05 +1.500207E-04 -4.423088E-05 
 +4.948917E-03 -1.373232E-04 -1.352930E-04 -1.373232E-04 +1.350208E-05 +2.354055E-04 -1.352930E-04 +2.354055E-04 -8.313194E-05 
 +5.089249E-03 -1.342048E-04 -1.236120E-04 -1.342048E-04 -3.335324E-05 +2.175067E-04 -1.236120E-04 +2.175067E-04 -1.854112E-04 
 +5.060952E-03 -1.017728E-04 -1.367954E-04 -1.017728E-04 -1.130756E-04 +1.467530E-04 -1.367954E-04 +1.467530E-04 -1.173793E-04 
 +5.079780E-03 +2.385131E-05 -6.863342E-05 +2.385131E-05 -2.541776E-04 +1.114619E-04 -6.863342E-05 +1.114619E-04 +7.991167E-05 
 +5.063051E-03 -9.079947E-05 -6.822738E-05 -9.079947E-05 -3.172431E-04 +1.379428E-04 -6.822738E-05 +1.379428E-04 +1.547481E-04 
 +5.134999E-03 -1.008887E-04 -8.016411E-05 -1.008887E-04 -4.119855E-04 +1.875539E-04 -8.016411E-05 +1.875539E-04 -9.541186E-05 
 +5.140681E-03 -6.512797E-05 +9.778785E-06 -6.512797E-05 -3.188767E-04 +2.558233E-04 +9.778785E-06 +2.558233E-04 -1.189306E-04 
 +5.045387E-03 -3.300415E-05 +1.013639E-04 -3.300415E-05 -1.160634E-04 +4.098338E-04 +1.013639E-04 +4.098338E-04 -1.395298E-04 
 +4.904805E-03 -5.854054E-05 +4.824831E-05 -5.854054E-05 +3.504406E-05 +5.432021E-04 +4.824831E-05 +5.432021E-04 -9.237657E-05 
 +4.690015E-03 -1.179462E-04 -4.297936E-06 -1.179462E-04 +7.385055E-05 +5.485516E-04 -4.297936E-06 +5.485516E-04 +5.586664E-05 
 +4.683006E-03 -1.423304E-04 -4.833459E-05 -1.423304E-04 -3.759715E-05 +4.398933E-04 -4.833459E-05 +4.398933E-04 +2.431426E-04 
 +4.892140E-03 -5.997625E-05 -4.950500E-05 -5.997625E-05 -1.642738E-04 +2.586510E-04 -4.950500E-05 +2.586510E-04 +3.066589E-04 
 +4.953808E-03 -2.060587E-05 +4.773698E-05 -2.060587E-05 -1.626066E-04 +3.356306E-05 +4.773698E-05 +3.356306E-05 +1.142791E-04 
 +4.962304E-03 -2.094639E-05 +1.366907E-04 -2.094639E-05 -9.948007E-05 -2.002613E-04 +1.366907E-04 -2.002613E-04 -1.012722E-04 
 +5.035752E-03 -2.011448E-05 +1.295363E-04 -2.011448E-05 -9.109505E-05 -3.579287E-04 +1.295363E-04 -3.579287E-04 -1.753027E-04 
 +5.075189E-03 +5.345309E-06 +1.505914E-04 +5.345309E-06 -1.849281E-04 -3.841731E-04 +1.505914E-04 -3.841731E-04 -9.819962E-05 
 +5.174989E-03 +5.087713E-05 +8.877949E-05 +5.087713E-05 -2.517978E-04 -3.270585E-04 +8.877949E-05 -3.270585E-04 -1.285491E-04 
 +5.191628E-03 +1.207184E-04 +4.652764E-05 +1.207184E-04 -1.282798E-04 -2.522167E-04 +4.652764E-05 -2.522167E-04 -2.224642E-04 
 +4.972829E-03 +5.515145E-05 +1.297257E-04 +5.515145E-05 +3.034593E-06 -1.297275E-04 +1.297257E-04 -1.297275E-04 -6.606420E-05 
 +4.889457E-03 +5.310142E-05 +1.001425E-04 +5.310142E-05 +4.843338E-05 -7.404755E-06 +1.001425E-04 -7.404755E-06 +6.054582E-05 
 +4.858980E-03 -5.579654E-06 +7.331785E-05 -5.579654E-06 +8.415901E-05 +9.967505E-05 +7.331785E-05 +9.967505E-05 +2.959117E-05 
 +4.863531E-03 -1.532674E-04 -1.169701E-04 -1.532674E-04 +9.670482E-05 +2.493050E-04 -1.169701E-04 +2.493050E-04 -5.743150E-05 
 +5.029164E-03 -9.998597E-05 -1.930723E-04 -9.998597E-05 +4.436067E-05 +2.714972E-04 -1.930723E-04 +2.714972E-04 -1.950774E-04 
 +4.995086E-03 -1.399444E-04 -1.082927E-04 -1.399444E-04 -1.213356E-04 +1.852001E-04 -1.082927E-04 +1.852001E-04 -1.990226E-04 
 +5.133182E-03 -1.627748E-05 -9.302729E-06 -1.627748E-05 -3.099411E-04 +1.487616E-04 -9.302729E-06 +1.487616E-04 -4.011839E-05 
 +5.111262E-03 -8.538438E-05 -5.809288E-05 -8.538438E-05 -3.931880E-04 +1.567134E-04 -5.809288E-05 +1.567134E-04 -1.076447E-05 
 +5.162473E-03 -1.096663E-04 -1.092083E-05 -1.096663E-04 +2.045835E-04 +2.430423E-04 -1.092083E-05 +2.430423E-04 -4.394177E-04 
 +5.104952E-03 -9.572014E-05 +3.164386E-05 -9.572014E-05 +3.901171E-04 +2.714639E-04 +3.164386E-05 +2.714639E-04 -4.625215E-04 
 +5.050490E-03 -1.203858E-04 -1.434790E-05 -1.203858E-04 +3.326094E-04 +2.746508E-04 -1.434790E-05 +2.746508E-04 -4.169506E-04 
 +4.933697E-03 -1.855279E-04 -4.117873E-05 -1.855279E-04 +3.011390E-04 +2.288891E-04 -4.117873E-05 +2.288891E-04 -3.718549E-04 
 +4.639051E-03 -2.632447E-04 -4.889755E-05 -2.632447E-04 +2.561225E-04 +1.685809E-04 -4.889755E-05 +1.685809E-04 -1.500163E-04 
 +4.661920E-03 -2.675299E-04 -1.327854E-05 -2.675299E-04 +6.637089E-05 +1.572948E-04 -1.327854E-05 +1.572948E-04 +5.649540E-05 
 +4.956555E-03 -1.015249E-04 -1.357232E-06 -1.015249E-04 -1.665226E-04 +1.463294E-04 -1.357232E-06 +1.463294E-04 +1.388774E-04 
 +4.964363E-03 +3.685692E-05 -9.831442E-06 +3.685692E-05 -2.047836E-04 +3.047286E-05 -9.831442E-06 +3.047286E-05 +9.860712E-05 
 +4.992778E-03 +4.490678E-06 +6.899078E-05 +4.490678E-06 -1.250600E-04 -1.513084E-04 +6.899078E-05 -1.513084E-04 -6.110925E-05 
 +5.064567E-03 -4.675967E-05 +8.242641E-05 -4.675967E-05 -1.379533E-04 -2.892324E-04 +8.242641E-05 -2.892324E-04 -2.108555E-04 
 +5.118579E-03 -4.454696E-05 +1.348390E-04 -4.454696E-05 -2.207439E-04 -3.355321E-04 +1.348390E-04 -3.355321E-04 -1.285235E-04 
 +5.232802E-03 +6.148532E-05 +1.704269E-04 +6.148532E-05 -2.901618E-04 -3.308074E-04 +1.704269E-04 -3.308074E-04 -1.009901E-04 
 +5.243514E-03 +1.754541E-04 +1.312331E-04 +1.754541E-04 -2.411100E-04 -2.943667E-04 +1.312331E-04 -2.943667E-04 -2.003721E-04 
 +4.965107E-03 +2.935245E-05 +1.907536E-04 +2.935245E-05 -8.954025E-05 -1.764722E-04 +1.907536E-04 -1.764722E-04 -4.495779E-05 
 +4.902551E-03 +2.999049E-05 +1.567602E-04 +2.999049E-05 +6.858891E-06 -6.638465E-05 +1.567602E-04 -6.638465E-05 +7.128869E-05 
 +4.893390E-03 +2.024476E-05 +1.477219E-04 +2.024476E-05 +4.672667E-05 -2.852971E-05 +1.477219E-04 -2.852971E-05 +4.909313E-05 
 +4.867795E-03 -6.395548E-05 +4.779832E-05 -6.395548E-05 +6.647181E-05 +1.261074E-04 +4.779832E-05 +1.261074E-04 -1.724100E-05 
 +4.927660E-03 -6.651526E-05 -2.223849E-04 -6.651526E-05 +5.260674E-05 +2.349781E-04 -2.223849E-04 +2.349781E-04 -1.751190E-04 
 +4.966088E-03 -1.803821E-04 -1.310555E-04 -1.803821E-04 -4.928282E-05 +1.636695E-04 -1.310555E-04 +1.636695E-04 -1.910158E-04 
 +5.025302E-03 -7.765150E-05 -7.234313E-06 -7.765150E-05 -2.534231E-04 +1.522084E-04 -7.234313E-06 +1.522084E-04 -9.632970E-05 
 +5.064454E-03 -7.819324E-05 -6.627720E-05 -7.819324E-05 -1.832018E-04 +2.030230E-04 -6.627720E-05 +2.030230E-04 -2.029096E-04 
 +5.247149E-03 -1.825804E-05 +1.101432E-04 -1.825804E-05 +2.808169E-04 +2.267275E-04 +1.101432E-04 +2.267275E-04 -3.581739E-04 
 +5.107713E-03 -5.555849E-05 -1.421755E-05 -5.555849E-05 +3.099080E-04 +3.218207E-04 -1.421755E-05 +3.218207E-04 -3.807651E-04 
 +4.993994E-03 -9.682958E-05 -1.395924E-04 -9.682958E-05 +3.499545E-04 +3.160243E-04 -1.395924E-04 +3.160243E-04 -3.533054E-04 
 +4.950249E-03 -1.709225E-04 -1.476763E-04 -1.709225E-04 +2.427792E-04 +3.048523E-04 -1.476763E-04 +3.048523E-04 -4.647567E-04 
 +4.821850E-03 -1.649088E-04 -5.825985E-05 -1.649088E-04 +1.612468E-04 +2.157090E-04 -5.825985E-05 +2.157090E-04 -4.425901E-04 
 +4.789017E-03 -9.808293E-05 +3.038362E-05 -9.808293E-05 +2.293928E-04 +1.039270E-04 +3.038362E-05 +1.039270E-04 -2.744698E-04 
 +4.902579E-03 -1.982494E-05 +5.197858E-05 -1.982494E-05 +1.615600E-04 +6.389357E-05 +5.197858E-05 +6.389357E-05 -9.407329E-05 
 +4.915859E-03 +7.669366E-05 -1.211618E-05 +7.669366E-05 -1.700186E-04 +7.346435E-05 -1.211618E-05 +7.346435E-05 +1.236114E-04 
 +4.982101E-03 +1.070067E-04 -3.165074E-05 +1.070067E-04 -3.457771E-04 +1.049893E-05 -3.165074E-05 +1.049893E-05 +8.757249E-05 
 +5.071167E-03 -3.452509E-05 +3.065228E-05 -3.452509E-05 -3.414508E-04 -1.172597E-04 +3.065228E-05 -1.172597E-04 -8.250202E-05 
 +5.117845E-03 -1.010656E-04 +1.157715E-04 -1.010656E-04 -4.341673E-04 -1.621942E-04 +1.157715E-04 -1.621942E-04 +8.941764E-06 
 +5.171379E-03 -1.804448E-05 +2.054127E-04 -1.804448E-05 -4.599048E-04 -1.953090E-04 +2.054127E-04 -1.953090E-04 +8.453969E-06 
 +5.182306E-03 +6.939803E-05 +1.937557E-04 +6.939803E-05 -4.069800E-04 -2.018733E-04 +1.937557E-04 -2.018733E-04 -7.977055E-05 
 +5.053088E-03 +1.799284E-05 +2.102880E-04 +1.799284E-05 -2.535546E-04 -1.253534E-04 +2.102880E-04 -1.253534E-04 +6.337926E-05 
 +4.967022E-03 -2.101048E-05 +1.734713E-04 -2.101048E-05 -7.908147E-05 -6.364129E-05 +1.734713E-04 -6.364129E-05 +1.133252E-04 
 +5.016408E-03 -3.467347E-05 +1.483883E-04 -3.467347E-05 -5.277371E-05 -2.504798E-05 +1.483883E-04 -2.504798E-05 +5.694023E-05 
 +5.007681E-03 -5.776837E-05 +1.902124E-04 -5.776837E-05 +1.193300E-05 +6.460030E-05 +1.902124E-04 +6.460030E-05 +2.732579E-05 
 +4.842775E-03 -1.388136E-05 -2.094534E-04 -1.388136E-05 +6.263797E-05 +7.018891E-05 -2.094534E-04 +7.018891E-05 -4.039768E-05 
 +4.916751E-03 -1.042057E-04 -1.810642E-04 -1.042057E-04 +1.346493E-04 -1.780649E-05 -1.810642E-04 -1.780649E-05 -7.095761E-05 
 +4.779067E-03 -5.988988E-05 -9.403686E-05 -5.988988E-05 +3.369168E-04 -3.950900E-05 -9.403686E-05 -3.950900E-05 -9.242825E-05 
 +4.902021E-03 -1.040520E-05 -9.823959E-06 -1.040520E-05 +3.762464E-04 +4.536741E-05 -9.823959E-06 +4.536741E-05 -1.917659E-04 
 +5.189159E-03 +7.663097E-05 +9.196542E-05 +7.663097E-05 -5.701601E-06 -3.180694E-04 +9.196542E-05 -3.180694E-04 -1.238161E-04 
 +5.139053E-03 +2.987778E-05 -2.124995E-05 +2.987778E-05 -2.023370E-05 -3.485043E-04 -2.124995E-05 -3.485043E-04 -1.712759E-04 
 +4.997330E-03 -3.661421E-05 -1.009259E-04 -3.661421E-05 +7.053016E-06 -2.957311E-04 -1.009259E-04 -2.957311E-04 -1.515855E-04 
 +4.954118E-03 -1.675803E-04 -1.118392E-04 -1.675803E-04 -4.808214E-05 -1.346786E-04 -1.118392E-04 -1.346786E-04 -2.343436E-04 
 +5.015548E-03 -8.971062E-05 -2.997882E-05 -8.971062E-05 -6.885268E-06 -3.965617E-06 -2.997882E-05 -3.965617E-06 -3.063983E-04 
 +4.944116E-03 -1.013907E-04 -1.348553E-05 -1.013907E-04 +1.388595E-04 +4.629682E-05 -1.348553E-05 +4.629682E-05 -2.565614E-04 
 +4.871390E-03 -5.787839E-05 +1.304556E-05 -5.787839E-05 +2.501948E-04 +7.226026E-05 +1.304556E-05 +7.226026E-05 -1.599663E-04 
 +4.869917E-03 +4.922849E-05 -3.008175E-06 +4.922849E-05 +3.108059E-04 +6.076604E-05 -3.008175E-06 +6.076604E-05 -3.327031E-05 
 +4.961357E-03 +1.719384E-04 -4.278283E-05 +1.719384E-04 +1.715447E-04 +5.952149E-05 -4.278283E-05 +5.952149E-05 -1.451723E-05 
 +5.062928E-03 +8.027507E-05 +1.879644E-05 +8.027507E-05 +2.645002E-05 +7.781094E-05 +1.879644E-05 +7.781094E-05 -8.407381E-05 
 +5.026220E-03 -5.769472E-06 +1.052107E-04 -5.769472E-06 +1.867634E-05 +6.394887E-05 +1.052107E-04 +6.394887E-05 -1.999455E-05 
 +4.947839E-03 +8.898237E-05 +1.131152E-04 +8.898237E-05 +2.329050E-05 -4.581225E-05 +1.131152E-04 -4.581225E-05 +1.708128E-05 
 +5.046002E-03 +5.061335E-05 +4.370728E-05 +5.061335E-05 -8.476731E-05 -1.998989E-04 +4.370728E-05 -1.998989E-04 +2.563074E-05 
 +5.055169E-03 -1.699543E-05 +1.216476E-04 -1.699543E-05 -2.458023E-04 -1.871946E-04 +1.216476E-04 -1.871946E-04 +1.714060E-04 
 +5.105291E-03 -9.617046E-05 +1.463148E-04 -9.617046E-05 -2.233480E-04 -9.999355E-05 +1.463148E-04 -9.999355E-05 +1.945919E-04 
 +5.149919E-03 -1.322006E-04 +1.554675E-04 -1.322006E-04 -1.323635E-04 -6.281800E-05 +1.554675E-04 -6.281800E-05 +9.611907E-05 
 +5.144529E-03 -1.366700E-04 +1.976723E-04 -1.366700E-04 -8.285329E-05 -6.744673E-06 +1.976723E-04 -6.744673E-06 +4.294686E-05 
 +4.941770E-03 -1.100887E-04 -1.496007E-04 -1.100887E-04 +5.769930E-05 +2.043984E-05 -1.496007E-04 +2.043984E-05 +9.959321E-05 
 +4.790907E-03 -1.058273E-04 -1.581431E-04 -1.058273E-04 +2.500184E-04 -1.917859E-05 -1.581431E-04 -1.917859E-05 +1.548991E-04 
 +4.669039E-03 -3.222707E-05 -1.563180E-04 -3.222707E-05 +2.950172E-04 -9.560757E-05 -1.563180E-04 -9.560757E-05 +9.137134E-05 
 +4.856452E-03 +2.766147E-05 +1.265370E-05 +2.766147E-05 +1.414139E-04 -2.168962E-04 +1.265370E-05 -2.168962E-04 +2.075942E-06 
 +5.080418E-03 +9.188684E-05 -3.258515E-05 +9.188684E-05 -2.671367E-05 -3.142177E-04 -3.258515E-05 -3.142177E-04 -5.633854E-05 
 +5.131699E-03 +1.295124E-04 +2.028652E-05 +1.295124E-04 -5.730468E-05 -2.921855E-04 +2.028652E-05 -2.921855E-04 -7.590887E-05 
 +4.990688E-03 +2.172406E-05 +3.605125E-05 +2.172406E-05 -2.755966E-05 -1.865725E-04 +3.605125E-05 -1.865725E-04 -5.279459E-05 
 +4.890673E-03 -2.115955E-04 +2.618037E-05 -2.115955E-04 -1.115953E-05 +4.937351E-05 +2.618037E-05 +4.937351E-05 -7.425680E-05 
 +5.084917E-03 -9.281752E-05 +2.639048E-05 -9.281752E-05 -3.696397E-05 +1.297716E-04 +2.639048E-05 +1.297716E-04 -1.750271E-04 
 +5.044613E-03 -1.136993E-04 -6.961897E-06 -1.136993E-04 -8.610721E-07 +1.165417E-04 -6.961897E-06 +1.165417E-04 -1.927085E-04 
 +4.940719E-03 -7.188530E-05 -6.365552E-06 -7.188530E-05 +1.247404E-04 +1.658447E-04 -6.365552E-06 +1.658447E-04 -1.479162E-04 
 +4.914507E-03 -2.127222E-05 -1.767649E-05 -2.127222E-05 +2.139228E-04 +2.034682E-04 -1.767649E-05 +2.034682E-04 -1.688387E-04 
 +4.991060E-03 +3.378117E-05 -3.811958E-07 +3.378117E-05 +1.726525E-04 +2.147752E-04 -3.811958E-07 +2.147752E-04 -1.958478E-04 
 +5.059708E-03 +3.224150E-05 +3.928158E-05 +3.224150E-05 +9.594117E-05 +1.931388E-04 +3.928158E-05 +1.931388E-04 -2.242805E-04 
 +5.018896E-03 +3.229613E-05 +5.813063E-05 +3.229613E-05 +1.100176E-04 +6.225600E-05 +5.813063E-05 +6.225600E-05 -1.762327E-04 
 +4.805606E-03 +2.286202E-04 -3.700907E-05 +2.286202E-04 +1.371657E-04 -8.603471E-05 -3.700907E-05 -8.603471E-05 -3.833682E-06 
 +4.859748E-03 +1.813808E-04 -1.140176E-04 +1.813808E-04 +7.137366E-05 -7.833315E-05 -1.140176E-04 -7.833315E-05 +1.384750E-04 
 +4.912307E-03 +1.513979E-04 -1.730015E-05 +1.513979E-04 -5.192066E-05 -2.951066E-05 -1.730015E-05 -2.951066E-05 +2.136889E-04 
 +5.065113E-03 +2.592375E-05 +4.148523E-05 +2.592375E-05 -1.751509E-04 -7.653137E-05 +4.148523E-05 -7.653137E-05 +2.045233E-04 
 +5.141789E-03 -1.709779E-04 +1.543840E-04 -1.709779E-04 -1.832774E-04 -1.092163E-04 +1.543840E-04 -1.092163E-04 +1.098251E-04 
 +5.182654E-03 -2.706200E-04 +2.037790E-04 -2.706200E-04 -1.059188E-04 -9.043639E-05 +2.037790E-04 -9.043639E-05 +1.395012E-05 
 +5.124532E-03 -1.856164E-04 -4.389029E-05 -1.856164E-04 -1.216550E-05 -6.444159E-05 -4.389029E-05 -6.444159E-05 +4.730867E-06 
 +4.922371E-03 -6.341359E-05 -5.501618E-05 -6.341359E-05 +1.379611E-04 -5.119633E-05 -5.501618E-05 -5.119633E-05 +1.021821E-04 
 +4.708257E-03 +7.491301E-06 -8.633989E-05 +7.491301E-06 +1.831384E-04 -1.217026E-04 -8.633989E-05 -1.217026E-04 +1.395161E-04 
 +4.867922E-03 -1.705530E-05 -3.336798E-05 -1.705530E-05 +8.078261E-05 -2.628622E-04 -3.336798E-05 -2.628622E-04 +4.126305E-05 
 +4.965695E-03 -6.338724E-06 -8.970595E-05 -6.338724E-06 +3.457858E-05 -1.905781E-04 -8.970595E-05 -1.905781E-04 -1.085761E-04 
 +5.122580E-03 +9.174893E-05 +6.514547E-05 +9.174893E-05 -4.651733E-05 -1.818548E-04 +6.514547E-05 -1.818548E-04 -1.308172E-04 
 +4.951198E-03 -2.498234E-05 +1.524429E-04 -2.498234E-05 -5.863767E-05 -1.454264E-06 +1.524429E-04 -1.454264E-06 -1.451422E-05 
 +4.937523E-03 -1.503825E-04 +8.872319E-05 -1.503825E-04 -9.382690E-05 +1.330427E-04 +8.872319E-05 +1.330427E-04 +3.442704E-05 
 +5.074773E-03 +1.193230E-05 +1.210269E-04 +1.193230E-05 -6.910869E-05 +1.293800E-04 +1.210269E-04 +1.293800E-04 -2.379965E-05 
 +4.992775E-03 -6.259024E-05 +6.631543E-05 -6.259024E-05 -2.848469E-05 +1.618658E-04 +6.631543E-05 +1.618658E-04 -9.056875E-05 
 +5.006109E-03 -5.859874E-05 -8.671125E-06 -5.859874E-05 +5.091723E-05 +1.586489E-04 -8.671125E-06 +1.586489E-04 -1.408811E-04 
 +5.004754E-03 -4.073959E-05 +2.082956E-05 -4.073959E-05 +1.109061E-04 +1.405811E-04 +2.082956E-05 +1.405811E-04 -1.755248E-04 
 +5.036323E-03 -3.111540E-05 +2.434302E-05 -3.111540E-05 +1.239900E-04 +1.619160E-04 +2.434302E-05 +1.619160E-04 -2.064432E-04 
 +5.083578E-03 -8.774690E-06 +5.873993E-05 -8.774690E-06 +1.116596E-04 +1.475508E-04 +5.873993E-05 +1.475508E-04 -2.442518E-04 
 +5.081159E-03 +2.244607E-05 +6.765822E-06 +2.244607E-05 +1.035928E-04 +4.754782E-05 +6.765822E-06 +4.754782E-05 -1.881497E-04 
 +4.810424E-03 +1.798712E-04 -1.087207E-04 +1.798712E-04 +1.033506E-04 -1.966243E-05 -1.087207E-04 -1.966243E-05 -2.423234E-06 
 +4.771954E-03 +1.540384E-04 -1.116453E-04 +1.540384E-04 +8.994662E-05 +3.545063E-05 -1.116453E-04 +3.545063E-05 +1.141648E-04 
 +4.823329E-03 +1.712804E-04 -8.785811E-05 +1.712804E-04 +4.159428E-05 +1.015461E-04 -8.785811E-05 +1.015461E-04 +1.219718E-04 
 +4.906684E-03 +1.287029E-04 -4.073748E-05 +1.287029E-04 -3.547320E-05 +1.206003E-04 -4.073748E-05 +1.206003E-04 +7.059672E-05 
 +4.959894E-03 +8.034267E-05 +2.068745E-05 +8.034267E-05 -6.581827E-06 +4.456741E-05 +2.068745E-05 +4.456741E-05 -3.368082E-05 
 +5.131152E-03 -1.167334E-04 +1.252577E-04 -1.167334E-04 +3.827892E-05 -6.668626E-05 +1.252577E-04 -6.668626E-05 -1.797126E-04 
 +5.253704E-03 -5.841426E-05 +4.303638E-05 -5.841426E-05 +4.420021E-05 -6.215664E-05 +4.303638E-05 -6.215664E-05 -3.649988E-04 
 +5.118993E-03 -4.452851E-05 +2.143220E-05 -4.452851E-05 +1.000560E-04 -1.056527E-05 +2.143220E-05 -1.056527E-05 -3.739194E-04 
 +4.855471E-03 -7.240963E-05 -2.362866E-05 -7.240963E-05 +1.447782E-04 -4.503134E-05 -2.362866E-05 -4.503134E-05 -1.703719E-04 
 +4.850117E-03 -5.053795E-05 -3.084339E-05 -5.053795E-05 +1.523112E-04 -1.191645E-04 -3.084339E-05 -1.191645E-04 -5.283428E-05 
 +4.888372E-03 -2.983632E-05 -1.027525E-05 -2.983632E-05 +7.144271E-05 +6.779441E-05 -1.027525E-05 +6.779441E-05 -8.174878E-05 
 +5.061344E-03 +1.573764E-04 +8.976039E-05 +1.573764E-04 -7.043532E-05 +1.579623E-04 +8.976039E-05 +1.579623E-04 -8.541814E-05 
 +4.940278E-03 +2.397245E-06 +1.274919E-04 +2.397245E-06 -1.675365E-04 +1.126375E-04 +1.274919E-04 +1.126375E-04 -3.573733E-06 
 +4.998496E-03 -1.652208E-04 +1.223921E-04 -1.652208E-04 -1.872070E-04 +3.189113E-05 +1.223921E-04 +3.189113E-05 +7.637924E-05 
 +4.999779E-03 -3.887918E-05 +2.119184E-04 -3.887918E-05 -1.299190E-04 -4.504408E-05 +2.119184E-04 -4.504408E-05 +2.032677E-04 
 +4.908406E-03 -7.892292E-05 +1.471954E-04 -7.892292E-05 -4.154286E-05 -4.001521E-05 +1.471954E-04 -4.001521E-05 +1.255459E-04 
 +5.097622E-03 -6.705201E-06 +1.657149E-05 -6.705201E-06 +6.009069E-06 +6.947726E-05 +1.657149E-05 +6.947726E-05 -7.160720E-05 
 +5.068084E-03 -2.551356E-05 +5.893784E-05 -2.551356E-05 +5.798960E-05 +1.200012E-04 +5.893784E-05 +1.200012E-04 -1.438989E-04 
 +5.074353E-03 -3.971039E-05 +5.245454E-05 -3.971039E-05 +9.179113E-05 +1.206774E-04 +5.245454E-05 +1.206774E-04 -1.738334E-04 
 +5.124133E-03 -3.939180E-05 +5.820381E-05 -3.939180E-05 +1.017655E-04 +1.101997E-04 +5.820381E-05 +1.101997E-04 -2.310881E-04 
 +5.092308E-03 +2.951653E-07 -1.478880E-05 +2.951653E-07 +1.204619E-04 +4.000802E-05 -1.478880E-05 +4.000802E-05 -2.072190E-04 
 +4.831904E-03 +1.372577E-04 -1.117044E-04 +1.372577E-04 +1.398153E-04 +4.159083E-06 -1.117044E-04 +4.159083E-06 -6.856230E-05 
 +4.774912E-03 +1.160021E-04 -9.925812E-05 +1.160021E-04 +1.387409E-04 +6.951547E-05 -9.925812E-05 +6.951547E-05 -1.353601E-05 
 +4.813936E-03 +1.274076E-04 -9.846596E-05 +1.274076E-04 +1.222007E-04 +1.151073E-04 -9.846596E-05 +1.151073E-04 -3.110938E-05 
 +4.841072E-03 +1.206467E-04 -7.233593E-05 +1.206467E-04 +1.405305E-04 +1.239064E-04 -7.233593E-05 +1.239064E-04 -8.880146E-05 
 +4.835143E-03 +1.441381E-04 -9.677218E-05 +1.441381E-04 +1.876069E-04 +1.466675E-04 -9.677218E-05 +1.466675E-04 -2.108091E-04 
 +5.126398E-03 -4.274123E-06 +4.593906E-06 -4.274123E-06 +2.067136E-04 +1.557907E-04 +4.593906E-06 +1.557907E-04 -3.885564E-04 
 +5.208239E-03 +6.588012E-05 +2.211370E-05 +6.588012E-05 +1.840454E-04 +1.101181E-04 +2.211370E-05 +1.101181E-04 -5.363877E-04 
 +5.164552E-03 +5.260669E-05 -1.511800E-05 +5.260669E-05 +1.580573E-04 +7.070680E-05 -1.511800E-05 +7.070680E-05 -5.911528E-04 
 +5.025788E-03 +5.870791E-08 -2.825834E-05 +5.870791E-08 +1.951401E-04 +4.261993E-05 -2.825834E-05 +4.261993E-05 -4.240983E-04 
 +4.863067E-03 -7.475934E-05 -9.761462E-06 -7.475934E-05 +1.807955E-04 +9.441678E-06 -9.761462E-06 +9.441678E-06 -1.328469E-04 
 +4.894561E-03 -9.389864E-05 +4.918140E-05 -9.389864E-05 +9.291485E-05 +1.203809E-05 +4.918140E-05 +1.203809E-05 +4.299835E-08 
 +4.943299E-03 +4.195575E-06 +7.160125E-05 +4.195575E-06 +1.072100E-05 -1.231542E-05 +7.160125E-05 -1.231542E-05 +2.829299E-05 
 +4.940795E-03 -5.820693E-05 +6.601054E-05 -5.820693E-05 -1.027287E-04 +6.077079E-05 +6.601054E-05 +6.077079E-05 +4.151313E-05 
 +4.928394E-03 -1.940749E-04 +1.134571E-04 -1.940749E-04 -9.520469E-05 +1.113487E-04 +1.134571E-04 +1.113487E-04 +4.673964E-05 
 +5.016597E-03 +2.305056E-05 +1.639450E-04 +2.305056E-05 -5.387440E-05 +9.372229E-05 +1.639450E-04 +9.372229E-05 +1.111468E-04 
 +4.990808E-03 +3.467377E-05 +1.357421E-04 +3.467377E-05 -2.803227E-05 +6.431088E-05 +1.357421E-04 +6.431088E-05 +7.970556E-05 
 +5.097190E-03 +1.009868E-04 +1.310300E-04 +1.009868E-04 +4.291285E-06 +9.583705E-05 +1.310300E-04 +9.583705E-05 -3.403923E-05 
 +5.087784E-03 +2.423529E-05 +7.123159E-05 +2.423529E-05 +4.338592E-05 +1.285765E-04 +7.123159E-05 +1.285765E-04 -9.665465E-05 
 +5.077225E-03 -2.581020E-05 -3.544279E-06 -2.581020E-05 +7.151476E-05 +7.653999E-05 -3.544279E-06 +7.653999E-05 -1.377969E-04 
 +5.128614E-03 -5.093908E-05 +3.918210E-05 -5.093908E-05 +1.084914E-04 +3.959729E-05 +3.918210E-05 +3.959729E-05 -2.331893E-04 
 +5.121478E-03 -1.591436E-06 -2.308804E-05 -1.591436E-06 +1.544581E-04 -3.815704E-06 -2.308804E-05 -3.815704E-06 -2.521419E-04 
 +4.839237E-03 +1.396272E-04 -7.520811E-05 +1.396272E-04 +2.093173E-04 -3.121094E-05 -7.520811E-05 -3.121094E-05 -1.444469E-04 
 +4.796494E-03 +9.190044E-05 -5.406820E-05 +9.190044E-05 +2.336224E-04 +1.965714E-05 -5.406820E-05 +1.965714E-05 -1.097068E-04 
 +4.816002E-03 +9.216018E-05 -7.835902E-05 +9.216018E-05 +2.115063E-04 +7.570819E-05 -7.835902E-05 +7.570819E-05 -1.421196E-04 
 +4.822497E-03 +1.534287E-04 -1.032475E-04 +1.534287E-04 +2.334498E-04 +9.718374E-05 -1.032475E-04 +9.718374E-05 -1.984204E-04 
 +4.882477E-03 +2.027108E-04 -7.748385E-05 +2.027108E-04 +2.172508E-04 +9.861789E-05 -7.748385E-05 +9.861789E-05 -2.929597E-04 
 +5.088421E-03 +6.842528E-05 -2.276565E-05 +6.842528E-05 +2.040129E-04 +9.816045E-05 -2.276565E-05 +9.816045E-05 -3.940928E-04 
 +5.092556E-03 +3.673392E-05 -5.276441E-05 +3.673392E-05 +2.233123E-04 +6.975103E-05 -5.276441E-05 +6.975103E-05 -4.441688E-04 
 +5.173610E-03 +2.221241E-05 -9.097271E-05 +2.221241E-05 +1.725478E-04 +7.407013E-05 -9.097271E-05 +7.407013E-05 -5.040781E-04 
 +5.113444E-03 -1.936563E-05 -4.548687E-05 -1.936563E-05 +1.484076E-04 +7.927330E-05 -4.548687E-05 +7.927330E-05 -4.404379E-04 
 +4.886673E-03 -1.541681E-04 -6.135876E-06 -1.541681E-04 +1.147411E-04 +6.038008E-05 -6.135876E-06 +6.038008E-05 -1.547550E-04 
 +4.880664E-03 -1.275305E-04 +1.977259E-05 -1.275305E-04 +6.772191E-05 +1.202340E-04 +1.977259E-05 +1.202340E-04 -3.451722E-05 
 +4.898111E-03 -5.530687E-05 +3.690454E-05 -5.530687E-05 +2.963710E-05 +1.151171E-04 +3.690454E-05 +1.151171E-04 +1.827568E-05 
 +4.937180E-03 -5.680216E-05 +6.393540E-05 -5.680216E-05 -3.527469E-05 +1.175053E-04 +6.393540E-05 +1.175053E-04 +3.708811E-05 
 +4.930098E-03 -1.094046E-04 +6.560037E-05 -1.094046E-04 -1.889579E-05 +1.434339E-04 +6.560037E-05 +1.434339E-04 +1.519635E-05 
 +5.079239E-03 +6.266541E-05 +1.058824E-04 +6.266541E-05 -1.082819E-05 +1.487462E-04 +1.058824E-04 +1.487462E-04 +3.964434E-06 
 +5.060717E-03 +3.323123E-05 +1.052085E-04 +3.323123E-05 -4.119300E-05 +1.299858E-04 +1.052085E-04 +1.299858E-04 +2.533189E-05 
 +5.043106E-03 +6.510585E-05 +1.665640E-04 +6.510585E-05 -7.045486E-05 -5.247017E-06 +1.665640E-04 -5.247017E-06 +4.440066E-05 
 +5.074815E-03 +2.295402E-05 +1.113276E-04 +2.295402E-05 -9.271172E-05 -1.244619E-04 +1.113276E-04 -1.244619E-04 +1.466314E-05 
 +5.047586E-03 +1.126015E-05 -5.704417E-05 +1.126015E-05 +3.494354E-05 -7.765123E-05 -5.704417E-05 -7.765123E-05 -7.381981E-05 
 +5.117941E-03 -6.453241E-05 -1.614001E-05 -6.453241E-05 +1.343859E-04 -6.623263E-05 -1.614001E-05 -6.623263E-05 -2.130526E-04 
 +5.114237E-03 -1.555831E-05 +1.561636E-06 -1.555831E-05 +1.727316E-04 -1.202651E-04 +1.561636E-06 -1.202651E-04 -2.293833E-04 
 +4.917847E-03 +1.120456E-04 -4.122361E-05 +1.120456E-04 +2.091535E-04 -1.401143E-04 -4.122361E-05 -1.401143E-04 -1.258831E-04 
 +4.882419E-03 +1.224876E-04 -3.351445E-06 +1.224876E-04 +2.012824E-04 -8.919720E-05 -3.351445E-06 -8.919720E-05 -1.155708E-04 
 +4.824508E-03 +1.839809E-04 -1.531189E-05 +1.839809E-04 +2.588746E-04 -1.652683E-06 -1.531189E-05 -1.652683E-06 -1.647581E-04 
 +4.759077E-03 +1.915273E-04 -4.061963E-05 +1.915273E-04 +2.898033E-04 +1.112872E-04 -4.061963E-05 +1.112872E-04 -2.365304E-04 
 +4.942392E-03 +1.038189E-04 -6.270893E-05 +1.038189E-04 +2.451936E-04 +1.859302E-04 -6.270893E-05 +1.859302E-04 -3.008926E-04 
 +4.978065E-03 +3.701957E-05 -6.004782E-05 +3.701957E-05 +2.556483E-04 +1.552547E-04 -6.004782E-05 +1.552547E-04 -3.312632E-04 
 +5.025155E-03 -4.195952E-06 -9.235817E-05 -4.195952E-06 +2.671363E-04 +9.468083E-05 -9.235817E-05 +9.468083E-05 -3.845057E-04 
 +5.124212E-03 -3.339843E-05 -1.265431E-04 -3.339843E-05 +2.016877E-04 +9.833003E-05 -1.265431E-04 +9.833003E-05 -4.765171E-04 
 +5.149225E-03 -9.452205E-05 -5.902136E-05 -9.452205E-05 +9.136409E-05 +9.489459E-05 -5.902136E-05 +9.489459E-05 -4.474741E-04 
 +4.951470E-03 -2.209485E-04 +1.567050E-05 -2.209485E-04 +5.220187E-05 +9.171149E-05 +1.567050E-05 +9.171149E-05 -2.188753E-04 
 +4.880530E-03 -1.231124E-04 +5.133855E-05 -1.231124E-04 +4.184429E-05 +1.759456E-04 +5.133855E-05 +1.759456E-04 -7.883891E-05 
 +4.934958E-03 -5.953189E-05 +2.240213E-05 -5.953189E-05 +3.919273E-05 +1.318745E-04 +2.240213E-05 +1.318745E-04 -6.938504E-05 
 +4.984514E-03 -2.181625E-05 +3.520556E-05 -2.181625E-05 +2.394155E-05 +8.467360E-05 +3.520556E-05 +8.467360E-05 -1.355783E-04 
 +5.026770E-03 +4.669026E-05 +8.728600E-05 +4.669026E-05 +5.532689E-05 +8.628077E-05 +8.728600E-05 +8.628077E-05 -2.069001E-04 
 +5.028931E-03 +1.135518E-04 +1.499143E-04 +1.135518E-04 +4.989219E-05 +1.625507E-04 +1.499143E-04 +1.625507E-04 -1.931572E-04 
 +5.013328E-03 +8.328112E-05 +1.715024E-04 +8.328112E-05 +7.753981E-07 +1.682986E-04 +1.715024E-04 +1.682986E-04 -1.217167E-04 
 +4.998282E-03 +4.372767E-05 +1.401990E-04 +4.372767E-05 -1.429917E-05 +1.719003E-05 +1.401990E-04 +1.719003E-05 -1.262131E-06 
 +5.026609E-03 +3.681563E-06 +1.190104E-04 +3.681563E-06 -5.448451E-05 -2.437709E-04 +1.190104E-04 -2.437709E-04 +8.933492E-05 
 +5.051389E-03 +7.320556E-05 -5.731916E-05 +7.320556E-05 -4.309259E-05 -3.834338E-04 -5.731916E-05 -3.834338E-04 +4.087267E-05 
 +5.072218E-03 -5.423604E-05 -4.152834E-05 -5.423604E-05 +5.384904E-05 -2.779651E-04 -4.152834E-05 -2.779651E-04 -4.054321E-05 
 +4.989789E-03 -8.797691E-05 +5.836998E-05 -8.797691E-05 +4.704365E-05 -1.516716E-04 +5.836998E-05 -1.516716E-04 -1.040389E-05 
 +4.953731E-03 -5.076123E-05 +2.511336E-05 -5.076123E-05 -2.683093E-05 -1.502215E-04 +2.511336E-05 -1.502215E-04 +4.010306E-05 
 +4.922706E-03 -1.388843E-04 +2.377985E-05 -1.388843E-04 -2.201907E-05 -1.524349E-04 +2.377985E-05 -1.524349E-04 +1.739357E-05 
 +4.868235E-03 -6.415177E-05 +6.634983E-05 -6.415177E-05 +6.529820E-05 -1.106621E-04 +6.634983E-05 -1.106621E-04 -4.333622E-05 
 +4.793658E-03 -1.042332E-05 +1.164874E-04 -1.042332E-05 +1.729395E-04 -3.348332E-06 +1.164874E-04 -3.348332E-06 -1.594683E-04 
 +4.980491E-03 +4.378988E-05 -3.982934E-05 +4.378988E-05 +2.552734E-04 +9.361597E-05 -3.982934E-05 +9.361597E-05 -2.386336E-04 
 +4.972412E-03 +2.269477E-05 -7.878446E-05 +2.269477E-05 +3.017524E-04 +1.182876E-04 -7.878446E-05 +1.182876E-04 -2.679145E-04 
 +4.996593E-03 -2.632088E-05 -1.130432E-04 -2.632088E-05 +2.788418E-04 +1.183453E-04 -1.130432E-04 +1.183453E-04 -3.069171E-04 
 +5.089363E-03 -8.172709E-05 -8.955832E-05 -8.172709E-05 +1.664461E-04 +1.818869E-04 -8.955832E-05 +1.818869E-04 -3.468252E-04 
 +5.132601E-03 -1.405404E-04 -2.360574E-05 -1.405404E-04 -1.462463E-05 +2.771780E-04 -2.360574E-05 +2.771780E-04 -3.454242E-04 
 +5.021046E-03 -1.527922E-04 +3.853946E-05 -1.527922E-04 -3.232589E-05 +2.582083E-04 +3.853946E-05 +2.582083E-04 -2.230267E-04 
 +4.940845E-03 -7.847364E-05 +1.063444E-05 -7.847364E-05 +4.354713E-05 +2.932021E-05 +1.063444E-05 +2.932021E-05 -1.568491E-04 
 +4.995188E-03 +4.738861E-06 +1.684732E-05 +4.738861E-06 +6.997442E-05 -5.279220E-05 +1.684732E-05 -5.279220E-05 -2.314524E-04 
 +5.045245E-03 +4.085295E-05 +3.450911E-05 +4.085295E-05 +1.250386E-04 -5.972505E-05 +3.450911E-05 -5.972505E-05 -3.118413E-04 
 +5.064171E-03 +3.405299E-05 +1.055488E-04 +3.405299E-05 +1.815515E-04 -2.555704E-05 +1.055488E-04 -2.555704E-05 -3.772065E-04 
 +5.000930E-03 +3.643766E-05 +2.111922E-04 +3.643766E-05 +1.550694E-04 +7.321223E-05 +2.111922E-04 +7.321223E-05 -3.871337E-04 
 +4.920553E-03 +8.855925E-05 +1.983721E-04 +8.855925E-05 +1.380929E-04 +1.166409E-04 +1.983721E-04 +1.166409E-04 -2.490785E-04 
 +4.912996E-03 +9.197645E-06 +3.884763E-05 +9.197645E-06 +1.013915E-04 -5.244462E-05 +3.884763E-05 -5.244462E-05 -8.065628E-05 
 +4.982191E-03 -1.315656E-05 +2.124260E-05 -1.315656E-05 +4.752270E-05 -3.358528E-04 +2.124260E-05 -3.358528E-04 +2.758810E-05 
 +5.078896E-03 +8.234647E-05 -2.516965E-05 +8.234647E-05 +3.857366E-06 -4.149703E-04 -2.516965E-05 -4.149703E-04 +8.149449E-05 
 +5.000437E-03 +2.334257E-06 +3.569597E-05 +2.334257E-06 -1.806635E-06 -2.097436E-04 +3.569597E-05 -2.097436E-04 +1.288043E-04 
 +4.878789E-03 -7.160876E-05 +8.718988E-05 -7.160876E-05 +2.176060E-05 -5.363243E-05 +8.718988E-05 -5.363243E-05 +1.856127E-04 
 +4.853628E-03 +1.860907E-06 +5.034948E-05 +1.860907E-06 -3.763807E-05 -1.046092E-04 +5.034948E-05 -1.046092E-04 +1.967511E-04 
 +4.852956E-03 -3.075586E-05 +3.612681E-05 -3.075586E-05 -3.589667E-05 -1.460684E-04 +3.612681E-05 -1.460684E-04 +1.738624E-04 
 +4.870150E-03 +1.697588E-05 +9.496078E-05 +1.697588E-05 +1.965018E-05 -1.219184E-04 +9.496078E-05 -1.219184E-04 +8.393391E-05 
 +4.970562E-03 +2.889814E-05 +1.684893E-04 +2.889814E-05 +9.372008E-05 -1.360351E-04 +1.684893E-04 -1.360351E-04 -2.098402E-05 
 +5.095485E-03 +3.634422E-05 +4.901090E-05 +3.634422E-05 +1.732456E-04 -7.549447E-05 +4.901090E-05 -7.549447E-05 -8.430183E-05 
 +5.067645E-03 +5.570398E-05 -1.390435E-05 +5.570398E-05 +2.350924E-04 +4.876534E-05 -1.390435E-05 +4.876534E-05 -9.499606E-05 
 +4.993390E-03 -2.841630E-05 -7.062522E-05 -2.841630E-05 +2.172046E-04 +1.434190E-04 -7.062522E-05 +1.434190E-04 -5.737279E-05 
 +5.066947E-03 -1.287829E-04 -3.900873E-05 -1.287829E-04 +6.309511E-05 +2.097824E-04 -3.900873E-05 +2.097824E-04 -8.917404E-05 
 +5.106827E-03 -1.523603E-04 +2.773031E-05 -1.523603E-04 -1.713594E-05 +2.404023E-04 +2.773031E-05 +2.404023E-04 -1.839958E-04 
 +5.040416E-03 -9.623730E-05 -8.506905E-06 -9.623730E-05 +9.813354E-07 +1.748879E-04 -8.506905E-06 +1.748879E-04 -1.800631E-04 
 +5.031042E-03 -8.717419E-05 -5.588708E-05 -8.717419E-05 +1.040853E-04 -1.824987E-05 -5.588708E-05 -1.824987E-05 -2.202372E-04 
 +5.035451E-03 -4.400200E-05 +1.421534E-06 -4.400200E-05 +1.359290E-04 -8.145936E-06 +1.421534E-06 -8.145936E-06 -2.918908E-04 
 +5.061041E-03 +3.498731E-06 +4.340139E-05 +3.498731E-06 +1.567837E-04 -3.406053E-05 +4.340139E-05 -3.406053E-05 -3.543512E-04 
 +5.069970E-03 +2.847683E-05 +7.389381E-05 +2.847683E-05 +2.020771E-04 -6.279042E-05 +7.389381E-05 -6.279042E-05 -4.032894E-04 
 +5.021371E-03 -4.822794E-06 +1.833820E-04 -4.822794E-06 +2.224425E-04 -4.664012E-05 +1.833820E-04 -4.664012E-05 -3.688292E-04 
 +4.845438E-03 +3.858824E-05 +8.097960E-05 +3.858824E-05 +1.315364E-04 -1.119740E-04 +8.097960E-05 -1.119740E-04 -1.257683E-04 
 +4.880410E-03 -5.391349E-06 -7.584987E-05 -5.391349E-06 +4.811872E-05 -1.442344E-04 -7.584987E-05 -1.442344E-04 +1.377673E-05 
 +4.984482E-03 +5.693443E-05 +3.717590E-06 +5.693443E-05 +5.029992E-05 -2.939768E-05 +3.717590E-06 -2.939768E-05 -1.156543E-05 
 +5.047128E-03 +9.512213E-05 +3.719774E-05 +9.512213E-05 +3.580570E-05 +4.241201E-05 +3.719774E-05 +4.241201E-05 +8.097785E-06 
 +4.970061E-03 +4.711356E-05 +3.415999E-05 +4.711356E-05 -1.354676E-05 +2.199624E-05 +3.415999E-05 +2.199624E-05 +8.217370E-05 
 +4.851623E-03 -6.169541E-06 +5.489189E-05 -6.169541E-06 -5.162391E-06 -4.271302E-05 +5.489189E-05 -4.271302E-05 +2.020457E-04 
 +4.775002E-03 +2.932763E-05 +5.997797E-05 +2.932763E-05 -3.690562E-05 -2.961061E-05 +5.997797E-05 -2.961061E-05 +2.712335E-04 
 +4.761244E-03 +1.227127E-04 +4.008439E-05 +1.227127E-04 -1.489074E-05 -1.714873E-05 +4.008439E-05 -1.714873E-05 +2.700118E-04 
 +4.853765E-03 +8.357108E-05 +1.178846E-04 +8.357108E-05 -6.921224E-06 +1.797348E-05 +1.178846E-04 +1.797348E-05 +2.004719E-04 
 +5.116498E-03 +1.460212E-04 +1.656766E-04 +1.460212E-04 -1.771043E-04 +1.304552E-04 +1.656766E-04 +1.304552E-04 +1.305009E-04 
 +5.146734E-03 +1.515738E-04 +1.075080E-04 +1.515738E-04 -2.688054E-04 +1.695933E-04 +1.075080E-04 +1.695933E-04 +7.827017E-05 
 +5.147971E-03 +1.255283E-04 +4.573854E-05 +1.255283E-04 -2.230983E-04 +1.904958E-04 +4.573854E-05 +1.904958E-04 +9.677421E-05 
 +5.043635E-03 -6.578770E-06 +3.289672E-05 -6.578770E-06 -8.452107E-05 +2.534877E-04 +3.289672E-05 +2.534877E-04 +1.297844E-04 
 +5.034349E-03 -1.254298E-04 +1.387029E-05 -1.254298E-04 +4.112829E-05 +3.171221E-04 +1.387029E-05 +3.171221E-04 -4.439603E-05 
 +5.039911E-03 -1.108050E-04 -4.440617E-05 -1.108050E-04 +1.157168E-04 +2.563966E-04 -4.440617E-05 +2.563966E-04 -2.182495E-04 
 +5.021202E-03 -1.121943E-04 -1.212025E-04 -1.121943E-04 +1.298995E-04 +6.415615E-05 -1.212025E-04 +6.415615E-05 -2.077799E-04 
 +5.047910E-03 -9.964496E-05 -2.191798E-05 -9.964496E-05 +1.687561E-04 -3.441274E-05 -2.191798E-05 -3.441274E-05 -2.990429E-04 
 +5.048849E-03 -6.644553E-05 +2.867787E-05 -6.644553E-05 +1.496161E-04 +1.358056E-05 +2.867787E-05 +1.358056E-05 -3.422491E-04 
 +5.078533E-03 -2.042949E-05 +7.317779E-05 -2.042949E-05 +1.689145E-04 +3.934449E-05 +7.317779E-05 +3.934449E-05 -4.120630E-04 
 +5.088872E-03 +7.770111E-06 +9.361580E-05 +7.770111E-06 +2.380645E-04 +4.295212E-05 +9.361580E-05 +4.295212E-05 -4.811092E-04 
 +5.066285E-03 -5.982721E-05 +1.114766E-04 -5.982721E-05 +3.177041E-04 +6.823035E-06 +1.114766E-04 +6.823035E-06 -3.532823E-04 
 +4.895926E-03 -3.642933E-05 -6.409659E-05 -3.642933E-05 +2.252533E-04 -8.452591E-05 -6.409659E-05 -8.452591E-05 -9.437979E-05 
 +4.858275E-03 +2.364712E-05 -1.217702E-04 +2.364712E-05 +7.281514E-05 -7.422606E-05 -1.217702E-04 -7.422606E-05 -9.140399E-06 
 +4.982521E-03 +7.309077E-05 +5.872741E-05 +7.309077E-05 +4.653546E-05 +5.352388E-05 +5.872741E-05 +5.352388E-05 -2.350648E-05 
 +5.000405E-03 +8.562666E-05 +6.993091E-05 +8.562666E-05 +3.411403E-05 +8.455772E-05 +6.993091E-05 +8.455772E-05 -1.820525E-06 
 +4.947650E-03 +4.740311E-05 -1.944230E-06 +4.740311E-05 -2.832439E-06 +7.360622E-05 -1.944230E-06 +7.360622E-05 +7.249403E-05 
 +4.836437E-03 +1.570779E-05 +1.700834E-05 +1.570779E-05 -2.942557E-05 +7.187118E-05 +1.700834E-05 +7.187118E-05 +2.224992E-04 
 +4.701214E-03 +1.030945E-05 +8.241971E-05 +1.030945E-05 -2.882483E-06 +5.431450E-05 +8.241971E-05 +5.431450E-05 +3.204878E-04 
 +4.690768E-03 +1.234112E-04 +9.835604E-05 +1.234112E-04 -5.428957E-05 +1.213198E-04 +9.835604E-05 +1.213198E-04 +2.895207E-04 
 +4.980921E-03 +1.021570E-04 +1.187113E-04 +1.021570E-04 -1.688010E-04 +2.123049E-04 +1.187113E-04 +2.123049E-04 +2.248519E-04 
 +5.176818E-03 +1.497692E-04 +1.506213E-04 +1.497692E-04 -2.347651E-04 +1.922163E-04 +1.506213E-04 +1.922163E-04 +1.858040E-04 
 +5.140819E-03 +1.812317E-04 +1.010394E-04 +1.812317E-04 -2.588483E-04 +1.631442E-04 +1.010394E-04 +1.631442E-04 +1.769422E-04 
 +5.122080E-03 +1.795303E-04 +4.701831E-05 +1.795303E-04 -2.279521E-04 +2.205073E-04 +4.701831E-05 +2.205073E-04 +2.084034E-04 
 +5.097618E-03 +8.900832E-05 +7.601517E-06 +8.900832E-05 -9.219943E-05 +1.522132E-04 +7.601517E-06 +1.522132E-04 +1.470980E-04 
 +5.026724E-03 -5.344264E-05 +1.721655E-05 -5.344264E-05 +1.824018E-04 -8.757363E-05 +1.721655E-05 -8.757363E-05 -3.006296E-05 
 +4.958815E-03 -8.417877E-05 -4.959015E-05 -8.417877E-05 +3.472885E-04 -1.788803E-04 -4.959015E-05 -1.788803E-04 -1.568218E-04 
 +4.990894E-03 -1.631058E-04 -1.088942E-04 -1.631058E-04 +2.647392E-04 -1.066704E-04 -1.088942E-04 -1.066704E-04 -2.208567E-04 
 +5.016263E-03 -1.190480E-04 +2.975201E-05 -1.190480E-04 +2.179743E-04 -7.135597E-06 +2.975201E-05 -7.135597E-06 -3.206114E-04 
 +5.031437E-03 -7.699745E-05 +7.919679E-05 -7.699745E-05 +2.028028E-04 +2.690370E-05 +7.919679E-05 +2.690370E-05 -4.043335E-04 
 +5.055975E-03 -4.657490E-05 +1.142211E-04 -4.657490E-05 +2.354802E-04 +5.728826E-05 +1.142211E-04 +5.728826E-05 -4.853757E-04 
 +5.115625E-03 -5.521704E-05 +6.827090E-05 -5.521704E-05 +1.457174E-04 +4.976133E-05 +6.827090E-05 +4.976133E-05 -4.411472E-04 
 +5.146879E-03 -9.966627E-05 +9.096965E-06 -9.966627E-05 -4.092459E-05 -3.622701E-05 +9.096965E-06 -3.622701E-05 -2.065605E-04 
 +5.056861E-03 -7.459349E-05 -8.898886E-05 -7.459349E-05 -2.080201E-05 -1.195668E-04 -8.898886E-05 -1.195668E-04 -7.160799E-05 
 +4.900642E-03 +6.570483E-05 -1.397608E-04 +6.570483E-05 +1.225503E-04 -7.027253E-05 -1.397608E-04 -7.027253E-05 -5.778712E-05 
 +4.929468E-03 +1.272699E-04 +6.902473E-05 +1.272699E-04 +1.065778E-04 +8.991783E-05 +6.902473E-05 +8.991783E-05 +1.336485E-05 
 +4.942649E-03 +1.245771E-04 +7.557193E-05 +1.245771E-04 +4.500353E-05 +1.542595E-04 +7.557193E-05 +1.542595E-04 +5.870083E-05 
 +4.870247E-03 +3.694509E-05 +2.720883E-05 +3.694509E-05 +3.440000E-05 +1.372621E-04 +2.720883E-05 +1.372621E-04 +1.050701E-04 
 +4.763599E-03 -1.214435E-05 +3.445965E-05 -1.214435E-05 +5.307918E-05 +1.383390E-04 +3.445965E-05 +1.383390E-04 +2.062514E-04 
 +4.701458E-03 -1.978894E-06 +3.206490E-05 -1.978894E-06 +5.962388E-05 +1.181166E-04 +3.206490E-05 +1.181166E-04 +2.919502E-04 
 +4.719428E-03 +9.099656E-05 +1.230399E-04 +9.099656E-05 -7.272481E-05 +1.521804E-04 +1.230399E-04 +1.521804E-04 +2.595876E-04 
 +5.054515E-03 +6.921298E-05 +4.510357E-05 +6.921298E-05 -2.497050E-04 +2.399004E-04 +4.510357E-05 +2.399004E-04 +1.981557E-04 
 +5.199470E-03 +1.094967E-04 +7.192951E-05 +1.094967E-04 -3.095036E-04 +2.070446E-04 +7.192951E-05 +2.070446E-04 +1.606091E-04 
 +5.148016E-03 +2.095414E-04 +9.265084E-05 +2.095414E-04 -2.711052E-04 +1.588864E-04 +9.265084E-05 +1.588864E-04 +1.948255E-04 
 +5.103885E-03 +2.335828E-04 +1.950445E-05 +2.335828E-04 -1.871627E-04 +1.993928E-04 +1.950445E-05 +1.993928E-04 +2.859039E-04 
 +5.086094E-03 +1.614437E-04 -5.316317E-05 +1.614437E-04 -1.487417E-04 +2.425701E-04 -5.316317E-05 +2.425701E-04 +2.722195E-04 
 +5.024413E-03 +5.519712E-05 -2.187743E-05 +5.519712E-05 -1.120458E-04 +2.456001E-04 -2.187743E-05 +2.456001E-04 +2.104707E-04 
 +4.932626E-03 -1.452273E-05 +2.578025E-05 -1.452273E-05 +5.162102E-05 +1.363807E-04 +2.578025E-05 +1.363807E-04 +6.364149E-05 
 +4.938702E-03 -1.648117E-04 +6.673918E-06 -1.648117E-04 +2.108273E-04 +5.003594E-06 +6.673918E-06 +5.003594E-06 -1.623991E-04 
 +4.865838E-03 -1.571438E-04 +1.340924E-04 -1.571438E-04 +2.825354E-04 -8.451588E-05 +1.340924E-04 -8.451588E-05 -2.615016E-04 
 +4.928556E-03 -1.538267E-04 +1.890838E-04 -1.538267E-04 +2.535852E-04 +5.218465E-06 +1.890838E-04 +5.218465E-06 -3.825657E-04 
 +4.980068E-03 -1.865435E-04 +1.884294E-04 -1.865435E-04 +1.543505E-04 -1.740417E-05 +1.884294E-04 -1.740417E-05 -3.752762E-04 
 +5.088895E-03 -1.312623E-04 +6.026154E-05 -1.312623E-04 -1.120382E-04 -1.023202E-04 +6.026154E-05 -1.023202E-04 -2.715094E-04 
 +5.181312E-03 -1.022118E-04 -2.826538E-05 -1.022118E-04 -2.314813E-04 -1.383132E-04 -2.826538E-05 -1.383132E-04 -2.347817E-04 
 +5.134358E-03 -7.452760E-05 -4.515059E-06 -7.452760E-05 -1.610436E-04 -1.030574E-04 -4.515059E-06 -1.030574E-04 -1.949371E-04 
 +4.964303E-03 -3.237384E-05 +6.930458E-05 -3.237384E-05 -6.821721E-05 -9.281129E-07 +6.930458E-05 -9.281129E-07 -4.351035E-05 
 +4.889316E-03 -7.905647E-05 +1.115140E-04 -7.905647E-05 -2.434540E-05 +6.247482E-05 +1.115140E-04 +6.247482E-05 +3.715478E-05 
 +4.877448E-03 -1.335369E-04 +9.951561E-05 -1.335369E-04 -3.421505E-05 +5.373005E-05 +9.951561E-05 +5.373005E-05 +6.671035E-05 
 +4.828121E-03 -1.477567E-04 +1.018006E-04 -1.477567E-04 -7.206652E-05 +3.121720E-05 +1.018006E-04 +3.121720E-05 +1.287750E-04 
 +4.776589E-03 -1.010540E-04 +1.538879E-04 -1.010540E-04 -5.417678E-05 +2.404240E-05 +1.538879E-04 +2.404240E-05 +1.450328E-04 
 +4.752449E-03 -1.480444E-05 +1.996156E-04 -1.480444E-05 -5.355877E-05 +5.758569E-05 +1.996156E-04 +5.758569E-05 +1.509738E-04 
 +4.812599E-03 +1.021329E-04 +2.552019E-04 +1.021329E-04 -9.969748E-05 +4.952850E-05 +2.552019E-04 +4.952850E-05 +1.745555E-04 
 +4.897770E-03 +1.426994E-04 +3.045784E-04 +1.426994E-04 -2.190579E-04 +1.581779E-04 +3.045784E-04 +1.581779E-04 +1.436304E-04 
 +5.149564E-03 +2.060049E-04 +7.884056E-05 +2.060049E-04 -3.839081E-04 +3.193208E-04 +7.884056E-05 +3.193208E-04 +1.158945E-04 
 +5.204273E-03 +2.975498E-04 -6.562132E-05 +2.975498E-04 -3.057514E-04 +2.026561E-04 -6.562132E-05 +2.026561E-04 +7.013460E-05 
 +5.217450E-03 +2.446236E-04 -9.696404E-05 +2.446236E-04 -1.135332E-04 -7.354488E-05 -9.696404E-05 -7.354488E-05 -1.404272E-04 
 +5.194655E-03 +1.714500E-04 -4.230874E-05 +1.714500E-04 +9.190155E-06 -2.393174E-04 -4.230874E-05 -2.393174E-04 -3.094568E-04 
 +5.123733E-03 +9.190652E-05 +3.001160E-05 +9.190652E-05 +3.911687E-05 -1.705849E-04 +3.001160E-05 -1.705849E-04 -2.249947E-04 
 +4.993968E-03 -5.108175E-07 +3.034920E-05 -5.108175E-07 +9.118173E-05 -5.148981E-05 +3.034920E-05 -5.148981E-05 -7.104017E-05 
 +4.876966E-03 -1.960490E-04 +7.428564E-06 -1.960490E-04 +2.609906E-04 -9.259704E-05 +7.428564E-06 -9.259704E-05 -9.775804E-05 
 +4.772273E-03 -2.181170E-05 +1.729832E-04 -2.181170E-05 +1.035539E-04 +7.290565E-05 +1.729832E-04 +7.290565E-05 +1.280709E-05 
 +4.895024E-03 +2.053561E-05 +2.027246E-04 +2.053561E-05 +3.585695E-05 +1.143950E-04 +2.027246E-04 +1.143950E-04 -5.339960E-05 
 +4.988541E-03 -5.559030E-05 +1.040716E-04 -5.559030E-05 -7.214888E-05 +7.111418E-05 +1.040716E-04 +7.111418E-05 -4.043862E-05 
 +5.092290E-03 -1.010023E-04 -7.577739E-05 -1.010023E-04 -1.909596E-04 -4.791559E-05 -7.577739E-05 -4.791559E-05 +3.943807E-05 
 +5.154387E-03 -7.307922E-05 -1.142060E-04 -7.307922E-05 -2.897783E-04 -1.276303E-04 -1.142060E-04 -1.276303E-04 +8.472376E-06 
 +5.086287E-03 -2.621973E-05 -1.866364E-05 -2.621973E-05 -1.789114E-04 -8.631597E-05 -1.866364E-05 -8.631597E-05 -2.057567E-05 
 +4.927016E-03 -3.364206E-05 +9.049422E-05 -3.364206E-05 -2.046094E-05 +2.283862E-05 +9.049422E-05 +2.283862E-05 +7.985349E-05 
 +4.856849E-03 -1.129582E-04 +9.822622E-05 -1.129582E-04 +8.861217E-06 +5.148416E-05 +9.822622E-05 +5.148416E-05 +1.148975E-04 
 +4.852947E-03 -1.570376E-04 +1.110822E-04 -1.570376E-04 -1.343173E-05 +3.399092E-05 +1.110822E-04 +3.399092E-05 +1.333822E-04 
 +4.797284E-03 -1.746279E-04 +1.528947E-04 -1.746279E-04 -5.277130E-05 +1.442428E-05 +1.528947E-04 +1.442428E-05 +1.360311E-04 
 +4.838162E-03 -1.017851E-04 +1.826684E-04 -1.017851E-04 -7.530118E-05 -5.768589E-06 +1.826684E-04 -5.768589E-06 +7.405676E-05 
 +4.901937E-03 -9.784516E-05 +1.536045E-04 -9.784516E-05 -1.131004E-04 +9.950656E-06 +1.536045E-04 +9.950656E-06 +2.348596E-05 
 +4.963231E-03 +7.214710E-05 +1.058971E-04 +7.214710E-05 -1.687786E-04 +5.849148E-05 +1.058971E-04 +5.849148E-05 +1.271618E-04 
 +5.004507E-03 +1.427634E-04 +3.120602E-04 +1.427634E-04 -1.385183E-04 +5.642906E-05 +3.120602E-04 +5.642906E-05 +1.812945E-04 
 +5.108551E-03 +2.014523E-04 +1.240052E-04 +2.014523E-04 -1.650274E-04 +3.793108E-05 +1.240052E-04 +3.793108E-05 -1.360856E-05 
 +5.146059E-03 +3.524370E-04 +1.264347E-05 +3.524370E-04 -3.560534E-04 +1.506171E-04 +1.264347E-05 +1.506171E-04 -6.293794E-05 
 +5.198832E-03 +3.296501E-04 -1.396302E-04 +3.296501E-04 -4.642792E-04 +1.936527E-04 -1.396302E-04 +1.936527E-04 -1.180293E-05 
 +5.150457E-03 +2.611240E-04 -1.047521E-04 +2.611240E-04 -3.797906E-04 +1.254468E-04 -1.047521E-04 +1.254468E-04 -5.156412E-05 
 +5.122012E-03 +1.435049E-04 +5.247756E-05 +1.435049E-04 -2.120744E-04 +9.802721E-05 +5.247756E-05 +9.802721E-05 -2.153360E-05 
 +5.002894E-03 +1.024200E-04 +9.390713E-05 +1.024200E-04 -8.409118E-05 +1.054591E-04 +9.390713E-05 +1.054591E-04 +4.308055E-05 
 +4.878755E-03 -1.709390E-05 +4.348771E-05 -1.709390E-05 +1.639471E-05 +8.599837E-05 +4.348771E-05 +8.599837E-05 +5.269641E-05 
 +4.810243E-03 -2.202750E-05 +1.378109E-04 -2.202750E-05 +3.672420E-05 +8.673064E-05 +1.378109E-04 +8.673064E-05 +1.609086E-04 
 +4.881553E-03 -5.184717E-05 +1.343187E-04 -5.184717E-05 -3.933859E-05 +1.827645E-04 +1.343187E-04 +1.827645E-04 +1.813349E-04 
 +5.005032E-03 -6.038531E-05 +4.538733E-05 -6.038531E-05 -1.621965E-04 +2.475632E-04 +4.538733E-05 +2.475632E-04 +1.741743E-04 
 +5.045313E-03 -4.214251E-05 -2.673595E-05 -4.214251E-05 -1.078109E-04 +2.619757E-04 -2.673595E-05 +2.619757E-04 +1.364006E-04 
 +4.983414E-03 +1.554216E-05 -7.188470E-05 +1.554216E-05 -2.046623E-05 +2.410865E-04 -7.188470E-05 +2.410865E-04 +2.083956E-05 
 +4.981067E-03 +8.516095E-05 -3.638096E-05 +8.516095E-05 -5.627729E-06 +2.362020E-04 -3.638096E-05 +2.362020E-04 -1.878018E-05 
 +4.969009E-03 +5.956800E-05 +4.583919E-05 +5.956800E-05 +1.911904E-05 +1.987144E-04 +4.583919E-05 +1.987144E-04 +8.000496E-05 
 +4.876066E-03 -7.351164E-06 +8.180506E-05 -7.351164E-06 +2.203870E-05 +9.062956E-05 +8.180506E-05 +9.062956E-05 +1.220138E-04 
 +4.826587E-03 -6.997197E-05 +1.289188E-04 -6.997197E-05 -5.567636E-05 -8.535554E-06 +1.289188E-04 -8.535554E-06 +1.350321E-04 
 +4.774667E-03 -6.635465E-05 +1.978912E-04 -6.635465E-05 -1.081245E-04 -5.360024E-05 +1.978912E-04 -5.360024E-05 +1.148368E-04 
 +4.816495E-03 -1.570426E-05 +2.076703E-04 -1.570426E-05 -1.376983E-04 +6.740400E-06 +2.076703E-04 +6.740400E-06 +4.493637E-05 
 +5.003558E-03 -5.557276E-05 +6.458833E-05 -5.557276E-05 -1.577965E-04 +6.120814E-05 +6.458833E-05 +6.120814E-05 -6.377755E-05 
 +5.073725E-03 +7.961646E-05 -1.092467E-05 +7.961646E-05 -9.192119E-05 +5.095884E-05 -1.092467E-05 +5.095884E-05 -1.744963E-05 
 +5.141305E-03 +1.021225E-04 +1.622646E-04 +1.021225E-04 -2.626838E-05 -3.391291E-05 +1.622646E-04 -3.391291E-05 +2.973058E-05 
 +5.066169E-03 +1.010841E-04 +1.299256E-04 +1.010841E-04 +1.503024E-05 -1.246283E-04 +1.299256E-04 -1.246283E-04 -1.635581E-04 
 +5.101022E-03 +1.796213E-04 +1.275352E-04 +1.796213E-04 -5.276912E-05 -1.474858E-04 +1.275352E-04 -1.474858E-04 -2.662130E-04 
 +5.159414E-03 +2.402092E-04 -6.611640E-05 +2.402092E-04 -2.033409E-04 -1.079897E-04 -6.611640E-05 -1.079897E-04 -1.881452E-04 
 +5.129254E-03 +2.575624E-04 -9.724494E-05 +2.575624E-04 -2.563320E-04 +4.449602E-05 -9.724494E-05 +4.449602E-05 -3.702268E-05 
 +5.122127E-03 +1.715548E-04 +4.942247E-06 +1.715548E-04 -2.419038E-04 +1.438154E-04 +4.942247E-06 +1.438154E-04 +8.852146E-06 
 +5.032531E-03 +1.000242E-04 +1.033337E-04 +1.000242E-04 -1.887632E-04 +1.238880E-04 +1.033337E-04 +1.238880E-04 +1.255922E-07 
 +4.939734E-03 +2.603055E-06 +1.059813E-04 +2.603055E-06 -6.276987E-05 +7.061661E-05 +1.059813E-04 +7.061661E-05 +7.742818E-05 
 +4.922516E-03 -9.623365E-05 +3.722209E-05 -9.623365E-05 -1.478424E-04 +1.422364E-04 +3.722209E-05 +1.422364E-04 +2.234512E-04 
 +4.915514E-03 -1.596304E-04 +5.993674E-05 -1.596304E-04 -1.041413E-04 +1.854005E-04 +5.993674E-05 +1.854005E-04 +1.741927E-04 
 +5.008610E-03 -1.400405E-04 +4.401644E-05 -1.400405E-04 -1.029656E-04 +1.972469E-04 +4.401644E-05 +1.972469E-04 +6.993051E-05 
 +5.043313E-03 -5.819875E-05 +4.691004E-05 -5.819875E-05 -6.623704E-05 +2.155581E-04 +4.691004E-05 +2.155581E-04 -5.190518E-06 
 +4.906856E-03 +1.508402E-05 +1.693830E-05 +1.508402E-05 +5.832512E-05 +2.786101E-04 +1.693830E-05 +2.786101E-04 -9.006280E-05 
 +4.866533E-03 +7.353065E-05 -2.964403E-05 +7.353065E-05 +7.638307E-06 +3.088108E-04 -2.964403E-05 +3.088108E-04 -1.516896E-04 
 +5.005853E-03 +9.298473E-05 -8.286957E-06 +9.298473E-05 -1.041234E-04 +2.261275E-04 -8.286957E-06 +2.261275E-04 -8.145624E-05 
 +4.906276E-03 +7.066459E-06 +1.155525E-04 +7.066459E-06 +6.079446E-06 +8.470850E-05 +1.155525E-04 +8.470850E-05 +2.249493E-05 
 +4.772574E-03 -1.525660E-04 +1.867790E-04 -1.525660E-04 +9.565539E-05 -4.546733E-05 +1.867790E-04 -4.546733E-05 +9.171028E-05 
 +4.756628E-03 -1.442595E-04 +1.992017E-04 -1.442595E-04 +1.218797E-05 -8.234413E-05 +1.992017E-04 -8.234413E-05 +1.344578E-04 
 +4.863097E-03 -4.650315E-05 +1.622461E-04 -4.650315E-05 -8.193500E-05 -8.011004E-05 +1.622461E-04 -8.011004E-05 +1.379725E-04 
 +5.057929E-03 +7.418243E-05 +8.982021E-07 +7.418243E-05 +9.669327E-06 -1.207706E-04 +8.982021E-07 -1.207706E-04 +2.091951E-05 
 +5.072551E-03 +1.399017E-04 -1.209456E-05 +1.399017E-04 +1.100735E-04 -1.074412E-04 -1.209456E-05 -1.074412E-04 -8.174009E-05 
 +5.149457E-03 +9.013775E-05 +9.233690E-05 +9.013775E-05 +7.479795E-05 -8.123505E-05 +9.233690E-05 -8.123505E-05 -9.772602E-05 
 +5.063895E-03 +6.149562E-05 +9.622246E-05 +6.149562E-05 +5.831338E-05 -9.562377E-05 +9.622246E-05 -9.562377E-05 -1.915551E-04 
 +5.069269E-03 +8.948607E-05 +6.584005E-05 +8.948607E-05 +3.900421E-05 -1.700361E-04 +6.584005E-05 -1.700361E-04 -3.045040E-04 
 +5.118729E-03 +1.280708E-04 +2.822025E-05 +1.280708E-04 -8.613460E-05 -1.152417E-04 +2.822025E-05 -1.152417E-04 -3.393957E-04 
 +5.145190E-03 +2.024456E-04 -2.949125E-05 +2.024456E-04 -2.383793E-04 +8.216496E-05 -2.949125E-05 +8.216496E-05 -1.845483E-04 
 +5.093228E-03 +1.613470E-04 -4.017226E-05 +1.613470E-04 -2.137558E-04 +1.288328E-04 -4.017226E-05 +1.288328E-04 +1.812024E-05 
 +5.034684E-03 +4.787885E-05 +6.353011E-05 +4.787885E-05 -1.701869E-04 +1.359906E-04 +6.353011E-05 +1.359906E-04 +1.372969E-04 
 +4.965542E-03 -2.848468E-05 +5.863017E-05 -2.848468E-05 -1.841065E-04 +1.483262E-04 +5.863017E-05 +1.483262E-04 +1.997832E-04 
 +5.023981E-03 -7.564328E-05 -5.352597E-05 -7.564328E-05 -2.547463E-04 +1.570010E-04 -5.352597E-05 +1.570010E-04 +2.278385E-04 
 +4.999402E-03 -1.476415E-04 +4.917349E-05 -1.476415E-04 -4.466685E-05 +2.909426E-04 +4.917349E-05 +2.909426E-04 +8.446023E-05 
 +5.005498E-03 -1.910412E-04 +9.089198E-05 -1.910412E-04 +6.085454E-05 +3.716209E-04 +9.089198E-05 +3.716209E-04 -5.265552E-05 
 +4.995158E-03 -5.809473E-05 +6.864243E-05 -5.809473E-05 +8.729492E-05 +4.515061E-04 +6.864243E-05 +4.515061E-04 -1.019369E-04 
 +4.945399E-03 -1.098453E-07 +6.733864E-05 -1.098453E-07 +1.190515E-04 +5.832938E-04 +6.733864E-05 +5.832938E-04 -1.169841E-04 
 +4.837430E-03 -1.941614E-05 +5.876505E-05 -1.941614E-05 +1.271874E-04 +6.407412E-04 +5.876505E-05 +6.407412E-04 -1.811577E-04 
 +4.883709E-03 +1.966650E-05 -2.816564E-05 +1.966650E-05 +7.225754E-05 +4.583645E-04 -2.816564E-05 +4.583645E-04 -1.703291E-04 
 +4.897059E-03 -3.418419E-05 +4.701739E-05 -3.418419E-05 +2.267710E-05 +1.773827E-04 +4.701739E-05 +1.773827E-04 -3.708765E-05 
 +4.805128E-03 -2.154646E-04 +1.376721E-04 -2.154646E-04 +3.494440E-05 +4.363702E-05 +1.376721E-04 +4.363702E-05 +6.139177E-05 
 +4.843106E-03 -1.451100E-04 +1.113500E-04 -1.451100E-04 +2.601207E-05 +5.993831E-05 +1.113500E-04 +5.993831E-05 +8.870100E-05 
 +4.993517E-03 +5.964754E-05 +1.235946E-05 +5.964754E-05 +7.792909E-05 +4.189553E-05 +1.235946E-05 +4.189553E-05 +6.463296E-05 
 +5.041243E-03 +1.503012E-04 -4.716910E-05 +1.503012E-04 +1.171510E-04 -2.820968E-05 -4.716910E-05 -2.820968E-05 +3.444232E-06 
 +5.046903E-03 +1.344778E-04 +1.002619E-05 +1.344778E-04 +9.459197E-05 -4.695416E-05 +1.002619E-05 -4.695416E-05 -6.753262E-05 
 +5.031112E-03 +5.365199E-05 +7.355021E-05 +5.365199E-05 +8.140471E-05 -4.245510E-05 +7.355021E-05 -4.245510E-05 -7.358406E-05 
 +5.068087E-03 +2.221935E-05 +6.366660E-05 +2.221935E-05 +5.851310E-05 -5.417860E-05 +6.366660E-05 -5.417860E-05 -8.634456E-05 
 +5.053018E-03 +2.457535E-05 +8.158185E-06 +2.457535E-05 +3.524794E-05 -4.629505E-05 +8.158185E-06 -4.629505E-05 -2.066597E-04 
 +5.073443E-03 +5.470092E-05 +4.766250E-06 +5.470092E-05 +6.029685E-05 -5.539103E-05 +4.766250E-06 -5.539103E-05 -2.446706E-04 
 +5.103049E-03 +6.178872E-05 -1.452750E-06 +6.178872E-05 +1.237300E-05 -8.021296E-05 -1.452750E-06 -8.021296E-05 -8.617211E-05 
 +5.071070E-03 +5.216945E-05 -2.523246E-05 +5.216945E-05 -2.104088E-04 +1.044523E-05 -2.523246E-05 +1.044523E-05 +1.128503E-04 
 +5.017450E-03 -2.708209E-05 -2.889830E-05 -2.708209E-05 -3.084138E-04 +8.688956E-05 -2.889830E-05 +8.688956E-05 +2.761387E-04 
 +5.003581E-03 -1.050484E-04 -6.920707E-05 -1.050484E-04 -3.210078E-04 +7.773681E-05 -6.920707E-05 +7.773681E-05 +3.119281E-04 
 +5.081933E-03 -1.717293E-05 -5.219299E-05 -1.717293E-05 -3.435593E-04 +1.999805E-04 -5.219299E-05 +1.999805E-04 +1.553488E-04 
 +5.067486E-03 -8.650202E-05 +4.073637E-05 -8.650202E-05 -2.836053E-04 +2.819095E-04 +4.073637E-05 +2.819095E-04 +5.132646E-05 
 +5.024178E-03 -1.434557E-04 +1.258203E-04 -1.434557E-04 -8.362074E-05 +3.631515E-04 +1.258203E-04 +3.631515E-04 -6.938614E-05 
 +4.951750E-03 -5.150226E-05 +1.252477E-04 -5.150226E-05 +7.356546E-05 +4.682759E-04 +1.252477E-04 +4.682759E-04 -8.888616E-05 
 +4.902683E-03 -3.094060E-05 +9.041779E-05 -3.094060E-05 +9.694642E-05 +6.151008E-04 +9.041779E-05 +6.151008E-04 -1.187182E-05 
 +4.903696E-03 -9.349615E-05 +6.817697E-05 -9.349615E-05 +5.774542E-05 +5.627967E-04 +6.817697E-05 +5.627967E-04 -4.463631E-05 
 +4.814728E-03 +2.596337E-05 -2.381064E-05 +2.596337E-05 +1.260429E-06 +2.724626E-04 -2.381064E-05 +2.724626E-04 -4.829479E-05 
 +4.878714E-03 -6.605405E-06 -1.145208E-05 -6.605405E-06 -1.736694E-04 +1.535803E-04 -1.145208E-05 +1.535803E-04 +9.031407E-05 
 +4.904765E-03 -7.633591E-05 +6.360268E-05 -7.633591E-05 -2.672733E-04 +1.643878E-04 +6.360268E-05 +1.643878E-04 +9.385787E-05 
 +4.965238E-03 -1.187341E-05 +9.606411E-06 -1.187341E-05 -1.397333E-05 +7.963336E-05 +9.606411E-06 +7.963336E-05 -5.800890E-05 
 +5.012428E-03 +5.698564E-05 -8.283130E-05 +5.698564E-05 +1.558713E-04 -1.142404E-05 -8.283130E-05 -1.142404E-05 -1.868655E-04 
 +5.011732E-03 +9.282831E-05 -8.839229E-05 +9.282831E-05 +1.380187E-04 -6.170573E-05 -8.839229E-05 -6.170573E-05 -1.472926E-04 
 +5.009302E-03 +1.162155E-04 -1.053741E-06 +1.162155E-04 +1.296144E-04 -9.288642E-05 -1.053741E-06 -9.288642E-05 -1.016677E-04 
 +4.938152E-03 +4.219934E-05 +4.145799E-05 +4.219934E-05 +1.162949E-04 -9.012188E-05 +4.145799E-05 -9.012188E-05 -1.077782E-04 
 +5.036078E-03 +2.747811E-05 +2.598894E-05 +2.747811E-05 +8.031802E-05 -5.957128E-05 +2.598894E-05 -5.957128E-05 -6.354201E-05 
 +5.029770E-03 +3.298377E-05 -2.438383E-05 +3.298377E-05 +8.475048E-05 -1.273173E-08 -2.438383E-05 -1.273173E-08 -9.180857E-05 
 +5.031512E-03 +1.652197E-05 -7.817163E-05 +1.652197E-05 -9.866967E-06 +7.517388E-05 -7.817163E-05 +7.517388E-05 -6.244682E-05 
 +5.038162E-03 -1.249936E-05 -4.966769E-05 -1.249936E-05 -2.252932E-04 +1.219945E-04 -4.966769E-05 +1.219945E-04 +6.672311E-05 
 +5.035289E-03 +1.301579E-06 -3.609122E-05 +1.301579E-06 -3.091647E-04 +1.366710E-04 -3.609122E-05 +1.366710E-04 +1.505835E-04 
 +5.046584E-03 -1.225355E-05 -1.172755E-04 -1.225355E-05 -3.482518E-04 +1.191801E-04 -1.172755E-04 +1.191801E-04 +2.255267E-04 
 +5.054186E-03 -7.595532E-05 -1.115032E-04 -7.595532E-05 -3.671422E-04 +1.289672E-04 -1.115032E-04 +1.289672E-04 +2.253065E-04 
 +5.104721E-03 -5.103314E-05 -3.564469E-05 -5.103314E-05 -3.451283E-04 +2.683300E-04 -3.564469E-05 +2.683300E-04 +6.633331E-05 
 +5.118947E-03 -3.734952E-05 +4.244406E-06 -3.734952E-05 -3.185456E-04 +3.023710E-04 +4.244406E-06 +3.023710E-04 +3.087239E-05 
 +5.045789E-03 -2.590044E-05 +1.358178E-04 -2.590044E-05 -1.208869E-04 +4.159544E-04 +1.358178E-04 +4.159544E-04 -4.202722E-05 
 +4.895443E-03 -4.214377E-05 +1.607772E-04 -4.214377E-05 +7.643283E-05 +5.388914E-04 +1.607772E-04 +5.388914E-04 -2.024892E-05 
 +4.866078E-03 -6.896568E-05 +9.855965E-05 -6.896568E-05 +8.473168E-05 +5.868934E-04 +9.855965E-05 +5.868934E-04 +3.481104E-05 
 +4.975147E-03 -1.492996E-04 +7.785332E-06 -1.492996E-04 -5.440543E-05 +4.436666E-04 +7.785332E-06 +4.436666E-04 -9.115089E-06 
 +4.846859E-03 -1.126607E-05 -6.579430E-05 -1.126607E-05 -1.376520E-04 +1.918191E-04 -6.579430E-05 +1.918191E-04 +3.976865E-05 
 +4.892206E-03 -1.056283E-04 +1.188564E-05 -1.056283E-04 -1.117527E-04 +4.557528E-05 +1.188564E-05 +4.557528E-05 +1.606507E-04 
 +4.920726E-03 -8.015875E-05 +7.357731E-05 -8.015875E-05 -5.908911E-05 -7.757783E-05 +7.357731E-05 -7.757783E-05 +1.002820E-04 
 +4.989920E-03 -1.199981E-05 +6.079804E-05 -1.199981E-05 -3.699420E-05 -1.485471E-04 +6.079804E-05 -1.485471E-04 -4.536406E-05 
 +5.015595E-03 +1.929060E-05 -4.181659E-05 +1.929060E-05 +3.403395E-05 -1.347947E-04 -4.181659E-05 -1.347947E-04 -1.937847E-04 
 +5.042160E-03 +5.244338E-05 -1.021845E-04 +5.244338E-05 +1.001932E-04 -1.412493E-04 -1.021845E-04 -1.412493E-04 -2.205142E-04 
 +5.007154E-03 +1.001527E-04 -1.801162E-05 +1.001527E-04 +8.173500E-05 -1.642223E-04 -1.801162E-05 -1.642223E-04 -1.277108E-04 
 +4.951492E-03 +9.315744E-05 +2.326802E-05 +9.315744E-05 +1.013762E-04 -1.210063E-04 +2.326802E-05 -1.210063E-04 -9.782431E-05 
 +4.969062E-03 +7.192997E-05 -2.095627E-05 +7.192997E-05 +1.310787E-04 -1.604304E-05 -2.095627E-05 -1.604304E-05 -9.497203E-05 
 +4.979115E-03 +8.229059E-05 -5.600463E-05 +8.229059E-05 +1.078694E-04 +1.064509E-04 -5.600463E-05 +1.064509E-04 -6.063401E-05 
 +4.959519E-03 -5.667600E-05 -1.622251E-04 -5.667600E-05 +3.208778E-05 +1.577308E-04 -1.622251E-04 +1.577308E-04 -1.923533E-05 
 +4.999070E-03 -8.312771E-05 -1.398123E-04 -8.312771E-05 -7.267891E-05 +1.149854E-04 -1.398123E-04 +1.149854E-04 +2.100193E-06 
 +5.034177E-03 -1.808107E-05 -5.489309E-05 -1.808107E-05 -2.397057E-04 +1.512503E-04 -5.489309E-05 +1.512503E-04 +8.391711E-05 
 +5.039069E-03 -1.155772E-05 -6.184469E-05 -1.155772E-05 -3.587632E-04 +2.007706E-04 -6.184469E-05 +2.007706E-04 +1.259338E-04 
 +5.085999E-03 -6.908967E-05 -7.738112E-05 -6.908967E-05 -3.337968E-04 +2.291315E-04 -7.738112E-05 +2.291315E-04 +7.819219E-05 
 +5.089675E-03 -6.999010E-05 -8.594346E-05 -6.999010E-05 -2.837324E-04 +1.967465E-04 -8.594346E-05 +1.967465E-04 +8.645846E-06 
 +5.115912E-03 -2.613689E-05 +1.456188E-05 -2.613689E-05 -2.770728E-04 +2.530724E-04 +1.456188E-05 +2.530724E-04 -1.229834E-04 
 +5.042086E-03 +4.724561E-05 +1.629387E-04 +4.724561E-05 -9.341737E-05 +3.742611E-04 +1.629387E-04 +3.742611E-04 -1.668117E-04 
 +4.884058E-03 -4.092212E-05 +1.395443E-04 -4.092212E-05 +9.429751E-05 +4.944130E-04 +1.395443E-04 +4.944130E-04 -6.666772E-05 
 +4.882039E-03 -1.538300E-04 +2.380315E-05 -1.538300E-04 +4.953068E-05 +4.722512E-04 +2.380315E-05 +4.722512E-04 -6.968280E-05 
 +4.958636E-03 -2.723435E-04 -6.339956E-05 -2.723435E-04 -7.872542E-05 +1.977772E-04 -6.339956E-05 +1.977772E-04 -1.315341E-04 
 +4.873343E-03 -9.950940E-05 -9.057409E-05 -9.950940E-05 -1.776147E-04 +4.092350E-05 -9.057409E-05 +4.092350E-05 -1.082409E-05 
 +4.930814E-03 -1.177247E-04 -2.634445E-05 -1.177247E-04 -1.667510E-04 -5.643380E-06 -2.634445E-05 -5.643380E-06 +1.288802E-04 
 +4.922141E-03 -8.702149E-05 +4.907125E-05 -8.702149E-05 -9.110816E-05 -1.637935E-04 +4.907125E-05 -1.637935E-04 -2.416330E-05 
 +4.997470E-03 -2.277781E-05 +1.344205E-04 -2.277781E-05 -7.962978E-05 -3.074746E-04 +1.344205E-04 -3.074746E-04 -1.504504E-04 
 +5.062123E-03 +4.502814E-05 +8.510055E-05 +4.502814E-05 -7.969882E-05 -3.501566E-04 +8.510055E-05 -3.501566E-04 -2.323200E-04 
 +5.094084E-03 +4.379954E-05 -3.938823E-05 +4.379954E-05 -4.966099E-05 -3.265741E-04 -3.938823E-05 -3.265741E-04 -3.611600E-04 
 +5.052803E-03 +9.642363E-05 -2.765291E-06 +9.642363E-05 -9.624158E-06 -3.179855E-04 -2.765291E-06 -3.179855E-04 -2.731985E-04 
 +4.979791E-03 +9.588360E-05 +3.152216E-05 +9.588360E-05 +3.255758E-05 -2.864312E-04 +3.152216E-05 -2.864312E-04 -1.963875E-04 
 +4.930521E-03 +6.101948E-05 -4.964881E-05 +6.101948E-05 +7.775083E-05 -2.407273E-04 -4.964881E-05 -2.407273E-04 -2.180447E-04 
 +4.914821E-03 +6.126777E-05 -1.630455E-05 +6.126777E-05 +7.930235E-05 -1.019486E-04 -1.630455E-05 -1.019486E-04 -1.870084E-04 
 +4.906259E-03 -5.855333E-05 -1.881696E-04 -5.855333E-05 +4.786593E-05 +8.453253E-05 -1.881696E-04 +8.453253E-05 -1.670536E-04 
 +4.980962E-03 -8.964788E-05 -1.947533E-04 -8.964788E-05 -6.039782E-05 +1.102472E-04 -1.947533E-04 +1.102472E-04 -1.146211E-04 
 +5.005786E-03 -5.161370E-05 +7.400858E-06 -5.161370E-05 -1.646714E-04 +1.597959E-04 +7.400858E-06 +1.597959E-04 +3.353384E-05 
 +5.015946E-03 -8.795934E-06 +1.881938E-05 -8.795934E-06 -1.992086E-04 +2.453649E-04 +1.881938E-05 +2.453649E-04 +4.205136E-05 
 +5.098976E-03 -1.945294E-05 -8.363281E-05 -1.945294E-05 -2.457840E-04 +2.254616E-04 -8.363281E-05 +2.254616E-04 +6.509343E-06 
 +5.065347E-03 -9.128169E-05 -5.555362E-05 -9.128169E-05 -6.855715E-05 +1.582444E-04 -5.555362E-05 +1.582444E-04 -8.309729E-05 
 +5.070103E-03 +1.851580E-05 +8.441670E-05 +1.851580E-05 +1.177049E-04 +2.456361E-04 +8.441670E-05 +2.456361E-04 -2.803407E-04 
 +5.019484E-03 +5.652794E-05 +9.257423E-05 +5.652794E-05 +1.379361E-04 +2.293995E-04 +9.257423E-05 +2.293995E-04 -2.837557E-04 
 +4.922800E-03 -8.080341E-05 +4.064666E-05 -8.080341E-05 -8.314791E-06 +2.841708E-05 +4.064666E-05 +2.841708E-05 -5.676766E-05 
 +4.872387E-03 -2.277836E-04 -6.626302E-05 -2.277836E-04 -3.885403E-05 -1.271731E-04 -6.626302E-05 -1.271731E-04 -7.312449E-05 
 +4.945882E-03 -3.220808E-04 -4.302128E-05 -3.220808E-04 -2.585377E-05 -1.293739E-04 -4.302128E-05 -1.293739E-04 -2.702501E-04 
 +4.923956E-03 -1.683562E-04 +4.189403E-05 -1.683562E-04 -1.300679E-04 -1.165155E-05 +4.189403E-05 -1.165155E-05 -1.990033E-04 
 +4.926139E-03 -1.039846E-04 -2.803141E-05 -1.039846E-04 -2.228006E-04 +1.091407E-05 -2.803141E-05 +1.091407E-05 -3.712921E-05 
 +4.975689E-03 -8.383459E-05 -1.306999E-05 -8.383459E-05 -1.545723E-04 -1.176426E-04 -1.306999E-05 -1.176426E-04 -1.581048E-04 
 +5.025038E-03 -5.816876E-05 +7.732366E-05 -5.816876E-05 -1.040078E-04 -2.314161E-04 +7.732366E-05 -2.314161E-04 -2.790688E-04 
 +5.067795E-03 +8.863868E-06 +1.412571E-04 +8.863868E-06 -1.441818E-04 -2.343316E-04 +1.412571E-04 -2.343316E-04 -3.106939E-04 
 +5.143499E-03 +8.794711E-06 +2.206512E-05 +8.794711E-06 -1.705747E-04 -1.511568E-04 +2.206512E-05 -1.511568E-04 -3.783192E-04 
 +5.087132E-03 +7.271450E-05 -7.958709E-06 +7.271450E-05 -1.092143E-04 -2.113881E-04 -7.958709E-06 -2.113881E-04 -3.522982E-04 
 +4.983000E-03 +7.142026E-05 +4.812364E-05 +7.142026E-05 +3.827519E-06 -3.140530E-04 +4.812364E-05 -3.140530E-04 -3.164593E-04 
 +4.938357E-03 +2.428758E-05 -4.274563E-05 +2.428758E-05 +7.551386E-05 -3.086743E-04 -4.274563E-05 -3.086743E-04 -3.093369E-04 
 +4.936829E-03 +2.914236E-05 +9.414264E-06 +2.914236E-05 +7.055850E-05 -2.813780E-04 +9.414264E-06 -2.813780E-04 -3.013283E-04 
 +4.946398E-03 -2.918096E-05 -6.092898E-05 -2.918096E-05 +2.195899E-05 -1.111484E-04 -6.092898E-05 -1.111484E-04 -2.699848E-04 
 +4.851807E-03 -1.385128E-04 -2.192445E-04 -1.385128E-04 -1.056124E-05 +7.003690E-05 -2.192445E-04 +7.003690E-05 -1.066741E-04 
 +4.985831E-03 -1.334968E-04 -4.528031E-05 -1.334968E-04 -1.543660E-04 +1.646709E-04 -4.528031E-05 +1.646709E-04 +3.439340E-05 
 +4.974186E-03 -3.089998E-05 +3.013127E-05 -3.089998E-05 -3.007471E-04 +2.400950E-04 +3.013127E-05 +2.400950E-04 -2.244553E-05 
 +5.076497E-03 -4.445792E-05 -7.246351E-05 -4.445792E-05 -2.226638E-04 +1.916307E-04 -7.246351E-05 +1.916307E-04 -5.136869E-05 
 +5.115053E-03 -4.176722E-05 +1.730850E-04 -4.176722E-05 +1.839287E-04 +3.086636E-04 +1.730850E-04 +3.086636E-04 -2.250331E-04 
 +5.071143E-03 +5.557813E-05 +9.841002E-05 +5.557813E-05 +2.444361E-04 +3.932446E-04 +9.841002E-05 +3.932446E-04 -3.149204E-04 
 +5.038693E-03 -1.102854E-06 -5.342987E-05 -1.102854E-06 +9.738548E-05 +3.270686E-04 -5.342987E-05 +3.270686E-04 -2.763333E-04 
 +4.950558E-03 -6.575261E-05 -1.421440E-04 -6.575261E-05 -5.337047E-05 +6.615413E-05 -1.421440E-04 +6.615413E-05 -1.006381E-04 
 +4.940295E-03 -1.080145E-04 -1.321781E-04 -1.080145E-04 -1.121945E-04 -1.151897E-04 -1.321781E-04 -1.151897E-04 -1.501340E-04 
 +4.977836E-03 -1.219481E-04 -2.475468E-06 -1.219481E-04 -1.297807E-05 -7.748456E-05 -2.475468E-06 -7.748456E-05 -3.213228E-04 
 +4.907231E-03 -8.338791E-05 +9.481399E-05 -8.338791E-05 +1.322528E-04 -5.073678E-06 +9.481399E-05 -5.073678E-06 -2.691568E-04 
 +4.889788E-03 -4.615942E-05 +3.561790E-05 -4.615942E-05 +1.087567E-04 +1.812539E-05 +3.561790E-05 +1.812539E-05 -2.188364E-04 
 +4.976770E-03 -1.789679E-05 -5.973683E-05 -1.789679E-05 -1.220107E-05 -7.883185E-05 -5.973683E-05 -7.883185E-05 -2.301955E-04 
 +5.022923E-03 -7.147014E-05 +3.850019E-05 -7.147014E-05 -1.078669E-04 -1.331981E-04 +3.850019E-05 -1.331981E-04 -2.118667E-04 
 +5.050364E-03 -4.687423E-05 +1.208916E-04 -4.687423E-05 -1.977119E-04 -2.181305E-05 +1.208916E-04 -2.181305E-05 -1.796862E-04 
 +5.113204E-03 -4.065054E-05 +1.842167E-06 -4.065054E-05 -2.612142E-04 +3.005705E-05 +1.842167E-06 +3.005705E-05 -1.446124E-04 
 +5.071834E-03 +2.893664E-05 -2.194479E-05 +2.893664E-05 -2.291823E-04 -8.724879E-05 -2.194479E-05 -8.724879E-05 -1.731717E-04 
 +5.018389E-03 +4.169092E-05 +4.041536E-05 +4.169092E-05 -9.527149E-05 -2.589413E-04 +4.041536E-05 -2.589413E-04 -2.426632E-04 
 +4.982000E-03 -3.563993E-05 -3.265919E-05 -3.563993E-05 +9.575020E-06 -3.348349E-04 -3.265919E-05 -3.348349E-04 -2.679989E-04 
 +5.030730E-03 -6.035428E-05 -6.672374E-06 -6.035428E-05 +8.456493E-07 -3.236696E-04 -6.672374E-06 -3.236696E-04 -2.931045E-04 
 +5.046163E-03 -6.888135E-05 +5.549845E-05 -6.888135E-05 +4.583053E-05 -2.280411E-04 +5.549845E-05 -2.280411E-04 -2.869590E-04 
 +4.811139E-03 -1.144797E-04 -2.154372E-04 -1.144797E-04 +4.935006E-05 -7.205390E-05 -2.154372E-04 -7.205390E-05 -1.139014E-04 
 +4.931253E-03 -9.300870E-05 -1.610873E-04 -9.300870E-05 +7.256625E-06 +1.092907E-05 -1.610873E-04 +1.092907E-05 +1.625327E-05 
 +4.757944E-03 -1.510327E-05 -1.145169E-05 -1.510327E-05 +9.277705E-05 +4.234610E-05 -1.145169E-05 +4.234610E-05 -1.573069E-05 
 +5.034788E-03 -7.563725E-05 +9.485657E-05 -7.563725E-05 +1.146861E-04 +1.533878E-04 +9.485657E-05 +1.533878E-04 -1.050640E-04 
 +5.134221E-03 +1.183690E-04 +1.819448E-04 +1.183690E-04 -4.084549E-05 -2.573134E-04 +1.819448E-04 -2.573134E-04 -1.500551E-04 
 +5.111875E-03 +6.849222E-05 +6.181001E-05 +6.849222E-05 -5.916259E-05 -3.699032E-04 +6.181001E-05 -3.699032E-04 -1.994518E-04 
 +5.090764E-03 +6.587070E-06 -4.993917E-05 +6.587070E-06 -9.719648E-05 -2.865717E-04 -4.993917E-05 -2.865717E-04 -1.621819E-04 
 +4.993375E-03 -2.906160E-05 -1.835588E-04 -2.906160E-05 -7.825623E-05 -1.252043E-04 -1.835588E-04 -1.252043E-04 -1.189076E-04 
 +5.009176E-03 -6.443448E-05 -1.287801E-04 -6.443448E-05 +3.705748E-06 -4.079151E-06 -1.287801E-04 -4.079151E-06 -1.953903E-04 
 +4.986933E-03 -1.004093E-04 -3.542912E-05 -1.004093E-04 +7.176654E-05 +1.992345E-05 -3.542912E-05 +1.992345E-05 -2.031399E-04 
 +4.898637E-03 -6.305762E-05 -1.903914E-05 -6.305762E-05 +8.554173E-05 +2.060011E-05 -1.903914E-05 +2.060011E-05 -1.027537E-04 
 +4.885731E-03 -2.464849E-05 -2.676167E-07 -2.464849E-05 +1.149499E-04 -6.519503E-06 -2.676167E-07 -6.519503E-06 -1.004980E-04 
 +4.942393E-03 -1.058753E-05 -5.981841E-05 -1.058753E-05 +7.699659E-05 -4.101838E-05 -5.981841E-05 -4.101838E-05 -1.373400E-04 
 +5.000558E-03 -4.680898E-06 +4.288229E-06 -4.680898E-06 +1.330377E-05 -1.778609E-05 +4.288229E-06 -1.778609E-05 -1.240642E-04 
 +5.002021E-03 -3.943019E-05 +6.436904E-05 -3.943019E-05 -1.075046E-04 +5.969717E-05 +6.436904E-05 +5.969717E-05 -4.621362E-05 
 +4.941592E-03 -1.718074E-05 -2.934383E-06 -1.718074E-05 -2.303123E-04 +9.852193E-05 -2.934383E-06 +9.852193E-05 +6.377612E-05 
 +4.929223E-03 +1.243679E-05 -4.737897E-05 +1.243679E-05 -2.149634E-04 -2.412984E-05 -4.737897E-05 -2.412984E-05 +1.144576E-04 
 +5.023252E-03 -3.074905E-05 +3.916104E-05 -3.074905E-05 -1.809392E-04 -2.385046E-04 +3.916104E-05 -2.385046E-04 -2.960783E-06 
 +5.119984E-03 -1.270946E-04 +3.733264E-05 -1.270946E-04 -1.356110E-04 -3.559296E-04 +3.733264E-05 -3.559296E-04 -1.549274E-04 
 +5.118067E-03 -1.339947E-04 +2.830831E-05 -1.339947E-04 -6.001163E-05 -3.487863E-04 +2.830831E-05 -3.487863E-04 -2.455423E-04 
 +5.135027E-03 -1.290116E-04 +6.129072E-05 -1.290116E-04 -1.534771E-05 -3.429659E-04 +6.129072E-05 -3.429659E-04 -3.644125E-04 
 +5.059141E-03 -1.616912E-04 -9.867725E-05 -1.616912E-04 +1.158290E-04 -2.815856E-04 -9.867725E-05 -2.815856E-04 -3.032906E-04 
 +4.783673E-03 -6.652646E-05 -1.234997E-04 -6.652646E-05 +3.096873E-04 -1.138208E-04 -1.234997E-04 -1.138208E-04 -4.184459E-05 
 +4.597539E-03 +3.031140E-05 -5.733360E-05 +3.031140E-05 +2.611339E-04 -4.344338E-06 -5.733360E-05 -4.344338E-06 +1.209557E-04 
 +4.974950E-03 -1.410624E-05 +1.337080E-04 -1.410624E-05 +4.155181E-05 -5.616006E-05 +1.337080E-04 -5.616006E-05 +2.615308E-05 
 +5.101640E-03 +1.335861E-04 +2.152946E-05 +1.335861E-04 +2.592825E-05 -2.783399E-04 +2.152946E-05 -2.783399E-04 -3.500593E-05 
 +5.129146E-03 +1.109022E-04 +5.167471E-05 +1.109022E-04 -8.356271E-05 -3.118094E-04 +5.167471E-05 -3.118094E-04 -6.369433E-05 
 +5.056125E-03 +4.235348E-05 +4.986605E-05 +4.235348E-05 -2.447477E-05 -3.032341E-04 +4.986605E-05 -3.032341E-04 -2.998409E-05 
 +4.995226E-03 -1.051982E-04 -6.492634E-05 -1.051982E-04 -2.722177E-05 -1.950258E-04 -6.492634E-05 -1.950258E-04 -4.129381E-05 
 +5.044270E-03 -9.654662E-05 -3.811923E-05 -9.654662E-05 -1.094361E-04 -6.103406E-05 -3.811923E-05 -6.103406E-05 -8.887652E-05 
 +5.010294E-03 -8.314910E-05 +1.287699E-06 -8.314910E-05 -7.110487E-05 -2.302571E-06 +1.287699E-06 -2.302571E-06 -5.024765E-05 
 +4.941300E-03 -5.186046E-05 -6.047962E-05 -5.186046E-05 +2.388808E-05 +4.213227E-05 -6.047962E-05 +4.213227E-05 -1.003661E-05 
 +4.921547E-03 -2.614938E-05 -6.248027E-05 -2.614938E-05 +6.210232E-05 +7.232627E-05 -6.248027E-05 +7.232627E-05 -9.044462E-06 
 +4.952793E-03 -1.972365E-05 -4.058294E-05 -1.972365E-05 +9.003794E-05 +6.108491E-05 -4.058294E-05 +6.108491E-05 -5.691533E-05 
 +5.003022E-03 -9.151834E-06 -1.528866E-05 -9.151834E-06 +7.448611E-05 +7.743398E-05 -1.528866E-05 +7.743398E-05 -9.262732E-05 
 +5.010002E-03 -6.699160E-05 +3.982755E-07 -6.699160E-05 -2.000135E-05 +1.039562E-04 +3.982755E-07 +1.039562E-04 -1.768491E-05 
 +4.807562E-03 +1.722884E-04 -4.593713E-05 +1.722884E-04 -1.064871E-05 +7.751265E-06 -4.593713E-05 +7.751265E-06 +1.081187E-04 
 +4.754853E-03 +2.501169E-04 -1.162645E-04 +2.501169E-04 +9.797112E-06 -3.428492E-05 -1.162645E-04 -3.428492E-05 +2.142123E-04 
 +4.885014E-03 +1.608847E-04 -4.858430E-05 +1.608847E-04 -1.274874E-04 -1.044424E-04 -4.858430E-05 -1.044424E-04 +1.447094E-04 
 +5.104282E-03 -2.890803E-05 +3.291919E-05 -2.890803E-05 -2.156817E-04 -2.948222E-04 +3.291919E-05 -2.948222E-04 -2.756063E-05 
 +5.157677E-03 -1.308605E-04 +7.692499E-05 -1.308605E-04 -1.320841E-04 -3.586271E-04 +7.692499E-05 -3.586271E-04 -1.538910E-04 
 +5.223756E-03 -1.851085E-04 +6.135969E-05 -1.851085E-04 -3.692180E-05 -3.676975E-04 +6.135969E-05 -3.676975E-04 -3.536031E-04 
 +5.192894E-03 -2.003878E-04 -4.458504E-06 -2.003878E-04 +5.824933E-05 -4.628756E-04 -4.458504E-06 -4.628756E-04 -3.980465E-04 
 +4.966663E-03 -8.802268E-05 -9.411645E-06 -8.802268E-05 +2.142020E-04 -4.563760E-04 -9.411645E-06 -4.563760E-04 -1.478438E-04 
 +4.628335E-03 +5.552185E-05 -7.822274E-05 +5.552185E-05 +3.023363E-04 -2.905475E-04 -7.822274E-05 -2.905475E-04 +9.316777E-05 
 +4.851820E-03 -3.055557E-05 -9.280717E-06 -3.055557E-05 +2.266573E-04 -2.242469E-04 -9.280717E-06 -2.242469E-04 +8.610831E-05 
 +4.997126E-03 +4.347994E-05 -4.465960E-05 +4.347994E-05 +4.359743E-05 -2.636988E-04 -4.465960E-05 -2.636988E-04 -6.227977E-05 
 +5.051253E-03 +1.100780E-04 +1.058890E-04 +1.100780E-04 -6.934174E-05 -3.673721E-04 +1.058890E-04 -3.673721E-04 -1.881393E-05 
 +5.022499E-03 +2.631578E-05 +1.644896E-04 +2.631578E-05 -4.935346E-05 -3.120867E-04 +1.644896E-04 -3.120867E-04 -5.442911E-07 
 +5.034473E-03 -9.584192E-05 +2.016557E-05 -9.584192E-05 -1.236543E-04 -1.663773E-04 +2.016557E-05 -1.663773E-04 -2.004787E-05 
 +5.043867E-03 -4.576792E-05 +2.975004E-05 -4.576792E-05 -1.444004E-04 +4.498832E-05 +2.975004E-05 +4.498832E-05 -8.215484E-05 
 +5.017093E-03 -3.398941E-05 +4.245673E-06 -3.398941E-05 -7.572391E-05 +1.453578E-04 +4.245673E-06 +1.453578E-04 -1.166622E-04 
 +4.982828E-03 -4.159107E-05 -4.957057E-05 -4.159107E-05 +9.229372E-06 +7.460660E-05 -4.957057E-05 +7.460660E-05 -9.197257E-05 
 +4.970411E-03 -2.752332E-05 -2.275299E-05 -2.752332E-05 +5.926263E-05 +2.628547E-05 -2.275299E-05 +2.628547E-05 -9.308837E-05 
 +4.999102E-03 -1.979043E-05 -6.850950E-06 -1.979043E-05 +7.496065E-05 +8.250964E-05 -6.850950E-06 +8.250964E-05 -1.411660E-04 
 +5.044745E-03 -7.300124E-06 +6.158904E-07 -7.300124E-06 +7.964834E-05 +1.101196E-04 +6.158904E-07 +1.101196E-04 -1.805963E-04 
 +5.062853E-03 -5.242010E-05 -5.720802E-06 -5.242010E-05 +1.323808E-04 +4.716871E-05 -5.720802E-06 +4.716871E-05 -1.284752E-04 
 +4.760291E-03 +1.760750E-04 -8.545771E-05 +1.760750E-04 +1.552745E-04 -2.220127E-05 -8.545771E-05 -2.220127E-05 +7.702025E-06 
 +4.722379E-03 +2.097184E-04 -1.116983E-04 +2.097184E-04 +7.809109E-05 -2.804527E-06 -1.116983E-04 -2.804527E-06 +1.054769E-04 
 +4.789210E-03 +2.116679E-04 -1.160441E-04 +2.116679E-04 -1.696248E-05 +2.410686E-05 -1.160441E-04 +2.410686E-05 +8.807738E-05 
 +4.910833E-03 +1.765126E-04 -5.981242E-05 +1.765126E-04 -5.785847E-05 -5.877544E-06 -5.981242E-05 -5.877544E-06 +7.358745E-06 
 +5.030333E-03 +8.686618E-05 -3.319338E-05 +8.686618E-05 -3.578024E-05 -1.683910E-04 -3.319338E-05 -1.683910E-04 -1.229261E-04 
 +5.234761E-03 -1.261430E-04 +1.347191E-05 -1.261430E-04 -1.810742E-05 -4.067969E-04 +1.347191E-05 -4.067969E-04 -3.419781E-04 
 +5.227053E-03 -9.116339E-05 +1.438874E-05 -9.116339E-05 +3.441552E-05 -5.112125E-04 +1.438874E-05 -5.112125E-04 -4.379456E-04 
 +5.170633E-03 -6.744219E-05 +4.947020E-05 -6.744219E-05 +1.511415E-04 -4.933245E-04 +4.947020E-05 -4.933245E-04 -3.547419E-04 
 +4.829565E-03 -7.944330E-05 -5.730616E-07 -7.944330E-05 +1.725198E-04 -3.156562E-04 -5.730616E-07 -3.156562E-04 -1.814469E-04 
 +4.836882E-03 -3.921840E-05 -3.742896E-05 -3.921840E-05 +1.741164E-04 -1.620550E-04 -3.742896E-05 -1.620550E-04 -7.459065E-05 
 +4.945022E-03 -2.850507E-05 +2.506510E-05 -2.850507E-05 +1.645784E-04 +1.591927E-04 +2.506510E-05 +1.591927E-04 -1.182834E-04 
 +4.967589E-03 +1.857253E-04 +1.163653E-04 +1.857253E-04 +1.112768E-04 +2.054693E-04 +1.163653E-04 +2.054693E-04 -6.931044E-05 
 +5.008221E-03 +5.330620E-05 +1.022157E-04 +5.330620E-05 -9.058958E-05 -1.057050E-04 +1.022157E-04 -1.057050E-04 -1.728619E-05 
 +5.029687E-03 -1.023800E-04 +6.517423E-05 -1.023800E-04 -1.748925E-04 -2.167313E-04 +6.517423E-05 -2.167313E-04 +4.917842E-05 
 +4.986289E-03 -4.512485E-05 +1.010909E-04 -4.512485E-05 -7.995268E-05 -5.822371E-05 +1.010909E-04 -5.822371E-05 -4.012901E-05 
 +5.002347E-03 -3.116790E-05 +3.110882E-05 -3.116790E-05 -6.115201E-06 +4.250566E-05 +3.110882E-05 +4.250566E-05 -1.514119E-04 
 +5.031595E-03 -3.887844E-05 -6.439814E-06 -3.887844E-05 -5.384600E-06 +8.658017E-05 -6.439814E-06 +8.658017E-05 -1.026742E-04 
 +5.026379E-03 -3.333175E-05 +2.482557E-05 -3.333175E-05 +3.551988E-06 +1.122999E-04 +2.482557E-05 +1.122999E-04 -7.027974E-05 
 +5.047219E-03 -2.728907E-05 +2.265315E-05 -2.728907E-05 +2.709766E-05 +1.194917E-04 +2.265315E-05 +1.194917E-04 -1.218614E-04 
 +5.086642E-03 -3.558795E-05 -1.312662E-06 -3.558795E-05 +6.677563E-05 +9.973546E-05 -1.312662E-06 +9.973546E-05 -1.799133E-04 
 +5.069338E-03 -7.536503E-05 -4.068890E-07 -7.536503E-05 +1.319759E-04 +5.961904E-05 -4.068890E-07 +5.961904E-05 -1.722943E-04 
 +4.744162E-03 +1.340697E-04 -7.090163E-05 +1.340697E-04 +1.907820E-04 +6.134315E-06 -7.090163E-05 +6.134315E-06 -7.096633E-05 
 +4.751991E-03 +1.419655E-04 -7.441766E-05 +1.419655E-04 +1.610884E-04 -8.363103E-06 -7.441766E-05 -8.363103E-06 +8.056795E-06 
 +4.807480E-03 +1.460961E-04 -8.235485E-05 +1.460961E-04 +1.023212E-04 +1.259753E-05 -8.235485E-05 +1.259753E-05 +1.442384E-06 
 +4.838733E-03 +1.692261E-04 -7.770340E-05 +1.692261E-04 +8.723909E-05 +1.434167E-05 -7.770340E-05 +1.434167E-05 -5.400005E-05 
 +4.891883E-03 +1.916305E-04 -1.198994E-04 +1.916305E-04 +1.033020E-04 -3.562616E-06 -1.198994E-04 -3.562616E-06 -2.047457E-04 
 +5.184110E-03 +3.546876E-05 -1.296172E-05 +3.546876E-05 +1.239739E-04 +1.939771E-05 -1.296172E-05 +1.939771E-05 -3.987089E-04 
 +5.220501E-03 +7.366222E-05 +3.612585E-05 +7.366222E-05 +1.531760E-04 +3.995826E-05 +3.612585E-05 +3.995826E-05 -4.979943E-04 
 +5.144079E-03 +4.074895E-05 +1.262135E-05 +4.074895E-05 +1.832425E-04 -6.631111E-05 +1.262135E-05 -6.631111E-05 -4.626508E-04 
 +5.003702E-03 -9.418793E-05 +4.598543E-05 -9.418793E-05 +1.531260E-04 -1.914268E-04 +4.598543E-05 -1.914268E-04 -2.974953E-04 
 +4.951233E-03 -8.343951E-05 +4.791588E-06 -8.343951E-05 +1.184932E-04 -1.105604E-04 +4.791588E-06 -1.105604E-04 -1.773702E-04 
 +4.975587E-03 -8.147892E-05 +7.516215E-05 -8.147892E-05 +9.674381E-06 +1.873011E-05 +7.516215E-05 +1.873011E-05 -1.095592E-04 
 +4.953212E-03 +1.018837E-06 +7.861868E-05 +1.018837E-06 +8.234590E-06 +1.025970E-04 +7.861868E-05 +1.025970E-04 -9.567783E-06 
 +4.968608E-03 -8.865578E-05 +3.702830E-06 -8.865578E-05 -4.954934E-06 +1.275318E-04 +3.702830E-06 +1.275318E-04 +2.201246E-05 
 +4.934481E-03 -1.660632E-04 +5.631412E-05 -1.660632E-04 -9.487563E-06 +1.157590E-04 +5.631412E-05 +1.157590E-04 +1.475908E-05 
 +5.016075E-03 -1.215203E-05 +1.352590E-04 -1.215203E-05 -1.013035E-05 +6.049914E-05 +1.352590E-04 +6.049914E-05 -2.090838E-05 
 +5.028934E-03 -1.140494E-05 +1.046103E-04 -1.140494E-05 +1.961343E-06 +3.845659E-05 +1.046103E-04 +3.845659E-05 -3.603517E-05 
 +5.053992E-03 -1.610859E-05 +1.012882E-04 -1.610859E-05 -1.590802E-05 +1.116200E-04 +1.012882E-04 +1.116200E-04 -5.110441E-05 
 +5.080615E-03 -1.075920E-05 +4.087659E-05 -1.075920E-05 -1.376603E-05 +1.583080E-04 +4.087659E-05 +1.583080E-04 -9.586427E-05 
 +5.069661E-03 -4.147941E-06 -3.321533E-05 -4.147941E-06 +2.933679E-05 +9.597973E-05 -3.321533E-05 +9.597973E-05 -1.001208E-04 
 +5.067076E-03 -2.601506E-05 -3.458365E-05 -2.601506E-05 +9.480152E-05 -2.116479E-06 -3.458365E-05 -2.116479E-06 -1.310241E-04 
 +5.064176E-03 -6.311048E-05 -3.724391E-05 -6.311048E-05 +1.688552E-04 -5.533529E-05 -3.724391E-05 -5.533529E-05 -1.621879E-04 
 +4.777447E-03 +1.010912E-04 -7.423531E-05 +1.010912E-04 +2.083404E-04 -6.374668E-05 -7.423531E-05 -6.374668E-05 -9.162889E-05 
 +4.783488E-03 +8.616133E-05 -5.862941E-05 +8.616133E-05 +2.101458E-04 -5.458161E-05 -5.862941E-05 -5.458161E-05 -5.384442E-05 
 +4.811511E-03 +1.064829E-04 -6.136162E-05 +1.064829E-04 +1.885932E-04 -3.135491E-05 -6.136162E-05 -3.135491E-05 -9.021087E-05 
 +4.853163E-03 +1.661964E-04 -9.458388E-05 +1.661964E-04 +1.921274E-04 -3.202436E-05 -9.458388E-05 -3.202436E-05 -1.525226E-04 
 +4.926134E-03 +1.994784E-04 -6.475685E-05 +1.994784E-04 +1.744536E-04 -1.726970E-05 -6.475685E-05 -1.726970E-05 -2.664141E-04 
 +5.110812E-03 +7.304079E-05 +2.268412E-05 +7.304079E-05 +1.617286E-04 +3.974515E-05 +2.268412E-05 +3.974515E-05 -3.564614E-04 
 +5.123912E-03 +8.488787E-05 -2.168503E-05 +8.488787E-05 +1.865738E-04 +5.113195E-05 -2.168503E-05 +5.113195E-05 -4.393452E-04 
 +5.134302E-03 +3.938487E-05 -6.157766E-05 +3.938487E-05 +1.467374E-04 -3.102072E-05 -6.157766E-05 -3.102072E-05 -4.212023E-04 
 +5.017507E-03 -1.184873E-04 +3.123678E-05 -1.184873E-04 +1.091877E-04 -1.627093E-04 +3.123678E-05 -1.627093E-04 -2.560773E-04 
 +4.987487E-03 -1.520338E-04 +4.740095E-05 -1.520338E-04 +4.311108E-05 -1.329453E-04 +4.740095E-05 -1.329453E-04 -1.799292E-04 
 +4.966269E-03 -9.440405E-05 +5.381982E-05 -9.440405E-05 -2.292919E-05 -1.194276E-05 +5.381982E-05 -1.194276E-05 -1.120964E-04 
 +4.955763E-03 +1.090740E-05 +5.320951E-05 +1.090740E-05 -1.050695E-04 +1.015541E-04 +5.320951E-05 +1.015541E-04 -4.268190E-05 
 +4.960094E-03 -4.005881E-05 +7.206104E-05 -4.005881E-05 -9.517111E-05 +1.316426E-04 +7.206104E-05 +1.316426E-04 -2.365604E-05 
 +4.935301E-03 -7.230233E-05 +4.835476E-05 -7.230233E-05 +1.459480E-05 +1.666986E-04 +4.835476E-05 +1.666986E-04 -8.991651E-06 
 +5.067358E-03 +4.476340E-05 +9.675747E-05 +4.476340E-05 +5.923939E-05 +1.498492E-04 +9.675747E-05 +1.498492E-04 -5.044321E-06 
 +5.062402E-03 +2.232541E-05 +1.123852E-04 +2.232541E-05 +4.268618E-07 +1.066836E-04 +1.123852E-04 +1.066836E-04 -6.098814E-06 
 +5.052367E-03 +1.101220E-05 +1.549552E-04 +1.101220E-05 -1.660047E-05 +1.233630E-04 +1.549552E-04 +1.233630E-04 -5.724845E-05 
 +5.082031E-03 +6.785132E-06 +6.486889E-05 +6.785132E-06 -1.464850E-05 +1.591405E-04 +6.486889E-05 +1.591405E-04 -1.497929E-04 
 +5.074566E-03 +2.712375E-05 -1.095687E-04 +2.712375E-05 +4.701989E-05 +9.657626E-05 -1.095687E-04 +9.657626E-05 -1.571788E-04 
 +5.041095E-03 +8.643888E-08 -1.343075E-04 +8.643888E-08 +1.332564E-04 -5.657706E-05 -1.343075E-04 -5.657706E-05 -1.554511E-04 
 +4.997808E-03 -5.704431E-05 -4.833750E-05 -5.704431E-05 +1.961897E-04 -1.246146E-04 -4.833750E-05 -1.246146E-04 -1.634353E-04 
 +4.857086E-03 +5.539025E-05 -6.641739E-05 +5.539025E-05 +1.883597E-04 -1.430213E-04 -6.641739E-05 -1.430213E-04 -6.495878E-05 
 +4.873113E-03 +1.208130E-04 -4.960358E-05 +1.208130E-04 +1.758517E-04 -1.328392E-04 -4.960358E-05 -1.328392E-04 -4.216558E-05 
 +4.839442E-03 +1.557837E-04 -4.457756E-05 +1.557837E-04 +2.293257E-04 -8.701900E-05 -4.457756E-05 -8.701900E-05 -1.311208E-04 
 +4.792343E-03 +1.974925E-04 -8.321213E-05 +1.974925E-04 +2.570518E-04 -1.287432E-05 -8.321213E-05 -1.287432E-05 -2.164622E-04 
 +4.976976E-03 +1.191988E-04 -5.915663E-05 +1.191988E-04 +2.417546E-04 +5.518188E-05 -5.915663E-05 +5.518188E-05 -2.918815E-04 
 +5.011673E-03 +5.201294E-05 -1.923958E-05 +5.201294E-05 +2.564241E-04 +4.015540E-05 -1.923958E-05 +4.015540E-05 -3.282366E-04 
 +5.059976E-03 +3.213081E-05 -1.056696E-04 +3.213081E-05 +2.516331E-04 +4.015953E-05 -1.056696E-04 +4.015953E-05 -4.150382E-04 
 +5.097433E-03 -4.458930E-05 -1.031787E-04 -4.458930E-05 +1.591584E-04 -5.513183E-06 -1.031787E-04 -5.513183E-06 -4.172206E-04 
 +5.025295E-03 -1.681299E-04 +2.122034E-05 -1.681299E-04 +8.497386E-05 -1.531619E-04 +2.122034E-05 -1.531619E-04 -2.814939E-04 
 +5.009717E-03 -2.020757E-04 +1.155379E-04 -2.020757E-04 +5.898790E-05 -1.702955E-04 +1.155379E-04 -1.702955E-04 -1.953187E-04 
 +4.968829E-03 -4.475266E-05 +1.008644E-04 -4.475266E-05 +8.270154E-05 -4.365337E-05 +1.008644E-04 -4.365337E-05 -1.926426E-04 
 +4.969072E-03 +7.756175E-05 +4.376050E-05 +7.756175E-05 +4.159323E-05 -2.656584E-05 +4.376050E-05 -2.656584E-05 -1.976958E-04 
 +5.003039E-03 +7.497886E-05 +5.475759E-05 +7.497886E-05 -2.780531E-06 -4.249295E-06 +5.475759E-05 -4.249295E-06 -1.856516E-04 
 +4.992311E-03 +1.095960E-04 +4.870771E-05 +1.095960E-04 -2.705204E-05 -4.455107E-05 +4.870771E-05 -4.455107E-05 -6.268916E-05 
 +5.000466E-03 +1.343740E-04 +7.823020E-05 +1.343740E-04 -4.760953E-06 -2.573769E-05 +7.823020E-05 -2.573769E-05 -1.843785E-05 
 +5.066380E-03 +6.414915E-05 +1.189679E-04 +6.414915E-05 +2.121954E-05 +5.629166E-05 +1.189679E-04 +5.629166E-05 -5.531641E-05 
 +5.033189E-03 +6.002356E-05 +1.438805E-04 +6.002356E-05 +4.751074E-05 +1.363538E-04 +1.438805E-04 +1.363538E-04 -4.701935E-05 
 +5.029981E-03 +3.321288E-05 +4.783316E-05 +3.321288E-05 +7.067330E-05 +1.534740E-04 +4.783316E-05 +1.534740E-04 -1.107379E-04 
 +5.052111E-03 +5.796683E-05 -1.588613E-04 +5.796683E-05 +5.733262E-05 +1.619607E-05 -1.588613E-04 +1.619607E-05 -1.874894E-04 
 +4.992070E-03 -2.368491E-06 -1.448165E-04 -2.368491E-06 +6.311159E-05 -1.040374E-04 -1.448165E-04 -1.040374E-04 -9.248013E-05 
 +4.891536E-03 -8.563654E-05 +1.341280E-05 -8.563654E-05 +5.094314E-05 -1.217882E-04 +1.341280E-05 -1.217882E-04 +3.274621E-05 
 +4.887744E-03 -5.641896E-05 -5.790615E-06 -5.641896E-05 +4.329510E-06 -1.422795E-04 -5.790615E-06 -1.422795E-04 +8.328927E-05 
 +4.895097E-03 -4.175677E-05 +2.442064E-06 -4.175677E-05 -5.164046E-07 -1.526203E-04 +2.442064E-06 -1.526203E-04 +5.550407E-05 
 +4.874620E-03 -5.000342E-05 -3.825768E-06 -5.000342E-05 +6.507587E-05 -1.851271E-04 -3.825768E-06 -1.851271E-04 -5.933428E-05 
 +4.809947E-03 +5.788994E-05 +2.465781E-05 +5.788994E-05 +1.710246E-04 -1.199142E-04 +2.465781E-05 -1.199142E-04 -1.747981E-04 
 +5.013772E-03 +6.685122E-05 -5.785086E-05 +6.685122E-05 +2.819279E-04 -1.932122E-06 -5.785086E-05 -1.932122E-06 -2.304471E-04 
 +4.986938E-03 +2.279824E-05 -4.406023E-05 +2.279824E-05 +3.193831E-04 +4.765884E-05 -4.406023E-05 +4.765884E-05 -2.243644E-04 
 +5.027483E-03 -2.528826E-05 -1.185240E-04 -2.528826E-05 +2.368798E-04 +1.213194E-04 -1.185240E-04 +1.213194E-04 -2.327852E-04 
 +5.074673E-03 -8.712067E-05 -8.823327E-05 -8.712067E-05 +9.043739E-05 +1.915892E-04 -8.823327E-05 +1.915892E-04 -2.688686E-04 
 +5.094463E-03 -1.141551E-04 +1.003340E-05 -1.141551E-04 +1.314523E-05 +2.063536E-04 +1.003340E-05 +2.063536E-04 -2.814348E-04 
 +5.074499E-03 -9.537324E-05 +1.121031E-04 -9.537324E-05 +5.503347E-05 +8.617577E-05 +1.121031E-04 +8.617577E-05 -2.525246E-04 
 +4.994582E-03 -4.439696E-05 +4.672201E-05 -4.439696E-05 +1.217261E-04 -7.510679E-05 +4.672201E-05 -7.510679E-05 -2.327763E-04 
 +4.981902E-03 +4.853567E-05 +3.908186E-05 +4.853567E-05 +1.326871E-04 -1.593789E-04 +3.908186E-05 -1.593789E-04 -2.846980E-04 
 +5.034254E-03 +4.139870E-05 +4.264815E-05 +4.139870E-05 +1.104897E-04 -9.508430E-05 +4.264815E-05 -9.508430E-05 -3.295694E-04 
 +5.010564E-03 +1.144322E-05 +6.157791E-05 +1.144322E-05 +1.031503E-04 -3.174628E-05 +6.157791E-05 -3.174628E-05 -2.252135E-04 
 +4.966212E-03 +8.554019E-05 +1.325164E-04 +8.554019E-05 +4.300259E-05 +8.207010E-06 +1.325164E-04 +8.207010E-06 -1.809013E-04 
 +5.028539E-03 +7.834902E-05 +1.860804E-04 +7.834902E-05 +3.872985E-05 +8.076016E-05 +1.860804E-04 +8.076016E-05 -2.415905E-04 
 +4.994715E-03 +7.836146E-05 +3.742818E-05 +7.836146E-05 +1.154320E-04 +6.639452E-05 +3.742818E-05 +6.639452E-05 -1.703560E-04 
 +4.968560E-03 +1.245879E-05 -4.323654E-05 +1.245879E-05 +1.685117E-04 +9.260015E-06 -4.323654E-05 +9.260015E-06 -1.222162E-04 
 +5.020676E-03 +7.522030E-06 -8.974618E-05 +7.522030E-06 +1.081083E-04 -3.936456E-05 -8.974618E-05 -3.936456E-05 -8.474550E-05 
 +4.905194E-03 -2.134010E-05 +4.118985E-06 -2.134010E-05 -4.096700E-06 -9.650037E-05 +4.118985E-06 -9.650037E-05 +9.756506E-05 
 +4.843840E-03 -7.962401E-05 +7.164257E-05 -7.962401E-05 -3.692482E-05 -1.318430E-04 +7.164257E-05 -1.318430E-04 +2.038919E-04 
 +4.826162E-03 -2.168621E-05 +7.286470E-05 -2.168621E-05 -2.841195E-05 -1.621473E-04 +7.286470E-05 -1.621473E-04 +2.073660E-04 
 +4.814375E-03 +1.823454E-05 +7.185113E-05 +1.823454E-05 -3.014297E-05 -1.912744E-04 +7.185113E-05 -1.912744E-04 +1.945348E-04 
 +4.842192E-03 +2.813117E-05 +6.305065E-05 +2.813117E-05 +2.532965E-05 -2.439727E-04 +6.305065E-05 -2.439727E-04 +1.002144E-04 
 +4.931690E-03 +9.413580E-05 +1.272780E-04 +9.413580E-05 +1.580672E-04 -2.265927E-04 +1.272780E-04 -2.265927E-04 +1.981959E-06 
 +5.103008E-03 +5.000132E-05 +1.200094E-05 +5.000132E-05 +2.476509E-04 -8.132053E-05 +1.200094E-05 -8.132053E-05 -2.509885E-05 
 +5.055072E-03 -1.245990E-05 +9.283366E-06 -1.245990E-05 +2.300879E-04 +3.665087E-05 +9.283366E-06 +3.665087E-05 -3.709423E-05 
 +5.056647E-03 -6.413635E-05 -3.359156E-05 -6.413635E-05 +1.180096E-04 +1.296396E-04 -3.359156E-05 +1.296396E-04 -2.986012E-05 
 +5.090679E-03 -8.200227E-05 -5.538456E-05 -8.200227E-05 +2.065191E-05 +1.893761E-04 -5.538456E-05 +1.893761E-04 -8.434230E-05 
 +5.150392E-03 -8.189927E-05 +2.326289E-06 -8.189927E-05 +5.730867E-06 +1.655271E-04 +2.326289E-06 +1.655271E-04 -2.239268E-04 
 +5.119021E-03 -7.429509E-05 +2.347230E-05 -7.429509E-05 +4.252101E-05 +7.891903E-05 +2.347230E-05 +7.891903E-05 -2.719718E-04 
 +5.001432E-03 -6.749554E-05 -1.552034E-05 -6.749554E-05 +8.926880E-05 -6.775082E-05 -1.552034E-05 -6.775082E-05 -2.449526E-04 
 +4.999384E-03 -2.794963E-05 +3.086190E-05 -2.794963E-05 +9.856124E-05 -6.439959E-05 +3.086190E-05 -6.439959E-05 -3.024496E-04 
 +5.032204E-03 -4.067687E-06 +3.885199E-05 -4.067687E-06 +1.076426E-04 -2.891822E-05 +3.885199E-05 -2.891822E-05 -3.856394E-04 
 +5.030812E-03 +1.422614E-05 +9.905534E-05 +1.422614E-05 +1.470172E-04 -5.399307E-05 +9.905534E-05 -5.399307E-05 -3.875347E-04 
 +4.975569E-03 +1.442832E-05 +2.131389E-04 +1.442832E-05 +1.491999E-04 -4.207726E-05 +2.131389E-04 -4.207726E-05 -3.620947E-04 
 +4.975376E-03 +3.031109E-05 +2.288067E-04 +3.031109E-05 +8.508010E-05 -2.296541E-06 +2.288067E-04 -2.296541E-06 -3.386204E-04 
 +4.991596E-03 +7.307953E-05 -4.364227E-05 +7.307953E-05 +7.642084E-05 +7.220923E-05 -4.364227E-05 +7.220923E-05 -1.894426E-04 
 +4.936805E-03 +1.660742E-05 -4.583580E-05 +1.660742E-05 +6.763140E-05 +1.682080E-04 -4.583580E-05 +1.682080E-04 -7.113492E-05 
 +4.974522E-03 -2.672614E-05 -6.023453E-06 -2.672614E-05 +4.694259E-05 +1.450464E-04 -6.023453E-06 +1.450464E-04 +2.477062E-05 
 +4.888546E-03 -2.911532E-05 +7.261106E-05 -2.911532E-05 +1.997513E-05 -1.073284E-05 +7.261106E-05 -1.073284E-05 +1.645952E-04 
 +4.820442E-03 -2.574463E-05 +9.154517E-05 -2.574463E-05 -8.647339E-06 -1.011796E-04 +9.154517E-05 -1.011796E-04 +2.332858E-04 
 +4.789173E-03 +1.602434E-05 +1.072244E-04 +1.602434E-05 -3.054005E-05 -9.028084E-05 +1.072244E-04 -9.028084E-05 +2.395226E-04 
 +4.758562E-03 +9.096127E-05 +1.147399E-04 +9.096127E-05 -2.653949E-05 -1.083061E-04 +1.147399E-04 -1.083061E-04 +2.577521E-04 
 +4.775684E-03 +1.480228E-04 +1.513393E-04 +1.480228E-04 +3.436659E-06 -7.462663E-05 +1.513393E-04 -7.462663E-05 +2.056034E-04 
 +5.012021E-03 +1.982590E-04 +1.704905E-04 +1.982590E-04 -6.140338E-05 +7.362840E-05 +1.704905E-04 +7.362840E-05 +1.348293E-04 
 +5.157292E-03 +1.359342E-04 +8.115145E-05 +1.359342E-04 -1.509456E-04 +2.097932E-04 +8.115145E-05 +2.097932E-04 +1.614840E-04 
 +5.160718E-03 +4.413519E-05 +1.846243E-05 +4.413519E-05 -1.169845E-04 +1.233250E-04 +1.846243E-05 +1.233250E-04 +5.656774E-05 
 +5.136707E-03 -1.750821E-05 +4.037940E-05 -1.750821E-05 +1.244409E-05 -2.896032E-05 +4.037940E-05 -2.896032E-05 -1.502548E-04 
 +5.102052E-03 -4.036206E-05 -1.342704E-07 -4.036206E-05 +9.248892E-05 +7.148084E-05 -1.342704E-07 +7.148084E-05 -2.156496E-04 
 +5.130009E-03 -3.712247E-05 -2.453259E-05 -3.712247E-05 +1.116906E-04 +1.656680E-04 -2.453259E-05 +1.656680E-04 -2.365695E-04 
 +5.089409E-03 -6.154772E-05 -5.861086E-05 -6.154772E-05 +1.138301E-04 +6.143851E-05 -5.861086E-05 +6.143851E-05 -2.428529E-04 
 +4.989566E-03 -7.144000E-05 +3.634624E-05 -7.144000E-05 +1.436395E-04 -1.104791E-04 +3.634624E-05 -1.104791E-04 -3.085151E-04 
 +5.007527E-03 -9.614456E-06 +8.403959E-05 -9.614456E-06 +1.410841E-04 -5.732470E-05 +8.403959E-05 -5.732470E-05 -3.100748E-04 
 +5.045777E-03 -1.159434E-05 +5.231015E-05 -1.159434E-05 +1.419972E-04 -2.410158E-05 +5.231015E-05 -2.410158E-05 -3.968431E-04 
 +5.047788E-03 +8.584535E-06 +1.407733E-04 +8.584535E-06 +1.593410E-04 +4.324120E-06 +1.407733E-04 +4.324120E-06 -4.971782E-04 
 +4.994152E-03 -1.780336E-05 +2.245783E-04 -1.780336E-05 +1.847763E-04 -1.898146E-05 +2.245783E-04 -1.898146E-05 -5.239043E-04 
 +4.984493E-03 +3.183320E-05 +1.768092E-04 +3.183320E-05 +1.221830E-04 -2.257517E-05 +1.768092E-04 -2.257517E-05 -3.709159E-04 
 +4.969669E-03 +1.128816E-04 +3.984757E-06 +1.128816E-04 +2.844142E-05 +8.179007E-05 +3.984757E-06 +8.179007E-05 -8.249594E-05 
 +4.939401E-03 +2.777088E-05 +4.918256E-05 +2.777088E-05 +2.313617E-05 +1.379648E-04 +4.918256E-05 +1.379648E-04 +3.422893E-05 
 +4.935599E-03 -4.529821E-07 +2.925123E-05 -4.529821E-07 +1.299984E-05 +1.266108E-04 +2.925123E-05 +1.266108E-04 +5.219438E-05 
 +4.890653E-03 -1.555842E-05 +5.826156E-05 -1.555842E-05 -1.945755E-05 +8.341168E-05 +5.826156E-05 +8.341168E-05 +1.220985E-04 
 +4.786899E-03 -1.710486E-05 +8.417458E-05 -1.710486E-05 -2.159903E-05 +1.376198E-05 +8.417458E-05 +1.376198E-05 +2.147828E-04 
 +4.749166E-03 +1.429236E-05 +1.345042E-04 +1.429236E-05 -1.360330E-05 -1.079853E-05 +1.345042E-04 -1.079853E-05 +2.362772E-04 
 +4.730456E-03 +9.877366E-05 +1.754097E-04 +9.877366E-05 -2.274434E-05 -2.173728E-05 +1.754097E-04 -2.173728E-05 +2.392694E-04 
 +4.803479E-03 +1.772985E-04 +2.018377E-04 +1.772985E-04 -6.143182E-05 +3.705641E-07 +2.018377E-04 +3.705641E-07 +2.044121E-04 
 +5.071498E-03 +2.042986E-04 +1.586939E-04 +2.042986E-04 -1.239671E-04 +1.161837E-04 +1.586939E-04 +1.161837E-04 +1.462175E-04 
 +5.165677E-03 +1.526323E-04 +1.002838E-04 +1.526323E-04 -1.936760E-04 +1.906261E-04 +1.002838E-04 +1.906261E-04 +1.668032E-04 
 +5.219627E-03 +1.239089E-04 -1.098124E-05 +1.239089E-04 -1.913881E-04 +6.177883E-05 -1.098124E-05 +6.177883E-05 -5.140107E-06 
 +5.216786E-03 +1.024895E-04 -1.973227E-05 +1.024895E-04 -1.815411E-05 -1.790058E-04 -1.973227E-05 -1.790058E-04 -2.823330E-04 
 +5.117035E-03 +2.211961E-05 +3.332736E-05 +2.211961E-05 +2.176142E-04 -2.986291E-04 +3.332736E-05 -2.986291E-04 -3.025643E-04 
 +5.068727E-03 -2.332261E-05 +2.325462E-06 -2.332261E-05 +3.102147E-04 -2.881098E-04 +2.325462E-06 -2.881098E-04 -2.345061E-04 
 +5.004309E-03 -1.187911E-04 -5.465368E-05 -1.187911E-04 +2.217549E-04 -2.048212E-04 -5.465368E-05 -2.048212E-04 -2.637063E-04 
 +4.967492E-03 -7.553719E-05 +9.252469E-05 -7.553719E-05 +2.194489E-04 -8.626321E-05 +9.252469E-05 -8.626321E-05 -3.661436E-04 
 +4.984960E-03 -7.298864E-05 +1.411892E-04 -7.298864E-05 +1.994655E-04 -6.354193E-05 +1.411892E-04 -6.354193E-05 -4.056161E-04 
 +5.004701E-03 -6.711208E-05 +1.568416E-04 -6.711208E-05 +1.890485E-04 -2.144233E-05 +1.568416E-04 -2.144233E-05 -4.449270E-04 
 +5.033010E-03 -6.266699E-05 +1.763113E-04 -6.266699E-05 +2.235361E-04 +4.210246E-06 +1.763113E-04 +4.210246E-06 -4.760702E-04 
 +5.088321E-03 -1.130276E-04 +1.242672E-04 -1.130276E-04 +1.927767E-04 -2.010953E-05 +1.242672E-04 -2.010953E-05 -5.172798E-04 
 +5.085310E-03 -7.504412E-05 +7.261451E-05 -7.504412E-05 +1.363424E-04 -1.881584E-06 +7.261451E-05 -1.881584E-06 -4.012114E-04 
 +4.955684E-03 +6.798971E-05 +4.213534E-05 +6.798971E-05 +6.451929E-05 +1.228184E-04 +4.213534E-05 +1.228184E-04 -1.155674E-04 
 +4.927966E-03 +4.479353E-05 +9.955322E-05 +4.479353E-05 -1.061008E-05 +1.926978E-04 +9.955322E-05 +1.926978E-04 +8.856618E-06 
 +4.920985E-03 -4.555428E-06 +6.622038E-05 -4.555428E-06 -1.387623E-05 +1.684031E-04 +6.622038E-05 +1.684031E-04 +3.394030E-05 
 +4.849733E-03 -1.424112E-05 +6.919617E-05 -1.424112E-05 +1.552649E-05 +1.279654E-04 +6.919617E-05 +1.279654E-04 +1.245787E-04 
 +4.752913E-03 -1.894000E-05 +9.089718E-05 -1.894000E-05 +1.736322E-05 +8.892083E-05 +9.089718E-05 +8.892083E-05 +1.956984E-04 
 +4.699575E-03 +1.170884E-05 +1.692639E-04 +1.170884E-05 +7.362878E-06 +5.369975E-05 +1.692639E-04 +5.369975E-05 +2.181957E-04 
 +4.738536E-03 +7.934316E-05 +2.723162E-04 +7.934316E-05 -4.760369E-05 +4.814957E-05 +2.723162E-04 +4.814957E-05 +1.946893E-04 
 +4.866123E-03 +1.480517E-04 +2.062238E-04 +1.480517E-04 -1.584063E-04 +1.165933E-04 +2.062238E-04 +1.165933E-04 +1.383066E-04 
 +5.120549E-03 +1.836582E-04 +9.383873E-05 +1.836582E-04 -2.281799E-04 +2.389198E-04 +9.383873E-05 +2.389198E-04 +1.574203E-04 
 +5.206078E-03 +1.985604E-04 +4.693173E-05 +1.985604E-04 -1.797243E-04 +1.657331E-04 +4.693173E-05 +1.657331E-04 +9.192653E-05 
 +5.227695E-03 +2.083225E-04 -2.150498E-05 +2.083225E-04 -4.389424E-05 -1.024590E-04 -2.150498E-05 -1.024590E-04 -1.957206E-04 
 +5.224434E-03 +1.584552E-04 -4.869276E-05 +1.584552E-04 +2.338321E-05 -2.185170E-04 -4.869276E-05 -2.185170E-04 -3.670745E-04 
 +5.133238E-03 +7.626742E-05 -1.830036E-05 +7.626742E-05 +1.142534E-04 -2.023391E-04 -1.830036E-05 -2.023391E-04 -3.075259E-04 
 +5.017722E-03 -4.202951E-05 +1.856959E-05 -4.202951E-05 +2.502375E-04 -1.797302E-04 +1.856959E-05 -1.797302E-04 -2.306622E-04 
 +4.933178E-03 -1.852483E-04 +1.135204E-05 -1.852483E-04 +2.489831E-04 -1.216769E-04 +1.135204E-05 -1.216769E-04 -2.744302E-04 
 +4.804474E-03 -6.189379E-05 -4.497499E-05 -6.189379E-05 +2.002130E-04 -5.295381E-05 -4.497499E-05 -5.295381E-05 +4.158745E-05 
 +4.861283E-03 -1.072065E-04 +1.688099E-05 -1.072065E-04 +1.669956E-04 +4.718002E-05 +1.688099E-05 +4.718002E-05 +3.690761E-05 
 +4.900013E-03 -1.939119E-04 +6.678800E-05 -1.939119E-04 +1.325210E-04 +6.751452E-05 +6.678800E-05 +6.751452E-05 -4.077503E-05 
 +5.010127E-03 -1.810343E-04 +5.477233E-05 -1.810343E-04 -1.762744E-05 -1.810286E-05 +5.477233E-05 -1.810286E-05 -1.361726E-04 
 +5.191474E-03 -9.904789E-05 -3.992949E-05 -9.904789E-05 -1.727427E-04 -1.559992E-04 -3.992949E-05 -1.559992E-04 -2.072187E-04 
 +5.103561E-03 -4.221023E-05 +4.643199E-05 -4.221023E-05 -2.268293E-04 -1.687178E-04 +4.643199E-05 -1.687178E-04 -1.551593E-04 
 +4.965855E-03 -3.255598E-05 +7.158462E-05 -3.255598E-05 -1.989741E-04 -7.369377E-05 +7.158462E-05 -7.369377E-05 -2.628365E-05 
 +4.886465E-03 -1.443121E-04 +9.016787E-05 -1.443121E-04 -1.220958E-04 +1.870779E-05 +9.016787E-05 +1.870779E-05 +4.127355E-05 
 +4.910619E-03 -1.944532E-04 +8.950959E-05 -1.944532E-04 -7.179863E-05 +5.628122E-05 +8.950959E-05 +5.628122E-05 +8.154203E-05 
 +4.877787E-03 -1.989839E-04 +8.764038E-05 -1.989839E-04 -1.301380E-04 +2.887710E-05 +8.764038E-05 +2.887710E-05 +8.953131E-05 
 +4.885715E-03 -9.036343E-05 +1.330290E-04 -9.036343E-05 -1.076680E-04 +4.036965E-05 +1.330290E-04 +4.036965E-05 +9.288263E-05 
 +4.822341E-03 +8.985720E-06 +1.724914E-04 +8.985720E-06 -3.325591E-05 +6.802108E-05 +1.724914E-04 +6.802108E-05 +1.049306E-04 
 +4.801862E-03 +1.300791E-04 +2.041406E-04 +1.300791E-04 -1.536023E-05 +3.090336E-05 +2.041406E-04 +3.090336E-05 +1.068398E-04 
 +4.803109E-03 +1.953726E-04 +3.023433E-04 +1.953726E-04 -2.464882E-05 +6.293759E-05 +3.023433E-04 +6.293759E-05 +1.556270E-04 
 +4.961107E-03 +2.118791E-04 +1.246544E-04 +2.118791E-04 -1.455556E-04 +2.536132E-05 +1.246544E-04 +2.536132E-05 +1.118933E-04 
 +5.226378E-03 +1.889477E-04 -9.926857E-05 +1.889477E-04 -1.493820E-04 -1.450769E-04 -9.926857E-05 -1.450769E-04 -2.040200E-04 
 +5.300655E-03 +1.909791E-04 -9.291702E-05 +1.909791E-04 +2.076224E-05 -2.052844E-04 -9.291702E-05 -2.052844E-04 -3.696787E-04 
 +5.226129E-03 +1.612744E-04 -3.406316E-05 +1.612744E-04 +1.877765E-04 -2.207098E-04 -3.406316E-05 -2.207098E-04 -3.454886E-04 
 +5.188218E-03 +7.112603E-05 +1.282598E-05 +7.112603E-05 +2.377322E-04 -2.860555E-04 +1.282598E-05 -2.860555E-04 -4.576575E-04 
 +5.117001E-03 +8.927067E-06 +1.552732E-05 +8.927067E-06 +2.876721E-04 -2.910700E-04 +1.552732E-05 -2.910700E-04 -4.432024E-04 
 +4.894028E-03 -1.761929E-04 -5.916837E-05 -1.761929E-04 +3.008129E-04 -1.947987E-04 -5.916837E-05 -1.947987E-04 -1.541721E-04 
 +4.775233E-03 +4.207388E-05 +4.688722E-05 +4.207388E-05 +2.035286E-04 +7.272891E-06 +4.688722E-05 +7.272891E-06 -1.962862E-05 
 +4.855009E-03 +5.575604E-05 +9.485773E-05 +5.575604E-05 +2.240056E-04 +1.401441E-04 +9.485773E-05 +1.401441E-04 -1.991880E-05 
 +4.916533E-03 +5.623167E-07 +1.094562E-04 +5.623167E-07 +1.909251E-04 +1.402321E-04 +1.094562E-04 +1.402321E-04 -6.444177E-05 
 +4.979546E-03 -7.651334E-05 +4.741703E-05 -7.651334E-05 +4.486419E-05 +3.275418E-05 +4.741703E-05 +3.275418E-05 -5.379341E-05 
 +5.086803E-03 -7.334466E-05 -8.913249E-05 -7.334466E-05 -1.404917E-04 -1.123588E-04 -8.913249E-05 -1.123588E-04 -3.061950E-05 
 +4.990619E-03 -3.551093E-05 +1.806929E-05 -3.551093E-05 -9.393434E-05 -1.713935E-04 +1.806929E-05 -1.713935E-04 -1.820467E-05 
 +4.911917E-03 -5.032797E-05 +7.472359E-05 -5.032797E-05 +3.938287E-05 -1.090337E-04 +7.472359E-05 -1.090337E-04 -1.189007E-05 
 +4.905569E-03 -1.689805E-04 +8.190833E-05 -1.689805E-04 +2.581886E-05 -1.561194E-06 +8.190833E-05 -1.561194E-06 +3.043934E-05 
 +4.931402E-03 -2.252552E-04 +1.042512E-04 -2.252552E-04 -3.582873E-05 +3.690624E-05 +1.042512E-04 +3.690624E-05 +8.798539E-05 
 +4.887929E-03 -2.637650E-04 +8.955950E-05 -2.637650E-04 -6.063417E-05 +2.853406E-05 +8.955950E-05 +2.853406E-05 +7.077148E-05 
 +4.949056E-03 -1.092217E-04 +1.613197E-04 -1.092217E-04 -1.035186E-04 +7.301314E-07 +1.613197E-04 +7.301314E-07 +7.296510E-05 
 +4.923363E-03 -8.517133E-05 +1.891616E-04 -8.517133E-05 -1.600074E-04 -2.147968E-05 +1.891616E-04 -2.147968E-05 +1.059116E-04 
 +4.918347E-03 +9.959949E-05 +2.144219E-04 +9.959949E-05 -1.506823E-04 +1.520925E-05 +2.144219E-04 +1.520925E-05 +1.200634E-04 
 +4.961172E-03 +1.861855E-04 +2.537555E-04 +1.861855E-04 -1.273850E-04 +2.995447E-05 +2.537555E-04 +2.995447E-05 +2.153743E-04 
 +4.922094E-03 +1.968580E-04 -3.575180E-05 +1.968580E-04 -1.451582E-04 -2.257172E-05 -3.575180E-05 -2.257172E-05 +3.663232E-04 
 +5.078932E-03 +2.262877E-04 -1.814379E-04 +2.262877E-04 -1.984077E-04 -5.532891E-05 -1.814379E-04 -5.532891E-05 +1.236548E-04 
 +5.320891E-03 +2.491537E-04 -1.913524E-04 +2.491537E-04 -2.533885E-04 +7.172821E-06 -1.913524E-04 +7.172821E-06 -1.709295E-04 
 +5.210963E-03 +2.196893E-04 -1.545237E-04 +2.196893E-04 -1.838317E-04 +1.227021E-05 -1.545237E-04 +1.227021E-05 -1.985548E-04 
 +5.178302E-03 +8.729226E-05 -8.314856E-05 +8.729226E-05 +1.699162E-05 -1.720004E-04 -8.314856E-05 -1.720004E-04 -4.141372E-04 
 +5.105410E-03 +3.368544E-05 +9.803297E-06 +3.368544E-05 +1.370914E-04 -2.609439E-04 +9.803297E-06 -2.609439E-04 -4.669214E-04 
 +4.929088E-03 -1.654630E-04 -3.574546E-05 -1.654630E-04 +1.553211E-04 -1.667375E-04 -3.574546E-05 -1.667375E-04 -1.855641E-04 
 +4.859123E-03 +2.501738E-05 +9.491237E-05 +2.501738E-05 +1.944127E-04 +4.185995E-06 +9.491237E-05 +4.185995E-06 +7.772860E-06 
 +4.916385E-03 -7.278830E-06 +1.318037E-04 -7.278830E-06 +1.657257E-04 +1.267621E-04 +1.318037E-04 +1.267621E-04 +3.513477E-05 
 +5.007751E-03 -5.701623E-06 +1.322192E-04 -5.701623E-06 +1.247563E-04 +1.788752E-04 +1.322192E-04 +1.788752E-04 +1.423309E-05 
 +4.987804E-03 -5.543293E-05 +3.309938E-05 -5.543293E-05 +2.208533E-04 +1.826946E-04 +3.309938E-05 +1.826946E-04 +2.168343E-05 
 +4.755022E-03 -3.276677E-05 -8.290182E-05 -3.276677E-05 +2.312731E-04 +1.208152E-04 -8.290182E-05 +1.208152E-04 +6.979589E-05 
 +4.779156E-03 +5.297318E-05 -4.500024E-05 +5.297318E-05 +1.298389E-04 +4.022505E-05 -4.500024E-05 +4.022505E-05 +6.757492E-05 
 +4.973064E-03 +1.039971E-05 +3.092679E-05 +1.039971E-05 +3.532768E-05 +2.809080E-06 +3.092679E-05 +2.809080E-06 +3.753449E-06 
 +5.017967E-03 -3.355386E-05 +5.666172E-05 -3.355386E-05 -8.198323E-06 +4.453129E-05 +5.666172E-05 +4.453129E-05 +3.482425E-05 
 +4.925870E-03 -1.080040E-04 +1.213270E-04 -1.080040E-04 -1.173418E-04 +4.912293E-05 +1.213270E-04 +4.912293E-05 +9.635827E-05 
 +4.854438E-03 -8.990828E-05 +1.152418E-04 -8.990828E-05 -1.919554E-04 +6.443038E-06 +1.152418E-04 +6.443038E-06 +1.131644E-04 
 +4.897088E-03 -3.738644E-05 +1.773537E-04 -3.738644E-05 -1.492901E-04 -7.139043E-06 +1.773537E-04 -7.139043E-06 +8.061964E-05 
 +4.976479E-03 -4.728153E-05 +1.520823E-04 -4.728153E-05 -1.399487E-04 +5.280731E-07 +1.520823E-04 +5.280731E-07 +5.652967E-05 
 +5.024028E-03 +1.159760E-04 +1.461074E-04 +1.159760E-04 -1.178844E-04 -1.986575E-05 +1.461074E-04 -1.986575E-05 +1.712886E-05 
 +5.176520E-03 +1.199709E-04 +6.790066E-05 +1.199709E-04 -1.225837E-04 -8.273318E-05 +6.790066E-05 -8.273318E-05 +7.416253E-05 
 +4.907607E-03 +1.586815E-04 -8.006686E-05 +1.586815E-04 -1.398969E-04 -1.003030E-04 -8.006686E-05 -1.003030E-04 +3.853161E-04 
 +5.004968E-03 +2.088303E-04 -1.520187E-04 +2.088303E-04 -1.925058E-04 -1.203517E-04 -1.520187E-04 -1.203517E-04 +4.263021E-04 
 +5.165097E-03 +2.414790E-04 -2.323056E-04 +2.414790E-04 -2.036861E-04 -1.433149E-04 -2.323056E-04 -1.433149E-04 +1.747985E-04 
 +5.177489E-03 +1.706179E-04 -2.697815E-04 +1.706179E-04 -1.850776E-04 -1.202602E-04 -2.697815E-04 -1.202602E-04 -3.014125E-05 
 +5.192728E-03 +7.370845E-05 -2.251309E-04 +7.370845E-05 -2.194952E-04 -6.580451E-05 -2.251309E-04 -6.580451E-05 -1.715355E-04 
 +5.106895E-03 -2.241392E-06 -1.103435E-04 -2.241392E-06 -1.768786E-04 -5.606199E-05 -1.103435E-04 -5.606199E-05 -1.223154E-04 
 +5.032625E-03 -1.596116E-04 -6.087172E-05 -1.596116E-04 +1.539223E-05 -9.943071E-05 -6.087172E-05 -9.943071E-05 -4.322737E-05 
 +5.003450E-03 -1.983471E-05 +2.481056E-05 -1.983471E-05 +3.760775E-05 +4.855330E-05 +2.481056E-05 +4.855330E-05 +6.262299E-05 
 +4.998837E-03 -1.199472E-04 +6.499715E-05 -1.199472E-04 +7.615304E-05 +4.727763E-05 +6.499715E-05 +4.727763E-05 +8.553930E-05 
 +5.040018E-03 -1.148057E-04 +1.111486E-04 -1.148057E-04 +4.221496E-05 +1.260753E-04 +1.111486E-04 +1.260753E-04 +3.106945E-05 
 +5.069965E-03 -1.399384E-04 +7.852355E-05 -1.399384E-04 +9.459725E-05 +1.880730E-04 +7.852355E-05 +1.880730E-04 -2.994554E-05 
 +4.653956E-03 -6.949819E-05 +1.274062E-05 -6.949819E-05 +2.764536E-04 +1.279504E-04 +1.274062E-05 +1.279504E-04 +9.279421E-06 
 +4.573002E-03 +4.574808E-06 -4.832707E-05 +4.574808E-06 +1.165579E-04 +3.809761E-05 -4.832707E-05 +3.809761E-05 +1.194569E-04 
 +4.970258E-03 -2.526743E-06 -6.732756E-05 -2.526743E-06 -2.333448E-04 -5.071793E-05 -6.732756E-05 -5.071793E-05 +1.245255E-04 
 +5.165055E-03 -3.086033E-05 -3.768486E-05 -3.086033E-05 -2.543667E-04 -6.231792E-05 -3.768486E-05 -6.231792E-05 +7.288743E-05 
 +4.933506E-03 -1.473705E-04 +9.567335E-05 -1.473705E-04 -5.453100E-05 -1.627045E-05 +9.567335E-05 -1.627045E-05 +4.770036E-05 
 +4.709760E-03 -1.369259E-04 +1.661664E-04 -1.369259E-04 +6.702129E-05 -2.315740E-05 +1.661664E-04 -2.315740E-05 +1.275794E-04 
 +4.895259E-03 -7.885772E-05 +1.544964E-04 -7.885772E-05 +3.612544E-05 -8.530647E-05 +1.544964E-04 -8.530647E-05 +1.112737E-04 
 +5.027465E-03 +3.192364E-05 +5.129605E-05 +3.192364E-05 +7.894241E-05 -1.274915E-04 +5.129605E-05 -1.274915E-04 +6.329598E-06 
 +5.064447E-03 +1.328869E-04 +5.042851E-06 +1.328869E-04 +5.580364E-05 -1.078278E-04 +5.042851E-06 -1.078278E-04 -8.552245E-05 
 +5.226827E-03 +8.914890E-05 -2.161427E-06 +8.914890E-05 -5.838988E-05 -3.056500E-05 -2.161427E-06 -3.056500E-05 -9.476906E-05 
 +5.038174E-03 +1.054956E-04 -4.376147E-05 +1.054956E-04 -1.053633E-04 +6.193564E-06 -4.376147E-05 +6.193564E-06 +1.994357E-04 
 +4.927589E-03 +1.614946E-04 -1.680835E-04 +1.614946E-04 -1.034425E-04 -7.799016E-05 -1.680835E-04 -7.799016E-05 +4.013884E-04 
 +4.952158E-03 +2.183390E-04 -1.898037E-04 +2.183390E-04 -1.425870E-04 -9.596119E-05 -1.898037E-04 -9.596119E-05 +2.926739E-04 
 +5.164984E-03 +1.611501E-04 -2.237244E-04 +1.611501E-04 -2.565197E-04 -3.493005E-05 -2.237244E-04 -3.493005E-05 +6.797411E-05 
 +5.155069E-03 +8.799298E-05 -2.277716E-04 +8.799298E-05 -2.652466E-04 -1.081803E-05 -2.277716E-04 -1.081803E-05 -5.339160E-05 
 +5.114595E-03 -6.475422E-06 -1.452468E-04 -6.475422E-06 -2.334810E-04 +4.033925E-05 -1.452468E-04 +4.033925E-05 -7.320308E-06 
 +5.053721E-03 -8.808375E-05 -1.203799E-04 -8.808375E-05 -1.235868E-04 +6.548976E-05 -1.203799E-04 +6.548976E-05 +1.667813E-05 
 +5.106179E-03 -6.180827E-05 -9.824760E-05 -6.180827E-05 -1.697543E-04 +7.865064E-05 -9.824760E-05 +7.865064E-05 +8.467507E-05 
 +5.067990E-03 -1.411355E-04 -4.527802E-05 -1.411355E-04 -1.074850E-04 +1.009269E-04 -4.527802E-05 +1.009269E-04 +6.368452E-05 
 +5.036499E-03 -1.842508E-04 +9.128418E-05 -1.842508E-04 +3.265997E-05 +3.390337E-04 +9.128418E-05 +3.390337E-04 -6.501373E-05 
 +5.035002E-03 -1.738902E-04 +1.267238E-04 -1.738902E-04 +9.587299E-05 +5.378861E-04 +1.267238E-04 +5.378861E-04 -1.115962E-04 
 +4.844739E-03 -1.235165E-04 +1.318536E-04 -1.235165E-04 +1.396222E-04 +4.864689E-04 +1.318536E-04 +4.864689E-04 -1.695671E-05 
 +4.609933E-03 -1.102182E-04 +4.353745E-05 -1.102182E-04 +1.797547E-04 +3.363804E-04 +4.353745E-05 +3.363804E-04 +1.183369E-04 
 +4.771258E-03 -4.894254E-05 -9.259483E-05 -4.894254E-05 +7.415833E-05 +1.597276E-04 -9.259483E-05 +1.597276E-04 +8.603573E-05 
 +5.132774E-03 -4.506130E-05 -8.448635E-05 -4.506130E-05 -1.081490E-04 -1.071172E-05 -8.448635E-05 -1.071172E-05 -6.892763E-06 
 +4.890863E-03 -1.785056E-04 +8.295028E-05 -1.785056E-04 -8.380000E-05 -9.455027E-06 +8.295028E-05 -9.455027E-06 -1.705452E-05 
 +4.765405E-03 -1.704046E-04 +1.330881E-04 -1.704046E-04 +4.241405E-06 +3.093329E-05 +1.330881E-04 +3.093329E-05 +2.346152E-05 
 +5.003865E-03 +1.967354E-05 +2.512013E-05 +1.967354E-05 +7.434978E-05 -5.144757E-05 +2.512013E-05 -5.144757E-05 -3.230434E-06 
 +5.038927E-03 +9.582529E-05 -8.485706E-06 +9.582529E-05 +9.591293E-05 -7.822624E-05 -8.485706E-06 -7.822624E-05 -5.772969E-05 
 +5.075787E-03 +8.207075E-05 -1.677613E-06 +8.207075E-05 +5.246888E-05 -3.608827E-05 -1.677613E-06 -3.608827E-05 -9.176982E-05 
 +5.142286E-03 +5.323600E-05 +2.384469E-05 +5.323600E-05 +3.072683E-05 -1.320807E-05 +2.384469E-05 -1.320807E-05 -1.037206E-04 
 +5.114475E-03 +7.459157E-06 -2.753881E-05 +7.459157E-06 +5.474657E-06 -1.283695E-05 -2.753881E-05 -1.283695E-05 +5.659949E-05 
 +4.902818E-03 +7.015054E-05 -1.802287E-04 +7.015054E-05 -3.544204E-05 +2.136181E-05 -1.802287E-04 +2.136181E-05 +2.016667E-04 
 +4.936018E-03 +1.764748E-04 -1.281284E-04 +1.764748E-04 -1.109201E-04 +3.028456E-05 -1.281284E-04 +3.028456E-05 +1.903331E-04 
 +5.050565E-03 +1.588634E-04 -1.143433E-04 +1.588634E-04 -1.569427E-04 +1.214868E-06 -1.143433E-04 +1.214868E-06 +1.082653E-04 
 +5.038590E-03 +5.888896E-05 -1.595599E-04 +5.888896E-05 -1.741700E-04 +2.028521E-05 -1.595599E-04 +2.028521E-05 -7.837339E-05 
 +5.089473E-03 -4.973456E-05 -9.033818E-05 -4.973456E-05 -1.285191E-04 +2.713122E-05 -9.033818E-05 +2.713122E-05 -1.926753E-04 
 +5.084778E-03 -9.351987E-05 -1.244091E-04 -9.351987E-05 -9.240083E-05 +6.105912E-05 -1.244091E-04 +6.105912E-05 -8.066108E-05 
 +5.111650E-03 -1.454262E-05 -6.805943E-05 -1.454262E-05 -3.741483E-04 +1.916488E-04 -6.805943E-05 +1.916488E-04 +1.122476E-04 
 +5.096212E-03 -4.109933E-05 -3.733266E-05 -4.109933E-05 -2.732552E-04 +3.257147E-04 -3.733266E-05 +3.257147E-04 +7.465635E-05 
 +5.033851E-03 -1.235545E-04 +8.263241E-05 -1.235545E-04 -1.054060E-04 +4.564932E-04 +8.263241E-05 +4.564932E-04 -6.712697E-05 
 +4.971590E-03 -1.574371E-04 +1.705664E-04 -1.574371E-04 +4.881799E-06 +5.333336E-04 +1.705664E-04 +5.333336E-04 -1.014616E-04 
 +4.932580E-03 -1.598928E-04 +1.414759E-04 -1.598928E-04 +2.025691E-05 +4.249788E-04 +1.414759E-04 +4.249788E-04 -3.859662E-05 
 +4.852399E-03 -2.252562E-04 +4.023145E-05 -2.252562E-04 -1.118050E-05 +1.762581E-04 +4.023145E-05 +1.762581E-04 -1.509713E-05 
 +4.764115E-03 -4.109472E-05 -2.328124E-05 -4.109472E-05 +4.260009E-05 +4.488425E-05 -2.328124E-05 +4.488425E-05 -8.037965E-05 
 +4.911339E-03 +3.817556E-05 -1.894159E-05 +3.817556E-05 +1.186010E-04 -4.895026E-06 -1.894159E-05 -4.895026E-06 -1.319127E-04 
 +4.833098E-03 -3.346939E-05 +5.098478E-05 -3.346939E-05 +6.685763E-05 +3.425169E-05 +5.098478E-05 +3.425169E-05 -1.152406E-04 
 +4.972060E-03 -2.679852E-05 -2.228704E-05 -2.679852E-05 +1.166138E-04 +7.487017E-05 -2.228704E-05 +7.487017E-05 -1.483899E-04 
 +5.019942E-03 +3.586155E-05 -8.100389E-05 +3.586155E-05 +1.619492E-04 +3.391941E-05 -8.100389E-05 +3.391941E-05 -1.640123E-04 
 +5.015216E-03 +5.218279E-05 -4.121825E-05 +5.218279E-05 +1.201435E-04 -7.759048E-06 -4.121825E-05 -7.759048E-06 -1.272772E-04 
 +5.036183E-03 +5.050841E-05 +9.596724E-06 +5.050841E-05 +9.391191E-05 -5.101811E-05 +9.596724E-06 -5.101811E-05 -1.101645E-04 
 +5.064684E-03 +2.124415E-05 +8.253982E-07 +2.124415E-05 +6.913824E-05 -5.671148E-05 +8.253982E-07 -5.671148E-05 -1.049505E-04 
 +5.036645E-03 -3.939402E-05 -4.482267E-05 -3.939402E-05 +5.031826E-05 -5.303582E-05 -4.482267E-05 -5.303582E-05 -5.094418E-05 
 +5.009667E-03 +1.369995E-05 -1.122807E-04 +1.369995E-05 +2.383366E-05 -4.739260E-05 -1.122807E-04 -4.739260E-05 -1.287363E-05 
 +4.986326E-03 +8.891155E-05 -6.014240E-05 +8.891155E-05 -3.705004E-05 -5.875949E-06 -6.014240E-05 -5.875949E-06 +1.014050E-05 
 +4.879275E-03 +1.136713E-04 -5.572862E-05 +1.136713E-04 -8.899167E-05 +8.151211E-05 -5.572862E-05 +8.151211E-05 +1.080327E-04 
 +4.938868E-03 +5.984189E-05 -1.164355E-04 +5.984189E-05 -7.068378E-05 +1.402524E-04 -1.164355E-04 +1.402524E-04 +2.245272E-05 
 +5.125223E-03 -2.463850E-05 -9.322763E-05 -2.463850E-05 -1.974938E-04 +1.253208E-04 -9.322763E-05 +1.253208E-04 -1.107664E-04 
 +5.147450E-03 -3.134689E-05 -9.388988E-05 -3.134689E-05 -3.836588E-04 +1.271066E-04 -9.388988E-05 +1.271066E-04 -1.208341E-05 
 +5.105576E-03 -3.489736E-05 -2.550439E-05 -3.489736E-05 -3.411437E-04 +2.105613E-04 -2.550439E-05 +2.105613E-04 +3.612004E-05 
 +5.107742E-03 +1.804235E-05 -1.039202E-05 +1.804235E-05 -2.667794E-04 +2.819781E-04 -1.039202E-05 +2.819781E-04 -1.116395E-05 
 +5.034858E-03 -3.376942E-05 +1.185788E-04 -3.376942E-05 -1.157423E-04 +3.872968E-04 +1.185788E-04 +3.872968E-04 -5.693849E-05 
 +4.942430E-03 -1.164535E-04 +1.814278E-04 -1.164535E-04 -1.090850E-06 +3.422277E-04 +1.814278E-04 +3.422277E-04 -6.350166E-05 
 +4.932040E-03 -1.374313E-04 +7.199857E-05 -1.374313E-04 +1.017202E-05 +1.290442E-04 +7.199857E-05 +1.290442E-04 -1.204043E-04 
 +5.006948E-03 -2.602346E-04 +1.041830E-05 -2.602346E-04 -6.575775E-05 +6.508676E-05 +1.041830E-05 +6.508676E-05 -1.707290E-04 
 +4.882850E-03 -5.387899E-05 -3.278951E-05 -5.387899E-05 -1.021443E-05 +3.918683E-05 -3.278951E-05 +3.918683E-05 -1.463334E-04 
 +4.833863E-03 -4.103600E-05 -2.910855E-05 -4.103600E-05 +7.776193E-05 -5.524718E-05 -2.910855E-05 -5.524718E-05 -1.432315E-04 
 +4.842825E-03 +2.326156E-05 -2.218109E-05 +2.326156E-05 +1.466141E-04 -4.556458E-05 -2.218109E-05 -4.556458E-05 -1.512704E-04 
 +4.993837E-03 -2.475123E-07 -4.328484E-05 -2.475123E-07 +1.869543E-04 +1.688754E-05 -4.328484E-05 +1.688754E-05 -2.256634E-04 
 +4.989455E-03 +3.236252E-06 -1.119707E-04 +3.236252E-06 +1.663210E-04 +1.798494E-05 -1.119707E-04 +1.798494E-05 -2.754628E-04 
 +4.993977E-03 +1.575965E-05 -8.689135E-05 +1.575965E-05 +1.435966E-04 -4.273176E-05 -8.689135E-05 -4.273176E-05 -2.208125E-04 
 +4.999854E-03 +2.475674E-05 -2.916354E-06 +2.475674E-05 +1.112950E-04 -7.668955E-05 -2.916354E-06 -7.668955E-05 -1.706062E-04 
 +5.008151E-03 +1.037444E-05 +8.204295E-06 +1.037444E-05 +9.869128E-05 -3.620613E-05 +8.204295E-06 -3.620613E-05 -1.439971E-04 
 +4.989743E-03 -1.552633E-05 -5.080546E-05 -1.552633E-05 +6.999635E-05 +2.248091E-05 -5.080546E-05 +2.248091E-05 -1.220559E-04 
 +5.053268E-03 +2.687013E-05 -4.693374E-05 +2.687013E-05 +5.178173E-05 +4.162801E-05 -4.693374E-05 +4.162801E-05 -1.473119E-04 
 +4.963994E-03 +1.970642E-06 -8.144434E-05 +1.970642E-06 +2.108178E-06 +5.516787E-05 -8.144434E-05 +5.516787E-05 -7.341753E-05 
 +4.875323E-03 +6.633369E-05 -9.569014E-05 +6.633369E-05 -1.522464E-04 +1.030453E-04 -9.569014E-05 +1.030453E-04 +1.329895E-04 
 +5.004264E-03 +1.184870E-04 -6.393642E-05 +1.184870E-04 -4.349207E-04 +1.494481E-04 -6.393642E-05 +1.494481E-04 +1.625020E-04 
 +5.040236E-03 +1.744835E-05 -5.951924E-05 +1.744835E-05 -5.477392E-04 +1.579922E-04 -5.951924E-05 +1.579922E-04 +1.026788E-04 
 +5.137021E-03 -4.466810E-05 -7.233613E-05 -4.466810E-05 -4.044106E-04 +1.702461E-04 -7.233613E-05 +1.702461E-04 +8.222386E-05 
 +5.086745E-03 +1.802196E-06 -6.265695E-05 +1.802196E-06 -2.897279E-04 +1.746516E-04 -6.265695E-05 +1.746516E-04 +3.021112E-05 
 +5.077331E-03 +3.090248E-06 -8.784366E-06 +3.090248E-06 -3.506022E-04 +2.253426E-04 -8.784366E-06 +2.253426E-04 +7.945636E-05 
 +5.010795E-03 -1.157946E-05 +1.621384E-04 -1.157946E-05 -3.188130E-04 +1.801248E-04 +1.621384E-04 +1.801248E-04 +4.986465E-05 
 +4.952575E-03 -9.976283E-05 +1.608591E-04 -9.976283E-05 -7.703300E-05 +5.193333E-05 +1.608591E-04 +5.193333E-05 -9.252735E-05 
 +5.015639E-03 -2.067105E-04 +4.280918E-05 -2.067105E-04 +1.112957E-05 -1.057904E-05 +4.280918E-05 -1.057904E-05 -2.491844E-04 
 +5.009072E-03 -2.972940E-04 -9.254006E-06 -2.972940E-04 +6.000867E-06 -5.972174E-06 -9.254006E-06 -5.972174E-06 -2.214607E-04 
 +4.882372E-03 -9.432708E-05 -8.624776E-05 -9.432708E-05 -2.017745E-05 -1.662644E-05 -8.624776E-05 -1.662644E-05 -1.217704E-04 
 +4.935706E-03 -8.328931E-05 -1.388143E-04 -8.328931E-05 -2.066472E-05 -2.475157E-05 -1.388143E-04 -2.475157E-05 -1.139251E-04 
 +4.900118E-03 +1.479894E-07 -1.450568E-04 +1.479894E-07 +3.163341E-05 -4.503766E-05 -1.450568E-04 -4.503766E-05 -8.922127E-05 
 +4.950821E-03 -3.522900E-05 +2.075281E-05 -3.522900E-05 +5.584259E-05 -1.233656E-04 +2.075281E-05 -1.233656E-04 -1.597861E-04 
 +5.013889E-03 +2.403714E-05 -6.702199E-05 +2.403714E-05 +1.425228E-04 -1.671117E-04 -6.702199E-05 -1.671117E-04 -3.082530E-04 
 +4.982013E-03 +3.461685E-06 -8.860653E-05 +3.461685E-06 +1.856888E-04 -1.893411E-04 -8.860653E-05 -1.893411E-04 -2.826253E-04 
 +4.952995E-03 +3.916582E-06 +1.944045E-05 +3.916582E-06 +9.996470E-05 -2.295281E-04 +1.944045E-05 -2.295281E-04 -1.875676E-04 
 +4.990113E-03 +2.050296E-06 +4.140572E-05 +2.050296E-06 +5.759996E-06 -2.573339E-04 +4.140572E-05 -2.573339E-04 -1.926933E-04 
 +5.001380E-03 +9.129704E-06 -6.682803E-06 +9.129704E-06 +3.066655E-06 -2.378545E-04 -6.682803E-06 -2.378545E-04 -2.060289E-04 
 +5.003085E-03 +3.445463E-05 +5.407590E-06 +3.445463E-05 +5.264441E-06 -2.125107E-04 +5.407590E-06 -2.125107E-04 -2.217340E-04 
 +4.969667E-03 -2.482063E-06 -1.362614E-04 -2.482063E-06 -7.400420E-05 -1.374196E-04 -1.362614E-04 -1.374196E-04 -9.940324E-05 
 +4.969684E-03 +1.637250E-05 -1.471868E-04 +1.637250E-05 -2.494688E-04 +5.291960E-05 -1.471868E-04 +5.291960E-05 +1.254558E-04 
 +5.059622E-03 +6.590667E-05 +8.095196E-06 +6.590667E-05 -2.581981E-04 +1.286885E-04 +8.095196E-06 +1.286885E-04 +1.588269E-04 
 +4.875954E-03 +3.874479E-05 -1.358301E-05 +3.874479E-05 -1.391465E-04 +1.082546E-04 -1.358301E-05 +1.082546E-04 +1.077942E-04 
 +5.098648E-03 +1.143452E-06 -4.928774E-05 +1.143452E-06 -2.235790E-04 +1.340162E-04 -4.928774E-05 +1.340162E-04 +4.966400E-05 
 +5.032794E-03 -1.172823E-05 -5.456819E-05 -1.172823E-05 -2.594952E-04 +1.213248E-04 -5.456819E-05 +1.213248E-04 +1.256855E-04 
 +5.006807E-03 +1.831402E-05 +3.952744E-05 +1.831402E-05 -2.706568E-04 +7.896784E-05 +3.952744E-05 +7.896784E-05 +2.048763E-04 
 +4.938289E-03 +8.059441E-05 +1.025482E-04 +8.059441E-05 -1.977145E-04 -5.429428E-05 +1.025482E-04 -5.429428E-05 +1.913550E-04 
 +4.987204E-03 -2.622927E-05 +6.853018E-05 -2.622927E-05 -2.160353E-04 -1.329506E-04 +6.853018E-05 -1.329506E-04 -2.530529E-05 
 +5.076029E-03 -1.759573E-04 -3.056753E-05 -1.759573E-04 -1.068444E-04 -1.921016E-04 -3.056753E-05 -1.921016E-04 -1.999024E-04 
 +5.030709E-03 -2.804034E-04 -5.434121E-05 -2.804034E-04 +5.779780E-05 -2.022502E-04 -5.434121E-05 -2.022502E-04 -1.159634E-04 
 +4.905308E-03 -1.363733E-04 -2.119204E-05 -1.363733E-04 +5.862034E-06 -1.464675E-04 -2.119204E-05 -1.464675E-04 -1.070088E-04 
 +4.938821E-03 -9.974273E-05 -1.071591E-04 -9.974273E-05 -1.744744E-04 -1.860017E-05 -1.071591E-04 -1.860017E-05 -1.489485E-04 
 +4.962332E-03 -6.968772E-05 -1.659987E-04 -6.968772E-05 -2.929753E-04 +1.710243E-04 -1.659987E-04 +1.710243E-04 -5.563008E-05 
 +4.950710E-03 -4.415096E-05 -2.790917E-05 -4.415096E-05 -2.511843E-04 +2.191449E-04 -2.790917E-05 +2.191449E-04 -2.188028E-05 
 +4.997274E-03 -2.850929E-05 -1.312196E-05 -2.850929E-05 -2.006597E-04 +1.233377E-04 -1.312196E-05 +1.233377E-04 -1.391702E-04 
 +5.000648E-03 -7.530381E-05 -3.924672E-05 -7.530381E-05 -1.467527E-04 +4.732639E-05 -3.924672E-05 +4.732639E-05 -2.004968E-04 
 +4.953589E-03 -8.348268E-05 +1.077498E-05 -8.348268E-05 -4.615312E-05 -4.901914E-05 +1.077498E-05 -4.901914E-05 -1.632068E-04 
 +5.005729E-03 -2.581747E-05 +6.370318E-05 -2.581747E-05 +2.270830E-06 -1.910192E-04 +6.370318E-05 -1.910192E-04 -2.320994E-04 
 +5.002230E-03 +5.522272E-06 +2.473637E-05 +5.522272E-06 +3.839864E-05 -2.563147E-04 +2.473637E-05 -2.563147E-04 -2.880280E-04 
 +4.998553E-03 +1.170204E-05 +2.023045E-05 +1.170204E-05 +3.859545E-05 -2.658136E-04 +2.023045E-05 -2.658136E-04 -2.874884E-04 
 +5.016987E-03 -6.170039E-05 -2.098982E-05 -6.170039E-05 -5.855109E-05 -1.644181E-04 -2.098982E-05 -1.644181E-04 -2.196265E-04 
 +4.942178E-03 -9.254631E-05 -1.147778E-04 -9.254631E-05 -1.531990E-04 +4.569222E-05 -1.147778E-04 +4.569222E-05 -2.237463E-05 
 +4.996989E-03 +4.230392E-06 -5.140623E-05 +4.230392E-06 -2.340451E-04 +1.422704E-04 -5.140623E-05 +1.422704E-04 +5.836673E-05 
 +4.947970E-03 +1.365820E-05 -9.500214E-06 +1.365820E-05 -3.085681E-04 +1.357493E-04 -9.500214E-06 +1.357493E-04 +3.052953E-05 
 +5.047056E-03 +5.139252E-06 -3.337841E-05 +5.139252E-06 -2.454056E-04 +1.108811E-04 -3.337841E-05 +1.108811E-04 +5.492111E-05 
 +5.002410E-03 -3.707379E-05 +9.288243E-05 -3.707379E-05 -8.584124E-05 +2.448436E-04 +9.288243E-05 +2.448436E-04 +1.010303E-04 
 +5.002251E-03 +7.446135E-05 +6.463633E-05 +7.446135E-05 +6.742734E-05 +2.335400E-04 +6.463633E-05 +2.335400E-04 +2.557653E-06 
 +4.970900E-03 +9.750539E-05 -2.282902E-05 +9.750539E-05 -4.906653E-06 +3.639274E-05 -2.282902E-05 +3.639274E-05 +2.287114E-05 
 +4.978612E-03 +5.217825E-05 -1.279263E-04 +5.217825E-05 -1.765855E-04 -8.525047E-05 -1.279263E-04 -8.525047E-05 +1.928603E-05 
 +5.041075E-03 -7.112381E-05 -1.507593E-04 -7.112381E-05 -3.200124E-04 -1.379032E-04 -1.507593E-04 -1.379032E-04 -1.141550E-05 
 +5.050418E-03 -1.886142E-04 -5.301630E-05 -1.886142E-04 -3.316892E-04 -1.341160E-04 -5.301630E-05 -1.341160E-04 -2.720031E-05 
 +4.952327E-03 -1.134867E-04 +3.469458E-05 -1.134867E-04 -1.235894E-04 -7.912863E-05 +3.469458E-05 -7.912863E-05 -1.418942E-04 
 +4.920401E-03 -1.014761E-04 -3.544734E-05 -1.014761E-04 +3.720255E-05 -1.764454E-05 -3.544734E-05 -1.764454E-05 -1.913681E-04 
 +4.958984E-03 -7.671989E-05 -8.236622E-05 -7.671989E-05 -9.317497E-06 +3.972711E-05 -8.236622E-05 +3.972711E-05 -7.203177E-05 
 +4.926747E-03 -2.744445E-05 -1.791154E-05 -2.744445E-05 -1.199303E-04 +1.389366E-04 -1.791154E-05 +1.389366E-04 +8.764360E-05 
 +4.939088E-03 -5.589508E-05 +2.951234E-05 -5.589508E-05 -1.618713E-04 +1.779249E-04 +2.951234E-05 +1.779249E-04 +3.914221E-05 
 +5.004077E-03 -7.569384E-05 -6.084438E-07 -7.569384E-05 -2.187857E-04 +1.102443E-04 -6.084438E-07 +1.102443E-04 -5.173544E-05 
 +5.003743E-03 -7.334151E-05 -2.084350E-05 -7.334151E-05 -2.123935E-04 +3.362344E-06 -2.084350E-05 +3.362344E-06 -8.094165E-05 
 +5.008345E-03 -3.026412E-05 +6.728226E-05 -3.026412E-05 -7.034526E-05 -1.655467E-04 +6.728226E-05 -1.655467E-04 -1.920792E-04 
 +5.019993E-03 -4.170853E-05 +2.868406E-05 -4.170853E-05 +1.724977E-05 -2.957426E-04 +2.868406E-05 -2.957426E-04 -2.733680E-04 
 +5.048588E-03 -4.558770E-05 +2.558779E-05 -4.558770E-05 +1.072156E-06 -3.023216E-04 +2.558779E-05 -3.023216E-04 -2.825477E-04 
 +5.045724E-03 -9.561915E-05 +7.326854E-05 -9.561915E-05 +6.894162E-05 -3.003139E-04 +7.326854E-05 -3.003139E-04 -3.165409E-04 
 +4.936825E-03 -1.071965E-04 -9.164287E-05 -1.071965E-04 +1.012640E-04 -2.341161E-04 -9.164287E-05 -2.341161E-04 -2.480458E-04 
 +4.955196E-03 -6.287222E-06 -1.299490E-04 -6.287222E-06 -6.543581E-05 -2.848509E-05 -1.299490E-04 -2.848509E-05 -7.991280E-05 
 +4.943941E-03 +2.204648E-05 +1.175011E-05 +2.204648E-05 -1.465837E-04 +5.917601E-05 +1.175011E-05 +5.917601E-05 -4.004074E-06 
 +5.028567E-03 -4.799305E-05 +9.221739E-05 -4.799305E-05 -1.553178E-04 +8.910857E-05 +9.221739E-05 +8.910857E-05 +8.164719E-05 
 +5.001869E-03 +4.283502E-05 +1.218878E-04 +4.283502E-05 -1.824579E-05 -2.689997E-04 +1.218878E-04 -2.689997E-04 +3.685433E-05 
 +5.062804E-03 +8.037970E-05 +7.063973E-05 +8.037970E-05 -4.937970E-05 -4.011285E-04 +7.063973E-05 -4.011285E-04 -5.753210E-05 
 +5.076185E-03 +4.487722E-05 -1.280713E-05 +4.487722E-05 -1.267926E-04 -2.823535E-04 -1.280713E-05 -2.823535E-04 -4.673247E-05 
 +4.995011E-03 +3.561614E-05 -1.670744E-04 +3.561614E-05 -1.501663E-04 -1.203032E-04 -1.670744E-04 -1.203032E-04 +3.583422E-05 
 +4.995791E-03 -5.749661E-05 -1.858643E-04 -5.749661E-05 -1.615419E-04 -9.106280E-05 -1.858643E-04 -9.106280E-05 +4.945251E-05 
 +4.994335E-03 -5.162066E-05 -4.089550E-05 -5.162066E-05 -8.647425E-05 -6.107665E-05 -4.089550E-05 -6.107665E-05 -5.361417E-05 
 +4.951905E-03 -1.403045E-05 +2.850840E-07 -1.403045E-05 -1.720709E-05 +1.234913E-06 +2.850840E-07 +1.234913E-06 -8.170015E-05 
 +4.943523E-03 -9.362488E-05 -6.381479E-05 -9.362488E-05 -4.106271E-05 +5.893347E-06 -6.381479E-05 +5.893347E-06 -6.903752E-05 
 +4.927080E-03 -1.444752E-04 -7.478906E-05 -1.444752E-04 -1.134530E-04 +2.132655E-05 -7.478906E-05 +2.132655E-05 -2.236266E-05 
 +4.894652E-03 -2.911997E-05 +2.822018E-06 -2.911997E-05 -1.764539E-04 +6.682626E-05 +2.822018E-06 +6.682626E-05 +9.621890E-05 
 +4.927298E-03 -2.263402E-05 +6.353763E-05 -2.263402E-05 -2.258455E-04 +1.034120E-04 +6.353763E-05 +1.034120E-04 +6.654158E-05 
 +4.964963E-03 -7.534923E-05 +5.780177E-05 -7.534923E-05 -3.209576E-04 +1.032733E-04 +5.780177E-05 +1.032733E-04 +3.581392E-05 
 +4.909260E-03 -1.656586E-05 +4.859921E-07 -1.656586E-05 -2.839479E-04 +2.609451E-06 +4.859921E-07 +2.609451E-06 +4.360787E-05 
 +5.019913E-03 -2.829812E-05 +4.940325E-05 -2.829812E-05 -1.480755E-04 -1.744920E-04 +4.940325E-05 -1.744920E-04 -3.528296E-05 
 +5.073628E-03 -6.830390E-05 +3.539754E-05 -6.830390E-05 -8.158336E-05 -2.954126E-04 +3.539754E-05 -2.954126E-04 -1.507809E-04 
 +5.083639E-03 -7.483582E-05 +4.156776E-05 -7.483582E-05 -5.387760E-06 -3.237397E-04 +4.156776E-05 -3.237397E-04 -2.544636E-04 
 +5.108055E-03 -8.912355E-05 +4.265891E-05 -8.912355E-05 +5.338945E-05 -3.694580E-04 +4.265891E-05 -3.694580E-04 -3.514859E-04 
 +5.080071E-03 -1.407590E-04 -4.317043E-05 -1.407590E-04 +5.650966E-05 -3.166528E-04 -4.317043E-05 -3.166528E-04 -3.437017E-04 
 +4.914360E-03 -5.025057E-05 -6.578495E-05 -5.025057E-05 +5.793140E-05 -9.087562E-05 -6.578495E-05 -9.087562E-05 -1.680262E-04 
 +4.827575E-03 +4.395388E-05 +3.037421E-05 +4.395388E-05 +8.457030E-07 +4.007991E-05 +3.037421E-05 +4.007991E-05 +3.349250E-06 
 +4.986276E-03 -3.290449E-05 +1.051070E-04 -3.290449E-05 -5.839633E-05 -4.612806E-05 +1.051070E-04 -4.612806E-05 +8.204996E-05 
 +5.021928E-03 +7.783767E-05 +3.998452E-05 +7.783767E-05 -9.375438E-06 -3.910218E-04 +3.998452E-05 -3.910218E-04 +1.505450E-05 
 +5.102666E-03 +9.193819E-05 +9.538696E-05 +9.193819E-05 -1.322266E-04 -3.671791E-04 +9.538696E-05 -3.671791E-04 +1.908442E-05 
 +5.076391E-03 +4.204834E-05 +1.160382E-04 +4.204834E-05 -1.517992E-04 -3.246223E-04 +1.160382E-04 -3.246223E-04 +6.450041E-05 
 +5.041719E-03 -2.896596E-05 -4.842557E-05 -2.896596E-05 -1.767347E-04 -2.694803E-04 -4.842557E-05 -2.694803E-04 +1.175261E-04 
 +4.989579E-03 -6.668362E-05 -9.858027E-05 -6.668362E-05 -1.287329E-04 -2.022178E-04 -9.858027E-05 -2.022178E-04 +8.778744E-05 
 +4.962740E-03 -1.609453E-05 -2.398788E-05 -1.609453E-05 -1.099024E-05 -7.936148E-05 -2.398788E-05 -7.936148E-05 +1.706787E-05 
 +4.963504E-03 -1.349596E-05 -7.248998E-05 -1.349596E-05 -1.037548E-05 -1.050968E-05 -7.248998E-05 -1.050968E-05 +1.734894E-05 
 +4.966082E-03 -3.600887E-05 -7.573744E-05 -3.600887E-05 -3.822540E-05 -3.406733E-05 -7.573744E-05 -3.406733E-05 +1.214006E-05 
 +4.916745E-03 -6.959073E-05 -6.346486E-05 -6.959073E-05 +2.016740E-05 -6.761267E-05 -6.346486E-05 -6.761267E-05 +1.795946E-05 
 +4.889715E-03 +3.705495E-06 -1.752474E-05 +3.705495E-06 -1.444186E-05 -5.292313E-05 -1.752474E-05 -5.292313E-05 +1.801352E-05 
 +4.947313E-03 -2.149492E-05 +5.279434E-05 -2.149492E-05 -1.980762E-04 +7.053124E-05 +5.279434E-05 +7.053124E-05 +4.843137E-07 
 +4.901902E-03 +1.716173E-05 +3.582352E-05 +1.716173E-05 -2.186546E-04 +7.772425E-05 +3.582352E-05 +7.772425E-05 +8.793976E-05 
 +4.755789E-03 +1.533996E-04 -5.399871E-05 +1.533996E-04 -1.069961E-04 -1.188009E-04 -5.399871E-05 -1.188009E-04 +1.388236E-04 
 +4.935397E-03 +3.645974E-05 -2.865159E-05 +3.645974E-05 -1.430693E-04 -2.950999E-04 -2.865159E-05 -2.950999E-04 +5.785437E-05 
 +5.052886E-03 -5.508017E-05 +3.253795E-05 -5.508017E-05 -1.406799E-04 -3.532226E-04 +3.253795E-05 -3.532226E-04 -4.174196E-05 
 +5.147745E-03 -8.535862E-05 +6.322805E-05 -8.535862E-05 -5.110962E-05 -3.604774E-04 +6.322805E-05 -3.604774E-04 -1.778751E-04 
 +5.211692E-03 -9.905355E-05 +2.594885E-05 -9.905355E-05 -1.582648E-05 -3.786330E-04 +2.594885E-05 -3.786330E-04 -3.084549E-04 
 +5.147378E-03 -1.576179E-04 +1.772431E-06 -1.576179E-04 +1.092833E-04 -4.247636E-04 +1.772431E-06 -4.247636E-04 -3.166460E-04 
 +4.975028E-03 -9.445459E-05 +8.818782E-07 -9.445459E-05 +2.762939E-04 -5.303680E-04 +8.818782E-07 -5.303680E-04 -2.365394E-04 
 +4.836080E-03 +9.411386E-06 -1.653915E-06 +9.411386E-06 +2.985114E-04 -5.970848E-04 -1.653915E-06 -5.970848E-04 -1.018383E-04 
 +4.895946E-03 -2.078381E-05 -5.686923E-06 -2.078381E-05 +1.802433E-04 -5.051495E-04 -5.686923E-06 -5.051495E-04 +8.575298E-06 
 +5.007985E-03 +5.219838E-05 -1.022790E-05 +5.219838E-05 -1.220349E-05 -4.256446E-04 -1.022790E-05 -4.256446E-04 +1.233399E-05 
 +4.988014E-03 +8.481525E-05 +1.395838E-04 +8.481525E-05 -8.389357E-05 -4.023677E-04 +1.395838E-04 -4.023677E-04 +7.982026E-05 
 +5.084275E-03 -7.930509E-06 +2.210086E-04 -7.930509E-06 -1.048749E-04 -3.088632E-04 +2.210086E-04 -3.088632E-04 +5.130926E-05 
 +5.058392E-03 -6.156888E-06 +6.476651E-05 -6.156888E-06 -9.237191E-05 -1.316652E-04 +6.476651E-05 -1.316652E-04 +5.297471E-05 
 +4.994631E-03 -8.852195E-06 +5.305790E-06 -8.852195E-06 +6.309844E-06 -6.311894E-06 +5.305790E-06 -6.311894E-06 +5.242442E-05 
 +4.998807E-03 +1.408149E-06 -2.977156E-05 +1.408149E-06 +8.513093E-06 -3.247003E-05 -2.977156E-05 -3.247003E-05 +1.324409E-05 
 +4.999991E-03 -1.213831E-05 -8.023368E-05 -1.213831E-05 -1.419477E-05 -4.573365E-05 -8.023368E-05 -4.573365E-05 -9.354285E-06 
 +4.982506E-03 -4.246021E-05 -4.486007E-05 -4.246021E-05 -1.876159E-06 -1.532452E-05 -4.486007E-05 -1.532452E-05 -1.997458E-05 
 +4.950095E-03 -4.172626E-05 -2.549616E-05 -4.172626E-05 +3.182575E-05 -2.622477E-05 -2.549616E-05 -2.622477E-05 -1.853657E-05 
 +4.946305E-03 -5.462121E-06 -4.204474E-05 -5.462121E-06 +4.432129E-05 -8.051015E-05 -4.204474E-05 -8.051015E-05 -6.104101E-05 
 +5.000368E-03 +1.424865E-05 +1.422581E-05 +1.424865E-05 +9.689708E-06 -1.124996E-04 +1.422581E-05 -1.124996E-04 -9.076746E-05 
 +4.806945E-03 +1.877519E-04 -1.192019E-05 +1.877519E-04 +7.780085E-05 -1.033823E-04 -1.192019E-05 -1.033823E-04 +2.821384E-05 
 +4.742013E-03 +2.377686E-04 -8.861394E-05 +2.377686E-04 +7.530970E-05 -1.232229E-04 -8.861394E-05 -1.232229E-04 +1.056582E-04 
 +4.824030E-03 +2.072291E-04 -6.967137E-05 +2.072291E-04 -6.422706E-06 -1.235184E-04 -6.967137E-05 -1.235184E-04 +6.084180E-05 
 +4.890217E-03 +1.958469E-04 -4.148637E-05 +1.958469E-04 -2.009834E-05 -1.581440E-04 -4.148637E-05 -1.581440E-04 -2.802935E-05 
 +5.109043E-03 +3.993185E-05 -4.573517E-05 +3.993185E-05 -4.587822E-05 -3.554513E-04 -4.573517E-05 -3.554513E-04 -1.617199E-04 
 +5.217030E-03 -7.457822E-05 -3.823785E-05 -7.457822E-05 +9.374098E-07 -5.238865E-04 -3.823785E-05 -5.238865E-04 -2.720918E-04 
 +5.223645E-03 -8.727187E-05 +2.802329E-06 -8.727187E-05 +9.166632E-05 -5.446147E-04 +2.802329E-06 -5.446147E-04 -3.258482E-04 
 +5.054604E-03 -5.344844E-05 +5.466965E-05 -5.344844E-05 +1.262383E-04 -5.893511E-04 +5.466965E-05 -5.893511E-04 -2.783264E-04 
 +4.912644E-03 -5.001693E-05 +5.063563E-05 -5.001693E-05 +9.920277E-05 -6.140823E-04 +5.063563E-05 -6.140823E-04 -1.913117E-04 
 +4.946706E-03 -2.745518E-05 -2.256677E-05 -2.745518E-05 +7.657740E-05 -5.095895E-04 -2.256677E-05 -5.095895E-04 -1.086405E-04 
 +5.022835E-03 +1.283642E-05 +2.575613E-05 +1.283642E-05 +6.090381E-05 -2.571954E-04 +2.575613E-05 -2.571954E-04 -9.396158E-05 
 +4.885003E-03 +1.417924E-04 +1.063121E-04 +1.417924E-04 +1.147887E-04 -1.080383E-04 +1.063121E-04 -1.080383E-04 +3.313456E-05 
 +5.064339E-03 +1.505953E-05 +1.647733E-04 +1.505953E-05 +1.573852E-05 -2.000186E-04 +1.647733E-04 -2.000186E-04 +3.942652E-05 
 +5.029065E-03 +2.640364E-05 +1.115307E-04 +2.640364E-05 -4.391537E-05 -2.088241E-04 +1.115307E-04 -2.088241E-04 +8.228433E-06 
 +5.002609E-03 +9.966316E-06 +7.270987E-05 +9.966316E-06 -2.471265E-05 -9.000296E-05 +7.270987E-05 -9.000296E-05 -6.567704E-05 
 +5.025813E-03 -4.625455E-05 +1.491385E-05 -4.625455E-05 -4.162562E-06 -1.766593E-05 +1.491385E-05 -1.766593E-05 -9.127548E-05 
 +5.018143E-03 -4.742711E-05 -2.213933E-05 -4.742711E-05 -4.305595E-06 +4.241545E-05 -2.213933E-05 +4.241545E-05 -5.791784E-05 
 +5.001238E-03 -5.318523E-05 -1.364829E-05 -5.318523E-05 +2.329857E-05 +6.364013E-05 -1.364829E-05 +6.364013E-05 -4.865143E-05 
 +5.006568E-03 -3.269826E-05 -2.320260E-05 -3.269826E-05 +5.409740E-05 +1.924370E-05 -2.320260E-05 +1.924370E-05 -5.988726E-05 
 +5.024575E-03 -4.812078E-05 -6.398881E-05 -4.812078E-05 +8.076970E-05 -2.060885E-05 -6.398881E-05 -2.060885E-05 -9.511844E-05 
 +5.027955E-03 -7.110965E-05 -1.973704E-05 -7.110965E-05 +1.366306E-04 -3.626240E-05 -1.973704E-05 -3.626240E-05 -1.202831E-04 
 +4.747744E-03 +1.408803E-04 -2.544120E-05 +1.408803E-04 +1.684200E-04 -5.464913E-05 -2.544120E-05 -5.464913E-05 -6.054689E-05 
 +4.791863E-03 +1.162785E-04 -4.999201E-05 +1.162785E-04 +1.245416E-04 -9.104167E-05 -4.999201E-05 -9.104167E-05 +8.832989E-06 
 +4.826782E-03 +1.484394E-04 -4.013276E-05 +1.484394E-04 +8.623897E-05 -1.302482E-04 -4.013276E-05 -1.302482E-04 +2.356241E-05 
 +4.845366E-03 +2.074225E-04 -7.746346E-05 +2.074225E-04 +6.303419E-05 -1.500885E-04 -7.746346E-05 -1.500885E-04 -5.597735E-05 
 +4.982430E-03 +2.099509E-04 -1.471306E-04 +2.099509E-04 +8.167646E-05 -1.837528E-04 -1.471306E-04 -1.837528E-04 -1.755375E-04 
 +5.151070E-03 +1.486913E-04 -5.885446E-05 +1.486913E-04 +1.091516E-04 -1.328185E-04 -5.885446E-05 -1.328185E-04 -2.555409E-04 
 +5.235371E-03 +9.349188E-05 +2.285636E-05 +9.349188E-05 +1.655634E-04 -7.848899E-05 +2.285636E-05 -7.848899E-05 -3.074918E-04 
 +5.022669E-03 -4.124102E-05 +6.537946E-05 -4.124102E-05 +2.151708E-04 -2.233451E-04 +6.537946E-05 -2.233451E-04 -2.473678E-04 
 +4.981559E-03 -1.041468E-04 +9.088797E-05 -1.041468E-04 +9.860228E-05 -3.907519E-04 +9.088797E-05 -3.907519E-04 -2.325347E-04 
 +5.045163E-03 -7.018961E-05 +2.654546E-05 -7.018961E-05 -1.240315E-05 -4.271982E-04 +2.654546E-05 -4.271982E-04 -2.449254E-04 
 +5.046291E-03 -5.798995E-05 +1.149013E-04 -5.798995E-05 +6.126472E-05 -2.743251E-04 +1.149013E-04 -2.743251E-04 -1.638616E-04 
 +4.965853E-03 -1.560860E-05 +7.295772E-05 -1.560860E-05 +6.278956E-07 -2.804399E-04 +7.295772E-05 -2.804399E-04 -4.427644E-05 
 +4.993361E-03 -5.595167E-05 +1.320603E-05 -5.595167E-05 -5.750055E-06 -2.407034E-04 +1.320603E-05 -2.407034E-04 -2.003428E-06 
 +4.963459E-03 -6.126328E-06 +6.365040E-05 -6.126328E-06 +3.098407E-05 -1.459785E-04 +6.365040E-05 -1.459785E-04 +4.133878E-06 
 +5.023382E-03 -1.453082E-05 +1.127159E-04 -1.453082E-05 +1.924641E-05 -4.118275E-05 +1.127159E-04 -4.118275E-05 -3.943040E-05 
 +5.047815E-03 -5.045130E-05 +7.645851E-05 -5.045130E-05 +1.314557E-05 -2.343677E-05 +7.645851E-05 -2.343677E-05 -6.650357E-05 
 +5.046249E-03 -2.398469E-05 +4.497875E-05 -2.398469E-05 +4.826968E-05 +1.194484E-05 +4.497875E-05 +1.194484E-05 -8.586766E-05 
 +5.037281E-03 -2.429477E-05 +7.788643E-06 -2.429477E-05 +1.006893E-04 +6.552011E-05 +7.788643E-06 +6.552011E-05 -1.209037E-04 
 +5.044081E-03 -4.057472E-05 -5.499215E-05 -4.057472E-05 +1.257192E-04 +3.994402E-05 -5.499215E-05 +3.994402E-05 -1.343206E-04 
 +5.039510E-03 -4.624650E-05 -8.052307E-05 -4.624650E-05 +1.462764E-04 -6.059695E-05 -8.052307E-05 -6.059695E-05 -1.145093E-04 
 +4.963844E-03 -6.910128E-05 -9.887725E-06 -6.910128E-05 +2.240166E-04 -1.342283E-04 -9.887725E-06 -1.342283E-04 -4.820976E-05 
 +4.791769E-03 +6.114163E-05 -3.686589E-05 +6.114163E-05 +2.190080E-04 -1.292175E-04 -3.686589E-05 -1.292175E-04 -1.985575E-05 
 +4.818787E-03 +5.865016E-05 -4.941163E-05 +5.865016E-05 +1.527201E-04 -1.288070E-04 -4.941163E-05 -1.288070E-04 -2.757694E-05 
 +4.852748E-03 +1.099156E-04 -5.283392E-05 +1.099156E-04 +1.325829E-04 -1.366429E-04 -5.283392E-05 -1.366429E-04 -6.392036E-05 
 +4.924484E-03 +1.458090E-04 -6.693217E-05 +1.458090E-04 +1.249109E-04 -1.763925E-04 -6.693217E-05 -1.763925E-04 -1.415990E-04 
 +4.957379E-03 +1.747346E-04 -6.216080E-05 +1.747346E-04 +1.371415E-04 -1.704919E-04 -6.216080E-05 -1.704919E-04 -2.130269E-04 
 +5.108940E-03 +9.167860E-05 +1.945521E-05 +9.167860E-05 +1.408412E-04 -7.525514E-05 +1.945521E-05 -7.525514E-05 -3.054242E-04 
 +5.131239E-03 +1.312849E-04 -8.011969E-06 +1.312849E-04 +1.768849E-04 -8.702759E-05 -8.011969E-06 -8.702759E-05 -3.193626E-04 
 +4.995866E-03 -3.690005E-05 +1.464865E-05 -3.690005E-05 +1.860658E-04 -2.072938E-04 +1.464865E-05 -2.072938E-04 -2.272028E-04 
 +4.982606E-03 -1.287008E-04 +7.050713E-05 -1.287008E-04 +1.681624E-04 -2.151488E-04 +7.050713E-05 -2.151488E-04 -2.488792E-04 
 +5.003173E-03 -1.500682E-04 +8.219765E-05 -1.500682E-04 +1.273849E-04 -2.039907E-04 +8.219765E-05 -2.039907E-04 -2.870683E-04 
 +5.049835E-03 -1.183127E-05 +1.191211E-04 -1.183127E-05 +1.407674E-04 -8.089003E-05 +1.191211E-04 -8.089003E-05 -1.744423E-04 
 +5.014763E-03 +1.360315E-05 +7.680516E-05 +1.360315E-05 +3.787385E-05 -2.256943E-04 +7.680516E-05 -2.256943E-04 -5.107066E-05 
 +4.963234E-03 -3.724686E-06 +3.901513E-05 -3.724686E-06 +3.415772E-05 -2.836135E-04 +3.901513E-05 -2.836135E-04 -2.232136E-05 
 +4.943257E-03 +3.352372E-05 +2.482842E-05 +3.352372E-05 +8.037365E-05 -9.233979E-05 +2.482842E-05 -9.233979E-05 -6.993995E-05 
 +5.045371E-03 +2.493348E-05 +7.675679E-05 +2.493348E-05 +7.937772E-05 +1.737790E-05 +7.675679E-05 +1.737790E-05 -9.078689E-05 
 +5.081023E-03 -2.047891E-05 +8.768299E-05 -2.047891E-05 +4.403910E-05 +5.325935E-06 +8.768299E-05 +5.325935E-06 -8.720949E-05 
 +5.072838E-03 +5.276346E-05 +1.011987E-04 +5.276346E-05 +9.531289E-05 +6.263954E-05 +1.011987E-04 +6.263954E-05 -8.861784E-05 
 +5.048562E-03 +1.599800E-05 +7.439167E-06 +1.599800E-05 +1.876560E-04 +1.252904E-04 +7.439167E-06 +1.252904E-04 -1.298896E-04 
 +5.056630E-03 -4.692859E-05 -1.151318E-04 -4.692859E-05 +1.787244E-04 +2.812064E-05 -1.151318E-04 +2.812064E-05 -1.531081E-04 
 +5.004109E-03 -5.920866E-05 -1.064885E-04 -5.920866E-05 +1.473548E-04 -1.080260E-04 -1.064885E-04 -1.080260E-04 -2.600397E-05 
 +4.874272E-03 -8.253716E-05 +1.618129E-05 -8.253716E-05 +1.292176E-04 -1.362041E-04 +1.618129E-05 -1.362041E-04 +1.153399E-04 
 +4.869300E-03 -9.501512E-06 -2.550908E-06 -9.501512E-06 +8.966910E-05 -1.370256E-04 -2.550908E-06 -1.370256E-04 +8.338709E-05 
 +4.880436E-03 +7.672739E-05 -5.252561E-05 +7.672739E-05 +1.158808E-04 -1.731535E-04 -5.252561E-05 -1.731535E-04 +1.290566E-05 
 +4.863177E-03 +9.567059E-05 -5.615901E-05 +9.567059E-05 +1.521068E-04 -1.556596E-04 -5.615901E-05 -1.556596E-04 -4.864014E-05 
 +4.861311E-03 +1.054765E-04 -8.620219E-05 +1.054765E-04 +1.620715E-04 -9.995482E-05 -8.620219E-05 -9.995482E-05 -1.576226E-04 
 +5.004122E-03 +9.196608E-05 -5.292440E-05 +9.196608E-05 +1.881986E-04 -6.683107E-05 -5.292440E-05 -6.683107E-05 -2.654526E-04 
 +5.083179E-03 +5.233118E-05 +3.377052E-06 +5.233118E-05 +2.161103E-04 -6.379426E-05 +3.377052E-06 -6.379426E-05 -3.260958E-04 
 +5.075847E-03 +6.914500E-05 -7.055967E-05 +6.914500E-05 +1.843606E-04 -1.003257E-04 -7.055967E-05 -1.003257E-04 -2.883036E-04 
 +4.977579E-03 -1.195321E-04 -1.869921E-05 -1.195321E-04 +1.268875E-04 -1.852994E-04 -1.869921E-05 -1.852994E-04 -1.990813E-04 
 +4.975342E-03 -1.769148E-04 +4.752367E-05 -1.769148E-04 +1.354771E-04 -2.507176E-04 +4.752367E-05 -2.507176E-04 -2.061507E-04 
 +4.993972E-03 -1.405418E-04 +1.476736E-04 -1.405418E-04 +1.754631E-04 -1.608699E-04 +1.476736E-04 -1.608699E-04 -2.461650E-04 
 +5.074119E-03 +6.528749E-05 +1.082728E-04 +6.528749E-05 +1.858786E-04 +1.126032E-04 +1.082728E-04 +1.126032E-04 -2.793274E-04 
 +4.972737E-03 +6.855429E-05 -3.845964E-06 +6.855429E-05 +2.108181E-04 +2.922879E-05 -3.845964E-06 +2.922879E-05 -1.227102E-04 
 +4.936530E-03 +7.667673E-05 -2.454250E-05 +7.667673E-05 +1.596457E-04 -1.758834E-04 -2.454250E-05 -1.758834E-04 -2.906276E-05 
 +4.953784E-03 +8.860759E-05 -6.496246E-06 +8.860759E-05 +4.000449E-05 -1.811518E-04 -6.496246E-06 -1.811518E-04 -8.260371E-05 
 +5.017411E-03 +8.516782E-05 +4.434105E-05 +8.516782E-05 -1.756944E-05 -6.557296E-05 +4.434105E-05 -6.557296E-05 -1.076729E-04 
 +5.088537E-03 +2.426873E-05 +8.831391E-05 +2.426873E-05 +4.276373E-05 -2.935653E-05 +8.831391E-05 -2.935653E-05 -6.296171E-05 
 +5.095722E-03 +1.360823E-04 +7.658524E-05 +1.360823E-04 +1.144785E-04 -6.319468E-06 +7.658524E-05 -6.319468E-06 -8.486700E-05 
 +5.072761E-03 +9.648646E-05 -2.367600E-06 +9.648646E-05 +1.991012E-04 +1.245140E-05 -2.367600E-06 +1.245140E-05 -7.293000E-05 
 +5.008574E-03 -5.479512E-05 -1.258333E-04 -5.479512E-05 +2.035935E-04 -5.410800E-05 -1.258333E-04 -5.410800E-05 +3.218782E-05 
 +4.909325E-03 -8.384041E-05 -3.357310E-05 -8.384041E-05 +1.084159E-04 -1.114807E-04 -3.357310E-05 -1.114807E-04 +1.371796E-04 
 +4.854427E-03 -7.763130E-05 +4.784443E-05 -7.763130E-05 +5.065270E-05 -1.109575E-04 +4.784443E-05 -1.109575E-04 +1.745148E-04 
 +4.883943E-03 -1.528313E-05 +2.594361E-05 -1.528313E-05 +2.345318E-05 -1.519987E-04 +2.594361E-05 -1.519987E-04 +1.446967E-04 
 +4.890723E-03 +3.268063E-05 -2.620482E-06 +3.268063E-05 -1.464870E-06 -1.827765E-04 -2.620482E-06 -1.827765E-04 +1.042086E-04 
 +4.855270E-03 +3.968822E-06 +3.273034E-06 +3.968822E-06 +3.235469E-05 -1.694682E-04 +3.273034E-06 -1.694682E-04 +6.516272E-05 
 +4.806630E-03 +9.015906E-05 -2.190243E-05 +9.015906E-05 +1.263350E-04 -1.701612E-04 -2.190243E-05 -1.701612E-04 -9.340413E-05 
 +5.040434E-03 +7.325919E-05 -6.522092E-05 +7.325919E-05 +1.887522E-04 -1.327346E-04 -6.522092E-05 -1.327346E-04 -2.617512E-04 
 +5.083868E-03 +4.161523E-06 +6.137700E-06 +4.161523E-06 +1.782628E-04 -1.880073E-05 +6.137700E-06 -1.880073E-05 -2.063583E-04 
 +5.053090E-03 -2.324639E-05 -7.389133E-05 -2.324639E-05 +7.353739E-05 +9.016760E-05 -7.389133E-05 +9.016760E-05 -1.360158E-04 
 +5.034848E-03 -6.033275E-05 -5.952039E-05 -6.033275E-05 +8.005231E-06 +1.380834E-04 -5.952039E-05 +1.380834E-04 -1.659777E-04 
 +5.040766E-03 -3.874829E-05 +1.055198E-05 -3.874829E-05 +7.000049E-05 +1.534734E-04 +1.055198E-05 +1.534734E-04 -2.231596E-04 
 +5.064772E-03 -2.158355E-06 +1.037021E-04 -2.158355E-06 +1.339068E-04 +1.208281E-04 +1.037021E-04 +1.208281E-04 -2.945843E-04 
 +5.049745E-03 +2.912228E-05 -3.142711E-05 +2.912228E-05 +1.312697E-04 +1.097179E-04 -3.142711E-05 +1.097179E-04 -1.788687E-04 
 +4.944751E-03 +2.834270E-05 -1.591216E-04 +2.834270E-05 +1.242161E-04 -1.200778E-05 -1.591216E-04 -1.200778E-05 -3.309037E-05 
 +4.943497E-03 +2.573957E-05 -1.298376E-04 +2.573957E-05 +1.341162E-04 -1.308571E-04 -1.298376E-04 -1.308571E-04 -1.420406E-05 
 +4.952258E-03 +1.847001E-05 -3.429896E-05 +1.847001E-05 +1.019839E-04 -1.166753E-04 -3.429896E-05 -1.166753E-04 -4.855279E-05 
 +4.998265E-03 +7.265036E-05 +1.412468E-05 +7.265036E-05 +1.091859E-05 -1.171276E-04 +1.412468E-05 -1.171276E-04 -6.132454E-05 
 +5.085534E-03 +9.466859E-05 +5.859363E-05 +9.466859E-05 -1.637961E-05 -1.366405E-04 +5.859363E-05 -1.366405E-04 -8.984747E-05 
 +5.096674E-03 +1.929496E-04 -2.368110E-05 +1.929496E-04 +6.595899E-05 -1.563594E-04 -2.368110E-05 -1.563594E-04 -1.284807E-04 
 +5.056507E-03 +7.291411E-05 -3.990370E-05 +7.291411E-05 +5.982716E-05 -2.436428E-04 -3.990370E-05 -2.436428E-04 +5.560479E-06 
 +4.948085E-03 -1.128686E-04 +5.019807E-06 -1.128686E-04 +1.826761E-05 -2.175388E-04 +5.019807E-06 -2.175388E-04 +1.916702E-04 
 +4.848470E-03 -1.063141E-04 +8.276120E-05 -1.063141E-04 +2.179585E-05 -1.186203E-04 +8.276120E-05 -1.186203E-04 +1.997453E-04 
 +4.852881E-03 -7.085243E-05 +7.486352E-05 -7.085243E-05 +1.884484E-05 -1.357885E-04 +7.486352E-05 -1.357885E-04 +1.585764E-04 
 +4.849327E-03 -2.650685E-05 +7.887531E-05 -2.650685E-05 +1.511054E-05 -1.898579E-04 +7.887531E-05 -1.898579E-04 +1.545383E-04 
 +4.832227E-03 +3.770857E-05 +9.462692E-05 +3.770857E-05 -1.132960E-05 -2.292700E-04 +9.462692E-05 -2.292700E-04 +1.570793E-04 
 +4.818725E-03 +6.248544E-05 +1.029418E-04 +6.248544E-05 +1.783899E-05 -2.473622E-04 +1.029418E-04 -2.473622E-04 +1.806064E-04 
 +4.832289E-03 +1.210210E-04 +1.385418E-04 +1.210210E-04 +1.077856E-04 -2.755467E-04 +1.385418E-04 -2.755467E-04 +4.517754E-05 
 +5.061791E-03 +6.864334E-05 +3.676667E-05 +6.864334E-05 +1.472604E-04 -3.163880E-04 +3.676667E-05 -3.163880E-04 -1.493846E-04 
 +5.125176E-03 +4.684171E-06 +5.254635E-05 +4.684171E-06 +1.132727E-04 -3.034127E-04 +5.254635E-05 -3.034127E-04 -1.587262E-04 
 +5.110409E-03 -1.802930E-05 +2.173499E-05 -1.802930E-05 +5.342855E-05 -1.593931E-04 +2.173499E-05 -1.593931E-04 -1.527422E-04 
 +5.121014E-03 -5.316582E-06 -5.203849E-05 -5.316582E-06 +3.501980E-05 +2.824354E-05 -5.203849E-05 +2.824354E-05 -1.831787E-04 
 +5.109846E-03 -5.000810E-06 -5.149738E-05 -5.000810E-06 +7.211470E-05 +5.976897E-05 -5.149738E-05 +5.976897E-05 -2.431045E-04 
 +5.100749E-03 +4.792934E-07 -3.102162E-06 +4.792934E-07 +1.260988E-04 +7.782375E-05 -3.102162E-06 +7.782375E-05 -2.894769E-04 
 +4.950144E-03 -2.805421E-05 -1.873592E-04 -2.805421E-05 +9.023474E-05 -2.894400E-05 -1.873592E-04 -2.894400E-05 +1.544199E-05 
 +4.976762E-03 +1.340878E-05 -1.866234E-04 +1.340878E-05 +8.025605E-05 +3.229006E-05 -1.866234E-04 +3.229006E-05 +5.889647E-05 
 +4.986151E-03 +8.934835E-06 -1.662932E-04 +8.934835E-06 +8.315471E-05 +4.971250E-06 -1.662932E-04 +4.971250E-06 +3.722655E-08 
 +4.968083E-03 +2.650521E-05 -4.797344E-05 +2.650521E-05 +7.588918E-05 -1.356983E-04 -4.797344E-05 -1.356983E-04 -5.805896E-05 
 +4.958112E-03 +2.915543E-05 +2.485503E-05 +2.915543E-05 +9.849916E-05 -1.256680E-04 +2.485503E-05 -1.256680E-04 -1.159116E-04 
 +5.062840E-03 +6.315568E-05 +4.725886E-05 +6.315568E-05 +1.220386E-04 -4.667361E-05 +4.725886E-05 -4.667361E-05 -1.927876E-04 
 +5.103859E-03 +1.493967E-04 -1.125606E-04 +1.493967E-04 +1.077408E-04 -9.259475E-06 -1.125606E-04 -9.259475E-06 -1.184008E-04 
 +5.000030E-03 -1.401235E-05 -5.346939E-05 -1.401235E-05 +6.210639E-06 +2.374705E-05 -5.346939E-05 +2.374705E-05 +6.509582E-05 
 +4.922320E-03 -1.166341E-04 +7.477542E-05 -1.166341E-04 -5.509643E-05 -5.025484E-06 +7.477542E-05 -5.025484E-06 +1.536594E-04 
 +4.857629E-03 -1.027222E-04 +1.198330E-04 -1.027222E-04 -2.296951E-05 -7.404414E-05 +1.198330E-04 -7.404414E-05 +1.833235E-04 
 +4.829632E-03 -5.745831E-05 +1.057100E-04 -5.745831E-05 -4.314583E-06 -1.016326E-04 +1.057100E-04 -1.016326E-04 +1.739329E-04 
 +4.830917E-03 -5.404859E-06 +1.320652E-04 -5.404859E-06 +1.827435E-08 -1.291474E-04 +1.320652E-04 -1.291474E-04 +1.540499E-04 
 +4.800020E-03 +5.082027E-05 +1.519977E-04 +5.082027E-05 +6.423775E-06 -1.526809E-04 +1.519977E-04 -1.526809E-04 +1.631534E-04 
 +4.763026E-03 +1.334018E-04 +1.818977E-04 +1.334018E-04 +3.238341E-05 -1.765599E-04 +1.818977E-04 -1.765599E-04 +1.839055E-04 
 +4.832797E-03 +1.791621E-04 +2.674484E-04 +1.791621E-04 +5.562953E-05 -2.400845E-04 +2.674484E-04 -2.400845E-04 +1.218289E-04 
 +5.132545E-03 +1.049859E-04 +1.307143E-04 +1.049859E-04 +3.607858E-05 -3.105867E-04 +1.307143E-04 -3.105867E-04 -1.151383E-04 
 +5.218668E-03 +4.521410E-05 +2.718485E-05 +4.521410E-05 +1.462310E-05 -3.038548E-04 +2.718485E-05 -3.038548E-04 -3.002991E-04 
 +5.187088E-03 +5.624337E-05 +4.785082E-05 +5.624337E-05 +6.152805E-05 -2.570158E-04 +4.785082E-05 -2.570158E-04 -3.250740E-04 
 +5.140939E-03 +5.867512E-05 +7.450767E-06 +5.867512E-05 +1.175776E-04 -1.744237E-04 +7.450767E-06 -1.744237E-04 -3.322246E-04 
 +5.134195E-03 +4.677224E-05 -7.090521E-05 +4.677224E-05 +1.050446E-04 -9.689710E-06 -7.090521E-05 -9.689710E-06 -3.252614E-04 
 +5.082439E-03 +3.717096E-05 -9.265784E-05 +3.717096E-05 +1.074723E-04 +3.175465E-05 -9.265784E-05 +3.175465E-05 -1.861628E-04 
 +4.931152E-03 +1.160252E-05 -1.838368E-04 +1.160252E-05 +1.380453E-04 -9.083433E-05 -1.838368E-04 -9.083433E-05 +7.209432E-05 
 +4.991993E-03 +8.200234E-05 -6.361834E-05 +8.200234E-05 +1.654223E-04 -1.242679E-05 -6.361834E-05 -1.242679E-05 -1.265362E-05 
 +4.972197E-03 -2.410882E-05 -1.463864E-04 -2.410882E-05 +9.501060E-05 +1.883171E-05 -1.463864E-04 +1.883171E-05 -2.635363E-05 
 +4.968174E-03 -1.223598E-05 -5.609878E-05 -1.223598E-05 +6.390068E-05 +9.569133E-06 -5.609878E-05 +9.569133E-06 -3.413282E-05 
 +4.958729E-03 +1.856101E-05 +1.170065E-05 +1.856101E-05 +7.077470E-05 -4.090002E-05 +1.170065E-05 -4.090002E-05 -6.530954E-05 
 +5.057296E-03 +1.261694E-04 +1.371493E-05 +1.261694E-04 +5.352917E-05 -1.238919E-04 +1.371493E-05 -1.238919E-04 -1.510720E-04 
 +5.076750E-03 +1.674138E-04 -1.102840E-04 +1.674138E-04 +1.863782E-05 -1.241986E-04 -1.102840E-04 -1.241986E-04 -1.123861E-04 
 +4.985222E-03 -2.268531E-05 +1.581936E-07 -2.268531E-05 +2.184090E-06 -2.507301E-05 +1.581936E-07 -2.507301E-05 +3.192032E-05 
 +4.908910E-03 -7.756852E-05 +6.862679E-05 -7.756852E-05 +9.420682E-07 +1.832622E-05 +6.862679E-05 +1.832622E-05 +1.003752E-04 
 +4.839414E-03 -7.276852E-05 +9.141492E-05 -7.276852E-05 -1.300626E-05 +1.201425E-05 +9.141492E-05 +1.201425E-05 +1.452104E-04 
 +4.828908E-03 -5.231049E-05 +1.210896E-04 -5.231049E-05 -7.161578E-06 -1.330058E-05 +1.210896E-04 -1.330058E-05 +1.382916E-04 
 +4.815130E-03 +7.142437E-06 +1.764556E-04 +7.142437E-06 +8.032905E-06 -3.804555E-05 +1.764556E-04 -3.804555E-05 +1.202907E-04 
 +4.772367E-03 +6.222701E-05 +2.010967E-04 +6.222701E-05 +2.137610E-05 -4.115259E-05 +2.010967E-04 -4.115259E-05 +1.358347E-04 
 +4.745955E-03 +1.631091E-04 +2.136242E-04 +1.631091E-04 +2.348402E-05 -9.857914E-05 +2.136242E-04 -9.857914E-05 +1.202150E-04 
 +4.853600E-03 +2.192662E-04 +2.806634E-04 +2.192662E-04 +1.551897E-05 -2.324696E-04 +2.806634E-04 -2.324696E-04 +5.074615E-05 
 +5.211235E-03 +1.270350E-04 +1.423236E-04 +1.270350E-04 -2.793740E-05 -3.332298E-04 +1.423236E-04 -3.332298E-04 -2.292591E-04 
 +5.299766E-03 +9.133774E-05 -5.366971E-06 +9.133774E-05 -4.103473E-05 -3.002459E-04 -5.366971E-06 -3.002459E-04 -4.409208E-04 
 +5.241497E-03 +1.242662E-04 -2.494806E-05 +1.242662E-04 +4.192087E-05 -2.302560E-04 -2.494806E-05 -2.302560E-04 -3.883100E-04 
 +5.170042E-03 +8.449131E-05 +2.218356E-05 +8.449131E-05 +1.191457E-04 -2.517082E-04 +2.218356E-05 -2.517082E-04 -3.754073E-04 
 +5.123652E-03 +5.187284E-05 -2.248235E-05 +5.187284E-05 +1.461166E-04 -2.606688E-04 -2.248235E-05 -2.606688E-04 -2.459942E-04 
 +4.986149E-03 +1.645511E-05 -1.907611E-04 +1.645511E-05 +1.173034E-04 -1.948902E-04 -1.907611E-04 -1.948902E-04 +2.038011E-05 
 +4.918452E-03 +6.706171E-06 -1.189805E-04 +6.706171E-06 +1.157619E-04 -4.750586E-05 -1.189805E-04 -4.750586E-05 +5.083919E-05 
 +4.932080E-03 -5.732053E-05 -2.641801E-05 -5.732053E-05 +9.996892E-05 +5.922298E-06 -2.641801E-05 +5.922298E-06 -7.961114E-06 
 +4.924112E-03 -1.353412E-04 -3.041739E-05 -1.353412E-04 +8.694510E-05 +3.277271E-05 -3.041739E-05 +3.277271E-05 -1.917135E-05 
 +4.972483E-03 -6.784530E-05 -5.769711E-06 -6.784530E-05 +9.733909E-05 +1.183181E-05 -5.769711E-06 +1.183181E-05 -6.587777E-05 
 +5.075398E-03 -2.167086E-05 -2.507118E-05 -2.167086E-05 +9.843648E-05 -6.898482E-05 -2.507118E-05 -6.898482E-05 -1.224334E-04 
 +5.108196E-03 +7.834586E-05 +1.311134E-05 +7.834586E-05 +7.321144E-05 -1.106301E-04 +1.311134E-05 -1.106301E-04 -1.494468E-04 
 +5.016469E-03 +1.281077E-04 -2.454724E-06 +1.281077E-04 -1.549516E-05 -5.576405E-05 -2.454724E-06 -5.576405E-05 -9.182266E-05 
 +4.939670E-03 -2.684661E-05 +7.040010E-05 -2.684661E-05 -6.925633E-05 +3.493747E-05 +7.040010E-05 +3.493747E-05 +1.034855E-05 
 +4.896954E-03 -1.097897E-04 +9.652661E-05 -1.097897E-04 -4.422679E-05 +7.687241E-05 +9.652661E-05 +7.687241E-05 +7.456709E-05 
 +4.844736E-03 -7.348200E-05 +8.523626E-05 -7.348200E-05 +1.221493E-06 +8.887610E-05 +8.523626E-05 +8.887610E-05 +9.591989E-05 
 +4.830830E-03 -3.120189E-05 +1.061547E-04 -3.120189E-05 +8.183528E-06 +7.576075E-05 +1.061547E-04 +7.576075E-05 +8.566146E-05 
 +4.785470E-03 +3.215110E-05 +1.824645E-04 +3.215110E-05 +1.252413E-05 +4.092465E-05 +1.824645E-04 +4.092465E-05 +9.237227E-05 
 +4.764586E-03 +8.341294E-05 +2.254327E-04 +8.341294E-05 +3.646952E-05 +2.568272E-05 +2.254327E-04 +2.568272E-05 +9.946346E-05 
 +4.760081E-03 +1.764515E-04 +2.384956E-04 +1.764515E-04 +1.727684E-05 +7.449518E-06 +2.384956E-04 +7.449518E-06 +1.034441E-04 
 +4.913588E-03 +2.312751E-04 +2.345740E-04 +2.312751E-04 -6.151793E-05 -1.170369E-04 +2.345740E-04 -1.170369E-04 +9.482056E-06 
 +5.282055E-03 +1.670614E-04 +5.637846E-05 +1.670614E-04 -9.021624E-05 -2.813702E-04 +5.637846E-05 -2.813702E-04 -2.906644E-04 
 +5.300146E-03 +1.668389E-04 -1.942479E-05 +1.668389E-04 +1.864611E-05 -2.955532E-04 -1.942479E-05 -2.955532E-04 -4.630731E-04 
 +5.237108E-03 +1.320101E-04 -2.862875E-05 +1.320101E-04 +1.225605E-04 -2.308505E-04 -2.862875E-05 -2.308505E-04 -4.310813E-04 
 +5.196784E-03 +6.509488E-05 -1.408122E-05 +6.509488E-05 +1.990143E-04 -2.448882E-04 -1.408122E-05 -2.448882E-04 -3.714020E-04 
 +5.120497E-03 +1.868170E-06 -1.548517E-05 +1.868170E-06 +2.593683E-04 -2.852517E-04 -1.548517E-05 -2.852517E-04 -1.942290E-04 
 +4.918423E-03 -5.256732E-05 -1.362231E-04 -5.256732E-05 +1.830511E-04 -1.930304E-04 -1.362231E-04 -1.930304E-04 +2.127851E-05 
 +4.790550E-03 +2.484820E-05 -9.894059E-05 +2.484820E-05 +9.364181E-05 -3.117990E-05 -9.894059E-05 -3.117990E-05 +4.372540E-05 
 +4.835466E-03 -5.473049E-05 -7.306913E-06 -5.473049E-05 +9.249523E-05 +3.099943E-05 -7.306913E-06 +3.099943E-05 +3.282932E-05 
 +4.889082E-03 -1.544206E-04 +2.098630E-05 -1.544206E-04 +9.310521E-05 +2.136891E-05 +2.098630E-05 +2.136891E-05 -2.864262E-05 
 +5.048313E-03 -1.884214E-04 +3.895640E-05 -1.884214E-04 -5.469907E-06 +6.201051E-06 +3.895640E-05 +6.201051E-06 -9.759648E-05 
 +5.116708E-03 -9.774242E-05 -5.496215E-05 -9.774242E-05 -1.777466E-04 -3.018443E-05 -5.496215E-05 -3.018443E-05 -8.478183E-05 
 +4.988497E-03 -5.053593E-05 +5.225369E-05 -5.053593E-05 -2.406941E-04 -7.687439E-05 +5.225369E-05 -7.687439E-05 -2.795296E-05 
 +4.937076E-03 -2.452632E-05 +1.179594E-05 -2.452632E-05 -1.543068E-04 -3.062524E-05 +1.179594E-05 -3.062524E-05 -1.425169E-05 
 +4.958682E-03 -1.591772E-04 +3.516444E-05 -1.591772E-04 -5.804889E-05 +7.087308E-05 +3.516444E-05 +7.087308E-05 -3.630333E-06 
 +4.963114E-03 -2.664250E-04 +6.576084E-05 -2.664250E-04 -7.092008E-05 +7.096119E-05 +6.576084E-05 +7.096119E-05 +2.101693E-05 
 +4.991155E-03 -2.379274E-04 +8.556999E-05 -2.379274E-04 -1.164423E-04 +3.180981E-05 +8.556999E-05 +3.180981E-05 +2.058774E-05 
 +4.934643E-03 -1.056127E-04 +1.342452E-04 -1.056127E-04 -7.088314E-05 +4.182834E-05 +1.342452E-04 +4.182834E-05 +1.693491E-05 
 +4.856048E-03 -1.879809E-06 +1.613869E-04 -1.879809E-06 -2.041099E-05 +2.166839E-05 +1.613869E-04 +2.166839E-05 +5.513856E-05 
 +4.779909E-03 +1.158646E-04 +1.606659E-04 +1.158646E-04 +2.695356E-05 -1.311989E-06 +1.606659E-04 -1.311989E-06 +8.996514E-05 
 +4.767107E-03 +1.423204E-04 +2.128533E-04 +1.423204E-04 +1.257081E-04 +5.593421E-05 +2.128533E-04 +5.593421E-05 -2.151528E-05 
 +5.014521E-03 +8.851475E-05 -3.882736E-06 +8.851475E-05 +1.227731E-04 +1.194530E-04 -3.882736E-06 +1.194530E-04 -2.754208E-04 
 +5.193879E-03 +1.239384E-04 -1.281275E-04 +1.239384E-04 +5.978619E-05 +7.599660E-05 -1.281275E-04 +7.599660E-05 -3.962562E-04 
 +5.253896E-03 +1.855041E-04 -6.140523E-05 +1.855041E-04 +6.533827E-05 -7.575060E-05 -6.140523E-05 -7.575060E-05 -4.188621E-04 
 +5.227307E-03 +1.915125E-04 -6.517283E-05 +1.915125E-04 +1.625065E-04 -1.699842E-04 -6.517283E-05 -1.699842E-04 -4.384892E-04 
 +5.186239E-03 +6.020954E-05 -5.828531E-05 +6.020954E-05 +2.386624E-04 -1.594137E-04 -5.828531E-05 -1.594137E-04 -4.295972E-04 
 +5.113389E-03 -3.438929E-05 +6.305303E-05 -3.438929E-05 +2.458960E-04 -1.750359E-04 +6.305303E-05 -1.750359E-04 -3.424519E-04 
 +4.892663E-03 -1.179780E-04 +1.022164E-05 -1.179780E-04 +1.789443E-04 -1.358678E-04 +1.022164E-05 -1.358678E-04 -1.034075E-04 
 +4.835694E-03 +1.144534E-04 -1.431340E-05 +1.144534E-04 +2.004509E-04 +3.300479E-05 -1.431340E-05 +3.300479E-05 -1.825015E-05 
 +4.873546E-03 +1.072869E-04 +3.706115E-05 +1.072869E-04 +2.365362E-04 +1.232494E-04 +3.706115E-05 +1.232494E-04 -1.724406E-05 
 +4.946211E-03 +6.826462E-05 +3.384103E-05 +6.826462E-05 +2.173382E-04 +1.212573E-04 +3.384103E-05 +1.212573E-04 -4.904352E-05 
 +4.966818E-03 -5.346469E-05 +3.517148E-05 -5.346469E-05 +1.302829E-04 +4.177164E-05 +3.517148E-05 +4.177164E-05 -6.687982E-05 
 +4.899838E-03 -6.775625E-05 -7.959714E-05 -6.775625E-05 +5.476147E-05 +1.711817E-05 -7.959714E-05 +1.711817E-05 +2.836508E-05 
 +4.847794E-03 -4.145325E-05 -1.183857E-05 -4.145325E-05 +1.752638E-05 -1.674848E-05 -1.183857E-05 -1.674848E-05 +1.208379E-04 
 +4.829895E-03 +1.498680E-05 -9.260649E-06 +1.498680E-05 +2.620626E-06 -2.934376E-05 -9.260649E-06 -2.934376E-05 +1.078973E-04 
 +5.094002E-03 -1.292457E-04 +7.430620E-05 -1.292457E-04 -1.860692E-05 +4.082613E-05 +7.430620E-05 +4.082613E-05 +6.808075E-05 
 +5.006990E-03 -2.725261E-04 +1.272485E-04 -2.725261E-04 -5.707204E-05 +3.548714E-05 +1.272485E-04 +3.548714E-05 +3.653108E-05 
 +4.980722E-03 -2.734124E-04 +1.424701E-04 -2.734124E-04 -9.725728E-05 -6.124519E-06 +1.424701E-04 -6.124519E-06 +6.129774E-05 
 +5.006692E-03 -1.321422E-04 +1.590251E-04 -1.321422E-04 -1.591482E-04 -4.910349E-05 +1.590251E-04 -4.910349E-05 +8.415595E-05 
 +4.973353E-03 -2.781659E-05 +1.290392E-04 -2.781659E-05 -1.738771E-04 -7.622934E-05 +1.290392E-04 -7.622934E-05 +8.167289E-05 
 +4.833110E-03 +1.653856E-04 +1.517362E-04 +1.653856E-04 -5.765859E-05 -3.461601E-05 +1.517362E-04 -3.461601E-05 +1.378689E-04 
 +4.804757E-03 +2.263822E-04 +2.113713E-04 +2.263822E-04 +6.686117E-05 +1.653610E-05 +2.113713E-04 +1.653610E-05 +9.419369E-05 
 +4.983506E-03 +1.071360E-04 -7.081917E-06 +1.071360E-04 +9.365204E-05 +6.480878E-05 -7.081917E-06 +6.480878E-05 -1.468205E-04 
 +5.137849E-03 +8.227814E-05 -1.017426E-04 +8.227814E-05 +5.322325E-05 +1.442925E-04 -1.017426E-04 +1.442925E-04 -2.821134E-04 
 +5.263508E-03 +1.752181E-04 -6.646260E-05 +1.752181E-04 +2.810922E-05 +1.401815E-04 -6.646260E-05 +1.401815E-04 -3.259218E-04 
 +5.203958E-03 +1.538317E-04 -1.420260E-04 +1.538317E-04 +4.079791E-05 +6.111021E-05 -1.420260E-04 +6.111021E-05 -3.580805E-04 
 +5.128664E-03 -4.574144E-05 -1.676700E-04 -4.574144E-05 +7.473315E-05 +2.477721E-05 -1.676700E-04 +2.477721E-05 -2.502810E-04 
 +5.122217E-03 -1.122910E-04 +2.360347E-05 -1.122910E-04 +1.026057E-04 -5.947655E-05 +2.360347E-05 -5.947655E-05 -2.035764E-04 
 +4.999064E-03 -1.380313E-04 +1.525888E-05 -1.380313E-04 +1.355526E-04 -8.406607E-05 +1.525888E-05 -8.406607E-05 -1.285399E-04 
 +4.989399E-03 +5.998705E-05 +2.555884E-05 +5.998705E-05 +1.760081E-04 -2.096513E-05 +2.555884E-05 -2.096513E-05 -4.694718E-05 
 +5.001469E-03 +2.380922E-05 +2.278124E-05 +2.380922E-05 +2.011213E-04 +2.072242E-05 +2.278124E-05 +2.072242E-05 -6.353442E-05 
 +5.089253E-03 +3.202262E-05 +1.135724E-05 +3.202262E-05 +2.633878E-04 +1.360060E-05 +1.135724E-05 +1.360060E-05 -6.023867E-05 
 +4.843912E-03 -8.619366E-05 -5.709498E-05 -8.619366E-05 +3.876561E-04 -1.884428E-05 -5.709498E-05 -1.884428E-05 -4.217443E-05 
 +4.613326E-03 -8.784750E-05 -6.291374E-05 -8.784750E-05 +2.759435E-04 +3.016357E-05 -6.291374E-05 +3.016357E-05 +6.565645E-05 
 +4.644268E-03 -1.772102E-05 +7.274587E-06 -1.772102E-05 +8.298882E-05 +4.743056E-05 +7.274587E-06 +4.743056E-05 +1.921864E-04 
 +4.792987E-03 +2.166696E-05 +1.722752E-05 +2.166696E-05 -1.063878E-04 +1.627168E-06 +1.722752E-05 +1.627168E-06 +1.917174E-04 
 +5.225531E-03 -5.206328E-05 +2.600920E-05 -5.206328E-05 -2.182896E-04 -1.390178E-05 +2.600920E-05 -1.390178E-05 +9.486942E-05 
 +5.056436E-03 -1.604743E-04 +1.195898E-04 -1.604743E-04 -1.353782E-04 +7.396931E-06 +1.195898E-04 +7.396931E-06 +2.611879E-05 
 +4.920042E-03 -1.973267E-04 +1.644646E-04 -1.973267E-04 -1.065015E-04 +4.009133E-05 +1.644646E-04 +4.009133E-05 +1.078084E-05 
 +5.000363E-03 -9.807561E-05 +1.297188E-04 -9.807561E-05 -1.488337E-04 +1.164786E-05 +1.297188E-04 +1.164786E-05 -1.896012E-05 
 +5.022230E-03 -2.739205E-05 +9.675507E-05 -2.739205E-05 -1.471657E-04 -4.204637E-05 +9.675507E-05 -4.204637E-05 +3.556861E-07 
 +4.902971E-03 +1.544656E-04 +8.948311E-05 +1.544656E-04 -1.435479E-04 -1.260059E-04 +8.948311E-05 -1.260059E-04 +1.548752E-04 
 +4.981943E-03 +1.673075E-04 +1.125008E-04 +1.673075E-04 -2.113633E-04 -2.461060E-04 +1.125008E-04 -2.461060E-04 +2.514589E-04 
 +4.960886E-03 +1.622125E-04 +1.095805E-04 +1.622125E-04 -2.159850E-04 -2.086983E-04 +1.095805E-04 -2.086983E-04 +1.579609E-04 
 +5.027673E-03 +1.602038E-04 -2.965903E-05 +1.602038E-04 -1.056746E-04 -2.315211E-05 -2.965903E-05 -2.315211E-05 -1.320666E-05 
 +5.113841E-03 +1.578213E-04 -6.610267E-05 +1.578213E-04 -3.814950E-05 +4.372356E-05 -6.610267E-05 +4.372356E-05 -1.316118E-04 
 +5.127806E-03 +4.331078E-05 -1.808750E-04 +4.331078E-05 -8.129661E-05 +7.441204E-06 -1.808750E-04 +7.441204E-06 -1.759290E-04 
 +5.140566E-03 -4.194359E-05 -1.451043E-04 -4.194359E-05 -9.949050E-05 -1.773178E-06 -1.451043E-04 -1.773178E-06 -1.667067E-04 
 +5.165108E-03 -1.253049E-04 -6.712201E-06 -1.253049E-04 -4.229433E-05 -7.957451E-05 -6.712201E-06 -7.957451E-05 -1.772168E-04 
 +5.118066E-03 -1.607994E-04 -1.349274E-05 -1.607994E-04 +4.746688E-05 -1.023335E-04 -1.349274E-05 -1.023335E-04 -1.097241E-04 
 +5.108485E-03 -4.323065E-05 -8.361758E-05 -4.323065E-05 +1.778331E-05 -2.545115E-04 -8.361758E-05 -2.545115E-04 -9.826192E-05 
 +5.136827E-03 -1.363765E-04 -1.104726E-04 -1.363765E-04 -4.369998E-05 -3.331786E-04 -1.104726E-04 -3.331786E-04 -9.850094E-05 
 +5.125460E-03 -1.058042E-04 -6.717893E-05 -1.058042E-04 -3.041477E-05 -3.422750E-04 -6.717893E-05 -3.422750E-04 -5.717498E-05 
 +5.010085E-03 -1.872256E-04 -6.771847E-05 -1.872256E-04 +6.375541E-05 -2.635871E-04 -6.771847E-05 -2.635871E-04 +3.439708E-06 
 +4.484411E-03 -1.163924E-04 +1.040686E-05 -1.163924E-04 +2.403164E-04 -1.027703E-04 +1.040686E-05 -1.027703E-04 +1.183412E-04 
 +4.474385E-03 -5.510880E-05 +6.216586E-05 -5.510880E-05 +1.433639E-04 +3.816148E-05 +6.216586E-05 +3.816148E-05 +2.058966E-04 
 +4.712220E-03 -3.474912E-05 +2.078884E-05 -3.474912E-05 -1.662730E-04 +4.863147E-05 +2.078884E-05 +4.863147E-05 +1.923495E-04 
 +5.287774E-03 -6.019658E-05 -5.254188E-05 -6.019658E-05 -3.356756E-04 -6.497329E-05 -5.254188E-05 -6.497329E-05 +1.247606E-04 
 +5.153774E-03 -8.417295E-05 +2.416263E-06 -8.417295E-05 -2.667505E-04 -9.444539E-05 +2.416263E-06 -9.444539E-05 +4.728437E-05 
 +4.829551E-03 -1.735718E-04 +1.811498E-04 -1.735718E-04 -2.302959E-05 -3.959238E-05 +1.811498E-04 -3.959238E-05 -6.300964E-05 
 +4.978399E-03 -7.827297E-05 +8.797707E-05 -7.827297E-05 +1.432191E-04 -6.794054E-05 +8.797707E-05 -6.794054E-05 -1.650899E-04 
 +4.989194E-03 +8.399415E-06 +3.588012E-05 +8.399415E-06 +1.900410E-04 -1.308970E-04 +3.588012E-05 -1.308970E-04 -1.240649E-04 
 +4.987839E-03 +9.790053E-05 -1.412277E-05 +9.790053E-05 +2.379693E-05 -1.700750E-04 -1.412277E-05 -1.700750E-04 +5.400623E-05 
 +5.092433E-03 +8.682288E-05 +3.271308E-05 +8.682288E-05 -2.408199E-04 -1.928182E-04 +3.271308E-05 -1.928182E-04 +1.476144E-04 
 +5.109048E-03 +1.802291E-04 +1.447573E-04 +1.802291E-04 -3.053608E-04 -1.694175E-04 +1.447573E-04 -1.694175E-04 +2.088077E-04 
 +4.826056E-03 +2.083566E-04 -9.300300E-05 +2.083566E-04 -1.846830E-04 -1.182506E-04 -9.300300E-05 -1.182506E-04 +2.536214E-04 
 +4.938708E-03 +1.576791E-04 -8.935007E-05 +1.576791E-04 -1.373940E-04 -9.347426E-05 -8.935007E-05 -9.347426E-05 +1.795398E-04 
 +5.113250E-03 +9.115605E-05 -1.031798E-04 +9.115605E-05 -2.033014E-04 -3.233655E-05 -1.031798E-04 -3.233655E-05 +4.324528E-05 
 +5.136959E-03 +5.051790E-05 -8.475661E-05 +5.051790E-05 -1.949306E-04 -3.088311E-05 -8.475661E-05 -3.088311E-05 -1.317258E-04 
 +5.160704E-03 -6.514084E-05 +2.369921E-05 -6.514084E-05 -9.490779E-05 -1.098145E-04 +2.369921E-05 -1.098145E-04 -2.251174E-04 
 +5.082523E-03 -1.288280E-04 -5.181911E-05 -1.288280E-04 +2.549475E-05 -1.622080E-04 -5.181911E-05 -1.622080E-04 -1.424198E-04 
 +5.166628E-03 -9.102741E-05 -1.241667E-04 -9.102741E-05 -5.275956E-05 -2.762327E-04 -1.241667E-04 -2.762327E-04 -1.222609E-04 
 +5.125795E-03 -1.145105E-04 -1.773161E-04 -1.145105E-04 -1.573285E-04 -3.400387E-04 -1.773161E-04 -3.400387E-04 -8.733485E-05 
 +5.106836E-03 -1.493639E-04 -5.928503E-05 -1.493639E-04 -1.007222E-04 -3.010579E-04 -5.928503E-05 -3.010579E-04 +1.657730E-06 
 +5.135162E-03 -2.572949E-04 +3.115453E-05 -2.572949E-04 -3.627284E-05 -1.601768E-04 +3.115453E-05 -1.601768E-04 +8.838202E-05 
 +4.674853E-03 -1.882556E-04 +1.164873E-04 -1.882556E-04 +7.896887E-05 +4.786100E-05 +1.164873E-04 +4.786100E-05 +1.663293E-04 
 +4.539675E-03 -1.104102E-04 +3.875677E-05 -1.104102E-04 +1.464676E-04 +2.086250E-04 +3.875677E-05 +2.086250E-04 +1.679412E-04 
 +4.599379E-03 -8.930929E-06 -4.967334E-05 -8.930929E-06 +1.786675E-05 +1.813728E-04 -4.967334E-05 +1.813728E-04 +1.025856E-04 
 +5.146678E-03 -4.971594E-05 -6.041766E-05 -4.971594E-05 -2.461526E-04 +5.694395E-06 -6.041766E-05 +5.694395E-06 +4.466570E-05 
 +5.084762E-03 -2.382169E-05 -3.506867E-05 -2.382169E-05 -2.421354E-04 -6.995722E-05 -3.506867E-05 -6.995722E-05 -5.160824E-05 
 +4.873281E-03 -1.256200E-04 +1.022397E-04 -1.256200E-04 +6.937080E-06 -5.787235E-05 +1.022397E-04 -5.787235E-05 -1.614941E-04 
 +5.010939E-03 -3.916206E-05 +2.485336E-05 -3.916206E-05 +1.701245E-04 -7.672867E-05 +2.485336E-05 -7.672867E-05 -1.910842E-04 
 +4.999960E-03 +6.215676E-06 +5.339599E-06 +6.215676E-06 +1.648097E-04 -7.140881E-05 +5.339599E-06 -7.140881E-05 -1.470053E-04 
 +5.050336E-03 +3.139241E-05 -1.664301E-05 +3.139241E-05 +9.988698E-05 -3.847890E-05 -1.664301E-05 -3.847890E-05 -8.148047E-05 
 +5.099570E-03 +3.486165E-05 +1.254831E-05 +3.486165E-05 +7.538673E-05 -6.501897E-05 +1.254831E-05 -6.501897E-05 -5.286108E-05 
 +5.152406E-03 +7.870782E-05 +5.058897E-05 +7.870782E-05 +5.228036E-07 -1.133802E-04 +5.058897E-05 -1.133802E-04 +3.575009E-05 
 +4.789594E-03 +1.659435E-04 -1.561996E-04 +1.659435E-04 -1.355635E-04 -3.431123E-05 -1.561996E-04 -3.431123E-05 +1.895533E-04 
 +4.940461E-03 +1.917102E-04 -7.696892E-05 +1.917102E-04 -2.495786E-04 +2.923280E-05 -7.696892E-05 +2.923280E-05 +2.291603E-04 
 +5.031181E-03 +1.743608E-04 -3.200767E-05 +1.743608E-04 -2.272767E-04 +1.763240E-05 -3.200767E-05 +1.763240E-05 +1.276129E-04 
 +5.023829E-03 +8.346928E-05 -1.141588E-04 +8.346928E-05 -1.277609E-04 -3.418003E-05 -1.141588E-04 -3.418003E-05 -4.547006E-05 
 +5.098975E-03 -3.068252E-05 +1.241970E-05 -3.068252E-05 -1.595563E-05 -1.449427E-04 +1.241970E-05 -1.449427E-04 -1.897919E-04 
 +5.087866E-03 -9.617346E-05 -6.675410E-06 -9.617346E-05 +8.428182E-05 -2.159495E-04 -6.675410E-06 -2.159495E-04 -1.709322E-04 
 +5.151519E-03 -5.075119E-05 -4.214500E-05 -5.075119E-05 -1.726740E-04 -1.303066E-04 -4.214500E-05 -1.303066E-04 -3.840720E-05 
 +5.017492E-03 -7.706902E-05 -1.132702E-04 -7.706902E-05 -2.060260E-05 -1.695546E-04 -1.132702E-04 -1.695546E-04 -3.222612E-05 
 +5.069028E-03 -1.504648E-04 -3.725833E-05 -1.504648E-04 -5.286782E-05 -2.207119E-04 -3.725833E-05 -2.207119E-04 +3.191828E-05 
 +5.052908E-03 -2.463840E-04 +9.823516E-05 -2.463840E-04 -7.563934E-05 -1.789417E-04 +9.823516E-05 -1.789417E-04 +2.890306E-05 
 +4.938061E-03 -2.314061E-04 +1.008066E-04 -2.314061E-04 -6.203306E-05 -3.511957E-05 +1.008066E-04 -3.511957E-05 -4.217309E-05 
 +4.831478E-03 -2.118251E-04 -3.880914E-07 -2.118251E-04 -3.921976E-05 +4.603855E-05 -3.880914E-07 +4.603855E-05 -5.081846E-05 
 +4.731133E-03 -6.599972E-06 -7.197856E-05 -6.599972E-06 +1.045213E-04 +7.544195E-05 -7.197856E-05 +7.544195E-05 -8.205428E-05 
 +4.856128E-03 +4.655373E-05 -2.757349E-05 +4.655373E-05 +3.396927E-04 +3.877798E-05 -2.757349E-05 +3.877798E-05 -1.559825E-04 
 +4.873173E-03 +1.383766E-04 -1.115534E-05 +1.383766E-04 +3.860571E-04 -8.469394E-06 -1.115534E-05 -8.469394E-06 -2.382233E-04 
 +4.975413E-03 +1.056871E-05 -3.137066E-05 +1.056871E-05 +2.985249E-04 -1.180053E-05 -3.137066E-05 -1.180053E-05 -2.472975E-04 
 +5.009468E-03 -9.359490E-06 -5.604695E-05 -9.359490E-06 +2.127802E-04 -9.011597E-06 -5.604695E-05 -9.011597E-06 -1.980809E-04 
 +5.022675E-03 -2.239588E-05 -2.411878E-05 -2.239588E-05 +1.511476E-04 -1.160823E-05 -2.411878E-05 -1.160823E-05 -1.759995E-04 
 +5.043889E-03 -2.511561E-05 -3.766732E-06 -2.511561E-05 +1.169632E-04 -2.860723E-05 -3.766732E-06 -2.860723E-05 -1.505725E-04 
 +5.061456E-03 -3.131391E-05 +5.940061E-07 -3.131391E-05 +9.695995E-05 -3.615544E-05 +5.940061E-07 -3.615544E-05 -9.575918E-05 
 +5.080859E-03 -4.955371E-05 -2.747999E-05 -4.955371E-05 +3.846383E-05 -5.931993E-05 -2.747999E-05 -5.931993E-05 -5.527122E-05 
 +5.008714E-03 +6.542901E-05 -1.199503E-04 +6.542901E-05 -1.129691E-04 -5.236317E-05 -1.199503E-04 -5.236317E-05 +3.506671E-06 
 +4.934326E-03 +1.577091E-04 -4.751884E-05 +1.577091E-04 -1.638172E-04 +8.927924E-07 -4.751884E-05 +8.927924E-07 +1.279019E-04 
 +4.873574E-03 +1.688181E-04 +1.003487E-06 +1.688181E-04 -9.713358E-05 +1.886518E-05 +1.003487E-06 +1.886518E-05 +1.365162E-04 
 +4.920073E-03 +9.420071E-05 -8.019200E-05 +9.420071E-05 -2.230748E-05 +4.521955E-05 -8.019200E-05 +4.521955E-05 +3.065880E-05 
 +5.093562E-03 -1.514738E-05 -2.146668E-05 -1.514738E-05 -1.185699E-04 +8.143700E-05 -2.146668E-05 +8.143700E-05 -7.893320E-05 
 +5.193407E-03 -1.688294E-05 -1.890686E-06 -1.688294E-05 -2.976837E-04 -1.137178E-05 -1.890686E-06 -1.137178E-05 -7.950406E-05 
 +5.106011E-03 -3.280738E-05 -5.588935E-05 -3.280738E-05 -2.868495E-04 -2.205399E-05 -5.588935E-05 -2.205399E-05 +8.370488E-06 
 +5.037887E-03 -3.435575E-05 -4.513961E-05 -3.435575E-05 -1.800153E-04 -1.796766E-04 -4.513961E-05 -1.796766E-04 -3.108461E-05 
 +5.010877E-03 -7.724343E-05 +4.890420E-05 -7.724343E-05 -4.449526E-05 -2.180642E-04 +4.890420E-05 -2.180642E-04 -3.878843E-05 
 +5.011171E-03 -1.472626E-04 +1.105942E-04 -1.472626E-04 -4.660583E-06 -1.262298E-04 +1.105942E-04 -1.262298E-04 -1.580738E-04 
 +5.027286E-03 -1.238691E-04 +2.419021E-05 -1.238691E-04 +9.347429E-06 -4.440526E-05 +2.419021E-05 -4.440526E-05 -2.446678E-04 
 +5.015152E-03 -2.077116E-04 +3.374174E-06 -2.077116E-04 +5.356301E-05 +3.159401E-05 +3.374174E-06 +3.159401E-05 -2.105951E-04 
 +4.872807E-03 -7.923466E-05 -6.458724E-05 -7.923466E-05 +1.627892E-04 +4.414435E-05 -6.458724E-05 +4.414435E-05 -2.036079E-04 
 +4.787244E-03 -4.001533E-05 -5.078570E-05 -4.001533E-05 +3.051140E-04 -3.777344E-05 -5.078570E-05 -3.777344E-05 -2.387014E-04 
 +4.797248E-03 +1.196675E-04 -3.503830E-05 +1.196675E-04 +3.956173E-04 -9.250207E-05 -3.503830E-05 -9.250207E-05 -2.996663E-04 
 +4.975208E-03 +1.827865E-05 -6.774570E-05 +1.827865E-05 +3.866182E-04 -3.822881E-05 -6.774570E-05 -3.822881E-05 -3.281898E-04 
 +4.968735E-03 -1.484639E-05 -1.029213E-04 -1.484639E-05 +3.298134E-04 -1.957588E-05 -1.029213E-04 -1.957588E-05 -3.006739E-04 
 +4.971867E-03 -4.727359E-05 -4.534726E-05 -4.727359E-05 +2.527972E-04 -6.395698E-05 -4.534726E-05 -6.395698E-05 -2.472957E-04 
 +4.995676E-03 -6.725955E-05 +1.299896E-05 -6.725955E-05 +1.625320E-04 -6.002841E-05 +1.299896E-05 -6.002841E-05 -1.810048E-04 
 +5.026416E-03 -5.169376E-05 +7.950681E-06 -5.169376E-05 +9.131615E-05 -4.107876E-05 +7.950681E-06 -4.107876E-05 -1.427875E-04 
 +5.070176E-03 -7.392367E-05 -4.539704E-05 -7.392367E-05 +1.430622E-05 -3.050477E-05 -4.539704E-05 -3.050477E-05 -1.651707E-04 
 +5.095933E-03 -4.874210E-05 -4.129822E-05 -4.874210E-05 -6.475387E-05 +6.998161E-05 -4.129822E-05 +6.998161E-05 -1.142635E-04 
 +4.936645E-03 +7.396961E-05 -3.584474E-05 +7.396961E-05 -1.027255E-04 +1.694330E-04 -3.584474E-05 +1.694330E-04 +6.803318E-05 
 +4.851785E-03 +1.567661E-04 -4.923236E-05 +1.567661E-04 -1.387366E-04 +8.415367E-05 -4.923236E-05 +8.415367E-05 +1.519744E-04 
 +4.962238E-03 +1.345320E-04 -4.368482E-05 +1.345320E-04 -3.567615E-04 +6.315897E-05 -4.368482E-05 +6.315897E-05 +1.423542E-04 
 +5.078421E-03 +3.254958E-05 -4.155419E-05 +3.254958E-05 -5.012615E-04 +1.211585E-04 -4.155419E-05 +1.211585E-04 +9.762163E-05 
 +5.139502E-03 -1.887643E-05 -6.367423E-05 -1.887643E-05 -3.830447E-04 +7.538734E-05 -6.367423E-05 +7.538734E-05 +5.557242E-05 
 +5.073909E-03 +1.888964E-05 -6.939117E-05 +1.888964E-05 -3.243101E-04 +9.540930E-05 -6.939117E-05 +9.540930E-05 +3.706081E-05 
 +5.053214E-03 -2.156560E-05 +3.884150E-05 -2.156560E-05 -3.461878E-04 +1.411521E-04 +3.884150E-05 +1.411521E-04 +3.936615E-05 
 +5.013290E-03 -6.704785E-05 +1.550571E-04 -6.704785E-05 -2.773843E-04 +1.072693E-04 +1.550571E-04 +1.072693E-04 +9.840096E-06 
 +5.040474E-03 -1.121140E-04 +9.553562E-05 -1.121140E-04 -5.632155E-05 -2.873280E-05 +9.553562E-05 -2.873280E-05 -1.759799E-04 
 +5.060745E-03 -1.162107E-04 -4.665245E-06 -1.162107E-04 +9.664579E-05 -7.172001E-05 -4.665245E-06 -7.172001E-05 -2.553592E-04 
 +5.005003E-03 -2.016407E-04 +7.517082E-06 -2.016407E-04 +1.661691E-04 -2.032547E-05 +7.517082E-06 -2.032547E-05 -2.026114E-04 
 +4.857238E-03 -1.004799E-04 -8.065271E-05 -1.004799E-04 +1.672529E-04 +1.455893E-05 -8.065271E-05 +1.455893E-05 -1.678294E-04 
 +4.892806E-03 -2.188893E-05 -1.347348E-04 -2.188893E-05 +1.874492E-04 -1.525345E-05 -1.347348E-04 -1.525345E-05 -1.564732E-04 
 +4.875343E-03 +8.992992E-05 -1.507862E-04 +8.992992E-05 +2.453287E-04 -1.287934E-04 -1.507862E-04 -1.287934E-04 -1.731564E-04 
 +4.960034E-03 -1.114644E-05 -9.210964E-05 -1.114644E-05 +2.620349E-04 -2.057688E-04 -9.210964E-05 -2.057688E-04 -2.648719E-04 
 +4.956582E-03 -1.527326E-06 -8.110826E-05 -1.527326E-06 +3.324581E-04 -1.846732E-04 -8.110826E-05 -1.846732E-04 -2.777132E-04 
 +4.900733E-03 -8.667812E-05 -3.645314E-05 -8.667812E-05 +3.121878E-04 -1.840010E-04 -3.645314E-05 -1.840010E-04 -2.012443E-04 
 +4.931003E-03 -9.883909E-05 +3.800029E-05 -9.883909E-05 +1.563250E-04 -2.382110E-04 +3.800029E-05 -2.382110E-04 -1.968613E-04 
 +5.024049E-03 -7.782215E-05 +2.033721E-05 -7.782215E-05 +4.288582E-06 -2.655590E-04 +2.033721E-05 -2.655590E-04 -2.193088E-04 
 +5.072858E-03 -5.771925E-05 -1.561646E-05 -5.771925E-05 -2.874494E-05 -2.585672E-04 -1.561646E-05 -2.585672E-04 -2.659277E-04 
 +5.038665E-03 -3.710292E-05 +1.916459E-05 -3.710292E-05 +8.362588E-06 -2.364822E-04 +1.916459E-05 -2.364822E-04 -2.394110E-04 
 +4.998926E-03 +6.871499E-05 -1.467324E-05 +6.871499E-05 -8.326837E-05 -1.300690E-04 -1.467324E-05 -1.300690E-04 -6.010977E-05 
 +4.965947E-03 +1.189426E-04 -1.042889E-04 +1.189426E-04 -3.024325E-04 +6.340291E-06 -1.042889E-04 +6.340291E-06 +1.050424E-04 
 +5.028458E-03 +8.314416E-05 -7.011825E-05 +8.314416E-05 -3.658008E-04 +5.674566E-05 -7.011825E-05 +5.674566E-05 +1.594459E-04 
 +4.952614E-03 +4.202783E-05 -5.568237E-05 +4.202783E-05 -2.645080E-04 +4.596168E-05 -5.568237E-05 +4.596168E-05 +1.382050E-04 
 +5.036370E-03 +1.434385E-05 -5.788860E-05 +1.434385E-05 -2.747184E-04 +5.498586E-05 -5.788860E-05 +5.498586E-05 +9.550218E-05 
 +5.021822E-03 +4.028523E-05 -2.570167E-05 +4.028523E-05 -2.992167E-04 +7.913493E-05 -2.570167E-05 +7.913493E-05 +1.753094E-04 
 +4.957405E-03 -4.111241E-06 +7.794772E-05 -4.111241E-06 -3.324725E-04 +1.480949E-04 +7.794772E-05 +1.480949E-04 +2.952737E-04 
 +4.982008E-03 +9.016204E-06 +9.125896E-05 +9.016204E-06 -2.735479E-04 +1.196584E-04 +9.125896E-05 +1.196584E-04 +1.701527E-04 
 +5.089786E-03 -2.584974E-05 +2.020075E-05 -2.584974E-05 -8.258779E-05 -7.020286E-05 +2.020075E-05 -7.020286E-05 -1.088896E-04 
 +5.085578E-03 -1.239218E-04 -4.009686E-05 -1.239218E-04 +1.000311E-04 -1.891109E-04 -4.009686E-05 -1.891109E-04 -1.808706E-04 
 +5.004908E-03 -2.054612E-04 -3.334879E-05 -2.054612E-04 +1.681733E-04 -1.760313E-04 -3.334879E-05 -1.760313E-04 -6.822796E-05 
 +4.922416E-03 -1.340220E-04 -9.257249E-05 -1.340220E-04 +1.064728E-04 -1.446208E-04 -9.257249E-05 -1.446208E-04 -1.565256E-05 
 +4.925503E-03 +1.110722E-05 -1.080532E-04 +1.110722E-05 -2.740090E-05 -6.955143E-05 -1.080532E-04 -6.955143E-05 -6.621739E-05 
 +4.924050E-03 +2.838825E-05 -1.218366E-04 +2.838825E-05 -1.634674E-04 +9.821856E-05 -1.218366E-04 +9.821856E-05 -1.192807E-05 
 +4.932807E-03 -6.017298E-05 -8.137885E-05 -6.017298E-05 -2.331539E-04 +1.930052E-04 -8.137885E-05 +1.930052E-04 +2.358220E-05 
 +4.942018E-03 -9.175292E-05 -3.927930E-05 -9.175292E-05 -2.777574E-04 +1.758184E-04 -3.927930E-05 +1.758184E-04 +2.514476E-05 
 +4.904808E-03 -1.489196E-04 -5.168275E-05 -1.489196E-04 -2.255213E-04 +7.556165E-05 -5.168275E-05 +7.556165E-05 -1.331123E-05 
 +4.922311E-03 -1.518628E-04 -1.617678E-06 -1.518628E-04 -1.083027E-04 -1.214991E-04 -1.617678E-06 -1.214991E-04 -1.804922E-04 
 +5.021250E-03 -9.970192E-05 +5.221223E-05 -9.970192E-05 -9.723134E-05 -2.306107E-04 +5.221223E-05 -2.306107E-04 -2.338243E-04 
 +5.047770E-03 -1.017925E-05 +2.099818E-05 -1.017925E-05 -4.907423E-05 -2.211224E-04 +2.099818E-05 -2.211224E-04 -2.390210E-04 
 +5.030935E-03 -1.751190E-05 +1.898033E-05 -1.751190E-05 +2.574757E-05 -2.014159E-04 +1.898033E-05 -2.014159E-04 -2.739605E-04 
 +5.026955E-03 -5.352212E-05 +7.172903E-05 -5.352212E-05 -1.026181E-04 -7.946943E-05 +7.172903E-05 -7.946943E-05 -1.914810E-04 
 +5.028715E-03 -8.110716E-06 -5.823637E-05 -8.110716E-06 -2.997158E-04 +9.164641E-05 -5.823637E-05 +9.164641E-05 -4.244365E-05 
 +4.988975E-03 +5.832052E-05 -1.142457E-04 +5.832052E-05 -2.810044E-04 +7.912768E-05 -1.142457E-04 +7.912768E-05 +4.601433E-05 
 +4.965592E-03 +1.374367E-05 -4.476443E-05 +1.374367E-05 -2.489626E-04 +2.418610E-06 -4.476443E-05 +2.418610E-06 +7.605987E-05 
 +5.012635E-03 +2.003289E-05 -4.976535E-05 +2.003289E-05 -2.776331E-04 +2.956489E-05 -4.976535E-05 +2.956489E-05 +9.359554E-05 
 +4.988754E-03 +1.537841E-05 +4.600776E-05 +1.537841E-05 -2.824921E-04 +1.702029E-04 +4.600776E-05 +1.702029E-04 +1.828424E-04 
 +4.935811E-03 +5.373594E-05 +3.508706E-06 +5.373594E-05 -1.919402E-04 +2.013740E-04 +3.508706E-06 +2.013740E-04 +2.752126E-04 
 +4.968018E-03 +1.156403E-04 -3.748007E-05 +1.156403E-04 -1.888310E-04 +5.886630E-05 -3.748007E-05 +5.886630E-05 +1.187022E-04 
 +5.064727E-03 +1.224764E-04 -8.779050E-05 +1.224764E-04 -3.178926E-04 -6.693126E-05 -8.779050E-05 -6.693126E-05 -1.891284E-05 
 +5.067292E-03 -4.760326E-05 -7.278473E-05 -4.760326E-05 -4.158094E-04 -5.908344E-05 -7.278473E-05 -5.908344E-05 +1.033542E-04 
 +5.018370E-03 -1.633578E-04 -9.901093E-05 -1.633578E-04 -4.468916E-04 -2.970260E-05 -9.901093E-05 -2.970260E-05 +2.113946E-04 
 +4.978207E-03 -1.503109E-04 -8.676342E-05 -1.503109E-04 -3.614008E-04 -4.414211E-05 -8.676342E-05 -4.414211E-05 +1.149971E-04 
 +4.942728E-03 -5.033910E-05 -5.525643E-05 -5.033910E-05 -2.634836E-04 +2.287845E-05 -5.525643E-05 +2.287845E-05 +5.278664E-05 
 +4.923690E-03 -5.169999E-05 -3.169411E-05 -5.169999E-05 -2.930768E-04 +1.261565E-04 -3.169411E-05 +1.261565E-04 +1.871831E-04 
 +4.897910E-03 -5.572789E-05 -7.366224E-06 -5.572789E-05 -3.252169E-04 +1.246236E-04 -7.366224E-06 +1.246236E-04 +2.772103E-04 
 +4.895941E-03 -9.754971E-05 -1.737878E-05 -9.754971E-05 -2.740631E-04 +1.087327E-04 -1.737878E-05 +1.087327E-04 +2.518213E-04 
 +4.935819E-03 -1.168284E-04 -2.781563E-05 -1.168284E-04 -2.533089E-04 +1.299712E-04 -2.781563E-05 +1.299712E-04 +9.615494E-05 
 +4.979158E-03 -1.781095E-04 -3.243906E-05 -1.781095E-04 -2.813563E-04 +3.835425E-05 -3.243906E-05 +3.835425E-05 -5.705307E-05 
 +5.005467E-03 -1.062745E-04 +2.939500E-05 -1.062745E-04 -2.424571E-04 -1.730315E-04 +2.939500E-05 -1.730315E-04 -1.032787E-04 
 +5.028949E-03 +1.381690E-05 +1.182097E-05 +1.381690E-05 -1.408773E-04 -2.815793E-04 +1.182097E-05 -2.815793E-04 -1.721988E-04 
 +5.050570E-03 -2.525418E-06 +2.792690E-05 -2.525418E-06 -6.352229E-05 -2.604678E-04 +2.792690E-05 -2.604678E-04 -2.275578E-04 
 +5.026227E-03 -1.030321E-04 +6.973494E-05 -1.030321E-04 +3.010973E-05 -2.757360E-04 +6.973494E-05 -2.757360E-04 -2.452864E-04 
 +5.010374E-03 -7.091307E-05 -1.180446E-05 -7.091307E-05 +5.108849E-05 -2.485796E-04 -1.180446E-05 -2.485796E-04 -1.907073E-04 
 +4.996772E-03 +3.379997E-05 -9.098635E-05 +3.379997E-05 -1.268327E-04 -1.119195E-04 -9.098635E-05 -1.119195E-04 -7.504880E-05 
 +5.037195E-03 +1.327636E-05 -4.645647E-05 +1.327636E-05 -2.459605E-04 -3.128326E-05 -4.645647E-05 -3.128326E-05 +1.945044E-05 
 +4.986277E-03 -2.091849E-05 +2.647347E-05 -2.091849E-05 -2.659013E-04 +3.346790E-05 +2.647347E-05 +3.346790E-05 +7.867386E-05 
 +4.982613E-03 +3.361480E-05 +2.244555E-05 +3.361480E-05 -6.215754E-05 -2.179475E-04 +2.244555E-05 -2.179475E-04 +5.844584E-05 
 +5.006558E-03 +7.035370E-05 +1.136452E-05 +7.035370E-05 -7.099597E-05 -2.862033E-04 +1.136452E-05 -2.862033E-04 +5.257177E-05 
 +5.049433E-03 +7.393753E-05 -1.443535E-05 +7.393753E-05 -1.610339E-04 -2.051410E-04 -1.443535E-05 -2.051410E-04 +5.308855E-05 
 +5.021211E-03 +9.537394E-05 -1.149619E-04 +9.537394E-05 -2.899427E-04 -8.141484E-05 -1.149619E-04 -8.141484E-05 +1.491323E-04 
 +5.014674E-03 -1.880779E-05 -1.440461E-04 -1.880779E-05 -4.166148E-04 -9.201452E-07 -1.440461E-04 -9.201452E-07 +3.320944E-04 
 +4.983973E-03 -5.081373E-05 -1.071494E-04 -5.081373E-05 -3.605711E-04 +1.997425E-05 -1.071494E-04 +1.997425E-05 +3.277147E-04 
 +4.964902E-03 +6.898045E-06 -2.937678E-05 +6.898045E-06 -1.370200E-04 +2.922954E-05 -2.937678E-05 +2.922954E-05 +1.185990E-04 
 +4.925415E-03 -7.476306E-05 -6.331975E-05 -7.476306E-05 -1.265866E-04 +5.624369E-05 -6.331975E-05 +5.624369E-05 +1.177057E-04 
 +4.919927E-03 -1.251535E-04 -6.767124E-05 -1.251535E-04 -3.063029E-04 +1.148381E-04 -6.767124E-05 +1.148381E-04 +2.768713E-04 
 +4.898270E-03 -4.963573E-05 +1.188152E-05 -4.963573E-05 -3.483988E-04 +1.156701E-04 +1.188152E-05 +1.156701E-04 +3.335106E-04 
 +4.893905E-03 -4.462780E-05 +1.749449E-05 -4.462780E-05 -2.919092E-04 +8.649356E-05 +1.749449E-05 +8.649356E-05 +2.755745E-04 
 +4.959157E-03 -9.345154E-05 +3.938102E-05 -9.345154E-05 -2.972946E-04 +1.243966E-04 +3.938102E-05 +1.243966E-04 +9.403672E-05 
 +4.969600E-03 -1.294883E-04 +2.744062E-06 -1.294883E-04 -2.819950E-04 +2.887879E-05 +2.744062E-06 +2.887879E-05 +2.546066E-05 
 +4.978554E-03 -6.819317E-05 -7.749604E-07 -6.819317E-05 -1.906748E-04 -2.325786E-04 -7.749604E-07 -2.325786E-04 +4.039536E-05 
 +5.019303E-03 +2.841432E-05 -3.935168E-05 +2.841432E-05 -1.497458E-04 -3.674859E-04 -3.935168E-05 -3.674859E-04 -8.687554E-05 
 +5.069302E-03 +2.159082E-05 +4.847589E-06 +2.159082E-05 -7.811356E-05 -3.705282E-04 +4.847589E-06 -3.705282E-04 -2.323049E-04 
 +5.052444E-03 -4.359756E-05 +2.342607E-05 -4.359756E-05 +7.242771E-05 -3.429278E-04 +2.342607E-05 -3.429278E-04 -2.887513E-04 
 +5.027199E-03 -1.086619E-04 +3.750584E-05 -1.086619E-04 +6.943396E-05 -2.717470E-04 +3.750584E-05 -2.717470E-04 -3.045002E-04 
 +5.030178E-03 -4.891325E-05 +4.828629E-05 -4.891325E-05 -1.088288E-04 -1.240242E-04 +4.828629E-05 -1.240242E-04 -2.459180E-04 
 +5.013846E-03 +1.142166E-05 +9.083431E-06 +1.142166E-05 -2.129960E-04 +4.410451E-05 +9.083431E-06 +4.410451E-05 -7.239845E-05 
 +4.957771E-03 -2.423478E-05 -1.295919E-05 -2.423478E-05 -1.624908E-04 -6.755278E-06 -1.295919E-05 -6.755278E-06 +4.919860E-05 
 +5.006465E-03 +4.323482E-05 -3.072687E-05 +4.323482E-05 -8.622681E-05 -3.573300E-04 -3.072687E-05 -3.573300E-04 +2.964400E-05 
 +5.078121E-03 +6.586368E-05 +8.470700E-05 +6.586368E-05 -1.817112E-04 -3.159682E-04 +8.470700E-05 -3.159682E-04 +5.770592E-05 
 +5.085728E-03 +6.081605E-05 +9.895975E-05 +6.081605E-05 -1.792397E-04 -3.277746E-04 +9.895975E-05 -3.277746E-04 +8.613541E-05 
 +5.043242E-03 -5.852917E-06 -1.900452E-05 -5.852917E-06 -2.238518E-04 -2.817680E-04 -1.900452E-05 -2.817680E-04 +2.350549E-04 
 +4.967318E-03 -3.155901E-05 -1.405671E-04 -3.155901E-05 -2.536343E-04 -1.429780E-04 -1.405671E-04 -1.429780E-04 +3.511332E-04 
 +4.943024E-03 +4.455640E-05 -6.452771E-05 +4.455640E-05 -1.126480E-04 -6.115154E-05 -6.452771E-05 -6.115154E-05 +1.917963E-04 
 +4.974883E-03 +7.278905E-05 -4.629707E-05 +7.278905E-05 -2.451558E-05 -3.162069E-05 -4.629707E-05 -3.162069E-05 +4.487355E-05 
 +4.922889E-03 -6.869223E-05 -1.143032E-04 -6.869223E-05 -2.993043E-05 -2.983584E-05 -1.143032E-04 -2.983584E-05 +5.768209E-05 
 +4.905410E-03 -8.116302E-05 -8.142235E-05 -8.116302E-05 -7.479426E-05 -1.665893E-05 -8.142235E-05 -1.665893E-05 +1.488688E-04 
 +4.871821E-03 -4.920900E-07 -1.428939E-05 -4.920900E-07 -2.115596E-04 +3.642759E-05 -1.428939E-05 +3.642759E-05 +2.879810E-04 
 +4.919690E-03 +1.297037E-06 +4.050155E-05 +1.297037E-06 -3.354962E-04 +6.885108E-05 +4.050155E-05 +6.885108E-05 +2.628480E-04 
 +4.946894E-03 -7.340522E-05 +7.285138E-05 -7.340522E-05 -3.221349E-04 +1.204610E-04 +7.285138E-05 +1.204610E-04 +9.628486E-05 
 +4.904276E-03 -6.730300E-05 -1.438695E-05 -6.730300E-05 -1.783585E-04 -4.060121E-06 -1.438695E-05 -4.060121E-06 +6.226679E-05 
 +4.931142E-03 -5.838978E-05 -1.099018E-05 -5.838978E-05 -7.701978E-05 -2.964655E-04 -1.099018E-05 -2.964655E-04 +1.139882E-04 
 +4.982289E-03 -1.688722E-06 +1.236822E-05 -1.688722E-06 -6.606031E-05 -4.316750E-04 +1.236822E-05 -4.316750E-04 +4.175596E-05 
 +5.127300E-03 +3.889445E-05 -4.147059E-06 +3.889445E-05 -6.927183E-05 -3.842958E-04 -4.147059E-06 -3.842958E-04 -1.370256E-04 
 +5.127047E-03 +4.615183E-05 -1.213444E-06 +4.615183E-05 -1.673762E-05 -3.312941E-04 -1.213444E-06 -3.312941E-04 -2.247262E-04 
 +5.048349E-03 -1.105058E-04 +3.864456E-05 -1.105058E-04 +1.131455E-04 -3.901632E-04 +3.864456E-05 -3.901632E-04 -2.549301E-04 
 +5.008679E-03 -1.166533E-04 +9.819424E-05 -1.166533E-04 +1.910352E-04 -4.891728E-04 +9.819424E-05 -4.891728E-04 -2.617119E-04 
 +4.986875E-03 -4.453009E-05 +5.034467E-05 -4.453009E-05 +1.346692E-04 -5.092417E-04 +5.034467E-05 -5.092417E-04 -1.377040E-04 
 +4.956855E-03 -8.165295E-06 -8.592003E-05 -8.165295E-06 +3.081580E-05 -4.463047E-04 -8.592003E-05 -4.463047E-04 -1.374914E-05 
 +5.025046E-03 +7.221815E-06 -2.818695E-05 +7.221815E-06 -1.617270E-04 -3.883509E-04 -2.818695E-05 -3.883509E-04 +2.051599E-05 
 +5.043587E-03 +5.912853E-05 +9.721133E-05 +5.912853E-05 -2.187128E-04 -4.228587E-04 +9.721133E-05 -4.228587E-04 +6.061061E-05 
 +5.113334E-03 +3.935794E-05 +1.598525E-04 +3.935794E-05 -1.806418E-04 -3.464021E-04 +1.598525E-04 -3.464021E-04 +6.455321E-05 
 +5.063471E-03 -1.186886E-05 +9.639461E-05 -1.186886E-05 -7.629322E-05 -3.060941E-04 +9.639461E-05 -3.060941E-04 +1.812270E-04 
 +4.952183E-03 +1.173220E-05 -3.776117E-05 +1.173220E-05 +1.064643E-04 -2.950048E-04 -3.776117E-05 -2.950048E-04 +2.828242E-04 
 +4.937876E-03 +6.906664E-05 -8.876807E-05 +6.906664E-05 +1.208127E-04 -2.007194E-04 -8.876807E-05 -2.007194E-04 +1.434777E-04 
 +4.988568E-03 +5.586262E-05 -8.640603E-05 +5.586262E-05 +2.694227E-06 -4.365267E-05 -8.640603E-05 -4.365267E-05 +8.022328E-05 
 +4.966198E-03 -7.567101E-05 -1.240543E-04 -7.567101E-05 -4.588668E-05 +1.067829E-04 -1.240543E-04 +1.067829E-04 +1.304860E-04 
 +4.916411E-03 -9.522592E-05 -1.013487E-04 -9.522592E-05 +1.554202E-05 +1.350580E-04 -1.013487E-04 +1.350580E-04 +1.583520E-04 
 +4.884883E-03 -4.449198E-05 -9.482754E-05 -4.449198E-05 -1.042408E-06 +7.644190E-05 -9.482754E-05 +7.644190E-05 +2.378324E-04 
 +4.967493E-03 +2.484598E-05 -3.441001E-05 +2.484598E-05 -1.892949E-04 -1.091877E-05 -3.441001E-05 -1.091877E-05 +2.128013E-04 
 +4.888234E-03 +1.390336E-04 +2.658720E-05 +1.390336E-04 -1.727802E-04 -1.094986E-04 +2.658720E-05 -1.094986E-04 +9.048930E-05 
 +4.877156E-03 +1.244800E-04 -4.344468E-05 +1.244800E-04 -3.621619E-05 -1.708352E-04 -4.344468E-05 -1.708352E-04 +6.919709E-05 
 +4.891647E-03 +1.394422E-04 -1.542829E-05 +1.394422E-04 +2.157925E-05 -1.603581E-04 -1.542829E-05 -1.603581E-04 +8.634078E-05 
 +4.896473E-03 +1.582497E-04 +1.777926E-05 +1.582497E-04 +5.705018E-05 -2.533417E-04 +1.777926E-05 -2.533417E-04 +6.561855E-05 
 +5.097357E-03 +8.705241E-05 -4.323815E-05 +8.705241E-05 -1.660399E-05 -4.199901E-04 -4.323815E-05 -4.199901E-04 -3.335490E-05 
 +5.138714E-03 +5.377810E-05 -4.750792E-05 +5.377810E-05 -5.802216E-05 -4.949475E-04 -4.750792E-05 -4.949475E-04 -1.528291E-04 
 +5.130976E-03 -5.878019E-05 +3.644461E-05 -5.878019E-05 +2.059292E-05 -5.544650E-04 +3.644461E-05 -5.544650E-04 -1.435174E-04 
 +4.975453E-03 -7.207920E-05 +1.012561E-04 -7.207920E-05 +8.904151E-05 -5.436884E-04 +1.012561E-04 -5.436884E-04 -8.817433E-05 
 +4.972440E-03 -5.563293E-05 +5.303887E-05 -5.563293E-05 +6.745055E-05 -4.395894E-04 +5.303887E-05 -4.395894E-04 -1.000399E-04 
 +5.010839E-03 -1.519773E-05 -2.785924E-05 -1.519773E-05 -1.756617E-05 -3.647949E-04 -2.785924E-05 -3.647949E-04 -6.583321E-05 
 +5.038305E-03 -2.374675E-05 +1.506043E-05 -2.374675E-05 -1.060303E-04 -2.824375E-04 +1.506043E-05 -2.824375E-04 -1.856101E-04 
 +4.974402E-03 +9.302990E-05 +9.879270E-05 +9.302990E-05 -8.436855E-05 -2.786255E-04 +9.879270E-05 -2.786255E-04 -1.420015E-04 
 +5.112025E-03 +5.808912E-05 +1.530752E-04 +5.808912E-05 -1.187342E-04 -2.698932E-04 +1.530752E-04 -2.698932E-04 -1.139502E-05 
 +5.055280E-03 +6.346836E-05 +9.371525E-05 +6.346836E-05 -3.338102E-05 -3.025140E-04 +9.371525E-05 -3.025140E-04 +9.008690E-05 
 +4.944815E-03 +3.692221E-05 +5.011143E-06 +3.692221E-05 +1.007003E-04 -2.968597E-04 +5.011143E-06 -2.968597E-04 +1.677763E-04 
 +4.956408E-03 -2.640397E-05 -6.763420E-05 -2.640397E-05 +1.094322E-04 -8.055632E-05 -6.763420E-05 -8.055632E-05 +1.305029E-04 
 +5.011028E-03 -2.458397E-05 -9.140052E-05 -2.458397E-05 +4.033218E-05 +8.649608E-05 -9.140052E-05 +8.649608E-05 +9.112064E-05 
 +4.989722E-03 -7.075618E-05 -1.032163E-04 -7.075618E-05 +4.203196E-05 +9.844224E-05 -1.032163E-04 +9.844224E-05 +1.242732E-04 
 +4.965298E-03 -6.447218E-05 -1.285463E-04 -6.447218E-05 +8.410818E-05 +7.907569E-05 -1.285463E-04 +7.907569E-05 +1.169760E-04 
 +4.959872E-03 -7.509354E-05 -1.528505E-04 -7.509354E-05 +1.110945E-04 +5.189735E-05 -1.528505E-04 +5.189735E-05 +1.073051E-04 
 +4.994131E-03 -9.150986E-05 -1.121224E-04 -9.150986E-05 +1.089612E-04 +1.078908E-05 -1.121224E-04 +1.078908E-05 +8.920421E-05 
 +4.843732E-03 +1.089452E-04 -5.284018E-05 +1.089452E-04 +4.008409E-05 -9.454430E-05 -5.284018E-05 -9.454430E-05 +4.208952E-05 
 +4.895421E-03 +7.412790E-05 -5.059361E-05 +7.412790E-05 +1.663028E-05 -1.894383E-04 -5.059361E-05 -1.894383E-04 +1.305087E-05 
 +4.903326E-03 +1.322846E-04 -2.628314E-05 +1.322846E-04 +5.367338E-05 -2.250053E-04 -2.628314E-05 -2.250053E-04 -2.202560E-05 
 +4.900095E-03 +1.790223E-04 -5.680112E-05 +1.790223E-04 +6.719187E-05 -2.295705E-04 -5.680112E-05 -2.295705E-04 -5.180540E-05 
 +5.001179E-03 +1.929671E-04 -1.178978E-04 +1.929671E-04 +7.609078E-05 -2.010014E-04 -1.178978E-04 -2.010014E-04 -9.605424E-05 
 +5.093256E-03 +2.203378E-04 -5.169680E-05 +2.203378E-04 +5.175921E-05 -1.556545E-04 -5.169680E-05 -1.556545E-04 -1.752668E-04 
 +5.167589E-03 +1.314975E-04 +5.116276E-05 +1.314975E-04 +1.123389E-04 -1.260210E-04 +5.116276E-05 -1.260210E-04 -1.750698E-04 
 +4.947738E-03 -5.605268E-05 +1.004661E-04 -5.605268E-05 +1.616810E-04 -2.166939E-04 +1.004661E-04 -2.166939E-04 -1.368571E-04 
 +4.977470E-03 -3.749534E-05 +6.312140E-05 -3.749534E-05 +7.086639E-05 -3.575696E-04 +6.312140E-05 -3.575696E-04 -1.620462E-04 
 +5.007104E-03 -6.139515E-05 +2.783969E-05 -6.139515E-05 -5.994338E-05 -3.542873E-04 +2.783969E-05 -3.542873E-04 -1.680055E-04 
 +5.049522E-03 -6.744735E-05 +9.789243E-05 -6.744735E-05 +2.988088E-04 -3.863369E-05 +9.789243E-05 -3.863369E-05 -3.602895E-04 
 +5.033711E-03 -3.241060E-05 +9.339120E-05 -3.241060E-05 +1.981866E-04 -9.216005E-05 +9.339120E-05 -9.216005E-05 -3.515698E-04 
 +5.036536E-03 +6.254589E-06 +4.386650E-05 +6.254589E-06 +1.699662E-05 -1.769444E-04 +4.386650E-05 -1.769444E-04 -1.463788E-04 
 +4.974169E-03 +1.032012E-04 +4.305692E-05 +1.032012E-04 +3.613245E-05 -1.602365E-04 +4.305692E-05 -1.602365E-04 +4.008500E-05 
 +4.963355E-03 +4.102944E-06 +1.385931E-05 +4.102944E-06 +1.244378E-04 -3.170582E-05 +1.385931E-05 -3.170582E-05 +1.167093E-04 
 +5.032057E-03 -7.119198E-05 -4.037154E-05 -7.119198E-05 +8.512204E-05 +2.604145E-05 -4.037154E-05 +2.604145E-05 +6.399006E-05 
 +5.056978E-03 +4.361979E-06 -7.544647E-05 +4.361979E-06 +8.256180E-05 +4.452279E-05 -7.544647E-05 +4.452279E-05 +3.306251E-06 
 +5.007391E-03 -2.179696E-05 -1.091187E-04 -2.179696E-05 +1.589043E-04 +8.037633E-05 -1.091187E-04 +8.037633E-05 -2.210920E-05 
 +5.003459E-03 -7.502905E-05 -1.486346E-04 -7.502905E-05 +1.867769E-04 +5.820705E-05 -1.486346E-04 +5.820705E-05 -3.889768E-05 
 +5.015517E-03 -9.616270E-05 -1.454352E-04 -9.616270E-05 +1.583773E-04 +4.172641E-06 -1.454352E-04 +4.172641E-06 -4.111993E-06 
 +4.969396E-03 -9.572357E-05 -6.452383E-05 -9.572357E-05 +1.791959E-04 -7.999542E-05 -6.452383E-05 -7.999542E-05 +1.630229E-05 
 +4.859828E-03 +8.066526E-05 -5.025415E-05 +8.066526E-05 +1.768738E-04 -2.026430E-04 -5.025415E-05 -2.026430E-04 +1.155789E-05 
 +4.882705E-03 +8.210594E-05 -1.333332E-05 +8.210594E-05 +8.123436E-05 -2.482643E-04 -1.333332E-05 -2.482643E-04 +1.491942E-05 
 +4.921082E-03 +1.489132E-04 -6.014126E-05 +1.489132E-04 +7.434332E-05 -2.291869E-04 -6.014126E-05 -2.291869E-04 -3.389714E-05 
 +4.996277E-03 +1.370988E-04 -7.179901E-05 +1.370988E-04 +1.056367E-04 -2.503081E-04 -7.179901E-05 -2.503081E-04 -1.024154E-04 
 +4.969344E-03 +1.519688E-04 -7.949201E-05 +1.519688E-04 +1.106202E-04 -2.482208E-04 -7.949201E-05 -2.482208E-04 -1.726052E-04 
 +5.067035E-03 +1.405302E-04 -4.278850E-06 +1.405302E-04 +1.251248E-04 -1.684684E-04 -4.278850E-06 -1.684684E-04 -2.461006E-04 
 +5.089869E-03 +1.414627E-04 +1.307183E-05 +1.414627E-04 +1.319886E-04 -1.253081E-04 +1.307183E-05 -1.253081E-04 -2.365760E-04 
 +4.924430E-03 -1.005762E-04 +3.071839E-05 -1.005762E-04 +1.460737E-04 -1.715801E-04 +3.071839E-05 -1.715801E-04 -2.312177E-04 
 +4.957132E-03 -8.181468E-05 +5.504055E-05 -8.181468E-05 +2.085494E-04 -1.636820E-04 +5.504055E-05 -1.636820E-04 -2.618293E-04 
 +4.928321E-03 -1.773446E-04 +8.711185E-05 -1.773446E-04 +2.685555E-04 -7.843663E-05 +8.711185E-05 -7.843663E-05 -2.710215E-04 
 +5.069181E-03 +3.552549E-05 +1.210848E-04 +3.552549E-05 +3.498682E-04 -1.413289E-04 +1.210848E-04 -1.413289E-04 -3.716466E-04 
 +5.056936E-03 -2.909475E-05 +8.343560E-05 -2.909475E-05 +3.254669E-04 -7.915763E-05 +8.343560E-05 -7.915763E-05 -3.548724E-04 
 +4.964809E-03 -2.912972E-06 +2.184098E-05 -2.912972E-06 +3.376829E-04 -4.006114E-05 +2.184098E-05 -4.006114E-05 -2.340867E-04 
 +4.926150E-03 +1.321727E-04 -3.453262E-06 +1.321727E-04 +2.067682E-04 -8.164400E-05 -3.453262E-06 -8.164400E-05 -7.529997E-05 
 +4.985557E-03 +8.244103E-05 -5.069007E-06 +8.244103E-05 +2.830161E-05 -1.121113E-04 -5.069007E-06 -1.121113E-04 +2.685450E-05 
 +5.087771E-03 -6.430099E-05 -2.854830E-05 -6.430099E-05 -3.222216E-06 -2.230510E-05 -2.854830E-05 -2.230510E-05 +1.946955E-05 
 +5.097198E-03 +4.897529E-05 -1.163039E-05 +4.897529E-05 +6.765136E-05 +8.422478E-05 -1.163039E-05 +8.422478E-05 +3.774219E-07 
 +5.039724E-03 +3.271066E-05 -9.891617E-05 +3.271066E-05 +2.093654E-04 +1.496619E-04 -9.891617E-05 +1.496619E-04 +3.619829E-05 
 +5.014615E-03 -8.116269E-05 -2.128685E-04 -8.116269E-05 +2.304859E-04 +1.201321E-04 -2.128685E-04 +1.201321E-04 +4.831111E-05 
 +5.013517E-03 -1.323510E-04 -1.291322E-04 -1.323510E-04 +1.547832E-04 +2.295689E-05 -1.291322E-04 +2.295689E-05 +6.581538E-05 
 +4.922506E-03 -1.265987E-04 -1.504164E-05 -1.265987E-04 +1.375301E-04 -8.914201E-05 -1.504164E-05 -8.914201E-05 +9.732502E-05 
 +4.911575E-03 -5.506062E-05 +3.608390E-06 -5.506062E-05 +8.605785E-05 -1.668909E-04 +3.608390E-06 -1.668909E-04 +7.870542E-05 
 +4.911786E-03 +2.737111E-05 +3.362661E-05 +2.737111E-05 +6.150902E-05 -2.272404E-04 +3.362661E-05 -2.272404E-04 +5.673811E-05 
 +4.895270E-03 +1.297967E-04 +5.261710E-06 +1.297967E-04 +4.635701E-05 -1.974394E-04 +5.261710E-06 -1.974394E-04 +1.800114E-06 
 +4.971955E-03 +7.008979E-05 -6.558139E-06 +7.008979E-05 +1.985792E-05 -8.361123E-05 -6.558139E-06 -8.361123E-05 -5.750710E-05 
 +4.972169E-03 +7.713783E-05 -3.643688E-06 +7.713783E-05 +7.377569E-05 -1.013317E-04 -3.643688E-06 -1.013317E-04 -1.503737E-04 
 +5.077299E-03 +9.222138E-05 +3.494418E-05 +9.222138E-05 +1.181980E-04 -1.330059E-04 +3.494418E-05 -1.330059E-04 -2.676895E-04 
 +5.064740E-03 +9.988572E-05 -4.230581E-06 +9.988572E-05 +1.011906E-04 -1.263685E-04 -4.230581E-06 -1.263685E-04 -1.986814E-04 
 +4.898584E-03 -9.949288E-05 +1.490798E-05 -9.949288E-05 +1.112367E-04 -1.670116E-04 +1.490798E-05 -1.670116E-04 -9.885005E-05 
 +4.919760E-03 -4.910114E-05 +4.110158E-05 -4.910114E-05 +1.742509E-04 -2.021116E-04 +4.110158E-05 -2.021116E-04 -1.565416E-04 
 +4.937082E-03 -7.703226E-05 +1.386138E-04 -7.703226E-05 +2.869492E-04 -1.929488E-04 +1.386138E-04 -1.929488E-04 -2.772731E-04 
 +5.060765E-03 +1.106988E-04 +1.150591E-04 +1.106988E-04 +2.827126E-04 -9.029928E-05 +1.150591E-04 -9.029928E-05 -3.652346E-04 
 +4.978945E-03 +8.689599E-06 +5.020486E-05 +8.689599E-06 +3.276375E-04 -9.336204E-05 +5.020486E-05 -9.336204E-05 -2.926578E-04 
 +4.910108E-03 +2.077525E-05 -5.956762E-06 +2.077525E-05 +2.661458E-04 -1.282146E-04 -5.956762E-06 -1.282146E-04 -1.876678E-04 
 +4.937933E-03 +7.098083E-05 -3.490185E-06 +7.098083E-05 +1.513483E-04 -1.746350E-04 -3.490185E-06 -1.746350E-04 -1.220182E-04 
 +4.988182E-03 +7.121540E-05 -5.360803E-07 +7.121540E-05 +5.064438E-05 -1.144534E-04 -5.360803E-07 -1.144534E-04 -1.101018E-04 
 +5.096170E-03 +2.259018E-05 +3.535781E-05 +2.259018E-05 +6.239673E-05 -6.736222E-05 +3.535781E-05 -6.736222E-05 -1.353875E-04 
 +5.115935E-03 +1.409141E-04 -7.659430E-06 +1.409141E-04 +1.072165E-04 -1.566917E-04 -7.659430E-06 -1.566917E-04 -1.005726E-04 
 +5.110667E-03 +1.331945E-04 -5.954076E-05 +1.331945E-04 +1.054978E-04 -1.813997E-04 -5.954076E-05 -1.813997E-04 -4.819143E-06 
 +5.060030E-03 -3.539143E-05 -2.152531E-04 -3.539143E-05 +1.095759E-04 -5.712867E-05 -2.152531E-04 -5.712867E-05 +6.505430E-05 
 +4.875500E-03 -7.852381E-05 -6.482997E-05 -7.852381E-05 +1.177757E-04 -3.952765E-05 -6.482997E-05 -3.952765E-05 +1.041410E-04 
 +4.869289E-03 -9.225187E-05 +1.318689E-05 -9.225187E-05 +1.317194E-04 -1.173447E-04 +1.318689E-05 -1.173447E-04 +1.158838E-04 
 +4.911221E-03 -7.175145E-05 +5.093835E-05 -7.175145E-05 +9.782889E-05 -1.858780E-04 +5.093835E-05 -1.858780E-04 +1.061490E-04 
 +4.946443E-03 +1.687668E-06 +4.656915E-05 +1.687668E-06 +4.053694E-05 -2.264944E-04 +4.656915E-05 -2.264944E-04 +1.105196E-04 
 +4.887556E-03 +6.384600E-05 +9.166218E-05 +6.384600E-05 +3.325302E-05 -2.228446E-04 +9.166218E-05 -2.228446E-04 +7.367355E-05 
 +4.892464E-03 +6.882414E-05 +8.426783E-05 +6.882414E-05 +4.808511E-05 -2.114303E-04 +8.426783E-05 -2.114303E-04 +5.494124E-05 
 +4.966775E-03 +5.804172E-05 +1.042941E-04 +5.804172E-05 +1.113756E-05 -1.671188E-04 +1.042941E-04 -1.671188E-04 -3.493371E-07 
 +5.109571E-03 +4.101084E-05 +1.296926E-04 +4.101084E-05 -2.924332E-05 -2.801660E-06 +1.296926E-04 -2.801660E-06 -1.537425E-04 
 +5.074502E-03 +3.088510E-05 +8.175434E-06 +3.088510E-05 -4.314120E-05 +1.421180E-04 +8.175434E-06 +1.421180E-04 -1.463863E-04 
 +4.973870E-03 -2.126414E-05 -3.877101E-05 -2.126414E-05 +4.642039E-05 +1.195477E-04 -3.877101E-05 +1.195477E-04 -5.860223E-05 
 +4.956023E-03 +4.625087E-05 +4.349420E-06 +4.625087E-05 +1.481555E-04 +1.101407E-04 +4.349420E-06 +1.101407E-04 -1.270362E-04 
 +5.016338E-03 +8.185237E-05 +6.613750E-05 +8.185237E-05 +1.939083E-04 +4.754172E-05 +6.613750E-05 +4.754172E-05 -2.773690E-04 
 +5.020491E-03 +6.828578E-05 +3.349620E-05 +6.828578E-05 +5.920360E-05 +3.277577E-05 +3.349620E-05 +3.277577E-05 -2.863506E-04 
 +4.945689E-03 +2.291443E-05 -5.303857E-05 +2.291443E-05 +1.087085E-04 -1.312013E-04 -5.303857E-05 -1.312013E-04 -2.359436E-04 
 +4.887060E-03 -6.904716E-06 -4.328780E-05 -6.904716E-06 +1.716631E-04 -1.825393E-04 -4.328780E-05 -1.825393E-04 -1.104185E-04 
 +4.917949E-03 +3.342935E-05 +1.778675E-05 +3.342935E-05 +1.065278E-04 -1.567982E-04 +1.778675E-05 -1.567982E-04 -6.177194E-05 
 +5.000157E-03 +5.196418E-05 +7.811423E-06 +5.196418E-05 +3.026371E-05 -1.333648E-04 +7.811423E-06 -1.333648E-04 -1.259772E-04 
 +5.115566E-03 +6.180721E-05 +4.144616E-05 +6.180721E-05 +3.385033E-05 -1.135910E-04 +4.144616E-05 -1.135910E-04 -1.921385E-04 
 +5.124467E-03 +1.314405E-04 -6.363575E-05 +1.314405E-04 +7.354239E-05 -1.839608E-04 -6.363575E-05 -1.839608E-04 -1.644547E-04 
 +5.153411E-03 +7.193260E-05 -8.192341E-05 +7.193260E-05 -7.743492E-07 -3.097299E-04 -8.192341E-05 -3.097299E-04 -8.069360E-05 
 +5.076201E-03 -6.390139E-05 -6.655666E-05 -6.390139E-05 -6.508860E-07 -2.539191E-04 -6.655666E-05 -2.539191E-04 +1.370896E-05 
 +4.809064E-03 -7.703749E-05 +7.793856E-05 -7.703749E-05 +1.353345E-04 -6.237946E-05 +7.793856E-05 -6.237946E-05 +1.166795E-04 
 +4.843877E-03 -7.615457E-05 +7.109901E-05 -7.615457E-05 +1.260212E-04 -4.180359E-05 +7.109901E-05 -4.180359E-05 +1.293413E-04 
 +4.871837E-03 -4.709686E-05 +9.699378E-05 -4.709686E-05 +6.373403E-05 -1.657193E-04 +9.699378E-05 -1.657193E-04 +9.059516E-05 
 +4.882417E-03 +2.665172E-05 +1.029555E-04 +2.665172E-05 +6.794349E-05 -2.569429E-04 +1.029555E-04 -2.569429E-04 +1.052967E-04 
 +4.863842E-03 +6.898707E-05 +1.186008E-04 +6.898707E-05 +7.760432E-05 -2.837514E-04 +1.186008E-04 -2.837514E-04 +8.981693E-05 
 +4.847443E-03 +2.212714E-05 +1.570635E-04 +2.212714E-05 +5.605528E-05 -2.422708E-04 +1.570635E-04 -2.422708E-04 +1.094988E-04 
 +4.985613E-03 +4.104417E-05 +1.440067E-04 +4.104417E-05 +2.988753E-05 -2.221824E-04 +1.440067E-04 -2.221824E-04 +6.652749E-05 
 +5.136789E-03 +1.105963E-04 +1.430430E-04 +1.105963E-04 +7.491946E-05 -2.730388E-04 +1.430430E-04 -2.730388E-04 -1.401067E-04 
 +5.110783E-03 +6.328896E-05 +6.680844E-05 +6.328896E-05 +8.677293E-05 -1.879864E-04 +6.680844E-05 -1.879864E-04 -2.543406E-04 
 +5.084553E-03 +5.775552E-05 -5.617212E-05 +5.775552E-05 +5.902337E-05 +3.339299E-06 -5.617212E-05 +3.339299E-06 -2.709888E-04 
 +5.041173E-03 +7.323027E-05 -6.795390E-05 +7.323027E-05 +1.255767E-04 +6.526180E-05 -6.795390E-05 +6.526180E-05 -2.697435E-04 
 +5.019863E-03 +4.822594E-05 -3.297682E-06 +4.822594E-05 +1.329269E-04 +8.096133E-05 -3.297682E-06 +8.096133E-05 -2.533815E-04 
 +4.945439E-03 +1.002488E-04 -4.798533E-05 +1.002488E-04 +1.700838E-04 -8.817224E-05 -4.798533E-05 -8.817224E-05 -2.800721E-04 
 +4.956920E-03 +7.041344E-05 -6.515410E-05 +7.041344E-05 +1.732845E-04 -8.652695E-05 -6.515410E-05 -8.652695E-05 -2.089583E-04 
 +4.896665E-03 +1.864140E-06 -6.445294E-05 +1.864140E-06 +1.521956E-04 -8.909374E-05 -6.445294E-05 -8.909374E-05 -5.791043E-05 
 +4.896775E-03 -8.959368E-07 -3.798706E-05 -8.959368E-07 +6.479441E-05 -1.583620E-04 -3.798706E-05 -1.583620E-04 +2.096495E-05 
 +4.952600E-03 +5.131250E-05 +2.276124E-05 +5.131250E-05 +1.287011E-05 -1.224644E-04 +2.276124E-05 -1.224644E-04 -5.345587E-05 
 +5.067860E-03 +3.625173E-05 +4.718039E-05 +3.625173E-05 +4.726330E-05 -3.950303E-05 +4.718039E-05 -3.950303E-05 -1.099228E-04 
 +5.143333E-03 +7.108305E-05 -1.121658E-04 +7.108305E-05 +5.986942E-05 -8.326678E-05 -1.121658E-04 -8.326678E-05 -1.252842E-04 
 +5.204841E-03 -3.741021E-05 -1.568812E-04 -3.741021E-05 +1.616475E-05 -1.534921E-04 -1.568812E-04 -1.534921E-04 -1.003835E-04 
 +4.996713E-03 -5.443156E-05 +3.383319E-05 -5.443156E-05 -1.260149E-05 -7.213771E-05 +3.383319E-05 -7.213771E-05 +1.661090E-05 
 +4.896669E-03 -9.824999E-05 +1.507335E-04 -9.824999E-05 +1.321667E-05 +1.851341E-05 +1.507335E-04 +1.851341E-05 +1.211084E-04 
 +4.863370E-03 -1.298318E-04 +1.426689E-04 -1.298318E-04 +2.948132E-05 -4.774078E-05 +1.426689E-04 -4.774078E-05 +1.063452E-04 
 +4.825719E-03 -5.332341E-05 +1.755260E-04 -5.332341E-05 +3.869855E-05 -1.493334E-04 +1.755260E-04 -1.493334E-04 +8.324527E-05 
 +4.807087E-03 +3.603585E-05 +1.627857E-04 +3.603585E-05 +6.208083E-05 -1.797921E-04 +1.627857E-04 -1.797921E-04 +8.775815E-05 
 +4.808196E-03 +7.490464E-05 +1.518486E-04 +7.490464E-05 +7.106831E-05 -1.847553E-04 +1.518486E-04 -1.847553E-04 +6.170076E-05 
 +4.804701E-03 +7.204275E-05 +2.317208E-04 +7.204275E-05 +1.309922E-04 -2.159121E-04 +2.317208E-04 -2.159121E-04 +1.387901E-05 
 +5.081147E-03 +6.712685E-05 +7.575883E-05 +6.712685E-05 +1.986502E-04 -2.443834E-04 +7.575883E-05 -2.443834E-04 -1.267984E-04 
 +5.195743E-03 +1.551157E-04 +5.051687E-05 +1.551157E-04 +1.617083E-04 -2.043116E-04 +5.051687E-05 -2.043116E-04 -3.147515E-04 
 +5.162503E-03 +1.110494E-04 +7.747260E-05 +1.110494E-04 +1.511378E-04 -1.893699E-04 +7.747260E-05 -1.893699E-04 -3.731265E-04 
 +5.112988E-03 +1.097479E-04 +4.389433E-06 +1.097479E-04 +1.696826E-04 -1.478510E-04 +4.389433E-06 -1.478510E-04 -3.655314E-04 
 +5.090595E-03 +1.150015E-04 -7.803841E-05 +1.150015E-04 +1.494459E-04 +2.398102E-05 -7.803841E-05 +2.398102E-05 -3.553264E-04 
 +5.028334E-03 +6.122610E-05 -7.828237E-06 +6.122610E-05 +1.491158E-04 +3.686646E-05 -7.828237E-06 +3.686646E-05 -3.218985E-04 
 +4.932009E-03 +1.153282E-04 -8.900652E-05 +1.153282E-04 +1.964136E-04 -5.594266E-05 -8.900652E-05 -5.594266E-05 -1.939984E-04 
 +4.918392E-03 +9.096296E-05 -4.408382E-06 +9.096296E-05 +1.648121E-04 -5.174726E-05 -4.408382E-06 -5.174726E-05 -1.009568E-04 
 +4.872715E-03 -3.874383E-05 -8.561044E-05 -3.874383E-05 +8.201777E-05 -1.314245E-05 -8.561044E-05 -1.314245E-05 -7.143596E-06 
 +4.898053E-03 -5.545298E-05 -3.666955E-05 -5.545298E-05 +4.048457E-05 -8.517180E-06 -3.666955E-05 -8.517180E-06 +1.079425E-05 
 +4.937422E-03 +8.927324E-05 +6.032923E-05 +8.927324E-05 +3.369470E-05 -5.489203E-05 +6.032923E-05 -5.489203E-05 -5.788537E-05 
 +5.035622E-03 +1.393996E-04 +2.927415E-05 +1.393996E-04 +4.720691E-06 -1.154141E-04 +2.927415E-05 -1.154141E-04 -8.051700E-05 
 +5.093381E-03 +1.596194E-04 -1.143424E-04 +1.596194E-04 -2.961182E-05 -2.016294E-04 -1.143424E-04 -2.016294E-04 -1.303989E-04 
 +5.190656E-03 -4.488212E-05 -1.485860E-04 -4.488212E-05 -3.840486E-05 -2.032098E-04 -1.485860E-04 -2.032098E-04 -2.045780E-04 
 +4.941921E-03 -7.220619E-05 +3.941592E-05 -7.220619E-05 -4.907427E-05 -2.284336E-05 +3.941592E-05 -2.284336E-05 -5.978078E-05 
 +4.957580E-03 -1.044440E-04 +9.081261E-05 -1.044440E-04 -8.300384E-05 +1.093886E-04 +9.081261E-05 +1.093886E-04 +9.261026E-05 
 +4.917320E-03 -1.355434E-04 +1.777047E-04 -1.355434E-04 -6.040139E-05 +3.234690E-05 +1.777047E-04 +3.234690E-05 +4.757745E-05 
 +4.793448E-03 -4.724393E-05 +2.360975E-04 -4.724393E-05 +2.769590E-05 -6.383333E-05 +2.360975E-04 -6.383333E-05 +5.946160E-05 
 +4.754897E-03 +4.501021E-05 +1.993079E-04 +4.501021E-05 +9.118326E-05 -9.504683E-05 +1.993079E-04 -9.504683E-05 +7.179213E-05 
 +4.783888E-03 +8.436381E-05 +1.694841E-04 +8.436381E-05 +1.175426E-04 -1.147942E-04 +1.694841E-04 -1.147942E-04 +2.738343E-05 
 +4.809012E-03 +1.349731E-04 +2.365265E-04 +1.349731E-04 +1.293494E-04 -1.637521E-04 +2.365265E-04 -1.637521E-04 -8.296132E-05 
 +5.174399E-03 +1.167226E-04 +3.046104E-05 +1.167226E-04 +1.278332E-04 -2.098265E-04 +3.046104E-05 -2.098265E-04 -2.855695E-04 
 +5.253631E-03 +1.777659E-04 +7.133281E-06 +1.777659E-04 +1.315662E-04 -2.310342E-04 +7.133281E-06 -2.310342E-04 -4.339833E-04 
 +5.209986E-03 +1.593480E-04 -5.613692E-07 +1.593480E-04 +1.650940E-04 -2.445677E-04 -5.613692E-07 -2.445677E-04 -4.363932E-04 
 +5.137482E-03 +1.209175E-04 +2.962688E-05 +1.209175E-04 +1.853974E-04 -1.802548E-04 +2.962688E-05 -1.802548E-04 -3.357002E-04 
 +5.095563E-03 +1.184527E-04 +1.358346E-05 +1.184527E-04 +1.439264E-04 -4.482927E-06 +1.358346E-05 -4.482927E-06 -2.617264E-04 
 +5.030768E-03 +7.684887E-05 -1.019653E-04 +7.684887E-05 +1.516890E-04 +1.832323E-05 -1.019653E-04 +1.832323E-05 -2.628159E-04 
 +4.895150E-03 +3.562629E-05 -1.177723E-04 +3.562629E-05 -1.055644E-05 -2.730148E-05 -1.177723E-04 -2.730148E-05 +1.645180E-05 
 +4.862464E-03 -7.333552E-05 -1.489202E-05 -7.333552E-05 -2.251499E-07 -7.521052E-06 -1.489202E-05 -7.521052E-06 +3.802031E-05 
 +4.873681E-03 -1.441410E-04 -1.688589E-05 -1.441410E-04 +7.352358E-06 +1.121230E-05 -1.688589E-05 +1.121230E-05 +1.503006E-05 
 +4.960013E-03 -9.012119E-05 +1.918647E-06 -9.012119E-05 +1.454167E-05 -3.711131E-06 +1.918647E-06 -3.711131E-06 -7.330739E-05 
 +5.073063E-03 +8.666522E-05 +2.479103E-05 +8.666522E-05 -1.766565E-05 -1.043742E-04 +2.479103E-05 -1.043742E-04 -1.202188E-04 
 +5.044864E-03 +1.754216E-04 +4.387408E-05 +1.754216E-04 -3.870399E-05 -1.506256E-04 +4.387408E-05 -1.506256E-04 -7.519094E-05 
 +5.016507E-03 +2.154668E-04 -2.433253E-05 +2.154668E-04 -1.596059E-05 -9.877754E-05 -2.433253E-05 -9.877754E-05 -8.046333E-05 
 +5.019593E-03 +3.360363E-05 -5.727653E-05 +3.360363E-05 +4.498991E-05 +9.050660E-06 -5.727653E-05 +9.050660E-06 -1.303681E-04 
 +4.928633E-03 -9.770644E-05 +5.082753E-05 -9.770644E-05 +1.860756E-05 +8.772994E-05 +5.082753E-05 +8.772994E-05 -3.428978E-05 
 +4.977023E-03 -1.265687E-04 +4.848513E-05 -1.265687E-04 -9.920742E-05 +7.519713E-05 +4.848513E-05 +7.519713E-05 +3.732250E-05 
 +4.917761E-03 -1.070625E-04 +1.472660E-04 -1.070625E-04 -9.345728E-05 +2.944870E-05 +1.472660E-04 +2.944870E-05 -4.028798E-06 
 +4.793172E-03 -2.876141E-05 +2.245995E-04 -2.876141E-05 +1.060650E-05 -4.079220E-06 +2.245995E-04 -4.079220E-06 +4.429126E-05 
 +4.749101E-03 +5.227123E-05 +1.980426E-04 +5.227123E-05 +7.981366E-05 -2.389483E-05 +1.980426E-04 -2.389483E-05 +6.548400E-05 
 +4.792732E-03 +1.113710E-04 +1.813102E-04 +1.113710E-04 +1.035452E-04 -1.230376E-05 +1.813102E-04 -1.230376E-05 -1.215631E-05 
 +4.899379E-03 +1.708650E-04 +1.320526E-04 +1.708650E-04 +7.184907E-05 -8.055541E-05 +1.320526E-04 -8.055541E-05 -1.730060E-04 
 +5.221602E-03 +1.816746E-04 -4.665057E-05 +1.816746E-04 +5.602321E-05 -2.283812E-04 -4.665057E-05 -2.283812E-04 -3.619353E-04 
 +5.256039E-03 +2.171712E-04 -2.514526E-05 +2.171712E-04 +1.223312E-04 -2.844401E-04 -2.514526E-05 -2.844401E-04 -4.711707E-04 
 +5.210741E-03 +1.658810E-04 -3.288528E-05 +1.658810E-04 +1.869948E-04 -2.579529E-04 -3.288528E-05 -2.579529E-04 -4.779433E-04 
 +5.185784E-03 +9.009523E-05 +2.322254E-05 +9.009523E-05 +2.107038E-04 -2.446901E-04 +2.322254E-05 -2.446901E-04 -4.115327E-04 
 +5.123656E-03 +7.036894E-05 +6.392775E-05 +7.036894E-05 +1.738395E-04 -2.491544E-04 +6.392775E-05 -2.491544E-04 -2.506079E-04 
 +4.937184E-03 +4.582624E-05 -8.179187E-05 +4.582624E-05 +5.310504E-05 -1.514461E-04 -8.179187E-05 -1.514461E-04 -7.475912E-05 
 +4.809849E-03 +1.223196E-05 -1.086177E-04 +1.223196E-05 +2.381843E-05 -1.050852E-04 -1.086177E-04 -1.050852E-04 +2.305838E-05 
 +4.831706E-03 -6.912345E-05 -8.152605E-05 -6.912345E-05 +5.547136E-05 -8.557942E-05 -8.152605E-05 -8.557942E-05 +3.662107E-05 
 +4.892487E-03 -1.389153E-04 -6.070995E-05 -1.389153E-04 +3.428986E-05 -1.015318E-04 -6.070995E-05 -1.015318E-04 +4.986155E-06 
 +5.044345E-03 -1.359678E-04 -6.294027E-05 -1.359678E-04 -7.537758E-05 -5.045984E-05 -6.294027E-05 -5.045984E-05 -4.112625E-05 
 +4.994721E-03 -6.293896E-05 -7.818067E-05 -6.293896E-05 -1.626739E-04 +1.701325E-05 -7.818067E-05 +1.701325E-05 +2.058413E-05 
 +4.889927E-03 -7.067629E-05 -1.637611E-05 -7.067629E-05 -1.181454E-04 +5.341664E-06 -1.637611E-05 +5.341664E-06 +1.011306E-04 
 +4.895594E-03 -8.075183E-06 -5.536824E-05 -8.075183E-06 -4.497993E-05 -9.349651E-06 -5.536824E-05 -9.349651E-06 +4.058740E-05 
 +5.144336E-03 -1.351406E-04 +2.848972E-05 -1.351406E-04 -4.345655E-05 +1.392214E-05 +2.848972E-05 +1.392214E-05 -5.487386E-05 
 +5.051848E-03 -3.008838E-04 +1.277266E-04 -3.008838E-04 -4.644786E-05 -2.300603E-05 +1.277266E-04 -2.300603E-05 -7.125648E-05 
 +5.050974E-03 -2.520180E-04 +7.439004E-05 -2.520180E-04 +1.353739E-05 -9.232117E-05 +7.439004E-05 -9.232117E-05 -4.061911E-05 
 +4.945420E-03 -7.225137E-05 +1.064261E-04 -7.225137E-05 +6.361002E-05 -8.171954E-05 +1.064261E-04 -8.171954E-05 -1.950300E-05 
 +4.865050E-03 +1.296329E-05 +1.424324E-04 +1.296329E-05 +2.002456E-05 -6.346318E-05 +1.424324E-04 -6.346318E-05 +3.019815E-05 
 +4.818526E-03 +6.833989E-05 +1.450904E-04 +6.833989E-05 +2.462237E-05 -5.986267E-05 +1.450904E-04 -5.986267E-05 +5.888686E-05 
 +4.798651E-03 +1.176940E-04 +1.607018E-04 +1.176940E-04 +1.345766E-04 -2.357617E-05 +1.607018E-04 -2.357617E-05 -5.389288E-05 
 +5.084169E-03 +1.171824E-04 -6.475730E-05 +1.171824E-04 +1.661835E-04 +2.698997E-05 -6.475730E-05 +2.698997E-05 -2.619092E-04 
 +5.142804E-03 +1.662887E-04 -1.472920E-04 +1.662887E-04 +1.365380E-04 +1.294367E-04 -1.472920E-04 +1.294367E-04 -3.581871E-04 
 +5.156077E-03 +1.300935E-04 -1.120696E-04 +1.300935E-04 +1.327206E-04 +1.332352E-04 -1.120696E-04 +1.332352E-04 -3.887068E-04 
 +5.222977E-03 +1.587548E-04 -6.940719E-05 +1.587548E-04 +1.565402E-04 -3.263501E-05 -6.940719E-05 -3.263501E-05 -4.634498E-04 
 +5.156651E-03 +9.113691E-05 -3.589575E-05 +9.113691E-05 +1.395803E-04 -1.389515E-04 -3.589575E-05 -1.389515E-04 -4.283548E-04 
 +5.038756E-03 -8.052805E-05 +1.587906E-04 -8.052805E-05 +7.955716E-05 -1.529749E-04 +1.587906E-04 -1.529749E-04 -1.874554E-04 
 +4.903330E-03 -1.335562E-04 +6.545922E-05 -1.335562E-04 +3.494575E-05 -1.450030E-04 +6.545922E-05 -1.450030E-04 -2.065819E-05 
 +4.904382E-03 +1.345253E-04 -6.520136E-05 +1.345253E-04 +1.067333E-04 -3.599966E-05 -6.520136E-05 -3.599966E-05 +3.223174E-05 
 +4.901566E-03 +1.269717E-04 -6.253170E-05 +1.269717E-04 +1.903120E-04 +3.314877E-05 -6.253170E-05 +3.314877E-05 +1.617639E-05 
 +4.999787E-03 +6.332273E-05 -6.032235E-05 +6.332273E-05 +1.870617E-04 +2.699050E-05 -6.032235E-05 +2.699050E-05 -5.642827E-05 
 +4.913484E-03 +6.509467E-07 -4.325840E-05 +6.509467E-07 +1.289073E-04 +7.892187E-06 -4.325840E-05 +7.892187E-06 -9.537597E-05 
 +4.776082E-03 -1.805309E-05 -5.303142E-05 -1.805309E-05 +9.832299E-05 +5.029151E-05 -5.303142E-05 +5.029151E-05 +3.286907E-05 
 +4.748148E-03 -3.394274E-05 -3.843828E-06 -3.394274E-05 +1.018056E-05 +5.857809E-05 -3.843828E-06 +5.857809E-05 +1.860178E-04 
 +4.762161E-03 +3.272073E-05 -5.974836E-06 +3.272073E-05 -1.231413E-04 -3.662808E-05 -5.974836E-06 -3.662808E-05 +1.587038E-04 
 +5.318743E-03 -1.098648E-04 +5.417557E-05 -1.098648E-04 -1.875648E-04 -1.208634E-04 +5.417557E-05 -1.208634E-04 +2.942672E-05 
 +5.147925E-03 -2.829458E-04 +1.554281E-04 -2.829458E-04 -8.749313E-05 -9.027922E-05 +1.554281E-04 -9.027922E-05 -2.013952E-05 
 +5.003942E-03 -3.178983E-04 +1.586038E-04 -3.178983E-04 +6.041957E-06 -8.438712E-05 +1.586038E-04 -8.438712E-05 -1.139586E-05 
 +4.977373E-03 -1.434614E-04 +1.292233E-04 -1.434614E-04 -2.600786E-05 -1.198318E-04 +1.292233E-04 -1.198318E-04 -2.403202E-05 
 +4.934301E-03 -3.883723E-06 +1.103696E-04 -3.883723E-06 -4.615303E-05 -9.193254E-05 +1.103696E-04 -9.193254E-05 +2.011677E-05 
 +4.834458E-03 +1.383760E-04 +1.597149E-04 +1.383760E-04 +2.736792E-05 -8.027601E-05 +1.597149E-04 -8.027601E-05 +9.886938E-05 
 +4.848601E-03 +2.093327E-04 +1.705791E-04 +2.093327E-04 +1.225777E-04 -8.846896E-05 +1.705791E-04 -8.846896E-05 +2.980674E-06 
 +5.104516E-03 +1.515968E-04 -5.461608E-05 +1.515968E-04 +1.485949E-04 -4.066940E-06 -5.461608E-05 -4.066940E-06 -2.288304E-04 
 +5.140415E-03 +1.480988E-04 -1.414977E-04 +1.480988E-04 +1.230418E-04 +1.091900E-04 -1.414977E-04 +1.091900E-04 -2.954003E-04 
 +5.129749E-03 +1.658646E-04 -1.569033E-04 +1.658646E-04 +1.620611E-04 +1.955230E-04 -1.569033E-04 +1.955230E-04 -2.569581E-04 
 +5.166394E-03 +9.258723E-05 -1.326224E-04 +9.258723E-05 +1.822078E-04 +1.460629E-04 -1.326224E-04 +1.460629E-04 -3.052580E-04 
 +5.080907E-03 -7.900361E-05 -4.818850E-05 -7.900361E-05 +6.021274E-05 +7.199307E-07 -4.818850E-05 +7.199307E-07 -3.089079E-04 
 +5.035578E-03 -1.481743E-04 +7.666758E-05 -1.481743E-04 -2.853753E-05 -5.069460E-05 +7.666758E-05 -5.069460E-05 -1.330087E-04 
 +5.009644E-03 -1.050678E-04 +4.054900E-05 -1.050678E-04 +9.930346E-06 -7.472072E-05 +4.054900E-05 -7.472072E-05 -8.618738E-07 
 +5.079911E-03 +2.498654E-05 -7.005182E-05 +2.498654E-05 -1.392038E-05 -1.746815E-04 -7.005182E-05 -1.746815E-04 -5.127646E-05 
 +5.033045E-03 -2.357140E-05 -7.731704E-05 -2.357140E-05 -6.549570E-06 -1.546846E-04 -7.731704E-05 -1.546846E-04 -9.811997E-05 
 +5.171775E-03 -5.259916E-05 -1.180879E-04 -5.259916E-05 +1.055121E-04 -1.660999E-04 -1.180879E-04 -1.660999E-04 -1.613147E-04 
 +4.764639E-03 -6.683875E-05 -7.539301E-05 -6.683875E-05 +2.899225E-04 -9.143238E-05 -7.539301E-05 -9.143238E-05 -9.426532E-05 
 +4.600132E-03 -5.111794E-05 -2.812124E-05 -5.111794E-05 +1.763984E-04 -4.330117E-06 -2.812124E-05 -4.330117E-06 +1.040645E-04 
 +4.594762E-03 -2.254198E-06 +1.589833E-05 -2.254198E-06 -1.101496E-05 +2.523273E-05 +1.589833E-05 +2.523273E-05 +2.471202E-04 
 +4.653965E-03 +1.453494E-05 +2.434988E-05 +1.453494E-05 -1.598590E-04 -1.170281E-07 +2.434988E-05 -1.170281E-07 +2.428104E-04 
 +5.324176E-03 -1.054636E-04 +3.775716E-05 -1.054636E-04 -3.222915E-04 -9.155656E-05 +3.775716E-05 -9.155656E-05 +1.182215E-04 
 +5.199240E-03 -1.561545E-04 +8.140480E-05 -1.561545E-04 -2.075386E-04 -9.271503E-05 +8.140480E-05 -9.271503E-05 +4.789845E-06 
 +4.977809E-03 -2.793352E-04 +1.066523E-04 -2.793352E-04 -1.911436E-05 -1.420798E-05 +1.066523E-04 -1.420798E-05 -5.777740E-05 
 +5.005429E-03 -1.743918E-04 +6.220867E-05 -1.743918E-04 -5.649210E-05 -3.336704E-05 +6.220867E-05 -3.336704E-05 -9.090479E-05 
 +4.992294E-03 -4.995482E-05 +1.024437E-04 -4.995482E-05 -9.694049E-05 -1.012485E-04 +1.024437E-04 -1.012485E-04 -3.278132E-05 
 +4.898531E-03 +1.300265E-04 +1.270656E-04 +1.300265E-04 -6.698326E-05 -2.005369E-04 +1.270656E-04 -2.005369E-04 +9.532948E-05 
 +4.984941E-03 +1.647246E-04 +1.308213E-04 +1.647246E-04 -1.372637E-04 -3.294699E-04 +1.308213E-04 -3.294699E-04 +1.129029E-04 
 +5.072179E-03 +1.813810E-04 +4.682370E-05 +1.813810E-04 -1.540135E-04 -1.803162E-04 +4.682370E-05 -1.803162E-04 -2.135290E-05 
 +5.053537E-03 +1.715511E-04 -1.314191E-04 +1.715511E-04 +1.362749E-05 +1.152129E-04 -1.314191E-04 +1.152129E-04 -1.314974E-04 
 +5.079827E-03 +1.013870E-04 -1.069710E-04 +1.013870E-04 +8.573016E-05 +2.060679E-04 -1.069710E-04 +2.060679E-04 -1.392959E-04 
 +5.052209E-03 -1.818441E-05 -1.496938E-04 -1.818441E-05 -7.200691E-06 +8.808378E-05 -1.496938E-04 +8.808378E-05 -1.545817E-04 
 +5.071865E-03 -1.001784E-04 -5.168152E-05 -1.001784E-04 -2.829062E-05 -6.347129E-05 -5.168152E-05 -6.347129E-05 -1.933169E-04 
 +5.080398E-03 -1.642740E-04 +3.481050E-05 -1.642740E-04 -1.020735E-05 -8.273365E-05 +3.481050E-05 -8.273365E-05 -1.311534E-04 
 +5.047446E-03 -1.655921E-04 -1.285175E-05 -1.655921E-04 -3.752424E-05 -1.273254E-04 -1.285175E-05 -1.273254E-04 -4.727319E-05 
 +5.107532E-03 -7.029090E-05 -1.036300E-04 -7.029090E-05 -5.612629E-05 -2.416150E-04 -1.036300E-04 -2.416150E-04 -1.230707E-04 
 +5.177284E-03 -1.571873E-04 -1.326635E-04 -1.571873E-04 -1.826914E-04 -3.063693E-04 -1.326635E-04 -3.063693E-04 -1.597745E-04 
 +5.194868E-03 -1.507438E-04 -1.501035E-04 -1.507438E-04 -1.790493E-04 -3.089442E-04 -1.501035E-04 -3.089442E-04 -1.507263E-04 
 +5.041654E-03 -1.451396E-04 -5.696888E-05 -1.451396E-04 -1.293092E-04 -2.275260E-04 -5.696888E-05 -2.275260E-04 -1.122884E-05 
 +4.496447E-03 -7.097640E-05 +4.232933E-05 -7.097640E-05 +3.597181E-05 -8.987308E-05 +4.232933E-05 -8.987308E-05 +1.527147E-04 
 +4.497563E-03 -2.035575E-05 +6.942046E-05 -2.035575E-05 +9.880812E-05 +1.240892E-05 +6.942046E-05 +1.240892E-05 +2.304762E-04 
 +4.570435E-03 -3.188067E-05 +4.226735E-05 -3.188067E-05 -1.029203E-04 -1.338088E-05 +4.226735E-05 -1.338088E-05 +2.342614E-04 
 +5.192471E-03 -9.478198E-05 +2.038657E-05 -9.478198E-05 -3.116384E-04 -9.505549E-05 +2.038657E-05 -9.505549E-05 +1.473073E-04 
 +5.227962E-03 -3.163827E-05 -2.594537E-05 -3.163827E-05 -3.351743E-04 -1.135801E-04 -2.594537E-05 -1.135801E-04 +5.701598E-05 
 +5.048901E-03 -1.600314E-04 +1.863979E-05 -1.600314E-04 -1.287637E-04 -9.379137E-05 +1.863979E-05 -9.379137E-05 -7.327689E-05 
 +4.972394E-03 -8.319881E-05 -1.050569E-05 -8.319881E-05 +1.620228E-04 -1.034739E-04 -1.050569E-05 -1.034739E-04 -1.743864E-04 
 +4.958512E-03 +6.571199E-07 +3.009129E-05 +6.571199E-07 +2.571870E-04 -1.669782E-04 +3.009129E-05 -1.669782E-04 -1.493543E-04 
 +4.991026E-03 +6.111485E-05 +3.337109E-05 +6.111485E-05 +5.896489E-05 -2.504525E-04 +3.337109E-05 -2.504525E-04 -3.073084E-05 
 +5.046714E-03 +5.055348E-05 +7.107133E-05 +5.055348E-05 -1.775844E-04 -2.651988E-04 +7.107133E-05 -2.651988E-04 +1.073219E-04 
 +5.114244E-03 +1.749611E-04 +1.380868E-04 +1.749611E-04 -2.043885E-04 -1.669568E-04 +1.380868E-04 -1.669568E-04 +1.223676E-04 
 +4.886569E-03 +1.992835E-04 -1.055720E-04 +1.992835E-04 -1.226240E-04 -2.158062E-05 -1.055720E-04 -2.158062E-05 +1.215785E-04 
 +5.050157E-03 +4.099600E-05 -1.091191E-04 +4.099600E-05 -1.452761E-04 +2.601464E-05 -1.091191E-04 +2.601464E-05 +8.366059E-05 
 +5.050383E-03 +1.948629E-06 -9.843257E-05 +1.948629E-06 -1.753811E-04 +2.439781E-05 -9.843257E-05 +2.439781E-05 +1.112519E-05 
 +5.071957E-03 -2.867674E-05 -1.052528E-04 -2.867674E-05 -1.107524E-04 -1.772927E-05 -1.052528E-04 -1.772927E-05 -5.950678E-05 
 +5.076349E-03 -1.138072E-04 +2.686196E-05 -1.138072E-04 +1.045010E-05 -1.070519E-04 +2.686196E-05 -1.070519E-04 -1.317321E-04 
 +4.964721E-03 -1.681794E-04 -1.762607E-05 -1.681794E-04 +7.753735E-05 -1.664933E-04 -1.762607E-05 -1.664933E-04 -1.192403E-04 
 +5.144131E-03 -8.978993E-05 -1.063464E-04 -8.978993E-05 +1.690654E-05 -2.001455E-04 -1.063464E-04 -2.001455E-04 -8.938297E-05 
 +5.082458E-03 -9.715460E-05 -1.516266E-04 -9.715460E-05 -1.659274E-04 -1.994012E-04 -1.516266E-04 -1.994012E-04 -3.905115E-05 
 +5.172152E-03 -1.762080E-04 -9.471507E-05 -1.762080E-04 -2.164399E-04 -1.793618E-04 -9.471507E-05 -1.793618E-04 -5.461297E-05 
 +5.247272E-03 -2.189319E-04 +1.960001E-05 -2.189319E-04 -1.863880E-04 -7.642328E-05 +1.960001E-05 -7.642328E-05 -5.004294E-05 
 +4.640350E-03 -8.622326E-05 +1.313778E-04 -8.622326E-05 +2.846495E-05 +6.158015E-05 +1.313778E-04 +6.158015E-05 +4.762021E-05 
 +4.608759E-03 -3.118898E-05 +5.721088E-05 -3.118898E-05 +1.361435E-04 +9.118984E-05 +5.721088E-05 +9.118984E-05 +7.685873E-05 
 +4.558324E-03 -3.374685E-06 +1.337179E-05 -3.374685E-06 +3.300691E-05 -1.222325E-05 +1.337179E-05 -1.222325E-05 +7.570139E-05 
 +4.944212E-03 -5.524961E-05 -6.281736E-06 -5.524961E-05 -1.188454E-04 -8.051294E-05 -6.281736E-06 -8.051294E-05 +6.474352E-05 
 +5.115908E-03 +2.523221E-05 -7.598255E-05 +2.523221E-05 -2.172944E-04 -1.344628E-04 -7.598255E-05 -1.344628E-04 -1.751580E-05 
 +5.082869E-03 -5.967586E-05 -3.565355E-05 -5.967586E-05 -7.515609E-05 -1.748728E-04 -3.565355E-05 -1.748728E-04 -1.770273E-04 
 +5.012438E-03 -3.813734E-05 -2.973056E-05 -3.813734E-05 +1.757227E-04 -1.169403E-04 -2.973056E-05 -1.169403E-04 -2.567810E-04 
 +4.963046E-03 -4.867706E-05 -5.082111E-06 -4.867706E-05 +2.367291E-04 -6.841566E-05 -5.082111E-06 -6.841566E-05 -2.043341E-04 
 +5.012683E-03 -2.127360E-05 -2.115501E-05 -2.127360E-05 +1.600064E-04 -6.566268E-05 -2.115501E-05 -6.566268E-05 -1.308043E-04 
 +5.059424E-03 +1.345891E-05 -1.357162E-05 +1.345891E-05 +1.075420E-04 -4.031977E-05 -1.357162E-05 -4.031977E-05 -6.735874E-05 
 +5.118291E-03 +1.686360E-04 +6.787401E-05 +1.686360E-04 +6.620139E-05 -1.656275E-05 +6.787401E-05 -1.656275E-05 +1.272727E-05 
 +4.885514E-03 +1.892583E-04 -9.151889E-05 +1.892583E-04 -7.956535E-05 -2.994289E-05 -9.151889E-05 -2.994289E-05 +1.622788E-04 
 +5.036128E-03 +9.295817E-05 -7.426446E-05 +9.295817E-05 -2.217816E-04 -7.833514E-06 -7.426446E-05 -7.833514E-06 +1.761417E-04 
 +5.038034E-03 +8.205156E-05 -3.676382E-05 +8.205156E-05 -2.056344E-04 +1.487129E-05 -3.676382E-05 +1.487129E-05 +1.030419E-04 
 +5.015965E-03 +1.780203E-05 -1.355421E-04 +1.780203E-05 -1.364459E-04 -3.915652E-05 -1.355421E-04 -3.915652E-05 +6.734789E-05 
 +4.999733E-03 -5.308948E-05 -1.817358E-05 -5.308948E-05 -2.507102E-06 -1.544566E-04 -1.817358E-05 -1.544566E-04 -4.027871E-05 
 +5.000504E-03 -1.592724E-04 +4.221875E-05 -1.592724E-04 +1.445778E-04 -2.166647E-04 +4.221875E-05 -2.166647E-04 -1.143544E-04 
 +5.158096E-03 -8.909533E-05 -7.955894E-05 -8.909533E-05 -2.012026E-05 -8.447973E-05 -7.955894E-05 -8.447973E-05 -5.105126E-05 
 +4.882357E-03 -1.521468E-04 -1.270179E-04 -1.521468E-04 +1.149518E-04 -3.510345E-05 -1.270179E-04 -3.510345E-05 +4.820174E-07 
 +5.145305E-03 -2.195761E-04 -5.699374E-05 -2.195761E-04 -7.430646E-06 -6.025494E-05 -5.699374E-05 -6.025494E-05 -1.109548E-04 
 +5.137667E-03 -2.022206E-04 +7.765450E-05 -2.022206E-04 -3.244056E-05 -8.918407E-05 +7.765450E-05 -8.918407E-05 -2.311796E-04 
 +4.952639E-03 -1.008317E-04 +1.177267E-04 -1.008317E-04 +1.538148E-06 -8.824808E-05 +1.177267E-04 -8.824808E-05 -1.379027E-04 
 +4.892252E-03 -1.482689E-04 +8.274224E-06 -1.482689E-04 +1.682901E-05 -8.440438E-05 +8.274224E-06 -8.440438E-05 -1.115008E-04 
 +4.696489E-03 -1.041227E-05 -5.976590E-05 -1.041227E-05 +1.578243E-04 -4.362895E-05 -5.976590E-05 -4.362895E-05 -1.473536E-04 
 +4.788873E-03 +4.477920E-05 -3.132580E-05 +4.477920E-05 +3.725604E-04 -1.745196E-05 -3.132580E-05 -1.745196E-05 -1.387618E-04 
 +4.868940E-03 +2.065456E-04 -3.615768E-05 +2.065456E-04 +5.274418E-04 -6.187322E-05 -3.615768E-05 -6.187322E-05 -2.131496E-04 
 +4.995658E-03 +1.002482E-04 -3.642641E-05 +1.002482E-04 +5.107813E-04 -1.059165E-04 -3.642641E-05 -1.059165E-04 -3.038697E-04 
 +5.024612E-03 +2.401028E-05 -4.373964E-05 +2.401028E-05 +3.355390E-04 -6.456583E-05 -4.373964E-05 -6.456583E-05 -2.948626E-04 
 +4.989822E-03 -6.985964E-05 +1.019549E-06 -6.985964E-05 +2.286685E-04 -2.157155E-05 +1.019549E-06 -2.157155E-05 -1.989708E-04 
 +5.001623E-03 -9.284951E-05 -3.239673E-05 -9.284951E-05 +1.842760E-04 -2.135517E-05 -3.239673E-05 -2.135517E-05 -1.436945E-04 
 +5.058711E-03 -4.608212E-05 -2.822187E-05 -4.608212E-05 +1.341013E-04 +3.699117E-05 -2.822187E-05 +3.699117E-05 -1.380823E-04 
 +5.115758E-03 +5.793439E-05 -4.566921E-05 +5.793439E-05 -7.979698E-06 +1.197051E-04 -4.566921E-05 +1.197051E-04 -1.199928E-05 
 +5.015165E-03 +6.012602E-05 -1.296730E-04 +6.012602E-05 -2.389266E-04 +7.496314E-05 -1.296730E-04 +7.496314E-05 +1.274276E-04 
 +4.992264E-03 +8.511745E-05 -1.037105E-05 +8.511745E-05 -2.752550E-04 +2.782024E-05 -1.037105E-05 +2.782024E-05 +1.365576E-04 
 +4.977541E-03 +9.004868E-05 -5.522484E-06 +9.004868E-05 -1.892080E-04 +3.534531E-05 -5.522484E-06 +3.534531E-05 +1.007030E-04 
 +4.935309E-03 +5.192774E-05 -7.096950E-05 +5.192774E-05 -8.018182E-05 +4.040549E-05 -7.096950E-05 +4.040549E-05 +1.053688E-04 
 +4.959651E-03 -2.028159E-05 -5.006741E-05 -2.028159E-05 -8.550912E-05 +6.064134E-05 -5.006741E-05 +6.064134E-05 +7.559113E-05 
 +5.149591E-03 -7.290413E-05 +5.431075E-06 -7.290413E-05 -1.953020E-04 -2.202911E-05 +5.431075E-06 -2.202911E-05 -3.610682E-05 
 +5.071736E-03 -4.251919E-05 -9.433114E-05 -4.251919E-05 -1.187511E-04 -1.753692E-04 -9.433114E-05 -1.753692E-04 -1.786719E-05 
 +4.947251E-03 -1.295467E-04 -5.610423E-05 -1.295467E-04 -5.734058E-05 -2.019644E-04 -5.610423E-05 -2.019644E-04 +3.440759E-05 
 +5.044749E-03 -1.195969E-04 -1.684485E-05 -1.195969E-04 +4.944219E-05 -1.756746E-04 -1.684485E-05 -1.756746E-04 -9.308954E-05 
 +5.078169E-03 -4.562054E-05 +6.937425E-05 -4.562054E-05 +1.246538E-04 -1.295277E-04 +6.937425E-05 -1.295277E-04 -2.624329E-04 
 +5.068436E-03 -1.612083E-05 +3.959158E-05 -1.612083E-05 +9.398669E-05 -8.517142E-05 +3.959158E-05 -8.517142E-05 -2.411634E-04 
 +5.040288E-03 -1.563432E-04 -1.723470E-05 -1.563432E-04 +8.913517E-05 -3.165879E-05 -1.723470E-05 -3.165879E-05 -2.059829E-04 
 +4.882406E-03 -6.382825E-05 -8.505484E-05 -6.382825E-05 +2.021267E-04 +1.073005E-05 -8.505484E-05 +1.073005E-05 -2.303972E-04 
 +4.807296E-03 -2.527398E-05 -5.144980E-05 -2.527398E-05 +3.927771E-04 -3.541950E-05 -5.144980E-05 -3.541950E-05 -2.616722E-04 
 +4.747774E-03 +1.531654E-04 -2.848450E-05 +1.531654E-04 +5.053481E-04 -1.094195E-04 -2.848450E-05 -1.094195E-04 -2.872740E-04 
 +4.929509E-03 +6.729657E-05 -4.971980E-05 +6.729657E-05 +4.680519E-04 -1.482433E-04 -4.971980E-05 -1.482433E-04 -3.114304E-04 
 +4.964692E-03 +1.766252E-05 -6.373164E-05 +1.766252E-05 +3.991346E-04 -1.330478E-04 -6.373164E-05 -1.330478E-04 -3.217593E-04 
 +4.925785E-03 -6.978817E-05 +1.724761E-05 -6.978817E-05 +3.010882E-04 -9.752050E-05 +1.724761E-05 -9.752050E-05 -2.494433E-04 
 +4.943478E-03 -1.214883E-04 +3.221063E-05 -1.214883E-04 +2.044443E-04 -3.711423E-05 +3.221063E-05 -3.711423E-05 -1.454242E-04 
 +5.038808E-03 -1.125564E-04 -3.488938E-05 -1.125564E-04 +8.938582E-05 -4.133056E-05 -3.488938E-05 -4.133056E-05 -1.301587E-04 
 +5.145593E-03 -8.726838E-05 -8.067834E-05 -8.726838E-05 -1.112532E-04 -2.496668E-05 -8.067834E-05 -2.496668E-05 -5.431121E-05 
 +5.084797E-03 -5.470394E-05 -7.535878E-05 -5.470394E-05 -2.511204E-04 +1.168542E-04 -7.535878E-05 +1.168542E-04 +2.107824E-05 
 +5.012961E-03 +9.903504E-05 +1.056981E-05 +9.903504E-05 -2.366944E-04 +1.359206E-04 +1.056981E-05 +1.359206E-04 -1.267592E-05 
 +4.916851E-03 +1.233770E-04 +6.744334E-06 +1.233770E-04 -1.237361E-04 +6.820950E-05 +6.744334E-06 +6.820950E-05 +3.738895E-05 
 +4.919669E-03 +8.383079E-05 -7.909169E-06 +8.383079E-05 -1.190858E-04 +6.904986E-05 -7.909169E-06 +6.904986E-05 +9.914784E-05 
 +5.042574E-03 -2.589176E-05 -6.538870E-05 -2.589176E-05 -2.316454E-04 +7.347606E-05 -6.538870E-05 +7.347606E-05 +9.039419E-05 
 +5.125485E-03 -5.490617E-05 -1.121553E-04 -5.490617E-05 -2.095079E-04 -3.254101E-05 -1.121553E-04 -3.254101E-05 +1.039721E-05 
 +5.037689E-03 -1.674949E-05 -9.214943E-05 -1.674949E-05 -2.777982E-04 +5.666398E-05 -9.214943E-05 +5.666398E-05 +3.777406E-05 
 +5.051036E-03 -9.532872E-05 +1.165888E-05 -9.532872E-05 -2.188963E-04 +1.994443E-05 +1.165888E-05 +1.994443E-05 -1.344717E-05 
 +5.040285E-03 -5.828666E-05 +2.800214E-05 -5.828666E-05 -4.156937E-05 -1.032562E-04 +2.800214E-05 -1.032562E-04 -1.764151E-04 
 +5.066974E-03 +5.427848E-06 +1.271147E-05 +5.427848E-06 +1.238438E-04 -1.439824E-04 +1.271147E-05 -1.439824E-04 -2.607139E-04 
 +5.030002E-03 -4.803080E-05 -2.212708E-05 -4.803080E-05 +1.865560E-04 -1.382060E-04 -2.212708E-05 -1.382060E-04 -2.311364E-04 
 +5.039708E-03 -1.328519E-04 -3.746834E-05 -1.328519E-04 +2.405500E-04 -9.881075E-05 -3.746834E-05 -9.881075E-05 -2.359836E-04 
 +4.953840E-03 -7.227631E-05 -7.108372E-05 -7.227631E-05 +2.697796E-04 -4.638983E-05 -7.108372E-05 -4.638983E-05 -2.401259E-04 
 +4.843963E-03 -8.458817E-06 -9.429827E-05 -8.458817E-06 +2.920282E-04 -6.363488E-05 -9.429827E-05 -6.363488E-05 -2.364796E-04 
 +4.819331E-03 +1.018963E-04 -1.061903E-04 +1.018963E-04 +3.299349E-04 -1.286662E-04 -1.061903E-04 -1.286662E-04 -2.247934E-04 
 +4.936216E-03 +6.091768E-06 -8.916686E-05 +6.091768E-06 +2.807683E-04 -2.133233E-04 -8.916686E-05 -2.133233E-04 -1.752009E-04 
 +4.914704E-03 -2.197332E-05 -5.095563E-05 -2.197332E-05 +2.224702E-04 -2.191171E-04 -5.095563E-05 -2.191171E-04 -1.691191E-04 
 +4.866641E-03 -7.177217E-05 +1.092470E-05 -7.177217E-05 +2.410036E-04 -1.274310E-04 +1.092470E-05 -1.274310E-04 -1.418056E-04 
 +4.862630E-03 -1.511631E-04 +4.465792E-05 -1.511631E-04 +1.725464E-04 -1.397975E-04 +4.465792E-05 -1.397975E-04 -8.489387E-05 
 +5.019023E-03 -1.699169E-04 -5.975023E-05 -1.699169E-04 -5.679742E-05 -2.520941E-04 -5.975023E-05 -2.520941E-04 -1.910094E-04 
 +5.146589E-03 -9.322146E-05 -7.152480E-05 -9.322146E-05 -1.574733E-04 -2.990539E-04 -7.152480E-05 -2.990539E-04 -2.986800E-04 
 +5.101008E-03 -4.041926E-05 +4.976829E-05 -4.041926E-05 -1.332314E-04 -2.874402E-04 +4.976829E-05 -2.874402E-04 -2.516214E-04 
 +5.040132E-03 +1.091382E-04 +7.579589E-05 +1.091382E-04 -1.326390E-04 -1.847591E-04 +7.579589E-05 -1.847591E-04 -1.620647E-04 
 +4.938276E-03 +1.358675E-04 -8.782295E-06 +1.358675E-04 -2.003906E-04 -1.452035E-05 -8.782295E-06 -1.452035E-05 +1.469436E-05 
 +4.981981E-03 +7.274217E-05 -3.247744E-05 +7.274217E-05 -3.296384E-04 +6.936566E-05 -3.247744E-05 +6.936566E-05 +1.503790E-04 
 +5.030120E-03 -1.206125E-05 -9.372640E-05 -1.206125E-05 -3.279886E-04 +5.118269E-05 -9.372640E-05 +5.118269E-05 +1.384082E-04 
 +5.018168E-03 -3.486921E-05 -1.259890E-04 -3.486921E-05 -2.606890E-04 +2.770803E-05 -1.259890E-04 +2.770803E-05 +7.384476E-05 
 +5.007187E-03 -2.323481E-05 +3.286394E-06 -2.323481E-05 -3.114264E-04 +6.137984E-05 +3.286394E-06 +6.137984E-05 +1.214004E-04 
 +5.010356E-03 +6.340384E-07 +3.118151E-05 +6.340384E-07 -2.321088E-04 +4.816339E-05 +3.118151E-05 +4.816339E-05 -4.557965E-06 
 +5.067081E-03 -1.940742E-06 -4.998584E-05 -1.940742E-06 +1.578168E-05 -7.548570E-05 -4.998584E-05 -7.548570E-05 -2.108554E-04 
 +5.063664E-03 -3.531772E-05 -4.946103E-05 -3.531772E-05 +1.533417E-04 -1.557992E-04 -4.946103E-05 -1.557992E-04 -1.818144E-04 
 +5.007994E-03 -7.443101E-05 -6.702707E-05 -7.443101E-05 +1.868650E-04 -1.711914E-04 -6.702707E-05 -1.711914E-04 -7.358922E-05 
 +5.031136E-03 -1.141803E-04 -6.254700E-05 -1.141803E-04 +2.430296E-04 -1.681921E-04 -6.254700E-05 -1.681921E-04 -1.226694E-04 
 +5.019203E-03 -1.243173E-04 -9.054742E-05 -1.243173E-04 +2.321677E-04 -1.471790E-04 -9.054742E-05 -1.471790E-04 -1.390651E-04 
 +4.888528E-03 +7.050062E-06 -1.139373E-04 +7.050062E-06 +1.501576E-04 -1.169451E-04 -1.139373E-04 -1.169451E-04 -8.317011E-05 
 +4.877544E-03 +3.376512E-05 -6.566180E-05 +3.376512E-05 +5.944011E-07 -1.085243E-06 -6.566180E-05 -1.085243E-06 -5.696876E-05 
 +4.908740E-03 -8.523696E-05 -6.639607E-05 -8.523696E-05 -1.417563E-04 +1.493831E-04 -6.639607E-05 +1.493831E-04 +4.922404E-05 
 +4.898032E-03 -9.454484E-05 -4.433897E-05 -9.454484E-05 -1.714155E-04 +1.663913E-04 -4.433897E-05 +1.663913E-04 +1.205450E-04 
 +4.876015E-03 -9.960130E-05 -6.026307E-05 -9.960130E-05 -1.811034E-04 +1.407075E-04 -6.026307E-05 +1.407075E-04 +1.674729E-04 
 +4.862319E-03 -1.932644E-04 -7.238637E-05 -1.932644E-04 -1.882531E-04 +7.829852E-05 -7.238637E-05 +7.829852E-05 +1.527347E-04 
 +5.001090E-03 -1.763300E-04 -1.735727E-05 -1.763300E-04 -1.545948E-04 -7.814906E-05 -1.735727E-05 -7.814906E-05 -7.748237E-05 
 +5.102726E-03 -5.669439E-05 -3.670636E-05 -5.669439E-05 -1.274321E-04 -1.723258E-04 -3.670636E-05 -1.723258E-04 -2.828285E-04 
 +5.066824E-03 -6.100084E-06 +2.100165E-05 -6.100084E-06 -4.779345E-05 -1.976259E-04 +2.100165E-05 -1.976259E-04 -3.082276E-04 
 +5.040714E-03 +1.972269E-05 +1.400760E-04 +1.972269E-05 -1.226728E-04 -1.264932E-04 +1.400760E-04 -1.264932E-04 -2.109472E-04 
 +5.032009E-03 +4.905272E-05 +1.368196E-05 +4.905272E-05 -3.738808E-04 +1.173830E-05 +1.368196E-05 +1.173830E-05 -4.863451E-05 
 +5.007320E-03 +5.992792E-05 -8.991667E-05 +5.992792E-05 -3.639895E-04 +3.190850E-05 -8.991667E-05 +3.190850E-05 +8.845917E-05 
 +4.965072E-03 -1.144103E-05 -7.050709E-05 -1.144103E-05 -2.668975E-04 +9.147818E-06 -7.050709E-05 +9.147818E-06 +1.206979E-04 
 +5.004775E-03 -2.236213E-05 -7.386016E-05 -2.236213E-05 -2.747055E-04 +2.792168E-05 -7.386016E-05 +2.792168E-05 +1.051655E-04 
 +4.977477E-03 +1.876249E-06 +4.171522E-05 +1.876249E-06 -2.383013E-04 +4.052127E-05 +4.171522E-05 +4.052127E-05 +3.700101E-05 
 +4.978637E-03 +7.438739E-05 -1.243700E-05 +7.438739E-05 -2.118921E-04 -6.209723E-05 -1.243700E-05 -6.209723E-05 +1.684496E-05 
 +5.031133E-03 +7.385669E-05 -9.316329E-05 +7.385669E-05 -3.700700E-04 -2.174460E-06 -9.316329E-05 -2.174460E-06 +5.043330E-05 
 +5.067011E-03 +4.635223E-05 -9.066881E-05 +4.635223E-05 -4.434767E-04 +4.260836E-05 -9.066881E-05 +4.260836E-05 +1.413519E-04 
 +5.040904E-03 -9.725017E-06 -7.700273E-05 -9.725017E-06 -3.992289E-04 +1.183640E-06 -7.700273E-05 +1.183640E-06 +1.820264E-04 
 +5.015650E-03 -4.198644E-05 -1.173664E-04 -4.198644E-05 -4.012463E-04 +1.296215E-05 -1.173664E-04 +1.296215E-05 +1.926548E-04 
 +4.987451E-03 -1.485069E-04 -1.406079E-04 -1.485069E-04 -4.175686E-04 +4.907486E-05 -1.406079E-04 +4.907486E-05 +2.235626E-04 
 +4.942795E-03 -6.932989E-05 -7.117024E-05 -6.932989E-05 -3.966656E-04 +9.819819E-05 -7.117024E-05 +9.819819E-05 +2.044492E-04 
 +4.906006E-03 -6.625099E-05 +3.778169E-06 -6.625099E-05 -3.326764E-04 +1.005142E-04 +3.778169E-06 +1.005142E-04 +1.897795E-04 
 +4.894376E-03 -1.140186E-04 -2.852952E-05 -1.140186E-04 -2.777783E-04 +8.685304E-05 -2.852952E-05 +8.685304E-05 +2.354792E-04 
 +4.904627E-03 -8.410416E-05 -5.575671E-05 -8.410416E-05 -2.467625E-04 +8.117360E-05 -5.575671E-05 +8.117360E-05 +2.573070E-04 
 +4.907783E-03 -1.026030E-04 -6.359556E-05 -1.026030E-04 -2.359619E-04 +9.300828E-05 -6.359556E-05 +9.300828E-05 +3.080978E-04 
 +4.920794E-03 -1.876644E-04 -6.916636E-05 -1.876644E-04 -2.188819E-04 +1.956550E-04 -6.916636E-05 +1.956550E-04 +2.677901E-04 
 +4.997416E-03 -1.342201E-04 -3.631804E-05 -1.342201E-04 -1.437152E-04 +1.776181E-04 -3.631804E-05 +1.776181E-04 +4.681741E-05 
 +5.025778E-03 -3.456051E-05 -2.981562E-05 -3.456051E-05 -4.810431E-05 -1.104066E-04 -2.981562E-05 -1.104066E-04 -1.226999E-04 
 +5.033932E-03 +4.957921E-05 -6.527221E-06 +4.957921E-05 -2.304294E-05 -2.592166E-04 -6.527221E-06 -2.592166E-04 -2.004588E-04 
 +5.051196E-03 -3.615205E-06 +5.976081E-05 -3.615205E-06 +1.245273E-05 -2.308073E-04 +5.976081E-05 -2.308073E-04 -2.338168E-04 
 +5.032350E-03 -4.096571E-05 +5.480148E-05 -4.096571E-05 +7.586782E-06 -2.199303E-04 +5.480148E-05 -2.199303E-04 -1.758672E-04 
 +5.012544E-03 +1.434016E-05 -5.256461E-05 +1.434016E-05 -1.522475E-04 -1.104555E-04 -5.256461E-05 -1.104555E-04 -7.346009E-05 
 +4.995923E-03 -1.966743E-05 -4.356266E-05 -1.966743E-05 -2.411442E-04 -1.821529E-05 -4.356266E-05 -1.821529E-05 -2.427108E-06 
 +5.014528E-03 -3.562356E-05 +7.482026E-06 -3.562356E-05 -2.655429E-04 +5.014068E-05 +7.482026E-06 +5.014068E-05 +2.938913E-05 
 +4.992556E-03 +4.127443E-05 -5.176390E-05 +4.127443E-05 -8.205607E-05 -2.132519E-04 -5.176390E-05 -2.132519E-04 -4.594368E-05 
 +5.011152E-03 +4.933128E-05 -3.914760E-06 +4.933128E-05 -1.157479E-04 -2.680113E-04 -3.914760E-06 -2.680113E-04 +1.106326E-05 
 +5.024171E-03 +1.542281E-05 +8.248262E-06 +1.542281E-05 -2.453957E-04 -1.702416E-04 +8.248262E-06 -1.702416E-04 +1.872425E-04 
 +5.053810E-03 +6.612109E-05 -8.173954E-05 +6.612109E-05 -4.344178E-04 -7.159095E-05 -8.173954E-05 -7.159095E-05 +3.501770E-04 
 +5.058262E-03 +4.440067E-05 -1.245204E-04 +4.440067E-05 -5.320552E-04 -6.122475E-05 -1.245204E-04 -6.122475E-05 +4.497348E-04 
 +4.993831E-03 -1.854406E-05 -1.741202E-04 -1.854406E-05 -5.174077E-04 -3.646273E-05 -1.741202E-04 -3.646273E-05 +5.275013E-04 
 +4.935795E-03 +1.986408E-06 -1.612121E-04 +1.986408E-06 -3.440027E-04 +1.403564E-05 -1.612121E-04 +1.403564E-05 +4.710668E-04 
 +4.887624E-03 -3.980821E-06 -5.090045E-05 -3.980821E-06 -2.315903E-04 +2.952187E-05 -5.090045E-05 +2.952187E-05 +3.333886E-04 
 +4.922560E-03 -6.167789E-05 -2.999312E-05 -6.167789E-05 -3.306661E-04 +6.319984E-05 -2.999312E-05 +6.319984E-05 +3.258990E-04 
 +4.938265E-03 -9.690901E-05 -2.536044E-05 -9.690901E-05 -3.451409E-04 +8.205204E-05 -2.536044E-05 +8.205204E-05 +3.331990E-04 
 +4.929061E-03 -6.393820E-05 -2.538566E-05 -6.393820E-05 -2.947718E-04 +8.367990E-05 -2.538566E-05 +8.367990E-05 +2.994697E-04 
 +4.948492E-03 -9.008527E-05 -9.644133E-06 -9.008527E-05 -2.843159E-04 +7.163568E-05 -9.644133E-06 +7.163568E-05 +2.667896E-04 
 +4.963157E-03 -1.232350E-04 -2.558159E-06 -1.232350E-04 -2.297579E-04 +1.410277E-04 -2.558159E-06 +1.410277E-04 +1.493933E-04 
 +4.980385E-03 -5.083771E-05 -3.941739E-05 -5.083771E-05 -6.360383E-05 +3.031243E-04 -3.941739E-05 +3.031243E-04 +4.204196E-06 
 +4.985478E-03 -1.900781E-06 -8.314555E-05 -1.900781E-06 +4.385489E-05 +1.830843E-04 -8.314555E-05 +1.830843E-04 -9.111121E-05 
 +5.012422E-03 +5.154707E-05 -2.978818E-05 +5.154707E-05 +3.292745E-05 -1.664777E-04 -2.978818E-05 -1.664777E-04 -1.686786E-04 
 +5.037765E-03 +1.209969E-05 -1.855171E-06 +1.209969E-05 -4.772339E-06 -3.063764E-04 -1.855171E-06 -3.063764E-04 -2.591200E-04 
 +5.022280E-03 -4.431682E-05 +6.406113E-05 -4.431682E-05 -4.069619E-05 -2.511711E-04 +6.406113E-05 -2.511711E-04 -2.658144E-04 
 +5.007450E-03 -1.807144E-05 +9.614139E-05 -1.807144E-05 -1.134553E-04 -9.638985E-05 +9.614139E-05 -9.638985E-05 -1.744128E-04 
 +5.020191E-03 -2.727483E-05 +3.672928E-05 -2.727483E-05 -2.225470E-04 +7.886607E-05 +3.672928E-05 +7.886607E-05 -1.013480E-04 
 +5.013607E-03 -3.304153E-05 -5.348008E-05 -3.304153E-05 -1.870378E-04 +5.226908E-06 -5.348008E-05 +5.226908E-06 -5.895023E-05 
 +5.044246E-03 +8.717806E-06 -6.235660E-05 +8.717806E-06 -1.214383E-04 -2.567661E-04 -6.235660E-05 -2.567661E-04 -1.588503E-05 
 +5.072044E-03 +2.146486E-05 +4.508648E-05 +2.146486E-05 -1.991789E-04 -2.203191E-04 +4.508648E-05 -2.203191E-04 +7.280806E-05 
 +5.037628E-03 -5.921583E-06 +4.709853E-05 -5.921583E-06 -1.875019E-04 -2.985851E-04 +4.709853E-05 -2.985851E-04 +1.534348E-04 
 +5.069332E-03 -1.031157E-05 -3.377836E-06 -1.031157E-05 -2.472285E-04 -3.316216E-04 -3.377836E-06 -3.316216E-04 +2.479518E-04 
 +5.040805E-03 +7.810706E-05 -1.557652E-04 +7.810706E-05 -3.152461E-04 -2.018822E-04 -1.557652E-04 -2.018822E-04 +4.269555E-04 
 +4.958968E-03 +8.867743E-05 -2.029497E-04 +8.867743E-05 -1.330323E-04 -7.980763E-05 -2.029497E-04 -7.980763E-05 +4.980332E-04 
 +4.935396E-03 +1.009439E-04 -1.266578E-04 +1.009439E-04 +7.888704E-05 -5.547952E-05 -1.266578E-04 -5.547952E-05 +3.630905E-04 
 +4.822707E-03 -8.774681E-05 -9.523991E-05 -8.774681E-05 -2.294788E-06 -4.289229E-05 -9.523991E-05 -4.289229E-05 +3.562121E-04 
 +4.921862E-03 -7.212217E-05 -7.764406E-05 -7.212217E-05 -2.287994E-04 +8.194406E-08 -7.764406E-05 +8.194406E-08 +3.986473E-04 
 +4.935319E-03 -3.837320E-05 -7.607778E-06 -3.837320E-05 -3.362129E-04 +3.703757E-05 -7.607778E-06 +3.703757E-05 +3.299169E-04 
 +4.960631E-03 -3.302787E-05 +3.604186E-06 -3.302787E-05 -3.316402E-04 +6.246065E-05 +3.604186E-06 +6.246065E-05 +2.780832E-04 
 +4.988130E-03 -4.945638E-05 +3.194678E-05 -4.945638E-05 -2.382727E-04 +1.242478E-04 +3.194678E-05 +1.242478E-04 +1.617439E-04 
 +4.993979E-03 -3.099256E-05 +7.950498E-06 -3.099256E-05 -2.170589E-05 +2.460183E-04 +7.950498E-06 +2.460183E-04 +3.691938E-05 
 +4.959900E-03 -8.760006E-06 -8.774975E-06 -8.760006E-06 +8.574250E-05 +3.228630E-04 -8.774975E-06 +3.228630E-04 +8.248624E-06 
 +4.979867E-03 +2.435255E-05 -1.345227E-05 +2.435255E-05 +7.829257E-05 +2.978780E-04 -1.345227E-05 +2.978780E-04 -4.522309E-05 
 +5.002568E-03 +6.275673E-05 -1.847562E-05 +6.275673E-05 +7.601847E-05 +1.347536E-04 -1.847562E-05 +1.347536E-04 -1.172389E-04 
 +5.020851E-03 +3.587972E-05 -2.654233E-06 +3.587972E-05 +2.352188E-05 -1.756666E-04 -2.654233E-06 -1.756666E-04 -1.802053E-04 
 +5.026077E-03 -3.871017E-05 +5.302142E-05 -3.871017E-05 -3.252077E-05 -2.745373E-04 +5.302142E-05 -2.745373E-04 -1.440265E-04 
 +4.977794E-03 -3.526721E-05 +1.056641E-04 -3.526721E-05 -3.773797E-05 -2.231874E-04 +1.056641E-04 -2.231874E-04 -4.363456E-05 
 +4.986432E-03 -3.383620E-05 +4.325963E-05 -3.383620E-05 +1.925759E-05 -3.576585E-04 +4.325963E-05 -3.576585E-04 -6.854883E-05 
 +5.003821E-03 -1.946416E-05 -1.019943E-04 -1.946416E-05 +3.594359E-06 -3.899143E-04 -1.019943E-04 -3.899143E-04 -9.040960E-05 
 +5.061815E-03 -2.994270E-05 -2.339505E-05 -2.994270E-05 -2.126077E-04 -2.439085E-04 -2.339505E-05 -2.439085E-04 +1.881542E-06 
 +5.058635E-03 +8.080645E-06 +5.411691E-05 +8.080645E-06 -2.742911E-04 -2.472052E-04 +5.411691E-05 -2.472052E-04 +7.884968E-05 
 +5.114053E-03 -1.554734E-05 +6.866003E-05 -1.554734E-05 -2.186106E-04 -2.926772E-04 +6.866003E-05 -2.926772E-04 +1.354552E-04 
 +5.077388E-03 -1.393146E-05 +2.432283E-05 -1.393146E-05 -8.246557E-05 -3.010958E-04 +2.432283E-05 -3.010958E-04 +1.148348E-04 
 +4.992609E-03 +1.099821E-04 -1.169077E-04 +1.099821E-04 +1.546622E-04 -1.384361E-04 -1.169077E-04 -1.384361E-04 +1.145797E-04 
 +4.918309E-03 +1.009718E-04 -1.782034E-04 +1.009718E-04 +2.529079E-04 +5.941145E-05 -1.782034E-04 +5.941145E-05 +2.028910E-04 
 +4.936631E-03 +2.420733E-05 -9.129357E-05 +2.420733E-05 +8.695428E-05 +1.031657E-04 -9.129357E-05 +1.031657E-04 +2.196951E-04 
 +4.903520E-03 -9.124209E-05 -1.020124E-04 -9.124209E-05 +1.140365E-05 +8.822708E-05 -1.020124E-04 +8.822708E-05 +2.660991E-04 
 +4.909502E-03 -7.639808E-05 -1.136867E-04 -7.639808E-05 +8.263319E-05 +9.458772E-05 -1.136867E-04 +9.458772E-05 +2.974734E-04 
 +4.916056E-03 -6.109868E-05 -5.911609E-05 -6.109868E-05 -2.877733E-05 +6.014197E-05 -5.911609E-05 +6.014197E-05 +2.498799E-04 
 +4.975044E-03 -1.886619E-05 -3.505538E-05 -1.886619E-05 -2.479064E-04 +4.451515E-05 -3.505538E-05 +4.451515E-05 +2.239212E-04 
 +4.995938E-03 +7.644708E-05 +1.769143E-05 +7.644708E-05 -2.607279E-04 +1.045833E-04 +1.769143E-05 +1.045833E-04 +1.373723E-04 
 +5.009677E-03 +6.676450E-05 -1.022042E-05 +6.676450E-05 -1.783151E-04 +2.241596E-04 -1.022042E-05 +2.241596E-04 +5.506376E-05 
 +4.982406E-03 +7.231904E-05 -2.079832E-05 +7.231904E-05 -5.699905E-05 +3.358880E-04 -2.079832E-05 +3.358880E-04 +1.234906E-05 
 +4.979933E-03 +1.103010E-04 +2.492760E-05 +1.103010E-04 +1.207049E-04 +3.335648E-04 +2.492760E-05 +3.335648E-04 -5.547308E-05 
 +5.011504E-03 +8.734025E-05 -1.249666E-05 +8.734025E-05 +1.585932E-04 +1.128021E-04 -1.249666E-05 +1.128021E-04 -5.664488E-05 
 +5.000773E-03 +4.133434E-05 -2.366510E-05 +4.133434E-05 +1.176678E-04 -3.017372E-04 -2.366510E-05 -3.017372E-04 -1.300043E-05 
 +4.983591E-03 -2.056398E-05 +5.396195E-05 -2.056398E-05 +9.185170E-05 -5.639047E-04 +5.396195E-05 -5.639047E-04 +4.969553E-07 
 +4.948141E-03 -7.891091E-06 +9.291702E-05 -7.891091E-06 +5.882836E-05 -5.020863E-04 +9.291702E-05 -5.020863E-04 -1.476148E-05 
 +4.957617E-03 +3.112576E-06 +3.357586E-05 +3.112576E-06 -7.707450E-06 -3.407180E-04 +3.357586E-05 -3.407180E-04 -4.587412E-05 
 +5.005274E-03 -1.884580E-05 -1.135038E-05 -1.884580E-05 -8.652054E-05 -2.596697E-04 -1.135038E-05 -2.596697E-04 -5.172908E-05 
 +5.057995E-03 -4.049709E-05 -3.287757E-06 -4.049709E-05 -1.134443E-04 -2.310746E-04 -3.287757E-06 -2.310746E-04 -9.750310E-05 
 +5.002896E-03 +3.899514E-05 +9.310024E-05 +3.899514E-05 -9.433060E-05 -1.185996E-04 +9.310024E-05 -1.185996E-04 -9.111400E-05 
 +5.150728E-03 +9.393129E-06 +1.125864E-04 +9.393129E-06 -1.245335E-04 -2.035360E-04 +1.125864E-04 -2.035360E-04 -5.764484E-05 
 +5.048428E-03 +6.638252E-05 +2.002028E-05 +6.638252E-05 +3.287560E-05 -2.582895E-04 +2.002028E-05 -2.582895E-04 +2.700496E-05 
 +4.936414E-03 +1.492317E-04 -8.131491E-05 +1.492317E-04 +2.298940E-04 -8.536910E-05 -8.131491E-05 -8.536910E-05 +2.394776E-05 
 +4.929684E-03 +4.296800E-05 -8.839504E-05 +4.296800E-05 +2.105940E-04 +1.024224E-04 -8.839504E-05 +1.024224E-04 +7.049316E-05 
 +4.986005E-03 -5.383734E-05 -8.392523E-05 -5.383734E-05 +9.396493E-05 +1.194762E-04 -8.392523E-05 +1.194762E-04 +1.298946E-04 
 +4.981634E-03 -7.533822E-05 -9.035266E-05 -7.533822E-05 +6.018165E-05 +5.578638E-05 -9.035266E-05 +5.578638E-05 +1.112058E-04 
 +4.934866E-03 -8.894353E-05 -1.222007E-04 -8.894353E-05 +7.348687E-05 +2.885753E-05 -1.222007E-04 +2.885753E-05 +1.196935E-04 
 +4.944006E-03 -9.324561E-05 -1.124267E-04 -9.324561E-05 +7.843277E-05 +1.854233E-05 -1.124267E-04 +1.854233E-05 +1.393961E-04 
 +4.963574E-03 -6.803863E-05 -7.320751E-05 -6.803863E-05 +4.417846E-05 +9.307562E-05 -7.320751E-05 +9.307562E-05 +1.451903E-04 
 +4.982038E-03 +9.186121E-05 -2.588731E-05 +9.186121E-05 -7.277456E-05 +2.034790E-04 -2.588731E-05 +2.034790E-04 +1.225223E-04 
 +5.008601E-03 +8.307658E-05 -3.848939E-05 +8.307658E-05 -1.191815E-04 +2.549363E-04 -3.848939E-05 +2.549363E-04 +8.649656E-05 
 +5.001691E-03 +1.288281E-04 -5.000659E-05 +1.288281E-04 -8.337587E-05 +2.756446E-04 -5.000659E-05 +2.756446E-04 +1.493067E-05 
 +5.007701E-03 +1.297449E-04 -6.025638E-05 +1.297449E-04 -6.720798E-05 +2.899776E-04 -6.025638E-05 +2.899776E-04 -6.769700E-05 
 +5.026028E-03 +1.001119E-04 -7.187847E-05 +1.001119E-04 -3.488307E-05 +2.806585E-04 -7.187847E-05 +2.806585E-04 -4.476047E-05 
 +5.012895E-03 +8.596614E-05 -3.016936E-05 +8.596614E-05 +2.345762E-05 +1.530330E-04 -3.016936E-05 +1.530330E-04 -1.096493E-05 
 +5.001264E-03 +8.779109E-05 +7.756185E-05 +8.779109E-05 +1.032794E-04 -7.409691E-05 +7.756185E-05 -7.409691E-05 -6.751440E-05 
 +4.920803E-03 +6.090745E-05 +1.255837E-04 +6.090745E-05 +8.405009E-05 -2.246573E-04 +1.255837E-04 -2.246573E-04 -7.745301E-05 
 +4.894154E-03 +7.699871E-05 +4.277135E-05 +7.699871E-05 +8.139548E-06 -2.715409E-04 +4.277135E-05 -2.715409E-04 -3.905735E-05 
 +4.946896E-03 -4.263667E-05 -1.212237E-05 -4.263667E-05 -8.238688E-05 -3.047224E-04 -1.212237E-05 -3.047224E-04 -7.698220E-05 
 +5.053897E-03 -4.421925E-05 +4.354653E-06 -4.421925E-05 +2.912251E-04 +4.752168E-06 +4.354653E-06 +4.752168E-06 -2.741394E-04 
 +5.066019E-03 -2.921632E-05 +9.911318E-05 -2.921632E-05 +2.888724E-04 -1.861138E-05 +9.911318E-05 -1.861138E-05 -3.538769E-04 
 +5.060064E-03 -6.782684E-06 +1.038937E-04 -6.782684E-06 +2.037744E-04 -7.197094E-05 +1.038937E-04 -7.197094E-05 -2.570817E-04 
 +4.940682E-03 +1.049356E-04 +5.262120E-05 +1.049356E-04 +1.899862E-04 -1.255994E-04 +5.262120E-05 -1.255994E-04 -4.192446E-05 
 +4.952485E-03 +1.077500E-04 -2.620463E-05 +1.077500E-04 +1.866209E-04 -2.638842E-05 -2.620463E-05 -2.638842E-05 +4.227250E-05 
 +5.032106E-03 -3.114244E-05 -5.688404E-05 -3.114244E-05 +9.602144E-05 +1.044827E-04 -5.688404E-05 +1.044827E-04 +5.413711E-05 
 +5.039230E-03 -5.475196E-05 -7.795302E-05 -5.475196E-05 +5.267281E-05 +8.983880E-05 -7.795302E-05 +8.983880E-05 +5.383043E-05 
 +4.991930E-03 -3.818957E-05 -1.155883E-04 -3.818957E-05 +9.264592E-05 +3.939600E-05 -1.155883E-04 +3.939600E-05 +4.520981E-05 
 +4.987652E-03 -1.025589E-04 -1.400477E-04 -1.025589E-04 +1.015341E-04 +1.085375E-05 -1.400477E-04 +1.085375E-05 +4.825231E-05 
 +4.991597E-03 -1.185664E-04 -1.190973E-04 -1.185664E-04 +8.205537E-05 +3.851969E-06 -1.190973E-04 +3.851969E-06 +2.037550E-05 
 +4.984095E-03 -8.735963E-05 -7.034800E-05 -8.735963E-05 +6.535185E-05 +8.449928E-05 -7.034800E-05 +8.449928E-05 -1.011536E-05 
 +4.985345E-03 +7.602852E-05 -5.040501E-05 +7.602852E-05 +2.099518E-05 +1.584345E-04 -5.040501E-05 +1.584345E-04 +2.197150E-05 
 +4.975793E-03 +1.184524E-04 -4.664276E-05 +1.184524E-04 -5.400335E-05 +1.964040E-04 -4.664276E-05 +1.964040E-04 +4.713159E-05 
 +4.996354E-03 +1.674636E-04 -8.768648E-05 +1.674636E-04 -7.043469E-05 +2.043900E-04 -8.768648E-05 +2.043900E-04 +3.995804E-05 
 +5.042303E-03 +1.505666E-04 -9.888281E-05 +1.505666E-04 -5.256229E-05 +1.919421E-04 -9.888281E-05 +1.919421E-04 +2.683775E-05 
 +5.034539E-03 +1.223683E-04 -7.597355E-05 +1.223683E-04 -3.050410E-05 +2.209474E-04 -7.597355E-05 +2.209474E-04 +4.420310E-05 
 +5.025181E-03 +8.076201E-05 -1.094616E-05 +8.076201E-05 +2.159811E-05 +1.780968E-04 -1.094616E-05 +1.780968E-04 +1.151669E-05 
 +4.992681E-03 +5.236019E-05 +5.448227E-05 +5.236019E-05 +1.234256E-04 -5.277705E-06 +5.448227E-05 -5.277705E-06 -1.104266E-04 
 +4.873344E-03 -9.736571E-05 +4.250417E-05 -9.736571E-05 +2.452954E-04 -1.131935E-04 +4.250417E-05 -1.131935E-04 -1.222154E-04 
 +4.859838E-03 -5.011326E-05 +1.052088E-05 -5.011326E-05 +2.991091E-04 -3.575638E-05 +1.052088E-05 -3.575638E-05 -1.062093E-04 
 +4.853082E-03 -1.686628E-04 +1.916125E-05 -1.686628E-04 +2.710264E-04 +2.425401E-05 +1.916125E-05 +2.425401E-05 -1.746883E-04 
 +5.037745E-03 +6.960246E-05 +3.047901E-05 +6.960246E-05 +3.304294E-04 -9.708550E-05 +3.047901E-05 -9.708550E-05 -3.621105E-04 
 +5.093185E-03 +2.184504E-05 +8.299491E-05 +2.184504E-05 +3.220718E-04 -5.663093E-05 +8.299491E-05 -5.663093E-05 -4.248105E-04 
 +4.977672E-03 +3.883686E-06 +8.748300E-05 +3.883686E-06 +3.729171E-04 -4.458347E-05 +8.748300E-05 -4.458347E-05 -2.753337E-04 
 +4.861332E-03 +1.250329E-04 +4.450379E-05 +1.250329E-04 +2.361449E-04 -9.245273E-05 +4.450379E-05 -9.245273E-05 -6.740050E-05 
 +4.954266E-03 +1.585633E-04 -5.630935E-06 +1.585633E-04 +1.782642E-05 -9.626535E-05 -5.630935E-06 -9.626535E-05 +2.089946E-05 
 +5.088617E-03 -4.571713E-05 -4.124314E-05 -4.571713E-05 -5.824250E-05 +3.622281E-05 -4.124314E-05 +3.622281E-05 +3.176831E-06 
 +5.087349E-03 -3.820923E-05 -4.686579E-06 -3.820923E-05 -7.605104E-06 +1.570077E-04 -4.686579E-06 +1.570077E-04 -1.571722E-05 
 +5.054335E-03 -1.468591E-05 -1.034336E-04 -1.468591E-05 +9.625877E-05 +1.631467E-04 -1.034336E-04 +1.631467E-04 -1.772147E-05 
 +5.024777E-03 -7.580283E-05 -1.975830E-04 -7.580283E-05 +1.267734E-04 +7.165822E-05 -1.975830E-04 +7.165822E-05 -8.431645E-06 
 +5.000777E-03 -1.068184E-04 -1.022539E-04 -1.068184E-04 +9.153564E-05 +4.263611E-05 -1.022539E-04 +4.263611E-05 -3.567079E-05 
 +5.001431E-03 -1.245116E-04 -4.004633E-05 -1.245116E-04 +4.641229E-05 +9.263951E-05 -4.004633E-05 +9.263951E-05 -9.117729E-05 
 +4.979556E-03 -2.548766E-05 -4.299899E-05 -2.548766E-05 -1.445385E-05 +1.212713E-04 -4.299899E-05 +1.212713E-04 -2.743722E-05 
 +4.985537E-03 +5.077368E-05 -7.690877E-05 +5.077368E-05 -5.738085E-05 +1.477794E-04 -7.690877E-05 +1.477794E-04 +2.068479E-05 
 +4.990093E-03 +1.483115E-04 -6.436020E-05 +1.483115E-04 -1.011103E-04 +1.656560E-04 -6.436020E-05 +1.656560E-04 +1.715684E-05 
 +5.043214E-03 +1.303259E-04 -5.774160E-05 +1.303259E-04 -1.350219E-04 +2.187744E-04 -5.774160E-05 +2.187744E-04 +4.701678E-05 
 +5.005456E-03 +1.020243E-04 -4.028702E-05 +1.020243E-04 -1.227538E-04 +2.816816E-04 -4.028702E-05 +2.816816E-04 +1.353026E-04 
 +5.014957E-03 +8.754823E-05 +6.097577E-06 +8.754823E-05 -6.320202E-05 +2.235494E-04 +6.097577E-06 +2.235494E-04 +1.392148E-04 
 +4.974492E-03 +1.082722E-04 +2.807824E-05 +1.082722E-04 +4.814583E-06 +1.389378E-04 +2.807824E-05 +1.389378E-04 -2.900074E-05 
 +4.882536E-03 +3.833228E-05 +1.765815E-05 +3.833228E-05 +6.860732E-05 +1.957729E-04 +1.765815E-05 +1.957729E-04 -9.111981E-05 
 +4.860716E-03 +9.200030E-05 -1.224825E-05 +9.200030E-05 +1.753629E-04 +1.527637E-04 -1.224825E-05 +1.527637E-04 -1.019556E-04 
 +4.820186E-03 -4.743024E-05 +5.494631E-05 -4.743024E-05 +3.082020E-04 -3.911730E-05 +5.494631E-05 -3.911730E-05 -2.080374E-04 
 +4.982892E-03 +1.117094E-04 +7.940803E-05 +1.117094E-04 +3.318538E-04 +6.684798E-05 +7.940803E-05 +6.684798E-05 -2.911356E-04 
 +5.000841E-03 +4.907476E-05 +7.262315E-05 +4.907476E-05 +2.785868E-04 -1.374145E-05 +7.262315E-05 -1.374145E-05 -3.167182E-04 
 +4.932691E-03 +2.538802E-05 +1.655607E-05 +2.538802E-05 +1.823907E-04 -1.109836E-04 +1.655607E-05 -1.109836E-04 -2.200899E-04 
 +4.874750E-03 +7.979904E-05 +1.221282E-05 +7.979904E-05 +1.351729E-04 -1.411963E-04 +1.221282E-05 -1.411963E-04 -7.950539E-05 
 +4.935020E-03 +1.525667E-04 -3.581114E-05 +1.525667E-04 +6.402284E-05 -1.051819E-04 -3.581114E-05 -1.051819E-04 -3.293629E-05 
 +5.094498E-03 +6.194044E-05 +2.602266E-06 +6.194044E-05 +3.205439E-05 -7.174060E-05 +2.602266E-06 -7.174060E-05 -8.615926E-05 
 +5.099216E-03 +9.086148E-05 +6.238696E-06 +9.086148E-05 +5.959368E-05 -1.273516E-04 +6.238696E-06 -1.273516E-04 -9.395011E-05 
 +5.133320E-03 +6.579741E-05 -4.410629E-05 +6.579741E-05 +2.568183E-05 -2.654452E-04 -4.410629E-05 -2.654452E-04 -7.120459E-05 
 +5.130929E-03 +1.556339E-05 -1.751156E-04 +1.556339E-05 +4.861251E-05 -2.311242E-04 -1.751156E-04 -2.311242E-04 +2.105011E-07 
 +4.931870E-03 -2.954918E-05 -5.785737E-05 -2.954918E-05 +1.249122E-04 -8.431434E-05 -5.785737E-05 -8.431434E-05 +5.441136E-05 
 +4.916006E-03 -1.138973E-04 +9.984576E-06 -1.138973E-04 +1.188640E-04 -9.059476E-05 +9.984576E-06 -9.059476E-05 +2.219231E-05 
 +4.950988E-03 -5.709232E-05 +4.133888E-05 -5.709232E-05 +3.400578E-05 -1.029010E-04 +4.133888E-05 -1.029010E-04 +1.306191E-05 
 +5.012767E-03 +1.947274E-05 -4.031898E-06 +1.947274E-05 -7.012827E-05 +5.926166E-06 -4.031898E-06 +5.926166E-06 -8.162629E-06 
 +4.985196E-03 +8.821659E-05 +3.568378E-05 +8.821659E-05 -1.370040E-04 +8.263275E-05 +3.568378E-05 +8.263275E-05 -1.338739E-05 
 +4.995432E-03 +9.772178E-05 +3.071215E-05 +9.772178E-05 -1.370469E-04 +1.438303E-04 +3.071215E-05 +1.438303E-04 +1.428344E-05 
 +4.982988E-03 +4.506182E-05 +3.471498E-05 +4.506182E-05 -1.403141E-04 +2.102869E-04 +3.471498E-05 +2.102869E-04 +7.043223E-05 
 +5.017611E-03 +6.330636E-05 +8.581592E-05 +6.330636E-05 -1.748159E-04 +2.475085E-04 +8.581592E-05 +2.475085E-04 +7.409241E-05 
 +5.007681E-03 +1.119178E-04 +2.714137E-05 +1.119178E-04 -8.603334E-05 +2.512442E-04 +2.714137E-05 +2.512442E-04 -2.272511E-05 
 +4.960911E-03 +3.925916E-05 -4.716852E-05 +3.925916E-05 +1.145254E-04 +1.957117E-04 -4.716852E-05 +1.957117E-04 -6.866806E-05 
 +4.899462E-03 +7.156013E-05 -3.706493E-05 +7.156013E-05 +1.937607E-04 +1.930976E-04 -3.706493E-05 +1.930976E-04 -1.082190E-04 
 +4.893229E-03 +6.576157E-05 +1.305545E-05 +6.576157E-05 +2.475113E-04 +1.657445E-04 +1.305545E-05 +1.657445E-04 -2.054872E-04 
 +4.972368E-03 +6.544601E-05 +4.076680E-05 +6.544601E-05 +1.449189E-04 +1.757976E-04 +4.076680E-05 +1.757976E-04 -2.397465E-04 
 +4.931849E-03 +3.704910E-05 -3.354087E-05 +3.704910E-05 +1.395630E-04 -4.811788E-05 -3.354087E-05 -4.811788E-05 -1.927412E-04 
 +4.866610E-03 +2.377041E-05 -3.120237E-05 +2.377041E-05 +1.390091E-04 -1.792231E-04 -3.120237E-05 -1.792231E-04 -1.037977E-04 
 +4.872079E-03 +5.365851E-05 -1.801204E-06 +5.365851E-05 +8.987965E-05 -1.471174E-04 -1.801204E-06 -1.471174E-04 -3.963738E-05 
 +4.959929E-03 +1.060550E-04 -4.826999E-05 +1.060550E-04 +3.450348E-05 -1.088509E-04 -4.826999E-05 -1.088509E-04 -6.422695E-05 
 +5.100249E-03 +5.278890E-05 +1.316963E-06 +5.278890E-05 +2.624351E-05 -8.195536E-05 +1.316963E-06 -8.195536E-05 -1.075643E-04 
 +5.104270E-03 +5.411766E-05 -6.042239E-05 +5.411766E-05 +2.484318E-05 -1.029695E-04 -6.042239E-05 -1.029695E-04 -9.636657E-05 
 +5.158231E-03 -9.011379E-07 -6.981802E-05 -9.011379E-07 -8.520249E-06 -2.357514E-04 -6.981802E-05 -2.357514E-04 -8.190325E-05 
 +5.195880E-03 -9.979929E-06 -9.767194E-05 -9.979929E-06 +2.088504E-05 -3.000072E-04 -9.767194E-05 -3.000072E-04 -3.208542E-05 
 +4.933649E-03 -4.447970E-05 +1.133699E-05 -4.447970E-05 +1.722459E-04 -1.719193E-04 +1.133699E-05 -1.719193E-04 +4.058350E-05 
 +4.872102E-03 -1.387101E-04 +2.139582E-05 -1.387101E-04 +1.965091E-04 -1.369754E-04 +2.139582E-05 -1.369754E-04 +8.485053E-05 
 +4.911172E-03 -6.043824E-05 +8.056273E-05 -6.043824E-05 +5.701407E-05 -1.985092E-04 +8.056273E-05 -1.985092E-04 +8.578721E-05 
 +4.945922E-03 +4.393606E-05 +1.152543E-04 +4.393606E-05 +2.786433E-05 -1.940032E-04 +1.152543E-04 -1.940032E-04 +3.725200E-05 
 +4.920135E-03 +5.559928E-05 +1.352782E-04 +5.559928E-05 +6.905358E-05 -1.677436E-04 +1.352782E-04 -1.677436E-04 +3.475098E-05 
 +4.907632E-03 +1.591355E-05 +1.485373E-04 +1.591355E-05 +5.998906E-06 -7.120532E-05 +1.485373E-04 -7.120532E-05 +1.889821E-05 
 +5.036681E-03 -7.533068E-06 +2.781991E-05 -7.533068E-06 -6.647927E-05 -6.562645E-05 +2.781991E-05 -6.562645E-05 -1.235612E-04 
 +5.045238E-03 +1.303404E-04 +1.161059E-04 +1.303404E-04 +5.337988E-05 -2.348198E-04 +1.161059E-04 -2.348198E-04 -2.131752E-04 
 +5.023517E-03 +1.790615E-04 +7.170859E-05 +1.790615E-04 +1.701128E-04 -1.734993E-04 +7.170859E-05 -1.734993E-04 -2.182166E-04 
 +5.035075E-03 +1.166793E-04 -8.408680E-05 +1.166793E-04 +1.525820E-04 +6.474338E-05 -8.408680E-05 +6.474338E-05 -2.817554E-04 
 +4.990012E-03 +9.942186E-05 -2.126571E-05 +9.942186E-05 +1.818610E-04 +1.493389E-04 -2.126571E-05 +1.493389E-04 -2.949668E-04 
 +4.955715E-03 +5.120493E-05 +2.812245E-05 +5.120493E-05 +1.877255E-04 +1.922854E-04 +2.812245E-05 +1.922854E-04 -2.641594E-04 
 +4.938734E-03 +1.192536E-04 -4.355711E-05 +1.192536E-04 +1.549494E-04 -5.856665E-05 -4.355711E-05 -5.856665E-05 -2.776718E-04 
 +4.875432E-03 +1.669496E-05 -9.021401E-05 +1.669496E-05 +1.733393E-04 -1.655061E-04 -9.021401E-05 -1.655061E-04 -1.552793E-04 
 +4.828890E-03 +1.108175E-05 -4.693603E-05 +1.108175E-05 +1.509094E-04 -1.797968E-04 -4.693603E-05 -1.797968E-04 -3.579171E-05 
 +4.855499E-03 +1.154024E-05 -5.002679E-05 +1.154024E-05 +4.947658E-05 -1.728965E-04 -5.002679E-05 -1.728965E-04 +1.862769E-05 
 +4.927674E-03 +9.400401E-05 -1.477871E-05 +9.400401E-05 -4.740852E-05 -1.099181E-04 -1.477871E-05 -1.099181E-04 -9.065589E-07 
 +5.046946E-03 +3.085948E-05 +2.139662E-05 +3.085948E-05 -1.604197E-05 -2.580379E-05 +2.139662E-05 -2.580379E-05 -5.017111E-05 
 +5.108592E-03 -3.315008E-05 -1.033886E-04 -3.315008E-05 -1.284799E-05 -8.475845E-05 -1.033886E-04 -8.475845E-05 -8.981798E-05 
 +5.222362E-03 -6.494592E-05 -1.683695E-04 -6.494592E-05 -6.237670E-05 -2.133913E-04 -1.683695E-04 -2.133913E-04 -1.355300E-04 
 +5.112963E-03 -1.845238E-05 -4.480757E-05 -1.845238E-05 -4.418515E-05 -2.348902E-04 -4.480757E-05 -2.348902E-04 -1.210433E-04 
 +5.030504E-03 -1.182001E-04 +8.661449E-06 -1.182001E-04 -7.756466E-05 -2.522088E-04 +8.661449E-06 -2.522088E-04 -6.387657E-06 
 +4.989837E-03 -2.048745E-04 -1.531809E-05 -2.048745E-04 -9.213935E-05 -3.077294E-04 -1.531809E-05 -3.077294E-04 +5.890540E-05 
 +4.839439E-03 -8.378397E-05 +1.206912E-04 -8.378397E-05 +3.710340E-05 -2.749415E-04 +1.206912E-04 -2.749415E-04 +5.182037E-05 
 +4.843436E-03 +3.706796E-05 +1.479715E-04 +3.706796E-05 +1.199145E-04 -2.182800E-04 +1.479715E-04 -2.182800E-04 +3.469011E-05 
 +4.833654E-03 +5.471869E-05 +1.679425E-04 +5.471869E-05 +1.357986E-04 -2.050684E-04 +1.679425E-04 -2.050684E-04 +4.131450E-06 
 +4.847424E-03 +3.189105E-05 +1.984375E-04 +3.189105E-05 +1.773341E-04 -2.306436E-04 +1.984375E-04 -2.306436E-04 -9.073391E-05 
 +5.104347E-03 +1.750494E-05 -1.523810E-05 +1.750494E-05 +2.050885E-04 -2.947284E-04 -1.523810E-05 -2.947284E-04 -2.855024E-04 
 +5.109537E-03 +2.029163E-04 +6.592028E-05 +2.029163E-04 +1.981199E-04 -2.671253E-04 +6.592028E-05 -2.671253E-04 -3.787331E-04 
 +5.068746E-03 +1.937203E-04 +1.215098E-04 +1.937203E-04 +1.760391E-04 -8.875510E-05 +1.215098E-04 -8.875510E-05 -3.311023E-04 
 +5.080213E-03 +1.365881E-04 -3.494239E-06 +1.365881E-04 +1.596681E-04 +7.282045E-05 -3.494239E-06 +7.282045E-05 -3.260523E-04 
 +5.055492E-03 +1.317144E-04 -3.465784E-05 +1.317144E-04 +1.813605E-04 +1.046615E-04 -3.465784E-05 +1.046615E-04 -3.448823E-04 
 +5.018550E-03 +6.781762E-05 +2.995009E-05 +6.781762E-05 +1.636405E-04 +6.010177E-05 +2.995009E-05 +6.010177E-05 -3.316437E-04 
 +4.895182E-03 +1.079483E-04 -1.079869E-04 +1.079483E-04 +2.147486E-04 +2.037242E-05 -1.079869E-04 +2.037242E-05 -1.750857E-04 
 +4.811208E-03 +3.689660E-05 -6.514501E-05 +3.689660E-05 +2.125686E-04 -7.903875E-05 -6.514501E-05 -7.903875E-05 -8.610143E-05 
 +4.818725E-03 -7.282933E-06 -8.919162E-05 -7.282933E-06 +1.381451E-04 -1.624358E-04 -8.919162E-05 -1.624358E-04 -4.766802E-05 
 +4.866502E-03 -1.765205E-05 -7.819910E-05 -1.765205E-05 +5.314105E-05 -1.325655E-04 -7.819910E-05 -1.325655E-04 -4.490792E-07 
 +4.910160E-03 +1.445893E-04 +1.156164E-05 +1.445893E-04 +6.963642E-06 -5.915530E-05 +1.156164E-05 -5.915530E-05 +1.217169E-05 
 +5.023558E-03 +1.678223E-04 +9.013540E-06 +1.678223E-04 -5.719614E-05 -8.434405E-05 +9.013540E-06 -8.434405E-05 -1.414654E-05 
 +5.057908E-03 +1.071311E-04 -1.119699E-04 +1.071311E-04 -6.256048E-05 -1.581261E-04 -1.119699E-04 -1.581261E-04 -7.463738E-05 
 +5.178714E-03 -5.134731E-06 -1.311792E-04 -5.134731E-06 +1.877881E-05 -1.333812E-04 -1.311792E-04 -1.333812E-04 -1.334862E-04 
 +5.025476E-03 -5.127014E-05 +8.938188E-05 -5.127014E-05 -1.155738E-05 -9.276106E-05 +8.938188E-05 -9.276106E-05 -7.326311E-05 
 +5.120365E-03 -1.627569E-04 -4.174181E-05 -1.627569E-04 -1.648978E-04 -1.978289E-04 -4.174181E-05 -1.978289E-04 +6.347843E-05 
 +5.079853E-03 -1.669147E-04 -3.622531E-05 -1.669147E-04 -1.562453E-04 -2.487751E-04 -3.622531E-05 -2.487751E-04 +7.686615E-05 
 +4.789721E-03 -5.645550E-05 +1.649745E-04 -5.645550E-05 +1.350824E-05 -1.634520E-04 +1.649745E-04 -1.634520E-04 +2.009909E-05 
 +4.786889E-03 +2.799213E-05 +1.586483E-04 +2.799213E-05 +1.280780E-04 -1.114098E-04 +1.586483E-04 -1.114098E-04 -8.522508E-07 
 +4.805030E-03 +7.405110E-05 +1.554502E-04 +7.405110E-05 +1.633627E-04 -1.129257E-04 +1.554502E-04 -1.129257E-04 -7.065475E-05 
 +4.843124E-03 +9.551065E-05 +1.541150E-04 +9.551065E-05 +2.251104E-04 -1.489522E-04 +1.541150E-04 -1.489522E-04 -2.175078E-04 
 +5.151565E-03 +8.114816E-05 -4.716057E-05 +8.114816E-05 +3.151862E-04 -2.214250E-04 -4.716057E-05 -2.214250E-04 -3.864979E-04 
 +5.165247E-03 +2.219005E-04 +4.196659E-05 +2.219005E-04 +2.999486E-04 -2.323900E-04 +4.196659E-05 -2.323900E-04 -4.488916E-04 
 +5.125313E-03 +2.110557E-04 +6.237943E-05 +2.110557E-04 +2.309235E-04 -1.757644E-04 +6.237943E-05 -1.757644E-04 -3.902791E-04 
 +5.087689E-03 +1.532360E-04 +6.840345E-05 +1.532360E-04 +1.983286E-04 -7.409616E-05 +6.840345E-05 -7.409616E-05 -3.347080E-04 
 +5.112309E-03 +1.393674E-04 +4.413158E-05 +1.393674E-04 +1.312327E-04 +9.944060E-05 +4.413158E-05 +9.944060E-05 -3.408488E-04 
 +5.083689E-03 +5.229475E-05 -8.365420E-05 +5.229475E-05 +1.481326E-04 +1.298852E-04 -8.365420E-05 +1.298852E-04 -2.927547E-04 
 +4.871189E-03 -2.487916E-06 -1.265346E-04 -2.487916E-06 -4.969097E-05 -1.522288E-06 -1.265346E-04 -1.522288E-06 -4.257476E-06 
 +4.801026E-03 -9.856025E-05 -7.430094E-05 -9.856025E-05 -1.684147E-05 -4.869211E-05 -7.430094E-05 -4.869211E-05 +4.389349E-05 
 +4.846491E-03 -1.228657E-04 -8.793711E-05 -1.228657E-04 +1.136478E-05 -6.092561E-05 -8.793711E-05 -6.092561E-05 -5.328380E-06 
 +4.941092E-03 -6.490881E-05 -9.590996E-05 -6.490881E-05 +2.379858E-05 -4.792931E-05 -9.590996E-05 -4.792931E-05 -2.099608E-05 
 +5.014507E-03 +1.036018E-04 -4.473991E-05 +1.036018E-04 -4.601164E-05 -1.047711E-04 -4.473991E-05 -1.047711E-04 +1.201553E-05 
 +4.999559E-03 +1.416656E-04 -3.363244E-05 +1.416656E-04 -1.402748E-04 -1.373528E-04 -3.363244E-05 -1.373528E-04 +1.928258E-05 
 +4.998527E-03 +1.861295E-04 -8.071920E-05 +1.861295E-04 -1.642192E-05 -5.447271E-05 -8.071920E-05 -5.447271E-05 -3.648943E-05 
 +5.039533E-03 +8.205210E-05 -3.214236E-05 +8.205210E-05 +1.727609E-04 +6.751636E-05 -3.214236E-05 +6.751636E-05 -8.117976E-05 
 +4.999668E-03 -1.148104E-04 +1.292968E-04 -1.148104E-04 +2.443353E-05 -3.221323E-05 +1.292968E-04 -3.221323E-05 -5.926345E-05 
 +5.105332E-03 -2.132699E-04 -3.661587E-05 -2.132699E-04 -2.334766E-04 -2.800174E-04 -3.661587E-05 -2.800174E-04 +1.136667E-06 
 +5.028854E-03 -1.319961E-04 +2.404740E-05 -1.319961E-04 -2.066245E-04 -2.881628E-04 +2.404740E-05 -2.881628E-04 +3.385917E-05 
 +4.813471E-03 -2.102109E-05 +1.784759E-04 -2.102109E-05 -1.658699E-05 -1.295587E-04 +1.784759E-04 -1.295587E-04 +4.912795E-05 
 +4.788269E-03 +2.501657E-05 +1.546457E-04 +2.501657E-05 +9.660806E-05 -4.321442E-05 +1.546457E-04 -4.321442E-05 +3.690471E-05 
 +4.814038E-03 +8.352118E-05 +1.422194E-04 +8.352118E-05 +1.403739E-04 -2.486258E-05 +1.422194E-04 -2.486258E-05 -6.970647E-05 
 +4.932500E-03 +1.656154E-04 +3.197687E-05 +1.656154E-04 +1.701574E-04 -9.122564E-05 +3.197687E-05 -9.122564E-05 -2.548618E-04 
 +5.169536E-03 +1.807063E-04 -1.259386E-04 +1.807063E-04 +2.301386E-04 -1.662065E-04 -1.259386E-04 -1.662065E-04 -4.414780E-04 
 +5.177034E-03 +1.876619E-04 -6.116720E-06 +1.876619E-04 +2.463007E-04 -1.636271E-04 -6.116720E-06 -1.636271E-04 -5.125729E-04 
 +5.168659E-03 +1.930382E-04 -2.015260E-06 +1.930382E-04 +1.877348E-04 -1.763774E-04 -2.015260E-06 -1.763774E-04 -4.979594E-04 
 +5.145739E-03 +1.811037E-04 +5.657563E-05 +1.811037E-04 +1.900353E-04 -2.323348E-04 +5.657563E-05 -2.323348E-04 -4.474454E-04 
 +5.114757E-03 +1.083794E-04 +1.664394E-04 +1.083794E-04 +1.443546E-04 -2.409696E-04 +1.664394E-04 -2.409696E-04 -3.070016E-04 
 +4.968428E-03 +9.045085E-06 -3.737697E-05 +9.045085E-06 +2.161459E-06 -9.243207E-05 -3.737697E-05 -9.243207E-05 -1.376320E-04 
 +4.796173E-03 +2.229696E-05 -1.383948E-04 +2.229696E-05 -7.833223E-05 -6.764206E-05 -1.383948E-04 -6.764206E-05 +1.573072E-04 
 +4.783992E-03 -3.336109E-05 -1.542951E-04 -3.336109E-05 +1.819731E-05 -1.253500E-04 -1.542951E-04 -1.253500E-04 +1.301274E-04 
 +4.840620E-03 -6.340016E-05 -1.982047E-04 -6.340016E-05 +2.698547E-05 -1.313341E-04 -1.982047E-04 -1.313341E-04 +6.068586E-05 
 +4.974245E-03 -1.824684E-05 -2.263594E-04 -1.824684E-05 -7.129629E-05 -2.802030E-06 -2.263594E-04 -2.802030E-06 +1.170530E-05 
 +4.965624E-03 -1.641139E-05 -1.278083E-04 -1.641139E-05 -1.256447E-04 +1.235102E-04 -1.278083E-04 +1.235102E-04 +5.262978E-05 
 +4.953770E-03 -8.740102E-05 -3.740028E-05 -8.740102E-05 -8.180063E-05 +1.091224E-04 -3.740028E-05 +1.091224E-04 +8.114042E-05 
 +4.948910E-03 -4.032047E-05 +8.011530E-06 -4.032047E-05 -1.220336E-04 -7.757122E-06 +8.011530E-06 -7.757122E-06 +6.055143E-05 
 +5.248805E-03 -1.309161E-04 +3.472523E-05 -1.309161E-04 -1.550478E-04 -1.336185E-04 +3.472523E-05 -1.336185E-04 +2.046483E-05 
 +5.113336E-03 -2.489155E-04 +8.341701E-05 -2.489155E-04 +1.591555E-05 -1.366832E-04 +8.341701E-05 -1.366832E-04 -5.425663E-05 
 +5.051024E-03 -2.111380E-04 +3.637293E-05 -2.111380E-04 +1.668160E-04 -3.722689E-05 +3.637293E-05 -3.722689E-05 -9.998474E-05 
 +4.965293E-03 -3.299953E-05 +1.071272E-04 -3.299953E-05 +2.170106E-04 -1.096988E-06 +1.071272E-04 -1.096988E-06 -7.525551E-05 
 +4.910266E-03 +1.003283E-05 +1.683029E-04 +1.003283E-05 +1.819704E-04 -1.002841E-04 +1.683029E-04 -1.002841E-04 -3.190814E-05 
 +4.924852E-03 +4.917827E-05 +1.619457E-04 +4.917827E-05 +1.484475E-04 -1.273919E-04 +1.619457E-04 -1.273919E-04 -3.563275E-05 
 +4.928664E-03 +1.051793E-04 +8.406252E-05 +1.051793E-04 +2.193421E-04 -8.093587E-05 +8.406252E-05 -8.093587E-05 -1.516957E-04 
 +5.009529E-03 +1.573324E-04 -9.382352E-05 +1.573324E-04 +2.423293E-04 -4.752905E-05 -9.382352E-05 -4.752905E-05 -2.376353E-04 
 +5.028697E-03 +1.907075E-04 -1.565823E-04 +1.907075E-04 +2.474569E-04 +5.807581E-05 -1.565823E-04 +5.807581E-05 -2.262972E-04 
 +5.086567E-03 +1.692085E-04 -2.061788E-04 +1.692085E-04 +2.208414E-04 +1.431343E-04 -2.061788E-04 +1.431343E-04 -3.122693E-04 
 +5.140016E-03 +8.935517E-05 -1.338512E-04 +8.935517E-05 +1.024320E-04 +1.866736E-04 -1.338512E-04 +1.866736E-04 -3.081506E-04 
 +5.047186E-03 -3.074373E-05 -9.911399E-05 -3.074373E-05 -7.222405E-05 +1.493426E-04 -9.911399E-05 +1.493426E-04 -1.354535E-04 
 +5.055990E-03 -1.448990E-04 +1.184550E-04 -1.448990E-04 -1.573053E-04 +1.404967E-05 +1.184550E-04 +1.404967E-05 -5.787698E-05 
 +4.964618E-03 -1.150140E-04 +6.647946E-05 -1.150140E-04 -1.483425E-04 -5.136124E-05 +6.647946E-05 -5.136124E-05 +5.563890E-05 
 +4.923410E-03 +1.139313E-04 -4.947365E-05 +1.139313E-04 -1.084557E-04 -6.048965E-05 -4.947365E-05 -6.048965E-05 +1.197947E-04 
 +4.887796E-03 +6.740731E-05 -1.129371E-04 +6.740731E-05 +1.232597E-05 -1.395989E-05 -1.129371E-04 -1.395989E-05 +2.477653E-05 
 +4.920928E-03 +6.019464E-05 -1.919091E-04 +6.019464E-05 +6.256350E-05 -2.472112E-05 -1.919091E-04 -2.472112E-05 -3.978742E-05 
 +4.778507E-03 +5.041107E-05 -2.141891E-04 +5.041107E-05 +6.114143E-05 +2.362512E-05 -2.141891E-04 +2.362512E-05 +3.968609E-06 
 +4.835255E-03 +1.132285E-05 -1.170558E-04 +1.132285E-05 -1.084067E-05 +9.748631E-05 -1.170558E-04 +9.748631E-05 +8.966121E-05 
 +4.858662E-03 -4.580971E-05 -5.504184E-06 -4.580971E-05 -1.025243E-04 +8.338285E-05 -5.504184E-06 +8.338285E-05 +1.453473E-04 
 +4.860676E-03 -2.155129E-05 +6.669920E-05 -2.155129E-05 -1.778907E-04 -3.871763E-05 +6.669920E-05 -3.871763E-05 +1.247450E-04 
 +5.319716E-03 -1.275235E-04 +9.582371E-05 -1.275235E-04 -2.441323E-04 -1.767846E-04 +9.582371E-05 -1.767846E-04 +4.640896E-05 
 +5.209507E-03 -2.087963E-04 +8.908869E-05 -2.087963E-04 -1.011915E-04 -1.926201E-04 +8.908869E-05 -1.926201E-04 -6.733611E-05 
 +5.007616E-03 -3.217414E-04 +5.033548E-05 -3.217414E-04 +1.382761E-04 -9.235614E-05 +5.033548E-05 -9.235614E-05 -1.793212E-04 
 +4.976895E-03 -1.524122E-04 +1.191123E-04 -1.524122E-04 +1.512947E-04 -4.879602E-05 +1.191123E-04 -4.879602E-05 -1.604859E-04 
 +4.895430E-03 -4.662123E-05 +1.301016E-04 -4.662123E-05 +1.121286E-04 -7.087418E-05 +1.301016E-04 -7.087418E-05 -8.179219E-05 
 +4.887247E-03 +7.430565E-05 +1.324733E-04 +7.430565E-05 +1.615352E-04 -5.519613E-05 +1.324733E-04 -5.519613E-05 -1.703676E-04 
 +5.003682E-03 +1.142843E-04 +2.696853E-05 +1.142843E-04 +1.941615E-04 +1.274526E-06 +2.696853E-05 +1.274526E-06 -3.950730E-04 
 +5.066699E-03 +1.626129E-04 -1.048958E-04 +1.626129E-04 +2.192420E-04 +7.880605E-05 -1.048958E-04 +7.880605E-05 -4.227263E-04 
 +5.046282E-03 +1.997120E-04 -1.487882E-04 +1.997120E-04 +2.273856E-04 +1.290853E-04 -1.487882E-04 +1.290853E-04 -3.087972E-04 
 +5.071514E-03 +2.067441E-04 -2.193934E-04 +2.067441E-04 +2.163099E-04 +2.091324E-04 -2.193934E-04 +2.091324E-04 -3.298427E-04 
 +5.093218E-03 +6.057130E-05 -2.097319E-04 +6.057130E-05 +1.191245E-04 +2.537600E-04 -2.097319E-04 +2.537600E-04 -2.490969E-04 
 +5.013053E-03 -5.993905E-05 -1.579039E-04 -5.993905E-05 -4.835722E-05 +1.472525E-04 -1.579039E-04 +1.472525E-04 -5.642803E-05 
 +5.038482E-03 -1.008738E-04 +4.529695E-05 -1.008738E-04 -1.592993E-04 -5.796580E-05 +4.529695E-05 -5.796580E-05 +3.358271E-06 
 +5.043561E-03 -8.589131E-05 +9.518752E-05 -8.589131E-05 -1.942879E-04 -1.525592E-04 +9.518752E-05 -1.525592E-04 +8.030479E-05 
 +5.037797E-03 +8.184875E-07 -3.135643E-05 +8.184875E-07 -1.658075E-04 -2.945479E-04 -3.135643E-05 -2.945479E-04 -2.709417E-06 
 +5.007591E-03 -9.519917E-05 -1.577151E-04 -9.519917E-05 -2.016053E-04 -3.539597E-04 -1.577151E-04 -3.539597E-04 -8.228326E-05 
 +5.056216E-03 -8.735325E-05 -2.718781E-04 -8.735325E-05 -8.759752E-05 -2.722507E-04 -2.718781E-04 -2.722507E-04 -1.568457E-04 
 +4.742574E-03 -1.477116E-05 -2.191387E-04 -1.477116E-05 +8.165444E-05 -9.508526E-05 -2.191387E-04 -9.508526E-05 -7.369237E-05 
 +4.713435E-03 -6.093879E-08 -1.126433E-04 -6.093879E-08 +4.563456E-05 +2.480488E-05 -1.126433E-04 +2.480488E-05 +8.142417E-05 
 +4.753093E-03 -5.391719E-06 +3.474940E-05 -5.391719E-06 -5.851575E-05 +3.555052E-05 +3.474940E-05 +3.555052E-05 +1.894083E-04 
 +4.765458E-03 -4.127815E-05 +9.530255E-05 -4.127815E-05 -1.265033E-04 -1.089992E-05 +9.530255E-05 -1.089992E-05 +1.821271E-04 
 +5.242159E-03 -1.324882E-04 +1.028698E-04 -1.324882E-04 -2.142482E-04 -7.604475E-05 +1.028698E-04 -7.604475E-05 +8.239967E-05 
 +5.193007E-03 -8.019492E-05 +9.242124E-05 -8.019492E-05 -1.684321E-04 -1.171158E-04 +9.242124E-05 -1.171158E-04 -1.844133E-05 
 +5.016288E-03 -2.267499E-04 +6.801702E-05 -2.267499E-04 -1.964634E-06 -7.688648E-05 +6.801702E-05 -7.688648E-05 -1.230391E-04 
 +4.997267E-03 -2.093959E-04 +6.132311E-05 -2.093959E-04 +2.766400E-05 -8.324055E-05 +6.132311E-05 -8.324055E-05 -1.536760E-04 
 +4.927834E-03 -4.335404E-05 +9.640813E-05 -4.335404E-05 +5.462467E-05 -1.246414E-04 +9.640813E-05 -1.246414E-04 -1.434820E-04 
 +4.942182E-03 +1.001678E-04 +5.988664E-05 +1.001678E-04 +1.619488E-04 -1.184872E-04 +5.988664E-05 -1.184872E-04 -2.967685E-04 
 +5.063102E-03 +1.316292E-04 +3.282536E-05 +1.316292E-04 +1.413841E-04 -6.710986E-05 +3.282536E-05 -6.710986E-05 -4.664515E-04 
 +5.086228E-03 +1.847484E-04 -3.715421E-05 +1.847484E-04 +1.129952E-04 +8.638726E-05 -3.715421E-05 +8.638726E-05 -4.778389E-04 
 +5.065989E-03 +1.997603E-04 -1.185342E-04 +1.997603E-04 +1.903917E-04 +2.406756E-04 -1.185342E-04 +2.406756E-04 -3.455041E-04 
 +5.073571E-03 +1.130412E-04 -1.317673E-04 +1.130412E-04 +1.870615E-04 +2.862705E-04 -1.317673E-04 +2.862705E-04 -2.121257E-04 
 +5.032756E-03 -8.244444E-05 -2.097965E-04 -8.244444E-05 +6.337051E-05 +2.140920E-04 -2.097965E-04 +2.140920E-04 -1.161146E-04 
 +5.016833E-03 -1.286209E-04 -1.379158E-04 -1.286209E-04 +2.533553E-05 +6.729817E-05 -1.379158E-04 +6.729817E-05 -3.486820E-05 
 +5.009108E-03 -1.700161E-04 +5.423139E-05 -1.700161E-04 +2.765227E-05 -9.006407E-05 +5.423139E-05 -9.006407E-05 -5.282700E-05 
 +4.995683E-03 -1.915105E-04 +9.906126E-05 -1.915105E-04 -6.058766E-05 -2.022358E-04 +9.906126E-05 -2.022358E-04 -4.087812E-05 
 +5.040849E-03 -4.095671E-05 -3.337968E-05 -4.095671E-05 -3.518171E-05 -2.989510E-04 -3.337968E-05 -2.989510E-04 -7.743109E-05 
 +5.074120E-03 -1.087538E-04 -1.319554E-04 -1.087538E-04 -1.535709E-04 -3.363107E-04 -1.319554E-04 -3.363107E-04 -9.936991E-05 
 +5.076281E-03 -1.042436E-04 -2.372969E-04 -1.042436E-04 -1.870722E-04 -3.177797E-04 -2.372969E-04 -3.177797E-04 -1.540881E-04 
 +5.048341E-03 -5.833332E-05 -1.655866E-04 -5.833332E-05 -2.025632E-04 -2.461238E-04 -1.655866E-04 -2.461238E-04 -9.718796E-05 
 +4.678169E-03 +7.941715E-06 -8.021283E-05 +7.941715E-06 -6.951229E-05 -9.017007E-05 -8.021283E-05 -9.017007E-05 +8.374105E-05 
 +4.635964E-03 +1.070999E-05 +3.827064E-05 +1.070999E-05 +4.680039E-05 -3.652063E-06 +3.827064E-05 -3.652063E-06 +1.826243E-04 
 +4.674923E-03 -6.448166E-05 +8.269280E-05 -6.448166E-05 -7.278036E-05 -1.443846E-05 +8.269280E-05 -1.443846E-05 +1.891963E-04 
 +5.079705E-03 -1.342169E-04 +7.437028E-05 -1.342169E-04 -2.012583E-04 -1.720487E-05 +7.437028E-05 -1.720487E-05 +1.426843E-04 
 +5.157945E-03 -4.248708E-05 +6.740323E-05 -4.248708E-05 -2.038481E-04 -4.936264E-05 +6.740323E-05 -4.936264E-05 +5.171508E-05 
 +5.090316E-03 -1.356119E-04 -1.583104E-05 -1.356119E-04 -1.018929E-04 -1.079449E-04 -1.583104E-05 -1.079449E-04 -9.050119E-05 
 +4.969539E-03 -1.265626E-04 -5.555820E-05 -1.265626E-04 +1.552767E-04 -1.409270E-04 -5.555820E-05 -1.409270E-04 -2.194629E-04 
 +4.938276E-03 +1.580271E-05 +2.074690E-05 +1.580271E-05 +2.754277E-04 -1.254973E-04 +2.074690E-05 -1.254973E-04 -2.190518E-04 
 +5.021476E-03 +6.427235E-05 +2.599352E-05 +6.427235E-05 +1.420860E-04 -7.304707E-05 +2.599352E-05 -7.304707E-05 -2.269168E-04 
 +5.073411E-03 +4.945865E-05 +5.384885E-05 +4.945865E-05 +4.914393E-05 -1.793591E-05 +5.384885E-05 -1.793591E-05 -2.538791E-04 
 +5.081962E-03 +1.468173E-04 +8.282816E-05 +1.468173E-04 +6.556635E-05 +4.712392E-05 +8.282816E-05 +4.712392E-05 -3.411002E-04 
 +5.060244E-03 +1.740070E-04 +2.390352E-05 +1.740070E-04 +8.781945E-05 +1.449154E-04 +2.390352E-05 +1.449154E-04 -2.994512E-04 
 +5.054130E-03 -7.299875E-06 -9.277836E-05 -7.299875E-06 -9.598518E-06 +1.812331E-04 -9.277836E-05 +1.812331E-04 -2.902445E-05 
 +5.037777E-03 -1.142015E-04 -1.693731E-04 -1.142015E-04 -7.531834E-05 +1.448903E-04 -1.693731E-04 +1.448903E-04 +5.822290E-05 
 +5.023685E-03 -1.066227E-04 -1.542517E-04 -1.066227E-04 -1.989011E-05 +5.011522E-05 -1.542517E-04 +5.011522E-05 +3.835521E-05 
 +4.990068E-03 -1.541528E-04 +2.239676E-05 -1.541528E-04 +5.919040E-05 -1.216620E-04 +2.239676E-05 -1.216620E-04 -1.188239E-05 
 +4.931024E-03 -2.059258E-04 +9.026561E-05 -2.059258E-04 +8.976415E-05 -2.390139E-04 +9.026561E-05 -2.390139E-04 -8.150368E-05 
 +5.051957E-03 -1.095300E-04 +5.084615E-06 -1.095300E-04 +2.954148E-05 -3.047822E-04 +5.084615E-06 -3.047822E-04 -7.089330E-05 
 +5.024702E-03 -8.557972E-05 -6.287878E-05 -8.557972E-05 -1.129026E-04 -2.679178E-04 -6.287878E-05 -2.679178E-04 -4.396630E-05 
 +5.074068E-03 -1.233236E-04 -1.323240E-04 -1.233236E-04 -1.799842E-04 -2.397806E-04 -1.323240E-04 -2.397806E-04 -8.188935E-05 
 +5.206905E-03 -9.648089E-05 -5.805058E-05 -9.648089E-05 -2.131779E-04 -1.877873E-04 -5.805058E-05 -1.877873E-04 -7.129067E-05 
 +4.844720E-03 +4.973588E-05 +2.137943E-05 +4.973588E-05 -5.187007E-05 -1.146748E-04 +2.137943E-05 -1.146748E-04 -5.267248E-05 
 +4.724794E-03 +8.803541E-05 +2.277962E-05 +8.803541E-05 +9.885999E-05 -7.499256E-05 +2.277962E-05 -7.499256E-05 -4.661742E-05 
 +4.604149E-03 +5.587895E-05 +5.727962E-05 +5.587895E-05 +1.463860E-04 -2.936426E-05 +5.727962E-05 -2.936426E-05 +7.168237E-05 
 +4.829356E-03 -1.349059E-05 +3.623990E-05 -1.349059E-05 +1.250601E-04 -1.435027E-05 +3.623990E-05 -1.435027E-05 +1.191794E-04 
 +5.073975E-03 +3.068845E-05 +7.442774E-06 +3.068845E-05 -4.923931E-05 -1.004527E-04 +7.442774E-06 -1.004527E-04 +2.964724E-05 
 +5.083925E-03 +1.325004E-05 -4.766381E-05 +1.325004E-05 -4.516792E-05 -1.520014E-04 -4.766381E-05 -1.520014E-04 -1.179387E-04 
 +4.972285E-03 +9.589012E-06 -6.752286E-05 +9.589012E-06 +1.807855E-04 -1.194601E-04 -6.752286E-05 -1.194601E-04 -2.433125E-04 
 +4.952256E-03 -3.039225E-05 -3.058283E-05 -3.039225E-05 +2.452873E-04 -3.084657E-05 -3.058283E-05 -3.084657E-05 -2.130613E-04 
 +5.009705E-03 -7.004201E-06 -2.684158E-05 -7.004201E-06 +1.375317E-04 +7.532408E-05 -2.684158E-05 +7.532408E-05 -1.273397E-04 
 +5.058532E-03 +2.278178E-05 +4.100880E-06 +2.278178E-05 +3.702868E-05 +9.942726E-05 +4.100880E-06 +9.942726E-05 -6.429390E-05 
 +5.088339E-03 +1.545379E-04 +7.206259E-05 +1.545379E-04 +1.037204E-05 +5.506966E-05 +7.206259E-05 +5.506966E-05 -1.485697E-04 
 +5.078247E-03 +1.221717E-04 +3.138506E-05 +1.221717E-04 -9.101302E-05 +2.716822E-05 +3.138506E-05 +2.716822E-05 -1.893546E-04 
 +5.071739E-03 -3.651897E-05 -4.276293E-05 -3.651897E-05 -2.062373E-04 +8.127130E-05 -4.276293E-05 +8.127130E-05 +4.321410E-05 
 +5.054273E-03 -6.191564E-05 -8.924386E-05 -6.191564E-05 -1.775711E-04 +9.796379E-05 -8.924386E-05 +9.796379E-05 +1.150932E-04 
 +5.004195E-03 -7.222670E-05 -1.404406E-04 -7.222670E-05 -9.855269E-05 +7.297006E-05 -1.404406E-04 +7.297006E-05 +1.079324E-04 
 +4.950169E-03 -1.126112E-04 -6.742704E-05 -1.126112E-04 +2.862024E-05 -2.149544E-05 -6.742704E-05 -2.149544E-05 +1.194390E-04 
 +4.979957E-03 -2.140581E-04 +9.085434E-05 -2.140581E-04 +1.399907E-04 -2.241513E-04 +9.085434E-05 -2.241513E-04 -1.401525E-05 
 +5.016198E-03 -1.748209E-04 -3.085305E-05 -1.748209E-04 +1.389836E-05 -1.807261E-04 -3.085305E-05 -1.807261E-04 -5.546274E-05 
 +4.945375E-03 -1.734877E-04 -6.428141E-05 -1.734877E-04 +5.446496E-05 -2.247066E-04 -6.428141E-05 -2.247066E-04 -6.921083E-05 
 +5.089375E-03 -2.356267E-04 -8.856981E-05 -2.356267E-04 -4.642588E-05 -2.057658E-04 -8.856981E-05 -2.057658E-04 -5.575849E-05 
 +5.122201E-03 -1.590010E-04 +1.350251E-05 -1.590010E-04 -6.673753E-05 -2.380262E-04 +1.350251E-05 -2.380262E-04 -5.850124E-05 
 +5.065229E-03 -2.722534E-05 +4.915148E-05 -2.722534E-05 -1.717917E-05 -2.511943E-04 +4.915148E-05 -2.511943E-04 -1.862380E-04 
 +5.011947E-03 -8.072548E-05 +3.459976E-06 -8.072548E-05 +2.577229E-05 -1.471973E-04 +3.459976E-06 -1.471973E-04 -2.201208E-04 
 +4.676589E-03 +1.089317E-05 +8.775559E-06 +1.089317E-05 +1.383598E-04 -6.767541E-05 +8.775559E-06 -6.767541E-05 -7.265511E-05 
 +4.789799E-03 +6.891237E-05 +2.699736E-06 +6.891237E-05 +2.912884E-04 -7.733509E-05 +2.699736E-06 -7.733509E-05 -7.512379E-05 
 +4.859647E-03 +1.737047E-04 +2.434191E-07 +1.737047E-04 +4.714615E-04 -8.183675E-05 +2.434191E-07 -8.183675E-05 -1.882039E-04 
 +4.949117E-03 +1.476814E-04 +1.234956E-05 +1.476814E-04 +5.290276E-04 -9.601456E-05 +1.234956E-05 -9.601456E-05 -3.062585E-04 
 +4.895119E-03 +5.659457E-05 -1.616142E-05 +5.659457E-05 +3.885984E-04 -1.136811E-04 -1.616142E-05 -1.136811E-04 -3.417444E-04 
 +4.949789E-03 -6.735902E-05 -1.248450E-05 -6.735902E-05 +2.797828E-04 -5.875433E-05 -1.248450E-05 -5.875433E-05 -2.247672E-04 
 +4.998887E-03 -9.694738E-05 -7.262238E-05 -9.694738E-05 +1.919416E-04 +5.028075E-05 -7.262238E-05 +5.028075E-05 -1.279203E-04 
 +5.037840E-03 -4.485175E-05 -1.637908E-05 -4.485175E-05 +4.723000E-05 +1.398169E-04 -1.637908E-05 +1.398169E-04 -7.213009E-05 
 +5.113189E-03 +1.003378E-04 -2.728435E-05 +1.003378E-04 -1.327743E-04 +1.496089E-04 -2.728435E-05 +1.496089E-04 -7.071620E-05 
 +5.087339E-03 +2.156736E-05 -1.227752E-04 +2.156736E-05 -3.075393E-04 +1.199322E-04 -1.227752E-04 +1.199322E-04 -5.875427E-05 
 +5.114633E-03 -3.311279E-05 -1.260912E-05 -3.311279E-05 -3.195397E-04 +1.330895E-04 -1.260912E-05 +1.330895E-04 +5.922545E-05 
 +5.055312E-03 -3.432763E-05 -5.892163E-05 -3.432763E-05 -2.126245E-04 +1.050606E-04 -5.892163E-05 +1.050606E-04 +1.003450E-04 
 +4.969284E-03 -2.876128E-05 -6.419024E-05 -2.876128E-05 -9.913347E-05 +6.610868E-05 -6.419024E-05 +6.610868E-05 +1.063765E-04 
 +4.929820E-03 -6.997138E-05 -5.587901E-05 -6.997138E-05 -7.018631E-05 +4.719042E-05 -5.587901E-05 +4.719042E-05 +1.207288E-04 
 +5.061632E-03 -1.646042E-04 +2.959101E-05 -1.646042E-04 -9.057732E-05 -4.617035E-05 +2.959101E-05 -4.617035E-05 +3.817564E-05 
 +4.958785E-03 -1.252778E-04 -9.114524E-05 -1.252778E-04 +4.333403E-05 -2.075166E-04 -9.114524E-05 -2.075166E-04 -6.512431E-06 
 +4.956040E-03 -1.583927E-04 -5.459518E-05 -1.583927E-04 -7.056933E-06 -3.088975E-04 -5.459518E-05 -3.088975E-04 -2.924321E-05 
 +5.043573E-03 -1.589659E-04 -1.293970E-04 -1.589659E-04 +1.310036E-05 -2.393963E-04 -1.293970E-04 -2.393963E-04 -9.539992E-05 
 +5.054036E-03 -3.716006E-05 -4.180622E-05 -3.716006E-05 +1.182111E-04 -2.237502E-04 -4.180622E-05 -2.237502E-04 -1.903542E-04 
 +5.138063E-03 +4.292570E-05 -1.312549E-05 +4.292570E-05 +1.223883E-04 -2.013447E-04 -1.312549E-05 -2.013447E-04 -2.284295E-04 
 +5.185656E-03 -7.996460E-05 -7.444776E-06 -7.996460E-05 +8.787046E-05 -1.197786E-04 -7.444776E-06 -1.197786E-04 -2.178247E-04 
 +4.912122E-03 -6.704367E-06 -3.637960E-05 -6.704367E-06 +1.171487E-04 -8.177802E-05 -3.637960E-05 -8.177802E-05 -2.188924E-04 
 +4.826008E-03 +3.921572E-05 -1.407633E-05 +3.921572E-05 +2.875796E-04 -4.994136E-05 -1.407633E-05 -4.994136E-05 -2.282918E-04 
 +4.733254E-03 +1.172056E-04 -2.594750E-06 +1.172056E-04 +4.521318E-04 -7.674339E-05 -2.594750E-06 -7.674339E-05 -2.672491E-04 
 +4.854899E-03 +1.046676E-04 -7.133200E-06 +1.046676E-04 +4.687885E-04 -1.084097E-04 -7.133200E-06 -1.084097E-04 -3.334593E-04 
 +4.830142E-03 +9.605851E-05 -3.154032E-05 +9.605851E-05 +4.781841E-04 -6.997378E-05 -3.154032E-05 -6.997378E-05 -2.520359E-04 
 +4.856363E-03 -5.235435E-05 -9.525748E-06 -5.235435E-05 +3.850281E-04 -7.142052E-05 -9.525748E-06 -7.142052E-05 -9.808629E-05 
 +4.962408E-03 -1.235822E-04 -6.608527E-06 -1.235822E-04 +2.113423E-04 -1.803701E-05 -6.608527E-06 -1.803701E-05 -9.634716E-05 
 +5.049593E-03 -1.008593E-04 -1.349559E-05 -1.008593E-04 +5.055283E-05 -1.421463E-05 -1.349559E-05 -1.421463E-05 -1.208372E-04 
 +5.094126E-03 -1.350059E-05 -5.701670E-05 -1.350059E-05 -2.117033E-04 -8.463116E-05 -5.701670E-05 -8.463116E-05 -1.310229E-04 
 +5.097459E-03 -2.082854E-05 -1.342452E-04 -2.082854E-05 -3.940157E-04 +4.107496E-05 -1.342452E-04 +4.107496E-05 -1.250732E-04 
 +5.147059E-03 +3.240687E-05 -5.813763E-05 +3.240687E-05 -3.617397E-04 +1.444039E-04 -5.813763E-05 +1.444039E-04 -3.203754E-05 
 +5.024862E-03 +2.961547E-05 -4.388051E-05 +2.961547E-05 -1.907486E-04 +9.785413E-05 -4.388051E-05 +9.785413E-05 +6.024955E-06 
 +4.957896E-03 -4.469628E-06 -1.458519E-05 -4.469628E-06 -3.570300E-05 +7.283650E-05 -1.458519E-05 +7.283650E-05 -7.394438E-06 
 +5.007284E-03 -8.335624E-05 -3.178499E-05 -8.335624E-05 +2.362235E-06 +6.820312E-05 -3.178499E-05 +6.820312E-05 -4.087362E-05 
 +5.048704E-03 -1.488335E-04 -7.342441E-05 -1.488335E-04 +2.530559E-05 -3.034693E-06 -7.342441E-05 -3.034693E-06 -3.132422E-05 
 +4.977425E-03 -1.156937E-04 -8.251917E-05 -1.156937E-04 -7.955710E-05 +6.786036E-05 -8.251917E-05 +6.786036E-05 +4.016456E-05 
 +5.002827E-03 -1.715860E-04 -6.997154E-05 -1.715860E-04 -5.665610E-05 -1.183230E-04 -6.997154E-05 -1.183230E-04 +2.214613E-06 
 +5.014263E-03 -7.139237E-05 -1.445673E-04 -7.139237E-05 +1.203493E-05 -2.075675E-04 -1.445673E-04 -2.075675E-04 -1.842839E-04 
 +5.037866E-03 +7.181776E-05 -8.893341E-05 +7.181776E-05 +1.670337E-04 -2.099579E-04 -8.893341E-05 -2.099579E-04 -3.155034E-04 
 +5.144678E-03 +5.276538E-05 -5.744928E-05 +5.276538E-05 +2.312395E-04 -1.974529E-04 -5.744928E-05 -1.974529E-04 -2.684010E-04 
 +5.160262E-03 -7.427740E-05 -3.172783E-05 -7.427740E-05 +2.101699E-04 -2.277870E-04 -3.172783E-05 -2.277870E-04 -3.151431E-04 
 +5.039317E-03 -8.626873E-05 -2.148491E-06 -8.626873E-05 +2.103334E-04 -2.300356E-04 -2.148491E-06 -2.300356E-04 -3.886923E-04 
 +4.809916E-03 +4.021570E-05 -2.416377E-05 +4.021570E-05 +2.857103E-04 -1.320058E-04 -2.416377E-05 -1.320058E-04 -2.331600E-04 
 +4.749610E-03 +6.125539E-05 -8.693734E-05 +6.125539E-05 +3.852308E-04 -1.247227E-04 -8.693734E-05 -1.247227E-04 -9.985640E-05 
 +4.858581E-03 -6.789591E-06 -5.044748E-05 -6.789591E-06 +3.205473E-04 -8.042936E-05 -5.044748E-05 -8.042936E-05 -3.876953E-05 
 +4.846775E-03 -1.289684E-05 -3.860046E-05 -1.289684E-05 +1.342317E-04 +8.744932E-05 -3.860046E-05 +8.744932E-05 +1.352725E-04 
 +4.802712E-03 -7.108758E-05 -5.812178E-05 -7.108758E-05 +1.220360E-04 +6.317368E-05 -5.812178E-05 +6.317368E-05 +1.866657E-04 
 +4.927934E-03 -1.305592E-04 -1.099387E-05 -1.305592E-04 +1.584644E-04 -1.274225E-04 -1.099387E-05 -1.274225E-04 +1.997055E-05 
 +5.056048E-03 -1.429314E-04 -4.000122E-05 -1.429314E-04 -1.292902E-06 -2.043005E-04 -4.000122E-05 -2.043005E-04 -1.507473E-04 
 +5.074115E-03 -2.390609E-05 -2.937955E-05 -2.390609E-05 -9.459990E-05 -2.173553E-04 -2.937955E-05 -2.173553E-04 -2.953249E-04 
 +5.081246E-03 +2.671028E-06 +5.630090E-05 +2.671028E-06 -1.610692E-04 -1.570034E-04 +5.630090E-05 -1.570034E-04 -2.951353E-04 
 +5.053049E-03 +5.149848E-05 +1.561162E-05 +5.149848E-05 -2.216391E-04 -7.335726E-07 +1.561162E-05 -7.335726E-07 -1.058593E-04 
 +5.033685E-03 +9.092600E-05 -2.422000E-05 +9.092600E-05 -1.503642E-04 +8.476623E-05 -2.422000E-05 +8.476623E-05 +2.475031E-05 
 +5.018359E-03 +3.511847E-05 -2.374807E-05 +3.511847E-05 -1.193421E-04 +1.403800E-04 -2.374807E-05 +1.403800E-04 +7.967924E-05 
 +5.053376E-03 -4.667338E-05 -8.805054E-05 -4.667338E-05 -1.253666E-04 +1.897656E-04 -8.805054E-05 +1.897656E-04 +4.615721E-05 
 +4.996334E-03 -1.389652E-04 -9.490558E-05 -1.389652E-04 -9.793592E-05 +1.776735E-04 -9.490558E-05 +1.776735E-04 +1.776742E-06 
 +4.974019E-03 -1.675070E-04 +3.016981E-06 -1.675070E-04 -2.098907E-04 +1.466997E-04 +3.016981E-06 +1.466997E-04 +1.607686E-05 
 +5.026212E-03 -1.329915E-04 -1.182723E-04 -1.329915E-04 -1.373184E-04 +9.668674E-05 -1.182723E-04 +9.668674E-05 -1.015016E-04 
 +5.006850E-03 -1.972102E-05 -2.062084E-04 -1.972102E-05 +1.829631E-04 -8.268951E-05 -2.062084E-04 -8.268951E-05 -2.277508E-04 
 +5.028456E-03 +8.318149E-06 -1.117051E-04 +8.318149E-06 +2.587297E-04 -2.005676E-04 -1.117051E-04 -2.005676E-04 -2.054153E-04 
 +5.151822E-03 -1.249849E-05 -9.465880E-05 -1.249849E-05 +1.917530E-04 -1.763622E-04 -9.465880E-05 -1.763622E-04 -1.205766E-04 
 +5.114942E-03 -9.169474E-05 -6.231348E-05 -9.169474E-05 +2.316617E-04 -1.764795E-04 -6.231348E-05 -1.764795E-04 -1.911896E-04 
 +5.033363E-03 -9.668726E-05 -6.878029E-06 -9.668726E-05 +2.686902E-04 -2.111949E-04 -6.878029E-06 -2.111949E-04 -2.405114E-04 
 +4.821735E-03 +1.152848E-05 -6.833517E-05 +1.152848E-05 +2.405441E-04 -1.096102E-04 -6.833517E-05 -1.096102E-04 -5.638443E-05 
 +4.795988E-03 -4.752422E-05 -1.127690E-04 -4.752422E-05 +6.772306E-05 +9.684004E-05 -1.127690E-04 +9.684004E-05 +1.063348E-04 
 +4.895298E-03 -8.766565E-05 -6.850004E-05 -8.766565E-05 -7.920751E-05 +2.436023E-04 -6.850004E-05 +2.436023E-04 +1.634632E-04 
 +4.875406E-03 -6.959176E-05 -6.452088E-05 -6.959176E-05 -8.553068E-05 +2.815293E-04 -6.452088E-05 +2.815293E-04 +2.481819E-04 
 +4.861394E-03 -4.814471E-05 -8.278005E-05 -4.814471E-05 -1.137435E-04 +2.196196E-04 -8.278005E-05 +2.196196E-04 +2.662934E-04 
 +4.931561E-03 -1.269168E-04 -1.166632E-04 -1.269168E-04 -1.087765E-04 +1.664588E-04 -1.166632E-04 +1.664588E-04 +1.778990E-04 
 +5.012812E-03 -1.538503E-04 -6.231888E-05 -1.538503E-04 +2.241745E-05 +2.749565E-04 -6.231888E-05 +2.749565E-04 -6.479337E-05 
 +5.059783E-03 -8.591700E-05 +1.208119E-06 -8.591700E-05 +3.955938E-05 +4.505012E-04 +1.208119E-06 +4.505012E-04 -3.100039E-04 
 +5.059780E-03 -5.783906E-05 +7.868889E-05 -5.783906E-05 -1.299712E-06 +2.941484E-04 +7.868889E-05 +2.941484E-04 -3.300557E-04 
 +4.977501E-03 +3.641257E-05 +1.616317E-04 +3.641257E-05 -1.292351E-04 -6.065038E-05 +1.616317E-04 -6.065038E-05 -2.326608E-04 
 +5.081985E-03 +1.554632E-04 +6.181136E-05 +1.554632E-04 -4.049923E-04 -1.093891E-04 +6.181136E-05 -1.093891E-04 -6.100745E-05 
 +5.062823E-03 +1.391693E-04 -4.750624E-05 +1.391693E-04 -3.864917E-04 +1.504307E-05 -4.750624E-05 +1.504307E-05 +1.217061E-04 
 +5.015924E-03 -1.814627E-05 -6.549897E-05 -1.814627E-05 -2.221510E-04 +1.047126E-04 -6.549897E-05 +1.047126E-04 +1.186231E-04 
 +4.950744E-03 -1.215587E-04 -2.192203E-05 -1.215587E-04 -1.661337E-04 +1.388952E-04 -2.192203E-05 +1.388952E-04 +5.199434E-05 
 +4.962067E-03 -1.505937E-04 -1.028023E-05 -1.505937E-04 -1.784424E-04 +8.513701E-05 -1.028023E-05 +8.513701E-05 -5.103571E-05 
 +4.970447E-03 -7.207207E-05 -1.071668E-04 -7.207207E-05 -9.780198E-05 -6.623505E-05 -1.071668E-04 -6.623505E-05 -1.284592E-04 
 +5.021278E-03 -2.673865E-06 -1.814941E-04 -2.673865E-06 -2.061588E-04 -1.532472E-06 -1.814941E-04 -1.532472E-06 -6.071903E-05 
 +5.059328E-03 -3.509353E-05 -1.761953E-04 -3.509353E-05 -3.294176E-04 +3.836780E-05 -1.761953E-04 +3.836780E-05 +1.248980E-04 
 +5.139305E-03 -1.528862E-05 -1.598555E-04 -1.528862E-05 -4.326694E-04 -8.596152E-06 -1.598555E-04 -8.596152E-06 +2.330712E-04 
 +5.132372E-03 -1.813467E-05 -1.013934E-04 -1.813467E-05 -4.021482E-04 +2.346839E-05 -1.013934E-04 +2.346839E-05 +2.284761E-04 
 +4.968114E-03 -4.684436E-05 -8.592607E-05 -4.684436E-05 -2.186611E-04 +7.990960E-05 -8.592607E-05 +7.990960E-05 +2.284807E-04 
 +4.813744E-03 -4.599773E-05 -1.226860E-04 -4.599773E-05 -1.891082E-04 +1.379873E-04 -1.226860E-04 +1.379873E-04 +2.311727E-04 
 +4.898003E-03 -7.326865E-05 -7.335261E-05 -7.326865E-05 -1.990195E-04 +1.571497E-04 -7.335261E-05 +1.571497E-04 +2.204922E-04 
 +4.941902E-03 -7.275813E-05 -6.416716E-05 -7.275813E-05 -1.574382E-04 +1.363343E-04 -6.416716E-05 +1.363343E-04 +2.133817E-04 
 +4.913316E-03 -4.845307E-05 -8.079732E-05 -4.845307E-05 -1.621699E-04 +1.354092E-04 -8.079732E-05 +1.354092E-04 +2.141599E-04 
 +4.919412E-03 -6.065786E-05 -5.850528E-05 -6.065786E-05 -1.721752E-04 +1.429686E-04 -5.850528E-05 +1.429686E-04 +2.488121E-04 
 +4.950591E-03 -5.088738E-05 -1.298027E-04 -5.088738E-05 -9.009500E-05 +2.036327E-04 -1.298027E-04 +2.036327E-04 +2.278620E-04 
 +4.993860E-03 -2.911136E-05 -1.136464E-04 -2.911136E-05 +8.808237E-05 +3.283008E-04 -1.136464E-04 +3.283008E-04 +1.610658E-05 
 +4.991270E-03 -6.291553E-05 -8.990632E-06 -6.291553E-05 +1.807882E-04 +4.011567E-04 -8.990632E-06 +4.011567E-04 -1.885513E-04 
 +5.025443E-03 -5.449073E-05 +7.296160E-06 -5.449073E-05 +1.176666E-04 +2.856275E-04 +7.296160E-06 +2.856275E-04 -2.954432E-04 
 +5.033364E-03 -5.894087E-05 +1.088627E-04 -5.894087E-05 +2.852400E-05 -6.687859E-05 +1.088627E-04 -6.687859E-05 -3.510482E-04 
 +5.035670E-03 +3.430359E-05 +1.227471E-04 +3.430359E-05 -5.108495E-05 -2.791486E-04 +1.227471E-04 -2.791486E-04 -2.550803E-04 
 +4.986895E-03 +7.770140E-05 +5.012361E-06 +7.770140E-05 -1.946692E-04 -1.118746E-04 +5.012361E-06 -1.118746E-04 -7.384209E-05 
 +5.005343E-03 -9.806032E-05 -3.130765E-05 -9.806032E-05 -2.738368E-04 +9.291032E-05 -3.130765E-05 +9.291032E-05 +3.254545E-06 
 +4.976642E-03 -1.421118E-04 +2.386958E-05 -1.421118E-04 -2.662435E-04 +1.723345E-04 +2.386958E-05 +1.723345E-04 +2.964248E-06 
 +4.964842E-03 -6.150852E-05 -1.472634E-04 -6.150852E-05 -9.935388E-05 -1.393566E-04 -1.472634E-04 -1.393566E-04 -1.147727E-04 
 +4.960389E-03 -4.699452E-05 -8.731116E-05 -4.699452E-05 -3.016078E-05 -2.167481E-04 -8.731116E-05 -2.167481E-04 -4.955759E-05 
 +5.079245E-03 -1.124733E-05 -4.383104E-05 -1.124733E-05 -1.753889E-04 -1.710556E-04 -4.383104E-05 -1.710556E-04 +1.196938E-04 
 +5.100792E-03 +7.532553E-06 -1.296563E-04 +7.532553E-06 -3.631817E-04 -9.831017E-05 -1.296563E-04 -9.831017E-05 +2.681761E-04 
 +5.106619E-03 +5.424629E-05 -1.943000E-04 +5.424629E-05 -3.761253E-04 -1.019889E-04 -1.943000E-04 -1.019889E-04 +3.008360E-04 
 +5.076933E-03 +7.401339E-05 -1.910899E-04 +7.401339E-05 -3.279080E-04 -1.187890E-04 -1.910899E-04 -1.187890E-04 +3.287321E-04 
 +4.947285E-03 +6.218313E-05 -1.825510E-04 +6.218313E-05 -2.769169E-04 -1.285581E-06 -1.825510E-04 -1.285581E-06 +4.320110E-04 
 +4.802696E-03 +8.660111E-06 -1.378724E-04 +8.660111E-06 -2.029714E-04 +1.355075E-04 -1.378724E-04 +1.355075E-04 +4.009533E-04 
 +4.950673E-03 -5.134290E-05 -6.029387E-05 -5.134290E-05 -2.198485E-04 +1.225854E-04 -6.029387E-05 +1.225854E-04 +2.987471E-04 
 +4.988458E-03 -8.902510E-05 -5.106605E-05 -8.902510E-05 -2.608174E-04 +8.579678E-05 -5.106605E-05 +8.579678E-05 +2.787683E-04 
 +4.966493E-03 -3.246210E-05 -5.079853E-05 -3.246210E-05 -2.336622E-04 +1.130690E-04 -5.079853E-05 +1.130690E-04 +2.559747E-04 
 +4.963296E-03 -4.853643E-05 -6.211896E-05 -4.853643E-05 -1.884187E-04 +1.330834E-04 -6.211896E-05 +1.330834E-04 +2.372966E-04 
 +4.976687E-03 +3.330570E-05 -8.515472E-05 +3.330570E-05 -1.083901E-04 +1.859818E-04 -8.515472E-05 +1.859818E-04 +1.626958E-04 
 +5.016736E-03 +7.669395E-05 -9.186728E-05 +7.669395E-05 +7.323188E-05 +3.097955E-04 -9.186728E-05 +3.097955E-04 -1.890409E-05 
 +4.970619E-03 -1.559656E-05 -5.214026E-05 -1.559656E-05 +2.213843E-04 +4.112048E-04 -5.214026E-05 +4.112048E-04 -1.157956E-04 
 +4.955609E-03 -3.482623E-05 -1.518232E-05 -3.482623E-05 +2.219361E-04 +2.729004E-04 -1.518232E-05 +2.729004E-04 -1.604150E-04 
 +5.009838E-03 -6.031465E-05 +2.543739E-05 -6.031465E-05 +1.300320E-04 -6.243425E-05 +2.543739E-05 -6.243425E-05 -2.444206E-04 
 +4.962897E-03 +1.500523E-05 +1.376964E-04 +1.500523E-05 +6.065180E-05 -1.892781E-04 +1.376964E-04 -1.892781E-04 -2.152129E-04 
 +4.914392E-03 +2.529026E-05 +1.314650E-04 +2.529026E-05 -8.040238E-05 -3.615520E-05 +1.314650E-04 -3.615520E-05 -1.016315E-04 
 +5.009357E-03 -6.276512E-05 -1.710269E-06 -6.276512E-05 -2.993784E-04 +1.311918E-04 -1.710269E-06 +1.311918E-04 -7.605325E-05 
 +5.014546E-03 -6.785506E-05 -9.306733E-05 -6.785506E-05 -2.930422E-04 +6.463531E-05 -9.306733E-05 +6.463531E-05 -1.043730E-04 
 +4.978895E-03 +2.237363E-05 -1.480285E-04 +2.237363E-05 -1.231675E-04 -2.033424E-04 -1.480285E-04 -2.033424E-04 -7.647953E-05 
 +5.065158E-03 -2.016047E-05 -5.583152E-05 -2.016047E-05 -1.432009E-04 -1.757846E-04 -5.583152E-05 -1.757846E-04 +1.382020E-05 
 +5.093846E-03 -4.629890E-05 -8.811500E-06 -4.629890E-05 -1.762297E-04 -2.530420E-04 -8.811500E-06 -2.530420E-04 +1.394159E-04 
 +5.105782E-03 +6.751402E-07 -5.585711E-05 +6.751402E-07 -1.331791E-04 -2.770329E-04 -5.585711E-05 -2.770329E-04 +1.059202E-04 
 +5.093715E-03 +1.260813E-04 -1.646589E-04 +1.260813E-04 +6.731022E-06 -2.343192E-04 -1.646589E-04 -2.343192E-04 -7.842498E-07 
 +5.003880E-03 +1.442068E-04 -2.587549E-04 +1.442068E-04 +1.581531E-04 -1.986101E-04 -2.587549E-04 -1.986101E-04 +7.079572E-05 
 +4.922295E-03 +1.210208E-04 -1.763953E-04 +1.210208E-04 +2.236399E-04 -6.404485E-05 -1.763953E-04 -6.404485E-05 +2.661615E-04 
 +4.832033E-03 -5.171755E-05 -5.613073E-05 -5.171755E-05 +4.652824E-05 +1.255524E-04 -5.613073E-05 +1.255524E-04 +3.592271E-04 
 +4.929279E-03 -8.145669E-05 -5.112352E-05 -8.145669E-05 -2.642145E-04 +1.145403E-04 -5.112352E-05 +1.145403E-04 +3.596737E-04 
 +4.984301E-03 -4.717108E-05 -1.802919E-05 -4.717108E-05 -3.571624E-04 +6.040290E-05 -1.802919E-05 +6.040290E-05 +3.338802E-04 
 +5.017198E-03 -2.196973E-05 -4.209070E-05 -2.196973E-05 -2.927137E-04 +9.259618E-05 -4.209070E-05 +9.259618E-05 +2.352104E-04 
 +5.027641E-03 +1.218217E-05 -6.434972E-05 +1.218217E-05 -1.293753E-04 +1.402159E-04 -6.434972E-05 +1.402159E-04 +1.249539E-04 
 +5.024411E-03 +1.294267E-04 -4.219518E-05 +1.294267E-04 +1.199136E-04 +2.182573E-04 -4.219518E-05 +2.182573E-04 +5.571518E-05 
 +5.049390E-03 +1.206159E-04 -4.630048E-05 +1.206159E-04 +1.501262E-04 +2.565029E-04 -4.630048E-05 +2.565029E-04 -2.824802E-05 
 +5.011552E-03 +7.683430E-05 -3.484423E-05 +7.683430E-05 +1.487380E-04 +2.867400E-04 -3.484423E-05 +2.867400E-04 -7.372540E-05 
 +4.923537E-03 +1.021737E-05 -1.696951E-06 +1.021737E-05 +2.574963E-04 +3.530580E-04 -1.696951E-06 +3.530580E-04 -7.462827E-05 
 +4.926621E-03 -2.743517E-05 +2.894465E-05 -2.743517E-05 +2.833003E-04 +3.593805E-04 +2.894465E-05 +3.593805E-04 -1.673962E-04 
 +4.897163E-03 +1.054949E-06 +1.908164E-04 +1.054949E-06 +1.332287E-04 +2.301982E-04 +1.908164E-04 +2.301982E-04 -1.795098E-04 
 +4.900155E-03 -2.759751E-05 +1.421788E-04 -2.759751E-05 -9.579677E-05 -3.448698E-05 +1.421788E-04 -3.448698E-05 -6.779129E-05 
 +4.970089E-03 -4.112766E-05 -2.218451E-05 -4.112766E-05 -1.333613E-04 -3.017823E-04 -2.218451E-05 -3.017823E-04 -6.970185E-05 
 +4.981423E-03 +5.125496E-06 -1.275381E-04 +5.125496E-06 -1.039300E-04 -3.340326E-04 -1.275381E-04 -3.340326E-04 -1.010804E-04 
 +5.011809E-03 +2.823185E-05 -9.347331E-05 +2.823185E-05 -1.343296E-04 -1.929165E-04 -9.347331E-05 -1.929165E-04 +1.633064E-06 
 +5.085698E-03 -3.352358E-05 -2.216911E-05 -3.352358E-05 -1.531279E-04 -2.092100E-04 -2.216911E-05 -2.092100E-04 +2.513418E-05 
 +5.120671E-03 -6.392607E-05 +2.010038E-05 -6.392607E-05 -7.898058E-05 -2.010667E-04 +2.010038E-05 -2.010667E-04 +3.353093E-05 
 +5.091194E-03 +5.544604E-05 -7.371638E-05 +5.544604E-05 +3.387633E-05 -1.098269E-04 -7.371638E-05 -1.098269E-04 -4.153560E-05 
 +5.047452E-03 +1.597304E-04 -1.400081E-04 +1.597304E-04 +1.547711E-04 -1.266179E-04 -1.400081E-04 -1.266179E-04 -8.741209E-05 
 +4.970635E-03 +1.146742E-04 -1.750498E-04 +1.146742E-04 +2.234120E-04 -6.505716E-05 -1.750498E-04 -6.505716E-05 -2.450114E-06 
 +4.925779E-03 +4.691507E-05 -9.400009E-05 +4.691507E-05 +1.449490E-04 +1.297880E-04 -9.400009E-05 +1.297880E-04 +1.394869E-04 
 +4.929895E-03 -9.239965E-05 -2.661097E-05 -9.239965E-05 +8.004740E-05 +1.909457E-04 -2.661097E-05 +1.909457E-04 +2.330303E-04 
 +4.905272E-03 -1.196397E-04 -5.313880E-05 -1.196397E-04 +1.042166E-04 +1.250272E-04 -5.313880E-05 +1.250272E-04 +2.686971E-04 
 +4.936249E-03 -6.041620E-05 -2.536776E-05 -6.041620E-05 -4.311051E-05 +5.948364E-05 -2.536776E-05 +5.948364E-05 +2.712430E-04 
 +5.019301E-03 +8.229988E-06 -4.067054E-05 +8.229988E-06 -2.164075E-04 +7.342128E-05 -4.067054E-05 +7.342128E-05 +2.086797E-04 
 +5.059914E-03 +1.017905E-04 -2.170683E-05 +1.017905E-04 -1.889036E-04 +1.711779E-04 -2.170683E-05 +1.711779E-04 +1.103304E-04 
 +5.081594E-03 +1.088361E-04 -3.070118E-05 +1.088361E-04 -1.950558E-04 +2.357872E-04 -3.070118E-05 +2.357872E-04 +5.179911E-05 
 +5.094759E-03 +7.200681E-05 -6.766980E-05 +7.200681E-05 -1.742236E-04 +2.429741E-04 -6.766980E-05 +2.429741E-04 +1.106473E-05 
 +5.062198E-03 +1.251527E-04 -3.943743E-05 +1.251527E-04 +2.914674E-05 +2.416059E-04 -3.943743E-05 +2.416059E-04 -6.291939E-05 
 +4.928853E-03 +2.622456E-05 -1.209658E-05 +2.622456E-05 +2.217059E-04 +2.265535E-04 -1.209658E-05 +2.265535E-04 -4.756017E-05 
 +4.879077E-03 -4.822444E-05 -3.252141E-05 -4.822444E-05 +2.951442E-04 +2.601753E-04 -3.252141E-05 +2.601753E-04 +2.156054E-05 
 +4.850271E-03 -1.149048E-04 +9.698436E-05 -1.149048E-04 +1.884195E-04 +9.896572E-05 +9.698436E-05 +9.896572E-05 +3.123102E-05 
 +4.879620E-03 -6.711598E-05 +1.045317E-04 -6.711598E-05 +3.521556E-05 -2.403861E-04 +1.045317E-04 -2.403861E-04 +2.576962E-05 
 +4.906793E-03 -1.784403E-05 +4.464099E-06 -1.784403E-05 -5.555296E-05 -3.340629E-04 +4.464099E-06 -3.340629E-04 +5.210524E-06 
 +4.951369E-03 +1.973258E-05 -5.141341E-05 +1.973258E-05 -9.429642E-05 -2.613663E-04 -5.141341E-05 -2.613663E-04 -4.068720E-06 
 +5.020754E-03 -8.657069E-06 -1.222625E-04 -8.657069E-06 -1.422230E-04 -2.671977E-04 -1.222625E-04 -2.671977E-04 -3.696034E-05 
 +5.061547E-03 -3.607106E-05 -2.490267E-05 -3.607106E-05 -1.413877E-04 -2.838296E-04 -2.490267E-05 -2.838296E-04 -8.669141E-05 
 +5.138296E-03 -4.541205E-05 +7.782571E-05 -4.541205E-05 -1.270135E-04 -2.250233E-04 +7.782571E-05 -2.250233E-04 -1.056262E-04 
 +5.067311E-03 +9.131529E-05 -8.170128E-06 +9.131529E-05 +1.934962E-05 -7.910879E-05 -8.170128E-06 -7.910879E-05 -1.077461E-04 
 +4.988764E-03 +1.521287E-04 -1.104818E-04 +1.521287E-04 +1.431657E-04 -9.319780E-05 -1.104818E-04 -9.319780E-05 -5.227303E-05 
 +4.979452E-03 +1.239137E-04 -6.191930E-05 +1.239137E-04 +1.300406E-04 -9.121508E-05 -6.191930E-05 -9.121508E-05 +1.045920E-05 
 +4.991133E-03 +5.929661E-06 -6.399039E-05 +5.929661E-06 +8.120192E-05 +9.600412E-05 -6.399039E-05 +9.600412E-05 +9.145976E-05 
 +4.987193E-03 -1.002881E-04 -7.674897E-05 -1.002881E-04 +6.606320E-05 +1.855291E-04 -7.674897E-05 +1.855291E-04 +1.471585E-04 
 +4.937140E-03 -1.434033E-04 -8.193240E-05 -1.434033E-04 +7.605692E-05 +1.083589E-04 -8.193240E-05 +1.083589E-04 +1.372194E-04 
 +4.947716E-03 -9.830681E-05 -7.353416E-05 -9.830681E-05 +7.548448E-05 +3.805136E-05 -7.353416E-05 +3.805136E-05 +1.141903E-04 
 +4.984811E-03 +1.403395E-05 -2.051868E-05 +1.403395E-05 +2.693519E-05 +6.029709E-05 -2.051868E-05 +6.029709E-05 +9.366869E-05 
 +5.052309E-03 +1.389372E-04 +3.292273E-05 +1.389372E-04 -1.128371E-04 +1.327265E-04 +3.292273E-05 +1.327265E-04 +1.168468E-04 
 +5.083726E-03 +1.106131E-04 -2.989538E-05 +1.106131E-04 -2.094077E-04 +1.959539E-04 -2.989538E-05 +1.959539E-04 +1.291747E-04 
 +5.081451E-03 +1.070106E-04 -8.362074E-05 +1.070106E-04 -2.129141E-04 +2.243421E-04 -8.362074E-05 +2.243421E-04 +9.505900E-05 
 +5.088449E-03 +1.270259E-04 -1.144903E-04 +1.270259E-04 -2.150453E-04 +2.549061E-04 -1.144903E-04 +2.549061E-04 +2.309212E-05 
 +4.997798E-03 +3.927316E-05 -1.068899E-04 +3.927316E-05 -1.765859E-04 +3.135840E-04 -1.068899E-04 +3.135840E-04 +1.657209E-05 
 +4.940461E-03 -1.177132E-05 -1.119821E-04 -1.177132E-05 -9.784432E-05 +3.539218E-04 -1.119821E-04 +3.539218E-04 +1.431112E-04 
 +4.917744E-03 -4.564478E-05 +1.156622E-05 -4.564478E-05 -3.017512E-05 +3.200583E-04 +1.156622E-05 +3.200583E-04 +2.240920E-04 
 +4.834855E-03 +5.388414E-05 +8.226324E-05 +5.388414E-05 +2.757809E-05 +1.498217E-04 +8.226324E-05 +1.498217E-04 +1.434850E-04 
 +4.782975E-03 +7.346499E-05 -3.714592E-07 +7.346499E-05 +8.620687E-05 -1.543864E-04 -3.714592E-07 -1.543864E-04 +4.491517E-05 
 +4.854471E-03 -1.490430E-05 -9.637336E-05 -1.490430E-05 -1.707981E-05 -3.051928E-04 -9.637336E-05 -3.051928E-04 +1.473288E-05 
 +4.969327E-03 +7.821309E-06 -1.360024E-04 +7.821309E-06 +2.224232E-04 +3.532550E-05 -1.360024E-04 +3.532550E-05 -2.207868E-04 
 +5.091288E-03 -2.549681E-05 -3.151782E-05 -2.549681E-05 +1.522789E-04 -9.577243E-05 -3.151782E-05 -9.577243E-05 -3.160753E-04 
 +5.076464E-03 +1.656237E-05 +1.186119E-04 +1.656237E-05 +1.960141E-04 -6.681433E-05 +1.186119E-04 -6.681433E-05 -2.333825E-04 
 +4.983476E-03 +1.145506E-04 +6.792779E-05 +1.145506E-04 +2.041764E-04 +1.212456E-05 +6.792779E-05 +1.212456E-05 -1.241431E-04 
 +5.000541E-03 +1.212486E-04 -4.130685E-05 +1.212486E-04 +1.403390E-04 -6.169502E-05 -4.130685E-05 -6.169502E-05 -1.074172E-04 
 +5.039376E-03 +8.015123E-05 -4.131524E-05 +8.015123E-05 +8.331363E-05 -6.983180E-05 -4.131524E-05 -6.983180E-05 -6.965640E-05 
 +5.035010E-03 -2.511967E-05 -6.732337E-05 -2.511967E-05 +2.653923E-05 +1.030192E-04 -6.732337E-05 +1.030192E-04 +4.003231E-05 
 +5.004560E-03 -8.308695E-05 -9.260015E-05 -8.308695E-05 +8.244528E-06 +1.888900E-04 -9.260015E-05 +1.888900E-04 +1.035858E-04 
 +4.997087E-03 -1.504957E-04 -1.207005E-04 -1.504957E-04 +6.182621E-06 +1.197728E-04 -1.207005E-04 +1.197728E-04 +7.989177E-05 
 +4.992871E-03 -1.056604E-04 -9.661888E-05 -1.056604E-04 +3.772809E-05 +7.568924E-05 -9.661888E-05 +7.568924E-05 +2.723698E-05 
 +4.990973E-03 -3.776493E-05 +1.090834E-05 -3.776493E-05 +2.477452E-05 +1.036160E-04 +1.090834E-05 +1.036160E-04 +2.133142E-05 
 +5.051093E-03 +6.816172E-05 +5.676650E-05 +6.816172E-05 -1.047719E-04 +1.483347E-04 +5.676650E-05 +1.483347E-04 +8.202082E-05 
 +5.054415E-03 +1.149508E-04 -2.055919E-05 +1.149508E-04 -2.048348E-04 +1.763268E-04 -2.055919E-05 +1.763268E-04 +1.248789E-04 
 +5.047009E-03 +1.411760E-04 -8.785951E-05 +1.411760E-04 -2.348187E-04 +1.979657E-04 -8.785951E-05 +1.979657E-04 +1.283906E-04 
 +5.079893E-03 +1.598083E-04 -1.406153E-04 +1.598083E-04 -2.844757E-04 +2.586353E-04 -1.406153E-04 +2.586353E-04 +1.124955E-04 
 +5.096104E-03 +1.137884E-04 -1.027334E-04 +1.137884E-04 -3.063231E-04 +3.196562E-04 -1.027334E-04 +3.196562E-04 +9.128251E-05 
 +5.038539E-03 +3.764362E-05 -6.890939E-05 +3.764362E-05 -2.478023E-04 +3.466643E-04 -6.890939E-05 +3.466643E-04 +1.422620E-04 
 +4.957774E-03 -5.113783E-06 +2.676061E-05 -5.113783E-06 -1.766430E-05 +2.485099E-04 +2.676061E-05 +2.485099E-04 +1.936109E-04 
 +4.753564E-03 +9.057713E-06 +7.314735E-05 +9.057713E-06 +3.140567E-04 +7.130837E-05 +7.314735E-05 +7.130837E-05 +1.319331E-04 
 +4.735410E-03 +6.460828E-06 +2.679728E-05 +6.460828E-06 +4.347954E-04 +1.809505E-05 +2.679728E-05 +1.809505E-05 +6.895381E-05 
 +4.743494E-03 -9.442655E-05 -4.270467E-05 -9.442655E-05 +3.447163E-04 +7.241040E-05 -4.270467E-05 +7.241040E-05 -3.367450E-05 
 +4.922621E-03 +3.856778E-05 -2.756440E-05 +3.856778E-05 +2.669879E-04 +3.426666E-06 -2.756440E-05 +3.426666E-06 -2.983856E-04 
 +5.047067E-03 +5.512402E-05 +3.772938E-05 +5.512402E-05 +1.552128E-04 -4.949615E-05 +3.772938E-05 -4.949615E-05 -4.106267E-04 
 +4.986617E-03 +8.488386E-05 +1.365575E-04 +8.488386E-05 +1.394819E-04 -7.301483E-05 +1.365575E-04 -7.301483E-05 -2.721073E-04 
 +4.891984E-03 +1.599193E-04 +6.420058E-05 +1.599193E-04 +1.553132E-04 -4.535749E-05 +6.420058E-05 -4.535749E-05 -6.701217E-05 
 +4.984953E-03 +1.509374E-04 -3.052270E-05 +1.509374E-04 +1.454245E-04 -8.134594E-05 -3.052270E-05 -8.134594E-05 -9.535924E-05 
 +5.066640E-03 +3.711817E-05 -2.500917E-05 +3.711817E-05 +4.318681E-05 -8.139898E-05 -2.500917E-05 -8.139898E-05 -1.269555E-04 
 +5.073101E-03 -4.831560E-05 +1.409262E-05 -4.831560E-05 -3.142902E-05 +1.176334E-04 +1.409262E-05 +1.176334E-04 -5.411596E-05 
 +5.086598E-03 -9.038511E-05 -8.161733E-05 -9.038511E-05 -4.375282E-05 +2.601891E-04 -8.161733E-05 +2.601891E-04 -2.854880E-05 
 +5.047357E-03 -1.126279E-04 -1.952665E-04 -1.126279E-04 -5.744077E-05 +1.999651E-04 -1.952665E-04 +1.999651E-04 -6.144633E-05 
 +5.006857E-03 -5.653331E-05 -1.030820E-04 -5.653331E-05 -7.823772E-05 +1.509900E-04 -1.030820E-04 +1.509900E-04 -7.053678E-05 
 +5.027410E-03 -5.546570E-05 +2.213014E-05 -5.546570E-05 -1.209035E-04 +1.985552E-04 +2.213014E-05 +1.985552E-04 +4.962427E-06 
 +5.017853E-03 +2.171966E-05 +4.770907E-05 +2.171966E-05 -1.545515E-04 +2.059797E-04 +4.770907E-05 +2.059797E-04 +4.491768E-05 
 +5.047018E-03 +8.511047E-05 -1.784525E-05 +8.511047E-05 -1.904397E-04 +1.642513E-04 -1.784525E-05 +1.642513E-04 +6.670388E-05 
 +5.068435E-03 +1.313056E-04 -4.885130E-05 +1.313056E-04 -2.441744E-04 +1.828749E-04 -4.885130E-05 +1.828749E-04 +9.903105E-05 
 +5.074526E-03 +1.659963E-04 -8.141418E-05 +1.659963E-04 -2.678714E-04 +2.576657E-04 -8.141418E-05 +2.576657E-04 +1.073690E-04 
 +5.105736E-03 +1.151604E-04 -4.105944E-05 +1.151604E-04 -2.582282E-04 +3.098861E-04 -4.105944E-05 +3.098861E-04 +9.517434E-05 
 +5.042773E-03 +3.174257E-05 +9.721971E-06 +3.174257E-05 -1.725346E-04 +3.549652E-04 +9.721971E-06 +3.549652E-04 +1.912148E-04 
 +4.940629E-03 +6.273913E-05 +2.475289E-05 +6.273913E-05 -2.034066E-05 +3.902073E-04 +2.475289E-05 +3.902073E-04 +2.743199E-04 
 +4.818346E-03 +1.564177E-04 +5.425632E-05 +1.564177E-04 +1.187241E-04 +3.994990E-04 +5.425632E-05 +3.994990E-04 +8.878571E-05 
 +4.782754E-03 +1.337080E-04 +5.867628E-05 +1.337080E-04 +2.526953E-04 +2.793624E-04 +5.867628E-05 +2.793624E-04 -5.765043E-06 
 +4.698985E-03 -2.338524E-05 +1.807551E-05 -2.338524E-05 +3.459400E-04 +9.514781E-05 +1.807551E-05 +9.514781E-05 -7.627485E-05 
 +4.868977E-03 -6.169102E-06 +7.814447E-05 -6.169102E-06 +2.994265E-04 +9.514319E-05 +7.814447E-05 +9.514319E-05 -2.578925E-04 
 +4.928063E-03 +1.991139E-05 +9.172688E-05 +1.991139E-05 +2.139917E-04 -7.206408E-05 +9.172688E-05 -7.206408E-05 -3.092180E-04 
 +4.900180E-03 +6.658034E-05 +5.033522E-05 +6.658034E-05 +1.036774E-04 -1.707521E-04 +5.033522E-05 -1.707521E-04 -1.704639E-04 
 +4.885659E-03 +1.992658E-04 +8.033602E-06 +1.992658E-04 +2.722013E-05 -1.802724E-04 +8.033602E-06 -1.802724E-04 -9.469595E-06 
 +4.942312E-03 +2.057934E-04 -7.376949E-05 +2.057934E-04 -3.408452E-06 -1.249904E-04 -7.376949E-05 -1.249904E-04 -1.929707E-05 
 +5.070604E-03 +9.712036E-05 -1.114452E-05 +9.712036E-05 +6.471996E-07 -6.108409E-05 -1.114452E-05 -6.108409E-05 -8.112275E-05 
 +5.091272E-03 +2.964881E-05 +3.319345E-05 +2.964881E-05 -1.674366E-05 -8.806681E-05 +3.319345E-05 -8.806681E-05 -9.051905E-05 
 +5.149086E-03 -5.904613E-05 -4.621241E-05 -5.904613E-05 -1.004149E-04 -1.372547E-04 -4.621241E-05 -1.372547E-04 -9.076674E-05 
 +5.118331E-03 -5.191701E-05 -1.908334E-04 -5.191701E-05 -7.165008E-05 -3.274098E-05 -1.908334E-04 -3.274098E-05 -1.068707E-04 
 +5.026413E-03 -4.301995E-05 -1.347635E-04 -4.301995E-05 -1.259587E-05 +3.927203E-05 -1.347635E-04 +3.927203E-05 -8.861784E-05 
 +4.977217E-03 -7.672111E-05 -2.763874E-05 -7.672111E-05 -8.559333E-05 +9.577590E-05 -2.763874E-05 +9.577590E-05 -7.975160E-06 
 +5.005164E-03 +9.669735E-06 -5.000672E-06 +9.669735E-06 -1.551866E-04 +1.411340E-04 -5.000672E-06 +1.411340E-04 -5.625642E-06 
 +5.047764E-03 +7.711733E-05 -3.550830E-06 +7.711733E-05 -2.100402E-04 +1.488461E-04 -3.550830E-06 +1.488461E-04 -2.377477E-05 
 +5.076213E-03 +1.171440E-04 +2.037866E-05 +1.171440E-04 -2.534545E-04 +1.969542E-04 +2.037866E-05 +1.969542E-04 -8.577920E-06 
 +5.061652E-03 +1.602192E-04 +4.412679E-05 +1.602192E-04 -2.341208E-04 +2.683600E-04 +4.412679E-05 +2.683600E-04 +2.391260E-05 
 +5.033300E-03 +1.028852E-04 +3.469580E-05 +1.028852E-04 -1.723597E-04 +3.552774E-04 +3.469580E-05 +3.552774E-04 +8.537035E-05 
 +4.998152E-03 +3.387344E-05 +4.449870E-05 +3.387344E-05 -1.309695E-04 +4.290187E-04 +4.449870E-05 +4.290187E-04 +1.558964E-04 
 +4.987239E-03 +1.064588E-04 -1.055790E-05 +1.064588E-04 -3.315572E-05 +3.946866E-04 -1.055790E-05 +3.946866E-04 +1.428580E-04 
 +4.941880E-03 +1.401664E-04 -5.565363E-05 +1.401664E-04 +1.217081E-04 +2.944173E-04 -5.565363E-05 +2.944173E-04 -7.495702E-05 
 +4.852048E-03 +7.070845E-05 +6.259098E-06 +7.070845E-05 +1.998967E-04 +2.870257E-04 +6.259098E-06 +2.870257E-04 -1.513655E-04 
 +4.776767E-03 -1.368441E-06 +9.029788E-06 -1.368441E-06 +2.693769E-04 +2.680752E-04 +9.029788E-06 +2.680752E-04 -1.297750E-04 
 +4.854360E-03 -9.409715E-05 +5.952764E-05 -9.409715E-05 +2.119196E-04 +7.104954E-05 +5.952764E-05 +7.104954E-05 -2.378210E-04 
 +4.840951E-03 -3.071891E-05 -2.757811E-06 -3.071891E-05 +1.414397E-04 -1.770069E-04 -2.757811E-06 -1.770069E-04 -1.615841E-04 
 +4.835032E-03 +5.062013E-05 -4.301939E-05 +5.062013E-05 +9.735639E-05 -2.687181E-04 -4.301939E-05 -2.687181E-04 -6.080705E-05 
 +4.882602E-03 +1.619816E-04 -3.959932E-05 +1.619816E-04 +5.212751E-05 -1.994275E-04 -3.959932E-05 -1.994275E-04 -6.005271E-06 
 +4.945873E-03 +1.778263E-04 -9.460893E-05 +1.778263E-04 -1.068892E-05 -8.137808E-05 -9.460893E-05 -8.137808E-05 +5.900331E-06 
 +5.076211E-03 +9.661359E-05 -1.510315E-05 +9.661359E-05 -3.293824E-05 -7.187429E-06 -1.510315E-05 -7.187429E-06 -4.105269E-05 
 +5.107534E-03 -8.138486E-06 -3.584550E-05 -8.138486E-06 -6.090018E-05 -4.563648E-05 -3.584550E-05 -4.563648E-05 -6.268537E-05 
 +5.130805E-03 -9.059515E-05 -6.834750E-05 -9.059515E-05 -5.503134E-05 -1.828629E-04 -6.834750E-05 -1.828629E-04 -1.268062E-05 
 +5.129191E-03 -9.748247E-05 -1.108791E-04 -9.748247E-05 -9.917469E-05 -3.238139E-04 -1.108791E-04 -3.238139E-04 +3.911093E-05 
 +5.114820E-03 -9.768737E-05 -9.341007E-05 -9.768737E-05 -1.465347E-04 -3.660623E-04 -9.341007E-05 -3.660623E-04 +1.511597E-05 
 +4.967059E-03 -6.984648E-05 -4.075445E-05 -6.984648E-05 -8.458078E-05 -1.975545E-04 -4.075445E-05 -1.975545E-04 +9.681795E-06 
 +4.995758E-03 +6.044041E-06 -2.801801E-05 +6.044041E-06 -1.397185E-04 +5.652888E-06 -2.801801E-05 +5.652888E-06 -2.940060E-07 
 +5.016449E-03 +8.561802E-05 +3.362270E-05 +8.561802E-05 -2.068299E-04 +8.075910E-05 +3.362270E-05 +8.075910E-05 -4.397404E-05 
 +5.013176E-03 +9.227781E-05 +9.060916E-05 +9.227781E-05 -1.940437E-04 +1.083621E-04 +9.060916E-05 +1.083621E-04 -5.157642E-05 
 +5.007005E-03 +1.404224E-04 +1.566441E-04 +1.404224E-04 -1.734765E-04 +1.467196E-04 +1.566441E-04 +1.467196E-04 -4.952771E-05 
 +5.027165E-03 +1.229853E-04 +3.474740E-05 +1.229853E-04 -8.935376E-05 +1.928511E-04 +3.474740E-05 +1.928511E-04 +5.137210E-05 
 +4.969300E-03 +1.034236E-04 +4.095918E-05 +1.034236E-04 +4.734386E-05 +1.522083E-04 +4.095918E-05 +1.522083E-04 +7.326514E-05 
 +5.016233E-03 +1.823669E-04 +1.288643E-05 +1.823669E-04 +1.481172E-04 +6.662200E-05 +1.288643E-05 +6.662200E-05 -1.062774E-04 
 +4.993259E-03 +1.900381E-04 -5.589647E-05 +1.900381E-04 +1.634044E-04 +1.490085E-04 -5.589647E-05 +1.490085E-04 -2.449195E-04 
 +4.935676E-03 +9.749088E-05 +5.181166E-05 +9.749088E-05 +1.729389E-04 +2.712304E-04 +5.181166E-05 +2.712304E-04 -2.468963E-04 
 +4.879894E-03 -1.145242E-05 +5.387624E-05 -1.145242E-05 +2.153491E-04 +2.604323E-04 +5.387624E-05 +2.604323E-04 -2.279321E-04 
 +4.841329E-03 -8.204211E-05 -2.790650E-05 -8.204211E-05 +9.571116E-05 -8.592440E-05 -2.790650E-05 -8.592440E-05 -1.697625E-04 
 +4.785552E-03 -6.580683E-05 -5.986390E-05 -6.580683E-05 +1.349865E-04 -2.592413E-04 -5.986390E-05 -2.592413E-04 -8.739206E-05 
 +4.796785E-03 +2.954922E-05 -5.975139E-05 +2.954922E-05 +1.320326E-04 -2.509830E-04 -5.975139E-05 -2.509830E-04 -3.811237E-05 
 +4.865605E-03 +1.301615E-04 -8.074688E-05 +1.301615E-04 +5.917187E-05 -1.859825E-04 -8.074688E-05 -1.859825E-04 +3.090147E-06 
 +4.915630E-03 +1.570957E-04 -6.695393E-05 +1.570957E-04 -1.283548E-05 -4.946885E-05 -6.695393E-05 -4.946885E-05 +5.318175E-06 
 +5.058511E-03 +5.678785E-05 +1.269478E-05 +5.678785E-05 -3.825313E-05 +6.200287E-05 +1.269478E-05 +6.200287E-05 -4.400375E-05 
 +5.121449E-03 -7.293516E-05 -9.805149E-05 -7.293516E-05 -5.585958E-05 -8.972901E-06 -9.805149E-05 -8.972901E-06 -7.144003E-05 
 +5.124267E-03 -1.067710E-04 -1.206766E-04 -1.067710E-04 -7.338580E-05 -1.838560E-04 -1.206766E-04 -1.838560E-04 +2.252466E-06 
 +5.084425E-03 -1.756724E-04 +8.245748E-06 -1.756724E-04 -1.112189E-04 -3.025459E-04 +8.245748E-06 -3.025459E-04 +1.124319E-04 
 +5.150307E-03 -1.931888E-04 -7.412364E-06 -1.931888E-04 -2.253540E-04 -4.231620E-04 -7.412364E-06 -4.231620E-04 +6.524379E-05 
 +5.148965E-03 -1.084061E-04 -6.806435E-05 -1.084061E-04 -2.724708E-04 -4.287879E-04 -6.806435E-05 -4.287879E-04 +5.958454E-06 
 +4.970012E-03 +2.618612E-06 +5.334850E-05 +2.618612E-06 -1.174091E-04 -2.546980E-04 +5.334850E-05 -2.546980E-04 +3.556122E-06 
 +4.948133E-03 +8.147193E-05 +1.123633E-04 +8.147193E-05 -3.469725E-06 -1.364939E-04 +1.123633E-04 -1.364939E-04 -2.039203E-05 
 +4.932505E-03 +9.697433E-05 +1.727473E-04 +9.697433E-05 +2.083605E-05 -1.498799E-04 +1.727473E-04 -1.498799E-04 -2.771856E-05 
 +4.924668E-03 +1.403413E-04 +2.069298E-04 +1.403413E-04 +1.831186E-05 -9.361000E-05 +2.069298E-04 -9.361000E-05 -8.311064E-05 
 +5.065612E-03 +1.251114E-04 +1.776119E-05 +1.251114E-04 -4.045950E-05 +1.364020E-04 +1.776119E-05 +1.364020E-04 -8.411830E-05 
 +5.003663E-03 +1.869992E-04 +5.130993E-05 +1.869992E-04 +3.727632E-05 +2.309765E-04 +5.130993E-05 +2.309765E-04 -8.071378E-05 
 +5.017803E-03 +2.012036E-04 +1.212615E-04 +2.012036E-04 +1.318621E-04 +1.128344E-04 +1.212615E-04 +1.128344E-04 -2.265070E-04 
 +5.039119E-03 +1.759009E-04 +3.577994E-05 +1.759009E-04 +1.026639E-04 +1.507213E-04 +3.577994E-05 +1.507213E-04 -3.496160E-04 
 +5.002903E-03 +1.213108E-04 +2.235909E-05 +1.213108E-04 +1.280569E-04 +2.484316E-04 +2.235909E-05 +2.484316E-04 -3.231062E-04 
 +4.941053E-03 +7.738678E-06 +3.853609E-05 +7.738678E-06 +1.234094E-04 +1.734282E-04 +3.853609E-05 +1.734282E-04 -2.430139E-04 
 +4.830905E-03 -6.377586E-05 -1.164151E-04 -6.377586E-05 +1.924318E-04 +9.552196E-05 -1.164151E-04 +9.552196E-05 -8.855030E-05 
 +4.742494E-03 -2.924304E-05 -9.721806E-05 -2.924304E-05 +2.710880E-04 -8.867747E-05 -9.721806E-05 -8.867747E-05 -4.475607E-05 
 +4.767411E-03 -1.533733E-05 -1.419764E-04 -1.533733E-05 +1.791118E-04 -2.074629E-04 -1.419764E-04 -2.074629E-04 -1.076142E-05 
 +4.865769E-03 +1.078088E-04 -1.211724E-04 +1.078088E-04 +6.952674E-05 -1.529284E-04 -1.211724E-04 -1.529284E-04 +2.359242E-05 
 +4.913000E-03 +1.609281E-04 -4.358116E-05 +1.609281E-04 +3.081182E-06 -2.795629E-07 -4.358116E-05 -2.795629E-07 +2.430248E-05 
 +5.071362E-03 +1.414862E-04 -5.886788E-06 +1.414862E-04 -1.019970E-04 -7.143220E-06 -5.886788E-06 -7.143220E-06 +4.631816E-06 
 +5.122830E-03 +7.120054E-05 -1.601398E-04 +7.120054E-05 -1.007180E-04 -5.488497E-05 -1.601398E-04 -5.488497E-05 -5.343462E-05 
 +5.036520E-03 -2.231878E-05 -7.325454E-05 -2.231878E-05 -1.092543E-05 -6.685053E-05 -7.325454E-05 -6.685053E-05 +6.400138E-09 
 +5.065598E-03 -1.801342E-04 +1.325800E-04 -1.801342E-04 -5.590683E-06 -1.717185E-04 +1.325800E-04 -1.717185E-04 +7.770152E-05 
 +5.141838E-03 -2.006638E-04 +9.359675E-06 -2.006638E-04 -1.136937E-04 -3.001649E-04 +9.359675E-06 -3.001649E-04 +3.954129E-05 
 +5.222995E-03 -9.441594E-05 -1.077807E-04 -9.441594E-05 -1.790370E-04 -2.796925E-04 -1.077807E-04 -2.796925E-04 +3.363867E-05 
 +4.964768E-03 +4.280597E-06 +9.275944E-05 +4.280597E-06 -8.995210E-05 -2.003539E-04 +9.275944E-05 -2.003539E-04 -1.127439E-05 
 +4.921540E-03 +1.608847E-05 +1.599684E-04 +1.608847E-05 +2.858306E-05 -1.761858E-04 +1.599684E-04 -1.761858E-04 -7.672712E-05 
 +4.898091E-03 +8.408759E-05 +2.021167E-04 +8.408759E-05 +8.341093E-05 -1.837047E-04 +2.021167E-04 -1.837047E-04 -9.186071E-05 
 +4.876114E-03 +1.383292E-04 +1.573594E-04 +1.383292E-04 +1.510216E-04 -1.951534E-04 +1.573594E-04 -1.951534E-04 -2.120577E-04 
 +5.096281E-03 +1.483776E-04 -3.314483E-05 +1.483776E-04 +2.287949E-04 -1.716442E-04 -3.314483E-05 -1.716442E-04 -4.254241E-04 
 +5.073804E-03 +2.605327E-04 +1.237849E-04 +2.605327E-04 +2.453965E-04 -8.909516E-05 +1.237849E-04 -8.909516E-05 -4.454471E-04 
 +5.028059E-03 +2.198855E-04 +1.643364E-04 +2.198855E-04 +2.160644E-04 -6.992157E-05 +1.643364E-04 -6.992157E-05 -3.453003E-04 
 +5.021809E-03 +1.622466E-04 +9.729565E-05 +1.622466E-04 +1.600833E-04 -2.150020E-05 +9.729565E-05 -2.150020E-05 -3.958811E-04 
 +5.063900E-03 +1.025683E-04 +7.484938E-05 +1.025683E-04 +5.956245E-05 +2.005061E-04 +7.484938E-05 +2.005061E-04 -3.936735E-04 
 +5.013166E-03 -3.273704E-05 -6.564529E-05 -3.273704E-05 +6.390870E-05 +2.794660E-04 -6.564529E-05 +2.794660E-04 -2.176807E-04 
 +4.814569E-03 -1.038446E-04 -1.646169E-04 -1.038446E-04 -2.105035E-05 +8.942132E-05 -1.646169E-04 +8.942132E-05 +1.844783E-05 
 +4.738950E-03 -1.605791E-04 -1.921659E-04 -1.605791E-04 +8.067408E-05 -1.828035E-05 -1.921659E-04 -1.828035E-05 +7.209950E-05 
 +4.793501E-03 -1.512205E-04 -2.558299E-04 -1.512205E-04 +1.194232E-04 -7.080923E-05 -2.558299E-04 -7.080923E-05 +4.056292E-05 
 +4.938790E-03 +5.142398E-05 -2.016685E-04 +5.142398E-05 +7.198710E-05 -6.099246E-05 -2.016685E-04 -6.099246E-05 -9.645578E-06 
 +4.986807E-03 +1.096148E-04 -8.572479E-05 +1.096148E-04 -7.377713E-05 -1.464383E-05 -8.572479E-05 -1.464383E-05 +2.002698E-05 
 +5.057023E-03 +7.478091E-05 -4.981364E-05 +7.478091E-05 -1.939187E-04 -4.821682E-06 -4.981364E-05 -4.821682E-06 +4.789550E-05 
 +5.061889E-03 +7.821790E-05 -1.027395E-04 +7.821790E-05 -9.694280E-05 +1.263523E-05 -1.027395E-04 +1.263523E-05 -1.411626E-06 
 +5.032879E-03 -4.536054E-06 -1.568211E-05 -4.536054E-06 +5.916952E-05 -5.283415E-05 -1.568211E-05 -5.283415E-05 +3.439156E-06 
 +5.056621E-03 -1.829575E-04 +1.171000E-04 -1.829575E-04 -2.811619E-05 -2.233243E-04 +1.171000E-04 -2.233243E-04 +4.227384E-06 
 +5.108824E-03 -2.020255E-04 +2.478925E-05 -2.020255E-04 -1.136102E-04 -2.865865E-04 +2.478925E-05 -2.865865E-04 +1.428873E-06 
 +5.090336E-03 -8.875790E-05 -1.684849E-06 -8.875790E-05 -5.182182E-05 -2.370623E-04 -1.684849E-06 -2.370623E-04 +4.986995E-05 
 +4.951838E-03 +2.684840E-05 +1.258317E-04 +2.684840E-05 +1.073026E-05 -1.701616E-04 +1.258317E-04 -1.701616E-04 -5.280236E-07 
 +4.934497E-03 +1.491578E-05 +1.480356E-04 +1.491578E-05 +6.558391E-05 -1.191824E-04 +1.480356E-04 -1.191824E-04 -6.453748E-05 
 +4.899034E-03 +7.483885E-05 +1.570017E-04 +7.483885E-05 +1.379500E-04 -1.055566E-04 +1.570017E-04 -1.055566E-04 -8.799641E-05 
 +4.920957E-03 +1.570707E-04 -1.289113E-06 +1.570707E-04 +1.745036E-04 -1.282633E-04 -1.289113E-06 -1.282633E-04 -2.276370E-04 
 +5.081874E-03 +1.667192E-04 -1.519788E-04 +1.667192E-04 +1.974202E-04 -9.870912E-05 -1.519788E-04 -9.870912E-05 -4.370794E-04 
 +5.112502E-03 +1.893644E-04 +2.481977E-05 +1.893644E-04 +2.056720E-04 -4.504551E-05 +2.481977E-05 -4.504551E-05 -4.892134E-04 
 +5.090728E-03 +1.708854E-04 +5.900012E-05 +1.708854E-04 +2.006701E-04 -5.964778E-05 +5.900012E-05 -5.964778E-05 -3.782692E-04 
 +5.035134E-03 +1.347534E-04 +5.320344E-05 +1.347534E-04 +1.817862E-04 -1.126916E-04 +5.320344E-05 -1.126916E-04 -3.245182E-04 
 +5.072943E-03 +4.534849E-05 +1.679322E-04 +4.534849E-05 +4.438785E-05 -9.638541E-05 +1.679322E-04 -9.638541E-05 -3.109757E-04 
 +4.958566E-03 -3.981188E-05 -2.928110E-05 -3.981188E-05 -8.547698E-05 +6.174712E-05 -2.928110E-05 +6.174712E-05 -1.476137E-04 
